,Time,S11,S22,S33,S12,S13,S23,LE11,LE22,LE33,LE12,LE13,LE23,SDV_EPBAR,E11,E12,E13,E22,E23,E33
0,1e-05,0.0207746,0.0623238,-6.93889e-18,0.0359827,7.22285e-19,1.93535e-19,1e-08,2.7e-07,-1.2e-07,4.50333e-07,3.30872e-24,5.73087e-24,0.0,9.99999993922529e-09,4.5033310147601924e-07,0.0,2.700000365507549e-07,0.0,-1.1999999283140994e-07
1,2e-05,0.0415492,0.124648,1.38778e-17,0.0719653,-2.64375e-19,-4.5791e-19,2.00042e-08,5.40001e-07,-2.40006e-07,9.00661e-07,2.29238e-23,-1.3235e-23,0.0,2.0004200296241947e-08,9.006614056783491e-07,0.0,5.400011457989962e-07,0.0,-2.4000597120821254e-07
2,3.5e-05,0.0727111,0.218133,2.08167e-17,0.125939,-5.51297e-32,-9.52372e-32,3.50025e-08,9.45e-07,-4.20003e-07,1.57616e-06,4.5848e-23,-2.64703e-23,0.0,3.5002500675673787e-08,1.5761612421894e-06,0.0,9.450004465616502e-07,0.0,-4.2000291178290183e-07
3,5.75e-05,0.119454,0.358361,2.08167e-17,0.2069,-1.97332e-18,-1.30289e-18,5.75064e-08,1.5525e-06,-6.90008e-07,2.58941e-06,7.84595e-23,-7.58632e-23,0.0,5.750640164059462e-08,2.58941335262719e-06,0.0,1.5525012051487153e-06,0.0,-6.900077619276246e-07
4,9.125e-05,0.189568,0.568704,3.46945e-17,0.328341,-1.8696e-18,-7.46823e-18,9.12598e-08,2.46375e-06,-1.09501e-06,4.10927e-06,-2.64696e-23,-4.58468e-23,0.0,9.125980415802815e-08,4.109278443076292e-06,0.0,2.4637530351423464e-06,0.0,-1.0950094004869015e-06
5,0.00014188,0.294739,0.884216,-4.85723e-17,0.510503,-5.2874e-19,-9.15805e-19,1.41883e-07,3.83062e-06,-1.70251e-06,6.38907e-06,4.88201e-29,8.45589e-29,0.0,1.4188301000750414e-07,6.389090410063858e-06,0.0,3.830627336887105e-06,0.0,-1.7025085506938709e-06
6,0.00021781,0.452495,1.35748,-4.85723e-17,0.783744,2.45409e-19,-3.80493e-18,2.17824e-07,5.88092e-06,-2.61376e-06,9.80876e-06,2.24852e-28,3.89455e-28,0.0,2.1782402370718046e-07,9.808808105971067e-06,0.0,5.88093729270156e-06,0.0,-2.613756584168847e-06
7,0.00033172,0.689128,2.06738,1.17961e-16,1.1936,3.9087e-18,-5.91991e-18,3.31717e-07,8.95635e-06,-3.9806e-06,1.49383e-05,3.42438e-28,5.9312e-28,0.0,3.3171705493550974e-07,1.4938411576848054e-05,0.0,8.956390108227907e-06,0.0,-3.980592077401646e-06
8,0.00050258,1.04408,3.13223,-3.26128e-16,1.80839,-4.5512e-18,-2.05729e-17,5.0259e-07,1.35695e-05,-6.0309e-06,2.26325e-05,-1.05877e-22,-1.83384e-22,0.0,5.025901264055221e-07,2.2632756117024755e-05,0.0,1.3569592065998393e-05,0.0,-6.030881814167444e-06
9,0.00075887,1.57649,4.72948,-4.3715e-16,2.73056,-7.64769e-18,-9.01619e-18,7.58882e-07,2.04891e-05,-9.1063e-06,3.41738e-05,-1.46712e-21,8.47046e-22,0.0,7.588822878989987e-07,3.417438393094052e-05,0.0,2.048930990294906e-05,0.0,-9.10625853778324e-06
10,0.0011433,2.37511,7.12532,-4.3715e-16,4.11381,1.15386e-17,5.80553e-17,1.14331e-06,3.08684e-05,-1.37193e-05,5.14854e-05,-3.45608e-21,2.48436e-21,0.0,1.1433106534841642e-06,5.148672539601051e-05,0.0,3.086887643388714e-05,0.0,-1.3719205890883046e-05
11,0.00172,3.57301,10.719,-6.21031e-15,6.18863,-1.38415e-17,1.40958e-17,1.71994e-06,4.64371e-05,-2.06388e-05,7.74524e-05,-4.40141e-21,2.54115e-21,0.0,1.7199414790169953e-06,7.745539951464764e-05,0.0,4.643817821881058e-05,0.0,-2.0638587021393207e-05
12,0.0025849,5.3698,16.1094,-3.4632e-14,9.30077,-1.38416e-17,1.40956e-17,2.58481e-06,6.97894e-05,-3.10175e-05,0.000116402,-4.44723e-27,-7.70283e-27,0.0,2.584813340700265e-06,0.0001164087749756515,0.0,6.979183533672995e-05,0.0,-3.101701896235376e-05
13,0.0035849,7.44701,22.341,-7.68205e-14,12.8986,1.99965e-17,7.27048e-17,3.58471e-06,9.67861e-05,-4.30161e-05,0.00016143,-2.93442e-21,1.69399e-21,0.0,3.5847164250313313e-06,0.00016144303052367803,0.0,9.67907839257709e-05,0.0,-4.301517482085959e-05
14,0.0045849,9.52413,28.5724,-8.79227e-14,16.4963,4.47689e-17,-1.97479e-17,4.58453e-06,0.000123782,-5.50141e-05,0.000206456,-5.86876e-21,3.38831e-21,0.0,4.58454050900059e-06,0.00020647731350664777,0.0,0.00012378966130777158,0.0,-5.501258675211229e-05
15,0.0055849,11.6012,34.8035,-8.52582e-14,20.0938,4.28398e-18,3.1621e-16,5.58437e-06,0.000150776,-6.70117e-05,0.00025148,-1.17381e-20,6.77585e-21,0.0,5.584385592616314e-06,0.00025151162374603686,0.0,0.00015078736727236475,0.0,-6.700945476623144e-05
16,0.0065849,13.6781,41.0344,-8.21496e-14,23.6912,2.94016e-16,3.44281e-16,6.58412e-06,0.00017777,-7.90088e-05,0.000296502,-1.17387e-20,6.77515e-21,0.0,6.584141675425315e-06,0.0002965459610626553,0.0,0.00017778580202287841,0.0,-7.900567888696752e-05
17,0.0075849,15.755,47.265,-8.21496e-14,27.2884,1.67716e-16,2.60882e-16,7.58385e-06,0.000204762,-9.10054e-05,0.000341523,-2.6865e-20,7.68349e-21,0.0,7.583878757433382e-06,0.0003415813256193445,0.0,0.00020478296516923677,0.0,-9.100125913419355e-05
18,0.0085849,17.8318,53.4953,-8.17055e-14,30.8856,1.92482e-16,1.68419e-16,8.58352e-06,0.000231753,-0.000103002,0.000386541,-1.85157e-20,-4.96225e-21,0.0,8.583556838415163e-06,0.00038661571659903693,0.0,0.0002317798568012286,0.0,-0.00010299669547608747
19,0.0095849,19.9085,59.7255,-9.01432e-14,34.4825,2.13927e-16,2.73242e-16,9.5832e-06,0.000258743,-0.000114997,0.000431558,-1.85163e-20,-4.963e-21,0.0,9.583245919042582e-06,0.0004316511345507923,0.0,0.0002587764768573475,0.0,-0.00011499038809847928
20,0.010585,21.9851,65.9553,-8.17055e-14,38.0793,3.68715e-17,1.01933e-16,1.05827e-05,0.000285733,-0.000126992,0.000476574,-6.77749e-21,-1.1739e-20,0.0,1.058275599685743e-05,0.00047668757943108986,0.0,0.0002857738255619413,0.0,-0.00012698393685728337
21,0.011585,24.0616,72.1849,-8.9255e-14,41.676,2.64672e-16,3.61136e-16,1.15823e-05,0.000312721,-0.000138987,0.000521587,-2.34786e-20,1.35515e-20,0.0,1.1582367074991495e-05,0.0005217230501521897,0.0,0.0003127699023093289,0.0,-0.00013897734175438714
22,0.012585,26.1381,78.4143,-8.12614e-14,45.2725,3.86418e-16,3.68965e-16,1.25818e-05,0.000339708,-0.000150981,0.000566598,-2.34793e-20,1.3551e-20,0.0,1.2581879151207787e-05,0.0005667585469673053,0.0,0.0003397657072969906,0.0,-0.0001509696029423635
23,0.013585,28.2145,84.6434,-8.61464e-14,48.8689,4.7674e-16,8.63808e-16,1.35812e-05,0.000366693,-0.000162975,0.000611608,-4.36028e-24,-7.55223e-24,0.0,1.3581292224840169e-05,0.0006117950703088404,0.0,0.0003667602400967418,0.0,-0.00016296172029606204
24,0.014585,30.2908,90.8723,-8.437e-14,52.4651,6.40165e-16,8.08469e-16,1.45807e-05,0.000393678,-0.000174968,0.000656616,-3.52215e-20,2.0324e-20,0.0,1.4580806299013815e-05,0.0006568316194761614,0.0,0.00039375550135378745,0.0,-0.00017495269399214752
25,0.015585,32.367,97.1009,-8.08173e-14,56.0612,4.70948e-16,5.15376e-16,1.55801e-05,0.000420662,-0.000186961,0.000701622,-3.45798e-24,-5.9894e-24,0.0,1.558022137038151e-05,0.0007018681942905225,0.0,0.00042075049066681025,0.0,-0.0001869435238813777
26,0.016585,34.4431,103.329,-9.50282e-14,59.6572,5.35283e-16,8.29847e-16,1.65795e-05,0.000447645,-0.000198953,0.000746627,-2.34837e-20,1.3546e-20,0.0,1.657963744072788e-05,0.0007469057953195524,0.0,0.00044774520797496997,0.0,-0.0001989332101642871
27,0.017585,36.5191,109.557,-7.85969e-14,63.253,7.72125e-16,1.24007e-15,1.75788e-05,0.000474626,-0.000210945,0.000791629,-1.17477e-20,6.76324e-21,0.0,1.7578954508046252e-05,0.0007919424209357206,0.0,0.00047473865274194615,0.0,-0.00021092275266787475
28,0.018585,38.5951,115.785,-8.52582e-14,66.8487,4.63011e-16,6.36989e-16,1.8578e-05,0.000501607,-0.000222936,0.00083663,-6.78251e-21,-1.17477e-20,0.0,1.8578172572114582e-05,0.0008369800724987719,0.0,0.0005017328258287712,0.0,-0.00022291115161654496
29,0.019585,40.671,122.013,-7.59323e-14,70.4442,6.86262e-16,8.20631e-16,1.95774e-05,0.000528586,-0.000234927,0.000881629,-1.17463e-20,6.76622e-21,0.0,1.9577591638508807e-05,0.0008820177490824754,0.0,0.0005287257261976652,0.0,-0.00023489940681320487
30,0.020585,42.7468,128.24,-7.63764e-14,74.0396,5.61155e-16,1.01002e-15,2.05765e-05,0.000555564,-0.000246918,0.000926626,-7.73899e-24,-1.34043e-23,0.0,2.0576711697639638e-05,0.0009270554505083073,0.0,0.00055571835426238,0.0,-0.0002468875182595198
31,0.021585,44.8225,134.467,-7.63764e-14,77.6348,7.1672e-16,1.07643e-15,2.15756e-05,0.000582542,-0.000258907,0.000971622,-9.0651e-24,-1.57012e-23,0.0,2.157583275486097e-05,0.0009720941775690495,0.0,0.000582711710543693,0.0,-0.00025887348647501973
32,0.022585,46.8981,140.694,-7.59323e-14,81.2299,2.55339e-16,2.0961e-16,2.25748e-05,0.000609518,-0.000270897,0.00101662,-1.35585e-20,-2.3484e-20,0.0,2.2575054812623563e-05,0.0010171369332723224,0.0,0.0006097037938423977,0.0,-0.00027086031072076633
33,0.023585,48.9736,146.921,-7.59323e-14,84.8248,3.61377e-16,4.60954e-16,2.3574e-05,0.000636493,-0.000282886,0.00106161,-2.34848e-20,1.35486e-20,0.0,2.3574277868920746e-05,0.0010621737073575055,0.0,0.0006366956046526262,0.0,-0.0002828459915281689
34,0.024585,51.0491,153.147,-7.14914e-14,88.4196,5.22698e-16,8.75729e-16,2.4573e-05,0.000663467,-0.000294874,0.0011066,-6.05259e-20,3.61833e-21,0.0,2.4573301918628943e-05,0.0011072125076927453,0.0,0.0006636871429133162,0.0,-0.0002948305289349751
35,0.025585,53.1245,159.373,-7.37119e-14,92.0143,9.063e-17,-7.99402e-18,2.5572e-05,0.00069044,-0.000306862,0.00115158,-1.3557e-20,-2.34814e-20,0.0,2.557232696642764e-05,0.001152243322846802,0.0,0.0006906784085625173,0.0,-0.00030681492267203847
36,0.026585,55.1998,165.599,-8.57023e-14,95.6088,6.87329e-16,1.0932e-15,2.65709e-05,0.000717412,-0.00031885,0.00119657,-3.64369e-21,-6.05385e-20,0.0,2.657125300942198e-05,0.0011972861755054076,0.0,0.0007176694015396112,0.0,-0.00031879917274102443
37,0.027585,57.275,171.825,-8.61464e-14,99.2032,4.10468e-17,1.76845e-16,2.75698e-05,0.000744382,-0.000330837,0.00124156,-3.704e-20,-9.92712e-21,0.0,2.757018005050682e-05,0.0012423310546874067,0.0,0.0007446591210380493,0.0,-0.000330782279474362
38,0.028585,59.3501,178.05,-6.74946e-14,102.797,6.93032e-16,1.44148e-15,2.85686e-05,0.000771352,-0.000342823,0.00128654,-1.48345e-23,-2.5694e-23,0.0,2.8569008086343217e-05,0.0012873679476101962,0.0,0.0007716495684590985,0.0,-0.0003427642429099098
39,0.029585,61.4252,184.275,-8.65905e-14,106.392,6.57943e-16,1.10998e-15,2.95676e-05,0.000798321,-0.000354809,0.00133152,2.34696e-20,-1.35789e-20,0.0,2.9568037125837776e-05,0.001332406866338287,0.0,0.0007986397430235215,0.0,-0.00035474606273055986
40,0.030585,63.5001,190.5,-8.48141e-14,109.985,4.88719e-16,8.16876e-16,3.05664e-05,0.000825288,-0.000366795,0.0013765,-9.47677e-24,-1.64143e-23,0.0,3.056686715718904e-05,0.0013774478109622734,0.0,0.0008256286438448335,0.0,-0.0003667277389378665
41,0.031585,65.575,196.725,-6.9271e-14,113.579,2.31584e-16,5.74546e-16,3.15651e-05,0.000852255,-0.00037878,0.00142148,-2.34889e-20,1.35467e-20,0.0,3.156559818306981e-05,0.0014224907815736376,0.0,0.0008526182724855058,0.0,-0.0003787082719124424
42,0.032585,67.6498,202.949,-7.01592e-14,117.173,5.65418e-16,1.08508e-15,3.25639e-05,0.00087922,-0.000390765,0.00146645,-1.29647e-23,-2.24554e-23,0.0,3.2564430209491846e-05,0.0014675257635881067,0.0,0.0008796066272060976,0.0,-0.0003906886613012084
43,0.033585,69.7245,209.174,-7.32678e-14,120.766,4.46953e-16,8.79895e-16,3.35624e-05,0.000906184,-0.000402749,0.00151143,-1.07753e-23,-1.86633e-23,0.0,3.356296322354346e-05,0.001512572785997035,0.0,0.0009065947087707471,0.0,-0.000402667907508536
44,0.034585,71.7992,215.397,-8.57023e-14,124.36,1.15629e-17,1.93457e-16,3.4561e-05,0.000933148,-0.000414732,0.0015564,-1.35601e-20,-2.34868e-20,0.0,3.4561597238136343e-05,0.0015576118190900878,0.0,0.0009335835180519503,0.0,-0.00041464601057206174
45,0.035585,73.8737,221.621,-8.30377e-14,127.953,-3.51598e-16,-3.00196e-16,3.55598e-05,0.00096011,-0.000426716,0.00160137,-3.7037e-20,-9.91665e-21,0.0,3.5560432257275565e-05,0.0016026528776342808,0.0,0.0009605710531481737,0.0,-0.00042662496967615926
46,0.036585,75.9482,227.844,-6.83828e-14,131.546,-1.49766e-16,-2.21332e-16,3.65583e-05,0.000987071,-0.000438698,0.00164634,9.92866e-21,-3.7037e-20,0.0,3.65589682627121e-05,0.00164769596172043,0.0,0.0009875583149043798,0.0,-0.00043860178610255485
47,0.037585,78.0226,234.068,-6.9271e-14,135.139,5.98004e-16,8.70804e-16,3.75567e-05,0.00101403,-0.00045068,0.0016913,-6.7922e-21,-1.17644e-20,0.0,3.755740526178997e-05,0.0016927310545120644,0.0,0.001014544302245124,0.0,-0.00045057845902352067
48,0.038585,80.0969,240.291,-1.0613e-13,138.732,1.32098e-16,-7.15299e-17,3.85553e-05,0.00104099,-0.000462662,0.00173627,3.14628e-21,-4.87857e-20,0.0,3.855604326519213e-05,0.001737778189504935,0.0,0.0010415320181522691,0.0,-0.0004625549884409441
49,0.039585,82.1711,246.513,-8.48141e-14,142.324,1.9645e-16,2.42972e-16,3.95536e-05,0.00106795,-0.000474643,0.00178123,-6.78346e-21,-1.17493e-20,0.0,3.955438225400343e-05,0.001782817332484532,0.0,0.0010685204616580624,0.0,-0.0004745303748309171
50,0.040585,84.2452,252.736,-6.39419e-14,145.917,-5.26547e-16,-9.41616e-16,4.05521e-05,0.0010949,-0.000486624,0.00182619,1.67198e-20,-2.5277e-20,0.0,4.055292224758311e-05,0.0018278585004698478,0.0,0.0010954996218270896,0.0,-0.00048650561774465917
51,0.041585,86.3193,258.958,-6.66064e-14,149.509,-2.60345e-16,-5.48221e-16,4.15504e-05,0.00112186,-0.000498605,0.00187115,8.16403e-24,1.41405e-23,0.0,4.155126322991087e-05,0.0018729016935512544,0.0,0.0011224895203190144,0.0,-0.0004984807171838357
52,0.042585,88.3932,265.18,-8.65905e-14,153.102,-4.61218e-17,-5.15575e-16,4.25489e-05,0.00114881,-0.000510585,0.00191611,-4.69648e-20,2.71301e-20,0.0,4.2549805217229064e-05,0.0019179469118204562,0.0,0.0011494701349736847,0.0,-0.0005104546736607318
53,0.043585,90.4671,271.401,-4.30697e-14,156.694,-6.70908e-16,-1.32702e-15,4.3547e-05,0.00117577,-0.000522564,0.00196106,-1.35386e-20,-2.34495e-20,0.0,4.3547948184397e-05,0.001962984135738033,0.0,0.0011764614885303448,0.0,-0.0005224274872128731
54,0.044585,92.5409,277.623,-4.35138e-14,160.286,-1.71151e-16,-3.26053e-16,4.45452e-05,0.00120272,-0.000534543,0.00200602,5.31893e-24,9.21266e-24,0.0,4.45461921521062e-05,0.0020080334042047454,0.0,0.001203443557749262,0.0,-0.0005344001573435175
55,0.045585,94.6146,283.844,-4.30697e-14,163.877,-8.35518e-16,-1.54445e-15,4.55436e-05,0.00122967,-0.000546521,0.00205097,3.34391e-20,-5.05613e-20,0.0,4.5544637125471965e-05,0.0020530746776012965,0.0,0.0012304263541447202,0.0,-0.0005463716846008104
56,0.046585,96.6883,290.065,-8.52582e-14,167.469,-1.7491e-15,-3.12683e-15,4.65418e-05,0.00125662,-0.000558499,0.00209592,3.34677e-20,-5.0513e-20,0.0,4.6542883086475584e-05,0.002098117975648739,0.0,0.0012574098777362597,0.0,-0.0005583430684640289
57,0.047585,98.7618,296.285,-8.65905e-14,171.061,-1.51335e-15,-2.98921e-15,4.75397e-05,0.00128357,-0.000570476,0.00214087,5.17427e-23,8.9621e-23,0.0,4.7540830029335623e-05,0.002143163298437667,0.0,0.0012843941285436422,0.0,-0.0005703133095051882
58,0.048585,100.835,302.506,-8.61464e-14,174.652,-8.86051e-16,-1.63197e-15,4.85379e-05,0.00131052,-0.000582454,0.00218582,2.93124e-23,5.07705e-23,0.0,4.853907798296753e-05,0.002188210646059563,0.0,0.0013113791065864078,0.0,-0.0005822844065973554
59,0.049585,102.909,308.726,-8.70345e-14,178.243,-1.60114e-15,-2.93822e-15,4.95361e-05,0.00133747,-0.00059443,0.00223076,6.68833e-20,-1.01124e-19,0.0,4.953732693291357e-05,0.0022332499962725016,0.0,0.0013383648118840963,0.0,-0.0005942533614889944
60,0.050585,104.982,314.946,-6.03892e-14,181.834,-8.90448e-16,-1.70727e-15,5.05338e-05,0.00136441,-0.000606406,0.00227571,-4.06506e-20,-7.04088e-20,0.0,5.053507685404135e-05,0.002278301393382476,0.0,0.0013653412308027857,0.0,-0.0006062221730414041
61,0.051585,107.055,321.166,-1.12348e-13,185.425,-1.22878e-15,-2.29328e-15,5.15318e-05,0.00139136,-0.000618381,0.00232065,-2.70782e-20,-4.69008e-20,0.0,5.153312778594099e-05,0.0023233447923647343,0.0,0.0013923283903993777,0.0,-0.0006181898418743392
62,0.052585,109.128,327.385,-5.86128e-14,189.016,-1.58069e-15,-3.10584e-15,5.25299e-05,0.0014183,-0.000630357,0.00236559,6.68913e-20,-1.01118e-19,0.0,5.2531279719270074e-05,0.002368390215642835,0.0,0.0014193062631164821,0.0,-0.0006301583667650545
63,0.053585,111.201,333.604,-1.11904e-13,192.607,-3.88408e-16,-1.17611e-15,5.35276e-05,0.00144524,-0.000642331,0.00241052,-5.42237e-20,-9.39183e-20,0.0,5.352903262756392e-05,0.0024134276391731824,0.0,0.0014462848626273228,0.0,-0.000642124749605899
64,0.054585,113.274,339.823,-6.12774e-14,196.197,-2.025e-15,-3.94309e-15,5.45256e-05,0.00147219,-0.000654305,0.00245546,-1.28268e-19,-1.13675e-19,0.0,5.452708654751781e-05,0.0024584771108653314,0.0,0.0014732742036840385,0.0,-0.0006540909891621371
65,0.055585,115.347,346.042,-5.77247e-14,199.787,-1.2883e-15,-2.53172e-15,5.55235e-05,0.00149913,-0.000666279,0.00250039,-8.1318e-20,-1.40847e-19,0.0,5.552504145800441e-05,0.002503518582091191,0.0,0.0015002542571107558,0.0,-0.0006660570854354342
66,0.056585,117.42,352.26,-3.19675e-14,203.378,-1.9526e-15,-3.75001e-15,5.65212e-05,0.00152607,-0.000678252,0.00254533,-1.08416e-19,-1.87782e-19,0.0,5.652279735302024e-05,0.0025485721025610975,0.0,0.0015272350373900512,0.0,-0.000678022039105719
67,0.057585,119.493,358.478,-8.65905e-14,206.968,-1.71109e-15,-3.26403e-15,5.7519e-05,0.00155301,-0.000690225,0.00259026,-3.43225e-20,-1.67943e-19,0.0,5.752065424946551e-05,0.002593617621845734,0.0,0.0015542165445410205,0.0,-0.0006899868495202632
68,0.058585,121.565,364.696,-1.16789e-13,210.558,-1.16505e-15,-2.25058e-15,5.85166e-05,0.00157994,-0.000702197,0.00263519,-7.40561e-20,-1.97726e-20,0.0,5.851831212955183e-05,0.0026386651650709414,0.0,0.0015811887627719123,0.0,-0.0007019505173830876
69,0.059585,121.814,365.586,-0.0221572,211.063,-0.00288378,-0.00499447,5.53144e-05,0.00160519,-0.000722096,0.00268546,-3.67681e-08,-6.36915e-08,3.4921e-05,5.531592986973699e-05,0.002689069077660644,-3.676809934294312e-08,0.0016064790070762225,-6.369149796459084e-08,-0.0007218353514248932
70,0.060585,122.092,366.425,-2.46898e-05,211.513,-0.00427408,-0.00740253,5.22117e-05,0.00163042,-0.000742028,0.00273571,-5.51831e-08,-9.56053e-08,7.03738e-05,5.221306305447371e-05,0.0027394554693291884,-5.5183098424116395e-08,0.0016317498573319433,-9.560529545815655e-08,-0.0007417527653050815
71,0.061585,122.348,367.222,-0.000502165,211.965,-0.00594915,-0.0103037,4.90892e-05,0.00165557,-0.000762025,0.00278611,-7.75605e-08,-1.34388e-07,0.00010592,4.909040489442518e-05,0.0027899948114655793,-7.756049702489776e-08,0.0016569412126208327,-1.3438799095766285e-07,-0.0007617347326847046
72,0.062585,122.603,368.013,-1.64735e-05,212.414,-0.00760067,-0.013164,4.59614e-05,0.00168071,-0.00078203,0.00283651,-1.00034e-07,-1.73342e-07,0.000141512,4.596245624122197e-05,0.00284053670084905,-1.0003399497637844e-07,0.0016821231846591012,-1.7334198498808462e-07,-0.0007817242942350644
73,0.063585,122.855,368.796,-3.94711e-05,212.858,-0.00924249,-0.0160075,4.28282e-05,0.00170585,-0.000802046,0.00288691,-1.22773e-07,-2.12765e-07,0.000177152,4.282911714037496e-05,0.0028910811376079426,-1.227729924391241e-07,0.001707305789779845,-2.1276497741418154e-07,-0.0008017244470793772
74,0.064585,123.104,369.571,-2.99067e-05,213.297,-0.010869,-0.0188245,3.96894e-05,0.00173099,-0.000822072,0.00293733,-1.45705e-07,-2.52527e-07,0.000212837,3.969018763472221e-05,0.0029416481807031936,-1.4570498940713605e-07,0.0017324890279994953,-2.525269681141751e-07,-0.0008217341913874243
75,0.065585,123.351,370.339,-2.99652e-05,213.733,-0.012481,-0.0216163,3.65451e-05,0.00175613,-0.000842108,0.00298774,-1.68835e-07,-2.92638e-07,0.000248568,3.654576778022722e-05,0.00299220774353115,-1.688349857698057e-07,0.0017576728993335955,-2.926379571999149e-07,-0.0008417535265667908
76,0.066585,123.596,371.1,-2.91139e-05,214.165,-0.0140786,-0.0243831,3.33954e-05,0.00178126,-0.000862153,0.00303816,-1.92159e-07,-3.33092e-07,0.000284342,3.339595763263148e-05,0.0030427798855585664,-1.9215898150459765e-07,0.001782847385969566,-3.330919444710645e-07,-0.000861781452886734
77,0.067585,123.839,371.854,-2.84866e-05,214.593,-0.0156619,-0.0271251,3.02405e-05,0.00180639,-0.000882207,0.00308859,-2.15676e-07,-3.73888e-07,0.00032016,3.0240957248572897e-05,0.003093364608431237,-2.1567597674465588e-07,0.0018080225052483634,-3.738879300607678e-07,-0.00088181796981468
78,0.068585,124.079,372.602,-2.78539e-05,215.017,-0.0172313,-0.0298429,2.70803e-05,0.00183151,-0.000902271,0.00313902,-2.39387e-07,-4.15022e-07,0.00035602,2.708066667467257e-05,0.003143951882355722,-2.393869713568364e-07,0.0018331882388540333,-4.1502191383546716e-07,-0.0009018640759157481
79,0.069585,124.318,373.343,-2.72432e-05,215.437,-0.0187868,-0.0325368,2.39152e-05,0.00185664,-0.000922343,0.00318946,-2.63288e-07,-4.56494e-07,0.000391922,2.3915485970693595e-05,0.003194551739406526,-2.6328796531860377e-07,0.0018583646232144257,-4.5649389579516253e-07,-0.0009219177724404393
80,0.070585,124.554,374.077,-2.6649e-05,215.854,-0.0203288,-0.0352071,2.0745e-05,0.00188176,-0.000942424,0.0032399,-2.87379e-07,-4.98301e-07,0.000427864,2.074521517902994e-05,0.003245154148778129,-2.873789587409803e-07,0.001883531621430068,-4.983008758951968e-07,-0.0009419800579736348
81,0.071585,124.788,374.805,-2.60713e-05,216.267,-0.0218573,-0.0378542,1.75699e-05,0.00190687,-0.000962514,0.00329034,-3.11658e-07,-5.4044e-07,0.000463846,1.7570054351656594e-05,0.003295759110599761,-3.116579514461648e-07,0.0019086892327615512,-5.404398539798905e-07,-0.0009620509319816506
82,0.072585,125.02,375.527,-2.55095e-05,216.676,-0.0233727,-0.0404785,1.43901e-05,0.00193199,-0.000982611,0.00334079,-3.36125e-07,-5.8291e-07,0.000499868,1.4390203537884005e-05,0.0033463766584638233,-3.3612494354517963e-07,0.0019338574951470733,-5.829098300713653e-07,-0.0009821283958949545
83,0.073585,125.25,376.242,-2.4963e-05,217.082,-0.0248751,-0.0430802,1.12055e-05,0.0019571,-0.00100272,0.00339124,-3.60778e-07,-6.25708e-07,0.000535928,1.1205562781890777e-05,0.003396996760047566,-3.607779349712459e-07,0.0019590163701770358,-6.257078042359865e-07,-0.0010022174442890774
84,0.074585,125.479,376.951,-2.44313e-05,217.484,-0.0263647,-0.0456596,8.01625e-06,0.00198221,-0.00102283,0.00344169,-3.85616e-07,-6.68832e-07,0.000572026,8.016282130318686e-06,0.0034476194154799966,-3.85615925635463e-07,0.0019841758769545415,-6.688317762959528e-07,-0.0010223070876942408
85,0.075585,125.705,377.655,-2.3914e-05,217.883,-0.0278416,-0.0482172,4.82246e-06,0.00200731,-0.00104295,0.00349215,-4.10638e-07,-7.1228e-07,0.000608161,4.822471628029845e-06,0.00349825465987208,-4.1063791567097496e-07,0.0020093259954017118,-7.122797462955077e-07,-0.0010424063166767361
86,0.076585,125.929,378.352,-2.34106e-05,218.279,-0.0293061,-0.0507532,1.62418e-06,0.00203241,-0.00106308,0.00354262,-4.35842e-07,-7.5605e-07,0.000644332,1.624181318993223e-06,0.0035489024948722747,-4.3584190501100295e-07,0.0020344767451248025,-7.560497141678724e-07,-0.0010625151306415948
87,0.077585,126.152,379.044,-2.29206e-05,218.671,-0.0307584,-0.053268,-1.5785e-06,0.00205752,-0.00108322,0.00359308,-4.61228e-07,-8.00139e-07,0.000680539,-1.5784987541511697e-06,0.003599542850137416,-4.6122789365554695e-07,0.0020596381467359315,-8.001386798683896e-07,-0.0010826335289939593
88,0.078585,126.372,379.73,-2.24436e-05,219.061,-0.0321986,-0.0557618,-4.78552e-06,0.00208261,-0.00110337,0.00364355,-4.86793e-07,-8.44546e-07,0.000716781,-4.785508549431938e-06,0.0036501957972814303,-4.867928815599498e-07,0.002084780138461806,-8.445456434191811e-07,-0.001102761511138195
89,0.079585,126.591,380.411,-2.19792e-05,219.447,-0.0336268,-0.058235,-7.9968e-06,0.00210771,-0.00112352,0.00369402,-5.12538e-07,-8.89268e-07,0.000753058,-7.99676802565319e-06,0.003700851300944219,-5.125378687020898e-07,0.002109932782107693,-8.892676045535453e-07,-0.0011228890877077458
90,0.080585,126.809,381.086,-2.1527e-05,219.83,-0.0350434,-0.0606878,-1.12123e-05,0.0021328,-0.00114368,0.0037445,-5.3846e-07,-9.34303e-07,0.000789368,-1.1212237142399495e-05,0.0037515193987700535,-5.384598550373099e-07,0.002135076035742145,-9.3430256353777e-07,-0.0011430262472805763
91,0.081585,127.024,381.756,-2.10866e-05,220.209,-0.0364483,-0.0631205,-1.44319e-05,0.00215789,-0.00116384,0.00379498,-5.64559e-07,-9.7965e-07,0.000825712,-1.4431795860581076e-05,0.0038021900543858678,-5.645588406766322e-07,0.0021602199202284122,-9.796495201719324e-07,-0.0011631630008922533
92,0.082585,127.238,382.42,-2.06576e-05,220.586,-0.0378419,-0.0655335,-1.76555e-05,0.00218298,-0.00118402,0.00384546,-5.90834e-07,-1.02531e-06,0.000862089,-1.7655344142553098e-05,0.003852863267920892,-5.90833825420134e-07,0.002185364435582926,-1.0253094743228885e-06,-0.0011833193248849128
93,0.083585,127.45,383.08,-2.02397e-05,220.96,-0.0392241,-0.0679269,-2.08831e-05,0.00220806,-0.0012042,0.00389595,-6.17282e-07,-1.07127e-06,0.000898497,-2.0882881949568777e-05,0.0039035490785397364,-6.172818094452026e-07,0.0022104995597160837,-1.0712694261671984e-06,-0.00120347524212705
94,0.084585,127.66,383.734,-1.98326e-05,221.331,-0.0405953,-0.0703011,-2.41147e-05,0.00223315,-0.00122438,0.00394643,-6.43904e-07,-1.11754e-06,0.000934938,-2.4114409242992352e-05,0.003954227408807576,-6.439037927297164e-07,0.0022356453366025875,-1.1175393755946672e-06,-0.0012236307526268808
95,0.085585,127.869,384.383,-1.94359e-05,221.699,-0.0419556,-0.0726563,-2.73501e-05,0.00225823,-0.00124458,0.00399692,-6.70698e-07,-1.16411e-06,0.000971409,-2.734972598938956e-05,0.004004918337431107,-6.706977750958742e-07,0.0022607817217965565,-1.1641093223824228e-06,-0.00124380583151662
96,0.086585,128.076,385.027,-1.90493e-05,222.065,-0.043305,-0.0749928,-3.05893e-05,0.0022833,-0.00126477,0.00404742,-6.97663e-07,-1.21098e-06,0.00100791,-3.058883215212305e-05,0.004055621866060566,-6.976627566768201e-07,0.0022859087145599144,-1.2109792667525099e-06,-0.001263970515513746
97,0.087585,128.282,385.666,-1.86724e-05,222.427,-0.0446438,-0.0773109,-3.38323e-05,0.00230838,-0.00128498,0.00409791,-7.24798e-07,-1.25815e-06,0.00104444,-3.383172769422238e-05,0.004106317914219559,-7.247977373836534e-07,0.0023110463603750464,-1.2581492084828838e-06,-0.0012841547667070685
98,0.088585,128.486,386.301,-1.83051e-05,222.787,-0.0459722,-0.0796108,-3.70789e-05,0.00233345,-0.00130519,0.00414841,-7.52101e-07,-1.30562e-06,0.001081,-3.707821258613908e-05,0.004157026563656796,-7.521007171495953e-07,0.0023361746132886108,-1.3056191476845669e-06,-0.001304338609980804
99,0.089585,128.688,386.931,-1.7947e-05,223.145,-0.0472901,-0.0818927,-4.03292e-05,0.00235852,-0.00132541,0.00419891,-7.79572e-07,-1.35339e-06,0.0011176,-4.032838678869055e-05,0.0042077377739455635,-7.79571696085668e-07,0.002361303496175582,-1.3533890841355145e-06,-0.0013245320320979248
100,0.090585,128.889,387.556,-1.75979e-05,223.499,-0.0485979,-0.0841569,-4.3583e-05,0.00238359,-0.00134563,0.00424942,-8.07209e-07,-1.40144e-06,0.00115421,-4.358205027488182e-05,0.0042584615877996335,-8.072086742361151e-07,0.002386433009051281,-1.4014390179450942e-06,-0.0013447250459082127
101,0.091585,129.089,388.176,-1.72574e-05,223.851,-0.0498956,-0.0864037,-4.68404e-05,0.00240866,-0.00136586,0.00429992,-8.35012e-07,-1.44979e-06,0.00119086,-4.683930300564132e-05,0.004309177920686524,-8.350116513788919e-07,0.002411563151931917,-1.4497889490039384e-06,-0.0013649276377706299
102,0.092585,129.287,388.793,-1.69254e-05,224.2,-0.0511833,-0.0886332,-5.01012e-05,0.00243372,-0.0013861,0.00435043,-8.62979e-07,-1.49843e-06,0.00122754,-5.009994495586145e-05,0.0043599068584116996,-8.629786276692641e-07,0.002436683900466141,-1.4984288773112198e-06,-0.001385139807087321
103,0.093585,129.484,389.404,-1.66016e-05,224.547,-0.0524613,-0.0908457,-5.33654e-05,0.00245878,-0.00140634,0.00440094,-8.91109e-07,-1.54735e-06,0.00126424,-5.3363976092346554e-05,0.004410638358520513,-8.91108602907309e-07,0.002461805278534124,-1.5473488028661109e-06,-0.0014053515673140282
104,0.094585,129.679,390.011,-1.62857e-05,224.892,-0.0537295,-0.0930415,-5.6633e-05,0.00248384,-0.00142659,0.00445145,-9.19401e-07,-1.59656e-06,0.00130097,-5.6631396381900956e-05,0.004461372421141974,-9.194005773371927e-07,0.002486927286151852,-1.5965587254473945e-06,-0.0014255729042029763
105,0.095585,129.873,390.614,-1.59776e-05,225.234,-0.0549882,-0.0952207,-5.99039e-05,0.0025089,-0.00144684,0.00450197,-9.47855e-07,-1.64606e-06,0.00133772,-5.9902105797204896e-05,0.004512119091526712,-9.478545507368707e-07,0.0025120499233350913,-1.6460586452771153e-06,-0.0014457938316141394
106,0.096585,130.065,391.213,-1.5677e-05,225.573,-0.0562375,-0.0973836,-6.3178e-05,0.00253395,-0.0014671,0.00455248,-9.76469e-07,-1.69584e-06,0.0013745,-6.317600431215986e-05,0.004562858280069415,-9.764685232616088e-07,0.0025371631647277404,-1.695838562021379e-06,-0.0014660243348953994
107,0.097585,130.256,391.807,-1.53837e-05,225.91,-0.0574775,-0.0995303,-6.64554e-05,0.00255901,-0.00148736,0.004603,-1.00524e-06,-1.74589e-06,0.00141131,-6.64531918888045e-05,0.004613610077649488,-1.0052394947557275e-06,0.00256228706083772,-1.7458884759014026e-06,-0.0014862544283108514
108,0.098585,130.446,392.398,-1.50976e-05,226.245,-0.0587084,-0.101661,-6.9736e-05,0.00258406,-0.00150763,0.00465352,-1.03417e-06,-1.79623e-06,0.00144814,-6.973356850170642e-05,0.004664364439274982,-1.0341694652860056e-06,0.0025874015606863754,-1.7962283868078188e-06,-0.001506494096803812
109,0.099585,130.635,392.984,-1.48183e-05,226.578,-0.0599301,-0.103776,-7.30196e-05,0.00260911,-0.0015279,0.00470404,-1.06326e-06,-1.84684e-06,0.001485,-7.301693413386268e-05,0.00471512136507557,-1.0632594347192992e-06,0.002612516689661115,-1.8468382946279505e-06,-0.0015267333550429418
110,0.1006,133.548,402.105,-0.0501889,231.799,-0.0798834,-0.138315,-0.000128002,0.00302445,-0.00186521,0.00554307,-1.61324e-06,-2.80437e-06,0.00210016,-0.00012799380809347394,0.005558461237607171,-1.6132386987388614e-06,0.00302902826331386,-2.8043660678100935e-06,-0.0018634715768373056
111,0.1016,137.63,415.115,-0.381344,239.474,-0.111809,-0.193569,-0.000220862,0.00371475,-0.00243054,0.00694356,-2.69893e-06,-4.69603e-06,0.00313735,-0.0002208376117840416,0.0069677224047313135,-2.6989263578469647e-06,0.003721658235254832,-4.6960189736822144e-06,-0.002427588629279942
112,0.1026,141.711,427.457,0.166798,245.981,-0.13191,-0.228337,-0.000315549,0.00440653,-0.0029951,0.00833974,-3.74457e-06,-6.51999e-06,0.00418326,-0.00031549921965046135,0.008374612506769852,-3.744562989127509e-06,0.004416253029681849,-6.51996874490024e-06,-0.0029906191626299927
113,0.1036,144.692,437.142,-0.345189,251.897,-0.15611,-0.270208,-0.000410809,0.00509429,-0.00356432,0.00974045,-4.97349e-06,-8.66351e-06,0.00523857,-0.00041072462953650746,0.009788042581980072,-4.9734776321752605e-06,0.005107287957717643,-8.66347247185928e-06,-0.003557975351826115
114,0.1046,148.088,447.192,0.289878,257.037,-0.170672,-0.295386,-0.00050723,0.00578426,-0.00413088,0.0111352,-6.15058e-06,-1.07183e-05,0.00629738,-0.0005071013806110525,0.011197427095420265,-6.150561085216388e-06,0.0058010211332077954,-1.0718242559271118e-05,-0.004122359651429486
115,0.1056,150.359,454.792,-0.36262,261.904,-0.190436,-0.329576,-0.00060393,0.00646973,-0.004702,0.0125351,-7.49446e-06,-1.30636e-05,0.00736283,-0.0006037476709840339,0.012613993668044055,-7.494431916610367e-06,0.0064907039105857045,-1.306351467156297e-05,-0.004690962903585283
116,0.1066,153.332,463.441,0.386183,266.154,-0.201246,-0.348254,-0.000701542,0.00715824,-0.00526918,0.0139276,-8.77005e-06,-1.52912e-05,0.00842896,-0.0007012959769463478,0.014025040867831517,-8.770011543202116e-06,0.007183921441351382,-1.529108309017424e-05,-0.005255322221457415
117,0.1076,155.104,469.583,-0.405217,270.319,-0.218167,-0.377526,-0.000799121,0.00784159,-0.00584133,0.0153261,-1.02056e-05,-1.77972e-05,0.00950053,-0.0007988017878490794,0.015444146966133498,-1.0205547923081149e-05,0.007872415788582332,-1.7797041630740473e-05,-0.0058243026022644084
118,0.1086,157.805,477.311,0.469332,273.937,-0.226326,-0.391614,-0.000897568,0.00852878,-0.00640841,0.0167158,-1.15584e-05,-2.01601e-05,0.010571,-0.0008971653063333251,0.016856290697975673,-1.1558333201988624e-05,0.008565253662352612,-2.015989678649799e-05,-0.006387919933582564
119,0.1096,159.197,482.355,-0.458411,277.601,-0.241299,-0.417515,-0.000995709,0.00921011,-0.00698107,0.0181127,-1.30684e-05,-2.27964e-05,0.0116464,-0.0009952134462830609,0.018277729823467315,-1.3068314608788434e-05,0.009252653573129432,-2.2796140164094147e-05,-0.0069567589361364535
120,0.1106,161.718,489.445,0.544584,280.746,-0.247509,-0.428229,-0.00109476,0.00989608,-0.00754764,0.0194993,-1.44835e-05,-2.52686e-05,0.0127193,-0.0010941609688895904,0.019690653076951392,-1.4483395114672781e-05,0.009945208124566562,-2.5268280751666872e-05,-0.007519228091105279
121,0.1116,162.807,493.622,-0.514451,284.034,-0.261064,-0.451678,-0.00119327,0.0105754,-0.00812048,0.0208943,-1.60545e-05,-2.80117e-05,0.0137971,-0.0011925583364505998,0.021114114171266074,-1.6054371127172118e-05,0.010631517188693707,-2.801130767604576e-05,-0.008087597968442939
122,0.1126,165.201,500.25,0.612629,286.808,-0.265801,-0.459842,-0.00129278,0.0112602,-0.00868628,0.0222778,-1.75213e-05,-3.05742e-05,0.0148714,-0.0012919447199190026,0.022527803242144984,-1.752114650288572e-05,0.01132383467411624,-3.057373261394769e-05,-0.008648663265172218
123,0.1136,166.042,503.722,-0.56849,289.805,-0.278267,-0.481407,-0.00139152,0.0119377,-0.00925906,0.0236707,-1.9143e-05,-3.34061e-05,0.0159505,-0.0013905522849617657,0.02395307461909235,-1.9142816773953797e-05,0.012009238726513605,-3.3405542022468815e-05,-0.00921632689512042
124,0.1146,168.343,510.002,0.672557,292.281,-0.281874,-0.487616,-0.00149138,0.0126213,-0.00982396,0.025051,-2.06533e-05,-3.60449e-05,0.0170254,-0.0014902684454998205,0.025367412929020672,-2.065308672205557e-05,0.012701284756490239,-3.6044250390387944e-05,-0.009775862536335889
125,0.1156,168.979,512.892,-0.61706,295.044,-0.293458,-0.507658,-0.00159027,0.0132969,-0.0103965,0.0264418,-2.23174e-05,-3.89509e-05,0.0181052,-0.0015890061906850272,0.026794486083558722,-2.2317150968675925e-05,0.013385696912865619,-3.89501414235216e-05,-0.01034264319621725
126,0.1166,171.206,518.895,0.722997,297.275,-0.296196,-0.512361,-0.00169038,0.0139793,-0.0109604,0.0278189,-2.38652e-05,-4.16554e-05,0.0191801,-0.0016889521123987228,0.028209458826212952,-2.3864915228433148e-05,0.014077467317656245,-4.165453242588324e-05,-0.010900553662079204
127,0.1176,171.673,521.302,-0.657583,299.845,-0.307032,-0.53111,-0.00178935,0.0146532,-0.0115325,0.0292073,-2.55649e-05,-4.46236e-05,0.0202601,-0.0017877500677105918,0.02963801631397489,-2.5564573220782094e-05,0.014761084441800243,-4.4622604381983066e-05,-0.011466255620854349
128,0.1186,173.837,527.072,0.762644,301.873,-0.309106,-0.534665,-0.00188965,0.0153344,-0.0120954,0.0305813,-2.71457e-05,-4.73856e-05,0.0213346,-0.0018878657354941542,0.031053711308129728,-2.7145331558786623e-05,0.015452575187530293,-4.738447732022255e-05,-0.012022544683320091
129,0.1196,174.167,529.081,-0.688216,304.28,-0.319278,-0.552265,-0.00198868,0.0160066,-0.0126669,0.0319672,-2.88752e-05,-5.04061e-05,0.0224144,-0.001986703886098562,0.03248363928635012,-2.8874783115417912e-05,0.016135391877549754,-5.040482963392101e-05,-0.01258701248699512
130,0.1206,176.269,534.642,0.790518,306.136,-0.320855,-0.55496,-0.00208911,0.0166864,-0.0132288,0.0333381,-3.04854e-05,-5.32193e-05,0.0234883,-0.002086929328522502,0.0339000417586941,-3.04849353248704e-05,0.01682639556248966,-5.3217883878131644e-05,-0.013141683995124609
131,0.1216,176.491,536.326,-0.707799,308.402,-0.330417,-0.571506,-0.00218815,0.017357,-0.0137997,0.0347215,-3.224e-05,-5.62837e-05,0.0245674,-0.0021857577449778676,0.03533132886949186,-3.223948029673629e-05,0.017508508030101844,-5.628211610231304e-05,-0.013704920616540384
132,0.1226,178.53,541.689,0.806105,310.114,-0.331634,-0.573578,-0.00228867,0.0180355,-0.0143606,0.0360894,-3.38766e-05,-5.91431e-05,0.0256404,-0.0022860529916857164,0.03674852766638681,-3.387602619442376e-05,0.018199121817033204,-5.914135108131546e-05,-0.014257978407009486
133,0.1236,178.67,543.115,-0.715813,312.255,-0.34062,-0.589128,-0.0023877,0.0187046,-0.0149306,0.0374701,-3.56523e-05,-6.22443e-05,0.0267187,-0.0023848517117586177,0.03818095500719365,-3.56516644642868e-05,0.0188806268215147,-6.22423628637847e-05,-0.014819691255947176
134,0.1246,180.643,548.281,0.809399,313.845,-0.34159,-0.590774,-0.00248826,0.0193817,-0.0154905,0.0388351,-3.7313e-05,-6.51458e-05,0.0277908,-0.0024851668471409516,0.03959903963335165,-3.731230387871154e-05,0.019570744506911764,-6.514367805843246e-05,-0.015371139318521743
135,0.1256,180.724,549.508,-0.712332,315.874,-0.350023,-0.605368,-0.00258728,0.0200494,-0.0160596,0.0402129,-3.91064e-05,-6.82779e-05,0.028868,-0.0025839358757844266,0.041032386395995823,-3.910563535469702e-05,0.02025173921780299,-6.827556911725985e-05,-0.015931332185136093
136,0.1266,182.625,554.474,0.800892,317.359,-0.350839,-0.606748,-0.00268785,0.020725,-0.0166186,0.0415752,-4.07892e-05,-7.1218e-05,0.0299389,-0.002684240965427409,0.04245155126064959,-4.0788368131927655e-05,0.020941254184747793,-7.121546405841617e-05,-0.01648127284770884
137,0.1276,182.668,555.554,-0.697952,319.286,-0.358737,-0.620415,-0.00278684,0.0213913,-0.0171867,0.0429501,-4.25973e-05,-7.43759e-05,0.0310149,-0.0027829603662168356,0.04388580364934591,-4.259639274795113e-05,0.02162173401909251,-7.437313418134917e-05,-0.017039851157412356
138,0.1286,184.491,560.313,0.781522,320.683,-0.359474,-0.621659,-0.00288738,0.0220655,-0.0177448,0.0443096,-4.43006e-05,-7.73517e-05,0.0320846,-0.002883215527470284,0.0453059315125941,-4.429961874286015e-05,0.02231074363120955,-7.734870843434383e-05,-0.01758828816090019
139,0.1296,184.515,561.293,-0.6737,322.514,-0.366851,-0.634425,-0.00298634,0.0227304,-0.0183118,0.0456814,-4.6121e-05,-8.0531e-05,0.0331592,-0.0029818853221996733,0.04674086618610973,-4.611993644298984e-05,0.022990704072448187,-8.052775746603125e-05,-0.018145157714075655
140,0.1306,186.254,565.839,0.752585,323.836,-0.367569,-0.635638,-0.00308682,0.023403,-0.0188691,0.0470384,-4.78432e-05,-8.35399e-05,0.0342276,-0.0030820606694688113,0.048162257737573544,-4.7842055532321126e-05,0.023678999067666018,-8.35364106397396e-05,-0.018692192972148636
141,0.1316,186.274,566.756,-0.64093,325.579,-0.374441,-0.64753,-0.00318575,0.0240667,-0.0194348,0.0484071,-4.96739e-05,-8.67371e-05,0.0353007,-0.0031806808828774846,0.04959785964979346,-4.967266627220468e-05,0.024358640333352888,-8.673333844644304e-05,-0.01924716181084829
142,0.1326,187.925,571.083,0.715638,326.837,-0.375186,-0.64879,-0.00328615,0.0247377,-0.0199913,0.0497615,-5.14137e-05,-8.97766e-05,0.0363678,-0.0032807565186359078,0.05102039811649406,-5.1412378338389075e-05,0.025046215636733038,-8.977257020159612e-05,-0.019792798927691146
143,0.1336,187.954,571.972,-0.601212,328.497,-0.38157,-0.659838,-0.00338504,0.0254003,-0.0205558,0.051127,-5.32529e-05,-9.29888e-05,0.0374392,-0.0033793172112099867,0.05245654677746803,-5.325148208945585e-05,0.02572563632643088,-9.298447667549503e-05,-0.0203459697455437
144,0.1346,189.514,576.076,0.672388,329.701,-0.382375,-0.661202,-0.00348535,0.0260696,-0.0211115,0.052479,-5.5009e-05,-9.60566e-05,0.0385049,-0.0034792832180216005,0.05388043035711765,-5.500748703268776e-05,0.02641238428939352,-9.605198671247539e-05,-0.020890212258368623
145,0.1356,189.563,576.962,-0.556225,331.282,-0.388291,-0.67144,-0.0035842,0.026731,-0.0216747,0.0538413,-5.68553e-05,-9.92813e-05,0.0395745,-0.0035777844223732203,0.05531711003956885,-5.6853683768065544e-05,0.027091477991894042,-9.927637177487014e-05,-0.02144149163598008
146,0.1366,191.029,580.841,0.624592,332.44,-0.389179,-0.67295,-0.00368438,0.0273987,-0.0222297,0.0551909,-5.86265e-05,-0.000102375,0.0406388,-0.003677601000034003,0.056742327531715375,-5.8624781500316026e-05,0.02777749597336543,-0.00010236975985855601,-0.021984440925757354
147,0.1376,191.105,581.746,-0.507661,333.947,-0.39465,-0.682418,-0.00378319,0.028059,-0.0227915,0.0565498,-6.04788e-05,-0.000105611,0.0417067,-0.0037760427526842832,0.058179310817763064,-6.047697119426765e-05,0.0284563615567639,-0.00010560542335469325,-0.022533735755480344
148,0.1386,192.478,585.401,0.573963,335.064,-0.395634,-0.684095,-0.00388324,0.028725,-0.0233457,0.057897,-6.2264e-05,-0.000108729,0.0427695,-0.0038757099736710376,0.05960585068679447,-6.2262061637397e-05,0.029141541633199708,-0.00010872308921650031,-0.023075297478510004
149,0.1396,192.585,586.339,-0.457135,336.502,-0.400686,-0.692836,-0.00398201,0.0293842,-0.0239062,0.0592527,-6.41213e-05,-0.000111973,0.0438355,-0.003974092311105237,0.06104333251546312,-6.411924427340843e-05,0.029820175390556036,-0.00011196673125757339,-0.02362271034748553
150,0.1406,193.867,589.775,0.522096,337.584,-0.401773,-0.694693,-0.00408191,0.0300486,-0.0244597,0.0605976,-6.59193e-05,-0.000115114,0.0448969,-0.004073590329274568,0.0624712897079418,-6.5917127370696e-05,0.030504615260832812,-0.00011510737463771292,-0.024162985642326995
151,0.1416,194.009,590.756,-0.406125,338.956,-0.406433,-0.702755,-0.00418063,0.0307067,-0.0250188,0.06195,-6.7781e-05,-0.000118365,0.0459609,-0.004171903331627647,0.0639091479407281,-6.77787029199628e-05,0.03118301355060904,-0.00011835799513981726,-0.024708423625657727
152,0.1426,195.201,593.98,0.470407,340.008,-0.407622,-0.70479,-0.00428038,0.0313694,-0.0255716,0.0632925,-6.95908e-05,-0.000121527,0.0470207,-0.004271232230159128,0.06533840514607436,-6.958837861648082e-05,0.031866605016703575,-0.00012151961589323967,-0.02524741581790979
153,0.1436,195.379,595.01,-0.355918,341.318,-0.411918,-0.712223,-0.00437905,0.0320264,-0.0261292,0.0646416,-7.14562e-05,-0.000124785,0.0480829,-0.004369475940741774,0.06677662312025312,-7.145364706651058e-05,0.0325447641270733,-0.000124777214675742,-0.025790786353065864
154,0.1446,196.486,598.03,0.420098,342.343,-0.413205,-0.714429,-0.00447863,0.0326874,-0.0266813,0.0659818,-7.32767e-05,-0.000127965,0.0491411,-0.0044686158920674846,0.06820727561665962,-7.327401532819522e-05,0.03322750183611567,-0.00012795681282862237,-0.026328498810737844
155,0.1456,196.7,599.11,-0.307583,343.594,-0.417169,-0.721284,-0.00457725,0.0333434,-0.0272376,0.0673276,-7.51454e-05,-0.000131228,0.0502013,-0.004566790356105854,0.06964583675885283,-7.514257665519608e-05,0.033905521443436726,-0.0001312193899826175,-0.02687000163387432
156,0.1466,197.726,601.938,0.372136,344.594,-0.418546,-0.723648,-0.00467666,0.0340028,-0.0277889,0.0686654,-7.69757e-05,-0.000134425,0.0512579,-0.004665741453030781,0.0710777665635538,-7.69727374467788e-05,0.034587503569072364,-0.0001344159653645649,-0.027406340346623148
157,0.1476,197.973,603.068,-0.261961,345.792,-0.422205,-0.729976,-0.00477522,0.0346576,-0.0283438,0.070008,-7.88474e-05,-0.000137694,0.0523161,-0.004763836763336915,0.07251676135398677,-7.884429162541284e-05,0.03526517331126966,-0.0001376845206162436,-0.027945882858450566
158,0.1486,198.924,605.715,0.327252,346.77,-0.423662,-0.732478,-0.00487447,0.0353154,-0.0288943,0.0713435,-8.06865e-05,-0.000140907,0.0533711,-0.004862609050882316,0.073950064363828,-8.06832449319339e-05,0.03594639477144823,-0.00014089707307496369,-0.02848085138633949
159,0.1496,199.203,606.892,-0.219661,347.917,-0.427046,-0.73833,-0.00497295,0.0359692,-0.0294479,0.0726829,-8.2561e-05,-0.000144181,0.0544273,-0.0049606053557257335,0.07538947683938058,-8.255759193442902e-05,0.03662391798255338,-0.00014417060641913615,-0.02901853554230549
160,0.1506,200.084,609.372,0.28595,348.873,-0.428571,-0.740952,-0.00507203,0.0366254,-0.0299976,0.0740159,-8.4408e-05,-0.000147407,0.0554806,-0.005059188975033879,0.07682392686054174,-8.44044377450448e-05,0.037304373830680415,-0.0001473961361220244,-0.02955213737941642
161,0.1516,200.391,610.591,-0.181081,349.973,-0.431709,-0.746376,-0.00517043,0.037278,-0.0305498,0.0753522,-8.62849e-05,-0.000150685,0.0565348,-0.005157086334209637,0.07826384854340573,-8.628117756503961e-05,0.0379815396001999,-0.00015067364758558632,-0.0300878707595561
162,0.1526,201.209,612.917,0.248527,350.909,-0.433289,-0.749096,-0.00526934,0.0379326,-0.0310987,0.0766828,-8.81392e-05,-0.000153923,0.0575864,-0.005255481380593174,0.07969954137489443,-8.813531585483148e-05,0.03866122475270206,-0.00015391115446283798,-0.030620109441026777
163,0.1536,201.541,614.172,-0.146428,351.966,-0.436207,-0.754139,-0.00536766,0.0385842,-0.0316496,0.078016,-9.00184e-05,-0.000157206,0.0586386,-0.005353279853812065,0.08113995677100627,-9.001434846545031e-05,0.03933823695337191,-0.00015719364378430356,-0.03115399375080019
164,0.1546,202.301,616.358,0.215102,352.883,-0.437831,-0.756935,-0.00546641,0.0392372,-0.0321977,0.0793442,-9.1879e-05,-0.000160455,0.0596885,-0.005451496367906317,0.08257688091166981,-9.187477925398646e-05,0.04001714646193255,-0.00016044212778498768,-0.0316848727461464
165,0.1556,202.653,617.642,-0.115746,353.899,-0.440554,-0.761639,-0.00556464,0.0398876,-0.0327473,0.0806742,-9.37605e-05,-0.000163741,0.0607387,-0.005549186069309875,0.08401766607303074,-9.375610462170059e-05,0.04069379363579939,-0.0001637275951741346,-0.0322169125221623
166,0.1566,203.362,619.701,0.185644,354.797,-0.44221,-0.764492,-0.00566321,0.0405392,-0.0332945,0.082,-9.56268e-05,-0.000167001,0.0617868,-0.00564720425513332,0.08545580982954903,-9.562222790326924e-05,0.04137213068994394,-0.0001669870561091802,-0.03274633856345488
167,0.1576,203.731,621.007,-0.0889457,355.777,-0.44476,-0.768897,-0.00576134,0.0411884,-0.0338429,0.083327,-9.75103e-05,-0.00017029,0.0628351,-0.005744775307577776,0.08689716581738027,-9.750554602516726e-05,0.04204840897336659,-0.00017027550148096537,-0.0332766350507997
168,0.1586,204.394,622.953,0.160007,356.657,-0.446438,-0.771788,-0.00585975,0.0418385,-0.0343891,0.0846503,-9.93817e-05,-0.000173559,0.0638814,-0.005842615149951325,0.08833640890206929,-9.937676180249433e-05,0.042726064892230076,-0.00017354393950808067,-0.033804515175549055
169,0.1596,204.777,624.275,-0.065838,357.602,-0.448836,-0.77593,-0.00595778,0.0424865,-0.0349363,0.0859744,-0.000101267,-0.000176852,0.0649276,-0.005940067621677314,0.08977842962022864,-0.00010126187267045506,0.04340197035199789,-0.0001768363626069025,-0.03433307271831265
170,0.1606,205.399,626.119,0.137956,358.464,-0.450526,-0.778842,-0.00605603,0.0431352,-0.0354816,0.0872951,-0.000103143,-0.000180128,0.0659721,-0.006037729212329257,0.09121865083296399,-0.0001031376809436102,0.04407904479551772,-0.00018011177792587318,-0.03485950734831278
171,0.1616,205.792,627.449,-0.0461606,359.377,-0.45279,-0.782753,-0.00615395,0.043782,-0.0360276,0.0886162,-0.00010503,-0.000183424,0.0670164,-0.006135053232822929,0.09266121246685755,-0.00010502448454263735,0.044754573564144584,-0.00018340717884657298,-0.03538633022156834
172,0.1626,206.379,629.203,0.1192,360.221,-0.454483,-0.785671,-0.00625203,0.0444292,-0.0365719,0.0899344,-0.00010691,-0.000186707,0.0680591,-0.006232526726623666,0.09410250822646082,-0.00010690428532955654,0.045430957578412645,-0.00018668957133283204,-0.03591122657852619
173,0.1636,206.779,630.537,-0.029605,361.106,-0.45663,-0.789379,-0.00634984,0.0450749,-0.0371167,0.0912526,-0.000108799,-0.000190007,0.0691014,-0.006329722369754043,0.09554570515491934,-0.00010879308160338663,0.04610621032961082,-0.00018998894981325787,-0.03643631909409739
174,0.1646,207.334,632.209,0.103414,361.932,-0.458319,-0.792291,-0.00644776,0.0457207,-0.0376601,0.0925682,-0.000110683,-0.000193296,0.0701422,-0.006427017799677692,0.09698795358761947,-0.00011067687486276956,0.0467820039105018,-0.00019327731953178162,-0.036959777361809665
175,0.1656,207.738,633.543,-0.0158389,362.79,-0.460364,-0.795821,-0.00654544,0.0463651,-0.0382037,0.0938836,-0.000112574,-0.000196598,0.0711825,-0.006524065268703416,0.09843188100463118,-0.00011256766378497929,0.047456767619338924,-0.00019657867587963285,-0.037483143762959914
176,0.1666,208.265,635.143,0.0902583,363.6,-0.462043,-0.798716,-0.00664321,0.0470095,-0.0387461,0.0951967,-0.00011446,-0.000199892,0.0722215,-0.006621192662692121,0.09987517929769107,-0.00011445344970406612,0.04813196628603866,-0.00019987202292526263,-0.03800507134622655
177,0.1676,208.672,636.47,-0.00452399,364.432,-0.463998,-0.80209,-0.00674077,0.0476527,-0.0392886,0.0965093,-0.000116352,-0.000203198,0.0732599,-0.006718101971822987,0.10131982337052525,-0.00011634523136860864,0.04880634162261255,-0.0002031773566846251,-0.03852681206005659
178,0.1686,209.175,638.006,0.0793952,365.225,-0.465662,-0.80496,-0.00683838,0.0482958,-0.03983,0.0978197,-0.000118241,-0.000206497,0.074297,-0.006815051486191437,0.102763938844882,-0.0001182340098084822,0.04948104590881974,-0.00020647568096199276,-0.03904721275882672
179,0.1696,209.582,639.324,0.00466953,366.034,-0.467537,-0.808197,-0.0069358,0.0489377,-0.0403714,0.0991295,-0.000120135,-0.000209804,0.0753334,-0.006911802851040205,0.10420928540280827,-0.000120127784079882,0.05015492405023969,-0.0002097819926798472,-0.03956733178891314
180,0.1706,210.063,640.804,0.0705024,366.811,-0.469184,-0.811036,-0.00703326,0.0495794,-0.0409118,0.100437,-0.000122027,-0.000213107,0.0763686,-0.00700858451048747,0.10565398330891251,-0.00012201955500845685,0.05082902472707307,-0.00021308429431621256,-0.04008620938945939
181,0.1716,210.469,642.109,0.0120531,367.599,-0.470989,-0.814151,-0.00713055,0.0502201,-0.0414521,0.101744,-0.000123922,-0.000216417,0.0774031,-0.007105187945950053,0.10710001784281631,-0.0001239143219861072,0.051502506610098475,-0.00021639358353031657,-0.040604710724776893
182,0.1726,210.931,643.537,0.0632795,368.359,-0.472613,-0.816953,-0.00722785,0.0508605,-0.0419914,0.10305,-0.000125816,-0.000219724,0.0784364,-0.007201791911303768,0.10854683503209839,-0.0001258080854990018,0.052176104478348195,-0.0002196998624498514,-0.04112197311194343
183,0.1736,211.334,644.827,0.017913,369.127,-0.474356,-0.819961,-0.00732501,0.0515,-0.0425306,0.104354,-0.000127712,-0.000223036,0.0794689,-0.007298247499313404,0.10999332301017262,-0.00012770384516969102,0.0528491862921332,-0.00022301112932043843,-0.04163886077860335
184,0.1746,211.78,646.21,0.0574544,369.872,-0.475958,-0.822723,-0.00742216,0.052139,-0.0430689,0.105657,-0.000129607,-0.000226346,0.0805003,-0.0073946837901001095,0.11144058699777815,-0.0001295986013756245,0.05352217191818198,-0.00022632038567671486,-0.042154607754093854
185,0.1756,212.179,647.483,0.0225059,370.62,-0.477646,-0.825635,-0.00751918,0.0527772,-0.043607,0.106958,-0.000131505,-0.00022966,0.0815309,-0.007490981686392284,0.1128875122222317,-0.00013149635359654965,0.054194744363339264,-0.0002296336301609303,-0.04266988571169361
186,0.1766,212.61,648.824,0.0527852,371.35,-0.479222,-0.828355,-0.00761617,0.053415,-0.0441443,0.108258,-0.000133402,-0.000232973,0.0825604,-0.007587240467933465,0.1143352067857033,-0.00013339310234883328,0.05486732423421525,-0.0002329458638979931,-0.0431841210204138
187,0.1776,213.004,650.079,0.0260582,372.081,-0.480861,-0.831181,-0.00771305,0.0540519,-0.0446813,0.109557,-0.000135301,-0.000236289,0.083589,-0.007683380758966019,0.11578366879171287,-0.00013529184723248822,0.055539383227488415,-0.00023626108595287132,-0.043697793214097835
188,0.1786,213.422,651.383,0.049061,372.796,-0.482412,-0.833856,-0.00780989,0.0546884,-0.0452176,0.110854,-0.000137199,-0.000239603,0.0846166,-0.007779472047558134,0.11723177910667282,-0.00013718958864761266,0.05621144790680721,-0.000239574297493661,-0.04421052058746289
189,0.1796,213.811,652.618,0.0287651,373.51,-0.484005,-0.836606,-0.00790663,0.0553241,-0.0457535,0.112151,-0.000139099,-0.000242921,0.0856433,-0.00787545481867069,0.1186817688392503,-0.0001390893261826731,0.05688309498464683,-0.0002428914970828977,-0.04472259094797193
190,0.1806,214.217,653.888,0.0461012,374.21,-0.48553,-0.839236,-0.00800331,0.0559593,-0.0462888,0.113445,-0.000140998,-0.000246238,0.086669,-0.007971368783143085,0.12013028003275061,-0.00014098806024920307,0.05755464038682123,-0.00024620768591188114,-0.04523381410395233
191,0.1816,214.6,655.104,0.030793,374.909,-0.487084,-0.841917,-0.0080999,0.0565937,-0.0468236,0.114739,-0.000142899,-0.000249557,0.0876937,-0.008067184201152267,0.12158066681297819,-0.00014288879042423375,0.05822576590918982,-0.0002495258632420061,-0.045744286547671376
192,0.1826,214.995,656.342,0.0437533,375.595,-0.488583,-0.844502,-0.00819644,0.0572276,-0.0473578,0.116031,-0.000144799,-0.000252876,0.0887175,-0.008162940772945326,0.12303068554489593,-0.00014478851713073393,0.05889678788014363,-0.00025284402955927376,-0.04625391381623478
193,0.1836,215.373,657.537,0.0322811,376.279,-0.4901,-0.847119,-0.00829289,0.0578608,-0.0478916,0.117322,-0.000146701,-0.000256196,0.0897403,-0.008258598844123166,0.12448145442975211,-0.00014669023993452157,0.05956749364926628,-0.00025616318460719434,-0.04676288761984582
194,0.1846,215.758,658.747,0.0418906,376.952,-0.491573,-0.84966,-0.00838927,0.0584935,-0.0484248,0.118612,-0.000148602,-0.000259516,0.0907622,-0.008354178274319835,0.12593297153320915,-0.0001485909592696677,0.060238094124587915,-0.0002594823286357073,-0.04727101816852408
195,0.1856,216.129,659.922,0.0333445,377.621,-0.493056,-0.852219,-0.00848557,0.0591254,-0.0489575,0.1199,-0.000150504,-0.000262838,0.0917831,-0.008449669168991591,0.12738410753151408,-0.0001504926748411295,0.060908270296126554,-0.0002628034611189545,-0.047778401743532206
196,0.1866,216.505,661.104,0.0404089,378.281,-0.494505,-0.854717,-0.0085818,0.0597568,-0.0494897,0.121187,-0.000152406,-0.000266159,0.092803,-0.008545081466491133,0.1288359849606291,-0.0001523943867955957,0.061578339296513906,-0.0002661235828356201,-0.048285039249925665
197,0.1876,216.87,662.258,0.0340772,378.936,-0.495957,-0.857222,-0.00867795,0.0603875,-0.0500214,0.122473,-0.000154309,-0.000269482,0.093822,-0.00864040527414267,0.13028860186976665,-0.000154297094978606,0.06224808793814107,-0.00026944569298725796,-0.048790931591159326
198,0.1886,217.238,663.416,0.0392237,379.584,-0.497381,-0.859678,-0.00877403,0.0610176,-0.0505525,0.123757,-0.000156211,-0.000272804,0.09484,-0.008735650528348682,0.13174082456201797,-0.0001561987996969716,0.06291762137270762,-0.00027276679237231427,-0.049295984598693554
199,0.1896,217.597,664.55,0.0345548,380.227,-0.498805,-0.862133,-0.00887003,0.0616471,-0.0510831,0.12504,-0.000158114,-0.000276128,0.0958571,-0.008830807338297997,0.13319377991147996,-0.00015810150064032857,0.06358693866087584,-0.00027608988017258085,-0.049800294344058305
200,0.1906,217.957,665.684,0.0382675,380.862,-0.500205,-0.864548,-0.00896596,0.0622759,-0.0516132,0.126322,-0.000160018,-0.000279451,0.0968732,-0.008925885638446429,0.13464746595098043,-0.00016000519780268174,0.06425593243750627,-0.0002794119572062659,-0.05030386172569978
201,0.1916,218.309,666.798,0.0348377,381.492,-0.501602,-0.866958,-0.00906181,0.0629042,-0.0521428,0.127603,-0.000161921,-0.000282775,0.0978884,-0.009020875539844209,0.13610188070862939,-0.0001619078915023886,0.06492481454716748,-0.00028273502291797925,-0.050806687640475134
202,0.1926,218.661,667.91,0.0374866,382.116,-0.502979,-0.869334,-0.00915759,0.0635318,-0.0526718,0.128882,-0.000163825,-0.000286099,0.0989026,-0.009115786975003815,0.13755588465136714,-0.0001638115814174279,0.06559337113188923,-0.0002860580775838617,-0.05130867811452644
203,0.1936,219.008,669.005,0.0349733,382.734,-0.504352,-0.871701,-0.00925329,0.0641588,-0.0532004,0.13016,-0.000165729,-0.000289424,0.0999158,-0.009210610056833546,0.13901061044373453,-0.0001657152677079221,0.06626170767720074,-0.0002893821209144498,-0.05181002382992883
204,0.1946,219.353,670.095,0.036839,383.346,-0.505707,-0.874039,-0.00934892,0.0647852,-0.0537284,0.131436,-0.000167632,-0.000292748,0.100928,-0.009305354715905656,0.14046491563204877,-0.00016761795054132111,0.0669298232428388,-0.0002927051534854508,-0.05231053599050828
205,0.1956,219.694,671.171,0.0349986,383.953,-0.507057,-0.876366,-0.00944447,0.065411,-0.0542559,0.132712,-0.000169537,-0.000296073,0.101939,-0.009400011066983405,0.1419210776982196,-0.00016952262941494212,0.06759771688834881,-0.0002960291747146071,-0.05281031035569572
206,0.1966,220.033,672.241,0.0362921,384.554,-0.508391,-0.878667,-0.00953995,0.0660361,-0.0547829,0.133986,-0.000171441,-0.000299398,0.10295,-0.009494589038702483,0.14337681225722387,-0.00017142630483157895,0.06826528084655337,-0.0002993531848913822,-0.053309347814218144
207,0.1976,220.367,673.298,0.0349424,385.151,-0.509719,-0.880957,-0.00963534,0.0666607,-0.0553094,0.135259,-0.000173345,-0.000302724,0.103959,-0.009589068843568138,0.1448332577701119,-0.00017332997662355965,0.06893272776294301,-0.000302678183713212,-0.05380764925322934
208,0.1986,220.7,674.349,0.0358208,385.741,-0.511033,-0.883224,-0.00973067,0.0672846,-0.0558354,0.13653,-0.00017525,-0.000306049,0.104968,-0.009683480217445695,0.14628926593792047,-0.00017523464461577376,0.06959984297674571,-0.00030600217178211597,-0.054305215558311803
209,0.1996,221.028,675.389,0.0348264,386.327,-0.512341,-0.885479,-0.00982591,0.0679079,-0.0563609,0.137801,-0.000177154,-0.000309375,0.105975,-0.009777793471521301,0.14774712586865624,-0.00017713830915666584,0.07026673237336278,-0.00030932714848952436,-0.054802047613480065
210,0.2006,221.355,676.421,0.035406,386.907,-0.513636,-0.887713,-0.00992109,0.0685307,-0.0568858,0.13907,-0.000179059,-0.0003127,0.106982,-0.009872038335954403,0.14920454150602502,-0.00017904296989401658,0.07093350210482718,-0.0003126511144506683,-0.05529805183099257
211,0.2016,221.678,677.443,0.0346672,387.482,-0.514924,-0.889934,-0.0100162,0.0691528,-0.0574103,0.140337,-0.000180963,-0.000316026,0.107988,-0.009966204928225086,0.15066150645250254,-0.00018094662718393106,0.07159993710960166,-0.00031597606904365527,-0.055793418081651724
212,0.2026,221.999,678.458,0.0350333,388.053,-0.516202,-0.892137,-0.0101112,0.0697743,-0.0579342,0.141604,-0.000182868,-0.000319351,0.108992,-0.010060253671370867,0.1521203185434863,-0.00018285128066641843,0.07226614347269855,-0.00031930001289715015,-0.056287958353783085
213,0.2036,222.316,679.463,0.0344773,388.619,-0.517472,-0.894327,-0.0102061,0.0703952,-0.0584576,0.142869,-0.000184772,-0.000322677,0.109996,-0.010154194495734847,0.15357867296113836,-0.00018475493070535531,0.07293212025227658,-0.0003226249453759378,-0.056781767995124355
214,0.2046,222.632,680.461,0.034692,389.179,-0.518732,-0.8965,-0.010301,0.0710155,-0.0589806,0.144133,-0.000186677,-0.000326003,0.110999,-0.010248126405537517,0.15503771832617286,-0.0001866595769329793,0.07359786650632305,-0.0003259498667960159,-0.05727494215417894
215,0.2056,222.944,681.449,0.0342658,389.736,-0.519985,-0.898661,-0.0103958,0.0716351,-0.059503,0.145396,-0.000188582,-0.000329329,0.112001,-0.010341950435824976,0.15649745259256442,-0.00018856421953239444,0.0742632738663227,-0.0003292747771573845,-0.0577672931111306
216,0.2066,223.254,682.43,0.034374,390.287,-0.521229,-0.900806,-0.0104905,0.0722542,-0.0600249,0.146657,-0.000190486,-0.000332654,0.113002,-0.010435666615587591,0.15795671575233872,-0.00019046785869381022,0.07492855617606287,-0.00033259867679280575,-0.058258916060688226
217,0.2076,223.561,683.403,0.0340395,390.834,-0.522465,-0.902938,-0.0105852,0.0728727,-0.0605463,0.147918,-0.000192391,-0.00033598,0.114002,-0.010529373920848184,0.15941782020364803,-0.00019237249403836199,0.07559360513324709,-0.00033592356504030807,-0.05874981187419448
218,0.2086,223.866,684.369,0.0340734,391.377,-0.523694,-0.905056,-0.0106797,0.0734906,-0.0610672,0.149177,-0.000194295,-0.000339305,0.115001,-0.0106228744770418,0.16087844651061034,-0.0001942761259489112,0.07625841979519654,-0.00033924744256852435,-0.05923998142144715
219,0.2096,224.168,685.326,0.0338035,391.915,-0.524915,-0.907162,-0.0107742,0.0741079,-0.0615876,0.150434,-0.0001962,-0.00034263,0.115999,-0.010716366197850324,0.1623385882246835,-0.0001961807540387106,0.07692299921907164,-0.0003425713090448035,-0.059729425570702044
220,0.2106,224.468,686.276,0.033786,392.449,-0.526129,-0.909255,-0.0108686,0.0747246,-0.0621075,0.151691,-0.000198104,-0.000345956,0.116996,-0.01080975016508856,0.16380056649092256,-0.00019808437869828222,0.0775873424618736,-0.00034589616412339375,-0.060218145188674854
221,0.2116,224.766,687.218,0.0335613,392.979,-0.527336,-0.911336,-0.010963,0.0753407,-0.0626269,0.152946,-0.000200009,-0.000349281,0.117992,-0.010903125317296536,0.1652620530928881,-0.0001999889995334403,0.07825144858044752,-0.000349220008492801,-0.0607061411405444
222,0.2126,225.061,688.154,0.0335086,393.505,-0.528536,-0.913405,-0.0110572,0.0759562,-0.0631458,0.1542,-0.000201913,-0.000352606,0.118987,-0.01099629385458456,0.16672420828716827,-0.00020189261694214533,0.0789153166314831,-0.0003525438418103821,-0.061193414289954506
223,0.2136,225.354,689.082,0.0333156,394.026,-0.529729,-0.915463,-0.0111514,0.0765711,-0.0636642,0.155453,-0.000203817,-0.000355931,0.119982,-0.011089453615809819,0.16818702998656,-0.00020379623072630526,0.07957894567151835,-0.00035586766407624815,-0.06167996549901689
224,0.2146,225.644,690.003,0.033239,394.544,-0.530916,-0.917509,-0.0112455,0.0771854,-0.0641821,0.156704,-0.000205721,-0.000359255,0.120975,-0.011182505720054414,0.16964934644931007,-0.0002056998408860311,0.08024233475694031,-0.0003591904756495845,-0.062165795628313814
225,0.2156,225.932,690.916,0.033068,395.057,-0.532096,-0.919544,-0.0113395,0.0777991,-0.0646995,0.157955,-0.000207625,-0.00036258,0.121968,-0.011275450196057912,0.17111349341469562,-0.00020760344742132286,0.08090548294398836,-0.00036251427581546203,-0.06265090553690034
226,0.2166,226.218,691.823,0.0329756,395.567,-0.53327,-0.921568,-0.0114335,0.0784123,-0.0652164,0.159204,-0.000209529,-0.000365904,0.122959,-0.011368385935691339,0.17257712801750746,-0.00020950705033218053,0.08156849744560057,-0.00036583706529558224,-0.06313529608230661
227,0.2176,226.502,692.724,0.03282,396.073,-0.534438,-0.923582,-0.0115274,0.0790248,-0.0657328,0.160452,-0.000211433,-0.000369228,0.12395,-0.01146121408590206,0.17404141780004445,-0.0002114106496184931,0.08223116107030437,-0.0003691598437306487,-0.06361896812054113
228,0.2186,226.784,693.617,0.0327172,396.575,-0.5356,-0.925586,-0.0116212,0.0796368,-0.0662487,0.161698,-0.000213337,-0.000372552,0.124939,-0.011553934675357258,0.1755051851443019,-0.00021331424528037157,0.08289368925382457,-0.00037248261112088343,-0.06410192250609237
229,0.2196,227.063,694.504,0.0325724,397.073,-0.536757,-0.92758,-0.0117149,0.0802481,-0.0667641,0.162944,-0.00021524,-0.000375876,0.125928,-0.011646547732688695,0.1769707774794036,-0.00021521683753300547,0.08355586453932085,-0.00037580536746628646,-0.0645841600919318
230,0.2206,227.341,695.385,0.0324629,397.568,-0.537908,-0.929565,-0.0118086,0.0808589,-0.067279,0.164188,-0.000217144,-0.000379199,0.126916,-0.01173915211258314,0.17843584020666792,-0.00021712042594801417,0.08421790262723095,-0.0003791271131459162,-0.06506568172951632
231,0.2216,227.616,696.259,0.0323259,398.059,-0.539054,-0.93154,-0.0119021,0.0814691,-0.0677934,0.165431,-0.000219047,-0.000382522,0.127903,-0.011831550182183515,0.17990154670391711,-0.00021902301095755305,0.08487969428351394,-0.00038244884778748656,-0.06554648826879073
232,0.2226,227.89,697.127,0.0322123,398.546,-0.540194,-0.933506,-0.0119956,0.0820787,-0.0683074,0.166673,-0.00022095,-0.000385845,0.128889,-0.011923939612968337,0.18136789483862037,-0.0002209255923464326,0.08554123856335916,-0.00038577057139088655,-0.0660266739555272
233,0.2236,228.161,697.989,0.0320808,399.03,-0.54133,-0.935464,-0.0120891,0.0826877,-0.0688208,0.167913,-0.000222853,-0.000389168,0.129874,-0.012016320405745184,0.18283369963937823,-0.00022282817011465283,0.08620253452182514,-0.0003890922839563382,-0.06650605279404098
234,0.2246,228.43,698.844,0.0319649,399.51,-0.54246,-0.937413,-0.0121824,0.0832962,-0.0693338,0.169152,-0.000224756,-0.00039249,0.130858,-0.012108494983040341,0.18430013886473473,-0.00022473074426243578,0.08686368990020488,-0.0003924129858760006,-0.06698481237662512
235,0.2256,228.698,699.694,0.0318374,399.987,-0.543586,-0.939354,-0.0122757,0.083904,-0.0698462,0.170391,-0.000226659,-0.000395813,0.131841,-0.012200660960848708,0.18576839613433727,-0.00022663331478944837,0.087524486446654,-0.0003957346763686642,-0.067462766896358
236,0.2266,228.964,700.537,0.0317204,400.461,-0.544707,-0.941286,-0.0123689,0.0845113,-0.0703582,0.171628,-0.000228562,-0.000399134,0.132824,-0.012292719569249377,0.1872360992275659,-0.00022853588169602368,0.08818514065461858,-0.0003990543566214644,-0.06794010375104476
237,0.2276,229.227,701.375,0.031596,400.931,-0.545824,-0.943211,-0.012462,0.085118,-0.0708697,0.172863,-0.000230464,-0.000402456,0.133805,-0.012384670836659617,0.18870324158404017,-0.00023043744521233922,0.08884554289221547,-0.0004023750254472658,-0.06841673048029828
238,0.2286,229.489,702.207,0.0314785,401.398,-0.546936,-0.945129,-0.0125551,0.0857242,-0.0713807,0.174098,-0.000232367,-0.000405778,0.134786,-0.012476613543805248,0.19017219698064647,-0.00023234000487959428,0.0895058011643799,-0.0004056956832418912,-0.06889264792376004
239,0.2296,229.749,703.034,0.0313565,401.862,-0.548044,-0.947039,-0.012648,0.0863297,-0.0718912,0.175331,-0.000234269,-0.000409099,0.135765,-0.012568350205173107,0.19164058437432074,-0.00023424156116058636,0.09016569669019381,-0.00040901533041415306,-0.06936785691957847
240,0.2306,230.007,703.854,0.0312392,402.323,-0.549148,-0.948941,-0.0127409,0.0869347,-0.0724012,0.176563,-0.000236171,-0.00041242,0.136744,-0.012660078344601033,0.1931095902961102,-0.00023614311382469388,0.09082544649088242,-0.0004123349665620113,-0.06984235830441154
241,0.2316,230.264,704.67,0.0311192,402.78,-0.550248,-0.950837,-0.0128338,0.0875391,-0.0729108,0.177794,-0.000238073,-0.00041574,0.137722,-0.012751797962880618,0.19457921256868937,-0.00023804466287213888,0.09148494066980617,-0.0004156535921010507,-0.0703162458818094
242,0.2326,230.518,705.479,0.0310023,403.234,-0.551344,-0.952727,-0.0129265,0.088143,-0.0734198,0.179024,-0.000239975,-0.00041906,0.138698,-0.012843311629485488,0.19604944901020027,-0.00023994620830281033,0.09214428749521231,-0.0004189722066222368,-0.07078933450138791
243,0.2336,230.771,706.284,0.0308839,403.686,-0.552436,-0.954609,-0.0130192,0.0887462,-0.0739284,0.180253,-0.000241876,-0.00042238,0.139674,-0.01293481681316666,0.1975202974342547,-0.0002418467503586541,0.09280326765786562,-0.00042229081012556957,-0.07126181088493144
244,0.2346,231.022,707.083,0.0307678,404.134,-0.553524,-0.956486,-0.0131118,0.0893489,-0.0744365,0.18148,-0.000243778,-0.0004257,0.140649,-0.01302621481733679,0.19899055665878085,-0.00024374828855777686,0.09346209870607614,-0.0004256094026112711,-0.07173358289499199
245,0.2356,231.272,707.877,0.0306508,404.579,-0.554609,-0.958356,-0.0132043,0.089951,-0.0749441,0.182706,-0.000245679,-0.00042902,0.141623,-0.013117505670199203,0.20046142053656668,-0.0002456488233857357,0.09412067047884354,-0.00042892798407911936,-0.07220465136102328
246,0.2366,231.52,708.665,0.0305354,405.022,-0.555691,-0.960221,-0.0132967,0.0905526,-0.0754512,0.183931,-0.00024758,-0.000432339,0.142597,-0.013208689399922036,0.20193288686584077,-0.00024754935460091776,0.09477909150739094,-0.0004322455549616855,-0.07267501711100266
247,0.2376,231.766,709.449,0.0304198,405.461,-0.556769,-0.962079,-0.0133891,0.0911536,-0.0759579,0.185155,-0.000249481,-0.000435658,0.143569,-0.013299864704657605,0.2034049534403235,-0.00024944988220310105,0.09543725149865367,-0.00043556311483317067,-0.07314477365696093
248,0.2386,232.01,710.227,0.0303053,405.898,-0.557844,-0.963933,-0.0134814,0.091754,-0.0764641,0.186378,-0.000251382,-0.000438976,0.14454,-0.013390932924282284,0.20487761804923044,-0.0002513504061925076,0.09609514950567188,-0.0004388796641325854,-0.07361382904460134
249,0.2396,232.253,711.001,0.0301908,406.332,-0.558917,-0.96578,-0.0135736,0.0923538,-0.0769698,0.187599,-0.000253283,-0.000442295,0.145511,-0.01348189408689271,0.20634967212699973,-0.00025325092656891535,0.0967527845813887,-0.00044219720198557244,-0.07408218409769718
250,0.2406,232.495,711.77,0.0300773,406.763,-0.559986,-0.967623,-0.0136658,0.0929531,-0.077475,0.188819,-0.000255183,-0.000445613,0.14648,-0.013572846863270427,0.20782231685762342,-0.00025515044358759287,0.09741026551967291,-0.00044551372927315036,-0.07454983963855488
251,0.2416,232.735,712.534,0.0299639,407.191,-0.561052,-0.969461,-0.0137579,0.0935519,-0.0779797,0.190038,-0.000257084,-0.000448931,0.147449,-0.013663692620562995,0.20929555001505173,-0.00025705095674011247,0.09806759157044476,-0.0004488302455564197,-0.07501679648801629
252,0.2426,232.973,713.293,0.0298514,407.616,-0.562115,-0.971294,-0.0138498,0.09415,-0.078484,0.191256,-0.000258984,-0.000452248,0.148417,-0.013754332762232924,0.21076936936875268,-0.0002589504665387876,0.09872454223847638,-0.0004521457512877136,-0.07548314791715105
253,0.2436,233.21,714.047,0.0297391,408.039,-0.563176,-0.973122,-0.0139418,0.0947476,-0.0789878,0.192473,-0.000260884,-0.000455565,0.149384,-0.013845063189955042,0.21224377268371453,-0.00026084997272834975,0.09938133625542389,-0.00045546124602158233,-0.07594880219906763
254,0.2446,233.445,714.797,0.0296275,408.46,-0.564234,-0.974946,-0.0140336,0.0953447,-0.0794911,0.193689,-0.000262784,-0.000458882,0.15035,-0.013935588057999215,0.21371875772045068,-0.0002627494753089099,0.10003797287065441,-0.00045877672975791484,-0.07641376015043744
255,0.2456,233.679,715.542,0.0295163,408.877,-0.565289,-0.976765,-0.0141254,0.0959412,-0.0799939,0.194903,-0.000264684,-0.000462199,0.151315,-0.014026104616241875,0.2151931070412869,-0.00026464897428035705,0.10069434126388299,-0.0004620922024967111,-0.07687802258647669
256,0.2466,233.911,716.282,0.0294056,409.292,-0.566343,-0.97858,-0.0142171,0.0965371,-0.0804963,0.196117,-0.000266584,-0.000465516,0.152279,-0.014116514277102254,0.21666924730908343,-0.0002665484696428022,0.10135044048719077,-0.00046540766423819324,-0.07734168258678464
257,0.2476,234.142,717.018,0.0292954,409.705,-0.567394,-0.980391,-0.0143087,0.0971325,-0.0809982,0.197329,-0.000268483,-0.000468832,0.153242,-0.014206817068463495,0.21814474440744513,-0.00026844696166461457,0.1020063797932107,-0.0004687221154510146,-0.07780464860525338
258,0.2486,234.371,717.75,0.0291858,410.115,-0.568442,-0.982199,-0.0144003,0.0977273,-0.0814997,0.19854,-0.000270383,-0.000472148,0.154205,-0.014297111588467915,0.2196208112710183,-0.00027034644981094313,0.10266204816435476,-0.00047203655567318314,-0.07826701362625832
259,0.2496,234.6,718.477,0.0290765,410.522,-0.569489,-0.984003,-0.0144917,0.0983215,-0.0820006,0.19975,-0.000272282,-0.000475463,0.155167,-0.014387200715332948,0.22109744563628553,-0.00027224493462041366,0.10331744465238701,-0.0004753499853799026,-0.07872859406666077
260,0.2506,234.826,719.2,0.0289678,410.927,-0.570533,-0.985803,-0.0145831,0.0989152,-0.0825011,0.200958,-0.000274181,-0.000478779,0.156127,-0.014477281608427983,0.22257342266125058,-0.00027414341582465696,0.10397267870625959,-0.0004786644036240961,-0.07918957503521995
261,0.2516,235.051,719.918,0.0288596,411.33,-0.571576,-0.987599,-0.0146745,0.0995084,-0.0830011,0.202166,-0.00027608,-0.000482094,0.157087,-0.01456735426850575,0.2240511837438155,-0.000276041893423673,0.10462774957407839,-0.00048197781135961293,-0.07964986516558037
262,0.2526,235.275,720.633,0.0287518,411.73,-0.572616,-0.989393,-0.0147657,0.100101,-0.0835007,0.203372,-0.000277979,-0.000485409,0.158046,-0.014657221627782602,0.22552827998141334,-0.0002779403674175729,0.10528254597548736,-0.00048529120811124926,-0.08010955725229885
263,0.2536,235.498,721.343,0.0286445,412.128,-0.573655,-0.991183,-0.0148569,0.100693,-0.0839998,0.204578,-0.000279878,-0.000488724,0.159004,-0.014747080791529976,0.22700715867167665,-0.0002798388378061345,0.10593706696180116,-0.0004886045938788941,-0.08056856001860568
264,0.2546,235.719,722.049,0.0285376,412.523,-0.574692,-0.992971,-0.014948,0.101285,-0.0844984,0.205782,-0.000281777,-0.000492038,0.159961,-0.0148368332441835,0.22848536499235306,-0.00028173730458969093,0.10659197553925481,-0.0004919169691547376,-0.08102687426734345
265,0.2556,235.939,722.751,0.0284312,412.916,-0.575728,-0.994755,-0.015039,0.101875,-0.0849966,0.206985,-0.000283675,-0.000495353,0.160917,-0.014926479013413929,0.2299641221805484,-0.00028363476805148835,0.10724505744504031,-0.0004952303329580632,-0.08148459265146668
266,0.2566,236.158,723.449,0.0283253,413.307,-0.576762,-0.996537,-0.01513,0.102466,-0.0854943,0.208186,-0.000285574,-0.000498667,0.161873,-0.015016116625250597,0.23144219649724973,-0.0002855332276264777,0.10789963268192015,-0.0004985426862761377,-0.08194162402801186
267,0.2576,236.375,724.143,0.0282198,413.696,-0.577794,-0.998316,-0.0152209,0.103056,-0.0859915,0.209387,-0.000287472,-0.000501981,0.162827,-0.0151056475910053,0.23292204704762032,-0.0002874306838838159,0.10855348633306239,-0.0005018550286171042,-0.0823979691957355
268,0.2586,236.591,724.833,0.0281148,414.082,-0.578825,-1.00009,-0.0153117,0.103645,-0.0864883,0.210587,-0.00028937,-0.000505294,0.163781,-0.015195071938277183,0.23440244156313939,-0.0002893281365397016,0.10920661666451315,-0.0005051663604861423,-0.08285372066660002
269,0.2596,236.806,725.519,0.0280102,414.466,-0.579855,-1.00187,-0.0154024,0.104234,-0.0869846,0.211785,-0.000291268,-0.000508608,0.164734,-0.015284389694630973,0.23588214185163214,-0.0002912255855941348,0.10986013180304366,-0.0005084786808763342,-0.08330878743087478
270,0.2606,237.02,726.201,0.0279061,414.848,-0.580884,-1.00364,-0.0154931,0.104822,-0.0874804,0.212982,-0.000293166,-0.000511921,0.165686,-0.015373699350231473,0.23736237852033337,-0.0002931230310473376,0.1105129214618954,-0.0005117899908012591,-0.08376317028324953
271,0.2616,237.232,726.879,0.0278024,415.228,-0.581911,-1.00541,-0.0155837,0.10541,-0.0879758,0.214179,-0.000295064,-0.000515235,0.166637,-0.015462902452108795,0.23884438809319852,-0.00029502047289919897,0.11116609507393771,-0.0005151022892407875,-0.08421696159530245
272,0.2626,237.443,727.554,0.0276991,415.606,-0.582937,-1.00718,-0.0156742,0.105997,-0.0884707,0.215374,-0.000296962,-0.000518548,0.167587,-0.015551999027756058,0.2403256920397998,-0.00029691791114960786,0.1118185410459045,-0.0005184135772217102,-0.08467007048996478
273,0.2636,237.653,728.225,0.0275963,415.981,-0.583962,-1.00895,-0.0157647,0.106583,-0.0889652,0.216568,-0.00029886,-0.00052186,0.168536,-0.015641087540528065,0.24180752539456196,-0.0002988153457987863,0.11247025764527119,-0.0005217238547541303,-0.08512258924562388
274,0.2646,237.862,728.892,0.0274939,416.355,-0.584986,-1.01071,-0.015855,0.10717,-0.0894592,0.21776,-0.000300758,-0.000525173,0.169484,-0.01572997113716834,0.24328864253527582,-0.00030071277684662334,0.11312346938539841,-0.0005250351207979342,-0.08557442707340435
275,0.2656,238.069,729.556,0.0273919,416.726,-0.586009,-1.01247,-0.0159453,0.107755,-0.0899528,0.218952,-0.000302655,-0.000528486,0.170432,-0.01581884670798228,0.24477152622027298,-0.00030260920459568297,0.11377483712147551,-0.0005283463758714024,-0.08602567615876477
276,0.2666,238.276,730.216,0.0272903,417.095,-0.587032,-1.01424,-0.0160356,0.10834,-0.0904459,0.220143,-0.000304553,-0.000531798,0.171379,-0.015907714253694416,0.24625493230097373,-0.00030450662844272447,0.11442658601915712,-0.000531656620506471,-0.08647624580077606
277,0.2676,238.481,730.872,0.0271891,417.463,-0.588053,-1.016,-0.0161257,0.108924,-0.0909385,0.221332,-0.00030645,-0.00053511,0.172325,-0.015996376974324655,0.2477376106931093,-0.00030640304899487436,0.11507760122332922,-0.0005349668541779762,-0.08692613678484784
278,0.2686,238.685,731.525,0.0270884,417.828,-0.589074,-1.01775,-0.0162158,0.109508,-0.0914307,0.22252,-0.000308348,-0.000538423,0.17327,-0.016085031706803643,0.24922080381688683,-0.00030830046564123137,0.11572899673141834,-0.0005382780763477646,-0.08737544115744555
279,0.2696,238.888,732.174,0.0269881,418.191,-0.590095,-1.01951,-0.0163058,0.110092,-0.0919225,0.223708,-0.000310245,-0.000541735,0.174214,-0.016173580069213878,0.25070576002115796,-0.00031019687899658255,0.11638077276558723,-0.0005415882880890344,-0.08782415956658329
280,0.2706,239.09,732.82,0.0268881,418.553,-0.591114,-1.02127,-0.0163957,0.110675,-0.0924138,0.224894,-0.000312142,-0.000545047,0.175157,-0.016262022088837313,0.2521899770192484,-0.00031209328875436704,0.11703181251575656,-0.0005448984888669628,-0.08827220148647841
281,0.2716,239.291,733.463,0.0267886,418.912,-0.592133,-1.02303,-0.0164856,0.111257,-0.0929046,0.226079,-0.00031404,-0.000548359,0.176099,-0.016350456157880555,0.25367470166762973,-0.0003139906946005855,0.11768211425008945,-0.0005482086786815499,-0.08871956769734046
282,0.2726,239.491,734.102,0.0266895,419.27,-0.593152,-1.02478,-0.0165754,0.111839,-0.093395,0.227263,-0.000315937,-0.000551671,0.177041,-0.01643878392094167,0.2551599315970159,-0.00031588709716157126,0.1183327945701893,-0.0005515188575326846,-0.08916635006135198
283,0.2736,239.689,734.737,0.0265908,419.625,-0.59417,-1.02654,-0.0166651,0.11242,-0.0938849,0.228445,-0.000317834,-0.000554982,0.177982,-0.01652700540523122,0.25664440778875974,-0.00031778349612499035,0.11898273471316334,-0.0005548280259753957,-0.08961245818335017
284,0.2746,239.887,735.37,0.0264924,419.979,-0.595188,-1.02829,-0.0167547,0.113001,-0.0943744,0.229627,-0.000319731,-0.000558294,0.178921,-0.016615120637925584,0.2581306396687697,-0.00031967989149095377,0.1196330525810787,-0.0005581381829034004,-0.0900579838337705
285,0.2756,240.084,735.999,0.0263945,420.331,-0.596205,-1.03004,-0.0168443,0.113581,-0.0948635,0.230808,-0.000321629,-0.000561606,0.17986,-0.016703227975848778,0.25961736969549665,-0.00032157728293791266,0.12028262811026957,-0.0005614483288680638,-0.09050292765399626
286,0.2766,240.279,736.625,0.0262969,420.681,-0.597223,-1.0318,-0.0169338,0.11416,-0.095352,0.231987,-0.000323526,-0.000564917,0.180799,-0.016791229098835903,0.2611033343784188,-0.00032347367110707737,0.12093145957052687,-0.0005647574644344067,-0.09094710847383902
287,0.2776,240.474,737.248,0.0261997,421.029,-0.598241,-1.03355,-0.0170232,0.11474,-0.0958402,0.233166,-0.000325423,-0.000568229,0.181736,-0.016879124033992277,0.26259105204688415,-0.0003253700556787864,0.12158178839420564,-0.0005680675884761621,-0.09139079978162146
288,0.2786,240.667,737.867,0.0261029,421.376,-0.599258,-1.0353,-0.0171126,0.115318,-0.0963279,0.234343,-0.00032732,-0.000571541,0.182672,-0.016967011111692742,0.2640779966103599,-0.0003272664366530398,0.12223025005526433,-0.0005713777015546873,-0.09183382044919708
289,0.2796,240.86,738.484,0.0260065,421.72,-0.600275,-1.03705,-0.0172019,0.115896,-0.0968151,0.235519,-0.000329217,-0.000574852,0.183608,-0.017054792038123767,0.26556542677188544,-0.0003291628140299485,0.12287908663550406,-0.0005746868042448838,-0.09227617124647014
290,0.2806,241.051,739.097,0.0259105,422.063,-0.601292,-1.03881,-0.0172911,0.116474,-0.0973019,0.236694,-0.000331115,-0.000578164,0.184543,-0.017142466840319726,0.2670533401262505,-0.0003310601874783048,0.12352829835169099,-0.0005779968954007231,-0.09271794367017538
291,0.2816,241.242,739.707,0.0258148,422.404,-0.60231,-1.04056,-0.0173802,0.117051,-0.0977883,0.237868,-0.000333012,-0.000581475,0.185476,-0.017230035545280464,0.268541734263966,-0.0003329565576584148,0.12417676124339327,-0.0005813059761747841,-0.09315913835512857
292,0.2826,241.431,740.314,0.0257195,422.744,-0.603327,-1.04231,-0.0174693,0.117627,-0.0982742,0.239041,-0.000334909,-0.000584787,0.18641,-0.017317596448217287,0.2700306067712681,-0.0003348529242411802,0.12482447358111481,-0.0005846160454079374,-0.09359966529511443
293,0.2836,241.62,740.918,0.0256245,423.081,-0.604344,-1.04407,-0.0175583,0.118203,-0.0987597,0.240213,-0.000336806,-0.000588099,0.187342,-0.017405051290335094,0.2715199552301222,-0.00033674928722637887,0.12547255910861121,-0.0005879261036781935,-0.09403961585097442
294,0.2846,241.807,741.52,0.0255299,423.417,-0.605362,-1.04582,-0.0176472,0.118779,-0.0992447,0.241384,-0.000338704,-0.00059141,0.188273,-0.017492400098563343,0.2730097772182285,-0.0003386466462756976,0.1261210180409016,-0.0005912351515766634,-0.09447890010224491
295,0.2856,241.994,742.118,0.0254357,423.752,-0.60638,-1.04757,-0.0177361,0.119354,-0.0997293,0.242554,-0.000340601,-0.000594722,0.189204,-0.0175797411418277,0.2745000703090268,-0.00034054300206431964,0.12676872382384197,-0.0005945451879244557,-0.09491760931942661
296,0.2866,242.179,742.713,0.0253418,424.084,-0.607398,-1.04933,-0.0178249,0.119928,-0.100213,0.243722,-0.000342498,-0.000598034,0.190133,-0.017666976187521,0.2759895560815062,-0.000342439354255486,0.1274156747284636,-0.0005978552133093507,-0.09535529180975488
297,0.2876,242.364,743.305,0.0252483,424.415,-0.608417,-1.05108,-0.0179136,0.120502,-0.100697,0.24489,-0.000344396,-0.000601346,0.191062,-0.01775410526250154,0.2774807825897596,-0.0003443367025051103,0.12806299708950242,-0.0006011652277315704,-0.09579303390638627
298,0.2886,242.548,743.895,0.0251551,424.745,-0.609436,-1.05284,-0.0180022,0.121075,-0.10118,0.246057,-0.000346293,-0.000604658,0.19199,-0.01784112839359364,0.278972472895042,-0.00034623304749969996,0.12870956241010845,-0.000604475231190893,-0.09622966041721881
299,0.2896,242.731,744.481,0.0250623,425.073,-0.610456,-1.0546,-0.0180908,0.121648,-0.101663,0.247222,-0.000348191,-0.00060797,0.192918,-0.01792814381477792,0.280463344089815,-0.0003481303885487508,0.1293564983188067,-0.0006077852236876513,-0.09666607608836852
300,0.2906,242.913,745.065,0.0249698,425.399,-0.611476,-1.05635,-0.0181793,0.122221,-0.102146,0.248386,-0.000350089,-0.000611283,0.193844,-0.0180150533282476,0.28195467120633455,-0.0003500277259966822,0.1300038050280048,-0.0006110962046105284,-0.0971022810216462
301,0.2916,243.094,745.646,0.0248776,425.723,-0.612497,-1.05811,-0.0182677,0.122793,-0.102628,0.24955,-0.000351987,-0.000614595,0.19477,-0.01810185696075628,0.28344773523830646,-0.0003519250598434942,0.13065035209931475,-0.0006144061751786056,-0.0975373728566381
302,0.2926,243.274,746.224,0.0247858,426.046,-0.613518,-1.05987,-0.0183561,0.123364,-0.103109,0.250712,-0.000353884,-0.000617908,0.195694,-0.01818865292016303,0.28493996832617086,-0.00035382139044304317,0.13129613780463623,-0.0006177171341662513,-0.09797135299970239
303,0.2936,243.454,746.799,0.0246944,426.368,-0.61454,-1.06163,-0.0184444,0.123935,-0.10359,0.251873,-0.000355782,-0.000621221,0.196618,-0.018275343034685254,0.28643264996342,-0.00035571871708939273,0.131942292358892,-0.0006210280821848935,-0.09840512444851301
304,0.2946,243.632,747.372,0.0246032,426.688,-0.615563,-1.06339,-0.0185326,0.124505,-0.104071,0.253033,-0.000357681,-0.000624534,0.197541,-0.018361927331006056,0.28792577768402605,-0.0003576170397771028,0.13258768338450477,-0.0006243390192341991,-0.09883868730342749
305,0.2956,243.81,747.942,0.0245124,427.006,-0.616586,-1.06516,-0.0186207,0.125075,-0.104551,0.254192,-0.000359579,-0.000627847,0.198464,-0.018448405835774118,0.28941934901775923,-0.0003595143592194372,0.13323344238786605,-0.0006276499453145012,-0.09927114093634692
306,0.2966,243.986,748.51,0.0244219,427.323,-0.61761,-1.06692,-0.0187088,0.125644,-0.105031,0.25535,-0.000361477,-0.00063116,0.199385,-0.018534876722121507,0.290913361490192,-0.0003614116750606522,0.13387843569977997,-0.0006309608604256889,-0.09970338704133308
307,0.2976,244.162,749.074,0.0243317,427.638,-0.618635,-1.06869,-0.0187968,0.126213,-0.10551,0.256507,-0.000363376,-0.000634474,0.200306,-0.018621241852848414,0.2924078126227041,-0.00036330998693745453,0.13452379611732002,-0.0006342727639335743,-0.10013452585295146
308,0.2986,244.337,749.636,0.0242419,427.952,-0.619661,-1.07046,-0.0188847,0.126781,-0.105989,0.257663,-0.000365274,-0.000637787,0.201225,-0.018707501254533354,0.2939026999324883,-0.00036520729557454334,0.13516838868047265,-0.0006375836571034244,-0.10056545819853169
309,0.2996,244.512,750.196,0.0241524,428.265,-0.620688,-1.07223,-0.0189726,0.127349,-0.106468,0.258818,-0.000367173,-0.000641102,0.202144,-0.01879375307435005,0.29539802093255507,-0.00036710560024344474,0.1358133474762011,-0.0006408965380224618,-0.10099618417694722
310,0.3006,244.685,750.753,0.0240632,428.576,-0.621716,-1.074,-0.0190604,0.127916,-0.106946,0.259972,-0.000369072,-0.000644416,0.203063,-0.018879899200959893,0.2968937731317369,-0.000369003901307452,0.13645753625448043,-0.0006442084086035749,-0.10142580531327894
311,0.3016,244.858,751.307,0.0239743,428.885,-0.622745,-1.07577,-0.0191481,0.128483,-0.107424,0.261124,-0.000370971,-0.00064773,0.20398,-0.018965939660870568,0.2983886556453905,-0.00037090219876656505,0.13710209039136645,-0.0006475202682091341,-0.10185522113978052
312,0.3026,245.03,751.859,0.0238857,429.194,-0.623775,-1.07754,-0.0192358,0.129049,-0.107901,0.262276,-0.00037287,-0.000651045,0.204897,-0.01905197257536395,0.2998852612560132,-0.000372800492620895,0.13774587234763502,-0.0006508331161884096,-0.10228353403854928
313,0.3036,245.201,752.408,0.0237974,429.5,-0.624807,-1.07932,-0.0193234,0.129615,-0.108378,0.263427,-0.00037477,-0.00065436,0.205812,-0.019137899858896357,0.3013822905668151,-0.0003746997824956022,0.1383900187876299,-0.0006541459531856919,-0.10271164268078448
314,0.3046,245.371,752.955,0.0237094,429.806,-0.625839,-1.0811,-0.0194109,0.13018,-0.108854,0.264576,-0.000376669,-0.000657676,0.206727,-0.019223721537905414,0.3028784381908851,-0.00037659806913836746,0.1390333908837471,-0.0006574597785433678,-0.10313865030299185
315,0.3056,245.54,753.5,0.0236218,430.109,-0.626872,-1.08288,-0.0194983,0.130745,-0.10933,0.265725,-0.000378569,-0.000660992,0.207641,-0.01930943763879489,0.30437630587656117,-0.0003784973517976242,0.13967712658780806,-0.0006607735929123892,-0.10356545471793821
316,0.3066,245.709,754.042,0.0235344,430.412,-0.627907,-1.08466,-0.0195857,0.131309,-0.109805,0.266872,-0.000380469,-0.000664308,0.208555,-0.019395146248424422,0.30587328385215096,-0.0003803966308484341,0.1403200857846536,-0.0006640873962928673,-0.10399116001393527
317,0.3076,245.877,754.581,0.0234473,430.713,-0.628943,-1.08645,-0.019673,0.131873,-0.11028,0.268019,-0.000382369,-0.000667624,0.209467,-0.019480749315528678,0.30737197984657394,-0.00038229590629046406,0.1409634077127666,-0.0006674011886848019,-0.10441666314793396
318,0.3086,246.044,755.118,0.0233605,431.013,-0.629981,-1.08823,-0.0197603,0.132436,-0.110755,0.269164,-0.00038427,-0.000670941,0.210379,-0.01956634490981146,0.3088697780893548,-0.00038419617773977066,0.14160595097026363,-0.0006707159694174791,-0.1048419642159385
319,0.3096,246.21,755.653,0.023274,431.311,-0.631019,-1.09002,-0.0198474,0.132999,-0.111229,0.270309,-0.000386171,-0.000674259,0.21129,-0.019651736962291944,0.31036929229332366,-0.0003860964455766336,0.14224885608146698,-0.0006740317384810179,-0.1052661685805234
320,0.3106,246.376,756.185,0.0231878,431.609,-0.63206,-1.09182,-0.0199345,0.133561,-0.111703,0.271452,-0.000388072,-0.000677576,0.2122,-0.019737121577448558,0.3118679006859568,-0.00038799670980105283,0.1428909803586058,-0.000677346497220177,-0.10569017191988617
321,0.3116,246.541,756.715,0.0231019,431.904,-0.633101,-1.09361,-0.0200216,0.134123,-0.112177,0.272595,-0.000389973,-0.000680894,0.213109,-0.019822498755929008,0.3133682229672834,-0.0003898969704131394,0.14353346561101277,-0.0006806622442837584,-0.10611397432929026
322,0.3126,246.705,757.243,0.0230163,432.199,-0.634144,-1.09541,-0.0201085,0.134684,-0.11265,0.273736,-0.000391874,-0.000684213,0.214017,-0.01990767247993519,0.3148676313595058,-0.00039179722741278233,0.14417516786587337,-0.0006839789796616591,-0.10653668244108305
323,0.3136,246.868,757.769,0.022931,432.492,-0.635189,-1.09721,-0.0201954,0.135245,-0.113122,0.274876,-0.000393776,-0.000687532,0.214925,-0.019992838802666446,0.31636743518500743,-0.0003936984804063792,0.14481723021669635,-0.0006872957040312544,-0.10695829761796172
324,0.3146,247.031,758.292,0.0228459,432.784,-0.636235,-1.09901,-0.0202822,0.135805,-0.113594,0.276016,-0.000395678,-0.000690851,0.215832,-0.020077899732560578,0.31786894976181324,-0.0003955997297837577,0.14545850740647204,-0.0006906124173927664,-0.10737971383943401
325,0.3156,247.193,758.813,0.0227611,433.075,-0.637283,-1.10081,-0.020369,0.136365,-0.114066,0.277154,-0.00039758,-0.000694171,0.216738,-0.020162953279486473,0.31936953829957604,-0.0003975009755450287,0.14610014381204506,-0.0006939301190521663,-0.10780093119938483
326,0.3166,247.354,759.331,0.0226766,433.364,-0.638332,-1.10262,-0.0204557,0.136924,-0.114537,0.278291,-0.000399483,-0.000697492,0.217643,-0.020247901468879892,0.3208705146079527,-0.0003994032172907058,0.14674099289306652,-0.0006972488089994622,-0.10822105801315851
327,0.3176,247.515,759.848,0.0225924,433.652,-0.639384,-1.10443,-0.0205423,0.137483,-0.115008,0.279427,-0.000401386,-0.000700812,0.218548,-0.02033274432686394,0.3223718761244303,-0.00040130545541638973,0.14738220030886917,-0.0007005664886261531,-0.1086409869937962
328,0.3186,247.675,760.362,0.0225084,433.939,-0.640437,-1.10625,-0.0206288,0.138041,-0.115479,0.280563,-0.000403289,-0.000704134,0.219452,-0.020417481879527632,0.32387494415670814,-0.00040320768992208045,0.14802261823662644,-0.00070388615583028,-0.10906071823445551
329,0.3196,247.834,760.874,0.0224247,434.225,-0.641491,-1.10806,-0.0207153,0.138599,-0.115949,0.281697,-0.000405192,-0.000707456,0.220354,-0.020502212102710082,0.325377069887699,-0.000405109920807889,0.14866339361730763,-0.0007072058120065616,-0.10947936130805647
330,0.3206,247.992,761.384,0.0223413,434.509,-0.642548,-1.10988,-0.0208017,0.139157,-0.116418,0.28283,-0.000407096,-0.000710778,0.221257,-0.02058683705573383,0.3268795731152312,-0.0004070131476667793,0.14930452665042693,-0.0007105254571548869,-0.10989691756300746
331,0.3216,248.15,761.892,0.0222581,434.793,-0.643606,-1.11171,-0.0208881,0.139713,-0.116888,0.283962,-0.000409,-0.000714102,0.222158,-0.020671454697477443,0.32838245126054244,-0.00040891637090179067,0.14994371764587489,-0.0007138470898476745,-0.11031516771526773
332,0.3226,248.307,762.398,0.0221752,435.075,-0.644666,-1.11353,-0.0209743,0.14027,-0.117356,0.285093,-0.000410905,-0.000717425,0.223058,-0.020755869179766018,0.3298857017408232,-0.0004108205901023343,0.1505844147141724,-0.0007171677122166376,-0.11073144280080915
333,0.3236,248.464,762.901,0.0220926,435.355,-0.645728,-1.11536,-0.0210606,0.140826,-0.117825,0.286223,-0.00041281,-0.00072075,0.223958,-0.020840374301807407,0.33138932196922166,-0.0004127248056753352,0.15122431752525034,-0.0007204903221100789,-0.11114841196722292
334,0.3246,248.619,763.403,0.0220102,435.635,-0.646792,-1.1172,-0.0211467,0.141381,-0.118293,0.287353,-0.000414715,-0.000724074,0.224857,-0.02092467631632622,0.33289464224882637,-0.00041462901762090443,0.15186342435721745,-0.0007238119216798067,-0.11156429718569039
335,0.3256,248.774,763.902,0.0219281,435.914,-0.647858,-1.11903,-0.0212328,0.141936,-0.11876,0.288481,-0.00041662,-0.0007274,0.225755,-0.021008971072754012,0.3343989957011204,-0.0004165332259388199,0.1525028859919253,-0.0007271355087542508,-0.1119790997949568
336,0.3266,248.929,764.399,0.0218462,436.191,-0.648926,-1.12087,-0.0213188,0.14249,-0.119228,0.289608,-0.000418526,-0.000730726,0.226653,-0.021093160681036727,0.33590371111714723,-0.0004184384302108324,0.15314154948421743,-0.0007304590847744263,-0.11239459634247695
337,0.3276,249.083,764.894,0.0217646,436.467,-0.649996,-1.12272,-0.0214047,0.143044,-0.119694,0.290734,-0.000420433,-0.000734053,0.227549,-0.02117724516705377,0.33740878589394385,-0.00042034463043116865,0.15378056689411057,-0.0007337836490065586,-0.11280812410113028
338,0.3286,249.236,765.388,0.0216832,436.742,-0.651068,-1.12456,-0.0214906,0.143598,-0.120161,0.291859,-0.000422339,-0.000737381,0.228445,-0.02126132243052381,0.33891421742453454,-0.0004222498274386588,0.15441993841772916,-0.0007371092014408775,-0.11322234597883851
339,0.3296,249.388,765.879,0.0216021,437.016,-0.652142,-1.12641,-0.0215764,0.144151,-0.120627,0.292983,-0.000424247,-0.000740709,0.22934,-0.021345294606601395,0.34042000309793696,-0.0004241570199665645,0.15505850919221986,-0.0007404347428077163,-0.11363548809602264
340,0.3306,249.54,766.368,0.0215212,437.289,-0.653218,-1.12827,-0.0216621,0.144703,-0.121092,0.294107,-0.000426154,-0.000744038,0.230235,-0.021429161721096435,0.3419274822259797,-0.0004260632092815131,0.15569627749715198,-0.0007437612723635301,-0.11404755178182624
341,0.3316,249.692,766.855,0.0214405,437.56,-0.654297,-1.13013,-0.0217478,0.145255,-0.121557,0.295229,-0.000428062,-0.000747368,0.231128,-0.021513021648487674,0.34343396984254904,-0.0004279703945334612,0.15633439794737147,-0.0007470887900981049,-0.11445942390255814
342,0.3326,249.842,767.338,0.0189812,437.832,-0.655397,-1.13202,-0.0218333,0.145807,-0.122022,0.29635,-0.000429971,-0.000750699,0.232021,-0.021596678708746486,0.3449408037453492,-0.0004298785757166357,0.15697287073731636,-0.0007504172960017819,-0.11487110454727567
343,0.3336,249.993,767.826,0.0223827,438.1,-0.65649,-1.1339,-0.0219188,0.146358,-0.122486,0.29747,-0.00043188,-0.00075403,0.232913,-0.021680328616632383,0.3464479813074286,-0.0004317867532570574,0.1576105384504145,-0.0007537457908181056,-0.11528170908714563
344,0.3346,250.141,768.304,0.0201851,438.369,-0.657593,-1.13581,-0.0220042,0.146908,-0.12295,0.298589,-0.00043379,-0.000757363,0.233804,-0.021763873549149104,0.34795549989785823,-0.000433695926721156,0.15824739936726018,-0.0007570762730331193,-0.1156921231507031
345,0.3356,250.291,768.786,0.0217593,438.636,-0.658694,-1.1377,-0.0220895,0.147458,-0.123414,0.299708,-0.0004357,-0.000760697,0.234695,-0.021847313531969448,0.34946470634577076,-0.000435605096538616,0.15888461065395298,-0.0007604077433872591,-0.11610234682630849
346,0.3366,250.438,769.262,0.0205458,438.902,-0.6598,-1.13961,-0.0221748,0.148008,-0.123877,0.300825,-0.000437611,-0.000764031,0.235584,-0.021930746397662904,0.3509729005924327,-0.00043751526227209236,0.1595221725032494,-0.0007637392026342837,-0.11651149671421979
347,0.3376,250.586,769.739,0.0212881,439.167,-0.660906,-1.14151,-0.02226,0.148557,-0.12434,0.301941,-0.000439522,-0.000767366,0.236473,-0.022014074348248758,0.35248142795119297,-0.00043942542435526644,0.1601589249485067,-0.0007670716500072228,-0.11692045720958066
348,0.3386,250.733,770.212,0.020628,439.431,-0.662017,-1.14343,-0.0223451,0.149106,-0.124802,0.303057,-0.000441434,-0.000770703,0.237361,-0.022097297409330197,0.3539916397662375,-0.0004413365823467963,0.16079602706683294,-0.0007704060847256722,-0.11732834572884676
349,0.3396,250.879,770.685,0.0209631,439.694,-0.663128,-1.14534,-0.0224302,0.149654,-0.125264,0.304171,-0.000443347,-0.00077404,0.238249,-0.022180513388430523,0.3555008269141038,-0.0004432487362410198,0.1614323176173531,-0.0007737405083170223,-0.11773604584714092
350,0.3406,251.025,771.154,0.0205911,439.956,-0.664243,-1.14726,-0.0225151,0.150202,-0.125726,0.305284,-0.00044526,-0.000777378,0.239135,-0.022263526738877326,0.3570103392222306,-0.00044516088647716945,0.1620689569506526,-0.0007770759200044219,-0.11814355765148443
351,0.3416,251.17,771.623,0.0207209,440.217,-0.66536,-1.14919,-0.0226001,0.150749,-0.126187,0.306397,-0.000447173,-0.000780717,0.240021,-0.022346630807131507,0.35852153255287167,-0.0004470730330554673,0.16270478255255294,-0.0007804123197777679,-0.11854999977929848
352,0.3426,251.315,772.089,0.0204954,440.477,-0.666479,-1.15111,-0.0226849,0.151296,-0.126648,0.307508,-0.000449087,-0.000784057,0.240906,-0.02242953229776623,0.3600316887119497,-0.00044898617552679987,0.16334095604619736,-0.0007837497076271793,-0.11895625458047376
353,0.3436,251.459,772.554,0.0205218,440.736,-0.667601,-1.15305,-0.0227697,0.151842,-0.127108,0.308618,-0.000451002,-0.000787398,0.241791,-0.022512426758652504,0.36154216204403133,-0.000450900313885505,0.16397631364503895,-0.0007870880835426641,-0.11936144150322969
354,0.3446,251.602,773.017,0.0203704,440.994,-0.668726,-1.15499,-0.0228545,0.152388,-0.127568,0.309728,-0.000452917,-0.000790741,0.242674,-0.02259531419038663,0.3630543129323831,-0.00045281444857858677,0.16461201824385174,-0.0007904284467238343,-0.11976644208286336
355,0.3456,251.745,773.478,0.020345,441.251,-0.669853,-1.15693,-0.0229392,0.152933,-0.128028,0.310836,-0.000454833,-0.000794084,0.243557,-0.022678096861379116,0.36456541410656906,-0.00045472957915138057,0.1652469047846623,-0.0007937687987380482,-0.12017125640507287
356,0.3466,251.888,773.938,0.020231,441.507,-0.670982,-1.15887,-0.0230238,0.153478,-0.128487,0.311944,-0.00045675,-0.000797428,0.244439,-0.022760774797058625,0.3660781905087609,-0.00045664570559822426,0.1658821374329431,-0.0007971101387884705,-0.12057500513096187
357,0.3476,252.03,774.395,0.0201799,441.762,-0.672115,-1.16082,-0.0231083,0.154022,-0.128946,0.31305,-0.000458667,-0.000800774,0.24532,-0.022843348022820398,0.367589908813587,-0.00045856182837178405,0.16651654986024145,-0.0008004534660646101,-0.12097856857871025
358,0.3486,252.171,774.851,0.0200848,442.016,-0.67325,-1.16278,-0.0231928,0.154566,-0.129404,0.314156,-0.000460585,-0.00080412,0.246201,-0.022925914271439307,0.36910330000379354,-0.0004604789470116222,0.16715130750179008,-0.0008037967821539205,-0.12138106821484873
359,0.3496,252.312,775.305,0.020021,442.269,-0.674387,-1.16474,-0.0232772,0.15511,-0.129862,0.315261,-0.000462503,-0.000807468,0.247081,-0.02300837584434745,0.37061699531293435,-0.00046239606197451266,0.1677864105454363,-0.0008071420854423028,-0.12178338354836227
360,0.3506,252.452,775.758,0.0199356,442.521,-0.675528,-1.1667,-0.0233615,0.155653,-0.13032,0.316364,-0.000464422,-0.000810816,0.24796,-0.023090732766870792,0.3721296199178781,-0.00046431417279602094,0.16842069075785537,-0.0008104873775305332,-0.12218551466364236
361,0.3516,252.591,776.208,0.0198657,442.772,-0.676671,-1.16867,-0.0234458,0.156195,-0.130777,0.317467,-0.000466342,-0.000814166,0.248838,-0.02317308274699803,0.3736439138682359,-0.0004662332794704849,0.16905414642322425,-0.0008138346567910792,-0.12258658423206448
362,0.3526,252.731,776.657,0.0197852,443.022,-0.677817,-1.17065,-0.02353,0.156737,-0.131234,0.318569,-0.000468263,-0.000817517,0.249716,-0.023255328110852402,0.3751585038471199,-0.0004681533819921313,0.16968794551462385,-0.0008171829240211093,-0.12298747055356885
363,0.3536,252.869,777.105,0.0197125,443.271,-0.678966,-1.17263,-0.0236141,0.157279,-0.13169,0.31967,-0.000470184,-0.00082087,0.250592,-0.02333746888369037,0.37667338715008536,-0.00047007348082517275,0.17032208821824146,-0.0008205331783901482,-0.12338729709961582
364,0.3546,253.007,777.55,0.0196347,443.519,-0.680118,-1.17461,-0.0236982,0.15782,-0.132146,0.320769,-0.000472105,-0.000824223,0.251468,-0.023419602748779744,0.37818718288095377,-0.00047199357596983127,0.17095540376437612,-0.0008238834215256174,-0.12378694136632051
365,0.3556,253.145,777.995,0.0195608,443.767,-0.681273,-1.1766,-0.0237822,0.158361,-0.132602,0.321868,-0.000474028,-0.000827578,0.252344,-0.023501632056869726,0.3797026431878474,-0.00047391566647803085,0.1715890620269176,-0.0008272356517734503,-0.12418640343678355
366,0.3566,253.282,778.437,0.0194845,444.013,-0.68243,-1.1786,-0.0238662,0.158901,-0.133057,0.322966,-0.000475951,-0.000830934,0.253218,-0.023583654474787163,0.3812183886820615,-0.00047583775329018696,0.17222189096884888,-0.0008305888699439157,-0.12458480797931304
367,0.3576,253.418,778.878,0.0194102,444.259,-0.683591,-1.1806,-0.0239501,0.159441,-0.133512,0.324063,-0.000477875,-0.000834291,0.254092,-0.023665572369672927,0.3827344166437492,-0.0004777608359283203,0.17285506173069165,-0.0008339430760270217,-0.12498303128900934
368,0.3586,253.554,779.317,0.0193349,444.503,-0.684754,-1.1826,-0.0240339,0.15998,-0.133966,0.325159,-0.0004798,-0.000837649,0.254965,-0.02374738576667912,0.384250724349229,-0.00047968491438676875,0.173487401009091,-0.0008372982700127762,-0.12538019882895068
369,0.3596,253.69,779.754,0.0192606,444.747,-0.685921,-1.18461,-0.0241176,0.160519,-0.13442,0.326254,-0.000481726,-0.000841009,0.255838,-0.023829094690924313,0.3857673090709912,-0.0004816099886597591,0.17412008121023193,-0.0008406554510504982,-0.12577718609575395
370,0.3606,253.825,780.19,0.0191858,444.99,-0.687091,-1.18663,-0.0242013,0.161058,-0.134874,0.327349,-0.000483652,-0.00084437,0.256709,-0.02391079677641872,0.38728555536256737,-0.0004835350592250487,0.1747531025179212,-0.0008440136199641124,-0.12617399317124467
371,0.3616,253.959,780.625,0.0191117,445.231,-0.688263,-1.18865,-0.024285,0.161596,-0.135327,0.328442,-0.000485579,-0.000847732,0.25758,-0.02399249202373477,0.38880268743622026,-0.00048546112559721966,0.1753852897301873,-0.0008473727767436268,-0.12656974670739451
372,0.3626,254.093,781.058,0.0190375,445.472,-0.689439,-1.19067,-0.0243685,0.162133,-0.13578,0.329534,-0.000487507,-0.000851096,0.25845,-0.02407398524826132,0.3903200883209965,-0.00048738818777049886,0.17601664113345228,-0.0008507339205281461,-0.12696532100779234
373,0.3636,254.227,781.489,0.0189636,445.712,-0.690618,-1.19271,-0.024452,0.16267,-0.136233,0.330625,-0.000489435,-0.000854461,0.25932,-0.024155471668387607,0.3918377552741401,-0.0004893152462284167,0.17664833166346838,-0.0008540960521516983,-0.12736071615361377
374,0.3646,254.36,781.918,0.0188898,445.952,-0.691801,-1.19474,-0.0245355,0.163207,-0.136685,0.331716,-0.000491365,-0.000857828,0.260188,-0.024236951284682062,0.39335707890548344,-0.0004912442999884803,0.17728036150239523,-0.0008574601707468377,-0.1277550599814934
375,0.3656,254.492,782.347,0.0188163,446.19,-0.692986,-1.19679,-0.0246188,0.163743,-0.137137,0.332805,-0.000493295,-0.000861196,0.261056,-0.024318228961377808,0.394875271270116,-0.000493173350025411,0.177911552920349,-0.0008608252771541425,-0.12814922560623976
376,0.3666,254.624,782.773,0.0187429,446.428,-0.694175,-1.19883,-0.0247021,0.164279,-0.137588,0.333894,-0.000495226,-0.000864565,0.261923,-0.024399499867925,0.3963951178467886,-0.000495103395844243,0.17854308274758823,-0.0008641913713635097,-0.12854234165115985
377,0.3676,254.756,783.198,0.0186697,446.664,-0.695367,-1.20089,-0.0247854,0.164814,-0.138039,0.334981,-0.000497158,-0.000867936,0.26279,-0.024480764004887745,0.3979138246074745,-0.0004970344374390923,0.17917377199118767,-0.0008675594524975017,-0.12893528044071778
378,0.3686,254.887,783.622,0.0185966,446.9,-0.696562,-1.20295,-0.0248686,0.165349,-0.13849,0.336068,-0.000499091,-0.000871308,0.263655,-0.024561923829027,0.3994341830999626,-0.0004989664748041855,0.17980479874380784,-0.0008709285214067997,-0.12932804205483772
379,0.3696,255.018,784.044,0.0185237,447.135,-0.697761,-1.20501,-0.0249517,0.165883,-0.13894,0.337154,-0.000501024,-0.000874682,0.26452,-0.024642979365252726,0.40095479416516744,-0.0005008985084347106,0.18043498275049186,-0.0008742995772069717,-0.1297197562935991
380,0.3706,255.148,784.465,0.018451,447.369,-0.698963,-1.20708,-0.0250347,0.166417,-0.13939,0.338239,-0.000502959,-0.000878057,0.265385,-0.024723930638441027,0.4024756550346589,-0.0005028325373248599,0.1810655033653017,-0.0008776716207555824,-0.1301112943006082
381,0.3716,255.278,784.884,0.0183784,447.603,-0.700168,-1.20916,-0.0251177,0.166951,-0.139839,0.339322,-0.000504894,-0.000881434,0.266248,-0.024804875192952602,0.40399535894018923,-0.0005047665624727804,0.1816963607680342,-0.0008810456511615383,-0.1305017866573729
382,0.3726,255.407,785.301,0.0183061,447.835,-0.701377,-1.21124,-0.0252006,0.167484,-0.140288,0.340405,-0.00050683,-0.000884812,0.267111,-0.024885715517921292,0.405516709576593,-0.0005067015833716271,0.18232637281161823,-0.0008844206692888434,-0.1308921037224252
383,0.3736,255.536,785.717,0.0182338,448.067,-0.702589,-1.21333,-0.0252835,0.168016,-0.140737,0.341487,-0.000508767,-0.000888192,0.267973,-0.024966549141504868,0.4070383016892407,-0.0005086376000156267,0.18295553778499785,-0.0008877976742398541,-0.13128224557445367
384,0.3746,255.664,786.132,0.0181618,448.298,-0.703805,-1.21543,-0.0253663,0.168548,-0.141185,0.342569,-0.000510706,-0.000891573,0.268835,-0.025047278568991582,0.4085615410555581,-0.0005105756118883864,0.18358503756319355,-0.0008911756668854576,-0.13167134396388924
385,0.3756,255.792,786.545,0.0180899,448.528,-0.705024,-1.21753,-0.025449,0.16908,-0.141633,0.343649,-0.000512645,-0.000894956,0.269695,-0.02512790382515362,0.41008360928879894,-0.0005125136200033742,0.18421487232436884,-0.0008945556463209048,-0.13206026807628746
386,0.3766,255.919,786.957,0.0180182,448.757,-0.706247,-1.21964,-0.0255317,0.169611,-0.142081,0.344728,-0.000514584,-0.000898341,0.270555,-0.025208522413882717,0.41160591063710505,-0.0005144516243605901,0.1848438574023321,-0.0008979376125261007,-0.13244901798970665
387,0.3776,256.046,787.368,0.0179466,448.985,-0.707473,-1.22175,-0.0256143,0.170142,-0.142528,0.345806,-0.000516525,-0.000901727,0.271414,-0.02528903686463868,0.41312844230589896,-0.0005163916239272481,0.18547317656006213,-0.0009013205663819246,-0.13283672661933088
388,0.3786,256.173,787.777,0.0178752,449.213,-0.708703,-1.22387,-0.0256969,0.170672,-0.142975,0.346884,-0.000518467,-0.000905115,0.272273,-0.025369544665175714,0.41465261614880466,-0.0005183326192099713,0.1861016438727654,-0.0009047055069737464,-0.13322426198192572
389,0.3796,256.299,788.184,0.0178039,449.44,-0.709937,-1.22599,-0.0257793,0.171202,-0.143421,0.34796,-0.00052041,-0.000908505,0.273131,-0.0254498509060328,0.4161756015830047,-0.0005202746102029865,0.18673044436142838,-0.0009080924342812491,-0.1336107577661152
390,0.3806,256.425,788.591,0.0177328,449.666,-0.711174,-1.22813,-0.0258618,0.171732,-0.143867,0.349036,-0.000522354,-0.000911896,0.273988,-0.025530247976908282,0.4177002266314862,-0.0005222175969006315,0.1873595782026809,-0.0009114803491956369,-0.13399708121161935
391,0.3816,256.55,788.995,0.0176618,449.891,-0.712415,-1.23026,-0.0259441,0.172261,-0.144313,0.350111,-0.000524299,-0.000915289,0.274844,-0.025610443537407157,0.41922507383364027,-0.0005241615792969112,0.18798785758479508,-0.0009148702507918438,-0.13438323239528405
392,0.3826,256.675,789.399,0.017591,450.116,-0.71366,-1.23241,-0.0260264,0.172789,-0.144758,0.351184,-0.000526244,-0.000918684,0.2757,-0.02569063249808301,0.42074871962764737,-0.0005261055579121043,0.18861528079875223,-0.0009182621390495527,-0.13476834616269973
393,0.3836,256.799,789.801,0.0175203,450.34,-0.714908,-1.23456,-0.0261086,0.173318,-0.145203,0.352257,-0.000528191,-0.00092208,0.276555,-0.02577071743655568,0.4222740011710142,-0.0005280515316901102,0.18924422462326929,-0.0009216550148702929,-0.13515328859261433
394,0.3846,256.923,790.202,0.0174498,450.563,-0.716161,-1.23672,-0.0261908,0.173845,-0.145648,0.353329,-0.000530139,-0.000925478,0.277409,-0.02585079579231686,0.4237994964196332,-0.0005299985011494313,0.18987112150246443,-0.0009250498773186733,-0.1355380597612561
395,0.3856,257.047,790.601,0.0173794,450.785,-0.717417,-1.23888,-0.0262729,0.174373,-0.146092,0.3544,-0.000532088,-0.000928879,0.278262,-0.02593077015898959,0.4253252025500942,-0.0005319464662840723,0.1904995393423281,-0.00092844772544598,-0.13592179566704699
396,0.3866,257.17,790.999,0.0173092,451.007,-0.718677,-1.24105,-0.0263549,0.174899,-0.146536,0.355471,-0.000534038,-0.00093228,0.279115,-0.026010640561105358,0.4268525435871571,-0.0005338954270881491,0.19112590682022712,-0.0009318455620171973,-0.13630536123191417
397,0.3876,257.293,791.396,0.0172391,451.227,-0.719941,-1.24323,-0.0264369,0.175426,-0.146979,0.35654,-0.000535989,-0.000935684,0.279967,-0.026090504414116644,0.4283786645225591,-0.0005358453835559995,0.19175379560728478,-0.0009352463842267067,-0.13668789321979713
398,0.3886,257.415,791.791,0.0171691,451.447,-0.721208,-1.24542,-0.0265188,0.175952,-0.147423,0.357608,-0.000537941,-0.00093909,0.280819,-0.026170264335591664,0.4299049878478447,-0.0005377963356817395,0.1923808229975208,-0.000938649192982588,-0.1370711187128525
399,0.3896,257.537,792.185,0.0170993,451.667,-0.72248,-1.24761,-0.0266007,0.176477,-0.147865,0.358676,-0.000539894,-0.000942497,0.281669,-0.0262500177249968,0.4314329421572325,-0.0005397482834593736,0.19300698728333732,-0.0009420529892063545,-0.1374524489981802
400,0.3906,257.658,792.578,0.0170296,451.885,-0.723756,-1.24981,-0.0266825,0.177002,-0.148308,0.359742,-0.000541848,-0.000945907,0.282519,-0.026329667215838293,0.43295966327135105,-0.00054170122688324,0.19363348039171235,-0.0009454597709971369,-0.13783447293872353
401,0.3916,257.779,792.97,0.0169601,452.103,-0.725035,-1.25201,-0.0267642,0.177527,-0.14875,0.360808,-0.000543804,-0.000949318,0.283368,-0.02640921283254405,0.4344880127379349,-0.0005436561654036387,0.1942603024953229,-0.0009488675402219426,-0.13821546589603828
402,0.3926,257.9,793.36,0.0168906,452.32,-0.726319,-1.25422,-0.0268459,0.178051,-0.149191,0.361873,-0.00054576,-0.000952731,0.284217,-0.02648875195063838,0.4360165562764591,-0.0005456111001003183,0.1948862588800806,-0.0009522772959182912,-0.13859542908753653
403,0.3936,258.02,793.749,0.0168213,452.537,-0.727607,-1.25644,-0.0269275,0.178575,-0.149632,0.362937,-0.000547718,-0.000956146,0.285065,-0.026568187227475892,0.4375452910350057,-0.0005475680298779873,0.19551254335193513,-0.0009556890380657546,-0.13897522475220958
404,0.3946,258.14,794.136,0.0167522,452.752,-0.728898,-1.25867,-0.0270091,0.179098,-0.150073,0.364,-0.000549676,-0.000959563,0.285912,-0.026647616022659193,0.43907421415804637,-0.0005495249558239435,0.19613795994429117,-0.0009591027666439045,-0.13935485296392058
405,0.3956,258.26,794.523,0.0166832,452.967,-0.730194,-1.2609,-0.0270905,0.179621,-0.150514,0.365062,-0.000551636,-0.000962983,0.286759,-0.026726843682105428,0.4406033227864474,-0.0005514838768352348,0.1967637037150749,-0.0009625194806698323,-0.13973431379650014
406,0.3966,258.379,794.908,0.0166143,453.182,-0.731495,-1.26314,-0.027172,0.180144,-0.150954,0.366123,-0.000553598,-0.000966404,0.287604,-0.026806162212071327,0.44213261405748017,-0.000553444792900204,0.19738977483544518,-0.0009659371820447404,-0.14011274743692337
407,0.3976,258.498,795.292,0.0165455,453.395,-0.732799,-1.26539,-0.0272533,0.180666,-0.151394,0.367183,-0.00055556,-0.000969827,0.288449,-0.02688527965491594,0.44366208510482674,-0.0005554057051179173,0.19801497546107605,-0.0009693568697889399,-0.14049101460317182
408,0.3986,258.616,795.674,0.0164768,453.608,-0.734107,-1.26765,-0.0273346,0.181188,-0.151833,0.368243,-0.000557523,-0.000973252,0.289294,-0.02696439066577383,0.4451931782510441,-0.0005573676129309035,0.19864050252662713,-0.0009727785438821135,-0.1408682562371638
409,0.3996,258.734,796.055,0.0164083,453.82,-0.73542,-1.26991,-0.0274159,0.181709,-0.152272,0.369302,-0.000559488,-0.00097668,0.290137,-0.027043495245167914,0.44672444849129667,-0.0005593315157739198,0.1992651569367876,-0.0009762032033273638,-0.1412453322984244
410,0.4006,258.851,796.436,0.0163399,454.032,-0.736737,-1.27218,-0.027497,0.18223,-0.152711,0.370359,-0.000561454,-0.000980109,0.29098,-0.027122398818120397,0.4482544446938961,-0.0005612964141966659,0.19989013687668877,-0.0009796288500533157,-0.141622242859624
411,0.4016,258.969,796.814,0.0162716,454.243,-0.738059,-1.27446,-0.0275782,0.18275,-0.153149,0.371416,-0.000563421,-0.000983541,0.291823,-0.027201393272118124,0.44978605895747625,-0.0005632623081932575,0.20051424200113388,-0.0009830574820836047,-0.14199812999196026
412,0.4026,259.085,797.192,0.0162034,454.453,-0.739385,-1.27674,-0.0276592,0.18327,-0.153587,0.372472,-0.000565389,-0.000986975,0.292664,-0.027280186768083414,0.4513178416746646,-0.0005652291977575885,0.2011386717446373,-0.000986488100373828,-0.14237385252178303
413,0.4036,259.202,797.569,0.0161353,454.662,-0.740715,-1.27904,-0.0277402,0.18379,-0.154025,0.373527,-0.000567359,-0.000990411,0.293505,-0.02735897388203401,0.45284978995825953,-0.0005671980823166445,0.20176342627604482,-0.0009899207049034464,-0.14274941052117252
414,0.4046,259.318,797.944,0.0160674,454.871,-0.74205,-1.28134,-0.0278211,0.184309,-0.154462,0.374581,-0.00056933,-0.000993849,0.294345,-0.027437657358257428,0.45438190091751385,-0.0005691679624280077,0.20238730337638566,-0.000993355295652032,-0.14312394718655297
415,0.4056,259.434,798.318,0.0159996,455.079,-0.743389,-1.28364,-0.027902,0.184827,-0.154899,0.375635,-0.000571302,-0.000997289,0.295185,-0.027516334469245063,0.4559156275730416,-0.000571138838085461,0.20301030134207743,-0.0009967918725988234,-0.14349832021516795
416,0.4066,259.549,798.691,0.0159318,455.287,-0.744733,-1.28596,-0.0279828,0.185346,-0.155336,0.376687,-0.000573276,-0.00100073,0.296024,-0.027594907975007632,0.45744805672965594,-0.0005731117087102167,0.2036348257385363,-0.0010002294367237319,-0.14387252967851094
417,0.4076,259.664,799.063,0.0158642,455.494,-0.746081,-1.28828,-0.0280636,0.185863,-0.155772,0.377739,-0.000575251,-0.00100418,0.296862,-0.02767347513228735,0.4589820988500133,-0.0005750855748652972,0.20425726583034254,-0.001003675979986851,-0.14424571989419233
418,0.4086,259.779,799.433,0.0157967,455.7,-0.747434,-1.29062,-0.0281443,0.186381,-0.156208,0.378789,-0.000577227,-0.00100762,0.297699,-0.027751938716795932,0.460514834599254,-0.0005770604365450405,0.20488123268750646,-0.0010071125214305976,-0.1446187474344054
419,0.4096,259.893,799.803,0.0157292,455.906,-0.748792,-1.29296,-0.0282249,0.186898,-0.156643,0.379839,-0.000579204,-0.00101107,0.298536,-0.02783029875258347,0.4620491805662479,-0.0005790362937434512,0.20550431733830954,-0.0010105590409471565,-0.14499075736124623
420,0.4106,260.007,800.171,0.0156619,456.111,-0.750154,-1.29531,-0.0283055,0.187414,-0.157078,0.380888,-0.000581183,-0.00101452,0.299372,-0.027908652472806716,0.46358367485820495,-0.0005810141458735263,0.206126518080042,-0.0010140055485732269,-0.14536260549896052
421,0.4116,260.12,800.538,0.0155947,456.315,-0.751522,-1.29766,-0.028386,0.18793,-0.157513,0.381936,-0.000583163,-0.00101798,0.300208,-0.0279869026766697,0.4651183145602018,-0.0005829929935065037,0.20674903996020388,-0.001017462034134331,-0.14573429191791132
422,0.4126,260.233,800.904,0.0155275,456.518,-0.752894,-1.30003,-0.0284664,0.188446,-0.157947,0.382983,-0.000585145,-0.00102144,0.301043,-0.028065049388154573,0.46665309675382116,-0.0005849738360513834,0.20737188314454524,-0.0010209185077360017,-0.14610496279382068
423,0.4136,260.346,801.269,0.0154605,456.721,-0.754271,-1.3024,-0.0285468,0.188962,-0.158381,0.38403,-0.000587128,-0.00102489,0.301877,-0.028143189816896452,0.46818948670591176,-0.0005869556740832893,0.20799504779890188,-0.0010243649796219945,-0.14647547283347395
424,0.4146,260.459,801.632,0.0153935,456.924,-0.755653,-1.30478,-0.0286271,0.189476,-0.158815,0.385075,-0.000589112,-0.00102836,0.30271,-0.028221226785527964,0.46972454664864594,-0.0005889385075962261,0.20861611685454418,-0.0010278314190612647,-0.14684582210665886
425,0.4156,260.571,801.995,0.0153266,457.126,-0.75704,-1.30718,-0.0287074,0.189991,-0.159248,0.38612,-0.000591098,-0.00103182,0.303543,-0.028299257488042406,0.47126121156747414,-0.0005909233359934207,0.2092387144598471,-0.0010312878567848571,-0.1472151578987171
426,0.4166,260.683,802.356,0.0152597,457.327,-0.758433,-1.30958,-0.0287876,0.190505,-0.159681,0.387164,-0.000593086,-0.00103529,0.304375,-0.028377184762666374,0.4727980103417264,-0.0005929101592628827,0.20986042292446694,-0.0010347542722017877,-0.14758433380299563
427,0.4176,260.794,802.717,0.0151929,457.527,-0.759831,-1.31199,-0.0288677,0.191019,-0.160114,0.388207,-0.000595074,-0.00103875,0.305206,-0.02845500863327932,0.4743349400360195,-0.0005948969785826153,0.21048245102937835,-0.0010382106859724294,-0.1479533498887109
428,0.4186,260.905,803.076,0.0151261,457.727,-0.761235,-1.31441,-0.0289478,0.191532,-0.160546,0.389249,-0.000597065,-0.00104223,0.306037,-0.02853282627044973,0.47587199771151245,-0.0005968867921618548,0.21110358783472494,-0.001041687066950292,-0.1483213545468296
429,0.4196,261.016,803.434,0.0150593,457.926,-0.762645,-1.31684,-0.0290279,0.192045,-0.160978,0.39029,-0.000599057,-0.0010457,0.306867,-0.028610637674677197,0.47740918042591507,-0.0005988776011804919,0.21172504336499887,-0.0010451534462819767,-0.1486892002612703
430,0.4206,261.127,803.791,0.0149925,458.125,-0.76406,-1.31928,-0.0291078,0.192557,-0.16141,0.39133,-0.00060105,-0.00104918,0.307696,-0.028688248584129883,0.4789464852334955,-0.0006008694056326425,0.2123456054375359,-0.0010486298030991659,-0.14905688710068188
431,0.4216,261.237,804.147,0.0149254,458.323,-0.765483,-1.32174,-0.0291877,0.193069,-0.161841,0.39237,-0.000603045,-0.00105266,0.308525,-0.028765853292718524,0.4804853896697385,-0.0006028632049093208,0.21296648531920614,-0.0010521061478185878,-0.14942356455767325
432,0.4226,261.346,804.502,0.0148582,458.521,-0.766913,-1.32421,-0.0292676,0.193581,-0.162272,0.393409,-0.000605042,-0.00105614,0.309353,-0.028843451800938835,0.48202441337396906,-0.0006048589989987585,0.21358768317276988,-0.0010555824804403535,-0.14979008401073302
433,0.4236,261.456,804.855,0.0147905,458.718,-0.768351,-1.32669,-0.0293474,0.194092,-0.162702,0.394446,-0.00060704,-0.00105962,0.31018,-0.028920947001385477,0.48356206982771366,-0.0006068557884956194,0.21420798495247806,-0.001059058800964574,-0.15015559568396675
434,0.4246,261.565,805.208,0.0147229,458.914,-0.769799,-1.32921,-0.0294271,0.194603,-0.163133,0.395483,-0.000609041,-0.00106311,0.311007,-0.02899833891780057,0.48510132165826025,-0.0006088555721764921,0.21482860378739632,-0.0010625450987656881,-0.15052179969959278
435,0.4256,261.674,805.56,0.0146635,459.11,-0.771257,-1.33176,-0.0295068,0.195113,-0.163562,0.396519,-0.000611043,-0.0010666,0.311833,-0.029075724666325797,0.48664068387944637,-0.000610856351244804,0.21544832439064932,-0.001066031384399757,-0.15088614768928987
436,0.4266,261.783,805.91,0.0148113,459.305,-0.772713,-1.33446,-0.0295864,0.195623,-0.163992,0.397555,-0.000613049,-0.0010701,0.312658,-0.02915300716275826,0.4881816417062743,-0.0006128611238561676,0.21606836113201844,-0.0010695276471714976,-0.15125118815645844
437,0.4276,261.891,806.259,0.0143251,459.5,-0.774418,-1.337,-0.0296659,0.196132,-0.164421,0.398589,-0.00061506,-0.00107359,0.313483,-0.029230186430772243,0.4897212173472345,-0.0006148708893716215,0.2166874974846691,-0.0010730139084363932,-0.15161522330561672
438,0.4286,261.999,806.608,0.014456,459.694,-0.775884,-1.33965,-0.0297454,0.196641,-0.16485,0.399623,-0.000617069,-0.00107709,0.314307,-0.029307359563278346,0.4912623857327143,-0.0006168786520792668,0.21730694905794024,-0.0010765101467693494,-0.1519791023171898
439,0.4296,262.106,806.955,0.0142418,459.887,-0.777402,-1.34229,-0.0298248,0.19715,-0.165278,0.400656,-0.00061908,-0.0010806,0.315131,-0.02938442949921205,0.49280365570606155,-0.0006188884095154057,0.21792671601231972,-0.0010800163620653391,-0.15234197760054802
440,0.4306,262.214,807.301,0.0142704,460.08,-0.778935,-1.34493,-0.0299042,0.197658,-0.165706,0.401687,-0.000621093,-0.0010841,0.315953,-0.02946149331603576,0.4943435299438619,-0.0006209001616682697,0.21854557996218849,-0.001083512575889678,-0.15270469760651673
441,0.4316,262.321,807.647,0.0141426,460.272,-0.780472,-1.34758,-0.0299835,0.198166,-0.166134,0.402719,-0.000623108,-0.00108761,0.316775,-0.02953845396808563,0.49588648849643646,-0.0006229139085255353,0.21916475837481042,-0.0010870187666071063,-0.15306726240154034
442,0.4326,262.427,807.991,0.0141169,460.464,-0.782014,-1.35024,-0.0300628,0.198674,-0.166562,0.403749,-0.000625125,-0.00109112,0.317597,-0.029615408517397745,0.49742804534507834,-0.0006249296500753232,0.21978425140997326,-0.0010905249450179344,-0.15342967205203495
443,0.4336,262.534,808.334,0.0140244,460.655,-0.783562,-1.35291,-0.030142,0.199181,-0.166989,0.404778,-0.000627144,-0.00109464,0.318417,-0.02969225993368696,0.49896969184483275,-0.0006269473863055319,0.22040283882409706,-0.0010940411001817418,-0.15379108041589173
444,0.4346,262.64,808.676,0.0139758,460.846,-0.785115,-1.35559,-0.0302211,0.199688,-0.167415,0.405807,-0.000629164,-0.00109816,0.319237,-0.02976900824049067,0.5005129255152945,-0.0006289661178328076,0.22102173994155683,-0.001097557242968561,-0.1541514886432317
445,0.4356,262.745,809.018,0.0138986,461.036,-0.786673,-1.35828,-0.0303002,0.200194,-0.167842,0.406835,-0.000631187,-0.00110168,0.320057,-0.029845750476743316,0.5020562459335061,-0.0006309878433894411,0.22163973328109643,-0.0011010733733787248,-0.15451258885719876
446,0.4366,262.851,809.358,0.0138402,461.225,-0.788236,-1.36097,-0.0303792,0.2007,-0.168268,0.407861,-0.000633211,-0.00110521,0.320876,-0.029922389635169022,0.5035981465015651,-0.0006330105642230466,0.22225803940439337,-0.0011045994803661197,-0.15487268978740165
447,0.4376,262.956,809.697,0.0137697,461.414,-0.789805,-1.36368,-0.0304582,0.201205,-0.168693,0.408888,-0.000635237,-0.00110874,0.321694,-0.02999902273934041,0.505143135013828,-0.0006350352796925529,0.22287543559370948,-0.00110812557490636,-0.1552317925794935
448,0.4386,263.061,810.036,0.0137071,461.603,-0.791379,-1.36639,-0.0305371,0.20171,-0.169119,0.409913,-0.000637265,-0.00111227,0.322511,-0.03007555279729579,0.5066866976679354,-0.0006370619897859697,0.22349314364684014,-0.0011116516569995571,-0.15559158719416044
449,0.4396,263.165,810.373,0.0136395,461.791,-0.792958,-1.36912,-0.0306159,0.202215,-0.169544,0.410937,-0.000639295,-0.0011158,0.323328,-0.030151979832470643,0.5082303350538038,-0.0006390906944909736,0.22411116372131645,-0.0011151777266457108,-0.1559503845197706
450,0.4406,263.269,810.709,0.0135752,461.978,-0.794543,-1.37185,-0.0306947,0.202719,-0.169968,0.411961,-0.000641327,-0.00111934,0.324144,-0.030228400845432435,0.5097755539339421,-0.000641121393795463,0.22472827124586514,-0.001118713772657709,-0.15630818569752425
451,0.4416,263.373,811.045,0.0135089,462.165,-0.796133,-1.37459,-0.0307734,0.203223,-0.170393,0.412984,-0.000643361,-0.00112289,0.32496,-0.030304718867132263,0.5113208446070299,-0.0006431540876873365,0.22534568987099712,-0.0011222597949296365,-0.15666667853347904
452,0.4426,263.477,811.379,0.013444,462.351,-0.797728,-1.37735,-0.0308521,0.203727,-0.170817,0.414006,-0.000645397,-0.00112643,0.325775,-0.030381030882840276,0.5128662040543872,-0.0006451887761542707,0.2259634197535465,-0.0011257958158712444,-0.15702417606694796
453,0.4436,263.58,811.713,0.0133782,462.536,-0.799329,-1.38011,-0.0309307,0.20423,-0.17124,0.415027,-0.000647435,-0.00112998,0.326589,-0.030457239938757708,0.5144116292540399,-0.0006472254591841642,0.22658023446957865,-0.0011293418130019495,-0.1573806794346937
454,0.4446,263.683,812.045,0.0133131,462.722,-0.800935,-1.38288,-0.0310093,0.204732,-0.171664,0.416047,-0.000649475,-0.00113353,0.327402,-0.030533443004878813,0.515957117180728,-0.0006492641367648044,0.2271961323247098,-0.0011328877975443907,-0.15773787429595154
455,0.4456,263.786,812.377,0.0132476,462.906,-0.802546,-1.38566,-0.0310878,0.205235,-0.172087,0.417067,-0.000651517,-0.00113709,0.328215,-0.030609543142633422,0.5175041823093374,-0.000651304808883868,0.22781356725113522,-0.0011364437581342646,-0.15809407583318802
456,0.4466,263.888,812.708,0.0131825,463.09,-0.804163,-1.38845,-0.0311662,0.205737,-0.172509,0.418085,-0.000653561,-0.00114065,0.329028,-0.030685540375320564,0.5190497881468206,-0.0006533474755292534,0.2284300843947511,-0.0011399997060648204,-0.15844928517874302
457,0.4476,263.99,813.038,0.0131172,463.274,-0.805785,-1.39125,-0.0312446,0.206238,-0.172932,0.419103,-0.000655606,-0.00114421,0.329839,-0.03076153165005835,0.5205969682121923,-0.0006553911373440302,0.2290456820613722,-0.0011435556413362802,-0.1588051858528131
458,0.4486,264.092,813.366,0.0130521,463.457,-0.807412,-1.39405,-0.0313229,0.206739,-0.173354,0.42012,-0.000657654,-0.00114778,0.33065,-0.030837420051060382,0.5221442019638696,-0.0006574377930071984,0.22966158821969485,-0.0011471215524775369,-0.1591600951732497
459,0.4496,264.193,813.694,0.0129869,463.639,-0.809045,-1.39687,-0.0314012,0.20724,-0.173775,0.421136,-0.000659704,-0.00115135,0.331461,-0.030913302510233387,0.5236914863604389,-0.0006594864431598291,0.23027780302431222,-0.0011506874508884213,-0.15951401426798484
460,0.4506,264.294,814.021,0.0129219,463.821,-0.810683,-1.3997,-0.0314794,0.20774,-0.174197,0.422152,-0.000661756,-0.00115492,0.33227,-0.030989082126955503,0.5252403435968225,-0.0006615370877897098,0.23089309573618366,-0.0011542533365691554,-0.15986862452593675
461,0.4516,264.395,814.347,0.0128568,464.003,-0.812326,-1.40253,-0.0315575,0.20824,-0.174618,0.423166,-0.00066381,-0.0011585,0.333079,-0.031064758924423952,0.5267877216933405,-0.000663589726884517,0.23150869617133574,-0.0011578291979413846,-0.16022224539259589
462,0.4526,264.496,814.673,0.0127918,464.184,-0.813975,-1.40538,-0.0316356,0.20874,-0.175038,0.42418,-0.000665867,-0.00116208,0.333888,-0.031140429811765347,0.5283366696270215,-0.0006656453597662093,0.232124604483668,-0.0011614050465120762,-0.1605748779915016
463,0.4536,264.596,814.997,0.0127269,464.364,-0.81563,-1.40823,-0.0317137,0.209239,-0.175459,0.425193,-0.000667925,-0.00116567,0.334695,-0.031216094789441207,0.5298856591040633,-0.0006677019877517898,0.2327395880869534,-0.0011649908706313772,-0.16092820158803145
464,0.4546,264.696,815.32,0.0126619,464.544,-0.817289,-1.41109,-0.0317916,0.209737,-0.175878,0.426205,-0.000669985,-0.00116925,0.335503,-0.031291560116244455,0.5314346870670235,-0.0006697606101653264,0.2333536452893734,-0.0011685666935633554,-0.16127969902771
465,0.4556,264.796,815.643,0.0125971,464.724,-0.818954,-1.41397,-0.0318696,0.210236,-0.176298,0.427217,-0.000672048,-0.00117285,0.336309,-0.03136711642782086,0.5329852834397639,-0.0006718222263225604,0.2339692423370625,-0.0011721624802508712,-0.16163188758934333
466,0.4566,264.895,815.964,0.0125322,464.903,-0.820625,-1.41685,-0.0319474,0.210734,-0.176717,0.428227,-0.000674113,-0.00117644,0.337115,-0.031442473134748905,0.5345343807384877,-0.0006738858368789957,0.2345839120598039,-0.0011757482657510643,-0.1619830902463486
467,0.4576,264.995,816.285,0.0124674,465.081,-0.822301,-1.41974,-0.0320252,0.211231,-0.177136,0.429237,-0.000676179,-0.00118004,0.33792,-0.03151782397915315,0.5360850434158664,-0.00067595044249813,0.23519765276602977,-0.0011793440265849275,-0.16233414578026506
468,0.4586,265.093,816.605,0.0124026,465.259,-0.823982,-1.42264,-0.032103,0.211728,-0.177555,0.430246,-0.000678248,-0.00118364,0.338725,-0.03159316896148978,0.5376357354172268,-0.0006780180418177739,0.23581169857719897,-0.0011829397744741454,-0.16268505425272428
469,0.4596,265.192,816.924,0.0123379,465.436,-0.825669,-1.42555,-0.0321807,0.212225,-0.177973,0.431254,-0.00068032,-0.00118725,0.339529,-0.031668411249060724,0.5391864536692241,-0.0006800886348192758,0.23642604964498637,-0.0011865454975531486,-0.16303497876072948
470,0.4606,265.29,817.242,0.0122731,465.613,-0.827361,-1.42847,-0.0322583,0.212722,-0.178391,0.432262,-0.000682393,-0.00119086,0.340332,-0.031743550864893,0.5407387358332985,-0.0006821602228482826,0.23704070612114214,-0.001190151207615564,-0.1633847570308561
471,0.4616,265.389,817.559,0.0122085,465.79,-0.829059,-1.4314,-0.0323359,0.213218,-0.178809,0.433268,-0.000684468,-0.00119448,0.341135,-0.03181868465011739,0.5422894989045859,-0.0006842338052144292,0.23765443050244262,-0.0011937668927238798,-0.163734389124219
472,0.4626,265.486,817.875,0.0121438,465.966,-0.830762,-1.43434,-0.0324134,0.213713,-0.179226,0.434274,-0.000686546,-0.0011981,0.341937,-0.03189371579456257,0.5438418228285002,-0.0006863103812190241,0.23826722109870158,-0.0011973825647433323,-0.16408303918536427
473,0.4636,265.584,818.191,0.0120792,466.141,-0.832471,-1.43729,-0.0324909,0.214208,-0.179643,0.435279,-0.000688626,-0.00120172,0.342739,-0.031968741124319355,0.545394163781113,-0.000688388951531782,0.23888031510139252,-0.0012009982236741434,-0.16443154388974301
474,0.4646,265.681,818.506,0.0120145,466.317,-0.834185,-1.44024,-0.0325683,0.214703,-0.18006,0.436283,-0.000690708,-0.00120534,0.343539,-0.03204366384420976,0.5469465186733053,-0.0006904695161400465,0.23949371266073882,-0.0012046138695162023,-0.16477990329795633
475,0.4656,265.778,818.819,0.01195,466.491,-0.835905,-1.44321,-0.0326457,0.215198,-0.180476,0.437287,-0.000692793,-0.00120897,0.34434,-0.03211858076530594,0.5485004329124705,-0.0006925530743390196,0.24010741392703827,-0.001208239490187335,-0.16512728259828025
476,0.4666,265.875,819.132,0.0118854,466.665,-0.83763,-1.44619,-0.0327229,0.215692,-0.180892,0.438289,-0.00069488,-0.00121261,0.345139,-0.0321932983267359,0.5500528079562632,-0.0006946386268045224,0.24072017832986425,-0.0012118750855788507,-0.1654745174188691
477,0.4676,265.971,819.444,0.0118209,466.839,-0.839361,-1.44917,-0.0328002,0.216185,-0.181308,0.439291,-0.000696969,-0.00121625,0.345938,-0.03226810689338688,0.5516067392594055,-0.0006967261735240093,0.24133200418046097,-0.00121551066773673,-0.16582160781981392
478,0.4686,266.068,819.756,0.0117563,467.012,-0.841097,-1.45217,-0.0328774,0.216679,-0.181723,0.440292,-0.00069906,-0.00121989,0.346737,-0.032342812911845265,0.5531606752205989,-0.000698815714484935,0.241945373680319,-0.001219146236661195,-0.1661677200293178
479,0.4696,266.164,820.066,0.0116918,467.185,-0.842838,-1.45517,-0.0329545,0.217172,-0.182138,0.441292,-0.000701154,-0.00122353,0.347534,-0.03241741640496809,0.5547146127350819,-0.0007009082489739527,0.24255780370113933,-0.0012227817923521345,-0.16651368863205518
480,0.4706,266.259,820.376,0.0116274,467.357,-0.844586,-1.45819,-0.0330316,0.217664,-0.182553,0.442292,-0.00070325,-0.00122718,0.348331,-0.032492014146383474,0.5562701049643073,-0.0007030027776752101,0.24316929255448327,-0.0012264273225455202,-0.16685951368761054
481,0.4716,266.355,820.684,0.0115629,467.529,-0.846338,-1.46121,-0.0331086,0.218156,-0.182968,0.44329,-0.000705348,-0.00123084,0.349128,-0.03256650939319039,0.5578240378125761,-0.0007050993005760509,0.2437810823343649,-0.0012300828271319952,-0.16720519525554356
482,0.4726,266.45,820.992,0.0114984,467.7,-0.848096,-1.46425,-0.0331856,0.218648,-0.183382,0.444288,-0.000707448,-0.0012345,0.349924,-0.03264099890408412,0.5593795222599465,-0.0007071978176641514,0.24439317318887643,-0.0012337383183392836,-0.16754990094570654
483,0.4736,266.545,821.3,0.011434,467.871,-0.84986,-1.46729,-0.0332625,0.21914,-0.183795,0.445285,-0.000709551,-0.00123816,0.350719,-0.032715385951049725,0.5609349989199082,-0.0007092993282173943,0.24500556526618333,-0.0012373937961674963,-0.16789363185129813
484,0.4746,266.64,821.606,0.0113696,468.041,-0.85163,-1.47034,-0.0333393,0.219631,-0.184209,0.446282,-0.000711657,-0.00124182,0.351514,-0.03278967055684334,0.5624920271634357,-0.0007114038322169058,0.24561701309688733,-0.0012410492606166335,-0.16823805258769986
485,0.4756,266.734,821.911,0.0113052,468.211,-0.853405,-1.47341,-0.0334161,0.220121,-0.184622,0.447277,-0.000713764,-0.00124549,0.352308,-0.03286394945779825,0.5640474804401403,-0.0007135093310709495,0.24622751499405449,-0.0012447146992398128,-0.16858149934534394
486,0.4766,266.828,822.216,0.0112408,468.381,-0.855185,-1.47648,-0.0334929,0.220611,-0.185035,0.448272,-0.000715875,-0.00124917,0.353101,-0.032938222654352645,0.5656044821630797,-0.0007156188226261628,0.24683831611045393,-0.0012483901119269003,-0.16892480428876377
487,0.4776,266.922,822.52,0.0111764,468.55,-0.856971,-1.47956,-0.0335696,0.221101,-0.185447,0.449266,-0.000717987,-0.00125285,0.353894,-0.03301239344818874,0.5671614667114739,-0.0007177293090104842,0.24744941659273922,-0.0012520655110885848,-0.16926713674406857
488,0.4786,267.016,822.823,0.011112,468.718,-0.858763,-1.48265,-0.0336462,0.221591,-0.185859,0.450259,-0.000720102,-0.00125653,0.354686,-0.033086461861994154,0.5687184309527273,-0.0007198427887780134,0.24806081658763524,-0.0012557408967247552,-0.16960932818745222
489,0.4796,267.109,823.125,0.0110476,468.886,-0.86056,-1.48575,-0.0337228,0.22208,-0.186271,0.451252,-0.000722219,-0.00126022,0.355478,-0.033160524602376396,0.5702769420273477,-0.0007219582626316612,0.24867126757004754,-0.001259426256241425,-0.16995137867699972
490,0.4806,267.202,823.427,0.0109832,469.054,-0.862363,-1.48886,-0.0337993,0.222569,-0.186683,0.452243,-0.000724339,-0.00126391,0.356269,-0.033234484993223234,0.5718338578012447,-0.0007240767298345441,0.24928201713598797,-0.0012631116021590838,-0.17029328827077206
491,0.4816,267.295,823.728,0.0109189,469.221,-0.864171,-1.49198,-0.0338757,0.223057,-0.187094,0.453234,-0.000726461,-0.0012676,0.357059,-0.0333083430571558,0.573392317243435,-0.0007261971910939025,0.24989181553905904,-0.001266796934477843,-0.17063422766144876
492,0.4826,267.388,824.028,0.0108545,469.388,-0.865985,-1.49511,-0.0339522,0.223545,-0.187505,0.454224,-0.000728586,-0.0012713,0.357849,-0.03338229214032351,0.5749507469329176,-0.0007283206456687452,0.2505019115963725,-0.0012704922404928043,-0.1709750269548277
493,0.4836,267.481,824.327,0.0107902,469.555,-0.867805,-1.49825,-0.0340285,0.224033,-0.187915,0.455213,-0.000730713,-0.00127501,0.358638,-0.03345604225783039,0.5765091437218213,-0.0007304460942703095,0.25111230545321916,-0.0012741975200932787,-0.1713148575237492
494,0.4846,267.573,824.625,0.0107258,469.721,-0.86963,-1.5014,-0.0341048,0.22452,-0.188325,0.456202,-0.000732843,-0.00127872,0.359426,-0.033529786748418,0.5780690825275507,-0.0007325745361532743,0.2517217455325891,-0.0012779027859471936,-0.1716545487906962
495,0.4856,267.665,824.923,0.0106614,469.886,-0.871461,-1.50456,-0.0341811,0.225007,-0.188735,0.45719,-0.000734975,-0.00128243,0.360214,-0.03360352561251567,0.5796289852461403,-0.0007347049720333176,0.2523314824815597,-0.0012816080380546602,-0.1719941008127709
496,0.4866,267.757,825.22,0.0105971,470.051,-0.873297,-1.50773,-0.0342572,0.225493,-0.189145,0.458177,-0.000737109,-0.00128615,0.361002,-0.033677065585985044,0.5811888487205719,-0.000736837401897672,0.25294026350385157,-0.0012853232635624545,-0.17233351364705207
497,0.4876,267.848,825.516,0.0105327,470.216,-0.87514,-1.51091,-0.0343334,0.225979,-0.189554,0.459163,-0.000739247,-0.00128987,0.361788,-0.033750696588210616,0.5827486697908271,-0.0007389738242554733,0.2535493404656277,-0.0012890384752496375,-0.17267196002296858
498,0.4886,267.939,825.811,0.0104684,470.38,-0.876987,-1.5141,-0.0344095,0.226465,-0.189963,0.460149,-0.000741386,-0.00129359,0.362574,-0.03382422536239493,0.5843100296031325,-0.0007411112413044929,0.2541587135107495,-0.0012927536731162093,-0.17301026800262131
499,0.4896,268.03,826.106,0.010404,470.544,-0.878841,-1.5173,-0.0344855,0.226951,-0.190372,0.461133,-0.000743529,-0.00129732,0.36336,-0.033897651931022454,0.585869757932749,-0.0007432526508085457,0.25476838278314884,-0.0012964788441975905,-0.17334843764260277
500,0.4906,268.121,826.4,0.0103396,470.708,-0.8807,-1.52051,-0.0345615,0.227436,-0.19078,0.462117,-0.000745673,-0.00130106,0.364145,-0.03397107291944279,0.5874310217903975,-0.0007453950549781707,0.25537709304910616,-0.0013002139883819819,-0.1736856426855381
501,0.4916,268.212,826.693,0.0102752,470.871,-0.882565,-1.52373,-0.0346374,0.22792,-0.191188,0.4631,-0.000747821,-0.0013048,0.364929,-0.03404439173252405,0.5889922336947533,-0.0007475414515644152,0.25598484262567545,-0.001303949118596881,-0.17402271017687831
502,0.4926,268.302,826.985,0.0102108,471.033,-0.884436,-1.52695,-0.0347132,0.228405,-0.191596,0.464083,-0.000749971,-0.00130854,0.365713,-0.034117608392684184,0.5905549810249493,-0.0007496898420407128,0.2565941430177503,-0.00130768423484251,-0.1743596401727331
503,0.4936,268.392,827.277,0.0101464,471.195,-0.886312,-1.53019,-0.0347891,0.228888,-0.192003,0.465065,-0.000752123,-0.00131229,0.366496,-0.03419091608414515,0.5921176731725817,-0.0007518402263944068,0.25720122458722483,-0.0013114293240046315,-0.17469560742520918
504,0.4946,268.482,827.567,0.010082,471.357,-0.888194,-1.53344,-0.0348648,0.229372,-0.19241,0.466046,-0.000754279,-0.00131604,0.367278,-0.0342640250645877,0.5936803069565169,-0.0007539946031044353,0.2578098572571499,-0.0013151743991226539,-0.17503143796683607
505,0.4956,268.572,827.857,0.0100176,471.519,-0.890082,-1.5367,-0.0349405,0.229855,-0.192817,0.467026,-0.000756436,-0.0013198,0.36806,-0.03433712851088999,0.595242879192672,-0.0007561499744135336,0.25841752615843117,-0.0013189294470073998,-0.1753671318532437
506,0.4966,268.661,828.147,0.00995316,471.68,-0.891975,-1.53996,-0.0350162,0.230338,-0.193224,0.468005,-0.000758597,-0.00132356,0.368841,-0.0344102264234708,0.5968053866940259,-0.0007583093380402195,0.25902548863468455,-0.0013226844807732174,-0.17570268914003961
507,0.4976,268.75,828.436,0.00988871,471.84,-0.893874,-1.54324,-0.0350918,0.23082,-0.19363,0.468984,-0.00076076,-0.00132733,0.369622,-0.03448322225107614,0.5983694246392539,-0.0007604706954795759,0.2596324851946257,-0.0013264494871556565,-0.17603728592050616
508,0.4986,268.839,828.723,0.00982424,472.0,-0.895779,-1.54653,-0.0351673,0.231303,-0.194036,0.469962,-0.000762926,-0.0013311,0.370402,-0.03455611601602193,0.599933394593199,-0.0007626350459560838,0.26024103463783455,-0.0013302144793441162,-0.17637174688225288
509,0.4996,268.928,829.011,0.00975975,472.16,-0.89769,-1.54983,-0.0352428,0.231784,-0.194441,0.470939,-0.000765094,-0.00133487,0.371182,-0.03462900427769622,0.6014972933598652,-0.0007648013902149531,0.26084735638418555,-0.0013339794573384856,-0.17670524878607152
510,0.5006,269.017,829.297,0.00969525,472.319,-0.899606,-1.55313,-0.0353182,0.232266,-0.194846,0.471915,-0.000767265,-0.00133866,0.371961,-0.034701790506698416,0.6030611177403438,-0.0007669707274763349,0.26145523129604764,-0.0013377643943839335,-0.17703861564896672
511,0.5016,269.105,829.583,0.00963073,472.478,-0.901528,-1.55645,-0.0353936,0.232747,-0.195251,0.472891,-0.000769439,-0.00134244,0.372739,-0.03477457124782579,0.6046264691584908,-0.0007691430577206892,0.26206213721147265,-0.0013415393304998524,-0.17737184752561896
512,0.5026,269.193,829.868,0.00956618,472.637,-0.903456,-1.55978,-0.0354689,0.233227,-0.195656,0.473866,-0.000771616,-0.00134623,0.373517,-0.03484724998622202,0.6061917429128765,-0.0007713183809283652,0.26266807245015733,-0.0013453242388934417,-0.17770494447068674
513,0.5036,269.281,830.152,0.00950162,472.795,-0.90539,-1.56312,-0.0355442,0.233707,-0.19606,0.47484,-0.000773795,-0.00135002,0.374294,-0.03491992325211524,0.6077569357956691,-0.0007734956978534546,0.2632742986075718,-0.0013491091329421723,-0.17803708457630174
514,0.5046,269.369,830.436,0.00943703,472.953,-0.907329,-1.56646,-0.0356194,0.234187,-0.196464,0.475813,-0.000775977,-0.00135382,0.375071,-0.03499249454517184,0.609322044596152,-0.0007756760077071156,0.26388081582339007,-0.0013529039991172498,-0.17836909052441563
515,0.5056,269.456,830.719,0.00937242,473.11,-0.909274,-1.56982,-0.0356946,0.234667,-0.196868,0.476786,-0.000778162,-0.00135763,0.375847,-0.03506506038107238,0.6108886769886048,-0.0007778593104698084,0.26448762423735395,-0.0013567088373047653,-0.17870096236921718
516,0.5066,269.543,831.001,0.00930778,473.267,-0.911226,-1.57319,-0.0357697,0.235146,-0.197271,0.477758,-0.000780349,-0.00136144,0.376622,-0.03513752427398453,0.6124552220001762,-0.0007800446069018419,0.26509345889518054,-0.0013605136609958768,-0.1790318791971629
517,0.5076,269.63,831.283,0.00924312,473.424,-0.913182,-1.57657,-0.0358447,0.235625,-0.197674,0.478729,-0.000782539,-0.00136525,0.377397,-0.035209886246056143,0.6140216764112785,-0.000782232896208046,0.26569958381732106,-0.0013643184701906952,-0.17936266269249534
518,0.5086,269.717,831.563,0.00917843,473.58,-0.915145,-1.57995,-0.0359197,0.236103,-0.198077,0.4797,-0.000784732,-0.00136907,0.378171,-0.035282242791183305,0.6155896525883118,-0.0007844241783685479,0.26630473283747924,-0.0013681332512078814,-0.17969331290893653
519,0.5096,269.804,831.844,0.00911371,473.736,-0.917114,-1.58335,-0.0359947,0.236581,-0.198479,0.480669,-0.000786928,-0.00137289,0.378945,-0.035354593909773135,0.6171559176945587,-0.0007866184533636966,0.26691017118801375,-0.0013719480176526133,-0.1800230099236072
520,0.5106,269.89,832.123,0.00904897,473.891,-0.919088,-1.58676,-0.0360696,0.237059,-0.198882,0.481638,-0.000789127,-0.00137672,0.379718,-0.035426843144921616,0.6187237012472622,-0.0007888157211738411,0.26751589900725703,-0.0013757727557673904,-0.1803533940737303
521,0.5116,269.976,832.402,0.00898419,474.046,-0.921068,-1.59018,-0.0361444,0.237536,-0.199283,0.482606,-0.000791328,-0.00138055,0.38049,-0.03549899051870897,0.6202913844263149,-0.0007910149825701707,0.2681206483123262,-0.0013795974792333299,-0.18068200647151755
522,0.5126,270.062,832.68,0.00891937,474.201,-0.923055,-1.5936,-0.0362192,0.238013,-0.199685,0.483574,-0.000793533,-0.00138439,0.381262,-0.035571132496074576,0.6218605858574007,-0.0007932182359530193,0.26872568615162384,-0.0013834321742164368,-0.1810113061112537
523,0.5136,270.148,832.957,0.00885453,474.355,-0.925047,-1.59704,-0.036294,0.23849,-0.200086,0.484541,-0.00079574,-0.00138823,0.382033,-0.0356432690774221,0.6234296835804034,-0.0007954234828868589,0.2693310126628137,-0.0013872668544743227,-0.18133965473920333
524,0.5146,270.234,833.234,0.00878965,474.509,-0.927044,-1.60049,-0.0363686,0.238966,-0.200487,0.485507,-0.00079795,-0.00139208,0.382804,-0.03571520740621592,0.6249986743552769,-0.0007976317225608653,0.269935358047632,-0.0013911115060959434,-0.18166787172574894
525,0.5156,270.319,833.51,0.00872473,474.663,-0.929048,-1.60395,-0.0364433,0.239442,-0.200888,0.486472,-0.000800162,-0.00139594,0.383574,-0.03578723678989171,0.6265675549391632,-0.0007998419557549985,0.27053999116932936,-0.0013949661289660575,-0.18199595712366834
526,0.5166,270.404,833.786,0.00865978,474.816,-0.931058,-1.60742,-0.0365179,0.239918,-0.201288,0.487436,-0.000802378,-0.00139979,0.384344,-0.035859164379094755,0.628136322086402,-0.000802056180851829,0.2711449121649012,-0.0013988107509456116,-0.18232309330921992
527,0.5176,270.489,834.06,0.00859479,474.969,-0.933073,-1.6109,-0.0365924,0.240393,-0.201688,0.4884,-0.000804597,-0.00140366,0.385113,-0.03593099019580359,0.6297066022543296,-0.0008042733986292072,0.2717488494219227,-0.0014026753300699912,-0.18265009866646464
528,0.5186,270.574,834.334,0.00852976,475.122,-0.935095,-1.61439,-0.0366669,0.240868,-0.202088,0.489363,-0.000806818,-0.00140752,0.385881,-0.03600281066168842,0.6312767656246199,-0.0008064926098735326,0.2723530736172839,-0.0014065299083039218,-0.18297697324772355
529,0.5196,270.659,834.608,0.00846469,475.274,-0.937122,-1.61789,-0.0367413,0.241342,-0.202487,0.490326,-0.000809043,-0.0014114,0.386649,-0.03607452938460565,0.63284844179053,-0.0008087158129541638,0.2729563119303642,-0.0014104044434513074,-0.18330290040860509
530,0.5206,270.743,834.88,0.00839958,475.425,-0.939155,-1.6214,-0.0368157,0.241817,-0.202886,0.491287,-0.00081127,-0.00141527,0.387416,-0.0361462427718483,0.6344183633695881,-0.0008109410094663261,0.27356110980665527,-0.001414268977708133,-0.18362869755048994
531,0.5216,270.827,835.153,0.00833442,475.577,-0.941194,-1.62492,-0.03689,0.24229,-0.203285,0.492248,-0.0008135,-0.00141916,0.388183,-0.03621785444560377,0.6359897943684438,-0.00081316919858343,0.27416364670033544,-0.001418153468646488,-0.1839543647252454
532,0.5226,270.911,835.424,0.00826922,475.728,-0.94324,-1.62845,-0.0369642,0.242764,-0.203684,0.493208,-0.000815734,-0.00142305,0.388949,-0.03628936442775077,0.6375610986764291,-0.0008154013794701154,0.2747677434284854,-0.0014220379444742637,-0.184279901984718
533,0.5236,270.995,835.695,0.00820398,475.879,-0.945291,-1.63199,-0.0370385,0.243237,-0.204082,0.494168,-0.00081797,-0.00142694,0.389714,-0.03636096546796219,0.639133912160839,-0.000817635553734819,0.2753708511948696,-0.0014259224051913488,-0.18460449398563517
534,0.5246,271.078,835.965,0.00813869,476.029,-0.947348,-1.63554,-0.0371126,0.24371,-0.20448,0.495127,-0.000820209,-0.00143084,0.390479,-0.03643236847490694,0.6407065955637623,-0.0008198727205442902,0.2759742442987041,-0.0014298168364997865,-0.18492895682464083
535,0.5256,271.162,836.234,0.00807335,476.179,-0.949411,-1.6391,-0.0371867,0.244182,-0.204877,0.496085,-0.000822451,-0.00143474,0.391244,-0.03650376619108486,0.6422791456135171,-0.0008221128798784338,0.27657664629770107,-0.0014337112526200402,-0.18525247580601456
536,0.5266,271.245,836.503,0.00800796,476.328,-0.95148,-1.64267,-0.0372608,0.244654,-0.205275,0.497042,-0.000824697,-0.00143865,0.392007,-0.03657515861688809,0.6438515590356839,-0.0008243570308926751,0.2771793326975549,-0.0014376156391759931,-0.18557668079957046
537,0.5276,271.328,836.772,0.00794252,476.478,-0.953555,-1.64625,-0.0373348,0.245126,-0.205672,0.497998,-0.000826945,-0.00144257,0.392771,-0.036646449417358284,0.645423832553117,-0.0008266031752134362,0.2777823036325344,-0.0014415299960505168,-0.18589994268556287
538,0.5286,271.411,837.039,0.00787704,476.627,-0.955636,-1.64984,-0.0374088,0.245597,-0.206069,0.498954,-0.000829196,-0.00144649,0.393533,-0.03671773494250441,0.6469976098827404,-0.0008288523119982516,0.2783842808520518,-0.001445444337580759,-0.1862230762620577
539,0.5296,271.493,837.306,0.0078115,476.775,-0.957723,-1.65345,-0.0374827,0.246068,-0.206465,0.499909,-0.00083145,-0.00145041,0.394295,-0.03678891887161362,0.6485712438908178,-0.0008311044412270263,0.278986541669622,-0.001449358663766942,-0.18654526812565853
540,0.5306,271.576,837.572,0.0077459,476.923,-0.959816,-1.65706,-0.0375565,0.246539,-0.206861,0.500864,-0.000833708,-0.00145434,0.395057,-0.03686000122642974,0.6501463814371982,-0.0008333605620459705,0.2795890862188506,-0.0014532829600760744,-0.18686733242654052
541,0.5316,271.658,837.838,0.00768025,477.071,-0.961915,-1.66068,-0.0376303,0.247009,-0.207257,0.501817,-0.000835968,-0.00145828,0.395818,-0.03693107833556164,0.6517197205157019,-0.0008356186760994921,0.2801906344421323,-0.0014572172263906946,-0.1871892692152083
542,0.5326,271.74,838.103,0.00761455,477.219,-0.96402,-1.66432,-0.037704,0.247479,-0.207653,0.50277,-0.000838231,-0.00146222,0.396578,-0.037002053899606646,0.6532945597010351,-0.0008378797825359108,0.2807924654595306,-0.001461151477204381,-0.187511078542147
543,0.5336,271.822,838.368,0.00754878,477.366,-0.966131,-1.66796,-0.0377777,0.247949,-0.208048,0.503723,-0.000840498,-0.00146616,0.397338,-0.03707302423294534,0.6548709004234805,-0.0008401448804949974,0.2813945794039896,-0.0014650857125171335,-0.18783194829017558
544,0.5346,271.904,838.631,0.00748296,477.513,-0.968248,-1.67162,-0.0378514,0.248418,-0.208443,0.504674,-0.000842768,-0.00147011,0.398097,-0.03714398933596319,0.6564454312205099,-0.0008424129707917949,0.2819956944121811,-0.0014690299176387533,-0.18815269131968237
545,0.5356,271.985,838.895,0.00741708,477.66,-0.970372,-1.67528,-0.037925,0.248887,-0.208837,0.505625,-0.00084504,-0.00147407,0.398856,-0.037214852930535836,0.6580214601085568,-0.0008446830542507833,0.28259709140943245,-0.0014729840924510018,-0.18847249615361306
546,0.5366,272.067,839.157,0.00735114,477.806,-0.972501,-1.67896,-0.0379985,0.249355,-0.209232,0.506575,-0.000847316,-0.00147803,0.399614,-0.037285615038306075,0.6595973289148243,-0.0008469571291642719,0.283197487329899,-0.0014769382516047758,-0.18879298621667784
547,0.5376,272.148,839.419,0.00728514,477.952,-0.974636,-1.68264,-0.038072,0.249824,-0.209626,0.507525,-0.000849595,-0.001482,0.400372,-0.03735637194525254,0.661174695507794,-0.0008492341963541872,0.2837994481002235,-0.0014809023802910826,-0.18911253882411094
548,0.5386,272.229,839.68,0.00721908,478.097,-0.976778,-1.68634,-0.0381454,0.250291,-0.21002,0.508473,-0.000851877,-0.00148597,0.401129,-0.03742702739446513,0.6627502358072419,-0.000851514255800212,0.28439912245554977,-0.001484866493239867,-0.18943196555261654
549,0.5396,272.309,839.941,0.00715295,478.242,-0.978925,-1.69005,-0.0382188,0.250759,-0.210413,0.509421,-0.000854163,-0.00148995,0.401885,-0.03749767765775791,0.6643272704270897,-0.0008537983066280175,0.28500036192392075,-0.0014888405755627554,-0.18975045620264241
550,0.5406,272.39,840.201,0.00708675,478.387,-0.981079,-1.69377,-0.0382922,0.251226,-0.210806,0.510369,-0.000856451,-0.00149394,0.402641,-0.037568322735511805,0.6659058007846248,-0.0008560843505222016,0.28560059723697595,-0.001492824627140732,-0.19006882171043493
551,0.5416,272.47,840.461,0.00702049,478.532,-0.983239,-1.6975,-0.0383655,0.251693,-0.211199,0.511315,-0.000858743,-0.00149793,0.403397,-0.03763886639199865,0.6674824933301571,-0.0008583743857525361,0.2862011129253852,-0.0014968086628223132,-0.1903870621251652
552,0.5426,272.551,840.72,0.00695416,478.676,-0.985405,-1.70124,-0.0384387,0.252159,-0.211592,0.512261,-0.000861038,-0.00150192,0.404151,-0.037709308648760764,0.6690606781325636,-0.0008606674131520498,0.2868006223188482,-0.0015007926826076101,-0.19070517749598526
553,0.5436,272.631,840.978,0.00688776,478.82,-0.987577,-1.70499,-0.0385119,0.252626,-0.211984,0.513206,-0.000863336,-0.00150592,0.404906,-0.03777974574933829,0.6706386859646665,-0.0008629634327002034,0.2874016985498469,-0.0015047866714489322,-0.19102235889479102
554,0.5446,272.711,841.236,0.00682129,478.963,-0.989755,-1.70875,-0.038585,0.253091,-0.212376,0.514151,-0.000865637,-0.00150993,0.405659,-0.03785008147912183,0.6722181857189926,-0.0008652624443763468,0.2880004795454647,-0.0015087906292263753,-0.19133941598285498
555,0.5456,272.79,841.493,0.00675475,479.106,-0.99194,-1.71252,-0.0386581,0.253557,-0.212768,0.515094,-0.000867942,-0.00151394,0.406413,-0.03792041206755137,0.6737958312110652,-0.0008675654472921623,0.2886008276391747,-0.001512794570948106,-0.19165634880889737
556,0.5466,272.87,841.75,0.00668814,479.249,-0.99413,-1.7163,-0.0387311,0.254022,-0.21316,0.516037,-0.00087025,-0.00151796,0.407165,-0.037990641314071705,0.6753749651245169,-0.0008698714422900045,0.2892001663594801,-0.0015168084814459748,-0.19197315742161936
557,0.5476,272.949,842.006,0.00662145,479.392,-0.996327,-1.72009,-0.0388041,0.254487,-0.213551,0.51698,-0.000872561,-0.00152198,0.407917,-0.0380608654340443,0.6769555888635916,-0.000872180429349112,0.2897997838370965,-0.001520822375807862,-0.192289034159141
558,0.5486,273.028,842.261,0.00655469,479.534,-0.99853,-1.7239,-0.038877,0.254951,-0.213942,0.517921,-0.000874875,-0.00152601,0.408669,-0.03813098824094674,0.6785343467618068,-0.0008744924084486128,0.290398389802641,-0.001524846238785682,-0.1926047874130009
559,0.5496,273.107,842.516,0.00648785,479.676,-1.00074,-1.72771,-0.0389499,0.255415,-0.214332,0.518862,-0.000877192,-0.00153005,0.409419,-0.038201105936082946,0.6801145909704036,-0.0008768073795677456,0.2909972735858024,-0.0015288800702585315,-0.1929196101514855
560,0.5506,273.186,842.77,0.00642094,479.818,-1.00295,-1.73153,-0.0390227,0.255879,-0.214723,0.519803,-0.000879513,-0.00153409,0.41017,-0.03827112234694252,0.6816963228886581,-0.0008791263418066464,0.2915964353155178,-0.0015329138854346391,-0.19323511689832773
561,0.5516,273.265,843.024,0.00635394,479.959,-1.00518,-1.73537,-0.0390955,0.256342,-0.215113,0.520742,-0.000881838,-0.00153813,0.41092,-0.03834113366079295,0.6832761773614429,-0.0008814492951375597,0.2921945829255552,-0.0015369476843143381,-0.19354969385624332
562,0.5526,273.343,843.277,0.00628687,480.1,-1.0074,-1.73922,-0.0391682,0.256805,-0.215502,0.521681,-0.000884165,-0.00154219,0.411669,-0.03841104371911441,0.6848575160142911,-0.0008837742412999283,0.29279300754205817,-0.0015410014360776048,-0.19386334201681088
563,0.5536,273.422,843.529,0.00621971,480.241,-1.00964,-1.74307,-0.0392409,0.257268,-0.215892,0.522619,-0.000886496,-0.00154624,0.412418,-0.03848094869515928,0.6864386538020053,-0.0008861031785077911,0.29339170929331027,-0.0015450451868331827,-0.19417767401470054
564,0.5546,273.5,843.781,0.00615248,480.381,-1.01188,-1.74694,-0.0393135,0.257731,-0.216281,0.523557,-0.00088883,-0.00155031,0.413166,-0.038550752444377334,0.6880212753927595,-0.000888435107621599,0.2939906883076546,-0.0015491088902296335,-0.19449107793849363
565,0.5556,273.578,844.032,0.00608515,480.521,-1.01412,-1.75082,-0.0393861,0.258193,-0.21667,0.524494,-0.000891168,-0.00155438,0.413913,-0.038620551126027025,0.689603692574476,-0.0008907710277296088,0.29458865012419655,-0.0015531725770868698,-0.1948043599718695
566,0.5566,273.656,844.283,0.00601775,480.661,-1.01638,-1.75471,-0.0394586,0.258654,-0.217058,0.52543,-0.000893508,-0.00155845,0.414661,-0.038690248609506095,0.6911859019892177,-0.0008931089405900261,0.29518559307668246,-0.0015572362474048917,-0.19511671527935215
567,0.5576,273.733,844.534,0.00595026,480.8,-1.01864,-1.75861,-0.0395311,0.259116,-0.217447,0.526365,-0.000895853,-0.00156253,0.415407,-0.03875994104010072,0.6927679002765252,-0.0008954518435025927,0.2957841070667697,-0.001561309885570794,-0.19542975398713236
568,0.5586,273.811,844.783,0.00588268,480.94,-1.0209,-1.76252,-0.0396035,0.259577,-0.217835,0.5273,-0.0008982,-0.00156662,0.416153,-0.038829532301135394,0.6943513784239581,-0.0008977967391253783,0.29638160125195556,-0.0015653934914623413,-0.19574186668880578
569,0.5596,273.888,845.032,0.00581501,481.078,-1.02317,-1.76644,-0.0396759,0.260038,-0.218222,0.528234,-0.000900552,-0.00157071,0.416898,-0.03889911852394512,0.6959346418803427,-0.0009001466247439138,0.29697937094546045,-0.0015694770806520264,-0.1960530543676975
570,0.5606,273.965,845.281,0.00574726,481.217,-1.02545,-1.77038,-0.0397482,0.260498,-0.21861,0.529167,-0.000902906,-0.00157481,0.417643,-0.03896860360575993,0.6975176872770594,-0.000902498503030591,0.2975761186975556,-0.0015735706374041536,-0.19636492527573413
571,0.5616,274.042,845.529,0.00567941,481.355,-1.02774,-1.77432,-0.0398205,0.260958,-0.218997,0.5301,-0.000905264,-0.00157892,0.418388,-0.03903808366398487,0.6991022103443572,-0.0009048543721615898,0.2981731410167625,-0.0015776741615961543,-0.19667587187760405
572,0.5626,274.119,845.776,0.00561147,481.493,-1.03003,-1.77828,-0.0398927,0.261418,-0.219384,0.531032,-0.000907625,-0.00158303,0.419132,-0.03910746260973419,0.7006865117741843,-0.0009072132330157912,0.2987704380294107,-0.001581777668922646,-0.19698669816642123
573,0.5636,274.196,846.023,0.00554344,481.631,-1.03232,-1.78224,-0.0399649,0.261877,-0.219771,0.531963,-0.00090999,-0.00158715,0.419875,-0.0391768365465045,0.7022705881897995,-0.0009095760846623557,0.29936671049452857,-0.001585891143524809,-0.19729740418873765
574,0.5646,274.272,846.269,0.00547531,481.768,-1.03463,-1.78622,-0.040037,0.262336,-0.220157,0.532894,-0.000912358,-0.00159127,0.420618,-0.0392461093992732,0.7038561400672787,-0.0009119419279850494,0.2999632567115289,-0.0015900046011796398,-0.19760718759867624
575,0.5656,274.349,846.515,0.00540709,481.905,-1.03694,-1.79021,-0.0401091,0.262795,-0.220543,0.533824,-0.00091473,-0.0015954,0.42136,-0.03931537725764922,0.7054414633386001,-0.0009143117620482588,0.300560076806093,-0.001594128025945718,-0.19791685145529403
576,0.5666,274.425,846.76,0.00533877,482.042,-1.03925,-1.79421,-0.0401811,0.263253,-0.220929,0.534753,-0.000917105,-0.00159953,0.422101,-0.03938454406045189,0.7070265546189416,-0.0009166845877400798,0.301155869747439,-0.0015982514336820852,-0.19822639580472934
577,0.5676,274.501,847.005,0.00527036,482.178,-1.04157,-1.79822,-0.0402531,0.263711,-0.221314,0.535682,-0.000919484,-0.00160367,0.422843,-0.039453705883424006,0.7086131191332936,-0.000919061404120125,0.3017519356244498,-0.0016023848083650538,-0.19853501922852335
578,0.5686,274.577,847.249,0.00520184,482.315,-1.0439,-1.80224,-0.0403251,0.264169,-0.221699,0.53661,-0.000921867,-0.00160782,0.423583,-0.03952286272692418,0.7101994480506237,-0.000921442211160084,0.3023482745621582,-0.001606528149870723,-0.19884352385516912
579,0.5696,274.653,847.493,0.00513323,482.45,-1.04624,-1.80627,-0.0403969,0.264627,-0.222084,0.537537,-0.000924252,-0.00161197,0.424323,-0.03959182250969451,0.7117855379780669,-0.0009238250106790025,0.302944886685655,-0.0016106714741814798,-0.19915190973039465
580,0.5706,274.728,847.736,0.00506451,482.586,-1.04858,-1.81032,-0.0404688,0.265084,-0.222469,0.538464,-0.000926642,-0.00161613,0.425063,-0.03966087337524771,0.71337309889257,-0.0009262127998838077,0.3035404685789673,-0.001614824765149292,-0.19946017689991058
581,0.5716,274.804,847.978,0.00499569,482.721,-1.05093,-1.81437,-0.0405405,0.26554,-0.222853,0.53939,-0.000929035,-0.0016203,0.425802,-0.03972972722218682,0.7149604171970956,-0.000928603580595988,0.30413501857973735,-0.0016189880226495923,-0.19976752517733498
582,0.5726,274.879,848.22,0.00492676,482.856,-1.05328,-1.81844,-0.0406123,0.265997,-0.223238,0.540315,-0.000931431,-0.00162447,0.42654,-0.03979867215261956,0.7165474894907771,-0.0009309973527940052,0.30473114448762306,-0.0016231512627892242,-0.2000755553805228
583,0.5736,274.954,848.462,0.00485773,482.991,-1.05564,-1.82251,-0.0406839,0.266453,-0.223621,0.541239,-0.000933831,-0.00162865,0.427278,-0.03986742010648736,0.7181343123703376,-0.0009333951155230391,0.3053262375604182,-0.0016273244692949218,-0.20038186778024314
584,0.5746,275.029,848.703,0.0047886,483.125,-1.05801,-1.8266,-0.0407556,0.266909,-0.224005,0.542163,-0.000936235,-0.00163283,0.428015,-0.039936259144556785,0.7197226021518432,-0.000935796868754335,0.3059216020575348,-0.0016314976583566843,-0.20068886219631532
585,0.5756,275.104,848.943,0.00471935,483.26,-1.06038,-1.8307,-0.0408272,0.267364,-0.224388,0.543086,-0.000938642,-0.00163702,0.428752,-0.04000499724754858,0.721310638879838,-0.0009382016133971938,0.3065159315861852,-0.001635680813617757,-0.2009949397445021
586,0.5766,275.179,849.183,0.00465,483.394,-1.06276,-1.83481,-0.0408987,0.267819,-0.224771,0.544009,-0.000941053,-0.00164122,0.429489,-0.040073634436436634,0.7229001420423884,-0.0009406103484893569,0.3071105315963012,-0.0016398739349527958,-0.20130090008743418
587,0.5776,275.253,849.422,0.00458053,483.527,-1.06515,-1.83893,-0.0409702,0.268274,-0.225154,0.544931,-0.000943467,-0.00164542,0.430224,-0.04014226671794108,0.7244893885033874,-0.0009430220749450102,0.30770540221097953,-0.0016440670386766998,-0.20160674326999262
588,0.5786,275.327,849.661,0.00451096,483.66,-1.06754,-1.84307,-0.0410416,0.268728,-0.225536,0.545852,-0.000945885,-0.00164963,0.43096,-0.04021079811349748,0.7260783748460895,-0.0009454377917970103,0.3082992352534841,-0.0016482701083070372,-0.20191167124911147
589,0.5796,275.402,849.899,0.00444127,483.793,-1.06994,-1.84721,-0.041113,0.269183,-0.225918,0.546773,-0.000948307,-0.00165385,0.431694,-0.040279324616086964,0.7276688253193417,-0.0009478574990163802,0.3088946468513909,-0.0016524831437176868,-0.20221648276798754
590,0.5806,275.476,850.137,0.00437147,483.926,-1.07235,-1.85137,-0.0411843,0.269636,-0.2263,0.547692,-0.000950732,-0.00165807,0.432429,-0.04034775026083859,0.7292572827542059,-0.0009502801975244113,0.30948771044517676,-0.0016566961613493358,-0.20252117787110036
591,0.5816,275.55,850.375,0.00430155,484.059,-1.07476,-1.85553,-0.0412556,0.27009,-0.226682,0.548612,-0.000953161,-0.0016623,0.433162,-0.04041617102701567,0.7308489315004987,-0.0009527068863466326,0.3100823528393286,-0.0016609191445929872,-0.20282575660291202
592,0.5826,275.623,850.611,0.00423151,484.191,-1.07718,-1.85971,-0.0413269,0.270543,-0.227063,0.54953,-0.000955594,-0.00166654,0.433895,-0.040484586914966036,0.732438580356805,-0.0009551375654538452,0.3106759545858093,-0.0016651520933219643,-0.2031294221376886
593,0.5836,275.697,850.848,0.00416136,484.323,-1.07961,-1.8639,-0.0413981,0.270996,-0.227444,0.550448,-0.000958031,-0.00167078,0.434628,-0.04055290198033257,0.734029689180784,-0.0009575722348169613,0.31126982529479674,-0.0016693850241031871,-0.20343297199793375
594,0.5846,275.771,851.083,0.00409109,484.455,-1.08204,-1.8681,-0.0414692,0.271448,-0.227825,0.551365,-0.000960471,-0.00167502,0.43536,-0.040621116243955924,0.7356205236919098,-0.0009600098953668201,0.31186265322484896,-0.0016736179369369886,-0.20373640622771116
595,0.5856,275.844,851.319,0.0040207,484.586,-1.08448,-1.87232,-0.0415403,0.271901,-0.228206,0.552282,-0.000962915,-0.00167928,0.436092,-0.040689325657717546,0.7372128176673445,-0.0009624515461188476,0.3124570616300988,-0.001677870798265979,-0.2040397248710677
596,0.5866,275.917,851.553,0.00395018,484.717,-1.08693,-1.87654,-0.0416113,0.272352,-0.228586,0.553198,-0.000965362,-0.00168354,0.436823,-0.040757434297710504,0.7388048336403275,-0.0009648961880088791,0.31304911326250173,-0.0016821236414777951,-0.20434213231456344
597,0.5876,275.99,851.787,0.00387955,484.848,-1.08938,-1.88078,-0.0416823,0.272804,-0.228966,0.554113,-0.000967814,-0.00168781,0.437553,-0.04082553810216172,0.7403965681706026,-0.0009673458190802009,0.3136427456125006,-0.0016863864497087544,-0.20464442486506174
598,0.5886,276.063,852.021,0.00380879,484.978,-1.09184,-1.88502,-0.0417533,0.273255,-0.229346,0.555027,-0.000970269,-0.00169208,0.438283,-0.04089363707141447,0.7419880178156075,-0.0009697984412356808,0.3142353321089826,-0.0016906492397374961,-0.20494660256621355
599,0.5896,276.136,852.254,0.0037379,485.109,-1.0943,-1.88928,-0.0418242,0.273706,-0.229725,0.555941,-0.000972728,-0.00169636,0.439013,-0.04096163530198038,0.7435809227105359,-0.0009722550534808638,0.3148281859222497,-0.0016949219946150729,-0.20524787070992156
600,0.5906,276.209,852.487,0.00366689,485.239,-1.09677,-1.89355,-0.041895,0.274157,-0.230104,0.556855,-0.000975191,-0.00170065,0.439742,-0.041029532814600644,0.7451752841860939,-0.00097471565578644,0.3154213071728891,-0.0016992047142132538,-0.20554902469463754
601,0.5916,276.281,852.719,0.00359575,485.369,-1.09925,-1.89783,-0.0419658,0.274607,-0.230483,0.557767,-0.000977657,-0.00170494,0.44047,-0.0410974255202472,0.7467676100354916,-0.000977179249100013,0.31601337996750445,-0.001703487415438687,-0.20585006456361965
602,0.5926,276.353,852.951,0.00352448,485.498,-1.10174,-1.90213,-0.0420366,0.275057,-0.230862,0.558679,-0.000980127,-0.00170924,0.441198,-0.04116531341926044,0.7483613887484692,-0.0009796468324198004,0.3166057192548337,-0.001707780081213528,-0.20615099036010953
603,0.5936,276.426,853.182,0.00345308,485.627,-1.10423,-1.90643,-0.0421073,0.275506,-0.23124,0.559591,-0.000982602,-0.00171355,0.441926,-0.041233100635295394,0.7499566216506424,-0.0009821194047341386,0.3171970079571591,-0.001712082711409213,-0.20645100857873777
604,0.5946,276.498,853.413,0.00338155,485.756,-1.10673,-1.91075,-0.042178,0.275956,-0.231618,0.560501,-0.00098508,-0.00171786,0.442653,-0.04130088305894353,0.7515498069657198,-0.0009845949679749832,0.3177898799969441,-0.0017163853230606207,-0.20675091341191054
605,0.5956,276.57,853.643,0.00330988,485.885,-1.10924,-1.91507,-0.0422486,0.276405,-0.231996,0.561411,-0.000987561,-0.00172218,0.443379,-0.04136856482740503,0.7531444427392924,-0.000987073522120241,0.31838170050682457,-0.001720697898960788,-0.20705070490247957
606,0.5966,276.641,853.873,0.00323808,486.014,-1.11175,-1.91941,-0.0423191,0.276853,-0.232373,0.562321,-0.000990047,-0.00172651,0.444105,-0.041436145961321724,0.7547405302918782,-0.000989557065168456,0.31897246783065136,-0.0017250204389805956,-0.20734959044326684
607,0.5976,276.713,854.102,0.00316615,486.142,-1.11427,-1.92376,-0.0423896,0.277302,-0.232751,0.563229,-0.000992537,-0.00173084,0.44483,-0.041503722330936466,0.7563345582725682,-0.0009920445980743375,0.31956481944169246,-0.0017293429602838195,-0.20764915567668318
608,0.5986,276.785,854.331,0.00309408,486.27,-1.11679,-1.92813,-0.0424601,0.27775,-0.233128,0.564137,-0.00099503,-0.00173518,0.445555,-0.041571293936584985,0.7579300342879731,-0.0009945351218026977,0.32015611692154833,-0.0017336754455339332,-0.20794781564405196
609,0.5996,276.856,854.559,0.00302187,486.397,-1.11932,-1.9325,-0.0425305,0.278197,-0.233504,0.565045,-0.000997528,-0.00173953,0.446279,-0.04163876494248464,0.7595269596535053,-0.0009970306343370927,0.3207463586150028,-0.0017380178946008185,-0.2082455712838015
610,0.6006,276.927,854.787,0.00294952,486.525,-1.12186,-1.93689,-0.0426009,0.278645,-0.233881,0.565951,-0.00100003,-0.00174389,0.447003,-0.041706231198592625,0.7611218134386231,-0.0009995301366395593,0.32133818554299554,-0.0017423703073545793,-0.20854400644486493
611,0.6016,276.998,855.014,0.00287703,486.652,-1.12441,-1.94128,-0.0426712,0.279092,-0.234257,0.566858,-0.00100253,-0.00174825,0.447726,-0.041773596882607844,0.7627198755350189,-0.0010020276346923707,0.3219289557392353,-0.0017467227011318531,-0.20884153795901172
612,0.6026,277.069,855.241,0.0028044,486.779,-1.12696,-1.94569,-0.0427415,0.279539,-0.234633,0.567763,-0.00100504,-0.00175261,0.448449,-0.04184095783098185,0.7643158590960104,-0.00100453511645604,0.3225199900687823,-0.0017510750759326399,-0.20913895762233847
613,0.6036,277.14,855.468,0.00273162,486.906,-1.12952,-1.95011,-0.0428117,0.279985,-0.235009,0.568668,-0.00100756,-0.00175699,0.449171,-0.04190821823487434,0.7659132876758967,-0.0010070525818556275,0.3231099655391032,-0.0017554473966484574,-0.2094362654768931
614,0.6046,277.211,855.694,0.0026587,487.032,-1.13209,-1.95455,-0.0428819,0.280431,-0.235384,0.569572,-0.00101007,-0.00176137,0.449893,-0.041975473917252204,0.7675103950717335,-0.0010095600510067193,0.3237002041971704,-0.0017598196982134828,-0.2097326712977743
615,0.6056,277.282,855.919,0.00258564,487.158,-1.13466,-1.95899,-0.042952,0.280877,-0.235759,0.570476,-0.00101259,-0.00176576,0.450615,-0.0420426290827145,0.7691089469054437,-0.001012077503743436,0.3242907061603917,-0.0017642019629859895,-0.21002896598731113
616,0.6066,277.352,856.144,0.00251242,487.284,-1.13724,-1.96345,-0.0430221,0.281322,-0.236134,0.571378,-0.00101512,-0.00177015,0.451335,-0.04210977954076478,0.7707054030690421,-0.0010146049399900603,0.32488014666541853,-0.0017685842085203296,-0.21032514958717008
617,0.6076,277.422,856.368,0.00243906,487.41,-1.13983,-1.96792,-0.0430922,0.281768,-0.236509,0.572281,-0.00101765,-0.00177456,0.452056,-0.04217692529173289,0.7723050721899227,-0.0010171323698424661,0.32547117500035294,-0.0017729863993570794,-0.2106212221390018
618,0.6086,277.493,856.592,0.00236555,487.535,-1.14242,-1.9724,-0.0431621,0.282213,-0.236883,0.573182,-0.00102018,-0.00177897,0.452775,-0.04224387478474301,0.773902638655583,-0.0010196597933003204,0.326061140930912,-0.0017773885707802473,-0.2109163946012308
619,0.6096,277.563,856.816,0.00229189,487.661,-1.14502,-1.97689,-0.0432321,0.282657,-0.237257,0.574083,-0.00102272,-0.00178338,0.453494,-0.04231091536706033,0.7755016451772769,-0.001022197200141961,0.32665004280402665,-0.0017817907227899443,-0.21121145668960006
620,0.6106,277.633,857.039,0.00221807,487.786,-1.14763,-1.98139,-0.043302,0.283101,-0.237631,0.574984,-0.00102526,-0.00178781,0.454213,-0.04237785549449147,0.7771020930530794,-0.001024734600538535,0.32723920620762836,-0.0017862128196620697,-0.2115064084453817
621,0.6116,277.703,857.262,0.0021441,487.91,-1.15024,-1.98591,-0.0433718,0.283545,-0.238004,0.575883,-0.0010278,-0.00179224,0.454931,-0.042444695187445536,0.7787004261778256,-0.0010272719944901532,0.32782863125786266,-0.0017906348969444208,-0.21180046171068834
622,0.6126,277.772,857.484,0.00206998,488.035,-1.15286,-1.99044,-0.0434416,0.283989,-0.238378,0.576782,-0.00103035,-0.00179667,0.455649,-0.04251153021515175,0.780300196850132,-0.0010298193716986592,0.32841831807092636,-0.0017950569546368866,-0.21209519321978088
623,0.6136,277.842,857.706,0.0019957,488.159,-1.15549,-1.99497,-0.0435114,0.284432,-0.238751,0.577681,-0.00103291,-0.00180112,0.456366,-0.04257836057793596,0.7819014063629348,-0.0010323767320876698,0.32900693775546563,-0.001799498956750023,-0.21238902690932004
624,0.6146,277.911,857.927,0.00192126,488.283,-1.15812,-1.99953,-0.0435811,0.284875,-0.239124,0.578579,-0.00103546,-0.00180557,0.457083,-0.042645090540637476,0.7835022725071685,-0.001034924096279144,0.3295958182562915,-0.0018039409390961936,-0.21268275101933087
625,0.6156,277.981,858.148,0.00184666,488.407,-1.16077,-2.00409,-0.0436508,0.285318,-0.239496,0.579476,-0.00103803,-0.00181003,0.457799,-0.042711815852422674,0.7851027917711815,-0.0010374914332251794,0.33018495968897166,-0.0018083928835918028,-0.21297557856665095
626,0.6166,278.05,858.368,0.00177191,488.53,-1.16342,-2.00867,-0.0437204,0.28576,-0.239868,0.580372,-0.00104059,-0.00181449,0.458515,-0.042778440791464534,0.7867029606412088,-0.0010400487739736786,0.33077303139542713,-0.0018128448082317394,-0.21326829720238238
627,0.6176,278.119,858.588,0.00169699,488.653,-1.16607,-2.01325,-0.0437899,0.286202,-0.24024,0.581268,-0.00104316,-0.00181897,0.45923,-0.04284496537807336,0.7883045639050561,-0.0010426160977493604,0.33136136308702957,-0.0018173166766699556,-0.21356090696703245
628,0.6186,278.188,858.807,0.0016219,488.776,-1.16873,-2.01785,-0.0438594,0.286644,-0.240612,0.582163,-0.00104573,-0.00182345,0.459945,-0.042911485341384115,0.7899058129418084,-0.0010451834149269867,0.3319499548787175,-0.0018217885250743082,-0.21385340790109386
629,0.6196,278.257,859.026,0.00154666,488.899,-1.1714,-2.02247,-0.0439289,0.287086,-0.240983,0.583058,-0.00104831,-0.00182793,0.460659,-0.04297800068171809,0.7915084957379601,-0.0010477607150289892,0.33253880688548065,-0.0018262603534447974,-0.21414501419045118
630,0.6206,278.325,859.245,0.00147124,489.022,-1.17408,-2.02709,-0.0439983,0.287527,-0.241355,0.583952,-0.00105089,-0.00183243,0.461373,-0.043044415703842764,0.7931108204655837,-0.0010503380084816438,0.3331265860951069,-0.0018307521251667014,-0.21443729787703592
631,0.6216,278.394,859.463,0.00139566,489.144,-1.17676,-2.03173,-0.0440677,0.287968,-0.241726,0.584845,-0.00105348,-0.00183693,0.462086,-0.04311082611692496,0.794712783598341,-0.0010529252847557569,0.3337146245725291,-0.001835243876675774,-0.2147286875833908
632,0.6226,278.462,859.68,0.00131992,489.266,-1.17945,-2.03638,-0.044137,0.288408,-0.242096,0.585738,-0.00105607,-0.00184144,0.462799,-0.04317713623900277,0.7963161779231083,-0.0010555125543286747,0.3343015881298539,-0.0018397455895744486,-0.2150191842237924
633,0.6236,278.531,859.898,0.001244,489.388,-1.18215,-2.04104,-0.0442063,0.288848,-0.242467,0.58663,-0.00105867,-0.00184596,0.463511,-0.04324344176594841,0.7979192067984047,-0.0010581098066195782,0.33488881000797033,-0.0018442572637280552,-0.21531035809035326
634,0.6246,278.599,860.114,0.00116791,489.51,-1.18486,-2.04571,-0.0442756,0.289288,-0.242837,0.587522,-0.00106127,-0.00185048,0.464223,-0.04330974269808019,0.7995236662133838,-0.0010607070521576611,0.3354762903205646,-0.0018487689174888633,-0.21560063955247777
635,0.6256,278.667,860.331,0.00109164,489.631,-1.18757,-2.05039,-0.0443448,0.289728,-0.243207,0.588413,-0.00106387,-0.00185501,0.464934,-0.04337594337331574,0.8011277563159991,-0.0010633042909429236,0.3360640291813728,-0.0018532905323241922,-0.21589081363032858
636,0.6266,278.735,860.546,0.00101521,489.752,-1.19029,-2.05509,-0.0444139,0.290167,-0.243576,0.589303,-0.00106648,-0.00185955,0.465645,-0.04344204381183214,0.8027314735674387,-0.0010659115123163865,0.336650690052823,-0.0018578221080984836,-0.21618009654411896
637,0.6276,278.803,860.762,0.000938597,489.873,-1.19301,-2.0598,-0.044483,0.290606,-0.243946,0.590193,-0.00106909,-0.0018641,0.466355,-0.043508139682966074,0.8043366187625725,-0.0010685187268848484,0.3372376085249347,-0.0018623636446758463,-0.2164700562625418
638,0.6286,278.871,860.977,0.000861809,489.994,-1.19574,-2.06452,-0.044552,0.291045,-0.244315,0.591082,-0.0010717,-0.00186865,0.467065,-0.04357413534445154,0.8059413872305463,-0.0010711259346486424,0.33782478471082,-0.001866905160589405,-0.21675912547523113
639,0.6296,278.938,861.191,0.000784843,490.114,-1.19848,-2.06926,-0.0446211,0.291483,-0.244684,0.59197,-0.00107432,-0.00187321,0.467774,-0.043640222088375924,0.8075457754253379,-0.0010737431248700746,0.33841088031209,-0.0018714566371244024,-0.21704808804105857
640,0.6306,279.006,861.405,0.000707697,490.235,-1.20123,-2.074,-0.04469,0.291921,-0.245052,0.592858,-0.00107695,-0.00187778,0.468483,-0.04370611300710581,0.8091515889495993,-0.0010763702974709854,0.338997232679461,-0.0018760180741447252,-0.21733616133592226
641,0.6316,279.073,861.619,0.00063037,490.355,-1.20399,-2.07876,-0.0447589,0.292359,-0.245421,0.593745,-0.00107958,-0.00188236,0.469191,-0.04377199938610776,0.810757018311661,-0.0010789974631623123,0.33958384192542157,-0.001880589471513483,-0.21762491101479708
642,0.6326,279.141,861.832,0.000552861,490.474,-1.20675,-2.08353,-0.0448278,0.292797,-0.245789,0.594631,-0.00108221,-0.00188694,0.469899,-0.04383788122569465,0.8123620599583388,-0.0010816246219442771,0.3401707081625085,-0.0018851608479452109,-0.21791277207785953
643,0.6336,279.208,862.045,0.000475169,490.594,-1.20952,-2.08832,-0.0448966,0.293234,-0.246157,0.595517,-0.00108485,-0.00189153,0.470606,-0.043903662916550235,0.8139685243020771,-0.0010842617629742701,0.3407564907461478,-0.001889742184542742,-0.2182005272275399
644,0.6346,279.275,862.257,0.000397291,490.713,-1.21229,-2.09312,-0.0449654,0.293671,-0.246524,0.596403,-0.00108749,-0.00189613,0.471313,-0.04396944008178105,0.8155764126039444,-0.0010868988970421656,0.3413425293727177,-0.0018943334811687418,-0.218487394990593
645,0.6356,279.342,862.469,0.000319227,490.832,-1.21507,-2.09792,-0.0450341,0.294107,-0.246892,0.597287,-0.00109014,-0.00190073,0.472019,-0.04403511712521524,0.8171820917583086,-0.001089546013252729,0.3419274822259797,-0.001898924756674747,-0.21877493871794562
646,0.6366,279.409,862.681,0.000240975,490.951,-1.21786,-2.10275,-0.0451028,0.294544,-0.247259,0.598171,-0.00109279,-0.00190535,0.472725,-0.04410078965679143,0.8187891909606138,-0.0010921931224483483,0.3425140326876539,-0.0019035359729904222,-0.21906159571066053
647,0.6376,279.475,862.892,0.000162535,491.07,-1.22066,-2.10758,-0.0451714,0.29498,-0.247626,0.599055,-0.00109544,-0.00190997,0.47343,-0.0441663620934607,0.8203977114667378,-0.0010948402246291344,0.3430994964277265,-0.001908147168002361,-0.21934814751956144
648,0.6386,279.542,863.103,8.3903e-05,491.189,-1.22347,-2.11243,-0.04524,0.295415,-0.247992,0.599938,-0.0010981,-0.0019146,0.474135,-0.04423193003201509,0.8220058325269246,-0.00109749730882025,0.34368387180110127,-0.001912768322583025,-0.21963381381744795
649,0.6396,279.609,863.313,5.07944e-06,491.307,-1.22628,-2.11728,-0.0453085,0.295851,-0.248358,0.60082,-0.00110076,-0.00191923,0.474839,-0.04429739790250764,0.8236135505706472,-0.0011001543859434637,0.3442698457022344,-0.001917389455767804,-0.21991937558060037
650,0.6406,279.675,863.523,-7.39376e-05,491.425,-1.2291,-2.12216,-0.045377,0.296286,-0.248724,0.601702,-0.00110343,-0.00192388,0.475543,-0.04436286128860478,0.8252226872472093,-0.0011028214449707585,0.3448547302882896,-0.0019220305291163253,-0.22020483284727144
651,0.6416,279.741,863.732,-0.000153149,491.543,-1.23192,-2.12704,-0.0454455,0.296721,-0.24909,0.602583,-0.0011061,-0.00192853,0.476247,-0.04442832019061349,0.8268314169760669,-0.0011054884968769718,0.3454398693544849,-0.0019266715808838875,-0.2204901856557
652,0.6426,279.808,863.941,-0.000232558,491.66,-1.23476,-2.13194,-0.0455139,0.297155,-0.249456,0.603463,-0.00110878,-0.00193319,0.47695,-0.044493679058213775,0.8284397361796652,-0.0011081655305805738,0.3460239169869537,-0.001931322591757434,-0.22077543404411082
653,0.6436,279.874,864.15,-0.000312163,491.778,-1.2376,-2.13685,-0.0455822,0.297589,-0.249821,0.604343,-0.00111146,-0.00193786,0.477652,-0.04455893791131882,0.8300494713270867,-0.0011108425571096925,0.3466082181511072,-0.0019359835615975207,-0.2210597991109029
654,0.6446,279.94,864.358,-0.000391969,491.895,-1.24045,-2.14177,-0.0456506,0.298023,-0.250186,0.605222,-0.00111415,-0.00194253,0.478354,-0.04462428784497252,0.8316587920052023,-0.0011135295653292854,0.34719277295700235,-0.001940644509671019,-0.22134406040338572
655,0.6456,280.005,864.566,-0.000471974,492.012,-1.2433,-2.1467,-0.0457188,0.298457,-0.250551,0.606101,-0.00111684,-0.00194722,0.479055,-0.04468944224675109,0.8332695278980897,-0.0011162165663206602,0.34777758151474325,-0.0019453253970715956,-0.22162821795942977
656,0.6466,280.071,864.773,-0.000552182,492.129,-1.24617,-2.15165,-0.045787,0.29889,-0.250916,0.606979,-0.00111953,-0.00195191,0.479756,-0.0447545922051511,0.834879845369507,-0.0011189035600841502,0.3483612955725126,-0.0019500062625188441,-0.22191227181689188
657,0.6476,280.137,864.98,-0.000632593,492.245,-1.24904,-2.15661,-0.0458552,0.299323,-0.25128,0.607856,-0.00112223,-0.0019566,0.480457,-0.04481973772047532,0.8364897408298704,-0.0011216005354035552,0.348945262433197,-0.0019546871060128757,-0.2221954442094486
658,0.6486,280.202,865.186,-0.000713209,492.362,-1.25191,-2.16158,-0.0459233,0.299756,-0.251644,0.608733,-0.00112494,-0.00196131,0.481157,-0.04488478328151013,0.8381010487878426,-0.0011243074921981622,0.34952948220628355,-0.0019593878883662486,-0.22247851354601156
659,0.6496,280.268,865.392,-0.000794031,492.478,-1.2548,-2.16657,-0.0459914,0.300188,-0.252008,0.609609,-0.00112765,-0.00196603,0.481856,-0.04494982441309292,0.8397119307698762,-0.0011270144416569705,0.3501126048880272,-0.0019640986289380935,-0.22276147986408668
660,0.6506,280.333,865.598,-0.000875061,492.594,-1.25769,-2.17157,-0.0460595,0.30062,-0.252371,0.610485,-0.00113036,-0.00197075,0.482556,-0.04501486111552555,0.8413242245027828,-0.0011297213837799802,0.35069597953318965,-0.001968809347275169,-0.22304356624512034
661,0.6516,280.398,865.803,-0.000956301,492.709,-1.26059,-2.17658,-0.0461275,0.301052,-0.252735,0.61136,-0.00113308,-0.00197548,0.483254,-0.045079797897094154,0.8429360882867878,-0.0011324383072427446,0.35127960625064225,-0.0019735300236425335,-0.22332632692144194
662,0.6526,280.463,866.008,-0.00103775,492.825,-1.2635,-2.1816,-0.0461954,0.301484,-0.253098,0.612234,-0.0011358,-0.00198022,0.483952,-0.045144634777579906,0.8445475185203848,-0.0011351552233155315,0.3518634851493041,-0.001978260657898634,-0.2236082083002039
663,0.6536,280.528,866.213,-0.00111941,492.94,-1.26641,-2.18664,-0.0462633,0.301915,-0.253461,0.613108,-0.00113853,-0.00198496,0.48465,-0.045209467255791,0.8461603577596517,-0.0011378821206196044,0.35244626389120093,-0.00198299126973156,-0.22388998737459476
664,0.6546,280.593,866.417,-0.00120129,493.055,-1.26933,-2.19169,-0.0463312,0.302346,-0.253823,0.613981,-0.00114126,-0.00198972,0.485347,-0.045274295332026204,0.8477727594629145,-0.0011406090104791877,0.35302929386487203,-0.001987741819386879,-0.22417088835302057
665,0.6556,280.658,866.62,-0.00128338,493.17,-1.27226,-2.19676,-0.046399,0.302776,-0.254185,0.614853,-0.00114399,-0.00199448,0.486044,-0.045339023540491685,0.8493847200218274,-0.0011433358928943926,0.3536112215667233,-0.0019924923464295086,-0.22445168766369517
666,0.6566,280.723,866.824,-0.00136569,493.285,-1.2752,-2.20183,-0.0464667,0.303207,-0.254548,0.615725,-0.00114673,-0.00199925,0.48674,-0.04540365190090323,0.8509980868233804,-0.001146072756404548,0.35419475374537,-0.001997252830887253,-0.22473316061064252
667,0.6576,280.788,867.026,-0.00144821,493.399,-1.27814,-2.20692,-0.0465345,0.303637,-0.254909,0.616597,-0.00114948,-0.00200403,0.487436,-0.0454683713392906,0.8526128610943517,-0.0011488196009274976,0.35477718270273195,-0.002002023272617337,-0.22501298142896553
668,0.6586,280.852,867.229,-0.00153096,493.513,-1.2811,-2.21202,-0.0466021,0.304067,-0.255271,0.617468,-0.00115223,-0.00200881,0.488131,-0.04553289549644701,0.8542271898344735,-0.0011515664378967116,0.3553598621583991,-0.0020067936915447726,-0.22529347595711557
669,0.6596,280.916,867.431,-0.00161393,493.628,-1.28406,-2.21714,-0.0466698,0.304496,-0.255632,0.618338,-0.00115498,-0.00201361,0.488826,-0.04559751073217144,0.8558410694254561,-0.0011543132673121903,0.35594143627799424,-0.002011584047438175,-0.22557309453810448
670,0.6606,280.981,867.633,-0.00169711,493.741,-1.28702,-2.22227,-0.0467373,0.304925,-0.255993,0.619207,-0.00115774,-0.00201841,0.48952,-0.04566193072599778,0.8574544962472077,-0.0011570700776031284,0.356523259946411,-0.002016374380337971,-0.22585261219500363
671,0.6616,281.045,867.834,-0.00178053,493.855,-1.29,-2.22741,-0.0468049,0.305354,-0.256354,0.620076,-0.00116051,-0.00202322,0.490214,-0.04572644179898189,0.8590693257462425,-0.0011598368686870364,0.357105333270729,-0.0020211746700324884,-0.2261320289642399
672,0.6626,281.109,868.035,-0.00186417,493.969,-1.29298,-2.23256,-0.0468724,0.305783,-0.256715,0.620945,-0.00116327,-0.00202804,0.490907,-0.04579085309025499,0.8606855591420168,-0.001162593663732836,0.35768765635807354,-0.002025984916377843,-0.22641134488222714
673,0.6636,281.173,868.235,-0.00194803,494.082,-1.29597,-2.23773,-0.0469398,0.306211,-0.257075,0.621813,-0.00116605,-0.00203287,0.4916,-0.04585516461943373,0.8623013353527804,-0.0011653704278627997,0.35826887104606553,-0.002030805119229928,-0.22668978667553963
674,0.6646,281.237,868.435,-0.00203213,494.195,-1.29897,-2.24291,-0.0470072,0.306639,-0.257435,0.62268,-0.00116883,-0.00203771,0.492293,-0.04591947181416167,0.8639166507485709,-0.0011681471842732716,0.3588503345471863,-0.0020356352784441922,-0.2269681282478473
675,0.6656,281.301,868.635,-0.00211645,494.308,-1.30197,-2.24811,-0.0470746,0.307067,-0.257795,0.623546,-0.00117161,-0.00204255,0.492985,-0.04598377467473058,0.8655315016976579,-0.0011709239329644738,0.3594320469679504,-0.00204046541428049,-0.22724636963522338
676,0.6666,281.364,868.834,-0.00220101,494.421,-1.30498,-2.25331,-0.0471419,0.307494,-0.258155,0.624412,-0.0011744,-0.0020474,0.493676,-0.046047977806235374,0.867147751713375,-0.0011737106621991789,0.36001264840159,-0.0020453055062860104,-0.22752451087372783
677,0.6676,281.428,869.033,-0.0022858,494.533,-1.308,-2.25853,-0.0472092,0.307921,-0.258514,0.625278,-0.00117719,-0.00205226,0.494367,-0.04611217661701483,0.8687654020078392,-0.001176497383658992,0.3605934978049796,-0.002050155554315647,-0.22780177980157368
678,0.6686,281.492,869.232,-0.00237082,494.645,-1.31103,-2.26377,-0.0472764,0.308348,-0.258873,0.626143,-0.00117999,-0.00205713,0.495058,-0.046176275724992055,0.8703825834106982,-0.0011792940855508416,0.36117459528402507,-0.0020550155582239604,-0.22807894920773975
679,0.6696,281.555,869.43,-0.00245608,494.757,-1.31407,-2.26901,-0.0473436,0.308775,-0.259232,0.627007,-0.00118279,-0.00206201,0.495748,-0.046240370525653884,0.8719992922804243,-0.001182090779612066,0.3617559409446769,-0.0020598855178652897,-0.22835601912794767
680,0.6706,281.618,869.628,-0.00254158,494.869,-1.31711,-2.27428,-0.0474107,0.309201,-0.259591,0.627871,-0.0011856,-0.00206689,0.496437,-0.04630436564973117,0.8736173985902214,-0.0011848974539936385,0.36233617255607764,-0.002064755453741296,-0.22863298959790668
681,0.6716,281.682,869.825,-0.00262732,494.981,-1.32016,-2.27955,-0.0474778,0.309627,-0.259949,0.628734,-0.00118841,-0.00207179,0.497126,-0.04636835647987969,0.8752350283120329,-0.0011877041204884087,0.36291665139880136,-0.0020696453244594126,-0.2289090895627881
682,0.6726,281.745,870.022,-0.00271329,495.093,-1.32322,-2.28484,-0.0475448,0.310052,-0.260307,0.629596,-0.00119122,-0.00207669,0.497815,-0.046432247659617176,0.8768521777977321,-0.0011905107790964875,0.36349601408149534,-0.00207453517121714,-0.229185090701573
683,0.6736,281.808,870.219,-0.00279951,495.204,-1.32629,-2.29014,-0.0476118,0.310478,-0.260665,0.630458,-0.00119405,-0.0020816,0.498503,-0.04649613455878887,0.8784707218672667,-0.0011933374059512891,0.36407698712196557,-0.0020794349732204953,-0.22946099304963474
684,0.6746,281.871,870.415,-0.00288598,495.315,-1.32936,-2.29545,-0.0476788,0.310903,-0.261023,0.63132,-0.00119687,-0.00208652,0.499191,-0.04656001717768188,0.8800906617232871,-0.0011961540367683154,0.3646568430521495,-0.002084344730322374,-0.22973679664233426
685,0.6756,281.934,870.611,-0.00297269,495.426,-1.33244,-2.30078,-0.0477457,0.311328,-0.26138,0.632181,-0.0011997,-0.00209145,0.499878,-0.0466238001789675,0.8817101168584218,-0.001198980647652781,0.3652369454734796,-0.0020892644423757822,-0.23001173152713605
686,0.6766,281.996,870.806,-0.00305965,495.537,-1.33553,-2.30612,-0.0478126,0.311752,-0.261738,0.633041,-0.00120254,-0.00209638,0.500565,-0.0466875789133131,0.8833290836148429,-0.0012018172385197534,0.36581592867412493,-0.0020941841301750364,-0.23028733799074874
687,0.6776,282.059,871.001,-0.00314685,495.647,-1.33863,-2.31148,-0.0478794,0.312177,-0.262095,0.6339,-0.00120538,-0.00210133,0.501252,-0.04675125805613456,0.8849475583330395,-0.0012046538213308366,0.366396523811539,-0.0020991237517380412,-0.23056207636736792
688,0.6786,282.122,871.196,-0.00323431,495.758,-1.34174,-2.31684,-0.0479462,0.312601,-0.262451,0.634759,-0.00120823,-0.00210628,0.501938,-0.046814932945331456,0.8865674239183106,-0.0012075003840110732,0.36697599877764664,-0.0021040633488499383,-0.23083594751622416
689,0.6796,282.184,871.39,-0.00332202,495.868,-1.34485,-2.32223,-0.0480129,0.313024,-0.262808,0.635618,-0.00121108,-0.00211124,0.502623,-0.046878508269043384,0.888188681565925,-0.001210346938578688,0.3675543519381994,-0.002109012900420759,-0.23111049007419837
690,0.6806,282.247,871.584,-0.00340998,495.978,-1.34797,-2.32762,-0.0480796,0.313448,-0.263164,0.636476,-0.00121393,-0.00211622,0.503308,-0.04694207935242267,0.88980944266179,-0.0012131934850335702,0.36813431792752205,-0.0021139823851625827,-0.23138416602252287
691,0.6816,282.309,871.778,-0.00349819,496.088,-1.3511,-2.33303,-0.0481462,0.313871,-0.26352,0.637333,-0.00121679,-0.00212119,0.503993,-0.047005550896311865,0.8914297035367693,-0.001216050011215386,0.3687131611607184,-0.002118941866345758,-0.2316577445595498
692,0.6826,282.371,871.971,-0.00358667,496.197,-1.35424,-2.33845,-0.0482128,0.314294,-0.263876,0.63819,-0.00121966,-0.00212618,0.504677,-0.04706901821313714,0.8930513535704883,-0.0012189165170384264,0.3692922492963955,-0.0021239212804021745,-0.23193122571995173
693,0.6836,282.433,872.164,-0.0036754,496.307,-1.35738,-2.34389,-0.0482794,0.314716,-0.264231,0.639046,-0.00122253,-0.00213118,0.50536,-0.04713248130317971,0.8946724992805191,-0.0012217830146346031,0.3698702125672715,-0.002128910648322324,-0.2322038417426141
694,0.6846,282.495,872.356,-0.00376439,496.416,-1.36053,-2.34934,-0.0483459,0.315138,-0.264587,0.639902,-0.00122541,-0.00213618,0.506044,-0.04719584488631057,0.8962950332853832,-0.0012246594917573184,0.3704484197901181,-0.0021338999912957624,-0.23247712852701985
695,0.6856,282.557,872.548,-0.00385364,496.525,-1.36369,-2.3548,-0.0484124,0.31556,-0.264942,0.640757,-0.00122829,-0.0021412,0.506726,-0.04725920425590324,0.897917058855962,-0.0012275359605958824,0.3710268710679048,-0.0021389092665444753,-0.2327495507885804
696,0.6866,282.619,872.74,-0.00394316,496.634,-1.36686,-2.36028,-0.0484788,0.315982,-0.265296,0.641611,-0.00123117,-0.00214622,0.507409,-0.04732246414448915,0.8995385723119209,-0.0012304124211501843,0.3716055665036442,-0.002143918516646748,-0.23302110937889475
697,0.6876,282.681,872.932,-0.00403294,496.743,-1.37004,-2.36577,-0.0485452,0.316404,-0.265651,0.642465,-0.00123406,-0.00215125,0.50809,-0.047385719832757855,0.9011614711318374,-0.0012332988610874729,0.37218450620039323,-0.0021489377201133752,-0.23329333856152645
698,0.6886,282.743,873.123,-0.00412299,496.851,-1.37322,-2.37128,-0.0486115,0.316825,-0.266005,0.643318,-0.00123696,-0.00215629,0.508772,-0.04744887606588066,0.9027838537145128,-0.0012361952803209286,0.3727623174982475,-0.0021539668767937004,-0.23356470468503787
699,0.6896,282.804,873.313,-0.0042133,496.96,-1.37641,-2.3768,-0.0486778,0.317246,-0.266359,0.644171,-0.00123986,-0.00216134,0.509453,-0.04751202811188404,0.9044076207799292,-0.00123909169115477,0.373340372105871,-0.002159005986537288,-0.23383597476194296
700,0.6906,282.866,873.504,-0.00430389,497.068,-1.37961,-2.38233,-0.048744,0.317666,-0.266713,0.645023,-0.00124277,-0.0021664,0.510133,-0.04757508072855843,0.9060308674777333,-0.0012419980811692044,0.37391729620773617,-0.0021640550491928146,-0.23410714882623596
701,0.6916,282.927,873.694,-0.00439474,497.176,-1.38282,-2.38788,-0.0488102,0.318086,-0.267067,0.645875,-0.00124568,-0.00217147,0.510813,-0.047638129171287735,0.9076554977710523,-0.0012449044627259598,0.37449446266861597,-0.002169114064609068,-0.23437822691189947
702,0.6926,282.989,873.883,-0.00448587,497.284,-1.38604,-2.39344,-0.0488764,0.318506,-0.26742,0.646726,-0.00124859,-0.00217654,0.511493,-0.04770117344034819,0.9092796035586532,-0.0012478108358252582,0.3750718715903223,-0.0021741730543762827,-0.2346484437017301
703,0.6936,283.05,874.072,-0.00457728,497.392,-1.38926,-2.39901,-0.0489425,0.318926,-0.267773,0.647576,-0.00125151,-0.00218163,0.512172,-0.04776411831243288,0.910903181144399,-0.0012507271879597104,0.37564952307471056,-0.002179251974909535,-0.23491856512186782
704,0.6946,283.111,874.261,-0.00466896,497.499,-1.39249,-2.4046,-0.0490086,0.319346,-0.268126,0.648426,-0.00125444,-0.00218672,0.51285,-0.047827059023998975,0.9125281393577762,-0.0012536535190419418,0.37622741722367814,-0.0021843308695911334,-0.23518859120597202
705,0.6956,283.172,874.45,-0.00476091,497.606,-1.39574,-2.41021,-0.0490746,0.319765,-0.268479,0.649275,-0.00125737,-0.00219183,0.513528,-0.047889900364316396,0.9141525652192954,-0.0012565798415501428,0.37680417733430005,-0.0021894296946328717,-0.23545852198769035
706,0.6966,283.233,874.638,-0.00485315,497.714,-1.39898,-2.41582,-0.0491406,0.320184,-0.268832,0.650124,-0.00126031,-0.00219694,0.514206,-0.047952737557242164,0.9157783708039804,-0.0012595161428889945,0.3773811791580437,-0.002194528493619785,-0.23572835750065868
707,0.6976,283.294,874.826,-0.00494567,497.82,-1.40224,-2.42145,-0.0492065,0.320602,-0.269184,0.650972,-0.00126325,-0.00220206,0.514883,-0.04801547540460238,0.9174036398791152,-0.001262452435595196,0.37795704483847414,-0.002199637244555408,-0.23599733377621657
708,0.6986,283.355,875.013,-0.00503847,497.927,-1.40551,-2.4271,-0.0492724,0.321021,-0.269536,0.65182,-0.0012662,-0.00220719,0.51556,-0.048078209117674686,0.9190302877669596,-0.0012653987070146977,0.3785345298149152,-0.0022047559472868627,-0.23626621538878734
709,0.6996,283.416,875.2,-0.00513156,498.034,-1.40878,-2.43276,-0.0493383,0.321439,-0.269887,0.652667,-0.00126915,-0.00221233,0.516237,-0.04814093869673142,0.9206563949798878,-0.0012683449697428184,0.3791108776966934,-0.0022098846016607165,-0.23653423890630676
710,0.7006,283.476,875.387,-0.00522493,498.14,-1.41206,-2.43843,-0.0494041,0.321857,-0.270239,0.653513,-0.00127211,-0.00221748,0.516913,-0.04820356896240685,0.9222819578061627,-0.0012713012110664446,0.37968746654224406,-0.0022150232075230925,-0.2368029315615301
711,0.7016,283.537,875.573,-0.00531859,498.247,-1.41535,-2.44412,-0.0494699,0.322274,-0.27059,0.654359,-0.00127507,-0.00222263,0.517588,-0.04826619510714636,0.9239088964404736,-0.001274257443639626,0.3802629161887048,-0.0022201617869216372,-0.23707076672473104
712,0.7026,283.598,875.759,-0.00541254,498.353,-1.41865,-2.44982,-0.0495356,0.322691,-0.270941,0.655205,-0.00127804,-0.0022278,0.518263,-0.0483287219640981,0.9255372120472463,-0.001277223654690185,0.3808386058477071,-0.002225320295350497,-0.23733850789428657
713,0.7036,283.658,875.945,-0.00550679,498.459,-1.42195,-2.45554,-0.0496013,0.323108,-0.271292,0.65605,-0.00128101,-0.00223298,0.518938,-0.048391244713170245,0.9271649786259504,-0.0012801898569311243,0.38141453561935745,-0.0022304887548050267,-0.23760615510318261
714,0.7046,283.718,876.13,-0.00560132,498.564,-1.42527,-2.46127,-0.0496669,0.323525,-0.271643,0.656894,-0.00128399,-0.00223816,0.519612,-0.048453668200004296,0.9287921924555529,-0.0012831660375308696,0.3819907056038032,-0.0022356571874870834,-0.2378737083843937
715,0.7056,283.779,876.315,-0.00569615,498.67,-1.42859,-2.46702,-0.0497325,0.323941,-0.271993,0.657738,-0.00128698,-0.00224335,0.520286,-0.048516087591991996,0.9304207802333526,-0.0012861521964001588,0.3825657333348098,-0.0022408355709883088,-0.2381404059116693
716,0.7066,283.839,876.5,-0.00579128,498.775,-1.43192,-2.47278,-0.049798,0.324357,-0.272343,0.658581,-0.00128997,-0.00224856,0.520959,-0.04857840774724731,0.9320488110696736,-0.0012891383463407013,0.3831410003271154,-0.002246033882693399,-0.23840701011114374
717,0.7076,283.899,876.684,-0.0058867,498.881,-1.43526,-2.47855,-0.0498635,0.324773,-0.272693,0.659423,-0.00129296,-0.00225377,0.521632,-0.0486407238206662,0.9336762812373833,-0.0012921244873528304,0.38371650668027324,-0.0022512321673152647,-0.238673521015476
718,0.7086,283.959,876.868,-0.00598243,498.986,-1.4386,-2.48434,-0.049929,0.325189,-0.273043,0.660265,-0.00129596,-0.00225899,0.522304,-0.048703035812515894,0.9353051223120452,-0.0012951206064851783,0.38429225249387855,-0.0022564404022898943,-0.23893993865731356
719,0.7096,284.019,877.051,-0.00607846,499.091,-1.44196,-2.49014,-0.0499944,0.325604,-0.273392,0.661107,-0.00129897,-0.00226422,0.522976,-0.048765248599593525,0.9369353354484489,-0.0012981267036479283,0.3848668530000219,-0.0022616585874609685,-0.23920550227517534
720,0.7106,284.079,877.235,-0.00617479,499.195,-1.44532,-2.49596,-0.0500598,0.326019,-0.273741,0.661948,-0.00130198,-0.00226946,0.523648,-0.0488274573180878,0.9385649832364042,-0.0013011327917624715,0.3854416920148622,-0.002266886722672279,-0.23947097322750555
721,0.7116,284.139,877.418,-0.00627142,499.3,-1.4487,-2.50179,-0.0501251,0.326434,-0.27409,0.662788,-0.00130499,-0.00227471,0.524319,-0.04888956685722645,0.9401940619395885,-0.0013041388708285861,0.3860167696374015,-0.002272124807767062,-0.23973635154663886
722,0.7126,284.199,877.6,-0.00636837,499.404,-1.45208,-2.50764,-0.0501904,0.326848,-0.274439,0.663628,-0.00130802,-0.00227997,0.524989,-0.04895167234074449,0.9418245096437832,-0.0013071649147032849,0.38659069937528967,-0.002277372842588221,-0.24000163726489854
723,0.7136,284.258,877.782,-0.00646562,499.509,-1.45546,-2.5135,-0.0502556,0.327263,-0.274788,0.664467,-0.00131104,-0.00228524,0.525659,-0.049013678670279615,0.9434543840440766,-0.0013101809625110095,0.3871662539348413,-0.002282630826978438,-0.24026683041459673
724,0.7146,284.318,877.964,-0.00656319,499.613,-1.45886,-2.51937,-0.0503208,0.327677,-0.275136,0.665306,-0.00131408,-0.00229052,0.526329,-0.04907568095713377,0.9450856264828036,-0.0013132169749461298,0.3877406596577506,-0.0022878987607803936,-0.2405311715595856
725,0.7156,284.377,878.146,-0.00666106,499.717,-1.46227,-2.52526,-0.050386,0.32809,-0.275484,0.666144,-0.00131711,-0.00229581,0.526998,-0.04913767920157064,0.9467162913909657,-0.001316242991314276,0.3883139149192525,-0.0022931766438358814,-0.24079542072986038
726,0.7166,284.437,878.327,-0.00675925,499.821,-1.46568,-2.53117,-0.0504511,0.328504,-0.275832,0.666982,-0.00132016,-0.0023011,0.527667,-0.049199578323816384,0.9483483233690431,-0.0013192889721280743,0.3888887958721752,-0.0022984544989714806,-0.24105957795742294
727,0.7176,284.496,878.508,-0.00685776,499.924,-1.4691,-2.53709,-0.0505162,0.328917,-0.276179,0.667819,-0.00132321,-0.00230641,0.528336,-0.049261473416560286,0.9499797735823723,-0.0013223349436516374,0.3894625254118653,-0.002303752280112481,-0.2413228845975276
728,0.7186,284.556,878.688,-0.00695658,500.028,-1.47254,-2.54302,-0.0505812,0.32933,-0.276527,0.668655,-0.00132626,-0.00231173,0.529004,-0.04932326941239662,0.9516106382795466,-0.0013253809058849653,0.3900364919507924,-0.002309060010031838,-0.24158685829959947
729,0.7196,284.615,878.868,-0.00705573,500.131,-1.47597,-2.54897,-0.0506462,0.329742,-0.276874,0.669491,-0.00132932,-0.00231705,0.529671,-0.049385061391623686,0.9532428669496691,-0.0013284368455437345,0.39060930497685686,-0.002314367711714005,-0.2418499820051664
730,0.7206,284.674,879.048,-0.0071552,500.234,-1.47942,-2.55493,-0.0507111,0.330154,-0.277221,0.670327,-0.00133238,-0.00232239,0.530338,-0.04944675429918288,0.9548764607334981,-0.0013314927758514283,0.3911823540505104,-0.002319695338765748,-0.24211301442264688
731,0.7216,284.733,879.228,-0.00725499,500.337,-1.48288,-2.56091,-0.050776,0.330566,-0.277568,0.671162,-0.00133546,-0.00232773,0.531005,-0.049508443203002295,0.9565094642623031,-0.0013345686701168313,0.3917556392690251,-0.0023250229373679154,-0.2423759555837124
732,0.7226,284.792,879.407,-0.0073551,500.44,-1.48634,-2.56691,-0.0508409,0.330978,-0.277914,0.671996,-0.00133853,-0.00233309,0.531671,-0.049570128103341826,0.9581418737756455,-0.00133763456828484,0.39232916072971213,-0.0023303704609135556,-0.24263804815845025
733,0.7236,284.851,879.586,-0.00745554,500.543,-1.48982,-2.57292,-0.0509057,0.33139,-0.27826,0.67283,-0.00134161,-0.00233845,0.532337,-0.0496317139636373,0.9597756452863961,-0.001340710443633486,0.39290291852992354,-0.002335717955796568,-0.24290005006484383
734,0.7246,284.91,879.764,-0.00755632,500.645,-1.4933,-2.57894,-0.0509704,0.331801,-0.278606,0.673663,-0.0013447,-0.00234383,0.533002,-0.04969320080262307,0.9614088185211351,-0.0013437962960706207,0.39347551929083546,-0.0023410853751956173,-0.24316196133425894
735,0.7256,284.969,879.942,-0.00765742,500.747,-1.49679,-2.58498,-0.0510352,0.332212,-0.278952,0.674496,-0.0013478,-0.00234921,0.533667,-0.049754778688066104,0.9630433527559565,-0.0013468921255035404,0.3940483554390286,-0.002346452765717988,-0.24342378199805037
736,0.7266,285.027,880.12,-0.00775885,500.85,-1.50029,-2.59103,-0.0510998,0.332623,-0.279298,0.675328,-0.00135089,-0.0023546,0.534332,-0.049816162546642895,0.9646772844467792,-0.001349977958839288,0.39462142707126757,-0.0023518301038456535,-0.2436855120875625
737,0.7276,285.086,880.298,-0.00786062,500.952,-1.5038,-2.5971,-0.0511645,0.333033,-0.279643,0.67616,-0.001354,-0.00236001,0.534996,-0.049877637452191426,0.9663125761344484,-0.0013530837555782993,0.3951933390903193,-0.0023572273658452048,-0.24394639558090203
738,0.7286,285.145,880.475,-0.00796273,501.053,-1.50732,-2.60318,-0.0512291,0.333443,-0.279988,0.676991,-0.00135711,-0.00236542,0.53566,-0.04993901337434836,0.9679472610027082,-0.0013561895426583703,0.39576548564137437,-0.0023626245986456684,-0.24420718908496042
739,0.7296,285.203,880.652,-0.00806517,501.155,-1.51084,-2.60928,-0.0512936,0.333853,-0.280333,0.677821,-0.00136022,-0.00237084,0.536323,-0.05000029033178266,0.9695813352763545,-0.00135929532007939,0.396337866820611,-0.002368031778566815,-0.24446789263077862
740,0.7306,285.262,880.828,-0.00816796,501.257,-1.51438,-2.6154,-0.0513581,0.334263,-0.280678,0.678651,-0.00136335,-0.00237628,0.536986,-0.05006156333698053,0.9712167663946607,-0.0013624210605932552,0.3969104827242462,-0.0023734588817122537,-0.2447285062493868
741,0.7316,285.32,881.005,-0.00827108,501.358,-1.51792,-2.62153,-0.0514226,0.334672,-0.281022,0.679481,-0.00136647,-0.00238172,0.537648,-0.0501228323901971,0.972853555484275,-0.001365536804978973,0.3974819359659023,-0.002378885955334198,-0.24498827496045705
742,0.7326,285.378,881.18,-0.00837455,501.459,-1.52147,-2.62767,-0.051487,0.335081,-0.281366,0.68031,-0.00136961,-0.00238717,0.53831,-0.05018400251009214,0.9744897291820653,-0.0013686725122703525,0.39805362297973734,-0.002384322975589881,-0.24524795432645896
743,0.7336,285.437,881.356,-0.00847837,501.561,-1.52503,-2.63383,-0.0515514,0.33549,-0.28171,0.681138,-0.00137274,-0.00239263,0.538971,-0.050245168690758346,0.9761252837039578,-0.0013717982234335846,0.3986255438613837,-0.002389769942316211,-0.24550754437812183
744,0.7346,285.495,881.531,-0.00858254,501.662,-1.5286,-2.64,-0.0516158,0.335898,-0.282054,0.681966,-0.00137589,-0.00239811,0.539632,-0.050306330932449406,0.9777621930258038,-0.0013749438973147399,0.39919629950951374,-0.00239523683139764,-0.24576704514616465
745,0.7356,285.553,881.706,-0.00868705,501.762,-1.53218,-2.64619,-0.05168,0.336307,-0.282398,0.682793,-0.00137904,-0.00240359,0.540293,-0.05036729930889772,0.9793984788703745,-0.0013780895612870436,0.3997686878414479,-0.002400703690520589,-0.24602645666129552
746,0.7366,285.611,881.881,-0.00879192,501.863,-1.53577,-2.6524,-0.0517443,0.336715,-0.282741,0.68362,-0.00138219,-0.00240908,0.540953,-0.050428358728470735,0.9810361184830443,-0.0013812352153504959,0.40033990998748115,-0.0024061804956234667,-0.2462850252396146
747,0.7376,285.669,882.055,-0.00889714,501.964,-1.53936,-2.65862,-0.0518085,0.337122,-0.283084,0.684446,-0.00138535,-0.00241459,0.541613,-0.05048931927098599,0.9826731303097211,-0.0013843908456613319,0.4009099643290355,-0.0024116772224255234,-0.2465435051441196
748,0.7386,285.727,882.229,-0.00900271,502.064,-1.54297,-2.66486,-0.0518727,0.33753,-0.283427,0.685272,-0.00138852,-0.0024201,0.542273,-0.050550275899960084,0.9843114948667677,-0.0013875564521248496,0.40148165221087906,-0.002417173918940585,-0.24680189640522054
749,0.7396,285.785,882.403,-0.00910864,502.164,-1.54658,-2.67111,-0.0519368,0.337937,-0.283769,0.686097,-0.00139169,-0.00242562,0.542931,-0.05061113367676229,0.9859492273217803,-0.0013907220485535055,0.4020521713360954,-0.002422680560942192,-0.24705944611313957
750,0.7406,285.843,882.576,-0.00921494,502.264,-1.5502,-2.67737,-0.0520009,0.338344,-0.284112,0.686922,-0.00139487,-0.00243115,0.54359,-0.05067198755270608,0.9875883114635626,-0.0013938976210081666,0.402622922709855,-0.0024281971482652542,-0.24731766043683467
751,0.7416,285.9,882.749,-0.00932159,502.364,-1.55383,-2.68366,-0.0520649,0.338751,-0.284454,0.687746,-0.00139806,-0.0024367,0.544248,-0.050732742601320435,0.989226759179962,-0.001397083169393798,0.4031939064267025,-0.002433733656407311,-0.24757503378361445
752,0.7426,285.958,882.922,-0.00942861,502.464,-1.55747,-2.68996,-0.0521289,0.339157,-0.284796,0.688569,-0.00140125,-0.00244225,0.544906,-0.05079349376173603,0.990864566668104,-0.001400268707617558,0.40376371881679973,-0.002439270133821725,-0.24783231912375947
753,0.7436,286.016,883.094,-0.00953599,502.564,-1.56112,-2.69627,-0.0521929,0.339563,-0.285138,0.689393,-0.00140445,-0.00244781,0.545563,-0.050854241034201886,0.9925057151313472,-0.0014034642216449456,0.4043337625976966,-0.0024448165560607693,-0.2480895164873631
754,0.7446,286.073,883.266,-0.00964374,502.663,-1.56478,-2.7026,-0.0522568,0.339969,-0.285479,0.690215,-0.00140765,-0.00245339,0.54622,-0.050914889510460304,0.9941442281657824,-0.001406659725446624,0.4049040378633566,-0.0024503828984542286,-0.24834587425075816
755,0.7456,286.13,883.438,-0.00975186,502.762,-1.56845,-2.70894,-0.0523207,0.340375,-0.285821,0.691037,-0.00141086,-0.00245897,0.546876,-0.050975534111404985,0.9957840886116422,-0.0014098652049240323,0.4054745447077819,-0.0024559492097876445,-0.24860289600853858
756,0.7466,286.188,883.609,-0.00986035,502.862,-1.57212,-2.7153,-0.0523845,0.34078,-0.286162,0.691858,-0.00141407,-0.00246456,0.547532,-0.051036079940896206,0.9974233001526553,-0.0014130706741120047,0.4060438771804322,-0.0024615254654459795,-0.24885907873936164
757,0.7476,286.245,883.78,-0.00996922,502.961,-1.57581,-2.72168,-0.0524483,0.341185,-0.286503,0.692679,-0.00141729,-0.00247017,0.548188,-0.05109662190768671,0.9990638580389428,-0.0014162861188475873,0.4066134402794326,-0.002467121640590819,-0.24911517412676643
758,0.7486,286.303,883.951,-0.0100785,503.059,-1.5795,-2.72807,-0.052512,0.34159,-0.286844,0.6935,-0.00142052,-0.00247578,0.548843,-0.0511570651277341,1.000705763376308,-0.0014195115390343016,0.4071832340982058,-0.0024727177843412163,-0.24937118220053178
759,0.7496,286.36,884.121,-0.0101881,503.158,-1.58321,-2.73448,-0.0525757,0.341995,-0.287184,0.69432,-0.00142375,-0.00248141,0.549498,-0.05121750449767115,1.002347014923446,-0.0014227369488030162,0.40775325873021195,-0.002478333847130809,-0.2496263526171547
760,0.7506,286.417,884.292,-0.0102981,503.257,-1.58692,-2.7409,-0.0526394,0.342399,-0.287524,0.695139,-0.00142698,-0.00248704,0.550152,-0.051277940017742885,1.0039876088601813,-0.0014259623481536199,0.4083221059461395,-0.0024839498783021385,-0.24988143629058301
761,0.7516,286.474,884.461,-0.0104085,503.355,-1.59064,-2.74734,-0.052703,0.342803,-0.287864,0.695958,-0.00143023,-0.00249269,0.550806,-0.051338276822027074,1.0056295469937244,-0.0014292077085023003,0.40889118302277105,-0.0024895858280638006,-0.25013643325030466
762,0.7526,286.531,884.631,-0.0105192,503.454,-1.59437,-2.7538,-0.0527666,0.343207,-0.288204,0.696776,-0.00143348,-0.00249835,0.551459,-0.05139860978901245,1.0072708231535965,-0.0014324530583035289,0.409460490052989,-0.0024952317210300556,-0.25039134352579706
763,0.7536,286.588,884.8,-0.0106304,503.552,-1.59811,-2.76027,-0.0528301,0.343611,-0.288544,0.697594,-0.00143673,-0.00250401,0.552112,-0.051458844064832365,1.0089134424266262,-0.0014356983975574167,0.4100300271297135,-0.0025008775820407614,-0.250646167146528
764,0.7546,286.645,884.969,-0.0107419,503.65,-1.60186,-2.76676,-0.0528936,0.344014,-0.288883,0.698411,-0.00144,-0.00250969,0.552765,-0.05151907451589721,1.010555395355528,-0.001438963697484863,0.4105983837468128,-0.00250654336096523,-0.25090015504248453
765,0.7556,286.702,885.138,-0.0108538,503.748,-1.60562,-2.77326,-0.0529571,0.344417,-0.289222,0.699228,-0.00144326,-0.00251538,0.553417,-0.051579301142449796,1.0121986903081148,-0.0014422190011570413,0.4111669694577882,-0.0025122190825860313,-0.251154056851137
766,0.7566,286.759,885.306,-0.0109661,503.846,-1.60939,-2.77978,-0.0530205,0.34482,-0.289561,0.700044,-0.00144654,-0.00252108,0.554069,-0.05163942910868069,1.0138413145389462,-0.0014454942653073788,0.41173578435498315,-0.0025179047467331905,-0.2514078726016641
767,0.7576,286.815,885.474,-0.0110789,503.943,-1.61316,-2.78632,-0.0530838,0.345222,-0.2899,0.70086,-0.00144982,-0.00252679,0.55472,-0.05169945843286994,1.0154852796981748,-0.0014487695187147542,0.4123034162266557,-0.0025236003532360662,-0.2516616023232344
768,0.7586,286.872,885.642,-0.011192,504.041,-1.61695,-2.79287,-0.0531472,0.345624,-0.290238,0.701675,-0.0014531,-0.00253251,0.555371,-0.051759578781370164,1.017128569750866,-0.0014520447613792786,0.41287127633221266,-0.002529305901924128,-0.25191449795987886
769,0.7596,286.929,885.809,-0.0113055,504.138,-1.62075,-2.79944,-0.0532104,0.346026,-0.290577,0.70249,-0.0014564,-0.00253824,0.556022,-0.05181950568228111,1.0187731996308549,-0.0014553399641944464,0.41343936476342247,-0.002535021392626402,-0.2521680559645604
770,0.7606,286.985,885.976,-0.0114194,504.235,-1.62455,-2.80602,-0.0532737,0.346428,-0.290915,0.703304,-0.00145969,-0.00254398,0.556672,-0.05187952360798409,1.020417150012387,-0.0014586251707218167,0.41400768161209056,-0.0025407468251716914,-0.25242078044880056
771,0.7616,287.042,886.143,-0.0115337,504.332,-1.62837,-2.81262,-0.0533369,0.34683,-0.291253,0.704118,-0.001463,-0.00254973,0.557321,-0.051939442928621626,1.0220624391143147,-0.0014619303372024328,0.414576226970059,-0.0025464821993881337,-0.2526734195265995
772,0.7626,287.098,886.309,-0.0116484,504.429,-1.63219,-2.81924,-0.0534,0.347231,-0.29159,0.704931,-0.00146631,-0.00255549,0.557971,-0.05199926366240881,1.0237070443187442,-0.0014652354927430222,0.4151435857849137,-0.0025522275151041995,-0.2529252261524195
773,0.7636,287.155,886.476,-0.0117635,504.526,-1.63602,-2.82587,-0.0534631,0.347632,-0.291928,0.705743,-0.00146963,-0.00256126,0.55862,-0.052059080621626785,1.0253509617788943,-0.0014685506226580491,0.4157111721562752,-0.0025579827721474713,-0.2531776947563823
774,0.7646,287.211,886.642,-0.0118791,504.623,-1.63986,-2.83252,-0.0535262,0.348032,-0.292265,0.706556,-0.00147295,-0.00256705,0.559268,-0.05211889380651369,1.0269982416393502,-0.00147186574156688,0.41627756989713394,-0.0025637579447080894,-0.2534293314700816
775,0.7656,287.267,886.807,-0.011995,504.719,-1.64372,-2.83919,-0.0535892,0.348433,-0.292602,0.707367,-0.00147628,-0.00257284,0.559916,-0.0521786084351733,1.0286428039932156,-0.001475190834717699,0.41684561108730933,-0.0025695330838305663,-0.25368088339649586
776,0.7666,287.323,886.972,-0.0121114,504.816,-1.64758,-2.84587,-0.0536522,0.348833,-0.292939,0.708178,-0.00147961,-0.00257865,0.560564,-0.0522383193019299,1.030288700628128,-0.0014785159167959305,0.4174124626945077,-0.002575328138008648,-0.2539323505641936
777,0.7676,287.38,887.137,-0.0122281,504.912,-1.65145,-2.85257,-0.0537152,0.349233,-0.293275,0.708989,-0.00148295,-0.00258446,0.561211,-0.052298026407020304,1.0319359326266277,-0.0014818509729832563,0.4179795410877032,-0.002581123158517662,-0.2541829871850938
778,0.7686,287.436,887.302,-0.0123453,505.008,-1.65533,-2.85928,-0.0537781,0.349633,-0.293612,0.709799,-0.0014863,-0.00259029,0.561858,-0.05235763498644985,1.03358246748865,-0.0014851960031795342,0.4185468463576283,-0.0025869380936190955,-0.25443428517232325
779,0.7696,287.492,887.466,-0.0124629,505.104,-1.65922,-2.86601,-0.0538409,0.350032,-0.293948,0.710608,-0.00148966,-0.00259613,0.562504,-0.052417145058336834,1.0352283013548838,-0.001488551007284622,0.4191129594813825,-0.002592762968891993,-0.25468475317152506
780,0.7706,287.548,887.63,-0.012581,505.2,-1.66311,-2.87276,-0.0539038,0.350431,-0.294284,0.711417,-0.00149302,-0.00260198,0.56315,-0.052476746145438846,1.0368754672394433,-0.0014919060001168383,0.41967929852934227,-0.002598597784161716,-0.25493513702761594
781,0.7716,287.604,887.794,-0.0126994,505.296,-1.66702,-2.87953,-0.0539665,0.35083,-0.294619,0.712226,-0.00149638,-0.00260784,0.563796,-0.05253615399100009,1.0385239662203687,-0.001495260981676294,0.4202458635916688,-0.0026044425392536263,-0.2551846919539277
782,0.7726,287.66,887.958,-0.0128183,505.391,-1.67094,-2.88631,-0.0540293,0.351229,-0.294955,0.713034,-0.00149976,-0.00261371,0.564441,-0.052595652852245656,1.0401717592037913,-0.0014986359219905099,0.4208126547585602,-0.002610297233992309,-0.2554349078588052
783,0.7736,287.715,888.121,-0.0129376,505.487,-1.67487,-2.89311,-0.054092,0.351627,-0.29529,0.713841,-0.00150314,-0.00261959,0.565086,-0.05265505324259012,1.0418188423221184,-0.0015020108508974062,0.42137825074128865,-0.002616161868202571,-0.25568429538992865
784,0.7746,287.771,888.284,-0.0130574,505.582,-1.67881,-2.89992,-0.0541546,0.352025,-0.295625,0.714648,-0.00150652,-0.00262548,0.56573,-0.05271435518008716,1.043467255172997,-0.001505385768397205,0.42194407187602057,-0.002622036441708553,-0.25593359939022153
785,0.7756,287.827,888.446,-0.0131775,505.677,-1.68275,-2.90675,-0.0542172,0.352423,-0.29596,0.715455,-0.00150991,-0.00263139,0.566374,-0.05277365340539908,1.0451169988299545,-0.0015087706594020256,0.42251011825238405,-0.0026279309280549112,-0.2561828198876617
786,0.7766,287.883,888.609,-0.0132981,505.773,-1.68671,-2.9136,-0.0542798,0.352821,-0.296295,0.716261,-0.00151331,-0.0026373,0.567018,-0.052832947918758255,1.0467660276003339,-0.0015121655238105047,0.4230763899600434,-0.0026338253795650246,-0.25643195691021814
787,0.7776,287.938,888.771,-0.0134192,505.868,-1.69068,-2.92047,-0.0543423,0.353218,-0.296629,0.717066,-0.00151672,-0.00264323,0.567661,-0.05289214400961617,1.048414337608318,-0.001515570361520835,0.42364146344652287,-0.002639739743444447,-0.25668026716648895
788,0.7786,287.994,888.932,-0.0135407,505.962,-1.69465,-2.92735,-0.0544048,0.353615,-0.296963,0.717871,-0.00152013,-0.00264917,0.568304,-0.05295133640083416,1.050063975040075,-0.0015189751876206747,0.42420676131171264,-0.0026456640457951375,-0.2569284945009829
789,0.7796,288.049,889.094,-0.0136626,506.057,-1.69864,-2.93425,-0.0544672,0.354012,-0.297297,0.718676,-0.00152355,-0.00265511,0.568946,-0.05301043039369091,1.0517149409646112,-0.0015223899868862523,0.424772283644709,-0.002651588312955644,-0.2571766389413911
790,0.7806,288.105,889.255,-0.013785,506.152,-1.70263,-2.94117,-0.0545297,0.354409,-0.297631,0.71948,-0.00152697,-0.00266107,0.569588,-0.053069615392240865,1.0533651830855844,-0.0015258047744731718,0.4253380305346428,-0.0026575324917755827,-0.2574247005153958
791,0.7816,288.16,889.416,-0.0139078,506.246,-1.70664,-2.9481,-0.054592,0.354805,-0.297965,0.720283,-0.0015304,-0.00266704,0.57023,-0.0531286073175844,1.0550146975190118,-0.0015292295350892715,0.42590257616739247,-0.0026634866085335496,-0.2576726792506696
792,0.7826,288.216,889.576,-0.0140311,506.34,-1.71065,-2.95505,-0.0546543,0.355201,-0.298298,0.721086,-0.00153384,-0.00267303,0.570871,-0.05318759556784547,1.0566655370444828,-0.001532664268631967,0.4264673454044834,-0.0026694606363565354,-0.25791983309508015
793,0.7836,288.271,889.737,-0.0141548,506.435,-1.71468,-2.96202,-0.0547166,0.355597,-0.298631,0.721888,-0.00153728,-0.00267902,0.571512,-0.0532465801432529,1.0583156444097996,-0.0015360989903591138,0.4270323383344803,-0.002675434628395257,-0.25816690465096226
794,0.7846,288.326,889.897,-0.014279,506.529,-1.71871,-2.969,-0.0547788,0.355993,-0.298964,0.72269,-0.00154073,-0.00268503,0.572152,-0.05330546637458722,1.0599670756920432,-0.0015395436848755217,0.4275975550459834,-0.0026814285310213792,-0.25841389394571357
795,0.7856,288.382,890.056,-0.0144036,506.623,-1.72276,-2.976,-0.054841,0.356388,-0.299297,0.723492,-0.00154419,-0.00269104,0.572792,-0.05336434894331188,1.0616198319534207,-0.001542998352077829,0.42816156746534606,-0.0026874223976243172,-0.2586608010067224
796,0.7866,288.437,890.216,-0.0145287,506.717,-1.72681,-2.98302,-0.0549032,0.356783,-0.29963,0.724293,-0.00154765,-0.00269707,0.573431,-0.0534232278496547,1.0632718509841093,-0.00154645300732692,0.42872580271362026,-0.002693436174335706,-0.25890762586136806
797,0.7876,288.492,890.375,-0.0146543,506.81,-1.73088,-2.99006,-0.0549653,0.357178,-0.299962,0.725093,-0.00155112,-0.00270311,0.574071,-0.05348200844204887,1.06492312888799,-0.0015499176351239097,0.4292902608788405,-0.0026994598877896347,-0.2591536276910187
798,0.7886,288.547,890.534,-0.0147803,506.904,-1.73495,-2.99711,-0.0550274,0.357573,-0.300294,0.725893,-0.0015546,-0.00270916,0.574709,-0.05354078538428175,1.0665757283427437,-0.001553392235364659,0.4298549420490767,-0.00270549353780547,-0.2593995478616181
799,0.7896,288.602,890.692,-0.0149068,506.997,-1.73904,-3.00418,-0.0550894,0.357967,-0.300626,0.726692,-0.00155808,-0.00271522,0.575348,-0.05359946403653082,1.0682275821774176,-0.0015568668235139693,0.430418415893302,-0.0027115371242025788,-0.25964538640027257
800,0.7906,288.657,890.85,-0.0150337,507.091,-1.74313,-3.01127,-0.0551514,0.358361,-0.300958,0.727491,-0.00156157,-0.00272129,0.575986,-0.0536581390508164,1.0698807563707184,-0.0015603513839681504,0.4309821117899635,-0.0027175906467997724,-0.25989114333407926
801,0.7916,288.712,891.008,-0.0151612,507.184,-1.74724,-3.01838,-0.0552133,0.358755,-0.301289,0.72829,-0.00156506,-0.00272738,0.576623,-0.05371671579904003,1.0715352519780343,-0.0015638359322612816,0.431546029826567,-0.0027236640781791444,-0.2601360788265754
802,0.7926,288.767,891.166,-0.0152891,507.277,-1.75135,-3.0255,-0.0552752,0.359149,-0.301621,0.729088,-0.00156857,-0.00273348,0.57726,-0.053775288921475206,1.073188996865564,-0.0015673404370467603,0.43211017009065267,-0.002729747445273878,-0.26038167287753666
803,0.7936,288.822,891.323,-0.0154174,507.37,-1.75547,-3.03264,-0.0553371,0.359542,-0.301952,0.729885,-0.00157208,-0.00273958,0.577897,-0.053833858418346425,1.0748419871251849,-0.001570844929531412,0.43267309999597936,-0.002735830775260295,-0.2606264460316223
804,0.7946,288.877,891.481,-0.0155463,507.463,-1.75961,-3.0398,-0.0553989,0.359935,-0.302283,0.730682,-0.00157559,-0.0027457,0.578533,-0.053892329679115614,1.076496295343179,-0.0015743494097153476,0.43323625117623665,-0.002741934013300029,-0.2608711381792015
805,0.7956,288.932,891.637,-0.0156756,507.556,-1.76375,-3.04698,-0.0554607,0.360328,-0.302613,0.731479,-0.00157911,-0.00275184,0.579169,-0.053950797326472455,1.0781519225703784,-0.001577863861820017,0.4337996237184023,-0.0027480571590271508,-0.26111501046246244
806,0.7966,288.986,891.794,-0.0158054,507.648,-1.76791,-3.05417,-0.0555225,0.360721,-0.302944,0.732275,-0.00158264,-0.00275798,0.579805,-0.05400926136064044,1.0798067900506223,-0.0015813882857399486,0.43436321770948916,-0.002754180267158235,-0.26135954092197566
807,0.7976,289.041,891.95,-0.0159357,507.741,-1.77207,-3.06138,-0.0555842,0.361113,-0.303274,0.73307,-0.00158618,-0.00276413,0.58044,-0.054067627188610135,1.0814608938678605,-0.0015849226813695605,0.4349255983102276,-0.002760313310090412,-0.2616032520589222
808,0.7986,289.096,892.106,-0.0160665,507.833,-1.77625,-3.06861,-0.0556458,0.361505,-0.303604,0.733865,-0.00158972,-0.0027703,0.581075,-0.054125894828113696,1.083116313220489,-0.001588457064487403,0.4354881994073758,-0.002766466259975453,-0.2618468827844621
809,0.7996,289.15,892.262,-0.0161978,507.925,-1.78043,-3.07586,-0.0557074,0.361897,-0.303934,0.73466,-0.00159327,-0.00277648,0.581709,-0.05418415887844108,1.0847730491547751,-0.0015920014191735943,0.4360510210873858,-0.0027726291441706463,-0.2620904331251267
810,0.8006,289.205,892.417,-0.0163296,508.017,-1.78463,-3.08312,-0.055769,0.362289,-0.304264,0.735454,-0.00159683,-0.00278267,0.582343,-0.05424241933981355,1.0864290162877577,-0.001595555745321775,0.4366140634367426,-0.002778801962491362,-0.26233390310743887
811,0.8016,289.259,892.572,-0.0164618,508.109,-1.78884,-3.09041,-0.0558305,0.36268,-0.304593,0.736247,-0.00160039,-0.00278887,0.582977,-0.054300581642514945,1.0880842106955173,-0.001599110058816744,0.4371758893653577,-0.0027849847147526363,-0.26257655533483637
812,0.8026,289.314,892.727,-0.0165946,508.201,-1.79305,-3.09771,-0.055892,0.363071,-0.304923,0.73704,-0.00160396,-0.00279508,0.58361,-0.05435874036834476,1.0897407181930139,-0.0016026743436314828,0.43773793501086256,-0.0027911774007692847,-0.2628198649232858
813,0.8036,289.368,892.882,-0.0167279,508.293,-1.79728,-3.10503,-0.0559535,0.363462,-0.305252,0.737833,-0.00160754,-0.00280131,0.584243,-0.054416895517523045,1.09139853982194,-0.00160624859965941,0.43830020045918383,-0.0027973899923817713,-0.2630623572955435
814,0.8046,289.423,893.036,-0.0168616,508.385,-1.80152,-3.11236,-0.0560149,0.363853,-0.30558,0.738625,-0.00161112,-0.00280755,0.584875,-0.05447495253776946,1.0930555835681854,-0.0016098228428915728,0.4388626857962805,-0.0028036125172539172,-0.2633040332053347
815,0.8056,289.477,893.19,-0.0169959,508.476,-1.80576,-3.11972,-0.0560763,0.364243,-0.305909,0.739416,-0.00161471,-0.0028138,0.585507,-0.054533005993424255,1.0947118455000244,-0.0016134070571939274,0.43942395168347503,-0.002809844975199205,-0.2635463663124281
816,0.8066,289.531,893.344,-0.0171307,508.568,-1.81002,-3.12709,-0.0561376,0.364633,-0.306238,0.740207,-0.00161831,-0.00282006,0.586139,-0.054590961343807254,1.0963694180533339,-0.0016170012424590041,0.43998543650705546,-0.002816087366031006,-0.2637886197050431
817,0.8076,289.586,893.497,-0.017266,508.659,-1.81429,-3.13448,-0.0561989,0.365023,-0.306566,0.740998,-0.00162191,-0.00282633,0.58677,-0.05464891314163611,1.0980283022652255,-0.0016205954147849866,0.44054714035242326,-0.0028223396895621367,-0.26403005743982677
818,0.8086,289.64,893.651,-0.0174018,508.75,-1.81857,-3.14189,-0.0562601,0.365413,-0.306894,0.741788,-0.00162552,-0.00283262,0.587401,-0.05470676685781006,1.0996863994861825,-0.0016241995579300283,0.4411090633050141,-0.0028286119173193125,-0.26427141599601944
819,0.8096,289.694,893.804,-0.0175381,508.841,-1.82286,-3.14932,-0.0563213,0.365802,-0.307222,0.742577,-0.00162914,-0.00283891,0.588031,-0.05476461703344493,1.101343705776733,-0.0016278136717861047,0.4416697637798117,-0.00283488410562438,-0.2645126953995873
820,0.8106,289.748,893.956,-0.0176749,508.932,-1.82716,-3.15676,-0.0563825,0.366192,-0.307549,0.743367,-0.00163277,-0.00284522,0.588661,-0.054822463668757426,1.103004423201308,-0.0016314377562447469,0.442232124640926,-0.002841176197654005,-0.2647531604300165
821,0.8116,289.802,894.109,-0.0178123,509.023,-1.83147,-3.16423,-0.0564436,0.366581,-0.307877,0.744155,-0.0016364,-0.00285155,0.589291,-0.054880212251990135,1.1046622437823155,-0.0016350618275480233,0.44279326207156533,-0.0028474881930312668,-0.2649942818473213
822,0.8126,289.856,894.261,-0.0179502,509.114,-1.83579,-3.17171,-0.0565047,0.366969,-0.308204,0.744943,-0.00164004,-0.00285788,0.58992,-0.054937957306892105,1.1063213712407824,-0.0016386958693089815,0.44335317447323086,-0.0028538001484536,-0.265234589424727
823,0.8136,289.91,894.413,-0.0180886,509.205,-1.84012,-3.17921,-0.0565657,0.367358,-0.308531,0.745731,-0.00164368,-0.00286423,0.590549,-0.05499560433324424,1.1079818066069347,-0.0016423298978420764,0.4439147480770853,-0.002860132006718974,-0.26547481843440146
824,0.8146,289.964,894.564,-0.0182275,509.295,-1.84446,-3.18673,-0.0566267,0.367746,-0.308858,0.746518,-0.00164734,-0.00287058,0.591178,-0.055053247843234954,1.1096414412693134,-0.0016459838802278526,0.4444750956997483,-0.0028664638247771768,-0.26571496890203194
825,0.8156,290.018,894.715,-0.018367,509.386,-1.84881,-3.19427,-0.0566877,0.368134,-0.309184,0.747305,-0.001651,-0.00287696,0.591806,-0.05511088783707885,1.1113023825782693,-0.0016496378492401043,0.44503566077947276,-0.0028728255164441885,-0.2659543068079716
826,0.8166,290.072,894.867,-0.018507,509.476,-1.85318,-3.20182,-0.0567486,0.368522,-0.309511,0.748091,-0.00165466,-0.00288334,0.592434,-0.055168429831838006,1.112962518598963,-0.0016532918048788314,0.4455964434006485,-0.002879187167523667,-0.26619430050853676
827,0.8176,290.126,895.017,-0.0186476,509.566,-1.85755,-3.2094,-0.0568095,0.368909,-0.309837,0.748877,-0.00165834,-0.00288973,0.593061,-0.05522596832239646,1.1146239599995162,-0.0016569657140049765,0.44615599749097745,-0.0028855587491605217,-0.2664334821778407
828,0.8186,290.18,895.168,-0.0187887,509.656,-1.86193,-3.21699,-0.0568703,0.369296,-0.310163,0.749662,-0.00166202,-0.00289614,0.593688,-0.055283408837313086,1.1162845915207114,-0.0016606396096111586,0.4467157681706466,-0.0028919502322442003,-0.26667258588662857
829,0.8196,290.234,895.318,-0.0189303,509.746,-1.86633,-3.22461,-0.0569311,0.369683,-0.310489,0.750447,-0.00166571,-0.00290256,0.594315,-0.05534084585995258,1.1179465271494453,-0.0016643234750542968,0.4472757555234923,-0.002898351645375108,-0.2669116116603115
830,0.8206,290.287,895.468,-0.0190725,509.836,-1.87073,-3.23224,-0.0569919,0.37007,-0.310815,0.751231,-0.0016694,-0.00290899,0.594941,-0.05539827939052733,1.119607648301137,-0.0016680073269039752,0.4478359596333834,-0.002904762988361509,-0.26715055952429223
831,0.8216,290.341,895.618,-0.0192152,509.926,-1.87515,-3.23989,-0.0570526,0.370457,-0.31114,0.752015,-0.00167311,-0.00291544,0.595567,-0.05545561497481566,1.1212700722824542,-0.0016717111317262612,0.44839638058422104,-0.00291119423189945,-0.26738869689302835
832,0.8226,290.395,895.767,-0.0193585,510.016,-1.87958,-3.24756,-0.0571133,0.370843,-0.311465,0.752798,-0.00167682,-0.00292189,0.596192,-0.05551294707893972,1.122931677182477,-0.0016754149228074278,0.4489555695036449,-0.002917625433956017,-0.26762675687969484
833,0.8236,290.449,895.916,-0.0195023,510.105,-1.88402,-3.25524,-0.0571739,0.371229,-0.31179,0.753581,-0.00168053,-0.00292836,0.596817,-0.05557018126013358,1.1245945836286255,-0.001679118700147475,0.44951497431165555,-0.002924076536050202,-0.2678647395094369
834,0.8246,290.502,896.065,-0.0196467,510.195,-1.88847,-3.26295,-0.0572345,0.371615,-0.312115,0.754364,-0.00168426,-0.00293485,0.597442,-0.05562741197304111,1.1262587926404093,-0.0016828424300899814,0.45007459509160186,-0.002930547537794981,-0.2681026448073913
835,0.8256,290.556,896.214,-0.0197916,510.284,-1.89293,-3.27068,-0.057295,0.372,-0.31244,0.755146,-0.00168799,-0.00294134,0.598066,-0.05568454478633167,1.127922177314895,-0.0016865661461430426,0.4506329812931589,-0.0029370184975432423,-0.2683404727986869
836,0.8266,290.609,896.362,-0.0199371,510.373,-1.8974,-3.27842,-0.0573555,0.372386,-0.312764,0.755927,-0.00169173,-0.00294785,0.59869,-0.055741674143191644,1.1295847336791307,-0.0016902998314035633,0.45119303370709996,-0.002943509356425067,-0.2685774920863021
837,0.8276,290.663,896.51,-0.0200832,510.462,-1.90188,-3.28618,-0.057416,0.372771,-0.313088,0.756708,-0.00169547,-0.00295437,0.599313,-0.05579880004383009,1.1312485890070656,-0.001694033502700254,0.4517518505904248,-0.0029500101435514514,-0.2688144345921074
838,0.8286,290.716,896.658,-0.0202298,510.551,-1.90637,-3.29397,-0.0574764,0.373155,-0.313412,0.757489,-0.00169922,-0.0029609,0.599937,-0.055855828074043545,1.132913744313587,-0.0016977771430553013,0.45230943034951365,-0.0029565208587276626,-0.26905130034097624
839,0.8296,290.77,896.805,-0.020377,510.64,-1.91088,-3.30177,-0.0575368,0.37354,-0.313736,0.758269,-0.00170298,-0.00296745,0.600559,-0.05591285265986812,1.134578066035242,-0.0017015307523564616,0.45286867712829526,-0.0029630514721282752,-0.2692880893577736
840,0.8306,290.823,896.953,-0.0205248,510.729,-1.91539,-3.30959,-0.0575972,0.373924,-0.31406,0.759048,-0.00170675,-0.002974,0.601182,-0.05596987380151164,1.1362415501916399,-0.0017052943304911583,0.45342668583112666,-0.002969582042753549,-0.2695248016673567
841,0.8316,290.876,897.1,-0.0206732,510.818,-1.91992,-3.31743,-0.0576575,0.374309,-0.314383,0.759827,-0.00171053,-0.00298058,0.601804,-0.05602679710186664,1.1379063307070623,-0.0017090678773465928,0.45398636283608207,-0.0029761424813198323,-0.26976070705564703
842,0.8326,290.93,897.246,-0.0208221,510.906,-1.92446,-3.32529,-0.0577177,0.374692,-0.314706,0.760606,-0.00171431,-0.00298716,0.602425,-0.056083622578217085,1.1395724085917651,-0.001712841409937993,0.45454334626856685,-0.002982702876718535,-0.2699965362588014
843,0.8336,290.983,897.393,-0.0209716,510.995,-1.929,-3.33317,-0.057778,0.375076,-0.315029,0.761384,-0.0017181,-0.00299376,0.603047,-0.05614053901972771,1.1412376436180796,-0.0017166249110993625,0.4551019981678339,-0.0029892831691645805,-0.27023228930142373
844,0.8346,291.036,897.539,-0.0211217,511.083,-1.93356,-3.34107,-0.0578381,0.375459,-0.315352,0.762162,-0.0017219,-0.00300036,0.603667,-0.05619726326875185,1.1429041747013455,-0.0017204183807171258,0.45565940897048707,-0.002995863418180811,-0.27046796620811
845,0.8356,291.09,897.685,-0.0212724,511.172,-1.93813,-3.34899,-0.0578983,0.375843,-0.315675,0.762939,-0.0017257,-0.00300699,0.604288,-0.05625407848334796,1.144569858279357,-0.0017242118359196423,0.45621848952012733,-0.0030024735336937614,-0.270703567003448
846,0.8366,291.143,897.831,-0.0214237,511.26,-1.94272,-3.35693,-0.0579584,0.376226,-0.315997,0.763716,-0.00172951,-0.00301362,0.604908,-0.05631079590885535,1.146236836596449,-0.001728015259427007,0.45677632802086743,-0.0030090836053818792,-0.2709383626507449
847,0.8376,291.196,897.976,-0.0215756,511.348,-1.94731,-3.36488,-0.0580184,0.376608,-0.31632,0.764492,-0.00173333,-0.00302027,0.605528,-0.05636741556249425,1.1479029627549893,-0.0017318286511252001,0.45733292288102123,-0.003015713572931178,-0.27117381153256725
848,0.8386,291.249,898.121,-0.021728,511.436,-1.95191,-3.37286,-0.0580785,0.376991,-0.316642,0.765268,-0.00173716,-0.00302693,0.606147,-0.05642412617664794,1.1495703823292085,-0.0017356520108997575,0.45789118829148645,-0.0030223534661679707,-0.27140845578550166
849,0.8396,291.302,898.266,-0.0218811,511.524,-1.95653,-3.38086,-0.0581384,0.377373,-0.316964,0.766043,-0.00174099,-0.0030336,0.606766,-0.05648064467874392,1.1512369450851665,-0.0017394753560308063,0.4584482091096165,-0.0030290032848931947,-0.27164302449514977
850,0.8406,291.355,898.411,-0.0220348,511.611,-1.96116,-3.38888,-0.0581984,0.377755,-0.317285,0.766818,-0.00174483,-0.00304029,0.607385,-0.05653725414176225,1.1529047999278794,-0.0017433086690854527,0.4590054427503456,-0.003035672998550898,-0.2718767895629861
851,0.8416,291.409,898.555,-0.0221891,511.699,-1.9658,-3.39691,-0.0582583,0.378137,-0.317607,0.767592,-0.00174868,-0.00304699,0.608003,-0.056593765867696155,1.154571793286232,-0.0017471519499487886,0.4595628892949877,-0.0030423526371650134,-0.27211120749343465
852,0.8426,291.462,898.699,-0.022344,511.787,-1.97045,-3.40497,-0.0583181,0.378518,-0.317928,0.768366,-0.00175254,-0.00305371,0.608621,-0.05665017987370158,1.1562400773969008,-0.001751005198505462,0.46011908870506835,-0.003049052170044919,-0.272344822298647
853,0.8436,291.515,898.843,-0.0224995,511.874,-1.97511,-3.41305,-0.058378,0.378899,-0.318249,0.76914,-0.0017564,-0.00306043,0.609238,-0.05670668483558672,1.1579096532593147,-0.0017548584321886995,0.4606755000674987,-0.003055751657903949,-0.27257836212554154
854,0.8446,291.568,898.987,-0.0226556,511.962,-1.97978,-3.42114,-0.0584377,0.37928,-0.31857,0.769913,-0.00176028,-0.00306717,0.609855,-0.056762997765544276,1.159578362294234,-0.0017587316158239608,0.4612321234630481,-0.0030624710394934196,-0.2728118269981825
855,0.8456,291.621,899.13,-0.0228123,512.049,-1.98446,-3.42926,-0.0584975,0.379661,-0.318891,0.770685,-0.00176415,-0.00307392,0.610472,-0.056819401651784895,1.161246200492636,-0.0017625948020573157,0.46178895897251615,-0.0030692003451024963,-0.2730452169406262
856,0.8466,291.673,899.273,-0.0229697,512.136,-1.98916,-3.43739,-0.0585572,0.380042,-0.319211,0.771457,-0.00176804,-0.00308069,0.611089,-0.056875707852749535,1.1629153267592574,-0.0017664779380108797,0.46234600667673376,-0.0030759495437701068,-0.27327780525509016
857,0.8476,291.726,899.416,-0.0231276,512.223,-1.99387,-3.44555,-0.0586168,0.380422,-0.319532,0.772229,-0.00177194,-0.00308747,0.611705,-0.05693191638553052,1.1645857420888714,-0.0017703710411552942,0.46290180375402756,-0.003082708665918754,-0.2735110456425184
858,0.8486,291.779,899.559,-0.0232862,512.31,-1.99859,-3.45373,-0.0586764,0.380802,-0.319852,0.773,-0.00177584,-0.00309426,0.61232,-0.056988121568382843,1.1662552812206535,-0.0017742641291167427,0.4634578120743442,-0.0030894777113459337,-0.2737434849156456
859,0.8496,291.832,899.701,-0.0234455,512.397,-2.00332,-3.46193,-0.058736,0.381182,-0.320172,0.773771,-0.00177975,-0.00310107,0.612935,-0.057044323401506114,1.167926108063455,-0.0017781671841134994,0.46401403171797173,-0.0030962666488864032,-0.27397584982010503
860,0.8506,291.885,899.843,-0.0236053,512.484,-2.00806,-3.47014,-0.0587955,0.381562,-0.320491,0.774541,-0.00178367,-0.00310789,0.61355,-0.05710042759514744,1.1695960540133457,-0.0017820802060286578,0.46457046276522784,-0.003103065509163727,-0.27420741458746833
861,0.8516,291.938,899.985,-0.0237659,512.571,-2.01281,-3.47838,-0.058855,0.381941,-0.320811,0.775311,-0.00178759,-0.00311472,0.614165,-0.057156528450688526,1.1712672863167999,-0.0017859932126047529,0.4651256401700885,-0.0031098742919742905,-0.2744396310581835
862,0.8526,291.99,900.126,-0.023927,512.657,-2.01758,-3.48664,-0.0589145,0.38232,-0.32113,0.77608,-0.00179152,-0.00312156,0.614779,-0.05721262596832799,1.1729376330259722,-0.0017899161859427082,0.4656810280270638,-0.0031166929971141455,-0.27467104790292673
863,0.8536,292.043,900.268,-0.0240888,512.744,-2.02236,-3.49492,-0.0589739,0.382699,-0.321449,0.776849,-0.00179546,-0.00312842,0.615393,-0.05726862587513182,1.1746092647257798,-0.0017938491259250622,0.46623662641593033,-0.0031235315931437135,-0.2749023909374698
864,0.8546,292.096,900.409,-0.0242512,512.83,-2.02715,-3.50322,-0.0590333,0.383078,-0.321768,0.777617,-0.00179941,-0.0031353,0.616006,-0.05732462245563996,1.1762800061236658,-0.0017977920324337981,0.4667924354164943,-0.0031303900796532114,-0.27513366018535457
865,0.8556,292.149,900.55,-0.0244143,512.916,-2.03195,-3.51154,-0.0590926,0.383456,-0.322087,0.778385,-0.00180337,-0.00314218,0.616619,-0.05738052144810679,1.1779520311437928,-0.0018017449053506773,0.4673469877608718,-0.0031372485189763433,-0.27536485567011504
866,0.8566,292.201,900.69,-0.024578,513.003,-2.03676,-3.51988,-0.0591519,0.383835,-0.322406,0.779153,-0.00180733,-0.00314908,0.617232,-0.05743641712586167,1.179625340772362,-0.001805697762614189,0.4679032176681426,-0.003144126848231288,-0.27559597741527797
867,0.8576,292.254,900.83,-0.0247424,513.089,-2.04158,-3.52824,-0.0592111,0.384213,-0.322724,0.77992,-0.00181131,-0.003156,0.617844,-0.05749221523832737,1.181297754697486,-0.001809670568031163,0.4684581899675777,-0.0031510250670057083,-0.2758263012710259
868,0.8586,292.306,900.97,-0.0249075,513.175,-2.04642,-3.53662,-0.0592704,0.38459,-0.323042,0.780686,-0.00181528,-0.00316293,0.618456,-0.057548104292836966,1.1829692688857878,-0.001813633375772894,0.46901190307355756,-0.00315793320646518,-0.2760565518954321
869,0.8596,292.359,901.11,-0.0250732,513.261,-2.05127,-3.54502,-0.0593295,0.384968,-0.32336,0.781452,-0.00181927,-0.00316987,0.619068,-0.05760380155400291,1.1846420639444686,-0.0018176161314300554,0.46956729453529267,-0.0031648512664030903,-0.27628672931178044
870,0.8606,292.412,901.25,-0.0252396,513.347,-2.05613,-3.55345,-0.0593887,0.385345,-0.323678,0.782218,-0.00182327,-0.00317682,0.619679,-0.05765958975760388,1.18631614085505,-0.0018216088529801056,0.4701214258525226,-0.00317177924661205,-0.27651683354334744
871,0.8616,292.464,901.389,-0.0254066,513.432,-2.061,-3.56189,-0.0594477,0.385722,-0.323996,0.782983,-0.00182727,-0.00318379,0.62029,-0.05771518620169691,1.1879893126094019,-0.0018256015585592644,0.4706757661166432,-0.0031787271150972574,-0.27674686461340203
872,0.8626,292.517,901.528,-0.0255743,513.518,-2.06589,-3.57036,-0.0595068,0.386099,-0.324313,0.783748,-0.00183128,-0.00319077,0.6209,-0.05777087358861388,1.1896637648298616,-0.001829604229871662,0.4712303154064421,-0.0031856849032992907,-0.276976099521667
873,0.8636,292.569,901.667,-0.0257427,513.604,-2.07078,-3.57884,-0.0595658,0.386476,-0.32463,0.784512,-0.0018353,-0.00319777,0.62151,-0.05782646346715459,1.1913373071579576,-0.001833616866797283,0.471785073800737,-0.0031926625790831276,-0.27720526177398264
874,0.8646,292.622,901.805,-0.0259118,513.689,-2.07569,-3.58735,-0.0596248,0.386852,-0.324947,0.785276,-0.00183933,-0.00320478,0.62212,-0.05788205006598923,1.1930121285609365,-0.0018376394692157794,0.47233856903907,-0.0031996501740269023,-0.27743435139337713
875,0.8656,292.674,901.944,-0.0260816,513.775,-2.08061,-3.59588,-0.0596837,0.387228,-0.325264,0.78604,-0.00184336,-0.0032118,0.622729,-0.05793753917906996,1.1946882300163852,-0.0018416620554231322,0.47289227243074294,-0.003206647687921338,-0.27766336840287165
876,0.8666,292.726,902.082,-0.026252,513.86,-2.08554,-3.60443,-0.0597426,0.387604,-0.325581,0.786803,-0.00184741,-0.00321884,0.623338,-0.057993025023938105,1.1963634161381234,-0.0018457045885056367,0.47344618405403627,-0.003213665088420359,-0.27789231282547977
877,0.8676,292.779,902.219,-0.0264231,513.945,-2.09049,-3.613,-0.0598014,0.38798,-0.325897,0.787565,-0.00185146,-0.00322589,0.623947,-0.05804841340563238,1.1980376828758348,-0.0018497471052160153,0.4740003039872598,-0.003220692407310155,-0.27812046280503167
878,0.8686,292.831,902.357,-0.0265949,514.03,-2.09545,-3.62159,-0.0598602,0.388355,-0.326214,0.788327,-0.00185552,-0.00323296,0.624555,-0.05810379853058545,1.1997132258910006,-0.0018537995870162582,0.4745531577548576,-0.0032277396121029867,-0.27834926235167834
879,0.8696,292.884,902.494,-0.0267675,514.115,-2.10042,-3.63021,-0.059919,0.388731,-0.32653,0.789089,-0.00185958,-0.00324004,0.625163,-0.05815918039898904,1.2013900461565141,-0.001857852052363329,0.4751076939884522,-0.0032347967347242657,-0.2785772679579921
880,0.8706,292.936,902.631,-0.0269407,514.2,-2.1054,-3.63884,-0.0599777,0.389106,-0.326846,0.78985,-0.00186366,-0.00324713,0.625771,-0.0582144648324856,1.2030659415789686,-0.0018619244640193378,0.4756609631051738,-0.0032418637749627166,-0.2788052015259169
881,0.8716,292.988,902.768,-0.0271146,514.285,-2.11039,-3.6475,-0.0600364,0.38948,-0.327161,0.790611,-0.00186774,-0.00325424,0.626378,-0.0582697460208812,1.2047431128432358,-0.0018659968590597487,0.4762129635230188,-0.0032489507001172147,-0.2790323421109159
882,0.8726,293.041,902.905,-0.0272892,514.37,-2.1154,-3.65618,-0.060095,0.389855,-0.327477,0.791371,-0.00187183,-0.00326136,0.626985,-0.05832492979686388,1.2064193545001434,-0.0018700792187842374,0.47676664719353967,-0.003256047542323448,-0.27926013189812704
883,0.8736,293.093,903.041,-0.0274646,514.455,-2.12042,-3.66488,-0.0601536,0.390229,-0.327792,0.792131,-0.00187593,-0.0032685,0.627591,-0.05838011033917212,1.208096870584931,-0.0018741715430701245,0.477319061214573,-0.0032631642687372953,-0.27948712920262664
884,0.8746,293.145,903.177,-0.0276406,514.539,-2.12545,-3.6736,-0.0602122,0.390603,-0.328108,0.79289,-0.00188004,-0.00327565,0.628197,-0.058435287647995326,1.2097734522919756,-0.001878273831794841,0.4778716818770896,-0.0032702909116349987,-0.2797147752998209
885,0.8756,293.197,903.313,-0.0278174,514.624,-2.13049,-3.68234,-0.0602707,0.390977,-0.328423,0.793649,-0.00188416,-0.00328281,0.628803,-0.05849036757256443,1.2114513070075819,-0.0018823860848354856,0.4784245092583881,-0.0032774274708030626,-0.27994162941420275
886,0.8766,293.25,903.448,-0.0279949,514.708,-2.13555,-3.69111,-0.0603292,0.391351,-0.328737,0.794408,-0.00188828,-0.00328999,0.629409,-0.05854544427505215,1.213130435698329,-0.0018864983209335717,0.47897754343579546,-0.003284583913182204,-0.2801676922488442
887,0.8776,293.302,903.584,-0.0281731,514.792,-2.14062,-3.6999,-0.0603877,0.391724,-0.329052,0.795166,-0.00189241,-0.00329718,0.630014,-0.05860051775564701,1.2148086245218002,-0.0018906205211831617,0.4795293049566234,-0.0032917502712608293,-0.280394403716855
888,0.8786,293.354,903.719,-0.028352,514.877,-2.1457,-3.7087,-0.0604461,0.392097,-0.329366,0.795923,-0.00189655,-0.00330439,0.630618,-0.058655493880091614,1.2164858694076575,-0.0018947526854605767,0.48008127232288644,-0.0032989365118348823,-0.2806203244026839
889,0.8796,293.406,903.853,-0.0285317,514.961,-2.15079,-3.71754,-0.0605044,0.39247,-0.329681,0.79668,-0.0019007,-0.00331161,0.631223,-0.05871037266506629,1.218164384448586,-0.001898894813642027,0.4806334456113792,-0.0033061326675351,-0.28084689331402013
890,0.8806,293.458,903.988,-0.0287121,515.045,-2.1559,-3.72639,-0.0605627,0.392843,-0.329995,0.797437,-0.00190486,-0.00331885,0.631827,-0.05876524825070106,1.2198441706064576,-0.0019030469056032784,0.48118582489892514,-0.003313348705012542,-0.28107267194042007
891,0.8816,293.51,904.122,-0.0288932,515.129,-2.16102,-3.73526,-0.060621,0.393215,-0.330308,0.798193,-0.00190902,-0.0033261,0.63243,-0.05882012063718245,1.221523007319754,-0.001907198980291791,0.4817369285247066,-0.003320574657040276,-0.281297660981481
892,0.8826,293.562,904.256,-0.0290751,515.213,-2.16615,-3.74416,-0.0606793,0.393588,-0.330622,0.798949,-0.0019132,-0.00333336,0.633034,-0.058874989824696966,1.2232031137134847,-0.0019113709994805772,0.4822897194881519,-0.0033278105234020305,-0.2815232980890531
893,0.8836,293.615,904.39,-0.0292577,515.297,-2.17129,-3.75308,-0.0607375,0.39396,-0.330936,0.799704,-0.00191738,-0.00334064,0.633636,-0.058929761706411954,1.2248822658645118,-0.0019155430012303132,0.4828412338391106,-0.0033350662705304845,-0.2817488643576955
894,0.8846,293.667,904.524,-0.0294411,515.38,-2.17645,-3.76202,-0.0607956,0.394332,-0.331249,0.800459,-0.00192157,-0.00334794,0.634239,-0.058984436298944565,1.2265626862541135,-0.0019197249663438498,0.4833929533915733,-0.0033423418979906527,-0.28197364178364936
895,0.8856,293.719,904.657,-0.0296252,515.464,-2.18162,-3.77099,-0.0608537,0.394703,-0.331562,0.801214,-0.00192577,-0.00335525,0.634841,-0.05903910771497556,1.2282443758401698,-0.001923916894695954,0.48394339427775224,-0.003349627438842706,-0.2821983488652783
896,0.8866,293.771,904.79,-0.0298101,515.548,-2.18681,-3.77998,-0.0609118,0.395075,-0.331875,0.801968,-0.00192997,-0.00336257,0.635443,-0.059093775954689565,1.229925105655067,-0.0019281088054420303,0.48449552391016804,-0.0033569228928684858,-0.28242298562459656
897,0.8876,293.823,904.923,-0.0299957,515.631,-2.192,-3.78899,-0.0609699,0.395446,-0.332188,0.802722,-0.00193419,-0.00336991,0.636044,-0.0591484410182711,1.2316071032181255,-0.00193232065993576,0.48504637392589833,-0.003364238226207128,-0.2826475520836119
898,0.8886,293.875,905.056,-0.0301821,515.715,-2.19721,-3.79802,-0.0610279,0.395817,-0.3325,0.803475,-0.00193841,-0.00337726,0.636646,-0.059203008826210324,1.233288136196335,-0.0019365324966555963,0.48559742834489894,-0.0033715634721358523,-0.28287133113601437
899,0.8896,293.927,905.188,-0.0303693,515.798,-2.20243,-3.80707,-0.0610858,0.396187,-0.332813,0.804228,-0.00194265,-0.00338463,0.637246,-0.0592574793950611,1.234970435469077,-0.0019407642767864663,0.48614720109507337,-0.003378908596646246,-0.28309575728484426
900,0.8906,293.979,905.32,-0.0305572,515.881,-2.20767,-3.81615,-0.0611437,0.396558,-0.333125,0.80498,-0.00194689,-0.00339201,0.637847,-0.05931194681015728,1.236651765337347,-0.001944996038974578,0.48669866399672257,-0.0033862636331606355,-0.2833193965190367
901,0.8916,294.031,905.452,-0.030746,515.964,-2.21292,-3.82525,-0.0612016,0.396928,-0.333437,0.805732,-0.00195114,-0.00339941,0.638447,-0.05936641107168139,1.2383343600411965,-0.0019492377637277958,0.4872488442794769,-0.003393638547522615,-0.2835429659886719
902,0.8926,294.083,905.584,-0.0309355,516.047,-2.21818,-3.83437,-0.0612594,0.397298,-0.333749,0.806483,-0.00195539,-0.00340682,0.639046,-0.0594207781218985,1.2400159805150386,-0.0019534794704536562,0.4877992281666006,-0.0034010233733001716,-0.283766465715513
903,0.8936,294.135,905.715,-0.0311257,516.13,-2.22345,-3.84352,-0.0613172,0.397668,-0.33406,0.807234,-0.00195966,-0.00341425,0.639646,-0.059475142029790984,1.241698864360194,-0.0019577411199976913,0.4883498157334407,-0.0034084280761880192,-0.28398917971085413
904,0.8946,294.187,905.846,-0.0313168,516.213,-2.22874,-3.85269,-0.061375,0.398037,-0.334372,0.807985,-0.00196394,-0.00342169,0.640245,-0.05952950279554037,1.2433830125258094,-0.0019620127317243607,0.48889911815551046,-0.0034158426899006944,-0.2842125402407297
905,0.8956,294.239,905.977,-0.0315087,516.296,-2.23404,-3.86188,-0.0614327,0.398407,-0.334683,0.808735,-0.00196822,-0.00342915,0.640844,-0.05958376637770968,1.2450661808944434,-0.0019662843251686546,0.4894501127569433,-0.003423277179983586,-0.2844351155284637
906,0.8966,294.29,906.108,-0.0317013,516.379,-2.23935,-3.87109,-0.0614904,0.398776,-0.334994,0.809485,-0.00197251,-0.00343662,0.641442,-0.05963802682896069,1.2467506121128635,-0.0019705658806250526,0.4899998212635328,-0.003430721580298113,-0.2846576216060459
907,0.8976,294.342,906.238,-0.0318948,516.462,-2.24468,-3.88033,-0.061548,0.399145,-0.335305,0.810234,-0.00197681,-0.00344411,0.64204,-0.05969219011869753,1.248434058693379,-0.001974857397964991,0.49054973264999013,-0.003438185856239784,-0.2848800584949973
908,0.8986,294.394,906.369,-0.032089,516.544,-2.25002,-3.88959,-0.0616056,0.399513,-0.335616,0.810983,-0.00198112,-0.00345161,0.642637,-0.059746350288718886,1.2501187666477094,-0.0019791588770599056,0.4910983558920905,-0.0034456600418175665,-0.28510242621683235
909,0.8996,294.446,906.499,-0.0322841,516.627,-2.25537,-3.89888,-0.0616632,0.399882,-0.335927,0.811731,-0.00198544,-0.00345913,0.643235,-0.05980050733920417,1.2518024851173655,-0.001983470317780789,0.4916486727126237,-0.0034531541022764234,-0.2853247247930585
910,0.9006,294.498,906.628,-0.0324799,516.709,-2.26074,-3.90819,-0.0617207,0.40025,-0.336237,0.812479,-0.00198977,-0.00346666,0.643831,-0.059854567255794744,1.253487463479578,-0.0019877917199985218,0.4921977004390876,-0.003460658071773537,-0.28554623979177385
911,0.9016,294.55,906.758,-0.0326766,516.792,-2.26612,-3.91752,-0.0617782,0.400618,-0.336547,0.813227,-0.0019941,-0.00347421,0.644428,-0.059908624064029414,1.2551737026770993,-0.001992113103504556,0.4927469302449352,-0.003468181915402546,-0.2857676861314824
912,0.9026,294.602,906.887,-0.0328741,516.874,-2.27152,-3.92687,-0.0618356,0.400986,-0.336857,0.813974,-0.00199845,-0.00348177,0.645024,-0.05996258376035002,1.2568589467933111,-0.0019964544283701535,0.4932963622045454,-0.0034757156674696255,-0.2859890638334649
913,0.9036,294.653,907.016,-0.0330724,516.956,-2.27692,-3.93625,-0.061893,0.401353,-0.337167,0.81472,-0.0020028,-0.00348935,0.64562,-0.0600165403594729,1.258543191712865,-0.0020007957343510796,0.493844502547075,-0.0034832692929165354,-0.286210372918996
914,0.9046,294.705,907.145,-0.0332716,517.038,-2.28234,-3.94566,-0.0619504,0.401721,-0.337477,0.815467,-0.00200716,-0.00349694,0.646216,-0.060070493861575924,1.2602309537777234,-0.0020051470013958683,0.4943943384876204,-0.0034908328261989974,-0.2864316134093433
915,0.9056,294.757,907.273,-0.0334716,517.12,-2.28778,-3.95508,-0.0620077,0.402088,-0.337786,0.816212,-0.00201153,-0.00350455,0.646811,-0.06012435027927665,1.2619154532364245,-0.0020095082293741795,0.49494288186139745,-0.0034984162321063383,-0.28665207197819675
916,0.9066,294.809,907.402,-0.0336724,517.202,-2.29323,-3.96453,-0.0620649,0.402455,-0.338095,0.816958,-0.00201591,-0.00351217,0.647406,-0.06017810962890857,1.2636034717171483,-0.002013879418155229,0.49549162658753865,-0.0035060095452440487,-0.2868724624358763
917,0.9076,294.861,907.53,-0.033874,517.284,-2.29869,-3.97401,-0.0621222,0.402821,-0.338404,0.817703,-0.0020203,-0.00351981,0.648,-0.06023195988040242,1.2652904846378625,-0.002018260567607899,0.49603907670012903,-0.003513622730248689,-0.2870927848034247
918,0.9086,294.912,907.658,-0.0340765,517.366,-2.30416,-3.9835,-0.0621794,0.403188,-0.338713,0.818447,-0.0020247,-0.00352747,0.648594,-0.06028571307494124,1.266976487873865,-0.0020226516776009618,0.4965882238036079,-0.003521255786663957,-0.2873130391018789
919,0.9096,294.964,907.785,-0.0342799,517.448,-2.30965,-3.99303,-0.0622365,0.403554,-0.339022,0.819191,-0.0020291,-0.00353514,0.649188,-0.06033936922882688,1.2686637459630226,-0.0020270427682732572,0.4971360753442362,-0.0035288987493212742,-0.28753322535226866
920,0.9106,295.016,907.913,-0.0344841,517.53,-2.31516,-4.00257,-0.0622936,0.40392,-0.339331,0.819935,-0.00203352,-0.00354282,0.649781,-0.06039302231903365,1.2703522598392931,-0.0020314537989958303,0.49768412743522705,-0.0035365516179918233,-0.2877533435756179
921,0.9116,295.068,908.04,-0.0346891,517.611,-2.32067,-4.01214,-0.0623507,0.404286,-0.339639,0.820678,-0.00203794,-0.00355053,0.650374,-0.06044667234573631,1.2720397583964358,-0.002035864810221666,0.4982323801499948,-0.0035442343215620342,-0.28797268176598145
922,0.9126,295.119,908.167,-0.034895,517.693,-2.32621,-4.02174,-0.0624077,0.404652,-0.339947,0.821421,-0.00204238,-0.00355824,0.650967,-0.06050022535913724,1.273728511230913,-0.002040295761145172,0.4987808335619819,-0.003551916965898738,-0.2881919524105848
923,0.9136,295.171,908.293,-0.0351018,517.774,-2.33175,-4.03135,-0.0624647,0.405017,-0.340255,0.822164,-0.00204682,-0.00356598,0.65156,-0.06055377532010342,1.2754185192749987,-0.0020447266923953045,0.4993279884159183,-0.003559629444214063,-0.288411155530229
924,0.9146,295.223,908.42,-0.0353094,517.856,-2.33731,-4.041,-0.0625217,0.405382,-0.340563,0.822906,-0.00205127,-0.00357372,0.652152,-0.06060732222880871,1.2771075063530155,-0.0020491675834805045,0.4998753430178282,-0.0035673418628351383,-0.2886302911457086
925,0.9156,295.275,908.546,-0.0355179,517.937,-2.34288,-4.05066,-0.0625786,0.405747,-0.340871,0.823647,-0.00205573,-0.00358149,0.652743,-0.060660772151509224,1.2787954683278988,-0.0020536184342677677,0.5004228974406328,-0.0035750841145101298,-0.2888493592778115
926,0.9166,295.326,908.672,-0.0357273,518.018,-2.34847,-4.06036,-0.0626355,0.406112,-0.341178,0.824388,-0.0020602,-0.00358927,0.653335,-0.060714219032995564,1.2804846815461346,-0.002058079244623423,0.5009706517572803,-0.0035828362701998406,-0.2890676490153241
927,0.9176,295.378,908.797,-0.0359376,518.1,-2.35407,-4.07007,-0.0626923,0.406476,-0.341486,0.825129,-0.00206468,-0.00359706,0.653926,-0.06076756895020252,1.2821751469352365,-0.002062550014413911,0.5015171045228897,-0.0035905983296720123,-0.28928658246194583
928,0.9186,295.43,908.923,-0.0361487,518.181,-2.35968,-4.07981,-0.0627491,0.40684,-0.341793,0.825869,-0.00206916,-0.00360488,0.654516,-0.06082091583722027,1.2838645815576841,-0.002067020764175309,0.5020637562335115,-0.0035983902207267215,-0.2895047379925427
929,0.9196,295.481,909.048,-0.0363608,518.262,-2.36531,-4.08958,-0.0628058,0.407204,-0.3421,0.826609,-0.00207366,-0.0036127,0.655107,-0.060874165781642064,1.285555266824434,-0.002071511452477859,0.5026106069615752,-0.0036061820508490605,-0.2897228265596711
930,0.9206,295.533,909.173,-0.0365737,518.343,-2.37096,-4.09937,-0.0628626,0.407568,-0.342407,0.827349,-0.00207817,-0.00362055,0.655697,-0.06092750661413171,1.287247203661305,-0.00207601209981223,0.5031576567795357,-0.0036140037116199064,-0.28994084818388555
931,0.9216,295.585,909.298,-0.0367875,518.424,-2.37661,-4.10919,-0.0629192,0.407932,-0.342713,0.828088,-0.00208268,-0.00362841,0.656286,-0.06098065661309815,1.2889381040555534,-0.0020805127268487267,0.5037049057598757,-0.0036218352747726668,-0.2901580930441825
932,0.9226,295.637,909.422,-0.0370022,518.504,-2.38229,-4.11903,-0.0629759,0.408295,-0.34302,0.828826,-0.0020872,-0.00363628,0.656876,-0.06103389750047483,1.290627963857916,-0.0020850233127372997,0.504250849723501,-0.0036296767400728625,-0.29037598106209583
933,0.9236,295.688,909.547,-0.0372179,518.585,-2.38797,-4.12889,-0.0630324,0.408658,-0.343326,0.829565,-0.00209174,-0.00364418,0.657465,-0.06108694758658695,1.292321363557329,-0.0020895538364471555,0.5047969919007589,-0.0036375480345349764,-0.2905930927921021
934,0.9246,295.74,909.671,-0.0374344,518.666,-2.39367,-4.13878,-0.063089,0.409021,-0.343632,0.830302,-0.00209628,-0.00365208,0.658053,-0.06114008856144981,1.2940114271141923,-0.0020940843395884645,0.5053433323636136,-0.003645419266814054,-0.2908101380960826
935,0.9256,295.792,909.795,-0.0376519,518.746,-2.39939,-4.1487,-0.0631455,0.409384,-0.343938,0.83104,-0.00210083,-0.00366001,0.658642,-0.061193132647936466,1.2957050324108894,-0.002098624801175175,0.505889871184056,-0.003653320327311582,-0.2910271169943607
936,0.9266,295.843,909.918,-0.0378703,518.827,-2.40512,-4.15864,-0.063202,0.409747,-0.344244,0.831777,-0.00210539,-0.00366795,0.659229,-0.06124617373751695,1.2973975906508755,-0.002103175221071063,0.506436608434103,-0.0036612312885415665,-0.29124402950725325
937,0.9276,295.895,910.042,-0.0380896,518.908,-2.41086,-4.16861,-0.0632584,0.410109,-0.344549,0.832513,-0.00210996,-0.00367591,0.659817,-0.061299117960277094,1.299089097675823,-0.002107735599139904,0.5069820372030072,-0.003669162113575819,-0.29146016711559275
938,0.9286,295.947,910.165,-0.0383098,518.988,-2.41662,-4.1786,-0.0633148,0.410471,-0.344854,0.833249,-0.00211454,-0.00368388,0.660404,-0.06135205919706721,1.3007818501081942,-0.002112305935244696,0.5075276634528674,-0.0036771028387099225,-0.2916762388120139
939,0.9296,295.998,910.288,-0.038531,519.068,-2.42239,-4.18862,-0.0633711,0.410833,-0.34516,0.833985,-0.00211913,-0.00369187,0.660991,-0.061404903588550885,1.302475848864947,-0.00211688622924866,0.5080734872551851,-0.003685063426855706,-0.29189295272401783
940,0.9306,296.05,910.41,-0.0387531,519.149,-2.42818,-4.19866,-0.0634274,0.411195,-0.345465,0.83472,-0.00212373,-0.00369987,0.661578,-0.061457745004979025,1.3041687906937707,-0.0021214764810144615,0.5086195086814869,-0.0036930339144662927,-0.29210889244095617
941,0.9316,296.102,910.533,-0.0389762,519.229,-2.43398,-4.20873,-0.0634837,0.411556,-0.345769,0.835455,-0.00212834,-0.00370789,0.662164,-0.06151058344651916,1.3058629772922354,-0.0021260766904044326,0.5091642186383525,-0.0037010242642929736,-0.2923240586307362
942,0.9326,296.153,910.655,-0.0392002,519.309,-2.4398,-4.21882,-0.0635399,0.411917,-0.346074,0.83619,-0.00213296,-0.00371593,0.66275,-0.06156332506967588,1.307558409575583,-0.0021306868572805726,0.5097091252710104,-0.0037090344758567984,-0.29253986688042277
943,0.9336,296.205,910.777,-0.0394251,519.389,-2.44563,-4.22894,-0.0635961,0.412278,-0.346379,0.836924,-0.00213758,-0.00372399,0.663336,-0.06161606372883677,1.3092527792057949,-0.002135297002857861,0.5102542286504732,-0.0037170645486775955,-0.29275560931863
944,0.9346,296.257,910.899,-0.039651,519.469,-2.45148,-4.23909,-0.0636523,0.412639,-0.346683,0.837657,-0.00214222,-0.00373206,0.663921,-0.06166879942416836,1.3109460820126153,-0.002139927084337967,0.5107995288477798,-0.0037251045195253463,-0.2929705789363597
945,0.9356,296.308,911.02,-0.0398779,519.549,-2.45734,-4.24926,-0.0637084,0.413,-0.346987,0.83839,-0.00214686,-0.00374015,0.664506,-0.0617214383279856,1.312640626465401,-0.002144557144334591,0.5113450259339938,-0.0037331643508278223,-0.2931854832132579
946,0.9366,296.36,911.142,-0.0401058,519.629,-2.46322,-4.25946,-0.0637644,0.41336,-0.347291,0.839123,-0.00215152,-0.00374825,0.66509,-0.061773980456245936,1.3143364134746114,-0.0021492071398637735,0.5118892080902409,-0.0037412340795140997,-0.2934003221691852
947,0.9376,296.411,911.263,-0.0403346,519.709,-2.46911,-4.26969,-0.0638205,0.41372,-0.347595,0.839856,-0.00215618,-0.00375637,0.665675,-0.06182661345957274,1.3160334439513752,-0.002153857113724067,0.5124335861873315,-0.0037493236678496356,-0.29361509582399614
948,0.9386,296.463,911.384,-0.0405644,519.788,-2.47501,-4.27994,-0.0638765,0.41408,-0.347899,0.840587,-0.00216086,-0.00376451,0.666259,-0.06187914969819064,1.3177270833486854,-0.002158527022745216,0.5129781602958172,-0.0037574331153494844,-0.29382980419753935
949,0.9396,296.515,911.504,-0.0407951,519.868,-2.48093,-4.29021,-0.0639324,0.41444,-0.348202,0.841319,-0.00216554,-0.00377267,0.666842,-0.061931589188025105,1.3194242806721341,-0.0021631969099111803,0.5135229304862745,-0.0037655624215275907,-0.29404374135375155
950,0.9406,296.566,911.625,-0.0410269,519.948,-2.48687,-4.30052,-0.0639883,0.414799,-0.348505,0.84205,-0.00217024,-0.00378084,0.667425,-0.06198402574657402,1.3211203996772731,-0.002167886731864632,0.5140663827621659,-0.003773701623633885,-0.2942576136968251
951,0.9416,296.618,911.745,-0.0412596,520.027,-2.49282,-4.31085,-0.0640442,0.415159,-0.348808,0.842781,-0.00217494,-0.00378903,0.668008,-0.06203645937400126,1.3228177589986858,-0.0021725765317759382,0.5146115447832362,-0.0037818606836061974,-0.29447142124639547
952,0.9426,296.67,911.865,-0.0414934,520.107,-2.49879,-4.3212,-0.0641,0.415518,-0.349111,0.843511,-0.00217965,-0.00379723,0.668591,-0.06208879627935493,1.324514035028177,-0.002177276287872454,0.5151553879418194,-0.003790029638855885,-0.294685164022092
953,0.9436,296.721,911.984,-0.0417281,520.186,-2.50477,-4.33159,-0.0641558,0.415877,-0.349414,0.844241,-0.00218438,-0.00380545,0.669173,-0.06214113026439072,1.3262115497912523,-0.002181995978193574,0.5156994263751464,-0.0037982184511561323,-0.2948988420435382
954,0.9446,296.773,912.104,-0.0419638,520.266,-2.51077,-4.342,-0.0642115,0.416235,-0.349717,0.844971,-0.00218911,-0.00381369,0.669755,-0.062193367548613154,1.3279103041925175,-0.0021867156461905513,0.516242143910431,-0.0038064271200163313,-0.2951124553303518
955,0.9456,296.825,912.223,-0.0422006,520.345,-2.51678,-4.35244,-0.0642672,0.416594,-0.350019,0.8457,-0.00219385,-0.00382195,0.670337,-0.062245601923299865,1.3296079695281047,-0.002191445269949188,0.5167865725591902,-0.0038146556449445423,-0.2953252992277958
956,0.9466,296.876,912.342,-0.0424384,520.424,-2.52281,-4.3629,-0.0643229,0.416952,-0.350321,0.846429,-0.0021986,-0.00383022,0.670918,-0.062297833388612944,1.3313068729129354,-0.002196184849327709,0.5173296793624835,-0.0038228940636764186,-0.29553807885608796
957,0.9476,296.928,912.461,-0.0426772,520.503,-2.52885,-4.37339,-0.0643785,0.41731,-0.350623,0.847157,-0.00220336,-0.00383851,0.671499,-0.06234996817971594,1.3330046822440282,-0.0022009343841838946,0.5178729806328202,-0.0038311523376540757,-0.2957507942346346
958,0.9486,296.98,912.579,-0.042917,520.582,-2.53491,-4.38391,-0.0644341,0.417668,-0.350925,0.847885,-0.00220814,-0.00384682,0.672079,-0.062402100072205036,1.334703728030329,-0.0022057038523184413,0.5184164764398314,-0.003839430466382465,-0.29596344538283614
959,0.9496,297.031,912.698,-0.0431578,520.661,-2.54099,-4.39445,-0.0644896,0.418025,-0.351227,0.848612,-0.00221292,-0.00385514,0.67266,-0.062454135311659775,1.3364016747694625,-0.0022104732976551134,0.5189586478937667,-0.0038477184878427106,-0.29617603232008727
960,0.9506,297.083,912.816,-0.0433997,520.741,-2.54708,-4.40503,-0.0645451,0.418383,-0.351528,0.849339,-0.00221771,-0.00386349,0.67324,-0.06250616766323891,1.3381008563646906,-0.002215252698041348,0.5195025324392375,-0.0038560363246663565,-0.29638785145397994
961,0.9516,297.135,912.934,-0.0436426,520.819,-2.55318,-4.41563,-0.0646006,0.41874,-0.35183,0.850066,-0.00222251,-0.00387185,0.673819,-0.06255819712710264,1.3398012737140808,-0.002220042053333926,0.5200450916843811,-0.0038643640533927437,-0.29660031023994937
962,0.9526,297.186,913.051,-0.0438866,520.898,-2.55931,-4.42625,-0.064656,0.419097,-0.352131,0.850792,-0.00222732,-0.00388022,0.674398,-0.06261012996442894,1.3415005862145963,-0.002224841363389296,0.5205878446577537,-0.003872701673772627,-0.29681200168540645
963,0.9536,297.238,913.169,-0.0441316,520.977,-2.56544,-4.43691,-0.0647114,0.419453,-0.352432,0.851518,-0.00223214,-0.00388862,0.674977,-0.06266205992475571,1.3432011328639284,-0.002229650628063573,0.5211292702984978,-0.0038810691079352866,-0.297023629421327
964,0.9546,297.29,913.286,-0.0443777,521.056,-2.5716,-4.44759,-0.0647667,0.41981,-0.352733,0.852244,-0.00223697,-0.00389703,0.675556,-0.06271389327963639,1.3449029145583955,-0.00223446984721265,0.5216724103927326,-0.0038894464329173317,-0.297235193466885
965,0.9556,297.341,913.403,-0.0446248,521.135,-2.57777,-4.4583,-0.064822,0.420166,-0.353034,0.852969,-0.00224182,-0.00390546,0.676134,-0.06276572376821177,1.3466035855902065,-0.002239308998298939,0.5222142222076132,-0.0038978436094897484,-0.29744669384124833
966,0.9566,297.393,913.52,-0.044873,521.213,-2.58395,-4.46904,-0.0648773,0.420522,-0.353334,0.853693,-0.00224667,-0.0039139,0.676712,-0.06281755139064038,1.3483031417512654,-0.002244148125915335,0.5227562269418375,-0.003906250676211864,-0.29765742822135843
967,0.9576,297.445,913.636,-0.0451223,521.292,-2.59015,-4.4798,-0.0649325,0.420878,-0.353635,0.854418,-0.00225153,-0.00392237,0.67729,-0.0628692824340138,1.3500062788416294,-0.002248997207572212,0.523298424664097,-0.0039146875545383875,-0.2978688015221861
968,0.9586,297.497,913.753,-0.0453726,521.37,-2.59637,-4.4906,-0.0649877,0.421234,-0.353935,0.855142,-0.0022564,-0.00393085,0.677867,-0.06292101062191224,1.3517082994446223,-0.0022538562431240194,0.5238408154431078,-0.003923134322173616,-0.2980794092889849
969,0.9596,297.548,913.869,-0.0456241,521.449,-2.6026,-4.50142,-0.0650428,0.421589,-0.354235,0.855865,-0.00226128,-0.00393935,0.678444,-0.06297264225176258,1.3534091993463426,-0.002258725232425207,0.5243818749649729,-0.003931600939548696,-0.29828995388293
970,0.9606,297.6,913.984,-0.0458766,521.527,-2.60885,-4.51227,-0.0650979,0.421945,-0.354535,0.856588,-0.00226617,-0.00394786,0.679021,-0.06302427103678843,1.3551113294433543,-0.002263604175329781,0.5249246515209549,-0.003940077445557133,-0.29850043532297055
971,0.9616,297.652,914.1,-0.0461302,521.606,-2.61512,-4.52315,-0.065153,0.4223,-0.354834,0.857311,-0.00227107,-0.0039564,0.679597,-0.06307589697714655,1.3568146906254093,-0.002268493071691524,0.5254660958729311,-0.003948583760973734,-0.2987101523385527
972,0.9626,297.704,914.215,-0.0463849,521.684,-2.6214,-4.53405,-0.065208,0.422654,-0.355134,0.858033,-0.00227599,-0.00396495,0.680173,-0.06312742638574109,1.3585169252648002,-0.002273401898629901,0.5260062064648043,-0.003957099964175703,-0.2989205077379635
973,0.9636,297.755,914.331,-0.0466407,521.762,-2.62769,-4.54499,-0.065263,0.423009,-0.355433,0.858755,-0.00228091,-0.00397352,0.680749,-0.06317895296029608,1.3602203893613813,-0.00227831070141693,0.5265480348369453,-0.0039656360152520165,-0.29913009917066924
974,0.9646,297.807,914.445,-0.0468976,521.84,-2.63401,-4.55595,-0.0653179,0.423364,-0.355732,0.859476,-0.00228584,-0.00398211,0.681324,-0.0632303830240104,1.361922721879238,-0.0022832294572203704,0.5270900555923042,-0.003974191913690972,-0.29933962794490443
975,0.9656,297.859,914.56,-0.0471557,521.918,-2.64034,-4.56694,-0.0653728,0.423718,-0.356031,0.860197,-0.00229078,-0.00399071,0.681899,-0.0632818102642917,1.3636262822214178,-0.002288158165893006,0.5276307411676842,-0.003982757698807626,-0.2995490940794012
976,0.9666,297.911,914.675,-0.0474148,521.997,-2.64668,-4.57797,-0.0654276,0.424072,-0.35633,0.860918,-0.00229574,-0.00399934,0.682474,-0.06333314101461385,1.3653310712735012,-0.0022931068043557934,0.5281716181796403,-0.0039913532905185845,-0.2997584975928862
977,0.9676,297.962,914.789,-0.0476751,522.075,-2.65305,-4.58902,-0.0654824,0.424426,-0.356629,0.861638,-0.0023007,-0.00400798,0.683048,-0.06338446895208782,1.3670347228858009,-0.002298055418273548,0.5287126866959528,-0.003999958768050482,-0.29996783850408004
978,0.9686,298.014,914.903,-0.0479365,522.152,-2.65943,-4.60009,-0.0655372,0.424779,-0.356927,0.862358,-0.00230568,-0.00401664,0.683622,-0.06343579407686806,1.368739601568954,-0.0023030239615858816,0.5292524175312443,-0.004008584091059864,-0.3001764170084652
979,0.9696,298.066,915.017,-0.0481991,522.23,-2.66582,-4.6112,-0.0655919,0.425132,-0.357226,0.863078,-0.00231066,-0.00402532,0.684196,-0.06348702273781537,1.3704457082067694,-0.0023079924801548968,0.5297923389251524,-0.004017229259029809,-0.3003856329804332
980,0.9706,298.118,915.13,-0.0484628,522.308,-2.67224,-4.62234,-0.0656466,0.425486,-0.357524,0.863797,-0.00231565,-0.00403401,0.684769,-0.0635382485966316,1.3721506715318355,-0.0023129709508511453,0.530333981278172,-0.0040258843117013665,-0.3005940870006134
981,0.9716,298.17,915.244,-0.0487276,522.386,-2.67867,-4.6335,-0.0657013,0.425839,-0.357822,0.864516,-0.00232066,-0.00404273,0.685342,-0.06358947165346995,1.3738568611663373,-0.002317969350345672,0.5308742845314769,-0.004034569168124058,-0.3008024789107504
982,0.9726,298.221,915.357,-0.0489936,522.464,-2.68511,-4.6447,-0.0657559,0.426191,-0.35812,0.865234,-0.00232567,-0.00405146,0.685915,-0.06364059827254831,1.3755619024292192,-0.0023229677247982305,0.5314132471314845,-0.0040432639083827215,-0.30101080872935027
983,0.9736,298.273,915.47,-0.0492608,522.541,-2.69157,-4.65592,-0.0658105,0.426544,-0.358417,0.865952,-0.0023307,-0.00406021,0.686488,-0.06369172210018947,1.377268168351328,-0.002327986027649609,0.5319539314328865,-0.004051978491697139,-0.3012183776936407
984,0.9746,298.325,915.583,-0.0495291,522.619,-2.69805,-4.66718,-0.065865,0.426896,-0.358715,0.866669,-0.00233574,-0.00406898,0.68706,-0.06374274951082537,1.3789732808378137,-0.0023330142819287802,0.5324932741354977,-0.004060712917545284,-0.3014265835928682
985,0.9756,298.377,915.695,-0.0497986,522.697,-2.70455,-4.67846,-0.0659195,0.427248,-0.359012,0.867386,-0.00234078,-0.00407777,0.687631,-0.06379377414054332,1.3806796163283472,-0.0023380425108656677,0.5330328067201575,-0.004069467185403575,-0.30163402909035986
986,0.9766,298.429,915.807,-0.0500693,522.774,-2.71106,-4.68978,-0.0659739,0.4276,-0.359309,0.868103,-0.00234584,-0.00408657,0.688203,-0.06384470237396955,1.3823871757001363,-0.002343090667598746,0.5335725292537161,-0.004078231335530091,-0.3018414129856871
987,0.9776,298.481,915.919,-0.0503411,522.852,-2.7176,-4.70112,-0.0660283,0.427952,-0.359606,0.86882,-0.00235091,-0.0040954,0.688774,-0.06389562783697522,1.3840959598310185,-0.0023481487753067576,0.5341124418030474,-0.004087025285922086,-0.30204873529714316
988,0.9786,298.533,916.031,-0.0506142,522.929,-2.72414,-4.71249,-0.0660827,0.428303,-0.359903,0.869536,-0.00235599,-0.00410424,0.689345,-0.0639465505297111,1.3858035837946847,-0.0023532168338380455,0.5346510097832713,-0.004095829117705563,-0.3022559960430157
989,0.9796,298.585,916.143,-0.0508884,523.006,-2.73071,-4.7239,-0.066137,0.428655,-0.3602,0.870251,-0.00236108,-0.0041131,0.689915,-0.06399737685207019,1.387510043343688,-0.0023582948430408424,0.5351913020245709,-0.0041046527895706175,-0.3024631952415868
990,0.9806,298.637,916.254,-0.0511638,523.084,-2.73729,-4.73533,-0.0661913,0.429006,-0.360496,0.870966,-0.00236618,-0.00412198,0.690486,-0.06404820041463488,1.389217723447565,-0.0023633828027628256,0.5357302487511988,-0.004113496300988562,-0.3026696355811177
991,0.9816,298.689,916.365,-0.0514405,523.161,-2.74389,-4.74679,-0.0662456,0.429357,-0.360792,0.871681,-0.00237129,-0.00413088,0.691056,-0.06409902121755506,1.390926624979325,-0.0023684807128515617,0.5362693846813309,-0.004122359651429486,-0.302876014823351
992,0.9826,298.741,916.476,-0.0517183,523.238,-2.75051,-4.75829,-0.0662998,0.429707,-0.361089,0.872395,-0.00237641,-0.0041398,0.691625,-0.06414974567595988,1.392634356177048,-0.002373588573154173,0.5368071730734483,-0.00413124284036237,-0.3030830299036874
993,0.9836,298.792,916.587,-0.0519974,523.315,-2.75714,-4.76981,-0.0663539,0.430058,-0.361385,0.873109,-0.00238155,-0.00414873,0.692194,-0.0642003738052156,1.3943433071302476,-0.002378716359730415,0.5373466870703643,-0.0041401359086561396,-0.30328928679930944
994,0.9846,298.844,916.697,-0.0522777,523.393,-2.76379,-4.78136,-0.066408,0.430408,-0.36168,0.873823,-0.00238669,-0.00415769,0.692763,-0.06425099919556354,1.3960534787101393,-0.0023838441199499627,0.5378848525843101,-0.0041490587730639295,-0.3034947861470595
995,0.9856,298.896,916.807,-0.0525592,523.47,-2.77046,-4.79295,-0.0664621,0.430758,-0.361976,0.874536,-0.00239184,-0.00416666,0.693332,-0.06430162184715194,1.3977624740248893,-0.002388981829923198,0.5384232064891523,-0.004157991515943316,-0.3037009211808699
996,0.9866,298.948,916.917,-0.052842,523.547,-2.77715,-4.80457,-0.0665162,0.431108,-0.362272,0.875249,-0.00239701,-0.00417566,0.6939,-0.0643522417601291,1.3994726882878021,-0.0023941394655545567,0.5389617488508391,-0.0041669540536882765,-0.3039069952077398
997,0.9876,299.001,917.027,-0.053126,523.624,-2.78385,-4.81621,-0.0665702,0.431458,-0.362567,0.875962,-0.00240218,-0.00418467,0.694468,-0.06440276537492418,1.4011841223682975,-0.002399297074521134,0.5395004797353422,-0.004175926469011437,-0.30411231235838476
998,0.9886,299.053,917.137,-0.0534113,523.701,-2.79057,-4.82789,-0.0666241,0.431807,-0.362862,0.876674,-0.00240737,-0.0041937,0.695036,-0.06445319270684169,1.4028943742408404,-0.002404474608733609,0.5400378591700268,-0.004184918719795316,-0.3043175689494033
999,0.9896,299.105,917.246,-0.0536978,523.777,-2.79731,-4.8396,-0.066678,0.432156,-0.363157,0.877385,-0.00241257,-0.00420275,0.695603,-0.06450361732079912,1.404603439641678,-0.0024096620919781264,0.5405754261828644,-0.004193930805501123,-0.30452276499865794
