,Time,S11,S22,S33,S12,S13,S23,LE11,LE22,LE33,LE12,LE13,LE23,SDV_EPBAR,E11,E12,E13,E22,E23,E33
0,0.0001,5.19339,15.5802,-2.45848e-12,8.99522,-3.38355e-17,-5.86049e-17,2.49988e-06,6.74966e-05,-2.99985e-05,0.000112578,-4.23474e-22,-7.33479e-22,0.0,2.499883124729152e-06,0.00011258433714078642,0.0,6.749887794677001e-05,0.0,-2.999805004955114e-05
1,0.0002,10.3863,31.1588,-3.39284e-12,17.9895,5.86169e-17,-3.38323e-17,4.99954e-06,0.000134987,-5.99941e-05,0.000225144,-8.9533e-37,4.80326e-37,0.0,4.999552497775284e-06,0.00022516934681249268,0.0,0.00013499611115497245,0.0,-5.9992300389999365e-05
2,0.0003,15.5786,46.7358,-3.38396e-12,26.983,-5.86081e-17,3.38476e-17,7.49894e-06,0.00020247,-8.99866e-05,0.000337699,1.17379e-20,-6.77688e-21,0.0,7.498968117136684e-06,0.00033775602672636573,0.0,0.00020249049843390488,0.0,-8.99825513273056e-05
3,0.0004,20.7704,62.3113,-3.38574e-12,35.9755,-1.81128e-17,-3.02092e-16,9.99804e-06,0.000269946,-0.000119976,0.000450243,8.35062e-21,-1.26447e-20,0.0,9.998089980589597e-06,0.00045034437459334775,0.0,0.00026998243870024474,0.0,-0.00011996880316755831
4,0.0005,25.9618,77.8853,-3.37863e-12,44.9671,-2.02991e-16,-3.51591e-16,1.24969e-05,0.000337416,-0.000149963,0.000562776,-3.38699e-21,-5.86644e-21,0.0,1.2496978086584676e-05,0.0005629343881239368,0.0,0.0003374729311815816,0.0,-0.00014995175611143274
5,0.0006,31.1526,93.4577,-3.38396e-12,53.9578,9.24964e-17,2.48487e-17,1.49956e-05,0.000404879,-0.000179946,0.000675297,-3.30244e-25,-5.71999e-25,0.0,1.4995712434462405e-05,0.0006755250643533106,0.0,0.00040496097456510505,0.0,-0.00017992981068959413
6,0.0007,36.3428,109.029,-3.37685e-12,62.9476,-2.43465e-16,-1.56138e-17,1.74939e-05,0.000472335,-0.000209927,0.000787807,7.7053e-25,1.3346e-24,0.0,1.74940530190959e-05,0.0007881174014414682,0.0,0.00047244656774125815,0.0,-0.0002099049668691233
7,0.0008,41.5326,124.598,-3.3733e-12,71.9366,2.70737e-16,4.68931e-16,1.99922e-05,0.000539784,-0.000239904,0.000900306,6.77437e-21,1.17335e-20,0.0,1.999239984540324e-05,0.0009007113970982417,0.0,0.0005399297095993738,0.0,-0.00023987522533652772
8,0.0009,46.7218,140.165,-3.3662e-12,80.9246,3.94587e-16,6.64543e-18,2.24899e-05,0.000607227,-0.000269879,0.00101279,6.77661e-21,1.17374e-20,0.0,2.249015289979006e-05,0.0010133030449797076,0.0,0.0006074113996370478,0.0,-0.00026984258593854005
9,0.001,51.9106,155.732,-3.36797e-12,89.9117,-2.09669e-16,4.29226e-17,2.49877e-05,0.000674663,-0.00029985,0.00112527,-1.67019e-20,2.52979e-20,0.0,2.4988012195192866e-05,0.0011259033538288943,0.0,0.0006748906362714635,0.0,-0.00029980504948168285
10,0.0011,57.0988,171.296,-3.3733e-12,98.8979,1.26292e-16,8.33851e-17,2.7485e-05,0.000742092,-0.000329819,0.00123774,-4.01855e-20,3.88526e-20,0.0,2.748537771601889e-05,0.0012385063162878573,0.0,0.0007423674183926199,0.0,-0.0003297646156927847
11,0.0012,62.2864,186.859,-3.35376e-12,107.883,-3.22637e-16,-8.29543e-16,2.9982e-05,0.000809514,-0.000359784,0.00135019,6.78728e-21,1.17559e-20,0.0,2.9982449464727168e-05,0.001351101916892139,0.0,0.0008098417448900719,0.0,-0.0003597192854979392
12,0.0013,67.4736,202.421,-3.37153e-12,116.868,2.61683e-16,3.17888e-16,3.2479e-05,0.00087693,-0.000389747,0.00146263,8.08559e-20,3.1584e-20,0.0,3.2479527448447953e-05,0.0014637001649466796,0.0,0.0008773146155311995,0.0,-0.00038967105850429284
13,0.0014,72.6603,217.981,-3.36975e-12,125.851,-4.4889e-16,-9.1286e-16,3.49755e-05,0.000944339,-0.000419706,0.00157506,6.79066e-21,1.17618e-20,0.0,3.4976111649820396e-05,0.0015763010584968207,0.0,0.0009447850284631798,0.0,-0.0004196179357576213
14,0.0015,77.8464,233.539,-3.3733e-12,134.834,4.82853e-16,9.71686e-16,3.7472e-05,0.00101174,-0.000449663,0.00168748,2.7104e-20,4.69455e-20,0.0,3.7472702084206944e-05,0.0016889045955881254,0.0,0.0010122519815634057,0.0,-0.00044956191674494494
15,0.0016,83.032,249.096,-3.36797e-12,143.816,-3.38329e-16,-5.86003e-16,3.99683e-05,0.00107914,-0.000479617,0.00179989,5.37582e-20,-1.53603e-20,0.0,3.996909874315335e-05,0.0018015107742652692,0.0,0.0010797224810772388,0.0,-0.0004795020021524099
16,0.0017,88.2171,264.651,-3.36442e-12,152.796,-8.11983e-16,-1.4064e-15,4.24639e-05,0.00114653,-0.000509567,0.00191229,2.24442e-23,3.88746e-23,0.0,4.246480160419175e-05,0.0019141195925733712,0.0,0.0011471875167841095,0.0,-0.0005094371927857333
17,0.0018,93.4017,280.205,-3.38929e-12,161.776,-7.35148e-16,-1.13795e-15,4.49597e-05,0.00121391,-0.000539515,0.00202468,1.35796e-20,2.35206e-20,0.0,4.4960710702479645e-05,0.0020267310485566625,0.0,0.0012146470869662807,0.0,-0.0005393694879521904
18,0.0019,98.5857,295.757,-3.3662e-12,170.755,-1.02386e-15,-1.90874e-15,4.74551e-05,0.00128128,-0.000569459,0.00213705,4.70075e-20,-2.70626e-20,0.0,4.74562260111e-05,0.0021393351188656595,0.0,0.0012821011899064594,0.0,-0.000569296888996984
19,0.002,103.769,311.308,-3.38929e-12,179.734,-8.65453e-18,-1.5035e-16,4.99502e-05,0.00134865,-0.000599401,0.00224942,1.07514e-19,-3.07511e-20,0.0,4.995144753205949e-05,0.0022519518432051466,0.0,0.001349559837382719,0.0,-0.0005992213951074854
20,0.0021,108.952,326.857,-3.33422e-12,188.711,-3.47001e-16,-7.36384e-16,5.2445e-05,0.00141601,-0.000629339,0.00236177,1.35749e-20,2.35124e-20,0.0,5.244637526313767e-05,0.002364561175705493,0.0,0.0014170130155308769,0.0,-0.0006291410077484683
21,0.0022,114.135,342.404,-3.37153e-12,197.687,-1.32152e-15,-2.83038e-15,5.49397e-05,0.00148337,-0.000659275,0.00247411,-8.03396e-20,7.78314e-20,0.0,5.494120921301082e-05,0.0024771731358035343,0.0,0.0014844707374781496,0.0,-0.0006590577259876218
22,0.0023,118.5,355.564,-0.00877822,205.277,-0.00261719,-0.00401258,5.55595e-05,0.00154995,-0.000692755,0.00258885,-3.30446e-08,-5.06117e-08,1.55884e-05,5.556104345760815e-05,0.0025922039658414775,-3.3044599501153016e-08,0.0015511517933275432,-5.061169872089266e-08,-0.0006925151006553776
23,0.0024,119.245,357.872,0.0143609,206.558,0.00018968,-0.00692884,4.79996e-05,0.0016129,-0.000742222,0.00271458,1.85806e-09,-9.12131e-08,0.000102179,4.800075199917764e-05,0.00271826780848361,1.8580599281392551e-09,0.0016142014227993329,-9.121309585413684e-08,-0.0007419466213862691
24,0.0025,119.942,360.056,-0.00387186,207.818,-0.0120131,-0.0192917,4.03983e-05,0.00167567,-0.000791885,0.00284062,-1.58217e-07,-2.57428e-07,0.000189237,4.039911602227164e-05,0.002844658383925003,-1.582169875113948e-07,0.0016770747194803093,-2.5742796683214664e-07,-0.0007915715418197466
25,0.0026,120.636,362.216,0.000303513,209.036,-0.0149186,-0.0268499,3.27489e-05,0.0017385,-0.000841573,0.00296656,-2.03582e-07,-3.67986e-07,0.000276621,3.274943625108939e-05,0.002970964593536962,-2.0358197927450306e-07,0.001740012067241059,-3.679859322813783e-07,-0.000841218976761926
26,0.0027,121.307,364.31,-0.0014844,210.225,-0.0204621,-0.035261,2.50589e-05,0.00180129,-0.000891354,0.00309259,-2.85159e-07,-4.94198e-07,0.000364365,2.5059213976774686e-05,0.003097376989914302,-2.851589593344528e-07,0.001802913297362263,-4.941978778427725e-07,-0.000890956862028891
27,0.0028,121.964,366.356,-0.000856607,211.383,-0.0247564,-0.0430867,1.73284e-05,0.00186406,-0.000941202,0.00321864,-3.53555e-07,-6.17693e-07,0.000452434,1.7328550137696297e-05,0.003223825383526613,-3.5355493754885003e-07,0.0018657984398593452,-6.176928092349598e-07,-0.0009407592083272576
28,0.0029,122.603,368.351,-0.00101391,212.512,-0.0293316,-0.050863,9.56014e-06,0.0019268,-0.000991121,0.00334474,-4.28077e-07,-7.45132e-07,0.000540817,9.560185698198609e-06,0.00335033988447897,-4.2807690836532686e-07,0.001928657471920614,-7.451317224349552e-07,-0.0009906300018079905
29,0.003,123.228,370.299,-0.000886164,213.615,-0.0336679,-0.0584267,1.75574e-06,0.00198952,-0.00104111,0.00347087,-5.02074e-07,-8.74328e-07,0.000629496,1.7557415412650101e-06,0.0034769004442225526,-5.020738739203168e-07,0.0019915004080512944,-8.743276177503034e-07,-0.0010405682330132393
30,0.0031,123.837,372.201,-0.000861799,214.692,-0.0379611,-0.0658444,-6.08302e-06,0.00205222,-0.00109115,0.00359703,-5.7796e-07,-1.00601e-06,0.000718457,-6.083001498513596e-06,0.0036035070761610832,-5.779598329924696e-07,0.0020543272447275385,-1.0060094939312592e-06,-0.0010905549123017
31,0.0032,124.433,374.06,-0.00080528,215.745,-0.0421468,-0.0731011,-1.39546e-05,0.00211491,-0.00114126,0.00372322,-6.54862e-07,-1.13987e-06,0.000807685,-1.3954502634971888e-05,0.0037301597937040576,-6.548617855761663e-07,0.002117147999598501,-1.1398693503528179e-06,-0.0011406090104791877
32,0.0033,125.016,375.878,-0.000764598,216.774,-0.0462526,-0.0802094,-2.18575e-05,0.00217757,-0.00119142,0.00384944,-7.33066e-07,-1.27598e-06,0.000897169,-2.185726112657882e-05,0.0038568586102674107,-7.330657313397992e-07,0.002179942627427378,-1.2759791859773273e-06,-0.0011907105409743046
33,0.0034,125.586,377.656,-0.000722453,217.781,-0.0502727,-0.0871723,-2.97903e-05,0.00224021,-0.00124164,0.00397568,-8.12447e-07,-1.41425e-06,0.000986895,-2.9789856273443327e-05,0.003983593499436333,-8.124466699399591e-07,0.0022427211452360485,-1.4142489999091623e-06,-0.001240869483989382
34,0.0035,126.143,379.397,-0.00068463,218.767,-0.0542132,-0.0939954,-3.77517e-05,0.00230284,-0.0012919,0.00410196,-8.93023e-07,-1.55467e-06,0.00107685,-3.775098741354288e-05,0.004110384553042135,-8.930226012004994e-07,0.0023054935725594916,-1.5546687914813617e-06,-0.0012910658564436739
35,0.0036,126.69,381.102,-0.00064876,219.732,-0.0580757,-0.100683,-4.57406e-05,0.00236545,-0.00134222,0.00422825,-9.74763e-07,-1.6972e-06,0.00116703,-4.57395539147365e-05,0.004237201661204892,-9.74762524919015e-07,0.002368249884078022,-1.6971985598024375e-06,-0.0013413196256143456
36,0.0037,127.225,382.773,-0.000615392,220.678,-0.0618632,-0.107241,-5.37557e-05,0.00242804,-0.00139258,0.00435457,-1.05765e-06,-1.8418e-06,0.00125743,-5.375425518827637e-05,0.004364064917033339,-1.0576494406944192e-06,0.0024309900762720105,-1.8417983038698793e-06,-0.001391610810415389
37,0.0038,127.75,384.41,-0.000584069,221.605,-0.0655781,-0.113672,-6.17961e-05,0.00249061,-0.00144299,0.0044809,-1.14167e-06,-1.98844e-06,0.00134802,-6.179419066032477e-05,0.004490954244150025,-1.1416693482813045e-06,0.0024937141456231604,-1.988438023015071e-06,-0.001441949390519781
38,0.0039,128.264,386.016,-0.000554718,222.514,-0.0692228,-0.119982,-6.98607e-05,0.00255317,-0.00149344,0.00460726,-1.22681e-06,-2.13709e-06,0.00143881,-6.985825979810567e-05,0.004617889740744063,-1.226809247523164e-06,0.0025564321141777757,-2.1370877164583746e-06,-0.0014923253734282493
39,0.004,128.768,387.592,-0.00052715,223.405,-0.0727996,-0.126173,-7.79485e-05,0.00261572,-0.00154392,0.00473363,-1.31304e-06,-2.28771e-06,0.00152978,-7.794546209460851e-05,0.0047448513253693925,-1.3130391379734263e-06,0.0026191439802996097,-2.2877073831972794e-06,-0.001542728768650914
40,0.0041,129.264,389.138,-0.00050124,224.281,-0.0763108,-0.132251,-8.60588e-05,0.00267824,-0.00159445,0.00486002,-1.40035e-06,-2.44027e-06,0.00162093,-8.605509704773251e-05,0.004871849052580535,-1.4003490195202417e-06,0.0026818296887161086,-2.4402670225631695e-06,-0.001593179539916778
41,0.0042,129.75,390.656,-0.000476857,225.14,-0.0797583,-0.138218,-9.41906e-05,0.00274076,-0.00164502,0.00498642,-1.48873e-06,-2.59474e-06,0.00171226,-9.4186164204757e-05,0.004998872882037819,-1.488728891829716e-06,0.0027445193163655457,-2.5947366336653843e-06,-0.0016436676962237051
42,0.0043,130.227,392.147,-0.000453888,225.984,-0.0831443,-0.144078,-0.000102343,0.00280326,-0.00169562,0.00511284,-1.57815e-06,-2.75109e-06,0.00180374,-0.0001023377631338418,0.0051259328708401775,-1.578148754677322e-06,0.0028071928073489794,-2.7510862157242855e-06,-0.001694183248584058
43,0.0044,130.696,393.612,-0.00043223,226.813,-0.0864707,-0.149834,-0.000110516,0.00286574,-0.00174625,0.00523927,-1.6686e-06,-2.90929e-06,0.00189539,-0.00011050989333183381,0.005253018976111967,-1.6685986078401882e-06,0.0028698501581507774,-2.909285768071257e-06,-0.0017447261925807034
44,0.0045,131.157,395.052,-0.000411786,227.628,-0.0897393,-0.155491,-0.000118707,0.00292821,-0.00179692,0.00536571,-1.76007e-06,-3.06931e-06,0.00198719,-0.00011869995460289662,0.005380131203696958,-1.7600684510954423e-06,0.002932501394581344,-3.069305289704616e-06,-0.0017953065058414763
45,0.0046,131.611,396.467,-0.000392471,228.429,-0.092952,-0.16105,-0.000126918,0.00299067,-0.00184761,0.00549217,-1.85254e-06,-3.23112e-06,0.00207913,-0.00012690994625141894,0.005507279614513472,-1.8525382839973403e-06,0.002995146515005098,-3.231114779955746e-06,-0.0018459042193448294
46,0.0047,132.056,397.86,-0.000374206,229.217,-0.0961103,-0.166515,-0.000135146,0.00305312,-0.00189834,0.00561863,-1.94599e-06,-3.3947e-06,0.00217121,-0.0001351368681907772,0.00563444410553493,-1.9459881065442275e-06,0.003057785517787348,-3.3946942380458367e-06,-0.0018965392922543067
47,0.0048,132.495,399.229,-0.000356918,229.992,-0.0992159,-0.171888,-0.000143392,0.00311555,-0.0019491,0.00574511,-2.04041e-06,-3.56001e-06,0.00226343,-0.00014338171985850412,0.00576164479402741,-2.0404079184022095e-06,0.0031204083700893115,-3.560003663194422e-06,-0.0019472017380960382
48,0.0049,132.926,400.577,-0.000340542,230.754,-0.10227,-0.177173,-0.000151654,0.00317797,-0.00199988,0.00587159,-2.13579e-06,-3.72703e-06,0.00235578,-0.0001516425011134359,0.005888861571880399,-2.135787719237392e-06,0.00318302510022761,-3.7270230546226912e-06,-0.0019978815724198684
49,0.005,133.351,401.903,-0.000325015,231.505,-0.105275,-0.182372,-0.000159933,0.00324037,-0.00205069,0.00599808,-2.23211e-06,-3.89573e-06,0.00244825,-0.0001599202113995446,0.006016104501289865,-2.2321075088260756e-06,0.003245625674111352,-3.895722411662028e-06,-0.0020485887718298956
50,0.0051,133.769,403.21,-0.000310283,232.244,-0.108232,-0.187487,-0.000168228,0.00330277,-0.00210153,0.00612458,-2.32935e-06,-4.06609e-06,0.00254085,-0.00016821385046350557,0.0061433735881093465,-2.329347287055583e-06,0.003308230154392966,-4.0660817334226e-06,-0.0020993233318933324
51,0.0052,134.181,404.496,-0.000296294,232.972,-0.111142,-0.192521,-0.000176537,0.00336515,-0.00215239,0.00625108,-2.42751e-06,-4.23808e-06,0.00263356,-0.0001765214182607444,0.006270658775486604,-2.427507053592848e-06,0.0033708184738994174,-4.238071019346812e-06,-0.0021500752696759218
52,0.0053,134.586,405.763,-0.000283,233.689,-0.114007,-0.197476,-0.000184862,0.00342752,-0.00220327,0.00637759,-2.52657e-06,-4.41168e-06,0.00272639,-0.00018484491407333437,0.006397970129438102,-2.52656680821417e-06,0.003433400663452879,-4.411670268544832e-06,-0.0022008445822638834
53,0.0054,134.986,407.012,-0.000270358,234.396,-0.116827,-0.202354,-0.0001932,0.00348988,-0.00225418,0.00650411,-2.62651e-06,-4.58686e-06,0.00281933,-0.00019318133808188254,0.006525307655821155,-2.6265065506958507e-06,0.003495976721419547,-4.586849480348043e-06,-0.0022516412442262768
54,0.0055,135.38,408.243,-0.000258327,235.092,-0.119604,-0.207158,-0.000201553,0.00355223,-0.00230511,0.00663063,-2.72733e-06,-4.76359e-06,0.00291237,-0.0002015326895586922,0.0066526612939670215,-2.727326280815845e-06,0.0035585466461651727,-4.76357865408783e-06,-0.002302455274147408
55,0.0056,135.768,409.456,-0.000246869,235.779,-0.12234,-0.21189,-0.000209919,0.00361457,-0.00235606,0.00675715,-2.82901e-06,-4.94187e-06,0.00300551,-0.00020989696854833984,0.006780031045914514,-2.8290059983504534e-06,0.003621110436056174,-4.941857788987036e-06,-0.002353286669110388
56,0.0057,136.151,410.652,-0.000235952,236.455,-0.125035,-0.216551,-0.000218298,0.0036769,-0.00240703,0.00688368,-2.93153e-06,-5.12166e-06,0.00309875,-0.00021827417472530808,0.006907426982776688,-2.9315257030759767e-06,0.003683668089458747,-5.121646884376219e-06,-0.002404135426197329
57,0.0058,136.528,411.832,-0.000225541,237.123,-0.127691,-0.221143,-0.000226689,0.00373921,-0.00245802,0.00701021,-3.0349e-06,-5.30294e-06,0.00319209,-0.0002266633079900382,0.007034839040066521,-3.0348953946601753e-06,0.0037462095672768925,-5.302925939476566e-06,-0.0024550015424892324
58,0.0059,136.901,412.996,-0.000215609,237.781,-0.130307,-0.225669,-0.000235093,0.00380152,-0.00250903,0.00713675,-3.13909e-06,-5.48568e-06,0.00328552,-0.00023506536780604215,0.007162277291446806,-3.139085073100567e-06,0.003808754942175918,-5.485664953730485e-06,-0.0025058850150665446
59,0.006,137.268,414.144,-0.000206126,238.431,-0.132887,-0.23013,-0.000243509,0.00386381,-0.00256005,0.00726328,-3.24409e-06,-5.66988e-06,0.00337904,-0.00024347935408985943,0.007289721596986487,-3.2440847379522353e-06,0.003871284136972797,-5.669863926249796e-06,-0.002556775866576433
60,0.0061,137.631,415.277,-0.000197068,239.072,-0.13543,-0.234527,-0.000251937,0.00392609,-0.0026111,0.00738982,-3.34989e-06,-5.8555e-06,0.00347265,-0.0002519052665390653,0.007417192103246206,-3.3498843891033303e-06,0.003933807187496363,-5.855482856587102e-06,-0.002607694043470943
61,0.0062,137.989,416.396,-0.00018841,239.705,-0.137937,-0.238863,-0.000260375,0.00398837,-0.00266216,0.00751636,-3.45648e-06,-6.04253e-06,0.00356634,-0.0002603411053715421,0.0075446787406443505,-3.45647402633098e-06,0.003996334132077006,-6.042511743964418e-06,-0.0026586195944726665
62,0.0063,138.342,417.5,-0.000180131,240.33,-0.14041,-0.243138,-0.000268825,0.00405063,-0.00271324,0.0076429,-3.56385e-06,-6.23095e-06,0.00366012,-0.00026878886979730954,0.007672181511222398,-3.563843649523335e-06,0.004058844889779589,-6.2309305877139565e-06,-0.002709562491091222
63,0.0064,138.691,418.59,-0.000172209,240.947,-0.142849,-0.247355,-0.000277286,0.00411288,-0.00276433,0.00776944,-3.67199e-06,-6.42073e-06,0.00375397,-0.00027724755979019466,0.0077997004170218265,-3.6719832582354783e-06,0.00412134949830989,-6.420709387167101e-06,-0.002760512758007816
64,0.0065,139.036,419.667,-0.000164626,241.556,-0.145255,-0.251515,-0.000285757,0.00417513,-0.00281544,0.00789598,-3.78089e-06,-6.61186e-06,0.0038479,-0.00028571617535722016,0.007927235460084558,-3.7808828524665827e-06,0.0041838579978730195,-6.6118381416568894e-06,-0.0028114803657124376
65,0.0066,139.376,420.731,-0.000157362,242.158,-0.147629,-0.25562,-0.000294238,0.00423736,-0.00286656,0.00802252,-3.89053e-06,-6.80432e-06,0.0039419,-0.00029419471624503313,0.008054786642452738,-3.8905224318819265e-06,0.004246350303784174,-6.804296850626557e-06,-0.0028624553399047015
66,0.0067,139.712,421.781,-0.000150402,242.752,-0.149971,-0.25967,-0.000302728,0.00429959,-0.0029177,0.00814907,-4.00091e-06,-6.99809e-06,0.00403598,-0.00030268218250251167,0.008182364047992552,-4.000901996370487e-06,0.0043088464987124375,-6.998065513408314e-06,-0.0029134476500541906
67,0.0068,140.044,422.82,-0.00014373,243.339,-0.152283,-0.263667,-0.000311229,0.0043618,-0.00296885,0.00827561,-4.11202e-06,-7.19315e-06,0.00413013,-0.0003111805732788353,0.008309947516375038,-4.112011545709393e-06,0.004371326495473227,-7.193124129334372e-06,-0.002964447322879149
68,0.0069,140.372,423.846,-0.00013733,243.92,-0.154565,-0.267612,-0.000319739,0.00442401,-0.00302002,0.00840215,-4.22385e-06,-7.38948e-06,0.00422435,-0.0003196878889334398,0.008437547130190959,-4.22384107956475e-06,0.004433810379235625,-7.389452697847965e-06,-0.003015464326828421
69,0.007,140.697,424.86,-0.00013119,244.494,-0.156818,-0.271507,-0.000328258,0.0044862,-0.00307119,0.00852868,-4.33638e-06,-7.58708e-06,0.00431863,-0.00032820412923739717,0.008565152805832144,-4.336370597934902e-06,0.004496278060315495,-7.587051218171936e-06,-0.003066478720304411
70,0.0071,141.018,425.862,-0.000125295,245.061,-0.159043,-0.275352,-0.000336786,0.00454839,-0.00312238,0.00865522,-4.44961e-06,-7.78591e-06,0.00441297,-0.0003367292939612243,0.008692784715368829,-4.4496001004867836e-06,0.004558749626381253,-7.785879689858888e-06,-0.003117510441090765
71,0.0072,141.335,426.853,-0.000119634,245.621,-0.161239,-0.279149,-0.000345322,0.00461057,-0.00317358,0.00878175,-4.56353e-06,-7.98597e-06,0.00450738,-0.00034526238322063474,0.008820422688264884,-4.563519587108544e-06,0.0046212150314624,-7.985938112242685e-06,-0.003168549517944652
72,0.0073,141.648,427.834,-0.000114195,246.176,-0.163409,-0.282899,-0.000353867,0.00467274,-0.0032248,0.00890829,-4.67814e-06,-8.18724e-06,0.00460186,-0.00035380439645782413,0.008948086901696461,-4.6781290574671175e-06,0.004683674273926242,-8.18720648465554e-06,-0.003219605917272772
73,0.0074,141.958,428.803,-0.000108968,246.724,-0.165552,-0.286603,-0.000362421,0.0047349,-0.00327602,0.00903482,-4.79341e-06,-8.3897e-06,0.00469639,-0.00036235533344264326,0.00907575718002196,-4.793398511671043e-06,0.00474612735214075,-8.389664806540686e-06,-0.003270659701559042
74,0.0075,142.265,429.762,-0.000103943,247.267,-0.167669,-0.290263,-0.000370982,0.00479705,-0.00332726,0.00916134,-4.90935e-06,-8.59333e-06,0.00479097,-0.0003709131946866284,0.009203433521455251,-4.909337949166037e-06,0.004808574264473453,-8.59329307745238e-06,-0.0033217308045031535
75,0.0076,142.568,430.71,-9.91089e-05,247.803,-0.16976,-0.293878,-0.000379551,0.00485919,-0.0033785,0.00928787,-5.02594e-06,-8.79813e-06,0.00488562,-0.00037947897963130917,0.009331136110832805,-5.025927369950445e-06,0.004871015009292101,-8.798091296613464e-06,-0.0033727992906309456
76,0.0077,142.868,431.648,-9.44582e-05,248.334,-0.171827,-0.29745,-0.000388129,0.00492132,-0.00342976,0.00941439,-5.14317e-06,-9.00407e-06,0.00498032,-0.00038805368768357607,0.009458844764852481,-5.143156773912416e-06,0.0049334495849646665,-9.004029463466345e-06,-0.003423885091599077
77,0.0078,143.165,432.577,-8.99819e-05,248.859,-0.17387,-0.30098,-0.000396713,0.00498345,-0.00348102,0.00954091,-5.26105e-06,-9.21114e-06,0.00507507,-0.00039663431980263564,0.009586569577593407,-5.261036160719712e-06,0.004995888039817764,-9.211097577566107e-06,-0.0034749682739760868
78,0.0079,143.459,433.496,-8.56722e-05,249.379,-0.175889,-0.304469,-0.000405305,0.00504556,-0.0035323,0.00966742,-5.37955e-06,-9.41933e-06,0.00516988,-0.0004052228750240916,0.009714300453957048,-5.379535530258828e-06,0.0050583102729262475,-9.419285638245789e-06,-0.0035260687673751567
79,0.008,143.75,434.405,-8.15215e-05,249.893,-0.177884,-0.307918,-0.000413904,0.00510767,-0.00358358,0.00979393,-5.49868e-06,-9.62862e-06,0.00526473,-0.0004138183535562501,0.009842047490575823,-5.498664882308546e-06,0.005120736383200208,-9.628573644948624e-06,-0.0035771666404080804
80,0.0081,144.038,435.305,-7.75227e-05,250.403,-0.179857,-0.311328,-0.00042251,0.00516977,-0.00363488,0.00992044,-5.61842e-06,-9.839e-06,0.00535963,-0.00042242075521936595,0.00996981068949454,-5.61840421675619e-06,0.005183156319048532,-9.838951597229695e-06,-0.003628281820643897
81,0.0082,144.323,436.197,-7.3669e-05,250.907,-0.181808,-0.314699,-0.000431123,0.00523186,-0.00368618,0.0100469,-5.73876e-06,-1.00505e-05,0.00545459,-0.00043103007983325003,0.010097539547879952,-5.738743533378887e-06,0.005245570078839412,-1.005044949387024e-05,-0.003679394378738099
82,0.0083,144.605,437.079,-6.99543e-05,251.406,-0.183736,-0.318032,-0.000439743,0.00529394,-0.00373749,0.0101734,-5.85971e-06,-1.0263e-05,0.00554959,-0.0004396463272179352,0.01022532496889017,-5.859692831955421e-06,0.0053079776609412654,-1.0262947335637485e-05,-0.003730514277520358
83,0.0084,144.885,437.953,-6.63723e-05,251.9,-0.185644,-0.321328,-0.000448369,0.00535602,-0.0037888,0.0102999,-5.98124e-06,-1.04765e-05,0.00564463,-0.00044826849764123544,0.01035312655577858,-5.981222112372286e-06,0.005370389117426155,-1.0476445121643252e-05,-0.003781631553407827
84,0.0085,145.162,438.818,-6.29175e-05,252.389,-0.18753,-0.324588,-0.000457002,0.00541808,-0.00384013,0.0104264,-6.10336e-06,-1.06911e-05,0.00573972,-0.00045689759049172274,0.010480944310590434,-6.103341374519289e-06,0.0054327843398784825,-1.0691042850341503e-05,-0.0038327661298800386
85,0.0086,145.436,439.675,-5.95844e-05,252.874,-0.189396,-0.327813,-0.000465641,0.00548014,-0.00389146,0.0105529,-6.22606e-06,-1.09068e-05,0.00583485,-0.0004655326060544196,0.010608778235371208,-6.226040618173556e-06,0.0054951834346983475,-1.0906740521066105e-05,-0.0038838980816818802
86,0.0087,145.707,440.524,-5.6368e-05,253.354,-0.191242,-0.331003,-0.000474286,0.00554219,-0.0039428,0.0106794,-6.34933e-06,-1.11234e-05,0.00593003,-0.0004741735441745609,0.010736628332165932,-6.349309843001194e-06,0.005557576346550519,-1.1123338135243799e-05,-0.003935037369597549
87,0.0088,145.976,441.364,-5.32634e-05,253.83,-0.193069,-0.334158,-0.000482938,0.00560423,-0.00399415,0.0108058,-6.47316e-06,-1.1341e-05,0.00602524,-0.0004828214042142953,0.010864393516576643,-6.4731390491123975e-06,0.005619963073803413,-1.1340935691106502e-05,-0.003986183992227943
88,0.0089,146.242,442.197,-5.02661e-05,254.301,-0.194876,-0.337281,-0.000491595,0.00566627,-0.0040455,0.0109323,-6.59755e-06,-1.15596e-05,0.0061205,-0.0004914741869758155,0.010992275950749919,-6.5975282361740994e-06,0.005682353671648821,-1.1559533188099103e-05,-0.004037327988546502
89,0.009,146.506,443.023,-4.73716e-05,254.768,-0.196664,-0.34037,-0.000500258,0.00572829,-0.00409686,0.0110588,-6.72249e-06,-1.17792e-05,0.00621579,-0.0005001328918297077,0.011120174563074459,-6.72246740407445e-06,0.005744728025432355,-1.1779130625444445e-05,-0.0040884793178036505
90,0.0091,146.768,443.841,-4.45759e-05,255.23,-0.198434,-0.343428,-0.000508926,0.00579031,-0.00414823,0.0111852,-6.84798e-06,-1.19998e-05,0.00631113,-0.0005087965191296062,0.01124798823079276,-6.8479565525914055e-06,0.005807106247793126,-1.199972800269844e-05,-0.00413963797859962
91,0.0092,147.027,444.651,-4.18749e-05,255.689,-0.200185,-0.346454,-0.000517601,0.00585232,-0.0041996,0.0113117,-6.974e-06,-1.22213e-05,0.0064065,-0.0005174670677112747,0.011375919192766704,-6.97397568172331e-06,0.005869478280276397,-1.222122532018588e-05,-0.004190794011442733
92,0.0093,147.284,445.454,-3.92651e-05,256.143,-0.201919,-0.34945,-0.00052628,0.00591432,-0.00425098,0.0114381,-7.10055e-06,-1.24437e-05,0.0065019,-0.0005261415389715696,0.011503765188649595,-7.100524791137097e-06,0.005931844121250807,-1.2443622577462676e-05,-0.004241957374048422
93,0.0094,147.539,446.25,-3.67427e-05,256.593,-0.203635,-0.352415,-0.000534965,0.00597632,-0.00430236,0.0115646,-7.22763e-06,-1.26671e-05,0.00659735,-0.0005348219317377056,0.011631728508455286,-7.227603880721745e-06,0.005994213829027428,-1.2667019772649724e-05,-0.0042931181079479686
94,0.0095,147.791,447.04,-3.43045e-05,257.04,-0.205334,-0.35535,-0.000543655,0.0060383,-0.00435375,0.011691,-7.35522e-06,-1.28914e-05,0.00669282,-0.0005435072463974011,0.011759606840678893,-7.3551929504755975e-06,0.006056567282713976,-1.289131690629386e-05,-0.004344286169833844
95,0.0096,148.041,447.822,-3.19471e-05,257.482,-0.207016,-0.358256,-0.000552351,0.00610028,-0.00440514,0.0118174,-7.48333e-06,-1.31166e-05,0.00678834,-0.0005521984822688397,0.01188750133774552,-7.483301999955394e-06,0.006118924601187681,-1.311651397772895e-05,-0.004395451602260514
96,0.0097,148.289,448.598,-2.96676e-05,257.921,-0.208682,-0.361134,-0.000561051,0.00616225,-0.00445654,0.0119438,-7.61195e-06,-1.33427e-05,0.00688388,-0.0005608936403179721,0.012015412001698422,-7.611921029160307e-06,0.006181275722874746,-1.3342610986621928e-05,-0.004446624360897045
97,0.0098,148.535,449.367,-2.74631e-05,258.356,-0.210332,-0.363984,-0.000569756,0.00622422,-0.00450795,0.0120703,-7.74107e-06,-1.35697e-05,0.00697946,-0.0005695937198717527,0.012143440048919762,-7.741040037978486e-06,0.006243630708580472,-1.3569607932084615e-05,-0.004497804444343334
98,0.0099,148.779,450.13,-2.53306e-05,258.787,-0.211965,-0.366806,-0.000578466,0.00628617,-0.00455935,0.0121967,-7.87069e-06,-1.37975e-05,0.00707506,-0.0005782987208000634,0.012271383065570296,-7.870659026187887e-06,0.006305969432425007,-1.3797404814885894e-05,-0.004548971942178848
99,0.01,149.021,450.886,-2.32676e-05,259.215,-0.213583,-0.369601,-0.000587181,0.00634812,-0.00461077,0.0123231,-8.0008e-06,-1.40263e-05,0.0071707,-0.0005870086429732302,0.012399342255240198,-8.00076799367666e-06,0.006368312018272926,-1.4026201631933688e-05,-0.004600156718069792
100,0.0101,149.261,451.636,-2.12716e-05,259.639,-0.215186,-0.372369,-0.000595901,0.00641006,-0.00466218,0.0124495,-8.13139e-06,-1.42558e-05,0.00726637,-0.0005957234862610239,0.012527317619973832,-8.131356940332957e-06,0.006430648402057093,-1.4255698386533844e-05,-0.004651328908620411
101,0.0102,149.498,452.38,-1.93401e-05,260.06,-0.216773,-0.375111,-0.000604625,0.006472,-0.00471361,0.0125758,-8.26246e-06,-1.44863e-05,0.00736207,-0.0006044422511380931,0.012655207896290266,-8.26242586593473e-06,0.006492988647076592,-1.4486195074048247e-05,-0.004702518374426257
102,0.0103,149.734,453.118,-1.74707e-05,260.477,-0.218346,-0.377828,-0.000613353,0.00653392,-0.00476503,0.0127022,-8.39401e-06,-1.47176e-05,0.0074578,-0.000613164937500188,0.012783215604485143,-8.39397477037096e-06,0.006555312622464005,-1.4717491696680796e-05,-0.00475369525516256
103,0.0104,149.968,453.85,-1.56614e-05,260.891,-0.219904,-0.380519,-0.000622086,0.00659584,-0.00481646,0.0128286,-8.52602e-06,-1.49497e-05,0.00755355,-0.0006218925446216383,0.012911239493876847,-8.52598365363999e-06,0.006617640457071472,-1.4949588253765356e-05,-0.004804879456402622
104,0.0105,150.201,454.576,-1.391e-05,261.302,-0.221448,-0.383186,-0.000630823,0.00665775,-0.00486789,0.0129549,-8.6585e-06,-1.51826e-05,0.00764933,-0.000630624073002739,0.013039178262588047,-8.65846251529856e-06,0.006679962084338298,-1.5182484744857838e-05,-0.00485606102530689
105,0.0106,150.431,455.296,-1.22144e-05,261.71,-0.222978,-0.385828,-0.000639565,0.00671965,-0.00491933,0.0130813,-8.79144e-06,-1.54163e-05,0.00774514,-0.0006393605219000564,0.01316723450770474,-8.791401355456863e-06,0.006742277502633565,-1.541618116940313e-05,-0.004907249912938227
106,0.0107,150.66,456.011,-1.05727e-05,262.114,-0.224493,-0.388447,-0.00064831,0.00678155,-0.00497077,0.0132077,-8.92484e-06,-1.56509e-05,0.00784098,-0.0006480998924793813,0.013295306940153795,-8.924800173781833e-06,0.006804596778372751,-1.5650777525300086e-05,-0.0049584361674809285
107,0.0108,150.886,456.72,-8.98319e-06,262.515,-0.225996,-0.391042,-0.00065706,0.00684344,-0.00502221,0.013334,-9.05869e-06,-1.58862e-05,0.00793684,-0.0006568441833489924,0.01342329421964683,-9.05864897016162e-06,0.006866909843125102,-1.5886073814974644e-05,-0.005009619789070441
108,0.0109,151.111,457.424,-7.44396e-06,262.913,-0.227485,-0.393613,-0.000665813,0.00690532,-0.00507366,0.0134603,-9.19298e-06,-1.61223e-05,0.00803272,-0.0006655913957095416,0.01355129766495411,-9.19293774470642e-06,0.006929216695260365,-1.6122170036436678e-05,-0.005060810727234077
109,0.011,151.335,458.123,-5.95337e-06,263.308,-0.228961,-0.396163,-0.000674571,0.0069672,-0.00512511,0.0135867,-9.32771e-06,-1.63592e-05,0.00812863,-0.0006743435281344468,0.013679418646054486,-9.327666497083165e-06,0.006991527403062969,-1.6359066189020055e-05,-0.005111999031691794
110,0.0111,151.556,458.816,-4.50978e-06,263.7,-0.230424,-0.398689,-0.000683332,0.00702906,-0.00517656,0.013713,-9.46287e-06,-1.65969e-05,0.00822457,-0.0006830985818593316,0.013807454441919775,-9.462825227180005e-06,0.007053821825694806,-1.6596762272169663e-05,-0.005163184702578927
111,0.0112,151.776,459.504,-3.11164e-06,264.089,-0.231874,-0.401194,-0.000692097,0.00709093,-0.00522801,0.0138393,-9.59847e-06,-1.68353e-05,0.00832053,-0.0006918575561138951,0.013935506409727294,-9.598423934886746e-06,0.007116130173139945,-1.6835158287098473e-05,-0.005214367740031034
112,0.0113,151.995,460.187,-1.75747e-06,264.475,-0.233312,-0.403677,-0.000700866,0.00715278,-0.00527947,0.0139656,-9.73449e-06,-1.70745e-05,0.00841651,-0.0007006204507941094,0.014063574551519853,-9.734442619979689e-06,0.007178422232153148,-1.7074354231594313e-05,-0.005265558091528066
113,0.0114,152.211,460.865,-4.45841e-07,264.859,-0.234737,-0.406139,-0.000709639,0.00721462,-0.00533093,0.0140919,-9.87094e-06,-1.73144e-05,0.00851251,-0.0007093872657951694,0.01419165886934004,-9.87089128245966e-06,0.007240708071642343,-1.731425010664811e-05,-0.005316745808837453
114,0.0115,152.426,461.538,8.24623e-07,265.239,-0.236151,-0.40858,-0.000718415,0.00727646,-0.00538239,0.0142182,-1.00078e-05,-1.75551e-05,0.00860853,-0.0007181570017308347,0.014319759365231333,-1.000774992210296e-05,0.007302997763006802,-1.7554945910158715e-05,-0.005367930892094641
115,0.0116,152.64,462.206,2.05523e-06,265.617,-0.237552,-0.411001,-0.000727195,0.0073383,-0.00543386,0.0143444,-1.01451e-05,-1.77965e-05,0.00870458,-0.0007269306577959433,0.01444777459645441,-1.0145048538690027e-05,0.007365291306485,-1.7796341643228075e-05,-0.005419123287244032
116,0.0117,152.852,462.869,3.24725e-06,265.992,-0.238942,-0.413401,-0.000735978,0.00740012,-0.00548532,0.0144707,-1.02828e-05,-1.80386e-05,0.00880064,-0.0007357072346215743,0.014575907441804814,-1.0282747132217551e-05,0.007427568553763475,-1.8038437305412103e-05,-0.005470303102291796
117,0.0118,153.063,463.528,4.40189e-06,266.365,-0.24032,-0.415781,-0.000744765,0.00746194,-0.00553679,0.014597,-1.04209e-05,-1.82814e-05,0.00889673,-0.000744487731385024,0.01470405647135542,-1.042084570257451e-05,0.007489849651140412,-1.8281232896266708e-05,-0.005521490228479031
118,0.0119,153.272,464.182,5.52032e-06,266.735,-0.241687,-0.418141,-0.000753554,0.00752375,-0.00558826,0.0147232,-1.05594e-05,-1.8525e-05,0.00899284,-0.0007532701494878946,0.014832120203933652,-1.0559344249760905e-05,0.007552124523332537,-1.8524828413246652e-05,-0.005572674720132786
119,0.012,153.479,464.831,6.60364e-06,267.102,-0.243043,-0.420483,-0.000762348,0.00758555,-0.00563974,0.0148495,-1.06983e-05,-1.87692e-05,0.00908896,-0.0007620574865921936,0.01496030159520001,-1.0698242773443667e-05,0.007614393168709377,-1.8769023859666056e-05,-0.005623866521149989
120,0.0121,153.685,465.476,7.65294e-06,267.467,-0.244388,-0.422805,-0.000771144,0.00764735,-0.00569121,0.0149757,-1.08375e-05,-1.90142e-05,0.00918511,-0.0007708467448793721,0.015088397667953446,-1.0837441274502702e-05,0.007676665662407434,-1.90140192312116e-05,-0.005675045743631535
121,0.0122,153.89,466.117,8.66926e-06,267.829,-0.245722,-0.425108,-0.000779944,0.00770914,-0.00574269,0.0151019,-1.09772e-05,-1.92598e-05,0.00928127,-0.0007796399227379958,0.015216509907451492,-1.097713975073411e-05,0.00773893192727515,-1.92596145311974e-05,-0.005726232274724019
122,0.0123,154.094,466.753,9.65357e-06,268.189,-0.247045,-0.427393,-0.000788747,0.00777092,-0.00579416,0.0152281,-1.11173e-05,-1.95061e-05,0.00937745,-0.0007884360208516572,0.015344638315734294,-1.1117238203017799e-05,0.0078011919616822745,-1.9505909757300266e-05,-0.00577740622857581
123,0.0124,154.295,467.385,1.06068e-05,268.546,-0.248358,-0.42966,-0.000797552,0.0078327,-0.00584564,0.0153543,-1.12577e-05,-1.97531e-05,0.00947365,-0.0007972340399391431,0.015472782894842663,-1.1257636632344692e-05,0.007863455842633149,-1.9752904908854063e-05,-0.005828587490286252
124,0.0125,154.496,468.012,1.153e-05,268.901,-0.24966,-0.431909,-0.000806361,0.00789447,-0.00589712,0.0154805,-1.13985e-05,-2.00007e-05,0.00956987,-0.0008060359783362836,0.01560094364681719,-1.1398435037390797e-05,0.007925713491108155,-2.0000499987293807e-05,-0.005879766117253049
125,0.0126,154.695,468.636,1.24239e-05,269.253,-0.250952,-0.434141,-0.000815173,0.00795623,-0.0059486,0.0156067,-1.15397e-05,-2.0249e-05,0.0096661,-0.0008148408367529836,0.01572912057369935,-1.153963341793407e-05,0.007987964905477263,-2.0248794990407326e-05,-0.005930942109611981
126,0.0127,154.893,469.255,1.32894e-05,269.603,-0.252234,-0.436355,-0.000823988,0.00801798,-0.00600009,0.0157329,-1.16813e-05,-2.0498e-05,0.00976235,-0.0008236486151106392,0.015857313677530627,-1.1681231773863487e-05,0.008050210084110221,-2.0497789917417464e-05,-0.005982125407677508
127,0.0128,155.09,469.87,1.41274e-05,269.951,-0.253507,-0.438552,-0.000832805,0.00807973,-0.00605157,0.0158591,-1.18233e-05,-2.07476e-05,0.00985862,-0.0008324583141632313,0.015985522960352272,-1.1823230105068028e-05,0.008112459106501824,-2.074738476998128e-05,-0.006033296130715793
128,0.0129,155.285,470.481,1.49386e-05,270.297,-0.254769,-0.440732,-0.000841626,0.00814147,-0.00610305,0.0159853,-1.19656e-05,-2.09979e-05,0.0099549,-0.0008412719321758688,0.01611374842420643,-1.1965528412538617e-05,0.008174701891142,-2.099767954566456e-05,-0.0060844642195531096
129,0.013,155.479,471.088,1.57238e-05,270.64,-0.256022,-0.442895,-0.000850449,0.00820321,-0.00615454,0.0161114,-1.21082e-05,-2.12487e-05,0.0100512,-0.0008500874707438877,0.0162418884469413,-1.2108126696053212e-05,0.008236948518770326,-2.1248474248003468e-05,-0.006135639612968591
130,0.0131,155.672,471.691,1.64837e-05,270.981,-0.257266,-0.445042,-0.000859275,0.00826493,-0.00620603,0.0162376,-1.22512e-05,-2.15003e-05,0.0101475,-0.0008589059289558776,0.016370146266161623,-1.225112495439884e-05,0.008299178823640396,-2.1500068870250466e-05,-0.0061868123714309275
131,0.0132,155.864,472.291,1.46779e-05,271.32,-0.258501,-0.447173,-0.000868104,0.00832666,-0.00625751,0.0163637,-1.2395e-05,-2.17524e-05,0.0102438,-0.0008677273067334568,0.016498318622703012,-1.2394923182279527e-05,0.008361423053097505,-2.1752163418264914e-05,-0.006237972557455618
132,0.0133,156.054,472.886,1.83042e-05,271.657,-0.259724,-0.449288,-0.000876935,0.00838837,-0.006309,0.0164898,-1.2539e-05,-2.20052e-05,0.0103402,-0.0008765506048742377,0.016626507142797564,-1.2538921387084123e-05,0.0084236509565363,-2.2004957887400423e-05,-0.006289140046930264
133,0.0134,156.243,473.478,1.83855e-05,271.991,-0.260939,-0.451388,-0.000885769,0.00845008,-0.00636049,0.0166159,-1.26835e-05,-2.22585e-05,0.0104365,-0.0008853768224407199,0.01675471182848387,-1.2683419564729626e-05,0.008485882700177694,-2.2258252281415203e-05,-0.006340304901858773
134,0.0135,156.431,474.066,1.93387e-05,272.324,-0.262146,-0.453472,-0.000894606,0.00851178,-0.00641198,0.016742,-1.28282e-05,-2.25125e-05,0.0105329,-0.0008942059593541885,0.0168829326818003,-1.282811771896597e-05,0.008548108198777049,-2.2512246595551844e-05,-0.006391467122376704
135,0.0136,156.618,474.651,1.99021e-05,272.655,-0.263343,-0.45554,-0.000903445,0.00857347,-0.00646347,0.0168681,-1.29733e-05,-2.27671e-05,0.0106293,-0.0009030370164387902,0.01701116970478589,-1.297321584714517e-05,0.008610327450705002,-2.2766840831578428e-05,-0.006442626708619725
136,0.0137,156.803,475.232,2.05545e-05,272.983,-0.264532,-0.457594,-0.000912286,0.00863516,-0.00651496,0.0169942,-1.31188e-05,-2.30223e-05,0.0107257,-0.0009118699936423447,0.017139422899479673,-1.3118713948934158e-05,0.008672550541056978,-2.3022034988939843e-05,-0.006493783660723396
137,0.0138,156.988,475.809,2.11465e-05,273.309,-0.265713,-0.459633,-0.00092113,0.00869684,-0.00656645,0.0171203,-1.32645e-05,-2.32781e-05,0.0108221,-0.0009207058899917131,0.01726769226792091,-1.3264412026869898e-05,0.008734767382722053,-2.327782906708098e-05,-0.006544937978823495
138,0.0139,157.171,476.383,2.17309e-05,273.634,-0.266885,-0.461657,-0.000929977,0.00875851,-0.00661794,0.0172464,-1.34107e-05,-2.35344e-05,0.0109185,-0.0009295447054081807,0.01739597781214952,-1.3410610076980412e-05,0.008796977974070197,-2.3534123068214008e-05,-0.006596089663055582
139,0.014,157.354,476.953,2.22913e-05,273.956,-0.268048,-0.463667,-0.000938825,0.00882018,-0.00666943,0.0173724,-1.35571e-05,-2.37913e-05,0.011015,-0.0009383844416894771,0.01752417778178228,-1.355700810290461e-05,0.008859192402064231,-2.3791016989238578e-05,-0.006647238713555215
140,0.0141,157.535,477.52,2.28338e-05,274.277,-0.269204,-0.465663,-0.000947677,0.00888184,-0.00672092,0.0174985,-1.37039e-05,-2.40489e-05,0.0111114,-0.0009472280959683665,0.017652495670873458,-1.3703806101994509e-05,0.008921400577726057,-2.404861082749843e-05,-0.006698385130458062
141,0.0142,157.715,478.084,2.33572e-05,274.596,-0.270351,-0.467644,-0.00095653,0.00894349,-0.00677241,0.0176245,-1.3851e-05,-2.43069e-05,0.0112079,-0.0009560726710075018,0.01778072796379271,-1.3850904075352055e-05,0.008983602499426091,-2.43066045897411e-05,-0.006749528913899683
142,0.0143,157.894,478.644,2.38624e-05,274.912,-0.27149,-0.469612,-0.000965386,0.00900514,-0.0068239,0.0177506,-1.39984e-05,-2.45656e-05,0.0113043,-0.0009649201648511685,0.017909078205901707,-1.3998302022866227e-05,0.009045808255992993,-2.4565298268108826e-05,-0.006800670064015746
143,0.0144,158.072,479.201,2.43499e-05,275.227,-0.272622,-0.471566,-0.000974243,0.00906678,-0.00687539,0.0178766,-1.41461e-05,-2.48248e-05,0.0114008,-0.0009737685793679285,0.018037342830257375,-1.4145999944426002e-05,0.009108007756582825,-2.4824491867248e-05,-0.006851808580941698
144,0.0145,158.249,479.755,2.482e-05,275.54,-0.273745,-0.473507,-0.000983104,0.00912841,-0.00692688,0.0180026,-1.42941e-05,-2.50845e-05,0.0114973,-0.0009826209115842977,0.018165623616973825,-1.4293997839809336e-05,0.009170200999566003,-2.5084185386603508e-05,-0.00690294446481321
145,0.0146,158.425,480.305,2.52733e-05,275.852,-0.274861,-0.475434,-0.000991966,0.00919004,-0.00697837,0.0181286,-1.44425e-05,-2.53448e-05,0.0115938,-0.000991474164368955,0.01829392056808765,-1.4442395707581213e-05,0.009232398075636805,-2.5344478823297045e-05,-0.0069540777157659495
146,0.0147,158.6,480.853,2.57101e-05,276.161,-0.275969,-0.477348,-0.00100083,0.00925166,-0.00702986,0.0182546,-1.45912e-05,-2.56057e-05,0.0116903,-0.0010003293366958044,0.01842223368563589,-1.4591093548954603e-05,0.009294588892085454,-2.5605372176884522e-05,-0.007005208333935253
147,0.0148,158.774,481.397,2.61308e-05,276.469,-0.27707,-0.479249,-0.0010097,0.00931328,-0.00708135,0.0183806,-1.47401e-05,-2.58671e-05,0.0117869,-0.001009190424475559,0.018550562971655582,-1.4739991365253502e-05,0.009356783540850566,-2.586676544946709e-05,-0.007056336319456902
148,0.0149,158.946,481.938,2.65359e-05,276.775,-0.278164,-0.481137,-0.00101856,0.00937488,-0.00713284,0.0185066,-1.48894e-05,-2.6129e-05,0.0118834,-0.0010180414438383245,0.018678908428183982,-1.4889289153385832e-05,0.00941896183378832,-2.6128658640600655e-05,-0.007107461672466231
149,0.015,159.118,482.476,2.69257e-05,277.079,-0.27925,-0.483013,-0.00102744,0.00943649,-0.00718432,0.0186325,-1.5039e-05,-2.63915e-05,0.0119799,-0.0010269123642433486,0.018807168176536715,-1.5038886914786609e-05,0.00948115405183847,-2.6391151747406916e-05,-0.007158574464684819
150,0.0151,159.289,483.011,2.73006e-05,277.381,-0.280329,-0.484876,-0.00103631,0.00949808,-0.00723581,0.0187585,-1.51889e-05,-2.66544e-05,0.0120765,-0.001035773216232716,0.018935545967357914,-1.5188784649233789e-05,0.009543329910802534,-2.6654044774643282e-05,-0.007209694553587664
151,0.0152,159.459,483.543,2.76609e-05,277.682,-0.2814,-0.486727,-0.00104518,0.00955967,-0.0072873,0.0188844,-1.5339e-05,-2.69179e-05,0.012173,-0.001044633989626731,0.019063838028411162,-1.5338882358162387e-05,0.009605509599295514,-2.691753771655314e-05,-0.007260812010384865
152,0.0153,159.628,484.072,2.80071e-05,277.981,-0.282465,-0.488566,-0.00105406,0.00962125,-0.00733879,0.0190104,-1.54895e-05,-2.7182e-05,0.0122696,-0.0010535046738909815,0.01919224816167109,-1.5489380038369305e-05,0.009667683020876838,-2.7181630572803428e-05,-0.007311926835211979
153,0.0154,159.796,484.598,2.83394e-05,278.279,-0.283523,-0.490393,-0.00106294,0.00968282,-0.00739027,0.0191363,-1.56403e-05,-2.74465e-05,0.0123662,-0.0010623752793840202,0.019320572543565007,-1.5640177691178536e-05,0.009729850173916477,-2.7446123348262574e-05,-0.007363029101834839
154,0.0155,159.964,485.122,2.86581e-05,278.575,-0.284574,-0.492207,-0.00107182,0.00974439,-0.00744176,0.0192622,-1.57913e-05,-2.77115e-05,0.0124628,-0.0010712458061062913,0.01944891308251573,-1.5791175318025097e-05,0.009792021154705788,-2.7711116039941253e-05,-0.007414138663639491
155,0.0156,160.13,485.642,2.89636e-05,278.869,-0.285618,-0.494011,-0.0010807,0.00980595,-0.00749324,0.0193881,-1.59426e-05,-2.79771e-05,0.0125594,-0.0010801162540586828,0.019577269780557405,-1.594247291747397e-05,0.009854185864938136,-2.797670864462809e-05,-0.007465235668532855
156,0.0157,160.295,486.16,2.92562e-05,279.162,-0.286655,-0.495802,-0.00108958,0.00986751,-0.00754473,0.019514,-1.60942e-05,-2.82431e-05,0.012656,-0.001088986623241861,0.01970564263972463,-1.609407048908107e-05,0.009916354402147887,-2.8242701167413564e-05,-0.007516339967856833
157,0.0158,160.46,486.675,2.95362e-05,279.453,-0.287686,-0.497582,-0.00109847,0.00992906,-0.00759621,0.0196399,-1.62461e-05,-2.85097e-05,0.0127526,-0.0010978669026778798,0.019834031662052443,-1.6245968032846392e-05,0.009978516666785398,-2.850929360231902e-05,-0.007567431711562489
158,0.0159,160.623,487.187,2.98038e-05,279.742,-0.288711,-0.499351,-0.00110736,0.0099906,-0.00764769,0.0197658,-1.63983e-05,-2.87767e-05,0.0128492,-0.0011067471031686038,0.01996243684957566,-1.6398165548658916e-05,0.010040672657221306,-2.8776285954768e-05,-0.007618520825132924
159,0.016,160.786,487.696,3.00594e-05,280.03,-0.289728,-0.501109,-0.00111625,0.0100521,-0.00769917,0.0198916,-1.65508e-05,-2.90442e-05,0.0129459,-0.0011156272247145882,0.020090756195248805,-1.6550663036296598e-05,0.010102792068741984,-2.9043778221327088e-05,-0.007669607308703474
160,0.0161,160.948,488.203,3.03033e-05,280.317,-0.29074,-0.502856,-0.00112514,0.0101137,-0.00775065,0.0200175,-1.67035e-05,-2.93122e-05,0.0130425,-0.0011245072673167211,0.020219193706425553,-1.6703360497305475e-05,0.010165016317220665,-2.9311770401663217e-05,-0.0077206911624095875
161,0.0162,161.109,488.707,3.05356e-05,280.602,-0.291745,-0.504591,-0.00113403,0.0101752,-0.00780213,0.0201433,-1.68565e-05,-2.95807e-05,0.0131391,-0.0011333872309756687,0.02034754535414307,-1.6856357930028487e-05,0.010227143376111636,-2.958026249544332e-05,-0.0077717723863864885
162,0.0163,161.269,489.209,3.07566e-05,280.885,-0.292744,-0.506317,-0.00114292,0.0102367,-0.00785361,0.0202692,-1.70098e-05,-2.98497e-05,0.0132358,-0.0011422671156919861,0.020476015197110176,-1.7009655334132567e-05,0.010289274255934178,-2.9849254502112288e-05,-0.007822850980769736
163,0.0164,161.429,489.708,3.09666e-05,281.167,-0.293737,-0.508031,-0.00115182,0.0102982,-0.00790508,0.020395,-1.71633e-05,-3.01191e-05,0.0133324,-0.0011511569099550423,0.02060439915500356,-1.71631527113858e-05,0.010351408956923436,-3.01186464244374e-05,-0.007873917024433852
164,0.0165,161.587,490.204,3.11659e-05,281.448,-0.294724,-0.509735,-0.00116072,0.0103597,-0.00795656,0.0205208,-1.73171e-05,-3.0389e-05,0.0134291,-0.0011600466250992758,0.02073279926461491,-1.7316950059909075e-05,0.010413547479314333,-3.0388538258985243e-05,-0.007924990360546502
165,0.0166,161.745,490.698,3.13546e-05,281.727,-0.295705,-0.511428,-0.00116961,0.0104212,-0.00800803,0.0206466,-1.74712e-05,-3.06594e-05,0.0135258,-0.0011689262728146188,0.02086121552797593,-1.7471047379480353e-05,0.010475689823341794,-3.0658930005422746e-05,-0.007976051147231988
166,0.0167,161.902,491.189,3.15331e-05,282.005,-0.296679,-0.513112,-0.00117852,0.0104827,-0.00805951,0.0207724,-1.76255e-05,-3.09302e-05,0.0136224,-0.0011778258180340506,0.020989647947119217,-1.7625344671756693e-05,0.010537835989240962,-3.092972166629515e-05,-0.008027119225615387
167,0.0168,162.058,491.678,3.17014e-05,282.281,-0.297648,-0.514785,-0.00118742,0.0105442,-0.00811098,0.0208982,-1.77801e-05,-3.12015e-05,0.0137191,-0.0011867152958260352,0.021118096524076924,-1.777994193497001e-05,0.010599985977246762,-3.120101323828006e-05,-0.008078174755863476
168,0.0169,162.213,492.164,3.18599e-05,282.556,-0.298612,-0.516448,-0.00119632,0.0106057,-0.00816245,0.0210239,-1.79349e-05,-3.14732e-05,0.0138158,-0.0011956046945019727,0.021246459136231133,-1.7934739170666347e-05,0.01066213978759456,-3.147270472403374e-05,-0.008129227658351112
169,0.017,162.368,492.648,3.20087e-05,282.829,-0.299569,-0.518101,-0.00120523,0.0106671,-0.00821392,0.0211497,-1.809e-05,-3.17454e-05,0.0139125,-0.001204504002017659,0.021374940022068856,-1.8089836376966595e-05,0.010724196348094406,-3.174489612012277e-05,-0.008180277933213409
170,0.0171,162.522,493.129,3.2148e-05,283.102,-0.300521,-0.519745,-0.00121413,0.0107286,-0.00826539,0.0212754,-1.82454e-05,-3.2018e-05,0.0140092,-0.001213393242374905,0.021503334921479933,-1.824523355364871e-05,0.010786357797614832,-3.201748742931443e-05,-0.008231325580585702
171,0.0172,162.675,493.609,3.22781e-05,283.372,-0.301467,-0.521379,-0.00122304,0.0107901,-0.00831685,0.0214012,-1.8401e-05,-3.22911e-05,0.0141059,-0.0012222923913953743,0.02163184812432406,-1.8400830702591797e-05,0.010848523070181804,-3.229057864806428e-05,-0.008282360683426915
172,0.0173,162.827,494.085,3.23991e-05,283.642,-0.302408,-0.523003,-0.00123195,0.0108515,-0.00836832,0.0215269,-1.85568e-05,-3.25646e-05,0.0142026,-0.0012311914611247143,0.02176027531911351,-1.8556627823684835e-05,0.010910591074966725,-3.2564069779139615e-05,-0.008333403076735246
173,0.0174,162.979,494.56,3.25112e-05,283.91,-0.303343,-0.524617,-0.00124086,0.010913,-0.00841978,0.0216526,-1.87129e-05,-3.28385e-05,0.0142993,-0.0012400904515637023,0.021888718658215733,-1.8712724914826673e-05,0.010972763988115197,-3.283796082231838e-05,-0.008384432926803576
174,0.0175,163.129,495.032,3.26146e-05,284.177,-0.304273,-0.526223,-0.00124977,0.0109744,-0.00847124,0.0217783,-1.88693e-05,-3.31129e-05,0.0143961,-0.0012489893627131154,0.022017178143660665,-1.886912197590629e-05,0.011034839621526515,-3.3112351773945115e-05,-0.00843546015094343
175,0.0176,163.279,495.502,3.27095e-05,284.442,-0.305197,-0.527819,-0.00125869,0.0110358,-0.0085227,0.021904,-1.90259e-05,-3.33877e-05,0.0144928,-0.0012578981819946211,0.022145653777477792,-1.9025719008691766e-05,0.011096919066498678,-3.3387142636898126e-05,-0.008486484749289924
176,0.0177,163.429,495.969,3.2796e-05,284.707,-0.306116,-0.529406,-0.0012676,0.0110973,-0.00857416,0.0220297,-1.91827e-05,-3.36629e-05,0.0145895,-0.001266796934477843,0.022274145561697045,-1.9182516013183104e-05,0.011159103439171147,-3.366233341095537e-05,-0.008537506721978061
177,0.0178,163.577,496.435,3.28744e-05,284.97,-0.30703,-0.530984,-0.00127652,0.0111587,-0.00862562,0.0221554,-1.93398e-05,-3.39386e-05,0.0146863,-0.0012757055949164098,0.0224026534983488,-1.9339612987279153e-05,0.011221190514176138,-3.393802409223934e-05,-0.008588526069143176
178,0.0179,163.725,496.898,3.29447e-05,285.232,-0.307939,-0.532553,-0.00128544,0.0112201,-0.00867707,0.0222811,-1.94971e-05,-3.42146e-05,0.014783,-0.0012846141758902085,0.022531177589463436,-1.9496909932747997e-05,0.0112832814014443,-3.42140146872838e-05,-0.008639532877315448
179,0.018,163.872,497.359,3.30071e-05,285.492,-0.308843,-0.534113,-0.00129436,0.0112815,-0.00872853,0.0224067,-1.96546e-05,-3.44911e-05,0.0148797,-0.0012935226773997943,0.022659615571104963,-1.9654406849589634e-05,0.011345376101210114,-3.4490505188888854e-05,-0.008690546974349678
180,0.0181,164.019,497.817,3.30618e-05,285.751,-0.309741,-0.535664,-0.00130328,0.0113429,-0.00877998,0.0225324,-1.98124e-05,-3.4768e-05,0.0149765,-0.0013024310994458332,0.02278817196438232,-1.9812203735702916e-05,0.011407474613707613,-3.476739560004383e-05,-0.008741548533681476
181,0.0182,164.165,498.274,3.3109e-05,286.01,-0.310635,-0.537207,-0.0013122,0.0114043,-0.00883143,0.022658,-1.99704e-05,-3.50453e-05,0.0150732,-0.0013113394420292135,0.022916642226544548,-1.9970200592855925e-05,0.011469576939170834,-3.50446859206377e-05,-0.00879254746905056
182,0.0183,164.31,498.728,3.31487e-05,286.266,-0.311523,-0.538741,-0.00132112,0.0114657,-0.00888287,0.0227836,-2.01287e-05,-3.5323e-05,0.01517,-0.0013202477051504902,0.023045128625585276,-2.0128497419058533e-05,0.01153168307783381,-3.5322376150226376e-05,-0.008843533869027254
183,0.0184,164.454,499.181,3.31812e-05,286.522,-0.312407,-0.540266,-0.00133004,0.0115271,-0.00893432,0.0229092,-2.02871e-05,-3.56012e-05,0.0152668,-0.0013291558888104404,0.023173631163531105,-2.0286894218179974e-05,0.011593793029930799,-3.560056628482133e-05,-0.008894527557385845
184,0.0185,164.598,499.631,3.32065e-05,286.777,-0.313286,-0.541784,-0.00133897,0.0115885,-0.00898576,0.0230348,-2.04458e-05,-3.58797e-05,0.0153635,-0.0013380739796289287,0.023302149842409303,-2.0445590986017947e-05,0.011655906795695836,-3.5879056331289405e-05,-0.008945508711641792
185,0.0186,164.741,500.079,3.32249e-05,287.03,-0.31416,-0.543293,-0.00134789,0.0116498,-0.00903721,0.0231604,-2.06048e-05,-3.61586e-05,0.0154603,-0.0013469820042791847,0.02343068466424736,-2.0604587722572454e-05,0.011717923203566016,-3.6157946285753084e-05,-0.00899649715352957
186,0.0187,164.884,500.526,3.32363e-05,287.282,-0.315029,-0.544793,-0.00135682,0.0117112,-0.00908865,0.023286,-2.07639e-05,-3.64379e-05,0.015557,-0.0013558999359113422,0.02355923563107276,-2.0763684431712726e-05,0.011780044591157779,-3.643723614776828e-05,-0.00904747306260445
187,0.0188,165.026,500.97,3.3241e-05,287.533,-0.315894,-0.546286,-0.00136575,0.0117726,-0.00914008,0.0234116,-2.09233e-05,-3.67176e-05,0.0156538,-0.001364817787906647,0.02368780274491389,-2.0923081109236463e-05,0.011842169793119917,-3.6716925917223975e-05,-0.009098436440530322
188,0.0189,165.167,501.412,3.32391e-05,287.783,-0.316754,-0.54777,-0.00137468,0.0118339,-0.00919152,0.0235371,-2.10829e-05,-3.69977e-05,0.0157506,-0.0013737355602658763,0.023816283626165058,-2.1082677757244817e-05,0.011904197619261536,-3.699701559356505e-05,-0.009149407105982998
189,0.019,165.307,501.852,3.32307e-05,288.032,-0.317609,-0.549247,-0.00138361,0.0118953,-0.00924295,0.0236627,-2.12427e-05,-3.72781e-05,0.0158474,-0.0013826532529896962,0.02394488302726172,-2.124247437540472e-05,0.011966330444453721,-3.727740518022493e-05,-0.009200365241575859
190,0.0191,165.447,502.29,3.32159e-05,288.28,-0.31846,-0.550716,-0.00139254,0.0119566,-0.00929439,0.0237882,-2.14027e-05,-3.7559e-05,0.0159442,-0.001391570866078995,0.024073396174113082,-2.140247096382719e-05,0.012028365881876724,-3.755829466955962e-05,-0.009251330663946011
191,0.0192,165.587,502.727,3.31949e-05,288.526,-0.319306,-0.552177,-0.00140148,0.0120179,-0.00934582,0.0239137,-2.1563e-05,-3.78402e-05,0.0160409,-0.0014004983855293585,0.02420192545037625,-2.156276752018904e-05,0.012090405122188397,-3.7839484068658e-05,-0.009302283557744984
192,0.0193,165.725,503.161,3.31677e-05,288.772,-0.320148,-0.55363,-0.00141041,0.0120793,-0.00939725,0.0240393,-2.17234e-05,-3.81218e-05,0.0161377,-0.0014094158392622402,0.024330573291128088,-2.1723164048692567e-05,0.01215254938087229,-3.812107337342052e-05,-0.00935323383110409
193,0.0194,165.863,503.594,3.31345e-05,289.016,-0.320985,-0.555075,-0.00141934,0.0121406,-0.00944867,0.0241648,-2.18841e-05,-3.84038e-05,0.0162345,-0.0014183332133627102,0.024459134845144836,-2.1883860544802403e-05,0.012214596233865782,-3.8403062583514114e-05,-0.009404171578199838
194,0.0195,166.001,504.024,3.30953e-05,289.259,-0.321818,-0.556513,-0.00142828,0.0122019,-0.00950009,0.0242903,-2.2045e-05,-3.86862e-05,0.0163313,-0.0014272604935587907,0.024587712534649198,-2.204475701073072e-05,0.012276646890448273,-3.868545169860571e-05,-0.009455106706143912
195,0.0196,166.138,504.453,3.30503e-05,289.502,-0.322647,-0.557944,-0.00143722,0.0122632,-0.00955151,0.0244157,-2.22061e-05,-3.89689e-05,0.0164281,-0.0014361876939453788,0.02471620389004059,-2.2205853446366497e-05,0.012338701350852244,-3.896814072223975e-05,-0.009506039215071094
196,0.0197,166.274,504.88,3.29996e-05,289.743,-0.323471,-0.559367,-0.00144616,0.0123245,-0.00960293,0.0245412,-2.23674e-05,-3.9252e-05,0.0165249,-0.0014451148145230297,0.024844813843734714,-2.236714985159871e-05,0.012400759615311507,-3.925122965031669e-05,-0.009556969105115942
197,0.0198,166.41,505.305,3.29432e-05,289.983,-0.324291,-0.560783,-0.00145509,0.0123858,-0.00965435,0.0246667,-2.25289e-05,-3.95355e-05,0.0166217,-0.0014540318698330612,0.024973439938990705,-2.2528646226205318e-05,0.012462821684058989,-3.953471848239243e-05,-0.009607896376413239
198,0.0199,166.545,505.728,3.28813e-05,290.222,-0.325107,-0.562191,-0.00146403,0.0124471,-0.00970577,0.0247921,-2.26906e-05,-3.98193e-05,0.0167185,-0.001462958830884542,0.025101979667631502,-2.269034257029734e-05,0.012524887557327835,-3.981850722223346e-05,-0.00965882102909743
199,0.02,166.679,506.149,3.2814e-05,290.46,-0.325919,-0.563592,-0.00147298,0.0125084,-0.00975718,0.0249176,-2.28525e-05,-4.01034e-05,0.0168153,-0.0014718956974104636,0.025230638039223763,-2.285223888365273e-05,0.012586957235351193,-4.0102595869395685e-05,-0.009709733160400802
200,0.0201,166.813,506.569,3.27414e-05,290.697,-0.326727,-0.564987,-0.00148192,0.0125697,-0.00980859,0.025043,-2.30146e-05,-4.0388e-05,0.0169121,-0.001480822498760137,0.025359210022528833,-2.301433516616047e-05,0.01264903071836243,-4.038718441568001e-05,-0.009760642674378817
201,0.0202,166.947,506.986,3.26635e-05,290.934,-0.32753,-0.566374,-0.00149086,0.0126309,-0.00985999,0.0251684,-2.3177e-05,-4.06729e-05,0.0170089,-0.001489749220304426,0.025487798129771422,-2.3176731415386342e-05,0.012711006735489194,-4.067207286884145e-05,-0.009811539669281388
202,0.0203,167.079,507.402,3.25804e-05,291.169,-0.32833,-0.567754,-0.0014998,0.0126922,-0.0099114,0.0252938,-2.33395e-05,-4.09581e-05,0.0171057,-0.0014986758620442187,0.02561640236297391,-2.3339227635976734e-05,0.012773087822968154,-4.0957261228435904e-05,-0.009862443949521182
203,0.0204,167.212,507.817,3.24923e-05,291.403,-0.329126,-0.569127,-0.00150875,0.0127534,-0.0099628,0.0254192,-2.35022e-05,-4.12437e-05,0.0172025,-0.0015076124089041798,0.02574502272415824,-2.350192382549743e-05,0.01283507143262197,-4.124284949025281e-05,-0.009913335711972726
204,0.0205,167.343,508.229,3.23991e-05,291.636,-0.329917,-0.570494,-0.00151769,0.0128147,-0.0100142,0.0255446,-2.36651e-05,-4.15296e-05,0.0172993,-0.0015165388909478272,0.025873659215347233,-2.3664819983726382e-05,0.012897160125499685,-4.1528737658058645e-05,-0.00996422485865478
205,0.0206,167.475,508.64,3.23011e-05,291.868,-0.330705,-0.571853,-0.00152664,0.0128759,-0.0100656,0.02567,-2.38282e-05,-4.18159e-05,0.0173961,-0.0015254752779343406,0.02600231183856372,-2.3827916110663594e-05,0.012959151328610918,-4.1815025727420796e-05,-0.010015111389702014
206,0.0207,167.605,509.049,3.21982e-05,292.099,-0.331489,-0.573206,-0.00153559,0.0129372,-0.010117,0.0257953,-2.39915e-05,-4.21025e-05,0.0174929,-0.0015344115849406093,0.026130877982737832,-2.3991212206309065e-05,0.013021247627819532,-4.210161370221677e-05,-0.010065995305248765
207,0.0208,167.735,509.457,3.20906e-05,292.33,-0.332269,-0.574552,-0.00154454,0.0129984,-0.0101684,0.0259207,-2.4155e-05,-4.23894e-05,0.0175898,-0.0015433478119671884,0.026259562863210295,-2.4154708270329728e-05,0.013083246425318107,-4.238850158211349e-05,-0.010116876605429481
208,0.0209,167.865,509.863,3.19783e-05,292.559,-0.333045,-0.575892,-0.00155349,0.0130597,-0.0102198,0.026046,-2.43187e-05,-4.26767e-05,0.0176866,-0.0015522839590149662,0.026388161242957286,-2.4318404302836605e-05,0.013145350331789318,-4.267578936256733e-05,-0.0101677552903785
209,0.021,167.994,510.267,3.18614e-05,292.787,-0.333817,-0.577225,-0.00156243,0.0131209,-0.0102712,0.0261713,-2.44826e-05,-4.29644e-05,0.0177834,-0.0015612100416967367,0.02651677573709077,-2.448230030360765e-05,0.013207356724605823,-4.2963477043356235e-05,-0.010218631360230379
210,0.0211,168.122,510.669,3.17399e-05,293.015,-0.334586,-0.578552,-0.00157139,0.0131821,-0.0103226,0.0262967,-2.46467e-05,-4.32523e-05,0.0178802,-0.0015701560131767822,0.026645509012175772,-2.4646396272531845e-05,0.013269366912329827,-4.3251364632790334e-05,-0.010269504815119568
211,0.0212,168.25,511.07,3.16141e-05,293.241,-0.335351,-0.579872,-0.00158034,0.0132433,-0.0103739,0.026422,-2.48109e-05,-4.35406e-05,0.017977,-0.0015790919202921527,0.026774155754005102,-2.4810592212154425e-05,0.013331380895193368,-4.3539652121782346e-05,-0.010320276687212804
212,0.0213,168.378,511.47,3.14838e-05,293.467,-0.336112,-0.581186,-0.00158929,0.0133045,-0.0104253,0.0265473,-2.49754e-05,-4.38292e-05,0.0180738,-0.0015880277474316085,0.026902818616281188,-2.497508811727389e-05,0.013393398673428702,-4.3828239514653866e-05,-0.010371144917666442
213,0.0214,168.505,511.867,3.13492e-05,293.692,-0.33687,-0.582494,-0.00159824,0.0133657,-0.0104767,0.0266725,-2.514e-05,-4.41182e-05,0.0181707,-0.0015969634945958155,0.02703139489787909,-2.51396839928697e-05,0.013455420247268313,-4.411722680652819e-05,-0.010422010533560067
214,0.0215,168.631,512.263,3.12104e-05,293.916,-0.337624,-0.583795,-0.0016072,0.0134269,-0.0105281,0.0267978,-2.53048e-05,-4.44074e-05,0.0182675,-0.0016059091457262253,0.027160089994239245,-2.5304479836285587e-05,0.013517445616944457,-4.44064140060485e-05,-0.010472873535028349
215,0.0216,168.757,512.658,3.10673e-05,294.138,-0.338374,-0.58509,-0.00161615,0.0134881,-0.0105794,0.0269231,-2.54698e-05,-4.4697e-05,0.0183643,-0.0016148447328525606,0.027288801217105307,-2.5469475647410533e-05,0.013579474782689394,-4.46960011040165e-05,-0.010523634974573981
216,0.0217,168.882,513.051,3.09202e-05,294.361,-0.339121,-0.58638,-0.0016251,0.0135493,-0.0106308,0.0270483,-2.5635e-05,-4.49869e-05,0.0184611,-0.0016237802400057566,0.027417425826750108,-2.5634671426244537e-05,0.013641507744735382,-4.498588810464277e-05,-0.010574492752680187
217,0.0218,169.007,513.442,3.0769e-05,294.582,-0.339864,-0.587663,-0.00163406,0.0136104,-0.0106822,0.0271736,-2.58003e-05,-4.52771e-05,0.0185579,-0.001632725650859368,0.027546169295816103,-2.5799967175110794e-05,0.013703443132965454,-4.527607500759423e-05,-0.010625347916763728
218,0.0219,169.132,513.832,3.06138e-05,294.802,-0.340604,-0.58894,-0.00164302,0.0136716,-0.0107335,0.0272988,-2.59659e-05,-4.55676e-05,0.0186547,-0.0016416709815624264,0.02767482612996175,-2.5965562888918825e-05,0.013765483682106616,-4.556656181264884e-05,-0.010676101534574212
219,0.022,169.256,514.221,3.04547e-05,295.022,-0.341341,-0.590211,-0.00165197,0.0137328,-0.0107849,0.027424,-2.61316e-05,-4.58585e-05,0.0187516,-0.0016506062486216777,0.027803499072951432,-2.613125857275911e-05,0.013827528028245606,-4.585744851504092e-05,-0.010726951476100588
220,0.0221,169.379,514.608,3.02917e-05,295.24,-0.342074,-0.591476,-0.00166093,0.0137939,-0.0108363,0.0275492,-2.62975e-05,-4.61496e-05,0.0188484,-0.0016595514191153349,0.027932188126801982,-2.629715422375334e-05,0.013889474782662115,-4.61485351236357e-05,-0.0107777988040072
221,0.0222,169.502,514.993,3.01249e-05,295.458,-0.342804,-0.592735,-0.00166989,0.0138551,-0.0108876,0.0276744,-2.64635e-05,-4.64411e-05,0.0189452,-0.0016684965094605486,0.028060893293530897,-2.64631498446688e-05,0.01395152671728872,-4.6440021628790795e-05,-0.010828544601287793
222,0.0223,169.625,515.377,2.99543e-05,295.675,-0.34353,-0.593989,-0.00167885,0.0139162,-0.010939,0.0277996,-2.66298e-05,-4.67329e-05,0.019042,-0.001677441519658096,0.02818961457515523,-2.662944542997092e-05,0.014013481048256615,-4.673180803504984e-05,-0.01087938670744193
223,0.0224,169.747,515.76,2.978e-05,295.891,-0.344253,-0.595237,-0.00168781,0.0139773,-0.0109903,0.0279248,-2.67962e-05,-4.70249e-05,0.0191388,-0.0016863864497087544,0.028318351973692923,-2.6795840985083252e-05,0.014075439164749959,-4.7023794346734427e-05,-0.010930127293396708
224,0.0225,169.868,516.141,2.9602e-05,296.106,-0.344973,-0.596479,-0.00169677,0.0140385,-0.0110417,0.0280499,-2.69627e-05,-4.73173e-05,0.0192356,-0.0016953312996131897,0.02844700264645672,-2.6962336509672724e-05,0.014137502480744857,-4.731618055420217e-05,-0.010980964178334718
225,0.0226,169.989,516.52,2.94204e-05,296.321,-0.345689,-0.597716,-0.00170573,0.0140996,-0.011093,0.0281751,-2.71295e-05,-4.761e-05,0.0193325,-0.0017042760693720682,0.028575772271998368,-2.7129131998426814e-05,0.014199468175179142,-4.7608866661885685e-05,-0.011031699553498808
226,0.0227,170.11,516.898,2.92353e-05,296.534,-0.346402,-0.598947,-0.00171469,0.0141607,-0.0111444,0.0283002,-2.72964e-05,-4.7903e-05,0.0194293,-0.001713220758986167,0.02870445515005593,-2.7296027456658045e-05,0.014261437655832987,-4.790185266956293e-05,-0.01108253121775682
227,0.0228,170.23,517.275,2.90467e-05,296.747,-0.347113,-0.600172,-0.00172366,0.0142218,-0.0111957,0.0284254,-2.74635e-05,-4.81962e-05,0.0195261,-0.001722175351234645,0.028833257010668856,-2.746312288148811e-05,0.014323410922937763,-4.819503858177754e-05,-0.01113326138266546
228,0.0229,170.35,517.65,2.88547e-05,296.959,-0.347819,-0.601392,-0.00173262,0.0142829,-0.011247,0.0285505,-2.76308e-05,-4.84898e-05,0.0196229,-0.0017311198804719208,0.028961972102081956,-2.7630418272917012e-05,0.01438538797672484,-4.848862438866508e-05,-0.011183988945183465
229,0.023,170.469,518.024,2.86592e-05,297.17,-0.348523,-0.602607,-0.00174158,0.014344,-0.0112984,0.0286756,-2.77982e-05,-4.87836e-05,0.0197197,-0.0017400643295666374,0.029090703296760223,-2.779781363360101e-05,0.014447368817425588,-4.878241009953488e-05,-0.011234812781967918
230,0.0231,170.588,518.397,2.84604e-05,297.381,-0.349224,-0.603816,-0.00175055,0.0144051,-0.0113497,0.0288007,-2.79658e-05,-4.90778e-05,0.0198165,-0.0017490186810292796,0.029219450596718488,-2.7965408960661797e-05,0.0145093534452716,-4.9076595704522497e-05,-0.01128553513503272
231,0.0232,170.707,518.768,2.82582e-05,297.591,-0.349921,-0.60502,-0.00175951,0.0144662,-0.011401,0.0289258,-2.81335e-05,-4.93722e-05,0.0199133,-0.001757962969751392,0.029348214003971362,-2.8133104256755637e-05,0.014571341860493803,-4.937098121293726e-05,-0.011336254886107566
232,0.0233,170.825,519.138,2.80528e-05,297.8,-0.350616,-0.606218,-0.00176848,0.0145273,-0.0114523,0.0290508,-2.83015e-05,-4.96669e-05,0.0200102,-0.0017669171606639056,0.029476890572839753,-2.830109951634796e-05,0.01463333406332401,-4.966566661990246e-05,-0.011386972035325904
233,0.0234,170.942,519.506,2.78442e-05,298.008,-0.351307,-0.607411,-0.00177744,0.0145884,-0.0115037,0.0291759,-2.84695e-05,-4.9962e-05,0.020107,-0.0017758612890164116,0.0296056861878482,-2.8469094747629597e-05,0.014695330053993372,-4.99607519200973e-05,-0.01143778543904761
234,0.0235,171.059,519.873,2.76324e-05,298.215,-0.351996,-0.608599,-0.00178641,0.0146495,-0.011555,0.0293009,-2.86378e-05,-5.02572e-05,0.0202038,-0.001784815319381794,0.02973439494275132,-2.8637389942076652e-05,0.014757329832733701,-5.0255937128040884e-05,-0.011488497379882112
235,0.0236,171.176,520.239,2.74175e-05,298.422,-0.352681,-0.609782,-0.00179538,0.0147105,-0.0116063,0.029426,-2.88062e-05,-5.05528e-05,0.0203006,-0.001793769269429868,0.02986322277357134,-2.8805785105445736e-05,0.014819231917847953,-5.055152222877002e-05,-0.011539206719260897
236,0.0237,171.292,520.603,2.71994e-05,298.628,-0.353364,-0.61096,-0.00180434,0.0147716,-0.0116576,0.029551,-2.89747e-05,-5.08487e-05,0.0203974,-0.0018027131571884958,0.029991963722559856,-2.8974280237403782e-05,0.01488123926722329,-5.084740722671732e-05,-0.011589913457317191
237,0.0238,171.408,520.967,2.69784e-05,298.833,-0.354043,-0.612133,-0.00181331,0.0148326,-0.0117089,0.029676,-2.91435e-05,-5.11448e-05,0.0204942,-0.0018116669466936575,0.03012072076517258,-2.91430753323052e-05,0.014943148911043647,-5.114349212698155e-05,-0.011640617594184666
238,0.0239,171.523,521.328,2.67543e-05,299.037,-0.35472,-0.6133,-0.00182228,0.0148937,-0.0117602,0.029801,-2.93123e-05,-5.14412e-05,0.020591,-0.0018206206558837312,0.030249493903421687,-2.931187039878491e-05,0.015005163831978585,-5.143987692413088e-05,-0.011691319129996547
239,0.024,171.638,521.689,2.65272e-05,299.241,-0.355393,-0.614463,-0.00183125,0.0149547,-0.0118115,0.029926,-2.94814e-05,-5.17379e-05,0.0206878,-0.0018295742847593832,0.030378283139319118,-2.9480965427763905e-05,0.015067081035427865,-5.1736561617943266e-05,-0.011742018064886395
240,0.0241,171.753,522.048,2.62972e-05,299.444,-0.356064,-0.615621,-0.00184022,0.0150158,-0.0118628,0.030051,-2.96505e-05,-5.20348e-05,0.0207846,-0.0018385278333212796,0.030507088474877486,-2.965006042832119e-05,0.015129103528846999,-5.203344621329542e-05,-0.011792714398987547
241,0.0242,171.867,522.406,2.60643e-05,299.646,-0.356732,-0.616773,-0.00184919,0.0150768,-0.0119141,0.030176,-2.98199e-05,-5.23321e-05,0.0208814,-0.0018474813015701974,0.03063590991210874,-2.9819455391155714e-05,0.015191028292848241,-5.233073069954575e-05,-0.011843408132433564
242,0.0243,171.981,522.763,2.58286e-05,299.848,-0.357398,-0.617921,-0.00185816,0.0151378,-0.0119654,0.0303009,-2.99894e-05,-5.26295e-05,0.0209782,-0.001856434689506914,0.030764644376556793,-2.9988950322468177e-05,0.015252956834375553,-5.2628115092212546e-05,-0.011894099265357672
243,0.0244,172.094,523.118,2.559e-05,300.048,-0.35806,-0.619064,-0.00186713,0.0151988,-0.0120167,0.0304259,-3.0159e-05,-5.29273e-05,0.021075,-0.0018653879971322063,0.03089349801028818,-3.0158545221925515e-05,0.015314889153658973,-5.292589937522241e-05,-0.01194478779789332
244,0.0245,172.207,523.473,2.53486e-05,300.248,-0.35872,-0.620203,-0.0018761,0.0152598,-0.012068,0.0305508,-3.03288e-05,-5.32253e-05,0.0211718,-0.0018743412244465185,0.031022264649498865,-3.032834008664942e-05,0.015376825250928983,-5.3223883558883855e-05,-0.011995473730174067
245,0.0246,172.32,523.826,2.51045e-05,300.448,-0.359376,-0.621336,-0.00188507,0.0153208,-0.0121193,0.0306757,-3.04988e-05,-5.35236e-05,0.0212686,-0.0018832943714508499,0.031151047372667273,-3.0498334916306824e-05,0.015438765126416287,-5.352216763765405e-05,-0.01204615706233314
246,0.0247,172.432,524.177,2.48577e-05,300.646,-0.360031,-0.622465,-0.00189405,0.0153818,-0.0121706,0.0308006,-3.06689e-05,-5.38222e-05,0.0213654,-0.0018922574192232755,0.03127984618180224,-3.06684297141091e-05,0.015500708780351369,-5.382075161142197e-05,-0.012096837794503879
247,0.0248,172.544,524.528,2.46082e-05,300.845,-0.360682,-0.623589,-0.00190302,0.0154428,-0.0122218,0.0309255,-3.08391e-05,-5.4121e-05,0.0214622,-0.0019012104055199375,0.03140866107891327,-3.083862447983421e-05,0.015562656212964487,-5.411953548506432e-05,-0.01214741714156653
248,0.0249,172.655,524.877,2.4356e-05,301.042,-0.361331,-0.624709,-0.00191199,0.0155038,-0.0122731,0.0310504,-3.10095e-05,-5.44201e-05,0.0215589,-0.001910163311508839,0.03153749206600964,-3.1009019210381794e-05,0.015624607424486125,-5.44186192532603e-05,-0.012198092679228445
249,0.025,172.766,525.225,2.41013e-05,301.238,-0.361977,-0.625824,-0.00192097,0.0155648,-0.0123244,0.0311753,-3.11801e-05,-5.47194e-05,0.0216557,-0.0019191261179991592,0.03166633914510131,-3.117961390575186e-05,0.015686562415146987,-5.471790292088663e-05,-0.012248765617302038
250,0.0251,172.877,525.572,2.38439e-05,301.434,-0.362621,-0.626934,-0.00192994,0.0156258,-0.0123757,0.0313002,-3.13507e-05,-5.5019e-05,0.0217525,-0.0019280788632848322,0.03179520231819821,-3.1350208571923055e-05,0.015748521185177555,-5.50174864826225e-05,-0.012299435955920646
251,0.0252,172.987,525.918,2.3584e-05,301.63,-0.363261,-0.62804,-0.00193891,0.0156867,-0.0124269,0.031425,-3.15216e-05,-5.53188e-05,0.0218493,-0.0019370315282646322,0.03192397839490746,-3.1521103199594336e-05,0.01581038215376518,-5.531726994334463e-05,-0.012350004930222869
252,0.0253,173.097,526.263,2.33215e-05,301.824,-0.3639,-0.629141,-0.00194789,0.0157477,-0.0124782,0.0315499,-3.16926e-05,-5.56189e-05,0.0219461,-0.0019459940934795084,0.03205287374915633,-3.169209779485538e-05,0.01587234847703023,-5.5617353297621186e-05,-0.012400670075397913
253,0.0254,173.207,526.606,2.30566e-05,302.018,-0.364535,-0.630238,-0.00195686,0.0158087,-0.0125294,0.0316747,-3.18637e-05,-5.59193e-05,0.0220428,-0.0019549465977605207,0.03218168198526694,-3.186319235770618e-05,0.01593431858035621,-5.591773654511911e-05,-0.012451233866645928
254,0.0255,173.316,526.948,2.27892e-05,302.212,-0.365168,-0.63133,-0.00196584,0.0158696,-0.0125807,0.0317995,-3.20349e-05,-5.62199e-05,0.0221396,-0.0019639090020987515,0.032310506297648756,-3.2034386888035726e-05,0.01599619086434978,-5.621831969104818e-05,-0.012501893818909648
255,0.0256,173.425,527.289,2.25193e-05,302.404,-0.365799,-0.632419,-0.00197482,0.0159306,-0.012632,0.0319243,-3.22063e-05,-5.65207e-05,0.0222364,-0.001972871325955028,0.032439346688307724,-3.220578138263264e-05,0.016058168522291805,-5.6519102735297366e-05,-0.012552551172384518
256,0.0257,173.533,527.629,2.22471e-05,302.596,-0.366427,-0.633502,-0.00198379,0.0159915,-0.0126832,0.0320491,-3.23779e-05,-5.68218e-05,0.0223332,-0.001981823589148224,0.03256820315925113,-3.2377375841496914e-05,0.016120048348976512,-5.6820185672101786e-05,-0.012603107187519447
257,0.0258,173.641,527.968,2.19725e-05,302.788,-0.367053,-0.634582,-0.00199277,0.0160524,-0.0127345,0.0321739,-3.25496e-05,-5.71231e-05,0.0224299,-0.001990785752132296,0.03269707571248537,-3.254907026750686e-05,0.01618193194425732,-5.7121468506782236e-05,-0.012653759348881688
258,0.0259,173.749,528.306,2.16955e-05,302.979,-0.367676,-0.635657,-0.00200175,0.0161133,-0.0127857,0.0322987,-3.27214e-05,-5.74247e-05,0.0225267,-0.0019997478346364117,0.032825964350017944,-3.272086466088453e-05,0.016243819308363827,-5.742305123346281e-05,-0.012704310182290679
259,0.026,173.856,528.643,2.14162e-05,303.169,-0.368296,-0.636728,-0.00201072,0.0161743,-0.0128369,0.0324235,-3.28933e-05,-5.77265e-05,0.0226235,-0.0020086998567484526,0.03295486907385636,-3.289275902129685e-05,0.016305812072101578,-5.772483385768634e-05,-0.012754858427563187
260,0.0261,173.963,528.978,2.11345e-05,303.358,-0.368915,-0.637794,-0.0020197,0.0162352,-0.0128882,0.0325482,-3.30654e-05,-5.80286e-05,0.0227202,-0.002017661778384694,0.033083686577634275,-3.3064853345643463e-05,0.01636770698073775,-5.8026916373354887e-05,-0.012805502804286495
261,0.0262,174.07,529.313,2.08507e-05,303.547,-0.36953,-0.638857,-0.00202868,0.0162961,-0.0129394,0.032673,-3.32377e-05,-5.83309e-05,0.022817,-0.0020266236195431997,0.03321262346721365,-3.323714763381336e-05,0.016429605658888402,-5.8329198786122305e-05,-0.012856045868629429
262,0.0263,174.176,529.646,2.05645e-05,303.735,-0.370144,-0.639915,-0.00203766,0.016357,-0.0129906,0.0327977,-3.34101e-05,-5.86335e-05,0.0229137,-0.002035585380224636,0.0333414731149686,-3.340954188879586e-05,0.016491508106783348,-5.8631781089890644e-05,-0.012906586345233673
263,0.0264,174.282,529.978,2.02762e-05,303.923,-0.370755,-0.64097,-0.00204664,0.0164179,-0.0130419,0.0329224,-3.35826e-05,-5.89362e-05,0.0230105,-0.002044547060430002,0.03347033883127648,-3.358203611081301e-05,0.016553414324652405,-5.89344632963007e-05,-0.012957222938514534
264,0.0265,174.388,530.309,1.99856e-05,304.11,-0.371363,-0.64202,-0.00205561,0.0164788,-0.0130931,0.0330471,-3.37552e-05,-5.92393e-05,0.0231072,-0.0020534986806947098,0.033599220618141246,-3.375463029964276e-05,0.016615324312724722,-5.9237545387280655e-05,-0.013007758234985345
265,0.0266,174.493,530.639,1.96929e-05,304.296,-0.37197,-0.643066,-0.00206459,0.0165397,-0.0131443,0.0331718,-3.3928e-05,-5.95425e-05,0.023204,-0.0020624602000393066,0.03372811847756685,-3.392742445196273e-05,0.016677238071230116,-5.954072738056926e-05,-0.01305829094411537
266,0.0267,174.598,530.968,1.9398e-05,304.482,-0.372574,-0.644108,-0.00207357,0.0166005,-0.0131955,0.0332965,-3.41009e-05,-5.9846e-05,0.0233007,-0.0020714216389098317,0.033857032411557686,-3.4100318570873256e-05,0.01673905392648778,-5.984420926385958e-05,-0.013108821066036835
267,0.0268,174.702,531.296,1.9101e-05,304.667,-0.373175,-0.645146,-0.00208255,0.0166614,-0.0132467,0.0334212,-3.42739e-05,-6.01497e-05,0.0233975,-0.002080382997306951,0.033985962422118376,-3.427331265659639e-05,0.016800975220356174,-6.0147891043027535e-05,-0.013159348600882415
268,0.0269,174.806,531.623,1.88019e-05,304.852,-0.373775,-0.64618,-0.00209153,0.0167223,-0.0132979,0.0335458,-3.44471e-05,-6.04537e-05,0.0234942,-0.0020893442752314417,0.034114805099768386,-3.4446506705476665e-05,0.016862900285346205,-6.045187271186414e-05,-0.013209873548784334
269,0.027,174.91,531.949,1.85007e-05,305.036,-0.374372,-0.64721,-0.00210051,0.0167831,-0.0133491,0.0336705,-3.46204e-05,-6.07579e-05,0.0235909,-0.00209830547268397,0.03424376725658762,-3.461980072083648e-05,0.016924727429209696,-6.0756054276134286e-05,-0.013260395909875156
270,0.0271,175.014,532.274,1.81974e-05,305.22,-0.374967,-0.648236,-0.00210949,0.016844,-0.0134003,0.0337951,-3.47938e-05,-6.10623e-05,0.0236877,-0.002107266589665313,0.03437264205872137,-3.4793194702786856e-05,0.01698666003093874,-6.106043573572695e-05,-0.013310915684287217
271,0.0272,175.117,532.598,1.78921e-05,305.402,-0.375559,-0.649259,-0.00211847,0.0169049,-0.0134515,0.0339198,-3.49674e-05,-6.13669e-05,0.0237844,-0.002116227626176248,0.03450163636981407,-3.496678864756131e-05,0.017048596404477978,-6.136501709030906e-05,-0.01336143287215319
272,0.0273,175.22,532.921,1.75848e-05,305.585,-0.37615,-0.650277,-0.00212746,0.0169657,-0.0135027,0.0340444,-3.51411e-05,-6.16717e-05,0.0238811,-0.002125198560965491,0.03463054330444115,-3.51404825588153e-05,0.01711043483900876,-6.16697983397696e-05,-0.013411947473605301
273,0.0274,175.323,533.242,1.72755e-05,305.766,-0.376738,-0.651292,-0.00213644,0.0170265,-0.0135539,0.034169,-3.53149e-05,-6.19768e-05,0.0239778,-0.002134159436448013,0.034759466301872655,-3.5314276436215764e-05,0.017172277033430605,-6.197487947778857e-05,-0.013462459488776002
274,0.0275,175.425,533.563,1.69642e-05,305.948,-0.377324,-0.652303,-0.00214542,0.0170874,-0.0136051,0.0342936,-3.54888e-05,-6.22821e-05,0.0240746,-0.0021431202314622366,0.03488840536411075,-3.548817027998474e-05,0.01723422471138969,-6.228016051024188e-05,-0.01351296891779774
275,0.0276,175.527,533.883,1.6651e-05,306.128,-0.377907,-0.65331,-0.0021544,0.0171482,-0.0136563,0.0344182,-3.56629e-05,-6.25877e-05,0.0241713,-0.0021520809460089385,0.035017360493156735,-3.5662264086355755e-05,0.017296074432464614,-6.258574143080953e-05,-0.013563475760802968
276,0.0277,175.628,534.202,1.63358e-05,306.308,-0.378489,-0.654314,-0.00216338,0.017209,-0.0137075,0.0345427,-3.58371e-05,-6.28934e-05,0.024268,-0.002161041580088674,0.03514622817638502,-3.5836457858762216e-05,0.017357927914116944,-6.28914222515764e-05,-0.013613980017924021
277,0.0278,175.73,534.52,1.60187e-05,306.488,-0.379068,-0.655313,-0.00217236,0.0172698,-0.0137587,0.0346673,-3.60114e-05,-6.31994e-05,0.0243647,-0.002170002133702331,0.03527521543215495,-3.601075159731515e-05,0.017419785156575163,-6.319740296001353e-05,-0.01366448168929324
278,0.0279,175.831,534.836,1.56997e-05,306.667,-0.379646,-0.656309,-0.00218135,0.0173306,-0.0138098,0.0347918,-3.61858e-05,-6.35055e-05,0.0244614,-0.0021789725850609454,0.0354041152203215,-3.618514530179251e-05,0.0174816461600682,-6.350348356842783e-05,-0.013714882146536267
279,0.028,175.931,535.152,1.53788e-05,306.845,-0.380221,-0.657302,-0.00219033,0.0173914,-0.013861,0.0349164,-3.63604e-05,-6.38119e-05,0.0245581,-0.0021879329776549605,0.035533134610819195,-3.635973896864986e-05,0.017543510924824535,-6.38098640640683e-05,-0.013765378651848792
280,0.0281,176.032,535.467,1.50561e-05,307.023,-0.380794,-0.658291,-0.00219931,0.0174522,-0.0139122,0.0350409,-3.65351e-05,-6.41185e-05,0.0246548,-0.002196893289784896,0.0356620665119225,-3.653443260132061e-05,0.017605379451072878,-6.411644445292186e-05,-0.013815872571806498
281,0.0282,176.132,535.781,1.47315e-05,307.2,-0.381365,-0.659276,-0.0022083,0.017513,-0.0139633,0.0351654,-3.67099e-05,-6.44254e-05,0.0247515,-0.0022058634993931125,0.03579101446604671,-3.670922619991579e-05,0.017667251739041934,-6.442332472844647e-05,-0.01386626529317303
282,0.0283,176.232,536.094,1.44051e-05,307.377,-0.381934,-0.660257,-0.00221728,0.0175738,-0.0140145,0.0352899,-3.68848e-05,-6.47324e-05,0.0248482,-0.0022148236505077357,0.035919978475190906,-3.688411976410233e-05,0.01772912778896063,-6.473030490339315e-05,-0.013916754047866853
283,0.0284,176.331,536.406,1.40769e-05,307.553,-0.382501,-0.661235,-0.00222626,0.0176346,-0.0140657,0.0354144,-3.70599e-05,-6.50397e-05,0.0249449,-0.0022237837211606104,0.03604895854135348,-3.705921329033579e-05,0.01779100760105723,-6.50375849645668e-05,-0.01396724021760265
284,0.0285,176.43,536.717,1.37469e-05,307.729,-0.383066,-0.66221,-0.00223525,0.0176954,-0.0141168,0.0355389,-3.72351e-05,-6.53471e-05,0.0250416,-0.002232753689024869,0.03617795466653395,-3.7234406782271634e-05,0.017852891175561103,-6.534496492471842e-05,-0.014017625204280182
285,0.0286,176.529,537.027,1.34151e-05,307.904,-0.383629,-0.663181,-0.00224423,0.0177561,-0.014168,0.0356633,-3.74103e-05,-6.56548e-05,0.0251383,-0.0022417135986666503,0.036306863222040464,-3.74096002434543e-05,0.017914676721227707,-6.565264477076393e-05,-0.014068106209545017
286,0.0287,176.628,537.337,1.30815e-05,308.078,-0.384189,-0.664148,-0.00225321,0.0178169,-0.0142191,0.0357878,-3.75858e-05,-6.59627e-05,0.0252349,-0.002250673427848904,0.03643589145835269,-3.758509366269536e-05,0.017976567815042532,-6.596052450891232e-05,-0.014118486042101974
287,0.0288,176.726,537.645,1.27463e-05,308.252,-0.384748,-0.665112,-0.0022622,0.0178776,-0.0142703,0.0359122,-3.77613e-05,-6.62707e-05,0.0253316,-0.0022596431539757544,0.03656483210319195,-3.7760587051072214e-05,0.01803836086810917,-6.626850414570562e-05,-0.014168961883424092
288,0.0289,176.824,537.952,1.24093e-05,308.426,-0.385305,-0.666073,-0.00227118,0.0179384,-0.0143214,0.0360367,-3.79369e-05,-6.6579e-05,0.0254283,-0.0022686028221512444,0.036693892458629085,-3.793618040492941e-05,0.018100259482148662,-6.657678366761566e-05,-0.01421933656238783
289,0.029,176.921,538.259,1.20706e-05,308.599,-0.38586,-0.66703,-0.00228017,0.0179991,-0.0143725,0.0361611,-3.81127e-05,-6.68875e-05,0.0255249,-0.002277572387093696,0.03682286520078937,-3.8111973720278414e-05,0.018162060043527273,-6.688526308107345e-05,-0.014269708667271175
290,0.0291,177.019,538.564,1.17302e-05,308.772,-0.386413,-0.667984,-0.00228915,0.0180599,-0.0144237,0.0362855,-3.82886e-05,-6.71962e-05,0.0256216,-0.00228653189426542,0.03695185398815637,-3.828786700088571e-05,0.018223966178705364,-6.719394238596799e-05,-0.014320176766193127
291,0.0292,177.116,538.869,1.13881e-05,308.944,-0.386964,-0.668935,-0.00229814,0.0181206,-0.0144748,0.0364099,-3.84645e-05,-6.75051e-05,0.0257183,-0.002295501298026137,0.037080858822726936,-3.846376025062881e-05,0.01828577424930855,-6.750282158196619e-05,-0.014370543718273732
292,0.0293,177.213,539.173,1.10444e-05,309.115,-0.387513,-0.669882,-0.00230712,0.0181813,-0.0145259,0.0365343,-3.86407e-05,-6.78142e-05,0.0258149,-0.0023044606441969817,0.03720987970649703,-3.8639953457764165e-05,0.018347586071775224,-6.781190066906806e-05,-0.01442090809666896
293,0.0294,177.309,539.476,1.0699e-05,309.286,-0.38806,-0.670826,-0.00231611,0.018242,-0.014577,0.0366587,-3.88169e-05,-6.81235e-05,0.0259116,-0.0023134298867789616,0.03733891664146349,-3.88161466339243e-05,0.018409401646333423,-6.812117964705156e-05,-0.014471269901510153
294,0.0295,177.405,539.778,1.0352e-05,309.457,-0.388605,-0.671766,-0.00232509,0.0183028,-0.0146282,0.036783,-3.89932e-05,-6.8433e-05,0.0260082,-0.0023223890719517026,0.03746786588283135,-3.899243977500966e-05,0.018471322820338143,-6.843065851569463e-05,-0.014521727680760987
295,0.0296,177.501,540.079,1.00034e-05,309.627,-0.389149,-0.672704,-0.00233408,0.0183635,-0.0146793,0.0369074,-3.91696e-05,-6.87427e-05,0.0261049,-0.002331358153357943,0.03759693491327454,-3.916883288124229e-05,0.018533145905945014,-6.874033727477524e-05,-0.014572084333853041
296,0.0297,177.597,540.379,9.6532e-06,309.796,-0.38969,-0.673638,-0.00234306,0.0184242,-0.0147304,0.0370317,-3.93462e-05,-6.90526e-05,0.0262015,-0.002340317177535578,0.03772591622830679,-3.9345425948411616e-05,0.018594972744327087,-6.905021592407135e-05,-0.014622438413785854
297,0.0298,177.692,540.678,9.30139e-06,309.965,-0.39023,-0.674569,-0.00235205,0.0184849,-0.0147815,0.037156,-3.95229e-05,-6.93627e-05,0.0262981,-0.0023492860977688546,0.03785491357671322,-3.952211898050617e-05,0.01865680333571218,-6.936029446358294e-05,-0.014672789920690987
298,0.0299,177.787,540.977,8.94801e-06,310.134,-0.390768,-0.675496,-0.00236103,0.0185456,-0.0148326,0.0372804,-3.96996e-05,-6.9673e-05,0.0263948,-0.00235824496095427,0.037984030758884346,-3.969881198129244e-05,0.01871863768032811,-6.967057289286593e-05,-0.01472313885469978
299,0.03,177.882,541.275,8.59307e-06,310.302,-0.391303,-0.676421,-0.00237002,0.0186062,-0.0148837,0.0374047,-3.98765e-05,-6.99835e-05,0.0264914,-0.002367213720017469,0.03811306019292071,-3.987570494290438e-05,0.018780373900360026,-6.998105121203135e-05,-0.014773485215943905
300,0.0301,177.977,541.571,8.23658e-06,310.469,-0.391838,-0.677342,-0.00237901,0.0186669,-0.0149348,0.037529,-4.00535e-05,-7.02941e-05,0.026588,-0.0023761823984518315,0.0382421056663127,-4.005269786933052e-05,0.018842215745936697,-7.029162942762124e-05,-0.01482382900455459
301,0.0302,178.071,541.867,7.87856e-06,310.636,-0.39237,-0.67826,-0.00238799,0.0187276,-0.0149859,0.0376532,-4.02306e-05,-7.0605e-05,0.0266846,-0.0023851410201096712,0.03837106334394247,-4.0229790760237805e-05,0.018904061345427436,-7.060250752566333e-05,-0.014874170220663396
302,0.0303,178.165,542.162,7.51902e-06,310.803,-0.3929,-0.679176,-0.00239698,0.0187883,-0.015037,0.0377775,-4.04079e-05,-7.09161e-05,0.0267813,-0.002394109537378397,0.03850014088911946,-4.040708361185974e-05,0.018965910699060062,-7.091358551281068e-05,-0.014924508864401886
303,0.0304,178.259,542.457,7.15797e-06,310.969,-0.393429,-0.680088,-0.00240596,0.0188489,-0.015088,0.0379018,-4.05852e-05,-7.12273e-05,0.0268779,-0.0024030679980511227,0.0386292344796324,-4.058437643195134e-05,0.01902766190429106,-7.122476339604944e-05,-0.014974746433380814
304,0.0305,178.352,542.75,6.79542e-06,311.135,-0.393956,-0.680996,-0.00241495,0.0189096,-0.0151391,0.038026,-4.07626e-05,-7.15387e-05,0.0269745,-0.002412036354156988,0.03875824024164687,-4.076176921652408e-05,0.019089518760705193,-7.153614116817142e-05,-0.015025079937806107
305,0.0306,178.446,543.043,6.43139e-06,311.3,-0.394481,-0.681902,-0.00242394,0.0189702,-0.0151902,0.0381503,-4.09402e-05,-7.18503e-05,0.0270711,-0.0024210046296377907,0.03888736591590325,-4.0939361961478404e-05,0.019151277456811666,-7.18477188290656e-05,-0.01507541087025499
306,0.0307,178.539,543.335,6.06589e-06,311.465,-0.395004,-0.682805,-0.00243292,0.0190309,-0.0152413,0.0382745,-4.11178e-05,-7.21621e-05,0.0271677,-0.0024299628487937097,0.03901640373983306,-4.1116954674902395e-05,0.01921314181691769,-7.215949637828789e-05,-0.015125739230859025
307,0.0308,178.631,543.626,5.69893e-06,311.629,-0.395526,-0.683705,-0.00244191,0.0190915,-0.0152923,0.0383987,-4.12956e-05,-7.24741e-05,0.0272643,-0.0024389309631159817,0.03914545759125576,-4.129474734848593e-05,0.019274908004808466,-7.24714738158383e-05,-0.015175966537350982
308,0.0309,178.724,543.916,5.33053e-06,311.793,-0.396046,-0.684602,-0.0024509,0.0191521,-0.0153434,0.0385229,-4.14734e-05,-7.27863e-05,0.0273609,-0.00244789899681519,0.0392745274721622,-4.14725399904281e-05,0.019336677935843483,-7.278365114149477e-05,-0.015226289759691647
309,0.031,178.816,544.205,4.96069e-06,311.956,-0.396564,-0.685496,-0.00245988,0.0192128,-0.0153945,0.0386471,-4.16514e-05,-7.30987e-05,0.0274574,-0.0024568569744608526,0.03940361338454346,-4.165053259252982e-05,0.019398553550100006,-7.309602835514628e-05,-0.01527661041058137
310,0.0311,178.908,544.494,4.58942e-06,312.119,-0.397081,-0.686387,-0.00246887,0.0192734,-0.0154455,0.0387713,-4.18294e-05,-7.34112e-05,0.027554,-0.0024658248470059707,0.03953271533039082,-4.182852516287916e-05,0.019460330974282236,-7.340850546377897e-05,-0.01532683002283941
311,0.0312,178.999,544.781,4.21675e-06,312.281,-0.397595,-0.687275,-0.00247785,0.019334,-0.0154966,0.0388954,-4.20076e-05,-7.37239e-05,0.0276506,-0.0024747826636781767,0.03966172934551726,-4.2006717693165996e-05,0.019522112142289716,-7.372118246007364e-05,-0.015377145536252912
312,0.0313,179.091,545.068,3.84267e-06,312.443,-0.398109,-0.68816,-0.00248684,0.0193946,-0.0155476,0.0390196,-4.21859e-05,-7.40368e-05,0.0277472,-0.0024837503750722023,0.03979086335135773,-4.218501018737886e-05,0.019583897054349597,-7.403405934380825e-05,-0.015427360021350367
313,0.0314,179.182,545.355,3.46721e-06,312.605,-0.39862,-0.689042,-0.00249583,0.0194552,-0.0155987,0.0391437,-4.23643e-05,-7.43499e-05,0.0278437,-0.002492718005846717,0.03991990940464163,-4.236340264573979e-05,0.019645685710688365,-7.434713611464971e-05,-0.015477670397812227
314,0.0315,179.273,545.64,3.09036e-06,312.766,-0.39913,-0.689921,-0.00250482,0.0195158,-0.0156497,0.0392679,-4.25427e-05,-7.46632e-05,0.0279403,-0.0025016855560026086,0.040049075478436835,-4.25417950721263e-05,0.019707478111533394,-7.466041277259805e-05,-0.015527879756272345
315,0.0316,179.364,545.925,2.71214e-06,312.927,-0.399638,-0.690798,-0.0025138,0.0195764,-0.0157008,0.039392,-4.27213e-05,-7.49766e-05,0.0280369,-0.0025106430506471877,0.040178153577834275,-4.272038745822826e-05,0.01976927425711117,-7.497378932497245e-05,-0.015578184996307032
316,0.0317,179.454,546.209,2.33257e-06,313.087,-0.400144,-0.691672,-0.00252279,0.019637,-0.0157518,0.0395161,-4.29e-05,-7.52902e-05,0.0281334,-0.002519610439657649,0.040307247696817594,-4.2899079808145224e-05,0.01983107414764884,-7.528736576400963e-05,-0.015628389228653394
317,0.0318,179.544,546.492,1.95165e-06,313.247,-0.400649,-0.692542,-0.00253178,0.0196976,-0.0158028,0.0396402,-4.30788e-05,-7.5604e-05,0.02823,-0.002528577748051708,0.0404363578373752,-4.307787212176617e-05,0.019892877783373564,-7.560114208959856e-05,-0.01567859090064916
318,0.0319,179.634,546.774,1.5694e-06,313.406,-0.401153,-0.693411,-0.00254076,0.0197581,-0.0158539,0.0397643,-4.32576e-05,-7.5918e-05,0.0283265,-0.002537535001205349,0.04056548400149573,-4.3256664403523715e-05,0.019954583169048634,-7.59151183015172e-05,-0.015728888439541122
319,0.032,179.724,547.056,1.18581e-06,313.565,-0.401654,-0.694276,-0.00254975,0.0198187,-0.0159049,0.0398883,-4.34366e-05,-7.62321e-05,0.028423,-0.0025465021484583072,0.040694522121709875,-4.343565664455262e-05,0.020016394289646522,-7.62291944073068e-05,-0.015779084986207836
320,0.0321,179.813,547.336,8.00909e-07,313.724,-0.402154,-0.695138,-0.00255874,0.0198793,-0.0159559,0.0400124,-4.36157e-05,-7.65465e-05,0.0285196,-0.0025554692150969727,0.04082368032600603,-4.361474884917449e-05,0.020078209156112026,-7.654357039144077e-05,-0.015829278972916083
321,0.0322,179.902,547.616,4.147e-07,313.882,-0.402653,-0.695998,-0.00256772,0.0199398,-0.0160069,0.0401365,-4.37949e-05,-7.68609e-05,0.0286161,-0.0025644262267664475,0.04095285455982989,-4.3793941017389315e-05,0.02013992575467438,-7.685794627665388e-05,-0.015879470399796203
322,0.0323,179.991,547.896,2.71933e-08,314.039,-0.403149,-0.696855,-0.00257671,0.0200004,-0.0160579,0.0402605,-4.39741e-05,-7.71756e-05,0.0287126,-0.0025733931322683423,0.0410819407169718,-4.397313315340767e-05,0.02020174810737352,-7.717262203998931e-05,-0.015929659266978757
323,0.0324,180.08,548.174,-3.61602e-07,314.196,-0.403645,-0.697709,-0.0025857,0.0200609,-0.0161089,0.0403845,-4.41535e-05,-7.74904e-05,0.0288092,-0.0025823599571581646,0.04121104288178934,-4.415252524858637e-05,0.02026347218026836,-7.748739769652957e-05,-0.01597984557459442
324,0.0325,180.168,548.452,-7.51676e-07,314.353,-0.404138,-0.698561,-0.00259468,0.0201214,-0.01616,0.0405085,-4.4333e-05,-7.78054e-05,0.0289057,-0.0025913167273498017,0.04134016105626803,-4.433201730702496e-05,0.020325199987582643,-7.780237323840034e-05,-0.016030127719765863
325,0.0326,180.257,548.729,-1.14302e-06,314.51,-0.404631,-0.69941,-0.00260367,0.020182,-0.016211,0.0406325,-4.45125e-05,-7.81206e-05,0.0290022,-0.002600283391107183,0.04146929524239318,-4.451150933337811e-05,0.020387033568240343,-7.811754866537957e-05,-0.01608030890362111
326,0.0327,180.345,549.006,-1.53562e-06,314.666,-0.405121,-0.700256,-0.00261266,0.0202425,-0.016262,0.0407565,-4.46922e-05,-7.84359e-05,0.0290987,-0.0026092499742546016,0.04159844544215008,-4.469120131855853e-05,0.020448768851244692,-7.843282398523055e-05,-0.01613048752830115
327,0.0328,180.432,549.281,-1.92948e-06,314.821,-0.40561,-0.7011,-0.00262165,0.020303,-0.0163129,0.0408805,-4.4872e-05,-7.87514e-05,0.0291952,-0.002618216476792834,0.04172761165752492,-4.4870993266887815e-05,0.020510507869346606,-7.874829918985693e-05,-0.016180565211998177
328,0.0329,180.52,549.556,-2.32458e-06,314.976,-0.406098,-0.701941,-0.00263063,0.0203635,-0.0163639,0.0410045,-4.50518e-05,-7.90671e-05,0.0292917,-0.00262717292499437,0.04185679389050323,-4.5050785182909614e-05,0.020572250622772348,-7.906397427925871e-05,-0.016230738723736926
329,0.033,180.607,549.83,-2.72091e-06,315.131,-0.406584,-0.702779,-0.00263962,0.0204241,-0.0164149,0.0411284,-4.52317e-05,-7.93829e-05,0.0293882,-0.0026361392664060457,0.041985887944477884,-4.523067706208028e-05,0.020634099175152132,-7.937974926097713e-05,-0.016280909676691824
330,0.0331,180.694,550.104,-3.11847e-06,315.285,-0.407069,-0.703615,-0.00264861,0.0204846,-0.0164659,0.0412524,-4.54118e-05,-7.96989e-05,0.0294847,-0.002645105527210645,0.04211510220570158,-4.541076889985618e-05,0.02069584940607805,-7.969572412702686e-05,-0.01633107807099332
331,0.0332,180.781,550.377,-3.51724e-06,315.439,-0.407552,-0.704448,-0.00265759,0.0205451,-0.0165169,0.0413763,-4.55919e-05,-8.00151e-05,0.0295812,-0.002654061733949553,0.042244228266059114,-4.559086070510254e-05,0.020757603373005695,-8.001189887729687e-05,-0.01638124390677209
332,0.0333,180.868,550.649,-3.91723e-06,315.593,-0.408033,-0.705279,-0.00266658,0.0206055,-0.0165679,0.0415002,-4.57721e-05,-8.03314e-05,0.0296776,-0.0026630278336319257,0.04237337032612665,-4.577105247338675e-05,0.020819258994230427,-8.032817351943944e-05,-0.016431407184158364
333,0.0334,180.954,550.92,-4.31841e-06,315.746,-0.408513,-0.706107,-0.00267557,0.020666,-0.0166188,0.0416242,-4.59524e-05,-8.06479e-05,0.0297741,-0.002671993852709331,0.0425026326381448,-4.595134420459779e-05,0.020881020427664154,-8.064464804558025e-05,-0.01648146955143459
334,0.0335,181.04,551.191,-4.72078e-06,315.899,-0.408992,-0.706932,-0.00268455,0.0207265,-0.0166698,0.0417481,-4.61329e-05,-8.09646e-05,0.0298706,-0.002680949817992162,0.04263180671649769,-4.6131835894080986e-05,0.020942785597777513,-8.096132245527521e-05,-0.01653162771744343
335,0.0336,181.126,551.461,-5.12434e-06,316.051,-0.409469,-0.707756,-0.00269354,0.020787,-0.0167208,0.041872,-4.63134e-05,-8.12814e-05,0.029967,-0.0026899156759517817,0.042760996800510265,-4.631232755103465e-05,0.02100455450479677,-8.127809675650965e-05,-0.016581783325450905
336,0.0337,181.212,551.73,-5.52908e-06,316.203,-0.409945,-0.708576,-0.00270253,0.0208475,-0.0167717,0.0419958,-4.64939e-05,-8.15983e-05,0.0300635,-0.0026988814533085437,0.04289009860315085,-4.6492819175347755e-05,0.02106632714894796,-8.159497094928359e-05,-0.016631838038776436
337,0.0338,181.297,551.998,-5.93498e-06,316.355,-0.410419,-0.709394,-0.00271151,0.0209079,-0.0168227,0.0421197,-4.66746e-05,-8.19155e-05,0.0301599,-0.0027078371771418475,0.04301932069151082,-4.6673510757822e-05,0.02112800141765203,-8.191214501707123e-05,-0.016681988536187853
338,0.0339,181.383,552.266,-6.34204e-06,316.506,-0.410892,-0.71021,-0.0027205,0.0209684,-0.0168736,0.0422435,-4.68554e-05,-8.22328e-05,0.0302564,-0.0027168027933851535,0.04314845447662874,-4.6854302302890005e-05,0.021189781530567275,-8.222941897595426e-05,-0.01673203814919788
339,0.034,181.468,552.534,-6.75026e-06,316.657,-0.411364,-0.711023,-0.00272949,0.0210288,-0.0169246,0.0423674,-4.70363e-05,-8.25502e-05,0.0303528,-0.0027257683290279333,0.04327770857726465,-4.703519381055177e-05,0.021251463256141134,-8.254679282604371e-05,-0.016782183536534045
340,0.0341,181.552,552.8,-7.15962e-06,316.807,-0.411834,-0.711834,-0.00273847,0.0210893,-0.0169755,0.0424912,-4.72172e-05,-8.28678e-05,0.0304493,-0.0027347238114181494,0.0434068743527829,-4.721608528557297e-05,0.021313250838723707,-8.286436655868812e-05,-0.016832228049748377
341,0.0342,181.637,553.066,-7.57012e-06,316.957,-0.412302,-0.712642,-0.00274746,0.0211497,-0.0170265,0.042615,-4.73982e-05,-8.31856e-05,0.0305457,-0.002743689185951692,0.04353605612001421,-4.7397076723076914e-05,0.021374940022068856,-8.318214017388748e-05,-0.016882368327529873
342,0.0343,181.721,553.331,-7.98175e-06,317.107,-0.412769,-0.713448,-0.00275644,0.0212101,-0.0170774,0.0427388,-4.75794e-05,-8.35035e-05,0.0306421,-0.0027526445074133044,0.04366525388093834,-4.7578268118297906e-05,0.0214366329315534,-8.350001367973814e-05,-0.016932407741468203
343,0.0344,181.806,553.596,-8.3945e-06,317.256,-0.413235,-0.714251,-0.00276543,0.0212706,-0.0171283,0.0428626,-4.77606e-05,-8.38215e-05,0.0307385,-0.0027616097208404966,0.04379446763753525,-4.77594594806563e-05,0.021498431717239974,-8.381798707624011e-05,-0.016982444608465097
344,0.0345,181.89,553.859,-8.80837e-06,317.405,-0.4137,-0.715052,-0.00277442,0.021331,-0.0171792,0.0429864,-4.79419e-05,-8.41398e-05,0.030835,-0.0027705748536707153,0.04392369739178559,-4.794075080549742e-05,0.02156013208584806,-8.41362603463125e-05,-0.01703247892865023
345,0.0346,181.973,554.123,-9.22335e-06,317.553,-0.414163,-0.715851,-0.0027834,0.0213914,-0.0172302,0.0431102,-4.81233e-05,-8.44581e-05,0.0309314,-0.002779529933700231,0.044052943145669765,-4.812214209259924e-05,0.021621836181271004,-8.445453351513255e-05,-0.017082608993897352
346,0.0347,182.057,554.385,-9.63943e-06,317.701,-0.414625,-0.716647,-0.00279239,0.0214518,-0.0172811,0.043234,-4.83048e-05,-8.47767e-05,0.0310278,-0.00278849490542854,0.04418220490116864,-4.830363334196175e-05,0.021683544003733957,-8.477310655707893e-05,-0.017132638215845097
347,0.0348,182.14,554.647,-1.00566e-05,317.849,-0.415085,-0.717441,-0.00280138,0.0215122,-0.017332,0.0433577,-4.84863e-05,-8.50953e-05,0.0311242,-0.002797459796562096,0.04431137822912068,-4.8485124558350634e-05,0.02174525555346185,-8.509167949766194e-05,-0.017182664891370214
348,0.0349,182.223,554.908,-1.04749e-05,317.997,-0.415544,-0.718233,-0.00281036,0.0215726,-0.0173829,0.0434814,-4.8668e-05,-8.54142e-05,0.0312206,-0.0028064146351658437,0.04444056753680159,-4.86668157321235e-05,0.02180697083067984,-8.541055231103822e-05,-0.017232689020602265
349,0.035,182.306,555.169,-1.08942e-05,318.144,-0.416002,-0.719022,-0.00281935,0.021633,-0.0174338,0.0436052,-4.88497e-05,-8.57331e-05,0.031317,-0.002815379365201709,0.044569877283170634,-4.8848506872811726e-05,0.021868689835613075,-8.57294250228291e-05,-0.017282710603671037
350,0.0351,182.389,555.429,-1.13146e-05,318.29,-0.416458,-0.719809,-0.00282833,0.0216934,-0.0174847,0.0437289,-4.90315e-05,-8.60523e-05,0.0314133,-0.002824334042888399,0.04469909856916243,-4.903029797564962e-05,0.021930412568486934,-8.604859760708017e-05,-0.01733272964070609
351,0.0352,182.472,555.688,-1.17361e-05,318.437,-0.416913,-0.720594,-0.00283732,0.0217538,-0.0175356,0.0438526,-4.92134e-05,-8.63715e-05,0.0315097,-0.002833298611829571,0.044828335840815914,-4.9212189040526155e-05,0.02199213902952657,-8.636777008941277e-05,-0.01738274613183688
352,0.0353,182.554,555.947,-1.21587e-05,318.583,-0.417367,-0.721377,-0.0028463,0.0218142,-0.0175865,0.0439763,-4.93954e-05,-8.6691e-05,0.0316061,-0.0028422531286022013,0.04495758910010861,-4.939418006733032e-05,0.022053869218956912,-8.668724244387249e-05,-0.017432760077193077
353,0.0354,182.636,556.205,-1.25823e-05,318.728,-0.417819,-0.722157,-0.00285529,0.0218745,-0.0176374,0.0440999,-4.95775e-05,-8.70105e-05,0.0317025,-0.002851217536451567,0.04508675384033789,-4.9576271056062104e-05,0.022115500925448117,-8.70067146961917e-05,-0.017482771476904135
354,0.0355,182.718,556.463,-1.30069e-05,318.874,-0.41827,-0.722935,-0.00286427,0.0219349,-0.0176883,0.0442236,-4.97596e-05,-8.73302e-05,0.0317988,-0.0028601718923129127,0.04521603906791438,-4.975836201159822e-05,0.022177238566161828,-8.732638682906746e-05,-0.01753278033109984
355,0.0356,182.8,556.719,-1.34326e-05,319.018,-0.41872,-0.723711,-0.00287326,0.0219953,-0.0177392,0.0443473,-4.99419e-05,-8.76501e-05,0.0318952,-0.0028691361390732473,0.045345340289062896,-4.9940652924074236e-05,0.022238979935941927,-8.76462588421667e-05,-0.017582786639909642
356,0.0357,182.881,556.976,-1.38594e-05,319.163,-0.419169,-0.724484,-0.00288224,0.0220556,-0.0177901,0.0444709,-5.01242e-05,-8.79701e-05,0.0319915,-0.0028780903340263064,0.04547455295830094,-5.012294380324356e-05,0.022300622804945824,-8.796623074425192e-05,-0.017632790403463106
357,0.0358,182.963,557.231,-1.42871e-05,319.307,-0.419616,-0.725256,-0.00289123,0.022116,-0.017841,0.0445945,-5.03066e-05,-8.82903e-05,0.0320879,-0.0028870544197006076,0.04560378159921208,-5.030533464422948e-05,0.02236237162735888,-8.828640252611653e-05,-0.017682791621889793
358,0.0359,183.044,557.486,-1.47159e-05,319.451,-0.420062,-0.726025,-0.00290021,0.0221763,-0.0178918,0.0447182,-5.04891e-05,-8.86105e-05,0.0321842,-0.0028960084537482667,0.0457331307870783,-5.0487825446809964e-05,0.02242402193710613,-8.860657420561857e-05,-0.017732692068593292
359,0.036,183.125,557.74,-1.51457e-05,319.594,-0.420507,-0.726792,-0.0029092,0.0222366,-0.0179427,0.0448418,-5.06717e-05,-8.8931e-05,0.0322805,-0.00290497237833931,0.04586239139018433,-5.0670416211096025e-05,0.022485675964479368,-8.892704575580446e-05,-0.017782688202154562
360,0.0361,183.205,557.994,-1.55766e-05,319.738,-0.42095,-0.727556,-0.00291818,0.022297,-0.0179936,0.0449654,-5.08543e-05,-8.92516e-05,0.0323769,-0.0029139262514844555,0.04599166797088827,-5.0853006941964374e-05,0.022547435964440643,-8.92476171944212e-05,-0.017832681790977523
361,0.0362,183.286,558.247,-1.60084e-05,319.88,-0.421392,-0.728319,-0.00292717,0.0223573,-0.0180444,0.045089,-5.1037e-05,-8.95723e-05,0.0324732,-0.0029228900149952386,0.04612096053116499,-5.103569763442728e-05,0.022609097433903935,-8.956828852135779e-05,-0.017882574623453884
362,0.0363,183.366,558.5,-1.64412e-05,320.023,-0.421833,-0.72908,-0.00293615,0.0224176,-0.0180953,0.0452125,-5.12198e-05,-8.98931e-05,0.0325695,-0.002931843727240646,0.046250164447968256,-5.121848828848474e-05,0.022670762621666007,-8.988905973639216e-05,-0.01793256312818725
363,0.0364,183.446,558.752,-1.68751e-05,320.165,-0.422273,-0.729838,-0.00294514,0.0224779,-0.0181461,0.0453361,-5.14027e-05,-9.02141e-05,0.0326658,-0.0029408073296741666,0.04637948896038435,-5.1401378903803696e-05,0.022732431527950903,-9.021003083042878e-05,-0.0179824508868206
364,0.0365,183.526,559.003,-1.73099e-05,320.307,-0.422711,-0.730594,-0.00295412,0.0225382,-0.018197,0.0454597,-5.15857e-05,-9.05353e-05,0.0327621,-0.0029497608810228337,0.04650882945829782,-5.1584369480606185e-05,0.022794104152983108,-9.053120180335661e-05,-0.018032434307981515
365,0.0366,183.606,559.254,-1.77457e-05,320.448,-0.423149,-0.731348,-0.0029631,0.0225985,-0.0182478,0.0455832,-5.17687e-05,-9.08566e-05,0.0328584,-0.0029587143519689274,0.04663808127987168,-5.176736002399096e-05,0.022855780496986444,-9.085247266416019e-05,-0.018082316993287773
366,0.0367,183.686,559.504,-1.81825e-05,320.589,-0.423585,-0.7321,-0.00297209,0.0226588,-0.0182987,0.0457067,-5.19519e-05,-9.1178e-05,0.0329547,-0.0029676777128365694,0.046767349065031105,-5.195055052342745e-05,0.02291746056018562,-9.117384341250645e-05,-0.018132295331393267
367,0.0368,183.765,559.754,-1.86203e-05,320.73,-0.42402,-0.73285,-0.00298107,0.0227191,-0.0183495,0.0458302,-5.21351e-05,-9.14995e-05,0.033051,-0.0029766310228902526,0.046896632815748074,-5.213374098933521e-05,0.022979144342804902,-9.149531404839539e-05,-0.018182172943888353
368,0.0369,183.844,560.003,-1.9059e-05,320.871,-0.424453,-0.733598,-0.00299005,0.0227794,-0.0184003,0.0459537,-5.23184e-05,-9.18212e-05,0.0331473,-0.0029855842525435827,0.04702593253399412,-5.2317031416393434e-05,0.023040831845068332,-9.181698456262044e-05,-0.018232048022665093
369,0.037,183.923,560.251,-1.94987e-05,321.011,-0.424886,-0.734344,-0.00299904,0.0228397,-0.0184512,0.0460772,-5.25017e-05,-9.2143e-05,0.0332436,-0.0029945473718518967,0.04715524822174144,-5.250032180992292e-05,0.023102523067200176,-9.213875496416613e-05,-0.01828201873965518
370,0.0371,184.002,560.499,-1.99394e-05,321.151,-0.425317,-0.735088,-0.00300802,0.0229,-0.018502,0.0462007,-5.26851e-05,-9.2465e-05,0.0333399,-0.003003500440617146,0.04728457988096224,-5.268371216449186e-05,0.02316421800942492,-9.246072524360383e-05,-0.018331888746394354
371,0.0372,184.081,560.746,-2.0381e-05,321.29,-0.425747,-0.735829,-0.003017,0.0229602,-0.0185528,0.0463242,-5.28687e-05,-9.27871e-05,0.0334361,-0.003012453428984263,0.047413927513629606,-5.2867302474890465e-05,0.023225814349380203,-9.278279541014012e-05,-0.018381756219801537
372,0.0373,184.159,560.993,-2.08236e-05,321.429,-0.426176,-0.736569,-0.00302599,0.0230205,-0.0186036,0.0464476,-5.30522e-05,-9.31093e-05,0.0335324,-0.003021416306739688,0.047543186367391854,-5.305079275697011e-05,0.02328751672629359,-9.310496546366398e-05,-0.018431621160005296
373,0.0374,184.237,561.239,-2.12671e-05,321.568,-0.426604,-0.737307,-0.00303497,0.0230807,-0.0186544,0.0465711,-5.32359e-05,-9.34317e-05,0.0336286,-0.0030303691342230543,0.04767256593993241,-5.3234482994657384e-05,0.02334912048905502,-9.342733539463577e-05,-0.018481483567134527
374,0.0375,184.315,561.484,-2.17115e-05,321.706,-0.42703,-0.738042,-0.00304395,0.023141,-0.0187052,0.0466945,-5.34197e-05,-9.37542e-05,0.0337249,-0.0030393218813102862,0.04780185671164605,-5.341827319327308e-05,0.023410830301552776,-9.374980521237308e-05,-0.018531343441317794
375,0.0376,184.393,561.729,-2.21569e-05,321.845,-0.427456,-0.738776,-0.00305293,0.0232012,-0.018756,0.046818,-5.36035e-05,-9.40768e-05,0.0338211,-0.003048274548002272,0.04793126823194682,-5.3602063358026975e-05,0.023472441488014972,-9.407237491665388e-05,-0.01858120078268377
376,0.0377,184.471,561.974,-2.26032e-05,321.982,-0.42788,-0.739508,-0.00306192,0.0232615,-0.0188068,0.0469414,-5.37874e-05,-9.43996e-05,0.0339174,-0.003057237103727406,0.048060590929492886,-5.378595348370929e-05,0.02353415873699305,-9.439514449793851e-05,-0.018631055591361134
377,0.0378,184.549,562.217,-2.30504e-05,322.12,-0.428303,-0.740237,-0.0030709,0.0233217,-0.0188576,0.0470648,-5.39713e-05,-9.47225e-05,0.0340136,-0.0030661896095413033,0.048189929586444746,-5.396984357564083e-05,0.02359577734805063,-9.47180139656556e-05,-0.018680907867478558
378,0.0379,184.626,562.461,-2.34986e-05,322.257,-0.428725,-0.740965,-0.00307988,0.0233819,-0.0189084,0.0471882,-5.41554e-05,-9.50455e-05,0.0341098,-0.003075142034962175,0.048319284204771495,-5.415393362284693e-05,0.023657399668660206,-9.50409833195831e-05,-0.018730757611164717
379,0.038,184.703,562.703,-2.39477e-05,322.394,-0.429146,-0.741691,-0.00308886,0.0234422,-0.0189592,0.0473115,-5.43395e-05,-9.53686e-05,0.034206,-0.0030840943799906873,0.048448549941582764,-5.43380236360802e-05,0.023719128070953,-9.536405255961e-05,-0.018780604822548175
380,0.0381,184.78,562.946,-2.43976e-05,322.531,-0.429566,-0.742415,-0.00309784,0.0235024,-0.01901,0.0474349,-5.45237e-05,-9.56919e-05,0.0343023,-0.003093046644627395,0.04857793647563047,-5.4522213610130876e-05,0.023780757817499554,-9.568732167619665e-05,-0.018830449501757607
381,0.0382,184.857,563.187,-2.48485e-05,322.667,-0.429985,-0.743137,-0.00310682,0.0235626,-0.0190608,0.0475582,-5.47079e-05,-9.60153e-05,0.0343985,-0.003101998828873187,0.04870723410623312,-5.4706403550097704e-05,0.02384239127426846,-9.601069067866064e-05,-0.018880291648921688
382,0.0383,184.934,563.428,-2.53003e-05,322.803,-0.430402,-0.743857,-0.00311581,0.0236228,-0.0191116,0.0476816,-5.48923e-05,-9.63389e-05,0.0344947,-0.0031109609016191087,0.04883665256387637,-5.489079344522807e-05,0.023904028441483316,-9.633425955724029e-05,-0.01893013126416898
383,0.0384,185.01,563.669,-2.5753e-05,322.939,-0.430818,-0.744575,-0.00312479,0.023683,-0.0191623,0.0478049,-5.50767e-05,-9.66625e-05,0.0345909,-0.0031199129249955826,0.04896598209613945,-5.507518330638561e-05,0.023965669319367278,-9.66578283311259e-05,-0.01897987024561998
384,0.0385,185.086,563.909,-2.62066e-05,323.074,-0.431234,-0.745291,-0.00313377,0.0237432,-0.0192131,0.0479282,-5.52612e-05,-9.69863e-05,0.034687,-0.00312886486798325,0.04909532757571666,-5.525967312802749e-05,0.024027313908143944,-9.698159698090514e-05,-0.01902970480240307
385,0.0386,185.163,564.148,-2.66611e-05,323.209,-0.431648,-0.746005,-0.00314275,0.0238034,-0.0192639,0.0480515,-5.54457e-05,-9.73102e-05,0.0347832,-0.0031378167305827764,0.049224689004575106,-5.5444162915585515e-05,0.02408896220803647,-9.73054655160066e-05,-0.019079536827654953
386,0.0387,185.239,564.387,-2.71164e-05,323.344,-0.432061,-0.746718,-0.00315173,0.0238636,-0.0193146,0.0481748,-5.56303e-05,-9.76343e-05,0.0348794,-0.0031467685127949396,0.049354066384680984,-5.5628752663516856e-05,0.02415061421926823,-9.762953392689067e-05,-0.019129268234435948
387,0.0388,185.314,564.626,-2.75727e-05,323.478,-0.432473,-0.747428,-0.00316071,0.0239237,-0.0193654,0.0482981,-5.5815e-05,-9.79585e-05,0.0349756,-0.0031557202146205166,0.049483459718001166,-5.581344237182151e-05,0.0242121675208411,-9.79537022227639e-05,-0.019179095201994012
388,0.0389,185.39,564.864,-2.80298e-05,323.612,-0.432884,-0.748137,-0.00316969,0.0239839,-0.0194161,0.0484214,-5.59998e-05,-9.82827e-05,0.0350717,-0.0031646718360601733,0.04961286900650319,-5.5998232040499474e-05,0.02427382694925595,-9.827787041361002e-05,-0.019228821561293352
389,0.039,185.465,565.101,-2.84878e-05,323.746,-0.433294,-0.748844,-0.00317867,0.0240441,-0.0194669,0.0485447,-5.61846e-05,-9.86072e-05,0.0351679,-0.003173623377114576,0.04974229425215393,-5.618302167487155e-05,0.024335490089680167,-9.860233846981092e-05,-0.019278643471670853
390,0.0391,185.541,565.338,-2.89466e-05,323.88,-0.433703,-0.749549,-0.00318765,0.0241042,-0.0195176,0.0486679,-5.63696e-05,-9.89317e-05,0.0352641,-0.003182574837784502,0.04987163046975329,-5.636801126396307e-05,0.024397054502626636,-9.892680642076268e-05,-0.019328364784000907
391,0.0392,185.616,565.574,-2.94064e-05,324.013,-0.434111,-0.750252,-0.00319663,0.0241644,-0.0195684,0.0487911,-5.65545e-05,-9.92564e-05,0.0353602,-0.0031915262180707282,0.050000982622556256,-5.655290082440256e-05,0.024458725061572872,-9.925147424649783e-05,-0.0193781816377111
392,0.0393,185.691,565.81,-2.98669e-05,324.146,-0.434517,-0.750953,-0.00320561,0.0242245,-0.0196191,0.0489144,-5.67396e-05,-9.95812e-05,0.0354564,-0.003200477517973921,0.0501304557255664,-5.673799033933946e-05,0.02452029688116375,-9.957624195688908e-05,-0.019427897903584013
393,0.0394,185.766,566.045,-3.03284e-05,324.279,-0.434923,-0.751653,-0.00321458,0.0242847,-0.0196698,0.0490376,-5.69247e-05,-9.99061e-05,0.0355525,-0.003209418769589023,0.05025983976760506,-5.692307981997047e-05,0.024581974859524625,-9.99011095518254e-05,-0.019477611648906268
394,0.0395,185.84,566.28,-3.07907e-05,324.411,-0.435328,-0.752351,-0.00322356,0.0243448,-0.0197205,0.0491608,-5.71099e-05,-0.000100231,0.0356486,-0.003218369908817742,0.05038923975073972,-5.710826926075274e-05,0.024643554086650754,-0.00010022597704117953,-0.01952732287380543
395,0.0396,185.915,566.514,-3.12538e-05,324.543,-0.435731,-0.753047,-0.00323254,0.0244049,-0.0197713,0.049284,-5.72951e-05,-0.000100556,0.0357447,-0.003227320967665648,0.050518655676934365,-5.72934586671181e-05,0.024705137014799927,-0.00010055094441485668,-0.01957712962070135
396,0.0397,185.989,566.748,-3.17178e-05,324.675,-0.436134,-0.753741,-0.00324152,0.024465,-0.019822,0.0494072,-5.74805e-05,-0.000100882,0.0358409,-0.0032362719461334066,0.0506480875481532,-5.747884802775882e-05,0.02476672364419419,-0.00010087691158211509,-0.01962683580016733
397,0.0398,186.063,566.981,-3.21826e-05,324.806,-0.436535,-0.754433,-0.0032505,0.0245252,-0.0198727,0.0495303,-5.76659e-05,-0.000101207,0.035937,-0.0032452228442217956,0.05077743028861281,-5.766423735398263e-05,0.024828416457892688,-0.00010120187874429476,-0.0196765394595938
398,0.0399,186.137,567.214,-3.26483e-05,324.938,-0.436936,-0.755124,-0.00325948,0.0245853,-0.0199234,0.0496535,-5.78513e-05,-0.000101532,0.0360331,-0.00325417366193137,0.05090689404282789,-5.784962664578952e-05,0.02489001049660411,-0.00010152684580089222,-0.019726240599108658
399,0.04,186.211,567.446,-3.31148e-05,325.069,-0.437335,-0.755813,-0.00326845,0.0246454,-0.0199741,0.0497766,-5.80368e-05,-0.000101858,0.0361292,-0.0032631144318941985,0.051036268644327976,-5.8035115897525635e-05,0.02495160823722853,-0.00010185281265007173,-0.01977593921883969
400,0.0401,186.284,567.677,-3.35821e-05,325.199,-0.437734,-0.7565,-0.00327743,0.0247055,-0.0200248,0.0498998,-5.82224e-05,-0.000102184,0.0362253,-0.00327206508893807,0.05116576428939279,-5.822070510896893e-05,0.025013209679988213,-0.00010217877939289188,-0.01982563531891446
401,0.0402,186.358,567.909,-3.40503e-05,325.33,-0.438131,-0.757185,-0.00328641,0.0247656,-0.0200755,0.0500229,-5.84081e-05,-0.00010251,0.0363214,-0.003281015665605458,0.05129517075978174,-5.84063942801194e-05,0.025074814825106095,-0.00010250474602946369,-0.019875328899460865
402,0.0403,186.431,568.139,-3.45192e-05,325.46,-0.438528,-0.757869,-0.00329539,0.0248257,-0.0201262,0.050146,-5.85938e-05,-0.000102836,0.0364174,-0.003289966161897029,0.051424593161087495,-5.859208341685296e-05,0.025136423672804442,-0.00010283071255978715,-0.019925019960606694
403,0.0404,186.504,568.369,-3.4989e-05,325.59,-0.438923,-0.758551,-0.00330436,0.0248858,-0.0201769,0.0502691,-5.87796e-05,-0.000103162,0.0365135,-0.0032989066108025655,0.051554031495271824,-5.877787251318267e-05,0.025198036223305742,-0.00010315667898386227,-0.01997470850247951
404,0.0405,186.577,568.599,-3.54596e-05,325.719,-0.439318,-0.759231,-0.00331334,0.0249458,-0.0202276,0.0503922,-5.89655e-05,-0.000103488,0.0366096,-0.0033078569464340957,0.0516834857642956,-5.896376156910854e-05,0.02525954995087254,-0.00010348264530168905,-0.0200243945252071
405,0.0406,186.65,568.828,-3.59311e-05,325.848,-0.439711,-0.75991,-0.00332231,0.0250059,-0.0202783,0.0505152,-5.91514e-05,-0.000103814,0.0367056,-0.003316797234860114,0.05181285078883047,-5.914965059039545e-05,0.025321169901485474,-0.00010380861151315646,-0.020074078028917253
406,0.0407,186.723,569.057,-3.64033e-05,325.977,-0.440104,-0.760586,-0.00333129,0.025066,-0.0203289,0.0506383,-5.93374e-05,-0.000104141,0.0368017,-0.0033257474098346007,0.051942336920470566,-5.933563957127852e-05,0.025382793555568828,-0.00010413557751431934,-0.02012366102610852
407,0.0408,186.795,569.285,-3.68763e-05,326.106,-0.440495,-0.761262,-0.00334027,0.025126,-0.0203796,0.0507614,-5.95235e-05,-0.000104467,0.0368977,-0.0033346975044368232,0.05207183899283452,-5.952172851164672e-05,0.025444318368908148,-0.000104461543512957,-0.020173339497134624
408,0.0409,186.868,569.513,-3.73502e-05,326.234,-0.440886,-0.761935,-0.00334924,0.0251861,-0.0204303,0.0508844,-5.97096e-05,-0.000104794,0.0369938,-0.003343637552103984,0.052201251787754366,-5.970781741726494e-05,0.025505949424436736,-0.000104788509300624,-0.020223015449526094
409,0.041,186.94,569.74,-3.78248e-05,326.362,-0.441276,-0.762607,-0.00335822,0.0252461,-0.020481,0.0510074,-5.98958e-05,-0.000105121,0.0370898,-0.0033525874860536042,0.052330680501426974,-5.9894006282368295e-05,0.025567481627349897,-0.0001051154749812655,-0.020272688883410606
410,0.0411,187.012,569.967,-3.83003e-05,326.49,-0.441664,-0.763277,-0.00336719,0.0253062,-0.0205316,0.0511304,-6.0082e-05,-0.000105448,0.0371859,-0.003361527373248352,0.05246012513581033,-6.008019511283269e-05,0.025629120085212787,-0.00010544244055510354,-0.020322261831146937
411,0.0412,187.084,570.193,-3.87765e-05,326.618,-0.442052,-0.763946,-0.00337617,0.0253662,-0.0205823,0.0512535,-6.02684e-05,-0.000105775,0.0372819,-0.0033704771465480343,0.05258969095182686,-6.026658389646222e-05,0.025690659678587302,-0.00010576940602191609,-0.020371930233367475
412,0.0413,187.156,570.419,-3.92535e-05,326.745,-0.442439,-0.764612,-0.00338514,0.0254263,-0.0206329,0.0513764,-6.04547e-05,-0.000106102,0.0373779,-0.0033794168732732555,0.052719062174543696,-6.0452872651439726e-05,0.02575230553967356,-0.00010609637138181416,-0.02042149815961858
413,0.0414,187.227,570.645,-3.97313e-05,326.872,-0.442825,-0.765278,-0.00339412,0.0254863,-0.0206836,0.0514994,-6.06412e-05,-0.000106429,0.0374739,-0.0033883664859258866,0.052848554582811014,-6.063936135958237e-05,0.02581385252439694,-0.00010642333663490877,-0.020471161530684734
414,0.0415,187.299,570.87,-4.02099e-05,326.999,-0.443209,-0.765941,-0.00340309,0.0255463,-0.0207342,0.0516224,-6.08277e-05,-0.000106756,0.0375699,-0.003397306052184468,0.05297806291962415,-6.0825850032975026e-05,0.025875403202050284,-0.00010675030178097789,-0.020520724435959203
415,0.0416,187.37,571.094,-4.06893e-05,327.126,-0.443593,-0.766603,-0.00341206,0.0256063,-0.0207849,0.0517454,-6.10143e-05,-0.000107084,0.0376659,-0.0034062455382555257,0.05310758718694242,-6.101243866540873e-05,0.02593695757285519,-0.00010707826671307874,-0.02057038277638079
416,0.0417,187.441,571.318,-4.11694e-05,327.252,-0.443976,-0.767264,-0.00342104,0.0256663,-0.0208355,0.0518683,-6.12009e-05,-0.000107411,0.0377619,-0.003415194909987873,0.053237022063017836,-6.119902726309245e-05,0.025998515637033037,-0.00010740523164509685,-0.02061994066118722
417,0.0418,187.512,571.541,-4.16503e-05,327.378,-0.444358,-0.767922,-0.00343001,0.0257263,-0.0208861,0.0519912,-6.13876e-05,-0.000107739,0.0378579,-0.003424134235596621,0.05336647284761731,-6.138571581981722e-05,0.026060077394805425,-0.00010773319636236955,-0.02066949603842816
418,0.0419,187.583,571.764,-4.2132e-05,327.504,-0.44474,-0.76858,-0.00343898,0.0257863,-0.0209367,0.0521142,-6.15743e-05,-0.000108067,0.0379539,-0.003433073481019955,0.05349604489229498,-6.157240434168099e-05,0.026121642846394177,-0.00010806116097206164,-0.020719048908230397
419,0.042,187.654,571.987,-4.26145e-05,327.629,-0.44512,-0.769235,-0.00344796,0.0258463,-0.0209874,0.0522371,-6.17612e-05,-0.000108395,0.0380499,-0.003442022611838458,0.05362552751275618,-6.175929281637682e-05,0.026183211992020894,-0.00010838912547428414,-0.0207686971938561
420,0.0421,187.724,572.209,-4.30977e-05,327.754,-0.445499,-0.769889,-0.00345693,0.0259063,-0.021038,0.05236,-6.1948e-05,-0.000108723,0.0381458,-0.0034509616968037005,0.0537550260476094,-6.19460812623096e-05,0.026244784831907175,-0.00010871708986881501,-0.02081824504420693
421,0.0422,187.795,572.431,-4.35817e-05,327.879,-0.445878,-0.770542,-0.0034659,0.0259663,-0.0210886,0.0524829,-6.2135e-05,-0.000109051,0.0382418,-0.0034599007015858607,0.05388454049881064,-6.213306966085241e-05,0.026306361366274622,-0.00010904505415587629,-0.020867790387499863
422,0.0423,187.865,572.652,-4.40664e-05,328.004,-0.446255,-0.771193,-0.00347487,0.0260263,-0.0211392,0.0526057,-6.2322e-05,-0.000109379,0.0383377,-0.0034688396261853827,0.05401396546691428,-6.232005802453422e-05,0.026367941595345057,-0.00010937301833524593,-0.020917333223862022
423,0.0424,187.935,572.873,-4.4552e-05,328.129,-0.446632,-0.771842,-0.00348385,0.0260863,-0.0211898,0.0527286,-6.25091e-05,-0.000109707,0.0384337,-0.0034777884358253575,0.05414351174372589,-6.2507146346924e-05,0.026429525519339858,-0.00010970098240714599,-0.020966873553419973
424,0.0425,188.005,573.093,-4.50382e-05,328.253,-0.447007,-0.77249,-0.00349282,0.0261462,-0.0212404,0.0528515,-6.26962e-05,-0.000110036,0.0385296,-0.0034867271999726723,0.05427307394275327,-6.269423463434176e-05,0.026491010489374966,-0.00011002994626141405,-0.021016411376300614
425,0.0426,188.075,573.313,-4.55252e-05,328.377,-0.447382,-0.773136,-0.00350179,0.0262062,-0.021291,0.0529743,-6.28834e-05,-0.000110364,0.0386256,-0.0034956658839395693,0.05440254662569344,-6.28814228804675e-05,0.026552601797725117,-0.00011035791011781981,-0.021065946692630955
426,0.0427,188.145,573.532,-4.6013e-05,328.5,-0.447756,-0.773781,-0.00351076,0.0262661,-0.0213416,0.0530971,-6.30706e-05,-0.000110693,0.0387215,-0.0035046044877269367,0.05453203520885541,-6.306861109151018e-05,0.026614094140250177,-0.00011068687375592745,-0.02111547950253767
427,0.0428,188.214,573.751,-4.65015e-05,328.624,-0.448129,-0.774424,-0.00351973,0.0263261,-0.0213922,0.05322,-6.32579e-05,-0.000111022,0.0388174,-0.0035135430113353294,0.05466164516035099,-6.325589926126085e-05,0.026675692833840747,-0.00011101583728578834,-0.02116500980614755
428,0.0429,188.284,573.97,-4.69907e-05,328.747,-0.448501,-0.775066,-0.0035287,0.026386,-0.0214428,0.0533428,-6.34453e-05,-0.00011135,0.0389133,-0.0035224814547655248,0.05479116556276664,-6.344328738949745e-05,0.02673719254973972,-0.00011134380081889717,-0.02121453760358749
429,0.043,188.353,574.188,-4.74807e-05,328.87,-0.448873,-0.775706,-0.00353767,0.026446,-0.0214934,0.0534656,-6.36327e-05,-0.000111679,0.0390092,-0.0035314198180183,0.0549207018712643,-6.3630675482651e-05,0.026798798629456666,-0.00011167276413259764,-0.021264062894984392
430,0.0431,188.422,574.406,-4.79714e-05,328.993,-0.449243,-0.776344,-0.00354664,0.0265059,-0.021544,0.0535883,-6.38202e-05,-0.000112008,0.0391051,-0.003540358101094321,0.055050148582777236,-6.38181635344015e-05,0.02686030571961351,-0.00011200172733816238,-0.02131358568046482
431,0.0432,188.491,574.623,-4.84629e-05,329.115,-0.449613,-0.776982,-0.00355561,0.0265658,-0.0215945,0.0537111,-6.40077e-05,-0.000112338,0.039201,-0.0035492963039942538,0.055179716696342584,-6.400565155084692e-05,0.02692181649415537,-0.00011233169032309753,-0.02136300809646141
432,0.0433,188.56,574.84,-4.8955e-05,329.237,-0.449981,-0.777617,-0.00356458,0.0266257,-0.0216451,0.0538339,-6.41953e-05,-0.000112667,0.0392969,-0.003558234426718765,0.05530930072184903,-6.419323952577827e-05,0.026983330953302964,-0.00011266065331194675,-0.0214125258754414
433,0.0434,188.629,575.056,-4.9448e-05,329.359,-0.450349,-0.778252,-0.00357355,0.0266857,-0.0216957,0.0539566,-6.4383e-05,-0.000112996,0.0393928,-0.0035671724692688533,0.05543879511736649,-6.438092745908452e-05,0.027044951801767247,-0.00011298961619243819,-0.021462041148885058
434,0.0435,188.697,575.272,-4.99416e-05,329.481,-0.450716,-0.778884,-0.00358252,0.0267456,-0.0217462,0.0540794,-6.45707e-05,-0.000113326,0.0394887,-0.0035761104316449632,0.05556841095965659,-6.456861535719671e-05,0.02710647363694063,-0.00011331957885141186,-0.021511456068069923
435,0.0436,188.766,575.487,-5.0436e-05,329.602,-0.451082,-0.779516,-0.00359148,0.0268055,-0.0217968,0.0542021,-6.47585e-05,-0.000113655,0.0395845,-0.003585038349698366,0.05569793714995064,-6.475640321357279e-05,0.02716799915738255,-0.00011364854151518777,-0.021560966335772536
436,0.0437,188.834,575.702,-5.09311e-05,329.723,-0.451448,-0.780145,-0.00360045,0.0268654,-0.0218473,0.0543248,-6.49463e-05,-0.000113985,0.0396804,-0.0035939761518182234,0.05582747923408338,-6.49441910347548e-05,0.02722952836331327,-0.00011397850395666875,-0.021610376259361463
437,0.0438,188.902,575.917,-5.14269e-05,329.844,-0.451812,-0.780774,-0.00360942,0.0269253,-0.0218979,0.0544475,-6.51342e-05,-0.000114315,0.0397763,-0.0036029138737664335,0.0559570372140048,-6.513207881408967e-05,0.027291061254953952,-0.00011430846628934788,-0.021659881521829072
438,0.0439,188.97,576.131,-5.19234e-05,329.965,-0.452176,-0.781401,-0.00361839,0.0269851,-0.0219484,0.0545702,-6.53221e-05,-0.000114645,0.0398721,-0.0036118515155435515,0.056086611091665795,-6.531996655811945e-05,0.027352495097270557,-0.00011463842851311412,-0.021709286450327214
439,0.044,189.038,576.345,-5.24206e-05,330.086,-0.452538,-0.782026,-0.00362736,0.027045,-0.021999,0.0546929,-6.55101e-05,-0.000114975,0.039968,-0.003620789077150466,0.05621620086901702,-6.550795426030209e-05,0.027414035354839328,-0.00011496839062796749,-0.021758786708065747
440,0.0441,189.106,576.558,-5.29186e-05,330.206,-0.4529,-0.78265,-0.00363632,0.0271049,-0.0220495,0.0548156,-6.56982e-05,-0.000115305,0.0400638,-0.0036297165948849797,0.05634580654800958,-6.569604192052658e-05,0.02747557929877975,-0.000115298352634019,-0.021808186641978144
441,0.0442,189.173,576.771,-5.34172e-05,330.326,-0.453262,-0.783273,-0.00364529,0.0271648,-0.0221,0.0549382,-6.58863e-05,-0.000115635,0.0401596,-0.0036386539962428577,0.056475322483056756,-6.588412954544598e-05,0.02753712692931276,-0.0001156283145310466,-0.02185758408125693
442,0.0443,189.241,576.984,-5.39166e-05,330.446,-0.453622,-0.783894,-0.00365426,0.0272246,-0.0221506,0.0550609,-6.60745e-05,-0.000115965,0.0402554,-0.0036475913174325303,0.0566049599582219,-6.60723171282962e-05,0.027598575486796895,-0.00011595827631927236,-0.021907076835325223
443,0.0444,189.308,577.196,-5.44167e-05,330.565,-0.453981,-0.784514,-0.00366322,0.0272845,-0.0222011,0.0551835,-6.62627e-05,-0.000116295,0.0403513,-0.0036565185950201418,0.05673450766742527,-6.62605046757303e-05,0.02766013048502214,-0.00011628823799858523,-0.021956469280775215
444,0.0445,189.375,577.407,-5.49175e-05,330.685,-0.45434,-0.785132,-0.00367219,0.0273443,-0.0222516,0.0553061,-6.6451e-05,-0.000116626,0.0404471,-0.003665455755965108,0.05686407126015114,-6.644879218120625e-05,0.02772158639833866,-0.00011661919945238353,-0.02200585923196985
445,0.0446,189.442,577.619,-5.54189e-05,330.804,-0.454698,-0.785749,-0.00368115,0.0274042,-0.0223021,0.0554287,-6.66393e-05,-0.000116956,0.0405429,-0.00367438287348798,0.05699365073834728,-6.663707965115506e-05,0.027783148765138543,-0.0001169491609136486,-0.022055246689034802
446,0.0447,189.509,577.83,-5.59211e-05,330.922,-0.455055,-0.786365,-0.00369012,0.027464,-0.0223526,0.0555513,-6.68277e-05,-0.000117287,0.0406387,-0.0036833198741910156,0.05712324610396147,-6.68254670790347e-05,0.02784461203516808,-0.00011728012214873296,-0.022104631652096196
447,0.0448,189.576,578.04,-5.6424e-05,331.041,-0.455411,-0.786979,-0.00369908,0.0275239,-0.0224031,0.0556739,-6.70162e-05,-0.000117618,0.0407345,-0.003692246831652146,0.05725285735894148,-6.70139544646231e-05,0.02790618177142412,-0.0001176110832742383,-0.02215401412127993
448,0.0449,189.643,578.25,-5.69275e-05,331.159,-0.455767,-0.787592,-0.00370805,0.0275837,-0.0224536,0.0557965,-6.72047e-05,-0.000117949,0.0408303,-0.0037011836721162483,0.05738248450523531,-6.720244181468438e-05,0.027967652399047527,-0.00011794204429016464,-0.022203394096711904
449,0.045,189.709,578.46,-5.74318e-05,331.278,-0.456121,-0.788203,-0.00371701,0.0276435,-0.0225041,0.0559191,-6.73932e-05,-0.00011828,0.040926,-0.003710110469518524,0.057512127544791625,-6.739092912932954e-05,0.028029126702724394,-0.00011827300519662298,-0.022252771578518127
450,0.0451,189.776,578.669,-5.79367e-05,331.395,-0.456475,-0.788814,-0.00372597,0.0277033,-0.0225546,0.0560416,-6.75819e-05,-0.000118611,0.0410218,-0.003719037186936891,0.057641680715385446,-6.757961639480836e-05,0.028090604682674547,-0.00011860396599339129,-0.0223021465668245
451,0.0452,189.842,578.878,-5.84424e-05,331.513,-0.456828,-0.789422,-0.00373494,0.0277631,-0.0226051,0.0561641,-6.77705e-05,-0.000118942,0.0411176,-0.0037279737870926644,0.057771249757214926,-6.776820363152414e-05,0.02815208633911781,-0.00011893492668080263,-0.022351519061756808
452,0.0453,189.908,579.086,-5.89487e-05,331.631,-0.457181,-0.79003,-0.0037439,0.027823,-0.0226556,0.0562867,-6.79592e-05,-0.000119273,0.0412133,-0.0037369003444565063,0.05790094046231298,-6.795689082583767e-05,0.02821367449363632,-0.00011926588725852394,-0.022400889063441176
453,0.0454,189.974,579.294,-5.94557e-05,331.748,-0.457532,-0.790636,-0.00375286,0.0278828,-0.0227061,0.0564092,-6.8148e-05,-0.000119604,0.0413091,-0.0037458268218386603,0.05803054126540674,-6.814567797774895e-05,0.028275163509874135,-0.00011959684772677726,-0.02245025657200339
454,0.0455,190.04,579.502,-5.99634e-05,331.865,-0.457883,-0.79124,-0.00376183,0.0279426,-0.0227565,0.0565317,-6.83368e-05,-0.000119936,0.0414048,-0.003754763181692433,0.05816015794557128,-6.833446509402208e-05,0.02833665620326542,-0.00011992880796551919,-0.022499523837526625
455,0.0456,190.106,579.709,-6.04717e-05,331.982,-0.458233,-0.791844,-0.00377079,0.0280023,-0.022807,0.0566542,-6.85257e-05,-0.000120267,0.0415005,-0.003763689499024392,0.05828979050475169,-6.852335216789296e-05,0.028398049734219333,-0.00012025976821428142,-0.022548886365158616
456,0.0457,190.172,579.916,-6.09807e-05,332.098,-0.458582,-0.792446,-0.00377975,0.0280621,-0.0228575,0.0567767,-6.87147e-05,-0.000120599,0.0415963,-0.003772615736376883,0.05841943894489332,-6.871233919902853e-05,0.028459549776426396,-0.00012059172823297715,-0.022598246400045707
457,0.0458,190.237,580.122,-6.14905e-05,332.215,-0.458931,-0.793047,-0.00378871,0.0281219,-0.0229079,0.0568992,-6.89036e-05,-0.00012093,0.041692,-0.003781541893750684,0.058549103267941716,-6.890122620151207e-05,0.02852105349644596,-0.00012092268826224828,-0.02264750620706968
458,0.0459,190.303,580.329,-6.20008e-05,332.331,-0.459278,-0.793646,-0.00379767,0.0281817,-0.0229584,0.0570216,-6.90927e-05,-0.000121262,0.0417877,-0.0037904679711463496,0.05867867760796974,-6.909031315438519e-05,0.028582560894497844,-0.00012125464806089781,-0.0226968612617805
459,0.046,190.368,580.534,-6.25119e-05,332.447,-0.459625,-0.794244,-0.00380663,0.0282414,-0.0230089,0.0571441,-6.92818e-05,-0.000121594,0.0418834,-0.003799393968564879,0.05880837368969938,-6.927940007150912e-05,0.028643969106400213,-0.00012158660774919117,-0.022746213824124117
460,0.0461,190.433,580.74,-6.30236e-05,332.562,-0.459971,-0.794841,-0.00381559,0.0283012,-0.0230593,0.0572665,-6.94709e-05,-0.000121926,0.0419791,-0.003808319886006717,0.058937979766369164,-6.946848695288388e-05,0.02870548385502536,-0.0001219185673273504,-0.022795466173777812
461,0.0462,190.498,580.944,-6.3536e-05,332.678,-0.460317,-0.795436,-0.00382455,0.028361,-0.0231098,0.0573889,-6.96601e-05,-0.000122258,0.0420748,-0.003817245723472751,0.05906760170779357,-6.965767379152332e-05,0.028767002282342524,-0.0001222505267952645,-0.022844813756699
462,0.0463,190.563,581.149,-6.4049e-05,332.793,-0.460661,-0.796031,-0.00383351,0.0284207,-0.0231602,0.0575113,-6.98493e-05,-0.00012259,0.0421705,-0.003826171480963647,0.0591972395159146,-6.984686059441358e-05,0.0288284215057244,-0.00012258248615304446,-0.02289406113704129
463,0.0464,190.628,581.353,-6.45628e-05,332.908,-0.461005,-0.796623,-0.00384247,0.0284805,-0.0232106,0.0576337,-7.00386e-05,-0.000122922,0.0422662,-0.003835097158480072,0.05932689319267448,-7.003614735456853e-05,0.028889947284932882,-0.00012291444540046825,-0.022943306035378086
464,0.0465,190.692,581.557,-6.50771e-05,333.023,-0.461348,-0.797215,-0.00385143,0.0285402,-0.0232611,0.0577561,-7.0228e-05,-0.000123255,0.0423619,-0.0038440227560228024,0.05945656274001565,-7.022553407176613e-05,0.028951373848350448,-0.0001232474044146059,-0.022992646152574903
465,0.0466,190.757,581.76,-6.55922e-05,333.137,-0.461691,-0.797805,-0.00386039,0.0285999,-0.0233115,0.0578785,-7.04174e-05,-0.000123587,0.0424575,-0.0038529482735925047,0.059586248159880784,-7.041492075310352e-05,0.029012804079043386,-0.00012357936344131737,-0.023041886082352137
466,0.0467,190.821,581.963,-6.61079e-05,333.252,-0.462033,-0.798395,-0.00386935,0.0286597,-0.0233619,0.0580009,-7.06068e-05,-0.00012392,0.0425532,-0.003861873711189956,0.05971594945421277,-7.06043073985807e-05,0.029074340884659433,-0.00012391232223396553,-0.02309112353049947
467,0.0468,190.886,582.166,-6.66242e-05,333.366,-0.462374,-0.798982,-0.00387831,0.0287194,-0.0234123,0.0581232,-7.07963e-05,-0.000124252,0.0426489,-0.0038707990688158223,0.05984556064039359,-7.079379400110053e-05,0.029135778456703454,-0.00012424428103996465,-0.02314035849714191
468,0.0469,190.95,582.368,-6.71412e-05,333.48,-0.462714,-0.799569,-0.00388727,0.0287791,-0.0234628,0.0582456,-7.09859e-05,-0.000124585,0.0427445,-0.003879724346470881,0.059975293676515884,-7.0983380560663e-05,0.0291972196966801,-0.00012457723961112332,-0.023189688663440622
469,0.047,191.014,582.57,-6.76588e-05,333.594,-0.463053,-0.800154,-0.00389622,0.0288388,-0.0235132,0.0583679,-7.11755e-05,-0.000124918,0.0428401,-0.003888639583042197,0.060104936582434654,-7.117296708414322e-05,0.029258664604808304,-0.00012491019807148174,-0.023238918662525587
470,0.0471,191.078,582.771,-6.81771e-05,333.707,-0.463392,-0.800738,-0.00390518,0.0288985,-0.0235636,0.0584902,-7.13651e-05,-0.00012525,0.0429358,-0.0038975647008470116,0.060234595344650366,-7.136255357187427e-05,0.029320113181307006,-0.0001252421565461903,-0.02328814618048114
471,0.0472,191.142,582.973,-6.86961e-05,333.82,-0.46373,-0.801321,-0.00391414,0.0289582,-0.023614,0.0586125,-7.15548e-05,-0.000125583,0.0430314,-0.003906489738683017,0.06036426996510236,-7.155224001631488e-05,0.02938156542639514,-0.00012557511478517025,-0.02333737121743229
472,0.0473,191.205,583.173,-6.92157e-05,333.934,-0.464068,-0.801903,-0.0039231,0.0290179,-0.0236644,0.0587348,-7.17446e-05,-0.000125916,0.043127,-0.0039154146965511005,0.06049396044573041,-7.174202641768712e-05,0.029443021340291864,-0.0001259080729132389,-0.02338659377350416
473,0.0474,191.269,583.374,-6.97359e-05,334.046,-0.464404,-0.802483,-0.00393205,0.0290776,-0.0237148,0.0588571,-7.19344e-05,-0.00012625,0.0432226,-0.0039243296136952655,0.060623666788474084,-7.193181278308813e-05,0.029504480923216114,-0.00012624203080413565,-0.02343581384882165
474,0.0475,191.332,583.574,-7.02568e-05,334.159,-0.46474,-0.803062,-0.00394101,0.0291373,-0.0237652,0.0589794,-7.21242e-05,-0.000126583,0.0433182,-0.003933254411718767,0.060753388995273605,-7.21215991124069e-05,0.02956594417538705,-0.00012657498871004869,-0.023485031443509885
475,0.0476,191.396,583.773,-7.07783e-05,334.272,-0.465075,-0.80364,-0.00394996,0.029197,-0.0238156,0.0591017,-7.23141e-05,-0.000126916,0.0434138,-0.003942169169198206,0.060883127068068976,-7.231148539854626e-05,0.029627411097023826,-0.00012690794650516146,-0.02353424655769376
476,0.0477,191.459,583.973,-7.13005e-05,334.384,-0.46541,-0.804217,-0.00395892,0.0292566,-0.0238659,0.0592239,-7.25041e-05,-0.000127249,0.0435094,-0.003951093807380013,0.06101277490751844,-7.250147164128418e-05,0.029688778719462183,-0.00012724090418936296,-0.023583361549839532
477,0.0478,191.522,584.172,-7.18232e-05,334.496,-0.465744,-0.804792,-0.00396787,0.0293163,-0.0239163,0.0593462,-7.26941e-05,-0.000127583,0.043605,-0.0039600084051975015,0.061142544705151014,-7.269145784793984e-05,0.029750252974539926,-0.0001275748616351713,-0.023632571708311012
478,0.0479,191.585,584.37,-7.23467e-05,334.608,-0.466077,-0.805367,-0.00397683,0.029376,-0.0239667,0.0594684,-7.28841e-05,-0.000127916,0.0437006,-0.003968932883540499,0.061272224247372664,-7.288144401851326e-05,0.02981173089974032,-0.00012790781909732818,-0.023681779386653057
479,0.048,191.648,584.568,-7.28707e-05,334.719,-0.466409,-0.80594,-0.00398578,0.0294356,-0.0240171,0.0595906,-7.30742e-05,-0.00012825,0.0437962,-0.003977847321699035,0.06140191963740271,-7.307153014568524e-05,0.02987310950796629,-0.00012824177632031475,-0.023730984584990455
480,0.0481,191.711,584.766,-7.33954e-05,334.831,-0.466741,-0.806512,-0.00399473,0.0294953,-0.0240674,0.0597128,-7.32643e-05,-0.000128584,0.0438917,-0.003986761680073614,0.06153163087717761,-7.326161623666394e-05,0.029934594767920597,-0.00012857573343183493,-0.02378008968146239
481,0.0482,191.773,584.964,-7.39208e-05,334.942,-0.467072,-0.807082,-0.00400369,0.0295549,-0.0241178,0.059835,-7.34545e-05,-0.000128917,0.0439873,-0.003995685918708358,0.0616613579686347,-7.34518022842412e-05,0.029995980699051517,-0.00012890869056059184,-0.023829289925085817
482,0.0483,191.836,585.161,-7.44467e-05,335.053,-0.467402,-0.807652,-0.00401264,0.0296146,-0.0241682,0.0599572,-7.36448e-05,-0.000129251,0.0440828,-0.004004600117428314,0.06179110091371087,-7.364208828830598e-05,0.030057473294634818,-0.00012924264744940128,-0.02387848768907952
483,0.0484,191.898,585.358,-7.49733e-05,335.164,-0.467732,-0.80822,-0.00402159,0.0296742,-0.0242185,0.0600794,-7.3835e-05,-0.000129585,0.0441784,-0.004013514236366533,0.06192085971434391,-7.38322742634967e-05,0.030118866549543988,-0.00012957660422652229,-0.023927585366331883
484,0.0485,191.96,585.554,-7.55005e-05,335.275,-0.468061,-0.808787,-0.00403055,0.0297338,-0.0242689,0.0602015,-7.40254e-05,-0.000129919,0.0442739,-0.004022438235299353,0.062050528167412855,-7.40226601876337e-05,0.030180263463600365,-0.0001299105608921769,-0.023976778176360125
485,0.0486,192.023,585.75,-7.60283e-05,335.385,-0.46839,-0.809354,-0.0040395,0.0297934,-0.0243192,0.0603237,-7.42157e-05,-0.000130253,0.0443695,-0.004031352194587168,0.06218031867199336,-7.421294608311868e-05,0.030241664037021554,-0.0001302445174462541,-0.0240258709097253
486,0.0487,192.085,585.946,-7.65568e-05,335.495,-0.468717,-0.809918,-0.00404845,0.0298531,-0.0243695,0.0604458,-7.44062e-05,-0.000130588,0.044465,-0.0040402660740953555,0.06231001880693521,-7.44034319273279e-05,0.030303171300338105,-0.0001305794737582744,-0.024074961173788045
487,0.0488,192.147,586.141,-7.70859e-05,335.605,-0.469044,-0.810482,-0.0040574,0.0299127,-0.0244199,0.0605679,-7.45966e-05,-0.000130922,0.0445605,-0.004049179873824582,0.06243973477923048,-7.459381774277407e-05,0.030364579199284814,-0.00013091343008897471,-0.024124146556262827
488,0.0489,192.208,586.336,-7.76155e-05,335.715,-0.469371,-0.811045,-0.00406635,0.0299723,-0.0244702,0.06069,-7.47871e-05,-0.000131256,0.044656,-0.004058093593775847,0.06256946659081297,-7.478430351459675e-05,0.030425990758251364,-0.00013124738630809762,-0.024173231877184898
489,0.049,192.27,586.531,-7.81459e-05,335.825,-0.469696,-0.811606,-0.0040753,0.0300319,-0.0245205,0.0608121,-7.49777e-05,-0.000131591,0.0447515,-0.004067007233949482,0.06269921424361669,-7.497488924246287e-05,0.030487405977456028,-0.00013158234228416443,-0.024222314729177352
490,0.0491,192.332,586.725,-7.86768e-05,335.934,-0.470021,-0.812166,-0.00408425,0.0300915,-0.0245709,0.0609342,-7.51683e-05,-0.000131925,0.044847,-0.004075920794346599,0.06282897773957608,-7.516547493413572e-05,0.03054882485711663,-0.00013191629827979945,-0.02427149268522011
491,0.0492,192.393,586.919,-7.92083e-05,336.044,-0.470346,-0.812725,-0.0040932,0.0301511,-0.0246212,0.0610563,-7.5359e-05,-0.00013226,0.0449425,-0.00408483427496753,0.0629587570806256,-7.535616058185202e-05,0.030610247397451662,-0.00013225125403182325,-0.02432057059481829
492,0.0493,192.455,587.113,-7.97405e-05,336.153,-0.470669,-0.813283,-0.00410215,0.0302106,-0.0246715,0.0611784,-7.55497e-05,-0.000132594,0.045038,-0.004093747675813275,0.06308855226870014,-7.554684619326402e-05,0.030671570531517034,-0.0001325852098040814,-0.02436964603585967
493,0.0494,192.516,587.306,-8.02732e-05,336.262,-0.470992,-0.81384,-0.0041111,0.0302702,-0.0247218,0.0613004,-7.57404e-05,-0.000132929,0.0451334,-0.004102660996884389,0.06321825698390371,-7.573753176837172e-05,0.030733000387712206,-0.00013292016533195117,-0.02441871900846848
494,0.0495,192.577,587.499,-8.08066e-05,336.37,-0.471315,-0.814396,-0.00412005,0.0303298,-0.0247721,0.0614225,-7.59312e-05,-0.000133264,0.0452289,-0.004111574238181648,0.06334808385885093,-7.592831729941185e-05,0.03079443390523595,-0.0001332551207475774,-0.024467789512768845
495,0.0496,192.638,587.692,-8.13406e-05,336.479,-0.471636,-0.814951,-0.004129,0.0303894,-0.0248224,0.0615445,-7.6122e-05,-0.000133599,0.0453244,-0.004120487399705719,0.06347782023883997,-7.611910279403666e-05,0.03085587108430632,-0.00013359007605096007,-0.024516857548884885
496,0.0497,192.699,587.884,-8.18752e-05,336.587,-0.471957,-0.815504,-0.00413794,0.0304489,-0.0248727,0.0616665,-7.63129e-05,-0.000133934,0.0454198,-0.004129390522751408,0.06360757244763282,-7.630998824470492e-05,0.030917208833415977,-0.00013392503124221022,-0.024565923116940835
497,0.0498,192.76,588.076,-8.24104e-05,336.695,-0.472278,-0.816057,-0.00414689,0.0305085,-0.024923,0.0617885,-7.65038e-05,-0.000134269,0.0455153,-0.004138303524820475,0.06373734048716084,-7.650087365895786e-05,0.0309786533300902,-0.00013425998632121683,-0.024614986217060708
498,0.0499,192.821,588.268,-8.29462e-05,336.803,-0.472598,-0.816608,-0.00415584,0.030568,-0.0249733,0.0619105,-7.66948e-05,-0.000134604,0.0456107,-0.0041472164471185735,0.0638671243593556,-7.66918590290322e-05,0.03103999838496052,-0.0001345949412880909,-0.024664046849368737
499,0.05,192.882,588.459,-8.34826e-05,336.911,-0.472917,-0.817158,-0.00416479,0.0306276,-0.0250236,0.0620325,-7.68858e-05,-0.000134939,0.0457061,-0.00415612928964626,0.06399692406614843,-7.68828443625802e-05,0.031101450200110126,-0.00013492989614261042,-0.024713105013989045
500,0.0501,192.942,588.65,-8.40196e-05,337.019,-0.473235,-0.817707,-0.00417373,0.0306871,-0.0250738,0.0621545,-7.70769e-05,-0.000135275,0.0458016,-0.0041650320940548324,0.0641267396094718,-7.707392965206061e-05,0.031162802561611747,-0.00013526585074974395,-0.024762063187256933
501,0.0502,193.003,588.841,-8.45572e-05,337.126,-0.473553,-0.818255,-0.00418268,0.0307466,-0.0251241,0.0622765,-7.7268e-05,-0.00013561,0.045897,-0.004173944777133287,0.06425657099125726,-7.72650149050147e-05,0.031224158573687433,-0.00013560080537955432,-0.024811116421779356
502,0.0503,193.063,589.031,-8.50954e-05,337.233,-0.473871,-0.818802,-0.00419162,0.0308062,-0.0251744,0.0623984,-7.74591e-05,-0.000135946,0.0459924,-0.004182847422272151,0.06438631177480136,-7.745610012133142e-05,0.03128562136511137,-0.0001359367597613126,-0.024860167188986204
503,0.0504,193.123,589.221,-8.56342e-05,337.34,-0.474187,-0.819348,-0.00420057,0.0308657,-0.0252247,0.0625204,-7.76503e-05,-0.000136281,0.0460878,-0.004191759945904039,0.06451617482632277,-7.764728529346954e-05,0.031346984685123314,-0.0001362717141663028,-0.02490921548900149
504,0.0505,193.183,589.411,-8.61736e-05,337.447,-0.474503,-0.819893,-0.00420951,0.0309252,-0.0252749,0.0626423,-7.78415e-05,-0.000136617,0.0461832,-0.00420066243177597,0.06464594725750317,-7.783847042908132e-05,0.031408351656361466,-0.00013660766832257476,-0.024958163817770718
505,0.0506,193.243,589.6,-8.67136e-05,337.553,-0.474819,-0.820436,-0.00421846,0.0309847,-0.0253252,0.0627642,-7.80328e-05,-0.000136952,0.0462786,-0.004209574795964288,0.06477573550890714,-7.802975552029245e-05,0.03146972227904277,-0.00013694262250296685,-0.025007207188679548
506,0.0507,193.303,589.789,-8.72542e-05,337.66,-0.475134,-0.820979,-0.0042274,0.0310442,-0.0253754,0.0628861,-7.82241e-05,-0.000137288,0.046374,-0.004218477122572173,0.06490553958246315,-7.822104057486623e-05,0.03153109655338504,-0.00013727857643375252,-0.025056150598388727
507,0.0508,193.363,589.977,-8.77953e-05,337.766,-0.475448,-0.821521,-0.00423634,0.0311037,-0.0254257,0.063008,-7.84155e-05,-0.000137624,0.0464693,-0.004227379369593609,0.06503535948010031,-7.841242558503936e-05,0.031592474479605226,-0.00013761453025173953,-0.025105189040686482
508,0.0509,193.423,590.166,-8.83371e-05,337.872,-0.475761,-0.822061,-0.00424529,0.0311632,-0.0254759,0.0631299,-7.86069e-05,-0.00013796,0.0465647,-0.004236291494666422,0.06516519520374753,-7.860381055857513e-05,0.03165385605792048,-0.00013795048395681686,-0.025154127531830217
509,0.051,193.482,590.354,-8.88795e-05,337.978,-0.476074,-0.822601,-0.00425423,0.0312227,-0.0255262,0.0632518,-7.87984e-05,-0.000138296,0.0466601,-0.004245193582428142,0.06529504675533415,-7.879529548759923e-05,0.03171524128854841,-0.0001382864375489845,-0.025203161046012168
510,0.0511,193.542,590.542,-8.94224e-05,338.084,-0.476387,-0.823139,-0.00426317,0.0312822,-0.0255764,0.0633736,-7.89898e-05,-0.000138632,0.0467554,-0.004254095590605411,0.06542480759430358,-7.898668038786028e-05,0.0317766301717064,-0.0001386223910283535,-0.02525209461908473
511,0.0512,193.601,590.729,-8.99659e-05,338.189,-0.476698,-0.823676,-0.00427212,0.0313417,-0.0256266,0.0634955,-7.91814e-05,-0.000138968,0.0468508,-0.004263007476569158,0.06555469079456944,-7.917826523573535e-05,0.03183802270761138,-0.0001389583443948128,-0.025301025735753546
512,0.0513,193.66,590.916,-9.051e-05,338.295,-0.477009,-0.824213,-0.00428106,0.0314011,-0.0256769,0.0636173,-7.93729e-05,-0.000139304,0.0469461,-0.00427190932549093,0.0656844832601089,-7.936975005473634e-05,0.03189931570654414,-0.00013929429764836243,-0.025350051861141698
513,0.0514,193.72,591.103,-9.10547e-05,338.4,-0.47732,-0.824748,-0.00429,0.0314606,-0.0257271,0.0637391,-7.95646e-05,-0.000139641,0.0470414,-0.004280811094830694,0.06581429153533347,-7.956143482112932e-05,0.03196071554245572,-0.00013963125064941906,-0.025398978060480304
514,0.0515,193.779,591.289,-9.16e-05,338.505,-0.47763,-0.825282,-0.00429894,0.0315201,-0.0257773,0.063861,-7.97562e-05,-0.000139977,0.0471368,-0.004289712784588895,0.0659442222165858,-7.975301955887026e-05,0.032022119031766216,-0.00013996720367681625,-0.025447901803785422
515,0.0516,193.838,591.475,-9.21459e-05,338.61,-0.477939,-0.825816,-0.00430788,0.0315795,-0.0258275,0.0639828,-7.99479e-05,-0.000140313,0.0472321,-0.004298614394766309,0.06607406212994205,-7.994470425176647e-05,0.03208342296634559,-0.0001403031565914148,-0.025496823091180287
516,0.0517,193.897,591.661,-9.26923e-05,338.714,-0.478248,-0.826348,-0.00431682,0.031639,-0.0258777,0.0641045,-8.01397e-05,-0.00014065,0.0473274,-0.004307515925363714,0.06620381123837626,-8.013648890003999e-05,0.032144833756964974,-0.00014064010925252113,-0.025545741922788245
517,0.0518,193.955,591.847,-9.32394e-05,338.819,-0.478556,-0.826879,-0.00432576,0.0316984,-0.0259279,0.0642263,-8.03314e-05,-0.000140987,0.0474227,-0.004316417376381776,0.06633368277160101,-8.032817351943944e-05,0.03220614498101537,-0.00014097706179994063,-0.02559465829873242
518,0.0519,194.014,592.032,-9.3787e-05,338.923,-0.478864,-0.827409,-0.0043347,0.0317579,-0.0259782,0.0643481,-8.05233e-05,-0.000141323,0.047518,-0.004325318747821272,0.06646357012414184,-8.052005808611984e-05,0.03226756307381207,-0.000141313014375255,-0.02564366965477405
519,0.052,194.073,592.217,-9.43351e-05,339.027,-0.479171,-0.827938,-0.00434364,0.0318173,-0.0260283,0.0644699,-8.07151e-05,-0.00014166,0.0476133,-0.004334220039682868,0.06659347329792564,-8.071184262392617e-05,0.03232888158820035,-0.00014164996669596697,-0.02569248368412269
520,0.0521,194.131,592.401,-9.48839e-05,339.131,-0.479477,-0.828466,-0.00435258,0.0318767,-0.0260785,0.0645916,-8.0907e-05,-0.000141997,0.0477086,-0.00434312125196723,0.0667232856225457,-8.090372711688776e-05,0.03239020374501678,-0.00014198691890321413,-0.025741392693815257
521,0.0522,194.189,592.585,-9.54332e-05,339.235,-0.479783,-0.828994,-0.00436151,0.0319361,-0.0261287,0.0647133,-8.1099e-05,-0.000142334,0.0478038,-0.004352012428195273,0.06685311374628711,-8.109571156500461e-05,0.03245152954447739,-0.00014232387099677446,-0.02579029924833731
522,0.0523,194.248,592.769,-9.59831e-05,339.338,-0.480088,-0.82952,-0.00437045,0.0319956,-0.0261789,0.064835,-8.1291e-05,-0.000142671,0.0478991,-0.0043609134814163175,0.06698295767107254,-8.128769597615104e-05,0.03251296223808975,-0.00014266082297687,-0.025839203347811868
523,0.0524,194.306,592.953,-9.65336e-05,339.442,-0.480393,-0.830045,-0.00437939,0.032055,-0.0262291,0.0649568,-8.1483e-05,-0.000143008,0.0479944,-0.00436981445506246,0.06711292411011227,-8.147968035054909e-05,0.03257429532962153,-0.0001429977748433897,-0.02588810499236227
524,0.0525,194.364,593.136,-9.70846e-05,339.545,-0.480697,-0.830569,-0.00438833,0.0321144,-0.0262793,0.0650785,-8.16751e-05,-0.000143345,0.0480896,-0.0043787153491341435,0.0672427996557432,-8.167176467976933e-05,0.032635632064447195,-0.00014333472659633362,-0.025937004182111645
525,0.0526,194.422,593.319,-9.76362e-05,339.648,-0.481001,-0.831092,-0.00439726,0.0321738,-0.0263295,0.0652002,-8.18672e-05,-0.000143682,0.0481849,-0.004387606207508332,0.06737269100818977,-8.18638489722412e-05,0.03269697244278302,-0.00014367167823581273,-0.025985900917183447
526,0.0527,194.48,593.502,-9.81884e-05,339.751,-0.481303,-0.831614,-0.0044062,0.0322332,-0.0263796,0.0653218,-8.20593e-05,-0.000144019,0.0482801,-0.004396506942522471,0.06750249141912135,-8.205593322774263e-05,0.032758316464845505,-0.00014400862976171602,-0.02603469780117529
527,0.0528,194.538,593.685,-9.87412e-05,339.853,-0.481606,-0.832136,-0.00441513,0.0322926,-0.0264298,0.0654435,-8.22515e-05,-0.000144356,0.0483753,-0.004405397642018416,0.06763241437797873,-8.224811743806626e-05,0.032819664130851134,-0.00014434558117393248,-0.026083589632150517
528,0.0529,194.595,593.867,-9.92945e-05,339.956,-0.481908,-0.832656,-0.00442407,0.0323519,-0.0264799,0.0655651,-8.24437e-05,-0.000144694,0.0484705,-0.004414298217977897,0.06776224637319239,-8.244030161153049e-05,0.032880912152920105,-0.00014468353232810482,-0.02613238162206033
529,0.053,194.653,594.048,-9.98484e-05,340.058,-0.482209,-0.833175,-0.004433,0.0324113,-0.0265301,0.0656868,-8.2636e-05,-0.000145031,0.0485658,-0.004423188758598484,0.06789220094615156,-8.263258573981691e-05,0.03294226710132575,-0.0001450204835129476,-0.026181268549430814
530,0.0531,194.711,594.23,-0.000100403,340.161,-0.48251,-0.833694,-0.00444194,0.0324707,-0.0265802,0.0658084,-8.28283e-05,-0.000145369,0.048661,-0.004432089175506082,0.0680220645333327,-8.282486983102189e-05,0.0330036256943238,-0.0001453584344388581,-0.02623005564574954
531,0.0532,194.768,594.411,-0.000100958,340.263,-0.48281,-0.834211,-0.00445087,0.0325301,-0.0266304,0.06593,-8.30207e-05,-0.000145706,0.0487562,-0.004440979557254088,0.06815194391288615,-8.301725387704906e-05,0.03306498793213053,-0.0001456953853963272,-0.026278937670006997
532,0.0533,194.825,594.592,-0.000101513,340.364,-0.483109,-0.834727,-0.0044598,0.0325894,-0.0266805,0.0660516,-8.3213e-05,-0.000146044,0.0488514,-0.004449869859611377,0.06828183908673235,-8.320953789431318e-05,0.03312625050233198,-0.00014603333609419789,-0.026327719873225353
533,0.0534,194.882,594.773,-0.00010207,340.466,-0.483408,-0.835243,-0.00446874,0.0326488,-0.0267307,0.0661732,-8.34055e-05,-0.000146381,0.0489466,-0.004458770037991,0.06841175005679223,-8.340202185797008e-05,0.03318762002426867,-0.0001463702868241823,-0.026376596994861723
534,0.0535,194.94,594.953,-0.000102626,340.568,-0.483707,-0.835757,-0.00447767,0.0327081,-0.0267808,0.0662948,-8.35979e-05,-0.000146719,0.0490417,-0.004467660181480038,0.06854167682498669,-8.359440579297495e-05,0.033248889866769105,-0.00014670823729390214,-0.026425374305470428
535,0.0536,194.997,595.133,-0.000103183,340.669,-0.484005,-0.836271,-0.0044866,0.0327675,-0.0268309,0.0664164,-8.37904e-05,-0.000147057,0.0491369,-0.0044765502455804684,0.06867161939323663,-8.378688968246895e-05,0.033310266673700184,-0.00014704618764938004,-0.0264741491723971
536,0.0537,195.054,595.313,-0.000103741,340.77,-0.484302,-0.836783,-0.00449554,0.0328268,-0.0268811,0.066538,-8.3983e-05,-0.000147395,0.0492321,-0.004485450185438444,0.0688015777634634,-8.39794735265631e-05,0.03337154378936247,-0.000147384137890616,-0.02652301894346709
537,0.0538,195.11,595.492,-0.0001043,340.871,-0.484599,-0.837295,-0.00450447,0.0328861,-0.0269312,0.0666595,-8.41755e-05,-0.000147733,0.0493272,-0.004494340090674842,0.06893144504443938,-8.417195734200522e-05,0.033432824538865535,-0.00014772208801772102,-0.026571788918519967
538,0.0539,195.167,595.672,-0.000104859,340.972,-0.484895,-0.837806,-0.0045134,0.0329455,-0.0269813,0.066781,-8.43682e-05,-0.000148071,0.0494224,-0.0045032299165246314,0.06906132810524834,-8.436464110350705e-05,0.033494212271840684,-0.0001480600380305841,-0.026620556450258293
539,0.054,195.224,595.85,-0.000105418,341.073,-0.485191,-0.838315,-0.00452233,0.0330048,-0.0270314,0.0669026,-8.45608e-05,-0.000148409,0.0495175,-0.004512119662988701,0.0691913338669361,-8.455722483635686e-05,0.033555500295800345,-0.0001483979879290942,-0.026669321538804525
540,0.0541,195.28,596.029,-0.000105978,341.173,-0.485486,-0.838824,-0.00453126,0.0330641,-0.0270815,0.0670241,-8.47535e-05,-0.000148747,0.0496127,-0.004521009330067716,0.0693212485061554,-8.474990852358477e-05,0.033616791954247605,-0.00014873593771347338,-0.0267180841842809
541,0.0542,195.337,596.207,-0.000106539,341.274,-0.485781,-0.839332,-0.00454019,0.0331234,-0.0271316,0.0671456,-8.49462e-05,-0.000149085,0.0497078,-0.004529898917762343,0.06945117893096242,-8.494259217373124e-05,0.03367808724739807,-0.0001490738873836106,-0.026766844386809985
542,0.0543,195.393,596.385,-0.0001071,341.374,-0.486075,-0.839839,-0.00454912,0.0331827,-0.0271817,0.0672671,-8.5139e-05,-0.000149424,0.0498029,-0.004538788426073248,0.06958112514327497,-8.513537577814478e-05,0.0337393861754669,-0.0001494128367901526,-0.026815602146514128
543,0.0544,195.45,596.563,-0.000107661,341.474,-0.486369,-0.840345,-0.00455805,0.033242,-0.0272318,0.0673886,-8.53318e-05,-0.000149762,0.049898,-0.004547677855001209,0.06971108714501173,-8.532815934547688e-05,0.03380068873867015,-0.00014975078623147287,-0.026864357463515676
544,0.0545,195.506,596.74,-0.000108224,341.574,-0.486662,-0.84085,-0.00456697,0.0333013,-0.0272819,0.06751,-8.55246e-05,-0.000150101,0.0499931,-0.004556557250112614,0.06984095795398981,-8.552094287561651e-05,0.033861994937223194,-0.00015008973540853177,-0.026913110337937085
545,0.0546,195.562,596.918,-0.000108786,341.674,-0.486954,-0.841355,-0.0045759,0.0333606,-0.027332,0.0676315,-8.57175e-05,-0.000150439,0.0500882,-0.0045654465203657235,0.0699709515273308,-8.571382636002323e-05,0.033923304771341645,-0.00015042768462103506,-0.026961860769900592
546,0.0547,195.618,597.095,-0.00010935,341.773,-0.487246,-0.841858,-0.00458483,0.0334199,-0.0273821,0.0677529,-8.59104e-05,-0.000150778,0.0501833,-0.004574335711237998,0.07010085388575993,-8.590670980723747e-05,0.033984618241241105,-0.00015076663356861086,-0.027010608759528765
547,0.0548,195.674,597.271,-0.000109914,341.872,-0.487538,-0.842361,-0.00459376,0.0334792,-0.0274321,0.0678744,-8.61034e-05,-0.000151116,0.0502784,-0.004583224822730214,0.070230879038375,-8.609969320860777e-05,0.03404593534713696,-0.00015110458255240822,-0.02705925701287426
548,0.0549,195.73,597.447,-0.000110478,341.972,-0.487829,-0.842862,-0.00460268,0.0335384,-0.0274822,0.0679958,-8.62964e-05,-0.000151455,0.0503735,-0.004592103900764033,0.07036081295391927,-8.629267657278561e-05,0.0341071526785246,-0.00015144353127050092,-0.027108000123072795
549,0.055,195.785,597.623,-0.000111043,342.071,-0.488119,-0.843363,-0.00461161,0.0335977,-0.0275323,0.0681172,-8.64894e-05,-0.000151794,0.0504686,-0.004600992853586949,0.07049076264439869,-8.648565989965995e-05,0.03416847705092807,-0.00015178247987368554,-0.027156740791302703
550,0.0551,195.841,597.799,-0.000111608,342.17,-0.488409,-0.843862,-0.00462054,0.033657,-0.0275824,0.0682386,-8.66825e-05,-0.000152132,0.0505636,-0.004609881727031917,0.07062072811172793,-8.667874318069035e-05,0.03422980505997475,-0.0001521204285140909,-0.02720547901768633
551,0.0552,195.897,597.975,-0.000112175,342.268,-0.488699,-0.844361,-0.00462946,0.0337162,-0.0276324,0.06836,-8.68756e-05,-0.000152471,0.0506587,-0.004618760567287161,0.07075070935782257,-8.687182642430624e-05,0.03429103327677163,-0.00015245937688779243,-0.027254117527762522
552,0.0553,195.952,598.15,-0.000112741,342.367,-0.488988,-0.844859,-0.00463839,0.0337755,-0.0276825,0.0684814,-8.70687e-05,-0.00015281,0.0507537,-0.004627649282067159,0.07088070638459842,-8.706490963072966e-05,0.03435236855361801,-0.00015279832514658587,-0.02730285087569384
553,0.0554,196.007,598.325,-0.000113308,342.466,-0.489276,-0.845356,-0.00464731,0.0338347,-0.0277325,0.0686027,-8.72619e-05,-0.000153149,0.0508488,-0.004636527963836623,0.07101061209290482,-8.725809279119812e-05,0.03441360402638849,-0.00015313727329058224,-0.027351484517298852
554,0.0555,196.063,598.5,-0.000113876,342.564,-0.489564,-0.845853,-0.00465624,0.033894,-0.0277826,0.0687241,-8.74551e-05,-0.000153488,0.0509438,-0.004645416519954426,0.07114064067378822,-8.745127591425206e-05,0.03447494657189565,-0.00015347622131955951,-0.027400212987266248
555,0.0556,196.118,598.674,-0.000114444,342.662,-0.489851,-0.846348,-0.00466516,0.0339532,-0.0278326,0.0688454,-8.76483e-05,-0.000153827,0.0510388,-0.004654295043240775,0.07127057791403613,-8.76444590000025e-05,0.03453618930149971,-0.0001538151692336287,-0.027448841760887355
556,0.0557,196.173,598.848,-0.000115013,342.76,-0.490138,-0.846842,-0.00467408,0.0340124,-0.0278827,0.0689668,-8.78416e-05,-0.000154167,0.0511339,-0.004663173487331029,0.07140063805668584,-8.783774203957595e-05,0.03459743565678042,-0.0001541551168787736,-0.027497565353378994
557,0.0558,196.228,599.022,-0.000115582,342.858,-0.490425,-0.847336,-0.00468301,0.0340717,-0.0279327,0.0690881,-8.80349e-05,-0.000154506,0.0512289,-0.00467206180550539,0.07153060683652934,-8.803102504195692e-05,0.03465878910382658,-0.00015449406456269354,-0.027546189259503584
558,0.0559,196.283,599.195,-0.000116152,342.956,-0.49071,-0.847829,-0.00469193,0.0341309,-0.0279827,0.0692094,-8.82283e-05,-0.000154845,0.0513239,-0.004680940091116859,0.07166059138254188,-8.822440799804987e-05,0.034720042717230726,-0.00015483301213170542,-0.027594810734493547
559,0.056,196.338,599.369,-0.000116722,343.053,-0.490996,-0.848321,-0.00470085,0.0341901,-0.0280327,0.0693307,-8.84216e-05,-0.000155185,0.0514189,-0.004689818297534454,0.07179059169663615,-8.841769092549079e-05,0.03478129995695589,-0.00015517295943068277,-0.027643429778470563
560,0.0561,196.393,599.542,-0.000117293,343.15,-0.491281,-0.848812,-0.00470977,0.0342493,-0.0280828,0.069452,-8.86151e-05,-0.000155524,0.0515139,-0.00469869642475873,0.07192060778072507,-8.861117379799222e-05,0.03484256082321724,-0.00015551190676965643,-0.027692143622346732
561,0.0562,196.447,599.714,-0.000117865,343.248,-0.491565,-0.849302,-0.00471869,0.0343085,-0.0281328,0.0695733,-8.88085e-05,-0.000155864,0.0516089,-0.004707574472790466,0.07205063963672154,-8.880455664195264e-05,0.03490382531622904,-0.0001558518538378184,-0.027740757799801008
562,0.0563,196.502,599.887,-0.000118437,343.345,-0.491849,-0.849791,-0.00472761,0.0343677,-0.0281828,0.0696945,-8.9002e-05,-0.000156203,0.0517038,-0.0047164524416303255,0.07218058004847538,-8.899803943951401e-05,0.03496509343620624,-0.00015619080094653182,-0.027789369546607268
563,0.0564,196.556,600.059,-0.000119009,343.442,-0.492132,-0.850279,-0.00473653,0.0344269,-0.0282328,0.0698158,-8.91955e-05,-0.000156543,0.0517988,-0.004725330331279087,0.07231064344102056,-8.919152219966087e-05,0.03502636518336333,-0.00015653074778387843,-0.02783797886288686
564,0.0565,196.611,600.231,-0.000119582,343.538,-0.492415,-0.850767,-0.00474545,0.0344861,-0.0282828,0.069937,-8.93891e-05,-0.000156882,0.0518938,-0.004734208141737528,0.0724406153671453,-8.938510491340868e-05,0.03508764055791547,-0.00015686969466255363,-0.02788658574876146
565,0.0566,196.665,600.403,-0.000120156,343.635,-0.492698,-0.851254,-0.00475437,0.0345452,-0.0283328,0.0700582,-8.95827e-05,-0.000157222,0.0519887,-0.004743085873006092,0.07257060304682206,-8.957868758974197e-05,0.03514881604519027,-0.00015720964126908488,-0.027935190204352534
566,0.0567,196.719,600.574,-0.00012073,343.731,-0.49298,-0.85174,-0.00476329,0.0346044,-0.0283828,0.0701795,-8.97763e-05,-0.000157562,0.0520837,-0.004751963525085778,0.07270071375202636,-8.977227022854972e-05,0.03521009866904801,-0.0001575495877599309,-0.027983792229781534
567,0.0568,196.774,600.745,-0.000121304,343.828,-0.493261,-0.852225,-0.00477221,0.0346636,-0.0284328,0.0703007,-8.997e-05,-0.000157902,0.0521786,-0.004760841097977031,0.07283073295753772,-8.996595282095843e-05,0.03527138492094428,-0.0001578895341353137,-0.028032391825170033
568,0.0569,196.828,600.916,-0.000121879,343.924,-0.493542,-0.852709,-0.00478113,0.0347228,-0.0284828,0.0704219,-9.01637e-05,-0.000158242,0.0522735,-0.004769718591680738,0.07296076792233186,-9.015963537573057e-05,0.035332674801094255,-0.0001582294803951223,-0.02808098899063949
569,0.057,196.882,601.087,-0.000122455,344.02,-0.493822,-0.853192,-0.00479005,0.0347819,-0.0285328,0.070543,-9.03574e-05,-0.000158582,0.0523685,-0.004778596006197566,0.0730907113392425,-9.03533178930882e-05,0.03539386477032069,-0.00015856942653924566,-0.02812958372631147
570,0.0571,196.936,601.257,-0.000123031,344.116,-0.494102,-0.853675,-0.00479896,0.0348411,-0.0285827,0.0706642,-9.05512e-05,-0.000158922,0.0524634,-0.004787463389402946,0.07322077781532599,-9.054710036382474e-05,0.03545516190149223,-0.00015890937256790583,-0.028178078850120136
571,0.0572,196.989,601.427,-0.000123608,344.212,-0.494382,-0.854157,-0.00480788,0.0349002,-0.0286327,0.0707854,-9.0745e-05,-0.000159262,0.0525583,-0.004796340645636943,0.07335086005642166,-9.074088279703574e-05,0.03551635910992035,-0.00015924931848088075,-0.028226668731420435
572,0.0573,197.043,601.597,-0.000124185,344.307,-0.494661,-0.854638,-0.0048168,0.0349593,-0.0286827,0.0709065,-9.09388e-05,-0.000159602,0.0526532,-0.004805217822686059,0.07348085071635024,-9.09346651927212e-05,0.03557755993521039,-0.00015958926427839248,-0.028275256183287523
573,0.0574,197.097,601.767,-0.000124763,344.403,-0.49494,-0.855118,-0.00482571,0.0350185,-0.0287326,0.0710277,-9.11326e-05,-0.000159942,0.0527481,-0.004814084968692067,0.07361096448019189,-9.11284475507701e-05,0.03563886794145765,-0.00015992920996021898,-0.02832374403822191
574,0.0575,197.15,601.936,-0.000125341,344.498,-0.495218,-0.855597,-0.00483463,0.0350776,-0.0287826,0.0711488,-9.13265e-05,-0.000160283,0.052843,-0.004822961987462571,0.0737409866406733,-9.13223298621979e-05,0.03570007600723346,-0.0001602701553662378,-0.028372326636444845
575,0.0576,197.204,602.105,-0.00012592,344.593,-0.495495,-0.856076,-0.00484354,0.0351367,-0.0288326,0.0712699,-9.15205e-05,-0.000160623,0.0529378,-0.004831828975368824,0.07387102454779182,-9.151631212678257e-05,0.0357612876905129,-0.00016061010081658278,-0.028420906805598722
576,0.0577,197.257,602.274,-0.000126499,344.688,-0.495772,-0.856553,-0.00485246,0.0351959,-0.0288825,0.071391,-9.17144e-05,-0.000160963,0.0530327,-0.00484070583586349,0.07400107820345436,-9.171019436293726e-05,0.03582260657376524,-0.00016095004615135355,-0.028469387392748402
577,0.0578,197.311,602.443,-0.000127079,344.783,-0.496049,-0.85703,-0.00486137,0.035255,-0.0289325,0.0715121,-9.19084e-05,-0.000161304,0.0531276,-0.004849572665672652,0.07413114760956852,-9.190417655235983e-05,0.03588382549881519,-0.00016129099120920642,-0.028517962708985767
578,0.0579,197.364,602.611,-0.000127659,344.877,-0.496325,-0.857506,-0.00487028,0.0353141,-0.0289824,0.0716332,-9.21025e-05,-0.000161644,0.0532224,-0.004858439416478788,0.07426123276804142,-9.209825869493926e-05,0.035945048042010486,-0.0001616309363124957,-0.028566438453166643
579,0.058,197.417,602.779,-0.00012824,344.972,-0.496601,-0.857981,-0.0048792,0.0353732,-0.0290323,0.0717543,-9.22965e-05,-0.000161985,0.0533173,-0.004867316039609437,0.07439133368078088,-9.229224080908871e-05,0.03600627420356495,-0.00016197188113820093,-0.02861491177846831
580,0.0581,197.47,602.947,-0.000128822,345.066,-0.496876,-0.858456,-0.00488811,0.0354323,-0.0290823,0.0718753,-9.24906e-05,-0.000162325,0.0534121,-0.004876182632322812,0.0745213428975553,-9.2486322876284e-05,0.03606750398369263,-0.0001623118260100087,-0.028663479818668347
581,0.0582,197.523,603.114,-0.000129404,345.161,-0.497151,-0.85893,-0.00489702,0.0354914,-0.0291322,0.0719964,-9.26847e-05,-0.000162666,0.053507,-0.004885049146035159,0.07465147531153882,-9.268040490584273e-05,0.036128737382607135,-0.0001626527706035663,-0.02871194830172663
582,0.0583,197.576,603.282,-0.000129986,345.255,-0.497426,-0.859402,-0.00490593,0.0355505,-0.0291821,0.0721174,-9.28789e-05,-0.000163007,0.0536018,-0.0048939155807472545,0.07478151600735483,-9.28745868884473e-05,0.03618997440052252,-0.00016299371508088356,-0.028760414366268083
583,0.0584,197.629,603.449,-0.000130569,345.349,-0.497699,-0.859874,-0.00491484,0.0356095,-0.029232,0.0722384,-9.30731e-05,-0.000163348,0.0536966,-0.004902781936459766,0.07491157243904722,-9.30687688334153e-05,0.03625111141253634,-0.00016333465944184944,-0.028808878012413164
584,0.0585,197.682,603.616,-0.000131152,345.443,-0.497973,-0.860346,-0.00492376,0.0356686,-0.029282,0.0723594,-9.32673e-05,-0.000163688,0.0537914,-0.004911658164056809,0.07504164460851981,-9.326295074063573e-05,0.03631235566297053,-0.00016367460385025012,-0.028857436354543853
585,0.0586,197.734,603.782,-0.000131736,345.536,-0.498246,-0.860816,-0.00493267,0.0357277,-0.0293319,0.0724804,-9.34616e-05,-0.000164029,0.0538862,-0.004920524361683665,0.07517173251767728,-9.345723260067995e-05,0.03637360353304686,-0.00016401554797906837,-0.028905895159412553
586,0.0587,197.787,603.948,-0.000132321,345.63,-0.498518,-0.861286,-0.00494158,0.0357867,-0.0293818,0.0726014,-9.36558e-05,-0.00016437,0.053981,-0.004929390480312934,0.07530183616842412,-9.365141443251623e-05,0.03643475137949914,-0.00016435649199164626,-0.028954351546247148
587,0.0588,197.84,604.115,-0.000132906,345.723,-0.498791,-0.861755,-0.00495049,0.0358458,-0.0294317,0.0727224,-9.38502e-05,-0.000164711,0.0540758,-0.004938256519945505,0.07543195556266502,-9.384579620774769e-05,0.03649600648337614,-0.0001646974358879838,-0.02900280551516843
588,0.0589,197.892,604.28,-0.000133491,345.817,-0.499062,-0.862223,-0.00495939,0.0359049,-0.0294816,0.0728434,-9.40445e-05,-0.000165052,0.0541706,-0.004947112530053199,0.07556209070230535,-9.404007795466018e-05,0.03655726520753677,-0.00016503837966796997,-0.029051257066296965
589,0.059,197.944,604.446,-0.000134077,345.91,-0.499333,-0.862691,-0.0049683,0.0359639,-0.0295315,0.0729643,-9.42389e-05,-0.000165393,0.0542654,-0.004955978411782969,0.07569213402003139,-9.423445965439647e-05,0.03661842389034731,-0.0001653793233318268,-0.02909970619975344
590,0.0591,197.997,604.611,-0.000134664,346.003,-0.499604,-0.863157,-0.00497721,0.036023,-0.0295814,0.0730853,-9.44333e-05,-0.000165735,0.0543601,-0.004964844214518038,0.07582230064316975,-9.442884131627416e-05,0.03667968984959069,-0.0001657212667135477,-0.02914815291565842
591,0.0592,198.049,604.776,-0.000135251,346.096,-0.499875,-0.863623,-0.00498612,0.036082,-0.0296313,0.0732062,-9.46278e-05,-0.000166076,0.0544549,-0.004973709938259296,0.07595237542217936,-9.462332293097564e-05,0.0367408557556681,-0.00016606221014447975,-0.02919659721413259
592,0.0593,198.101,604.941,-0.000135838,346.188,-0.500144,-0.864088,-0.00499503,0.036141,-0.0296811,0.0733271,-9.48222e-05,-0.000166417,0.0545496,-0.004982575583007187,0.07608246592818046,-9.481770451724714e-05,0.03680202527064069,-0.00016640315345917145,-0.029244942019795772
593,0.0594,198.153,605.106,-0.000136426,346.281,-0.500414,-0.864553,-0.00500393,0.0362,-0.029731,0.073448,-9.50167e-05,-0.000166759,0.0546444,-0.004991431198676954,0.07621257216307464,-9.501218605634243e-05,0.036863198394721186,-0.00016674509649083902,-0.029293381488614156
594,0.0595,198.205,605.27,-0.000137015,346.373,-0.500683,-0.865016,-0.00501284,0.0362591,-0.0297809,0.0735689,-9.52113e-05,-0.0001671,0.0547391,-0.00500029668552926,0.07634269412876349,-9.520676754803947e-05,0.03692447882056493,-0.00016708603957260593,-0.02934181854036333
595,0.0596,198.257,605.434,-0.000137604,346.466,-0.500951,-0.865479,-0.00502174,0.0363181,-0.0298308,0.0736898,-9.54058e-05,-0.000167441,0.0548339,-0.005009152143481854,0.07647283182714903,-9.540124901141755e-05,0.036985659169618046,-0.00016742698253813248,-0.02939025317516397
596,0.0597,198.309,605.598,-0.000138194,346.558,-0.501219,-0.865941,-0.00503065,0.0363771,-0.0298806,0.0738107,-9.56004e-05,-0.000167783,0.0549286,-0.0050180174724411275,0.07660298526013354,-9.559583042739739e-05,0.037046843128418105,-0.0001677689252196357,-0.029438588337000415
597,0.0598,198.361,605.762,-0.000138784,346.65,-0.501487,-0.866403,-0.00503955,0.0364361,-0.0299305,0.0739316,-9.57951e-05,-0.000168124,0.0550233,-0.005026872772679547,0.07673315442961903,-9.579051179586795e-05,0.03710803069717805,-0.0001681098679523485,-0.029487018143108612
598,0.0599,198.412,605.925,-0.000139374,346.742,-0.501754,-0.866863,-0.00504846,0.0364951,-0.0299803,0.0740524,-9.59897e-05,-0.000168466,0.055118,-0.005035737943748675,0.07686323165118014,-9.598509313613057e-05,0.03716922187611127,-0.0001684518104002608,-0.029535348486169566
599,0.06,198.464,606.088,-0.000139965,346.834,-0.502021,-0.867323,-0.00505736,0.0365541,-0.0300302,0.0741732,-9.61844e-05,-0.000168808,0.0552127,-0.005044593086275584,0.07699332458701891,-9.617977442888392e-05,0.03723041666543048,-0.00016879375273126662,-0.02958377346406682
600,0.0601,198.515,606.251,-0.000140557,346.925,-0.502288,-0.867782,-0.00506627,0.0366131,-0.03008,0.0742941,-9.63791e-05,-0.000169149,0.0553074,-0.005053458099457453,0.07712354095138196,-9.637445568377867e-05,0.03729161506534884,-0.0001691346951144812,-0.02963209898883279
601,0.0602,198.567,606.414,-0.000141149,347.017,-0.502554,-0.86824,-0.00507517,0.0366721,-0.0301299,0.0744149,-9.65739e-05,-0.000169491,0.0554021,-0.005062313084275627,0.07725366533448352,-9.656923689105312e-05,0.03735281707607929,-0.0001694766372118961,-0.029680519139000494
602,0.0603,198.618,606.576,-0.000141742,347.108,-0.502819,-0.868698,-0.00508407,0.036731,-0.0301797,0.0745357,-9.67687e-05,-0.000169833,0.0554967,-0.005071167990284842,0.07738380543755974,-9.676401806035795e-05,0.03741391895643775,-0.0001698185791924045,-0.02972883984595176
603,0.0604,198.669,606.739,-0.000142335,347.199,-0.503084,-0.869155,-0.00509297,0.03679,-0.0302296,0.0746565,-9.69635e-05,-0.000170175,0.0555914,-0.005080022817485652,0.0775139612625102,-9.695879919180417e-05,0.03747512818331056,-0.00017016052105600643,-0.029777255168871086
604,0.0605,198.721,606.9,-0.000142928,347.29,-0.503349,-0.869611,-0.00510187,0.036849,-0.0302794,0.0747773,-9.71583e-05,-0.000170517,0.0556861,-0.0050888775658789465,0.07764413281123406,-9.715358028516974e-05,0.03753634102163428,-0.00017050246280270187,-0.029825571058488043
605,0.0606,198.772,607.062,-0.000143522,347.381,-0.503613,-0.870067,-0.00511078,0.0369079,-0.0303292,0.0748981,-9.73532e-05,-0.000170859,0.0557807,-0.005097742184487886,0.07777432008563068,-9.734846133102604e-05,0.03759745371187151,-0.0001708444044323798,-0.029873884542033657
606,0.0607,198.823,607.224,-0.000144117,347.472,-0.503877,-0.870521,-0.00511968,0.0369669,-0.030379,0.0750188,-9.75481e-05,-0.000171201,0.0558754,-0.0051065967751794394,0.07790441529715308,-9.754334233880169e-05,0.03765867376761456,-0.00017118634594504023,-0.029922195619627612
607,0.0608,198.874,607.385,-0.000144712,347.563,-0.50414,-0.870975,-0.00512858,0.0370258,-0.0304289,0.0751396,-9.7743e-05,-0.000171543,0.05597,-0.005115451287065476,0.07803463401557309,-9.773822330860771e-05,0.037719793663462564,-0.0001715282873409052,-0.029970601294334598
608,0.0609,198.925,607.546,-0.000145308,347.654,-0.504403,-0.871428,-0.00513748,0.0370848,-0.0304787,0.0752603,-9.7938e-05,-0.000171885,0.0560647,-0.005124305720146771,0.07816476064888311,-9.793320423068241e-05,0.037781020937475596,-0.00017187022861975265,-0.030018907555554253
609,0.061,198.976,607.707,-0.000145904,347.744,-0.504666,-0.871881,-0.00514638,0.0371437,-0.0305285,0.075381,-9.8133e-05,-0.000172227,0.0561593,-0.0051331600744238814,0.07829490298942576,-9.812818511467647e-05,0.03784214803978436,-0.0001722121697815826,-0.03006721141118196
610,0.0611,199.026,607.867,-0.0001465,347.834,-0.504928,-0.872333,-0.00515527,0.0372027,-0.0305783,0.0755017,-9.8328e-05,-0.000172569,0.0562539,-0.005142004401317735,0.07842506103909685,-9.83231659607009e-05,0.03790338253291847,-0.0001725541108266171,-0.030115512861337623
611,0.0612,199.077,608.028,-0.000147097,347.924,-0.50519,-0.872784,-0.00516417,0.0372616,-0.0306281,0.0756225,-9.8523e-05,-0.000172912,0.0563485,-0.00515085859807729,0.0785553426553216,-9.851814676864468e-05,0.03796451684253732,-0.00017289705158174407,-0.030163811906140925
612,0.0613,199.128,608.188,-0.000147695,348.015,-0.505451,-0.873234,-0.00517307,0.0373205,-0.0306779,0.0757431,-9.87181e-05,-0.000173254,0.0564431,-0.005159712716034881,0.07868542427340963,-9.871322752874612e-05,0.03802565475307329,-0.00017323899239241047,-0.030212108545711658
613,0.0614,199.178,608.348,-0.000148293,348.104,-0.505712,-0.873684,-0.00518197,0.0373794,-0.0307277,0.0758638,-9.89132e-05,-0.000173596,0.0565377,-0.005168566755191284,0.0788156294618445,-9.890830825076691e-05,0.03808679626473799,-0.00017358093308628142,-0.030260402780169615
614,0.0615,199.229,608.507,-0.000148892,348.194,-0.505973,-0.874133,-0.00519086,0.0374383,-0.0307774,0.0759845,-9.91084e-05,-0.000173939,0.0566323,-0.0051774107673210334,0.0789458503669942,-9.910348892472332e-05,0.03814794137774391,-0.00017392387348913463,-0.030308597640499313
615,0.0616,199.279,608.667,-0.000149491,348.284,-0.506233,-0.874581,-0.00519976,0.0374972,-0.0308272,0.0761052,-9.93035e-05,-0.000174281,0.0567269,-0.005186264648965433,0.07907608699075563,-9.929856957069383e-05,0.03820909009230311,-0.00017426581394874852,-0.030356887069920013
616,0.0617,199.329,608.826,-0.00015009,348.373,-0.506493,-0.875029,-0.00520866,0.0375561,-0.030877,0.0762258,-9.94987e-05,-0.000174624,0.0568214,-0.005195118451810532,0.07920623141439775,-9.949375016848894e-05,0.03827024240862742,-0.00017460875411678956,-0.030405174094587095
617,0.0618,199.38,608.985,-0.00015069,348.463,-0.506752,-0.875476,-0.00521755,0.037615,-0.0309268,0.0763464,-9.96939e-05,-0.000174966,0.056916,-0.0052039622278968745,0.07933639153440364,-9.968893072831442e-05,0.038331398326929556,-0.00017495069434214638,-0.03045345871462013
618,0.0619,199.43,609.144,-0.000151291,348.552,-0.507011,-0.875922,-0.00522645,0.0376739,-0.0309766,0.0764671,-9.98892e-05,-0.000175309,0.0570106,-0.0052128158732343,0.07946667529932894,-9.98842112399645e-05,0.03839255784742113,-0.0001752936342751532,-0.03050174093013902
619,0.062,199.48,609.302,-0.000151892,348.641,-0.507269,-0.876368,-0.00523534,0.0377328,-0.0310263,0.0765877,-0.000100084,-0.000175652,0.0571051,-0.005221659491991271,0.07959686683076161,-0.00010007899176356361,0.03845372097031463,-0.00017563657409069844,-0.030549923796260647
620,0.0621,199.53,609.461,-0.000152493,348.73,-0.507528,-0.876812,-0.00524423,0.0377917,-0.0310761,0.0767083,-0.00010028,-0.000175995,0.0571996,-0.005230503032128797,0.07972707406423973,-0.00010027497212883318,0.03851488769582212,-0.000175979513788449,-0.03059820120793799
621,0.0622,199.58,609.619,-0.000153095,348.819,-0.507785,-0.877257,-0.00525313,0.0378506,-0.0311258,0.0768289,-0.000100475,-0.000176337,0.0572942,-0.005239356441254062,0.07985729700165733,-0.00010046995255619251,0.03857605802415587,-0.00017632145354506967,-0.030646379280102942
622,0.0623,199.63,609.777,-0.000153698,348.908,-0.508043,-0.8777,-0.00526202,0.0379094,-0.0311756,0.0769495,-0.00010067,-0.00017668,0.0573887,-0.005248199824066324,0.07998753564490801,-0.00010066493294558221,0.03863712809181008,-0.00017666439300800807,-0.030694651888416913
623,0.0624,199.68,609.934,-0.000154301,348.997,-0.508299,-0.878143,-0.00527091,0.0379683,-0.0312253,0.07707,-0.000100866,-0.000177023,0.0574832,-0.005257043128261363,0.08011768198411273,-0.00010086091319605472,0.0386983056203154,-0.00017700733235326283,-0.03074282516710214
624,0.0625,199.729,610.092,-0.000154904,349.085,-0.508556,-0.878585,-0.00527981,0.0380272,-0.0312751,0.0771906,-0.000101061,-0.000177366,0.0575777,-0.005265896301180906,0.08024795203168589,-0.0001010558935091721,0.03875948675228291,-0.00017735027158094496,-0.030791092972530465
625,0.0626,199.779,610.249,-0.000155508,349.174,-0.508812,-0.879026,-0.0052887,0.038086,-0.0313248,0.0773111,-0.000101257,-0.000177709,0.0576722,-0.005274739448054899,0.080378129752956,-0.00010125187368303923,0.0388205676058635,-0.00017769321069094346,-0.03083926145821303
626,0.0627,199.829,610.406,-0.000156113,349.262,-0.509068,-0.879467,-0.00529759,0.0381449,-0.0313745,0.0774317,-0.000101452,-0.000178052,0.0577667,-0.005283582516313667,0.08050843121242424,-0.00010144685391988428,0.03888175593927423,-0.00017803614968336934,-0.030887427549981195
627,0.0628,199.878,610.563,-0.000156718,349.35,-0.509323,-0.879907,-0.00530648,0.0382037,-0.0314243,0.0775522,-0.000101648,-0.000178395,0.0578612,-0.005292425505957987,0.08063864032332657,-0.000101642834017035,0.03894284398249437,-0.0001783790885582226,-0.030935688154390184
628,0.0629,199.928,610.719,-0.000157323,349.438,-0.509578,-0.880346,-0.00531537,0.0382625,-0.031474,0.0776727,-0.000101843,-0.000178738,0.0579557,-0.005301268416988414,0.0807688651253724,-0.00010183781417771876,0.039003935617796914,-0.0001787220273152812,-0.030983849453870782
629,0.063,199.977,610.876,-0.000157929,349.526,-0.509833,-0.880785,-0.00532426,0.0383214,-0.0315237,0.0777932,-0.000102039,-0.000179081,0.0580502,-0.0053101112494057245,0.08089910562045222,-0.00010203379419826408,0.039065134751901764,-0.0001790649659548782,-0.03103200835979414
630,0.0631,200.026,611.032,-0.000158535,349.614,-0.510087,-0.881223,-0.00533315,0.0383802,-0.0315734,0.0779137,-0.000102234,-0.000179424,0.0581446,-0.005318954003210696,0.08102936181045739,-0.00010222877428267552,0.03912623357811307,-0.00017940790447679156,-0.03108016487227938
631,0.0632,200.076,611.188,-0.000159142,349.701,-0.510341,-0.88166,-0.00534204,0.038439,-0.0316232,0.0780342,-0.00010243,-0.000179768,0.0582391,-0.005327796678403884,0.08115963369727908,-0.00010242475422661546,0.03918733599704094,-0.0001797518427012479,-0.031128415878608706
632,0.0633,200.125,611.343,-0.00015975,349.789,-0.510594,-0.882097,-0.00535092,0.0384978,-0.0316729,0.0781546,-0.000102626,-0.000180111,0.0583336,-0.005336629328352327,0.08128981315382222,-0.0001026207341322527,0.039248442008896545,-0.00018009478098757192,-0.031176567599759397
633,0.0634,200.174,611.499,-0.000160357,349.876,-0.510847,-0.882533,-0.00535981,0.0385566,-0.0317226,0.0782751,-0.000102821,-0.000180454,0.058428,-0.005345471846412542,0.08142011642692171,-0.00010281571410220014,0.03930955161389149,-0.00018043771915632334,-0.03122471692782902
634,0.0635,200.223,611.654,-0.000160966,349.964,-0.5111,-0.882969,-0.0053687,0.0386154,-0.0317723,0.0783955,-0.000103017,-0.000180798,0.0585224,-0.005354314285863082,0.08155032724747358,-0.00010301169393100995,0.039370664812236944,-0.0001807816570265075,-0.03127286386293637
635,0.0636,200.272,611.809,-0.000161575,350.051,-0.511352,-0.883403,-0.00537759,0.0386742,-0.031822,0.078516,-0.000103213,-0.000181141,0.0586169,-0.005363156646704725,0.08168066191441303,-0.00010320767372151707,0.039431781604143845,-0.0001811245949596696,-0.03132100840520069
636,0.0637,200.321,611.964,-0.000162184,350.138,-0.511604,-0.883837,-0.00538647,0.038733,-0.0318716,0.0786364,-0.000103408,-0.000181485,0.0587113,-0.005371988982658116,0.08181090410653002,-0.00010340265357711154,0.039492901989824025,-0.0001814685325935983,-0.03136905369165077
637,0.0638,200.37,612.118,-0.000162794,350.225,-0.511855,-0.884271,-0.00539536,0.0387918,-0.0319213,0.0787568,-0.000103604,-0.000181828,0.0588057,-0.005380831186372448,0.08194116198075108,-0.00010359863329090224,0.03955402596948843,-0.00018181147029106004,-0.03141719345339933
638,0.0639,200.419,612.273,-0.000163404,350.312,-0.512107,-0.884704,-0.00540424,0.0388506,-0.031971,0.0788772,-0.0001038,-0.000182172,0.0589001,-0.005389663365376496,0.08207143553896445,-0.00010379461296639025,0.039615153543348436,-0.00018215540768873328,-0.03146533082266112
639,0.064,200.467,612.427,-0.000164015,350.398,-0.512357,-0.885136,-0.00541313,0.0389094,-0.0320207,0.0789976,-0.000103996,-0.000182516,0.0589945,-0.005398505411966292,0.08220172478305843,-0.00010399059260346455,0.03967628471161544,-0.00018249934496816778,-0.03151346579955516
640,0.0641,200.516,612.581,-0.000164626,350.485,-0.512608,-0.885567,-0.00542201,0.0389681,-0.0320704,0.079118,-0.000104192,-0.000182859,0.0590889,-0.0054073374340239955,0.08233202971492193,-0.00010418657220212513,0.03973731550076409,-0.00018284228231202349,-0.03156159838420036
641,0.0642,200.565,612.735,-0.000165237,350.571,-0.512858,-0.885998,-0.00543089,0.0390269,-0.03212,0.0792383,-0.000104387,-0.000183203,0.0591833,-0.005416169377653657,0.08246224209021391,-0.00010438155186665021,0.03979845385236547,-0.00018318621935520252,-0.0316096317376835
642,0.0643,200.613,612.888,-0.00016585,350.658,-0.513107,-0.886428,-0.00543978,0.0390857,-0.0321697,0.0793587,-0.000104583,-0.000183547,0.0592776,-0.005425011188605944,0.08259257839024947,-0.0001045775313887054,0.039859595799007774,-0.00018353015627992075,-0.03165775954300021
643,0.0644,200.661,613.042,-0.000166462,350.744,-0.513357,-0.886858,-0.00544866,0.0391444,-0.0322194,0.079479,-0.000104779,-0.000183891,0.059372,-0.005433842975293479,0.08272282211143245,-0.00010477351087234688,0.039920637348833,-0.00018387409308640024,-0.03170588495642446
644,0.0645,200.71,613.195,-0.000167075,350.83,-0.513606,-0.887287,-0.00545754,0.0392032,-0.032269,0.0795994,-0.000104975,-0.000184234,0.0594664,-0.005442674683554971,0.08285318978719136,-0.00010496949031746361,0.039981786480076,-0.00018421702995874423,-0.03175391115347115
645,0.0646,200.758,613.348,-0.000167689,350.916,-0.513854,-0.887715,-0.00546642,0.0392619,-0.0323187,0.0797197,-0.000105171,-0.000184578,0.0595607,-0.005451506313391308,0.0829834648618113,-0.00010516546972427765,0.04004283520270491,-0.00018456096652896825,-0.03180203178827912
646,0.0647,200.806,613.5,-0.000168303,351.002,-0.514102,-0.888143,-0.00547531,0.0393206,-0.0323683,0.07984,-0.000105367,-0.000184922,0.0596551,-0.005460347810199662,0.08311375560946543,-0.00010536144909256695,0.04010388750899896,-0.0001849049029808425,-0.0318500532165612
647,0.0648,200.855,613.653,-0.000168918,351.087,-0.51435,-0.88857,-0.00548419,0.0393794,-0.032418,0.0799603,-0.000105563,-0.000185266,0.0597494,-0.0054691792830993124,0.0832440620320396,-0.00010555742842255356,0.040165047415668065,-0.00018524883931436698,-0.0318981690732274
648,0.0649,200.903,613.805,-0.000169533,351.173,-0.514598,-0.888996,-0.00549307,0.0394381,-0.0324676,0.0800806,-0.000105759,-0.00018561,0.0598437,-0.005478010677575806,0.08337438413141918,-0.00010575340771412645,0.04022610689602968,-0.0001855927755296527,-0.03194618573321828
649,0.065,200.951,613.957,-0.000170148,351.259,-0.514845,-0.889422,-0.00550195,0.0394968,-0.0325172,0.0802009,-0.000105955,-0.000185954,0.059938,-0.005486841993629921,0.08350472190949021,-0.00010594938696728562,0.04028716996068771,-0.00018593671162658865,-0.03199420001164199
650,0.0651,200.999,614.109,-0.000170764,351.344,-0.515091,-0.889847,-0.00551083,0.0395555,-0.0325669,0.0803211,-0.000106151,-0.000186298,0.0600324,-0.00549567323126221,0.08363496700463724,-0.00010614536618192005,0.040348236609853094,-0.00018628064760517482,-0.03204230870439051
651,0.0652,201.047,614.261,-0.000171381,351.429,-0.515338,-0.890272,-0.0055197,0.0396143,-0.0326165,0.0804414,-0.000106348,-0.000186643,0.0601267,-0.005504494445518482,0.08376533613271375,-0.00010634234525186415,0.04040941088467176,-0.00018662558327886547,-0.032090318215233005
652,0.0653,201.094,614.413,-0.000171997,351.514,-0.515584,-0.890696,-0.00552858,0.039673,-0.0326661,0.0805616,-0.000106544,-0.000186987,0.060221,-0.005513325526397828,0.08389561255557298,-0.00010653832438956012,0.04047048470959003,-0.00018696951902053005,-0.03213832534486294
653,0.0654,201.142,614.564,-0.000172615,351.599,-0.515829,-0.891119,-0.00553746,0.0397317,-0.0327157,0.0806818,-0.00010674,-0.000187331,0.0603153,-0.005522156528857458,0.08402590463859938,-0.00010673430348884239,0.040531562119646924,-0.00018731345464384486,-0.03218633009339822
654,0.0655,201.19,614.715,-0.000173233,351.684,-0.516075,-0.891541,-0.00554634,0.0397904,-0.0327653,0.0808021,-0.000106936,-0.000187675,0.0604095,-0.00553098745289804,0.08415632079930235,-0.00010693028254971093,0.04059264311505295,-0.0001876573901488099,-0.03223433246095697
655,0.0656,201.238,614.866,-0.000173851,351.769,-0.51632,-0.891964,-0.00555521,0.039849,-0.0328149,0.0809223,-0.000107132,-0.00018802,0.0605038,-0.0055398083539186516,0.08428664422134302,-0.00010712626157216576,0.04065362363065117,-0.00018800232534754713,-0.032282332447657436
656,0.0657,201.285,615.016,-0.00017447,351.854,-0.516564,-0.892385,-0.00556409,0.0399077,-0.0328645,0.0810425,-0.000107329,-0.000188364,0.0605981,-0.005548639121211729,0.08441698330920078,-0.00010732324044893105,0.04071471179127828,-0.00018834626061559057,-0.03233033005361752
657,0.0658,201.333,615.167,-0.000175089,351.938,-0.516808,-0.892806,-0.00557297,0.0399664,-0.0329141,0.0811626,-0.000107525,-0.000188709,0.0606923,-0.005557469810088089,0.08454722961003003,-0.0001075192193943364,0.04077580353788557,-0.00018869119557662906,-0.032378325278955455
658,0.0659,201.38,615.317,-0.000175709,352.023,-0.517052,-0.893226,-0.00558184,0.0400251,-0.0329637,0.0812828,-0.000107721,-0.000189053,0.0607866,-0.005566290476211155,0.08467760002213387,-0.00010771519830143905,0.04083689887068376,-0.0001890351306077509,-0.032426318123789266
659,0.066,201.427,615.467,-0.000176329,352.107,-0.517296,-0.893646,-0.00559072,0.0400837,-0.0330133,0.081403,-0.000107918,-0.000189398,0.0608808,-0.005575121008344119,0.08480798610570317,-0.00010791217706207501,0.04089789370008856,-0.00018938006533109064,-0.032474308588236966
660,0.0661,201.475,615.617,-0.00017695,352.191,-0.517539,-0.894065,-0.00559959,0.0401424,-0.0330629,0.0815231,-0.000108114,-0.000189742,0.0609751,-0.005583941517901758,0.08493827936878828,-0.00010810815589212819,0.0409589961997896,-0.00018972400012517987,-0.032522296672416684
661,0.0662,201.522,615.767,-0.000177571,352.276,-0.517782,-0.894483,-0.00560846,0.0402011,-0.0331125,0.0816433,-0.00010831,-0.000190087,0.0610693,-0.005592761949221758,0.08506869678789841,-0.00010830413468365663,0.04102010228631281,-0.00019006893461093188,-0.032570282376446436
662,0.0663,201.569,615.916,-0.000178193,352.36,-0.518024,-0.894901,-0.00561734,0.0402597,-0.0331621,0.0817634,-0.000108507,-0.000190431,0.0611635,-0.005601592246289089,0.08519902136421664,-0.0001085011133283853,0.04108110785175234,-0.0001904128691679885,-0.03261826570044424
663,0.0664,201.616,616.066,-0.000178815,352.444,-0.518266,-0.895318,-0.00562621,0.0403184,-0.0332116,0.0818835,-0.000108703,-0.000190776,0.0612577,-0.005610412521047881,0.08532936159345672,-0.00010869709204297529,0.041142221106439614,-0.00019075780341604176,-0.032666149911148135
664,0.0665,201.663,616.215,-0.000179437,352.527,-0.518508,-0.895735,-0.00563508,0.040377,-0.0332612,0.0820036,-0.0001089,-0.000191121,0.0613519,-0.005619232717571254,0.08545971747749825,-0.00010889407061021039,0.04120323382825175,-0.00019110273754519014,-0.03271412848023414
665,0.0666,201.71,616.364,-0.00018006,352.611,-0.518749,-0.896151,-0.00564395,0.0404356,-0.0333108,0.0821237,-0.000109096,-0.000191466,0.0614461,-0.005628052835859765,0.08559008901822152,-0.0001090900492477509,0.04126425012551427,-0.00019144767155521158,-0.032762104669642245
666,0.0667,201.757,616.512,-0.000180684,352.695,-0.518991,-0.896566,-0.00565282,0.0404943,-0.0333603,0.0822438,-0.000109292,-0.00019181,0.0615403,-0.0056368728759140785,0.08572047621750722,-0.00010928602784698871,0.041325374130968484,-0.00019179160563809194,-0.03280998176049332
667,0.0668,201.804,616.661,-0.000181308,352.778,-0.519231,-0.896981,-0.0056617,0.0405529,-0.0334099,0.0823639,-0.000109489,-0.000192155,0.0616345,-0.0056457027812781835,0.08585087907723588,-0.00010948300629820551,0.04138639758586238,-0.00019213653941041464,-0.03285795319569651
668,0.0669,201.851,616.809,-0.000181932,352.861,-0.519472,-0.897395,-0.00567057,0.0406115,-0.0334594,0.0824839,-0.000109686,-0.0001925,0.0617287,-0.005654522664778283,0.08598118900116436,-0.00010967998471067553,0.04144742461683548,-0.00019248147306383245,-0.032905825542163036
669,0.067,201.898,616.957,-0.000182557,352.945,-0.519712,-0.897809,-0.00567944,0.0406701,-0.033509,0.082604,-0.000109882,-0.000192845,0.0618229,-0.005663342470046295,0.0861116231743786,-0.00010987596319411708,0.04150845522409741,-0.00019282640659823436,-0.032953792223632594
670,0.0671,201.945,617.105,-0.000183182,353.028,-0.519952,-0.898222,-0.0056883,0.0407287,-0.0335585,0.082724,-0.000110079,-0.00019319,0.061917,-0.005672152253804574,0.08624196438947607,-0.00011007294152920455,0.04156948940785754,-0.00019317134001362035,-0.033001659826184526
671,0.0672,201.991,617.253,-0.000183808,353.111,-0.520191,-0.898635,-0.00569717,0.0407873,-0.0336081,0.082844,-0.000110275,-0.000193535,0.0620112,-0.005680971902698895,0.08637232124645777,-0.00011026891993570764,0.041630527168325715,-0.00019351627330999044,-0.03304962175439152
672,0.0673,202.038,617.4,-0.000184435,353.194,-0.52043,-0.899047,-0.00570604,0.0408459,-0.0336576,0.0829641,-0.000110472,-0.00019388,0.0621053,-0.005689791473363348,0.08650280239747588,-0.00011046589819330155,0.04169156850571154,-0.00019386120648734462,-0.03309748461349915
673,0.0674,202.084,617.548,-0.000185061,353.276,-0.520669,-0.899458,-0.00571491,0.0409045,-0.0337071,0.0830841,-0.000110669,-0.000194225,0.0621995,-0.0056986109657983786,0.08663319055689667,-0.00011066287641214867,0.04175261342022463,-0.0001942061395457939,-0.033145345103453905
674,0.0675,202.131,617.695,-0.000185689,353.359,-0.520907,-0.899869,-0.00572378,0.0409631,-0.0337567,0.0832041,-0.000110865,-0.00019457,0.0622936,-0.005707430380004985,0.0867635943638354,-0.00011085885470296652,0.04181366191207436,-0.00019455107248511627,-0.033193299905047824
675,0.0676,202.177,617.842,-0.000186316,353.442,-0.521145,-0.900279,-0.00573264,0.0410217,-0.0338062,0.083324,-0.000111062,-0.000194916,0.0623877,-0.00571623977314617,0.086893905130774,-0.0001110558328444311,0.04187471398147058,-0.00019489700511066133,-0.033241155652263044
676,0.0677,202.223,617.989,-0.000186944,353.524,-0.521383,-0.900689,-0.00574151,0.0410803,-0.0338557,0.083444,-0.000111259,-0.000195261,0.0624818,-0.005725059030985968,0.08702434022533878,-0.00011125281094703787,0.04193576962862289,-0.0001952419378116188,-0.03328900903067733
677,0.0678,202.27,618.135,-0.000187573,353.607,-0.52162,-0.901098,-0.00575037,0.0411389,-0.0339052,0.083564,-0.000111455,-0.000195606,0.0625759,-0.005733868267937869,0.08715479097305412,-0.00011144878912228151,0.0419968288537409,-0.0001955868703936714,-0.033336860040408034
678,0.0679,202.316,618.282,-0.000188202,353.689,-0.521857,-0.901506,-0.00575924,0.0411974,-0.0339547,0.0836839,-0.000111652,-0.000195951,0.06267,-0.005742687369413635,0.0872851486472781,-0.00011164576714739471,0.04205778745125044,-0.00019593180285670808,-0.033384708681572395
679,0.068,202.362,618.428,-0.000188832,353.771,-0.522094,-0.901914,-0.0057681,0.041256,-0.0340042,0.0838038,-0.000111849,-0.000196297,0.0627641,-0.00575149645017925,0.0874155219523245,-0.00011184274513376113,0.042118853826822455,-0.00019627773500452417,-0.03343255495428765
680,0.0681,202.408,618.574,-0.000189462,353.853,-0.522331,-0.902322,-0.00577697,0.0413145,-0.0340537,0.0839238,-0.000112046,-0.000196642,0.0628582,-0.005760315395293647,0.0875460196446638,-0.00011203972308138077,0.04217981956300165,-0.00019662266722919597,-0.033480398858671045
681,0.0682,202.454,618.72,-0.000190092,353.935,-0.522567,-0.902728,-0.00578583,0.0413731,-0.0341032,0.0840437,-0.000112243,-0.000196988,0.0629523,-0.00576912431987564,0.08767642423001765,-0.0001122367009901426,0.042240893089865006,-0.00019696859913787002,-0.0335282403948397
682,0.0683,202.5,618.865,-0.000190723,354.017,-0.522802,-0.903135,-0.0057947,0.0414316,-0.0341527,0.0841636,-0.00011244,-0.000197333,0.0630463,-0.005777943108631556,0.08780684445181897,-0.00011243367886015765,0.042301865965549856,-0.00019731353112417693,-0.033576079562910977
683,0.0684,202.546,619.011,-0.000191354,354.099,-0.523038,-0.90354,-0.00580356,0.0414902,-0.0342022,0.0842835,-0.000112636,-0.000197679,0.0631404,-0.005786751877032703,0.08793728031194226,-0.00011262965680391979,0.04236294664454188,-0.00019765946279381996,-0.033623916363002104
684,0.0685,202.592,619.156,-0.000191986,354.18,-0.523273,-0.903946,-0.00581242,0.0415487,-0.0342517,0.0844034,-0.000112833,-0.000198024,0.0632344,-0.0057955605673885024,0.0880677318122629,-0.00011282663459644127,0.0424239266605686,-0.00019800439454187302,-0.033671750795230104
685,0.0686,202.638,619.301,-0.000192618,354.262,-0.523508,-0.90435,-0.00582128,0.0416072,-0.0343012,0.0845232,-0.00011303,-0.00019837,0.0633285,-0.00580436917969962,0.08819809013484159,-0.00011302361235021596,0.04248491024403078,-0.00019835032597248503,-0.03371958285971244
686,0.0687,202.683,619.446,-0.000193251,354.343,-0.523742,-0.904754,-0.00583014,0.0416657,-0.0343506,0.0846431,-0.000113227,-0.000198715,0.0634225,-0.005813177713966833,0.08832857290813467,-0.00011322059006513285,0.0425458973951367,-0.0001986952574821732,-0.03376731593330251
687,0.0688,202.729,619.591,-0.000193884,354.424,-0.523976,-0.905158,-0.005839,0.0417243,-0.0344001,0.0847629,-0.000113424,-0.000199061,0.0635166,-0.005821986170190807,0.08845896248134855,-0.00011341756774130296,0.0426069923747896,-0.0001990411886737542,-0.033815143267427517
688,0.0689,202.775,619.735,-0.000194518,354.506,-0.52421,-0.905561,-0.00584786,0.0417828,-0.0344496,0.0848828,-0.000113621,-0.000199407,0.0636106,-0.005830794548372209,0.08858947653511118,-0.00011361454537861526,0.042667986667909164,-0.00019938711974565315,-0.03386296823415813
689,0.069,202.82,619.88,-0.000195152,354.587,-0.524444,-0.905963,-0.00585672,0.0418413,-0.034499,0.0850026,-0.000113818,-0.000199752,0.0637046,-0.005839602848511594,0.08871989736645203,-0.00011381152297718078,0.042728984529299296,-0.00019973205089751644,-0.03391069422468573
690,0.0691,202.866,620.024,-0.000195787,354.668,-0.524677,-0.906365,-0.00586558,0.0418998,-0.0345485,0.0851224,-0.000114015,-0.000200098,0.0637986,-0.00584841107060996,0.08885033382314433,-0.00011400850053688849,0.04278998595916872,-0.00020007798173038438,-0.0339585144617609
691,0.0692,202.911,620.168,-0.000196422,354.749,-0.52491,-0.906766,-0.00587444,0.0419583,-0.0345979,0.0852422,-0.000114212,-0.000200444,0.0638926,-0.005857219214667753,0.08898078590706016,-0.00011420547805784942,0.042850990957726154,-0.00020042391244357027,-0.03400623573242145
692,0.0693,202.956,620.312,-0.000197057,354.829,-0.525142,-0.907167,-0.0058833,0.0420168,-0.0346474,0.085362,-0.00011441,-0.00020079,0.0639866,-0.005866027280685637,0.08911125362007177,-0.00011440345542557129,0.04291199952518032,-0.00020076984303707412,-0.034054051240309136
693,0.0694,203.002,620.455,-0.000197693,354.91,-0.525375,-0.907567,-0.00589215,0.0420753,-0.0346968,0.0854818,-0.000114607,-0.000201136,0.0640806,-0.0058748253274127915,0.08924173696405169,-0.00011460043286870558,0.04297301166174017,-0.00020111577351089593,-0.03410176779156926
694,0.0695,203.047,620.599,-0.00019833,354.991,-0.525607,-0.907967,-0.00590101,0.0421337,-0.0347463,0.0856016,-0.000114804,-0.000201482,0.0641746,-0.005883633237441344,0.08937223594087262,-0.00011479741027298207,0.04303392306421694,-0.00020146170386492468,-0.03414957857073708
695,0.0696,203.092,620.742,-0.000198967,355.071,-0.525838,-0.908366,-0.00590987,0.0421922,-0.0347957,0.0857213,-0.000115001,-0.000201828,0.0642685,-0.005892441069432097,0.08950264160213783,-0.00011499438763851177,0.0430949423335123,-0.0002018076340993824,-0.03419729040306374
696,0.0697,203.137,620.885,-0.000199604,355.151,-0.526069,-0.908764,-0.00591872,0.0422507,-0.0348451,0.0858411,-0.000115198,-0.000202174,0.0643625,-0.005901238882398241,0.08963317183720676,-0.00011519136496518367,0.0431559651725395,-0.00020215356421404707,-0.03424499987848406
697,0.0698,203.182,621.028,-0.000200242,355.232,-0.5263,-0.909162,-0.00592758,0.0423091,-0.0348945,0.0859608,-0.000115395,-0.00020252,0.0644564,-0.005910046558403659,0.08976360873436806,-0.00011538834225310879,0.0432168872598131,-0.0002024994942091407,-0.03429270699711451
698,0.0699,203.227,621.17,-0.00020088,355.312,-0.526531,-0.90956,-0.00593643,0.0423676,-0.034944,0.0860805,-0.000115592,-0.000202866,0.0645504,-0.005918844215561991,0.0898940612457606,-0.0001155853195021761,0.04327791723282726,-0.00020284542408444128,-0.034340508325025554
699,0.07,203.272,621.313,-0.000201519,355.392,-0.526762,-0.909957,-0.00594529,0.0424261,-0.0349934,0.0862002,-0.00011579,-0.000203212,0.0646443,-0.005927651735584849,0.09002452937325356,-0.00011578329659667208,0.04333895077619898,-0.00020319135384005982,-0.034388210725655344
700,0.0701,203.317,621.455,-0.000202158,355.472,-0.526992,-0.910353,-0.00595414,0.0424845,-0.0350428,0.0863199,-0.000115987,-0.000203558,0.0647382,-0.005936449236937924,0.09015501311871588,-0.00011598027376802378,0.043399883550144125,-0.0002035372834759963,-0.034435910769844646
701,0.0702,203.362,621.598,-0.000202797,355.552,-0.527221,-0.910749,-0.005963,0.0425429,-0.0350922,0.0864396,-0.000116184,-0.000203904,0.0648322,-0.005945256600980997,0.0902855124840174,-0.00011617725090040665,0.04346081988266692,-0.00020388321299225076,-0.034483608457710035
702,0.0703,203.407,621.74,-0.000203437,355.632,-0.527451,-0.911145,-0.00597185,0.0426014,-0.0351416,0.0865593,-0.000116382,-0.00020425,0.0649261,-0.005954053946531812,0.09041602747102773,-0.0001163752278777741,0.04352186412615677,-0.00020422914238882317,-0.03453130378936786
703,0.0704,203.451,621.881,-0.000204078,355.711,-0.52768,-0.911539,-0.0059807,0.0426598,-0.035191,0.086679,-0.000116579,-0.000204597,0.06502,-0.005962851214226461,0.09054655808161738,-0.00011657220493244136,0.04358280758255351,-0.00020457607146107115,-0.03457899676493448
704,0.0705,203.496,622.023,-0.000204719,355.791,-0.527909,-0.911934,-0.00598955,0.0427182,-0.0352404,0.0867986,-0.000116776,-0.000204943,0.0651139,-0.00597164840406561,0.0906769952499511,-0.00011676918194836183,0.04364375459815184,-0.0002049220006179464,-0.034626687384526234
705,0.0706,203.541,622.164,-0.00020536,355.87,-0.528137,-0.912328,-0.0059984,0.0427767,-0.0352898,0.0869183,-0.000116974,-0.000205289,0.0652078,-0.005980445516049926,0.09080755710025334,-0.00011696715880837871,0.043704809543635426,-0.00020526792965513962,-0.03467437564825959
706,0.0707,203.585,622.306,-0.000206002,355.95,-0.528366,-0.912721,-0.00600725,0.0428351,-0.0353392,0.0870379,-0.000117171,-0.000205636,0.0653017,-0.005989242550180185,0.09093802548593644,-0.00011716413574647255,0.04376576368435647,-0.0002056148583668982,-0.034722061556251016
707,0.0708,203.63,622.447,-0.000206644,356.029,-0.528594,-0.913114,-0.0060161,0.0428935,-0.0353885,0.0871575,-0.000117368,-0.000205982,0.0653955,-0.0059980395064569425,0.09106850947657175,-0.00011736111264570859,0.04382672138490307,-0.00020596078716439425,-0.0347696485855864
708,0.0709,203.674,622.588,-0.000207287,356.108,-0.528821,-0.913506,-0.00602495,0.0429519,-0.0354379,0.0872771,-0.000117566,-0.000206328,0.0654894,-0.006006836384881087,0.09119900907402534,-0.00011755908938859694,0.04388768264548348,-0.00020630671584209725,-0.03481732978721086
709,0.071,203.719,622.729,-0.00020793,356.187,-0.529049,-0.913898,-0.0060338,0.0430103,-0.0354873,0.0873967,-0.000117763,-0.000206675,0.0655833,-0.006015633185453173,0.09132952428016439,-0.00011775606621011736,0.043948647466305335,-0.00020665364419347743,-0.03486500863344222
710,0.0711,203.763,622.869,-0.000208574,356.266,-0.529276,-0.914289,-0.00604265,0.0430687,-0.0355367,0.0875163,-0.000117961,-0.000207021,0.0656771,-0.006024429908173978,0.09146005509685562,-0.00011795404287484601,0.0440096158475769,-0.00020699957263148328,-0.0349126851243966
711,0.0712,203.807,623.01,-0.000209218,356.345,-0.529503,-0.91468,-0.0060515,0.0431271,-0.035586,0.0876359,-0.000118158,-0.000207368,0.065771,-0.006033226553044058,0.09159060152596599,-0.00011815101961842878,0.04407058778950579,-0.00020734650074238914,-0.03496026275622177
712,0.0713,203.851,623.15,-0.000209862,356.424,-0.529729,-0.91507,-0.00606035,0.0431855,-0.0356354,0.0877555,-0.000118356,-0.000207715,0.0658648,-0.006042023120064188,0.0917211635693631,-0.00011834899620499773,0.04413156329230006,-0.00020769342873294683,-0.03500793454173878
713,0.0714,203.896,623.29,-0.000210507,356.502,-0.529955,-0.91546,-0.00606919,0.0432438,-0.0356847,0.087875,-0.000118553,-0.000208061,0.0659586,-0.006050809669743251,0.09185163204374569,-0.00011854597287075386,0.044192437936918516,-0.00020803935681124042,-0.03505550747788333
714,0.0715,203.94,623.43,-0.000211153,356.581,-0.530181,-0.915849,-0.00607804,0.0433022,-0.0357341,0.0879946,-0.000118751,-0.000208408,0.0660524,-0.0060596060811534125,0.09198222530825961,-0.00011874394937905208,0.04425342055596926,-0.0002083862845613238,-0.035103174558427375
715,0.0716,203.984,623.569,-0.000211799,356.659,-0.530407,-0.916238,-0.00608689,0.0433606,-0.0357834,0.0881141,-0.000118948,-0.000208755,0.0661463,-0.0060684024147158455,0.09211272498138423,-0.0001189409259670926,0.04431440673650888,-0.00020873321219117003,-0.03515074279935493
716,0.0717,204.028,623.709,-0.000212445,356.738,-0.530632,-0.916626,-0.00609573,0.0434189,-0.0358328,0.0882336,-0.000119146,-0.000209101,0.0662401,-0.006077188731202887,0.0922432402501514,-0.00011913890239723113,0.044375292041211045,-0.0002090791399095293,-0.03519840517539019
717,0.0718,204.072,623.848,-0.000213092,356.816,-0.530857,-0.917013,-0.00610458,0.0434773,-0.0358821,0.0883531,-0.000119344,-0.000209448,0.0663339,-0.006085984909159459,0.0923737711164252,-0.00011933687878817878,0.044436285339253256,-0.00020942606729890123,-0.03524596872156405
718,0.0719,204.116,623.988,-0.000213739,356.894,-0.531082,-0.917401,-0.00611342,0.0435356,-0.0359315,0.0884726,-0.000119541,-0.000209795,0.0664276,-0.006094771070217941,0.09250431758206967,-0.00011953385525931282,0.04449717774968498,-0.00020977299456792498,-0.035293626393555044
719,0.072,204.159,624.127,-0.000214387,356.972,-0.531306,-0.917787,-0.00612226,0.043594,-0.0359808,0.0885921,-0.000119739,-0.000210142,0.0665214,-0.00610355715360722,0.0926348796489489,-0.00011973183157210077,0.04455817816606045,-0.00021011992171648952,-0.0353411852454385
720,0.0721,204.203,624.266,-0.000215035,357.05,-0.53153,-0.918173,-0.00613111,0.0436523,-0.0360301,0.0887116,-0.000119937,-0.000210489,0.0666152,-0.006112353098204237,0.09276545731892716,-0.00011992980784558682,0.04461907768305107,-0.0002104668487447059,-0.035388741752728325
721,0.0722,204.247,624.404,-0.000215683,357.128,-0.531754,-0.918559,-0.00613995,0.0437107,-0.0360794,0.0888311,-0.000120134,-0.000210835,0.066709,-0.006121139026169065,0.09289605059386963,-0.0001201267841999254,0.04468008521859046,-0.0002108127758633227,-0.035436295915540206
722,0.0723,204.291,624.543,-0.000216333,357.206,-0.531978,-0.918944,-0.00614879,0.043769,-0.0361287,0.0889505,-0.000120332,-0.000211182,0.0668027,-0.006129924876466464,0.09302655017298034,-0.00012032476039525175,0.044740991842969535,-0.00021115970265106476,-0.035483847733989604
723,0.0724,204.334,624.681,-0.000216982,357.284,-0.532201,-0.919329,-0.00615763,0.0438273,-0.0361781,0.08907,-0.00012053,-0.000211529,0.0668965,-0.006138710649097434,0.0931571746503832,-0.00012052273655138723,0.04480190201830836,-0.00021150662931845865,-0.0355314936550476
724,0.0725,204.378,624.819,-0.000217632,357.361,-0.532424,-0.919713,-0.00616648,0.0438856,-0.0362274,0.0891894,-0.000120727,-0.000211876,0.0669902,-0.006147506282587423,0.09328770540956755,-0.00012071971278904137,0.04486281574481388,-0.00021185355586550436,-0.03557904078036411
725,0.0726,204.421,624.957,-0.000218282,357.439,-0.532647,-0.920097,-0.00617532,0.043944,-0.0362767,0.0893088,-0.000120925,-0.000212223,0.067084,-0.006156291899799382,0.09341825175505525,-0.00012091768886690613,0.044923837515071785,-0.00021220048229209088,-0.0356265855616652
726,0.0727,204.465,625.095,-0.000218933,357.516,-0.532869,-0.92048,-0.00618416,0.0440023,-0.036326,0.0894282,-0.000121123,-0.00021257,0.0671777,-0.006165077439346911,0.09354881368870727,-0.00012111566490558001,0.04498475835062399,-0.0002125474085983292,-0.03567412799906622
727,0.0728,204.508,625.233,-0.000219584,357.594,-0.533091,-0.920863,-0.006193,0.0440606,-0.0363753,0.0895476,-0.000121321,-0.000212918,0.0672714,-0.006173862901230565,0.09367939121238456,-0.00012131364090506302,0.04504568273796439,-0.00021289533457125032,-0.03572166809268296
728,0.0729,204.551,625.37,-0.000220236,357.671,-0.533313,-0.921245,-0.00620184,0.0441189,-0.0364246,0.089667,-0.000121519,-0.000213265,0.0673651,-0.006182648285451009,0.09380998432794918,-0.00012151161686535517,0.045106610677300374,-0.00021324226063645924,-0.03576920584263088
729,0.073,204.595,625.508,-0.000220888,357.748,-0.533534,-0.921627,-0.00621067,0.0441772,-0.0364738,0.0897864,-0.000121717,-0.000213612,0.0674588,-0.006191423653923334,0.09394059303726277,-0.00012170959278645643,0.04516754216883845,-0.00021358918658120896,-0.03581664483069469
730,0.0731,204.638,625.645,-0.000221541,357.825,-0.533756,-0.922008,-0.00621951,0.0442355,-0.0365231,0.0899058,-0.000121914,-0.000213959,0.0675525,-0.00620020888290751,0.09407121734218715,-0.0001219065687902976,0.04522847721278622,-0.00021393611240549948,-0.03586417789840479
731,0.0732,204.681,625.782,-0.000222194,357.902,-0.533977,-0.922389,-0.00622835,0.0442937,-0.0365724,0.0900251,-0.000122112,-0.000214306,0.0676462,-0.006208994034230586,0.0942017478244046,-0.00012210454463323916,0.045289311280414246,-0.00021428303810955285,-0.03591170862279247
732,0.0733,204.724,625.919,-0.000222847,357.979,-0.534198,-0.922769,-0.00623719,0.044352,-0.0366217,0.0901445,-0.00012231,-0.000214654,0.0677399,-0.006217779107893229,0.09433240331307235,-0.00012230252043687884,0.04535025342370802,-0.00021463096347851263,-0.03595923700397308
733,0.0734,204.767,626.056,-0.000223501,358.056,-0.534418,-0.923149,-0.00624602,0.0444103,-0.0366709,0.0902638,-0.000122508,-0.000215001,0.0678336,-0.006226554166161691,0.09446296495663464,-0.00012250049620143866,0.04541119912003233,-0.00021497788894131453,-0.036006666642733776
734,0.0735,204.81,626.192,-0.000224155,358.132,-0.534638,-0.923529,-0.00625486,0.0444686,-0.0367202,0.0903831,-0.000122706,-0.000215348,0.0679272,-0.006235339084593505,0.09459354217713045,-0.00012269847192669658,0.04547214836959457,-0.00021532481428376826,-0.03605419034259949
735,0.0736,204.853,626.328,-0.00022481,358.209,-0.534858,-0.923908,-0.00626369,0.0445268,-0.0367695,0.0905024,-0.000122904,-0.000215696,0.0680209,-0.006244113987808109,0.09472413497641763,-0.00012289644761276364,0.04553299661929655,-0.00021567273929024022,-0.03610171169960452
736,0.0737,204.896,626.465,-0.000225465,358.285,-0.535078,-0.924286,-0.00627253,0.0445851,-0.0368187,0.0906217,-0.000123102,-0.000216043,0.0681145,-0.0062528987510117595,0.09485474335635535,-0.00012309442325975084,0.045593952969859686,-0.0002160196643915535,-0.03614913432878264
737,0.0738,204.939,626.601,-0.000226121,358.362,-0.535297,-0.924664,-0.00628136,0.0446433,-0.036868,0.090741,-0.0001233,-0.00021639,0.0682082,-0.006261673499175169,0.09498536731880214,-0.00012329239886743615,0.04565480830879576,-0.00021636658937262965,-0.03619665100516456
738,0.0739,204.982,626.737,-0.000226777,358.438,-0.535516,-0.925041,-0.0062902,0.0447016,-0.0369172,0.0908603,-0.000123498,-0.000216738,0.0683018,-0.0062704581071534315,0.09511600686561739,-0.00012349037443593058,0.045715771761187574,-0.00021671451401650277,-0.03624406896344379
739,0.074,205.025,626.872,-0.000227434,358.514,-0.535735,-0.925418,-0.00629903,0.0447598,-0.0369665,0.0909796,-0.000123696,-0.000217085,0.0683954,-0.006279232700268533,0.09524666199866005,-0.00012368834996523415,0.04577663419018352,-0.00021706143875632744,-0.03629158095966356
740,0.0741,205.067,627.008,-0.000228091,358.59,-0.535954,-0.925795,-0.00630786,0.044818,-0.0370157,0.0910988,-0.000123894,-0.000217433,0.0684891,-0.006288007215904168,0.09537722318206243,-0.00012388632545534684,0.04583750016147592,-0.000217409363158394,-0.036338994247503864
741,0.0742,205.11,627.143,-0.000228748,358.666,-0.536172,-0.926171,-0.00631669,0.0448763,-0.0370649,0.0912181,-0.000124092,-0.00021778,0.0685827,-0.006296781654061334,0.0955079094800706,-0.00012408430090626865,0.045898474265113176,-0.00021775628765718924,-0.03638640520266789
742,0.0743,205.153,627.279,-0.000229406,358.742,-0.53639,-0.926547,-0.00632553,0.0449345,-0.0371142,0.0913373,-0.00012429,-0.000218128,0.0686763,-0.006305565951684855,0.09563850180602862,-0.0001242822763179996,0.04595934732770446,-0.0002181042118174492,-0.03643391018188402
743,0.0744,205.195,627.414,-0.000230064,358.818,-0.536608,-0.926922,-0.00633436,0.0449927,-0.0371634,0.0914565,-0.000124488,-0.000218476,0.0687699,-0.006314340234798932,0.09576910969951968,-0.00012448025169042864,0.046020223933211035,-0.00021845213585669487,-0.03648131646729891
744,0.0745,205.238,627.549,-0.000230723,358.894,-0.536825,-0.927296,-0.00634319,0.0450509,-0.0372126,0.0915757,-0.000124686,-0.000218823,0.0688635,-0.006323114440436539,0.09589973316239964,-0.00012467822702377784,0.046081104081838964,-0.00021879905999355742,-0.03652872042038191
745,0.0746,205.28,627.683,-0.000231382,358.969,-0.537042,-0.927671,-0.00635202,0.0451091,-0.0372618,0.0916949,-0.000124885,-0.000219171,0.068957,-0.006331888568598121,0.09603037219652433,-0.0001248772021930078,0.046141987773794746,-0.0002191469837909965,-0.036576122041247716
746,0.0747,205.323,627.818,-0.000232042,359.045,-0.537259,-0.928044,-0.00636085,0.0451673,-0.037311,0.0918141,-0.000125083,-0.000219519,0.0690506,-0.006340662619284565,0.09616102680375005,-0.0001250751774477532,0.04620287500928466,-0.00021949490746731026,-0.03662352133001123
747,0.0748,205.365,627.952,-0.000232702,359.121,-0.537476,-0.928418,-0.00636968,0.0452255,-0.0373602,0.0919333,-0.000125281,-0.000219867,0.0691442,-0.006349436592496538,0.0962916969859331,-0.00012527315266319672,0.046263765788514544,-0.00021984283102249869,-0.036670918286787146
748,0.0749,205.407,628.087,-0.000233362,359.196,-0.537692,-0.928791,-0.0063785,0.0452837,-0.0374094,0.0920525,-0.000125479,-0.000220214,0.0692377,-0.006358200551816684,0.09642238274493042,-0.00012547112783956038,0.04632466011169112,-0.0002201897546768583,-0.03671831291169003
749,0.075,205.449,628.221,-0.000234023,359.271,-0.537908,-0.929163,-0.00638733,0.0453419,-0.0374586,0.0921716,-0.000125677,-0.000220562,0.0693313,-0.006366974370169309,0.09655297442729571,-0.00012566910297662215,0.04638555797902044,-0.00022053767799024016,-0.0367657052048348
750,0.0751,205.492,628.355,-0.000234685,359.346,-0.538124,-0.929535,-0.00639616,0.0454001,-0.0375078,0.0922908,-0.000125876,-0.00022091,0.0694248,-0.006375748111049462,0.09668369133242027,-0.0001258680779486765,0.04644645939070857,-0.0002208856011826077,-0.03681309516633613
751,0.0752,205.534,628.489,-0.000235347,359.422,-0.53834,-0.929906,-0.00640499,0.0454583,-0.037557,0.0924099,-0.000126074,-0.000221258,0.0695184,-0.006384521774457919,0.09681431413849162,-0.0001260660530072455,0.04650736434696223,-0.0002212335242538499,-0.03686048279630871
752,0.0753,205.576,628.622,-0.000236009,359.497,-0.538555,-0.930277,-0.00641381,0.0455164,-0.0376062,0.092529,-0.000126272,-0.000221606,0.0696119,-0.0063932854243281545,0.09694495250266555,-0.0001262640280265126,0.04656816819116538,-0.0002215814472040778,-0.036907868094867236
753,0.0754,205.618,628.756,-0.000236672,359.572,-0.53877,-0.930648,-0.00642264,0.0455746,-0.0376554,0.0926481,-0.00012647,-0.000221954,0.0697054,-0.006402058932882704,0.09707560642679547,-0.00012646200300669985,0.04662908023107737,-0.00022192937003318036,-0.03695525106212638
754,0.0755,205.66,628.889,-0.000237335,359.646,-0.538985,-0.931018,-0.00643146,0.0456328,-0.0377046,0.0927672,-0.000126669,-0.000222302,0.0697989,-0.006410822428075891,0.09720627591273434,-0.0001266609778209915,0.04668999581617306,-0.00022227729274126862,-0.03700263169820095
755,0.0756,205.702,629.022,-0.000237998,359.721,-0.5392,-0.931388,-0.00644029,0.0456909,-0.0377537,0.0928863,-0.000126867,-0.00022265,0.0698924,-0.006419595781779419,0.0973369609623358,-0.00012685895272246395,0.046750810271572796,-0.00022262521532823154,-0.037049913708201765
756,0.0757,205.744,629.155,-0.000238662,359.796,-0.539414,-0.931757,-0.00644911,0.0457491,-0.0378029,0.0930054,-0.000127065,-0.000222998,0.0699859,-0.006428359122298222,0.09746766157745346,-0.00012705692758474552,0.046811732941563156,-0.00022297313779406913,-0.037097289686988666
757,0.0758,205.786,629.288,-0.000239327,359.87,-0.539628,-0.932126,-0.00645794,0.0458072,-0.0378521,0.0931244,-0.000127264,-0.000223346,0.0700794,-0.006437132321153394,0.09759826800010929,-0.0001272559022806874,0.046872554470095196,-0.0002233210601388924,-0.03714466333493471
758,0.0759,205.827,629.421,-0.000239992,359.945,-0.539842,-0.932494,-0.00646676,0.0458654,-0.0379012,0.0932435,-0.000127462,-0.000223694,0.0701729,-0.0064458955070006985,0.09772899973874849,-0.00012745387706436517,0.046933484225804234,-0.00022366898236270139,-0.03719193837135337
759,0.076,205.869,629.554,-0.000240657,360.019,-0.540055,-0.932862,-0.00647558,0.0459235,-0.0379504,0.0933625,-0.000127661,-0.000224042,0.0702664,-0.006454658615556941,0.09785963726249602,-0.00012765285168125917,0.046994312828291473,-0.000224016904465274,-0.03723930736269876
760,0.0761,205.911,629.686,-0.000241323,360.094,-0.540269,-0.93323,-0.0064844,0.0459816,-0.0379995,0.0934816,-0.000127859,-0.00022439,0.0703598,-0.006463421646822898,0.09799040013206817,-0.00012785082638644418,0.047055144965023166,-0.0002243648264468323,-0.03728657775220967
761,0.0762,205.953,629.818,-0.000241989,360.168,-0.540482,-0.933597,-0.00649323,0.0460397,-0.0380487,0.0936006,-0.000128057,-0.000224738,0.0704533,-0.006472194536077391,0.09812106876431326,-0.0001280488010523273,0.047115980636204924,-0.0002247127483073763,-0.03733394208741203
762,0.0763,205.994,629.95,-0.000242655,360.242,-0.540694,-0.933963,-0.00650205,0.0460979,-0.0380978,0.0937196,-0.000128256,-0.000225087,0.0705467,-0.006480957412677291,0.09825175294705102,-0.00012824777555087152,0.04717692455972888,-0.00022506166982172449,-0.03738120783047205
763,0.0764,206.036,630.082,-0.000243322,360.316,-0.540907,-0.934329,-0.00651087,0.046156,-0.038147,0.0938386,-0.000128454,-0.000225435,0.0706402,-0.006489720211988903,0.09838245268213175,-0.00012844575013815085,0.047237767306510525,-0.00022540959143979578,-0.03742856750998913
764,0.0765,206.077,630.214,-0.00024399,360.39,-0.541119,-0.934695,-0.00651969,0.0462141,-0.0381961,0.0939576,-0.000128653,-0.000225783,0.0707336,-0.006498482934012895,0.09851316797140619,-0.0001286447245576472,0.04729861358835841,-0.0002257575129366307,-0.037475828607055006
765,0.0766,206.119,630.346,-0.000244658,360.464,-0.541331,-0.93506,-0.00652851,0.0462722,-0.0382452,0.0940766,-0.000128851,-0.000226131,0.070827,-0.006507245578750154,0.09864389881672597,-0.00012884269906643375,0.04735946340547792,-0.00022610543431256236,-0.03752308738365795
766,0.0767,206.16,630.477,-0.000245326,360.538,-0.541543,-0.935425,-0.00653732,0.0463303,-0.0382944,0.0941955,-0.00012905,-0.00022648,0.0709204,-0.006515998211361174,0.0987745353424827,-0.00012904167340688222,0.047420316758074454,-0.0002264543553408549,-0.03757044008287269
767,0.0768,206.201,630.609,-0.000245995,360.612,-0.541754,-0.93579,-0.00654614,0.0463884,-0.0383435,0.0943145,-0.000129248,-0.000226828,0.0710138,-0.0065247607016143405,0.0989052972923703,-0.00012923964783706499,0.047481173646353625,-0.0002268022764742028,-0.037617694214166275
768,0.0769,206.243,630.74,-0.000246664,360.685,-0.541966,-0.936153,-0.00655496,0.0464465,-0.0383926,0.0944334,-0.000129447,-0.000227176,0.0711072,-0.006533523114582662,0.09903596490025368,-0.0001294386220985766,0.0475420340705206,-0.0002271501974864254,-0.037664946025338875
769,0.077,206.284,630.871,-0.000247334,360.759,-0.542177,-0.936517,-0.00656378,0.0465045,-0.0384417,0.0945524,-0.000129645,-0.000227525,0.0712006,-0.006542285450266805,0.09916675796210961,-0.00012963659645015557,0.047602793270496546,-0.0002274991181501207,-0.03771219551650451
770,0.0771,206.325,631.002,-0.000248004,360.832,-0.542387,-0.93688,-0.00657259,0.0465626,-0.0384908,0.0946713,-0.000129844,-0.000227873,0.071294,-0.006551037774177981,0.09929745665951484,-0.0001298355706326193,0.04766366076096906,-0.00022784703891987057,-0.03775944268777709
771,0.0772,206.366,631.133,-0.000248674,360.906,-0.542598,-0.937243,-0.00658141,0.0466207,-0.0385399,0.0947902,-0.000130043,-0.000228222,0.0713874,-0.006559799955383472,0.09942817089791922,-0.0001300345447755591,0.04772453178794556,-0.00022819595934042702,-0.03780668753927052
772,0.0773,206.408,631.263,-0.000249345,360.979,-0.542808,-0.937605,-0.00659023,0.0466787,-0.038589,0.0949091,-0.000130241,-0.00022857,0.0714808,-0.006568562059307004,0.09955890067917039,-0.00013023251900912136,0.047785301573095795,-0.0002285438798677042,-0.03785393007109872
773,0.0774,206.449,631.394,-0.000250017,361.052,-0.543018,-0.937967,-0.00659904,0.0467368,-0.0386381,0.095028,-0.00013044,-0.000228919,0.0715741,-0.006577314151722247,0.09968964600511687,-0.0001304314930731243,0.047846179667608846,-0.00022889280004501078,-0.037901170283375474
774,0.0775,206.49,631.524,-0.000250689,361.125,-0.543228,-0.938328,-0.00660785,0.0467949,-0.0386872,0.0951469,-0.000130639,-0.000229267,0.0716675,-0.006586066167031834,0.09982040687760652,-0.00013063046709738124,0.04790706129924183,-0.00022924072032970422,-0.03794840817621481
775,0.0776,206.531,631.654,-0.000251361,361.198,-0.543438,-0.938689,-0.00661667,0.0468529,-0.0387363,0.0952657,-0.000130837,-0.000229616,0.0717608,-0.006594828039288347,0.09995107330337571,-0.00013082844121303783,0.04796784167141088,-0.00022958964026387196,-0.03799564374973052
776,0.0777,206.571,631.784,-0.000252034,361.271,-0.543647,-0.93905,-0.00662548,0.046911,-0.0387854,0.0953846,-0.000131036,-0.000229965,0.0718542,-0.0066035799003012485,0.10008186526141927,-0.00013102741515835792,0.048028730371811656,-0.00022993856007613722,-0.038042877004036524
777,0.0778,206.612,631.914,-0.000252707,361.344,-0.543856,-0.93941,-0.00663429,0.046969,-0.0388344,0.0955034,-0.000131235,-0.000230313,0.0719475,-0.006612331684210715,0.10021256275028945,-0.00013122638906404305,0.04808951780099169,-0.00023028647999701057,-0.03809001174825266
778,0.0779,206.653,632.044,-0.00025338,361.417,-0.544065,-0.93977,-0.00664311,0.047027,-0.0388835,0.0956223,-0.000131433,-0.000230662,0.0720408,-0.006621093324806315,0.10034338580127677,-0.00013142436306168293,0.048150308755944726,-0.000230635399566137,-0.03813724036920374
779,0.078,206.694,632.173,-0.000254054,361.49,-0.544273,-0.940129,-0.00665192,0.0470851,-0.0389326,0.0957411,-0.000131632,-0.000231011,0.0721341,-0.006629844954423203,0.10047411436063247,-0.0001316233368884312,0.04821120805799106,-0.00023098431901347194,-0.03818446667128639
780,0.0781,206.735,632.303,-0.000254729,361.562,-0.544482,-0.940488,-0.00666073,0.0471431,-0.0389816,0.0958599,-0.000131831,-0.000231359,0.0722275,-0.006638596506938543,0.10060485845146383,-0.0001318223106755445,0.04827200607118365,-0.00023133223857041418,-0.038231594477778796
781,0.0782,206.775,632.432,-0.000255403,361.635,-0.54469,-0.940847,-0.00666954,0.0472011,-0.0390307,0.0959787,-0.00013203,-0.000231708,0.0723208,-0.006647347982353002,0.10073561807561582,-0.00013202128442313388,0.04833280761076342,-0.0002316811577746103,-0.03827881614718853
782,0.0783,206.816,632.561,-0.000256079,361.707,-0.544897,-0.941205,-0.00667835,0.0472591,-0.0390798,0.0960975,-0.000132228,-0.000232057,0.072414,-0.006656099380667246,0.10086639323493385,-0.00013221925826334413,0.04839361267693465,-0.00023203007685701493,-0.03832603549807112
783,0.0784,206.857,632.69,-0.000256754,361.78,-0.545105,-0.941562,-0.00668716,0.0473171,-0.0391288,0.0962163,-0.000132427,-0.000232406,0.0725073,-0.006664850701882052,0.10099718393126356,-0.00013241823193188562,0.04845442126990207,-0.0002323789958176281,-0.03837315636786098
784,0.0785,206.897,632.819,-0.00025743,361.852,-0.545312,-0.941919,-0.00669597,0.0473751,-0.0391779,0.096335,-0.000132626,-0.000232755,0.0726006,-0.006673601945998087,0.10112788005365769,-0.00013261720556090317,0.04851523338987018,-0.00023272791465644982,-0.03842037108675245
785,0.0786,206.938,632.948,-0.000258107,361.924,-0.54552,-0.942276,-0.00670478,0.0474331,-0.0392269,0.0964538,-0.000132825,-0.000233104,0.0726939,-0.006682353113016015,0.10125870181646701,-0.00013281617915028576,0.04857604903704349,-0.00023307683337348006,-0.03846748733421179
786,0.0787,206.978,633.076,-0.000258784,361.996,-0.545726,-0.942633,-0.00671358,0.0474911,-0.0392759,0.0965725,-0.000133024,-0.000233452,0.0727871,-0.006691094269847486,0.10138942898287628,-0.0001330151527000334,0.048636868211626716,-0.00023342475220222703,-0.03851460127303141
787,0.0788,207.019,633.205,-0.000259461,362.068,-0.545933,-0.942989,-0.00672239,0.0475491,-0.039325,0.0966913,-0.000133222,-0.000233801,0.0728804,-0.006699845282758687,0.1015202818195442,-0.0001332131263434011,0.048697690913824365,-0.00023377367067611843,-0.038561809047148565
788,0.0789,207.059,633.333,-0.000260139,362.14,-0.546139,-0.943344,-0.0067312,0.0476071,-0.039374,0.09681,-0.000133421,-0.00023415,0.0729736,-0.006708596218573892,0.10165104003734271,-0.00013341209981421187,0.04875851714384094,-0.00023412258902821836,-0.03860891836431757
789,0.079,207.099,633.461,-0.000260817,362.212,-0.546346,-0.9437,-0.00674,0.047665,-0.039423,0.0969287,-0.00013362,-0.000234499,0.0730669,-0.006717337144466984,0.10178181377706319,-0.00013361107324538768,0.0488192420199518,-0.00023447150725852683,-0.038656025373186576
790,0.0791,207.139,633.589,-0.000261496,362.284,-0.546552,-0.944054,-0.00674881,0.047723,-0.0394721,0.0970474,-0.000133819,-0.000234848,0.0731601,-0.006726087926179458,0.10191260304054772,-0.00013381004663703955,0.04888007530013705,-0.00023482042536715486,-0.03870322620355093
791,0.0792,207.18,633.717,-0.000262175,362.356,-0.546757,-0.944409,-0.00675761,0.047781,-0.0395211,0.0971661,-0.000134018,-0.000235197,0.0732533,-0.0067348286981463445,0.10204340782963928,-0.00013400901998905645,0.04894091210875473,-0.0002351693433538804,-0.038750328591449
792,0.0793,207.22,633.844,-0.000262855,362.427,-0.546963,-0.944763,-0.00676642,0.0478389,-0.0395701,0.0972848,-0.000134217,-0.000235546,0.0733465,-0.006743579325758864,0.10217422814618082,-0.0001342079933014384,0.04900164754583991,-0.0002355182612189255,-0.03879742867138658
793,0.0794,207.26,633.972,-0.000263535,362.499,-0.547168,-0.945116,-0.00677522,0.0478969,-0.0396191,0.0974034,-0.000134416,-0.000235896,0.0734397,-0.006752319943802099,0.10230495376151483,-0.00013440696657418538,0.04906249140585239,-0.00023586817872622845,-0.03884452644347691
794,0.0795,207.3,634.099,-0.000264215,362.57,-0.547373,-0.94547,-0.00678403,0.0479548,-0.0396681,0.0975221,-0.000134615,-0.000236245,0.0735329,-0.0067610704173174385,0.10243580512540107,-0.00013460593980740843,0.04912323388258244,-0.00023621709634735755,-0.03889162190783291
795,0.0796,207.34,634.227,-0.000264896,362.642,-0.547578,-0.945822,-0.00679283,0.0480128,-0.0397171,0.0976407,-0.000134814,-0.000236594,0.0736261,-0.006769810881439686,0.10256656176560441,-0.00013480491300110753,0.04918408479480707,-0.00023656601384669518,-0.038938715064567586
796,0.0797,207.38,634.354,-0.000265577,362.713,-0.547782,-0.946175,-0.00680163,0.0480707,-0.0397661,0.0977594,-0.000135013,-0.000236943,0.0737193,-0.006778551268646127,0.1026974441842039,-0.00013500388615506065,0.04924483431199822,-0.00023691493122435237,-0.03898580591379419
797,0.0798,207.42,634.481,-0.000266259,362.784,-0.547987,-0.946527,-0.00681043,0.0481287,-0.0398151,0.097878,-0.000135212,-0.000237292,0.0738125,-0.006787291578937538,0.1028282318566398,-0.00013520285926948983,0.049305692277252344,-0.00023726384848010706,-0.039032894455625744
798,0.0799,207.46,634.608,-0.000266941,362.856,-0.548191,-0.946878,-0.00681923,0.0481866,-0.0398641,0.0979966,-0.000135411,-0.000237641,0.0739057,-0.006796031812314585,0.10295903504141357,-0.00013540183234439507,0.04936644883572061,-0.00023761276561418132,-0.039079980690175264
799,0.08,207.5,634.734,-0.000267624,362.927,-0.548395,-0.94723,-0.00682804,0.0482445,-0.039913,0.0981152,-0.00013561,-0.000237991,0.0739988,-0.006804781900730195,0.10308985374036483,-0.00013560080537955432,0.04942720891209529,-0.000237962682388404,-0.03912696853025743
800,0.0801,207.54,634.861,-0.000268306,362.998,-0.548598,-0.94758,-0.00683684,0.0483024,-0.039962,0.0982338,-0.000135809,-0.00023834,0.074092,-0.006813521980193027,0.10322068795533412,-0.00013579977837518964,0.049487972506580435,-0.00023831159927856227,-0.039174050155290185
801,0.0802,207.579,634.987,-0.00026899,363.069,-0.548802,-0.947931,-0.00684564,0.0483603,-0.040011,0.0983524,-0.000136008,-0.000238689,0.0741851,-0.006822261982743494,0.1033515376881613,-0.00013599875133130102,0.049548739619379445,-0.00023866051604692906,-0.03922112947337997
802,0.0803,207.619,635.114,-0.000269674,363.14,-0.549005,-0.948281,-0.00685443,0.0484183,-0.04006,0.0984709,-0.000136207,-0.000239039,0.0742783,-0.006830991976692347,0.10348229259245256,-0.0001361977242476664,0.049609615211652525,-0.0002390104324545561,-0.03926820648463958
803,0.0804,207.659,635.24,-0.000270358,363.21,-0.549208,-0.948631,-0.00686323,0.0484762,-0.0401089,0.0985895,-0.000136406,-0.000239388,0.0743714,-0.006839731825507567,0.10361317335342979,-0.00013639669712461888,0.04967038936776813,-0.0002393593489790069,-0.03931518512070542
804,0.0805,207.698,635.366,-0.000271043,363.281,-0.549411,-0.94898,-0.00687203,0.0485341,-0.0401579,0.0987081,-0.000136605,-0.000239737,0.0744645,-0.00684847159741242,0.1037440696377856,-0.00013659566996182537,0.04973116704280933,-0.00023970826538166623,-0.03936225752335121
805,0.0806,207.738,635.492,-0.000271728,363.352,-0.549613,-0.949329,-0.00688083,0.0485919,-0.0402068,0.0988266,-0.000136805,-0.000240087,0.0745576,-0.006857211292407683,0.10387487105986892,-0.00013679564262270016,0.04979184325778996,-0.00024005818142258661,-0.039409231560433744
806,0.0807,207.778,635.617,-0.000272413,363.422,-0.549815,-0.949677,-0.00688962,0.0486498,-0.0402558,0.0989451,-0.000137004,-0.000240436,0.0746507,-0.006865940979153384,0.10400568798283905,-0.0001369946153805257,0.049852627965214946,-0.00024040709758144096,-0.0394562993549169
807,0.0808,207.817,635.743,-0.000273099,363.493,-0.550017,-0.950025,-0.00689842,0.0487077,-0.0403047,0.0990636,-0.000137203,-0.000240786,0.0747438,-0.00687468052041873,0.10413652040853316,-0.0001371935880988273,0.049913416192176374,-0.0002407570133776682,-0.03950326879346633
808,0.0809,207.857,635.869,-0.000273785,363.563,-0.550219,-0.950373,-0.00690722,0.0487656,-0.0403537,0.0991821,-0.000137402,-0.000241135,0.0748369,-0.006883419984776373,0.10426736833878825,-0.00013739256077749396,0.04997420793887808,-0.00024110592929260655,-0.03955033198023794
809,0.081,207.896,635.994,-0.000274472,363.633,-0.550421,-0.95072,-0.00691601,0.0488235,-0.0404026,0.0993006,-0.000137601,-0.000241485,0.07493,-0.006892149441148687,0.10439823177544194,-0.00013759153341663666,0.050035003205523676,-0.00024145584484425164,-0.03959729682070445
810,0.0811,207.935,636.119,-0.000275159,363.704,-0.550622,-0.951067,-0.00692481,0.0488813,-0.0404516,0.0994191,-0.0001378,-0.000241834,0.0750231,-0.006900888751780632,0.10452911072033166,-0.0001377905060161444,0.05009569698274219,-0.000241804760515274,-0.0396443554002156
811,0.0812,207.975,636.244,-0.000275847,363.774,-0.550823,-0.951414,-0.0069336,0.0489392,-0.0405005,0.0995376,-0.000138,-0.000242184,0.0751161,-0.006909618054603106,0.10466000517529528,-0.00013799047843798817,0.050156499283807054,-0.00024215467582244798,-0.039691315643049174
812,0.0813,208.014,636.369,-0.000276535,363.844,-0.551024,-0.95176,-0.00694239,0.048997,-0.0405494,0.099656,-0.000138199,-0.000242533,0.0752092,-0.006918347280695403,0.10479080466308499,-0.00013818945095811497,0.05021720008370201,-0.00024250359124955434,-0.03973827358958315
813,0.0814,208.053,636.494,-0.000277224,363.914,-0.551225,-0.952106,-0.00695119,0.0490549,-0.0405983,0.0997745,-0.000138398,-0.000242883,0.0753022,-0.006927086360787316,0.10492173013061823,-0.0001383884234386068,0.05027800942000016,-0.00024285350631203517,-0.039785229239929554
814,0.0815,208.092,636.618,-0.000277913,363.984,-0.551426,-0.952451,-0.00695998,0.0491127,-0.0406473,0.0998929,-0.000138597,-0.000243233,0.0753953,-0.006935815433333881,0.10505256060847734,-0.00013858739587946367,0.05033871724338379,-0.0002432034212520584,-0.03983227861097782
815,0.0816,208.132,636.743,-0.000278602,364.053,-0.551626,-0.952796,-0.00696877,0.0491706,-0.0406962,0.100011,-0.000138797,-0.000243582,0.0754883,-0.006944544429152266,0.10518307502260948,-0.00013878736814199044,0.05039953361572902,-0.00024355233631323525,-0.03987922966459112
816,0.0817,208.171,636.867,-0.000279292,364.123,-0.551826,-0.953141,-0.00697756,0.0492284,-0.0407451,0.10013,-0.000138996,-0.000243932,0.0755813,-0.006953273348243139,0.1053145996340965,-0.0001389863405035774,0.05046024846341424,-0.00024390225100867635,-0.03992617842235402
817,0.0818,208.21,636.992,-0.000279982,364.193,-0.552026,-0.953485,-0.00698635,0.0492862,-0.040794,0.100248,-0.000139195,-0.000244282,0.0756744,-0.006962002190607053,0.10544503445235609,-0.00013918531282541835,0.0505209668205191,-0.00024425216558165985,-0.039973124884378874
818,0.0819,208.249,637.116,-0.000280672,364.263,-0.552225,-0.953829,-0.00699514,0.0493441,-0.0408429,0.100367,-0.000139395,-0.000244632,0.0757674,-0.006970730956244786,0.10557659023887012,-0.0001393852849683741,0.05058179374542049,-0.00024460208003218575,-0.04002006905077782
819,0.082,208.288,637.24,-0.000281363,364.332,-0.552425,-0.954173,-0.00700393,0.0494019,-0.0408918,0.100485,-0.000139594,-0.000244981,0.0758604,-0.0069794596451570046,0.10570705597384511,-0.00013958425721094514,0.050642519128045516,-0.0002449509946050865,-0.04006701092166309
820,0.0821,208.327,637.364,-0.000282055,364.402,-0.552624,-0.954516,-0.00701272,0.0494597,-0.0409407,0.100603,-0.000139793,-0.000245331,0.0759534,-0.006988188257344485,0.10583753710468535,-0.00013978322941388122,0.050703248020699254,-0.0002453009088110303,-0.040113950497147055
821,0.0822,208.366,637.487,-0.000282747,364.471,-0.552823,-0.954859,-0.00702151,0.0495175,-0.0409896,0.100722,-0.000139993,-0.000245681,0.0760464,-0.0069969167928076725,0.1059691396017941,-0.00013998320143726595,0.05076398042358443,-0.00024565082289451645,-0.040160887777341836
822,0.0823,208.404,637.611,-0.000283439,364.54,-0.553022,-0.955201,-0.0070303,0.0495753,-0.0410384,0.10084,-0.000140192,-0.000246031,0.0761393,-0.007005645251547454,0.1060996516603272,-0.00014018217356082108,0.050824716336904,-0.000246000736855434,-0.04020772678313733
823,0.0824,208.443,637.734,-0.000284132,364.609,-0.55322,-0.955543,-0.00703909,0.0496331,-0.0410873,0.100958,-0.000140391,-0.000246381,0.0762323,-0.007014373633564386,0.10623017912019184,-0.00014038114564474125,0.050885455760860676,-0.00024635065069400497,-0.04025465947778384
824,0.0825,208.482,637.858,-0.000284825,364.679,-0.553419,-0.955885,-0.00704787,0.0496909,-0.0411362,0.101077,-0.000140591,-0.000246731,0.0763253,-0.007023092009090237,0.10636182834448049,-0.00014058111754844393,0.05094619869565742,-0.0002467005644100073,-0.040301589877477784
825,0.0826,208.521,637.981,-0.000285518,364.748,-0.553617,-0.956226,-0.00705666,0.0497487,-0.0411851,0.101195,-0.00014079,-0.00024708,0.0764182,-0.007031820237750841,0.1064923867430192,-0.00014078008955309418,0.051006945141497395,-0.00024704947825060497,-0.0403485179823313
826,0.0827,208.559,638.104,-0.000286212,364.817,-0.553815,-0.956567,-0.00706544,0.0498065,-0.0412339,0.101313,-0.00014099,-0.00024743,0.0765112,-0.007040538460096113,0.10662296054835796,-0.00014098006137708285,0.051067695098583554,-0.0002473993917220252,-0.040395347831996054
827,0.0828,208.598,638.227,-0.000286907,364.886,-0.554012,-0.956908,-0.00707423,0.0498642,-0.0412828,0.101432,-0.000141189,-0.00024778,0.0766041,-0.007049266535403054,0.10675465651641791,-0.00014117903330224113,0.05112834345427886,-0.0002477493050710988,-0.04044227135219769
828,0.0829,208.637,638.35,-0.000287602,364.955,-0.55421,-0.957248,-0.00708301,0.049922,-0.0413316,0.10155,-0.000141389,-0.00024813,0.0766971,-0.007057984604570522,0.10688526127141573,-0.00014137900504640477,0.0511891004283902,-0.00024809921829760384,-0.04048909662680977
829,0.083,208.675,638.472,-0.000288297,365.023,-0.554407,-0.957588,-0.0070918,0.0499798,-0.0413805,0.101668,-0.000141588,-0.00024848,0.07679,-0.007066712526526575,0.10701588143868412,-0.0001415779768921821,0.05124986091435613,-0.00024844913140165126,-0.04053601556280739
830,0.0831,208.714,638.595,-0.000288992,365.092,-0.554604,-0.957928,-0.00710058,0.0500375,-0.0414293,0.101786,-0.000141788,-0.00024883,0.0768829,-0.007075430442518904,0.10714651702004163,-0.00014177794855663173,0.051310519781322395,-0.00024879904438313005,-0.04058283626281356
831,0.0832,208.752,638.717,-0.000289689,365.161,-0.554801,-0.958267,-0.00710936,0.0500953,-0.0414782,0.101905,-0.000141987,-0.00024918,0.0769758,-0.007084148281968239,0.10727827529502898,-0.0001419769203230281,0.05137128728552964,-0.00024914895724226227,-0.04062975061505503
832,0.0833,208.791,638.839,-0.000290385,365.229,-0.554998,-0.958606,-0.00711815,0.050153,-0.041527,0.102023,-0.000142187,-0.000249531,0.0770687,-0.0070928759739465885,0.10740894184068828,-0.0001421768919076527,0.05143195315899973,-0.0002494998697294415,-0.040676566740902254
833,0.0834,208.829,638.961,-0.000291082,365.298,-0.555194,-0.958944,-0.00712693,0.0502108,-0.0415759,0.102141,-0.000142386,-0.000249881,0.0771616,-0.007101593660224781,0.10753962380590987,-0.00014237586359455712,0.05149272768225899,-0.0002498497823432144,-0.04072347650983543
834,0.0835,208.867,639.083,-0.000291779,365.366,-0.555391,-0.959282,-0.00713571,0.0502685,-0.0416247,0.102259,-0.000142586,-0.000250231,0.0772545,-0.0071103112699620885,0.10767032119251296,-0.0001425758350994677,0.05155340056304203,-0.00025019969483452975,-0.04077028806197058
835,0.0836,208.906,639.205,-0.000292477,365.435,-0.555587,-0.95962,-0.00714449,0.0503263,-0.0416735,0.102378,-0.000142785,-0.000250581,0.0773474,-0.0071190288031590665,0.10780214180390568,-0.00014277480670699116,0.05161418210616442,-0.0002505496072033875,-0.04081709732975769
836,0.0837,208.944,639.327,-0.000293175,365.503,-0.555783,-0.959957,-0.00715327,0.050384,-0.0417223,0.102496,-0.000142985,-0.000250931,0.0774402,-0.007127746259816492,0.10793287016946063,-0.0001429747781320767,0.051674861995069765,-0.0002508995194497876,-0.04086390431330833
837,0.0838,208.982,639.449,-0.000293874,365.571,-0.555978,-0.960294,-0.00716205,0.0504417,-0.0417712,0.102614,-0.000143184,-0.000251281,0.0775331,-0.007136463639935031,0.10806361396187247,-0.00014317374966033025,0.05173554538530589,-0.00025124943157373014,-0.04091080492165822
838,0.0839,209.02,639.57,-0.000294573,365.639,-0.556174,-0.960631,-0.00717083,0.0504994,-0.04182,0.102732,-0.000143384,-0.000251632,0.077626,-0.007145180943515239,0.10819437318296243,-0.00014337372100559076,0.05179623227707464,-0.00025160034332361025,-0.040957607332389845
839,0.084,209.058,639.692,-0.000295272,365.707,-0.556369,-0.960967,-0.00717961,0.0505571,-0.0418688,0.10285,-0.000143584,-0.000251982,0.0777188,-0.007153898170557893,0.1083251478345506,-0.00014357369231077222,0.051856922670578065,-0.0002519502552023045,-0.04100440745921974
840,0.0841,209.097,639.813,-0.000295972,365.775,-0.556564,-0.961303,-0.00718839,0.0506148,-0.0419176,0.102968,-0.000143783,-0.000252332,0.0778116,-0.007162615321063548,0.10845593791845842,-0.00014377266371989883,0.05191761656601823,-0.00025230016695843016,-0.04105120530225903
841,0.0842,209.135,639.934,-0.000296672,365.843,-0.556759,-0.961639,-0.00719716,0.0506726,-0.0419664,0.103087,-0.000143983,-0.000252682,0.0779045,-0.007171322466746344,0.10858785202380417,-0.00014397263494536627,0.051978419161433864,-0.0002526500785920982,-0.0410980008616193
842,0.0843,209.173,640.055,-0.000297373,365.911,-0.556953,-0.961974,-0.00720594,0.0507303,-0.0420152,0.103205,-0.000144183,-0.000253033,0.0779973,-0.007180039464267374,0.10871867310863537,-0.00014417260613075467,0.05203912006742373,-0.00025300098985037156,-0.04114479413741212
843,0.0844,209.211,640.176,-0.000298074,365.979,-0.557148,-0.962309,-0.00721472,0.0507879,-0.042064,0.103323,-0.000144382,-0.000253383,0.0780901,-0.007188756385253514,0.10884950963126516,-0.00014437157742064333,0.05209971926597978,-0.00025335090123879134,-0.04119158512974863
844,0.0845,209.249,640.297,-0.000298776,366.046,-0.557342,-0.962644,-0.00722349,0.0508456,-0.0421128,0.103441,-0.000144582,-0.000253733,0.0781829,-0.00719746330168014,0.10898036159351543,-0.0001445715485263177,0.05216042717118752,-0.0002537008125047535,-0.041238373838740516
845,0.0846,209.286,640.417,-0.000299478,366.114,-0.557536,-0.962978,-0.00723227,0.0509033,-0.0421615,0.103559,-0.000144782,-0.000254084,0.0782757,-0.007206180069685764,0.10911122899720849,-0.00014477151959202406,0.05222113857934274,-0.0002540517233942108,-0.041285064393010384
846,0.0847,209.324,640.538,-0.00030018,366.182,-0.55773,-0.963312,-0.00724104,0.050961,-0.0422103,0.103677,-0.000144981,-0.000254434,0.0783685,-0.007214886833307288,0.10924211184416621,-0.00014497049076267476,0.05228185349064707,-0.00025440163441481367,-0.041331848540325566
847,0.0848,209.362,640.658,-0.000300883,366.249,-0.557923,-0.963645,-0.00724981,0.0510187,-0.0422591,0.103795,-0.000145181,-0.000254785,0.0784613,-0.007223593520570892,0.10937301013621137,-0.00014517046174855608,0.05234257190530278,-0.0002547525450582455,-0.04137863040462997
848,0.0849,209.4,640.778,-0.000301586,366.316,-0.558117,-0.963978,-0.00725859,0.0510763,-0.0423079,0.103913,-0.000145381,-0.000255135,0.0785541,-0.007232310059154146,0.10950392387516605,-0.00014537043269446936,0.052403188583188154,-0.00025510245583371116,-0.04142540998603517
849,0.085,209.438,640.898,-0.00030229,366.384,-0.55831,-0.964311,-0.00726736,0.051134,-0.0423566,0.104031,-0.000145581,-0.000255486,0.0786468,-0.007241016593616645,0.10963485306285348,-0.00014557040360041462,0.05246391399908079,-0.0002554533662311176,-0.041472091431866365
850,0.0851,209.475,641.018,-0.000302994,366.451,-0.558503,-0.964644,-0.00727613,0.0511916,-0.0424054,0.104149,-0.00014578,-0.000255836,0.0787396,-0.0072497230517233335,0.10976579770109662,-0.0001457693746120814,0.052524537666472026,-0.00025580327676122394,-0.041518866452484704
851,0.0852,209.513,641.138,-0.000303698,366.518,-0.558696,-0.964976,-0.00728491,0.0512493,-0.0424541,0.104267,-0.00014598,-0.000256187,0.0788324,-0.007258439360890212,0.1098967577917187,-0.00014596934543831264,0.05258527008440872,-0.00025615418691271596,-0.041565543347096945
852,0.0853,209.551,641.258,-0.000304403,366.585,-0.558888,-0.965308,-0.00729368,0.0513069,-0.0425029,0.104385,-0.00014618,-0.000256537,0.0789251,-0.007267145666199792,0.11002773333654337,-0.0001461693162243538,0.05264590074211184,-0.00025650409719746303,-0.04161231380737307
853,0.0854,209.588,641.377,-0.000305108,366.652,-0.559081,-0.965639,-0.00730245,0.0513646,-0.0425516,0.104503,-0.00014638,-0.000256888,0.0790178,-0.00727585189515545,0.11015872433739404,-0.00014636928697053797,0.052706640162900165,-0.00025685500710292963,-0.04165898615120989
854,0.0855,209.626,641.497,-0.000305814,366.719,-0.559273,-0.96597,-0.00731122,0.0514222,-0.0426004,0.104621,-0.000146579,-0.000257238,0.0791106,-0.00728455804775785,0.11028973079609483,-0.0001465682578232208,0.05276727781172097,-0.00025720491714242844,-0.04170575205158844
855,0.0856,209.663,641.616,-0.00030652,366.786,-0.559465,-0.966301,-0.00731999,0.0514798,-0.0426491,0.104739,-0.000146779,-0.000257589,0.0792033,-0.007293264124007548,0.11042075271447005,-0.00014676822848957993,0.052827918953371134,-0.00025755582680198064,-0.04175241984509348
856,0.0857,209.701,641.735,-0.000307227,366.853,-0.559657,-0.966632,-0.00732876,0.0515375,-0.0426979,0.104857,-0.000146979,-0.000257939,0.079296,-0.007301970123905321,0.1105517900943438,-0.00014696819911597103,0.052888668876913014,-0.00025790573659623117,-0.04179918118601911
857,0.0858,209.738,641.855,-0.000307934,366.92,-0.559849,-0.966962,-0.00733752,0.0515951,-0.0427466,0.104975,-0.000147179,-0.00025829,0.0793887,-0.007310666120558529,0.1106828429375406,-0.00014716816970228308,0.052949317010889896,-0.00025825664600964693,-0.041845844429636125
858,0.0859,209.775,641.974,-0.000308641,366.987,-0.56004,-0.967292,-0.00734629,0.0516527,-0.0427953,0.105093,-0.000147379,-0.000258641,0.0794814,-0.0073193719678413816,0.11081391124588524,-0.00014736814024873812,0.053009968638299876,-0.00025860755530005,-0.041892505400808466
859,0.086,209.813,642.092,-0.000309349,367.053,-0.560231,-0.967621,-0.00735506,0.0517103,-0.042844,0.105211,-0.000147579,-0.000258991,0.0795741,-0.007328077738774419,0.11094499502120292,-0.0001475681107551141,0.05307062375934413,-0.00025895746472615055,-0.04193916409964693
860,0.0861,209.85,642.211,-0.000310057,367.12,-0.560422,-0.96795,-0.00736383,0.0517679,-0.0428928,0.105329,-0.000147779,-0.000259342,0.0796668,-0.007336783433358085,0.11107609426531861,-0.00014776808122141105,0.05313128237422404,-0.0002593083737705282,-0.04198591632767523
861,0.0862,209.887,642.33,-0.000310766,367.186,-0.560613,-0.968279,-0.00737259,0.0518255,-0.0429415,0.105447,-0.000147978,-0.000259693,0.0797595,-0.007345479125048016,0.11120720898005798,-0.00014796705179576097,0.053191944483140796,-0.00025965928269167105,-0.0420325704775123
862,0.0863,209.924,642.448,-0.000311475,367.253,-0.560804,-0.968607,-0.00738136,0.0518831,-0.0429902,0.105565,-0.000148178,-0.000260044,0.0798521,-0.007354184667022312,0.11133833916724667,-0.0001481670221823439,0.05325261008629556,-0.0002600101914896902,-0.04207922235534767
863,0.0864,209.962,642.567,-0.000312184,367.319,-0.560994,-0.968936,-0.00739012,0.0519407,-0.0430389,0.105683,-0.000148378,-0.000260394,0.0799448,-0.007362880206278066,0.11146948482871011,-0.0001483669925289588,0.05331327918388973,-0.00026036010042485014,-0.042125871961291805
864,0.0865,209.999,642.685,-0.000312894,367.385,-0.561185,-0.969263,-0.00739889,0.0519983,-0.0430876,0.105801,-0.000148578,-0.000260745,0.0800374,-0.007371585595645436,0.11160064596627484,-0.00014856696283560566,0.053373951776124695,-0.00026071100897684385,-0.04217251929545551
865,0.0866,210.036,642.803,-0.000313604,367.452,-0.561375,-0.969591,-0.00740765,0.0520559,-0.0431363,0.105919,-0.000148778,-0.000261096,0.0801301,-0.007380280982469789,0.11173182258176695,-0.00014876693310217348,0.05343462786320141,-0.00026106191740571383,-0.04221916435794926
866,0.0867,210.073,642.921,-0.000314315,367.518,-0.561565,-0.969918,-0.00741641,0.0521134,-0.043185,0.106036,-0.000148978,-0.000261447,0.0802227,-0.007388976293122851,0.11186190281455421,-0.00014896690332877327,0.05349520209579617,-0.00026141282571146007,-0.04226580714888384
867,0.0868,210.11,643.039,-0.000315026,367.584,-0.561754,-0.970245,-0.00742518,0.052171,-0.0432337,0.106154,-0.000149178,-0.000261798,0.0803153,-0.007397681453628624,0.11199311026017345,-0.00014916687351540503,0.05355588516709253,-0.00026176373389397156,-0.042312447668369835
868,0.0869,210.147,643.157,-0.000315737,367.65,-0.561944,-0.970571,-0.00743394,0.0522286,-0.0432824,0.106272,-0.000149378,-0.000262149,0.080408,-0.007406376611854282,0.1121243331891848,-0.00014936684366206876,0.053616571733834384,-0.0002621146419532483,-0.042359085916517825
869,0.087,210.184,643.274,-0.000316449,367.716,-0.562133,-0.970898,-0.0074427,0.0522861,-0.043331,0.10639,-0.000149578,-0.0002625,0.0805006,-0.0074150716939106465,0.11225557160341526,-0.00014956681376865344,0.05367715642850235,-0.0002624655498894013,-0.04240562613400589
870,0.0871,210.221,643.392,-0.000317162,367.782,-0.562323,-0.971223,-0.00745146,0.0523437,-0.0433797,0.106508,-0.000149778,-0.000262851,0.0805932,-0.007423766699798384,0.11238682550469226,-0.0001497667838353811,0.053737849980670216,-0.00026281645770243056,-0.042452259844473095
871,0.0872,210.258,643.509,-0.000317875,367.847,-0.562512,-0.971549,-0.00746022,0.0524012,-0.0434284,0.106626,-0.000149978,-0.000263202,0.0806858,-0.007432461629518272,0.11251809489484343,-0.00014996675386202973,0.0537984416490378,-0.0002631673653923361,-0.042498891283933915
872,0.0873,210.294,643.627,-0.000318588,367.913,-0.5627,-0.971874,-0.00746898,0.0524588,-0.0434771,0.106743,-0.000150178,-0.000263552,0.0807784,-0.007441156483070865,0.11264826712687337,-0.0001501667238485993,0.05385914218743548,-0.0002635172732224911,-0.04254552045249893
873,0.0874,210.331,643.744,-0.000319301,367.979,-0.562889,-0.972199,-0.00747774,0.0525163,-0.0435257,0.106861,-0.000150378,-0.000263903,0.0808709,-0.00744985126045683,0.11277956736895622,-0.00015036669379531187,0.053919740830305596,-0.0002638681806663712,-0.042592051609488646
874,0.0875,210.368,643.861,-0.000320015,368.044,-0.563077,-0.972524,-0.0074865,0.0525738,-0.0435744,0.106979,-0.000150578,-0.000264254,0.0809635,-0.007458545961676943,0.11291088310538178,-0.00015056666370194538,0.053980342957697935,-0.00026421908798701654,-0.04263867624125628
875,0.0876,210.405,643.978,-0.00032073,368.11,-0.563266,-0.972848,-0.00749526,0.0526314,-0.043623,0.107097,-0.000150778,-0.000264606,0.0810561,-0.007467240586731871,0.11304221433797856,-0.00015076663356861086,0.05404105397391268,-0.00026457099491994374,-0.04268520287098465
876,0.0877,210.441,644.095,-0.000321445,368.176,-0.563454,-0.973172,-0.00750401,0.0526889,-0.0436717,0.107215,-0.000150978,-0.000264957,0.0811486,-0.007475925210381429,0.11317356106857512,-0.00015096660339530832,0.05410166307701125,-0.00026492190199400856,-0.04273182296639633
877,0.0878,210.478,644.211,-0.00032216,368.241,-0.563641,-0.973495,-0.00751277,0.0527464,-0.0437203,0.107332,-0.000151179,-0.000265308,0.0812412,-0.007484619683194693,0.11330380999463374,-0.0001511675730307971,0.05416227566523335,-0.0002652728089448386,-0.04277834506930389
878,0.0879,210.515,644.328,-0.000322876,368.306,-0.563829,-0.973819,-0.00752153,0.0528039,-0.043769,0.10745,-0.000151379,-0.000265659,0.0813337,-0.007493314079844771,0.11343518759533922,-0.00015136754277733644,0.05422289173877948,-0.00026562371577243393,-0.04282496062880092
879,0.088,210.551,644.444,-0.000323592,368.372,-0.564017,-0.974142,-0.00753028,0.0528614,-0.0438176,0.107568,-0.000151579,-0.00026601,0.0814263,-0.007501998475352267,0.11356658069951608,-0.00015156751248379674,0.05428351129785014,-0.0002659746224769055,-0.042871478205328106
880,0.0881,210.588,644.561,-0.000324308,368.437,-0.564204,-0.974464,-0.00753904,0.0529189,-0.0438662,0.107685,-0.000151779,-0.000266361,0.0815188,-0.007510692719764789,0.11369687561156172,-0.000151767482150289,0.05434413434264562,-0.00026632552905825335,-0.042917993521155995
881,0.0882,210.624,644.677,-0.000325025,368.502,-0.564391,-0.974787,-0.00754779,0.0529764,-0.0439149,0.107803,-0.000151979,-0.000266712,0.0816113,-0.007519376963209923,0.11382829959674634,-0.00015196745177681326,0.05440476087336643,-0.00026667643551647746,-0.042964602279939035
882,0.0883,210.661,644.793,-0.000325742,368.567,-0.564578,-0.975109,-0.00755655,0.0530339,-0.0439635,0.107921,-0.000152179,-0.000267063,0.0817038,-0.007528071055387553,0.11395973909087642,-0.00015216742136336947,0.05446539089021285,-0.0002670273418513558,-0.0430111130700469
883,0.0884,210.697,644.909,-0.00032646,368.632,-0.564765,-0.97543,-0.0075653,0.0530914,-0.0440121,0.108039,-0.000152379,-0.000267415,0.0817963,-0.007536755146772878,0.11409119409578206,-0.00015236739090984663,0.05452602439338561,-0.0002673792477958514,-0.04305762159978521
884,0.0885,210.733,645.025,-0.000327178,368.697,-0.564951,-0.975752,-0.00757405,0.0531489,-0.0440607,0.108156,-0.000152579,-0.000267766,0.0818888,-0.007545439162172651,0.11422155039118587,-0.00015256736041635577,0.05458666138308499,-0.0002677301538841492,-0.043104127869263986
885,0.0886,210.77,645.141,-0.000327897,368.762,-0.565138,-0.976073,-0.00758281,0.0532063,-0.0441093,0.108274,-0.00015278,-0.000268117,0.0819813,-0.007554133026046461,0.11435303629164739,-0.0001527683297301019,0.054647196394786546,-0.0002680810598493233,-0.043150631878592915
886,0.0887,210.806,645.256,-0.000328616,368.827,-0.565324,-0.976394,-0.00759156,0.0532638,-0.0441579,0.108392,-0.00015298,-0.000268468,0.0820738,-0.007562816889390533,0.11448453770836098,-0.00015296829915645294,0.05470784035207621,-0.0002684319656912626,-0.04319713362788202
887,0.0888,210.842,645.372,-0.000329335,368.891,-0.56551,-0.976714,-0.00760031,0.0533213,-0.0442065,0.108509,-0.00015318,-0.00026882,0.0821663,-0.007571500676751053,0.1146149400276597,-0.00015316826854283594,0.05476848779649379,-0.0002687838711412649,-0.04324363311724089
888,0.0889,210.879,645.487,-0.000330055,368.956,-0.565696,-0.977034,-0.00760906,0.0533787,-0.0442551,0.108627,-0.00015338,-0.000269171,0.0822587,-0.007580184388128908,0.11474647235083735,-0.0001533682378891399,0.05482903324533117,-0.00026913477673651265,-0.04329013034677964
889,0.089,210.915,645.603,-0.000330775,369.021,-0.565882,-0.977354,-0.00761781,0.0534362,-0.0443037,0.108744,-0.000153581,-0.000269522,0.0823512,-0.007588868023524542,0.11487690531828232,-0.0001535692070419037,0.0548896876585403,-0.00026948568220863667,-0.04333662531660787
890,0.0891,210.951,645.718,-0.000331496,369.085,-0.566067,-0.977674,-0.00762656,0.0534936,-0.0443523,0.108862,-0.000153781,-0.000269873,0.0824436,-0.007597551582938733,0.1150084685551882,-0.00015376917630816056,0.054950240064449485,-0.00026983658755763695,-0.043383118026835366
891,0.0892,210.987,645.833,-0.000332217,369.15,-0.566252,-0.977993,-0.00763531,0.0535511,-0.0444009,0.10898,-0.000153981,-0.000270225,0.0825361,-0.007606235066372036,0.11514004731747196,-0.00015396914553422736,0.05501090144725107,-0.0002701884925131459,-0.04342960847757216
892,0.0893,211.023,645.948,-0.000332938,369.214,-0.566438,-0.978312,-0.00764406,0.0536085,-0.0444495,0.109097,-0.000154181,-0.000270576,0.0826285,-0.007614918473825227,0.11527052633588175,-0.00015416911472043715,0.055071460811031425,-0.00027053939761545465,-0.043476096668928044
893,0.0894,211.059,646.063,-0.00033366,369.278,-0.566623,-0.978631,-0.00765281,0.053666,-0.0444981,0.109215,-0.000154382,-0.000270928,0.0827209,-0.007623601805298974,0.11540213602280835,-0.0001543700837122186,0.055132129164226384,-0.0002708913023236059,-0.043522582601012605
894,0.0895,211.095,646.177,-0.000334382,369.343,-0.566807,-0.978949,-0.00766155,0.0537234,-0.0445466,0.109332,-0.000154582,-0.000271279,0.0828133,-0.0076322751371167286,0.11553264570739064,-0.0001545700528182703,0.05519269548667727,-0.0002712422071792231,-0.043568970630837645
895,0.0896,211.131,646.292,-0.000335105,369.407,-0.566992,-0.979267,-0.0076703,0.0537808,-0.0445952,0.10945,-0.000154782,-0.00027163,0.0829058,-0.007640958316720292,0.11566428632622783,-0.00015477002188424294,0.05525326528573471,-0.0002715931119116055,-0.04361545204935735
896,0.0897,211.167,646.407,-0.000335828,369.471,-0.567176,-0.979585,-0.00767905,0.0538382,-0.0446438,0.109567,-0.000154982,-0.000271982,0.0829982,-0.007649641420346409,0.11579482668419017,-0.00015496999091024755,0.05531383856159855,-0.00027194501624883127,-0.04366193120893502
897,0.0898,211.203,646.521,-0.000336552,369.535,-0.567361,-0.979902,-0.00768779,0.0538956,-0.0446923,0.109685,-0.000155183,-0.000272333,0.0830906,-0.00765831452457888,0.11592649824220791,-0.00015517095974104667,0.055374415314468184,-0.00027229592073463316,-0.04370831248051643
898,0.0899,211.239,646.635,-0.000337276,369.599,-0.567545,-0.980219,-0.00769654,0.0539531,-0.0447409,0.109802,-0.000155383,-0.000272685,0.0831829,-0.0076669974763388105,0.11605706928075898,-0.00015537092868689317,0.055435101088048055,-0.00027264782482450123,-0.043754787127186834
899,0.09,211.275,646.749,-0.000338,369.663,-0.567729,-0.980536,-0.00770528,0.0540105,-0.0447894,0.10992,-0.000155583,-0.000273036,0.0832753,-0.007675670428879955,0.11618877178522924,-0.00015557089759266063,0.0554956848015864,-0.00027299872906350053,-0.04380116389536548
900,0.0901,211.31,646.863,-0.000338725,369.727,-0.567912,-0.980853,-0.00771403,0.0540679,-0.044838,0.110038,-0.000155784,-0.000273388,0.0833677,-0.007684353228776364,0.11632048983151178,-0.0001557718663027785,0.05555627199272983,-0.0002733506329060109,-0.04384763402956671
901,0.0902,211.346,646.977,-0.00033945,369.791,-0.568096,-0.981169,-0.00772277,0.0541252,-0.0448865,0.110155,-0.000155984,-0.000273739,0.08346,-0.007693026029628958,0.11645110696977556,-0.00015597183512838786,0.055616757099996805,-0.0002737015368984297,-0.0438940062947798
902,0.0903,211.382,647.091,-0.000340175,369.855,-0.568279,-0.981485,-0.00773151,0.0541826,-0.0449351,0.110272,-0.000156184,-0.000274091,0.0835524,-0.0077016987546816296,0.11658173939113858,-0.00015617180391402918,0.05567735124088946,-0.00027405344049347136,-0.04394047191695005
903,0.0904,211.418,647.205,-0.000340901,369.918,-0.568463,-0.9818,-0.00774025,0.05424,-0.0449836,0.11039,-0.000156385,-0.000274443,0.0836447,-0.007710371403934935,0.11671350381033463,-0.00015637277250324377,0.05573794885998584,-0.00027440534396472316,-0.04398683967963479
904,0.0905,211.453,647.319,-0.000341628,369.982,-0.568646,-0.982116,-0.007749,0.0542974,-0.0450321,0.110507,-0.000156585,-0.000274794,0.0837371,-0.007719053900199224,0.11684416693392419,-0.000156572741208727,0.05579854995748512,-0.00027475624758688255,-0.044033205193537484
905,0.0906,211.489,647.432,-0.000342355,370.046,-0.568829,-0.982431,-0.00775774,0.0543548,-0.0450807,0.110625,-0.000156786,-0.000275146,0.0838294,-0.007727726397769308,0.11697596232139729,-0.00015677370971745042,0.05585915453358736,-0.00027510815081077666,-0.04407966405080577
906,0.0907,211.524,647.545,-0.000343082,370.109,-0.569011,-0.982745,-0.00776648,0.0544121,-0.0451292,0.110742,-0.000156986,-0.000275497,0.0839217,-0.007736398819542023,0.11710665615442895,-0.0001569736783426645,0.05591965699652124,-0.0002754590541862445,-0.044126025062835694
907,0.0908,211.56,647.659,-0.000343809,370.173,-0.569194,-0.98306,-0.00777522,0.0544695,-0.0451777,0.11086,-0.000157187,-0.000275849,0.0840141,-0.007745071165518147,0.11723848251745772,-0.00015717464677078574,0.055980268524367105,-0.0002758109571626699,-0.04417238382641098
908,0.0909,211.595,647.772,-0.000344537,370.236,-0.569376,-0.983374,-0.00778396,0.0545268,-0.0452262,0.110977,-0.000157387,-0.000276201,0.0841064,-0.007753743435698235,0.11736920706714926,-0.00015737461531584174,0.05604077792733131,-0.00027616286001530543,-0.04421874034164086
909,0.091,211.631,647.885,-0.000345266,370.299,-0.569559,-0.983688,-0.0077927,0.0545842,-0.0452747,0.111094,-0.000157587,-0.000276552,0.0841987,-0.007762415630083064,0.11749994691250798,-0.0001575745838209297,0.05610139640771816,-0.0002765137630205139,-0.04426509460863426
910,0.0911,211.666,647.998,-0.000345995,370.363,-0.569741,-0.984002,-0.00780143,0.0546415,-0.0453232,0.111212,-0.000157788,-0.000276904,0.084291,-0.007771077826384087,0.1176318196865842,-0.00015777555212825867,0.05616191275150895,-0.00027686566562579173,-0.044311446627500195
911,0.0912,211.702,648.111,-0.000346724,370.426,-0.569922,-0.984315,-0.00781017,0.0546989,-0.0453717,0.111329,-0.000157988,-0.000277256,0.0843832,-0.007779749869266994,0.11776259025941704,-0.00015797552055318853,0.05622253818523415,-0.0002772175681071687,-0.04435779639834769
912,0.0913,211.737,648.224,-0.000347454,370.489,-0.570104,-0.984628,-0.00781891,0.0547562,-0.0454202,0.111447,-0.000158189,-0.000277608,0.0844755,-0.00778842183635664,0.11789449402723684,-0.0001581764887799153,0.056283061470647766,-0.00027756947046464475,-0.04440414392128589
913,0.0914,211.772,648.336,-0.000348184,370.552,-0.570286,-0.98494,-0.00782765,0.0548135,-0.0454687,0.111564,-0.000158389,-0.000277959,0.0845678,-0.007797093727653581,0.11802529533476536,-0.00015837645712457604,0.05634358822414498,-0.00027792037297613703,-0.04445048919642369
914,0.0915,211.808,648.449,-0.000348914,370.615,-0.570467,-0.985253,-0.00783638,0.0548709,-0.0455172,0.111681,-0.00015859,-0.000278311,0.08466,-0.007805755621216104,0.11815611194694209,-0.00015857742527070062,0.0564042240863416,-0.0002782722750862554,-0.04449683222387013
915,0.0916,211.843,648.561,-0.000349645,370.678,-0.570648,-0.985565,-0.00784512,0.0549282,-0.0455657,0.111799,-0.00015879,-0.000278663,0.0847523,-0.00781442736101634,0.11828806215306087,-0.00015877739353520326,0.056464757782655584,-0.0002786241770724729,-0.04454317300373423
916,0.0917,211.878,648.673,-0.000350376,370.741,-0.570829,-0.985877,-0.00785385,0.0549855,-0.0456141,0.111916,-0.000158991,-0.000279015,0.0848445,-0.007823089103256908,0.11841890951075396,-0.00015897836160072565,0.056525294947649796,-0.0002789760789347895,-0.04458941599507149
917,0.0918,211.913,648.785,-0.000351108,370.804,-0.57101,-0.986188,-0.00786259,0.0550428,-0.0456626,0.112033,-0.000159191,-0.000279367,0.0849368,-0.007831760691563328,0.11854977217848339,-0.00015917832978507018,0.05658583558152297,-0.0002793279806733162,-0.0446357522847316
918,0.0919,211.948,648.898,-0.00035184,370.867,-0.571191,-0.9865,-0.00787132,0.0551001,-0.0457111,0.112151,-0.000159392,-0.000279719,0.085029,-0.007840422282484605,0.1186817688392503,-0.0001593792977701014,0.05664637968447361,-0.00027967988228794205,-0.04468208632713622
919,0.092,211.984,649.01,-0.000352573,370.929,-0.571371,-0.986811,-0.00788005,0.0551574,-0.0457596,0.112268,-0.000159592,-0.00028007,0.0851212,-0.00784908379779048,0.11881266226332055,-0.0001595792658741768,0.0567069272567009,-0.0002800307840586935,-0.04472841812239425
920,0.0921,212.019,649.121,-0.000353306,370.992,-0.571552,-0.987121,-0.00788879,0.0552147,-0.045808,0.112385,-0.000159793,-0.000280422,0.0852134,-0.00785775515890419,0.11894357100281727,-0.00015978023377860584,0.05676747829840356,-0.0002803826854259617,-0.044774652148084626
921,0.0922,212.054,649.233,-0.000354039,371.055,-0.571732,-0.987432,-0.00789752,0.055272,-0.0458565,0.112502,-0.000159994,-0.000280774,0.0853056,-0.00786641652289477,0.1190744950595326,-0.00015998120164251173,0.05682803280978033,-0.00028073458666932893,-0.0448209794540092
922,0.0923,212.089,649.345,-0.000354773,371.117,-0.571912,-0.987742,-0.00790625,0.0553293,-0.0459049,0.11262,-0.000160194,-0.000281126,0.0853978,-0.007875077811271947,0.11920655364125254,-0.00016018116962634998,0.056888590791029925,-0.0002810864877887953,-0.04486720899983965
923,0.0924,212.124,649.456,-0.000355507,371.18,-0.572092,-0.988052,-0.00791498,0.0553866,-0.0459534,0.112737,-0.000160395,-0.000281478,0.08549,-0.007883739024036385,0.1193375084687367,-0.00016038213740965368,0.056949152242351087,-0.0002814383887843608,-0.04491353181686575
924,0.0925,212.159,649.568,-0.000356242,371.242,-0.572272,-0.988361,-0.00792371,0.0554438,-0.0460018,0.112854,-0.000160595,-0.00028183,0.0855822,-0.00789240016118875,0.11946847861883181,-0.0001605821053132228,0.057009611462976784,-0.0002817902896561364,-0.04495975688327014
925,0.0926,212.193,649.679,-0.000356977,371.304,-0.572451,-0.988671,-0.00793244,0.0555011,-0.0460503,0.112971,-0.000160796,-0.000282182,0.0856744,-0.007901061222729822,0.11959946409333111,-0.00016078307301603534,0.05707017984898122,-0.0002821421904040111,-0.04500607521183275
926,0.0927,212.228,649.79,-0.000357712,371.367,-0.572631,-0.98898,-0.00794117,0.0555584,-0.0460987,0.113089,-0.000160997,-0.000282534,0.0857666,-0.007909722208660042,0.11973158462505218,-0.00016098404067843575,0.057130751705653626,-0.00028249409102809597,-0.0450522957992453
927,0.0928,212.263,649.901,-0.000358448,371.429,-0.57281,-0.989288,-0.0079499,0.0556156,-0.0461471,0.113206,-0.000161197,-0.000282886,0.0858587,-0.007918383118980188,0.1198626008847552,-0.0001611840084616567,0.05719122131406551,-0.0002828459915281689,-0.045098514149635505
928,0.0929,212.298,650.012,-0.000359184,371.491,-0.572989,-0.989597,-0.00795863,0.0556729,-0.0461955,0.113323,-0.000161398,-0.000283238,0.0859509,-0.007927043953691038,0.1199936324742572,-0.00016138497604345492,0.05725180010661268,-0.000283197891904452,-0.04514473026311172
929,0.093,212.333,650.123,-0.000359921,371.553,-0.573168,-0.989905,-0.00796735,0.0557301,-0.046244,0.11344,-0.000161599,-0.00028359,0.086043,-0.007935694792150061,0.1201246793953521,-0.00016158594358495204,0.05731227663919114,-0.0002835497921568342,-0.04519103962068294
930,0.0931,212.367,650.234,-0.000360658,371.615,-0.573346,-0.990213,-0.00797608,0.0557874,-0.0462924,0.113557,-0.000161799,-0.000283942,0.0861351,-0.00794435547573058,0.12025574164983355,-0.0001617859112477138,0.05737286236840711,-0.0002839016922854265,-0.045237251256034616
931,0.0932,212.402,650.345,-0.000361395,371.677,-0.573525,-0.99052,-0.0079848,0.0558446,-0.0463408,0.113675,-0.000162,-0.000284294,0.0862273,-0.007953006163233689,0.12038793962687566,-0.00016198687870860873,0.05743334582594506,-0.00028425359229011793,-0.04528346065479738
932,0.0933,212.437,650.455,-0.000362133,371.739,-0.573704,-0.990828,-0.00799353,0.0559018,-0.0463892,0.113792,-0.000162201,-0.000284646,0.0863194,-0.007961666695686653,0.12051903268460618,-0.00016218784612898052,0.057493832743235496,-0.00028460549217090847,-0.04532966781707937
933,0.0934,212.471,650.566,-0.000362871,371.801,-0.573882,-0.991135,-0.00800226,0.0559591,-0.0464376,0.113909,-0.000162401,-0.000284999,0.0864115,-0.00797032715253343,0.12065014108112204,-0.0001623878136713941,0.05755442887591444,-0.0002849583916428866,-0.04537587274298882
934,0.0935,212.506,650.676,-0.00036361,371.863,-0.57406,-0.991442,-0.00801098,0.0560163,-0.046486,0.114026,-0.000162602,-0.000285351,0.0865036,-0.007978977613564586,0.1207812648182176,-0.00016258878101127472,0.05761492271935342,-0.0002853102912755423,-0.04542207543263388
935,0.0936,212.541,650.786,-0.000364349,371.925,-0.574238,-0.991748,-0.0080197,0.0560735,-0.0465344,0.114143,-0.000162803,-0.000285703,0.0865957,-0.007987627999164082,0.12091240389768787,-0.00016278974831074322,0.05767542002313952,-0.00028566219078440813,-0.04546827588612301
936,0.0937,212.575,650.897,-0.000365088,371.986,-0.574416,-0.992054,-0.00802843,0.0561307,-0.0465828,0.11426,-0.000163003,-0.000286055,0.0866878,-0.007996288229369708,0.12104355832132807,-0.00016298971573280863,0.05773592078747014,-0.00028601409016937307,-0.04551447410356424
937,0.0938,212.61,651.007,-0.000365828,372.048,-0.574593,-0.99236,-0.00803715,0.0561879,-0.0466312,0.114377,-0.000163204,-0.000286407,0.0867799,-0.008004938464021283,0.12117472809093344,-0.00016319068295167494,0.05779642501254356,-0.00028636598943054814,-0.04556067008506581
938,0.0939,212.644,651.117,-0.000366569,372.11,-0.574771,-0.992666,-0.00804587,0.0562451,-0.0466796,0.114494,-0.000163405,-0.000286759,0.0868719,-0.008013588623243084,0.12130591320829986,-0.00016339165013012913,0.05785693269855763,-0.0002867178885677113,-0.04560686383073609
939,0.094,212.679,651.226,-0.000367309,372.171,-0.574948,-0.992971,-0.00805459,0.0563023,-0.046728,0.114611,-0.000163606,-0.000287112,0.086964,-0.00802223870703589,0.12143711367522281,-0.0001635926172681712,0.05791744384571018,-0.00028707078729406366,-0.04565305534068309
940,0.0941,212.713,651.336,-0.00036805,372.233,-0.575125,-0.993277,-0.00806332,0.0563595,-0.0467763,0.114729,-0.000163806,-0.000287464,0.0870561,-0.008030898635091321,0.12156945106238881,-0.00016379258452969836,0.05797795845419951,-0.000287422686183203,-0.045699149184934895
941,0.0942,212.747,651.446,-0.000368792,372.294,-0.575302,-0.993582,-0.00807204,0.0564167,-0.0468247,0.114846,-0.000164007,-0.000287816,0.0871481,-0.008039548567941424,0.12170068236504461,-0.00016399355158724926,0.05803847652422345,-0.00028777458494844144,-0.04574533622837884
942,0.0943,212.782,651.555,-0.000369534,372.355,-0.575479,-0.993886,-0.00808076,0.0564739,-0.0468731,0.114963,-0.000164208,-0.000288168,0.0872402,-0.008048198425364528,0.12183192902266105,-0.00016419451860427703,0.058098998055979845,-0.00028812648358989,-0.04579152103642403
943,0.0944,212.816,651.665,-0.000370276,372.417,-0.575656,-0.994191,-0.00808947,0.0565311,-0.0469214,0.11508,-0.000164409,-0.000288521,0.0873322,-0.00805683828792958,0.1219631910370349,-0.0001643954855810037,0.058159523049666983,-0.0002884793818189735,-0.045837608192944135
944,0.0945,212.85,651.774,-0.000371019,372.478,-0.575832,-0.994495,-0.00809819,0.0565882,-0.0469698,0.115197,-0.00016461,-0.000288873,0.0874242,-0.00806548799458695,0.12209446840996274,-0.00016459645251731825,0.05821994568348288,-0.0002888312802122872,-0.04588378853513431
945,0.0946,212.884,651.883,-0.000371762,372.539,-0.576009,-0.994798,-0.00810691,0.0566454,-0.0470181,0.115314,-0.00016481,-0.000289225,0.0875162,-0.008074137625819211,0.1222257611432418,-0.00016479641957800606,0.05828047759557209,-0.00028918317848170005,-0.04592987123524195
946,0.0947,212.919,651.992,-0.000372506,372.6,-0.576185,-0.995102,-0.00811563,0.0567026,-0.0470665,0.115431,-0.000165011,-0.000289578,0.0876082,-0.008082787181626916,0.12235706923866929,-0.00016499738643371842,0.05834101297018579,-0.0002895360763377486,-0.045976047112008867
947,0.0948,212.953,652.102,-0.00037325,372.661,-0.576361,-0.995405,-0.00812435,0.0567597,-0.0471148,0.115548,-0.000165212,-0.00028993,0.0877002,-0.008091436662010953,0.1224883926980429,-0.00016519835324901866,0.05840144596737207,-0.0002898879743591376,-0.04602212535613481
948,0.0949,212.987,652.21,-0.000373994,372.722,-0.576537,-0.995708,-0.00813306,0.0568169,-0.0471632,0.115665,-0.000165413,-0.000290282,0.0877922,-0.00810007614797259,0.12261973152316008,-0.0001653993200240178,0.05846198826157445,-0.00029023987225662573,-0.046068296767910355
949,0.095,213.021,652.319,-0.000374739,372.783,-0.576713,-0.996011,-0.00814178,0.056874,-0.0472115,0.115782,-0.000165614,-0.000290635,0.0878842,-0.008108725477597445,0.12275108571581872,-0.0001656002867584938,0.05852242816664721,-0.0002905927697396393,-0.046114370556485595
950,0.0951,213.055,652.428,-0.000375484,372.844,-0.576888,-0.996314,-0.00815049,0.0569312,-0.0472599,0.115899,-0.000165814,-0.000290987,0.0879762,-0.008117364812974204,0.12288245527781694,-0.0001658002536184533,0.058582977381229195,-0.00029094466738910363,-0.046160537503701526
951,0.0952,213.089,652.537,-0.00037623,372.905,-0.577064,-0.996616,-0.00815921,0.0569883,-0.0473082,0.116016,-0.000166015,-0.00029134,0.0880682,-0.00812601399184254,0.12301384021095307,-0.00016600122027243813,0.05864342419497781,-0.00029129756462331624,-0.046206606837156716
952,0.0953,213.123,652.645,-0.000376976,372.966,-0.577239,-0.996918,-0.00816792,0.0570454,-0.0473565,0.116133,-0.000166216,-0.000291692,0.0881601,-0.008134653176636975,0.12314524051702569,-0.00016620218688601085,0.05870387446033809,-0.0002916494620246457,-0.0462526739455168
953,0.0954,213.157,652.753,-0.000377722,373.026,-0.577414,-0.99722,-0.00817664,0.0571026,-0.0474048,0.116249,-0.000166417,-0.000292044,0.0882521,-0.008143302204751457,0.1232755329217392,-0.00016640315345917145,0.05876443405394505,-0.00029200135930207427,-0.04629873882888935
954,0.0955,213.191,652.862,-0.000378469,373.087,-0.577589,-0.997521,-0.00818535,0.0571597,-0.0474531,0.116366,-0.000166618,-0.000292397,0.088344,-0.008151941238966232,0.12340696384765026,-0.00016660411999191993,0.058824891229165566,-0.00029235425616336297,-0.04634480148738185
955,0.0956,213.225,652.97,-0.000379216,373.147,-0.577764,-0.997822,-0.00819406,0.0572168,-0.0475015,0.116483,-0.000166819,-0.000292749,0.088436,-0.008160580197935308,0.12353841015187927,-0.0001668050864842563,0.05888535185658905,-0.0002927061531927677,-0.04639095728201059
956,0.0957,213.259,653.078,-0.000379964,373.208,-0.577939,-0.998123,-0.00820277,0.0572739,-0.0475498,0.1166,-0.00016702,-0.000293102,0.0885279,-0.008169219081659351,0.12366987183622569,-0.00016700605293629156,0.058945815936413126,-0.0002930590498051444,-0.04643701548645929
957,0.0958,213.293,653.186,-0.000380712,373.268,-0.578113,-0.998424,-0.00821148,0.057331,-0.0475981,0.116717,-0.000167221,-0.000293454,0.0886198,-0.00817785789013914,0.12380134890248873,-0.0001672070193479147,0.05900628346883474,-0.0002934109465864143,-0.046483071466350445
958,0.0959,213.326,653.294,-0.00038146,373.329,-0.578288,-0.998724,-0.00822019,0.0573881,-0.0476464,0.116834,-0.000167422,-0.000293807,0.0887118,-0.008186496623375117,0.12393284135246874,-0.00016740798571901472,0.059066754454051074,-0.00029376384295010105,-0.04652912522179142
959,0.096,213.36,653.402,-0.000382209,373.389,-0.578462,-0.999024,-0.0082289,0.0574452,-0.0476947,0.116951,-0.000167623,-0.000294159,0.0888037,-0.008195135281368171,0.12406434918796538,-0.00016760895204981363,0.059127228892259076,-0.0002941157394832361,-0.0465751767528898
960,0.0961,213.394,653.51,-0.000382958,373.45,-0.578636,-0.999324,-0.00823761,0.0575023,-0.0477429,0.117068,-0.000167824,-0.000294512,0.0888956,-0.008203773864118746,0.12419587241077878,-0.00016780991834031145,0.05918770678365637,-0.00029446863559812186,-0.046621130721870685
961,0.0962,213.428,653.617,-0.000383708,373.51,-0.57881,-0.999624,-0.00824632,0.0575594,-0.0477912,0.117184,-0.000168025,-0.000294865,0.0889875,-0.00821241237162762,0.12432628669586077,-0.00016801088459028612,0.05924818812843968,-0.0002948215315884406,-0.046667177809210814
962,0.0963,213.461,653.725,-0.000384458,373.57,-0.578984,-0.999923,-0.00825503,0.0576165,-0.0478395,0.117301,-0.000168225,-0.000295217,0.0890793,-0.008221050803895458,0.1244578405671557,-0.00016821085096807575,0.059308672926806194,-0.0002951734277493179,-0.0467132226725302
963,0.0964,213.495,653.832,-0.000385208,373.63,-0.579158,-1.00022,-0.00826374,0.0576735,-0.0478878,0.117418,-0.000168426,-0.00029557,0.0891712,-0.008229689160922926,0.12458940983115374,-0.00016841181713755926,0.05936905524204272,-0.00029552632349083563,-0.046759265311936415
964,0.0965,213.529,653.939,-0.000385959,373.69,-0.579331,-1.00052,-0.00827245,0.0577306,-0.0479361,0.117535,-0.000168627,-0.000295922,0.0892631,-0.008238327442710469,0.12472099448965657,-0.00016861278326651963,0.05942954694211866,-0.00029587821940357806,-0.04680530572753683
965,0.0966,213.562,654.047,-0.000386711,373.75,-0.579505,-1.00082,-0.00828115,0.0577877,-0.0479843,0.117652,-0.000168828,-0.000296275,0.089355,-0.008246955731728622,0.12485259454446496,-0.0001688137493551789,0.05949004209636932,-0.00029623111489629483,-0.046851248604568574
966,0.0967,213.596,654.154,-0.000387462,373.81,-0.579678,-1.00112,-0.00828986,0.0578447,-0.0480326,0.117769,-0.000169029,-0.000296628,0.0894468,-0.008255593863125132,0.12498420999738036,-0.00016901471540342605,0.05955043474994315,-0.0002965840102644446,-0.04689728457748321
967,0.0968,213.629,654.261,-0.000388214,373.87,-0.579851,-1.00142,-0.00829856,0.0579018,-0.0480809,0.117885,-0.00016923,-0.00029698,0.0895387,-0.008264222001926003,0.1251147157349266,-0.0001692156814112611,0.059610936807084514,-0.00029693590580492923,-0.04694331832691412
968,0.0969,213.663,654.368,-0.000388967,373.93,-0.580024,-1.00171,-0.00830727,0.0579588,-0.0481291,0.118002,-0.000169431,-0.000297333,0.0896305,-0.008272859982933922,0.12524636185781546,-0.000169416647378684,0.05967133635185329,-0.000297288800924278,-0.04698925455189884
969,0.097,213.696,654.474,-0.00038972,373.99,-0.580197,-1.00201,-0.00831597,0.0580159,-0.0481774,0.118119,-0.000169632,-0.000297686,0.0897223,-0.008281487971520285,0.1253780233842019,-0.00016961761330580583,0.05973184531267339,-0.00029764169591905976,-0.04703528385928735
970,0.0971,213.73,654.581,-0.000390473,374.049,-0.580369,-1.00231,-0.00832468,0.0580729,-0.0482256,0.118236,-0.000169833,-0.000298038,0.0898141,-0.008290125802142279,0.12550970031588826,-0.0001698185791924045,0.05979225174942315,-0.0002979935910872866,-0.04708121565164025
971,0.0972,213.763,654.688,-0.000391227,374.109,-0.580542,-1.00261,-0.00833338,0.0581299,-0.0482739,0.118352,-0.000170035,-0.000298391,0.089906,-0.008298753640516576,0.125640267013847,-0.00017002054486869866,0.05985266162943814,-0.00029834648583315637,-0.04712724051741479
972,0.0973,213.796,654.794,-0.000391981,374.169,-0.580714,-1.0029,-0.00834208,0.058187,-0.0483221,0.118469,-0.000170236,-0.000298744,0.0899978,-0.00830738140382914,0.12577197462983292,-0.0001702215106743621,0.05991318094422726,-0.0002986993804545701,-0.04717316787756354
973,0.0974,213.83,654.901,-0.000392735,374.228,-0.580886,-1.0032,-0.00835078,0.058244,-0.0483703,0.118586,-0.000170437,-0.000299097,0.0900896,-0.008316009092080412,0.12590369765651133,-0.0001704224764396134,0.05997359771740274,-0.00029905227495141684,-0.047219093024066905
974,0.0975,213.863,655.007,-0.00039349,374.288,-0.581059,-1.0035,-0.00835949,0.058301,-0.0484186,0.118702,-0.000170638,-0.000299449,0.0901814,-0.0083246466220247,0.12603431006081256,-0.0001706234421645636,0.060034017934432526,-0.00029940416962315197,-0.047265111230525236
975,0.0976,213.896,655.113,-0.000394246,374.347,-0.58123,-1.00379,-0.00836819,0.058358,-0.0484668,0.118819,-0.000170839,-0.000299802,0.0902731,-0.008333274160069237,0.12616606378253192,-0.00017082440784899067,0.06009444159551269,-0.0002997570638711977,-0.04731103194546582
976,0.0977,213.929,655.22,-0.000395001,374.407,-0.581402,-1.00409,-0.00837689,0.058415,-0.048515,0.118936,-0.00017104,-0.000300155,0.0903649,-0.008341901623054593,0.1262978329203388,-0.00017102537349311664,0.06015486870083975,-0.00030010995799467644,-0.047356950447081325
977,0.0978,213.963,655.326,-0.000395758,374.466,-0.581574,-1.00438,-0.00838559,0.058472,-0.0485632,0.119052,-0.000171241,-0.000300508,0.0904567,-0.008350529010981211,0.1264284910469824,-0.0001712263390968305,0.06021529925060998,-0.0003004628519934771,-0.04740286673547833
978,0.0979,213.996,655.432,-0.000396514,374.525,-0.581745,-1.00468,-0.00839429,0.058529,-0.0486114,0.119169,-0.000171442,-0.000300861,0.0905484,-0.008359156323849981,0.1265602908905754,-0.00017142730466013223,0.06027573324501967,-0.0003008157458678218,-0.047448780810763536
979,0.098,214.029,655.537,-0.000397271,374.585,-0.581917,-1.00497,-0.00840298,0.058586,-0.0486596,0.119286,-0.000171643,-0.000301214,0.0906402,-0.00836777364533925,0.1266921061556523,-0.00017162827018302185,0.06033617068426533,-0.00030116863961759943,-0.047494692673043626
980,0.0981,214.062,655.643,-0.000398028,374.644,-0.582088,-1.00527,-0.00841168,0.058643,-0.0487079,0.119402,-0.000171844,-0.000301566,0.0907319,-0.008376400808180251,0.12682281002064388,-0.00017182923566561037,0.06039661156854326,-0.0003015205335442639,-0.047540697568360435
981,0.0982,214.095,655.749,-0.000398786,374.703,-0.582259,-1.00556,-0.00842038,0.0587,-0.0487561,0.119519,-0.000172045,-0.000301919,0.0908237,-0.008385027895965402,0.12695465600225586,-0.00017203020110767575,0.06045705589804973,-0.00030187342704524056,-0.047586605000359605
982,0.0983,214.128,655.854,-0.000399544,374.762,-0.58243,-1.00586,-0.00842908,0.058757,-0.0488042,0.119636,-0.000172247,-0.000302272,0.0909154,-0.008393654908695147,0.12708651741075006,-0.00017223216633721616,0.06051750367298103,-0.0003022263204216502,-0.047632414982920146
983,0.0984,214.161,655.96,-0.000400303,374.821,-0.582601,-1.00615,-0.00843777,0.0588139,-0.0488524,0.119752,-0.000172448,-0.000302625,0.0910071,-0.00840227193039289,0.12721726703010106,-0.0001724331316983463,0.060577848835743575,-0.00030257921367349283,-0.04767831799424649
984,0.0985,214.194,656.065,-0.000401062,374.88,-0.582771,-1.00645,-0.00844647,0.0588709,-0.0489006,0.119869,-0.000172649,-0.000302978,0.0910988,-0.008410898793100197,0.12734915916588307,-0.0001726340970190643,0.06063830349606869,-0.00030293210680076843,-0.04772421879310107
985,0.0986,214.227,656.17,-0.000401821,374.939,-0.582942,-1.00674,-0.00845516,0.0589279,-0.0489488,0.119985,-0.00017285,-0.000303331,0.0911905,-0.008419515664949362,0.1274799392534447,-0.00017283506229937018,0.060698761602407725,-0.000303284999803477,-0.04777011737959047
986,0.0987,214.26,656.276,-0.000402581,374.998,-0.583112,-1.00703,-0.00846386,0.0589848,-0.048997,0.120102,-0.000173051,-0.000303684,0.0912822,-0.008428142377636783,0.1276118621236748,-0.00017303602753937497,0.060759117079039804,-0.00030363789268150754,-0.047816013753821274
987,0.0988,214.293,656.381,-0.000403341,375.057,-0.583283,-1.00733,-0.00847255,0.0590418,-0.0490452,0.120219,-0.000173252,-0.000304037,0.0913739,-0.008436759099639812,0.12774380042978373,-0.00017323699273896764,0.06081958207194926,-0.00030399078543508207,-0.04786190791590006
988,0.0989,214.326,656.486,-0.000404102,375.116,-0.583453,-1.00762,-0.00848124,0.0590987,-0.0490933,0.120335,-0.000173454,-0.00030439,0.0914656,-0.00844537574676385,0.1278746262983872,-0.00017343895772470308,0.060879944423461785,-0.0003043436780640896,-0.047907704656708905
989,0.099,214.359,656.591,-0.000404863,375.174,-0.583623,-1.00791,-0.00848994,0.0591557,-0.0491415,0.120452,-0.000173655,-0.000304743,0.0915573,-0.008454002234469571,0.12800659534970316,-0.00017363992284324947,0.06094041630372615,-0.00030469657056841903,-0.04795359439939273
990,0.0991,214.391,656.695,-0.000405624,375.233,-0.583793,-1.00821,-0.00849863,0.0592126,-0.0491897,0.120568,-0.000173856,-0.000305096,0.091649,-0.00846261873175147,0.12813745170428548,-0.00017384088792138375,0.061000785530902046,-0.0003050494629482925,-0.04799948193024439
991,0.0992,214.424,656.8,-0.000406386,375.291,-0.583962,-1.0085,-0.00850732,0.0592695,-0.0492378,0.120685,-0.000174057,-0.000305449,0.0917406,-0.008471235154156265,0.12826945150797275,-0.00017404185295921693,0.061061158193184806,-0.0003054023552034879,-0.04804527205390219
992,0.0993,214.457,656.905,-0.000407148,375.35,-0.584132,-1.00879,-0.00851601,0.0593265,-0.049286,0.120801,-0.000174258,-0.000305802,0.0918323,-0.008479851501684732,0.12840033835563824,-0.00017424281795663799,0.061121640402928445,-0.0003057552473342273,-0.04809115516599727
993,0.0994,214.49,657.009,-0.000407911,375.409,-0.584301,-1.00908,-0.0085247,0.0593834,-0.0493341,0.120918,-0.00017446,-0.000306155,0.0919239,-0.008488467774337427,0.1285323689188631,-0.0001744447827392026,0.06118201994204897,-0.0003061081393402887,-0.048136940880278534
994,0.0995,214.522,657.114,-0.000408674,375.467,-0.58447,-1.00937,-0.00853339,0.0594403,-0.0493823,0.121034,-0.000174661,-0.000306508,0.0920155,-0.008497083972115016,0.12866328626671697,-0.0001746457476555774,0.061242402916863004,-0.00030646103122189405,-0.04818281957404269
995,0.0996,214.555,657.218,-0.000409437,375.525,-0.58464,-1.00966,-0.00854208,0.0594972,-0.0494304,0.121151,-0.000174862,-0.000306861,0.0921072,-0.008505700095018165,0.12879534759664746,-0.00017484671253154005,0.06130278932756594,-0.0003068139229788214,-0.048228600879371974
996,0.0997,214.588,657.322,-0.000410201,375.584,-0.584809,-1.00996,-0.00855077,0.0595541,-0.0494786,0.121267,-0.000175063,-0.000307214,0.0921988,-0.00851431614304754,0.12892629545179735,-0.00017504767736720162,0.06136317917435363,-0.00030716681461118167,-0.048274475155230645
997,0.0998,214.62,657.426,-0.000410966,375.642,-0.584977,-1.01025,-0.00855946,0.059611,-0.0495267,0.121384,-0.000175265,-0.000307567,0.0922904,-0.008522932116203807,0.12905838755560262,-0.00017524964198711857,0.06142357245742125,-0.00030751970611908597,-0.0483202520520325
998,0.0999,214.653,657.531,-0.00041173,375.7,-0.585146,-1.01054,-0.00856814,0.0596679,-0.0495748,0.1215,-0.000175466,-0.00030792,0.092382,-0.008531538099803004,0.12918936592515773,-0.00017545060674173385,0.061483969176964415,-0.0003078725975023122,-0.04836602674701862
999,0.1,214.685,657.634,-0.000412495,375.758,-0.585315,-1.01083,-0.00857683,0.0597248,-0.0496229,0.121616,-0.000175667,-0.000308273,0.0924736,-0.008540153923301097,0.12932035948908482,-0.00017565157145604804,0.06154436933317875,-0.00030822548876097144,-0.04841179924029482
