,Time,S11,S22,S33,S12,S13,S23,LE11,LE22,LE33,LE12,LE13,LE23,SDV_EPBAR,E11,E12,E13,E22,E23,E33
0,1e-05,0.519362,1.55809,-3.33067e-16,0.899562,-1.04232e-17,1.57865e-17,2.50015e-07,6.74997e-06,-3.00001e-06,1.12583e-05,-3.13839e-22,3.03453e-22,0.0,2.500150313444749e-07,1.1258363374899716e-05,0.0,6.749992781163172e-06,0.0,-3.0000055000201087e-06
1,2e-05,1.03872,3.11616,3.33067e-16,1.79912,1.38231e-17,4.08622e-17,5.00016e-07,1.34999e-05,-5.99997e-06,2.25164e-05,9.45311e-22,-5.67534e-23,0.0,5.000161249490986e-07,2.2516653495952e-05,0.0,1.3499991124099608e-05,0.0,-5.999952000235176e-06
2,3.5e-05,1.81775,5.45324,-3.33067e-16,3.14843,-4.93229e-17,-8.29866e-19,8.74997e-07,2.36246e-05,-1.04998e-05,3.94035e-05,-7.33558e-22,4.23537e-22,0.0,8.749973827715252e-07,3.940427632809218e-05,0.0,2.3624879063044446e-05,0.0,-1.0499744877323636e-05
3,5.75e-05,2.98626,8.95879,-4.55191e-15,5.17236,-2.16769e-17,8.08943e-17,1.43746e-06,3.88114e-05,-1.72495e-05,6.47335e-05,1.27054e-21,2.20065e-21,0.0,1.4374610330936122e-06,6.473559525832506e-05,0.0,3.8812153172029795e-05,0.0,-1.7249351228265652e-05
4,9.125e-05,4.73899,14.217,-2.80886e-14,8.20817,-5.55167e-17,2.22821e-17,2.2812e-06,6.1591e-05,-2.73738e-05,0.000102728,8.47063e-22,1.46716e-21,0.0,2.2812026019281006e-06,0.00010273327670162757,0.0,6.159289676466173e-05,0.0,-2.737342534098186e-05
5,0.00014188,7.36797,22.1039,-1.5421e-13,12.7617,5.38527e-17,7.63556e-17,3.54667e-06,9.57588e-05,-4.25595e-05,0.000159716,2.93423e-21,-1.69433e-21,0.0,3.546676289545303e-06,0.00015972875527947572,0.0,9.576338502026438e-05,0.0,-4.255859435731146e-05
6,0.00021781,11.3112,33.9336,-7.98139e-13,19.5916,-1.40111e-16,-1.24239e-16,5.44479e-06,0.000147007,-6.53367e-05,0.000245194,2.48076e-21,-9.25661e-21,0.0,5.444804822785088e-06,0.00024522406250571116,0.0,0.00014701780605852477,0.0,-6.533456560431361e-05
7,0.00033172,17.2255,51.6764,-4.03999e-12,29.8354,2.97362e-16,9.20467e-17,8.29165e-06,0.000223873,-9.94992e-05,0.000373398,-5.86963e-21,3.38741e-21,0.0,8.29168437577188e-06,0.00037346772171087395,0.0,0.00022389806143019442,0.0,-9.949425011879232e-05
8,0.00050258,26.0956,78.2868,-2.045e-11,45.1989,2.29672e-16,-2.51963e-17,1.25613e-05,0.000339155,-0.000150736,0.000565677,-3.38902e-21,-5.86996e-21,0.0,1.256137889349418e-05,0.0005658370254069123,0.0,0.0003392125195595952,0.0,-0.00015072463989995732
9,0.00075887,39.398,118.194,-1.03431e-10,68.2393,2.29656e-16,-2.52231e-17,1.89646e-05,0.000512041,-0.000227574,0.000854034,-1.5129e-20,9.0706e-22,0.0,1.896477982921141e-05,0.00085439879087712,0.0,0.0005121721153706904,0.0,-0.0002275481070015406
10,0.0011433,59.3451,178.035,-5.23077e-10,102.789,-4.09514e-17,-4.93929e-16,2.85663e-05,0.000771287,-0.000342794,0.00128643,-6.05165e-20,3.63988e-21,0.0,2.8566708020649756e-05,0.0012872578060059148,0.0,0.0007715845183038361,0.0,-0.00034273525284966855
11,0.00172,89.2515,267.755,-2.64424e-09,154.588,5.0025e-16,4.43459e-16,4.2962e-05,0.00115997,-0.000515542,0.00193471,-8.87009e-24,-1.53634e-23,0.0,4.2962922879974386e-05,0.001936582758945704,0.0,0.0011606430254049727,0.0,-0.0005154091310572984
12,0.0025849,121.017,364.068,-0.0457894,209.969,-0.00529665,-0.0436171,3.59035e-05,0.00173148,-0.000832345,0.00294219,-3.11462e-07,-3.77707e-07,0.000251109,3.5904144538356775e-05,0.002946522488957992,-3.1146195145215216e-07,0.0017329798770393534,-3.777069286226009e-07,-0.0008319986969883564
13,0.0035849,126.293,383.388,-0.502374,220.54,0.0280182,-0.357681,-2.27569e-05,0.00236587,-0.00135186,0.00417956,-7.29294e-06,1.39715e-06,0.00114449,-2.275664106377029e-05,0.004188306542217468,-7.292913406620194e-06,0.0023686708788313027,1.3971509760235534e-06,-0.001350946648890794
14,0.0043349,130.383,395.714,-0.176833,227.27,-0.124016,-0.356012,-7.33177e-05,0.0028392,-0.00173869,0.00511414,-1.18184e-05,2.03182e-06,0.00182869,-7.331501232310522e-05,0.005127239535402284,-1.1818330162949309e-05,0.0028432343455211395,2.031822064152422e-06,-0.0017371793541837155
15,0.0050849,133.413,406.203,-0.373373,233.087,-0.0527203,-0.476531,-0.00012788,0.00331264,-0.00212908,0.00604956,-1.27246e-05,1.23105e-07,0.00252291,-0.000127871823701331,0.006067895543439672,-1.2724519042661697e-05,0.0033181328554943157,1.231050075212181e-07,-0.002126815116834435
16,0.0060849,137.667,418.698,0.0434096,240.067,-0.0419016,-0.54163,-0.000195151,0.00394159,-0.00265389,0.00729559,-1.56978e-05,-7.5678e-07,0.00345805,-0.00019513195928222427,0.007322267653669945,-1.5697676790216164e-05,0.003949368282106125,-7.567797136731613e-07,-0.002650371547151087
17,0.0070849,141.109,429.844,0.270831,246.014,-0.103717,-0.518864,-0.000266778,0.0045717,-0.00318092,0.00853986,-1.92273e-05,-1.08267e-06,0.00440225,-0.0002667424179135791,0.008576428627272259,-1.9227115156672525e-05,0.004582166163753731,-1.0826694138987847e-06,-0.003175866233938729
18,0.0080849,143.308,439.31,-0.263487,251.188,-0.0624082,-0.654815,-0.000343264,0.00520246,-0.00371141,0.00978353,-2.07725e-05,-4.56136e-06,0.00535436,-0.00034320509165375324,0.009831545187894086,-2.0772284253123274e-05,0.0052160162935219745,-4.561349597032027e-06,-0.0037045312305152844
19,0.0090849,145.883,448.084,-0.289214,255.979,-0.0669641,-0.688282,-0.000419197,0.00583158,-0.00424086,0.0110274,-2.2583e-05,-7.21899e-06,0.00631061,-0.00041910914921361453,0.011088425888049924,-2.2582745005994553e-05,0.0058486167636315756,-7.218963943178558e-06,-0.004231880251666875
20,0.010085,148.865,456.295,0.147361,260.488,-0.136632,-0.640553,-0.000493896,0.00645857,-0.00476913,0.0122721,-2.53435e-05,-8.80006e-06,0.00726993,-0.0004937740534477486,0.012347711205388245,-2.5343178856163107e-05,0.006479471537006676,-8.800021279564696e-06,-0.0047577757566470424
21,0.011085,151.27,463.756,0.303269,264.564,-0.158973,-0.638104,-0.000570859,0.00708556,-0.00529845,0.0135157,-2.74501e-05,-1.10712e-05,0.00823281,-0.0005706960910019099,0.013607449962249163,-2.7449723249417524e-05,0.007110721974041834,-1.1071138714457973e-05,-0.005284437972064904
22,0.012085,152.408,470.345,-0.327385,268.109,-0.082646,-0.751649,-0.000653066,0.0077146,-0.00583039,0.0147566,-2.77797e-05,-1.54763e-05,0.00919953,-0.0006528527988137744,0.014866016162807805,-2.7779314147657885e-05,0.007744434196864658,-1.547618024266839e-05,-0.005813426260641408
23,0.013085,155.208,476.993,0.303888,271.797,-0.172918,-0.655524,-0.000729258,0.00833911,-0.00635821,0.0159996,-3.05488e-05,-1.68295e-05,0.0101659,-0.0007289921560116319,0.016128278954701925,-3.0548333390112425e-05,0.008373977230964114,-1.6829358384762294e-05,-0.006338039355171188
24,0.014085,156.151,482.746,-0.284608,274.883,-0.096547,-0.755925,-0.000812658,0.00896689,-0.00688985,0.0172389,-3.07512e-05,-2.12003e-05,0.0111361,-0.0008123278829176295,0.0173883473709302,-3.075072718672356e-05,0.009007212991966274,-2.120007527517398e-05,-0.006866169399960653
25,0.015085,158.618,488.616,0.270156,278.139,-0.17733,-0.662652,-0.000890533,0.00959052,-0.0074176,0.0184799,-3.32549e-05,-2.271e-05,0.0121054,-0.000890136593167834,0.018651710064428784,-3.325434706191732e-05,0.009636656409703903,-2.2709742129922716e-05,-0.007390157499538308
26,0.016085,160.302,493.976,0.333491,281.074,-0.193951,-0.65521,-0.000971255,0.0102148,-0.00794668,0.0197191,-3.49779e-05,-2.5284e-05,0.0130766,-0.0009707834845287255,0.019914805715970374,-3.497728828039115e-05,0.010267149163098788,-2.5283680362364613e-05,-0.007915188611030688
27,0.017085,160.945,498.855,-0.219516,283.634,-0.0970428,-0.735479,-0.00105655,0.0108412,-0.00847742,0.0209552,-3.47402e-05,-2.93679e-05,0.0140496,-0.0010559920475675666,0.021176301914416662,-3.473959656619119e-05,0.01090017874950222,-2.936746876747165e-05,-0.008441588000864697
28,0.018085,162.212,503.562,-0.378471,286.239,-0.0913748,-0.754006,-0.00113956,0.0114654,-0.00900671,0.0221915,-3.5571e-05,-3.27752e-05,0.0150226,-0.00113891094807117,0.02243956290035065,-3.557036735946095e-05,0.011531379618374471,-3.277466289897113e-05,-0.008966271085747657
29,0.019085,164.639,508.506,0.399886,288.976,-0.183484,-0.607229,-0.0012184,0.0120864,-0.00953252,0.0234287,-3.80382e-05,-3.34095e-05,0.0159942,-0.001217658052080406,0.02370530795600989,-3.803747655684031e-05,0.012159735689484252,-3.340894190884125e-05,-0.00948722955615866
30,0.020085,165.028,512.594,-0.27368,291.178,-0.104675,-0.718549,-0.00130472,0.0127108,-0.0100627,0.024662,-3.79508e-05,-3.78153e-05,0.0169688,-0.0013038692229097038,0.024968622575143762,-3.795007987750232e-05,0.012791925577592123,-3.781458501050938e-05,-0.010012240429362218
31,0.021085,166.131,516.721,-0.404752,293.453,-0.0924755,-0.724025,-0.00138875,0.0133334,-0.0105908,0.0258951,-3.86065e-05,-4.09178e-05,0.0179426,-0.0013877861329605334,0.026233290954682742,-3.8605754778653356e-05,0.013422686165852626,-4.091696287822355e-05,-0.010534914940839357
32,0.022085,168.414,521.137,0.400144,295.891,-0.180525,-0.566901,-0.0014685,0.0139527,-0.0111154,0.027129,-4.09119e-05,-4.12428e-05,0.0189148,-0.0014674222814827775,0.027500341758627256,-4.091106311965298e-05,0.014050493215782778,-4.1241949527370814e-05,-0.011053852195318292
33,0.023085,169.624,524.997,0.400235,298.034,-0.200379,-0.569435,-0.00155174,0.014573,-0.0116422,0.0283611,-4.24364e-05,-4.35813e-05,0.0198884,-0.0015505366739830828,0.0287671051590479,-4.243549958871107e-05,0.014679703866232519,-4.358035034890406e-05,-0.011574691824778216
34,0.024085,169.805,528.554,-0.190885,299.858,-0.0862084,-0.65006,-0.0016396,0.0151956,-0.0121704,0.0295895,-4.17196e-05,-4.72702e-05,0.0208631,-0.0016382565902385293,0.030031619176525748,-4.171872974956248e-05,0.015311640151212114,-4.7269082781742355e-05,-0.012096640213851706
35,0.025085,170.71,532.045,-0.363683,301.81,-0.0803949,-0.667098,-0.00172466,0.0158159,-0.012697,0.0308184,-4.23124e-05,-5.02344e-05,0.0218369,-0.0017231736285601151,0.031298203126440605,-4.231150484301782e-05,0.01594163333378318,-5.023313827368092e-05,-0.01261673317062073
36,0.026085,172.809,535.869,0.396777,303.952,-0.171596,-0.516381,-0.00180534,0.0164329,-0.01322,0.032048,-4.45267e-05,-5.0403e-05,0.0228087,-0.0018037113539762784,0.03256706733485215,-4.4525708701170785e-05,0.016568662740229945,-5.040172979009494e-05,-0.013132999603732487
37,0.027085,173.833,539.2,0.364472,305.812,-0.188226,-0.522856,-0.00188956,0.017051,-0.0137452,0.0332756,-4.58707e-05,-5.25687e-05,0.0237818,-0.0018877759053980148,0.033835425025378285,-4.586964795549875e-05,0.017197198059499375,-5.2567318290064335e-05,-0.013651166069915899
38,0.028085,173.98,542.326,-0.142006,307.4,-0.0793291,-0.587439,-0.00197784,0.0176712,-0.0142713,0.0344998,-4.51252e-05,-5.57501e-05,0.0247554,-0.0019758853633323747,0.03510182135572926,-4.512418187352374e-05,0.01782825943363986,-5.574854599210699e-05,-0.014169947713969289
39,0.029085,174.772,545.379,-0.304967,309.118,-0.0752674,-0.603563,-0.00206352,0.0182891,-0.014796,0.0357242,-4.566e-05,-5.83897e-05,0.0257281,-0.002061392406300433,0.0363699762317824,-4.565895759811589e-05,0.018457369858793538,-5.838799535462513e-05,-0.014687077061655174
40,0.030085,176.608,548.743,0.350221,311.006,-0.152762,-0.469695,-0.00214539,0.0189042,-0.0153175,0.0369492,-4.75552e-05,-5.85481e-05,0.0266989,-0.0021430902957554343,0.03764030737163182,-4.755406926937322e-05,0.019084015692162337,-5.854638609348317e-05,-0.015200783790295547
41,0.031085,177.487,551.675,0.293141,312.651,-0.165405,-0.47909,-0.00223038,0.0195202,-0.0158409,0.0381722,-4.86863e-05,-6.05403e-05,0.0276706,-0.00222789455070338,0.038910117798349075,-4.868511484135141e-05,0.019711964834307816,-6.053846747300362e-05,-0.015716092831919548
42,0.032085,177.722,554.492,-0.0785624,314.086,-0.0745929,-0.520584,-0.0023185,0.0201377,-0.0163648,0.0393923,-4.81017e-05,-6.31131e-05,0.0286424,-0.0023158143548320798,0.0401784656313271,-4.8100543131757156e-05,0.020341831423888124,-6.311110841017431e-05,-0.016231624115673582
43,0.033085,179.323,557.438,0.366082,315.826,-0.165977,-0.434907,-0.00240088,0.0207509,-0.0168856,0.0406142,-5.01959e-05,-6.37124e-05,0.0296123,-0.0023980001927643713,0.041450236528677964,-5.0194640206835395e-05,0.020967696905662914,-6.371037040819871e-05,-0.01674383729394513
44,0.034085,180.014,560.145,0.2592,317.31,-0.15768,-0.451935,-0.00248675,0.0213656,-0.0174077,0.0418335,-5.09968e-05,-6.56694e-05,0.0305827,-0.002483660598605608,0.04272085127493974,-5.099549968534678e-05,0.021595478677910895,-6.566724381218414e-05,-0.017257061347696445
45,0.035085,180.284,562.794,-0.0248698,318.644,-0.0711701,-0.476816,-0.00257486,0.0219812,-0.0179298,0.0430503,-5.04255e-05,-6.78281e-05,0.0315529,-0.0025715478913387324,0.04399040624737416,-5.042422865586538e-05,0.02222456646793991,-6.782579972641756e-05,-0.017770017517106718
46,0.036085,181.637,565.473,0.286161,320.23,-0.144496,-0.414334,-0.00265825,0.0225931,-0.0184497,0.0442686,-5.21696e-05,-6.86188e-05,0.0325215,-0.0026547199820515788,0.04526307484796965,-5.216823919007574e-05,0.022850257090685,-6.861644578404213e-05,-0.018280546161578926
47,0.037085,181.456,567.867,-0.285437,321.406,-0.0211012,-0.49415,-0.0027482,0.0232086,-0.0189717,0.0454824,-5.09034e-05,-7.15307e-05,0.0334912,-0.0027444271553486166,0.04653258547835648,-5.0902104443917295e-05,0.023480015212104854,-7.15281417404956e-05,-0.018792869988330407
48,0.038085,182.193,570.283,-0.355047,322.791,-0.0291584,-0.493218,-0.0028344,0.0238211,-0.0194918,0.0466969,-5.13115e-05,-7.34208e-05,0.0344593,-0.002830386880810387,0.047804371439119864,-5.1310183587505165e-05,0.024107088743086758,-7.341810475902655e-05,-0.019303063129422426
49,0.039085,183.905,573.0,0.318235,324.355,-0.118186,-0.35663,-0.00291688,0.0244309,-0.0200089,0.047912,-5.31124e-05,-7.30275e-05,0.0354255,-0.002912630038745978,0.04907833236907155,-5.3110989561400146e-05,0.024731779694715517,-7.302483355697831e-05,-0.01981005042261652
50,0.040085,184.612,575.332,0.265384,325.675,-0.129449,-0.365805,-0.00300271,0.0250418,-0.020528,0.0491249,-5.39844e-05,-7.44971e-05,0.0363925,-0.002998206375148804,0.0503515314539007,-5.398294286851346e-05,0.025357979592214974,-7.449432515993504e-05,-0.02031873498494119
51,0.041085,184.743,577.598,-0.0586519,326.816,-0.0429221,-0.400774,-0.00309135,0.0256541,-0.0210473,0.050335,-5.32537e-05,-7.64333e-05,0.0373593,-0.0030865766975051168,0.05162333118934703,-5.3252282046889476e-05,0.025985998531496746,-7.643037904969674e-05,-0.02082735139218339
52,0.042085,186.092,579.97,0.315758,328.242,-0.125829,-0.328562,-0.00317477,0.0262624,-0.021564,0.0515467,-5.49925e-05,-7.67216e-05,0.0383242,-0.0031697357466649034,0.0528983554972251,-5.4990987940151115e-05,0.026610295675128848,-7.671865697334024e-05,-0.021333159213015263
53,0.043085,186.615,582.156,0.198959,329.442,-0.114506,-0.348101,-0.00326138,0.026872,-0.0220817,0.0527558,-5.54991e-05,-7.82381e-05,0.0392894,-0.003256067477202307,0.05417218483719766,-5.549755995348793e-05,0.027236308100573536,-7.823503947967936e-05,-0.021839683911259566
54,0.044085,186.901,584.346,0.0186673,330.549,-0.0455636,-0.357638,-0.00334943,0.0274821,-0.022599,0.0539629,-5.4986e-05,-7.96656e-05,0.040254,-0.003343826916794912,0.05544544440272081,-5.498448829766023e-05,0.027863216191013063,-7.966242678036917e-05,-0.022345555387834004
55,0.045085,187.912,586.506,0.193617,331.833,-0.0965346,-0.320326,-0.00343416,0.0280895,-0.0231149,0.0551707,-5.61846e-05,-8.03498e-05,0.0412173,-0.0034282700168577485,0.056720981552294436,-5.618302167487155e-05,0.028487729954156826,-8.034657204125661e-05,-0.022849797235441005
56,0.046085,187.95,588.536,-0.145986,332.847,-0.0105075,-0.363023,-0.00352319,0.028699,-0.0236318,0.0563752,-5.53027e-05,-8.22089e-05,0.042181,-0.0035169908485117585,0.057994568838538374,-5.530117083385466e-05,0.029114784300964036,-8.22055209409589e-05,-0.023354755657502668
57,0.047085,189.456,590.744,0.369049,334.205,-0.117563,-0.267624,-0.00360595,0.029304,-0.0241456,0.0575817,-5.72809e-05,-8.19452e-05,0.0431423,-0.003599456369878795,0.05927180962641354,-5.7279259480624845e-05,0.029737587124323506,-8.194184258381032e-05,-0.02385642709361757
58,0.048085,189.913,592.72,0.249172,335.292,-0.105944,-0.289357,-0.00369273,0.0299107,-0.0246609,0.0587853,-5.77224e-05,-8.32359e-05,0.0441041,-0.00368592025733272,0.06054751674301806,-5.77207340942687e-05,0.030362518472187183,-8.323243598862273e-05,-0.024359304299296558
59,0.049085,190.02,594.682,-0.00853144,336.263,-0.0233451,-0.313392,-0.0037814,0.0305183,-0.025176,0.0599866,-5.69276e-05,-8.46501e-05,0.0450655,-0.003774259510204825,0.06182231803096716,-5.692597965489821e-05,0.0309887569704006,-8.464651728135042e-05,-0.024861727411470524
60,0.050085,191.099,596.678,0.245328,337.472,-0.0884798,-0.263478,-0.00386577,0.0311225,-0.0256891,0.0611891,-5.82478e-05,-8.49346e-05,0.0460252,-0.0038583075303143533,0.06309992737706627,-5.8246103629810975e-05,0.031611868600429416,-8.493099315898256e-05,-0.025361942517975744
61,0.051085,190.897,598.477,-0.213602,338.344,0.0179992,-0.328247,-0.00395564,0.0317295,-0.0262039,0.0623877,-5.69786e-05,-8.69141e-05,0.0469856,-0.003947826761609652,0.06437492290219593,-5.697697675044466e-05,0.032238247091309624,-8.69103230790591e-05,-0.025863557063305453
62,0.052085,191.488,600.3,-0.259368,339.407,0.00632059,-0.328494,-0.00404219,0.032334,-0.026717,0.0635868,-5.72338e-05,-8.80836e-05,0.0479445,-0.004034031346646261,0.06565198037904096,-5.723216217734528e-05,0.032862423750064096,-8.807972075364212e-05,-0.026363258262870448
63,0.053085,192.779,602.36,0.235324,340.6,-0.0591288,-0.225822,-0.00412606,0.0329364,-0.0272278,0.064786,-5.84257e-05,-8.75512e-05,0.0489016,-0.004117559509634772,0.06693067678703879,-5.842399325206582e-05,0.03348480751730065,-8.754736750549164e-05,-0.02686046491316052
64,0.054085,192.576,603.957,-0.294964,341.446,0.0204418,-0.310721,-0.00421552,0.0335413,-0.0277414,0.0659817,-5.74782e-05,-8.97057e-05,0.04986,-0.0042066471678106065,0.06820716879593736,-5.7476548159907104e-05,0.034110151593615745,-8.97016765639691e-05,-0.027360141050565057
65,0.055085,194.315,606.073,0.501973,342.712,-0.0992996,-0.159923,-0.00429748,0.0341414,-0.0282503,0.0671796,-5.95056e-05,-8.83077e-05,0.0508151,-0.004288259046508314,0.06948754088919595,-5.950382957686795e-05,0.0347309073347184,-8.83038009897863e-05,-0.027854991549395303
66,0.056085,194.647,607.746,0.325217,343.651,-0.0916925,-0.198932,-0.00438438,0.0347436,-0.0287618,0.0683745,-5.99084e-05,-8.94419e-05,0.0517712,-0.004374782637292629,0.0707662353556715,-5.990660552768201e-05,0.03535420994469485,-8.943790019255715e-05,-0.02835211657065495
67,0.057085,194.547,609.416,-0.0248868,344.457,0.00392808,-0.242517,-0.00447359,0.0353468,-0.0292732,0.0695669,-5.88207e-05,-9.08025e-05,0.0527271,-0.004463598401247548,0.07204377853458332,-5.881897009651915e-05,0.03597892399895031,-9.079837757774989e-05,-0.02884889026238102
68,0.058085,195.66,611.189,0.291903,345.559,-0.0753642,-0.184443,-0.00455754,0.0359462,-0.0297823,0.0707608,-6.02377e-05,-9.06615e-05,0.0536808,-0.004547170174187487,0.07332445595003612,-6.023588574621819e-05,0.03660007590662473,-9.065739037039666e-05,-0.02934317746086612
69,0.059085,195.232,612.718,-0.26607,346.268,0.0488672,-0.269106,-0.00464805,0.0365491,-0.0302934,0.0719504,-5.86092e-05,-9.26376e-05,0.0546356,-0.004637264532533325,0.07460204248063818,-5.860748251440562e-05,0.03722523052631255,-9.263330927000712e-05,-0.02983915340541654
70,0.060085,195.795,614.324,-0.28617,347.217,0.0330072,-0.266169,-0.00473447,0.037149,-0.0308024,0.0731408,-5.8796e-05,-9.35029e-05,0.0555885,-0.004723280063347879,0.07588201043778686,-5.879427154908967e-05,0.03784764861774548,-9.349852874007691e-05,-0.030332839622532193
71,0.061085,197.068,616.166,0.229743,348.303,-0.0408747,-0.162129,-0.00481811,0.0377467,-0.0313093,0.0743313,-5.99991e-05,-9.26964e-05,0.0565397,-0.004806521526996788,0.07716361069239808,-5.9997300089986716e-05,0.0384681555773565,-9.269210382145676e-05,-0.030824239350344507
72,0.062085,196.793,617.559,-0.297209,349.03,0.0421348,-0.248116,-0.00490759,0.0383472,-0.0318189,0.0755183,-5.89109e-05,-9.46028e-05,0.0574921,-0.004895567455476257,0.07844296304369625,-5.8909164787013246e-05,0.03909194297820284,-9.459832529623569e-05,-0.03131800549567221
73,0.063085,198.475,619.456,0.48854,350.187,-0.0826796,-0.101737,-0.00498944,0.0389427,-0.032324,0.0767075,-6.09111e-05,-9.30331e-05,0.0584412,-0.004977013420058518,0.07972621028292615,-6.090924495660843e-05,0.03971090650834608,-9.302877255534803e-05,-0.031807163223912305
74,0.064085,198.73,620.93,0.303688,351.013,-0.0719371,-0.143484,-0.00507636,0.0395405,-0.0328316,0.0778937,-6.11735e-05,-9.39814e-05,0.0593914,-0.005063497059418665,0.08100774143942546,-6.11716289395936e-05,0.04033263150334254,-9.397698388657894e-05,-0.0322984931977629
75,0.065085,198.627,622.421,-0.00915868,351.726,0.0173804,-0.1826,-0.00516526,0.0401391,-0.033339,0.0790775,-6.00995e-05,-9.50441e-05,0.0603411,-0.005151942983050439,0.08228819615535388,-6.009769406123411e-05,0.04095556104077014,-9.503958345258301e-05,-0.03278938039370105
76,0.066085,199.605,623.99,0.255537,352.707,-0.0533237,-0.135281,-0.00524943,0.0407342,-0.0338443,0.0802626,-6.13025e-05,-9.48442e-05,0.0612889,-0.005235675820063679,0.08357157621326605,-6.13006210401501e-05,0.04157521805580311,-9.483970243107098e-05,-0.033277988462563135
77,0.067085,199.256,625.368,-0.214113,353.349,0.0558015,-0.206542,-0.00533928,0.0413322,-0.0343512,0.0814438,-5.98293e-05,-9.63991e-05,0.0622374,-0.005325051379334145,0.08485224717445594,-5.982751026312183e-05,0.042198266309061205,-9.63944537560879e-05,-0.03376789567273908
78,0.068085,199.766,626.801,-0.232687,354.201,0.0395202,-0.206175,-0.00542553,0.0419276,-0.0348564,0.0826257,-5.9988e-05,-9.70545e-05,0.0631842,-0.005410838394034445,0.086135192052323,-5.9986200755868246e-05,0.04281897592373696,-9.704979036440076e-05,-0.034255912848327075
79,0.069085,200.854,628.439,0.19378,355.162,-0.0203924,-0.119399,-0.00550954,0.0425211,-0.0353596,0.0838073,-6.09217e-05,-9.62982e-05,0.0641295,-0.005494390319853215,0.08741932791331175,-6.091984431089159e-05,0.04343807268473898,-9.629356347717888e-05,-0.03474175302534155
80,0.070085,200.687,629.706,-0.228037,355.835,0.0455271,-0.18874,-0.00559824,0.0431168,-0.035865,0.084986,-6.00277e-05,-9.77593e-05,0.0650755,-0.0055825990553166616,0.08870182476615862,-6.0025898373616826e-05,0.04405983391783397,-9.775452171534305e-05,-0.0352294712865765
81,0.071085,202.067,631.376,0.387592,356.845,-0.0531076,-0.0738041,-0.00568091,0.0437084,-0.0363667,0.0861661,-6.15681e-05,-9.64793e-05,0.0660188,-0.005664804143858504,0.08998736017054032,-6.156620472341778e-05,0.04467768245715775,-9.647464602202671e-05,-0.035713375263369485
82,0.072085,202.298,632.699,0.219197,357.591,-0.0434286,-0.111824,-0.00576765,0.0443017,-0.0368704,0.0873437,-6.1717e-05,-9.72594e-05,0.0669628,-0.005751049038251965,0.0912716853481228,-6.171509554508958e-05,0.045297673628353685,-9.725467045784697e-05,-0.03619896413042645
83,0.073085,202.344,634.074,0.0267429,358.268,0.02201,-0.131797,-0.00585558,0.0448954,-0.0373736,0.0885193,-6.09156e-05,-9.78856e-05,0.0679061,-0.005838469505012878,0.09255533872503507,-6.091374468253363e-05,0.04591845111675008,-9.788080936101728e-05,-0.036683826809994824
84,0.074085,203.078,635.455,0.169157,359.12,-0.0249768,-0.106594,-0.00594037,0.0454865,-0.0378753,0.0896955,-6.16993e-05,-9.78533e-05,0.068848,-0.005922760887599909,0.09384115835673046,-6.169739663730578e-05,0.04653687627075298,-9.78485125220363e-05,-0.037167001319623805
85,0.075085,203.001,636.754,-0.103943,359.756,0.0469057,-0.145419,-0.00602873,0.0460794,-0.0383778,0.0908687,-6.07214e-05,-9.87658e-05,0.0697899,-0.006010593671938347,0.09512520587871087,-6.071955649311622e-05,0.04715755196582161,-9.876092281890791e-05,-0.03765070336114451
86,0.076085,204.088,638.195,0.27242,360.671,-0.0397257,-0.0795402,-0.00611207,0.0466687,-0.0388779,0.0920434,-6.20536e-05,-9.81237e-05,0.0707297,-0.006093429297253206,0.09641240534664464,-6.205167471518003e-05,0.04777482377246933,-9.811888602717644e-05,-0.038131853922667824
87,0.077085,203.59,639.36,-0.266218,361.198,0.0776662,-0.164946,-0.00620199,0.0472614,-0.0393802,0.0932138,-6.03896e-05,-9.96908e-05,0.0716706,-0.006182797358042613,0.09769639767159943,-6.038777658479155e-05,0.04839602398501697,-9.968583103736606e-05,-0.03861487897054583
88,0.078085,204.103,640.64,-0.244517,361.967,0.0567242,-0.157903,-0.00628778,0.0478511,-0.0398805,0.094385,-6.05353e-05,-0.000100073,0.0726096,-0.006268053278752239,0.09898277284681045,-6.0533467775680805e-05,0.049014445444006904,-0.00010006799286432777,-0.03909573964926816
89,0.079085,205.139,642.103,0.174175,362.836,-0.00557065,-0.0744934,-0.00637148,0.0484391,-0.0403789,0.0955561,-6.14297e-05,-9.91921e-05,0.073547,-0.0063512251619008975,0.100270545480178,-6.142781323459356e-05,0.04963144731870206,-9.918718062629228e-05,-0.03957453500691266
90,0.080085,204.968,643.226,-0.210532,363.429,0.0571956,-0.138495,-0.00645972,0.0490291,-0.0408794,0.0967242,-6.05259e-05,-0.000100393,0.0744852,-0.006438900861483909,0.10155652243297086,-6.05240683446695e-05,0.050250912596907504,-0.00010038796079137047,-0.04005510767879861
91,0.081085,206.23,644.71,0.349694,364.336,-0.0369058,-0.0354307,-0.00654232,0.0496154,-0.0413765,0.0978936,-6.19326e-05,-9.91242e-05,0.0754208,-0.006520965618951657,0.10284543611124963,-6.193068221616027e-05,0.05086685525290857,-9.911928735883979e-05,-0.040532177699193817
92,0.082085,205.506,645.693,-0.367819,364.785,0.0903089,-0.158391,-0.00663266,0.0502056,-0.0418771,0.0990587,-6.00991e-05,-0.000101135,0.0763581,-0.006610712460991652,0.10413111015283838,-6.009729408529285e-05,0.05148725993429126,-0.00010112988602828388,-0.04101236708960532
93,0.083085,206.057,646.939,-0.289756,365.525,0.067973,-0.139449,-0.00671812,0.0507925,-0.0423747,0.100225,-6.02185e-05,-0.000101298,0.077293,-0.006695603882042711,0.10541960950895168,-6.0216686902481165e-05,0.052104558935819556,-0.0001012928695308668,-0.04148944063000082
94,0.084085,207.139,648.346,0.170149,366.372,-0.00355717,-0.0500934,-0.00680135,0.0513776,-0.0428707,0.101391,-6.12159e-05,-0.000100255,0.0782265,-0.006778273166601623,0.10670928050571526,-6.12140263450689e-05,0.052720325438176285,-0.00010024997463542462,-0.04196474398247252
95,0.085085,206.914,649.403,-0.226862,366.917,0.0650757,-0.116634,-0.00688955,0.051965,-0.0433689,0.102553,-6.02081e-05,-0.000101406,0.0791608,-0.006865871459766804,0.10799602414293141,-6.020628752867463e-05,0.05333887500756185,-0.0001014008585853432,-0.042441918273035006
96,0.086085,208.208,650.826,0.359758,367.8,-0.0375517,-0.0106314,-0.00697171,0.0525484,-0.0438635,0.103718,-6.17174e-05,-0.000100014,0.0800924,-0.006947464007899917,0.10928759170308266,-6.171549552047573e-05,0.05395357219697683,-0.00010000899876660974,-0.04291540939624994
97,0.087085,208.359,651.935,0.191146,368.42,-0.0245694,-0.0500472,-0.00705801,0.0531335,-0.0443601,0.104879,-6.17343e-05,-0.000100587,0.0810246,-0.0070331607438886,0.11057622250248134,-6.17323944772652e-05,0.054570420873551795,-0.00010058194129736187,-0.043390579609414615
98,0.088085,208.402,653.105,0.0385611,368.994,0.0322201,-0.0658505,-0.00714513,0.0537188,-0.044856,0.106039,-6.09927e-05,-0.000100919,0.0819561,-0.007119664246777346,0.11186523840526608,-6.09908399831216e-05,0.05518784161144197,-0.00010091390784905396,-0.04386484461725848
99,0.089085,208.993,654.265,0.133842,369.709,-0.00497672,-0.0509395,-0.00722971,0.054302,-0.0453508,0.1072,-6.15632e-05,-0.000100815,0.0828863,-0.007203638514253541,0.11315686359039057,-6.156130502510404e-05,0.055803406641985465,-0.00010080991833860686,-0.04433782326757396
100,0.090085,208.98,655.382,-0.0607252,370.263,0.0506495,-0.0787371,-0.00731697,0.0548863,-0.045846,0.108357,-6.07686e-05,-0.000101343,0.0838163,-0.00729026614513828,0.11444553143215486,-6.0766753625984826e-05,0.05642049283666162,-0.00010133786497168451,-0.04481095002163904
101,0.091085,209.818,656.585,0.198995,371.022,-0.0141893,-0.0350447,-0.00740049,0.0554678,-0.0463394,0.109516,-6.17161e-05,-0.000100823,0.0847446,-0.007373173799837929,0.11573792259909577,-6.171419560063729e-05,0.05703497999807294,-0.00010081791753213665,-0.04528212405070675
102,0.092085,209.537,657.612,-0.165389,371.505,0.0702694,-0.0925662,-0.0074887,0.0560517,-0.0468341,0.110671,-6.04896e-05,-0.000101773,0.0856734,-0.0074607295504739435,0.11702734439744278,-6.048777054101784e-05,0.05765236295030585,-0.00010176782130388862,-0.04575430618005938
103,0.093085,210.73,658.878,0.324336,372.333,-0.0359321,-0.00834561,-0.00757071,0.0566313,-0.0473258,0.111828,-6.20305e-05,-0.000100651,0.0865996,-0.0075421243584037345,0.118320492977108,-6.2028576148343e-05,0.058265555946035885,-0.00010064593485803464,-0.04622339345315374
104,0.094085,209.98,659.777,-0.330131,372.7,0.102464,-0.116528,-0.00766067,0.0572151,-0.0478205,0.112981,-6.00137e-05,-0.00010232,0.0875274,-0.007631401853134601,0.11961066014395216,-6.001189921389649e-05,0.05888355175302107,-0.00010231476548738794,-0.04669511005169158
105,0.095085,210.501,660.865,-0.258998,373.366,0.0741288,-0.101801,-0.00774552,0.0577955,-0.0483126,0.114135,-6.01846e-05,-0.000102397,0.0884529,-0.007715600756498353,0.12090343663432579,-6.018278894326379e-05,0.05949830615092733,-0.00010239175760617947,-0.04716411597966197
106,0.096085,211.473,662.109,0.149113,374.121,0.00806957,-0.0230964,-0.00782851,0.0583743,-0.0488031,0.115288,-6.10619e-05,-0.000101396,0.089377,-0.007797947021786045,0.1221965836527612,-6.106003576011876e-05,0.060111721275739605,-0.00010139085959937066,-0.047631367378000444
107,0.097085,211.297,663.051,-0.18844,374.612,0.066786,-0.0800701,-0.00791584,0.058955,-0.0492955,0.116438,-6.01703e-05,-0.000102295,0.0903018,-0.007884592243653898,0.12348785206098789,-6.016848980383571e-05,0.06072750692834461,-0.00010228976804493861,-0.04810019825706846
108,0.098085,212.406,664.302,0.301046,375.388,-0.0212086,0.00776938,-0.00799805,0.0595323,-0.0497849,0.11759,-6.1425e-05,-0.000101074,0.0912241,-0.007966150698819341,0.12478285584552506,-6.142311352330676e-05,0.061340041709246895,-0.00010106889219529958,-0.04856594404275172
109,0.099085,211.782,665.139,-0.30053,375.765,0.0914917,-0.0956768,-0.00808708,0.060113,-0.0502771,0.118738,-5.97704e-05,-0.00010261,0.0921479,-0.00805446754094008,0.12607484802565372,-5.976861378520493e-05,0.06195654085467006,-0.00010260473577405893,-0.04903412465639301
110,0.1001,212.273,666.192,-0.224184,376.397,0.0674877,-0.0804083,-0.00817174,0.0606907,-0.0507669,0.119886,-5.99104e-05,-0.000102605,0.0930695,-0.008138442095025011,0.12736832426449185,-5.990860540783238e-05,0.0625702103896999,-0.00010259973628701236,-0.04949979369048019
111,0.1011,213.137,667.373,0.129064,377.102,0.0126876,-0.0118171,-0.00825485,0.061267,-0.0512553,0.121035,-6.06275e-05,-0.000101693,0.0939897,-0.008220872283668523,0.12866441493056757,-6.0625662190227914e-05,0.06318274608715568,-0.00010168782944219856,-0.04996390464612088
112,0.1021,213.033,668.288,-0.152147,377.587,0.0613238,-0.0596905,-0.0083416,0.0618449,-0.0517452,0.12218,-5.98808e-05,-0.000102408,0.0949105,-0.008306905391258002,0.12995747582175365,-5.9879007180629884e-05,0.06379733696504908,-0.00010240275647976915,-0.05042921334256334
113,0.1031,213.994,669.463,0.253981,378.305,-0.0114424,0.0129076,-0.00842409,0.0624198,-0.0522326,0.123327,-6.09066e-05,-0.000101363,0.0958291,-0.008388706780687483,0.13125428062190014,-6.090474523068323e-05,0.06440908988559824,-0.00010135786294473981,-0.05089192137287313
114,0.1041,213.53,670.293,-0.237631,378.697,0.080812,-0.0720126,-0.00851218,0.0629974,-0.0527222,0.124469,-5.95459e-05,-0.000102585,0.0967487,-0.008476053972243713,0.13254691096181093,-5.954412717812385e-05,0.06502407016512324,-0.00010257973833882605,-0.05135649095225581
115,0.1051,214.861,671.522,0.389726,379.493,-0.0395536,0.0375817,-0.00859303,0.0635704,-0.053208,0.125615,-6.12635e-05,-0.000100993,0.0976653,-0.008556215442708903,0.13384555370193607,-6.126162343011998e-05,0.0656345038298709,-0.00010098790037860184,-0.05181723004636407
116,0.1061,214.893,672.43,0.191888,379.99,-0.0175344,-0.0076747,-0.00867872,0.0641456,-0.0536958,0.126757,-6.11255e-05,-0.0001015,0.0985827,-0.008641168620736717,0.13514114496607021,-6.112363187471548e-05,0.06624763311555171,-0.00010149484904931061,-0.052279640810392936
117,0.1071,214.89,673.411,0.0475402,380.462,0.0375323,-0.0233493,-0.00876492,0.0647207,-0.054183,0.127897,-6.03789e-05,-0.000101686,0.0994993,-0.008726620068991275,0.13643594376642088,-6.037707723094421e-05,0.06686100848853926,-0.00010168083015393847,-0.052741257710382294
118,0.1081,215.375,674.378,0.115818,381.061,0.00647477,-0.0141478,-0.00884883,0.0652939,-0.0546692,0.129038,-6.0819e-05,-0.000101532,0.100415,-0.008809794328676457,0.13773335721187263,-6.0817150562164635e-05,0.06747270851508436,-0.00010152684580089222,-0.053201702967571096
119,0.1091,215.374,675.321,-0.0387778,381.53,0.0534722,-0.0362692,-0.00893493,0.0658679,-0.0551554,0.130177,-6.01182e-05,-0.000101844,0.10133,-0.008895132131539585,0.13902997378869997,-6.011639293723725e-05,0.06808561373674249,-0.00010183881407588302,-0.0536619244106894
120,0.1101,216.051,676.325,0.1572,382.163,0.00127805,-0.0045186,-0.00901801,0.0664397,-0.0556403,0.131316,-6.08392e-05,-0.000101375,0.102243,-0.008977469703612018,0.14032806805319198,-6.083734933337581e-05,0.06869651973205615,-0.00010136986172837315,-0.05412069250622886
121,0.1111,215.871,677.204,-0.110964,382.586,0.0669395,-0.0465035,-0.00910469,0.0670131,-0.0561261,0.132452,-5.98584e-05,-0.000101971,0.103157,-0.00906336781366024,0.14162421681160553,-5.985660852170227e-05,0.06930948603711551,-0.0001019658011343072,-0.05458008907734735
122,0.1121,216.783,678.251,0.23689,383.263,-0.0127049,0.0121366,-0.00918672,0.0675833,-0.0566096,0.133589,-6.09692e-05,-0.00010111,0.104069,-0.009144651011722571,0.14292298175407336,-6.0967341416140464e-05,0.06991938017034682,-0.0001011048885561916,-0.05503708911561633
123,0.1131,216.309,679.047,-0.212527,383.612,0.0873016,-0.0614143,-0.00927446,0.0681563,-0.057095,0.134723,-5.94892e-05,-0.000102152,0.104981,-0.00923158484619968,0.1442197915675767,-5.948743055261829e-05,0.07053261965151725,-0.00010214678266207144,-0.05549566280772067
124,0.1141,217.581,680.16,0.360169,384.364,-0.036327,0.0360362,-0.00935493,0.0687246,-0.0575769,0.135859,-6.12292e-05,-0.000100725,0.105891,-0.009311308772831928,0.14552036383598055,-6.122732553082155e-05,0.07114117624424243,-0.0001007199274074555,-0.055950709795435816
125,0.1151,217.591,681.009,0.173132,384.821,-0.0106514,-0.00514225,-0.00944023,0.0692951,-0.0580607,0.136992,-6.10154e-05,-0.000101176,0.106801,-0.009395810914126002,0.14681897393190835,-6.101353859833125e-05,0.07175243663073605,-0.00010117088188110746,-0.05640733037661172
126,0.1161,217.603,681.925,0.0511052,385.263,0.0398942,-0.0166048,-0.00952586,0.0698655,-0.0585437,0.138124,-6.03147e-05,-0.000101289,0.107711,-0.009480632719140014,0.1481179080684134,-6.031288110508459e-05,0.07236393860437351,-0.0001012838704423924,-0.056862975588862885
127,0.1171,218.031,682.819,0.099987,385.815,0.0145549,-0.0100527,-0.0096095,0.0704342,-0.0590259,0.139255,-6.06513e-05,-0.000101158,0.108619,-0.009563476294452755,0.14941716401317917,-6.0649460747130846e-05,0.07297396542094181,-0.00010115288370204922,-0.057317646632035535
128,0.1181,218.066,683.702,-0.0221749,386.261,0.0541185,-0.0265137,-0.00969492,0.0710035,-0.0595081,0.140385,-6.004e-05,-0.000101368,0.109527,-0.00964807576901272,0.15071673953039566,-6.0038197635226e-05,0.0735849834092237,-0.00010136286243789261,-0.0577720984856821
129,0.1191,218.648,684.626,0.129819,386.839,0.0118026,-0.00187377,-0.00977787,0.0715708,-0.0599891,0.141515,-6.0597e-05,-0.000100983,0.110434,-0.009730222054063375,0.1520177843979731,-6.0595164038890204e-05,0.0741942009585308,-0.00010097790138852147,-0.058225201126389514
130,0.1201,218.552,685.458,-0.0770956,387.251,0.0644768,-0.03334,-0.00986368,0.0721393,-0.0604706,0.142642,-5.97868e-05,-0.000101405,0.11134,-0.00981519345795867,0.15331684032150528,-5.978501280490267e-05,0.07480505398029536,-0.00010139985868673485,-0.05867855653797294
131,0.1211,219.306,686.413,0.187714,387.86,0.00200977,0.0113,-0.00994583,0.0727052,-0.0609504,0.143771,-6.06277e-05,-0.000100726,0.112245,-0.009896533798715912,0.15461967034338886,-6.062586217814303e-05,0.07541345829210644,-0.00010072092730672999,-0.059130094233990405
132,0.1221,218.998,687.182,-0.149951,388.217,0.0793057,-0.0430481,-0.0100324,0.0732732,-0.0614314,0.144896,-5.94598e-05,-0.000101468,0.113151,-0.009982243345793673,0.15591934840435906,-5.945803230111846e-05,0.07602446664636164,-0.00010146285229661878,-0.0595825438358113
133,0.1231,220.007,688.182,0.274042,388.878,-0.0144618,0.0289712,-0.0101134,0.0738374,-0.0619098,0.146023,-6.07459e-05,-0.000100389,0.114054,-0.01006243153641706,0.15722280386920207,-6.074405500522406e-05,0.0766317309435931,-0.00010038396119294024,-0.060032331948945195
134,0.1241,219.377,688.87,-0.255847,389.156,0.101601,-0.0584141,-0.0102011,0.0744051,-0.0623906,0.147145,-5.90188e-05,-0.000101595,0.114958,-0.010149245254334138,0.1585219365322792,-5.9017058424926105e-05,0.07724310830029268,-0.00010158983940278254,-0.0604841597756306
135,0.1251,220.77,689.939,0.401569,389.898,-0.0402148,0.0533277,-0.0102804,0.0749675,-0.0628674,0.148271,-6.09901e-05,-9.99393e-05,0.115859,-0.010227737306934492,0.15982716693962806,-6.098824014166837e-05,0.07784912021897927,-9.993430623456145e-05,-0.0609320141512818
136,0.1261,220.712,690.705,0.18869,390.303,-0.00873984,0.00736239,-0.0103653,0.0755325,-0.0633464,0.149393,-6.06913e-05,-0.000100414,0.116761,-0.0103117654049939,0.16112922333797908,-6.068945832027328e-05,0.07845827704250063,-0.00010040895868301813,-0.0613817200033534
137,0.1271,220.678,691.542,0.0524498,390.7,0.0446337,-0.00663643,-0.0104505,0.0760973,-0.0638246,0.150513,-5.9937e-05,-0.000100529,0.117662,-0.01039608325059016,0.1624304166003263,-5.9935203813865634e-05,0.07906756232334078,-0.00010052394712944945,-0.06183045996257219
138,0.1281,221.083,692.365,0.101112,391.211,0.0194906,-0.000238343,-0.0105336,0.0766604,-0.064302,0.151634,-6.02505e-05,-0.000100372,0.118562,-0.010478315919257297,0.16373423174919055,-6.024868497511715e-05,0.07967535637604062,-0.00010036696289938973,-0.062278235208530486
139,0.1291,221.094,693.174,-0.0230462,391.619,0.0592151,-0.0171021,-0.0106184,0.0772241,-0.0647793,0.152753,-5.96191e-05,-0.000100559,0.119461,-0.0105622238003229,0.16503717921766836,-5.961732281678511e-05,0.08028414094423986,-0.00010055394411323526,-0.06272570301017955
140,0.1301,221.649,694.029,0.125833,392.156,0.0175618,0.00693276,-0.0107008,0.0777858,-0.0652555,0.153872,-6.01444e-05,-0.000100157,0.12036,-0.010643750114151529,0.16634158550041755,-6.014259136188915e-05,0.08089110699666557,-0.0001001519844551213,-0.06317192677609507
141,0.1311,221.546,694.793,-0.0729648,392.533,0.0685823,-0.0231613,-0.010786,0.0783488,-0.0657322,0.154989,-5.93411e-05,-0.00010053,0.121258,-0.01072803967585545,0.16764511693819606,-5.93393393517605e-05,0.08149982002654399,-0.00010052494702883497,-0.06361840629175342
142,0.1321,222.254,695.676,0.175795,393.098,0.00899012,0.0185563,-0.0108677,0.0789092,-0.0662072,0.156106,-6.01179e-05,-9.98701e-05,0.122154,-0.01080885989346314,0.16895010523409426,-6.0116092955309064e-05,0.08210606237892826,-9.986511314752367e-05,-0.06406308192993992
143,0.1331,221.967,696.386,-0.13507,393.43,0.0813133,-0.0311443,-0.0109535,0.0794715,-0.0666834,0.157221,-5.90066e-05,-0.000100516,0.123051,-0.010893728852353846,0.17025421150556852,-5.900485914478448e-05,0.08271470172071815,-0.00010051094843610553,-0.06450866898762608
144,0.1341,222.89,697.308,0.247541,394.038,-0.00499474,0.0334694,-0.0110342,0.0800304,-0.0671571,0.158337,-6.01623e-05,-9.95209e-05,0.123946,-0.010973546507749732,0.17156094422684398,-6.0160490285121604e-05,0.08332000010238616,-9.951594795953866e-05,-0.06495170628945723
145,0.1351,222.338,697.95,-0.221396,394.304,0.0997405,-0.0432976,-0.0111209,0.0805923,-0.0676329,0.159449,-5.85858e-05,-0.000100545,0.124842,-0.011059291384173497,0.17286444460871686,-5.858408388548231e-05,0.08392888866166404,-0.00010053994552083889,-0.06539649644363588
146,0.1361,223.573,698.926,0.349288,394.976,-0.0260342,0.0530973,-0.0112002,0.0811495,-0.0681053,0.160564,-6.03023e-05,-9.90904e-05,0.125734,-0.011137711272977024,0.17417291780270072,-6.030048185290404e-05,0.08453302213438119,-9.908549070847261e-05,-0.0658378988712538
147,0.1371,222.64,699.481,-0.34364,395.151,0.126312,-0.0615494,-0.0112884,0.0817113,-0.0685808,0.161673,-5.80444e-05,-0.000100649,0.126629,-0.011224925080657311,0.17547579788201562,-5.804271545639672e-05,0.08514248396801571,-0.00010064393505937463,-0.06628198735993496
148,0.1381,223.154,700.278,-0.214833,395.66,0.0873595,-0.0382081,-0.0113707,0.0822693,-0.0690536,0.162784,-5.83063e-05,-0.000100402,0.127521,-0.011306297920784858,0.1767824772194293,-5.8304600220715486e-05,0.0857481624426486,-0.00010039695988783848,-0.06672334489116905
149,0.1391,223.881,701.167,0.0867361,396.207,0.0343481,0.0191307,-0.0114521,0.0828264,-0.0695254,0.163895,-5.89142e-05,-9.95449e-05,0.128412,-0.01138677431270052,0.17809060908431662,-5.891246459255317e-05,0.08635320126186019,-9.95399455708812e-05,-0.06716356096191245
150,0.1401,223.826,701.858,-0.10627,396.577,0.0702526,-0.0130516,-0.0115364,0.0833846,-0.0699983,0.165003,-5.82958e-05,-9.99152e-05,0.129304,-0.011470110894939656,0.1793966568960541,-5.8294100832911866e-05,0.08695977289719803,-9.991020864263955e-05,-0.06760459502321059
151,0.1411,224.525,702.726,0.172683,397.111,0.0154141,0.0357498,-0.0116176,0.0839406,-0.0704693,0.166112,-5.89881e-05,-9.91141e-05,0.130193,-0.011550376263116946,0.18070533331549998,-5.8986360236268354e-05,0.08756429057126902,-9.910918835986937e-05,-0.06804364985342548
152,0.1421,224.259,703.374,-0.136353,397.427,0.0783665,-0.0166719,-0.0117027,0.0844982,-0.0709417,0.167218,-5.80053e-05,-9.97502e-05,0.131083,-0.011634489747017418,0.18201191582108422,-5.800361772512197e-05,0.08817088552264729,-9.9745225114245e-05,-0.06848380206109783
153,0.1431,225.122,704.26,0.234734,397.995,0.000724613,0.0466079,-0.0117831,0.0850528,-0.0714116,0.168325,-5.90296e-05,-9.87347e-05,0.131971,-0.011713951139651013,0.1833211275268798,-5.902785778744146e-05,0.08877455247713151,-9.872982588987611e-05,-0.06892141869642854
154,0.1441,224.626,704.857,-0.202591,398.254,0.0937568,-0.0268302,-0.011869,0.0856101,-0.0718834,0.169429,-5.76214e-05,-9.96666e-05,0.13286,-0.01179884126516495,0.18462823544247842,-5.7619739919023694e-05,0.08938149564423181,-9.966163344943268e-05,-0.0693605979605525
155,0.1451,225.744,705.781,0.316105,398.875,-0.0179841,0.0606861,-0.0119483,0.0861631,-0.0723521,0.170534,-5.91311e-05,-9.83042e-05,0.133746,-0.01187720250998825,0.18593797313945148,-5.912935179097634e-05,0.08998409021336484,-9.829936830041408e-05,-0.06979668644296921
156,0.1461,224.936,706.311,-0.299026,399.058,0.115619,-0.0420272,-0.0120354,0.0867201,-0.0728236,0.171636,-5.71459e-05,-9.96513e-05,0.134634,-0.011963264257606077,0.1872455971543514,-5.714426720415666e-05,0.09059138046624815,-9.96463349741683e-05,-0.07023517392376433
157,0.1471,226.416,707.293,0.429616,399.757,-0.0436732,0.0802184,-0.012113,0.0872713,-0.0732908,0.17274,-5.9331e-05,-9.77936e-05,0.135518,-0.012039932933516573,0.18855704007690233,-5.932923995100037e-05,0.09119268013812665,-9.778881836175479e-05,-0.07066945859370877
158,0.1481,226.268,707.934,0.188024,400.085,-0.00477608,0.0289129,-0.0121969,0.0878255,-0.0737605,0.173841,-5.89168e-05,-9.8277e-05,0.136404,-0.012122819306011556,0.1898663620274974,-5.8915064439446496e-05,0.09179758672559224,-9.827217097380103e-05,-0.0711058626514911
159,0.1491,226.212,708.655,0.0595901,400.423,0.0458352,0.0152391,-0.0122808,0.0883794,-0.0742293,0.174941,-5.81902e-05,-9.83255e-05,0.137288,-0.012205698724631509,0.1911759351589013,-5.818850698313671e-05,0.09240250092440094,-9.832066620640845e-05,-0.07154122616589886
160,0.1501,226.541,709.361,0.0864791,400.859,0.0262367,0.0172991,-0.0123629,0.0889317,-0.0746973,0.176041,-5.84069e-05,-9.8175e-05,0.138171,-0.012286793307788035,0.19248694961333213,-5.840519435018621e-05,0.09300600146699556,-9.817018099234076e-05,-0.07197564321053584
161,0.1511,226.568,710.065,-0.00845711,401.217,0.0586131,0.00457234,-0.0124463,0.0894844,-0.0751652,0.177139,-5.78688e-05,-9.8247e-05,0.139054,-0.012369165154272443,0.19379701938069105,-5.786712563327079e-05,0.0936102728590229,-9.824217392151446e-05,-0.07240976423654333
162,0.1521,227.014,710.799,0.0980593,401.674,0.0265342,0.0208837,-0.0125278,0.0900354,-0.0756322,0.178237,-5.82397e-05,-9.79068e-05,0.139936,-0.012449653787356074,0.1951085283946563,-5.8238004101540675e-05,0.09421301816044925,-9.790200728565512e-05,-0.07284284774377503
163,0.1531,226.976,711.471,-0.0421229,402.014,0.0644649,5.19283e-05,-0.0126114,0.0905873,-0.0760994,0.179333,-5.76139e-05,-9.80954e-05,0.140818,-0.01253220954542067,0.19641908539582498,-5.7612240351168076e-05,0.09481708100098007,-9.80905888036121e-05,-0.07327591439306258
164,0.1541,227.516,712.223,0.127168,402.486,0.0216971,0.0276916,-0.0126924,0.0911372,-0.0765653,0.180429,-5.81329e-05,-9.75924e-05,0.141698,-0.01261219119714685,0.19773107955488567,-5.81312103157261e-05,0.0954192864750425,-9.758763801659409e-05,-0.07370757458149779
165,0.1551,227.373,712.86,-0.0777774,402.8,0.071599,-0.00452804,-0.0127763,0.0916883,-0.0770319,0.181523,-5.73353e-05,-9.79389e-05,0.142578,-0.012695029559187554,0.19904211436119978,-5.733365636306775e-05,0.09602313841993926,-9.793410414249415e-05,-0.07413968180874231
166,0.1561,228.031,713.632,0.165854,403.294,0.0140574,0.0358328,-0.0128567,0.092237,-0.0774968,0.182617,-5.80624e-05,-9.72518e-05,0.143456,-0.012774405687847823,0.2003545842244252,-5.806071441150085e-05,0.09662469133694063,-9.724707119695974e-05,-0.07457001423214682
167,0.1571,227.747,714.23,-0.122628,403.572,0.0812733,-0.0106258,-0.012941,0.0927875,-0.0779627,0.183709,-5.70183e-05,-9.77963e-05,0.144335,-0.012857625297692521,0.20166608738079495,-5.701667448765324e-05,0.09722854942621062,-9.779151809774511e-05,-0.07500107163989578
168,0.1581,228.562,715.028,0.216278,404.098,0.00332206,0.045699,-0.0130207,0.0933349,-0.0784265,0.184802,-5.80334e-05,-9.68794e-05,0.145212,-0.012936297409830932,0.20298022646048142,-5.8031716094864016e-05,0.09782933675465633,-9.687470734243142e-05,-0.07542998666978507
169,0.1591,228.091,715.58,-0.180997,404.33,0.0942987,-0.0189733,-0.0131056,0.0938848,-0.078892,0.185892,-5.66518e-05,-9.76786e-05,0.14609,-0.013020095560899003,0.20429218979744657,-5.665019531708726e-05,0.09843319912367932,-9.767382960090831e-05,-0.07586027385387828
170,0.1601,229.117,716.413,0.282429,404.898,-0.0112904,0.0579928,-0.0131843,0.0944307,-0.0793546,0.186984,-5.80572e-05,-9.64661e-05,0.146965,-0.013097767822934814,0.20560799516768347,-5.8055514713384326e-05,0.09903299750715444,-9.646144729535955e-05,-0.07628768202406166
171,0.1611,228.397,716.909,-0.257527,405.071,0.111655,-0.0303316,-0.0132702,0.0949803,-0.0798196,0.188071,-5.62223e-05,-9.75971e-05,0.147841,-0.01318253908370104,0.20691920357109095,-5.6220719556132615e-05,0.09963719206003896,-9.759233755801677e-05,-0.07671710840254975
172,0.1621,229.704,717.79,0.369299,405.698,-0.0308545,0.0735735,-0.0133476,0.0955246,-0.0802809,0.189161,-5.8149e-05,-9.60004e-05,0.148715,-0.013258915799358895,0.2082354627339067,-5.814730937969692e-05,0.10023588750386137,-9.59957921090604e-05,-0.07714292057931404
173,0.1631,229.568,718.376,0.150677,405.999,0.00607655,0.028177,-0.0134306,0.0960716,-0.0807443,0.190248,-5.77201e-05,-9.64182e-05,0.149589,-0.013340811910611872,0.2095495287473883,-5.7718434227083115e-05,0.10083788116458181,-9.641355191469803e-05,-0.07757047347825985
174,0.1641,229.568,719.044,0.063522,406.321,0.0461303,0.0212869,-0.0135134,0.0966181,-0.0812068,0.191334,-5.71233e-05,-9.6368e-05,0.150462,-0.01342250390929034,0.21086381306281954,-5.712166849536349e-05,0.10143965348594786,-9.636335675344831e-05,-0.07799699849276354
175,0.1651,229.824,719.683,0.0631922,406.711,0.0344382,0.0193327,-0.0135949,0.0971634,-0.0816687,0.19242,-5.72129e-05,-9.6267e-05,0.151335,-0.013502906698763528,0.2121795254663288,-5.721126337321358e-05,0.10204043231645499,-9.626236648108133e-05,-0.07842277333888903
176,0.1661,229.912,720.338,0.0117417,407.053,0.0558553,0.0137108,-0.0136771,0.0977087,-0.0821303,0.193504,-5.68202e-05,-9.62261e-05,0.152206,-0.013583993427122687,0.21349424051875387,-5.681858576300769e-05,0.10264153884099603,-9.622147041732365e-05,-0.07884807521949
177,0.1671,230.247,720.997,0.0669143,407.455,0.036307,0.0217534,-0.0137582,0.0982529,-0.0825912,0.194588,-5.70016e-05,-9.59923e-05,0.153077,-0.01366398852141082,0.21481038149500709,-5.699997543961999e-05,0.10324175967170834,-9.598769288654552e-05,-0.07927253631704745
178,0.1681,230.306,721.629,-0.00850296,407.789,0.0589858,0.0115442,-0.0138405,0.0987973,-0.0830521,0.19567,-5.65839e-05,-9.60167e-05,0.153948,-0.013745160634877185,0.21612551768816002,-5.658229916127855e-05,0.10384252799997507,-9.601209054421744e-05,-0.07969680182556194
179,0.1691,230.688,722.298,0.0816415,408.197,0.0344034,0.0261226,-0.0139213,0.0993405,-0.0835121,0.196753,-5.68335e-05,-9.56879e-05,0.154817,-0.013824846806533286,0.21744329507146887,-5.68318850072691e-05,0.10444229814400807,-9.568332205889263e-05,-0.08012004394357186
180,0.1701,230.696,722.908,-0.0266166,408.516,0.0623703,0.00990471,-0.0140036,0.099884,-0.0839723,0.197833,-5.63396e-05,-9.57934e-05,0.155686,-0.013906005681907585,0.21875884409874957,-5.633801295457097e-05,0.10504272568445328,-9.578881195870803e-05,-0.08054327530634298
181,0.1711,231.133,723.585,0.0999183,408.932,0.0310594,0.0307832,-0.0140841,0.100426,-0.0844314,0.198913,-5.6683e-05,-9.53721e-05,0.156554,-0.013985383053468081,0.22007581468648385,-5.668139354908508e-05,0.10564182118198806,-9.536755222583349e-05,-0.08096530100523813
182,0.1721,231.075,724.173,-0.0473175,409.234,0.0667412,0.0077944,-0.0141665,0.100969,-0.0848908,0.199992,-5.60795e-05,-9.55696e-05,0.157421,-0.014066627310595159,0.22139298697718934,-5.607792757422736e-05,0.10624234771908925,-9.556503337126987e-05,-0.08138740858042248
183,0.1731,231.582,724.859,0.122099,409.662,0.0264169,0.0358473,-0.0142466,0.10151,-0.085349,0.201071,-5.65494e-05,-9.50438e-05,0.158288,-0.014145597410952782,0.22271158126382518,-5.654780111286062e-05,0.10684098674646147,-9.503928348109092e-05,-0.08180822045444824
184,0.1741,231.441,725.424,-0.0724394,409.943,0.0723529,0.00489471,-0.0143293,0.102052,-0.0858078,0.202147,-5.58008e-05,-9.53505e-05,0.159154,-0.014227124198867735,0.22402792699226426,-5.5799243164345036e-05,0.10744105716567165,-9.53459542855084e-05,-0.08222939021917175
185,0.1751,232.036,726.122,0.149481,410.386,0.0203112,0.0415775,-0.0144088,0.102592,-0.086265,0.203225,-5.64353e-05,-9.46999e-05,0.160019,-0.014305490027410994,0.22534814056482766,-5.643370755836763e-05,0.10803923683051475,-9.4695416105961e-05,-0.08264889903494077
186,0.1761,231.792,726.659,-0.10348,410.641,0.0794697,0.000959575,-0.0144918,0.103133,-0.0867232,0.204299,-5.55e-05,-9.51402e-05,0.160884,-0.014387299276607868,0.22666487142569847,-5.549845990349134e-05,0.10863884823790126,-9.513567431473913e-05,-0.08306913302644325
187,0.1771,232.498,727.373,0.183538,411.106,0.0124755,0.0482511,-0.0145708,0.103672,-0.0871794,0.205375,-5.63448e-05,-9.43375e-05,0.161747,-0.014465159604441613,0.22798547318368478,-5.6343212661569275e-05,0.10923656564747253,-9.433305035799755e-05,-0.0834873414873536
188,0.1781,232.125,727.879,-0.142008,411.328,0.0884183,-0.00425714,-0.0146542,0.104213,-0.087637,0.206447,-5.51728e-05,-9.49428e-05,0.16261,-0.014547349782752517,0.2293025794537653,-5.5171278009025215e-05,0.10983682498499836,-9.493829307505308e-05,-0.08390664173667517
189,0.1791,232.97,728.614,0.225903,411.821,0.00256873,0.0561599,-0.0147325,0.10475,-0.0880922,0.207521,-5.62827e-05,-9.3953e-05,0.163472,-0.014624507704492529,0.23062355966349468,-5.628111615851861e-05,0.11043296740993047,-9.394858655509264e-05,-0.08432355253725954
190,0.1801,232.437,729.083,-0.189764,412.005,0.0995936,-0.0110238,-0.0148164,0.10529,-0.0885492,0.208592,-5.48138e-05,-9.47628e-05,0.164334,-0.014707177240260494,0.2319422635357673,-5.481229775106122e-05,0.11103276314260468,-9.475831014771341e-05,-0.08474192106925915
191,0.1811,233.457,729.846,0.278409,412.533,-0.00982202,0.0656213,-0.0148939,0.105826,-0.0890034,0.209664,-5.62549e-05,-9.35425e-05,0.165194,-0.014783534475143356,0.23326361375945792,-5.625331772274311e-05,0.11162843632980213,-9.353812503676284e-05,-0.08515753689521033
192,0.1821,232.724,730.27,-0.248723,412.67,0.113463,-0.0196416,-0.0149785,0.106366,-0.0894599,0.210733,-5.44165e-05,-9.46048e-05,0.166056,-0.01486688026255023,0.23458267747650918,-5.4415019449138846e-05,0.11222887779002377,-9.460032510699712e-05,-0.08557506717108132
193,0.1831,233.961,731.069,0.343138,413.243,-0.0251844,0.0769881,-0.015055,0.106901,-0.0899129,0.211804,-5.62682e-05,-9.31016e-05,0.166914,-0.014942240063660961,0.2359056238354056,-5.626661697455404e-05,0.11282407944188644,-9.309726618056402e-05,-0.08598920785570574
194,0.1841,232.984,731.441,-0.321131,413.322,0.130569,-0.0304511,-0.0151405,0.10744,-0.0903691,0.21287,-5.39732e-05,-9.4474e-05,0.167774,-0.015026458901728934,0.2372238016943864,-5.3971743472991385e-05,0.11342405329913485,-9.44695374721638e-05,-0.08640608448229337
195,0.1851,233.486,732.066,-0.166083,413.734,0.0847548,-0.00456691,-0.01522,0.107975,-0.0908225,0.213938,-5.43366e-05,-9.4099e-05,0.168632,-0.015104761185689264,0.23854586256943855,-5.433512379371397e-05,0.11401989454097006,-9.409457282794076e-05,-0.08682021407331642
196,0.1861,234.018,732.739,0.0449092,414.145,0.0460275,0.0351642,-0.0152993,0.108511,-0.0912754,0.215005,-5.47243e-05,-9.34306e-05,0.169489,-0.0151828602814571,0.23986809629104489,-5.472280265284013e-05,0.11461716925976906,-9.342623549746243e-05,-0.08723369955750693
197,0.1871,234.058,733.284,-0.051687,414.448,0.0638285,0.0191641,-0.0153804,0.109046,-0.0917288,0.21607,-5.43546e-05,-9.35117e-05,0.170345,-0.015262725712901326,0.24118925920797363,-5.43531228155425e-05,0.11521364898942332,-9.350732791724159e-05,-0.08764745399290907
198,0.1881,234.489,733.926,0.0949349,414.833,0.0334711,0.0441268,-0.0154599,0.10958,-0.092181,0.217136,-5.4676e-05,-9.30049e-05,0.171201,-0.01534100921439674,0.2425130724253739,-5.467450529472728e-05,0.11580933211122213,-9.300057517835914e-05,-0.08805992654714023
199,0.1891,234.435,734.455,-0.0490788,415.11,0.0642431,0.0199423,-0.0155413,0.110115,-0.0926338,0.218199,-5.41428e-05,-9.31868e-05,0.172056,-0.01542115719417958,0.24383456607079745,-5.414133430503565e-05,0.11640644981864567,-9.318245824496696e-05,-0.08847275953995659
200,0.1901,234.899,735.093,0.112915,415.5,0.0280345,0.0466319,-0.0156205,0.110648,-0.0930852,0.219263,-5.45535e-05,-9.26523e-05,0.172911,-0.015499132750657063,0.24515871036894188,-5.455201198489856e-05,0.11700165306397303,-9.26480079082026e-05,-0.08888413008298357
201,0.1911,234.78,735.607,-0.0631371,415.761,0.0679243,0.0176582,-0.0157021,0.111183,-0.0935373,0.220324,-5.38954e-05,-9.29013e-05,0.173765,-0.015579464743834648,0.24648052485923078,-5.389394766897038e-05,0.11759940883377307,-9.289698480785535e-05,-0.08929595246830835
202,0.1921,235.303,736.249,0.130697,416.161,0.0230163,0.049207,-0.0157809,0.111715,-0.0939879,0.221386,-5.44296e-05,-9.22994e-05,0.174618,-0.015657034025743033,0.24780499034332082,-5.442811873623832e-05,0.11819412990104983,-9.229514054143184e-05,-0.08970622327117239
203,0.1931,235.113,736.746,-0.0826601,416.403,0.0726676,0.0145071,-0.0158627,0.112248,-0.0944393,0.222446,-5.36355e-05,-9.26297e-05,0.17547,-0.015737549987211996,0.24912836489768653,-5.363406164227147e-05,0.11879028623383636,-9.26254100017676e-05,-0.09011703715431874
204,0.1941,235.71,737.395,0.152071,416.817,0.0173634,0.0525047,-0.0159411,0.112779,-0.094889,0.223506,-5.43162e-05,-9.19383e-05,0.176322,-0.015814713138457948,0.2504531429728145,-5.431472490191602e-05,0.11938452163136182,-9.193407380403418e-05,-0.09052611953364331
205,0.1951,235.436,737.871,-0.106533,417.038,0.0783759,0.0107266,-0.0160231,0.113312,-0.0953397,0.224564,-5.33633e-05,-9.23687e-05,0.177173,-0.015895413023240046,0.251776822501077,-5.336187620441635e-05,0.11998131261205924,-9.236443414295525e-05,-0.0909359270545077
206,0.1961,236.121,738.531,0.177719,417.469,0.0108248,0.0566037,-0.016101,0.113842,-0.0957885,0.225622,-5.4216e-05,-9.15676e-05,0.178023,-0.015972071784668085,0.2531019032233812,-5.421453033926937e-05,0.12057506003691265,-9.156340781524275e-05,-0.09134382347164305
207,0.1971,235.747,738.984,-0.134946,417.665,0.0851694,0.00629431,-0.0161833,0.114374,-0.0962386,0.226678,-5.30767e-05,-9.21181e-05,0.178873,-0.016053053950698337,0.25442587776871073,-5.307529145692769e-05,0.12117136457179445,-9.211385725815813e-05,-0.09175271758817438
208,0.1981,236.537,739.658,0.208082,418.116,0.00322758,0.0615444,-0.0162607,0.114903,-0.0966865,0.227735,-5.41311e-05,-9.11862e-05,0.179721,-0.016129208497103642,0.255752506921505,-5.412963493844902e-05,0.12176462112617692,-9.118204266478358e-05,-0.09215943045582053
209,0.1991,236.047,740.085,-0.168329,418.284,0.0931884,0.00114054,-0.0163433,0.115434,-0.097136,0.228789,-5.27735e-05,-9.18784e-05,0.18057,-0.016210472868216974,0.2570767678267021,-5.277210750331829e-05,0.12236043631492777,-9.18741793091149e-05,-0.09256741309086403
210,0.2001,236.959,740.777,0.243644,418.759,-0.00558932,0.0673812,-0.01642,0.115962,-0.0975829,0.229845,-5.40635e-05,-9.0793e-05,0.181417,-0.016285926631259162,0.2584049420460903,-5.406203859537051e-05,0.12295319910090652,-9.078887844027328e-05,-0.09297285411140976
211,0.2011,236.333,741.172,-0.207196,418.895,0.102578,-0.00481892,-0.0165031,0.116493,-0.0980319,0.230897,-5.24512e-05,-9.16505e-05,0.182265,-0.016367669874277402,0.25972948063026213,-5.24498244598437e-05,0.12354964559215786,-9.164630022118203e-05,-0.09338001788480621
212,0.2021,237.387,741.887,0.284935,419.399,-0.0157854,0.0741817,-0.0165792,0.117019,-0.0984778,0.231951,-5.40153e-05,-9.03866e-05,0.18311,-0.016442521446461522,0.26105793547556644,-5.401384119996244e-05,0.12414078816260576,-9.038251525439467e-05,-0.0937841896180468
213,0.2031,236.605,742.248,-0.252098,419.498,0.113486,-0.0116739,-0.0166628,0.11755,-0.0989262,0.233001,-5.21078e-05,-9.14352e-05,0.183956,-0.016524743414742415,0.2623827417093718,-5.210644241215867e-05,0.12473786543110554,-9.143101992947766e-05,-0.09419044569800206
214,0.2041,237.824,742.989,0.332508,420.035,-0.0275193,0.0820211,-0.016738,0.118075,-0.0993711,0.234054,-5.39882e-05,-8.99658e-05,0.1848,-0.01659869797331137,0.2637127308527838,-5.398674266332559e-05,0.12532850784052307,-8.996175319875288e-05,-0.09459335073583952
215,0.2051,236.862,743.31,-0.303607,420.092,0.126062,-0.0195148,-0.0168223,0.118605,-0.0998191,0.235102,-5.17409e-05,-9.12335e-05,0.185645,-0.016681595208904665,0.2650377960075816,-5.1739561462760264e-05,0.12592509002999375,-9.122933835081781e-05,-0.09499888206890861
216,0.2061,238.271,744.083,0.386921,420.669,-0.0409475,0.0909782,-0.0168966,0.119129,-0.100263,0.236153,-5.39844e-05,-8.95292e-05,0.186487,-0.016754653052248103,0.2663680496570284,-5.398294286851346e-05,0.12651522938017612,-8.952519238081269e-05,-0.0954005229143774
217,0.2071,238.024,744.528,0.139261,420.88,0.00799478,0.0424003,-0.0169775,0.119656,-0.100709,0.237201,-5.33897e-05,-8.99623e-05,0.187331,-0.016834194383326007,0.2676958990446163,-5.3388274795285184e-05,0.12710905936651717,-8.99582535136556e-05,-0.09580388432487685
218,0.2081,238.017,745.063,0.0703065,421.137,0.0417631,0.0376867,-0.0170577,0.120182,-0.101154,0.238248,-5.28816e-05,-8.98501e-05,0.188173,-0.01691304111914005,0.269023871723302,-5.288020179283759e-05,0.12770207468109884,-8.98460636006293e-05,-0.09620616208291266
219,0.2091,238.176,745.568,0.0432961,421.438,0.0390175,0.0315034,-0.017137,0.120708,-0.101599,0.239294,-5.28422e-05,-8.97803e-05,0.189014,-0.016990996823994742,0.2703519651649038,-5.284080387557566e-05,0.12829540200378697,-8.977626986950149e-05,-0.09660826086717078
220,0.2101,238.288,746.1,0.0255509,421.724,0.0505216,0.0306882,-0.0172165,0.121233,-0.102043,0.24034,-5.2589e-05,-8.9642e-05,0.189855,-0.01706914293339823,0.2716814485190431,-5.258761722282124e-05,0.128887912610264,-8.963798227601405e-05,-0.09700927776700607
221,0.2111,238.501,746.62,0.038482,422.033,0.0425958,0.0318636,-0.0172955,0.121757,-0.102487,0.241385,-5.26033e-05,-8.94785e-05,0.190695,-0.01714679140395159,0.27301105022864225,-5.26019164707181e-05,0.12947960488630939,-8.947449691842913e-05,-0.09741011665485944
222,0.2121,238.616,747.139,0.0154906,422.318,0.0517172,0.0296446,-0.0173749,0.122281,-0.102931,0.242429,-5.2377e-05,-8.9362e-05,0.191534,-0.017224826850665842,0.274340767756855,-5.237562834892184e-05,0.13007160729035383,-8.935800733544941e-05,-0.09781077760975065
223,0.2131,238.842,747.664,0.0418614,422.627,0.0429212,0.0336657,-0.0174538,0.122805,-0.103374,0.243472,-5.24008e-05,-8.91577e-05,0.192373,-0.0173023647529168,0.2756705985638368,-5.2399427102112206e-05,0.13066391998494709,-8.915372557039003e-05,-0.09821035892147423
224,0.2141,238.947,748.173,0.0104868,422.908,0.0523802,0.0296272,-0.0175331,0.123328,-0.103817,0.244514,-5.21686e-05,-8.9065e-05,0.193211,-0.017380289585631536,0.27700054010675057,-5.21672392422845e-05,0.1312554118767464,-8.906103383066188e-05,-0.09860976325787962
225,0.2151,239.182,748.698,0.045437,423.217,0.0426617,0.035279,-0.0176118,0.123851,-0.104259,0.245555,-5.22044e-05,-8.8836e-05,0.194048,-0.017457618713899947,0.2783305898397752,-5.220303737407672e-05,0.13184721319971437,-8.883205419940587e-05,-0.0990080897058897
226,0.2161,239.276,749.198,0.00656702,423.493,0.0530987,0.0297772,-0.017691,0.124374,-0.104701,0.246596,-5.19581e-05,-8.87619e-05,0.194884,-0.017535432989011834,0.2796620248754971,-5.195675020130963e-05,0.1324393241157258,-8.87579607791178e-05,-0.09940624013251342
227,0.2171,239.52,749.722,0.0487492,423.801,0.0421725,0.036688,-0.0177696,0.124895,-0.105143,0.247636,-5.20102e-05,-8.85136e-05,0.19572,-0.017612651669245083,0.2809935656625606,-5.200884749301249e-05,0.13302947872551663,-8.850968278684146e-05,-0.0998042146155349
228,0.2181,239.601,750.215,0.00290844,424.072,0.0538969,0.0299306,-0.0178487,0.125417,-0.105584,0.248675,-5.17456e-05,-8.84555e-05,0.196556,-0.01769035543527353,0.28232520964653895,-5.174426121956621e-05,0.13362107450647676,-8.84515879275849e-05,-0.10020111343426752
229,0.2191,239.856,750.737,0.0520017,424.381,0.0415337,0.0379697,-0.0179271,0.125938,-0.106025,0.249713,-5.18174e-05,-8.819e-05,0.19739,-0.01776736549257374,0.28365695427003823,-5.1816057501707924e-05,0.1342118449686367,-8.818611137628718e-05,-0.10059783725921001
230,0.2201,239.923,751.223,-0.000763199,424.647,0.0547609,0.0300329,-0.0180063,0.126459,-0.106466,0.25075,-5.15317e-05,-8.8147e-05,0.198224,-0.01784515523671215,0.2849887969727056,-5.15303722647964e-05,0.13480292330240107,-8.814311516736062e-05,-0.10099438616751766
231,0.2211,240.188,751.744,0.0553462,424.955,0.0407767,0.0391773,-0.0180845,0.126979,-0.106906,0.251786,-5.16257e-05,-8.78648e-05,0.199057,-0.01792195674259467,0.28632073519123624,-5.162436741645848e-05,0.13539317427447073,-8.786094000146072e-05,-0.10138986162662256
232,0.2221,240.242,752.223,-0.00456855,425.216,0.0556821,0.0300645,-0.0181635,0.127499,-0.107346,0.252822,-5.13165e-05,-8.7837e-05,0.19989,-0.017999537843518154,0.2876540540127901,-5.1315183330902236e-05,0.13598373225686156,-8.783314244364959e-05,-0.1017851631148019
233,0.2231,240.519,752.742,0.0588608,425.525,0.039919,0.0403427,-0.0182416,0.128018,-0.107785,0.253857,-5.14351e-05,-8.7538e-05,0.200722,-0.01807622908478068,0.2889874658803029,-5.14337772379303e-05,0.13657346083523159,-8.753416866102981e-05,-0.10217939288842781
234,0.2241,240.558,753.214,-0.00856084,425.781,0.0566566,0.0300209,-0.0183206,0.128537,-0.108224,0.25489,-5.11002e-05,-8.75259e-05,0.201553,-0.01815379799867045,0.2903196779016004,-5.109889440702009e-05,0.13716349556217233,-8.752206972018062e-05,-0.10257344963316573
235,0.2251,240.847,753.732,0.0625778,426.09,0.0389729,0.0414841,-0.0183985,0.129056,-0.108663,0.255923,-5.12455e-05,-8.72095e-05,0.202383,-0.018230280838761104,0.2916532668089553,-5.124418697177724e-05,0.13775383659661622,-8.72056973620916e-05,-0.10296733342495867
236,0.2261,240.87,754.197,-0.0127576,426.34,0.0576821,0.0299048,-0.0184775,0.129574,-0.109101,0.256955,-5.08831e-05,-8.7214e-05,0.203213,-0.018307837583043107,0.29298694103783807,-5.088180547707655e-05,0.13834334575366336,-8.721019696966703e-05,-0.10336014770031232
237,0.2271,241.173,754.714,0.0665029,426.65,0.0379484,0.0426123,-0.0185552,0.130091,-0.109539,0.257987,-5.10568e-05,-8.68795e-05,0.204042,-0.01838411210075952,0.29432199232896683,-5.1055496623764185e-05,0.13893202142296635,-8.687572608556682e-05,-0.10375278996068737
238,0.2281,241.18,755.172,-0.0171556,426.895,0.0587557,0.029722,-0.0186341,0.130609,-0.109977,0.259017,-5.06653e-05,-8.69014e-05,0.204871,-0.018461558539012546,0.2956558307899506,-5.0664016535417744e-05,0.13952214103784844,-8.689762418268021e-05,-0.10414526028141002
239,0.2291,241.497,755.687,0.0706255,427.206,0.0368549,0.0437327,-0.0187117,0.131125,-0.110414,0.260047,-5.0869e-05,-8.65481e-05,0.205699,-0.018537722966851966,0.2969910438123269,-5.086770619433523e-05,0.14011028619102373,-8.654435482124967e-05,-0.10453666327488409
240,0.2301,241.486,756.138,-0.0217381,427.445,0.0598736,0.0294805,-0.0187905,0.131642,-0.110851,0.261076,-5.04468e-05,-8.65882e-05,0.206526,-0.018615059147196633,0.2983263344856393,-5.044552758159959e-05,0.1406998756047153,-8.658445135001358e-05,-0.10492789526261759
241,0.2311,241.818,756.653,0.0749235,427.758,0.0357022,0.0448477,-0.0188679,0.132158,-0.111287,0.262104,-5.0682e-05,-8.62154e-05,0.207352,-0.01869101540207363,0.29966170021787764,-5.068071568914423e-05,0.14128862862574354,-8.621168355915643e-05,-0.10531806163783253
242,0.2321,241.789,757.096,-0.0264787,427.991,0.0610304,0.0291888,-0.0189468,0.132674,-0.111724,0.263131,-5.02278e-05,-8.62745e-05,0.208179,-0.01876843762661151,0.3009971384141381,-5.022653860520254e-05,0.14187768552172364,-8.627077846234954e-05,-0.10570895222908194
243,0.2331,242.137,757.61,0.0793666,428.304,0.0345007,0.0459571,-0.019024,0.133189,-0.112159,0.264158,-5.04957e-05,-8.58817e-05,0.209004,-0.018844185779310463,0.3023339488099299,-5.049442511362301e-05,0.14246590398302028,-8.587801227233349e-05,-0.10609788423601785
244,0.2341,242.09,758.047,-0.0313437,428.532,0.062219,0.0288563,-0.0191028,0.133704,-0.112595,0.265183,-5.00084e-05,-8.59602e-05,0.209828,-0.018921497811336896,0.30366952547356774,-5.0007149600794776e-05,0.14305442545484293,-8.595650552789547e-05,-0.10648754060722931
245,0.2351,242.454,758.56,0.0839176,428.847,0.0332615,0.0470588,-0.0191798,0.134218,-0.11303,0.266208,-5.03101e-05,-8.55471e-05,0.210652,-0.018997037947672935,0.3050064718051204,-5.0308834468104635e-05,0.14364210645060393,-8.55434409511302e-05,-0.10687613400187423
246,0.2361,242.388,758.99,-0.0362927,429.068,0.0634306,0.0284927,-0.0192585,0.134732,-0.113465,0.267232,-4.97888e-05,-8.56453e-05,0.211476,-0.019074239842851948,0.30634348286508195,-4.978756055828981e-05,0.14423008959204164,-8.564163254598522e-05,-0.10726455839515281
247,0.2371,242.768,759.503,0.0885334,429.385,0.031997,0.0481492,-0.0193354,0.135245,-0.113899,0.268255,-5.01248e-05,-8.52117e-05,0.212298,-0.019149670133476238,0.30768055604437694,-5.012354377320616e-05,0.14481723021669635,-8.520806958622895e-05,-0.10765192151293268
248,0.2381,242.683,759.925,-0.0412804,429.601,0.064655,0.0281077,-0.0194141,0.135758,-0.114333,0.269277,-4.95692e-05,-8.53299e-05,0.21312,-0.019226860016974934,0.3090176887310727,-4.9567971467490146e-05,0.145404672121763,-8.532625950763428e-05,-0.10803911655159504
249,0.2391,243.08,760.438,0.0931663,429.919,0.0307203,0.0492234,-0.0194908,0.136271,-0.114767,0.270299,-4.99399e-05,-8.48757e-05,0.213941,-0.01930208243199516,0.31035618866591896,-4.993865302393985e-05,0.1459924154618386,-8.487209815966068e-05,-0.10842614358407077
250,0.2401,242.976,760.853,-0.0462567,430.129,0.0658803,0.0277116,-0.0195694,0.136783,-0.1152,0.271319,-4.93497e-05,-8.50139e-05,0.214762,-0.01937916225903913,0.31169343385746684,-4.9348482323630094e-05,0.14657931381171152,-8.501028642082797e-05,-0.1088121114958156
251,0.2411,243.389,761.366,0.0977644,430.449,0.0294455,0.0502755,-0.0196459,0.137295,-0.115633,0.27234,-4.9755e-05,-8.45393e-05,0.215582,-0.019454176883780372,0.31303335676768174,-4.975376224047867e-05,0.14716651273047887,-8.453572665412246e-05,-0.10919791231963172
252,0.2421,243.267,761.774,-0.0511683,430.653,0.0670938,0.0273145,-0.0197246,0.137807,-0.116066,0.273358,-4.91306e-05,-8.46971e-05,0.216401,-0.019531342803540852,0.3143707053197904,-4.912939311185749e-05,0.1477540123720711,-8.469351330187003e-05,-0.1095835461278527
253,0.2431,243.697,762.286,0.102273,430.974,0.0281872,0.0512988,-0.0198009,0.138317,-0.116497,0.274377,-4.95701e-05,-8.42026e-05,0.21722,-0.01960614970816521,0.3157107316959973,-4.956887142293365e-05,0.1483395162091683,-8.419905506062975e-05,-0.10996723292902644
254,0.2441,243.555,762.687,-0.0559592,431.172,0.0682816,0.0269268,-0.0198795,0.138828,-0.11693,0.275394,-4.89119e-05,-8.43795e-05,0.218038,-0.019683205636460532,0.3170494901534193,-4.89107038325054e-05,0.14892646765527373,-8.437594015009431e-05,-0.1103525336935327
255,0.2451,244.001,763.199,0.106635,431.495,0.0269605,0.052286,-0.0199556,0.139338,-0.117361,0.276411,-4.93849e-05,-8.38659e-05,0.218855,-0.019757804905973342,0.3183896108207587,-4.93836805859349e-05,0.14951256959706916,-8.386238335367224e-05,-0.11073588913247923
256,0.2461,243.842,763.593,-0.0605719,431.688,0.0694293,0.0265586,-0.0200342,0.139848,-0.117792,0.277426,-4.8694e-05,-8.40611e-05,0.219672,-0.019834848914638492,0.319728455624537,-4.869281446640006e-05,0.15009897052709076,-8.405756696472366e-05,-0.11111907938083287
257,0.2471,244.303,764.105,0.110793,432.013,0.0257809,0.0532296,-0.0201102,0.140357,-0.118223,0.278442,-4.91991e-05,-8.35291e-05,0.220488,-0.019909338635475726,0.32106998111500085,-4.9197889744112544e-05,0.15068451991276555,-8.352561154190141e-05,-0.11150210450977516
258,0.2481,244.126,764.492,-0.0649489,432.2,0.0705222,0.0262196,-0.0201887,0.140866,-0.118654,0.279456,-4.8477e-05,-8.37417e-05,0.221304,-0.019986272732690047,0.3224102254649006,-4.8475825009219875e-05,0.15127036741894306,-8.373819376172875e-05,-0.11188496459045738
259,0.2491,244.602,765.004,0.11469,432.526,0.0246636,0.0541218,-0.0202645,0.141374,-0.119083,0.28047,-4.90127e-05,-8.31926e-05,0.222118,-0.020060554957885057,0.32375182951182113,-4.901149889724454e-05,0.1518553613414677,-8.318913959159957e-05,-0.1122658842275438
260,0.2501,244.409,765.385,-0.0690335,432.708,0.0715457,0.0259195,-0.020343,0.141883,-0.119514,0.281482,-4.82612e-05,-8.34212e-05,0.222933,-0.020137477185083963,0.3250921444482553,-4.826003544700086e-05,0.1524418049576295,-8.341772054842878e-05,-0.11264841519009772
261,0.2511,244.898,765.895,0.118269,433.035,0.0236235,0.0549552,-0.0204186,0.14239,-0.119942,0.282494,-4.88253e-05,-8.28564e-05,0.223746,-0.020211551991745735,0.3264338164699745,-4.8824108064393634e-05,0.1530262410947847,-8.285296750332183e-05,-0.11302812040568389
262,0.2521,244.69,766.271,-0.0727716,433.212,0.0724855,0.0256671,-0.020497,0.142898,-0.120372,0.283504,-4.80467e-05,-8.30997e-05,0.224559,-0.02028836439498405,0.32777419140000585,-4.8045545775754483e-05,0.15361212722773887,-8.309624731561716e-05,-0.11340943632511136
263,0.2531,245.192,766.78,0.12148,433.54,0.0226749,0.0557227,-0.0205725,0.143404,-0.1208,0.284515,-4.86369e-05,-8.25206e-05,0.225371,-0.020362329831241865,0.32911724990919033,-4.863571724511573e-05,0.15419600267214584,-8.251719526897183e-05,-0.11378881589334522
264,0.2541,244.97,767.15,-0.0761123,433.713,0.0733281,0.0254706,-0.0206509,0.143911,-0.121229,0.285524,-4.78337e-05,-8.27769e-05,0.226183,-0.02043913041396095,0.33045900601647005,-4.7832555986837555e-05,0.1547813284130377,-8.277347408691682e-05,-0.11416891895339099
265,0.2551,245.482,767.659,0.124273,434.041,0.021831,0.0564174,-0.0207262,0.144416,-0.121657,0.286533,-4.84471e-05,-8.21855e-05,0.226993,-0.020512888570411336,0.3318021166389,-4.844592645825152e-05,0.15536464025773045,-8.218212286426052e-05,-0.11454797353261259
266,0.2561,245.249,768.023,-0.0790097,434.21,0.0740611,0.0253372,-0.0208045,0.144923,-0.122085,0.287541,-4.76224e-05,-8.24529e-05,0.227804,-0.020589579408750724,0.33314524999795925,-4.762126607149586e-05,0.15595055864810226,-8.244950085301017e-05,-0.11492686591118773
267,0.2571,245.77,768.53,0.126605,434.538,0.0211037,0.0570338,-0.0208796,0.145427,-0.122511,0.288548,-4.82559e-05,-8.18511e-05,0.228613,-0.02066313036946399,0.3344884034289579,-4.825473570280181e-05,0.1565333045692976,-8.184775029007607e-05,-0.11530382676794626
268,0.2581,245.526,768.889,-0.0814236,434.704,0.0746734,0.0252733,-0.0209579,0.145933,-0.122939,0.289554,-4.7413e-05,-8.21275e-05,0.229423,-0.02073980944433107,0.33583157426445953,-4.74118760215303e-05,0.15711865850346562,-8.212412762920174e-05,-0.11568239571055694
269,0.2591,246.054,769.395,0.128439,435.032,0.0205034,0.0575668,-0.0210329,0.146436,-0.123365,0.29056,-4.80631e-05,-8.15175e-05,0.230231,-0.020813251204522376,0.3371760970097184,-4.8061944987742855e-05,0.15770083559395642,-8.151417753887724e-05,-0.11605903478016644
270,0.2601,245.802,769.749,-0.083321,435.194,0.0751556,0.0252838,-0.0211111,0.146941,-0.123792,0.291564,-4.72055e-05,-8.18007e-05,0.231039,-0.020889820614375165,0.33851929598417074,-4.7204385837940066e-05,0.15828562216211184,-8.17973544139372e-05,-0.11643639699974784
271,0.2611,246.336,770.253,0.129746,435.521,0.0200385,0.0580127,-0.021186,0.147444,-0.124217,0.292568,-4.78685e-05,-8.11848e-05,0.231846,-0.02096315322047082,0.3398638442076032,-4.7867354321606825e-05,0.15886838638297407,-8.118150460334483e-05,-0.11681183174548837
272,0.2621,246.077,770.603,-0.084676,435.681,0.0755003,0.0253727,-0.0212641,0.147948,-0.124643,0.293571,-4.70001e-05,-8.14726e-05,0.232653,-0.02103961301241053,0.3412084018262693,-4.699899551263709e-05,0.15945260325999722,-8.146928119789898e-05,-0.1171879897778153
273,0.2631,246.614,771.105,0.130504,436.007,0.0197156,0.0583688,-0.0213388,0.14845,-0.125068,0.294574,-4.76722e-05,-8.0853e-05,0.233458,-0.021112738622042992,0.3425543087127718,-4.767106369873986e-05,0.1600347945846301,-8.0849731484256e-05,-0.11756310516449375
274,0.2641,246.351,771.451,-0.0854717,436.164,0.075702,0.0255424,-0.0214169,0.148954,-0.125493,0.295575,-4.67968e-05,-8.1143e-05,0.234264,-0.021189186731819132,0.34389887842066047,-4.6795705046842606e-05,0.16061959947955518,-8.113970799583647e-05,-0.11793806116100569
275,0.2651,246.89,771.95,0.130701,436.489,0.0195389,0.0586339,-0.0214915,0.149455,-0.125917,0.296576,-4.7474e-05,-8.05222e-05,0.235068,-0.02126220329493722,0.3452447947166817,-4.7472873127452075e-05,0.16120121558156253,-8.051895817462462e-05,-0.11831197614749456
276,0.2661,246.625,772.293,-0.0856993,436.644,0.0757577,0.0257939,-0.0215694,0.149957,-0.126342,0.297575,-4.65957e-05,-8.0812e-05,0.235872,-0.02133844399968654,0.34658936576802013,-4.659461443723423e-05,0.16178428492994623,-8.080873479832107e-05,-0.11868661394146163
277,0.2671,247.162,772.789,0.130332,436.967,0.0195106,0.0588079,-0.0216439,0.150457,-0.126765,0.298575,-4.72739e-05,-8.01924e-05,0.236675,-0.02141135156976781,0.3479366286529586,-4.727278260674428e-05,0.16236532231965373,-8.018918467544989e-05,-0.11905933066861907
278,0.2681,246.897,773.129,-0.0853592,437.121,0.0756664,0.0261271,-0.0217218,0.150959,-0.12719,0.299573,-4.63968e-05,-8.04797e-05,0.237479,-0.02148758065631906,0.34928254090685784,-4.639572368514422e-05,0.1629489761963243,-8.047646159581312e-05,-0.1194336509044005
279,0.2691,247.432,773.622,0.129403,437.442,0.0196302,0.0588921,-0.0217962,0.151459,-0.127612,0.300571,-4.70719e-05,-7.98636e-05,0.23828,-0.021560379272176133,0.3506297970516765,-4.7070792135506245e-05,0.1635305960772755,-7.986041098761998e-05,-0.11980517150735814
280,0.2701,247.168,773.96,-0.0844608,437.595,0.0754296,0.0265403,-0.0218739,0.15196,-0.128036,0.301567,-4.62001e-05,-8.0146e-05,0.239082,-0.021636401077221312,0.35197569447519417,-4.6199032791793826e-05,0.16411367095397078,-8.014278839518774e-05,-0.12017829500686728
281,0.2711,247.698,774.449,0.127926,437.913,0.0198953,0.0588893,-0.0219482,0.152458,-0.128457,0.302564,-4.6868e-05,-7.95358e-05,0.239883,-0.021709090792164987,0.35332428640395297,-4.6866901712405706e-05,0.1646935439384949,-7.95326371121341e-05,-0.12054862198537064
282,0.2721,247.439,774.784,-0.0830216,438.065,0.0750511,0.0270304,-0.0220258,0.152959,-0.12888,0.303559,-4.60055e-05,-7.98111e-05,0.240683,-0.021785003221279187,0.3546715142036063,-4.600444176316998e-05,0.1652772015980435,-7.980791517891994e-05,-0.12092055124968559
283,0.2731,247.962,775.269,0.125924,438.38,0.020301,0.0588032,-0.0221,0.153457,-0.129301,0.304554,-4.66624e-05,-7.92089e-05,0.241482,-0.02185758408125693,0.3560200831620359,-4.6661311327134136e-05,0.16585765416513243,-7.920576305786575e-05,-0.12129056580408071
284,0.2741,247.708,775.603,-0.0810678,438.533,0.0745368,0.0275934,-0.0221775,0.153956,-0.129723,0.305547,-4.58129e-05,-7.94749e-05,0.242282,-0.02193338718108262,0.3573672798770846,-4.5811850605148585e-05,0.16643956230856793,-7.947174195377382e-05,-0.1216613029542708
285,0.2751,248.223,776.084,0.123425,438.844,0.0208404,0.0586388,-0.0222517,0.154453,-0.130144,0.306541,-4.64551e-05,-7.88829e-05,0.24308,-0.022005957031378975,0.35871717373938683,-4.645402097858131e-05,0.16701942685543925,-7.887978882581415e-05,-0.12203100571783476
286,0.2761,247.977,776.417,-0.0786324,438.997,0.0738946,0.028224,-0.022329,0.154952,-0.130565,0.307532,-4.56222e-05,-7.91377e-05,0.243878,-0.022081553049076774,0.36006432986417103,-4.5621159323272487e-05,0.1676019148681125,-7.913456869479418e-05,-0.12240055286929397
287,0.2771,248.481,776.893,0.120468,439.305,0.0215047,0.0584023,-0.0224031,0.155448,-0.130985,0.308524,-4.62462e-05,-7.85577e-05,0.244675,-0.02215401412127993,0.3614141830959039,-4.624513066098235e-05,0.16818118906601232,-7.855461442463074e-05,-0.12276906724365311
288,0.2781,248.245,777.225,-0.0757553,439.458,0.0731342,0.028916,-0.0224803,0.155946,-0.131406,0.309514,-4.54333e-05,-7.87994e-05,0.245472,-0.02222950091756193,0.36276265051840695,-4.543226792330657e-05,0.16876308817902008,-7.879629540885613e-05,-0.12313830373660806
289,0.2791,248.736,777.696,0.117093,439.762,0.0222833,0.0581005,-0.0225543,0.156441,-0.131825,0.310505,-4.60358e-05,-7.82333e-05,0.246267,-0.022301853257424398,0.36411381769782847,-4.60347403687944e-05,0.16934176911938548,-7.823023985520372e-05,-0.12350563182673346
290,0.2801,248.511,778.027,-0.0724819,439.917,0.0722668,0.0296623,-0.0226313,0.156938,-0.132245,0.311493,-4.5246e-05,-7.84603e-05,0.247063,-0.022377133116411874,0.3654622281547928,-4.524497641522629e-05,0.1699230764215367,-7.84572220711155e-05,-0.12387368216538486
291,0.2811,248.989,778.493,0.113349,440.216,0.0231645,0.0577409,-0.0227053,0.157433,-0.132664,0.312482,-4.58243e-05,-7.79095e-05,0.247857,-0.02244947453189583,0.3668133383122816,-4.5823250082843714e-05,0.17050233169821882,-7.790646513372579e-05,-0.12424070219649153
292,0.2821,248.777,778.824,-0.0688617,440.372,0.071305,0.0304553,-0.0227822,0.157929,-0.133083,0.313469,-4.50602e-05,-7.81204e-05,0.248652,-0.022524645276952193,0.3681630490498744,-4.505918480446347e-05,0.17108304485969983,-7.811734868101716e-05,-0.12460756847841781
293,0.2831,249.24,779.285,0.109287,440.667,0.0241351,0.0573318,-0.0228561,0.158424,-0.133501,0.314457,-4.56116e-05,-7.75863e-05,0.249445,-0.022596878036632906,0.3695154621243819,-4.5610559806785744e-05,0.17166287446289274,-7.758329026086308e-05,-0.12497340604941476
294,0.2841,249.041,779.616,-0.0649479,440.824,0.0702622,0.031287,-0.0229328,0.158919,-0.13392,0.315442,-4.48756e-05,-7.77798e-05,0.250238,-0.022671841981183438,0.3708650994418323,-4.4874593105315164e-05,0.1722429911527874,-7.777677522979864e-05,-0.12533996539273484
295,0.2851,249.488,780.071,0.104961,441.115,0.0251813,0.0568815,-0.0230067,0.159412,-0.134337,0.316428,-4.53981e-05,-7.72635e-05,0.25103,-0.022744063863429642,0.3722174390237343,-4.539706952189082e-05,0.17282104942708232,-7.726051525269728e-05,-0.12570462259085613
296,0.2861,249.304,780.402,-0.0607951,441.274,0.0691525,0.032149,-0.0230833,0.159907,-0.134755,0.317412,-4.46921e-05,-7.74388e-05,0.251822,-0.02281891880115694,0.3735683655305715,-4.4691101322991145e-05,0.17340173955549854,-7.743580169350395e-05,-0.12607000168906157
297,0.2871,249.734,780.852,0.100427,441.559,0.0262887,0.0563987,-0.0231571,0.160399,-0.135172,0.318396,-4.51838e-05,-7.6941e-05,0.252612,-0.022891032103935838,0.3749206220033272,-4.518277922749281e-05,0.173979195253813,-7.693804011721372e-05,-0.1264343545255111
298,0.2881,249.566,781.184,-0.0564593,441.72,0.0679904,0.033033,-0.0232335,0.160893,-0.135589,0.319379,-4.45094e-05,-7.70974e-05,0.253403,-0.0229656803774827,0.3762728334778107,-4.450840947134438e-05,0.17455928424645273,-7.70944280718e-05,-0.12679855545850183
299,0.2891,249.978,781.627,0.0957391,442.0,0.0274429,0.055892,-0.0233073,0.161385,-0.136005,0.320362,-4.49691e-05,-7.66188e-05,0.254193,-0.023037782849656963,0.3776263748297011,-4.49680889051951e-05,0.17513730959687823,-7.661586485474547e-05,-0.12716173171353262
300,0.2901,249.826,781.96,-0.0519957,442.164,0.0667902,0.0339306,-0.0233835,0.161878,-0.136422,0.321343,-4.43273e-05,-7.67557e-05,0.254982,-0.023112224534339587,0.37897848940717416,-4.4326317559795214e-05,0.17571679512195448,-7.675275435659046e-05,-0.12752562939346868
301,0.2911,250.221,782.398,0.0909529,442.439,0.0286294,0.0553696,-0.0234573,0.162369,-0.136837,0.322324,-4.4754e-05,-7.62968e-05,0.25577,-0.023184316191954046,0.3803319310598716,-4.4752998554664636e-05,0.17629421381304766,-7.629388947316684e-05,-0.1278876311367132
302,0.2921,250.085,782.731,-0.0474581,442.604,0.0655662,0.0348338,-0.0235333,0.162861,-0.137253,0.323304,-4.41457e-05,-7.64138e-05,0.256559,-0.023258551362951185,0.38168531940428285,-4.414472559288729e-05,0.17687309295883646,-7.6410880540001e-05,-0.12825035443048416
303,0.2931,250.461,783.163,0.086121,442.874,0.0298342,0.0548398,-0.0236071,0.163352,-0.137668,0.324283,-4.45389e-05,-7.59747e-05,0.257346,-0.023330632222044234,0.3830386516800377,-4.453790815794889e-05,0.17745107953157113,-7.597181399554565e-05,-0.12861205547523769
304,0.2941,250.342,783.497,-0.0428982,443.042,0.0643321,0.0357351,-0.023683,0.163843,-0.138083,0.325261,-4.39644e-05,-7.6072e-05,0.258133,-0.023404758613926435,0.3843919251242298,-4.3963433579929934e-05,0.1780293499653951,-7.606910659874178e-05,-0.12897360644520017
305,0.2951,250.7,783.923,0.0812931,443.307,0.0310439,0.0543099,-0.0237567,0.164333,-0.138497,0.326239,-4.43238e-05,-7.56526e-05,0.258919,-0.023476731031000453,0.3857465227172534,-4.4322817714936846e-05,0.17860672579240333,-7.564973841422962e-05,-0.12933413673721195
306,0.2961,250.597,784.257,-0.038364,443.477,0.0631006,0.0366273,-0.0238324,0.164823,-0.138911,0.327216,-4.37831e-05,-7.57303e-05,0.259705,-0.02355065104455356,0.3871010586530075,-4.3782141534109975e-05,0.1791843846028922,-7.572743253325687e-05,-0.12969451780057528
307,0.2971,250.938,784.678,0.0765155,443.737,0.032246,0.053787,-0.0239061,0.165312,-0.139325,0.328193,-4.41089e-05,-7.53304e-05,0.260489,-0.023622612709751634,0.3884569186170532,-4.4107927216763265e-05,0.17976114677382093,-7.532756273664898e-05,-0.1300547496970581
308,0.2981,250.851,785.013,-0.0338996,443.909,0.0618836,0.037504,-0.0239816,0.165802,-0.139739,0.329168,-4.36018e-05,-7.53887e-05,0.261274,-0.02369632641976449,0.3898113242781702,-4.360084945531639e-05,0.18033937138920142,-7.538585834332423e-05,-0.13041483248840258
309,0.2991,251.174,785.428,0.0718301,444.164,0.0334291,0.0532773,-0.0240553,0.16629,-0.140152,0.330143,-4.38945e-05,-7.50079e-05,0.262058,-0.023768277349083045,0.39116705112878214,-4.389353665057438e-05,0.1809155175706738,-7.500508697777519e-05,-0.13077389701065723
310,0.3001,251.103,785.764,-0.0295449,444.338,0.0606919,0.0383594,-0.0241306,0.166779,-0.140565,0.331117,-4.34202e-05,-7.50474e-05,0.262841,-0.02384178483020727,0.3925227079342726,-4.341925735673602e-05,0.1814931264726325,-7.504458401430547e-05,-0.1311328132698827
311,0.3011,251.408,786.173,0.0672741,444.588,0.0345829,0.0527862,-0.0242043,0.167267,-0.140977,0.33209,-4.36806e-05,-7.46852e-05,0.263623,-0.023913725039635958,0.3938782919137511,-4.367964601648122e-05,0.18206983582398806,-7.468241112984497e-05,-0.13149071281844582
312,0.3021,251.353,786.51,-0.0253342,444.764,0.059535,0.0391887,-0.0242794,0.167755,-0.14139,0.333063,-4.32383e-05,-7.47065e-05,0.264406,-0.023987026366386277,0.3952351955183351,-4.323736523814681e-05,0.182646826678188,-7.470370953888139e-05,-0.13184933309386748
313,0.3031,251.641,786.913,0.0628795,445.01,0.0356985,0.0523186,-0.024353,0.168242,-0.141801,0.334035,-4.34673e-05,-7.43621e-05,0.265187,-0.024058858277798856,0.39659202343992317,-4.3466355310606275e-05,0.18322291594913187,-7.435933520760774e-05,-0.13220606970357096
314,0.3041,251.602,787.251,-0.0212973,445.188,0.058421,0.0399875,-0.024428,0.168729,-0.142213,0.335006,-4.30559e-05,-7.4366e-05,0.265968,-0.024132051118662234,0.39794877288994135,-4.305497310808093e-05,0.18379928584387706,-7.43632349176071e-05,-0.1325635271615604
315,0.3051,251.874,787.649,0.0586731,445.429,0.0367683,0.0518783,-0.0245016,0.169215,-0.142624,0.335976,-4.32548e-05,-7.40387e-05,0.266748,-0.024203872356645895,0.39930544107734134,-4.325386452463942e-05,0.1843747521237762,-7.403595920307815e-05,-0.13291997029781488
316,0.3061,251.848,787.988,-0.0174581,445.609,0.0573567,0.0407526,-0.0245764,0.169702,-0.143035,0.336946,-4.28729e-05,-7.4026e-05,0.267528,-0.02427685917725253,0.4006634258713342,-4.287198097030487e-05,0.1849516830993505,-7.402326014327443e-05,-0.13327626696604167
317,0.3071,252.105,788.38,0.0546764,445.845,0.037786,0.0514683,-0.02465,0.170187,-0.143446,0.337915,-4.30432e-05,-7.37148e-05,0.268306,-0.024348669757755292,0.40202132652762024,-4.3042273654703145e-05,0.18552652405331704,-7.371208313089461e-05,-0.13363241722642671
318,0.3081,252.093,788.719,-0.0138357,446.027,0.0563475,0.0414813,-0.0247246,0.170673,-0.143856,0.338883,-4.26892e-05,-7.36865e-05,0.269085,-0.024421450632231,0.403379140247514,-4.26882888290292e-05,0.1861028299750025,-7.36837852165495e-05,-0.13398755512711935
319,0.3091,252.334,789.107,0.0509058,446.259,0.0387468,0.051091,-0.0247981,0.171158,-0.144266,0.33985,-4.28325e-05,-7.33905e-05,0.269863,-0.02449315302051447,0.4047368642298794,-4.283158270157461e-05,0.18667822937061462,-7.338780698318281e-05,-0.13434254745111796
320,0.3101,252.335,789.446,-0.0104438,446.442,0.0553974,0.0421719,-0.0248726,0.171643,-0.144676,0.340817,-4.25049e-05,-7.33476e-05,0.27064,-0.024565825573528266,0.4060959017663368,-4.250399667948823e-05,0.18725390790261898,-7.334491013055722e-05,-0.1346973942580968
321,0.3111,252.563,789.829,0.0473727,446.67,0.0396472,0.0507479,-0.0249461,0.172127,-0.145085,0.341783,-4.26227e-05,-7.30658e-05,0.271417,-0.024637517350643456,0.40745484667215703,-4.262179166558688e-05,0.1878286778771574,-7.306313075949866e-05,-0.13505123065936864
322,0.3121,252.576,790.169,-0.00729145,446.855,0.0545092,0.0428231,-0.0250204,0.172611,-0.145494,0.342748,-4.23198e-05,-7.30092e-05,0.272193,-0.024709984090931614,0.4088136961386135,-4.2318904529881074e-05,0.18840372610769607,-7.300653489317188e-05,-0.13540492237114343
323,0.3131,252.791,790.547,0.0440837,447.079,0.0404849,0.0504399,-0.0250938,0.173094,-0.145903,0.343713,-4.24139e-05,-7.27406e-05,0.272968,-0.024781567750946865,0.4101738575277063,-4.2413000543306545e-05,0.1889778637504851,-7.273795446671727e-05,-0.13575846945258696
324,0.3141,252.815,790.886,-0.00438317,447.265,0.0536845,0.0434346,-0.025168,0.173578,-0.146311,0.344676,-4.2134e-05,-7.26715e-05,0.273743,-0.024853926274085336,0.41153250903821004,-4.213311237544204e-05,0.18955346832161002,-7.266885949053226e-05,-0.13611100807428111
325,0.3151,253.018,791.26,0.0410413,447.486,0.0412588,0.0501671,-0.0252414,0.17406,-0.146719,0.34564,-4.22061e-05,-7.2415e-05,0.274518,-0.02492549936913213,0.4128938824534827,-4.220520933506666e-05,0.19012697129645484,-7.241237809718637e-05,-0.13646340288955605
326,0.3161,253.052,791.599,-0.00171947,447.672,0.0529238,0.0440066,-0.0253154,0.174543,-0.147127,0.346602,-4.19474e-05,-7.23343e-05,0.275291,-0.024997652212490618,0.4142537403551809,-4.1946520220159655e-05,0.19070194146770936,-7.23316839376098e-05,-0.13681565395707285
327,0.3171,253.244,791.969,0.0382443,447.89,0.0419688,0.0499292,-0.0253888,0.175025,-0.147535,0.347563,-4.19994e-05,-7.20889e-05,0.276064,-0.025069214758440705,0.41561349145541926,-4.199851803754484e-05,0.19127599814004093,-7.208630165767005e-05,-0.13716776133546882
328,0.3181,253.287,792.308,0.00070272,448.077,0.0522266,0.0445396,-0.0254627,0.175507,-0.147942,0.348524,-4.17601e-05,-7.19977e-05,0.276837,-0.025141259481384792,0.41697454990454563,-4.1759228059157216e-05,0.19185033157438292,-7.199510822775146e-05,-0.13751886260265078
329,0.3191,253.469,792.674,0.0356879,448.291,0.0426158,0.0497254,-0.0255359,0.175988,-0.148348,0.349485,-4.17936e-05,-7.17625e-05,0.277609,-0.025212616529490917,0.4183369169595259,-4.179272665971734e-05,0.19242374947982088,-7.175992513341889e-05,-0.13786895887008277
330,0.3201,253.52,793.012,0.00288956,448.479,0.0515916,0.0450348,-0.0256097,0.176469,-0.148755,0.350444,-4.1572e-05,-7.16618e-05,0.278381,-0.025284553183895775,0.41969775448018654,-4.157113589642325e-05,0.1929974432656152,-7.16592323545262e-05,-0.13821977480793657
331,0.3211,253.693,793.374,0.0333646,448.69,0.0432014,0.0495545,-0.0256829,0.17695,-0.149161,0.351403,-4.15888e-05,-7.14356e-05,0.279151,-0.02535589974328678,0.42105989766999774,-4.158793519781767e-05,0.19357141306449654,-7.143304853829413e-05,-0.13856958656277318
332,0.3221,253.752,793.712,0.00484975,448.879,0.0510166,0.0454936,-0.0257565,0.17743,-0.149567,0.352361,-4.13832e-05,-7.13264e-05,0.279922,-0.025427630909326426,0.4224219253590604,-4.138234372719207e-05,0.1941444648641968,-7.132385633279448e-05,-0.13891925632286417
333,0.3231,253.916,794.07,0.0312647,449.087,0.0437279,0.0494148,-0.0258296,0.17791,-0.149973,0.353318,-4.13849e-05,-7.11084e-05,0.280691,-0.025498869545703018,0.4237838347113121,-4.138404365683357e-05,0.1947177917947871,-7.110587185765738e-05,-0.13926878414584787
334,0.3241,253.981,794.408,0.00659407,449.276,0.0504991,0.0459179,-0.0259031,0.178389,-0.150378,0.354274,-4.11938e-05,-7.09915e-05,0.28146,-0.02557049274660661,0.425145622888329,-4.1192951547031065e-05,0.19529019869756548,-7.098898016311139e-05,-0.13961730970707875
335,0.3251,254.138,794.762,0.0293765,449.482,0.0441982,0.0493046,-0.0259762,0.178869,-0.150783,0.35523,-4.1182e-05,-7.07809e-05,0.282229,-0.025641720940164592,0.42650871355733533,-4.118115203310957e-05,0.1958640757124055,-7.077839509117556e-05,-0.13996569414403692
336,0.3261,254.209,795.099,0.00813487,449.671,0.0500359,0.0463095,-0.0260496,0.179347,-0.151187,0.356185,-4.10037e-05,-7.06572e-05,0.282997,-0.025713236213204982,0.4278716800917144,-4.1002859359817734e-05,0.1964358353802702,-7.065470383882388e-05,-0.1403130778273738
337,0.3271,254.359,795.45,0.027687,449.874,0.0446154,0.0492219,-0.0261225,0.179826,-0.151592,0.35714,-4.09799e-05,-7.04532e-05,0.283764,-0.025784259129468245,0.4292359488808617,-4.0979060335399886e-05,0.1970090654230523,-7.045071823164051e-05,-0.1406611805352972
338,0.3281,254.435,795.786,0.00948566,450.063,0.0496237,0.0466707,-0.0261958,0.180304,-0.151996,0.358094,-4.08131e-05,-7.03234e-05,0.284531,-0.025855666526161003,0.43060009056821835,-4.0812267156797866e-05,0.1975813725268254,-7.032092736769524e-05,-0.1410082832988816
339,0.3291,254.579,796.134,0.0261823,450.264,0.0449832,0.0491645,-0.0262687,0.180782,-0.152399,0.359047,-4.07786e-05,-7.01251e-05,0.285297,-0.025926679059632973,0.4319641023028873,-4.077776856414861e-05,0.19815395325878593,-7.012264129269141e-05,-0.14135438721608873
340,0.3301,254.66,796.469,0.0106606,450.453,0.0492587,0.0470037,-0.0263418,0.181259,-0.152803,0.359999,-4.06219e-05,-6.99901e-05,0.286063,-0.025997881216923147,0.4333279812316424,-4.0621074941737945e-05,0.1987256090235514,-6.998765075005853e-05,-0.14170120998073765
341,0.3311,254.798,796.814,0.024848,450.652,0.0453052,0.0491302,-0.0264147,0.181736,-0.153206,0.36095,-4.05781e-05,-6.97969e-05,0.286828,-0.026068883383322028,0.43469172449893634,-4.057727672002187e-05,0.19929753753316093,-6.979446425303681e-05,-0.1420470347047531
342,0.3321,254.883,797.148,0.0116743,450.84,0.0489372,0.0473106,-0.0264877,0.182213,-0.153609,0.361901,-4.04303e-05,-6.96573e-05,0.287593,-0.026139977759858768,0.43605676530295834,-4.042948270643887e-05,0.19986973891774507,-6.965487398657988e-05,-0.14239272008948356
343,0.3331,255.016,797.49,0.0236695,451.038,0.0455852,0.0491168,-0.0265604,0.182689,-0.154011,0.362851,-4.03783e-05,-6.94685e-05,0.288357,-0.026210774809971693,0.43742166745586686,-4.037748480745229e-05,0.20044101286588312,-6.946608711966284e-05,-0.14273740892890896
344,0.3341,255.104,797.822,0.0125412,451.225,0.0486554,0.0475938,-0.0266333,0.183165,-0.154413,0.363801,-4.02383e-05,-6.93249e-05,0.28912,-0.026281761456993236,0.43878786688192783,-4.023749045045655e-05,0.20101255880514923,-6.932249708468952e-05,-0.14308195923126865
345,0.3351,255.233,798.162,0.0226323,451.421,0.0458269,0.0491223,-0.026706,0.18364,-0.154815,0.36475,-4.01791e-05,-6.91399e-05,0.289883,-0.026352548199806036,0.44015392465949144,-4.0178292830761464e-05,0.201583175281266,-6.913750989223644e-05,-0.14342637105224354
346,0.3361,255.324,798.493,0.0132758,451.608,0.0484095,0.0478555,-0.0267788,0.184115,-0.155217,0.365698,-4.00459e-05,-6.89929e-05,0.290645,-0.026423427154271928,0.4415198379206584,-4.004509817367996e-05,0.20215406286459192,-6.899052004460948e-05,-0.14377064444749166
347,0.3371,255.449,798.83,0.0217223,451.802,0.0460342,0.0491444,-0.0268514,0.18459,-0.155618,0.366645,-3.99806e-05,-6.88113e-05,0.291407,-0.02649410624777837,0.44288560379524156,-3.997980078651597e-05,0.20272522168393325,-6.880893255678533e-05,-0.14411392358700081
348,0.3381,255.542,799.16,0.0138918,451.989,0.0481958,0.0480978,-0.026924,0.185065,-0.156019,0.367592,-3.98532e-05,-6.86613e-05,0.292168,-0.026564780210168837,0.4442526636627171,-3.985240587178751e-05,0.20329665186815782,-6.865894286689489e-05,-0.1444570650991711
349,0.3391,255.664,799.494,0.020926,452.181,0.0462105,0.0491812,-0.0269965,0.185539,-0.15642,0.368538,-3.97827e-05,-6.84826e-05,0.292929,-0.026635351705356025,0.4456195731287802,-3.978190867892639e-05,0.20386714967844277,-6.848025512029565e-05,-0.14480006903918008
350,0.3401,255.759,799.823,0.0144024,452.367,0.0480109,0.0483226,-0.0270691,0.186013,-0.15682,0.369483,-3.96603e-05,-6.83301e-05,0.293689,-0.026706015413698547,0.44698632931597326,-3.965951354067965e-05,0.20443791796878874,-6.83277655518788e-05,-0.14514208060469114
351,0.3411,255.878,800.155,0.0202305,452.558,0.0463593,0.0492308,-0.0271415,0.186486,-0.15722,0.370427,-3.95852e-05,-6.81538e-05,0.294448,-0.026776479347357385,0.4483529293445754,-3.9584416516302845e-05,0.20500775185907893,-6.815147758254536e-05,-0.14548395539293335
352,0.3421,255.975,800.482,0.0148201,452.744,0.0478514,0.0485319,-0.027214,0.186959,-0.15762,0.371371,-3.94672e-05,-6.79993e-05,0.295207,-0.026847035494913518,0.44972082005270964,-3.946642118035637e-05,0.20557785534455353,-6.799698810000532e-05,-0.14582569345860652
353,0.3431,256.091,800.811,0.0196238,452.933,0.0464839,0.0492914,-0.0272863,0.187432,-0.158019,0.372314,-3.93883e-05,-6.78251e-05,0.295965,-0.02691739191083209,0.4510885515700751,-3.9387524291112364e-05,0.20614822855276116,-6.782279992989526e-05,-0.1461664410232567
354,0.3441,256.189,801.137,0.0151563,453.118,0.0477142,0.0487274,-0.0273587,0.187904,-0.158418,0.373257,-3.92739e-05,-6.76688e-05,0.296723,-0.026987840541386587,0.4524575734665799,-3.927312879048461e-05,0.20671766489304266,-6.766651051837158e-05,-0.1465070526567488
355,0.3451,256.303,801.464,0.0190949,453.305,0.0465871,0.0493615,-0.0274309,0.188376,-0.158817,0.374199,-3.91918e-05,-6.74963e-05,0.29748,-0.027058089483282144,0.45382643313246507,-3.919103201144303e-05,0.2072873700707174,-6.749402217598455e-05,-0.14684752841330828
356,0.3461,256.402,801.788,0.0154217,453.489,0.0475965,0.0489108,-0.0275032,0.188848,-0.159215,0.37514,-3.90805e-05,-6.73386e-05,0.298237,-0.02712843064054904,0.45519512767582926,-3.907973636718687e-05,0.20785734421270652,-6.733633280731066e-05,-0.14718701553458136
357,0.3471,256.513,802.113,0.0186335,453.676,0.0466717,0.0494396,-0.0275753,0.189319,-0.159614,0.37608,-3.89957e-05,-6.71677e-05,0.298993,-0.027198572152068,0.45656365420254286,-3.8994939677627904e-05,0.20842637901900796,-6.716544430052096e-05,-0.1475272200400708
358,0.3481,256.613,802.436,0.015626,453.859,0.0474957,0.0490834,-0.0276475,0.18979,-0.160012,0.37702,-3.8887e-05,-6.70087e-05,0.299748,-0.027268805879690605,0.4579334677489961,-3.8886243910463136e-05,0.20899568190383078,-6.700645496715563e-05,-0.14786643669790211
359,0.3491,256.723,802.759,0.0182306,454.044,0.0467402,0.0495243,-0.0277195,0.190261,-0.160409,0.377959,-3.88e-05,-6.68391e-05,0.300503,-0.02733884000440845,0.45930311022171644,-3.8799247289778016e-05,0.2095652529934695,-6.68368663171437e-05,-0.1482046665794593
360,0.3501,256.823,803.08,0.0157777,454.227,0.0474094,0.0492467,-0.0277916,0.190731,-0.160806,0.378897,-3.86935e-05,-6.66792e-05,0.301258,-0.02740896634595913,0.4606725787194199,-3.8692751416213866e-05,0.21013388227979113,-6.667697699158648e-05,-0.14854276221040386
361,0.3511,256.932,803.401,0.0178778,454.41,0.0467949,0.0496144,-0.0278635,0.191201,-0.161203,0.379835,-3.86046e-05,-6.65106e-05,0.302012,-0.027478893127380943,0.4620433323812221,-3.8603854851992914e-05,0.21070277888469247,-6.650838821908867e-05,-0.14888072364402294
362,0.3521,257.032,803.72,0.0158848,454.592,0.0473354,0.0494017,-0.0279355,0.19167,-0.1616,0.380772,-3.84999e-05,-6.63499e-05,0.302765,-0.02754891212636157,0.46341390899853163,-3.8499158888316565e-05,0.2112707316625051,-6.634769889402037e-05,-0.14921855093358227
363,0.3531,257.139,804.039,0.0175678,454.775,0.0468378,0.049709,-0.0280073,0.19214,-0.161997,0.381708,-3.84095e-05,-6.61822e-05,0.303518,-0.0276187316079215,0.46478430566294326,-3.8408762364605664e-05,0.21184016271220085,-6.61800100064669e-05,-0.14955624413232638
364,0.3541,257.24,804.357,0.015954,454.956,0.047272,0.0495495,-0.0280792,0.192608,-0.162393,0.382643,-3.83064e-05,-6.60208e-05,0.30427,-0.027688643307763217,0.466154519463867,-3.830566631923826e-05,0.21240743664009543,-6.601862067490138e-05,-0.14989295318685714
365,0.3551,257.346,804.674,0.0172942,455.137,0.0468705,0.0498071,-0.028151,0.193077,-0.162788,0.383578,-3.82147e-05,-6.58539e-05,0.305022,-0.02775845275698452,0.46752601501381896,-3.821396982761627e-05,0.2129761890899038,-6.585173167950042e-05,-0.1502286791601034
366,0.3561,257.446,804.99,0.0159915,455.317,0.0472174,0.0496911,-0.0282227,0.193545,-0.163184,0.384512,-3.81129e-05,-6.56921e-05,0.305773,-0.027828159976888145,0.468897324613736,-3.811217371263442e-05,0.21354399480257102,-6.568994232125647e-05,-0.15056512198308047
367,0.3571,257.551,805.305,0.0170513,455.497,0.0468948,0.0499079,-0.0282944,0.194013,-0.163579,0.385446,-3.80203e-05,-6.55258e-05,0.306523,-0.027897862198963286,0.4702699156151404,-3.8019577237591307e-05,0.21411206631050317,-6.552365323164722e-05,-0.15090058250208294
368,0.3581,257.651,805.619,0.0160024,455.677,0.0471703,0.0498271,-0.0283661,0.19448,-0.163974,0.386379,-3.79195e-05,-6.53636e-05,0.307273,-0.02796755942356821,0.4716423175723674,-3.791878106484958e-05,0.21467918905832484,-6.536146384639174e-05,-0.15123591054034713
369,0.3591,257.755,805.933,0.0168341,455.856,0.0469119,0.0500108,-0.0284377,0.194947,-0.164369,0.387311,-3.7826e-05,-6.51978e-05,0.308023,-0.02803715445478161,0.47301452756287254,-3.7825284605830234e-05,0.21524657671432101,-6.519567466967136e-05,-0.15157110615019243
370,0.3601,257.855,806.245,0.0159914,456.034,0.0471293,0.0499584,-0.0285092,0.195414,-0.164763,0.388242,-3.77261e-05,-6.50353e-05,0.308772,-0.02810664731383883,0.47438654266196134,-3.7725388379650227e-05,0.2158142294022325,-6.50331852507513e-05,-0.15190532128966328
371,0.3611,257.958,806.557,0.0166385,456.212,0.046923,0.0501151,-0.0285807,0.195881,-0.165157,0.389173,-3.7632e-05,-6.48701e-05,0.30952,-0.028176135204334152,0.47575983570189684,-3.763129192513315e-05,0.21638214724585847,-6.486799598059978e-05,-0.15223940477430686
372,0.3621,258.058,806.868,0.0159623,456.389,0.0470934,0.0500855,-0.0286522,0.196347,-0.165551,0.390103,-3.75329e-05,-6.47073e-05,0.310268,-0.028245618126622962,0.47713293073932617,-3.7532195649503386e-05,0.21694911341933354,-6.47052065277931e-05,-0.15257335665598504
373,0.3631,258.16,807.178,0.0164608,456.567,0.0469291,0.0502204,-0.0287236,0.196812,-0.165944,0.391033,-3.74383e-05,-6.45425e-05,0.311015,-0.02831499891256517,0.4785073033491194,-3.743759919561107e-05,0.2175151263448798,-6.45404171776276e-05,-0.15290632989329245
374,0.3641,258.26,807.487,0.0159185,456.743,0.0470616,0.0502089,-0.028795,0.197278,-0.166337,0.391961,-3.73397e-05,-6.43796e-05,0.311762,-0.02838437474489619,0.4798799949570216,-3.733900288205305e-05,0.21808262060965067,-6.437752767807225e-05,-0.15323917229782802
375,0.3651,258.362,807.796,0.016298,456.919,0.0469311,0.0503262,-0.0288663,0.197743,-0.16673,0.392889,-3.72448e-05,-6.42151e-05,0.312508,-0.028453648469339288,0.4812539610139892,-3.724410642103049e-05,0.21864916073860585,-6.421303825454583e-05,-0.15357188392099874
376,0.3661,258.461,808.103,0.0158627,457.095,0.0470333,0.0503291,-0.0289375,0.198208,-0.167123,0.393817,-3.71467e-05,-6.40521e-05,0.313254,-0.028522820107028668,0.48262920270325926,-3.714601006987728e-05,0.21921596436998048,-6.405004870801978e-05,-0.15390446481419162
377,0.3671,258.561,808.41,0.0161475,457.27,0.0469297,0.0504322,-0.0290088,0.198672,-0.167515,0.394743,-3.70514e-05,-6.38879e-05,0.313999,-0.028592083960669368,0.48400275320069386,-3.7050713605379926e-05,0.2197818118439101,-6.388585921157652e-05,-0.15423606926526578
378,0.3681,258.661,808.716,0.0157973,457.444,0.0470077,0.0504463,-0.0290799,0.199136,-0.167907,0.39567,-3.69538e-05,-6.37249e-05,0.314743,-0.028661148608222442,0.48537906157328314,-3.695311721674255e-05,0.22034792193198927,-6.372286961164875e-05,-0.15456754375286963
379,0.3691,258.76,809.021,0.0160071,457.619,0.0469255,0.0505382,-0.0291511,0.1996,-0.168299,0.396595,-3.68583e-05,-6.35609e-05,0.315487,-0.02873030547242794,0.4867536728649482,-3.685762074123744e-05,0.22091429475609936,-6.35588800488307e-05,-0.15489888832793874
380,0.3701,258.859,809.325,0.0157243,457.792,0.0469843,0.050561,-0.0292222,0.200063,-0.16869,0.39752,-3.6761e-05,-6.33979e-05,0.316231,-0.02879936029278085,0.4881295562603152,-3.6760324322759885e-05,0.22147970895785862,-6.339589039561222e-05,-0.1552292582710697
381,0.3711,258.958,809.628,0.0158749,457.965,0.046919,0.0506439,-0.0292932,0.200526,-0.169081,0.398444,-3.66654e-05,-6.32341e-05,0.316974,-0.028868313090346875,0.4895052234306565,-3.666472783248054e-05,0.2220453850070061,-6.323210076641939e-05,-0.15555949906480326
382,0.3721,259.057,809.931,0.0156453,458.138,0.0469627,0.0506734,-0.0293642,0.200989,-0.169472,0.399367,-3.65684e-05,-6.30711e-05,0.317716,-0.028937260992437874,0.490880671423483,-3.6567731384162805e-05,0.22261132302480569,-6.306911106002122e-05,-0.15588961075962693
383,0.3731,259.155,810.233,0.0157496,458.311,0.0469106,0.0507491,-0.0294351,0.201451,-0.169863,0.40029,-3.64727e-05,-6.29076e-05,0.318458,-0.02900610690001726,0.4922573895408793,-3.6472034879109216e-05,0.2231762999556648,-6.290562135846667e-05,-0.15621959340600855
384,0.3741,259.253,810.534,0.0155617,458.482,0.0469424,0.0507837,-0.029506,0.201913,-0.170253,0.401212,-3.63759e-05,-6.27446e-05,0.319199,-0.02907494792659482,0.4936338853210793,-3.6375238404939836e-05,0.2237415379661709,-6.27426315987778e-05,-0.1565486036034215
385,0.3751,259.351,810.834,0.0156298,458.654,0.0469007,0.0508536,-0.0295769,0.202375,-0.170643,0.402133,-3.62802e-05,-6.25813e-05,0.31994,-0.02914378407251661,0.4950101558047335,-3.6279541881456545e-05,0.22430703717697043,-6.257934183129255e-05,-0.15687748551187541
386,0.3761,259.448,811.133,0.0154745,458.825,0.0469232,0.0508921,-0.0296477,0.202836,-0.171032,0.403054,-3.61837e-05,-6.24184e-05,0.32068,-0.029212518259385423,0.49638769441738706,-3.6183045377780054e-05,0.22487157283658066,-6.241645201221502e-05,-0.1572053963872111
387,0.3771,259.546,811.432,0.0155146,458.995,0.0468895,0.0509574,-0.0297184,0.203297,-0.171422,0.403974,-3.60879e-05,-6.22552e-05,0.32142,-0.02928115050816582,0.4977650045617712,-3.608724883952252e-05,0.2254363688071268,-6.225326218523008e-05,-0.15753402219642199
388,0.3781,259.643,811.73,0.0153847,459.165,0.0469048,0.0509988,-0.0297891,0.203758,-0.171811,0.404893,-3.59915e-05,-6.20924e-05,0.322159,-0.029349777904817853,0.49914208327171194,-3.599085231376087e-05,0.2260014252086402,-6.209047230687492e-05,-0.15786167772865478
389,0.3791,259.74,812.027,0.0154032,459.335,0.0468774,0.0510603,-0.0298598,0.204218,-0.1722,0.405812,-3.58958e-05,-6.19294e-05,0.322898,-0.029418400449684468,0.5005204280986786,-3.5895155753529195e-05,0.22656551559507832,-6.192748241429236e-05,-0.15818920582767293
390,0.3801,259.836,812.323,0.0152929,459.504,0.0468871,0.0511037,-0.0299304,0.204678,-0.172588,0.40673,-3.57996e-05,-6.17667e-05,0.323636,-0.029486921091805618,0.5018985383074783,-3.579895920191589e-05,0.22712986552278402,-6.176479247665956e-05,-0.15851576505922405
391,0.3811,259.932,812.618,0.0152949,459.673,0.0468644,0.0511623,-0.030001,0.205137,-0.172976,0.407647,-3.57038e-05,-6.16038e-05,0.324374,-0.029555436896540166,0.5032764109251484,-3.570316262690998e-05,0.22769324741731278,-6.160190252491038e-05,-0.158842197610371
392,0.3821,260.028,812.913,0.0151997,459.841,0.0468698,0.0512072,-0.0300715,0.205597,-0.173364,0.408564,-3.56078e-05,-6.14412e-05,0.325111,-0.029623850826619558,0.5046555476315049,-3.5607166049778094e-05,0.2282581162209889,-6.143931252811097e-05,-0.15916850353025602
393,0.3831,260.124,813.207,0.0151891,460.009,0.0468507,0.0512634,-0.030142,0.206056,-0.173752,0.40948,-3.55121e-05,-6.12785e-05,0.325847,-0.02969225993368696,0.5060344435510522,-3.551146945279804e-05,0.2288220161014567,-6.127662251109722e-05,-0.15949468286800272
394,0.3841,260.22,813.5,0.0151057,460.176,0.0468528,0.0513093,-0.0302124,0.206514,-0.174139,0.410396,-3.54161e-05,-6.11159e-05,0.326583,-0.029760567194143772,0.5074146031179241,-3.5415472857347474e-05,0.2293849454858201,-6.11140324614512e-05,-0.159819895493031
395,0.3851,260.315,813.792,0.0150856,460.343,0.0468366,0.0513635,-0.0302828,0.206973,-0.174526,0.411311,-3.53205e-05,-6.09534e-05,0.327319,-0.029828869645938894,0.5087945186948784,-3.53198762385043e-05,0.22994936269963917,-6.095154237928391e-05,-0.16014498228512364
396,0.3861,260.41,814.084,0.015011,460.51,0.0468361,0.0514099,-0.0303531,0.207431,-0.174913,0.412225,-3.52247e-05,-6.0791e-05,0.328054,-0.029897070279122362,0.5101741872974694,-3.522407961753515e-05,0.23051280852700096,-6.078915226459536e-05,-0.1604699432929685
397,0.3871,260.505,814.375,0.0149838,460.676,0.0468219,0.0514625,-0.0304234,0.207888,-0.1753,0.413138,-3.51291e-05,-6.06285e-05,0.328788,-0.029965266117969902,0.511553605939262,-3.51284829803733e-05,0.23107528139575906,-6.0626662129581455e-05,-0.16079477856523472
398,0.3881,260.599,814.665,0.0149161,460.841,0.0468195,0.0515093,-0.0304936,0.208346,-0.175686,0.414051,-3.50334e-05,-6.04663e-05,0.329522,-0.03003336016615943,0.5129342845653697,-3.5032786337652055e-05,0.23163924301199001,-6.046447195007243e-05,-0.16111864926964137
399,0.3891,260.694,814.954,0.0148836,461.007,0.0468069,0.0515605,-0.0305638,0.208803,-0.176072,0.414963,-3.49379e-05,-6.0304e-05,0.330256,-0.030101449434314476,0.5143147100112166,-3.493728967862708e-05,0.23220223077895308,-6.030218175034907e-05,-0.16144239498408064
400,0.3901,260.788,815.243,0.0148212,461.171,0.0468031,0.0516074,-0.030634,0.209259,-0.176458,0.415875,-3.48424e-05,-6.01418e-05,0.330988,-0.030169533922770664,0.515696394979325,-3.48417930106093e-05,0.23276424312526456,-6.0139991518215474e-05,-0.1617660157567895
401,0.3911,260.881,815.531,0.0147848,461.336,0.0467916,0.0516575,-0.0307041,0.209715,-0.176843,0.416785,-3.47469e-05,-5.99797e-05,0.331721,-0.030237516655620023,0.517076306463256,-3.474629633348769e-05,0.2333265118076464,-5.997790125378266e-05,-0.16208867372507874
402,0.3921,260.975,815.818,0.0147264,461.5,0.0467866,0.0517043,-0.0307742,0.210171,-0.177228,0.417696,-3.46515e-05,-5.98176e-05,0.332453,-0.03030549462304688,0.5184589926963965,-3.4650899643717814e-05,0.233889036943014,-5.9815810963037563e-05,-0.1624112074939601
403,0.3931,261.068,816.105,0.0146871,461.663,0.0467761,0.0517534,-0.0308442,0.210627,-0.177613,0.418605,-3.45561e-05,-5.96556e-05,0.333184,-0.030373370862727178,0.5198398994477913,-3.455550294484411e-05,0.23445181864833708,-5.965382064010427e-05,-0.16273361711124112
404,0.3941,261.161,816.39,0.0146318,461.827,0.0467702,0.0518,-0.0309142,0.211082,-0.177998,0.419514,-3.44608e-05,-5.94937e-05,0.333915,-0.03044124235123702,0.5212220620141046,-3.4460206233433155e-05,0.2350136220263983,-5.9491930284871763e-05,-0.16305590262471104
405,0.3951,261.254,816.675,0.0145905,461.989,0.0467603,0.0518483,-0.0309841,0.211537,-0.178382,0.420422,-3.43655e-05,-5.93319e-05,0.334645,-0.03050901213981494,0.5226039589326708,-3.4364909512918373e-05,0.23557568108315907,-5.9330139897673106e-05,-0.16337722745978644
406,0.3961,261.347,816.959,0.0145376,462.152,0.0467538,0.0518947,-0.031054,0.211992,-0.178766,0.42133,-3.42702e-05,-5.91701e-05,0.335375,-0.030576777191450244,0.5239871111834733,-3.4269612783410786e-05,0.23613799593497964,-5.9168349484162164e-05,-0.16369842892981268
407,0.3971,261.439,817.243,0.0144949,462.314,0.0467443,0.0519421,-0.0311238,0.212446,-0.179149,0.422237,-3.41751e-05,-5.90083e-05,0.336104,-0.03064444057092286,0.525369994536115,-3.4174516037932534e-05,0.23669932999832466,-5.900655904456098e-05,-0.16401867110124202
408,0.3981,261.532,817.526,0.0144438,462.475,0.0467373,0.0519882,-0.0311936,0.2129,-0.179533,0.423143,-3.40799e-05,-5.88467e-05,0.336832,-0.030712099227656386,0.5267526059795737,-3.407931928678387e-05,0.2372609189651933,-5.8844968566895695e-05,-0.1643396263041963
409,0.3991,261.624,817.808,0.0144002,462.636,0.0467282,0.052035,-0.0312633,0.213354,-0.179916,0.424049,-3.39848e-05,-5.86851e-05,0.337561,-0.030779656239951048,0.5281364706366205,-3.3984222523208985e-05,0.23782276295133808,-5.868337806325119e-05,-0.16465962294405356
410,0.4001,261.715,818.089,0.0143505,462.797,0.0467208,0.0520806,-0.031333,0.213808,-0.180299,0.424954,-3.38897e-05,-5.85236e-05,0.338288,-0.030847208543685944,0.529520060122356,-3.388912575064129e-05,0.2383848620725637,-5.8521887527529515e-05,-0.16497949704866488
411,0.4011,261.807,818.37,0.0143063,462.957,0.0467119,0.0521268,-0.0314027,0.214261,-0.180682,0.425859,-3.37947e-05,-5.83622e-05,0.339015,-0.03091475613918937,0.5309049023233443,-3.379412896553635e-05,0.23894597749813085,-5.836049695995271e-05,-0.16529924866495205
412,0.4021,261.898,818.65,0.0142577,463.117,0.0467043,0.052172,-0.0314723,0.214713,-0.181064,0.426762,-3.36998e-05,-5.82008e-05,0.339742,-0.03098220212501457,0.5322879337948736,-3.369923216811621e-05,0.23950610765984015,-5.819910636628567e-05,-0.1656180434582798
413,0.4031,261.989,818.929,0.0142131,463.277,0.0466955,0.0522175,-0.0315419,0.215166,-0.181446,0.427665,-3.36049e-05,-5.80395e-05,0.340468,-0.03104964341676253,0.5336722147078599,-3.3604335361703264e-05,0.2400677311247208,-5.80378157407635e-05,-0.16593671649525354
414,0.4041,262.08,819.208,0.0141655,463.436,0.0466877,0.0522624,-0.0316114,0.215618,-0.181828,0.428568,-3.351e-05,-5.78782e-05,0.341194,-0.03111698312646305,0.5350577461910577,-3.350943854618649e-05,0.24062836843367585,-5.787652508926211e-05,-0.1662552678223752
415,0.4051,262.171,819.486,0.0141208,463.594,0.046679,0.0523074,-0.0316808,0.216069,-0.182209,0.42947,-3.34152e-05,-5.77171e-05,0.341919,-0.031184221274643265,0.5364429929304813,-3.341464171846553e-05,0.24118801801933487,-5.771543440025173e-05,-0.16657286405940985
416,0.4061,262.261,819.763,0.0140739,463.753,0.046671,0.0523518,-0.0317503,0.216521,-0.18259,0.430371,-3.33204e-05,-5.7556e-05,0.342643,-0.031251551631507724,0.5378279518974338,-3.331984488164075e-05,0.24174916181242323,-5.755434368526213e-05,-0.16689033931532649
417,0.4071,262.351,820.04,0.0140291,463.911,0.0466624,0.0523962,-0.0318196,0.216972,-0.182971,0.431272,-3.32257e-05,-5.7395e-05,0.343367,-0.031318683572831074,0.5392141592747397,-3.322514803250076e-05,0.24230931698989844,-5.739335293852843e-05,-0.16720769363621024
418,0.4081,262.441,820.315,0.0139828,464.068,0.0466542,0.0524402,-0.031889,0.217423,-0.183352,0.432171,-3.3131e-05,-5.7234e-05,0.344091,-0.03138590772348604,0.5405985349875728,-3.313045117447899e-05,0.24286972485433544,-5.723236216581551e-05,-0.1675249270681286
419,0.4091,262.531,820.591,0.0139381,464.225,0.0466456,0.0524841,-0.0319583,0.217873,-0.183732,0.433071,-3.30364e-05,-5.70731e-05,0.344814,-0.03145303035425484,0.5419856977986932,-3.303585430414202e-05,0.2434291420899577,-5.707147136158053e-05,-0.16784120749875497
420,0.4101,262.62,820.865,0.0138924,464.382,0.0466374,0.0525276,-0.0320275,0.218323,-0.184112,0.433969,-3.29418e-05,-5.69123e-05,0.345536,-0.031520051485596445,0.5433710228731805,-3.294125742481224e-05,0.2439888111199855,-5.691068052582349e-05,-0.16815736776565027
421,0.4111,262.71,821.139,0.0138478,464.539,0.0466288,0.052571,-0.0320967,0.218773,-0.184492,0.434868,-3.28473e-05,-5.67516e-05,0.346258,-0.03158706797923616,0.5447591372866827,-3.284676053338931e-05,0.24454873205775196,-5.6749989658433364e-05,-0.16847340791446808
422,0.4121,262.799,821.412,0.0138025,464.695,0.0466205,0.0526141,-0.0321659,0.219223,-0.184872,0.435765,-3.27528e-05,-5.65909e-05,0.34698,-0.031654079835495064,0.5461454078822405,-3.2752263632862544e-05,0.24510890501664062,-5.6589298765175045e-05,-0.16878932799084445
423,0.4131,262.887,821.685,0.0137581,464.85,0.046612,0.052657,-0.032235,0.219672,-0.185251,0.436662,-3.26584e-05,-5.64303e-05,0.347701,-0.03172099022679775,0.5475329225203922,-3.265786672024262e-05,0.24566808444137966,-5.642870784061671e-05,-0.169104297145111
424,0.4141,262.976,821.957,0.0137133,465.006,0.0466035,0.0526996,-0.0323041,0.220121,-0.18563,0.437558,-3.2564e-05,-5.62698e-05,0.348421,-0.03178789599475218,0.5489201333966367,-3.256346979874092e-05,0.24622751499405449,-5.6268216884536315e-05,-0.16941914694868643
425,0.4151,263.064,822.228,0.0136691,465.16,0.046595,0.0527421,-0.0323731,0.220569,-0.186009,0.438453,-3.24697e-05,-5.61093e-05,0.349141,-0.031854700325152696,0.5503070374630177,-3.2469172865035034e-05,0.24678595000087333,-5.6107725902698746e-05,-0.16973387744679613
426,0.4161,263.153,822.498,0.0136247,465.315,0.0465865,0.0527842,-0.0324421,0.221017,-0.186387,0.439348,-3.23754e-05,-5.59489e-05,0.349861,-0.0319215000462133,0.5516951833641763,-3.2374875922447366e-05,0.24734463524262362,-5.594733488945014e-05,-0.17004765873272198
427,0.4171,263.241,822.768,0.0135808,465.469,0.046578,0.0528262,-0.032511,0.221465,-0.186765,0.440243,-3.22812e-05,-5.57886e-05,0.35058,-0.031988198357077,0.5530845722120521,-3.228067896765552e-05,0.24790357083143588,-5.578704384501254e-05,-0.1703613214317362
428,0.4181,263.328,823.037,0.0135367,465.623,0.0465694,0.052868,-0.0325799,0.221913,-0.187143,0.441136,-3.2187e-05,-5.56284e-05,0.351298,-0.03205489207258527,0.5544720961722791,-3.218648200409291e-05,0.2484627568794906,-5.5626852769274926e-05,-0.17067486558865597
429,0.4191,263.416,823.306,0.013493,465.776,0.0465608,0.0529095,-0.0326487,0.22236,-0.187521,0.442029,-3.20928e-05,-5.54682e-05,0.352016,-0.03212148440520812,0.5558608597448069,-3.2092285031648515e-05,0.2490209444774496,-5.546666166789116e-05,-0.17098829124828185
430,0.4201,263.503,823.574,0.0134493,465.929,0.0465523,0.0529508,-0.0327175,0.222807,-0.187898,0.442922,-3.19988e-05,-5.53081e-05,0.352734,-0.032188072156436154,0.5572508640371041,-3.199828804389959e-05,0.24957938164103877,-5.530657053520738e-05,-0.17130076975658137
431,0.4211,263.591,823.841,0.0134059,466.082,0.0465437,0.0529919,-0.0327863,0.223254,-0.188276,0.443813,-3.19047e-05,-5.51481e-05,0.353451,-0.03225465532658445,0.5586389928765252,-3.190419105048026e-05,0.2501380684818386,-5.5146579371445625e-05,-0.171613958869142
432,0.4221,263.677,824.108,0.0133625,466.234,0.0465351,0.0530328,-0.032855,0.2237,-0.188652,0.444705,-3.18107e-05,-5.49882e-05,0.354167,-0.03232113714808682,0.5600299191190494,-3.181019404507879e-05,0.2506957544151003,-5.49866881766059e-05,-0.17192537347099313
433,0.4231,263.764,824.374,0.0133194,466.386,0.0465265,0.0530735,-0.0329237,0.224146,-0.189029,0.445595,-3.17168e-05,-5.48283e-05,0.354883,-0.032387614402444975,0.5614189637802509,-3.171629702758416e-05,0.2512536891317627,-5.482679695623105e-05,-0.17223749876587968
434,0.4241,263.851,824.639,0.0132763,466.538,0.0465178,0.053114,-0.0329923,0.224592,-0.189405,0.446485,-3.16229e-05,-5.46685e-05,0.355599,-0.03245399033537644,0.5628092452414954,-3.162240000131877e-05,0.25181187274280803,-5.4667005704778227e-05,-0.17254867896080095
435,0.4251,263.937,824.904,0.0132335,466.689,0.0465092,0.0531542,-0.0330609,0.225037,-0.189781,0.447374,-3.1529e-05,-5.45088e-05,0.356314,-0.032520361715075,0.5641992004040424,-3.152850296628262e-05,0.252369052989589,-5.4507314422358455e-05,-0.17285974217396283
436,0.4261,264.023,825.168,0.0131907,466.84,0.0465005,0.0531942,-0.0331294,0.225482,-0.190157,0.448263,-3.14353e-05,-5.43492e-05,0.357028,-0.03258663180052124,0.5655903917861469,-3.143480591616399e-05,0.25292648123675554,-5.4347723108971735e-05,-0.17317068844934225
437,0.4271,264.109,825.431,0.0131481,466.991,0.0464918,0.0532341,-0.0331979,0.225927,-0.190533,0.449151,-3.13415e-05,-5.41896e-05,0.357742,-0.03265289734662202,0.5669812535052601,-3.134100886037494e-05,0.25348415759469267,-5.418813177016091e-05,-0.1734815178308996
438,0.4281,264.195,825.694,0.0131057,467.141,0.0464831,0.0532737,-0.0332664,0.226371,-0.190908,0.450038,-3.12478e-05,-5.40301e-05,0.358455,-0.03271915835368833,0.5683717824855532,-3.124731179260376e-05,0.25404082813237916,-5.402864040038313e-05,-0.17379140415439587
439,0.4291,264.28,825.957,0.0130634,467.29,0.0464744,0.0533132,-0.0333348,0.226816,-0.191283,0.450925,-3.11542e-05,-5.38707e-05,0.359168,-0.03278531810056784,0.5697635454122263,-3.115371471296147e-05,0.2545990004850356,-5.386924899986045e-05,-0.17410117429230698
440,0.4301,264.366,826.218,0.0130213,467.44,0.0464657,0.0533524,-0.0334031,0.227259,-0.191658,0.451811,-3.10606e-05,-5.37113e-05,0.359881,-0.03285137660741788,0.5711549722245173,-3.106011762454841e-05,0.2551549109673308,-5.3709857573913666e-05,-0.17441082828819443
441,0.4311,264.451,826.479,0.0129793,467.589,0.046457,0.0533914,-0.0334715,0.227703,-0.192032,0.452697,-3.0967e-05,-5.35521e-05,0.360593,-0.03291752731087805,0.5725476323872576,-3.0966520527364594e-05,0.2557123234842218,-5.355066611190118e-05,-0.17471954090555675
442,0.4321,264.536,826.74,0.0129374,467.738,0.0464483,0.0534302,-0.0335397,0.228146,-0.192406,0.453582,-3.08735e-05,-5.33929e-05,0.361304,-0.032983480086500316,0.5739399530529397,-3.0873023418420686e-05,0.2562687272778661,-5.3391474624464585e-05,-0.17502813808598816
443,0.4331,264.621,826.999,0.0128957,467.886,0.0464395,0.0534689,-0.033608,0.228589,-0.19278,0.454466,-3.07801e-05,-5.32338e-05,0.362015,-0.03304952505934888,0.5753319311351035,-3.077962629760567e-05,0.25682537761299606,-5.323238310639411e-05,-0.17533661987265414
444,0.4341,264.705,827.259,0.0128542,468.034,0.0464308,0.0535073,-0.0336762,0.229032,-0.193154,0.45535,-3.06867e-05,-5.30747e-05,0.362726,-0.033115468833031625,0.5767251402699367,-3.0686229168019885e-05,0.25738227459885343,-5.307329156301055e-05,-0.17564498630870384
445,0.4351,264.789,827.517,0.0128128,468.182,0.046422,0.0535456,-0.0337443,0.229474,-0.193527,0.456233,-3.05933e-05,-5.29157e-05,0.363436,-0.03318131142763825,0.5781180034273792,-3.0592832029774364e-05,0.2579381604059394,-5.291429998899311e-05,-0.1759524133900957
446,0.4361,264.874,827.775,0.0127715,468.329,0.0464132,0.0535836,-0.0338124,0.229916,-0.1939,0.457116,-3.05e-05,-5.27569e-05,0.364145,-0.03324714953851693,0.5795120970261496,-3.0499534879768753e-05,0.2584942919688602,-5.275550837924303e-05,-0.17625972582256955
447,0.4371,264.958,828.033,0.0127303,468.476,0.0464044,0.0536215,-0.0338805,0.230357,-0.194273,0.457998,-3.04068e-05,-5.2598e-05,0.364854,-0.033312983165972865,0.5809058412465755,-3.040633771789203e-05,0.2590494103462242,-5.259661674950067e-05,-0.17656692364888138
448,0.4381,265.041,828.289,0.0126893,468.623,0.0463956,0.0536592,-0.0339485,0.230799,-0.194646,0.458879,-3.03136e-05,-5.24393e-05,0.365563,-0.03337871564818784,0.5822992329916528,-3.0313140547466588e-05,0.2596060331901837,-5.243792508391465e-05,-0.17687400691177146
449,0.4391,265.125,828.546,0.0126485,468.77,0.0463868,0.0536967,-0.0340164,0.23124,-0.195018,0.45976,-3.02204e-05,-5.22806e-05,0.366271,-0.033444347005185615,0.5836938528557645,-3.0219943368270386e-05,0.2601616419535482,-5.227923339323759e-05,-0.17718015283452826
450,0.4401,265.208,828.801,0.0126078,468.916,0.046378,0.053734,-0.0340844,0.23168,-0.19539,0.46064,-3.01273e-05,-5.21221e-05,0.366978,-0.033510070554963245,0.5850881168324507,-3.0126846177425115e-05,0.2607162350775476,-5.212074166693892e-05,-0.17748618489218193
451,0.4411,265.292,829.056,0.0125672,469.061,0.0463692,0.0537711,-0.0341522,0.232121,-0.195762,0.461519,-3.00343e-05,-5.19636e-05,0.367686,-0.03357559635082996,0.5864820218186388,-3.0033848974930777e-05,0.261272333547917,-5.196224991554921e-05,-0.1777921031270825
452,0.4421,265.375,829.311,0.0125268,469.207,0.0463604,0.053808,-0.0342201,0.232561,-0.196133,0.462398,-2.99413e-05,-5.18051e-05,0.368392,-0.033641214340081826,0.5878771525859616,-2.99408517637767e-05,0.26182741548374855,-5.1803758138957434e-05,-0.17809708567906068
453,0.4431,265.457,829.565,0.0124865,469.352,0.0463515,0.0538448,-0.0342879,0.233001,-0.196505,0.463276,-2.98483e-05,-5.16468e-05,0.369098,-0.03370673124470136,0.5892719209396391,-2.9847854543962882e-05,0.2623827417093718,-5.1645466326966094e-05,-0.1784027767011328
454,0.4441,265.54,829.818,0.0124463,469.496,0.0463427,0.0538814,-0.0343556,0.23344,-0.196876,0.464154,-2.97554e-05,-5.14885e-05,0.369804,-0.03377214708464493,0.5906679144376907,-2.9754957312499997e-05,0.26293704939461704,-5.1487174489883714e-05,-0.17870753273523676
455,0.4451,265.622,830.071,0.0124063,469.641,0.0463338,0.0539178,-0.0344233,0.233879,-0.197246,0.465031,-2.96626e-05,-5.13303e-05,0.370509,-0.03383755849608605,0.5920635420919274,-2.9662160069388044e-05,0.26349160047435705,-5.132898262272256e-05,-0.17901135473758822
456,0.4461,265.705,830.323,0.0123664,469.785,0.046325,0.053954,-0.034491,0.234318,-0.197617,0.465908,-2.95698e-05,-5.11722e-05,0.371214,-0.03390296547932459,0.5934603942484826,-2.9569362817727374e-05,0.2640463950554659,-5.11708907252606e-05,-0.17931588503111806
457,0.4471,265.787,830.574,0.0123267,469.929,0.0463161,0.05399,-0.0345586,0.234757,-0.197987,0.466783,-2.9477e-05,-5.10141e-05,0.371918,-0.03396827143149206,0.5948552822679618,-2.9476565557517986e-05,0.26460143324486385,-5.101279880292964e-05,-0.17961948198475663
458,0.4481,265.869,830.825,0.0122871,470.072,0.0463073,0.0540259,-0.0346262,0.235195,-0.198357,0.467659,-2.93843e-05,-5.08561e-05,0.372621,-0.03403357296912646,0.596252987600784,-2.938386828565953e-05,0.2651554499934359,-5.085480685051991e-05,-0.17992296662830098
459,0.4491,265.95,831.076,0.0122476,470.215,0.0462984,0.0540616,-0.0346938,0.235633,-0.198727,0.468533,-2.92917e-05,-5.06983e-05,0.373325,-0.0340988700925261,0.5976487225592766,-2.9291271002374053e-05,0.265709709454494,-5.0697014862932654e-05,-0.1802263390032981
460,0.4501,266.032,831.326,0.0122083,470.358,0.0462895,0.0540971,-0.0347613,0.236071,-0.199096,0.469407,-2.91991e-05,-5.05404e-05,0.374027,-0.034164066218400846,0.5990456779233624,-2.9198673710428835e-05,0.26626421173436965,-5.0539122855464136e-05,-0.18052877968046932
461,0.4511,266.113,831.575,0.012169,470.5,0.0462806,0.0541325,-0.0348287,0.236508,-0.199465,0.470281,-2.91065e-05,-5.03827e-05,0.374729,-0.034229161366606586,0.6004438547601423,-2.91060764099349e-05,0.266817690121117,-5.038143081304014e-05,-0.18083110877761832
462,0.4521,266.194,831.824,0.01213,470.642,0.0462717,0.0541677,-0.0348961,0.236945,-0.199834,0.471154,-2.90141e-05,-5.02251e-05,0.375431,-0.03429425212754722,0.6018416522951968,-2.9013679095024614e-05,0.2673714104307756,-5.022383874075942e-05,-0.18113332633591073
463,0.4531,266.275,832.072,0.012091,470.784,0.0462628,0.0542027,-0.0349635,0.237382,-0.200203,0.472026,-2.89216e-05,-5.00675e-05,0.376132,-0.0343593385015184,0.6032390674004364,-2.8921181774554938e-05,0.2679253727690889,-5.00662466436097e-05,-0.18143543239649662
464,0.4541,266.356,832.319,0.0120522,470.926,0.0462539,0.0542376,-0.0350308,0.237818,-0.200571,0.472898,-2.88292e-05,-4.991e-05,0.376833,-0.03442432393125294,0.6046377015830882,-2.882878444265824e-05,0.2684783087629037,-4.990875451671428e-05,-0.18173660873752906
465,0.4551,266.437,832.566,0.0120135,471.067,0.046245,0.0542722,-0.0350981,0.238255,-0.20094,0.473769,-2.87369e-05,-4.97526e-05,0.377533,-0.03448930498761538,0.6060359498698986,-2.8736487099223496e-05,0.26903275492149525,-4.975136235996214e-05,-0.18203849222797552
466,0.4561,266.517,832.813,0.011975,471.208,0.0462361,0.0543068,-0.0351653,0.23869,-0.201308,0.474639,-2.86446e-05,-4.95952e-05,0.378233,-0.034554185126323134,0.6074338091268923,-2.8644189747351056e-05,0.2695849042536591,-4.959397017845202e-05,-0.1823394466838194
467,0.4571,266.597,833.059,0.0119366,471.348,0.0462272,0.0543411,-0.0352325,0.239126,-0.201675,0.475509,-2.85523e-05,-4.94379e-05,0.378933,-0.034619060905232035,0.6088328850506128,-2.85518923869299e-05,0.27013856396095925,-4.9436677967196196e-05,-0.182639473048681
468,0.4581,266.677,833.304,0.0118983,471.488,0.0462183,0.0543753,-0.0352997,0.239561,-0.202043,0.476378,-2.84601e-05,-4.92808e-05,0.379631,-0.03468393232463507,0.6102315684676474,-2.8459695015192743e-05,0.2706911944246937,-4.9279585721317964e-05,-0.18294020638427144
469,0.4591,266.757,833.549,0.0118601,471.628,0.0462094,0.0544094,-0.0353668,0.239996,-0.20241,0.477247,-2.8368e-05,-4.91236e-05,0.38033,-0.03474870285970033,0.6116314678688397,-2.8367597632139585e-05,0.27124406533497347,-4.912239345566949e-05,-0.1832400123107758
470,0.4601,266.837,833.793,0.0118221,471.768,0.0462004,0.0544433,-0.0354339,0.240431,-0.202777,0.478115,-2.82759e-05,-4.89666e-05,0.381028,-0.034813469048808554,0.6130309712795619,-2.827550024053771e-05,0.27179717679641513,-4.896540115562065e-05,-0.18353970822869303
471,0.4611,266.917,834.037,0.0117842,471.907,0.0461915,0.054477,-0.0355009,0.240865,-0.203143,0.478983,-2.81839e-05,-4.88097e-05,0.381725,-0.03487813438006948,0.6144316899866067,-2.8183502837619834e-05,0.2723492565637886,-4.8808508825937125e-05,-0.18383847801727482
472,0.4621,266.996,834.281,0.0117464,472.046,0.0461826,0.0545106,-0.0355679,0.241299,-0.20351,0.47985,-2.80919e-05,-4.86528e-05,0.382422,-0.03494279537889833,0.6158320092124925,-2.8091505426264263e-05,0.27290157598578246,-4.8651616471717674e-05,-0.18413795433857616
473,0.4631,267.075,834.523,0.0117088,472.185,0.0461736,0.054544,-0.0356348,0.241733,-0.203876,0.480716,-2.79999e-05,-4.8496e-05,0.383119,-0.035007355546325836,0.617231925808867,-2.7999508006470997e-05,0.27345413516642947,-4.8494824087974564e-05,-0.18443650520914623
474,0.4641,267.154,834.765,0.0116713,472.323,0.0461647,0.0545772,-0.0357017,0.242166,-0.204242,0.481582,-2.7908e-05,-4.83393e-05,0.383815,-0.035071911394822575,0.6186330552581036,-2.790761057536173e-05,0.2740056602035099,-4.833813167481882e-05,-0.18473494683009162
475,0.4651,267.233,835.007,0.0116339,472.461,0.0461558,0.0546103,-0.0357686,0.2426,-0.204607,0.482447,-2.78162e-05,-4.81827e-05,0.38451,-0.035136462924677536,0.620033778576399,-2.7815813133047484e-05,0.2745586986607027,-4.818153923236146e-05,-0.185032464274262
476,0.4661,267.312,835.248,0.0115966,472.599,0.0461468,0.0546433,-0.0358354,0.243032,-0.204973,0.483312,-2.77244e-05,-4.80261e-05,0.385205,-0.035200913656275756,0.6214357140445439,-2.7724015682406566e-05,0.27510942696727336,-4.802494676536817e-05,-0.18533068781410067
477,0.4671,267.39,835.489,0.0115595,472.737,0.0461379,0.0546761,-0.0359022,0.243465,-0.205338,0.484176,-2.76327e-05,-4.78696e-05,0.3859,-0.03526536008270886,0.6228372398734505,-2.7632318220449648e-05,0.2756616689009006,-4.7868454268962246e-05,-0.1856279878524909
478,0.4681,267.469,835.729,0.0115225,472.874,0.046129,0.0547087,-0.0359689,0.243897,-0.205703,0.485039,-2.7541e-05,-4.77132e-05,0.386594,-0.035329705737239925,0.6242383529047755,-2.7540620750166056e-05,0.2762128737935503,-4.771206174336573e-05,-0.1859251793961686
479,0.4691,267.547,835.968,0.0114856,473.011,0.04612,0.0547412,-0.0360356,0.244329,-0.206067,0.485902,-2.74494e-05,-4.75569e-05,0.387288,-0.035394047100059,0.6256406756185493,-2.7449023268677486e-05,0.27676431685815506,-4.755576918857862e-05,-0.18622144870658264
480,0.4701,267.625,836.207,0.0114488,473.147,0.0461111,0.0547736,-0.0361023,0.244761,-0.206431,0.486764,-2.73578e-05,-4.74007e-05,0.387981,-0.035458384171452195,0.6270425820157832,-2.735742577875122e-05,0.2773159981976274,-4.7399576604600924e-05,-0.18651761019459268
481,0.4711,267.703,836.446,0.0114122,473.284,0.0461021,0.0548058,-0.0361689,0.245192,-0.206796,0.487626,-2.72662e-05,-4.72445e-05,0.388673,-0.03552262050397281,0.6284456973773203,-2.7265828280498283e-05,0.2778666400476453,-4.724338399619832e-05,-0.18681447708536825
482,0.4721,267.78,836.684,0.0113756,473.42,0.0460932,0.0548379,-0.0362354,0.245623,-0.207159,0.488487,-2.71748e-05,-4.70884e-05,0.389366,-0.03558675611717643,0.6298483928965293,-2.7174430768495128e-05,0.27841751927545166,-4.7087291358716143e-05,-0.18710960986034686
483,0.4731,267.858,836.921,0.0113392,473.555,0.0460843,0.0548698,-0.036302,0.246054,-0.207523,0.489347,-2.70833e-05,-4.69324e-05,0.390057,-0.035650983900410105,0.6312506654051722,-2.708293325071054e-05,0.27896863598337873,-4.69312986921544e-05,-0.1874054481165286
484,0.4741,267.935,837.158,0.011303,473.691,0.0460753,0.0549016,-0.0363685,0.246485,-0.207886,0.490207,-2.69919e-05,-4.67765e-05,0.390749,-0.035715110977731834,0.6326541443868818,-2.6991535721943016e-05,0.27951999027380214,-4.677540599662411e-05,-0.18770036640795396
485,0.4751,268.012,837.395,0.0112668,473.826,0.0460664,0.0549332,-0.0364349,0.246915,-0.208249,0.491067,-2.69006e-05,-4.66207e-05,0.39144,-0.03577913736866323,0.6340588308796709,-2.6900238182081537e-05,0.28007030217819984,-4.661961327201425e-05,-0.18799517766346774
486,0.4761,268.089,837.631,0.0112308,473.961,0.0460574,0.0549647,-0.0365013,0.247345,-0.208612,0.491925,-2.68093e-05,-4.64649e-05,0.39213,-0.03584315950838335,0.6354614549962649,-2.6808940633893386e-05,0.28062085076760024,-4.646382052320153e-05,-0.18828988192191687
487,0.4771,268.166,837.866,0.0111948,474.095,0.0460485,0.0549961,-0.0365677,0.247775,-0.208975,0.492784,-2.67181e-05,-4.63093e-05,0.39282,-0.03590717739717453,0.6368669199468808,-2.67177430747223e-05,0.2811716361437995,-4.630822774087662e-05,-0.1885844792221344
488,0.4781,268.243,838.101,0.011159,474.229,0.0460396,0.0550273,-0.036634,0.248204,-0.209337,0.493641,-2.66269e-05,-4.61537e-05,0.393509,-0.03597109463243342,0.6382703161666619,-2.662654550722454e-05,0.28172137668662023,-4.6152634934348846e-05,-0.1888781584815029
489,0.4791,268.319,838.336,0.0111234,474.363,0.0460306,0.0550584,-0.0367003,0.248633,-0.209699,0.494498,-2.65358e-05,-4.59981e-05,0.394198,-0.03603500763011991,0.6396749156125121,-2.653544792874385e-05,0.28227135311872864,-4.599704210361821e-05,-0.18917173144821975
490,0.4801,268.396,838.57,0.0110878,474.497,0.0460217,0.0550893,-0.0367665,0.249062,-0.210061,0.495355,-2.64447e-05,-4.58427e-05,0.394887,-0.0360988200004021,0.6410807193160379,-2.6444350342047507e-05,0.28282156554134286,-4.5841649239486415e-05,-0.1894651981607558
491,0.4811,268.472,838.803,0.0110524,474.631,0.0460127,0.0551201,-0.0368327,0.24949,-0.210423,0.496211,-2.63537e-05,-4.56873e-05,0.395575,-0.03616262814644511,0.6424860858228238,-2.6353352744257208e-05,0.2833707306843518,-4.5686256351151755e-05,-0.18975855865756808
492,0.4821,268.548,839.036,0.011017,474.764,0.0460038,0.0551508,-0.0368988,0.249918,-0.210784,0.497066,-2.62627e-05,-4.55321e-05,0.396262,-0.036226335691167066,0.643891011946534,-2.626235513836228e-05,0.2839201309203485,-4.5531063429637975e-05,-0.19005100302850775
493,0.4831,268.624,839.268,0.0109818,474.897,0.0459949,0.0551813,-0.0369649,0.250346,-0.211145,0.497921,-2.61718e-05,-4.53769e-05,0.39695,-0.03629003902495953,0.6452971397957441,-2.617145752148442e-05,0.284469766349974,-4.5375870484032355e-05,-0.19034334184608304
494,0.4841,268.7,839.5,0.0109468,475.029,0.0459859,0.0552117,-0.037031,0.250774,-0.211506,0.498775,-2.60809e-05,-4.52217e-05,0.397636,-0.03635373814810072,0.6467028236947223,-2.6080559896279887e-05,0.28501963707391287,-4.5220677514334895e-05,-0.1906355751483919
495,0.4851,268.775,839.732,0.0109118,475.161,0.045977,0.055242,-0.037097,0.251201,-0.211867,0.499628,-2.59901e-05,-4.50667e-05,0.398322,-0.036417336702607606,0.6481080604516054,-2.5989762260314464e-05,0.285568457623792,-4.506568451156934e-05,-0.19092770297351835
496,0.4861,268.851,839.963,0.0108769,475.293,0.0459681,0.0552721,-0.037163,0.251628,-0.212227,0.500481,-2.58993e-05,-4.49118e-05,0.399008,-0.03648093105974837,0.6495144963868191,-2.589896461602237e-05,0.2861175125700859,-4.49107914801683e-05,-0.19121891657885381
497,0.4871,268.926,840.193,0.0108422,475.425,0.0459592,0.0553021,-0.037229,0.252055,-0.212587,0.501334,-2.58086e-05,-4.47569e-05,0.399693,-0.03654452121980001,0.6509221325236987,-2.5808266960969384e-05,0.2866668020129035,-4.475589842489747e-05,-0.1915100253661597
498,0.4881,269.001,840.423,0.0108076,475.557,0.0459502,0.055332,-0.0372949,0.252481,-0.212947,0.502186,-2.57179e-05,-4.46021e-05,0.400378,-0.03660801084384557,0.6523293175563094,-2.5717569297589726e-05,0.2872150388367134,-4.4601105341102176e-05,-0.1918010293731638
499,0.4891,269.076,840.653,0.010773,475.688,0.0459413,0.0553618,-0.0373608,0.252907,-0.213307,0.503037,-2.56273e-05,-4.44474e-05,0.401063,-0.03667149628406274,0.6537360482845782,-2.5626971623560202e-05,0.2877635092591633,-4.444641222900447e-05,-0.19209192863758018
500,0.4901,269.151,840.882,0.0107386,475.819,0.0459324,0.0553914,-0.0374266,0.253333,-0.213666,0.503888,-2.55368e-05,-4.42927e-05,0.401747,-0.036734881214220194,0.6551439766502196,-2.5536473938658766e-05,0.2883122133797873,-4.429171909281493e-05,-0.19238191557942874
501,0.4911,269.225,841.111,0.0107044,475.949,0.0459235,0.0554209,-0.0374924,0.253759,-0.214025,0.504738,-2.54462e-05,-4.41382e-05,0.40243,-0.03679826197378644,0.6565514471205807,-2.544587624819794e-05,0.28886115129816226,-4.413722592400138e-05,-0.19267179843464977
502,0.4921,269.3,841.339,0.0106702,476.08,0.0459146,0.0554502,-0.0375581,0.254184,-0.214384,0.505588,-2.53558e-05,-4.39837e-05,0.403113,-0.03686154224919491,0.6579601144494345,-2.5355478544430987e-05,0.28940903370422855,-4.398273273120701e-05,-0.1929615772406038
503,0.4931,269.374,841.566,0.0106361,476.21,0.0459057,0.0554795,-0.0376238,0.254609,-0.214743,0.506437,-2.52654e-05,-4.38293e-05,0.403796,-0.03692481836722594,0.659368320285393,-2.5265080832448383e-05,0.28995714900980474,-4.382833951022125e-05,-0.19325125203463778
504,0.4941,269.448,841.793,0.0106022,476.34,0.0458968,0.0555086,-0.0376895,0.255034,-0.215101,0.507285,-2.5175e-05,-4.3675e-05,0.404478,-0.036988090328152534,0.6607760614188762,-2.517468311236115e-05,0.29050549731389497,-4.36740462610441e-05,-0.1935400163945049
505,0.4951,269.522,842.02,0.0105683,476.469,0.0458879,0.0555376,-0.0377551,0.255458,-0.215459,0.508133,-2.50847e-05,-4.35208e-05,0.405159,-0.037051261837378835,0.6621849968231399,-2.508438538151303e-05,0.29105278766211073,-4.3519852983675555e-05,-0.19382867739523357
506,0.4961,269.596,842.246,0.0105346,476.598,0.045879,0.0555665,-0.0378207,0.255882,-0.215817,0.50898,-2.49944e-05,-4.33666e-05,0.405841,-0.037114429202690036,0.6635934639170595,-2.499408764256028e-05,0.2916003101106359,-4.336565968254824e-05,-0.19411723507381973
507,0.4971,269.67,842.472,0.010501,476.727,0.0458701,0.0555952,-0.0378862,0.256306,-0.216175,0.509827,-2.49042e-05,-4.32126e-05,0.406521,-0.03717749614211252,0.6650031244879737,-2.4903889892957665e-05,0.2921480647579018,-4.321166634901896e-05,-0.194405689467246
508,0.4981,269.743,842.697,0.0104675,476.856,0.0458612,0.0556239,-0.0379517,0.25673,-0.216532,0.510673,-2.4814e-05,-4.30586e-05,0.407202,-0.037240558950785596,0.6664123131340396,-2.481369213525042e-05,0.292696051702382,-4.305767299184193e-05,-0.19469323530612004
509,0.4991,269.817,842.922,0.0104341,476.985,0.0458523,0.0556524,-0.0380172,0.257153,-0.21689,0.511519,-2.47239e-05,-4.29047e-05,0.407881,-0.03730361762898016,0.6678226944581316,-2.472359436689331e-05,0.29324297779896646,-4.290377960647351e-05,-0.19498148352837008
510,0.5001,269.89,843.147,0.0104008,477.113,0.0458435,0.0556808,-0.0380826,0.257576,-0.217247,0.512364,-2.46339e-05,-4.27508e-05,0.408561,-0.0373665759136288,0.6692326002362479,-2.4633596587997353e-05,0.29379013529422715,-4.2749886197568365e-05,-0.19526882384545208
511,0.5011,269.963,843.37,0.0103677,477.241,0.0458346,0.0557091,-0.038148,0.257999,-0.217603,0.513209,-2.45439e-05,-4.25971e-05,0.40924,-0.03742953008094041,0.6706436978882422,-2.454359880099677e-05,0.2943375242860662,-4.2596192756372275e-05,-0.19555525715600874
512,0.5021,270.036,843.594,0.0103346,477.369,0.0458257,0.0557372,-0.0382133,0.258421,-0.21796,0.514053,-2.44539e-05,-4.24434e-05,0.409918,-0.037492383880427194,0.6720543163665214,-2.4453601005780534e-05,0.2948838499879305,-4.244249929163946e-05,-0.19584239267246473
513,0.5031,270.109,843.817,0.0103016,477.496,0.0458169,0.0557653,-0.0382786,0.258844,-0.218316,0.514896,-2.4364e-05,-4.22899e-05,0.410596,-0.0375552335756949,0.6734644524440658,-2.4363703200136477e-05,0.2954317017189476,-4.228900579483774e-05,-0.1961286218288606
514,0.5041,270.181,844.039,0.0102688,477.623,0.045808,0.0557932,-0.0383438,0.259265,-0.218672,0.515739,-2.42742e-05,-4.21364e-05,0.411274,-0.037617982928814686,0.6748757777675201,-2.4273905383953576e-05,0.29597719328328864,-4.2135512274388276e-05,-0.19641474910581225
515,0.5051,270.254,844.261,0.010236,477.75,0.0457992,0.055821,-0.0384091,0.259687,-0.219028,0.516581,-2.41844e-05,-4.19829e-05,0.411951,-0.03768082442273224,0.6762866170523865,-2.4184107559777068e-05,0.2965242110714894,-4.198201873040208e-05,-0.19670077453958257
516,0.5061,270.326,844.483,0.0102034,477.877,0.0457903,0.0558487,-0.0384742,0.260108,-0.219383,0.517423,-2.40946e-05,-4.18296e-05,0.412628,-0.0377434693619475,0.6776986447641882,-2.4094309727495933e-05,0.29707016267910036,-4.182872515445801e-05,-0.1969858951527178
517,0.5071,270.398,844.704,0.0101709,478.003,0.0457815,0.0558763,-0.0385394,0.260529,-0.219739,0.518264,-2.40049e-05,-4.16763e-05,0.413304,-0.037806206442493995,0.6791101827929797,-2.4004611884675953e-05,0.29761634418072713,-4.167543155508824e-05,-0.1972717172946835
518,0.5081,270.471,844.925,0.0101385,478.129,0.0457726,0.0559038,-0.0386045,0.26095,-0.220094,0.519105,-2.39152e-05,-4.15232e-05,0.41398,-0.037868843219605375,0.6805229084245707,-2.3914914033862367e-05,0.29816275567317585,-4.152233792387161e-05,-0.19755663525911304
519,0.5091,270.542,845.145,0.0101061,478.255,0.0457638,0.0559311,-0.0386695,0.261371,-0.220448,0.519945,-2.38256e-05,-4.13701e-05,0.414655,-0.037931379712338065,0.681935140722173,-2.382531617262096e-05,0.2987093972532928,-4.136924426922928e-05,-0.1978406499366674
520,0.5101,270.614,845.365,0.0100739,478.381,0.045755,0.0559584,-0.0387345,0.261791,-0.220803,0.520785,-2.37361e-05,-4.12171e-05,0.41533,-0.03799391214033088,0.6833485597932807,-2.3735818300951728e-05,0.29925496976234633,-4.1216250586950665e-05,-0.19812536596585462
521,0.5111,270.686,845.584,0.0100418,478.506,0.0457462,0.0559855,-0.0387995,0.262211,-0.221157,0.521624,-2.36466e-05,-4.10641e-05,0.416004,-0.03805644050384793,0.6847614818728773,-2.3646320421399913e-05,0.29980077145997974,-4.106325688135737e-05,-0.1984091793483701
522,0.5121,270.757,845.803,0.0100098,478.632,0.0457374,0.0560126,-0.0388645,0.26263,-0.221511,0.522462,-2.35571e-05,-4.09113e-05,0.416678,-0.038118964803153466,0.686173903716784,-2.355682253374347e-05,0.30034550209632016,-4.0910463144139264e-05,-0.19869289227872933
523,0.5131,270.829,846.022,0.00997792,478.756,0.0457286,0.0560395,-0.0389294,0.26305,-0.221865,0.5233,-2.34678e-05,-4.07585e-05,0.417352,-0.03818138885665523,0.6875875096662669,-2.3467524633336012e-05,0.30089176191373235,-4.0757669383606476e-05,-0.19897650479248596
524,0.5141,270.9,846.24,0.00994612,478.881,0.0457198,0.0560663,-0.0389942,0.263469,-0.222219,0.524137,-2.33784e-05,-4.06058e-05,0.418025,-0.03824371268334359,0.6890006117125658,-2.3378126727369164e-05,0.3014369497708542,-4.0604975595659454e-05,-0.19926001692518125
525,0.5151,270.971,846.458,0.00991443,479.005,0.045711,0.056093,-0.039059,0.263888,-0.222572,0.524974,-2.32891e-05,-4.04532e-05,0.418698,-0.03830603247157871,0.6904148970204038,-2.3288828810974493e-05,0.30198236610955154,-4.04523817802982e-05,-0.19954262825537217
526,0.5161,271.042,846.675,0.00988284,479.13,0.0457022,0.0561196,-0.0391238,0.264306,-0.222925,0.52581,-2.31999e-05,-4.03007e-05,0.41937,-0.038368348221622495,0.6918286747510638,-2.3199630884374045e-05,0.30252670849821883,-4.029988793774475e-05,-0.19982513984136951
527,0.5171,271.113,846.892,0.00985136,479.253,0.0456934,0.0561461,-0.0391885,0.264724,-0.223278,0.526646,-2.31107e-05,-4.01482e-05,0.420042,-0.038430563776797655,0.6932436348940862,-2.311043294977999e-05,0.30307127846956594,-4.0147394071765596e-05,-0.20010755171837658
528,0.5181,271.183,847.108,0.00981997,479.377,0.0456846,0.0561725,-0.0392532,0.265142,-0.223631,0.527481,-2.30215e-05,-3.99959e-05,0.420713,-0.038492775306756544,0.69465808377945,-2.3021235007303353e-05,0.30361607611874253,-3.9995100174605724e-05,-0.20038986392158453
529,0.5191,271.254,847.324,0.00978869,479.501,0.0456759,0.0561988,-0.0393179,0.26556,-0.223983,0.528316,-2.29324e-05,-3.98436e-05,0.421384,-0.03855498281175973,0.696073714222865,-2.2932137054509916e-05,0.30416110154093756,-3.9842806254353214e-05,-0.20067127715784894
530,0.5201,271.324,847.539,0.00975751,479.624,0.0456671,0.056225,-0.0393825,0.265978,-0.224335,0.52915,-2.28434e-05,-3.96914e-05,0.422054,-0.03861709015378134,0.6974888297216655,-2.28431390915107e-05,0.3047063548313804,-3.969061230679749e-05,-0.20095259135408616
531,0.5211,271.395,847.754,0.00972643,479.747,0.0456584,0.056251,-0.0394471,0.266395,-0.224687,0.529984,-2.27544e-05,-3.95393e-05,0.422724,-0.038679193483798224,0.698905125919075,-2.27541411206289e-05,0.305250530834156,-3.95385183321606e-05,-0.20123380654515222
532,0.5221,271.465,847.969,0.00969545,479.869,0.0456496,0.056277,-0.0395116,0.266812,-0.225039,0.530816,-2.26655e-05,-3.93872e-05,0.423394,-0.038741196676194134,0.7003192031583996,-2.2665243139541325e-05,0.3057949338056447,-3.938642433443107e-05,-0.2015149227658909
533,0.5231,271.535,848.183,0.00966457,479.992,0.0456409,0.0563029,-0.0395761,0.267228,-0.225391,0.531649,-2.25766e-05,-3.92353e-05,0.424063,-0.038803195869512974,0.7017361591348608,-2.2576345150460142e-05,0.30633825750160115,-3.923453030563184e-05,-0.20179594005113355
534,0.5241,271.604,848.397,0.00963379,480.114,0.0456322,0.0563287,-0.0396406,0.267645,-0.225742,0.532481,-2.24877e-05,-3.90834e-05,0.424732,-0.03886519106401287,0.7031525927739473,-2.24874471536074e-05,0.30688311414969505,-3.9082636253851e-05,-0.20207606051215865
535,0.5251,271.674,848.61,0.0096031,480.236,0.0456235,0.0563543,-0.039705,0.268061,-0.226093,0.533312,-2.23989e-05,-3.89316e-05,0.4254,-0.03892708615266516,0.7045685008068492,-2.2398649146548877e-05,0.30742689062284567,-3.893084217510001e-05,-0.20235608266815563
536,0.5261,271.744,848.823,0.00957252,480.358,0.0456147,0.0563799,-0.0397694,0.268476,-0.226444,0.534143,-2.23102e-05,-3.87799e-05,0.426068,-0.03898897725540196,0.7059855859483473,-2.2309951129284578e-05,0.30796958538382824,-3.877914806937888e-05,-0.20263600655362335
537,0.5271,271.813,849.036,0.00954204,480.479,0.045606,0.0564054,-0.0398338,0.268892,-0.226794,0.534973,-2.22215e-05,-3.86283e-05,0.426735,-0.039050864372480176,0.7074021417740299,-2.2221253104248717e-05,0.3085138139230357,-3.862755393679862e-05,-0.2029150351184823
538,0.5281,271.882,849.248,0.00951165,480.6,0.0455973,0.0564308,-0.0398981,0.269307,-0.227145,0.535803,-2.21329e-05,-3.84767e-05,0.427402,-0.0391126514154263,0.7088198738291156,-2.2132655069229124e-05,0.3090569598507984,-3.8475959781236746e-05,-0.20319476284606763
539,0.5291,271.951,849.46,0.00948136,480.721,0.0455887,0.056456,-0.0399623,0.269722,-0.227495,0.536632,-2.20443e-05,-3.83252e-05,0.428069,-0.03917433840303197,0.7102370728523519,-2.2044057026215924e-05,0.3096003312308995,-3.832446559892677e-05,-0.203473595880444
540,0.5301,272.02,849.671,0.00945117,480.842,0.04558,0.0564812,-0.0400266,0.270137,-0.227845,0.537461,-2.19558e-05,-3.81739e-05,0.428735,-0.039236117506853185,0.7116554472206917,-2.195555897321899e-05,0.3101439281569207,-3.817317138599119e-05,-0.203752331340335
541,0.5311,272.089,849.882,0.00942108,480.963,0.0455713,0.0565063,-0.0400907,0.270551,-0.228194,0.538289,-2.18673e-05,-3.80226e-05,0.429401,-0.039297700497964994,0.713073284834759,-2.1867060912339475e-05,0.3106864400353877,-3.802187715007399e-05,-0.2040301732904568
542,0.5321,272.158,850.092,0.00939108,481.083,0.0455626,0.0565313,-0.0401549,0.270965,-0.228544,0.539116,-2.17788e-05,-3.78713e-05,0.430066,-0.03935937560580094,0.7144905824130885,-2.1778562843688398e-05,0.31122917656027105,-3.787058289139722e-05,-0.20430871398234063
543,0.5331,272.227,850.302,0.00936118,481.203,0.045554,0.0565562,-0.040219,0.271379,-0.228893,0.539943,-2.16905e-05,-3.77202e-05,0.430731,-0.0394209506963219,0.7159090525813141,-2.1690264762841416e-05,0.3117721378245937,-3.7719488602205864e-05,-0.2045863617888004
544,0.5341,272.295,850.512,0.00933137,481.323,0.0455454,0.056581,-0.0402831,0.271793,-0.229242,0.54077,-2.16021e-05,-3.75691e-05,0.431395,-0.039482521840006,0.7173286963095691,-2.1601866676324022e-05,0.3123153239214167,-3.7568394290254936e-05,-0.20486391271308269
545,0.5351,272.363,850.721,0.00930166,481.443,0.0455367,0.0566057,-0.0403471,0.272206,-0.22959,0.541596,-2.15138e-05,-3.74181e-05,0.432059,-0.039543992991510346,0.7187477958201338,-2.1513568579822895e-05,0.31285742208576184,-3.741739995166693e-05,-0.2051405719299627
546,0.5361,272.432,850.93,0.00927205,481.562,0.0455281,0.0566303,-0.0404111,0.272619,-0.229939,0.542421,-2.14256e-05,-3.72672e-05,0.432723,-0.03960546020898703,0.7201663478239286,-2.1425370473449057e-05,0.31339974418288774,-3.726650558655287e-05,-0.20541792946865345
547,0.5371,272.5,851.138,0.00924253,481.681,0.0455195,0.0566548,-0.0404751,0.273032,-0.230287,0.543246,-2.13374e-05,-3.71164e-05,0.433386,-0.03966692349268752,0.7215860706160102,-2.1337172359303658e-05,0.31394229030529774,-3.711571119491275e-05,-0.2056943959212455
548,0.5381,272.568,851.346,0.0092131,481.8,0.0455109,0.0566793,-0.040539,0.273445,-0.230635,0.544071,-2.12493e-05,-3.69657e-05,0.434048,-0.03972828681569729,0.7230069651626776,-2.1249074235174525e-05,0.3144850605455334,-3.696501677696862e-05,-0.20597076618025079
549,0.5391,272.635,851.554,0.00918377,481.919,0.0455023,0.0567036,-0.0406029,0.273857,-0.230983,0.544894,-2.11612e-05,-3.6815e-05,0.434711,-0.03978964621771597,0.7244255835764111,-2.1160976103384854e-05,0.31502673996877717,-3.681432233615389e-05,-0.20624704027913865
550,0.5401,272.703,851.761,0.00915453,482.037,0.0454937,0.0567279,-0.0406667,0.274269,-0.23133,0.545718,-2.10732e-05,-3.66645e-05,0.435372,-0.039850905684089555,0.7258470958398997,-2.1072977961722472e-05,0.3155686426099229,-3.6663827865379695e-05,-0.2065224247741887
551,0.5411,272.771,851.968,0.00912539,482.155,0.0454851,0.056752,-0.0407305,0.27468,-0.231678,0.54654,-2.09852e-05,-3.6514e-05,0.436034,-0.039912161242233846,0.7272663253761069,-2.0984979812177507e-05,0.316109452450845,-3.651333337206797e-05,-0.20679850692928603
552,0.5421,272.838,852.174,0.00909633,482.273,0.0454765,0.0567761,-0.0407943,0.275092,-0.232025,0.547363,-2.08973e-05,-3.63636e-05,0.436695,-0.0399734128923982,0.7286884506861859,-2.0897081652981875e-05,0.3166518012614381,-3.636293885234121e-05,-0.20707370009860537
553,0.5431,272.905,852.381,0.00906738,482.391,0.045468,0.0568001,-0.040858,0.275503,-0.232372,0.548184,-2.08094e-05,-3.62132e-05,0.437355,-0.040034564638293135,0.7301082866671171,-2.080918348590366e-05,0.31719305637206263,-3.62125443099659e-05,-0.20734879779246096
554,0.5441,272.973,852.586,0.00903851,482.509,0.0454594,0.0568239,-0.0409217,0.275914,-0.232718,0.549006,-2.07216e-05,-3.6063e-05,0.438015,-0.040095712488945945,0.7315310203421881,-2.0721385309174778e-05,0.31773453398425877,-3.606234973785316e-05,-0.20762300766738073
555,0.5451,273.04,852.791,0.00900973,482.626,0.0454509,0.0568477,-0.0409853,0.276325,-0.233065,0.549826,-2.06338e-05,-3.59128e-05,0.438675,-0.0401567604602856,0.7329514580787488,-2.0633587124563313e-05,0.3182762341894929,-3.591215514309187e-05,-0.20789791478457686
556,0.5461,273.107,852.996,0.00898105,482.743,0.0454423,0.0568715,-0.0410489,0.276735,-0.233411,0.550646,-2.05461e-05,-3.57627e-05,0.439334,-0.040217804549097735,0.7343730610519352,-2.054588893030118e-05,0.31881683826177265,-3.576206052224862e-05,-0.20817193469788275
557,0.5471,273.173,853.201,0.00895246,482.86,0.0454338,0.0568951,-0.0411125,0.277145,-0.233757,0.551466,-2.04584e-05,-3.56127e-05,0.439993,-0.04027884475562926,0.7357958302176333,-2.045819072837851e-05,0.3193576640271656,-3.5612065875323395e-05,-0.20844585981669894
558,0.5481,273.24,853.405,0.00892395,482.977,0.0454253,0.0569186,-0.041176,0.277555,-0.234103,0.552285,-2.03707e-05,-3.54628e-05,0.440651,-0.040339785114110405,0.737218029313615,-2.037049251868428e-05,0.3198987115765852,-3.5462171202316206e-05,-0.20871969017381875
559,0.5491,273.307,853.609,0.00889554,483.093,0.0454168,0.0569421,-0.0412395,0.277965,-0.234448,0.553104,-2.02832e-05,-3.5313e-05,0.441309,-0.04040072160300168,0.7386413936677645,-2.0282994297238233e-05,0.3204399810009815,-3.531237650333807e-05,-0.20899263479505437
560,0.5501,273.373,853.812,0.00886722,483.21,0.0454083,0.0569655,-0.041303,0.278374,-0.234793,0.553922,-2.01956e-05,-3.51632e-05,0.441967,-0.04046165422254877,0.7400641841697646,-2.0195396070232796e-05,0.3209801514105295,-3.516258178193343e-05,-0.20926548526663735
561,0.5511,273.439,854.015,0.00883899,483.326,0.0453998,0.0569887,-0.0413664,0.278783,-0.235138,0.554739,-2.01082e-05,-3.50135e-05,0.442624,-0.04052248702525085,0.7414863975032688,-2.0107997831475544e-05,0.32152054279496145,-3.501288703455785e-05,-0.20953824162104384
562,0.5521,273.506,854.217,0.00881085,483.441,0.0453913,0.0570119,-0.0414298,0.279192,-0.235483,0.555556,-2.00207e-05,-3.48639e-05,0.443281,-0.0405833159712754,0.7429097732598515,-2.0020499587158902e-05,0.3220611552446744,-3.486329226132234e-05,-0.20981090389073864
563,0.5531,273.572,854.42,0.0087828,483.557,0.0453828,0.0570351,-0.0414931,0.2796,-0.235828,0.556372,-1.99334e-05,-3.47144e-05,0.443937,-0.04064404512527642,0.7443325680561603,-1.9933201331090444e-05,0.32260066624877504,-3.4713797462226914e-05,-0.21008347210817524
564,0.5541,273.638,854.621,0.00875483,483.672,0.0453744,0.0570581,-0.0415564,0.280009,-0.236172,0.557188,-1.9846e-05,-3.4565e-05,0.444593,-0.040704770435243676,0.7457565243268403,-1.9845803069462598e-05,0.323141720559335,-3.456440263727156e-05,-0.21035515666134774
565,0.5551,273.703,854.823,0.00872696,483.787,0.0453659,0.057081,-0.0416197,0.280417,-0.236516,0.558004,-1.97587e-05,-3.44156e-05,0.445248,-0.040765491901420425,0.7471816430200406,-1.9758504798184084e-05,0.3236816725240337,-3.441500779000073e-05,-0.21062674777110713
566,0.5561,273.769,855.024,0.00869917,483.902,0.0453575,0.0571039,-0.0416829,0.280824,-0.23686,0.558819,-1.96715e-05,-3.42663e-05,0.445903,-0.040826113606666214,0.748606176477635,-1.9671306517365927e-05,0.32422052061289874,-3.426571291709202e-05,-0.21089824546959235
567,0.5571,273.835,855.225,0.00867147,484.017,0.0453491,0.0571267,-0.0417461,0.281232,-0.237204,0.559633,-1.95843e-05,-3.41171e-05,0.446558,-0.04088673148074129,0.7500301213722351,-1.958410822888723e-05,0.32476091281782216,-3.411651801832338e-05,-0.2111696497889315
568,0.5581,273.9,855.425,0.00864386,484.132,0.0453407,0.0571494,-0.0418093,0.281639,-0.237547,0.560447,-1.94972e-05,-3.3968e-05,0.447212,-0.04094734552388779,0.7514552258298572,-1.949700993086889e-05,0.32530020024688655,-3.396742309402789e-05,-0.21144017220180789
569,0.5591,273.965,855.625,0.00861633,484.246,0.0453323,0.057172,-0.0418724,0.282046,-0.237891,0.56126,-1.94101e-05,-3.3819e-05,0.447866,-0.041007859837138505,0.7528797379141561,-1.9409911625190013e-05,0.32583970721060673,-3.3818428144094526e-05,-0.21171139013041218
570,0.5601,274.031,855.824,0.00858889,484.36,0.0453239,0.0571946,-0.0419354,0.282453,-0.238234,0.562073,-1.93231e-05,-3.367e-05,0.448519,-0.04106827443888883,0.7543054085976861,-1.9322913310082512e-05,0.32637943379835166,-3.36694331719567e-05,-0.21198172675821536
571,0.5611,274.096,856.023,0.00856154,484.474,0.0453155,0.057217,-0.0419985,0.282859,-0.238577,0.562885,-1.92361e-05,-3.35212e-05,0.449172,-0.04112878112176588,0.7557304830914107,-1.9235914987425495e-05,0.3269180531808098,-3.3520638170858597e-05,-0.21225197067645585
572,0.5621,274.161,856.222,0.00853428,484.588,0.0453071,0.0572394,-0.0420615,0.283265,-0.238919,0.563697,-1.91492e-05,-3.33724e-05,0.449825,-0.04118918810571526,0.7571567152155585,-1.9149016655228834e-05,0.3274568912871352,-3.337184314766706e-05,-0.21252133443865562
573,0.5631,274.225,856.421,0.0085071,484.701,0.0452988,0.0572617,-0.0421244,0.283671,-0.239262,0.564508,-1.90623e-05,-3.32237e-05,0.450477,-0.041249495409098835,0.7585823473272806,-1.9062118315482657e-05,0.32799594820614764,-3.322314809894866e-05,-0.21279139330320018
574,0.5641,274.29,856.619,0.00848,484.814,0.0452904,0.057284,-0.0421874,0.284077,-0.239604,0.565319,-1.89755e-05,-3.3075e-05,0.451128,-0.041309894788287616,0.7600091360956063,-1.8975319966307858e-05,0.3285352240267032,-3.307445302824785e-05,-0.2130605726144046
575,0.5651,274.355,856.817,0.00845299,484.927,0.0452821,0.0573061,-0.0422503,0.284482,-0.239946,0.566129,-1.88887e-05,-3.29265e-05,0.45178,-0.041370194499459556,0.7614353210227625,-1.8888521609583542e-05,0.32907338976363976,-3.292595792869779e-05,-0.2133296598820249
576,0.5661,274.419,857.014,0.00842607,485.04,0.0452737,0.0573282,-0.0423131,0.284887,-0.240287,0.566939,-1.8802e-05,-3.2778e-05,0.45243,-0.04143039456094333,0.7628626616276959,-1.8801823243541627e-05,0.329611773501842,-3.2777462807276336e-05,-0.21359786873579667
577,0.5671,274.484,857.211,0.00839923,485.153,0.0452654,0.0573502,-0.0423759,0.285292,-0.240629,0.567748,-1.87153e-05,-3.26296e-05,0.453081,-0.04149059084198192,0.7642893945566085,-1.8715124869839173e-05,0.3301503753296182,-3.262906766043905e-05,-0.21386677227956197
578,0.5681,274.548,857.408,0.00837247,485.265,0.0452571,0.0573721,-0.0424387,0.285697,-0.24097,0.568557,-1.86287e-05,-3.24813e-05,0.453731,-0.0415507833428127,0.7657172821794711,-1.862852648681912e-05,0.3306891953353128,-3.248077248829695e-05,-0.21413479800923052
579,0.5691,274.612,857.604,0.0083458,485.377,0.0452488,0.057394,-0.0425014,0.286101,-0.241311,0.569365,-1.85421e-05,-3.23331e-05,0.45438,-0.04161087622476556,0.7671445582853675,-1.854192809636057e-05,0.33122690237973784,-3.233257729096106e-05,-0.21440273235770668
580,0.5701,274.676,857.8,0.00831921,485.489,0.0452405,0.0574157,-0.0425641,0.286505,-0.241652,0.570173,-1.84556e-05,-3.2185e-05,0.45503,-0.04167096533901282,0.7685729880963916,-1.8455429696473402e-05,0.3317648267016957,-3.2184482068431386e-05,-0.2146705753561461
581,0.5711,274.74,857.995,0.00829271,485.601,0.0452323,0.0574374,-0.0426268,0.286909,-0.241993,0.57098,-1.83691e-05,-3.20369e-05,0.455678,-0.04173105068579086,0.7700008025434262,-1.836893128914774e-05,0.33230296838898465,-3.2036386824030316e-05,-0.2149383270356937
582,0.5721,274.804,858.19,0.00826629,485.713,0.045224,0.0574591,-0.0426894,0.287312,-0.242333,0.571786,-1.82826e-05,-3.18889e-05,0.456327,-0.04179103644444404,0.771427998272892,-1.828243287427256e-05,0.3328399946887768,-3.188839155443546e-05,-0.21520520263307907
583,0.5731,274.867,858.385,0.00823995,485.824,0.0452157,0.0574806,-0.042752,0.287716,-0.242673,0.572592,-1.81963e-05,-3.1741e-05,0.456975,-0.04185101844810635,0.7728563447858192,-1.8196134448311696e-05,0.33337857083168654,-3.174049625975783e-05,-0.21547198750818508
584,0.5741,274.931,858.58,0.00821369,485.935,0.0452075,0.0575021,-0.0428146,0.288119,-0.243013,0.573398,-1.81099e-05,-3.15932e-05,0.457622,-0.041910996697012703,0.7742858430101129,-1.8109736016791445e-05,0.33391603068661846,-3.1592700940108465e-05,-0.21573868169185195
585,0.5751,274.994,858.774,0.00818752,486.046,0.0451993,0.0575235,-0.0428771,0.288522,-0.243353,0.574203,-1.80236e-05,-3.14455e-05,0.45827,-0.041970875388490536,0.7757147181588213,-1.802343757584257e-05,0.3344537071815219,-3.144500559548735e-05,-0.21600528521490947
586,0.5761,275.058,858.968,0.00816142,486.157,0.0451911,0.0575448,-0.0429396,0.288924,-0.243692,0.575008,-1.79374e-05,-3.12978e-05,0.458916,-0.04203075033766712,0.777144744015122,-1.7937239125798143e-05,0.3349902654127874,-3.1297310228994846e-05,-0.2162710143795834
587,0.5771,275.121,859.161,0.00813541,486.268,0.0451829,0.0575661,-0.043002,0.289326,-0.244032,0.575812,-1.78512e-05,-3.11502e-05,0.459563,-0.04209052575383365,0.7785741429306754,-1.785104066831522e-05,0.335527039383823,-3.1149714837530595e-05,-0.21653743694029248
588,0.5781,275.184,859.354,0.00810948,486.378,0.0451747,0.0575873,-0.0430644,0.289728,-0.244371,0.576615,-1.77651e-05,-3.10027e-05,0.460208,-0.042150297440130546,0.7800029115412723,-1.77649422015147e-05,0.3360640291813728,-3.1002219421316646e-05,-0.2168029857361058
589,0.5791,275.247,859.547,0.00808363,486.488,0.0451665,0.0576084,-0.0431268,0.29013,-0.244709,0.577419,-1.7679e-05,-3.08553e-05,0.460854,-0.04221006539679073,0.7814346093475468,-1.7678843727386706e-05,0.33660123489221716,-3.085482398013095e-05,-0.2170676615941871
590,0.5801,275.31,859.739,0.00805786,486.598,0.0451583,0.0576294,-0.0431891,0.290532,-0.245048,0.578221,-1.7593e-05,-3.0708e-05,0.461499,-0.04226973385102484,0.7828638929703662,-1.7592845244052135e-05,0.3371386566031702,-3.070752851419556e-05,-0.2173330306743062
591,0.5811,275.372,859.931,0.00803217,486.708,0.0451502,0.0576504,-0.0432514,0.290933,-0.245386,0.579023,-1.7507e-05,-3.05607e-05,0.462144,-0.04232939858803009,0.7842943233384345,-1.7506846753390093e-05,0.337674956725456,-3.056023302661082e-05,-0.2175975274074723
592,0.5821,275.435,860.123,0.00800656,486.818,0.045142,0.0576713,-0.0433137,0.291334,-0.245725,0.579825,-1.7421e-05,-3.04135e-05,0.462788,-0.04238905960803796,0.7857259013718103,-1.7420848255289556e-05,0.33821147194721557,-3.0413037514165353e-05,-0.21786271689352366
593,0.5831,275.498,860.314,0.00798103,486.927,0.0451339,0.0576921,-0.0433759,0.291735,-0.246063,0.580626,-1.73351e-05,-3.02664e-05,0.463432,-0.042448621156147004,0.7871568408335559,-1.7334949747982442e-05,0.33874820235472103,-3.0265941977081212e-05,-0.21812703462300098
594,0.5841,275.56,860.505,0.00795559,487.037,0.0451257,0.0577129,-0.0434381,0.292135,-0.2464,0.581426,-1.72493e-05,-3.01194e-05,0.464075,-0.042508178999642876,0.7885871383489464,-1.7249151231690796e-05,0.33928380874980046,-3.0118946415469416e-05,-0.2183904814190546
595,0.5851,275.622,860.696,0.00793021,487.146,0.0451176,0.0577336,-0.0435002,0.292536,-0.246738,0.582226,-1.71635e-05,-2.99725e-05,0.464718,-0.042567637395524716,0.7900185805601665,-1.7163352707960655e-05,0.3398209692505916,-2.997205082910792e-05,-0.2186546207942659
596,0.5861,275.685,860.886,0.00790492,487.254,0.0451095,0.0577542,-0.0435623,0.292935,-0.247075,0.583026,-1.70778e-05,-2.98256e-05,0.465361,-0.04262709209915483,0.7914511683833392,-1.7077654175245982e-05,0.34035566448192744,-2.98251552212081e-05,-0.21891788982373506
597,0.5871,275.747,861.076,0.00787971,487.363,0.0451014,0.0577748,-0.0436244,0.293335,-0.247412,0.583825,-1.69921e-05,-2.96789e-05,0.466003,-0.042686543110762476,0.7928831098513145,-1.6991955635092815e-05,0.34089191399047203,-2.9678459585791295e-05,-0.21918107014648935
598,0.5881,275.809,861.266,0.00785457,487.471,0.0450934,0.0577953,-0.0436864,0.293735,-0.247749,0.584624,-1.69064e-05,-2.95322e-05,0.466645,-0.042745894705171206,0.794316195897721,-1.6906257087612175e-05,0.34142837804172554,-2.9531763928836163e-05,-0.21944416179241777
599,0.5891,275.871,861.455,0.00782952,487.58,0.0450853,0.0578157,-0.0437484,0.294134,-0.248086,0.585422,-1.68208e-05,-2.93856e-05,0.467287,-0.042805242619895045,0.7957486316879125,-1.6820658531147004e-05,0.3419637147571368,-2.93851682474644e-05,-0.2197071647913993
600,0.5901,275.932,861.644,0.00780454,487.688,0.0450773,0.0578361,-0.0438104,0.294533,-0.248423,0.586219,-1.67353e-05,-2.9239e-05,0.467928,-0.04286458685516237,0.7971804138367642,-1.67351599656973e-05,0.342499265114516,-2.923857254455431e-05,-0.21997007917330302
601,0.5911,275.994,861.833,0.00777963,487.796,0.0450692,0.0578564,-0.0438723,0.294932,-0.248759,0.587016,-1.66498e-05,-2.90926e-05,0.468568,-0.042923831703589044,0.7986133375708495,-1.66496613928091e-05,0.34303502919912376,-2.9092176814460302e-05,-0.22023212520050284
602,0.5921,276.055,862.021,0.00775481,487.903,0.0450612,0.0578766,-0.0439342,0.29533,-0.249095,0.587813,-1.65643e-05,-2.89462e-05,0.469209,-0.04298307288487313,0.8000474038003749,-1.6564162812704453e-05,0.34356966352591867,-2.894578106282797e-05,-0.22049408319502795
603,0.5931,276.117,862.209,0.00773006,488.011,0.0450532,0.0578968,-0.0439961,0.295728,-0.249431,0.588609,-1.64789e-05,-2.87999e-05,0.469849,-0.04304231039924156,0.8014808119545596,-1.6478764223726294e-05,0.3441045106795255,-2.8799485286890025e-05,-0.22075595318645214
604,0.5941,276.178,862.397,0.00770539,488.118,0.0450452,0.0579168,-0.0440579,0.296126,-0.249766,0.589404,-1.63936e-05,-2.86537e-05,0.470488,-0.04310144855707099,0.8029135586414105,-1.639346562565258e-05,0.3446395707446659,-2.865328948664647e-05,-0.22101695622168538
605,0.5951,276.239,862.584,0.00768079,488.225,0.0450372,0.0579369,-0.0441197,0.296524,-0.250102,0.590199,-1.63083e-05,-2.85076e-05,0.471127,-0.04316058306027515,0.8043474448147634,-1.630816702036242e-05,0.34517484380609575,-2.850719366220833e-05,-0.22127865055728446
606,0.5961,276.301,862.771,0.00765627,488.332,0.0450292,0.0579568,-0.0441814,0.296922,-0.250437,0.590994,-1.6223e-05,-2.83615e-05,0.471766,-0.043219618231046586,0.8057824713808701,-1.6222868407855806e-05,0.3457103299486044,-2.8361097816453906e-05,-0.22153947851822509
607,0.5971,276.362,862.958,0.00763182,488.439,0.0450212,0.0579768,-0.0442431,0.297319,-0.250772,0.591788,-1.61378e-05,-2.82155e-05,0.472404,-0.043278649759460386,0.8072168320289677,-1.613766978636466e-05,0.3462446830116588,-2.8215101946504895e-05,-0.22180021911643277
608,0.5981,276.422,863.144,0.00760746,488.545,0.0450133,0.0579966,-0.0443048,0.297716,-0.251107,0.592582,-1.60527e-05,-2.80696e-05,0.473042,-0.043337677645741146,0.8086523320116759,-1.605257115611103e-05,0.34677924825499407,-2.8069206052472317e-05,-0.22206087238116934
609,0.5991,276.483,863.33,0.00758316,488.652,0.0450053,0.0580164,-0.0443664,0.298112,-0.251441,0.593375,-1.59676e-05,-2.79238e-05,0.473679,-0.043396606229779144,0.8100871621459185,-1.5967472518529924e-05,0.34731267844951064,-2.7923410134356175e-05,-0.22232066066273592
610,0.6001,276.544,863.516,0.00755894,488.758,0.0449974,0.0580361,-0.0444281,0.298509,-0.251776,0.594167,-1.58825e-05,-2.77781e-05,0.474316,-0.04345562683837034,0.8115213190294976,-1.588237387373237e-05,0.347847667771209,-2.7777714192156466e-05,-0.22258113960875436
611,0.6011,276.605,863.701,0.0075348,488.864,0.0449895,0.0580557,-0.0444896,0.298905,-0.25211,0.594959,-1.57975e-05,-2.76324e-05,0.474953,-0.043514452508411905,0.812956612215245,-1.5797375220172327e-05,0.34838152114363763,-2.7632018228751498e-05,-0.2228407541500832
612,0.6021,276.665,863.886,0.00751073,488.97,0.0449816,0.0580753,-0.0445511,0.299301,-0.252444,0.595751,-1.57126e-05,-2.74868e-05,0.475589,-0.04357327456078597,0.814393042603468,-1.5712476557738775e-05,0.34891558596386574,-2.7486422241373987e-05,-0.2231002819946344
613,0.6031,276.725,864.071,0.00748673,489.075,0.0449737,0.0580949,-0.0446126,0.299697,-0.252777,0.596542,-1.56276e-05,-2.73413e-05,0.476225,-0.04363209299571502,0.815828795265485,-1.5627477889745833e-05,0.34944986231564323,-2.7340926230023932e-05,-0.22335894653069466
614,0.6041,276.786,864.255,0.00746281,489.181,0.0449658,0.0581143,-0.0446741,0.300092,-0.253111,0.597333,-1.55428e-05,-2.71959e-05,0.476861,-0.043690907813421664,0.8172656840571375,-1.5542679211333343e-05,0.3499830002990778,-2.7195530194812356e-05,-0.22361830132789118
615,0.6051,276.846,864.439,0.00743896,489.286,0.0449579,0.0581337,-0.0447355,0.300488,-0.253444,0.598123,-1.5458e-05,-2.70506e-05,0.477496,-0.04374962338909527,0.8187018911746593,-1.5457880525704404e-05,0.3505176994306367,-2.7050234135850282e-05,-0.22387679339223165
616,0.6061,276.906,864.623,0.00741518,489.391,0.0449501,0.0581531,-0.0447969,0.300883,-0.253777,0.598913,-1.53732e-05,-2.69053e-05,0.47813,-0.04380833535974327,0.8201392333440904,-1.5373081832970037e-05,0.35105125929304726,-2.6904938055682948e-05,-0.22413519939304505
617,0.6071,276.966,864.807,0.00739148,489.496,0.0449422,0.0581723,-0.0448583,0.301277,-0.25411,0.599702,-1.52885e-05,-2.67602e-05,0.478765,-0.04386704372558681,0.8215758898856755,-1.5288383131473182e-05,0.35158367836887927,-2.675984194899783e-05,-0.22439351935898577
618,0.6081,277.026,864.99,0.00736785,489.601,0.0449344,0.0581916,-0.0449196,0.301672,-0.254443,0.60049,-1.52038e-05,-2.66151e-05,0.479399,-0.04392565287941752,0.823011857383795,-1.52036844228709e-05,0.35211765937614103,-2.66147458213295e-05,-0.22465175331869858
619,0.6091,277.085,865.173,0.00734429,489.705,0.0449266,0.0582107,-0.0449808,0.302066,-0.254775,0.601279,-1.51192e-05,-2.647e-05,0.480032,-0.04398416283903828,0.8244507813201172,-1.511908570550613e-05,0.3526504986963883,-2.6469649672677953e-05,-0.22490912621033277
620,0.6101,277.145,865.355,0.0073208,489.81,0.0449188,0.0582298,-0.0450421,0.30246,-0.255107,0.602066,-1.50346e-05,-2.63251e-05,0.480665,-0.04404276481368741,0.8258871892373927,-1.503448698092491e-05,0.35318354799669116,-2.6324753497619646e-05,-0.22516641366834955
621,0.6111,277.205,865.537,0.00729739,489.914,0.044911,0.0582489,-0.0451033,0.302854,-0.255439,0.602853,-1.49501e-05,-2.61802e-05,0.481298,-0.044101267606277084,0.827324728052649,-1.4949988247803248e-05,0.3537168073597978,-2.6179857301578124e-05,-0.22542361572110847
622,0.6121,277.264,865.719,0.00727405,490.018,0.0449032,0.0582679,-0.0451645,0.303247,-0.255771,0.60364,-1.48656e-05,-2.60355e-05,0.48193,-0.04415976681860545,0.8287633986562533,-1.4865489507465135e-05,0.35424892261889007,-2.6035161079351887e-05,-0.22568073239695918
623,0.6131,277.323,865.901,0.00725078,490.122,0.0448955,0.0582868,-0.0452256,0.303641,-0.256103,0.604426,-1.47812e-05,-2.58908e-05,0.482562,-0.04421816687271296,0.8302013717369867,-1.478109075858658e-05,0.35478260182230104,-2.5890464836142435e-05,-0.22593776372424212
624,0.6141,277.383,866.082,0.00722758,490.225,0.0448877,0.0583057,-0.0452867,0.304034,-0.256434,0.605212,-1.46968e-05,-2.57461e-05,0.483194,-0.04427656335868624,0.8316404755088649,-1.4696692002602596e-05,0.35531513602093323,-2.574576857206079e-05,-0.2261939359256112
625,0.6151,277.442,866.263,0.00720445,490.329,0.04488,0.0583245,-0.0453478,0.304427,-0.256765,0.605998,-1.46125e-05,-2.56016e-05,0.483825,-0.04433495627674322,0.8330807108609606,-1.4612393237967147e-05,0.3558478795466353,-2.560127228179443e-05,-0.22645002334801334
626,0.6161,277.501,866.443,0.00718139,490.432,0.0448722,0.0583432,-0.0454088,0.304819,-0.257096,0.606782,-1.45282e-05,-2.54571e-05,0.484456,-0.04439325006643169,0.8345184096425573,-1.4528094466226271e-05,0.3563794761015351,-2.54567759707669e-05,-0.22670602601950574
627,0.6171,277.56,866.624,0.0071584,490.535,0.0448645,0.0583619,-0.0454698,0.305211,-0.257427,0.607567,-1.4444e-05,-2.53127e-05,0.485086,-0.0444515403003074,0.8359590719801129,-1.4443895685944952e-05,0.3569112810831334,-2.5312379636321936e-05,-0.22696194396813618
628,0.6181,277.619,866.804,0.00713548,490.638,0.0448568,0.0583806,-0.0455308,0.305603,-0.257758,0.60835,-1.43598e-05,-2.51684e-05,0.485716,-0.04450982697858741,0.8373971908835494,-1.4359696898558205e-05,0.3574432945731494,-2.516808327845954e-05,-0.22721777722194347
629,0.6191,277.677,866.983,0.00711264,490.741,0.0448491,0.0583992,-0.0455917,0.305995,-0.258088,0.609134,-1.42756e-05,-2.50242e-05,0.486346,-0.04456801455829462,0.8388382751124057,-1.4275498104066031e-05,0.3579755166533345,-2.5023886897290737e-05,-0.22747275328209637
630,0.6201,277.736,867.163,0.00708986,490.844,0.0448414,0.0584177,-0.0456526,0.306387,-0.258418,0.609917,-1.41915e-05,-2.488e-05,0.486975,-0.04462619859448613,0.8402786493147292,-1.4191399301144436e-05,0.3585079474054722,-2.4879690495360762e-05,-0.22772764521403133
631,0.6211,277.795,867.342,0.00706715,490.946,0.0448338,0.0584362,-0.0457134,0.306778,-0.258748,0.610699,-1.41075e-05,-2.4736e-05,0.487604,-0.04468428355581078,0.8417183100524761,-1.4107400489682398e-05,0.35903922787147025,-2.473569406769016e-05,-0.22798245304550613
632,0.6221,277.853,867.521,0.00704451,491.048,0.0448261,0.0584546,-0.0457742,0.307169,-0.259078,0.611481,-1.40235e-05,-2.4592e-05,0.488232,-0.044742364985677296,0.8431590970452285,-1.4023401671225955e-05,0.35957071610874713,-2.459169761925839e-05,-0.22823717680426936
633,0.6231,277.911,867.699,0.00702194,491.15,0.0448185,0.0584729,-0.045835,0.30756,-0.259408,0.612262,-1.39395e-05,-2.44481e-05,0.48886,-0.044800442884300185,0.8445991665739727,-1.3939402845664084e-05,0.36010241219855743,-2.4447801147631232e-05,-0.22849181651806028
634,0.6241,277.97,867.877,0.00699943,491.252,0.0448109,0.0584913,-0.0458958,0.307951,-0.259737,0.613043,-1.38556e-05,-2.43042e-05,0.489488,-0.04485851725189405,0.8460403612363268,-1.3855504011672792e-05,0.360634316222187,-2.4303904655353925e-05,-0.22874560096059593
635,0.6251,278.028,868.055,0.006977,491.354,0.0448033,0.0585095,-0.0459565,0.308341,-0.260066,0.613824,-1.37718e-05,-2.41605e-05,0.490115,-0.04491649258032793,0.8474826819113626,-1.377170516925208e-05,0.3611650670952067,-2.4160208137447015e-05,-0.2289993019217833
636,0.6261,278.086,868.233,0.00695463,491.456,0.0447957,0.0585277,-0.0460172,0.308731,-0.260395,0.614604,-1.3688e-05,-2.40168e-05,0.490742,-0.044974464389766045,0.848924280553635,-1.368790631972594e-05,0.3616960250014356,-2.4016511599000978e-05,-0.22925291942908343
637,0.6271,278.144,868.41,0.00693234,491.557,0.0447881,0.0585458,-0.0460778,0.309121,-0.260724,0.615383,-1.36042e-05,-2.38732e-05,0.491369,-0.04503233718366062,0.8503651537154175,-1.3604107463316417e-05,0.3622271900216325,-2.3872915037470577e-05,-0.22950645350994814
638,0.6281,278.202,868.587,0.0069101,491.658,0.0447805,0.0585639,-0.0461384,0.309511,-0.261052,0.616162,-1.35205e-05,-2.37297e-05,0.491995,-0.04509020647057027,0.8518071497546973,-1.3520408598477474e-05,0.36275856223658787,-2.372941845285581e-05,-0.22975913395133907
639,0.6291,278.259,868.764,0.00688794,491.759,0.0447729,0.058582,-0.046199,0.3099,-0.261381,0.616941,-1.34369e-05,-2.35862e-05,0.492621,-0.04514807225070727,0.8532502695465365,-1.3436809725209109e-05,0.36328877843766283,-2.358592184781294e-05,-0.2300125015150195
640,0.6301,278.317,868.94,0.00686585,491.86,0.0447654,0.0586,-0.0462595,0.310289,-0.261709,0.617719,-1.33532e-05,-2.34429e-05,0.493246,-0.045205839044872964,0.8546926592730928,-1.3353110846381355e-05,0.3638192009329617,-2.344262521736251e-05,-0.23026501599988314
641,0.6311,278.375,869.116,0.00684382,491.961,0.0447578,0.0586179,-0.04632,0.310678,-0.262037,0.618496,-1.32697e-05,-2.32996e-05,0.493871,-0.045263602344253306,0.8561343154802536,-1.326961195791121e-05,0.36434982980274877,-2.3299328566372957e-05,-0.23051744767357762
642,0.6321,278.432,869.292,0.00682185,492.061,0.0447503,0.0586358,-0.0463805,0.311067,-0.262364,0.619274,-1.31862e-05,-2.31564e-05,0.494495,-0.045321362149059796,0.8575789498676061,-1.3186113062446658e-05,0.36488066512731865,-2.3156131892632104e-05,-0.23076902733267224
643,0.6331,278.49,869.468,0.00679996,492.162,0.0447428,0.0586536,-0.0464409,0.311455,-0.262692,0.62005,-1.31027e-05,-2.30133e-05,0.49512,-0.04537902299741081,0.8590209905721331,-1.3102614159987702e-05,0.3654103415759742,-2.301303519602893e-05,-0.23102129371775837
644,0.6341,278.547,869.643,0.00677813,492.262,0.0447353,0.0586714,-0.0465013,0.311843,-0.263019,0.620826,-1.30193e-05,-2.28702e-05,0.495744,-0.04543668036315185,0.8604641507345403,-1.301921524932137e-05,0.3659402235789666,-2.2869938478997653e-05,-0.2312727086461316
645,0.6351,278.604,869.818,0.00675636,492.362,0.0447278,0.0586891,-0.0465617,0.312231,-0.263346,0.621602,-1.29359e-05,-2.27272e-05,0.496367,-0.04549433424649307,0.8619084312238643,-1.2935816331660632e-05,0.36647031121606677,-2.2726941739104056e-05,-0.2315240413752635
646,0.6361,278.661,869.993,0.00673467,492.462,0.0447204,0.0587068,-0.046622,0.312619,-0.263673,0.622377,-1.28526e-05,-2.25844e-05,0.49699,-0.04555188920283859,0.8633519695569147,-1.2852517405681496e-05,0.36700060456707595,-2.258414497435801e-05,-0.23177529193202895
647,0.6371,278.718,870.167,0.00671303,492.562,0.0447129,0.0587244,-0.0466823,0.313007,-0.264,0.623152,-1.27693e-05,-2.24415e-05,0.497613,-0.04560944068872497,0.8647966270657981,-1.2769218472818977e-05,0.36753110371182673,-2.2441248191396035e-05,-0.23202646034329388
648,0.6381,278.775,870.341,0.00669146,492.661,0.0447055,0.058742,-0.0467426,0.313394,-0.264326,0.623926,-1.2686e-05,-2.22988e-05,0.498235,-0.045666988704361366,0.8662405383767398,-1.2685919533073076e-05,0.36806044066905796,-2.229855138358161e-05,-0.23227677891307819
649,0.6391,278.832,870.515,0.00666996,492.76,0.044698,0.0587595,-0.0468028,0.313781,-0.264653,0.6247,-1.26029e-05,-2.21561e-05,0.498857,-0.04572443782240554,0.8676855677076545,-1.2602820583795804e-05,0.3685899825193357,-2.2155854555450105e-05,-0.2325277833649091
650,0.6401,278.889,870.688,0.00664852,492.86,0.0446906,0.058777,-0.046863,0.314168,-0.264979,0.625474,-1.25197e-05,-2.20136e-05,0.499479,-0.04578188348211687,0.8691317159242238,-1.2519621628848121e-05,0.36911972934196946,-2.2013357702466152e-05,-0.2327779385300247
651,0.6411,278.945,870.861,0.00662715,492.959,0.0446832,0.0587944,-0.0469231,0.314554,-0.265305,0.626247,-1.24366e-05,-2.18711e-05,0.5001,-0.04583923026763148,0.8705771133147524,-1.2436522665804084e-05,0.3696483115673017,-2.187086082927614e-05,-0.23302801215784785
652,0.6421,279.002,871.034,0.00660584,493.058,0.0446758,0.0588117,-0.0469833,0.314941,-0.26563,0.627019,-1.23536e-05,-2.17286e-05,0.500721,-0.04589666901704559,0.8720217564067163,-1.235352369455267e-05,0.3701784680425395,-2.1728363935658024e-05,-0.23327723755257623
653,0.6431,279.058,871.207,0.0065846,493.156,0.0446684,0.0588291,-0.0470434,0.315327,-0.265956,0.627791,-1.22706e-05,-2.15863e-05,0.501341,-0.045954008904156796,0.8734675151937499,-1.2270524716528897e-05,0.37070745901989444,-2.1586067017520527e-05,-0.23352714843544686
654,0.6441,279.115,871.379,0.00656342,493.255,0.0446611,0.0588463,-0.0471034,0.315712,-0.266281,0.628562,-1.21876e-05,-2.1444e-05,0.501961,-0.04601124994637418,0.8749125156240496,-1.2187525731510718e-05,0.371235282991212,-2.144377007906595e-05,-0.23377621163724283
655,0.6451,279.171,871.551,0.0065423,493.353,0.0446537,0.0588636,-0.0471634,0.316098,-0.266606,0.629333,-1.21047e-05,-2.13018e-05,0.502581,-0.046068487554231985,0.8763586305792752,-1.2104626738396185e-05,0.3717646819778777,-2.1301573118304162e-05,-0.23402519390665033
656,0.6461,279.227,871.723,0.00652125,493.452,0.0446464,0.0588807,-0.0472234,0.316483,-0.266931,0.630104,-1.20219e-05,-2.11597e-05,0.5032,-0.046125721727936386,0.8778058609190567,-1.202182773729632e-05,0.3722929130583974,-2.1159476135124144e-05,-0.23427409526996823
657,0.6471,279.283,871.895,0.00650026,493.55,0.0446391,0.0588979,-0.0472834,0.316868,-0.267256,0.630874,-1.19391e-05,-2.10177e-05,0.503819,-0.04618295246769333,0.8792523282504194,-1.193902872920205e-05,0.3728213475470368,-2.1017479129636918e-05,-0.23452291575348683
658,0.6481,279.339,872.066,0.00647933,493.648,0.0446318,0.0589149,-0.0473433,0.317253,-0.26758,0.631644,-1.18563e-05,-2.08757e-05,0.504438,-0.04624008439772209,0.8806999097905426,-1.185622971433542e-05,0.37334998552212273,-2.0875482104054655e-05,-0.23477089015476038
659,0.6491,279.395,872.237,0.00645846,493.745,0.0446245,0.058932,-0.0474032,0.317638,-0.267904,0.632413,-1.17736e-05,-2.07338e-05,0.505056,-0.04629721290565081,0.882146724250032,-1.1773530691483458e-05,0.3738788270620128,-2.0733585056276205e-05,-0.23501878422534228
660,0.6501,279.451,872.408,0.00643766,493.843,0.0446172,0.0589489,-0.047463,0.318022,-0.268229,0.633182,-1.16909e-05,-2.0592e-05,0.505674,-0.04635424262711341,0.8835946517377453,-1.1690831661748113e-05,0.3744064978379098,-2.0591787986190546e-05,-0.23526736272427495
661,0.6511,279.506,872.578,0.00641692,493.941,0.0446099,0.0589659,-0.0475228,0.318407,-0.268552,0.63395,-1.16083e-05,-2.04503e-05,0.506291,-0.0464112689383005,0.8850418080671798,-1.1608232623916415e-05,0.37493574621335224,-2.0450090894019723e-05,-0.23551433147851408
662,0.6521,279.562,872.748,0.00639624,494.038,0.0446026,0.0589828,-0.0475826,0.318791,-0.268876,0.634718,-1.15257e-05,-2.03086e-05,0.506908,-0.046468291839416365,0.8864900762395682,-1.1525633579423378e-05,0.3754638229241376,-2.0308393781753864e-05,-0.23576198471312448
663,0.6531,279.618,872.918,0.00637563,494.135,0.0445954,0.0589996,-0.0476424,0.319174,-0.2692,0.635485,-1.14432e-05,-2.01671e-05,0.507525,-0.04652531133066451,0.887937569170621,-1.1443134526833987e-05,0.37599072646390463,-2.0166896645412713e-05,-0.23600955772108434
664,0.6541,279.673,873.088,0.00635508,494.232,0.0445882,0.0590164,-0.0477021,0.319558,-0.269523,0.636252,-1.13607e-05,-2.00256e-05,0.508141,-0.04658223207047707,0.889386172754633,-1.1360635467472235e-05,0.3765192083648976,-2.0025399488976525e-05,-0.23625628678505162
665,0.6551,279.728,873.257,0.00633458,494.329,0.0445809,0.0590332,-0.0477617,0.319941,-0.269846,0.637018,-1.12783e-05,-1.98842e-05,0.508757,-0.04663905407613311,0.890833997008859,-1.1278236400236175e-05,0.377046516194705,-1.9884002310566196e-05,-0.23650293616840012
666,0.6561,279.784,873.426,0.00631415,494.426,0.0445737,0.0590499,-0.0478214,0.320324,-0.270169,0.637784,-1.11959e-05,-1.97428e-05,0.509373,-0.046695968025706414,0.8922829307213322,-1.1195837326116731e-05,0.3775740260220912,-1.974260511217185e-05,-0.23674950589686294
667,0.6571,279.839,873.595,0.00629378,494.522,0.0445665,0.0590665,-0.047881,0.320707,-0.270492,0.63855,-1.11135e-05,-1.96016e-05,0.509988,-0.04675278325290155,0.8937329747422229,-1.111343824533595e-05,0.37810173792443624,-1.960140788992426e-05,-0.23699599599616428
668,0.6581,279.894,873.763,0.00627347,494.618,0.0445594,0.0590831,-0.0479406,0.321089,-0.270814,0.639315,-1.10313e-05,-1.94604e-05,0.510603,-0.04680959509400995,0.8951822347391709,-1.1031239155467887e-05,0.3786282733501867,-1.9460210647692655e-05,-0.23724164373404522
669,0.6591,279.949,873.931,0.00625322,494.715,0.0445522,0.0590997,-0.0480001,0.321472,-0.271136,0.640079,-1.0949e-05,-1.93193e-05,0.511217,-0.046866308235869236,0.8966307072125408,-1.0948940059929413e-05,0.37915638910659144,-1.9319113383486908e-05,-0.23748721238608805
670,0.6601,280.004,874.099,0.00623303,494.811,0.044545,0.0591162,-0.0480596,0.321854,-0.271459,0.640843,-1.08668e-05,-1.91782e-05,0.511831,-0.04692301800339682,0.8980802867417219,-1.086674095651663e-05,0.37968332748605294,-1.917801609951919e-05,-0.23773346424467123
671,0.6611,280.059,874.267,0.00621291,494.907,0.0445379,0.0591327,-0.0481191,0.322236,-0.27178,0.641607,-1.07846e-05,-1.90373e-05,0.512445,-0.046979724396793765,0.8995309741728279,-1.0784541846442508e-05,0.38021046719442686,-1.903711879180925e-05,-0.23797811253449752
672,0.6621,280.113,874.434,0.00619284,495.002,0.0445308,0.0591491,-0.0481785,0.322617,-0.272102,0.64237,-1.07025e-05,-1.88964e-05,0.513058,-0.04703633211989855,0.9009808693707995,-1.0702442728494077e-05,0.38073642757151727,-1.8896221464115293e-05,-0.23822344408176255
673,0.6631,280.168,874.602,0.00617283,495.098,0.0445237,0.0591655,-0.0482379,0.322999,-0.272424,0.643133,-1.06205e-05,-1.87556e-05,0.513671,-0.04709293648060442,0.9024318712609565,-1.0620443602671337e-05,0.38126396964096965,-1.875542411478026e-05,-0.23846869664498638
674,0.6641,280.223,874.768,0.00615288,495.193,0.0445166,0.0591818,-0.0482973,0.32338,-0.272745,0.643895,-1.05385e-05,-1.86149e-05,0.514284,-0.047149537479111214,0.9038820768049984,-1.0538444470187258e-05,0.3817903314789659,-1.8614726743804155e-05,-0.23871310896308762
675,0.6651,280.277,874.935,0.00613299,495.289,0.0445095,0.0591981,-0.0483567,0.323761,-0.273066,0.644657,-1.04565e-05,-1.84742e-05,0.514896,-0.04720613511561844,0.9053333878267986,-1.0456445331041841e-05,0.3823168938990307,-1.847402935306608e-05,-0.2389574428374256
676,0.6661,280.332,875.101,0.00611316,495.384,0.0445024,0.0592144,-0.048416,0.324142,-0.273387,0.645418,-1.03746e-05,-1.83336e-05,0.515508,-0.04726263411659415,0.9067838983842003,-1.0374546184022115e-05,0.3828436569776006,-1.8333431940575906e-05,-0.23920169829317683
677,0.6671,280.386,875.267,0.00609339,495.479,0.0444953,0.0592306,-0.0484752,0.324522,-0.273708,0.646179,-1.02927e-05,-1.81932e-05,0.51612,-0.04731903449918673,0.9082355132002529,-1.0292647030341051e-05,0.38336923742121165,-1.8193034504787597e-05,-0.23944587535550954
678,0.6681,280.44,875.433,0.00607368,495.574,0.0444883,0.0592468,-0.0485345,0.324902,-0.274028,0.64694,-1.02109e-05,-1.80527e-05,0.516731,-0.04737552680542745,0.9096882331156178,-1.02108478688967e-05,0.3838950176233433,-1.8052537051005402e-05,-0.23968921373917784
679,0.6691,280.494,875.599,0.00605402,495.668,0.0444812,0.0592629,-0.0485937,0.325282,-0.274349,0.647699,-1.01291e-05,-1.79124e-05,0.517342,-0.04743192050497058,0.9111382366912997,-1.012904870079101e-05,0.384420997659918,-1.791223957392507e-05,-0.2399332343341667
680,0.6701,280.548,875.764,0.00603443,495.763,0.0444742,0.059279,-0.0486529,0.325662,-0.274669,0.648459,-1.00473e-05,-1.77721e-05,0.517952,-0.04748831086610561,0.9125912538277583,-1.0047249526023982e-05,0.3849471776068869,-1.7771942077193792e-05,-0.24017641678791202
681,0.6711,280.602,875.929,0.00601489,495.857,0.0444672,0.059295,-0.048712,0.326042,-0.274989,0.649218,-9.96563e-06,-1.76319e-05,0.518562,-0.047544602643494915,0.9140434616325597,-9.965580343274105e-06,0.3854735575402308,-1.763174455893246e-05,-0.24041952143572176
682,0.6721,280.656,876.094,0.00599541,495.951,0.0444602,0.059311,-0.0487711,0.326421,-0.275309,0.649977,-9.88399e-06,-1.74918e-05,0.519172,-0.047600891094138675,0.9154967720814855,-9.883941153532305e-06,0.3859987515365142,-1.749164701936312e-05,-0.2406625483024899
683,0.6731,280.71,876.258,0.00597599,496.046,0.0444532,0.059327,-0.0488302,0.3268,-0.275628,0.650735,-9.80238e-06,-1.73518e-05,0.519781,-0.04765717621823318,0.9169492690615324,-9.802331956798582e-06,0.3865241446190466,-1.735164945837475e-05,-0.24090473831822
684,0.6741,280.764,876.423,0.00595662,496.14,0.0444463,0.0593429,-0.0488892,0.327179,-0.275948,0.651493,-9.72083e-06,-1.72118e-05,0.52039,-0.047713362787316194,0.9184028674516722,-9.720782752853374e-06,0.38704973686329613,-1.7211651877846457e-05,-0.24114760994042617
685,0.6751,280.817,876.587,0.00593732,496.233,0.0444393,0.0593587,-0.0489482,0.327558,-0.276267,0.65225,-9.63932e-06,-1.70719e-05,0.520999,-0.04776954604148942,0.9198556482304818,-9.63927354191707e-06,0.3875755283447593,-1.707175427589913e-05,-0.24138964524617135
686,0.6761,280.871,876.75,0.00591807,496.327,0.0444324,0.0593746,-0.0490072,0.327936,-0.276586,0.653007,-9.55786e-06,-1.69321e-05,0.521607,-0.047825725980948475,0.9213095291807032,-9.557814323768454e-06,0.38810013103813623,-1.693195665275482e-05,-0.2416316033549677
687,0.6771,280.924,876.914,0.00589977,496.421,0.0444224,0.0593936,-0.0490661,0.328315,-0.276905,0.653763,-9.47644e-06,-1.67924e-05,0.522215,-0.04788180739407444,0.9227625883719317,-9.476395098739765e-06,0.38862632069444114,-1.6792259008413524e-05,-0.24187348429143696
688,0.6781,280.978,877.077,0.00587678,496.514,0.0444191,0.0594101,-0.049125,0.328693,-0.277223,0.654519,-9.39498e-06,-1.66528e-05,0.522822,-0.047937885504102384,0.9242167464912514,-9.394935867268472e-06,0.38915132066240643,-1.665266134287524e-05,-0.24211453019510232
689,0.6791,281.031,877.24,0.0058624,496.607,0.0444123,0.0594275,-0.0491839,0.32907,-0.277542,0.655275,-9.3136e-06,-1.65132e-05,0.52343,-0.047993960311226824,0.9256720043697659,-9.31355662858735e-06,0.38967512944204685,-1.6513063657908056e-05,-0.24235625710247843
690,0.6801,281.084,877.403,0.00584052,496.7,0.0444062,0.0594447,-0.0492428,0.329448,-0.27786,0.65603,-9.23226e-06,-1.63737e-05,0.524036,-0.04805003181564249,0.9271264357118081,-9.232217382804109e-06,0.39020052593465726,-1.6373565951743885e-05,-0.2425971495087973
691,0.6811,281.137,877.565,0.00582346,496.793,0.0443986,0.0594618,-0.0493016,0.329825,-0.278178,0.656784,-9.15099e-06,-1.62343e-05,0.524643,-0.048106004828149085,0.9285800369831478,-9.15094812981021e-06,0.39072473033925625,-1.623416822449375e-05,-0.24283796532350954
692,0.6821,281.19,877.727,0.00580326,496.886,0.0443922,0.0594786,-0.0493603,0.330202,-0.278496,0.657538,-9.06975e-06,-1.60949e-05,0.525249,-0.04816187936573191,0.9300347346831477,-9.069708869935411e-06,0.39124913240617265,-1.6094770477814713e-05,-0.24307870457096759
693,0.6831,281.243,877.889,0.00578527,496.979,0.0443849,0.0594953,-0.0494191,0.330579,-0.278813,0.658292,-8.98857e-06,-1.59557e-05,0.525855,-0.04821784580179589,0.931490529638827,-8.988529602960149e-06,0.3917737322099393,-1.5955572708503674e-05,-0.24331861059450488
694,0.6841,281.296,878.051,0.0057659,497.071,0.0443782,0.0595118,-0.0494778,0.330956,-0.279131,0.659045,-8.90742e-06,-1.58165e-05,0.52646,-0.04827371377450629,0.9329454897313718,-8.907380329103987e-06,0.39229852982511715,-1.5816374919874754e-05,-0.24355919702106665
695,0.6851,281.349,878.212,0.00574753,497.163,0.044371,0.0595282,-0.0495365,0.331332,-0.279448,0.659798,-8.82633e-06,-1.56774e-05,0.527065,-0.0483295784678629,0.9344015458214578,-8.826291048036339e-06,0.3928221325034662,-1.567727711015987e-05,-0.2437989507526367
696,0.6861,281.402,878.374,0.00572859,497.256,0.0443641,0.0595444,-0.0495951,0.331708,-0.279765,0.660551,-8.74528e-06,-1.55383e-05,0.52767,-0.04838534472059752,0.9358586987346815,-8.74524176019964e-06,0.3933459320934394,-1.553817928123813e-05,-0.244038628494319
697,0.6871,281.454,878.534,0.00571012,497.348,0.044357,0.0595605,-0.0496537,0.332084,-0.280082,0.661302,-8.66428e-06,-1.53994e-05,0.528274,-0.048441107705525455,0.937313074667238,-8.664242465261651e-06,0.39386992866908943,-1.539928142979541e-05,-0.24427823027019846
698,0.6881,281.507,878.695,0.00569143,497.44,0.0443499,0.0595765,-0.0497123,0.33246,-0.280399,0.662054,-8.58332e-06,-1.52605e-05,0.528878,-0.04849686742283832,0.9387704820158702,-8.583283163443589e-06,0.39439412230449666,-1.526038355914583e-05,-0.24451775610435222
699,0.6891,281.559,878.856,0.00567297,497.531,0.0443428,0.0595924,-0.0497709,0.332836,-0.280715,0.662805,-8.50241e-06,-1.51216e-05,0.529482,-0.04855262387272741,0.9402270455190009,-8.502373854635259e-06,0.3949185130737698,-1.512148566917837e-05,-0.2447564507776786
700,0.6901,281.612,879.016,0.00565446,497.623,0.0443358,0.0596081,-0.0498294,0.333211,-0.281032,0.663556,-8.42155e-06,-1.49829e-05,0.530085,-0.04860828191621713,0.9416847033121771,-8.42151453883666e-06,0.39544170560864167,-1.4982787756911975e-05,-0.24499582503995698
701,0.6911,281.664,879.176,0.00563607,497.714,0.0443287,0.0596238,-0.0498879,0.333586,-0.281348,0.664306,-8.34073e-06,-1.48442e-05,0.530688,-0.04866393670380664,0.9431415130750342,-8.34069521615799e-06,0.3959650943775055,-1.4844089825438722e-05,-0.24523436866736625
702,0.6921,281.716,879.336,0.00561769,497.806,0.0443216,0.0596394,-0.0499463,0.333961,-0.281664,0.665055,-8.25996e-06,-1.47057e-05,0.53129,-0.048719493107640344,0.9445974712566003,-8.259925886600072e-06,0.39648867945396327,-1.4705591871777557e-05,-0.24547283692689792
703,0.6931,281.769,879.495,0.00559939,497.897,0.0443145,0.0596549,-0.0500047,0.334335,-0.281979,0.665805,-8.17923e-06,-1.45671e-05,0.531892,-0.04877504626707485,0.9460564664148368,-8.179196550162082e-06,0.39701106389988117,-1.456699390034455e-05,-0.24571047555321734
704,0.6941,281.821,879.654,0.00558113,497.988,0.0443074,0.0596704,-0.0500631,0.33471,-0.282295,0.666553,-8.09856e-06,-1.44287e-05,0.532494,-0.04883059618229957,0.9475126612006692,-8.098527206734651e-06,0.39753504128846373,-1.4428595906834651e-05,-0.2459487933867417
705,0.6951,281.873,879.813,0.00556294,498.079,0.0443003,0.0596857,-0.0501214,0.335084,-0.28261,0.667302,-8.01792e-06,-1.42903e-05,0.533096,-0.04888604774211347,0.9489718945985968,-8.017887856537342e-06,0.39805781714689736,-1.4290197894117895e-05,-0.24618628211038718
706,0.6961,281.925,879.972,0.00554479,498.17,0.0442932,0.059701,-0.0501798,0.335458,-0.282926,0.66805,-7.93734e-06,-1.4152e-05,0.533697,-0.048941591175041266,0.9504302709405112,-7.937308499350593e-06,0.39858078856006873,-1.4151899860870287e-05,-0.24642444961279308
707,0.6971,281.976,880.13,0.00552669,498.26,0.0442862,0.0597163,-0.0502381,0.335832,-0.283241,0.668797,-7.8568e-06,-1.40138e-05,0.534297,-0.04899703626403573,0.9518877866672522,-7.856769135394792e-06,0.39910395560112866,-1.401370180720285e-05,-0.24666178852832332
708,0.6981,282.028,880.289,0.00550865,498.351,0.0442791,0.0597314,-0.0502963,0.336205,-0.283555,0.669544,-7.7763e-06,-1.38757e-05,0.534898,-0.049052383025918744,0.9533463915649958,-7.77626976466994e-06,0.39962591871663733,-1.3875603732893538e-05,-0.24689829959254506
709,0.6991,282.08,880.447,0.00549066,498.441,0.0442721,0.0597466,-0.0503545,0.336579,-0.28387,0.670291,-7.69585e-06,-1.37376e-05,0.535498,-0.04910772656671403,0.9548060864476564,-7.695820387065844e-06,0.4001494767094793,-1.3737505639599412e-05,-0.24713548926883822
710,0.7001,282.131,880.604,0.00547273,498.532,0.0442651,0.0597616,-0.0504127,0.336952,-0.284184,0.671037,-7.61545e-06,-1.35996e-05,0.536098,-0.049163066886608875,0.9562649158638636,-7.615421002582501e-06,0.40067182987710126,-1.3599507525885457e-05,-0.24737185161437747
711,0.7011,282.183,880.762,0.00545484,498.622,0.0442581,0.0597766,-0.0504709,0.337325,-0.284499,0.671783,-7.53509e-06,-1.34617e-05,0.536697,-0.049218403985790804,0.957724833972847,-7.535061611330107e-06,0.40119437791879675,-1.3461609391751672e-05,-0.24760889214527526
712,0.7021,282.234,880.919,0.00543701,498.712,0.0442511,0.0597916,-0.050529,0.337697,-0.284813,0.672528,-7.45478e-06,-1.33239e-05,0.537296,-0.04927364279181645,0.9591838824022128,-7.454752213198468e-06,0.40171571919084714,-1.3323811237198058e-05,-0.2478451058656468
713,0.7031,282.286,881.076,0.00541923,498.802,0.0442441,0.0598065,-0.0505871,0.33807,-0.285127,0.673273,-7.37451e-06,-1.31861e-05,0.537895,-0.04932887838856059,0.960644018227663,-7.3744828084088e-06,0.4022386566758833,-1.3186013063770652e-05,-0.24808124542655374
714,0.7041,282.337,881.233,0.0054015,498.891,0.0442371,0.0598213,-0.0506451,0.338442,-0.28544,0.674018,-7.29429e-06,-1.30484e-05,0.538493,-0.04938401571461615,0.9621052422596099,-7.294263396739886e-06,0.40276038649189605,-1.3048314870034439e-05,-0.2483165591682135
715,0.7051,282.388,881.39,0.00538383,498.981,0.0442302,0.0598361,-0.0507032,0.338814,-0.285754,0.674762,-7.21412e-06,-1.29108e-05,0.539091,-0.04943924489887974,0.9635655917424957,-7.214093978302749e-06,0.40328231042750406,-1.2910716655989418e-05,-0.24855255071602267
716,0.7061,282.439,881.546,0.00536621,499.07,0.0442233,0.0598509,-0.0507612,0.339186,-0.286067,0.675505,-7.13399e-06,-1.27733e-05,0.539688,-0.0494943758238634,0.9650250631036295,-7.1339645532075835e-06,0.4038044285549338,-1.2773218421746613e-05,-0.24878771696221114
717,0.7071,282.49,881.702,0.00534863,499.16,0.0442164,0.0598656,-0.0508191,0.339557,-0.28638,0.676248,-7.0539e-06,-1.26358e-05,0.540286,-0.04954940850629164,0.9664856192549338,-7.053875121343367e-06,0.40432533662039893,-1.2635720168630016e-05,-0.2490228096128828
718,0.7081,282.541,881.858,0.00533111,499.249,0.0442095,0.0598803,-0.0508771,0.339928,-0.286693,0.676991,-6.97386e-06,-1.24984e-05,0.540882,-0.04960453304197132,0.9679472610027082,-6.973835682710927e-06,0.4048464379786101,-1.2498321895315634e-05,-0.2492578286910695
719,0.7091,282.592,882.013,0.00531364,499.338,0.0442026,0.0598949,-0.050935,0.3403,-0.287006,0.677733,-6.89387e-06,-1.23611e-05,0.541479,-0.04965955934648125,0.9694080197448456,-6.893846237310264e-06,0.4053691380697271,-1.236102360191449e-05,-0.24949277421979588
720,0.7101,282.643,882.169,0.00529622,499.427,0.0441958,0.0599095,-0.0509928,0.34067,-0.287319,0.678475,-6.81392e-06,-1.22238e-05,0.542075,-0.049714487436513966,0.9708698627721895,-6.813896785251572e-06,0.40588922086019585,-1.2223725289639553e-05,-0.2497276462220792
721,0.7111,282.694,882.324,0.00527885,499.515,0.0441889,0.059924,-0.0510507,0.341041,-0.287631,0.679217,-6.73402e-06,-1.20866e-05,0.542671,-0.049769507374848754,0.9723327908895782,-6.733997326535679e-06,0.40641090252710055,-1.2086526957388877e-05,-0.24996169468299945
722,0.7121,282.745,882.479,0.00526154,499.604,0.0441821,0.0599385,-0.0511085,0.341412,-0.287943,0.679958,-6.65416e-06,-1.19496e-05,0.543267,-0.049824429110069124,0.9737948311066296,-6.6541378611617574e-06,0.4069327777738103,-1.1949528603838466e-05,-0.25019567013219024
723,0.7131,282.795,882.634,0.00524427,499.693,0.0441753,0.059953,-0.0511662,0.341782,-0.288255,0.680698,-6.57435e-06,-1.18125e-05,0.543862,-0.04987925265883486,0.9752559798400029,-6.5743283890196125e-06,0.407453439218014,-1.1812430232738258e-05,-0.2504295725924277
724,0.7141,282.846,882.788,0.00522705,499.781,0.0441686,0.0599675,-0.051224,0.342152,-0.288567,0.681438,-6.49458e-06,-1.16756e-05,0.544456,-0.04993416805096107,0.9767182102235998,-6.494558910219439e-06,0.4079742933425956,-1.1675531840449338e-05,-0.2506634020864811
725,0.7151,282.896,882.942,0.00520988,499.869,0.0441618,0.0599818,-0.0512817,0.342522,-0.288879,0.682178,-6.41485e-06,-1.15387e-05,0.545051,-0.049988985267972574,0.9781815230581383,-6.414829424872259e-06,0.40849534021886025,-1.1538633429508671e-05,-0.25089715863711193
726,0.7161,282.947,883.096,0.00519277,499.957,0.0441551,0.0599962,-0.0513394,0.342891,-0.28919,0.682917,-6.33518e-06,-1.14019e-05,0.545645,-0.050043799322121996,0.979643939499999,-6.3351599327576835e-06,0.4090151709022638,-1.1401834998592264e-05,-0.2511300933975431
727,0.7171,282.997,883.25,0.0051757,500.045,0.0441484,0.0600105,-0.051397,0.343261,-0.289502,0.683656,-6.25554e-06,-1.12652e-05,0.546239,-0.05009851522344788,0.9811074370670365,-6.255520434095274e-06,0.40953660297448224,-1.1265136547922161e-05,-0.2513637043631973
728,0.7181,283.047,883.404,0.00515868,500.133,0.0441417,0.0600248,-0.0514546,0.34363,-0.289813,0.684395,-6.17595e-06,-1.11285e-05,0.546832,-0.05015322797322874,0.9825720165584979,-6.175930928886686e-06,0.410056817954741,-1.1128438078489289e-05,-0.2515964940504677
729,0.7191,283.097,883.557,0.00514171,500.221,0.044135,0.0600391,-0.0515122,0.343999,-0.290124,0.685133,-6.09641e-06,-1.09919e-05,0.547425,-0.05020793757164588,0.9840356947375344,-6.096391416909874e-06,0.41057722492974813,-1.0991839589302721e-05,-0.251829211351402
730,0.7201,283.147,883.71,0.00512479,500.308,0.0441284,0.0600533,-0.0515697,0.344367,-0.290434,0.68587,-6.01691e-06,-1.08554e-05,0.548018,-0.0502625490451406,0.9854984680102958,-6.0168918983860564e-06,0.4110964128732446,-1.0855341080362457e-05,-0.2520611083499912
731,0.7211,283.197,883.863,0.00510792,500.396,0.0441218,0.0600675,-0.0516273,0.344736,-0.290745,0.686607,-5.93745e-06,-1.0719e-05,0.54861,-0.050317252346845365,0.9869623197443234,-5.937432373426255e-06,0.41161720352956177,-1.071894255177952e-05,-0.25229368117834494
732,0.7221,283.247,884.016,0.0050911,500.483,0.0441151,0.0600817,-0.0516847,0.345104,-0.291055,0.687344,-5.85804e-06,-1.05826e-05,0.549203,-0.0503717625721023,0.988427250734736,-5.858022841698229e-06,0.4121367742556108,-1.0582544004433814e-05,-0.2525254342136033
733,0.7231,283.297,884.168,0.00507433,500.57,0.0441086,0.0600958,-0.0517422,0.345472,-0.291365,0.68808,-5.77868e-06,-1.04463e-05,0.549794,-0.05042636462593031,0.9898912718849724,-5.778663303424025e-06,0.4126565362188723,-1.0446245437556456e-05,-0.2527571154165552
734,0.7241,283.347,884.32,0.0050576,500.657,0.044102,0.0601099,-0.0517996,0.34584,-0.291675,0.688816,-5.69936e-06,-1.03101e-05,0.550386,-0.050480868588322014,0.9913563709513997,-5.699343758713837e-06,0.41317648948973495,-1.0310046851147447e-05,-0.2529887248094653
735,0.7251,283.397,884.472,0.00504093,500.744,0.0440954,0.0601239,-0.051857,0.346208,-0.291985,0.689552,-5.62008e-06,-1.0174e-05,0.550977,-0.05053536942227621,0.9928225487276565,-5.620064207345621e-06,0.4136966341386126,-1.0173948244984743e-05,-0.2532202624145914
736,0.7261,283.446,884.624,0.0050243,500.831,0.0440889,0.0601379,-0.0519144,0.346575,-0.292295,0.690287,-5.54085e-06,-1.00379e-05,0.551567,-0.0505898671279722,0.9942878117191563,-5.540834649542248e-06,0.4142155560196821,-1.0037849620503358e-05,-0.25345172825418405
737,0.7271,283.496,884.775,0.00500772,500.918,0.0440824,0.0601519,-0.0519717,0.346943,-0.292604,0.691021,-5.46166e-06,-9.90192e-06,0.552158,-0.05064426677002121,0.9957521563216836,-5.4616450851918685e-06,0.41473608311540855,-9.90187097615891e-06,-0.2536823760332364
738,0.7281,283.545,884.927,0.00499119,501.004,0.0440759,0.0601659,-0.052029,0.34731,-0.292914,0.691755,-5.38251e-06,-9.766e-06,0.552748,-0.0506986632950599,0.9972175761477078,-5.382495514294483e-06,0.41525538654426253,-9.765952312723591e-06,-0.2539136986398096
739,0.7291,283.595,885.078,0.0049747,501.091,0.0440694,0.0601798,-0.0520863,0.347676,-0.293223,0.692489,-5.30341e-06,-9.63015e-06,0.553337,-0.05075305670326713,0.9986840719867329,-5.303395936961941e-06,0.4157734648182785,-9.63010363030925e-06,-0.25414420369206525
740,0.7301,283.644,885.229,0.00495827,501.177,0.044063,0.0601937,-0.0521435,0.348043,-0.293532,0.693223,-5.22436e-06,-9.49437e-06,0.553927,-0.050807352075561196,1.000151644628842,-5.22434635308322e-06,0.4162931490360877,-9.49432492858282e-06,-0.25437463752926315
741,0.7311,283.693,885.379,0.00494188,501.263,0.0440566,0.0602076,-0.0522007,0.348409,-0.29384,0.693955,-5.14535e-06,-9.35867e-06,0.554516,-0.050861644342248824,1.0016162916281126,-5.145336762657493e-06,0.41681160720069155,-9.358626207767173e-06,-0.2546042547780325
742,0.7321,283.743,885.53,0.00492554,501.349,0.0440501,0.0602214,-0.0522579,0.348776,-0.294149,0.694688,-5.06638e-06,-9.22304e-06,0.555104,-0.05091593350350765,1.0030840142244917,-5.066367165906804e-06,0.4173316724866769,-9.222997467861482e-06,-0.2548345464814056
743,0.7331,283.792,885.68,0.00490924,501.435,0.0440437,0.0602352,-0.052315,0.349141,-0.294457,0.69542,-4.98745e-06,-9.08748e-06,0.555692,-0.0509701246565325,1.0045508085041153,-4.987437562720132e-06,0.41784909297062844,-9.08743870897677e-06,-0.25506402210003
744,0.7341,283.841,885.83,0.00489299,501.521,0.0440374,0.060249,-0.0523721,0.349507,-0.294766,0.696152,-4.90858e-06,-8.952e-06,0.55628,-0.05102431271533081,1.006018676870219,-4.908567952988108e-06,0.418368120714939,-8.95195993100284e-06,-0.2552941717572478
745,0.7351,283.89,885.98,0.00487679,501.607,0.044031,0.0602627,-0.0524292,0.349873,-0.295074,0.696883,-4.82974e-06,-8.81659e-06,0.556868,-0.05107849768007933,1.0074856126227059,-4.829728336819272e-06,0.4188873384581717,-8.816551133938866e-06,-0.2555235058330859
746,0.7361,283.939,886.129,0.00486064,501.692,0.0440247,0.0602764,-0.0524862,0.350238,-0.295382,0.697614,-4.75095e-06,-8.68125e-06,0.557455,-0.05113258466421777,1.0089536210972598,-4.75093871421528e-06,0.41940532686384224,-8.681212318006892e-06,-0.2557527692849053
747,0.7371,283.988,886.278,0.00484453,501.778,0.0440183,0.0602901,-0.0525433,0.350603,-0.295689,0.698344,-4.6722e-06,-8.54598e-06,0.558042,-0.0511867634468145,1.0104206926566297,-4.672189085286327e-06,0.41992350436978954,-8.54594348320692e-06,-0.255981218116045
748,0.7381,284.036,886.427,0.00482847,501.863,0.044012,0.0603037,-0.0526002,0.350968,-0.295997,0.699074,-4.5935e-06,-8.41079e-06,0.558629,-0.05124074938405998,1.0118888355692346,-4.593489449922217e-06,0.4204418710450477,-8.410754629428752e-06,-0.25621034061418935
749,0.7391,284.085,886.576,0.00481245,501.948,0.0440057,0.0603173,-0.0526572,0.351333,-0.296304,0.699803,-4.51484e-06,-8.27567e-06,0.559215,-0.051294827120114905,1.0133560372604031,-4.514829808122123e-06,0.4209604269586764,-8.275635756782584e-06,-0.25643864899249147
750,0.7401,284.134,886.725,0.00479648,502.033,0.0439995,0.0603309,-0.0527141,0.351697,-0.296611,0.700533,-4.43622e-06,-8.14062e-06,0.559801,-0.05134880690871224,1.0148263237568815,-4.436210159997067e-06,0.42147775070129856,-8.140586865268418e-06,-0.2566668872908794
751,0.7411,284.182,886.873,0.00478056,502.118,0.0439932,0.0603444,-0.052771,0.352062,-0.296918,0.701261,-4.35765e-06,-8.00564e-06,0.560387,-0.05140278362594697,1.0162936513630205,-4.357640505436855e-06,0.42199668478001273,-8.005607954997274e-06,-0.2568950555308642
752,0.7421,284.231,887.022,0.00476468,502.203,0.043987,0.060358,-0.0528279,0.352426,-0.297225,0.70199,-4.27912e-06,-7.87074e-06,0.560972,-0.051456757271993836,1.017764065335637,-4.279110844551681e-06,0.42251438578914025,-7.870709025858957e-06,-0.25712315373395056
753,0.7431,284.279,887.17,0.00474885,502.288,0.0439808,0.0603715,-0.0528847,0.352789,-0.297531,0.702717,-4.20063e-06,-7.7359e-06,0.561557,-0.05151063299809566,1.0192315131637892,-4.200621177341546e-06,0.4230308522441719,-7.735870077962836e-06,-0.25735043927244705
754,0.7441,284.327,887.318,0.00473307,502.372,0.0439746,0.0603849,-0.0529415,0.353153,-0.297838,0.703445,-4.12219e-06,-7.60114e-06,0.562141,-0.05156450566414317,1.0207020489154393,-4.122181503807276e-06,0.4235489297587762,-7.601111111421588e-06,-0.25757839769418234
755,0.7451,284.376,887.465,0.00471732,502.456,0.0439684,0.0603983,-0.0529983,0.353517,-0.298144,0.704172,-4.04379e-06,-7.46646e-06,0.562726,-0.05161837527031021,1.022171633434247,-4.043781823837023e-06,0.42406719588792163,-7.466432126013167e-06,-0.2578055439493384
756,0.7461,284.424,887.613,0.00470163,502.541,0.0439622,0.0604117,-0.053055,0.35388,-0.29845,0.704899,-3.96543e-06,-7.33184e-06,0.56331,-0.05167214698398992,1.0236422867294532,-3.96542213765283e-06,0.42458422611533786,-7.331813122180009e-06,-0.25803262070837396
757,0.7471,284.472,887.76,0.00468598,502.625,0.0439561,0.0604251,-0.0531117,0.354243,-0.298756,0.705625,-3.88712e-06,-7.1973e-06,0.563893,-0.051725915648899834,1.025111984465343,-3.887112445144503e-06,0.425101444058795,-7.197274099479678e-06,-0.2582596279925513
758,0.7481,284.52,887.907,0.00467037,502.709,0.0439499,0.0604385,-0.0531684,0.354606,-0.299062,0.706351,-3.80885e-06,-7.06282e-06,0.564476,-0.05177968126521293,1.0265827495892044,-3.808842746311214e-06,0.4256188497864464,-7.0627950583546095e-06,-0.2584865658231268
759,0.7491,284.568,888.053,0.00465481,502.793,0.0439438,0.0604518,-0.053225,0.354968,-0.299367,0.707076,-3.73063e-06,-6.92842e-06,0.565059,-0.051833349016441654,1.0280525548226733,-3.730623041153791e-06,0.4261350172307399,-6.9283959985844135e-06,-0.25871269293441324
760,0.7501,284.616,888.2,0.00463929,502.877,0.0439377,0.060465,-0.0532816,0.355331,-0.299673,0.707801,-3.65245e-06,-6.7941e-06,0.565642,-0.05188701373016158,1.029523426051313,-3.652443329782429e-06,0.4266527982135573,-6.79407692016909e-06,-0.2589394921483259
761,0.7511,284.664,888.346,0.00462382,502.961,0.0439316,0.0604783,-0.0533382,0.355693,-0.299978,0.708526,-3.57431e-06,-6.65984e-06,0.566224,-0.05194067540654468,1.03099536404825,-3.5743036121971272e-06,0.4271693400149359,-6.659817823329028e-06,-0.25916548113814786
762,0.7521,284.712,888.492,0.00460839,503.044,0.0439255,0.0604915,-0.0533948,0.356055,-0.300283,0.70925,-3.49621e-06,-6.52565e-06,0.566806,-0.05199433404576281,1.032466337119819,-3.496203888286864e-06,0.4276860688382955,-6.525628707954034e-06,-0.2593914012118381
763,0.7531,284.76,888.638,0.00459301,503.128,0.0439195,0.0605047,-0.0534513,0.356416,-0.300588,0.709973,-3.41816e-06,-6.39154e-06,0.567388,-0.05204789485278216,1.03393634162415,-3.4181541580524666e-06,0.42820155654907954,-6.391519574155957e-06,-0.2596172523904129
764,0.7541,284.807,888.784,0.00457767,503.211,0.0439135,0.0605179,-0.0535078,0.356778,-0.300892,0.710697,-3.34015e-06,-6.2575e-06,0.567969,-0.05210145263370147,1.0354094447344648,-3.340144421715152e-06,0.42871865910246565,-6.25748042193397e-06,-0.2598422945375467
765,0.7551,284.855,888.93,0.00456237,503.294,0.0439074,0.060531,-0.0535643,0.357139,-0.301197,0.71142,-3.26218e-06,-6.12353e-06,0.56855,-0.05215500738869161,1.0368815778750111,-3.262174679052876e-06,0.4292345196456273,-6.1235112511770495e-06,-0.2600680082146273
766,0.7561,284.902,889.075,0.00454712,503.377,0.0439014,0.0605441,-0.0536207,0.357501,-0.301501,0.712142,-3.18426e-06,-5.98963e-06,0.569131,-0.052208464338774685,1.0383527373989176,-3.1842549302885104e-06,0.42975199619934434,-5.989612062218264e-06,-0.260292913352817
767,0.7571,284.95,889.22,0.00453191,503.46,0.0438954,0.0605572,-0.0536771,0.357861,-0.301805,0.712864,-3.10638e-06,-5.85581e-06,0.569711,-0.052261918273970864,1.0398249594835383,-3.106375175199183e-06,0.4302667995770242,-5.855792854725372e-06,-0.26051775013023604
768,0.7581,284.997,889.365,0.00451674,503.543,0.0438895,0.0605702,-0.0537335,0.358222,-0.302109,0.713586,-3.02854e-06,-5.72205e-06,0.570291,-0.05231536919445001,1.0412982448963195,-3.0285354140069387e-06,0.4307832190997869,-5.72203362914081e-06,-0.26074251856766295
769,0.7591,285.045,889.509,0.00450162,503.626,0.0438835,0.0605833,-0.0537898,0.358583,-0.302413,0.714307,-2.95074e-06,-5.58837e-06,0.57087,-0.05236872233725931,1.042770551633688,-2.950735646600755e-06,0.4312998250836517,-5.588354385133165e-06,-0.2609672186858699
770,0.7601,285.092,889.654,0.00448654,503.709,0.0438775,0.0605962,-0.0538461,0.358943,-0.302717,0.715028,-2.87299e-06,-5.45475e-06,0.57145,-0.052422072476371206,1.0442439202869886,-2.8729858729814595e-06,0.4318151857800412,-5.454735122922827e-06,-0.26119185050562277
771,0.7611,285.139,889.798,0.0044715,503.791,0.0438716,0.0606092,-0.0539024,0.359303,-0.30302,0.715749,-2.79528e-06,-5.32121e-06,0.572029,-0.0524754196119549,1.0457183516221393,-2.795276093259247e-06,0.432330732039681,-5.321195842400428e-06,-0.261415675463726
772,0.7621,285.186,889.942,0.00445651,503.874,0.0438657,0.0606221,-0.0539586,0.359663,-0.303323,0.716469,-2.71762e-06,-5.18774e-06,0.572607,-0.052528668997051,1.0471917992127873,-2.7176163073239223e-06,0.4328464639293854,-5.187726543676163e-06,-0.2616394326131405
773,0.7631,285.233,890.086,0.00444156,503.956,0.0438598,0.0606351,-0.0540149,0.360023,-0.303626,0.717188,-2.63999e-06,-5.05434e-06,0.573186,-0.05258201013141939,1.0486642594024258,-2.6399865152848534e-06,0.4333623815159937,-5.054327226861055e-06,-0.2618631219744091
774,0.7641,285.28,890.23,0.00442665,504.038,0.0438539,0.0606479,-0.054071,0.360382,-0.303929,0.717908,-2.56241e-06,-4.92101e-06,0.573764,-0.05263515878981717,1.0501398288104378,-2.5624067170326725e-06,0.43387705098860074,-4.920997891844081e-06,-0.2620867435680685
775,0.7651,285.327,890.373,0.00441178,504.12,0.043848,0.0606608,-0.0541272,0.360742,-0.304232,0.718626,-2.48487e-06,-4.78776e-06,0.574341,-0.052688399197823754,1.0516123577821639,-2.4848669126775746e-06,0.43439333965334037,-4.787748538737091e-06,-0.2623102974146493
776,0.7661,285.374,890.516,0.00439696,504.202,0.0438422,0.0606736,-0.0541833,0.361101,-0.304534,0.719345,-2.40738e-06,-4.65457e-06,0.574919,-0.05274154188796232,1.0530879974963159,-2.407377102220387e-06,0.43490837930636195,-4.65455916753843e-06,-0.26253304606809047
777,0.7671,285.421,890.659,0.00438218,504.284,0.0438363,0.0606864,-0.0542394,0.36146,-0.304837,0.720063,-2.32992e-06,-4.52145e-06,0.575496,-0.05279468159687972,1.0545626440132665,-2.3299172857704775e-06,0.43542360389181245,-4.521439778248926e-06,-0.26275646470549896
778,0.7681,285.468,890.802,0.00436744,504.366,0.0438305,0.0606992,-0.0542955,0.361818,-0.305139,0.720781,-2.25251e-06,-4.38841e-06,0.576072,-0.052847818324742946,1.0560383497066153,-2.252507463107456e-06,0.43593757753779894,-4.3884003709804276e-06,-0.2629790786367623
779,0.7691,285.514,890.945,0.00435274,504.447,0.0438247,0.0607119,-0.0543515,0.362177,-0.305441,0.721498,-2.17514e-06,-4.25543e-06,0.576649,-0.05290085736180983,1.0575130578230372,-2.1751376343415174e-06,0.4364531716717446,-4.2554209456202585e-06,-0.263201625348769
780,0.7701,285.561,891.087,0.00433808,504.529,0.0438189,0.0607246,-0.0544075,0.362535,-0.305743,0.722215,-2.09782e-06,-4.12253e-06,0.577225,-0.05295389342877388,1.0589888236843348,-2.0978177995845115e-06,0.43696751396898104,-4.122521502392118e-06,-0.26342410486181633
781,0.7711,285.607,891.23,0.00432347,504.61,0.0438131,0.0607373,-0.0544635,0.362893,-0.306045,0.722931,-2.02053e-06,-3.9897e-06,0.5778,-0.0530069265258013,1.060463587584565,-2.0205279587237612e-06,0.43748204043372363,-3.989692041184156e-06,-0.26364651719619514
782,0.7721,285.654,891.372,0.0043089,504.691,0.0438074,0.06075,-0.0545195,0.363251,-0.306346,0.723647,-1.94329e-06,-3.85694e-06,0.578376,-0.053059956653058404,1.0619394077938615,-1.9432881117609213e-06,0.4379967511319167,-3.8569325619963735e-06,-0.2638681262406848
783,0.7731,285.7,891.514,0.00429436,504.773,0.0438016,0.0607626,-0.0545754,0.363609,-0.306648,0.724363,-1.86609e-06,-3.72424e-06,0.578951,-0.05311288912200518,1.0634162850688118,-1.8660882588061867e-06,0.4385116461295273,-3.7242330650499866e-06,-0.2640904045008533
784,0.7741,285.747,891.655,0.00427987,504.854,0.0437959,0.0607752,-0.0546313,0.363966,-0.306949,0.725078,-1.78894e-06,-3.59162e-06,0.579525,-0.053165818632109674,1.064892155273359,-1.7889383998603847e-06,0.4390252864665405,-3.591613550124606e-06,-0.26431187995537053
785,0.7751,285.793,891.797,0.00426542,504.935,0.0437901,0.0607878,-0.0546871,0.364323,-0.30725,0.725793,-1.71182e-06,-3.45907e-06,0.5801,-0.053218650505407084,1.0663690811024433,-1.7118185348108383e-06,0.4395391102058892,-3.459064017441449e-06,-0.26453328875580784
786,0.7761,285.839,891.938,0.00425101,505.015,0.0437844,0.0608004,-0.054743,0.364681,-0.307551,0.726507,-1.63475e-06,-3.32659e-06,0.580674,-0.05327157410361549,1.0678449954650766,-1.6347486637702247e-06,0.4400545574668975,-3.326584466889493e-06,-0.2647546309222252
787,0.7771,285.885,892.079,0.00423665,505.096,0.0437787,0.0608129,-0.0547988,0.365037,-0.307851,0.727221,-1.55772e-06,-3.19418e-06,0.581248,-0.053324400075922096,1.0693219640068623,-1.5577187867377162e-06,0.4405673081535626,-3.1941748985797602e-06,-0.2649751714502152
788,0.7781,285.931,892.22,0.00422232,505.177,0.043773,0.0608254,-0.0548545,0.365394,-0.308152,0.727935,-1.48073e-06,-3.06184e-06,0.581821,-0.053377128438339416,1.0707999874807523,-1.4807289037133131e-06,0.44108168249293,-3.0618353126232734e-06,-0.265196380629957
789,0.7791,285.977,892.361,0.00420803,505.257,0.0437674,0.0608379,-0.0549103,0.365751,-0.308452,0.728648,-1.40378e-06,-2.92957e-06,0.582394,-0.053429948520878456,1.0722769943622072,-1.4037790146970153e-06,0.44159624049671864,-2.9295657087979876e-06,-0.2654167886529115
790,0.7801,286.023,892.501,0.00419379,505.338,0.0437617,0.0608503,-0.054966,0.366107,-0.308752,0.729361,-1.32688e-06,-2.79737e-06,0.582967,-0.053482671004411064,1.0737550547250905,-1.3268791196896501e-06,0.4421095401202473,-2.7973660873259476e-06,-0.26563713056337657
791,0.7811,286.069,892.641,0.00417958,505.418,0.0437561,0.0608627,-0.0550217,0.366463,-0.309052,0.730073,-1.25002e-06,-2.66524e-06,0.58354,-0.05353539055138312,1.0752320940876694,-1.2500192186903902e-06,0.44262302251097263,-2.6652364482071533e-06,-0.2658574063811828
792,0.7821,286.115,892.781,0.00416541,505.498,0.0437504,0.0608751,-0.0550773,0.366819,-0.309352,0.730785,-1.1732e-06,-2.53319e-06,0.584112,-0.05358801252076417,1.076710185476752,-1.173199311810258e-06,0.4431366877339713,-2.533186791442432e-06,-0.2660776161261551
793,0.7831,286.161,892.921,0.00415129,505.578,0.0437448,0.0608875,-0.0551329,0.367174,-0.309652,0.731497,-1.09642e-06,-2.4012e-06,0.584684,-0.053640631564445096,1.0781893296416474,-1.096419398938231e-06,0.4436490922045291,-2.4011971171411517e-06,-0.2662977598181123
794,0.7841,286.207,893.061,0.0041372,505.658,0.0437392,0.0608998,-0.0551885,0.36753,-0.309951,0.732208,-1.01968e-06,-2.26928e-06,0.585255,-0.05369324768258843,1.0796674476637111,-1.0196794800743092e-06,0.4441631227733662,-2.269277425193117e-06,-0.26651710399433826
795,0.7851,286.252,893.201,0.00412316,505.738,0.0437336,0.0609122,-0.0552441,0.367885,-0.31025,0.732919,-9.42986e-07,-2.13743e-06,0.585826,-0.05374586087535693,1.0811466170013868,-9.429855554188293e-07,0.4446758916930489,-2.13742771570935e-06,-0.2667363825964594
796,0.7861,286.298,893.34,0.00410915,505.818,0.043728,0.0609245,-0.0552996,0.36824,-0.31055,0.733629,-8.66332e-07,-2.00565e-06,0.586397,-0.05379837652275565,1.0826247557766289,-8.663316247714548e-07,0.4451888426780126,-2.0056479886898515e-06,-0.26695632868811703
797,0.7871,286.343,893.479,0.00409518,505.897,0.0437225,0.0609367,-0.0553551,0.368595,-0.310848,0.734339,-7.89721e-07,-1.87394e-06,0.586968,-0.053850889255616874,1.0841039444030542,-7.897206881768426e-07,0.4457019757929024,-1.8739382441346208e-06,-0.2671747431567958
798,0.7881,286.389,893.618,0.00408125,505.977,0.0437169,0.060949,-0.0554106,0.36895,-0.311147,0.735049,-7.13151e-07,-1.7423e-06,0.587538,-0.05390339907410224,1.0855841836263225,-7.131507456792363e-07,0.44621529110238534,-1.7422984821546805e-06,-0.2673938251542012
799,0.7891,286.434,893.757,0.00406736,506.056,0.0437114,0.0609612,-0.055466,0.369304,-0.311446,0.735758,-6.36623e-07,-1.61073e-06,0.588108,-0.05395581137395944,1.087063387128191,-6.366227973675365e-07,0.44672734194308705,-1.6107287027500305e-06,-0.2676128416558814
800,0.7901,286.48,893.895,0.00405351,506.135,0.0437059,0.0609734,-0.0555215,0.369658,-0.311744,0.736467,-5.60136e-07,-1.47922e-06,0.588677,-0.05400831536942885,1.088543639757214,-5.601358431528425e-07,0.4472395740818742,-1.4792189059198435e-06,-0.26783106051284333
801,0.7911,286.525,894.034,0.0040397,506.214,0.0437004,0.0609856,-0.0555768,0.370013,-0.312043,0.737176,-4.83691e-07,-1.34779e-06,0.589247,-0.05406062726315164,1.0900249422574864,-4.836908830130326e-07,0.44775343533564915,-1.3477890917767965e-06,-0.268049946300694
802,0.7921,286.57,894.172,0.00402593,506.294,0.0436949,0.0609977,-0.0556322,0.370366,-0.312341,0.737884,-4.07287e-07,-1.21643e-06,0.589816,-0.0541130308528085,1.091505203867381,-4.07286917081251e-07,0.44826458251049117,-1.2164292600980176e-06,-0.26826803491987816
803,0.7931,286.615,894.31,0.0040122,506.372,0.0436894,0.0610098,-0.0556875,0.37072,-0.312639,0.738591,-3.30925e-07,-1.08514e-06,0.590384,-0.05416533695592518,1.0929844208881168,-3.3092494522435345e-07,0.44877735892877113,-1.0851394112165735e-06,-0.2684860585583365
804,0.7941,286.66,894.448,0.00399851,506.451,0.0436839,0.0610219,-0.0557428,0.371074,-0.312937,0.739299,-2.54605e-07,-9.53913e-07,0.590953,-0.05421764016659447,1.0944667785507973,-2.5460496755336237e-07,0.44929031690203636,-9.53912545065272e-07,-0.26870401723543025
805,0.7951,286.705,894.585,0.00398485,506.53,0.0436785,0.061034,-0.0557981,0.371427,-0.313234,0.740005,-1.78326e-07,-8.22759e-07,0.591521,-0.05426994048497613,1.0959459941981362,-1.7832598409039946e-07,0.4498020066918371,-8.227586615339177e-07,-0.26892117989206055
806,0.7961,286.75,894.723,0.00397123,506.609,0.043673,0.061046,-0.0558533,0.37178,-0.313532,0.740712,-1.02088e-07,-6.91674e-07,0.592088,-0.0543221433434492,1.0974283519677597,-1.0208799483546471e-07,0.45031387714001814,-6.916737608220203e-07,-0.2691390089223151
807,0.7971,286.795,894.86,0.00395765,506.687,0.0436676,0.0610581,-0.0559085,0.372133,-0.313829,0.741418,-2.58911e-08,-5.60658e-07,0.592656,-0.05437434332040403,1.0989096592241823,-2.589109970863035e-08,0.45082592831036306,-5.606578428185571e-07,-0.26935604240559763
808,0.7981,286.84,894.997,0.00394411,506.766,0.0436622,0.0610701,-0.0559637,0.372485,-0.314126,0.742124,5.02641e-08,-4.29711e-07,0.593223,-0.05442654041599959,1.1003920126527835,5.026410132558112e-08,0.45133670892924327,-4.2971090763455067e-07,-0.26957301143950674
809,0.7991,286.885,895.134,0.00393061,506.844,0.0436568,0.061082,-0.0560189,0.372838,-0.314423,0.742829,1.26378e-07,-2.98834e-07,0.59379,-0.0544787346303951,1.1018733111180592,1.2637800805848087e-07,0.4518491212229441,-2.9883395535890145e-07,-0.26978991604318114
810,0.8001,286.93,895.271,0.00391714,506.922,0.0436514,0.061094,-0.056074,0.37319,-0.31472,0.743534,2.02451e-07,-1.68025e-07,0.594356,-0.054530831416837344,1.1033556542669607,2.0245102039240237e-07,0.45236026206912583,-1.6802498592483062e-07,-0.27000675623575376
811,0.8011,286.974,895.407,0.00390372,507.0,0.043646,0.0611059,-0.0561291,0.373542,-0.315016,0.744238,2.78483e-07,-3.72853e-08,0.594922,-0.054582925332825716,1.1048369379982588,2.784830388513626e-07,0.4528715828685552,-3.72852992924777e-08,-0.270222802259519
812,0.8021,287.019,895.543,0.00389033,507.078,0.0436406,0.0611178,-0.0561841,0.373894,-0.315313,0.744943,3.54473e-07,9.33856e-08,0.595488,-0.05463492184201524,1.1063213712407824,3.544730629023718e-07,0.45338308368458735,9.338560436056298e-08,-0.2704395139039758
813,0.8031,287.064,895.68,0.00387697,507.156,0.0436353,0.0611297,-0.0562392,0.374246,-0.315609,0.745646,4.30423e-07,2.23988e-07,0.596054,-0.0546870100227792,1.1078026357682416,4.304230927232311e-07,0.45389476458059863,2.2398802501655268e-07,-0.2706554318504276
814,0.8041,287.108,895.815,0.00386366,507.234,0.0436299,0.0611416,-0.0562942,0.374598,-0.315905,0.74635,5.06331e-07,3.54521e-07,0.596619,-0.0547390008074683,1.1092870512767727,5.063311281361393e-07,0.4544066256199888,3.5452106295075225e-07,-0.2708712858946253
815,0.8051,287.152,895.951,0.00385038,507.312,0.0436246,0.0611534,-0.0563492,0.374949,-0.316201,0.747053,5.82198e-07,4.84986e-07,0.597184,-0.054790988732742796,1.110770401410302,5.821981694520417e-07,0.45491721194823986,4.849861177103065e-07,-0.2710870760554812
816,0.8061,287.197,896.087,0.00383714,507.389,0.0436193,0.0611652,-0.0564041,0.3753,-0.316497,0.747755,6.58025e-07,6.15381e-07,0.597748,-0.05484287928305276,1.1122526824518646,6.580252165377942e-07,0.4554279775237484,6.15381189339459e-07,-0.27130280235190174
817,0.8071,287.241,896.222,0.00382394,507.467,0.043614,0.061177,-0.056459,0.375651,-0.316793,0.748458,7.3381e-07,7.45709e-07,0.598312,-0.05489476698464968,1.1137381181571024,7.338102692155957e-07,0.455938922409441,7.457092781049113e-07,-0.2715184648027883
818,0.8081,287.285,896.357,0.00381077,507.544,0.0436087,0.0611887,-0.0565139,0.376002,-0.317088,0.749159,8.09555e-07,8.75968e-07,0.598876,-0.054946651837689986,1.1152203680458186,8.095553276632472e-07,0.4564500466682664,8.759683836068177e-07,-0.2717333351607354
819,0.8091,287.33,896.492,0.00379764,507.621,0.0436034,0.0612005,-0.0565688,0.376352,-0.317383,0.749861,8.85258e-07,1.00616e-06,0.59944,-0.05499853384233,1.1167057740606965,8.852583919249923e-07,0.45695989340257426,1.006160506245024e-06,-0.2719481421412756
820,0.8101,287.374,896.627,0.00378455,507.699,0.0435981,0.0612122,-0.0566236,0.376702,-0.317678,0.750562,9.60921e-07,1.13628e-06,0.600003,-0.05505031850376274,1.1181901050055258,9.60921461734543e-07,0.4574699186144706,1.1362806455750274e-06,-0.2721628857631023
821,0.8111,287.418,896.762,0.00377149,507.776,0.0435929,0.0612239,-0.0566784,0.377053,-0.317973,0.751262,1.03654e-06,1.26633e-06,0.600566,-0.05510210032747387,1.1196733571567163,1.036540537180386e-06,0.4579815803472853,1.2663308017746289e-06,-0.2723775660449037
822,0.8121,287.462,896.897,0.00375847,507.853,0.0435877,0.0612356,-0.0567332,0.377403,-0.318268,0.751963,1.11212e-06,1.39632e-06,0.601129,-0.0551538793136187,1.1211597691066033,1.1121206184849797e-06,0.4584919632121982,1.3963209748446559e-06,-0.27259218300536237
823,0.8131,287.506,897.031,0.00374549,507.929,0.0435824,0.0612472,-0.0567879,0.377752,-0.318563,0.752663,1.18767e-06,1.52624e-06,0.601691,-0.05520556098291374,1.1226451007504021,1.1876707053382063e-06,0.45900106574058297,1.526241164784281e-06,-0.27280673666315536
824,0.8141,287.55,897.165,0.00373254,508.006,0.0435772,0.0612588,-0.0568426,0.378102,-0.318857,0.753362,1.26317e-06,1.65608e-06,0.602253,-0.05525723982529873,1.1241293483599324,1.263170797738411e-06,0.4595118054878342,1.6560813713706324e-06,-0.27302050005781764
825,0.8151,287.594,897.299,0.00371963,508.083,0.043572,0.0612704,-0.0568973,0.378451,-0.319152,0.754061,1.33862e-06,1.78586e-06,0.602815,-0.05530891584092834,1.1256146338212285,1.3386208959076384e-06,0.46002126400328924,1.7858615946053646e-06,-0.2732349273807154
826,0.8161,287.637,897.433,0.00370675,508.159,0.0435668,0.061282,-0.056952,0.3788,-0.319446,0.75476,1.41404e-06,1.91558e-06,0.603377,-0.05536058902995733,1.1271009578600029,1.4140409998475434e-06,0.46053090035079625,1.9155818347105225e-06,-0.2734485649058105
827,0.8171,287.681,897.566,0.00369391,508.236,0.0435616,0.0612936,-0.0570066,0.379149,-0.31974,0.755458,1.48942e-06,2.04522e-06,0.603938,-0.05541216493376122,1.1285861926152179,1.4894211091132092e-06,0.4610407145924291,2.0452220914624064e-06,-0.2736621396307052
828,0.8181,287.725,897.7,0.00368111,508.312,0.0435565,0.0613051,-0.0570612,0.379498,-0.320033,0.756156,1.56476e-06,2.1748e-06,0.604499,-0.055463738021597764,1.1300724644261821,1.5647612241487252e-06,0.461550706790284,2.1748023648626713e-06,-0.2738749254491487
829,0.8191,287.768,897.833,0.00366834,508.388,0.0435513,0.0613166,-0.0571158,0.379847,-0.320327,0.756854,1.64006e-06,2.30431e-06,0.605059,-0.0555153082936205,1.1315597740170138,1.6400613449540913e-06,0.46206087700647824,2.3043126549104898e-06,-0.2740883748424684
830,0.8201,287.812,897.966,0.00365561,508.465,0.0435462,0.0613281,-0.0571703,0.380195,-0.320621,0.757551,1.71531e-06,2.43375e-06,0.605619,-0.055566781306666146,1.1330459890652795,1.7153114710843909e-06,0.46256976273265726,2.4337529616058617e-06,-0.27430176149089036
831,0.8211,287.855,898.099,0.00364291,508.541,0.043541,0.0613396,-0.0572249,0.380544,-0.320914,0.758248,1.79053e-06,2.56312e-06,0.606179,-0.05561834595267923,1.134533240366527,1.790531602985368e-06,0.4630802886614436,2.5631232847267427e-06,-0.27451435992758155
832,0.8221,287.899,898.232,0.00363025,508.617,0.0435359,0.0613511,-0.0572794,0.380892,-0.321207,0.758944,1.8657e-06,2.69242e-06,0.606739,-0.0556698133503255,1.136019392622814,1.8657017404333232e-06,0.46358952920461305,2.692423624495177e-06,-0.2747268960820557
833,0.8231,287.942,898.364,0.00361762,508.692,0.0435308,0.0613625,-0.0573338,0.381239,-0.3215,0.759641,1.94084e-06,2.82166e-06,0.607298,-0.05572118351519806,1.1375087171087617,1.9408418834299113e-06,0.4640974828961155,2.8216639809119926e-06,-0.27493936997255863
834,0.8241,287.986,898.497,0.00360503,508.768,0.0435257,0.0613739,-0.0573882,0.381587,-0.321793,0.760336,2.01594e-06,2.95083e-06,0.607857,-0.05577255088560973,1.1389948020218412,2.015942031974305e-06,0.46460707748447905,2.950834353754317e-06,-0.2751517816173311
835,0.8251,288.029,898.629,0.00359248,508.844,0.0435206,0.0613853,-0.0574427,0.381934,-0.322086,0.761032,2.09099e-06,3.07993e-06,0.608416,-0.05582400987931613,1.1404840606059174,2.0909921860656766e-06,0.4651153843265028,3.07993474302215e-06,-0.27536413103460844
836,0.8261,288.072,898.761,0.00357996,508.919,0.0435155,0.0613967,-0.057497,0.382282,-0.322378,0.761726,2.16601e-06,3.20897e-06,0.608974,-0.05587527724365815,1.1419700721303339,2.1660123457056812e-06,0.465625333206207,3.20897514871632e-06,-0.27557569381867664
837,0.8271,288.115,898.893,0.00356747,508.995,0.0435105,0.061408,-0.0575514,0.382629,-0.32267,0.762421,2.24098e-06,3.33794e-06,0.609533,-0.05592663623159888,1.1434592587628765,2.240982510892664e-06,0.466133993444277,3.3379455708359984e-06,-0.27578719483543035
838,0.8281,288.158,899.025,0.00355502,509.07,0.0435054,0.0614193,-0.0576057,0.382976,-0.322963,0.763115,2.31591e-06,3.46684e-06,0.61009,-0.0559778980234813,1.1449473357914606,2.3159126816274522e-06,0.46664283021807673,3.4668460096032305e-06,-0.27599935810390686
839,0.8291,288.201,899.156,0.0035426,509.145,0.0435004,0.0614306,-0.05766,0.383322,-0.323255,0.763809,2.39081e-06,3.59567e-06,0.610648,-0.056029157031923904,1.1464364459039413,2.3908128579108734e-06,0.4671503764377647,3.5956764643518824e-06,-0.2762107354287492
840,0.8301,288.244,899.287,0.00353022,509.221,0.0434954,0.0614419,-0.0577142,0.383669,-0.323546,0.764502,2.46566e-06,3.72443e-06,0.611205,-0.056080318865114664,1.147924441892012,2.4656630397412727e-06,0.467659565957661,3.7244369357480878e-06,-0.27642132746211245
841,0.8311,288.287,899.419,0.00351787,509.296,0.0434904,0.0614532,-0.0577685,0.384015,-0.323838,0.765195,2.54048e-06,3.85313e-06,0.611762,-0.05613157231225652,1.1494134694186893,2.540483227120305e-06,0.46816746402878184,3.853137423348585e-06,-0.2766325815898899
842,0.8321,288.33,899.55,0.00350555,509.371,0.0434854,0.0614644,-0.0578227,0.384361,-0.32413,0.765888,2.61525e-06,3.98176e-06,0.612318,-0.056182728594689424,1.150903529199077,2.6152534198242705e-06,0.4686755378630403,3.981767927152546e-06,-0.2768437740404672
843,0.8331,288.373,899.68,0.00349327,509.445,0.0434804,0.0614756,-0.0578769,0.384707,-0.324421,0.76658,2.68999e-06,4.11032e-06,0.612875,-0.056233882104526955,1.1523924695552297,2.689993618076869e-06,0.46918378752126144,4.110328447382017e-06,-0.2770541818863951
844,0.8341,288.416,899.811,0.00348103,509.52,0.0434754,0.0614868,-0.057931,0.385053,-0.324712,0.767272,2.76468e-06,4.23882e-06,0.613431,-0.05628493847041793,1.1538824406146904,2.764683821654401e-06,0.46969221306429043,4.238828983815779e-06,-0.2772645285125477
845,0.8351,288.458,899.942,0.00346881,509.595,0.0434704,0.061498,-0.0579851,0.385399,-0.325003,0.767964,2.83933e-06,4.36725e-06,0.613986,-0.05633599207423434,1.1553734430909537,2.8393340310017834e-06,0.47020081455299434,4.367259536453005e-06,-0.27747481393673734
846,0.8361,288.501,900.072,0.00345663,509.669,0.0434655,0.0615091,-0.0580392,0.385744,-0.325294,0.768655,2.91395e-06,4.49561e-06,0.614542,-0.056387042916125396,1.1568633208336072,2.9139542454537093e-06,0.47070812133940376,4.495620105293696e-06,-0.27768503817677137
847,0.8371,288.544,900.202,0.00344449,509.744,0.0434605,0.0615203,-0.0580933,0.386089,-0.325585,0.769346,2.98852e-06,4.62391e-06,0.615097,-0.05643809099624053,1.158354228437557,2.988524465674658e-06,0.4712156031768493,4.623920690338679e-06,-0.27789520125045164
848,0.8381,288.586,900.332,0.00343238,509.818,0.0434556,0.0615314,-0.0581473,0.386434,-0.325876,0.770036,3.06306e-06,4.75214e-06,0.615651,-0.05648904196363824,1.1598440067695965,3.063064691222195e-06,0.47172326012573373,4.752151291365081e-06,-0.278105303175575
849,0.8391,288.629,900.462,0.0034203,509.893,0.0434507,0.0615425,-0.0582013,0.386779,-0.326166,0.770726,3.13755e-06,4.8803e-06,0.616206,-0.05653999017975797,1.1613348134034087,3.1375549220946652e-06,0.47223109224648074,4.8803119085949476e-06,-0.2783146222849162
850,0.8401,288.671,900.592,0.00340826,509.967,0.0434458,0.0615536,-0.0582553,0.387124,-0.326456,0.771416,3.21201e-06,5.00839e-06,0.61676,-0.056590935644748375,1.1628266490487658,3.2120151585157686e-06,0.47273909959953553,5.0084025420282785e-06,-0.2785238807005168
851,0.8411,288.713,900.721,0.00339625,510.041,0.0434409,0.0615646,-0.0583093,0.387468,-0.326746,0.772105,3.28643e-06,5.13642e-06,0.617314,-0.05664187835875789,1.1643173500974995,3.286435400262633e-06,0.47324580899881763,5.1364331914438566e-06,-0.2787330784399753
852,0.8421,288.756,900.85,0.00338427,510.115,0.043436,0.0615757,-0.0583632,0.387812,-0.327036,0.772794,3.3608e-06,5.26438e-06,0.617867,-0.05669272399121228,1.1658090785931705,3.360805647556475e-06,0.47375269273611753,5.264393856840854e-06,-0.2789422155208853
853,0.8431,288.798,900.979,0.00337232,510.189,0.0434311,0.0615867,-0.0584171,0.388156,-0.327326,0.773483,3.43514e-06,5.39228e-06,0.618421,-0.056743566883160845,1.1673018352439342,3.435145900176906e-06,0.4742597508714177,5.392294538442144e-06,-0.2791512919608352
854,0.8441,288.84,901.108,0.00336041,510.263,0.0434262,0.0615977,-0.058471,0.3885,-0.327616,0.774171,3.50944e-06,5.52011e-06,0.618974,-0.05679440703475147,1.168793451963896,3.5094461581230973e-06,0.47476698346472146,5.5201252358028086e-06,-0.2793603077774083
855,0.8451,288.882,901.237,0.00334853,510.336,0.0434214,0.0616086,-0.0585248,0.388844,-0.327905,0.774859,3.58369e-06,5.64787e-06,0.619526,-0.0568451501306515,1.1702860952692662,3.5836964213942224e-06,0.4752743905760528,5.647885949144893e-06,-0.27956854255708563
856,0.8461,288.925,901.366,0.00333668,510.41,0.0434165,0.0616196,-0.0585786,0.389187,-0.328195,0.775546,3.65791e-06,5.77557e-06,0.620079,-0.05689589049664645,1.171777594087899,3.6579166902139804e-06,0.4757804964842218,5.775586678691269e-06,-0.27977743738852945
857,0.8471,288.967,901.494,0.00332487,510.483,0.0434117,0.0616305,-0.0586324,0.389531,-0.328484,0.776233,3.73209e-06,5.90319e-06,0.620631,-0.05694662813288298,1.1732701179182707,3.7320969643594992e-06,0.4762882523040062,5.903207423774148e-06,-0.27998555163516703
858,0.8481,289.009,901.623,0.00331309,510.557,0.0434069,0.0616415,-0.0586862,0.389874,-0.328773,0.77692,3.80623e-06,6.03076e-06,0.621183,-0.0569973630395082,1.1747636674648079,3.8062372436087344e-06,0.4767947060263944,6.030778185062147e-06,-0.28019360574547747
859,0.8491,289.051,901.751,0.00330134,510.63,0.0434021,0.0616523,-0.0587399,0.390217,-0.329062,0.777606,3.88033e-06,6.15826e-06,0.621734,-0.057048000921473774,1.1762560671752627,3.880337528405775e-06,0.47730133349220494,6.15827896210952e-06,-0.28040159973683765
860,0.8501,289.092,901.879,0.00328963,510.703,0.0433973,0.0616632,-0.0587936,0.390559,-0.32935,0.778292,3.95439e-06,6.28569e-06,0.622285,-0.057098636084257914,1.177749491023158,3.954397818528577e-06,0.47780665695364566,6.285709754916269e-06,-0.2806088142357933
861,0.8511,289.134,902.007,0.00327794,510.776,0.0433925,0.0616741,-0.0588473,0.390902,-0.329639,0.778978,4.02841e-06,6.41305e-06,0.622836,-0.05714926852800695,1.1792439397112933,4.028418113977139e-06,0.47831363157815865,6.413070563704437e-06,-0.28081668824923744
862,0.8521,289.176,902.134,0.00326629,510.85,0.0433877,0.0616849,-0.0589009,0.391244,-0.329927,0.779663,4.10239e-06,6.54035e-06,0.623387,-0.05719980397285185,1.180737233204626,4.1023984147514625e-06,0.4788193013047528,6.5403713880307635e-06,-0.2810237832199144
863,0.8531,289.218,902.262,0.00325467,510.922,0.043383,0.0616957,-0.0589545,0.391587,-0.330215,0.780348,4.17634e-06,6.66758e-06,0.623937,-0.05725033670906943,1.1822315499544271,4.176348720852374e-06,0.4793266233258531,6.6676022283385095e-06,-0.28123081855582766
864,0.8541,289.259,902.389,0.00324308,510.995,0.0433782,0.0617065,-0.0590081,0.391929,-0.330503,0.781032,4.25024e-06,6.79475e-06,0.624487,-0.05730086673680501,1.1837247069360686,4.250249032278219e-06,0.47983263955487354,6.794773084406458e-06,-0.2814377942741495
865,0.8551,289.301,902.516,0.00323153,511.068,0.0433735,0.0617173,-0.0590617,0.39227,-0.330791,0.781716,4.3241e-06,6.92185e-06,0.625036,-0.05735139405620371,1.185218885586456,4.3241093490298255e-06,0.48033734853295185,6.921873956011737e-06,-0.2816447103920474
866,0.8561,289.343,902.643,0.00322,511.141,0.0433687,0.0617281,-0.0591152,0.392612,-0.331079,0.7824,4.39793e-06,7.04888e-06,0.625586,-0.05740182440759767,1.1867140866046508,4.397939670885975e-06,0.48084371048910923,7.048904843376391e-06,-0.28185156692668367
867,0.8571,289.384,902.77,0.00320851,511.213,0.043364,0.0617388,-0.0591688,0.392953,-0.331367,0.783083,4.47172e-06,7.17585e-06,0.626135,-0.0574523463158102,1.1882081224809742,4.471729998067886e-06,0.4813487643011669,7.175875746501248e-06,-0.282058363895216
868,0.8581,289.426,902.897,0.00319705,511.286,0.0433593,0.0617496,-0.0592222,0.393295,-0.331654,0.783767,4.54546e-06,7.30275e-06,0.626684,-0.05750267701667533,1.1897053688366301,4.54547033057473e-06,0.48185547222067315,7.302776665163435e-06,-0.2822643835795392
869,0.8591,289.467,903.023,0.00318562,511.358,0.0433546,0.0617603,-0.0592757,0.393636,-0.331941,0.784449,4.61917e-06,7.42959e-06,0.627232,-0.05755309927464747,1.191199257256224,4.619180668408163e-06,0.4823608711023124,7.42961759936378e-06,-0.28247034414469707
870,0.8601,289.508,903.15,0.00317422,511.431,0.0433499,0.061771,-0.0593291,0.393977,-0.332228,0.785131,4.69284e-06,7.55636e-06,0.62778,-0.057603424595448205,1.192694164855221,4.6928510113453115e-06,0.4828664423543578,7.5563885493235006e-06,-0.28267624560765425
871,0.8611,289.55,903.276,0.00316285,511.503,0.0433453,0.0617816,-0.0593825,0.394317,-0.332515,0.785813,4.76647e-06,7.68307e-06,0.628328,-0.05765374722894856,1.1941900923289381,4.766481359608221e-06,0.48337070266415316,7.683099514821379e-06,-0.28288208798537073
872,0.8621,289.591,903.402,0.00315152,511.575,0.0433406,0.0617923,-0.0594359,0.394658,-0.332802,0.786495,4.84006e-06,7.80971e-06,0.628876,-0.05770406717529197,1.1956870403731674,4.840071713196892e-06,0.48387661832747986,7.809740495856587e-06,-0.2830878712948015
873,0.8631,289.632,903.528,0.00314021,511.647,0.0433359,0.0618029,-0.0594892,0.394998,-0.333089,0.787176,4.91361e-06,7.93629e-06,0.629423,-0.057754290210055736,1.1971828125002641,4.913622071889279e-06,0.48438122215550106,7.936321492429954e-06,-0.2832935955528968
874,0.8641,289.673,903.654,0.00312894,511.719,0.0433313,0.0618135,-0.0595426,0.395339,-0.333375,0.787857,4.98713e-06,8.0628e-06,0.62997,-0.05780460478754734,1.1986796035950986,4.987142435686209e-06,0.4848874824647331,8.062832504540651e-06,-0.28349854427550425
875,0.8651,289.714,903.779,0.0031177,511.791,0.0433267,0.0618241,-0.0595959,0.395678,-0.333662,0.788537,5.0606e-06,8.18924e-06,0.630517,-0.05785482246379925,1.2001752141755095,5.060612804808073e-06,0.485390944653308,8.189273531966634e-06,-0.2837041506873659
876,0.8661,289.755,903.905,0.00310648,511.863,0.0433221,0.0618347,-0.0596491,0.396018,-0.333948,0.789217,5.13404e-06,8.31562e-06,0.631064,-0.05790494325401929,1.201671842116979,5.134053179256526e-06,0.4858960634398177,8.315654574930775e-06,-0.2839089820079942
877,0.8671,289.797,904.03,0.0030953,511.934,0.0433174,0.0618453,-0.0597024,0.396358,-0.334234,0.789897,5.20744e-06,8.44193e-06,0.63161,-0.05795515558237341,1.2031694881115471,5.2074535588086945e-06,0.4864013539959142,8.441965633210202e-06,-0.28411375475524125
878,0.8681,289.837,904.155,0.00308415,512.006,0.0433128,0.0618558,-0.0597556,0.396697,-0.33452,0.790577,5.28079e-06,8.56818e-06,0.632156,-0.05800527103501363,1.2046681528517262,5.280803943463752e-06,0.48690532947393605,8.568216707027787e-06,-0.28431846894585655
879,0.8691,289.878,904.28,0.00307303,512.077,0.0433083,0.0618663,-0.0598088,0.397037,-0.334805,0.791256,5.35411e-06,8.69437e-06,0.632701,-0.058055383821582596,1.2061656308637643,5.3541243332233535e-06,0.48741096323882616,8.694407796161485e-06,-0.2845224091193519
880,0.8701,289.919,904.405,0.00306194,512.149,0.0433037,0.0618768,-0.0598619,0.397376,-0.335091,0.791934,5.4274e-06,8.82049e-06,0.633246,-0.05810539975276696,1.2076619183456283,5.427414728309543e-06,0.48791528103240056,8.82052890061047e-06,-0.2847270064515307
881,0.8711,289.96,904.529,0.00305088,512.22,0.0432991,0.0618873,-0.059915,0.397715,-0.335376,0.792612,5.50064e-06,8.94654e-06,0.633791,-0.05815541302817584,1.2091592206543922,5.500655128498622e-06,0.4884197698186883,8.94658002037474e-06,-0.284930830208427
882,0.8721,290.001,904.654,0.00303985,512.291,0.0432946,0.0618978,-0.0599681,0.398053,-0.335662,0.79329,5.57384e-06,9.07253e-06,0.634336,-0.05820542364795034,1.2106575384783422,5.573855533791416e-06,0.48892294073198106,9.072571155455122e-06,-0.2851353107488763
883,0.8731,290.041,904.778,0.00302885,512.362,0.04329,0.0619082,-0.0600212,0.398392,-0.335947,0.793968,5.64701e-06,9.19845e-06,0.63488,-0.058255431612231456,1.2121568725062306,5.6470259444107995e-06,0.48942777117281433,9.198492305850792e-06,-0.28533901815562857
884,0.8741,290.082,904.902,0.00301789,512.433,0.0432855,0.0619187,-0.0600743,0.39873,-0.336232,0.794645,5.72013e-06,9.32431e-06,0.635425,-0.05830543692116008,1.2136550097711618,5.720146359911027e-06,0.48993128284815013,9.324353471562574e-06,-0.2855426675140421
885,0.8751,290.123,905.026,0.00300695,512.504,0.043281,0.0619291,-0.0601273,0.399068,-0.336516,0.795322,5.79322e-06,9.4501e-06,0.635968,-0.05835534541041665,1.2151541616184183,5.793236780737843e-06,0.49043496473919723,9.450144652367598e-06,-0.2857455445865602
886,0.8761,290.163,905.15,0.00299604,512.575,0.0432764,0.0619395,-0.0601803,0.399406,-0.336801,0.795999,5.86627e-06,9.57583e-06,0.636512,-0.05840525125459339,1.2166543287351055,5.866287206668375e-06,0.49093881690349805,9.575875848488735e-06,-0.28594907810144954
887,0.8771,290.204,905.274,0.00298516,512.646,0.0432719,0.0619499,-0.0602332,0.399744,-0.337085,0.796675,5.93929e-06,9.7015e-06,0.637055,-0.05845506029934111,1.2181532936543906,5.93930763770345e-06,0.49144283939861455,9.701547059703941e-06,-0.286151839769749
888,0.8781,290.244,905.398,0.00297431,512.717,0.0432674,0.0619602,-0.0602862,0.400082,-0.33737,0.79735,6.01226e-06,9.8271e-06,0.637598,-0.05850496085876877,1.2196510525643713,6.01227807361937e-06,0.49194703228212866,9.827148286012388e-06,-0.2863552575070102
889,0.8791,290.285,905.521,0.00296349,512.787,0.043263,0.0619706,-0.0603391,0.400419,-0.337654,0.798026,6.08519e-06,9.95263e-06,0.638141,-0.058554764629017986,1.2211520439538348,6.085208514861051e-06,0.4924499031609917,9.952679527636121e-06,-0.2865579038367373
890,0.8801,290.325,905.644,0.0029527,512.858,0.0432585,0.0619809,-0.060392,0.400756,-0.337938,0.798701,6.15809e-06,1.00781e-05,0.638683,-0.05860456576471751,1.222651827703574,6.158108960985231e-06,0.49295294353589925,1.0078150784131878e-05,-0.28676049262307834
891,0.8811,290.365,905.767,0.00294194,512.928,0.043254,0.0619912,-0.0604448,0.401094,-0.338222,0.799376,6.23095e-06,1.02035e-05,0.639225,-0.05865427013143831,1.2241526241490912,6.230969412435172e-06,0.49345764692088134,1.0203552055942922e-05,-0.2869630238823734
892,0.8821,290.405,905.89,0.00293121,512.999,0.0432496,0.0620015,-0.0604977,0.40143,-0.338506,0.80005,6.30377e-06,1.03289e-05,0.639767,-0.05870406600343592,1.2256522083208647,6.303789868766785e-06,0.49395953300238693,1.0328953343297087e-05,-0.28716549763095756
893,0.8831,290.446,906.013,0.0029205,513.069,0.0432451,0.0620118,-0.0605505,0.401767,-0.338789,0.800724,6.37655e-06,1.04541e-05,0.640309,-0.05875376511668273,1.227152803553059,6.376570330202114e-06,0.49446308220828405,1.045415464440147e-05,-0.2873672012527193
894,0.8841,290.486,906.136,0.00290983,513.139,0.0432407,0.0620221,-0.0606033,0.402104,-0.339073,0.801398,6.4493e-06,1.05793e-05,0.64085,-0.05880346160588579,1.228654410527359,6.449320796741986e-06,0.49496680113886105,1.0579355961048975e-05,-0.2875695602312285
895,0.8851,290.526,906.258,0.00289918,513.209,0.0432363,0.0620323,-0.060656,0.40244,-0.339356,0.802071,6.522e-06,1.07045e-05,0.641391,-0.05885306135649426,1.230154799769993,6.522021268384748e-06,0.4954691943813818,1.0704557293461647e-05,-0.28777114951945326
896,0.8861,290.566,906.38,0.00288857,513.279,0.0432319,0.0620426,-0.0607087,0.402776,-0.339639,0.802744,6.59467e-06,1.08296e-05,0.641932,-0.058902658493264703,1.231656199114449,6.5946917449100084e-06,0.4959717564563946,1.0829658640298945e-05,-0.28797268176598145
897,0.8871,290.606,906.503,0.00287798,513.349,0.0432275,0.0620528,-0.0607614,0.403112,-0.339922,0.803416,6.6673e-06,1.09546e-05,0.642472,-0.05895225301633489,1.2331563760832607,6.667322226538985e-06,0.49647448742063616,1.0954660001782912e-05,-0.28817415698695314
898,0.8881,290.646,906.625,0.00286743,513.419,0.0432231,0.062063,-0.0608141,0.403448,-0.340205,0.804088,6.73989e-06,1.10796e-05,0.643012,-0.059001844925842706,1.2346575615097994,6.739912713049634e-06,0.49697738733086294,1.1079661379032046e-05,-0.28837557519850465
899,0.8891,290.686,906.746,0.0028569,513.489,0.0432187,0.0620731,-0.0608668,0.403784,-0.340487,0.80476,6.81245e-06,1.12044e-05,0.643552,-0.059051434221925714,1.2361597560719764,6.812473204886871e-06,0.4974804562438506,1.1204462769587309e-05,-0.2885762249933479
900,0.8901,290.726,906.868,0.0028464,513.558,0.0432143,0.0620833,-0.0609194,0.404119,-0.34077,0.805432,6.88496e-06,1.13293e-05,0.644091,-0.05910092681481893,1.2376629604481586,6.884983701382907e-06,0.4979821962334483,1.132936417680419e-05,-0.28877752943575263
901,0.8911,290.765,906.99,0.00283592,513.628,0.04321,0.0620934,-0.060972,0.404454,-0.341052,0.806103,6.95744e-06,1.1454e-05,0.644631,-0.05915041680447042,1.2391649361511132,6.957464202983488e-06,0.4984841043340995,1.1454065597327201e-05,-0.28897806589548203
902,0.8921,290.805,907.111,0.00282548,513.697,0.0432056,0.0621036,-0.0610245,0.40479,-0.341334,0.806774,7.02988e-06,1.15787e-05,0.645169,-0.059199810111002504,1.240667920017966,7.029904709687784e-06,0.4989876795890611,1.1578767033393333e-05,-0.2891785458119027
903,0.8931,290.845,907.232,0.00281506,513.767,0.0432013,0.0621137,-0.0610771,0.405125,-0.341616,0.807444,7.10228e-06,1.17034e-05,0.645708,-0.05924929489952935,1.2421696705546297,7.1023052212737525e-06,0.49948992458306285,1.1703468485002588e-05,-0.2893789692009576
904,0.8941,290.884,907.354,0.00280468,513.836,0.043197,0.0621238,-0.0611296,0.405459,-0.341898,0.808114,7.17465e-06,1.18279e-05,0.646247,-0.059298683015097775,1.2436724276012963,7.1746757379642645e-06,0.49999083786573517,1.1827969949917971e-05,-0.28957933607858544
905,0.8951,290.924,907.475,0.00279432,513.905,0.0431927,0.0621339,-0.0611821,0.405794,-0.34218,0.808784,7.24697e-06,1.19525e-05,0.646785,-0.05934806853785812,1.2451761918325532,7.246996259313576e-06,0.5004934189740555,1.1952571431494974e-05,-0.28977964646071985
906,0.8961,290.964,907.595,0.00278399,513.974,0.0431883,0.0621439,-0.0612345,0.406128,-0.342462,0.809453,7.31926e-06,1.20769e-05,0.647322,-0.059397357407687035,1.2466787172435998,7.3192867857674315e-06,0.5009946674798336,1.207697292615606e-05,-0.2899799003632907
907,0.8971,291.003,907.716,0.00277369,514.044,0.043184,0.062154,-0.061287,0.406463,-0.342743,0.810122,7.39151e-06,1.22013e-05,0.64786,-0.059446737750177836,1.2481822481804574,7.391537317325003e-06,0.5014975849274086,1.2201374436138224e-05,-0.2901793879819655
908,0.8981,291.043,907.837,0.00276341,514.112,0.0431798,0.062164,-0.0613394,0.406797,-0.343024,0.810791,7.46373e-06,1.23256e-05,0.648397,-0.059496021449875536,1.2496867853160478,7.463757853765074e-06,0.5019991688806316,1.2325675960545013e-05,-0.29037881955249467
909,0.8991,291.082,907.957,0.00275316,514.181,0.0431755,0.062174,-0.0613918,0.407131,-0.343306,0.811459,7.5359e-06,1.24499e-05,0.648934,-0.05954530256717494,1.2511900781325394,7.535928394863944e-06,0.5025009203908755,1.244997750027288e-05,-0.2905789045120756
910,0.9001,291.121,908.077,0.00274295,514.25,0.0431712,0.062184,-0.0614441,0.407464,-0.343587,0.812127,7.60804e-06,1.25741e-05,0.649471,-0.059594487061665036,1.2526943754841096,7.608068941289403e-06,0.5030013365120256,1.2574179054425372e-05,-0.29077822383423135
911,0.9011,291.161,908.197,0.00273275,514.319,0.043167,0.062194,-0.0614964,0.407798,-0.343868,0.812795,7.68014e-06,1.26982e-05,0.650007,-0.05964366898387319,1.2541996780420122,7.680169492374489e-06,0.5035034228021635,1.26982806225584e-05,-0.2909774871555262
912,0.9021,291.2,908.317,0.00272259,514.388,0.0431627,0.062204,-0.0615487,0.408131,-0.344148,0.813462,7.75221e-06,1.28222e-05,0.650543,-0.05969284833393407,1.2557037307730905,7.752240048564119e-06,0.504004172812206,1.2822282204671964e-05,-0.29117598566803393
913,0.9031,291.239,908.437,0.00271245,514.456,0.0431585,0.0622139,-0.061601,0.408464,-0.344429,0.814129,7.82423e-06,1.29462e-05,0.651079,-0.059742025111982344,1.257208787041983,7.824260609412548e-06,0.5045050895997687,1.294628380232865e-05,-0.2913751372339558
914,0.9041,291.278,908.557,0.00270235,514.525,0.0431542,0.0622239,-0.0616533,0.408797,-0.344709,0.814796,7.89622e-06,1.30702e-05,0.651615,-0.059791199318152244,1.2587148475182732,7.896251175143476e-06,0.5050061732203979,1.307028541552846e-05,-0.29157352442002815
915,0.9051,291.317,908.676,0.00269226,514.593,0.04315,0.0622338,-0.0617055,0.40913,-0.344989,0.815462,7.96817e-06,1.31941e-05,0.65215,-0.05984027693661087,1.2602196526512075,7.96820174597812e-06,0.5055074237296582,1.319418704248676e-05,-0.2917718560654644
916,0.9061,291.356,908.796,0.00268221,514.661,0.0431458,0.0622437,-0.0617577,0.409463,-0.34527,0.816128,8.04009e-06,1.33179e-05,0.652685,-0.0598893519932846,1.261725460318167,8.040122321695264e-06,0.5060088411831327,1.3317988683647641e-05,-0.2919708402153276
917,0.9071,291.396,908.915,0.00267218,514.73,0.0431416,0.0622536,-0.0618099,0.409795,-0.34555,0.816793,8.11196e-06,1.34416e-05,0.65322,-0.05993842448830733,1.2632300079559227,8.111992902071208e-06,0.5065089191267507,1.3441690338789059e-05,-0.2921690606279145
918,0.9081,291.435,909.034,0.00266218,514.798,0.0431374,0.0622634,-0.061862,0.410128,-0.345829,0.817459,8.1838e-06,1.35653e-05,0.653754,-0.05998740042055739,1.264737821187294,8.18383348732965e-06,0.507010670133726,1.3565392009029509e-05,-0.29236651791342716
919,0.9091,291.473,909.153,0.00265221,514.866,0.0431333,0.0622733,-0.0619141,0.41046,-0.346109,0.818123,8.2556e-06,1.36889e-05,0.654288,-0.06003637380122784,1.266242106468006,8.255634077469765e-06,0.5075110807397745,1.368899369347254e-05,-0.2925646275517677
920,0.9101,291.512,909.272,0.00264226,514.934,0.0431291,0.0622831,-0.0619662,0.410792,-0.346389,0.818788,8.32737e-06,1.38125e-05,0.654822,-0.060085344630451565,1.2677496586743593,8.327404672714422e-06,0.508011657509726,1.3812595393014604e-05,-0.2927626817271747
921,0.9111,291.551,909.39,0.00263235,515.002,0.0431249,0.062293,-0.0620183,0.411123,-0.346668,0.819452,8.3991e-06,1.3936e-05,0.655356,-0.060134312908361576,1.2692559444792635,8.399135272618707e-06,0.5085108919871097,1.3936097106537204e-05,-0.2929599734155025
922,0.9121,291.59,909.509,0.00262245,515.069,0.0431208,0.0623028,-0.0620703,0.411455,-0.346947,0.820116,8.47079e-06,1.40594e-05,0.655889,-0.06018318465341399,1.270763230790073,8.47082587718262e-06,0.509011800749503,1.4059498833818296e-05,-0.29315721006712725
923,0.9131,291.629,909.627,0.00261259,515.137,0.0431167,0.0623126,-0.0621223,0.411786,-0.347226,0.820779,8.54244e-06,1.41828e-05,0.656422,-0.06023205385720176,1.2722692460009628,8.542476486850248e-06,0.5095113663290933,1.4182900576420465e-05,-0.2933543916974021
924,0.9141,291.667,909.746,0.00260275,515.205,0.0431125,0.0623224,-0.0621743,0.412118,-0.347505,0.821442,8.61405e-06,1.43061e-05,0.656955,-0.060280920519856895,1.2737762600310094,8.614087100955459e-06,0.5100126073041125,1.4306202332781126e-05,-0.2935515183216757
925,0.9151,291.706,909.864,0.00259294,515.272,0.0431084,0.0623321,-0.0622263,0.412449,-0.347784,0.822105,8.68563e-06,1.44293e-05,0.657487,-0.06032978464151173,1.2752842735426495,8.685667720165213e-06,0.5105125042055032,1.4429404102900278e-05,-0.2937485899552926
926,0.9161,291.745,909.982,0.00258315,515.34,0.0431043,0.0623419,-0.0622782,0.41278,-0.348063,0.822768,8.75717e-06,1.45525e-05,0.65802,-0.06037855226015809,1.276793287198759,8.757208344034595e-06,0.5110125666001559,1.4552605888118464e-05,-0.29394560661359337
927,0.9171,291.783,910.099,0.00257339,515.407,0.0431002,0.0623516,-0.0623301,0.41311,-0.348341,0.82343,8.82868e-06,1.46757e-05,0.658552,-0.06042731734783091,1.2783010233604908,8.82871897300852e-06,0.511511283030819,1.4675807688657727e-05,-0.294141862454129
928,0.9181,291.822,910.217,0.00256366,515.475,0.0430961,0.0623613,-0.062382,0.413441,-0.348619,0.824091,8.90015e-06,1.47987e-05,0.659083,-0.060476079904661195,1.2798074781653952,8.900189606420028e-06,0.5120116760759827,1.4798809501392896e-05,-0.294338063743124
929,0.9191,291.86,910.335,0.00255395,515.542,0.043092,0.062371,-0.0624339,0.413771,-0.348898,0.824753,8.97158e-06,1.49217e-05,0.659615,-0.060524839930780505,1.2813172103821682,8.971620244713208e-06,0.5125107222671805,1.4921811329227097e-05,-0.2945349159611782
930,0.9201,291.899,910.452,0.00254427,515.609,0.043088,0.0623807,-0.0624857,0.414102,-0.349176,0.825414,9.04297e-06,1.50446e-05,0.660146,-0.060573503483675184,1.282825659545757,9.043010887666014e-06,0.5130114461814872,1.5044713170597745e-05,-0.2947310079964852
931,0.9211,291.937,910.569,0.00253461,515.676,0.0430839,0.0623904,-0.0625375,0.414432,-0.349454,0.826074,9.11433e-06,1.51675e-05,0.660677,-0.06062216451586311,1.2843328217898877,9.114371535723365e-06,0.5135108223512632,1.5167615027067427e-05,-0.2949270455257831
932,0.9221,291.975,910.686,0.00252498,515.743,0.0430798,0.0624001,-0.0625893,0.414762,-0.349731,0.826735,9.18565e-06,1.52903e-05,0.661207,-0.06067082302747495,1.2858432649315539,9.185692188218297e-06,0.5140103633423694,1.52904168972956e-05,-0.2951223236868985
933,0.9231,292.014,910.803,0.00251538,515.81,0.0430758,0.0624097,-0.0626411,0.415091,-0.350009,0.827395,9.25693e-06,1.54131e-05,0.661737,-0.060719479018641054,1.2873524194526182,9.256972845594902e-06,0.5145085546998935,1.541321878240076e-05,-0.2953182524455542
934,0.9241,292.052,910.92,0.0025058,515.877,0.0430718,0.0624193,-0.0626928,0.415421,-0.350286,0.828055,9.32818e-06,1.55358e-05,0.662267,-0.06076803856630064,1.2888625703444325,9.32822350763196e-06,0.515008424997007,1.5535920681264415e-05,-0.29551342225736
935,0.9251,292.09,911.037,0.00249625,515.944,0.0430677,0.062429,-0.0627445,0.41575,-0.350564,0.828714,9.39939e-06,1.56584e-05,0.662797,-0.060816595603496504,1.290371427892246,9.399434174328647e-06,0.5155069447708374,1.565852259344247e-05,-0.2957092423057246
936,0.9261,292.128,911.153,0.00248673,516.01,0.0430637,0.0624386,-0.0627962,0.416079,-0.350841,0.829373,9.47056e-06,1.57809e-05,0.663327,-0.060865150130358536,1.2918812801048896,9.470604845907005e-06,0.5160056285846562,1.5781024519156972e-05,-0.29590430382833777
937,0.9271,292.166,911.27,0.00247723,516.077,0.0430597,0.0624481,-0.0628478,0.416408,-0.351118,0.830032,9.5417e-06,1.59034e-05,0.663856,-0.06091360823838188,1.293392127638063,9.541745522145817e-06,0.5165044764924416,1.5903526459748463e-05,-0.2960993113263919
938,0.9281,292.204,911.386,0.00246775,516.144,0.0430557,0.0624577,-0.0628995,0.416737,-0.351395,0.83069,9.6128e-06,1.60259e-05,0.664385,-0.06096215774982028,1.2949016762450758,9.612846203044256e-06,0.5170034885481898,1.6026028415438986e-05,-0.2962942648148498
939,0.9291,292.242,911.502,0.0024583,516.21,0.0430518,0.0624673,-0.0629511,0.417066,-0.351671,0.831348,9.68386e-06,1.61482e-05,0.664913,-0.061010610852379576,1.296412218461933,9.683906888824367e-06,0.5175026648059138,1.6148330382881326e-05,-0.2964884607974826
940,0.9301,292.28,911.618,0.00244888,516.276,0.0430478,0.0624768,-0.0630027,0.417394,-0.351948,0.832005,9.75489e-06,1.62706e-05,0.665442,-0.061059061454823316,1.2979214570200406,9.754937579042888e-06,0.518000487318399,1.6270732366985285e-05,-0.2966833065064651
941,0.9311,292.318,911.734,0.00243948,516.343,0.0430438,0.0624864,-0.0630542,0.417723,-0.352225,0.832663,9.82588e-06,1.63928e-05,0.66597,-0.06110741566802669,1.2994339869065201,9.825928274143081e-06,0.5184999916426827,1.6392934362619016e-05,-0.2968780982506607
942,0.9321,292.356,911.85,0.00243011,516.409,0.0430399,0.0624959,-0.0631057,0.418051,-0.352501,0.83332,9.89683e-06,1.6515e-05,0.666498,-0.06115576739105222,1.30094521141881,9.896878973680856e-06,0.5189981413320244,1.651513637335178e-05,-0.29707213311750014
943,0.9331,292.394,911.965,0.00242076,516.475,0.0430359,0.0625054,-0.0631572,0.418379,-0.352777,0.833976,9.96775e-06,1.66371e-05,0.667025,-0.06120411662402814,1.3024551266755573,9.96779967810113e-06,0.5194964544412637,1.6637238397398946e-05,-0.29726611443810613
944,0.9341,292.432,912.081,0.00241143,516.541,0.043032,0.0625148,-0.0632087,0.418707,-0.353053,0.834633,1.00386e-05,1.67592e-05,0.667552,-0.06125246336708268,1.3039683367288544,1.0038650386956505e-05,0.5199949310240108,1.6759340436101056e-05,-0.2974600422272552
945,0.9351,292.47,912.196,0.00240214,516.607,0.043028,0.0625243,-0.0632602,0.419034,-0.353329,0.835288,1.01095e-05,1.68812e-05,0.668079,-0.06130080762034407,1.3054779303273443,1.0109551101145087e-05,0.5204920506410835,1.6881342488339612e-05,-0.2976539164997202
946,0.9361,292.507,912.311,0.00239286,516.673,0.0430241,0.0625338,-0.0633116,0.419362,-0.353605,0.835944,1.01803e-05,1.70031e-05,0.668606,-0.061349055518850726,1.3069908200232048,1.0180351819322198e-05,0.5209908538329453,1.7003244553448482e-05,-0.2978477372702696
947,0.9371,292.545,912.426,0.00238361,516.739,0.0430202,0.0625432,-0.063363,0.419689,-0.35388,0.836599,1.0251e-05,1.7125e-05,0.669133,-0.06139730093747919,1.3085023939967546,1.0251052541709882e-05,0.5214882991700287,1.7125146633656385e-05,-0.29804080259482135
948,0.9381,292.583,912.541,0.00237439,516.805,0.0430163,0.0625527,-0.0634144,0.420016,-0.354156,0.837254,1.03218e-05,1.72468e-05,0.669659,-0.06144554387635692,1.3100149583755791,1.0321853269879e-05,0.5219859071983357,1.7246948726956646e-05,-0.2982345165995429
949,0.9391,292.62,912.656,0.00236519,516.87,0.0430124,0.0625621,-0.0634657,0.420343,-0.354431,0.837909,1.03925e-05,1.73686e-05,0.670185,-0.061493690484984986,1.3115285138086068,1.0392554002258692e-05,0.5224836779710755,1.736875083491185e-05,-0.29842747557440297
950,0.9401,292.658,912.771,0.00235602,516.936,0.0430085,0.0625715,-0.063517,0.42067,-0.354706,0.838563,1.04631e-05,1.74903e-05,0.67071,-0.0615418346237554,1.313040747903286,1.0463154738404867e-05,0.5229816115414738,1.7490452956181457e-05,-0.29862038149284054
951,0.9411,292.695,912.885,0.00234687,517.002,0.0430047,0.0625809,-0.0635683,0.420997,-0.354981,0.839217,1.05338e-05,1.76119e-05,0.671236,-0.061589976292794835,1.3145539713225372,1.0533855480776566e-05,0.5234797079627744,1.7612055090321377e-05,-0.29881323436944407
952,0.9421,292.733,913.0,0.00233774,517.067,0.0430008,0.0625902,-0.0636196,0.421323,-0.355256,0.839871,1.06044e-05,1.77335e-05,0.671761,-0.06163811549222997,1.3160681847135898,1.0604456226914749e-05,0.5239764433110328,1.7733657239338285e-05,-0.2990060342187981
953,0.9431,292.77,913.114,0.00232864,517.132,0.042997,0.0625996,-0.0636708,0.421649,-0.355531,0.840524,1.06749e-05,1.7855e-05,0.672285,-0.061686158390808044,1.3175810711418676,1.0674956977041461e-05,0.524473340621413,1.785515940144755e-05,-0.29919878105548314
954,0.9441,292.807,913.228,0.00231956,517.198,0.0429931,0.0626089,-0.0637221,0.421976,-0.355805,0.841177,1.07454e-05,1.79765e-05,0.67281,-0.061734292656228096,1.319094945807607,1.0745457732053154e-05,0.5249719249178859,1.797666157821176e-05,-0.29939077428520033
955,0.9451,292.845,913.342,0.00231051,517.263,0.0429893,0.0626183,-0.0637733,0.422302,-0.35608,0.841829,1.08159e-05,1.80979e-05,0.673334,-0.06178233063066152,1.3206074887476902,1.0815958491949829e-05,0.5254691468081738,1.809806376806833e-05,-0.29958341533291377
956,0.9461,292.882,913.456,0.00230148,517.328,0.0429854,0.0626276,-0.0638244,0.422627,-0.356354,0.842482,1.08864e-05,1.82192e-05,0.673858,-0.061830272328645464,1.3221233403095125,1.0886459257175574e-05,0.5259650048534541,1.8219365970573165e-05,-0.2997753031872761
957,0.9471,292.919,913.569,0.00229248,517.393,0.0429816,0.0626369,-0.0638756,0.422953,-0.356628,0.843134,1.09568e-05,1.83405e-05,0.674382,-0.061878305389045374,1.323637858406642,1.0956860025945758e-05,0.5264625505405771,1.834066818795499e-05,-0.29996713847156853
958,0.9481,292.956,913.683,0.0022835,517.458,0.0429778,0.0626462,-0.0639267,0.423278,-0.356902,0.843785,1.10271e-05,1.84617e-05,0.674906,-0.06192624218284448,1.3251510391393526,1.1027160798704472e-05,0.5269587314945403,1.8461870418207127e-05,-0.3001589212001937
959,0.9491,292.994,913.796,0.00227454,517.523,0.042974,0.0626555,-0.0639778,0.423604,-0.357176,0.844436,1.10975e-05,1.85828e-05,0.675429,-0.06197417652713599,1.3266652052734336,1.1097561577466664e-05,0.5274566011893584,1.8582972661329578e-05,-0.3003506513875497
960,0.9501,293.031,913.91,0.00226561,517.588,0.0429702,0.0626647,-0.0640289,0.423929,-0.35745,0.845087,1.11678e-05,1.87039e-05,0.675952,-0.06202210842204514,1.3281803574505902,1.1167862360217384e-05,0.5279531052622866,1.8704074919106972e-05,-0.3005423290480308
961,0.9511,293.068,914.023,0.0022567,517.653,0.0429664,0.062674,-0.0640799,0.424254,-0.357723,0.845738,1.1238e-05,1.88249e-05,0.676474,-0.062069944074696126,1.3296964963129447,1.1238063146512545e-05,0.5284497707252629,1.8825077189532635e-05,-0.300733254929632
962,0.9521,293.105,914.136,0.00224782,517.717,0.0429627,0.0626832,-0.0641309,0.424579,-0.357997,0.846388,1.13083e-05,1.89459e-05,0.676997,-0.062117777287791,1.3312112912905825,1.1308363939033228e-05,0.5289465976307475,1.8946079474613242e-05,-0.3009248277711035
963,0.9531,293.142,914.249,0.00223896,517.782,0.0429589,0.0626925,-0.0641819,0.424903,-0.35827,0.847038,1.13785e-05,1.90668e-05,0.677519,-0.062165608061454214,1.3327270712050256,1.1378564735320396e-05,0.5294420565883968,1.9066981772564162e-05,-0.3011156492448056
964,0.9541,293.179,914.362,0.00223012,517.846,0.0429552,0.0627017,-0.0642329,0.425228,-0.358543,0.847688,1.14486e-05,1.91876e-05,0.678041,-0.06221343639581023,1.3342438366966909,1.1448665535374047e-05,0.5299392060391979,1.918778408316335e-05,-0.30130641863135577
965,0.9551,293.216,914.474,0.00222131,517.911,0.0429514,0.0627109,-0.0642839,0.425552,-0.358816,0.848337,1.15188e-05,1.93084e-05,0.678562,-0.06226126229098328,1.3357592526459912,1.1518866341653222e-05,0.530434986654077,1.9308586408417483e-05,-0.30149713594497163
966,0.9561,293.252,914.587,0.00221252,517.975,0.0429477,0.0627201,-0.0643348,0.425876,-0.359089,0.848986,1.15888e-05,1.94291e-05,0.679084,-0.06230899197800188,1.3372756524194593,1.158886715035834e-05,0.5309309279279009,1.942928874609784e-05,-0.30168780119986716
967,0.9571,293.289,914.699,0.00220375,518.04,0.042944,0.0627292,-0.0643857,0.4262,-0.359362,0.849634,1.16589e-05,1.95498e-05,0.679605,-0.06235671923564112,1.3387906978639368,1.165896796528898e-05,0.5314270299127313,1.9549991098655184e-05,-0.30187841441025254
968,0.9581,293.326,914.812,0.00219501,518.104,0.0429402,0.0627384,-0.0644365,0.426524,-0.359635,0.850283,1.17289e-05,1.96704e-05,0.680126,-0.06240435030446456,1.340309065683913,1.172896878376406e-05,0.5319232926606468,1.9670593463638752e-05,-0.30206897559033385
969,0.9591,293.363,914.924,0.00218629,518.168,0.0429365,0.0627475,-0.0644874,0.426848,-0.359907,0.850931,1.17989e-05,1.97909e-05,0.680646,-0.062452072708488626,1.3418260774171946,1.1798969607346166e-05,0.5324197162237432,1.9791095841048545e-05,-0.30225878701344955
970,0.9601,293.399,915.036,0.00217759,518.232,0.0429328,0.0627567,-0.0645382,0.427171,-0.360179,0.851578,1.18688e-05,1.99114e-05,0.681167,-0.06249969893347873,1.343341729149747,1.1868870434472711e-05,0.5329147677385992,1.9911598233335326e-05,-0.302448546814879
971,0.9611,293.436,915.148,0.00216892,518.296,0.0429291,0.0627658,-0.064589,0.427494,-0.360451,0.852225,1.19387e-05,2.00318e-05,0.681687,-0.062547322739118,1.344858361826271,1.1938771266484238e-05,0.5334099791809213,2.0032000637826286e-05,-0.30263825500866137
972,0.9621,293.473,915.259,0.00216027,518.36,0.0429254,0.0627749,-0.0646398,0.427817,-0.360724,0.852872,1.20086e-05,2.01522e-05,0.682206,-0.06259494412552935,1.3463759760816436,1.2008672103602791e-05,0.5339053506023745,2.015240305697219e-05,-0.30282860878057183
973,0.9631,293.509,915.371,0.00215164,518.424,0.0429218,0.062784,-0.0646905,0.42814,-0.360995,0.853519,1.20784e-05,2.02725e-05,0.682726,-0.0626424693570874,1.347894572551152,1.2078472944265783e-05,0.5344008820546404,2.0272705488544318e-05,-0.30301751662942267
974,0.9641,293.546,915.483,0.00214303,518.488,0.0429181,0.0627931,-0.0647412,0.428463,-0.361267,0.854165,1.21482e-05,2.03928e-05,0.683245,-0.06268999217917726,1.349411802457516,1.2148273789591713e-05,0.5348965735894173,2.0393007934549345e-05,-0.3032070700844609
975,0.9651,293.582,915.594,0.00213445,518.552,0.0429145,0.0628021,-0.0647919,0.428786,-0.361539,0.854811,1.2218e-05,2.05129e-05,0.683764,-0.06273751259192117,1.35093001281105,1.2218074640024668e-05,0.5353924252584203,2.051311039097392e-05,-0.30339657198797076
976,0.9661,293.618,915.705,0.00212589,518.615,0.0429108,0.0628112,-0.0648426,0.429108,-0.36181,0.855457,1.22877e-05,2.06331e-05,0.684283,-0.06278503059544116,1.3524492042453273,1.2287775494002062e-05,0.5358869012257117,2.063331286383807e-05,-0.3035853259396464
977,0.9671,293.655,915.816,0.00211736,518.679,0.0429072,0.0628202,-0.0648933,0.429431,-0.362082,0.856102,1.23574e-05,2.07531e-05,0.684801,-0.06283254618985945,1.3539670234261303,1.2357476353086483e-05,0.5363830728222068,2.075331534712177e-05,-0.3037747249715548
978,0.9681,293.691,915.927,0.00210884,518.742,0.0429035,0.0628293,-0.0649439,0.429753,-0.362353,0.856747,1.24271e-05,2.08731e-05,0.685319,-0.06287996566329945,1.3554858219160986,1.242717721683384e-05,0.5368778678293764,2.0873317844616324e-05,-0.3039633764576565
979,0.9691,293.727,916.038,0.00210035,518.806,0.0428999,0.0628383,-0.0649945,0.430075,-0.362624,0.857392,1.24967e-05,2.09931e-05,0.685837,-0.06292738273737486,1.3570056003470894,1.2496778084125637e-05,0.5373728221861924,2.099332035676582e-05,-0.30415197682613226
980,0.9701,293.764,916.149,0.00209188,518.869,0.0428963,0.0628473,-0.0650451,0.430397,-0.362895,0.858036,1.25663e-05,2.11129e-05,0.686355,-0.0629747974122069,1.3585240008261894,1.2566378956302415e-05,0.5378679359439733,2.1113122878890778e-05,-0.3043405260908332
981,0.9711,293.8,916.259,0.00208344,518.933,0.0428927,0.0628563,-0.0650956,0.430718,-0.363166,0.85868,1.26359e-05,2.12328e-05,0.686872,-0.06302211599013341,1.3600433794701328,1.2635979833364175e-05,0.5383616707916148,2.123302541745531e-05,-0.30452902426560613
982,0.9721,293.836,916.37,0.00207501,518.996,0.0428891,0.0628653,-0.0651461,0.43104,-0.363436,0.859324,1.27054e-05,2.13525e-05,0.687389,-0.06306943217853211,1.3615637369090612,1.2705480713970374e-05,0.5388571030099163,2.1352727966217344e-05,-0.3047167760814188
983,0.9731,293.872,916.48,0.00206661,519.059,0.0428855,0.0628742,-0.0651966,0.431361,-0.363707,0.859967,1.27749e-05,2.14722e-05,0.687906,-0.06311674597752359,1.3630827106896297,1.2774981599461555e-05,0.5393511554311536,2.147243052941228e-05,-0.30490517230625924
984,0.9741,293.908,916.591,0.00205823,519.122,0.0428819,0.0628832,-0.0652471,0.431682,-0.363977,0.86061,1.28443e-05,2.15919e-05,0.688423,-0.06316405738722863,1.364602661484415,1.284438248827513e-05,0.5398453664686751,2.1592133106818068e-05,-0.30509282257581016
985,0.9751,293.944,916.701,0.00204988,519.185,0.0428784,0.0628921,-0.0652976,0.432003,-0.364247,0.861253,1.29137e-05,2.17114e-05,0.688939,-0.0632113664077677,1.3661235899218398,1.2913783382195732e-05,0.5403397361734041,2.1711635694199316e-05,-0.30528042218662754
986,0.9761,293.98,916.811,0.00204154,519.248,0.0428748,0.062901,-0.065348,0.432324,-0.364517,0.861895,1.29831e-05,2.1831e-05,0.689455,-0.06325857936512425,1.3676431289864177,1.298318428077927e-05,0.5408342645962811,2.183123829802014e-05,-0.30546797115238744
987,0.9771,294.016,916.921,0.00203323,519.311,0.0428713,0.06291,-0.0653984,0.432645,-0.364787,0.862537,1.30525e-05,2.19504e-05,0.689971,-0.06330578994300773,1.369163643908292,1.3052585184247789e-05,0.5413289517882631,2.195064091181642e-05,-0.30565546948676203
988,0.9781,294.052,917.03,0.00202494,519.374,0.0428677,0.0629189,-0.0654488,0.432965,-0.365057,0.863179,1.31218e-05,2.20698e-05,0.690487,-0.06335299814153805,1.3706851353141638,1.3121886091260748e-05,0.541822255977296,2.207004353982356e-05,-0.30584291720342016
989,0.9791,294.088,917.14,0.00201667,519.436,0.0428642,0.0629278,-0.0654991,0.433286,-0.365327,0.86382,1.3191e-05,2.21892e-05,0.691002,-0.0634001103008508,1.3722052316247195,1.3191087001596102e-05,0.5423172603654185,2.218944618204155e-05,-0.3060303143160267
990,0.9801,294.124,917.249,0.00200842,519.499,0.0428606,0.0629366,-0.0655495,0.433606,-0.365596,0.864461,1.32603e-05,2.23085e-05,0.691517,-0.06344731374575474,1.373726302629366,1.326038791815698e-05,0.542810880863803,2.230874883646372e-05,-0.30621696705555657
991,0.9811,294.16,917.359,0.0020002,519.562,0.0428571,0.0629455,-0.0655998,0.433926,-0.365866,0.865102,1.33295e-05,2.24277e-05,0.692032,-0.06349442116111192,1.3752483489530833,1.3329588838262296e-05,0.5433046593460229,2.2427951502645982e-05,-0.3064042631883359
992,0.9821,294.196,917.468,0.001992,519.624,0.0428536,0.0629544,-0.0656501,0.434246,-0.366135,0.865743,1.33986e-05,2.25469e-05,0.692546,-0.06354152620702569,1.3767713712212508,1.3398689761690008e-05,0.5437985958626415,2.2547154183261142e-05,-0.30659081534914767
993,0.9831,294.231,917.577,0.00198381,519.687,0.0428501,0.0629632,-0.0657003,0.434565,-0.366404,0.866383,1.34678e-05,2.2666e-05,0.69306,-0.06358853524247343,1.3782929917654685,1.3467890691121198e-05,0.5442911461723192,2.2666256875636392e-05,-0.3067773173341771
994,0.9841,294.267,917.686,0.00197565,519.749,0.0428466,0.062972,-0.0657505,0.434885,-0.366673,0.867023,1.35369e-05,2.2785e-05,0.693574,-0.06363554191812681,1.379815586458529,1.3536991624318873e-05,0.5447853984152355,2.2785259579993777e-05,-0.3069637691569198
995,0.9851,294.303,917.795,0.00196752,519.811,0.0428431,0.0629809,-0.0658008,0.435204,-0.366942,0.867662,1.36059e-05,2.2904e-05,0.694088,-0.06368263986584499,1.3813367745861216,1.3605992560616897e-05,0.5452782635651419,2.2904262298562017e-05,-0.3071501708308674
996,0.9861,294.338,917.904,0.0019594,519.874,0.0428397,0.0629897,-0.0658509,0.435523,-0.367211,0.868301,1.3675e-05,2.30229e-05,0.694602,-0.06372954819052445,1.3828589350635605,1.3675093503140445e-05,0.5457712859641111,2.3023165028890347e-05,-0.30733652236950826
997,0.9871,294.374,918.012,0.0019513,519.936,0.0428362,0.0629985,-0.0659011,0.435843,-0.367479,0.86894,1.3744e-05,2.31418e-05,0.695115,-0.06377654778750552,1.3843820685123758,1.3744094449208433e-05,0.546266011927552,2.314206777342953e-05,-0.30752213130880435
998,0.9881,294.409,918.121,0.00194323,519.998,0.0428327,0.0630073,-0.0659512,0.436161,-0.367748,0.869579,1.38129e-05,2.32606e-05,0.695628,-0.06382345140751589,1.3859061755544948,1.3812995398598815e-05,0.5467578027099351,2.326087052995085e-05,-0.3077083828035332
999,0.9891,294.445,918.229,0.00193518,520.06,0.0428293,0.063016,-0.0660013,0.43648,-0.368016,0.870217,1.38818e-05,2.33794e-05,0.696141,-0.06387035267771368,1.3874288693821795,1.3881896352652134e-05,0.547251297157179,2.3379673300238935e-05,-0.3078938920975861
