,Time,S11,S22,S33,S12,S13,S23,LE11,LE22,LE33,LE12,LE13,LE23,SDV_EPBAR,E11,E12,E13,E22,E23,E33
0,1e-05,0.139163,1.93829,-1.11022e-16,0.519362,-1.03613e-17,-5.98201e-18,-2.12914e-06,9.12912e-06,-3e-06,6.49996e-06,-2.31945e-22,-4.74637e-23,0.0,-2.1291377333421124e-06,6.499981124896692e-06,0.0,9.129161670617947e-06,0.0,-2.9999955000192813e-06
1,2e-05,0.278324,3.87655,2.22045e-16,1.03872,-8.75828e-18,-3.26863e-17,-4.25827e-06,1.82581e-05,-5.99996e-06,1.29999e-05,-5.18699e-22,-2.99463e-22,0.0,-4.258260933531766e-06,1.2999984499106887e-05,0.0,1.8258266680115653e-05,0.0,-5.9999420002343484e-06
2,3.5e-05,0.487064,6.78392,-8.88178e-16,1.81775,-2.07224e-17,-1.19634e-17,-7.45192e-06,3.19515e-05,-1.04998e-05,2.27496e-05,-1.63635e-21,4.38469e-22,0.0,-7.451892234500157e-06,2.2749858774151477e-05,0.0,3.19520104545834e-05,0.0,-1.0499744877323636e-05
3,5.75e-05,0.800167,11.1449,-3.9968e-15,2.98626,-5.77883e-17,-1.95474e-17,-1.22423e-05,5.24912e-05,-1.72495e-05,3.73739e-05,8.19342e-27,3.05783e-26,0.0,-1.2242225063352485e-05,3.737459841279822e-05,0.0,5.249257768724647e-05,0.0,-1.7249351228265652e-05
4,9.125e-05,1.26981,17.6861,-2.93099e-14,4.73899,8.81304e-17,-1.28709e-16,-1.94277e-05,8.32998e-05,-2.73738e-05,5.93098e-05,3.05357e-21,-1.69498e-21,0.0,-1.9427511283476306e-05,5.931155886096384e-05,0.0,8.330326952465938e-05,0.0,-2.737342534098186e-05
5,0.00014188,1.97424,27.4976,-1.55431e-13,7.36797,7.58723e-18,-3.70578e-17,-3.02053e-05,0.000129511,-4.25596e-05,9.22122e-05,-3.2728e-21,8.77024e-22,0.0,-3.0204843824543914e-05,9.221645167567516e-05,0.0,0.0001295193869115252,0.0,-4.255869435310089e-05
6,0.00021781,3.03082,42.2139,-7.95808e-13,11.3112,1.68679e-16,-2.2034e-16,-4.63708e-05,0.000198823,-6.53367e-05,0.000141563,-1.39684e-20,2.35554e-22,0.0,-4.636972489102664e-05,0.00014157302051431842,0.0,0.0001988427666026471,0.0,-6.533456560431361e-05
7,0.00033172,4.61555,64.2863,-4.03766e-12,17.2255,-1.88528e-16,1.55137e-17,-7.06166e-05,0.000302781,-9.94992e-05,0.000215581,6.54606e-21,-1.75382e-21,0.0,-7.061410670661239e-05,0.00021560423925381933,0.0,0.00030282684279359096,0.0,-9.949425011879232e-05
8,0.00050258,6.99229,97.3901,-2.04476e-11,26.0956,7.29685e-17,-5.45464e-17,-0.00010698,0.000458697,-0.000150736,0.000326594,7.15986e-26,2.67209e-25,0.0,-0.00010697427784389646,0.00032664733762688414,0.0,0.00045880221755600914,0.0,-0.00015072463989995732
9,0.00075887,10.5567,147.035,-1.03418e-10,39.398,-1.16446e-15,5.57209e-16,-0.000161514,0.00069252,-0.000227574,0.000493077,-2.61882e-20,7.01407e-21,0.0,-0.00016150095731615188,0.0004931985824463414,0.0,0.0006927598473382979,0.0,-0.0002275481070015406
10,0.0011433,15.9015,221.479,-5.23057e-10,59.3451,-1.11309e-15,-2.97066e-16,-0.000243289,0.00104314,-0.000342794,0.000742721,2.76803e-24,1.03304e-23,0.0,-0.00024325940763114673,0.0007429968855396929,0.0,0.0010436842597596474,0.0,-0.00034273525284966855
11,0.00172,23.9149,333.091,-2.64423e-09,89.2515,-5.89991e-16,-4.36785e-16,-0.000365891,0.00156882,-0.000515542,0.00111701,1.57174e-19,-4.2098e-20,0.0,-0.0003658240700513682,0.001117634088019237,0.0,0.0015700512418777013,0.0,-0.0005154091310572984
12,0.0025849,32.602,458.851,0.123887,122.247,-0.024169,-0.0851221,-0.000581291,0.00235215,-0.000824098,0.00170377,-5.41509e-07,-9.79224e-07,0.000224217,-0.000581122083118224,0.001705222240750759,-5.415088534244106e-07,0.0023549184750084606,-9.792235206029787e-07,-0.0008237585245033374
13,0.0035849,33.5211,483.78,-0.286777,127.767,-0.111855,-0.717377,-0.000896991,0.00323507,-0.00133967,0.00248097,-1.06285e-05,-3.42127e-06,0.00113273,-0.000896588823831368,0.0024840501527991776,-1.0628443517735064e-05,0.003240308486385901,-3.4212641474296035e-06,-0.001338773042732555
14,0.0045849,34.7952,504.539,0.180711,132.239,-0.138012,-0.969869,-0.00121666,0.00411736,-0.00185728,0.00325764,-1.71635e-05,-6.10274e-06,0.00206182,-0.001215920169293394,0.003262951875678155,-1.7163352707960655e-05,0.004125847972032082,-6.10272137835377e-06,-0.001855556322783003
15,0.0055849,35.6741,521.806,0.334985,135.99,-0.171748,-1.22621,-0.00154008,0.00499895,-0.00237904,0.00403395,-2.24248e-05,-1.21607e-05,0.00300592,-0.001538894685368053,0.004042097327922045,-2.242454856604681e-05,0.005011465596808096,-1.216062605902124e-05,-0.002376212327165894
16,0.0065849,36.2689,536.54,0.225307,139.238,-0.229061,-1.49628,-0.00186601,0.00587983,-0.00290381,0.00480961,-2.73761e-05,-2.09996e-05,0.00396068,-0.001864270085740638,0.004821194739422552,-2.7375725278000473e-05,0.005897150130248496,-2.0999379509945015e-05,-0.002899598021656624
17,0.0075849,36.5342,549.272,-0.215056,142.08,-0.304262,-1.80442,-0.00219401,0.00676016,-0.00343126,0.00558399,-3.23787e-05,-3.27019e-05,0.00492351,-0.0021916049193051457,0.005599609531729444,-3.237817581558389e-05,0.0067830614583686,-3.270136529864853e-05,-0.0034253799546503094
18,0.0085849,37.3253,561.373,0.17898,144.62,-0.307846,-1.88495,-0.00252272,0.00764016,-0.00395641,0.00635581,-3.60511e-05,-4.23535e-05,0.00589062,-0.002519540616027993,0.006376051020348772,-3.605045016685793e-05,0.007669420493227719,-4.235260310314626e-05,-0.003948593721487814
19,0.0095849,37.4781,571.619,-0.305371,146.953,-0.39895,-2.16051,-0.00285317,0.00851921,-0.00448544,0.00712774,-4.1042e-05,-5.62159e-05,0.00686361,-0.0028491035787918673,0.007153202800209035,-4.104115778869044e-05,0.00855560173905956,-5.621431991587045e-05,-0.004475395437708918
20,0.010585,38.2908,581.964,0.309377,149.008,-0.355447,-2.14763,-0.00318418,0.00939836,-0.0050105,0.00789553,-4.38336e-05,-6.64818e-05,0.00783818,-0.0031791158753179394,0.007926781892930723,-4.383263932183912e-05,0.009442663269266127,-6.64795901340609e-05,-0.004997968383499307
21,0.011585,38.2426,590.356,-0.407375,151.018,-0.48493,-2.44959,-0.00351646,0.010276,-0.00554086,0.00866522,-4.93518e-05,-8.24214e-05,0.00881776,-0.0035102844952933365,0.008702871693650804,-4.9350582219997996e-05,0.010328979404613525,-8.241800344976902e-05,-0.005525537747777198
22,0.012585,38.7334,598.921,-0.2337,152.818,-0.501539,-2.52005,-0.00384882,0.0111536,-0.006068,0.00943135,-5.33776e-05,-9.58248e-05,0.00979801,-0.003841422785529236,0.009475965332041758,-5.337617544121098e-05,0.011216033299255246,-9.582020895049226e-05,-0.006049626869502944
23,0.013585,39.2026,607.087,0.0642375,154.416,-0.467738,-2.54489,-0.00418245,0.0120311,-0.00659433,0.0101945,-5.64477e-05,-0.000108759,0.0107798,-0.004173715737114225,0.010246640948129881,-5.6446106858509815e-05,0.012103764803709671,-0.00010875308595437172,-0.006572635119852732
24,0.014585,39.4228,614.289,-0.133034,156.035,-0.535308,-2.68441,-0.00451635,0.0129073,-0.00712245,0.0109585,-6.10522e-05,-0.000123836,0.0117638,-0.004506166627664787,0.011018764295375627,-6.105033635239732e-05,0.012990958745336512,-0.00012382833263901993,-0.007097145465400412
25,0.015585,39.8704,621.574,0.176295,157.443,-0.496503,-2.69084,-0.00485103,0.0137835,-0.0076483,0.0117185,-6.40094e-05,-0.000137207,0.0127481,-0.004839282757055363,0.01178743061244214,-6.40073514420747e-05,0.013878930386955313,-0.00013719758755004197,-0.0076191261776505925
26,0.016585,39.9586,627.851,-0.173091,158.903,-0.583887,-2.85478,-0.00518593,0.0146584,-0.00817649,0.0124799,-6.89404e-05,-0.000153351,0.0137344,-0.005172506279866651,0.012558098918302951,-6.893802366525481e-05,0.014766361213158774,-0.00015333924233640328,-0.008143153426235616
27,0.017585,40.4463,634.553,0.261454,160.14,-0.524005,-2.81612,-0.0055214,0.0155336,-0.00870127,0.0132366,-7.16219e-05,-0.000166661,0.0147201,-0.005506185086440962,0.01332459159768562,-7.161933521293573e-05,0.01565487348874961,-0.00016664711282698974,-0.00866352351033206
28,0.018585,40.4149,640.056,-0.248438,161.482,-0.633922,-3.00837,-0.00585701,0.0164071,-0.00922944,0.0139955,-7.69539e-05,-0.000183789,0.0157079,-0.005839891154985066,0.014093895505694842,-7.695093912463147e-05,0.0165424356070627,-0.00018377211183639997,-0.009186979448089438
29,0.019585,40.9708,646.358,0.360943,162.568,-0.542383,-2.91369,-0.00619313,0.0172812,-0.00975283,0.0147486,-7.92078e-05,-0.000196728,0.0166941,-0.006173992098619907,0.014857897267154252,-7.920466314503827e-05,0.017431383808238055,-0.00019670865031595763,-0.009705425388370714
30,0.020585,40.808,651.161,-0.351023,163.829,-0.68399,-3.14716,-0.00652925,0.0181533,-0.0102811,0.0155054,-8.50759e-05,-0.000214899,0.0176828,-0.006507980763116428,0.01562623242515815,-8.507228114829068e-05,0.01831907273855382,-0.00021487591086388758,-0.010228430147275924
31,0.021585,41.4606,657.211,0.48511,164.775,-0.550422,-2.98497,-0.00686589,0.0190263,-0.0108028,0.0162549,-8.67387e-05,-0.000227176,0.0186691,-0.006842373628307308,0.016387729621787583,-8.673493830768653e-05,0.01920845344724853,-0.0002271501974864254,-0.010744659305183646
32,0.022585,41.1452,661.346,-0.484273,165.986,-0.735494,-3.27563,-0.00720236,0.0198969,-0.0113312,0.0170098,-9.33106e-05,-0.000246524,0.0196585,-0.007176485162446511,0.01715529039824304,-9.330624670134124e-05,0.020096162690583785,-0.0002464936154555897,-0.011267243748237843
33,0.023585,41.4478,666.399,-0.287318,166.96,-0.716587,-3.26863,-0.00753881,0.0207678,-0.0118549,0.0177592,-9.71714e-05,-0.000261983,0.0206459,-0.00751046444719794,0.017917832261616695,-9.716667901238374e-05,0.020984951405540686,-0.000261948685450486,-0.011784907530594246
34,0.024585,41.825,671.474,0.1116,167.845,-0.653083,-3.20223,-0.00787584,0.0216385,-0.0123771,0.0185062,-0.000100106,-0.000276278,0.0216328,-0.007844906833640808,0.018678500956702093,-0.00010010098956159119,0.021874310128862984,-0.0002762398387478049,-0.012300818735742292
35,0.025585,41.8747,675.76,-0.145436,168.83,-0.710823,-3.29983,-0.00821279,0.0225078,-0.0129014,0.0192545,-0.000104813,-0.00029303,0.0226207,-0.00817915717629425,0.019441063356106403,-0.00010480750730945676,0.022763011684824752,-0.00029298707090286147,-0.01281853368564545
36,0.026585,42.2257,680.49,0.21802,169.659,-0.651057,-3.23776,-0.0085501,0.0233771,-0.0134228,0.019999,-0.000107707,-0.000307379,0.0236074,-0.008513651847416814,0.02020031982592596,-0.00010770119980929582,0.023652486124934313,-0.0003073317639150641,-0.013333115938930606
37,0.027585,42.1886,684.36,-0.175094,170.602,-0.733112,-3.36625,-0.00888725,0.0242449,-0.0139467,0.0207452,-0.000112753,-0.000324664,0.024595,-0.008847875124841531,0.020961877406376006,-0.00011274664361937692,0.02454119730840376,-0.0003246113023467334,-0.013849895337306628
38,0.028585,42.5759,688.909,0.280856,171.357,-0.656594,-3.27545,-0.00922475,0.025113,-0.0144668,0.0214867,-0.000115394,-0.000338661,0.0255809,-0.009182332524126036,0.021719201381637188,-0.00011538734236848924,0.02543098767941898,-0.00033860366083660054,-0.014362658651083327
39,0.029585,42.4666,692.413,-0.232785,172.267,-0.759301,-3.42994,-0.00956199,0.0259794,-0.0149902,0.0222308,-0.000120758,-0.000356405,0.0265681,-0.009516419537387133,0.02247974556475696,-0.00012075070904615792,0.026319806067671037,-0.0003563414952826305,-0.014878406252624043
40,0.030585,42.9055,696.845,0.348455,172.947,-0.658441,-3.30178,-0.00989961,0.0268463,-0.0155089,0.0229693,-0.00012304,-0.000369892,0.0275531,-0.009850770158918554,0.023235125746657648,-0.00012303243088962468,0.027209908466692134,-0.0003698235983882192,-0.01538925632288135
41,0.031585,42.7183,699.996,-0.304344,173.836,-0.785721,-3.48772,-0.0102369,0.0277111,-0.0160319,0.0237115,-0.000128775,-0.000388137,0.0285397,-0.010184681277045526,0.02399485275680502,-0.00012876670885564323,0.028098623820665525,-0.00038806168457916623,-0.015904073105501126
42,0.032585,43.2213,704.362,0.427632,174.443,-0.655353,-3.31614,-0.0105746,0.0285768,-0.016549,0.024447,-0.000130615,-0.000400987,0.0295236,-0.010518885476623052,0.02474827800917967,-0.0001306064702322196,0.028989034157812732,-0.0004009066154576635,-0.016412817562082793
43,0.033585,42.9466,707.16,-0.389275,175.322,-0.812586,-3.54061,-0.0109118,0.0294401,-0.0170717,0.0251874,-0.000136794,-0.000419801,0.0305096,-0.010852482260861551,0.025507282583037583,-0.00013678464412736346,0.029877743947386515,-0.0004197128958893792,-0.016926804240222304
44,0.034585,43.5264,711.508,0.520328,175.853,-0.647289,-3.31902,-0.0112496,0.0303046,-0.0175871,0.0259198,-0.000138105,-0.000431883,0.0314921,-0.011186559863469947,0.026258639230019254,-0.00013809546394349947,0.0307684582127965,-0.00043178975196167535,-0.017433349617360094
45,0.035585,43.153,713.948,-0.488503,176.733,-0.84029,-3.5898,-0.0115867,0.0311664,-0.0181096,0.0266586,-0.000144807,-0.00045135,0.0324774,-0.011519832697847843,0.027017119260706046,-0.00014479651597243404,0.031657157355541976,-0.00045124815691166553,-0.01794660659212355
46,0.036585,43.8233,718.325,0.627754,177.187,-0.634247,-3.31097,-0.0119245,0.0320297,-0.0186231,0.0273878,-0.000145498,-0.000462529,0.0334586,-0.011853684907549566,0.027766293259714248,-0.000145487415679324,0.032548171530417225,-0.00046242204995183833,-0.018450761556773276
47,0.037585,43.339,720.395,-0.60289,178.079,-0.869195,-3.63634,-0.0122614,0.0328898,-0.0191455,0.0281253,-0.000152809,-0.000482745,0.0344432,-0.012186535329302473,0.02852455047397262,-0.00015279732529938084,0.03343664824739001,-0.00048262849738023306,-0.018963388968997852
48,0.038585,43.5986,723.838,-0.314387,178.659,-0.818299,-3.56893,-0.0125984,0.0337508,-0.0196617,0.0288558,-0.000156261,-0.000497616,0.0354246,-0.01251937238070333,0.029276162150835283,-0.00015624879188580465,0.03432682036563617,-0.0004974922096924184,-0.019469669385394517
49,0.039585,43.8996,727.315,0.0868191,179.199,-0.745602,-3.46755,-0.0129357,0.0346113,-0.0201767,0.0295844,-0.000159079,-0.000511534,0.0364052,-0.01285239342924216,0.030026366028663487,-0.0001590663476067622,0.03521724164337203,-0.0005114031887891723,-0.019974512497401564
50,0.040585,43.9141,730.146,-0.120957,179.852,-0.785711,-3.52275,-0.0132728,0.0354704,-0.0206936,0.0303145,-0.000163478,-0.000527608,0.0373863,-0.013185104805763959,0.030778662871045803,-0.0001634646381999394,0.03610697890758696,-0.0005274688393743787,-0.020480956770093206
51,0.041585,44.1643,733.398,0.180502,180.386,-0.72833,-3.44585,-0.01361,0.0363294,-0.0212079,0.0310412,-0.000166365,-0.000541604,0.0383659,-0.013517802692407321,0.03152800196473726,-0.00016635116211083378,0.03699737717377327,-0.0005414573590285521,-0.02098459389263907
52,0.042585,44.1243,736.012,-0.123778,181.031,-0.787954,-3.52549,-0.013947,0.037187,-0.0217241,0.0317694,-0.000170975,-0.000557865,0.0393458,-0.013850191182293692,0.03227943421904622,-0.0001709603846076213,0.03788708757772841,-0.0005577094222526391,-0.02148983123229542
53,0.043585,44.3876,739.178,0.214428,181.532,-0.723924,-3.43735,-0.0142841,0.0380447,-0.0222373,0.0324939,-0.000173718,-0.000571553,0.0403241,-0.014182566257879614,0.03302759165644398,-0.00017370291190199616,0.038777665202362144,-0.0005713896946981656,-0.021991873815761398
54,0.044585,44.3148,741.622,-0.14936,182.164,-0.794732,-3.53047,-0.0146208,0.0389008,-0.0227527,0.0332201,-0.000178457,-0.000587877,0.0413028,-0.014514435114563407,0.03377804875149559,-0.00017844107749676041,0.03966734353401402,-0.000587704234173092,-0.02249580932865969
55,0.045585,44.5989,744.731,0.243984,182.631,-0.71938,-3.42567,-0.0149578,0.0397572,-0.0232647,0.0339422,-0.000181,-0.00060118,0.0422796,-0.014846487795910357,0.034524809466006445,-0.0001809836204882398,0.040558096012786704,-0.0006009993275112313,-0.022996163372717704
56,0.046585,44.4947,747.012,-0.179566,183.254,-0.801253,-3.53248,-0.0152943,0.0406118,-0.0237794,0.0346666,-0.000185867,-0.000617561,0.0432572,-0.015177936183448315,0.03527449073975775,-0.0001858497277993365,0.04144773705110971,-0.0006173703484539939,-0.02349889785761161
57,0.047585,44.8023,750.078,0.27511,183.687,-0.71331,-3.40959,-0.0156311,0.0414668,-0.0242901,0.0353863,-0.000188189,-0.000630447,0.0442325,-0.015509568404540763,0.03601984597465191,-0.00018817129356085704,0.042338555636966424,-0.000630248310046766,-0.02399746964933247
58,0.048585,44.6657,752.202,-0.212246,184.303,-0.807244,-3.53138,-0.0159674,0.04232,-0.024804,0.0361088,-0.000193196,-0.000646893,0.0452088,-0.01584059687112982,0.03676864078292019,-0.00019317733885459987,0.043228258385856755,-0.0006466838098335703,-0.02449890849393299
59,0.049585,44.999,755.236,0.308271,184.702,-0.705773,-3.38935,-0.016304,0.0431736,-0.0253134,0.0368262,-0.000195281,-0.000659337,0.0461826,-0.016171809180064223,0.03751268546273345,-0.00019526193390662083,0.044119138200626296,-0.0006591196851241099,-0.024995702205845127
60,0.050585,44.8288,757.205,-0.246945,185.314,-0.812702,-3.52739,-0.01664,0.0440253,-0.0258266,0.037547,-0.000200439,-0.000675855,0.0471575,-0.01650231992326545,0.03826079419241113,-0.00020041891344568796,0.045008793276466674,-0.0006756266614535988,-0.025495946037926487
61,0.051585,45.1894,760.219,0.343256,185.681,-0.696904,-3.36532,-0.0169765,0.0448776,-0.0263348,0.038262,-0.000202273,-0.000687834,0.0481299,-0.016833211217028743,0.03900341611595892,-0.00020225254419592442,0.045899833934013534,-0.0006875974964224429,-0.025991063178228524
62,0.052585,44.9846,762.037,-0.283308,186.291,-0.817636,-3.52073,-0.0173122,0.0457278,-0.0268473,0.0389811,-0.000207591,-0.000704432,0.0491035,-0.017163204915481844,0.03975083217372388,-0.00020756945447930608,0.04678943608911368,-0.000704183946027781,-0.026490114865431624
63,0.053585,45.3739,765.038,0.379708,186.625,-0.68686,-3.33791,-0.0176484,0.0465788,-0.0273542,0.0396938,-0.000209163,-0.000715928,0.0500742,-0.0174935791069758,0.04049212672074809,-0.00020914112694470077,0.047680633049748566,-0.0007156717846970029,-0.026983461976817225
64,0.054585,45.1339,766.708,-0.32092,187.235,-0.822037,-3.51159,-0.0179838,0.0474275,-0.027866,0.0404112,-0.000214648,-0.000732611,0.0510465,-0.017823056504095214,0.04123884358777219,-0.00021462496476620796,0.04857017702761057,-0.0007323427060836885,-0.027481324427109044
65,0.055585,45.5528,769.705,0.417192,187.537,-0.675805,-3.30749,-0.0183198,0.0482772,-0.0283715,0.0411216,-0.000215949,-0.00074361,0.0520157,-0.018153012521394674,0.04197880246453045,-0.0002159256846930857,0.049461525742903856,-0.0007433335906017469,-0.027972808384575165
66,0.056585,45.2774,771.23,-0.359303,188.149,-0.82588,-3.50009,-0.0186548,0.0491243,-0.0288826,0.0418373,-0.000221606,-0.00076038,0.0529866,-0.01848187617446262,0.042724813621703106,-0.0002215814472040778,0.050350901243170876,-0.0007600909843863413,-0.02846948454580478
67,0.057585,45.7262,774.229,0.455204,188.42,-0.663907,-3.27444,-0.0189906,0.0499726,-0.0293869,0.0425454,-0.000222631,-0.000770873,0.0539542,-0.018811414627840306,0.04346342853797758,-0.00022260621955794146,0.05124229194260588,-0.0007705759537421919,-0.028959303866425867
68,0.058585,45.4157,775.613,-0.397925,189.036,-0.829122,-3.48632,-0.0193253,0.0508183,-0.0298973,0.0432596,-0.000228461,-0.000787729,0.0549237,-0.019139763495116147,0.04420893630777467,-0.00022843490477297834,0.05213170358360464,-0.0007874188229617385,-0.02945479657723593
69,0.059585,45.8945,778.618,0.493192,189.276,-0.651341,-3.23912,-0.0196608,0.0516653,-0.0304003,0.0439655,-0.000229207,-0.000797711,0.0558897,-0.01946878690769982,0.044946303619088024,-0.00022918073408240147,0.05302323664749298,-0.0007973929131662727,-0.02994285805680519
70,0.060585,45.5495,779.866,-0.436209,189.895,-0.831706,-3.47034,-0.0199952,0.0525095,-0.0309101,0.044678,-0.000235209,-0.000814649,0.0568578,-0.019796621728320973,0.045691093160182605,-0.00023518134053179818,0.05391257420043449,-0.000814317263592379,-0.030437267152181424
71,0.061585,46.0576,782.88,0.530565,190.105,-0.638282,-3.20191,-0.0203305,0.0533551,-0.0314117,0.0453817,-0.000235679,-0.00082412,0.0578221,-0.020125228826996633,0.046427204952997236,-0.00023565122988611353,0.05480413957389296,-0.0008237805063803227,-0.03092347786713634
72,0.062585,45.6793,783.997,-0.473555,190.73,-0.833564,-3.4522,-0.0206645,0.0541978,-0.0319208,0.0460927,-0.000241847,-0.000841132,0.0587889,-0.02045245235119786,0.04717147925387888,-0.00024181775737175393,0.055693397658580945,-0.0008407783476422903,-0.031416709161875
73,0.063585,46.2156,787.022,0.566714,190.911,-0.624905,-3.16313,-0.0209995,0.0550421,-0.0324212,0.0467941,-0.000242046,-0.000850099,0.0597515,-0.020780545820935692,0.04790622297392799,-0.00024201670923018614,0.05658509597169692,-0.0008497377682132878,-0.03190126699412965
74,0.064585,45.8056,788.014,-0.509354,191.54,-0.834623,-3.43189,-0.0213331,0.0558832,-0.0329295,0.0475036,-0.000248371,-0.000867171,0.0607169,-0.021107158948751148,0.04864997625440437,-0.00024834015847663427,0.05747416354087065,-0.0008667951158881637,-0.03239322653800625
75,0.065585,46.3685,791.05,0.601027,191.695,-0.611385,-3.12313,-0.0216678,0.0567262,-0.0334287,0.0482029,-0.00024831,-0.000875645,0.0616779,-0.02143473955897779,0.04938355364824032,-0.00024827917362346685,0.058365990112821065,-0.0008752617347932423,-0.03287613529526423
76,0.066585,45.9292,791.925,-0.543002,192.329,-0.834804,-3.40943,-0.0220011,0.0575659,-0.0339363,0.0489108,-0.000254781,-0.000892761,0.0626418,-0.021760841012456678,0.05012667526273051,-0.00025474854607732134,0.059255073264039115,-0.0008923626074637259,-0.03336692279658249
77,0.067585,46.5164,794.97,0.632903,192.458,-0.597887,-3.08221,-0.0223355,0.0584075,-0.0344342,0.049608,-0.00025447,-0.000900758,0.0636012,-0.0220879094983234,0.05085907886695251,-0.00025443762525578784,0.06014691756914137,-0.0009003524392925399,-0.033848089609303855
78,0.068585,46.0503,795.735,-0.573924,193.096,-0.834032,-3.38479,-0.0226684,0.0592456,-0.0349411,0.0503144,-0.000261071,-0.000917897,0.0645637,-0.022413402251976633,0.0516016679718565,-0.00026103692393197875,0.06103579913454582,-0.0009174758614125533,-0.03433770790843904
79,0.069585,46.6592,798.787,0.66178,193.201,-0.584569,-3.04067,-0.0230025,0.0600859,-0.0354378,0.0510095,-0.000260528,-0.000925438,0.0655213,-0.022739959379878383,0.052332890398176346,-0.0002604940655276389,0.06192776222236507,-0.0009250099143198742,-0.03481723326893904
80,0.070585,46.1695,799.45,-0.601585,193.844,-0.832235,-3.35798,-0.023335,0.0609226,-0.035944,0.0517143,-0.000267241,-0.000942575,0.0664824,-0.02306484432826872,0.05307483605026375,-0.0002672052943046843,0.0628166489949411,-0.0009421309157232605,-0.0353056851478577
81,0.071585,46.7971,802.505,0.68714,193.926,-0.571576,-2.99879,-0.0236688,0.0617615,-0.0364395,0.0524074,-0.000266485,-0.000949686,0.0674384,-0.023390890863037916,0.053804975219630125,-0.0002664494960261665,0.06370861996669652,-0.0009492351909710095,-0.035783572774429895
82,0.072585,46.2871,803.077,-0.625509,194.571,-0.82935,-3.32898,-0.0240009,0.0625967,-0.0369449,0.0531107,-0.000273289,-0.000966792,0.0683979,-0.02371516889883407,0.05454637694205777,-0.0002732516599628365,0.0645974005091825,-0.0009663248071859476,-0.03627076463299672
83,0.073585,46.93,806.129,0.708533,194.634,-0.559036,-2.95679,-0.0243344,0.0634343,-0.0374392,0.0538018,-0.000272343,-0.000973502,0.0693523,-0.024040705603743495,0.055275425836990744,-0.0002723059180116394,0.06548948084293782,-0.0009730283006562646,-0.03674701827825322
84,0.074585,46.4036,806.619,-0.645293,195.281,-0.825325,-3.2978,-0.0246661,0.064268,-0.0379438,0.0545036,-0.000279213,-0.000990546,0.0703104,-0.024364377617723587,0.05601627806548293,-0.00027917402367794164,0.06637814981330403,-0.0009900555712550885,-0.037232953121158374
85,0.075585,47.0579,809.664,0.725587,195.326,-0.547061,-2.9149,-0.0249992,0.0651042,-0.0384371,0.0551928,-0.000278101,-0.000996889,0.0712631,-0.02468930772342559,0.056744335344045105,-0.000278062333501361,0.06727022814814898,-0.0009963922712357132,-0.037707768982422896
86,0.076585,46.5191,810.082,-0.660614,195.973,-0.820121,-3.26446,-0.0253305,0.0659364,-0.0389408,0.0558929,-0.000285013,-0.00101384,0.0722196,-0.025012374636787627,0.057484421090006066,-0.0002849723876533483,0.068158780107203,-0.0010133262378660968,-0.03819235352632355
87,0.077585,46.743,812.157,-0.277539,196.222,-0.73812,-3.14437,-0.0256623,0.06677,-0.0394374,0.0565849,-0.000287118,-0.00102433,0.0731724,-0.02533582186802008,0.0582164535634242,-0.000287076785571605,0.06904956849531718,-0.001023805553109769,-0.03866986862674959
88,0.078585,46.9322,814.131,0.0263458,196.491,-0.676103,-3.04189,-0.0259941,0.0676027,-0.0399335,0.0572762,-0.000289215,-0.00103462,0.0741246,-0.025659161797263685,0.05894825151459071,-0.00028917318137355874,0.06994013680766087,-0.0010340849652629158,-0.03914666622550056
89,0.079585,46.9551,815.721,-0.0603622,196.84,-0.686177,-3.04388,-0.0263256,0.0684344,-0.0404307,0.0579682,-0.00029225,-0.0010462,0.0750766,-0.025982102254789585,0.05968129730923133,-0.00029220729912859955,0.07083037617416776,-0.0010456529235803869,-0.03962428375749549
90,0.080585,47.0785,817.517,0.0945075,197.134,-0.650448,-2.98218,-0.026657,0.0692656,-0.0409264,0.0586584,-0.000294558,-0.00105671,0.0760274,-0.026304838305785005,0.06041294180210377,-0.0002945146220515449,0.07172082040019712,-0.00105615187859609,-0.04010022402849511
91,0.081585,47.0786,819.025,-0.0387862,197.486,-0.671937,-2.99776,-0.0269881,0.0700958,-0.0414227,0.0593489,-0.000297661,-0.00106822,0.0769779,-0.026627175407969994,0.061145409793889494,-0.0002976167033598154,0.07261093245968486,-0.0010676496561181636,-0.04057650408863667
92,0.082585,47.1944,820.773,0.101042,197.775,-0.639526,-2.94034,-0.0273192,0.0709256,-0.0419175,0.0600374,-0.000299949,-0.00107856,0.0779272,-0.026949405802006887,0.06187625997483681,-0.0002999040197960712,0.07350135439640848,-0.0010779785632201166,-0.041051109407374775
93,0.083585,47.1915,822.242,-0.0365593,198.122,-0.662349,-2.95684,-0.0276499,0.0717544,-0.042413,0.0607263,-0.000303013,-0.00108987,0.0788761,-0.027271140431754937,0.06260803856252739,-0.00030296709619748174,0.07439144111991958,-0.0010892763073937495,-0.041526150881418866
94,0.084585,47.3047,823.953,0.100896,198.404,-0.630095,-2.89973,-0.0279806,0.0725828,-0.0429068,0.0614131,-0.000305248,-0.00109999,0.0798238,-0.027592768681451885,0.06333808843384126,-0.00030520141656920075,0.0752818357402758,-0.0010993852327662035,-0.04199932843096177
95,0.085585,47.3013,825.389,-0.0359921,198.745,-0.652813,-2.91577,-0.0283109,0.0734101,-0.0434013,0.0621003,-0.000308256,-0.00111107,0.0807711,-0.02791390175191033,0.06406906550316727,-0.0003082084940007057,0.07617178447952111,-0.0011104529902623561,-0.042472942652285295
96,0.086585,47.4124,827.065,0.0997145,199.021,-0.620719,-2.85882,-0.0286412,0.0742371,-0.0438942,0.0627855,-0.000310441,-0.00112099,0.0817172,-0.028234928769631074,0.06479841547361409,-0.00031039281817879516,0.07706214665930178,-0.00112036192542031,-0.04294479144216479
97,0.087585,47.4089,828.471,-0.0352169,199.354,-0.643042,-2.87412,-0.0289711,0.0750631,-0.0443878,0.0634711,-0.000313389,-0.00113184,0.082663,-0.028555461191899778,0.0655286915773059,-0.0003133398987967828,0.07795216752045464,-0.0011311997106983052,-0.04341707732336442
98,0.088585,47.5177,830.114,0.0980697,199.625,-0.6113,-2.81755,-0.029301,0.0758886,-0.0448798,0.0641547,-0.000315525,-0.00114155,0.0836075,-0.028875887887963025,0.06625733601316108,-0.000315475227222195,0.07884238442121538,-0.0011408986796606069,-0.04388760036316208
99,0.089585,47.5147,831.491,-0.0340579,199.952,-0.633035,-2.83191,-0.0296305,0.0767132,-0.0453723,0.0648386,-0.000318411,-0.00115218,0.0845517,-0.029195820571099707,0.06698679881663416,-0.00031836031259746544,0.07973236473986489,-0.0011515164954738477,-0.04435836978349783
100,0.090585,47.6209,833.101,0.096037,200.217,-0.601828,-2.77595,-0.02996,0.0775374,-0.0458634,0.0655206,-0.000320502,-0.00116168,0.0854946,-0.029515647853783133,0.06771473201043121,-0.0003204506447206379,0.08062264698980082,-0.0011610055109941841,-0.04482757016651295
101,0.091585,47.6186,834.452,-0.0325219,200.538,-0.622813,-2.78919,-0.0302891,0.0783605,-0.046355,0.0662029,-0.000323323,-0.00117208,0.0864372,-0.02983498170480703,0.06844348235699127,-0.0003232707367516463,0.08151247364846181,-0.0011713933825199252,-0.045297017533402095
102,0.092585,47.722,836.029,0.0936538,200.798,-0.592306,-2.73406,-0.0306182,0.0791833,-0.0468452,0.0668833,-0.000325371,-0.00118138,0.0873786,-0.03015421048035183,0.0691706986733227,-0.0003253180725967253,0.08240270830409302,-0.001180682445367176,-0.04576489824847474
103,0.093585,47.7208,837.356,-0.0306431,201.112,-0.612404,-2.74603,-0.0309469,0.0800051,-0.0473358,0.067564,-0.000328126,-0.00119155,0.0883195,-0.030472946404248025,0.06989873092557541,-0.0003280721725515967,0.08329259245309184,-0.001190840386173564,-0.04623293117153049
104,0.094585,47.8211,838.901,0.0909606,201.368,-0.58274,-2.69194,-0.0312755,0.0808264,-0.0478251,0.0682428,-0.000330134,-0.00120066,0.0892593,-0.03079148065601578,0.07062522472822885,-0.00033007951176733386,0.08418266611799208,-0.001199939496171143,-0.04669949524409944
105,0.095585,47.8213,840.205,-0.0284639,201.676,-0.60183,-2.70249,-0.0316038,0.0816468,-0.0483148,0.0689219,-0.000332821,-0.0012106,0.0901987,-0.031109619587553317,0.07135253324799806,-0.000332765621234854,0.08507249453498322,-0.0012098675194301967,-0.04716621221630091
106,0.096585,47.9184,841.718,0.0880023,201.928,-0.573137,-2.64963,-0.0319321,0.0824668,-0.0488031,0.0695992,-0.000334791,-0.00121952,0.0911369,-0.0314276540912225,0.07207840610786231,-0.0003347349637468078,0.08596261888160739,-0.0012187766876768924,-0.047631367378000444
107,0.097585,47.9202,843.001,-0.026031,202.229,-0.591115,-2.65864,-0.03226,0.0832857,-0.0492919,0.0702767,-0.000337409,-0.00122923,0.0920747,-0.03174519689945743,0.07280498532891966,-0.0003373520839848876,0.08685227789137406,-0.0012284748062708628,-0.04809677141161384
108,0.098585,48.0139,844.483,0.0848268,202.477,-0.563498,-2.60715,-0.0325878,0.0841043,-0.0497793,0.0709524,-0.000339342,-0.00123795,0.0930113,-0.03206253880873322,0.07353012461822539,-0.00033928443001562947,0.08774233941853615,-0.0012371840559981528,-0.048560615997119805
109,0.099585,48.0175,845.747,-0.023393,202.773,-0.580283,-2.61454,-0.0329152,0.0849219,-0.0502672,0.0716284,-0.000341891,-0.00124743,0.0939475,-0.03237938966221221,0.07425607632649944,-0.0003418325619320983,0.08863204121577795,-0.0012466522826137805,-0.049024710047624875
110,0.1006,48.1078,847.198,0.0814832,203.017,-0.553828,-2.56454,-0.0332426,0.085739,-0.0507537,0.0723026,-0.000343789,-0.00125598,0.0948826,-0.032696136795701713,0.07498058397724439,-0.00034372991133324593,0.08952192596956032,-0.001255191587231197,-0.049487247004949
111,0.1016,48.1133,848.443,-0.0205991,203.307,-0.569356,-2.57023,-0.0335697,0.0865553,-0.0512406,0.0729769,-0.000346268,-0.00126523,0.0958172,-0.03301249014694463,0.07570568782630871,-0.0003462080561551506,0.0904116658156413,-0.0012644299339816811,-0.049949939012872036
112,0.1026,48.2001,849.865,0.0780203,203.548,-0.544126,-2.52183,-0.0338967,0.087371,-0.0517262,0.0736497,-0.000348132,-0.00127359,0.0967507,-0.033328643368797595,0.0764296661320707,-0.0003480714090866588,0.09130147747179351,-0.001272779328446827,-0.050411171326218196
113,0.1036,48.2076,851.092,-0.0176977,203.832,-0.558354,-2.52578,-0.0342233,0.0881859,-0.0522121,0.0743225,-0.000350541,-0.00128261,0.0976837,-0.03364430668324814,0.0771541316943316,-0.00035047956768208266,0.09219114149015684,-0.0012817878073489997,-0.05087246445782856
114,0.1046,48.2909,852.485,0.0744857,204.07,-0.534395,-2.47904,-0.0345498,0.0890002,-0.0526969,0.0749937,-0.000352373,-0.0012908,0.0986156,-0.03395977031487585,0.07787736023587155,-0.0003523109239259581,0.0930808749424834,-0.0012899672760119385,-0.05133248996786577
115,0.1056,48.3005,853.696,-0.0147353,204.348,-0.547299,-2.48123,-0.034876,0.0898137,-0.0531819,0.075665,-0.000354711,-0.0012996,0.099547,-0.03427484124693625,0.0786011822314685,-0.0003546480974908617,0.093970458023108,-0.0012987558856299986,-0.05179248215310961
116,0.1066,48.3803,855.06,0.0709243,204.583,-0.524635,-2.4362,-0.0352021,0.0906267,-0.0536658,0.0763347,-0.000356511,-0.00130761,0.100477,-0.0345897128785958,0.07932376337249769,-0.0003564474575048493,0.09486021764375785,-0.001306755450557029,-0.052251208773138824
117,0.1076,48.392,856.255,-0.0117555,204.856,-0.536208,-2.43662,-0.0355279,0.0914388,-0.0541498,0.0770044,-0.00035878,-0.00131618,0.101407,-0.03490419231865749,0.08004682858819123,-0.0003587156461523078,0.09574971475792382,-0.0013153142149884278,-0.052709808198079244
118,0.1086,48.4684,857.591,0.0673781,205.088,-0.514847,-2.39333,-0.0358536,0.0922503,-0.0546328,0.0776727,-0.000360549,-0.00132401,0.102336,-0.03521847283985813,0.0807688651253724,-0.00036048401002020114,0.09663927654232674,-0.0013231338854641228,-0.05316723888231656
119,0.1096,48.4822,858.772,-0.00879839,205.355,-0.525099,-2.39201,-0.036179,0.0930611,-0.055116,0.0783409,-0.000362748,-0.00133236,0.103264,-0.035532361676312685,0.08149127621171393,-0.00036268221489899055,0.09752879222867605,-0.0013314728024811373,-0.05362463795597283
120,0.1106,48.5552,860.081,0.0638847,205.585,-0.505033,-2.35046,-0.0365042,0.0938713,-0.0555981,0.0790078,-0.000364486,-0.00134003,0.104192,-0.035845955559166476,0.0822127632969476,-0.00036441958304744837,0.09841837037558543,-0.0013391325607094995,-0.054080775557210914
121,0.1116,48.571,861.247,-0.00589974,205.847,-0.513988,-2.34744,-0.0368291,0.0946806,-0.0560803,0.0796745,-0.000366617,-0.00134816,0.105118,-0.036159158325660745,0.08293451511547212,-0.0003665498041995896,0.09930768017340119,-0.0013472516405577117,-0.054536787853836644
122,0.1126,48.6408,862.531,0.0604776,206.075,-0.495194,-2.30759,-0.0371539,0.0954894,-0.0565615,0.0803399,-0.000368324,-0.00135565,0.106044,-0.036472162996326385,0.083655339533518,-0.00036825617704272506,0.10019715988223132,-0.001354731521630681,-0.05499163530644746
123,0.1136,48.6586,863.682,-0.00309072,206.331,-0.50289,-2.30293,-0.0374784,0.0962974,-0.0570428,0.0810051,-0.000370388,-0.00136356,0.106969,-0.03678477705505989,0.08437642687243518,-0.00037031941483267605,0.10108647842372309,-0.0013626307744627475,-0.05544635839448531
124,0.1146,48.7253,864.941,0.0571853,206.556,-0.485332,-2.26475,-0.0378028,0.0971049,-0.0575232,0.081669,-0.000372064,-0.0013709,0.107893,-0.0370971933967128,0.08509658341174742,-0.0003719947927733891,0.10197596483685678,-0.0013699607458518281,-0.0559000129873547
125,0.1156,48.7449,866.079,-0.000397655,206.807,-0.491817,-2.25853,-0.0381268,0.0979115,-0.0580035,0.0823328,-0.000374062,-0.00137859,0.108817,-0.03740912337066771,0.08581710964001421,-0.00037399204753252313,0.10286517722123834,-0.001377640181326245,-0.05635335533223762
126,0.1166,48.8086,867.313,0.0540313,207.031,-0.475449,-2.22197,-0.0384508,0.0987176,-0.058483,0.0829953,-0.000375708,-0.00138576,0.109739,-0.03772095229568184,0.08653670181373863,-0.0003756374305874388,0.10375455525625377,-0.0013848002779771607,-0.056805725433956566
127,0.1176,48.8301,868.438,0.00215806,207.277,-0.480781,-2.21426,-0.0387744,0.0995228,-0.0589625,0.0836576,-0.000377641,-0.00139324,0.110661,-0.038032295417484985,0.0872565534238976,-0.0003775697026128233,0.1046436563282005,-0.0013922698917346876,-0.05725787867620791
128,0.1186,48.891,869.649,0.0510346,207.498,-0.465548,-2.17925,-0.0390979,0.100328,-0.0594411,0.0843187,-0.000379255,-0.00140024,0.111582,-0.03834344163930259,0.08797557637821618,-0.00037918309191331545,0.10553347359263077,-0.0013992601213796974,-0.05770896710140283
129,0.1196,48.9141,870.761,0.00455986,207.74,-0.469793,-2.17015,-0.0394211,0.101131,-0.0599197,0.0849795,-0.000381125,-0.00140752,0.112502,-0.038654198817899554,0.0886947482272964,-0.00038105238109309436,0.10642157349631587,-0.0014065299083039218,-0.05815983968733196
130,0.1206,48.9723,871.949,0.048209,207.959,-0.455632,-2.13662,-0.0397441,0.101935,-0.0603974,0.0856392,-0.000382708,-0.00141435,0.113422,-0.03896466336895721,0.08941319710700912,-0.0003826347766346938,0.10731149414156804,-0.0014133502784130503,-0.05860964928633683
131,0.1216,48.9969,873.049,0.00679579,208.196,-0.45886,-2.12623,-0.0400669,0.102737,-0.0608751,0.0862985,-0.000384517,-0.00142143,0.114341,-0.039274835511144635,0.09013168405105709,-0.00038444308281282424,0.10819991416868069,-0.0014204202468653948,-0.05905924406261076
132,0.1226,49.0527,874.215,0.045564,208.413,-0.445706,-2.09409,-0.0403895,0.103539,-0.0613519,0.0869568,-0.000386067,-0.0014281,0.115259,-0.039584715462885,0.09084955399963679,-0.0003859924857252395,0.10908904699444943,-0.0014270807504495053,-0.0595077776761308
133,0.1236,49.0787,875.302,0.00885823,208.646,-0.447991,-2.08251,-0.0407118,0.104341,-0.0618287,0.0876148,-0.000387816,-0.00143498,0.116176,-0.039894207431781514,0.09156756920726572,-0.0003877408090954271,0.10997889319076748,-0.0014339509085005142,-0.05995609747980024
134,0.1246,49.1321,876.447,0.0431051,208.861,-0.435773,-2.05168,-0.0410339,0.105141,-0.0623047,0.0882717,-0.000389334,-0.00144149,0.117092,-0.040203407708189975,0.09228485551037058,-0.0003892582193532057,0.11086723159330325,-0.001440451552320532,-0.060403451898601634
135,0.1256,49.1594,877.522,0.0107435,209.09,-0.437191,-2.03902,-0.0413558,0.105941,-0.0627806,0.0889282,-0.000391024,-0.00144817,0.118008,-0.040512316509709656,0.09300217595268512,-0.0003909475600792911,0.11175628095090495,-0.001447121907825144,-0.06085049951242605
136,0.1266,49.2107,878.647,0.0408338,209.303,-0.425839,-2.00942,-0.0416775,0.10674,-0.0632558,0.0895837,-0.000392509,-0.00145452,0.118923,-0.04082093405369491,0.09371887375106303,-0.00039243197841998256,0.1126449291870788,-0.0014534626984690213,-0.061296677334811034
137,0.1276,49.2391,879.71,0.0124513,209.528,-0.426465,-1.99578,-0.041999,0.107539,-0.0637307,0.0902388,-0.000394143,-0.00146101,0.119837,-0.04112926055725541,0.09443560372452753,-0.0003940653358517343,0.11353428773692609,-0.0014599432444667437,-0.06174236170661429
138,0.1286,49.2884,880.816,0.0387486,209.738,-0.415908,-1.96731,-0.0423202,0.108337,-0.064205,0.090893,-0.000395595,-0.0014672,0.12075,-0.04143720038098131,0.09515181774454651,-0.00039551676261506685,0.11442324274441384,-0.0014661241882879539,-0.062187271785691056
139,0.1296,49.3178,881.866,0.0139845,209.959,-0.415818,-1.9528,-0.0426412,0.109134,-0.0646791,0.0915467,-0.000397174,-0.0014735,0.121663,-0.041744849659308025,0.09586795253095937,-0.00039709513684804687,0.1153117921087683,-0.001472414931889765,-0.06263178342032838
140,0.1306,49.3653,882.954,0.0368451,210.168,-0.405986,-1.92537,-0.042962,0.10993,-0.0651526,0.0921995,-0.000398591,-0.00147953,0.122574,-0.04205220860852599,0.09658356868206996,-0.00039851157316062036,0.1161999337287567,-0.0014784360350740267,-0.0630755222074304
141,0.1316,49.3956,883.992,0.0153484,210.386,-0.405253,-1.91009,-0.0432826,0.110726,-0.0656258,0.0928518,-0.000400117,-0.00148565,0.123485,-0.04235927744468149,0.09729910349022775,-0.00040003696386814447,0.11708878259091948,-0.00148454696834599,-0.06351876998962558
142,0.1326,49.4414,885.062,0.0351167,210.592,-0.396078,-1.88362,-0.0436029,0.111521,-0.0660984,0.0935033,-0.0004015,-0.00149152,0.124396,-0.04266596065017869,0.09801422678226923,-0.00040141940966098577,0.11797722128066535,-0.0014904082368525362,-0.06396124645350443
143,0.1336,49.4724,886.089,0.0165504,210.807,-0.394773,-1.86767,-0.043923,0.112316,-0.0665707,0.0941542,-0.000402974,-0.00149746,0.125305,-0.04297235423526502,0.09872915689124451,-0.0004028928168828827,0.11886636656000205,-0.0014963393662120739,-0.06440323317342456
144,0.1346,49.5167,887.142,0.0335549,211.011,-0.38619,-1.84208,-0.044243,0.11311,-0.0670425,0.0948043,-0.000404323,-0.00150317,0.126214,-0.04327855408732051,0.09944367294441792,-0.0004042412724709621,0.11975509923523187,-0.001502040805836713,-0.06484454361469405
145,0.1356,49.5483,888.157,0.0175994,211.222,-0.384379,-1.82555,-0.0445626,0.113903,-0.0675139,0.0954539,-0.000405746,-0.00150893,0.127122,-0.04358427340488502,0.10015810357630905,-0.00040566369622363485,0.12064341720044713,-0.0015077921375178382,-0.06528527200899004
146,0.1366,49.5913,889.193,0.03215,211.424,-0.376327,-1.80075,-0.0448821,0.114695,-0.0679848,0.0961027,-0.00040706,-0.00151449,0.128029,-0.04388979941915239,0.10087211775506244,-0.00040697716231852255,0.12153131834931252,-0.001513343738759998,-0.0657253255556618
147,0.1376,49.6234,890.196,0.0185053,211.632,-0.374073,-1.78373,-0.0452013,0.115487,-0.0684554,0.0967509,-0.000408435,-0.00152008,0.128935,-0.04419494109197586,0.1015859343847676,-0.0004083516017799882,0.12241992299443538,-0.001518925263568116,-0.06616489177941043
148,0.1386,49.6652,891.217,0.0308913,211.833,-0.366495,-1.75966,-0.0455203,0.116279,-0.0689255,0.0973983,-0.000409713,-0.00152548,0.129841,-0.044499794279099,0.10229933202058605,-0.00040962907909036783,0.12330923169320585,-0.0015243170468138834,-0.06660378449396964
149,0.1396,49.6977,892.209,0.0192792,212.038,-0.363857,-1.74223,-0.0458391,0.117069,-0.0693952,0.0980452,-0.000411041,-0.0015309,0.130746,-0.04480435919445591,0.10301264015311018,-0.00041095653422151823,0.1241969966072134,-0.0015297287703497364,-0.06704209775046632
150,0.1406,49.7383,893.214,0.0297674,212.236,-0.356699,-1.71882,-0.0461577,0.117859,-0.0698644,0.0986913,-0.000412284,-0.00153615,0.13165,-0.045108636051739315,0.10372552689317516,-0.000412199022630344,0.12508546313260283,-0.0015349707255135625,-0.06747973891955461
151,0.1416,49.7711,894.195,0.019932,212.438,-0.35373,-1.70105,-0.046476,0.118648,-0.0703333,0.0993368,-0.000413566,-0.00154141,0.132553,-0.045412529605659224,0.10443821171506484,-0.00041348049336975556,0.12597350584979772,-0.0015402226377549955,-0.06791689517068245
152,0.1426,49.8108,895.186,0.0287669,212.635,-0.346945,-1.67824,-0.0467941,0.119437,-0.0708016,0.0999816,-0.000414773,-0.00154651,0.133456,-0.045716135588899864,0.1051505831178372,-0.00041468699357072314,0.12686224950918157,-0.0015453147696345981,-0.06835328749943503
153,0.1436,49.8438,896.155,0.0204753,212.834,-0.343694,-1.6602,-0.047112,0.120224,-0.0712696,0.100626,-0.000416011,-0.00155159,0.134358,-0.04601945421434617,0.10586297166053504,-0.0004159244794221806,0.12774943916288262,-0.0015503869065522924,-0.06878919615030477
154,0.1446,49.8826,897.132,0.0278784,213.028,-0.337237,-1.63793,-0.0474296,0.121012,-0.0717372,0.101269,-0.000417182,-0.00155654,0.135259,-0.046322390326886675,0.10657427020928911,-0.000417094991689293,0.12863845594755374,-0.0015553292199048663,-0.06922452853354155
155,0.1456,49.9158,898.09,0.02092,213.225,-0.333749,-1.61968,-0.0477471,0.121798,-0.0722043,0.101912,-0.000418376,-0.00156147,0.136159,-0.04662513490471287,0.10728602627008432,-0.0004182884929653241,0.12952591449945028,-0.0015602515399982808,-0.0696591922326536
156,0.1466,49.9537,899.053,0.0270905,213.417,-0.327581,-1.59791,-0.0480643,0.122584,-0.072671,0.102554,-0.000419512,-0.00156627,0.137059,-0.046927497454685496,0.10799713213950946,-0.00041942401714467614,0.13041407086797485,-0.0015650440392889209,-0.07009328098514922
157,0.1476,49.987,900.0,0.0212769,213.611,-0.323894,-1.5795,-0.0483813,0.123369,-0.0731373,0.103196,-0.000420664,-0.00157104,0.137957,-0.04722957355640067,0.10870869468548028,-0.00042057553330487885,0.13130179429946653,-0.0015698065626702506,-0.07052679540648343
158,0.1486,50.0242,900.951,0.0263926,213.802,-0.31798,-1.55818,-0.048698,0.124154,-0.0736032,0.103837,-0.000421764,-0.0015757,0.138855,-0.04753126817459086,0.10941960478111756,-0.0004216750700670735,0.1321902148674423,-0.0015744592365308785,-0.07095973611113515
159,0.1496,50.0575,901.886,0.0215564,213.994,-0.31413,-1.53967,-0.0490146,0.124938,-0.0740687,0.104477,-0.000422875,-0.00158032,0.139753,-0.047832772044505756,0.11012986058579166,-0.0004227856009691999,0.13307820004060256,-0.0015790719518737895,-0.07139210371260862
160,0.1506,50.0941,902.825,0.0257746,214.182,-0.308439,-1.51875,-0.0493309,0.125721,-0.0745337,0.105117,-0.00042394,-0.00158482,0.140649,-0.04813389491361586,0.11084057109967205,-0.00042385015013568506,0.13396574770079783,-0.0015835648359410204,-0.07182380600582039
161,0.1516,50.1274,903.75,0.0217681,214.372,-0.304458,-1.50018,-0.0496469,0.126504,-0.0749983,0.105756,-0.00042501,-0.00158929,0.141545,-0.04843463708305784,0.1115506250626852,-0.00042491969604374624,0.13485399058295489,-0.0015880277474316085,-0.07225493650617976
162,0.1526,50.1633,904.676,0.0252268,214.558,-0.298962,-1.47964,-0.0499628,0.127286,-0.0754625,0.106394,-0.00042604,-0.00159365,0.14244,-0.048735189106511756,0.11226002063459961,-0.0004259492578462254,0.1357417934892844,-0.0015923808141409257,-0.07268549582410444
163,0.1536,50.1966,905.59,0.0219209,214.745,-0.294877,-1.46105,-0.0502784,0.128067,-0.0759263,0.107032,-0.000427071,-0.00159797,0.143334,-0.0490353609112274,0.11296986894529737,-0.0004269798181613105,0.13662915429929123,-0.0015966939257394674,-0.07311548456904338
164,0.1546,50.232,906.504,0.0247407,214.93,-0.289552,-1.44085,-0.0505938,0.128848,-0.0763897,0.107669,-0.000428066,-0.0016022,0.144228,-0.04933524786373766,0.11367905660410438,-0.0004279743928216062,0.13751720840878878,-0.0016009171627920926,-0.07354490334947816
165,0.1556,50.2652,907.408,0.022023,215.115,-0.285387,-1.42227,-0.050909,0.129628,-0.0768527,0.108305,-0.000429058,-0.00160637,0.145121,-0.04963485017380642,0.11438758177122477,-0.0004289659677791935,0.13840481795406845,-0.001605080478287002,-0.07397375277292484
166,0.1566,50.3001,908.311,0.0243081,215.298,-0.280213,-1.40239,-0.051224,0.130407,-0.0773152,0.108941,-0.000430018,-0.00161045,0.146013,-0.04993416805096107,0.11509655770367955,-0.0004299255555112458,0.13929198081232408,-0.0016091539212488293,-0.0744019408861335
167,0.1576,50.3332,909.205,0.0220817,215.481,-0.275988,-1.38385,-0.0515387,0.131186,-0.0777773,0.109576,-0.000430974,-0.00161448,0.146904,-0.05023310672780745,0.11580486888282016,-0.00043088114404565836,0.14017983503969966,-0.001613177428251067,-0.07482956094002724
168,0.1586,50.3676,910.097,0.023922,215.662,-0.270947,-1.36427,-0.0518532,0.131964,-0.0782391,0.110211,-0.000431899,-0.00161842,0.147794,-0.05053176144982485,0.1165136299823939,-0.0004318057450529711,0.14106724010717087,-0.0016171110645827325,-0.07525670601339662
169,0.1596,50.4006,910.98,0.0221037,215.843,-0.26668,-1.34579,-0.0521675,0.132741,-0.0787004,0.110845,-0.000432818,-0.00162231,0.148684,-0.05083013242574608,0.11722172406590858,-0.00043272434780139424,0.14195419388965513,-0.0016209947664669322,-0.07568319171842186
170,0.1606,50.4346,911.861,0.0235759,216.022,-0.261758,-1.32649,-0.0524816,0.133518,-0.0791613,0.111478,-0.000433709,-0.00162612,0.149573,-0.051128219864068236,0.11792914929370557,-0.0004336149618472396,0.142841837103038,-0.0016247985832306133,-0.07610911117468033
171,0.1616,50.4674,912.735,0.0220949,216.201,-0.257464,-1.30809,-0.0527954,0.134294,-0.0796218,0.112111,-0.000434592,-0.00162987,0.150462,-0.05142592911565036,0.11863702246343033,-0.000434497578575499,0.1437290265536164,-0.0016285424832160889,-0.07653446498375316
172,0.1626,50.501,913.606,0.023264,216.378,-0.252647,-1.28905,-0.053109,0.13507,-0.0800818,0.112743,-0.000435449,-0.00163355,0.151349,-0.05172335530541561,0.11934422451393556,-0.0004353542058440629,0.14461690473039956,-0.0016322164834196018,-0.07695916144218629
173,0.1636,50.5337,914.469,0.0220605,216.555,-0.24834,-1.27076,-0.0534224,0.135844,-0.0805415,0.113374,-0.000436297,-0.00163716,0.152236,-0.052020498641070057,0.12005075360608974,-0.0004362018363043285,0.14550318115939342,-0.0016358205846126461,-0.07738338580023196
174,0.1646,50.567,915.33,0.0229814,216.731,-0.243617,-1.25197,-0.0537355,0.136619,-0.0810008,0.114005,-0.000437121,-0.00164071,0.153122,-0.05231726456181629,0.12075772865878687,-0.00043702547653456936,0.1463912902226021,-0.001639364771158669,-0.07780704631004998
175,0.1656,50.5994,916.184,0.0220049,216.906,-0.239307,-1.2338,-0.0540485,0.137392,-0.0814597,0.114635,-0.000437934,-0.00164419,0.154008,-0.0526138428410865,0.12146402848892746,-0.00043783812090258944,0.14727779327923307,-0.0016428390601239684,-0.07823014356940716
176,0.1666,50.6324,917.035,0.0227238,217.08,-0.234669,-1.21525,-0.0543612,0.138165,-0.0819181,0.115265,-0.000438725,-0.0016476,0.154892,-0.0529100441789373,0.12217077342815585,-0.0004386287742599304,0.1481649818676507,-0.001646243452238294,-0.07865258604038328
177,0.1676,50.6646,917.88,0.0219321,217.253,-0.230366,-1.19721,-0.0546736,0.138937,-0.0823762,0.115894,-0.000439505,-0.00165095,0.155776,-0.05320586887091305,0.1228768408795764,-0.00043940843182543876,0.14905170746569385,-0.001649587931720764,-0.07907455863051693
178,0.1686,50.6973,918.721,0.0224873,217.426,-0.225806,-1.17888,-0.0549859,0.139709,-0.0828338,0.116522,-0.000440264,-0.00165423,0.156659,-0.053501506511844155,0.12358222900433735,-0.00044016709802652265,0.14993911788020364,-0.0016528625157019583,-0.07949587770733091
179,0.1696,50.7293,919.556,0.0218453,217.597,-0.221516,-1.16098,-0.0552979,0.14048,-0.0832911,0.11715,-0.00044101,-0.00165746,0.157542,-0.053796767978628535,0.12428806025196626,-0.0004409127693837389,0.1508260628134248,-0.001656087171748255,-0.0799167280077
180,0.1706,50.7617,920.388,0.0222687,217.768,-0.217029,-1.14288,-0.0556097,0.14125,-0.0837479,0.117777,-0.000441736,-0.00166061,0.158423,-0.05409174815657325,0.12499320990705987,-0.0004416384490175673,0.15171254013175917,-0.001659231950120632,-0.0803369260658029
181,0.1716,50.7936,921.215,0.0217476,217.938,-0.212759,-1.12514,-0.0559213,0.14202,-0.0842043,0.118403,-0.00044245,-0.00166371,0.159304,-0.05438644725134423,0.1256976761313846,-0.0004423521334330216,0.15259970030049264,-0.0016623268017045278,-0.08075656452396607
182,0.1726,50.8256,922.037,0.0220653,218.107,-0.208339,-1.10725,-0.0562326,0.142789,-0.0846604,0.119029,-0.000443145,-0.00166674,0.160185,-0.0546807709364564,0.1264025834896263,-0.00044304682575679877,0.15348639035865497,-0.001665351760271494,-0.0811757358555979
183,0.1736,50.8573,922.855,0.0216411,218.275,-0.204094,-1.08966,-0.0565438,0.143558,-0.085116,0.119655,-0.000443827,-0.00166971,0.161064,-0.05497490851036069,0.1271079322580213,-0.00044372852336638235,0.15437376254371604,-0.001668316809773751,-0.08159425684402155
184,0.1746,50.8891,923.668,0.0218746,218.442,-0.199737,-1.07199,-0.0568547,0.144325,-0.0855712,0.120279,-0.000444491,-0.00167262,0.161943,-0.055268671143537285,0.127811467087789,-0.00044439222851033744,0.15525950685910916,-0.0016712219507447612,-0.08201222000267416
185,0.1756,50.9206,924.477,0.0215281,218.609,-0.195522,-1.05456,-0.0571654,0.145093,-0.0860261,0.120903,-0.000445141,-0.00167547,0.162821,-0.05556215357255667,0.12851544106028845,-0.0004450419394442795,0.15614708694750457,-0.0016740671837077725,-0.08242971767674945
186,0.1766,50.9521,925.282,0.0216947,218.775,-0.191224,-1.03709,-0.0574758,0.145859,-0.0864805,0.121527,-0.000445774,-0.00167826,0.163698,-0.05585526158737042,0.1292198544496308,-0.0004456746575324244,0.15703303489084908,-0.0016768525091748199,-0.08284656689772152
187,0.1776,50.9834,926.082,0.02141,218.94,-0.187042,-1.01984,-0.057786,0.146625,-0.0869346,0.12215,-0.000446394,-0.00168099,0.164575,-0.056148089865212025,0.12992357760595485,-0.000446294381022061,0.15791966173030225,-0.00167957792764728,-0.08326295172436327
188,0.1786,51.0147,926.879,0.0215241,219.104,-0.1828,-1.00257,-0.058096,0.14739,-0.0873882,0.122772,-0.000446997,-0.00168366,0.165451,-0.05644063860995563,0.13062660869122733,-0.00044689711172485325,0.1588058091797091,-0.0016822434396157604,-0.08367868935303868
189,0.1796,51.0458,927.671,0.0212883,219.268,-0.178654,-0.985494,-0.0584058,0.148155,-0.0878415,0.123394,-0.000447586,-0.00168627,0.166326,-0.05673290802524422,0.13133007719785872,-0.00044748584832898786,0.1596926347912786,-0.0016848490455600995,-0.08409396367411914
190,0.1806,51.0768,928.458,0.0213612,219.431,-0.174468,-0.968425,-0.0587154,0.148919,-0.0882943,0.124015,-0.000448159,-0.00168883,0.1672,-0.057024898314490535,0.13203285136459253,-0.0004480585917555624,0.16057897850444447,-0.001687404729075248,-0.08450859204841932
191,0.1816,51.1077,929.242,0.0211641,219.593,-0.17036,-0.951524,-0.0590247,0.149683,-0.0887468,0.124636,-0.000448719,-0.00169132,0.168074,-0.0573165154125328,0.1327360620896212,-0.00044861834068599116,0.16146599964295105,-0.001689890524342652,-0.08492275819835904
192,0.1826,51.1386,930.022,0.0212049,219.754,-0.166226,-0.934652,-0.0593338,0.150445,-0.0891988,0.125256,-0.000449263,-0.00169376,0.168947,-0.057607853848943846,0.13343857620498856,-0.00044916209648970806,0.16235137401947575,-0.0016923263980379577,-0.08533627964876533
193,0.1836,51.1692,930.797,0.0210384,219.915,-0.162158,-0.917931,-0.0596427,0.151207,-0.0896505,0.125875,-0.000449793,-0.00169615,0.169819,-0.05789891382636203,0.13414039187319982,-0.00044969185829346614,0.16323742330838442,-0.0016947123505266504,-0.08574933995455469
194,0.1846,51.1999,931.569,0.0210543,220.074,-0.158075,-0.901254,-0.0599513,0.151969,-0.0901018,0.126494,-0.000450308,-0.00169847,0.170691,-0.058189601366160804,0.13484264209979147,-0.00045020662656958255,0.1641241480241562,-0.0016970284161074156,-0.08616184818794903
195,0.1856,51.2304,932.337,0.0209118,220.234,-0.154049,-0.884715,-0.0602598,0.15273,-0.0905527,0.127112,-0.00045081,-0.00170074,0.171561,-0.058480105061640364,0.13554419160907938,-0.00045070840043992533,0.1650103836706962,-0.0016992945612808175,-0.0865738049279744
196,0.1866,51.2608,933.101,0.0209087,220.392,-0.150016,-0.868232,-0.060568,0.15349,-0.0910032,0.12773,-0.000451297,-0.00170296,0.172432,-0.05877023678166571,0.13624617480996082,-0.0004511951808263692,0.16589612810253618,-0.0017015107863869172,-0.08698521075273447
197,0.1876,51.2911,933.861,0.0207849,220.55,-0.146032,-0.851876,-0.060876,0.15425,-0.0914533,0.128347,-0.000451771,-0.00170512,0.173301,-0.05906009090890996,0.1369474550225167,-0.00045166896684756264,0.16678254595601216,-0.0017036671087947708,-0.0873960662394111
198,0.1886,51.3213,934.617,0.0207673,220.707,-0.14205,-0.835585,-0.0611837,0.155009,-0.091903,0.128963,-0.00045223,-0.00170722,0.17417,-0.05934957357974446,0.13764803040987683,-0.0004521277594262685,0.16766847007406538,-0.0017057635288926232,-0.08780637196426633
199,0.1896,51.3514,935.369,0.0206583,220.863,-0.138109,-0.819414,-0.0614913,0.155767,-0.0923523,0.129579,-0.000452676,-0.00170927,0.175038,-0.059638873154355676,0.13834903748462146,-0.0004525735576778045,0.16855389830928802,-0.0017078100299796617,-0.08821612850264327
200,0.1906,51.3814,936.118,0.0206297,221.019,-0.134175,-0.803314,-0.0617986,0.156525,-0.0928013,0.130194,-0.000453107,-0.00171127,0.175905,-0.059927801732485575,0.1390493374628452,-0.00045300436252582177,0.1694399979535448,-0.001709806612363085,-0.08862542756642955
201,0.1916,51.4113,936.863,0.0205321,221.174,-0.130278,-0.787327,-0.0621057,0.157282,-0.0932498,0.130809,-0.000453526,-0.00171322,0.176771,-0.060216453579813756,0.13975006825801817,-0.00045342317262919707,0.17032559918977253,-0.0017117532763420984,-0.08903408741334506
202,0.1926,51.4412,937.604,0.0204953,221.328,-0.126392,-0.771418,-0.0624125,0.158039,-0.093698,0.131423,-0.000453931,-0.00171511,0.177637,-0.06050473494723252,0.14045008968451445,-0.00045382798891080434,0.17121187107994662,-0.0017136400393454876,-0.08944229085014277
203,0.1936,51.4709,938.342,0.0204068,221.482,-0.12254,-0.755616,-0.0627192,0.158795,-0.0941458,0.132037,-0.000454323,-0.00171695,0.178502,-0.06079283396278179,0.14115054105614622,-0.0004542198109335205,0.17209764203371591,-0.001715476884557865,-0.08984994731120632
204,0.1946,51.5005,939.076,0.020364,221.635,-0.118701,-0.739896,-0.0630256,0.15955,-0.0945932,0.13265,-0.000454701,-0.00171874,0.179367,-0.06108056295612285,0.14185028078612927,-0.00045459763916699814,0.17298290990001886,-0.00171726381225501,-0.09025705736746892
205,0.1956,51.5301,939.806,0.0202825,221.788,-0.114894,-0.72428,-0.0633318,0.160305,-0.0950402,0.133263,-0.000455067,-0.00172048,0.18023,-0.06136801607642706,0.14255044958806384,-0.00045496347271734017,0.1738688463959368,-0.0017190008227047082,-0.09066362158895258
206,0.1966,51.5595,940.533,0.0202353,221.939,-0.111103,-0.708747,-0.0636378,0.161059,-0.0954868,0.133874,-0.00045542,-0.00172216,0.181093,-0.061655193523117435,0.14324876122524266,-0.00045531631205286693,0.17475427727161108,-0.0017206779333746036,-0.09106964054476963
207,0.1976,51.5889,941.256,0.0201594,222.09,-0.107341,-0.693316,-0.0639435,0.161812,-0.095933,0.134486,-0.00045576,-0.0017238,0.181956,-0.06194200168959563,0.1439486436092774,-0.00045565615718756725,0.1756392003741314,-0.0017223151101202205,-0.0914751148031242
208,0.1986,51.6182,941.976,0.0201091,222.241,-0.103596,-0.677971,-0.064249,0.162565,-0.0963789,0.135097,-0.000456087,-0.00172539,0.182817,-0.06222853463794309,0.14464780980404401,-0.00045598300813454173,0.17652479007469046,-0.0017239023703773393,-0.09188013574330411
209,0.1996,51.6474,942.692,0.0200375,222.391,-0.0998795,-0.662726,-0.0645543,0.163318,-0.0968244,0.135707,-0.000456401,-0.00172693,0.183678,-0.0625147925668218,0.14534625797305822,-0.000456296864906669,0.17741104687542597,-0.0017254397143839917,-0.09228461303882318
210,0.2006,51.6765,943.405,0.0199851,222.54,-0.0961816,-0.647567,-0.0648594,0.164069,-0.0972695,0.136316,-0.000456703,-0.00172842,0.184538,-0.06280077567466813,0.14604398628086912,-0.0004565987270593874,0.17829561468526722,-0.00172692714237066,-0.09268854725533093
211,0.2016,51.7055,944.115,0.019917,222.689,-0.09251,-0.632506,-0.0651643,0.16482,-0.0977142,0.136926,-0.000456993,-0.00172986,0.185398,-0.06308648415969298,0.14674328637734568,-0.00045688859460379927,0.17918084705504467,-0.0017283646545606102,-0.09309193895757373
212,0.2026,51.7345,944.821,0.0198632,222.837,-0.0888584,-0.617533,-0.0654689,0.165571,-0.0981585,0.137534,-0.00045727,-0.00173125,0.186257,-0.06337182455706925,0.14744071829328087,-0.0004571654680072257,0.18006674448403048,-0.0017297522511693364,-0.09349478870939554
213,0.2036,51.7633,945.524,0.0197979,222.985,-0.0852321,-0.602656,-0.0657733,0.166321,-0.0986024,0.138142,-0.000457536,-0.00173259,0.187115,-0.06365689078439307,0.14813857437675493,-0.00045743134636588856,0.18095212651915427,-0.0017310899324050055,-0.09389709707373983
214,0.2046,51.7921,946.224,0.0197433,223.131,-0.0816265,-0.587868,-0.0660775,0.16707,-0.099046,0.13875,-0.000457789,-0.00173389,0.187972,-0.0639416830391184,0.14883685488573994,-0.00045768423060377206,0.18183699100229855,-0.001732387681144587,-0.09429895518275944
215,0.2056,51.8208,946.92,0.0196803,223.278,-0.0780454,-0.573174,-0.0663815,0.167818,-0.0994892,0.139356,-0.00045803,-0.00173514,0.188829,-0.06422620151847447,0.14953326100954412,-0.0004579251202728729,0.1827213357752806,-0.0017336355148801497,-0.09470027294723682
216,0.2066,51.8494,947.613,0.0196252,223.424,-0.0744855,-0.55857,-0.0666853,0.168566,-0.099932,0.139963,-0.000458259,-0.00173635,0.189685,-0.06451044641946646,0.15023123951402217,-0.00045815401538173983,0.18360634228561157,-0.0017348434164503601,-0.09510105092758248
217,0.2076,51.878,948.303,0.0195641,223.569,-0.0709496,-0.544059,-0.0669888,0.169314,-0.100374,0.140569,-0.000458477,-0.0017375,0.19054,-0.06479432441831279,0.1509284908909969,-0.00045837191548048217,0.18449201102845647,-0.0017359914207203397,-0.09550092788375497
218,0.2086,51.9064,948.99,0.0195088,223.713,-0.0674352,-0.529638,-0.0672921,0.170061,-0.100817,0.141174,-0.000458683,-0.00173862,0.191395,-0.06507792928886402,0.15162501330477074,-0.00045857782103464473,0.18537715712160052,-0.0017371094757838712,-0.09590153223228781
219,0.2096,51.9348,949.674,0.0194493,223.857,-0.0639443,-0.515309,-0.0675952,0.170807,-0.101258,0.141778,-0.000458878,-0.00173968,0.192249,-0.06536126122737218,0.15232080492072186,-0.0004587727315930046,0.18626177840352587,-0.0017381676338869,-0.09630015175450835
220,0.2106,51.9631,950.354,0.0193941,224.001,-0.0604752,-0.50107,-0.067898,0.171552,-0.1017,0.142383,-0.000459061,-0.00174071,0.193102,-0.0656442269942934,0.15301816993934603,-0.00045895564762077345,0.18714587271267558,-0.0017391958430447163,-0.09669949882522877
221,0.2116,51.9913,951.032,0.0193359,224.144,-0.0570292,-0.486922,-0.0682007,0.172297,-0.10214,0.142986,-0.000459233,-0.00174169,0.193954,-0.06592701368485732,0.15371364956185207,-0.0004591275686656182,0.18803062591749353,-0.0017401741381535274,-0.09709686361908021
222,0.2126,52.0195,951.706,0.019281,224.286,-0.053605,-0.472863,-0.0685031,0.173042,-0.102581,0.143589,-0.000459394,-0.00174262,0.194806,-0.06620943465171669,0.1544095486850372,-0.000459288494733201,0.18891603850904026,-0.0017411025193598828,-0.09749495611637671
223,0.2136,52.0476,952.378,0.019224,224.428,-0.0502037,-0.458895,-0.0688053,0.173786,-0.103021,0.144192,-0.000459543,-0.00174351,0.195657,-0.06649158352572282,0.15510586756193678,-0.0004594374262880674,0.1898009211772258,-0.0017419909693832114,-0.09789197098600899
224,0.2146,52.0756,953.046,0.0191694,224.569,-0.0468243,-0.445017,-0.0691073,0.174529,-0.103461,0.144794,-0.000459682,-0.00174436,0.196508,-0.06677346050193222,0.15580145064370976,-0.0004595763624166693,0.19068527175721717,-0.0017428394883303167,-0.09828881120752408
225,0.2156,52.1035,953.711,0.0191134,224.71,-0.0434675,-0.431228,-0.0694091,0.175271,-0.103901,0.145395,-0.00045981,-0.00174516,0.197358,-0.0670550657751795,0.15649629609569016,-0.00045970430358266423,0.1915690880841685,-0.0017436380937392304,-0.0986854768577502
226,0.2166,52.1313,954.374,0.0190593,224.85,-0.0401326,-0.417528,-0.0697106,0.176013,-0.10434,0.145996,-0.000459926,-0.00174593,0.198207,-0.06733630627371268,0.15719155927530148,-0.00045982025025026463,0.19245356044619344,-0.0017444067508419758,-0.09908106709499942
227,0.2176,52.1591,955.033,0.0190043,224.99,-0.03682,-0.403917,-0.0700119,0.176755,-0.104778,0.146596,-0.000460033,-0.00174665,0.199055,-0.06761727551449082,0.15788608254701253,-0.0004599272010437083,0.19333868933025045,-0.0017451254946103667,-0.09947558318228156
228,0.2186,52.1868,955.69,0.0189506,225.129,-0.0335293,-0.390395,-0.070313,0.177496,-0.105217,0.147196,-0.000460128,-0.00174732,0.199903,-0.06789797369160211,0.15858102265772578,-0.000460022157346196,0.1942232809997817,-0.0017457943251522057,-0.09987082663897806
229,0.2196,52.2145,956.344,0.0188964,225.268,-0.0302608,-0.376962,-0.0706139,0.178236,-0.105655,0.147795,-0.000460213,-0.00174796,0.20075,-0.06817840099891403,0.15927522058181953,-0.0004601071182406269,0.19510733328672547,-0.0017464332076394529,-0.10026499688732426
230,0.2206,52.242,956.995,0.0188433,225.406,-0.027014,-0.363616,-0.0709146,0.178975,-0.106092,0.148394,-0.000460288,-0.00174856,0.201596,-0.06845855763007325,0.159969834455034,-0.00046018208372977654,0.19599084402303268,-0.001747032159599815,-0.10065809518545055
231,0.2216,52.2695,957.643,0.0187898,225.544,-0.0237892,-0.350358,-0.071215,0.179714,-0.106529,0.148992,-0.000460353,-0.00174912,0.202442,-0.06873835065234513,0.16066370386231332,-0.0004602470538158654,0.1968750079150856,-0.0017475911811052347,-0.10105102173714986
232,0.2226,52.297,958.288,0.0187373,225.681,-0.0205862,-0.337188,-0.0715153,0.180453,-0.106966,0.14959,-0.000460407,-0.00174963,0.203287,-0.06901796653921755,0.1613579883275882,-0.0004603010289611076,0.19775982544574422,-0.0017481002897039577,-0.10144377661745907
233,0.2236,52.3243,958.93,0.0186846,225.818,-0.0174049,-0.324105,-0.0718153,0.181191,-0.107403,0.150187,-0.000460451,-0.00175011,0.204131,-0.06929721925925336,0.16205152604703033,-0.0004603450087068417,0.19864409845352848,-0.0017485794505007757,-0.10183635990138207
234,0.2246,52.3516,959.57,0.0186325,225.954,-0.0142452,-0.311108,-0.072115,0.181928,-0.107839,0.150784,-0.000460485,-0.00175054,0.204975,-0.06957610908891287,0.16274547793210736,-0.000460378993054511,0.1995278247672343,-0.0017490086985193498,-0.102227873892213
235,0.2256,52.3788,960.207,0.0185805,226.09,-0.0111071,-0.298199,-0.0724146,0.182665,-0.108275,0.15138,-0.000460509,-0.00175094,0.205818,-0.06985482233330109,0.16343868079088697,-0.00046040298200511476,0.20041220262729875,-0.00174940799883605,-0.1026192172201511
236,0.2266,52.406,960.841,0.0185291,226.225,-0.00799046,-0.285375,-0.072714,0.183401,-0.10871,0.151976,-0.000460523,-0.0017513,0.20666,-0.07013326611438042,0.16413229692171338,-0.00046041697555943006,0.20129603121745632,-0.0017497673689844673,-0.10300949296953066
237,0.2276,52.4331,961.473,0.0184777,226.36,-0.0048953,-0.272638,-0.0730131,0.184136,-0.109145,0.152571,-0.000460528,-0.00175162,0.207502,-0.07041134766531654,0.16482516174522588,-0.00046042197325735224,0.20217930836498876,-0.0017500868090077892,-0.10339959898587892
238,0.2286,52.4601,962.101,0.0184268,226.494,-0.00182145,-0.259986,-0.073312,0.184871,-0.10958,0.153165,-0.000460523,-0.0017519,0.208343,-0.07068916019234894,0.16551727342812228,-0.00046041697555943006,0.20306323495986756,-0.0017503663189443186,-0.1037895353430135
239,0.2296,52.4871,962.728,0.018376,226.628,0.00123109,-0.247419,-0.0736107,0.185605,-0.110014,0.153759,-0.000460508,-0.00175215,0.209183,-0.07096670388698512,0.16620979634748334,-0.00046040198246555253,0.2039466075324019,-0.0017506158813215267,-0.10417840629357455
240,0.2306,52.514,963.351,0.0183257,226.761,0.00426247,-0.234937,-0.0739092,0.186339,-0.110448,0.154353,-0.000460484,-0.00175236,0.210023,-0.07124397894051426,0.16690273074765627,-0.0004603779935149488,0.20483062873842406,-0.0017508255136702289,-0.10456710851076079
241,0.2316,52.5408,963.972,0.0182755,226.894,0.0072727,-0.22254,-0.0742075,0.187072,-0.110882,0.154946,-0.000460451,-0.00175253,0.210862,-0.07152098554400732,0.1675949092776401,-0.0004603450087068417,0.20571409333950919,-0.0017509952160155162,-0.10495564206778674
242,0.2326,52.5676,964.59,0.0182257,227.026,0.0102619,-0.210228,-0.0745055,0.187805,-0.111315,0.155538,-0.000460408,-0.00175266,0.2117,-0.0717976310680849,0.16828633010430405,-0.00046030202850078084,0.20659820575754306,-0.0017511249883777058,-0.1053431123813946
243,0.2336,52.5943,965.206,0.0181761,227.158,0.0132302,-0.197999,-0.0748033,0.188537,-0.111748,0.15613,-0.000460356,-0.00175276,0.212538,-0.0720740085788989,0.16897816037328006,-0.0004602500524351072,0.2074817589851865,-0.001751224813260177,-0.10573041495667468
244,0.2346,52.6209,965.819,0.0181269,227.289,0.0161776,-0.185854,-0.0751009,0.189268,-0.11218,0.156721,-0.000460295,-0.00175282,0.213374,-0.07235011826678639,0.16966923065721495,-0.0004601890805084885,0.20836475084520978,-0.0017512847081848637,-0.10611665598334485
245,0.2356,52.6475,966.43,0.0180778,227.421,0.0191042,-0.173792,-0.0753983,0.189999,-0.112612,0.157312,-0.000460225,-0.00175285,0.214211,-0.07262596032186719,0.17036070948439996,-0.0004601191127192594,0.20924838840825832,-0.0017513146556459303,-0.10650273018992717
246,0.2366,52.674,967.038,0.0180291,227.551,0.0220101,-0.161813,-0.0756955,0.190729,-0.113044,0.157903,-0.000460146,-0.00175284,0.215046,-0.07290153493404372,0.17105259709635612,-0.0004600401490656436,0.210131462014447,-0.001751304673158982,-0.10688863764847245
247,0.2376,52.7005,967.644,0.0179806,227.681,0.0248953,-0.149917,-0.0759925,0.191459,-0.113476,0.158493,-0.000460058,-0.0017528,0.215881,-0.07317684229300181,0.1717437219904383,-0.0004599521895453096,0.21101518049972,-0.0017512647432104123,-0.10727437843100018
248,0.2386,52.7269,968.247,0.0179323,227.811,0.0277601,-0.138103,-0.0762892,0.192188,-0.113907,0.159082,-0.000459961,-0.00175272,0.216716,-0.07345178993339407,0.1724340823338535,-0.0004598552341559259,0.21189833243607326,-0.0017511848833083876,-0.1076590602690054
249,0.2396,52.7532,968.848,0.0178844,227.94,0.0306044,-0.12637,-0.0765857,0.192916,-0.114338,0.159671,-0.000459856,-0.00175261,0.217549,-0.07372647075423477,0.17312484941928452,-0.00045975028243516736,0.21278091564339463,-0.0017510750759326399,-0.10804357634486284
250,0.2406,52.7795,969.447,0.0178366,228.069,0.0334283,-0.11472,-0.076882,0.193644,-0.114768,0.160259,-0.000459742,-0.00175246,0.218382,-0.07400088494448032,0.17381484967093686,-0.0004596363348402521,0.21366414160522518,-0.0017509253385826762,-0.10842703515748131
251,0.2416,52.8057,970.043,0.0177891,228.197,0.0362319,-0.10315,-0.0771781,0.194372,-0.115198,0.160847,-0.00045962,-0.00175228,0.219214,-0.07427503269287117,0.17450525576204212,-0.00045951439090841095,0.21454801078966046,-0.0017507456537331212,-0.10881032911825617
252,0.2426,52.8319,970.636,0.0177419,228.325,0.0390154,-0.0916615,-0.077474,0.195099,-0.115628,0.161434,-0.000459489,-0.00175207,0.220046,-0.07454891418793175,0.175194892735824,-0.00045938345109619583,0.21543130823322132,-0.0017505360213676546,-0.10919345829805827
253,0.2436,52.858,971.227,0.0176949,228.453,0.0417787,-0.0802533,-0.0777697,0.195825,-0.116057,0.162021,-0.00045935,-0.00175182,0.220877,-0.07482252961797131,0.17588493464534638,-0.0004592445149408375,0.21631403175286446,-0.0017502864589704625,-0.10957553234370587
254,0.2446,52.884,971.816,0.0176482,228.58,0.044522,-0.0689252,-0.0780651,0.19655,-0.116486,0.162607,-0.000459202,-0.00175154,0.221707,-0.07509578668066696,0.17657420515358302,-0.00045909658289811084,0.21719617916568246,-0.0017500069490115067,-0.10995744251474149
255,0.2456,52.91,972.403,0.0176016,228.707,0.0472454,-0.0576768,-0.0783604,0.197275,-0.116914,0.163193,-0.000459046,-0.00175123,0.222537,-0.07536887057203911,0.17726387969270707,-0.0004589406545050245,0.2180789663672702,-0.001749697491465696,-0.11033829922019622
256,0.2466,52.9359,972.987,0.0175554,228.833,0.049949,-0.0465077,-0.0786554,0.198,-0.117343,0.163778,-0.000458883,-0.00175089,0.223366,-0.07564159652616431,0.17795278054618047,-0.0004587777292990314,0.21896239382164273,-0.0017493580863051639,-0.11071988223442197
257,0.2476,52.9618,973.569,0.0175093,228.959,0.0526328,-0.0354177,-0.0789502,0.198724,-0.117771,0.164363,-0.000458711,-0.00175052,0.224194,-0.07591405722082878,0.17864208452455554,-0.00045860580819401253,0.2198452421472996,-0.0017489887334993792,-0.1111004126855002
258,0.2486,52.9876,974.148,0.0174635,229.084,0.055297,-0.0244063,-0.0792448,0.199447,-0.118198,0.164948,-0.000458531,-0.00175011,0.225022,-0.07618625284318781,0.17933179186372938,-0.0004584258907268657,0.2207275091584644,-0.0017485794505007757,-0.11147989178472995
259,0.2496,53.0134,974.726,0.0174178,229.209,0.0579416,-0.0134732,-0.0795392,0.20017,-0.118625,0.165531,-0.000458343,-0.00174967,0.225849,-0.07645818358018219,0.1800195427582918,-0.000458237976893372,0.22161041427932715,-0.001748140219779093,-0.11185920888097445
260,0.2506,53.0391,975.301,0.0173725,229.334,0.0605667,-0.00261795,-0.0798333,0.200892,-0.119052,0.166115,-0.000458148,-0.0017492,0.226675,-0.07672975729151954,0.18070887543681313,-0.0004580430662307622,0.22249273547806125,-0.001747671041294807,-0.11223836404339427
261,0.2516,53.0647,975.874,0.0173273,229.458,0.0631724,0.00815978,-0.0801273,0.201614,-0.119479,0.166698,-0.000457945,-0.0017487,0.227501,-0.07700115884489256,0.1813974294051719,-0.00045784015919292376,0.22337569394272605,-0.0017471719150055076,-0.11261735734112022
262,0.2526,53.0903,976.445,0.0172823,229.582,0.0657589,0.0188604,-0.080421,0.202335,-0.119905,0.16728,-0.000457734,-0.00174818,0.228326,-0.07727220379963984,0.182085202831739,-0.0004576292557748607,0.2242580658749158,-0.001746652823399919,-0.1129953018389992
263,0.2536,53.1159,977.013,0.0172376,229.706,0.0683261,0.0294842,-0.0807145,0.203055,-0.120331,0.167862,-0.000457515,-0.00174762,0.229151,-0.07754298466878828,0.18277337665894566,-0.000457410355971688,0.22513984908620888,-0.0017460938013690308,-0.11337308536681112
264,0.2546,53.1413,977.579,0.017193,229.829,0.0708743,0.0400316,-0.0810078,0.203775,-0.120756,0.168443,-0.000457289,-0.00174703,0.229974,-0.07781350163813217,0.18346076765853359,-0.0004571844593209695,0.22602226741002696,-0.0017455048313905763,-0.11374982174337955
265,0.2556,53.1668,978.143,0.0171487,229.952,0.0734034,0.050503,-0.0813009,0.204495,-0.121181,0.169024,-0.000457056,-0.00174641,0.230798,-0.0780837548932527,0.18414855814833286,-0.00045695156581782026,0.22690532130381613,-0.001744885913411709,-0.1141263980410071
266,0.2566,53.1922,978.705,0.0171046,230.074,0.0759136,0.0608988,-0.0815938,0.205213,-0.121606,0.169604,-0.000456815,-0.00174576,0.23162,-0.07835374461951883,0.18483556352435881,-0.0004567106759141293,0.22778655564978423,-0.0017442370473766955,-0.11450281432771292
267,0.2576,53.2175,979.265,0.0170606,230.196,0.078405,0.0712193,-0.0818865,0.205932,-0.12203,0.170184,-0.000456568,-0.00174509,0.232442,-0.078623471002087,0.1855229674790797,-0.00045646378869113047,0.22866965161825337,-0.001743568215791469,-0.1148781855501152
268,0.2586,53.2428,979.823,0.0170169,230.317,0.0808777,0.0814649,-0.082179,0.206649,-0.122454,0.170763,-0.000456312,-0.00174438,0.233263,-0.07889293422590116,0.1862095840335607,-0.0004562079055131507,0.22955092365673502,-0.0017428594534733,-0.11525339764885578
269,0.2596,53.268,980.378,0.0169734,230.439,0.0833317,0.091636,-0.0824712,0.207367,-0.122878,0.171342,-0.00045605,-0.00174365,0.234084,-0.07916204239190261,0.18689659825414018,-0.000455946025005316,0.23043405822729168,-0.0017421307254946727,-0.11562845069138894
270,0.2606,53.2932,980.932,0.01693,230.559,0.0857672,0.101733,-0.0827632,0.208083,-0.123301,0.171921,-0.000455781,-0.00174289,0.234904,-0.0794308878221811,0.18758401037113304,-0.0004556771476186272,0.2313153644829713,-0.0017413720492257534,-0.11600246074804266
271,0.2616,53.3183,981.483,0.0168869,230.68,0.0881842,0.111756,-0.0830551,0.208799,-0.123724,0.172499,-0.000455505,-0.0017421,0.235723,-0.0796995627310152,0.18827063234376196,-0.0004554012733474222,0.23219730197988753,-0.0017405834245981522,-0.1163763126318984
272,0.2626,53.3434,982.033,0.0168439,230.8,0.0905829,0.121706,-0.0833467,0.209515,-0.124147,0.173076,-0.000455221,-0.00174129,0.236542,-0.07996788321549486,0.18895646234155095,-0.0004551174026410365,0.2330798711701707,-0.0017397748341432262,-0.116750006409849
273,0.2636,53.3684,982.58,0.0168012,230.92,0.0929633,0.131583,-0.0836381,0.210229,-0.124569,0.173653,-0.000454931,-0.00174044,0.23736,-0.08023594151633462,0.1896426881774369,-0.0004548275345830355,0.23396060458259815,-0.0017389263125912047,-0.11712265927185994
274,0.2646,53.3933,983.125,0.0167586,231.039,0.0953256,0.141387,-0.0839293,0.210944,-0.124991,0.174229,-0.000454634,-0.00173958,0.238177,-0.08050373781713127,0.19032811975116948,-0.0004545306696227547,0.2348432019058173,-0.0017380678076986955,-0.11749515490754014
275,0.2656,53.4183,983.669,0.0167162,231.158,0.0976698,0.151119,-0.0842202,0.211658,-0.125413,0.174805,-0.000454331,-0.00173868,0.238994,-0.0807711803783937,0.19101394624721535,-0.0004542278072996453,0.23572519478596665,-0.001737169371555436,-0.11786749338322511
276,0.2666,53.4431,984.21,0.0166739,231.277,0.099996,0.16078,-0.084511,0.212371,-0.125834,0.175381,-0.000454021,-0.00173776,0.23981,-0.08103845325577985,0.19170016789311517,-0.0004539179480622657,0.23660658102670484,-0.0017362509693288342,-0.11823879300445639
277,0.2676,53.468,984.749,0.0166319,231.395,0.102304,0.170368,-0.0848016,0.213083,-0.126255,0.175956,-0.000453704,-0.00173681,0.240625,-0.08130546468262434,0.19238559253035192,-0.0004536010919040656,0.23748735843194324,-0.0017353026183167808,-0.11860993634144723
278,0.2686,53.4927,985.286,0.01659,231.513,0.104595,0.179886,-0.0850919,0.213796,-0.126676,0.17653,-0.000453381,-0.00173583,0.24144,-0.08157212299889971,0.1930702183292714,-0.0004532782383650513,0.23837000154338206,-0.0017343243184340107,-0.11898092345997957
279,0.2696,53.5175,985.822,0.0165483,231.63,0.106868,0.189333,-0.085382,0.214507,-0.127096,0.177104,-0.000453051,-0.00173483,0.242254,-0.08183852028322336,0.1937552372162048,-0.00045294838789244896,0.23925079569969698,-0.0017333260522591765,-0.1193508737771215
280,0.2706,53.5421,986.355,0.0165068,231.748,0.109123,0.19871,-0.085672,0.215218,-0.127516,0.177678,-0.000452715,-0.00173381,0.243068,-0.08210474850738292,0.19444064941684958,-0.0004526125400267089,0.24013221632333992,-0.001732307819732437,-0.11972066874775522
281,0.2716,53.5667,986.887,0.0164654,231.864,0.111361,0.208017,-0.0859617,0.215929,-0.127936,0.178251,-0.000452373,-0.00173276,0.243881,-0.08237062424777974,0.19512526003117503,-0.000452270694761725,0.2410142638598871,-0.0017312596381053869,-0.12009030843711277
282,0.2726,53.5913,987.416,0.0164242,231.981,0.113581,0.217254,-0.0862512,0.216638,-0.128355,0.178824,-0.000452024,-0.00173168,0.244693,-0.08263623950239685,0.19581026303979265,-0.00045192185254328,0.24189445496383888,-0.0017301815072835458,-0.12045891336975145
283,0.2736,53.6159,987.944,0.0163832,232.097,0.115784,0.226422,-0.0865405,0.217348,-0.128774,0.179396,-0.000451669,-0.00173058,0.245505,-0.08290159445286449,0.1964944621725484,-0.0004515670129126015,0.24277651312045512,-0.0017290834098793173,-0.12082736388927529
284,0.2746,53.6403,988.469,0.0163424,232.213,0.11797,0.235521,-0.0868296,0.218057,-0.129193,0.179968,-0.000451308,-0.00172946,0.246316,-0.08316668928060444,0.19717905277915904,-0.00045120617586313916,0.24365795410216173,-0.001727965345826532,-0.12119566006036964
285,0.2756,53.6648,988.993,0.0163017,232.328,0.120139,0.244552,-0.0871185,0.218765,-0.129611,0.180539,-0.000450941,-0.00172831,0.247126,-0.08343152416682997,0.1978628372201754,-0.00045083934138856474,0.24453877570772087,-0.0017268173323266023,-0.12156292351105569
286,0.2766,53.6892,989.515,0.0162611,232.444,0.122291,0.253515,-0.0874071,0.219473,-0.130029,0.18111,-0.000450568,-0.00172714,0.247936,-0.08369600766215135,0.1985470122135995,-0.00045046650948210587,0.24542022115579076,-0.001725649352019576,-0.12193003347769982
287,0.2776,53.7135,990.035,0.0162207,232.559,0.124426,0.262411,-0.0876956,0.22018,-0.130447,0.18168,-0.000450189,-0.00172594,0.248745,-0.08396032323458613,0.1992303787515226,-0.0004500876801371012,0.24630104458654078,-0.0017244514220801088,-0.12229699002444483
288,0.2786,53.7378,990.554,0.0161805,232.673,0.126544,0.271239,-0.0879838,0.220886,-0.130864,0.18225,-0.000449805,-0.00172472,0.249554,-0.08422428783030467,0.19991413491940602,-0.00044970385289699877,0.24718124379778028,-0.0017232335251678998,-0.12266291587876155
289,0.2796,53.762,991.07,0.0161404,232.787,0.128645,0.28,-0.0882719,0.221592,-0.131281,0.182819,-0.000449414,-0.00172348,0.250361,-0.08448808481120107,0.20059708034172186,-0.0004493130286548075,0.24806206464907588,-0.0017219956612100074,-0.12302868917380771
290,0.2806,53.7863,991.585,0.0161005,232.901,0.130729,0.288695,-0.0885597,0.222298,-0.131697,0.183388,-0.000449018,-0.00172222,0.251169,-0.08475153122863444,0.20128041447055955,-0.0004489172065044178,0.2489435075794606,-0.0017207378301320464,-0.1233934333670591
291,0.2816,53.8104,992.098,0.0160608,233.015,0.132798,0.297323,-0.0888474,0.223003,-0.132114,0.183956,-0.000448616,-0.00172093,0.251975,-0.08501481033858405,0.20196293556361944,-0.0004485153868883929,0.24982432320332926,-0.0017194500490532727,-0.12375890209981832
292,0.2826,53.8345,992.609,0.0160211,233.128,0.134849,0.305886,-0.0891348,0.223707,-0.13253,0.184524,-0.000448208,-0.00171962,0.252781,-0.08527773929739157,0.20264584443877998,-0.00044810756979951627,0.25070450931602317,-0.0017181423006762397,-0.12412334258766766
293,0.2836,53.8586,993.118,0.0159817,233.241,0.136885,0.314384,-0.089422,0.224411,-0.132945,0.185092,-0.000447795,-0.00171829,0.253587,-0.08554040980937427,0.20332914131636382,-0.0004476947547826793,0.25158531529790884,-0.0017168145849225658,-0.12448675598699765
294,0.2846,53.8826,993.625,0.0159424,233.353,0.138904,0.322816,-0.089709,0.225115,-0.133361,0.185659,-0.000447376,-0.00171693,0.254392,-0.08580282205380074,0.20401162240459447,-0.0004472759422790018,0.25246674158552773,-0.0017154569188672086,-0.12485089375060088
295,0.2856,53.9066,994.131,0.0159032,233.466,0.140907,0.331185,-0.0899958,0.225817,-0.133776,0.186225,-0.000446952,-0.00171556,0.255196,-0.08606497620973275,0.20469328587543978,-0.0004468521318341523,0.25334628192065844,-0.0017140892681063447,-0.12521400527884086
296,0.2866,53.9305,994.635,0.0158641,233.577,0.142893,0.339488,-0.0902824,0.22652,-0.13419,0.186791,-0.000446523,-0.00171416,0.255999,-0.08632687245602633,0.2053753352770178,-0.00044642332344169144,0.2542276941369426,-0.0017126916668530612,-0.12557609172358963
297,0.2876,53.9544,995.137,0.0158253,233.689,0.144864,0.347728,-0.0905688,0.227221,-0.134604,0.187357,-0.000446088,-0.00171274,0.256802,-0.08658851097133113,0.20605777082782684,-0.00044598851754129587,0.2551072159869243,-0.0017112740978687535,-0.1259380282955762
298,0.2886,53.9783,995.638,0.0157865,233.8,0.146819,0.355905,-0.090855,0.227923,-0.135018,0.187922,-0.000445648,-0.0017113,0.257605,-0.0868498919340912,0.2067393860065001,-0.0004455487136795222,0.2559886105858553,-0.0017098365610683786,-0.12629981505683485
299,0.2896,54.0021,996.137,0.0157479,233.911,0.148759,0.364018,-0.091141,0.228623,-0.135432,0.188487,-0.000445203,-0.00170984,0.258406,-0.08711101552254497,0.20742138640656416,-0.0004451039118497091,0.2568681104022881,-0.001708379056365783,-0.1266614520693744
300,0.2906,54.0258,996.634,0.0157094,234.022,0.150682,0.372069,-0.0914267,0.229323,-0.135845,0.189051,-0.000444752,-0.00170836,0.259207,-0.08737179065190914,0.20810256414256245,-0.00044465311248997885,0.2577482260841204,-0.0017069015836734813,-0.1270220664176811
301,0.2916,54.0495,997.129,0.0156711,234.132,0.15259,0.380058,-0.0917123,0.230023,-0.136258,0.189615,-0.000444296,-0.00170686,0.260008,-0.08763240005170525,0.20878412617116404,-0.00044419731514777627,0.25862895806260844,-0.0017054041429027667,-0.1273825318630124
302,0.2926,54.0732,997.623,0.0156329,234.243,0.154483,0.387984,-0.0919977,0.230722,-0.136671,0.190178,-0.000443836,-0.00170534,0.260808,-0.0878927526106531,0.20946486324370328,-0.00044373751937287764,0.2595090472596342,-0.001703886733963822,-0.1277428484668527
303,0.2936,54.0968,998.115,0.0155948,234.352,0.15636,0.395849,-0.0922828,0.231421,-0.137083,0.190741,-0.00044337,-0.0017038,0.261607,-0.08815275732145111,0.21014598367912085,-0.00044327172604596843,0.260389751854065,-0.001702349356765609,-0.1281021443932412
304,0.2946,54.1204,998.605,0.0155568,234.462,0.158222,0.403653,-0.0925678,0.232119,-0.137495,0.191303,-0.000442899,-0.00170223,0.262406,-0.08841259675673618,0.21082627686642863,-0.0004428009347161588,0.2612698110057725,-0.0017007820282237684,-0.12846129232019798
305,0.2956,54.1439,999.094,0.015519,234.571,0.160068,0.411396,-0.0928525,0.232816,-0.137907,0.191865,-0.000442424,-0.00170065,0.263204,-0.08867208875000165,0.21150695248596096,-0.0004423261449337801,0.26214922250334816,-0.0016992047142132538,-0.1288202923086862
306,0.2966,54.1674,999.581,0.0154814,234.68,0.1619,0.419078,-0.0931371,0.233513,-0.138318,0.192427,-0.000441943,-0.00169905,0.264001,-0.0889314157695581,0.21218801075270544,-0.0004418453575770753,0.26302924716440046,-0.0016976074316630285,-0.1291782735983531
307,0.2976,54.1909,1000.07,0.0154438,234.789,0.163716,0.426701,-0.0934214,0.234209,-0.138729,0.192988,-0.000441458,-0.00169743,0.264798,-0.08919039575230592,0.2128682390129244,-0.00044136057175447885,0.2639086215071995,-0.0016959901804770583,-0.1295361077879411
308,0.2986,54.2143,1000.55,0.0154064,234.897,0.165518,0.434263,-0.0937055,0.234905,-0.13914,0.193548,-0.000440968,-0.00169579,0.265594,-0.08944912000735206,0.21354763544001654,-0.00044087078790111534,0.2647886081075823,-0.0016943529605584207,-0.12989379493789588
309,0.2996,54.2377,1001.03,0.0153691,235.005,0.167304,0.441767,-0.0939895,0.235601,-0.13955,0.194109,-0.000440474,-0.00169414,0.26639,-0.08970767974005,0.21422862666367637,-0.0004403770055693146,0.26566920739182787,-0.0016927057548818958,-0.13025046535953855
310,0.3006,54.261,1001.51,0.0153319,235.113,0.169076,0.449211,-0.0942732,0.236295,-0.139961,0.194668,-0.000439975,-0.00169246,0.267185,-0.08996589304201896,0.21490757021302365,-0.00043987822519309105,0.2665478866882067,-0.0016910285972187022,-0.13060785896885807
311,0.3016,54.2843,1001.99,0.0152948,235.22,0.170834,0.456597,-0.0945567,0.23699,-0.14037,0.195228,-0.000439471,-0.00169076,0.267979,-0.09022385114405296,0.21558810898541436,-0.0004393744467646732,0.26742844342747785,-0.0016893314705247464,-0.13096336764805916
312,0.3026,54.3076,1002.47,0.0152579,235.327,0.172576,0.463924,-0.09484,0.237683,-0.14078,0.195786,-0.000438963,-0.00168905,0.268773,-0.09048155422165927,0.21626659643062074,-0.0004388666698379451,0.268307075749709,-0.001687624357821993,-0.1313195996347759
313,0.3036,54.3308,1002.95,0.0152211,235.434,0.174305,0.471194,-0.0951232,0.238377,-0.141189,0.196345,-0.00043845,-0.00168732,0.269566,-0.0907390933762382,0.21694667952354063,-0.00043835389484503384,0.26918758636212137,-0.00168589727591828,-0.13167481727156682
314,0.3046,54.3539,1003.42,0.0151844,235.541,0.176019,0.478406,-0.0954061,0.239069,-0.141598,0.196903,-0.000437933,-0.00168557,0.270359,-0.09099628690498207,0.21762592526265157,-0.00043783712134037867,0.2700661681261143,-0.0016841502247098017,-0.13202988965405082
315,0.3056,54.3771,1003.89,0.0151478,235.647,0.177718,0.485561,-0.0956888,0.239761,-0.142006,0.19746,-0.000437411,-0.00168381,0.271151,-0.09125322593463092,0.21830433182170994,-0.00043731534975521846,0.2709453580790968,-0.0016823931872680387,-0.1323839492260077
316,0.3066,54.4002,1004.36,0.0151114,235.753,0.179404,0.492659,-0.0959713,0.240453,-0.142414,0.198017,-0.000436885,-0.00168202,0.271942,-0.09150991063988267,0.21898311635847878,-0.0004367895796447696,0.27182515664208173,-0.00168060619715249,-0.13273786437112445
317,0.3076,54.4232,1004.83,0.015075,235.859,0.181075,0.499701,-0.0962536,0.241144,-0.142822,0.198574,-0.000436355,-0.00168022,0.272733,-0.09176634119523319,0.2196622790835503,-0.0004362598110029259,0.2727042915314448,-0.0016788092206263538,-0.1330916351483149
318,0.3086,54.4462,1005.3,0.0150388,235.964,0.182732,0.506686,-0.0965357,0.241835,-0.143229,0.19913,-0.00043582,-0.0016784,0.273523,-0.09202251777497661,0.22034059986642385,-0.00043572504425881675,0.27358403411295007,-0.0016769922744056531,-0.1334443950612978
319,0.3096,54.4692,1005.77,0.0150027,236.069,0.184376,0.513616,-0.0968176,0.242525,-0.143637,0.199686,-0.000435281,-0.00167657,0.274313,-0.09227844055320544,0.221019297900519,-0.00043518627896943496,0.2744631103429098,-0.001675165341629925,-0.13379787763276463
320,0.3106,54.4921,1006.23,0.0149667,236.174,0.186005,0.520491,-0.0970994,0.243214,-0.144044,0.200241,-0.000434739,-0.00167472,0.275102,-0.09253420045039551,0.22169715169788273,-0.0004346445146935496,0.2753415180026251,-0.0016733184389774447,-0.1341503501635426
321,0.3116,54.515,1006.7,0.0149308,236.279,0.187621,0.52731,-0.0973809,0.243903,-0.14445,0.200796,-0.000434192,-0.00167285,0.27589,-0.09278961612152636,0.22237538180852146,-0.00043409775229463765,0.2762205310937649,-0.0016714515663374119,-0.13450181376943637
322,0.3126,54.5378,1007.16,0.014895,236.383,0.189223,0.534075,-0.0976622,0.244592,-0.144856,0.20135,-0.000433641,-0.00167096,0.276678,-0.09304477851223858,0.22305276538796992,-0.0004335469913306911,0.27710015003361543,-0.001669564723597805,-0.1348531347100691
323,0.3136,54.5606,1007.62,0.0148593,236.488,0.190812,0.540786,-0.0979433,0.24528,-0.145262,0.201904,-0.000433086,-0.00166906,0.277465,-0.09329968779582043,0.22373052434189056,-0.0004329922317953816,0.27797909726001424,-0.0016676678939687717,-0.13520431304335123
324,0.3146,54.5834,1008.08,0.0148238,236.591,0.192387,0.547442,-0.0982242,0.245967,-0.145668,0.202458,-0.000432527,-0.00166715,0.278252,-0.09355434414535979,0.2244086588782983,-0.00043243347368182583,0.2788573705521644,-0.0016657610773933573,-0.13555534882716958
325,0.3156,54.6061,1008.54,0.0147883,236.695,0.193949,0.554045,-0.0985049,0.246654,-0.146073,0.203011,-0.000431964,-0.00166522,0.279038,-0.09380874773374415,0.22508594411876715,-0.00043187071698347346,0.27973624742537284,-0.0016638342904529146,-0.13590537802519753
326,0.3166,54.6288,1009.0,0.014753,236.798,0.195498,0.560595,-0.0987854,0.247341,-0.146478,0.203563,-0.000431397,-0.00166327,0.279823,-0.0940628987336607,0.2257623782385616,-0.0004313039616934411,0.2806157282944419,-0.0016618875330317584,-0.13625526549010314
327,0.3176,54.6515,1009.45,0.0147177,236.901,0.197033,0.567092,-0.0990657,0.248027,-0.146883,0.204116,-0.000430827,-0.0016613,0.280608,-0.09431679731759679,0.2264404122928645,-0.0004307342073743836,0.28149453207928676,-0.0016599208050129821,-0.13660501127927682
328,0.3186,54.6741,1009.9,0.0146826,237.004,0.198555,0.573536,-0.0993458,0.248712,-0.147287,0.204667,-0.000430252,-0.00165932,0.281392,-0.09457044365783984,0.22711636716850436,-0.00043015945488134033,0.2823726565570581,-0.0016579440896992148,-0.13695375240426932
329,0.3196,54.6967,1010.36,0.0146476,237.107,0.200064,0.579929,-0.0996257,0.249397,-0.147691,0.205219,-0.000429674,-0.00165733,0.282176,-0.09482383792647775,0.22779392239121843,-0.00042958170334650436,0.2832513827561629,-0.0016559573870311706,-0.13730235266630364
330,0.3206,54.7192,1010.81,0.0146127,237.209,0.20156,0.586269,-0.0999054,0.250081,-0.148095,0.20577,-0.000429092,-0.00165532,0.282959,-0.09507698029539913,0.22847062325642375,-0.00042899995319378714,0.28412942695885235,-0.0016539507134888387,-0.13765081212227692
331,0.3216,54.7417,1011.26,0.0145778,237.311,0.203044,0.592558,-0.100185,0.250765,-0.148498,0.20632,-0.000428507,-0.0016533,0.283741,-0.09532996140330152,0.2291464679394657,-0.0004284152039877309,0.2850080719492223,-0.0016519340524323578,-0.1379982688277629
332,0.3226,54.7642,1011.7,0.0145431,237.413,0.204514,0.598795,-0.100464,0.251449,-0.148901,0.20687,-0.000427918,-0.00165126,0.284523,-0.09558232913713416,0.22982268443932363,-0.00042782645615080384,0.2858873181383521,-0.0016498974203005279,-0.13834558553640797
333,0.3236,54.7866,1012.15,0.0145085,237.514,0.205972,0.604982,-0.100743,0.252131,-0.149304,0.20742,-0.000427325,-0.00164921,0.285305,-0.09583462647019036,0.23049927296055284,-0.00042723370967623353,0.2867645924058442,-0.0016478508004924564,-0.13869276230461924
334,0.3246,54.809,1012.6,0.014474,237.615,0.207418,0.611118,-0.101022,0.252814,-0.149707,0.207969,-0.000426729,-0.00164714,0.286085,-0.09608685342210921,0.23117500253220347,-0.00042663796413000554,0.28764375282156296,-0.0016457842094046438,-0.1390397991887815
335,0.3256,54.8313,1013.04,0.0144396,237.716,0.208851,0.617205,-0.101301,0.253496,-0.150109,0.208518,-0.000426129,-0.00164506,0.286866,-0.09633901001252443,0.23185110318124047,-0.00042603821993281166,0.28852222538608174,-0.0016437076304761655,-0.13938583563152251
336,0.3266,54.8536,1013.48,0.0144053,237.817,0.210271,0.623241,-0.10158,0.254177,-0.150511,0.209066,-0.000425526,-0.00164296,0.287645,-0.09659109626106399,0.23252634258448213,-0.0004254354766520807,0.2894000078725829,-0.0016416110800607786,-0.1397317329955703
337,0.3276,54.8759,1013.92,0.0143711,237.918,0.211679,0.629228,-0.101858,0.254858,-0.150912,0.209614,-0.000424919,-0.00164085,0.288424,-0.09684220903001128,0.2332019521203239,-0.0004248287347072832,0.29027838833254416,-0.0016395045416378595,-0.1400766314138845
338,0.3286,54.8981,1014.36,0.0143369,238.018,0.213075,0.635166,-0.102136,0.255538,-0.151313,0.210161,-0.000424309,-0.00163873,0.289202,-0.0970932519993114,0.23387669811433898,-0.00042421899366684723,0.29115607601660276,-0.0016373880151439035,-0.14042139155565936
339,0.3296,54.9203,1014.8,0.0143029,238.118,0.214459,0.641055,-0.102414,0.256218,-0.151714,0.210709,-0.000423696,-0.00163659,0.28998,-0.09734422518836605,0.23455304784780662,-0.00042360625352533265,0.29203436073125366,-0.0016352515168682746,-0.14076601347633244
340,0.3306,54.9425,1015.24,0.014269,238.218,0.21583,0.646895,-0.102692,0.256897,-0.152115,0.211255,-0.000423079,-0.00163445,0.290758,-0.09759512861657116,0.23522729786543595,-0.0004229895147001006,0.2929119499700197,-0.0016331150140204143,-0.14111049723131952
341,0.3316,54.9646,1015.67,0.0142352,238.317,0.21719,0.652688,-0.102969,0.257576,-0.152515,0.211801,-0.00042246,-0.00163228,0.291534,-0.0978450601488291,0.2359019161240956,-0.00042237077633910936,0.29379013529422715,-0.0016309485555293657,-0.14145398433042733
342,0.3326,54.9867,1016.11,0.0142014,238.416,0.218538,0.658432,-0.103246,0.258254,-0.152915,0.212347,-0.000421837,-0.00163011,0.29231,-0.09809492245964024,0.23657690282490007,-0.00042174803928207716,0.29466762244048517,-0.0016287820923371887,-0.14179733406217077
343,0.3336,55.0087,1016.54,0.0141678,238.515,0.219874,0.66413,-0.103524,0.258932,-0.153315,0.212893,-0.00042121,-0.00162792,0.293086,-0.09834561722300972,0.23725225816907347,-0.00042112130352167654,0.2955457047247576,-0.00162659565697576,-0.14214054648148589
344,0.3346,55.0307,1016.97,0.0141342,238.614,0.221198,0.66978,-0.103801,0.259609,-0.153714,0.213437,-0.000420581,-0.00162572,0.293861,-0.09859534089871314,0.23792550650446143,-0.00042049256820919645,0.2964230861269501,-0.0016243992330701174,-0.14248276412647942
345,0.3356,55.0527,1017.4,0.0141008,238.713,0.22251,0.675383,-0.104077,0.260286,-0.154114,0.213982,-0.000419949,-0.0016235,0.294635,-0.09884409425508278,0.23860035978632177,-0.0004198608337608878,0.29730106171746185,-0.001622182836776287,-0.14282570242859594
346,0.3366,55.0746,1017.83,0.0140674,238.811,0.223811,0.680939,-0.104354,0.260962,-0.154512,0.214526,-0.000419313,-0.00162127,0.295409,-0.09909367987177042,0.23927434168850148,-0.0004192251005902259,0.2981783337197119,-0.001619956451761606,-0.1431667899181165
347,0.3376,55.0965,1018.26,0.0140342,238.909,0.225101,0.68645,-0.10463,0.261638,-0.154911,0.21507,-0.000418674,-0.00161903,0.296182,-0.09934229570556252,0.23994869033658195,-0.00041858636827096785,0.2990561989583269,-0.0016177200779592393,-0.14350859817365746
348,0.3386,55.1184,1018.69,0.014001,239.007,0.226379,0.691914,-0.104906,0.262313,-0.155309,0.215613,-0.000418033,-0.00161678,0.296955,-0.09959084293085285,0.24062216530734148,-0.0004179456363795353,0.29993335790046216,-0.0016154737153023513,-0.14384941392475104
349,0.3396,55.1402,1019.11,0.0139679,239.105,0.227645,0.697333,-0.105182,0.262988,-0.155707,0.216156,-0.000417388,-0.00161452,0.297727,-0.09983932156657493,0.24129600607431478,-0.00041730090574654266,0.30081110912475606,-0.0016132173637232183,-0.1441900940581653
350,0.3406,55.162,1019.54,0.0139349,239.202,0.228901,0.702707,-0.105458,0.263662,-0.156104,0.216698,-0.000416741,-0.00161224,0.298498,-0.10008773163165663,0.24196897086659153,-0.0004166541755309394,0.30168815134233173,-0.0016109410392638468,-0.1445297831580764
351,0.3416,55.1838,1019.96,0.013902,239.299,0.230145,0.708036,-0.105734,0.264336,-0.156502,0.21724,-0.000416091,-0.00160996,0.299269,-0.10033607314502102,0.24264230050464963,-0.0004160044461450907,0.3025657848856167,-0.0016086647096144047,-0.14487019255841527
352,0.3426,55.2055,1020.38,0.0138692,239.396,0.231378,0.713321,-0.106009,0.265009,-0.156899,0.217782,-0.000415437,-0.00160766,0.30004,-0.10058344670948205,0.24331599518628977,-0.00041535071799814194,0.3034427067099399,-0.0016063684069024253,-0.14520961171280955
353,0.3436,55.2272,1020.8,0.0138364,239.493,0.2326,0.718561,-0.106284,0.265682,-0.157295,0.218323,-0.000414781,-0.00160535,0.300809,-0.10083075225556581,0.2439888111199855,-0.0004146949902531505,0.30432021890128724,-0.001604062114949678,-0.1455480416930125
354,0.3446,55.2489,1021.22,0.0138038,239.589,0.233811,0.723757,-0.106559,0.266354,-0.157692,0.218864,-0.000414123,-0.00160303,0.301579,-0.1010779898019748,0.2446619911455794,-0.00041403726290611953,0.30519701665944,-0.001601745833686885,-0.14588719179471077
355,0.3456,55.2705,1021.64,0.0137712,239.685,0.235012,0.728909,-0.106834,0.267026,-0.158088,0.219404,-0.000413461,-0.00160069,0.302347,-0.10132515936740627,0.2453342901251856,-0.00041337553677966987,0.30607440382370443,-0.001599409579038702,-0.14622535350632215
356,0.3466,55.292,1022.06,0.0137388,239.781,0.236201,0.734018,-0.107109,0.267697,-0.158484,0.219944,-0.000412797,-0.00159835,0.303115,-0.10157226097055261,0.24600695224427982,-0.0004127118110407446,0.30695107383856746,-0.0015970733189237807,-0.14656338133240676
357,0.3476,55.3136,1022.47,0.0137064,239.877,0.23738,0.739084,-0.107383,0.268368,-0.158879,0.220484,-0.00041213,-0.00159599,0.303883,-0.10181839644894619,0.24667997769900984,-0.00041204508609715695,0.3078283322964108,-0.0015947170852363968,-0.14690042222682154
358,0.3486,55.3351,1022.89,0.0136741,239.973,0.238548,0.744108,-0.107657,0.269038,-0.159274,0.221023,-0.00041146,-0.00159363,0.30465,-0.10206446449545736,0.24735211933288737,-0.0004113753619430227,0.3087048708866873,-0.0015923608459883498,-0.14723733001637296
359,0.3496,55.3566,1023.3,0.0136419,240.068,0.239706,0.749089,-0.107931,0.269708,-0.159669,0.221562,-0.000410788,-0.00159125,0.305416,-0.10231046512855979,0.24802462334875885,-0.0004107036381615359,0.3095819969546023,-0.0015899846329795464,-0.1475741047536271
360,0.3506,55.378,1023.71,0.0136097,240.163,0.240853,0.754028,-0.108205,0.270377,-0.160064,0.2221,-0.000410113,-0.00158886,0.306182,-0.10255639836672226,0.24869624124513479,-0.0004100289151587333,0.3104584004348421,-0.0015875984301912949,-0.14791074649112923
361,0.3516,55.3994,1024.12,0.0135777,240.258,0.24199,0.758925,-0.108479,0.271046,-0.160458,0.222638,-0.000409436,-0.00158646,0.306947,-0.10280226422840855,0.24936822056915453,-0.00040935219251925226,0.3113353904251759,-0.0015852022375520969,-0.14824640352823326
362,0.3526,55.4208,1024.53,0.0135457,240.352,0.243117,0.76378,-0.108752,0.271714,-0.160852,0.223175,-0.000408756,-0.00158406,0.307712,-0.10304716577969142,0.2500393114753816,-0.0004086724706476863,0.3122116551057992,-0.0015828060391619436,-0.14858192834251427
363,0.3536,55.4421,1024.94,0.0135139,240.447,0.244233,0.768595,-0.109026,0.272382,-0.161246,0.223712,-0.000408074,-0.00158164,0.308476,-0.10329289718952728,0.2507107628542038,-0.00040799074912978295,0.31308850532677757,-0.0015803898666290062,-0.1489173209860578
364,0.3546,55.4634,1025.35,0.0134821,240.541,0.245339,0.773368,-0.109299,0.27305,-0.161639,0.224249,-0.000407389,-0.00157921,0.30924,-0.10353766481629323,0.2513825748992464,-0.0004073060283689145,0.31396594147938317,-0.0015779637040286287,-0.14925173076308496
365,0.3556,55.4847,1025.75,0.0134504,240.635,0.246435,0.778101,-0.109572,0.273716,-0.162032,0.224785,-0.000406702,-0.00157677,0.310003,-0.10378236563061749,0.2520534957501177,-0.00040661930795227175,0.3148413342698506,-0.0015755275512879807,-0.149586009142891
366,0.3566,55.5059,1026.16,0.0134187,240.729,0.247521,0.782793,-0.109844,0.274383,-0.162425,0.225321,-0.000406012,-0.00157432,0.310765,-0.10402610367728893,0.2527247763109586,-0.0004059295882816727,0.3157186259840703,-0.0015730814083338984,-0.14992015617710497
367,0.3576,55.5271,1026.56,0.0133872,240.822,0.248597,0.787446,-0.110117,0.275049,-0.162817,0.225857,-0.00040532,-0.00157186,0.311527,-0.10427067116600386,0.25339641677462565,-0.0004052378689456404,0.3165951864512111,-0.0015706252750932181,-0.15025332217108234
368,0.3586,55.5483,1026.96,0.0133557,240.916,0.249664,0.792058,-0.110389,0.275714,-0.16321,0.226392,-0.000404626,-0.00156939,0.312289,-0.10451427641163136,0.25406716326628787,-0.000404544149939956,0.31747101343039574,-0.001568159151491888,-0.15058720700280237
369,0.3596,55.5694,1027.37,0.0133243,241.009,0.25072,0.796632,-0.110661,0.276379,-0.163602,0.226926,-0.00040393,-0.00156692,0.313049,-0.10475781540564266,0.25473701396569104,-0.00040384843126062275,0.3183474230282206,-0.0015656930217993192,-0.15092011156410035
370,0.3606,55.5905,1027.77,0.013293,241.102,0.251767,0.801166,-0.110933,0.277043,-0.163993,0.227461,-0.000403231,-0.00156443,0.31381,-0.10500128816605592,0.2554084778687411,-0.000403149713306461,0.3192230964085001,-0.0015632069172798468,-0.1512520369048459
371,0.3616,55.6116,1028.17,0.0132618,241.194,0.252804,0.805661,-0.111205,0.277707,-0.164384,0.227995,-0.000402529,-0.00156193,0.314569,-0.10524469471088393,0.2560790450214181,-0.0004024479960712535,0.3200993514289874,-0.0015607108221770138,-0.15158383248815244
372,0.3626,55.6326,1028.56,0.0132306,241.287,0.253831,0.810118,-0.111476,0.278371,-0.164776,0.228528,-0.000401826,-0.00155943,0.315328,-0.10548714054572284,0.2567487136032378,-0.000401745278745147,0.3209761884760196,-0.0015582147208339503,-0.1519163464488228
373,0.3636,55.6536,1028.96,0.0131996,241.379,0.25485,0.814536,-0.111748,0.279034,-0.165166,0.229061,-0.000401121,-0.00155691,0.316087,-0.10573041495667468,0.2574187392135512,-0.00040104056172718394,0.321852286083244,-0.001555698644364778,-0.15224703458532973
374,0.3646,55.6746,1029.36,0.0131686,241.471,0.255858,0.818916,-0.112019,0.279696,-0.165557,0.229594,-0.000400413,-0.00155439,0.316845,-0.10597272917916123,0.2580891220427053,-0.0004003328454134092,0.32272764200747384,-0.001553182561555011,-0.15257844120059139
375,0.3656,55.6955,1029.75,0.0131377,241.563,0.256857,0.823259,-0.11229,0.280358,-0.165947,0.230126,-0.000399703,-0.00155186,0.317603,-0.10621497774339073,0.2587586035219154,-0.0003996231293977859,0.32360357760917746,-0.001550656487911417,-0.1529088711704909
376,0.3666,55.7164,1030.15,0.0131068,241.655,0.257847,0.827564,-0.112561,0.28102,-0.166337,0.230658,-0.000398991,-0.00154932,0.318359,-0.10645716066715383,0.2594284412600292,-0.00039891141367609517,0.3244800932722285,-0.001548120423358168,-0.15323917229782802
377,0.3676,55.7372,1030.54,0.0130761,241.746,0.258828,0.831832,-0.112831,0.281681,-0.166726,0.231189,-0.000398277,-0.00154677,0.319116,-0.10669838466706838,0.2600973753486209,-0.0003981976982440072,0.3253558640242282,-0.0015455743678189915,-0.153568498201763
378,0.3686,55.7581,1030.93,0.0130454,241.837,0.2598,0.836063,-0.113102,0.282341,-0.167116,0.23172,-0.000397561,-0.00154421,0.319872,-0.1069404366053045,0.2607666647355371,-0.0003974819830973031,0.32623088762050756,-0.0015430183212176152,-0.153898542124716
379,0.3696,55.7789,1031.32,0.0130148,241.928,0.260763,0.840258,-0.113372,0.283001,-0.167505,0.232251,-0.000396843,-0.00154164,0.320627,-0.10718153013832954,0.2614363096094914,-0.00039676426823176403,0.32710648892298244,-0.0015404522834773227,-0.15422761158367015
380,0.3706,55.7996,1031.71,0.0129843,242.019,0.261716,0.844416,-0.113642,0.283661,-0.167893,0.232781,-0.000396123,-0.00153907,0.321382,-0.10742255858488758,0.262105048053618,-0.0003960445536429491,0.3279826683130651,-0.0015378862391424164,-0.15455570761562942
381,0.3716,55.8203,1032.1,0.0129538,242.11,0.262661,0.848538,-0.113912,0.28432,-0.168282,0.233311,-0.000395401,-0.00153649,0.322136,-0.10766352196254991,0.26277414102306085,-0.00039532283932652845,0.3288580973136572,-0.0015353102035657873,-0.15488452148692256
382,0.3726,55.841,1032.49,0.0129235,242.2,0.263597,0.852625,-0.114182,0.284978,-0.16867,0.233841,-0.000394677,-0.00153389,0.32289,-0.10790442028888247,0.26344358870576845,-0.0003945991252782832,0.32973277367865506,-0.0015327141919975196,-0.1552123626872799
383,0.3736,55.8617,1032.87,0.0128932,242.29,0.264524,0.856675,-0.114451,0.285637,-0.169058,0.23437,-0.000393951,-0.0015313,0.323643,-0.10814436172625452,0.26411212717702903,-0.00039387341149377253,0.3306093563787855,-0.0015301281583783855,-0.15554007670992553
384,0.3746,55.8823,1033.26,0.012863,242.38,0.265442,0.860691,-0.11472,0.286294,-0.169445,0.234899,-0.000393224,-0.00152869,0.324395,-0.10838423862806046,0.2647810193986997,-0.00039314669757561926,0.3314838539669276,-0.0015275221486119595,-0.15586681947143644
385,0.3756,55.9029,1033.64,0.0128328,242.47,0.266352,0.864671,-0.11499,0.286951,-0.169833,0.235427,-0.000392494,-0.00152607,0.325147,-0.10862494238716114,0.26544900010833095,-0.0003924169843063652,0.33235892628876473,-0.0015249061472930592,-0.1561942796141058
386,0.3766,55.9235,1034.02,0.0128027,242.56,0.267253,0.868617,-0.115258,0.287608,-0.17022,0.235955,-0.000391763,-0.00152345,0.325899,-0.10886379889439979,0.2661173336049045,-0.00039168627089614105,0.3332345737220206,-0.001522290139120197,-0.15652076924807612
387,0.3776,55.944,1034.41,0.0127727,242.649,0.268145,0.872529,-0.115527,0.288264,-0.170606,0.236482,-0.000391029,-0.00152082,0.32665,-0.10910348229363465,0.26678475328935436,-0.00039095255812460206,0.334109462534538,-0.0015196641392900556,-0.15684628940171497
388,0.3786,55.9645,1034.79,0.0127428,242.739,0.269029,0.876406,-0.115796,0.28892,-0.170993,0.237009,-0.000390294,-0.00151818,0.3274,-0.10934310122670621,0.26745252479667503,-0.0003902178452046545,0.33498492546240577,-0.00151702814772392,-0.15717252675671656
389,0.3796,55.985,1035.17,0.012713,242.828,0.269905,0.880249,-0.116064,0.289576,-0.171379,0.237536,-0.000389558,-0.00151554,0.32815,-0.1095817652931641,0.2681206483123262,-0.00038948213213430005,0.335860962882367,-0.0015143921491986845,-0.15749779538050546
390,0.3806,56.0054,1035.55,0.0126832,242.916,0.270772,0.884058,-0.116332,0.29023,-0.171765,0.238063,-0.000388819,-0.00151289,0.328899,-0.10982036540622231,0.26878912402186494,-0.0003887434196886419,0.33673490169893516,-0.0015117461588319836,-0.1578229384748343
391,0.3816,56.0258,1035.92,0.0126535,243.005,0.271632,0.887835,-0.1166,0.290885,-0.17215,0.238589,-0.000388079,-0.00151023,0.329648,-0.11005890158301801,0.2694566826536293,-0.0003880037070850273,0.33761074986851014,-0.0015090901765443254,-0.15814711423568328
392,0.3826,56.0462,1036.3,0.0126239,243.093,0.272482,0.891578,-0.116868,0.291539,-0.172535,0.239114,-0.000387337,-0.00150756,0.330396,-0.11029737384068383,0.2701233223896413,-0.0003872619947086209,0.3384858334200549,-0.001506424202255996,-0.15847116521288673
393,0.3836,56.0665,1036.68,0.0125943,243.182,0.273325,0.895288,-0.117136,0.292192,-0.17292,0.239639,-0.000386593,-0.00150489,0.331144,-0.11053578219634796,0.2707903122034019,-0.00038651828255487075,0.3393601501026071,-0.0015037582208494715,-0.15879509145447712
394,0.3846,56.0868,1037.05,0.0125648,243.27,0.27416,0.898965,-0.117403,0.292845,-0.173305,0.240164,-0.000385848,-0.0015022,0.331891,-0.11077323744081569,0.2714576522787506,-0.00038577357023361625,0.34023503790040177,-0.0015010722623465256,-0.15911889300846838
395,0.3856,56.1071,1037.43,0.0125354,243.358,0.274987,0.90261,-0.11767,0.293497,-0.17369,0.240689,-0.000385101,-0.00149952,0.332638,-0.1110106292931965,0.27212534279962264,-0.00038502685812757953,0.34110915607667236,-0.0014983962816343954,-0.159442569922856
396,0.3866,56.1273,1037.8,0.0125061,243.445,0.275806,0.906223,-0.117938,0.294149,-0.174074,0.241213,-0.000384353,-0.00149682,0.333384,-0.11124884652201139,0.27279211115730284,-0.00038427914584804324,0.34198384436382967,-0.0014957003236647504,-0.15976528201131912
397,0.3876,56.1475,1038.17,0.0124768,243.533,0.276617,0.909804,-0.118204,0.294801,-0.174458,0.241736,-0.000383603,-0.00149412,0.334129,-0.1114852228893859,0.27345795553456553,-0.00038352943377628623,0.3428591031337076,-0.00149300435841615,-0.16008787020213022
398,0.3886,56.1677,1038.54,0.0124476,243.62,0.27742,0.913353,-0.118471,0.295452,-0.174841,0.24226,-0.000382851,-0.00149141,0.334874,-0.11172242466702798,0.2741254223643024,-0.0003827777219077566,0.3437335890241209,-0.001490298400791401,-0.16040949495277146
399,0.3896,56.1878,1038.91,0.0124185,243.707,0.278215,0.916871,-0.118738,0.296103,-0.175224,0.242782,-0.000382098,-0.0014887,0.335619,-0.11195956312024957,0.2747906894543808,-0.00038202500985595744,0.34460864439019323,-0.001487592435833407,-0.16073099654471956
400,0.3906,56.2079,1039.28,0.0123894,243.794,0.279003,0.920358,-0.119004,0.296753,-0.175607,0.243305,-0.000381343,-0.00148598,0.336363,-0.11219575046215047,0.2754575793614751,-0.00038127029799994716,0.3454829241191768,-0.0014848764783911284,-0.16105237502513547
401,0.3916,56.228,1039.65,0.0123604,243.881,0.279783,0.923814,-0.11927,0.297402,-0.17599,0.243827,-0.000380587,-0.00148325,0.337106,-0.11243187498657359,0.27612354201903333,-0.00038051458595467214,0.34635642595761684,-0.001482150528383075,-0.1613736304411616
402,0.3926,56.2481,1040.02,0.0123315,243.967,0.280556,0.927239,-0.119536,0.298052,-0.176373,0.244349,-0.00037983,-0.00148052,0.337849,-0.11266793671022601,0.2767898523998469,-0.0003797578737178009,0.347231842113918,-0.0014794245709330855,-0.16169476283992268
403,0.3936,56.2681,1040.38,0.0123027,244.054,0.281321,0.930633,-0.119802,0.2987,-0.176755,0.24487,-0.000379071,-0.00147778,0.338591,-0.1129039356498106,0.2774552332296023,-0.0003789991616660604,0.3481051312627341,-0.0014766886208080754,-0.1620149342838787
404,0.3946,56.2881,1040.75,0.0122739,244.14,0.282078,0.933998,-0.120068,0.299349,-0.177137,0.245391,-0.00037831,-0.00147504,0.339333,-0.11313987182202567,0.2781209608130917,-0.00037823844979489873,0.34898033546596774,-0.0014739526631867284,-0.1623349834457004
405,0.3956,56.308,1041.11,0.0122452,244.226,0.282829,0.937333,-0.120333,0.299997,-0.177518,0.245912,-0.000377548,-0.00147229,0.340075,-0.11337485861886709,0.27878703533102045,-0.0003774767377224819,0.3498547580056548,-0.0014712067127807815,-0.16265407302658252
406,0.3966,56.3279,1041.48,0.0122166,244.312,0.283572,0.940637,-0.120598,0.300644,-0.1779,0.246432,-0.000376785,-0.00146953,0.340815,-0.11360978315245762,0.27945217751137164,-0.00037671402544625643,0.350728396625702,-0.0014684507695081894,-0.1629738780840314
407,0.3976,56.3478,1041.84,0.012188,244.397,0.284307,0.943913,-0.120863,0.301291,-0.178281,0.246952,-0.000376021,-0.00146677,0.341556,-0.11384464543929473,0.28011766565559926,-0.00037595031296400183,0.3516026006728321,-0.0014656948186290153,-0.1632927242924217
408,0.3986,56.3677,1042.2,0.0121595,244.483,0.285036,0.947159,-0.121128,0.301937,-0.178662,0.247471,-0.000375255,-0.001464,0.342295,-0.11407944549587179,0.28078221916079205,-0.0003751846006486703,0.3524760180363009,-0.0014629288747728397,-0.16361144904354563
409,0.3996,56.3875,1042.56,0.0121311,244.568,0.285757,0.950376,-0.121393,0.302583,-0.179042,0.24799,-0.000374488,-0.00146122,0.343035,-0.11431418333867749,0.28144711765877206,-0.00037441788812120347,0.3533499998096714,-0.001460152937856618,-0.16392921631330404
410,0.4006,56.4073,1042.92,0.0121027,244.653,0.286471,0.953564,-0.121657,0.303229,-0.179422,0.248509,-0.000373719,-0.00145844,0.343773,-0.11454797353261259,0.2821123613286367,-0.00037364917575299916,0.35422454635766987,-0.001457376993223236,-0.1642468628544399
411,0.4016,56.4271,1043.28,0.0120744,244.738,0.287179,0.956724,-0.121922,0.303874,-0.179802,0.249028,-0.000372949,-0.00145566,0.344511,-0.11478258723193835,0.28277795034957687,-0.0003728794631665533,0.3550983029462782,-0.001454601040872694,-0.1645643887128212
412,0.4026,56.4468,1043.64,0.0120462,244.823,0.287879,0.959856,-0.122186,0.304518,-0.180182,0.249546,-0.000372178,-0.00145287,0.345249,-0.11501625378356717,0.283442601457633,-0.0003721087503595344,0.35597126731773265,-0.0014518150953232167,-0.1648817939342988
413,0.4036,56.4665,1044.0,0.0120181,244.907,0.288572,0.962959,-0.12245,0.305163,-0.180561,0.250063,-0.000371406,-0.00145007,0.345986,-0.11524985865536841,0.2841063128371948,-0.000371337037329611,0.3568461509047782,-0.0014490191564910937,-0.16519824376336711
414,0.4046,56.4862,1044.35,0.01199,244.992,0.289259,0.966034,-0.122714,0.305806,-0.180941,0.25058,-0.000370632,-0.00144727,0.346723,-0.11548340186362349,0.2847703674442563,-0.0003705633244449613,0.35771888353328074,-0.001446223209830455,-0.1655154081656841
415,0.4056,56.5058,1044.71,0.011962,245.076,0.289939,0.969082,-0.122977,0.306449,-0.181319,0.251097,-0.000369858,-0.00144446,0.347459,-0.11571599914105068,0.2854347654563123,-0.00036978961096156837,0.3585921775093175,-0.001443417269775371,-0.16583078373166038
416,0.4066,56.5254,1045.06,0.011934,245.16,0.290612,0.972103,-0.123241,0.307092,-0.181698,0.251614,-0.000369082,-0.00144165,0.348194,-0.11594941930446023,0.2860995070509489,-0.00036901389761734293,0.35946603319395054,-0.0014406113218354832,-0.16614687396174377
417,0.4076,56.545,1045.41,0.0119061,245.244,0.291278,0.975096,-0.123504,0.307735,-0.182076,0.25213,-0.000368305,-0.00143884,0.348929,-0.11618189403541601,0.2867633056418952,-0.00036823718403944383,0.3603404509484751,-0.0014378053660109025,-0.16646201087875656
418,0.4086,56.5645,1045.77,0.0118783,245.327,0.291938,0.978062,-0.123767,0.308376,-0.182454,0.252646,-0.000367527,-0.00143601,0.349664,-0.11641430763355687,0.28742744684129984,-0.0003674594702254286,0.3612127087062784,-0.0014349794310014596,-0.166777028696526
419,0.4096,56.5841,1046.12,0.0118506,245.411,0.292591,0.981001,-0.12403,0.309018,-0.182832,0.253161,-0.000366747,-0.00143319,0.350398,-0.11664666011495861,0.28809064273470786,-0.00036667975653970064,0.3620868878467465,-0.0014321634736729205,-0.16709192746006285
420,0.4106,56.6036,1046.47,0.0118229,245.494,0.293238,0.983914,-0.124293,0.309659,-0.18321,0.253676,-0.000365967,-0.00143036,0.351131,-0.11687895149569294,0.288754180261964,-0.00036590004224579253,0.362960265429467,-0.0014293375226968053,-0.16740670721436135
421,0.4116,56.623,1046.82,0.0117953,245.577,0.293878,0.986801,-0.124555,0.310299,-0.183587,0.254191,-0.000365186,-0.00142752,0.351864,-0.1171102989025673,0.289418059599055,-0.0003651193277088849,0.3638328391931622,-0.0014265015779884038,-0.16772053572535017
422,0.4126,56.6424,1047.17,0.0117677,245.66,0.294512,0.989661,-0.124818,0.310939,-0.183964,0.254705,-0.000364403,-0.00142468,0.352597,-0.11734246836233375,0.2900809908404225,-0.00036433661329082767,0.3647059715828078,-0.0014236656252257784,-0.1680342459452896
423,0.4136,56.6618,1047.52,0.0117402,245.743,0.295139,0.992496,-0.12508,0.311579,-0.18434,0.255219,-0.000363619,-0.00142183,0.353329,-0.11757369434369658,0.29074426291603506,-0.00036355289862355367,0.36557966295603816,-0.001420819678617402,-0.16834700626618915
424,0.4146,56.6812,1047.86,0.0117128,245.826,0.29576,0.995305,-0.125342,0.312218,-0.184717,0.255732,-0.000362835,-0.00141899,0.35406,-0.11780485975178778,0.29140658459389623,-0.0003627691833417712,0.3664525472174871,-0.0014179837097181291,-0.16866048035124892
425,0.4156,56.7005,1048.21,0.0116855,245.908,0.296375,0.998088,-0.125604,0.312857,-0.185093,0.256245,-0.000362049,-0.00141613,0.354791,-0.11803596460247534,0.29206924612994434,-0.00036198346816962435,0.36732598943022565,-0.0014151277610675583,-0.16897300525227354
426,0.4166,56.7198,1048.56,0.0116582,245.99,0.296984,1.00085,-0.125865,0.313495,-0.185469,0.256758,-0.000361262,-0.00141327,0.355521,-0.1182661271781914,0.2927322476985712,-0.00036119675274104424,0.3681986217515927,-0.0014122718042489657,-0.16928541266602426
427,0.4176,56.7391,1048.9,0.011631,246.072,0.297586,1.00358,-0.126127,0.314133,-0.185844,0.257271,-0.000360475,-0.00141041,0.356251,-0.1184971111926435,0.29339558947425837,-0.00036041003669329275,0.3690718109900184,-0.0014094158392622402,-0.1695968722339557
428,0.4186,56.7584,1049.25,0.0116038,246.154,0.298183,1.00629,-0.126388,0.31477,-0.18622,0.257783,-0.000359686,-0.00140754,0.356981,-0.118727153424805,0.2940579775729524,-0.0003596213207456289,0.36994418755605674,-0.0014065498801730802,-0.16990904511781568
429,0.4196,56.7776,1049.59,0.0115767,246.236,0.298773,1.00897,-0.126649,0.315407,-0.186595,0.258294,-0.000358897,-0.00140467,0.357709,-0.11895713562377863,0.2947194101811308,-0.0003588326041757961,0.3708171200029968,-0.001403683912858611,-0.1702202708674213
430,0.4206,56.7967,1049.93,0.0115497,246.318,0.299358,1.01163,-0.12691,0.316044,-0.18697,0.258806,-0.000358106,-0.00140179,0.358438,-0.11918705780523098,0.29538247624957203,-0.00035804188769961165,0.3716906086850478,-0.00140080795132691,-0.17053137992925116
431,0.4216,56.8159,1050.27,0.0115227,246.399,0.299936,1.01426,-0.127171,0.31668,-0.187344,0.259317,-0.000357315,-0.00139891,0.359166,-0.11941691998482451,0.29604458584953086,-0.00035725117059803857,0.37256328139267647,-0.0013979319815123903,-0.17084154318901268
432,0.4226,56.835,1050.61,0.0114959,246.48,0.300509,1.01687,-0.127431,0.317315,-0.187718,0.259827,-0.000356522,-0.00139603,0.359893,-0.11964584182449967,0.29670573716756965,-0.0003564584535838966,0.3734351358608583,-0.0013950560034150516,-0.17115159046940454
433,0.4236,56.8541,1050.95,0.011469,246.561,0.301076,1.01946,-0.127692,0.31795,-0.188092,0.260337,-0.000355729,-0.00139314,0.36062,-0.11987558427708922,0.2973672257587783,-0.00035566573594114637,0.3743075441324415,-0.0013921700309567075,-0.17146152181379493
434,0.4246,56.8732,1051.29,0.0114423,246.642,0.301637,1.02202,-0.127952,0.318585,-0.188466,0.260847,-0.000354935,-0.00139025,0.361346,-0.12010438687954994,0.29802905179520933,-0.0003548720180246434,0.3751805065592029,-0.001389284050157813,-0.17177133726553573
435,0.4256,56.8922,1051.63,0.0114156,246.723,0.302192,1.02456,-0.128212,0.319219,-0.18884,0.261357,-0.00035414,-0.00138736,0.362072,-0.12033313000106682,0.29869121544900423,-0.00035407729983194525,0.37605264743980693,-0.001386398061018479,-0.17208103686796283
436,0.4266,56.9112,1051.97,0.0113889,246.804,0.302742,1.02708,-0.128472,0.319853,-0.189213,0.261866,-0.000353344,-0.00138446,0.362797,-0.12056181365710306,0.2993524175393243,-0.00035328158136083143,0.37692534143304757,-0.0013835020773736995,-0.17238979305460245
437,0.4276,56.9302,1052.3,0.0113624,246.884,0.303286,1.02957,-0.128732,0.320486,-0.189586,0.262375,-0.000352548,-0.00138155,0.363522,-0.1207904378631175,0.30001395626717553,-0.00035248586225622436,0.3777972110918093,-0.001380596099136544,-0.1726984340966604
438,0.4286,56.9491,1052.64,0.0113358,246.965,0.303825,1.03204,-0.128991,0.321119,-0.189958,0.262883,-0.00035175,-0.00137865,0.364246,-0.12101812365312836,0.3006745311287682,-0.0003516881432216179,0.3786696328187762,-0.0013777000986660015,-0.1730061330436239
439,0.4296,56.9681,1052.97,0.0113094,247.045,0.304357,1.03449,-0.129251,0.321752,-0.190331,0.263391,-0.000350952,-0.00137574,0.36497,-0.12124662923396579,0.30133544164764015,-0.0003508904235505206,0.37954260696351794,-0.0013747941035451294,-0.17331454423373593
440,0.4306,56.9869,1053.31,0.011283,247.125,0.304885,1.03692,-0.12951,0.322384,-0.190703,0.263899,-0.000350153,-0.00137282,0.365693,-0.12147419688571115,0.301996687994349,-0.000350091703592903,0.38041475346038234,-0.0013718781136865532,-0.17362201403035304
441,0.4316,57.0058,1053.64,0.0112567,247.204,0.305407,1.03932,-0.129769,0.323015,-0.191075,0.264406,-0.000349354,-0.00136991,0.366416,-0.12170170560506677,0.3026569676819193,-0.00034929298299701816,0.3812860700412868,-0.0013689721016236778,-0.17392936946947768
442,0.4326,57.0246,1053.97,0.0112304,247.284,0.305924,1.0417,-0.130028,0.323646,-0.191446,0.264913,-0.000348553,-0.00136699,0.367138,-0.12192915540729421,0.30331758221616756,-0.00034849226246003173,0.38215793659645225,-0.0013660560947648115,-0.1742357848298406
443,0.4336,57.0434,1054.3,0.0112043,247.364,0.306435,1.04406,-0.130286,0.324277,-0.191818,0.26542,-0.000347752,-0.00136406,0.36786,-0.12215566846375847,0.30397853176690415,-0.00034769154128166946,0.3830303534730224,-0.0013631300930225798,-0.17454291198869054
444,0.4346,57.0622,1054.64,0.0111781,247.443,0.306941,1.0464,-0.130545,0.324907,-0.192189,0.265926,-0.00034695,-0.00136113,0.368581,-0.12238300070483032,0.30463851186486157,-0.0003468898198087933,0.3839019371157302,-0.001360204082707095,-0.1748490997669978
445,0.4356,57.0809,1054.97,0.0111521,247.522,0.307442,1.04871,-0.130803,0.325537,-0.19256,0.266432,-0.000346147,-0.0013582,0.369302,-0.12260939668431126,0.305298825997252,-0.0003460870980390718,0.3847740700291351,-0.0013572780638184678,-0.1751551739707088
446,0.4366,57.0996,1055.3,0.0111261,247.601,0.307937,1.05101,-0.131061,0.326167,-0.19293,0.266938,-0.000345344,-0.00135527,0.370023,-0.12283573426116379,0.30595947433313975,-0.00034528437562464376,0.3856467525593865,-0.0013543520363565875,-0.17546031010267404
447,0.4376,57.1183,1055.62,0.0111001,247.68,0.308428,1.05328,-0.131319,0.326796,-0.1933,0.267443,-0.00034454,-0.00135233,0.370742,-0.12306201345045387,0.30661915042187093,-0.00034448065291026175,0.3865185985335604,-0.0013514160138355935,-0.17576533335515465
448,0.4386,57.137,1055.95,0.0110742,247.759,0.308913,1.05553,-0.131577,0.327424,-0.19367,0.267948,-0.000343735,-0.00134939,0.371462,-0.12328823426724345,0.30727915973115794,-0.00034367592989326123,0.38738960568105774,-0.0013484799826827265,-0.17607024376990799
449,0.4396,57.1556,1056.28,0.0110484,247.837,0.309393,1.05776,-0.131835,0.328052,-0.19404,0.268452,-0.00034293,-0.00134645,0.37218,-0.1235143967265907,0.30793819449047133,-0.0003428712062284456,0.3882611599928354,-0.0013455439428978755,-0.17637504138867632
450,0.4406,57.1742,1056.6,0.0110227,247.915,0.309868,1.05997,-0.132092,0.32868,-0.19441,0.268957,-0.000342124,-0.0013435,0.372899,-0.12373962458361265,0.308598870085236,-0.0003420654822579028,0.3891332618126204,-0.0013425979079071393,-0.17667972625318673
451,0.4416,57.1928,1056.93,0.010997,247.994,0.310338,1.06216,-0.132349,0.329307,-0.194779,0.26946,-0.000341317,-0.00134056,0.373616,-0.1239647945645127,0.3092572608882942,-0.0003412587579793014,0.39000452147913944,-0.0013396618508290103,-0.17698347538903714
452,0.4426,57.2113,1057.26,0.0109714,248.072,0.310804,1.06433,-0.132606,0.329934,-0.195148,0.269964,-0.00034051,-0.0013376,0.374334,-0.1241899066841633,0.30991729286186764,-0.0003404520330495542,0.3908763275967635,-0.0013367058118530784,-0.17728711246213325
453,0.4436,57.2298,1057.58,0.0109458,248.15,0.311264,1.06648,-0.132863,0.33056,-0.195517,0.270467,-0.000339702,-0.00133465,0.375051,-0.12441496095743265,0.3105763469983971,-0.0003396443078085287,0.3917472887602409,-0.0013337597507898646,-0.17759063751381865
454,0.4446,57.2483,1057.9,0.0109203,248.227,0.31172,1.06861,-0.13312,0.331186,-0.195885,0.27097,-0.000338894,-0.00133169,0.375767,-0.12463995739918532,0.31123573272254434,-0.00033883658191480315,0.39261879531609667,-0.0013308036943436852,-0.1778932284790612
455,0.4456,57.2667,1058.22,0.0108948,248.305,0.31217,1.07072,-0.133377,0.331812,-0.196253,0.271472,-0.000338085,-0.00132873,0.376483,-0.12486489602428241,0.3118941383063458,-0.00033802785570646865,0.3934908476058532,-0.001327847629147727,-0.17819570811131502
456,0.4466,57.2851,1058.55,0.0108695,248.382,0.312616,1.07281,-0.133633,0.332437,-0.196621,0.271974,-0.000337275,-0.00132577,0.377198,-0.12508890193692002,0.3125528744927246,-0.00033721812918108274,0.394362051608498,-0.0013248915552016571,-0.17849807645154303
457,0.4476,57.3035,1058.87,0.0108441,248.46,0.313058,1.07488,-0.133889,0.333061,-0.196989,0.272476,-0.000336465,-0.0013228,0.377913,-0.12531285051138352,0.31321194144768505,-0.00033640840199977706,0.39523240505073454,-0.0013219254857249618,-0.17880033354069347
458,0.4486,57.3219,1059.19,0.0108189,248.537,0.313494,1.07693,-0.134146,0.333685,-0.197356,0.272977,-0.000335654,-0.00131984,0.378627,-0.1255376162251708,0.31387002546663223,-0.00033559767449831135,0.39610330176300157,-0.0013189693942494696,-0.17910165852176785
459,0.4496,57.3402,1059.51,0.0107937,248.614,0.313926,1.07897,-0.134401,0.334309,-0.197723,0.273478,-0.000334843,-0.00131687,0.379341,-0.1257605757044915,0.31452843926827634,-0.00033478694633926054,0.39697474208440564,-0.001316003307183844,-0.1794028729368644
460,0.4506,57.3585,1059.83,0.0107685,248.691,0.314354,1.08098,-0.134657,0.334933,-0.19809,0.273979,-0.000334031,-0.00131389,0.380054,-0.12598435235247818,0.3151871830178803,-0.000333975217856719,0.3978467263542642,-0.0013130272244393781,-0.17970397682655315
461,0.4516,57.3768,1060.14,0.0107435,248.767,0.314777,1.08297,-0.134913,0.335555,-0.198457,0.274479,-0.000333219,-0.00131092,0.380767,-0.12620807172097492,0.31584494103519023,-0.0003331634887150381,0.39871645747639506,-0.0013100611197255363,-0.18000497023138962
462,0.4526,57.3951,1060.46,0.0107185,248.844,0.315195,1.08495,-0.135168,0.336178,-0.198823,0.274979,-0.000332406,-0.00130794,0.38148,-0.12643086025594064,0.3165030280137424,-0.0003323507592465358,0.39958812932699095,-0.0013070850192733463,-0.18030503349735771
463,0.4536,57.4133,1060.78,0.0106935,248.92,0.315609,1.08691,-0.135423,0.3368,-0.19919,0.275479,-0.000331593,-0.00130496,0.382191,-0.1266535919870727,0.31716144411805836,-0.00033153802911733976,0.4004589439387012,-0.0013041089099522507,-0.1806058063548689
464,0.4546,57.4315,1061.09,0.0106686,248.997,0.316018,1.08885,-0.135678,0.337422,-0.199555,0.275978,-0.00033078,-0.00130198,0.382903,-0.12687626692885434,0.31781887169321155,-0.000330725298327339,0.40133030036558703,-0.0013011327917624715,-0.18090483066029384
465,0.4556,57.4496,1061.41,0.0106438,249.073,0.316423,1.09077,-0.135933,0.338043,-0.199921,0.276477,-0.000329965,-0.00129899,0.383614,-0.12709888509576484,0.31847662740658844,-0.0003299105675365066,0.40220079674326437,-0.0012981466776852413,-0.18120456463760837
466,0.4566,57.4678,1061.72,0.010619,249.149,0.316824,1.09267,-0.136188,0.338664,-0.200286,0.276976,-0.000329151,-0.00129601,0.384324,-0.12732144650228017,0.3191347114219709,-0.00032909683575255144,0.4030718338670767,-0.001295170541727897,-0.18150337043614007
467,0.4576,57.4859,1062.04,0.0105943,249.224,0.31722,1.09455,-0.136443,0.339284,-0.200652,0.277474,-0.000328336,-0.00129302,0.385034,-0.1275439511628721,0.31979180411075836,-0.00032828210363444743,0.4039420081302212,-0.0012921844098235935,-0.18180288538798073
468,0.4586,57.504,1062.35,0.0105696,249.3,0.317613,1.09642,-0.136697,0.339904,-0.201016,0.277972,-0.000327521,-0.00129003,0.385744,-0.12776552685797227,0.3204492241131993,-0.00032746737085231903,0.404812722068691,-0.0012891982689906545,-0.1821006549403532
469,0.4596,57.522,1062.66,0.010545,249.376,0.318001,1.09827,-0.136951,0.340523,-0.201381,0.278469,-0.000326705,-0.00128703,0.386453,-0.1279870462799927,0.32110565048602524,-0.00032665163773293315,0.4056825703339153,-0.0012862021320912964,-0.182399133725608
470,0.4606,57.54,1062.97,0.0105205,249.451,0.318384,1.1001,-0.137205,0.341142,-0.201745,0.278967,-0.000325888,-0.00128404,0.387161,-0.12820850944322526,0.32176372494690764,-0.00032583490427362527,0.4065529572018962,-0.0012832159733713322,-0.182696686283081
471,0.4616,57.558,1063.29,0.010496,249.526,0.318764,1.10192,-0.137459,0.341761,-0.20211,0.279463,-0.000325072,-0.00128104,0.387869,-0.12842991636195766,0.3224194823688782,-0.0003250191698220828,0.40742388300613164,-0.0012802198185249969,-0.18299494755659396
472,0.4626,57.576,1063.6,0.0104716,249.601,0.319139,1.10372,-0.137713,0.342379,-0.202473,0.27996,-0.000324255,-0.00127804,0.388577,-0.12865126705047414,0.32307688820343317,-0.000324202435029175,0.40829393978568307,-0.001277223654690185,-0.18329146656917406
473,0.4636,57.5939,1063.91,0.0104473,249.676,0.319511,1.1055,-0.137966,0.342997,-0.202837,0.280456,-0.000323437,-0.00127504,0.389284,-0.12887169039518154,0.323733297115935,-0.0003233846998922374,0.40916453442650624,-0.0012742274818668964,-0.1835886943766002
474,0.4646,57.6118,1064.21,0.010423,249.751,0.319878,1.10726,-0.13822,0.343614,-0.2032,0.280952,-0.00032262,-0.00127204,0.38999,-0.12909292888734325,0.3243900316880146,-0.00032256796376395336,0.41003425722613995,-0.0012712313000551312,-0.18388499789819868
475,0.4656,57.6297,1064.52,0.0103987,249.826,0.320242,1.10901,-0.138473,0.344231,-0.203563,0.281447,-0.000321802,-0.00126903,0.390696,-0.1293132405057399,0.32504576703480925,-0.0003217502272900852,0.41090451681032203,-0.0012682251219370277,-0.1841811938811383
476,0.4666,57.6476,1064.83,0.0103746,249.9,0.320601,1.11074,-0.138726,0.344848,-0.203926,0.281943,-0.000320983,-0.00126603,0.391402,-0.12953349639234735,0.3257031527534393,-0.00032093149046819036,0.4117753135103508,-0.0012652289221181112,-0.18447728236444838
477,0.4676,57.6654,1065.14,0.0103504,249.975,0.320956,1.11246,-0.138979,0.345464,-0.204289,0.282437,-0.000320164,-0.00126302,0.392107,-0.12975369656126412,0.3263582118971866,-0.00032011275297583186,0.4126452350117875,-0.0012622227259327934,-0.1847732633871444
478,0.4686,57.6832,1065.44,0.0103264,250.049,0.321308,1.11416,-0.139232,0.34608,-0.204651,0.282932,-0.000319345,-0.00126001,0.392812,-0.12997384102658505,0.3270149217343512,-0.00031929401481289865,0.41351569254995146,-0.0012592165206989359,-0.1850683220569569
479,0.4696,57.701,1065.75,0.0103024,250.123,0.321656,1.11584,-0.139484,0.346695,-0.205013,0.283426,-0.000318526,-0.001257,0.393516,-0.13019305999589603,0.3276706290520608,-0.00031847527597939074,0.41438527206916365,-0.0012562103064163166,-0.1853632739348614
480,0.4706,57.7187,1066.05,0.0102784,250.197,0.322,1.11751,-0.139736,0.34731,-0.205375,0.28392,-0.000317706,-0.00125398,0.39422,-0.13041222372898698,0.32832666036920655,-0.00031765553679308223,0.41525538654426253,-0.0012531940956169718,-0.18565811905950957
481,0.4716,57.7364,1066.36,0.0102546,250.27,0.32234,1.11916,-0.139989,0.347924,-0.205737,0.284413,-0.000316886,-0.00125097,0.394923,-0.13063220160800837,0.32898168686353246,-0.0003168357969345337,0.4161246201790185,-0.001250187863206742,-0.18595285746953927
482,0.4726,57.7541,1066.66,0.0102307,250.344,0.322676,1.12079,-0.140241,0.348538,-0.206098,0.284907,-0.000316066,-0.00124795,0.395626,-0.1308512546913555,0.32963836600323604,-0.0003160160564037451,0.4169943876871085,-0.0012471716342196126,-0.1862466754506562
483,0.4736,57.7718,1066.96,0.010207,250.418,0.323009,1.12241,-0.140493,0.349152,-0.206459,0.285399,-0.000315245,-0.00124493,0.396328,-0.13107025258028027,0.33029270903449603,-0.00031519531551604807,0.4178646893964313,-0.0012441553961234364,-0.18654038738262513
484,0.4746,57.7894,1067.27,0.0101833,250.491,0.323338,1.12402,-0.140744,0.349765,-0.20682,0.285892,-0.000314425,-0.00124191,0.39703,-0.13128832657745115,0.33094870502977614,-0.00031437557364011326,0.41873410690027124,-0.0012411391489182133,-0.18683399330372263
485,0.4756,57.807,1067.57,0.0101596,250.564,0.323664,1.12561,-0.140996,0.350378,-0.207181,0.286384,-0.000313604,-0.00123889,0.397731,-0.1315072143381374,0.3316036929064561,-0.00031355483140549367,0.4196040575204245,-0.0012381228926038323,-0.1871274932522119
486,0.4766,57.8246,1067.87,0.010136,250.637,0.323985,1.12718,-0.141247,0.35099,-0.207541,0.286876,-0.000312782,-0.00123587,0.398432,-0.13172517867167033,0.33225900311645895,-0.00031273308880985784,0.42047312110996016,-0.0012351066271804045,-0.18742007468682298
487,0.4776,57.8422,1068.17,0.0101125,250.71,0.324304,1.12874,-0.141498,0.351602,-0.207901,0.287367,-0.000311961,-0.00123285,0.399132,-0.13194308830302093,0.332913302904442,-0.0003119123452268724,0.4213427167291972,-0.0012320903526479299,-0.18771255081107452
488,0.4786,57.8597,1068.47,0.010089,250.783,0.324618,1.13029,-0.14175,0.352214,-0.208261,0.287858,-0.000311139,-0.00122982,0.399832,-0.13216181108454061,0.33356792403250357,-0.00031109060128109434,0.42221284470383735,-0.00122906408129686,-0.18800492166287164
489,0.4796,57.8772,1068.77,0.0100656,250.856,0.32493,1.13182,-0.142,0.352825,-0.208621,0.288349,-0.000310317,-0.0012268,0.400532,-0.13237874351408596,0.33422286665846035,-0.0003102688566597456,0.42308208227698785,-0.0012260477885157606,-0.18829718728010547
490,0.4806,57.8947,1069.06,0.0100423,250.928,0.325237,1.13333,-0.142251,0.353436,-0.20898,0.28884,-0.000309495,-0.00122377,0.401231,-0.132596489121247,0.33487813094020646,-0.00030944711136304814,0.42395185111658096,-0.0012230214988557808,-0.1885885362895956
491,0.4816,57.9121,1069.36,0.010019,251.001,0.325542,1.13483,-0.142502,0.354046,-0.209339,0.28933,-0.000308672,-0.00122074,0.401929,-0.13281418008111923,0.3355323815026645,-0.0003086243656994503,0.42482072672588056,-0.001219995200026025,-0.1888797807235637
492,0.4826,57.9295,1069.66,0.00999571,251.073,0.325842,1.13632,-0.142752,0.354656,-0.209698,0.28982,-0.00030785,-0.00121771,0.402627,-0.13303094943880023,0.3361869527264538,-0.0003078026190509453,0.42569013251098897,-0.0012169688920267152,-0.18917092061954577
493,0.4836,57.9469,1069.96,0.00997253,251.145,0.32614,1.13779,-0.143002,0.355265,-0.210057,0.290309,-0.000307027,-0.00121468,0.403325,-0.1332476646109153,0.3368405079275605,-0.0003069798720339856,0.42655864223605655,-0.0012139425748575183,-0.1894619560150641
494,0.4846,57.9643,1070.25,0.0099494,251.217,0.326434,1.13925,-0.143252,0.355875,-0.210415,0.290798,-0.000306204,-0.00121165,0.404022,-0.13346432561100918,0.33749438279531274,-0.0003061571243397898,0.4274291084730313,-0.0012109162485186564,-0.18975207670010952
495,0.4856,57.9816,1070.55,0.00992633,251.289,0.326725,1.1407,-0.143502,0.356483,-0.210773,0.291287,-0.000305381,-0.00120862,0.404718,-0.13368093245262302,0.3381485774860655,-0.00030533437596858004,0.42829724925903845,-0.0012078899130100185,-0.19004209354053891
496,0.4866,57.9989,1070.84,0.00990332,251.361,0.327013,1.14213,-0.143752,0.357091,-0.211131,0.291775,-0.000304557,-0.00120558,0.405415,-0.1338974851492949,0.3388017533538279,-0.0003045106272246967,0.42916591803513615,-0.0012048535803801386,-0.19033200657352223
497,0.4876,58.0162,1071.13,0.00988036,251.432,0.327297,1.14354,-0.144002,0.357699,-0.211489,0.292264,-0.000303734,-0.00120255,0.40611,-0.1341139837145593,0.3394565875051192,-0.0003036878774983487,0.4300351151224402,-0.0012018272265015284,-0.19062181583621562
498,0.4886,58.0335,1071.43,0.00985746,251.504,0.327578,1.14495,-0.144251,0.358307,-0.211846,0.292751,-0.00030291,-0.00119951,0.406806,-0.13432956249194272,0.34010906172781197,-0.0003028641273977728,0.4309048408422613,-0.0011987908754410581,-0.19091071227687906
499,0.4896,58.0507,1071.72,0.00983462,251.575,0.327856,1.14634,-0.1445,0.358914,-0.212203,0.293239,-0.000302086,-0.00119647,0.4075,-0.1345450875968931,0.3407631945453611,-0.00030204037661851757,0.4317736637417262,-0.0011957545151500826,-0.19119950559992083
500,0.4906,58.0679,1072.01,0.00981183,251.646,0.328131,1.14772,-0.144749,0.35952,-0.21256,0.293726,-0.000301262,-0.00119343,0.408195,-0.13476055904277318,0.3414163052406509,-0.00030121662516036096,0.43264158153448395,-0.0011927181456284908,-0.19148819584214738
501,0.4916,58.0851,1072.3,0.0097891,251.717,0.328403,1.14908,-0.144998,0.360127,-0.212917,0.294213,-0.000300438,-0.00119039,0.408888,-0.13497597684294238,0.34206973407831054,-0.000300392873023525,0.43351145895556376,-0.0011896817668763937,-0.19177678304035184
502,0.4926,58.1022,1072.59,0.00976643,251.788,0.328671,1.15043,-0.145247,0.360732,-0.213273,0.294699,-0.000299614,-0.00118735,0.409582,-0.13519134101075692,0.3427221384905035,-0.0002995691202077877,0.4343789957916633,-0.0011866453788936804,-0.19206445929617766
503,0.4936,58.1193,1072.88,0.00974381,251.859,0.328937,1.15177,-0.145496,0.361338,-0.213629,0.295186,-0.00029879,-0.00118431,0.410275,-0.13540665155956944,0.3433762034238328,-0.00029874536671337104,0.4352484928941258,-0.0011836089816802398,-0.19235203315748373
504,0.4946,58.1364,1073.17,0.00972125,251.93,0.329199,1.1531,-0.145744,0.361943,-0.213985,0.295671,-0.000297966,-0.00118127,0.410967,-0.13562104412420584,0.34402789890587315,-0.000297921612540164,0.4361170809537209,-0.0011805725752361829,-0.192639504660716
505,0.4956,58.1535,1073.46,0.00969874,252.0,0.329459,1.15441,-0.145992,0.362548,-0.214341,0.296157,-0.000297141,-0.00117823,0.411659,-0.1358353835260786,0.34468125521746495,-0.0002970968579852906,0.43698619466808686,-0.0011775361595615097,-0.19292687384230756
506,0.4966,58.1705,1073.75,0.0096763,252.071,0.329715,1.15571,-0.146241,0.363152,-0.214696,0.296642,-0.000296317,-0.00117519,0.412351,-0.13605053372826892,0.3453335838031406,-0.00029627310245372573,0.43785439650022506,-0.0011744997346561092,-0.19321333395241547
507,0.4976,58.1876,1074.04,0.00965391,252.141,0.329969,1.157,-0.146488,0.363756,-0.215052,0.297127,-0.000295492,-0.00117214,0.413042,-0.13626390289426116,0.3459862288449145,-0.0002954483465388291,0.4387231228846691,-0.0011714533122344495,-0.19350049888713716
508,0.4986,58.2045,1074.33,0.00963157,252.211,0.33022,1.15827,-0.146736,0.364359,-0.215407,0.297612,-0.000294667,-0.0011691,0.413732,-0.13647808288692653,0.3466391904963053,-0.0002946235899434768,0.43959093454668907,-0.0011684168688371743,-0.1937867553964956
509,0.4996,58.2215,1074.61,0.00960929,252.281,0.330467,1.15954,-0.146984,0.364962,-0.215761,0.298096,-0.000293843,-0.00116605,0.414423,-0.13669220976953966,0.3472911216191108,-0.00029379983237398655,0.4404592696569454,-0.0011653704278627997,-0.19407210437533606
510,0.5006,58.2384,1074.9,0.00958706,252.351,0.330712,1.16079,-0.147231,0.365564,-0.216116,0.29858,-0.000293018,-0.00116301,0.415112,-0.1369054204611222,0.34794336835295114,-0.00029297507441861104,0.4413266872037642,-0.0011623339659734278,-0.19435815800076017
511,0.5016,58.2554,1075.18,0.0095649,252.421,0.330954,1.16203,-0.147479,0.366167,-0.21647,0.299063,-0.000292193,-0.00115996,0.415801,-0.13711944137715737,0.3485945822553631,-0.00029215031578277983,0.44219606928850363,-0.0011592875064462271,-0.19464330473887748
512,0.5026,58.2722,1075.47,0.00954278,252.491,0.331194,1.16326,-0.147726,0.366768,-0.216824,0.299547,-0.000291368,-0.00115691,0.41649,-0.13733254655556426,0.3492474600168478,-0.00029132555646660396,0.4430630896396641,-0.001156241037627237,-0.19492835055291402
513,0.5036,58.2891,1075.75,0.00952072,252.56,0.33143,1.16447,-0.147973,0.36737,-0.217178,0.300029,-0.000290543,-0.00115387,0.417179,-0.13754559910349218,0.3498979540490439,-0.0002905007964699724,0.44393207515802446,-0.0011532045479845099,-0.1952132954785908
514,0.5046,58.3059,1076.04,0.00949872,252.629,0.331664,1.16568,-0.14822,0.367971,-0.217532,0.300512,-0.000289718,-0.00115082,0.417866,-0.13775859903393928,0.35055011224437527,-0.00028967603579288514,0.4448001391622991,-0.0011501580606124717,-0.19549813955161588
515,0.5056,58.3227,1076.32,0.00947677,252.699,0.331895,1.16687,-0.148466,0.368571,-0.217885,0.300994,-0.000288893,-0.00114777,0.418554,-0.13797068433101578,0.351201234306288,-0.0002888512744354532,0.44566727936184214,-0.001147111563948644,-0.1957820785901654
516,0.5066,58.3395,1076.6,0.00945488,252.768,0.332123,1.16805,-0.148713,0.369172,-0.218238,0.301476,-0.000288068,-0.00114472,0.419241,-0.13818357927837766,0.3518526702846825,-0.0002880265123975656,0.44653638653728467,-0.0011440650579930267,-0.19606591741592283
517,0.5076,58.3563,1076.88,0.00943304,252.837,0.332349,1.16922,-0.148959,0.369771,-0.218591,0.301958,-0.000287243,-0.00114167,0.419927,-0.1383955600431721,0.3525044203309027,-0.0002872017496792223,0.44740312139399463,-0.0011410185427455088,-0.19634965606425725
518,0.5086,58.373,1077.16,0.00941126,252.906,0.332572,1.17038,-0.149205,0.370371,-0.218943,0.302439,-0.000286418,-0.00113862,0.420613,-0.13860748866711203,0.3531551314405581,-0.0002863769862804233,0.4482718238515071,-0.0011379720182060904,-0.19663249120341775
519,0.5096,58.3897,1077.44,0.00938953,252.974,0.332793,1.17152,-0.149452,0.37097,-0.219296,0.30292,-0.000285593,-0.00113557,0.421299,-0.13882022634322666,0.3538061556175438,-0.0002855522222011686,0.44913959854656893,-0.0011349254843748824,-0.19691602988650114
520,0.5106,58.4064,1077.72,0.00936786,253.043,0.333011,1.17266,-0.149697,0.371568,-0.219648,0.303401,-0.000284768,-0.00113252,0.421984,-0.1390311895437253,0.3544574930124813,-0.00028472745744156924,0.45000644318721505,-0.0011318789412515518,-0.19719866569716016
521,0.5116,58.423,1078.0,0.00934624,253.112,0.333226,1.17379,-0.149943,0.372167,-0.22,0.303881,-0.000283943,-0.00112947,0.422669,-0.13924296182203932,0.35510778866759907,-0.0002839026920015142,0.4508752572305126,-0.0011288323888363205,-0.1974812020375215
522,0.5126,58.4397,1078.28,0.00932468,253.18,0.333439,1.1749,-0.150189,0.372764,-0.220351,0.304361,-0.000283117,-0.00112642,0.423353,-0.13945468201078015,0.355758396539557,-0.0002830769261641386,0.4517416883630385,-0.0011257858271291887,-0.1977628367058306
523,0.5136,58.4563,1078.56,0.00930317,253.248,0.333649,1.17601,-0.150434,0.373362,-0.220703,0.304841,-0.000282292,-0.00112336,0.424037,-0.1396654897886802,0.3564093167782556,-0.000282252159362395,0.4526100895187466,-0.0011227292673572364,-0.19804517449294434
524,0.5146,58.4728,1078.84,0.00928171,253.316,0.333857,1.1771,-0.150679,0.373959,-0.221054,0.305321,-0.000281467,-0.00112031,0.42472,-0.13987624592500114,0.3570605495336667,-0.0002814273918801957,0.45347755665536504,-0.0011196826870354393,-0.1983266112416585
525,0.5156,58.4894,1079.12,0.00926031,253.384,0.334062,1.17818,-0.150924,0.374556,-0.221405,0.3058,-0.000280642,-0.00111726,0.425403,-0.1400869504323934,0.3577107372444186,-0.00028060262371754074,0.4543455418244815,-0.0011166360974216305,-0.1986079492234084
526,0.5166,58.5059,1079.39,0.00923896,253.452,0.334265,1.17926,-0.151169,0.375152,-0.221756,0.306279,-0.000279818,-0.00111421,0.426086,-0.1402976033235045,0.35836123646968554,-0.0002797788545947366,0.4552125901221358,-0.001113589498515699,-0.19888918847285542
527,0.5176,58.5224,1079.67,0.00921767,253.52,0.334465,1.18032,-0.151414,0.375748,-0.222106,0.306757,-0.000278993,-0.00111115,0.426768,-0.14050820461097913,0.35901068834735095,-0.00027895408507205843,0.4560801553346008,-0.0011105329014229337,-0.19916952819457678
528,0.5186,58.5389,1079.94,0.00919643,253.588,0.334664,1.18137,-0.151659,0.376343,-0.222456,0.307235,-0.000278168,-0.0011081,0.427449,-0.1407187543074584,0.3596604507372203,-0.00027812931486892456,0.45694678082254025,-0.001107486283902226,-0.1994497698145643
529,0.5196,58.5553,1080.22,0.00917525,253.655,0.334859,1.18241,-0.151903,0.376938,-0.222806,0.307713,-0.000277343,-0.00110505,0.42813,-0.14092839335440366,0.3603105237877544,-0.000277304543985446,0.4578139221060791,-0.0011044396570892845,-0.19972991336714774
530,0.5206,58.5718,1080.49,0.00915411,253.723,0.335053,1.18344,-0.152148,0.377533,-0.223156,0.308191,-0.000276518,-0.00110199,0.428811,-0.14113884011725064,0.3609609076474838,-0.0002764797724215118,0.4586815794922068,-0.0011013830319980267,-0.20000995888664452
531,0.5216,58.5882,1080.77,0.00913304,253.79,0.335244,1.18447,-0.152392,0.378127,-0.223506,0.308668,-0.000275694,-0.00109894,0.429491,-0.14134837667576228,0.36161024085408955,-0.0002756559999014252,0.45954829373907247,-0.0010983363865700868,-0.20028990640736033
532,0.5226,58.6045,1081.04,0.00911201,253.857,0.335432,1.18548,-0.152636,0.378721,-0.223855,0.309145,-0.000274869,-0.00109589,0.430171,-0.14155786211359067,0.36225988386651764,-0.00027483122697735674,0.46041552296713517,-0.0010952897318499133,-0.20056895653294482
533,0.5236,58.6209,1081.31,0.00909104,253.924,0.335619,1.18648,-0.15288,0.379314,-0.224204,0.309621,-0.000274044,-0.00109283,0.43085,-0.14176729644320762,0.3629084739234254,-0.0002740064533729436,0.4612818061998476,-0.00109223307875983,-0.2008479092870279
534,0.5246,58.6372,1081.59,0.00907012,253.991,0.335803,1.18747,-0.153123,0.379908,-0.224553,0.310098,-0.00027322,-0.00108978,0.431529,-0.1419758216533329,0.363558736340744,-0.0002731826788148206,0.4621500654401953,-0.001089186405424547,-0.20112676470358604
535,0.5256,58.6535,1081.86,0.00904926,254.058,0.335985,1.18846,-0.153367,0.3805,-0.224901,0.310574,-0.000272396,-0.00108673,0.432207,-0.14218515401326293,0.3642079447985973,-0.0002723589035780183,0.4630159145449835,-0.0010861397227969194,-0.20140472422170785
536,0.5266,58.6698,1082.13,0.00902845,254.125,0.336165,1.18943,-0.15361,0.381093,-0.22525,0.311049,-0.000271571,-0.00108367,0.432885,-0.14239357769633465,0.36485609749645564,-0.0002715341279339034,0.46388374026720447,-0.0010830830417076776,-0.2016833853437603
537,0.5276,58.686,1082.4,0.00900769,254.191,0.336343,1.19039,-0.153853,0.381685,-0.225598,0.311525,-0.000270747,-0.00108062,0.433563,-0.1426019507386045,0.36550592364521783,-0.00027071035133852117,0.4647506160113455,-0.0010800363404648294,-0.20196115119159996
538,0.5286,58.7022,1082.67,0.00898698,254.258,0.336518,1.19135,-0.154097,0.382276,-0.225946,0.312,-0.000269923,-0.00107757,0.43424,-0.1428111303416748,0.3661546930294799,-0.0002698865740644596,0.4656165394805891,-0.0010769896299294146,-0.20223882039374186
539,0.5296,58.7184,1082.94,0.00896633,254.324,0.336692,1.1923,-0.154339,0.382867,-0.226294,0.312474,-0.000269099,-0.00107451,0.434917,-0.14301854494995236,0.36680240384931295,-0.00026906279611160766,0.4664829748618582,-0.0010739329208409032,-0.20251639298381285
540,0.5306,58.7346,1083.21,0.00894573,254.39,0.336863,1.19323,-0.154582,0.383458,-0.226641,0.312949,-0.000268275,-0.00107146,0.435593,-0.14322676614362984,0.3674517892079543,-0.00026823901747996537,0.4673499224577822,-0.0010708861916900458,-0.2027930717888986
541,0.5316,58.7507,1083.48,0.00892518,254.456,0.337032,1.19416,-0.154825,0.384049,-0.226988,0.313423,-0.000267452,-0.0010684,0.436269,-0.1434349367457044,0.36810011499711237,-0.00026741623790216273,0.46821738257116907,-0.0010678294639250296,-0.20306965460309434
542,0.5326,58.7669,1083.74,0.00890469,254.522,0.337199,1.19508,-0.155067,0.384639,-0.227335,0.313897,-0.000266628,-0.00106535,0.436944,-0.143642200411097,0.3687487481655376,-0.0002665924579137169,0.4690838864203859,-0.0010647827161586187,-0.2033461414597032
543,0.5336,58.783,1084.01,0.00888425,254.588,0.337365,1.19599,-0.15531,0.385228,-0.227682,0.31437,-0.000265804,-0.0010623,0.437619,-0.14385027007490903,0.36939631946195806,-0.0002657686772464807,0.46994943170755166,-0.0010617359590995301,-0.20362253239201655
544,0.5346,58.799,1084.28,0.00886386,254.654,0.337528,1.19689,-0.155552,0.385817,-0.228028,0.314843,-0.000264981,-0.00105924,0.438294,-0.14405743324179665,0.3700441971320534,-0.0002649458956355266,0.4708154869510588,-0.0010586792033348003,-0.2038980313317439
545,0.5356,58.8151,1084.54,0.00884352,254.719,0.337689,1.19778,-0.155794,0.386406,-0.228375,0.315316,-0.000264158,-0.00105619,0.438968,-0.14426454628126362,0.37069238132077276,-0.00026412311334744754,0.4716820524513603,-0.001055632427660047,-0.2041742307914941
546,0.5366,58.8311,1084.81,0.00882323,254.785,0.337848,1.19867,-0.156036,0.386995,-0.228721,0.315789,-0.000263335,-0.00105314,0.439641,-0.14447160920543922,0.3713408721731335,-0.00026330033038224343,0.4725491285090859,-0.0010525856426926161,-0.2044495388765949
547,0.5376,58.8471,1085.08,0.008803,254.85,0.338005,1.19954,-0.156277,0.387583,-0.229067,0.316261,-0.000262512,-0.00105009,0.440314,-0.14467776670464416,0.37198829784523824,-0.0002624775467398033,0.4734152420090638,-0.0010495388484323964,-0.20472475172157578
548,0.5386,58.8631,1085.34,0.00878282,254.916,0.33816,1.20041,-0.156519,0.388171,-0.229412,0.316733,-0.000261689,-0.00104703,0.440987,-0.14488472964157628,0.37263602917438954,-0.0002616547624202381,0.47428186493353586,-0.001046482055344411,-0.204999074358856
549,0.5396,58.879,1085.6,0.00876268,254.981,0.338313,1.20127,-0.15676,0.388758,-0.229758,0.317205,-0.000260866,-0.00104398,0.441659,-0.14509078759075245,0.3732840663048915,-0.0002608319774235479,0.4751475224338715,-0.0010434352424683047,-0.20527409709745037
550,0.5406,58.895,1085.87,0.00874261,255.046,0.338465,1.20212,-0.157001,0.389345,-0.230103,0.317676,-0.000260044,-0.00104093,0.442331,-0.14529679588594635,0.3739310354493943,-0.0002600101914896902,0.47601368822432866,-0.0010403884202994096,-0.20554823024326507
551,0.5416,58.9109,1086.13,0.00872258,255.111,0.338614,1.20296,-0.157242,0.389931,-0.230448,0.318147,-0.000259221,-0.00103788,0.443003,-0.1455027545391233,0.37457830938813763,-0.0002591874051395271,0.4768788857237367,-0.0010373415888376147,-0.20582226882945687
552,0.5426,58.9267,1086.39,0.0087026,255.176,0.338762,1.2038,-0.157483,0.390518,-0.230793,0.318618,-0.000258399,-0.00103482,0.443674,-0.14570866356224543,0.37522588826471326,-0.0002583656178537508,0.4777460681227901,-0.0010342847584259296,-0.20609621288864333
553,0.5436,58.9426,1086.66,0.00868268,255.24,0.338907,1.20463,-0.157724,0.391103,-0.231137,0.319088,-0.000257577,-0.00103177,0.444344,-0.14591452296727225,0.3758723963496964,-0.0002575438298925148,0.4786108024827811,-0.001031237908348026,-0.20636926882309625
554,0.5446,58.9584,1086.92,0.00866281,255.305,0.339051,1.20544,-0.157965,0.391689,-0.231481,0.319558,-0.000256755,-0.00102872,0.445014,-0.14612033276616032,0.3765192083648976,-0.0002567220412558191,0.479477522337151,-0.0010281910489772228,-0.20664223084246192
555,0.5456,58.9742,1087.18,0.00864298,255.369,0.339194,1.20625,-0.158205,0.392274,-0.231825,0.320028,-0.000255933,-0.00102567,0.445684,-0.14632523929652919,0.37716632445319753,-0.0002559002519435527,0.48034326989418874,-0.0010251441803134087,-0.2069150989790418
556,0.5466,58.99,1087.44,0.00862321,255.434,0.339334,1.20706,-0.158445,0.392859,-0.232169,0.320497,-0.000255112,-0.00102262,0.446353,-0.14653009665523165,0.3778123669444884,-0.0002550794617007801,0.48120952406171624,-0.0010220973023566948,-0.2071878732651259
557,0.5476,59.0057,1087.7,0.00860349,255.498,0.339473,1.20785,-0.158686,0.393443,-0.232513,0.320967,-0.000254291,-0.00101957,0.447022,-0.14673575811873596,0.3784600909601725,-0.00025425867078410214,0.48207480306064365,-0.0010190504151069701,-0.2074605537329932
558,0.5486,59.0215,1087.96,0.00858383,255.562,0.339609,1.20864,-0.158926,0.394027,-0.232856,0.321436,-0.000253469,-0.00101652,0.447691,-0.1469405169647432,0.37910674037026637,-0.00025343687944689997,0.4829405875300894,-0.0010160035185642347,-0.20773234814765607
559,0.5496,59.0372,1088.22,0.00856421,255.626,0.339745,1.20942,-0.159166,0.39461,-0.233199,0.321904,-0.000252648,-0.00101347,0.448358,-0.1471452266745238,0.37975231337706017,-0.0002526160871816341,0.48380539395919864,-0.0010129566127283773,-0.2080040493528209
560,0.5506,59.0529,1088.48,0.00854464,255.69,0.339878,1.21019,-0.159405,0.395194,-0.233542,0.322372,-0.000251828,-0.00101042,0.449026,-0.14734903460933024,0.38039818858273033,-0.000251796293990747,0.4846721893889008,-0.0010099096975995092,-0.20827565738045328
561,0.5516,59.0685,1088.74,0.00852512,255.754,0.34001,1.21096,-0.159645,0.395776,-0.233885,0.32284,-0.000251007,-0.00100738,0.449693,-0.14755364628664058,0.3810443661287386,-0.00025097550037855854,0.4855365200989643,-0.0010068727631088459,-0.20854717226250752
562,0.5526,59.0842,1088.99,0.00850566,255.818,0.34014,1.21171,-0.159884,0.396359,-0.234227,0.323308,-0.000250187,-0.00100433,0.45036,-0.14775735662082345,0.38169084615661397,-0.0002501557058424142,0.4864028403980116,-0.0010038258294242652,-0.20881780284912566
563,0.5536,59.0998,1089.25,0.00848624,255.881,0.340268,1.21246,-0.160123,0.396941,-0.234569,0.323775,-0.000249367,-0.00100128,0.451026,-0.14796101827405406,0.38233624647101294,-0.0002493359106339188,0.4872681786401256,-0.0010007788864464517,-0.20908834089590833
564,0.5546,59.1154,1089.51,0.00846688,255.945,0.340395,1.21321,-0.160363,0.397522,-0.234911,0.324243,-0.000248547,-0.000998234,0.451692,-0.14816548309290867,0.38298333124038675,-0.0002485161147532944,0.48813253252240396,-0.0009977359301844846,-0.2093587864344988
565,0.5556,59.1309,1089.77,0.00844756,256.008,0.34052,1.21394,-0.160602,0.398104,-0.235253,0.324709,-0.000247727,-0.000995188,0.452357,-0.14836904721556776,0.38362795165763686,-0.0002476963182003189,0.4889988777383356,-0.0009946929646537095,-0.2096291394965294
566,0.5566,59.1465,1090.02,0.00842829,256.072,0.340643,1.21467,-0.16084,0.398685,-0.235595,0.325176,-0.000246907,-0.000992142,0.453022,-0.1485717112643521,0.38427425681156824,-0.0002468765209752144,0.4898642374489548,-0.0009916499898540154,-0.20989940011362185
567,0.5576,59.162,1090.28,0.00840908,256.135,0.340765,1.2154,-0.161079,0.399265,-0.235936,0.325642,-0.000246088,-0.000989096,0.453687,-0.14877517831007936,0.3849194789403223,-0.00024605772283181615,0.4907286093502954,-0.0009886070057854024,-0.21016877848656024
568,0.5586,59.1775,1090.53,0.00838991,256.198,0.340886,1.21611,-0.161317,0.399845,-0.236277,0.326108,-0.000245269,-0.000986052,0.454351,-0.14897774571116462,0.3855650018126562,-0.0002452389240177322,0.49159348273275416,-0.0009855660104767239,-0.21043806501713347
569,0.5596,59.1929,1090.79,0.0083708,256.261,0.341005,1.21682,-0.161556,0.400425,-0.236618,0.326574,-0.00024445,-0.000983007,0.455015,-0.1491811157262548,0.3862108255687491,-0.0002444201245331845,0.4924588578872746,-0.0009825240068938035,-0.21070725973665438
570,0.5606,59.2084,1091.04,0.00835173,256.324,0.341122,1.21752,-0.161794,0.401005,-0.236959,0.327039,-0.000243631,-0.000979963,0.455678,-0.14938358652573114,0.38685556349258854,-0.00024360132437795112,0.493324735104969,-0.0009794829930684923,-0.21097636267642528
571,0.5616,59.2238,1091.29,0.00833271,256.386,0.341238,1.21822,-0.162032,0.401584,-0.237299,0.327504,-0.000242813,-0.00097692,0.456341,-0.149586009142891,0.38750060128927744,-0.00024278352330930897,0.49418962048675064,-0.0009764429690097831,-0.21124458511271726
572,0.5626,59.2392,1091.55,0.00831375,256.449,0.341352,1.2189,-0.16227,0.402162,-0.23764,0.327969,-0.000241995,-0.000973877,0.457003,-0.14978838358920066,0.3881459390982893,-0.00024196572157175744,0.4950535117279098,-0.0009734029357003626,-0.2115135048557718
573,0.5636,59.2546,1091.8,0.00829483,256.512,0.341465,1.21958,-0.162508,0.402741,-0.23798,0.328433,-0.000241177,-0.000970835,0.457665,-0.14999070987612328,0.3887901882682796,-0.00024114791916529654,0.4959193983611905,-0.0009703638921697566,-0.21178154469476607
574,0.5646,59.2699,1092.05,0.00827596,256.574,0.341576,1.22026,-0.162745,0.403319,-0.238319,0.328897,-0.000240359,-0.000967794,0.458327,-0.1501921382076824,0.38943473643924786,-0.00024033011608981525,0.4967842897029622,-0.0009673258384269579,-0.2120487054648056
575,0.5656,59.2852,1092.3,0.00825714,256.636,0.341686,1.22093,-0.162983,0.403896,-0.238659,0.329361,-0.000239541,-0.000964753,0.458988,-0.15039436841244003,0.3900795837499622,-0.00023951231234531356,0.49764818344749817,-0.0009642877754454382,-0.21231656336652382
576,0.5666,59.3006,1092.55,0.00823837,256.698,0.341794,1.22159,-0.16322,0.404473,-0.238998,0.329824,-0.000238724,-0.000961712,0.459649,-0.1505957010882618,0.3907233396152212,-0.00023869550769317627,0.49851257580256014,-0.0009612497032251976,-0.21258354279597247
577,0.5676,59.3158,1092.8,0.00821965,256.761,0.341901,1.22225,-0.163457,0.40505,-0.239337,0.330288,-0.000237907,-0.000958673,0.460309,-0.15079698605389336,0.39136878497654637,-0.00023787870237379494,0.499377467055929,-0.0009582136198497127,-0.21285043173473361
578,0.5686,59.3311,1093.05,0.00820098,256.823,0.342007,1.2229,-0.163694,0.405627,-0.239676,0.33075,-0.00023709,-0.000955634,0.460969,-0.1509982233206405,0.392011745867735,-0.00023706189638705855,0.5002428574955526,-0.0009551775272476082,-0.21311723021347828
579,0.5696,59.3463,1093.3,0.00818235,256.884,0.342111,1.22354,-0.163931,0.406203,-0.240015,0.331213,-0.000236274,-0.000952596,0.461628,-0.15119941289980665,0.3926563965311842,-0.00023624608949668335,0.5011072463015476,-0.0009521424244666177,-0.2133839382628674
580,0.5706,59.3615,1093.55,0.00816378,256.946,0.342214,1.22418,-0.164168,0.406779,-0.240354,0.331675,-0.000235458,-0.000949558,0.462287,-0.15140055480269243,0.39329995243634874,-0.00023543028194061844,0.5019721331389142,-0.0009491073124648919,-0.2136505559135512
581,0.5716,59.3767,1093.8,0.00814525,257.008,0.342315,1.22481,-0.164405,0.407354,-0.240692,0.332138,-0.000234642,-0.000946521,0.462946,-0.1516016490405957,0.3939451996775365,-0.0002346144737188638,0.502836015457834,-0.0009460731902964925,-0.21391629711285975
582,0.5726,59.3919,1094.05,0.00812677,257.069,0.342415,1.22543,-0.164641,0.407929,-0.24103,0.332599,-0.000233826,-0.000943485,0.463604,-0.15180184742708336,0.39458795655866563,-0.00023379866483141942,0.503700394651925,-0.0009430400579704123,-0.21418194850682093
583,0.5736,59.407,1094.3,0.00810834,257.131,0.342514,1.22605,-0.164877,0.408504,-0.241368,0.333061,-0.00023301,-0.000940449,0.464262,-0.15200199857232644,0.39523240505073454,-0.00023298285527828533,0.5045652710069728,-0.0009400069164356983,-0.21444751012578378
584,0.5746,59.4222,1094.55,0.00808996,257.192,0.342612,1.22667,-0.165113,0.409078,-0.241705,0.333522,-0.000232195,-0.000937414,0.46492,-0.15220210248747268,0.39587575547034093,-0.0002321680448272856,0.5054291393790349,-0.000936974764755405,-0.2147121967126765
585,0.5756,59.4373,1094.79,0.00807163,257.254,0.342708,1.22727,-0.165349,0.409652,-0.242043,0.333983,-0.00023138,-0.00093438,0.465577,-0.15240215918366695,0.3965194025428638,-0.00023135323371226146,0.5062935037538818,-0.0009339436029386361,-0.21497757913803117
586,0.5766,59.4523,1095.04,0.00805334,257.315,0.342803,1.22788,-0.165585,0.410225,-0.24238,0.334443,-0.000230566,-0.000931347,0.466233,-0.15260216867205167,0.3971619492424443,-0.00023053942170259134,0.50715685725869,-0.0009309134309942735,-0.21524208712176307
587,0.5776,59.4674,1095.28,0.0080351,257.376,0.342896,1.22847,-0.165821,0.410799,-0.242717,0.334904,-0.000229751,-0.000928315,0.466889,-0.1528021309637665,0.39780618938698886,-0.00022972460926018456,0.508022213628275,-0.000927884248931643,-0.2155065059813227
588,0.5786,59.4824,1095.53,0.00801691,257.437,0.342988,1.22906,-0.166057,0.411371,-0.243054,0.335364,-0.000228937,-0.000925283,0.467545,-0.15300204606994872,0.39844932814468037,-0.00022891079592479713,0.5088850490818846,-0.0009248550576843595,-0.21577083574673994
589,0.5796,59.4974,1095.78,0.00799877,257.498,0.34308,1.22965,-0.166292,0.411944,-0.24339,0.335823,-0.000228123,-0.000922252,0.4682,-0.15320106720322313,0.3990913637221918,-0.0002280969819269396,0.5097498879676865,-0.0009218268563307985,-0.21603429248271877
590,0.5806,59.5124,1096.02,0.00798067,257.558,0.343169,1.23023,-0.166527,0.412516,-0.243726,0.336283,-0.00022731,-0.000919222,0.468855,-0.15340004157202636,0.39973509379607,-0.00022728416703932108,0.510613711933706,-0.0009187996448799529,-0.21629766071210432
591,0.5816,59.5274,1096.26,0.00796263,257.619,0.343258,1.2308,-0.166762,0.413088,-0.244062,0.336742,-0.000226497,-0.000916192,0.46951,-0.1535989691873466,0.4003777196754792,-0.00022647135149100883,0.5114780301483755,-0.0009157724242566667,-0.2165609404646297
592,0.5826,59.5423,1096.51,0.00794463,257.68,0.343345,1.23137,-0.166997,0.413659,-0.244398,0.337201,-0.000225684,-0.000913164,0.470164,-0.15379785006016977,0.401020640587872,-0.00022565853528178081,0.5123413305523996,-0.0009127471926353437,-0.21682413177001814
593,0.5836,59.5572,1096.75,0.00792667,257.74,0.343432,1.23193,-0.167232,0.41423,-0.244734,0.337659,-0.000224871,-0.000910136,0.470817,-0.15399668420147905,0.4016624550055439,-0.00022484571841174805,0.513205124041717,-0.0009097219518536814,-0.21708723465798296
594,0.5846,59.5721,1096.99,0.00790877,257.8,0.343517,1.23249,-0.167467,0.414801,-0.245069,0.338118,-0.000224059,-0.000907109,0.471471,-0.1541954716222549,0.40230596574680844,-0.00022403390065683926,0.5140694108979595,-0.0009066977010048216,-0.21734946650808518
595,0.5856,59.587,1097.24,0.00789091,257.861,0.343601,1.23304,-0.167701,0.415371,-0.245405,0.338575,-0.000223246,-0.000904083,0.472124,-0.154393366727265,0.40294696603056357,-0.00022322108246597416,0.5149326764694864,-0.000903674440097868,-0.21761239291322887
596,0.5866,59.6018,1097.48,0.0078731,257.921,0.343683,1.23359,-0.167936,0.415941,-0.24574,0.339033,-0.000222435,-0.000901058,0.472776,-0.1545920609385999,0.4035896629073559,-0.00022241026316949242,0.5157964342426531,-0.0009006521691418135,-0.21787444886478025
597,0.5876,59.6166,1097.72,0.00785533,257.981,0.343765,1.23413,-0.16817,0.416511,-0.246075,0.339491,-0.000221623,-0.000898033,0.473428,-0.15478986325256694,0.4042326542067354,-0.00022159844343705437,0.5166606844980945,-0.0008976298890435164,-0.2181364170422908
598,0.5886,59.6314,1097.96,0.00783762,258.041,0.343845,1.23467,-0.168404,0.41708,-0.246409,0.339948,-0.000220812,-0.00089501,0.47408,-0.15498761928620752,0.4048745351883407,-0.00022078762282462527,0.5175239099919371,-0.0008946095980134627,-0.21839751587306677
599,0.5896,59.6462,1098.2,0.00781995,258.101,0.343925,1.2352,-0.168638,0.417649,-0.246744,0.340404,-0.000220001,-0.000891987,0.474731,-0.15518532905034998,0.4055153040605861,-0.00021997680155461108,0.5183876268008514,-0.000891589297853046,-0.21865930885247686
600,0.5906,59.661,1098.44,0.00780232,258.16,0.344003,1.23572,-0.168872,0.418217,-0.247078,0.340861,-0.00021919,-0.000888965,0.475382,-0.1553829925558201,0.4061577713471354,-0.0002191659796270118,0.5192503159533999,-0.0008885699876737263,-0.21892023306655073
601,0.5916,59.6757,1098.68,0.00778474,258.22,0.34408,1.23625,-0.169106,0.418785,-0.247412,0.341317,-0.00021838,-0.000885944,0.476032,-0.15558060981344124,0.40679912550850506,-0.00021835615682341825,0.5201134952525757,-0.0008855516674844965,-0.21918107014648935
602,0.5926,59.6904,1098.92,0.00776721,258.28,0.344156,1.23676,-0.169339,0.419353,-0.247745,0.341773,-0.00021757,-0.000882924,0.476682,-0.1557773366117926,0.4074407721940627,-0.00021754633336401596,0.5209771649768606,-0.0008825343372943495,-0.21944103956282046
603,0.5936,59.7051,1099.16,0.00774973,258.339,0.344231,1.23728,-0.169573,0.419921,-0.248079,0.342229,-0.00021676,-0.000879905,0.477332,-0.1559748616037001,0.4080827115372301,-0.00021673650924847188,0.5218413254048959,-0.000879517997112389,-0.2197017027224356
604,0.5946,59.7198,1099.4,0.00773229,258.398,0.344305,1.23778,-0.169806,0.420488,-0.248412,0.342684,-0.000215951,-0.000876887,0.477981,-0.1561714965520854,0.40872353494724956,-0.00021592768426115239,0.5227044541102646,-0.0008765026469476078,-0.2199614987969819
605,0.5956,59.7344,1099.64,0.00771489,258.458,0.344378,1.23828,-0.170039,0.421054,-0.248745,0.343139,-0.000215142,-0.00087387,0.47863,-0.15636808568986482,0.40936464999826416,-0.00021511885861946745,0.5235665487810681,-0.0008734882868088878,-0.22022120837383807
606,0.5966,59.7491,1099.88,0.00769754,258.517,0.34445,1.23878,-0.170272,0.421621,-0.249078,0.343594,-0.000214333,-0.000870854,0.479278,-0.15656462902771107,0.4100060568230004,-0.00021431003232352808,0.5244306559654637,-0.0008704749167054437,-0.22048083148180297
607,0.5976,59.7637,1100.11,0.00768024,258.576,0.344521,1.23928,-0.170505,0.422187,-0.249411,0.344049,-0.000213525,-0.000867839,0.479926,-0.15676112657629415,0.4106477555542456,-0.00021350220515958807,0.5252937279430689,-0.0008674625366461575,-0.22074036814966602
608,0.5986,59.7783,1100.35,0.00766299,258.635,0.344591,1.23976,-0.170737,0.422752,-0.249743,0.344503,-0.000212717,-0.000864824,0.480574,-0.1569567353034388,0.41128833503580675,-0.00021269437734305896,0.5261557624011592,-0.0008644501475044697,-0.22099903940563592
609,0.5996,59.7928,1100.59,0.00764578,258.694,0.34466,1.24025,-0.17097,0.423318,-0.250076,0.344957,-0.000211909,-0.000861811,0.481221,-0.1571531415019024,0.41192920540647937,-0.00021188654887371872,0.5270198110653834,-0.0008614397475575908,-0.22125840353898885
610,0.6006,59.8074,1100.82,0.00762861,258.753,0.344728,1.24073,-0.171202,0.423883,-0.250408,0.345411,-0.000211101,-0.000858799,0.481867,-0.15734865929213337,0.4125703667983571,-0.00021107871975167836,0.527882821035994,-0.0008584303376819591,-0.2215169028357563
611,0.6016,59.8219,1101.06,0.00761149,258.811,0.344795,1.2412,-0.171434,0.424447,-0.25074,0.345864,-0.000210294,-0.000855787,0.482514,-0.15754413172749826,0.4132104061324806,-0.00021027188976674438,0.5287447899994571,-0.0008554209187419115,-0.22177531632500203
612,0.6026,59.8364,1101.3,0.00759442,258.87,0.344861,1.24167,-0.171667,0.425011,-0.251071,0.346317,-0.000209488,-0.000852777,0.48316,-0.15774040107853848,0.41385073547010354,-0.00020946605892113723,0.5296072452505356,-0.000852413489032755,-0.2220328660684644
613,0.6036,59.8508,1101.53,0.00757739,258.928,0.344926,1.24214,-0.171899,0.425575,-0.251403,0.34677,-0.000208681,-0.000849768,0.483805,-0.15793578264035069,0.414491354942627,-0.0002086592276346888,0.5304701870635733,-0.0008494070494217132,-0.22229110828634946
614,0.6046,59.8653,1101.76,0.0075604,258.987,0.34499,1.2426,-0.17213,0.426139,-0.251734,0.347223,-0.000207875,-0.000846759,0.48445,-0.15813027700959625,0.4151322646815119,-0.00020785339548923254,0.5313336157130686,-0.0008464006007643521,-0.22254848733092492
615,0.6056,59.8797,1102.0,0.00754347,259.045,0.345053,1.24306,-0.172362,0.426702,-0.252065,0.347675,-0.000207069,-0.000843752,0.485095,-0.1583255681306841,0.4157720490455217,-0.0002070475626942958,0.5321959992769092,-0.0008433961413737423,-0.22280578119713434
616,0.6066,59.8941,1102.23,0.00752657,259.103,0.345115,1.24351,-0.172594,0.427265,-0.252396,0.348127,-0.000206264,-0.000840745,0.485739,-0.15852081394948703,0.4164121226574291,-0.0002062427290436819,0.5330588684993962,-0.0008403916729486927,-0.2230629899131673
617,0.6076,59.9085,1102.47,0.00750972,259.161,0.345177,1.24396,-0.172825,0.427827,-0.252726,0.348579,-0.000205458,-0.00083774,0.486383,-0.15871517319210793,0.41705248564800357,-0.0002054368949505614,0.5339206897325761,-0.0008373891938144862,-0.22331933682692884
618,0.6086,59.9229,1102.7,0.00749292,259.219,0.345237,1.2444,-0.173056,0.42839,-0.253057,0.34903,-0.000204654,-0.000834736,0.487027,-0.15890948754292888,0.41769172045564495,-0.00020463305979867563,0.5347845302291776,-0.0008343877048233583,-0.22357637558417798
619,0.6096,59.9372,1102.93,0.00747616,259.277,0.345297,1.24484,-0.173287,0.428951,-0.253387,0.349481,-0.000203849,-0.000831733,0.48767,-0.15910375701231894,0.41833124362320473,-0.00020382822420428326,0.535645785910267,-0.000831387205984413,-0.22383255310861883
620,0.6106,59.9515,1103.16,0.00745944,259.335,0.345355,1.24528,-0.173518,0.429513,-0.253717,0.349932,-0.000203045,-0.00082873,0.488313,-0.15929798161064435,0.41897105528076284,-0.0002030243877590987,0.5365090613996393,-0.0008283866981348975,-0.22408864610842405
621,0.6116,59.9659,1103.39,0.00744277,259.393,0.345413,1.24571,-0.173749,0.430074,-0.254046,0.350383,-0.000202241,-0.000825729,0.488955,-0.15949216134826905,0.4196111555584572,-0.0002022205506675423,0.537371284814139,-0.0008253881796241869,-0.2243438789557488
622,0.6126,59.9801,1103.63,0.00742614,259.45,0.34547,1.24614,-0.17398,0.430635,-0.254376,0.350833,-0.000201438,-0.000822729,0.489597,-0.15968629623555486,0.4202501243356509,-0.00020141771272830233,0.5382339920716794,-0.0008223906512924151,-0.22459980324586293
623,0.6136,59.9944,1103.86,0.00740956,259.508,0.345526,1.24657,-0.17421,0.431195,-0.254705,0.351283,-0.000200635,-0.00081973,0.490239,-0.15987954616282718,0.42088938071349946,-0.00020061487414435586,0.5390956443473589,-0.0008193941131486859,-0.22485486795015053
624,0.6146,60.0086,1104.09,0.00739302,259.565,0.345582,1.24699,-0.174441,0.431755,-0.255035,0.351733,-0.000199832,-0.000816732,0.49088,-0.1600735915745557,0.42152892482145243,-0.0001998120349158139,0.5399577792834449,-0.0008163985652018813,-0.22511062364171686
625,0.6156,60.0228,1104.32,0.00737653,259.623,0.345636,1.2474,-0.174671,0.432315,-0.255363,0.352182,-0.00019903,-0.000813736,0.491521,-0.16026675243414312,0.422167334620972,-0.00019901019484347415,0.5408203971503034,-0.0008134050066476162,-0.22536474567887
626,0.6166,60.037,1104.55,0.00736008,259.68,0.34569,1.24782,-0.174901,0.432874,-0.255692,0.352632,-0.000198227,-0.00081074,0.492161,-0.1604598688718416,0.42280745393759567,-0.00019820735432640735,0.5416819565357236,-0.0008104114391246364,-0.2256195587584916
627,0.6176,60.0512,1104.78,0.00734367,259.737,0.345742,1.24823,-0.175131,0.433433,-0.256021,0.35308,-0.000197426,-0.000807745,0.492801,-0.16065294089786697,0.4234450144798576,-0.00019740651276967114,0.5425439976674757,-0.0008074188618255596,-0.22587428801839915
628,0.6186,60.0654,1105.01,0.00732731,259.794,0.345795,1.24863,-0.175361,0.433992,-0.256349,0.353529,-0.000196624,-0.000804752,0.493441,-0.16084596852243271,0.4240842847968054,-0.00019660467076820787,0.5434065208149315,-0.0008044282739547715,-0.22612815961471133
629,0.6196,60.0795,1105.23,0.00731099,259.851,0.345846,1.24903,-0.175591,0.43455,-0.256677,0.353978,-0.000195823,-0.000801759,0.49408,-0.16103895175575,0.42472384221057413,-0.0001958038279278318,0.5442679819788585,-0.0008014376771331433,-0.2263819479547946
630,0.6206,60.0936,1105.46,0.00729471,259.908,0.345896,1.24943,-0.17582,0.435108,-0.257005,0.354426,-0.000195023,-0.000798768,0.494719,-0.16123105183949882,0.42536226148712464,-0.0001950039842508744,0.545129923972254,-0.0007984490697637847,-0.22663565306595268
631,0.6216,60.1077,1105.69,0.00727848,259.965,0.345946,1.24983,-0.17605,0.435666,-0.257333,0.354873,-0.000194222,-0.000795778,0.495357,-0.16142394651383785,0.42599954083933333,-0.00019420314012841278,0.5459923470634958,-0.0007954614526600734,-0.22688927497548006
632,0.6226,60.1218,1105.92,0.00726229,260.022,0.345995,1.25022,-0.176279,0.436223,-0.25766,0.355321,-0.000193422,-0.000792789,0.495995,-0.1616159584438811,0.42663853175690747,-0.00019340329517092414,0.5468537046666331,-0.0007924748258307801,-0.22714204085308976
633,0.6236,60.1358,1106.14,0.00724614,260.078,0.346043,1.2506,-0.176508,0.43678,-0.257987,0.355768,-0.000192623,-0.000789801,0.496633,-0.1618079264082266,0.42727638172945115,-0.00019260444938107302,0.5477155421795976,-0.0007894891892851197,-0.22739472408977002
634,0.6246,60.1498,1106.37,0.00723004,260.135,0.346091,1.25099,-0.176737,0.437337,-0.258315,0.356215,-0.000191824,-0.000786814,0.49727,-0.16199985041694143,0.42791451688466586,-0.00019180560295284366,0.5485778598697739,-0.0007865045430317519,-0.22764809706482902
635,0.6256,60.1639,1106.6,0.00721398,260.191,0.346137,1.25137,-0.176966,0.437893,-0.258641,0.356662,-0.000191025,-0.000783828,0.497907,-0.16219173048009017,0.4285529373500572,-0.00019100675588634708,0.5494391085648118,-0.0007835208870796695,-0.2278998427484099
636,0.6266,60.1778,1106.82,0.00719796,260.248,0.346183,1.25174,-0.177195,0.438449,-0.258968,0.357108,-0.000190226,-0.000780844,0.498543,-0.16238356660773523,0.4291902140622583,-0.0001902079081816943,0.5503008362472703,-0.0007805392206573503,-0.22815227822438144
637,0.6276,60.1918,1107.05,0.00718198,260.304,0.346229,1.25212,-0.177424,0.439004,-0.259295,0.357555,-0.000189428,-0.000777861,0.499179,-0.1625753588099368,0.4298292048917549,-0.00018941005964923097,0.5511614920212728,-0.0007775585445601862,-0.22840463116744725
638,0.6286,60.2058,1107.27,0.00716605,260.36,0.346273,1.25249,-0.177652,0.43956,-0.259621,0.358001,-0.00018863,-0.000774878,0.499815,-0.162766269863441,0.4304670509462336,-0.00018861221048016574,0.552024177615208,-0.0007745778595716901,-0.2286561302611071
639,0.6296,60.2197,1107.5,0.00715016,260.416,0.346317,1.25285,-0.177881,0.440114,-0.259947,0.358446,-0.000187833,-0.000771897,0.50045,-0.16295797443663085,0.4311037504390349,-0.0001878153604865096,0.5528842372241212,-0.0007715991641484843,-0.22890754737942498
640,0.6306,60.2336,1107.72,0.00713431,260.472,0.34636,1.25322,-0.178109,0.440669,-0.260273,0.358892,-0.000187036,-0.000768918,0.501085,-0.16314879826371642,0.43174216506761054,-0.00018701850985780588,0.5537463271836156,-0.0007686224583085544,-0.22915888254912076
641,0.6316,60.2475,1107.95,0.00711851,260.528,0.346403,1.25358,-0.178337,0.441223,-0.260598,0.359337,-0.000186239,-0.000765939,0.501719,-0.1633395785879288,0.43237943211246677,-0.0001862216585940546,0.5546073411277161,-0.0007656457436010511,-0.22940936520665567
642,0.6326,60.2613,1108.17,0.00710274,260.584,0.346445,1.25393,-0.178565,0.441777,-0.260924,0.359781,-0.000185443,-0.000762962,0.502354,-0.16353031541918572,0.4330155497879986,-0.0001854258065097092,0.5554688322056958,-0.0007626710185005825,-0.22966053681040244
643,0.6336,60.2752,1108.39,0.00708702,260.64,0.346486,1.25429,-0.178793,0.442331,-0.261249,0.360226,-0.000184647,-0.000759985,0.502987,-0.16372100876740237,0.43365338361515526,-0.00018462995379187053,0.5563308006819596,-0.0007596962845443089,-0.2299108564567932
644,0.6346,60.289,1108.61,0.00707134,260.695,0.346526,1.25464,-0.17902,0.442884,-0.261574,0.36067,-0.000183851,-0.00075701,0.503621,-0.16391082255373235,0.43429006705074347,-0.0001838341004405386,0.5571916896285916,-0.0007567235402188288,-0.23016109476251745
645,0.6356,60.3028,1108.84,0.0070557,260.751,0.346566,1.25498,-0.179248,0.443437,-0.261899,0.361114,-0.000183056,-0.000754036,0.504254,-0.16410142915621173,0.43492703323654314,-0.0001830392462727204,0.5580530547784692,-0.0007537517862956644,-0.23041125175400656
646,0.6366,60.3166,1109.06,0.00704011,260.806,0.346606,1.25533,-0.179475,0.443989,-0.262224,0.361558,-0.000182261,-0.000751064,0.504886,-0.16429115659691407,0.43556428229812316,-0.00018224439147296323,0.5589133374808883,-0.0007507820220328254,-0.23066132745768353
647,0.6376,60.3303,1109.28,0.00702455,260.862,0.346644,1.25567,-0.179702,0.444541,-0.262548,0.362002,-0.000181467,-0.000748092,0.505518,-0.1644808409743752,0.43620181436110816,-0.0001814505358598284,0.5597740951904493,-0.0007478122489439354,-0.23091055281089978
648,0.6386,60.3441,1109.5,0.00700904,260.917,0.346682,1.25601,-0.179929,0.445093,-0.262872,0.362445,-0.000180673,-0.000745122,0.50615,-0.16467048229836934,0.43683819271226754,-0.00018065667961641996,0.5606353281694283,-0.0007448444655391295,-0.23115969742818154
649,0.6396,60.3578,1109.72,0.00699357,260.972,0.34672,1.25634,-0.180156,0.445645,-0.263197,0.362888,-0.000179879,-0.000742153,0.506782,-0.16486008057866874,0.43747485304149003,-0.00017986282274262688,0.5614970366802463,-0.0007418776725781617,-0.2314095299265374
650,0.6406,60.3715,1109.94,0.00697814,261.027,0.346756,1.25667,-0.180383,0.446196,-0.26352,0.36333,-0.000179086,-0.000739185,0.507413,-0.16504963582504284,0.43811035736264303,-0.00017906996505956396,0.5623576586270296,-0.0007389118700699138,-0.2316577445595498
651,0.6416,60.3852,1110.16,0.00696275,261.082,0.346792,1.257,-0.18061,0.446747,-0.263844,0.363773,-0.000178293,-0.000736219,0.508043,-0.1652391480472596,0.43874758138565473,-0.00017827710674767072,0.5632187549071725,-0.0007359480572871613,-0.23190664712591946
652,0.6426,60.3988,1110.38,0.00694741,261.137,0.346828,1.25733,-0.180837,0.447297,-0.264167,0.364215,-0.0001775,-0.000733253,0.508673,-0.16542861725508418,0.4393836483770768,-0.00017748424780705818,0.5640787617025609,-0.0007329842357137739,-0.23215470121600557
653,0.6436,60.4125,1110.6,0.0069321,261.192,0.346863,1.25765,-0.181063,0.447847,-0.264491,0.364657,-0.000176708,-0.000730289,0.509303,-0.16561720907590605,0.44001999657225066,-0.00017669238806095056,0.5649392416317864,-0.0007300224038896408,-0.23240344279449987
654,0.6446,60.4261,1110.82,0.00691683,261.247,0.346897,1.25797,-0.181289,0.448397,-0.264814,0.365098,-0.000175916,-0.000727326,0.509933,-0.16580575827979238,0.4406551854395899,-0.00017590052768778897,0.5658001949551446,-0.0007270615625595278,-0.2326513364454974
655,0.6456,60.4397,1111.04,0.00690161,261.302,0.346931,1.25829,-0.181515,0.448947,-0.265137,0.36554,-0.000175125,-0.000724365,0.510562,-0.16599426487637337,0.4412920957783699,-0.0001751096665122409,0.5666616219330738,-0.000724102711008201,-0.23289915003977557
656,0.6466,60.4533,1111.26,0.00688643,261.356,0.346964,1.2586,-0.181742,0.449496,-0.265459,0.365981,-0.000174334,-0.000721404,0.511191,-0.16618356269213153,0.44192784576517696,-0.00017431880471130423,0.5675219553034165,-0.0007211438506957712,-0.23314611674968855
657,0.6476,60.4669,1111.48,0.00687128,261.411,0.346997,1.25892,-0.181967,0.450045,-0.265782,0.366421,-0.000173543,-0.000718445,0.511819,-0.16637115028613003,0.4425624336164029,-0.00017352794228464585,0.5683827611264558,-0.0007181869801856644,-0.23339377055573562
658,0.6486,60.4804,1111.7,0.00685618,261.465,0.347029,1.25923,-0.182193,0.450593,-0.266104,0.366862,-0.000172753,-0.000715487,0.512447,-0.16655952911855554,0.44319874394574277,-0.00017273807905970884,0.5692424704183845,-0.0007152311002111,-0.23364057802348182
659,0.6496,60.4939,1111.91,0.00684112,261.52,0.347061,1.25953,-0.182419,0.451141,-0.266426,0.367302,-0.000171963,-0.000712531,0.513075,-0.16674786538217534,0.4438338911152091,-0.00017194821521082648,0.5701026509601159,-0.0007122772100682795,-0.23388730603201713
660,0.6506,60.5074,1112.13,0.0068261,261.574,0.347092,1.25984,-0.182644,0.451689,-0.266748,0.367742,-0.000171173,-0.000709575,0.513702,-0.1669353260223515,0.44446931781092136,-0.00017115835073788777,0.5709633030099657,-0.0007093233111938879,-0.2341339546069231
661,0.6516,60.5209,1112.35,0.00681112,261.628,0.347122,1.26014,-0.18287,0.452237,-0.26707,0.368182,-0.000170384,-0.000706621,0.514329,-0.16712357736546735,0.44510502415589803,-0.00017036948547066721,0.571824426826391,-0.0007063714021749989,-0.23438052377377339
662,0.6526,60.5344,1112.56,0.00679617,261.682,0.347152,1.26044,-0.183095,0.452784,-0.267391,0.368621,-0.000169595,-0.000703668,0.514955,-0.16731095347995673,0.4457395645329243,-0.00016958061958094461,0.5726844499827544,-0.0007034204837327307,-0.23462624818476407
663,0.6536,60.5478,1112.78,0.00678127,261.736,0.347182,1.26073,-0.18332,0.453331,-0.267712,0.369061,-0.000168807,-0.000700717,0.515581,-0.16749828743956297,0.4463758299094367,-0.0001687927529000488,0.5735449437004709,-0.000700471555175386,-0.23487189373087736
664,0.6546,60.5612,1112.99,0.00676641,261.79,0.347211,1.26102,-0.183545,0.453877,-0.268033,0.369499,-0.000168019,-0.000697766,0.516207,-0.16768557925376992,0.44700948128245743,-0.00016800488559831628,0.5744043338318876,-0.0006975226179157801,-0.23511746043742465
665,0.6556,60.5746,1113.21,0.00675159,261.844,0.347239,1.26132,-0.18377,0.454423,-0.268354,0.369938,-0.000167232,-0.000694818,0.516832,-0.16787282893205902,0.44764485789970365,-0.00016721801750851917,0.5752641933184381,-0.0006945766698701616,-0.2353629483297096
666,0.6566,60.588,1113.42,0.00673681,261.898,0.347267,1.2616,-0.183994,0.454969,-0.268675,0.370377,-0.000166444,-0.00069187,0.517457,-0.1680592045435304,0.4482805135085193,-0.00016643014896589037,0.5761245224164606,-0.0006916307131398236,-0.23560835743302744
667,0.6576,60.6014,1113.64,0.00672207,261.952,0.347295,1.26189,-0.184219,0.455515,-0.268996,0.370815,-0.000165658,-0.000688923,0.518082,-0.16824637016558608,0.44891499931568424,-0.00016564427947118876,0.5769853213824327,-0.0006886857470361774,-0.23585368777266535
668,0.6586,60.6147,1113.85,0.00670736,262.005,0.347322,1.26217,-0.184443,0.45606,-0.269316,0.371253,-0.000164871,-0.000685978,0.518706,-0.16843266211319186,0.4495497630885028,-0.00016485740952354444,0.5778450126271713,-0.0006857427708821806,-0.23609817547245981
669,0.6596,60.6281,1114.07,0.0066927,262.059,0.347348,1.26245,-0.184668,0.456605,-0.269636,0.37169,-0.000164085,-0.000683034,0.51933,-0.16861974371674682,0.45018335476467053,-0.0001640715387926095,0.5787051725313361,-0.0006828007853783014,-0.23634258494870675
670,0.6606,60.6414,1114.28,0.00667808,262.112,0.347374,1.26273,-0.184892,0.457149,-0.269956,0.372128,-0.000163299,-0.000680092,0.519953,-0.1688059520380436,0.4508186741988567,-0.00016328566744405748,0.5795642217854051,-0.0006798607898534925,-0.2365869162264338
671,0.6616,60.6547,1114.49,0.00666349,262.165,0.3474,1.26301,-0.185116,0.457694,-0.270276,0.372565,-0.000162514,-0.000677151,0.520576,-0.16899211865334773,0.45145282051035873,-0.00016250079531521244,0.5804253189139317,-0.0006769217850022269,-0.2368311693306604
672,0.6626,60.6679,1114.71,0.00664895,262.219,0.347425,1.26328,-0.18534,0.458237,-0.270595,0.373001,-0.000161729,-0.000674211,0.521199,-0.1691782435720003,0.45208579191784115,-0.00016171592257030465,0.5812837228976919,-0.0006739837708333862,-0.23707458136136084
673,0.6636,60.6812,1114.92,0.00663444,262.272,0.347449,1.26355,-0.185564,0.458781,-0.270914,0.373438,-0.000160945,-0.000671272,0.521821,-0.16936432680334013,0.4527204920807941,-0.00016093204904832348,0.5821441752647722,-0.0006710467473557413,-0.23731791575600714
674,0.6646,60.6944,1115.13,0.00661997,262.325,0.347474,1.26382,-0.185787,0.459324,-0.271233,0.373874,-0.000160161,-0.000668335,0.522443,-0.1695495379066575,0.4533540163135883,-0.00016014817491172284,0.5830035128409785,-0.0006681117139100134,-0.23756117253936115
675,0.6656,60.7076,1115.34,0.00660555,262.378,0.347497,1.26409,-0.186011,0.459867,-0.271552,0.37431,-0.000159377,-0.000665399,0.523065,-0.16973553797738072,0.4539878168231717,-0.00015936430016061376,0.5838633171641987,-0.000665177671178796,-0.2378043517361771
676,0.6666,60.7208,1115.55,0.00659116,262.431,0.347521,1.26435,-0.186234,0.46041,-0.271871,0.374746,-0.000158594,-0.000662464,0.523686,-0.1699206663098355,0.4546218937300277,-0.0001585814246364281,0.5847235884879458,-0.0006622446191709708,-0.23804745337120092
677,0.6676,60.734,1115.76,0.0065768,262.484,0.347544,1.26462,-0.186457,0.460952,-0.27219,0.375182,-0.000157811,-0.000659531,0.524307,-0.17010575336327494,0.4552562471546917,-0.0001577985484991773,0.5855827414823354,-0.0006593135572360298,-0.23829047746917098
678,0.6686,60.7471,1115.98,0.00656249,262.537,0.347566,1.26488,-0.186681,0.461494,-0.272508,0.375617,-0.000157028,-0.000656599,0.524927,-0.17029162885568927,0.45588942132760213,-0.00015701567174886133,0.5864423602638649,-0.0006563834860479068,-0.238532662587861
679,0.6696,60.7603,1116.19,0.00654822,262.589,0.347588,1.26513,-0.186903,0.462035,-0.272826,0.376052,-0.000156246,-0.000653668,0.525547,-0.17047580366992243,0.4565228709911928,-0.0001562337942294656,0.5873008577834078,-0.0006534544056153724,-0.23877477070392739
680,0.6706,60.7734,1116.4,0.00653398,262.642,0.34761,1.26539,-0.187126,0.462577,-0.273144,0.376487,-0.000155465,-0.000650739,0.526167,-0.17066076694153276,0.4571565962653281,-0.0001554529159430995,0.5881614080363784,-0.0006505273152965785,-0.23901680184185303
681,0.6716,60.7865,1116.61,0.00651978,262.695,0.347631,1.26564,-0.187349,0.463118,-0.273462,0.376921,-0.000154683,-0.000647811,0.526787,-0.17084568897093222,0.4577891394800562,-0.00015467103720157027,0.5890208358123781,-0.000647601215756799,-0.23925875602611302
682,0.6726,60.7996,1116.81,0.00650562,262.747,0.347652,1.26589,-0.187572,0.463658,-0.27378,0.377355,-0.000153902,-0.000644884,0.527406,-0.1710305697673168,0.45842195727811985,-0.00015389015769473602,0.5898791387846625,-0.0006446761070045826,-0.23950063328117488
683,0.6736,60.8126,1117.02,0.0064915,262.799,0.347672,1.26614,-0.187794,0.464199,-0.274097,0.377789,-0.000153122,-0.000641959,0.528024,-0.17121458055487526,0.4590550497787138,-0.00015311027742492822,0.5907394961044157,-0.0006417529884071849,-0.23974167337355168
684,0.6746,60.8257,1117.23,0.00647742,262.852,0.347692,1.26639,-0.188016,0.464739,-0.274414,0.378223,-0.000152342,-0.000639035,0.528642,-0.17139855049657293,0.4596884171010853,-0.0001523303965467182,0.5915987274038836,-0.000638830860620776,-0.23998263706832879
685,0.6756,60.8387,1117.44,0.00646337,262.904,0.347711,1.26664,-0.188239,0.465278,-0.274731,0.378656,-0.000151562,-0.000636112,0.52926,-0.1715833080185829,0.4603205990432033,-0.00015155051506032802,0.5924568303559252,-0.0006359097236541267,-0.2402235243897205
686,0.6766,60.8517,1117.65,0.00644936,262.956,0.347731,1.26688,-0.188461,0.465817,-0.275048,0.37909,-0.000150783,-0.000633191,0.529878,-0.1717671961118692,0.4609545157331596,-0.00015077163281473904,0.5933153959501287,-0.0006329905768830413,-0.24046433536193323
687,0.6776,60.8647,1117.86,0.00643539,263.008,0.347749,1.26712,-0.188683,0.466356,-0.275365,0.379523,-0.000150004,-0.000630271,0.530495,-0.17195104338652978,0.46158724601469214,-0.0001499927499625242,0.5941744244359257,-0.0006300724209550301,-0.24070507000916597
688,0.6786,60.8777,1118.06,0.00642146,263.06,0.347768,1.26736,-0.188904,0.466895,-0.275681,0.379955,-0.000149225,-0.000627352,0.531112,-0.17213402198606143,0.4622187881082409,-0.00014921386650346147,0.5950339160628817,-0.000627155255878753,-0.24094496930095866
689,0.6796,60.8906,1118.27,0.00640756,263.112,0.347786,1.2676,-0.189126,0.467434,-0.275997,0.380388,-0.000148447,-0.000624435,0.531728,-0.17231778783441654,0.46285206593824757,-0.00014843598228930777,0.5958938710806974,-0.0006242400810388959,-0.2411847927965517
690,0.6806,60.9035,1118.48,0.00639371,263.164,0.347804,1.26783,-0.189348,0.467972,-0.276313,0.38082,-0.00014767,-0.000621519,0.532344,-0.17250151289128146,0.46348415455204317,-0.00014765909732217253,0.5967526929857161,-0.0006213258970740876,-0.2414245405198926
691,0.6816,60.9164,1118.68,0.00637989,263.216,0.347821,1.26807,-0.189569,0.468509,-0.276629,0.381252,-0.000146892,-0.000618604,0.53296,-0.1726843698504943,0.4641165162871099,-0.00014688121189843084,0.5976103794500542,-0.0006184127039930987,-0.24166421249492187
692,0.6826,60.9293,1118.89,0.0063661,263.267,0.347838,1.2683,-0.18979,0.469047,-0.276945,0.381683,-0.000146115,-0.000615691,0.533575,-0.1728671864027842,0.4647476865130429,-0.00014610432572326193,0.5984701250850368,-0.000615501501189164,-0.24190380874557216
693,0.6836,60.9422,1119.1,0.00635235,263.319,0.347855,1.26853,-0.190012,0.469584,-0.27726,0.382115,-0.000145339,-0.000612779,0.53419,-0.17305078950670416,0.46538059421183653,-0.0001453284387992193,0.5993287340580837,-0.0006125912892922525,-0.24214257143871887
694,0.6846,60.9551,1119.3,0.00633865,263.371,0.347871,1.26875,-0.190233,0.470121,-0.277576,0.382546,-0.000144563,-0.000609869,0.534805,-0.17323352508919765,0.46601230937277993,-0.00014455255127299171,0.6001878042279696,-0.0006096830677014831,-0.2423820165518238
695,0.6856,60.9679,1119.51,0.00632497,263.422,0.347887,1.26898,-0.190453,0.470657,-0.277891,0.382977,-0.000143787,-0.00060696,0.535419,-0.17341539370739645,0.4666442968616402,-0.0001437766631448012,0.6010457347958877,-0.0006067758370409404,-0.2426206286332342
696,0.6866,60.9807,1119.71,0.00631134,263.473,0.347902,1.2692,-0.190674,0.471193,-0.278206,0.383407,-0.000143012,-0.000604052,0.536033,-0.1735980487212646,0.46727508951999286,-0.0001430017742714007,0.6019041253378525,-0.0006038695973193953,-0.2428591655636757
697,0.6876,60.9935,1119.92,0.00629774,263.525,0.347918,1.26943,-0.190895,0.471729,-0.27852,0.383838,-0.000142237,-0.000601146,0.536646,-0.17378066337283504,0.4679076213844011,-0.00014222688479748058,0.6027629761004762,-0.0006009653479446264,-0.24309687046406636
698,0.6886,61.0063,1120.12,0.00628417,263.576,0.347933,1.26965,-0.191115,0.472264,-0.278835,0.384268,-0.000141462,-0.000598241,0.537259,-0.17396241163385118,0.46853895738910967,-0.00014145199472304082,0.603620683709017,-0.0005980620895319477,-0.24333525740195627
699,0.6896,61.0191,1120.32,0.00627065,263.627,0.347947,1.26986,-0.191336,0.4728,-0.279149,0.384698,-0.000140688,-0.000595337,0.537872,-0.17414494577011508,0.4691705649266755,-0.00014067810390738789,0.6044804547935516,-0.00059515982209013,-0.2435728128329775
700,0.6906,61.0318,1120.53,0.00625716,263.678,0.347962,1.27008,-0.191556,0.473334,-0.279463,0.385127,-0.000139915,-0.000592435,0.538485,-0.1743266138978189,0.4698009743121738,-0.00013990521235285325,0.6053374761607511,-0.0005922595450356116,-0.24381029368330331
701,0.6916,61.0446,1120.73,0.0062437,263.729,0.347976,1.2703,-0.191776,0.473869,-0.279777,0.385557,-0.000139141,-0.000589534,0.539097,-0.1745082420629307,0.4704331246337068,-0.00013913132034004683,0.6061965614953331,-0.0005893602589751579,-0.24404769997634812
702,0.6926,61.0573,1120.93,0.00623028,263.78,0.347989,1.27051,-0.191996,0.474403,-0.280091,0.385986,-0.000138369,-0.000586634,0.539708,-0.17468983027424123,0.4710640757735174,-0.00013835942745143992,0.6070544995082339,-0.0005864619639174284,-0.2442850317355193
703,0.6936,61.07,1121.14,0.0062169,263.831,0.348003,1.27072,-0.192216,0.474937,-0.280405,0.386415,-0.000137596,-0.000583736,0.54032,-0.17487137854053936,0.47169529764943574,-0.00013758653410456123,0.6079128957823783,-0.0005835656592874106,-0.24452228898421702
704,0.6946,61.0826,1121.34,0.00620356,263.882,0.348016,1.27093,-0.192436,0.475471,-0.280718,0.386843,-0.000136824,-0.000580839,0.540931,-0.17505288687061205,0.4723253180515783,-0.00013681464002335275,0.6087717505625434,-0.0005806703456833207,-0.24475871650492775
705,0.6956,61.0953,1121.54,0.00619025,263.932,0.348028,1.27114,-0.192655,0.476004,-0.281031,0.387272,-0.000136052,-0.000577944,0.541541,-0.17523353050718715,0.4729570811165107,-0.0001360427453463986,0.6096294544633776,-0.0005777770225358081,-0.24499507003540455
706,0.6966,61.1079,1121.74,0.00617697,263.983,0.348041,1.27135,-0.192875,0.476537,-0.281344,0.3877,-0.000135281,-0.00057505,0.542151,-0.17541495917259065,0.47358764167756284,-0.00013527184993811225,0.6104876156422445,-0.0005748846904373162,-0.24523134959880277
707,0.6976,61.1206,1121.94,0.00616373,264.034,0.348053,1.27155,-0.193094,0.47707,-0.281657,0.388128,-0.00013451,-0.000572157,0.542761,-0.17559552352401364,0.47421847217629765,-0.00013450095393552353,0.6113462343429386,-0.0005719933493963936,-0.24546755521827046
708,0.6986,61.1332,1122.15,0.00615053,264.084,0.348065,1.27176,-0.193314,0.477602,-0.28197,0.388555,-0.00013374,-0.000569266,0.543371,-0.17577687255971297,0.47484809787943805,-0.00013373105720482226,0.6122036986048791,-0.0005691039988526825,-0.24570368691694855
709,0.6996,61.1457,1122.35,0.00613736,264.134,0.348077,1.27196,-0.193533,0.478134,-0.282282,0.388983,-0.00013297,-0.000566376,0.54398,-0.17595735766078247,0.4754794679688914,-0.00013296115988137291,0.61306161915917,-0.0005662156393895224,-0.24593899065733815
710,0.7006,61.1583,1122.55,0.00612423,264.185,0.348088,1.27216,-0.193752,0.478666,-0.282595,0.38941,-0.0001322,-0.000563488,0.544589,-0.17613780323994266,0.4761096322322096,-0.00013219126196506448,0.6139199962486233,-0.0005633292704524395,-0.24617497481981432
711,0.7016,61.1709,1122.75,0.00611113,264.235,0.348099,1.27236,-0.193971,0.479197,-0.282907,0.389837,-0.000131431,-0.000560601,0.545197,-0.17631820930584785,0.4767400656331251,-0.00013142236332452928,0.6147772153381579,-0.0005604438926190003,-0.24641013154131441
712,0.7026,61.1834,1122.95,0.00609807,264.285,0.34811,1.27255,-0.194189,0.479728,-0.283219,0.390263,-0.000130662,-0.000557715,0.545805,-0.17649775236531462,0.47736929091655433,-0.0001306534640926893,0.6156348897319013,-0.0005575595058978644,-0.24664521490536173
713,0.7036,61.1959,1123.15,0.00608505,264.335,0.34812,1.27275,-0.194408,0.480259,-0.283531,0.390689,-0.000129894,-0.000554831,0.546413,-0.17667807961099258,0.4779987843070572,-0.00012988556413962016,0.6164930196716847,-0.0005546771097431069,-0.2468802249348403
714,0.7046,61.2084,1123.35,0.00607206,264.385,0.34813,1.27294,-0.194626,0.480789,-0.283842,0.391116,-0.000129126,-0.000551948,0.547021,-0.1768575442272834,0.47863002454815673,-0.00012911766359691157,0.6173499880486704,-0.0005517957047236344,-0.24711440876741209
715,0.7056,61.2209,1123.55,0.0060591,264.435,0.34814,1.27314,-0.194845,0.48132,-0.284153,0.391541,-0.000128358,-0.000549067,0.547628,-0.1770377926871709,0.47925857586628373,-0.0001283497624643415,0.6182090289474982,-0.000548916290299295,-0.24734851978013594
716,0.7066,61.2334,1123.74,0.00604618,264.485,0.34815,1.27333,-0.195063,0.481849,-0.284465,0.391967,-0.000127591,-0.000546187,0.548234,-0.17721717889455801,0.47988887426362936,-0.00012758286061453905,0.6190652879843588,-0.0005460378670332222,-0.2475833104127213
717,0.7076,61.2458,1123.94,0.00603329,264.535,0.34816,1.27352,-0.195281,0.482379,-0.284776,0.392392,-0.000126824,-0.000543308,0.548841,-0.17739652600001432,0.4805179607065915,-0.00012681595817642943,0.619923620024889,-0.0005431604349341868,-0.24781727561970746
718,0.7086,61.2582,1124.14,0.00602044,264.585,0.348169,1.27371,-0.195499,0.482908,-0.285086,0.392818,-0.000126058,-0.000540431,0.549447,-0.1775758340120629,0.4811487957161693,-0.00012605005502419608,0.6207807863203783,-0.0005402849934704745,-0.24805041612561984
719,0.7096,61.2706,1124.34,0.00600762,264.634,0.348178,1.27389,-0.195717,0.483437,-0.285397,0.393242,-0.000125292,-0.000537555,0.550052,-0.17775510293922514,0.48177693596187465,-0.00012528415128520987,0.6216384061767939,-0.0005374105431966703,-0.24828423608531647
720,0.7106,61.283,1124.54,0.00599484,264.684,0.348187,1.27408,-0.195935,0.483966,-0.285707,0.393667,-0.000124526,-0.00053468,0.550658,-0.1779343327900209,0.48240682500159826,-0.00012451824695947078,0.6224964798341335,-0.0005345370841213226,-0.24851723185591967
721,0.7116,61.2954,1124.73,0.00598209,264.733,0.348195,1.27426,-0.196152,0.484494,-0.286018,0.394091,-0.000123761,-0.000531807,0.551262,-0.1781127016860803,0.48303549876481844,-0.00012375334192338272,0.623353384178325,-0.0005316656157214883,-0.2487509066584972
722,0.7126,61.3078,1124.93,0.00596937,264.783,0.348203,1.27444,-0.19637,0.485022,-0.286328,0.394515,-0.000122997,-0.000528936,0.551867,-0.1782918535888458,0.48366443914223245,-0.0001229894361790551,0.6242107410874771,-0.0005287961380143757,-0.2489837577836439
723,0.7136,61.3201,1125.13,0.00595669,264.832,0.348211,1.27463,-0.196587,0.48555,-0.286638,0.394939,-0.000122232,-0.000526065,0.552471,-0.17847014491130897,0.4842936462469085,-0.00012222452997345812,0.6250685508006069,-0.0005259266520689643,-0.2492165367361292
724,0.7146,61.3324,1125.32,0.00594405,264.882,0.348219,1.27481,-0.196804,0.486077,-0.286947,0.395363,-0.000121468,-0.000523197,0.553075,-0.1786483975487525,0.48492312019196326,-0.00012146062306117589,0.6259251876308576,-0.0005230601563160908,-0.2494484929871913
725,0.7156,61.3447,1125.52,0.00593143,264.931,0.348227,1.27498,-0.197021,0.486604,-0.287257,0.395786,-0.000120705,-0.000520329,0.553679,-0.17882661150957035,0.4855513755384424,-0.00012069771544453989,0.6267822760276951,-0.0005201936523420159,-0.2496811278940917
726,0.7166,61.357,1125.71,0.00591886,264.98,0.348234,1.27516,-0.197238,0.487131,-0.287566,0.396209,-0.000119942,-0.000517463,0.554282,-0.17900478680215437,0.48617989669314765,-0.00011993480724592498,0.6276398162291579,-0.000517329139112177,-0.24991294060866354
727,0.7176,61.3693,1125.91,0.00590631,265.029,0.348241,1.27534,-0.197455,0.487657,-0.287875,0.396632,-0.000119179,-0.000514599,0.554884,-0.17918292343489461,0.4868086837685397,-0.00011917189846510912,0.6284961799764153,-0.0005144666166436718,-0.25014468170417226
728,0.7186,61.3816,1126.1,0.0058938,265.078,0.348248,1.27551,-0.197672,0.488183,-0.288184,0.397055,-0.000118417,-0.000511735,0.555487,-0.17936102141617938,0.48743773687712655,-0.00011840998898382527,0.6293529942894922,-0.0005116040859769466,-0.2503763512027448
729,0.7196,61.3938,1126.3,0.00588132,265.127,0.348255,1.27569,-0.197889,0.488709,-0.288493,0.397477,-0.000117655,-0.000508874,0.556089,-0.17953908075439517,0.4880655680651522,-0.00011764807892189477,0.6302102594054486,-0.0005087445455856932,-0.2506079491265012
730,0.7206,61.406,1126.49,0.00586888,265.176,0.348261,1.27586,-0.198105,0.489235,-0.288802,0.3979,-0.000116893,-0.000506013,0.556691,-0.1797162811746179,0.4886951529482588,-0.00011688616827942866,0.631067975561469,-0.0005058849970132062,-0.2508394754975546
731,0.7216,61.4182,1126.69,0.00585647,265.225,0.348268,1.27603,-0.198321,0.48976,-0.28911,0.398321,-0.000116132,-0.000503154,0.557292,-0.1798934433236833,0.48932202555507476,-0.00011612525694026932,0.6319245110695362,-0.0005030274392535672,-0.2510701814085672
732,0.7226,61.4304,1126.88,0.00584409,265.273,0.348274,1.2762,-0.198538,0.490285,-0.289419,0.398743,-0.000115372,-0.000500297,0.557893,-0.18007138713887982,0.4899506520807271,-0.00011536534490674821,0.632781496376807,-0.0005001718723237625,-0.25130156497191036
733,0.7236,61.4426,1127.08,0.00583175,265.322,0.34828,1.27637,-0.198754,0.49081,-0.289727,0.399165,-0.000114611,-0.000497441,0.558494,-0.1802484725933402,0.49057954394275494,-0.00011460443241029239,0.6336389317194882,-0.0004973172967382977,-0.2515321285812806
734,0.7246,61.4547,1127.27,0.00581944,265.371,0.348285,1.27654,-0.19897,0.491334,-0.290035,0.399586,-0.000113852,-0.000494586,0.559094,-0.18042551980147326,0.49120721004519874,-0.00011384551910698093,0.63449518283791,-0.0004944637125057216,-0.251762621187994
735,0.7256,61.4669,1127.46,0.00580716,265.419,0.348291,1.2767,-0.199186,0.491858,-0.290342,0.400007,-0.000113092,-0.000491733,0.559694,-0.18060252877153915,0.49183514045070353,-0.00011308560534084577,0.6353518827494913,-0.0004916121191428369,-0.2519922948065849
736,0.7266,61.479,1127.65,0.00579491,265.468,0.348296,1.27687,-0.199401,0.492382,-0.29065,0.400427,-0.000112333,-0.000488881,0.560294,-0.1807786802908864,0.49246184280797545,-0.00011232669088478975,0.6362090316894615,-0.0004887615171557114,-0.2522226457039253
737,0.7276,61.4911,1127.85,0.0057827,265.516,0.348301,1.27703,-0.199617,0.492905,-0.290957,0.400848,-0.000111575,-0.000486031,0.560893,-0.18095561298652452,0.49309030152507516,-0.00011156877574114432,0.637064992827362,-0.0004859129060666989,-0.2524521781166661
738,0.7286,61.5032,1128.04,0.00577052,265.564,0.348306,1.27719,-0.199833,0.493428,-0.291264,0.401268,-0.000110816,-0.000483182,0.561492,-0.18113250746882759,0.4937175311607189,-0.00011080986013389804,0.6379214017500228,-0.00048306528637620527,-0.2526816400737716
739,0.7296,61.5153,1128.23,0.00575838,265.613,0.348311,1.27735,-0.200048,0.493951,-0.291571,0.401688,-0.000110059,-0.000480334,0.562091,-0.18130854505500316,0.49434502428813887,-0.00011005294373045427,0.638778258691697,-0.00048021865809255715,-0.25291103159686856
740,0.7306,61.5273,1128.42,0.00574626,265.661,0.348316,1.27751,-0.200263,0.494473,-0.291878,0.402108,-0.000109301,-0.000477488,0.562689,-0.18148454479716603,0.49497278101802533,-0.00010929502686329862,0.6396339242520159,-0.00047737402074687907,-0.25314035270757673
741,0.7316,61.5394,1128.61,0.00573418,265.709,0.34832,1.27767,-0.200478,0.494996,-0.292185,0.402527,-0.000108544,-0.000474643,0.563287,-0.1816605067034519,0.4955993058610604,-0.0001085381093132165,0.6404916770772118,-0.0004745303748309171,-0.25336960342750936
742,0.7326,61.5514,1128.81,0.00572213,265.757,0.348324,1.27783,-0.200693,0.495517,-0.292491,0.402946,-0.000107788,-0.0004718,0.563885,-0.18183643078199463,0.49622609327300893,-0.00010778219108220632,0.6413465959279911,-0.00047168871988134686,-0.25359803737668385
743,0.7336,61.5634,1129.0,0.00571011,265.805,0.348328,1.27799,-0.200908,0.496039,-0.292798,0.403365,-0.000107032,-0.000468958,0.564482,-0.18201231704092613,0.4968531433639105,-0.00010702627227987538,0.6422036025103237,-0.0004688480563841413,-0.25382714760898917
744,0.7346,61.5754,1129.19,0.00569813,265.853,0.348332,1.27814,-0.201123,0.49656,-0.293104,0.403784,-0.000106276,-0.000466117,0.565079,-0.1821881654883768,0.4974804562438506,-0.00010627035290600162,0.6430594135066374,-0.00046600838434762704,-0.2540554415710632
745,0.7356,61.5874,1129.38,0.00568618,265.901,0.348336,1.2783,-0.201338,0.497081,-0.29341,0.404203,-0.000105521,-0.000463278,0.565676,-0.18236397613247535,0.49810803202296117,-0.00010551543285508558,0.6439156704966518,-0.00046317070331736154,-0.254283665685872
746,0.7366,61.5993,1129.57,0.00567426,265.949,0.348339,1.27845,-0.201552,0.497602,-0.293715,0.404621,-0.000104766,-0.000460441,0.566272,-0.18253893152068879,0.4987343720762982,-0.00010476051223429206,0.6447723737127895,-0.0004603350133102202,-0.2545110744862329
747,0.7376,61.6112,1129.76,0.00566237,265.996,0.348343,1.27861,-0.201767,0.498122,-0.294021,0.405039,-0.000104011,-0.000457604,0.566868,-0.1827146667581968,0.4993609739945035,-0.00010400559104351004,0.6456278777588949,-0.0004574993152582918,-0.2547391591986994
748,0.7386,61.6232,1129.95,0.00565051,266.044,0.348346,1.27876,-0.201981,0.498642,-0.294326,0.405457,-0.000103257,-0.00045477,0.567463,-0.18288954710664584,0.49998783788705947,-0.00010325166917946049,0.6464838267827884,-0.00045466660779736046,-0.2549664290947228
749,0.7396,61.6351,1130.14,0.00563869,266.091,0.348349,1.27891,-0.202195,0.499162,-0.294631,0.405874,-0.000102503,-0.000451936,0.568058,-0.18306439003470454,0.5006134632492805,-0.00010249774674697676,0.6473402210159187,-0.00045183389230862847,-0.2551936296839977
750,0.7406,61.647,1130.32,0.0056269,266.139,0.348352,1.27906,-0.202409,0.499682,-0.294936,0.406292,-0.00010175,-0.000449104,0.568653,-0.18323919555037982,0.50124085079178,-0.00010174482364433413,0.6481970606898546,-0.00044900316789386885,-0.25542076098765953
751,0.7416,61.6588,1130.51,0.00561514,266.186,0.348355,1.27921,-0.202623,0.500201,-0.295241,0.406709,-0.000100997,-0.000446274,0.569248,-0.18341396366167706,0.5018669987693403,-0.0001009918999747006,0.6490526969827644,-0.000446174434570179,-0.2556478230268372
752,0.7426,61.6707,1130.7,0.00560341,266.234,0.348357,1.27935,-0.202837,0.50072,-0.295546,0.407126,-0.000100245,-0.000443445,0.569842,-0.1835886943766002,0.5024934079050547,-0.00010023997563790576,0.6499087774661678,-0.0004433466927977747,-0.2558748158226529
753,0.7436,61.6825,1130.89,0.00559171,266.281,0.34836,1.2795,-0.203051,0.501238,-0.29585,0.407542,-9.94926e-05,-0.000440617,0.570436,-0.18376338770315093,0.5031185751885225,-9.948765077538724e-05,0.6507636516061821,-0.00044051994258520466,-0.25610099549759047
754,0.7446,61.6944,1131.08,0.00558004,266.328,0.348362,1.27965,-0.203264,0.501757,-0.296155,0.407959,-9.8741e-05,-0.000437791,0.571029,-0.1839372275869653,0.5037455063404366,-9.873612526789532e-05,0.651620620305507,-0.00043769518350322834,-0.25632785009687864
755,0.7456,61.7062,1131.26,0.00556841,266.375,0.348364,1.27979,-0.203478,0.502275,-0.296459,0.408375,-9.79897e-05,-0.000434966,0.571622,-0.18411184633538924,0.5043711946052098,-9.798489916612585e-05,0.6524763814098162,-0.00043487141600351276,-0.2565538920703284
756,0.7466,61.718,1131.45,0.0055568,266.423,0.348366,1.27993,-0.203691,0.502792,-0.296763,0.408791,-9.72389e-05,-0.000432143,0.572215,-0.18428561200541893,0.5049971432104485,-9.723417245144361e-05,0.6533309325814487,-0.0004320496396625906,-0.2567798653374621
757,0.7476,61.7298,1131.64,0.00554523,266.47,0.348368,1.28008,-0.203904,0.50331,-0.297067,0.409206,-9.64885e-05,-0.000429321,0.572808,-0.18445934066730252,0.5056218466418771,-9.648384513438746e-05,0.6541875798570154,-0.0004292288549265777,-0.25700576991916335
758,0.7486,61.7415,1131.83,0.00553369,266.517,0.34837,1.28022,-0.204117,0.503827,-0.29737,0.409622,-9.57385e-05,-0.0004265,0.5734,-0.1846330323289217,0.5062483156265944,-9.573391721606761e-05,0.6550430159469767,-0.0004264090618038008,-0.2572308630675437
759,0.7496,61.7533,1132.01,0.00552217,266.563,0.348371,1.28036,-0.20433,0.504344,-0.297674,0.410037,-9.49888e-05,-0.000423681,0.573992,-0.18480668699815683,0.5068735384023322,-9.498428870680087e-05,0.6558988944117405,-0.0004235912598793412,-0.2574566305667726
760,0.7506,61.765,1132.2,0.00551069,266.61,0.348373,1.2805,-0.204543,0.50486,-0.297977,0.410452,-9.42396e-05,-0.000420863,0.574583,-0.1849803046828864,0.5074990206993688,-9.423515958839612e-05,0.6567535587256865,-0.0004207744495905441,-0.25768158712507117
761,0.7516,61.7767,1132.38,0.00549924,266.657,0.348374,1.28064,-0.204756,0.505376,-0.29828,0.410867,-9.34909e-05,-0.000418047,0.575174,-0.18515388539098732,0.5081247626254279,-9.34865298619636e-05,0.6576086641602181,-0.000417959630528153,-0.2579064755318581
762,0.7526,61.7884,1132.57,0.00548783,266.704,0.348375,1.28078,-0.204968,0.505892,-0.298583,0.411281,-9.27425e-05,-0.000415232,0.575765,-0.18532661445735643,0.5087492555382682,-9.273819954724871e-05,0.6584642109430119,-0.0004151458031240729,-0.25813129580778016
763,0.7536,61.8001,1132.76,0.00547644,266.75,0.348377,1.28091,-0.205181,0.506408,-0.298886,0.411695,-9.19945e-05,-0.000412419,0.576356,-0.1855001214093306,0.5093740070446997,-9.199026863571103e-05,0.6593201993018623,-0.0004123339669743764,-0.2583560479734778
764,0.7546,61.8118,1132.94,0.00546508,266.797,0.348378,1.28105,-0.205393,0.506923,-0.299188,0.412109,-9.12469e-05,-0.000409607,0.576946,-0.18567277708144392,0.5099990172518021,-9.124273712823872e-05,0.6601749692888823,-0.00040952312250541745,-0.25857999062994663
765,0.7556,61.8234,1133.13,0.00545375,266.844,0.348378,1.28119,-0.205605,0.507438,-0.299491,0.412523,-9.04998e-05,-0.000406797,0.577535,-0.1858453961544344,0.5106242862666996,-9.04957050166244e-05,0.661030179595818,-0.00040671426931893073,-0.25880460686170814
766,0.7566,61.835,1133.31,0.00544245,266.89,0.348379,1.28132,-0.205818,0.507953,-0.299793,0.412937,-8.9753e-05,-0.000403988,0.578125,-0.18601879261767462,0.5112498141965611,-8.974897231994738e-05,0.661885830449493,-0.00040390640783571907,-0.2590284140738458
767,0.7576,61.8467,1133.49,0.00543119,266.936,0.34838,1.28145,-0.20603,0.508468,-0.300095,0.41335,-8.90067e-05,-0.00040118,0.578714,-0.1861913383431465,0.5118740892737543,-8.900273902123779e-05,0.6627419220768473,-0.00040109953806410914,-0.2592521537064105
768,0.7586,61.8583,1133.68,0.00541995,266.983,0.34838,1.28159,-0.206241,0.508982,-0.300397,0.413763,-8.82607e-05,-0.000398374,0.579303,-0.18636303385624253,0.5124986222298025,-8.825680513901979e-05,0.6635967911073146,-0.00039829465961416233,-0.2594758257798081
769,0.7596,61.8699,1133.86,0.00540874,267.029,0.348381,1.28172,-0.206453,0.509496,-0.300699,0.414176,-8.75152e-05,-0.000395569,0.579891,-0.18653550661030704,0.5131234131712321,-8.751137065654557e-05,0.6644520996534091,-0.00039549077289824375,-0.25969943031443843
770,0.7606,61.8814,1134.05,0.00539757,267.075,0.348381,1.28185,-0.206665,0.510009,-0.301,0.414589,-8.67701e-05,-0.000392766,0.580479,-0.18670794280402336,0.5137484622046127,-8.676633558379887e-05,0.6653061826340854,-0.0003926888775319659,-0.2599222272532924
771,0.7616,61.893,1134.23,0.00538642,267.121,0.348381,1.28198,-0.206876,0.510522,-0.301302,0.415001,-8.60253e-05,-0.000389964,0.581067,-0.18687952932507712,0.5143722550635461,-8.602159992998626e-05,0.6661607038717339,-0.0003898879739221428,-0.2601456969950324
772,0.7626,61.9045,1134.41,0.0053753,267.167,0.348381,1.28211,-0.207088,0.511035,-0.301603,0.415413,-8.5281e-05,-0.000387163,0.581655,-0.18705189259370814,0.5149963049780872,-8.527736367891503e-05,0.6670156635912381,-0.0003870880620771011,-0.26036835962782956
773,0.7636,61.916,1134.59,0.00536422,267.213,0.348381,1.28224,-0.207299,0.511548,-0.301904,0.415825,-8.45371e-05,-0.000384364,0.582242,-0.18722340654901226,0.5156206120541649,-8.45335268400138e-05,0.6678710620175972,-0.00038429014162089103,-0.2605909552492599
774,0.7646,61.9276,1134.78,0.00535316,267.259,0.348381,1.28237,-0.20751,0.512061,-0.302205,0.416237,-8.37936e-05,-0.000381566,0.582828,-0.18739488431868956,0.5162451763977514,-8.379008941439281e-05,0.6687268993759254,-0.00038149321295177785,-0.260813483879491
775,0.7656,61.9391,1134.96,0.00534213,267.305,0.348381,1.2825,-0.207721,0.512573,-0.302505,0.416648,-8.30505e-05,-0.00037877,0.583415,-0.18756632591037425,0.516868481245623,-8.304705140271817e-05,0.6695815063091117,-0.0003786982756994739,-0.26103520657425994
776,0.7666,61.9505,1135.14,0.00533113,267.351,0.34838,1.28262,-0.207932,0.513085,-0.302806,0.417059,-8.23078e-05,-0.000375975,0.584001,-0.18773773133169935,0.5174920423244389,-8.23044128059891e-05,0.6704365509130819,-0.00037590433025669334,-0.2612576015049649
777,0.7676,61.962,1135.32,0.00532016,267.397,0.34838,1.28275,-0.208143,0.513596,-0.303106,0.41747,-8.15655e-05,-0.000373182,0.584587,-0.18790910059029575,0.5181158597395317,-8.156217362509377e-05,0.6712903621207831,-0.0003731123762584776,-0.2614791909844296
778,0.7686,61.9734,1135.5,0.00530922,267.442,0.348379,1.28287,-0.208354,0.514107,-0.303406,0.417881,-8.08237e-05,-0.00037039,0.585172,-0.18808043369379313,0.5187399335962772,-8.082043385271298e-05,0.6721446097375043,-0.00037032141409210073,-0.261700713997021
779,0.7696,61.9849,1135.69,0.00529831,267.488,0.348379,1.283,-0.208564,0.514618,-0.303706,0.418292,-8.00822e-05,-0.0003676,0.585757,-0.1882509189011441,0.5193642640000948,-8.007899350626069e-05,0.6729992939863079,-0.0003675324433981553,-0.2619221705626761
780,0.7706,61.9963,1135.87,0.00528743,267.534,0.348378,1.28312,-0.208775,0.515129,-0.304006,0.418702,-7.93411e-05,-0.000364811,0.586342,-0.18842217988858645,0.5199873310683558,-7.933795257819565e-05,0.6738544150903691,-0.0003647444645583642,-0.26214356070132605
781,0.7716,62.0077,1136.05,0.00527658,267.579,0.348377,1.28324,-0.208985,0.515639,-0.304306,0.419112,-7.86005e-05,-0.000362023,0.586927,-0.18859259333677147,0.5206106536464905,-7.859741106164275e-05,0.6747082985638431,-0.0003619574775808321,-0.2623648844328961
782,0.7726,62.0191,1136.23,0.00526575,267.625,0.348376,1.28337,-0.209196,0.516149,-0.304605,0.419522,-7.78602e-05,-0.000359237,0.587511,-0.1887637822385132,0.5212342318392797,-7.78571689732388e-05,0.6755626176289551,-0.00035917248211492225,-0.2625854043630781
783,0.7736,62.0305,1136.41,0.00525496,267.67,0.348375,1.28349,-0.209406,0.516659,-0.304904,0.419931,-7.71203e-05,-0.000356452,0.588095,-0.18893412395773657,0.5218565438942422,-7.711732630610868e-05,0.676417372507913,-0.0003563884785334759,-0.26280585836765746
784,0.7746,62.0418,1136.59,0.00524419,267.715,0.348374,1.28361,-0.209616,0.517169,-0.305204,0.420341,-7.63809e-05,-0.000353669,0.588678,-0.1891044299089547,0.5224806330067646,-7.637798305337729e-05,0.6772725634230392,-0.0003536064664915184,-0.26302698343972786
785,0.7756,62.0532,1136.77,0.00523345,267.76,0.348373,1.28373,-0.209826,0.517678,-0.305502,0.42075,-7.56418e-05,-0.000350887,0.589261,-0.18927470009967806,0.5231034549440683,-7.56389392311263e-05,0.6781265124694169,-0.0003508254463562288,-0.2632465686788372
786,0.7766,62.0645,1136.95,0.00522275,267.806,0.348372,1.28385,-0.210035,0.518187,-0.305801,0.421159,-7.49032e-05,-0.000348106,0.589844,-0.18944412398194477,0.5237265316676447,-7.490039482538347e-05,0.6789808962864992,-0.0003480454181362669,-0.26346682502483765
787,0.7776,62.0758,1137.13,0.00521207,267.851,0.34837,1.28397,-0.210245,0.518696,-0.3061,0.421567,-7.4165e-05,-0.000345327,0.590427,-0.1896143228444025,0.5243483389326213,-7.416224984435615e-05,0.6798357150956404,-0.00034526738149431857,-0.26368701552403506
788,0.7786,62.0871,1137.31,0.00520141,267.896,0.348369,1.28409,-0.210455,0.519204,-0.306398,0.421976,-7.34271e-05,-0.00034255,0.591009,-0.18978448596885178,0.5249719249178859,-7.342440429647379e-05,0.680689288428179,-0.0003424913364473703,-0.2639064041028871
789,0.7796,62.0984,1137.48,0.00519079,267.941,0.348367,1.2842,-0.210664,0.519712,-0.306697,0.422384,-7.26897e-05,-0.000339773,0.591591,-0.18995380331700507,0.5255942404069796,-7.268705816776411e-05,0.6815432954861276,-0.00033971528369125537,-0.2641264631875878
790,0.7806,62.1097,1137.66,0.0051802,267.986,0.348366,1.28432,-0.210873,0.52022,-0.306995,0.422792,-7.19527e-05,-0.000336999,0.592172,-0.19012308528153032,0.5262168098525961,-7.195011146654551e-05,0.6823977364898746,-0.00033694222221525294,-0.2643457208305465
791,0.7816,62.1209,1137.84,0.00516963,268.031,0.348364,1.28444,-0.211083,0.520727,-0.307293,0.4232,-7.1216e-05,-0.000334225,0.592753,-0.1902931415770852,0.5268396333583714,-7.121346420091434e-05,0.68325092840815,-0.0003341691530466262,-0.26456491314446207
792,0.7826,62.1322,1138.02,0.00515909,268.076,0.348362,1.28455,-0.211292,0.521235,-0.30759,0.423607,-7.04798e-05,-0.000331453,0.593334,-0.19046235262732492,0.5274611835660357,-7.047731635723142e-05,0.6841062371097979,-0.0003313980755228485,-0.2647833049324724
793,0.7836,62.1434,1138.2,0.00514858,268.12,0.348361,1.28467,-0.211501,0.521742,-0.307888,0.424015,-6.9744e-05,-0.000328683,0.593915,-0.1906315283161505,0.5280845148798716,-6.974156794381514e-05,0.6849602954575091,-0.00032862898966035115,-0.2650023668657533
794,0.7846,62.1546,1138.37,0.0051381,268.165,0.348359,1.28478,-0.211709,0.522248,-0.308185,0.424422,-6.90086e-05,-0.000325914,0.594495,-0.1907998594512158,0.5287065718574357,-6.900621896133163e-05,0.6858131011086448,-0.0003258608958015552,-0.2652206287493001
795,0.7856,62.1658,1138.55,0.00512765,268.21,0.348357,1.28489,-0.211918,0.522755,-0.308483,0.424829,-6.82736e-05,-0.000323146,0.595075,-0.190968964608486,0.5293288820637183,-6.82712694107801e-05,0.6866680250558141,-0.00032309379395489835,-0.2654395603794997
796,0.7866,62.177,1138.73,0.00511722,268.254,0.348355,1.28501,-0.212127,0.523261,-0.30878,0.425235,-6.7539e-05,-0.00032038,0.595654,-0.19113803442647148,0.5299499156511236,-6.753671929304872e-05,0.6875216950367835,-0.0003203286838081576,-0.26565769243585324
797,0.7876,62.1881,1138.91,0.00510682,268.299,0.348353,1.28512,-0.212335,0.523767,-0.309077,0.425642,-6.68048e-05,-0.000317615,0.596234,-0.1913062602192218,0.5305727320013236,-6.680256860902567e-05,0.6883757970840667,-0.00031756456569553837,-0.2658757597166056
798,0.7886,62.1993,1139.08,0.00509645,268.343,0.34835,1.28523,-0.212544,0.524272,-0.309373,0.426048,-6.60709e-05,-0.000314852,0.596813,-0.19147525954979083,0.5311942706943331,-6.606871736614117e-05,0.6892286421868576,-0.0003148024393105908,-0.26609302833438775
799,0.7896,62.2104,1139.26,0.00508611,268.388,0.348348,1.28534,-0.212752,0.524777,-0.30967,0.426454,-6.53375e-05,-0.00031209,0.597391,-0.19164341520700978,0.531816061783285,-6.53353655520883e-05,0.6900819180851927,-0.0003120413049818582,-0.2663109663395766
800,0.7906,62.2215,1139.43,0.00507579,268.432,0.348346,1.28545,-0.21296,0.525282,-0.309966,0.426859,-6.46045e-05,-0.000309329,0.597969,-0.19181153589148947,0.5324365729333334,-6.460241317418625e-05,0.6909356249966778,-0.0003092811627174452,-0.266528106155262
801,0.7916,62.2326,1139.61,0.0050655,268.476,0.348344,1.28556,-0.213168,0.525787,-0.310263,0.427265,-6.38719e-05,-0.00030657,0.598547,-0.1919796216105032,0.5330588684993962,-6.386986023365626e-05,0.6917897631390297,-0.00030652301221933964,-0.2667459149615251
802,0.7926,62.2437,1139.79,0.00505524,268.52,0.348341,1.28567,-0.213376,0.526291,-0.310559,0.42767,-6.31397e-05,-0.000303813,0.599125,-0.19214767237132324,0.5336798830881042,-6.313770673105346e-05,0.6926426400865888,-0.0003037668535039728,-0.26696292605147065
803,0.7936,62.2548,1139.96,0.00504501,268.565,0.348339,1.28578,-0.213584,0.526796,-0.310855,0.428075,-6.24079e-05,-0.000301056,0.599702,-0.19231568818122002,0.5343011492386585,-6.240595266748805e-05,0.6934976404892639,-0.0003010106871897955,-0.2671798729156395
804,0.7946,62.2659,1140.14,0.0050348,268.609,0.348336,1.28589,-0.213792,0.527299,-0.31115,0.42848,-6.16765e-05,-0.000298302,0.600279,-0.1924836690474626,0.5349226670529621,-6.16745980437372e-05,0.6943496840734267,-0.0002982575123821052,-0.267396022969429
805,0.7956,62.2769,1140.31,0.00502462,268.653,0.348334,1.286,-0.213999,0.527803,-0.311446,0.428885,-6.09455e-05,-0.000295548,0.600856,-0.19265080762852982,0.5355444366329598,-6.0943642860689096e-05,0.6952038515463219,-0.0002955043299921467,-0.2676128416558814
806,0.7966,62.288,1140.49,0.00501447,268.697,0.348331,1.2861,-0.214207,0.528306,-0.311742,0.429289,-6.02149e-05,-0.000292796,0.601432,-0.19281871879717616,0.5361649219149469,-6.021308711934292e-05,0.6960567535705262,-0.0002927531394344429,-0.2678295961735
807,0.7976,62.299,1140.66,0.00500434,268.741,0.348328,1.28621,-0.214414,0.528809,-0.312037,0.429693,-5.94847e-05,-0.000290046,0.602008,-0.192985788030123,0.5367856579236314,-5.948293082036482e-05,0.6969100847123626,-0.0002900039407254251,-0.2680455545871967
808,0.7986,62.31,1140.83,0.00499424,268.785,0.348325,1.28631,-0.214621,0.529312,-0.312332,0.430097,-5.87549e-05,-0.000287297,0.602584,-0.19315282268331768,0.5374066447603274,-5.875317396464297e-05,0.6977638451877317,-0.0002872557341688786,-0.26826144930255724
809,0.7996,62.321,1141.01,0.00498417,268.828,0.348323,1.28642,-0.214829,0.529814,-0.312627,0.430501,-5.80255e-05,-0.000284549,0.603159,-0.19332062944369155,0.5380278825263898,-5.802381655328759e-05,0.6986163365954567,-0.00028450851977290803,-0.26847728033836993
810,0.8006,62.332,1141.18,0.00497413,268.872,0.34832,1.28653,-0.215036,0.530317,-0.312922,0.430904,-5.72965e-05,-0.000281803,0.603735,-0.19348759479188693,0.5386478326746122,-5.729485858685379e-05,0.6994709555314078,-0.00028176329726414817,-0.2686930477134175
811,0.8016,62.3429,1141.35,0.00496411,268.916,0.348317,1.28663,-0.215242,0.530818,-0.313216,0.431307,-5.65679e-05,-0.000279058,0.604309,-0.19365371923595454,0.5392680327130941,-5.6566300066562825e-05,0.7003226038002066,-0.00027901906693794665,-0.26890802035486305
812,0.8026,62.3539,1141.53,0.00495412,268.96,0.348314,1.28673,-0.215449,0.53132,-0.313511,0.431711,-5.58397e-05,-0.000276314,0.604884,-0.19382061564169883,0.5398900226318137,-5.58381409929698e-05,0.7011763800272177,-0.0002762758288025191,-0.26912366068034654
813,0.8036,62.3648,1141.7,0.00494415,269.003,0.348311,1.28684,-0.215656,0.531821,-0.313805,0.432113,-5.51118e-05,-0.000273572,0.605458,-0.19398747750346246,0.5405091828637802,-5.5110281372616754e-05,0.7020288829277563,-0.000273534582592605,-0.2693385067401882
814,0.8046,62.3757,1141.87,0.00493422,269.047,0.348308,1.28694,-0.215863,0.532322,-0.314099,0.432516,-5.43844e-05,-0.000270832,0.606032,-0.19415430482839546,0.5411301331775586,-5.438292119530619e-05,0.7028818130392556,-0.0002707953283246356,-0.2695532896445726
815,0.8056,62.3866,1142.05,0.0049243,269.09,0.348305,1.28704,-0.216069,0.532823,-0.314393,0.432918,-5.36574e-05,-0.000268092,0.606605,-0.19432029194434086,0.5417497920341812,-5.365596046746912e-05,0.7037351705758017,-0.00026805606655100345,-0.2697680094120646
816,0.8066,62.3975,1142.22,0.00491442,269.133,0.348302,1.28714,-0.216275,0.533324,-0.314687,0.43332,-5.29308e-05,-0.000265355,0.607178,-0.19448624487046207,0.5423697000437404,-5.292939918988271e-05,0.7045889557515883,-0.00026531979647581583,-0.2699826660612238
817,0.8076,62.4084,1142.39,0.00490456,269.177,0.348298,1.28724,-0.216482,0.533824,-0.31498,0.433722,-5.22046e-05,-0.000262618,0.607751,-0.19465296896123518,0.5429898573064162,-5.220323736354615e-05,0.7054414633386001,-0.0002625835189115078,-0.2701965298074991
818,0.8086,62.4193,1142.56,0.00489472,269.22,0.348295,1.28735,-0.216688,0.534324,-0.315274,0.434124,-5.14787e-05,-0.000259883,0.608324,-0.19481885336294913,0.5436102639224283,-5.147737499444638e-05,0.706294397285987,-0.0002598492333383273,-0.27041106049018004
819,0.8096,62.4301,1142.73,0.00488492,269.263,0.348292,1.28745,-0.216894,0.534823,-0.315567,0.434526,-5.07533e-05,-0.00025715,0.608896,-0.19498470359599585,0.5442309199920368,-5.075201207305202e-05,0.7071460506600777,-0.00025711693977259475,-0.27062479873527445
820,0.8106,62.441,1142.9,0.00487514,269.307,0.348289,1.28755,-0.2171,0.535323,-0.31586,0.434927,-5.00283e-05,-0.000254418,0.609468,-0.19515051966741337,0.5448502807644888,-5.002704860546103e-05,0.707999837114234,-0.00025438563848512175,-0.2708384743642367
821,0.8116,62.4518,1143.08,0.00486538,269.35,0.348285,1.28765,-0.217305,0.535822,-0.316153,0.435328,-4.93036e-05,-0.000251687,0.610039,-0.1953154969001374,0.5454698899504145,-4.93023845974383e-05,0.7088523417151624,-0.00025165532948412395,-0.27105208739541076
822,0.8126,62.4626,1143.25,0.00485565,269.393,0.348282,1.28774,-0.217511,0.536321,-0.316446,0.435729,-4.85794e-05,-0.000248958,0.610611,-0.1954812448351525,0.5460897476494471,-4.857822004000756e-05,0.7097052718220416,-0.0002489270125286547,-0.27126563784713487
823,0.8136,62.4734,1143.42,0.00484595,269.436,0.348278,1.28784,-0.217717,0.536819,-0.316738,0.436129,-4.78556e-05,-0.00024623,0.611182,-0.19564695862960968,0.5467083072521799,-4.785445493904472e-05,0.7105569170894797,-0.000246199687881532,-0.2714783972165039
824,0.8146,62.4842,1143.59,0.00483627,269.479,0.348275,1.28794,-0.217922,0.537318,-0.317031,0.43653,-4.71321e-05,-0.000243503,0.611752,-0.19581183410277714,0.547328661656133,-4.713098929998161e-05,0.7114106979917261,-0.00024347335555074956,-0.27169182277774784
825,0.8156,62.4949,1143.76,0.00482662,269.522,0.348271,1.28804,-0.218127,0.537816,-0.317323,0.43693,-4.6409e-05,-0.000240778,0.612323,-0.19597667577993683,0.5479477169235951,-4.640792311905173e-05,0.712263192772908,-0.0002407490153036873,-0.2719044577192845
826,0.8166,62.5057,1143.93,0.00481699,269.564,0.348268,1.28814,-0.218333,0.538313,-0.317615,0.43733,-4.56864e-05,-0.000238054,0.612893,-0.19614228752613072,0.5485670198626948,-4.568535639226656e-05,0.7131143990869642,-0.00023802566739483666,-0.2721170305804823
827,0.8176,62.5164,1144.1,0.00480739,269.607,0.348264,1.28823,-0.218538,0.538811,-0.317907,0.437729,-4.49641e-05,-0.000235332,0.613462,-0.19630706146728183,0.5491850213867253,-4.496308913004565e-05,0.7139677425225888,-0.00023530431159690668,-0.2723295413794662
828,0.8186,62.5271,1144.27,0.00479781,269.65,0.348261,1.28833,-0.218743,0.539308,-0.318199,0.438129,-4.42422e-05,-0.000232611,0.614032,-0.19647180163323708,0.5498048193466081,-4.424122132828945e-05,0.7148197962084246,-0.00023258394815894867,-0.27254199013435565
829,0.8196,62.5379,1144.44,0.00478826,269.693,0.348257,1.28842,-0.218948,0.539805,-0.318491,0.438528,-4.35208e-05,-0.000229892,0.614601,-0.1966365080309197,0.550423314851175,-4.3519852983675555e-05,0.7156722734701924,-0.00022986557685900078,-0.272754376863265
830,0.8206,62.5485,1144.61,0.00477873,269.735,0.348253,1.28852,-0.219152,0.540302,-0.318782,0.438927,-4.27997e-05,-0.000227174,0.61517,-0.19680037746803047,0.5510420571846875,-4.279878410595739e-05,0.7165251745184613,-0.00022714819794078522,-0.272965974550641
831,0.8216,62.5592,1144.77,0.00476923,269.778,0.34825,1.28861,-0.219357,0.540798,-0.319074,0.439326,-4.2079e-05,-0.000224457,0.615738,-0.19696501651457066,0.5516610464456497,-4.207811469125744e-05,0.7173767821862649,-0.0002244318114121846,-0.27317823749417425
832,0.8226,62.5699,1144.94,0.00475976,269.82,0.348246,1.28871,-0.219562,0.541294,-0.319365,0.439725,-4.13587e-05,-0.000221742,0.616306,-0.19712962181356564,0.5522802827326057,-4.1357844740796956e-05,0.7182288123562439,-0.00022171741705978576,-0.27338971185605143
833,0.8236,62.5806,1145.11,0.00475031,269.863,0.348242,1.2888,-0.219766,0.54179,-0.319656,0.440123,-4.06388e-05,-0.000219028,0.616874,-0.19729339066572482,0.5528982132451483,-4.063797425513105e-05,0.7190812652380107,-0.00021900401511876222,-0.2736011246878425
834,0.8246,62.5912,1145.28,0.00474088,269.905,0.348238,1.2889,-0.219971,0.542285,-0.319947,0.440521,-3.99193e-05,-0.000216316,0.617442,-0.19745792865491818,0.5535163897429827,-3.991850323536994e-05,0.7199324211080018,-0.0002162926053810299,-0.27381247600744985
835,0.8256,62.6018,1145.45,0.00473148,269.948,0.348235,1.28899,-0.220175,0.542781,-0.320237,0.440919,-3.92002e-05,-0.000213605,0.618009,-0.1976216305393127,0.5541348123240308,-3.9199431682179764e-05,0.7207857191893017,-0.0002135821880762112,-0.27402303985617393
836,0.8266,62.6125,1145.62,0.00472211,269.99,0.348231,1.28908,-0.220379,0.543276,-0.320528,0.441317,-3.84814e-05,-0.000210895,0.618576,-0.19778529903192876,0.5547534810862527,-3.848065960043723e-05,0.7216377189728502,-0.00021087276321274384,-0.2742342684163297
837,0.8276,62.6231,1145.78,0.00471276,270.032,0.348227,1.28918,-0.220583,0.54377,-0.320818,0.441715,-3.77631e-05,-0.000208187,0.619142,-0.19794893413957781,0.5553723961276484,-3.7762386983164475e-05,0.72248841811141,-0.00020816533059031528,-0.27444470996298986
838,0.8286,62.6336,1145.95,0.00470343,270.074,0.348223,1.28927,-0.220787,0.544265,-0.321108,0.442112,-3.70451e-05,-0.00020548,0.619709,-0.19811253586906952,0.5559900015554768,-3.704441383878265e-05,0.7233412609395611,-0.00020545889043066534,-0.27465509049044967
839,0.8296,62.6442,1146.12,0.00469413,270.116,0.348219,1.28936,-0.220991,0.544759,-0.321398,0.442509,-3.63276e-05,-0.000202775,0.620274,-0.19827610422721242,0.5566078522213367,-3.632694016075799e-05,0.7241928018357493,-0.00020275444253925468,-0.2748654100164022
840,0.8306,62.6548,1146.28,0.00468485,270.158,0.348215,1.28945,-0.221194,0.545253,-0.321688,0.442906,-3.56104e-05,-0.000200071,0.62084,-0.1984388376600521,0.5572259482226067,-3.5609765957178574e-05,0.7250447634970607,-0.00020005098713216096,-0.27507566855853527
841,0.8316,62.6653,1146.45,0.0046756,270.2,0.348211,1.28954,-0.221398,0.545747,-0.321978,0.443303,-3.48936e-05,-0.000197369,0.621406,-0.19860233945941885,0.5578442896567044,-3.489299122538814e-05,0.7258971461314045,-0.00019734952402028494,-0.27528586613453165
842,0.8326,62.6759,1146.62,0.00466637,270.242,0.348207,1.28963,-0.221601,0.54624,-0.322268,0.443699,-3.41773e-05,-0.000194667,0.621971,-0.19876500667322783,0.5584613181589886,-3.417671596273042e-05,0.7267482231977063,-0.0001946480536090256,-0.27549600276206887
843,0.8336,62.6864,1146.78,0.00465717,270.284,0.348203,1.28972,-0.221805,0.546733,-0.322557,0.444095,-3.34613e-05,-0.000191968,0.622535,-0.1989284419409023,0.5590785910529459,-3.3460740176960435e-05,0.7275997199484459,-0.00019194957532253643,-0.2757053541645359
844,0.8346,62.6969,1146.95,0.00464799,270.326,0.348199,1.28981,-0.222008,0.547226,-0.322846,0.444491,-3.27457e-05,-0.000189269,0.6231,-0.19909104296262625,0.5596961084353749,-3.274516386542192e-05,0.7284516365905778,-0.00018925108975276217,-0.2759146450731894
845,0.8356,62.7074,1147.11,0.00463884,270.368,0.348195,1.2899,-0.222211,0.547719,-0.323135,0.444887,-3.20304e-05,-0.000186572,0.623664,-0.19925361097969285,0.5603138704031121,-3.202988703221443e-05,0.7293039733311601,-0.00018655459652672235,-0.27612387550550954
846,0.8366,62.7179,1147.28,0.00462971,270.41,0.348191,1.28999,-0.222414,0.548211,-0.323424,0.445283,-3.13156e-05,-0.000183877,0.624228,-0.19941614599880142,0.5609318770530323,-3.1315109671692376e-05,0.7301550002214872,-0.0001838600956605152,-0.2763330454789714
847,0.8376,62.7284,1147.45,0.0046206,270.451,0.348187,1.29008,-0.222617,0.548703,-0.323713,0.445678,-3.06012e-05,-0.000181183,0.624791,-0.1995786480266497,0.5615485669327012,-3.0600731788066327e-05,0.7310064459200627,-0.00018116658735145563,-0.2765421550110452
848,0.8386,62.7388,1147.61,0.00461151,270.493,0.348183,1.29017,-0.22282,0.549195,-0.324002,0.446073,-2.98871e-05,-0.00017849,0.625354,-0.19974111706993447,0.5621655004529884,-2.9886653385102768e-05,0.731858310632991,-0.00017847407160764828,-0.27675120411919585
849,0.8396,62.7493,1147.78,0.00460246,270.535,0.348179,1.29026,-0.223023,0.549686,-0.32429,0.446468,-2.91735e-05,-0.000175798,0.625917,-0.1999035531353509,0.562782677710151,-2.91730744576002e-05,0.7327088618567494,-0.00017578254843708674,-0.27695946978071473
850,0.8406,62.7597,1147.94,0.00459342,270.576,0.348175,1.29034,-0.223225,0.550177,-0.324578,0.446863,-2.84602e-05,-0.000173108,0.62648,-0.20006515629514887,0.5634000988004841,-2.8459795012314437e-05,0.7335598308037017,-0.00017309301767465257,-0.2771676754703595
851,0.8416,62.7701,1148.1,0.00458441,270.618,0.348171,1.29043,-0.223428,0.550668,-0.324866,0.447258,-2.77473e-05,-0.00017042,0.627042,-0.20022752658727871,0.5640177638203208,-2.774691504725535e-05,0.7344112176789999,-0.00017040547933666605,-0.2773758212053994
852,0.8426,62.7805,1148.27,0.00457542,270.659,0.348167,1.29052,-0.22363,0.551159,-0.325154,0.447652,-2.70348e-05,-0.000167733,0.627604,-0.20038906431104875,0.5646341082311417,-2.703443456308907e-05,0.7352630226878969,-0.00016771893360678636,-0.2775839070030991
853,0.8436,62.7909,1148.43,0.00456646,270.7,0.348162,1.2906,-0.223832,0.55165,-0.325442,0.448046,-2.63227e-05,-0.000165047,0.628166,-0.20055056940749394,0.5652506955295062,-2.6322353560814804e-05,0.7361152460357472,-0.00016503338049322913,-0.277791932880718
854,0.8446,62.8013,1148.6,0.00455752,270.742,0.348158,1.29069,-0.224034,0.55214,-0.32573,0.44844,-2.5611e-05,-0.000162362,0.628727,-0.20071204188320457,0.5658675258111308,-2.561067204109868e-05,0.7369661509609864,-0.00016234882000376594,-0.27799989885551046
855,0.8456,62.8116,1148.76,0.0045486,270.783,0.348154,1.29078,-0.224237,0.55263,-0.326017,0.448834,-2.48997e-05,-0.000159679,0.629288,-0.20087428087088788,0.5664845991717697,-2.4899390005050925e-05,0.7378174729318066,-0.0001596662519870451,-0.27820708315217024
856,0.8466,62.822,1148.92,0.00453971,270.824,0.34815,1.29086,-0.224439,0.553119,-0.326305,0.449227,-2.41887e-05,-0.000156998,0.629849,-0.2010356879634867,0.5671003486060828,-2.4188407455771888e-05,0.7386674734842675,-0.0001569856764589428,-0.2784149295809001
857,0.8476,62.8323,1149.09,0.00453084,270.865,0.348146,1.29095,-0.22464,0.553609,-0.326592,0.44962,-2.34781e-05,-0.000154318,0.63041,-0.20119626365180876,0.567716340077481,-2.3477824391604507e-05,0.7395196293074013,-0.00015430609358990655,-0.2786219947808328
858,0.8486,62.8427,1149.25,0.00452199,270.907,0.348141,1.29103,-0.224842,0.554098,-0.326879,0.450013,-2.2768e-05,-0.000151639,0.63097,-0.20135760571045458,0.5683325736811031,-2.2767740811002746e-05,0.7403704624178737,-0.00015162750338792996,-0.27882900056158033
859,0.8496,62.853,1149.41,0.00451317,270.948,0.348137,1.29112,-0.225044,0.554587,-0.327166,0.450406,-2.20582e-05,-0.000148961,0.63153,-0.20151891518129605,0.5689490495121261,-2.2057956719723215e-05,0.74122171168748,-0.00014894990586111767,-0.2790359469401933
860,0.8506,62.8633,1149.58,0.00450437,270.989,0.348133,1.2912,-0.225245,0.555075,-0.327452,0.450799,-2.13488e-05,-0.000146285,0.632089,-0.2016793937507081,0.569565767665764,-2.1348572115997833e-05,0.7420716352472649,-0.0001462743008711076,-0.2792421131761914
861,0.8516,62.8736,1149.74,0.00449559,271.03,0.348129,1.29129,-0.225447,0.555564,-0.327739,0.451191,-2.06397e-05,-0.00014361,0.632648,-0.20184063822693,0.5701811580553251,-2.0639487002815926e-05,0.7429237165938107,-0.0001435996885775781,-0.27944894100849615
862,0.8526,62.8838,1149.9,0.00448684,271.07,0.348124,1.29137,-0.225648,0.556052,-0.328025,0.451584,-1.99311e-05,-0.000140937,0.633207,-0.20200105213650843,0.5707983605227818,-1.9930901376974397e-05,0.7437744709346843,-0.0001409270688476072,-0.2796549891450797
863,0.8536,62.8941,1150.06,0.0044781,271.111,0.34812,1.29145,-0.225849,0.556539,-0.328312,0.451975,-1.92228e-05,-0.000138265,0.633766,-0.20216143380613116,0.5714126627700091,-1.9222615243119634e-05,0.7446238959202254,-0.00013825544183543315,-0.2798616984989839
864,0.8546,62.9043,1150.22,0.0044694,271.152,0.348116,1.29154,-0.22605,0.557027,-0.328598,0.452367,-1.8515e-05,-0.000135595,0.634324,-0.202321783242278,0.5720287772843704,-1.8514828598492628e-05,0.745475480151087,-0.00013558580741346304,-0.2800676286038045
865,0.8556,62.9146,1150.39,0.00446071,271.193,0.348112,1.29162,-0.226251,0.557514,-0.328884,0.452759,-1.78075e-05,-0.000132925,0.634882,-0.202482100451427,0.5726451333629645,-1.78073414474067e-05,0.7463257337298623,-0.00013291616586363908,-0.28027349982103655
866,0.8566,62.9248,1150.55,0.00445205,271.234,0.348107,1.2917,-0.226452,0.558001,-0.329169,0.45315,-1.71004e-05,-0.000130258,0.63544,-0.2026423854400553,0.5732601578395591,-1.7100253788981945e-05,0.747176401482974,-0.0001302495167950779,-0.2804785926464717
867,0.8576,62.935,1150.71,0.00444341,271.274,0.348103,1.29179,-0.226653,0.558488,-0.329455,0.453541,-1.63936e-05,-0.000127591,0.635998,-0.2028026382146385,0.5738754228377432,-1.639346562565258e-05,0.7480274836121739,-0.00012758286061453905,-0.28068434634479345
868,0.8586,62.9452,1150.87,0.00443479,271.315,0.348099,1.29187,-0.226854,0.558974,-0.329741,0.453932,-1.56873e-05,-0.000124926,0.636555,-0.20296285878165088,0.5744909284515785,-1.5687176954992665e-05,0.7488772314412062,-0.00012491819707216578,-0.2808900412059716
869,0.8596,62.9554,1151.03,0.0044262,271.355,0.348094,1.29195,-0.227054,0.559461,-0.330026,0.454323,-1.49813e-05,-0.000122263,0.637112,-0.20312225027021447,0.5751066747751648,-1.498118778087143e-05,0.7497291420763206,-0.00012225552618405633,-0.2810949583421489
870,0.8606,62.9656,1151.19,0.00441762,271.396,0.34809,1.29203,-0.227255,0.559947,-0.330311,0.454714,-1.42758e-05,-0.0001196,0.637668,-0.20328240660165964,0.5757226619026374,-1.4275698101307022e-05,0.7505797171123614,-0.00011959284820517446,-0.28129981708526397
871,0.8616,62.9757,1151.35,0.00440907,271.436,0.348086,1.29211,-0.227455,0.560432,-0.330596,0.455104,-1.35706e-05,-0.000116939,0.638225,-0.20344173418704958,0.5763373135900678,-1.3570507919835606e-05,0.7514289541985075,-0.00011693216290165065,-0.2815046174519561
872,0.8626,62.9859,1151.51,0.00440055,271.477,0.348081,1.29219,-0.227655,0.560918,-0.330881,0.455494,-1.28657e-05,-0.00011428,0.63878,-0.20360102991010898,0.5769522050384066,-1.2865617237234339e-05,0.752280355544017,-0.00011427347028958312,-0.28170935945886044
873,0.8636,62.996,1151.67,0.00439204,271.517,0.348077,1.29227,-0.227855,0.561403,-0.331166,0.455884,-1.21613e-05,-0.000111622,0.639336,-0.20376029377720928,0.5775673363411788,-1.2161226051743412e-05,0.753130417639851,-0.00011161577049634275,-0.28191404312260715
874,0.8646,63.0061,1151.83,0.00438356,271.557,0.348073,1.29235,-0.228055,0.561888,-0.33145,0.456274,-1.14573e-05,-0.000108965,0.639892,-0.2039195257947214,0.5781827075919461,-1.1457234365352953e-05,0.7539808921157958,-0.00010895906353003415,-0.28211795057813116
875,0.8656,63.0163,1151.99,0.0043751,271.598,0.348068,1.29243,-0.228255,0.562372,-0.331734,0.456663,-1.07536e-05,-0.00010631,0.640447,-0.20407872596901433,0.5787967400867764,-1.0753542180275133e-05,0.754830024341002,-0.00010630434929215227,-0.28232180013216013
876,0.8666,63.0264,1152.15,0.00436666,271.638,0.348064,1.29251,-0.228455,0.562857,-0.332019,0.457052,-1.00503e-05,-0.000103656,0.641001,-0.20423789430645622,0.5794110114867115,-1.0050249495852093e-05,0.7556813233261241,-0.00010365062790240742,-0.2825263092751853
877,0.8676,63.0364,1152.31,0.00435824,271.678,0.34806,1.29259,-0.228655,0.563341,-0.332303,0.457441,-9.34737e-06,-0.000101003,0.641556,-0.20439703081341376,0.5800255218847032,-9.34732631352464e-06,0.7565312787592364,-0.0001009978993686822,-0.282730042871811
878,0.8686,63.0465,1152.47,0.00434985,271.718,0.348056,1.29267,-0.228854,0.563825,-0.332587,0.45783,-8.64484e-06,-9.83516e-05,0.64211,-0.20455534005199028,0.58064027137374,-8.644802633517301e-06,0.7573816456703482,-9.834676363995598e-05,-0.2829337186163108
879,0.8696,63.0566,1152.63,0.00434148,271.758,0.348051,1.29275,-0.229054,0.564308,-0.33287,0.458219,-7.94268e-06,-9.57017e-05,0.642664,-0.20471441307614713,0.5812552600468461,-7.94264845704884e-06,0.7582306660271174,-9.569712073842496e-05,-0.28313661966209025
880,0.8706,63.0666,1152.78,0.00433313,271.798,0.348047,1.29283,-0.229253,0.564792,-0.333154,0.458607,-7.24091e-06,-9.30532e-05,0.643218,-0.2048726591619373,0.5818689061273856,-7.240883784676022e-06,0.7590818556407446,-9.304887068528611e-05,-0.28334017995517635
881,0.8716,63.0767,1152.94,0.0043248,271.838,0.348043,1.29291,-0.229453,0.565275,-0.333438,0.458996,-6.53951e-06,-9.0406e-05,0.643771,-0.2050316687286181,0.5824843728323823,-6.539488617396394e-06,0.7599316973972818,-9.040191350073723e-05,-0.28354368244534767
882,0.8726,63.0867,1153.1,0.00431649,271.878,0.348038,1.29299,-0.229652,0.565758,-0.333721,0.459384,-5.83849e-06,-8.77602e-05,0.644324,-0.2051898516868148,0.5830984959012122,-5.838472956098961e-06,0.7607819497265327,-8.77563491863409e-05,-0.2837464108957869
883,0.8736,63.0967,1153.26,0.00430821,271.918,0.348034,1.29307,-0.229851,0.56624,-0.334004,0.459771,-5.13785e-06,-8.51158e-05,0.644876,-0.20534800316973467,0.5837112735839596,-5.137836801227813e-06,0.7616308511951198,-8.511217775308833e-05,-0.28394908198219204
884,0.8746,63.1067,1153.42,0.00429994,271.958,0.34803,1.29314,-0.23005,0.566723,-0.334287,0.460159,-4.43758e-06,-8.24727e-05,0.645429,-0.2055061231836407,0.5843258727826444,-4.437570154003367e-06,0.7624819244138838,-8.246929922040014e-05,-0.2841516957207948
885,0.8756,63.1167,1153.57,0.0042917,271.997,0.348025,1.29322,-0.230249,0.567205,-0.33457,0.460546,-3.73769e-06,-7.9831e-05,0.645981,-0.20566421173479466,0.5849391255521683,-3.737683014870541e-06,0.7633316454677743,-7.982781359050506e-05,-0.2843542521278223
886,0.8766,63.1267,1153.73,0.00428348,272.037,0.348021,1.2933,-0.230447,0.567686,-0.334853,0.460934,-3.03818e-06,-7.71907e-05,0.646533,-0.2058214746513286,0.5855542012498516,-3.038175384717512e-06,0.7641800120050402,-7.718772087461634e-05,-0.2845567512194972
887,0.8776,63.1366,1153.89,0.00427528,272.077,0.348017,1.29338,-0.230646,0.568168,-0.335135,0.461321,-2.33905e-06,-7.45517e-05,0.647084,-0.2059795004537841,0.5861679294744868,-2.339047264432459e-06,0.7650305517344345,-7.454892109104438e-05,-0.2847584777708727
888,0.8786,63.1466,1154.05,0.0042671,272.116,0.348012,1.29345,-0.230845,0.568649,-0.335418,0.461707,-1.64029e-06,-7.19141e-05,0.647636,-0.20613749481223376,0.586780308476808,-1.6402886546806883e-06,0.7658797356421763,-7.191151424312814e-05,-0.284960862482876
889,0.8796,63.1565,1154.2,0.00425895,272.156,0.348008,1.29353,-0.231043,0.56913,-0.3357,0.462094,-9.41906e-07,-6.92779e-05,0.648187,-0.20629466402799512,0.5873945112967685,-9.419055564396928e-07,0.7667293281056276,-6.927550034174779e-05,-0.28516247509094206
890,0.8806,63.1665,1154.36,0.00425081,272.195,0.348004,1.29361,-0.231241,0.569611,-0.335982,0.46248,-2.43898e-07,-6.6643e-05,0.648737,-0.20645180212733238,0.5880073638510628,-2.438979702645838e-07,0.7675793293213504,-6.664077940465862e-05,-0.28536403085226836
891,0.8816,63.1764,1154.52,0.0042427,272.235,0.348,1.29368,-0.23144,0.570092,-0.336264,0.462867,4.53734e-07,-6.40094e-05,0.649288,-0.2066097025071002,0.5886220416333523,4.537341029564601e-07,0.7684297394860027,-6.40073514420747e-05,-0.2855655297828834
892,0.8826,63.1863,1154.67,0.00423461,272.274,0.347995,1.29376,-0.231638,0.570572,-0.336546,0.463253,1.15099e-06,-6.13773e-05,0.649838,-0.20676677823499356,0.5892353681058167,1.1509906623352606e-06,0.7692787895166615,-6.137541645201416e-05,-0.2857669718988114
893,0.8836,63.1962,1154.83,0.00422653,272.314,0.347991,1.29384,-0.231836,0.571052,-0.336827,0.463638,1.84787e-06,-5.87464e-05,0.650387,-0.20692382286497157,0.5898473415198604,1.8478717072056838e-06,0.7701282471891615,-5.8744674463984126e-05,-0.28596764318407175
894,0.8846,63.206,1154.98,0.00421848,272.353,0.347987,1.29391,-0.232034,0.571532,-0.337109,0.464024,2.54438e-06,-5.6117e-05,0.650937,-0.20708083640319108,0.5904611410493752,2.5443832369909103e-06,0.7709781126992172,-5.611542547057091e-05,-0.2861689719200079
895,0.8856,63.2159,1155.14,0.00421045,272.392,0.347983,1.29399,-0.232232,0.572011,-0.33739,0.464409,3.24052e-06,-5.34889e-05,0.651486,-0.2072378188558076,0.591073586476859,3.240525250580717e-06,0.7718266144151378,-5.34874694942955e-05,-0.28636953025913203
896,0.8866,63.2258,1155.29,0.00420245,272.431,0.347978,1.29406,-0.232429,0.57249,-0.337671,0.464794,3.93628e-06,-5.08621e-05,0.652035,-0.20739397762334932,0.591686267741228,3.936287747086098e-06,0.7726755226607362,-5.086080654537195e-05,-0.28657003224928035
897,0.8876,63.2356,1155.45,0.00419446,272.47,0.347974,1.29414,-0.232627,0.572969,-0.337952,0.465179,4.63166e-06,-4.82367e-05,0.652584,-0.20755089808014204,0.5922991849332973,4.631670726062964e-06,0.7735248376307868,-4.82355366291376e-05,-0.2867704779062845
898,0.8886,63.2454,1155.6,0.00418649,272.51,0.34797,1.29421,-0.232825,0.573448,-0.338233,0.465564,5.32668e-06,-4.56127e-05,0.653132,-0.20770778746976004,0.5929123381439156,5.3266941868468365e-06,0.7743745595201579,-4.5611659756583656e-05,-0.286970867245972
899,0.8896,63.2553,1155.76,0.00417854,272.549,0.347966,1.29429,-0.233022,0.573927,-0.338514,0.465949,6.02132e-06,-4.299e-05,0.65368,-0.20786385366260374,0.5935257274639687,6.0213381281037925e-06,0.7752246885238099,-4.298907594324497e-05,-0.2871712002841659
900,0.8906,63.2651,1155.91,0.00417062,272.588,0.347961,1.29436,-0.233219,0.574405,-0.338794,0.466333,6.71559e-06,-4.03687e-05,0.654228,-0.20801988911343572,0.5941377588458194,6.715612549612615e-06,0.7760734487624608,-4.0367885195014e-05,-0.2873707644078052
901,0.8916,63.2749,1156.07,0.00416271,272.627,0.347957,1.29443,-0.233416,0.574883,-0.339075,0.466717,7.40949e-06,-3.77487e-05,0.654775,-0.20817589382831136,0.5947500252928506,7.409517450263081e-06,0.7769226148054851,-3.774798752675945e-05,-0.28757098509068313
902,0.8926,63.2847,1156.22,0.00415483,272.666,0.347953,1.29451,-0.233614,0.575361,-0.339355,0.467101,8.10301e-06,-3.513e-05,0.655322,-0.20833265948102164,0.5953625268953442,8.10304282938823e-06,0.7777721868469039,-3.512938294880641e-05,-0.28777043729024676
903,0.8936,63.2944,1156.38,0.00414696,272.704,0.347949,1.29458,-0.233811,0.575838,-0.339635,0.467485,8.79617e-06,-3.25127e-05,0.655869,-0.20848860258620372,0.5959752637436178,8.796208686323581e-06,0.7786203864595547,-3.25121714679355e-05,-0.28796983365101225
904,0.8946,63.3042,1156.53,0.00413912,272.743,0.347945,1.29466,-0.234007,0.576315,-0.339915,0.467868,9.48895e-06,-2.98968e-05,0.656416,-0.20864372361773909,0.5965866393405848,9.488995020179303e-06,0.7794689907599315,-2.989635309513794e-05,-0.2881691741886123
905,0.8956,63.3139,1156.68,0.0041313,272.782,0.34794,1.29473,-0.234204,0.576792,-0.340195,0.468252,1.01814e-05,-2.72822e-05,0.656962,-0.20879960544932186,0.5971998463383001,1.0181451830737487e-05,0.7803179999411158,-2.7281827844172213e-05,-0.28836845891867535
906,0.8966,63.3237,1156.84,0.00412349,272.821,0.347936,1.2948,-0.234401,0.577269,-0.340475,0.468635,1.08734e-05,-2.46689e-05,0.657508,-0.20895545657520842,0.5978116910402289,1.0873459115545714e-05,0.7811674141962821,-2.466859572514135e-05,-0.2885676878568251
907,0.8976,63.3334,1156.99,0.00411571,272.86,0.347932,1.29488,-0.234598,0.577746,-0.340754,0.469018,1.15651e-05,-2.2057e-05,0.658054,-0.20911127700144716,0.5984237701235595,1.1565166875948663e-05,0.7820172337186966,-2.2056756746158257e-05,-0.28876614978518667
908,0.8986,63.3431,1157.14,0.00410795,272.898,0.347928,1.29495,-0.234794,0.578222,-0.341034,0.469401,1.22564e-05,-1.94465e-05,0.658599,-0.20926627600075676,0.5990360836780777,1.2256475109939657e-05,0.7828656758351507,-1.9446310917992093e-05,-0.2889652673854819
909,0.8996,63.3528,1157.3,0.00410021,272.937,0.347924,1.29502,-0.23499,0.578698,-0.341313,0.469783,1.29473e-05,-1.68372e-05,0.659144,-0.20942124462323952,0.5996470321457705,1.294738381663052e-05,0.7837145219061858,-1.6837058255170234e-05,-0.28916361840462745
910,0.9006,63.3625,1157.45,0.00409248,272.975,0.34792,1.29509,-0.235187,0.579173,-0.341592,0.470166,1.36379e-05,-1.42294e-05,0.659689,-0.20957697329827063,0.600259814299374,1.3637992996473614e-05,0.7845619875612502,-1.4229298762602482e-05,-0.289361914091558
911,0.9016,63.3722,1157.6,0.00408478,273.014,0.347916,1.29517,-0.235383,0.579649,-0.341871,0.470548,1.43281e-05,-1.16228e-05,0.660234,-0.20973188103005047,0.6008712303214618,1.4328202647684307e-05,0.7854116412688692,-1.1622732455474072e-05,-0.2895601544617089
912,0.9026,63.3819,1157.75,0.0040771,273.052,0.347912,1.29524,-0.235579,0.580124,-0.34215,0.47093,1.50179e-05,-9.01761e-06,0.660778,-0.20988675840289028,0.6014828799490857,1.5018012769152378e-05,0.7862599132471173,-9.017569341462917e-06,-0.28975833953051144
913,0.9036,63.3915,1157.91,0.00406944,273.091,0.347908,1.29531,-0.235775,0.580599,-0.342429,0.471311,1.57074e-05,-6.41375e-06,0.661322,-0.21004160542273964,0.6020931611775378,1.5707523361774278e-05,0.7871085882502662,-6.4137294319976945e-06,-0.2899564693133925
914,0.9046,63.4012,1158.06,0.0040618,273.129,0.347903,1.29538,-0.235971,0.581074,-0.342707,0.471693,1.63965e-05,-3.81122e-06,0.661866,-0.21019642209554723,0.6027052776719144,1.6396634423321288e-05,0.7879576664697978,-3.8112127372924576e-06,-0.2901538339799635
915,0.9056,63.4108,1158.21,0.00405417,273.167,0.347899,1.29545,-0.236167,0.581548,-0.342985,0.472074,1.70852e-05,-1.21003e-06,0.662409,-0.2103512084272604,0.6033160247226326,1.708534595290523e-05,0.7888053592910316,-1.2100292678951519e-06,-0.2903511437867833
916,0.9066,63.4204,1158.36,0.00404657,273.206,0.347895,1.29552,-0.236362,0.582022,-0.343264,0.472455,1.77735e-05,1.38982e-06,0.662952,-0.21050517492939524,0.6039270045123111,1.7773657949637922e-05,0.7896534540139062,1.3898209658691485e-06,-0.29054910820034696
917,0.9076,63.43,1158.51,0.00403899,273.244,0.347891,1.2956,-0.236558,0.582496,-0.343542,0.472836,1.84615e-05,3.98834e-06,0.663495,-0.21065990075148322,0.6045382171296401,1.8461670414637865e-05,0.7905019508289675,3.988347953454152e-06,-0.29074630813620606
918,0.9086,63.4396,1158.66,0.00403142,273.282,0.347887,1.29567,-0.236753,0.58297,-0.34382,0.473217,1.91491e-05,6.58553e-06,0.664038,-0.2108138070644835,0.6051496626633441,1.914928334523225e-05,0.7913508499268527,6.585551684645807e-06,-0.29094345325810256
919,0.9096,63.4492,1158.82,0.00402388,273.32,0.347883,1.29574,-0.236949,0.583444,-0.344097,0.473598,1.98364e-05,9.18138e-06,0.66458,-0.2109684724006008,0.6057613412021812,1.9836596742761614e-05,0.7922001514982888,9.18142214900719e-06,-0.29113983472146177
920,0.9106,63.4588,1158.97,0.00401635,273.358,0.347879,1.29581,-0.237144,0.583917,-0.344375,0.473978,2.05233e-05,1.17759e-05,0.665122,-0.2111223185479958,0.6063716464624935,2.0523510604331108e-05,0.7930480626851348,1.1775969336103032e-05,-0.2913368704581728
921,0.9116,63.4684,1159.12,0.00400885,273.396,0.347875,1.29588,-0.237339,0.58439,-0.344652,0.474358,2.12098e-05,1.43691e-05,0.665664,-0.21127613469831685,0.6069821836828744,2.121002492949664e-05,0.7938963750288381,1.4369203235942152e-05,-0.2915331429600594
922,0.9126,63.4779,1159.27,0.00400136,273.434,0.347872,1.29595,-0.237534,0.584863,-0.34493,0.474738,2.1896e-05,1.69609e-05,0.666205,-0.21142992085741286,0.6075929529514852,2.1896239719154664e-05,0.7947450887191911,1.6961043836971612e-05,-0.29173006937227697
923,0.9136,63.4875,1159.42,0.0039939,273.472,0.347868,1.29602,-0.237729,0.585335,-0.345207,0.475118,2.25818e-05,1.95515e-05,0.666747,-0.21158367703113157,0.6082039543565214,2.2582054970854415e-05,0.7955924083527695,1.955169113188049e-05,-0.2919262329731478
924,0.9146,63.497,1159.57,0.00398645,273.51,0.347864,1.29609,-0.237924,0.585807,-0.345484,0.475497,2.32672e-05,2.21407e-05,0.667287,-0.21173740322531942,0.6088135791718277,2.326747068348567e-05,0.7964401280156139,2.2140945107107513e-05,-0.2921223422442263
925,0.9156,63.5065,1159.72,0.00397902,273.548,0.34786,1.29616,-0.238119,0.586279,-0.345761,0.475877,2.39523e-05,2.47286e-05,0.667828,-0.21189109944582196,0.6094250445029679,2.3952586858611014e-05,0.7972882478965837,2.4728905754445307e-05,-0.2923183972005595
926,0.9166,63.516,1159.87,0.00397161,273.586,0.347856,1.29623,-0.238314,0.586751,-0.346038,0.476256,2.4637e-05,2.73151e-05,0.668368,-0.2120447656984834,0.6100351321991502,2.4637303493335594e-05,0.7981367681846259,2.7315473060784967e-05,-0.2925143978571908
927,0.9176,63.5255,1160.02,0.00396422,273.624,0.347852,1.2963,-0.238508,0.587223,-0.346314,0.476635,2.53213e-05,2.99003e-05,0.668908,-0.2121976141871551,0.6106454511623916,2.5321620586771232e-05,0.7989856890687772,2.9900747018363205e-05,-0.29270963693914953
928,0.9186,63.535,1160.17,0.00395685,273.661,0.347848,1.29637,-0.238703,0.587694,-0.346591,0.477014,2.60053e-05,3.24842e-05,0.669448,-0.21235122067526935,0.6112560014803592,2.6005638140702558e-05,0.7998332109040529,3.248472761741006e-05,-0.29290552923738156
929,0.9196,63.5445,1160.32,0.0039495,273.699,0.347844,1.29644,-0.238897,0.588165,-0.346867,0.477392,2.66889e-05,3.50668e-05,0.669988,-0.212504009717442,0.6118651713747754,2.668925615179063e-05,0.8006811320161353,3.506741484748943e-05,-0.29310066038197535
930,0.9206,63.5539,1160.47,0.00394217,273.737,0.347841,1.29651,-0.239091,0.588636,-0.347143,0.477771,2.73721e-05,3.76481e-05,0.670527,-0.2126567691214155,0.6124761840543154,2.7372474619369314e-05,0.801529452593128,3.7648808698609315e-05,-0.2932957376778048
931,0.9216,63.5634,1160.61,0.00393485,273.774,0.347837,1.29658,-0.239286,0.589106,-0.347419,0.478149,2.8055e-05,4.0228e-05,0.671066,-0.21281028608304664,0.6130858152649277,2.805539354522324e-05,0.8023763704459519,4.022880915677263e-05,-0.29349076113972994
932,0.9226,63.5728,1160.76,0.00392756,273.812,0.347833,1.29665,-0.23948,0.589576,-0.347695,0.478527,2.87376e-05,4.28066e-05,0.671604,-0.2129629860751684,0.6136956769596966,2.8738012928686274e-05,0.8032236864437232,4.280751621554835e-05,-0.29368573078260696
933,0.9236,63.5823,1160.91,0.00392028,273.849,0.347829,1.29671,-0.239674,0.590046,-0.347971,0.478904,2.94197e-05,4.53839e-05,0.672143,-0.213115656446365,0.6143041549207993,2.942013276352462e-05,0.8040714007736143,4.538492986472242e-05,-0.2938806466212879
934,0.9246,63.5917,1161.06,0.00391303,273.887,0.347825,1.29678,-0.239868,0.590516,-0.348246,0.479282,3.01015e-05,4.79599e-05,0.672681,-0.21326829720238238,0.6149144772350095,3.0101953054639807e-05,0.804919513622885,4.796105009430285e-05,-0.29407480274577635
935,0.9256,63.6011,1161.21,0.00390579,273.924,0.347822,1.29685,-0.240061,0.590986,-0.348522,0.479659,3.0783e-05,5.05346e-05,0.673219,-0.21342012176948022,0.6155234147704403,3.07834738013657e-05,0.8057680251788839,5.0535876894297616e-05,-0.29426961121541306
936,0.9266,63.6105,1161.36,0.00389857,273.962,0.347818,1.29692,-0.240255,0.591455,-0.348797,0.480037,3.1464e-05,5.31079e-05,0.673756,-0.21357270346495394,0.616134198051991,3.146449499680237e-05,0.8066151290130144,5.310931024937737e-05,-0.2944636603893446
937,0.9276,63.6199,1161.5,0.00389137,273.999,0.347814,1.29699,-0.240449,0.591924,-0.349072,0.480414,3.21448e-05,5.56799e-05,0.674293,-0.21372525556244992,0.6167435955088596,3.214531664963438e-05,0.8074626302320225,5.568145015444337e-05,-0.29465765620708995
938,0.9286,63.6293,1161.65,0.00388418,274.036,0.347811,1.29706,-0.240642,0.592393,-0.349347,0.48079,3.28251e-05,5.82507e-05,0.67483,-0.21387699194509435,0.6173516053994672,3.282563874940081e-05,0.8083105290223256,5.8252396605062984e-05,-0.2948515986833202
939,0.9296,63.6386,1161.8,0.00387702,274.074,0.347807,1.29712,-0.240835,0.592861,-0.349622,0.481167,3.35051e-05,6.08201e-05,0.675367,-0.21402869904544286,0.617961461905431,3.350566130211341e-05,0.8091570164125073,6.0821949579681345e-05,-0.29504548783270235
940,0.9306,63.648,1161.95,0.00386987,274.111,0.347803,1.29719,-0.241029,0.59333,-0.349897,0.481544,3.41848e-05,6.33882e-05,0.675904,-0.2141811626883765,0.6185715483706422,3.4185384306884004e-05,0.8100057100563076,6.339020907430992e-05,-0.29523932366989925
941,0.9316,63.6573,1162.09,0.00386275,274.148,0.3478,1.29726,-0.241222,0.593798,-0.350171,0.48192,3.4864e-05,6.59549e-05,0.67644,-0.21433281108943625,0.6191802457007562,3.486460775636857e-05,0.8108529909768849,6.59570750722871e-05,-0.29543240164232354
942,0.9326,63.6667,1162.24,0.00385564,274.185,0.347796,1.29733,-0.241415,0.594266,-0.350446,0.482296,3.5543e-05,6.85204e-05,0.676976,-0.2144844302251787,0.6197891719440995,3.554363165991781e-05,0.8117006685177346,6.852274757629395e-05,-0.2956261310928515
943,0.9336,63.676,1162.39,0.00384855,274.222,0.347793,1.2974,-0.241608,0.594733,-0.35072,0.482672,3.62215e-05,7.10846e-05,0.677511,-0.2146360201012517,0.6203983271867595,3.622215600640466e-05,0.8125469303166823,7.108712657011296e-05,-0.2958191030945605
944,0.9346,63.6853,1162.53,0.00384147,274.259,0.347789,1.29746,-0.241801,0.595201,-0.350994,0.483047,3.68997e-05,7.36474e-05,0.678046,-0.21478758072330162,0.6210060905079551,3.690038080228497e-05,0.813395400806679,7.365011203641636e-05,-0.2960120222291842
945,0.9356,63.6946,1162.68,0.00383442,274.296,0.347785,1.29753,-0.241994,0.595668,-0.351268,0.483423,3.75776e-05,7.6209e-05,0.678581,-0.21493911209697414,0.6216157033980272,3.757830604689261e-05,0.8142424542304358,7.62119039796616e-05,-0.2962048885112062
946,0.9366,63.7039,1162.83,0.00382738,274.333,0.347782,1.2976,-0.242186,0.596135,-0.351542,0.483798,3.82551e-05,7.87692e-05,0.679116,-0.21508982931813536,0.6222239233209095,3.82558317357784e-05,0.8150899033205223,7.877230237496313e-05,-0.29639770195510595
947,0.9376,63.7132,1162.97,0.00382036,274.37,0.347778,1.29766,-0.242379,0.596601,-0.351816,0.484173,3.89322e-05,8.13282e-05,0.679651,-0.21524130236345784,0.6228323713690336,3.893295786783213e-05,0.8159359323249178,8.133150722766658e-05,-0.29659046257535937
948,0.9386,63.7224,1163.12,0.00381336,274.407,0.347775,1.29773,-0.242571,0.597068,-0.352089,0.484548,3.9609e-05,8.38858e-05,0.680185,-0.21539196156965745,0.6234410476279626,3.9609784446836827e-05,0.8167841724539677,8.388931851199821e-05,-0.2967824671692567
949,0.9396,63.7317,1163.27,0.00380638,274.444,0.347771,1.2978,-0.242764,0.597534,-0.352363,0.484923,4.02854e-05,8.64421e-05,0.680719,-0.21554337630908216,0.6240499521832916,4.028621146767719e-05,0.8176309911717681,8.644583622596791e-05,-0.2969751223782834
950,0.9406,63.7409,1163.41,0.00379942,274.48,0.347768,1.29786,-0.242956,0.598,-0.352636,0.485297,4.09615e-05,8.89972e-05,0.681252,-0.21569397752265163,0.6246574604623749,4.0962338933692166e-05,0.8184782045990513,8.900116036825167e-05,-0.2971670219743874
951,0.9416,63.7502,1163.56,0.00379247,274.517,0.347765,1.29793,-0.243148,0.598465,-0.352909,0.485671,4.16372e-05,9.15509e-05,0.681786,-0.21584454982356382,0.6252651959920481,4.163806684021054e-05,0.8193239935948913,9.155509091152148e-05,-0.29735886918905197
952,0.9426,63.7594,1163.7,0.00378554,274.554,0.347761,1.298,-0.24334,0.598931,-0.353182,0.486046,4.23125e-05,9.41033e-05,0.682319,-0.21599509321736943,0.62587478473129,4.231339518634414e-05,0.820171996145155,9.410772785445332e-05,-0.2975506640365756
953,0.9436,63.7686,1163.85,0.00377863,274.59,0.347758,1.29806,-0.243532,0.599396,-0.353455,0.486419,4.29875e-05,9.66544e-05,0.682852,-0.2161456077096181,0.6264813491432251,4.298842397587599e-05,0.8210185729372124,9.665907118705519e-05,-0.29774240653125217
954,0.9446,63.7778,1163.99,0.00377174,274.627,0.347754,1.29813,-0.243724,0.599861,-0.353728,0.486793,4.36622e-05,9.92043e-05,0.683384,-0.2162960933058583,0.6270897669348396,4.366315320769587e-05,0.8218655434790179,9.920922090933537e-05,-0.29793409668737225
955,0.9456,63.787,1164.14,0.00376486,274.664,0.347751,1.2982,-0.243916,0.600326,-0.354,0.487167,4.43365e-05,0.000101753,0.683917,-0.2164465500116376,0.6276984123172653,4.433748287713257e-05,0.8227129079537074,0.00010175817701219003,-0.298125032644606
956,0.9466,63.7962,1164.28,0.003758,274.7,0.347748,1.29826,-0.244108,0.60079,-0.354273,0.48754,4.50104e-05,0.0001043,0.684449,-0.21659697783250242,0.6283056570691654,4.5011412983297916e-05,0.823558842984748,0.00010430543943407145,-0.29831661835805423
957,0.9476,63.8054,1164.43,0.00375116,274.737,0.347744,1.29833,-0.2443,0.601254,-0.354545,0.487913,4.5684e-05,0.000106846,0.68498,-0.21674737677399825,0.628913128365606,4.568504352975289e-05,0.82440517062072,0.00010685170823721002,-0.2985074502835424
958,0.9486,63.8145,1164.57,0.00374434,274.773,0.347741,1.29839,-0.244491,0.601718,-0.354817,0.488286,4.63572e-05,0.000109391,0.685512,-0.21689696373902445,0.6295208262911036,4.6358274511604236e-05,0.8252518910438351,0.00010939698341361215,-0.29869823030980547
959,0.9496,63.8237,1164.71,0.00373754,274.809,0.347738,1.29846,-0.244682,0.602182,-0.355089,0.488659,4.70301e-05,0.000111934,0.686043,-0.21704652213566877,0.6301287509302071,4.7031205932412945e-05,0.8260990044363881,0.00011194026484395714,-0.2988889584509581
960,0.9506,63.8328,1164.86,0.00373075,274.846,0.347735,1.29852,-0.244874,0.602646,-0.355361,0.489031,4.77026e-05,0.000114476,0.686574,-0.21719683477294383,0.6307352716314092,4.7703737787063716e-05,0.8269465109807597,0.00011448255262735962,-0.2990796347211111
961,0.9516,63.842,1165.0,0.00372398,274.882,0.347731,1.29859,-0.245065,0.603109,-0.355633,0.489404,4.83748e-05,0.000117017,0.687105,-0.21734633589969,0.6313436493431175,4.8375970079561625e-05,0.827792583065917,0.00011702384675627009,-0.29927025913437155
962,0.9526,63.8511,1165.15,0.00371722,274.918,0.347728,1.29865,-0.245256,0.603572,-0.355904,0.489776,4.90466e-05,0.000119556,0.687635,-0.21749580847444794,0.6319506220706008,4.904780280412524e-05,0.8286390469731497,0.00011956314710337423,-0.2994601311653239
963,0.9536,63.8602,1165.29,0.00371049,274.954,0.347725,1.29872,-0.245447,0.604035,-0.356176,0.490148,4.9718e-05,0.000122095,0.688165,-0.2176452525026703,0.6325578206339415,4.971923596031047e-05,0.8294859028839134,0.00012210245389776553,-0.29965065209762554
964,0.9546,63.8693,1165.43,0.00370377,274.991,0.347722,1.29878,-0.245638,0.604497,-0.356447,0.49052,5.03892e-05,0.000124631,0.688695,-0.21779466798980895,0.6331652451171665,5.039046955701565e-05,0.8303313206475116,0.00012463876676571672,-0.2998404210560518
965,0.9556,63.8784,1165.57,0.00369707,275.027,0.347719,1.29885,-0.245829,0.604959,-0.356718,0.490892,5.10599e-05,0.000127167,0.689224,-0.21794405494131497,0.6337728956043331,5.1061203578894876e-05,0.8311771290843555,0.000127175086065634,-0.30003013859405814
966,0.9566,63.8875,1165.72,0.00369038,275.063,0.347716,1.29891,-0.24602,0.605422,-0.356989,0.491263,5.17303e-05,0.000129701,0.689754,-0.21809341336263788,0.634379137799576,5.173163803506853e-05,0.8320251603992215,0.00012970941153844784,-0.3002198047255775
967,0.9576,63.8965,1165.86,0.00368372,275.099,0.347713,1.29898,-0.24621,0.605883,-0.35726,0.491634,5.24004e-05,0.000132234,0.690283,-0.21824196150157882,0.6349856049524003,5.240177292487047e-05,0.832869918699993,0.00013224274330081442,-0.30040941946453936
968,0.9586,63.9056,1166.0,0.00367707,275.135,0.34771,1.29904,-0.246401,0.606345,-0.357531,0.492005,5.30701e-05,0.000134766,0.690812,-0.21839126302818235,0.6355922971462808,5.3071508242741317e-05,0.833716900240103,0.00013477508134540628,-0.30059898282486897
969,0.9596,63.9146,1166.15,0.00367043,275.171,0.347707,1.29911,-0.246591,0.606806,-0.357802,0.492376,5.37395e-05,0.000137297,0.69134,-0.21853975458106278,0.6361992144647233,5.374094399268614e-05,0.8345624386127339,0.00013730642566445184,-0.3007884948204882
970,0.9606,63.9237,1166.29,0.00366382,275.207,0.347704,1.29917,-0.246782,0.607268,-0.358072,0.492747,5.44085e-05,0.000139826,0.691868,-0.2186889992346197,0.6368063569912643,5.44099801693676e-05,0.8354102022777006,0.00013983577611087483,-0.30097725644292084
971,0.9616,63.9327,1166.43,0.00365722,275.243,0.347701,1.29924,-0.246972,0.607729,-0.358343,0.493117,5.50771e-05,0.000142354,0.692396,-0.21883743422299462,0.6374120873965659,5.507861677123138e-05,0.8362565214425297,0.00014236413281154547,-0.30116666594027874
972,0.9626,63.9417,1166.57,0.00365063,275.279,0.347698,1.2993,-0.247162,0.608189,-0.358613,0.493488,5.57454e-05,0.00014488,0.692924,-0.21898584101140095,0.6380196799824454,5.574695380361483e-05,0.8371013937481255,0.00014489049561405842,-0.3013553254702922
973,0.9636,63.9507,1166.71,0.00364407,275.314,0.347695,1.29937,-0.247352,0.60865,-0.358883,0.493858,5.64134e-05,0.000147406,0.693451,-0.21913421960519597,0.6386258594003158,5.641499126585181e-05,0.8379484927319572,0.00014741686479835536,-0.3015439340691086
974,0.9646,63.9597,1166.86,0.00363752,275.35,0.347692,1.29943,-0.247542,0.60911,-0.359153,0.494228,5.7081e-05,0.00014993,0.693978,-0.21928257000973628,0.6392322631460687,5.708262915127271e-05,0.8387941435233843,0.00014994124006428855,-0.30173249175047745
975,0.9656,63.9687,1167.0,0.00363098,275.386,0.347689,1.29949,-0.247732,0.60957,-0.359422,0.494597,5.77483e-05,0.000152453,0.694505,-0.21943089223037726,0.6398372514646498,5.774996746521488e-05,0.8396401834036589,0.0001524646215491643,-0.30192030044879414
976,0.9666,63.9777,1167.14,0.00362447,275.422,0.347686,1.29956,-0.247922,0.61003,-0.359692,0.494967,5.84152e-05,0.000154974,0.695032,-0.21957918627247341,0.6404441035083965,5.84169062010087e-05,0.8404866125518033,0.00015498600909058524,-0.30210875652495783
977,0.9676,63.9867,1167.28,0.00361797,275.457,0.347683,1.29962,-0.248112,0.610489,-0.359962,0.495336,5.90818e-05,0.000157495,0.695558,-0.219727452141378,0.6410495390785842,5.908354536399152e-05,0.8413315898144111,0.00015750740298869914,-0.30229716172484955
978,0.9686,63.9956,1167.42,0.00361149,275.493,0.34768,1.29968,-0.248301,0.610948,-0.360231,0.495706,5.9748e-05,0.000160014,0.696084,-0.21987490971774337,0.6416568397517395,5.974978494727168e-05,0.8421769550106069,0.00016002680292293014,-0.3024848185473714
979,0.9696,64.0046,1167.56,0.00360502,275.528,0.347677,1.29975,-0.248491,0.611407,-0.3605,0.496075,6.04138e-05,0.000162531,0.69661,-0.2200231194045309,0.6422627229041746,6.041562495040509e-05,0.8430227083184922,0.0001625442088786233,-0.30267242489699675
980,0.9706,64.0135,1167.7,0.00359857,275.564,0.347675,1.29981,-0.24868,0.611866,-0.360769,0.496443,6.10794e-05,0.000165048,0.697136,-0.22017052110506397,0.642867186800739,6.108126538451053e-05,0.8438688499162514,0.00016506162117058132,-0.30285998078730125
981,0.9716,64.0224,1167.84,0.00359214,275.599,0.347672,1.29988,-0.24887,0.612325,-0.361038,0.496812,6.17446e-05,0.000167563,0.697661,-0.2203186746310234,0.6434735166536463,6.174650623713696e-05,0.844715379982151,0.00016757703946357339,-0.3030474862318565
982,0.9726,64.0313,1167.98,0.00358572,275.635,0.347669,1.29994,-0.249059,0.612783,-0.361307,0.49718,6.24094e-05,0.000170077,0.698186,-0.220466020476897,0.6440784262043056,6.241134750717414e-05,0.845560453133162,0.00017009146391289143,-0.30323494124423067
983,0.9736,64.0402,1168.12,0.00357932,275.67,0.347667,1.3,-0.249248,0.613241,-0.361576,0.497549,6.30739e-05,0.000172589,0.698711,-0.22061333847703735,0.6446852030870249,6.307588920018148e-05,0.8464059134163231,0.00017260389433837453,-0.303422345837988
984,0.9746,64.0491,1168.26,0.00357294,275.706,0.347664,1.30007,-0.249437,0.613699,-0.361844,0.497917,6.3738e-05,0.000175101,0.699235,-0.22076062863670665,0.6452905586203475,6.374003130948935e-05,0.8472517610089807,0.0001751163310748094,-0.30360900363604126
985,0.9756,64.058,1168.4,0.00356657,275.741,0.347661,1.30013,-0.249626,0.614157,-0.362113,0.498285,6.44018e-05,0.000177611,0.699759,-0.22090789096116625,0.645896136965501,6.440387384043511e-05,0.8480979960885635,0.0001776267737674253,-0.3037963076205479
986,0.9766,64.0669,1168.54,0.00356021,275.776,0.347659,1.30019,-0.249815,0.614614,-0.362381,0.498652,6.50653e-05,0.00018012,0.700283,-0.22105512545567663,0.6465002917033806,6.506741679257466e-05,0.848942769888887,0.00018013622258128414,-0.30398286521027185
987,0.9776,64.0758,1168.68,0.00355388,275.811,0.347656,1.30025,-0.250003,0.615071,-0.362649,0.49902,6.57284e-05,0.000182627,0.700807,-0.22120155332743974,0.6471063153122323,6.573056015857226e-05,0.8497879298390656,0.0001826436773257889,-0.30416937280926093
988,0.9786,64.0846,1168.82,0.00354756,275.847,0.347653,1.30032,-0.250192,0.615528,-0.362917,0.499387,6.63912e-05,0.000185134,0.70133,-0.2213487323250075,0.6477109142670741,6.639340394443138e-05,0.8506334761156102,0.00018515113835659847,-0.30435583043091075
989,0.9796,64.0935,1168.96,0.00354126,275.882,0.347651,1.30038,-0.250381,0.615985,-0.363185,0.499754,6.70536e-05,0.000187639,0.701854,-0.22149588350837324,0.6483157351504536,6.705584814281629e-05,0.8514794088951125,0.00018765660529829198,-0.30454223808861336
990,0.9806,64.1023,1169.1,0.00353497,275.917,0.347648,1.30044,-0.250569,0.616441,-0.363453,0.500121,6.77157e-05,0.000190142,0.702376,-0.22164222852541093,0.6489207780438337,6.771799275973045e-05,0.8523238760294425,0.0001901600781357704,-0.3047285957957575
991,0.9816,64.1111,1169.24,0.0035287,275.952,0.347646,1.30051,-0.250758,0.616898,-0.36372,0.500488,6.83774e-05,0.000192645,0.702899,-0.2217893242432365,0.6495260430287071,6.837973778761608e-05,0.8531705814982511,0.00019266355723956963,-0.30491420848028394
992,0.9826,64.1199,1169.38,0.00352244,275.987,0.347643,1.30057,-0.250946,0.617354,-0.363988,0.500855,6.90388e-05,0.000195146,0.703421,-0.22193561409860152,0.650131530186596,6.90411832326987e-05,0.8540158199831427,0.0001951650422193918,-0.30510046651272005
993,0.9836,64.1288,1169.52,0.0035162,276.022,0.347641,1.30063,-0.251134,0.61781,-0.364255,0.501221,6.96998e-05,0.000197646,0.703943,-0.22208187645405875,0.6507355888626389,6.970222908742052e-05,0.8548614439846745,0.00019766553325761826,-0.30528597992101913
994,0.9846,64.1376,1169.65,0.00350998,276.057,0.347638,1.30069,-0.251322,0.618265,-0.364522,0.501587,7.03605e-05,0.000200145,0.704465,-0.2222281113147777,0.6513398686646208,7.036297535800706e-05,0.8557055979721562,0.00020016503034692157,-0.30547144380385005
995,0.9856,64.1463,1169.79,0.00350377,276.092,0.347636,1.30076,-0.25151,0.61872,-0.364789,0.501953,7.10209e-05,0.000202642,0.704987,-0.22237431868592705,0.6519443696734886,7.10234220437922e-05,0.8565501361370962,0.00020266253327694272,-0.30565685817443444
996,0.9866,64.1551,1169.93,0.00349757,276.127,0.347633,1.30082,-0.251698,0.619176,-0.365056,0.502319,7.16809e-05,0.000205139,0.705508,-0.2225204985726742,0.6525490919702188,7.168346913699608e-05,0.8573969160503216,0.0002051600424435307,-0.3058422230459903
997,0.9876,64.1639,1170.07,0.0034914,276.162,0.347631,1.30088,-0.251886,0.61963,-0.365323,0.502685,7.23406e-05,0.000207634,0.706029,-0.2226666509801858,0.6531540356358179,7.234321664428833e-05,0.8582403656987914,0.00020765555743107456,-0.30602753843173214
998,0.9886,64.1726,1170.21,0.00348524,276.197,0.347629,1.30094,-0.252074,0.620085,-0.365589,0.50305,7.3e-05,0.000210127,0.70655,-0.22281277591362736,0.6537575469929473,7.300266456478077e-05,0.8590860574454668,0.00021014907822447526,-0.3062121105573282
999,0.9896,64.1814,1170.34,0.00347909,276.231,0.347626,1.301,-0.252261,0.620539,-0.365856,0.503416,7.3659e-05,0.00021262,0.707071,-0.22295809633664854,0.6543629330340344,7.366171289069356e-05,0.8599302741382358,0.00021264260523423673,-0.30639732719628787
