,Time,S11,S22,S33,S12,S13,S23,LE11,LE22,LE33,LE12,LE13,LE23,SDV_EPBAR,E11,E12,E13,E22,E23,E33
0,1e-05,0.139163,1.93829,-1.11022e-16,0.519362,-1.03613e-17,-5.98201e-18,-2.12914e-06,9.12912e-06,-3e-06,6.49996e-06,-2.31945e-22,-4.74637e-23,0.0,-2.1291377333421124e-06,6.499981124896692e-06,0.0,9.129161670617947e-06,0.0,-2.9999955000192813e-06
1,2e-05,0.278324,3.87655,2.22045e-16,1.03872,-8.75828e-18,-3.26863e-17,-4.25827e-06,1.82581e-05,-5.99996e-06,1.29999e-05,-5.18699e-22,-2.99463e-22,0.0,-4.258260933531766e-06,1.2999984499106887e-05,0.0,1.8258266680115653e-05,0.0,-5.9999420002343484e-06
2,3.5e-05,0.487064,6.78392,-8.88178e-16,1.81775,-2.07224e-17,-1.19634e-17,-7.45192e-06,3.19515e-05,-1.04998e-05,2.27496e-05,-1.63635e-21,4.38469e-22,0.0,-7.451892234500157e-06,2.2749858774151477e-05,0.0,3.19520104545834e-05,0.0,-1.0499744877323636e-05
3,5.75e-05,0.800167,11.1449,-3.9968e-15,2.98626,-5.77883e-17,-1.95474e-17,-1.22423e-05,5.24912e-05,-1.72495e-05,3.73739e-05,8.19342e-27,3.05783e-26,0.0,-1.2242225063352485e-05,3.737459841279822e-05,0.0,5.249257768724647e-05,0.0,-1.7249351228265652e-05
4,9.125e-05,1.26981,17.6861,-2.93099e-14,4.73899,8.81304e-17,-1.28709e-16,-1.94277e-05,8.32998e-05,-2.73738e-05,5.93098e-05,3.05357e-21,-1.69498e-21,0.0,-1.9427511283476306e-05,5.931155886096384e-05,0.0,8.330326952465938e-05,0.0,-2.737342534098186e-05
5,0.00014188,1.97424,27.4976,-1.55431e-13,7.36797,7.58723e-18,-3.70578e-17,-3.02053e-05,0.000129511,-4.25596e-05,9.22122e-05,-3.2728e-21,8.77024e-22,0.0,-3.0204843824543914e-05,9.221645167567516e-05,0.0,0.0001295193869115252,0.0,-4.255869435310089e-05
6,0.00021781,3.03082,42.2139,-7.95808e-13,11.3112,1.68679e-16,-2.2034e-16,-4.63708e-05,0.000198823,-6.53367e-05,0.000141563,-1.39684e-20,2.35554e-22,0.0,-4.636972489102664e-05,0.00014157302051431842,0.0,0.0001988427666026471,0.0,-6.533456560431361e-05
7,0.00033172,4.61555,64.2863,-4.03766e-12,17.2255,-1.88528e-16,1.55137e-17,-7.06166e-05,0.000302781,-9.94992e-05,0.000215581,6.54606e-21,-1.75382e-21,0.0,-7.061410670661239e-05,0.00021560423925381933,0.0,0.00030282684279359096,0.0,-9.949425011879232e-05
8,0.00050258,6.99229,97.3901,-2.04476e-11,26.0956,7.29685e-17,-5.45464e-17,-0.00010698,0.000458697,-0.000150736,0.000326594,7.15986e-26,2.67209e-25,0.0,-0.00010697427784389646,0.00032664733762688414,0.0,0.00045880221755600914,0.0,-0.00015072463989995732
9,0.00075887,10.5567,147.035,-1.03418e-10,39.398,-1.16446e-15,5.57209e-16,-0.000161514,0.00069252,-0.000227574,0.000493077,-2.61882e-20,7.01407e-21,0.0,-0.00016150095731615188,0.0004931985824463414,0.0,0.0006927598473382979,0.0,-0.0002275481070015406
10,0.0011433,15.9015,221.479,-5.23057e-10,59.3451,-1.11309e-15,-2.97066e-16,-0.000243289,0.00104314,-0.000342794,0.000742721,2.76803e-24,1.03304e-23,0.0,-0.00024325940763114673,0.0007429968855396929,0.0,0.0010436842597596474,0.0,-0.00034273525284966855
11,0.00172,23.9149,333.091,-2.64423e-09,89.2515,-5.89991e-16,-4.36785e-16,-0.000365891,0.00156882,-0.000515542,0.00111701,1.57174e-19,-4.2098e-20,0.0,-0.0003658240700513682,0.001117634088019237,0.0,0.0015700512418777013,0.0,-0.0005154091310572984
12,0.0025849,32.9543,463.505,0.0851668,123.545,-0.0290841,-0.0824417,-0.000577888,0.00235253,-0.000818567,0.00170145,-4.16651e-07,-1.13756e-06,0.000198821,-0.0005777210548898459,0.001702898287330834,-4.1665091321529957e-07,0.002355299369949826,-1.1375593529372452e-06,-0.0008182320654283037
13,0.0035849,33.1001,475.338,-0.229464,125.781,-0.149916,-0.546809,-0.000898788,0.00323083,-0.00135322,0.00249727,-4.14358e-06,-9.56542e-06,0.00117026,-0.0008983842110481532,0.0025003907759924004,-4.143571415426983e-06,0.0032360547564957987,-9.565374251563341e-06,-0.0013523048106798274
14,0.0045849,33.843,487.513,0.330919,128.016,-0.137057,-0.698407,-0.0012208,0.00410941,-0.00188356,0.00328842,-6.03128e-06,-1.50883e-05,0.00214097,-0.0012200551268245485,0.0032938327845917215,-6.031261811867417e-06,0.004117865203272286,-1.5088186172129703e-05,-0.0018817872140873826
15,0.0055849,33.7387,498.104,-0.430571,130.354,-0.28514,-1.13545,-0.0015446,0.00498692,-0.00241828,0.00408005,-1.09626e-05,-2.70902e-05,0.0031146,-0.0015434077193645646,0.004088384735525308,-1.0962539910952529e-05,0.00499937538159978,-2.70898330638758e-05,-0.0024153583165449355
16,0.0065849,34.2404,509.11,-0.359302,132.613,-0.364077,-1.37426,-0.00186853,0.0058646,-0.00294948,0.00486715,-1.54978e-05,-3.80682e-05,0.00408742,-0.001866785384610825,0.004879013814406807,-1.5497679909715067e-05,0.005881830433311697,-3.8067475415237695e-05,-0.0029451345571802623
17,0.0075849,34.9515,520.32,0.227305,134.657,-0.305158,-1.44398,-0.00219449,0.00674306,-0.00347764,0.00564796,-1.78135e-05,-4.72341e-05,0.0050599,-0.0021920838672199183,0.005663939796332729,-1.7813341340544575e-05,0.006765845615213539,-4.7232984487499685e-05,-0.0034716000136765235
18,0.0085849,35.0248,530.058,-0.362517,136.905,-0.459723,-1.77605,-0.00252111,0.00761984,-0.00400981,0.00643128,-2.37883e-05,-6.16741e-05,0.00603496,-0.002517934671195543,0.006452005087009827,-2.3788017060599742e-05,0.0076489448586363196,-6.16721981917534e-05,-0.004001781446458241
19,0.0095849,35.4899,540.14,-0.286531,138.983,-0.504522,-1.94547,-0.00284833,0.00849694,-0.004539,0.00720963,-2.85921e-05,-7.49543e-05,0.00700936,-0.002844277356773728,0.0072356819530492444,-2.8591691249801876e-05,0.008533141455904891,-7.495149099667753e-05,-0.004528714307637238
20,0.010585,36.1145,550.321,0.182056,140.897,-0.449959,-1.98794,-0.00317706,0.0093744,-0.0050658,0.00798313,-3.17075e-05,-8.67197e-05,0.00798355,-0.0031720184853563094,0.008015080146431597,-3.170699732257809e-05,0.009418477312802986,-8.671593995546178e-05,-0.00505299047447294
21,0.011585,36.2582,559.32,-0.259764,142.963,-0.565977,-2.23769,-0.00350625,0.0102504,-0.0055956,0.00875846,-3.76354e-05,-0.000102433,0.00895973,-0.003500110283358726,0.008796927534222565,-3.7634691797183706e-05,0.01030311531380268,-0.0001024277539193319,-0.005579973789912818
22,0.012585,36.9977,569.093,0.383088,144.773,-0.486087,-2.21694,-0.00383637,0.0111271,-0.00612055,0.00952712,-4.05134e-05,-0.000114427,0.00993443,-0.003829020534038996,0.00957264747479214,-4.0512579343343624e-05,0.011189236429433036,-0.00011442045348053487,-0.006101857589236759
23,0.013585,36.9026,577.208,-0.421753,146.779,-0.652343,-2.53434,-0.00416702,0.012002,-0.00665063,0.0102992,-4.74489e-05,-0.000132368,0.010912,-0.0041583500190018885,0.010352419308837568,-4.744777431875402e-05,0.012074313012679694,-0.000132359239742863,-0.006628563506096641
24,0.014585,37.347,585.937,-0.310786,148.597,-0.67034,-2.62398,-0.0044978,0.0128771,-0.00717691,0.0110664,-5.25441e-05,-0.00014776,0.0118883,-0.0044877000457786975,0.011127859105602322,-5.254271958299306e-05,0.012960366880321761,-0.00014774908402881426,-0.007151217482464056
25,0.015585,37.9462,594.776,0.17192,150.271,-0.605837,-2.60405,-0.00482969,0.0137523,-0.00770095,0.0118295,-5.61357e-05,-0.000161471,0.0128642,-0.004818045800751847,0.011899745250587346,-5.613412442107002e-05,0.013847297857797258,-0.0001614579642597036,-0.007671373655230407
26,0.016585,38.0747,602.51,-0.233789,152.077,-0.700126,-2.79397,-0.00516185,0.014626,-0.00822796,0.0125946,-6.22141e-05,-0.000178718,0.0138419,-0.005148550545391983,0.012674245993156363,-6.221216474300295e-05,0.014733483315680251,-0.00017870203088954373,-0.008194202984357135
27,0.017585,38.724,610.946,0.340141,153.654,-0.619256,-2.73831,-0.00549468,0.0155003,-0.00875058,0.013354,-6.55422e-05,-0.000192378,0.0148182,-0.005479611856689659,0.013443562888217242,-6.5540052156976e-05,0.01562105274458081,-0.00019235949653917395,-0.008712405106802046
28,0.018585,38.6723,617.951,-0.343112,155.402,-0.755659,-2.98485,-0.00582776,0.0163727,-0.00927764,0.0141164,-7.23285e-05,-0.000211031,0.0157968,-0.005810811546514083,0.01421650686936915,-7.232588435712728e-05,0.016507467148738852,-0.00021100873452473135,-0.0092347354847504
29,0.019585,39.4558,626.182,0.498742,156.847,-0.630461,-2.84932,-0.00616139,0.0172461,-0.00979823,0.0148716,-7.50378e-05,-0.000223955,0.0167729,-0.006142447560519959,0.014982732465725457,-7.503498473471204e-05,0.017395672593401912,-0.0002239299239510384,-0.009750383741495727
30,0.020585,39.2051,632.436,-0.514756,158.553,-0.81742,-3.16604,-0.00649516,0.018117,-0.0103256,0.0156319,-8.2672e-05,-0.000244121,0.0177524,-0.0064741120428915,0.015754717270054952,-8.266858276440026e-05,0.018282108427119637,-0.00024409120489321534,-0.010272474002151255
31,0.021585,39.6215,639.614,-0.328696,160.025,-0.804943,-3.18176,-0.00682888,0.0189884,-0.0108482,0.0163867,-8.76569e-05,-0.000260396,0.0187299,-0.006805616184362928,0.016521698352897074,-8.76530582462065e-05,0.019169826178854432,-0.000260362099904099,-0.010789570478159871
32,0.022585,40.1486,646.862,0.140514,161.383,-0.733609,-3.11761,-0.00716341,0.0198597,-0.0113689,0.0171384,-9.14451e-05,-0.000275169,0.0197069,-0.007137813933426274,0.017286104979785444,-9.144091902424378e-05,0.020058215819148018,-0.0002751311444830762,-0.01130451827051937
33,0.023585,40.2637,653.139,-0.193291,162.86,-0.805132,-3.24926,-0.00749798,0.0207294,-0.0118922,0.017892,-9.73639e-05,-0.000292943,0.0206854,-0.007469940272165854,0.0180530207260563,-9.735916028930092e-05,0.020945746336148874,-0.0002929000963889372,-0.011821767266104954
34,0.024585,40.7833,659.992,0.276521,164.142,-0.730294,-3.17733,-0.00783305,0.0215995,-0.0124119,0.0186408,-0.00010098,-0.000307628,0.0216626,-0.007802451608881156,0.01881562431112549,-0.00010097490169136414,0.02183445780789328,-0.00030758068735847743,-0.012335190069185598
35,0.025585,40.7736,665.707,-0.250811,165.565,-0.833936,-3.35166,-0.0081681,0.0224678,-0.0129351,0.0193922,-0.000107343,-0.000326166,0.0226414,-0.008134831712383384,0.019581450055933036,-0.00010733723894629232,0.022722101982556753,-0.00032611281365291234,-0.012851801140500552
36,0.026585,41.3586,672.333,0.37259,166.742,-0.732647,-3.23384,-0.0085036,0.0233367,-0.0134532,0.0201377,-0.000110538,-0.00034028,0.0236183,-0.008467546660290481,0.020341831423888124,-0.0001105318909003783,0.023611131399865926,-0.00034022211132711533,-0.013363110156291658
37,0.027585,41.2332,677.509,-0.346739,168.119,-0.86792,-3.45013,-0.00883897,0.0242036,-0.0139762,0.0208871,-0.000117371,-0.00035956,0.0245973,-0.008800021145066839,0.021106762176111404,-0.00011736411229368304,0.0244988846307177,-0.0003594953660500666,-0.013878986336299914
38,0.028585,41.9065,683.98,0.482744,169.182,-0.728759,-3.27294,-0.00917485,0.0250714,-0.0144927,0.0216292,-0.000119977,-0.000372861,0.0255737,-0.009132889488925544,0.021864806741969778,-0.00011996980304751492,0.02538833063760415,-0.00037279149597602146,-0.014388186327639385
39,0.029585,41.6503,688.6,-0.466904,170.527,-0.903503,-3.54206,-0.00951044,0.0259367,-0.0150157,0.0223768,-0.000127389,-0.000392996,0.0265529,-0.009465358792734913,0.022629038505728838,-0.00012738088636587985,0.026275983147578064,-0.00039291878718705764,-0.01490352653297966
40,0.030585,41.9845,694.144,-0.270999,171.633,-0.877044,-3.52006,-0.00984603,0.0268025,-0.015534,0.023119,-0.000132085,-0.000409216,0.0275301,-0.009797716541889878,0.023388315510949775,-0.00013207627716049775,0.027164917658007326,-0.00040913228255257117,-0.015413969742392952
41,0.031585,42.3855,699.701,0.103131,172.661,-0.813864,-3.44651,-0.0101821,0.0276678,-0.0160509,0.023859,-0.000135953,-0.000424312,0.0285068,-0.010130437911324841,0.02414590313727838,-0.00013594375880965348,0.0280541081140262,-0.00042422199239422476,-0.015922770750483872
42,0.032585,42.4869,704.528,-0.128375,173.779,-0.860072,-3.52471,-0.0105181,0.0285319,-0.0165698,0.0246002,-0.000141389,-0.000441585,0.0294844,-0.01046297821428721,0.02490528147152893,-0.00014137900504640477,0.028942833587389583,-0.0004414875156936171,-0.01643327596270938
43,0.033585,42.8523,709.735,0.195737,174.753,-0.803228,-3.46054,-0.0108544,0.0293958,-0.017086,0.025338,-0.000145202,-0.000456643,0.0304608,-0.010795703563810322,0.02566173560981566,-0.00014519145869984484,0.02983212137387725,-0.000456538754453506,-0.016940862086407882
44,0.034585,42.8804,714.164,-0.148099,175.825,-0.870093,-3.56498,-0.0111905,0.0302584,-0.0176044,0.0260772,-0.000150865,-0.000474219,0.0314382,-0.01112811926225521,0.026420185053156908,-0.00015085362044819917,0.03072083781006696,-0.00047410657594193495,-0.017450347873376404
45,0.035585,43.2655,719.152,0.242999,176.723,-0.801233,-3.48003,-0.011527,0.0311211,-0.0181194,0.0268123,-0.000154444,-0.000488899,0.0324141,-0.011460818670308681,0.02717498392352491,-0.00015443207413945448,0.03161042434482453,-0.000488779508357795,-0.01795623066822083
46,0.036585,43.2367,723.222,-0.190233,177.749,-0.883729,-3.60383,-0.0118632,0.0319822,-0.0186372,0.0275495,-0.000160294,-0.000506695,0.0333911,-0.011793109681822789,0.027932496506504645,-0.0001602811536032256,0.032499126657094424,-0.0005065666517671819,-0.018464601303464834
47,0.037585,43.6513,728.028,0.290454,178.57,-0.79736,-3.49193,-0.0121997,0.0328436,-0.019151,0.0282819,-0.000163564,-0.000520898,0.0343663,-0.012125585358245039,0.028685630030776954,-0.00016355062413819788,0.03338890457712829,-0.0005207623561900299,-0.01896878465552032
48,0.038585,43.5638,731.747,-0.240224,179.557,-0.897231,-3.63761,-0.0125359,0.0337032,-0.0196683,0.0290173,-0.000169627,-0.000538934,0.0353429,-0.012457652912763795,0.02944240367466433,-0.00016961261415382456,0.03427758758073618,-0.0005387888011572084,-0.01947614086422067
49,0.039585,44.0138,736.399,0.343407,180.3,-0.790567,-3.49565,-0.0128725,0.0345634,-0.0201808,0.029747,-0.000172546,-0.000552594,0.0363173,-0.012790003729013066,0.030193861932827692,-0.00017253111479509364,0.03516765592508464,-0.0005524413480550994,-0.01997853059366328
50,0.040585,43.8639,739.77,-0.29655,181.254,-0.910535,-3.66675,-0.0132086,0.0354215,-0.0206977,0.0304806,-0.000178857,-0.000570903,0.0372934,-0.013121749255801118,0.03094988942692045,-0.00017884100604037556,0.03605631451507274,-0.0005707400658903072,-0.02048497278993755
51,0.041585,44.3549,744.295,0.402508,181.92,-0.780978,-3.49176,-0.0135453,0.0362804,-0.0212088,0.0312077,-0.000181384,-0.000583962,0.038267,-0.013453975229445359,0.03169976567599653,-0.0001813675509168,0.03694656554718678,-0.0005837915273760874,-0.020985475006108034
52,0.042585,44.1381,747.321,-0.359023,182.847,-0.923757,-3.69186,-0.0138813,0.037137,-0.0217253,0.0319395,-0.000187981,-0.000602582,0.0392426,-0.013785399011454813,0.032455039885645354,-0.00018796333267889764,0.03783519452068673,-0.0006024004839279007,-0.021491005443793454
53,0.043585,44.6758,751.744,0.467738,183.435,-0.768758,-3.48086,-0.014218,0.0379946,-0.022235,0.0326639,-0.000190077,-0.000614982,0.0402152,-0.01411740157184016,0.0332032212751201,-0.00019005893651158345,0.038725623744984894,-0.0006147929373285788,-0.021989624394484264
54,0.044585,44.3879,754.428,-0.42744,184.342,-0.936993,-3.71349,-0.0145539,0.0388496,-0.0227511,0.0333942,-0.000196996,-0.00063395,0.0411903,-0.014448503924898826,0.03395804517801748,-0.00019697659756212627,0.03961411392871472,-0.0006337490961553227,-0.022494245320703432
55,0.045585,44.9775,758.773,0.538864,184.852,-0.754094,-3.46357,-0.0148905,0.039706,-0.0232594,0.0341158,-0.000198622,-0.000645637,0.0421619,-0.014780184733465984,0.034704418562548245,-0.00019860227595647206,0.04050482080212792,-0.0006454286212802529,-0.02299098523866161
56,0.046585,44.6147,761.115,-0.501457,185.743,-0.950297,-3.73207,-0.0152262,0.0405595,-0.0237752,0.0348446,-0.000205899,-0.000664991,0.0431365,-0.015110867517240223,0.03545878600090102,-0.00020587780425562752,0.041393270758767864,-0.0006647699424880971,-0.02349479654436981
57,0.047585,45.2611,765.406,0.615489,186.176,-0.737177,-3.44044,-0.0155629,0.0414147,-0.0242819,0.0355636,-0.000207021,-0.000675915,0.0441069,-0.015442423867503274,0.03620354857809782,-0.00020699957263148328,0.04228425121286006,-0.0006756866209142176,-0.023989466395770265
58,0.048585,44.8199,767.408,-0.580582,187.058,-0.963684,-3.74789,-0.0158984,0.0422665,-0.0247975,0.036291,-0.000214687,-0.00069569,0.0450808,-0.015772687529468588,0.036957557239037264,-0.00021466395639513358,0.04317244716699653,-0.0006954480638193816,-0.02449256771623065
59,0.049585,45.0735,770.738,-0.282308,187.611,-0.905437,-3.66721,-0.0162341,0.0431193,-0.0253069,0.0370114,-0.000218479,-0.000710137,0.0460518,-0.016103037185972724,0.03770485060602424,-0.00021845513520124538,0.044062444070681606,-0.0007098849123964301,-0.024989364657312385
60,0.050585,45.3384,774.021,0.0614782,188.136,-0.839528,-3.57108,-0.0165701,0.0439714,-0.0258155,0.0377305,-0.000221852,-0.000723912,0.0470222,-0.01643357103268228,0.03845133252950306,-0.00022182739266485285,0.04495246882046677,-0.0007236500389241618,-0.025485128982892902
61,0.051585,45.3753,776.745,-0.0918968,188.746,-0.865282,-3.60363,-0.0169058,0.0448223,-0.0263256,0.0384505,-0.000226472,-0.000739394,0.0479929,-0.016763698867829246,0.03919928672012141,-0.00022644635715241002,0.045841997272395574,-0.0007391207156154378,-0.025982102254789585
62,0.052585,45.5803,779.749,0.138346,189.256,-0.817916,-3.53644,-0.0172416,0.045673,-0.0268336,0.039168,-0.000229939,-0.000753267,0.0489625,-0.01709381418828504,0.03994517976547396,-0.0002299125660542023,0.046732073599762725,-0.0007529833656353402,-0.02647677768864587
63,0.053585,45.5751,782.243,-0.0837741,189.842,-0.858318,-3.58698,-0.0175772,0.0465224,-0.0273431,0.0398863,-0.00023467,-0.00076879,0.0499324,-0.017423622159370433,0.04069244073474709,-0.00023464246714932635,0.0476215455283282,-0.0007684945566840407,-0.026972661433302347
64,0.054585,45.7773,785.098,0.1577,190.312,-0.809172,-3.51597,-0.0179128,0.0473717,-0.0278502,0.0406017,-0.000238035,-0.000782418,0.050901,-0.01775331946547143,0.04143721848208437,-0.00023800667191709035,0.048511668444137124,-0.0007821119908508756,-0.027465958510644595
65,0.055585,45.7507,787.408,-0.0946951,190.87,-0.855562,-3.57315,-0.0182481,0.0482196,-0.0283588,0.0413182,-0.000242789,-0.000797857,0.0518699,-0.018082611568548512,0.04218367563546788,-0.00024275952913588306,0.04940107849991837,-0.0007975387967362746,-0.027960463560852133
66,0.056585,45.9558,790.136,0.171138,191.3,-0.80116,-3.49427,-0.0185836,0.0490675,-0.028865,0.0420315,-0.000246016,-0.000811191,0.0528373,-0.018411989596113565,0.04292733044425523,-0.0002459857405453514,0.050291243006290065,-0.0008108620735275407,-0.028452385458261342
67,0.057585,45.9104,792.274,-0.107825,191.83,-0.852551,-3.55716,-0.0189187,0.049914,-0.0293728,0.0427462,-0.000250782,-0.000826533,0.0538052,-0.01874086463231006,0.0436729770323927,-0.00025075055682277636,0.05118069094922473,-0.0008261915156890787,-0.028945612096083595
68,0.058585,46.1193,794.885,0.184058,192.223,-0.792574,-3.47008,-0.019254,0.0507605,-0.029878,0.0434574,-0.000253866,-0.000839565,0.0547715,-0.01906982566699944,0.044415501263977086,-0.00025383377875365376,0.052070892128605495,-0.0008392126639152897,-0.029436064874049483
69,0.059585,46.0559,796.86,-0.121217,192.727,-0.849001,-3.53873,-0.0195888,0.0516056,-0.030385,0.0441702,-0.000258645,-0.000854807,0.0557382,-0.01939818611875932,0.04516022602164993,-0.00025861155426554205,0.05296037303676249,-0.0008544417565746754,-0.029928016068992536
70,0.060585,46.2692,799.362,0.196907,193.083,-0.783408,-3.44348,-0.0199238,0.0524507,-0.0308891,0.0448795,-0.000261586,-0.000867533,0.0567034,-0.01972663270853403,0.04590182114558594,-0.0002615517893653774,0.053850605962955544,-0.0008671568020428566,-0.030416906121001563
71,0.061585,46.1884,801.183,-0.134546,193.564,-0.844897,-3.51798,-0.0202584,0.0532943,-0.0313954,0.0455905,-0.000266377,-0.000882673,0.057669,-0.02005457730903848,0.04664572176575277,-0.0002663415247969869,0.05474000943178292,-0.0008822835587790623,-0.030907681791087827
72,0.062585,46.4062,803.584,0.209604,193.886,-0.773725,-3.4147,-0.0205932,0.0541381,-0.0318985,0.0462977,-0.000269175,-0.000895094,0.0586329,-0.02038260812113335,0.047386171412320266,-0.0002691387756600383,0.05563037464399634,-0.000894693522862755,-0.031395109513654096
73,0.063585,46.3086,805.258,-0.147647,194.345,-0.840245,-3.49503,-0.0209275,0.0549803,-0.032404,0.0470069,-0.000273977,-0.000910128,0.0595974,-0.02071003948203709,0.04812924114646888,-0.00027393947172915656,0.05651980103040022,-0.0009097139591314196,-0.03188461555271993
74,0.064585,46.5312,807.565,0.22201,194.634,-0.763597,-3.38393,-0.021262,0.0558226,-0.0329061,0.0477122,-0.000276634,-0.000922243,0.0605601,-0.02103755719343925,0.048868747456494166,-0.00027659574034311074,0.057410082548233765,-0.0009218178646271946,-0.03237058427459372
75,0.065585,46.4176,809.101,-0.160374,195.073,-0.835056,-3.47002,-0.021596,0.0566634,-0.0334108,0.0484196,-0.000281446,-0.000937167,0.0615234,-0.021364476050848347,0.04961097970503925,-0.0002814063977899517,0.05829952681561146,-0.0009367279961577379,-0.03285882362314696
76,0.066585,46.6447,811.319,0.233982,195.331,-0.753093,-3.35139,-0.0219303,0.0575043,-0.0339119,0.0491229,-0.000283965,-0.000948978,0.0624848,-0.021691579228162117,0.05034943075293841,-0.0002839246857554434,0.0591898251611882,-0.0009485278627791027,-0.033343336661749046
77,0.067585,46.5159,812.724,-0.172589,195.752,-0.829337,-3.44307,-0.0222639,0.0583436,-0.0344158,0.0498286,-0.000288784,-0.000963788,0.0634469,-0.022017888485921233,0.051090923951323086,-0.0002887423059142469,0.06007917634546378,-0.0009633237055179933,-0.0338303122506014
78,0.068585,46.7475,814.859,0.245385,195.981,-0.742278,-3.31723,-0.0225979,0.0591832,-0.0349159,0.0505299,-0.000291167,-0.000975298,0.064407,-0.022344479967353448,0.05182831255138076,-0.0002911246150029134,0.060969592566346265,-0.0009748225514861764,-0.034313372912058715
79,0.069585,46.6045,816.14,-0.184157,196.384,-0.823092,-3.41427,-0.0229313,0.0600211,-0.035419,0.0512339,-0.000295991,-0.000989988,0.0653679,-0.022670375987846936,0.05256906039606446,-0.0002959471989856244,0.06185895153286358,-0.0009894981235505362,-0.03479908766235629
80,0.070585,46.8402,818.198,0.256089,196.585,-0.731212,-3.28165,-0.023265,0.0608593,-0.0359181,0.0519333,-0.000298241,-0.0010012,0.0663267,-0.022996456473824756,0.05330548469446339,-0.00029819653057394646,0.06274937483030962,-0.0010006989665055643,-0.035280699241536984
81,0.071585,46.6839,819.363,-0.194958,196.972,-0.816326,-3.38371,-0.023598,0.0616957,-0.0364204,0.0526356,-0.000303065,-0.00101576,0.0672863,-0.023321744490358287,0.054045480955636105,-0.00030301908044183534,0.06363863024218985,-0.0010152442904383108,-0.035765156064790804
82,0.072585,46.9233,821.347,0.265978,197.147,-0.719948,-3.24478,-0.0239314,0.0625325,-0.0369185,0.0533331,-0.000305189,-0.00102668,0.0682437,-0.023647314745168013,0.05478093413808316,-0.00030514243457435697,0.06452905554996646,-0.0010261531444082372,-0.036245321845339795
83,0.073585,46.7549,822.403,-0.204881,197.519,-0.809044,-3.35148,-0.0242641,0.0633675,-0.03742,0.0540336,-0.000310009,-0.00104111,0.069202,-0.023972093253651572,0.05552006703351897,-0.00030996095217517006,0.0654183085227995,-0.0010405682330132393,-0.036728523643456246
84,0.074585,46.9976,824.318,0.274948,197.67,-0.708536,-3.20676,-0.0245972,0.064203,-0.0379172,0.0547292,-0.000312012,-0.00105175,0.0701581,-0.024297154007514643,0.05625454221299986,-0.0003119633293180435,0.06630883748624106,-0.0010511971048215996,-0.037207343177100616
85,0.075585,46.8181,825.272,-0.21383,198.027,-0.801251,-3.31766,-0.0249295,0.0650366,-0.0384178,0.0554281,-0.000316821,-0.00106604,0.0711151,-0.024621326199045335,0.05699301654234712,-0.00031677081752679026,0.06719808311925557,-0.0010654719812207558,-0.03768919656314096
86,0.076585,47.0634,827.12,0.282907,198.156,-0.697022,-3.16773,-0.0252623,0.0658706,-0.038914,0.0561218,-0.000318709,-0.00107639,0.0720698,-0.024945878213235573,0.057726506979666636,-0.0003186582176817332,0.06808849757179258,-0.0010758109000816862,-0.038166576735990554
87,0.077585,46.8741,827.978,-0.221723,198.499,-0.792954,-3.28234,-0.0255943,0.0667028,-0.0394137,0.056819,-0.000323502,-0.00109053,0.0730254,-0.025269542450432447,0.058464211034083835,-0.00032344967887010245,0.06897773077808877,-0.0010899355882537654,-0.038647084832649115
88,0.078585,47.1214,829.763,0.289784,198.607,-0.685445,-3.12779,-0.0259267,0.0675354,-0.039909,0.0575109,-0.000325281,-0.00110062,0.0739787,-0.02559348901162073,0.059196815837103456,-0.0003252281018712999,0.06986813225943389,-0.0011000145399553407,-0.03912312503044457
89,0.079585,46.9234,830.533,-0.228496,198.937,-0.78416,-3.24557,-0.0262584,0.0683662,-0.0404079,0.0582064,-0.000330053,-0.0011146,0.074933,-0.02591664605275734,0.059933743459393174,-0.00032999853850046446,0.07075734803280054,-0.0011139790641397918,-0.03960238694154239
90,0.080585,47.1719,832.256,0.295518,199.025,-0.673839,-3.08706,-0.0265905,0.0691975,-0.0409022,0.0588965,-0.00033173,-0.00112442,0.0758849,-0.02624008542452294,0.06066545618419128,-0.0003316749836872468,0.07164783869738311,-0.0011237880767031028,-0.0400769941728365
91,0.081585,46.9666,832.945,-0.234098,199.343,-0.774881,-3.20744,-0.0269217,0.0700268,-0.0414003,0.0595903,-0.000336473,-0.00113823,0.0768379,-0.02656254130658864,0.061401601216874546,-0.0003364163993084812,0.07253692485863672,-0.0011375824619392905,-0.04055501276162632
92,0.082585,47.2155,834.609,0.300069,199.414,-0.662234,-3.04562,-0.0272535,0.0708567,-0.0418937,0.0602786,-0.000338056,-0.0011478,0.0777883,-0.026885474277840493,0.06213241541984771,-0.0003379988655087818,0.07342739270110021,-0.0011471415295348786,-0.04102828615218301
93,0.083585,47.004,835.222,-0.238498,199.719,-0.765126,-3.16802,-0.0275844,0.0716846,-0.0423909,0.0609707,-0.000342763,-0.00116144,0.0787399,-0.02720742460478265,0.06286777170524926,-0.00034270426347404737,0.07431645121450758,-0.001160765789606777,-0.0415049683752875
94,0.084585,47.2527,836.828,0.303412,199.773,-0.650655,-3.00357,-0.0279157,0.0725132,-0.0428833,0.0616573,-0.000344259,-0.00117077,0.0796889,-0.027529657404200547,0.06359778730297805,-0.0003441997496698157,0.0752069987288666,-0.0011700849161881965,-0.04197681515064988
95,0.085585,47.0362,837.373,-0.241679,200.066,-0.754912,-3.12737,-0.0282463,0.0733397,-0.0433797,0.0623477,-0.000348924,-0.00118421,0.080639,-0.02785110296158433,0.06433234875676841,-0.0003488631331006742,0.07609602465267096,-0.001183509100036173,-0.042452259844473095
96,0.086585,47.2837,838.923,0.305538,200.106,-0.639124,-2.96098,-0.0285773,0.0741668,-0.0438712,0.0630326,-0.00035034,-0.00119331,0.0815866,-0.028172830997576725,0.06506155967220462,-0.0003502786381082146,0.07698643185179832,-0.001192598288747515,-0.04292277891922491
97,0.087585,47.0636,839.404,-0.243641,200.388,-0.744253,-3.08557,-0.0289074,0.0749919,-0.0443667,0.0637213,-0.000354956,-0.00120655,0.0825353,-0.028493578203825476,0.06579532020978962,-0.0003548930105721215,0.07787542005836934,-0.001205822411202262,-0.04339689321075424
98,0.088585,47.3091,840.899,0.306453,200.414,-0.627655,-2.91792,-0.029238,0.0758177,-0.0448573,0.0644045,-0.000356301,-0.00121543,0.0834814,-0.02881470514166362,0.06652372036571763,-0.00035623753233682276,0.0787658972076637,-0.0012146916641196936,-0.04386608759215249
99,0.089585,47.0864,841.323,-0.244397,200.684,-0.733169,-3.04268,-0.0295678,0.0766414,-0.0453519,0.0650916,-0.000360859,-0.00122847,0.0844286,-0.029134949240753327,0.06725678062799378,-0.0003607938982221892,0.07965484273914969,-0.0012277157396232141,-0.04433887449539009
100,0.090585,47.3293,842.764,0.30618,200.699,-0.616261,-2.87444,-0.0298981,0.0774658,-0.0458416,0.065773,-0.00036214,-0.00123712,0.0853733,-0.0294555730130881,0.06798425722144152,-0.0003620744352249572,0.08054527717814874,-0.001236355082516849,-0.04480674718057287
101,0.091585,47.1052,843.136,-0.243977,200.958,-0.72168,-2.99877,-0.0302274,0.0782882,-0.0463353,0.0664584,-0.000366636,-0.00124995,0.0863191,-0.029775120676484468,0.06871650454383271,-0.0003665687972349563,0.08143428312323864,-0.0012491691378788694,-0.04527820969939089
102,0.092585,47.3445,844.524,0.304752,200.962,-0.604951,-2.83059,-0.0305573,0.0791111,-0.0468241,0.0671382,-0.000367859,-0.0012584,0.0872623,-0.03009514507324662,0.06944326502151976,-0.0003677913481737738,0.08232456164968172,-0.0012576085467430609,-0.045744763675408806
103,0.093585,47.1201,844.85,-0.242422,201.21,-0.709808,-2.95392,-0.0308863,0.0799321,-0.0473169,0.067822,-0.000372285,-0.00127101,0.0882066,-0.030414191284537928,0.07017480040958635,-0.0003722157105381374,0.08321351498020557,-0.0012702026088935447,-0.046214904803581036
104,0.094585,47.3551,846.186,0.302217,201.204,-0.593729,-2.78644,-0.0312158,0.0807537,-0.0478049,0.0685001,-0.000373458,-0.00127926,0.0891484,-0.0307336171802034,0.0709007320410473,-0.000373388273241404,0.08410384890320577,-0.0012784420957341336,-0.04668023837940971
105,0.095585,47.1315,846.47,-0.239782,201.442,-0.697578,-2.9082,-0.0315443,0.0815733,-0.0482967,0.0691822,-0.000377808,-0.00129164,0.0900912,-0.031051968894827753,0.07163144261088128,-0.00037773663954465686,0.08499274463747941,-0.0012908061920871017,-0.04714896576866212
106,0.096585,47.3615,847.754,0.298631,201.427,-0.582598,-2.742,-0.0318734,0.0823935,-0.0487838,0.0698587,-0.000378938,-0.0012997,0.0910315,-0.03137079722578495,0.0723566465543839,-0.00037886621206406623,0.08588302073895093,-0.0012988557557493952,-0.04761298648601586
107,0.097585,47.1397,848.001,-0.236121,201.654,-0.685014,-2.86166,-0.0322016,0.0832118,-0.0492748,0.0705392,-0.000383206,-0.00131184,0.0919728,-0.03168864916777869,0.07308663360228707,-0.0003831325859586787,0.08677196247572905,-0.001310979914046717,-0.04808049372723122
108,0.098585,47.3641,849.235,0.294063,201.633,-0.571557,-2.69733,-0.0325303,0.0840306,-0.0497611,0.0712141,-0.000384299,-0.00131972,0.0929116,-0.03200688080456249,0.0738111042164149,-0.0003842251665976404,0.08766217576218804,-0.0013188495525185973,-0.04854329964275261
109,0.099585,47.1449,849.449,-0.231509,201.849,-0.672145,-2.8144,-0.0328581,0.0848475,-0.0502511,0.0718929,-0.000388479,-0.00133161,0.0938514,-0.03232413694791203,0.074540254639613,-0.00038840355180358443,0.08855105000482189,-0.0013307238008047895,-0.04900939922220482
110,0.1006,47.363,850.633,0.288585,201.821,-0.560603,-2.65245,-0.0331863,0.0856649,-0.0507365,0.0725663,-0.000389541,-0.00133933,0.0947887,-0.032641676055147895,0.07526409373635823,-0.0003894651387553738,0.08944119538595108,-0.0013384334978576717,-0.049470898044996825
111,0.1016,47.1473,850.818,-0.226023,202.027,-0.658996,-2.76646,-0.0335137,0.0864804,-0.0512256,0.0732434,-0.000393629,-0.00135097,0.095727,-0.032958337330128096,0.07599240159502729,-0.0003935515382692545,0.09032999704040545,-0.0013500578508378602,-0.0499356881550761
112,0.1026,47.3586,851.953,0.282278,201.995,-0.549731,-2.60738,-0.0338416,0.0872965,-0.0517102,0.0739152,-0.000394666,-0.00135852,0.0966628,-0.03327537830960836,0.07671549615068485,-0.0003945881296187892,0.09122017854014453,-0.001357597629438323,-0.05039597778341143
113,0.1036,47.1472,852.114,-0.219745,202.19,-0.645597,-2.71793,-0.0341685,0.0881106,-0.0521983,0.0745907,-0.000398657,-0.0013699,0.0975995,-0.03359134894022553,0.07744306317643179,-0.0003985775468566821,0.09210890259353599,-0.0013689621153133436,-0.050859366407461803
114,0.1046,47.3512,853.2,0.275228,202.153,-0.538936,-2.56215,-0.034496,0.0889253,-0.0526821,0.075261,-0.000399672,-0.00137729,0.0985339,-0.033907795952420994,0.0781655153644798,-0.00039959214178564295,0.0929990062509709,-0.001376341971414674,-0.05131844958481868
115,0.1056,47.1447,853.339,-0.212761,202.339,-0.631976,-2.66886,-0.0348225,0.0897381,-0.0531693,0.0759349,-0.000403563,-0.00138841,0.0994691,-0.03422317356884497,0.0788923359799838,-0.0004034815794056179,0.09388775698261997,-0.0013874466047500977,-0.05178053466311572
116,0.1066,47.341,854.378,0.267521,202.298,-0.528209,-2.51678,-0.0351495,0.0905514,-0.0536522,0.0766036,-0.000404562,-0.00139565,0.100402,-0.034538930961940495,0.07961403255741151,-0.0004044801758287253,0.09477777777326946,-0.0013946765334642564,-0.0522383193019299
117,0.1076,47.1401,854.499,-0.20516,202.473,-0.618161,-2.61933,-0.0354757,0.0913629,-0.0541385,0.0772758,-0.000408349,-0.0014065,0.101336,-0.034853813002607814,0.08033999307809192,-0.00040826563689455586,0.09566655051069684,-0.0014055113424449317,-0.0526991037584319
118,0.1086,47.3282,855.49,0.259248,202.43,-0.517543,-2.47129,-0.0358023,0.0921748,-0.0546206,0.0779431,-0.000409336,-0.0014136,0.102267,-0.03516897827799015,0.08106114454089841,-0.00040925223344945305,0.09655648340242817,-0.0014126013381449143,-0.053155687452167366
119,0.1096,47.1334,855.596,-0.19703,202.596,-0.60418,-2.56939,-0.036128,0.0929849,-0.055106,0.0786137,-0.000413015,-0.00142418,0.103199,-0.03548317257244671,0.08178634727772782,-0.00041292972104578496,0.09744516372099499,-0.0014231663369338454,-0.053615174155033474
120,0.1106,47.3132,856.542,0.250498,202.55,-0.506929,-2.42569,-0.0364542,0.0937955,-0.0555873,0.0792795,-0.000413993,-0.00143113,0.104129,-0.035797746651731854,0.08250684045330803,-0.00041390731672252823,0.09833511341858947,-0.0014301064218109616,-0.05407055957442064
121,0.1116,47.1249,856.635,-0.188462,202.706,-0.590063,-2.51912,-0.0367795,0.0946042,-0.0560717,0.0799485,-0.000417562,-0.00144144,0.10506,-0.03611135063429283,0.08323127982752276,-0.0004174748331210454,0.0992236962748616,-0.0014404016243418916,-0.05452865683524877
122,0.1126,47.2961,857.535,0.241361,202.659,-0.496358,-2.38,-0.0371052,0.0954134,-0.0565522,0.0806128,-0.000418535,-0.00144826,0.105988,-0.03642523804805109,0.08395110943164363,-0.00041844742644481236,0.10011354807536921,-0.0014472117775801152,-0.054982846687788745
123,0.1136,47.1147,857.618,-0.179542,202.806,-0.575835,-2.46857,-0.0374301,0.0962209,-0.0570356,0.0812802,-0.000421993,-0.00145829,0.106917,-0.03673825263623598,0.08467477986404015,-0.0004219039734773,0.1010022485299582,-0.0014572272118185126,-0.05543955758378283
124,0.1146,47.2771,858.475,0.231921,202.757,-0.48582,-2.33423,-0.0377554,0.0970287,-0.0575153,0.0819431,-0.000422961,-0.00146498,0.107844,-0.03705155072195698,0.08539404915107762,-0.0004228715646059644,0.10189199746753363,-0.00146390744062308,-0.05589255456799658
125,0.1156,47.1028,858.549,-0.170355,202.895,-0.561523,-2.4178,-0.0380799,0.0978348,-0.0579979,0.0826088,-0.000426307,-0.00147474,0.108771,-0.03736397679987502,0.08611683652268187,-0.0004262161440822254,0.10278059070607992,-0.0014736531053275437,-0.05634807089623117
126,0.1166,47.2565,859.363,0.222264,202.846,-0.475309,-2.28839,-0.0384047,0.0986412,-0.0584768,0.0832703,-0.000427274,-0.00148129,0.109697,-0.03767659020904446,0.08683554049517284,-0.00042718273146380437,0.10367023162943578,-0.0014801934314800924,-0.05679987761132599
127,0.1176,47.0895,859.431,-0.160982,202.975,-0.547154,-2.36686,-0.0387288,0.099446,-0.0589583,0.0839344,-0.000430505,-0.00149077,0.110623,-0.037988428690002296,0.08755754769357038,-0.00043041234601892686,0.10455882295303787,-0.001489659354377837,-0.05725391915098332
128,0.1186,47.2343,860.202,0.212469,202.926,-0.464814,-2.2425,-0.0390532,0.100251,-0.0594365,0.0845945,-0.000431472,-0.0014972,0.111546,-0.038300454630391334,0.08827568142476472,-0.0004313789293428627,0.10544835079243398,-0.001496079755226587,-0.0577046325526821
129,0.1196,47.0749,860.266,-0.151502,203.046,-0.53275,-2.31581,-0.0393769,0.101055,-0.0599171,0.085257,-0.00043459,-0.00150641,0.112471,-0.03861170639441169,0.08899690294195728,-0.0004344955794445271,0.10633748865199455,-0.0015052759339835298,-0.05815739089973171
130,0.1206,47.2109,860.996,0.20261,202.997,-0.454329,-2.19656,-0.0397008,0.101858,-0.0603944,0.0859157,-0.000435557,-0.00151271,0.113393,-0.038923049637950236,0.0897144615038925,-0.00043546215881995476,0.10722623443905976,-0.0015115664309300891,-0.05860682511104842
131,0.1216,47.059,861.057,-0.141985,203.109,-0.518335,-2.26471,-0.0400241,0.10266,-0.0608741,0.0865767,-0.000438562,-0.00152164,0.114316,-0.03923371559414457,0.09043500087497391,-0.0004384658457431412,0.1081145860604642,-0.0015204828928297998,-0.05905830312138438
132,0.1226,47.1862,861.748,0.192758,203.06,-0.443848,-2.1506,-0.0403476,0.103463,-0.0613507,0.0872339,-0.00043953,-0.00152782,0.115237,-0.039544473219393805,0.09115187029503846,-0.00043943342083985204,0.10900475942984578,-0.0015266534771783968,-0.05950664908478687
133,0.1236,47.042,861.806,-0.1325,203.164,-0.50393,-2.21359,-0.0406704,0.104264,-0.0618294,0.0878933,-0.000442421,-0.00153648,0.116158,-0.039854458229166334,0.09187161311143832,-0.0004423231462608035,0.10989342810643987,-0.0015353002189187892,-0.059956755510301774
134,0.1246,47.1606,862.458,0.182978,203.116,-0.433363,-2.10462,-0.0409934,0.105065,-0.0623052,0.0885492,-0.000443392,-0.00154253,0.117077,-0.040164535159038284,0.09258800661804556,-0.0004432937162938133,0.11078280889180525,-0.0015413409120793586,-0.060403921696758234
135,0.1256,47.0239,862.515,-0.123107,203.212,-0.489555,-2.16252,-0.0413158,0.105864,-0.062783,0.089207,-0.00044617,-0.00155092,0.117997,-0.04047393623476969,0.09330694744251233,-0.00044607048096689805,0.11167067901298866,-0.0015497179450874032,-0.06085275346852248
136,0.1266,47.1341,863.131,0.173326,203.166,-0.42287,-2.05863,-0.0416384,0.106664,-0.063258,0.0898615,-0.000447142,-0.00155685,0.118915,-0.04078342941900559,0.09402275106079494,-0.00044704204691425886,0.11256037138569774,-0.001555638737704812,-0.06129874247984923
137,0.1276,47.0048,863.188,-0.113862,203.254,-0.47523,-2.11151,-0.0419604,0.107462,-0.0637348,0.0905178,-0.00044981,-0.00156497,0.119833,-0.04109224743236428,0.09474099385790935,-0.0004497088506485447,0.1134485488977579,-0.00156374607300247,-0.06174620855504531
138,0.1286,47.1068,863.768,0.163857,203.208,-0.412365,-2.01265,-0.0422825,0.10826,-0.064209,0.0911709,-0.000450782,-0.00157078,0.120749,-0.04140106188222925,0.09545620272703204,-0.0004506804130592901,0.11433743545834552,-0.001569546970786151,-0.0621910230291014
139,0.1296,46.9849,863.825,-0.104815,203.289,-0.46097,-2.06063,-0.0426041,0.109057,-0.064685,0.0918257,-0.000453341,-0.00157863,0.121666,-0.04170929773374632,0.09617374234541098,-0.00045323825649534744,0.11522591640703284,-0.001577384619079636,-0.0626373138764913
140,0.1306,47.0789,864.371,0.154616,203.245,-0.401845,-1.9667,-0.0429258,0.109854,-0.0651584,0.0924775,-0.000454313,-0.00158432,0.122581,-0.04201753027080346,0.09688846129227291,-0.0004542098154756147,0.11611510575729689,-0.0015830656275986899,-0.06308095635364253
141,0.1316,46.9641,864.429,-0.0960083,203.319,-0.446792,-2.0099,-0.0432469,0.11065,-0.0656335,0.0931307,-0.000456764,-0.0015919,0.123496,-0.04232508906062726,0.09760518289097941,-0.0004566596992050531,0.11700388706951315,-0.0015906335992785792,-0.06352598086733474
142,0.1326,47.0504,864.943,0.145643,203.277,-0.391308,-1.92078,-0.0435681,0.111445,-0.0661061,0.0937811,-0.000457735,-0.00159747,0.124409,-0.04263264484591767,0.09831929750683122,-0.0004576302553173095,0.11789225824048466,-0.0015961947239616636,-0.06396845392415795
143,0.1336,46.9427,865.001,-0.0874793,203.344,-0.432709,-1.95937,-0.0438888,0.112239,-0.0665802,0.0944329,-0.000460082,-0.0016048,0.125322,-0.04293962333008461,0.09903541538240845,-0.0004599761785061274,0.11878021716657106,-0.0016035129970328743,-0.06441212130049068
144,0.1346,47.0215,865.484,0.136972,203.303,-0.380752,-1.87491,-0.0442096,0.113034,-0.0670521,0.0950819,-0.00046105,-0.00161024,0.126234,-0.04324659905738104,0.09974892087447973,-0.00046094373278082745,0.11967000108146086,-0.0016089442591491476,-0.06485352106398357
145,0.1356,46.9206,865.544,-0.0792594,203.364,-0.418734,-1.90905,-0.0445298,0.113827,-0.0675253,0.0957322,-0.000463294,-0.00161731,0.127146,-0.043552902454571885,0.10046432018459894,-0.0004631866959065034,0.12055825153707622,-0.0016160028589610187,-0.06529592769615167
146,0.1366,46.9923,865.997,0.128631,203.324,-0.370179,-1.82911,-0.0448501,0.11462,-0.0679964,0.0963799,-0.000464259,-0.00162263,0.128057,-0.04385920340320015,0.10117732180543104,-0.00046415124846599376,0.12144720665466435,-0.001621314247697514,-0.06573616307902752
147,0.1376,46.8978,866.058,-0.0713739,203.379,-0.404878,-1.85899,-0.0451699,0.115411,-0.0684686,0.0970287,-0.000466402,-0.00162945,0.128967,-0.04416492834192853,0.10189199746753363,-0.00046629325149472045,0.12233462232175452,-0.0016281231671159135,-0.0661772183214836
148,0.1386,46.9629,866.483,0.120643,203.341,-0.359588,-1.78339,-0.0454898,0.116203,-0.0689389,0.0976751,-0.000467362,-0.00163465,0.129876,-0.044470651078392986,0.10260449070770328,-0.00046725280339254827,0.12322386343563196,-0.001633314687377485,-0.0666162919194575
149,0.1396,46.8746,866.546,-0.063843,203.39,-0.39115,-1.80921,-0.0458092,0.116993,-0.0694103,0.0983224,-0.000469407,-0.00164122,0.130784,-0.044775798417814316,0.10331843763853388,-0.0004692968457705726,0.12411156088206976,-0.0016398739349527958,-0.06705618530842894
150,0.1406,46.9332,866.943,0.113025,203.354,-0.348981,-1.73777,-0.0461286,0.117783,-0.0698799,0.0989675,-0.00047036,-0.00164629,0.131692,-0.04508084830873871,0.1040304179872249,-0.0004702493980768274,0.12499995988656942,-0.0016449356079606403,-0.06749419287158298
151,0.1416,46.8509,867.009,-0.0566815,203.398,-0.37756,-1.75974,-0.0464475,0.118573,-0.0703504,0.0996134,-0.00047231,-0.00165262,0.132599,-0.04538532347506741,0.10474374157725719,-0.00047219847919011126,0.12588906100358033,-0.001651255175516786,-0.06793283365550062
152,0.1426,46.9034,867.38,0.105788,203.363,-0.338362,-1.69226,-0.0467665,0.119361,-0.0708191,0.100257,-0.000473255,-0.00165756,0.133505,-0.04568979699077114,0.10545498350243698,-0.00047314303251622114,0.1267766112325146,-0.0016561870061345685,-0.06836959117424624
153,0.1436,46.8268,867.447,-0.0498995,203.402,-0.364114,-1.71059,-0.047085,0.120149,-0.0712887,0.100902,-0.000475113,-0.00166366,0.13441,-0.045993696391881,0.10616823196469771,-0.00047500015169121834,0.12766486112666153,-0.00166227688481968,-0.06880698210680192
154,0.1446,46.8736,867.795,0.0989415,203.369,-0.327732,-1.64689,-0.0474035,0.120937,-0.0717567,0.101544,-0.000476048,-0.00166847,0.135315,-0.04629749901644398,0.106878619979772,-0.0004759347071291442,0.12855381123757392,-0.001667078877718997,-0.0692426784782727
155,0.1456,46.8023,867.863,-0.0435028,203.403,-0.350818,-1.66179,-0.0477215,0.121723,-0.0722254,0.102187,-0.000477816,-0.00167433,0.136219,-0.04660072819576189,0.10759057180039977,-0.0004777018641144437,0.12944120323257513,-0.001672929091495634,-0.06967882221660049
156,0.1466,46.8438,868.188,0.0924876,203.371,-0.317097,-1.60168,-0.0480396,0.12251,-0.0726926,0.102828,-0.000478739,-0.00167901,0.137122,-0.04690395627314026,0.10830076494951113,-0.00047862442276991324,0.13033042332172795,-0.0016776012512547123,-0.07011336675335289
157,0.1476,46.7776,868.258,-0.0374931,203.401,-0.337677,-1.61336,-0.0483572,0.123295,-0.0731604,0.10347,-0.000480421,-0.00168465,0.138024,-0.047206611512431884,0.10901252249033244,-0.00048030561630973967,0.13121808106411637,-0.0016832317737055513,-0.07054826598952335
158,0.1486,46.8141,868.562,0.0864263,203.371,-0.30646,-1.55663,-0.0486747,0.12408,-0.0736268,0.10411,-0.00048133,-0.0016892,0.138926,-0.04750907539459448,0.10972251767895225,-0.00048121417929891663,0.13210643589140236,-0.001687774104667139,-0.07098166120264582
159,0.1496,46.7526,868.633,-0.0318685,203.397,-0.324695,-1.56531,-0.0489919,0.124864,-0.0740938,0.10475,-0.000482929,-0.00169461,0.139827,-0.04781115760310817,0.11043296740993047,-0.0004828124085597407,0.13299435535609105,-0.0016931749591999612,-0.07141541147829178
160,0.1506,46.7844,868.916,0.0807536,203.368,-0.295826,-1.51176,-0.049309,0.125648,-0.0745594,0.105388,-0.000483822,-0.00169903,0.140726,-0.04811304881765055,0.11114164968874629,-0.0004837049770096691,0.13388297122259374,-0.0016975874656149914,-0.07184765982748309
161,0.1516,46.7274,868.988,-0.026624,203.39,-0.311875,-1.51767,-0.0496258,0.12643,-0.0750255,0.106027,-0.00048534,-0.00170422,0.141626,-0.04841455884207557,0.11185189610245927,-0.0004852222415939744,0.1347700144948052,-0.0017027686416908328,-0.0722801708287184
162,0.1526,46.7549,869.253,0.075463,203.362,-0.285202,-1.4671,-0.0499424,0.127213,-0.0754903,0.106664,-0.000486217,-0.00170851,0.142524,-0.04871578310642899,0.11256037138569774,-0.0004860988156696333,0.13565888736446996,-0.0017070513276269406,-0.07271127480899098
163,0.1536,46.702,869.325,-0.0217518,203.38,-0.299221,-1.47043,-0.0502587,0.127994,-0.0759555,0.107302,-0.000487657,-0.00171349,0.143422,-0.0490166267233062,0.11327041138131566,-0.000487538114651076,0.13654618339950209,-0.0017120228141324079,-0.07314254920174834
164,0.1546,46.7256,869.572,0.070545,203.354,-0.274592,-1.42266,-0.0505749,0.128775,-0.0764196,0.107938,-0.000488515,-0.00171764,0.144319,-0.049317280130127705,0.11397867656740912,-0.0004883956959754743,0.13743417268341585,-0.001716165700641148,-0.07357260394274212
165,0.1556,46.6766,869.646,-0.0172418,203.369,-0.286732,-1.42362,-0.0508908,0.129555,-0.076884,0.108574,-0.000489879,-0.00172241,0.145216,-0.04961755337067919,0.11468739235343661,-0.0004897590288739373,0.13832171743556376,-0.0017209275031738747,-0.07400273694085846
166,0.1566,46.6965,869.876,0.0659883,203.343,-0.264002,-1.37846,-0.0512065,0.130335,-0.0773472,0.109208,-0.000490717,-0.00172643,0.146111,-0.04991754175342222,0.11539432823518347,-0.0004905966181049104,0.13920995474267972,-0.0017249405769790283,-0.07443155955012404
167,0.1576,46.651,869.95,-0.0130818,203.356,-0.274411,-1.37725,-0.0515219,0.131114,-0.0778107,0.109843,-0.000492009,-0.001731,0.147006,-0.05021715050996867,0.11610282855865828,-0.0004918879834198142,0.14009774504685213,-0.0017295026835761895,-0.07486046111665601
168,0.1586,46.6676,870.164,0.0617796,203.331,-0.253439,-1.33452,-0.0518372,0.131892,-0.0782732,0.110476,-0.000492825,-0.00173488,0.1479,-0.050516569836475456,0.11680954530138732,-0.0004927035817064995,0.1409850862234583,-0.0017333759655916436,-0.07528823922207728
169,0.1596,46.6255,870.238,-0.00925804,203.341,-0.262258,-1.33132,-0.0521521,0.13267,-0.0787359,0.11111,-0.000494048,-0.00173925,0.148793,-0.05081551509723237,0.11751782705469926,-0.0004939259783824923,0.14187311802011648,-0.0017377383812067215,-0.07571600438268755
170,0.1606,46.639,870.438,0.0579042,203.317,-0.242908,-1.29085,-0.052467,0.133447,-0.0791976,0.111742,-0.000494841,-0.00174299,0.149685,-0.05111436623494703,0.11822432155014262,-0.0004947185863849457,0.14276069821306825,-0.0017414718750835556,-0.07614264780525115
171,0.1616,46.5999,870.512,-0.00575556,203.324,-0.250273,-1.28585,-0.0527815,0.134223,-0.0796594,0.112374,-0.000495996,-0.00174717,0.150577,-0.05141274384442762,0.118931262691232,-0.0004958730143183043,0.1436478246754318,-0.0017456445870100978,-0.0765691866350986
172,0.1626,46.6107,870.699,0.0543465,203.302,-0.232417,-1.24747,-0.0530959,0.134999,-0.0801204,0.113005,-0.000496764,-0.00175078,0.151468,-0.05171093280000283,0.11963753112224618,-0.0004966406331931017,0.1445356398151023,-0.0017492482787285768,-0.07699479013091659
173,0.1636,46.5745,870.773,-0.00255836,203.307,-0.238455,-1.24084,-0.0534099,0.135774,-0.0805814,0.113636,-0.000497855,-0.00175476,0.152359,-0.052008648823241854,0.12034424534927401,-0.0004977310907632315,0.14542299874312947,-0.001753221308814057,-0.07742019746874085
174,0.1646,46.5826,870.947,0.0510897,203.285,-0.221971,-1.20439,-0.0537238,0.136549,-0.0810415,0.114265,-0.000498598,-0.00175824,0.153248,-0.05230617660894732,0.12104916355313278,-0.0004984737206732426,0.14631104564087982,-0.0017566952015592996,-0.07784457879947382
175,0.1656,46.549,871.02,0.000350171,203.288,-0.226805,-1.1963,-0.0540374,0.137323,-0.0815017,0.114895,-0.000499626,-0.00176204,0.154137,-0.052603326796378025,0.12175564704510422,-0.000499501207714137,0.14719863384252885,-0.001760488518910197,-0.07826885709038767
176,0.1666,46.5549,871.182,0.048117,203.267,-0.211576,-1.16164,-0.0543509,0.138096,-0.081961,0.115523,-0.000500342,-0.00176537,0.155025,-0.05290028910215383,0.12246033083900021,-0.0005002168498150494,0.14808576121704564,-0.0017638126509488261,-0.07869211099662576
177,0.1676,46.5237,871.255,0.00298708,203.267,-0.21532,-1.15223,-0.054664,0.138868,-0.0824203,0.116151,-0.00050131,-0.00176899,0.155912,-0.05319677960362579,0.12316545731330564,-0.0005011843651367975,0.1489724256331333,-0.0017674262594064016,-0.07911517054698203
178,0.1686,46.5276,871.407,0.0454108,203.247,-0.201239,-1.11922,-0.054977,0.13964,-0.0828789,0.116778,-0.000501999,-0.00177219,0.156799,-0.053493082637765976,0.1238699028756467,-0.0005018730195835985,0.14985977481843715,-0.0017706205985313916,-0.07953739150710304
179,0.1696,46.4985,871.478,0.00536955,203.246,-0.204001,-1.10865,-0.0552897,0.140412,-0.0833374,0.117405,-0.000502908,-0.00177563,0.157685,-0.053789009080314476,0.12457479026385343,-0.0005027815629680132,0.1507478093018031,-0.0017740545016902143,-0.0799593268770219
180,0.1706,46.5006,871.62,0.0429539,203.227,-0.190965,-1.07716,-0.0556023,0.141182,-0.0837952,0.118031,-0.000503569,-0.00177869,0.15857,-0.05408474840961053,0.12527899447547997,-0.0005034422304110997,0.1516342263417294,-0.0017771090684098878,-0.08038042510043975
181,0.1716,46.4735,871.69,0.00751476,203.224,-0.192846,-1.06555,-0.0559146,0.141952,-0.0842529,0.118657,-0.000504422,-0.00178196,0.159454,-0.05438011161931644,0.12598363965695247,-0.0005042948006112047,0.1525213261856222,-0.0017803732519263704,-0.08080123866933964
182,0.1726,46.4739,871.823,0.0407291,203.205,-0.18076,-1.03545,-0.0562266,0.142722,-0.08471,0.119281,-0.000505053,-0.00178488,0.160337,-0.05467509900406631,0.1266864727092052,-0.0005049254822022675,0.15340910935944319,-0.001783288048980869,-0.08122130840889075
183,0.1736,46.4487,871.892,0.00943963,203.201,-0.181854,-1.02294,-0.0565384,0.143491,-0.0851668,0.119905,-0.000505853,-0.00178799,0.16122,-0.05496980536108809,0.12738974446614404,-0.0005057250779419986,0.15429642209255978,-0.0017863924981276202,-0.08164091067075663
184,0.1746,46.4477,872.016,0.0387193,203.183,-0.17063,-0.994126,-0.0568501,0.144259,-0.0856231,0.120529,-0.000506454,-0.00179077,0.162102,-0.05526432536942927,0.12809345520160642,-0.0005063257738207039,0.15518326224775647,-0.0017891675280991004,-0.08205986233212681
185,0.1756,46.4241,872.084,0.0111607,203.178,-0.171022,-0.980828,-0.0571614,0.145026,-0.0860791,0.121152,-0.000507201,-0.00179371,0.162984,-0.055558375813615446,0.1287964763925593,-0.0005070723953165546,0.15606962768759325,-0.0017921022636325779,-0.08247834761300787
186,0.1766,46.4218,872.2,0.036908,203.16,-0.160579,-0.953189,-0.0574726,0.145793,-0.0865346,0.121774,-0.000507772,-0.00179636,0.163864,-0.055852240319373525,0.1294988062028033,-0.0005076431056152408,0.15695667323050877,-0.0017947475110565714,-0.08289618355630968
187,0.1776,46.3997,872.267,0.0126942,203.154,-0.16035,-0.93921,-0.0577835,0.14656,-0.0869899,0.122396,-0.000508469,-0.00179913,0.164744,-0.056145730232487256,0.13020157299807722,-0.0005083397515451837,0.15784439939834205,-0.0017975125357764243,-0.08331364588142653
188,0.1786,46.3963,872.375,0.0352794,203.137,-0.150614,-0.912652,-0.0580942,0.147325,-0.0874446,0.123017,-0.000509008,-0.00180165,0.165623,-0.05643894020157658,0.1309036461460591,-0.0005088784774048838,0.15873048925003652,-0.0018000280028753757,-0.08373036841759585
189,0.1796,46.3755,872.44,0.0140554,203.13,-0.149837,-0.898092,-0.0584047,0.14809,-0.087899,0.123637,-0.000509657,-0.00180426,0.166502,-0.056731870430872355,0.13160502381127848,-0.0005095271469323093,0.15961725721981468,-0.001802633301402401,-0.0841466267571297
190,0.1806,46.3712,872.542,0.0338182,203.113,-0.140738,-0.872527,-0.058715,0.148855,-0.0883529,0.124257,-0.000510165,-0.00180665,0.16738,-0.057024521124374394,0.1323068364654829,-0.0005100348879635286,0.1605047038266354,-0.0018050189902578673,-0.08456223827307552
191,0.1816,46.3517,872.605,0.0152592,203.105,-0.13948,-0.857477,-0.059025,0.149619,-0.0888066,0.124877,-0.000510766,-0.00180911,0.168257,-0.05731679821753577,0.13300908437844905,-0.0005106355812520835,0.16139166819760553,-0.001807474546890786,-0.08497747818127499
192,0.1826,46.3465,872.701,0.0325097,203.088,-0.130956,-0.832824,-0.0593348,0.150382,-0.0892597,0.125495,-0.000511243,-0.00181136,0.169133,-0.057608796240618765,0.1337095003988531,-0.0005111123375651783,0.16227814818955033,-0.0018097204775463505,-0.0853919809732121
193,0.1836,46.3281,872.763,0.0163196,203.079,-0.129278,-0.817365,-0.0596443,0.151144,-0.0897126,0.126113,-0.000511798,-0.00181367,0.170008,-0.05790042118689398,0.1344103494101383,-0.0005116670537439472,0.16316414165911208,-0.0018120262944288923,-0.08580611315771736
194,0.1846,46.3222,872.852,0.0313402,203.063,-0.121273,-0.793551,-0.0599537,0.151906,-0.090165,0.126731,-0.000512243,-0.00181578,0.170883,-0.05819186170840518,0.13511163167997542,-0.000512111825953121,0.16405081051298653,-0.001814132468831331,-0.0862196009341375
195,0.1856,46.3048,872.912,0.01725,203.054,-0.11923,-0.77776,-0.0602628,0.152668,-0.0906171,0.127348,-0.000512754,-0.00181794,0.171757,-0.05848292961708834,0.1358122116634215,-0.0005126225641334248,0.1649381552660123,-0.0018162885479766633,-0.08663262768082414
196,0.1866,46.2983,872.996,0.0302968,203.038,-0.111691,-0.754719,-0.0605717,0.153428,-0.0910687,0.127964,-0.000513167,-0.00181993,0.17263,-0.05877371932534692,0.13651208752544064,-0.000513035352335045,0.16582384478339995,-0.0018182749315860391,-0.08704501126294206
197,0.1876,46.2818,873.055,0.0180627,203.028,-0.109334,-0.738663,-0.0608803,0.154188,-0.09152,0.128579,-0.000513635,-0.00182194,0.173503,-0.05906413694182011,0.13721125743197815,-0.0005135031121250577,0.16671020768067257,-0.0018202812748370212,-0.08745693489180084
198,0.1886,46.2748,873.134,0.0293672,203.013,-0.102215,-0.716334,-0.0611888,0.154948,-0.0919708,0.129194,-0.000514016,-0.0018238,0.174375,-0.05935437088468598,0.137910857460257,-0.0005138839164078313,0.16759724446979374,-0.0018221378873871652,-0.08786821659569044
199,0.1896,46.2592,873.19,0.0187694,203.002,-0.0995888,-0.700075,-0.061497,0.155707,-0.0924213,0.129809,-0.000514442,-0.00182567,0.175246,-0.05964423319750256,0.13861088787488351,-0.0005143096974026262,0.16848378717874435,-0.0018240044782441567,-0.08827903941932502
200,0.1906,46.2517,873.265,0.0285401,202.987,-0.0928476,-0.678403,-0.061805,0.156465,-0.0928714,0.130423,-0.000514791,-0.0018274,0.176116,-0.059933818175301856,0.1393102096298473,-0.0005146585178477103,0.16936983365861757,-0.0018257313212226567,-0.08868931268475755
201,0.1916,46.2368,873.32,0.0193809,202.976,-0.0899934,-0.661998,-0.0621127,0.157223,-0.0933211,0.131036,-0.000515177,-0.00182913,0.176986,-0.060223032041614055,0.14000882089082545,-0.0005150443191149767,0.17025655201633194,-0.0018274581612137686,-0.08909903696743338
202,0.1926,46.229,873.389,0.027805,202.961,-0.083592,-0.640934,-0.0624203,0.15798,-0.0937704,0.131649,-0.000515494,-0.00183073,0.177855,-0.060512062981720516,0.14070786053179174,-0.0005153611557957571,0.17114277161800695,-0.0018290552360029633,-0.08950821284188037
203,0.1936,46.2149,873.443,0.0199072,202.95,-0.0805464,-0.624431,-0.0627276,0.158736,-0.0942194,0.132261,-0.00051584,-0.00183233,0.178723,-0.06080072326984143,0.1414061874086654,-0.0005157069774209821,0.17202849031283174,-0.0018306523082369797,-0.08991693189002148
204,0.1946,46.2068,873.509,0.0271523,202.935,-0.0744509,-0.603933,-0.0630347,0.159492,-0.0946679,0.132872,-0.000516125,-0.0018338,0.179591,-0.06108910708412407,0.14210379968802056,-0.0005159918304038502,0.1729148788641639,-0.0018321196160996367,-0.090325012627123
205,0.1956,46.1933,873.56,0.0203574,202.924,-0.0712464,-0.587376,-0.0633415,0.160247,-0.0951161,0.133483,-0.000516434,-0.00183527,0.180458,-0.061377120762513226,0.14280183833872173,-0.0005163006709146822,0.17380076397725497,-0.0018335869218053524,-0.09073263760088313
206,0.1966,46.185,873.622,0.0265729,202.91,-0.0654267,-0.567404,-0.0636482,0.161002,-0.0955638,0.134094,-0.000516687,-0.00183662,0.181324,-0.06166495225835933,0.14350030362136135,-0.0005165535402585908,0.17468731818615857,-0.0018349344455533823,-0.09113962548799281
207,0.1976,46.172,873.672,0.0207401,202.898,-0.0620923,-0.550833,-0.0639546,0.161756,-0.0960113,0.134704,-0.000516958,-0.00183795,0.182189,-0.06195241407558805,0.1441980515980672,-0.0005168244002359268,0.17557336642227828,-0.0018362620042077227,-0.09154624951667478
208,0.1986,46.1635,873.73,0.0260589,202.884,-0.0565215,-0.531352,-0.0642608,0.162509,-0.0964583,0.135313,-0.00051718,-0.00183918,0.183054,-0.06223960027594688,0.14489508043522847,-0.0005170462854763302,0.17645890653120277,-0.001837489744850429,-0.0919522375980446
209,0.1996,46.1511,873.778,0.0210628,202.872,-0.0530829,-0.514802,-0.0645667,0.163262,-0.0969049,0.135921,-0.000517415,-0.00184038,0.183918,-0.06252641731132036,0.14559138830027396,-0.0005172811639427843,0.17734511370294692,-0.0018386875391440682,-0.09235768118644117
210,0.2006,46.1426,873.834,0.0256027,202.858,-0.0477372,-0.495782,-0.0648724,0.164014,-0.0973512,0.136529,-0.000517605,-0.00184149,0.184781,-0.06281295918539131,0.1462881196492276,-0.0005174710656413728,0.178230810208599,-0.0018397954975859498,-0.09276267157300067
211,0.2016,46.1306,873.88,0.0213326,202.846,-0.0442173,-0.479284,-0.0651779,0.164765,-0.0977971,0.137137,-0.000517805,-0.00184257,0.185644,-0.06309922609686303,0.14698527473964584,-0.0005176709621271813,0.1791159938919351,-0.0018408735100247098,-0.09316711851959825
212,0.2026,46.122,873.932,0.0251977,202.833,-0.0390755,-0.460696,-0.0654832,0.165516,-0.0982426,0.137744,-0.000517964,-0.00184355,0.186505,-0.06338521824421295,0.14768170614696152,-0.0005178298798048653,0.18000184259790197,-0.001841851705489339,-0.09357102259198535
213,0.2036,46.1105,873.977,0.0215557,202.821,-0.0354942,-0.444277,-0.0657883,0.166266,-0.0986877,0.13835,-0.00051813,-0.00184451,0.187367,-0.06367093582569328,0.1483774120384811,-0.0005179957938312718,0.18088717593835302,-0.0018428099368517081,-0.09397438435501004
214,0.2046,46.1018,874.026,0.0248377,202.807,-0.0305378,-0.426098,-0.0660931,0.167016,-0.0991324,0.138956,-0.000518259,-0.00184538,0.188227,-0.06395628543496401,0.1490735396555407,-0.0005181247270015232,0.1817731735278718,-0.0018436783332294038,-0.09437720437261798
215,0.2056,46.0907,874.069,0.0217379,202.795,-0.0269128,-0.409782,-0.0663977,0.167765,-0.0995768,0.139561,-0.00051839,-0.00184621,0.189087,-0.06424136093121824,0.1497689394842694,-0.0005182556591185605,0.18265865320558716,-0.001844506802632484,-0.09477957372990164
216,0.2066,46.082,874.116,0.0245173,202.782,-0.0221253,-0.39199,-0.0667021,0.168514,-0.100021,0.140166,-0.000518489,-0.00184697,0.189946,-0.06452616251195109,0.1504647601571869,-0.0005183546078063594,0.18354479635602083,-0.0018452654005191027,-0.09518158335030391
217,0.2076,46.0713,874.157,0.0218842,202.77,-0.018472,-0.375798,-0.0670063,0.169262,-0.100464,0.14077,-0.000518588,-0.00184768,0.190804,-0.06481069037443299,0.15115985076855476,-0.0005184535564843884,0.18443041904528834,-0.0018459740901290989,-0.09558232913713416
218,0.2086,46.0627,874.202,0.0242316,202.757,-0.0138391,-0.358375,-0.0673102,0.170009,-0.100908,0.141373,-0.000518657,-0.00184832,0.191661,-0.06509485122519987,0.15185420948668216,-0.0005185225207087196,0.18531551911203237,-0.0018466129085011884,-0.09598380144954854
219,0.2096,46.0523,874.241,0.0219993,202.745,-0.0101708,-0.342324,-0.0676139,0.170756,-0.101351,0.141976,-0.000518724,-0.00184892,0.192518,-0.0653787388083713,0.15254898702937947,-0.0005185894859655038,0.18620128059553465,-0.001847211800353854,-0.09638419193246639
220,0.2106,46.0438,874.283,0.0239763,202.732,-0.00567991,-0.325252,-0.0679174,0.171502,-0.101793,0.142579,-0.000518764,-0.00184945,0.193375,-0.06566235332046377,0.15324418364927417,-0.0005186294652210766,0.18708651690294742,-0.0018477408211913238,-0.09678350186563611
221,0.2116,46.0337,874.321,0.0220872,202.72,-0.00200833,-0.30936,-0.0682207,0.172247,-0.102235,0.143181,-0.000518799,-0.00184994,0.19423,-0.06594569495777025,0.1539386456599232,-0.0005186644470684953,0.18797122587121118,-0.0018482299156785675,-0.09718263534281502
222,0.2126,46.0252,874.362,0.0237473,202.707,0.00235157,-0.292625,-0.0685237,0.172992,-0.102677,0.143782,-0.00051881,-0.00185035,0.195085,-0.06622867053923254,0.15463237122961737,-0.0005186754413630812,0.1888565941932352,-0.0018486391578204087,-0.09758159244197939
223,0.2136,46.0155,874.398,0.0221514,202.696,0.00601635,-0.276903,-0.0688265,0.173736,-0.103118,0.144383,-0.000518815,-0.00185073,0.195939,-0.06651137369437554,0.15532651385369123,-0.0005186804387696808,0.18974143261839327,-0.0018490184552654165,-0.09797947122099337
224,0.2146,46.0071,874.436,0.0235412,202.683,0.0102549,-0.260492,-0.0691291,0.17448,-0.103559,0.144983,-0.000518797,-0.00185104,0.196792,-0.06679380461874163,0.15601991776237378,-0.0005186624481057223,0.19062692960829541,-0.0018493278820217451,-0.09837717457415007
225,0.2156,45.9977,874.471,0.0221952,202.671,0.0139042,-0.244952,-0.0694315,0.175223,-0.104,0.145583,-0.000518772,-0.0018513,0.197645,-0.06707596350765066,0.1567137378382395,-0.0005186374610720579,0.191511894140606,-0.001849587401162811,-0.09877470257879517
226,0.2166,45.9894,874.507,0.0233551,202.659,0.0180297,-0.228854,-0.0697336,0.175966,-0.10444,0.146182,-0.000518726,-0.0018515,0.198497,-0.06735775729198079,0.15740681692366754,-0.0005185914849282769,0.19239751644589664,-0.0018497870312252918,-0.09917115448384539
227,0.2176,45.9803,874.541,0.0222214,202.648,0.0216561,-0.213507,-0.0700356,0.176708,-0.10488,0.14678,-0.000518673,-0.00185166,0.199348,-0.06763937272320808,0.15809915318809908,-0.0005185385124122366,0.19328260372987383,-0.0018499467352466326,-0.09956743198842821
228,0.2186,45.972,874.575,0.0231861,202.635,0.0256758,-0.197712,-0.0703373,0.177449,-0.10532,0.147378,-0.000518599,-0.00185176,0.200199,-0.0679206234956452,0.15879190359343265,-0.0005184645507813057,0.19416715382457372,-0.0018500465502470087,-0.09996353516926304
229,0.2196,45.9632,874.607,0.0222325,202.624,0.0292729,-0.182565,-0.0706387,0.17819,-0.105759,0.147976,-0.000518517,-0.00185181,0.201049,-0.06820150988801787,0.1594850683873983,-0.000518382593292066,0.1950523596137983,-0.0018500964577433665,-0.10035856446204972
230,0.2206,45.9551,874.64,0.0230319,202.612,0.0331933,-0.167064,-0.07094,0.17893,-0.106198,0.148573,-0.000518416,-0.00185181,0.201898,-0.06848221848221525,0.160177487639807,-0.0005182816456436035,0.19593702564597426,-0.0018500964577433665,-0.10075342037503654
231,0.2216,45.9465,874.671,0.0222307,202.601,0.0367557,-0.152124,-0.071241,0.179669,-0.106636,0.149169,-0.000518306,-0.00185176,0.202746,-0.06876256314046447,0.16086915952018632,-0.0005181717026485622,0.19682114975154708,-0.0018500465502470087,-0.10114720413197409
232,0.2226,45.9386,874.702,0.0228904,202.589,0.0405822,-0.136909,-0.0715418,0.180408,-0.107074,0.149765,-0.000518178,-0.00185165,0.203594,-0.06904263723621606,0.16156124375987724,-0.0005180437689663586,0.19770592746631288,-0.0018499367537460065,-0.10154081544939308
233,0.2236,45.9302,874.732,0.0222177,202.578,0.0441053,-0.122182,-0.0718424,0.181147,-0.107512,0.15036,-0.000518041,-0.0018515,0.204441,-0.06932244096285578,0.16225257835155937,-0.0005179068399289166,0.19859135927346716,-0.0018497870312252918,-0.10193425440280557
234,0.2246,45.9225,874.761,0.0227598,202.567,0.0478427,-0.107247,-0.0721428,0.181885,-0.107949,0.150955,-0.000517888,-0.0018513,0.205288,-0.0696019745135491,0.16294432440972306,-0.0005177539191569824,0.19947624617971682,-0.001849587401162811,-0.10232662339476262
235,0.2256,45.9143,874.79,0.0221953,202.556,0.0513227,-0.0927373,-0.0724429,0.182622,-0.108386,0.151549,-0.000517724,-0.00185105,0.206134,-0.0698811450693605,0.16363531854336277,-0.0005175900040552683,0.20036058601235096,-0.0018493378635284774,-0.10271882095892992
236,0.2266,45.9067,874.818,0.0226386,202.544,0.0549751,-0.0780754,-0.0727429,0.183358,-0.108823,0.152143,-0.000517545,-0.00185074,0.206979,-0.07016013887467643,0.16432672324944586,-0.0005174110966877921,0.2012443765986962,-0.0018490284367751464,-0.10311084717020491
237,0.2276,45.8988,874.845,0.0221648,202.534,0.0584088,-0.0637869,-0.0730426,0.184094,-0.109259,0.152736,-0.000517355,-0.0018504,0.207823,-0.07043877012607713,0.1650173737539684,-0.0005172211949778793,0.20212881789434478,-0.0018486890653871546,-0.10350180560570643
238,0.2286,45.8913,874.872,0.0225254,202.523,0.0619798,-0.0493929,-0.073342,0.18483,-0.109695,0.153329,-0.00051715,-0.00185,0.208667,-0.07071703909935745,0.16570843393569756,-0.0005170163009872164,0.203013910378395,-0.00184828980478291,-0.10389259362048453
239,0.2296,45.8837,874.898,0.0221276,202.512,0.0653647,-0.0353282,-0.0736413,0.185565,-0.11013,0.153921,-0.000516935,-0.00184956,0.20951,-0.07099513187089579,0.1663987376383229,-0.000516801412122625,0.20389845063124512,-0.0018478506179337995,-0.10428231557158985
240,0.2306,45.8764,874.924,0.0224189,202.501,0.0688574,-0.0211972,-0.0739403,0.186299,-0.110565,0.154512,-0.000516706,-0.00184907,0.210352,-0.07127286280362277,0.16708828303286083,-0.0005165725304439039,0.20478243647712602,-0.0018473615232608154,-0.10467186803051365
241,0.2316,45.8689,874.949,0.0220847,202.491,0.0721912,-0.0073586,-0.0742392,0.187033,-0.111,0.155104,-0.000516466,-0.00184853,0.211194,-0.0715504178622609,0.16777940384799317,-0.0005163326543925484,0.20566707140680274,-0.001846822520690461,-0.10506125107096898
242,0.2326,45.8618,874.973,0.0223182,202.48,0.0756084,0.00651396,-0.0745378,0.187766,-0.111435,0.155694,-0.000516213,-0.00184795,0.212035,-0.07182761152041439,0.16846859698824757,-0.0005160797849927956,0.20655114934512442,-0.0018462435916797304,-0.10545046476663689
243,0.2336,45.8545,874.997,0.0220369,202.47,0.0788895,0.020125,-0.0748361,0.188498,-0.111869,0.156284,-0.000515949,-0.00184733,0.212875,-0.07210444405227301,0.16915819687243228,-0.0005158159212029778,0.207434668114864,-0.0018456247361589018,-0.1058386150302284
244,0.2346,45.8475,875.021,0.0222223,202.46,0.0822336,0.0337431,-0.0751343,0.18923,-0.112302,0.156874,-0.000515672,-0.00184665,0.213715,-0.07238110125541752,0.16984820374059728,-0.000515539064045667,0.20831883385710603,-0.001844945990952862,-0.10622570309930546
245,0.2356,45.8405,875.043,0.021985,202.45,0.0854604,0.0471256,-0.0754322,0.189962,-0.112736,0.157463,-0.000515384,-0.00184594,0.214554,-0.07265739776894453,0.17053744729490106,-0.0005152512124794173,0.20920364704560757,-0.0018442373006130053,-0.10661351698246047
246,0.2366,45.8337,875.066,0.0221306,202.44,0.0887336,0.060493,-0.0757299,0.190692,-0.113169,0.158051,-0.000515084,-0.00184518,0.215392,-0.07293342657270263,0.171225925706727,-0.0005149513670098527,0.21008668797867713,-0.0018434787019450116,-0.10700026959162456
247,0.2376,45.8268,875.087,0.0219298,202.43,0.0919052,0.0736465,-0.0760274,0.191423,-0.113601,0.158639,-0.000514773,-0.00184438,0.21623,-0.07320918785677244,0.17191480906290124,-0.0005146405271113652,0.21097158473795052,-0.001842680176408651,-0.10738596215956797
248,0.2386,45.8202,875.109,0.0220423,202.42,0.0951092,0.0867667,-0.0763247,0.192152,-0.114034,0.159226,-0.00051445,-0.00184353,0.217067,-0.07348468181101708,0.1726029249980896,-0.0005143176932881355,0.21185470488140634,-0.0018418317423262165,-0.10777238037237247
249,0.2396,45.8135,875.13,0.0218717,202.41,0.0982248,0.099691,-0.0766218,0.192881,-0.114466,0.159813,-0.000514116,-0.00184264,0.217903,-0.0737599086250833,0.17329144497590665,-0.0005139838650144446,0.2127384690541667,-0.001840943381161142,-0.10815773946049545
250,0.2406,45.807,875.15,0.0219569,202.401,0.101361,0.112567,-0.0769186,0.19361,-0.114897,0.1604,-0.000513771,-0.00184171,0.218738,-0.07403477589188323,0.17398036923359528,-0.0005136390422794124,0.21362287772590038,-0.001840015092806846,-0.10854204065193218
251,0.2416,45.8006,875.17,0.0218113,202.391,0.10442,0.125263,-0.0772152,0.194338,-0.115328,0.160985,-0.000513416,-0.00184074,0.219573,-0.07430937645207758,0.1746673486714907,-0.0005132842245583191,0.21450671685929446,-0.001839046877151862,-0.10892617624524437
252,0.2426,45.7943,875.19,0.021874,202.382,0.107491,0.137898,-0.0775116,0.195065,-0.115759,0.161571,-0.000513049,-0.00183973,0.220408,-0.07458371049458368,0.17535590546524893,-0.0005129174128662983,0.21538998427125278,-0.0018380387340800608,-0.10931014631178948
253,0.2436,45.788,875.209,0.0217489,202.373,0.110493,0.150365,-0.0778078,0.195792,-0.11619,0.162156,-0.000512671,-0.00183868,0.221241,-0.07485777820810302,0.17604368982725727,-0.0005125396066777421,0.2162738940520923,-0.001836990663470539,-0.10969395092289402
254,0.2446,45.7818,875.227,0.0217932,202.363,0.113499,0.162763,-0.0781038,0.196518,-0.11662,0.16274,-0.000512283,-0.00183758,0.222074,-0.0751315797811215,0.17673069992954038,-0.0005121518054678198,0.21715722951114702,-0.0018358926835563283,-0.11007670022699934
255,0.2456,45.7757,875.245,0.0216849,202.354,0.116444,0.175003,-0.0783995,0.197244,-0.11705,0.163324,-0.000511885,-0.00183645,0.222906,-0.07540502294241636,0.17741811136290075,-0.0005117540092250961,0.2180412065045938,-0.0018347647574777914,-0.11045928498428392
256,0.2466,45.7698,875.263,0.021714,202.346,0.119386,0.187165,-0.078695,0.197969,-0.117479,0.163907,-0.000511476,-0.00183528,0.223738,-0.0756782003941805,0.17810474625644845,-0.0005113452184488665,0.2189246065731396,-0.0018335969034694033,-0.11084081610674845
257,0.2476,45.7638,875.281,0.0216196,202.337,0.122274,0.199179,-0.0789903,0.198693,-0.117908,0.16449,-0.000511057,-0.00183407,0.224569,-0.07595111232417451,0.17879178157485165,-0.0005109264326147445,0.21980742753092253,-0.0018323891213909427,-0.11122218358746505
258,0.2486,45.758,875.298,0.0216363,202.328,0.125154,0.211108,-0.0792854,0.199417,-0.118337,0.165072,-0.000510628,-0.00183282,0.225399,-0.07622375891994382,0.17947803807299811,-0.0005104976517102955,0.22069088788251157,-0.0018311414110975255,-0.11160338749662113
259,0.2496,45.7523,875.314,0.0215532,202.319,0.127985,0.222897,-0.0795803,0.20014,-0.118765,0.165654,-0.000510189,-0.00183153,0.226229,-0.07649614036881969,0.18016469408867497,-0.0005100588757224189,0.22157376651661798,-0.0018298537724393826,-0.11198353988835752
260,0.2506,45.7467,875.331,0.0215598,202.311,0.130804,0.234597,-0.079875,0.200863,-0.119193,0.166235,-0.00050974,-0.00183021,0.227058,-0.07676825685791888,0.18085056900330954,-0.0005096101046381252,0.2224572837027856,-0.0018285361869767591,-0.11236352960968432
261,0.2516,45.7411,875.347,0.0214859,202.303,0.133577,0.246162,-0.0801694,0.201585,-0.119621,0.166816,-0.000509282,-0.00182884,0.227886,-0.07704001627815049,0.18153684252705404,-0.0005091523379346929,0.22334021656202618,-0.0018271686911346396,-0.11274335673020941
262,0.2526,45.7356,875.362,0.0214842,202.294,0.136336,0.257635,-0.0804636,0.202307,-0.120048,0.167397,-0.000508813,-0.00182744,0.228713,-0.07731151116650514,0.18222351489156807,-0.0005086835766172637,0.22422378712897606,-0.0018257712481926092,-0.11312213444208896
263,0.2536,45.7302,875.377,0.0214178,202.286,0.139053,0.268978,-0.0807576,0.203028,-0.120475,0.167976,-0.000508336,-0.00182601,0.22954,-0.07758274170937873,0.18290822050983824,-0.0005082068191455402,0.22510677075684304,-0.0018243438580248794,-0.11350075045041164
264,0.2546,45.7249,875.392,0.0214094,202.278,0.141752,0.280227,-0.0810514,0.203749,-0.120902,0.168556,-0.000507848,-0.00182454,0.230367,-0.07785370809295367,0.18359450628136886,-0.000507719067031509,0.22599039124546638,-0.0018228765387319212,-0.11387920482421021
265,0.2556,45.7197,875.407,0.0213491,202.27,0.144413,0.29135,-0.081345,0.204469,-0.121328,0.169135,-0.000507352,-0.00182303,0.231192,-0.07812441050319918,0.18428000593350458,-0.0005072233187372044,0.22687342218015272,-0.0018213692901374312,-0.11425661188954273
266,0.2566,45.7145,875.421,0.0213354,202.263,0.147054,0.302376,-0.0816383,0.205188,-0.121754,0.169713,-0.000506846,-0.00182149,0.232017,-0.07839475696535181,0.18496471763955458,-0.000506717575264215,0.22775586136957315,-0.0018198320938624946,-0.11463385821370564
267,0.2576,45.7094,875.435,0.02128,202.255,0.149658,0.313281,-0.0819315,0.205907,-0.12218,0.170291,-0.000506332,-0.00181991,0.232842,-0.07866493201301217,0.18564982522336826,-0.000506203835585084,0.22863893526091905,-0.0018182549679512938,-0.11501094386516009
268,0.2586,45.7044,875.449,0.0212618,202.247,0.152241,0.324087,-0.0822244,0.206625,-0.122605,0.170868,-0.000505808,-0.0018183,0.233665,-0.07893475153742713,0.18633414257909342,-0.0005056801006986245,0.22952141478867505,-0.0018166478940481179,-0.1153869842997649
269,0.2596,45.6995,875.462,0.0212104,202.24,0.15479,0.334776,-0.0825171,0.207343,-0.12303,0.171445,-0.000505276,-0.00181666,0.234488,-0.07920430788415633,0.18701885489986947,-0.0005051483695790449,0.23040452816425638,-0.0018150108720083047,-0.1157628649511413
270,0.2606,45.6947,875.475,0.0211887,202.233,0.157316,0.345366,-0.0828096,0.20806,-0.123455,0.172021,-0.000504735,-0.00181498,0.235311,-0.07947360123802727,0.18770277471028818,-0.0005046076427179802,0.2312870445552686,-0.001813333919817972,-0.11613858588718273
271,0.2616,45.6899,875.487,0.0211405,202.225,0.15981,0.35584,-0.0831019,0.208776,-0.123879,0.172597,-0.000504185,-0.00181327,0.236132,-0.0797426317836556,0.1883870885719936,-0.0005040579201009976,0.23216896176785573,-0.0018116270191594896,-0.11651326368945936
272,0.2626,45.6853,875.5,0.021116,202.218,0.16228,0.366215,-0.0833939,0.209492,-0.124303,0.173173,-0.000503627,-0.00181152,0.236954,-0.08001130770658105,0.18907179671202456,-0.0005035002012097056,0.23305151065928098,-0.001809880187978341,-0.11688778266202204
273,0.2636,45.6807,875.512,0.0210704,202.211,0.164719,0.376478,-0.0836858,0.210208,-0.124726,0.173748,-0.00050306,-0.00180975,0.237774,-0.08027981321557598,0.18975570960124633,-0.0005029334865337409,0.23393469168198844,-0.0018081133899027213,-0.11726126013390192
274,0.2646,45.6761,875.524,0.0210436,202.204,0.167134,0.38664,-0.0839774,0.210923,-0.12515,0.174322,-0.000502485,-0.00180794,0.238594,-0.0805479645236814,0.1904388254140399,-0.0005023587755552672,0.23481727047085843,-0.0018063066609528278,-0.11763546202319852
275,0.2656,45.6717,875.536,0.0210001,202.198,0.169519,0.396694,-0.0842688,0.211637,-0.125572,0.174896,-0.000501902,-0.0018061,0.239413,-0.08081585381345413,0.19112233344786667,-0.0005017760682605177,0.23569924482935156,-0.0018044699828673183,-0.11800774130177216
276,0.2666,45.6673,875.547,0.0209714,202.191,0.17188,0.406647,-0.08456,0.212351,-0.125995,0.175469,-0.000501311,-0.00180423,0.240231,-0.08108348126837506,0.1918050421222881,-0.0005011853646356146,0.23658184914240388,-0.0018026033554808807,-0.11838074513132979
277,0.2676,45.663,875.558,0.0209295,202.184,0.174211,0.416492,-0.084851,0.213064,-0.126417,0.176042,-0.000500712,-0.00180233,0.241049,-0.0813508470717148,0.19248814210087795,-0.000500586664666347,0.2374638463954981,-0.0018007067786255382,-0.118752709966784
278,0.2686,45.6588,875.569,0.0208994,202.178,0.176518,0.426238,-0.0851418,0.213777,-0.126839,0.176615,-0.000500105,-0.0018004,0.241866,-0.08161795140653372,0.19317163360791767,-0.0004999799683383932,0.23834647273687715,-0.0017987802521305385,-0.11912451786619349
279,0.2696,45.6547,875.579,0.0208589,202.171,0.178797,0.435879,-0.0854323,0.214489,-0.127261,0.177187,-0.00049949,-0.00179843,0.242683,-0.08188470264415693,0.1938543230128975,-0.0004993652756369871,0.23922848938613184,-0.001796813793790597,-0.1194961688957713
280,0.2706,45.6506,875.59,0.0208276,202.165,0.181051,0.44542,-0.0857227,0.215201,-0.127682,0.177758,-0.000498868,-0.00179644,0.243499,-0.08215128461693322,0.19453620849111486,-0.0004987435860488443,0.24011113425486053,-0.001794827367473606,-0.11986678298892561
281,0.2716,45.6466,875.6,0.0207881,202.159,0.183277,0.454858,-0.0860128,0.215912,-0.128103,0.17833,-0.000498238,-0.00179442,0.244314,-0.08241751391083962,0.19521967865620393,-0.0004981139000589385,0.2409931667967271,-0.0017928109909883805,-0.120237241086386
282,0.2726,45.6427,875.61,0.0207559,202.153,0.185479,0.464197,-0.0863027,0.216622,-0.128523,0.1789,-0.0004976,-0.00179237,0.245129,-0.08268348251954438,0.19590114807337122,-0.0004974762176521708,0.24187458481152113,-0.0017907646641533992,-0.12060666386091656
283,0.2736,45.6388,875.619,0.0207172,202.147,0.187653,0.473434,-0.0865924,0.217332,-0.128943,0.17947,-0.000496956,-0.00179029,0.245943,-0.08294919062498107,0.19658300603883183,-0.0004968325378196248,0.24275662885531957,-0.001788688386784587,-0.12097593151046038
284,0.2746,45.635,875.629,0.0206843,202.141,0.189804,0.482574,-0.0868819,0.218041,-0.129363,0.18004,-0.000496304,-0.00178818,0.246756,-0.08321463840887444,0.19726525277412166,-0.0004961808615420171,0.2436380557340836,-0.0017865821586949826,-0.12134504410015623
285,0.2756,45.6313,875.638,0.0206462,202.136,0.191927,0.491614,-0.0871712,0.21875,-0.129783,0.180609,-0.000495645,-0.00178605,0.247569,-0.08347982605274051,0.19794669055361314,-0.0004955221883081729,0.24452010776609523,-0.0017844559618506173,-0.12171400169511548
286,0.2766,45.6277,875.647,0.0206127,202.13,0.194027,0.500556,-0.0874603,0.219458,-0.130202,0.181178,-0.000494978,-0.00178389,0.248381,-0.08374475373788659,0.19862851618153354,-0.0004948555185991799,0.24540153999258263,-0.0017822998139468416,-0.12208192644278781
287,0.2776,45.6241,875.656,0.0205752,202.125,0.1961,0.509401,-0.0877491,0.220166,-0.13062,0.181746,-0.000494305,-0.0017817,0.249192,-0.08400933004634925,0.19930953056850131,-0.0004941828514105628,0.2462835964940535,-0.0017801137147896995,-0.1224488195115413
288,0.2786,45.6206,875.664,0.0205412,202.119,0.198149,0.518149,-0.0880378,0.220873,-0.131039,0.182314,-0.000493625,-0.00177948,0.250003,-0.08427373838358487,0.1999909318815174,-0.0004935031872237428,0.24716503054699723,-0.0017778976641822375,-0.12281643643504225
289,0.2796,45.6171,875.673,0.0205041,202.114,0.200173,0.5268,-0.0883262,0.22158,-0.131457,0.182881,-0.000492938,-0.00177724,0.250813,-0.08453779575853138,0.20067151966829844,-0.0004928165260246198,0.2480470879941603,-0.0017756616441687578,-0.12318302254277824
290,0.2806,45.6138,875.681,0.0204698,202.109,0.202173,0.535357,-0.0886144,0.222286,-0.131875,0.183448,-0.000492245,-0.00177497,0.251623,-0.08480159395064835,0.20135249345777573,-0.0004921238673064599,0.2489285203472933,-0.0017733956723487987,-0.12354945544954243
291,0.2816,45.6105,875.689,0.020433,202.104,0.204148,0.543817,-0.0889024,0.222992,-0.132292,0.184014,-0.000491545,-0.00177268,0.252432,-0.08506513314012565,0.202032651435623,-0.0004914242115482415,0.24981057521138816,-0.0017711097308074075,-0.12391485913465672
292,0.2826,45.6072,875.697,0.0203984,202.099,0.206099,0.552185,-0.0891902,0.223697,-0.13271,0.18458,-0.000490838,-0.00177036,0.25324,-0.08532841350694587,0.20271319449185232,-0.0004907175587354207,0.2506920023334651,-0.0017687938370956058,-0.12428098619765127
293,0.2836,45.6041,875.704,0.0203619,202.094,0.208025,0.560458,-0.0894778,0.224401,-0.133126,0.185146,-0.000490125,-0.00176801,0.254048,-0.08559143523088442,0.20339412284448022,-0.0004900049083629288,0.2515727995073349,-0.0017664479910047826,-0.12464520954368452
294,0.2846,45.6009,875.712,0.020327,202.089,0.209928,0.568638,-0.0897652,0.225105,-0.133543,0.185711,-0.000489406,-0.00176564,0.254855,-0.08585419849150988,0.20407423263681146,-0.0004892862604181092,0.2524542169807351,-0.001764082174682935,-0.125010156394598
295,0.2856,45.5979,875.719,0.0202907,202.084,0.211807,0.576726,-0.0900524,0.225808,-0.133959,0.186275,-0.00048868,-0.00176325,0.255661,-0.08611670346818412,0.20475352204562514,-0.0004885606153764988,0.25333500185488145,-0.0017616963879883984,-0.1253740764689142
296,0.2866,45.5949,875.726,0.0202556,202.08,0.213663,0.584722,-0.0903393,0.226511,-0.134375,0.186839,-0.000487949,-0.00176083,0.256467,-0.08637885897795294,0.2054331946817256,-0.00048782997224727787,0.2542164061384913,-0.0017592806483706092,-0.12573784518396436
297,0.2876,45.592,875.733,0.0202194,202.075,0.215495,0.592627,-0.0906261,0.227213,-0.13479,0.187403,-0.000487211,-0.00175839,0.257272,-0.08664084795018367,0.20611325076131348,-0.00048709233199362156,0.2550971751693598,-0.0017568449380438445,-0.12610058870372653
298,0.2886,45.5892,875.74,0.0201842,202.071,0.217305,0.600441,-0.0909126,0.227915,-0.135206,0.187966,-0.000486467,-0.00175592,0.258077,-0.08690248786553845,0.20679248370762537,-0.00048634869411368076,0.255978562717162,-0.001754379274405693,-0.126464055252542
299,0.2896,45.5864,875.746,0.0201482,202.067,0.219091,0.608166,-0.0911989,0.228616,-0.13562,0.188529,-0.000485718,-0.00175343,0.258881,-0.08716387026458672,0.20747209916975384,-0.00048560005810849294,0.25685931235630854,-0.0017518936397155072,-0.1268256242837137
300,0.2906,45.5837,875.753,0.0201129,202.062,0.220854,0.615802,-0.091485,0.229317,-0.136035,0.189091,-0.000484962,-0.00175092,0.259684,-0.0874249953255829,0.20815088921162306,-0.0004848444249365702,0.2577406796174033,-0.001749388033823962,-0.1271879164688079
301,0.2916,45.581,875.759,0.0200769,202.058,0.222594,0.623349,-0.0917709,0.230017,-0.136449,0.189653,-0.000484201,-0.00174839,0.260487,-0.0876858632265759,0.20883006084071165,-0.0004840837936137543,0.2586214063115153,-0.0017468624565808444,-0.12754918588346098
302,0.2926,45.5784,875.765,0.0200415,202.054,0.224313,0.630808,-0.0920566,0.230717,-0.136863,0.190214,-0.000483435,-0.00174583,0.261289,-0.08794647414540968,0.20950840476252264,-0.00048331816412860995,0.25950274973014187,-0.0017443069252777166,-0.12791030576353224
303,0.2936,45.5759,875.771,0.0200056,202.05,0.226008,0.63818,-0.0923421,0.231416,-0.137276,0.190775,-0.000482662,-0.00174325,0.26209,-0.08820682825972281,0.21018712934203831,-0.0004825455374349863,0.26038344992106066,-0.0017417314222671898,-0.1282704044417563
304,0.2946,45.5734,875.777,0.0199702,202.047,0.227682,0.645465,-0.0926274,0.232115,-0.13769,0.191335,-0.000481885,-0.00174065,0.262891,-0.08846692574694959,0.21086502392723805,-0.0004817689120711899,0.2612647659366185,-0.001739135947394721,-0.12863122579914288
305,0.2956,45.571,875.783,0.0199343,202.043,0.229334,0.652664,-0.0929125,0.232813,-0.138103,0.191895,-0.000481102,-0.00173803,0.263691,-0.08872676678431912,0.21154329823971918,-0.00048098628898984863,0.2621454360613604,-0.001736520500504657,-0.1289910267988671
306,0.2966,45.5686,875.788,0.0198988,202.039,0.230964,0.659779,-0.0931974,0.23351,-0.138515,0.192455,-0.000480314,-0.00173539,0.264491,-0.08898635154885681,0.21222195249218867,-0.000480198667696663,0.26302545808234257,-0.001733885081440012,-0.12934980858170364
307,0.2976,45.5663,875.793,0.019863,202.036,0.232572,0.666808,-0.093482,0.234207,-0.138927,0.193014,-0.00047952,-0.00173272,0.26529,-0.08924558914194669,0.21289977399709192,-0.00047940504865939815,0.2639060936924844,-0.001731219707354903,-0.12970844257689196
308,0.2986,45.564,875.799,0.0198275,202.032,0.234159,0.673753,-0.0937665,0.234903,-0.139339,0.193572,-0.000478721,-0.00173004,0.266088,-0.08950466191698614,0.21357676093277145,-0.00047860643138497583,0.2647860785328955,-0.0017285443434387204,-0.13006692884530802
309,0.2996,45.5619,875.804,0.0197917,202.029,0.235724,0.680615,-0.0940507,0.235599,-0.139751,0.194131,-0.000477918,-0.00172734,0.266886,-0.08976338792536209,0.2142553399873084,-0.00047780381538364836,0.2656666760559445,-0.001725849006869784,-0.1304252674478028
310,0.3006,45.5597,875.809,0.0197561,202.026,0.237269,0.687395,-0.0943348,0.236295,-0.140162,0.194688,-0.000477109,-0.00172461,0.267683,-0.09002194941645358,0.2149318686074111,-0.000476995201599828,0.2665478866882067,-0.0017231237147175005,-0.13078258922822605
311,0.3016,45.5576,875.814,0.0197203,202.022,0.238792,0.694092,-0.0946186,0.236989,-0.140573,0.195246,-0.000476296,-0.00172187,0.268479,-0.09028016454474941,0.2156099897683026,-0.000476182589066676,0.26742717599966803,-0.001720388432329245,-0.13113976417957285
312,0.3026,45.5556,875.818,0.0196848,202.019,0.240295,0.700708,-0.0949022,0.237684,-0.140984,0.195802,-0.000475477,-0.00171911,0.269275,-0.0905381245096325,0.21628605685184676,-0.00047536397872494085,0.268308344057419,-0.0017176331767990716,-0.1314967923621777
313,0.3036,45.5537,875.823,0.019649,202.016,0.241777,0.707243,-0.0951856,0.238378,-0.141394,0.196359,-0.000474654,-0.00171633,0.270071,-0.09079582948662646,0.21696371689631522,-0.00047454136961100346,0.26918885555034233,-0.0017148579479616677,-0.1318528056895899
314,0.3046,45.5518,875.827,0.0196134,202.014,0.243239,0.713698,-0.0954688,0.239071,-0.141804,0.196915,-0.000473827,-0.00171353,0.270865,-0.09105327965105181,0.21764053686142404,-0.0004737147617148718,0.2700687082609907,-0.001712062745650611,-0.13220867308145678
315,0.3056,45.5499,875.832,0.0195777,202.011,0.244681,0.720073,-0.0957518,0.239763,-0.142214,0.19747,-0.000472994,-0.00171071,0.271659,-0.09131047517802704,0.21831651492594362,-0.0004728821559725205,0.2709478999723549,-0.0017092475696981468,-0.1325643945975995
316,0.3066,45.5481,875.836,0.019542,202.008,0.246103,0.726369,-0.0960346,0.240456,-0.142623,0.198025,-0.000472158,-0.00170787,0.272453,-0.09156741624246767,0.21899286826241715,-0.0004720465509526761,0.27182897212327495,-0.0017064124199354103,-0.13291910321735168
317,0.3076,45.5463,875.84,0.0195063,202.005,0.247504,0.732587,-0.0963172,0.241147,-0.143032,0.19858,-0.000471316,-0.00170502,0.273246,-0.09182410301908772,0.21966959707917866,-0.00047120494806163205,0.27270810965004655,-0.0017035672791564371,-0.13327366679094232
318,0.3086,45.5446,875.844,0.0194707,202.003,0.248886,0.738728,-0.0965996,0.241838,-0.143441,0.199134,-0.000470471,-0.00170214,0.274038,-0.09208053568239882,0.2203454812385861,-0.0004703603458729999,0.2735878548707835,-0.0017006921812900977,-0.13362808537768323
319,0.3096,45.543,875.848,0.019435,202.0,0.250249,0.744791,-0.0968818,0.242529,-0.143849,0.199688,-0.000469621,-0.00169925,0.27483,-0.0923367144067112,0.22102173994155683,-0.00046951074531820236,0.27446820820554696,-0.0016978070921215282,-0.13398149301878792
320,0.3106,45.5414,875.852,0.0193994,201.998,0.251592,0.750778,-0.0971638,0.243219,-0.144257,0.200241,-0.000468767,-0.00169635,0.275621,-0.09259263936613327,0.22169715169788273,-0.0004686571459158184,0.27534789472615695,-0.0016949120115642424,-0.13433475649898574
321,0.3116,45.5399,875.855,0.0193637,201.996,0.252915,0.756689,-0.0974455,0.243909,-0.144665,0.200794,-0.000467908,-0.00169342,0.276411,-0.09284822001939863,0.22237293706020278,-0.0004677985481236213,0.2762281884399236,-0.0016919869733712511,-0.13468787587708264
322,0.3126,45.5384,875.859,0.019328,201.993,0.25422,0.762525,-0.0977271,0.244598,-0.145072,0.201346,-0.000467046,-0.00169048,0.277201,-0.09310363799610222,0.22304787318669295,-0.00046693695099453425,0.2771078126575035,-0.001689051943498443,-0.13503998625227875
323,0.3136,45.5369,875.862,0.0192924,201.991,0.255506,0.768287,-0.0980085,0.245286,-0.145479,0.201898,-0.00046618,-0.00168753,0.27799,-0.09335880272900843,0.22372318198077168,-0.00046607135498721863,0.27798676515760135,-0.0016861069218577773,-0.13539195334771148
324,0.3146,45.5355,875.866,0.0192567,201.989,0.256773,0.773975,-0.0982896,0.245974,-0.145886,0.20245,-0.000465309,-0.00168455,0.278779,-0.09361362375278848,0.22439886364820838,-0.00046520076055622805,0.2788663225850905,-0.0016831319420237412,-0.13574377722168407
325,0.3156,45.5342,875.869,0.0192211,201.987,0.258022,0.779589,-0.0985706,0.246662,-0.146293,0.203001,-0.000464435,-0.00168156,0.279567,-0.09386828254327817,0.22507369332057992,-0.0004643271667599258,0.27974648535630386,-0.00168014697012564,-0.13609545793247557
326,0.3166,45.5329,875.872,0.0191854,201.985,0.259252,0.785131,-0.0988513,0.247349,-0.146699,0.203552,-0.000463557,-0.00167856,0.280354,-0.09412259802152101,0.22574889492655936,-0.00046344957405386467,0.28062597326124816,-0.0016771520060741008,-0.1364461319849053
327,0.3176,45.5317,875.875,0.0191498,201.983,0.260464,0.790601,-0.0991319,0.248035,-0.147105,0.204102,-0.000462675,-0.00167554,0.281141,-0.09437675156110703,0.22642324224728294,-0.00046256798242760855,0.2815047840765512,-0.0016741370665206423,-0.13679666369256782
328,0.3186,45.5305,875.878,0.0191142,201.982,0.261659,0.796,-0.0994122,0.248721,-0.14751,0.204652,-0.00046179,-0.00167251,0.281927,-0.09463056218442378,0.2270979605610468,-0.0004616833914088403,0.28238419796290337,-0.0016711121345731605,-0.13714619025986485
329,0.3196,45.5293,875.881,0.0190785,201.98,0.262835,0.801327,-0.0996924,0.249407,-0.147915,0.205201,-0.000460901,-0.00166946,0.282713,-0.09488421116301826,0.22777182229951687,-0.00046079480145044815,0.28326421533415336,-0.0016680672268216679,-0.13749557529756384
330,0.3206,45.5282,875.884,0.0190429,201.978,0.263993,0.806585,-0.0999723,0.250092,-0.14832,0.20575,-0.000460008,-0.00166639,0.283498,-0.09513751762042122,0.22844605408965113,-0.00045990221254166297,0.2841435524602389,-0.0016650023430835326,-0.13784481886297262
331,0.3216,45.5272,875.887,0.0190073,201.977,0.265134,0.811773,-0.100252,0.250776,-0.148725,0.206299,-0.000459112,-0.00166331,0.284283,-0.09539057226540104,0.22912065613466392,-0.0004590066242127211,0.2850222071157569,-0.0016619274665554684,-0.1381939210133758
332,0.3226,45.5261,875.889,0.0189717,201.976,0.266258,0.816892,-0.100532,0.25146,-0.149129,0.206847,-0.000458213,-0.00166022,0.285066,-0.09564382744778654,0.229794398842867,-0.00045810803645585096,0.2859014629766481,-0.0016588425971452159,-0.13854202034848617
333,0.3236,45.5252,875.892,0.0189361,201.974,0.267364,0.821942,-0.100811,0.252143,-0.149533,0.207395,-0.00045731,-0.00165711,0.28585,-0.0958961076252074,0.2304685108632567,-0.000457205449719833,0.2867800336736006,-0.0016557377513176652,-0.13888997907986889
334,0.3246,45.5243,875.894,0.0189005,201.973,0.268453,0.826925,-0.10109,0.252826,-0.149937,0.207942,-0.000456404,-0.00165399,0.286632,-0.09614831742627672,0.23114176125589436,-0.0004562998635377902,0.2876592046393074,-0.0016526229123602354,-0.1392377972643165
335,0.3256,45.5234,875.897,0.0188649,201.972,0.269525,0.831841,-0.101369,0.253508,-0.15034,0.208489,-0.000455494,-0.00165086,0.287414,-0.0964004568706267,0.23181538001723645,-0.0004553902783567265,0.2885376877455603,-0.0016494980801795567,-0.13958461454364346
336,0.3266,45.5225,875.899,0.0188293,201.971,0.270581,0.83669,-0.101648,0.25419,-0.150743,0.209035,-0.000454581,-0.00164771,0.288196,-0.09665252597788421,0.2324881348600849,-0.00045447769371154134,0.28941677018164014,-0.0016463532711454842,-0.13993129208376598
337,0.3276,45.5218,875.901,0.0187938,201.969,0.27162,0.841473,-0.101926,0.254871,-0.151146,0.209581,-0.000453666,-0.00164455,0.288977,-0.09690362167174382,0.2331612571273749,-0.00045356310914013154,0.29029516206062156,-0.0016431984686372525,-0.14027782994098792
338,0.3286,45.521,875.903,0.0187582,201.968,0.272643,0.846191,-0.102205,0.255552,-0.151549,0.210127,-0.000452747,-0.00164138,0.289757,-0.09715555041560342,0.2338347470197757,-0.0004526445255426115,0.29117415232820076,-0.0016400336725601594,-0.14062422817159004
339,0.3296,45.5203,875.905,0.0187227,201.968,0.273649,0.850844,-0.102483,0.256233,-0.151951,0.210672,-0.000451825,-0.00163819,0.290537,-0.09740650628810532,0.2345073702300775,-0.0004517229424559899,0.29205374139201923,-0.0016368488991879149,-0.14096962780188793
340,0.3306,45.5196,875.907,0.0186871,201.967,0.274639,0.855433,-0.102761,0.256912,-0.152352,0.211217,-0.0004509,-0.001635,0.291316,-0.09765739240457127,0.2351803601199398,-0.0004507983598720511,0.2929313437947225,-0.0016336641156561305,-0.14131402992389885
341,0.3316,45.519,875.909,0.0186516,201.966,0.275613,0.859958,-0.103038,0.257592,-0.152754,0.211761,-0.000449973,-0.00163179,0.292095,-0.09790730669214842,0.23585248103615886,-0.0004498717773326888,0.29381083610199776,-0.0016304593545742874,-0.14165915230962223
342,0.3326,45.5185,875.911,0.0186161,201.965,0.276572,0.864421,-0.103316,0.25827,-0.153155,0.212305,-0.000449042,-0.00162856,0.292873,-0.09815805360545216,0.23652496768562692,-0.0004489411957301348,0.29468833728816257,-0.001627234615750095,-0.14200327798773626
343,0.3336,45.5179,875.913,0.0185806,201.964,0.277515,0.86882,-0.103593,0.258949,-0.153556,0.212849,-0.000448109,-0.00162533,0.29365,-0.09840782922908242,0.23719782026735658,-0.0004480086141571693,0.29556772918894514,-0.0016240098665099012,-0.1423472656991176
344,0.3346,45.5174,875.914,0.0185451,201.964,0.278442,0.873158,-0.10387,0.259627,-0.153957,0.213392,-0.000447173,-0.00162208,0.294427,-0.09865753567444668,0.23786980111004952,-0.0004470730330554673,0.296446421952522,-0.0016207651392693423,-0.14269111549907976
345,0.3356,45.517,875.916,0.0185096,201.963,0.279354,0.877435,-0.104147,0.260304,-0.154357,0.213934,-0.000446235,-0.00161883,0.295203,-0.0989071729607045,0.2385409083958967,-0.00044613545197025317,0.29732441334673676,-0.00161752040148333,-0.14303397047731303
346,0.3366,45.5165,875.917,0.0184742,201.963,0.28025,0.881651,-0.104424,0.260981,-0.154757,0.214477,-0.000445293,-0.00161556,0.295979,-0.09915674110701034,0.23921361873348324,-0.0004451938717863202,0.2982029993423754,-0.0016142556854372714,-0.14337668834097983
347,0.3376,45.5162,875.919,0.0184387,201.963,0.281132,0.885807,-0.104701,0.261657,-0.155157,0.215018,-0.000444349,-0.00161228,0.296754,-0.09940624013251342,0.23988421468106602,-0.0004442502916039981,0.2990808812605883,-0.0016109809748253712,-0.14371926914491484
348,0.3386,45.5158,875.92,0.0184033,201.962,0.281999,0.889903,-0.104977,0.262333,-0.155556,0.21556,-0.000443403,-0.00160899,0.297528,-0.09965476971157727,0.2405564140750034,-0.0004433047114175137,0.29995935682760844,-0.0016076962695493746,-0.1440608570052162
349,0.3396,45.5155,875.922,0.0183679,201.962,0.282851,0.89394,-0.105253,0.263008,-0.155955,0.216101,-0.000442454,-0.00160569,0.298302,-0.09990323070594243,0.24122773667140662,-0.00044235613166354604,0.3008371256071025,-0.001604401569510916,-0.14440230859914815
350,0.3406,45.5153,875.923,0.0183325,201.962,0.283689,0.897919,-0.105529,0.263683,-0.156354,0.216641,-0.000441503,-0.00160238,0.299076,-0.10015162313453563,0.24189818065279245,-0.00044140555189220443,0.3017154870805343,-0.0016010968746107412,-0.1447436239810702
351,0.3416,45.515,875.924,0.0182971,201.962,0.284512,0.90184,-0.105805,0.264357,-0.156752,0.217182,-0.00044055,-0.00159906,0.299848,-0.10039994701627841,0.24257022934130434,-0.00044045297209782674,0.30259313905431706,-0.0015977821847500406,-0.14508394828969595
352,0.3426,45.5148,875.925,0.0182618,201.962,0.28532,0.905704,-0.10608,0.265031,-0.15715,0.217721,-0.000439594,-0.00159573,0.300621,-0.10064730301783986,0.24324015522372577,-0.0004394973927140944,0.3034713827649229,-0.0015944574998291161,-0.14542413717619762
353,0.3436,45.5147,875.926,0.0182264,201.962,0.286115,0.90951,-0.106356,0.265704,-0.157548,0.218261,-0.000438636,-0.00159239,0.301392,-0.10089549011081267,0.24391168620459314,-0.00043853981329389224,0.3043489142617508,-0.0015911228197482696,-0.14576419069446256
354,0.3446,45.5146,875.927,0.0181911,201.962,0.286896,0.913261,-0.106631,0.266377,-0.157946,0.2188,-0.000437676,-0.00158904,0.302163,-0.1011427098567591,0.24458233532715945,-0.0004375802338315582,0.3052270365360503,-0.001587778144407359,-0.14610410889835657
355,0.3456,45.5145,875.928,0.0181558,201.962,0.287662,0.916956,-0.106906,0.267049,-0.158343,0.219338,-0.000436713,-0.00158568,0.302934,-0.10138986162662256,0.2452521007743158,-0.00043661765475777603,0.30610444388045166,-0.0015844234737061313,-0.14644303828518912
356,0.3466,45.5145,875.929,0.0181205,201.962,0.288415,0.920595,-0.10718,0.267721,-0.15874,0.219876,-0.000435749,-0.00158231,0.303704,-0.10163604707559015,0.24592222665222985,-0.00043565407519274846,0.30698244104074446,-0.0015810588075437781,-0.1467818331437607
357,0.3476,45.5144,875.93,0.0180852,201.962,0.289155,0.92418,-0.107455,0.268392,-0.159137,0.220414,-0.000434782,-0.00157893,0.304473,-0.10188306319637108,0.24659271315486575,-0.0004346874960029501,0.30785972055304356,-0.0015776841458193802,-0.14712049352746848
358,0.3486,45.5145,875.931,0.01805,201.962,0.289881,0.927711,-0.107729,0.269063,-0.159533,0.220951,-0.000433813,-0.00157555,0.305242,-0.10212911352662057,0.24726231321335468,-0.00043371891674581775,0.3087375889174333,-0.001574309472688551,-0.14745816694828162
359,0.3496,45.5145,875.931,0.0180147,201.963,0.290593,0.931189,-0.108003,0.269733,-0.159929,0.221488,-0.000432843,-0.00157215,0.30601,-0.1023750964483151,0.24793227294363818,-0.0004327493369830071,0.30961473691377406,-0.0015709148195698353,-0.1477957066768928
360,0.3506,45.5146,875.932,0.0179795,201.963,0.291293,0.934613,-0.108277,0.270403,-0.160325,0.222025,-0.00043187,-0.00156875,0.306778,-0.1026210119799219,0.24860259253891193,-0.00043177675757488654,0.3104924727961922,-0.001567520154909352,-0.14813311276623387
361,0.3516,45.5147,875.933,0.0179444,201.964,0.29198,0.937985,-0.108551,0.271072,-0.16072,0.222561,-0.000430896,-0.00156533,0.307545,-0.10286686013990332,0.24927202291982775,-0.0004308031776513177,0.31136948558856226,-0.0015641055099891998,-0.14846953373917482
362,0.3526,45.5149,875.933,0.0179092,201.964,0.292653,0.941305,-0.108825,0.271741,-0.161116,0.223097,-0.00042992,-0.00156191,0.308311,-0.1031126409467168,0.24994181221160727,-0.0004298275976390986,0.3122470852987924,-0.0015606908533909447,-0.14880667304582573
363,0.3536,45.5151,875.934,0.0178741,201.965,0.293314,0.944574,-0.109098,0.272409,-0.16151,0.223632,-0.000428942,-0.00155848,0.309077,-0.10335745777672056,0.25061070999534296,-0.0004288500175324561,0.31312395919504654,-0.0015572662006873017,-0.14914197715739808
364,0.3546,45.5153,875.934,0.017839,201.965,0.293963,0.947792,-0.109371,0.273077,-0.161905,0.224167,-0.000427962,-0.00155505,0.309842,-0.10360220778085183,0.2512799657351379,-0.000427870437325506,0.3140014190387479,-0.001553841536237055,-0.14947799970759823
365,0.3556,45.5156,875.935,0.0178039,201.966,0.294599,0.950959,-0.109644,0.273744,-0.162299,0.224702,-0.000426981,-0.0015516,0.310607,-0.10384689097735178,0.25194957962254927,-0.0004268898565854551,0.31487815034263256,-0.0015503968910484112,-0.14981303936856605
366,0.3566,45.5159,875.935,0.0177688,201.967,0.295222,0.954076,-0.109917,0.274411,-0.162693,0.225236,-0.000425997,-0.00154815,0.311371,-0.10409150738445605,0.2526182992303123,-0.0004259062761611254,0.31575546662136444,-0.001546952233975607,-0.15014794704990908
367,0.3576,45.5162,875.935,0.0177338,201.967,0.295834,0.957144,-0.11019,0.275077,-0.163087,0.225769,-0.000425013,-0.00154469,0.312135,-0.10433605702039594,0.2532861227429579,-0.00042492269476901434,0.3166320516325418,-0.001543497580453801,-0.15048272280361719
368,0.3586,45.5165,875.936,0.0176987,201.968,0.296433,0.960164,-0.110462,0.275743,-0.16348,0.226303,-0.000424026,-0.00154123,0.312898,-0.10457964448348966,0.25395555625534283,-0.00042393611368085615,0.31750922064378706,-0.0015400429149788897,-0.1508165174986016
369,0.3596,45.5169,875.936,0.0176638,201.969,0.29702,0.963134,-0.110734,0.276408,-0.163873,0.226836,-0.000423039,-0.00153775,0.313661,-0.10482316569980332,0.25462409271596664,-0.00042294953161892135,0.3183856556578588,-0.0015365682682823012,-0.15115018103804467
370,0.3606,45.5173,875.936,0.0176288,201.97,0.297596,0.966057,-0.111006,0.277073,-0.164266,0.227368,-0.000422049,-0.00153427,0.314423,-0.10506662068735373,0.25529173030914487,-0.00042195994984906005,0.3192626736950488,-0.0015330936094940517,-0.15148371347348033
371,0.3616,45.5178,875.936,0.0175939,201.971,0.29816,0.968933,-0.111278,0.277738,-0.164659,0.2279,-0.000421059,-0.00153079,0.315184,-0.10531000946415259,0.25595972318001814,-0.00042097036709953795,0.3201402751431961,-0.0015296189386138082,-0.15181711485642235
372,0.3626,45.5182,875.936,0.017559,201.972,0.298712,0.971762,-0.11155,0.278402,-0.165051,0.228432,-0.000420066,-0.00152729,0.315945,-0.10555333204820672,0.25662807151764455,-0.000419977784630321,0.321017139372598,-0.0015261242861644986,-0.1521495373883256
373,0.3636,45.5187,875.936,0.0175241,201.973,0.299253,0.974544,-0.111821,0.279065,-0.165443,0.228963,-0.000419073,-0.00152379,0.316705,-0.10579569425365953,0.2572955182150358,-0.000418985201175448,0.3218932641392691,-0.001522629621483862,-0.15248182963613377
374,0.3646,45.5193,875.936,0.0174892,201.974,0.299783,0.97728,-0.112093,0.279728,-0.165835,0.229494,-0.000418078,-0.00152029,0.317465,-0.1060388847494157,0.2579633194207369,-0.00041799061757097355,0.32276996996926166,-0.0015191349445717872,-0.15281399165090803
375,0.3656,45.5198,875.936,0.0174544,201.975,0.300301,0.979971,-0.112364,0.28039,-0.166226,0.230025,-0.000417082,-0.00151677,0.318224,-0.10628111538791463,0.25863147532304187,-0.0004169950333937633,0.3236459336013531,-0.0015156202857410372,-0.15314517662928995
376,0.3666,45.5204,875.936,0.0174196,201.977,0.300809,0.982617,-0.112635,0.281052,-0.166617,0.230555,-0.000416084,-0.00151326,0.318983,-0.10652328039080461,0.2592987268109881,-0.0004159974490570706,0.3245224773133544,-0.0015121155994175517,-0.1534762321396579
377,0.3676,45.521,875.936,0.0173849,201.978,0.301306,0.985219,-0.112905,0.281714,-0.167008,0.231085,-0.000415086,-0.00150973,0.319741,-0.1067644865408035,0.2599663320359551,-0.00041499986372472986,0.32539960148940517,-0.0015085909309645595,-0.15380715823262414
378,0.3686,45.5216,875.936,0.0173502,201.979,0.301791,0.987776,-0.113176,0.282375,-0.167398,0.231614,-0.000414086,-0.0015062,0.320498,-0.10700652056785898,0.2606330305518121,-0.000414000278224802,0.3262759802372568,-0.00150506625006952,-0.15413710909631284
379,0.3696,45.5223,875.936,0.0173155,201.981,0.302267,0.990291,-0.113446,0.283035,-0.167788,0.232143,-0.000413085,-0.00150266,0.321255,-0.10724759626062264,0.2613000818444853,-0.0004129996921382606,0.32715161131068204,-0.001501531571747594,-0.15446693130425426
380,0.3706,45.523,875.935,0.0172808,201.982,0.302731,0.992762,-0.113716,0.283695,-0.168178,0.232672,-0.000412083,-0.00149912,0.322012,-0.10748860687173556,0.2619674861006427,-0.000411998105462108,0.32802782049137047,-0.0014979968809130106,-0.15479662490661428
381,0.3716,45.5237,875.935,0.0172462,201.984,0.303186,0.99519,-0.113986,0.284355,-0.168568,0.2332,-0.00041108,-0.00149558,0.322768,-0.10772955241876758,0.2626339808724396,-0.0004109955181934577,0.3289046081609983,-0.0014944621775655476,-0.15512618995353933
382,0.3726,45.5245,875.935,0.0172116,201.985,0.30363,0.997576,-0.114256,0.285014,-0.168957,0.233728,-0.000410076,-0.00149203,0.323523,-0.10797043291928365,0.2633008276463964,-0.000409991930329201,0.3297806449201848,-0.0014909174766144506,-0.15545478195036044
383,0.3736,45.5252,875.934,0.017177,201.987,0.304063,0.999921,-0.114525,0.285673,-0.169346,0.234255,-0.00040907,-0.00148847,0.324278,-0.10821035660164635,0.2639667626410247,-0.00040898634227526376,0.33065725917786026,-0.0014873627779532494,-0.15578324614975292
384,0.3746,45.526,875.934,0.0171425,201.988,0.304487,1.00222,-0.114795,0.286331,-0.169735,0.234782,-0.000408064,-0.00148491,0.325032,-0.10845110730255669,0.2646330486758861,-0.0004079807532096913,0.33153311978093636,-0.0014838080666373932,-0.15611158260142055
385,0.3756,45.5268,875.934,0.017108,201.99,0.304901,1.00449,-0.115064,0.286988,-0.170123,0.235309,-0.000407057,-0.00148134,0.325786,-0.10869090170089979,0.2652996859360277,-0.00040697416353951965,0.33240822448104823,-0.001480243357469213,-0.1564389477944168
386,0.3766,45.5277,875.933,0.0170735,201.991,0.305305,1.00671,-0.115333,0.287646,-0.170511,0.235835,-0.000406049,-0.00147777,0.326539,-0.1089306316032248,0.26596540864055207,-0.0004059665732616402,0.33328523759842943,-0.0014766786355749906,-0.15676618599435643
387,0.3776,45.5285,875.933,0.0170391,201.993,0.305699,1.00889,-0.115601,0.288302,-0.170899,0.236361,-0.00040504,-0.00147419,0.327291,-0.10916940619673043,0.2666314816073301,-0.00040495798237305536,0.3341601596573536,-0.0014731039156856696,-0.15709329725050325
388,0.3786,45.5294,875.932,0.0170047,201.995,0.306084,1.01104,-0.11587,0.288958,-0.171287,0.236887,-0.00040403,-0.00147061,0.328043,-0.109409007398657,0.2672979050206481,-0.0004039483908707675,0.33503565585344464,-0.0014695291829989188,-0.15742028161210175
389,0.3796,45.5304,875.932,0.0169704,201.997,0.306459,1.01314,-0.116138,0.289614,-0.171674,0.237412,-0.00040302,-0.00146703,0.328795,-0.10964765380462738,0.2679634111008442,-0.0004029387983488508,0.33591172656346036,-0.0014659544375146272,-0.15774629687509556
390,0.3806,45.5313,875.931,0.0169361,201.998,0.306825,1.0152,-0.116407,0.290269,-0.172061,0.237936,-0.000402008,-0.00146344,0.329546,-0.10988712637524911,0.26862799803483095,-0.0004019272056109413,0.3367870353767015,-0.0014623696938564912,-0.15807218599459294
391,0.3816,45.5323,875.93,0.0169018,202.0,0.307182,1.01723,-0.116675,0.290924,-0.172448,0.238461,-0.000400996,-0.00145985,0.330296,-0.11012564466250252,0.26929420259719494,-0.00040091561184940616,0.3376629177050212,-0.001458784937329094,-0.15839794901940196
392,0.3826,45.5332,875.93,0.0168675,202.002,0.307529,1.01922,-0.116943,0.291579,-0.172834,0.238985,-0.000399984,-0.00145625,0.331046,-0.11036409903541977,0.2699594870486597,-0.0003999040170642454,0.33853937392419464,-0.0014551901824843005,-0.15872274472147718
393,0.3836,45.5343,875.929,0.0168334,202.004,0.307868,1.02117,-0.11721,0.292232,-0.173221,0.239508,-0.00039897,-0.00145265,0.331795,-0.11060160011317244,0.2706238495760436,-0.00039889042205298875,0.3394137255801135,-0.0014515954146983034,-0.15904825602876949
394,0.3846,45.5353,875.928,0.0167992,202.006,0.308197,1.02309,-0.117478,0.292886,-0.173606,0.240032,-0.000397956,-0.00144904,0.332544,-0.11083992694711997,0.2712898309451015,-0.00039787682601399865,0.3402899886634385,-0.0014479906484511362,-0.1593719601331599
395,0.3856,45.5363,875.927,0.0167651,202.008,0.308518,1.02497,-0.117745,0.293539,-0.173992,0.240554,-0.000396941,-0.00144544,0.333292,-0.1110773009957794,0.2719536174700652,-0.00039686222934398607,0.3411654838441023,-0.0014443958547468716,-0.1596963799394977
396,0.3866,45.5374,875.927,0.016731,202.01,0.30883,1.02681,-0.118012,0.294191,-0.174377,0.241077,-0.000395926,-0.00144183,0.33404,-0.11131461167402812,0.2726190232004333,-0.00039584763164424164,0.3420402088689394,-0.0014407910625092724,-0.16001983456421043
397,0.3876,45.5385,875.926,0.016697,202.012,0.309133,1.02862,-0.118279,0.294843,-0.174762,0.241599,-0.00039491,-0.00143821,0.334787,-0.11155185899878395,0.27328350374487753,-0.00039483203330958894,0.3429155044004575,-0.0014371762716302028,-0.16034316468286158
398,0.3886,45.5396,875.925,0.016663,202.014,0.309428,1.03039,-0.118546,0.295494,-0.175147,0.242121,-0.000393893,-0.00143459,0.335534,-0.1117890429869598,0.2739483312387121,-0.0003938154343368083,0.34379002702004957,-0.0014335614676654895,-0.16066637034337672
399,0.3896,45.5408,875.924,0.016629,202.017,0.309715,1.03213,-0.118812,0.296146,-0.175532,0.242642,-0.000392877,-0.00143097,0.33628,-0.11202527568118403,0.27461223125022305,-0.00039279983393736284,0.34466646380501054,-0.0014299466506151326,-0.16098945159366318
400,0.3906,45.5419,875.923,0.0165951,202.019,0.309993,1.03383,-0.119078,0.296796,-0.175916,0.243163,-0.000391859,-0.00142735,0.337025,-0.11226144554586825,0.27527647724376036,-0.00039178223328961703,0.3455407811288307,-0.001426331820479243,-0.16131156979359862
401,0.3916,45.5431,875.922,0.0165612,202.021,0.310263,1.0355,-0.119345,0.297446,-0.1763,0.243684,-0.000390841,-0.00142372,0.33777,-0.11249844009972665,0.2759410693996278,-0.00039076463160603314,0.3464156669436511,-0.0014227069914846124,-0.16163356432389142
402,0.3926,45.5443,875.921,0.0165274,202.023,0.310525,1.03714,-0.11961,0.298096,-0.176683,0.244204,-0.000389823,-0.00142009,0.338515,-0.11273359685345419,0.27660473129285346,-0.0003897470288863891,0.3472911216191108,-0.0014190821493319516,-0.16195459718703775
403,0.3936,45.5455,875.92,0.0164936,202.026,0.31078,1.03874,-0.119876,0.298745,-0.177067,0.244724,-0.000388804,-0.00141646,0.339259,-0.1129695783297634,0.2772687383800061,-0.0003887284255196244,0.34816579735861763,-0.0014154572940210386,-0.16227634484221443
404,0.3946,45.5467,875.919,0.0164598,202.028,0.311026,1.04031,-0.120142,0.299394,-0.17745,0.245243,-0.000387785,-0.00141282,0.340002,-0.1132054970433477,0.27793181290818136,-0.00038770982111491215,0.3490410409469267,-0.0014118224396701962,-0.16259713156756062
405,0.3956,45.548,875.918,0.0164261,202.03,0.311264,1.04185,-0.120407,0.300042,-0.177832,0.245762,-0.000386765,-0.00140918,0.340745,-0.1134404664518095,0.2785952316613556,-0.00038669021605897136,0.3499155028365133,-0.0014081875720883819,-0.16291695837249287
406,0.3966,45.5493,875.917,0.0163924,202.033,0.311495,1.04335,-0.120672,0.30069,-0.178215,0.246281,-0.000385746,-0.00140554,0.341487,-0.11367537360162772,0.2792589948182278,-0.0003856716095773649,0.35079053156103934,-0.0014045526912757067,-0.16323749978983648
407,0.3976,45.5506,875.916,0.0163588,202.035,0.311718,1.04482,-0.120937,0.301337,-0.178597,0.246799,-0.000384725,-0.0014019,0.342229,-0.11391021850929872,0.2799218226351272,-0.00038465100282703,0.3516647758224807,-0.0014009177972319486,-0.16355708202082442
408,0.3986,45.5519,875.915,0.0163252,202.038,0.311934,1.04627,-0.121202,0.301984,-0.178979,0.247317,-0.000383705,-0.00139826,0.342971,-0.11414500119131443,0.2805849938857774,-0.00038363139465102947,0.35253958590298184,-0.0013972828899572187,-0.16387654219471448
409,0.3996,45.5532,875.914,0.0162917,202.04,0.312142,1.04768,-0.121467,0.30263,-0.179361,0.247835,-0.000382684,-0.00139461,0.343711,-0.11437972166416244,0.2812485087481231,-0.00038261078581769414,0.3534136087544608,-0.0013936379833878743,-0.1641958803581236
410,0.4006,45.5545,875.913,0.0162582,202.043,0.312344,1.04906,-0.121731,0.303276,-0.179742,0.248352,-0.000381663,-0.00139096,0.344451,-0.11461349455826342,0.281911085488475,-0.0003815901759423035,0.3542881964071132,-0.0013899930635145052,-0.1645142610723298
411,0.4016,45.5559,875.912,0.0162248,202.045,0.312538,1.05041,-0.121996,0.303922,-0.180123,0.248869,-0.000380642,-0.00138731,0.345191,-0.11484809089681769,0.28257400486956663,-0.0003805695650248575,0.3551633492259181,-0.0013863481303372227,-0.16483252050658914
412,0.4026,45.5573,875.911,0.0161914,202.048,0.312724,1.05173,-0.12226,0.304567,-0.180504,0.249385,-0.000379621,-0.00138365,0.34593,-0.1150817401577614,0.2832359838319636,-0.0003795489530653562,0.35603771153770114,-0.001382693197682805,-0.16515065870710044
413,0.4036,45.5587,875.909,0.0161581,202.05,0.312904,1.05302,-0.122524,0.305211,-0.180885,0.249901,-0.0003786,-0.00138,0.346669,-0.11531532774344178,0.2838983044636483,-0.00037852834006379954,0.3569112810831334,-0.001379048237860947,-0.1654686757200451
414,0.4046,45.5601,875.908,0.0161248,202.053,0.313077,1.05428,-0.122788,0.305855,-0.181265,0.250417,-0.000377578,-0.00137634,0.347407,-0.1155488536701389,0.28456096694096744,-0.00037750672639769167,0.3577854133885421,-0.0013753932784889011,-0.16578573737774127
415,0.4056,45.5615,875.907,0.0160915,202.056,0.313243,1.05552,-0.123051,0.306499,-0.181645,0.250933,-0.000376556,-0.00137268,0.348145,-0.11578143373600436,0.28522397144035927,-0.00037648511168753007,0.3586601088164614,-0.001371738305739667,-0.16610267857489636
416,0.4066,45.563,875.906,0.0160583,202.058,0.313403,1.05672,-0.123315,0.307142,-0.182025,0.251448,-0.000375535,-0.00136903,0.348882,-0.11601483662696088,0.28588603225167697,-0.00037546449555780903,0.35953400819497117,-0.0013680933059323497,-0.16641949935727685
417,0.4076,45.5644,875.904,0.0160251,202.061,0.313555,1.0579,-0.123578,0.307785,-0.182404,0.251962,-0.000374513,-0.00136536,0.349618,-0.11624729415542312,0.2865471475643344,-0.00037444287876042814,0.36040846967147644,-0.001364428320109634,-0.16673536650641474
418,0.4086,45.5659,875.903,0.0159921,202.064,0.313702,1.05905,-0.123841,0.308427,-0.182783,0.252476,-0.000373491,-0.0013617,0.350354,-0.11647969055559404,0.2872086027776093,-0.0003734212609189935,0.3612821323247095,-0.0013607733072286132,-0.16705111396458594
419,0.4096,45.5674,875.902,0.015959,202.067,0.313841,1.06017,-0.124104,0.309069,-0.183162,0.25299,-0.000372469,-0.00135804,0.35109,-0.11671202584354834,0.28787039806625603,-0.0003723996420335052,0.36215635604945073,-0.001357118280970182,-0.16736674177714472
420,0.4106,45.5689,875.9,0.015926,202.069,0.313975,1.06127,-0.124366,0.30971,-0.183541,0.253504,-0.000371447,-0.00135437,0.351825,-0.11694341697921495,0.28853253360511766,-0.00037137802210385207,0.3630297781755638,-0.0013534532548689082,-0.16768224998942838
421,0.4116,45.5704,875.899,0.015893,202.072,0.314102,1.06233,-0.124629,0.310351,-0.183919,0.254017,-0.000370425,-0.00135071,0.352559,-0.11717563032315614,0.2891937203747632,-0.00037035640113014523,0.3639037603447344,-0.0013497982018191301,-0.1679968066439792
422,0.4126,45.572,875.897,0.0158601,202.075,0.314223,1.06338,-0.124891,0.310991,-0.184298,0.25453,-0.000369403,-0.00134704,0.353293,-0.11740690001035958,0.2898552464202384,-0.00036933477911238466,0.3647769381384445,-0.0013461331488531236,-0.1683120761069241
423,0.4136,45.5735,875.896,0.0158273,202.078,0.314338,1.06439,-0.125153,0.311631,-0.184675,0.255042,-0.000368381,-0.00134337,0.354026,-0.11763810911284178,0.29051582139916965,-0.00036831315605045933,0.36565067494480763,-0.0013424680824364321,-0.16862556335817203
424,0.4146,45.5751,875.895,0.0157945,202.081,0.314447,1.06538,-0.125415,0.312271,-0.185053,0.255555,-0.000367359,-0.0013397,0.354759,-0.11786925764647405,0.291178025856468,-0.0003672915319444803,0.36652497112170623,-0.0013388030025688336,-0.16893976350765316
425,0.4156,45.5767,875.893,0.0157617,202.084,0.314549,1.06635,-0.125677,0.31291,-0.18543,0.256066,-0.000366338,-0.00133603,0.355492,-0.11810034562712335,0.29183798643324743,-0.00036627090642815663,0.3673984596281088,-0.001335137909250439,-0.16925301416535166
426,0.4166,45.5783,875.892,0.015729,202.087,0.314646,1.06729,-0.125938,0.313548,-0.185807,0.256578,-0.000365316,-0.00133236,0.356224,-0.11833049140158458,0.2924995768349914,-0.0003652492802349583,0.3682711382002144,-0.0013314728024811373,-0.1695661467498104
427,0.4176,45.5799,875.89,0.0156963,202.09,0.314738,1.0682,-0.1262,0.314187,-0.186184,0.257089,-0.000364295,-0.00132869,0.356955,-0.11856145855481914,0.2931602128968924,-0.00036422865263341375,0.36914574286395463,-0.0013278076822608176,-0.1698791613055345
428,0.4186,45.5815,875.889,0.0156637,202.093,0.314823,1.06909,-0.126461,0.314824,-0.18656,0.257599,-0.000363273,-0.00132502,0.357686,-0.11879148399451067,0.293819892809549,-0.0003632070243529961,0.3700181665395994,-0.0013241425485894798,-0.1701912280686556
429,0.4196,45.5831,875.887,0.0156312,202.096,0.314903,1.06996,-0.126722,0.315462,-0.186937,0.25811,-0.000362252,-0.00132135,0.358416,-0.1190214494053965,0.2944812037253235,-0.0003621863946663417,0.37089251701799597,-0.0013204774014671239,-0.17050400701313817
430,0.4206,45.5848,875.886,0.0155987,202.099,0.314977,1.0708,-0.126983,0.316098,-0.187313,0.25862,-0.000361231,-0.00131768,0.359146,-0.1192513548031422,0.2951415575151266,-0.000361165763937632,0.3717646819778777,-0.001316812240893639,-0.17081583887843677
431,0.4216,45.5865,875.884,0.0155662,202.102,0.315046,1.07162,-0.127243,0.316735,-0.187688,0.259129,-0.00036021,-0.001314,0.359875,-0.11948031968416895,0.29580095236965587,-0.00036014513216686694,0.372638774449193,-0.0013131370800003594,-0.17112672464413303
432,0.4226,45.5881,875.883,0.0155338,202.105,0.31511,1.07242,-0.127504,0.317371,-0.188064,0.259638,-0.00035919,-0.00131033,0.360604,-0.1197101053323999,0.2964606829415988,-0.0003591254989948611,0.37351205038205304,-0.0013094718924877569,-0.1714383224116155
433,0.4236,45.5898,875.881,0.0155015,202.108,0.315168,1.07319,-0.127764,0.318006,-0.188439,0.260147,-0.000358169,-0.00130666,0.361332,-0.11993895095379348,0.2971207494018795,-0.0003581048651409846,0.3743845075098675,-0.0013058066915240252,-0.17174897478974982
434,0.4246,45.5915,875.879,0.0154692,202.111,0.315221,1.07394,-0.128024,0.318641,-0.188814,0.260656,-0.000357149,-0.00130298,0.36206,-0.12016773708305994,0.2977811519215081,-0.00035708522988797675,0.37525751882389335,-0.0013021314901302539,-0.1720595106950823
435,0.4256,45.5932,875.878,0.0154369,202.114,0.315269,1.07467,-0.128284,0.319276,-0.189188,0.261164,-0.000356129,-0.00129931,0.362787,-0.12039646373566493,0.29844059223034125,-0.00035606559359480094,0.376131084676151,-0.0012984662622271825,-0.1723691025407985
436,0.4266,45.595,875.876,0.0154048,202.117,0.315312,1.07538,-0.128544,0.31991,-0.189563,0.261672,-0.00035511,-0.00129563,0.363514,-0.12062513092707061,0.2991003676199544,-0.00035504695590671265,0.3770038284143671,-0.0012947910338205748,-0.17267940594182163
437,0.4276,45.5967,875.874,0.0153726,202.121,0.315349,1.07606,-0.128804,0.320544,-0.189937,0.262179,-0.00035409,-0.00129196,0.36424,-0.12085373867273486,0.2997591785007838,-0.0003540273175345332,0.3778771256475524,-0.0012911257789779418,-0.1729887659900644
438,0.4286,45.5984,875.873,0.0153406,202.124,0.315382,1.07673,-0.129063,0.321177,-0.19031,0.262686,-0.000353071,-0.00128829,0.364966,-0.12108140806995904,0.30041832348341746,-0.00035300867776943967,0.3787495979764468,-0.0012874605106837356,-0.1732971836568794
439,0.4296,45.6002,875.871,0.0153085,202.127,0.31541,1.07737,-0.129322,0.32181,-0.190684,0.263193,-0.000352053,-0.00128461,0.365691,-0.12130901850844467,0.3010778027372878,-0.00035199103661431863,0.37962262275515735,-0.0012837852417759699,-0.17360631269945748
440,0.4306,45.602,875.869,0.0152766,202.13,0.315433,1.07799,-0.129581,0.322442,-0.191057,0.263699,-0.000351034,-0.00128094,0.366415,-0.12153657000346041,0.3017363146949481,-0.00035097239477410724,0.3804948198379856,-0.00128011994654198,-0.17391450006430387
441,0.4316,45.6037,875.868,0.0152447,202.134,0.315452,1.07859,-0.12984,0.323074,-0.19143,0.264206,-0.000350016,-0.00127727,0.36714,-0.12176406257027039,0.30239646233978545,-0.0003499547515460888,0.38136756832359486,-0.0012764546378564168,-0.17422257249669937
442,0.4326,45.6055,875.866,0.0152129,202.137,0.315466,1.07917,-0.130099,0.323706,-0.191803,0.264711,-0.000348999,-0.00127359,0.367863,-0.12199149622413519,0.30305433865305487,-0.00034893810693303884,0.38224086856058204,-0.001272779328446827,-0.17453053003950592
443,0.4336,45.6073,875.864,0.015181,202.14,0.315475,1.07974,-0.130357,0.324337,-0.192175,0.265217,-0.000347982,-0.00126992,0.368586,-0.12221799319874327,0.30371385099096315,-0.0003479214612861492,0.38311333778373524,-0.001269113992821147,-0.17483754757352943
444,0.4346,45.6091,875.863,0.0151493,202.143,0.31548,1.08028,-0.130616,0.324967,-0.192548,0.265722,-0.000346965,-0.00126625,0.369309,-0.12244530929979891,0.30437239275351335,-0.00034690481460530886,0.38398497372303053,-0.0012654486437435608,-0.17514527577340733
445,0.4356,45.611,875.861,0.0151176,202.147,0.31548,1.0808,-0.130874,0.325597,-0.19292,0.266226,-0.000345948,-0.00126258,0.370031,-0.12267168920573601,0.30502996213302525,-0.0003458881668905178,0.38485715896597994,-0.0012617832812141794,-0.175452064664548
446,0.4366,45.6128,875.859,0.0150859,202.15,0.315476,1.0813,-0.131132,0.326227,-0.193291,0.26673,-0.000344932,-0.00125891,0.370753,-0.12289801071319106,0.3056878630110351,-0.00034487251779702355,0.3857298938587541,-0.0012581179052327807,-0.17575791520977313
447,0.4376,45.6146,875.857,0.0150544,202.154,0.315468,1.08178,-0.13139,0.326856,-0.193663,0.267234,-0.000343917,-0.00125524,0.371474,-0.12312427383722901,0.3063460955546604,-0.0003438578673277126,0.3866017921452558,-0.0012544525157995867,-0.17606447624142796
448,0.4386,45.6165,875.856,0.0150228,202.157,0.315455,1.08225,-0.131647,0.327485,-0.194034,0.267738,-0.000342902,-0.00125157,0.372195,-0.12334960194295097,0.30700465993110226,-0.0003428432158284478,0.38747423902829525,-0.0012507871129142645,-0.17637009962409944
449,0.4396,45.6183,875.854,0.0149914,202.16,0.315438,1.0827,-0.131905,0.328114,-0.194405,0.268241,-0.000341887,-0.0012479,0.372915,-0.12357574857148024,0.30766224864474445,-0.0003418285632993401,0.3883472348530481,-0.001247121696576925,-0.1766756096415264
450,0.4406,45.6202,875.852,0.01496,202.164,0.315417,1.08313,-0.132162,0.328742,-0.194775,0.268744,-0.000340873,-0.00124423,0.373635,-0.12380096066310398,0.30832016820871133,-0.00034081490939963377,0.38921939074482204,-0.0012434562667874571,-0.17698018331635457
451,0.4416,45.6221,875.85,0.0149286,202.167,0.315392,1.08354,-0.132419,0.329369,-0.195146,0.269247,-0.000339859,-0.00124056,0.374354,-0.12402611488265702,0.30897841878946286,-0.00033980125447197196,0.39009070443111504,-0.001239790823545972,-0.17728546703471282
452,0.4426,45.624,875.848,0.0148974,202.171,0.315364,1.08393,-0.132676,0.329996,-0.195516,0.269749,-0.000338846,-0.0012369,0.375072,-0.1242512112450107,0.3096356909171962,-0.00033878859817781937,0.3909625646023942,-0.0012361353544908527,-0.17758981510404503
453,0.4436,45.6259,875.846,0.0148661,202.174,0.315331,1.0843,-0.132933,0.330623,-0.195886,0.270251,-0.000337833,-0.00123323,0.37579,-0.12447624976503224,0.3102932930783693,-0.0003377759408577097,0.39183497160141334,-0.0012324698843814152,-0.17789405058542163
454,0.4446,45.6278,875.845,0.0148349,202.178,0.315294,1.08466,-0.13319,0.331249,-0.196255,0.270752,-0.000336821,-0.00122957,0.376508,-0.12470123045758541,0.31094991448813025,-0.000336764282175106,0.3927065330639117,-0.0012288143885317293,-0.17819735171825513
455,0.4456,45.6297,875.843,0.0148038,202.181,0.315254,1.085,-0.133446,0.331875,-0.196625,0.271253,-0.00033581,-0.00122591,0.377225,-0.12492527826324551,0.3116068649476378,-0.00033575362213289495,0.393578640294693,-0.0012251588793027457,-0.17850136245266524
456,0.4466,45.6316,875.841,0.0147727,202.184,0.31521,1.08533,-0.133702,0.3325,-0.196994,0.271754,-0.000334799,-0.00122224,0.377942,-0.1251492687200083,0.31226414462178664,-0.00033474296106894563,0.394449899184919,-0.001221493368909643,-0.1788044395287608
457,0.4476,45.6335,875.839,0.0147418,202.188,0.315162,1.08564,-0.133958,0.333125,-0.197363,0.272255,-0.000333788,-0.00121858,0.378658,-0.1253732018425534,0.3129217536755551,-0.00033373229898314705,0.3953217027821547,-0.0012178378328857598,-0.17910740479004628
458,0.4486,45.6355,875.837,0.0147109,202.192,0.31511,1.08593,-0.134214,0.33375,-0.197731,0.272755,-0.000332778,-0.00121492,0.379374,-0.12559707764555628,0.3135783786949682,-0.0003327226355428481,0.3961940514269484,-0.0012141822834825788,-0.17940943768762185
459,0.4496,45.6374,875.835,0.0146799,202.195,0.315055,1.08621,-0.13447,0.334374,-0.198099,0.273255,-0.000331769,-0.00121126,0.380089,-0.12582089614368885,0.3142353321089826,-0.0003317139707511574,0.39706554839381414,-0.0012105267206999892,-0.1797113594575398
460,0.4506,45.6394,875.833,0.014649,202.199,0.314997,1.08647,-0.134726,0.334997,-0.198467,0.273754,-0.00033076,-0.00120761,0.380804,-0.1260446573516194,0.31489129918988024,-0.00033070530494172523,0.39793619140760206,-0.0012068811324693618,-0.18001317014068774
461,0.4516,45.6413,875.831,0.0146184,202.202,0.314935,1.08671,-0.134981,0.335621,-0.198835,0.274253,-0.000329752,-0.00120395,0.381518,-0.12626748755193673,0.31554759368003316,-0.0003296976377847871,0.39880877580906016,-0.0012032255429645922,-0.18031486977793787
462,0.4526,45.6433,875.829,0.0145876,202.206,0.31487,1.08694,-0.135236,0.336243,-0.199203,0.274752,-0.000328744,-0.00120029,0.382232,-0.12649026093779714,0.31620421574285906,-0.00032868996961210595,0.3996791055120912,-0.0011995699400803028,-0.18061645841014773
463,0.4536,45.6453,875.828,0.014557,202.209,0.314801,1.08716,-0.135491,0.336866,-0.19957,0.27525,-0.000327738,-0.00119664,0.382945,-0.1267129775236865,0.31685984868135075,-0.00032768429976837155,0.40055137727926793,-0.0011959243118573326,-0.18091711699568613
464,0.4546,45.6472,875.826,0.0145264,202.213,0.314729,1.08736,-0.135746,0.337488,-0.199937,0.275749,-0.000326731,-0.00119299,0.383657,-0.12693563732408686,0.3175171257228262,-0.0003266776292396578,0.40142279121757585,-0.0011922786703277843,-0.1812176652597689
465,0.4556,45.6492,875.824,0.0144959,202.217,0.314654,1.08754,-0.136001,0.338109,-0.200304,0.276246,-0.000325726,-0.00118934,0.38437,-0.12715824035347678,0.3181720944805646,-0.00032567295704577504,0.40229334504991,-0.001188633015491658,-0.18151810324287654
466,0.4566,45.6512,875.822,0.0144654,202.22,0.314576,1.08771,-0.136255,0.33873,-0.20067,0.276744,-0.000324721,-0.00118569,0.385081,-0.12737991400668125,0.3188287076667291,-0.00032466828384225543,0.40316443966406945,-0.0011849873473488426,-0.18181761280349662
467,0.4576,45.6532,875.82,0.014435,202.224,0.314494,1.08787,-0.13651,0.339351,-0.201037,0.277241,-0.000323716,-0.00118204,0.385793,-0.12760240375996035,0.3194843284427069,-0.000323663609628988,0.4040360753959842,-0.001181341665899227,-0.18211783064625398
468,0.4586,45.6552,875.818,0.0144046,202.227,0.31441,1.08801,-0.136764,0.339971,-0.201403,0.277738,-0.000322713,-0.0011784,0.386503,-0.12782396460998613,0.3201402751431961,-0.00032266093376076554,0.40490684767424234,-0.001177705959365949,-0.18241712074680805
469,0.4596,45.6572,875.816,0.0143743,202.231,0.314323,1.08814,-0.137018,0.340591,-0.201768,0.278234,-0.00032171,-0.00117475,0.387214,-0.1280454691907026,0.3207952271343335,-0.0003216582568869031,0.4057781599987098,-0.0011740602513392595,-0.18271548404312143
470,0.4606,45.6592,875.814,0.0143441,202.235,0.314232,1.08826,-0.137272,0.34121,-0.202134,0.27873,-0.000320707,-0.00117111,0.387923,-0.12826691751640018,0.3214505040622362,-0.0003206555790072896,0.4066486060550101,-0.001170424518301516,-0.18301455544255696
471,0.4616,45.6613,875.812,0.0143139,202.238,0.314139,1.08836,-0.137526,0.341829,-0.202499,0.279226,-0.000319706,-0.00116747,0.388633,-0.12848830960136604,0.32210610608811274,-0.00031965489948260206,0.407519591084214,-0.0011667887720296921,-0.18331270071499828
472,0.4626,45.6633,875.81,0.0142838,202.242,0.314043,1.08845,-0.137779,0.342448,-0.202864,0.279721,-0.000318705,-0.00116383,0.389342,-0.1287087741690931,0.3227607106118797,-0.00031865421895638235,0.40839111542004924,-0.0011631530125237877,-0.1836107371842728
473,0.4636,45.6653,875.808,0.0142537,202.246,0.313944,1.08853,-0.138032,0.343066,-0.203229,0.280216,-0.000317705,-0.00116019,0.39005,-0.1289291829663397,0.32341563924509664,-0.0003176545371107453,0.40926177013397513,-0.0011595172397836917,-0.18390866489008661
474,0.4646,45.6674,875.806,0.0142238,202.25,0.313842,1.08859,-0.138286,0.343683,-0.203593,0.280711,-0.000316705,-0.00115656,0.390758,-0.12915040685724277,0.3240708921482369,-0.00031665485426546347,0.41013155294655235,-0.0011558914422504785,-0.18420566807820704
475,0.4656,45.6694,875.804,0.0141939,202.253,0.313738,1.08864,-0.138539,0.344301,-0.203957,0.281205,-0.000315707,-0.00115292,0.391465,-0.1293707039355524,0.3247251447560473,-0.0003156571697890964,0.4110032835832955,-0.0011522556430780817,-0.18450256317684055
476,0.4666,45.6715,875.802,0.014164,202.257,0.313631,1.08868,-0.138791,0.344918,-0.204321,0.281699,-0.000314708,-0.00114929,0.392172,-0.12959007487626117,0.3253797206444895,-0.00031465848463174684,0.4118741412412268,-0.0011486298191852873,-0.18479935022532434
477,0.4676,45.6735,875.8,0.0141343,202.261,0.313522,1.08871,-0.139044,0.345534,-0.204685,0.282193,-0.000313711,-0.00114566,0.392878,-0.12981026073263224,0.32603461997330396,-0.0003136617978494183,0.4127441236392999,-0.0011450039821305769,-0.18509602926298174
478,0.4686,45.6756,875.798,0.0141044,202.264,0.313409,1.08872,-0.139297,0.34615,-0.205048,0.282686,-0.000312715,-0.00114203,0.393584,-0.1300303908890279,0.32668851621312966,-0.000312666109760773,0.41361464211162424,-0.0011413781319141725,-0.18539178572131454
479,0.4696,45.6777,875.796,0.0140747,202.268,0.313295,1.08872,-0.139549,0.346766,-0.205412,0.283179,-0.000311719,-0.00113841,0.39429,-0.13024959560956906,0.32734273490327936,-0.00031167042068036555,0.4144856969885231,-0.0011377622571582258,-0.18568824915169424
480,0.4706,45.6797,875.794,0.014045,202.272,0.313178,1.08871,-0.139801,0.347381,-0.205775,0.283672,-0.000310724,-0.00113478,0.394995,-0.1304687450974802,0.32799727620275987,-0.00031067573029752715,0.41535587324394285,-0.0011341363806542937,-0.1859837906732208
481,0.4716,45.6818,875.792,0.0140156,202.276,0.313058,1.08869,-0.140053,0.347995,-0.206137,0.284165,-0.00030973,-0.00113116,0.395699,-0.13068783936667827,0.3286521402706568,-0.00030968203861536647,0.41622516859647773,-0.0011305204796832058,-0.18627841121146227
482,0.4726,45.6839,875.789,0.0139861,202.279,0.312936,1.08866,-0.140305,0.34861,-0.2065,0.284657,-0.000308736,-0.00112754,0.396403,-0.13090687843107662,0.3293059979594719,-0.00030868834594544037,0.4170964149559595,-0.0011269045656224774,-0.18657373854303894
483,0.4736,45.686,875.787,0.0139565,202.283,0.312812,1.08862,-0.140556,0.349224,-0.206862,0.285148,-0.000307744,-0.00112392,0.397107,-0.13112499343001283,0.32995884746590787,-0.0003076966516724067,0.4179667793292614,-0.0011232886384722196,-0.1868681455588015
484,0.4746,45.6881,875.785,0.0139272,202.287,0.312686,1.08857,-0.140808,0.349837,-0.207224,0.28564,-0.000306752,-0.00112031,0.39781,-0.13134392234546655,0.3306133482128424,-0.00030670495641560436,0.4188362594334152,-0.0011196826870354393,-0.18716244601851217
485,0.4756,45.6901,875.783,0.0138979,202.291,0.312557,1.0885,-0.141059,0.35045,-0.207586,0.286131,-0.000305761,-0.00111669,0.398512,-0.1315619276601463,0.33126683978586735,-0.00030571425986936074,0.419706272692268,-0.0011160667337419827,-0.18745663996073714
486,0.4766,45.6922,875.781,0.0138686,202.295,0.312426,1.08843,-0.14131,0.351063,-0.207947,0.286621,-0.00030477,-0.00111308,0.399214,-0.13177987826235882,0.3319193203820534,-0.0003047235623412359,0.42057681943274394,-0.0011124607562340572,-0.18774991517435036
487,0.4776,45.6943,875.779,0.0138396,202.298,0.312293,1.08834,-0.141561,0.351675,-0.208308,0.287112,-0.000303781,-0.00110947,0.399916,-0.13199777416583514,0.33257345334486166,-0.00030373486322399224,0.42144647853477823,-0.0011088547657085446,-0.18804308453471896
488,0.4786,45.6964,875.777,0.0138103,202.302,0.312158,1.08825,-0.141812,0.352287,-0.208669,0.287602,-0.000302792,-0.00110587,0.400617,-0.13221561538430293,0.3332265743385765,-0.00030274616312886415,0.422316670031079,-0.001105258751112892,-0.18833614808004928
489,0.4796,45.6986,875.775,0.0137813,202.306,0.312021,1.08814,-0.142063,0.352898,-0.20903,0.288092,-0.000301804,-0.00110226,0.401318,-0.13243340193148634,0.3338800154399979,-0.00030175846175406473,0.4231859710608885,-0.0011016527345881766,-0.18862910584853365
490,0.4806,45.7007,875.773,0.0137522,202.31,0.311882,1.08803,-0.142313,0.353509,-0.209391,0.288581,-0.000300817,-0.00109866,0.402018,-0.13265026647180644,0.3345324422729079,-0.0003007717591028136,0.4240558033959245,-0.0010980566940651526,-0.18892195787835053
491,0.4816,45.7028,875.771,0.0137233,202.314,0.31174,1.08791,-0.142564,0.35412,-0.209751,0.28907,-0.000299831,-0.00109506,0.402718,-0.13286794393525747,0.33518518822055654,-0.00029978605517777535,0.4249261673609137,-0.001094460640596373,-0.1892138934219636
492,0.4826,45.7049,875.769,0.0136945,202.317,0.311597,1.08777,-0.142814,0.35473,-0.210111,0.289559,-0.000298846,-0.00109146,0.403417,-0.133084699853655,0.33583825343902873,-0.00029880134998205854,0.4257956374844307,-0.0010908645741817269,-0.18950572388769604
493,0.4836,45.707,875.766,0.0136656,202.321,0.311452,1.08763,-0.143064,0.35534,-0.21047,0.290047,-0.000297861,-0.00108787,0.404116,-0.13330140158984594,0.33649030159351656,-0.0002978166438164509,0.4266656381465208,-0.0010872784839485172,-0.18979663911041345
494,0.4846,45.7091,875.764,0.0136368,202.325,0.311305,1.08748,-0.143314,0.355949,-0.21083,0.290536,-0.000296878,-0.00108427,0.404814,-0.13351804915737409,0.33714400516849374,-0.0002968339360871486,0.4275347421354556,-0.001083682391678109,-0.19008825982545552
495,0.4856,45.7113,875.762,0.0136081,202.329,0.311156,1.08731,-0.143563,0.356558,-0.211189,0.291023,-0.000295895,-0.00108068,0.405512,-0.13373377630398953,0.3377953528893074,-0.00029585122739195224,0.42840437556991917,-0.0010800962756608579,-0.19037896595530568
496,0.4866,45.7134,875.76,0.0135795,202.333,0.311006,1.08714,-0.143813,0.357166,-0.211548,0.291511,-0.000294913,-0.00107709,0.406209,-0.13395031579134986,0.3384483563414007,-0.00029486951743584733,0.4292731094986184,-0.0010765101467693494,-0.19066956774038624
497,0.4876,45.7155,875.758,0.0135509,202.337,0.310854,1.08696,-0.144062,0.357775,-0.211907,0.291998,-0.000293932,-0.00107351,0.406906,-0.13416593531697274,0.33910033943593665,-0.00029388880622183144,0.4301438019212356,-0.0010729339942743277,-0.19096006521815023
498,0.4886,45.7177,875.756,0.0135224,202.341,0.3107,1.08678,-0.144311,0.358382,-0.212265,0.292485,-0.000292952,-0.00106992,0.407603,-0.13438150116001768,0.3397526401235673,-0.00029290909375279117,0.4310121627298449,-0.001069347839670276,-0.19124964967609126
499,0.4896,45.7198,875.754,0.013494,202.344,0.310544,1.08658,-0.14456,0.358989,-0.212624,0.292971,-0.000291973,-0.00106634,0.408299,-0.13459701333384966,0.3404039181544096,-0.0002919303800317241,0.4318810507934707,-0.0010657716615342094,-0.19153993894181665
500,0.4906,45.7219,875.752,0.0134655,202.348,0.310387,1.08638,-0.144809,0.359596,-0.212982,0.293457,-0.000290994,-0.00106277,0.408994,-0.13481247185183076,0.3410555127833024,-0.00029095166535242356,0.43275046643225434,-0.0010622054599733755,-0.1918293158421196
501,0.4916,45.7241,875.75,0.0134373,202.352,0.310228,1.08616,-0.145058,0.360203,-0.213339,0.293943,-0.000290016,-0.00105919,0.409689,-0.13502787672731975,0.3417074241641489,-0.000289973949425093,0.4336204099665304,-0.0010586292562674293,-0.19211778128221924
502,0.4926,45.7262,875.747,0.0134091,202.356,0.310067,1.08594,-0.145306,0.360809,-0.213697,0.294429,-0.00028904,-0.00105562,0.410384,-0.13524236321646743,0.3423596524509285,-0.00028899823196348873,0.4344894472266647,-0.0010550630292082142,-0.19240695135198926
503,0.4936,45.7284,875.745,0.0133807,202.36,0.309905,1.08571,-0.145554,0.361415,-0.214054,0.294914,-0.000288064,-0.00105205,0.411078,-0.1354567965195611,0.34301085478616855,-0.00028802251354964614,0.43535901128298193,-0.0010514967894175165,-0.19269521061301698
504,0.4946,45.7305,875.743,0.0133525,202.364,0.309742,1.08548,-0.145803,0.36202,-0.214411,0.295399,-0.000287089,-0.00104848,0.411771,-0.13567204097818053,0.3436623730311432,-0.0002870477938964333,0.43622766622643283,-0.0010479305368952252,-0.19298336698385554
505,0.4956,45.7327,875.741,0.0133247,202.368,0.309577,1.08523,-0.146051,0.362625,-0.214768,0.295883,-0.000286115,-0.00104491,0.412464,-0.13588636773440166,0.3443128630255705,-0.0002860740730067368,0.43709684686513106,-0.0010443642716414514,-0.19327142050123003
506,0.4966,45.7348,875.739,0.0132965,202.372,0.30941,1.08498,-0.146298,0.363229,-0.215125,0.296368,-0.000285142,-0.00104135,0.413157,-0.13609977744438706,0.34496501289769843,-0.00028510135088355426,0.4379651155513844,-0.0010408079832481265,-0.19355937120185285
507,0.4976,45.737,875.737,0.0132687,202.375,0.309242,1.08472,-0.146546,0.363833,-0.215481,0.296852,-0.00028417,-0.00103779,0.413849,-0.13631399813511735,0.34561613352242126,-0.00028412962752988324,0.43883390883033524,-0.0010372516821943734,-0.19384641296923888
508,0.4986,45.7392,875.734,0.0132408,202.379,0.309073,1.08446,-0.146794,0.364437,-0.215837,0.297335,-0.000283198,-0.00103423,0.414541,-0.13652816570570336,0.3462662230989071,-0.0002831579032316345,0.4397032270189334,-0.001033695368480081,-0.19413335256794273
509,0.4996,45.7413,875.732,0.0132129,202.383,0.308903,1.08419,-0.147041,0.36504,-0.216193,0.297818,-0.000282228,-0.00103068,0.415233,-0.13674141691116604,0.3469166267445001,-0.00028218817742442504,0.4405716298619695,-0.001030149031803873,-0.1944201900343302
510,0.5006,45.7435,875.73,0.0131852,202.387,0.308731,1.08391,-0.147288,0.365643,-0.216548,0.298301,-0.000281259,-0.00102713,0.415923,-0.13695461545008547,0.34756734461093175,-0.00028121945039538687,0.4414405565098316,-0.0010266026825381802,-0.19470612011127642
511,0.5016,45.7456,875.728,0.0131574,202.391,0.308558,1.08362,-0.147535,0.366245,-0.216904,0.298784,-0.00028029,-0.00102358,0.416614,-0.13716776133546882,0.3482183768500082,-0.00028025072242776616,0.4423085649691827,-0.0010230563206828913,-0.19499275370870928
512,0.5026,45.7478,875.726,0.0131297,202.395,0.308383,1.08333,-0.147782,0.366847,-0.217259,0.299266,-0.000279322,-0.00102003,0.417304,-0.1373808545803198,0.34886837474455823,-0.0002792829932420915,0.44317709612694256,-0.0010195099462380064,-0.19527848056162556
513,0.5036,45.75,875.724,0.0131022,202.399,0.308208,1.08303,-0.148029,0.367449,-0.217614,0.299748,-0.000278356,-0.00101649,0.417993,-0.1375938951976391,0.3495186860136108,-0.00027831726256299927,0.44404615029787076,-0.0010159735490438138,-0.19556410599951124
514,0.5046,45.7521,875.722,0.0130746,202.403,0.308031,1.08272,-0.148275,0.36805,-0.217968,0.30023,-0.00027739,-0.00101295,0.418682,-0.13780602100687622,0.3501693108082484,-0.00027735153095098664,0.4449142828819104,-0.0010124371393307463,-0.19584882590759034
515,0.5056,45.7543,875.719,0.0130473,202.407,0.307853,1.08241,-0.148522,0.368651,-0.218323,0.300711,-0.000276425,-0.00100941,0.419371,-0.13801895662105657,0.3508188984600533,-0.0002763867981298018,0.4457829373704496,-0.001008900717098804,-0.19613424890881292
516,0.5066,45.7565,875.717,0.0130197,202.411,0.307674,1.08209,-0.148768,0.369251,-0.218677,0.301192,-0.000275461,-0.00100587,0.420059,-0.13823097787804395,0.35146879863867553,-0.00027542306410210937,0.4466506674258566,-0.001005364282347876,-0.196418767022022
517,0.5076,45.7586,875.715,0.0129925,202.415,0.307494,1.08177,-0.149014,0.369851,-0.219031,0.301673,-0.000274498,-0.00100234,0.420747,-0.13844294698421689,0.35211901149447633,-0.0002744603288709069,0.4475189182755195,-0.0010018378250595816,-0.1967031844336441
518,0.5086,45.7608,875.713,0.0129651,202.418,0.307312,1.08144,-0.14926,0.370451,-0.219385,0.302154,-0.000273536,-0.000998809,0.421434,-0.138654863952403,0.35276953717788984,-0.00027349859243919195,0.44838769023200853,-0.0009983103563211415,-0.1969875011793215
519,0.5096,45.763,875.711,0.012938,202.422,0.30713,1.0811,-0.149506,0.37105,-0.219738,0.302634,-0.000272575,-0.000995283,0.42212,-0.1388667287954266,0.35341902241972334,-0.00027253785480974013,0.44925553435182297,-0.0009947878701533908,-0.19727091456599943
520,0.5106,45.7652,875.709,0.0129108,202.426,0.306947,1.08076,-0.149751,0.371649,-0.220091,0.303114,-0.000271615,-0.000991759,0.422807,-0.13907768060422,0.35406881948930535,-0.000271578115985327,0.45012389846598766,-0.0009912673695826602,-0.19755422792540778
521,0.5116,45.7673,875.706,0.0128838,202.43,0.306763,1.08041,-0.149997,0.372247,-0.220444,0.303593,-0.000270656,-0.000988237,0.423493,-0.13928944144713973,0.3547175738180981,-0.00027061937596906116,0.4509913318940155,-0.000987748854630266,-0.19783744129284986
522,0.5126,45.7695,875.704,0.0128566,202.434,0.306578,1.08006,-0.150242,0.372845,-0.220797,0.304072,-0.000269697,-0.000984719,0.424178,-0.13950028970401906,0.3553666389746519,-0.0002696606350333086,0.451859284202363,-0.0009842343233487094,-0.19812055470361667
523,0.5136,45.7717,875.702,0.0128297,202.438,0.306391,1.0797,-0.150487,0.373443,-0.221149,0.304551,-0.00026874,-0.000981204,0.424863,-0.139711086309403,0.3560160151078886,-0.0002687038926407759,0.45272775570141355,-0.0009807227767607563,-0.19840276659615397
524,0.5146,45.7739,875.7,0.0128028,202.442,0.306204,1.07934,-0.150732,0.37404,-0.221502,0.30503,-0.000267784,-0.000977691,0.425547,-0.1399218312759446,0.3566657023668016,-0.00026774814906482813,0.4535952931057159,-0.0009772132158754054,-0.19868568048230684
525,0.5156,45.776,875.698,0.0127761,202.446,0.306016,1.07897,-0.150977,0.374637,-0.221854,0.305508,-0.000266828,-0.000974182,0.426231,-0.14013252461629389,0.3573143435854338,-0.00026679240457527786,0.4544633485844787,-0.0009737076387660304,-0.19896769348557652
526,0.5166,45.7782,875.695,0.0127493,202.45,0.305828,1.0786,-0.151221,0.375234,-0.222205,0.305986,-0.000265874,-0.000970675,0.426915,-0.14034230668583425,0.3579632949286824,-0.0002658386586402717,0.4553319224470842,-0.0009702040474151019,-0.19924880648694532
527,0.5176,45.7804,875.693,0.0127225,202.454,0.305638,1.07822,-0.151466,0.37583,-0.222557,0.306463,-0.00026492,-0.000967171,0.427598,-0.14055289702232654,0.35861119793294516,-0.0002648849117954377,0.4561995588028136,-0.0009667034408770148,-0.19953062130474408
528,0.5186,45.7826,875.691,0.0126961,202.458,0.305448,1.07783,-0.15171,0.376425,-0.222908,0.306941,-0.000263968,-0.00096367,0.428281,-0.14076257653351254,0.3592607693207508,-0.0002639331635128084,0.45706625535695666,-0.0009632058191831883,-0.1998115367531208
529,0.5196,45.7847,875.689,0.0126692,202.462,0.305257,1.07745,-0.151954,0.377021,-0.223259,0.307418,-0.000263016,-0.000960173,0.428963,-0.14097220488913886,0.3599092913679287,-0.00026298141432412603,0.45793492568319283,-0.0009597121814053367,-0.2000923536174778
530,0.5206,45.7869,875.687,0.0126432,202.465,0.305065,1.07705,-0.152198,0.377615,-0.22361,0.307894,-0.000262066,-0.000956678,0.429645,-0.1411817821016862,0.36055676227647093,-0.00026203166370530884,0.4588011962859466,-0.0009562205294977311,-0.20037307193241172
531,0.5216,45.7891,875.685,0.0126164,202.469,0.304872,1.07666,-0.152442,0.37821,-0.223961,0.308371,-0.000261116,-0.000953186,0.430326,-0.14139130818363188,0.36120590265975006,-0.0002610819121843244,0.459669441275006,-0.0009527318625286441,-0.20065369173250747
532,0.5226,45.7913,875.682,0.0125897,202.473,0.304679,1.07625,-0.152686,0.378804,-0.224311,0.308847,-0.000260167,-0.000949697,0.431007,-0.14160078314745017,0.36185399090218096,-0.0002601331595007972,0.4605367424860818,-0.0009492461805293839,-0.20093341398615117
533,0.5236,45.7934,875.68,0.0125638,202.477,0.304485,1.07585,-0.152929,0.379398,-0.224661,0.309323,-0.00025922,-0.000946211,0.431687,-0.14180934881539042,0.36250238770804755,-0.00025918640539868143,0.46140455902711497,-0.0009457634835312589,-0.20121303835413706
534,0.5246,45.7956,875.678,0.0125372,202.481,0.30429,1.07544,-0.153173,0.379991,-0.225011,0.309798,-0.000258273,-0.000942729,0.432367,-0.14201872178973785,0.3631497300738493,-0.00025823965039994956,0.4622714289321419,-0.0009422847706231918,-0.2014925648707192
535,0.5256,45.7978,875.676,0.0125116,202.485,0.304095,1.07502,-0.153416,0.380584,-0.225361,0.310273,-0.000257327,-0.000939249,0.433047,-0.14222718591092642,0.3637973800003149,-0.0002572938942472236,0.4631388130434697,-0.0009388080437247037,-0.20177199357013964
536,0.5266,45.8,875.674,0.0124846,202.489,0.303899,1.07461,-0.153659,0.381176,-0.22571,0.310748,-0.000256382,-0.000935772,0.433726,-0.14243559938148787,0.3644453376335699,-0.00025634913694361217,0.4640052476601335,-0.0009353343019211646,-0.20205052653755362
537,0.5276,45.8022,875.672,0.012459,202.493,0.303702,1.07418,-0.153902,0.381769,-0.22606,0.311223,-0.000255438,-0.000932298,0.434404,-0.14264396221372877,0.3650936031198102,-0.0002554053784917798,0.4648736602308754,-0.0009318635452438828,-0.20232975998456182
538,0.5286,45.8043,875.669,0.0124328,202.497,0.303505,1.07376,-0.154145,0.38236,-0.226409,0.311697,-0.000254496,-0.000928827,0.435083,-0.14285227441995263,0.3657408108638065,-0.00025446361864001066,0.46573965644074544,-0.0009283957737239446,-0.20260809832546156
539,0.5296,45.8065,875.667,0.0124074,202.501,0.303307,1.07333,-0.154387,0.382952,-0.226757,0.312171,-0.000253554,-0.00092536,0.43576,-0.1430596790725679,0.36638832545699107,-0.0002535218579011733,0.46660763121254134,-0.000924931986467592,-0.20288554242917023
540,0.5306,45.8087,875.665,0.0123808,202.505,0.303109,1.07289,-0.15463,0.383543,-0.227106,0.312644,-0.000252613,-0.000921895,0.436438,-0.14326789027186793,0.3670347800093814,-0.00025258109602266376,0.4674746525021427,-0.0009214701853593743,-0.2031636868358403
541,0.5316,45.8109,875.663,0.0123549,202.509,0.30291,1.07246,-0.154872,0.384133,-0.227454,0.313118,-0.000251673,-0.000918434,0.437114,-0.14347519435761613,0.3676829080893258,-0.00025164133300714653,0.46834071801132104,-0.0009180123685839092,-0.20344093762838555
542,0.5326,45.813,875.661,0.0123293,202.512,0.302711,1.07202,-0.155114,0.384723,-0.227802,0.313591,-0.000250734,-0.000914975,0.437791,-0.1436824482818453,0.368329975124142,-0.0002507025688576192,0.46920729464991817,-0.0009145565380118681,-0.20371809195444113
543,0.5336,45.8152,875.659,0.012304,202.516,0.302511,1.07157,-0.155356,0.385313,-0.22815,0.314063,-0.000249796,-0.00091152,0.438467,-0.14388965205669302,0.3689759793173968,-0.0002497648035768574,0.47007438271958946,-0.0009111046918416355,-0.2039951498475715
544,0.5346,45.8174,875.656,0.0122779,202.52,0.302311,1.07112,-0.155598,0.385903,-0.228498,0.314536,-0.000248859,-0.000908068,0.439142,-0.14409680569429417,0.3696236581195753,-0.00024882803716752555,0.4709419825221681,-0.0009076558310222582,-0.2042721113413295
545,0.5356,45.8195,875.654,0.0122523,202.524,0.302111,1.07067,-0.155839,0.386492,-0.228845,0.315008,-0.000247923,-0.000904618,0.439817,-0.14430305351026185,0.37027027307533267,-0.00024789226963262134,0.4718086225503073,-0.0009042089564890166,-0.20454818101783512
546,0.5366,45.8217,875.652,0.0122268,202.528,0.30191,1.07022,-0.156081,0.38708,-0.229192,0.315479,-0.000246988,-0.000901172,0.440492,-0.14451010711681544,0.37091582238888043,-0.0002469575009749203,0.47267430050474357,-0.0009007660664610562,-0.20482415491478168
547,0.5376,45.8239,875.65,0.0122015,202.532,0.301708,1.06976,-0.156322,0.387669,-0.229539,0.315951,-0.000246054,-0.000897729,0.441166,-0.14471625533914168,0.37156304739013235,-0.000246023731197198,0.4735419611687224,-0.0008973261618767658,-0.20510003306539892
548,0.5386,45.8261,875.648,0.0121761,202.536,0.301506,1.0693,-0.156563,0.388257,-0.229886,0.316422,-0.00024512,-0.000894289,0.44184,-0.1449223538857326,0.3722092057438,-0.0002450899605472845,0.4744086586259708,-0.0008938892427672318,-0.20537581550290507
549,0.5396,45.8282,875.645,0.0121502,202.54,0.301304,1.06884,-0.156804,0.388844,-0.230232,0.316893,-0.000244188,-0.000890852,0.442513,-0.14512840276855843,0.3728556685097357,-0.00024415818853695814,0.4752743905760528,-0.0008904553091634293,-0.20565070791161189
550,0.5406,45.8304,875.643,0.0121256,202.544,0.301102,1.06837,-0.157045,0.389431,-0.230578,0.317364,-0.000243257,-0.000887419,0.443186,-0.1453344019995868,0.37350243583135145,-0.0002432274154149372,0.47614063085997094,-0.000887025360209015,-0.205925505223998
551,0.5416,45.8326,875.641,0.0120993,202.548,0.300899,1.06791,-0.157286,0.390018,-0.230924,0.317834,-0.000242327,-0.000883988,0.443859,-0.14554035159078238,0.3741481337033059,-0.00024229764118410824,0.47700737977620467,-0.0008835973977122658,-0.20620020747296086
552,0.5426,45.8347,875.639,0.0120751,202.551,0.300696,1.06744,-0.157527,0.390604,-0.23127,0.318304,-0.000241398,-0.000880561,0.444531,-0.1457462515541068,0.3747941351245885,-0.0002413688658471358,0.4778731597495103,-0.0008801734199336275,-0.20647481469138695
553,0.5436,45.8369,875.637,0.0120498,202.555,0.300492,1.06696,-0.157767,0.39119,-0.231616,0.318773,-0.00024047,-0.000877137,0.445202,-0.14595124785319402,0.3754390647981487,-0.00024044108940701747,0.478739447218562,-0.0008767524277906169,-0.20674932691215087
554,0.5446,45.8391,875.635,0.0120247,202.559,0.300289,1.06648,-0.158007,0.391776,-0.231961,0.319243,-0.000239542,-0.000873715,0.445874,-0.14615619495907273,0.3760856730996518,-0.00023951331210581017,0.4796062424808394,-0.0008733334221875388,-0.20702295119146397
555,0.5456,45.8412,875.632,0.0119997,202.563,0.300085,1.06601,-0.158247,0.392361,-0.232306,0.319712,-0.000238616,-0.000870297,0.446544,-0.14636109288354815,0.3767312086465886,-0.00023858753346650552,0.48047206536119114,-0.0008699184014049344,-0.20729648108668297
556,0.5466,45.8434,875.63,0.0119747,202.567,0.299881,1.06552,-0.158487,0.392946,-0.232651,0.320181,-0.000237691,-0.000866883,0.447215,-0.14656594163842218,0.3773770470207043,-0.00023766275373227064,0.48133839489610963,-0.0008665073654837707,-0.20756991663036461
557,0.5476,45.8455,875.628,0.0119502,202.571,0.299676,1.06504,-0.158727,0.393531,-0.232996,0.320649,-0.000236767,-0.000863471,0.447884,-0.14677074123549438,0.3780218103415589,-0.00023673897290588108,0.48220523138207505,-0.0008630983161910244,-0.20784325785505464
558,0.5486,45.8477,875.626,0.0119251,202.575,0.299472,1.06455,-0.158967,0.394115,-0.23334,0.321117,-0.000235843,-0.000860062,0.448554,-0.14697549168656088,0.37866687548226796,-0.00023581519122584105,0.4830710920439065,-0.0008596922526875606,-0.20811571290939646
559,0.5496,45.8498,875.624,0.0119005,202.579,0.299267,1.06407,-0.159206,0.394698,-0.233684,0.321585,-0.000234921,-0.000856657,0.449223,-0.14717934018318213,0.3793122425841162,-0.00023489340822258065,0.48393597457933013,-0.000856290174147678,-0.20838807425531825
560,0.5506,45.852,875.622,0.0118757,202.583,0.299062,1.06358,-0.159446,0.395282,-0.234028,0.322053,-0.000234,-0.000853255,0.449891,-0.14738399258226798,0.3799579117884546,-0.00023397262413538122,0.4848028462903864,-0.0008528910814649127,-0.20866034192505034
561,0.5516,45.8542,875.62,0.0118508,202.586,0.298857,1.06308,-0.159685,0.395865,-0.234372,0.32252,-0.000233079,-0.000849856,0.45056,-0.14758774345884118,0.38060250263350737,-0.00023305183920008243,0.48566873873289507,-0.0008494949746700176,-0.20893251595081164
562,0.5526,45.8563,875.617,0.0118265,202.59,0.298651,1.06259,-0.159924,0.396447,-0.234715,0.322987,-0.00023216,-0.00084646,0.451227,-0.14779144564477364,0.3812473945727848,-0.00023213305295255449,0.4865336496034871,-0.0008461018537935239,-0.2092038055690113
563,0.5536,45.8585,875.615,0.0118018,202.594,0.298446,1.06209,-0.160163,0.397029,-0.235059,0.323454,-0.000231242,-0.000843067,0.451895,-0.14799509915170106,0.3818925877469306,-0.0002312152656294142,0.48739906399871735,-0.0008427117188657407,-0.20947579267543104
564,0.5546,45.8606,875.613,0.011777,202.598,0.29824,1.06159,-0.160401,0.397611,-0.235402,0.32392,-0.000230324,-0.000839677,0.452561,-0.1481978521895344,0.3825366997592634,-0.00023029747746383666,0.4882649822117222,-0.0008393245699171992,-0.2097468959816684
565,0.5556,45.8628,875.611,0.011753,202.602,0.298035,1.06109,-0.16064,0.398193,-0.235745,0.324386,-0.000229408,-0.000836291,0.453228,-0.14840140857690387,0.3831811119977413,-0.00022938168799691017,0.4891314045358093,-0.0008359414061425152,-0.2100179063154175
566,0.5566,45.8649,875.609,0.0117286,202.606,0.297829,1.06059,-0.160878,0.398774,-0.236087,0.324852,-0.000228492,-0.000832908,0.453894,-0.14860406492460054,0.3838258246023021,-0.00022846589769109915,0.48999684126687026,-0.0008325612284146855,-0.21028803399699114
567,0.5576,45.8671,875.607,0.0117051,202.61,0.297623,1.06009,-0.161117,0.399354,-0.23643,0.325317,-0.000227578,-0.000829528,0.454559,-0.148807524238727,0.3844694532428037,-0.00022755210609126664,0.4908612901007334,-0.0008291840367642411,-0.21055885875222946
568,0.5586,45.8692,875.604,0.0116798,202.613,0.297417,1.05958,-0.161355,0.399935,-0.236772,0.325783,-0.000226664,-0.000826151,0.455224,-0.14901008394239734,0.385114766354292,-0.00022663831365632436,0.491727732187335,-0.0008258098312213802,-0.21082880145970206
569,0.5596,45.8713,875.602,0.0116564,202.617,0.297211,1.05907,-0.161593,0.400515,-0.237114,0.326248,-0.000225752,-0.000822777,0.455889,-0.14921259544259458,0.38575899449208073,-0.00022572651993468806,0.4925931852291243,-0.0008224386118165228,-0.21109865186255372
570,0.5606,45.8735,875.6,0.0116319,202.621,0.297005,1.05857,-0.161831,0.401094,-0.237456,0.326712,-0.00022484,-0.000819407,0.456553,-0.14941505875078986,0.38640213586278427,-0.00022481472538149472,0.49345764692088134,-0.0008190713777608272,-0.21136840999234718
571,0.5616,45.8756,875.598,0.0116078,202.625,0.296799,1.05806,-0.162068,0.401674,-0.237797,0.327176,-0.00022393,-0.000816039,0.457217,-0.1496166234955002,0.3870455757203273,-0.00022390492954893482,0.49432410360424406,-0.0008157061307261237,-0.21163728751831623
572,0.5626,45.8777,875.596,0.0115836,202.629,0.296593,1.05754,-0.162306,0.402252,-0.238138,0.32764,-0.00022302,-0.000812675,0.457881,-0.14981899065646087,0.38768931420324004,-0.0002229951328884816,0.49518807259911357,-0.0008123448691079727,-0.21190607337267975
573,0.5636,45.8799,875.594,0.0115604,202.633,0.296387,1.05703,-0.162543,0.402831,-0.238479,0.328104,-0.000222112,-0.000809314,0.458544,-0.15002045968065292,0.3883333514501168,-0.0002220873349558783,0.4960540371656983,-0.0008089865937555007,-0.21217476758669251
574,0.5646,45.882,875.592,0.0115361,202.636,0.296181,1.05652,-0.162781,0.403409,-0.23882,0.328568,-0.000221204,-0.000805956,0.459206,-0.1502227307400381,0.38897768759961604,-0.0002211795361990454,0.4969190063511937,-0.0008056313046989061,-0.21244337019159854
575,0.5656,45.8841,875.589,0.0115129,202.64,0.295975,1.056,-0.163018,0.403987,-0.239161,0.329031,-0.000220297,-0.000802602,0.459868,-0.1504241040891683,0.38962093316883295,-0.0002202727363976864,0.49778447563339223,-0.0008022800011662223,-0.21271188121863116
576,0.5666,45.8863,875.587,0.0114884,202.644,0.295769,1.05548,-0.163255,0.404564,-0.239501,0.329494,-0.000219392,-0.00079925,0.46053,-0.1506254297184697,0.390264476629705,-0.0002193679353350575,0.49864894665173765,-0.000798930684795307,-0.21297951367892043
577,0.5676,45.8884,875.585,0.0114651,202.648,0.295563,1.05497,-0.163491,0.405141,-0.239841,0.329956,-0.000218487,-0.000795902,0.461191,-0.15082585846553376,0.39090692721256537,-0.0002184631334536391,0.49951391661379185,-0.0007955853540151381,-0.2132470551596405
578,0.5686,45.8905,875.583,0.0114416,202.652,0.295357,1.05445,-0.163728,0.405718,-0.240181,0.330418,-0.000217583,-0.000792557,0.461852,-0.15102708889033012,0.3915496746761691,-0.00021755933053579923,0.5003793858075287,-0.0007922430096580779,-0.21351450569171937
579,0.5696,45.8926,875.581,0.0114175,202.656,0.295151,1.05393,-0.163964,0.406294,-0.240521,0.33088,-0.00021668,-0.000789215,0.462513,-0.15122742285701418,0.3921927191577068,-0.00021665652658420242,0.5012438532764842,-0.0007889036517542136,-0.21378186530607413
580,0.5706,45.8948,875.579,0.011394,202.659,0.294946,1.05341,-0.164201,0.40687,-0.240861,0.331342,-0.000215779,-0.000785877,0.463173,-0.15142855812232658,0.39283606079443256,-0.00021575572138599064,0.5021088188221341,-0.0007855682795477881,-0.2140491340336117
581,0.5716,45.8969,875.577,0.0113709,202.663,0.29474,1.05288,-0.164437,0.407445,-0.2412,0.331804,-0.000214878,-0.000782541,0.463832,-0.15162879735345114,0.3934796997236638,-0.0002148549153760948,0.5029727797579218,-0.0007822348946435742,-0.21431552622114736
582,0.5726,45.899,875.575,0.0113466,202.667,0.294534,1.05236,-0.164673,0.408021,-0.241539,0.332265,-0.000213978,-0.000779209,0.464492,-0.15182898933369293,0.39412224195984247,-0.00021395510834054665,0.5038387414520882,-0.0007789054955034125,-0.21458182811703674
583,0.5736,45.9011,875.572,0.0113241,202.671,0.294329,1.05184,-0.164909,0.408595,-0.241878,0.332725,-0.000213079,-0.00077588,0.46515,-0.15202913407420182,0.39476368571189613,-0.00021305630028223277,0.5047021926764759,-0.000775579082943012,-0.2148480397518835
584,0.5746,45.9032,875.57,0.0113009,202.675,0.294124,1.05131,-0.165145,0.40917,-0.242216,0.333186,-0.000212181,-0.000772554,0.465809,-0.1522292315861251,0.3954068200020733,-0.00021215849120359564,0.5055676452310294,-0.0007722556569922379,-0.21511337627004967
585,0.5756,45.9053,875.568,0.0112768,202.678,0.293918,1.05079,-0.16538,0.409744,-0.242555,0.333646,-0.000211284,-0.000769231,0.466467,-0.15242843430946573,0.39604885479595553,-0.00021126168110752186,0.5064320891310568,-0.0007689352176808439,-0.21537940774061215
586,0.5766,45.9074,875.566,0.0112557,202.682,0.293713,1.05026,-0.165616,0.410318,-0.242893,0.334106,-0.000210388,-0.000765911,0.467124,-0.15262843759765232,0.39669118499378087,-0.00021036586999667595,0.5072970293643169,-0.0007656177650388063,-0.21564456468674753
587,0.5776,45.9095,875.564,0.0112305,202.686,0.293508,1.04973,-0.165851,0.410891,-0.243231,0.334566,-0.000209493,-0.000762595,0.467781,-0.15282754651860242,0.3973338107314659,-0.00020947105787372244,0.5081609580540745,-0.0007623042983335715,-0.21590963202497981
588,0.5786,45.9116,875.562,0.0112082,202.69,0.293304,1.0492,-0.166086,0.411464,-0.243569,0.335025,-0.000208599,-0.000759282,0.468438,-0.1530266086544535,0.3979753341689576,-0.00020857724474132588,0.5090253819168249,-0.0007589938183638623,-0.2161746097855911
589,0.5796,45.9137,875.56,0.0111843,202.693,0.293099,1.04868,-0.166321,0.412036,-0.243906,0.335484,-0.000207706,-0.000755972,0.469094,-0.15322562401619877,0.39861715213329574,-0.0002076844306021508,0.5098887913468371,-0.0007556863251595436,-0.21643871443795992
590,0.5806,45.9158,875.558,0.0111623,202.697,0.292895,1.04815,-0.166556,0.412609,-0.244244,0.335943,-0.000206814,-0.000752665,0.46975,-0.153424592614829,0.3992592647596993,-0.00020679261545897276,0.5107542055417673,-0.0007523818187502584,-0.21670351339893457
591,0.5816,45.9179,875.556,0.0111383,202.701,0.29269,1.04762,-0.166791,0.413181,-0.244581,0.336402,-0.000205923,-0.000749361,0.470406,-0.15362351446133204,0.3999016721834492,-0.00020590179931434527,0.5116186041417687,-0.0007490802991656498,-0.2169674398408158
592,0.5826,45.92,875.554,0.0111169,202.705,0.292486,1.04709,-0.167025,0.413752,-0.244918,0.33686,-0.000205032,-0.000746061,0.471061,-0.15382154338865994,0.4005429739962141,-0.0002050109823759083,0.5124819848364639,-0.0007457827656897065,-0.21723127735447145
593,0.5836,45.9221,875.551,0.0110931,202.708,0.292282,1.04656,-0.16726,0.414323,-0.245255,0.337318,-0.000204143,-0.000742763,0.471715,-0.15402037196269114,0.4011845695924807,-0.00020412216423559837,0.5133458586623112,-0.0007424872198469323,-0.21749502596986514
594,0.5846,45.9242,875.549,0.0110718,202.712,0.292078,1.04603,-0.167494,0.414894,-0.245591,0.337775,-0.000203255,-0.000739469,0.472369,-0.15421830803622816,0.4018250572810742,-0.0002032343451019436,0.5142102259009691,-0.0007391956601786598,-0.21775790347524515
595,0.5856,45.9263,875.547,0.0110475,202.716,0.291875,1.04549,-0.167728,0.415464,-0.245927,0.338233,-0.000202367,-0.000736178,0.473023,-0.15441619779814253,0.402467240205973,-0.00020234652517980845,0.5150735717599273,-0.0007359070874601858,-0.21802069266862067
596,0.5866,45.9284,875.545,0.0110255,202.72,0.291672,1.04496,-0.167962,0.416034,-0.246263,0.33869,-0.000201481,-0.000732891,0.473677,-0.15461404125927003,0.4031083142089995,-0.00020146070406645844,0.5159374098663025,-0.0007326225009886,-0.21828339357965953
597,0.5876,45.9305,875.543,0.0110031,202.723,0.291469,1.04443,-0.168196,0.416604,-0.246599,0.339147,-0.000200596,-0.000729606,0.47433,-0.15481183843044377,0.4037496812497994,-0.0002005758819676462,0.5168017405007552,-0.0007293399022618718,-0.21854600623801945
598,0.5886,45.9325,875.541,0.0109807,202.727,0.291266,1.0439,-0.16843,0.417173,-0.246935,0.339603,-0.000199711,-0.000726324,0.474982,-0.15500958932249442,0.40438993707168236,-0.00019969105908568263,0.5176650462783019,-0.000726060290573538,-0.2188085306733485
599,0.5896,45.9346,875.539,0.0109577,202.731,0.291063,1.04336,-0.168663,0.417742,-0.24727,0.34006,-0.000198828,-0.000723046,0.475634,-0.15520644915312132,0.4050318899479839,-0.00019880823502316236,0.5185288434166149,-0.0007227846652304581,-0.21907018598586103
600,0.5906,45.9367,875.537,0.0109358,202.735,0.290861,1.04283,-0.168897,0.418311,-0.247605,0.340515,-0.000197945,-0.000719771,0.476286,-0.1554041077170656,0.40567132491833435,-0.00019792541018104348,0.5193931321953578,-0.0007195120269912758,-0.21933175365852442
601,0.5916,45.9387,875.535,0.0109135,202.738,0.290659,1.0423,-0.16913,0.418879,-0.24794,0.340971,-0.000197063,-0.000716499,0.476937,-0.15560087563561487,0.40631245720955,-0.00019704358436245517,0.5202563926372012,-0.000716242375885412,-0.21959323372069306
602,0.5926,45.9408,875.533,0.0108915,202.742,0.290457,1.04177,-0.169363,0.419447,-0.248275,0.341427,-0.000196182,-0.00071323,0.477588,-0.15579759771257984,0.4069538819237577,-0.00019616275756983992,0.5211201435502562,-0.0007129757119423985,-0.21985462620171148
603,0.5936,45.9429,875.531,0.0108689,202.746,0.290256,1.04123,-0.169596,0.420015,-0.24861,0.341882,-0.000195303,-0.000709964,0.478239,-0.1559942739586403,0.40759419159943766,-0.00019528392961065677,0.5219843852131896,-0.0007097120351915454,-0.22011593113091454
604,0.5946,45.9449,875.529,0.0108477,202.749,0.290055,1.0407,-0.169829,0.420582,-0.248944,0.342336,-0.000194424,-0.000706702,0.478889,-0.1561909043844738,0.4082333844482213,-0.00019440510087898044,0.5228475950564699,-0.0007064523449555882,-0.22037636891438583
605,0.5956,45.947,875.526,0.0108236,202.753,0.289853,1.04017,-0.170061,0.421149,-0.249278,0.342791,-0.000193546,-0.000703443,0.479539,-0.1563866453878222,0.4088742764300146,-0.00019352727118127078,0.5237112944785141,-0.0007031956419770724,-0.2206367197261626
606,0.5966,45.9491,875.524,0.0108022,202.757,0.289653,1.03963,-0.170294,0.421715,-0.249612,0.343245,-0.000192669,-0.000700186,0.480188,-0.15658318440176255,0.4095140505692545,-0.0001926504405201923,0.52457395918227,-0.0006999409269848877,-0.22089698359528842
607,0.5976,45.9511,875.522,0.0107808,202.76,0.289453,1.0391,-0.170526,0.422282,-0.249946,0.343699,-0.000191793,-0.000696933,0.480837,-0.15677883440670326,0.41015411523189726,-0.00019177460889840958,0.5254386377303293,-0.0006966901986055207,-0.22115716055079726
608,0.5986,45.9532,875.52,0.0107583,202.764,0.289252,1.03856,-0.170759,0.422847,-0.250279,0.344153,-0.000190918,-0.000693683,0.481485,-0.1569752820512471,0.4107944705498707,-0.00019089977631836508,0.5263007540855833,-0.0006934424575710807,-0.22141647203857495
609,0.5996,45.9552,875.518,0.0107375,202.768,0.289053,1.03803,-0.170991,0.423413,-0.250612,0.344606,-0.000190044,-0.000690436,0.482133,-0.1571708411000844,0.4114337052207515,-0.00019002594278294538,0.5271648848383297,-0.0006901977039108775,-0.2216756971900029
610,0.6006,45.9573,875.516,0.0107145,202.771,0.288853,1.0375,-0.171223,0.423978,-0.250946,0.34506,-0.000189171,-0.000687193,0.482781,-0.1573663547844849,0.4120746416044718,-0.00018915310829459298,0.5280279767987821,-0.0006869569369670758,-0.22193561409860152
611,0.6016,45.9593,875.514,0.0106934,202.775,0.288654,1.03697,-0.171455,0.424542,-0.251278,0.345512,-0.000188298,-0.000683952,0.483428,-0.1575618231149718,0.41271304361046135,-0.0001882802730442945,0.5288900276531863,-0.0006837181581460516,-0.22219388859878142
612,0.6026,45.9613,875.512,0.0106718,202.779,0.288455,1.03643,-0.171686,0.425107,-0.251611,0.345965,-0.000187427,-0.000680715,0.484075,-0.15775640385889111,0.4133531475918224,-0.00018740943665718213,0.5297540945947354,-0.0006804833661062659,-0.22245285491359346
613,0.6036,45.9634,875.51,0.010651,202.782,0.288257,1.0359,-0.171918,0.425671,-0.251943,0.346417,-0.000186556,-0.00067748,0.484721,-0.1579517817084889,0.41399212761313997,-0.00018653859951145435,0.5306171192541638,-0.0006772505622408831,-0.22271095771832583
614,0.6046,45.9654,875.508,0.0106295,202.786,0.288059,1.03537,-0.172149,0.426234,-0.252276,0.346869,-0.000185687,-0.000674249,0.485367,-0.15814627238237655,0.41463139651870984,-0.00018566976123601808,0.5314790993169229,-0.0006740217452213537,-0.22296975187778667
615,0.6056,45.9675,875.506,0.0106064,202.79,0.287861,1.03483,-0.17238,0.426798,-0.252608,0.347321,-0.000184818,-0.000671021,0.486013,-0.15834071813410733,0.41527095443913775,-0.00018480092220551914,0.5323430971534249,-0.0006707959157570276,-0.223227683101211
616,0.6066,45.9695,875.504,0.0105866,202.793,0.287664,1.0343,-0.172612,0.427361,-0.25294,0.347773,-0.000183951,-0.000667796,0.486658,-0.15853596043851714,0.41591080150508764,-0.00018393408205219508,0.5332060492153334,-0.0006675730738769925,-0.2234855287056826
617,0.6076,45.9715,875.502,0.0105627,202.797,0.287466,1.03377,-0.172843,0.427923,-0.253271,0.348224,-0.000183084,-0.000664574,0.487303,-0.15873031618270317,0.4165495212970529,-0.00018306724114725004,0.5340679531873231,-0.0006643532196102253,-0.22374251246252297
618,0.6086,45.9735,875.5,0.0105431,202.801,0.28727,1.03324,-0.173073,0.428486,-0.253603,0.348675,-0.000182218,-0.000661356,0.487948,-0.1589237859601038,0.41718852921661265,-0.00018220139930857915,0.5349318766165931,-0.0006611373523246478,-0.22400018717201686
619,0.6096,45.9756,875.498,0.0105197,202.804,0.287073,1.03271,-0.173304,0.429047,-0.253934,0.349125,-0.000181353,-0.00065814,0.488592,-0.15911805212694097,0.4178264075666247,-0.00018133655653873593,0.5357932149821965,-0.0006579234733744554,-0.224257000605095
620,0.6106,45.9776,875.496,0.0104995,202.808,0.286878,1.03218,-0.173535,0.429609,-0.254265,0.349576,-0.000180489,-0.000654928,0.489235,-0.1593122734234762,0.41846599149177144,-0.0001804727128403849,0.536656573349994,-0.0006547135814695126,-0.22451372904699363
621,0.6116,45.9796,875.494,0.0104792,202.811,0.286682,1.03165,-0.173765,0.43017,-0.254595,0.350026,-0.000179626,-0.000651718,0.489879,-0.15950560936610314,0.41910444482916964,-0.00017960986821596858,0.5375188795419146,-0.0006515056779514694,-0.22476959729582502
622,0.6126,45.9816,875.492,0.0104575,202.815,0.286487,1.03112,-0.173995,0.430731,-0.254926,0.350476,-0.000178764,-0.000648512,0.490521,-0.15969890084657656,0.41974318553522294,-0.0001787480226682625,0.5383816696233272,-0.0006483017615427356,-0.22502615609629628
623,0.6136,45.9836,875.49,0.0104363,202.819,0.286292,1.03059,-0.174225,0.431292,-0.255256,0.350925,-0.000177903,-0.000645308,0.491164,-0.15989214787512163,0.42038079335777256,-0.00017788717619970917,0.53924494386577,-0.0006450998335720826,-0.22528185527209998
624,0.6146,45.9856,875.488,0.0104154,202.822,0.286097,1.03006,-0.174455,0.431852,-0.255586,0.351374,-0.000177043,-0.000642108,0.491806,-0.16008535046196115,0.4210186875305153,-0.0001770273288128621,0.5401071624330012,-0.0006419018927749098,-0.22553747008109704
625,0.6156,45.9876,875.486,0.010394,202.826,0.285903,1.02953,-0.174685,0.432412,-0.255916,0.351823,-0.000176183,-0.000638911,0.492447,-0.16027850861731552,0.42165686818205117,-0.0001761674806867175,0.5409698639778509,-0.0006387069398281486,-0.22579300055112372
626,0.6166,45.9896,875.484,0.0103736,202.829,0.28571,1.029,-0.174915,0.432971,-0.256246,0.352272,-0.000175325,-0.000635717,0.493089,-0.1604716223514029,0.42229533544103837,-0.00017530963147038836,0.5418315069385848,-0.0006355149747605537,-0.22604844671000746
627,0.6176,45.9916,875.482,0.0103525,202.833,0.285516,1.02847,-0.175144,0.43353,-0.256576,0.35272,-0.000174467,-0.000632526,0.49373,-0.16066385233871072,0.42293266650281414,-0.00017445178151798135,0.5426936316923825,-0.0006323259976007689,-0.2263038085855663
628,0.6186,45.9936,875.48,0.0103302,202.837,0.285323,1.02795,-0.175374,0.434089,-0.256905,0.353169,-0.00017361,-0.000629338,0.49437,-0.16085687745393373,0.42357170672386757,-0.00017359493065605136,0.5435562385086412,-0.0006291400083776599,-0.2265583127643086
629,0.6196,45.9956,875.478,0.0103107,202.84,0.285131,1.02742,-0.175603,0.434647,-0.257234,0.353617,-0.000172754,-0.000626153,0.49501,-0.16104901922792392,0.42420960972808386,-0.00017273907888692985,0.5444177832383541,-0.0006259570071196485,-0.22681273322494855
630,0.6206,45.9976,875.476,0.0102881,202.844,0.284939,1.02689,-0.175832,0.435205,-0.257563,0.354064,-0.0001719,-0.000622972,0.49565,-0.16124111700648558,0.42484637372978384,-0.0001718852260416126,0.5452798088441781,-0.0006227779932326261,-0.22706706999502468
631,0.6216,45.9996,875.474,0.010269,202.847,0.284747,1.02637,-0.176061,0.435763,-0.257892,0.354512,-0.000171046,-0.000619793,0.496289,-0.16143317079969255,0.4254848479127531,-0.00017103137246698985,0.5461423155945171,-0.0006196009679939607,-0.22732132310206676
632,0.6226,46.0016,875.472,0.0102475,202.851,0.284556,1.02584,-0.17629,0.43632,-0.25822,0.354959,-0.000170192,-0.000616617,0.496928,-0.1616251806176161,0.42612218207334296,-0.00017017751816317261,0.5470037567533941,-0.0006164269308063242,-0.22757472014870184
633,0.6236,46.0036,875.47,0.0102274,202.854,0.284365,1.02532,-0.176519,0.436878,-0.258548,0.355405,-0.00016934,-0.000613445,0.497566,-0.16181714647032563,0.4267583744268968,-0.0001693256627914863,0.547867225735104,-0.0006132568810848227,-0.22782803409473495
634,0.6246,46.0055,875.468,0.0102073,202.858,0.284175,1.0248,-0.176748,0.437434,-0.258877,0.355852,-0.000168489,-0.000610275,0.498204,-0.16200906836788798,0.4273962779810885,-0.0001684748065255981,0.5487280792077014,-0.0006100888200877286,-0.22808203688576756
635,0.6256,46.0075,875.466,0.010186,202.861,0.283985,1.02427,-0.176976,0.437991,-0.259204,0.356298,-0.000167638,-0.000607109,0.498842,-0.16220010852089506,0.428033038708155,-0.00016762394953562243,0.5495909610381009,-0.0006069247466202743,-0.22833441279399602
636,0.6266,46.0095,875.464,0.0101658,202.865,0.283795,1.02375,-0.177204,0.438547,-0.259532,0.356744,-0.000166789,-0.000603945,0.499479,-0.1623911051217124,0.42867008349384617,-0.00016677509148799174,0.5504527731740105,-0.0006037626619277425,-0.22858747760170228
637,0.6276,46.0115,875.462,0.0101451,202.869,0.283606,1.02323,-0.177432,0.439102,-0.25986,0.35719,-0.00016594,-0.000600785,0.500116,-0.16258205818026883,0.42930741246488036,-0.0001659262327197153,0.5513135132964118,-0.0006006045648279112,-0.228840459417763
638,0.6286,46.0134,875.46,0.0101241,202.872,0.283417,1.02271,-0.17766,0.439658,-0.260187,0.357635,-0.000165092,-0.000597627,0.500753,-0.16277296770649063,0.42994359580372166,-0.00016507837306567463,0.5521762834376778,-0.0005974484565536287,-0.22909258736236782
639,0.6296,46.0154,875.458,0.0101028,202.876,0.283229,1.02219,-0.177888,0.440213,-0.260514,0.358081,-0.000164246,-0.000594473,0.501389,-0.16296383371030232,0.4305814928879259,-0.000164232512364193,0.5530379803737668,-0.0005942963359352182,-0.22934463287461315
640,0.6306,46.0173,875.456,0.0100861,202.879,0.283041,1.02167,-0.178116,0.440767,-0.260841,0.358525,-0.0001634,-0.000591321,0.502025,-0.16315465620162573,0.43121681210119656,-0.00016338665094706162,0.5538986017850132,-0.0005911462041926496,-0.22959659598145
641,0.6316,46.0193,875.454,0.010064,202.883,0.282854,1.02115,-0.178344,0.441321,-0.261167,0.35897,-0.000162554,-0.000588173,0.50266,-0.16334543519038058,0.4318538453119587,-0.0001625407888143915,0.5547597001126152,-0.0005880000601689028,-0.2298477065579122
642,0.6326,46.0213,875.452,0.0100436,202.886,0.282667,1.02063,-0.178571,0.441875,-0.261494,0.359414,-0.00016171,-0.000585028,0.503295,-0.16353533422223676,0.4324897295751373,-0.0001616969256427181,0.5556212756208574,-0.0005848569044865082,-0.23009950518654831
643,0.6336,46.0232,875.45,0.010024,202.89,0.28248,1.02012,-0.178799,0.442429,-0.26182,0.359859,-0.000160867,-0.000581885,0.50393,-0.16372602642629686,0.4331273293602287,-0.00016085406159793703,0.5564833285741713,-0.0005817157377553395,-0.2303504518413303
644,0.6346,46.0252,875.448,0.010003,202.893,0.282294,1.0196,-0.179026,0.442982,-0.262146,0.360302,-0.000160024,-0.000578746,0.504564,-0.1639158390737474,0.4337623454128059,-0.00016001119684261322,0.5573443018920541,-0.0005785785588372505,-0.23060131670083617
645,0.6356,46.0271,875.446,0.00998439,202.897,0.282109,1.01909,-0.179253,0.443535,-0.262472,0.360746,-0.000159183,-0.00057561,0.505198,-0.16410560863861723,0.43439907723817406,-0.0001591703310585002,0.5582057514598526,-0.0005754443683452237,-0.23085209979172683
646,0.6366,46.029,875.444,0.00996372,202.9,0.281924,1.01857,-0.17948,0.444088,-0.262798,0.361189,-0.000158342,-0.000572476,0.505831,-0.16429533513068473,0.4350346567998691,-0.00015832946456717512,0.559067677541006,-0.000572312166879696,-0.2311028011406545
647,0.6376,46.031,875.442,0.00994266,202.904,0.281739,1.01806,-0.179707,0.44464,-0.263123,0.361632,-0.000157502,-0.000569346,0.506464,-0.1644850185597263,0.43567051798568524,-0.00015748959721118005,0.5599285204697984,-0.0005691839533211729,-0.23135265212729927
648,0.6386,46.0329,875.44,0.00992496,202.907,0.281555,1.01755,-0.179933,0.445192,-0.263448,0.362075,-0.000156663,-0.000566218,0.507097,-0.16467382360975757,0.4363066609204094,-0.00015665072899306853,0.5607898387150627,-0.0005660577288391089,-0.23160242192556724
649,0.6396,46.0349,875.438,0.00990302,202.91,0.281371,1.01703,-0.18016,0.445744,-0.263773,0.362518,-0.000155825,-0.000563094,0.507729,-0.1648634211316653,0.4369430857288841,-0.00015581285991528304,0.5616516325392462,-0.000562935492326555,-0.23185211056184019
650,0.6406,46.0368,875.437,0.00988576,202.914,0.281188,1.01652,-0.180386,0.446295,-0.264098,0.36296,-0.000154988,-0.000559972,0.508361,-0.16505214067237817,0.4375783549569332,-0.0001549759899803771,0.5625123396918199,-0.0005598152449404203,-0.2321017180624917
651,0.6416,46.0387,875.435,0.00986543,202.917,0.281005,1.01601,-0.180612,0.446846,-0.264423,0.363402,-0.000154151,-0.000556854,0.508992,-0.16524081756729403,0.43821390503604474,-0.00015413911934503144,0.5633735212247146,-0.0005566989855861904,-0.23235124445388644
652,0.6426,46.0406,875.433,0.00984688,202.921,0.280823,1.0155,-0.180838,0.447396,-0.264747,0.363843,-0.000153316,-0.000553738,0.509623,-0.16542945182604962,0.4388482972413654,-0.00015330424770265694,0.5642336131649903,-0.0005535847154081175,-0.23259992236268678
653,0.6436,46.0426,875.431,0.00982517,202.924,0.28064,1.015,-0.181064,0.447947,-0.265071,0.364285,-0.000152481,-0.000550625,0.510254,-0.1656180434582798,0.4394844087590355,-0.0001524693753631734,0.5650957433809067,-0.0005504734338747097,-0.23284851971289577
654,0.6446,46.0445,875.429,0.00980861,202.928,0.280459,1.01449,-0.18129,0.448497,-0.265395,0.364726,-0.000151647,-0.000547516,0.510884,-0.16580659247361695,0.4401193613800607,-0.00015163550217489608,0.565956782803902,-0.0005473661404662433,-0.2330970365306103
655,0.6456,46.0464,875.427,0.00978647,202.931,0.280278,1.01398,-0.181516,0.449046,-0.265719,0.365167,-0.000150814,-0.000544409,0.511514,-0.1659950988816915,0.44075459407694395,-0.00015080262814037848,0.5668167291113237,-0.0005442608363087631,-0.23334547284191864
656,0.6466,46.0483,875.425,0.00976653,202.934,0.280098,1.01348,-0.181742,0.449595,-0.266043,0.365608,-0.000149982,-0.000541305,0.512144,-0.16618356269213153,0.4413901069732258,-0.0001499707532620631,0.5676771476588864,-0.0005411585208796588,-0.23359382867290057
657,0.6476,46.0502,875.423,0.00974697,202.938,0.279917,1.01297,-0.181967,0.450144,-0.266366,0.366048,-0.000149151,-0.000538204,0.512773,-0.16637115028613003,0.4420244581673225,-0.00014913987754261449,0.5685380387059207,-0.0005380591942066859,-0.23384133789134864
658,0.6486,46.0521,875.421,0.0097308,202.941,0.279738,1.01247,-0.182192,0.450693,-0.26669,0.366488,-0.00014832,-0.000535106,0.513402,-0.1665586956776679,0.4426590885373587,-0.00014830900113260714,0.5693994025119002,-0.0005349628563178221,-0.23408953308807867
659,0.6496,46.054,875.419,0.00971154,202.945,0.279559,1.01197,-0.182417,0.451241,-0.267013,0.366928,-0.000147491,-0.000532011,0.51403,-0.16674619887623954,0.4432939982061992,-0.0001474801237372203,0.5702596690759869,-0.0005318695072409341,-0.23433688221985605
660,0.6506,46.0559,875.417,0.00968985,202.948,0.27938,1.01147,-0.182643,0.451789,-0.267336,0.367367,-0.000146662,-0.000528919,0.514658,-0.16693449295726093,0.4439277433682969,-0.0001466512456546054,0.5711204071953451,-0.0005287791470037773,-0.23458415147076517
661,0.6516,46.0578,875.415,0.00967052,202.952,0.279202,1.01097,-0.182867,0.452337,-0.267658,0.367807,-0.000145834,-0.00052583,0.515286,-0.16712107873245152,0.44456321136808663,-0.00014582336673907292,0.5719816171284577,-0.0005256917756341073,-0.23483057569756194
662,0.6526,46.0597,875.414,0.00965151,202.955,0.279024,1.01047,-0.183092,0.452884,-0.267981,0.368246,-0.000145007,-0.000522744,0.515913,-0.16730845540907013,0.4451975138370823,-0.00014499648699317635,0.5728417262914369,-0.0005226073931597908,-0.23507768551122832
663,0.6536,46.0616,875.412,0.00963045,202.958,0.278847,1.00997,-0.183317,0.453431,-0.268303,0.368685,-0.000144181,-0.00051966,0.51654,-0.16749578993067904,0.4458320948259922,-0.00014417060641913615,0.5737023060628281,-0.0005195250001278628,-0.23532395084564706
664,0.6546,46.0635,875.41,0.00961255,202.962,0.27867,1.00947,-0.183541,0.453977,-0.268625,0.369123,-0.000143355,-0.00051658,0.517166,-0.16768224998942838,0.4464655079908828,-0.00014334472516297492,0.5745617821375548,-0.0005164465955241893,-0.23557013689539363
665,0.6556,46.0654,875.408,0.00959176,202.965,0.278494,1.00897,-0.183766,0.454524,-0.268947,0.369561,-0.000142531,-0.000513502,0.517793,-0.16786950041671767,0.4470991986515067,-0.00014252084293964185,0.5754233030368687,-0.0005133701804121982,-0.23581624368599352
666,0.6566,46.0673,875.406,0.00957739,202.968,0.278318,1.00848,-0.18399,0.45507,-0.269268,0.369999,-0.000141707,-0.000510428,0.518418,-0.16805587677369305,0.44773316692943377,-0.00014169696003729637,0.5762837190325183,-0.0005102977537897457,-0.23606150730485354
667,0.6576,46.0691,875.404,0.00955591,202.972,0.278143,1.00798,-0.184214,0.455615,-0.26959,0.370437,-0.000140884,-0.000507356,0.519044,-0.16824221138703999,0.4483674129462867,-0.00014087407631535598,0.5771430277997605,-0.0005072273167082697,-0.23630745589965252
668,0.6586,46.071,875.402,0.00953729,202.975,0.277968,1.00749,-0.184438,0.45616,-0.269911,0.370875,-0.000140062,-0.000504287,0.519669,-0.16842850426610778,0.44900193682374234,-0.0001400521917760411,0.578002805017922,-0.0005041598686819082,-0.23655256186469664
669,0.6596,46.0729,875.4,0.00951578,202.978,0.277794,1.007,-0.184662,0.456705,-0.270232,0.371312,-0.000139241,-0.000501221,0.520293,-0.16861475542024418,0.44963528904751593,-0.0001392313064219053,0.5788630509423784,-0.0005010954097383058,-0.2367975891633527
670,0.6606,46.0747,875.398,0.00950046,202.982,0.27762,1.00651,-0.184885,0.45725,-0.270553,0.371749,-0.00013842,-0.000498157,0.520917,-0.16880013365934354,0.45026891810669545,-0.00013841042039375306,0.579723765828644,-0.0004980329404029593,-0.23704253782086837
671,0.6616,46.0766,875.397,0.00948214,202.985,0.277447,1.00602,-0.185109,0.457794,-0.270874,0.372186,-0.000137601,-0.000495097,0.521541,-0.16898630157781858,0.45090282412228455,-0.00013759153341663666,0.5805833693482132,-0.000494974459704256,-0.2372874078624836
672,0.6626,46.0785,875.395,0.0094614,202.988,0.277274,1.00553,-0.185332,0.458338,-0.271194,0.372622,-0.000136782,-0.000492039,0.522165,-0.16917159697136253,0.4515355556790579,-0.0001367726457687235,0.5814434406193139,-0.0004919179686627695,-0.2375314368452479
673,0.6636,46.0803,875.393,0.00944436,202.992,0.277102,1.00504,-0.185556,0.458882,-0.271515,0.373058,-0.000135964,-0.000488985,0.522788,-0.16935768169137422,0.45216856316693854,-0.00013595475731420503,0.582303979896472,-0.0004888654663190994,-0.23777614997546193
674,0.6646,46.0822,875.391,0.00942363,202.995,0.27693,1.00456,-0.185779,0.459425,-0.271835,0.373494,-0.000135147,-0.000485933,0.523411,-0.16954289427638625,0.4528018467062589,-0.00013513786805563477,0.5831634042701566,-0.00048581495368138494,-0.23802002258577104
675,0.6656,46.084,875.389,0.0094062,202.998,0.276758,1.00407,-0.186002,0.459968,-0.272155,0.37393,-0.00013433,-0.000482884,0.524033,-0.16972806556359676,0.4534354064174033,-0.0001343209781294874,0.5840232954379991,-0.0004827674302851914,-0.23826381716932987
676,0.6666,46.0859,875.387,0.00938928,203.002,0.276588,1.00359,-0.186225,0.460511,-0.272474,0.374365,-0.000133515,-0.000479838,0.524655,-0.16991319556221396,0.4540677883522939,-0.0001335060872690308,0.5848836536535378,-0.0004797228961580524,-0.2385067722582559
677,0.6676,46.0877,875.385,0.00936466,203.005,0.276417,1.0031,-0.186448,0.461053,-0.272794,0.3748,-0.0001327,-0.000476794,0.525277,-0.17009828428144436,0.45470044543316623,-0.00013269119574443877,0.5857428934267621,-0.0004766803518037044,-0.23875041110683848
678,0.6686,46.0896,875.384,0.0093516,203.008,0.276247,1.00262,-0.18667,0.461595,-0.273113,0.375235,-0.000131886,-0.000473754,0.525898,-0.1702825020134091,0.45533337777973437,-0.00013187730342378856,0.5866025990341732,-0.0004736417962933892,-0.23899321099705395
679,0.6696,46.0914,875.382,0.00933043,203.012,0.276078,1.00214,-0.186893,0.462137,-0.273432,0.37567,-0.000131073,-0.000470716,0.526519,-0.17046750838648284,0.4559665855117654,-0.00013106441030963367,0.5874627707283215,-0.0004706052306047148,-0.23923593344645688
680,0.6706,46.0933,875.38,0.00931434,203.015,0.275909,1.00166,-0.187115,0.462678,-0.273751,0.376104,-0.000130261,-0.000467681,0.527139,-0.17065164415979395,0.4565986121497374,-0.00013025251640430557,0.5883218204392802,-0.00046757165428812364,-0.23947857847974696
681,0.6716,46.0951,875.378,0.00929675,203.018,0.27574,1.00118,-0.187337,0.463219,-0.27407,0.376538,-0.00012945,-0.000464649,0.527759,-0.17083573905950056,0.457230913146802,-0.00012944162171024676,0.5891813350218686,-0.00046454106737092715,-0.2397211461216161
682,0.6726,46.0969,875.376,0.00927753,203.021,0.275573,1.0007,-0.18756,0.46376,-0.274388,0.376972,-0.000128639,-0.00046162,0.528379,-0.1710206220744679,0.4578634886220567,-0.00012863072635860284,0.5900413147276509,-0.00046151346988054787,-0.23996287636000446
683,0.6736,46.0988,875.374,0.00925934,203.025,0.275405,1.00023,-0.187781,0.4643,-0.274707,0.377406,-0.000127829,-0.000458594,0.528999,-0.1712038062743898,0.458496338694651,-0.00012782083022144786,0.5909001689073623,-0.0004584888618440752,-0.24020528953548836
684,0.6746,46.1006,875.373,0.00924441,203.028,0.275238,0.999754,-0.188003,0.46484,-0.275025,0.377839,-0.00012702,-0.00045557,0.529618,-0.17138777860771226,0.4591280043550521,-0.0001270119333013353,0.5917594869935741,-0.0004554662437442625,-0.24044686584074781
685,0.6756,46.1024,875.371,0.00922493,203.031,0.275071,0.999279,-0.188225,0.46538,-0.275343,0.378272,-0.000126212,-0.000452549,0.530236,-0.17157171010370997,0.4597599435859079,-0.00012620403560059668,0.5926192692368637,-0.0004524466151466511,-0.24068836533695548
686,0.6766,46.1042,875.369,0.00920747,203.035,0.274906,0.998807,-0.188447,0.465919,-0.275661,0.378705,-0.000125404,-0.000449531,0.530855,-0.17175560077144758,0.46039215650569987,-0.0001253961372470469,0.5934779224092241,-0.00044942997607833046,-0.2409297880485327
687,0.6776,46.1061,875.367,0.00918521,203.038,0.27474,0.998335,-0.188668,0.466458,-0.275978,0.379138,-0.000124598,-0.000446515,0.531472,-0.1719386225590246,0.4610246432329612,-0.0001245902379916064,0.5943370385203954,-0.0004464153270130611,-0.24117037517064777
688,0.6786,46.1079,875.365,0.00916884,203.041,0.274575,0.997865,-0.188889,0.466997,-0.276296,0.37957,-0.000123792,-0.000443503,0.53209,-0.17212160390325582,0.46165594222960316,-0.0001237843380865744,0.5951966178199686,-0.00044340466708203685,-0.24141164462746667
689,0.6796,46.1097,875.363,0.00915238,203.044,0.27441,0.997395,-0.189111,0.467535,-0.276613,0.380002,-0.000122987,-0.000440493,0.532707,-0.1723053725081194,0.46228751400632806,-0.00012297943740890993,0.5960550645018072,-0.0004403959972020255,-0.24165207902525432
690,0.6806,46.1115,875.362,0.00913038,203.047,0.274246,0.996927,-0.189332,0.468073,-0.27693,0.380434,-0.000122182,-0.000437486,0.533324,-0.17248827280956736,0.46291935868100187,-0.00012217453608343032,0.5969139731522191,-0.0004373903169537785,-0.24189243721741704
691,0.6816,46.1133,875.36,0.00911901,203.051,0.274083,0.996461,-0.189553,0.468611,-0.277247,0.380865,-0.000121379,-0.000434482,0.53394,-0.17267113269451495,0.4635500128207981,-0.00012137163386716221,0.5977733440198099,-0.0004343876263641633,-0.2421327192281083
692,0.6826,46.1151,875.358,0.00909244,203.054,0.273919,0.995994,-0.189773,0.469149,-0.277563,0.381297,-0.000120576,-0.00043148,0.534556,-0.1728531250254317,0.46418240301278324,-0.00012056873100629861,0.5986331773533198,-0.00043138692589184124,-0.24237216745402002
693,0.6836,46.1169,875.356,0.0090821,203.057,0.273758,0.995531,-0.189994,0.469686,-0.27788,0.381728,-0.000119774,-0.000428481,0.535172,-0.1730359042869487,0.46481360164201524,-0.00011976682738079614,0.5994918739089485,-0.0004283892151261126,-0.24261229741432755
694,0.6846,46.1187,875.354,0.00905902,203.06,0.273594,0.995067,-0.190215,0.470223,-0.278196,0.382159,-0.000118973,-0.000425485,0.535788,-0.17321864315871216,0.46544507237649113,-0.00011896592299331932,0.6003510317084606,-0.00042539449409417784,-0.24285159411747426
695,0.6856,46.1205,875.353,0.00905171,203.064,0.273434,0.994606,-0.190435,0.470759,-0.278512,0.382589,-0.000118172,-0.000422492,0.536403,-0.17340051505057563,0.46607534925743077,-0.00011816501796424461,0.6012090497897602,-0.0004224027628227933,-0.24309081521480902
696,0.6866,46.1223,875.351,0.00902525,203.067,0.273272,0.994144,-0.190655,0.471295,-0.278828,0.38302,-0.000117373,-0.000419501,0.537017,-0.17358234693502383,0.46670736392233736,-0.00011736611205892533,0.6020675278920258,-0.000419413021758297,-0.24332996073021973
697,0.6876,46.1241,875.349,0.00900809,203.07,0.273112,0.993685,-0.190876,0.471831,-0.279143,0.38345,-0.000116574,-0.000416513,0.537631,-0.17376496505630556,0.4673381837053574,-0.00011656720551533883,0.6029264662618949,-0.0004164262705022015,-0.24356827425623884
698,0.6886,46.1258,875.347,0.00899323,203.073,0.272952,0.993227,-0.191096,0.472367,-0.279459,0.383879,-0.000115776,-0.000413528,0.538245,-0.1739467167705715,0.4679678068306712,-0.00011576929821754955,0.603785865146137,-0.00041344250908126323,-0.24380726891842852
699,0.6896,46.1276,875.346,0.00897539,203.076,0.272792,0.992769,-0.191315,0.472902,-0.279774,0.384309,-0.000114979,-0.000410545,0.538859,-0.174127602631874,0.4685991687206865,-0.000114972390168111,0.6046441201467316,-0.0004104607379330494,-0.24404543211604623
700,0.6906,46.1294,875.344,0.00895678,203.08,0.272632,0.992313,-0.191535,0.473437,-0.280089,0.384738,-0.000114182,-0.000407566,0.539472,-0.1743092745746485,0.46922933292462465,-0.00011417548148351386,0.6055028344366007,-0.0004074829562601412,-0.2442835203040714
701,0.6916,46.1312,875.342,0.00893848,203.083,0.272474,0.991859,-0.191755,0.473971,-0.280404,0.385167,-0.000113386,-0.000404588,0.540085,-0.1744909065539918,0.46985976752700265,-0.0001133795720504871,0.6063604019003241,-0.0004045061653119575,-0.24452153350612815
702,0.6926,46.133,875.34,0.00892937,203.086,0.272316,0.991406,-0.191974,0.474506,-0.280719,0.385596,-0.000112591,-0.000401614,0.540697,-0.1746716732507807,0.47049047264384636,-0.00011258466187125116,0.6072200346465966,-0.0004015333638927032,-0.24475947174583357
703,0.6936,46.1347,875.338,0.00890025,203.089,0.272157,0.990952,-0.192194,0.47504,-0.281034,0.386025,-0.000111797,-0.000398642,0.541309,-0.17485322551118465,0.4711214483912314,-0.00011179075094824853,0.6080785193401108,-0.00039856255283521325,-0.24499733504679688
704,0.6946,46.1365,875.337,0.00888959,203.092,0.272001,0.990503,-0.192413,0.475573,-0.281348,0.386453,-0.000111004,-0.000395673,0.541921,-0.17503391286880987,0.47175122313332385,-0.0001109978392839217,0.6089358536502161,-0.0003955947317617614,-0.24523436866736625
705,0.6956,46.1382,875.335,0.00886749,203.095,0.271843,0.990051,-0.192632,0.476107,-0.281662,0.386881,-0.000110211,-0.000392707,0.542532,-0.17521456066023644,0.4723812674766965,-0.00011020492699087558,0.6097952548357599,-0.00039262990069888204,-0.24547132787106274
706,0.6966,46.14,875.333,0.00885335,203.098,0.271688,0.989604,-0.192851,0.47664,-0.281976,0.387309,-0.000109419,-0.000389743,0.543143,-0.17539516889412832,0.4730115815367635,-0.00010941301395950287,0.6106535044097805,-0.00038966706006293705,-0.24570821268124976
707,0.6976,46.1418,875.331,0.00883593,203.102,0.271532,0.989156,-0.19307,0.477172,-0.28229,0.387736,-0.000108628,-0.000386782,0.543754,-0.1755757375791478,0.4736406917875595,-0.0001086221001924681,0.6115106000413497,-0.0003867072094850821,-0.24594502312128297
708,0.6986,46.1435,875.33,0.00881933,203.105,0.271376,0.98871,-0.193289,0.477705,-0.282603,0.388164,-0.000107837,-0.000383824,0.544364,-0.17575626672395517,0.47427154499660107,-0.00010783118579971163,0.6123697641380637,-0.00038375034899185145,-0.2461810053958935
709,0.6996,46.1453,875.328,0.00879443,203.108,0.271222,0.988264,-0.193508,0.478237,-0.282917,0.388591,-0.000107048,-0.000380868,0.544974,-0.1759367563372085,0.4749011933666747,-0.00010704227056723692,0.6132277730627227,-0.00038079547899050326,-0.24641766740231963
710,0.7006,46.147,875.326,0.00878638,203.111,0.271067,0.987822,-0.193726,0.478768,-0.28323,0.389017,-0.000106259,-0.000377915,0.545584,-0.17611638254435913,0.4755296351236393,-0.00010625335471237118,0.614084624484138,-0.0003778435991211859,-0.24665350176241996
711,0.7016,46.1488,875.324,0.00877308,203.114,0.270913,0.987378,-0.193944,0.4793,-0.283543,0.389444,-0.000105471,-0.000374965,0.546193,-0.17629596959726446,0.47615982081290653,-0.00010546543812961495,0.6149435459572175,-0.00037489470941021175,-0.24688926231791664
712,0.7026,46.1505,875.323,0.00875199,203.117,0.27076,0.986937,-0.194163,0.479831,-0.283856,0.38987,-0.000104683,-0.000372017,0.546802,-0.17647634102853005,0.47678879885938463,-0.00010467752092591098,0.6158013086959733,-0.00037194781025606805,-0.24712494909190685
713,0.7036,46.1522,875.321,0.00873896,203.12,0.270607,0.986498,-0.194381,0.480362,-0.284169,0.390296,-0.000103897,-0.000369072,0.54741,-0.17665584961903846,0.4774180449075909,-0.000103891602893591,0.6166595270276927,-0.000369003901307452,-0.24736056210748059
714,0.7046,46.154,875.319,0.00871643,203.123,0.270455,0.986058,-0.194599,0.480892,-0.284481,0.390722,-0.000103111,-0.000366129,0.548018,-0.1768353190809394,0.4780475590717186,-0.00010310568424354294,0.6175165836769669,-0.00036606198295685566,-0.24759534898344582
715,0.7056,46.1557,875.317,0.0087055,203.127,0.270303,0.985622,-0.194817,0.481423,-0.284793,0.391148,-0.000102325,-0.000363189,0.548626,-0.17701474942276196,0.4786773414660088,-0.00010231976497576678,0.6183757130615644,-0.00036312305485886043,-0.2478300626173321
716,0.7066,46.1574,875.316,0.00867956,203.13,0.270151,0.985184,-0.195034,0.481952,-0.285105,0.391573,-0.000101541,-0.000360252,0.549233,-0.1771933178467625,0.4793059128980999,-0.00010153584488714618,0.6192320602976478,-0.0003601871170398896,-0.24806470303198747
717,0.7076,46.1592,875.314,0.00867139,203.133,0.27,0.98475,-0.195252,0.482482,-0.285417,0.391998,-0.000100757,-0.000357317,0.54984,-0.17737267015336022,0.47993475152982557,-0.0001007519241839061,0.6200904807509315,-0.0003572531698835535,-0.24829927025025256
718,0.7086,46.1609,875.312,0.00864162,203.136,0.26985,0.984315,-0.195469,0.483011,-0.285729,0.392423,-9.99742e-05,-0.000354385,0.550447,-0.17755116091698864,0.4805638574747697,-9.996920274624177e-05,0.620947735339096,-0.00035432221305298217,-0.24853376429496132
719,0.7096,46.1626,875.31,0.00863319,203.139,0.2697,0.983885,-0.195687,0.48354,-0.286041,0.392848,-9.9192e-05,-0.000351456,0.551053,-0.17773043522229948,0.4811932308465645,-9.918708063627601e-05,0.6218054435349063,-0.000351394246574821,-0.24876818518894017
720,0.7106,46.1643,875.309,0.00861535,203.142,0.26955,0.983452,-0.195904,0.484069,-0.286352,0.393272,-9.84104e-05,-0.000348529,0.551659,-0.17790884835933074,0.4818213899367598,-9.840555785545213e-05,0.6226636055783845,-0.00034846827082357645,-0.24900178195716616
721,0.7116,46.166,875.307,0.00860631,203.145,0.269401,0.983022,-0.196121,0.484597,-0.286663,0.393696,-9.76297e-05,-0.000345604,0.552265,-0.17808722278491163,0.48244981542288157,-9.762493437592834e-05,0.6235205981882692,-0.0003455442858169011,-0.24923530608809286
722,0.7126,46.1678,875.305,0.00858102,203.148,0.269252,0.982592,-0.196338,0.485125,-0.286974,0.39412,-9.68496e-05,-0.000342683,0.55287,-0.17826555850744163,0.48307850741790515,-9.684491022887709e-05,0.6243780434097308,-0.0003426242908871613,-0.2494687576043071
723,0.7136,46.1695,875.304,0.00857345,203.151,0.269104,0.982167,-0.196555,0.485653,-0.287285,0.394543,-9.60703e-05,-0.000339764,0.553475,-0.17844385553531827,0.4837059823281302,-9.606568539655136e-05,0.6252359414818116,-0.00033970628674862,-0.24970213652838846
724,0.7146,46.1712,875.302,0.00854704,203.154,0.268956,0.981739,-0.196772,0.48618,-0.287596,0.394967,-9.52917e-05,-0.000336847,0.55408,-0.1786221138769376,0.484335207050852,-9.528715989015613e-05,0.6260926665501998,-0.00033679027341881884,-0.24993544288290948
725,0.7156,46.1729,875.3,0.00853804,203.157,0.26881,0.981315,-0.196988,0.486707,-0.287906,0.39539,-9.45138e-05,-0.000333933,0.554684,-0.17879951234061642,0.48496321365746775,-9.450933371146775e-05,0.6269498432316889,-0.0003338772505814269,-0.2501679268587377
726,0.7166,46.1746,875.298,0.00851761,203.16,0.268662,0.98089,-0.197205,0.487234,-0.288216,0.395813,-9.37367e-05,-0.000331022,0.555288,-0.17897769351308201,0.48559148596707025,-9.373230685283396e-05,0.6278074717643412,-0.0003309672182625345,-0.2504003387757032
727,0.7176,46.1763,875.297,0.00850228,203.163,0.268516,0.980468,-0.197421,0.487761,-0.288527,0.396235,-9.29602e-05,-0.000328113,0.555891,-0.17915501517985377,0.4862185378727948,-9.295587933444427e-05,0.6286655523863454,-0.00032805917681644203,-0.2506334280230872
728,0.7186,46.178,875.295,0.00848327,203.166,0.268371,0.980046,-0.197637,0.488287,-0.288836,0.396658,-9.21845e-05,-0.000325206,0.556495,-0.1793322985492818,0.48684734129686325,-9.218025113955086e-05,0.6295224558127448,-0.00032515312626058,-0.2508649465223778
729,0.7196,46.1797,875.293,0.00847605,203.169,0.268225,0.979626,-0.197854,0.488813,-0.289146,0.39708,-9.14095e-05,-0.000322303,0.557097,-0.17951036411968346,0.48747492328537656,-9.140532227891462e-05,0.6303798100889095,-0.0003222510659677269,-0.25109714239673586
730,0.7206,46.1814,875.292,0.00845006,203.172,0.268079,0.979206,-0.19807,0.489338,-0.289456,0.397502,-9.06353e-05,-0.000319401,0.5577,-0.17968757074202935,0.4881027701693781,-9.063119274532738e-05,0.6312359842152491,-0.00031934999693084,-0.25132926630152863
731,0.7216,46.183,875.29,0.00843982,203.175,0.267936,0.97879,-0.198285,0.489864,-0.289765,0.397923,-8.98617e-05,-0.000316503,0.558302,-0.17986391895620746,0.48872939333053966,-8.985766255842353e-05,0.6320942400444411,-0.0003164529182093645,-0.2515605698200075
732,0.7226,46.1847,875.288,0.0084175,203.178,0.267791,0.978372,-0.198501,0.490389,-0.290074,0.398345,-8.90888e-05,-0.000313607,0.558904,-0.18004104921895592,0.48935776971261635,-8.908483171066184e-05,0.6329513144828187,-0.0003135578304648279,-0.25179180187674044
733,0.7236,46.1864,875.287,0.00840865,203.181,0.267648,0.977958,-0.198717,0.490913,-0.290383,0.398766,-8.83167e-05,-0.000310713,0.559505,-0.18021814122569935,0.48998492133981975,-8.831280019505616e-05,0.6338072051953905,-0.0003106647337148827,-0.25202296249380596
734,0.7246,46.1881,875.285,0.00838214,203.184,0.267504,0.977542,-0.198932,0.491438,-0.290692,0.399187,-8.75453e-05,-0.000307822,0.560106,-0.18039437537948544,0.49061233705344476,-8.754146802203433e-05,0.6346651791765814,-0.00030777462766906627,-0.2522540516932753
735,0.7256,46.1898,875.283,0.00837581,203.187,0.267363,0.977131,-0.199148,0.491962,-0.291001,0.399608,-8.67745e-05,-0.000304933,0.560707,-0.18057139107602005,0.49124001696469466,-8.677073520202416e-05,0.635521968189587,-0.00030488651265803135,-0.2524850694972133
736,0.7266,46.1914,875.282,0.00835197,203.19,0.267219,0.976717,-0.199363,0.492485,-0.291309,0.400028,-8.60046e-05,-0.000302047,0.561307,-0.18074754928925219,0.4918664693176049,-8.600090171040353e-05,0.6363775698992944,-0.0003020013883973105,-0.25271526864331983
737,0.7276,46.1931,875.28,0.00834861,203.193,0.267078,0.976309,-0.199578,0.493009,-0.291617,0.400448,-8.52352e-05,-0.000299164,0.561907,-0.18092366963253959,0.49249318483576454,-8.523156758355466e-05,0.6372352564401704,-0.0002991192549126609,-0.2529453968990071
738,0.7286,46.1948,875.278,0.00832899,203.196,0.266937,0.975898,-0.199793,0.493532,-0.291926,0.400868,-8.44666e-05,-0.000296283,0.562507,-0.18109975211402363,0.49312016362972577,-8.446303279718848e-05,0.638091754433991,-0.00029623911252640855,-0.25317620111027817
739,0.7296,46.1964,875.277,0.00830758,203.199,0.266796,0.975491,-0.200008,0.494055,-0.292233,0.401288,-8.36987e-05,-0.000293404,0.563106,-0.18127579674184346,0.49374740581008747,-8.369519736151076e-05,0.6389487004934211,-0.00029336096125576194,-0.25340544082644045
740,0.7306,46.1981,875.275,0.0082918,203.202,0.266655,0.975084,-0.200223,0.494577,-0.292541,0.401707,-8.29315e-05,-0.000290528,0.563705,-0.18145180352413692,0.4943734171133314,-8.292806127818686e-05,0.6398044550475857,-0.00029048580082735587,-0.2536353565418281
741,0.7316,46.1997,875.273,0.00827745,203.205,0.266516,0.974678,-0.200437,0.495099,-0.292849,0.402127,-8.2165e-05,-0.000287654,0.564304,-0.18162695409640306,0.49500118577070884,-8.21616245488821e-05,0.6406606564222377,-0.0002876126315548566,-0.25386520145407976
742,0.7326,46.2014,875.272,0.00825405,203.208,0.266376,0.974273,-0.200652,0.495621,-0.293156,0.402546,-8.13992e-05,-0.000284783,0.564902,-0.18180288538798073,0.49562772251782916,-8.139588717503976e-05,0.6415173048506779,-0.00028474245317056113,-0.25409422967960194
743,0.7336,46.203,875.27,0.00824268,203.211,0.266237,0.973871,-0.200866,0.496143,-0.293463,0.402964,-8.06341e-05,-0.000281914,0.5655,-0.18197796083676654,0.4962530255850779,-8.063084915832519e-05,0.6423744005663297,-0.0002818742659822515,-0.25432318760425054
744,0.7346,46.2047,875.268,0.00823887,203.214,0.266099,0.973469,-0.201081,0.496664,-0.29377,0.403383,-7.98697e-05,-0.000279048,0.566098,-0.18215381667000718,0.4968800869629828,-7.986651050040372e-05,0.6432303005716156,-0.0002790090697281089,-0.25455207524960477
745,0.7356,46.2063,875.267,0.00821103,203.217,0.265959,0.973067,-0.201295,0.497185,-0.294077,0.403801,-7.9106e-05,-0.000276185,0.566695,-0.18232881702753367,0.497505913627994,-7.910287120282966e-05,0.6440866466169874,-0.00027614686443377945,-0.254780892637237
746,0.7366,46.208,875.265,0.00820014,203.22,0.265823,0.972669,-0.201509,0.497706,-0.294384,0.404219,-7.83429e-05,-0.000273323,0.567292,-0.18250377993899058,0.4981320019432325,-7.833983127514266e-05,0.6449434389348931,-0.0002732856506717507,-0.25500963978871305
747,0.7376,46.2096,875.263,0.00818246,203.223,0.265685,0.972269,-0.201723,0.498226,-0.29469,0.404637,-7.75805e-05,-0.000270464,0.567888,-0.1826787054123904,0.4987583520180905,-7.757749071080067e-05,0.645799031958046,-0.00027042742790961416,-0.25523757196353647
748,0.7386,46.2113,875.262,0.00816686,203.226,0.265548,0.971873,-0.201936,0.498746,-0.294997,0.405055,-7.68189e-05,-0.000267608,0.568485,-0.18285277630892893,0.4993849639620065,-7.681594950381676e-05,0.6466550700052671,-0.000267572196173016,-0.2554661789359779
749,0.7396,46.2129,875.26,0.00813891,203.229,0.265412,0.971477,-0.20215,0.499266,-0.295303,0.405472,-7.60579e-05,-0.000264754,0.56908,-0.18302762710509635,0.5000103378733771,-7.605500767127182e-05,0.6475115533080289,-0.0002647189557525298,-0.2556939714311942
750,0.7406,46.2145,875.258,0.00813363,203.232,0.265276,0.971084,-0.202364,0.499786,-0.295609,0.405889,-7.52976e-05,-0.000261903,0.569676,-0.1832024404871968,0.5006359726200491,-7.529476520684586e-05,0.6483684820979252,-0.00026186870640321214,-0.2559216942325707
751,0.7416,46.2162,875.257,0.00811211,203.234,0.265141,0.970689,-0.202577,0.500305,-0.295914,0.406306,-7.4538e-05,-0.000259054,0.570271,-0.18337639984004428,0.5012618683108134,-7.453522211231522e-05,0.6492242073816368,-0.0002590204484098635,-0.2561486035104059
752,0.7426,46.2178,875.255,0.00809583,203.237,0.265006,0.970297,-0.20279,0.500824,-0.29622,0.406723,-7.3779e-05,-0.000256207,0.570866,-0.18355032214349543,0.5018880250545066,-7.377627839655343e-05,0.6500803769020402,-0.00025617418178935925,-0.2563761872156489
753,0.7436,46.2194,875.254,0.00809118,203.24,0.264871,0.969906,-0.203004,0.501343,-0.296525,0.407139,-7.30208e-05,-0.000253363,0.571461,-0.18372502368082555,0.5025129404463187,-7.301813404625435e-05,0.650936990889754,-0.0002533309063056377,-0.2566029578942618
754,0.7446,46.2211,875.252,0.00807446,203.243,0.264737,0.969516,-0.203217,0.501861,-0.296831,0.407555,-7.22632e-05,-0.000250521,0.572055,-0.1838988717353065,0.5031381158570141,-7.226058907783273e-05,0.6517923977822928,-0.00025048962223461757,-0.25683040258833323
755,0.7456,46.2227,875.25,0.00805579,203.246,0.264602,0.969127,-0.20343,0.502379,-0.297136,0.407971,-7.15063e-05,-0.000247682,0.572649,-0.18407268276409516,0.5037635513947827,-7.150374348541266e-05,0.652648247890385,-0.00024765132934567724,-0.25705703475238184
756,0.7466,46.2243,875.249,0.00804463,203.249,0.26447,0.96874,-0.203642,0.502897,-0.29744,0.408387,-7.075e-05,-0.000244845,0.573242,-0.18424564102112606,0.5043892471678604,-7.074749727775664e-05,0.6535045414436755,-0.0002448150279091843,-0.25728285508738713
757,0.7476,46.2259,875.247,0.00802776,203.252,0.264337,0.968354,-0.203855,0.503414,-0.297745,0.408802,-6.99945e-05,-0.00024201,0.573835,-0.1844193781959227,0.5050136982700766,-6.999205044211365e-05,0.6543596243114771,-0.0002419807179422362,-0.2575093492744661
758,0.7486,46.2275,875.245,0.00801489,203.255,0.264205,0.967969,-0.204068,0.503931,-0.29805,0.409217,-6.92396e-05,-0.000239178,0.574428,-0.1845930783686418,0.5056384085732806,-6.92372029942323e-05,0.655215149371418,-0.00023914939922242695,-0.25773577439135176
759,0.7496,46.2291,875.244,0.00799554,203.258,0.264071,0.967584,-0.20428,0.504448,-0.298354,0.409632,-6.84854e-05,-0.000236348,0.57502,-0.18476592631349809,0.5062633781850634,-6.848305492856976e-05,0.6560711168521709,-0.00023632007201168648,-0.2579613884208668
760,0.7506,46.2307,875.242,0.00798403,203.26,0.263942,0.967202,-0.204492,0.504965,-0.298658,0.410047,-6.77318e-05,-0.000233521,0.575613,-0.18493873761847412,0.5068886072130603,-6.772950625344443e-05,0.6569275269825263,-0.00023349373609360402,-0.25818693387414093
761,0.7516,46.2323,875.241,0.00797032,203.263,0.263809,0.966821,-0.204705,0.505481,-0.298962,0.410462,-6.69789e-05,-0.000230696,0.576204,-0.18511232717941684,0.5075140957649511,-6.69766569635355e-05,0.6577827222078425,-0.00023066939172400325,-0.25841241077201826
762,0.7526,46.2339,875.239,0.0079532,203.266,0.263678,0.96644,-0.204917,0.505997,-0.299266,0.410876,-6.62267e-05,-0.000227873,0.576796,-0.18528506505519293,0.508138335809371,-6.622450706050831e-05,0.6586383588277649,-0.00022784703891987057,-0.25863781913533646
763,0.7536,46.2355,875.237,0.00795363,203.269,0.263548,0.966061,-0.205129,0.506512,-0.29957,0.41129,-6.54751e-05,-0.000225053,0.577387,-0.185457766314421,0.5087628343426727,-6.547295655245922e-05,0.6594927775765045,-0.00022502767747323293,-0.25886315898492673
764,0.7546,46.2371,875.236,0.00790804,203.272,0.263418,0.96568,-0.205341,0.507028,-0.299873,0.411704,-6.47242e-05,-0.000222235,0.577978,-0.18563043096486265,0.5093875914718928,-6.472210543417845e-05,0.6603492968126925,-0.00022221030763158733,-0.2590876894296741
765,0.7556,46.2387,875.234,0.00791039,203.275,0.26329,0.965307,-0.205552,0.507543,-0.300176,0.412117,-6.3974e-05,-0.00021942,0.578568,-0.1858022448169303,0.5100110972922602,-6.397195370733133e-05,0.6612045969214251,-0.0002193959291924008,-0.2593121518520026
766,0.7566,46.2403,875.233,0.00790224,203.278,0.263158,0.964929,-0.205764,0.508058,-0.30048,0.412531,-6.32244e-05,-0.000216607,0.579158,-0.18597483644567003,0.5106363713093298,-6.322240137979218e-05,0.6620603376231566,-0.0002165835423975082,-0.2595372867356035
767,0.7576,46.2419,875.231,0.00788261,203.28,0.263033,0.964556,-0.205975,0.508572,-0.300783,0.412944,-6.24754e-05,-0.000213796,0.579748,-0.1861465776358473,0.5112603929822861,-6.247344845289327e-05,0.6629148562291634,-0.00021377314726378494,-0.25976161295058475
768,0.7586,46.2435,875.229,0.00786799,203.283,0.262901,0.964181,-0.206187,0.509086,-0.301085,0.413357,-6.17272e-05,-0.000210988,0.580337,-0.18631909627376675,0.5118846724294202,-6.17252949155489e-05,0.663769814170633,-0.00021096574359724674,-0.2599851311905206
769,0.7596,46.2451,875.228,0.00784429,203.286,0.262775,0.963809,-0.206398,0.5096,-0.301388,0.413769,-6.09796e-05,-0.000208181,0.580926,-0.18649076483278304,0.512507697248761,-6.0977740781953393e-05,0.6646252116734424,-0.00020815933183926383,-0.2602093217291881
770,0.7606,46.2466,875.226,0.00782107,203.289,0.262646,0.963438,-0.206609,0.510114,-0.30169,0.414182,-6.02326e-05,-0.000205378,0.581515,-0.1866623971735546,0.5131324919389473,-6.023078605332799e-05,0.6654810489635834,-0.00020535691138234835,-0.26043270478148717
771,0.7616,46.2482,875.225,0.00782359,203.292,0.262522,0.96307,-0.20682,0.510627,-0.301993,0.414594,-5.94863e-05,-0.000202576,0.582104,-0.18683399330372263,0.5137560309658455,-5.948453072512905e-05,0.6663356599306727,-0.0002025554828675169,-0.2606567597259001
772,0.7626,46.2498,875.223,0.00780555,203.294,0.262393,0.962698,-0.207031,0.51114,-0.302295,0.415006,-5.87406e-05,-0.000199777,0.582692,-0.1870055532309267,0.5143798269437512,-5.873887480478679e-05,0.6671907094256608,-0.0001997570459039144,-0.2608800076723262
773,0.7636,46.2514,875.222,0.00779449,203.297,0.262267,0.962331,-0.207242,0.511653,-0.302597,0.415418,-5.79956e-05,-0.00019698,0.58328,-0.18717707696280494,0.5150038799785497,-5.799391828764655e-05,0.6680461976735701,-0.00019696060071361376,-0.261103188208052
774,0.7646,46.2529,875.22,0.00779667,203.3,0.262141,0.961965,-0.207453,0.512165,-0.302898,0.415829,-5.72512e-05,-0.000194186,0.583867,-0.18734856450699355,0.5156266745487381,-5.72495611813606e-05,0.6689004559982485,-0.00019416714711906202,-0.2613255626793646
775,0.7656,46.2545,875.218,0.00776411,203.303,0.262016,0.961599,-0.207663,0.512677,-0.3032,0.41624,-5.65075e-05,-0.000191394,0.584454,-0.18751920339073724,0.5162497251401037,-5.650590348127427e-05,0.6697551518151779,-0.00019137568533689198,-0.2615486086777944
776,0.7666,46.2561,875.217,0.00777067,203.306,0.261891,0.961236,-0.207874,0.513189,-0.303501,0.416651,-5.57644e-05,-0.000188604,0.585041,-0.18769061875386506,0.5168730318578927,-5.5762845194706756e-05,0.6706102853484108,-0.00018858621538364595,-0.2617708490977212
777,0.7676,46.2576,875.215,0.00772618,203.308,0.261765,0.960869,-0.208084,0.513701,-0.303802,0.417062,-5.5022e-05,-0.000185817,0.585627,-0.18786118581375855,0.5174965948073946,-5.5020486317558515e-05,0.6714658568221161,-0.00018579973709054176,-0.2619930226333482
778,0.7686,46.2592,875.214,0.00771442,203.311,0.261642,0.960511,-0.208294,0.514212,-0.304103,0.417473,-5.42802e-05,-0.000183031,0.586213,-0.18803171705833033,0.5181204140939424,-5.427872685659363e-05,0.6723201941395465,-0.00018301425084843448,-0.2622151293048046
779,0.7696,46.2607,875.212,0.00771027,203.314,0.261519,0.960148,-0.208504,0.514723,-0.304404,0.417883,-5.3539e-05,-0.000180249,0.586799,-0.1882022124951006,0.518742971079182,-5.353756681336641e-05,0.6731749681349077,-0.00018023275612499834,-0.2624371691322135
780,0.7706,46.2623,875.211,0.00769617,203.317,0.261394,0.959788,-0.208714,0.515234,-0.304705,0.418293,-5.27985e-05,-0.000177468,0.587385,-0.18837267213158837,0.5193657833651186,-5.279710618377731e-05,0.6740301790313992,-0.00017745225348597682,-0.26265914213569175
781,0.7716,46.2638,875.209,0.00766902,203.32,0.261271,0.95943,-0.208924,0.515744,-0.305005,0.418703,-5.20586e-05,-0.00017469,0.58797,-0.18854309597531083,0.5199888510564468,-5.205724497459041e-05,0.674884152167345,-0.00017467474259036386,-0.26288031121603017
782,0.7726,46.2654,875.208,0.00768257,203.322,0.26115,0.959074,-0.209134,0.516254,-0.305306,0.419113,-5.13193e-05,-0.000171914,0.588554,-0.18871348403378374,0.5206121742579046,-5.1317983187249006e-05,0.6757385609406683,-0.0001718992236350303,-0.26310215085381383
783,0.7736,46.2669,875.206,0.00765253,203.325,0.261025,0.958713,-0.209343,0.516764,-0.305606,0.419522,-5.05807e-05,-0.00016914,0.589139,-0.18888302519795186,0.5212342318392797,-5.057942081798661e-05,0.6765934055736007,-0.00016912569663662946,-0.2633231870514702
784,0.7746,46.2685,875.204,0.00763136,203.328,0.260906,0.958362,-0.209553,0.517273,-0.305906,0.419931,-4.98427e-05,-0.000166368,0.589723,-0.18905334187878287,0.5218565438942422,-4.984145787323424e-05,0.6774470088406397,-0.0001663541616117037,-0.263544156948213
785,0.7756,46.27,875.203,0.00762147,203.331,0.260783,0.958007,-0.209762,0.517783,-0.306206,0.42034,-4.91053e-05,-0.000163599,0.590307,-0.18922281202008362,0.5224791105268927,-4.910409435443519e-05,0.6783027250042226,-0.00016358561841334218,-0.26376506056392934
786,0.7766,46.2715,875.201,0.00758541,203.333,0.260662,0.957653,-0.209972,0.518292,-0.306506,0.420749,-4.83686e-05,-0.000160832,0.59089,-0.1893930573531737,0.5231019318413748,-4.836743025815604e-05,0.6791571985363154,-0.00016081906722720252,-0.2639858979185008
787,0.7776,46.2731,875.2,0.00761296,203.336,0.260542,0.957303,-0.210181,0.5188,-0.306805,0.421157,-4.76325e-05,-0.000158068,0.591473,-0.18956245650135928,0.5237234842176288,-4.7631365590494745e-05,0.6800104270948768,-0.00015805550791192502,-0.2642059332381036
788,0.7786,46.2746,875.198,0.00757483,203.339,0.260421,0.956949,-0.21039,0.519309,-0.307104,0.421566,-4.6897e-05,-0.000155305,0.592056,-0.1897318202488224,0.5243468145850445,-4.689590035289459e-05,0.6808657700685881,-0.00015529294080274259,-0.2644259027769805
789,0.7796,46.2762,875.197,0.0075617,203.341,0.260302,0.956601,-0.210599,0.519817,-0.307403,0.421974,-4.61621e-05,-0.000152545,0.592639,-0.18990114860296103,0.524968874977086,-4.616103454668785e-05,0.6817198668019855,-0.00015253336560305808,-0.2646458065547971
790,0.7806,46.2777,875.195,0.00753536,203.344,0.26018,0.956251,-0.210808,0.520325,-0.307702,0.422382,-4.54279e-05,-0.000149787,0.593221,-0.1900704415711716,0.5255911892215499,-4.5426868168552126e-05,0.682574397526748,-0.00014977578248742685,-0.264865644591213
791,0.7816,46.2792,875.194,0.00754049,203.347,0.260064,0.955904,-0.211016,0.520832,-0.308001,0.422789,-4.46943e-05,-0.000147032,0.593803,-0.19023888940014333,0.5262122312090345,-4.469330122469639e-05,0.6834276790348783,-0.00014702119132525837,-0.26508541690588183
792,0.7826,46.2807,875.192,0.00749243,203.35,0.259943,0.955555,-0.211225,0.521339,-0.3083,0.423196,-4.39613e-05,-0.000144278,0.594384,-0.19040811178790318,0.5268335260120527,-4.396033371623087e-05,0.6842813932664196,-0.00014426759242991416,-0.2653051235184516
793,0.7836,46.2822,875.191,0.00750782,203.352,0.259827,0.955214,-0.211433,0.521846,-0.308598,0.423604,-4.32289e-05,-0.000141527,0.594965,-0.1905764893887737,0.5274566011893584,-4.3227965644598854e-05,0.6851355404408179,-0.00014151698552655745,-0.2655240299729613
794,0.7846,46.2837,875.189,0.00745434,203.355,0.259705,0.954864,-0.211642,0.522353,-0.308897,0.424011,-4.24972e-05,-0.000138778,0.595546,-0.19074564122550874,0.5280784025540368,-4.249629700681101e-05,0.6859901207776309,-0.00013876837077875237,-0.2657436054598282
795,0.7856,46.2853,875.188,0.00748931,203.358,0.259593,0.954529,-0.21185,0.522859,-0.309195,0.424417,-4.1766e-05,-0.000136031,0.596127,-0.19091394862755728,0.5286989283436854,-4.1765127812731784e-05,0.6868434476522369,-0.00013602174820304125,-0.2659623812661871
796,0.7866,46.2868,875.186,0.0074721,203.36,0.259469,0.954179,-0.212058,0.523366,-0.309493,0.424824,-4.10355e-05,-0.000133287,0.596707,-0.1910822210253067,0.5293212354384245,-4.103465805538331e-05,0.6876988941175513,-0.00013327811768248932,-0.26618109188706873
797,0.7876,46.2883,875.185,0.00745859,203.363,0.259357,0.953842,-0.212266,0.523871,-0.309791,0.42523,-4.03056e-05,-0.000130544,0.597287,-0.19125045842603716,0.5299422659206698,-4.030478774019741e-05,0.6885513972980162,-0.00013053547950281352,-0.2663997373418956
798,0.7886,46.2898,875.183,0.00742039,203.366,0.25924,0.9535,-0.212474,0.524377,-0.310088,0.425636,-3.95763e-05,-0.000127804,0.597866,-0.1914186608370274,0.5305635485924818,-3.957551686861738e-05,0.6894060205064863,-0.00012779583341671064,-0.26661758426803517
799,0.7896,46.2913,875.182,0.00742236,203.368,0.259122,0.953163,-0.212682,0.524882,-0.310386,0.426042,-3.88476e-05,-0.000125066,0.598445,-0.1915868282655545,0.5311850835562704,-3.884684544175343e-05,0.6902593860034942,-0.000125058179573867,-0.26683609966751165
800,0.7906,46.2928,875.18,0.00741159,203.371,0.259008,0.952823,-0.212889,0.525387,-0.310683,0.426447,-3.81195e-05,-0.000122331,0.599024,-0.1917541524734505,0.5318053391083819,-3.811877346104886e-05,0.6911131825589114,-0.00012232351786833906,-0.26705381701328423
801,0.7916,46.2943,875.179,0.00742197,203.374,0.258893,0.952488,-0.213097,0.525892,-0.31098,0.426853,-3.7392e-05,-0.000119597,0.599603,-0.19192225012697406,0.5324273783414797,-3.7391300927835935e-05,0.6919674103904769,-0.00011958984856386135,-0.2672714697066063
802,0.7926,46.2958,875.177,0.00735884,203.377,0.258774,0.952148,-0.213304,0.526396,-0.311277,0.427258,-3.66652e-05,-0.000116866,0.600181,-0.19208950490973042,0.5330481371248768,-3.666452783979146e-05,0.6928203768948171,-0.00011685917143500202,-0.2674890577666772
803,0.7936,46.2973,875.176,0.0074095,203.379,0.258666,0.951822,-0.213512,0.5269,-0.311574,0.427663,-3.59388e-05,-0.000114137,0.600759,-0.19225753281720104,0.5336691473664976,-3.593815420910307e-05,0.6936737734026275,-0.00011413048662045622,-0.26770658121268975
804,0.7946,46.2988,875.174,0.00735116,203.382,0.258545,0.951478,-0.213719,0.527404,-0.31187,0.428067,-3.52133e-05,-0.00011141,0.601337,-0.1924247182036234,0.5342888748785619,-3.521268001904776e-05,0.6945276001306839,-0.0001114037941364332,-0.26792330798750574
805,0.7956,46.3003,875.173,0.00737574,203.384,0.258435,0.951154,-0.213926,0.527908,-0.312167,0.428472,-3.44882e-05,-0.000108685,0.601914,-0.19259186898625247,0.5349103877207431,-3.4487605288902046e-05,0.6953818572958728,-0.00010867909399936426,-0.26814070248035327
806,0.7966,46.3018,875.171,0.00732465,203.387,0.25832,0.950815,-0.214133,0.528411,-0.312463,0.428876,-3.37637e-05,-0.000105963,0.602491,-0.19275898517225032,0.5355306167952194,-3.376313001268727e-05,0.6962348488794912,-0.00010595738611962613,-0.2683573007742901
807,0.7976,46.3033,875.17,0.00733525,203.39,0.258208,0.95049,-0.21434,0.528914,-0.312759,0.42928,-3.30399e-05,-0.000103242,0.603068,-0.19292606676877777,0.5361510964928642,-3.303935418852433e-05,0.6970882696258016,-0.00010323667072809073,-0.26857383496461973
808,0.7986,46.3047,875.168,0.00730044,203.392,0.258094,0.950157,-0.214546,0.529417,-0.313055,0.429684,-3.23166e-05,-0.000100524,0.603644,-0.19309230687570456,0.53677182691495,-3.2316077824279255e-05,0.6979421197507272,-0.00010051894763196678,-0.2687903050703141
809,0.7996,46.3062,875.167,0.00730964,203.395,0.257982,0.94983,-0.214753,0.529919,-0.313351,0.430087,-3.15939e-05,-9.78079e-05,0.60422,-0.1932593194817802,0.53739127077075,-3.159340091796192e-05,0.6987947006747495,-9.780311696327981e-05,-0.26900671111033925
810,0.8006,46.3077,875.165,0.00725803,203.398,0.257868,0.9495,-0.21496,0.530421,-0.313647,0.430491,-3.08719e-05,-9.5094e-05,0.604795,-0.19342629751982432,0.5380125023244655,-3.087142346780425e-05,0.6996477097018405,-9.508947870895401e-05,-0.269223053103656
811,0.8016,46.3092,875.164,0.00724612,203.4,0.25776,0.949176,-0.215166,0.530923,-0.313942,0.430894,-3.01504e-05,-9.23822e-05,0.605371,-0.19359243458982944,0.5386324462732177,-3.014994548122818e-05,0.7005011470469622,-9.237793289595952e-05,-0.26943860050818513
812,0.8026,46.3107,875.162,0.00726957,203.403,0.257646,0.94885,-0.215372,0.531425,-0.314237,0.431297,-2.94295e-05,-8.96726e-05,0.605946,-0.19375853743912308,0.53925264010973,-2.9429066956465633e-05,0.7013550129251835,-8.96685795326313e-05,-0.2696540843356079
813,0.8036,46.3121,875.161,0.00722989,203.406,0.257535,0.948525,-0.215578,0.531926,-0.314533,0.431699,-2.87092e-05,-8.69652e-05,0.606521,-0.19392460607475392,0.5398715440624138,-2.8708787894848875e-05,0.7022076053432265,-8.696141863662188e-05,-0.2698702347348073
814,0.8046,46.3136,875.159,0.0072228,203.408,0.257426,0.948204,-0.215785,0.532427,-0.314828,0.432102,-2.79895e-05,-8.42598e-05,0.607095,-0.1940914464127257,0.5404922373559691,-2.7989108297599152e-05,0.7030606250170892,-8.425625024277572e-05,-0.27008559124891296
815,0.8056,46.315,875.158,0.00719052,203.411,0.257314,0.94788,-0.21599,0.532928,-0.315122,0.432504,-2.72704e-05,-8.15567e-05,0.607669,-0.1942566407332147,0.5411116397269213,-2.7270028166048732e-05,0.703914072160881,-8.155337434279097e-05,-0.27030015454273615
816,0.8066,46.3165,875.156,0.00719842,203.413,0.257205,0.947561,-0.216196,0.533428,-0.315417,0.432906,-2.65519e-05,-7.88556e-05,0.608243,-0.1944226067701349,0.5417312911476824,-2.655154750141886e-05,0.7047662422217231,-7.885249097894231e-05,-0.2705153842492034
817,0.8076,46.318,875.155,0.00718723,203.416,0.257095,0.94724,-0.216402,0.533929,-0.315711,0.433308,-2.5834e-05,-7.61567e-05,0.608816,-0.19458853862157277,0.5423511917183903,-2.5833666305041803e-05,0.7056205440938259,-7.615380015213447e-05,-0.2707298212024575
818,0.8086,46.3194,875.153,0.00714726,203.419,0.256985,0.946918,-0.216608,0.534429,-0.316006,0.433709,-2.51166e-05,-7.346e-05,0.609389,-0.1947544362945698,0.5429697985686532,-2.5116284580795067e-05,0.7064735676039791,-7.345730188024202e-05,-0.27094492417595417
819,0.8096,46.3209,875.152,0.00717389,203.421,0.256878,0.946605,-0.216813,0.534928,-0.3163,0.434111,-2.43999e-05,-7.07652e-05,0.609962,-0.19491949471606318,0.5435901971194317,-2.4399602324809422e-05,0.7073253104063688,-7.076269620232001e-05,-0.27115923486303173
820,0.8106,46.3223,875.151,0.00712487,203.424,0.256767,0.946281,-0.217019,0.535428,-0.316594,0.434512,-2.36837e-05,-6.80728e-05,0.610535,-0.1950853242191264,0.5442093009104907,-2.368341954339659e-05,0.7081791865128095,-6.8070483099536e-05,-0.27137348255202853
821,0.8116,46.3238,875.149,0.00711113,203.426,0.256661,0.945971,-0.217224,0.535927,-0.316888,0.434913,-2.29681e-05,-6.53822e-05,0.611107,-0.19525031481554755,0.5448286530119528,-2.2967836235232575e-05,0.7090317806314208,-6.538006263057117e-05,-0.2715876672614631
822,0.8126,46.3252,875.148,0.00710931,203.429,0.256551,0.945652,-0.217429,0.536426,-0.317181,0.435313,-2.22531e-05,-6.2694e-05,0.611679,-0.19541527159236305,0.5454467080759295,-2.2252852401649648e-05,0.7098848003006628,-6.269203477227148e-05,-0.27180106081127386
823,0.8136,46.3267,875.146,0.00709505,203.432,0.256444,0.945338,-0.217634,0.536924,-0.317475,0.435714,-2.15386e-05,-6.00078e-05,0.61225,-0.19558019455650522,0.5460665564771665,-2.1538368045970202e-05,0.7107365349955488,-6.000599956801356e-05,-0.27201511983117754
824,0.8146,46.3282,875.145,0.00712644,203.434,0.256339,0.945026,-0.217839,0.537422,-0.317768,0.436114,-2.08248e-05,-5.73236e-05,0.612822,-0.19574508371490495,0.5466851068015748,-2.0824583165324206e-05,0.7115886939599472,-5.732195703378462e-05,-0.2722283881557317
825,0.8156,46.3295,875.143,0.00702799,203.437,0.256226,0.944709,-0.218044,0.53792,-0.318061,0.436514,-2.01116e-05,-5.46417e-05,0.613392,-0.1959099390744916,0.5473039045956036,-2.0111397763145078e-05,0.7124412774051967,-5.464020716949847e-05,-0.27244159400182033
826,0.8166,46.331,875.142,0.00708375,203.439,0.256128,0.944408,-0.218249,0.538418,-0.318354,0.436914,-1.93987e-05,-5.19616e-05,0.613963,-0.19607476064219354,0.5479229499582605,-1.93985118464024e-05,0.7132942855427418,-5.1960250019411625e-05,-0.2726547373877469
827,0.8176,46.3324,875.14,0.00702619,203.442,0.256012,0.944086,-0.218453,0.538916,-0.318647,0.437314,-1.86867e-05,-4.92839e-05,0.614533,-0.19623874466408353,0.5485422429885927,-1.868652540470972e-05,0.7141477185841314,-4.928268556858573e-05,-0.2728678183318096
828,0.8186,46.3339,875.139,0.00701008,203.444,0.255915,0.943783,-0.218658,0.539413,-0.31894,0.437713,-1.7975e-05,-4.6608e-05,0.615103,-0.19640349883354802,0.5491602346246778,-1.7974838450673936e-05,0.7149998617403015,-4.6606913864044586e-05,-0.2730808368523012
829,0.8196,46.3353,875.138,0.00706817,203.447,0.255806,0.943476,-0.218862,0.53991,-0.319232,0.438112,-1.72641e-05,-4.39343e-05,0.615673,-0.19656741579968695,0.5497784728886246,-1.726395097623179e-05,0.715852428516881,-4.3933334902823695e-05,-0.27329306626093874
830,0.8206,46.3368,875.136,0.00703708,203.449,0.255699,0.94316,-0.219066,0.540406,-0.319524,0.438511,-1.65537e-05,-4.12629e-05,0.616242,-0.1967312993301754,0.5503969578788575,-1.6553562988241843e-05,0.7167037024199012,-4.1262048698254006e-05,-0.2735052337076358
831,0.8216,46.3382,875.135,0.00701555,203.452,0.255595,0.942861,-0.21927,0.540903,-0.319817,0.43891,-1.58438e-05,-3.85932e-05,0.616811,-0.1968951494318334,0.5510156896938396,-1.5843674487703296e-05,0.7175571162157655,-3.859245529203026e-05,-0.2737180654927803
832,0.8226,46.3396,875.133,0.00692049,203.455,0.255492,0.942549,-0.219475,0.541399,-0.320109,0.439308,-1.51345e-05,-3.59259e-05,0.61738,-0.1970597690521123,0.5516331167981814,-1.5134385474069312e-05,0.7184092358536089,-3.592525467255303e-05,-0.27393010885781843
833,0.8236,46.341,875.132,0.007011,203.457,0.255388,0.942257,-0.219678,0.541895,-0.3204,0.439707,-1.44258e-05,-3.32603e-05,0.617948,-0.1972227493759322,0.5522523419389844,-1.4425695948672157e-05,0.7192617782476278,-3.325974688239697e-05,-0.27414136445696047
834,0.8246,46.3425,875.13,0.00697689,203.46,0.255279,0.941938,-0.219882,0.54239,-0.320692,0.440105,-1.37178e-05,-3.05972e-05,0.618517,-0.19738649923200635,0.5528702613288778,-1.3717705911409084e-05,0.7201130234936777,-3.059673191041501e-05,-0.2743532842367453
835,0.8256,46.3439,875.129,0.00690561,203.462,0.255184,0.941643,-0.220086,0.542885,-0.320984,0.440503,-1.301e-05,-2.79358e-05,0.619084,-0.19755021568651687,0.5534884266996356,-1.300991537034335e-05,0.7209646902104292,-2.7935409799173527e-05,-0.2745651421449883
836,0.8266,46.3453,875.128,0.00700954,203.465,0.255076,0.941349,-0.22029,0.54338,-0.321275,0.4409,-1.23031e-05,-2.52764e-05,0.619652,-0.1977138987462771,0.5541052840431162,-1.2303024317206201e-05,0.7218167786065628,-2.5276080554470504e-05,-0.2747762129763287
837,0.8276,46.3467,875.126,0.00686978,203.467,0.254969,0.941033,-0.220493,0.543875,-0.321566,0.441298,-1.15967e-05,-2.26195e-05,0.620219,-0.1978767462952461,0.5547239410507434,-1.1596632758514858e-05,0.7226692888908612,-2.2619244181010245e-05,-0.2749872223949932
838,0.8286,46.3481,875.125,0.00693599,203.47,0.254874,0.940748,-0.220697,0.54437,-0.321857,0.441695,-1.08907e-05,-1.99641e-05,0.620786,-0.19804036274955616,0.5553412889907983,-1.0890640696592513e-05,0.723522221272211,-1.996390071867804e-05,-0.2751981704188501
839,0.8296,46.3495,875.123,0.00688014,203.472,0.254767,0.940439,-0.2209,0.544864,-0.322148,0.442092,-1.01854e-05,-1.73111e-05,0.621352,-0.19820314403305872,0.5559588820666417,-1.0185348129021499e-05,0.7243738515848877,-1.7310950163773597e-05,-0.2754090570657629
840,0.8306,46.351,875.122,0.00691765,203.475,0.254668,0.940149,-0.221103,0.545358,-0.322439,0.442489,-9.48056e-06,-1.46599e-05,0.621919,-0.19836589227531443,0.5565767203756118,-9.480515059667738e-06,0.7252259027068699,-1.4659792544224892e-05,-0.2756198823535896
841,0.8316,46.3523,875.121,0.00684701,203.477,0.254562,0.939846,-0.221306,0.545851,-0.322729,0.442885,-8.77641e-06,-1.2011e-05,0.622485,-0.19852860748303025,0.5571932468210599,-8.776371487440038e-06,0.7260766487685777,-1.2010927868177923e-05,-0.2758299221304674
842,0.8326,46.3537,875.119,0.00684748,203.48,0.254463,0.939552,-0.221509,0.546345,-0.32302,0.443282,-8.07272e-06,-9.36395e-06,0.62305,-0.19869128966291127,0.5578115752701238,-8.072687415650037e-06,0.7269295412801748,-9.363906158355029e-06,-0.2760406249643782
843,0.8336,46.3552,875.118,0.00684887,203.482,0.254365,0.939259,-0.221712,0.546838,-0.32331,0.443678,-7.36955e-06,-6.71892e-06,0.623615,-0.19885393882166147,0.5584285908149456,-7.369522844968834e-06,0.7277811274427672,-6.7188974280929514e-06,-0.2762505427435894
844,0.8346,46.3566,875.116,0.00684582,203.485,0.254261,0.938964,-0.221915,0.547331,-0.3236,0.444074,-6.66705e-06,-4.07595e-06,0.62418,-0.19901655496598358,0.5590458507463083,-6.667027775297818e-06,0.7286331335408429,-4.075941693382212e-06,-0.27646039965547076
845,0.8356,46.358,875.115,0.00688586,203.487,0.254161,0.938672,-0.222117,0.547823,-0.32389,0.444469,-5.96503e-06,-1.43499e-06,0.624745,-0.1991783372813165,0.5596617954984331,-5.965012209285803e-06,0.7294838302967865,-1.4349889704279306e-06,-0.2766701957176714
846,0.8366,46.3593,875.114,0.00682058,203.49,0.254058,0.938373,-0.22232,0.548316,-0.32418,0.444865,-5.26362e-06,1.20383e-06,0.62531,-0.1993408875794349,0.5602795438755563,-5.263606147165589e-06,0.7303366760343237,1.2038307246609037e-06,-0.27687993094783503
847,0.8376,46.3608,875.112,0.0068853,203.492,0.253966,0.93809,-0.222522,0.548808,-0.324469,0.44526,-4.56261e-06,3.84091e-06,0.625874,-0.1995026043861965,0.5608959760327232,-4.562599591362293e-06,0.7311882111393913,3.840917376374264e-06,-0.27708888245284424
848,0.8386,46.3621,875.111,0.00675702,203.495,0.253857,0.937788,-0.222724,0.549299,-0.324759,0.445655,-3.86238e-06,6.47562e-06,0.626437,-0.19966428852946227,0.5615126517286881,-3.862372541019177e-06,0.7320384332635113,6.475640966785434e-06,-0.27729849628145875
849,0.8396,46.3635,875.109,0.00676988,203.497,0.253769,0.937514,-0.222927,0.549791,-0.325048,0.44605,-3.1624e-06,9.10882e-06,0.627001,-0.19982674018948943,0.5621295710596677,-3.1623949996451017e-06,0.7328908058391364,9.108861485529474e-06,-0.2775073268385645
850,0.8406,46.3649,875.108,0.00675429,203.5,0.253661,0.937216,-0.223129,0.550282,-0.325337,0.446445,-2.46328e-06,1.17396e-05,0.627564,-0.1999883588639355,0.5627467341219166,-2.4632769661803167e-06,0.7337418641425191,1.173966890943845e-05,-0.2777160970523591
851,0.8416,46.3663,875.107,0.00679015,203.502,0.253567,0.936931,-0.223331,0.550773,-0.325626,0.446839,-1.76451e-06,1.43686e-05,0.628127,-0.2001499448947064,0.5633625776483686,-1.7645084432471592e-06,0.7345933404181324,1.4368703228795354e-05,-0.27792480694027955
852,0.8426,46.3678,875.105,0.00682451,203.505,0.25346,0.936637,-0.223533,0.551264,-0.325915,0.447233,-1.06646e-06,1.69954e-05,0.628689,-0.20031149828839556,0.5639786638649769,-1.0664594313203324e-06,0.7354452348712512,1.6995544422693243e-05,-0.2781334565197574
853,0.8436,46.369,875.104,0.00670357,203.507,0.253373,0.936352,-0.223734,0.551754,-0.326204,0.447627,-3.68696e-07,1.96203e-05,0.629252,-0.20047221952421435,0.5645949928673799,-3.686959320070571e-07,0.7362958114105718,1.9620492479388574e-05,-0.2783420458082192
854,0.8446,46.3704,875.102,0.00670445,203.509,0.25327,0.936072,-0.223936,0.552244,-0.326492,0.448021,3.2832e-07,2.22434e-05,0.629814,-0.2006337078250029,0.5652115647512548,3.283200538106712e-07,0.7371468048345249,2.224364738623308e-05,-0.2785498533733006
855,0.8456,46.3719,875.101,0.00677706,203.512,0.253175,0.935784,-0.224138,0.552734,-0.32678,0.448415,1.0249e-06,2.48643e-05,0.630375,-0.20079516350844928,0.5658283796123149,1.0249005251150578e-06,0.737998215347434,2.4864609119212844e-05,-0.27875760109842085
856,0.8466,46.3732,875.1,0.00670164,203.514,0.253073,0.935497,-0.224339,0.553224,-0.327069,0.448808,1.72082e-06,2.74832e-05,0.630937,-0.20095578753732835,0.5664438711016584,1.720821480644119e-06,0.7388500431537235,2.7483577666576053e-05,-0.2789660100351614
857,0.8476,46.3745,875.098,0.00657367,203.517,0.252976,0.935214,-0.22454,0.553713,-0.327357,0.449201,2.41627e-06,3.01003e-05,0.631498,-0.20111637928402215,0.5670596045266945,2.416272919081308e-06,0.7397005487564976,3.0100753018569293e-05,-0.2791736379244202
858,0.8486,46.3759,875.097,0.00665432,203.519,0.252889,0.934941,-0.224742,0.554202,-0.327645,0.449594,3.11133e-06,3.27155e-05,0.632058,-0.20127773747768052,0.5676755799825224,3.1113348402111995e-06,0.740551470358215,3.271603515786481e-05,-0.2793812060254567
859,0.8496,46.3773,875.096,0.00663816,203.522,0.252782,0.934653,-0.224943,0.554691,-0.327932,0.449987,3.80556e-06,3.53284e-05,0.632619,-0.20143826451893942,0.5682917975642794,3.8055672411108077e-06,0.7414028081623489,3.532902405534166e-05,-0.2795879939438416
860,0.8506,46.3786,875.094,0.00659705,203.524,0.252691,0.934373,-0.225144,0.55518,-0.32822,0.45038,4.49947e-06,3.79396e-05,0.633179,-0.2015987592975056,0.5689082573671389,4.4994801227105086e-06,0.7422545623724719,3.7940319715712434e-05,-0.2797954427275271
861,0.8516,46.38,875.093,0.00662875,203.527,0.252598,0.934098,-0.225345,0.555668,-0.328507,0.450772,5.19283e-06,4.05488e-05,0.633739,-0.20175922181986294,0.5695233899621386,5.192843482770826e-06,0.7431049900863949,4.0549622113639217e-05,-0.28000211177703704
862,0.8526,46.3814,875.091,0.00658323,203.529,0.252497,0.933812,-0.225545,0.556156,-0.328794,0.451164,5.88552e-06,4.31559e-05,0.634298,-0.2019188540117477,0.5701387637363833,5.8855373197275185e-06,0.7439558329103209,4.3156831229351766e-05,-0.2802087215210406
863,0.8536,46.3827,875.09,0.00656426,203.531,0.252402,0.933543,-0.225746,0.556644,-0.329081,0.451556,6.57777e-06,4.57613e-05,0.634857,-0.20207925220153322,0.5707543787844342,6.577791633599617e-06,0.7448070910468729,4.576234706421545e-05,-0.2804152719765559
864,0.8546,46.3841,875.089,0.00652514,203.534,0.252311,0.93326,-0.225947,0.557131,-0.329368,0.451948,7.26952e-06,4.83646e-05,0.635416,-0.20223961815452263,0.5713702352008891,7.2695464230498885e-06,0.7456570190408813,4.836576958622274e-05,-0.2806217631605964
865,0.8556,46.3855,875.087,0.00662149,203.536,0.252217,0.932987,-0.226147,0.557619,-0.329655,0.452339,7.96071e-06,5.0966e-05,0.635975,-0.2023991542767477,0.5719847610948359,7.960741686519057e-06,0.7465091075588615,5.0967298788728854e-05,-0.28082819509017043
866,0.8566,46.3868,875.086,0.00658607,203.539,0.252119,0.932708,-0.226347,0.558106,-0.329942,0.45273,8.65132e-06,5.35653e-05,0.636533,-0.20255865849493881,0.5725995273153879,8.6513574226732e-06,0.7473598646367767,5.356673464640416e-05,-0.28103456778228164
867,0.8576,46.3881,875.085,0.00648358,203.541,0.252026,0.932436,-0.226548,0.558592,-0.330228,0.453122,9.34145e-06,5.61629e-05,0.637091,-0.2027189280969467,0.573216107171852,9.341493631520592e-06,0.7482092879241298,5.616447716527695e-05,-0.2812401624944507
868,0.8586,46.3895,875.083,0.00651727,203.543,0.251934,0.932169,-0.226748,0.559079,-0.330514,0.453512,1.00311e-05,5.87586e-05,0.637649,-0.20287836836676887,0.573829781112289,1.0031150311728965e-05,0.7490608731915307,5.876032632023964e-05,-0.2814456984149396
869,0.8596,46.3908,875.082,0.00652118,203.546,0.251834,0.931885,-0.226948,0.559565,-0.330801,0.453903,1.072e-05,6.1352e-05,0.638206,-0.20303777675172574,0.5744452688767205,1.072005745950122e-05,0.7499111233699596,6.135388207240133e-05,-0.2816518939090258
870,0.8606,46.3922,875.081,0.00654446,203.548,0.251756,0.931624,-0.227148,0.560051,-0.331087,0.454294,1.14088e-05,6.39439e-05,0.638763,-0.20319715325819343,0.575060997343922,1.1408865080664299e-05,0.7507617868704044,6.394594445469082e-05,-0.2818573120911676
871,0.8616,46.3936,875.079,0.00662106,203.551,0.251647,0.931347,-0.227348,0.560537,-0.331372,0.454684,1.20966e-05,6.65336e-05,0.63932,-0.20335649789254717,0.5756753909318484,1.209667316426355e-05,0.7516128638937882,6.653581340909653e-05,-0.2820619535944222
872,0.8626,46.3948,875.078,0.00648761,203.553,0.251564,0.931074,-0.227547,0.561022,-0.331658,0.455074,1.27842e-05,6.91214e-05,0.639877,-0.20351501417657325,0.5762900241800049,1.2784281718136725e-05,0.7524626021776541,6.912378893897397e-05,-0.282267254516263
873,0.8636,46.3963,875.077,0.00656583,203.555,0.251471,0.930818,-0.227747,0.561507,-0.331944,0.455464,1.34712e-05,7.17076e-05,0.640433,-0.20367429524510017,0.5769048971818769,1.347129073692166e-05,0.7533127526845433,7.171017105145339e-05,-0.28247249673043573
874,0.8646,46.3975,875.075,0.00644967,203.558,0.251371,0.930532,-0.227947,0.561992,-0.332229,0.455853,1.41575e-05,7.42913e-05,0.640989,-0.20383354446059876,0.5775184325117655,1.4157600217945543e-05,0.7541633156144332,7.429405966696834e-05,-0.28267696293104994
875,0.8656,46.3988,875.074,0.00643715,203.56,0.251288,0.930281,-0.228146,0.562477,-0.332514,0.456243,1.48436e-05,7.68738e-05,0.641544,-0.2039919658218028,0.5781337846863197,1.4843710166800861e-05,0.7550142911673969,7.687675486622858e-05,-0.2828813708671002
876,0.8666,46.4002,875.073,0.0064368,203.562,0.251201,0.930007,-0.228345,0.562961,-0.332799,0.456632,1.5529e-05,7.94539e-05,0.6421,-0.2041503556602926,0.5787477981464377,1.5529120575452637e-05,0.7558639236788038,7.945705654477386e-05,-0.2830857205551893
877,0.8676,46.4015,875.071,0.00647919,203.565,0.251095,0.929739,-0.228544,0.563445,-0.333084,0.457021,1.62137e-05,8.20322e-05,0.642655,-0.20430871398234063,0.5793620505042547,1.621383144279065e-05,0.7567139675118777,8.20355647328519e-05,-0.2832900120119157
878,0.8686,46.4028,875.07,0.00640949,203.567,0.251016,0.929474,-0.228744,0.563929,-0.333369,0.45741,1.68983e-05,8.46086e-05,0.643209,-0.20446783632677934,0.5799765418527192,1.689844277708019e-05,0.7575644228657472,8.461217940847199e-05,-0.2834942452538729
879,0.8696,46.4041,875.069,0.00637779,203.57,0.250917,0.92921,-0.228942,0.564413,-0.333653,0.457798,1.7582e-05,8.71831e-05,0.643764,-0.20462533610219424,0.5805896916943352,1.758215456426626e-05,0.7584152899396361,8.71869005569792e-05,-0.2836977039957119
880,0.8706,46.4055,875.067,0.00644313,203.572,0.250839,0.92895,-0.229141,0.564896,-0.333938,0.458187,1.82655e-05,8.97558e-05,0.644318,-0.20478359991253858,0.5812046606881187,1.8265666815286963e-05,0.7592648096671757,8.975982817238659e-05,-0.2839018210620097
881,0.8716,46.4068,875.066,0.00635133,203.574,0.250729,0.928673,-0.22934,0.565379,-0.334222,0.458575,1.89481e-05,9.23263e-05,0.644872,-0.20494183223151796,0.5818182871322979,1.8948279516317612e-05,0.7601147398118517,9.23305622040349e-05,-0.2841051640687543
882,0.8726,46.4081,875.065,0.00637992,203.577,0.250664,0.928431,-0.229539,0.565862,-0.334506,0.458963,1.96307e-05,9.48956e-05,0.645425,-0.20510003306539892,0.582432151709732,1.9630892683419887e-05,0.760965080571943,9.490010272994454e-05,-0.2843084493342848
883,0.8736,46.4094,875.063,0.0063592,203.579,0.250551,0.928157,-0.229737,0.566344,-0.33479,0.45935,2.03122e-05,9.74623e-05,0.645979,-0.20525740767825118,0.583044671467372,2.031240629407627e-05,0.761814070330874,9.746704960433838e-05,-0.284511676874997
884,0.8746,46.4108,875.062,0.00637385,203.581,0.250483,0.927911,-0.229936,0.566827,-0.335074,0.459738,2.09938e-05,0.000100028,0.646531,-0.20541554571886622,0.5836590119742526,2.099402037125664e-05,0.7626652320658556,0.00010003300296723694,-0.28471484670728275
885,0.8756,46.4121,875.061,0.00640383,203.584,0.250381,0.927647,-0.230134,0.567309,-0.335358,0.460125,2.16744e-05,0.000102591,0.647084,-0.20557285786639734,0.5842720066186997,2.16746348915553e-05,0.7635150414953311,0.00010259626263664501,-0.2849179588475288
886,0.8766,46.4135,875.06,0.00641249,203.586,0.250293,0.927387,-0.230332,0.567791,-0.335641,0.460513,2.23547e-05,0.000105152,0.647636,-0.20573013886920666,0.584886823424015,2.2354949868130802e-05,0.7643652606316833,0.00010515752866524508,-0.2851202984327732
887,0.8776,46.4148,875.058,0.00639701,203.588,0.250209,0.927127,-0.230531,0.568272,-0.335924,0.460899,2.30345e-05,0.000107712,0.648188,-0.20588818284567456,0.5854987078239484,2.3034765296081616e-05,0.7652141244574311,0.0001077178011457125,-0.28532258076401684
888,0.8786,46.4159,875.057,0.00621531,203.591,0.250112,0.926867,-0.230729,0.568753,-0.336208,0.461286,2.37136e-05,0.000110269,0.64874,-0.20604540142031857,0.5861124145684717,2.3713881169618034e-05,0.7660633966848918,0.00011027507984961993,-0.28552552033229717
889,0.8796,46.4174,875.056,0.00634076,203.593,0.250043,0.926628,-0.230927,0.569234,-0.336491,0.461673,2.43927e-05,0.000112825,0.649292,-0.2062025888687664,0.5867263588634684,2.4392997504341096e-05,0.7669130775105539,0.00011283136497963753,-0.28572768800196857
890,0.8806,46.4186,875.054,0.00619195,203.595,0.249932,0.926351,-0.231124,0.569715,-0.336774,0.462059,2.50706e-05,0.000115379,0.649843,-0.20635895155652884,0.5873389534611408,2.5070914270175493e-05,0.7677631671310003,0.00011538565641289189,-0.2859297984662844
891,0.8816,46.42,875.053,0.00637884,203.598,0.249862,0.926112,-0.231322,0.570196,-0.337056,0.462445,2.57486e-05,0.000117931,0.650394,-0.2065160769281955,0.587951784565971,2.5748931498092986e-05,0.7686136657429088,0.0001179379541338399,-0.2861311378729263
892,0.8826,46.4212,875.052,0.00624256,203.6,0.249763,0.925837,-0.23152,0.570676,-0.337339,0.462831,2.64256e-05,0.000120481,0.650944,-0.20667317119211837,0.5885648522692681,2.6425949159136763e-05,0.7694628040793627,0.00012048825812716046,-0.28633313417708306
893,0.8836,46.4224,875.05,0.00610685,203.602,0.249685,0.925601,-0.231717,0.571156,-0.337621,0.463217,2.71025e-05,0.00012303,0.651495,-0.20682944118429392,0.589178156662377,2.710286727602984e-05,0.7703123501000544,0.00012303756850085001,-0.2865343598590905
894,0.8846,46.4238,875.049,0.00626782,203.605,0.249597,0.925352,-0.231915,0.571636,-0.337904,0.463602,2.77787e-05,0.000125576,0.652045,-0.20698647340823617,0.5897901080457746,2.777908583162514e-05,0.7711623040007196,0.00012558388499583906,-0.2867362420675704
895,0.8856,46.4251,875.048,0.00620654,203.607,0.249513,0.925089,-0.232112,0.572115,-0.338186,0.463988,2.84545e-05,0.000128121,0.652594,-0.2071426816859543,0.5904038854789038,2.8454904833052908e-05,0.7720108939654073,0.000128129207845884,-0.28693735408917953
896,0.8866,46.4265,875.047,0.00629846,203.609,0.249421,0.924856,-0.232309,0.572594,-0.338468,0.464373,2.91296e-05,0.000130664,0.653144,-0.20729885919367252,0.5910163088587492,2.913002427096245e-05,0.7728598905020545,0.00013067253691234626,-0.28713840940519453
897,0.8876,46.4278,875.045,0.00627173,203.611,0.249337,0.924591,-0.232506,0.573073,-0.33875,0.464758,2.98044e-05,0.000133205,0.653693,-0.20745500593745214,0.5916289680669897,2.9804844155600918e-05,0.7737092938054555,0.00013321387217990477,-0.28733940803160385
898,0.8886,46.429,875.044,0.00613649,203.614,0.249253,0.924351,-0.232703,0.573552,-0.339031,0.465142,3.04787e-05,0.000135744,0.654242,-0.20761112192335296,0.5922402709533701,3.047916448029042e-05,0.7745591040704982,0.00013575321363368253,-0.2875396375243857
899,0.8896,46.4303,875.043,0.00629369,203.616,0.249167,0.924109,-0.2329,0.574031,-0.339313,0.465527,3.11524e-05,0.000138282,0.65479,-0.2077672071574337,0.5928534014777396,3.1152885241025885e-05,0.7754093214921642,0.00013829156139655296,-0.28774052302041764
900,0.8906,46.4316,875.041,0.00619296,203.618,0.249083,0.92384,-0.233097,0.574509,-0.339594,0.465911,3.18257e-05,0.000140817,0.655339,-0.2079232616457518,0.593465174636836,3.182620644293088e-05,0.7762581700064701,0.0001408269151792485,-0.2879406398157224
901,0.8916,46.4329,875.04,0.00625223,203.621,0.248995,0.923609,-0.233294,0.574987,-0.339876,0.466295,3.24984e-05,0.000143351,0.655886,-0.20807928539436382,0.5940771827619362,3.249892807866139e-05,0.7771074243673555,0.00014336127524550157,-0.2881414122450513
902,0.8926,46.434,875.039,0.00610126,203.623,0.24891,0.923356,-0.23349,0.575464,-0.340157,0.466679,3.31706e-05,0.000145883,0.656434,-0.20823448664420718,0.5946894259432844,3.317115015044614e-05,0.7779553068126652,0.0001458936414422407,-0.2883414164063097
903,0.8936,46.4354,875.037,0.00615366,203.625,0.248832,0.92311,-0.233687,0.575942,-0.340438,0.467063,3.38425e-05,0.000148413,0.656982,-0.20839044908753324,0.5953019042711594,3.384307266385278e-05,0.7788053725988591,0.00014842401375414482,-0.28854136437429445
904,0.8946,46.4366,875.036,0.00607394,203.627,0.248745,0.922866,-0.233883,0.576419,-0.340718,0.467446,3.45137e-05,0.000150941,0.657529,-0.20854558935526912,0.595913021922055,3.451429560463737e-05,0.7796540651586725,0.00015095239216589285,-0.2887405449056939
905,0.8956,46.438,875.035,0.00611544,203.63,0.248662,0.922626,-0.23408,0.576896,-0.340999,0.46783,3.51845e-05,0.000153468,0.658075,-0.2087014905173975,0.5965259702010108,3.518511898170651e-05,0.7805031626414032,0.0001534797768159013,-0.2889403807343265
906,0.8966,46.4392,875.034,0.00612207,203.632,0.248569,0.922379,-0.234276,0.577373,-0.341279,0.468213,3.58547e-05,0.000155992,0.658622,-0.2088565698269873,0.5971375567589476,3.585534278749414e-05,0.7813526652402458,0.00015600416738470457,-0.28913944955678517
907,0.8976,46.4405,875.032,0.00614328,203.634,0.248502,0.922138,-0.234472,0.577849,-0.34156,0.468596,3.65247e-05,0.000158515,0.659168,-0.20901161874401097,0.5977493775993983,3.652536703491194e-05,0.7822007909468045,0.0001585275641664552,-0.2893391733089583
908,0.8986,46.4418,875.031,0.00619173,203.636,0.248411,0.921901,-0.234668,0.578325,-0.34184,0.468978,3.71939e-05,0.000161036,0.659714,-0.20916663727442486,0.5983598344514767,3.7194591701705804e-05,0.7830493204572972,0.0001610489669927606,-0.28953813048512733
909,0.8996,46.4431,875.03,0.00617655,203.639,0.248328,0.921655,-0.234864,0.578801,-0.34212,0.469361,3.78628e-05,0.000163556,0.66026,-0.2093216254241843,0.5989721235139422,3.7863516804792496e-05,0.7838982539639807,0.00016356937601180732,-0.28973703196108536
910,0.9006,46.4443,875.029,0.00608029,203.641,0.248241,0.92142,-0.23506,0.579277,-0.3424,0.469743,3.8531e-05,0.000166073,0.660805,-0.20947658319924312,0.5995830475441855,3.85317423285958e-05,0.7847475916592024,0.00016608679088414569,-0.28993587775242635
911,0.9016,46.4455,875.027,0.00607508,203.643,0.248166,0.92118,-0.235255,0.579752,-0.34268,0.470125,3.9199e-05,0.000168589,0.66135,-0.20963072023666962,0.600194204991988,3.9199768290920645e-05,0.7855955481389612,0.0001686032119241343,-0.29013466787473974
912,0.9026,46.4468,875.026,0.00592352,203.645,0.248079,0.920927,-0.235451,0.580228,-0.342959,0.470507,3.98663e-05,0.000171102,0.661895,-0.20978561743508195,0.6008055959465324,3.986709467151961e-05,0.7864456939385236,0.00017111663878210948,-0.2903326926766583
913,0.9036,46.4482,875.025,0.00618115,203.648,0.248003,0.920707,-0.235646,0.580703,-0.343239,0.470889,4.05333e-05,0.000173615,0.66244,-0.20993969421670766,0.6014172204970356,4.0534121485302776e-05,0.7872944572084624,0.00017363007195636548,-0.2905313717063467
914,0.9046,46.4495,875.024,0.00608185,203.65,0.247905,0.920441,-0.235842,0.581177,-0.343518,0.47127,4.11994e-05,0.000176125,0.662984,-0.21009453086215424,0.6020274767044704,4.1200248706907416e-05,0.7881418355939913,0.00017614051091841,-0.2907292858433347
915,0.9056,46.4506,875.022,0.00606085,203.652,0.247831,0.920221,-0.236037,0.581652,-0.343797,0.471652,4.18655e-05,0.000178634,0.663528,-0.21024854741153454,0.6026395681025853,4.186637637237922e-05,0.7889914047225925,0.00017864995600302969,-0.2909271447699806
916,0.9066,46.4518,875.021,0.00594299,203.654,0.247754,0.919974,-0.236232,0.582126,-0.344076,0.472033,4.25309e-05,0.00018114,0.664071,-0.2104025339306157,0.6032502901131875,4.253180445146221e-05,0.7898395876519051,0.00018115640684035483,-0.29112494850168613
917,0.9076,46.4531,875.02,0.00600602,203.657,0.247679,0.919756,-0.236427,0.5826,-0.344355,0.472414,4.3196e-05,0.000183646,0.664615,-0.21055649042525315,0.6038612448532081,4.319693296062077e-05,0.790688172715224,0.00018366286395887776,-0.2913226970538484
918,0.9086,46.4542,875.018,0.0058451,203.659,0.247576,0.919501,-0.236622,0.583074,-0.344634,0.472794,4.38602e-05,0.000186148,0.665158,-0.2107104169013011,0.6044708279397035,4.3861161872715826e-05,0.7915371601032062,0.000186165326613974,-0.2915203904418604
919,0.9096,46.4556,875.017,0.00599407,203.661,0.247532,0.919289,-0.236817,0.583547,-0.344912,0.473175,4.45247e-05,0.00018865,0.665701,-0.21086431336461253,0.6050822477932345,4.4525691239138965e-05,0.7923847576209455,0.000188667795530284,-0.2917173203987852
920,0.9106,46.457,875.016,0.00602839,203.663,0.247412,0.919032,-0.237012,0.58402,-0.345191,0.473555,4.51876e-05,0.000191149,0.666243,-0.21101817982103932,0.6056922949490147,4.518862097491194e-05,0.7932327561471413,0.0001911672701342404,-0.2919149037022415
921,0.9116,46.4581,875.015,0.00599815,203.665,0.247361,0.91882,-0.237206,0.584493,-0.345469,0.473935,4.58511e-05,0.000193648,0.666785,-0.21117122744805428,0.6063025739667649,4.585215117769437e-05,0.7940811558715162,0.00019366675098431152,-0.2921117239997233
922,0.9126,46.4595,875.014,0.00605914,203.668,0.247266,0.918586,-0.237401,0.584966,-0.345747,0.474315,4.65135e-05,0.000196144,0.667327,-0.2113250340620696,0.6069130849346096,4.651458176962997e-05,0.7949299569838812,0.000196163237492053,-0.2923084895887673
923,0.9136,46.4604,875.012,0.00565451,203.67,0.247181,0.918335,-0.237595,0.585438,-0.346025,0.474695,4.71755e-05,0.000198638,0.667869,-0.21147802216513578,0.6075238279407067,4.7176612781418825e-05,0.7957773638958765,0.000198657729833851,-0.2925052004845802
924,0.9146,46.4618,875.011,0.00606935,203.672,0.247128,0.918144,-0.23779,0.58591,-0.346303,0.475074,4.78375e-05,0.000201132,0.66841,-0.2116317689600139,0.6081331949392483,4.783864423152373e-05,0.7966251708783436,0.00020115222839689473,-0.2927018567023647
925,0.9156,46.4631,875.01,0.00587311,203.674,0.247026,0.917874,-0.237984,0.586382,-0.34658,0.475454,4.84983e-05,0.000203622,0.668951,-0.21178469756228158,0.6087444016752501,4.849947606166971e-05,0.7974733781201597,0.00020364273236661568,-0.2928977511554238
926,0.9166,46.4645,875.009,0.00618725,203.676,0.246955,0.917669,-0.238178,0.586854,-0.346858,0.475833,4.91591e-05,0.000206111,0.669492,-0.21193759649927812,0.6093542313589104,4.9160308328355384e-05,0.7983219858102928,0.00020613224233145822,-0.29309429825928934
927,0.9176,46.4654,875.007,0.00597133,203.679,0.24686,0.917408,-0.238372,0.587326,-0.347135,0.476212,4.9819e-05,0.000208598,0.670033,-0.21209046577675783,0.6099642922118247,4.9820240987097364e-05,0.7991709941377985,0.0002086197580757343,-0.2932900840210916
928,0.9186,46.4668,875.006,0.00594249,203.681,0.246815,0.917207,-0.238566,0.587797,-0.347413,0.476591,5.04792e-05,0.000211084,0.670573,-0.2122433054004743,0.6105745843216224,5.0480474096170624e-05,0.8000186032723189,0.00021110627979514796,-0.29348652207157966
929,0.9196,46.4679,875.005,0.00579995,203.683,0.246706,0.91697,-0.23876,0.588268,-0.34769,0.476969,5.11381e-05,0.000213568,0.671113,-0.21239611537617975,0.6111834965916647,5.113940757484059e-05,0.8008666117247738,0.00021359080726890411,-0.293682199202432
930,0.9206,46.4692,875.004,0.00589607,203.685,0.246645,0.916751,-0.238954,0.588739,-0.347967,0.477347,5.17971e-05,0.000216051,0.671653,-0.2125488957096252,0.6117926390740525,5.17984414929451e-05,0.8017150196832861,0.00021607434069825793,-0.29387782213822544
931,0.9216,46.4705,875.003,0.00585775,203.687,0.246567,0.916529,-0.239148,0.589209,-0.348243,0.477726,5.24554e-05,0.000218531,0.672192,-0.21270164640656086,0.6124036242586404,5.245677580845154e-05,0.8025620247731413,0.0002185548796385106,-0.294072684967008
932,0.9226,46.4719,875.001,0.00604113,203.69,0.246482,0.916306,-0.239341,0.589679,-0.34852,0.478104,5.31132e-05,0.00022101,0.672731,-0.21285358032670953,0.6130132280364657,5.3114610530924367e-05,0.8034094280489552,0.0002210344245092699,-0.29426819975322405
933,0.9236,46.4729,875.0,0.00589531,203.692,0.246393,0.916063,-0.239535,0.590149,-0.348797,0.478481,5.37704e-05,0.000223487,0.67327,-0.21300627192056265,0.6136214486658202,5.377184565391602e-05,0.8042572296979194,0.00022351197508019283,-0.2944636603893446
934,0.9246,46.4741,874.999,0.00575277,203.694,0.246332,0.91584,-0.239728,0.590619,-0.349073,0.478859,5.44275e-05,0.000225962,0.673809,-0.2131581470536602,0.6142315128682863,5.4428981203225035e-05,0.8051054299073126,0.00022598753133573624,-0.2946583615490811
935,0.9256,46.4753,874.998,0.00594625,203.696,0.246248,0.915632,-0.239921,0.591089,-0.349349,0.479236,5.50839e-05,0.000228436,0.674347,-0.21330999287768548,0.6148401928776099,5.5085417145939175e-05,0.8059540288645026,0.00022846209348981183,-0.2948530089787126
936,0.9266,46.4764,874.996,0.0055528,203.698,0.246202,0.915398,-0.240114,0.591558,-0.349625,0.479613,5.57403e-05,0.000230908,0.674885,-0.2134618093982945,0.6154491024025583,5.574185351941985e-05,0.8068012199548218,0.00023093466130430507,-0.2950476026930666
937,0.9276,46.4778,874.995,0.00576869,203.7,0.24608,0.915193,-0.240308,0.592027,-0.349901,0.47999,5.63953e-05,0.000233378,0.675423,-0.21361438300715274,0.6160582415296749,5.6396890244725384e-05,0.807648808470951,0.0002334052347641169,-0.29524214270696647
938,0.9286,46.479,874.994,0.00571243,203.703,0.24603,0.914957,-0.240501,0.592496,-0.350177,0.480367,5.70507e-05,0.000235847,0.67596,-0.21376614078613554,0.616667610345536,5.705232742214683e-05,0.8084967945993276,0.00023587481409026445,-0.2954366290352315
939,0.9296,46.4803,874.993,0.00576483,203.705,0.245954,0.914752,-0.240693,0.592964,-0.350453,0.480744,5.77053e-05,0.000238314,0.676497,-0.21391708319616964,0.6172772089367506,5.7706964982751074e-05,0.8093433691822007,0.0002383423990373057,-0.2956310616926767
940,0.9306,46.4815,874.992,0.00585092,203.707,0.245861,0.914517,-0.240886,0.593432,-0.350728,0.48112,5.83592e-05,0.000240778,0.677034,-0.21406878255965323,0.6178854195037318,5.8360902931209324e-05,0.810190340054703,0.0002408069893493625,-0.29582473651920205
941,0.9316,46.4825,874.99,0.00582611,203.709,0.245806,0.914314,-0.241079,0.593901,-0.351003,0.481496,5.90132e-05,0.000243242,0.677571,-0.21422045264798495,0.6184938588008848,5.901494131310692e-05,0.8110395184409549,0.00024327158573411722,-0.2960183580924727
942,0.9326,46.4839,874.989,0.00572961,203.711,0.245724,0.914082,-0.241271,0.594368,-0.351279,0.481872,5.96663e-05,0.000245704,0.678107,-0.21437130783851477,0.6191025269142285,5.96680800690752e-05,0.8118854714107109,0.0002457341877002417,-0.2962126302148531
943,0.9336,46.4849,874.988,0.00580195,203.713,0.245642,0.913883,-0.241464,0.594836,-0.351554,0.482248,6.0319e-05,0.000248164,0.678643,-0.21452291954510172,0.6197114239298134,6.0320819227355216e-05,0.8127336322654906,0.0002481947952328589,-0.29640614513202335
944,0.9346,46.4865,874.987,0.00584848,203.716,0.245576,0.913633,-0.241656,0.595303,-0.351829,0.482624,6.09714e-05,0.000250622,0.679179,-0.21467371666756208,0.6203205499337234,6.0973258793506346e-05,0.8135803765711651,0.000250653408317314,-0.29659960683990794
945,0.9356,46.4873,874.985,0.00577286,203.718,0.245495,0.913448,-0.241849,0.59577,-0.352103,0.482999,6.16232e-05,0.000253079,0.679714,-0.21482527001487672,0.6209282840829797,6.162509874840794e-05,0.8144275163987775,0.00025311102719194345,-0.29679231214580126
946,0.9366,46.4886,874.984,0.0055713,203.72,0.245425,0.913208,-0.242041,0.596237,-0.352378,0.483375,6.22747e-05,0.000255533,0.68025,-0.2149760090916194,0.6215378677123355,6.227663910940429e-05,0.8152750519330798,0.0002555656513381077,-0.2969856676723578
947,0.9376,46.49,874.983,0.00599445,203.722,0.245364,0.913033,-0.242233,0.596704,-0.352652,0.48375,6.29259e-05,0.000257987,0.680785,-0.21512671922923765,0.6221460584413621,6.292787987605131e-05,0.8161229833589101,0.00025802028150812006,-0.29717826721207363
948,0.9386,46.4911,874.982,0.00573371,203.724,0.245261,0.912785,-0.242425,0.59717,-0.352927,0.484125,6.35759e-05,0.000260438,0.681319,-0.21527740043328714,0.6227544772846809,6.357792099032089e-05,0.8169694938907905,0.0002604719169203573,-0.2973715166155795
949,0.9396,46.4923,874.981,0.00589579,203.726,0.24521,0.912607,-0.242617,0.597636,-0.353201,0.484499,6.42263e-05,0.000262889,0.681854,-0.21542805270932264,0.623361500965538,6.422836255293163e-05,0.8178163989885054,0.0002629235583413436,-0.2975640104471675
950,0.9406,46.4931,874.979,0.00532308,203.728,0.245111,0.91234,-0.242809,0.598102,-0.353475,0.484874,6.48755e-05,0.000265336,0.682388,-0.21557867606289782,0.6239703756852748,6.487760446072244e-05,0.8186636988359657,0.00026537120471004094,-0.29775645154267094
951,0.9416,46.4946,874.978,0.00585099,203.73,0.245084,0.912191,-0.243,0.598568,-0.353749,0.485248,6.55254e-05,0.000267784,0.682922,-0.21572848622844354,0.6245778541971818,6.552754683597506e-05,0.819511393617167,0.00026781985733603797,-0.2979488399165374
952,0.9426,46.4958,874.977,0.00564427,203.733,0.244952,0.911909,-0.243192,0.599033,-0.354023,0.485622,6.61732e-05,0.000270227,0.683455,-0.21587905190432022,0.6251855599485434,6.617538949460489e-05,0.8203576631576186,0.00027026351460479603,-0.2981411755832106
953,0.9436,46.497,874.976,0.00568153,203.735,0.244932,0.911746,-0.243383,0.599498,-0.354296,0.485996,6.68222e-05,0.000272672,0.683989,-0.2160288047035589,0.6257934930243629,6.682443265293436e-05,0.8212043263049127,0.00027270917838895237,-0.2983327568902382
954,0.9446,46.4982,874.975,0.00564321,203.737,0.244822,0.91152,-0.243575,0.599963,-0.35457,0.48637,6.74695e-05,0.000275113,0.684521,-0.21617931272382362,0.6264016535096761,6.747177611798882e-05,0.8220513832421195,0.0002751508470519859,-0.29852498737807076
955,0.9456,46.4992,874.973,0.00535434,203.739,0.24478,0.911328,-0.243766,0.600428,-0.354843,0.486743,6.81173e-05,0.000277553,0.685054,-0.21632900817872225,0.6270084144803212,6.811962003605565e-05,0.8228988341523935,0.00027759152139772425,-0.2987164639187795
956,0.9466,46.5004,874.972,0.00543764,203.741,0.244663,0.911095,-0.243957,0.600892,-0.355116,0.487117,6.87635e-05,0.000279991,0.685587,-0.21647867504451945,0.6276170294312386,6.876586426374232e-05,0.8237448554732081,0.00028003020113853694,-0.2989078881935273
957,0.9476,46.5016,874.971,0.0056603,203.743,0.244639,0.910903,-0.244148,0.601356,-0.355389,0.48749,6.94106e-05,0.000282428,0.686119,-0.2166283133266751,0.6282242438216601,6.941300897134184e-05,0.8245912694390019,0.00028246788654251453,-0.29909926021658073
958,0.9486,46.503,874.97,0.00552228,203.745,0.244548,0.910673,-0.244339,0.60182,-0.355662,0.487863,7.00564e-05,0.000284862,0.686651,-0.21677792303064813,0.628831684745295,7.005885400679368e-05,0.8254380762320048,0.00028490257703239763,-0.29929058000220266
959,0.9496,46.504,874.969,0.00549369,203.747,0.244453,0.910465,-0.24453,0.602284,-0.355935,0.488235,7.07016e-05,0.000287296,0.687183,-0.21692750416189654,0.6294377228481187,7.070409941700717e-05,0.8262852760345307,0.00028733727344820714,-0.2994818475646518
960,0.9506,46.5049,874.967,0.00510114,203.749,0.2444,0.910254,-0.244721,0.602748,-0.356208,0.488608,7.13469e-05,0.000289727,0.687714,-0.21707705672587707,0.6300456164838562,7.1349445250668e-05,0.8271328690289783,0.0002897689749208343,-0.2996730629181834
961,0.9516,46.5062,874.966,0.00554455,203.752,0.244348,0.910088,-0.244912,0.603211,-0.35648,0.48898,7.19919e-05,0.000292158,0.688245,-0.21722658072804568,0.6306521062532913,7.199449147909931e-05,0.8279790274178902,0.000292200682304955,-0.29986352594092425
962,0.9526,46.5079,874.966,0.00588759,203.753,0.244277,0.909855,-0.245102,0.603674,-0.356753,0.489353,7.26362e-05,0.000294586,0.688776,-0.21737529354954188,0.6312604529385273,7.263883807273608e-05,0.8288255776688449,0.0002946293947168055,-0.30005463711048075
963,0.9536,46.5086,874.964,0.00548692,203.756,0.244161,0.909648,-0.245293,0.604137,-0.357025,0.489725,7.32793e-05,0.000297013,0.689306,-0.2175247605939168,0.6318673947111908,7.32819849935673e-05,0.8296725199633168,0.00029705711272831614,-0.30024499635915525
964,0.9546,46.5101,874.963,0.00578037,203.758,0.244137,0.909473,-0.245483,0.604599,-0.357297,0.490096,7.39233e-05,0.000299438,0.689837,-0.21767341676662033,0.6324729298344485,7.392603239453344e-05,0.8305180239639249,0.00029948283603298265,-0.3004353038371552
965,0.9556,46.511,874.962,0.00530778,203.76,0.24403,0.909218,-0.245674,0.605061,-0.357569,0.490468,7.45657e-05,0.000301861,0.690367,-0.2178228268748984,0.6330803227324215,7.456848009090855e-05,0.8313639186776292,0.0003019065646163721,-0.3006255595585605
966,0.9566,46.5122,874.961,0.00557906,203.762,0.243979,0.909054,-0.245864,0.605523,-0.357841,0.490839,7.52084e-05,0.000304283,0.690896,-0.21797142642038825,0.6336863079354598,7.521122822251591e-05,0.8322102042849808,0.0003043292987678914,-0.30081576353744677
967,0.9576,46.5134,874.959,0.00522008,203.764,0.243922,0.908818,-0.246054,0.605985,-0.358112,0.491211,7.58506e-05,0.000306703,0.691426,-0.21811999773464663,0.6342941522940528,7.585347672955933e-05,0.8330568809666141,0.00030675003817393076,-0.3010052167934524
968,0.9586,46.5144,874.958,0.00534532,203.766,0.243806,0.908627,-0.246244,0.606447,-0.358384,0.491582,7.64915e-05,0.000309121,0.691955,-0.21826854082303682,0.6349005879114049,7.649442554935604e-05,0.8339039489032471,0.0003091687828198353,-0.3011953175196138
969,0.9596,46.5157,874.957,0.00547285,203.768,0.243795,0.908419,-0.246434,0.606908,-0.358655,0.491953,7.71335e-05,0.000311538,0.692484,-0.21841705569092118,0.6355072485581115,7.713647486484732e-05,0.8347495735251909,0.00031158653300256134,-0.3013846679304265
970,0.9606,46.5171,874.956,0.00583753,203.77,0.243691,0.908233,-0.246624,0.607369,-0.358926,0.492323,7.77738e-05,0.000313954,0.693013,-0.2185655423436612,0.6361124982043578,7.777682446041823e-05,0.8355955880699557,0.0003140032887150035,-0.30157396703423023
971,0.9616,46.518,874.955,0.00550409,203.772,0.243598,0.907993,-0.246814,0.60783,-0.359197,0.492694,7.84136e-05,0.000316367,0.693541,-0.21871400078661718,0.6367196085531976,7.841667442676226e-05,0.836441992717337,0.00031641704931728576,-0.3017632148449274
972,0.9626,46.519,874.953,0.0050572,203.774,0.243563,0.907833,-0.247004,0.608291,-0.359468,0.493064,7.9054e-05,0.000318779,0.694069,-0.21886243102514857,0.6373253068556384,7.905712484990168e-05,0.8372887876472144,0.0003188298154248592,-0.3019524113764165
973,0.9636,46.5202,874.952,0.00515394,203.776,0.243488,0.907616,-0.247193,0.608751,-0.359739,0.493434,7.96933e-05,0.00032119,0.694597,-0.2190100520750562,0.637931229307916,7.969647559535886e-05,0.8381341349044951,0.00032124158703106254,-0.30214155664259235
974,0.9646,46.5213,874.951,0.00504289,203.778,0.243419,0.907419,-0.247383,0.609211,-0.36001,0.493804,8.03322e-05,0.000323598,0.695125,-0.21915842606918612,0.6385373759929815,8.033542671759264e-05,0.8389798711109653,0.0003236503634809207,-0.302330650657346
975,0.9656,46.5229,874.95,0.005625,203.78,0.243376,0.907256,-0.247572,0.609671,-0.36028,0.494174,8.09712e-05,0.000326006,0.695652,-0.21930599118131666,0.6391437469938164,8.097447825616833e-05,0.8398259964455832,0.000326059145731028,-0.3025189959539092
976,0.9666,46.5235,874.949,0.00503007,203.783,0.243241,0.906996,-0.247761,0.610131,-0.360551,0.494544,8.16083e-05,0.000328411,0.696179,-0.2194535284062764,0.6397503423934328,8.16116300479397e-05,0.8406725110873889,0.00032846493279636846,-0.302707987696468
977,0.9676,46.5248,874.948,0.0054116,203.784,0.243255,0.906888,-0.24795,0.610591,-0.360821,0.494913,8.22472e-05,0.000330816,0.696706,-0.2196010377493356,0.6403555219185315,8.225058239363925e-05,0.841519415215505,0.0003308707256475252,-0.30289623112578334
978,0.9686,46.5261,874.947,0.00545395,203.787,0.243122,0.906626,-0.24814,0.61105,-0.361091,0.495282,8.28834e-05,0.000333218,0.697232,-0.21974929946685406,0.640960924796081,8.288683492385651e-05,0.8423648666433481,0.00033327352328460513,-0.3030844237362338
979,0.9696,46.5276,874.946,0.0056142,203.788,0.243111,0.906452,-0.248329,0.611509,-0.361361,0.495651,8.35211e-05,0.000335619,0.697759,-0.2198967529144651,0.6415665511085136,8.352458798421836e-05,0.8432107062224707,0.00033567532635769837,-0.30327256554153825
980,0.9706,46.5281,874.944,0.00519685,203.791,0.242967,0.906244,-0.248517,0.611968,-0.361631,0.49602,8.41564e-05,0.000338018,0.698285,-0.2200433985397965,0.6421724009382919,8.415994124910675e-05,0.8440569341310749,0.0003380751345214428,-0.30346065655541254
981,0.9716,46.5295,874.943,0.00519045,203.793,0.242985,0.906083,-0.248706,0.612426,-0.361901,0.496389,8.47935e-05,0.000340416,0.69881,-0.22019079640793515,0.6427784743679088,8.479709507036581e-05,0.8449017056448167,0.0003404739481018826,-0.30364869679156836
982,0.9726,46.5308,874.942,0.00557037,203.795,0.242884,0.905912,-0.248895,0.612884,-0.36217,0.496757,8.54287e-05,0.000342813,0.699336,-0.22033816642050918,0.6433831280959386,8.543234913527264e-05,0.8457468641525265,0.0003428717670916903,-0.303835990100052
983,0.9736,46.5323,874.941,0.005599,203.797,0.24279,0.905665,-0.249084,0.613342,-0.36244,0.497125,8.60633e-05,0.000345206,0.699861,-0.22048550858278282,0.6439880043774873,8.606700355207053e-05,0.8465924098314885,0.00034526559044811833,-0.30402392900983044
984,0.9746,46.5335,874.94,0.00588518,203.799,0.242734,0.905481,-0.249272,0.6138,-0.362709,0.497493,8.66981e-05,0.000347599,0.700386,-0.22063204353245236,0.6445931032944703,8.670185838899336e-05,0.8474383428590675,0.00034765941953285306,-0.3042111213944223
985,0.9756,46.5341,874.939,0.00501698,203.801,0.242682,0.905278,-0.249461,0.614258,-0.362978,0.497861,8.73325e-05,0.00034999,0.700911,-0.2207793301572002,0.6451984249288321,8.7336313593811e-05,0.8482846634127097,0.00035005125364584444,-0.3043982634310348
986,0.9766,46.5353,874.938,0.00541689,203.803,0.242627,0.905133,-0.249649,0.614715,-0.363247,0.498229,8.79666e-05,0.000352381,0.701435,-0.22092580987360588,0.6458039693625479,8.797046917474738e-05,0.8491295225394959,0.00035244309347781666,-0.3045853551332097
987,0.9776,46.5364,874.936,0.00530123,203.805,0.242546,0.904893,-0.249837,0.615172,-0.363516,0.498597,8.85998e-05,0.000354768,0.701959,-0.22107226205441333,0.6464097366776231,8.86037250782401e-05,0.8499747678551404,0.0003548309376093517,-0.3047723965144853
988,0.9786,46.5374,874.935,0.00514136,203.807,0.242477,0.904729,-0.250025,0.615629,-0.363785,0.498964,8.92327e-05,0.000357155,0.702483,-0.22121868670479872,0.6470140799411894,8.923668135585316e-05,0.8508203995361716,0.00035721878744077173,-0.3049593875883958
989,0.9796,46.539,874.934,0.00572776,203.809,0.242409,0.904552,-0.250213,0.616086,-0.364053,0.499331,8.98653e-05,0.000359541,0.703007,-0.22136508382993725,0.6476186450394377,8.986933800692043e-05,0.8516664177591995,0.0003596056426122818,-0.30514563351445334
990,0.9806,46.5398,874.933,0.00526746,203.811,0.242359,0.904343,-0.250401,0.616542,-0.364322,0.499698,9.04976e-05,0.000361924,0.70353,-0.22151145343500322,0.6482234320537961,9.05016950314419e-05,0.8525109701890174,0.00036198950239296757,-0.30533252420111356
991,0.9816,46.5412,874.932,0.0054593,203.813,0.242282,0.904176,-0.250589,0.616999,-0.36459,0.500065,9.11292e-05,0.000364306,0.704053,-0.22165779552516995,0.6488284410657228,9.113335239163689e-05,0.8533577611793974,0.0003643723674899846,-0.3055186701399578
992,0.9826,46.5422,874.931,0.0054001,203.815,0.242181,0.90394,-0.250777,0.617455,-0.364858,0.500431,9.17599e-05,0.000366686,0.704576,-0.22180411010560974,0.6494320227238584,9.176411006839302e-05,0.8542030850376872,0.000366753237529327,-0.3057047661983746
993,0.9836,46.5435,874.93,0.00568426,203.817,0.242202,0.903806,-0.250965,0.61791,-0.365126,0.500798,9.2392e-05,0.000369065,0.705098,-0.2219503971814939,0.6500374753699629,9.239626827217684e-05,0.8550469394036893,0.0003691331128661268,-0.30589081238973026
994,0.9846,46.5439,874.928,0.00501096,203.819,0.242018,0.903559,-0.251152,0.618366,-0.365394,0.501164,9.30207e-05,0.000371441,0.705621,-0.22209587885426052,0.6506414996156429,9.302502655939016e-05,0.8558930337028965,0.00037150999275015195,-0.3060768087273873
995,0.9856,46.5457,874.928,0.00566616,203.821,0.242085,0.903444,-0.25134,0.618821,-0.365662,0.50153,9.36526e-05,0.000373818,0.706143,-0.2222421110827758,0.6512457449746576,9.365698554164581e-05,0.8567376571704985,0.0003738878786556654,-0.3062627552247047
996,0.9866,46.5469,874.927,0.00542334,203.823,0.241901,0.903152,-0.251527,0.619276,-0.36593,0.501896,9.42805e-05,0.00037619,0.706664,-0.22238753821014312,0.6518502115279499,9.428494454599701e-05,0.8575826650292211,0.00037626076833197075,-0.306448651895038
997,0.9876,46.5478,874.925,0.00529687,203.825,0.241886,0.902991,-0.251714,0.619731,-0.366197,0.502262,9.49103e-05,0.000378563,0.707186,-0.22253293814518016,0.6524548993564916,9.49148041249348e-05,0.8584280574540011,0.0003786346640153315,-0.30663380538589113
998,0.9886,46.5478,874.923,0.0042317,203.826,0.241809,0.902799,-0.251902,0.620186,-0.366464,0.502627,9.55389e-05,0.000380934,0.707707,-0.22267908821427196,0.6530581554823023,9.5543463985992e-05,0.8592738346198565,0.0003810065645699634,-0.30681890944736123
999,0.9896,46.5503,874.924,0.00594132,203.829,0.241771,0.902668,-0.252089,0.62064,-0.366732,0.502993,9.61676e-05,0.000383304,0.708228,-0.2228244336345555,0.6536632854992468,9.61722242518448e-05,0.8601181365828174,0.00038337747036498726,-0.3070046570883337
