,Time,S11,S22,S33,S12,S13,S23,LE11,LE22,LE33,LE12,LE13,LE23,SDV_EPBAR,E11,E12,E13,E22,E23,E33
0,1e-05,0.00556654,0.0775319,6.93889e-18,0.0207746,1.02146e-18,-2.73701e-19,-8.51666e-08,3.65167e-07,-1.2e-07,2.6e-07,-5.30124e-35,-1.97845e-34,0.0,-8.516659633084345e-08,2.6000003372494973e-07,0.0,3.6516706658495934e-07,0.0,-1.1999999283140994e-07
1,2e-05,0.0111331,0.155064,-6.93889e-18,0.0415492,-6.47583e-19,-3.73882e-19,-1.70329e-07,7.30333e-07,-2.40004e-07,5.19998e-07,1.78123e-30,6.64766e-30,0.0,-1.7032898547153508e-07,5.199981352177474e-07,0.0,7.303332667518703e-07,0.0,-2.40003971252456e-07
2,3.5e-05,0.0194829,0.271361,6.93889e-18,0.0727111,-8.84615e-19,7.84433e-19,-2.98078e-07,1.27808e-06,-4.20004e-07,9.09997e-07,2.55674e-23,-6.85077e-24,0.0,-2.980779555405988e-07,9.099974140891476e-07,0.0,1.2780808167356383e-06,0.0,-4.200039117607801e-07
3,5.75e-05,0.0320076,0.445808,-6.93889e-18,0.119454,-1.63238e-18,2.0796e-18,-4.89707e-07,2.09971e-06,-6.89999e-07,1.495e-06,6.85087e-24,2.55678e-23,0.0,-4.897068800469029e-07,1.4950011175685063e-06,0.0,2.0997122043286964e-06,0.0,-6.899987619046755e-07
4,9.125e-05,0.0507946,0.707477,9.02056e-17,0.189568,2.92754e-18,-1.33184e-18,-7.77144e-07,3.33214e-06,-1.095e-06,2.3725e-06,1.37018e-23,5.11358e-23,0.0,-7.771436980608115e-07,2.372502814429467e-06,0.0,3.332145551482313e-06,0.0,-1.0949994004860741e-06
5,0.00014188,0.078975,1.09998,-7.63278e-17,0.294739,-1.70572e-18,-2.27996e-18,-1.20828e-06,5.18079e-06,-1.70251e-06,3.68873e-06,2.04542e-22,-5.48065e-23,0.0,-1.2082792700818246e-06,3.688736803342252e-06,0.0,5.180803420268276e-06,0.0,-1.7025085506938709e-06
6,0.00021781,0.121246,1.68873,-2.08167e-17,0.452495,3.87568e-18,-5.96507e-18,-1.85502e-06,7.95375e-06,-2.61375e-06,5.66309e-06,5.86225e-22,-2.66692e-22,0.0,-1.8550182794285774e-06,5.6631060352252405e-06,0.0,7.953781631098167e-06,0.0,-2.6137465841680196e-06
7,0.00033172,0.184651,2.57186,3.46945e-17,0.689128,-9.18336e-18,1.06717e-17,-2.8251e-06,1.21132e-05,-3.98061e-06,8.62462e-06,5.48069e-23,2.04542e-22,0.0,-2.8250960094622357e-06,8.624657192202179e-06,0.0,1.2113273365033095e-05,0.0,-3.980602077402473e-06
8,0.00050258,0.279759,3.89654,-2.98372e-16,1.04408,7.16006e-18,6.29239e-18,-4.28022e-06,1.83523e-05,-6.0309e-06,1.30669e-05,8.18173e-22,-2.19231e-22,0.0,-4.280210839868737e-06,1.3066985372400808e-05,0.0,1.8352468404536637e-05,0.0,-6.030881814167444e-06
9,0.00075887,0.42242,5.88355,-4.09395e-16,1.57649,6.57344e-18,-2.85838e-17,-6.4629e-06,2.77109e-05,-9.10629e-06,1.97302e-05,3.31166e-27,1.23593e-26,0.0,-6.4628791155429965e-06,1.9730394641648275e-05,0.0,2.771128395062661e-05,0.0,-9.106248537893435e-06
10,0.0011433,0.636408,8.86402,-6.31439e-16,2.37511,2.2917e-17,-3.29625e-17,-9.73686e-06,4.17486e-05,-1.37193e-05,2.97251e-05,-1.19789e-21,2.07484e-21,0.0,-9.736812596972122e-06,2.972554179514475e-05,0.0,4.174947148483099e-05,0.0,-1.3719205890883046e-05
11,0.00172,0.957384,13.3346,-5.96051e-15,3.57301,3.92607e-17,-3.73409e-17,-1.46477e-05,6.28047e-05,-2.06387e-05,4.47172e-05,1.85561e-21,3.79751e-22,0.0,-1.4647592722960567e-05,4.4718199828874816e-05,0.0,6.280667225655456e-05,0.0,-2.0638487023494356e-05
12,0.0025849,1.43883,20.0404,-3.39381e-14,5.3698,-5.23869e-17,-1.17879e-16,-2.20138e-05,9.4388e-05,-3.10175e-05,6.72046e-05,-3.27272e-21,8.77144e-22,0.0,-2.2013557698041808e-05,6.720685827965589e-05,0.0,9.439245468745305e-05,0.0,-3.101701896235376e-05
13,0.0035849,1.99542,27.7926,-7.61266e-14,7.44701,-6.75561e-17,-4.3744e-17,-3.05294e-05,0.0001309,-4.30161e-05,9.32014e-05,-3.27278e-21,8.77083e-22,0.0,-3.05289339825876e-05,9.320574338533838e-05,0.0,0.0001309085677787536,0.0,-4.301517482085959e-05
14,0.0045849,2.55198,35.5445,-8.8117e-14,9.52413,-1.04932e-16,-3.13981e-16,-3.90446e-05,0.000167411,-5.50141e-05,0.000119197,-1.35297e-20,1.87236e-21,0.0,-3.904383776953679e-05,0.00011920410424459682,0.0,0.0001674250140035749,0.0,-5.501258675211229e-05
15,0.0055849,3.10852,43.2961,-8.50084e-14,11.6012,-8.59008e-18,4.55727e-17,-4.75595e-05,0.00020392,-6.70117e-05,0.000145192,7.42274e-21,1.51881e-21,0.0,-4.755836906489286e-05,0.00014520254086858309,0.0,0.00020394079309649094,0.0,-6.700945476623144e-05
16,0.0065849,3.66504,51.0474,-8.3232e-14,13.6781,-8.50674e-17,-1.09097e-16,-5.60742e-05,0.000240428,-7.90088e-05,0.000171186,8.77124e-22,3.27347e-21,0.0,-5.607262787143963e-05,0.0001712006531593424,0.0,0.00024045690512797258,0.0,-7.900567888696752e-05
17,0.0075849,4.22154,58.7984,-8.3232e-14,15.755,8.30587e-17,1.26116e-16,-6.45885e-05,0.000276934,-9.10053e-05,0.000197178,2.6308e-21,9.81826e-21,0.0,-6.458641420770128e-05,0.0001971974408596644,0.0,0.00027697234976020724,0.0,-9.10011591432891e-05
18,0.0085849,4.77801,66.5491,-8.18998e-14,17.8318,5.44379e-17,-1.11446e-16,-7.31023e-05,0.000313439,-0.000103001,0.00022317,1.75414e-21,6.54655e-21,0.0,-7.309962809198822e-05,0.00022319490427702426,0.0,0.00031348812713605234,0.0,-0.00010299569557914445
19,0.0095849,5.33446,74.2995,-9.12256e-14,19.9085,1.53393e-17,4.13091e-18,-8.16159e-05,0.000349942,-0.000114997,0.00024916,5.26207e-21,1.96383e-20,0.0,-8.1612569513001e-05,0.00024919104293097405,0.0,0.00035000323684464263,0.0,-0.00011499038809847928
20,0.010585,5.89089,82.0495,-7.96793e-14,21.9851,3.05101e-17,-6.99983e-17,-9.0129e-05,0.000386444,-0.000126992,0.00027515,1.75416e-21,6.5466e-21,0.0,-9.012493850368841e-05,0.00027518785723334993,0.0,0.00038651867910211024,0.0,-0.00012698393685728337
21,0.011585,6.4473,89.7993,-9.03375e-14,24.0616,3.69239e-17,-1.76809e-16,-9.8642e-05,0.000422945,-0.000138987,0.000301138,3.50845e-21,1.30937e-20,0.0,-9.86371350378823e-05,0.000301183346599343,0.0,0.0004230344538473929,0.0,-0.00013897734175438714
22,0.012585,7.00368,97.5487,-8.45643e-14,26.1381,-6.98925e-17,-1.83211e-16,-0.000107154,0.000459444,-0.000150981,0.000327126,3.5086e-21,1.30943e-20,0.0,-0.00010714825921520621,0.00032717951154470626,0.0,0.00045954956056037943,0.0,-0.0001509696029423635
23,0.013585,7.56005,105.298,-8.36761e-14,28.2145,6.72706e-17,-3.25049e-16,-0.000115667,0.000495941,-0.000162975,0.000353112,1.48476e-20,3.04075e-21,0.0,-0.00011566031083043438,0.00035317435138115805,0.0,0.0004960639990703175,0.0,-0.00016296172029606204
24,0.014585,8.11639,113.047,-8.45643e-14,30.2908,1.04651e-16,-5.47941e-17,-0.000124179,0.000532438,-0.000174968,0.000379098,5.26246e-21,1.96398e-20,0.0,-0.00012417129010711125,0.0003791698667279242,0.0,0.0005325797702719903,0.0,-0.00017495269399214752
25,0.015585,8.6727,120.795,-8.27879e-14,32.367,8.31417e-18,-4.1433e-16,-0.00013269,0.000568932,-0.000186961,0.000405082,5.26351e-21,1.96437e-20,0.0,-0.00013268119707132708,0.0004051640567928061,0.0,0.0005690938725069206,0.0,-0.0001869435238813777
26,0.016585,9.229,128.543,-9.43343e-14,34.4431,-1.46979e-16,-8.63144e-16,-0.000141201,0.000605425,-0.000198953,0.000431065,1.75661e-21,6.55576e-21,0.0,-0.00014119103160803448,0.00043115792186831925,0.0,0.0006056083067063067,0.0,-0.0001989332101642871
27,0.017585,9.78527,136.291,-7.92352e-14,36.5191,-1.20693e-16,-7.65045e-16,-0.000149712,0.000641917,-0.000210945,0.000457047,5.26487e-21,1.96488e-20,0.0,-0.00014970079371778855,0.0004571514618940675,0.0,0.0006421230728088645,0.0,-0.00021092275266787475
28,0.018585,10.3415,144.039,-8.58966e-14,38.5951,-2.20003e-17,-2.6597e-16,-0.000158223,0.000678407,-0.000222936,0.000483029,5.26347e-21,1.96435e-20,0.0,-0.00015821048340125543,0.0004831456772929066,0.0,0.0006786371700755467,0.0,-0.00022291115161654496
29,0.019585,10.8978,151.786,-7.70148e-14,40.671,4.27716e-18,-1.67901e-16,-0.000166733,0.000714896,-0.000234927,0.000509009,-7.83055e-21,2.31512e-20,0.0,-0.00016671910082588504,0.0005091385670636939,0.0,0.0007151515990506674,0.0,-0.00023489940681320487
30,0.020585,11.454,159.533,-7.74589e-14,42.7468,-1.59777e-16,-6.49412e-16,-0.000175243,0.000751383,-0.000246917,0.000534988,7.01935e-21,2.61966e-20,0.0,-0.0001752276458424351,0.0005351311316035279,0.0,0.0007516653589219047,0.0,-0.0002468865185064617
31,0.021585,12.0101,167.28,-7.61266e-14,44.8225,-2.66756e-17,-5.44913e-16,-0.000183752,0.000787869,-0.000258907,0.000560966,3.5105e-21,1.31014e-20,0.0,-0.00018373511863523095,0.0005611233708517904,0.0,0.0007881794503066253,0.0,-0.00025887348647501973
32,0.022585,12.5663,175.026,-7.56825e-14,46.8981,-2.02554e-17,-6.517e-16,-0.000192261,0.000824354,-0.000270897,0.000586943,-7.50546e-20,3.41549e-20,0.0,-0.00019224251903837697,0.0005871152847480854,0.0,0.000824693873144211,0.0,-0.00027086031072076633
33,0.023585,13.1224,182.772,-7.47943e-14,48.9736,-1.0017e-16,-3.47116e-17,-0.00020077,0.000860837,-0.000282886,0.000612919,1.05262e-20,3.92842e-20,0.0,-0.00020074984705231724,0.0006131068732320166,0.0,0.000861207626512428,0.0,-0.0002828459915281689
34,0.024585,13.6786,190.518,-7.25739e-14,51.0491,1.94758e-17,-2.41927e-16,-0.000209278,0.000897318,-0.000294874,0.000638894,-4.536e-20,4.02275e-20,0.0,-0.0002092561028869122,0.000639098136243188,0.0,0.0008977207102405238,0.0,-0.0002948305289349751
35,0.025585,14.2347,198.263,-7.25739e-14,53.1245,4.34078e-17,-2.83359e-16,-0.000217787,0.000933798,-0.000306862,0.000664868,-6.45325e-20,7.34356e-20,0.0,-0.0002177632861328771,0.0006650890737209814,0.0,0.0009342341250928587,0.0,-0.00030681492267203847
36,0.026585,14.7907,206.008,-8.54525e-14,55.1998,-8.32682e-17,-4.94625e-16,-0.000226294,0.000970277,-0.00031885,0.000690841,-1.23929e-19,6.12859e-20,0.0,-0.0002262683974441071,0.0006910796856050005,0.0,0.0009707478710079265,0.0,-0.00031879917274102443
37,0.027585,15.3468,213.753,-8.63407e-14,57.275,1.08792e-16,-3.00837e-16,-0.000234802,0.00100675,-0.000330837,0.000716813,7.01884e-21,2.61947e-20,0.0,-0.00023477443616781724,0.0007170699718350715,0.0,0.0010072569428885014,0.0,-0.000330782279474362
38,0.028585,15.9028,221.498,-6.8133e-14,59.3501,-2.42972e-17,-4.0529e-16,-0.000243309,0.00104323,-0.000342823,0.000742783,-6.4534e-20,7.34412e-20,0.0,-0.00024327940276569482,0.00074305893160731,0.0,0.0010437743536952926,0.0,-0.0003427642429099098
39,0.029585,16.4588,229.242,-8.58966e-14,61.4252,-3.71178e-17,-1.91642e-16,-0.000251816,0.0010797,-0.000354809,0.000768753,7.01876e-21,2.61944e-20,0.0,-0.00025178429701222527,0.0007690485663218727,0.0,0.0010802830858787082,0.0,-0.00035474606273055986
40,0.030585,17.0148,236.986,-8.54525e-14,63.5001,-1.00766e-16,-5.59927e-16,-0.000260322,0.00111618,-0.000366795,0.000794722,7.0208e-21,2.6202e-20,0.0,-0.00026028811916822825,0.0007950378752008547,0.0,0.0011168031607278195,0.0,-0.0003667277389378665
41,0.031585,17.5708,244.729,-7.03534e-14,65.575,8.4882e-17,-2.59322e-16,-0.000268828,0.00115265,-0.00037878,0.00082069,-8.37104e-20,1.06651e-19,0.0,-0.00026879186899098073,0.0008210268581838598,0.0,0.001153314556320284,0.0,-0.0003787082719124424
42,0.032585,18.1267,252.473,-7.12416e-14,67.6498,1.88258e-16,5.18724e-16,-0.000277334,0.00118912,-0.000390765,0.000846656,-3.83503e-20,6.64082e-20,0.0,-0.00027729554648114885,0.000847014514363531,0.0,0.001189827283507805,0.0,-0.0003906886613012084
43,0.033585,18.6826,260.215,-7.16857e-14,69.7245,2.99849e-17,-5.94949e-16,-0.000285839,0.00122559,-0.000402749,0.000872622,-1.23939e-19,6.12946e-20,0.0,-0.0002857981519250874,0.0008730028453474148,0.0,0.001226341342338566,0.0,-0.000402667907508536
44,0.034585,19.2385,267.958,-8.54525e-14,71.7992,1.19917e-16,-1.28569e-16,-0.000294344,0.00126205,-0.000414733,0.000898587,-9.07323e-20,8.04595e-20,0.0,-0.00029430068505476026,0.0008989908502541333,0.0,0.001262846720232913,0.0,-0.00041464701015736516
45,0.035585,19.7944,275.7,-8.3232e-14,73.8737,6.09577e-17,-2.17862e-16,-0.000302849,0.00129852,-0.000426716,0.00092455,2.10561e-20,7.85823e-20,0.0,-0.00030280314587072255,0.0009249775280981698,0.0,0.0012993634421312183,0.0,-0.00042662496967615926
46,0.036585,20.3503,283.442,-6.90212e-14,75.9482,7.37862e-17,-4.3148e-16,-0.000311354,0.00133498,-0.000438698,0.000950513,-9.07325e-20,8.04686e-20,0.0,-0.00031130553437341835,0.000950964880642946,0.0,0.0013358714824598383,0.0,-0.00043860178610255485
47,0.037585,20.9061,291.184,-7.07975e-14,78.0226,1.70129e-16,-7.19228e-17,-0.000319857,0.00137145,-0.000450681,0.000976474,-5.75242e-20,9.96358e-20,0.0,-0.0003198058512033919,0.0009769509059525117,0.0,0.001372390867619755,0.0,-0.0004505794585729639
48,0.038585,21.4619,298.926,-1.05436e-13,80.0969,1.88991e-17,-7.67069e-16,-0.000328361,0.00140791,-0.000462662,0.00100243,-3.13267e-20,9.26357e-20,0.0,-0.0003283070954270828,0.0010029326008791362,0.0,0.001408901570576715,0.0,-0.0004625549884409441
49,0.039585,22.0177,306.667,-8.67847e-14,82.1711,3.1668e-16,3.44264e-16,-0.000336865,0.00144437,-0.000474643,0.00102839,2.10531e-20,7.85714e-20,0.0,-0.00033680826735649205,0.0010289189743111216,0.0,0.001445413604738377,0.0,-0.0004745303748309171
50,0.040585,22.5734,314.407,-6.41362e-14,84.2452,3.70945e-16,1.54542e-16,-0.000345368,0.00148082,-0.000486624,0.00105435,2.10545e-20,7.85763e-20,0.0,-0.0003453083673375934,0.0010549060223581375,0.0,0.0014819169553339506,0.0,-0.00048650561774465917
51,0.041585,23.1292,322.148,-6.63566e-14,86.3193,1.47925e-16,-4.16286e-16,-0.00035387,0.00151728,-0.000498605,0.00108031,2.80777e-20,1.04788e-19,0.0,-0.0003538073953963661,0.0010808937450377254,0.0,0.0015184316516849705,0.0,-0.0004984807171838357
52,0.042585,23.6849,329.888,-8.58966e-14,88.3932,3.3357e-16,-1.15691e-16,-0.000362373,0.00155374,-0.000510585,0.00110627,-1.43131e-19,9.45036e-20,0.0,-0.00036230735083453425,0.0011068821423672048,0.0,0.0015549476793861317,0.0,-0.0005104546736607318
53,0.043585,24.2406,337.628,-4.28199e-14,90.4671,5.09352e-16,1.06332e-15,-0.000370875,0.00159019,-0.000522564,0.00113222,-1.29103e-19,1.46863e-19,0.0,-0.0003708062343685814,0.0011328612030356844,0.0,0.0015914550225712976,0.0,-0.0005224274872128731
54,0.044585,24.7963,345.367,-4.28199e-14,92.5409,4.9182e-16,9.97896e-16,-0.000379376,0.00162664,-0.000534543,0.00115818,-2.43229e-20,1.18789e-19,0.0,-0.0003793040460248198,0.0011588509494580013,0.0,0.0016279636964733335,0.0,-0.0005344001573435175
55,0.045585,25.3519,353.107,-4.19317e-14,94.6146,5.39071e-17,-6.36417e-16,-0.000387878,0.00166309,-0.000546521,0.00118413,-2.43104e-20,1.18839e-19,0.0,-0.00038780278505357035,0.0011848313587343728,0.0,0.0016644737011408672,0.0,-0.0005463716846008104
56,0.046585,25.9075,360.846,-8.63407e-14,96.6883,5.88151e-16,1.35741e-15,-0.000396379,0.00169954,-0.000558499,0.00121008,-1.15073e-19,1.99249e-19,0.0,-0.0003963004522227198,0.0012108124422112176,0.0,0.0017009850366223045,0.0,-0.0005583430684640289
57,0.047585,26.4632,368.584,-8.58966e-14,98.7618,3.16635e-16,3.44095e-16,-0.000404879,0.00173599,-0.000570477,0.00123603,-2.43189e-20,1.18812e-19,0.0,-0.00040479704755835844,0.0012367941999060772,0.0,0.001737497702966273,0.0,-0.0005703143089348384
58,0.048585,27.0187,376.322,-8.58966e-14,100.835,3.49316e-16,3.35316e-16,-0.00041338,0.00177244,-0.000582454,0.00126198,-2.43193e-20,1.18813e-19,0.0,-0.00041329457025984784,0.001262776631836049,0.0,0.0017740117002211786,0.0,-0.0005822844065973554
59,0.049585,27.5743,384.06,-8.63407e-14,102.909,7.84353e-17,-1.52634e-16,-0.00042188,0.00180888,-0.00059443,0.00128793,-1.22084e-19,1.73106e-19,0.0,-0.00042179102114603406,0.0012887597380191185,0.0,0.0018105170103301926,0.0,-0.0005942533614889944
60,0.050585,28.1298,391.798,-6.05835e-14,104.982,1.17537e-16,-2.682e-16,-0.000430379,0.00184533,-0.000606406,0.00131388,3.50997e-20,1.30994e-19,0.0,-0.00043028640024300735,0.0013147435184723832,0.0,0.001847033669187148,0.0,-0.0006062221730414041
61,0.051585,28.6854,399.536,-1.09877e-13,107.055,-1.32076e-17,-2.33155e-16,-0.000438879,0.00188177,-0.000618381,0.00133983,4.21198e-20,1.57193e-19,0.0,-0.0004387827066992811,0.0013407279732133848,0.0,0.0018835416402653848,0.0,-0.0006181898418743392
62,0.052585,29.2409,407.273,-5.88071e-14,109.128,-1.99467e-16,-1.05903e-15,-0.000447377,0.00191821,-0.000630357,0.00136577,-1.02681e-20,1.71263e-19,0.0,-0.0004472769418317757,0.00136670308859288,0.0,0.0019200509417180989,0.0,-0.0006301583667650545
63,0.053585,29.7963,415.009,-1.1121e-13,111.201,6.04885e-18,-5.53532e-16,-0.000455876,0.00195465,-0.000642331,0.00139172,-2.43125e-20,1.18851e-19,0.0,-0.000455772104324792,0.0013926888917024094,0.0,0.00195656157359414,0.0,-0.000642124749605899
64,0.054585,30.3518,422.746,-5.96953e-14,113.274,-2.47925e-16,-1.50138e-15,-0.000464374,0.00199109,-0.000654305,0.00141766,-2.43037e-20,1.18886e-19,0.0,-0.00046426619508199707,0.001418665354965487,0.0,0.001993073535941692,0.0,-0.0006540909891621371
65,0.055585,30.9072,430.482,-5.88071e-14,115.347,-3.31416e-16,-2.07446e-15,-0.000472872,0.00202752,-0.000666279,0.0014436,2.80994e-20,1.04868e-19,0.0,-0.00047276021365671994,0.0014446424920668832,0.0,0.002029576808513678,0.0,-0.0006660570854354342
66,0.056585,31.4626,438.218,-3.03854e-14,117.42,-4.07865e-16,-2.22903e-15,-0.00048137,0.00206396,-0.000678252,0.00146955,-6.26551e-20,1.85356e-19,0.0,-0.00048125416004962673,0.0014706303177300928,0.0,0.002066091431585093,0.0,-0.000678022039105719
67,0.057585,32.018,445.953,-8.8117e-14,119.493,-3.98455e-16,-1.67092e-15,-0.000489867,0.00210039,-0.000690225,0.00149549,2.80972e-20,1.0486e-19,0.0,-0.0004897470347509092,0.0014966088028200986,0.0,0.0021025973642474494,0.0,-0.0006899868495202632
68,0.058585,32.5734,453.689,-1.16539e-13,121.565,-2.01161e-17,-6.5118e-16,-0.000498364,0.00213682,-0.000702197,0.00152143,-1.02721e-20,1.71263e-19,0.0,-0.0004982398372886943,0.0015225879618006033,0.0,0.0021391046268450786,0.0,-0.0007019505173830876
69,0.059585,33.072,460.716,-0.000245811,123.438,-0.000438827,-0.00163771,-0.000507416,0.00217318,-0.000715005,0.00154781,-5.50387e-09,-2.05411e-08,3.80655e-06,-0.0005072872862728062,0.0015490084761560219,-5.503870026402069e-09,0.0021755430671361875,-2.0541099821080877e-08,-0.0007147494448364045
70,0.060585,33.114,461.738,-0.0203118,123.694,-0.00355043,-0.0132499,-0.000520953,0.00220862,-0.000734908,0.00157875,-4.5335e-08,-1.69231e-07,3.96771e-05,-0.0005208173275466077,0.0015799968818663856,-4.5334998977075713e-08,0.0022110607977530172,-1.6923098566934414e-07,-0.0007346380212562842
71,0.061585,33.1915,462.794,0.000467456,123.938,-0.00646474,-0.0241259,-0.000534422,0.00224411,-0.000754703,0.00160953,-8.34205e-08,-3.11443e-07,7.55258e-05,-0.0005342792219986681,0.0016108259886280507,-8.342049651055561e-08,0.0022466298994707756,-3.1144295153939794e-07,-0.0007544182833209012
72,0.062585,33.2495,463.817,-0.000294152,124.185,-0.00943738,-0.0352191,-0.000547938,0.00227957,-0.000774572,0.00164041,-1.22977e-07,-4.59178e-07,0.000111465,-0.0005477879093888083,0.0016417562084947157,-1.229769924782076e-07,0.002282170195092581,-4.591778945961522e-07,-0.0007742720965456806
73,0.063585,33.3077,464.831,-1.88683e-05,124.428,-0.0123793,-0.0461975,-0.00056146,0.00231504,-0.000794448,0.00167128,-1.62881e-07,-6.08241e-07,0.000147452,-0.0005613024108289677,0.0016726773667745665,-1.6288098669825501e-07,0.0023177217741729983,-6.082408150476226e-07,-0.0007941325097400309
74,0.064585,33.365,465.835,-3.36457e-05,124.67,-0.0152962,-0.0570823,-0.000574989,0.0023505,-0.000814335,0.00170216,-2.03195e-07,-7.58868e-07,0.000183488,-0.0005748237255034372,0.0017036094966411675,-2.0319497939791376e-07,0.0023532645907575755,-7.588677121139753e-07,-0.0008140035192387707
75,0.065585,33.4219,466.83,-2.93549e-05,124.909,-0.0181873,-0.0678702,-0.000588526,0.00238595,-0.000834232,0.00173304,-2.43901e-07,-9.10991e-07,0.000219573,-0.0005883528525425508,0.0017345425817067994,-2.4390097030924096e-07,0.0023887986438246855,-9.109905850790412e-07,-0.0008338841252278906
76,0.066585,33.4782,467.815,-2.89645e-05,125.147,-0.0210529,-0.0785632,-0.000602069,0.00242141,-0.000854138,0.00176393,-2.84998e-07,-1.06461e-06,0.000255704,-0.0006018877928278821,0.0017654866396557,-2.8499795934333605e-07,0.0024243439808395717,-1.0646094332766864e-06,-0.0008537733279726512
77,0.067585,33.534,468.791,-2.82781e-05,125.381,-0.0238936,-0.0891627,-0.000615619,0.00245686,-0.000874055,0.00179482,-3.26483e-07,-1.2197e-06,0.000291882,-0.0006154295455026437,0.0017964316534813118,-3.264829466775865e-07,0.00245988055371571,-1.219699256149731e-06,-0.0008736731251964835
78,0.068585,33.5892,469.759,-2.76671e-05,125.614,-0.0267096,-0.0996699,-0.000629176,0.00249231,-0.00089398,0.00182571,-3.68354e-07,-1.37627e-06,0.000328105,-0.0006289781102851721,0.0018273776232131667,-3.683539321341911e-07,0.0024954183863856727,-1.376269052943968e-06,-0.0008935805189314028
79,0.069585,33.6439,470.718,-2.70723e-05,125.845,-0.0295013,-0.110086,-0.000642739,0.00252776,-0.000913915,0.0018566,-4.10608e-07,-1.5343e-06,0.000364373,-0.000642532487535874,0.0018583245488805744,-4.1060791566849275e-07,0.0025309574788943134,-1.5342988229916088e-06,-0.0009134975068805229
80,0.070585,33.6981,471.668,-2.6499e-05,126.073,-0.0322692,-0.120413,-0.000656308,0.00256321,-0.000933859,0.0018875,-4.53243e-07,-1.69377e-06,0.000400684,-0.0006560926770131648,0.0018892824494063376,-4.532428973247349e-07,0.002566497831285819,-1.6937685656248647e-06,-0.0009334230893875972
81,0.071585,33.7518,472.61,-2.59457e-05,126.3,-0.0350134,-0.130652,-0.000669884,0.00259866,-0.000953812,0.0019184,-4.96256e-07,-1.8547e-06,0.000437037,-0.0006696596778059671,0.001920241306546,-4.962558768362157e-07,0.002602039443605486,-1.8546982800682343e-06,-0.0009533572659227163
82,0.072585,33.8051,473.544,-2.54119e-05,126.524,-0.0377345,-0.140804,-0.000683466,0.0026341,-0.000973773,0.00194931,-5.39644e-07,-2.01705e-06,0.000473433,-0.0006832324903150999,0.0019512111398409804,-5.396438543803228e-07,0.0026375722895215503,-2.0170479657632967e-06,-0.0009732990369288874
83,0.073585,33.8578,474.469,-2.48971e-05,126.746,-0.0404327,-0.150871,-0.000697054,0.00266954,-0.000993743,0.00198021,-5.83406e-07,-2.18083e-06,0.00050987,-0.0006968111142986455,0.001982171910606567,-5.834058298681555e-07,0.0026731063947440514,-2.1808276220447453e-06,-0.0009932494009420312
84,0.074585,33.9101,475.387,-2.44008e-05,126.967,-0.0431084,-0.160853,-0.000710648,0.00270498,-0.00101372,0.00201112,-6.27539e-07,-2.34602e-06,0.000546347,-0.0007103955495146863,0.0020131436582062623,-6.275388031440343e-07,0.0027086417593176204,-2.3460172481337693e-06,-0.0010132063594580076
85,0.075585,33.9619,476.297,-2.39225e-05,127.185,-0.0457618,-0.170753,-0.000724248,0.00274042,-0.00103371,0.00204203,-6.7204e-07,-2.51261e-06,0.000582863,-0.0007239857957214157,0.002044116363157489,-6.720397741633022e-07,0.0027441783832868882,-2.5126068433634074e-06,-0.0010331759058666012
86,0.076585,34.0133,477.199,-2.34616e-05,127.402,-0.0483934,-0.18057,-0.000737854,0.00277585,-0.0010537,0.00207294,-7.16907e-07,-2.6806e-06,0.000619419,-0.0007375818526764721,0.0020750900254897786,-7.169067429702025e-07,0.0027797062388992266,-2.680596407178548e-06,-0.001053145053087956
87,0.077585,34.0642,478.093,-2.30178e-05,127.617,-0.0510034,-0.190307,-0.000751465,0.00281129,-0.0010737,0.00210386,-7.62138e-07,-2.84998e-06,0.000656012,-0.000751182720888921,0.0021060746662933116,-7.621377096089788e-07,0.0028152453814382916,-2.849975938801208e-06,-0.0010731237903989221
88,0.078585,34.1147,478.98,-2.25906e-05,127.83,-0.0535922,-0.199964,-0.000765082,0.00284672,-0.00109371,0.00213478,-8.0773e-07,-3.02073e-06,0.000692643,-0.000764789399392507,0.0021370602651569204,-8.077296738129291e-07,0.0028507757549989243,-3.0207254375635983e-06,-0.0010931121172079727
89,0.079585,34.1648,479.86,-2.21796e-05,128.041,-0.05616,-0.209543,-0.000778704,0.00288215,-0.00111373,0.0021657,-8.5368e-07,-3.19285e-06,0.000729311,-0.0007784008887232741,0.0021680468221101368,-8.536796356484189e-07,0.002886307387423237,-3.1928449029106076e-06,-0.001113110032923581
90,0.080585,34.2144,480.733,-2.17844e-05,128.251,-0.0587072,-0.219045,-0.000792331,0.00291758,-0.00113376,0.00219662,-8.99988e-07,-3.36633e-06,0.000766015,-0.0007920171886794947,0.0021990343371822707,-8.999875950044256e-07,0.0029218402787554165,-3.36632433395323e-06,-0.001133117536953776
91,0.081585,34.2637,481.599,-2.14045e-05,128.459,-0.061234,-0.22847,-0.000805964,0.002953,-0.00115379,0.00222754,-9.46649e-07,-3.54116e-06,0.000802754,-0.0008056392982538352,0.002230022810403298,-9.466485518805356e-07,0.0029573643994664778,-3.5411537301355267e-06,-0.001153124640237646
92,0.082585,34.3125,482.457,-2.10396e-05,128.665,-0.0637407,-0.237821,-0.000819602,0.00298843,-0.00117383,0.00225847,-9.93662e-07,-3.71733e-06,0.000839529,-0.0008192662180229737,0.0022610222644130484,-9.936615062988707e-07,0.0029928998083932346,-3.7173230907905364e-06,-0.0011731413310519523
93,0.083585,34.3609,483.309,-2.06894e-05,128.87,-0.0662277,-0.247097,-0.000833245,0.00302385,-0.00119387,0.00228939,-1.04102e-06,-3.89483e-06,0.000876337,-0.0008328979477848497,0.002292012654330433,-1.0410194581922383e-06,0.00302842644607737,-3.8948224151402755e-06,-0.0011931576207357963
94,0.084585,34.4089,484.155,-2.03535e-05,129.072,-0.0686951,-0.256301,-0.000846894,0.00305927,-0.00121393,0.00232032,-1.08873e-06,-4.07365e-06,0.00091318,-0.0008465354864911623,0.002323014025715553,-1.088729407294764e-06,0.003063954342137576,-4.0736417027398275e-06,-0.0012131934850335702
95,0.085585,34.4566,484.993,-2.00315e-05,129.274,-0.0711433,-0.265432,-0.000860547,0.00309469,-0.00123399,0.00235125,-1.13679e-06,-4.25379e-06,0.000950055,-0.0008601768356193418,0.0023540163559878646,-1.1367893538727358e-06,0.0030994834966178164,-4.253780952701014e-06,-0.001233228947415843
96,0.086585,34.5039,485.826,-1.97231e-05,129.473,-0.0735725,-0.274493,-0.000874204,0.00313011,-0.00125405,0.00238218,-1.18519e-06,-4.43523e-06,0.000986963,-0.0008738219950080728,0.002385019645177122,-1.1851892977032819e-06,0.003135013909563167,-4.435220164356046e-06,-0.0012532640078908308
97,0.087585,34.5507,486.652,-1.94281e-05,129.671,-0.0759831,-0.283483,-0.000887867,0.00316552,-0.00127413,0.00241311,-1.23393e-06,-4.61797e-06,0.0010239,-0.0008874729627214029,0.0024160238933130795,-1.2339292386753797e-06,0.003170535549312792,-4.617959337149813e-06,-0.0012733186410004427
98,0.088585,34.5973,487.471,-1.9146e-05,129.868,-0.0783751,-0.292405,-0.000901534,0.00320094,-0.0012942,0.00244405,-1.283e-06,-4.802e-06,0.00106087,-0.0009011277403182527,0.0024470391248954115,-1.2829991770102467e-06,0.0032060684789663174,-4.801988470415353e-06,-0.0012933628843506684
99,0.089585,34.6434,488.285,-1.88767e-05,130.063,-0.080749,-0.301259,-0.000915206,0.00323635,-0.00131429,0.00247498,-1.33241e-06,-4.98731e-06,0.00109788,-0.0009147873267225659,0.0024780452913235607,-1.3324091123756432e-06,0.0032415926348026147,-4.987297563374682e-06,-0.0013134266991485788
100,0.090585,34.6892,489.092,-1.86199e-05,130.257,-0.0831049,-0.310045,-0.000928883,0.00327176,-0.00133438,0.00250592,-1.38216e-06,-5.17389e-06,0.00113491,-0.0009284517217321708,0.002509062441877541,-1.3821590447715693e-06,0.003277118048571559,-5.173876615471862e-06,-0.0013334901108685848
101,0.091585,34.7347,489.893,-1.83752e-05,130.449,-0.085443,-0.318765,-0.000942564,0.00330717,-0.00135448,0.00253686,-1.43224e-06,-5.36173e-06,0.00117197,-0.0009421199260866153,0.0025400805521171854,-1.4322389743082198e-06,0.003312644720317781,-5.361715625928909e-06,-0.0013535631059831132
102,0.092585,34.7798,490.689,-1.81424e-05,130.64,-0.0877637,-0.32742,-0.000956249,0.00334258,-0.00137458,0.0025678,-1.48265e-06,-5.55083e-06,0.00120906,-0.000955791939624473,0.002571099622072026,-1.4826489008745725e-06,0.003348172650085468,-5.550814594190712e-06,-0.0013736356976343789
103,0.093585,34.8246,491.478,-1.79213e-05,130.829,-0.0900672,-0.33601,-0.000969939,0.00337798,-0.00139469,0.00259874,-1.53338e-06,-5.74117e-06,0.00124619,-0.0009694687612147312,0.002602119651771817,-1.5333788243587776e-06,0.0033836918040826003,-5.741153519478459e-06,-0.0013937178718935739
104,0.094585,34.869,492.262,-1.77117e-05,131.017,-0.0923537,-0.344537,-0.000983633,0.00341338,-0.00141481,0.00262968,-1.58444e-06,-5.93275e-06,0.00128334,-0.0009831493916380163,0.00263314064124609,-1.5844387447616626e-06,0.0034192122154801385,-5.93273240123704e-06,-0.0014138096281662849
105,0.095585,34.9131,493.041,-1.75132e-05,131.204,-0.0946233,-0.353001,-0.000997331,0.00344879,-0.00143493,0.00266062,-1.63583e-06,-6.12556e-06,0.00132051,-0.0009968338307326796,0.002664162590524599,-1.6358286620832274e-06,0.003454743918869685,-6.125541238799492e-06,-0.0014339009801969116
106,0.096585,34.9569,493.814,-1.73257e-05,131.389,-0.0968764,-0.361403,-0.00101103,0.00348419,-0.00145505,0.00269156,-1.68753e-06,-6.3196e-06,0.00135772,-0.0010105190813687326,0.0026951854996370983,-1.6875285760997727e-06,0.0034902668455565333,-6.319580031388661e-06,-0.0014539919279935587
107,0.097585,35.0004,494.581,-1.71489e-05,131.573,-0.0991132,-0.369744,-0.00102474,0.00351959,-0.00147519,0.0027225,-1.73955e-06,-6.51485e-06,0.00139495,-0.0010242151332654492,0.0027262093686131195,-1.7395484870341704e-06,0.0035257910297772366,-6.514828778447779e-06,-0.00147410244208257
108,0.098585,35.0436,495.343,-1.69827e-05,131.755,-0.101334,-0.378025,-0.00103845,0.00355498,-0.00149532,0.00275345,-1.79189e-06,-6.7113e-06,0.00143221,-0.0010379109973907008,0.0027572442250549667,-1.7918883945533537e-06,0.0035613064359631963,-6.711277479309885e-06,-0.0014942025660920066
109,0.099585,35.0864,496.099,-1.68267e-05,131.937,-0.103539,-0.386246,-0.00105216,0.00359038,-0.00151547,0.00278439,-1.84455e-06,-6.90895e-06,0.0014695,-0.0010516066737468188,0.002788270014157934,-1.8445482987683448e-06,0.0035968331350300087,-6.908926133308846e-06,-0.0015143222552036484
110,0.1006,35.7126,507.905,-0.0440286,134.777,-0.1383,-0.51583,-0.00128055,0.00417774,-0.00185062,0.0032978,-2.82622e-06,-1.05969e-05,0.00209197,-0.0012797304457128345,0.0033032437248803337,-2.826216006224236e-06,0.004186478921162751,-1.0596843853072357e-05,-0.0018489086586513936
111,0.1016,36.4536,524.894,-0.351913,138.963,-0.188287,-0.702093,-0.00166318,0.00515566,-0.00241253,0.00415449,-4.66707e-06,-1.75204e-05,0.00314207,-0.0016617976825975544,0.004163131856938396,-4.667059109286775e-06,0.005168973284774392,-1.7520246518687443e-05,-0.0024096221883638247
112,0.1026,37.5994,540.3,0.0630408,142.47,-0.228009,-0.850024,-0.00204674,0.00613321,-0.002974,0.00500795,-6.60871e-06,-2.48296e-05,0.00420181,-0.002044646855970278,0.005020510740701534,-6.608688162490495e-06,0.0061520566428907575,-2.4829291748074134e-05,-0.002969582042753549
113,0.1036,38.1317,553.269,-0.201282,145.672,-0.264212,-0.984825,-0.00243225,0.00710909,-0.00353903,0.0058633,-8.71028e-06,-3.27443e-05,0.00527071,-0.002429294476644861,0.005880522787782061,-8.710242065612661e-06,0.007134419568131101,-3.274376391126932e-05,-0.0035327750143657743
114,0.1046,39.0503,565.459,0.0939203,148.462,-0.294945,-1.0992,-0.00281777,0.00808448,-0.00410321,0.00671572,-1.09053e-05,-4.10141e-05,0.00634449,-0.002813803812256377,0.006738321013257442,-1.0905240537484318e-05,0.008117247652055237,-4.101325893335339e-05,-0.004094803335881192
115,0.1056,39.4743,576.022,-0.118918,151.067,-0.323404,-1.20509,-0.00320476,0.00905846,-0.00466957,0.00756899,-1.32197e-05,-4.97358e-05,0.00742374,-0.003199630238019724,0.007597707212518623,-1.321961262013005e-05,0.009099612012884561,-4.973456319556924e-05,-0.004658684508120903
116,0.1066,40.2144,586.14,0.0962945,153.391,-0.348285,-1.29763,-0.0035915,0.0100318,-0.005235,0.00841961,-1.56102e-05,-5.87456e-05,0.00850566,-0.003585058277997377,0.008455154603476567,-1.5610078161421015e-05,0.010082287190188222,-5.874387451099139e-05,-0.005221321267297907
117,0.1076,40.5848,595.105,-0.0673769,155.591,-0.371627,-1.38444,-0.00397923,0.0110039,-0.00580181,0.00927049,-1.80942e-05,-6.81086e-05,0.00959104,-0.003971323355232981,0.009313594088127708,-1.809403630093076e-05,0.011064665589226141,-6.810628066200586e-05,-0.005785012002326062
118,0.1086,41.1938,603.77,0.0889037,157.59,-0.392476,-1.46193,-0.00436667,0.0119754,-0.00636774,0.010119,-2.0641e-05,-7.77095e-05,0.0106779,-0.0043571499585562945,0.010170370205994983,-2.064078697605609e-05,0.012047392194002082,-7.770648069505004e-05,-0.006347508908533639
119,0.1096,41.5326,611.592,-0.0322415,159.497,-0.412198,-1.53523,-0.00475475,0.0129456,-0.0069345,0.0109674,-2.32626e-05,-8.75929e-05,0.011767,-0.004743464070561587,0.011027762402419539,-2.3262329427842232e-05,0.013029757042039014,-8.758906385397669e-05,-0.006910511835544697
120,0.1106,42.0434,619.181,0.0794248,161.254,-0.430111,-1.60178,-0.00514255,0.0139151,-0.00750047,0.0118138,-2.59373e-05,-9.76767e-05,0.012857,-0.005129349727130195,0.011883858549297743,-2.5936963631179033e-05,0.014012365634040957,-9.767192978649142e-05,-0.007472411668937751
121,0.1116,42.3598,626.14,-0.00750754,162.939,-0.447145,-1.66506,-0.00553075,0.0148835,-0.00806689,0.0126597,-2.86729e-05,-0.00010799,0.0139483,-0.005515483560139978,0.01274017323247878,-2.867248893634322e-05,0.014994810832107852,-0.0001079841692898098,-0.00803443995846198
122,0.1126,42.7957,632.901,0.0707278,164.509,-0.462827,-1.72329,-0.00591868,0.015851,-0.0086326,0.0135037,-3.1454e-05,-0.000118476,0.01504,-0.005901199118446998,0.013595286745828883,-3.145350532818281e-05,0.015977293510945678,-0.0001184689819958562,-0.008595446097080295
123,0.1136,43.0938,639.181,0.00998578,166.019,-0.477788,-1.77884,-0.00630682,0.0168175,-0.00919849,0.0143471,-3.42855e-05,-0.000129151,0.0161325,-0.006286973754894287,0.014450513609143512,-3.428491225898611e-05,0.016959710241534198,-0.00012914266036867517,-0.009156313310547337
124,0.1146,43.4719,645.284,0.0636993,167.44,-0.491715,-1.83053,-0.00669472,0.0177832,-0.00976375,0.0151889,-3.71564e-05,-0.000139974,0.0172252,-0.00667236028722451,0.015304837586011644,-3.715570970952431e-05,0.017942262582753665,-0.00013996420409667643,-0.009716239346081124
125,0.1156,43.7535,651.016,0.0222537,168.81,-0.505034,-1.87995,-0.0070827,0.0187478,-0.010329,0.0160298,-4.00695e-05,-0.000150957,0.0183183,-0.007057676792498024,0.016158966492105797,-4.0068697228279326e-05,0.018924643415344944,-0.00015094560656536693,-0.010275839070019055
126,0.1166,44.0866,656.584,0.0584038,170.108,-0.517543,-1.92635,-0.00747044,0.0197116,-0.0108936,0.0168693,-4.3017e-05,-0.000162069,0.0194113,-0.007442605617924536,0.01701239011892186,-4.301607478207625e-05,0.0199071563836124,-0.00016205586752904289,-0.010834479612215064
127,0.1176,44.3526,661.86,0.0307285,171.362,-0.529528,-1.97081,-0.00785817,0.0206743,-0.0114581,0.0177077,-4.60003e-05,-0.000173316,0.0205044,-0.007827375298253836,0.017865410843118212,-4.599924200243688e-05,0.020889493775297918,-0.00017330098164969332,-0.011392705974259565
128,0.1186,44.6501,666.986,0.0545911,172.558,-0.540864,-2.01284,-0.00824567,0.0216362,-0.012022,0.0185449,-4.90138e-05,-0.000184676,0.0215973,-0.008211767709486173,0.018717924577531297,-4.901259884337872e-05,0.02187195982065271,-0.00018465894843722186,-0.011950024476640841
129,0.1196,44.9012,671.878,0.0364715,173.714,-0.551745,-2.05318,-0.00863308,0.0225971,-0.0125857,0.019381,-5.2058e-05,-0.000196152,0.0226901,-0.008595921971151887,0.019570030807640304,-5.2056645005849056e-05,0.022854348499896204,-0.00019613276345420427,-0.012506831297096843
130,0.1206,45.1704,676.631,0.0519271,174.823,-0.562095,-2.09154,-0.00902027,0.023557,-0.0131488,0.0202157,-5.51288e-05,-0.000207727,0.0237825,-0.008979709411999659,0.020421421190699895,-5.512728043566284e-05,0.023836657772931202,-0.00020770542624060084,-0.013062732171813307
131,0.1216,45.4073,681.193,0.040273,175.897,-0.572045,-2.12841,-0.00940731,0.024516,-0.0137116,0.0210495,-5.82261e-05,-0.000219402,0.0248746,-0.00936319968744348,0.02127260338022996,-5.8224404893558734e-05,0.02481898807983174,-0.00021937793314130705,-0.013618024192315392
132,0.1226,45.6535,685.628,0.0500954,176.931,-0.581555,-2.16364,-0.00979413,0.0254741,-0.0142739,0.021882,-6.13469e-05,-0.000231165,0.0259663,-0.00974632370974593,0.02212316682045201,-6.13450183174491e-05,0.02580133767173698,-0.0002311382834300213,-0.014172510868773136
133,0.1236,45.877,689.904,0.0427149,177.933,-0.59071,-2.19754,-0.0101808,0.0264312,-0.0148358,0.0227133,-6.44907e-05,-0.000243015,0.0270575,-0.01012915108005763,0.022973211080974165,-6.448862051955384e-05,0.02678360211969122,-0.00024298547424661532,-0.014726291735610908
134,0.1246,46.1042,694.064,0.048835,178.902,-0.599492,-2.23006,-0.0105672,0.0273873,-0.0153971,0.0235435,-6.76554e-05,-0.000254943,0.0281482,-0.010511563289283488,0.02382283607134794,-6.765311142509223e-05,0.02776577937669611,-0.00025491050479486965,-0.015279170688065946
135,0.1256,46.3152,698.09,0.0442181,179.842,-0.607959,-2.2614,-0.0109534,0.0283426,-0.0159581,0.0243726,-7.08402e-05,-0.000266946,0.0292384,-0.010893629941721827,0.024672039573400806,-7.08376908923336e-05,0.028748073143649133,-0.0002669103730867928,-0.015831444146120588
136,0.1266,46.5264,702.009,0.047948,180.754,-0.616105,-2.29155,-0.0113393,0.0292968,-0.0165185,0.0252005,-7.40435e-05,-0.000279019,0.030328,-0.01127525245112826,0.02552071681643353,-7.404075884775985e-05,0.029730173040386942,-0.0002789800778189022,-0.016382817695522744
137,0.1276,46.7258,705.813,0.0450809,181.639,-0.62397,-2.32065,-0.011725,0.0302502,-0.0170784,0.0260273,-7.72645e-05,-0.000291157,0.031417,-0.01165653005214573,0.026368967963799728,-7.726151517539748e-05,0.030712385933849617,-0.00029111461791409,-0.016933390808568927
138,0.1286,46.9234,709.521,0.0472927,182.499,-0.631555,-2.34871,-0.0121105,0.0312026,-0.0176379,0.026853,-8.05019e-05,-0.000303357,0.0325054,-0.012037463030261542,0.027216790796134704,-8.049865980896964e-05,0.031694504020608916,-0.0003033109919177157,-0.017483262735395577
139,0.1296,47.1121,713.128,0.0455113,183.337,-0.638888,-2.37583,-0.0124957,0.0321541,-0.0181969,0.0276775,-8.37549e-05,-0.000315615,0.0335931,-0.012417952912446295,0.028064080287239834,-8.375139265626164e-05,0.032676628512814165,-0.0003155651988253627,-0.018032336111220015
140,0.1306,47.2979,716.646,0.046773,184.151,-0.645974,-2.40203,-0.0128807,0.0331046,-0.0187553,0.0285009,-8.70224e-05,-0.000327928,0.0346801,-0.012798098817792591,0.02891093685395041,-8.701861366078312e-05,0.03365865428202808,-0.0003278742374903665,-0.018580513789283937
141,0.1316,47.4766,720.076,0.0456514,184.945,-0.652833,-2.42739,-0.0132654,0.0340542,-0.0193133,0.0293232,-9.03038e-05,-0.000340292,0.0357664,-0.013177802348520395,0.029757358275798618,-9.029972273455478e-05,0.03464068273344867,-0.00034023410724437486,-0.019127993101655916
142,0.1326,47.6521,723.426,0.0463262,185.719,-0.659472,-2.45192,-0.0136499,0.0350028,-0.0198708,0.0301444,-9.3598e-05,-0.000352704,0.0368519,-0.01355716254684558,0.030603342331926076,-9.359361984384584e-05,0.03562260853886756,-0.0003526418072562487,-0.019674676843249306
143,0.1336,47.8218,726.697,0.0455974,186.474,-0.665905,-2.47569,-0.0140341,0.0359505,-0.0204277,0.0309645,-9.69044e-05,-0.000365161,0.0379367,-0.013936081090081931,0.03144888680109181,-9.689970492032796e-05,0.03660453329653457,-0.0003650943368365134,-0.020220468026054594
144,0.1346,47.988,729.894,0.0459135,187.211,-0.67214,-2.49872,-0.014418,0.0368973,-0.0209841,0.0317835,-0.000100222,-0.000377661,0.0390207,-0.014314558375188247,0.03229398946168294,-0.0001002169779431572,0.037586455237154315,-0.0003775896950611868,-0.020765465725224974
145,0.1356,48.1494,733.021,0.0454133,187.93,-0.678188,-2.52105,-0.0148017,0.0378431,-0.0215401,0.0326014,-0.000103551,-0.000390201,0.0401039,-0.014692693329309447,0.03313864809172351,-0.0001035456387802336,0.03856826873293073,-0.00039012488149059443,-0.0213097687960061
146,0.1366,48.3074,736.08,0.0455122,188.633,-0.684056,-2.54272,-0.015185,0.0387881,-0.0220955,0.0334182,-0.00010689,-0.000402779,0.0411863,-0.015070289249075386,0.0339828604688841,-0.00010688428746752354,0.039550179626707926,-0.00040269789542801693,-0.02185318243048162
147,0.1376,48.4612,739.074,0.0451418,189.321,-0.689755,-2.56375,-0.0155681,0.039732,-0.0226503,0.0342339,-0.000110238,-0.000415392,0.0422679,-0.015447543553588017,0.034826624370491555,-0.00011023192401493631,0.04053187427916227,-0.0004153057366879098,-0.02239570777442279
148,0.1386,48.6116,742.008,0.0451098,189.993,-0.695289,-2.58417,-0.0159509,0.0406751,-0.0232047,0.0350486,-0.000113595,-0.000428038,0.0433486,-0.015824358107008774,0.035670041140536846,-0.00011358854833232179,0.04151366277939239,-0.0004279464048044801,-0.022937541383878046
149,0.1396,48.7584,744.882,0.044811,190.652,-0.700666,-2.604,-0.0163334,0.0416172,-0.0237585,0.0358621,-0.00011696,-0.000440714,0.0444286,-0.016200733303687653,0.03651290150597597,-0.00011695316044590953,0.042495335145257496,-0.0004406168998500881,-0.02347848877130254
150,0.1406,48.902,747.7,0.0447004,191.296,-0.705893,-2.62328,-0.0167157,0.0425584,-0.0243118,0.0366746,-0.000120334,-0.00045342,0.0455076,-0.016576767879756482,0.03735541046136359,-0.00012032676015460986,0.04347699365072155,-0.0004533172206864222,-0.024018648674447807
151,0.1416,49.0423,750.464,0.0444395,191.927,-0.710977,-2.64202,-0.0170976,0.0434987,-0.0248646,0.037486,-0.000123714,-0.000466153,0.0465858,-0.016952265506267716,0.03819746221561027,-0.00012370634773861688,0.04445863651491622,-0.0004660443675706949,-0.024558022068918883
152,0.1426,49.1796,753.176,0.0442817,192.546,-0.715921,-2.66024,-0.0174793,0.044438,-0.0254168,0.0382964,-0.000127102,-0.000478912,0.0476631,-0.017327423223118754,0.03903915844823791,-0.0001270939228830148,0.04544015741131857,-0.00047879733995292995,-0.025096512438258167
153,0.1436,49.314,755.838,0.0440398,193.152,-0.720732,-2.67797,-0.0178606,0.0453764,-0.0259685,0.0391057,-0.000130496,-0.000491694,0.0487396,-0.01770204485049176,0.03988039319889691,-0.00013048748576738323,0.04642165890350802,-0.000491573138314938,-0.02563421835253088
154,0.1446,49.4456,758.452,0.0438535,193.747,-0.725415,-2.69522,-0.0182417,0.0463139,-0.0265197,0.0399139,-0.000133896,-0.000504498,0.0498151,-0.018076327277152804,0.04072116424249406,-0.0001338870363306599,0.04740313920573591,-0.000504370762281936,-0.026171140781959368
155,0.1456,49.5744,761.02,0.0436204,194.331,-0.729974,-2.71201,-0.0186225,0.0472505,-0.0270704,0.0407211,-0.000137302,-0.000517322,0.0508898,-0.018450172627053507,0.041561573509818484,-0.00013729257451178256,0.048384596530635315,-0.0005171882120456051,-0.026707280695056124
156,0.1466,49.7006,763.543,0.0434166,194.903,-0.734413,-2.72835,-0.0190029,0.0481861,-0.0276205,0.0415272,-0.000140712,-0.000530165,0.0519635,-0.01882348317321869,0.04240151478707399,-0.00014070210053085397,0.049365924152627194,-0.0005300244873691629,-0.027242541782885543
157,0.1476,49.8243,766.024,0.043187,195.466,-0.738738,-2.74426,-0.0193831,0.0491209,-0.0281701,0.0423323,-0.000144128,-0.000543026,0.0530363,-0.01919645557836913,0.04324109017235034,-0.00014411761405874746,0.05034733005617764,-0.0005428785880656761,-0.027777022393196238
158,0.1486,49.9456,768.463,0.0429725,196.018,-0.74295,-2.75976,-0.019763,0.0500547,-0.0287191,0.0431364,-0.000147548,-0.000555903,0.0541083,-0.019568992077106495,0.044080297691123205,-0.00014753711532922154,0.051328602477773266,-0.0005557485145549768,-0.028310626320221965
159,0.1496,50.0645,770.862,0.0427437,196.56,-0.747055,-2.77486,-0.0201425,0.0509876,-0.0292676,0.0439394,-0.000150972,-0.000568794,0.0551793,-0.019940995052583954,0.04491903087647442,-0.00015096060430108693,0.05230984456022947,-0.000568632267358371,-0.028843451800938835
160,0.1506,50.1812,773.223,0.0425225,197.093,-0.751056,-2.78957,-0.0205218,0.0519195,-0.0298156,0.0447414,-0.000154399,-0.000581699,0.0562493,-0.02031266094226858,0.045757392077142356,-0.00015438708108783672,0.053290949179069846,-0.0005815298459371787,-0.02937549979488685
161,0.1516,50.2957,775.546,0.0422935,197.617,-0.754956,-2.8039,-0.0209008,0.0528506,-0.0303631,0.0455423,-0.00015783,-0.000594616,0.0573185,-0.02068389209102517,0.04659527465774871,-0.00015781754550081573,0.05427212509741364,-0.0005944392509406038,-0.02990677125991459
162,0.1526,50.4081,777.833,0.0420682,198.132,-0.758757,-2.81786,-0.0212794,0.0537808,-0.03091,0.0463423,-0.000161265,-0.000607544,0.0583867,-0.021054590991749667,0.04743288587729011,-0.00016125199749883468,0.05525326528573471,-0.0006073594825134476,-0.030437170195903307
163,0.1536,50.5184,780.086,0.0418386,198.639,-0.762464,-2.83148,-0.0216578,0.05471,-0.0314563,0.0471412,-0.000164702,-0.000620482,0.059454,-0.021424953857444917,0.04827001435626421,-0.00016468843737016403,0.05623426232047679,-0.0006202895408516929,-0.03096669771621363
164,0.1546,50.6268,782.305,0.0416107,199.138,-0.766078,-2.84475,-0.0220358,0.0556383,-0.0320022,0.0479391,-0.000168141,-0.000633429,0.0605203,-0.021794785322336363,0.049106762777109125,-0.00016812686509426467,0.05721521982717137,-0.0006332284262029475,-0.03149554863293924
165,0.1556,50.7332,784.491,0.0413805,199.628,-0.769603,-2.85768,-0.0224136,0.0565658,-0.0325475,0.0487359,-0.000171583,-0.000646384,0.0615857,-0.022164281450228085,0.04994302416798346,-0.0001715682804789287,0.05819624182218375,-0.0006461751388662229,-0.032023530143027945
166,0.1566,50.8378,786.645,0.0411512,200.111,-0.77304,-2.87029,-0.022791,0.0574923,-0.0330923,0.0495318,-0.000175026,-0.000659345,0.0626502,-0.022533247022226033,0.050779006455940356,-0.00017501068384329077,0.059177114959547694,-0.0006591276798511014,-0.03255074009877412
167,0.1576,50.9406,788.769,0.0409207,200.586,-0.776393,-2.88259,-0.0231681,0.0584179,-0.0336365,0.0503267,-0.000178471,-0.000672313,0.0637137,-0.022901780243467784,0.05161460275192131,-0.00017845507499847368,0.060157943154417026,-0.0006720870482546104,-0.033077082755185616
168,0.1586,51.0417,790.862,0.0406906,201.054,-0.779663,-2.89457,-0.0235449,0.0593426,-0.0341802,0.0511205,-0.000181918,-0.000685285,0.0647762,-0.023269881498040546,0.05244970583214714,-0.00018190145392404933,0.06113872459886638,-0.0006850502458619623,-0.033602655855297314
169,0.1596,51.1411,792.927,0.04046,201.515,-0.782853,-2.90626,-0.0239214,0.0602664,-0.0347234,0.0519134,-0.000185366,-0.00069826,0.0658378,-0.023637551169497617,0.05328452412387641,-0.00018534882078447001,0.06211945748342318,-0.0006980162732177497,-0.03412746034283365
170,0.1606,51.2388,794.964,0.0402297,201.97,-0.785965,-2.91766,-0.0242976,0.0611893,-0.035266,0.0527052,-0.000188815,-0.000711239,0.0668984,-0.024004789640860058,0.05411884507415232,-0.00018879717556974374,0.06310013999707298,-0.0007109861294964936,-0.034651400624998385
171,0.1616,51.3349,796.973,0.0399992,202.417,-0.789001,-2.92877,-0.0246735,0.0621113,-0.0358081,0.0534961,-0.000192264,-0.00072422,0.0679581,-0.024371597294616354,0.054952877443346315,-0.00019224551846164228,0.06408077032726434,-0.0007239578159925486,-0.03517457428168769
172,0.1626,51.4295,798.956,0.0397691,202.858,-0.791962,-2.93961,-0.0250491,0.0630324,-0.0363497,0.054286,-0.000195714,-0.000737202,0.0690168,-0.024737974512723748,0.05578651392262124,-0.00019569484926451608,0.06506134665991392,-0.0007369303333674138,-0.035696982251408715
173,0.1636,51.5226,800.913,0.0395391,203.293,-0.79485,-2.95018,-0.0254243,0.0639526,-0.0368907,0.0550749,-0.000199165,-0.000750185,0.0700746,-0.02510382418699575,0.0566197525312091,-0.00019914516796804005,0.06604186717941185,-0.0007499036815842297,-0.03621852909286949
174,0.1646,51.6142,802.845,0.0393094,203.722,-0.797668,-2.96048,-0.0257993,0.0648719,-0.0374312,0.0558628,-0.000202615,-0.000763167,0.0711313,-0.025469341714105864,0.0574525912879722,-0.00020259447496717709,0.06702233006862679,-0.0007628758621320841,-0.03673931222357529
175,0.1656,51.7044,804.752,0.03908,204.145,-0.800417,-2.97052,-0.0261739,0.0657904,-0.0379712,0.0566497,-0.000206065,-0.000776149,0.0721872,-0.02583433253165157,0.05828502821140957,-0.0002060437700661666,0.06800284030918946,-0.0007758478742760921,-0.03725933257684266
176,0.1666,51.7932,806.636,0.038851,204.562,-0.803098,-2.98031,-0.0265482,0.0667079,-0.0385106,0.0574356,-0.000209515,-0.000789128,0.073242,-0.02619889450895463,0.05911706131966632,-0.00020949305326511958,0.06898318257841773,-0.0007888167203849994,-0.037778494862194756
177,0.1676,51.8806,808.496,0.0386224,204.973,-0.805713,-2.98986,-0.0269223,0.0676245,-0.0390495,0.0582206,-0.000212965,-0.000802105,0.0742959,-0.026563125368888607,0.05994879462541336,-0.00021294232456414708,0.06996346175688428,-0.0008017833997759904,-0.038296896335490604
178,0.1686,51.9668,810.334,0.0383943,205.379,-0.808263,-2.99916,-0.027296,0.0685403,-0.0395879,0.0590046,-0.000216414,-0.000815079,0.0753488,-0.02692683076635205,0.06078012031748936,-0.00021639058417954882,0.07094378311579619,-0.0008147469133436003,-0.03881453792488343
179,0.1696,52.0516,812.149,0.0381666,205.78,-0.81075,-3.00823,-0.0276693,0.0694551,-0.0401257,0.0597876,-0.000219861,-0.000828049,0.0764008,-0.02729001118858365,0.061611036412897224,-0.0002198368323415023,0.07192393073975989,-0.0008277062620346554,-0.0393313244900243
180,0.1706,52.1352,813.944,0.0379396,206.175,-0.813175,-3.01707,-0.0280424,0.0703691,-0.0406631,0.0605697,-0.000223308,-0.000841014,0.0774517,-0.02765286159145741,0.062441647172474246,-0.0002232830686244025,0.07290411708938072,-0.0008406604468472745,-0.039847449141128255
181,0.1716,52.2176,815.717,0.037713,206.565,-0.815539,-3.02569,-0.0284152,0.0712822,-0.0411998,0.0613508,-0.000226754,-0.000853974,0.0785018,-0.028015285044726945,0.06327184453445067,-0.00022672829325476318,0.07388423324262705,-0.0008536094679779671,-0.04036262475543195
182,0.1726,52.2988,817.469,0.0374871,206.951,-0.817845,-3.03408,-0.0287876,0.0721944,-0.0417361,0.0621309,-0.000230198,-0.000866928,0.0795508,-0.028377184762666374,0.06410162651475271,-0.00023017150647330897,0.07486427737035894,-0.0008665523264899111,-0.040877140300100256
183,0.1736,52.3789,819.202,0.0372617,207.331,-0.820092,-3.04225,-0.0291597,0.0731057,-0.0422718,0.0629101,-0.00023364,-0.000879876,0.0805989,-0.028738658355883406,0.06493109762210847,-0.00023361270830069003,0.0758442476419614,-0.0008794890226180296,-0.041390804818716154
184,0.1746,52.4578,820.916,0.037037,207.707,-0.822282,-3.05022,-0.0295316,0.0740162,-0.042807,0.0636883,-0.000237081,-0.000892816,0.081646,-0.029099803289777904,0.06576014954454168,-0.0002370528985204956,0.07682424990776826,-0.000892417558382208,-0.04190371519291791
185,0.1756,52.5357,822.61,0.0368129,208.078,-0.824416,-3.05797,-0.0299031,0.0749257,-0.0433417,0.0644656,-0.00024052,-0.000905749,0.0826921,-0.029460425723091266,0.06658888695585108,-0.00024049107738366438,0.07780406706737142,-0.00090533893318967,-0.042415872338988914
186,0.1766,52.6124,824.285,0.0365895,208.445,-0.826495,-3.06552,-0.0302742,0.0758344,-0.0438758,0.0652419,-0.000243957,-0.000918674,0.0837372,-0.02982052613834074,0.06741720137743945,-0.00024392724491073547,0.07878391274857632,-0.0009182521482321571,-0.042927181464315955
187,0.1776,52.6881,825.943,0.0363668,208.807,-0.828521,-3.07287,-0.0306451,0.0767422,-0.0444095,0.0660173,-0.000247392,-0.000931591,0.0847814,-0.030180298981197895,0.06824519764805603,-0.0002473614011225811,0.07976367743247414,-0.000931157203821642,-0.04343783494756548
188,0.1786,52.7628,827.583,0.0361448,209.165,-0.830494,-3.08002,-0.0310157,0.0776491,-0.0449426,0.0667917,-0.000250825,-0.000944498,0.0858246,-0.030539647570988926,0.06907276712265786,-0.0002507935460395183,0.08074335928112553,-0.0009440521021581993,-0.0439476423365216
189,0.1796,52.8365,829.205,0.0359235,209.519,-0.832415,-3.08698,-0.0313859,0.0785552,-0.0454751,0.0675652,-0.000254255,-0.000957395,0.0868669,-0.03089847537033441,0.06990001480482277,-0.0002542226799366887,0.08172306462744783,-0.0009569368436308512,-0.044456604693723145
190,0.1806,52.9092,830.81,0.0357029,209.868,-0.834285,-3.09375,-0.0317559,0.0794604,-0.0460072,0.0683378,-0.000257682,-0.000970282,0.0879081,-0.031256976607628606,0.0707269389559273,-0.0002576488028449564,0.0827026836542295,-0.0009698114286281756,-0.04496491408665848
191,0.1816,52.981,832.399,0.035483,210.214,-0.836105,-3.10034,-0.0321255,0.0803647,-0.0465387,0.0691094,-0.000261107,-0.000983158,0.0889484,-0.031614957870061966,0.07155343068152797,-0.0002610729145340329,0.08368221451918689,-0.0009826748585213263,-0.04547238036371204
192,0.1826,53.0518,833.971,0.0352639,210.556,-0.837876,-3.10674,-0.0324948,0.0812681,-0.0470697,0.0698801,-0.000264529,-0.000996023,0.0899877,-0.031972516438867116,0.07237959523217019,-0.0002644940152889408,0.08466165537860704,-0.000995527133736851,-0.045979099983773475
193,0.1836,53.1217,835.528,0.0350455,210.893,-0.839599,-3.11296,-0.0328638,0.0821707,-0.0476002,0.0706499,-0.000267948,-0.00100888,0.0910261,-0.03232965268461152,0.07320543086793418,-0.0002679121051406552,0.08564111295145849,-0.0010083712516758547,-0.04648507384979783
194,0.1846,53.1907,837.069,0.0348279,211.227,-0.841274,-3.119,-0.0332325,0.0830724,-0.0481301,0.0714187,-0.000271364,-0.00102172,0.0920635,-0.03268636697734584,0.07403082844535969,-0.0002713271841200404,0.08662047702294129,-0.0010211982218396587,-0.046990207562167874
195,0.1856,53.2588,838.594,0.034611,211.558,-0.842903,-3.12487,-0.0336008,0.0839733,-0.0486596,0.0721866,-0.000274777,-0.00103455,0.0930999,-0.03304256299086583,0.07485589346169275,-0.0002747392522576275,0.08759985450503782,-0.0010340150376464408,-0.047494692673043626
196,0.1866,53.3261,840.105,0.0343949,211.885,-0.844485,-3.13057,-0.0339689,0.0848733,-0.0491885,0.0729536,-0.000278186,-0.00104736,0.0941353,-0.03339843452125546,0.07568062417577504,-0.00027814730986241987,0.08857913498420666,-0.0010468117099509122,-0.04799833952893717
197,0.1876,53.3926,841.601,0.0341795,212.208,-0.846023,-3.1361,-0.0343366,0.0857724,-0.0497169,0.0737197,-0.000281592,-0.00106016,0.0951698,-0.033753788581034394,0.07650501884601413,-0.0002815523566939149,0.08955831660960789,-0.0010595982289270944,-0.04850124432718128
198,0.1886,53.4582,843.082,0.033965,212.528,-0.847516,-3.14146,-0.0347041,0.0866707,-0.0502448,0.0744848,-0.000284994,-0.00107295,0.0962033,-0.034108818822928155,0.07732896799748779,-0.0002849533930676662,0.09053750658274895,-0.00107237459496079,-0.04900340796254754
199,0.1896,53.523,844.55,0.0337512,212.844,-0.848965,-3.14667,-0.0350712,0.0875681,-0.0507721,0.0752491,-0.000288393,-0.00108572,0.0972359,-0.03446333240058974,0.07815268527118624,-0.00028835141873606585,0.09151659419205949,-0.0010851308192885156,-0.04950473627870233
200,0.1906,53.5871,846.004,0.0335382,213.157,-0.850372,-3.15171,-0.035438,0.0884646,-0.051299,0.0760124,-0.000291788,-0.00109848,0.0982674,-0.03481742630547302,0.07897595337615448,-0.00029174543402166186,0.09249557758248894,-0.0010978768916991566,-0.0500054203163639
201,0.1916,53.6503,847.444,0.0333259,213.467,-0.851736,-3.15659,-0.0358045,0.0893603,-0.0518253,0.0767749,-0.000295179,-0.00111123,0.099298,-0.035171100903903074,0.07979898628202275,-0.00029513543896519945,0.09347456424505474,-0.001110612812577072,-0.05050527091642809
202,0.1926,53.7128,848.871,0.0331145,213.774,-0.853058,-3.16132,-0.0361707,0.0902552,-0.0523511,0.0775364,-0.000298566,-0.00112395,0.100328,-0.03552435656169339,0.08062156636769413,-0.00029852143360731276,0.09445355261560917,-0.0011233186047731047,-0.0510043840166472
203,0.1936,53.7746,850.285,0.0329038,214.077,-0.854339,-3.16589,-0.0365365,0.0911492,-0.0528764,0.078297,-0.000301949,-0.00113667,0.101356,-0.03587709723186128,0.08144379978680338,-0.00030190341798863596,0.09543243158535075,-0.0011360242353525285,-0.051502760503678746
204,0.1946,53.8356,851.686,0.032694,214.378,-0.855579,-3.17031,-0.0369021,0.0920423,-0.0534012,0.0790567,-0.000305328,-0.00114936,0.102384,-0.0362295161390116,0.08226568479499297,-0.00030528139214991423,0.09641119929366204,-0.0011486997387787357,-0.05200040126260985
205,0.1956,53.896,853.074,0.0324849,214.675,-0.856779,-3.17458,-0.0372673,0.0929346,-0.0539255,0.0798155,-0.000308703,-0.00116204,0.103411,-0.036581420858004754,0.08308721964751986,-0.0003086553561316707,0.09738996361755392,-0.0011613650929674924,-0.05249730717695955
206,0.1966,53.9556,854.45,0.0322766,214.97,-0.85794,-3.17871,-0.0376323,0.093826,-0.0544493,0.0805734,-0.000312073,-0.0011747,0.104437,-0.03693300447147885,0.08390840259926224,-0.0003120243102864295,0.09836861315041712,-0.0011740103100410515,-0.052993479128681686
207,0.1976,54.0146,855.815,0.0320691,215.261,-0.859063,-3.18269,-0.0379969,0.0947166,-0.0549725,0.0813305,-0.000315439,-0.00118735,0.105461,-0.03728407469405792,0.08472934037765256,-0.00031538925434937415,0.09934725596224725,-0.0011866453788936804,-0.053488823347054404
208,0.1986,54.0729,857.167,0.0318624,215.55,-0.860146,-3.18653,-0.0383612,0.0956064,-0.0554953,0.0820866,-0.0003188,-0.00119997,0.106485,-0.03763472823022718,0.08554981437301823,-0.00031874918867969004,0.10032589048053064,-0.0011992503238915653,-0.05398353006260537
209,0.1996,54.1305,858.507,0.0316565,215.836,-0.861193,-3.19023,-0.0387252,0.0964953,-0.0560175,0.0828419,-0.000322157,-0.00121258,0.107508,-0.03798496544211172,0.08637003986697867,-0.00032210511300578837,0.10130440500092686,-0.0012118451219346182,-0.05447741089969693
210,0.2006,54.1875,859.837,0.0314513,216.119,-0.862201,-3.19378,-0.0390889,0.0973833,-0.0565392,0.0835962,-0.000325509,-0.00122517,0.10853,-0.03833478669133006,0.0871897979209324,-0.00032545602769329385,0.10228279765461368,-0.001224419785646913,-0.054970561384941385
211,0.2016,54.2438,861.154,0.031247,216.4,-0.863173,-3.1972,-0.0394523,0.0982706,-0.0570605,0.0843497,-0.000328856,-0.00123775,0.109551,-0.038684192338995116,0.08800930414386143,-0.0003288019327926106,0.10326128722367289,-0.0012369843034150119,-0.05546307684598295
212,0.2026,54.2995,862.461,0.0310434,216.678,-0.864109,-3.20049,-0.0398153,0.099157,-0.0575812,0.0851023,-0.000332198,-0.0012503,0.110571,-0.039033086649027604,0.08882844815138613,-0.00033214282835392073,0.10423965157568982,-0.0012495187006085207,-0.05595476919865594
213,0.2036,54.3546,863.757,0.0308406,216.953,-0.865009,-3.20364,-0.0401781,0.100042,-0.0581014,0.085854,-0.000335536,-0.00126283,0.11159,-0.03938166220976125,0.08964722819578674,-0.0003354797140918686,0.10521733622898122,-0.0012620329657371254,-0.05644573381675
214,0.2046,54.4092,865.043,0.0306386,217.226,-0.865874,-3.20666,-0.0405405,0.100927,-0.0586211,0.0866049,-0.000338868,-0.00127535,0.112608,-0.03972972722218682,0.09046575157558134,-0.000338810590724159,0.10619588651617717,-0.0012745370868084693,-0.05693597156957142
215,0.2056,54.4631,866.317,0.0304374,217.496,-0.866704,-3.20955,-0.0409027,0.101811,-0.0591403,0.0873548,-0.000342195,-0.00128784,0.113625,-0.04007747413421947,0.09128379853105817,-0.0003421364579687669,0.1071741960289534,-0.0012870110899398934,-0.0574254833248844
216,0.2066,54.5164,867.582,0.030237,217.764,-0.867499,-3.21231,-0.0412645,0.102694,-0.059659,0.0881039,-0.000345517,-0.00130032,0.114642,-0.04042471128508929,0.09210158548840086,-0.0003454573158755414,0.1081522625968876,-0.0012994749502668324,-0.05791426994891391
217,0.2076,54.5692,868.836,0.0300374,218.029,-0.86826,-3.21495,-0.041626,0.103576,-0.0601772,0.0888522,-0.000348833,-0.00131277,0.115657,-0.04077153505978548,0.09291911094382299,-0.0003487721648430808,0.10913008404836888,-0.001311908694403452,-0.05840233230634784
218,0.2086,54.6215,870.08,0.0298385,218.292,-0.868988,-3.21745,-0.0419873,0.104458,-0.0606949,0.0895995,-0.000352145,-0.0013252,0.116671,-0.04111804170397382,0.09373615464578688,-0.00035208300422684413,0.11010876831881777,-0.0013243223102276103,-0.05888967126034017
219,0.2096,54.6731,871.315,0.0296404,218.552,-0.869682,-3.21984,-0.0423482,0.105338,-0.061212,0.090346,-0.00035545,-0.00133761,0.117684,-0.041464039763617455,0.09455293351001104,-0.00035538683513292035,0.11108609399516589,-0.0013367157984860434,-0.05937619361013691
220,0.2106,54.7243,872.54,0.0294432,218.811,-0.870344,-3.2221,-0.0427088,0.106218,-0.0617287,0.0910916,-0.000358751,-0.00135,0.118697,-0.041809625518022475,0.09536933649444745,-0.00035868665655469645,0.11206428009664049,-0.001349089159924155,-0.05986208838917206
221,0.2116,54.7749,873.755,0.0292466,219.067,-0.870973,-3.22424,-0.0430691,0.107097,-0.0622449,0.0918364,-0.000362045,-0.00136237,0.119708,-0.042154799323153136,0.0961854714672048,-0.0003619794696175793,0.11304221433797856,-0.0013614423952863497,-0.06034726234497423
222,0.2126,54.825,874.961,0.0290509,219.321,-0.87157,-3.22626,-0.043429,0.107975,-0.0627606,0.0925803,-0.000365334,-0.00137472,0.120719,-0.04249946578442676,0.0970012272221632,-0.00036526727366026357,0.11401989454097006,-0.0013737755053155887,-0.06083171633458517
223,0.2136,54.8745,876.158,0.0288559,219.572,-0.872136,-3.22817,-0.0437887,0.108852,-0.0632758,0.0933234,-0.000368618,-0.00138705,0.121728,-0.04284381679134275,0.09781671178987739,-0.0003685500687321541,0.11499731852625295,-0.001386088490753945,-0.061315451213524885
224,0.2146,54.9236,877.345,0.0286617,219.822,-0.87267,-3.22995,-0.0441481,0.109729,-0.0637905,0.0940656,-0.000371895,-0.00139935,0.122737,-0.04318775691384569,0.09863181380030661,-0.00037182585562622883,0.11597560008836338,-0.0013983713663257014,-0.061798467835794235
225,0.2156,54.9722,878.524,0.0284683,220.069,-0.873174,-3.23163,-0.0445072,0.110604,-0.0643047,0.0948069,-0.000375167,-0.00141163,0.123745,-0.043531286505908096,0.0994465315016837,-0.00037509663366108725,0.11695250607248009,-0.0014106341190318616,-0.06228076705387742
226,0.2166,55.0203,879.694,0.0282756,220.314,-0.873646,-3.23318,-0.0448659,0.111479,-0.0648184,0.0955474,-0.000378433,-0.00142389,0.124751,-0.043874310308441467,0.10026097316807192,-0.0003783614032640825,0.11793026722341371,-0.001422876749610058,-0.06276234971874406
227,0.2176,55.0679,880.855,0.0280837,220.557,-0.874089,-3.23463,-0.0452244,0.112353,-0.0653316,0.0962871,-0.000381693,-0.00143612,0.125757,-0.0442170199338251,0.10107513729140227,-0.00038162016449405645,0.1189077653814381,-0.0014350892731476161,-0.06324321667985222
228,0.2186,55.1151,882.008,0.0278926,220.799,-0.874502,-3.23596,-0.0455825,0.113226,-0.0658443,0.0970259,-0.000384947,-0.00144833,0.126762,-0.04455922454359451,0.1018889121742601,-0.00038487291740985086,0.11988499836074684,-0.001447281676272838,-0.0637233687851505
229,0.2196,55.1618,883.152,0.0277022,221.038,-0.874885,-3.23718,-0.0459404,0.114099,-0.0663565,0.0977638,-0.000388194,-0.00146052,0.127766,-0.044901115612074216,0.10270229606363235,-0.00038811866245802573,0.12086308483694364,-0.001459453959719026,-0.06420280688108071
230,0.2206,55.208,884.288,0.0275126,221.275,-0.875239,-3.2383,-0.0462979,0.11497,-0.0668683,0.098501,-0.000391436,-0.00147268,0.128769,-0.04524250243671202,0.10351550790934749,-0.000391359398924096,0.12183978187364919,-0.001471596138934217,-0.06468162534442234
231,0.2216,55.2538,885.416,0.0273238,221.51,-0.875564,-3.2393,-0.0466551,0.115841,-0.0673795,0.0992372,-0.000394671,-0.00148482,0.129771,-0.04558348091246034,0.10432821514709789,-0.0003945931276458925,0.12281732998406247,-0.0014837182001761207,-0.06515963790712553
232,0.2226,55.2991,886.536,0.0271357,221.744,-0.87586,-3.2402,-0.0470121,0.116711,-0.0678903,0.0999727,-0.0003979,-0.00149694,0.130772,-0.04592414679729606,0.10514074732141676,-0.0003978208482935397,0.12379460611462378,-0.0014958201441735985,-0.06563703242714214
233,0.2236,55.3441,887.648,0.0269483,221.975,-0.876128,-3.24099,-0.0473687,0.11758,-0.0684005,0.100707,-0.000401123,-0.00150903,0.131772,-0.046264309591917074,0.10595255018912098,-0.00040104256092510226,0.12477160807320553,-0.0015078919867336227,-0.06611362282464928
234,0.2246,55.3885,888.752,0.0267618,222.205,-0.876368,-3.24168,-0.047725,0.118448,-0.0689103,0.101441,-0.000404339,-0.0015211,0.132771,-0.04660406508737369,0.10676461735315024,-0.00040425726600301637,0.12574833366659655,-0.0015199437137449756,-0.06658959676366749
235,0.2256,55.4326,889.849,0.0265759,222.433,-0.876581,-3.24226,-0.0480811,0.119316,-0.0694196,0.102174,-0.000407549,-0.00153314,0.13377,-0.046943508938231404,0.10757617321655744,-0.0004074659631871924,0.12672590742585355,-0.0015319653412523282,-0.06706486164556047
236,0.2266,55.4763,890.937,0.0263909,222.659,-0.876766,-3.24274,-0.0484368,0.120182,-0.0699284,0.102906,-0.000410753,-0.00154515,0.134767,-0.04728245084770988,0.10838721578071575,-0.00041066865253558404,0.12770207468109884,-0.001543956870339258,-0.06753941830650301
237,0.2276,55.5195,892.019,0.0262065,222.883,-0.876924,-3.24312,-0.0487922,0.121048,-0.0704367,0.103637,-0.00041395,-0.00155715,0.135764,-0.04762098650332924,0.1091977430470743,-0.00041386433451962024,0.12867908766333436,-0.0015559382709683378,-0.06801326758118231
238,0.2286,55.5624,893.093,0.0260229,223.106,-0.877054,-3.2434,-0.0491473,0.121913,-0.0709445,0.104368,-0.00041714,-0.00156911,0.136759,-0.04795911625253191,0.11000886302547475,-0.00041705300920635846,0.1296558174488942,-0.001567879590537391,-0.06848641030280056
239,0.2296,55.6048,894.159,0.0258401,223.327,-0.877159,-3.24359,-0.0495021,0.122777,-0.0714519,0.105098,-0.000420323,-0.00158105,0.137754,-0.04829684044227134,0.11081946532932663,-0.00042023467666307823,0.1306322618384037,-0.0015798007988853113,-0.06895894040718742
240,0.2306,55.6469,895.219,0.025658,223.546,-0.877237,-3.24367,-0.0498566,0.123641,-0.0719587,0.105826,-0.0004235,-0.00159297,0.138747,-0.04863415941901339,0.11162843632980213,-0.0004234103365329256,0.13160955024042664,-0.0015917018967290808,-0.06943067246918777
241,0.2316,55.6885,896.271,0.0254767,223.763,-0.877289,-3.24365,-0.0502109,0.124504,-0.0724651,0.106554,-0.00042667,-0.00160486,0.13974,-0.048971168631623874,0.11243799647558883,-0.00042657898929987503,0.1325865507973878,-0.0016035729008202493,-0.06990179347874181
242,0.2326,55.7299,897.317,0.025296,223.979,-0.877315,-3.24354,-0.0505648,0.125366,-0.072971,0.107282,-0.000429834,-0.00161672,0.140732,-0.049307678186167325,0.11324814619574064,-0.0004297416346006333,0.1335632613059261,-0.0016154138122289607,-0.07037221115923564
243,0.2336,55.7708,898.355,0.0251162,224.193,-0.877315,-3.24333,-0.0509184,0.126227,-0.0734764,0.108008,-0.00043299,-0.00162855,0.141723,-0.04964378356422783,0.11405665780408025,-0.0004328962733579633,0.13453967956164958,-0.0016272246320223616,-0.07084192633669217
244,0.2346,55.8114,899.387,0.024937,224.406,-0.877291,-3.24303,-0.0512717,0.127087,-0.0739813,0.108734,-0.00043614,-0.00164036,0.142713,-0.04997948511032457,0.11486575660497267,-0.0004360449047756676,0.1355158033591437,-0.0016390153448752054,-0.07131093983566339
245,0.2356,55.8516,900.412,0.0247586,224.617,-0.877241,-3.24263,-0.0516247,0.127946,-0.0744858,0.109458,-0.000439282,-0.00165215,0.143702,-0.050314783168491584,0.1156732116762198,-0.0004391855297886105,0.1364916304919792,-0.0016507859514963696,-0.0717793453013027
246,0.2366,55.8914,901.431,0.0245809,224.826,-0.877166,-3.24215,-0.0519774,0.128805,-0.0749898,0.110182,-0.000442418,-0.0016639,0.14469,-0.05064967808227838,0.11648125155661382,-0.00044232014758771587,0.13746829622044676,-0.0016625164858444785,-0.07224705063962522
247,0.2376,55.9309,902.443,0.024404,225.034,-0.877067,-3.24157,-0.0523299,0.129663,-0.0754933,0.110905,-0.000445547,-0.00167563,0.145677,-0.050984265096328585,0.11728875938039196,-0.0004454477586748329,0.13844466281997803,-0.0016742269158442902,-0.07271405667099373
248,0.2386,55.9701,903.448,0.0242278,225.241,-0.876943,-3.24089,-0.052682,0.13052,-0.0759963,0.111628,-0.000448668,-0.00168733,0.146664,-0.05131835471665891,0.11809685124343128,-0.0004485673635642451,0.13942072808023953,-0.0016859072590592605,-0.0731803642143094
249,0.2396,56.0089,904.447,0.0240523,225.446,-0.876796,-3.24013,-0.0530338,0.131377,-0.0764988,0.112349,-0.000451783,-0.00169901,0.147649,-0.05165204222039621,0.11890328975932785,-0.0004516809614274475,0.14039763018696672,-0.0016975674995665102,-0.07364597408701379
250,0.2406,56.0474,905.44,0.0238775,225.649,-0.876624,-3.23928,-0.0533853,0.132232,-0.0770009,0.11307,-0.00045489,-0.00171065,0.148634,-0.051985327949157334,0.11971030992705467,-0.0004547865532301687,0.14137308710918717,-0.0017091876722512556,-0.07411097969399794
251,0.2416,56.0855,906.427,0.0237035,225.852,-0.876429,-3.23834,-0.0537365,0.133087,-0.0775025,0.11379,-0.00045799,-0.00172227,0.149617,-0.052318212244077955,0.12051679164878193,-0.00045788513858902036,0.14234937840371953,-0.00172078774409401,-0.07457528916803213
252,0.2426,56.1233,907.407,0.0235302,226.052,-0.87621,-3.23731,-0.0540875,0.133941,-0.0780036,0.114509,-0.000461083,-0.00173386,0.1506,-0.052650790180737816,0.12132273292314544,-0.0004609767175691726,0.14332536145832386,-0.0017323577331157525,-0.07503890332240248
253,0.2436,56.1608,908.382,0.0233576,226.251,-0.875968,-3.2362,-0.0544381,0.134794,-0.0785043,0.115227,-0.000464168,-0.00174543,0.151582,-0.05298287259625145,0.12212813174896264,-0.0004640602906995639,0.14430103405685224,-0.0017439076229205375,-0.0755019154187575
254,0.2446,56.198,909.35,0.0231857,226.449,-0.875703,-3.235,-0.0547885,0.135647,-0.0790045,0.115945,-0.000467246,-0.00175696,0.152562,-0.05331464926702634,0.12293410905878743,-0.00046713685758714707,0.14527753925916187,-0.0017554174493114028,-0.07596423372521732
255,0.2456,56.2349,910.313,0.0230145,226.646,-0.875415,-3.23371,-0.0551385,0.136498,-0.0795042,0.116662,-0.000470317,-0.00176847,0.153542,-0.053645931162069393,0.12373954152801758,-0.0004702064182965371,0.1462525852683043,-0.0017669071783330548,-0.07642585905093158
256,0.2466,56.2715,911.269,0.0228441,226.841,-0.875105,-3.23234,-0.0554882,0.137349,-0.0800034,0.117378,-0.00047338,-0.00177995,0.154522,-0.05397681332182447,0.12454442715442005,-0.00047326797336555426,0.1472284613947652,-0.0017783668284601095,-0.07688679220360628
257,0.2476,56.3077,912.22,0.0226744,227.035,-0.874772,-3.23089,-0.0558377,0.138199,-0.0805022,0.118093,-0.000476436,-0.00179139,0.1555,-0.054307390653814624,0.1253487639359685,-0.0004763225223912704,0.1482040201406809,-0.0017897864186233736,-0.07734712625479845
258,0.2486,56.3437,913.166,0.0225054,227.227,-0.874417,-3.22935,-0.0561869,0.139049,-0.0810005,0.118807,-0.000479484,-0.00180282,0.156477,-0.054637568860528285,0.12615254987085023,-0.0004793690659172789,0.14918040846405134,-0.0018011958961593466,-0.07780676965212241
259,0.2496,56.3794,914.105,0.0223371,227.418,-0.87404,-3.22773,-0.0565357,0.139897,-0.0814983,0.119521,-0.000482525,-0.00181421,0.157453,-0.054967253776118,0.1269569099138217,-0.00048240860353432335,0.15015532675736276,-0.0018125653157891053,-0.07826572319917413
260,0.2506,56.4148,915.039,0.0221695,227.608,-0.873641,-3.22603,-0.0568843,0.140745,-0.0819957,0.120234,-0.000485558,-0.00182557,0.158429,-0.055296634777007525,0.12776071671366185,-0.00048544013579177037,0.15113107213202004,-0.0018239046606395304,-0.07872407982571183
261,0.2516,56.4499,915.968,0.0220026,227.797,-0.87322,-3.22425,-0.0572326,0.141592,-0.0824926,0.120946,-0.000488584,-0.0018369,0.159403,-0.055625617663419225,0.12856396826758165,-0.0004884646622738131,0.15210649318261615,-0.0018352139317325822,-0.07918174811334344
262,0.2526,56.4847,916.891,0.0218364,227.984,-0.872778,-3.22238,-0.0575806,0.142438,-0.082989,0.121657,-0.000491602,-0.00184821,0.160377,-0.05595420277134755,0.12936666257303053,-0.0004914811835354804,0.15308158768266455,-0.0018465031116225994,-0.07963872886157441
263,0.2536,56.5192,917.809,0.0216709,228.17,-0.872315,-3.22044,-0.0579283,0.143284,-0.083485,0.122368,-0.000494613,-0.00185948,0.16135,-0.056282390436312,0.13016992779706826,-0.0004944906991548592,0.15405750746170388,-0.0018577522381435507,-0.08009511485897525
264,0.2546,56.5534,918.722,0.0215062,228.355,-0.87183,-3.21842,-0.0582757,0.144128,-0.0839805,0.123077,-0.000497615,-0.00187073,0.162322,-0.05661018099335802,0.13097150240049515,-0.0004974912101899376,0.15503194315201907,-0.0018689812752674673,-0.08055081482057347
265,0.2556,56.5874,919.629,0.0213421,228.539,-0.871325,-3.21632,-0.0586228,0.144972,-0.0844755,0.123786,-0.00050061,-0.00188194,0.163293,-0.056937574777057076,0.1317736455218319,-0.0005004847157210612,0.15600720161321746,-0.001880170261272962,-0.08100582954180291
266,0.2566,56.6211,920.531,0.0211787,228.721,-0.870799,-3.21414,-0.0589696,0.145815,-0.0849701,0.124494,-0.000503597,-0.00189313,0.164263,-0.057264572121507484,0.13257522498850882,-0.0005034702163143612,0.15698212655730548,-0.0018913391596776519,-0.0814602516706554
267,0.2576,56.6546,921.428,0.0210161,228.902,-0.870253,-3.21189,-0.0593161,0.146658,-0.0854642,0.125202,-0.000506577,-0.00190428,0.165232,-0.057591173360335035,0.13337737217439738,-0.0005064487115351568,0.15795787370963343,-0.0019024680092025736,-0.08191399005500588
268,0.2586,56.6878,922.32,0.0208541,229.082,-0.869686,-3.20956,-0.0596624,0.1475,-0.0859579,0.125908,-0.000509548,-0.00191541,0.1662,-0.05791747303495076,0.13417781912367777,-0.0005094182024648619,0.1589332848297509,-0.0019135767729132613,-0.0823671372495266
269,0.2596,56.7207,923.207,0.0206929,229.261,-0.869099,-3.20715,-0.0600083,0.14834,-0.0864511,0.126614,-0.000512512,-0.0019265,0.167168,-0.058243283028940995,0.13497883138803735,-0.0005123806881588422,0.15990719777517892,-0.0019246454899707333,-0.08281960219040907
270,0.2606,56.7534,924.089,0.0205323,229.439,-0.868491,-3.20467,-0.060354,0.149181,-0.0869438,0.127319,-0.000515467,-0.00193757,0.168135,-0.05856879205852039,0.13577927358688768,-0.0005153341697101688,0.1608830900336835,-0.001935694122990772,-0.08327138566641124
271,0.2616,56.7858,924.966,0.0203724,229.616,-0.867864,-3.20212,-0.0606993,0.15002,-0.0874361,0.128024,-0.000518415,-0.0019486,0.1691,-0.05889381213667677,0.13658028029645486,-0.0005182806461618839,0.16185747964550612,-0.001946702711572157,-0.08372258009262701
272,0.2626,56.8179,925.839,0.0202132,229.791,-0.867218,-3.19949,-0.0610444,0.150859,-0.0879279,0.128727,-0.000521355,-0.00195961,0.170065,-0.059218531848499345,0.1373795771534303,-0.0005212191180972159,0.16283268711325571,-0.0019576912178834727,-0.08417309453715516
273,0.2636,56.8499,926.706,0.0200547,229.966,-0.866552,-3.19679,-0.0613892,0.151697,-0.0884193,0.12943,-0.000524287,-0.00197058,0.171029,-0.05954285738178289,0.13817943611365213,-0.000524149585586775,0.16380754931526997,-0.001968639681958373,-0.08462302132243471
274,0.2646,56.8816,927.569,0.019897,230.139,-0.865866,-3.19401,-0.0617337,0.152534,-0.0889102,0.130132,-0.000527211,-0.00198152,0.171992,-0.0598667890669784,0.13897871859313016,-0.0005270720487007274,0.16478206401155426,-0.0019795580853164685,-0.08507226960425496
275,0.2656,56.913,928.427,0.0197398,230.312,-0.865161,-3.19116,-0.0620779,0.15337,-0.0894007,0.130834,-0.000530126,-0.00199244,0.172954,-0.06019032723406881,0.13977856236589958,-0.0005299855080392879,0.1657562289612804,-0.001990456409037278,-0.08552093161266117
276,0.2666,56.9442,929.281,0.0195834,230.483,-0.864437,-3.18825,-0.0624219,0.154206,-0.0898907,0.131534,-0.000533034,-0.00200332,0.173916,-0.06051356616121728,0.1405766866704723,-0.0005328919626154116,0.16673120865341917,-0.0020013146938023807,-0.0859689165908879
277,0.2676,56.9752,930.129,0.0194277,230.653,-0.863694,-3.18526,-0.0627655,0.155041,-0.0903802,0.132234,-0.000535934,-0.00201417,0.174876,-0.06083631824790037,0.1413753698576441,-0.0005357904130259827,0.1677058360629604,-0.0020121429207946573,-0.08641622531847393
278,0.2686,57.0059,930.974,0.0192727,230.822,-0.862933,-3.1822,-0.0631089,0.155875,-0.0908694,0.132933,-0.000538825,-0.00202498,0.175836,-0.061158771687789715,0.14217347014472903,-0.0005386798598792097,0.16868010894555718,-0.002022931111219428,-0.08686304120097244
279,0.2696,57.0364,931.814,0.0191183,230.99,-0.862153,-3.17907,-0.0634519,0.156708,-0.091358,0.133632,-0.000541708,-0.00203577,0.176794,-0.06148073900854867,0.14297212849893604,-0.0005415613027115462,0.16965402505605298,-0.0020336992256986264,-0.08730909094021655
280,0.2706,57.0667,932.649,0.0189646,231.157,-0.861354,-3.17587,-0.0637947,0.157541,-0.0918462,0.134329,-0.000544583,-0.00204653,0.177752,-0.061802408273954446,0.14376905777008786,-0.0005444347415922701,0.17062875277665746,-0.0020444372853241077,-0.08775455789468822
281,0.2716,57.0968,933.48,0.0188116,231.324,-0.860538,-3.17261,-0.0641372,0.158373,-0.092334,0.135026,-0.00054745,-0.00205725,0.178709,-0.06212368592718187,0.14456654269456437,-0.0005473001765903263,0.17160312118001686,-0.0020551353116148308,-0.08819944270512026
282,0.2726,57.1267,934.307,0.0186593,231.489,-0.859703,-3.16927,-0.0644794,0.159204,-0.0928213,0.135722,-0.000550309,-0.00206794,0.179665,-0.06244457229506872,0.14536343829578002,-0.0005501576077743264,0.17257712801750746,-0.002065803285198009,-0.08864365487560444
283,0.2736,57.1563,935.129,0.0185077,231.653,-0.85885,-3.16587,-0.0648214,0.160034,-0.0933081,0.136417,-0.000553159,-0.00207861,0.18062,-0.06276516142747735,0.1461597425690777,-0.0005530060357661348,0.17355077103972083,-0.0020764511862703117,-0.0890871951779425
284,0.2746,57.1857,935.948,0.0183568,231.816,-0.857979,-3.1624,-0.065163,0.160864,-0.0937945,0.137112,-0.000556001,-0.00208923,0.181575,-0.0630852661713307,0.1469566004662073,-0.000555846460086773,0.17452522252110714,-0.002087049078083769,-0.08953015542954157
285,0.2756,57.2149,936.761,0.0182065,231.978,-0.85709,-3.15887,-0.0655044,0.161693,-0.0942805,0.137806,-0.000558835,-0.00209983,0.182528,-0.06340507426711162,0.14775286461863257,-0.0005586788808044085,0.17549930763306998,-0.0020976268993010416,-0.08997253626675206
286,0.2766,57.2439,937.571,0.0180569,232.14,-0.856184,-3.15527,-0.0658454,0.162521,-0.094766,0.138499,-0.00056166,-0.0021104,0.183481,-0.06372439868887836,0.1485485330210714,-0.0005615022985484552,0.17647302412278654,-0.0021081746716395955,-0.09041424736634873
287,0.2776,57.2727,938.377,0.017908,232.3,-0.855261,-3.1516,-0.0661862,0.163348,-0.0952511,0.139191,-0.000564477,-0.00212093,0.184433,-0.06404342704828492,0.1493436036686384,-0.0005643177128309418,0.1774463697366726,-0.0021186824172368945,-0.09085538040948105
288,0.2786,57.3013,939.179,0.0177597,232.459,-0.85432,-3.14787,-0.0665268,0.164175,-0.0957357,0.139883,-0.000567286,-0.00213143,0.185384,-0.06436215957380187,0.1501392246955029,-0.0005671251237194808,0.17842052064032243,-0.0021291601160635665,-0.09129584515890599
289,0.2796,57.3297,939.976,0.0176122,232.618,-0.853362,-3.14407,-0.066867,0.165001,-0.0962199,0.140574,-0.000570086,-0.0021419,0.186334,-0.06468040942974496,0.1509342455478382,-0.0005699235318513685,0.1793942981050991,-0.002139607769063523,-0.0917357332051898
290,0.2806,57.3579,940.77,0.0174653,232.775,-0.852387,-3.14021,-0.0672069,0.165826,-0.0967036,0.141264,-0.000572878,-0.00215234,0.187283,-0.06499827053502472,0.15172866422018938,-0.0005727139367294187,0.18036769987405532,-0.002150025377178455,-0.09217495439682966
291,0.2816,57.3859,941.559,0.0173191,232.932,-0.851395,-3.13629,-0.0675466,0.166651,-0.0971869,0.141954,-0.000575661,-0.00216274,0.188231,-0.06531583668086027,0.15252363123057977,-0.0005754953389962569,0.18134190503082293,-0.002160402962950947,-0.09261360023406495
292,0.2826,57.4137,942.345,0.0171735,233.088,-0.850387,-3.13231,-0.067886,0.167475,-0.0976698,0.142643,-0.000578436,-0.00217311,0.189179,-0.0656330146577434,0.15331799363892218,-0.0005782687381485907,0.18231573192214712,-0.0021707505059201937,-0.09305167134572911
293,0.2836,57.4413,943.127,0.0170286,233.243,-0.849361,-3.12826,-0.0682251,0.168298,-0.0981522,0.143331,-0.000581202,-0.00218345,0.190126,-0.06594980478767076,0.154111749439231,-0.0005810331348341524,0.18328917828775304,-0.0021810680070183386,-0.09348907770857473
294,0.2846,57.4687,943.905,0.0168844,233.397,-0.84832,-3.12415,-0.0685639,0.16912,-0.0986342,0.144018,-0.00058396,-0.00219376,0.191071,-0.06626620739218103,0.1549048966259594,-0.0005837895285436545,0.1842622418666462,-0.0021913554671751934,-0.093925910687914
295,0.2856,57.4959,944.679,0.0167409,233.55,-0.847261,-3.11998,-0.0689025,0.169942,-0.0991157,0.144704,-0.000586709,-0.00220403,0.192016,-0.0665823161341279,0.1556974331940073,-0.0005865369199299364,0.18523610563263326,-0.0022016029093339107,-0.09436208034564575
296,0.2866,57.523,945.449,0.016598,233.702,-0.846187,-3.11575,-0.0692407,0.170763,-0.0995968,0.14539,-0.00058945,-0.00221427,0.19296,-0.0668979446190261,0.15649051362866584,-0.0005892763084779373,0.1862095840335607,-0.002211820312606916,-0.09479767795738414
297,0.2876,57.5498,946.216,0.0164558,233.854,-0.845097,-3.11146,-0.0695787,0.171583,-0.100077,0.146075,-0.000592182,-0.00222448,0.193904,-0.06721327981909386,0.1572829810195957,-0.0005920066948453817,0.18718267480515904,-0.0022220076779149167,-0.0952322517629075
298,0.2886,57.5765,946.979,0.0163142,234.004,-0.84399,-3.1071,-0.0699164,0.172402,-0.100558,0.14676,-0.000594906,-0.00223466,0.194846,-0.06752822871238529,0.15807599143665363,-0.0005947290785112136,0.188155375682463,-0.002232165006175846,-0.09566734040260316
299,0.2896,57.603,947.738,0.0161734,234.154,-0.842868,-3.10269,-0.0702539,0.173221,-0.101037,0.147444,-0.000597621,-0.0022448,0.195788,-0.0678428848339876,0.15886838638297407,-0.0005974424601383754,0.18912887352809937,-0.002242282320727873,-0.09610041201761821
300,0.2906,57.6293,948.494,0.0160331,234.303,-0.84173,-3.09822,-0.070591,0.174039,-0.101517,0.148127,-0.000600327,-0.00225491,0.196729,-0.06815706203996674,0.15966016385209958,-0.0006001468398000309,0.1901019788924787,-0.002252369600262316,-0.09653417970727585
301,0.2916,57.6555,949.246,0.0158936,234.452,-0.840576,-3.09369,-0.0709279,0.174856,-0.101996,0.148809,-0.000603024,-0.00226499,0.197668,-0.06847094704886691,0.16045132183805455,-0.0006028422175692327,0.19107468950741402,-0.0022624268456881147,-0.09696683620569224
302,0.2926,57.6815,949.994,0.0157547,234.599,-0.839407,-3.08911,-0.0712645,0.175673,-0.102474,0.149491,-0.000605713,-0.00227503,0.198607,-0.06878444696309471,0.16124301957779075,-0.0006055295929133786,0.19204819515164684,-0.0022724440806359825,-0.09739838291010683
303,0.2936,57.7073,950.739,0.0156165,234.746,-0.838223,-3.08446,-0.0716008,0.176489,-0.102952,0.150171,-0.000608394,-0.00228504,0.199546,-0.0690975621003197,0.1620329333713555,-0.0006082089658968615,0.19302130345308166,-0.0022824312834847094,-0.09782972338448948
304,0.2946,57.7329,951.481,0.0154789,234.891,-0.837023,-3.07976,-0.0719369,0.177304,-0.10343,0.150852,-0.000611065,-0.00229501,0.200483,-0.0694103858367241,0.16282454731293527,-0.0006108783378057092,0.1939940121403445,-0.002292378478057966,-0.09826085772739479
305,0.2956,57.7584,952.219,0.0153419,235.036,-0.835808,-3.075,-0.0722727,0.178118,-0.103907,0.151531,-0.000613728,-0.00230496,0.20142,-0.06972282536762686,0.16361437329613682,-0.0006135397074931159,0.19496631894140748,-0.0023023056195045077,-0.09869088472866538
306,0.2966,57.7837,952.953,0.0152057,235.181,-0.834578,-3.07018,-0.0726081,0.178932,-0.104384,0.15221,-0.000616382,-0.00231487,0.202355,-0.0700347880129385,0.16440473575329317,-0.0006161920756390105,0.1959394175224174,-0.002312192754664988,-0.0991207066559705
307,0.2976,57.8088,953.684,0.0150701,235.324,-0.833334,-3.06531,-0.0729434,0.179745,-0.10486,0.152888,-0.000619027,-0.00232474,0.20329,-0.07034655307818372,0.16519446985374175,-0.0006188354423151132,0.19691211161543531,-0.00232203988472679,-0.09954942315698023
308,0.2986,57.8338,954.412,0.0149351,235.467,-0.832074,-3.06039,-0.0732783,0.180557,-0.105336,0.153565,-0.000621664,-0.00233459,0.204224,-0.07065784188933699,0.16598357359130866,-0.0006214708069713915,0.1978843989453003,-0.002331866964235485,-0.09997793563749624
309,0.2996,57.8586,955.137,0.0148008,235.609,-0.8308,-3.0554,-0.073613,0.181369,-0.105812,0.154242,-0.000624291,-0.00234439,0.205158,-0.07096884066110887,0.16677321173298143,-0.0006240961709190751,0.1988574760930999,-0.0023416440640313674,-0.1004062441946092
310,0.3006,57.8833,955.858,0.0146672,235.75,-0.829511,-3.05037,-0.0739474,0.18218,-0.106287,0.154918,-0.00062691,-0.00235417,0.20609,-0.07127945674288838,0.16756221707787322,-0.0006267135329838247,0.19983014386968279,-0.002351401115040397,-0.10083344975926278
311,0.3016,57.9078,956.576,0.0145342,235.891,-0.828208,-3.04528,-0.0742815,0.18299,-0.106761,0.155593,-0.00062952,-0.00236391,0.207022,-0.07158969044896424,0.16835058761952526,-0.0006293218938575595,0.2008023999967905,-0.002361118165071452,-0.10125955370946271
312,0.3026,57.9321,957.29,0.0144018,236.031,-0.82689,-3.04013,-0.0746154,0.183799,-0.107235,0.156268,-0.000632121,-0.00237362,0.207952,-0.07189963490321705,0.1691394904909338,-0.0006319212536108898,0.20177424219555307,-0.0023708051915833916,-0.10168545573425036
313,0.3036,57.9563,958.002,0.0142701,236.17,-0.825559,-3.03494,-0.0749489,0.184608,-0.107709,0.156942,-0.000634714,-0.00238329,0.208882,-0.07220910476800857,0.169927756123202,-0.0006345126116793498,0.20274687093276622,-0.002380452219253759,-0.10211115592931574
314,0.3046,57.9804,958.71,0.0141391,236.308,-0.824213,-3.02968,-0.0752822,0.185416,-0.108183,0.157615,-0.000637297,-0.00239293,0.209811,-0.07251828594548393,0.1707153825096237,-0.0006370939693994826,0.20371908312531195,-0.002390069225340352,-0.10253665439030346
315,0.3056,58.0042,959.415,0.0140087,236.446,-0.822853,-3.02438,-0.0756153,0.186224,-0.108655,0.158287,-0.000639872,-0.00240253,0.21074,-0.07282717865549848,0.17150236764405946,-0.0006396673255693042,0.20469208118275617,-0.00239964623470601,-0.10296015713492102
316,0.3066,58.028,960.117,0.0138789,236.583,-0.821479,-3.01903,-0.075948,0.18703,-0.109128,0.158959,-0.000642437,-0.00241211,0.211667,-0.0731355977447995,0.1722898818102403,-0.0006422306815351275,0.20566345441101386,-0.0024092032003172337,-0.10338435664950218
317,0.3076,58.0516,960.816,0.0137498,236.719,-0.820091,-3.01362,-0.0762805,0.187836,-0.1096,0.15963,-0.000644994,-0.00242164,0.212594,-0.07344372892890116,0.17307675228645625,-0.0006447860360841995,0.20663561088169802,-0.0024187101953098145,-0.10380745937306579
318,0.3086,58.075,961.511,0.0136214,236.855,-0.81869,-3.00816,-0.0766128,0.188641,-0.110072,0.160301,-0.000647542,-0.00243115,0.21352,-0.07375157242674812,0.17386415092994212,-0.0006473323899253147,0.2076073436184087,-0.0024281971482652542,-0.10423036243926675
319,0.3096,58.0984,962.204,0.0134936,236.99,-0.817275,-3.00265,-0.0769447,0.189446,-0.110543,0.16097,-0.000650081,-0.00244061,0.214445,-0.07405894326884688,0.17464972879341012,-0.000649869743127196,0.20857985891491038,-0.0024376341328832263,-0.10465217059493936
320,0.3106,58.1215,962.894,0.0133664,237.124,-0.815847,-2.99709,-0.0772764,0.19025,-0.111014,0.16164,-0.000652611,-0.00245005,0.215369,-0.07436602698471473,0.17543700782072502,-0.0006523980957584552,0.209551947848865,-0.002447051077169027,-0.10507378012575042
321,0.3116,58.1445,963.58,0.0132399,237.258,-0.814405,-2.99148,-0.0776078,0.191053,-0.111484,0.162308,-0.000655132,-0.00245945,0.216292,-0.07467273125966667,0.1762224620544559,-0.0006549174478871489,0.21052360813238025,-0.002456428030817137,-0.10549429661997412
322,0.3126,58.1674,964.264,0.013114,237.391,-0.81295,-2.98582,-0.0779389,0.191855,-0.111954,0.162976,-0.000657644,-0.00246882,0.217215,-0.07497905640342051,0.1770084411468984,-0.0006574277995815558,0.21149483747701137,-0.0024657749702959864,-0.10591461551788439
323,0.3136,58.1902,964.945,0.0129887,237.523,-0.811482,-2.98011,-0.0782698,0.192657,-0.112424,0.163643,-0.000660147,-0.00247815,0.218137,-0.07528509519674575,0.17779376765441834,-0.0006599291509092886,0.21246684606000965,-0.0024750819211984965,-0.10633473691232953
324,0.3146,58.2128,965.623,0.0128641,237.655,-0.810001,-2.97435,-0.0786004,0.193458,-0.112893,0.164309,-0.00066264,-0.00248744,0.219058,-0.07559075541585558,0.1785784395704204,-0.0006624205026004581,0.2134384210675473,-0.002484348884642329,-0.10675376765032873
325,0.3156,58.2353,966.298,0.0127402,237.786,-0.808507,-2.96854,-0.0789308,0.194259,-0.113362,0.164975,-0.000665125,-0.00249671,0.219978,-0.07589612977964333,0.1793636342519802,-0.0006649038533999008,0.21441077461843094,-0.0024935958118686985,-0.1071726019089898
326,0.3166,58.2576,966.97,0.0126168,237.916,-0.807,-2.96268,-0.0792608,0.195058,-0.11383,0.16564,-0.000667601,-0.00250593,0.220897,-0.07620103374489473,0.18014817189861332,-0.0006673782040347298,0.2153814765711397,-0.002502792778517171,-0.10759034737123352
327,0.3176,58.2798,967.639,0.0124941,238.046,-0.80548,-2.95678,-0.0795906,0.195857,-0.114298,0.166304,-0.000670068,-0.00251513,0.221816,-0.07650565240958684,0.18093205050365002,-0.0006698435545716697,0.21635295442463987,-0.0025119697106096295,-0.10800789737434202
328,0.3186,58.3019,968.305,0.0123721,238.175,-0.803948,-2.95083,-0.0799202,0.196656,-0.114765,0.166968,-0.000672526,-0.00252429,0.222734,-0.07680998598962352,0.18171644977692347,-0.0006722999050774447,0.21732520879912376,-0.002521106659119865,-0.10842436043457482
329,0.3196,58.3239,968.969,0.0122507,238.304,-0.802402,-2.94483,-0.0802494,0.197453,-0.115232,0.167631,-0.000674975,-0.00253341,0.223651,-0.07711385012345506,0.18250018756349284,-0.0006747472556181133,0.21829580372123547,-0.002530203625144889,-0.10884062905196434
330,0.3206,58.3457,969.629,0.0121299,238.432,-0.800845,-2.93878,-0.0805784,0.19825,-0.115699,0.168293,-0.000677414,-0.0025425,0.224567,-0.07741742972518162,0.18328326185665267,-0.00067718460693722,0.21926717251584749,-0.002539270584384523,-0.10925670331729431
331,0.3216,58.3674,970.287,0.0120097,238.559,-0.799275,-2.93269,-0.0809072,0.199047,-0.116165,0.168955,-0.000679845,-0.00255156,0.225482,-0.07772072500981075,0.18406685471662154,-0.000679613957748626,0.2202393157999818,-0.0025483075376555586,-0.10967169299344415
332,0.3226,58.389,970.943,0.0118902,238.686,-0.797693,-2.92655,-0.0812356,0.199842,-0.116631,0.169616,-0.000682267,-0.00256058,0.226397,-0.07802355179683751,0.18484978163642962,-0.0006820343087925451,0.22120979176912692,-0.002557304511345171,-0.11008648932945664
333,0.3236,58.4104,971.595,0.0117713,238.812,-0.796099,-2.92037,-0.0815639,0.200637,-0.117096,0.170276,-0.000684679,-0.00256956,0.22731,-0.07832618698449845,0.18563204060937477,-0.0006844446608188504,0.22218103957343116,-0.002566261506533718,-0.110500202916055
334,0.3246,58.4318,972.245,0.011653,238.937,-0.794492,-2.91414,-0.0818918,0.201431,-0.117561,0.170936,-0.000687082,-0.00257851,0.228223,-0.0786283542847499,0.18641481604365562,-0.000686846013213116,0.22315183667429928,-0.002575188498544878,-0.11091372417055623
335,0.3256,58.453,972.892,0.0115354,239.062,-0.792874,-2.90787,-0.0822195,0.202225,-0.118026,0.171595,-0.000689476,-0.00258743,0.229136,-0.07893023830665225,0.18719692108273422,-0.0006892383660401791,0.22412340489415938,-0.0025840854881827857,-0.1113270531823739
336,0.3266,58.4741,973.536,0.0114184,239.187,-0.791244,-2.90155,-0.0825469,0.203018,-0.11849,0.172253,-0.000691862,-0.00259631,0.230047,-0.07923174718693371,0.18797835371994998,-0.0006916227186728463,0.22509451975039063,-0.0025929425021784525,-0.1117393017806263
337,0.3276,58.495,974.178,0.011302,239.311,-0.789602,-2.89518,-0.082874,0.20381,-0.118954,0.172911,-0.000694237,-0.00260515,0.230958,-0.07953288122927127,0.18876030070904415,-0.0006939960732506023,0.22606517894033384,-0.002601759541595361,-0.11215135913989982
338,0.3286,58.5159,974.818,0.0111863,239.434,-0.787948,-2.88877,-0.0832009,0.204602,-0.119417,0.173568,-0.000696604,-0.00261396,0.231867,-0.07983373275353667,0.18954157284640427,-0.0006963614277624153,0.2270366071968657,-0.002610546581386819,-0.11256233791169057
339,0.3296,58.5366,975.454,0.0110711,239.556,-0.786282,-2.88232,-0.0835276,0.205392,-0.11988,0.174224,-0.000698962,-0.00262274,0.232776,-0.0801343019723908,0.1903221681254499,-0.0006987177829640423,0.22800634911417372,-0.0026193036223444155,-0.11297312644435387
340,0.3306,58.5572,976.088,0.0109566,239.679,-0.784606,-2.87583,-0.0838539,0.206183,-0.120343,0.17488,-0.00070131,-0.00263148,0.233685,-0.08043440518515532,0.19110327564299423,-0.0007010641396201223,0.2289780864077564,-0.002628020691537114,-0.11338372482594983
341,0.3316,58.5777,976.72,0.0108427,239.8,-0.782917,-2.86929,-0.08418,0.206972,-0.120805,0.175535,-0.00070365,-0.00264018,0.234592,-0.08073422663707974,0.19188370385087672,-0.0007034024963941121,0.22994813275089143,-0.002636697790011633,-0.11379324693818815
342,0.3326,58.5981,977.349,0.0107295,239.921,-0.781217,-2.86271,-0.0845059,0.207761,-0.121267,0.176189,-0.00070598,-0.00264886,0.235499,-0.08103376653994032,0.19266345074263613,-0.0007057308547537833,0.2309189447626081,-0.0026453548659031156,-0.1142025798949089
343,0.3336,58.6184,977.976,0.0106168,240.042,-0.779506,-2.85609,-0.0848314,0.208549,-0.121728,0.176843,-0.000708301,-0.00265749,0.236405,-0.08133284137186214,0.19344370775565434,-0.0007080502140608402,0.23188929115734958,-0.0026539619993507513,-0.11461083839476283
344,0.3346,58.6386,978.6,0.0105048,240.161,-0.777784,-2.84942,-0.0851568,0.209337,-0.122189,0.177496,-0.000710612,-0.00266609,0.23731,-0.08163172703394517,0.1942232809997817,-0.0007103595750883596,0.23286040248639472,-0.0026625391383957586,-0.11501890873082343
345,0.3356,58.6586,979.221,0.0103934,240.281,-0.776051,-2.84271,-0.0854818,0.210123,-0.12265,0.178149,-0.000712915,-0.00267466,0.238214,-0.08193014822658862,0.19500336347148206,-0.0007126609364802583,0.2338298116906583,-0.002671086283810853,-0.11542679098981412
346,0.3366,58.6786,979.84,0.0102826,240.4,-0.774307,-2.83597,-0.0858066,0.21091,-0.12311,0.178801,-0.000715208,-0.00268319,0.239118,-0.0822282888937792,0.19578275972003212,-0.0007149522997216273,0.23480121795068376,-0.0026795934631616003,-0.11583360109246177
347,0.3376,58.6984,980.457,0.0101725,240.518,-0.772552,-2.82918,-0.0861312,0.211695,-0.12357,0.179452,-0.000717492,-0.00269168,0.24002,-0.08252614924585389,0.19656146773856853,-0.0007172346641640681,0.2357709174640381,-0.002688060677469739,-0.11624022410549617
348,0.3386,58.7182,981.071,0.0100629,240.636,-0.770786,-2.82235,-0.0864554,0.21248,-0.124029,0.180102,-0.000719767,-0.00270014,0.240922,-0.08282354605764031,0.19733948552098513,-0.0007195080298693091,0.23674137849036492,-0.002696497900786965,-0.11664577676117704
349,0.3396,58.7378,981.683,0.00995401,240.753,-0.769009,-2.81548,-0.0867795,0.213264,-0.124488,0.180752,-0.000722033,-0.00270856,0.241824,-0.08312075478108782,0.19811800917935218,-0.0007217723968985235,0.23771136391570424,-0.002704895160922094,-0.1170511433109036
350,0.3406,58.7573,982.293,0.00984569,240.87,-0.767222,-2.80857,-0.0871032,0.214048,-0.124946,0.181401,-0.000724289,-0.00271695,0.242724,-0.08341750056186947,0.19889584014615647,-0.0007240267660371114,0.2386821101077985,-0.0027132624317509624,-0.11745544129596142
351,0.3416,58.7767,982.9,0.00973798,240.986,-0.765424,-2.80162,-0.0874267,0.21483,-0.125405,0.18205,-0.000726536,-0.00272531,0.243624,-0.0837139670443986,0.19967417608910498,-0.0007262721366263492,0.23965113835856688,-0.0027215997140270787,-0.11786043629494392
352,0.3426,58.796,983.504,0.00963089,241.102,-0.763616,-2.79463,-0.08775,0.215613,-0.125862,0.182698,-0.000728774,-0.00273362,0.244522,-0.0840101544375812,0.2004518168836169,-0.000728508508726744,0.24062216530734148,-0.002729887063099512,-0.11826348197260506
353,0.3436,58.8153,984.107,0.00952441,241.217,-0.761797,-2.7876,-0.088073,0.216394,-0.12632,0.183345,-0.000731003,-0.00274191,0.245421,-0.08430597138068974,0.20122876052330518,-0.0007307358823989141,0.2415914696825352,-0.0027381543980675715,-0.11866722483368886
354,0.3446,58.8344,984.707,0.00941854,241.332,-0.759968,-2.78053,-0.0883957,0.217175,-0.126777,0.183992,-0.000733222,-0.00275015,0.246318,-0.08460141817082167,0.20200620700818117,-0.0007329532584358089,0.24256153138014191,-0.0027463718018195804,-0.11906990189322353
355,0.3456,58.8534,985.305,0.00931328,241.446,-0.758129,-2.77342,-0.0887182,0.217955,-0.127233,0.184638,-0.000735433,-0.00275837,0.247214,-0.08489658661499166,0.20278295388013556,-0.000735162635433606,0.24353110746013207,-0.0027545691929520277,-0.1194715144433397
356,0.3466,58.8723,985.901,0.00920862,241.56,-0.756279,-2.76628,-0.0890404,0.218735,-0.127689,0.185284,-0.000737634,-0.00276654,0.24811,-0.08519138544014326,0.20356020269267883,-0.0007373620149202509,0.2445014401044865,-0.0027627166548394033,-0.11987294389988146
357,0.3476,58.8911,986.494,0.00910458,241.673,-0.75442,-2.7591,-0.0893623,0.219514,-0.128145,0.185928,-0.000739825,-0.00277468,0.249005,-0.08548581494219931,0.20433554509667018,-0.0007395513969616907,0.24547128443164823,-0.002770834133287603,-0.12027419034632059
358,0.3486,58.9099,987.085,0.00900114,241.786,-0.752551,-2.75188,-0.089684,0.220292,-0.128601,0.186573,-0.000742008,-0.00278279,0.2499,-0.08577996683866307,0.2051125920939747,-0.0007417327801400031,0.24644063812062655,-0.0027789216290279306,-0.12067525386609046
359,0.3496,58.9285,987.674,0.0088983,241.899,-0.750671,-2.74462,-0.0900055,0.22107,-0.129056,0.187216,-0.000744181,-0.00279086,0.250793,-0.08607384133646767,0.20588772867039395,-0.0007439041659954571,0.24741074626021797,-0.002786969170658571,-0.12107525561828192
360,0.3506,58.947,988.26,0.00879607,242.01,-0.748782,-2.73733,-0.0903267,0.221847,-0.12951,0.187859,-0.000746345,-0.0027989,0.251686,-0.0863673472790526,0.2066633638199058,-0.0007460665538471245,0.24838036105662864,-0.0027949867311957144,-0.12147419688571115
361,0.3516,58.9654,988.845,0.00869444,242.122,-0.746883,-2.73,-0.0906476,0.222623,-0.129964,0.188501,-0.000748499,-0.00280689,0.252578,-0.0866604849608541,0.20743829042430173,-0.0007482189445016107,0.24934948018639913,-0.002802954367421062,-0.12187295707491286
362,0.3526,58.9838,989.427,0.00859341,242.233,-0.744975,-2.72263,-0.0909683,0.223399,-0.130418,0.189143,-0.000750644,-0.00281486,0.253469,-0.08695334598055271,0.20821371469131034,-0.0007503623372732138,0.25031935164448016,-0.0028109019962033743,-0.12227153626807785
363,0.3536,59.002,990.007,0.00849298,242.343,-0.743057,-2.71523,-0.0912888,0.224174,-0.130872,0.189784,-0.00075278,-0.00282279,0.25436,-0.0872459305439851,0.20898842795150108,-0.0007524967322196652,0.2512887247255544,-0.0028188096743965163,-0.12266993454735975
364,0.3546,59.0202,990.585,0.00839315,242.453,-0.741129,-2.70779,-0.0916089,0.224948,-0.131325,0.190424,-0.000754907,-0.00283068,0.255249,-0.08753805636438605,0.20976242819905022,-0.0007546221293988076,0.2522575971037333,-0.002826677402949951,-0.1230672750625883
365,0.3556,59.0383,991.161,0.00829392,242.563,-0.739192,-2.70032,-0.0919289,0.225722,-0.131777,0.191064,-0.000757024,-0.00283854,0.256138,-0.0878299974732808,0.21053692396530654,-0.0007567375296245737,0.25322721967942186,-0.002834515154463202,-0.12346355908732354
366,0.3566,59.0563,991.735,0.00819529,242.672,-0.737246,-2.69281,-0.0922486,0.226495,-0.13223,0.191703,-0.000759132,-0.00284636,0.257026,-0.08812157161247902,0.21131070425619414,-0.0007588439322017138,0.25419633883653203,-0.0028423129580652517,-0.12386054017205261
367,0.3576,59.0741,992.307,0.00809725,242.781,-0.735291,-2.68526,-0.092568,0.227267,-0.132681,0.192342,-0.000761231,-0.00285415,0.257914,-0.08841277907419864,0.21208497915069668,-0.000760941337187071,0.2551649522467836,-0.0028500807861915334,-0.12425558997800767
368,0.3586,59.0919,992.876,0.00799981,242.889,-0.733326,-2.67768,-0.0928871,0.228039,-0.133133,0.19298,-0.000763321,-0.0028619,0.258801,-0.08870362015023447,0.21285853610582417,-0.0007630297446372669,0.2561343137153014,-0.00285780866811991,-0.12465133700577158
369,0.3596,59.1097,993.444,0.00790297,242.997,-0.731352,-2.67007,-0.0932061,0.22881,-0.133584,0.193617,-0.000765401,-0.00286961,0.259687,-0.08899427733312104,0.2136313731157784,-0.0007651081553738948,0.25710316671601374,-0.002865496604777973,-0.12504603024276695
370,0.3606,59.1273,994.009,0.00780671,243.104,-0.729369,-2.66242,-0.0935247,0.22958,-0.134035,0.194254,-0.000767472,-0.00287729,0.260572,-0.08928447752501745,0.21440470257973798,-0.0007671775686920457,0.2580715089182888,-0.002873154568357461,-0.1254405455132469
371,0.3616,59.1448,994.573,0.00771105,243.211,-0.727378,-2.65474,-0.0938432,0.23035,-0.134485,0.19489,-0.000769533,-0.00288493,0.261456,-0.08957449423131358,0.21517730963357873,-0.0007692369854168657,0.2590405970311984,-0.002880772588355729,-0.1258340087319021
372,0.3626,59.1623,995.134,0.00761598,243.317,-0.725377,-2.64703,-0.0941613,0.23112,-0.134935,0.195525,-0.000771585,-0.00289254,0.26234,-0.08986405452769175,0.21594919227199694,-0.000771287404838783,0.2600104316293148,-0.002888360636803755,-0.12622729493194096
373,0.3636,59.1797,995.693,0.0075215,243.424,-0.723368,-2.63928,-0.0944792,0.231888,-0.135385,0.19616,-0.000773628,-0.00290012,0.263223,-0.09015334076027448,0.21672156521154462,-0.0007733288270133087,0.2609784913281483,-0.002895918714384993,-0.12662040419300413
374,0.3646,59.197,996.251,0.0074276,243.529,-0.721349,-2.6315,-0.0947969,0.232656,-0.135834,0.196795,-0.000775662,-0.00290765,0.264105,-0.09044235313186877,0.21749442876366198,-0.00077536125199551,0.2619472947823962,-0.0029034268798487917,-0.12701246360759633
375,0.3656,59.2142,996.806,0.0073343,243.634,-0.719323,-2.62369,-0.0951143,0.233423,-0.136282,0.197428,-0.000777686,-0.00291515,0.264987,-0.09073100091815778,0.2182653467068567,-0.0007773836806176382,0.26291557964727064,-0.00291090507610392,-0.12740347443093591
376,0.3666,59.2313,997.359,0.00724158,243.739,-0.717287,-2.61584,-0.0954315,0.23419,-0.136731,0.198061,-0.000779701,-0.00292262,0.265867,-0.09101937530607074,0.21903675279559143,-0.0007793971121610177,0.2638846074715251,-0.0029183533038238396,-0.12779518232591325
377,0.3676,59.2483,997.911,0.00714944,243.844,-0.715244,-2.60797,-0.0957484,0.234956,-0.137179,0.198694,-0.000781707,-0.00293005,0.266747,-0.09130738562839036,0.21980864733896,-0.0007814015466799384,0.26485311397148115,-0.002925761592936893,-0.1281858425698027
378,0.3686,59.2653,998.46,0.00705789,243.948,-0.713191,-2.60006,-0.0960651,0.235722,-0.137627,0.199326,-0.000783703,-0.00293745,0.267627,-0.09159512301374195,0.22057981006583138,-0.0007833959850119809,0.2658223626316276,-0.002933139915001326,-0.1285763278371005
379,0.3696,59.2822,999.008,0.00696692,244.051,-0.711131,-2.59212,-0.0963815,0.236486,-0.138074,0.199957,-0.00078569,-0.0029448,0.268505,-0.09188249685188177,0.22135023897073958,-0.0007853814264315861,0.26678982043850197,-0.0029404683294910194,-0.1289657671723815
380,0.3706,59.299,999.554,0.00687654,244.154,-0.709062,-2.58415,-0.0966977,0.23725,-0.138521,0.200587,-0.000787668,-0.00295213,0.269383,-0.09216959821325987,0.22211993204915337,-0.0007873578709924889,0.2677580176655632,-0.0029477767490727613,-0.1293550324671805
381,0.3716,59.3157,1000.1,0.00678673,244.257,-0.706985,-2.57614,-0.0970136,0.238014,-0.138967,0.201217,-0.000789636,-0.00295942,0.27026,-0.09245633654448038,0.22289011018698401,-0.0007893243195371547,0.2687269548779445,-0.0029550452332866017,-0.1297432535429649
382,0.3726,59.3324,1000.64,0.0066975,244.36,-0.7049,-2.56811,-0.0973293,0.238777,-0.139413,0.201847,-0.000791595,-0.00296667,0.271136,-0.09274280285794645,0.22366077368991544,-0.0007912817713334741,0.26969536294521257,-0.002962273783005176,-0.13013130151075547
383,0.3736,59.3489,1001.18,0.00660885,244.462,-0.702807,-2.56005,-0.0976447,0.239539,-0.139859,0.202476,-0.000793545,-0.00297389,0.272012,-0.09302890665698416,0.2244306984325135,-0.0007932302264342939,0.2706632395259214,-0.0029694723694014824,-0.13051917644774125
384,0.3746,59.3654,1001.72,0.00652078,244.563,-0.700705,-2.55195,-0.0979599,0.240301,-0.140305,0.203104,-0.000795485,-0.00298107,0.272887,-0.09331473889607855,0.2251998824096184,-0.0007951686856874085,0.27163185390965205,-0.0029766310228902526,-0.13090687843107662
385,0.3756,59.3818,1002.25,0.00643328,244.664,-0.698596,-2.54383,-0.0982749,0.241062,-0.14075,0.203732,-0.000797416,-0.00298821,0.273761,-0.09360029977512663,0.2259695495859697,-0.0007970981483537143,0.2725999340582541,-0.0029837497443309102,-0.1312935388318549
386,0.3766,59.3982,1002.79,0.00634636,244.765,-0.696479,-2.53568,-0.0985896,0.241822,-0.141194,0.204359,-0.000799338,-0.00299532,0.274634,-0.09388549888235409,0.22673847352602494,-0.0007990186144855027,0.27356747762812383,-0.002990838504669635,-0.1316791588866264
387,0.3776,59.4145,1003.32,0.00626001,244.866,-0.694355,-2.5275,-0.098904,0.242582,-0.141638,0.204985,-0.00080125,-0.0030024,0.275507,-0.09417033650268525,0.2275066522252991,-0.0008009290849355644,0.27453575681060416,-0.0029978973045449164,-0.13206460776409779
388,0.3786,59.4307,1003.85,0.00617423,244.966,-0.692222,-2.51928,-0.0992182,0.243341,-0.142082,0.205611,-0.000803153,-0.00300943,0.276379,-0.09445490347514374,0.22827531195498585,-0.0008028305589582452,0.2755034966608385,-0.003004906204690516,-0.13244988554025494
389,0.3796,59.4468,1004.38,0.00608903,245.065,-0.690082,-2.51104,-0.0995322,0.2441,-0.142526,0.206236,-0.000805047,-0.00301644,0.27725,-0.0947391999985624,0.22904322397246624,-0.0008047230366049485,0.2764719713044379,-0.0030118951158017992,-0.13283499229104978
390,0.3806,59.4628,1004.91,0.00600439,245.165,-0.687935,-2.50278,-0.0998459,0.244857,-0.142969,0.206861,-0.000806931,-0.0030234,0.27812,-0.09502313577386812,0.22981161608497125,-0.0008066055187334609,0.2774386264195148,-0.0030188341288640563,-0.13321906131189565
391,0.3816,59.4788,1005.43,0.00592032,245.264,-0.68578,-2.49448,-0.100159,0.245615,-0.143412,0.207485,-0.000808806,-0.00303034,0.27899,-0.09530643967651697,0.23057925801278145,-0.000808479004591689,0.27840729197620684,-0.0030257531541461047,-0.13360296022784623
392,0.3826,59.4947,1005.96,0.00583682,245.362,-0.683617,-2.48615,-0.100473,0.246371,-0.143854,0.208108,-0.000810672,-0.00303723,0.279859,-0.09559046885954314,0.2313461477518728,-0.00081034349423037,0.2793741333089157,-0.0030326222830426852,-0.13398582310049756
393,0.3836,59.5106,1006.48,0.00575389,245.46,-0.681448,-2.4778,-0.100786,0.247127,-0.144296,0.208731,-0.000812529,-0.00304409,0.280727,-0.09587350474536316,0.23211351541212855,-0.000812198987699686,0.2803417058500344,-0.003039461455795478,-0.1343685167851525
394,0.3846,59.5263,1007.0,0.00567152,245.558,-0.679271,-2.46942,-0.101098,0.247883,-0.144738,0.209353,-0.000814376,-0.00305092,0.281595,-0.09615554821081407,0.23288012841064143,-0.0008140444858637519,0.28131001015256496,-0.0030462706730202127,-0.13475104135657556
395,0.3856,59.542,1007.52,0.00558971,245.656,-0.677086,-2.46101,-0.101411,0.248638,-0.145179,0.209975,-0.000816214,-0.00305771,0.282462,-0.0964384072544745,0.2336472183907654,-0.0008158809879622586,0.28227776449152264,-0.0030530399658605933,-0.13513253202246267
396,0.3866,59.5577,1008.03,0.00550846,245.753,-0.674895,-2.45258,-0.101723,0.249392,-0.14562,0.210596,-0.000818042,-0.00306446,0.283328,-0.0967202744978346,0.23441355123510688,-0.0008177074948624297,0.28324496651528985,-0.003059769335129192,-0.1355138544880572
397,0.3876,59.5732,1008.55,0.00542778,245.85,-0.672696,-2.44412,-0.102035,0.250145,-0.146061,0.211217,-0.000819862,-0.00307118,0.284193,-0.0970020538123324,0.2351803601199398,-0.0008195260049799202,0.2842116138721309,-0.0030664687509691646,-0.13589500882751882
398,0.3886,59.5887,1009.06,0.00534766,245.946,-0.670491,-2.43563,-0.102347,0.250898,-0.146501,0.211837,-0.000821672,-0.00307786,0.285058,-0.09728374522539751,0.23594640939395006,-0.0008213345200011046,0.28517898938854924,-0.003073128244715173,-0.13627513139053815
399,0.3896,59.6042,1009.57,0.00526809,246.042,-0.668278,-2.42712,-0.102659,0.251651,-0.146941,0.212456,-0.000823472,-0.00308451,0.285922,-0.09756534876445067,0.23671169705345996,-0.0008231330399803838,0.2861470936130557,-0.0030797577863691528,-0.13665508673642024
400,0.3906,59.6199,1010.09,0.0152255,246.135,-0.666051,-2.41855,-0.10297,0.252403,-0.14738,0.213075,-0.000825264,-0.00309112,0.286785,-0.09784596230331788,0.23747745857267533,-0.0008249235633216445,0.28711463997929054,-0.003086347407391443,-0.137034011973168
401,0.3916,59.6336,1010.59,0.00260947,246.233,-0.66388,-2.41019,-0.103281,0.253154,-0.147819,0.213693,-0.000827047,-0.0030977,0.287648,-0.09812648858494366,0.2382424560019314,-0.0008267050908946638,0.2880816261317667,-0.0030929070776440915,-0.13741277089824477
402,0.3926,59.6507,1011.1,0.00687115,246.327,-0.66166,-2.40164,-0.103592,0.253904,-0.148258,0.214311,-0.00082882,-0.00310424,0.28851,-0.09840692763646086,0.2390079263457141,-0.0008284766235761021,0.28904804971490816,-0.003099426828712226,-0.1377913635846456
403,0.3936,59.6644,1011.6,0.00415016,246.423,-0.659447,-2.39313,-0.103902,0.254654,-0.148696,0.214928,-0.000830584,-0.00311075,0.289371,-0.09868637817182269,0.23977263012312533,-0.0008302391605887749,0.2900151983876116,-0.0031059166303192276,-0.1381689282746923
404,0.3946,59.6802,1012.11,0.0053176,246.516,-0.657219,-2.38455,-0.104213,0.255403,-0.149134,0.215545,-0.000832339,-0.00311722,0.290232,-0.09896664312475212,0.24053780586835405,-0.0008319927019803108,0.2909817817114708,-0.003112366514173237,-0.1385463276276162
405,0.3956,59.6947,1012.61,0.00457071,246.61,-0.654989,-2.37597,-0.104523,0.256152,-0.149572,0.216161,-0.000834085,-0.00312366,0.291092,-0.09924592017520406,0.2413022125698614,-0.0008337372477981164,0.29194908927743435,-0.0031187864498607443,-0.1389235617158191
406,0.3966,59.7099,1013.11,0.00483587,246.704,-0.652749,-2.36735,-0.104832,0.2569,-0.150009,0.216776,-0.000835821,-0.00313006,0.291951,-0.09952421018784874,0.24206584822448685,-0.0008354717989246252,0.29291582871168775,-0.003125166469211349,-0.13929976991187143
407,0.3976,59.7245,1013.61,0.00458122,246.797,-0.650504,-2.35871,-0.105142,0.257648,-0.150446,0.217391,-0.000837548,-0.00313643,0.292809,-0.09980331441929946,0.24282995365948268,-0.0008371973545747702,0.29388329153755266,-0.0031315165416759827,-0.1396758137408589
408,0.3986,59.7394,1014.1,0.00459915,246.89,-0.648252,-2.35005,-0.105451,0.258395,-0.150883,0.218005,-0.000839266,-0.00314276,0.293667,-0.10008143222373023,0.24359328556994497,-0.0008389139147951807,0.29485018344549774,-0.0031378266992045933,-0.14005169327459432
409,0.3996,59.7541,1014.6,0.00447631,246.983,-0.645993,-2.34136,-0.105761,0.259141,-0.151319,0.218619,-0.000840975,-0.00314906,0.294524,-0.10036036374312152,0.24435708631011632,-0.0008406214796322642,0.29581650207438237,-0.0031441069111136644,-0.1404265490118376
410,0.4006,59.7687,1015.09,0.00442767,247.075,-0.643728,-2.33264,-0.106069,0.259887,-0.151755,0.219232,-0.000842675,-0.00315532,0.29538,-0.10063741008376204,0.24512011104721299,-0.0008423200491319838,0.2967835418459168,-0.0031503472094722706,-0.14080124134760363
411,0.4016,59.7833,1015.58,0.00434126,247.167,-0.641456,-2.32391,-0.106378,0.260632,-0.15219,0.219845,-0.000844365,-0.00316154,0.296235,-0.1009152701924485,0.24588360366186324,-0.0008440086241842115,0.2977500055476199,-0.0031565475950293687,-0.14117491152846073
412,0.4026,59.7979,1016.07,0.00427533,247.258,-0.639178,-2.31514,-0.106686,0.261376,-0.152626,0.220457,-0.000846046,-0.00316773,0.29709,-0.10119214564822021,0.2466463177940228,-0.0008456882039939995,0.29871589081651306,-0.003162718036902268,-0.1415492776492896
413,0.4036,59.8123,1016.56,0.00419958,247.35,-0.636893,-2.30635,-0.106995,0.26212,-0.15306,0.221068,-0.000847718,-0.00317389,0.297944,-0.10146983437009793,0.24740825144122036,-0.0008473587886067557,0.29968249497143873,-0.0031688585356464127,-0.1419217644273123
414,0.4046,59.8268,1017.05,0.00412976,247.441,-0.634603,-2.29754,-0.107303,0.262863,-0.153495,0.221679,-0.000849381,-0.00318001,0.298798,-0.1017465390464043,0.2481706507721282,-0.0008490203780674443,0.30064851789827873,-0.003174959123564358,-0.14229494728662984
415,0.4056,59.8411,1017.54,0.00405768,247.531,-0.632306,-2.28871,-0.10761,0.263606,-0.153929,0.222289,-0.000851034,-0.0031861,0.299651,-0.10202226053350327,0.2489322671384746,-0.0008506719732717105,0.30161525884686546,-0.0031810297695781253,-0.14266711051424552
416,0.4066,59.8554,1018.02,0.00398759,247.622,-0.630003,-2.27985,-0.107918,0.264348,-0.154362,0.222899,-0.000852678,-0.00319214,0.300503,-0.10229879508875139,0.24969434823253178,-0.0008523145734168347,0.30258141576882047,-0.003187050537975522,-0.14303825529674863
417,0.4076,59.8697,1018.5,0.00391729,247.712,-0.627693,-2.27097,-0.108225,0.26509,-0.154796,0.223508,-0.000854314,-0.00319816,0.301354,-0.10257434705926738,0.25045564388160146,-0.0008539491776929919,0.3035482898452426,-0.003193051333868935,-0.14341009599868093
418,0.4086,59.8838,1018.98,0.00384791,247.801,-0.625378,-2.26207,-0.108532,0.265831,-0.155229,0.224117,-0.00085594,-0.00320414,0.302205,-0.10284981444831243,0.2512174033009249,-0.0008555737878508385,0.30451457709322916,-0.003199012221598907,-0.14378091913811009
419,0.4096,59.898,1019.46,0.00377886,247.891,-0.623057,-2.25314,-0.108839,0.266571,-0.155661,0.224725,-0.000857556,-0.00321008,0.303055,-0.10312519728184899,0.25197837479402385,-0.0008571884039390021,0.30548027514448917,-0.0032049332018809773,-0.14415072589703126
420,0.4106,59.9121,1019.94,0.00371045,247.98,-0.62073,-2.24419,-0.109145,0.267311,-0.156094,0.225332,-0.000859164,-0.00321599,0.303904,-0.10339959898587892,0.2527385563592881,-0.0008587950242883169,0.30644668807678044,-0.003210824243317645,-0.1445212284131343
421,0.4116,59.9261,1020.42,0.00364252,248.069,-0.618397,-2.23522,-0.109452,0.26805,-0.156526,0.225939,-0.000860762,-0.00322187,0.304753,-0.10367481306146809,0.253499199494835,-0.0008603916506582099,0.3074125090061479,-0.003216685346439485,-0.14489071542751852
422,0.4126,59.94,1020.89,0.00357514,248.157,-0.616059,-2.22623,-0.109758,0.268788,-0.156957,0.226546,-0.000862351,-0.00322771,0.305601,-0.10394904660879867,0.2542603044809226,-0.0008619792822345262,0.3083777355625852,-0.0032225065439991374,-0.14525918811760052
423,0.4136,59.954,1021.37,0.00350828,248.246,-0.613714,-2.21722,-0.110064,0.269526,-0.157388,0.227151,-0.000863931,-0.00323351,0.306448,-0.10422319625350152,0.2550193615567462,-0.0008635579190601206,0.3093436747191378,-0.003228287836695376,-0.14562750203017216
424,0.4146,59.9678,1021.84,0.00344196,248.333,-0.611364,-2.20818,-0.110369,0.270264,-0.157819,0.227757,-0.000865502,-0.00323928,0.307294,-0.10449636651806127,0.25578013378055164,-0.0008651275611776255,0.31031032700189964,-0.003234039192881899,-0.1459956572336517
425,0.4156,59.9816,1022.31,0.00337616,248.421,-0.609009,-2.19912,-0.110675,0.271,-0.15825,0.228361,-0.000867064,-0.00324501,0.30814,-0.10477034870849367,0.256538854091823,-0.0008666882086295624,0.3112750703845879,-0.0032397506454739933,-0.14636365379642813
426,0.4166,59.9954,1022.78,0.00331088,248.508,-0.606648,-2.19005,-0.11098,0.271737,-0.15868,0.228966,-0.000868616,-0.00325071,0.308986,-0.10504335211700144,0.25729929010724817,-0.0008682388623261206,0.31224183632094915,-0.0032454321627030103,-0.1467306385179259
427,0.4176,60.0091,1023.25,0.00324613,248.596,-0.604281,-2.18095,-0.111285,0.272472,-0.15911,0.229569,-0.00087016,-0.00325638,0.30983,-0.10531627227216644,0.2580576702078037,-0.0008697815205743753,0.313206688610425,-0.0032510837450803187,-0.1470974654699163
428,0.4186,60.0227,1023.72,0.0031819,248.682,-0.60191,-2.17183,-0.111589,0.273207,-0.159539,0.230172,-0.000871694,-0.00326201,0.310674,-0.10558821478803893,0.2588165077494644,-0.0008713141851539596,0.3141722503270161,-0.003256695425681966,-0.14746328218393412
429,0.4196,60.0363,1024.18,0.00311819,248.769,-0.599532,-2.16269,-0.111894,0.273942,-0.159968,0.230775,-0.000873219,-0.0032676,0.311517,-0.10586096878542961,0.25957580300815075,-0.0008728378552380622,0.31513852199234327,-0.0032622672051814128,-0.14782894199623942
430,0.4206,60.0499,1024.65,0.003055,248.855,-0.59715,-2.15353,-0.112198,0.274676,-0.160397,0.231377,-0.000874735,-0.00327316,0.312359,-0.10613274573872888,0.2603342959250228,-0.0008743525308677613,0.3161041880235642,-0.003267809051569426,-0.1481944449741287
431,0.4216,60.0634,1025.11,0.00299232,248.941,-0.594762,-2.14436,-0.112502,0.275409,-0.160826,0.231978,-0.000876242,-0.00327869,0.313201,-0.10640444008439132,0.2610919844994839,-0.0008758582120839131,0.3170692460439404,-0.003273320965344939,-0.1485597911848694
432,0.4226,60.0768,1025.57,0.00293017,249.027,-0.59237,-2.13516,-0.112806,0.276142,-0.161254,0.232579,-0.00087774,-0.00328418,0.314042,-0.10667605184752593,0.2618501285816446,-0.0008773548989272628,0.3180350117111663,-0.0032787929797920556,-0.14892412962025536
433,0.4236,60.0902,1026.03,0.00286852,249.112,-0.589972,-2.12594,-0.113109,0.276874,-0.161681,0.233179,-0.000879228,-0.00328963,0.314883,-0.10694668800036844,0.26260746583725014,-0.0008788415923171033,0.3190001665433113,-0.0032842250955678054,-0.14928746144004346
434,0.4246,60.1036,1026.49,0.00280739,249.197,-0.587569,-2.11671,-0.113413,0.277605,-0.162109,0.233779,-0.000880708,-0.00329505,0.315722,-0.10721813494519017,0.26336525763155705,-0.0008803202905373064,0.3199647081620651,-0.0032896272804279203,-0.14965148849919951
435,0.4256,60.1169,1026.94,0.00274677,249.282,-0.585161,-2.10745,-0.113716,0.278336,-0.162536,0.234378,-0.000882178,-0.00330044,0.316561,-0.10748860687173556,0.26412224011449825,-0.000881788995387045,0.3209299551185114,-0.003294999534858567,-0.1500145098030462
436,0.4266,60.1301,1027.4,0.00268666,249.367,-0.582748,-2.09818,-0.114018,0.279067,-0.162962,0.234977,-0.000883639,-0.00330579,0.3174,-0.10775810461625268,0.2648796761657768,-0.0008832487060269623,0.32189590792844136,-0.0033003318923470193,-0.15037652650683742
437,0.4276,60.1433,1027.85,0.00262707,249.451,-0.580331,-2.08889,-0.114321,0.279796,-0.163389,0.235575,-0.000885091,-0.0033111,0.318238,-0.10802841295677224,0.26563630042022823,-0.0008846994224965821,0.3228599213855332,-0.0033056243535332097,-0.15073923828554314
438,0.4286,60.1565,1028.31,0.00256797,249.535,-0.577909,-2.07958,-0.114623,0.280526,-0.163815,0.236173,-0.000886535,-0.00331638,0.319075,-0.10829774770446543,0.26639337727129697,-0.000886142143948998,0.3238259616899555,-0.003310886885943498,-0.15110094632075188
439,0.4296,60.1696,1028.76,0.00250939,249.619,-0.575481,-2.07025,-0.114926,0.281254,-0.16424,0.23677,-0.000887969,-0.00332163,0.319911,-0.10856789255789878,0.26714963983944284,-0.0008875748721939303,0.3247900578784988,-0.0033161194900517277,-0.15146165176322968
440,0.4306,60.1826,1029.21,0.00245131,249.702,-0.57305,-2.06091,-0.115228,0.281982,-0.164666,0.237366,-0.000889393,-0.00332684,0.320747,-0.1088370644073513,0.2679050861254182,-0.0008889976072743444,0.3257548561846071,-0.0033213121995422368,-0.15182305211583802
441,0.4316,60.1956,1029.66,0.00239373,249.785,-0.570613,-2.05154,-0.115529,0.28271,-0.165091,0.237962,-0.000890809,-0.00333202,0.321582,-0.1091052640848883,0.26866098279158,-0.0008904123474520187,0.32672035711960823,-0.0033264749817734085,-0.15218345072855877
442,0.4326,60.2086,1030.11,0.00233665,249.868,-0.568172,-2.04216,-0.115831,0.283437,-0.165515,0.238558,-0.000892216,-0.00333716,0.322416,-0.1093742736726423,0.26941733010643465,-0.0008918180936529074,0.3276852335093048,-0.0033315978705261706,-0.15254284874768553
443,0.4336,60.2215,1030.55,0.00228007,249.951,-0.565727,-2.03277,-0.116132,0.284163,-0.16594,0.239153,-0.000893614,-0.00334227,0.32325,-0.10964231167452387,0.2701728581651557,-0.0008932148459148692,0.3286494829690336,-0.003336690833048439,-0.15290294151183526
444,0.4346,60.2344,1031.0,0.00222399,250.033,-0.563277,-2.02335,-0.116433,0.284889,-0.166363,0.239747,-0.000895002,-0.00334734,0.324083,-0.10991026900910783,0.2709275649686358,-0.0008946016051702976,0.32961443272804813,-0.0033417439032163987,-0.15326118779314557
445,0.4356,60.2472,1031.44,0.00216841,250.116,-0.560823,-2.01392,-0.116734,0.285614,-0.166787,0.240341,-0.000896382,-0.00335238,0.324915,-0.11017814570067153,0.2716827202011274,-0.0008959803696687585,0.33057875271553216,-0.0033467670481688305,-0.15362012894861887
446,0.4366,60.26,1031.88,0.00211332,250.198,-0.558365,-2.00448,-0.117034,0.286339,-0.16721,0.240935,-0.000897753,-0.00335739,0.325747,-0.11044505221898182,0.2724383241290764,-0.000897350140340647,0.33154377208850394,-0.0033517602683578174,-0.1539780719237972
447,0.4376,60.2728,1032.32,0.00205873,250.279,-0.555902,-1.99501,-0.117335,0.287063,-0.167633,0.241527,-0.000899114,-0.00336236,0.326578,-0.11071276796502283,0.27319183063287955,-0.0008987099181217983,0.3325081588453762,-0.0033567135978003204,-0.1543358635211156
448,0.4386,60.2854,1032.76,0.00200463,250.361,-0.553435,-1.98553,-0.117635,0.287787,-0.168056,0.24212,-0.000900467,-0.00336729,0.327408,-0.11097951412070939,0.27394705729101787,-0.0009000617012527856,0.3334732440710757,-0.003361627037090642,-0.15469350380459357
449,0.4396,60.2981,1033.2,0.00195102,250.442,-0.550964,-1.97604,-0.117935,0.28851,-0.168478,0.242711,-0.00090181,-0.00337219,0.328238,-0.11124618026455158,0.2747001825284634,-0.000901403491568975,0.33443769383311595,-0.0033665105531535122,-0.15505014788879345
450,0.4406,60.3107,1033.64,0.0018979,250.523,-0.548488,-1.96653,-0.118235,0.289232,-0.1689,0.243303,-0.000903145,-0.00337706,0.329067,-0.11151276642054941,0.27545502844886727,-0.0009027372873049444,0.3354015057422943,-0.0033713641464285793,-0.15540664150094174
451,0.4416,60.3233,1034.08,0.00184526,250.604,-0.546009,-1.957,-0.118534,0.289954,-0.169322,0.243893,-0.00090447,-0.00338189,0.329895,-0.1117783843915241,0.27620776895226484,-0.000904061090301056,0.3363660137749416,-0.003376177851114659,-0.1557629847045242
452,0.4426,60.3358,1034.51,0.00179312,250.684,-0.543526,-1.94746,-0.118833,0.290675,-0.169743,0.244484,-0.000905787,-0.00338669,0.330723,-0.11204392295459764,0.27696223066519177,-0.0009053768987861144,0.3373298811032903,-0.0033809616339799398,-0.15611833368175532
453,0.4436,60.3483,1034.94,0.00174146,250.764,-0.541038,-1.93791,-0.119132,0.291396,-0.170164,0.245073,-0.000907094,-0.00339145,0.33155,-0.11230938213350927,0.27771458296505536,-0.0009066827146051448,0.33829444363057193,-0.0033857055293120553,-0.15647353308855383
454,0.4446,60.3607,1035.38,0.00169028,250.844,-0.538547,-1.92833,-0.119431,0.292116,-0.170584,0.245662,-0.000908393,-0.00339618,0.332377,-0.11257476195199134,0.2784673785309526,-0.0009079805359814008,0.3392583625991734,-0.0033904195037763873,-0.15682773981603704
455,0.4456,60.3731,1035.81,0.00163958,250.924,-0.536052,-1.91875,-0.11973,0.292836,-0.171004,0.246251,-0.000909683,-0.00340088,0.333202,-0.1128400624337692,0.27922061762404393,-0.0009092693638551586,0.34022297583934,-0.0033951035577971522,-0.1571817978079314
456,0.4466,60.3854,1036.24,0.00158936,251.003,-0.533554,-1.90915,-0.120028,0.293555,-0.171424,0.246839,-0.000910963,-0.00340554,0.334027,-0.11310439670740102,0.2799730205319837,-0.0009105481991719122,0.3411869426635139,-0.003399747725793656,-0.15753570712669263
457,0.4476,60.3977,1036.67,0.00153962,251.083,-0.531051,-1.89954,-0.120326,0.294273,-0.171844,0.247427,-0.000912235,-0.00341016,0.334852,-0.11336865222115511,0.28072586598292815,-0.0009118190401463666,0.34215026067812904,-0.0034043520083232304,-0.15788946783475044
458,0.4486,60.41,1037.09,0.00149036,251.162,-0.528545,-1.88991,-0.120624,0.294991,-0.172263,0.248014,-0.000913498,-0.00341476,0.335676,-0.11363282899849836,0.28147787275865555,-0.0009130808877221286,0.3431142706034451,-0.003408936337760071,-0.15824223823716732
459,0.4496,60.4222,1037.52,0.00144158,251.24,-0.526035,-1.88027,-0.120922,0.295708,-0.172682,0.2486,-0.000914751,-0.00341931,0.336499,-0.11389692706289078,0.2822290388622648,-0.0009143327428474679,0.3440776288581311,-0.0034134708167837813,-0.1585948608597476
460,0.4506,60.4344,1037.94,0.00139326,251.319,-0.523522,-1.87061,-0.121219,0.296425,-0.1731,0.249186,-0.000915996,-0.00342384,0.337321,-0.11416006059828887,0.28298064527820976,-0.0009155766037288737,0.3450416780883707,-0.0034179853435355456,-0.1589464947113134
461,0.4516,60.4466,1038.37,0.00134542,251.397,-0.521005,-1.86094,-0.121516,0.297142,-0.173519,0.249772,-0.000917232,-0.00342833,0.338143,-0.11442311599463117,0.2837326922645891,-0.0009168114713130615,0.34600641878977134,-0.0034224599867357375,-0.15929882231224235
462,0.4526,60.4587,1038.79,0.00129805,251.475,-0.518485,-1.85126,-0.121813,0.297857,-0.173936,0.250357,-0.000918459,-0.00343278,0.338965,-0.11468609327512158,0.28448389559511456,-0.0009180373456333379,0.3469691575172864,-0.0034268947469214828,-0.15964932161915368
463,0.4536,60.4708,1039.21,0.00125115,251.553,-0.515961,-1.84157,-0.12211,0.298572,-0.174354,0.250941,-0.000919678,-0.00343721,0.339785,-0.11494899246295687,0.2852342532732579,-0.0009192552258034947,0.34793258484913836,-0.003431309555998907,-0.16000051479822897
464,0.4546,60.4828,1039.63,0.00120472,251.631,-0.513435,-1.83186,-0.122407,0.299287,-0.174771,0.251525,-0.000920887,-0.00344159,0.340605,-0.11521181358132737,0.2859850492882674,-0.0009204631136937591,0.34889670127785544,-0.003435674517303866,-0.16035072156037344
465,0.4556,60.4948,1040.05,0.00115876,251.708,-0.510904,-1.82214,-0.122703,0.300001,-0.175188,0.252108,-0.000922087,-0.00344595,0.341424,-0.11547367212753057,0.2867349971605655,-0.0009216620084186999,0.3498601574354856,-0.003440019528290761,-0.16070078231674245
466,0.4566,60.5067,1040.47,0.00111325,251.785,-0.508371,-1.81241,-0.122999,0.300715,-0.175605,0.252691,-0.000923279,-0.00345027,0.342243,-0.11573545317507439,0.2874853823799477,-0.0009228529090877791,0.35082430174645385,-0.0034443246581072895,-0.16105069712820763
467,0.4576,60.5186,1040.89,0.00106821,251.862,-0.505834,-1.80266,-0.123295,0.301427,-0.176021,0.253274,-0.000924461,-0.00345455,0.343061,-0.11599715674689526,0.2882362052014613,-0.000924033817577663,0.35178643112671115,-0.00344858990727015,-0.16139962745566216
468,0.4586,60.5305,1041.3,0.00102364,251.939,-0.503294,-1.79291,-0.123591,0.30214,-0.176437,0.253856,-0.000925635,-0.00345881,0.343878,-0.11625878286592228,0.2889861768934814,-0.0009252067320735247,0.35275059853694013,-0.003452835207234717,-0.16174841265828843
469,0.4596,60.5423,1041.72,0.000979517,252.015,-0.500751,-1.78314,-0.123886,0.302852,-0.176852,0.254437,-0.0009268,-0.00346303,0.344695,-0.11651944807496817,0.28973529546012733,-0.000926370653529629,0.3537140999288906,-0.0034570406273966015,-0.1620962148930799
470,0.4606,60.5541,1042.13,0.000935856,252.092,-0.498205,-1.77336,-0.124182,0.303563,-0.177268,0.255018,-0.000927956,-0.00346721,0.345511,-0.11678091961864034,0.2904848493911216,-0.0009275255819776174,0.3546769329005004,-0.003461206168260844,-0.16244471037559827
471,0.4616,60.5659,1042.54,0.000892652,252.168,-0.495656,-1.76357,-0.124477,0.304274,-0.177683,0.255598,-0.000929104,-0.00347136,0.346327,-0.11704143082006147,0.2912335477052912,-0.0009286725165199572,0.3556404506897768,-0.0034653417956738153,-0.16279222370678859
472,0.4626,60.5776,1042.95,0.000849903,252.244,-0.493104,-1.75377,-0.124772,0.304984,-0.178097,0.256178,-0.000930242,-0.00347548,0.347141,-0.11730186518201247,0.2919826803904382,-0.0009298094590437511,0.356603297179823,-0.0034694475100078837,-0.16313875598904204
473,0.4636,60.5893,1043.36,0.000807607,252.319,-0.490549,-1.74395,-0.125066,0.305694,-0.178511,0.256758,-0.000931372,-0.00347956,0.347956,-0.11756134028893928,0.2927322476985712,-0.0009309384077211824,0.3575668275336201,-0.003473513346367696,-0.16348514483662369
474,0.4646,60.601,1043.77,0.000765762,252.395,-0.487992,-1.73413,-0.125361,0.306403,-0.178925,0.257336,-0.000932492,-0.00348361,0.348769,-0.11782162130021723,0.29347966291993166,-0.0009320573644435726,0.3585296837065204,-0.0034775492704658406,-0.16383139030890304
475,0.4656,60.6126,1044.18,0.000724368,252.47,-0.485431,-1.72429,-0.125655,0.307111,-0.179339,0.257915,-0.000933605,-0.00348763,0.349582,-0.11808094362130583,0.2942288045003212,-0.0009331693264448271,0.35949186329396654,-0.0034815552826656937,-0.1641774924652255
476,0.4666,60.6242,1044.59,0.000683421,252.545,-0.482868,-1.71445,-0.125949,0.307819,-0.179752,0.258493,-0.000934708,-0.00349161,0.350394,-0.11834018971283844,0.29497708498154895,-0.0009342712965513256,0.3604547243457703,-0.003485521418183035,-0.16452261588794492
477,0.4676,60.6357,1044.99,0.000642922,252.62,-0.480302,-1.70459,-0.126243,0.308527,-0.180165,0.25907,-0.000935802,-0.00349556,0.351206,-0.11859935959722301,0.29572450236876335,-0.0009353642738607615,0.3614182673445796,-0.0034894576425994472,-0.16486759680412044
478,0.4686,60.6472,1045.4,0.000602868,252.694,-0.477733,-1.69473,-0.126536,0.309234,-0.180578,0.259647,-0.000936888,-0.00349948,0.352017,-0.11885757215487402,0.2964723511402523,-0.0009364492574659433,0.36238113039157227,-0.003493363956269091,-0.165212435272595
479,0.4696,60.6587,1045.8,0.000563257,252.768,-0.475162,-1.68485,-0.126829,0.30994,-0.18099,0.260223,-0.000937965,-0.00350336,0.352827,-0.11911570906732827,0.2972193343250136,-0.000937525248330684,0.36334331107944595,-0.0034972303945159933,-0.1655562969089016
480,0.4706,60.6701,1046.2,0.000524088,252.843,-0.472588,-1.67497,-0.127123,0.310646,-0.181402,0.260799,-0.000939033,-0.00350721,0.353637,-0.11937465098253586,0.29796674789602884,-0.0009385922464839602,0.3643061713067346,-0.0035010669227937274,-0.16590001690339418
481,0.4716,60.6815,1046.61,0.00048536,252.917,-0.470012,-1.66507,-0.127415,0.311351,-0.181814,0.261374,-0.000940093,-0.00351103,0.354446,-0.11963175604528287,0.2987132933873289,-0.0009396512510149169,0.36526834628433336,-0.003504873541447462,-0.16624359531441735
482,0.4726,60.6929,1047.01,0.00044707,252.99,-0.467433,-1.65517,-0.127708,0.312056,-0.182225,0.261949,-0.000941144,-0.00351481,0.355255,-0.11988966615508545,0.2994602682657235,-0.0009407012628896982,0.36623119983446006,-0.0035086402859062504,-0.16658619878690673
483,0.4736,60.7042,1047.41,0.000409217,253.064,-0.464852,-1.64525,-0.128001,0.31276,-0.182636,0.262524,-0.000942186,-0.00351856,0.356062,-0.12014750070829538,0.30020767277818083,-0.000941742282136615,0.36719336524162816,-0.0035123771214986554,-0.16692866147830143
484,0.4746,60.7155,1047.8,0.0003718,253.137,-0.462269,-1.63533,-0.128293,0.313464,-0.183047,0.263098,-0.000943219,-0.00352227,0.35687,-0.1204043801318675,0.30095420621695546,-0.0009427743087837559,0.3681562082517311,-0.0035160740837216764,-0.16727098344645064
485,0.4756,60.7268,1048.2,0.000334816,253.21,-0.459683,-1.6254,-0.128585,0.314167,-0.183457,0.263671,-0.000944244,-0.00352596,0.357676,-0.12066118455759822,0.3016998665884123,-0.0009437983419152696,0.36911836022292466,-0.003519751102624147,-0.16761233236192818
486,0.4766,60.738,1048.6,0.000298265,253.283,-0.457095,-1.61546,-0.128877,0.31487,-0.183867,0.264244,-0.00094526,-0.00352961,0.358482,-0.1209179140073835,0.30244595434569654,-0.00094481338250052,0.3700811888247617,-0.0035233882488948653,-0.16795354135303686
487,0.4776,60.7492,1048.99,0.000262144,253.356,-0.454505,-1.60551,-0.129168,0.315572,-0.184277,0.264816,-0.000946267,-0.00353322,0.359288,-0.12117368967724251,0.303191166541952,-0.0009458194305669299,0.37104332348907176,-0.0035269855229701497,-0.1682946104771339
488,0.4786,60.7604,1049.39,0.000226451,253.428,-0.451912,-1.59555,-0.12946,0.316274,-0.184686,0.265388,-0.000947266,-0.00353681,0.360092,-0.1214302694973799,0.30393680512151766,-0.0009468174851947619,0.3720061338090437,-0.0035305628546707934,-0.16863470842667705
489,0.4796,60.7715,1049.78,0.000191186,253.501,-0.449317,-1.58559,-0.129751,0.316975,-0.185096,0.265959,-0.000948256,-0.00354036,0.360896,-0.12168589609348257,0.3046815656461366,-0.0009478065473558228,0.3729682472902205,-0.003534100314893762,-0.1689754983295182
490,0.4806,60.7826,1050.17,0.000156347,253.573,-0.446721,-1.57561,-0.130042,0.317675,-0.185504,0.26653,-0.000949238,-0.00354388,0.3617,-0.12194144831306797,0.3054267515504494,-0.000948787616128155,0.37392966151904594,-0.003537607868687287,-0.1693144871677743
491,0.4816,60.7937,1050.56,0.000121931,253.645,-0.444122,-1.56563,-0.130333,0.318375,-0.185913,0.267101,-0.000950211,-0.00354736,0.362503,-0.12219692617777678,0.30617236307741735,-0.0009497596924848972,0.37489174897343314,-0.0035410755517781833,-0.16965416807304234
492,0.4826,60.8047,1050.95,8.79378e-05,253.717,-0.441521,-1.55564,-0.130623,0.319075,-0.186321,0.267671,-0.000951175,-0.00355081,0.363305,-0.12245145216113384,0.30691709355239327,-0.0009507227764522508,0.37585451012480475,-0.0035445133291373,-0.16999288007052238
493,0.4836,60.8158,1051.34,5.4365e-05,253.788,-0.438919,-1.54565,-0.130914,0.319774,-0.186729,0.26824,-0.00095213,-0.00355423,0.364107,-0.12270678163631443,0.30766094098314944,-0.0009516768680564169,0.3768165686276568,-0.0035479212010742778,-0.17033145390169535
494,0.4846,60.8267,1051.73,2.12112e-05,253.859,-0.436314,-1.53564,-0.131204,0.320472,-0.187136,0.268809,-0.000953077,-0.00355762,0.364908,-0.12296115978302591,0.3084052117835312,-0.0009526229663704422,0.37777792206587746,-0.0035512991678957606,-0.1706690602923966
495,0.4856,60.8377,1052.12,-1.15253e-05,253.931,-0.433708,-1.52563,-0.131494,0.32117,-0.187544,0.269378,-0.000954016,-0.00356097,0.365708,-0.12321546417077034,0.309149906194504,-0.0009535610714170861,0.37873994676304035,-0.003554637265452243,-0.17100735829831115
496,0.4866,60.8486,1052.5,-4.38461e-05,254.002,-0.431099,-1.51561,-0.131783,0.321867,-0.187951,0.269946,-0.000954946,-0.00356429,0.366508,-0.1234688182901914,0.30989371456280157,-0.0009544901841732623,0.37970126348589406,-0.003557945458564915,-0.17134468965189675
497,0.4876,60.8595,1052.89,-7.5753e-05,254.072,-0.428489,-1.50559,-0.132073,0.322564,-0.188357,0.270513,-0.000955867,-0.00356758,0.367307,-0.12372297547831368,0.31063663489697,-0.0009554103046640616,0.380663250480066,-0.003561223747531539,-0.17168105542102652
498,0.4886,60.8703,1053.27,-0.000107248,254.143,-0.425877,-1.49556,-0.132362,0.32326,-0.188763,0.27108,-0.00095678,-0.00357083,0.368106,-0.12397618294815882,0.3113799765864109,-0.0009563224319580899,0.38162452658768076,-0.003564462168291982,-0.17201728465337285
499,0.4896,60.8811,1053.65,-0.000138331,254.213,-0.423264,-1.48552,-0.132651,0.323956,-0.189169,0.271647,-0.000957684,-0.00357406,0.368904,-0.12422931725161801,0.31212373987010045,-0.0009572255670343699,0.3825864719763492,-0.003567680649881333,-0.17235337740435852
500,0.4906,60.8919,1054.04,-0.000169006,254.284,-0.420649,-1.47548,-0.13294,0.324651,-0.189575,0.272213,-0.00095858,-0.00357725,0.369701,-0.12448237840983367,0.31286661211988154,-0.0009581207089592869,0.38354770356365786,-0.0035708592639100978,-0.17268933372938355
501,0.4916,60.9027,1054.42,-0.000199274,254.354,-0.418032,-1.46543,-0.133229,0.325346,-0.18998,0.272778,-0.000959467,-0.0035804,0.370498,-0.12473536644394145,0.3136085913451223,-0.0009590068587131961,0.3845096034391229,-0.00357399801075986,-0.17302432670856593
502,0.4926,60.9134,1054.8,-0.000229136,254.424,-0.415414,-1.45537,-0.133517,0.32604,-0.190385,0.273343,-0.000960346,-0.00358353,0.371294,-0.12498740636291517,0.31435098990707666,-0.0009598850153601513,0.3854707865958866,-0.0035771168192652025,-0.1733591840430616
503,0.4936,60.9241,1055.18,-0.000258594,254.493,-0.412794,-1.44531,-0.133806,0.326734,-0.19079,0.273908,-0.000961216,-0.00358662,0.372089,-0.1252402484650328,0.3150938080427368,-0.0009607541798821728,0.3864326370452851,-0.003580195761217264,-0.17369390578779564
504,0.4946,60.9348,1055.55,-0.000287649,254.563,-0.410173,-1.43524,-0.134094,0.327427,-0.191194,0.274472,-0.000962078,-0.00358968,0.372884,-0.12549214299892086,0.31583573015284117,-0.0009616153513408721,0.3873937678561181,-0.0035832448011532403,-0.1740276660257497
505,0.4956,60.9454,1055.93,-0.000316304,254.632,-0.40755,-1.42517,-0.134381,0.32812,-0.191598,0.275036,-0.000962931,-0.00359271,0.373678,-0.12574309074115664,0.31657807082503897,-0.0009624675307194908,0.38835556496144763,-0.003586263939347467,-0.17436129145180146
506,0.4966,60.956,1056.31,-0.00034456,254.701,-0.404926,-1.41509,-0.134669,0.328812,-0.192002,0.275599,-0.000963776,-0.00359571,0.374472,-0.125994840477321,0.31731951297529415,-0.0009633117170777528,0.38931663950584117,-0.0035892531760717272,-0.174694782120404
507,0.4976,60.9666,1056.68,-0.000372418,254.77,-0.402301,-1.40501,-0.134956,0.329504,-0.192406,0.276162,-0.000964612,-0.00359867,0.375265,-0.12624564396608184,0.3180613726750092,-0.0009641469114001211,0.3902783793439848,-0.0035922025475172426,-0.17502813808598816
508,0.4986,60.9772,1057.06,-0.000399881,254.839,-0.399674,-1.39492,-0.135244,0.330195,-0.192809,0.276724,-0.00096544,-0.0036016,0.376058,-0.1264972489877575,0.31880233135633973,-0.0009649741127439881,0.39123939369633143,-0.0035951220180867605,-0.17536053476391023
509,0.4996,60.9877,1057.43,-0.00042695,254.908,-0.397046,-1.38482,-0.135531,0.330885,-0.193212,0.277286,-0.00096626,-0.0036045,0.37685,-0.12674790830596527,0.31954370657348474,-0.0009657933211293379,0.3921996801387051,-0.0035980115880430708,-0.17569279751295963
510,0.5006,60.9982,1057.8,-0.000453626,254.976,-0.394417,-1.37472,-0.135818,0.331575,-0.193614,0.277847,-0.000967071,-0.00360737,0.377641,-0.126998495695271,0.32028417827576483,-0.0009666035375424098,0.39316062940737284,-0.0036008712576461877,-0.17602410241161304
511,0.5016,61.0087,1058.17,-0.000479912,255.044,-0.391787,-1.36462,-0.136104,0.332265,-0.194017,0.278408,-0.000967874,-0.0036102,0.378432,-0.12724813842489013,0.3210250654992126,-0.0009674057610377096,0.39412224195984247,-0.003603691063190473,-0.17635609779677786
512,0.5026,61.0191,1058.54,-0.000505809,255.112,-0.389155,-1.35451,-0.136391,0.332954,-0.194418,0.278968,-0.000968668,-0.003613,0.379222,-0.12749858226875155,0.32176504671129336,-0.0009681989926025869,0.3950831231701173,-0.0036064809689496657,-0.17668631278903046
513,0.5036,61.0295,1058.91,-0.000531318,255.18,-0.386523,-1.3444,-0.136677,0.333642,-0.19482,0.279528,-0.000969454,-0.00361577,0.380011,-0.1277480819940613,0.3225054424289038,-0.0009689842312895491,0.39604327061170475,-0.003609240975174788,-0.17701721837481021
514,0.5046,61.0399,1059.28,-0.000556442,255.248,-0.383889,-1.33429,-0.136963,0.33433,-0.195221,0.280087,-0.000970232,-0.00361851,0.3808,-0.12799751037265272,0.32324492963864015,-0.0009697614771174701,0.3970040788620244,-0.003611971082114196,-0.1773471683108584
515,0.5056,61.0503,1059.65,-0.000581182,255.315,-0.381254,-1.32417,-0.137249,0.335018,-0.195622,0.280646,-0.000971001,-0.00362122,0.381588,-0.12824686742492797,0.32398483033728653,-0.0009705297310755867,0.3979655483758686,-0.0036146712900138045,-0.17767698596350678
516,0.5066,61.0606,1060.02,-0.000605539,255.383,-0.378619,-1.31404,-0.137534,0.335705,-0.196023,0.281205,-0.000971762,-0.0036239,0.382376,-0.12849528166700086,0.3247251447560473,-0.0009712899922131868,0.3989262806813636,-0.0036173415991165303,-0.17800667138579052
517,0.5076,61.0709,1060.38,-0.000629516,255.45,-0.375982,-1.30392,-0.137819,0.336391,-0.196423,0.281763,-0.000972515,-0.00362654,0.383163,-0.1287436251211026,0.32546454766104627,-0.000972042260548589,0.3998862733497488,-0.0036199720458625073,-0.17833540296653694
518,0.5086,61.0812,1060.75,-0.000653114,255.517,-0.373345,-1.29379,-0.138105,0.337077,-0.196824,0.28232,-0.000973259,-0.00362915,0.38395,-0.1289927688150715,0.32620303706429943,-0.0009727855370725846,0.4008469247990407,-0.003622572594341733,-0.1786648244165323
519,0.5096,61.0914,1061.11,-0.000676334,255.584,-0.370706,-1.28365,-0.13839,0.337763,-0.197223,0.282877,-0.000973995,-0.00363173,0.384736,-0.1292409705055383,0.326941937920729,-0.0009735208208319079,0.4018082354813177,-0.0036251432447883536,-0.17899247178159405
520,0.5106,61.1017,1061.48,-0.000699179,255.651,-0.368067,-1.27351,-0.138674,0.338448,-0.197623,0.283434,-0.000974723,-0.00363428,0.385521,-0.1294882309572687,0.32768125045957874,-0.0009742481118439894,0.4027688030794647,-0.0036276839974336283,-0.17932080912103565
521,0.5116,61.1119,1061.84,-0.00072165,255.717,-0.365427,-1.26337,-0.138959,0.339132,-0.198022,0.28399,-0.000975443,-0.0036368,0.386306,-0.12973629146114496,0.32841964648990873,-0.0009749674101263706,0.40372862516250185,-0.0036301948525062633,-0.17964819480040994
522,0.5126,61.1221,1062.2,-0.000743749,255.784,-0.362787,-1.25323,-0.139243,0.339816,-0.198421,0.284546,-0.000976154,-0.00363928,0.38709,-0.12998341126169732,0.32915845318258485,-0.0009756777166720632,0.4046891039884244,-0.003632665846558969,-0.17997544987895475
523,0.5136,61.1322,1062.56,-0.000765477,255.85,-0.360145,-1.24308,-0.139527,0.3405,-0.19882,0.285101,-0.000976857,-0.00364174,0.387873,-0.1302304608901913,0.32989634086899366,-0.0009763800305236936,0.4056502400065978,-0.003635116907186209,-0.1803025744087695
524,0.5146,61.1423,1062.92,-0.000786837,255.916,-0.357503,-1.23294,-0.139811,0.341183,-0.199218,0.285655,-0.000977552,-0.00364416,0.388656,-0.13047744036655273,0.3306333075627603,-0.0009770743516983593,0.4066106270553653,-0.0036375281072857923,-0.1806287490710914
525,0.5156,61.1524,1063.28,-0.000807829,255.982,-0.354861,-1.22278,-0.140095,0.341865,-0.199616,0.28621,-0.000978239,-0.00364655,0.389439,-0.13072434971070224,0.33137201402053806,-0.0009777606802124916,0.4075702627015767,-0.003639909410747877,-0.18095479394172798
526,0.5166,61.1625,1063.64,-0.000828455,256.048,-0.352217,-1.21263,-0.140379,0.342547,-0.200013,0.286764,-0.000978917,-0.00364891,0.39022,-0.13097118894255444,0.33210979846372624,-0.0009784380170611007,0.4085305530425243,-0.0036422608177870686,-0.1812798903526257
527,0.5176,61.1725,1064.0,-0.000848718,256.113,-0.349574,-1.20247,-0.140662,0.343228,-0.200411,0.287317,-0.000979587,-0.00365124,0.391002,-0.131217089299542,0.33284665890541065,-0.0009791073612834822,0.40949008903406825,-0.003644582328614754,-0.18160567612059708
528,0.5186,61.1826,1064.35,-0.000868618,256.179,-0.346929,-1.19232,-0.140945,0.343909,-0.200808,0.28787,-0.000980249,-0.00365353,0.391782,-0.13146292007657456,0.3335839269436094,-0.0009797687128955124,0.4104502786921709,-0.0036468639799087654,-0.18193051418255546
529,0.5196,61.1926,1064.71,-0.000888158,256.244,-0.344284,-1.18216,-0.141228,0.34459,-0.201205,0.288422,-0.000980903,-0.0036558,0.392562,-0.13170868129334046,0.3343202684828499,-0.0009804220719130674,0.4114111224621304,-0.003649125698960476,-0.18225522330939847
530,0.5206,61.2025,1065.06,-0.000907339,256.309,-0.341639,-1.172,-0.141511,0.345269,-0.201601,0.288974,-0.000981549,-0.00365803,0.393342,-0.1319543729695225,0.3350570165948237,-0.0009810674383520235,0.412369796047132,-0.003651347558932816,-0.1825789861316982
531,0.5216,61.2125,1065.42,-0.000926163,256.374,-0.338994,-1.16183,-0.141793,0.345949,-0.201997,0.289526,-0.000982187,-0.00366024,0.39412,-0.13219912732435912,0.33579417150402113,-0.0009817048122275907,0.4133305341223692,-0.003653549487021568,-0.18290262076930264
532,0.5226,61.2224,1065.77,-0.000944631,256.439,-0.336348,-1.15167,-0.142076,0.346628,-0.202393,0.290077,-0.000982816,-0.00366241,0.394899,-0.13244468022395217,0.336530396903991,-0.0009823331945376657,0.41429051143045204,-0.0036557115564732623,-0.1832261272729626
533,0.5236,61.2323,1066.12,-0.000962746,256.503,-0.333701,-1.1415,-0.142358,0.347306,-0.202789,0.290628,-0.000983437,-0.00366455,0.395676,-0.13268929633163684,0.3372670280759362,-0.0009829535843161041,0.4152497255340384,-0.0036578437309691125,-0.18354950569340944
534,0.5246,61.2422,1066.47,-0.000980508,256.568,-0.331055,-1.13133,-0.14264,0.347984,-0.203184,0.291178,-0.000984051,-0.00366666,0.396454,-0.13293384346730452,0.3380027272401023,-0.0009835669805943192,0.41620959020530446,-0.003659946010700965,-0.18387193995370177
535,0.5256,61.252,1066.82,-0.00099792,256.632,-0.328408,-1.12117,-0.142922,0.348661,-0.203579,0.291727,-0.000984656,-0.00366874,0.39723,-0.13317832165040278,0.33873749241194195,-0.0009841713853534495,0.4171686887160875,-0.003662018395858002,-0.18419424687761188
536,0.5266,61.2618,1067.17,-0.00101498,256.696,-0.325761,-1.111,-0.143203,0.349338,-0.203974,0.292277,-0.000985253,-0.00367079,0.398006,-0.133421864322671,0.3394740005539414,-0.0009847677976251301,0.4181284367564031,-0.003664060886626741,-0.18451642651542777
537,0.5276,61.2716,1067.52,-0.0010317,256.76,-0.323114,-1.10083,-0.143485,0.350015,-0.204368,0.292825,-0.000985842,-0.00367281,0.398781,-0.13366620490329095,0.3402082334676888,-0.000985356217423572,0.4190888347661321,-0.0036660734831910347,-0.18483766375548882
538,0.5286,61.2814,1067.87,-0.00104807,256.824,-0.320466,-1.09066,-0.143766,0.350691,-0.204762,0.293374,-0.000986423,-0.0036748,0.399556,-0.13390961049962513,0.34094420979487916,-0.0009859366447629858,0.4200484631362791,-0.0036680561857319605,-0.18515877445300777
539,0.5296,61.2912,1068.22,-0.0010641,256.888,-0.317819,-1.08049,-0.144047,0.351366,-0.205156,0.293922,-0.000986996,-0.00367675,0.40033,-0.13415294770859576,0.34167924860408583,-0.0009865090796573606,0.4210073194264876,-0.0036699990311281905,-0.1854797586578325
540,0.5306,61.3009,1068.56,-0.00107978,256.951,-0.315171,-1.07031,-0.144327,0.352041,-0.20555,0.294469,-0.000987561,-0.00367868,0.401104,-0.1343953509452005,0.3424133479109286,-0.000987073522120241,0.42196682316318035,-0.0036719219461743835,-0.1858006164197915
541,0.5316,61.3106,1068.91,-0.00109512,257.015,-0.312523,-1.06014,-0.144608,0.352715,-0.205943,0.295016,-0.000988118,-0.00368058,0.401877,-0.13463855168028127,0.3431478488799369,-0.0009876299721652826,0.4229255518572683,-0.0036738149677243426,-0.18612053390963423
542,0.5326,61.3203,1069.25,-0.00111013,257.078,-0.309876,-1.04997,-0.144888,0.353389,-0.206336,0.295563,-0.000988667,-0.00368244,0.40265,-0.13488081896680792,0.3438827517308798,-0.0009881784298059193,0.4238849269523086,-0.0036756681327050345,-0.18644032569660562
543,0.5336,61.33,1069.6,-0.0011248,257.141,-0.307228,-1.0398,-0.145168,0.354063,-0.206728,0.296109,-0.000989208,-0.00368428,0.403422,-0.13512301842799024,0.34461671206626265,-0.0009887188950551407,0.4248449488841226,-0.0036775013677891044,-0.1867591785896825
544,0.5346,61.3396,1069.94,-0.00113913,257.204,-0.304581,-1.02963,-0.145448,0.354736,-0.207121,0.296654,-0.000989741,-0.00368608,0.404193,-0.1353651500828168,0.34534972790301044,-0.0009892513679260473,0.42580419228391997,-0.0036792947466726122,-0.1870787194386072
545,0.5356,61.3492,1070.28,-0.00115313,257.267,-0.301933,-1.01945,-0.145728,0.355408,-0.207513,0.2972,-0.000990266,-0.00368785,0.404964,-0.13560721395027076,0.3460844894260877,-0.0009897758484314068,0.42676265470844044,-0.003681058232760215,-0.18739732213037985
546,0.5366,61.3588,1070.62,-0.00116679,257.33,-0.299286,-1.00928,-0.146008,0.35608,-0.207905,0.297744,-0.000990784,-0.0036896,0.405734,-0.1358492100493297,0.34681695860188766,-0.0009902933355935284,0.4277217614361719,-0.003682801789382739,-0.18771579995437304
547,0.5376,61.3684,1070.97,-0.00118013,257.392,-0.296639,-0.999111,-0.146287,0.356752,-0.208296,0.298289,-0.000991293,-0.00369131,0.406504,-0.1360902744896728,0.34755117389982115,-0.000990801831404764,0.4286815129002317,-0.003684505490334944,-0.1880333409932723
548,0.5386,61.378,1071.31,-0.00119314,257.455,-0.293992,-0.988941,-0.146566,0.357423,-0.208687,0.298833,-0.000991794,-0.00369299,0.407273,-0.13633127168241854,0.34828444116903645,-0.0009913023348877559,0.42964047989283327,-0.0036861792989597575,-0.18835075789789513
549,0.5396,61.3875,1071.64,-0.00120581,257.517,-0.291345,-0.978771,-0.146845,0.358093,-0.209078,0.299376,-0.000992288,-0.00369465,0.408041,-0.13657220164632633,0.34901675842673296,-0.000991795845062482,0.43059865996884295,-0.003687833178529387,-0.18866805071676862
550,0.5406,61.397,1071.98,-0.00121817,257.579,-0.288698,-0.968602,-0.147124,0.358763,-0.209469,0.299919,-0.000992773,-0.00369627,0.408809,-0.1368130644001504,0.34974947344068164,-0.0009922803639239586,0.4315574822406152,-0.0036894472029322944,-0.18898521949840075
551,0.5416,61.4065,1072.32,-0.0012302,257.641,-0.286052,-0.958435,-0.147403,0.359433,-0.209859,0.300462,-0.000993251,-0.00369786,0.409576,-0.13705385996263986,0.35048258642692254,-0.000992757889499818,0.43251694713856526,-0.0036910313354517887,-0.18930145359313966
552,0.5426,61.416,1072.66,-0.00124191,257.703,-0.283406,-0.948268,-0.147681,0.360102,-0.210249,0.301004,-0.000993721,-0.00369942,0.410343,-0.13729372564669529,0.35121474638619143,-0.0009932274227932858,0.43347562161705855,-0.0036925855762306448,-0.18961756438062805
553,0.5436,61.4254,1072.99,-0.00125329,257.764,-0.280761,-0.938103,-0.147959,0.360771,-0.210639,0.301546,-0.000994183,-0.00370096,0.411109,-0.13753352465735869,0.3519473032837188,-0.0009936889638155755,0.4344349376633585,-0.003694119888467462,-0.18993355190894645
554,0.5446,61.4348,1073.33,-0.00126436,257.826,-0.278116,-0.927939,-0.148237,0.361439,-0.211028,0.302087,-0.000994638,-0.00370246,0.411875,-0.13777325701316256,0.3526789046551224,-0.0009941435115836672,0.4353934603126395,-0.00369561434616672,-0.19024860647516795
555,0.5456,61.4442,1073.66,-0.00127511,257.887,-0.275471,-0.917776,-0.148515,0.362106,-0.211417,0.302628,-0.000995084,-0.00370393,0.41264,-0.13801292273263432,0.3534109019299503,-0.000994589068096352,0.43635118711705045,-0.0036970789125372328,-0.1905635385089972
556,0.5466,61.4536,1074.0,-0.00128555,257.949,-0.272827,-0.907615,-0.148793,0.362773,-0.211806,0.303168,-0.000995523,-0.00370538,0.413405,-0.13825252183429648,0.35414194117982567,-0.000995027631375489,0.4373095529383284,-0.003698523550725419,-0.19087834805809012
557,0.5476,61.463,1074.33,-0.00129567,258.01,-0.270183,-0.897456,-0.14907,0.36344,-0.212195,0.303708,-0.000995954,-0.00370679,0.414169,-0.1384911928282896,0.3548733752975006,-0.0009954582024257475,0.4382685582028396,-0.0036999283348168044,-0.191193035170084
558,0.5486,61.4723,1074.66,-0.00130548,258.071,-0.26754,-0.887299,-0.149347,0.364106,-0.212583,0.304247,-0.000996377,-0.00370817,0.414932,-0.13872979771957306,0.3556038488917348,-0.0009958807812575632,0.4392267641097516,-0.0037013032279670233,-0.1915067913997932
559,0.5496,61.4817,1074.99,-0.00131498,258.131,-0.264897,-0.877143,-0.149625,0.364772,-0.212971,0.304786,-0.000996792,-0.00370953,0.415695,-0.13896919755768766,0.35633471631736424,-0.0009962953678810393,0.4401856083943536,-0.0037026581932733116,-0.19182042591569937
560,0.5506,61.491,1075.32,-0.00132417,258.192,-0.262255,-0.86699,-0.149901,0.365437,-0.213359,0.305325,-0.0009972,-0.00371085,0.416457,-0.1392068092672375,0.35706597778672133,-0.0009967029613093814,0.4411436503375763,-0.0037039733048964685,-0.19213393876501816
561,0.5516,61.5002,1075.65,-0.00133305,258.253,-0.259613,-0.856839,-0.150178,0.366102,-0.213746,0.305863,-0.0009976,-0.00371215,0.417219,-0.13944521596021908,0.3577962757152984,-0.0009971025625482577,0.44210232959057305,-0.0037052684888893017,-0.19244652244187344
562,0.5526,61.5095,1075.98,-0.00134162,258.313,-0.256973,-0.84669,-0.150455,0.366766,-0.214133,0.306401,-0.000997992,-0.00371341,0.41798,-0.13968355662369225,0.35852696664987005,-0.0009974941716073271,0.4430602035163709,-0.003706523819460239,-0.19275898517225032
563,0.5536,61.5187,1076.31,-0.0013499,258.373,-0.254332,-0.836544,-0.150731,0.36743,-0.21452,0.306938,-0.000998377,-0.00371465,0.418741,-0.1399209711973458,0.3592566915445594,-0.0009978787874980188,0.4440187136816638,-0.0037077592226046896,-0.19307132700294616
564,0.5546,61.528,1076.64,-0.00135787,258.434,-0.251693,-0.8264,-0.151007,0.368093,-0.214907,0.307475,-0.000998753,-0.00371586,0.419501,-0.14015832025361896,0.35998680840675124,-0.000998254412225008,0.4449764155319167,-0.003708964735486764,-0.1933835479807401
565,0.5556,61.5372,1076.97,-0.00136553,258.494,-0.249054,-0.816259,-0.151283,0.368756,-0.215293,0.308012,-0.000999123,-0.00371703,0.420261,-0.1403956038105918,0.3607173174469882,-0.0009986240428024873,0.4459347525490309,-0.0037101303953160913,-0.19369484184763808
566,0.5566,61.5463,1077.29,-0.0013729,258.554,-0.246416,-0.806121,-0.151558,0.369418,-0.215679,0.308548,-0.000999484,-0.00371818,0.42102,-0.1406319625187319,0.36144685742838867,-0.0009989846822341386,0.4468922782612601,-0.003711276128007368,-0.19400601557829122
567,0.5576,61.5555,1077.62,-0.00137997,258.613,-0.243779,-0.795985,-0.151834,0.37008,-0.216065,0.309083,-0.000999838,-0.0037193,0.421778,-0.14086911536847802,0.36217542637192746,-0.000999338328530941,0.44785043806537184,-0.003712391970753126,-0.19431706921906322
568,0.5586,61.5647,1077.94,-0.00138675,258.673,-0.241143,-0.785853,-0.152109,0.370742,-0.21645,0.309618,-0.00100018,-0.00372039,0.422536,-0.14110534387884277,0.3629043852041367,-0.0009996799866988093,0.44880923238127424,-0.0037134779236540627,-0.19462719744389978
569,0.5596,61.5738,1078.27,-0.00139323,258.732,-0.238507,-0.775724,-0.152384,0.371402,-0.216835,0.310153,-0.00100052,-0.00372145,0.423293,-0.14134150743529883,0.3636337341336633,-0.0010000196467498945,0.4497657620947293,-0.0037145339868077665,-0.19493720629235134
570,0.5606,61.5829,1078.59,-0.00139942,258.792,-0.235873,-0.765598,-0.152659,0.372063,-0.21722,0.310688,-0.00100085,-0.00372248,0.42405,-0.1415776060557059,0.36436347336926445,-0.0010003493166890198,0.4507243740498219,-0.0037155601603092725,-0.1952470958103688
571,0.5616,61.592,1078.91,-0.00140532,258.851,-0.233239,-0.755475,-0.152934,0.372723,-0.217605,0.311221,-0.00100118,-0.00372349,0.424806,-0.14181363975791894,0.36509087293533415,-0.0010006789865193433,0.45168216817398776,-0.0037165664070853976,-0.19555686604388556
572,0.5626,61.601,1079.24,-0.00141092,258.91,-0.230606,-0.745356,-0.153209,0.373382,-0.217989,0.311755,-0.00100149,-0.00372446,0.425562,-0.1420496085597882,0.3658200261280571,-0.001000988676260861,0.4526391420110607,-0.0037175328015472964,-0.19586571290493227
573,0.5636,61.6101,1079.56,-0.00141624,258.969,-0.227974,-0.73524,-0.153483,0.374041,-0.218373,0.312288,-0.0010018,-0.00372541,0.426317,-0.14228465476424235,0.36654820224367923,-0.0010012983659063446,0.4535967467017359,-0.003718479269441577,-0.19617444119155203
574,0.5646,61.6191,1079.88,-0.00142128,259.028,-0.225344,-0.725128,-0.153757,0.3747,-0.218757,0.312821,-0.0010021,-0.00372632,0.427072,-0.14251963657485867,0.3672767665806229,-0.0010015980654718426,0.45455498266188243,-0.0037193858852129225,-0.19648305094926888
575,0.5656,61.6281,1080.2,-0.00142602,259.087,-0.222714,-0.71502,-0.154031,0.375358,-0.21914,0.313353,-0.0010024,-0.00372721,0.427826,-0.14275455400927894,0.36800435134082954,-0.0010018977649475236,0.4555123947945221,-0.0037202725745648646,-0.19679073901472954
576,0.5666,61.6371,1080.52,-0.00143049,259.145,-0.220085,-0.704916,-0.154305,0.376016,-0.219524,0.313885,-0.00100268,-0.00372807,0.428579,-0.14298940708513974,0.3687323232791091,-0.0010021774843769204,0.4564704371116526,-0.003721129374761989,-0.1970991121595148
577,0.5676,61.6461,1080.84,-0.00143467,259.204,-0.217458,-0.694815,-0.154579,0.376673,-0.219907,0.314416,-0.00100296,-0.0037289,0.429332,-0.14322419582007273,0.3694593131414967,-0.0010024572037280466,0.457427652599691,-0.003721956285881456,-0.19740656431871084
578,0.5686,61.655,1081.15,-0.00143858,259.262,-0.214831,-0.684719,-0.154852,0.377329,-0.220289,0.314947,-0.00100323,-0.0037297,0.430084,-0.1434580636901971,0.370186689138011,-0.001002726933028275,0.458384038800173,-0.0037227533079976505,-0.19771309645977464
579,0.5696,61.664,1081.47,-0.0014422,259.32,-0.212206,-0.674627,-0.155125,0.377986,-0.220672,0.315477,-0.0010035,-0.00373048,0.430836,-0.14369186772310716,0.3709130805599774,-0.001002996662255562,0.45934251193761333,-0.0037235304039470174,-0.19802031350801041
580,0.5706,61.6729,1081.79,-0.00144555,259.379,-0.209582,-0.664539,-0.155398,0.378641,-0.221054,0.316007,-0.00100375,-0.00373122,0.431588,-0.14392560793622788,0.3716398570714372,-0.0010032464114752004,0.4602986943985028,-0.0037242676482617254,-0.1983266112416585
581,0.5716,61.6818,1082.1,-0.00144862,259.437,-0.206959,-0.654456,-0.155671,0.379297,-0.221435,0.316537,-0.001004,-0.00373194,0.432338,-0.14415928434698,0.3723670188765418,-0.0010034961606323334,0.4612569646202962,-0.003724984966530731,-0.19863199062430892
582,0.5726,61.6907,1082.42,-0.00145142,259.494,-0.204337,-0.644377,-0.155944,0.379952,-0.221817,0.317066,-0.00100424,-0.00373263,0.433089,-0.1443928969727789,0.37309319308567135,-0.001003735919764548,0.4622144014584566,-0.003725672396053925,-0.19893805474192217
583,0.5736,61.6996,1082.73,-0.00145395,259.552,-0.201716,-0.634303,-0.156217,0.380606,-0.222198,0.317595,-0.00100448,-0.00373329,0.433838,-0.14462644583103568,0.37381975154258207,-0.0010039756788391418,0.46317100245143905,-0.003726329936893258,-0.1992432012089722
584,0.5746,61.7084,1083.05,-0.00145621,259.61,-0.199097,-0.624233,-0.156489,0.38126,-0.222579,0.318124,-0.0010047,-0.00373392,0.434587,-0.14485907579865975,0.37454669445059485,-0.0010041954579402823,0.4641282292660922,-0.0037269575891076823,-0.19954823143736322
585,0.5756,61.7172,1083.36,-0.0014582,259.667,-0.196479,-0.614169,-0.156761,0.381913,-0.22296,0.318652,-0.00100492,-0.00373452,0.435336,-0.14509164249953743,0.37527264673980376,-0.001004415236993128,0.46508461722648775,-0.0037275553527537086,-0.19985314547137367
586,0.5766,61.7261,1083.67,-0.00145992,259.725,-0.193863,-0.604109,-0.157033,0.382566,-0.22334,0.319179,-0.00100513,-0.0037351,0.436084,-0.14532414595087462,0.3759976064347368,-0.001004625026043926,0.4660416299121719,-0.003728133190604055,-0.20015714351280856
587,0.5776,61.7349,1083.98,-0.00146138,259.782,-0.191247,-0.594054,-0.157305,0.383219,-0.223721,0.319706,-0.00100534,-0.00373564,0.436832,-0.14555658616987321,0.3767229482841179,-0.001004834815050648,0.4669992677312236,-0.00372867117726694,-0.20046182559550774
588,0.5786,61.7436,1084.29,-0.00146257,259.839,-0.188633,-0.584005,-0.157576,0.383871,-0.2241,0.320233,-0.00100553,-0.00373616,0.437579,-0.1457881089622658,0.3774486724893955,-0.0010050246241138927,0.46795606313519134,-0.003729189238223185,-0.2007647931476294
589,0.5796,61.7524,1084.6,-0.0014635,259.896,-0.186021,-0.57396,-0.157848,0.384522,-0.22448,0.320759,-0.00100572,-0.00373665,0.438325,-0.14602042300048657,0.378173401078034,-0.0010052144331412771,0.46891201366042723,-0.00372967741080088,-0.20106844482875996
590,0.5806,61.7611,1084.91,-0.00146417,259.953,-0.18341,-0.563921,-0.158119,0.385173,-0.224859,0.321285,-0.00100591,-0.00373712,0.439071,-0.14625182011012894,0.37889851097418537,-0.0010054042421324683,0.46986858671206533,-0.003730145657742434,-0.20137118251575437
591,0.5816,61.7699,1085.22,-0.00146458,260.01,-0.1808,-0.553888,-0.15839,0.385824,-0.225238,0.321811,-0.00100608,-0.00373755,0.439816,-0.14648315451965077,0.37962400237847005,-0.0010055740711992778,0.47082578269550246,-0.0037305740536877074,-0.2016738054869054
592,0.5826,61.7786,1085.53,-0.00146473,260.066,-0.178192,-0.543859,-0.158661,0.386474,-0.225617,0.322336,-0.00100625,-0.00373796,0.440561,-0.1467144262460417,0.3803484951424285,-0.0010057439002373325,0.471782130233533,-0.00373098252406856,-0.20197631378568226
593,0.5836,61.7873,1085.84,-0.00146462,260.123,-0.175586,-0.533837,-0.158931,0.387124,-0.225996,0.322861,-0.00100641,-0.00373834,0.441305,-0.1469447822514951,0.38107336836494987,-0.0010059037393054249,0.47273909959953553,-0.0037313611062232965,-0.20227870745553733
594,0.5846,61.796,1086.15,-0.00146426,260.179,-0.172981,-0.52382,-0.159202,0.387773,-0.226374,0.323385,-0.00100656,-0.0037387,0.442049,-0.14717592889372033,0.38179724044789554,-0.0010060535884086619,0.47369521750187515,-0.0037317197628687904,-0.2025801891204947
595,0.5856,61.8046,1086.45,-0.00146365,260.236,-0.170377,-0.513809,-0.159472,0.388422,-0.226752,0.323909,-0.00100671,-0.00373902,0.442793,-0.1474061603102791,0.38252149193920926,-0.0010062034374893614,0.47465195612613575,-0.0037320385686674395,-0.20288155684691844
596,0.5866,61.8133,1086.76,-0.00146279,260.292,-0.167775,-0.503804,-0.159742,0.389071,-0.22713,0.324432,-0.00100685,-0.00373932,0.443535,-0.14763632957274653,0.3832447397923213,-0.0010063432966110897,0.47560931587529676,-0.003732337449011025,-0.20318281067786925
597,0.5876,61.8219,1087.06,-0.00146167,260.348,-0.165175,-0.493805,-0.160012,0.389718,-0.227507,0.324955,-0.00100698,-0.00373959,0.444277,-0.14786643669790211,0.3839683660029922,-0.0010064731657780657,0.47656434402095793,-0.0037326064412436244,-0.20348315413994378
598,0.5886,61.8305,1087.37,-0.00146031,260.404,-0.162576,-0.483812,-0.160282,0.390366,-0.227884,0.325478,-0.00100711,-0.00373983,0.445019,-0.14809648170252054,0.3846923707691552,-0.0010066030349280553,0.4775214677904933,-0.0037328455453893294,-0.20378338439387422
599,0.5896,61.8391,1087.67,-0.0014587,260.46,-0.159979,-0.473825,-0.160551,0.391013,-0.228261,0.326,-0.00100722,-0.00374005,0.44576,-0.14832561292941093,0.3854153688727846,-0.0010067129241957407,0.4784777334987518,-0.0037330647241392567,-0.2040835014823319
600,0.5906,61.8477,1087.97,-0.00145684,260.515,-0.157384,-0.463844,-0.160821,0.391659,-0.228638,0.326522,-0.00100733,-0.00374023,0.446501,-0.14855553397318222,0.386138744479944,-0.0010068228134512136,0.47943313867723925,-0.0037332440521714583,-0.20438350544797235
601,0.5916,61.8563,1088.28,-0.00145474,260.571,-0.15479,-0.45387,-0.16109,0.392306,-0.229014,0.327043,-0.00100744,-0.0037404,0.447241,-0.14878454173161904,0.3868611109259372,-0.0010069327026946961,0.48039064163676914,-0.003733413417505549,-0.2046826010164332
602,0.5926,61.8648,1088.58,-0.0014524,260.627,-0.152199,-0.443902,-0.161359,0.392951,-0.22939,0.327564,-0.00100753,-0.00374053,0.44798,-0.1490134878952537,0.3875838538229057,-0.0010070226120667547,0.481345801606601,-0.003733542932153444,-0.20498158414610035
603,0.5936,61.8734,1088.88,-0.00144982,260.682,-0.149608,-0.433941,-0.161628,0.393596,-0.229766,0.328085,-0.00100762,-0.00374064,0.44872,-0.14924237248065286,0.3883069733670317,-0.0010071125214305976,0.48230157785334127,-0.003733652521457631,-0.2052804548792424
604,0.5946,61.8819,1089.18,-0.001447,260.737,-0.14702,-0.423987,-0.161896,0.394241,-0.230141,0.328605,-0.00100771,-0.00374072,0.449458,-0.14947034497514933,0.3890290807248242,-0.0010072024307864469,0.48325797077461674,-0.003733732222762298,-0.20557841883692884
605,0.5956,61.8904,1089.48,-0.00144394,260.792,-0.144434,-0.414039,-0.162165,0.394885,-0.230517,0.329125,-0.00100778,-0.00374077,0.450196,-0.14969910668252195,0.38975156367608843,-0.001007272360279865,0.4842134965540723,-0.00373378203607444,-0.205877065202411
606,0.5966,61.8989,1089.78,-0.00144064,260.848,-0.141849,-0.404098,-0.162433,0.395529,-0.230892,0.329644,-0.00100785,-0.00374079,0.450933,-0.14992695678865298,0.39047303194245675,-0.001007342289768287,0.4851696378903181,-0.0037338019613986084,-0.20617480547317024
607,0.5976,61.9074,1090.08,-0.00143711,260.902,-0.139266,-0.394163,-0.162701,0.396173,-0.231266,0.330163,-0.00100791,-0.00374079,0.45167,-0.15015474583913757,0.39119487474804004,-0.0010074022293259377,0.48612639517989975,-0.0037338019613986084,-0.20647164058429746
608,0.5986,61.9158,1090.38,-0.00143335,260.957,-0.136685,-0.384236,-0.162969,0.396816,-0.231641,0.330682,-0.00100796,-0.00374076,0.452407,-0.1503824738503361,0.3919170922872741,-0.0010074521789545932,0.4870822817365943,-0.0037337720734121893,-0.2067691579310893
609,0.5996,61.9243,1090.67,-0.00142935,261.012,-0.134106,-0.374316,-0.163237,0.397458,-0.232015,0.3312,-0.00100801,-0.00374071,0.453143,-0.15061014083860513,0.39263829211570833,-0.0010075021285808061,0.488037295087953,-0.0037337222600994924,-0.2070657707959599
610,0.6006,61.9327,1090.97,-0.00142513,261.067,-0.131529,-0.364403,-0.163504,0.3981,-0.232389,0.331718,-0.00100805,-0.00374063,0.453878,-0.15083689765761876,0.393359865622428,-0.0010075420882799113,0.48899292175473663,-0.003733642558794159,-0.20736227274836105
611,0.6016,61.9411,1091.27,-0.00142067,261.121,-0.128954,-0.354497,-0.163772,0.398742,-0.232763,0.332235,-0.00100808,-0.00374052,0.454613,-0.15106444287662524,0.3940804189199325,-0.00100757205805313,0.48994916213081985,-0.003733532969488751,-0.20765866382976605
612,0.6026,61.9495,1091.56,-0.00141599,261.176,-0.12638,-0.344599,-0.164039,0.399383,-0.233136,0.332752,-0.00100811,-0.00374038,0.455347,-0.15129107841318667,0.3948013448398062,-0.0010076020278255715,0.4909045257050595,-0.003733393492173609,-0.20795415203618117
613,0.6036,61.9579,1091.86,-0.00141108,261.23,-0.123809,-0.334708,-0.164306,0.400024,-0.233509,0.333269,-0.00100813,-0.00374022,0.456081,-0.15151765344613743,0.3955226435747452,-0.0010076220076733478,0.4918605018636626,-0.0037332340895038785,-0.20824953004604818
614,0.6046,61.9663,1092.15,-0.00140595,261.284,-0.12124,-0.324824,-0.164573,0.400664,-0.233882,0.333785,-0.00100814,-0.00374003,0.456814,-0.15174416799162982,0.39624291907392717,-0.0010076319975970138,0.4928155981830771,-0.0037330447988003224,-0.20854479790046276
615,0.6056,61.9746,1092.45,-0.0014006,261.338,-0.118672,-0.314948,-0.164839,0.401304,-0.234255,0.334301,-0.00100815,-0.00373982,0.457547,-0.15196977403600986,0.3969635663311719,-0.00100764198752068,0.49377130595978125,-0.003732835582717753,-0.20883995564050528
616,0.6066,61.983,1092.74,-0.00139502,261.392,-0.116107,-0.30508,-0.165106,0.401943,-0.234627,0.334816,-0.00100814,-0.00373958,0.458279,-0.152196167881419,0.39768318785446954,-0.0010076319975970138,0.49472613085835504,-0.0037325964785696053,-0.2091342124418486
617,0.6076,61.9913,1093.03,-0.00138922,261.446,-0.113544,-0.295219,-0.165372,0.402582,-0.234999,0.335331,-0.00100814,-0.00373931,0.459011,-0.15242165370981775,0.398403180078299,-0.0010076319975970138,0.495681566085018,-0.0037323274863343414,-0.2094283598000195
618,0.6086,61.9996,1093.33,-0.00138321,261.5,-0.110983,-0.285366,-0.165638,0.403221,-0.235371,0.335846,-0.00100812,-0.00373902,0.459742,-0.15264707956696277,0.39912354319362,-0.0010076120177494596,0.49663761202989476,-0.0037320385686674395,-0.20972239775572332
619,0.6096,62.0079,1093.62,-0.00137698,261.554,-0.108424,-0.275521,-0.165904,0.403859,-0.235743,0.33636,-0.0010081,-0.0037387,0.460473,-0.15287244546880419,0.3998428775479135,-0.0010075920379015724,0.49759277148983805,-0.0037317197628687904,-0.21001632634965017
620,0.6106,62.0162,1093.91,-0.00137053,261.607,-0.105867,-0.265684,-0.16617,0.404496,-0.236114,0.336874,-0.00100807,-0.00373836,0.461203,-0.153097751431288,0.40056258173510395,-0.0010075620681287978,0.498547041988163,-0.0037313810315958706,-0.21030935593222577
621,0.6116,62.0245,1094.2,-0.00136387,261.661,-0.103312,-0.255855,-0.166435,0.405133,-0.236485,0.337387,-0.00100803,-0.00373798,0.461933,-0.1533221507929301,0.40128125466337905,-0.0010075221084305808,0.4995019205504434,-0.0037310024494487948,-0.2106022768209902
622,0.6126,62.0327,1094.49,-0.001357,261.714,-0.10076,-0.246035,-0.166701,0.40577,-0.236856,0.3379,-0.00100799,-0.00373759,0.462662,-0.15354733714970592,0.40200029636544876,-0.0010074821487305874,0.5004574075641388,-0.003730613904463942,-0.21089508905626142
623,0.6136,62.041,1094.78,-0.00134991,261.767,-0.0982095,-0.236222,-0.166966,0.406406,-0.237226,0.338413,-0.00100794,-0.00373716,0.463391,-0.15377161738691736,0.40271970703054283,-0.0010074321991034862,0.5014120020042041,-0.003730185508535766,-0.21118700386574063
624,0.6146,62.0492,1095.07,-0.00134262,261.82,-0.0956614,-0.226418,-0.167231,0.407042,-0.237597,0.338925,-0.00100789,-0.00373671,0.464119,-0.1539958381977402,0.4034380834092022,-0.0010073822494738316,0.5023672037594391,-0.0037297371870184115,-0.21147959920751436
625,0.6156,62.0574,1095.35,-0.00133512,261.874,-0.0931155,-0.216622,-0.167496,0.407678,-0.237967,0.339437,-0.00100782,-0.00373624,0.464847,-0.15421999959792054,0.40415682769074257,-0.001007312319988185,0.5033230132162188,-0.0037292689398849,-0.21177129778824244
626,0.6166,62.0656,1095.64,-0.00132741,261.926,-0.0905719,-0.206834,-0.167761,0.408313,-0.238336,0.339949,-0.00100775,-0.00373574,0.465574,-0.15444410160319988,0.4048759400635784,-0.0010072423904975425,0.5042779264824861,-0.003728770804394821,-0.21206210052295427
627,0.6176,62.0738,1095.93,-0.0013195,261.979,-0.0880306,-0.197056,-0.168025,0.408947,-0.238706,0.34046,-0.00100768,-0.00373521,0.466301,-0.15466729889703756,0.4055940151215027,-0.001007172461002126,0.5052319410785471,-0.0037282427805034324,-0.2123535836180629
628,0.6186,62.082,1096.21,-0.00131138,262.032,-0.0854915,-0.187285,-0.168289,0.409581,-0.239075,0.34097,-0.00100759,-0.00373466,0.467027,-0.15489043727456686,0.40631105089779584,-0.0010070825516435011,0.5061865607116383,-0.003727694830886197,-0.212644171528941
629,0.6196,62.0901,1096.5,-0.00130306,262.085,-0.0829548,-0.177523,-0.168554,0.410215,-0.239444,0.341481,-0.0010075,-0.00373408,0.467752,-0.15511436163740067,0.40702985948475723,-0.0010069926422769937,0.507141785765475,-0.0037271169927817205,-0.21293465223266095
630,0.6206,62.0983,1096.78,-0.00129454,262.137,-0.0804203,-0.167771,-0.168818,0.410848,-0.239813,0.341991,-0.00100741,-0.00373348,0.468477,-0.15533738200594438,0.4077476277284391,-0.0010069027329022706,0.5080961085271529,-0.0037265192288725713,-0.213225025768775
631,0.6216,62.1064,1097.07,-0.00128581,262.19,-0.0778883,-0.158026,-0.169081,0.411481,-0.240181,0.3425,-0.00100731,-0.00373285,0.469202,-0.15555949906480326,0.4084643536622288,-0.0010068028335875612,0.5090510355663729,-0.0037258915763819234,-0.21351450569171937
632,0.6226,62.1146,1097.35,-0.0012769,262.242,-0.0753586,-0.148291,-0.169345,0.412113,-0.240549,0.343009,-0.0010072,-0.00373219,0.469926,-0.15578240193257697,0.4091814445023796,-0.0010066929443297568,0.510005057259951,-0.0037252340352533775,-0.2138038791056509
633,0.6236,62.1227,1097.64,-0.00126778,262.294,-0.0728313,-0.138565,-0.169608,0.412745,-0.240917,0.343518,-0.00100708,-0.00373152,0.47065,-0.1560044019665846,0.40989890043467625,-0.0010065730651257487,0.5109596820858093,-0.003724566530936557,-0.21409314604975782
634,0.6246,62.1308,1097.92,-0.00125847,262.347,-0.0703064,-0.128848,-0.169872,0.413377,-0.241285,0.344026,-0.00100696,-0.00373081,0.471373,-0.1562271873954949,0.4106153110289814,-0.0010064531859073078,0.5119149104252476,-0.0037238591751277417,-0.21438230656321378
635,0.6256,62.1388,1098.2,-0.00124896,262.399,-0.0677839,-0.119139,-0.170135,0.414008,-0.241652,0.344534,-0.00100683,-0.00373008,0.472095,-0.15644907046630718,0.41133208565232393,-0.0010063233167377783,0.5128692297898212,-0.003723131893279441,-0.2146705753561461
636,0.6266,62.1469,1098.48,-0.00123927,262.451,-0.0652639,-0.10944,-0.170398,0.414639,-0.242019,0.345042,-0.00100669,-0.00372933,0.472818,-0.1566708951895448,0.4120492244896776,-0.0010061834576132744,0.51382415151994,-0.0037223846853481346,-0.21495873837384227
637,0.6276,62.155,1098.76,-0.00122938,262.503,-0.0627463,-0.0997507,-0.17066,0.415269,-0.242386,0.345549,-0.00100655,-0.00372854,0.473539,-0.1568918184727912,0.41276531496008895,-0.0010060435984691196,0.5147781612168982,-0.003721597625721218,-0.21524679565511473
638,0.6286,62.163,1099.04,-0.0012193,262.554,-0.0602313,-0.0900702,-0.170923,0.415899,-0.242753,0.346056,-0.0010064,-0.00372774,0.47426,-0.157113526768614,0.4134817685804195,-0.0010058937493644393,0.5157327721293286,-0.0037208006026804297,-0.21553474723876176
639,0.6296,62.1711,1099.33,-0.00120903,262.606,-0.0577187,-0.0803992,-0.171185,0.416528,-0.243119,0.346562,-0.00100624,-0.00372691,0.474981,-0.15733433409757747,0.41419717133695455,-0.0010057339102946816,0.5166864679488898,-0.003719973690601841,-0.2158218089857682
640,0.6306,62.1791,1099.6,-0.00119858,262.658,-0.0552086,-0.0707375,-0.171448,0.417157,-0.243486,0.347068,-0.00100608,-0.00372605,0.475701,-0.15755592602709378,0.41491293617888414,-0.0010055740711992778,0.5176407638318214,-0.003719116889410734,-0.21610954957824202
641,0.6316,62.1871,1099.88,-0.00118794,262.709,-0.0527011,-0.0610854,-0.17171,0.417785,-0.243851,0.347574,-0.00100591,-0.00372517,0.47642,-0.15777661746263427,0.41562906328947014,-0.0010054042421324683,0.5185941415607818,-0.0037182401618478522,-0.2163956173820959
642,0.6326,62.1951,1100.16,-0.00117712,262.76,-0.0501961,-0.0514429,-0.171972,0.418413,-0.244217,0.34808,-0.00100574,-0.00372427,0.47714,-0.1579972510845925,0.41634555285206676,-0.001005234413036793,0.5195481181989936,-0.00371734350786046,-0.21668236410828212
643,0.6336,62.2031,1100.44,-0.00116611,262.812,-0.0476937,-0.0418101,-0.172233,0.419041,-0.244582,0.348584,-0.00100556,-0.00372334,0.477858,-0.15821698512551963,0.41705957092814505,-0.0010050545939627176,0.52050269412269,-0.003716416964559155,-0.21696822287298445
644,0.6346,62.211,1100.72,-0.00115492,262.863,-0.0451939,-0.0321869,-0.172495,0.419668,-0.244948,0.349089,-0.00100537,-0.00372239,0.478576,-0.15843750338626317,0.41777536673469284,-0.001004864784905135,0.5214563482512318,-0.003715470494705664,-0.21725476006390843
645,0.6356,62.219,1100.99,-0.00114355,262.914,-0.0426967,-0.0225735,-0.172756,0.420295,-0.245312,0.349593,-0.00100517,-0.00372141,0.479294,-0.15865712253633357,0.4184901056185961,-0.0010046649858580503,0.5224106005084059,-0.00371449413538838,-0.21753962748222966
646,0.6366,62.2269,1101.27,-0.00113201,262.965,-0.0402021,-0.01297,-0.173018,0.420921,-0.245677,0.350097,-0.00100497,-0.0037204,0.480011,-0.1588775254961805,0.4192052048216899,-0.0010044651867711085,0.5233639279046671,-0.003713487886519262,-0.21782517340289798
647,0.6376,62.2349,1101.55,-0.00112028,263.016,-0.0377101,-0.00337641,-0.173279,0.421547,-0.246041,0.3506,-0.00100477,-0.00371937,0.480728,-0.15909702981546625,0.4199192446056661,-0.0010042653876441987,0.5243178522707104,-0.0037124617108833524,-0.21810983322854804
648,0.6386,62.2428,1101.82,-0.00110838,263.067,-0.0352208,0.00620722,-0.173539,0.422173,-0.246406,0.351103,-0.00100455,-0.00371832,0.481444,-0.15931563616765698,0.42063364364199796,-0.0010040456085583793,0.5252723739803558,-0.003711415608418922,-0.21839517106209716
649,0.6396,62.2507,1102.1,-0.00109631,263.118,-0.0327342,0.0157808,-0.1738,0.422798,-0.246769,0.351606,-0.00100433,-0.00371725,0.482159,-0.1595350261549785,0.42134840211143487,-0.0010038258294242652,0.5262259671809273,-0.0037103495790632435,-0.21867884212558863
650,0.6406,62.2586,1102.37,-0.00108406,263.168,-0.0302503,0.0253443,-0.174061,0.423422,-0.247133,0.352108,-0.00100411,-0.00371614,0.482875,-0.15975435888898515,0.422062098132008,-0.0010036060502417454,0.5271786293841436,-0.003709243696937592,-0.21896319127237063
651,0.6416,62.2665,1102.64,-0.00107164,263.219,-0.027769,0.0348976,-0.174321,0.424047,-0.247496,0.35261,-0.00100387,-0.00371502,0.483589,-0.15997279435783252,0.4227761525179259,-0.0010033662910784447,0.5281334143667356,-0.0037081278506656545,-0.21924665618194505
652,0.6426,62.2744,1102.92,-0.00105905,263.269,-0.0252905,0.0444407,-0.174581,0.42467,-0.247859,0.353112,-0.00100363,-0.00371387,0.484303,-0.16019117304084052,0.42349056544913255,-0.0010031265318575233,0.5290857381019274,-0.0037069821143538295,-0.2195300182124309
653,0.6436,62.2822,1103.19,-0.00104629,263.32,-0.0228148,0.0539735,-0.174841,0.425294,-0.248222,0.353613,-0.00100339,-0.0037127,0.485017,-0.16040949495277146,0.4242039129010384,-0.0010028867725790924,0.5300401853590773,-0.003705816450841004,-0.21981327740116663
654,0.6446,62.2901,1103.46,-0.00103336,263.37,-0.0203417,0.063496,-0.175101,0.425917,-0.248585,0.354114,-0.00100314,-0.0037115,0.48573,-0.16062776010838398,0.42491761782955817,-0.0010026370232696369,0.530993697382711,-0.003704620897103439,-0.22009643378547694
655,0.6456,62.2979,1103.73,-0.00102026,263.42,-0.0178715,0.0730081,-0.175361,0.426539,-0.248947,0.354614,-0.00100288,-0.00371028,0.486443,-0.16084596852243271,0.42563025478286454,-0.0010023772839214962,0.5319462716823788,-0.00370340541599945,-0.22037870778177082
656,0.6466,62.3057,1104.0,-0.001007,263.47,-0.015404,0.0825096,-0.17562,0.427161,-0.249309,0.355114,-0.00100261,-0.00370903,0.487155,-0.16106328127336933,0.42634324814374214,-0.0010021075545268987,0.5328994386675674,-0.0037021600444778757,-0.22066087961337089
657,0.6476,62.3136,1104.27,-0.00099358,263.52,-0.0129393,0.0920007,-0.175879,0.427783,-0.249671,0.355614,-0.00100234,-0.00370776,0.487867,-0.16128053774759166,0.4270565980904393,-0.0010018378250595816,0.5338531987070412,-0.003700894745417682,-0.2209429493172541
658,0.6486,62.3214,1104.54,-0.000979992,263.57,-0.0104775,0.101481,-0.176139,0.428404,-0.250033,0.356113,-0.00100207,-0.00370647,0.488578,-0.16149857646151622,0.4277688770317025,-0.001001568095519323,0.5348060173630105,-0.00369960951874293,-0.22122491693038415
659,0.6496,62.3292,1104.81,-0.000966244,263.62,-0.00801846,0.110951,-0.176398,0.429025,-0.250394,0.356612,-0.00100178,-0.00370515,0.489289,-0.16171572020888347,0.42848151148885116,-0.001001278385932114,0.5357594279031261,-0.003698294401359492,-0.22150600399610432
660,0.6506,62.337,1105.08,-0.000952335,263.67,-0.00556228,0.12041,-0.176656,0.429646,-0.250755,0.357111,-0.0010015,-0.00370381,0.489999,-0.16193196965569145,0.4291945016393319,-0.0010009986662509185,0.5367134306950623,-0.00369695935617953,-0.22178698960770726
661,0.6516,62.3447,1105.35,-0.000938267,263.72,-0.00310896,0.129858,-0.176915,0.430266,-0.251116,0.357609,-0.0010012,-0.00370244,0.490709,-0.1621490011687564,0.42990641775354765,-0.0010006989665055643,0.5376664884394644,-0.0036955944200788293,-0.22206787380181137
662,0.6526,62.3525,1105.62,-0.000924042,263.769,-0.000658518,0.139296,-0.177174,0.430885,-0.251477,0.358107,-0.0010009,-0.00370106,0.491418,-0.16236597647793827,0.43061868849028184,-0.0010003992666702821,0.5386185986435157,-0.003694219519050468,-0.2223486566150219
663,0.6536,62.3602,1105.89,-0.000909661,263.819,0.00178904,0.148723,-0.177432,0.431505,-0.251837,0.358604,-0.00100059,-0.00369964,0.492127,-0.16258205818026883,0.43132988269558226,-0.0010000895767460216,0.5395728379582947,-0.0036928047638377093,-0.22262856071287984
664,0.6546,62.368,1106.15,-0.000895124,263.868,0.00423369,0.158138,-0.17769,0.432123,-0.252197,0.359101,-0.00100028,-0.00369821,0.492835,-0.16279808414071106,0.43204143045225285,-0.0009997798867258378,0.5405245880326346,-0.0036913800435298683,-0.2229083640633982
665,0.6556,62.3757,1106.42,-0.000880434,263.917,0.00667542,0.167543,-0.177948,0.432742,-0.252557,0.359598,-0.000999958,-0.00369675,0.493543,-0.1630140543736447,0.4327533319360526,-0.0009994582086031434,0.5414784679480031,-0.0036899254318828456,-0.22318806670283953
666,0.6566,62.3834,1106.68,-0.000865591,263.967,0.00911422,0.176937,-0.178206,0.43336,-0.252917,0.360094,-0.000999632,-0.00369527,0.49425,-0.16322996889344565,0.43346415385795667,-0.000999132534373448,0.5424313960656546,-0.003688450891881301,-0.22346766866745316
667,0.6576,62.3911,1106.95,-0.000850597,264.016,0.0115501,0.186319,-0.178463,0.433977,-0.253276,0.36059,-0.0009993,-0.00369376,0.494957,-0.1634449911598953,0.4341753284349854,-0.000998800866030325,0.5433833698907515,-0.0036869464603063173,-0.2237463937402575
668,0.6586,62.3988,1107.21,-0.000835453,264.065,0.013983,0.195691,-0.178721,0.434594,-0.253635,0.361086,-0.000998962,-0.00369223,0.495664,-0.1636607945123465,0.43488685584209885,-0.0009984632035680008,0.544335931264939,-0.003685422100168312,-0.2240250187687196
669,0.6596,62.4065,1107.48,-0.00082016,264.114,0.0164129,0.205051,-0.178978,0.435211,-0.253994,0.361581,-0.000998618,-0.00369068,0.49637,-0.16387570607083868,0.4355973006563256,-0.0009981195469802584,0.5452890805508464,-0.003683877811375691,-0.22430354378874917
670,0.6606,62.4142,1107.74,-0.000804721,264.163,0.0188398,0.2144,-0.179235,0.435827,-0.254353,0.362076,-0.000998268,-0.00368911,0.497075,-0.16409056240415698,0.4363080972277884,-0.0009977698962608805,0.5462412718692822,-0.003682313593835973,-0.2245819688362427
671,0.6616,62.4219,1108.01,-0.000789134,264.212,0.0212637,0.223738,-0.179492,0.436443,-0.254711,0.362571,-0.000997912,-0.00368751,0.49778,-0.1643053635264926,0.4370192457306499,-0.00099741425140365,0.5471940499182646,-0.003680719484262407,-0.2248595188069903
672,0.6626,62.4295,1108.27,-0.000773403,264.26,0.0236846,0.233064,-0.179749,0.437059,-0.255069,0.363065,-0.00099755,-0.00368589,0.498485,-0.16452010945203288,0.43772930860913184,-0.0009970526124021273,0.5481474150593311,-0.0036791054457205874,-0.22513696943263206
673,0.6636,62.4372,1108.53,-0.000757528,264.309,0.0261025,0.242379,-0.180006,0.437674,-0.255427,0.363559,-0.000997181,-0.00368424,0.499189,-0.16473480019496156,0.43843972234533046,-0.0009966839802465488,0.5490998185536484,-0.003677461514888347,-0.22541432074872747
674,0.6646,62.4448,1108.79,-0.000741511,264.357,0.0285173,0.251682,-0.180262,0.438288,-0.255785,0.364052,-0.000996807,-0.00368258,0.499892,-0.16494860071847706,0.4391490479628446,-0.000996310352936458,0.5500512579042303,-0.003675807618101712,-0.22569157279082264
675,0.6656,62.4524,1109.05,-0.000725353,264.406,0.0309291,0.260974,-0.180518,0.438903,-0.256142,0.364545,-0.000996427,-0.00368089,0.500595,-0.16516234651606376,0.4398587233641029,-0.0009959307314623134,0.5510048326220116,-0.0036741238287938405,-0.22596795156279026
676,0.6666,62.46,1109.32,-0.000709054,264.454,0.0333378,0.270255,-0.180775,0.439516,-0.2565,0.365038,-0.000996041,-0.00367917,0.501298,-0.16537687222527464,0.440568748721591,-0.0009955451158171202,0.5519558900537302,-0.0036724101468130765,-0.2262450054405276
677,0.6676,62.4676,1109.58,-0.000692617,264.503,0.0357434,0.279523,-0.181031,0.44013,-0.256857,0.36553,-0.000995649,-0.00367744,0.502,-0.16559050839938794,0.44127768292947667,-0.0009951535059941063,0.5529090835706871,-0.003670686498591591,-0.22652118667230225
678,0.6686,62.4752,1109.84,-0.000676042,264.551,0.038146,0.288781,-0.181286,0.440743,-0.257213,0.366022,-0.000995251,-0.00367568,0.502701,-0.16580325569331333,0.44198696601881027,-0.0009947559019860552,0.5538613086660895,-0.0036689329574567386,-0.22679649612185726
679,0.6696,62.4828,1110.1,-0.000659331,264.599,0.0405454,0.298026,-0.181542,0.441355,-0.25757,0.366514,-0.000994848,-0.0036739,0.503403,-0.16601678272722942,0.4426965981612838,-0.0009943533027915175,0.5548125628410803,-0.0036671594865790302,-0.2270724805065979
680,0.6706,62.4904,1110.35,-0.000642484,264.647,0.0429417,0.30726,-0.181797,0.441968,-0.257926,0.367005,-0.000994438,-0.0036721,0.504103,-0.16622942133505914,0.44340513612281596,-0.0009939437103924087,0.5557659551269829,-0.0036653660858519954,-0.22734759373047808
681,0.6716,62.4979,1110.61,-0.000625504,264.695,0.0453349,0.316481,-0.182053,0.442579,-0.258282,0.367496,-0.000994022,-0.00367027,0.504803,-0.1664428392845343,0.44411402206190864,-0.0009935281237866134,0.5567168185847704,-0.003663542791803698,-0.22762260903148201
682,0.6726,62.5055,1110.87,-0.000608391,264.743,0.0477249,0.325691,-0.182308,0.443191,-0.258638,0.367987,-0.000993601,-0.00366843,0.505503,-0.16665536926179303,0.44482325614946117,-0.0009931075419733482,0.5576698208666975,-0.0036617095310358394,-0.2278975264444637
683,0.6736,62.513,1111.13,-0.000591146,264.791,0.0501118,0.334889,-0.182563,0.443802,-0.258993,0.368477,-0.000993174,-0.00366656,0.506203,-0.16686784505081687,0.4455313930243401,-0.0009926809659391855,0.5586218479419007,-0.0036598463766905898,-0.22817157417622547
684,0.6746,62.5206,1111.39,-0.000573771,264.839,0.0524955,0.344075,-0.182818,0.444412,-0.259348,0.368967,-0.000992741,-0.00366466,0.506901,-0.16708026666542197,0.4462398769713134,-0.000992248395676465,0.559572897309712,-0.003657953328600305,-0.22844552463830892
685,0.6756,62.5281,1111.64,-0.000556267,264.886,0.054876,0.35325,-0.183072,0.445022,-0.259703,0.369456,-0.000992302,-0.00366275,0.5076,-0.1672918014116389,0.4469472612125034,-0.0009918098311771928,0.5605245269946164,-0.0036560503134738243,-0.22871937786523844
686,0.6766,62.5356,1111.9,-0.000538635,264.934,0.0572533,0.362412,-0.183327,0.445632,-0.260058,0.369945,-0.000991858,-0.00366081,0.508298,-0.1675041149311547,0.44765499144917653,-0.0009913662714423621,0.5614767373507152,-0.003654117404336521,-0.22899313389152665
687,0.6776,62.5431,1112.15,-0.000520876,264.981,0.0596274,0.371562,-0.183581,0.446242,-0.260413,0.370434,-0.000991407,-0.00365885,0.508995,-0.1677155420335834,0.44836306785056546,-0.0009909157184468942,0.5624295287323262,-0.003652164564492799,-0.2292667927516735
688,0.6786,62.5506,1112.41,-0.000502991,265.029,0.0619983,0.380699,-0.183835,0.446851,-0.260767,0.370922,-0.000990951,-0.00365687,0.509692,-0.16792691544034788,0.4490700415152207,-0.0009904601702006577,0.5633813381118629,-0.003650191793825641,-0.22953958402013608
689,0.6796,62.5581,1112.66,-0.000484982,265.076,0.064366,0.389825,-0.184089,0.447459,-0.261121,0.371411,-0.000990489,-0.00365487,0.510388,-0.16813823516508486,0.44977881004530373,-0.0009899986276865613,0.5643321629869065,-0.0036481990922164753,-0.22981227873758026
690,0.6806,62.5656,1112.92,-0.000466849,265.123,0.0667305,0.398939,-0.184343,0.448067,-0.261475,0.371898,-0.000990022,-0.00365284,0.511084,-0.1683495012214279,0.45048502427500314,-0.0009895320899070414,0.5652835661392526,-0.003646176496007736,-0.23008487693817892
691,0.6816,62.573,1113.17,-0.000448595,265.171,0.0690916,0.40804,-0.184597,0.448675,-0.261829,0.372386,-0.000989549,-0.0036508,0.51178,-0.16856071362300717,0.45119303370709996,-0.0009890595578438965,0.5662355479206005,-0.003644143932134525,-0.23035737865609296
692,0.6826,62.5805,1113.43,-0.000430219,265.218,0.0714496,0.417129,-0.18485,0.449282,-0.262182,0.372873,-0.00098907,-0.00364873,0.512475,-0.16877104115490582,0.4518999368314549,-0.000988581031488911,0.567186541495539,-0.003642081473377856,-0.2306290145548705
693,0.6836,62.5879,1113.68,-0.000411724,265.265,0.0738042,0.426205,-0.185104,0.449889,-0.262535,0.373359,-0.000988585,-0.00364664,0.513169,-0.16898214649893883,0.4526057316950147,-0.000988096510833203,0.5681381124988092,-0.0036399990831520457,-0.230900554583098
694,0.6846,62.5954,1113.93,-0.000393109,265.312,0.0761556,0.435269,-0.185357,0.450496,-0.262888,0.373846,-0.000988095,-0.00364453,0.513864,-0.16919236742180654,0.45331332297084104,-0.000987606994880541,0.5690902612810165,-0.0036378967613320823,-0.2311719987746117
695,0.6856,62.6028,1114.18,-0.000374377,265.359,0.0785037,0.444321,-0.18561,0.451102,-0.263241,0.374332,-0.000987599,-0.00364239,0.514557,-0.16940253516550818,0.45401980490700944,-0.0009871114846107254,0.570041418150776,-0.003635764544149711,-0.2314433471632359
696,0.6866,62.6102,1114.43,-0.000355529,265.405,0.0808485,0.453361,-0.185863,0.451708,-0.263593,0.374817,-0.000987097,-0.00364024,0.515251,-0.16961264974349644,0.4547251755509438,-0.0009866099800147632,0.5709931515962836,-0.0036336223587406513,-0.23171383149699887
697,0.6876,62.6176,1114.69,-0.000336565,265.452,0.0831899,0.462387,-0.186115,0.452313,-0.263945,0.375302,-0.00098659,-0.00363806,0.515943,-0.16982188099151652,0.45543088838261436,-0.0009861034800976443,0.5719438900223737,-0.0036314502776698676,-0.2319842206370314
698,0.6886,62.625,1114.94,-0.000317487,265.499,0.0855281,0.471402,-0.186368,0.452918,-0.264297,0.375787,-0.000986077,-0.00363586,0.516636,-0.17003188948843062,0.45613694356802226,-0.0009855909858372813,0.5728952038192436,-0.0036292582644492644,-0.23225451461683588
699,0.6896,62.6324,1115.19,-0.000298296,265.545,0.0878629,0.480403,-0.18662,0.453523,-0.264649,0.376272,-0.000985559,-0.00363364,0.517327,-0.1702410151013456,0.4568433412732493,-0.0009850734962394414,0.5738470933350983,-0.00362704631894728,-0.23252471346990278
700,0.6906,62.6398,1115.44,-0.000278993,265.592,0.0901943,0.489392,-0.186873,0.454127,-0.265,0.376756,-0.000985035,-0.0036314,0.518019,-0.17045091757074293,0.4575486241151052,-0.000984550012280705,0.5747979841195812,-0.0036248144410313543,-0.23279405002414433
701,0.6916,62.6472,1115.68,-0.000259579,265.638,0.0925224,0.498368,-0.187125,0.45473,-0.265351,0.37724,-0.000984505,-0.00362914,0.51871,-0.17065993760188503,0.45825424839647844,-0.000984020533951968,0.5757478736669215,-0.003622562630567483,-0.2330632920578447
702,0.6926,62.6546,1115.93,-0.000240056,265.685,0.0948472,0.507332,-0.187376,0.455334,-0.265702,0.377723,-0.00098397,-0.00362686,0.5194,-0.170868075835106,0.4589587553231804,-0.000983486060259997,0.5766999128695123,-0.003620290887420441,-0.2333324396041747
703,0.6936,62.6619,1116.18,-0.000220423,265.731,0.0971685,0.516283,-0.187628,0.455937,-0.266053,0.378207,-0.00098343,-0.00362455,0.52009,-0.17107699075561,0.45966506227325077,-0.0009829465911967983,0.5776509496257374,-0.0036179892476340125,-0.2336014926962937
704,0.6946,62.6693,1116.43,-0.000200684,265.777,0.0994865,0.525221,-0.18788,0.456539,-0.266404,0.378689,-0.000982884,-0.00362223,0.52078,-0.17128585303618693,0.46036879041812506,-0.0009824011277367317,0.5786009814282933,-0.003615677638687642,-0.23387045136734919
705,0.6956,62.6766,1116.68,-0.000180837,265.823,0.101801,0.534146,-0.188131,0.457142,-0.266754,0.379172,-0.000982332,-0.00361988,0.521469,-0.17149383418434883,0.46107431891531303,-0.0009818496698699164,0.5795531648745518,-0.0036133361327788105,-0.23413854978940996
706,0.6966,62.6839,1116.92,-0.000160885,265.869,0.104112,0.543059,-0.188382,0.457743,-0.267104,0.379654,-0.000981775,-0.00361751,0.522157,-0.17170176313579344,0.461778726485617,-0.000981293216605228,0.5805027616518901,-0.0036109746935871767,-0.23440655439344205
707,0.6976,62.6913,1117.17,-0.000140829,265.915,0.10642,0.551958,-0.188634,0.458345,-0.267454,0.380136,-0.000981213,-0.00361512,0.522845,-0.17191046799356668,0.46248347366220854,-0.0009807317679342287,0.5814545107621436,-0.0036085933209708543,-0.23467446521227608
708,0.6986,62.6986,1117.42,-0.00012067,265.961,0.108724,0.560845,-0.188884,0.458946,-0.267804,0.380617,-0.000980645,-0.00361272,0.523533,-0.1721174645009268,0.4631870974209882,-0.000980164324828725,0.5824052505918131,-0.0036062019787252986,-0.23494228227873115
709,0.6996,62.7059,1117.66,-0.000100408,266.007,0.111025,0.569719,-0.189135,0.459546,-0.268153,0.381098,-0.000980071,-0.00361028,0.52422,-0.17232523694080504,0.4638910597042043,-0.000979590887278503,0.5833549786320884,-0.0036037707748920456,-0.2352092408352382
710,0.7006,62.7132,1117.91,-8.00459e-05,266.053,0.113323,0.578579,-0.189386,0.460147,-0.268502,0.381579,-0.000979493,-0.00360783,0.524907,-0.1725329572363452,0.4645953606747264,-0.0009790134533150807,0.5843068609862421,-0.003601329601140013,-0.2354761062394649
711,0.7016,62.7205,1118.15,-5.95832e-05,266.099,0.115617,0.587427,-0.189636,0.460746,-0.268851,0.38206,-0.000978909,-0.00360536,0.525594,-0.17273979814084583,0.46530000049550235,-0.0009784300248886213,0.5852561450781746,-0.0035988684933846438,-0.23574287852391596
712,0.7026,62.7277,1118.4,-3.90216e-05,266.144,0.117907,0.596262,-0.189887,0.461346,-0.2692,0.38254,-0.000978319,-0.00360287,0.526279,-0.1729474143945826,0.466003513325312,-0.0009778406019884667,0.5862075841684053,-0.003596387451478278,-0.23600955772108434
713,0.7036,62.735,1118.64,-1.8362e-05,266.19,0.120194,0.605083,-0.190137,0.461945,-0.269548,0.383019,-0.000977724,-0.00360036,0.526965,-0.17315415169774429,0.46670589721570677,-0.0009772461836268231,0.587158007134583,-0.0035938864752720345,-0.236275380139214
714,0.7046,62.7423,1118.89,2.39442e-06,266.235,0.122478,0.613891,-0.190387,0.462544,-0.269896,0.383499,-0.000977124,-0.00359782,0.52765,-0.1733608373230402,0.46741008503792725,-0.0009766467697946979,0.5881089995746576,-0.0035913556005294778,-0.23654111006723633
715,0.7056,62.7495,1119.13,2.32467e-05,266.281,0.124758,0.622686,-0.190637,0.463142,-0.270244,0.383978,-0.000976518,-0.00359527,0.528334,-0.17356747128338823,0.4681131428375609,-0.0009760413614591235,0.5890589727700792,-0.0035888147552467498,-0.23680674753733233
716,0.7066,62.7568,1119.37,4.41938e-05,266.326,0.127035,0.631468,-0.190886,0.46374,-0.270592,0.384457,-0.000975908,-0.0035927,0.529018,-0.1737732273653434,0.4688165374825486,-0.0009754319566585012,0.5900095142193624,-0.003586253975210063,-0.23707229258167173
717,0.7076,62.764,1119.61,6.52346e-05,266.371,0.129308,0.640237,-0.191136,0.464337,-0.270939,0.384935,-0.000975291,-0.0035901,0.529702,-0.17397975824106682,0.46951879961474363,-0.0009748155583099161,0.5909590333025965,-0.0035836632961024906,-0.2373369825697771
718,0.7086,62.7712,1119.86,8.63682e-05,266.417,0.131578,0.648993,-0.191385,0.464934,-0.271287,0.385413,-0.00097467,-0.00358749,0.530385,-0.1741854116763496,0.47022139750847836,-0.0009741951634777424,0.5919091194179653,-0.0035810626460698325,-0.2376023431244283
719,0.7096,62.7785,1120.1,0.000107594,266.462,0.133844,0.657735,-0.191634,0.465531,-0.271634,0.385891,-0.000974043,-0.00358485,0.531068,-0.17439101391030176,0.47092433132428524,-0.0009735687741017074,0.5928597729040883,-0.0035784320966029126,-0.23786684921690293
720,0.7106,62.7857,1120.34,0.00012891,266.507,0.136106,0.666463,-0.191883,0.466127,-0.271981,0.386368,-0.000973411,-0.0035822,0.53175,-0.17459656495567089,0.4716261295959081,-0.0009729373891976811,0.5938094002895897,-0.0035757915759492276,-0.23813126354168612
721,0.7116,62.7929,1120.58,0.000150315,266.552,0.138365,0.675179,-0.192132,0.466723,-0.272327,0.386845,-0.000972774,-0.00357952,0.532432,-0.17480206482520144,0.47232826270515904,-0.0009723010087561157,0.5947595938217078,-0.0035731211554923537,-0.23839482452582117
722,0.7126,62.8001,1120.82,0.00017181,266.597,0.140621,0.683881,-0.192381,0.467319,-0.272674,0.387322,-0.000972131,-0.00357683,0.533113,-0.17500751353163446,0.47303073081179337,-0.0009716586337391586,0.5957103538379667,-0.003570440763583149,-0.23865905567495505
723,0.7136,62.8073,1121.06,0.000193392,266.642,0.142873,0.69257,-0.192629,0.467914,-0.27302,0.387798,-0.000971484,-0.00357411,0.533794,-0.1752120863002068,0.4737320603428461,-0.0009710122621930939,0.596660084015209,-0.0035677304714960556,-0.2389224340746008
724,0.7146,62.8145,1121.3,0.00021506,266.686,0.145121,0.701245,-0.192878,0.468509,-0.273366,0.388274,-0.000970831,-0.00357138,0.534475,-0.17541743292400247,0.4744337237862206,-0.0009703598960512094,0.5976103794500542,-0.0035650102076870693,-0.23918572136108374
725,0.7156,62.8216,1121.54,0.000236815,266.731,0.147366,0.709907,-0.193126,0.469103,-0.273711,0.38875,-0.000970173,-0.00356862,0.535155,-0.1756219040451703,0.47513572130089665,-0.0009697025343317067,0.5985596419184895,-0.0035622600433199425,-0.23944815701446087
726,0.7166,62.8288,1121.77,0.000258654,266.776,0.149607,0.718555,-0.193374,0.469697,-0.274057,0.389225,-0.000969509,-0.00356585,0.535835,-0.17582632446378743,0.47583657720861505,-0.0009690391779939578,0.5995094684163311,-0.003559499906957475,-0.2397112624322718
727,0.7176,62.836,1122.01,0.000280576,266.82,0.151845,0.72719,-0.193622,0.470291,-0.274402,0.3897,-0.000968841,-0.00356305,0.536514,-0.17603069419242667,0.47653776610196763,-0.0009683718250892426,0.6004598592787123,-0.0035567098696511756,-0.23997351680525214
728,0.7186,62.8431,1122.25,0.000302582,266.865,0.154079,0.735811,-0.19387,0.470884,-0.274747,0.390175,-0.000968168,-0.00356024,0.537193,-0.1762350132436573,0.47723928813915983,-0.0009676994765772662,0.6014092134309508,-0.003553909860071869,-0.24023568071607937
729,0.7196,62.8503,1122.49,0.000324669,266.909,0.15631,0.744418,-0.194118,0.471477,-0.275092,0.390649,-0.000967489,-0.0035574,0.537871,-0.17643928163004607,0.4779396655380681,-0.0009670211334148471,0.6023591307171543,-0.0035510799491574874,-0.24049775419595754
730,0.7206,62.8574,1122.72,0.000346837,266.954,0.158537,0.753012,-0.194365,0.472069,-0.275436,0.391123,-0.000966805,-0.00355455,0.538549,-0.17664267600724382,0.4786403749945549,-0.0009663377946236285,0.6033080081625504,-0.003548240065688435,-0.24075897803543778
731,0.7216,62.8645,1122.96,0.000369084,266.998,0.16076,0.761593,-0.194612,0.472662,-0.275781,0.391597,-0.000966116,-0.00355168,0.539226,-0.17684602015223427,0.4793414166660528,-0.0009656494601931742,0.6042590517679503,-0.0035453802450335914,-0.24102087100887992
732,0.7226,62.8717,1123.2,0.000391411,267.042,0.16298,0.770159,-0.19486,0.473253,-0.276125,0.39207,-0.000965422,-0.00354878,0.539903,-0.17705013702769778,0.4800413106680186,-0.0009649561301133813,0.6052074490913495,-0.003542490522446262,-0.2412819149271247
733,0.7236,62.8788,1123.43,0.000413815,267.086,0.165196,0.778712,-0.195107,0.473845,-0.276469,0.392543,-0.000964723,-0.00354587,0.540579,-0.1772533805422446,0.4807415357981528,-0.0009642578043735917,0.606158013240438,-0.0035395908268746057,-0.2415428690617053
734,0.7246,62.8859,1123.67,0.000436297,267.13,0.167408,0.787251,-0.195353,0.474436,-0.276812,0.393016,-0.000964019,-0.00354294,0.541256,-0.17745575131800528,0.4814420922131162,-0.0009635544829635911,0.6071075331817686,-0.003536671193598462,-0.24180297524685623
735,0.7256,62.893,1123.9,0.000458854,267.175,0.169617,0.795777,-0.1956,0.475026,-0.277156,0.393488,-0.00096331,-0.00353999,0.541931,-0.1776588946581944,0.48214149792740457,-0.0009628461658726106,0.608056006398431,-0.0035337316224426374,-0.24206375016751347
736,0.7266,62.9001,1124.14,0.000481486,267.219,0.171822,0.804289,-0.195847,0.475616,-0.277499,0.39396,-0.000962596,-0.00353702,0.542606,-0.17786198782817475,0.4828412338391106,-0.000962132853090103,0.6090050393794055,-0.003530772113230718,-0.2423236777210822
737,0.7276,62.9072,1124.37,0.000504192,267.262,0.174024,0.812786,-0.196093,0.476206,-0.277842,0.394432,-0.000961877,-0.00353403,0.543281,-0.17806420890495678,0.48354130010412444,-0.0009614145446054101,0.6099546324550507,-0.0035277926657850678,-0.24258351613478835
738,0.7286,62.9142,1124.61,0.000526972,267.306,0.176221,0.82127,-0.196339,0.476796,-0.278185,0.394903,-0.000961153,-0.00353102,0.543955,-0.17826638024147223,0.4842402126374543,-0.0009606912404076517,0.6109047859559196,-0.00352479327992683,-0.24284326543920187
739,0.7296,62.9213,1124.84,0.000549823,267.35,0.178416,0.829741,-0.196585,0.477385,-0.278527,0.395374,-0.000960424,-0.003528,0.544629,-0.17846850184995566,0.4849394544361234,-0.0009599629404861698,0.6118538883580664,-0.003521783920258481,-0.24310216876742907
740,0.7306,62.9284,1125.07,0.000572746,267.394,0.180606,0.838197,-0.196831,0.477973,-0.27887,0.395845,-0.00095969,-0.00352495,0.545303,-0.17867057374263873,0.4856390256552523,-0.0009592296448298621,0.6128019371434485,-0.0035187446570644765,-0.2433617402044954
741,0.7316,62.9354,1125.3,0.00059574,267.437,0.182793,0.84664,-0.197077,0.478562,-0.279212,0.396315,-0.000958951,-0.00352188,0.545976,-0.17887259593174998,0.48633744011185076,-0.0009584913534277373,0.6137521572967903,-0.003515685454914763,-0.24362046624467082
742,0.7326,62.9425,1125.54,0.000618802,267.481,0.184976,0.855068,-0.197323,0.47915,-0.279554,0.396785,-0.000958207,-0.0035188,0.546648,-0.17907456842951497,0.48703618290039596,-0.0009577480662688043,0.6147013225925304,-0.003512616278499414,-0.24387910381566957
743,0.7336,62.9495,1125.77,0.000641934,267.525,0.187156,0.863483,-0.197568,0.479737,-0.279895,0.397255,-0.000957459,-0.0035157,0.54732,-0.1792756705242372,0.48773525417524,-0.0009570007823848092,0.6156494305113425,-0.003509527162821713,-0.24413689708501796
744,0.7346,62.9565,1126.0,0.000665132,267.568,0.189332,0.871883,-0.197813,0.480324,-0.280237,0.397725,-0.000956705,-0.00351258,0.547992,-0.17947672335498133,0.4884346540908078,-0.0009562475036795082,0.6165980951328789,-0.003506418107696363,-0.24439535806686785
745,0.7356,62.9636,1126.23,0.000688398,267.611,0.191504,0.88027,-0.198059,0.480911,-0.280578,0.398194,-0.000955946,-0.00350943,0.548663,-0.17967854725567844,0.4891328936679584,-0.0009554892291835371,0.6175473167840204,-0.0035032791479695513,-0.24465297532352837
746,0.7366,62.9706,1126.46,0.000711729,267.655,0.193672,0.888643,-0.198304,0.481498,-0.280919,0.398662,-0.000955183,-0.00350628,0.549334,-0.17987950139371378,0.4898299709655596,-0.0009547269579309736,0.6184970957918394,-0.0035001401783549824,-0.24491050474768072
747,0.7376,62.9776,1126.69,0.000735126,267.698,0.195837,0.897001,-0.198548,0.482084,-0.28126,0.399131,-0.000954415,-0.0035031,0.550005,-0.1800795863840121,0.4905288650998061,-0.0009539596908666459,0.6194458130369775,-0.003496971303762253,-0.24516794636927075
748,0.7386,62.9846,1126.92,0.000758586,267.741,0.197998,0.905346,-0.198793,0.48267,-0.2816,0.399599,-0.000953642,-0.0034999,0.550675,-0.18028044227949613,0.4912265958649369,-0.0009531874279790076,0.6203950863933458,-0.0034937824889683666,-0.24542454564315674
749,0.7396,62.9916,1127.15,0.00078211,267.784,0.200155,0.913676,-0.199038,0.483255,-0.281941,0.400067,-0.000952864,-0.00349669,0.551344,-0.18048124897131346,0.49192465324448764,-0.0009524101692565123,0.6213432948428157,-0.003490583698876115,-0.24568181200668449
750,0.7406,62.9986,1127.38,0.000805695,267.827,0.202309,0.921993,-0.199282,0.48384,-0.282281,0.400534,-0.000952081,-0.00349345,0.552013,-0.18068118715311432,0.4926215447690585,-0.0009516279146873918,0.6222920581565106,-0.003487355003136794,-0.24593823659595182
751,0.7416,63.0056,1127.61,0.000829342,267.87,0.204459,0.930295,-0.199526,0.484424,-0.282621,0.401001,-0.000951294,-0.0034902,0.552682,-0.1808810765559501,0.4933187618179753,-0.0009508416633091654,0.6232397534185556,-0.003484116331777698,-0.24619457401567846
752,0.7426,63.0126,1127.84,0.00085305,267.913,0.206605,0.938583,-0.199771,0.485009,-0.28296,0.401468,-0.000950501,-0.00348693,0.55335,-0.1810817361103948,0.49401630454329326,-0.0009500494170124885,0.6241896264850884,-0.003480857719510233,-0.2464500707459445
753,0.7436,63.0195,1128.06,0.000876817,267.956,0.208747,0.946857,-0.200014,0.485592,-0.2833,0.401935,-0.000949704,-0.00348364,0.554018,-0.18128070907232596,0.49471417309713916,-0.0009492531738846122,0.6251368051130712,-0.003477579166139,-0.24670623417164084
754,0.7446,63.0265,1128.29,0.000900643,267.999,0.210886,0.955117,-0.200258,0.486176,-0.283639,0.402401,-0.000948903,-0.00348034,0.554685,-0.18148045220965858,0.4954108722200905,-0.0009484529339158776,0.6260861621925424,-0.003474290636724109,-0.2469615574785109
755,0.7456,63.0335,1128.52,0.000924527,268.042,0.213021,0.963363,-0.200502,0.486759,-0.283978,0.402867,-0.000948096,-0.00347701,0.555352,-0.18168014661561116,0.496107896080491,-0.0009476466989920551,0.6270344468232112,-0.003470972200586786,-0.2472167942454494
756,0.7466,63.0404,1128.74,0.000948469,268.085,0.215152,0.971595,-0.200745,0.487342,-0.284317,0.403332,-0.000947285,-0.00347367,0.556019,-0.18187897418145593,0.4968037480252072,-0.0009468364672050589,0.6279832844650068,-0.003467643788075403,-0.24747194450178822
757,0.7476,63.0474,1128.97,0.000972466,268.127,0.217279,0.979812,-0.200989,0.487924,-0.284655,0.403797,-0.000946469,-0.00347031,0.556685,-0.18207857135990968,0.49749992361631956,-0.0009460212394909462,0.6289310465085676,-0.0034642954337333887,-0.24772625600348164
758,0.7486,63.0543,1129.2,0.000996519,268.17,0.219403,0.988015,-0.201232,0.488506,-0.284994,0.404262,-0.000945648,-0.00346693,0.557351,-0.1822773021203039,0.49819642300435896,-0.0009452010158377266,0.6298793603101838,-0.0034609271373594597,-0.24798123358155522
759,0.7496,63.0612,1129.42,0.00102063,268.212,0.221523,0.996204,-0.201475,0.489088,-0.285332,0.404727,-0.000944823,-0.00346354,0.558016,-0.18247598459499026,0.4988932463399256,-0.0009443767952885818,0.630828226191072,-0.003457548864176374,-0.248235372972628
760,0.7506,63.0682,1129.65,0.00104479,268.255,0.223639,1.00438,-0.201718,0.489669,-0.28567,0.405191,-0.000943993,-0.00346012,0.558681,-0.1826746187957009,0.4995888941840463,-0.0009435475787771264,0.6317760126958074,-0.0034541406831654076,-0.248489426479102
761,0.7516,63.0751,1129.87,0.001069,268.297,0.225752,1.01254,-0.201961,0.49025,-0.286007,0.405655,-0.000943158,-0.00345669,0.559345,-0.1828732047341648,0.5002848648836633,-0.000942713366291148,0.6327243500245008,-0.0034507225250058893,-0.24874264287301973
762,0.7526,63.082,1130.1,0.00109327,268.34,0.22786,1.02068,-0.202203,0.49083,-0.286345,0.406118,-0.000942319,-0.00345324,0.560009,-0.1830709254934424,0.5009796576082082,-0.0009418751568760486,0.6336716048248523,-0.0034472844240678313,-0.24899652495124036
763,0.7536,63.0889,1130.32,0.00111758,268.382,0.229965,1.02882,-0.202446,0.491411,-0.286682,0.406582,-0.000941475,-0.00344977,0.560673,-0.18326941514107853,0.5016762737717901,-0.0009410319514627785,0.6346210438125737,-0.0034438263801450653,-0.2492495704817651
764,0.7546,63.0958,1130.54,0.00114195,268.424,0.232066,1.03693,-0.202688,0.49199,-0.287019,0.407045,-0.000940627,-0.00344629,0.561336,-0.18346704002903846,0.502371710867811,-0.0009401847490987381,0.6355677634458268,-0.0034403583586265496,-0.24950253075031348
765,0.7556,63.1027,1130.77,0.00116637,268.466,0.234163,1.04504,-0.20293,0.49257,-0.287356,0.407507,-0.000939774,-0.00344278,0.561999,-0.18366461709756188,0.5030659669590403,-0.0009393325507127681,0.6365166679043175,-0.003436860428145505,-0.24975540578561384
766,0.7566,63.1096,1130.99,0.00119083,268.508,0.236257,1.05312,-0.203172,0.493149,-0.287693,0.40797,-0.000938916,-0.00343926,0.562661,-0.18386214635821974,0.5037620476319833,-0.0009384753562924342,0.6374644854217264,-0.003433352519720323,-0.2500081956163852
767,0.7576,63.1165,1131.21,0.00121535,268.55,0.238346,1.0612,-0.203414,0.493728,-0.288029,0.408432,-0.000938054,-0.00343573,0.563323,-0.18405962782258012,0.5044569462071999,-0.000937614164887024,0.6384128518843821,-0.003429834633245643,-0.2502601505318619
768,0.7586,63.1233,1131.44,0.00123991,268.592,0.240432,1.06926,-0.203656,0.494306,-0.288365,0.408893,-0.000937188,-0.00343217,0.563984,-0.18425706150220822,0.5051506607483174,-0.0009367489764862125,0.6393601282492682,-0.0034262868371418564,-0.2505120208047078
769,0.7596,63.1302,1131.66,0.00126452,268.634,0.242514,1.0773,-0.203897,0.494884,-0.288701,0.409355,-0.000936316,-0.0034286,0.564645,-0.18445363186270636,0.5058462010110123,-0.0009358777929514561,0.6403079522981587,-0.003422729062635299,-0.25076380646335794
770,0.7606,63.1371,1131.88,0.00128917,268.676,0.244592,1.08533,-0.204139,0.495461,-0.289037,0.409816,-0.000935441,-0.00342501,0.565306,-0.18465097020489307,0.5065405561462399,-0.0009350036114621485,0.6412546830922028,-0.0034191513438105448,-0.251015507536238
771,0.7616,63.1439,1132.1,0.00131387,268.718,0.246667,1.09335,-0.20438,0.496039,-0.289373,0.410277,-0.00093456,-0.0034214,0.565966,-0.18484744564483224,0.5072352314529787,-0.0009341234348125838,0.6422036025103237,-0.0034155536804532094,-0.251267124051764
772,0.7626,63.1508,1132.32,0.00133861,268.76,0.248737,1.10135,-0.204621,0.496616,-0.289708,0.410737,-0.000933676,-0.00341778,0.566626,-0.18504387373989573,0.5079287191493889,-0.0009332402601873735,0.6431514274101591,-0.003411946038227698,-0.2515179075566243
773,0.7636,63.1576,1132.54,0.00136339,268.801,0.250804,1.10934,-0.204862,0.497192,-0.290043,0.411197,-0.000932787,-0.00341413,0.567285,-0.18524025450149206,0.5086225259235213,-0.0009323520894430892,0.6440981552637941,-0.0034083084851921353,-0.2517686070630809
774,0.7646,63.1645,1132.76,0.00138822,268.843,0.252867,1.11731,-0.205103,0.497768,-0.290378,0.411657,-0.000931893,-0.00341047,0.567944,-0.18543658794102746,0.5093166519221861,-0.0009314589225666303,0.6450454285897538,-0.0034046609529262417,-0.2520192225992687
775,0.7656,63.1713,1132.98,0.00141309,268.885,0.254926,1.12527,-0.205344,0.498344,-0.290713,0.412117,-0.000930995,-0.0034068,0.568603,-0.18563287406990514,0.5100110972922602,-0.0009305617586139459,0.6459932477023205,-0.003401003441320438,-0.252269754193313
776,0.7666,63.1781,1133.2,0.001438,268.926,0.256982,1.13322,-0.205584,0.498919,-0.291047,0.412576,-0.000930092,-0.00340311,0.569261,-0.18582829872823137,0.5107043514755811,-0.0009296595985038847,0.6469399659751687,-0.003397325984238253,-0.2525194543931577
777,0.7676,63.185,1133.42,0.00146295,268.968,0.259033,1.14115,-0.205824,0.499494,-0.291381,0.413035,-0.000929186,-0.0033994,0.569918,-0.1860236764902673,0.511397923935611,-0.0009287544403654424,0.6478872287675581,-0.003393628581458974,-0.25276907120706193
778,0.7686,63.1918,1133.64,0.00148794,269.009,0.261081,1.14906,-0.206065,0.500069,-0.291715,0.413493,-0.000928274,-0.00339567,0.570576,-0.18621982114785252,0.512090302727414,-0.0009278432869740394,0.6488350363926776,-0.0033899112327606673,-0.25301860466287196
779,0.7696,63.1986,1133.86,0.00151297,269.05,0.263125,1.15696,-0.206305,0.500644,-0.292049,0.413952,-0.000927359,-0.00339193,0.571232,-0.18641510495578273,0.5127845114850875,-0.0009269291355323839,0.649783389163896,-0.0033861839040585373,-0.2532680547884246
780,0.7706,63.2054,1134.07,0.00153803,269.092,0.265165,1.16485,-0.206545,0.501218,-0.292383,0.414409,-0.000926439,-0.00338817,0.571889,-0.18661034190122272,0.5134760120026696,-0.0009260099878843908,0.6507306366633008,-0.003382436629065233,-0.25351742161154756
781,0.7716,63.2122,1134.29,0.00156314,269.133,0.267201,1.17272,-0.206785,0.501791,-0.292716,0.414867,-0.000925514,-0.00338439,0.572545,-0.18680553199541827,0.5141693427767944,-0.0009250858440161824,0.651676776361245,-0.003378669407555601,-0.2537659589263913
782,0.7726,63.219,1134.51,0.00158828,269.174,0.269233,1.18058,-0.207024,0.502364,-0.29305,0.415324,-0.000924585,-0.0033806,0.5732,-0.18699986224988097,0.5148614763069093,-0.000924157702989814,0.6526234583525887,-0.003374892205554869,-0.25401515947730124
783,0.7736,63.2258,1134.73,0.00161345,269.215,0.271262,1.18842,-0.207264,0.502937,-0.293383,0.415781,-0.000923652,-0.00337679,0.573856,-0.18719495887041004,0.5155539262143338,-0.0009232255647941834,0.6535706829481545,-0.0033710950566605558,-0.25426353107302957
784,0.7746,63.2325,1134.94,0.00163866,269.256,0.273286,1.19625,-0.207503,0.50351,-0.293715,0.416238,-0.000922715,-0.00337296,0.57451,-0.1873891960629709,0.516246692643686,-0.0009222894294178552,0.6545184504589441,-0.0033672779606449543,-0.2545110744862329
785,0.7756,63.2393,1135.16,0.00166391,269.297,0.275307,1.20406,-0.207742,0.504082,-0.294048,0.416695,-0.000921773,-0.00336912,0.575165,-0.18758338683838982,0.516939775739649,-0.0009213482977712406,0.6554651057302032,-0.0033634508836443144,-0.25475928096975586
786,0.7766,63.2461,1135.37,0.00168919,269.338,0.277324,1.21186,-0.207981,0.504654,-0.29438,0.417151,-0.000920827,-0.00336526,0.575819,-0.1877775312077592,0.5176316580145559,-0.0009204031689197256,0.6564123026431725,-0.0033596038591400257,-0.2550066598213123
787,0.7776,63.2528,1135.59,0.0017145,269.379,0.279337,1.21964,-0.20822,0.505226,-0.294712,0.417607,-0.000919877,-0.00336138,0.576472,-0.1879716291821686,0.518323855859725,-0.0009194540428518749,0.657360041507759,-0.0033557368869010507,-0.255253956556722
788,0.7786,63.2596,1135.81,0.00173984,269.42,0.281347,1.22741,-0.208459,0.505797,-0.295044,0.418062,-0.000918923,-0.00335749,0.577125,-0.18816568077270535,0.5190148504034786,-0.0009185009195563643,0.6583066643265552,-0.0033518599331768817,-0.2555011712032431
789,0.7796,63.2663,1136.02,0.00176522,269.461,0.283352,1.23517,-0.208698,0.506368,-0.295376,0.418517,-0.000917964,-0.00335358,0.577778,-0.1883596859904536,0.5197061594212873,-0.0009175427999393859,0.6592538278213287,-0.0033479630313307807,-0.25574830378812463
790,0.7806,63.2731,1136.23,0.00179062,269.501,0.285354,1.24291,-0.208936,0.506938,-0.295708,0.418972,-0.000917001,-0.00334965,0.57843,-0.1885528333997345,0.5203977830562692,-0.0009165806830698786,0.6601998721001923,-0.0033440461811288236,-0.2559953543386063
791,0.7816,63.2798,1136.45,0.00181606,269.542,0.287351,1.25063,-0.209174,0.507508,-0.296039,0.419427,-0.000916034,-0.00334571,0.579082,-0.1887459348454018,0.5210897214516073,-0.000915614568936185,0.6611464557780087,-0.0033401193489349668,-0.25624157912387024
792,0.7826,63.2866,1136.66,0.00184152,269.583,0.289345,1.25834,-0.209413,0.508078,-0.29637,0.419881,-0.000915062,-0.00334175,0.579734,-0.1889398013989978,0.5217804529693366,-0.0009146434584416108,0.6620935791623235,-0.003336172567993012,-0.25648772242221707
793,0.7836,63.2933,1136.88,0.00186701,269.623,0.291335,1.26604,-0.209651,0.508647,-0.296701,0.420335,-0.000914087,-0.00333778,0.580385,-0.1891328107572401,0.5224714981503711,-0.0009136693497441284,0.6630395795204453,-0.0033322158047438544,-0.25673378426061444
794,0.7846,63.3,1137.09,0.00189253,269.664,0.293321,1.27372,-0.209889,0.509216,-0.297032,0.420789,-0.000913107,-0.00333379,0.581035,-0.18932577418472119,0.5231628571371463,-0.0009126902446603413,0.6639861183059395,-0.0033282390923514704,-0.25697976466602124
795,0.7856,63.3067,1137.3,0.00191808,269.704,0.295303,1.28139,-0.210126,0.509785,-0.297362,0.421242,-0.000912123,-0.00332979,0.581686,-0.1895178812106576,0.5238530062183944,-0.0009117071422638512,0.6649331958252576,-0.0033242523973343596,-0.2572249208906796
796,0.7866,63.3135,1137.51,0.00194366,269.745,0.297282,1.28904,-0.210364,0.510353,-0.297693,0.421695,-0.000911135,-0.00332577,0.582336,-0.1897107530022759,0.5245434680079992,-0.0009107200425428896,0.6658791465050469,-0.0033202457527756746,-0.25747073875676363
797,0.7876,63.3202,1137.73,0.00196926,269.785,0.299256,1.29668,-0.210602,0.510921,-0.298023,0.422148,-0.000910143,-0.00332173,0.582985,-0.18990357889586984,0.52523424264765,-0.0009097289454855773,0.6668256346374448,-0.00331621915843483,-0.2577157329867026
798,0.7886,63.3269,1137.94,0.00199488,269.825,0.301227,1.3043,-0.210839,0.511489,-0.298352,0.4226,-0.000909147,-0.00331768,0.583634,-0.19009554899831582,0.5259238043545322,-0.0009087338510800347,0.6677726605278107,-0.003312182580948342,-0.25795990434215954
799,0.7896,63.3336,1138.15,0.00202053,269.866,0.303193,1.31191,-0.211076,0.512056,-0.298682,0.423052,-0.000908147,-0.00331361,0.584283,-0.19028747360923848,0.5266136778137571,-0.0009077347593143825,0.6687185557622877,-0.003308126053276461,-0.25820473717408754
800,0.7906,63.3403,1138.36,0.00204621,269.906,0.305156,1.3195,-0.211313,0.512623,-0.299012,0.423504,-0.000907142,-0.00330952,0.584931,-0.19047935273941796,0.5273038631662679,-0.0009067306710832668,0.6696649874714389,-0.003304049575175605,-0.2584494892245106
801,0.7916,63.347,1138.57,0.0020719,269.946,0.307115,1.32708,-0.21155,0.513189,-0.299341,0.423956,-0.000906134,-0.00330542,0.585579,-0.1906711863996321,0.5279943605530726,-0.000905723584560203,0.6706102853484108,-0.0032999631134016383,-0.25869341921387234
802,0.7926,63.3536,1138.78,0.00209762,269.986,0.30907,1.33464,-0.211787,0.513756,-0.29967,0.424407,-0.000905121,-0.00330131,0.586226,-0.19086297460065582,0.5286836414308365,-0.0009047115015455853,0.6715577899723799,-0.0032958666678317705,-0.2589372689634676
803,0.7936,63.3603,1138.99,0.00212337,270.026,0.311022,1.34219,-0.212023,0.514322,-0.299999,0.424858,-0.000904104,-0.00329718,0.586873,-0.19105390840757464,0.5293732332443872,-0.000903695421120454,0.6725041594788099,-0.0032917502712608293,-0.2591810384996911
804,0.7946,63.367,1139.2,0.00214913,270.066,0.312969,1.34972,-0.21226,0.514887,-0.300327,0.425309,-0.000903084,-0.00329303,0.58752,-0.19124560591423023,0.530063136133988,-0.0009026763423700679,0.673449391331769,-0.003287613923441457,-0.2594239872732862
805,0.7956,63.3736,1139.41,0.00217491,270.106,0.314912,1.35724,-0.212496,0.515452,-0.300656,0.425759,-0.000902059,-0.00328887,0.588166,-0.19143644943081373,0.5307518194873813,-0.000901652267088493,0.674395157391624,-0.003283467591291056,-0.2596675967055242
806,0.7966,63.3803,1139.62,0.00220071,270.146,0.316852,1.36475,-0.212732,0.516017,-0.300984,0.426209,-0.000901031,-0.00328469,0.588812,-0.1916272479136416,0.5314408128180232,-0.0009006251934591258,0.6753414579602872,-0.0032793013074781108,-0.2599103859141979
807,0.7976,63.387,1139.83,0.00222654,270.186,0.318788,1.37224,-0.212968,0.516582,-0.301312,0.426659,-0.000899998,-0.0032805,0.589457,-0.19181800137334037,0.532130116265435,-0.0008995931232718135,0.6762882933398418,-0.003275125039001292,-0.2601530955010699
808,0.7986,63.3936,1140.04,0.00225238,270.226,0.32072,1.37971,-0.213204,0.517146,-0.30164,0.427108,-0.000898961,-0.00327629,0.590102,-0.1920087098205343,0.532818197150237,-0.0008985570556127032,0.6772339865977157,-0.003270928818444596,-0.26039572549225176
809,0.7996,63.4003,1140.25,0.00227824,270.265,0.322648,1.38717,-0.21344,0.517709,-0.301967,0.427557,-0.000897921,-0.00327207,0.590747,-0.19219937326584524,0.5335065870527258,-0.0008975179895717167,0.6781785351976517,-0.0032667226128891835,-0.2606375365517528
810,0.8006,63.4069,1140.45,0.00230411,270.305,0.324572,1.39462,-0.213676,0.518273,-0.302295,0.428006,-0.000896876,-0.00326783,0.591391,-0.19238999171989213,0.5341952861116808,-0.000896473926932484,0.6791252948526292,-0.0032624964548335633,-0.2608800076723262
811,0.8016,63.4135,1140.66,0.00233001,270.345,0.326492,1.40205,-0.213911,0.518836,-0.302622,0.428455,-0.000895828,-0.00326357,0.592035,-0.19257975777345337,0.5348842944659451,-0.0008954268658885045,0.6800709085589121,-0.0032582503440242716,-0.26112166039744344
812,0.8026,63.4202,1140.87,0.00235592,270.384,0.328408,1.40947,-0.214147,0.519399,-0.302949,0.428903,-0.000894775,-0.0032593,0.592678,-0.19277028646734862,0.5355720766815788,-0.0008943748082190783,0.6810170547956049,-0.0032539942476664807,-0.26136323411503815
813,0.8036,63.4268,1141.08,0.00238184,270.424,0.330321,1.41687,-0.214382,0.519961,-0.303276,0.429351,-0.000893719,-0.00325502,0.593321,-0.19295996316214425,0.5362601670926757,-0.0008933197521218128,0.6819620518997136,-0.003249728165632515,-0.2616047288509412
814,0.8046,63.4334,1141.28,0.00240778,270.463,0.332229,1.42426,-0.214617,0.520523,-0.303602,0.429799,-0.000892659,-0.00325072,0.593964,-0.19314959528815367,0.5369485658373383,-0.0008922606984794745,0.6829075802414584,-0.003245442130248577,-0.26184540647675136
815,0.8056,63.44,1141.49,0.00243374,270.503,0.334134,1.43163,-0.214852,0.521085,-0.303929,0.430246,-0.000891595,-0.00324641,0.594606,-0.19333918285584928,0.5376357354172268,-0.000891197647279296,0.6838536401194795,-0.0032411461088462934,-0.2620867435680685
816,0.8066,63.4466,1141.69,0.00245971,270.542,0.336034,1.43899,-0.215087,0.521646,-0.304255,0.430693,-0.000890527,-0.00324208,0.595248,-0.19352872587570102,0.538323212230579,-0.0008901305985086205,0.6847985470331939,-0.0032368301336648253,-0.26232726408269125
817,0.8076,63.4533,1141.9,0.00248569,270.581,0.337931,1.44633,-0.215321,0.522207,-0.304581,0.43114,-0.000889455,-0.00323774,0.59589,-0.19371741807599763,0.5390109964147594,-0.0008890595521545697,0.6857439841884057,-0.0032325041721202874,-0.2625677062004057
818,0.8086,63.4599,1142.1,0.00251168,270.621,0.339824,1.45366,-0.215556,0.522768,-0.304907,0.431587,-0.000888379,-0.00323338,0.596531,-0.19390687222101588,0.5396990881071926,-0.0008879845082042648,0.6866899518826641,-0.003228158256364355,-0.262808069946765
819,0.8096,63.4665,1142.31,0.00253769,270.66,0.341713,1.46097,-0.21579,0.523328,-0.305232,0.432033,-0.0008873,-0.00322901,0.597171,-0.19409547594541976,0.540385947058649,-0.0008869064657579528,0.6876347627780781,-0.0032238023538982974,-0.2630476183953009
820,0.8106,63.473,1142.51,0.0025637,270.699,0.343599,1.46827,-0.216024,0.523888,-0.305558,0.432479,-0.000886216,-0.00322462,0.597811,-0.19428403554171536,0.5410731124175214,-0.0008858234265775033,0.6885801029157674,-0.003219426496785638,-0.26328782571578346
821,0.8116,63.4796,1142.72,0.00258973,270.738,0.34548,1.47555,-0.216258,0.524448,-0.305883,0.432924,-0.000885129,-0.00322022,0.598451,-0.19447255102022742,0.5417590425606849,-0.000884737388877288,0.689525972592191,-0.0032150406526133546,-0.2635272182690287
822,0.8126,63.4862,1142.92,0.00261577,270.777,0.347357,1.48282,-0.216492,0.525007,-0.306208,0.43337,-0.000884038,-0.0032158,0.599091,-0.19466102239127825,0.542446820456737,-0.0008836473535311917,0.6904706816324464,-0.0032106348533562645,-0.26376653303233577
823,0.8136,63.4928,1143.13,0.00264182,270.816,0.349231,1.49007,-0.216726,0.525566,-0.306533,0.433815,-0.000882944,-0.00321137,0.59973,-0.1948494496651879,0.5431333620360121,-0.0008825543196435692,0.6914159189126847,-0.003206219066687721,-0.26400577003098225
824,0.8146,63.4994,1143.33,0.00266788,270.855,0.351101,1.49731,-0.21696,0.526125,-0.306857,0.434259,-0.000881845,-0.00320692,0.600368,-0.19503783285227372,0.5438186653748394,-0.0008814562889672972,0.6923616847282743,-0.003201783324493057,-0.2642441935347988
825,0.8156,63.5059,1143.53,0.00269394,270.894,0.352966,1.50454,-0.217193,0.526683,-0.307182,0.434704,-0.000880743,-0.00320246,0.601007,-0.1952253671886206,0.544505817560953,-0.0008803552597255182,0.6933062860676169,-0.0031973375945326676,-0.26448327531900573
826,0.8166,63.5125,1143.74,0.00272001,270.933,0.354828,1.51175,-0.217427,0.527241,-0.307506,0.435148,-0.000879637,-0.00319799,0.601645,-0.1954136624212971,0.5451917304053333,-0.000879250232787343,0.6942514146415915,-0.0031928818766732148,-0.26472154413616955
827,0.8176,63.5191,1143.94,0.0027461,270.972,0.356686,1.51894,-0.21766,0.527799,-0.30783,0.435592,-0.000878527,-0.0031935,0.602282,-0.1956011091995552,0.5458779478626357,-0.0008781412081395601,0.6951970707444775,-0.0031884062026650284,-0.2649597357667416
828,0.8186,63.5256,1144.14,0.00277218,271.011,0.35854,1.52612,-0.217893,0.528356,-0.308154,0.436035,-0.000877414,-0.003189,0.602919,-0.1957885123078017,0.5465629235044414,-0.0008770291848919642,0.696141558528311,-0.003183920540400176,-0.2651978502357262
829,0.8196,63.5322,1144.34,0.00279828,271.049,0.360391,1.53329,-0.218126,0.528913,-0.308477,0.436479,-0.000876297,-0.00318448,0.603556,-0.19597587175621067,0.5472497499066555,-0.0008759131639102247,0.6970865725383806,-0.0031794149215382816,-0.26543515300363985
830,0.8206,63.5387,1144.54,0.00282438,271.088,0.362237,1.54044,-0.218359,0.52947,-0.308801,0.436922,-0.000875176,-0.00317995,0.604192,-0.19616318755495343,0.5479353333913939,-0.0008747931451811297,0.6980321130678757,-0.003174899314060009,-0.26567311346239064
831,0.8216,63.5452,1144.74,0.00285048,271.127,0.364079,1.54757,-0.218592,0.530026,-0.309124,0.437364,-0.000874052,-0.0031754,0.604828,-0.1963504597141994,0.548619672036452,-0.0008736701278174719,0.6989764814328188,-0.0031703637495335,-0.26591026274507146
832,0.8226,63.5518,1144.95,0.00287659,271.165,0.365918,1.55469,-0.218824,0.530582,-0.309447,0.437807,-0.000872924,-0.00317085,0.605464,-0.19653688478140174,0.5493058625311369,-0.0008725431126817007,0.699921375012569,-0.003165828164370166,-0.2661473354409033
833,0.8236,63.5583,1145.15,0.00290271,271.204,0.367753,1.5618,-0.219057,0.531138,-0.30977,0.438249,-0.000871792,-0.00316627,0.606099,-0.19672406987933688,0.5499908070839707,-0.0008714120997603825,0.7008667940992268,-0.0031612626534081034,-0.2663843315746197
834,0.8246,63.5648,1145.35,0.00292882,271.242,0.369584,1.56889,-0.219289,0.531693,-0.310092,0.438691,-0.000870657,-0.00316168,0.606734,-0.19691040827903472,0.5506760544492135,-0.0008702780881695293,0.7018110371731672,-0.0031566871531029106,-0.26662051779183105
835,0.8256,63.5714,1145.55,0.00295494,271.281,0.37141,1.57597,-0.219521,0.532248,-0.310415,0.439132,-0.000869518,-0.00315708,0.607368,-0.19709670345323815,0.5513600533999088,-0.0008691400787682602,0.7027558044474662,-0.0031521016633172527,-0.26685736111232883
836,0.8266,63.5779,1145.75,0.00298107,271.319,0.373234,1.58303,-0.219753,0.532802,-0.310737,0.439574,-0.000868375,-0.00315247,0.608002,-0.19728295541197438,0.5520459061057936,-0.0008679980715426971,0.7036993925128905,-0.003147506183913351,-0.2670933950385491
837,0.8276,63.5844,1145.95,0.00300719,271.357,0.375053,1.59008,-0.219985,0.533357,-0.311059,0.440015,-0.000867229,-0.00314784,0.608636,-0.19746916416526827,0.5527305092942942,-0.0008668530656124052,0.704645208115287,-0.0031428907461822364,-0.26732935297408034
838,0.8286,63.5909,1146.14,0.00303332,271.396,0.376868,1.59711,-0.220217,0.53391,-0.311381,0.440455,-0.00086608,-0.0031432,0.609269,-0.19765532972314215,0.5534138610447439,-0.0008657050609670591,0.7055881376113506,-0.003138265318464284,-0.2675652349433876
839,0.8296,63.5974,1146.34,0.00305945,271.434,0.378679,1.60413,-0.220448,0.534464,-0.311702,0.440896,-0.000864926,-0.00313854,0.609902,-0.1978406499366674,0.5540990676344129,-0.0008645520593253408,0.7065332952240726,-0.0031336199319569324,-0.26780030877160277
840,0.8306,63.6039,1146.54,0.00308557,271.472,0.380487,1.61113,-0.22068,0.535017,-0.312024,0.441336,-0.000863769,-0.00313387,0.610534,-0.198026729319839,0.5547830216830281,-0.0008633960589433665,0.7074772691210576,-0.0031289645550917067,-0.2680360391175559
841,0.8316,63.6104,1146.74,0.0031117,271.51,0.382291,1.61812,-0.220911,0.53557,-0.312345,0.441776,-0.000862609,-0.00312919,0.611166,-0.19821196374996575,0.5554672767376414,-0.0008622370598105888,0.7084217651799722,-0.0031242991877289406,-0.2682709618418846
842,0.8326,63.6169,1146.94,0.00313783,271.548,0.384091,1.62509,-0.221142,0.536123,-0.312666,0.442215,-0.000861445,-0.00312449,0.611798,-0.198397155395881,0.5561502767796693,-0.0008610740627776892,0.7093667836896518,-0.0031196138609245194,-0.26850580916812095
843,0.8336,63.6234,1147.14,0.00316396,271.586,0.385886,1.63205,-0.221373,0.536675,-0.312987,0.442655,-0.000860278,-0.00311978,0.612429,-0.19858230426746648,0.5568351335588948,-0.0008599080669706716,0.7103106146276215,-0.0031149185432484128,-0.26874058112046373
844,0.8346,63.6299,1147.33,0.00319008,271.625,0.387679,1.639,-0.221604,0.537227,-0.313307,0.443094,-0.000859107,-0.00311505,0.61306,-0.19876741037460222,0.5575187342218941,-0.0008587380732379968,0.7112549667040902,-0.003110203265661471,-0.26897454669801624
845,0.8356,63.6364,1147.53,0.0032162,271.663,0.389467,1.64592,-0.221835,0.537779,-0.313628,0.443532,-0.000857933,-0.00311032,0.613691,-0.1989524737271655,0.5582010768496102,-0.0008575650807080004,0.7121998402068053,-0.0031054879657712586,-0.26920916820975893
846,0.8366,63.6428,1147.73,0.00324232,271.7,0.391251,1.65284,-0.222066,0.53833,-0.313948,0.443971,-0.000856755,-0.00310557,0.614321,-0.19913749433503158,0.5588852772933561,-0.0008563880902263676,0.7131435222792948,-0.0031007527055928463,-0.269442983863432
847,0.8376,63.6493,1147.92,0.00326844,271.738,0.393032,1.65974,-0.222296,0.538881,-0.314268,0.444409,-0.000855573,-0.0031008,0.614951,-0.19932167153014524,0.5595682185980382,-0.0008552071017791096,0.7140877244638844,-0.003095997484842017,-0.2696767247080659
848,0.8386,63.6558,1148.12,0.00329456,271.776,0.394808,1.66662,-0.222527,0.539431,-0.314588,0.444847,-0.000854389,-0.00309602,0.61558,-0.19950660686316846,0.5602514590965304,-0.0008540241136439919,0.7150307320156444,-0.0030912322723212204,-0.26991039076759593
849,0.8396,63.6622,1148.32,0.00332067,271.814,0.396581,1.67349,-0.222757,0.539982,-0.314907,0.445284,-0.0008532,-0.00309123,0.616209,-0.19969069917216287,0.5609334379856898,-0.0008528361283725028,0.7159759743393306,-0.0030864570678871273,-0.27014325220956636
850,0.8406,63.6687,1148.51,0.00334677,271.852,0.39835,1.68035,-0.222987,0.540532,-0.315227,0.445722,-0.000852009,-0.00308643,0.616838,-0.19987474914479497,0.5616172765812475,-0.0008516461433916156,0.7169200207141724,-0.0030816718713966296,-0.2703767690041795
851,0.8416,63.6751,1148.71,0.00337287,271.889,0.400115,1.68719,-0.223217,0.541081,-0.315546,0.446159,-0.000850814,-0.00308161,0.617466,-0.2000587567908012,0.5622998524630809,-0.0008504521603953652,0.7178628685936062,-0.003076866713474624,-0.2706094816952195
852,0.8426,63.6816,1148.9,0.00339897,271.927,0.401876,1.69402,-0.223447,0.541631,-0.315865,0.446595,-0.000849615,-0.00307678,0.618094,-0.20024272211991556,0.5629811637138147,-0.0008492541793693187,0.718807953045733,-0.003072051563112299,-0.27084212016275033
853,0.8436,63.688,1149.1,0.00342506,271.965,0.403633,1.70083,-0.223676,0.54218,-0.316184,0.447032,-0.000848413,-0.00307194,0.618721,-0.20042584556811505,0.5636643357445743,-0.0008480531994510265,0.7197518376845811,-0.0030672264201649924,-0.2710746844304456
854,0.8446,63.6945,1149.29,0.00345114,272.002,0.405387,1.70763,-0.223906,0.542728,-0.316503,0.447468,-0.000847208,-0.00306708,0.619348,-0.2006097264765192,0.5643462420397289,-0.0008468492206297196,0.7206945199629855,-0.0030623813151118284,-0.2713071745219712
855,0.8456,63.7009,1149.48,0.00347722,272.04,0.407136,1.71441,-0.224135,0.543276,-0.316821,0.447904,-0.000846,-0.00306221,0.619975,-0.20079276589034334,0.5650284457108516,-0.0008456422428946286,0.7216377189728502,-0.003057526217086659,-0.2715388620002117
856,0.8466,63.7074,1149.68,0.00350329,272.077,0.408882,1.72118,-0.224365,0.543824,-0.31714,0.44834,-0.000844788,-0.00305733,0.620601,-0.20097656241677775,0.5657109468876262,-0.0008444312670791154,0.7225814349974211,-0.003052661125943823,-0.2717712040427075
857,0.8476,63.7138,1149.87,0.00352935,272.115,0.410624,1.72793,-0.224594,0.544372,-0.317458,0.448775,-0.000843572,-0.00305244,0.621227,-0.20115951783478947,0.5663921793068314,-0.000843216293168858,0.7235256683201003,-0.003047786041537104,-0.27200274398302027
858,0.8486,63.7202,1150.07,0.0035554,272.152,0.412362,1.73467,-0.224823,0.544919,-0.317776,0.44921,-0.000842354,-0.00304753,0.621853,-0.2013424313608072,0.5670737081266013,-0.0008419993194651587,0.724468694754888,-0.0030428909941492277,-0.2722342103053379
859,0.8496,63.7266,1150.26,0.00358144,272.189,0.414096,1.74139,-0.225052,0.545466,-0.318093,0.449645,-0.000841132,-0.00304261,0.622478,-0.20152530300442328,0.5677555334758984,-0.0008407783476422903,0.7254122371662421,-0.003037985953106559,-0.27246487549830634
860,0.8506,63.7331,1150.45,0.00360748,272.227,0.415826,1.7481,-0.225281,0.546013,-0.318411,0.450079,-0.000839907,-0.00303768,0.623103,-0.20170813277522748,0.5684360870468697,-0.00083955437684613,0.7263562958364791,-0.003033070918261771,-0.2726961948861659
861,0.8516,63.7395,1150.64,0.00363351,272.264,0.417553,1.7548,-0.225509,0.546559,-0.318728,0.450514,-0.000838678,-0.00303273,0.623727,-0.2018901225733294,0.5691185051599137,-0.0008383264079039332,0.7272991437480625,-0.003028135919748709,-0.27292671365323207
862,0.8526,63.7459,1150.84,0.00365952,272.301,0.419276,1.76148,-0.225738,0.547105,-0.319045,0.450948,-0.000837447,-0.00302777,0.624352,-0.2020728688100173,0.5697996503889764,-0.0008370964391266611,0.7282425065951701,-0.0030231909270392876,-0.2731571593574301
863,0.8536,63.7523,1151.03,0.00368553,272.338,0.420994,1.76814,-0.225966,0.547651,-0.319362,0.451381,-0.000836212,-0.0030228,0.624975,-0.2022547754577828,0.5704795208189204,-0.0008358624721788166,0.7291863846590338,-0.00301823593998507,-0.27338753202191723
864,0.8546,63.7587,1151.22,0.00371153,272.375,0.422709,1.77479,-0.226194,0.548196,-0.319679,0.451815,-0.000834973,-0.00301782,0.625599,-0.20243664063556033,0.5711612568569755,-0.0008346245070454117,0.7301290480911253,-0.0030132709584372863,-0.27361783166984355
865,0.8556,63.7651,1151.41,0.00373751,272.413,0.424421,1.78143,-0.226422,0.548742,-0.319996,0.452248,-0.000833732,-0.00301282,0.626222,-0.20261846435280395,0.5718417169901817,-0.0008333845420450681,0.731073956487901,-0.0030082860123297195,-0.27384805832435155
866,0.8566,63.7715,1151.6,0.00376348,272.45,0.426128,1.78805,-0.22665,0.549286,-0.320312,0.452681,-0.000832487,-0.00300781,0.626844,-0.20280024661896567,0.5725224718264244,-0.0008321405788344061,0.7320159169102354,-0.0030032910713302385,-0.27407748608642557
867,0.8576,63.7779,1151.79,0.00378944,272.487,0.427831,1.79466,-0.226878,0.549831,-0.320628,0.453113,-0.000831239,-0.00300279,0.627466,-0.20298198744349527,0.5732019482906023,-0.0008308936165677405,0.732960122857701,-0.0029982861352890744,-0.2743068413607803
868,0.8586,63.7843,1151.98,0.00381539,272.523,0.429531,1.80125,-0.227106,0.550375,-0.320944,0.453546,-0.000829988,-0.00299776,0.628088,-0.2031636868358403,0.5738832922345307,-0.0008296436552338582,0.7339031096336834,-0.002993271204055792,-0.2745361241703185
869,0.8596,63.7906,1152.17,0.00384133,272.56,0.431227,1.80783,-0.227334,0.550918,-0.32126,0.453978,-0.000828734,-0.00299271,0.62871,-0.2033453448054463,0.5745633567001243,-0.0008283906948214348,0.734844874688287,-0.0029882363073623353,-0.2747653345379353
870,0.8606,63.797,1152.36,0.00386725,272.597,0.432919,1.81439,-0.227561,0.551462,-0.321576,0.454409,-0.000827476,-0.00298766,0.629331,-0.20352616488831965,0.5752421397741068,-0.0008271337361462905,0.7357888870481988,-0.00298320138524244,-0.27499447248651865
871,0.8616,63.8034,1152.55,0.00389316,272.634,0.434607,1.82094,-0.227788,0.552005,-0.321891,0.454841,-0.000826216,-0.00298259,0.629951,-0.20370694392969246,0.5759227913886524,-0.0008258747775415909,0.7367316763579983,-0.0029781464972593596,-0.27522281326212517
872,0.8626,63.8098,1152.74,0.00391905,272.671,0.436292,1.82747,-0.228015,0.552548,-0.322206,0.455272,-0.000824952,-0.00297751,0.630572,-0.2038876819388803,0.5766021605052689,-0.0008246118206491904,0.7376749777414089,-0.0029730816133787252,-0.27545108212171465
873,0.8636,63.8161,1152.93,0.00394493,272.708,0.437972,1.83399,-0.228242,0.55309,-0.322521,0.455703,-0.000823685,-0.00297241,0.631192,-0.20406837892519625,0.5772818224930838,-0.0008233458646303982,0.7386170528586391,-0.002967996763128644,-0.2756792790879372
874,0.8646,63.8225,1153.12,0.0039708,272.744,0.439649,1.8405,-0.228469,0.553632,-0.322836,0.456134,-0.000822415,-0.00296731,0.631811,-0.20424903489795165,0.5779617774783519,-0.000822076909473779,0.7395596387189818,-0.0029629118869457516,-0.27590740418343573
875,0.8656,63.8289,1153.31,0.00399665,272.781,0.441322,1.84699,-0.228696,0.554174,-0.323151,0.456564,-0.000821142,-0.00296219,0.632431,-0.2044296498664553,0.5786404469461461,-0.0008208049551681196,0.7405027355993348,-0.0029578070439861825,-0.2761354574308458
876,0.8666,63.8352,1153.5,0.00402248,272.818,0.442991,1.85346,-0.228923,0.554716,-0.323465,0.456994,-0.000819865,-0.00295706,0.63305,-0.20461022384001415,0.5793194083045634,-0.0008195290025213575,0.7414463437767458,-0.0029526922044167403,-0.27636271521587297
877,0.8676,63.8416,1153.68,0.0040483,272.854,0.444656,1.85993,-0.229149,0.555257,-0.32378,0.457424,-0.000818586,-0.00295192,0.633668,-0.20478996161829233,0.5799986616791437,-0.0008182510498816464,0.7423887211388209,-0.002947567368083881,-0.27659062506289456
878,0.8686,63.8479,1153.87,0.0040741,272.891,0.446318,1.86637,-0.229376,0.555798,-0.324094,0.457854,-0.000817303,-0.00294676,0.634286,-0.20497045381036616,0.580678207195481,-0.0008169690988754086,0.7433316084649815,-0.0029424225642579183,-0.27681773994772185
879,0.8696,63.8543,1154.06,0.00409989,272.927,0.447976,1.87281,-0.229602,0.556338,-0.324408,0.458283,-0.000816018,-0.0029416,0.634904,-0.20515011018586993,0.581356463621969,-0.0008156851478557936,0.7442732617570593,-0.0029372777338847467,-0.27704478352967044
880,0.8706,63.8606,1154.25,0.00412566,272.964,0.44963,1.87922,-0.229828,0.556879,-0.324721,0.458712,-0.000814729,-0.00293642,0.635521,-0.20532972596362054,0.5820350110828867,-0.0008143971984438947,0.7452171688955289,-0.002932112935606579,-0.2772710331025203
881,0.8716,63.867,1154.43,0.00415141,273.0,0.45128,1.88563,-0.230054,0.557419,-0.325035,0.459141,-0.000813438,-0.00293123,0.636138,-0.2055093011527921,0.5827138497031141,-0.0008131072489979685,0.7461598406652032,-0.0029269381398441263,-0.2774979343727625
882,0.8726,63.8733,1154.62,0.00417714,273.036,0.452926,1.89202,-0.23028,0.557958,-0.325348,0.459569,-0.000812143,-0.00292603,0.636755,-0.20568883576255648,0.5833913962153976,-0.0008118133011340012,0.7471012745129515,-0.0029217533464419576,-0.2777240421315935
883,0.8736,63.8796,1154.81,0.00420285,273.073,0.454569,1.89839,-0.230506,0.558497,-0.325662,0.459998,-0.000810845,-0.00292082,0.637371,-0.20586832980208358,0.58407081684968,-0.0008105163540259586,0.7480432159303216,-0.0029165585552445306,-0.2779508011793306
884,0.8746,63.886,1154.99,0.00422855,273.109,0.456208,1.90475,-0.230731,0.559036,-0.325975,0.460425,-0.000809545,-0.0029156,0.637987,-0.20604698932792775,0.5847473595200554,-0.0008092174068529134,0.748985665190967,-0.002911353766095637,-0.2781767672130324
885,0.8756,63.8923,1155.18,0.00425423,273.145,0.457843,1.9111,-0.230957,0.559575,-0.326287,0.460853,-0.000808241,-0.00291036,0.638603,-0.20622640243389512,0.5854257765608204,-0.0008079144612228584,0.7499286225686892,-0.0029061290079005486,-0.27840194093273507
886,0.8766,63.8986,1155.36,0.00427988,273.181,0.459474,1.91743,-0.231182,0.560113,-0.3266,0.461281,-0.000806934,-0.00290511,0.639218,-0.2064049814024601,0.5861044840262255,-0.0008066085163136449,0.750870337466224,-0.002900894251336661,-0.2786277657817906
887,0.8776,63.9049,1155.55,0.00430552,273.218,0.461101,1.92375,-0.231407,0.560651,-0.326912,0.461708,-0.000805625,-0.00289986,0.639833,-0.20658352019527715,0.58678189525791,-0.0008053005713081207,0.7518125591426852,-0.0028956594672900904,-0.2788527988118885
888,0.8786,63.9112,1155.74,0.00433114,273.254,0.462725,1.93005,-0.231632,0.561189,-0.327225,0.462135,-0.000804312,-0.00289459,0.640448,-0.20676201882138479,0.587459595805955,-0.0008039886278065067,0.752755287870793,-0.0028904047135692723,-0.2790784825645106
889,0.8796,63.9175,1155.92,0.00435674,273.29,0.464345,1.93634,-0.231857,0.561726,-0.327537,0.462561,-0.000802996,-0.00288931,0.641062,-0.20694047728981935,0.5881359976571334,-0.0008026736849903182,0.7536967702257673,-0.0028851399610072548,-0.27930337499290736
890,0.8806,63.9238,1156.1,0.00438231,273.326,0.465961,1.94261,-0.232082,0.562263,-0.327849,0.462988,-0.000801678,-0.00288401,0.641675,-0.2071188956096155,0.5888142765303666,-0.0008013567420463996,0.7546387582925378,-0.002879855238244522,-0.27952819726581113
891,0.8816,63.9301,1156.29,0.00440787,273.362,0.467574,1.94887,-0.232307,0.5628,-0.32816,0.463414,-0.000800357,-0.00287871,0.642289,-0.20729727378980556,0.5894912555984722,-0.0008000367997668123,0.7555812523427445,-0.0028745704874726385,-0.2797522291576966
892,0.8826,63.9365,1156.47,0.0044334,273.398,0.469182,1.95512,-0.232532,0.563337,-0.328472,0.46384,-0.000799032,-0.00287339,0.642902,-0.20747561183941987,0.5901685231210971,-0.0007987128589383996,0.7565242526481735,-0.002869265766077156,-0.2799769114099454
893,0.8836,63.9427,1156.66,0.00445891,273.434,0.470787,1.96135,-0.232756,0.563873,-0.328783,0.464265,-0.000797705,-0.00286807,0.643515,-0.20765311742100045,0.5908444883758655,-0.0007973869179506154,0.7574660020138761,-0.002863961016460359,-0.2802008037734298
894,0.8846,63.949,1156.84,0.0044844,273.47,0.472388,1.96757,-0.23298,0.564409,-0.329094,0.46469,-0.000796375,-0.00286273,0.644127,-0.20783058324578374,0.5915207409769239,-0.0007960579775915244,0.7584082562925436,-0.0028586362957951916,-0.28042462651721556
895,0.8856,63.9553,1157.02,0.00450987,273.505,0.473986,1.97377,-0.233204,0.564944,-0.329405,0.465115,-0.000795042,-0.00285738,0.644739,-0.20800800932267416,0.5921972810464207,-0.0007947260378490251,0.7593492564047453,-0.002853301575229006,-0.2806483796629511
896,0.8866,63.9616,1157.21,0.00453532,273.541,0.475579,1.97996,-0.233429,0.565479,-0.329716,0.46554,-0.000793706,-0.00285202,0.64535,-0.2081861874747828,0.5928741087065554,-0.000793391098711349,0.7602907600866999,-0.0028479568546015965,-0.280872063232278
897,0.8876,63.9679,1157.39,0.00456074,273.577,0.477169,1.98613,-0.233652,0.566014,-0.330027,0.465965,-0.000792367,-0.00284665,0.645962,-0.2083627422683848,0.5935512240795806,-0.0007920531601662839,0.7612327676078894,-0.0028426021337525365,-0.28109567724683115
898,0.8886,63.9742,1157.57,0.00458614,273.613,0.478755,1.99229,-0.233876,0.566549,-0.330337,0.466389,-0.000791026,-0.00284127,0.646573,-0.20854004915500401,0.5942270330599695,-0.0007907132214111101,0.7621752792379397,-0.0028372374125209543,-0.28131850304710115
899,0.8896,63.9805,1157.75,0.00461151,273.648,0.480338,1.99844,-0.2341,0.567083,-0.330647,0.466813,-0.000789681,-0.00283588,0.647183,-0.20871731632932855,0.594903128644122,-0.0007893692840166278,0.7631165321292079,-0.0028318626907457567,-0.28154125978207867
900,0.8906,63.9867,1157.94,0.00463686,273.684,0.481917,2.00457,-0.234323,0.567617,-0.330957,0.467237,-0.000788334,-0.00283048,0.647793,-0.20889375269440125,0.5955795109535835,-0.0007880233463904984,0.7640582877837456,-0.0028264779682655172,-0.2817639474731708
901,0.8916,63.993,1158.12,0.00466219,273.72,0.483492,2.01068,-0.234547,0.568151,-0.331267,0.46766,-0.000786984,-0.00282506,0.648403,-0.20907094064800602,0.5962545838545696,-0.0007866744093114608,0.7650005464701004,-0.0028210732731294152,-0.28198656614177764
902,0.8926,63.9993,1158.3,0.00468749,273.755,0.485063,2.01679,-0.23477,0.568684,-0.331577,0.468083,-0.000785631,-0.00281964,0.649012,-0.20924729816364762,0.5969299423717964,-0.0007853224727674135,0.7659415425145377,-0.0028156685486997457,-0.282209115809293
903,0.8936,64.0055,1158.48,0.00471277,273.791,0.48663,2.02288,-0.234993,0.569217,-0.331886,0.468506,-0.000784275,-0.0028142,0.649622,-0.20942361635594797,0.5976055866261052,-0.000783967536746033,0.7668830402435536,-0.0028102438511814487,-0.2824308789283415
904,0.8946,64.0118,1158.66,0.00473802,273.826,0.488194,2.02895,-0.235216,0.56975,-0.332196,0.468929,-0.000782917,-0.00280876,0.65023,-0.20959989523367528,0.5982815167383881,-0.0007826106004525935,0.7678250399246174,-0.0028048191241527576,-0.28265329088024005
905,0.8956,64.018,1158.84,0.00476324,273.862,0.489754,2.03501,-0.235439,0.570282,-0.332505,0.469351,-0.000781556,-0.0028033,0.650839,-0.20977613480559554,0.5989561338726554,-0.0007812506646601713,0.7687657730586834,-0.002799374423601231,-0.28287491677039456
906,0.8966,64.0243,1159.02,0.00478844,273.897,0.491311,2.04106,-0.235662,0.570814,-0.332814,0.469774,-0.000780192,-0.00279783,0.651447,-0.20995233508047306,0.599632635387267,-0.0007798877293565543,0.7697070067959257,-0.0027939197212607514,-0.2830964741887285
907,0.8976,64.0305,1159.2,0.00481362,273.932,0.492863,2.04709,-0.235885,0.571346,-0.333123,0.470195,-0.000778825,-0.00279236,0.652054,-0.21012849606707007,0.6003062225069045,-0.0007785217945294187,0.7706487414027354,-0.002788464989082917,-0.28331796315639635
908,0.8986,64.0368,1159.38,0.00483876,273.968,0.494412,2.05311,-0.236107,0.571877,-0.333431,0.470617,-0.000777456,-0.00278687,0.652662,-0.2103038280783699,0.6009816942473156,-0.0007771538593894789,0.7715892055555549,-0.00278299028272766,-0.2835386672335716
909,0.8996,64.043,1159.56,0.00486388,274.003,0.495958,2.05911,-0.23633,0.572409,-0.33374,0.471038,-0.000776084,-0.00278137,0.653269,-0.21047991069076744,0.6016558494403044,-0.0007757829247040382,0.7725319417585055,-0.002777505574091288,-0.2837600195846969
910,0.9006,64.0493,1159.74,0.00488898,274.038,0.497499,2.0651,-0.236552,0.572939,-0.334048,0.471459,-0.000774709,-0.00277586,0.653875,-0.21065516469667966,0.602330288512382,-0.0007744089904609952,0.7734716326837363,-0.0027720108630090445,-0.28398058752945765
911,0.9016,64.0555,1159.92,0.00491404,274.073,0.499037,2.07108,-0.236774,0.57347,-0.334356,0.47188,-0.000773331,-0.00277034,0.654481,-0.21083037980052077,0.6030050115830863,-0.0007730320566479154,0.7744135961898693,-0.0027665061493160614,-0.2842010875497524
912,0.9026,64.0618,1160.1,0.00493908,274.109,0.500571,2.07704,-0.236996,0.574,-0.334664,0.472301,-0.000771951,-0.00276481,0.655087,-0.2110055560109263,0.6036800187720062,-0.000771653122480731,0.7753542846562733,-0.0027609914328468044,-0.2844215196664984
913,0.9036,64.068,1160.28,0.00496409,274.144,0.502102,2.08299,-0.237218,0.57453,-0.334971,0.472721,-0.000770568,-0.00275927,0.655693,-0.21118069333652945,0.6043537058442725,-0.0007702711887213054,0.7762954718197079,-0.002755466713435961,-0.2846411685421333
914,0.9046,64.0742,1160.46,0.00498907,274.179,0.503629,2.08892,-0.23744,0.57506,-0.335279,0.473141,-0.000769183,-0.00275372,0.656298,-0.21135579178596176,0.6050276759245365,-0.0007688872545885683,0.7772371579445521,-0.0027499319909173314,-0.2848614651348055
915,0.9056,64.0804,1160.64,0.00501403,274.214,0.505152,2.09484,-0.237661,0.575589,-0.335586,0.473561,-0.000767794,-0.00274816,0.656903,-0.21153006289830978,0.6057019291316867,-0.000767499321609022,0.7781775651168716,-0.002744387265124937,-0.2850809789679116
916,0.9066,64.0867,1160.81,0.00503895,274.249,0.506672,2.10074,-0.237883,0.576118,-0.335893,0.473981,-0.000766403,-0.00274259,0.657507,-0.21170508379630792,0.6063764655846615,-0.0007661093882338488,0.7791184698961906,-0.002738832535892022,-0.2853004254206145
917,0.9076,64.0929,1160.99,0.00506385,274.284,0.508187,2.10664,-0.238104,0.576647,-0.3362,0.4744,-0.00076501,-0.002737,0.658111,-0.2118792777236509,0.607049678351967,-0.000764717454454833,0.7800598725458128,-0.0027332578303845834,-0.2855198045135966
918,0.9086,64.0991,1161.17,0.00508871,274.319,0.5097,2.11251,-0.238326,0.577175,-0.336507,0.474819,-0.000763614,-0.00273141,0.658715,-0.2120542211045625,0.6077231732545254,-0.0007633225210267325,0.7809999923282986,-0.002727683093714517,-0.2857391162675341
919,0.9096,64.1053,1161.35,0.00511355,274.354,0.511208,2.11838,-0.238547,0.577703,-0.336814,0.475238,-0.000762215,-0.00272581,0.659319,-0.21222833788108597,0.6083969504105757,-0.0007619245879370018,0.781940608625098,-0.0027220983531025533,-0.2859583607030972
920,0.9106,64.1115,1161.52,0.00513835,274.389,0.512713,2.12423,-0.238768,0.578231,-0.33712,0.475656,-0.000760814,-0.0027202,0.659922,-0.21240241618205347,0.609069400868202,-0.0007605246544127864,0.7828817216984396,-0.00271650360838116,-0.28617682401813016
921,0.9116,64.1177,1161.7,0.00516313,274.423,0.514214,2.13006,-0.238989,0.578759,-0.337426,0.476075,-0.00075941,-0.00271458,0.660524,-0.2125764560159672,0.6097437422118115,-0.0007591217212045143,0.7838233318106904,-0.002710898859382027,-0.28639522049361577
922,0.9126,64.1239,1161.88,0.00518788,274.458,0.515712,2.13589,-0.239209,0.579286,-0.337732,0.476493,-0.000758003,-0.00270895,0.661127,-0.21274967014139123,0.6104167557460853,-0.0007577157882996399,0.7847636544598098,-0.002705284105937178,-0.28661355015000367
923,0.9136,64.1301,1162.05,0.00521259,274.493,0.517206,2.14169,-0.23943,0.579813,-0.338038,0.47691,-0.000756594,-0.00270331,0.661729,-0.21292363324065955,0.6110884395695755,-0.0007563078549293056,0.7857044727895657,-0.0026996593478776365,-0.2868318130077374
924,0.9146,64.1363,1162.23,0.00523728,274.528,0.518696,2.14749,-0.239651,0.580339,-0.338344,0.477328,-0.000755183,-0.00269765,0.66233,-0.21309755789833074,0.6117620153048369,-0.0007548979210850737,0.7866440004163568,-0.0026940146119750485,-0.2870500090872543
925,0.9156,64.1425,1162.4,0.00526193,274.562,0.520183,2.15327,-0.239871,0.580866,-0.33865,0.477745,-0.000753768,-0.00269199,0.662932,-0.21327065739395046,0.612434260218542,-0.0007534839882652467,0.7875858099495907,-0.0026883698441230175,-0.28726813840898535
926,0.9166,64.1487,1162.58,0.00528655,274.597,0.521666,2.15903,-0.240091,0.581392,-0.338955,0.478162,-0.000752352,-0.00268632,0.663533,-0.21344371881186974,0.6131067855168324,-0.00075206905419678,0.7885263274200343,-0.0026827150711488112,-0.28748548847919997
927,0.9176,64.1549,1162.75,0.00531114,274.632,0.523145,2.16479,-0.240311,0.581917,-0.33926,0.478579,-0.000750932,-0.00268064,0.664133,-0.213616742160465,0.6137795913166528,-0.0007506501211274053,0.7894655502663541,-0.0026770502928824547,-0.28770277226775165
928,0.9186,64.1611,1162.93,0.0053357,274.666,0.524621,2.17053,-0.240531,0.582443,-0.339565,0.478995,-0.000749511,-0.00267495,0.664734,-0.2137897274481103,0.6144510632831262,-0.0007492301867924045,0.7904070567402892,-0.0026713755091538616,-0.2879199897948532
929,0.9196,64.1673,1163.1,0.00536023,274.701,0.526093,2.17625,-0.240751,0.582968,-0.33987,0.479412,-0.000748086,-0.00266925,0.665334,-0.2139626746831783,0.6151244297636687,-0.0007478062534308494,0.7913472672287356,-0.0026656907197926127,-0.2881371410807113
930,0.9206,64.1734,1163.28,0.00538472,274.735,0.527562,2.18196,-0.240971,0.583492,-0.340175,0.479827,-0.00074666,-0.00266354,0.665933,-0.21413558387403964,0.6157948455036648,-0.0007463813187865709,0.7922861791702085,-0.002659995924627956,-0.2883542261455264
931,0.9216,64.1796,1163.45,0.00540918,274.77,0.529027,2.18766,-0.241191,0.584017,-0.340479,0.480243,-0.00074523,-0.00265782,0.666532,-0.21430845502906304,0.6164671559902799,-0.0007449523850902029,0.7932273764569424,-0.0026542911234890276,-0.2885705335803822
932,0.9226,64.1858,1163.63,0.00543361,274.804,0.530488,2.19334,-0.24141,0.584541,-0.340783,0.480659,-0.000743799,-0.00265209,0.667131,-0.21448050263751095,0.6171397462162393,-0.000743522450093903,0.7941672738338126,-0.0026485763162041875,-0.28878677526777197
933,0.9236,64.192,1163.8,0.00545801,274.839,0.531946,2.19901,-0.24163,0.585065,-0.341088,0.481074,-0.000742365,-0.00264636,0.66773,-0.21465329791875276,0.6178109984861311,-0.0007420895152776552,0.7951076638459671,-0.0026428614761735414,-0.2890036622243731
934,0.9246,64.1981,1163.98,0.00548237,274.873,0.5334,2.20467,-0.241849,0.585589,-0.341392,0.481489,-0.000740928,-0.00264061,0.668328,-0.21482527001487672,0.6184825293835263,-0.0007406535806285808,0.7960485467516152,-0.0026371266561393547,-0.289219772260667
935,0.9256,64.2043,1164.15,0.0055067,274.907,0.534851,2.21031,-0.242068,0.586112,-0.341695,0.481904,-0.000739489,-0.00263485,0.668926,-0.21499720445323534,0.619154339024079,-0.0007392156453944754,0.7969881258200757,-0.0026313818294438907,-0.28943510604495626
936,0.9266,64.2104,1164.32,0.00553099,274.941,0.536298,2.21594,-0.242287,0.586635,-0.341999,0.482318,-0.000738047,-0.00262909,0.669523,-0.21516910124207467,0.6198248076978741,-0.0007377747103045618,0.7979281964169127,-0.0026256369696580073,-0.2896510849422629
937,0.9276,64.2166,1164.49,0.00555526,274.976,0.537741,2.22155,-0.242506,0.587157,-0.342302,0.482732,-0.000736604,-0.00262331,0.670121,-0.21534096038963912,0.620495554003166,-0.0007363327738730829,0.7988669599314033,-0.002619872129179357,-0.2898662880586068
938,0.9286,64.2228,1164.67,0.00557948,275.01,0.539181,2.22716,-0.242725,0.58768,-0.342606,0.483146,-0.000735157,-0.00261752,0.670717,-0.2155127819041711,0.6211665780549178,-0.0007348868383004747,0.7998080134154828,-0.002614097281520733,-0.29008213589650333
939,0.9296,64.2289,1164.84,0.00560368,275.044,0.540618,2.23274,-0.242944,0.588202,-0.342909,0.48356,-0.000733708,-0.00261173,0.671314,-0.2156845657939116,0.6218378799681403,-0.0007334389021025345,0.8007477584506011,-0.0026083224004257444,-0.29029720842419326
940,0.9306,64.2351,1165.01,0.00562783,275.078,0.54205,2.23832,-0.243162,0.588724,-0.343212,0.483973,-0.000732257,-0.00260593,0.67191,-0.21585552792301943,0.6225078373492434,-0.0007319889652703804,0.8016879941606829,-0.0026025375119195227,-0.29051221579477915
941,0.9316,64.2412,1165.18,0.00565196,275.112,0.54348,2.24388,-0.243381,0.589245,-0.343514,0.484387,-0.000730804,-0.00260011,0.672506,-0.21602723675960045,0.6231796946587731,-0.0007305370277955747,0.8026269181741075,-0.002596732641795718,-0.2907264487548038
942,0.9326,64.2474,1165.36,0.00567604,275.146,0.544905,2.24943,-0.243599,0.589766,-0.343817,0.4848,-0.000729348,-0.00259429,0.673101,-0.21619812419457962,0.6238502063237952,-0.0007290820903982365,0.8035663314943966,-0.002590927737887383,-0.29094132608527157
943,0.9336,64.2535,1165.53,0.0057001,275.181,0.546327,2.25496,-0.243817,0.590287,-0.344119,0.485212,-0.00072789,-0.00258846,0.673696,-0.21636897438015834,0.6245193704471446,-0.0007276251523378185,0.8045062343765452,-0.002585112826045677,-0.291155429473555
944,0.9346,64.2596,1165.7,0.00572411,275.215,0.547746,2.26048,-0.244035,0.590808,-0.344422,0.485625,-0.000726429,-0.00258262,0.674291,-0.2165397873244561,0.6251904355125366,-0.0007261652143316644,0.8054466270756817,-0.0025792879060958507,-0.29137017684255506
945,0.9356,64.2658,1165.87,0.00574809,275.248,0.549161,2.26599,-0.244253,0.591328,-0.344724,0.486037,-0.000724966,-0.00257677,0.674886,-0.21671056303559055,0.6258601519240752,-0.0007247032756420024,0.8063857034604607,-0.0025734529778629334,-0.29158415073746424
946,0.9366,64.2719,1166.04,0.00577204,275.282,0.550572,2.27148,-0.244471,0.591848,-0.345025,0.486449,-0.000723501,-0.00257092,0.67548,-0.21688130152167762,0.6265301443156233,-0.000723239336259951,0.8073252682919447,-0.002567618015495654,-0.2917973518197198
947,0.9376,64.278,1166.21,0.00579595,275.316,0.55198,2.27696,-0.244689,0.592368,-0.345327,0.486861,-0.000722034,-0.00256505,0.676073,-0.21705200279083148,0.6272004128009081,-0.0007217733961768502,0.8082653218241924,-0.0025617630702291505,-0.29201119672726383
948,0.9386,64.2841,1166.38,0.00581982,275.35,0.553385,2.28242,-0.244906,0.592887,-0.345629,0.487272,-0.000720564,-0.00255917,0.676667,-0.21722188407344012,0.6278693296235602,-0.0007203044561040484,0.8092040551064346,-0.002555898116152977,-0.2922249770633967
949,0.9396,64.2903,1166.55,0.00584366,275.384,0.554785,2.28788,-0.245124,0.593407,-0.34593,0.487683,-0.000719092,-0.00255329,0.67726,-0.21739251110369007,0.6285385214275312,-0.0007188335153095471,0.8101450858618815,-0.002550033127590945,-0.2924379852859549
950,0.9406,64.2964,1166.72,0.00586746,275.418,0.556183,2.29331,-0.245341,0.593925,-0.346231,0.488094,-0.000717617,-0.00254739,0.677853,-0.2175623185040113,0.6292079883258614,-0.00071735957450203,0.811082983910981,-0.002544148155425696,-0.29265092940268644
951,0.9416,64.3025,1166.89,0.00589122,275.452,0.557577,2.29874,-0.245558,0.594444,-0.346532,0.488505,-0.000716141,-0.00254149,0.678445,-0.21773208906012442,0.6298777304316385,-0.0007158846322361523,0.8120231799393958,-0.0025382631485391105,-0.29286380943288437
952,0.9426,64.3086,1167.06,0.00591495,275.485,0.558967,2.30415,-0.245775,0.594962,-0.346833,0.488916,-0.000714662,-0.00253558,0.679037,-0.21790182278002368,0.6305477478579953,-0.0007144066899366086,0.8129620510932398,-0.0025323681322545477,-0.2930766253958359
953,0.9436,64.3147,1167.23,0.00593864,275.519,0.560354,2.30955,-0.245992,0.59548,-0.347134,0.489326,-0.00071318,-0.00252966,0.679629,-0.21807151967170169,0.631216409500887,-0.0007129257475899653,0.8139014087083241,-0.0025264631063950382,-0.2932893773108223
954,0.9446,64.3209,1167.4,0.00596229,275.553,0.561737,2.31494,-0.246209,0.595998,-0.347434,0.489736,-0.000711697,-0.00252373,0.68022,-0.2182411797431495,0.631885345351261,-0.0007114438037599813,0.8148412530367009,-0.0025205480707831684,-0.293501358698831
955,0.9456,64.327,1167.57,0.0059859,275.586,0.563117,2.32031,-0.246426,0.596515,-0.347734,0.490146,-0.000710211,-0.0025178,0.680811,-0.21841080300235594,0.6325545555215655,-0.0007099588598621365,0.8157797685498764,-0.0025146330000950234,-0.29371327650196144
956,0.9466,64.3331,1167.74,0.00600948,275.62,0.564493,2.32567,-0.246642,0.597032,-0.348035,0.490555,-0.000708723,-0.00251185,0.681402,-0.21857960803730736,0.633222406901071,-0.0007084719151746466,0.8167187694010214,-0.00250869794450459,-0.2939258368138026
957,0.9476,64.3392,1167.91,0.00603302,275.653,0.565866,2.33101,-0.246859,0.597549,-0.348335,0.490964,-0.000707233,-0.0025059,0.681992,-0.2187491578655416,0.6338905314876577,-0.0007069829696885188,0.8176582558411203,-0.0025027628536005153,-0.2941376272925982
958,0.9486,64.3453,1168.07,0.00605652,275.687,0.567236,2.33634,-0.247075,0.598066,-0.348634,0.491373,-0.000705741,-0.00249993,0.682582,-0.21891788982373506,0.6345589293930902,-0.0007054920233948714,0.8185982281212874,-0.0024968077773188657,-0.2943486485927812
959,0.9496,64.3514,1168.24,0.00607998,275.72,0.568602,2.34166,-0.247291,0.598582,-0.348934,0.491782,-0.000704246,-0.00249396,0.683172,-0.21908658533976155,0.635227600729179,-0.0007039980769887322,0.8195368669549905,-0.0024908526654853214,-0.2945603122470678
960,0.9506,64.3575,1168.41,0.0061034,275.754,0.569964,2.34697,-0.247508,0.599098,-0.349233,0.492191,-0.00070275,-0.00248798,0.683762,-0.21925602516585685,0.6358965456077796,-0.0007025031290516237,0.8204759902513126,-0.0024848875429485107,-0.2947712071833417
961,0.9516,64.3635,1168.58,0.00612679,275.787,0.571323,2.35226,-0.247724,0.599613,-0.349533,0.492599,-0.000701251,-0.002482,0.684351,-0.21942464765253678,0.6365641275758485,-0.0007010051809811513,0.8214137768456129,-0.002478922384740234,-0.29498274408906433
962,0.9526,64.3696,1168.74,0.00615014,275.821,0.572679,2.35754,-0.24794,0.600129,-0.349832,0.493007,-0.00069975,-0.002476,0.684939,-0.21959323372069306,0.637231981972932,-0.0006995052320641904,0.8223538688773508,-0.002472937240319162,-0.2951935127370986
963,0.9536,64.3757,1168.91,0.00617344,275.854,0.574031,2.36281,-0.248155,0.600644,-0.350131,0.493415,-0.000698247,-0.00246999,0.685528,-0.21976100313958435,0.6379001089102039,-0.0006980032822918592,0.8232926228282165,-0.002466942084656476,-0.29540421837472763
964,0.9546,64.3818,1169.08,0.00619671,275.887,0.575379,2.36806,-0.248371,0.601158,-0.35043,0.493822,-0.000696741,-0.00246398,0.686116,-0.21992951656280124,0.6385668699311942,-0.000696498332351525,0.8242300361309305,-0.0024609468929629452,-0.2956148610207887
965,0.9556,64.3879,1169.24,0.00621994,275.921,0.576725,2.3733,-0.248586,0.601673,-0.350728,0.49423,-0.000695234,-0.00245796,0.686704,-0.2200972136886532,0.6392355416138735,-0.0006949923808398095,0.8251697565567779,-0.0024549416897875487,-0.29582473651920205
966,0.9566,64.394,1169.41,0.00624313,275.954,0.578066,2.37853,-0.248802,0.602187,-0.351027,0.494637,-0.000693724,-0.00245193,0.687291,-0.2202656544982342,0.6399028462665957,-0.0006934834291391079,0.8261081349542367,-0.002448926474950097,-0.2960352534491334
967,0.9576,64.4,1169.58,0.00626628,275.987,0.579405,2.38374,-0.249017,0.602701,-0.351325,0.495044,-0.000692212,-0.00244589,0.687878,-0.22043327936219848,0.6405704225675881,-0.0006919724765437341,0.8270469958021709,-0.0024429012482698464,-0.29624500368926754
968,0.9586,64.4061,1169.74,0.00628939,276.02,0.580739,2.38894,-0.249232,0.603215,-0.351623,0.49545,-0.000690698,-0.00243985,0.688465,-0.22060086819069102,0.6412366293899843,-0.0006904595230446953,0.8279863393486235,-0.002436875985197151,-0.2964546914331426
969,0.9596,64.4122,1169.91,0.00631246,276.053,0.582071,2.39413,-0.249447,0.603728,-0.351921,0.495857,-0.000689182,-0.00243379,0.689051,-0.22076842099145844,0.6419047486511928,-0.0006889445686329987,0.8289243369165147,-0.002430830734348466,-0.29666431669937954
970,0.9606,64.4183,1170.07,0.00633549,276.087,0.583399,2.3993,-0.249662,0.604241,-0.352219,0.496263,-0.000687664,-0.00242773,0.689637,-0.22093593777224607,0.6425714973199663,-0.0006874276132995405,0.8298628158006052,-0.0024247854468655294,-0.29687387950659405
971,0.9616,64.4243,1170.24,0.00635848,276.12,0.584724,2.40446,-0.249877,0.604754,-0.352516,0.496669,-0.000686144,-0.00242166,0.690223,-0.2211034185407973,0.643238516743659,-0.0006859086570351058,0.8308017762478734,-0.0024187301469353883,-0.29708267695642443
972,0.9626,64.4304,1170.4,0.00638143,276.153,0.586045,2.40961,-0.250092,0.605266,-0.352814,0.497074,-0.000684622,-0.00241558,0.690808,-0.2212708633048538,0.6439041631272342,-0.0006843876998305909,0.8317393867651222,-0.002412664834376188,-0.2972921151108565
973,0.9636,64.4364,1170.57,0.00640433,276.186,0.587363,2.41474,-0.250306,0.605778,-0.353111,0.49748,-0.000683098,-0.0024095,0.691393,-0.22143749351003872,0.6445717237230948,-0.0006828647416770028,0.8326774774618715,-0.0024065994849397088,-0.29750078836315674
974,0.9646,64.4425,1170.73,0.0064272,276.219,0.588677,2.41987,-0.250521,0.60629,-0.353408,0.497885,-0.000681572,-0.0024034,0.691978,-0.22160486645569766,0.6452379101648513,-0.0006813397825650158,0.8336160485840358,-0.0024005141466363344,-0.29770939964870347
975,0.9656,64.4485,1170.9,0.00645003,276.252,0.589988,2.42498,-0.250735,0.606802,-0.353705,0.49829,-0.000680043,-0.0023973,0.692562,-0.22177142519185578,0.6459043664667596,-0.0006798118231654549,0.8345551003776561,-0.002394428771212209,-0.2979179489858983
976,0.9666,64.4546,1171.06,0.00647281,276.285,0.591296,2.43007,-0.25095,0.607313,-0.354002,0.498694,-0.000678513,-0.00239119,0.693146,-0.22193872634992062,0.6465694461678659,-0.0006782828621079151,0.8354927975951838,-0.0023883333825506226,-0.29812643639313696
977,0.9676,64.4606,1171.23,0.00649556,276.318,0.5926,2.43515,-0.251164,0.607824,-0.354298,0.499099,-0.00067698,-0.00238508,0.69373,-0.2221052136477054,0.6472364418510725,-0.0006767509007412631,0.8364309740984368,-0.0023822379566460494,-0.29833416022332104
978,0.9686,64.4667,1171.39,0.00651826,276.35,0.593901,2.44022,-0.251378,0.608335,-0.354595,0.499503,-0.000675446,-0.00237895,0.694314,-0.2222716653210206,0.6479020598193568,-0.0006752179377013112,0.8373696301323923,-0.002376122541021042,-0.29854252403417714
979,0.9696,64.4727,1171.55,0.00654093,276.383,0.595199,2.44528,-0.251592,0.608845,-0.354891,0.499907,-0.00067391,-0.00237282,0.694897,-0.22243808137748866,0.6485679467516272,-0.0006736829736572192,0.8383069276343069,-0.0023700070879083546,-0.29875012472064566
980,0.9706,64.4788,1171.72,0.00656355,276.416,0.596493,2.45033,-0.251805,0.609355,-0.355187,0.500311,-0.000672371,-0.00236668,0.695479,-0.2226036844288043,0.6492341027565671,-0.0006721450092719294,0.8392447032798638,-0.002363881620946695,-0.29895766396640466
981,0.9716,64.4848,1171.88,0.00658613,276.449,0.597784,2.45536,-0.252019,0.609865,-0.355483,0.500714,-0.000670831,-0.00236053,0.696062,-0.2227700294407854,0.6498988780432011,-0.0006706060431902472,0.8401829573129784,-0.0023577461399520994,-0.29916514178963793
982,0.9726,64.4909,1172.04,0.00660866,276.481,0.599071,2.46038,-0.252232,0.610375,-0.355779,0.501118,-0.000669288,-0.00235437,0.696644,-0.22293556179469298,0.6505655718530123,-0.0006690640767457179,0.8411216899776905,-0.0023516006447401594,-0.2993725582085238
983,0.9736,64.4969,1172.21,0.00663116,276.514,0.600356,2.46538,-0.252446,0.610884,-0.356074,0.501521,-0.000667744,-0.00234821,0.697226,-0.22310183579251652,0.651230883829828,-0.000667521108589475,0.842059059458184,-0.0023454551116719458,-0.29957921282079825
984,0.9746,64.5029,1172.37,0.00665361,276.547,0.601636,2.47038,-0.252659,0.611393,-0.35637,0.501923,-0.000666198,-0.00234204,0.697807,-0.2232672974791976,0.6518948120857659,-0.0006659761393827957,0.842996906181191,-0.0023392995641401404,-0.2997865066927967
985,0.9756,64.5089,1172.53,0.00667603,276.579,0.602914,2.47536,-0.252872,0.611902,-0.356665,0.502326,-0.00066465,-0.00233586,0.698388,-0.22343272392629243,0.6525606598543503,-0.000664429169116576,0.8439352303896897,-0.002333134001959891,-0.2999930392082786
986,0.9766,64.515,1172.69,0.0066984,276.612,0.604188,2.48032,-0.253085,0.61241,-0.35696,0.502728,-0.000663099,-0.00232967,0.698969,-0.22359811514130645,0.6532251227877128,-0.0006628791984442106,0.8448721874536724,-0.002326958424946013,-0.3001995108056541
987,0.9776,64.521,1172.86,0.00672072,276.645,0.605459,2.48528,-0.253298,0.612919,-0.357255,0.50313,-0.000661547,-0.00232348,0.69955,-0.22376347113174322,0.6538898528888719,-0.0006613282260291564,0.845811466423305,-0.0023207828097051575,-0.3004059215028917
988,0.9786,64.527,1173.02,0.00674301,276.677,0.606726,2.49022,-0.253511,0.613427,-0.35755,0.503532,-0.000659993,-0.00231728,0.70013,-0.22392879190510473,0.6545548502652505,-0.0006597752525265843,0.8467493768573282,-0.0023145971793830933,-0.3006122713179542
989,0.9796,64.533,1173.18,0.00676525,276.71,0.607991,2.49515,-0.253724,0.613934,-0.357844,0.503934,-0.000658437,-0.00231107,0.70071,-0.22409407746889154,0.6552201150243147,-0.0006582202779270574,0.8476859161840529,-0.00230840153379408,-0.3008178610870098
990,0.9806,64.539,1173.34,0.00678745,276.742,0.609251,2.50007,-0.253936,0.614442,-0.358139,0.504335,-0.00065688,-0.00230486,0.701289,-0.22425855208954226,0.6558839913887544,-0.0006566643015647466,0.8486247790804595,-0.0023022058497300657,-0.30102408939781766
991,0.9816,64.5451,1173.5,0.0068096,276.775,0.610509,2.50497,-0.254149,0.614949,-0.358433,0.504736,-0.00065532,-0.00229863,0.701868,-0.22442376742188974,0.6565481340209995,-0.0006551053247449978,0.8495622694771872,-0.0022959901731106624,-0.30122955811015406
992,0.9826,64.5511,1173.66,0.00683172,276.807,0.611763,2.50987,-0.254361,0.615455,-0.358727,0.505137,-0.000653758,-0.0022924,0.702447,-0.22458817215567872,0.6572125430278446,-0.0006535443468004276,0.8504983848027465,-0.0022897744577675683,-0.30143496642356804
993,0.9836,64.5571,1173.82,0.00685379,276.839,0.613014,2.51474,-0.254574,0.615962,-0.359021,0.505538,-0.000652195,-0.00228617,0.703026,-0.22475331728642878,0.6578772185161277,-0.0006519823670695368,0.8514368253584204,-0.002283558703700339,-0.3016403143558143
994,0.9846,64.5631,1173.98,0.00687582,276.872,0.614262,2.51961,-0.254786,0.616468,-0.359315,0.505938,-0.000650629,-0.00227992,0.703604,-0.2249176521630516,0.6585405020513972,-0.0006504173868485674,0.8523738894492734,-0.002277322956455552,-0.3018456019246424
995,0.9856,64.5691,1174.14,0.0068978,276.904,0.615506,2.52446,-0.254998,0.616974,-0.359608,0.506338,-0.000649062,-0.00227367,0.704182,-0.22508195220437333,0.6592040509531507,-0.0006488514048256233,0.8533114278145375,-0.0022710871702372737,-0.30205013119827673
996,0.9866,64.5751,1174.3,0.00691974,276.936,0.616748,2.52931,-0.25521,0.61748,-0.359902,0.506738,-0.000647493,-0.00226741,0.704759,-0.22524621741777817,0.6598678653275563,-0.0006472834216434409,0.8542494406942565,-0.0022648413676935597,-0.3022552982986628
997,0.9876,64.5811,1174.46,0.00694164,276.969,0.617985,2.53414,-0.255421,0.617985,-0.360195,0.507138,-0.000645922,-0.00226114,0.705337,-0.22540967322070937,0.6605319452808234,-0.0006457134372924722,0.8551860731415946,-0.0022585855486370043,-0.30245970754884377
998,0.9886,64.5871,1174.62,0.00696349,277.001,0.61922,2.53895,-0.255633,0.61849,-0.360488,0.507538,-0.000644349,-0.00225487,0.705914,-0.22557386896462273,0.6611962909192055,-0.0006441414517632804,0.856123178707771,-0.0022523296903562695,-0.3026640569158877
999,0.9896,64.5931,1174.78,0.0069853,277.033,0.620451,2.54376,-0.255845,0.618995,-0.360781,0.507937,-0.000642775,-0.00224859,0.70649,-0.22573802990272795,0.6618592404889261,-0.0006425684644040253,0.8570607576317713,-0.002246063815311894,-0.30286834641733795
