,Time,S11,S22,S33,S12,S13,S23,LE11,LE22,LE33,LE12,LE13,LE23,SDV_EPBAR,E11,E12,E13,E22,E23,E33
0,0.05,31.48,778.345,-0.000854313,158.876,-5.04328e-07,-8.38721e-08,-0.0136979,0.031001,-0.0157438,0.0860052,9.35871e-11,-1.485e-08,0.0654313,-0.013604510666679337,0.08981199531277007,9.358713803919727e-11,0.031486535372542424,-1.4850000007449182e-08,-0.015620514224267246
1,0.1,25.4985,885.938,-0.000176209,154.001,3.37155e-07,3.58444e-06,-0.0286689,0.0626089,-0.032185,0.166022,3.10272e-10,-1.29254e-08,0.138614,-0.028261846289294734,0.1805990746172148,3.1027203029054817e-10,0.06461038867669644,-1.2925399972552043e-08,-0.03167257506594012
2,0.15,18.9201,957.412,-0.000127732,140.356,1.47437e-07,3.19241e-06,-0.0444877,0.095405,-0.0490374,0.236245,4.0379e-10,-1.13451e-08,0.213925,-0.043512635184145165,0.26648456087703076,4.0378989041300883e-10,0.1001043071603771,-1.1345099970583306e-08,-0.04785448120981772
3,0.2,13.3201,1011.53,-9.93945e-05,124.813,-4.64253e-09,2.79862e-06,-0.0608707,0.12898,-0.0661361,0.296788,4.11312e-10,-1.00121e-08,0.290496,-0.05905510391417634,0.345530016845639,4.113120954940541e-10,0.1376673705907847,-1.0012100037926075e-08,-0.06399653444933029
4,0.25,8.92778,1054.77,-8.11694e-05,109.942,-1.19216e-07,2.42092e-06,-0.0775257,0.162872,-0.0832987,0.348417,3.56536e-10,-8.90649e-09,0.367465,-0.07459675877227512,0.41682294173888734,3.5653591190509815e-10,0.17688603863406005,-8.906489989968236e-09,-0.07992372061399522
5,0.3,5.59328,1090.38,-6.81987e-05,96.8075,-2.01841e-07,2.07962e-06,-0.0942023,0.196675,-0.100362,0.392288,2.60149e-10,-7.99993e-09,0.444079,-0.0899013693364974,0.48036399484504155,2.6014901344240116e-10,0.21734833819781962,-7.999930051738602e-09,-0.09549007382976549
6,0.35,3.07582,1120.37,-5.83904e-05,85.7391,-2.60356e-07,1.78001e-06,-0.110714,0.23008,-0.117202,0.429693,1.378e-10,-7.2624e-09,0.519761,-0.1048052619840808,0.5367856579236314,1.3779999363805473e-10,0.25870070195789974,-7.262400014695913e-09,-0.11059448489751256
7,0.4,1.15054,1146.1,-5.0681e-05,76.6921,-3.01463e-07,1.52232e-06,-0.126936,0.262876,-0.133731,0.461872,5.00743e-13,-6.66519e-09,0.59411,-0.11920995864401585,0.5870421488289417,5.007105841059456e-13,0.3006654264389168,-6.665189955512574e-09,-0.12517463902334425
8,0.45,-0.360128,1168.5,-4.44603e-05,69.4533,-3.30082e-07,1.30481e-06,-0.14279,0.294933,-0.149894,0.489907,-1.44291e-10,-6.18222e-09,0.666868,-0.13306389363677784,0.6321644216056557,-1.4429102357382817e-10,0.34303637223482464,-6.182219958184021e-09,-0.13920078369381284
9,0.5,-1.58587,1188.25,-3.93434e-05,63.7527,-3.49691e-07,1.12439e-06,-0.158234,0.326176,-0.165657,0.514691,-2.91651e-10,-5.79073e-09,0.737883,-0.1463499955056229,0.6731214273925838,-2.9165103665462766e-10,0.38565922343627834,-5.790730006616229e-09,-0.15266317911950478
10,0.55,-2.6179,1205.85,-3.50699e-05,59.3205,-3.62705e-07,9.77237e-07,-0.173253,0.356578,-0.181009,0.536941,-4.38403e-10,-5.47142e-09,0.807095,-0.15907516605401384,0.7107656177638466,-4.3840298058483995e-10,0.4284329439431134,-5.471419983749115e-09,-0.1655721511886442
11,0.6,-3.51902,1221.7,-3.14563e-05,55.9146,-3.70811e-07,8.5923e-07,-0.187843,0.386135,-0.195946,0.557214,-5.82531e-10,-5.20847e-09,0.874486,-0.1712551900454874,0.7458019145865435,-5.825310234186531e-10,0.47128328065116554,-5.208469988637887e-09,-0.1779433754626254
12,0.65,-4.33228,1236.07,-2.83678e-05,53.3292,-3.75229e-07,7.66215e-07,-0.202014,0.41486,-0.210475,0.575937,-7.22795e-10,-4.98909e-09,0.940077,-0.18291651130667963,0.7787964785942312,-7.22795046037561e-10,0.514158743628492,-4.989090029994259e-09,-0.18980069011709044
13,0.7,-5.08717,1249.18,-2.57038e-05,51.3946,-3.76843e-07,6.94356e-07,-0.215776,0.442774,-0.224603,0.593434,-8.58462e-10,-4.80318e-09,1.0039,-0.194084193203104,0.8101939604390036,-8.584619681784034e-10,0.5570204079633967,-4.803179964874005e-09,-0.201166707366776
14,0.75,-5.80423,1261.23,-2.33869e-05,49.9736,-3.76312e-07,6.40077e-07,-0.229148,0.469911,-0.238345,0.609957,-9.89182e-10,-4.64276e-09,1.06603,-0.20478916640785638,0.8403522619329442,-9.89181958566121e-10,0.5998518000707529,-4.64275995426533e-09,-0.21206919193213825
15,0.8,-6.49743,1272.35,-2.134e-05,48.9577,-8.47697e-08,1.81967e-06,-0.242145,0.496295,-0.251713,0.62569,-1.06353e-09,-4.26365e-09,1.12651,-0.2150576473414113,0.8695354919811076,-1.063530041811589e-09,0.6426240604488862,-4.263649988622831e-09,-0.22253216067772963
16,0.85,-7.17667,1282.66,-1.95699e-05,48.2606,-1.09088e-07,1.56337e-06,-0.254784,0.521961,-0.264721,0.640777,-1.11884e-09,-3.86421e-09,1.1854,-0.22491610199680578,0.897955017576725,-1.1188400206307847e-09,0.6853293421713547,-3.864209952020303e-09,-0.2325799697012847
17,0.9,-7.84894,1292.25,-1.79843e-05,47.8149,-1.3994e-07,1.29952e-06,-0.267084,0.546943,-0.277386,0.655329,-1.17862e-09,-3.54941e-09,1.24278,-0.23439124237141018,0.9257759934656822,-1.1786199793917262e-09,0.7279625539858754,-3.549409988146124e-09,-0.24223805545909793
18,0.95,-8.51885,1301.21,-1.65723e-05,47.5682,-1.63821e-07,1.08724e-06,-0.279059,0.571269,-0.289721,0.669429,-1.24093e-09,-3.30005e-09,1.2987,-0.2435047313225105,0.9531217696459737,-1.240930025403486e-09,0.7705124066986009,-3.3000500110347275e-09,-0.2515276377605796
19,1.0,-9.18965,1309.6,-1.51823e-05,47.4793,-1.88245e-07,8.94226e-07,-0.290726,0.594968,-0.301738,0.683142,-1.30452e-09,-3.10113e-09,1.35322,-0.25227947462332545,0.9800894094998822,-1.3045200475403362e-09,0.81297292889818,-3.1011300194450087e-09,-0.26046820315968977
