,Time,S11,S22,S33,S12,S13,S23,LE11,LE22,LE33,LE12,LE13,LE23,SDV_EPBAR,E11,E12,E13,E22,E23,E33
0,0.0001,1.39156,19.382,-2.4567e-12,5.19339,-1.75146e-17,-6.53653e-17,-2.12906e-05,9.12871e-05,-2.99985e-05,6.49967e-05,-4.38441e-22,-1.63628e-21,0.0,-2.1290373356741554e-05,6.499881233135163e-05,0.0,9.129126679408017e-05,0.0,-2.999805004955114e-05
1,0.0002,2.78299,38.7621,-3.38751e-12,10.3863,3.03469e-17,-1.48239e-16,-4.2579e-05,0.000182565,-5.99941e-05,0.000129987,2.83451e-21,-2.51298e-21,0.0,-4.257809352725683e-05,0.00012999544867620116,0.0,0.00018258166600371162,0.0,-5.9992300389999365e-05
2,0.0003,4.17428,58.1402,-3.38396e-12,15.5786,-1.30741e-16,3.50592e-17,-6.38653e-05,0.000273834,-8.99866e-05,0.000194971,9.09267e-38,-1.17673e-38,0.0,-6.386326065510595e-05,0.00019499000808065325,0.0,0.00027387149595226035,0.0,-8.99825513273056e-05
3,0.0004,5.56542,77.5164,-3.38929e-12,20.7704,9.10407e-17,-4.44717e-16,-8.51496e-05,0.000365094,-0.000119976,0.000259948,-1.75335e-21,-6.5436e-21,0.0,-8.514597487574438e-05,0.00025998178940911387,0.0,0.0003651606549259778,0.0,-0.00011996880316755831
4,0.0005,6.95643,96.8906,-3.37685e-12,25.9618,6.07097e-17,-2.96418e-16,-0.000106432,0.000456344,-0.000149963,0.000324919,-1.75352e-21,-6.54422e-21,0.0,-0.0001064263363156348,0.0003249717918958339,0.0,0.0004564481407638432,0.0,-0.00014995175611143274
5,0.0006,8.3473,116.263,-3.38218e-12,31.1526,-3.53723e-16,-5.35626e-16,-0.000127711,0.000547586,-0.000179946,0.000389883,-2.79388e-20,4.75754e-22,0.0,-0.00012770284529739495,0.00038995901425531443,0.0,0.0005477359525831726,0.0,-0.00017992981068959413
6,0.0007,9.73803,135.633,-3.3733e-12,36.3428,-1.52897e-16,-3.09123e-16,-0.000148989,0.000638818,-0.000209927,0.000454841,9.9714e-25,3.72138e-24,0.0,-0.00014897790169010605,0.00045494445585236853,0.0,0.0006390220876746344,0.0,-0.0002099049668691233
7,0.0008,11.1286,155.002,-3.37863e-12,41.5326,-1.8323e-16,-1.60833e-16,-0.000170265,0.000730041,-0.000239904,0.000519792,1.30946e-20,-3.50594e-21,0.0,-0.00017025050573749034,0.0005199271152711571,0.0,0.0007303075447897545,0.0,-0.00023987522533652772
8,0.0009,12.5191,174.368,-3.36442e-12,46.7218,-1.00335e-16,-1.12959e-16,-0.000191539,0.000821255,-0.000269879,0.000584737,5.23776e-20,-1.40325e-20,0.0,-0.00019152065757688241,0.0005849079920063893,0.0,0.0008215923222236743,0.0,-0.00026984258593854005
9,0.001,13.9094,193.733,-3.36797e-12,51.9106,2.26539e-16,-2.00526e-16,-0.00021281,0.00091246,-0.00029985,0.000649675,2.61899e-20,-7.01528e-21,0.0,-0.00021278735755814182,0.000649886084512552,0.0,0.0009128764182710913,0.0,-0.00029980504948168285
10,0.0011,15.2996,213.095,-3.3733e-12,57.0988,-3.02672e-17,1.48536e-16,-0.000234079,0.00100366,-0.000329819,0.000714607,-2.61907e-20,7.01527e-21,0.0,-0.00023405160564837768,0.0007148623924135844,0.0,0.0010041638352433768,0.0,-0.0003297646156927847
11,0.0012,16.6896,232.456,-3.36264e-12,62.2864,-1.62243e-16,-8.66993e-16,-0.000255347,0.00109484,-0.000359784,0.000779532,-2.61864e-20,7.03441e-21,0.0,-0.000255314401729434,0.0007798359140345212,0.0,0.0010954395560989205,0.0,-0.0003597192854979392
12,0.0013,18.0795,251.815,-3.36975e-12,67.4736,-1.31869e-16,-1.01513e-15,-0.000276612,0.00118602,-0.000389747,0.000844451,5.55383e-24,2.07272e-23,0.0,-0.00027657374642797716,0.0008448076491296419,0.0,0.001186723599853945,0.0,-0.00038967105850429284
13,0.0014,19.4693,271.172,-3.36442e-12,72.6603,4.33112e-17,-3.61351e-16,-0.000297875,0.00127719,-0.000419706,0.000909364,7.02024e-21,2.61999e-20,0.0,-0.00029783063964694545,0.0009097775968027744,0.0,0.00127800595448746,0.0,-0.0004196179357576213
14,0.0015,20.8589,290.527,-3.37685e-12,77.8464,8.64972e-17,-7.23168e-16,-0.000319135,0.00136835,-0.000449663,0.000974269,-1.21521e-20,5.94209e-20,0.0,-0.0003190840818426688,0.0009747437542091397,0.0,0.001369286618019716,0.0,-0.00044956191674494494
15,0.0016,22.2484,309.88,-3.37153e-12,83.032,-1.74975e-16,-6.53016e-16,-0.000340394,0.0014595,-0.000479617,0.00103917,1.40419e-20,5.2405e-20,0.0,-0.0003403360725352522,0.001039710124221882,0.0,0.0014605655884707414,0.0,-0.0004795020021524099
16,0.0017,23.6377,329.231,-3.36442e-12,88.2171,-6.03448e-16,-1.72911e-15,-0.000361651,0.00155064,-0.000509567,0.00110406,6.64401e-20,3.84007e-20,0.0,-0.00036158561215982044,0.0011046696986023452,0.0,0.0015518428638607862,0.0,-0.0005094371927857333
17,0.0018,25.0269,348.58,-3.38929e-12,93.4017,3.80891e-16,1.16001e-15,-0.000382905,0.00164177,-0.000539515,0.00116895,-3.83622e-20,6.63949e-20,0.0,-0.00038283170123631916,0.0011696334883466442,0.0,0.0016431184422094347,0.0,-0.0005393694879521904
18,0.0019,26.416,367.927,-3.36797e-12,98.5857,-3.24418e-16,-1.73373e-15,-0.000404157,0.0017329,-0.00056946,0.00123383,1.048e-19,-2.80247e-20,0.0,-0.0004040753395612162,0.0012345914813818304,0.0,0.0017344023388807805,0.0,-0.0005692978884276334
19,0.002,27.8049,387.272,-3.39462e-12,103.769,-2.62446e-16,-9.79461e-16,-0.000425408,0.00182401,-0.000599401,0.0012987,1.40475e-20,5.24262e-20,0.0,-0.0004253175268466025,0.0012995436760327994,0.0,0.0018256745181186584,0.0,-0.0005992213951074854
20,0.0021,29.1937,406.616,-3.33777e-12,108.952,-4.20043e-16,-1.56762e-15,-0.000446656,0.00191511,-0.000629339,0.00136357,1.43488e-23,5.35504e-23,0.0,-0.0004465562640586507,0.001364500084269471,0.0,0.0019169449943743366,0.0,-0.0006291410077484683
21,0.0022,30.5823,425.957,-3.3662e-12,114.135,-4.40367e-17,-6.87337e-16,-0.000467902,0.00200621,-0.000659275,0.00142843,5.24037e-20,-1.40165e-20,0.0,-0.0004677925509303238,0.0014294506920702332,0.0,0.0020082237857492746,0.0,-0.0006590577259876218
22,0.0023,31.9708,445.296,-3.36087e-12,119.317,1.40501e-16,5.24356e-16,-0.000489145,0.0020973,-0.000689208,0.00149328,5.23938e-20,-1.40598e-20,0.0,-0.0004890253880878159,0.0014943954977602036,0.0,0.0020995008720057218,0.0,-0.0006889705507201471
23,0.0024,32.1723,451.361,-0.178207,120.806,-0.039102,-0.0686257,-0.000520864,0.00218672,-0.00073521,0.00156711,-5.09076e-07,-8.94307e-07,7.06089e-05,-0.000520728373895385,0.0015683385585543164,-5.09075870458453e-07,0.002189112615855082,-8.943066001076971e-07,-0.0007349397993501317
24,0.0025,32.4259,454.371,-0.0481158,121.464,-0.0171463,-0.0560039,-0.000554222,0.00227548,-0.000784097,0.0016438,-2.45443e-07,-7.72081e-07,0.000158258,-0.0005540684473560598,0.001645151779803733,-2.454429698373062e-07,0.0022780708693996843,-7.720807019273579e-07,-0.0007837896762764585
25,0.0026,32.6143,457.214,-0.00598671,122.124,-0.0131282,-0.0733909,-0.000587722,0.00236414,-0.000833353,0.0017209,-2.03798e-07,-1.03651e-06,0.000246445,-0.0005875493252552877,0.0017223815981772805,-2.0379797927017052e-07,0.0023669367825307486,-1.0365094628150828e-06,-0.0008330058578260857
26,0.0027,32.7705,459.941,-0.00344856,122.777,-0.0203815,-0.10234,-0.000621314,0.00245273,-0.000882821,0.00179822,-3.07584e-07,-1.46398e-06,0.000335071,-0.0006211210244249088,0.0017998377671393229,-3.075839526411883e-07,0.002455740402958595,-1.463978928417653e-06,-0.0008824314281901113
27,0.0028,32.9224,462.598,-0.00120405,123.412,-0.0274776,-0.13076,-0.000654956,0.0025413,-0.000932373,0.00187557,-4.13645e-07,-1.9027e-06,0.000424048,-0.0006547415631371623,0.0018773299815633138,-4.136449144320764e-07,0.002544531839956843,-1.9026981898928597e-06,-0.0009319384753512239
28,0.0029,33.0688,465.187,-0.00125449,124.033,-0.0351569,-0.159224,-0.000688647,0.00262986,-0.000982011,0.00195297,-5.31592e-07,-2.35982e-06,0.000513361,-0.0006884099370754182,0.001954878287984574,-5.315918587545099e-07,0.002633321115227627,-2.359817215635829e-06,-0.0009815289849921527
29,0.003,33.2117,467.714,-0.0010474,124.637,-0.0425883,-0.18701,-0.000722384,0.0027184,-0.00103172,0.0020304,-6.50857e-07,-2.8258e-06,0.00060299,-0.0007221231434949571,0.002032462657850509,-6.508567882423932e-07,0.002722098199582579,-2.8257960074107302e-06,-0.0010311879599086415
30,0.0031,33.3509,470.18,-0.00101329,125.227,-0.0499208,-0.214264,-0.000756163,0.00280692,-0.00108151,0.00210786,-7.73229e-07,-3.30206e-06,0.000692917,-0.0007558771808052756,0.002110083098608939,-7.73228701067552e-07,0.002810863088391402,-3.3020545482376207e-06,-0.0010809253788368611
31,0.0032,33.4867,472.59,-0.000947219,125.804,-0.0570924,-0.240947,-0.000789983,0.00289543,-0.00113136,0.00218534,-8.97823e-07,-3.7877e-06,0.000783129,-0.0007896710455814748,0.0021877295958339094,-8.978225969347164e-07,0.0028996258060194346,-3.787692826717759e-06,-0.0011307202535590921
32,0.0033,33.6194,474.946,-0.000899368,126.367,-0.0641251,-0.267095,-0.000823841,0.00298393,-0.00118127,0.00226285,-1.02481e-06,-4.28275e-06,0.000873611,-0.0008235017361762909,0.002265412177304471,-1.0248094748366299e-06,0.0029883863504993613,-4.282740829086862e-06,-0.0011805725752361829
33,0.0034,33.7489,477.251,-0.000851089,126.917,-0.0710178,-0.29272,-0.000857737,0.00307241,-0.00123125,0.00234038,-1.15409e-06,-4.78698e-06,0.00096435,-0.0008573692487715556,0.0023431208270474624,-1.1540893339878622e-06,0.00307713468909232,-4.786968542447312e-06,-0.0012304923227139941
34,0.0035,33.8756,479.506,-0.000807318,127.455,-0.077777,-0.317843,-0.000891668,0.00316088,-0.00128128,0.00241792,-1.28563e-06,-5.30027e-06,0.00105533,-0.0008912705822192724,0.0024208455259839834,-1.2856291735641179e-06,0.00316588084882663,-5.300255953577526e-06,-0.001280459511243448
35,0.0036,33.9995,481.713,-0.000766068,127.982,-0.0844067,-0.34248,-0.000925633,0.00324934,-0.00133137,0.00249549,-1.4194e-06,-5.82246e-06,0.00114655,-0.0009252047339238789,0.0024986063268850334,-1.4193989926747363e-06,0.0032546248277349754,-5.822443049474657e-06,-0.0013304841201497997
36,0.0037,34.1207,483.876,-0.000727619,128.498,-0.0909116,-0.366648,-0.00095963,0.00333778,-0.00138151,0.00257307,-1.55537e-06,-6.3534e-06,0.001238,-0.0009591697023817458,0.0025763831856893127,-1.555368790429057e-06,0.0033433565904152918,-6.353379817247706e-06,-0.0013805561543596134
37,0.0038,34.2393,485.995,-0.000691591,129.003,-0.0972956,-0.390362,-0.000993658,0.00342621,-0.00143171,0.00265066,-1.6935e-06,-6.89296e-06,0.00132965,-0.0009931644853646837,0.002654176105197914,-1.693498566046614e-06,0.0034320861665591007,-6.892936243563241e-06,-0.001430685592181291
38,0.0039,34.3556,488.073,-0.000657843,129.499,-0.103563,-0.413639,-0.00102772,0.00351463,-0.00148195,0.00272827,-1.83376e-06,-7.441e-06,0.00142151,-0.0010271920766687925,0.0027319951155331257,-1.8337583186367468e-06,0.003520813554197977,-7.440972315864158e-06,-0.0014808524543349355
39,0.004,34.4695,490.111,-0.000626182,129.984,-0.109717,-0.436493,-0.0010618,0.00360304,-0.00153224,0.00280589,-1.97612e-06,-7.99737e-06,0.00151357,-0.0010612364898426874,0.002809830193734264,-1.9761180475308393e-06,0.0036095387513637167,-7.997338021148437e-06,-0.0015310667196167804
40,0.0041,34.5811,492.11,-0.000596456,130.46,-0.115762,-0.458936,-0.00109592,0.00369143,-0.00158258,0.00288352,-2.12055e-06,-8.56195e-06,0.00160582,-0.0010953196989907932,0.0028876813426055303,-2.1205477516161864e-06,0.0036982517191057607,-8.561913346638583e-06,-0.0015813283806214162
41,0.0042,34.6906,494.073,-0.000568517,130.927,-0.121701,-0.480984,-0.00113006,0.00377981,-0.00163295,0.00296117,-2.267e-06,-9.1346e-06,0.00169824,-0.0011294217226514025,0.0029655585946068985,-2.2669974303335394e-06,0.0037869624906641253,-9.134558279666471e-06,-0.00163161746256979
42,0.0043,34.7981,496.001,-0.000542236,131.386,-0.127538,-0.502647,-0.00116422,0.00386819,-0.00168337,0.00303882,-2.41546e-06,-9.7152e-06,0.00179084,-0.0011635425588181203,0.0030434418940117336,-2.4154570827938926e-06,0.003875681102826656,-9.71515280756563e-06,-0.0016819539274243178
43,0.0044,34.9035,497.894,-0.000517493,131.836,-0.133276,-0.523939,-0.00119841,0.00395655,-0.00173383,0.00311648,-2.5659e-06,-1.03036e-05,0.0018836,-0.0011976921935067386,0.0031213412725028533,-2.5658967081065853e-06,0.0039643874769987875,-1.0303546918111195e-05,-0.0017323277850860297
44,0.0045,35.007,499.754,-0.000494179,132.279,-0.138917,-0.544871,-0.00123262,0.0040449,-0.00178432,0.00319414,-2.71827e-06,-1.08997e-05,0.00197652,-0.0012318606360022244,0.0031992467008947756,-2.7182663054903244e-06,0.004053091649081519,-1.0899640598527327e-05,-0.001782729047465681
45,0.0046,35.1087,501.583,-0.000472195,132.713,-0.144466,-0.565454,-0.00126686,0.00413324,-0.00183486,0.00327182,-2.87257e-06,-1.15034e-05,0.0020696,-0.0012660578716340298,0.0032771782452005738,-2.872565874167954e-06,0.004141793617105982,-1.150333383614921e-05,-0.0018331776734920036
46,0.0047,35.2086,503.381,-0.00045145,133.141,-0.149924,-0.585699,-0.00130111,0.00422157,-0.00188542,0.00334949,-3.02874e-06,-1.21146e-05,0.00216282,-0.0013002639233700153,0.0033551058099126063,-3.028735413357353e-06,0.004230493379103528,-1.2114526618534072e-05,-0.0018836437122367045
47,0.0048,35.3068,505.15,-0.00043186,133.561,-0.155294,-0.605616,-0.00133539,0.00430989,-0.00193602,0.00342718,-3.18678e-06,-1.27331e-05,0.00225619,-0.0013344987635341976,0.003433059496154689,-3.1867749221703434e-06,0.004319190933105066,-1.2733018934452112e-05,-0.001934147122117813
48,0.0049,35.4033,506.89,-0.00041335,133.974,-0.160579,-0.625215,-0.00136969,0.0043982,-0.00198666,0.00350486,-3.34664e-06,-1.33588e-05,0.00234969,-0.0013687524027733433,0.003511009203743809,-3.3466344000476766e-06,0.004407886277141726,-1.3358710771682603e-05,-0.001984687897204296
49,0.005,35.4983,508.603,-0.000395848,134.381,-0.165782,-0.644505,-0.001404,0.0044865,-0.00203732,0.00358255,-3.50831e-06,-1.39917e-05,0.00244332,-0.0014030148531026798,0.0035889750025910327,-3.5083038458783022e-06,0.004496579409244195,-1.3991602116569801e-05,-0.002035246072266017
50,0.0051,35.5917,510.289,-0.000380246,134.781,-0.170905,-0.663494,-0.00143834,0.00457479,-0.00208802,0.00366025,-3.67176e-06,-1.46316e-05,0.00253709,-0.0014373060847887587,0.0036669568955061127,-3.6717532591046265e-06,0.004585270327443158,-1.4631492958661063e-05,-0.0020858416026826587
51,0.0052,35.6836,511.949,-0.000363585,135.175,-0.175949,-0.682192,-0.00147269,0.00466307,-0.00213874,0.00373794,-3.83697e-06,-1.52786e-05,0.00263097,-0.001471606124218261,0.003744934810400169,-3.836962638836816e-06,0.0046739590297693034,-1.5278483282754607e-05,-0.0021364545252420264
52,0.0053,35.774,513.584,-0.00034892,135.562,-0.180918,-0.700607,-0.00150706,0.00475134,-0.00218949,0.00381564,-4.00392e-06,-1.59323e-05,0.00272497,-0.0015059249553432963,0.00382292882186297,-4.00391198429606e-06,0.004762645514253316,-1.5932173081600887e-05,-0.002187094815166546
53,0.0054,35.8631,515.195,-0.000334778,135.944,-0.185813,-0.718746,-0.00154145,0.0048396,-0.00224027,0.00389333,-4.17258e-06,-1.65927e-05,0.00281909,-0.001540262576145257,0.0039009188546867968,-4.172571294813743e-06,0.0048513297789254395,-1.6592562341877226e-05,-0.002237762468029314
54,0.0055,35.9508,516.783,-0.000321465,136.321,-0.190637,-0.736619,-0.00157586,0.00492785,-0.00229108,0.00397103,-4.34294e-06,-1.72598e-05,0.00291332,-0.0015746189846046477,0.003978924986580923,-4.342930569500858e-06,0.004940011821816137,-1.7259651050482994e-05,-0.002288457479400652
55,0.0056,36.0372,518.348,-0.000308816,136.691,-0.195391,-0.754231,-0.00161028,0.00501609,-0.00234191,0.00404873,-4.51495e-06,-1.79333e-05,0.00300765,-0.001608984194790497,0.004056937179786724,-4.514939807576113e-06,0.005028691640955207,-1.793313919928874e-05,-0.002339169868240676
56,0.0057,36.1223,519.891,-0.000296826,137.057,-0.200077,-0.771591,-0.00164471,0.00510432,-0.00239276,0.00412643,-4.68861e-06,-1.86133e-05,0.00310209,-0.0016433582057127083,0.0041349554347756,-4.688599008484395e-06,0.005117369234373337,-1.8613126773647792e-05,-0.0023898996316377152
57,0.0058,36.2062,521.412,-0.000285445,137.417,-0.204697,-0.788704,-0.00167916,0.00519254,-0.00244364,0.00420412,-4.86389e-06,-1.92996e-05,0.00319662,-0.0016777509996032114,0.004212969709888492,-4.863878171335045e-06,0.0052060446001001015,-1.9299413763884665e-05,-0.0024406567422725622
58,0.0059,36.2888,522.913,-0.000274645,137.772,-0.209253,-0.805578,-0.00171363,0.00528075,-0.00249454,0.00428182,-5.04077e-06,-1.99922e-05,0.00329126,-0.001712162574439402,0.004291000089075903,-5.040757295349252e-06,0.0052947177361653,-1.9992000157342815e-05,-0.0024914312206230083
59,0.006,36.3704,524.393,-0.00026439,138.123,-0.213747,-0.822218,-0.0017481,0.00536896,-0.00254546,0.00435951,-5.21922e-06,-2.06909e-05,0.00338599,-0.0017465729631289673,0.0043690264877691565,-5.219206379858399e-06,0.005383398694432939,-2.0690685944790843e-05,-0.0025422230637739407
60,0.0061,36.4508,525.854,-0.000254652,138.468,-0.21818,-0.838631,-0.0017826,0.00545715,-0.0025964,0.0044372,-5.39922e-06,-2.13957e-05,0.0034808,-0.001781012112282987,0.004447058948568561,-5.399205424194697e-06,0.005472067366151467,-2.139547111368323e-05,-0.002593032268809581
61,0.0062,36.53,527.296,-0.000245403,138.81,-0.222553,-0.854823,-0.0018171,0.00554534,-0.00264737,0.00451489,-5.58075e-06,-2.21064e-05,0.00357571,-0.0018154500733068568,0.004525097471945516,-5.580734427690359e-06,0.005560743857904837,-2.2106155655343684e-05,-0.002643868806374683
62,0.0063,36.6083,528.719,-0.000236617,139.146,-0.226869,-0.870798,-0.00185162,0.00563352,-0.00269835,0.00459258,-5.76379e-06,-2.2823e-05,0.0036707,-0.0018499068092436843,0.004603142058370757,-5.763773389344529e-06,0.00564941811388886,-2.2822739557337712e-05,-0.0026947127259204784
63,0.0064,36.6854,530.124,-0.00022827,139.478,-0.231128,-0.886564,-0.00188615,0.00572168,-0.00274936,0.00467026,-5.94832e-06,-2.35455e-05,0.00376578,-0.0018843723369108556,0.004681182661503636,-5.948302308822484e-06,0.005738080074751517,-2.3545222806897748e-05,-0.002745583971142107
64,0.0065,36.7616,531.512,-0.000220339,139.806,-0.235332,-0.902124,-0.00192069,0.00580984,-0.00280038,0.00474794,-6.13432e-06,-2.42737e-05,0.00386093,-0.0019188466553153871,0.004759229327066183,-6.13430118512337e-06,0.005826749852397395,-2.427340539612466e-05,-0.0027964625935232856
65,0.0066,36.8368,532.882,-0.000212804,140.13,-0.239482,-0.917484,-0.00195524,0.00589799,-0.00285142,0.00482561,-6.32176e-06,-2.50075e-05,0.00395616,-0.0019533297634642954,0.004837272007156113,-6.321740017689592e-06,0.005915417388361099,-2.5007187315129187e-05,-0.0028473585631962894
66,0.0067,36.911,534.236,-0.000205644,140.45,-0.243581,-0.932648,-0.00198981,0.00598614,-0.00290248,0.00490329,-6.51064e-06,-2.57469e-05,0.00405147,-0.001987831640485993,0.004915330798209938,-6.510618805855017e-06,0.006004092740712563,-2.574656855136581e-05,-0.0028982718772401217
67,0.0068,36.9843,535.573,-0.000198842,140.766,-0.247628,-0.947622,-0.00202438,0.00607427,-0.00295355,0.00498095,-6.70093e-06,-2.64918e-05,0.00414685,-0.002022332324798426,0.004993375553238311,-6.700907548840007e-06,0.006092755788285498,-2.6491449095389363e-05,-0.0029491925622245896
68,0.0069,37.0567,536.895,-0.000192379,141.078,-0.251625,-0.96241,-0.00205897,0.00616239,-0.00300464,0.00505862,-6.89262e-06,-2.72421e-05,0.0042423,-0.0020568517753060123,0.0050714364201720485,-6.8925962459776e-06,0.006181416588263211,-2.7241728937310583e-05,-0.0030001305867536354
69,0.007,37.1282,538.201,-0.000186241,141.386,-0.255573,-0.977016,-0.00209356,0.00625051,-0.00305575,0.00513628,-7.08567e-06,-2.79978e-05,0.00433782,-0.002091370031806372,0.0051494932988338515,-7.0856448967093755e-06,0.00627008520137462,-2.7997408065250085e-05,-0.003051085947904042
70,0.0071,37.1989,539.492,-0.000180411,141.691,-0.259474,-0.991445,-0.00212817,0.00633862,-0.00310687,0.00521393,-7.28009e-06,-2.87588e-05,0.00443341,-0.0021259070518230283,0.00522754618735255,-7.280063500259004e-06,0.006358751564720988,-2.8758386469651676e-05,-0.003102048673771951
71,0.0072,37.2687,540.769,-0.000174876,141.992,-0.263328,-1.0057,-0.00216278,0.00642672,-0.00315801,0.00529158,-7.47584e-06,-2.9525e-05,0.00452906,-0.002160442876534052,0.005305605136913583,-7.475812055957043e-06,0.006447415676330559,-2.9524564141514276e-05,-0.0031530287314316396
72,0.0073,37.3376,542.031,-0.000169622,142.29,-0.267137,-1.01979,-0.00219741,0.00651481,-0.00320916,0.00536922,-7.67292e-06,-3.02963e-05,0.00462478,-0.002194997462081183,0.0053836600941505885,-7.67289056324838e-06,0.006536077534231799,-3.0295841071725782e-05,-0.003204016149997657
73,0.0074,37.4058,543.279,-0.000164636,142.584,-0.270902,-1.03371,-0.00223204,0.00660289,-0.00326032,0.00544686,-7.8713e-06,-3.10727e-05,0.00472056,-0.0022295508510236095,0.005461721111809759,-7.871269021353378e-06,0.006624737136452508,-3.107221724862885e-05,-0.003255010928073898
74,0.0075,37.4732,544.513,-0.000159907,142.875,-0.274623,-1.04747,-0.00226668,0.00669096,-0.0033115,0.00552449,-8.07098e-06,-3.18542e-05,0.0048164,-0.0022641130207619042,0.00553977813496398,-8.070947429716924e-06,0.006713394481020929,-3.18536926603441e-05,-0.003306023031203753
75,0.0076,37.5398,545.734,-0.000155423,143.163,-0.278301,-1.06107,-0.00230134,0.00677903,-0.00336269,0.00560212,-8.27192e-06,-3.26405e-05,0.00491229,-0.0022986939473137458,0.005617841217919972,-8.271885787780597e-06,0.006802059633985502,-3.263996730462626e-05,-0.0033570424900305484
76,0.0077,37.6057,546.942,-0.000151174,143.448,-0.281938,-1.07451,-0.002336,0.00686709,-0.0034139,0.00567974,-8.47413e-06,-3.34318e-05,0.00500825,-0.0023332736753113315,0.005695900304189205,-8.474094094657048e-06,0.006890722527126858,-3.343124116361729e-05,-0.0034080792690767137
77,0.0078,37.6708,548.137,-0.00014715,143.729,-0.285535,-1.0878,-0.00237066,0.00695513,-0.00346511,0.00575735,-8.67757e-06,-3.42279e-05,0.00510426,-0.0023678522047964057,0.005773955391900287,-8.677532350009898e-06,0.0069793730886786864,-3.4227314232082584e-05,-0.0034591134345963725
78,0.0079,37.7353,549.32,-0.000143341,144.008,-0.289091,-1.10095,-0.00240534,0.00704317,-0.00351634,0.00583496,-8.88224e-06,-3.50288e-05,0.00520032,-0.002402449487761582,0.005852016537701843,-8.882200553061992e-06,0.0070680314553692725,-3.502818649869788e-05,-0.003510164916520342
79,0.008,37.799,550.49,-0.000139739,144.284,-0.292609,-1.11395,-0.00244002,0.00713121,-0.00356758,0.00591256,-9.08813e-06,-3.58343e-05,0.00529643,-0.0024370455709137318,0.005930073682763215,-9.088088703035346e-06,0.007156697627886288,-3.583365795911675e-05,-0.003561223747531539
80,0.0081,37.862,551.649,-0.000136335,144.556,-0.296088,-1.12681,-0.00247471,0.00721923,-0.00361884,0.00599016,-9.29521e-06,-3.66446e-05,0.0053926,-0.0024716504295781982,0.006008136885294002,-9.295166799705434e-06,0.007245351462009664,-3.664392859481502e-05,-0.0036122998901095826
81,0.0082,37.9244,552.796,-0.000133122,144.826,-0.29953,-1.13953,-0.00250941,0.00730725,-0.0036701,0.00606774,-9.50348e-06,-3.74594e-05,0.00548881,-0.0025062640627582233,0.006086186024040652,-9.503434842073055e-06,0.0073340130997867625,-3.745869840543481e-05,-0.003663373414591553
82,0.0083,37.9861,553.931,-0.000130092,145.094,-0.302936,-1.15211,-0.00254412,0.00739525,-0.00372137,0.00614533,-9.71291e-06,-3.82787e-05,0.00558508,-0.002540886469457271,0.006164251279716648,-9.71286282980266e-06,0.00742266239345124,-3.827796737987388e-05,-0.003714454283967328
83,0.0084,38.0472,555.055,-0.000127237,145.358,-0.306306,-1.16456,-0.00257883,0.00748325,-0.00377266,0.0062229,-9.9235e-06,-3.91025e-05,0.00568139,-0.002575507674433486,0.006242302467864613,-9.923450762228114e-06,0.007511319488596735,-3.9101735507252044e-05,-0.003765552459183197
84,0.0085,38.1077,556.168,-0.000124552,145.62,-0.30964,-1.17688,-0.00261355,0.00757125,-0.00382395,0.00630046,-1.01352e-05,-3.99308e-05,0.00577775,-0.002610137651627098,0.00632034964747441,-1.0135148639012215e-05,0.00759998438591003,-3.993000277624503e-05,-0.0038166480136409
85,0.0086,38.1675,557.271,-0.000122029,145.879,-0.31294,-1.18907,-0.00264828,0.00765923,-0.00387525,0.00637802,-1.03481e-05,-4.07634e-05,0.00587415,-0.0026447764000411267,0.006398402880658516,-1.0348046458608096e-05,0.007688636932304593,-4.0762569183949715e-05,-0.0038677509087973183
86,0.0087,38.2268,558.363,-0.000119663,146.136,-0.316207,-1.20114,-0.00268301,0.0077472,-0.00392657,0.00645558,-1.05621e-05,-4.16004e-05,0.00597059,-0.002679413945472331,0.006476462167885888,-1.0562044221229527e-05,0.007777287200920524,-4.1599534715386355e-05,-0.003918871104065191
87,0.0088,38.2854,559.445,-0.000117447,146.39,-0.31944,-1.21308,-0.00271775,0.00783517,-0.00397789,0.00653312,-1.07771e-05,-4.24416e-05,0.00606708,-0.0027140602608218822,0.006554507378536023,-1.0777041927312325e-05,0.00786594526844353,-4.244069936798489e-05,-0.003969988675912028
88,0.0089,38.3435,560.516,-0.000115377,146.642,-0.322641,-1.2249,-0.00275249,0.00792313,-0.00402922,0.00661066,-1.09933e-05,-4.32871e-05,0.00616361,-0.0027487053725793187,0.006632558641046504,-1.0993239573875435e-05,0.007954601056013644,-4.328616312698763e-05,-0.004021113584261271
89,0.009,38.401,561.578,-0.000113448,146.892,-0.325811,-1.2366,-0.00278724,0.00801108,-0.00408056,0.00668818,-1.12105e-05,-4.41367e-05,0.00626018,-0.0027833592529529216,0.006710595821674437,-1.1210437162567644e-05,0.008043254561657331,-4.413572599015758e-05,-0.004072245827713927
90,0.0091,38.458,562.63,-0.000111654,147.139,-0.328949,-1.24819,-0.002822,0.00809903,-0.00413191,0.0067657,-1.14288e-05,-4.49905e-05,0.00635679,-0.0028180219009450447,0.006788639051979128,-1.1428734691509845e-05,0.00813191586471973,-4.498948794262603e-05,-0.004123385404870783
91,0.0092,38.5144,563.672,-0.00010999,147.384,-0.332056,-1.25966,-0.00285676,0.00818696,-0.00418326,0.00684322,-1.16482e-05,-4.58483e-05,0.00645344,-0.0028526833440843946,0.006866688332429316,-1.1648132160035907e-05,0.008220564801475039,-4.5847248982711086e-05,-0.004174522356077848
92,0.0093,38.5703,564.705,-0.000108453,147.626,-0.335134,-1.27102,-0.00289153,0.00827489,-0.00423463,0.00692072,-1.18686e-05,-4.67101e-05,0.00655013,-0.002887353553539418,0.0069447235245998495,-1.186852956847062e-05,0.008309221533474132,-4.670900910030973e-05,-0.004225676596956496
93,0.0094,38.6256,565.729,-0.000107038,147.867,-0.338182,-1.28227,-0.0029263,0.00836281,-0.004286,0.00699822,-1.209e-05,-4.7576e-05,0.00664685,-0.0029220225575322667,0.007022764764731848,-1.2089926916258875e-05,0.008397875977423475,-4.757486828010915e-05,-0.004276828210109218
94,0.0095,38.6805,566.744,-0.00010574,148.105,-0.341201,-1.29342,-0.00296108,0.00845072,-0.00433738,0.00707571,-1.23125e-05,-4.84458e-05,0.00674361,-0.002956700326537831,0.007100801982286464,-1.2312424201521566e-05,0.008486528131349091,-4.8444626521204626e-05,-0.004327987152391355
95,0.0096,38.7348,567.75,-0.000104557,148.341,-0.344191,-1.30446,-0.00299586,0.00853862,-0.00438876,0.00715319,-1.25359e-05,-4.93195e-05,0.0068404,-0.0029913768894714865,0.007178835175390974,-1.2535821425907478e-05,0.008575177993276117,-4.9318283813493125e-05,-0.004379143466194502
96,0.0097,38.7887,568.748,-0.000103484,148.575,-0.347154,-1.31539,-0.00303065,0.00862652,-0.00444016,0.00723066,-1.27604e-05,-5.0197e-05,0.00693723,-0.0030260622161147888,0.007256864342172653,-1.276031858643556e-05,0.008663835647868545,-5.01957401516373e-05,-0.00443031706304764
97,0.0098,38.8421,569.737,-0.000102518,148.807,-0.35009,-1.32622,-0.00306544,0.00871441,-0.00449156,0.00730812,-1.29858e-05,-5.10784e-05,0.00703409,-0.0030607463360764475,0.007334889480759221,-1.2985715684865617e-05,0.008752491008286345,-5.1077095520768445e-05,-0.004481488029645431
98,0.0099,38.895,570.717,-0.000101656,149.037,-0.352998,-1.33696,-0.00310024,0.00880229,-0.00454296,0.00738558,-1.32122e-05,-5.19635e-05,0.00713098,-0.0030954392184443513,0.007412920663407263,-1.3212112719318547e-05,0.008841144072554874,-5.196214992075898e-05,-0.004532656366123211
99,0.01,38.9474,571.69,-0.000100893,149.265,-0.35588,-1.34759,-0.00313504,0.00889016,-0.00459438,0.00746302,-1.34396e-05,-5.28523e-05,0.00722791,-0.003130130893520877,0.00749093774076548,-1.3439509689017193e-05,0.008929794838698824,-5.285090334183895e-05,-0.004583841980939418
100,0.0101,38.9993,572.654,-0.000100229,149.491,-0.358736,-1.35813,-0.00316984,0.00897802,-0.00464579,0.00754046,-1.36679e-05,-5.37449e-05,0.00732486,-0.0031648213613482135,0.007568960860000473,-1.3667806594730436e-05,0.00901844330474355,-5.374345576869555e-05,-0.0046350150102092424
101,0.0102,39.0509,573.611,-9.96583e-05,149.716,-0.361567,-1.36857,-0.00320465,0.00906588,-0.00469722,0.00761789,-1.38972e-05,-5.4641e-05,0.00742185,-0.0031995205899729706,0.007646979945109766,-1.3897103434357128e-05,0.009107099559784393,-5.463950720774324e-05,-0.004686205315017289
102,0.0103,39.1019,574.559,-9.91794e-05,149.938,-0.364373,-1.37892,-0.00323947,0.00915373,-0.00474865,0.00769531,-1.41274e-05,-5.55408e-05,0.00751887,-0.003234228578396503,0.007724994994220635,-1.4127300208777172e-05,0.009195753512548643,-5.553925763834844e-05,-0.0047373929871756815
103,0.0104,39.1526,575.5,-9.87895e-05,150.158,-0.367153,-1.38918,-0.00327429,0.00924157,-0.00480009,0.00777272,-1.43586e-05,-5.64442e-05,0.00761591,-0.0032689353583088554,0.007803006005460356,-1.4358496915778396e-05,0.00928440516106055,-5.6442607056061966e-05,-0.004788587978933889
104,0.0105,39.2028,576.434,-9.8486e-05,150.377,-0.36991,-1.39934,-0.00330911,0.0093294,-0.00485153,0.00785012,-1.45906e-05,-5.73511e-05,0.00771298,-0.003303640929752105,0.007881012976955981,-1.4590493557675721e-05,0.009373054503344802,-5.7349455457100795e-05,-0.004839780337289601
105,0.0106,39.2526,577.36,-9.82664e-05,150.594,-0.372643,-1.40942,-0.00334394,0.00941723,-0.00490298,0.00792751,-1.48236e-05,-5.82615e-05,0.00781008,-0.003338355259384973,0.007959015906834788,-1.4823490130932981e-05,0.009461711632042569,-5.8259802831805985e-05,-0.004890980013468216
106,0.0107,39.3019,578.279,-9.81283e-05,150.809,-0.375352,-1.41941,-0.00337877,0.00950505,-0.00495443,0.0080049,-1.50574e-05,-5.91753e-05,0.00790721,-0.0033730683799387817,0.008037024873593923,-1.505728663797612e-05,0.009550366452334424,-5.9173549176505524e-05,-0.004942177055491381
107,0.0108,39.3509,579.191,-9.80696e-05,151.023,-0.378039,-1.42932,-0.0034136,0.00959286,-0.00500589,0.00808227,-1.52921e-05,-6.00926e-05,0.00800436,-0.00340778029145572,0.008115019715399852,-1.529198307648194e-05,0.00963901896224395,-6.009079447588661e-05,-0.004993381413560649
108,0.0109,39.3995,580.096,-9.8088e-05,151.234,-0.380702,-1.43914,-0.00344844,0.00968066,-0.00505735,0.00815964,-1.55277e-05,-6.10132e-05,0.00810154,-0.0034425009595527856,0.008193020591900302,-1.5527579445895334e-05,0.009727669159795616,-6.101133873259723e-05,-0.005044583136721403
109,0.011,39.4476,580.993,-9.81816e-05,151.445,-0.383344,-1.44888,-0.00348328,0.00976845,-0.00510881,0.008237,-1.57642e-05,-6.19373e-05,0.00819875,-0.003477220418002913,0.008271017420851567,-1.5764075745661188e-05,0.009816317043013001,-6.193538192500458e-05,-0.005095782225109424
110,0.0111,39.4954,581.884,-9.83483e-05,151.653,-0.385963,-1.45854,-0.00351812,0.00985624,-0.00516029,0.00831434,-1.60016e-05,-6.28646e-05,0.00829598,-0.003511938666848069,0.008349000116890881,-1.6001471975113368e-05,0.009904972708969728,-6.286262406240972e-05,-0.00514699857592027
111,0.0112,39.5428,582.769,-9.85861e-05,151.86,-0.388561,-1.46811,-0.00355297,0.00994402,-0.00521176,0.00839168,-1.62398e-05,-6.37952e-05,0.00839323,-0.003546665670663973,0.00842698884434534,-1.623966813513178e-05,0.009993626058412808,-6.379316512949984e-05,-0.005198202342163283
112,0.0113,39.5899,583.647,-9.88934e-05,152.065,-0.391138,-1.47761,-0.00358782,0.0100318,-0.00526324,0.00846901,-1.64788e-05,-6.47291e-05,0.00849051,-0.003581391464264949,0.00850497351863111,-1.6478664225272333e-05,0.010082287190188222,-6.472700511706009e-05,-0.00524941342052232
113,0.0114,39.6365,584.518,-9.92684e-05,152.269,-0.393694,-1.48703,-0.00362268,0.0101195,-0.00531472,0.00854633,-1.67187e-05,-6.56661e-05,0.00858781,-0.0036161260115318283,0.008582954137875465,-1.6718560243322855e-05,0.010170875291306336,-6.566394402884868e-05,-0.005300621862602828
114,0.0115,39.6828,585.383,-9.97092e-05,152.471,-0.396229,-1.49638,-0.00365753,0.0102073,-0.00536621,0.00862364,-1.69593e-05,-6.66064e-05,0.00868513,-0.0036508493844820133,0.008660930700205016,-1.6959156191931335e-05,0.01025957218789375,-6.660418184301076e-05,-0.005351837615022226
115,0.0116,39.7288,586.242,-0.000100214,152.672,-0.398744,-1.50564,-0.00369239,0.0102951,-0.0054177,0.00870094,-1.72009e-05,-6.75498e-05,0.00878247,-0.003685581510488034,0.008738903203746595,-1.7200752065349434e-05,0.010348276872410356,-6.754751856363761e-05,-0.005403050730410475
116,0.0117,39.7744,587.094,-0.000100782,152.871,-0.401239,-1.51484,-0.00372726,0.0103828,-0.0054692,0.00877824,-1.74432e-05,-6.84964e-05,0.00887984,-0.0037203223885500236,0.008816881734795778,-1.744304786832629e-05,0.010436888301846636,-6.849405417519439e-05,-0.00545427115436059
117,0.0118,39.8196,587.94,-0.000101412,153.069,-0.403714,-1.52396,-0.00376212,0.0104705,-0.0055207,0.00885552,-1.76863e-05,-6.9446e-05,0.00897722,-0.003755052092769273,0.008894846115921062,-1.768614359831666e-05,0.010525507502845866,-6.944358868232747e-05,-0.005505488940526826
118,0.0119,39.8645,588.781,-0.000102101,153.265,-0.40617,-1.53301,-0.00379699,0.0105582,-0.0055722,0.00893279,-1.79302e-05,-7.03987e-05,0.00907463,-0.003789790548434313,0.008972806432638425,-1.7930039254876462e-05,0.01061413447608972,-7.039622206961305e-05,-0.0055567040890449615
119,0.012,39.9091,589.615,-0.000102848,153.46,-0.408607,-1.54199,-0.00383186,0.010646,-0.0056237,0.00901005,-1.81749e-05,-7.13544e-05,0.00917206,-0.003824527792790522,0.009050762683074698,-1.817473483745058e-05,0.010702870292542022,-7.13518543353775e-05,-0.0056079166000509995
120,0.0121,39.9533,590.444,-0.000103653,153.653,-0.411025,-1.55089,-0.00386673,0.0107337,-0.00567521,0.00908731,-1.84204e-05,-7.23132e-05,0.0092695,-0.003859263825880088,0.009128724956643408,-1.84202303454839e-05,0.010791512821184845,-7.231058546353086e-05,-0.00565913641708915
121,0.0122,39.9973,591.267,-0.000104513,153.846,-0.413424,-1.55973,-0.00390161,0.0108214,-0.00572672,0.00916455,-1.86667e-05,-7.32749e-05,0.00936697,-0.0038940086088052883,0.009206673069676485,-1.8666525778199272e-05,0.010880163124118214,-7.32722154600518e-05,-0.005710353595862583
122,0.0123,40.0408,592.085,-0.000105428,154.036,-0.415806,-1.5685,-0.00393649,0.0109091,-0.00577824,0.00924179,-1.89137e-05,-7.42395e-05,0.00946445,-0.003928752179853667,0.009284627203654194,-1.891352113714273e-05,0.010968821202024026,-7.423674431650262e-05,-0.005761578078891327
123,0.0124,40.0841,592.896,-0.000106397,154.226,-0.418169,-1.57721,-0.00397137,0.0109968,-0.00582976,0.00931901,-1.91615e-05,-7.52071e-05,0.00956195,-0.003963494539067303,0.009362567171790293,-1.9161316419658014e-05,0.011057487055584403,-7.520427201690438e-05,-0.005812799922902623
124,0.0125,40.1271,593.703,-0.000107417,154.414,-0.420515,-1.58585,-0.00400625,0.0110844,-0.00588128,0.00939623,-1.941e-05,-7.61776e-05,0.00965947,-0.003998235686488716,0.009440513158683217,-1.940981162718014e-05,0.011146059570869893,-7.617469856024961e-05,-0.005864019128032583
125,0.0126,40.1697,594.504,-0.000108489,154.601,-0.422843,-1.59442,-0.00404114,0.0111721,-0.0059328,0.00947343,-1.96593e-05,-7.71509e-05,0.00975701,-0.004032985581830184,0.00951844497442833,-1.965910675727489e-05,0.011234740968916856,-7.71479239458639e-05,-0.005915235694416987
126,0.0127,40.2121,595.299,-0.000109611,154.786,-0.425154,-1.60293,-0.00407603,0.0112598,-0.00598432,0.00955063,-1.99093e-05,-7.8127e-05,0.00985456,-0.0040677342647689185,0.009596382806742021,-1.990910181115524e-05,0.011323430144663194,-7.812394816542056e-05,-0.005966449622191949
127,0.0128,40.2542,596.09,-0.000110781,154.97,-0.427448,-1.61138,-0.00411092,0.0113474,-0.00603585,0.00962781,-2.016e-05,-7.9106e-05,0.00995213,-0.004102481735347219,0.009674306462602145,-2.0159796788599138e-05,0.011412025957583838,-7.910287120282966e-05,-0.006017670851316548
128,0.0129,40.2959,596.875,-0.000112,155.154,-0.429725,-1.61977,-0.00414581,0.0114351,-0.00608738,0.00970499,-2.04115e-05,-8.00877e-05,0.0100497,-0.004137227993607495,0.009752236132842373,-2.0411291686728283e-05,0.011500730681905713,-8.008449306573517e-05,-0.006068889441079306
129,0.013,40.3374,597.655,-0.000113266,155.335,-0.431986,-1.62809,-0.0041807,0.0115227,-0.00613891,0.00978216,-2.06637e-05,-8.10722e-05,0.0101473,-0.004171973039591936,0.009830161719624808,-2.0663486507199735e-05,0.011589342027033656,-8.106891373804714e-05,-0.006120105391616115
130,0.0131,40.3786,598.43,-0.000114578,155.516,-0.434231,-1.63635,-0.0042156,0.0116103,-0.00619045,0.00985931,-2.09166e-05,-8.20595e-05,0.0102449,-0.004206726831275653,0.009908073121995153,-2.0916381249458382e-05,0.011677961134855419,-8.205613321132788e-05,-0.006171328641349727
131,0.0132,40.4195,599.2,-0.000115935,155.695,-0.436459,-1.64456,-0.0042505,0.011698,-0.00624198,0.00993646,-2.11702e-05,-8.30494e-05,0.0103426,-0.004241479410073246,0.009985990535462008,-2.1169975912949113e-05,0.011766689182715062,-8.304595149399852e-05,-0.006222539313330611
132,0.0133,40.4601,599.965,-0.000117336,155.874,-0.438672,-1.6527,-0.0042854,0.0117856,-0.00629352,0.0100136,-2.14245e-05,-8.4042e-05,0.0104402,-0.004276230776026901,0.010063903859850232,-2.1424270497005793e-05,0.01185532382682819,-8.403846857008013e-05,-0.006273757283755899
133,0.0134,40.5005,600.726,-0.000118781,156.051,-0.440869,-1.66079,-0.0043203,0.0118732,-0.00634506,0.0100907,-2.16794e-05,-8.50373e-05,0.0105379,-0.004310980929179142,0.010141782789031994,-2.1679165003507528e-05,0.011943966235676173,-8.503368443124604e-05,-0.006324972614475066
134,0.0135,40.5405,601.481,-0.000120268,156.227,-0.443051,-1.66882,-0.0043552,0.0119608,-0.0063966,0.0101678,-2.19351e-05,-8.60352e-05,0.0106356,-0.004345729869572157,0.010219667722910719,-2.1934859427474862e-05,0.012032616409939356,-8.603149907826513e-05,-0.006376185305624116
135,0.0136,40.5804,602.232,-0.000121797,156.401,-0.445218,-1.67679,-0.0043901,0.0120484,-0.00644815,0.010245,-2.21915e-05,-8.70357e-05,0.0107333,-0.004380477597248356,0.010297659691710148,-2.2191253770453834e-05,0.012121274350298084,-8.703191250336584e-05,-0.00642740529306518
136,0.0137,40.6199,602.978,-0.000123367,156.575,-0.447369,-1.68471,-0.00442501,0.012136,-0.00649969,0.010322,-2.24485e-05,-8.80388e-05,0.010831,-0.00441523406809774,0.010375455606610684,-2.2448248034323548e-05,0.012209940057432478,-8.803492469855456e-05,-0.006478612704969966
137,0.0138,40.6592,603.72,-0.000124978,156.748,-0.449506,-1.69257,-0.00445992,0.0122236,-0.00655124,0.0103991,-2.27062e-05,-8.90445e-05,0.0109287,-0.0044499893256199075,0.010453358557358072,-2.27059422162057e-05,0.012298613532022884,-8.904053565617076e-05,-0.0065298274124145905
138,0.0139,40.6982,604.457,-0.000126628,156.919,-0.451628,-1.70038,-0.00449483,0.0123111,-0.00660279,0.0104762,-2.29645e-05,-9.00527e-05,0.0110264,-0.004484743369857158,0.010531267514654497,-2.296423631786837e-05,0.012387193536025576,-9.004864537731638e-05,-0.006581039479809148
139,0.014,40.737,605.19,-0.000128318,157.09,-0.453736,-1.70814,-0.00452974,0.0123987,-0.00665433,0.0105533,-2.32235e-05,-9.10634e-05,0.0111242,-0.004519496200851902,0.010609182478963142,-2.32232303366553e-05,0.012475882538701022,-9.105925385444191e-05,-0.006632238973612092
140,0.0141,40.7755,605.918,-0.000130045,157.259,-0.45583,-1.71584,-0.00456465,0.0124862,-0.00670589,0.0106303,-2.34832e-05,-9.20766e-05,0.0112219,-0.004554247818646551,0.01068700238204201,-2.348292427178933e-05,0.012564478054420292,-9.207236107999783e-05,-0.00668345569499218
141,0.0142,40.8138,606.642,-0.00013181,157.427,-0.457909,-1.72349,-0.00459956,0.0125738,-0.00675744,0.0107074,-2.37435e-05,-9.30923e-05,0.0113197,-0.0045889982232832915,0.010764929353971775,-2.3743218125371612e-05,0.012653182587899714,-9.30879670463236e-05,-0.0067346598430527704
142,0.0143,40.8519,607.362,-0.000133612,157.595,-0.459975,-1.73109,-0.00463448,0.0126613,-0.00680899,0.0107844,-2.40044e-05,-9.41105e-05,0.0114175,-0.004623757368567127,0.010842761250021482,-2.4004111896736013e-05,0.012741793618052277,-9.410607174575869e-05,-0.006785861351607747
143,0.0144,40.8897,608.078,-0.000135451,157.761,-0.462027,-1.73864,-0.00466939,0.0127489,-0.00686054,0.0108615,-2.4266e-05,-9.5131e-05,0.0115152,-0.004658505346667896,0.010920700231423108,-2.4265705583004227e-05,0.0128305136850555,-9.512647518994388e-05,-0.006837060220792779
144,0.0145,40.9272,608.789,-0.000137325,157.926,-0.464066,-1.74614,-0.00470431,0.0128364,-0.0069121,0.0109385,-2.45282e-05,-9.6154e-05,0.011613,-0.004693262064805359,0.010998544122292175,-2.452789918616638e-05,0.01291914023235785,-9.614937735225038e-05,-0.006888266381861685
145,0.0146,40.9645,609.496,-0.000139234,158.091,-0.466091,-1.75359,-0.00473923,0.0129239,-0.00696365,0.0110155,-2.4791e-05,-9.71794e-05,0.0117109,-0.004728017569259446,0.011076394007371704,-2.479069270566736e-05,0.01300777453482227,-9.717467823511239e-05,-0.006939459972203577
146,0.0147,41.0016,610.199,-0.000141178,158.254,-0.468103,-1.76098,-0.00477415,0.0130114,-0.00701521,0.0110925,-2.50545e-05,-9.82071e-05,0.0118087,-0.004762771860072457,0.011154249887123324,-2.5054186138628864e-05,0.013096416593127547,-9.820227784063107e-05,-0.006990660853677277
147,0.0148,41.0385,610.898,-0.000143156,158.416,-0.470102,-1.76834,-0.00480907,0.0130989,-0.00706677,0.0111695,-2.53185e-05,-9.92372e-05,0.0119065,-0.004797524937286912,0.011232111762008223,-2.5318179489475234e-05,0.01318506640795225,-9.92322761519393e-05,-0.007041859095301639
148,0.0149,41.0751,611.593,-0.000145168,158.578,-0.472088,-1.77564,-0.00484399,0.0131864,-0.00711832,0.0112464,-2.55832e-05,-0.00010027,0.0120044,-0.004832276800945001,0.011309878501495563,-2.5582872752782926e-05,0.013273723979975172,-0.00010026497313153637,-0.0070930447681433195
149,0.015,41.1116,612.284,-0.000147212,158.738,-0.474062,-1.7829,-0.00487891,0.0132739,-0.00716988,0.0113234,-2.58484e-05,-0.000101304,0.0121022,-0.004867027451089245,0.011387752360245251,-2.5848065932976283e-05,0.0133623893098751,-0.00010129886892307205,-0.007144237730989156
150,0.0151,41.1478,612.972,-0.000149289,158.898,-0.476023,-1.79011,-0.00491384,0.0133614,-0.00722144,0.0114004,-2.61143e-05,-0.000102341,0.0122001,-0.004901786838744093,0.011465632215512889,-2.611395902463176e-05,0.013451062398330826,-0.00010233576333851246,-0.007195428054393771
151,0.0152,41.1837,613.655,-0.000151398,159.056,-0.477971,-1.79727,-0.00494876,0.0134488,-0.007273,0.0114773,-2.63807e-05,-0.000103381,0.012298,-0.004936535061640157,0.011543416913413651,-2.638035203239575e-05,0.013539641892051923,-0.00010337565636853174,-0.0072466157384935
152,0.0153,41.2195,614.335,-0.000153539,159.214,-0.479907,-1.80439,-0.00498369,0.0135363,-0.00732456,0.0115542,-2.66478e-05,-0.000104422,0.0123958,-0.004971292021436646,0.011621207593187632,-2.6647444950511634e-05,0.013628330490786933,-0.00010441654821269353,-0.007297800783424235
153,0.0154,41.255,615.011,-0.000155711,159.371,-0.481832,-1.81146,-0.00501861,0.0136238,-0.00737612,0.0116312,-2.69154e-05,-0.000105466,0.0124937,-0.005006037817254172,0.011699105425200251,-2.691503778384785e-05,0.013717026850114111,-0.00010546043865689025,-0.007348983189322089
154,0.0155,41.2904,615.683,-0.000157914,159.527,-0.483744,-1.81849,-0.00505354,0.0137112,-0.00742768,0.0117081,-2.71836e-05,-0.000106512,0.0125916,-0.005040792349361722,0.01177690807788112,-2.7183230529304048e-05,0.013805629590144086,-0.00010650632779829472,-0.007400162956323064
155,0.0156,41.3255,616.352,-0.000160146,159.682,-0.485644,-1.82548,-0.00508847,0.0137987,-0.00747924,0.011785,-2.74523e-05,-0.00010756,0.0126895,-0.00507554566751478,0.011854716713816105,-2.7451923189092398e-05,0.01389434146382107,-0.00010755421563057865,-0.007451340084563385
156,0.0157,41.3604,617.016,-0.000162409,159.836,-0.487533,-1.83242,-0.0051234,0.0138861,-0.0075308,0.0118619,-2.77217e-05,-0.00010861,0.0127875,-0.005110297771755534,0.011932531333465057,-2.7721315757234244e-05,0.013982959701825726,-0.0001086041021475248,-0.007502514574178942
157,0.0158,41.3952,617.678,-0.000164701,159.989,-0.48941,-1.83932,-0.00515832,0.0139735,-0.00758236,0.0119388,-2.79916e-05,-0.000109663,0.0128854,-0.005145038713576966,0.0120103519372885,-2.7991208238820064e-05,0.014071585685402566,-0.00010965698723297557,-0.00755368642530585
158,0.0159,41.4297,618.336,-0.000167022,160.142,-0.491276,-1.84617,-0.00519325,0.0140609,-0.00763393,0.0120157,-2.8262e-05,-0.000110717,0.0129833,-0.005179788390468065,0.012088178525746507,-2.826160063340577e-05,0.014160219415229047,-0.00011071087109915112,-0.007604865562031438
159,0.016,41.464,618.99,-0.000169371,160.293,-0.493131,-1.85299,-0.00522818,0.0141483,-0.00768549,0.0120925,-2.85331e-05,-0.000111774,0.0130813,-0.005214536853574203,0.012165909882703163,-2.8532692935012705e-05,0.014248860891982185,-0.00011176775351917634,-0.007656032136077462
160,0.0161,41.4981,619.641,-0.000171749,160.444,-0.494974,-1.85976,-0.00526311,0.0142358,-0.00773705,0.0121694,-2.88046e-05,-0.000112833,0.0131792,-0.005249284102937679,0.01224374843402698,-2.880418515149863e-05,0.014337611550094831,-0.00011282663459644127,-0.007707196072042954
161,0.0162,41.5321,620.288,-0.000174155,160.594,-0.496807,-1.86649,-0.00529805,0.0143231,-0.00778861,0.0122462,-2.90767e-05,-0.000113894,0.0132772,-0.005284040085760555,0.012321491739211599,-2.9076277276884888e-05,0.01442616708897626,-0.00011388751432461763,-0.0077583573700639175
162,0.0163,41.5658,620.933,-0.000176588,160.743,-0.498628,-1.87319,-0.00533298,0.0144105,-0.00784017,0.0123231,-2.93494e-05,-0.000114957,0.0133751,-0.005318784907418439,0.012399342255240198,-2.934896931061637e-05,0.014514831810571671,-0.00011495039269726615,-0.007809516030276242
163,0.0164,41.5993,621.573,-0.000179048,160.891,-0.500439,-1.87984,-0.00536791,0.0144979,-0.00789173,0.0123999,-2.96226e-05,-0.000116022,0.0134731,-0.0053535285154610035,0.012477097510489088,-2.962216125512729e-05,0.01460350428180246,-0.00011601526970805853,-0.007860672052816153
164,0.0165,41.6327,622.211,-0.000181536,161.039,-0.502239,-1.88645,-0.00540284,0.0145853,-0.00794329,0.0124767,-2.98963e-05,-0.000117089,0.0135711,-0.005388270909930548,0.012554858737570784,-2.989585311008458e-05,0.014692184503345862,-0.0001170821453505555,-0.007911825437819542
165,0.0166,41.6659,622.845,-0.000184049,161.186,-0.504029,-1.89302,-0.00543778,0.0146727,-0.00799485,0.0125535,-3.01706e-05,-0.000118158,0.0136691,-0.005423022036639247,0.01263262593694403,-3.0170144872054827e-05,0.014780872475879558,-0.00011815101961842878,-0.007962976185422299
166,0.0167,41.6989,623.476,-0.000186589,161.332,-0.505808,-1.89956,-0.00547271,0.01476,-0.00804641,0.0126303,-3.04453e-05,-0.00011923,0.013767,-0.005457762003742372,0.012710399109067572,-3.0444836546572596e-05,0.014869466713128832,-0.00011922289238608386,-0.00801412429576065
167,0.0168,41.7317,624.104,-0.000189155,161.477,-0.507577,-1.90606,-0.00550764,0.0148474,-0.00809797,0.0127071,-3.07206e-05,-0.000120303,0.013865,-0.00549250075739971,0.012788178254400151,-3.072012812721514e-05,0.014958170180804586,-0.00012029576388428165,-0.008065269768970262
168,0.0169,41.7643,624.728,-0.000191746,161.622,-0.509335,-1.91252,-0.00554258,0.0149347,-0.00814953,0.0127839,-3.09964e-05,-0.000121378,0.013963,-0.005527248242381155,0.012865963373400291,-3.09959196165277e-05,0.01504677989681924,-0.00012137063398853787,-0.008116412605187362
169,0.017,41.7968,625.35,-0.000194362,161.765,-0.511084,-1.91894,-0.00557751,0.015022,-0.00820109,0.0128606,-3.12728e-05,-0.000122455,0.0140611,-0.005561984568926648,0.012943653172156733,-3.127231101107686e-05,0.015135397348799762,-0.00012244750269252425,-0.008167552804547729
170,0.0171,41.8291,625.968,-0.000197003,161.908,-0.512822,-1.92532,-0.00561245,0.0151094,-0.00825264,0.0129374,-3.15496e-05,-0.000123534,0.0141591,-0.00559672962618607,0.013021450232089338,-3.1549102316619226e-05,0.015224124059828759,-0.00012352636998957944,-0.00821868044937435
171,0.0172,41.8612,626.584,-0.000199669,162.051,-0.514551,-1.93167,-0.00564738,0.0151967,-0.0083042,0.0130141,-3.18269e-05,-0.000124615,0.0142571,-0.005631463525789138,0.013099151957145061,-3.1826393529610364e-05,0.015312756994630528,-0.0001246072358733752,-0.008269815375940626
172,0.0173,41.8931,627.196,-0.000202359,162.192,-0.51627,-1.93798,-0.00568232,0.015284,-0.00835576,0.0130908,-3.21048e-05,-0.000125698,0.0143551,-0.0056662061554962895,0.013176859642151761,-3.210428464639481e-05,0.01540139766742521,-0.00012569010033736117,-0.008320947666058065
173,0.0174,41.9249,627.805,-0.000205074,162.333,-0.517979,-1.94426,-0.00571725,0.0153713,-0.00840731,0.0131676,-3.23831e-05,-0.000126783,0.0144531,-0.0057009376283265745,0.013254674613029094,-3.238257567306224e-05,0.015490046078888486,-0.00012677496337509808,-0.008372067403583316
174,0.0175,41.9565,628.412,-0.000207812,162.473,-0.519679,-1.9505,-0.00575219,0.0154586,-0.00845887,0.0132443,-3.26619e-05,-0.000127869,0.0145512,-0.005735677830650987,0.01333239422708088,-3.26613666059572e-05,0.015578702229695818,-0.00012786082510785057,-0.008423194421722124
175,0.0176,41.9879,629.015,-0.000210574,162.612,-0.521369,-1.9567,-0.00578712,0.0155459,-0.00851042,0.013321,-3.29413e-05,-0.000128958,0.0146492,-0.00577040687687802,0.013410119802455878,-3.2940757441313195e-05,0.015667366120522885,-0.00012894968527454864,-0.008474308888563042
176,0.0177,42.0192,629.616,-0.000213359,162.751,-0.52305,-1.96287,-0.00582206,0.0156332,-0.00856198,0.0133977,-3.32211e-05,-0.000130048,0.0147473,-0.005805144651989336,0.013487851339611057,-3.3220548185330934e-05,0.015756037752045593,-0.0001300395441253821,-0.008525430635266784
177,0.0178,42.0503,630.213,-0.000216167,162.889,-0.524722,-1.96901,-0.00585699,0.0157204,-0.00861353,0.0134744,-3.35014e-05,-0.00013114,0.0148453,-0.005839871271782648,0.013565588839003828,-3.350083883435495e-05,0.015844615540473006,-0.0001311314015260967,-0.0085765398319666
178,0.0179,42.0812,630.808,-0.000218997,163.026,-0.526384,-1.97511,-0.00589193,0.0158077,-0.00866508,0.013551,-3.37821e-05,-0.000132234,0.0149434,-0.005874606619850287,0.013643230936763118,-3.3781529391263554e-05,0.015933302646545577,-0.0001322252574700311,-0.008627646394055333
179,0.018,42.112,631.4,-0.000221851,163.163,-0.528038,-1.98118,-0.00592687,0.015895,-0.00871663,0.0136277,-3.40634e-05,-0.00013333,0.0150414,-0.005909340754286174,0.013720980354228196,-3.406281984896786e-05,0.016021997495340612,-0.00013332111195052399,-0.008678750321668649
180,0.0181,42.1426,631.99,-0.000224727,163.299,-0.529682,-1.98721,-0.0059618,0.0159822,-0.00876818,0.0137043,-3.43451e-05,-0.000134428,0.0151395,-0.005944063734573235,0.013798634355433492,-3.43445102137796e-05,0.016110598476468674,-0.00013441896496124706,-0.008729851614942441
181,0.0182,42.1731,632.576,-0.000227624,163.434,-0.531317,-1.99321,-0.00599674,0.0160695,-0.00881973,0.013781,-3.46273e-05,-0.000135527,0.0152376,-0.0059787954422199086,0.01387639569279786,-3.462670048193228e-05,0.01619930880386522,-0.00013551781663101448,-0.008780950274012489
182,0.0183,42.2034,633.16,-0.000230544,163.569,-0.532944,-1.99918,-0.00603167,0.0161567,-0.00887128,0.0138576,-3.49099e-05,-0.000136629,0.0153356,-0.006013515996497132,0.013954061599274148,-3.490929065652626e-05,0.016287925247213675,-0.00013661966668321313,-0.008832046299014462
183,0.0184,42.2335,633.741,-0.000233485,163.703,-0.534562,-2.00512,-0.00606661,0.0162439,-0.00892283,0.0139342,-3.5193e-05,-0.000137732,0.0154337,-0.0060482452775241224,0.014031733455186712,-3.5192380733684026e-05,0.01637654941825284,-0.00013772251538357594,-0.008883139690084252
184,0.0185,42.2635,634.319,-0.000236448,163.836,-0.536171,-2.01102,-0.00610154,0.0163312,-0.00897437,0.0140108,-3.54766e-05,-0.000138836,0.0155318,-0.006082963405960928,0.014109411260991411,-3.547597071285047e-05,0.01646528296418004,-0.0001388263627285502,-0.0089342205366999
185,0.0186,42.2934,634.895,-0.000239432,163.969,-0.537772,-2.0169,-0.00613648,0.0164184,-0.00902592,0.0140874,-3.57606e-05,-0.000139943,0.0156299,-0.006117690260537878,0.01418709501714388,-3.5759960597347984e-05,0.01655392260148658,-0.0001399332084350835,-0.008985308660823588
186,0.0187,42.3231,635.468,-0.000242437,164.101,-0.539365,-2.02274,-0.00617141,0.0165056,-0.00907746,0.014164,-3.60451e-05,-0.000141051,0.0157279,-0.0061524059633037975,0.014264784724099977,-3.604445038318804e-05,0.016642569968506438,-0.00014104105277534806,-0.0090363842417861
187,0.0188,42.3526,636.039,-0.000245463,164.233,-0.540949,-2.02855,-0.00620635,0.0165928,-0.009129,0.0142406,-3.633e-05,-0.000142161,0.015826,-0.006187130391600126,0.014342480382315559,-3.632934007358202e-05,0.016731225065913735,-0.0001421508956038764,-0.009087457190381176
188,0.0189,42.3821,636.606,-0.00024851,164.364,-0.542524,-2.03433,-0.00624128,0.01668,-0.00918054,0.0143172,-3.66154e-05,-0.000143272,0.0159241,-0.0062218436688645795,0.014420181992246484,-3.6614729664430357e-05,0.0168198878943826,-0.00014326173705714318,-0.009138527506744154
189,0.019,42.4113,637.172,-0.000251576,164.494,-0.544092,-2.04008,-0.00627622,0.0167671,-0.00923208,0.0143937,-3.69012e-05,-0.000144386,0.0160222,-0.0062565656710499296,0.014497788104564702,-3.6900519159055456e-05,0.016908456763736535,-0.00014437557684321423,-0.009189595191010924
190,0.0191,42.4404,637.735,-0.000254664,164.623,-0.545651,-2.0458,-0.00631115,0.0168543,-0.00928362,0.0144703,-3.71874e-05,-0.000145501,0.0161203,-0.0062912765229824474,0.01457550161152299,-3.718670855723527e-05,0.016997135047483347,-0.0001454904152429215,-0.009240660243317156
191,0.0192,42.4694,638.295,-0.000257771,164.753,-0.547202,-2.05149,-0.00634609,0.0169415,-0.00933516,0.0145468,-3.74741e-05,-0.000146617,0.0162184,-0.006325996099226239,0.014653119606246712,-3.7473397854648205e-05,0.017085821064313667,-0.00014660625225293433,-0.009291722663798296
192,0.0193,42.4983,638.853,-0.000260898,164.881,-0.548746,-2.05715,-0.00638102,0.0170287,-0.00938669,0.0146234,-3.77612e-05,-0.000147735,0.0163165,-0.006360704525996241,0.014730845012053573,-3.77604870548387e-05,0.01717451481490162,-0.0001477240877222341,-0.009342772546017897
193,0.0194,42.527,639.408,-0.000264045,165.009,-0.550281,-2.06278,-0.00641595,0.0171158,-0.00943823,0.0146999,-3.80488e-05,-0.000148855,0.0164146,-0.00639541174042213,0.01480847489100201,-3.804807615359618e-05,0.01726311457360552,-0.0001488439216441595,-0.009393829703766676
194,0.0195,42.5555,639.961,-0.000267211,165.136,-0.551808,-2.06838,-0.00645089,0.0172029,-0.00948976,0.0147764,-3.83367e-05,-0.000149977,0.0165127,-0.006430127678244912,0.014886110708863365,-3.8335965158120544e-05,0.01735172204968438,-0.00014996575401193812,-0.009444874324546104
195,0.0196,42.584,640.512,-0.000270396,165.263,-0.553328,-2.07395,-0.00648582,0.0172901,-0.00954129,0.0148529,-3.86251e-05,-0.0001511,0.0166108,-0.006464832467762527,0.01496375246609194,-3.862435406043474e-05,0.017440438987849527,-0.00015108858496992728,-0.009495916315063968
196,0.0197,42.6123,641.06,-0.000273601,165.389,-0.55484,-2.0795,-0.00652075,0.0173772,-0.00959282,0.0149294,-3.89139e-05,-0.000152225,0.0167089,-0.006499536045062926,0.015041400163142038,-3.891314286397218e-05,0.01752906190955761,-0.00015221341436255642,-0.009546955675455826
197,0.0198,42.6404,641.606,-0.000276825,165.515,-0.556345,-2.08501,-0.00655568,0.0174643,-0.00964435,0.0150058,-3.92031e-05,-0.000153351,0.0168071,-0.00653423841018852,0.015118952288567966,-3.920233156851083e-05,0.01761769255065837,-0.00015333924233640328,-0.009597992405857236
198,0.0199,42.6684,642.15,-0.000280068,165.64,-0.557842,-2.0905,-0.00659061,0.0175515,-0.00969588,0.0150823,-3.94928e-05,-0.000154479,0.0169052,-0.006568939563181608,0.015196611858858677,-3.949202016961806e-05,0.017706432682462303,-0.00015446706873367688,-0.009649026506403646
199,0.02,42.6963,642.691,-0.000283329,165.764,-0.559331,-2.09596,-0.00662555,0.0176386,-0.0097474,0.0151588,-3.97828e-05,-0.000155608,0.0170033,-0.0066036494380482536,0.015274277370333822,-3.978200867493786e-05,0.017795078773230166,-0.0001555958937031754,-0.009700048074231082
200,0.0201,42.7241,643.23,-0.000286609,165.888,-0.560813,-2.10139,-0.00666048,0.0177257,-0.00979892,0.0152352,-4.00733e-05,-0.000156739,0.0171014,-0.006638348166556618,0.015351847288258114,-4.0072497076049096e-05,0.01788373258540865,-0.00015672671708466535,-0.009751067013495152
201,0.0202,42.7517,643.766,-0.000289907,166.011,-0.562288,-2.1068,-0.00669541,0.0178128,-0.00985045,0.0153116,-4.03642e-05,-0.000157872,0.0171995,-0.006673045683059486,0.01542942313275053,-4.036338537660722e-05,0.017972394119670554,-0.00015785953887159643,-0.009802093226310316
202,0.0203,42.7792,644.301,-0.000293224,166.134,-0.563755,-2.11218,-0.00673034,0.0178998,-0.00990197,0.0153881,-4.06554e-05,-0.000159006,0.0172976,-0.006707741987599269,0.015507106454969222,-4.065457358037872e-05,0.01806096157058734,-0.00015899335921598645,-0.009853106908343623
203,0.0204,42.8066,644.833,-0.000296558,166.256,-0.565215,-2.11753,-0.00676526,0.0179869,-0.00995348,0.0154645,-4.09471e-05,-0.000160141,0.0173958,-0.006742427147642616,0.01558469416171504,-4.094626167894244e-05,0.018149638542166224,-0.00016012817811450475,-0.009904108061260741
204,0.0205,42.8338,645.363,-0.000299911,166.378,-0.566668,-2.12285,-0.00680019,0.018074,-0.010005,0.0155409,-4.12392e-05,-0.000161279,0.0174939,-0.006777121028730182,0.01566228779638812,-4.1238349675842834e-05,0.018238323237845577,-0.0001612659952412443,-0.009955116487625038
205,0.0206,42.861,645.89,-0.000303281,166.499,-0.568114,-2.12815,-0.00683512,0.018161,-0.0100565,0.0156173,-4.15316e-05,-0.000162417,0.017592,-0.006811813697981672,0.01573988735944143,-4.153073757506842e-05,0.01832691382560192,-0.00016240381107313073,-0.010006102486225243
206,0.0207,42.888,646.416,-0.000306669,166.62,-0.569553,-2.13343,-0.00687005,0.0182481,-0.010108,0.0156937,-4.18245e-05,-0.000163557,0.0176902,-0.006846505155439386,0.01581749285132772,-4.182362536775397e-05,0.018415613962631028,-0.0001635436252830358,-0.010057085859114134
207,0.0208,42.9149,646.939,-0.000310074,166.74,-0.570985,-2.13867,-0.00690498,0.0183352,-0.0101595,0.01577,-4.21177e-05,-0.000164699,0.0177883,-0.006881195401145623,0.015895002682994708,-4.211681306209858e-05,0.018504321825778547,-0.00016468543786429812,-0.010108066606426824
208,0.0209,42.9416,647.461,-0.000313497,166.86,-0.57241,-2.14389,-0.0069399,0.0184222,-0.010211,0.0158464,-4.24113e-05,-0.000165842,0.0178864,-0.0069158745043015335,0.015972620026144524,-4.241040065355861e-05,0.01859293555641872,-0.00016582824897570791,-0.01015904472829865
209,0.021,42.9683,647.98,-0.000316937,166.979,-0.573829,-2.14909,-0.00697483,0.0185092,-0.0102626,0.0159228,-4.27053e-05,-0.000166986,0.0179845,-0.006950562326978771,0.01605024329948579,-4.2704388141689975e-05,0.018681556996789084,-0.0001669720586139345,-0.010210119203857948
210,0.0211,42.9948,648.497,-0.000320395,167.098,-0.57524,-2.15426,-0.00700975,0.0185962,-0.0103141,0.0159991,-4.29997e-05,-0.000168132,0.0180827,-0.006985239007883948,0.016127770890689508,-4.2998775526159605e-05,0.018770186147559764,-0.00016811786660742012,-0.010261092070156352
211,0.0212,43.0212,649.012,-0.000323869,167.216,-0.576645,-2.15941,-0.00704468,0.0186833,-0.0103656,0.0160754,-4.32945e-05,-0.00016928,0.0181808,-0.007019924407701383,0.01620530439747414,-4.3293562806634434e-05,0.01885892489528973,-0.0001692656729492814,-0.01031206231141979
212,0.0213,43.0475,649.525,-0.00032736,167.333,-0.578043,-2.16453,-0.0070796,0.0187703,-0.0104171,0.0161518,-4.35896e-05,-0.000170428,0.0182789,-0.007054598666525025,0.016282945448580444,-4.358864998721401e-05,0.018947569477739012,-0.000170413477973419,-0.010363029927783374
213,0.0214,43.0736,650.035,-0.000330868,167.451,-0.579435,-2.16963,-0.00711452,0.0188573,-0.0104686,0.0162281,-4.38852e-05,-0.000171579,0.0183771,-0.007089271714544543,0.016360490795635618,-4.388423705870004e-05,0.019036221772602557,-0.00017156428116515965,-0.010413994919382219
214,0.0215,43.0997,650.544,-0.000334392,167.567,-0.580819,-2.1747,-0.00714944,0.0189443,-0.0105201,0.0163044,-4.4181e-05,-0.00017273,0.0184752,-0.0071239435518025696,0.0164380420596264,-4.4180024033946275e-05,0.01912488178055116,-0.00017271508303240424,-0.010464957286351662
215,0.0216,43.1256,651.051,-0.000337933,167.683,-0.582198,-2.17975,-0.00718437,0.0190313,-0.0105716,0.0163807,-4.44773e-05,-0.000173883,0.0185733,-0.0071586241067548295,0.01651559924100443,-4.447631089954385e-05,0.019213549502256067,-0.00017386788322737434,-0.010515917028826816
216,0.0217,43.1514,651.556,-0.000341491,167.799,-0.58357,-2.18477,-0.00721929,0.0191182,-0.010623,0.016457,-4.47739e-05,-0.000175038,0.0186715,-0.007193293522269495,0.016593162340221124,-4.47728976639139e-05,0.019302123008170913,-0.00017502268174307556,-0.010566775203625256
217,0.0218,43.1772,652.059,-0.000345064,167.914,-0.584936,-2.18977,-0.00725421,0.0192052,-0.0106745,0.0165332,-4.50709e-05,-0.000176194,0.0187696,-0.007227961727149346,0.01667062969066002,-4.5069884322290754e-05,0.019390806150533235,-0.00017617847874873416,-0.010617729702612655
218,0.0219,43.2028,652.56,-0.000348654,168.029,-0.586295,-2.19475,-0.00728913,0.0192922,-0.010726,0.0166095,-4.53683e-05,-0.000177351,0.0188677,-0.00726262872143657,0.016748204619151164,-4.5367270874230314e-05,0.019479497008664692,-0.00017733527424101947,-0.010668681577510886
219,0.022,43.2282,653.059,-0.00035226,168.143,-0.587648,-2.1997,-0.00732405,0.0193791,-0.0107775,0.0166857,-4.5666e-05,-0.000178509,0.0189659,-0.007297294505173468,0.01682568378426197,-4.566495732405418e-05,0.0195680936264222,-0.0001784930682164898,-0.010719630828455173
220,0.0221,43.2536,653.555,-0.000355881,168.257,-0.588995,-2.20464,-0.00735896,0.0194661,-0.010829,0.016762,-4.5964e-05,-0.000179669,0.019064,-0.007331949151721973,0.016903270543831894,-4.59629436715403e-05,0.019656799909234968,-0.00017965286049181906,-0.010770577455580632
221,0.0222,43.2789,654.051,-0.000359519,168.371,-0.590335,-2.20954,-0.00739388,0.019553,-0.0108805,0.0168382,-4.62624e-05,-0.00018083,0.0191621,-0.007366612514831727,0.016980761525416277,-4.6261329911700955e-05,0.019745411935283785,-0.00018081365124100746,-0.010821521459022265
222,0.0223,43.3041,654.544,-0.000363349,168.484,-0.59167,-2.21443,-0.0074288,0.0196399,-0.010932,0.0169144,-4.65612e-05,-0.000181993,0.0192603,-0.007401274667518054,0.01705825841203845,-4.656011604420307e-05,0.019834031662052443,-0.00018197644027861948,-0.010872462838915409
223,0.0224,43.3291,655.035,-0.000366816,168.596,-0.592998,-2.21929,-0.00746371,0.0197269,-0.0109834,0.0169906,-4.68603e-05,-0.000183157,0.0193584,-0.007435925684182387,0.01713576120414828,-4.685920207325722e-05,0.01992276108248081,-0.00018314022778065375,-0.010923302687730119
224,0.0225,43.3541,655.524,-0.000370537,168.708,-0.59432,-2.22413,-0.00749863,0.0198138,-0.0110349,0.0170668,-4.71598e-05,-0.000184322,0.0194565,-0.007470585416495035,0.01721326990219585,-4.7158687994097725e-05,0.020011396221559785,-0.0001843050137437796,-0.010974238826024885
225,0.0226,43.3789,656.012,-0.000374223,168.82,-0.595637,-2.22895,-0.00753354,0.0199007,-0.0110864,0.017143,-4.74596e-05,-0.000185489,0.0195547,-0.0075052340135634,0.01729078450663124,-4.7458473811046176e-05,0.020100039063367214,-0.0001854717979790088,-0.01102517234117606
226,0.0227,43.4037,656.498,-0.000377941,168.931,-0.596947,-2.23375,-0.00756845,0.0199876,-0.0111379,0.0172192,-4.77598e-05,-0.000186656,0.0196528,-0.007539881401070314,0.01736830501790476,-4.77586595188928e-05,0.02018868960857234,-0.0001866385808526605,-0.011076103233318757
227,0.0228,43.4283,656.982,-0.00038167,169.041,-0.598252,-2.23852,-0.00760336,0.0200745,-0.0111893,0.0172954,-4.80603e-05,-0.000187825,0.0197509,-0.007574527579057966,0.017445831436466053,-4.805914512229226e-05,0.020277347857844408,-0.00018780736198897863,-0.0111269326152863
228,0.0229,43.4528,657.464,-0.000385416,169.152,-0.599551,-2.24328,-0.00763827,0.0201614,-0.0112408,0.0173715,-4.83611e-05,-0.000188996,0.019849,-0.0076091725475687655,0.017523262010434415,-4.835993062080046e-05,0.0203660138118531,-0.00018897814138107982,-0.011177858266909868
229,0.023,43.4773,657.944,-0.000389176,169.262,-0.600844,-2.24801,-0.00767318,0.0202483,-0.0112923,0.0174477,-4.86623e-05,-0.000190168,0.0199472,-0.007643816306644791,0.01760080023716859,-4.8661116009429684e-05,0.020454687471268107,-0.00019014991921206814,-0.011228781295929857
230,0.0231,43.5016,658.423,-0.000392951,169.371,-0.602131,-2.25272,-0.00770809,0.0203351,-0.0113437,0.0175238,-4.89638e-05,-0.00019134,0.0200453,-0.007678458856328341,0.01767824260471129,-4.896260129272356e-05,0.020543266782427017,-0.00019132169566971058,-0.0112796028304466
231,0.0232,43.5258,658.9,-0.000396741,169.48,-0.603412,-2.25741,-0.007743,0.020422,-0.0113952,0.0176,-4.92656e-05,-0.000192515,0.0201434,-0.007713100196661493,0.01775579264141669,-4.926438647023801e-05,0.02063195584579436,-0.0001924964701764953,-0.011330520619756479
232,0.0233,43.55,659.375,-0.000400546,169.589,-0.604688,-2.26208,-0.00777791,0.0205089,-0.0114466,0.0176761,-4.95678e-05,-0.00019369,0.0202416,-0.0077477403276866585,0.017833246804330072,-4.956657153687427e-05,0.020720652616576407,-0.00019367124330293972,-0.011381336925006424
233,0.0234,43.574,659.848,-0.000404366,169.697,-0.605959,-2.26672,-0.00781281,0.0205957,-0.0114981,0.0177522,-4.98703e-05,-0.000194867,0.0203397,-0.0077823693272697225,0.017910706861729686,-4.986905649728701e-05,0.020809255014511807,-0.00019484801465941004,-0.011432249475145317
234,0.0235,43.5979,660.319,-0.000408199,169.804,-0.607223,-2.27135,-0.00784772,0.0206826,-0.0115495,0.0178283,-5.01731e-05,-0.000196045,0.0204378,-0.007817007040151647,0.017988172814064063,-5.017184135103214e-05,0.02089796719326098,-0.00019602578443467245,-0.01148306055166648
235,0.0236,43.6218,660.789,-0.000412048,169.912,-0.608482,-2.27596,-0.00788262,0.0207694,-0.011601,0.0179044,-5.04762e-05,-0.000197224,0.0205359,-0.007851633622368626,0.018065644661781732,-5.047492609799864e-05,0.02098658498276973,-0.00019720455262539627,-0.011533967863173511
236,0.0237,43.6455,661.257,-0.000415911,170.019,-0.609736,-2.28054,-0.00791753,0.0208562,-0.0116524,0.0179805,-5.07797e-05,-0.000198404,0.0206341,-0.007886268917276285,0.018143122405331225,-5.077841073286571e-05,0.021075210464636562,-0.0001983843192280288,-0.011584773711503904
237,0.0238,43.6692,661.724,-0.000419788,170.125,-0.610984,-2.28511,-0.00795243,0.020943,-0.0117039,0.0180565,-5.10835e-05,-0.000199586,0.0207322,-0.007920893082295821,0.018220504223105838,-5.108219526017699e-05,0.021163843639528945,-0.0001995660840392599,-0.011635675784918087
238,0.0239,43.6927,662.189,-0.000423679,170.231,-0.612227,-2.28966,-0.00798733,0.0210298,-0.0117553,0.0181326,-5.13876e-05,-0.000200768,0.0208303,-0.00795551603895317,0.01829799375191632,-5.138627967993248e-05,0.02125248450811501,-0.00020074784745371943,-0.011686476405595614
239,0.024,43.7162,662.652,-0.000427584,170.337,-0.613465,-2.29418,-0.00802223,0.0211167,-0.0118068,0.0182086,-5.1692e-05,-0.000201952,0.0209284,-0.007990137787290408,0.018375387340360483,-5.169066399157707e-05,0.02134123520518072,-0.0002019316090675627,-0.011737373241455962
240,0.0241,43.7396,663.113,-0.000431503,170.442,-0.614697,-2.29869,-0.00805713,0.0212035,-0.0118582,0.0182847,-5.19967e-05,-0.000203137,0.0210265,-0.008024758327349613,0.018452888656224742,-5.1995348194999735e-05,0.02142989147202279,-0.0002031163690766613,-0.011788168635018526
241,0.0242,43.7628,663.573,-0.000435437,170.547,-0.615924,-2.30318,-0.00809203,0.0212902,-0.0119096,0.0183607,-5.23017e-05,-0.000204324,0.0211246,-0.008059377659173195,0.018530294017129245,-5.2300332289978435e-05,0.021518453282712402,-0.00020430312727315325,-0.01183896141776497
242,0.0243,43.786,664.032,-0.000439384,170.652,-0.617145,-2.30764,-0.00812692,0.021377,-0.0119611,0.0184367,-5.26071e-05,-0.000205511,0.0212227,-0.008093985863742992,0.018607705261064478,-5.260571627074828e-05,0.02160712493275141,-0.00020548988406099422,-0.011889850400849444
243,0.0244,43.8091,664.488,-0.000443344,170.756,-0.618362,-2.31209,-0.00816182,0.0214638,-0.0120125,0.0185127,-5.29127e-05,-0.0002067,0.0213209,-0.008128602779567617,0.01868512238847786,-5.2911300147728824e-05,0.021695804279823427,-0.00020667863902679162,-0.011940637957287503
244,0.0245,43.8321,664.943,-0.000447319,170.86,-0.619573,-2.31652,-0.00819671,0.0215506,-0.0120639,0.0185887,-5.32187e-05,-0.000207889,0.021419,-0.00816320856891517,0.018762545399816588,-5.321728391005642e-05,0.021784491324597033,-0.0002078673925791641,-0.011991422903312121
245,0.0246,43.855,665.397,-0.000451307,170.963,-0.620779,-2.32093,-0.00823161,0.0216373,-0.0121154,0.0186647,-5.35249e-05,-0.00020908,0.0215171,-0.008197823068909593,0.01883997429552764,-5.352346756815063e-05,0.021873083880426636,-0.0002090581443000561,-0.012042304034832307
246,0.0247,43.8778,665.849,-0.000455309,171.066,-0.62198,-2.32532,-0.0082665,0.0217241,-0.0121668,0.0187407,-5.38315e-05,-0.000210272,0.0216152,-0.008232426443203322,0.018917409076058656,-5.3830051110814736e-05,0.021961786313737353,-0.00021024989439244468,-0.012093083755354894
247,0.0248,43.9006,666.299,-0.000459324,171.169,-0.623177,-2.3297,-0.00830139,0.0218108,-0.0122182,0.0188166,-5.41383e-05,-0.000211466,0.0217133,-0.00826702861020645,0.018994747842376425,-5.413683454869034e-05,0.02205039424170896,-0.0002114436426413624,-0.01214386086586694
248,0.0249,43.9232,666.748,-0.000463352,171.271,-0.624368,-2.33405,-0.00833628,0.0218976,-0.0122696,0.0188926,-5.44455e-05,-0.00021266,0.0218114,-0.008301629569960944,0.019072194386143826,-5.444401787069175e-05,0.022139112066227096,-0.0002126373894649758,-0.01219463536650256
249,0.025,43.9458,667.195,-0.000467394,171.373,-0.625554,-2.33839,-0.00837117,0.0219843,-0.012321,0.0189685,-5.47529e-05,-0.000213855,0.0219095,-0.008336229322509103,0.01914954490111276,-5.475140108734955e-05,0.022227735369007906,-0.00021383213464942763,-0.01224540725739598
250,0.0251,43.9682,667.641,-0.000471449,171.474,-0.626735,-2.3427,-0.00840606,0.022071,-0.0123724,0.0190445,-5.50607e-05,-0.000215052,0.0220076,-0.008370827867892894,0.01922700320990378,-5.5059184187467025e-05,0.022316366355762174,-0.00021502887797619774,-0.012296176538681203
251,0.0252,43.9906,668.085,-0.000475518,171.576,-0.627911,-2.347,-0.00844094,0.0221577,-0.0124238,0.0191204,-5.53687e-05,-0.000216249,0.0221057,-0.008405415290208662,0.019304365475308227,-5.5367167181796795e-05,0.022405005027156033,-0.00021622561987033606,-0.012346943210492456
252,0.0253,44.0129,668.528,-0.000479599,171.676,-0.629083,-2.35128,-0.00847583,0.0222444,-0.0124753,0.0191963,-5.5677e-05,-0.000217448,0.0222038,-0.008440011421736227,0.019381733612731322,-5.567545006457397e-05,0.02249365138385584,-0.0002174243598971337,-0.012397806033188186
253,0.0254,44.0351,668.969,-0.000483693,171.777,-0.630249,-2.35555,-0.00851071,0.0223311,-0.0125267,0.0192722,-5.59856e-05,-0.000218648,0.0223019,-0.008474596430971704,0.019459107622619154,-5.5984032835576514e-05,0.02258230542652817,-0.00021862409826811646,-0.012448567481377681
254,0.0255,44.0573,669.409,-0.000487801,171.877,-0.631411,-2.35979,-0.00854559,0.0224178,-0.0125781,0.0193481,-5.62945e-05,-0.000219849,0.0224,-0.008509180233903235,0.019536487505417144,-5.629291549436033e-05,0.02267096715583894,-0.00021982483497950955,-0.012499326320495885
255,0.0256,44.0793,669.847,-0.000491921,171.977,-0.632568,-2.36402,-0.00858048,0.0225045,-0.0126294,0.019424,-5.66037e-05,-0.000221051,0.022498,-0.008543772745134959,0.019613873261571158,-5.66020980408144e-05,0.022759636572455166,-0.0002210265700278713,-0.012549983805679954
256,0.0257,44.1013,670.284,-0.000496054,172.076,-0.63372,-2.36823,-0.00861536,0.0225912,-0.0126808,0.0194999,-5.69132e-05,-0.000222254,0.0225961,-0.008578354135238664,0.01969126489152684,-5.691158047460565e-05,0.022848313677042764,-0.00022222930340942693,-0.012600737432132969
257,0.0258,44.1232,670.719,-0.0005002,172.175,-0.634868,-2.37243,-0.00865024,0.0226778,-0.0127322,0.0195757,-5.72229e-05,-0.000223458,0.0226942,-0.008612934319164545,0.019768560418869097,-5.7221262801054884e-05,0.02293689617657413,-0.00022343303512073476,-0.012651488449916704
258,0.0259,44.145,671.153,-0.000504358,172.274,-0.636011,-2.3766,-0.00868511,0.0227645,-0.0127836,0.0196516,-5.75329e-05,-0.000224663,0.0227923,-0.008647503383429678,0.019845963790025678,-5.7531245014397214e-05,0.02302558865023574,-0.00022463776515802003,-0.01270223685916505
259,0.026,44.1667,671.586,-0.000508529,172.372,-0.637149,-2.38076,-0.00871999,0.0228512,-0.012835,0.0197274,-5.78432e-05,-0.000225869,0.0228904,-0.008682081155471755,0.01992327104398872,-5.7841527114410596e-05,0.023114288813868233,-0.00022584349351784105,-0.012752982660012235
260,0.0261,44.1883,672.017,-0.000512713,172.47,-0.638282,-2.3849,-0.00875487,0.0229378,-0.0128864,0.0198033,-5.81538e-05,-0.000227076,0.0229884,-0.00871665772146224,0.020000686158127445,-5.815210910053992e-05,0.02320289434784395,-0.00022705022019642307,-0.012803725852592263
261,0.0262,44.2099,672.446,-0.000516909,172.568,-0.639412,-2.38903,-0.00878974,0.0230244,-0.0129378,0.0198791,-5.84646e-05,-0.000228285,0.0230865,-0.008751223168955491,0.02007800514049074,-5.8462890978550064e-05,0.023291507555390778,-0.00022825894496203425,-0.012854466437039247
262,0.0263,44.2314,672.875,-0.000521117,172.665,-0.640536,-2.39313,-0.00882461,0.0231111,-0.0129891,0.0199549,-5.87758e-05,-0.000229494,0.0231846,-0.00878578741117253,0.02015532998385483,-5.8774072736467176e-05,0.023380230775192024,-0.00022946766826636988,-0.012905105704002717
263,0.0264,44.2528,673.302,-0.000525338,172.762,-0.641656,-2.39723,-0.00885948,0.0231977,-0.0130405,0.0200307,-5.90871e-05,-0.000230704,0.0232826,-0.008820350448155434,0.02023266068866425,-5.908535439169693e-05,0.023468859340738613,-0.00023067738987858633,-0.012955841077659236
264,0.0265,44.2741,673.727,-0.000529571,172.859,-0.642772,-2.4013,-0.00889435,0.0232843,-0.0130919,0.0201065,-5.93988e-05,-0.000231916,0.0233807,-0.008854912279946281,0.02030999725536331,-5.939703592616752e-05,0.023557495581851384,-0.000231889109563288,-0.013006573843584612
265,0.0266,44.2953,674.151,-0.000533817,172.955,-0.643883,-2.40536,-0.00892922,0.0233709,-0.0131433,0.0201823,-5.97107e-05,-0.000233128,0.0234788,-0.008889472906587037,0.02038733968439632,-5.970891735163075e-05,0.023646139499194918,-0.00023310082777938668,-0.01305730400191285
266,0.0267,44.3165,674.574,-0.000538074,173.051,-0.64499,-2.4094,-0.00896409,0.0234575,-0.0131946,0.0202581,-6.00229e-05,-0.000234341,0.0235768,-0.00892403232811978,0.020464687976207596,-6.0021098661766636e-05,0.023734791093434238,-0.000234313544292597,-0.013107932863576144
267,0.0268,44.3376,674.995,-0.000542344,173.147,-0.646092,-2.41343,-0.00899896,0.0235441,-0.013246,0.0203338,-6.03354e-05,-0.000235556,0.0236749,-0.008958590544586476,0.020541940077042575,-6.0333579856353126e-05,0.023823450365233922,-0.0002355282588636376,-0.013158657812184615
268,0.0269,44.3586,675.415,-0.000546626,173.242,-0.64719,-2.41744,-0.00903382,0.0236307,-0.0132973,0.0204096,-6.06481e-05,-0.000236771,0.0237729,-0.008993137645960547,0.02061930008800772,-6.0646260941155106e-05,0.023912117315258996,-0.00023674297195885874,-0.01320928147453082
269,0.027,44.3795,675.834,-0.000550919,173.337,-0.648284,-2.42143,-0.00906869,0.0237173,-0.0133487,0.0204853,-6.09611e-05,-0.000237987,0.023871,-0.009027693452766883,0.02069656389342267,-6.095924190985258e-05,0.024000791944174704,-0.00023795868334031134,-0.013260001213954542
270,0.0271,44.4004,676.252,-0.000555225,173.432,-0.649373,-2.42541,-0.00910355,0.0238038,-0.0134001,0.0205611,-6.12743e-05,-0.000239204,0.023969,-0.009062238145255641,0.020773935625317375,-6.127242276843248e-05,0.02408937184370319,-0.00023917539300422064,-0.0133107183464507
271,0.0272,44.4212,676.668,-0.000559543,173.527,-0.650458,-2.42937,-0.00913841,0.0238904,-0.0134514,0.0206368,-6.15878e-05,-0.000240423,0.0240671,-0.009096781633537443,0.020851211137085324,-6.158590351035276e-05,0.024178061823525665,-0.00024039410070664236,-0.013361334208291553
272,0.0273,44.4419,677.082,-0.000563872,173.621,-0.651539,-2.43331,-0.00917327,0.023977,-0.0135028,0.0207125,-6.19015e-05,-0.000241642,0.0241651,-0.009131323917654144,0.02092849249883111,-6.189958414171137e-05,0.024266759484232736,-0.00024161280692336362,-0.013412046132405653
273,0.0274,44.4626,677.496,-0.000568213,173.714,-0.652616,-2.43724,-0.00920813,0.0240635,-0.0135541,0.0207882,-6.22155e-05,-0.000242862,0.0242631,-0.009165864997647821,0.021005779710997263,-6.221356465596628e-05,0.02435536239094871,-0.00024283251141177242,-0.01346265679626435
274,0.0275,44.4831,677.908,-0.000572566,173.808,-0.653688,-2.44116,-0.00924298,0.0241501,-0.0136054,0.0208639,-6.25298e-05,-0.000244083,0.0243612,-0.009200394965564462,0.02108307277402699,-6.252784505278441e-05,0.024444075406549803,-0.00024405321416798298,-0.013513264863862728
275,0.0276,44.5036,678.319,-0.00057693,173.901,-0.654756,-2.44506,-0.00927784,0.0242366,-0.0136568,0.0209396,-6.28443e-05,-0.000245305,0.0244592,-0.009234933637783493,0.021160371688363044,-6.284232533837475e-05,0.024532693651756254,-0.0002452749151885536,-0.013563968978941854
276,0.0277,44.524,678.729,-0.000581306,173.994,-0.655821,-2.44894,-0.00931269,0.0243231,-0.0137081,0.0210153,-6.31591e-05,-0.000246528,0.0245572,-0.009269461198699869,0.021237676454448184,-6.315710550608422e-05,0.024621319562772692,-0.0002464976144695985,-0.013614571849358437
277,0.0278,44.5444,679.137,-0.000585694,174.087,-0.656881,-2.45281,-0.00934754,0.0244096,-0.0137594,0.0210909,-6.34741e-05,-0.000247752,0.0246552,-0.009303987556351867,0.021314884941232126,-6.347208556189976e-05,0.024709953140261698,-0.000247721312007676,-0.013665172123914493
278,0.0279,44.5647,679.544,-0.000590093,174.179,-0.657937,-2.45667,-0.00938239,0.0244961,-0.0138108,0.0211666,-6.37893e-05,-0.000248977,0.0247533,-0.009338512710781233,0.021392201404413447,-6.378726550582137e-05,0.024798594384886963,-0.0002489460077989003,-0.013715868431161016
279,0.028,44.5849,679.95,-0.000594503,174.271,-0.658989,-2.46051,-0.00941724,0.0245826,-0.0138621,0.0212422,-6.41048e-05,-0.000250203,0.0248513,-0.009373036662029932,0.021469421573725223,-6.410274533119598e-05,0.024887243297311512,-0.0002501717018397187,-0.013766463509335636
280,0.0281,44.605,680.355,-0.000598925,174.362,-0.660037,-2.46433,-0.00945209,0.0246691,-0.0139134,0.0213179,-6.44206e-05,-0.000251429,0.0249493,-0.00940755941013982,0.02154674973577242,-6.441852503769052e-05,0.02497589987819837,-0.00025139739437785025,-0.013817055992049299
281,0.0282,44.6251,680.758,-0.000603358,174.454,-0.66108,-2.46814,-0.00948694,0.0247556,-0.0139647,0.0213935,-6.47366e-05,-0.000252657,0.0250473,-0.009442080955152976,0.021623981589379726,-6.473450463151398e-05,0.025064564128211453,-0.0002526250849080869,-0.01386764587943523
282,0.0283,44.6451,681.16,-0.000607803,174.545,-0.66212,-2.47193,-0.00952178,0.0248421,-0.0140161,0.0214691,-6.50528e-05,-0.000253886,0.0251453,-0.009476591391877176,0.021701219281935913,-6.50506841124443e-05,0.025153236048013783,-0.0002538537736768154,-0.013918331779798288
283,0.0284,44.665,681.561,-0.000612258,174.636,-0.663156,-2.47571,-0.00955663,0.0249286,-0.0140674,0.0215447,-6.53692e-05,-0.000255115,0.0252433,-0.00951111053116771,0.021778462813882404,-6.536706348037047e-05,0.02524191563826883,-0.00025508246093552955,-0.013968916471869486
284,0.0285,44.6849,681.961,-0.000616725,174.726,-0.664189,-2.47948,-0.00959147,0.025015,-0.0141187,0.0216203,-6.56859e-05,-0.000256345,0.0253413,-0.009545618562943448,0.021855712185660403,-6.56837427285284e-05,0.02533050036658513,-0.0002563121464278506,-0.014019498569012634
285,0.0286,44.7047,682.36,-0.000621203,174.816,-0.665217,-2.48323,-0.00962631,0.0251015,-0.01417,0.0216959,-6.60029e-05,-0.000257577,0.0254393,-0.00958012539248021,0.021932967397712,-6.600072185647399e-05,0.025419195290867114,-0.0002575438298925148,-0.014070078071360737
286,0.0287,44.7244,682.757,-0.000625692,174.906,-0.666241,-2.48697,-0.00966115,0.0251879,-0.0142213,0.0217715,-6.63201e-05,-0.000258809,0.0255373,-0.009614631019819964,0.022010228450478175,-6.631790087074929e-05,0.025507795336807026,-0.00025877551183983716,-0.014120654979046798
287,0.0288,44.7441,683.153,-0.000630192,174.996,-0.667261,-2.49069,-0.00969599,0.0252744,-0.0142726,0.021847,-6.66375e-05,-0.000260042,0.0256353,-0.009649135445004675,0.02208739313565644,-6.663527977113226e-05,0.02559650559776716,-0.0002600081920096642,-0.014171229292204157
288,0.0289,44.7637,683.548,-0.000634703,175.085,-0.668278,-2.4944,-0.00973082,0.0253608,-0.0143239,0.0219226,-6.69551e-05,-0.000261275,0.0257333,-0.009683628764912466,0.022164665863449784,-6.695285855728983e-05,0.025685120963979458,-0.0002612408706595959,-0.014221801010965818
289,0.029,44.7832,683.942,-0.000639225,175.174,-0.669291,-2.49809,-0.00976566,0.0254473,-0.0143752,0.0219981,-6.7273e-05,-0.00026251,0.0258312,-0.009718130786257606,0.022241842209092866,-6.727073722245791e-05,0.025773846564269842,-0.0002624755472647733,-0.014272370135464785
290,0.0291,44.8027,684.335,-0.000643758,175.263,-0.6703,-2.50177,-0.00980049,0.0255337,-0.0144265,0.0220737,-6.75911e-05,-0.000263746,0.0259292,-0.00975262170309954,0.02231912661367752,-6.758881577306752e-05,0.025862477253403515,-0.0002637112220813531,-0.014322936665834285
291,0.0292,44.8221,684.726,-0.000648301,175.352,-0.671305,-2.50544,-0.00983532,0.0256201,-0.0144778,0.0221492,-6.79094e-05,-0.000264982,0.0260272,-0.009787111418643746,0.022396314621547564,-6.790709420889662e-05,0.02595111560055985,-0.0002649468953705991,-0.014373500602207323
292,0.0293,44.8414,685.117,-0.000652855,175.44,-0.672307,-2.50909,-0.00987015,0.0257065,-0.014529,0.0222247,-6.8228e-05,-0.000266219,0.0261251,-0.009821599932932079,0.022473508457332203,-6.822567252295908e-05,0.02603976160639987,-0.0002661835668663626,-0.014423963387118155
293,0.0294,44.8607,685.506,-0.000657421,175.528,-0.673304,-2.51273,-0.00990498,0.0257929,-0.0145803,0.0223002,-6.85468e-05,-0.000267458,0.0262231,-0.009856087246006395,0.022550708121471308,-6.854445072179693e-05,0.026128415271585936,-0.00026742223629760975,-0.014474522140953239
294,0.0295,44.8799,685.894,-0.000661996,175.616,-0.674299,-2.51635,-0.00993981,0.0258793,-0.0146316,0.0223757,-6.88658e-05,-0.000268697,0.0263211,-0.009890573357908439,0.022627913614405193,-6.886342880518814e-05,0.02621707659677952,-0.0002686609041940846,-0.014525078301190764
295,0.0296,44.899,686.281,-0.000666583,175.703,-0.675289,-2.51996,-0.00997463,0.0259657,-0.0146829,0.0224512,-6.9185e-05,-0.000269936,0.026419,-0.009925048367930733,0.02270512493657373,-6.91826067731327e-05,0.026305745582642537,-0.0002698995705558982,-0.014575631867963845
296,0.0297,44.9181,686.667,-0.00067118,175.79,-0.676276,-2.52356,-0.0100095,0.026052,-0.0147341,0.0225267,-6.95044e-05,-0.000271177,0.026517,-0.009959571679576729,0.02278234208841723,-6.950198462518653e-05,0.02639431959039973,-0.00027114023484065,-0.014626084304018905
297,0.0298,44.9371,687.052,-0.000675787,175.877,-0.677259,-2.52715,-0.0100443,0.0261384,-0.0147854,0.0226021,-6.98241e-05,-0.000272418,0.0266149,-0.00999402448699993,0.022859462784424522,-6.982166235425247e-05,0.026483003890718892,-0.0002723808975858555,-0.014676632689316849
298,0.0299,44.956,687.435,-0.000680405,175.964,-0.678239,-2.53072,-0.0100791,0.0262248,-0.0148367,0.0226776,-7.0144e-05,-0.000273661,0.0267129,-0.010028476095486294,0.022936691589215297,-7.014153996720562e-05,0.02657169585369279,-0.0002736235582441182,-0.014727178481549252
299,0.03,44.9749,687.818,-0.000685033,176.05,-0.679215,-2.53428,-0.0101139,0.0263111,-0.0148879,0.022753,-7.04641e-05,-0.000274904,0.0268108,-0.010062926505077563,0.02301382392361373,-7.046161746360191e-05,0.02666029281394877,-0.0002748662173576166,-0.014777623158616304
300,0.0301,44.9938,688.199,-0.000689672,176.136,-0.680187,-2.53782,-0.0101487,0.0263974,-0.0149392,0.0228284,-7.07844e-05,-0.000276148,0.0269087,-0.010097375715815482,0.02309096207400918,-7.078189484344133e-05,0.02674889742045239,-0.00027610987465054304,-0.014828163770170488
301,0.0302,45.0125,688.58,-0.000694321,176.222,-0.681156,-2.54135,-0.0101836,0.0264838,-0.0149905,0.0229039,-7.1105e-05,-0.000277392,0.0270067,-0.01013192271455432,0.023168208357656317,-7.110247209940468e-05,0.026837612357619722,-0.00027735353039626265,-0.014878701789057813
302,0.0303,45.0312,688.959,-0.000698981,176.308,-0.682121,-2.54487,-0.0102184,0.0265701,-0.0150417,0.0229793,-7.14257e-05,-0.000278638,0.0271046,-0.010166369524265972,0.023245358149077022,-7.142314924546422e-05,0.02692623226746016,-0.00027859918403772,-0.014929138708330014
303,0.0304,45.0499,689.337,-0.000703651,176.393,-0.683083,-2.54838,-0.0102532,0.0266564,-0.015093,0.0230547,-7.17467e-05,-0.000279884,0.0272025,-0.010200815135249397,0.02332251375781147,-7.174412626709259e-05,0.02701485982552909,-0.00027984483612708555,-0.014979671547335927
304,0.0305,45.0684,689.715,-0.000708331,176.478,-0.684042,-2.55187,-0.010288,0.0267427,-0.0151442,0.0231301,-7.20679e-05,-0.000281131,0.0273004,-0.01023525954754645,0.023399675184297974,-7.206530317127591e-05,0.027103495032486213,-0.0002810914863833336,-0.01503010329708887
305,0.0306,45.087,690.091,-0.000713021,176.563,-0.684997,-2.55535,-0.0103228,0.0268291,-0.0151954,0.0232055,-7.23892e-05,-0.000282379,0.0273984,-0.010269702761198762,0.02347684242897552,-7.238657996511133e-05,0.02719224060821057,-0.00028233913480257833,-0.015080532464802343
306,0.0307,45.1054,690.466,-0.000717721,176.648,-0.685948,-2.55882,-0.0103576,0.0269154,-0.0152467,0.0232808,-7.27108e-05,-0.000283628,0.0274963,-0.010304144776248192,0.02355391313688604,-7.270815663384944e-05,0.02728089112378984,-0.00028358778138126706,-0.015131057537507653
307,0.0308,45.1238,690.84,-0.000722431,176.732,-0.686896,-2.56227,-0.0103924,0.0270016,-0.0152979,0.0233562,-7.30326e-05,-0.000284877,0.0275942,-0.01033858559273626,0.023631092011543675,-7.302993318458739e-05,0.027369446553288768,-0.0002848364264003145,-0.015181481536496344
308,0.0309,45.1422,691.213,-0.000727152,176.816,-0.687841,-2.56571,-0.0104272,0.0270879,-0.0153491,0.0234316,-7.33546e-05,-0.000286128,0.0276921,-0.010373025210704823,0.023708276705707743,-7.335190961710314e-05,0.02745811236240092,-0.00028608706928767713,-0.015231902953842469
309,0.031,45.1605,691.585,-0.000731882,176.9,-0.688782,-2.56914,-0.010462,0.0271742,-0.0154004,0.0235069,-7.36769e-05,-0.000287379,0.02779,-0.010407463630195513,0.02378536484127558,-7.367418592385544e-05,0.027546785823702624,-0.0002873377106105135,-0.015282420261440888
310,0.0311,45.1787,691.956,-0.000736623,176.983,-0.68972,-2.57256,-0.0104968,0.0272605,-0.0154516,0.0235822,-7.39993e-05,-0.00028863,0.0278879,-0.010441900851250074,0.02386245878179838,-7.399656211937167e-05,0.027635466937854236,-0.00028858835036871255,-0.015332836510856485
311,0.0312,45.1969,692.326,-0.000741373,177.067,-0.690655,-2.57597,-0.0105316,0.0273467,-0.0155028,0.0236576,-7.43219e-05,-0.000289883,0.0279857,-0.010476336873910141,0.023939660921674655,-7.431913819599956e-05,0.02772405293310598,-0.00028984098798279234,-0.015383250179026198
312,0.0313,45.215,692.694,-0.000746133,177.15,-0.691586,-2.57936,-0.0105664,0.027433,-0.015554,0.0237329,-7.46447e-05,-0.000291136,0.0280836,-0.010510771698217458,0.024016766481129936,-7.464191415373911e-05,0.027812749346069143,-0.0002910936240272388,-0.015433661266082255
313,0.0314,45.233,693.062,-0.000750903,177.233,-0.692514,-2.58274,-0.0106012,0.0275192,-0.0156052,0.0238082,-7.49677e-05,-0.00029239,0.0281815,-0.01054520532421388,0.024093877846852463,-7.496488999214623e-05,0.02790135062372312,-0.000292347258209813,-0.015484069772156661
314,0.0315,45.251,693.429,-0.000755683,177.315,-0.693439,-2.58611,-0.010636,0.0276055,-0.0156565,0.0238835,-7.5291e-05,-0.000293645,0.0282794,-0.010579637751940818,0.02417099501927944,-7.528816570379071e-05,0.027990062338137278,-0.00029360189052674013,-0.015534574143929114
315,0.0316,45.269,693.795,-0.000760473,177.398,-0.694361,-2.58946,-0.0106708,0.0276917,-0.0157077,0.0239588,-7.56144e-05,-0.000294901,0.0283772,-0.010614068981440239,0.024248117998848073,-7.561154130331094e-05,0.028078678900829823,-0.00029485752097424545,-0.015584977483396378
316,0.0317,45.2869,694.16,-0.000765272,177.48,-0.695279,-2.59281,-0.0107056,0.0277779,-0.0157589,0.0240341,-7.5938e-05,-0.000296157,0.0284751,-0.010648499012753665,0.02432524678599579,-7.593511678305465e-05,0.028167303102599295,-0.00029611314984467896,-0.015635378242278786
317,0.0318,45.3047,694.524,-0.000770081,177.562,-0.696194,-2.59614,-0.0107404,0.0278641,-0.0158101,0.0241093,-7.62618e-05,-0.000297414,0.028573,-0.01068292784592284,0.024402278940926836,-7.62588921427998e-05,0.028255934944104277,-0.00029736977684058363,-0.015685776420708453
318,0.0319,45.3225,694.887,-0.0007749,177.643,-0.697106,-2.59946,-0.0107752,0.0279503,-0.0158613,0.0241846,-7.65858e-05,-0.000298671,0.0286708,-0.010717355480989399,0.024479419336830732,-7.658286738243536e-05,0.028344574426003133,-0.000298626402256974,-0.015736172018817385
319,0.032,45.3402,695.249,-0.000779728,177.725,-0.698014,-2.60277,-0.01081,0.0280365,-0.0159125,0.0242598,-7.691e-05,-0.00029993,0.0287687,-0.010751781917995196,0.024556463085973368,-7.69070425017393e-05,0.02843322154895489,-0.00029988502549405105,-0.01578656503673781
320,0.0321,45.3579,695.61,-0.000784566,177.806,-0.69892,-2.60606,-0.0108447,0.0281227,-0.0159636,0.0243351,-7.72344e-05,-0.000301189,0.0288665,-0.010786108235597669,0.024633615092380268,-7.723141750048956e-05,0.02852187631361791,-0.00030114364714650677,-0.015836857058292297
321,0.0322,45.3755,695.97,-0.000789414,177.887,-0.699822,-2.60935,-0.0108795,0.0282089,-0.0160148,0.0244103,-7.7559e-05,-0.000302449,0.0289644,-0.0108205322800492,0.024710670437479987,-7.755599237846411e-05,0.028610538720651002,-0.00030240326691199915,-0.015887244921270582
322,0.0323,45.393,696.329,-0.000794271,177.968,-0.700721,-2.61262,-0.0109143,0.0282951,-0.016066,0.0244855,-7.78837e-05,-0.000303709,0.0290622,-0.01085495512656487,0.024787731577359473,-7.788066714342623e-05,0.02869920877071297,-0.0003036628850903167,-0.015937630204456377
323,0.0324,45.4105,696.687,-0.000799137,178.048,-0.701617,-2.61588,-0.0109491,0.0283813,-0.0161172,0.0245607,-7.82087e-05,-0.000304971,0.02916,-0.01088937677518631,0.024864798512454378,-7.820564177929423e-05,0.02878788646446262,-0.00030492450107166835,-0.015988012907981686
324,0.0325,45.428,697.044,-0.000804013,178.129,-0.70251,-2.61913,-0.0109839,0.0284674,-0.0161684,0.0246359,-7.85339e-05,-0.000306233,0.0292578,-0.010923797225955156,0.02494187124320102,-7.853081629405345e-05,0.028876468914907027,-0.0003061861154608492,-0.016038393031978626
325,0.0326,45.4454,697.4,-0.000808898,178.209,-0.7034,-2.62237,-0.0110186,0.0285536,-0.0162195,0.0247111,-7.88592e-05,-0.000307495,0.0293557,-0.010958117574729975,0.025018949770034826,-7.885609069502308e-05,0.02896516188913978,-0.00030744772825785915,-0.016088672185451403
326,0.0327,45.4627,697.755,-0.000813793,178.288,-0.704287,-2.6256,-0.0110534,0.0286397,-0.0162707,0.0247863,-7.91847e-05,-0.000308759,0.0294535,-0.010992535633360667,0.025096034093391673,-7.918156497443984e-05,0.029053759603655305,-0.00030871133884535773,-0.01613904715582526
327,0.0328,45.48,698.11,-0.000818697,178.368,-0.70517,-2.62882,-0.0110882,0.0287259,-0.0163219,0.0248614,-7.95104e-05,-0.000310023,0.0295513,-0.011026952494263775,0.025173021696400344,-7.950723913197066e-05,0.02914246786100394,-0.00030997494783557844,-0.016189419547066652
328,0.0329,45.4972,698.463,-0.00082361,178.447,-0.706051,-2.63202,-0.011123,0.028812,-0.016373,0.0249366,-7.98363e-05,-0.000311288,0.0296491,-0.011061368157480933,0.025250117606401945,-7.98331131673935e-05,0.029231080842220925,-0.0003112395549174085,-0.016239690983281707
329,0.033,45.5144,698.816,-0.000828532,178.527,-0.706928,-2.63522,-0.0111577,0.0288981,-0.0164242,0.0250117,-8.01624e-05,-0.000312553,0.0297469,-0.011095683732627148,0.025327116781517,-8.015918708070835e-05,0.02931970145334395,-0.00031250416039951823,-0.01629005822169105
330,0.0331,45.5316,699.167,-0.000833464,178.605,-0.707803,-2.6384,-0.0111925,0.0289843,-0.0164753,0.0250869,-8.04886e-05,-0.000313819,0.0298447,-0.011130097004038886,0.025404224279904408,-8.048536087956748e-05,0.029408432635868342,-0.0003137697639681303,-0.016340324515401128
331,0.0332,45.5487,699.518,-0.000838405,178.684,-0.708675,-2.64157,-0.0112273,0.0290704,-0.0165265,0.025162,-8.08151e-05,-0.000315086,0.0299425,-0.011164509077889573,0.025481235028865346,-8.081183454777818e-05,0.029497068517638336,-0.0003150363656194699,-0.016390686601505555
332,0.0333,45.5657,699.868,-0.000843354,178.763,-0.709543,-2.64473,-0.011262,0.0291565,-0.0165776,0.0252371,-8.11417e-05,-0.000316353,0.0300403,-0.011198821074108078,0.02555825156155067,-8.113840810131112e-05,0.029585712031286127,-0.00031630296566598215,-0.01644094775323679
333,0.0334,45.5827,700.216,-0.000848313,178.841,-0.710409,-2.64788,-0.0112968,0.0292426,-0.0166288,0.0253122,-8.14685e-05,-0.000317621,0.030138,-0.011233230756402701,0.025635273878394704,-8.14651815318479e-05,0.029674363177468965,-0.00031757056379022597,-0.016491304687563324
334,0.0335,45.5996,700.564,-0.000853281,178.919,-0.711272,-2.65102,-0.0113315,0.0293286,-0.0166799,0.0253873,-8.17954e-05,-0.00031889,0.0302358,-0.011267540368020246,0.025712301979831986,-8.179205484748486e-05,0.02976291898054728,-0.00031883915998820456,-0.01654156069784185
335,0.0336,45.6165,700.912,-0.000858258,178.997,-0.712132,-2.65415,-0.0113663,0.0294147,-0.0167311,0.0254624,-8.21226e-05,-0.00032016,0.0303336,-0.011301947658925116,0.025789335866296836,-8.211922803158522e-05,0.02985158538490551,-0.0003201087542562542,-0.016591912480917403
336,0.0337,45.6333,701.258,-0.000863245,179.075,-0.712988,-2.65726,-0.0114011,0.0295008,-0.0167822,0.0255375,-8.24499e-05,-0.00032143,0.0304314,-0.011336353752477102,0.025866375538224018,-8.244650110045271e-05,0.029940259423769655,-0.0003213783469119269,-0.016642163350269024
337,0.0338,45.6501,701.603,-0.00086824,179.152,-0.713842,-2.66037,-0.0114358,0.0295869,-0.0168333,0.0256126,-8.27774e-05,-0.0003227,0.0305291,-0.011370659785788773,0.025943420996047628,-8.277397404554687e-05,0.030028941097797412,-0.00032264793795533375,-0.016692411651866745
338,0.0339,45.6668,701.948,-0.000873243,179.229,-0.714693,-2.66347,-0.0114706,0.0296729,-0.0168845,0.0256876,-8.31051e-05,-0.000323972,0.0306269,-0.011405063488200362,0.026020369638160235,-8.310164686686772e-05,0.030117527395888022,-0.000323919526738381,-0.016742755711571244
339,0.034,45.6835,702.291,-0.000878256,179.306,-0.715542,-2.66655,-0.0115053,0.029759,-0.0169356,0.0257627,-8.34329e-05,-0.000325244,0.0307246,-0.011439367137325518,0.026097426661375156,-8.342941957240058e-05,0.03020622433334519,-0.0003251911139040553,-0.016792998873030762
340,0.0341,45.7001,702.634,-0.000883278,179.383,-0.716387,-2.66962,-0.0115401,0.029845,-0.0169867,0.0258377,-8.37609e-05,-0.000326516,0.0308224,-0.0114737684487628,0.02617438685434581,-8.375739215371603e-05,0.03029482587844967,-0.0003264626994522457,-0.016843239467130178
341,0.0342,45.7167,702.976,-0.000888308,179.46,-0.71723,-2.67269,-0.0115748,0.029931,-0.0170378,0.0259128,-8.40891e-05,-0.00032779,0.0309201,-0.011508069713867308,0.026251455444687988,-8.408556461070305e-05,0.030383435043614737,-0.00032773628272741995,-0.01689347749400094
342,0.0343,45.7332,703.317,-0.000893348,179.536,-0.718069,-2.67574,-0.0116096,0.0300171,-0.0170889,0.0259878,-8.44174e-05,-0.000329064,0.0310178,-0.011542468634496594,0.026328427190250636,-8.441383695156901e-05,0.03047215487670596,-0.00032900986438011426,-0.01694371295377406
343,0.0344,45.7497,703.657,-0.000898396,179.612,-0.718906,-2.67879,-0.0116443,0.0301031,-0.01714,0.0260628,-8.4746e-05,-0.000330338,0.0311156,-0.011576767515745878,0.02640540470891084,-8.474240915923303e-05,0.03056077929282064,-0.00033028344441032864,-0.01699394584658076
344,0.0345,45.7662,703.996,-0.000903452,179.688,-0.71974,-2.68182,-0.011679,0.0301891,-0.0171911,0.0261378,-8.50746e-05,-0.000331613,0.0312133,-0.01161106520684474,0.026482388001101365,-8.507098125887236e-05,0.030649411330962772,-0.0003315580224864112,-0.017044176172552272
345,0.0346,45.7826,704.334,-0.000908518,179.764,-0.720572,-2.68484,-0.0117138,0.0302751,-0.0172422,0.0262128,-8.54035e-05,-0.000332889,0.031311,-0.011645460543293185,0.02655937706725542,-8.539985322486565e-05,0.030738050991788057,-0.00033283359860447614,-0.0170944039318196
346,0.0347,45.7989,704.672,-0.000913592,179.84,-0.7214,-2.68785,-0.0117485,0.0303611,-0.0172933,0.0262878,-8.57325e-05,-0.000334166,0.0314087,-0.01167975585078529,0.026636371907805767,-8.57288250742938e-05,0.03082669827595197,-0.00033411017276097077,-0.017144629124514088
347,0.0348,45.8152,705.009,-0.000918675,179.915,-0.722226,-2.69086,-0.0117833,0.0304471,-0.0173444,0.0263627,-8.60617e-05,-0.000335443,0.0315064,-0.011714148796840962,0.026713269851853738,-8.605799679817228e-05,0.030915353184109984,-0.0003353867452871029,-0.01719485175076685
348,0.0349,45.8315,705.345,-0.000923766,179.99,-0.723049,-2.69385,-0.011818,0.0305331,-0.0173955,0.0264377,-8.6391e-05,-0.00033672,0.0316041,-0.011748441720892067,0.026790276234796018,-8.638726840504152e-05,0.031004015716918243,-0.00033666331618320555,-0.01724507181070889
349,0.035,45.8477,705.68,-0.000928866,180.065,-0.72387,-2.69683,-0.0118527,0.0306191,-0.0174466,0.0265127,-8.67205e-05,-0.000337998,0.0317018,-0.011782733454999361,0.02686728839343333,-8.671673988613904e-05,0.031092685875032,-0.00033794088511107656,-0.01729528930447144
350,0.0351,45.8638,706.014,-0.000933974,180.14,-0.724687,-2.6998,-0.0118875,0.030705,-0.0174977,0.0265876,-8.70502e-05,-0.000339277,0.0317995,-0.011817122817496695,0.026944203633773922,-8.70464112412428e-05,0.03118126054097603,-0.0003392194520670522,-0.017345504232185727
351,0.0352,45.8799,706.348,-0.000939091,180.215,-0.725502,-2.70276,-0.0119222,0.030791,-0.0175488,0.0266625,-8.738e-05,-0.000340557,0.0318972,-0.011851412168411235,0.027021124635281613,-8.737618247900425e-05,0.031269945942800303,-0.0003404990170472466,-0.017395716593982646
352,0.0353,45.896,706.68,-0.000944216,180.289,-0.726314,-2.70571,-0.0119569,0.0308769,-0.0175998,0.0267375,-8.771e-05,-0.000341837,0.0319949,-0.011885700329505977,0.02709815410819827,-8.770615359043887e-05,0.031358535836038204,-0.000341778580389529,-0.017445828134581176
353,0.0354,45.912,707.012,-0.00094935,180.363,-0.727124,-2.70866,-0.0119916,0.0309629,-0.0176509,0.0268124,-8.80401e-05,-0.000343117,0.0320926,-0.01191998730082211,0.027175086641028523,-8.803622458408711e-05,0.03144723648419312,-0.0003430581420940104,-0.017496035369957808
354,0.0355,45.928,707.343,-0.000954492,180.437,-0.727931,-2.71159,-0.0120264,0.0310488,-0.017702,0.0268873,-8.83704e-05,-0.000344398,0.0321902,-0.011954371886968795,0.027252024936321062,-8.836649545118647e-05,0.031535841607342796,-0.0003443387018163824,-0.01754624003981009
355,0.0356,45.9439,707.673,-0.000959643,180.511,-0.728735,-2.71451,-0.0120611,0.0311347,-0.017753,0.0269622,-8.87009e-05,-0.00034568,0.0322879,-0.011988656475423243,0.027328968994507763,-8.86969661915149e-05,0.03162445434199923,-0.0003456202595526481,-0.01759634390390874
356,0.0357,45.9598,708.003,-0.000964802,180.585,-0.729537,-2.71742,-0.0120958,0.0312207,-0.0178041,0.0270371,-8.90315e-05,-0.000346962,0.0323855,-0.012022939874223204,0.02740591881602028,-8.902753681361286e-05,0.03171317786012939,-0.00034690181564600575,-0.017646543448125884
357,0.0358,45.9756,708.331,-0.000969969,180.658,-0.730336,-2.72033,-0.0121305,0.0313066,-0.0178551,0.0271119,-8.93623e-05,-0.000348245,0.0324832,-0.012057222083409758,0.027482771653007942,-8.935830730860683e-05,0.03180180582862424,-0.00034818436974826117,-0.017696642196881163
358,0.0359,45.9914,708.659,-0.000975144,180.732,-0.731132,-2.72322,-0.0121652,0.0313925,-0.0179062,0.0271868,-8.96932e-05,-0.000349529,0.0325808,-0.012091503103024315,0.027559732994771213,-8.968917768514828e-05,0.03189044141058872,-0.00034946792185552855,-0.017746836615986528
359,0.036,46.0072,708.986,-0.000980328,180.805,-0.731926,-2.7261,-0.0122,0.0314784,-0.0179572,0.0272617,-9.00243e-05,-0.000350813,0.0326785,-0.012125881720524978,0.0276367001011546,-9.002024793425267e-05,0.03197908460667653,-0.00035075147231466985,-0.017796930249920573
360,0.0361,46.0229,709.313,-0.00098552,180.878,-0.732717,-2.72898,-0.0122347,0.0315643,-0.0180083,0.0273365,-9.03555e-05,-0.000352098,0.0327761,-0.012160160357691407,0.02771357020122811,-9.035141806479352e-05,0.03206773541754204,-0.0003520360207737161,-0.017847119544437406
361,0.0362,46.0385,709.638,-0.00099072,180.95,-0.733506,-2.73184,-0.0122694,0.0316502,-0.0180593,0.0274113,-9.06869e-05,-0.000353383,0.0328737,-0.012194437805409852,0.02779044605140002,-9.06827880673422e-05,0.03215639384383939,-0.00035332056758208275,-0.01789720806407258
362,0.0363,46.0542,709.963,-0.000995928,181.023,-0.734292,-2.7347,-0.0123041,0.031736,-0.0181104,0.0274862,-9.10184e-05,-0.000354668,0.0329714,-0.012228714063721502,0.02786743043883866,-9.101425795110529e-05,0.03224495666172178,-0.0003546051127397698,-0.017947392234524018
363,0.0364,46.0697,710.287,-0.00100114,181.095,-0.735075,-2.73754,-0.0123388,0.0318219,-0.0181614,0.027561,-9.13501e-05,-0.000355955,0.033069,-0.012262989132667657,0.027944317798186846,-9.134592770665417e-05,0.03233363031197767,-0.00035589165553517876,-0.017997475640382343
364,0.0365,46.0853,710.61,-0.00100637,181.167,-0.735856,-2.74038,-0.0123735,0.0319078,-0.0182124,0.0276358,-9.16819e-05,-0.000357242,0.0331666,-0.012297263012289505,0.02802121090892462,-9.16776973430844e-05,0.03242231157962738,-0.0003571781966746901,-0.01804755649205214
365,0.0366,46.1008,710.933,-0.0010116,181.239,-0.736635,-2.74321,-0.0124082,0.0319936,-0.0182635,0.0277106,-9.20139e-05,-0.000358529,0.0332642,-0.012331535702628349,0.028098109771482305,-9.200966685096734e-05,0.03251089721423028,-0.0003584647361584148,-0.018097732979895143
366,0.0367,46.1162,711.254,-0.00101684,181.311,-0.737411,-2.74602,-0.0124429,0.0320795,-0.0183145,0.0277854,-9.2346e-05,-0.000359817,0.0333618,-0.012365807203725487,0.028175014386289776,-9.234173623939856e-05,0.032599593709760954,-0.00035975227362672335,-0.018147808718571024
367,0.0368,46.1316,711.575,-0.00102209,181.383,-0.738184,-2.74883,-0.0124776,0.0321653,-0.0183655,0.0278602,-9.26783e-05,-0.000361105,0.0334594,-0.01240007751562211,0.028251924753777802,-9.267400549906046e-05,0.03268819455582328,-0.00036103980943658076,-0.018197881903449287
368,0.0369,46.147,711.895,-0.00102735,181.454,-0.738955,-2.75163,-0.0125123,0.0322511,-0.0184165,0.0279349,-9.30107e-05,-0.000362394,0.033557,-0.012434346638359628,0.028328738041497603,-9.300637463893757e-05,0.03277680300416419,-0.000362328343225804,-0.018247952534660272
369,0.037,46.1623,712.215,-0.00103261,181.525,-0.739724,-2.75442,-0.012547,0.032337,-0.0184675,0.0280097,-9.33433e-05,-0.000363684,0.0336546,-0.01246861457197923,0.02840565990794497,-9.333894364971229e-05,0.032865522341983366,-0.00036361787499050724,-0.01829802061233421
370,0.0371,46.1776,712.534,-0.00103788,181.596,-0.74049,-2.7572,-0.0125817,0.0324228,-0.0185185,0.0280844,-9.3676e-05,-0.000364974,0.0337522,-0.012502881316522108,0.0284824846801095,-9.367161254048018e-05,0.03295414600570101,-0.00036490740509176334,-0.018348086136601216
371,0.0372,46.1928,712.852,-0.00104316,181.667,-0.741253,-2.75998,-0.0126164,0.0325086,-0.0185695,0.0281592,-9.40088e-05,-0.000366265,0.0338497,-0.012537146872029559,0.02855941804723572,-9.400438131124123e-05,0.033042777273655455,-0.0003661979331631704,-0.018398149107591633
372,0.0373,46.208,713.169,-0.00104845,181.738,-0.742014,-2.76274,-0.0126511,0.0325944,-0.0186205,0.0282339,-9.43418e-05,-0.000367556,0.0339473,-0.012571411238542884,0.028636254305562492,-9.433734995234477e-05,0.033131416146498616,-0.0003674884595686878,-0.018448209525435688
373,0.0374,46.2231,713.485,-0.00105375,181.809,-0.742773,-2.76549,-0.0126858,0.0326802,-0.0186715,0.0283086,-9.46749e-05,-0.000368847,0.0340449,-0.012605674416103385,0.028713096303771835,-9.467041847310842e-05,0.03322006262488353,-0.0003687789843079825,-0.01849826739026339
374,0.0375,46.2383,713.801,-0.00105905,181.879,-0.743529,-2.76824,-0.0127204,0.032766,-0.0187225,0.0283833,-9.50082e-05,-0.000370139,0.0341424,-0.012639837668740883,0.02878994404229318,-9.50036868638815e-05,0.03330871670946278,-0.0003700705070112109,-0.01854832270220519
375,0.0376,46.2533,714.116,-0.00106436,181.949,-0.744283,-2.77097,-0.0127551,0.0328518,-0.0187735,0.028458,-9.53416e-05,-0.000371432,0.03424,-0.01267409847194545,0.028866797521554854,-9.533705513409263e-05,0.03339737840088852,-0.00037136302767448726,-0.018598375461391203
376,0.0377,46.2684,714.431,-0.00106968,182.019,-0.745035,-2.7737,-0.0127898,0.0329375,-0.0188245,0.0285327,-9.56751e-05,-0.000372725,0.0343375,-0.012708358086320648,0.028943656741985846,-9.567052328363079e-05,0.033485944351214325,-0.00037265554666643386,-0.01864842566795155
377,0.0378,46.2834,714.744,-0.00107501,182.089,-0.745784,-2.77642,-0.0128245,0.0330233,-0.0188755,0.0286074,-9.60088e-05,-0.000374019,0.034435,-0.012742616511908,0.029020521704014923,-9.600419130262328e-05,0.03357462124942412,-0.00037394906361332136,-0.018698473322016462
378,0.0379,46.2983,715.057,-0.00108035,182.159,-0.746531,-2.77913,-0.0128592,0.033109,-0.0189264,0.0286821,-9.63426e-05,-0.000375313,0.0345326,-0.012776873748748474,0.0290973924080713,-9.633795920072075e-05,0.03366320239011289,-0.0003752425788863256,-0.01874842029856305
379,0.038,46.3132,715.369,-0.00108569,182.228,-0.747275,-2.78183,-0.0128938,0.0331948,-0.0189774,0.0287567,-9.66766e-05,-0.000376608,0.0346301,-0.012811031077991641,0.029174165937162044,-9.667192696805049e-05,0.033751894497714874,-0.0003765370921089417,-0.018798462853031883
380,0.0381,46.3281,715.681,-0.00109104,182.298,-0.748017,-2.78452,-0.0129285,0.0332805,-0.0190284,0.0288314,-9.70107e-05,-0.000377903,0.0347276,-0.012845285940887852,0.029251048118871248,-9.700599461415216e-05,0.03384049083137208,-0.00037783160365523205,-0.01884850285539541
381,0.0382,46.3429,715.992,-0.0010964,182.367,-0.748757,-2.78721,-0.0129632,0.0333663,-0.0190793,0.028906,-9.73449e-05,-0.000379199,0.0348251,-0.012879539615161084,0.02932783311110554,-9.734016213891472e-05,0.03392919815097506,-0.0003791271131459162,-0.01889844219563308
382,0.0383,46.3577,716.302,-0.00110176,182.436,-0.749494,-2.78988,-0.0129978,0.033452,-0.0191303,0.0289807,-9.76793e-05,-0.000380495,0.0349226,-0.012913693392226588,0.02940472677218131,-9.767452953246547e-05,0.0340178096802064,-0.00038042262095772106,-0.01894847709918024
383,0.0384,46.3725,716.611,-0.00110713,182.505,-0.750229,-2.79255,-0.0130325,0.0335377,-0.0191813,0.0290553,-9.80137e-05,-0.000381792,0.0350201,-0.01294794469280236,0.02948152322927089,-9.800889681421676e-05,0.03410642880377113,-0.0003817191267088127,-0.018998509451012335
384,0.0385,46.3872,716.92,-0.00111251,182.573,-0.750962,-2.7952,-0.0130672,0.0336234,-0.0192322,0.0291299,-9.83484e-05,-0.000383089,0.0351176,-0.012982194804878722,0.02955832541558978,-9.834356395466148e-05,0.03419505552232027,-0.00038301563077836054,-0.019048441156108598
385,0.0386,46.4018,717.228,-0.0011179,182.642,-0.751692,-2.79785,-0.0131018,0.0337091,-0.0192832,0.0292045,-9.86831e-05,-0.000384387,0.0352151,-0.013016345030136156,0.029635133331565422,-9.86782309830847e-05,0.03428368983650465,-0.0003843131327819771,-0.019098468409903813
386,0.0387,46.4165,717.535,-0.0011233,182.71,-0.75242,-2.80049,-0.0131365,0.0337948,-0.0193341,0.0292791,-9.9018e-05,-0.000385685,0.0353126,-0.01305059276876186,0.029711946977625248,-9.901309787962997e-05,0.03437233174697529,-0.0003856106331013853,-0.019148395027218545
387,0.0388,46.4311,717.842,-0.0011287,182.778,-0.753146,-2.80313,-0.0131712,0.0338805,-0.019385,0.0293537,-9.9353e-05,-0.000386983,0.0354101,-0.01308483931901172,0.029788766354196916,-9.934806465417001e-05,0.034460981254383016,-0.00038690813173669625,-0.01919831910333314
388,0.0389,46.4456,718.148,-0.00113411,182.846,-0.753869,-2.80575,-0.0132058,0.0339662,-0.019436,0.0294283,-9.96882e-05,-0.000388282,0.0355075,-0.013118985992830456,0.029865591461707863,-9.968323129649903e-05,0.0345496383593793,-0.0003882066282997476,-0.01924833871354803
389,0.039,46.4602,718.453,-0.00113953,182.914,-0.754591,-2.80837,-0.0132405,0.0340519,-0.0194869,0.0295028,-0.000100023,-0.000389582,0.035605,-0.013153230169876573,0.029942319306348386,-0.00010001799786651944,0.03463830306261495,-0.0003895061227864316,-0.019298257702658472
390,0.0391,46.4746,718.758,-0.00114495,182.982,-0.75531,-2.81097,-0.0132751,0.0341375,-0.0195378,0.0295774,-0.000100359,-0.000390882,0.0357025,-0.013187374477412805,0.03001915586933679,-0.00010035396420404741,0.034726871892048816,-0.0003908056155838002,-0.01934817415095702
391,0.0392,46.4891,719.062,-0.00115039,183.049,-0.756027,-2.81357,-0.0133098,0.0342232,-0.0195888,0.029652,-0.000100694,-0.000392183,0.0357999,-0.013221616281419712,0.030095998164546556,-0.00010068893052939121,0.034815551784849186,-0.00039210610629969445,-0.01939818611875932
392,0.0393,46.5035,719.365,-0.00115583,183.117,-0.756741,-2.81616,-0.0133444,0.0343089,-0.0196397,0.0297265,-0.00010103,-0.000393483,0.0358974,-0.01325575822283731,0.03017274317512597,-0.00010102489664143288,0.03490423927784203,-0.0003934055957171001,-0.019448097480830873
393,0.0394,46.5179,719.668,-0.00116127,183.184,-0.757454,-2.81875,-0.0133791,0.0343945,-0.0196906,0.029801,-0.000101366,-0.000394785,0.0359948,-0.013289997653969432,0.030249493903421687,-0.00010136086264056487,0.03499283087239036,-0.00039470708265576526,-0.019498006302478776
394,0.0395,46.5322,719.969,-0.00116673,183.251,-0.758164,-2.82132,-0.0134137,0.0344801,-0.0197415,0.0298755,-0.000101702,-0.000396087,0.0360922,-0.013324137229432598,0.030326250349859585,-0.00010169682852689821,0.03508143005070363,-0.000396008567899897,-0.019547912583832372
395,0.0396,46.5465,720.271,-0.00117219,183.318,-0.758872,-2.82389,-0.0134484,0.0345658,-0.0197924,0.02995,-0.000102038,-0.000397389,0.0361897,-0.013358374287854247,0.030403012514865768,-0.00010203279430032186,0.0351701403304403,-0.0003973100514494954,-0.01959781632502089
396,0.0397,46.5608,720.571,-0.00117766,183.385,-0.759577,-2.82644,-0.013483,0.0346514,-0.0198433,0.0300245,-0.000102374,-0.000398692,0.0362871,-0.013392511497526849,0.03047978039886634,-0.00010236875996083583,0.03525875468709283,-0.00039861253290585097,-0.019647717526173558
397,0.0398,46.575,720.871,-0.00118313,183.451,-0.760281,-2.82899,-0.0135177,0.034737,-0.0198942,0.030099,-0.00010271,-0.000399995,0.0363845,-0.01342674618340256,0.030556554002287406,-0.00010270472550855114,0.03534737662945897,-0.00039991501266523066,-0.01969761618741983
398,0.0399,46.5892,721.171,-0.00118862,183.518,-0.760982,-2.83154,-0.0135523,0.0348226,-0.0199451,0.0301735,-0.000103047,-0.000401299,0.0364819,-0.013460881027448468,0.030633333325554846,-0.0001030416908402998,0.035436006158188205,-0.00040121849032614954,-0.019747512308888826
399,0.04,46.6033,721.469,-0.00119411,183.584,-0.761681,-2.83407,-0.0135869,0.0349082,-0.019996,0.030248,-0.000103383,-0.000402603,0.0365793,-0.013495014690449114,0.030710118369094985,-0.00010337765616186267,0.03552464327392979,-0.00040252196628731696,-0.019797405890709885
400,0.0401,46.6174,721.768,-0.0011996,183.65,-0.762378,-2.8366,-0.0136216,0.0349938,-0.0200469,0.0303225,-0.00010372,-0.000403908,0.0366767,-0.01352924581952586,0.03078690913333393,-0.00010371462126679276,0.03561328797733321,-0.00040382644014502755,-0.019847296933012237
401,0.0402,46.6315,722.065,-0.00120511,183.716,-0.763073,-2.83911,-0.0136562,0.0350794,-0.0200978,0.0303969,-0.000104056,-0.000405213,0.0367741,-0.013563377117145614,0.030863602532332335,-0.00010405058636220321,0.03570194026904816,-0.00040513091230032217,-0.019897185435925224
402,0.0403,46.6455,722.362,-0.00121062,183.782,-0.763766,-2.84162,-0.0136908,0.035165,-0.0201487,0.0304713,-0.000104393,-0.000406518,0.0368715,-0.013597507233842898,0.030940301637532253,-0.00010438755124042576,0.035790600149723906,-0.0004064353827533118,-0.019947071399577965
403,0.0404,46.6596,722.658,-0.00121614,183.848,-0.764457,-2.84413,-0.0137254,0.0352505,-0.0201996,0.0305458,-0.00010473,-0.000407824,0.0369689,-0.013631636169658679,0.031017109551063404,-0.00010472451600496147,0.035879164032088795,-0.0004077408510962943,-0.0199969548240998
404,0.0405,46.6735,722.953,-0.00122166,183.913,-0.765145,-2.84662,-0.0137601,0.0353361,-0.0202504,0.0306202,-0.000105067,-0.00040913,0.0370662,-0.013665862558052355,0.0310938200776103,-0.00010506148065603238,0.03596783908376788,-0.0004090463177341963,-0.020046737714298546
405,0.0406,46.6875,723.248,-0.0012272,183.979,-0.765832,-2.84911,-0.0137947,0.0354216,-0.0203013,0.0306946,-0.000105405,-0.000410437,0.0371636,-0.01369998912881476,0.03117053631163258,-0.00010539944508813903,0.03605641812070948,-0.00041035278225698413,-0.02009661606593416
406,0.0407,46.7014,723.543,-0.00123274,184.044,-0.766516,-2.85159,-0.0138293,0.0355072,-0.0203522,0.030769,-0.000105742,-0.000411744,0.0372609,-0.01373411451881823,0.03124725825355501,-0.00010573640951172525,0.03614510834598805,-0.0004116592450720269,-0.02014649187882611
407,0.0408,46.7152,723.836,-0.00123828,184.109,-0.767198,-2.85406,-0.0138639,0.0355927,-0.020403,0.0308434,-0.000106079,-0.000413052,0.0373583,-0.013768238728103621,0.03132398590380214,-0.00010607337382184667,0.03623370254009939,-0.00041296670576673744,-0.020196267172735594
408,0.0409,46.7291,724.129,-0.00124384,184.174,-0.767878,-2.85652,-0.0138986,0.0356783,-0.0204539,0.0309178,-0.000106417,-0.00041436,0.0374556,-0.013802460376470704,0.03140071926279897,-0.00010641133791189361,0.03632240794157382,-0.0004142741647511494,-0.020246137913515372
409,0.041,46.7429,724.422,-0.0012494,184.239,-0.768556,-2.85898,-0.0139332,0.0357638,-0.0205048,0.0309922,-0.000106755,-0.000415668,0.037553,-0.013836582221030347,0.03147745833097004,-0.00010674930188780962,0.03641101729544882,-0.0004155816220254849,-0.02029600611593907
410,0.0411,46.7566,724.713,-0.00125496,184.303,-0.769232,-2.86143,-0.0139678,0.0358493,-0.0205556,0.0310665,-0.000107092,-0.000416977,0.0376503,-0.013870702884994701,0.03155409995332503,-0.00010708626585642644,0.03649963422574731,-0.00041689007717271576,-0.020345773814718027
411,0.0412,46.7703,725.005,-0.00126054,184.368,-0.769906,-2.86387,-0.0140024,0.0359348,-0.0206065,0.0311409,-0.00010743,-0.000418286,0.0377476,-0.013904822368404401,0.03163085043344416,-0.00010742422960419162,0.03658825873311744,-0.0004181985306073166,-0.020395636945803486
412,0.0413,46.784,725.295,-0.00126612,184.432,-0.770578,-2.8663,-0.014037,0.0360203,-0.0206573,0.0312153,-0.000107768,-0.000419596,0.037845,-0.013938940671300415,0.031707606624011175,-0.00010776219323771485,0.03667689081820669,-0.0004195079819094838,-0.020445399583464918
413,0.0414,46.7977,725.585,-0.00127171,184.496,-0.771248,-2.86872,-0.0140716,0.0361058,-0.0207081,0.0312896,-0.000108107,-0.000420906,0.0379423,-0.013973057793723487,0.031784265347019725,-0.00010810115664883213,0.0367655304816632,-0.0004208174314963564,-0.020495159693248555
414,0.0415,46.8113,725.875,-0.0012773,184.56,-0.771916,-2.87114,-0.0141062,0.0361913,-0.020759,0.0313639,-0.000108445,-0.000422216,0.0380396,-0.014007173735714695,0.03186092976598287,-0.0001084391200535384,0.03685417772413513,-0.00042212687936782345,-0.020545015220786222
415,0.0416,46.8249,726.163,-0.0012829,184.624,-0.772582,-2.87355,-0.0141408,0.0362768,-0.0208098,0.0314382,-0.000108783,-0.000423527,0.0381369,-0.014041288497314675,0.03193759988132405,-0.00010877708334400271,0.03694283254627018,-0.00042343732510052856,-0.02059477027022405
416,0.0417,46.8385,726.452,-0.00128851,184.688,-0.773245,-2.87596,-0.0141754,0.0363622,-0.0208606,0.0315126,-0.000109122,-0.000424839,0.0382342,-0.01407540207856428,0.032014378894899,-0.00010911604641106187,0.0370313912455722,-0.00042474876869036393,-0.02064452279216955
417,0.0418,46.852,726.739,-0.00129413,184.752,-0.773907,-2.87835,-0.01421,0.0364477,-0.0209115,0.0315869,-0.00010946,-0.00042615,0.0383315,-0.01410951447950437,0.03209106041193399,-0.00010945400947282025,0.03712006122011102,-0.00042605921098581856,-0.020694370717319055
418,0.0419,46.8655,727.026,-0.00129975,184.815,-0.774567,-2.88074,-0.0142446,0.0365332,-0.0209623,0.0316611,-0.000109799,-0.000427462,0.0384287,-0.01414362570017591,0.03216764440984776,-0.00010979297231039631,0.03720873877625697,-0.00042737065113584993,-0.020744118179690352
419,0.042,46.8789,727.312,-0.00130538,184.878,-0.775225,-2.88312,-0.0142792,0.0366186,-0.0210131,0.0317354,-0.000110138,-0.000428775,0.038526,-0.014177735740619535,0.03224433731493348,-0.00011013193503317531,0.03729732018492071,-0.00042868308913657227,-0.02079386311495479
420,0.0421,46.8924,727.598,-0.00131101,184.942,-0.77588,-2.88549,-0.0143138,0.036704,-0.0210639,0.0318097,-0.000110476,-0.000430088,0.0386233,-0.014211844600876211,0.032321035918513985,-0.00011046989775143068,0.037385909158759834,-0.00042999552541400643,-0.020843605523240605
421,0.0422,46.9058,727.883,-0.00131665,185.005,-0.776534,-2.88786,-0.0143484,0.0367895,-0.0211147,0.031884,-0.000110815,-0.000431401,0.0387206,-0.014245952280986796,0.03239774022101227,-0.00011080886024472658,0.03747460944587622,-0.00043130795996826343,-0.020893345404676356
422,0.0423,46.9191,728.168,-0.0013223,185.068,-0.777186,-2.89022,-0.014383,0.0368749,-0.0211655,0.0319582,-0.000111155,-0.000432714,0.0388178,-0.014280058780992033,0.03247434697541207,-0.00011114882251184177,0.03756321356086478,-0.0004326203927993433,-0.020943082759390275
423,0.0424,46.9324,728.452,-0.00132795,185.13,-0.777836,-2.89257,-0.0144176,0.0369603,-0.0212163,0.0320325,-0.000111494,-0.000434028,0.0389151,-0.01431416410093278,0.03255106266934504,-0.00011148778477498844,0.03765182524296784,-0.0004339338234732315,-0.020992817587510815
424,0.0425,46.9457,728.736,-0.00133362,185.193,-0.778484,-2.89491,-0.0144521,0.0370457,-0.0212671,0.0321067,-0.000111833,-0.000435343,0.0390123,-0.014348169675671762,0.03262768080069267,-0.000111826746923116,0.03774044449283154,-0.0004352482519859313,-0.021042549889166207
425,0.0426,46.959,729.019,-0.00133928,185.256,-0.77913,-2.89725,-0.0144867,0.0371311,-0.0213179,0.0321809,-0.000112172,-0.000436657,0.0391095,-0.014382272639016258,0.03270430461731655,-0.00011216570895644651,0.03782907131110269,-0.0004365616792068039,-0.021092279664484903
426,0.0427,46.9722,729.301,-0.00134496,185.318,-0.779774,-2.89958,-0.0145213,0.0372165,-0.0213687,0.0322551,-0.000112512,-0.000437973,0.0392068,-0.01441637442241872,0.03278093411963856,-0.00011250567076226403,0.03791770569842701,-0.0004378771038261453,-0.021142006913595024
427,0.0428,46.9854,729.583,-0.00135064,185.38,-0.780416,-2.90191,-0.0145559,0.0373019,-0.0214195,0.0323293,-0.000112852,-0.000439288,0.039304,-0.014450475025919896,0.03285756930808037,-0.00011284563245261836,0.0380063476554513,-0.0004391915271535485,-0.021191731636625244
428,0.0429,46.9986,729.864,-0.00135632,185.442,-0.781056,-2.90422,-0.0145905,0.0373873,-0.0214702,0.0324035,-0.000113191,-0.000440604,0.0394012,-0.014484574449560528,0.03293421018306453,-0.00011318459414044746,0.038094997182822166,-0.00044050694831188064,-0.021241355957844044
429,0.043,47.0117,730.145,-0.00136202,185.504,-0.781694,-2.90653,-0.014625,0.0374727,-0.021521,0.0324777,-0.000113531,-0.00044192,0.0394984,-0.014518574145243934,0.03301085674501225,-0.0001135245555998754,0.03818365428118575,-0.0004418223677392641,-0.021291075634070955
430,0.0431,47.0248,730.425,-0.00136772,185.566,-0.782331,-2.90883,-0.0146596,0.0375581,-0.0215718,0.0325519,-0.000113871,-0.000443237,0.0395956,-0.014552671212695767,0.03308750899434609,-0.00011386451694372912,0.03827231895118888,-0.00044313878499224746,-0.021340792784602436
431,0.0432,47.0379,730.704,-0.00137342,185.628,-0.782965,-2.91113,-0.0146942,0.0376434,-0.0216226,0.0326261,-0.000114211,-0.000444554,0.0396928,-0.014586767100409626,0.033164166931487715,-0.00011420447817200863,0.03836088735738419,-0.0004444552005116176,-0.021390507409566828
432,0.0433,47.0509,730.983,-0.00137914,185.689,-0.783598,-2.91341,-0.0147287,0.0377288,-0.0216733,0.0327002,-0.000114551,-0.000445871,0.03979,-0.01462076327050732,0.033240727232781486,-0.00011454443928471392,0.038449567163738374,-0.0004457716142972634,-0.02144012165310938
433,0.0434,47.0639,731.262,-0.00138486,185.751,-0.784228,-2.91569,-0.0147633,0.0378141,-0.0217241,0.0327744,-0.000114891,-0.000447189,0.0398872,-0.014654856802276628,0.03331739653913823,-0.00011488440028184499,0.038538150689851225,-0.0004470890259021809,-0.02148983123229542
434,0.0435,47.0769,731.539,-0.00139058,185.812,-0.784857,-2.91797,-0.0147979,0.0378994,-0.0217748,0.0328485,-0.000115232,-0.000448507,0.0399844,-0.014688949154430198,0.03339396819516671,-0.00011522536104813241,0.03862674177246084,-0.0004484064357705986,-0.021539440440247914
435,0.0436,47.0899,731.817,-0.00139631,185.873,-0.785484,-2.92023,-0.0148324,0.0379848,-0.0218256,0.0329227,-0.000115572,-0.000449825,0.0400815,-0.014722941799307887,0.03347064887242457,-0.00011556532181367096,0.03871544428375162,-0.00044972384390273845,-0.02158914497416764
436,0.0437,47.1028,732.093,-0.00140205,185.934,-0.786109,-2.92249,-0.014867,0.0380701,-0.0218763,0.0329968,-0.000115913,-0.000451144,0.0401787,-0.014757031795761266,0.03354723188487174,-0.00011590628234781075,0.0388040504901499,-0.00045104224984748864,-0.021638749147041114
437,0.0438,47.1157,732.37,-0.00140788,185.995,-0.786732,-2.92475,-0.0149015,0.0381554,-0.0219271,0.0330709,-0.000116253,-0.000452463,0.0402759,-0.014791022091828365,0.033623820572330265,-0.0001162462428818678,0.03889266425498006,-0.0004523606540532965,-0.02168844863620667
438,0.0439,47.1285,732.645,-0.00141353,186.056,-0.787354,-2.92699,-0.0149361,0.0382407,-0.0219778,0.033145,-0.000116594,-0.000453782,0.040373,-0.014825109732744424,0.03370041493522069,-0.00011658720318374893,0.038981285578886915,-0.00045367905652016205,-0.021738047774512048
439,0.044,47.1413,732.92,-0.00141931,186.117,-0.787973,-2.92923,-0.0149707,0.038326,-0.0220285,0.0332191,-0.000116935,-0.000455102,0.0404701,-0.01485919619424847,0.03377701497396379,-0.00011692816336938971,0.03906991446251484,-0.00045499845679297657,-0.02178764439820491
440,0.0441,47.1541,733.195,-0.00142507,186.177,-0.788591,-2.93147,-0.0150052,0.0384113,-0.0220793,0.0332932,-0.000117276,-0.000456422,0.0405673,-0.014893182965704632,0.033853620688980124,-0.00011726912343867912,0.039158550906509104,-0.00045631785532418423,-0.021837336323683898
441,0.0442,47.1669,733.469,-0.00143084,186.238,-0.789207,-2.93369,-0.0150398,0.0384966,-0.02213,0.0333672,-0.000117617,-0.000457742,0.0406644,-0.014927267071915495,0.03393012868767209,-0.0001176100833918392,0.039247194911514516,-0.00045763725211378503,-0.021886927913574827
442,0.0443,47.1796,733.743,-0.00143661,186.298,-0.789821,-2.93591,-0.0150743,0.0385819,-0.0221807,0.0334413,-0.000117958,-0.000459063,0.0407615,-0.014961251494966854,0.03400674574883489,-0.00011795104322864791,0.039335846478175895,-0.0004589576467028955,-0.021936516989235932
443,0.0444,47.1923,734.016,-0.00144239,186.358,-0.790433,-2.93812,-0.0151088,0.0386671,-0.0222314,0.0335154,-0.000118299,-0.000460384,0.0408587,-0.014995234745575847,0.03408336848753235,-0.00011829200294921627,0.03942440166469341,-0.0004602780395477346,-0.021986103550794556
444,0.0445,47.205,734.288,-0.00144818,186.418,-0.791043,-2.94033,-0.0151434,0.0387524,-0.0222822,0.0335894,-0.00011864,-0.000461706,0.0409558,-0.015029315320856274,0.034159893488190374,-0.00011863296255354427,0.0395130683477356,-0.0004615994301867543,-0.022035785394804663
445,0.0446,47.2177,734.56,-0.00145397,186.478,-0.791652,-2.94253,-0.0151779,0.0388377,-0.0223329,0.0336634,-0.000118981,-0.000463027,0.0410529,-0.015063296223303824,0.034236424151908196,-0.00011897392204152091,0.03960174259436844,-0.00046291981954171835,-0.02208536692358276
446,0.0447,47.2303,734.831,-0.00145977,186.538,-0.792259,-2.94472,-0.0152125,0.0389229,-0.0223836,0.0337375,-0.000119323,-0.00046435,0.04115,-0.015097374443697853,0.034313063910405894,-0.00011931588129399096,0.03969032043620002,-0.00046424220622409695,-0.02213494593864107
447,0.0448,47.2429,735.102,-0.00146558,186.597,-0.792864,-2.94691,-0.015247,0.0390082,-0.0224343,0.0338115,-0.000119664,-0.000465672,0.041247,-0.015131352998146164,0.034389605909154186,-0.00011965684054915382,0.03977900980308102,-0.0004655635916224199,-0.022184522440107046
448,0.0449,47.2554,735.373,-0.00147139,186.657,-0.793467,-2.94909,-0.0152815,0.0390934,-0.022485,0.0338855,-0.000120006,-0.000466995,0.0413441,-0.015165330380354503,0.03446615357222016,-0.00011999879956803294,0.03986760274872214,-0.00046688597480704086,-0.02223409642810814
449,0.045,47.2679,735.642,-0.00147721,186.716,-0.794069,-2.95126,-0.0153161,0.0391786,-0.0225357,0.0339595,-0.000120348,-0.000468318,0.0414412,-0.01519940507042783,0.03454270690002259,-0.00012034075847000558,0.0399562032428038,-0.0004682083562421724,-0.02228366790277181
450,0.0451,47.2804,735.912,-0.00148303,186.775,-0.794668,-2.95343,-0.0153506,0.0392638,-0.0225864,0.0340335,-0.000120689,-0.000469641,0.0415383,-0.015233380104880179,0.034619265892981144,-0.00012068171737567024,0.04004481128596904,-0.00046953073592770345,-0.02233323686422528
451,0.0452,47.2929,736.181,-0.00148886,186.835,-0.795266,-2.95559,-0.0153851,0.039349,-0.022637,0.0341075,-0.000121031,-0.000470965,0.0416353,-0.015267353967214015,0.034695830551514595,-0.00012102367604405195,0.040133426878861345,-0.0004708541133929822,-0.02238270555087163
452,0.0453,47.3054,736.449,-0.0014947,186.894,-0.795862,-2.95774,-0.0154196,0.0394342,-0.0226877,0.0341814,-0.000121373,-0.000472289,0.0417324,-0.01530132665746986,0.034772297398807606,-0.00012136563459541616,0.040222050022123534,-0.000472177489106107,-0.02243226949124366
453,0.0454,47.3178,736.717,-0.00150054,186.952,-0.796457,-2.95989,-0.0154542,0.0395194,-0.0227384,0.0342554,-0.000121715,-0.000473613,0.0418294,-0.015335396642153443,0.03484887338209153,-0.00012170759302987388,0.04031068071639954,-0.0004735008630669668,-0.02248183091878775
454,0.0455,47.3301,736.984,-0.00150639,187.011,-0.797049,-2.96203,-0.0154887,0.0396046,-0.0227891,0.0343294,-0.000122057,-0.000474938,0.0419265,-0.015369366984977484,0.034925455032207786,-0.00012204955134742512,0.040399318962332176,-0.000474825234800913,-0.02253138983363101
455,0.0456,47.3425,737.251,-0.00151224,187.07,-0.79764,-2.96416,-0.0155232,0.0396898,-0.0228397,0.0344033,-0.0001224,-0.000476263,0.0420235,-0.015403336155844882,0.03500193884937697,-0.000122392509425584,0.040487964760565154,-0.00047614960478015167,-0.02258084849399078
456,0.0457,47.3548,737.517,-0.0015181,187.128,-0.79823,-2.96629,-0.0155577,0.039775,-0.0228904,0.0344772,-0.000122742,-0.000477588,0.0421205,-0.015437304154796161,0.03507842831890895,-0.00012273446750887818,0.04057661811174196,-0.0004774739730044608,-0.022630402388770232
457,0.0458,47.3671,737.783,-0.00152396,187.187,-0.798817,-2.96841,-0.0155922,0.0398601,-0.0229411,0.0345512,-0.000123084,-0.000478913,0.0422176,-0.015471270981871732,0.03515502695671935,-0.00012307642547526587,0.04066517494998312,-0.0004787983394740625,-0.022679953771231
458,0.0459,47.3794,738.048,-0.00152984,187.245,-0.799403,-2.97052,-0.0156267,0.0399453,-0.0229917,0.0346251,-0.000123427,-0.000480239,0.0423146,-0.015505236637111897,0.035231527739880475,-0.000123419383201262,0.040753843400111345,-0.0004801237037087569,-0.02272940491444575
459,0.046,47.3916,738.313,-0.00153571,187.303,-0.799987,-2.97263,-0.0156612,0.0400304,-0.0230424,0.034699,-0.000123769,-0.000481565,0.0424116,-0.015539201120557178,0.03530803417665851,-0.00012376134093328162,0.04084241532086641,-0.0004814490661859683,-0.022778951277605652
460,0.0461,47.4039,738.577,-0.00154159,187.361,-0.800569,-2.97473,-0.0156958,0.0401156,-0.023093,0.0347729,-0.000124112,-0.000482892,0.0425086,-0.015573262874926663,0.03538454626747112,-0.00012410429842435455,0.040931098872517335,-0.0004827754264230544,-0.022828397411673196
461,0.0462,47.416,738.841,-0.00154748,187.419,-0.80115,-2.97683,-0.0157303,0.0402007,-0.0231437,0.0348468,-0.000124455,-0.000484219,0.0426056,-0.015607225011507242,0.03546106401273619,-0.00012444725579774385,0.04101968587835514,-0.0004841017848999929,-0.022877938756040828
462,0.0463,47.4282,739.104,-0.00155338,187.477,-0.801729,-2.97892,-0.0157648,0.0402859,-0.0231943,0.0349207,-0.000124798,-0.000485546,0.0427026,-0.015641185976414396,0.035537587412871385,-0.00012479021305356053,0.04110838453410093,-0.00048542814161689485,-0.022927379881468646
463,0.0464,47.4403,739.367,-0.00155928,187.535,-0.802306,-2.981,-0.0157993,0.040371,-0.0232449,0.0349945,-0.00012514,-0.000486873,0.0427995,-0.015675145769688426,0.03561401290688848,-0.00012513217031684398,0.041196986627590526,-0.00048675449657376024,-0.022976818505238916
464,0.0465,47.4524,739.629,-0.00156518,187.592,-0.802882,-2.98308,-0.0158338,0.0404561,-0.0232956,0.0350684,-0.000125483,-0.0004882,0.0428965,-0.015709104391369744,0.03569054761036483,-0.00012547512733762645,0.041285596261438906,-0.00048808084977047805,-0.023026352324847843
465,0.0466,47.4645,739.891,-0.00157109,187.65,-0.803456,-2.98515,-0.0158683,0.0405412,-0.0233462,0.0351422,-0.000125826,-0.000489528,0.0429935,-0.015743061841498873,0.03576698439326109,-0.0001258180842408363,0.041374213436288,-0.0004894082007177447,-0.023075785940739113
466,0.0467,47.4766,740.152,-0.00157701,187.707,-0.804028,-2.98722,-0.0159028,0.0406263,-0.0233968,0.0352161,-0.000126169,-0.000490856,0.0430904,-0.015777018120116115,0.035843530401747925,-0.00012616104102647352,0.041462838152779735,-0.0004907355499023103,-0.023125217055352754
467,0.0468,47.4886,740.413,-0.00158293,187.764,-0.804599,-2.98927,-0.0159372,0.0407114,-0.0234475,0.0352899,-0.000126513,-0.000492185,0.0431874,-0.015810874808354414,0.035919978475190906,-0.00012650499756794442,0.0415514704115556,-0.0004920638968320956,-0.02317474335134584
468,0.0469,47.5006,740.673,-0.00158886,187.822,-0.805168,-2.99133,-0.0159717,0.0407965,-0.0234981,0.0353637,-0.000126856,-0.000493514,0.0432843,-0.015844828747464734,0.03599643219070958,-0.0001268479541178813,0.04164011021325775,-0.0004933922419965153,-0.023224169458841204
469,0.047,47.5126,740.933,-0.0015948,187.879,-0.805735,-2.99337,-0.0160062,0.0408815,-0.0235487,0.0354376,-0.000127199,-0.000494843,0.0433813,-0.015878781515184293,0.03607299515601525,-0.00012719091055024556,0.041728653385657344,-0.0004947205853954584,-0.023273593065438858
470,0.0471,47.5245,741.193,-0.00160073,187.935,-0.806301,-2.99541,-0.0160407,0.0409666,-0.0235993,0.0355114,-0.000127543,-0.000496172,0.0434782,-0.015912733111553612,0.03614946016458198,-0.00012753486673733327,0.04181730826627206,-0.0004960489270291468,-0.023323014171265144
471,0.0472,47.5364,741.452,-0.00160668,187.992,-0.806865,-2.99745,-0.0160752,0.0410517,-0.0236499,0.0355852,-0.000127886,-0.000497502,0.0435751,-0.015946683536613104,0.036225930816474516,-0.0001278778229341082,0.04190597069173818,-0.0004973782664000614,-0.02337243277644685
472,0.0473,47.5483,741.71,-0.00161263,188.049,-0.807427,-2.99948,-0.0161097,0.0411367,-0.0237005,0.0356589,-0.00012823,-0.000498831,0.0436721,-0.01598063279040307,0.03630230348187369,-0.00012822177888494046,0.04199453646323903,-0.0004987066045016864,-0.02342184888111043
473,0.0474,47.5602,741.968,-0.00161859,188.105,-0.807988,-3.0015,-0.0161441,0.0412218,-0.0237511,0.0357327,-0.000128573,-0.000500161,0.043769,-0.01601448247441717,0.03637878541401918,-0.00012856473484601505,0.04208321397146664,-0.0005000359403378729,-0.023471262485382227
474,0.0475,47.572,742.226,-0.00162455,188.162,-0.808547,-3.00352,-0.0161786,0.0413068,-0.0238017,0.0358065,-0.000128917,-0.000501492,0.0438659,-0.01604842938918416,0.036455272990739696,-0.00012890869056059184,0.042171794809286345,-0.0005013662739047353,-0.02352067358938903
475,0.0476,47.5838,742.483,-0.00163051,188.218,-0.809104,-3.00553,-0.0162131,0.0413918,-0.0238523,0.0358802,-0.000129261,-0.000502822,0.0439628,-0.016082375132802862,0.0365316625592802,-0.00012925264615692988,0.04226038317679737,-0.0005026956062035293,-0.02357008219325718
476,0.0477,47.5956,742.739,-0.00163649,188.274,-0.80966,-3.00753,-0.0162476,0.0414769,-0.0239028,0.035954,-0.000129605,-0.000504153,0.0440597,-0.016116319705313464,0.03660816141875012,-0.00012959660163480713,0.04234908330954301,-0.0005040259362303345,-0.02361939065905716
477,0.0478,47.6074,742.995,-0.00164246,188.331,-0.810215,-3.00953,-0.016282,0.0415619,-0.0239534,0.0360277,-0.000129949,-0.000505484,0.0441565,-0.016150164721777993,0.03668456225558314,-0.00012994055699444562,0.04243768674721693,-0.0005053562644865561,-0.023668794267967974
478,0.0479,47.6191,743.251,-0.00164845,188.387,-0.810767,-3.01152,-0.0163165,0.0416469,-0.024004,0.0361015,-0.000130293,-0.000506816,0.0442534,-0.01618410695558825,0.03676107239946713,-0.00013028451223573434,0.04252629771650329,-0.000506687590465349,-0.02371819537711939
479,0.048,47.6308,743.506,-0.00165444,188.442,-0.811318,-3.01351,-0.016351,0.0417319,-0.0240546,0.0361752,-0.000130637,-0.000508148,0.0443503,-0.016218048018411535,0.03683748450625446,-0.00013062846735867328,0.042614916218042254,-0.0005080189146707825,-0.02376759398663797
480,0.0481,47.6425,743.761,-0.00166043,188.498,-0.811868,-3.01549,-0.0163854,0.0418169,-0.0241051,0.0362489,-0.000130981,-0.000509479,0.0444471,-0.01625188953548229,0.03691390224482172,-0.00013097242236337348,0.04270354225247375,-0.0005093492376122555,-0.023816892478344287
481,0.0482,47.6542,744.015,-0.00166643,188.554,-0.812416,-3.01746,-0.0164199,0.0419019,-0.0241557,0.0363226,-0.000131325,-0.000510812,0.044544,-0.016285828259846924,0.036990325615583686,-0.00013131637724961287,0.042792175820438594,-0.000510681557761794,-0.023866286093915834
482,0.0483,47.6658,744.269,-0.00167244,188.609,-0.812962,-3.01943,-0.0164544,0.0419869,-0.0242062,0.0363963,-0.00013167,-0.000512144,0.0446408,-0.01631976581334582,0.03706675461895581,-0.0001316613318860238,0.042880816922576726,-0.0005120128766472609,-0.023915579601796577
483,0.0484,47.6774,744.522,-0.00167845,188.665,-0.813507,-3.0214,-0.0164888,0.0420718,-0.0242568,0.03647,-0.000132014,-0.000513477,0.0447377,-0.016353603831384622,0.03714318925535287,-0.0001320052865353416,0.042969361262587435,-0.0005133451932460842,-0.02396496822392602
484,0.0485,47.689,744.775,-0.00168446,188.72,-0.81405,-3.02336,-0.0165233,0.0421568,-0.0243074,0.0365436,-0.000132359,-0.00051481,0.0448345,-0.016387539046666566,0.03721952580323262,-0.0001323502409340538,0.04305801742612836,-0.0005146775080689947,-0.024014354347054456
485,0.0486,47.7005,745.028,-0.00169048,188.776,-0.814592,-3.02531,-0.0165577,0.0422417,-0.0243579,0.0366173,-0.000132703,-0.000516143,0.0449313,-0.01642137473334626,0.037295971699280894,-0.00013269419534633897,0.04314657681110057,-0.0005160098211158815,-0.024063640377677165
486,0.0487,47.7121,745.28,-0.00169651,188.831,-0.815132,-3.02725,-0.0165922,0.0423267,-0.0244084,0.036691,-0.000133048,-0.000517476,0.0450282,-0.016455307610572456,0.03737242322959955,-0.0001330391495073524,0.04323524803860335,-0.0005173421323868554,-0.024112923919418217
487,0.0488,47.7236,745.531,-0.00170254,188.886,-0.81567,-3.02919,-0.0166266,0.0424116,-0.024459,0.0367646,-0.000133392,-0.00051881,0.045125,-0.016489140966053584,0.03744877664972068,-0.000133383103682716,0.04332382247109323,-0.0005186754413630812,-0.024162302556177795
488,0.0489,47.735,745.782,-0.00170858,188.941,-0.816208,-3.03113,-0.0166611,0.0424966,-0.0245095,0.0368383,-0.000133737,-0.000520144,0.0452218,-0.016523071505385123,0.037525239442179004,-0.00013372805760603068,0.043412508765117375,-0.0005200087485607297,-0.02421158111560462
489,0.049,47.7465,746.033,-0.00171462,188.995,-0.816743,-3.03306,-0.0166955,0.0425815,-0.02456,0.0369119,-0.000134082,-0.000521478,0.0453186,-0.016556902529828332,0.03760160410998714,-0.00013407301141032946,0.043501098247682,-0.0005213420539796898,-0.02426085718652704
490,0.0491,47.7579,746.283,-0.00172067,189.05,-0.817277,-3.03498,-0.0167299,0.0426664,-0.0246106,0.0369855,-0.000134427,-0.000522812,0.0454154,-0.016590732390504348,0.037677974398441894,-0.00013441796509572335,0.043589695251812666,-0.0005226753576200727,-0.024310228338052742
491,0.0492,47.7693,746.533,-0.00172672,189.105,-0.817809,-3.0369,-0.0167644,0.0427513,-0.0246611,0.0370591,-0.000134772,-0.000524147,0.0455122,-0.01662465942499214,0.037754350307956486,-0.0001347629186619903,0.04367829977814863,-0.0005240096589578247,-0.02435949942741622
492,0.0493,47.7807,746.783,-0.00173278,189.159,-0.81834,-3.03881,-0.0167988,0.0428362,-0.0247116,0.0371327,-0.000135117,-0.000525482,0.0456089,-0.016658486954871154,0.03783073183894503,-0.00013510787210924136,0.04376691182732806,-0.0005253439585143349,-0.02440876802865244
493,0.0494,47.7921,747.031,-0.00173884,189.214,-0.81887,-3.04072,-0.0168333,0.0429211,-0.0247621,0.0372063,-0.000135462,-0.000526817,0.0457057,-0.016692411651866745,0.0379071189918212,-0.00013545282543758752,0.04385553139998977,-0.0005266782562894923,-0.024458034141887186
494,0.0495,47.8034,747.28,-0.00174491,189.268,-0.819397,-3.04262,-0.0168677,0.043006,-0.0248126,0.0372799,-0.000135807,-0.000528152,0.0458025,-0.01672623685110919,0.03798351176699866,-0.00013579777864680675,0.04394415849677258,-0.0005280125522834078,-0.024507297767246028
495,0.0496,47.8147,747.528,-0.00175098,189.322,-0.819924,-3.04451,-0.0169021,0.0430909,-0.0248631,0.0373535,-0.000136152,-0.000529488,0.0458992,-0.016760060886784722,0.0380599101648913,-0.0001361427317371211,0.044032793118315317,-0.0005293478459666989,-0.02455655890485453
496,0.0497,47.826,747.776,-0.00175706,189.376,-0.820448,-3.0464,-0.0169365,0.0431758,-0.0249136,0.037427,-0.000136497,-0.000530824,0.045996,-0.016793883758933537,0.03813621037228665,-0.00013648768470830852,0.044121435265257025,-0.0005306831378659727,-0.024605817554838483
497,0.0498,47.8373,748.023,-0.00176314,189.43,-0.820972,-3.04829,-0.016971,0.0432607,-0.0249641,0.0375006,-0.000136843,-0.00053216,0.0460927,-0.016827803784820072,0.03821262000921011,-0.0001368336374237833,0.04421008493823653,-0.00053201842798134,-0.02465507371732345
498,0.0499,47.8485,748.27,-0.00176923,189.484,-0.821494,-3.05016,-0.0170054,0.0433455,-0.0250146,0.0375741,-0.000137188,-0.000533496,0.0461894,-0.01686162432665317,0.03828893144119161,-0.00013717859015660583,0.04429863770802367,-0.00053335371631269,-0.02470432739243489
499,0.05,47.8597,748.516,-0.00177532,189.538,-0.822014,-3.05204,-0.0170398,0.0434304,-0.0250651,0.0376477,-0.000137533,-0.000534832,0.0462862,-0.01689544370507967,0.03836535231879945,-0.00013752354277052348,0.04438730242612898,-0.0005346890028601337,-0.024753578580298696
500,0.0501,47.8709,748.762,-0.00178142,189.592,-0.822533,-3.05391,-0.0170742,0.0435152,-0.0251156,0.0377212,-0.000137879,-0.000536169,0.0463829,-0.01692926192013966,0.038441674977018225,-0.00013786949512750724,0.044475870224596425,-0.000536025287087627,-0.02480282728104022
501,0.0502,47.8821,749.007,-0.00178752,189.645,-0.82305,-3.05577,-0.0171087,0.0436,-0.025166,0.0377947,-0.000138224,-0.000537506,0.0464796,-0.01696317727556018,0.03851800324515864,-0.00013821444750306,0.04456444553393135,-0.0005373615695285494,-0.02485197597998756
502,0.0503,47.8932,749.252,-0.00179363,189.699,-0.823566,-3.05762,-0.0171431,0.0436849,-0.0252165,0.0378682,-0.00013857,-0.000538843,0.0465763,-0.016996993160625307,0.038594337123632805,-0.00013856039962101274,0.04465313282007921,-0.0005386978501827899,-0.024901219711785938
503,0.0504,47.9043,749.497,-0.00179975,189.752,-0.82408,-3.05948,-0.0171775,0.0437697,-0.025267,0.0379417,-0.000138916,-0.00054018,0.046673,-0.017030807882444043,0.03867067661285328,-0.00013890635161928344,0.04474172316191982,-0.0005400341290504596,-0.024950460956838616
504,0.0505,47.9154,749.741,-0.00180586,189.805,-0.824593,-3.06132,-0.0172119,0.0438545,-0.0253175,0.0380152,-0.000139261,-0.000541518,0.0467697,-0.01706462144105636,0.03874702171323241,-0.00013925130363701133,0.04483032101653994,-0.0005413714055901853,-0.024999699715271162
505,0.0506,47.9265,749.985,-0.00181199,189.858,-0.825105,-3.06316,-0.0172463,0.0439393,-0.0253679,0.0380887,-0.000139607,-0.000542855,0.0468664,-0.017098433836502225,0.03882337242518252,-0.000139597255396251,0.04491892638457662,-0.0005427076808833808,-0.025048838492097936
506,0.0507,47.9376,750.228,-0.00181812,189.911,-0.825615,-3.065,-0.0172807,0.0440241,-0.0254184,0.0381622,-0.000139953,-0.000544193,0.0469631,-0.017132245068821716,0.0388997287491164,-0.00013994320703569763,0.04500753926666712,-0.0005440449538458569,-0.025098072282590422
507,0.0508,47.9486,750.471,-0.00182425,189.964,-0.826123,-3.06683,-0.0173151,0.0441089,-0.0254688,0.0382356,-0.000140299,-0.000545531,0.0470597,-0.017166055138054803,0.03897598678784231,-0.00014028915855557322,0.04509615966344871,-0.0005453822250189866,-0.025147206101564734
508,0.0509,47.9596,750.714,-0.00183039,190.017,-0.826631,-3.06865,-0.0173495,0.0441937,-0.0255193,0.0383091,-0.000140645,-0.00054687,0.0471564,-0.017199864044241564,0.03905235432934395,-0.00014063510995565576,0.04518478757555844,-0.0005467204938562897,-0.025196434924618316
509,0.051,47.9706,750.956,-0.00183653,190.07,-0.827136,-3.07047,-0.0173839,0.0442785,-0.0255697,0.0383825,-0.000140991,-0.000548208,0.047253,-0.017233671787421856,0.03912862357119873,-0.00014098106123605625,0.04527342300363402,-0.0005480577614496163,-0.025245563786240433
510,0.0511,47.9815,751.198,-0.00184268,190.123,-0.827641,-3.07228,-0.0174183,0.0443633,-0.0256202,0.038456,-0.000141337,-0.000549547,0.0473497,-0.01726747836763587,0.03920500233191615,-0.0001413270123967747,0.04536206594831227,-0.0005493960267043407,-0.025294787642356376
511,0.0512,47.9925,751.439,-0.00184883,190.175,-0.828143,-3.07409,-0.0174527,0.044448,-0.0256706,0.0385294,-0.000141683,-0.000550886,0.0474463,-0.01730128378492357,0.03928128277854559,-0.0001416729634378111,0.04545061186516475,-0.0005507342901670542,-0.025343911547126452
512,0.0513,48.0034,751.68,-0.00185499,190.228,-0.828645,-3.07589,-0.0174871,0.0445328,-0.025721,0.0386028,-0.00014203,-0.000552225,0.047543,-0.01733508803932482,0.03935756882436503,-0.00014201991421702864,0.04553926983609591,-0.0005520725518378677,-0.02539303297611406
513,0.0514,48.0143,751.921,-0.00186115,190.28,-0.829145,-3.07769,-0.0175215,0.0446175,-0.0257715,0.0386762,-0.000142376,-0.000553564,0.0476396,-0.017368891130879804,0.03943386046978592,-0.00014236586501825688,0.04562783076275334,-0.0005534108117167813,-0.02544224938522399
514,0.0515,48.0251,752.161,-0.00186732,190.333,-0.829643,-3.07949,-0.0175559,0.0447023,-0.0258219,0.0387496,-0.000142722,-0.000554904,0.0477362,-0.017402693059628382,0.03951015771521904,-0.0001427118156999141,0.04571650376248404,-0.0005547500692489882,-0.025491365858109405
515,0.0516,48.036,752.4,-0.00187349,190.385,-0.83014,-3.08127,-0.0175902,0.044787,-0.0258723,0.038823,-0.000143068,-0.000556244,0.0478328,-0.017436395569255025,0.03958646056107562,-0.00014305776626177824,0.045805079701490836,-0.0005560893249866306,-0.02554047985558705
516,0.0517,48.0468,752.64,-0.00187967,190.437,-0.830636,-3.08305,-0.0176246,0.0448717,-0.0259227,0.0388964,-0.000143415,-0.000557584,0.0479294,-0.01747019517589088,0.03966276900776644,-0.00014340471656049125,0.045893663143197205,-0.0005574285789295974,-0.025589591377781495
517,0.0518,48.0576,752.879,-0.00188585,190.489,-0.83113,-3.08483,-0.017659,0.0449564,-0.0259731,0.0389698,-0.000143761,-0.000558924,0.048026,-0.01750399361984034,0.03973908305570295,-0.00014375066688265825,0.04598225408823908,-0.0005587678310779998,-0.02563870042481775
518,0.0519,48.0684,753.117,-0.00189203,190.541,-0.831623,-3.0866,-0.0176934,0.0450412,-0.0260235,0.0390432,-0.000144108,-0.000560264,0.0481226,-0.017537790901143158,0.039815402705296155,-0.00014409761694089696,0.04607095714434206,-0.0005601070814318376,-0.025687806996820273
519,0.052,48.0791,753.355,-0.00189822,190.593,-0.832115,-3.08837,-0.0177278,0.0451259,-0.0260739,0.0391165,-0.000144455,-0.000561605,0.0482192,-0.01757158701983963,0.03989162396778956,-0.0001444445668788985,0.0461595631068219,-0.0005614473294295319,-0.025736911093914072
520,0.0521,48.0899,753.593,-0.00190442,190.644,-0.832605,-3.09013,-0.0177621,0.0452106,-0.0261243,0.0391899,-0.000144801,-0.000562945,0.0483158,-0.01760528373650283,0.0399679548142966,-0.00014479051684124222,0.046248176574544386,-0.0005627865761927975,-0.025786012716223605
521,0.0522,48.1006,753.83,-0.00191062,190.696,-0.833094,-3.09189,-0.0177965,0.0452953,-0.0261747,0.0392632,-0.000145148,-0.000564286,0.0484123,-0.017639077533485703,0.04004418725926939,-0.00014513746653865844,0.04633679754814546,-0.000564126820597366,-0.025835111863873772
522,0.0523,48.1112,754.067,-0.00191682,190.748,-0.833581,-3.09364,-0.0178309,0.0453799,-0.0262251,0.0393365,-0.000145495,-0.000565627,0.0485089,-0.017672870167981913,0.04012042529228532,-0.0001454844161158375,0.04642532138572353,-0.0005654670632047054,-0.02588420853698936
523,0.0524,48.1219,754.304,-0.00192303,190.799,-0.834067,-3.09539,-0.0178652,0.0454646,-0.0262755,0.0394098,-0.000145841,-0.000566968,0.0486054,-0.017706563410692655,0.04019666891375384,-0.00014583036571835795,0.04651395736412556,-0.0005668073040147048,-0.02593330273569483
524,0.0525,48.1326,754.54,-0.00192925,190.85,-0.834551,-3.09713,-0.0178996,0.0455493,-0.0263259,0.0394831,-0.000146188,-0.00056831,0.048702,-0.01774035372371463,0.04027291812408462,-0.00014617731505495168,0.04660260085031309,-0.0005681485424593458,-0.025982394460115077
525,0.0526,48.1432,754.776,-0.00193547,190.902,-0.835035,-3.09886,-0.017934,0.0456339,-0.0263763,0.0395564,-0.000146535,-0.000569651,0.0487985,-0.017774142874369847,0.04034917292368734,-0.00014652426427130827,0.046691147175801806,-0.0005694887796735548,-0.02603148371037478
526,0.0527,48.1538,755.011,-0.00194169,190.953,-0.835516,-3.10059,-0.0179683,0.0457186,-0.0264266,0.0396297,-0.000146882,-0.000570993,0.0488951,-0.0178078326434864,0.04042543331297188,-0.00014687121336720566,0.04677980567060169,-0.0005708300145196299,-0.02608047309465089
527,0.0528,48.1644,755.246,-0.00194792,191.004,-0.835997,-3.10232,-0.0180027,0.0458032,-0.026477,0.039703,-0.000147229,-0.000572335,0.0489916,-0.017841619472906634,0.040501699292347704,-0.00014721816234264384,0.046868366988252363,-0.0005721712475658114,-0.02612955740187195
528,0.0529,48.1749,755.481,-0.00195415,191.055,-0.836476,-3.10404,-0.018037,0.0458879,-0.0265274,0.0397763,-0.000147576,-0.000573677,0.0490881,-0.01787530692761563,0.0405779708622247,-0.00014756511119773386,0.04695704049420635,-0.0005735124788119883,-0.026178639235306278
529,0.053,48.1855,755.715,-0.00196039,191.106,-0.836954,-3.10576,-0.0180714,0.0459725,-0.0265777,0.0398496,-0.000147923,-0.000575019,0.0491846,-0.017909091435960423,0.04065424802301276,-0.0001479120599324757,0.04704561680655717,-0.0005748537082582716,-0.02622762121784561
530,0.0531,48.196,755.949,-0.00196663,191.157,-0.83743,-3.10747,-0.0181057,0.0460571,-0.0266281,0.0399228,-0.00014827,-0.000576362,0.0492811,-0.017942776576420738,0.04073042670207361,-0.00014825900854675833,0.047134200612781285,-0.0005761959353284274,-0.02627669810898814
531,0.0532,48.2065,756.182,-0.00197287,191.207,-0.837905,-3.10917,-0.0181401,0.0461417,-0.0266784,0.0399961,-0.000148618,-0.000577704,0.0493776,-0.017976558763849515,0.04080671503828426,-0.00014860695689211667,0.047222791913512197,-0.0005775371611735913,-0.026325675159290185
532,0.0533,48.217,756.415,-0.00197912,191.258,-0.838379,-3.11087,-0.0181744,0.0462264,-0.0267288,0.0400693,-0.000148965,-0.000579047,0.0494741,-0.018010241590220133,0.04088290487833923,-0.00014895390526525887,0.047311495440528706,-0.0005788793846398521,-0.02637474710863863
533,0.0534,48.2274,756.648,-0.00198538,191.308,-0.838851,-3.11257,-0.0182088,0.046311,-0.0267791,0.0401425,-0.000149312,-0.00058039,0.0495706,-0.018044021456892434,0.040959100295694606,-0.0001493008535180529,0.04740010174103659,-0.0005802216063035548,-0.026423719227199882
534,0.0535,48.2378,756.88,-0.00199164,191.359,-0.839322,-3.11426,-0.0182431,0.0463955,-0.0268295,0.0402157,-0.00014966,-0.000581733,0.0496671,-0.018077701969332338,0.0410353012907585,-0.0001496488015008124,0.04748861078908839,-0.0005815638261645883,-0.026472786235251844
535,0.0536,48.2483,757.112,-0.0019979,191.409,-0.839792,-3.11595,-0.0182775,0.0464801,-0.0268798,0.040289,-0.000150007,-0.000583076,0.0497635,-0.01811147951540748,0.04111161197509561,-0.000149995749512577,0.047577232074188514,-0.0005829060442230638,-0.026521753422569128
536,0.0537,48.2586,757.344,-0.00200417,191.459,-0.84026,-3.11763,-0.0183118,0.0465647,-0.0269301,0.0403622,-0.000150354,-0.00058442,0.04986,-0.018145157714075655,0.041187824134423234,-0.00015034269740377137,0.04766586085696667,-0.0005842492598947535,-0.02657071814689882
537,0.0538,48.269,757.575,-0.00201044,191.51,-0.840727,-3.1193,-0.0183461,0.0466493,-0.0269805,0.0404353,-0.000150702,-0.000585763,0.0499564,-0.018178834757601514,0.041263937746286006,-0.00015069064502404306,0.04775449713805702,-0.0005855914743466695,-0.026619777746392015
538,0.0539,48.2794,757.806,-0.00201672,191.56,-0.841193,-3.12098,-0.0183805,0.0467338,-0.0270308,0.0405085,-0.000151049,-0.000587107,0.0500529,-0.018212608824768495,0.04134016105626803,-0.00015103759267420802,0.047843036133785155,-0.0005869346864091352,-0.026668737540222143
539,0.054,48.2897,758.036,-0.002023,191.61,-0.841658,-3.12264,-0.0184148,0.0468184,-0.0270811,0.0405817,-0.000151397,-0.000588451,0.0501493,-0.01824628355476099,0.04141638994600072,-0.0001513855400525621,0.047931687404537904,-0.0005882778966662672,-0.026717694871436715
540,0.0541,48.3,758.266,-0.00202929,191.66,-0.842121,-3.1243,-0.0184491,0.046903,-0.0271314,0.0406549,-0.000151745,-0.000589795,0.0502457,-0.01827995712972985,0.04149262441589241,-0.00015173348730979086,0.048020346175505546,-0.0005896211051180655,-0.02676664974015941
541,0.0542,48.3103,758.496,-0.00203558,191.709,-0.842582,-3.12596,-0.0184835,0.0469875,-0.0271817,0.040728,-0.000152092,-0.000591139,0.0503422,-0.01831372771834716,0.0415687603094701,-0.00015208043459813414,0.04810890763642628,-0.0005909643117647523,-0.026815602146514128
542,0.0543,48.3206,758.725,-0.00204187,191.759,-0.843043,-3.12761,-0.0185178,0.047072,-0.027232,0.0408012,-0.00015244,-0.000592483,0.0504386,-0.018347398980021024,0.04164500593328069,-0.00015242838161355632,0.048197476581106846,-0.0005923075166059943,-0.02686455209062477
543,0.0544,48.3308,758.954,-0.00204817,191.809,-0.843502,-3.12926,-0.0185521,0.0471566,-0.0272823,0.0408743,-0.000152788,-0.000593828,0.050535,-0.01838106908679038,0.04172115296635459,-0.0001527763285079642,0.04828615783878987,-0.0005936517190484603,-0.02691349957261513
544,0.0545,48.341,759.183,-0.00205447,191.858,-0.84396,-3.1309,-0.0185864,0.0472411,-0.0273326,0.0409474,-0.000153136,-0.000595173,0.0506314,-0.018414738038694867,0.041797305565979936,-0.00015312427528124672,0.04837474176174528,-0.000594995919682928,-0.02696244459260899
545,0.0546,48.3512,759.411,-0.00206078,191.908,-0.844417,-3.13254,-0.0186207,0.0473256,-0.0273829,0.0410206,-0.000153483,-0.000596517,0.0507278,-0.018448405835774118,0.04187356791991559,-0.00015347122208697606,0.04846333317035856,-0.0005963391191057266,-0.02701138715073037
546,0.0547,48.3614,759.639,-0.00206709,191.957,-0.844872,-3.13417,-0.0186551,0.0474101,-0.0274332,0.0410937,-0.000153831,-0.000597862,0.0508242,-0.018482170629855577,0.04194973166148119,-0.00015381916861845202,0.04855193206526187,-0.0005976833161256412,-0.027060327247102944
547,0.0548,48.3716,759.867,-0.00207341,192.007,-0.845326,-3.1358,-0.0186894,0.0474946,-0.0274835,0.0411668,-0.000154179,-0.000599207,0.0509205,-0.01851583611403662,0.04202590097082015,-0.00015416711502880265,0.04864053844708849,-0.0005990275113376686,-0.027109264881850614
548,0.0549,48.3817,760.094,-0.00207973,192.056,-0.845779,-3.13743,-0.0187237,0.0475791,-0.0275338,0.0412399,-0.000154527,-0.000600553,0.0510169,-0.018549500443511335,0.042102075848338805,-0.00015451506131813897,0.04872915231647035,-0.000600372704141261,-0.02715820005509706
549,0.055,48.3919,760.32,-0.00208605,192.105,-0.84623,-3.13904,-0.018758,0.0476636,-0.027584,0.0413129,-0.000154875,-0.000601898,0.0511133,-0.018583163618319354,0.04217815207662445,-0.00015486300748634996,0.04881777367404072,-0.0006017168957360708,-0.02720703548767478
550,0.0551,48.402,760.547,-0.00209238,192.154,-0.84668,-3.14066,-0.0187923,0.047748,-0.0276343,0.041386,-0.000155223,-0.000603243,0.0512096,-0.01861682563850031,0.042254338084105836,-0.00015521095353343561,0.04890629762979737,-0.0006030610855228824,-0.027255965743183452
551,0.0552,48.4121,760.773,-0.00209871,192.203,-0.847129,-3.14227,-0.0188266,0.0478325,-0.0276846,0.0414591,-0.000155571,-0.000604589,0.051306,-0.018650486504093733,0.04233052966098794,-0.00015555889945950696,0.04899493395677901,-0.0006044062728973731,-0.02730489353756227
552,0.0553,48.4221,760.999,-0.00210505,192.252,-0.847577,-3.14387,-0.0188609,0.047917,-0.0277348,0.0415321,-0.000155919,-0.000605935,0.0514023,-0.018684146215139363,0.042406622567010555,-0.00015590684526445298,0.049083577773846976,-0.0006057514584612012,-0.027353721606311887
553,0.0554,48.4322,761.224,-0.00211139,192.301,-0.848023,-3.14547,-0.0188952,0.0480014,-0.0277851,0.0416052,-0.000156268,-0.000607281,0.0514986,-0.018717804771676616,0.04248282527629521,-0.000156255790792037,0.049172124164416076,-0.0006070966422143664,-0.02740264448369434
554,0.0555,48.4422,761.449,-0.00211774,192.349,-0.848468,-3.14707,-0.0189295,0.0480859,-0.0278353,0.0416782,-0.000156616,-0.000608627,0.051595,-0.018751462173745237,0.04255892930030347,-0.0001566037363545103,0.049260782954689164,-0.00060844182415698,-0.027451467645469685
555,0.0556,48.4522,761.674,-0.00212409,192.398,-0.848912,-3.14866,-0.0189638,0.0481703,-0.0278856,0.0417513,-0.000156964,-0.000609973,0.0516913,-0.01878511842138475,0.04263514314361738,-0.00015695168179585828,0.04934934430200677,-0.0006097870042890419,-0.027500385606350042
556,0.0557,48.4622,761.898,-0.00213044,192.446,-0.849355,-3.15025,-0.0189981,0.0482547,-0.0279358,0.0418243,-0.000157312,-0.000611319,0.0517876,-0.01881877351463468,0.042711258287235765,-0.00015729962711619194,0.04943791312421775,-0.000611132182610441,-0.027549203861644167
557,0.0558,48.4722,762.122,-0.0021368,192.495,-0.849796,-3.15183,-0.0190324,0.0483392,-0.0279861,0.0418973,-0.000157661,-0.000612665,0.0518839,-0.01885242745353477,0.04278737898746243,-0.00015764857215772032,0.049526594374606825,-0.0006124773591211774,-0.02759811690651659
558,0.0559,48.4821,762.346,-0.00214316,192.543,-0.850236,-3.1534,-0.0190666,0.0484236,-0.0280363,0.0419703,-0.000158009,-0.000614012,0.0519802,-0.018885982126727652,0.04286350524470328,-0.00015799651723547026,0.049615178157355055,-0.0006138235332074915,-0.027646930255822544
559,0.056,48.4921,762.569,-0.00214953,192.592,-0.850675,-3.15498,-0.0191009,0.048508,-0.0280865,0.0420433,-0.000158357,-0.000615359,0.0520765,-0.018919633760411947,0.042939637059363545,-0.00015834446219209486,0.04970376941689003,-0.0006151697054805894,-0.027695741154759923
560,0.0561,48.502,762.792,-0.0021559,192.64,-0.851113,-3.15654,-0.0191352,0.0485924,-0.0281368,0.0421163,-0.000158706,-0.000616705,0.0521728,-0.018953284239864976,0.04301577443184912,-0.000158693406869026,0.049792368153843025,-0.0006165148765568951,-0.027744646828991804
561,0.0562,48.5119,763.015,-0.00216227,192.688,-0.851549,-3.15811,-0.0191695,0.0486768,-0.028187,0.0421892,-0.000159054,-0.000618052,0.052269,-0.018986933565126263,0.04309181305337928,-0.0001590413515831779,0.049880974368844866,-0.0006178610452046707,-0.02779345282268031
562,0.0563,48.5217,763.237,-0.00216865,192.736,-0.851985,-3.15967,-0.0192038,0.0487612,-0.0282372,0.0422622,-0.000159403,-0.000619399,0.0523653,-0.019020581736235553,0.04316796153511793,-0.00015939029601685917,0.049969588062526826,-0.00061920721203923,-0.02784225636636939
563,0.0564,48.5316,763.459,-0.00217503,192.784,-0.852418,-3.16122,-0.019238,0.0488455,-0.0282874,0.0423352,-0.000159751,-0.000620747,0.0524616,-0.01905413065865036,0.04324411557589869,-0.00015973824048842733,0.05005810422970458,-0.0006205543764399302,-0.027891057460182056
564,0.0565,48.5414,763.68,-0.00218141,192.832,-0.852851,-3.16277,-0.0192723,0.0489299,-0.0283376,0.0424081,-0.0001601,-0.000622094,0.0525578,-0.01908777652493887,0.04332017084410489,-0.00016008718467896976,0.05014673287377769,-0.0006219005396465027,-0.027939856104241323
565,0.0566,48.5513,763.902,-0.0021878,192.88,-0.853283,-3.16432,-0.0193066,0.0490143,-0.0283878,0.0424811,-0.000160449,-0.000623441,0.0526541,-0.01912142123719396,0.04339633599657078,-0.0001604361287476097,0.05023536899842407,-0.000623246701039859,-0.027988652298670202
566,0.0567,48.5611,764.123,-0.0021942,192.927,-0.853713,-3.16586,-0.0193409,0.0490986,-0.028438,0.042554,-0.000160797,-0.000624789,0.0527503,-0.019155064795455146,0.0434724023620503,-0.00016078407285524676,0.0503239075718791,-0.0006245938599952483,-0.028037446043591596
567,0.0568,48.5708,764.343,-0.0022006,192.975,-0.854142,-3.16739,-0.0193751,0.049183,-0.0284882,0.0426269,-0.000161146,-0.000626136,0.0528465,-0.019188609118627964,0.04354847427296993,-0.00016113301668074786,0.050412558650700934,-0.0006259400177607288,-0.028086237339128406
568,0.0569,48.5806,764.563,-0.002207,193.023,-0.85457,-3.16892,-0.0194094,0.0492673,-0.0285384,0.0426998,-0.000161495,-0.000627484,0.0529427,-0.019222250372384453,0.04362455172973401,-0.0001614819603844575,0.05050111216187325,-0.0006272871730855778,-0.028135026185403644
569,0.057,48.5903,764.783,-0.0022134,193.07,-0.854997,-3.17045,-0.0194436,0.0493517,-0.0285886,0.0427727,-0.000161843,-0.000628832,0.053039,-0.019255792397849802,0.04370063473274688,-0.00016182990412816345,0.05058977819739385,-0.000628634326594546,-0.028183812582540324
570,0.0571,48.6001,765.003,-0.00221981,193.118,-0.855422,-3.17197,-0.0194779,0.049436,-0.0286388,0.0428456,-0.000162192,-0.00063018,0.0531352,-0.019289431347259245,0.04377672328241289,-0.00016217884758862322,0.05067834664880366,-0.0006299814782874114,-0.028232596530661347
571,0.0572,48.6098,765.222,-0.00222623,193.165,-0.855846,-3.17349,-0.0195122,0.0495203,-0.028689,0.0429185,-0.000162541,-0.000631528,0.0532314,-0.019323069142872518,0.04385281737913638,-0.00016252779092729153,0.05076692256684856,-0.0006313286281643959,-0.028281378029889725
572,0.0573,48.6195,765.441,-0.00223264,193.212,-0.856269,-3.17501,-0.0195464,0.0496046,-0.0287392,0.0429914,-0.00016289,-0.000632876,0.0533276,-0.019356607720394936,0.04392891702332147,-0.0001628767341442794,0.050855505952158264,-0.0006326757762254998,-0.02833015708034814
573,0.0574,48.6291,765.659,-0.00223906,193.259,-0.856691,-3.17652,-0.0195807,0.0496889,-0.0287893,0.0430643,-0.000163239,-0.000634224,0.0534237,-0.019390243211898084,0.04400502221537317,-0.00016322567723936476,0.05094409680536205,-0.0006340229224706118,-0.028378836520048245
574,0.0575,48.6388,765.878,-0.00224549,193.306,-0.857112,-3.17802,-0.0196149,0.0497732,-0.0288395,0.0431371,-0.000163588,-0.000635573,0.0535199,-0.019423779492106608,0.04408102854758722,-0.0001635746202127697,0.05103269512708941,-0.000635371066264323,-0.028427610678213422
575,0.0576,48.6484,766.096,-0.00225192,193.353,-0.857531,-3.17952,-0.0196492,0.0498575,-0.0288897,0.04321,-0.000163937,-0.000636921,0.0536161,-0.019457412679657504,0.04415714482897326,-0.00016392356306427214,0.05112130091797029,-0.0006367182088761192,-0.028476382387977228
576,0.0577,48.658,766.313,-0.00225835,193.4,-0.85795,-3.18102,-0.0196834,0.0499418,-0.0289398,0.0432828,-0.000164286,-0.00063827,0.0537122,-0.019490946662709563,0.04423316223611673,-0.00016427250579409414,0.051209914178634186,-0.0006380663490339611,-0.028525054501972846
577,0.0578,48.6676,766.53,-0.00226479,193.447,-0.858367,-3.18251,-0.0197176,0.0500261,-0.02899,0.0433556,-0.000164635,-0.000639618,0.0538084,-0.01952447949891889,0.04430918517752902,-0.00016462144840212467,0.05129853490971081,-0.0006394134880125524,-0.028573821320179493
578,0.0579,48.6772,766.747,-0.00227123,193.494,-0.858783,-3.184,-0.0197519,0.0501104,-0.0290401,0.0434285,-0.000164984,-0.000640967,0.0539045,-0.019558109232518883,0.044385318092139636,-0.00016497039088836374,0.05138716311182989,-0.0006407616245344139,-0.028622488552607073
579,0.058,48.6868,766.964,-0.00227767,193.541,-0.859198,-3.18548,-0.0197861,0.0501946,-0.0290903,0.0435013,-0.000165333,-0.000642316,0.0540007,-0.019591639771807667,0.04446135211090141,-0.00016531933325270032,0.051475693638046716,-0.0006421097592377301,-0.028671250479747057
580,0.0581,48.6963,767.18,-0.00228412,193.587,-0.859611,-3.18696,-0.0198204,0.0502789,-0.0291404,0.0435741,-0.000165682,-0.000643665,0.0540968,-0.01962526720184976,0.04453739166514126,-0.00016566827549546748,0.051564336775276276,-0.0006434578921222789,-0.028719912831095984
581,0.0582,48.7058,767.396,-0.00229057,193.634,-0.860024,-3.18844,-0.0198546,0.0503631,-0.0291906,0.0436469,-0.000166031,-0.000645014,0.0541929,-0.01965879544437521,0.04461343675526219,-0.00016601721761633215,0.05165288222014364,-0.0006448060231882824,-0.028768669867660024
582,0.0583,48.7153,767.612,-0.00229702,193.68,-0.860435,-3.18991,-0.0198888,0.0504474,-0.0292407,0.0437197,-0.00016638,-0.000646363,0.0542891,-0.019692322540254437,0.044689487381667226,-0.00016636615961540535,0.05174154029500011,-0.0006461541524356296,-0.028817327338419796
583,0.0584,48.7248,767.827,-0.00230348,193.727,-0.860845,-3.19137,-0.019923,0.0505316,-0.0292908,0.0437925,-0.000166729,-0.000647712,0.0543852,-0.01972584848952652,0.044765543544759145,-0.0001667151014926871,0.051830100661032,-0.0006475022798644314,-0.028865982371501397
584,0.0585,48.7343,768.042,-0.00230995,193.773,-0.861254,-3.19283,-0.0199573,0.0506158,-0.029341,0.0438652,-0.000167079,-0.000649062,0.0544813,-0.019759471316288524,0.0448415007607863,-0.00016706504308117154,0.0519186684841606,-0.0006488514048256233,-0.028914732075558502
585,0.0586,48.7438,768.257,-0.00231641,193.819,-0.861662,-3.19429,-0.0199915,0.0507,-0.0293911,0.043938,-0.000167428,-0.000650411,0.0545774,-0.0197929949691118,0.044917567990855334,-0.0001674139847146483,0.05200724376501409,-0.0006501995286157802,-0.02896338222878503
586,0.0587,48.7532,768.471,-0.00232288,193.865,-0.862068,-3.19575,-0.0200257,0.0507842,-0.0294412,0.0440107,-0.000167777,-0.000651761,0.0546734,-0.019826517475445726,0.04499353625946134,-0.00016776292622622258,0.052095826504219955,-0.0006515486499357737,-0.02901202994469987
587,0.0588,48.7626,768.685,-0.00232936,193.912,-0.862474,-3.19719,-0.0200599,0.0508685,-0.0294913,0.0440835,-0.000168126,-0.00065311,0.0547695,-0.019860038835329608,0.04506961455811753,-0.0001681118676161164,0.052184521920853655,-0.0006528967700872856,-0.02906067522342526
588,0.0589,48.772,768.899,-0.00233583,193.958,-0.862878,-3.19864,-0.0200942,0.0509526,-0.0295414,0.0441562,-0.000168476,-0.00065446,0.0548656,-0.019893657059441683,0.04514559388091066,-0.00016846180871565863,0.05227301436020215,-0.0006542458877660806,-0.029109318065083212
589,0.059,48.7814,769.112,-0.00234231,194.004,-0.863281,-3.20008,-0.0201284,0.0510368,-0.0295915,0.0442289,-0.000168825,-0.00065581,0.0549617,-0.01992717612319095,0.045221578727601575,-0.00016881074986163647,0.05236161947823437,-0.0006555950036234437,-0.029157958469795853
590,0.0591,48.7908,769.325,-0.0023488,194.049,-0.863683,-3.20152,-0.0201626,0.051121,-0.0296416,0.0443017,-0.000169175,-0.00065716,0.0550577,-0.019960694040607962,0.045297673628353685,-0.00016916069071659656,0.05245023205713162,-0.0006569441176594859,-0.029206596437685195
591,0.0592,48.8001,769.538,-0.00235529,194.095,-0.864084,-3.20295,-0.0201968,0.0512052,-0.0296917,0.0443744,-0.000169524,-0.00065851,0.0551538,-0.019994210811731694,0.045373669531644234,-0.0001695096316186584,0.05253885209752229,-0.0006582932298743183,-0.029255231968873474
592,0.0593,48.8095,769.75,-0.00236178,194.141,-0.864484,-3.20438,-0.020231,0.0512894,-0.0297418,0.0444471,-0.000169873,-0.00065986,0.0552498,-0.020027726436601445,0.0454496709600376,-0.00016985857239892876,0.05262747960003433,-0.0006596423402678298,-0.029303865063482593
593,0.0594,48.8188,769.963,-0.00236827,194.187,-0.864883,-3.2058,-0.0202652,0.0513735,-0.0297919,0.0445198,-0.000170223,-0.00066121,0.0553458,-0.020061240915256517,0.04552567791393569,-0.0001702085128871822,0.052716009293690025,-0.0006609914488400204,-0.029352495721634786
594,0.0595,48.8281,770.174,-0.00237477,194.232,-0.86528,-3.20722,-0.0202994,0.0514577,-0.029842,0.0445924,-0.000170572,-0.00066256,0.0554419,-0.02009475424773588,0.04560158583357632,-0.00017055745342353656,0.052804651713466155,-0.0006623405555908901,-0.029401123943452068
595,0.0596,48.8374,770.386,-0.00238127,194.278,-0.865677,-3.20864,-0.0203336,0.0515418,-0.029892,0.0446651,-0.000170922,-0.00066391,0.0555379,-0.020128266434078945,0.04567760383208719,-0.00017090739366709684,0.05289319630792333,-0.00066368966052055,-0.02944965267402644
596,0.0597,48.8466,770.597,-0.00238778,194.323,-0.866072,-3.21005,-0.0203678,0.0516259,-0.0299421,0.0447378,-0.000171271,-0.00066526,0.0556339,-0.020161777474324905,0.04575362735730737,-0.0001712563339595352,0.05298174834929381,-0.000665038763628778,-0.02949827602840227
597,0.0598,48.8559,770.808,-0.00239429,194.368,-0.866466,-3.21146,-0.020402,0.0517101,-0.0299922,0.0448104,-0.000171621,-0.000666611,0.0557299,-0.020195287368512838,0.04582955182667847,-0.00017160627395862438,0.053070413145240414,-0.000666388864249412,-0.02954689694680912
598,0.0599,48.8651,771.019,-0.0024008,194.414,-0.866859,-3.21286,-0.0204362,0.0517942,-0.0300423,0.0448831,-0.000171971,-0.000667961,0.0558259,-0.020228796116681935,0.04590558639891951,-0.00017195621383514492,0.05315898009117381,-0.000667737963713888,-0.02959551542936889
599,0.06,48.8743,771.229,-0.00240732,194.459,-0.867251,-3.21426,-0.0204704,0.0518783,-0.0300923,0.0449557,-0.00017232,-0.000669312,0.0559219,-0.0202623037188715,0.04598152190091742,-0.00017230515376154276,0.05324755448590057,-0.0006690880606878835,-0.029644034440612033
600,0.0601,48.8835,771.439,-0.00241384,194.504,-0.867642,-3.21565,-0.0205046,0.0519624,-0.0301424,0.0450284,-0.00017267,-0.000670662,0.0560179,-0.02029581017512061,0.04605756752178447,-0.0001726550933935922,0.05333613633004708,-0.0006704371565083855,-0.02969264805670535
601,0.0602,48.8927,771.649,-0.00242036,194.549,-0.868032,-3.21704,-0.0205388,0.0520465,-0.0301924,0.045101,-0.000173019,-0.000672013,0.0561138,-0.02032931548546857,0.04613351405801236,-0.00017300403307607404,0.053424725624240166,-0.0006717872498357425,-0.02974116221143852
602,0.0603,48.9019,771.858,-0.00242689,194.594,-0.86842,-3.21843,-0.0205729,0.0521306,-0.0302425,0.0451736,-0.000173369,-0.000673364,0.0562098,-0.020362721686231544,0.046209466108159125,-0.0001733539724633193,0.053513322369106,-0.000673137341339225,-0.02978977096155233
603,0.0604,48.911,772.067,-0.00243342,194.639,-0.868808,-3.21981,-0.0206071,0.0522147,-0.0302925,0.0452462,-0.000173719,-0.000674715,0.0563058,-0.02039622470824498,0.04628542367262489,-0.00017370391172821797,0.05360192656527141,-0.0006744874310187221,-0.029838280260261696
604,0.0605,48.9201,772.276,-0.00243995,194.684,-0.869194,-3.22119,-0.0206413,0.0522988,-0.0303425,0.0453188,-0.000174069,-0.000676066,0.0564017,-0.020429726584474617,0.046361386751809786,-0.00017405385087065905,0.053690538213363226,-0.0006758375188741228,-0.02988678713356674
605,0.0606,48.9292,772.484,-0.00244649,194.729,-0.86958,-3.22257,-0.0206755,0.0523828,-0.0303926,0.0453914,-0.000174418,-0.000677417,0.0564976,-0.020463227314959642,0.046437355346114595,-0.00017440279006497583,0.053779051936097444,-0.0006771876049056491,-0.02993538858805478
606,0.0607,48.9383,772.693,-0.00245303,194.773,-0.869964,-3.22394,-0.0207097,0.0524669,-0.0304426,0.0454639,-0.000174768,-0.000678768,0.0565936,-0.02049672689973936,0.04651322480461184,-0.00017475272896272376,0.05386767848105922,-0.000678537689113301,-0.029983890606064767
607,0.0608,48.9474,772.901,-0.00245957,194.818,-0.870347,-3.22531,-0.0207438,0.052551,-0.0304926,0.0455365,-0.000175118,-0.000680119,0.0566895,-0.020530127391870434,0.04658920442275938,-0.00017510266773801408,0.05395631247982702,-0.0006798877714968565,-0.030032390199034587
608,0.0609,48.9565,773.108,-0.00246612,194.863,-0.870729,-3.22667,-0.020778,0.052635,-0.0305427,0.0456091,-0.000175468,-0.00068147,0.0567854,-0.02056362468870654,0.04666518955722765,-0.0001754526063908468,0.05404484852853719,-0.0006812378520565376,-0.030080984358991758
609,0.061,48.9655,773.315,-0.00247267,194.907,-0.87111,-3.22803,-0.0208122,0.0527191,-0.0305927,0.0456816,-0.000175817,-0.000682821,0.0568813,-0.020597120839954797,0.046741075534303844,-0.00017580154509699852,0.05413349742793239,-0.0006825879307922333,-0.030129479097395273
610,0.0611,48.9746,773.523,-0.00247922,194.952,-0.87149,-3.22938,-0.0208463,0.0528031,-0.0306427,0.0457542,-0.000176167,-0.000684172,0.0569772,-0.020630517908710844,0.04681707169501492,-0.00017615148350524912,0.054222048360803576,-0.0006839380077039436,-0.03017797141112244
611,0.0612,48.9836,773.729,-0.00248578,194.996,-0.871869,-3.23073,-0.0208805,0.0528871,-0.0306927,0.0458267,-0.000176517,-0.000685524,0.0570731,-0.02066401177225008,0.046892968683945435,-0.0001765014217909311,0.0543106067322654,-0.0006852890821064106,-0.030226461300294494
612,0.0613,48.9926,773.936,-0.00249234,195.04,-0.872247,-3.23208,-0.0209146,0.0529711,-0.0307427,0.0458992,-0.000176867,-0.000686875,0.057169,-0.020697406560064247,0.04696887117560711,-0.00017685135995426648,0.05439917254294291,-0.0006866391553688178,-0.030274948765032783
613,0.0614,49.0016,774.142,-0.0024989,195.085,-0.872623,-3.23342,-0.0209488,0.0530552,-0.0307927,0.0459717,-0.000177217,-0.000688226,0.0572649,-0.02073089813605067,0.047044779170398954,-0.00017720129799503326,0.05448785124224065,-0.0006879892268073506,-0.030323433805458433
614,0.0615,49.0105,774.348,-0.00250547,195.129,-0.872999,-3.23476,-0.020983,0.0531392,-0.0308427,0.0460442,-0.000177567,-0.000689578,0.0573608,-0.020764388566644754,0.047120692668719766,-0.00017755123591334243,0.05457643194208228,-0.0006893402957326433,-0.03037191642169268
615,0.0616,49.0195,774.553,-0.00251204,195.173,-0.873373,-3.2361,-0.0210171,0.0532232,-0.0308927,0.0461167,-0.000177917,-0.000690929,0.0574566,-0.020797779931668647,0.04719661167096878,-0.000177901173709194,0.054665020083015214,-0.0006906903635219841,-0.03042039661385665
616,0.0617,49.0284,774.758,-0.00251861,195.217,-0.873747,-3.23743,-0.0210513,0.0533071,-0.0309427,0.0461892,-0.000178267,-0.000692281,0.0575525,-0.02083126807494451,0.04727253617754501,-0.00017825111138247696,0.054753510190308496,-0.0006920414287951981,-0.030468874382071687
617,0.0618,49.0374,774.963,-0.00252519,195.261,-0.874119,-3.23875,-0.0210854,0.0533911,-0.0309927,0.0462617,-0.000178617,-0.000693633,0.0576484,-0.02086465715941599,0.04734846618884769,-0.00017860104893341333,0.05484211320643895,-0.0006933924922418733,-0.03051734972645881
618,0.0619,49.0463,775.168,-0.00253177,195.305,-0.87449,-3.24008,-0.0211196,0.0534751,-0.0310426,0.0463342,-0.000178967,-0.000694984,0.0577442,-0.020898143015529724,0.04742440170527562,-0.00017895098636178108,0.05493072366553542,-0.0006947425545567043,-0.03056572570371685
619,0.062,49.0551,775.372,-0.00253835,195.348,-0.874861,-3.2414,-0.0211537,0.0535591,-0.0310926,0.0464066,-0.000179317,-0.000696336,0.05784,-0.020931529819604666,0.047500237977198934,-0.00017930092366769124,0.05501934156822319,-0.0006960936143514118,-0.030614196205658972
620,0.0621,49.064,775.577,-0.00254494,195.392,-0.87523,-3.24271,-0.0211878,0.053643,-0.0311426,0.0464791,-0.000179667,-0.000697688,0.0579359,-0.020964915485208957,0.047576184497480245,-0.0001796508608511438,0.05510786140433588,-0.0006974446723195804,-0.030662664284136665
621,0.0622,49.0729,775.78,-0.00255153,195.436,-0.875598,-3.24402,-0.021222,0.053727,-0.0311925,0.0465515,-0.000180017,-0.00069904,0.0580317,-0.02099839791254665,0.04765203175887578,-0.00018000079791213874,0.055196494187218725,-0.000698795728460988,-0.03071103301037914
622,0.0623,49.0817,775.984,-0.00255812,195.479,-0.875965,-3.24533,-0.0212561,0.0538109,-0.0312425,0.046624,-0.000180367,-0.000700392,0.0581275,-0.021031781297987884,0.0477279892846052,-0.00018035073485056508,0.05528502888705966,-0.0007001467827758567,-0.030759496247137585
623,0.0624,49.0905,776.187,-0.00256472,195.523,-0.876331,-3.24663,-0.0212903,0.0538949,-0.0312925,0.0466964,-0.000180717,-0.000701743,0.0582233,-0.021065261438553806,0.047803847537065014,-0.0001807006716665338,0.05537367655263603,-0.0007014968359656537,-0.030807957060794755
624,0.0625,49.0994,776.39,-0.00257132,195.567,-0.876696,-3.24793,-0.0213244,0.0539788,-0.0313424,0.0467688,-0.000181067,-0.000703095,0.0583191,-0.021098642543987634,0.04787971128186119,-0.00018105060836004494,0.05546222611870122,-0.0007028478866285548,-0.030856318537108574
625,0.0626,49.1082,776.593,-0.00257792,195.61,-0.87706,-3.24923,-0.0213585,0.0540627,-0.0313924,0.0468412,-0.000181417,-0.000704447,0.0584149,-0.02113202251114521,0.047955580519391194,-0.00018140054493109847,0.05555078311438666,-0.000704198935464917,-0.03090477450977236
626,0.0627,49.1169,776.795,-0.00258452,195.653,-0.877423,-3.25052,-0.0213926,0.0541466,-0.0314423,0.0469136,-0.000181767,-0.000705799,0.0585107,-0.021165401340065282,0.048031455250052923,-0.0001817504813796944,0.05563934754031563,-0.0007055499824747402,-0.030953131155015967
627,0.0628,49.1257,776.997,-0.00259113,195.697,-0.877785,-3.25181,-0.0214268,0.0542306,-0.0314922,0.046986,-0.000182117,-0.000707152,0.0586065,-0.02119887691090394,0.04810733547424406,-0.00018210041770583274,0.05572802496990881,-0.0007069020269508952,-0.03100148538732317
628,0.0629,49.1344,777.199,-0.00259774,195.74,-0.878146,-3.25309,-0.0214609,0.0543145,-0.0315422,0.0470584,-0.000182468,-0.000708504,0.0587022,-0.021232253460127914,0.04818322119236229,-0.00018245135372696453,0.05581660426705337,-0.0007082530703060863,-0.031049934101825882
629,0.063,49.1432,777.401,-0.00260436,195.783,-0.878506,-3.25438,-0.021495,0.0543984,-0.0315921,0.0471308,-0.000182818,-0.000709856,0.058798,-0.021265628871230957,0.04825911240480529,-0.00018280128980774357,0.05590519099631264,-0.0007096041118346275,-0.031098283503786628
630,0.0631,49.1519,777.602,-0.00261097,195.826,-0.878865,-3.25565,-0.0215291,0.0544822,-0.031642,0.0472031,-0.000183168,-0.000711208,0.0588937,-0.021299003144251816,0.04833490427847531,-0.00018315122576606502,0.055993679558937304,-0.0007109551515365187,-0.031146630493172345
631,0.0632,49.1606,777.803,-0.0026176,195.869,-0.879223,-3.25693,-0.0215632,0.0545661,-0.031692,0.0472755,-0.000183518,-0.00071256,0.0589895,-0.02133237627922946,0.04841080647317142,-0.00018350116160192886,0.056082281145436674,-0.000712306189411871,-0.031195071950601116
632,0.0633,49.1693,778.004,-0.00262422,195.912,-0.879579,-3.2582,-0.0215974,0.05465,-0.0317419,0.0473478,-0.000183868,-0.000713912,0.0590852,-0.02136584613962278,0.048486609314719153,-0.0001838510973152241,0.05617089016592125,-0.0007136572254605733,-0.03124341411036391
633,0.0634,49.178,778.204,-0.00263085,195.955,-0.879935,-3.25946,-0.0216315,0.0547339,-0.0317918,0.0474202,-0.000184219,-0.000715265,0.0591809,-0.021399216995293124,0.04856252249325732,-0.00018420203272195845,0.05625950662101453,-0.0007150092589677248,-0.03129175385791305
634,0.0635,49.1866,778.404,-0.00263747,195.998,-0.88029,-3.26072,-0.0216656,0.0548177,-0.0318417,0.0474925,-0.000184569,-0.000716617,0.0592767,-0.021432586713036605,0.04863833630426995,-0.0001845519681900054,0.056348024876532454,-0.000716360291361906,-0.031340091193369
635,0.0636,49.1953,778.604,-0.00264411,196.04,-0.880644,-3.26198,-0.0216997,0.0549016,-0.0318916,0.0475648,-0.000184919,-0.000717969,0.0593724,-0.02146595529289219,0.04871415559681913,-0.00018490190353559477,0.05643665619385141,-0.0007177113219295483,-0.03138842611685211
636,0.0637,49.2039,778.804,-0.00265074,196.083,-0.880996,-3.26324,-0.0217338,0.0549854,-0.0319415,0.0476371,-0.000185269,-0.000719322,0.0594681,-0.02149932273489863,0.04878998037130122,-0.0001852518387586155,0.05652518929512551,-0.000719063349951421,-0.03143675862848261
637,0.0638,49.2125,779.003,-0.00265738,196.126,-0.881348,-3.26449,-0.0217679,0.0550693,-0.0319914,0.0477094,-0.00018562,-0.000720674,0.0595638,-0.021532689039094666,0.048865810628113016,-0.0001856027736736321,0.05661383547716281,-0.0007204143768645421,-0.03148508872838107
638,0.0639,49.2211,779.202,-0.00266402,196.168,-0.881699,-3.26573,-0.021802,0.0551531,-0.0320413,0.0477817,-0.00018597,-0.000722027,0.0596595,-0.021566054205519047,0.04894164636765019,-0.00018595270865140456,0.0567023834266831,-0.0007217664012292291,-0.031533416416667626
639,0.064,49.2297,779.401,-0.00267067,196.211,-0.882048,-3.26698,-0.0218361,0.0552369,-0.0320912,0.047854,-0.00018632,-0.000723379,0.0597552,-0.021599418234210743,0.04901748759030977,-0.00018630264350671943,0.05679093879683239,-0.0007231174244877181,-0.03158174169346273
640,0.0641,49.2383,779.6,-0.00267731,196.253,-0.882397,-3.26822,-0.0218702,0.0553207,-0.0321411,0.0479263,-0.000186671,-0.000724732,0.0598508,-0.02163278112520839,0.04909333429648788,-0.00018665357805291993,0.05687950158823263,-0.0007244694451952194,-0.03163006455888673
641,0.0642,49.2468,779.798,-0.00268397,196.296,-0.882745,-3.26945,-0.0219043,0.0554045,-0.0321909,0.0479986,-0.000187021,-0.000726084,0.0599465,-0.021666142878550954,0.04916918648658131,-0.00018700351266298654,0.05696807180150598,-0.0007258204647991873,-0.03167828818089358
642,0.0643,49.2553,779.996,-0.00269062,196.338,-0.883091,-3.27068,-0.0219384,0.0554883,-0.0322408,0.0480708,-0.000187371,-0.000727437,0.0600422,-0.021699503494277073,0.04924493923648687,-0.00018735344715048452,0.057056649437273954,-0.0007271724818495029,-0.031726606228767995
643,0.0644,49.2639,780.194,-0.00269727,196.38,-0.883437,-3.27191,-0.0219724,0.0555721,-0.0322907,0.0481431,-0.000187722,-0.000728789,0.0601378,-0.02173276514570699,0.04932080238801362,-0.00018770438132786893,0.057145234496158936,-0.0007285234977990607,-0.03177492186563202
644,0.0645,49.2724,780.391,-0.00270393,196.422,-0.883782,-3.27314,-0.0220065,0.0556559,-0.0323406,0.0482153,-0.000188072,-0.000730142,0.0602334,-0.021766123489652456,0.04939656608498266,-0.00018805431557011865,0.057233826978782876,-0.0007298755111920796,-0.031823235091605895
645,0.0646,49.2809,780.589,-0.0027106,196.464,-0.884125,-3.27436,-0.0220406,0.0557397,-0.0323904,0.0482876,-0.000188422,-0.000731494,0.0603291,-0.02179948069609794,0.04947244019952679,-0.00018840424968979974,0.05732242688576794,-0.0007312265234871163,-0.03187144909395978
646,0.0647,49.2894,780.785,-0.00271726,196.506,-0.884468,-3.27558,-0.0220747,0.0558235,-0.0324403,0.0483598,-0.000188773,-0.000732847,0.0604247,-0.021832836765081964,0.04954821484514094,-0.00018875518349836806,0.0574110342177363,-0.0007325785332229495,-0.03191975750334508
647,0.0648,49.2978,780.982,-0.00272393,196.548,-0.88481,-3.27679,-0.0221088,0.0559072,-0.0324901,0.048432,-0.000189123,-0.000734199,0.0605203,-0.0218661916966435,0.04962399496188197,-0.0001891051173728009,0.05749954322535067,-0.0007339295418635761,-0.03196796669900248
648,0.0649,49.3063,781.179,-0.0027306,196.59,-0.88515,-3.278,-0.0221428,0.055991,-0.03254,0.0485042,-0.000189473,-0.000735552,0.0606159,-0.02189944768077079,0.04969978055014512,-0.00018945505112477612,0.0575881654002901,-0.0007352815479422237,-0.0320162702922796
649,0.065,49.3147,781.375,-0.00273727,196.632,-0.88549,-3.27921,-0.0221769,0.0560747,-0.0325898,0.0485764,-0.000189824,-0.000736905,0.0607116,-0.021932800340938807,0.0497755716103252,-0.00018980598456441733,0.05767668923440494,-0.0007366335521916678,-0.0320644746817198
650,0.0651,49.3231,781.571,-0.00274395,196.674,-0.885829,-3.28041,-0.022211,0.0561585,-0.0326397,0.0486486,-0.000190174,-0.000738257,0.0608072,-0.021966151863800465,0.04985136814281743,-0.0001901559180711443,0.05776532625480213,-0.000737984555349791,-0.03211277345936858
651,0.0652,49.3315,781.766,-0.00275063,196.716,-0.886167,-3.28161,-0.022245,0.0562422,-0.0326895,0.0487208,-0.000190525,-0.00073961,0.0609027,-0.02199940444934001,0.04992717014801662,-0.00019050685126476008,0.05785386491790101,-0.0007393365559420495,-0.03216097304307075
652,0.0653,49.3399,781.962,-0.00275731,196.757,-0.886504,-3.2828,-0.0222791,0.0563259,-0.0327393,0.048793,-0.000190875,-0.000740963,0.0609983,-0.022032753701040297,0.050002977626318446,-0.00019085678452612775,0.05794241099199615,-0.0007406885547051045,-0.03220917022649339
653,0.0654,49.3483,782.157,-0.00276399,196.799,-0.886839,-3.284,-0.0223132,0.0564096,-0.0327891,0.0488651,-0.000191225,-0.000742315,0.0610939,-0.022066101815550465,0.05007868557024375,-0.00019120671766503783,0.05803096447770795,-0.0007420395523809464,-0.03225736500975607
654,0.0655,49.3567,782.352,-0.00277068,196.841,-0.887174,-3.28519,-0.0223472,0.0564934,-0.032839,0.0489373,-0.000191576,-0.000743668,0.0611895,-0.022099351002849432,0.05015450398835397,-0.00019155765048994855,0.05811963118761443,-0.0007433915474868158,-0.03230565416241771
655,0.0656,49.365,782.546,-0.00277737,196.882,-0.887508,-3.28637,-0.0223813,0.0565771,-0.0328888,0.0490094,-0.000191926,-0.000745021,0.061285,-0.022132696846430377,0.05023022285772405,-0.00019190758338349934,0.05820819950727718,-0.0007447435407633707,-0.03235384414089992
656,0.0657,49.3734,782.74,-0.00278406,196.924,-0.887841,-3.28755,-0.0224154,0.0566608,-0.0329386,0.0490816,-0.000192277,-0.000746374,0.0613806,-0.022166041552937332,0.050306052217221175,-0.00019225851596238464,0.05829677524041865,-0.0007460955322107221,-0.032402031719581115
657,0.0658,49.3817,782.935,-0.00279076,196.965,-0.888173,-3.28873,-0.0224494,0.0567445,-0.0329884,0.0491537,-0.000192627,-0.000747726,0.0614761,-0.022199287342343,0.05038178201361254,-0.00019260844861057613,0.058385358387659236,-0.0007474465225763005,-0.03245021689858052
658,0.0659,49.39,783.128,-0.00279746,197.006,-0.888504,-3.2899,-0.0224835,0.0568281,-0.0330382,0.0492258,-0.000192978,-0.000749079,0.0615717,-0.02223262977815288,0.050457517270318775,-0.000192959380943436,0.05847384310223003,-0.0007487985103665773,-0.03249839967801782
659,0.066,49.3983,783.322,-0.00280416,197.048,-0.888834,-3.29108,-0.0225175,0.0569118,-0.033088,0.0492979,-0.000193328,-0.000750432,0.0616672,-0.022265873303597195,0.050533257987734004,-0.00019330931334649026,0.05856244107067088,-0.0007501504963275396,-0.032546580058012364
660,0.0661,49.4066,783.515,-0.00281086,197.089,-0.889163,-3.29224,-0.0225515,0.0569955,-0.0331378,0.04937,-0.000193679,-0.000751785,0.0617627,-0.022299115698780958,0.050609004166251914,-0.00019366024543332472,0.05865104645507224,-0.0007515024804592985,-0.032594758038683835
661,0.0662,49.4148,783.708,-0.00281757,197.13,-0.889491,-3.29341,-0.0225856,0.0570791,-0.0331876,0.0494421,-0.000194029,-0.000753137,0.0618582,-0.02233245473050194,0.05068475580626619,-0.00019401017759090866,0.0587395533820938,-0.0007528534635147244,-0.03264293362015158
662,0.0663,49.4231,783.901,-0.00282427,197.171,-0.889818,-3.29457,-0.0226196,0.0571628,-0.0332374,0.0495142,-0.00019438,-0.00075449,0.0619537,-0.02236569486195572,0.05076051290817052,-0.00019436110943182872,0.05882817359141601,-0.0007542054439892976,-0.032691106802535064
663,0.0664,49.4313,784.094,-0.00283099,197.212,-0.890145,-3.29572,-0.0226537,0.0572465,-0.0332872,0.0495863,-0.00019473,-0.000755843,0.0620492,-0.022399031623365873,0.050836275472358805,-0.0001947110413441644,0.05891680121855991,-0.0007555574226347783,-0.03273927758595385
664,0.0665,49.4396,784.286,-0.0028377,197.253,-0.89047,-3.29688,-0.0226877,0.0573301,-0.0333369,0.0496584,-0.000195081,-0.000757195,0.0621447,-0.02243226949124366,0.05091204349922496,-0.00019506197293905903,0.059005330363608666,-0.0007569084002078119,-0.032787349249267184
665,0.0666,49.4478,784.478,-0.00284442,197.294,-0.890794,-3.29803,-0.0227217,0.0574137,-0.0333867,0.0497304,-0.000195431,-0.000758548,0.0622402,-0.0224655062290533,0.05098771189038609,-0.00019541190460603541,0.05909386691000296,-0.000758260375196218,-0.032835515239931334
666,0.0667,49.456,784.67,-0.00285114,197.335,-0.891118,-3.29917,-0.0227558,0.0574973,-0.0334365,0.0498025,-0.000195782,-0.000759901,0.0623357,-0.022498839586953867,0.051063490836211756,-0.00019576283595490462,0.05918241085836229,-0.0007596123483553097,-0.03288367883198906
667,0.0668,49.4642,784.861,-0.00285786,197.375,-0.89144,-3.30032,-0.0227898,0.057581,-0.0334863,0.0498745,-0.000196132,-0.000761254,0.0624311,-0.02253207406141866,0.05113917013197389,-0.00019611276737663275,0.05927106813640637,-0.0007609643196851978,-0.03293184002555949
668,0.0669,49.4723,785.053,-0.00286458,197.416,-0.891762,-3.30146,-0.0228238,0.0576646,-0.033536,0.0499466,-0.000196483,-0.000762606,0.0625266,-0.022565307405930546,0.051214959998332255,-0.00019646369847947653,0.059359626899407214,-0.00076231528994819,-0.03297990211875734
669,0.067,49.4805,785.244,-0.00287131,197.457,-0.892082,-3.30259,-0.0228579,0.0577482,-0.0335858,0.0500186,-0.000196833,-0.000763959,0.0626221,-0.022598637360669027,0.051290650200266574,-0.0001968136296559564,0.05944819306623028,-0.0007636672576210035,-0.03302805852052748
670,0.0671,49.4886,785.434,-0.00287804,197.497,-0.892402,-3.30372,-0.0228919,0.0578318,-0.0336355,0.0500906,-0.000197184,-0.000765312,0.0627175,-0.022631868442067105,0.05136634585209188,-0.00019716456051277476,0.05953676663749419,-0.0007650192234645026,-0.033076115831784936
671,0.0672,49.4968,785.625,-0.00288477,197.538,-0.892721,-3.30485,-0.0229259,0.0579154,-0.0336853,0.0501626,-0.000197534,-0.000766665,0.0628129,-0.022665098393627736,0.05144204695420007,-0.00019751449144400635,0.059625347613818436,-0.0007663711874789092,-0.033124267442231514
672,0.0673,49.5049,785.815,-0.00289151,197.578,-0.893038,-3.30598,-0.0229599,0.0579989,-0.033735,0.0502346,-0.000197885,-0.000768017,0.0629084,-0.022698327215389225,0.051517753506983954,-0.0001978654220547993,0.05971383002443331,-0.0007677221504318599,-0.0331723199720243
673,0.0674,49.513,786.005,-0.00289824,197.619,-0.893355,-3.3071,-0.0229939,0.0580825,-0.0337848,0.0503066,-0.000198235,-0.00076937,0.0630038,-0.022731554907389873,0.05159346551083588,-0.0001982153527406716,0.0598024258038754,-0.0007690741107891919,-0.03322046679162394
674,0.0675,49.5211,786.195,-0.00290498,197.659,-0.893671,-3.30822,-0.0230279,0.0581661,-0.0338345,0.0503786,-0.000198586,-0.000770723,0.0630992,-0.022764781469668316,0.05166918296614842,-0.0001985662831054391,0.05989102899023413,-0.0007704260693173204,-0.03326851454042801
675,0.0676,49.5292,786.385,-0.00291172,197.7,-0.893986,-3.30933,-0.023062,0.0582496,-0.0338842,0.0504506,-0.000198936,-0.000772075,0.0631946,-0.022798104622457238,0.05174490587331393,-0.00019891621354606315,0.059979533586170364,-0.0007717770267879898,-0.03331655990131821
676,0.0677,49.5372,786.574,-0.00291847,197.74,-0.8943,-3.31045,-0.023096,0.0583332,-0.033934,0.0505225,-0.000199287,-0.000773428,0.06329,-0.022831328922083727,0.05182052905066681,-0.00019926714366491627,0.06006815157935863,-0.0007731289816590436,-0.033364699537948184
677,0.0678,49.5453,786.763,-0.00292522,197.78,-0.894613,-3.31155,-0.02313,0.0584167,-0.0339837,0.0505945,-0.000199637,-0.000774781,0.0633854,-0.022864552092103252,0.051896262855142705,-0.00019961707386018102,0.06015667096564847,-0.0007744809347010051,-0.03341274011856288
678,0.0679,49.5533,786.952,-0.00293197,197.82,-0.894925,-3.31266,-0.023164,0.0585003,-0.0340334,0.0506664,-0.000199988,-0.000776133,0.0634808,-0.022897774132554227,0.0519718969154539,-0.00019996800373300871,0.060245303768140746,-0.0007758318866895042,-0.033460778311619976
679,0.068,49.5613,787.14,-0.00293872,197.86,-0.895237,-3.31376,-0.023198,0.0585838,-0.0340831,0.0507384,-0.000200338,-0.000777486,0.0635761,-0.022930995043475066,0.05204764161880848,-0.00020031793368291417,0.060333837947256,-0.000777183836074391,-0.03350881411723827
680,0.0681,49.5693,787.329,-0.00294547,197.9,-0.895547,-3.31486,-0.023232,0.0586673,-0.0341328,0.0508103,-0.000200689,-0.000778838,0.0636715,-0.022964214824904072,0.05212328656364407,-0.00020066886330971645,0.06042237951928375,-0.000778534784408591,-0.03355684753553634
681,0.0682,49.5773,787.517,-0.00295223,197.94,-0.895857,-3.31595,-0.023266,0.0587509,-0.0341825,0.0508822,-0.000201039,-0.000780191,0.0637669,-0.02299743347687977,0.052198936947546626,-0.00020101879301437364,0.060511034535939645,-0.0007798867301364032,-0.033604878566632745
682,0.0683,49.5853,787.705,-0.00295899,197.98,-0.896165,-3.31705,-0.0233,0.0588344,-0.0342322,0.0509542,-0.00020139,-0.000781543,0.0638622,-0.02303065099944046,0.05227469799837192,-0.00020136972239526152,0.06059959090450029,-0.0007812376748163041,-0.03365290721064629
683,0.0684,49.5933,787.892,-0.00296575,198.02,-0.896473,-3.31813,-0.0233339,0.0589179,-0.0342819,0.0510261,-0.00020174,-0.000782896,0.0639576,-0.023063769699006476,0.052350359269148106,-0.00020171965185455942,0.0606881546678264,-0.0007825896168871527,-0.03370093346769554
684,0.0685,49.6013,788.08,-0.00297251,198.06,-0.89678,-3.31922,-0.0233679,0.0590014,-0.0343316,0.051098,-0.000202091,-0.000784249,0.0640529,-0.02309698496617396,0.052426025980165214,-0.00020207058098942188,0.060776725826535705,-0.0007839415571287978,-0.03374895733789918
685,0.0686,49.6092,788.267,-0.00297928,198.099,-0.897085,-3.3203,-0.0234019,0.0590849,-0.0343813,0.0511698,-0.000202441,-0.000785601,0.0641482,-0.02313019910404157,0.052501592881649906,-0.00020242051020347152,0.06086530438124527,-0.0007852924963266394,-0.03379697882137567
686,0.0687,49.6171,788.454,-0.00298605,198.139,-0.89739,-3.32138,-0.0234359,0.0591683,-0.034431,0.0512417,-0.000202792,-0.000786953,0.0642435,-0.02316341211264772,0.052577270466754644,-0.00020277143909230855,0.060953784237189446,-0.0007866434336979422,-0.03384499791824391
687,0.0688,49.625,788.641,-0.00299282,198.179,-0.897694,-3.32245,-0.0234699,0.0592518,-0.0344807,0.0513136,-0.000203142,-0.000788306,0.0643389,-0.023196623992030707,0.05265295349327359,-0.0002031213680609989,0.06104237757689379,-0.0007879953684547525,-0.03389301462862215
688,0.0689,49.633,788.827,-0.00299959,198.218,-0.897998,-3.32353,-0.0235039,0.0593353,-0.0345303,0.0513855,-0.000203493,-0.000789658,0.0644342,-0.02322983474222906,0.052728641961597544,-0.0002034722967038105,0.06113097831445069,-0.0007893463021717562,-0.03394093234672735
689,0.069,49.6409,789.013,-0.00300637,198.258,-0.8983,-3.32459,-0.0235378,0.0594187,-0.03458,0.0514573,-0.000203844,-0.000791011,0.0645295,-0.02326294668958062,0.052804230591689594,-0.00020382322522349838,0.06121948032852487,-0.0007906982332717138,-0.03398894428928312
690,0.0691,49.6487,789.199,-0.00301315,198.297,-0.898601,-3.32566,-0.0235718,0.0595022,-0.0346297,0.0515292,-0.000204194,-0.000792363,0.0646247,-0.023296155184845513,0.05287992993722801,-0.00020417315382403878,0.06130809585477892,-0.0007920491633344184,-0.0340369538457046
691,0.0692,49.6566,789.385,-0.00301993,198.337,-0.898902,-3.32672,-0.0236058,0.0595856,-0.0346793,0.051601,-0.000204545,-0.000793715,0.06472,-0.02332936255104079,0.05295552943018689,-0.00020452408209770123,0.06139661264107188,-0.0007934000915706951,-0.03408486442460157
692,0.0693,49.6645,789.57,-0.00302671,198.376,-0.899201,-3.32778,-0.0236398,0.0596691,-0.034729,0.0516728,-0.000204895,-0.000795068,0.0648153,-0.023362568788204863,0.05303113435138407,-0.00020487401045310438,0.06148524295849178,-0.000794752017185818,-0.03413286921391079
693,0.0694,49.6723,789.756,-0.0030335,198.415,-0.8995,-3.32884,-0.0236737,0.0597525,-0.0347786,0.0517447,-0.000205246,-0.00079642,0.0649106,-0.023395676235948515,0.05310685001188942,-0.00020522493848074141,0.061573774519469326,-0.0007961029417679066,-0.034180775035523636
694,0.0695,49.6801,789.941,-0.00304029,198.455,-0.899798,-3.32989,-0.0237077,0.0598359,-0.0348283,0.0518165,-0.000205596,-0.000797772,0.0650058,-0.02342888021848566,0.05318246579829444,-0.00020557486659078528,0.061662313464286855,-0.0007974538645234563,-0.03422877505819388
695,0.0696,49.6879,790.125,-0.00304707,198.494,-0.900095,-3.33094,-0.0237417,0.0599193,-0.0348779,0.0518883,-0.000205947,-0.000799125,0.0651011,-0.02346208307210651,0.05325808701410795,-0.00020592579437239689,0.06175085979356032,-0.0007988057846538554,-0.03427667612299479
696,0.0697,49.6958,790.31,-0.00305387,198.533,-0.900391,-3.33198,-0.0237756,0.0600027,-0.0349276,0.0519601,-0.000206297,-0.000800477,0.0651963,-0.02349518714637311,0.05333371365971962,-0.00020627572223708146,0.06183941350790567,-0.0008001567037552171,-0.03432467137949946
697,0.0698,49.7035,790.494,-0.00306066,198.572,-0.900686,-3.33302,-0.0238096,0.0600861,-0.0349772,0.0520318,-0.000206648,-0.000801829,0.0652916,-0.023528387745596735,0.053409240394590274,-0.00020662664977277867,0.06192797460793886,-0.0008015076210301508,-0.03437256768796082
698,0.0699,49.7113,790.678,-0.00306746,198.611,-0.90098,-3.33406,-0.0238435,0.0601695,-0.0350268,0.0521036,-0.000206998,-0.000803181,0.0653868,-0.023561489572172967,0.05348487789340428,-0.00020697657739221498,0.06201654309427562,-0.0008028585364785457,-0.03442046162082413
699,0.07,49.7191,790.862,-0.00307426,198.65,-0.901274,-3.3351,-0.0238775,0.0602529,-0.0350765,0.0521754,-0.000207349,-0.000804533,0.065482,-0.023594687917152468,0.05356052082318574,-0.00020732750468177574,0.06210511896753235,-0.0008042094501006236,-0.03446844973136709
700,0.0701,49.7268,791.046,-0.00308106,198.689,-0.901566,-3.33613,-0.0239114,0.0603363,-0.0351261,0.0522472,-0.000207699,-0.000805885,0.0655772,-0.0236277874961911,0.053636169184324345,-0.00020767743205596378,0.062193702228324765,-0.0008055603618962737,-0.034516338908599065
701,0.0702,49.7346,791.229,-0.00308786,198.728,-0.901858,-3.33716,-0.0239454,0.0604197,-0.0351757,0.0523189,-0.00020805,-0.000807237,0.0656724,-0.023660983587079465,0.05371171760603355,-0.00020802835909961015,0.062282292877269274,-0.0008069112718653848,-0.034564225710586705
702,0.0703,49.7423,791.413,-0.00309466,198.767,-0.902149,-3.33819,-0.0239793,0.060503,-0.0352253,0.0523906,-0.0002084,-0.000808589,0.0657676,-0.02369408091873293,0.0537872714447587,-0.0002083782862284389,0.06237078467789825,-0.0008082621800081791,-0.034612110137447805
703,0.0704,49.75,791.596,-0.00310147,198.805,-0.902438,-3.33921,-0.0240133,0.0605864,-0.0352749,0.0524624,-0.00020875,-0.000809941,0.0658628,-0.02372727475568326,0.053862936087176516,-0.00020872821323481006,0.06245939009613499,-0.0008096130863244344,-0.03465999218930027
704,0.0705,49.7577,791.778,-0.00310828,198.844,-0.902727,-3.34023,-0.0240472,0.0606697,-0.0353245,0.0525341,-0.000209101,-0.000811293,0.065958,-0.023760369840104212,0.05393850076865547,-0.0002090791399095293,0.06254789664957694,-0.0008109639908143729,-0.0347078718662619
705,0.0706,49.7654,791.961,-0.00311509,198.883,-0.903016,-3.34125,-0.0240811,0.0607531,-0.0353741,0.0526058,-0.000209451,-0.000812645,0.0660532,-0.023793463802620818,0.05401407086831611,-0.0002094290666706522,0.06263651683956795,-0.0008123148934778834,-0.03475574916845048
706,0.0707,49.7731,792.143,-0.00312191,198.921,-0.903303,-3.34226,-0.0241151,0.0608364,-0.0354237,0.0526775,-0.000209802,-0.000813997,0.0661483,-0.02382665426061048,0.05408964638654745,-0.00020977999309945705,0.06272503814828201,-0.0008136657943148551,-0.0348036240959837
707,0.0708,49.7808,792.325,-0.00312872,198.96,-0.903589,-3.34327,-0.024149,0.0609197,-0.0354733,0.0527492,-0.000210152,-0.000815348,0.0662435,-0.02385974597612328,0.05416522732373763,-0.00021012991961522065,0.06281356683112826,-0.0008150156941405529,-0.03485149664897935
708,0.0709,49.7884,792.507,-0.00313554,198.998,-0.903875,-3.34428,-0.0241829,0.0610031,-0.0355229,0.0528209,-0.000210503,-0.0008167,0.0663386,-0.023892836569845977,0.054240813680275224,-0.00021048084579800008,0.06290220917893641,-0.000816366591326112,-0.034899366827555345
709,0.071,49.7961,792.689,-0.00314236,199.037,-0.90416,-3.34528,-0.0242169,0.0610864,-0.0355725,0.0528926,-0.000210853,-0.000818052,0.0664338,-0.02392602364921903,0.05431640545654881,-0.00021083077206851542,0.06299075262074427,-0.0008177174866852432,-0.03494723463182936
710,0.0711,49.8037,792.87,-0.00314918,199.075,-0.904444,-3.34628,-0.0242508,0.0611697,-0.0356221,0.0529643,-0.000211204,-0.000819404,0.0665289,-0.023959111996166738,0.05439200265294719,-0.00021118169800526942,0.06307930343852797,-0.0008190683802180576,-0.03499510006191908
711,0.0712,49.8113,793.051,-0.00315601,199.113,-0.904727,-3.34728,-0.0242847,0.061253,-0.0356716,0.053036,-0.000211554,-0.000820755,0.066624,-0.02399219922143836,0.05446760526985872,-0.00021153162403042547,0.06316786163290189,-0.0008204182727448162,-0.03504286662223388
712,0.0713,49.819,793.232,-0.00316283,199.152,-0.905009,-3.34827,-0.0243186,0.0613363,-0.0357212,0.0531076,-0.000211904,-0.000822107,0.0667191,-0.0240252853250722,0.054543107853356254,-0.00021188154993312391,0.06325642720448088,-0.000821769162626107,-0.03509072730909457
713,0.0714,49.8265,793.413,-0.00316966,199.19,-0.90529,-3.34926,-0.0243526,0.0614196,-0.0357708,0.0531793,-0.000212255,-0.000823458,0.0668143,-0.02405846790126409,0.0546187213048992,-0.00021223247550117286,0.06334500015387912,-0.0008231190515041176,-0.03513858562212413
714,0.0715,49.8341,793.593,-0.00317649,199.228,-0.905571,-3.35025,-0.0243865,0.0615028,-0.0358203,0.0532509,-0.000212605,-0.00082481,0.0669094,-0.0240915517584277,0.05469423470869228,-0.000212582401158512,0.06343347413835865,-0.0008244699377339959,-0.03518634508007945
715,0.0716,49.8417,793.774,-0.00318333,199.266,-0.90585,-3.35124,-0.0244204,0.0615861,-0.0358699,0.0533225,-0.000212956,-0.000826161,0.0670044,-0.024124634494067543,0.05476975351943869,-0.00021293332648053553,0.06352206183638076,-0.0008258198229632585,-0.03523419865058519
716,0.0717,49.8493,793.954,-0.00319016,199.304,-0.906129,-3.35222,-0.0244543,0.0616694,-0.0359194,0.0533942,-0.000213306,-0.000827512,0.0670995,-0.024157716108221705,0.05484538322205834,-0.00021328325189262642,0.06361065691406531,-0.0008271697063687578,-0.03528195337581275
717,0.0718,49.8568,794.133,-0.003197,199.342,-0.906407,-3.3532,-0.0244882,0.0617526,-0.035969,0.0534658,-0.000213656,-0.000828864,0.0671946,-0.024190796600928155,0.054920912855425774,-0.00021363317718225971,0.06369915300210693,-0.000828520587122128,-0.035329802204264515
718,0.0719,49.8644,794.313,-0.00320384,199.38,-0.906684,-3.35417,-0.0245221,0.0618359,-0.0360185,0.0535374,-0.000214007,-0.000830215,0.0672897,-0.024223875972224862,0.054996447896908274,-0.00021398410213546715,0.06378776283210019,-0.0008298704668789902,-0.035377552197233375
719,0.072,49.8719,794.493,-0.00321068,199.418,-0.90696,-3.35514,-0.024556,0.0619191,-0.0360681,0.053609,-0.000214357,-0.000831566,0.0673847,-0.024256954222149907,0.05507198834689353,-0.00021433402717974115,0.06387627365596704,-0.0008312203448122002,-0.03542539628410124
720,0.0721,49.8794,794.672,-0.00321752,199.456,-0.907236,-3.35611,-0.0245899,0.0620023,-0.0361176,0.0536806,-0.000214707,-0.000832917,0.0674798,-0.02429003135074126,0.05514753420576879,-0.00021468395210166857,0.06396479184424075,-0.0008325702209216468,-0.03547314154528014
721,0.0722,49.8869,794.851,-0.00322436,199.494,-0.90751,-3.35708,-0.0246238,0.0620856,-0.0361671,0.0537522,-0.000215058,-0.000834269,0.0675749,-0.024323107358037,0.055223085473921074,-0.0002150348766859489,0.06405342380287116,-0.0008339210943735242,-0.035520884443127176
722,0.0723,49.8944,795.029,-0.00323121,199.532,-0.907784,-3.35804,-0.0246577,0.0621688,-0.0362167,0.0538237,-0.000215408,-0.00083562,0.0676699,-0.024356182244075097,0.05529853662187878,-0.00021538480136251703,0.06414195673065026,-0.0008352709668342229,-0.03556872142089196
723,0.0724,49.9019,795.208,-0.00323806,199.569,-0.908057,-3.359,-0.0246916,0.062252,-0.0362662,0.0538953,-0.000215758,-0.000836971,0.0677649,-0.024389256008893523,0.05537409870219112,-0.00021573472591662757,0.06423049702467543,-0.0008366208374713802,-0.03561645958765225
724,0.0725,49.9093,795.386,-0.00324491,199.607,-0.908329,-3.35996,-0.0247255,0.0623352,-0.0363157,0.0539668,-0.000216109,-0.000838322,0.0678599,-0.024422328652530356,0.05544956064798079,-0.0002160856501320918,0.06431904468555949,-0.0008379707062847741,-0.03566419539143184
725,0.0726,49.9168,795.564,-0.00325176,199.645,-0.9086,-3.36091,-0.0247594,0.0624184,-0.0363652,0.0540384,-0.000216459,-0.000839672,0.067955,-0.024455400175023567,0.05552513354200039,-0.00021643557444095407,0.06440759971391552,-0.0008393195741138726,-0.03571192883234753
726,0.0727,49.9242,795.742,-0.00325861,199.682,-0.908871,-3.36187,-0.0247933,0.0625016,-0.0364147,0.0541099,-0.000216809,-0.000841023,0.06805,-0.024488470576411125,0.05560060628716723,-0.00021678549862724772,0.06449616211035636,-0.0008406694392812941,-0.03575965991051633
727,0.0728,49.9317,795.92,-0.00326547,199.72,-0.90914,-3.36281,-0.0248272,0.0625848,-0.0364642,0.0541815,-0.000217159,-0.000842374,0.068145,-0.02452153985673111,0.05567618999644175,-0.00021713542269108377,0.06458473187549507,-0.0008420193026249523,-0.03580738862605537
728,0.0729,49.9391,796.097,-0.00327233,199.757,-0.909409,-3.36376,-0.024861,0.062668,-0.0365137,0.054253,-0.00021751,-0.000843725,0.06824,-0.024554510471477387,0.05575167354253119,-0.00021748634641494125,0.06467330900994472,-0.0008433691641450691,-0.03585511497908134
729,0.073,49.9465,796.275,-0.00327919,199.795,-0.909677,-3.3647,-0.0248949,0.0627511,-0.0365632,0.0543245,-0.00021786,-0.000845075,0.068335,-0.024587577513082937,0.05582716248588704,-0.00021783627023352903,0.06476178703813451,-0.0008447180246862196,-0.03590283896971136
730,0.0731,49.9539,796.452,-0.00328605,199.832,-0.909944,-3.36564,-0.0249288,0.0628343,-0.0366127,0.054396,-0.00021821,-0.000846426,0.0684299,-0.024620643433734712,0.055902656826895436,-0.0002181861939295482,0.06485037890418677,-0.000846067882560364,-0.03595056059806234
731,0.0732,49.9613,796.629,-0.00329291,199.869,-0.91021,-3.36658,-0.0249627,0.0629174,-0.0366622,0.0544675,-0.00021856,-0.000847776,0.0685249,-0.024653708233470795,0.05597815656594207,-0.00021853611750310975,0.06493887164749612,-0.0008474167394582066,-0.03599827986425119
732,0.0733,49.9686,796.805,-0.00329978,199.907,-0.910476,-3.36751,-0.0249965,0.0630006,-0.0367117,0.054539,-0.000218911,-0.000849127,0.0686199,-0.024686674381001472,0.05605366170341286,-0.00021888704073536047,0.0650274782476008,-0.0008487665936863786,-0.03604599676839482
733,0.0734,49.976,796.982,-0.00330665,199.944,-0.910741,-3.36844,-0.0250304,0.0630837,-0.0367611,0.0546105,-0.000219261,-0.000850477,0.0687148,-0.02471973694232632,0.05612917223969416,-0.00021923696406367377,0.0651159857084771,-0.0008501154469410244,-0.036093614919976424
734,0.0735,49.9834,797.158,-0.00331352,199.981,-0.911004,-3.36936,-0.0250643,0.0631669,-0.0368106,0.0546819,-0.000219611,-0.000851828,0.0688098,-0.024752798382849384,0.05620458255470839,-0.00021958688726952946,0.06520460704508468,-0.000851465297523224,-0.0361413271051515
735,0.0736,49.9907,797.334,-0.00332039,200.018,-0.911267,-3.37029,-0.0250982,0.06325,-0.0368601,0.0547534,-0.000219961,-0.000853178,0.0689047,-0.024785858702608632,0.05628010388221627,-0.00021993681035281654,0.06529312922597574,-0.0008528141471345618,-0.03618903692863196
736,0.0737,49.998,797.51,-0.00332726,200.055,-0.91153,-3.37121,-0.025132,0.0633331,-0.0369096,0.0548249,-0.000220311,-0.000854528,0.0689996,-0.024818820383529006,0.056355630609692176,-0.00022028673331375703,0.06538165876336577,-0.0008541629949250229,-0.03623674439053459
737,0.0738,50.0053,797.685,-0.00333413,200.092,-0.911791,-3.37213,-0.0251659,0.0634162,-0.036959,0.0548963,-0.000220661,-0.000855878,0.0690946,-0.024851878465180333,0.0564310570944111,-0.0002206366561521289,0.06547019565786605,-0.0008555118408944962,-0.03628435311941636
738,0.0739,50.0127,797.861,-0.00334101,200.129,-0.912052,-3.37304,-0.0251997,0.0634993,-0.0370085,0.0549677,-0.000221012,-0.000857228,0.0691895,-0.024884837914670332,0.056506488964773505,-0.00022098757864708052,0.06555873991008787,-0.0008568606850430927,-0.03633205586328436
739,0.074,50.02,798.036,-0.00334789,200.166,-0.912311,-3.37395,-0.0252336,0.0635824,-0.0370579,0.0550392,-0.000221362,-0.000858578,0.0692844,-0.024917893758365284,0.056582031879361505,-0.00022133750124020413,0.06564729152064275,-0.0008582095273707013,-0.03637965988389569
740,0.0741,50.0272,798.211,-0.00335477,200.203,-0.912571,-3.37486,-0.0252674,0.0636655,-0.0371074,0.0551106,-0.000221712,-0.000859928,0.0693793,-0.024950850976576122,0.05665747452970815,-0.00022168742371087014,0.06573585049014241,-0.0008595583678773222,-0.03642735791019558
741,0.0742,50.0345,798.385,-0.00336165,200.24,-0.912829,-3.37577,-0.0253013,0.0637486,-0.0371568,0.055182,-0.000222062,-0.000861278,0.0694742,-0.024983904582466243,0.05673292256685247,-0.00022203734605896752,0.06582441681919815,-0.0008609072065630663,-0.03647495722300209
742,0.0743,50.0418,798.56,-0.00336853,200.277,-0.913086,-3.37667,-0.0253351,0.0638317,-0.0372063,0.0552534,-0.000222412,-0.000862628,0.0695691,-0.02501685956954902,0.05680837599117905,-0.00022238726828471833,0.0659129905084217,-0.0008622560434279336,-0.036522650532200385
743,0.0744,50.049,798.734,-0.00337542,200.313,-0.913343,-3.37757,-0.025369,0.0639147,-0.0372557,0.0553248,-0.000222762,-0.000863977,0.0696639,-0.025049910937785747,0.05688383480307224,-0.00022273719038790052,0.06600146495827275,-0.0008636038793353729,-0.03657024513766771
744,0.0745,50.0563,798.908,-0.0033823,200.35,-0.913599,-3.37847,-0.0254028,0.0639978,-0.0373051,0.0553962,-0.000223112,-0.000865327,0.0697588,-0.025082863693891344,0.056959299002917074,-0.0002230871123686251,0.06609005336080798,-0.0008649527125597078,-0.036617837392019514
745,0.0746,50.0635,799.082,-0.00338919,200.387,-0.913854,-3.37936,-0.0254367,0.0640809,-0.0373545,0.0554676,-0.000223462,-0.000866677,0.0698537,-0.025115912824626108,0.05703476859109813,-0.0002234370342268921,0.06617864912534532,-0.000866301543963055,-0.03666542729537203
746,0.0747,50.0707,799.256,-0.00339608,200.423,-0.914108,-3.38025,-0.0254705,0.0641639,-0.037404,0.0555389,-0.000223812,-0.000868026,0.0699485,-0.025148863349905626,0.05711013785698116,-0.00022378695596270148,0.06626714562577662,-0.000867649374413193,-0.036713111176535085
747,0.0748,50.0779,799.43,-0.00340297,200.46,-0.914361,-3.38114,-0.0255043,0.0642469,-0.0374534,0.0556103,-0.000224162,-0.000869375,0.0700433,-0.02518181276147624,0.05718561821544088,-0.00022413687757605327,0.06635564947172234,-0.0008689972030450077,-0.03676069637347901
748,0.0749,50.0851,799.603,-0.00340987,200.496,-0.914614,-3.38203,-0.0255382,0.06433,-0.0375028,0.0556817,-0.000224512,-0.000870725,0.0701382,-0.025214858537894513,0.05726110396339057,-0.00022448679906694746,0.06644426730821351,-0.0008703460289883891,-0.036808279219772144
749,0.075,50.0923,799.776,-0.00341676,200.533,-0.914866,-3.38291,-0.025572,0.064413,-0.0375522,0.055753,-0.000224862,-0.000872074,0.070233,-0.025247805718865535,0.05733648936756075,-0.00022483672043527303,0.06653278585586908,-0.000871693853982447,-0.03685585971553074
750,0.0751,50.0995,799.949,-0.00342366,200.569,-0.915117,-3.38379,-0.0256058,0.064496,-0.0376016,0.0558243,-0.000225212,-0.000873423,0.0703278,-0.025280751786240452,0.05741188014690213,-0.00022518664168125202,0.06662131175086894,-0.0008730416771582927,-0.036903437860870913
751,0.0752,50.1066,800.122,-0.00343056,200.605,-0.915367,-3.38467,-0.0256397,0.064579,-0.037651,0.0558957,-0.000225562,-0.000874772,0.0704226,-0.02531379420868274,0.05748738205053039,-0.0002255365628046624,0.06670984499382304,-0.0008743894985160372,-0.036951013655908804
752,0.0753,50.1138,800.294,-0.00343746,200.642,-0.915616,-3.38554,-0.0256735,0.064662,-0.0377004,0.055967,-0.000225912,-0.000876121,0.0705175,-0.025346738045684436,0.057562783588903654,-0.00022588648380561516,0.06679838558534112,-0.0008757373180554584,-0.03699858710076043
753,0.0754,50.1209,800.467,-0.00344436,200.678,-0.915865,-3.38641,-0.0257073,0.064745,-0.0377498,0.0560383,-0.000226262,-0.00087747,0.0706123,-0.025379680769203383,0.057638190503598086,-0.00022623640468411033,0.06688693352603337,-0.0008770851357766674,-0.03704615819554191
754,0.0755,50.1281,800.639,-0.00345126,200.714,-0.916113,-3.38728,-0.0257411,0.064828,-0.0377992,0.0561096,-0.000226612,-0.000878819,0.070707,-0.025412622379276995,0.057713602794997154,-0.0002265863254401479,0.06697548881650994,-0.0008784329516797751,-0.03709372694036939
755,0.0756,50.1352,800.811,-0.00345817,200.75,-0.91636,-3.38814,-0.025775,0.064911,-0.0378486,0.0561809,-0.000226962,-0.000880168,0.0708018,-0.02544566033138196,0.05778902046348433,-0.00022693624607372787,0.06706405145738037,-0.0008797807657645595,-0.03714129333535898
756,0.0757,50.1423,800.982,-0.00346508,200.786,-0.916606,-3.38901,-0.0258088,0.064994,-0.0378979,0.0562522,-0.000227311,-0.000881516,0.0708966,-0.02547859971138411,0.057864443509443086,-0.00022728516681203015,0.06715262144925505,-0.0008811275789123441,-0.03718876109950753
757,0.0758,50.1494,801.154,-0.00347198,200.822,-0.916852,-3.38987,-0.0258426,0.0650769,-0.0379473,0.0563235,-0.000227661,-0.000882865,0.0709914,-0.025511537978053944,0.05793987193325667,-0.00022763508720102799,0.06724109206862972,-0.0008824753893621473,-0.0372363227999255
758,0.0759,50.1565,801.325,-0.00347889,200.858,-0.917097,-3.39072,-0.0258764,0.0651599,-0.0379967,0.0563947,-0.000228011,-0.000884214,0.0710861,-0.025544475131429323,0.058015199933783235,-0.0002279850074674572,0.06732967675548518,-0.0008838231979937383,-0.03728388215085354
759,0.076,50.1636,801.496,-0.0034858,200.894,-0.917341,-3.39158,-0.0259102,0.0652428,-0.038046,0.056466,-0.000228361,-0.000885562,0.0711809,-0.02557741117154766,0.058090639106913144,-0.00022833492761153984,0.06741816205335316,-0.0008851700056923262,-0.03733134288554685
760,0.0761,50.1706,801.667,-0.00349272,200.93,-0.917584,-3.39243,-0.025944,0.0653258,-0.0380954,0.0565372,-0.000228711,-0.00088691,0.0712756,-0.02561034609844659,0.058165977842444594,-0.00022868484763305386,0.06750676143762702,-0.0008865168115754773,-0.0373788975425986
761,0.0762,50.1777,801.838,-0.00349963,200.966,-0.917827,-3.39328,-0.0259778,0.0654087,-0.0381448,0.0566085,-0.000229061,-0.000888259,0.0713704,-0.025643279912163974,0.058241427766422715,-0.00022903476753211027,0.06759526141642369,-0.0008878646147552072,-0.03742644985050825
762,0.0763,50.1847,802.008,-0.00350655,201.002,-0.918068,-3.39412,-0.0260116,0.0654917,-0.0381941,0.0566797,-0.00022941,-0.000889607,0.0714651,-0.025676212612737115,0.05831677723848894,-0.00022938368753810945,0.06768387550055488,-0.0008892114170059306,-0.03747390355678715
763,0.0764,50.1918,802.179,-0.00351347,201.038,-0.918309,-3.39496,-0.0260454,0.0655746,-0.0382435,0.0567509,-0.00022976,-0.000890955,0.0715598,-0.02570914420020387,0.058392132075628655,-0.00022973360719258373,0.06777239016271586,-0.0008905582174412174,-0.03752145117151573
764,0.0765,50.1988,802.349,-0.00352038,201.074,-0.918549,-3.3958,-0.0260792,0.0656575,-0.0382928,0.0568222,-0.00023011,-0.000892303,0.0716545,-0.025742074674601767,0.05846759812497848,-0.00023008352672460042,0.06786091216304668,-0.0008919050160609565,-0.03756890019434489
765,0.0766,50.2058,802.519,-0.0035273,201.109,-0.918789,-3.39664,-0.026113,0.0657404,-0.0383421,0.0568934,-0.000230459,-0.000893651,0.0717492,-0.02577500403596844,0.05854296370094758,-0.00023043244636455906,0.06794944150215532,-0.0008932518128652589,-0.03761634687799498
766,0.0767,50.2128,802.689,-0.00353423,201.145,-0.919027,-3.39747,-0.0261468,0.0658233,-0.0383915,0.0569646,-0.000230809,-0.000894999,0.0718439,-0.025807932284341417,0.058618334643136816,-0.00023078236565199362,0.0680379781806506,-0.0008945986078541246,-0.03766388745619731
767,0.0768,50.2198,802.858,-0.00354115,201.181,-0.919265,-3.3983,-0.0261806,0.0659062,-0.0384408,0.0570358,-0.000231159,-0.000896346,0.0719386,-0.025840859419758555,0.0586937109519281,-0.00023113228481685955,0.0681265221991405,-0.0008959444019234208,-0.03771132945709077
768,0.0769,50.2268,803.028,-0.00354807,201.216,-0.919502,-3.39913,-0.0262143,0.0659891,-0.0384901,0.057107,-0.000231508,-0.000897694,0.0720333,-0.02587368802963086,0.0587690926277038,-0.00023148120409077766,0.06821507355823409,-0.0008972911932826344,-0.037758769119151214
769,0.077,50.2338,803.197,-0.003555,201.252,-0.919739,-3.39996,-0.0262481,0.066072,-0.0385394,0.0571781,-0.000231858,-0.000899041,0.072128,-0.025906612942541263,0.05884437378640306,-0.00023183112301117248,0.0683036322585393,-0.000898636983724943,-0.037806206442493995
770,0.0771,50.2407,803.366,-0.00356193,201.287,-0.919974,-3.40078,-0.0262819,0.0661549,-0.0385888,0.0572493,-0.000232208,-0.000900389,0.0722226,-0.025939536742608515,0.05891976618975425,-0.00023218104180899868,0.06839219830066523,-0.0008999837714546155,-0.037853737641865504
771,0.0772,50.2477,803.534,-0.00356886,201.322,-0.920209,-3.4016,-0.0263157,0.0662377,-0.0386381,0.0573205,-0.000232557,-0.000901736,0.0723173,-0.025972459429870032,0.05899516396123583,-0.00023252996071698728,0.06848066483714876,-0.0009013295582700476,-0.037901170283375474
772,0.0773,50.2546,803.703,-0.00357579,201.358,-0.920443,-3.40242,-0.0263495,0.0663206,-0.0386874,0.0573916,-0.000232907,-0.000903084,0.0724119,-0.02600538100436356,0.05907046119417836,-0.00023287987927023135,0.06856924555588373,-0.0009026763423700679,-0.03794860058651395
773,0.0774,50.2616,803.872,-0.00358272,201.393,-0.920677,-3.40323,-0.0263832,0.0664034,-0.0387367,0.0574628,-0.000233256,-0.000904431,0.0725066,-0.026038204069951942,0.059145869695526265,-0.00023322879793430396,0.06865772675248683,-0.0009040221255586234,-0.037996028551396055
774,0.0775,50.2685,804.04,-0.00358965,201.428,-0.920909,-3.40404,-0.026417,0.0664863,-0.038786,0.0575339,-0.000233606,-0.000905778,0.0726012,-0.026071123422314213,0.059221177644027456,-0.0002335787162429659,0.0687463221502631,-0.0009053679069344067,-0.03804345417813726
775,0.0776,50.2754,804.208,-0.00359659,201.464,-0.921141,-3.40485,-0.0264508,0.0665691,-0.0388353,0.057605,-0.000233955,-0.000907125,0.0726958,-0.026104041662021182,0.05929649094711409,-0.0002339276346631225,0.06883481800941516,-0.0009067136864975289,-0.03809087746685258
776,0.0777,50.2823,804.376,-0.00360352,201.499,-0.921372,-3.40566,-0.0264845,0.066652,-0.0388846,0.0576761,-0.000234305,-0.000908472,0.0727904,-0.02613686140280136,0.05937180960516697,-0.0002342775527272023,0.06892342808866503,-0.000908059464247768,-0.03813829841765737
777,0.0778,50.2892,804.543,-0.00361046,201.534,-0.921603,-3.40646,-0.0265183,0.0667348,-0.0389338,0.0577473,-0.000234654,-0.000909818,0.0728851,-0.026169777420602114,0.05944723956328568,-0.0002346264709034429,0.06901193861279609,-0.0009094042410947578,-0.03818562084923394
778,0.0779,50.2961,804.711,-0.0036174,201.569,-0.921832,-3.40726,-0.0265521,0.0668176,-0.0389831,0.0578184,-0.000235004,-0.000911165,0.0729797,-0.026202692325860255,0.05952256893994612,-0.00023497638872294058,0.06910045646590168,-0.0009107500152207848,-0.03823303712930515
779,0.078,50.3029,804.878,-0.00362434,201.604,-0.922061,-3.40806,-0.0265858,0.0669004,-0.0390324,0.0578895,-0.000235353,-0.000912512,0.0730742,-0.026235508742169178,0.05959790367271567,-0.0002353253066552652,0.06918898164858911,-0.0009120957875341507,-0.03828045107181133
780,0.0781,50.3098,805.045,-0.00363128,201.639,-0.922289,-3.40885,-0.0266196,0.0669832,-0.0390817,0.0579605,-0.000235702,-0.000913858,0.0731688,-0.026268421425746258,0.05967313779465622,-0.00023567422446590935,0.06927751416146499,-0.0009134405589482641,-0.03832786267686783
781,0.0782,50.3166,805.212,-0.00363823,201.674,-0.922516,-3.40965,-0.0266533,0.067066,-0.0391309,0.0580316,-0.000236052,-0.000915204,0.0732634,-0.0263012356270218,0.05974848323325199,-0.00023602414191870036,0.06936605400513662,-0.000914785328552159,-0.03837517578211225
782,0.0783,50.3235,805.379,-0.00364517,201.709,-0.922743,-3.41044,-0.0266871,0.0671488,-0.0391802,0.0581027,-0.000236401,-0.000916551,0.073358,-0.0263341460890677,0.05982383402909908,-0.0002363730594853175,0.06945460118021063,-0.0009161310954299839,-0.03842258271735555
783,0.0784,50.3303,805.545,-0.00365212,201.744,-0.922969,-3.41122,-0.0267208,0.0672316,-0.0392295,0.0581737,-0.00023675,-0.000917897,0.0734525,-0.026366958075459412,0.05989908419266432,-0.0002367219769302542,0.0695431556872943,-0.0009174758614125533,-0.03846998731549467
784,0.0785,50.3371,805.712,-0.00365906,201.779,-0.923194,-3.41201,-0.0267546,0.0673143,-0.0392787,0.0582448,-0.0002371,-0.000919243,0.0735471,-0.02639986631612401,0.05997444569662003,-0.00023707189401633855,0.06963161056382838,-0.0009188206255850151,-0.03851729342837884
785,0.0786,50.344,805.878,-0.00366601,201.814,-0.923419,-3.41279,-0.0267883,0.0673971,-0.039328,0.0583158,-0.000237449,-0.000920589,0.0736416,-0.026432676087781437,0.06004970655399333,-0.00023742081121735925,0.0697201797278959,-0.0009201653879473692,-0.038564693357394986
786,0.0787,50.3508,806.044,-0.00367296,201.849,-0.923642,-3.41357,-0.0268221,0.0674799,-0.0393772,0.0583869,-0.000237798,-0.000921935,0.0737362,-0.026465582107214836,0.060125078767579776,-0.0002377697282965885,0.06980875622579363,-0.0009215101484997268,-0.03861199481085653
787,0.0788,50.3575,806.209,-0.00367991,201.883,-0.923865,-3.41434,-0.0268558,0.0675626,-0.0394265,0.0584579,-0.000238148,-0.00092328,0.0738307,-0.026498389664287303,0.060200350320280815,-0.00023811964501596616,0.06989723306840068,-0.0009228539081649334,-0.038659390071209554
788,0.0789,50.3643,806.375,-0.00368686,201.918,-0.924087,-3.41512,-0.0268895,0.0676454,-0.0394757,0.0585289,-0.000238497,-0.000924626,0.0739252,-0.026531196115763822,0.06027562721745183,-0.00023846856185139043,0.06998582422692201,-0.000924198665098519,-0.03870668686570733
789,0.079,50.3711,806.54,-0.00369382,201.953,-0.924309,-3.41589,-0.0269233,0.0677281,-0.0395249,0.0585999,-0.000238846,-0.000925972,0.0740198,-0.026564098805276548,0.06035090945947208,-0.0002388174785649122,0.07007431571365808,-0.000925543420222108,-0.038753981333260135
790,0.0791,50.3779,806.706,-0.00370077,201.987,-0.92453,-3.41666,-0.026957,0.0678108,-0.0395742,0.0586709,-0.000239195,-0.000927317,0.0741143,-0.02659690304239226,0.060426197046721475,-0.00023916639515675353,0.0701628145189428,-0.0009268871744625429,-0.038801369593850166
791,0.0792,50.3846,806.871,-0.00370773,202.022,-0.92475,-3.41742,-0.0269907,0.0678936,-0.0396234,0.0587419,-0.000239544,-0.000928662,0.0742088,-0.026629706174023937,0.06050148997957927,-0.0002395153116268034,0.07025142766851866,-0.0009282309268956457,-0.03884865940312732
792,0.0793,50.3914,807.036,-0.00371468,202.056,-0.924969,-3.41818,-0.0270245,0.0679763,-0.0396726,0.0588129,-0.000239893,-0.000930007,0.0743033,-0.026662605533952943,0.06057678825842516,-0.0002398642279750618,0.07033994112156772,-0.0009295746775213054,-0.03889594688580311
793,0.0794,50.3981,807.2,-0.00372164,202.091,-0.925187,-3.41894,-0.0270582,0.068059,-0.0397218,0.0588839,-0.000240242,-0.000931353,0.0743977,-0.026695406451447856,0.060652091883638626,-0.00024021314420152873,0.07042846189498198,-0.0009309194254087938,-0.038943232041991904
794,0.0795,50.4048,807.365,-0.0037286,202.125,-0.925405,-3.4197,-0.0270919,0.0681417,-0.039771,0.0589549,-0.000240591,-0.000932697,0.0744922,-0.02672820626357053,0.060727400855599134,-0.00024056206030631522,0.07051698998936695,-0.0009322621733507397,-0.03899051487180827
795,0.0796,50.4115,807.529,-0.00373556,202.159,-0.925622,-3.42046,-0.0271256,0.0682244,-0.0398202,0.0590258,-0.000240941,-0.000934042,0.0745867,-0.02676100497035805,0.06080260909442026,-0.00024091197604836356,0.07060552540532816,-0.0009336059185545142,-0.03903779537536667
796,0.0797,50.4182,807.693,-0.00374252,202.194,-0.925839,-3.42121,-0.0271593,0.0683071,-0.0398694,0.0590968,-0.00024129,-0.000935387,0.0746811,-0.026793802571847936,0.06087792875348241,-0.00024126089190912303,0.0706940681434709,-0.0009349496619508457,-0.03908507355278146
797,0.0798,50.4249,807.857,-0.00374949,202.228,-0.926054,-3.42196,-0.0271931,0.0683898,-0.0399186,0.0591677,-0.000241639,-0.000936732,0.0747756,-0.026826696385412352,0.06095314766510995,-0.00024160980764820206,0.0707826182044009,-0.0009362934035398451,-0.03913234940416721
798,0.0799,50.4316,808.021,-0.00375645,202.262,-0.926269,-3.4227,-0.0272268,0.0684724,-0.0399678,0.0592387,-0.000241987,-0.000938076,0.07487,-0.026859491773138844,0.06102847801278988,-0.0002419577235074355,0.07087106850161162,-0.0009376361442592351,-0.03917962292963828
799,0.08,50.4383,808.185,-0.00376342,202.297,-0.926484,-3.42345,-0.0272605,0.0685551,-0.040017,0.0593096,-0.000242336,-0.000939421,0.0749645,-0.026892286055679282,0.06110370759873818,-0.00024230663900337568,0.07095963320107646,-0.0009389798822349027,-0.03922689412930913
800,0.0801,50.4449,808.348,-0.00377038,202.331,-0.926697,-3.42419,-0.0272942,0.0686378,-0.0400662,0.0593805,-0.000242685,-0.000940765,0.0750589,-0.02692507923307108,0.0611789425186533,-0.00024265555437741337,0.07104820522514488,-0.0009403226193436254,-0.039274163003294116
801,0.0802,50.4516,808.511,-0.00377735,202.365,-0.92691,-3.42493,-0.0273279,0.0687204,-0.0401154,0.0594514,-0.000243034,-0.000942109,0.0751533,-0.026957871305351433,0.06125418277291339,-0.00024300446962977063,0.07113667746074959,-0.0009416653546477916,-0.0393214295517077
802,0.0803,50.4582,808.674,-0.00378432,202.399,-0.927122,-3.42566,-0.0273616,0.0688031,-0.0401646,0.0595223,-0.000243383,-0.000943453,0.0752477,-0.02699066227255753,0.06132942836189659,-0.0002433533847603364,0.07122526412698371,-0.0009430080881471792,-0.03936869377466434
803,0.0804,50.4649,808.837,-0.00379129,202.433,-0.927334,-3.4264,-0.0273953,0.0688857,-0.0402137,0.0595932,-0.000243732,-0.000944797,0.0753421,-0.027023452134726678,0.061404679285981256,-0.00024370229976911073,0.07131375098825776,-0.0009443508198420103,-0.039415859613869175
804,0.0805,50.4715,809.0,-0.00379826,202.467,-0.927544,-3.42713,-0.027429,0.0689683,-0.0402629,0.0596641,-0.000244081,-0.000946141,0.0754365,-0.027056240891896066,0.06147993554554554,-0.00024405121465609358,0.0714022451588483,-0.0009456935497321739,-0.039463119190981
805,0.0806,50.4781,809.162,-0.00380523,202.501,-0.927754,-3.42786,-0.0274627,0.069051,-0.0403121,0.059735,-0.00024443,-0.000947485,0.0755309,-0.027089028544103,0.06155519714096758,-0.000244400129421396,0.07149085378843933,-0.000947036277817781,-0.039510376442978945
806,0.0807,50.4847,809.325,-0.0038122,202.535,-0.927963,-3.42858,-0.0274964,0.0691336,-0.0403612,0.0598058,-0.000244778,-0.000948828,0.0756253,-0.02712181509138456,0.061630357909585154,-0.00024474804430951735,0.0715793625883252,-0.0009483780050471013,-0.03955753532573547
807,0.0808,50.4913,809.487,-0.00381918,202.569,-0.928172,-3.4293,-0.0275301,0.0692162,-0.0404104,0.0598767,-0.000245127,-0.000950172,0.0757197,-0.02715460053377816,0.06170563017033093,-0.0002450969588315699,0.0716678786993401,-0.0009497207295247057,-0.039604787932573826
808,0.0809,50.4979,809.649,-0.00382615,202.603,-0.92838,-3.43002,-0.0275638,0.0692988,-0.0404595,0.0599476,-0.000245476,-0.000951515,0.0758141,-0.027187384871320996,0.061780907768069326,-0.000245445873231942,0.07175640212208778,-0.0009510624531487988,-0.03965194217984014
809,0.081,50.5045,809.811,-0.00383313,202.636,-0.928587,-3.43074,-0.0275974,0.0693814,-0.0405087,0.0600184,-0.000245824,-0.000952858,0.0759084,-0.02722007082606226,0.06185608451756486,-0.0002457937877562433,0.07184493285717197,-0.0009524041749709999,-0.03969919014197543
810,0.0811,50.5111,809.972,-0.00384011,202.67,-0.928793,-3.43146,-0.0276311,0.069464,-0.0405578,0.0600892,-0.000246173,-0.000954201,0.0760028,-0.027252852957293405,0.06193126658976267,-0.0002461427019132545,0.07193347090519708,-0.0009537458949911981,-0.03974633975420705
811,0.0812,50.5176,810.134,-0.00384709,202.704,-0.928999,-3.43217,-0.0276648,0.0695465,-0.0406069,0.0601601,-0.000246522,-0.000955544,0.0760971,-0.027285633983785362,0.062006560185690285,-0.00024649161594858526,0.07202190906457062,-0.0009550876132095043,-0.03979348705144947
812,0.0813,50.5242,810.295,-0.00385407,202.738,-0.929204,-3.43288,-0.0276985,0.0696291,-0.0406561,0.0602309,-0.00024687,-0.000956887,0.0761914,-0.027318413905575323,0.06208175291194262,-0.00024683953010895543,0.07211046173143432,-0.0009564293296259185,-0.039840728049748475
813,0.0814,50.5307,810.456,-0.00386105,202.771,-0.929408,-3.43359,-0.0277322,0.0697117,-0.0407052,0.0603017,-0.000247219,-0.00095823,0.0762858,-0.02735119272270048,0.062156950962028334,-0.00024718844390103634,0.07219902171305015,-0.0009577710442403298,-0.03988787071263933
814,0.0815,50.5373,810.617,-0.00386803,202.805,-0.929612,-3.43429,-0.0277658,0.0697942,-0.0407543,0.0603725,-0.000247567,-0.000959573,0.0763801,-0.027383873173590367,0.06223215433632445,-0.0002475363578189338,0.07228748178126909,-0.000959112757052849,-0.039935011060882375
815,0.0816,50.5438,810.778,-0.00387501,202.838,-0.929815,-3.43499,-0.0277995,0.0698768,-0.0408035,0.0604433,-0.000247916,-0.000960915,0.0764744,-0.027416649784775426,0.06230736303520801,-0.00024788527136787586,0.07237605638534506,-0.0009604534690239586,-0.03998224509637138
816,0.0817,50.5503,810.939,-0.00388199,202.872,-0.930017,-3.43569,-0.0278332,0.0699593,-0.0408526,0.0605141,-0.000248264,-0.000962257,0.0765687,-0.02744942529140726,0.06238257705905581,-0.0002482331850433006,0.07246453105952688,-0.0009617941791957296,-0.04002938081094587
817,0.0818,50.5568,811.099,-0.00388898,202.905,-0.930219,-3.43639,-0.0278668,0.0700419,-0.0409017,0.0605849,-0.000248613,-0.0009636,0.076663,-0.02748210244173832,0.062457796408245114,-0.0002485820983489928,0.07255312028847727,-0.0009631358866052375,-0.04007651421121361
818,0.0819,50.5633,811.259,-0.00389596,202.939,-0.93042,-3.43709,-0.0279005,0.0701244,-0.0409508,0.0606556,-0.000248961,-0.000964942,0.0767573,-0.027514875742652767,0.06253291482985612,-0.00024893001178194485,0.07264160957103383,-0.0009644765931772215,-0.04012364529728818
819,0.082,50.5698,811.42,-0.00390295,202.972,-0.93062,-3.43778,-0.0279342,0.0702069,-0.0409999,0.0607264,-0.00024931,-0.000966284,0.0768516,-0.027547647939125675,0.06260814482333643,-0.0002492789248444982,0.07273010615425712,-0.000965817297949978,-0.040170774069283266
820,0.0821,50.5763,811.579,-0.00390994,203.005,-0.930819,-3.43847,-0.0279678,0.0702895,-0.041049,0.0607972,-0.000249658,-0.000967626,0.0769458,-0.027580321789231088,0.06268338014328889,-0.0002496268380348665,0.07281871732061629,-0.000967158000923618,-0.040217900527312445
821,0.0822,50.5827,811.739,-0.00391692,203.039,-0.931018,-3.43916,-0.0280015,0.070372,-0.0410981,0.0608679,-0.000250006,-0.000968967,0.0770401,-0.02761309178020932,0.06275851451423375,-0.0002499747511042205,0.07290722851583187,-0.0009684977030663955,-0.0402650246714894
822,0.0823,50.5892,811.899,-0.00392391,203.072,-0.931216,-3.43984,-0.0280351,0.0704545,-0.0411472,0.0609386,-0.000250355,-0.000970309,0.0771344,-0.027645763431438763,0.06283365419736642,-0.0002503236638020656,0.0729957470135223,-0.000969838402442913,-0.040312146501927604
823,0.0824,50.5957,812.058,-0.0039309,203.105,-0.931414,-3.44052,-0.0280688,0.070537,-0.0411963,0.0610094,-0.000250703,-0.00097165,0.0772286,-0.027678531217070867,0.06290890548394756,-0.0002506715766289469,0.07308427281428997,-0.0009711781009913434,-0.040359266018740736
824,0.0825,50.6021,812.217,-0.0039379,203.138,-0.93161,-3.4412,-0.0281024,0.0706194,-0.0412453,0.0610801,-0.000251051,-0.000972992,0.0773228,-0.027711200669572,0.0629840558000978,-0.00025101948933470286,0.07317269860146225,-0.0009725187967707383,-0.04040628726267592
825,0.0826,50.6085,812.377,-0.00394489,203.172,-0.931807,-3.44188,-0.0281361,0.0707019,-0.0412944,0.0611508,-0.000251399,-0.000974333,0.0774171,-0.027743966250006302,0.06305921142956294,-0.0002513674019193335,0.07326123900133807,-0.0009738584917247106,-0.04045340215729121
826,0.0827,50.615,812.535,-0.00395188,203.205,-0.932002,-3.44255,-0.0281697,0.0707844,-0.0413435,0.0612215,-0.000251747,-0.000975674,0.0775113,-0.02777663350392745,0.06313437237271913,-0.0002517153143829498,0.07334978670609837,-0.0009751981848822311,-0.04050051473862193
827,0.0828,50.6214,812.694,-0.00395887,203.238,-0.932197,-3.44322,-0.0282033,0.0708669,-0.0413925,0.0612922,-0.000252096,-0.000977015,0.0776055,-0.027809299660247144,0.06320953862994183,-0.0002520642264733919,0.07343834171634556,-0.0009765378762431887,-0.04054752906153947
828,0.0829,50.6278,812.853,-0.00396587,203.271,-0.932391,-3.44389,-0.028237,0.0709493,-0.0414416,0.0613629,-0.000252444,-0.000978356,0.0776997,-0.02784206193480121,0.06328471020160653,-0.0002524121386945355,0.07352679667999751,-0.0009778775658076944,-0.040594637021352686
829,0.083,50.6342,813.011,-0.00397286,203.304,-0.932584,-3.44456,-0.0282706,0.0710318,-0.0414907,0.0614336,-0.000252792,-0.000979696,0.0777939,-0.02787472589276263,0.0633598870880896,-0.00025276005079455377,0.07361536629416987,-0.0009792162545547711,-0.04064174266822185
830,0.0831,50.6406,813.169,-0.00397986,203.337,-0.932777,-3.44523,-0.0283043,0.0711142,-0.0415397,0.0615042,-0.00025314,-0.000981037,0.0778881,-0.02790748596248982,0.0634349629462645,-0.00025310796277355774,0.07370383584524798,-0.0009805559405275943,-0.040688750071140256
831,0.0832,50.6469,813.327,-0.00398686,203.37,-0.932968,-3.44589,-0.0283379,0.0711967,-0.0415888,0.0615749,-0.000253488,-0.000982377,0.0779823,-0.027940147722240738,0.06351015045599206,-0.0002534558746314364,0.07379242006575404,-0.0009818946256856531,-0.04073585109717215
832,0.0833,50.6533,813.485,-0.00399386,203.403,-0.93316,-3.44655,-0.0283715,0.0712791,-0.0416378,0.0616456,-0.000253836,-0.000983717,0.0780765,-0.027972808384575165,0.06358534328166421,-0.0002538037863683007,0.07388090420666393,-0.0009832333090499246,-0.04078285388889058
833,0.0834,50.6597,813.643,-0.00400085,203.435,-0.93335,-3.4472,-0.0284051,0.0713615,-0.0416869,0.0617162,-0.000254184,-0.000985057,0.0781707,-0.028005467949529628,0.06366043505760843,-0.0002541516979840397,0.07396939563896754,-0.0009845719906204087,-0.0408299502945384
834,0.0835,50.666,813.801,-0.00400785,203.468,-0.93354,-3.44786,-0.0284388,0.0714439,-0.0417359,0.0617868,-0.000254532,-0.000986397,0.0782648,-0.028038223613323754,0.0637355321352191,-0.00025449960947865335,0.07405789436326571,-0.0009859106703969944,-0.040876948475509156
835,0.0836,50.6724,813.958,-0.00401485,203.501,-0.93373,-3.44851,-0.0284724,0.0715263,-0.0417849,0.0618575,-0.00025488,-0.000987737,0.078359,-0.028070880980363477,0.06381074089593941,-0.0002548475208522527,0.07414640038015907,-0.0009872493483797928,-0.04092394435362545
836,0.0837,50.6787,814.115,-0.00402186,203.534,-0.933918,-3.44916,-0.028506,0.0716088,-0.041834,0.0619281,-0.000255228,-0.000989077,0.0784531,-0.028103537250134147,0.06388584858551694,-0.00025519543210483775,0.07423502111374525,-0.000988588024568804,-0.04097103383190148
837,0.0838,50.685,814.272,-0.00402886,203.566,-0.934106,-3.44981,-0.0285396,0.0716911,-0.041883,0.0619987,-0.000255575,-0.000990417,0.0785473,-0.028136192422672512,0.06396096157788467,-0.00025554234349178806,0.07432343429413546,-0.0009899266989639166,-0.04101802509994823
838,0.0839,50.6914,814.429,-0.00403586,203.599,-0.934293,-3.45045,-0.0285732,0.0717735,-0.041932,0.0620693,-0.000255923,-0.000991756,0.0786414,-0.028168846498015543,0.06403607987341653,-0.00025589025450256653,0.07441196219242063,-0.0009912643725564774,-0.041065014065479355
839,0.084,50.6977,814.586,-0.00404286,203.632,-0.93448,-3.45109,-0.0286069,0.0718559,-0.041981,0.0621399,-0.000256271,-0.000993095,0.0787355,-0.02820159665604538,0.06411120347248755,-0.00025623816539221966,0.07450049738570508,-0.0009926020443579153,-0.041112000728607434
840,0.0841,50.704,814.743,-0.00404987,203.664,-0.934666,-3.45173,-0.0286405,0.0719383,-0.04203,0.0622105,-0.000256619,-0.000994434,0.0788296,-0.028234248533843043,0.06418633237547167,-0.00025658607616074747,0.07458903987459009,-0.0009939397143682305,-0.04115898508944549
841,0.0842,50.7103,814.899,-0.00405687,203.697,-0.934851,-3.45237,-0.0286741,0.0720207,-0.042079,0.0622811,-0.000256966,-0.000995773,0.0789237,-0.02826689931455617,0.06426146658274368,-0.00025693298706519485,0.07467758965967697,-0.0009952773825873118,-0.041205967148106315
842,0.0843,50.7165,815.055,-0.00406388,203.729,-0.935036,-3.453,-0.0287077,0.072103,-0.042128,0.0623517,-0.000257314,-0.000997112,0.0790178,-0.028299548998221402,0.06433660609467795,-0.0002572808975920271,0.07476603926495717,-0.0009966150490153813,-0.0412529469047026
843,0.0844,50.7228,815.211,-0.00407089,203.762,-0.93522,-3.45364,-0.0287413,0.0721854,-0.042177,0.0624222,-0.000257662,-0.000998451,0.0791119,-0.028332197584875818,0.06441164447047942,-0.000257628807997734,0.07485460363539453,-0.000997952713652217,-0.04129992435934726
844,0.0845,50.7291,815.367,-0.00407789,203.794,-0.935403,-3.45427,-0.0287749,0.0722677,-0.042226,0.0624928,-0.000258009,-0.000999789,0.079206,-0.028364845074556055,0.0644867945853469,-0.0002579757185403597,0.07494306780952464,-0.00099928937749727,-0.04134689951215298
845,0.0846,50.7353,815.523,-0.0040849,203.826,-0.935586,-3.45489,-0.0288085,0.0723501,-0.042275,0.0625633,-0.000258357,-0.00100113,0.0793001,-0.028397491467299085,0.0645618435498101,-0.00025832362870426007,0.07503164676771501,-0.0010006290365519588,-0.041393872363232664
846,0.0847,50.7416,815.679,-0.00409191,203.859,-0.935768,-3.45552,-0.0288421,0.0724324,-0.042324,0.0626339,-0.000258705,-0.00100247,0.0793942,-0.028430136763141656,0.0646370042691069,-0.0002586715387470351,0.07512012551309444,-0.0010019676948122003,-0.041440842912699005
847,0.0848,50.7478,815.834,-0.00409892,203.891,-0.935949,-3.45614,-0.0288757,0.0725147,-0.042373,0.0627044,-0.000259052,-0.0010038,0.0794882,-0.02846278096212085,0.06471206382372596,-0.0002590184489278391,0.07520861154057434,-0.0010032963613115786,-0.0414878111606648
848,0.0849,50.7541,815.989,-0.00410593,203.923,-0.93613,-3.45676,-0.0289092,0.072597,-0.0424219,0.0627749,-0.000259399,-0.00100514,0.0795823,-0.028495326913810848,0.0647871286702304,-0.00025936535898829494,0.0752971048507538,-0.001004635015997568,-0.0415346812607158
849,0.085,50.7603,816.145,-0.00411294,203.956,-0.93631,-3.45738,-0.0289428,0.0726793,-0.0424709,0.0628455,-0.000259747,-0.00100648,0.0796763,-0.028527968922437807,0.06486230529521797,-0.00025971326866858213,0.07538560544423256,-0.0010059736688897702,-0.04158164491071514
850,0.0851,50.7665,816.299,-0.00411995,203.988,-0.936489,-3.458,-0.0289764,0.0727617,-0.0425199,0.062916,-0.000260094,-0.00100782,0.0797703,-0.028560609834311523,0.06493738073411959,-0.00026006017848789753,0.07547422086902644,-0.001007312319988185,-0.041628606259552114
851,0.0852,50.7727,816.454,-0.00412697,204.02,-0.936668,-3.45861,-0.02901,0.0728439,-0.0425688,0.0629865,-0.000260442,-0.00100916,0.0798644,-0.028593249649469188,0.0650124614660259,-0.00026040808792637815,0.07556262848348516,-0.0010086509692927015,-0.04167546947489109
852,0.0853,50.7789,816.609,-0.00413398,204.052,-0.936846,-3.45922,-0.0290436,0.0729262,-0.0426178,0.063057,-0.000260789,-0.00101049,0.0799584,-0.02862588836794744,0.06508754749131063,-0.00026075499750466413,0.07565115093045804,-0.0010099796269034123,-0.04172242622643696
853,0.0854,50.7851,816.763,-0.00414099,204.084,-0.937023,-3.45983,-0.0290772,0.0730085,-0.0426668,0.0631274,-0.000261136,-0.00101183,0.0800524,-0.028658525989783135,0.06516253229408808,-0.0002611019069624909,0.07573968066312808,-0.0010113182726337877,-0.04176938067715841
854,0.0855,50.7913,816.918,-0.00414801,204.116,-0.9372,-3.46043,-0.0291107,0.0730908,-0.0427157,0.0631979,-0.000261484,-0.00101317,0.0801464,-0.02869106538412458,0.06523762889973916,-0.0002614498160384837,0.07582821768209502,-0.0010126569165703758,-0.041816237008796664
855,0.0856,50.7975,817.072,-0.00415502,204.148,-0.937376,-3.46104,-0.0291443,0.0731731,-0.0427646,0.0632684,-0.000261831,-0.0010145,0.0802404,-0.028723700816049358,0.06531273079988731,-0.00026179672525517006,0.0759167619879586,-0.0010139855688531263,-0.04186309104921637
856,0.0857,50.8036,817.226,-0.00416204,204.18,-0.937551,-3.46164,-0.0291779,0.0732553,-0.0428136,0.0633388,-0.000262178,-0.00101584,0.0803344,-0.028756335151442047,0.06538773145612775,-0.0002621436343515082,0.0760052059807923,-0.0010153242092155734,-0.04191003860753029
857,0.0858,50.8098,817.38,-0.00416905,204.212,-0.937726,-3.46224,-0.0292114,0.0733376,-0.0428625,0.0634093,-0.000262525,-0.00101718,0.0804284,-0.028788871269231464,0.06546284393887936,-0.0002624905433274982,0.07609376485339214,-0.0010166628477843442,-0.04195688806116393
858,0.0859,50.8159,817.533,-0.00417607,204.244,-0.9379,-3.46283,-0.029245,0.0734198,-0.0429115,0.0634797,-0.000262872,-0.00101851,0.0805224,-0.028821503414933725,0.06553785516345689,-0.00026283745218314003,0.0761822233964593,-0.0010179914947391344,-0.042003831023537
859,0.086,50.8221,817.687,-0.00418309,204.276,-0.938074,-3.46343,-0.0292786,0.0735021,-0.0429604,0.0635502,-0.000263219,-0.00101985,0.0806163,-0.028854134464214254,0.06561297823030277,-0.00026318436091832265,0.07627079683819193,-0.0010193301297336532,-0.042050675890833555
860,0.0861,50.8282,817.84,-0.00419011,204.308,-0.938247,-3.46402,-0.0293121,0.0735843,-0.0430093,0.0636206,-0.000263566,-0.00102119,0.0807103,-0.028886667305781488,0.06568800002470643,-0.0002635312695331571,0.07635926993388642,-0.0010206687629343847,-0.04209751846747223
861,0.0862,50.8343,817.994,-0.00419712,204.34,-0.938419,-3.46461,-0.0293457,0.0736665,-0.0430582,0.063691,-0.000263913,-0.00102252,0.0808042,-0.02891929616559219,0.06576302710083026,-0.00026387817802764335,0.07644775030236839,-0.0010219974045614366,-0.042144358753564815
862,0.0863,50.8404,818.147,-0.00420414,204.371,-0.93859,-3.46519,-0.0293792,0.0737487,-0.0431071,0.0637614,-0.00026426,-0.00102386,0.0808982,-0.028951826824278992,0.0658380594590462,-0.0002642250864016704,0.07653623794423559,-0.001023336034188027,-0.04219119674922345
863,0.0864,50.8465,818.3,-0.00421116,204.403,-0.938761,-3.46578,-0.0294128,0.073831,-0.0431561,0.0638318,-0.000264607,-0.00102519,0.0809921,-0.028984453494766638,0.06591309709972593,-0.0002645719946553493,0.07662484052256446,-0.0010246646722675834,-0.042238128230752015
864,0.0865,50.8526,818.452,-0.00421818,204.435,-0.938932,-3.46636,-0.0294463,0.0739132,-0.043205,0.0639022,-0.000264954,-0.00102653,0.081086,-0.029016981970719558,0.06598814002324183,-0.00026491890278868,0.07671334272184582,-0.001026003298320033,-0.04228496164119533
865,0.0866,50.8587,818.605,-0.0042252,204.466,-0.939101,-3.46694,-0.0294799,0.0739954,-0.0432539,0.0639726,-0.000265301,-0.00102786,0.0811799,-0.02904960645203092,0.06606318822996537,-0.00026526581080166256,0.0768018521963072,-0.0010273319328520936,-0.042331792761540865
866,0.0867,50.8648,818.757,-0.00423223,204.498,-0.93927,-3.46752,-0.0295134,0.0740775,-0.0433028,0.064043,-0.000265648,-0.0010292,0.0812739,-0.029082132745396283,0.0661382417202685,-0.0002656127186942969,0.07689026125751486,-0.001028670555330402,-0.042378621591900534
867,0.0868,50.8709,818.91,-0.00423925,204.529,-0.939439,-3.46809,-0.029547,0.0741597,-0.0433516,0.0641134,-0.000265995,-0.00103053,0.0813678,-0.029114755037678464,0.06621330049452356,-0.0002659596264664721,0.07697878527527746,-0.0010299991863149671,-0.042425352374926506
868,0.0869,50.877,819.062,-0.00424627,204.561,-0.939606,-3.46866,-0.0295805,0.0742419,-0.0434005,0.0641837,-0.000266342,-0.00103187,0.0814617,-0.029147279148602823,0.06628825792427095,-0.0002663065341182991,0.07706731657001353,-0.0010313378052192457,-0.04247217663033298
869,0.087,50.883,819.214,-0.00425329,204.593,-0.939774,-3.46924,-0.0296141,0.0743241,-0.0434494,0.0642541,-0.000266688,-0.0010332,0.0815555,-0.029179899252002706,0.06636332726003857,-0.0002666524419163707,0.07715585514232104,-0.001032666432656426,-0.04251899859608943
870,0.0871,50.8891,819.366,-0.00426032,204.624,-0.93994,-3.4698,-0.0296476,0.0744062,-0.0434983,0.0643244,-0.000267035,-0.00103454,0.0816494,-0.029212421180632386,0.06643829523703837,-0.0002669993493278344,0.07724429326836368,-0.0010340050479865637,-0.042565818272307654
871,0.0872,50.8951,819.517,-0.00426734,204.655,-0.940106,-3.47037,-0.0296811,0.0744884,-0.0435472,0.0643948,-0.000267382,-0.00103587,0.0817433,-0.029244942019795772,0.06651337513580446,-0.00026734625661883893,0.0773328463887537,-0.0010353336718762485,-0.042612635659099674
872,0.0873,50.9011,819.669,-0.00427436,204.687,-0.940271,-3.47093,-0.0297147,0.0745705,-0.043596,0.0644651,-0.000267728,-0.00103721,0.0818372,-0.029277558841778184,0.06658835366154081,-0.0002676921640571983,0.07742129904637407,-0.001036672283632245,-0.04265935502251783
873,0.0874,50.9072,819.82,-0.00428139,204.718,-0.940436,-3.47149,-0.0297482,0.0746527,-0.0436449,0.0645354,-0.000268075,-0.00103854,0.081931,-0.029310077498866383,0.06666333745845288,-0.00026803907110783953,0.07750986671723714,-0.0010380009039746563,-0.04270616783547454
874,0.0875,50.9132,819.971,-0.00428841,204.749,-0.9406,-3.47205,-0.0297817,0.0747348,-0.0436938,0.0646057,-0.000268421,-0.00103988,0.0820249,-0.029342595066597865,0.06673832652691103,-0.00026838497830639074,0.07759833390882309,-0.0010393395121565119,-0.042752978359340776
875,0.0876,50.9192,820.122,-0.00429544,204.781,-0.940763,-3.47261,-0.0298152,0.0748169,-0.0437426,0.064676,-0.000268768,-0.00104121,0.0821187,-0.029375111545009158,0.06681332086728609,-0.0002687318851166687,0.07768680836386377,-0.0010406681289514275,-0.04279969087420221
876,0.0877,50.9252,820.273,-0.00430247,204.812,-0.940926,-3.47316,-0.0298488,0.0748991,-0.0437915,0.0647463,-0.000269114,-0.00104254,0.0822125,-0.029407723993368995,0.06688832047994864,-0.00026907779207563376,0.07777539786048959,-0.001041996743979312,-0.0428464968249036
877,0.0878,50.9312,820.424,-0.00430949,204.843,-0.941088,-3.47371,-0.0298823,0.0749812,-0.0438403,0.0648166,-0.000269461,-0.00104388,0.0823063,-0.029440238289997755,0.06696332536526906,-0.0002694246986454374,0.07786388685307744,-0.001043335346806784,-0.04289320477617531
878,0.0879,50.9372,820.575,-0.00431652,204.874,-0.941249,-3.47426,-0.0299158,0.0750633,-0.0438892,0.0648869,-0.000269807,-0.00104521,0.0824002,-0.029472751497415794,0.06703833552361838,-0.0002697706053645943,0.07795238311090968,-0.001044663958287284,-0.042940006154158716
879,0.088,50.9431,820.725,-0.00432355,204.906,-0.94141,-3.47481,-0.0299493,0.0751454,-0.043938,0.0649572,-0.000270153,-0.00104654,0.082494,-0.029505263615659527,0.06711335095536741,-0.0002701165119641802,0.07804088663458297,-0.0010459925680006421,-0.04298670954228645
880,0.0881,50.9491,820.876,-0.00433058,204.937,-0.94157,-3.47536,-0.0299828,0.0752275,-0.0439868,0.0650274,-0.0002705,-0.00104788,0.0825878,-0.029537774644765702,0.06718826494205454,-0.0002704634181734944,0.07812939742469394,-0.0010473311654737305,-0.04303341065134447
881,0.0882,50.9551,821.026,-0.0043376,204.968,-0.94173,-3.4759,-0.0300163,0.0753096,-0.0440357,0.0650977,-0.000270846,-0.00104921,0.0826816,-0.029570284584770512,0.0672632909142119,-0.00027080932453338313,0.07821791548183898,-0.001048659771639815,-0.043080205173428254
882,0.0883,50.961,821.176,-0.00434463,204.999,-0.941889,-3.47644,-0.0300498,0.0753916,-0.0440845,0.0651679,-0.000271192,-0.00105054,0.0827754,-0.029602793435710595,0.06733821542705387,-0.0002711552307734788,0.07830633297597633,-0.0010499883760387574,-0.04312690172001077
883,0.0884,50.967,821.326,-0.00435166,205.03,-0.942047,-3.47698,-0.0300833,0.0754737,-0.0441333,0.0652382,-0.000271538,-0.00105187,0.0828691,-0.029635301197622477,0.06741325194110082,-0.00027150113689389244,0.07839486556012654,-0.0010513169786707799,-0.043173595987857416
884,0.0885,50.9729,821.475,-0.00435869,205.061,-0.942205,-3.47751,-0.0301168,0.0755558,-0.0441821,0.0653084,-0.000271885,-0.00105321,0.0829629,-0.029667807870542573,0.06748818698157644,-0.00027184804262281315,0.07848340541310028,-0.001052655569009131,-0.04322028797707944
885,0.0886,50.9789,821.625,-0.00436572,205.092,-0.942362,-3.47805,-0.0301503,0.0756378,-0.044231,0.0653786,-0.000272231,-0.00105454,0.0830567,-0.0297003134545073,0.06756312728267622,-0.0002721939485035296,0.07857184467830436,-0.001053984168093658,-0.04326707336108537
886,0.0887,50.9848,821.774,-0.00437275,205.123,-0.942519,-3.47858,-0.0301838,0.0757199,-0.0442798,0.0654489,-0.000272577,-0.00105587,0.0831504,-0.029732817949553292,0.06763817960858254,-0.0002725398542646751,0.07866039906186018,-0.0010553127654112648,-0.043313760788722844
887,0.0888,50.9907,821.924,-0.00437978,205.153,-0.942675,-3.47911,-0.0302173,0.0758019,-0.0443286,0.0655191,-0.000272923,-0.0010572,0.0832442,-0.029765321355716856,0.06771313043953442,-0.0002728857599060275,0.07874885284113864,-0.0010566413609617298,-0.043360445938069425
888,0.0889,50.9966,822.073,-0.00438681,205.184,-0.94283,-3.47963,-0.0302508,0.0758839,-0.0443774,0.0655893,-0.000273269,-0.00105853,0.0833379,-0.02979782367303463,0.06778808653221935,-0.00027323166542769783,0.07883731387392445,-0.0010579699547451638,-0.04340712880923636
889,0.089,51.0025,822.222,-0.00439384,205.215,-0.942984,-3.48016,-0.0302843,0.075966,-0.0444262,0.0656594,-0.000273615,-0.00105986,0.0834316,-0.029830324901542915,0.06786294110070723,-0.00027357757082968615,0.07892589005339579,-0.0010592985467616778,-0.043453809402334787
890,0.0891,51.0084,822.37,-0.00440087,205.246,-0.943139,-3.48068,-0.0303178,0.076048,-0.044475,0.0657296,-0.000273961,-0.0010612,0.0835253,-0.02986282504127835,0.06793790771046981,-0.0002739234761119924,0.07901436560382824,-0.0010606371264048065,-0.04350048771747572
891,0.0892,51.0143,822.519,-0.00440791,205.277,-0.943292,-3.4812,-0.0303513,0.07613,-0.0445238,0.0657998,-0.000274307,-0.00106253,0.0836191,-0.029895324092277353,0.068012879583073,-0.00027426938127461664,0.07910284840955328,-0.0010619657148738249,-0.043547163754770524
892,0.0893,51.0201,822.668,-0.00441494,205.307,-0.943445,-3.48172,-0.0303848,0.076212,-0.0445725,0.06587,-0.000274652,-0.00106386,0.0837128,-0.029927822054576336,0.06808785671888629,-0.0002746142865922563,0.07919133847116577,-0.0010632943015759233,-0.043593741873709346
893,0.0894,51.026,822.816,-0.00442197,205.338,-0.943597,-3.48223,-0.0304182,0.076294,-0.0446213,0.0659401,-0.000274998,-0.00106519,0.0838065,-0.02996022192423886,0.06816273230200087,-0.0002749601915158495,0.07927983578926079,-0.0010646228865109908,-0.043640413360312325
894,0.0895,51.0319,822.964,-0.004429,205.369,-0.943749,-3.48275,-0.0304517,0.076376,-0.0446701,0.0660103,-0.000275344,-0.00106652,0.0839002,-0.029992717712496897,0.06823771995784433,-0.00027530609631976066,0.07936834036443341,-0.0010659514696790273,-0.04368708256940235
895,0.0896,51.0377,823.112,-0.00443604,205.399,-0.9439,-3.48326,-0.0304852,0.076458,-0.0447189,0.0660804,-0.00027569,-0.00106785,0.0839938,-0.03002521241216427,0.06831260604674028,-0.0002756520010039898,0.07945685219727894,-0.001067280051080144,-0.04373374950109066
896,0.0897,51.0436,823.26,-0.00444307,205.43,-0.94405,-3.48377,-0.0305187,0.07654,-0.0447676,0.0661506,-0.000276035,-0.00106918,0.0840875,-0.030057706023277397,0.06838760422408985,-0.0002759969058445666,0.07954537128839223,-0.0010686086307141185,-0.04378031853352471
897,0.0898,51.0494,823.408,-0.0044501,205.46,-0.9442,-3.48427,-0.0305521,0.0766219,-0.0448164,0.0662207,-0.000276381,-0.00107051,0.0841812,-0.030090101554887894,0.06846250082024108,-0.0002763428102897647,0.07963378967498436,-0.0010699372085811731,-0.04382698091540893
898,0.0899,51.0552,823.556,-0.00445714,205.491,-0.944349,-3.48478,-0.0305856,0.0767039,-0.0448651,0.0662908,-0.000276726,-0.00107184,0.0842748,-0.030122592992251174,0.06853740266682751,-0.00027668771489208766,0.07972232327556572,-0.0010712657846811968,-0.043873545407583814
899,0.09,51.0611,823.703,-0.00446417,205.521,-0.944498,-3.48528,-0.0306191,0.0767859,-0.0449139,0.0663609,-0.000277072,-0.00107317,0.0843685,-0.030155083341169564,0.06861230976421773,-0.00027703361909825475,0.07981086413619987,-0.0010725943590141895,-0.04392020324010748
900,0.0901,51.0669,823.851,-0.00447121,205.552,-0.944646,-3.48578,-0.0306525,0.0768678,-0.0449626,0.066431,-0.000277417,-0.0010745,0.0844621,-0.03018747562043189,0.06868722211277922,-0.0002773785234621018,0.07989930426754666,-0.0010739229315801513,-0.04396676319246573
901,0.0902,51.0727,823.998,-0.00447824,205.582,-0.944793,-3.48628,-0.030686,0.0769498,-0.0450114,0.0665011,-0.000277763,-0.00107583,0.0845558,-0.030219963795818594,0.06876213971288059,-0.0002777244274293489,0.07998785964121735,-0.001075251502379193,-0.04401341647607249
902,0.0903,51.0785,824.145,-0.00448528,205.612,-0.94494,-3.48677,-0.0307194,0.0770317,-0.0450601,0.0665712,-0.000278108,-0.00107716,0.0846494,-0.030252353908109986,0.06883706256488975,-0.00027806933155494207,0.08007631426908945,-0.001076580071411204,-0.04405997188905664
903,0.0904,51.0843,824.292,-0.00449231,205.643,-0.945086,-3.48727,-0.0307529,0.0771136,-0.0451089,0.0666413,-0.000278454,-0.00107849,0.084743,-0.03028483991011044,0.06891199066917486,-0.0002784152352830471,0.08016477614169237,-0.0010779086386761838,-0.04410662062419002
904,0.0905,51.0901,824.439,-0.00449935,205.673,-0.945232,-3.48776,-0.0307864,0.0771955,-0.0451576,0.0667114,-0.000278799,-0.00107982,0.0848366,-0.03031732482384819,0.06898692402610429,-0.00027876013917038645,0.08025324525961919,-0.0010792372041742437,-0.044153171498242605
905,0.0906,51.0958,824.585,-0.00450638,205.703,-0.945377,-3.48825,-0.0308198,0.0772775,-0.0452063,0.0667814,-0.000279144,-0.00108114,0.0849302,-0.030349711684335423,0.06906175572986517,-0.00027910504293859884,0.08034182965764125,-0.001080555778710801,-0.044199720105322915
906,0.0907,51.1016,824.732,-0.00451342,205.734,-0.945521,-3.48873,-0.0308533,0.0773594,-0.045255,0.0668515,-0.00027949,-0.00108247,0.0850238,-0.030382194424905085,0.06913669958569324,-0.0002794509463084349,0.08043031327684491,-0.0010818843406881218,-0.044246266445541194
907,0.0908,51.1074,824.878,-0.00452045,205.764,-0.945665,-3.48922,-0.0308867,0.0774413,-0.0453038,0.0669215,-0.000279835,-0.0010838,0.0851174,-0.03041457911878387,0.06921154177411037,-0.00027979584983828243,0.08051880414315371,-0.0010832129008985225,-0.04429290608972203
908,0.0909,51.1131,825.024,-0.00452749,205.794,-0.945808,-3.4897,-0.0309201,0.0775232,-0.0453525,0.0669916,-0.00028018,-0.00108513,0.085211,-0.03044696273103198,0.06928649613030813,-0.00028014075324922505,0.0806073022571614,-0.0010845414593418923,-0.04433944789189348
909,0.091,51.1189,825.171,-0.00453453,205.824,-0.945951,-3.49018,-0.0309536,0.0776051,-0.0454012,0.0670616,-0.000280525,-0.00108646,0.0853046,-0.0304794422137461,0.06936134880485034,-0.0002804856565412628,0.08069580761946149,-0.001085870016018231,-0.04438598742753419
910,0.0911,51.1246,825.317,-0.00454156,205.854,-0.946093,-3.49066,-0.030987,0.0776869,-0.0454499,0.0671316,-0.00028087,-0.00108778,0.0853981,-0.030511823659603032,0.0694362067192631,-0.0002808305597141736,0.08078421215222087,-0.0010871885817995697,-0.04443252469675474
911,0.0912,51.1304,825.462,-0.0045486,205.884,-0.946234,-3.49113,-0.0310205,0.0777688,-0.0454986,0.0672016,-0.000281215,-0.00108911,0.0854917,-0.03054430096951244,0.0695110698739132,-0.0002811754627681795,0.08087273200403455,-0.0010885171349552802,-0.04447905969966548
912,0.0913,51.1361,825.608,-0.00455563,205.914,-0.946375,-3.49161,-0.0310539,0.0778507,-0.0455473,0.0672716,-0.00028156,-0.00109044,0.0855852,-0.030576680249123078,0.0695859382691677,-0.0002815203657030585,0.080961259105921,-0.0010898456863439598,-0.04452559243637677
913,0.0914,51.1418,825.753,-0.00456267,205.944,-0.946515,-3.49208,-0.0310873,0.0779325,-0.045596,0.0673416,-0.000281905,-0.00109177,0.0856788,-0.030609058447283788,0.0696608119053932,-0.0002818652685190326,0.0810496853535001,-0.0010911742359657195,-0.04457212290699897
914,0.0915,51.1475,825.899,-0.00456971,205.974,-0.946655,-3.49255,-0.0311207,0.0780144,-0.0456447,0.0674116,-0.00028225,-0.00109309,0.0857723,-0.030641435564030872,0.06973569078295672,-0.0002822101712161018,0.08113822694845929,-0.0010924927947454366,-0.04461865111164243
915,0.0916,51.1532,826.044,-0.00457675,206.004,-0.946794,-3.49302,-0.0311542,0.0780962,-0.0456933,0.0674816,-0.000282595,-0.00109442,0.0858658,-0.030673908532014238,0.06981057490222531,-0.0002825550737940441,0.08122666767260012,-0.001093821340846568,-0.044665081516930494
916,0.0917,51.1589,826.189,-0.00458378,206.034,-0.946933,-3.49348,-0.0311876,0.0781781,-0.045742,0.0675516,-0.00028294,-0.00109575,0.0859594,-0.030706283482804575,0.06988546426356534,-0.0002828999762530815,0.08131522376300482,-0.0010951498851806685,-0.044711605194599824
917,0.0918,51.1646,826.334,-0.00459082,206.064,-0.94707,-3.49394,-0.031221,0.0782599,-0.0457907,0.0676216,-0.000283284,-0.00109707,0.0860529,-0.030738657352289533,0.06996035886734453,-0.00028324387887634916,0.08140367896607703,-0.0010964684387125834,-0.04475812660662126
918,0.0919,51.1703,826.479,-0.00459786,206.094,-0.947208,-3.4944,-0.0312544,0.0783417,-0.0458394,0.0676915,-0.000283629,-0.0010984,0.0861464,-0.030771030140505418,0.07003515171040875,-0.0002835887810976878,0.08149214140508088,-0.0010977969795260556,-0.044804645753105166
919,0.092,51.176,826.624,-0.00460489,206.124,-0.947345,-3.49486,-0.0312878,0.0784235,-0.045888,0.0677615,-0.000283974,-0.00109973,0.0862399,-0.0308034018474882,0.07011005679267579,-0.00028393368320001056,0.08158061108060832,-0.0010991255185726079,-0.044851067119273225
920,0.0921,51.1816,826.768,-0.00461193,206.153,-0.947481,-3.49532,-0.0313213,0.0785053,-0.0459367,0.0678314,-0.000284318,-0.00110105,0.0863333,-0.03083586938969196,0.07018486009999059,-0.0002842775854676738,0.08166908799325112,-0.0011004440668567206,-0.044897581739664294
921,0.0922,51.1873,826.913,-0.00461897,206.183,-0.947616,-3.49577,-0.0313547,0.0785872,-0.0459854,0.0679014,-0.000284663,-0.00110238,0.0864268,-0.03086823893108004,0.07025977566221164,-0.0002846224873324088,0.08175768031936403,-0.0011017726023826446,-0.04494409409484856
922,0.0923,51.1929,827.057,-0.00462601,206.213,-0.947751,-3.49623,-0.0313881,0.0786689,-0.046034,0.0679713,-0.000285007,-0.0011037,0.0865203,-0.03090060739134337,0.0703345894352414,-0.00028496638936315044,0.0818460635322511,-0.0011030911471725524,-0.0449905086839919
923,0.0924,51.1986,827.201,-0.00463304,206.242,-0.947886,-3.49668,-0.0314215,0.0787507,-0.0460827,0.0680412,-0.000285352,-0.00110503,0.0866138,-0.030932974770518262,0.07040940843793653,-0.00028531129099029773,0.08193456215979267,-0.0011044196791778482,-0.045037016513744144
924,0.0925,51.2042,827.345,-0.00464008,206.272,-0.94802,-3.49712,-0.0314549,0.0788325,-0.0461313,0.0681111,-0.000285696,-0.00110635,0.0867072,-0.030965341068640795,0.07048423267066295,-0.00028565519278400675,0.08202306802681791,-0.001105738220473662,-0.04508342658696762
925,0.0926,51.2099,827.489,-0.00464712,206.302,-0.948153,-3.49757,-0.0314883,0.0789143,-0.0461799,0.068181,-0.000286041,-0.00110768,0.0868007,-0.03099770628574694,0.07055906213378593,-0.0002860000941734553,0.08211158113391925,-0.0011070667489583297,-0.04512983440471641
926,0.0927,51.2155,827.633,-0.00465416,206.331,-0.948286,-3.49801,-0.0315217,0.0789961,-0.0462286,0.0682509,-0.000286385,-0.001109,0.0868941,-0.03103007042187289,0.07063389682767118,-0.00028634399573035374,0.08220010148168888,-0.0011083852867599386,-0.045176335449471194
927,0.0928,51.2211,827.776,-0.0046612,206.361,-0.948418,-3.49845,-0.0315551,0.0790778,-0.0462772,0.0683208,-0.000286729,-0.00111033,0.0869875,-0.03106243347705484,0.07070873675268419,-0.0002866878971687914,0.08228852084186156,-0.001109713811724089,-0.045222738751959035
928,0.0929,51.2267,827.92,-0.00466823,206.39,-0.948549,-3.49889,-0.0315885,0.0791596,-0.0463258,0.0683907,-0.000287074,-0.00111165,0.0870809,-0.03109479545132865,0.0707835819091911,-0.00028703279820196936,0.0823770556638912,-0.001111032346031604,-0.04526913979930103
929,0.093,51.2323,828.063,-0.00467527,206.42,-0.94868,-3.49933,-0.0316219,0.0792413,-0.0463745,0.0684605,-0.000287418,-0.00111298,0.0871744,-0.031127156344730733,0.0708583252117192,-0.00028737669940359645,0.08246548948181132,-0.0011123608674751262,-0.04531563406004846
930,0.0931,51.2379,828.206,-0.00468231,206.449,-0.948811,-3.49977,-0.0316553,0.0793231,-0.0464231,0.0685304,-0.000287762,-0.0011143,0.0872678,-0.03115951615729695,0.07093318082482458,-0.00028772060048687376,0.08255403878046774,-0.0011136793982885473,-0.045362030592788205
931,0.0932,51.2435,828.349,-0.00468935,206.479,-0.94894,-3.5002,-0.0316886,0.0794048,-0.0464717,0.0686003,-0.000288106,-0.00111562,0.0873612,-0.03119177800824602,0.07100804167052033,-0.0002880645014518013,0.08264248705849919,-0.0011149979273615829,-0.045408424870711284
932,0.0933,51.2491,828.492,-0.00469639,206.508,-0.94907,-3.50063,-0.031722,0.0794865,-0.0465203,0.0686701,-0.00028845,-0.00111695,0.0874546,-0.03122413566248472,0.07108280064088679,-0.0002884084022984901,0.08273094256305003,-0.0011163264435307685,-0.045454816893927275
933,0.0934,51.2547,828.635,-0.00470342,206.537,-0.949198,-3.50106,-0.0317554,0.0795682,-0.0465689,0.06874,-0.000288794,-0.00111827,0.087548,-0.0312564922359958,0.07115767194537304,-0.0002887523030268291,0.08281940529471066,-0.0011176449691097101,-0.04550120666254576
934,0.0935,51.2602,828.777,-0.00471046,206.567,-0.949326,-3.50148,-0.0317888,0.0796499,-0.0466175,0.0688098,-0.000289138,-0.00111959,0.0876413,-0.03128884772881546,0.07123244136029716,-0.00028909620363692934,0.08290787525407195,-0.0011189634929481551,-0.0455475941766762
935,0.0936,51.2658,828.92,-0.0047175,206.596,-0.949454,-3.50191,-0.0318222,0.0797317,-0.0466661,0.0688796,-0.000289482,-0.00112092,0.0877347,-0.031321202140979554,0.07130721599430845,-0.0002894401041286798,0.08299646074136469,-0.0011202920038432262,-0.04559397943642829
936,0.0937,51.2713,829.062,-0.00472454,206.625,-0.949581,-3.50233,-0.0318555,0.0798133,-0.0467147,0.0689494,-0.000289826,-0.00112224,0.0878281,-0.031353458607875195,0.07138199584777127,-0.00028978400450208053,0.08308483685825774,-0.0011216105241875773,-0.0456403624419115
937,0.0938,51.2769,829.205,-0.00473157,206.655,-0.949707,-3.50275,-0.0318889,0.079895,-0.0467633,0.0690192,-0.00029017,-0.00112356,0.0879214,-0.03138581086207193,0.07145678092105023,-0.0002901279047572425,0.08317332850426373,-0.0011229290427914318,-0.04568674319323551
938,0.0939,51.2824,829.347,-0.00473861,206.684,-0.949833,-3.50317,-0.0319223,0.0799767,-0.0468119,0.069089,-0.000290514,-0.00112488,0.0880148,-0.031418162035721564,0.07153157121450948,-0.00029047180489405466,0.08326182738033228,-0.0011242475596549006,-0.04573312169050969
939,0.094,51.288,829.489,-0.00474565,206.713,-0.949958,-3.50359,-0.0319556,0.0800584,-0.0468604,0.0691588,-0.000290857,-0.00112621,0.0881081,-0.03145041527390635,0.07160636672851317,-0.0002908147052034238,0.08335033348705445,-0.001125576063522149,-0.04577940251178869
940,0.0941,51.2935,829.63,-0.00475269,206.742,-0.950083,-3.504,-0.031989,0.0801401,-0.046909,0.0692286,-0.000291201,-0.00112753,0.0882014,-0.03148276428980468,0.07168116746342612,-0.00029115860510409153,0.08343884682502112,-0.001126894576891524,-0.04582577650592945
941,0.0942,51.299,829.772,-0.00475972,206.771,-0.950207,-3.50441,-0.0320224,0.0802217,-0.0469576,0.0692984,-0.000291545,-0.00112885,0.0882947,-0.03151511222526382,0.0717559734196127,-0.0002915025048862985,0.08352725904209124,-0.0011282130885205133,-0.045872148246348776
942,0.0943,51.3045,829.914,-0.00476676,206.8,-0.950331,-3.50482,-0.0320557,0.0803034,-0.0470062,0.0693681,-0.000291888,-0.00113017,0.088388,-0.03154736223506116,0.071830677414364,-0.0002918454048421726,0.08361578683546611,-0.001129531598409006,-0.04591851773315636
943,0.0944,51.31,830.055,-0.0047738,206.829,-0.950454,-3.50523,-0.0320891,0.080385,-0.0470547,0.0694379,-0.000292232,-0.00113149,0.0884814,-0.03157970801298493,0.07190549380670919,-0.0002921893043882351,0.08370421349143053,-0.001130850106557002,-0.04596478956294536
944,0.0945,51.3155,830.196,-0.00478084,206.858,-0.950576,-3.50564,-0.0321224,0.0804667,-0.0471033,0.0695077,-0.000292576,-0.00113281,0.0885747,-0.03161195587177834,0.07198031542142092,-0.00029253320381594783,0.08379275574257439,-0.0011321686129647235,-0.04601115454749438
945,0.0946,51.321,830.338,-0.00478787,206.887,-0.950698,-3.50604,-0.0321558,0.0805483,-0.0471518,0.0695774,-0.000292919,-0.00113413,0.0886679,-0.031644299492310735,0.07205503505335464,-0.0002928761034182159,0.08388119683979078,-0.0011334871176319483,-0.04605742188450679
946,0.0947,51.3265,830.479,-0.00479491,206.916,-0.95082,-3.50644,-0.0321891,0.0806299,-0.0472004,0.0696471,-0.000293262,-0.00113546,0.0887612,-0.031676545200243655,0.07212975989342829,-0.00029321900290291136,0.083969645154095,-0.0011348156092105821,-0.04610378236723445
947,0.0948,51.332,830.62,-0.00480194,206.945,-0.95094,-3.50684,-0.0322225,0.0807116,-0.0472489,0.0697169,-0.000293606,-0.00113678,0.0888545,-0.031708886663528446,0.0722045971624592,-0.00029356290197646295,0.08405820909189177,-0.001136134110383824,-0.046150045211906576
948,0.0949,51.3374,830.76,-0.00480898,206.974,-0.951061,-3.50724,-0.0322558,0.0807932,-0.0472975,0.0697866,-0.000293949,-0.0011381,0.0889478,-0.03174113022074443,0.07227933242737516,-0.0002939058012255691,0.08414667185098512,-0.0011374526098165694,-0.04619640119324975
949,0.095,51.3429,830.901,-0.00481602,207.003,-0.95118,-3.50764,-0.0322892,0.0808748,-0.047346,0.0698563,-0.000294292,-0.00113942,0.089041,-0.03177346952692561,0.07235407290152063,-0.0002942487003571026,0.08423514182893399,-0.001138771107508929,-0.046242659546017806
950,0.0951,51.3484,831.042,-0.00482305,207.032,-0.951299,-3.50803,-0.0323225,0.0809564,-0.0473945,0.069926,-0.000294636,-0.00114074,0.0891343,-0.03180571093356799,0.07242881858525863,-0.000294592599076382,0.0843236190263279,-0.0011400896034607921,-0.046288915655310126
951,0.0952,51.3538,831.182,-0.00483009,207.061,-0.951418,-3.50842,-0.0323558,0.081038,-0.047443,0.0699957,-0.000294979,-0.00114206,0.0892275,-0.03183795126658928,0.07250356947895242,-0.0002949354979723262,0.08441210344375549,-0.0011414080976723806,-0.04633516952123551
952,0.0953,51.3593,831.322,-0.00483713,207.09,-0.951536,-3.50881,-0.0323892,0.0811196,-0.0474916,0.0700654,-0.000295322,-0.00114338,0.0893207,-0.03187028733900166,0.07257832558296506,-0.00029527839675058676,0.0845005950818063,-0.0011427265901434724,-0.04638151650575595
953,0.0954,51.3647,831.462,-0.00484416,207.118,-0.951653,-3.5092,-0.0324225,0.0812011,-0.0475401,0.0701351,-0.000295665,-0.0011447,0.089414,-0.031902525521664504,0.07265308689765981,-0.0002956212954112747,0.08458898548216531,-0.0011440450808741787,-0.04642776588064901
954,0.0955,51.3701,831.602,-0.0048512,207.147,-0.95177,-3.50958,-0.0324558,0.0812827,-0.0475886,0.0702047,-0.000296008,-0.00114601,0.0895072,-0.03193476263081374,0.07272774615061972,-0.00029596419395439,0.08467749155437931,-0.0011453535813180649,-0.04647401301250176
955,0.0956,51.3755,831.742,-0.00485823,207.176,-0.951887,-3.50997,-0.0324892,0.0813643,-0.0476371,0.0702744,-0.000296351,-0.00114733,0.0896004,-0.03196709546978049,0.0728025178802909,-0.00029630709237982167,0.08476600484898356,-0.0011466720685811005,-0.046520257901423
956,0.0957,51.381,831.882,-0.00486527,207.204,-0.952002,-3.51035,-0.0325225,0.0814458,-0.0476856,0.0703441,-0.000296694,-0.00114865,0.0896936,-0.03199933042878633,0.07287729482173333,-0.0002966499906876807,0.08485441688112005,-0.0011479905541037505,-0.04656650054752154
957,0.0958,51.3864,832.021,-0.0048723,207.233,-0.952118,-3.51073,-0.0325558,0.0815274,-0.0477341,0.0704137,-0.000297037,-0.00114997,0.0897868,-0.03203156431438581,0.07295196968010775,-0.00029699288887796715,0.08494294461342,-0.001149309037886015,-0.04661274095090617
958,0.0959,51.3918,832.161,-0.00487934,207.262,-0.952232,-3.5111,-0.0325891,0.0816089,-0.0477826,0.0704833,-0.00029738,-0.00115129,0.08988,-0.03206379712661489,0.07302664973603323,-0.00029733578695056995,0.08503137106673497,-0.0011506275199278937,-0.046658979111685595
959,0.096,51.3972,832.3,-0.00488637,207.29,-0.952347,-3.51148,-0.0326224,0.0816905,-0.0478311,0.070553,-0.000297722,-0.00115261,0.0899732,-0.03209602886550911,0.07310144230001048,-0.0002976776852032792,0.08511991323908541,-0.0011519460002293869,-0.046705215029968605
960,0.0961,51.4026,832.44,-0.0048934,207.319,-0.95246,-3.51185,-0.0326558,0.081772,-0.0478796,0.0706226,-0.000298065,-0.00115393,0.0900664,-0.0321283563182736,0.07317613275959234,-0.0002980205830410698,0.0852083541159312,-0.0011532644787904944,-0.046751448705863896
961,0.0962,51.4079,832.579,-0.00490044,207.347,-0.952573,-3.51222,-0.0326891,0.0818535,-0.0479281,0.0706922,-0.000298408,-0.00115524,0.0901595,-0.03216058590738258,0.07325082841781128,-0.0002983634807611768,0.08529680220100211,-0.0011545729671569305,-0.04679768013948038
962,0.0963,51.4133,832.718,-0.00490747,207.376,-0.952686,-3.51259,-0.0327224,0.081935,-0.0479766,0.0707618,-0.00029875,-0.00115656,0.0902527,-0.03219281442326405,0.07332552927502878,-0.00029870537866238944,0.0853852574948859,-0.0011558914422504785,-0.046843909330926636
963,0.0964,51.4187,832.856,-0.00491451,207.404,-0.952798,-3.51296,-0.0327557,0.0820165,-0.048025,0.0708314,-0.000299093,-0.00115788,0.0903458,-0.032225041865953874,0.073400235331607,-0.00029904827614768426,0.08547371999816966,-0.0011572099156035298,-0.04689004096932037
964,0.0965,51.4241,832.995,-0.00492154,207.433,-0.952909,-3.51333,-0.032789,0.082098,-0.0480735,0.070901,-0.000299435,-0.00115919,0.090439,-0.03225726823548769,0.07347494658790765,-0.00029939017381463984,0.08556218971144136,-0.0011585183988014336,-0.04693626568137499
965,0.0966,51.4294,833.134,-0.00492857,207.461,-0.95302,-3.51369,-0.0328223,0.0821795,-0.048122,0.0709706,-0.000299778,-0.00116051,0.0905321,-0.03228949353190125,0.07354966304429267,-0.00029973307106501146,0.08565066663528853,-0.0011598368686870364,-0.046982488151585566
966,0.0967,51.4348,833.272,-0.0049356,207.489,-0.95313,-3.51405,-0.0328556,0.082261,-0.0481704,0.0710402,-0.00030012,-0.00116183,0.0906252,-0.032321717755230406,0.07362438470112398,-0.000300074968497821,0.08573915077029892,-0.0011611553368321426,-0.04702861308292661
967,0.0968,51.4401,833.411,-0.00494264,207.518,-0.95324,-3.51441,-0.0328889,0.0823425,-0.0482189,0.0711098,-0.000300463,-0.00116314,0.0907183,-0.03235394090551069,0.07369911155876374,-0.00030041786551338046,0.08582764211706007,-0.001162463814861625,-0.047074831074396806
968,0.0969,51.4455,833.549,-0.00494967,207.546,-0.953349,-3.51477,-0.0329222,0.082424,-0.0482673,0.0711793,-0.000300805,-0.00116446,0.0908114,-0.032386162982777966,0.07377373624019468,-0.00030075976271193294,0.08591614067615994,-0.0011637822795391717,-0.047120951536448574
969,0.097,51.4508,833.687,-0.0049567,207.574,-0.953458,-3.51512,-0.0329555,0.0825054,-0.0483158,0.0712489,-0.000301147,-0.00116578,0.0909045,-0.03241838398706798,0.07384847349306312,-0.00030110165979368997,0.08600453784772699,-0.0011651007424763327,-0.04716716504961227
970,0.0971,51.4561,833.825,-0.00496373,207.603,-0.953566,-3.51548,-0.0329888,0.0825869,-0.0483642,0.0713184,-0.000301489,-0.00116709,0.0909976,-0.032450603918416365,0.07392310855550943,-0.0003014435567584295,0.08609305082441643,-0.001166409215337394,-0.047213281042807864
971,0.0972,51.4614,833.963,-0.00497076,207.631,-0.953674,-3.51583,-0.0330221,0.0826684,-0.0484127,0.071388,-0.000301832,-0.00116841,0.0910907,-0.03248282277685888,0.07399785620505295,-0.0003017864533044756,0.0861815710152074,-0.0011677276748069954,-0.04725949007809915
972,0.0973,51.4667,834.1,-0.00497779,207.659,-0.953781,-3.51618,-0.0330553,0.0827498,-0.0484611,0.0714575,-0.000302174,-0.00116972,0.0911838,-0.0325149438139305,0.07407250164995816,-0.0003021283500350691,0.08626998979368339,-0.0011690361442266983,-0.04730560160287145
973,0.0974,51.472,834.238,-0.00498482,207.687,-0.953887,-3.51652,-0.0330886,0.0828312,-0.0485095,0.071527,-0.000302516,-0.00117104,0.0912769,-0.03254716052989026,0.07414715228290247,-0.0003024702466486451,0.08635841576974101,-0.0011703546002288512,-0.04735171089589996
974,0.0975,51.4773,834.375,-0.00499185,207.715,-0.953993,-3.51687,-0.0331219,0.0829127,-0.048558,0.0715965,-0.000302858,-0.00117235,0.0913699,-0.03257937617305118,0.07422180810424583,-0.0003028121431454256,0.08644695758865639,-0.0011716630662071958,-0.04739791321750619
975,0.0976,51.4826,834.513,-0.00499888,207.743,-0.954099,-3.51721,-0.0331552,0.0829941,-0.0486064,0.071666,-0.0003032,-0.00117367,0.091463,-0.03261159074344899,0.07429646911434906,-0.0003031540395251886,0.08653539797047882,-0.0011729815187417891,-0.04744401804276066
976,0.0977,51.4879,834.65,-0.00500591,207.771,-0.954204,-3.51755,-0.0331885,0.0830755,-0.0486548,0.0717355,-0.000303542,-0.00117498,0.091556,-0.03264380424111957,0.07437113531357298,-0.0003034959357880451,0.08662384555164127,-0.0011742899812789975,-0.047490120636595634
977,0.0978,51.4932,834.787,-0.00501294,207.799,-0.954308,-3.51789,-0.0332217,0.0831569,-0.0487032,0.071805,-0.000303884,-0.0011763,0.0916491,-0.03267591993369534,0.07444580670227796,-0.00030383783193399516,0.08671230033272992,-0.0011756084303460312,-0.04753622099911903
978,0.0979,51.4985,834.924,-0.00501997,207.827,-0.954412,-3.51823,-0.033255,0.0832383,-0.0487516,0.0718745,-0.000304225,-0.00117761,0.0917421,-0.03270813128923944,0.07452048328082483,-0.0003041787282671571,0.08680076231433098,-0.0011769168894419924,-0.047582319130438866
979,0.098,51.5037,835.061,-0.005027,207.855,-0.954516,-3.51857,-0.0332883,0.0833197,-0.0488,0.071944,-0.000304567,-0.00117893,0.0918351,-0.03274034157216332,0.0745951650495742,-0.0003045206241795162,0.0868892314970302,-0.0011782353350414665,-0.047628415030663174
980,0.0981,51.509,835.198,-0.00503403,207.883,-0.954618,-3.5189,-0.0333215,0.0834011,-0.0488484,0.0720135,-0.000304909,-0.00118024,0.0919281,-0.03277245405975293,0.07466985200888687,-0.00030486251997507985,0.08697770788141401,-0.0011795437906961803,-0.047674508699899976
981,0.0982,51.5143,835.334,-0.00504105,207.911,-0.954721,-3.51923,-0.0333548,0.0834825,-0.0488968,0.0720829,-0.00030525,-0.00118155,0.0920212,-0.03280466220076417,0.07474443668467456,-0.00030520341595874356,0.0870661914680686,-0.0011808522446367098,-0.047720600138257074
982,0.0983,51.5195,835.471,-0.00504808,207.939,-0.954823,-3.51956,-0.0333881,0.0835639,-0.0489452,0.0721524,-0.000305592,-0.00118287,0.0921142,-0.032836869269262214,0.07481913401872653,-0.0003055453115207163,0.08715468225758038,-0.0011821706850416724,-0.047766689345842495
983,0.0984,51.5247,835.607,-0.00505511,207.967,-0.954924,-3.51989,-0.0334213,0.0836453,-0.0489936,0.0722218,-0.000305934,-0.00118418,0.0922071,-0.0328689785521854,0.07489372905504532,-0.00030588720696578253,0.08724318025053579,-0.0011834791355409546,-0.04781277632276437
984,0.0985,51.53,835.743,-0.00506213,207.995,-0.955024,-3.52022,-0.0334546,0.0837266,-0.049042,0.0722913,-0.000306275,-0.00118549,0.0923001,-0.03290118347898463,0.07496843676527742,-0.0003062281026001701,0.08733157671435765,-0.0011847875843262745,-0.04785886106913051
985,0.0986,51.5352,835.879,-0.00506916,208.023,-0.955125,-3.52054,-0.0334878,0.083808,-0.0490904,0.0723607,-0.000306617,-0.0011868,0.0923931,-0.032933290626711575,0.07504304216356639,-0.0003065699978116454,0.08742008910710775,-0.001186096031397521,-0.04790494358504882
986,0.0987,51.5404,836.015,-0.00507618,208.051,-0.955224,-3.52086,-0.0335211,0.0838893,-0.0491387,0.0724301,-0.000306958,-0.00118812,0.0924861,-0.032965493411954316,0.07511765273964954,-0.0003069108932132192,0.0875084999542044,-0.0011874144648805762,-0.047950928665725034
987,0.0988,51.5457,836.151,-0.00508321,208.078,-0.955323,-3.52118,-0.0335543,0.0839707,-0.0491871,0.0724995,-0.000307299,-0.00118943,0.092579,-0.032997598424626906,0.07519226849388638,-0.0003072517884984416,0.0875970267490922,-0.0011887229085105755,-0.047997006725679636
988,0.0989,51.5509,836.287,-0.00509023,208.106,-0.955422,-3.5215,-0.0335876,0.084052,-0.0492355,0.0725689,-0.00030764,-0.00119074,0.092672,-0.03302979906845571,0.07526688942663617,-0.00030759268366742365,0.087685451981804,-0.0011900313504266125,-0.04804308255551004
989,0.099,51.5561,836.422,-0.00509726,208.134,-0.95552,-3.52182,-0.0336208,0.0841333,-0.0492838,0.0726383,-0.000307982,-0.00119205,0.0927649,-0.03306190194621583,0.07534151553825863,-0.00030793457841227223,0.08777388440377942,-0.001191339790628465,-0.04808906096423504
990,0.0991,51.5613,836.558,-0.00510428,208.162,-0.955618,-3.52213,-0.0336541,0.0842146,-0.0493322,0.0727077,-0.000308323,-0.00119336,0.0928579,-0.033094100448773034,0.0754161468291128,-0.0003082754733484405,0.0878623240156029,-0.0011926482291163554,-0.04813513233874811
991,0.0992,51.5665,836.693,-0.0051113,208.189,-0.955715,-3.52244,-0.0336873,0.084296,-0.0493806,0.0727771,-0.000308664,-0.00119468,0.0929508,-0.033126201191762794,0.07549078329955816,-0.00030861636816836846,0.08795087961294157,-0.0011939666539505511,-0.04818120148346061
992,0.0993,51.5716,836.828,-0.00511833,208.217,-0.955811,-3.52275,-0.0337205,0.0843773,-0.0494289,0.0728465,-0.000309005,-0.00119599,0.0930437,-0.033158300869025714,0.07556542494995466,-0.00030895726287216707,0.08803933361506067,-0.0011952750889971941,-0.048227173221202624
993,0.0994,51.5768,836.964,-0.00512535,208.244,-0.955907,-3.52306,-0.0337538,0.0844586,-0.0494773,0.0729158,-0.000309346,-0.0011973,0.0931366,-0.03319049616155212,0.07563996421665942,-0.0003092981574596143,0.08812779480878241,-0.0011965835223297638,-0.04827323791124416
994,0.0995,51.582,837.099,-0.00513237,208.272,-0.956003,-3.52337,-0.033787,0.0845399,-0.0495256,0.0729852,-0.000309687,-0.00119861,0.0932295,-0.0332225937042574,0.07571461622057063,-0.0003096390519308212,0.08821626319469145,-0.0011978919539483712,-0.048319205203734006
995,0.0996,51.5872,837.234,-0.00513939,208.3,-0.956098,-3.52367,-0.0338202,0.0846211,-0.0495739,0.0730545,-0.000310028,-0.00119992,0.0933224,-0.03325469018134197,0.07578916582658857,-0.00030997994628578773,0.08830462994290422,-0.0011992003838527943,-0.048365170276057246
996,0.0997,51.5923,837.368,-0.00514641,208.327,-0.956192,-3.52397,-0.0338535,0.0847024,-0.0496223,0.0731239,-0.000310369,-0.00120123,0.0934153,-0.03328688226415777,0.0758638281854509,-0.0003103208405244029,0.08839311270609418,-0.001200508812043366,-0.04841122828720301
997,0.0998,51.5975,837.503,-0.00515343,208.355,-0.956286,-3.52428,-0.0338867,0.0847837,-0.0496706,0.0731932,-0.000310709,-0.00120254,0.0935082,-0.03331897660689753,0.07593838813221643,-0.0003106607349575574,0.08848160266322536,-0.0012018172385197534,-0.04845718891491868
998,0.0999,51.6026,837.637,-0.00516045,208.382,-0.956379,-3.52457,-0.0339199,0.084865,-0.0497189,0.0732625,-0.00031105,-0.00120385,0.0936011,-0.03335106988412284,0.0760129532461653,-0.00031100162896413597,0.08857009981488217,-0.0012031256632821785,-0.0485031473227896
999,0.1,51.6078,837.772,-0.00516747,208.409,-0.956472,-3.52487,-0.0339531,0.0849462,-0.0497672,0.0733319,-0.000311391,-0.00120516,0.0936939,-0.03338316209586911,0.07608763113641359,-0.00031134252285447417,0.08865849529579517,-0.0012044340863305303,-0.04854910351092301
