,Time,S11,S22,S33,S12,S13,S23,LE11,LE22,LE33,LE12,LE13,LE23,SDV_EPBAR,E11,E12,E13,E22,E23,E33
0,1e-05,-3.33067e-16,2.07745,-3.33067e-16,1.69198e-17,-1.692e-17,8.45988e-18,-2.99999e-06,9.99995e-06,-2.99999e-06,0.0,0.0,0.0,0.0,-2.999985500018454e-06,0.0,0.0,9.999999999621423e-06,0.0,-2.999985500018454e-06
1,2e-05,2.77556e-16,4.15488,2.22045e-16,2.53794e-17,-1.692e-17,1.69196e-17,-5.99994e-06,1.99998e-05,-5.99994e-06,0.0,0.0,0.0,0.0,-5.999922000343716e-06,0.0,0.0,1.9999999997244444e-05,0.0,-5.999922000343716e-06
2,3.5e-05,-3.88578e-16,7.27098,0.0,8.45927e-18,-1.692e-17,-3.29936e-22,-1.04998e-05,3.49994e-05,-1.04998e-05,0.0,0.0,0.0,0.0,-1.0499744877323636e-05,0.0,0.0,3.5000012486241516e-05,0.0,-1.0499744877323636e-05
3,5.75e-05,-3.83027e-15,11.9451,-4.21885e-15,4.2298e-17,3.38399e-17,-3.29936e-22,-1.72495e-05,5.74983e-05,-1.72495e-05,0.0,0.0,0.0,0.0,-1.7249351228265652e-05,0.0,0.0,5.749995305892597e-05,0.0,-1.7249351228265652e-05
4,9.125e-05,-2.82552e-14,18.956,-2.81997e-14,4.22961e-17,3.38399e-17,-3.29936e-22,-2.73738e-05,9.12458e-05,-2.73738e-05,0.0,0.0,0.0,0.0,-2.737342534098186e-05,0.0,0.0,9.124996302456445e-05,0.0,-2.737342534098186e-05
5,0.00014188,-1.57929e-13,29.4719,-1.58762e-13,8.45562e-18,-3.38399e-17,3.38374e-17,-4.25595e-05,0.000141865,-4.25595e-05,0.0,0.0,0.0,0.0,-4.255859435731146e-05,0.0,0.0,0.00014187506331508892,0.0,-4.255859435731146e-05
6,0.00021781,-7.97418e-13,45.2448,-7.97362e-13,8.45479e-18,-3.38399e-17,3.3834e-17,-6.53366e-05,0.000217789,-6.53366e-05,0.0,0.0,0.0,0.0,-6.533446561085565e-05,0.0,0.0,0.0002178127177461242,0.0,-6.533446561085565e-05
7,0.00033172,-4.04016e-12,68.9018,-4.03744e-12,1.43793e-16,-1.692e-16,-2.3685e-16,-9.94991e-05,0.000331664,-9.94991e-05,0.0,0.0,0.0,0.0,-9.949415012866503e-05,0.0,0.0,0.0003317190065854625,0.0,-9.949415012866503e-05
8,0.00050258,-2.04484e-11,104.382,-2.04492e-11,8.43162e-18,-1.692e-16,-2.36798e-16,-0.000150736,0.000502452,-0.000150736,0.0,0.0,0.0,0.0,-0.00015072463989995732,0.0,0.0,0.0005025782501502096,0.0,-0.00015072463989995732
9,0.00075887,-1.03424e-10,157.592,-1.03423e-10,8.4288e-18,-1.692e-16,-2.36719e-16,-0.000227574,0.000758579,-0.000227574,0.0,0.0,0.0,0.0,-0.0002275481070015406,0.0,0.0,0.0007588667938165372,0.0,-0.0002275481070015406
10,0.0011433,-5.23067e-10,237.381,-5.23062e-10,8.42458e-18,-1.692e-16,-2.36601e-16,-0.000342794,0.00114265,-0.000342794,0.0,0.0,0.0,0.0,-0.00034273525284966855,0.0,0.0,0.0011433030732321825,0.0,-0.00034273525284966855
11,0.00172,-2.6442e-09,357.006,-2.6442e-09,8.41824e-18,9.13679e-16,3.0461e-16,-0.000515542,0.00171847,-0.000515542,0.0,0.0,0.0,0.0,-0.0005154091310572984,0.0,0.0,0.001719947415747436,0.0,-0.0005154091310572984
12,0.0025849,0.142654,496.891,0.209381,-0.0288668,0.0278149,0.0272974,-0.000806057,0.00258159,-0.000818186,-3.9077e-07,2.10871e-07,5.28541e-07,0.000199746,-0.0008057322233250286,-3.9076992364162066e-07,2.1087102219929932e-07,0.0025849251728629064,5.285411397437656e-07,-0.0008178513771022189
13,0.0035849,0.193841,524.021,0.239792,-0.0662799,0.0857566,-0.0825711,-0.00123603,0.00357852,-0.00133549,-1.1068e-06,-9.61731e-06,8.95013e-06,0.00111723,-0.00123526642955063,-1.1067993874736004e-06,-9.617263753813887e-06,0.00358493054717135,8.950170052424156e-06,-0.0013345986300793422
14,0.0045849,-0.262209,545.325,-0.322889,0.0078997,0.0461715,-0.246186,-0.00166951,0.00457445,-0.00186066,-3.16765e-08,-1.69277e-05,1.19143e-05,0.00205833,-0.0016681171434170805,-3.1676499534505353e-08,-1.6927556727330817e-05,0.004584928768509355,1.1914370975585342e-05,-0.0018589300453010216
15,0.0055849,0.0969349,563.997,0.0866596,-0.0829171,0.104274,-0.191739,-0.00210303,0.00556939,-0.00238587,-1.57864e-06,-2.04351e-05,1.59372e-05,0.0030127,-0.002100820181785701,-1.5786387539407087e-06,-2.043489120473474e-05,0.0055849278846065165,1.593732699789463e-05,-0.002383026074366801
16,0.0065849,0.27443,580.02,0.330347,-0.115532,0.155815,-0.152049,-0.00253863,0.00656334,-0.00291348,-2.59108e-06,-2.24182e-05,1.88522e-05,0.0039779,-0.0025354104038922687,-2.591076643132517e-06,-2.2417948714048563e-05,0.006584925915370743,1.8852377703826306e-05,-0.0029092399359249566
17,0.0075849,0.245297,593.945,0.296787,-0.110077,0.158745,-0.166723,-0.00297572,0.00755631,-0.00344337,-3.09614e-06,-2.41881e-05,2.02486e-05,0.00495129,-0.0029712969335975448,-3.0961352069924786e-06,-2.4187807470266165e-05,0.0075849309545927834,2.024880500428594e-05,-0.0034374484002244188
18,0.0085849,-0.209086,605.956,-0.258502,-0.0169238,0.0804948,-0.280505,-0.00341439,0.00854829,-0.00397609,-1.98732e-06,-2.69333e-05,1.92124e-05,0.00593146,-0.0034085675989983244,-1.9873180252538702e-06,-2.6932937301937798e-05,0.00858493096240287,1.9212584559280543e-05,-0.003968195820278075
19,0.0095849,0.334943,617.889,0.395256,-0.127978,0.181049,-0.149455,-0.00385157,0.00953928,-0.00450509,-4.0421e-06,-2.64117e-05,2.16742e-05,0.00691401,-0.003844162217849778,-4.0420918306915965e-06,-2.6411351214172818e-05,0.009584923952826285,2.167443488709786e-05,-0.0044949573039926305
20,0.010585,0.298344,628.246,0.359208,-0.11953,0.178146,-0.161432,-0.00429064,0.0105293,-0.00503663,-4.5502e-06,-2.69328e-05,2.2021e-05,0.00790134,-0.004281448354907624,-4.550189647845038e-06,-2.693243731544115e-05,0.010584928149636852,2.202124246397652e-05,-0.005023967446906252
21,0.011585,-0.154923,637.347,-0.19047,-0.0202523,0.0973513,-0.268386,-0.00473084,0.0115183,-0.00557023,-3.39108e-06,-2.87171e-05,2.03644e-05,0.00889242,-0.0047196672022971065,-3.3910742502918367e-06,-2.8716687668017826e-05,0.011584891043720846,2.0364607355771724e-05,-0.005554745033822361
22,0.012585,0.349145,646.814,0.413875,-0.124515,0.192296,-0.144153,-0.00516926,0.0125064,-0.00609981,-5.32579e-06,-2.7562e-05,2.21747e-05,0.00988366,-0.005155922367319765,-5.3257758180214054e-06,-2.756162017159003e-05,0.012584932063461896,2.217494586043145e-05,-0.006081243928000246
23,0.013585,0.252337,655.051,0.304552,-0.105133,0.17304,-0.170333,-0.0056093,0.0134935,-0.00663166,-5.60707e-06,-2.78315e-05,2.1839e-05,0.010878,-0.005593597250950877,-5.607054280432067e-06,-2.783111270743266e-05,0.013584948126631247,2.1839238472765032e-05,-0.006609719071207443
24,0.014585,-0.0589315,662.54,-0.076039,-0.0331915,0.116529,-0.242524,-0.00604983,0.0144796,-0.0071644,-4.85868e-06,-2.88017e-05,2.04305e-05,0.0118743,-0.006031566627146323,-4.858668196661142e-06,-2.8801285234969498e-05,0.014584937207563264,2.0430708704166634e-05,-0.0071387968665038715
25,0.015585,0.23994,670.254,0.284321,-0.09558,0.174069,-0.166074,-0.00648913,0.0154647,-0.00769434,-6.10706e-06,-2.79258e-05,2.12395e-05,0.0128704,-0.006468121063724408,-6.107041351954834e-06,-2.7925410078455393e-05,0.015584897278674292,2.1239725559674127e-05,-0.007664814341331816
26,0.016585,-0.242289,676.722,-0.293901,0.00901771,0.0808685,-0.281539,-0.00693014,0.0164489,-0.00822729,-4.73743e-06,-2.94103e-05,1.89495e-05,0.0138691,-0.006906181955937174,-4.737418778377744e-06,-2.9409867521312805e-05,0.016584927968955387,1.8949679542856757e-05,-0.008193538474250528
27,0.017585,0.436009,684.104,0.519095,-0.135017,0.212655,-0.115582,-0.00736865,0.0174321,-0.00875508,-7.19598e-06,-2.72683e-05,2.1046e-05,0.014866,-0.007341568058531034,-7.195954109029401e-06,-2.7267928223273508e-05,0.0175849257885059,2.1046221468701276e-05,-0.008716865890942338
28,0.018585,0.294004,690.28,0.357019,-0.107191,0.181419,-0.15199,-0.00780907,0.0184143,-0.00928577,-7.36104e-06,-2.7302e-05,2.03693e-05,0.0158651,-0.0077786584263915826,-7.3610129076584485e-06,-2.730162730379959e-05,0.01858488870401298,2.0369507455653135e-05,-0.009242790373607646
29,0.019585,-0.032512,695.958,-0.046871,-0.0286469,0.121159,-0.229115,-0.00824968,0.0193956,-0.00981706,-6.50475e-06,-2.79995e-05,1.87338e-05,0.0168652,-0.008215744772323674,-6.50472884411446e-06,-2.7999108017651153e-05,0.0195849166387565,1.8733975478690823e-05,-0.009769029966215093
30,0.020585,0.246992,702.049,0.294186,-0.0888933,0.176229,-0.155378,-0.00868891,0.0203759,-0.0103454,-7.67687e-06,-2.69136e-05,1.93537e-05,0.0178641,-0.008651270515759202,-7.676840532933049e-06,-2.6913237832326686e-05,0.020584905797141895,1.9353887284134785e-05,-0.010292070413160936
31,0.021585,-0.213155,707.09,-0.26147,0.0129088,0.0844541,-0.267595,-0.00912961,0.0213553,-0.0108764,-6.32899e-06,-2.81444e-05,1.70272e-05,0.0188648,-0.009088061646847834,-6.328969971991505e-06,-2.814400395012573e-05,0.021584956298670743,1.702734496356051e-05,-0.01081746581894627
32,0.022585,0.411229,713.104,0.491395,-0.122825,0.208186,-0.112643,-0.00956784,0.0223337,-0.0114025,-8.60177e-06,-2.59761e-05,1.88412e-05,0.0198632,-0.009522213849384453,-8.601733004875989e-06,-2.5975762624086407e-05,0.022584964143978592,1.884137749641468e-05,-0.011337737880612986
33,0.023585,-0.463899,717.275,-0.562359,0.0705547,0.0331033,-0.326066,-0.0100092,0.0233111,-0.0119344,-5.83598e-06,-2.8478e-05,1.49109e-05,0.0208649,-0.00995927466740365,-5.835962970657249e-06,-2.8477594505638137e-05,0.023584927290316138,1.4911011168017296e-05,-0.011863467507645109
34,0.024585,-0.398595,722.291,-0.487612,0.0576596,0.0479063,-0.310802,-0.0104481,0.0242876,-0.0124621,-5.7184e-06,-2.84988e-05,1.39159e-05,0.0218644,-0.010393708198339957,-5.718383649933045e-06,-2.8498393913056752e-05,0.024584946151559928,1.3915996826652233e-05,-0.012384769598187573
35,0.025585,0.249019,727.783,0.303899,-0.0873635,0.174079,-0.144866,-0.0108858,0.0252631,-0.0129868,-7.93177e-06,-2.64343e-05,1.56497e-05,0.0228625,-0.010826764091065644,-7.931738543631717e-06,-2.6433950616966406e-05,0.025584916422732862,1.564982245727542e-05,-0.01290283538313497
36,0.026585,-0.380946,731.703,-0.465591,0.055518,0.0477379,-0.301233,-0.011326,0.0262377,-0.0135164,-5.87611e-06,-2.8187e-05,1.25371e-05,0.0238632,-0.011262102324537726,-5.876092735723759e-06,-2.8186602750279732e-05,0.026584938713985595,1.2537178589733244e-05,-0.013425463637338986
37,0.027585,-0.304275,736.257,-0.373712,0.0394273,0.0648511,-0.281888,-0.0117644,0.0272113,-0.0140426,-5.88853e-06,-2.80371e-05,1.1719e-05,0.024862,-0.011695470017739296,-5.8885126625884965e-06,-2.803670696416294e-05,0.027584908516628426,1.171906866770378e-05,-0.013944462597771157
38,0.028585,0.192547,741.14,0.234339,-0.0719179,0.16306,-0.152974,-0.0122018,0.028184,-0.0145665,-7.60283e-06,-2.63466e-05,1.29155e-05,0.0258596,-0.01212765989233755,-7.60280109857181e-06,-2.6346252931408465e-05,0.028584926637108543,1.2915583405437303e-05,-0.014460921795516612
39,0.029585,-0.270381,744.83,-0.332829,0.0343566,0.0693887,-0.268106,-0.012641,0.0291557,-0.015094,-6.10736e-06,-2.75349e-05,1.04709e-05,0.026859,-0.012561438159432448,-6.107341350092277e-06,-2.7534520918082173e-05,0.029584888363045847,1.0470954820096523e-05,-0.014980656567171846
40,0.030585,0.435883,749.692,0.525196,-0.123128,0.214023,-0.0889378,-0.0130776,0.0301265,-0.0156159,-8.62636e-06,-2.49845e-05,1.25983e-05,0.0278554,-0.012992459736674955,-8.62632279308162e-06,-2.498418788998702e-05,0.030584894697205156,1.259837935885244e-05,-0.015494604036251691
41,0.031585,-0.490558,752.637,-0.599545,0.0865956,0.0241596,-0.319736,-0.0135174,0.0310964,-0.0161443,-5.60223e-06,-2.75879e-05,8.44129e-06,0.028855,-0.013426450211382113,-5.602214307565134e-06,-2.758751945741711e-05,0.03158494388202815,8.441325627828178e-06,-0.01601467927150102
42,0.032585,-0.391968,756.605,-0.482917,0.065157,0.0453356,-0.295994,-0.0139546,0.0320653,-0.0166681,-5.57378e-06,-2.74299e-05,7.59135e-06,0.0298519,-0.013857685892360805,-5.573764466526576e-06,-2.742952380374586e-05,0.03258493089963643,7.5913788144532646e-06,-0.016529955819789444
43,0.033585,0.226042,761.052,0.277062,-0.0763315,0.168952,-0.135364,-0.0143905,0.0330333,-0.017189,-7.67702e-06,-2.5356e-05,9.23801e-06,0.0308471,-0.014287451652827854,-7.676990531724215e-06,-2.535567853934051e-05,0.033584957047315456,9.238052670612618e-06,-0.01704211196315475
44,0.034585,-0.336424,764.089,-0.415044,0.0541035,0.0536817,-0.27755,-0.0148288,0.0340003,-0.0177145,-5.79677e-06,-2.68475e-05,6.39487e-06,0.0318444,-0.014719394795513763,-5.7967531987834775e-06,-2.684713960909857e-05,0.034584917103546386,6.394890447181112e-06,-0.017558520635055697
45,0.035585,0.509873,768.6,0.617629,-0.137445,0.229316,-0.0610147,-0.0152637,0.0349664,-0.0182334,-8.79103e-06,-2.38128e-05,9.09038e-06,0.0328381,-0.01514780016721684,-8.790991358975653e-06,-2.3812516477539347e-05,0.03558491256198759,9.090421317692332e-06,-0.01806817727684673
46,0.036585,0.293508,771.852,0.363537,-0.0927209,0.179408,-0.117191,-0.0157009,0.0359316,-0.0187561,-8.62735e-06,-2.38461e-05,8.09309e-06,0.0338336,-0.015578283438483553,-8.627312784503793e-06,-2.3845815684042648e-05,0.03658494165599668,8.093122749075476e-06,-0.018581298924558842
47,0.037585,0.0236423,774.949,0.0176749,-0.022236,0.128144,-0.185549,-0.0161378,0.0368958,-0.0192787,-7.83343e-06,-2.41472e-05,6.61298e-06,0.0348287,-0.01600828334612958,-7.833399318757372e-06,-2.4146908458755334e-05,0.03758489885863869,6.613001865884982e-06,-0.01909405434308009
48,0.038585,0.189425,778.464,0.228316,-0.0608308,0.162501,-0.137473,-0.0165735,0.0378591,-0.019799,-8.57269e-06,-2.32035e-05,6.81851e-06,0.0358221,-0.016436915152855835,-8.572653254601548e-06,-2.3203230800850072e-05,0.03858488595816789,6.81853324602244e-06,-0.01960428695808003
49,0.039585,-0.102067,781.391,-0.132003,0.007188,0.100969,-0.212649,-0.0170098,0.0388215,-0.0203207,-7.68262e-06,-2.37585e-05,5.12087e-06,0.0368161,-0.01686595012598935,-7.68259048877784e-06,-2.3758217769120904e-05,0.0395849011825542,5.120883111775498e-06,-0.020115626007185416
50,0.040585,0.258348,784.975,0.311419,-0.0756363,0.175499,-0.118967,-0.0174445,0.039783,-0.0208391,-9.03714e-06,-2.22437e-05,5.9795e-06,0.0378079,-0.0172932256224122,-9.037099165221107e-06,-2.224345261070404e-05,0.04058494275798519,5.9795178772859e-06,-0.02062346642305446
51,0.041585,-0.222208,787.555,-0.277357,0.0359868,0.0744506,-0.24106,-0.0178806,0.0407435,-0.0213607,-7.47829e-06,-2.34143e-05,3.5587e-06,0.038801,-0.017721690613136443,-7.478262037619032e-06,-2.3414025887458223e-05,0.04158490475037402,3.5587063322850554e-06,-0.02113417601832679
52,0.042585,0.401947,791.299,0.486968,-0.107618,0.205293,-0.0801356,-0.0183141,0.0417031,-0.021877,-9.72702e-06,-2.10479e-05,5.43561e-06,0.0397909,-0.018147415977615933,-9.72697269274736e-06,-2.1047678494534594e-05,0.042584889340844256,5.435624772953673e-06,-0.021639433999676938
53,0.043585,-0.410034,793.384,-0.507078,0.0809597,0.0341085,-0.287035,-0.0187504,0.0426618,-0.0223989,-7.01488e-06,-2.32828e-05,1.73779e-06,0.0407834,-0.018575704822019534,-7.014855395781616e-06,-2.3282528957668802e-05,0.04358489475025573,1.7377915100258434e-06,-0.022149907159514592
54,0.044585,-0.312716,796.42,-0.38883,0.0580351,0.0544728,-0.263116,-0.0191843,0.0436196,-0.0229166,-7.05327e-06,-2.30175e-05,1.0478e-06,0.0417732,-0.019001452451069545,-7.053245125732133e-06,-2.3017235099342948e-05,0.04458491919770524,1.0478005489922282e-06,-0.02265600913677779
55,0.045585,0.179311,799.843,0.219965,-0.0567953,0.156,-0.132639,-0.0196172,0.0445765,-0.023432,-8.72404e-06,-2.12502e-05,2.2938e-06,0.0427615,-0.019426034814820192,-8.724001945625837e-06,-2.1249974216153156e-05,0.0455849609005301,2.293802630726205e-06,-0.023159602442526128
56,0.046585,-0.239437,802.191,-0.29977,0.0429131,0.0682208,-0.24044,-0.0200517,0.0455324,-0.0239507,-7.28925e-06,-2.22667e-05,5.66602e-08,0.0437511,-0.019852001654695584,-7.289223433515346e-06,-2.2266452098906875e-05,0.04658491341581783,5.666020164163399e-08,-0.023666158170153828
57,0.047585,0.376655,805.644,0.458611,-0.100095,0.199017,-0.0793209,-0.0204837,0.0464874,-0.0244645,-9.49049e-06,-1.99285e-05,1.92654e-06,0.0447376,-0.020275334143579515,-9.490444965454259e-06,-1.992830142871771e-05,0.04758487941589551,1.926541855823416e-06,-0.024167669648754275
58,0.048585,-0.387474,807.506,-0.481592,0.0793753,0.0368371,-0.276152,-0.0209184,0.0474416,-0.0249837,-6.90611e-06,-2.20181e-05,-1.58857e-06,0.0457266,-0.020701127902848726,-6.906086152835833e-06,-2.20178576033625e-05,0.048584961971340324,-1.5885687382199976e-06,-0.024674190290535525
59,0.049585,-0.286843,810.285,-0.357973,0.0551483,0.0578028,-0.251051,-0.0213507,0.0483948,-0.0254989,-6.97822e-06,-2.17132e-05,-2.2033e-06,0.0467129,-0.021124387311143522,-6.978195652318497e-06,-2.1712964270226287e-05,0.0495849496755163,-2.20329757272264e-06,-0.025176548729052284
60,0.050585,0.162307,813.408,0.199107,-0.0503596,0.151439,-0.131014,-0.0217821,0.0493471,-0.0260119,-8.5017e-06,-2.00609e-05,-1.08664e-06,0.0476977,-0.02154658317626168,-8.50166386068274e-06,-2.0060698781465547e-05,0.05058494549552939,-1.0866394095643273e-06,-0.025676504909829534
61,0.051585,-0.208128,815.567,-0.262203,0.0386977,0.0732238,-0.226994,-0.022215,0.0502985,-0.0265279,-7.22127e-06,-2.09211e-05,-3.11116e-06,0.0486837,-0.021970063991368805,-7.221243926713861e-06,-2.0920881155350735e-05,0.051584947638262824,-3.1111551603846266e-06,-0.026179126145864928
62,0.052585,0.333977,818.704,0.407304,-0.0882449,0.189191,-0.0840616,-0.0226456,0.051249,-0.0270395,-9.16566e-06,-1.88142e-05,-1.49979e-06,0.0496668,-0.02239111302345176,-9.16561799546578e-06,-1.881402301406876e-05,0.05258495430887522,-1.499788875314323e-06,-0.026677205485370004
63,0.053585,-0.328503,820.453,-0.410638,0.0687654,0.047477,-0.256055,-0.0230785,0.0521986,-0.0275557,-6.91208e-06,-2.05836e-05,-4.60618e-06,0.0506519,-0.022814228320710006,-6.912056111585407e-06,-2.0583388159134408e-05,0.05358496371080523,-4.606169391574433e-06,-0.027179505057225217
64,0.054585,0.517307,823.848,0.633282,-0.130586,0.228473,-0.0344666,-0.0235078,0.0531473,-0.028065,-9.93237e-06,-1.74841e-05,-1.79169e-06,0.0516329,-0.023233644138445197,-9.93232067414418e-06,-1.7483947154062207e-05,0.05458497404577667,-1.7916883948698725e-06,-0.027674836388469237
65,0.055585,-0.544704,825.07,-0.677567,0.12112,0.000496617,-0.311027,-0.0239409,0.054095,-0.028582,-6.28179e-06,-2.05433e-05,-6.45126e-06,0.0526174,-0.02365659005162013,-6.281770269622733e-06,-2.0543088987912128e-05,0.055584877955309864,-6.451239190630176e-06,-0.02817739857453727
66,0.056585,-0.36985,827.637,-0.463769,0.0797561,0.0381553,-0.266384,-0.0243708,0.0550419,-0.0290933,-6.47737e-06,-2.01024e-05,-6.87823e-06,0.0535984,-0.024076229875513833,-6.477349021927203e-06,-2.010219794812418e-05,0.0565848846546988,-6.878206345040105e-06,-0.02867416446162463
67,0.057585,0.165239,830.576,0.205244,-0.0487611,0.150213,-0.122033,-0.0247998,0.0559879,-0.0296024,-8.27885e-06,-1.82218e-05,-5.42103e-06,0.0545778,-0.02449481138074472,-8.278815730400346e-06,-1.8221633984016883e-05,0.057584886882059205,-5.4210153062062005e-06,-0.02916854059037588
68,0.058585,-0.243286,832.415,-0.307425,0.0507398,0.0632,-0.230031,-0.0252305,0.056933,-0.0301151,-6.82344e-06,-1.92245e-05,-7.6033e-06,0.0555586,-0.024914870999150684,-6.8234167204250795e-06,-1.9224315210508713e-05,0.05858488283230345,-7.603271094946962e-06,-0.02966615830441377
69,0.059585,0.360227,835.359,0.442142,-0.0924339,0.19363,-0.0690497,-0.0256587,0.0578773,-0.0306229,-8.98004e-06,-1.69191e-05,-5.70843e-06,0.0565363,-0.02533231307066297,-8.979999679525896e-06,-1.6918956872835622e-05,0.059584976657145905,-5.7084137069507435e-06,-0.030158768744850573
70,0.060585,-0.360875,836.782,-0.452851,0.080414,0.0380861,-0.258609,-0.0260894,0.0588206,-0.0311359,-6.48802e-06,-1.8889e-05,-9.03686e-06,0.0575163,-0.0257520120547593,-6.487998952864338e-06,-1.8888821603946226e-05,0.060584954731135676,-9.036819167751453e-06,-0.030656169702230507
71,0.061585,0.54705,840.002,0.673129,-0.136143,0.234177,-0.0182794,-0.0265163,0.059763,-0.0316414,-9.73456e-06,-1.55831e-05,-5.92948e-06,0.0584917,-0.026167829758209304,-9.734512619319347e-06,-1.5582978584172125e-05,0.06158492110262115,-5.929462420617426e-06,-0.031146049180976187
72,0.062585,-0.574322,840.913,-0.717423,0.132516,-0.00864315,-0.313575,-0.0269473,0.0607045,-0.0321551,-5.83697e-06,-1.88499e-05,-1.08202e-05,0.0594711,-0.026587460986557954,-5.836952964966002e-06,-1.8849722341784947e-05,0.06258487395978163,-1.0820141461809207e-05,-0.0316436216430831
73,0.063585,-0.372755,843.277,-0.469521,0.0843072,0.0350794,-0.26136,-0.0273748,0.0616452,-0.0326628,-6.1091e-06,-1.83328e-05,-1.11177e-05,0.0604466,-0.027003505911047276,-6.109081339467082e-06,-1.833263195527568e-05,0.063584917847612,-1.1117638198610003e-05,-0.032135131396066496
74,0.064585,0.15122,845.979,0.18869,-0.0430371,0.145729,-0.118641,-0.0278015,0.062585,-0.0331685,-7.87018e-06,-1.6489e-05,-9.66812e-06,0.0614206,-0.027418594949530695,-7.870149030253515e-06,-1.648886405714034e-05,0.06458494479246268,-9.668073263857657e-06,-0.03262445692373184
75,0.065585,-0.227931,847.63,-0.289742,0.0504018,0.0643586,-0.220063,-0.0282299,0.0635239,-0.0336776,-6.49657e-06,-1.7406e-05,-1.17173e-05,0.0623959,-0.027835159588937675,-6.496548897283461e-06,-1.7405848516505174e-05,0.06558495297750899,-1.1717231352736945e-05,-0.03311682247042769
76,0.066585,0.333185,850.316,0.410363,-0.0841349,0.186664,-0.0688314,-0.0286559,0.0644619,-0.034182,-8.50553e-06,-1.52376e-05,-9.95028e-06,0.0633683,-0.028249213611184265,-8.505493828137034e-06,-1.5237483908414617e-05,0.06658494058427,-9.950230496102996e-06,-0.03360439536895121
77,0.067585,-0.324291,851.602,-0.409381,0.0751244,0.0436922,-0.243438,-0.0290841,0.065399,-0.0346913,-6.21095e-06,-1.70137e-05,-1.30161e-05,0.0643426,-0.02866522822283113,-6.210930712069462e-06,-1.7013555267841873e-05,0.06758490579261278,-1.3016015290912009e-05,-0.03409645533668293
78,0.068585,0.492421,854.52,0.60788,-0.121684,0.221472,-0.0250991,-0.0295089,0.0663353,-0.0351937,-9.14387e-06,-1.40017e-05,-1.02236e-05,0.0653128,-0.02907776360516312,-9.143828194946302e-06,-1.4001601976620925e-05,0.06858495363924755,-1.022354773916323e-05,-0.03458160339812422
79,0.069585,-0.501234,855.377,-0.629605,0.118808,0.0045647,-0.289304,-0.0299373,0.0672707,-0.0357034,-5.66279e-06,-1.68705e-05,-1.46061e-05,0.0662864,-0.029493617608947087,-5.662773966408352e-06,-1.6870357693932192e-05,0.06958497564225641,-1.4605993331473499e-05,-0.03507355177117888
80,0.070585,-0.319413,857.53,-0.403973,0.0743618,0.0439219,-0.241736,-0.0303626,0.0682052,-0.0362077,-5.93339e-06,-1.63589e-05,-1.48672e-05,0.0672564,-0.029906286213179034,-5.933372397515235e-06,-1.6358766193880214e-05,0.07058496997657304,-1.4867089483727725e-05,-0.03556004150032521
81,0.071585,0.131778,859.966,0.16401,-0.0358192,0.140269,-0.117784,-0.0307871,0.0691388,-0.0367102,-7.44897e-06,-1.47184e-05,-1.365e-05,0.0682251,-0.03031800360148318,-7.4489422564605334e-06,-1.4718291684867602e-05,0.07158493481549844,-1.3649906839163783e-05,-0.03604455083630542
82,0.072585,-0.184859,861.508,-0.236911,0.0430012,0.0718506,-0.20295,-0.031213,0.0700716,-0.0372156,-6.2909e-06,-1.54338e-05,-1.54159e-05,0.0691947,-0.03073090323053196,-6.2908802123118335e-06,-1.543368089951258e-05,0.07258497558919874,-1.5415781175587284e-05,-0.036531610829884986
83,0.073585,0.280641,863.911,0.346001,-0.0696091,0.174056,-0.0763629,-0.0316368,0.0710034,-0.037717,-7.96388e-06,-1.3576e-05,-1.39939e-05,0.0701617,-0.03114159244255199,-7.963848288383701e-06,-1.3575907846563595e-05,0.07358487605073072,-1.399380208588763e-05,-0.037014572791532974
84,0.074585,-0.25581,865.162,-0.325471,0.0615898,0.0564801,-0.220042,-0.0320625,0.0719345,-0.0382223,-6.07821e-06,-1.49708e-05,-1.65647e-05,0.0711303,-0.031553947690607376,-6.07819152775857e-06,-1.4970687938098415e-05,0.0745849564439971,-1.656456280607621e-05,-0.03750104640999086
85,0.075585,0.401762,867.737,0.496792,-0.0983047,0.200601,-0.0425881,-0.0324853,0.0728646,-0.0387219,-8.45167e-06,-1.24772e-05,-1.4365e-05,0.0720952,-0.03196332013409098,-8.45163428475626e-06,-1.2477122160015064e-05,0.07558489286033021,-1.4364896823826356e-05,-0.037981790787259495
86,0.076585,-0.387253,868.66,-0.489761,0.0944855,0.0270673,-0.254172,-0.0329108,0.0737939,-0.0392274,-5.6694e-06,-1.46955e-05,-1.79284e-05,0.0730627,-0.032375132122160144,-5.6693839289856385e-06,-1.4695392021701892e-05,0.07658489848191041,-1.792823928714604e-05,-0.038467968100347916
87,0.077585,0.563082,871.524,0.69905,-0.13729,0.235973,0.00226726,-0.0333323,0.0747224,-0.0397247,-9.08968e-06,-1.12444e-05,-1.45535e-05,0.0740255,-0.0327829000608405,-9.08963868895274e-06,-1.1244336782012532e-05,0.07758497177232804,-1.4553394098282268e-05,-0.03894601910257778
88,0.078585,-0.576502,872.009,-0.726703,0.141557,-0.0150168,-0.304164,-0.0337579,0.0756499,-0.0402307,-5.05113e-06,-1.46076e-05,-1.95125e-05,0.0749922,-0.03319446007239191,-5.051117243026759e-06,-1.4607493309504171e-05,0.0785848954765822,-1.9512309632374603e-05,-0.03943218940545212
89,0.079585,-0.345836,874.02,-0.439643,0.0849616,0.0355901,-0.242931,-0.0341801,0.0765766,-0.0407305,-5.44339e-06,-1.39803e-05,-1.95921e-05,0.0759549,-0.0336025592155581,-5.4433751848215195e-06,-1.3980202276053788e-05,0.07958488337204805,-1.9591908076099784e-05,-0.039912161242233846
90,0.080585,0.119485,876.281,0.149992,-0.0304609,0.135595,-0.113652,-0.0346016,0.0775025,-0.0412285,-7.00299e-06,-1.23155e-05,-1.82896e-05,0.0769163,-0.034009809902737054,-7.002965479174783e-06,-1.2315424164577315e-05,0.08058493391751775,-1.8289432746287915e-05,-0.04039016595288336
91,0.081585,-0.182368,877.649,-0.235127,0.0457217,0.0698965,-0.196165,-0.0350243,0.0784275,-0.0417294,-5.87164e-06,-1.29989e-05,-1.99862e-05,0.0778787,-0.03441804766896073,-5.871622761999262e-06,-1.2998815514642104e-05,0.08158493741170525,-1.998600027719455e-05,-0.04087071415541277
92,0.082585,0.266698,879.852,0.33038,-0.0641999,0.169383,-0.0725517,-0.0354452,0.0793516,-0.0422266,-7.48573e-06,-1.12008e-05,-1.85889e-05,0.0788386,-0.03482437559498619,-7.485701981946313e-06,-1.1200737271233052e-05,0.08258489201022945,-1.85887272274865e-05,-0.0413474747038407
93,0.083585,-0.238535,880.956,-0.305478,0.0607914,0.0577623,-0.209491,-0.0358678,0.0802749,-0.0427274,-5.68572e-06,-1.25083e-05,-2.10227e-05,0.0797998,-0.035232172640275006,-5.685703836300071e-06,-1.250822177156774e-05,0.0835849042256207,-2.1022479024579432e-05,-0.04182744769324109
94,0.084585,0.372085,883.305,0.461963,-0.089371,0.192691,-0.042862,-0.0362876,0.0811974,-0.0432228,-7.89697e-06,-1.01718e-05,-1.89654e-05,0.0807577,-0.03563709717459418,-7.896938818974242e-06,-1.0171748267451264e-05,0.08458497251034314,-1.8965220157984852e-05,-0.04230200881715784
95,0.085585,-0.348167,884.131,-0.443109,0.0885611,0.0329714,-0.23815,-0.03671,0.0821189,-0.0437237,-5.33016e-06,-1.21825e-05,-2.22471e-05,0.0817178,-0.036044358045196345,-5.3301457947352304e-06,-1.2182425793594298e-05,0.08558487819830018,-2.2246852535157124e-05,-0.042781599617397914
96,0.086585,0.505374,886.721,0.629809,-0.121879,0.222092,-0.00532347,-0.0371286,0.0830397,-0.0442171,-8.41645e-06,-9.04922e-06,-1.92077e-05,0.0826735,-0.03644778543367533,-8.416414581824405e-06,-9.049179055975465e-06,0.0865849451142926,-1.92075155333038e-05,-0.04325377468097946
97,0.087585,-0.501737,887.188,-0.636295,0.127227,-0.0015361,-0.279015,-0.0375509,0.0839596,-0.0447182,-4.8143e-06,-1.20001e-05,-2.3638e-05,0.0836326,-0.0368546076273345,-4.814288411258971e-06,-1.2000027999059526e-05,0.08758495448909653,-2.3637720624636316e-05,-0.04373308011448096
98,0.088585,-0.294137,889.014,-0.375646,0.0752432,0.0440191,-0.223279,-0.0379701,0.0848786,-0.0452137,-5.1921e-06,-1.13932e-05,-2.36945e-05,0.0845882,-0.037258273561526,-5.192086521055295e-06,-1.1393135097792495e-05,0.0885849044689111,-2.369421928760662e-05,-0.04420679300122443
99,0.089585,0.10282,891.041,0.128572,-0.0237197,0.130322,-0.111958,-0.0383887,0.0857968,-0.0457077,-6.51911e-06,-9.92382e-06,-2.2609e-05,0.0855425,-0.03766119291130976,-6.519088750600588e-06,-9.923770759034944e-06,0.08958490215687553,-2.2608744418506355e-05,-0.04467883824070795
100,0.090585,-0.144678,892.317,-0.188436,0.0394316,0.0760922,-0.180006,-0.0388083,0.0867142,-0.0462041,-5.57778e-06,-1.04341e-05,-2.40517e-05,0.0864975,-0.038064905569925145,-5.577764444208988e-06,-1.0434045564999828e-05,0.09058494599608502,-2.4051410760228542e-05,-0.04515294198312092
101,0.091585,0.222026,894.278,0.275236,-0.0511871,0.157944,-0.0780657,-0.0392263,0.0876307,-0.0466973,-6.89818e-06,-8.9091e-06,-2.29503e-05,0.0874503,-0.0384669104145311,-6.898156207579831e-06,-8.909060314032935e-06,0.09158492526959638,-2.295003664387618e-05,-0.045623756439746255
102,0.092585,-0.182594,895.347,-0.236261,0.0499565,0.0678209,-0.188762,-0.0396456,0.0885464,-0.0471934,-5.44124e-06,-9.90149e-06,-2.49636e-05,0.0884041,-0.03886999672604341,-5.441225196523014e-06,-9.901440980453202e-06,0.09258494737590994,-2.4963288411949947e-05,-0.04609710507034048
103,0.093585,0.299411,897.409,0.372249,-0.069737,0.175084,-0.0558439,-0.0400627,0.0894612,-0.0476852,-7.19332e-06,-7.99065e-06,-2.33849e-05,0.089355,-0.03927080045698017,-7.193294128127192e-06,-7.990618074882327e-06,0.09358490139500275,-2.3384626575362333e-05,-0.04656611917404552
104,0.094585,-0.2603,898.273,-0.334284,0.069969,0.0499946,-0.209035,-0.0404816,0.0903752,-0.048181,-5.17982e-06,-9.49174e-06,-2.60118e-05,0.0903075,-0.03967316563739787,-5.179806584765245e-06,-9.491694953567276e-06,0.09458489492230382,-2.6011461696118232e-05,-0.04703871452609021
105,0.095585,0.392849,900.501,0.490431,-0.0926196,0.19571,-0.0289995,-0.0408977,0.0912884,-0.0486711,-7.5525e-06,-7.01872e-06,-2.37352e-05,0.0912564,-0.040072674509591066,-7.552471479987943e-06,-7.018695368787853e-06,0.0955849263932198,-2.3734918322415588e-05,-0.04750564642109378
106,0.096585,-0.366374,901.11,-0.468361,0.0970896,0.0258342,-0.237267,-0.0413164,0.0922007,-0.0491669,-4.81341e-06,-9.17619e-06,-2.7165e-05,0.0922077,-0.040474511950235215,-4.813398415515202e-06,-9.176147898859455e-06,0.09658488458314207,-2.716463103469291e-05,-0.04797777607098652
107,0.097585,0.515493,903.57,0.646001,-0.122985,0.222999,0.00602281,-0.0417313,0.0931122,-0.0496549,-8.01632e-06,-5.9528e-06,-2.3956e-05,0.0931545,-0.04087253649932465,-8.016287869394567e-06,-5.952782282103719e-06,0.09758487738292243,-2.3955713057355332e-05,-0.04844224957551113
108,0.098585,-0.506339,903.855,-0.645492,0.132733,-0.00588302,-0.27503,-0.0421499,0.0940229,-0.050151,-4.32024e-06,-8.974e-06,-2.84485e-05,0.0941048,-0.041273943235254795,-4.320230667764768e-06,-8.97395973376014e-06,0.0985849032234054,-2.844809534530146e-05,-0.0489142002984404
109,0.099585,-0.28307,905.54,-0.363487,0.076175,0.0435099,-0.214242,-0.0425653,0.0949328,-0.0506412,-4.7608e-06,-8.31398e-06,-2.83917e-05,0.0950515,-0.041672115333164506,-4.760788667401705e-06,-8.313945438986892e-06,0.09958496053392452,-2.8391296959529022e-05,-0.049380308305048026
110,0.1006,0.0882787,907.384,0.110659,-0.0174636,0.124971,-0.108902,-0.0429802,0.0958418,-0.0511302,-5.99825e-06,-6.92967e-06,-2.73661e-05,0.095997,-0.04206964309967498,-5.998232010528959e-06,-6.929645989917077e-06,0.10058493768380927,-2.7365725551731224e-05,-0.04984504769624498
111,0.1016,-0.126333,908.543,-0.166125,0.0380645,0.077628,-0.168646,-0.043396,0.09675,-0.0516213,-5.16079e-06,-7.34466e-06,-2.86526e-05,0.0969431,-0.042467867745432875,-5.160776683110768e-06,-7.344633028094627e-06,0.10158494295787279,-2.8652189518196813e-05,-0.050311554233265166
112,0.1026,0.195107,910.304,0.242548,-0.0422773,0.149997,-0.0781873,-0.0438104,0.0976574,-0.0521095,-6.31736e-06,-5.97618e-06,-2.76963e-05,0.0978871,-0.04286458685516237,-6.317340045525199e-06,-5.976162142706798e-06,0.1025849747809342,-2.7695916461012438e-05,-0.05077507897689226
113,0.1036,-0.15065,911.292,-0.19699,0.0451802,0.0723413,-0.173889,-0.0442259,0.0985639,-0.0526002,-5.05291e-06,-6.791e-06,-2.94554e-05,0.0988319,-0.04326219401071718,-5.052897234070208e-06,-6.790976941228877e-06,0.10358492121782081,-2.945496619399801e-05,-0.05124074938405998
114,0.1046,0.255078,913.124,0.317979,-0.0567157,0.163345,-0.0606599,-0.0446394,0.0994696,-0.0530872,-6.53105e-06,-5.13813e-06,-2.81449e-05,0.0997741,-0.04365772331217499,-6.531028672762673e-06,-5.1381167998076904e-06,0.10458489084885958,-2.8144503936067267e-05,-0.05170268264923017
115,0.1056,-0.20755,913.955,-0.269129,0.0600928,0.0590852,-0.188702,-0.0450544,0.100375,-0.0535775,-4.84503e-06,-6.3374e-06,-3.03676e-05,0.100718,-0.044054523015367164,-4.8450182628112515e-06,-6.3373799187305124e-06,0.10558543488697048,-3.036713890913756e-05,-0.052167518860018136
116,0.1066,0.323036,915.906,0.404351,-0.0734508,0.178372,-0.0407191,-0.045467,0.101279,-0.054063,-6.77965e-06,-4.27342e-06,-2.85428e-05,0.101658,-0.04444886476087451,-6.77962701822743e-06,-4.273410868949057e-06,0.10658533600732012,-2.8542392658148508e-05,-0.05262757984077182
117,0.1076,-0.283194,916.551,-0.365246,0.0797537,0.0416048,-0.208843,-0.0458817,0.102182,-0.054553,-4.56695e-06,-5.94706e-06,-3.13469e-05,0.1026,-0.04484504966204106,-4.566939571515327e-06,-5.947042316267748e-06,0.10758503386138552,-3.134640869106864e-05,-0.05309167861316477
118,0.1086,0.408813,918.664,0.513721,-0.0948163,0.197489,-0.0157079,-0.0462933,0.103084,-0.0550368,-7.09195e-06,-3.35271e-06,-2.88579e-05,0.103538,-0.0452381105421219,-7.09192485215393e-06,-3.352704379677718e-06,0.10858452626523674,-2.885748361480811e-05,-0.05354968205908461
119,0.1096,-0.37961,919.078,-0.48793,0.104706,0.0194447,-0.234904,-0.0467077,0.103986,-0.0555268,-4.20941e-06,-5.62808e-06,-3.24042e-05,0.104479,-0.04563368190106676,-4.209401140431446e-06,-5.6280641623773775e-06,0.109584920617954,-3.240367498957841e-05,-0.05401332911207091
120,0.1106,0.517676,921.404,0.65275,-0.122161,0.221933,0.0158206,-0.0471181,0.104887,-0.0560088,-7.48706e-06,-2.35843e-06,-2.90699e-05,0.105416,-0.04602527347792673,-7.487031972064351e-06,-2.3584272188514888e-06,0.1105851071477999,-2.9069477474497063e-05,-0.05446918481738838
121,0.1116,-0.501377,921.533,-0.643011,0.13612,-0.00841771,-0.268191,-0.0475323,0.105787,-0.0564988,-3.75572e-06,-5.39495e-06,-3.35591e-05,0.106356,-0.04642032798821505,-3.7557129473064776e-06,-5.394935447267102e-06,0.1115850836661676,-3.355853689968047e-05,-0.054932381424391385
122,0.1126,-0.266703,923.083,-0.344537,0.0758757,0.0439171,-0.20333,-0.0479434,0.106686,-0.056983,-4.25304e-06,-4.69015e-06,-3.33941e-05,0.107292,-0.04681226402340721,-4.2530309558586055e-06,-4.690139001284344e-06,0.11258484798310975,-3.339354242326564e-05,-0.0553898723978028
123,0.1136,0.0734123,924.744,0.0921009,-0.01088,0.119263,-0.105638,-0.048354,0.107584,-0.0574662,-5.38156e-06,-3.40811e-06,-3.24479e-05,0.108227,-0.04720356256871039,-5.381545519433928e-06,-3.4081041924149957e-06,0.11358439790734454,-3.2447373572552785e-05,-0.05584619775437538
124,0.1146,-0.106412,925.797,-0.14159,0.0363698,0.0793271,-0.156343,-0.0487654,0.108482,-0.0579512,-4.65728e-06,-3.72195e-06,-3.35663e-05,0.109163,-0.047595462403746125,-4.6572691548840695e-06,-3.7219430735202508e-06,0.1145848458305525,-3.3565736658025536e-05,-0.05630400132212543
125,0.1156,0.167307,927.362,0.208493,-0.0328768,0.141514,-0.0782793,-0.0491755,0.109379,-0.0584337,-5.63956e-06,-2.52026e-06,-3.27657e-05,0.110096,-0.04798596342690664,-5.639544097713056e-06,-2.520256824123379e-06,0.115585076973864,-3.276516321026879e-05,-0.05675922480998952
126,0.1166,-0.118686,928.276,-0.15732,0.0403973,0.0767084,-0.158439,-0.0495865,0.110275,-0.0589182,-4.5733e-06,-3.15519e-06,-3.42634e-05,0.111031,-0.048377160799371266,-4.573289542508796e-06,-3.155185022363227e-06,0.11658508914138155,-3.4262813016439075e-05,-0.0572161142751586
127,0.1176,0.211552,929.886,0.264327,-0.0435517,0.151396,-0.0650555,-0.0499958,0.11117,-0.0593996,-5.77715e-06,-1.76048e-06,-3.32199e-05,0.111963,-0.04876658032731318,-5.777133312290239e-06,-1.7604784503522097e-06,0.11758488013589496,-3.3219348225199674e-05,-0.05766986121209594
128,0.1186,-0.157483,930.686,-0.206782,0.0507959,0.0674843,-0.168435,-0.0504063,0.112064,-0.0598836,-4.40985e-06,-2.66937e-06,-3.50473e-05,0.112896,-0.04915698151076375,-4.409840276609067e-06,-2.669366437224596e-06,0.11858444775888977,-3.504668585052606e-05,-0.058125838643829586
129,0.1196,0.257803,932.374,0.323426,-0.0549775,0.161609,-0.0510926,-0.0508147,0.112958,-0.0603637,-5.92758e-06,-9.9396e-07,-3.36492e-05,0.113826,-0.04954522651448867,-5.927562431895517e-06,-9.939595060348694e-07,0.11958490939490374,-3.364863387200767e-05,-0.05857792389694794
130,0.1206,-0.20778,933.046,-0.271062,0.0641399,0.0556429,-0.181747,-0.0512248,0.113851,-0.0608472,-4.20271e-06,-2.22331e-06,-3.58699e-05,0.114757,-0.04993492810332256,-4.202701168631862e-06,-2.2233075284150416e-06,0.12058514525783637,-3.586925668286334e-05,-0.059032991449297856
131,0.1216,0.313606,934.837,0.394998,-0.0689332,0.174029,-0.034353,-0.0516323,0.114743,-0.0613259,-6.11181e-06,-1.98916e-07,-3.403e-05,0.115686,-0.050322000748712625,-6.1117913229269405e-06,-1.9891598024290857e-07,0.12158515314461793,-3.4029420986070313e-05,-0.05948332456046124
132,0.1226,-0.269471,935.356,-0.350033,0.0804267,0.0412067,-0.198362,-0.0520419,0.115634,-0.0618091,-3.95048e-06,-1.81825e-06,-3.67329e-05,0.116616,-0.05071090920331711,-3.950472196811994e-06,-1.8182483469963984e-06,0.12258493085089595,-3.673222535527376e-05,-0.05993767243874604
133,0.1236,0.381622,937.279,0.482374,-0.0860958,0.189285,-0.0141142,-0.0524486,0.116524,-0.0622863,-6.33919e-06,6.33264e-07,-3.43528e-05,0.117542,-0.0510969065786574,-6.339169907332298e-06,6.332642004114319e-07,0.12358447617104251,-3.435220994929544e-05,-0.06038616316306067
134,0.1246,-0.344385,937.616,-0.446032,0.100134,0.023761,-0.218803,-0.0528578,0.117414,-0.0627693,-3.64632e-06,-1.46008e-06,-3.76445e-05,0.118471,-0.05148511829095204,-3.6463133521458246e-06,-1.4600789340901699e-06,0.12458491148251127,-3.7643791454655684e-05,-0.060839887063110276
135,0.1256,0.464168,939.702,0.588545,-0.107077,0.207931,0.0102859,-0.0532635,0.118303,-0.0632449,-6.61861e-06,1.5107e-06,-3.46081e-05,0.119396,-0.05186985272980349,-6.61858809702931e-06,1.5107011410719906e-06,0.12558511199207234,-3.4607501146588504e-05,-0.061286445412830015
136,0.1266,-0.434792,939.825,-0.561981,0.123852,0.00279186,-0.243731,-0.0536724,0.119191,-0.0637277,-3.28196e-06,-1.15586e-06,-3.86143e-05,0.120324,-0.05225746389451891,-3.281954614409166e-06,-1.1558593320248889e-06,0.12658507548960451,-3.861355447754011e-05,-0.06173954692947725
137,0.1276,0.563783,942.112,0.71682,-0.132556,0.230575,0.0395804,-0.054077,0.120078,-0.0642016,-6.96003e-06,2.44244e-06,-3.47856e-05,0.121246,-0.05264084296181193,-6.960005779044209e-06,2.4424429827529792e-06,0.12758479976373338,-3.4784994987990814e-05,-0.062184083216994535
138,0.1286,-0.543247,941.979,-0.701171,0.152245,-0.0222754,-0.273898,-0.0544857,0.120965,-0.0646845,-2.84819e-06,-9.13362e-07,-3.96536e-05,0.122173,-0.05302794953867607,-2.848185943871151e-06,-9.133615829215458e-07,0.12858541118668576,-3.965281380635677e-05,-0.0626368451950311
139,0.1296,-0.269225,943.421,-0.350405,0.0811412,0.0396104,-0.196787,-0.054891,0.12185,-0.065161,-3.47655e-06,-9.88264e-08,-3.92913e-05,0.123096,-0.05341167954258985,-3.4765439568262835e-06,-9.882639506741953e-08,0.12958465137414987,-3.929052810702771e-05,-0.06308339233998916
140,0.1306,0.0556745,944.915,0.0702225,-0.00318949,0.11222,-0.101957,-0.055296,0.122735,-0.0656366,-4.5507e-06,1.11815e-06,-3.83612e-05,0.124018,-0.05379497019077972,-4.5506896455549395e-06,1.118150625201153e-06,0.13058477628061005,-3.8360464218567536e-05,-0.06352888393229428
141,0.1316,-0.0923034,945.855,-0.124452,0.0365292,0.0791462,-0.14455,-0.0557017,0.123619,-0.0661139,-3.92424e-06,8.90379e-07,-3.93259e-05,0.12494,-0.05417876771278185,-3.924232300223096e-06,8.903793964343265e-07,0.13158465510416884,-3.932512674698074e-05,-0.06397575494174335
142,0.1326,0.143164,947.229,0.179128,-0.0239267,0.133225,-0.0762269,-0.0561062,0.124503,-0.066589,-4.76451e-06,1.95213e-06,-3.86386e-05,0.12586,-0.05456127503392083,-4.764498649723059e-06,1.9521319054582875e-06,0.13258541821140324,-3.8637853538858735e-05,-0.06442035443759742
143,0.1336,-0.0931252,948.054,-0.125554,0.0375652,0.0791561,-0.143519,-0.0565114,0.125385,-0.0670658,-3.85929e-06,1.46164e-06,-3.9912e-05,0.126781,-0.05494428920136629,-3.859282552975962e-06,1.4616410681789205e-06,0.13358479921250033,-3.991120352675459e-05,-0.06486633248298657
144,0.1346,0.17506,949.451,0.219427,-0.0316128,0.140394,-0.0664536,-0.0569153,0.126267,-0.0675399,-4.83508e-06,2.63839e-06,-3.90784e-05,0.1277,-0.05532592012740423,-4.8350683110598425e-06,2.638393480580703e-06,0.1345850620564759,-3.907763644928064e-05,-0.06530957427598705
145,0.1356,-0.117255,950.197,-0.156492,0.0442385,0.0732435,-0.149564,-0.05732,0.127148,-0.0680161,-3.72644e-06,1.96256e-06,-4.05734e-05,0.128619,-0.05570815237761595,-3.7264330567943205e-06,1.962561925861195e-06,0.1355850719358187,-4.0572576910702374e-05,-0.06575456789532685
146,0.1366,0.204334,951.641,0.257051,-0.0388442,0.146822,-0.057258,-0.057723,0.128028,-0.0684891,-4.90179e-06,3.31622e-06,-3.95135e-05,0.129536,-0.05608862532176018,-4.901777986288103e-06,3.316225498650738e-06,0.1365848266266687,-3.951271935198619e-05,-0.06619636149228991
147,0.1376,-0.148006,952.304,-0.196054,0.0526273,0.0658084,-0.157559,-0.0581272,0.128908,-0.0689647,-3.5682e-06,2.4399e-06,-4.12544e-05,0.130454,-0.05647007720278652,-3.5681936340070664e-06,2.4399029765476143e-06,0.1375854614888652,-4.12535490489363e-05,-0.0666403729084799
148,0.1386,0.23757,953.807,0.299992,-0.0471658,0.154172,-0.0468578,-0.0585294,0.129786,-0.0694365,-4.98213e-06,4.00419e-06,-3.9924e-05,0.13137,-0.05684948863298234,-4.9821175892583724e-06,4.004198016716032e-06,0.13858470012562263,-3.992320304768704e-05,-0.06708062811617166
149,0.1396,-0.183995,954.376,-0.242457,0.0623932,0.0571661,-0.167114,-0.0589331,0.130664,-0.0699116,-3.38791e-06,2.89656e-06,-4.19514e-05,0.132286,-0.05723016165040262,-3.3879042610207577e-06,2.8965641949429966e-06,0.13958481647916443,-4.195052005229183e-05,-0.06752375283714096
150,0.1406,0.276065,955.951,0.349824,-0.0568986,0.162755,-0.0349176,-0.0593345,0.131541,-0.0703822,-5.08024e-06,4.70624e-06,-4.03057e-05,0.1332,-0.05760851352321528,-5.080227095555223e-06,4.706251074404477e-06,0.14058467073522318,-4.030488773620888e-05,-0.06796247292012358
151,0.1416,-0.225601,956.414,-0.296174,0.0736387,0.0472292,-0.178332,-0.0597377,0.132418,-0.0708568,-3.18402e-06,3.33121e-06,-4.26662e-05,0.134115,-0.05798840917845194,-3.184014931045809e-06,3.3312155485187844e-06,0.14158540224808536,-4.2665289810672746e-05,-0.06840471297860873
152,0.1426,0.320519,958.075,0.407435,-0.0682267,0.172741,-0.0212395,-0.0601383,0.133293,-0.0713261,-5.1988e-06,5.42483e-06,-4.06561e-05,0.135027,-0.058365703444647865,-5.198786486304563e-06,5.424844714330135e-06,0.14258472661570432,-4.0655273552014926e-05,-0.06884180807442142
153,0.1436,-0.273408,958.418,-0.357957,0.0865192,0.0358624,-0.191385,-0.060541,0.134168,-0.0718003,-2.9544e-06,3.74204e-06,-4.34015e-05,0.135941,-0.05874482323497754,-2.9543956358013546e-06,3.7420470013760365e-06,0.1435849257748103,-4.340055816853816e-05,-0.06928325861283768
154,0.1446,0.371575,960.18,0.473671,-0.0813253,0.184288,-0.00563416,-0.0609408,0.135042,-0.0722683,-5.34041e-06,6.16231e-06,-4.09725e-05,0.136851,-0.05912106183953958,-5.340395740072168e-06,6.16232898709157e-06,0.14458485590575276,-4.097166063854463e-05,-0.06971873213905344
155,0.1456,-0.328029,960.388,-0.428606,0.101199,0.0229239,-0.206457,-0.0613431,0.135915,-0.0727421,-2.69682e-06,4.1272e-06,-4.416e-05,0.137763,-0.0594995013081584,-2.6968163635565645e-06,4.127208516946368e-06,0.14558451477256473,-4.415902496157642e-05,-0.07015939500249002
156,0.1466,0.429883,962.268,0.549391,-0.0963733,0.197554,0.0120915,-0.061742,0.136788,-0.0732088,-5.50774e-06,6.92107e-06,-4.12522e-05,0.138672,-0.059874592140246374,-5.507724832432004e-06,6.921093950618129e-06,0.14658504672261286,-4.125134913968154e-05,-0.07059325036481878
157,0.1476,-0.39008,962.324,-0.50893,0.117843,0.00827224,-0.223734,-0.0621438,0.13766,-0.0736822,-2.40904e-06,4.48489e-06,-4.49445e-05,0.139583,-0.060252258650841495,-2.409037098249911e-06,4.4849000571112185e-06,0.14758530493255284,-4.4943490011051246e-05,-0.0710331273929885
158,0.1486,0.496093,964.339,0.635461,-0.113552,0.2127,0.032133,-0.0625418,0.138531,-0.0741475,-5.70352e-06,7.70359e-06,-4.14927e-05,0.14049,-0.06062620383187123,-5.703503734966198e-06,7.703619672616568e-06,0.1485852871621911,-4.1491839189777835e-05,-0.07146527513184431
159,0.1496,-0.46017,964.226,-0.599725,0.136616,-0.00823156,-0.243405,-0.0629433,0.139401,-0.0746207,-2.08889e-06,4.81338e-06,-4.57579e-05,0.1414,-0.06100328670658006,-2.088887818274543e-06,4.813391584423954e-06,0.1495849911702094,-4.575685312324662e-05,-0.07190455382211691
160,0.1506,0.570849,966.396,0.732746,-0.133043,0.229887,0.0546844,-0.0633403,0.14027,-0.0750845,-5.9305e-06,8.51238e-06,-4.1691e-05,0.142304,-0.06137599441438235,-5.930482414595595e-06,8.512416230344044e-06,0.1505844147141724,-4.169013094235119e-05,-0.07233490468397497
161,0.1516,-0.538884,966.094,-0.701765,0.157676,-0.0267203,-0.265652,-0.0637415,0.141139,-0.0755576,-1.73429e-06,5.11108e-06,-4.66029e-05,0.143213,-0.06175249483438894,-1.734288496146874e-06,5.111093061671568e-06,0.1515847071346672,-4.660181410176545e-05,-0.07277367924026368
162,0.1526,-0.247848,967.4,-0.325545,0.0807793,0.0397744,-0.182009,-0.0641393,0.142007,-0.076024,-2.45206e-06,5.9904e-06,-4.60831e-05,0.144118,-0.06212565546537341,-2.452056993673679e-06,5.990417942580706e-06,0.15258471660178285,-4.60820381902316e-05,-0.07320603676265425
163,0.1536,0.0369669,968.695,0.0463729,0.00559494,0.104247,-0.0972994,-0.0645369,0.142874,-0.0764899,-3.38612e-06,7.07162e-06,-4.52558e-05,0.145022,-0.06249848018229509,-3.3861142670899014e-06,7.0716450040198e-06,0.1535844408689231,-4.525477597172589e-05,-0.07363772949949476
164,0.1546,-0.0694713,969.529,-0.0957619,0.0349544,0.0803225,-0.128583,-0.064935,0.143741,-0.0769572,-2.8996e-06,6.96219e-06,-4.60125e-05,0.145927,-0.06287162525787915,-2.8995957961353014e-06,6.962214236017061e-06,0.15458503227285214,-4.601144144111835e-05,-0.07407051745971716
165,0.1556,0.112058,970.692,0.14047,-0.0124556,0.122543,-0.0748172,-0.0653322,0.144607,-0.0774228,-3.53799e-06,7.8287e-06,-4.55008e-05,0.14683,-0.06324377873375353,-3.537983741308537e-06,7.828730644421356e-06,0.1555853359797903,-4.549976485435092e-05,-0.07450152987931025
166,0.1566,-0.0606864,971.439,-0.0844647,0.033361,0.0825362,-0.124932,-0.0657298,0.145472,-0.0778895,-2.84759e-06,7.52564e-06,-4.6484e-05,0.147733,-0.0636161589732318,-2.8475859455978636e-06,7.525668317631684e-06,0.15658534973901062,-4.648291963560425e-05,-0.07493335924009625
167,0.1576,0.13149,972.603,0.165018,-0.017076,0.126905,-0.0685909,-0.0661263,0.146336,-0.0783541,-3.53905e-06,8.4336e-06,-4.59178e-05,0.148634,-0.06398736157042084,-3.5390437376214834e-06,8.433635562798969e-06,0.15758507129870836,-4.591674579390581e-05,-0.07536304537757443
168,0.1586,-0.0715316,973.305,-0.098456,0.0365728,0.0796839,-0.127329,-0.0665233,0.147199,-0.0788202,-2.73917e-06,8.03016e-06,-4.70186e-05,0.149535,-0.06435888483562957,-2.7391662484888e-06,8.030192241825773e-06,0.1585844984060074,-4.701749464297578e-05,-0.07579391823940296
169,0.1596,0.14568,974.487,0.183377,-0.0205048,0.129923,-0.0637346,-0.0669192,0.148062,-0.0792839,-3.52586e-06,9.02136e-06,-4.6343e-05,0.150435,-0.06472923183809676,-3.5258537841587057e-06,9.021400692699189e-06,0.1595847883911783,-4.6341926179804815e-05,-0.07622237325454295
170,0.1606,-0.0856235,975.146,-0.116729,0.0406325,0.0760763,-0.130706,-0.0673156,0.148924,-0.0797492,-2.61822e-06,8.52234e-06,-4.75598e-05,0.151335,-0.06509989969937235,-2.618216572436438e-06,8.522376315323044e-06,0.16058478141384436,-4.75586690505958e-05,-0.07665210699895875
171,0.1616,0.160365,976.35,0.202543,-0.0241062,0.133055,-0.0586813,-0.0677108,0.149785,-0.0802119,-3.51363e-06,9.60798e-06,-4.67593e-05,0.152233,-0.06546929922085798,-3.513623827222645e-06,9.608026156682214e-06,0.1615844752170661,-4.6758206801000846e-05,-0.07707924124392229
172,0.1626,-0.101173,976.963,-0.136956,0.0450843,0.0721281,-0.134543,-0.0681067,0.150646,-0.0806766,-2.48982e-06,9.00661e-06,-4.81021e-05,0.153132,-0.06583920669727994,-2.489816900430597e-06,9.006650559584273e-06,0.16258503012730574,-4.8100943112583394e-05,-0.07750802288538561
173,0.1636,0.176232,978.193,0.223308,-0.028042,0.136468,-0.0532666,-0.0685011,0.151506,-0.0811384,-3.50425e-06,1.01954e-05,-4.71649e-05,0.154029,-0.06620756706871833,-3.504243860086298e-06,1.0195451973338265e-05,0.16358528330043076,-4.7163787753601305e-05,-0.07793393133058812
174,0.1646,-0.118005,978.758,-0.158893,0.0498833,0.0678801,-0.138781,-0.0688964,0.152365,-0.0816023,-2.35453e-06,9.4834e-06,-4.86448e-05,0.154926,-0.06657662226889005,-2.3545272280767193e-06,9.483444967539612e-06,0.16458523247546952,-4.8643616860855055e-05,-0.07836157857939519
175,0.1656,0.193369,980.018,0.245765,-0.0323319,0.140187,-0.0474711,-0.0692902,0.153223,-0.0820631,-3.498e-06,1.07838e-05,-4.75596e-05,0.155821,-0.06694413202761962,-3.4979938819956757e-06,1.078385814534677e-05,0.165584875390419,-4.755846906012717e-05,-0.07878617173021085
176,0.1666,-0.136104,980.532,-0.182508,0.0550248,0.0633357,-0.143413,-0.0696849,0.154081,-0.0825264,-2.21244e-06,9.95282e-06,-4.91879e-05,0.156717,-0.06731233650877377,-2.212437552606694e-06,9.952869529428199e-06,0.1665853763670453,-4.918669029507772e-05,-0.07921287124427334
177,0.1676,0.211779,981.824,0.269914,-0.0369769,0.144215,-0.0412951,-0.0700779,0.154937,-0.0829862,-3.49492e-06,1.13734e-05,-4.79436e-05,0.15761,-0.06767881074362192,-3.4949138927320433e-06,1.1373464677388867e-05,0.16758440097074412,-4.794245072392567e-05,-0.07963615184640738
178,0.1686,-0.155447,982.284,-0.207776,0.0605042,0.0584988,-0.148432,-0.0704721,0.155794,-0.0834489,-2.06366e-06,1.0415e-05,-4.97313e-05,0.158504,-0.0680462593275526,-2.063657870698954e-06,1.0415054236379007e-05,0.16858544969048417,-4.9730063419350934e-05,-0.08006190569319982
179,0.1696,0.231435,983.611,0.295724,-0.0419713,0.148545,-0.0347451,-0.0708645,0.156649,-0.0839077,-3.49499e-06,1.19641e-05,-4.83171e-05,0.159396,-0.06841188623470174,-3.4949838925157906e-06,1.1964171570122417e-05,0.16958501750431743,-4.831593274767787e-05,-0.08048387648336652
180,0.1706,-0.175999,984.015,-0.23465,0.0663126,0.0533777,-0.153829,-0.0712581,0.157504,-0.0843697,-1.90837e-06,1.087e-05,-5.02751e-05,0.160289,-0.06877848716448398,-1.9083681790377227e-06,1.0870059078627037e-05,0.1705854403140903,-5.027383622835391e-05,-0.08090859481494217
181,0.1716,0.252294,985.381,0.323137,-0.0473041,0.153169,-0.0278333,-0.0716497,0.158357,-0.0848275,-3.4981e-06,1.25559e-05,-4.86802e-05,0.16118,-0.0691430821165595,-3.498093881670883e-06,1.2555978825545822e-05,0.17158437568004237,-4.867901513827544e-05,-0.08132925856295703
182,0.1726,-0.1977,985.726,-0.263055,0.0724357,0.0479853,-0.159587,-0.0720428,0.159211,-0.085289,-1.74682e-06,1.13182e-05,-5.0819e-05,0.162071,-0.06950893005885528,-1.7468184743130166e-06,1.1318264051096705e-05,0.1725853360861318,-5.0817708736494716e-05,-0.08175312729489725
183,0.1736,0.274287,987.134,0.352071,-0.0529588,0.158072,-0.0205778,-0.0724337,0.160063,-0.0857458,-3.50404e-06,1.31485e-05,-4.90333e-05,0.16296,-0.0698725879365324,-3.5040338608460786e-06,1.3148586441857901e-05,0.1735848045055639,-4.90320978874248e-05,-0.08217248667737376
184,0.1746,-0.220472,987.417,-0.292892,0.0788535,0.0423398,-0.165685,-0.0728263,0.160915,-0.0862066,-1.57933e-06,1.17599e-05,-5.13629e-05,0.16385,-0.07023768428540578,-1.5793287528875766e-06,1.1759969147817628e-05,0.1745851248349517,-5.136158094887211e-05,-0.08259532416627346
185,0.1756,0.297328,988.869,0.382414,-0.0589131,0.163233,-0.0130033,-0.0732164,0.161766,-0.0866624,-3.51257e-06,1.37417e-05,-4.93769e-05,0.164737,-0.07060031382927479,-3.5125638309096985e-06,1.3741794417487796e-05,0.17558512221472133,-4.937568098095646e-05,-0.08301338193491525
186,0.1766,-0.244215,989.089,-0.324034,0.0855406,0.0364639,-0.172095,-0.0736085,0.162616,-0.0871226,-1.40633e-06,1.21954e-05,-5.19063e-05,0.165626,-0.07096466001148538,-1.406329011133245e-06,1.2195474364151693e-05,0.1765847943690808,-5.1904952891312917e-05,-0.08343528208987716
187,0.1776,0.321308,990.588,0.414028,-0.065139,0.168629,-0.00514053,-0.0739979,0.163466,-0.0875773,-3.52331e-06,1.43353e-05,-4.97114e-05,0.166512,-0.07132635594610803,-3.523303793162569e-06,1.4335402750864645e-05,0.17758531660600552,-4.9710164408800495e-05,-0.08385194933063478
188,0.1786,-0.26881,990.742,-0.356324,0.0924655,0.0303856,-0.178781,-0.0743895,0.164315,-0.088037,-1.22831e-06,1.26252e-05,-5.24488e-05,0.167399,-0.07168995334810169,-1.2283092456488731e-06,1.2625279698141867e-05,0.17858551106227227,-5.2447424585766456e-05,-0.08427300580228259
189,0.1796,0.346096,992.29,0.446744,-0.0716023,0.174229,0.00297303,-0.0747782,0.165163,-0.0884907,-3.53583e-06,1.49288e-05,-5.00374e-05,0.168283,-0.07205071734421042,-3.535823749012401e-06,1.4928911435063696e-05,0.17958537545823972,-5.003614815013435e-05,-0.08468837690549014
190,0.1806,-0.294114,992.377,-0.38958,0.0995913,0.0241376,-0.185704,-0.0751692,0.16601,-0.0889498,-1.04585e-06,1.30499e-05,-5.299e-05,0.169169,-0.07241347459006575,-1.0458494531517815e-06,1.3049985150281884e-05,0.18058490751332212,-5.298859605473716e-05,-0.08510850002501158
191,0.1816,0.371542,993.975,0.480368,-0.0782635,0.179999,0.0112937,-0.0755571,0.166857,-0.0894025,-3.54961e-06,1.55219e-05,-5.03556e-05,0.170052,-0.07277321562698735,-3.5496037001925274e-06,1.552202046539719e-05,0.18158528653069306,-5.035433217803753e-05,-0.0855225776735028
192,0.1826,-0.319966,993.994,-0.423593,0.106876,0.0177575,-0.192817,-0.0759476,0.167703,-0.089861,-8.59581e-07,1.347e-05,-5.35291e-05,0.170936,-0.07313522699896435,-8.595806305633502e-07,1.347009072083516e-05,0.18258533064211147,-5.352766734334491e-05,-0.08594176946457777
193,0.1836,0.397475,995.644,0.514677,-0.0850772,0.185898,0.0197717,-0.0763349,0.168548,-0.0903127,-3.56406e-06,1.61139e-05,-5.06669e-05,0.171817,-0.07349413221906542,-3.5640536487635543e-06,1.6114029829594756e-05,0.18358503756319355,-5.06656164542818e-05,-0.0863545563323781
194,0.1846,-0.346187,995.594,-0.458129,0.114271,0.0112869,-0.200065,-0.0767249,0.169392,-0.0907706,-6.70245e-07,1.38861e-05,-5.40655e-05,0.172701,-0.07385539905588778,-6.702447753470508e-07,1.3886196412293828e-05,0.18458440500863516,-5.406403848717822e-05,-0.0867728188125304
195,0.1856,0.423707,997.297,0.549426,-0.0919931,0.191882,0.0283518,-0.0771114,0.170236,-0.0912213,-3.57848e-06,1.67043e-05,-5.09721e-05,0.17358,-0.07421328477828171,-3.578473597221077e-06,1.6704439517623015e-05,0.18558461627624334,-5.097080094462747e-05,-0.0871843175648821
196,0.1866,-0.37258,997.177,-0.492932,0.121724,0.0047717,-0.207392,-0.0775009,0.171079,-0.0916787,-4.78625e-07,1.42991e-05,-5.45984e-05,0.174462,-0.07457380848731032,-4.786248855026543e-07,1.429920223272596e-05,0.18658448549342643,-5.459690953446561e-05,-0.08760174398532794
197,0.1876,0.450032,998.934,0.584347,-0.098956,0.197902,0.0369734,-0.0778867,0.171922,-0.0921283,-3.59215e-06,1.72926e-05,-5.1272e-05,0.17534,-0.07493076904987583,-3.5921435482810793e-06,1.729274951789428e-05,0.18758519795573725,-5.1270685613502565e-05,-0.088011866038886
198,0.1886,-0.398936,998.745,-0.527728,0.129181,-0.0017391,-0.214735,-0.0782757,0.172763,-0.0925851,-2.85564e-07,1.47095e-05,-5.5127e-05,0.176221,-0.0752905509985895,-2.8556395925694034e-07,1.4709608185281553e-05,0.18858437720319987,-5.512548053487887e-05,-0.08842836708239865
199,0.1896,0.476234,1000.55,0.619154,-0.105907,0.203908,0.0455718,-0.0786607,0.173604,-0.0930337,-3.60426e-06,1.78779e-05,-5.15678e-05,0.177097,-0.07564649561272019,-3.6042535046520996e-06,1.787805981057211e-05,0.18958439711385888,-5.156647040382989e-05,-0.08883720640740855
200,0.1906,-0.425033,1000.3,-0.562225,0.13658,-0.00819364,-0.222028,-0.0790492,0.174445,-0.09349,-9.19485e-08,1.51183e-05,-5.56503e-05,0.177976,-0.07600553720083025,-9.194849581728448e-08,1.5118414282033754e-05,0.19058525839500962,-5.564875155072979e-05,-0.08925287514808944
201,0.1916,0.502082,1002.16,0.653545,-0.112784,0.209845,0.0540788,-0.0794335,0.175284,-0.0939376,-3.61395e-06,1.84596e-05,-5.18604e-05,0.178851,-0.076360560050874,-3.6139434697046724e-06,1.845977037939761e-05,0.1915845785830017,-5.185905527271828e-05,-0.08966043434262105
202,0.1926,-0.45064,1001.83,-0.596122,0.143861,-0.0145381,-0.229201,-0.0798215,0.176123,-0.0943934,1.013e-07,1.55262e-05,-5.61675e-05,0.179729,-0.07671886263837724,1.0130000505093051e-07,1.552632053214431e-05,0.19258473755245098,-5.616592263546494e-05,-0.09007527256783421
203,0.1936,0.52734,1003.75,0.687207,-0.119521,0.215655,0.0624236,-0.0802051,0.176961,-0.0948399,-3.62035e-06,1.9037e-05,-5.2151e-05,0.180602,-0.07707296536142472,-3.6203434465864603e-06,1.9037181204772935e-05,0.19358454242225154,-5.214964016020396e-05,-0.0904814632698101
204,0.1946,-0.475524,1003.36,-0.629109,0.150959,-0.0207173,-0.236183,-0.0805926,0.177799,-0.0952951,2.93241e-07,1.5934e-05,-5.66775e-05,0.181479,-0.07743053030466518,2.932410430034338e-07,1.5934126946781646e-05,0.1945851854796845,-5.667589386082472e-05,-0.09089538189270396
205,0.1956,0.551769,1005.32,0.719824,-0.126054,0.221281,0.0705338,-0.0809755,0.178636,-0.0957406,-3.62254e-06,1.96092e-05,-5.24405e-05,0.18235,-0.0777837145331759,-3.6225334386630337e-06,1.9609392261532577e-05,0.19558547184137587,-5.243912502106429e-05,-0.0913002977983558
206,0.1966,-0.499447,1004.86,-0.660875,0.157811,-0.0266759,-0.242903,-0.0813625,0.179472,-0.0961953,4.82931e-07,1.63426e-05,-5.71794e-05,0.183226,-0.07814054318485397,4.829311166520966e-07,1.634273354111926e-05,0.19658539920723705,-5.7177765289240234e-05,-0.09171338962940179
207,0.1976,0.575127,1006.88,0.751075,-0.132315,0.226665,0.078337,-0.0817447,0.180307,-0.0966398,-3.61959e-06,2.01754e-05,-5.27302e-05,0.184095,-0.07849281054666768,-3.6195834492991352e-06,2.0175603524741348e-05,0.19758496527633218,-5.2728809787461195e-05,-0.0921170333112572
208,0.1986,-0.522177,1006.36,-0.69111,0.164353,-0.0323589,-0.24929,-0.0821311,0.181142,-0.097094,6.69436e-07,1.67527e-05,-5.76722e-05,0.18497,-0.07884881214073514,6.69436224010056e-07,1.6752840327205476e-05,0.19858536633165302,-5.767053699068381e-05,-0.09252930012184701
209,0.1996,0.597179,1008.42,0.780646,-0.138239,0.23175,0.0857612,-0.0825126,0.181976,-0.0975375,-3.61061e-06,2.07349e-05,-5.3021e-05,0.185838,-0.07920016429421872,-3.610603481751795e-06,2.0735114969472335e-05,0.19958540348470133,-5.301959441161852e-05,-0.09293167414420822
210,0.2006,-0.543485,1007.84,-0.719514,0.170522,-0.0377129,-0.255272,-0.0828985,0.182809,-0.0979911,8.51846e-07,1.71651e-05,-5.81549e-05,0.186711,-0.07955543239742824,8.51846362781572e-07,1.7165247321093702e-05,0.20058507443094808,-5.815320903657106e-05,-0.0933430270349277
211,0.2016,0.617696,1009.94,0.808231,-0.143762,0.23648,0.0927368,-0.0832794,0.183641,-0.0984336,-3.59469e-06,2.1287e-05,-5.33142e-05,0.187578,-0.07990596297044239,-3.594683539054344e-06,2.12872265696884e-05,0.20158437686504227,-5.331277882325569e-05,-0.09374413399400516
212,0.2026,-0.563155,1009.31,-0.745799,0.176259,-0.0426867,-0.260784,-0.0836648,0.184473,-0.0988866,1.02929e-06,1.75806e-05,-5.86266e-05,0.188449,-0.08026049888885378,1.0292905296971355e-06,1.7580754539725518e-05,0.20258451106472797,-5.862488149444012e-05,-0.09415457492941515
213,0.2036,0.636461,1011.45,0.83354,-0.148823,0.240802,0.0991973,-0.0840449,0.185305,-0.0993282,-3.57098e-06,2.18308e-05,-5.36106e-05,0.189315,-0.08061002544149654,-3.5709736240230328e-06,2.18310382935627e-05,0.20358547772232227,-5.360916297747487e-05,-0.09455450795741449
214,0.2046,-0.580985,1010.77,-0.769693,0.181508,-0.0472322,-0.265762,-0.0844298,0.186135,-0.0997806,1.20096e-06,1.79998e-05,-5.90864e-05,0.190185,-0.08096383054854328,1.2009607210927697e-06,1.7999961997361424e-05,0.20458486835857248,-5.908465443305033e-05,-0.09496403885514071
215,0.2056,-0.22811,1011.92,-0.305286,0.0853309,0.0353444,-0.160158,-0.0848109,0.186965,-0.100226,2.18517e-07,1.9075e-05,-5.81687e-05,0.191051,-0.08131400850207393,2.1851702380892846e-07,1.90751819288959e-05,0.2055850888333861,-5.816700823402243e-05,-0.09536705211451924
216,0.2066,0.00225985,1012.92,0.00157989,0.0222094,0.0885759,-0.0888962,-0.0851921,0.187794,-0.10067,-5.24187e-07,1.99537e-05,-5.74649e-05,0.191916,-0.08166414486180285,-5.241868625827095e-07,1.9953899076385895e-05,0.2065849332502785,-5.746324892430543e-05,-0.09576861998871533
217,0.2076,-0.0382862,1013.6,-0.0559663,0.0345209,0.0796247,-0.101627,-0.0855736,0.188622,-0.101116,-2.63126e-07,2.00253e-05,-5.78824e-05,0.192782,-0.08201442317070229,-2.6312596534960875e-07,2.0025500507614424e-05,0.20758439929685157,-5.788072484624873e-05,-0.0961718172645244
218,0.2086,0.06679,1014.45,0.0836493,0.00615628,0.104682,-0.0690584,-0.0859546,0.18945,-0.101561,-6.06828e-07,2.06026e-05,-5.76129e-05,0.193646,-0.08236410905608305,-6.068278158855023e-07,2.060281223492666e-05,0.20858469324401474,-5.761124040870591e-05,-0.09657393132882663
219,0.2096,-0.019107,1015.07,-0.0307342,0.0298686,0.0843502,-0.094951,-0.0863356,0.190277,-0.102006,-2.13108e-07,2.05467e-05,-5.81784e-05,0.19451,-0.08271366173651862,-2.131079772649258e-07,2.05469110849954e-05,0.20958460619234254,-5.8176707669721495e-05,-0.09697586649217871
220,0.2106,0.0744579,1015.9,0.0931263,0.00447214,0.106379,-0.0663263,-0.0867159,0.191104,-0.10245,-5.23802e-07,2.10911e-05,-5.79507e-05,0.195373,-0.08306243940668268,-5.238018627728991e-07,2.1091322418786973e-05,0.2105853464107077,-5.794902089062415e-05,-0.09737672021134525
221,0.2116,-0.017862,1016.5,-0.0290035,0.0297775,0.0843808,-0.0939506,-0.0870963,0.191929,-0.102895,-1.10007e-07,2.10142e-05,-5.85351e-05,0.196236,-0.08341117612080395,-1.1000699395857794e-07,2.1014420799936318e-05,0.2115844914121392,-5.853338685446463e-05,-0.09777829821311901
222,0.2126,0.0757221,1017.33,0.0947053,0.00436996,0.106444,-0.0653798,-0.0874761,0.192754,-0.103338,-4.2134e-07,2.15588e-05,-5.83047e-05,0.197097,-0.0837592304564112,-4.2133991118298297e-07,2.1559032392648447e-05,0.2125844610483123,-5.830300031406388e-05,-0.09817789391002862
223,0.2136,-0.0183539,1017.92,-0.0296061,0.0301466,0.0840001,-0.0934934,-0.0878559,0.193579,-0.103782,-5.36645e-10,2.14749e-05,-5.88938e-05,0.197958,-0.08410715262608148,-5.366449506993831e-10,2.1475130587367275e-05,0.2135852559998308,-5.8892065794236004e-05,-0.09857821404748568
224,0.2146,0.0761021,1018.74,0.095241,0.00448207,0.106292,-0.0646608,-0.0882351,0.194402,-0.104225,-3.15052e-07,2.20214e-05,-5.86575e-05,0.198819,-0.08445439335280303,-3.1505195041692247e-07,2.20216424728914e-05,0.21458444777653618,-5.8655779682448284e-05,-0.09897745546016046
225,0.2156,-0.0188483,1019.33,-0.0302444,0.0305162,0.0836201,-0.0930552,-0.0886143,0.195225,-0.104668,1.10016e-07,2.19332e-05,-5.92486e-05,0.199679,-0.0848015024308032,1.1001600608295803e-07,2.193344053447177e-05,0.2155844622265577,-5.924684483638032e-05,-0.09937652004805908
226,0.2166,0.0762138,1020.14,0.0954523,0.00465951,0.106074,-0.0640172,-0.0889929,0.196048,-0.105109,-2.06664e-07,2.24805e-05,-5.90074e-05,0.200537,-0.08514793099891693,-2.0666397859692154e-07,2.2480752688291972e-05,0.21658530002723375,-5.9005659097666197e-05,-0.09977360743851282
227,0.2176,-0.0191699,1020.73,-0.0306672,0.0308379,0.0832835,-0.0925738,-0.0893715,0.196869,-0.105552,2.21074e-07,2.23895e-05,-5.95989e-05,0.201396,-0.08549422843399979,2.2107402442017587e-07,2.2389750646834017e-05,0.2175845266849723,-5.959712402081596e-05,-0.10017231940919546
228,0.2186,0.0761275,1021.53,0.09541,0.0048874,0.105811,-0.0634346,-0.0897495,0.19769,-0.105993,-9.63663e-08,2.29365e-05,-5.93542e-05,0.202253,-0.08583984628976171,-9.636629538789521e-08,2.2936763043546193e-05,0.21858457404464926,-5.9352438574356015e-05,-0.10056905592950349
229,0.2196,-0.0193031,1022.11,-0.0308452,0.0311063,0.0829937,-0.092041,-0.0901276,0.198511,-0.106434,3.32554e-07,2.2844e-05,-5.99445e-05,0.20311,-0.08618542490812475,3.325540554044437e-07,2.2844260926246918e-05,0.21958544278033698,-5.994270336440177e-05,-0.10096561752757915
230,0.2206,0.0758534,1022.91,0.0951209,0.00516414,0.105505,-0.0629122,-0.0905049,0.19933,-0.106875,1.58023e-08,2.33894e-05,-5.96981e-05,0.203966,-0.08653014211231702,1.580230013509265e-08,2.3389673534213173e-05,0.22058469239483647,-5.9696318103874546e-05,-0.10136200428054631
231,0.2216,-0.0192486,1023.48,-0.0307762,0.0313212,0.0827503,-0.0914558,-0.0908824,0.200149,-0.107315,4.44433e-07,2.32967e-05,-6.02856e-05,0.204822,-0.0868749119042771,4.44433098767405e-07,2.3296971370267983e-05,0.22158476072999034,-6.0283782859715807e-05,-0.10175731802326182
232,0.2226,0.0753954,1024.28,0.0945883,0.00548911,0.105157,-0.0624497,-0.0912592,0.200967,-0.107755,1.29813e-07,2.38392e-05,-6.00389e-05,0.205677,-0.08721891262366588,1.2981300834269405e-07,2.3839484156074064e-05,0.2225844258715688,-6.0037097701304276e-05,-0.1021524578661912
233,0.2236,-0.0190103,1024.85,-0.0304639,0.0314833,0.0825526,-0.0908187,-0.0916361,0.201785,-0.108195,5.56703e-07,2.37476e-05,-6.0622e-05,0.206531,-0.087562874991718,5.567031549080781e-07,2.374788197645472e-05,0.22358490907377426,-6.062016252372793e-05,-0.1025474238858336
234,0.2246,0.0747585,1025.63,0.0938176,0.00586126,0.104767,-0.0620458,-0.0920123,0.202602,-0.108634,2.45633e-07,2.42861e-05,-6.03769e-05,0.207384,-0.08790606927925304,2.456330301381371e-07,2.428639490981155e-05,0.2245849864204552,-6.0375077351682016e-05,-0.10294131910042215
235,0.2256,-0.0185939,1026.2,-0.029915,0.031594,0.0823992,-0.0901311,-0.0923886,0.203418,-0.109073,6.69363e-07,2.41966e-05,-6.0954e-05,0.208237,-0.08824922565646165,6.69363223959607e-07,2.4196892740135922e-05,0.22558465557892138,-6.095214234269619e-05,-0.1033350414329619
236,0.2266,0.073949,1026.97,0.092817,0.00627899,0.104338,-0.0616988,-0.0927642,0.204234,-0.109511,3.63218e-07,2.47299e-05,-6.07119e-05,0.209089,-0.08859161494257195,3.63218066068427e-07,2.4730205786527293e-05,0.226585140800329,-6.0710057069868206e-05,-0.10372769468747411
237,0.2276,-0.0180067,1027.53,-0.0291391,0.0316552,0.0822884,-0.0893951,-0.0931399,0.205049,-0.10995,7.82421e-07,2.46439e-05,-6.12816e-05,0.209941,-0.08893396675802256,7.824213061891072e-07,2.4644203663326536e-05,0.22758521516502883,-6.127972232106149e-05,-0.10412107187689557
238,0.2286,0.0729756,1028.31,0.091597,0.00674021,0.103871,-0.0614061,-0.093515,0.205863,-0.110387,4.82521e-07,2.51708e-05,-6.1044e-05,0.210791,-0.08927564354160467,4.825211163961285e-07,2.517111678734807e-05,0.22858487633707258,-6.104213685298454e-05,-0.1045124854383932
239,0.2296,-0.0172581,1028.86,-0.0281478,0.0316693,0.0822181,-0.088613,-0.0938901,0.206677,-0.110825,8.95894e-07,2.50893e-05,-6.16047e-05,0.211642,-0.0896171921862593,8.958944013315318e-07,2.508961473912663e-05,0.22958535156458582,-6.16028024694737e-05,-0.10490462308535742
240,0.2306,0.0718481,1029.63,0.0901708,0.00724231,0.103368,-0.061165,-0.0942646,0.20749,-0.111262,6.03486e-07,2.56088e-05,-6.13731e-05,0.212491,-0.08995806671504603,6.034861821380133e-07,2.560912790805503e-05,0.23058541092445362,-6.137121670979351e-05,-0.10529569430978303
241,0.2316,-0.0163589,1030.18,-0.0269552,0.0316393,0.0821857,-0.0877881,-0.0946391,0.208302,-0.111699,1.0098e-06,2.55328e-05,-6.19237e-05,0.21334,-0.09029881361022263,1.009800509876868e-06,2.5533125964649628e-05,0.2315850520775069,-6.192178276731575e-05,-0.10568659467341934
242,0.2326,0.0705782,1030.93,0.0885532,0.0077823,0.102833,-0.0609719,-0.095013,0.209114,-0.112135,7.26052e-07,2.6044e-05,-6.16993e-05,0.214188,-0.09063888730307501,7.260522636443056e-07,2.6044339147990314e-05,0.23258550526881927,-6.169739663730578e-05,-0.10607643032779357
243,0.2336,-0.0153213,1031.49,-0.0255772,0.0315684,0.0821883,-0.086924,-0.0953869,0.209925,-0.112571,1.12418e-06,2.59746e-05,-6.22384e-05,0.215035,-0.09097883386614203,1.1241806319173264e-06,2.5974937342798654e-05,0.2335855375718794,-6.22364632310024e-05,-0.10646609605087021
244,0.2346,0.0691786,1032.23,0.086761,0.00835678,0.102267,-0.0608231,-0.0957603,0.210735,-0.113006,8.50152e-07,2.64764e-05,-6.20226e-05,0.215882,-0.09131819900616167,8.5015236139796e-07,2.6476750502935076e-05,0.23458514664433316,-6.202067663829691e-05,-0.10685469877186848
245,0.2356,-0.0141587,1032.78,-0.0240312,0.0314602,0.0822228,-0.0860243,-0.0961336,0.211544,-0.113442,1.23906e-06,2.64144e-05,-6.2549e-05,0.216728,-0.09165734661663272,1.2390607675438758e-06,2.6414748863334836e-05,0.23558433014319835,-6.254704385211252e-05,-0.10724402524386567
246,0.2366,0.0676633,1033.52,0.0848124,0.00896207,0.101676,-0.0607144,-0.0965064,0.212353,-0.113876,9.75718e-07,2.69062e-05,-6.23428e-05,0.217573,-0.09199591364499882,9.75718476015075e-07,2.690656197512631e-05,0.2365843223085753,-6.234085672807144e-05,-0.1076313972710996
247,0.2376,-0.0128853,1034.07,-0.022336,0.0313185,0.0822859,-0.0850935,-0.0968792,0.213162,-0.114311,1.35447e-06,2.68523e-05,-6.28556e-05,0.218418,-0.09233435447910077,1.3544709172030878e-06,2.6852660526266448e-05,0.23758512379494046,-6.285362462821187e-05,-0.1080194931963031
248,0.2386,0.0660468,1034.8,0.0827265,0.00959424,0.101061,-0.0606414,-0.0972513,0.21397,-0.114745,1.10268e-06,2.73333e-05,-6.26601e-05,0.219262,-0.09267203403662116,1.102680607933948e-06,2.7333673558116445e-05,0.23858549667118312,-6.265813689698696e-05,-0.10840652874346712
249,0.2396,-0.011516,1035.34,-0.0205111,0.0311476,0.0823739,-0.0841358,-0.0976236,0.214777,-0.115179,1.47046e-06,2.72882e-05,-6.31583e-05,0.220105,-0.09300976936501693,1.4704610811211438e-06,2.7288572326256144e-05,0.23958543858929304,-6.315630555653318e-05,-0.10879339635364871
250,0.2406,0.0643443,1036.06,0.0805233,0.0102492,0.100426,-0.0605995,-0.0979952,0.215583,-0.115612,1.23095e-06,2.77579e-05,-6.29743e-05,0.220947,-0.0933467443208964,1.230950757546978e-06,2.775828525414248e-05,0.2405849472006567,-6.297231716034801e-05,-0.1091792052793672
251,0.2416,-0.0100664,1036.61,-0.0185769,0.0309514,0.0824832,-0.083156,-0.0983668,0.216389,-0.116046,1.58707e-06,2.77222e-05,-6.34572e-05,0.22179,-0.09368359408014537,1.5870712593013536e-06,2.772258426375629e-05,0.24158526174070682,-6.345518663442018e-05,-0.10956573762069077
252,0.2426,0.0625714,1037.32,0.0782234,0.0109228,0.099776,-0.060584,-0.0987378,0.217194,-0.116478,1.36046e-06,2.818e-05,-6.32854e-05,0.222631,-0.0940197751013061,1.3604609254702638e-06,2.818039705987374e-05,0.24258514027352196,-6.328339752126322e-05,-0.10995032214580014
253,0.2436,-0.00855172,1037.86,-0.0165537,0.0307344,0.0826102,-0.0821585,-0.0991089,0.217998,-0.116911,1.70435e-06,2.81542e-05,-6.37524e-05,0.223471,-0.09435592198685372,1.704351452413988e-06,2.8154596333207493e-05,0.24358458044741393,-6.375036785888355e-05,-0.11033563023109039
254,0.2446,0.0607435,1038.57,0.0758471,0.0116107,0.0991134,-0.0605901,-0.0994794,0.218802,-0.117342,1.49114e-06,2.85997e-05,-6.35934e-05,0.224311,-0.09469140096643902,1.4911411116980133e-06,2.8600108975318506e-05,0.2445848244943194,-6.359137798261916e-05,-0.11071899295385956
255,0.2456,-0.00698757,1039.11,-0.0144621,0.0305008,0.0827511,-0.0811481,-0.0998499,0.219605,-0.117774,1.82234e-06,2.85842e-05,-6.4044e-05,0.225151,-0.09502675567408514,1.8223416604623566e-06,2.8584608532167266e-05,0.24558462747556176,-6.404194922682294e-05,-0.1111030793802621
256,0.2466,0.0588759,1039.81,0.073415,0.0123089,0.0984422,-0.0606131,-0.10022,0.220408,-0.118205,1.62291e-06,2.90171e-05,-6.38982e-05,0.225989,-0.09536162430054851,1.6229113168897413e-06,2.9017521000040958e-05,0.24658523362102547,-6.389615855351138e-05,-0.11148611140371878
257,0.2476,-0.00538906,1040.35,-0.0123222,0.0302548,0.0829022,-0.0801293,-0.10059,0.22121,-0.118637,1.94109e-06,2.90121e-05,-6.43321e-05,0.226827,-0.09569627858469687,1.9410918838946856e-06,2.9012520855076218e-05,0.24758539598989038,-6.433003073480492e-05,-0.11186986650652209
258,0.2486,0.0569836,1041.03,0.0709467,0.0130132,0.097766,-0.0606484,-0.100959,0.222011,-0.119067,1.75569e-06,2.94322e-05,-6.41999e-05,0.227664,-0.09602990510002152,1.7556915412608731e-06,2.9432633131376562e-05,0.2485851122249787,-6.419783923050648e-05,-0.11225168036806088
259,0.2496,-0.00377083,1041.57,-0.0101534,0.0300004,0.0830602,-0.0791067,-0.101328,0.222811,-0.119497,2.06063e-06,2.94378e-05,-6.46168e-05,0.228501,-0.09636340852987257,2.0606321231575464e-06,2.943823329637496e-05,0.24958437996856198,-6.461471237950711e-05,-0.11263333008493293
260,0.2506,0.0550809,1042.25,0.0684614,0.0137196,0.0970881,-0.0606916,-0.101697,0.223611,-0.119927,1.88941e-06,2.98451e-05,-6.44984e-05,0.229337,-0.09669678891966038,1.8894117850276615e-06,2.9845545369333593e-05,0.2505844474461909,-6.449632002292205e-05,-0.11301481572770511
261,0.2516,-0.00214685,1042.79,-0.00797438,0.0297416,0.0832215,-0.0780844,-0.102066,0.224411,-0.120357,2.18101e-06,2.98615e-05,-6.48982e-05,0.230173,-0.09703004631477818,2.1810123784771207e-06,2.986194585896662e-05,0.25158531529790884,-6.489609415738506e-05,-0.11339613736691423
262,0.2526,0.0531813,1043.46,0.0659772,0.0144244,0.0964119,-0.0607385,-0.102434,0.225209,-0.120786,2.02401e-06,3.02559e-05,-6.47935e-05,0.231007,-0.09736227812333231,2.0240120484071866e-06,3.0256357714364412e-05,0.2525844789928082,-6.47914009465067e-05,-0.11377640884991858
263,0.2536,-0.000530245,1044.0,-0.00580271,0.0294821,0.083383,-0.0770664,-0.102802,0.226007,-0.121215,2.30227e-06,3.0283e-05,-6.51764e-05,0.231841,-0.09769438769307404,2.3022726503008073e-06,3.0283458534619e-05,0.25358444033855654,-6.517427606456128e-05,-0.11415651723144449
264,0.2546,0.0512975,1044.66,0.0635111,0.0151241,0.0957403,-0.0607851,-0.10317,0.226805,-0.121643,2.15942e-06,3.06646e-05,-6.50855e-05,0.232674,-0.09802637506897927,2.1594223316157013e-06,3.066507016358244e-05,0.2545851999719331,-6.508338198474295e-05,-0.11453557711746742
265,0.2556,0.00106683,1045.2,-0.00365465,0.0292253,0.0835417,-0.0760566,-0.103538,0.227602,-0.122071,2.42444e-06,3.07023e-05,-6.54514e-05,0.233507,-0.09835824029600693,2.424442938853133e-06,3.070277132044552e-05,0.255585502944095,-6.54492581038113e-05,-0.11491447480057293
266,0.2566,0.049441,1045.85,0.0610785,0.0158156,0.0950762,-0.0608277,-0.103905,0.228398,-0.122499,2.29557e-06,3.10713e-05,-6.53741e-05,0.234339,-0.09868908210863225,2.2955726348694583e-06,3.107178271788413e-05,0.2565853468895358,-6.537196316014349e-05,-0.11529321035016915
267,0.2576,0.00263331,1046.39,-0.00154508,0.0289743,0.0836951,-0.0750583,-0.104272,0.229193,-0.122926,2.54755e-06,3.11195e-05,-6.57233e-05,0.235171,-0.09901980252459008,2.5475532450247584e-06,3.11199842166765e-05,0.2575847294422413,-6.572114027125764e-05,-0.11567089950697595
268,0.2586,0.0476225,1047.03,0.0586938,0.0164957,0.094422,-0.0608631,-0.104638,0.229988,-0.123353,2.43242e-06,3.14761e-05,-6.56594e-05,0.236001,-0.09934950093837591,2.4324229583871926e-06,3.147659537772185e-05,0.2585849068199775,-6.565724446871979e-05,-0.11604842742493982
269,0.2596,0.00415928,1047.57,0.000512644,0.028732,0.0838405,-0.0740746,-0.105005,0.230782,-0.12378,2.67163e-06,3.15344e-05,-6.59923e-05,0.236832,-0.09967997902509329,2.671633568818166e-06,3.1534897214413604e-05,0.25958462006963146,-6.599012255603665e-05,-0.116425794172895
270,0.2606,0.0458511,1048.21,0.0563693,0.017162,0.0937801,-0.0608882,-0.105371,0.231576,-0.124206,2.56991e-06,3.18789e-05,-6.59414e-05,0.237661,-0.10000943585849187,2.5699133021639398e-06,3.18794081375362e-05,0.2605851274068167,-6.59392259136915e-05,-0.11680211662220452
271,0.2616,0.00563603,1048.74,0.00250674,0.0285008,0.083976,-0.0731082,-0.105737,0.232369,-0.124633,2.79669e-06,3.19471e-05,-6.62583e-05,0.23849,-0.1003387721327531,2.7966939106782718e-06,3.19476103141092e-05,0.2615851678764902,-6.62561049673549e-05,-0.11717916161357234
272,0.2626,0.0441349,1049.37,0.054116,0.0178121,0.0931524,-0.0609005,-0.106102,0.233161,-0.125058,2.70799e-06,3.22799e-05,-6.622e-05,0.239318,-0.10066708855953177,2.707993666639652e-06,3.228042100156259e-05,0.2625847391074063,-6.621780750415418e-05,-0.11755428075142338
273,0.2636,0.00705609,1049.91,0.00442707,0.028283,0.0840997,-0.0721615,-0.106468,0.233953,-0.125484,2.92277e-06,3.23576e-05,-6.65215e-05,0.240145,-0.10099618417694722,2.9227742712745197e-06,3.23581235128767e-05,0.26358510231231747,-6.651928749412672e-05,-0.11793012256783253
274,0.2646,0.0424808,1050.53,0.0519433,0.0184441,0.0925404,-0.0608977,-0.106833,0.234744,-0.125908,2.84663e-06,3.2679e-05,-6.64953e-05,0.240972,-0.10132426069211631,2.8466340515898025e-06,3.2679533964241614e-05,0.26458499353308995,-6.649308923656339e-05,-0.11830404091957147
275,0.2656,0.00841322,1051.06,0.00626513,0.0280803,0.0842099,-0.0712364,-0.107197,0.235534,-0.126333,3.04986e-06,3.27658e-05,-6.67819e-05,0.241798,-0.10165131913297698,3.049864650828127e-06,3.276633680471264e-05,0.2655844103956637,-6.677967013857256e-05,-0.11867868208529375
276,0.2666,0.0408944,1051.67,0.0498587,0.0190564,0.0919457,-0.060878,-0.107562,0.236324,-0.126757,2.98578e-06,3.30764e-05,-6.67673e-05,0.242624,-0.10197915656752199,2.9857844574543435e-06,3.307694703025277e-05,0.2665846171095092,-6.676507111347263e-05,-0.11905228311507421
277,0.2676,0.00970241,1052.21,0.00801403,0.0278943,0.0843055,-0.0703345,-0.107926,0.237113,-0.127181,3.17799e-06,3.31719e-05,-6.70396e-05,0.243449,-0.10230597666966423,3.1779950497856646e-06,3.3172450193630354e-05,0.26758434671387477,-6.703735289625978e-05,-0.1194257257715956
278,0.2686,0.03938,1052.81,0.0478684,0.0196477,0.0913693,-0.0608399,-0.10829,0.237902,-0.127605,3.12542e-06,3.3472e-05,-6.70359e-05,0.244273,-0.10263267783093799,3.12542488423162e-06,3.347256019359257e-05,0.26858486541615645,-6.703365314431053e-05,-0.1197990101219939
279,0.2696,0.0109198,1053.35,0.00966845,0.0277261,0.0843854,-0.0694571,-0.108654,0.23869,-0.128028,3.30714e-06,3.35757e-05,-6.72945e-05,0.245097,-0.10295926009462963,3.3071454685895674e-06,3.357626367006539e-05,0.2695849042536591,-6.729223577595089e-05,-0.12017125640507287
280,0.2706,0.0379409,1053.95,0.0459769,0.0202171,0.0908119,-0.0607824,-0.109017,0.239477,-0.128451,3.26551e-06,3.38658e-05,-6.73012e-05,0.24592,-0.10328482678928519,3.265515331696278e-06,3.386637345270671e-05,0.270584460847235,-6.729893532508857e-05,-0.12054334526127242
281,0.2716,0.0120627,1054.48,0.0112246,0.0275766,0.084449,-0.0686051,-0.10938,0.240264,-0.128874,3.43733e-06,3.39772e-05,-6.75468e-05,0.246742,-0.10361027532467781,3.437335907685579e-06,3.3977777231575246e-05,0.2715848044014786,-6.754451876622714e-05,-0.12091527675716962
282,0.2726,0.0365793,1055.07,0.0441873,0.0207639,0.0902742,-0.0607045,-0.109743,0.24105,-0.129296,3.40605e-06,3.4258e-05,-6.75632e-05,0.247564,-0.10393560574369154,3.4060558005144514e-06,3.425858681205263e-05,0.2725846629506723,-6.756091765836025e-05,-0.12128617224592586
283,0.2736,0.0131295,1055.6,0.01268,0.0274463,0.0844958,-0.067779,-0.110105,0.241836,-0.129718,3.56854e-06,3.43766e-05,-6.77965e-05,0.248385,-0.10425992234956505,3.56854636729409e-06,3.437719088217328e-05,0.2735853076976209,-6.779420186919793e-05,-0.12165691124980638
284,0.2746,0.0352962,1056.18,0.0425013,0.0212878,0.0897564,-0.060606,-0.110468,0.242621,-0.130139,3.547e-06,3.46485e-05,-6.7822e-05,0.249205,-0.10458501698950518,3.5470062906828304e-06,3.4649100266292976e-05,0.2745854646744168,-6.781970014013705e-05,-0.12202661586188879
285,0.2756,0.0141193,1056.72,0.0140335,0.0273355,0.0845256,-0.0669791,-0.11083,0.243405,-0.130561,3.70077e-06,3.47737e-05,-6.80435e-05,0.250025,-0.10490909855105335,3.7007768478591885e-06,3.477430461207298e-05,0.2755851314969118,-6.804118509351476e-05,-0.12239704246448468
286,0.2766,0.034092,1057.29,0.0409193,0.0217886,0.0892586,-0.0604864,-0.111191,0.244188,-0.130981,3.68836e-06,3.50373e-05,-6.80774e-05,0.250844,-0.10523216804892344,3.6883668019793703e-06,3.5037913813429356e-05,0.27658430578055726,-6.807508278638963e-05,-0.12276555831290414
287,0.2776,0.0150325,1057.82,0.0152852,0.0272443,0.0845383,-0.0662053,-0.111553,0.244972,-0.131402,3.83402e-06,3.51687e-05,-6.8288e-05,0.251663,-0.10555601538418558,3.834027349824964e-06,3.516931842595383e-05,0.2775855403089398,-6.828566842764783e-05,-0.1231347962828081
288,0.2786,0.032966,1058.39,0.0394408,0.0222665,0.0887806,-0.060346,-0.111914,0.245754,-0.131822,3.83011e-06,3.54244e-05,-6.83296e-05,0.252481,-0.1058788513872273,3.830117334846506e-06,3.5425027451463365e-05,0.2785850029404173,-6.83272655860323e-05,-0.12350300233968481
289,0.2796,0.01587,1058.92,0.0164363,0.0271724,0.0845342,-0.0654576,-0.112275,0.246536,-0.132242,3.96825e-06,3.55615e-05,-6.853e-05,0.253298,-0.10620157086750548,3.9682578734101526e-06,3.556213231759031e-05,0.27958524745735014,-6.852765187315146e-05,-0.12387105378248875
290,0.2806,0.0319169,1059.49,0.0380641,0.0227218,0.0883223,-0.0601851,-0.112635,0.247317,-0.132662,3.97226e-06,3.581e-05,-6.85787e-05,0.254115,-0.10652328039080461,3.972267889507108e-06,3.581064118574062e-05,0.2805849938857774,-6.857634853474348e-05,-0.12423895067614432
291,0.2816,0.0166333,1060.01,0.0174887,0.0271195,0.0845136,-0.0647353,-0.112996,0.248098,-0.133081,4.10346e-06,3.59522e-05,-6.87694e-05,0.254931,-0.10684576727419881,4.103468419280887e-06,3.5952846288100915e-05,0.2815855214211478,-6.87670354390102e-05,-0.12460581769180401
292,0.2826,0.0309427,1060.57,0.0367867,0.023155,0.087883,-0.0600041,-0.113356,0.248878,-0.1335,4.11478e-06,3.61939e-05,-6.88245e-05,0.255746,-0.10716724492853036,4.114788465736652e-06,3.619455500714075e-05,0.28258554808755476,-6.88221316483828e-05,-0.12497253102238337
293,0.2836,0.0173248,1061.1,0.0184454,0.0270851,0.0844771,-0.0640378,-0.113716,0.249657,-0.133918,4.23963e-06,3.63408e-05,-6.90063e-05,0.256561,-0.10748860687173556,4.239638987213468e-06,3.634146033482111e-05,0.28358507149333567,-6.900391912001425e-05,-0.12533821607091633
294,0.2846,0.0300409,1061.65,0.0356054,0.0235668,0.0874622,-0.0598038,-0.114075,0.250436,-0.134336,4.25769e-06,3.65761e-05,-6.90672e-05,0.257375,-0.10780896095487014,4.25769906398088e-06,3.657676891366535e-05,0.2845853738312041,-6.906481491586458e-05,-0.1257037482950416
295,0.2856,0.0179472,1062.17,0.0193098,0.0270684,0.0844251,-0.0633643,-0.114435,0.251214,-0.134754,4.37674e-06,3.67272e-05,-6.92407e-05,0.258188,-0.10813009192188405,4.376749577872374e-06,3.6727874451969456e-05,0.28558517012237195,-6.9238302918051e-05,-0.12606912775862633
296,0.2866,0.0292084,1062.72,0.0345164,0.023958,0.0870593,-0.059585,-0.114794,0.251991,-0.135172,4.40099e-06,3.69567e-05,-6.93068e-05,0.259001,-0.10845021575321823,4.400999684461837e-06,3.695738290732109e-05,0.286584457972612,-6.930439833918722e-05,-0.1264343545255111
297,0.2876,0.0185036,1063.24,0.0200859,0.0270686,0.0843585,-0.0627139,-0.115152,0.252768,-0.135589,4.51476e-06,3.71116e-05,-6.94727e-05,0.259813,-0.10876933345050244,4.514770191477169e-06,3.71122886440034e-05,0.28758452257123923,-6.947028682791068e-05,-0.12679855545850183
298,0.2886,0.0284422,1063.79,0.0335153,0.0243295,0.0866733,-0.0593486,-0.115511,0.253545,-0.136006,4.54466e-06,3.73358e-05,-6.95434e-05,0.260625,-0.10908922783531594,4.544670326955824e-06,3.7336496989670565e-05,0.288585364522022,-6.954098191380709e-05,-0.1271626045513644
299,0.2896,0.0189974,1064.3,0.0207783,0.0270849,0.0842779,-0.0620855,-0.115869,0.25432,-0.136422,4.65367e-06,3.7494e-05,-6.97021e-05,0.261436,-0.10940811680721907,4.653680828248241e-06,3.749470290870249e-05,0.2895844052578076,-6.969967086511986e-05,-0.12752562939346868
300,0.2906,0.0277384,1064.84,0.0325976,0.0246822,0.0863036,-0.0590957,-0.116227,0.255096,-0.136839,4.68873e-06,3.77132e-05,-6.97769e-05,0.262246,-0.10972689163730298,4.688740992131457e-06,3.771391115159339e-05,0.2905855111351312,-6.97744656487087e-05,-0.12788937535970668
301,0.2916,0.0194322,1065.36,0.0213917,0.0271163,0.0841844,-0.0614781,-0.116585,0.25587,-0.137255,4.79345e-06,3.78743e-05,-6.99291e-05,0.263056,-0.11004555236642288,4.793461488628026e-06,3.78750172402853e-05,0.2915848109999093,-6.992665501748263e-05,-0.12825209792803183
302,0.2926,0.0270935,1065.89,0.0317583,0.0250172,0.0859491,-0.0588273,-0.116942,0.256644,-0.13767,4.83318e-06,3.8089e-05,-7.00074e-05,0.263865,-0.11036320939907396,4.8331916797650365e-06,3.808972539509625e-05,0.29258488462218835,-7.000494953912639e-05,-0.1286137982493839
303,0.2936,0.0198119,1066.41,0.0219311,0.0271618,0.0840787,-0.0608904,-0.117299,0.257417,-0.138085,4.93407e-06,3.82527e-05,-7.01537e-05,0.264674,-0.11068075304840452,4.9340821726140405e-06,3.82534316438754e-05,0.29358443901600273,-7.015123928677536e-05,-0.12897534849624515
304,0.2946,0.0265036,1066.94,0.0309923,0.0253356,0.085609,-0.0585445,-0.117656,0.25819,-0.1385,4.97804e-06,3.84631e-05,-7.0235e-05,0.265482,-0.1109981833548852,4.978052390525178e-06,3.846383971461975e-05,0.2945847663640717,-7.023253358018344e-05,-0.12933674873088374
305,0.2956,0.0201402,1067.45,0.0224015,0.0272203,0.0839617,-0.0603213,-0.118013,0.258962,-0.138915,5.07551e-06,3.86291e-05,-7.03757e-05,0.266289,-0.11131550035897209,5.075522880426675e-06,3.862984611324727e-05,0.29558457167890073,-7.037322368852461e-05,-0.1296979990155417
306,0.2966,0.0259648,1067.97,0.0302945,0.0256384,0.0852823,-0.0582486,-0.118369,0.259734,-0.139329,5.12329e-06,3.88357e-05,-7.04597e-05,0.267095,-0.111631815733367,5.123303123966139e-06,3.883645411550951e-05,0.2965851491414433,-7.045721777365621e-05,-0.13005822947109968
307,0.2976,0.0204211,1068.48,0.0228082,0.0272908,0.0838344,-0.0597696,-0.118725,0.260505,-0.139743,5.21774e-06,3.90035e-05,-7.05954e-05,0.267902,-0.1119480185195304,5.217753612507536e-06,3.90042606464025e-05,0.2975852017621772,-7.059290820343733e-05,-0.13041831082211597
308,0.2986,0.0254731,1069.0,0.0296598,0.0259267,0.0849681,-0.0579407,-0.119081,0.261275,-0.140156,5.26896e-06,3.92067e-05,-7.06816e-05,0.268707,-0.11226410875753678,5.268973880978578e-06,3.920746859265023e-05,0.29858472713541806,-7.067910211455697e-05,-0.1307773739081154
309,0.2996,0.0206584,1069.51,0.0231562,0.0273722,0.0836976,-0.0592341,-0.119436,0.262045,-0.14057,5.36074e-06,3.93761e-05,-7.08126e-05,0.269512,-0.1125791990670888,5.36075436885497e-06,3.937687524890876e-05,0.2995850224395813,-7.08100928470401e-05,-0.13113715759495548
310,0.3006,0.0250249,1070.02,0.029083,0.0262015,0.0846654,-0.0576219,-0.119792,0.262814,-0.140983,5.41503e-06,3.9576e-05,-7.09006e-05,0.270316,-0.11289506464481214,5.415044661338797e-06,3.9576783140260474e-05,0.3005847876823047,-7.089808661187025e-05,-0.1314959238585358
311,0.3016,0.0208558,1070.53,0.0234504,0.0274636,0.0835523,-0.0587136,-0.120147,0.263583,-0.141395,5.50448e-06,3.97467e-05,-7.10273e-05,0.27112,-0.11320993100477761,5.5044951496885375e-06,3.974748991053545e-05,0.30158532204018673,-7.102477762099824e-05,-0.13185367383635016
312,0.3026,0.0246164,1071.04,0.0285594,0.026464,0.0843734,-0.0572933,-0.120502,0.264351,-0.141807,5.56153e-06,3.99438e-05,-7.11168e-05,0.271923,-0.11352468560702345,5.5615454652713225e-06,3.994459776412995e-05,0.3025853235189293,-7.111427126027525e-05,-0.13221127645153252
313,0.3036,0.0210169,1071.54,0.0236957,0.027564,0.0833993,-0.0582069,-0.120856,0.265118,-0.142219,5.64894e-06,4.01155e-05,-7.12396e-05,0.272725,-0.11383844233010199,5.6489559552286295e-06,4.0116304637516365e-05,0.3035847897083541,-7.123706251999096e-05,-0.13256873176478357
314,0.3046,0.024244,1072.05,0.0280841,0.0267151,0.0840913,-0.0569561,-0.12121,0.265885,-0.142631,5.70844e-06,4.03099e-05,-7.13303e-05,0.273527,-0.11415208800295762,5.708456293218589e-06,4.031071245491624e-05,0.30458502278240873,-7.132775605467323e-05,-0.13292603983677942
315,0.3056,0.0211452,1072.55,0.0238966,0.0276724,0.0832394,-0.0577131,-0.121564,0.266651,-0.143042,5.79409e-06,4.04825e-05,-7.14495e-05,0.274328,-0.11446562266489513,5.794106785694808e-06,4.0483319427409015e-05,0.3055847177441491,-7.14469475452395e-05,-0.13328233401093825
316,0.3066,0.0239044,1073.05,0.0276526,0.0269558,0.083818,-0.0566111,-0.121918,0.267417,-0.143453,5.85579e-06,4.06745e-05,-7.1541e-05,0.275128,-0.11477904635520553,5.8558071451830784e-06,4.0675327218631097e-05,0.3065851787655933,-7.153844100371565e-05,-0.1336384817782802
317,0.3076,0.0212441,1073.55,0.0240577,0.0277879,0.0830734,-0.0572311,-0.122271,0.268182,-0.143864,5.93992e-06,4.08477e-05,-7.1657e-05,0.275928,-0.11509147420508237,5.9399376413082905e-06,4.084853427865909e-05,0.30758509884801577,-7.165443269852023e-05,-0.133994483198966
318,0.3086,0.0235943,1074.05,0.0272606,0.0271869,0.083553,-0.0562594,-0.122625,0.268946,-0.144274,6.00356e-06,4.10374e-05,-7.17491e-05,0.276728,-0.11540467638315743,6.003578021385181e-06,4.103824204571005e-05,0.308584475576835,-7.174652609487353e-05,-0.13434947268303743
319,0.3096,0.0213165,1074.54,0.0241831,0.0279096,0.0829021,-0.0567598,-0.122978,0.26971,-0.144684,6.08641e-06,4.12111e-05,-7.18621e-05,0.277526,-0.1157168834246094,6.0864285222894665e-06,4.121194918904614e-05,0.30958461612121546,-7.185951798116541e-05,-0.13470431665125304
320,0.3106,0.0233107,1075.04,0.0269041,0.0274094,0.0832954,-0.055902,-0.12333,0.270474,-0.145094,6.15177e-06,4.13987e-05,-7.19546e-05,0.278324,-0.11602809630496358,6.15178892227064e-06,4.139955693793773e-05,0.3105855210649353,-7.195201132981222e-05,-0.13505901516326235
321,0.3116,0.0213655,1075.53,0.0242765,0.0280369,0.082726,-0.0562984,-0.123683,0.271236,-0.145503,6.23352e-06,4.15727e-05,-7.20647e-05,0.279122,-0.11634008331802048,6.233539428412982e-06,4.157356415657176e-05,0.3115845678204596,-7.20621034018265e-05,-0.135412703691826
322,0.3126,0.0230507,1076.03,0.0265794,0.0276241,0.0830446,-0.0555396,-0.124035,0.271998,-0.145912,6.30042e-06,4.17585e-05,-7.21574e-05,0.279919,-0.11665107687061615,6.300439847617412e-06,4.1759371898209e-05,0.3125843761397309,-7.215479671740521e-05,-0.13576624759136025
323,0.3136,0.0213936,1076.51,0.0243416,0.0281688,0.0825459,-0.055846,-0.124387,0.27276,-0.146321,6.38125e-06,4.19326e-05,-7.2265e-05,0.280715,-0.1169619609727458,6.381270360122926e-06,4.193347918368673e-05,0.3135849466032814,-7.22623889477525e-05,-0.13611964692100598
324,0.3146,0.022812,1077.0,0.0262829,0.0278316,0.0827999,-0.055173,-0.124738,0.273521,-0.14673,6.44951e-06,4.21166e-05,-7.23577e-05,0.281511,-0.11727185293522335,6.4495307980916294e-06,4.211748691651529e-05,0.31458496520646384,-7.235508224479048e-05,-0.13647290173988047
325,0.3156,0.0214034,1077.49,0.0243818,0.0283049,0.0823624,-0.0554019,-0.12509,0.274281,-0.147138,6.52958e-06,4.22907e-05,-7.24629e-05,0.282306,-0.11758251856263202,6.529601317861733e-06,4.229159426416551e-05,0.31558442952835564,-7.246027462748383e-05,-0.13682514893265685
326,0.3166,0.0225919,1077.98,0.0260115,0.0280326,0.0825608,-0.0548029,-0.125441,0.275041,-0.147545,6.59903e-06,4.24732e-05,-7.25554e-05,0.283101,-0.11789219274761764,6.599051773692466e-06,4.247410199909041e-05,0.3165846537318504,-7.255276792061949e-05,-0.137176389614714
327,0.3176,0.021397,1078.46,0.0244,0.0284443,0.0821759,-0.0549652,-0.125792,0.2758,-0.147953,6.67848e-06,4.26472e-05,-7.26584e-05,0.283894,-0.11820175825603829,6.6785023011828315e-06,4.2648109404685997e-05,0.317584320809698,-7.265576044235278e-05,-0.13752834984298223
328,0.3186,0.0223884,1078.94,0.0257623,0.0282279,0.0823267,-0.0544301,-0.126142,0.276559,-0.14836,6.749e-06,4.28282e-05,-7.27506e-05,0.284688,-0.11851033363680707,6.7490227746436204e-06,4.282911714037496e-05,0.3185847469228753,-7.274795373923837e-05,-0.1378793043805031
329,0.3196,0.0213767,1079.42,0.0243991,0.0285867,0.081987,-0.0545354,-0.126493,0.277317,-0.148767,6.82794e-06,4.3002e-05,-7.28515e-05,0.28548,-0.11881968221584882,6.8279633105294835e-06,4.300292459924471e-05,0.3195846130624358,-7.284884639391365e-05,-0.13823011610859093
330,0.3206,0.0221995,1079.9,0.0255325,0.0284179,0.0820971,-0.054055,-0.126843,0.278075,-0.149173,6.8994e-06,4.31816e-05,-7.29433e-05,0.286273,-0.11912804136107513,6.899423800943438e-06,4.318253233881464e-05,0.3205852373878464,-7.294063970220144e-05,-0.1385799236657117
331,0.3216,0.0213442,1080.38,0.0243815,0.0287314,0.0817961,-0.0541119,-0.127193,0.278832,-0.14958,6.97795e-06,4.33551e-05,-7.30423e-05,0.287064,-0.1194362925994853,6.977974345900861e-06,4.335603984584324e-05,0.32158529888806986,-7.30396324761795e-05,-0.13893045029977102
332,0.3226,0.0220234,1080.86,0.0253199,0.0286031,0.0818716,-0.0536783,-0.127542,0.279588,-0.149986,7.05025e-06,4.35335e-05,-7.31336e-05,0.287855,-0.11974355571283601,7.0502748530376635e-06,4.353444759663816e-05,0.3225847951360068,-7.313092580352176e-05,-0.13927997357892252
333,0.3236,0.0213011,1081.33,0.0243495,0.028878,0.0816036,-0.053694,-0.127892,0.280344,-0.150391,7.12849e-06,4.37066e-05,-7.32308e-05,0.288645,-0.12005159155891887,7.1285154077394e-06,4.3707555147376453e-05,0.32358504728880333,-7.32281186903716e-05,-0.13962849460935045
334,0.3246,0.0218585,1081.81,0.0251223,0.0287841,0.0816497,-0.0533005,-0.128241,0.281099,-0.150796,7.20153e-06,4.38837e-05,-7.33214e-05,0.289435,-0.12035863997040053,7.201555931146686e-06,4.3884662903614924e-05,0.3245847313327459,-7.331871205185081e-05,-0.13997687451734042
335,0.3256,0.0212491,1082.28,0.0243051,0.0290261,0.0814098,-0.0532813,-0.12859,0.281854,-0.151201,7.27954e-06,4.40565e-05,-7.34169e-05,0.290224,-0.12066558124068372,7.279566495821399e-06,4.405747050184594e-05,0.32558517042313584,-7.341420504536345e-05,-0.14032511336003528
336,0.3266,0.0217034,1082.75,0.0249377,0.0289612,0.0814312,-0.0529218,-0.128938,0.282608,-0.151606,7.35325e-06,4.42325e-05,-7.35068e-05,0.291013,-0.12097153637913016,7.353277035271333e-06,4.423347827153812e-05,0.32658503854454657,-7.350409844142369e-05,-0.1406732111945549
337,0.3276,0.0211894,1083.22,0.02425,0.0291753,0.0812152,-0.0528734,-0.129286,0.283361,-0.15201,7.4311e-06,4.44047e-05,-7.36007e-05,0.291801,-0.12127738506371244,7.4311276105909485e-06,4.4405685903248227e-05,0.3275843332658157,-7.359799153494606e-05,-0.14102030909873464
338,0.3286,0.0215568,1083.69,0.0247645,0.0291349,0.0812158,-0.0525428,-0.129634,0.284114,-0.152414,7.5054e-06,4.45796e-05,-7.36899e-05,0.292588,-0.12158312733147014,7.5054281656328214e-06,4.458059368506184e-05,0.3285843807393858,-7.368718496603144e-05,-0.14136726680368328
339,0.3296,0.0211231,1084.16,0.024186,0.0293254,0.0810198,-0.0524699,-0.129982,0.284867,-0.152818,7.58315e-06,4.47514e-05,-7.37822e-05,0.293375,-0.12188876321942976,7.583178752046393e-06,4.475240135892733e-05,0.32958518153229255,-7.377947816045172e-05,-0.14171408436602984
340,0.3306,0.0214177,1084.62,0.0246011,0.0293053,0.081003,-0.0521638,-0.13033,0.285619,-0.153221,7.65798e-06,4.49253e-05,-7.38706e-05,0.294161,-0.12219429276460514,7.658009322453196e-06,4.492630915642337e-05,0.3305854056259281,-7.386787163443653e-05,-0.14205990390271328
341,0.3316,0.0210514,1085.09,0.0241143,0.0294759,0.0808241,-0.0520705,-0.130677,0.28637,-0.153624,7.73568e-06,4.50965e-05,-7.39615e-05,0.294947,-0.12249883850327437,7.73570992040895e-06,4.509751686243568e-05,0.331585050585252,-7.395876491567144e-05,-0.14240558410220183
342,0.3326,0.021285,1085.55,0.0244462,0.029473,0.0807928,-0.051785,-0.131024,0.287121,-0.154027,7.81099e-06,4.52694e-05,-7.40489e-05,0.295732,-0.12280327858290507,7.811020505954502e-06,4.527042467472597e-05,0.3325854465599114,-7.404615844786022e-05,-0.14275112502063703
343,0.3336,0.0209751,1086.01,0.0240362,0.0296268,0.0806281,-0.0516747,-0.131371,0.287871,-0.15443,7.88868e-06,4.544e-05,-7.41384e-05,0.296517,-0.12310761304015483,7.888711115677793e-06,4.544103241244102e-05,0.33358526052820303,-7.413565181668691e-05,-0.14309652671413775
344,0.3346,0.0211578,1086.47,0.0242987,0.0296379,0.0805848,-0.0514067,-0.131718,0.28862,-0.154832,7.96442e-06,4.56119e-05,-7.4225e-05,0.2973,-0.12341184191166799,7.964451716135912e-06,4.561294023863738e-05,0.33458449005308166,-7.422224539288536e-05,-0.14344093268016145
345,0.3356,0.0208951,1086.93,0.0239528,0.0297777,0.0804322,-0.0512825,-0.132064,0.289369,-0.155234,8.04214e-06,4.5782e-05,-7.43131e-05,0.298084,-0.1237150889496037,8.042172338074138e-06,4.578304801183819e-05,0.3355844682812288,-7.431033884996996e-05,-0.14378520022281172
346,0.3366,0.0210355,1087.39,0.0241576,0.0298005,0.0803789,-0.0510291,-0.13241,0.290118,-0.155635,8.11827e-06,4.5953e-05,-7.43988e-05,0.298866,-0.12401823108221399,8.11830295321947e-06,4.595405585527956e-05,0.3365851957736332,-7.439603247794135e-05,-0.14412847352662506
347,0.3376,0.0208119,1087.84,0.023865,0.0299285,0.0802363,-0.0508935,-0.132756,0.290866,-0.156036,8.19604e-06,4.61224e-05,-7.44856e-05,0.299649,-0.12432126834578971,8.196073587596331e-06,4.612346365417963e-05,0.3375853355056999,-7.448282601651979e-05,-0.14447160920543922
348,0.3386,0.0209174,1088.3,0.024022,0.029961,0.080175,-0.0506524,-0.133101,0.291613,-0.156437,8.27254e-06,4.62926e-05,-7.45703e-05,0.30043,-0.12462332540037246,8.272574217649264e-06,4.6293671518871093e-05,0.3385848850365927,-7.456751970424946e-05,-0.14481460731443074
349,0.3396,0.0207263,1088.75,0.0237735,0.0300791,0.0800408,-0.0505075,-0.133447,0.29236,-0.156838,8.35038e-06,4.64613e-05,-7.46558e-05,0.301211,-0.12492615333752977,8.350414864466416e-06,4.646237934280428e-05,0.33958518150993333,-7.465301332509888e-05,-0.14515746790875417
350,0.3406,0.0208028,1089.2,0.0238911,0.0301193,0.0799728,-0.0502768,-0.133792,0.293106,-0.157238,8.42721e-06,4.66306e-05,-7.47395e-05,0.301992,-0.12522800174278437,8.427245508979553e-06,4.663168722340849e-05,0.3405848848983408,-7.473670707314195e-05,-0.1454993365433055
351,0.3416,0.0206386,1089.65,0.0236792,0.0302292,0.0798456,-0.0501244,-0.134136,0.293852,-0.157638,8.50515e-06,4.67987e-05,-7.48238e-05,0.302771,-0.12552887155760972,8.50518616890561e-06,4.6799795076157835e-05,0.34158533434372096,-7.482100076927622e-05,-0.1458410684577488
352,0.3426,0.0206914,1090.1,0.0237643,0.0302759,0.0797722,-0.0499024,-0.134481,0.294597,-0.158038,8.58229e-06,4.69672e-05,-7.49066e-05,0.303551,-0.12583051206094364,8.582326827877296e-06,4.6968302976235776e-05,0.34258518781698055,-7.490379457064655e-05,-0.14618266370676136
353,0.3436,0.0205493,1090.55,0.0235825,0.0303788,0.0796509,-0.049744,-0.134825,0.295341,-0.158437,8.66034e-06,4.71346e-05,-7.49896e-05,0.304329,-0.12613117464786483,8.660377500913086e-06,4.7135710852685975e-05,0.34358444287350376,-7.498678835027306e-05,-0.14652326886869382
354,0.3446,0.0205828,1091.0,0.023641,0.0304306,0.0795732,-0.0495294,-0.135169,0.296085,-0.158836,8.73777e-06,4.73023e-05,-7.50714e-05,0.305107,-0.12643173382464368,8.737808174341666e-06,4.730341877134947e-05,0.3445844416524195,-7.506858221295598e-05,-0.1468637381562754
355,0.3456,0.0204589,1091.44,0.0234839,0.0305279,0.0794568,-0.0493662,-0.135513,0.296829,-0.159235,8.81595e-06,4.74691e-05,-7.51533e-05,0.305885,-0.12673218962684707,8.815988860710888e-06,4.74702266755056e-05,0.34558518470726307,-7.515047606154734e-05,-0.1472040716237092
356,0.3466,0.0204765,1091.89,0.0235208,0.0305837,0.0793756,-0.0491577,-0.135857,0.297572,-0.159634,8.89364e-06,4.76359e-05,-7.5234e-05,0.306662,-0.1270325420900299,8.89367954859388e-06,4.7637034607417306e-05,0.34658532600598235,-7.523116999363921e-05,-0.1475442693251765
357,0.3476,0.0203675,1092.33,0.023384,0.0306762,0.0792634,-0.0489908,-0.1362,0.298314,-0.160032,8.97196e-06,4.7802e-05,-7.53148e-05,0.307438,-0.12733191858208948,8.972000248075318e-06,4.780314253371998e-05,0.3475848631002818,-7.531196391163952e-05,-0.14788347919874267
358,0.3486,0.0203723,1092.77,0.0234032,0.0307353,0.0791794,-0.0487876,-0.136543,0.299056,-0.16043,9.0499e-06,4.79681e-05,-7.53945e-05,0.308214,-0.12763119240562104,9.049940950411894e-06,4.7969250487778226e-05,0.34858514212632774,-7.539165790615421e-05,-0.1482225540936415
359,0.3496,0.0202755,1093.21,0.023283,0.0308238,0.0790706,-0.0486178,-0.136886,0.299797,-0.160827,9.12836e-06,4.81335e-05,-7.54741e-05,0.308989,-0.12793036359583365,9.128401663671681e-06,4.8134658435561306e-05,0.34958481404934894,-7.547125190177084e-05,-0.1485606426246524
360,0.3506,0.02027,1093.65,0.0232879,0.0308855,0.0789845,-0.048419,-0.137229,0.300538,-0.161225,9.20654e-06,4.82988e-05,-7.55528e-05,0.309764,-0.1282294321879246,9.20658238023897e-06,4.829996640576262e-05,0.3505852270037837,-7.554994595904141e-05,-0.1488994480621334
361,0.3516,0.0201831,1094.09,0.0231813,0.0309706,0.0788785,-0.048247,-0.137571,0.301278,-0.161622,9.28516e-06,4.84635e-05,-7.56313e-05,0.310538,-0.12852752674504153,9.285203107278761e-06,4.846467437435997e-05,0.35158502995323326,-7.562844002528823e-05,-0.14923726791957415
362,0.3526,0.0201692,1094.52,0.0231746,0.0310342,0.0787908,-0.048052,-0.137913,0.302018,-0.162018,9.36356e-06,4.86281e-05,-7.5709e-05,0.311312,-0.1288255193712512,9.363603838297152e-06,4.8629282365153514e-05,0.3525855730306793,-7.570613414598082e-05,-0.14957410326367804
363,0.3536,0.0200905,1094.96,0.023079,0.0311165,0.0786873,-0.0478785,-0.138255,0.302757,-0.162415,9.44234e-06,4.87921e-05,-7.57864e-05,0.312085,-0.12912341010140782,9.442384579116947e-06,4.879329035389901e-05,0.35358550319783877,-7.578352828330193e-05,-0.14991165533616257
364,0.3546,0.0200699,1095.39,0.0230632,0.0311816,0.0785983,-0.0476867,-0.138596,0.303495,-0.162811,9.52096e-06,4.89559e-05,-7.5863e-05,0.312857,-0.1294203283911176,9.52100532458644e-06,4.895709835972539e-05,0.3545848180010054,-7.586012247540186e-05,-0.15024822367572
365,0.3556,0.0199978,1095.83,0.0229765,0.0312615,0.0784968,-0.0475121,-0.138938,0.304233,-0.163207,9.59989e-06,4.91192e-05,-7.59394e-05,0.313629,-0.1297180157313712,9.599936079185412e-06,4.912040636773085e-05,0.35558487057069876,-7.59365166767001e-05,-0.150584658760601
366,0.3566,0.0199719,1096.26,0.0229532,0.0313278,0.078407,-0.047323,-0.139279,0.30497,-0.163602,9.67872e-06,4.92824e-05,-7.6015e-05,0.3144,-0.13001473129512797,9.678766838883135e-06,4.928361439748841e-05,0.3565843048666091,-7.601211093311022e-05,-0.15092011156410035
367,0.3576,0.0199051,1096.69,0.0228739,0.0314057,0.0783072,-0.0471478,-0.13962,0.305707,-0.163997,9.75781e-06,4.9445e-05,-7.60903e-05,0.315171,-0.13031134569612668,9.757857607484155e-06,4.9446222424087694e-05,0.35758447601709276,-7.608740520659296e-05,-0.1512554318899083
368,0.3586,0.019875,1097.12,0.0228447,0.0314727,0.0782167,-0.0469611,-0.13996,0.306444,-0.164392,9.83684e-06,4.96074e-05,-7.61649e-05,0.315941,-0.13060698957628236,9.83688838185337e-06,4.960863046732378e-05,0.35858538456541234,-7.616199952764635e-05,-0.15159061979034327
369,0.3596,0.0198126,1097.55,0.0227713,0.0315489,0.0781184,-0.0467855,-0.140301,0.307179,-0.164787,9.9161e-06,4.97693e-05,-7.62391e-05,0.316711,-0.13090340205163753,9.916149164679311e-06,4.9770538512072804e-05,0.35958431188388684,-7.623619387364666e-05,-0.15192567531770307
370,0.3606,0.0197792,1097.97,0.0227375,0.0316164,0.0780275,-0.0466009,-0.140641,0.307915,-0.165181,9.99532e-06,4.9931e-05,-7.63127e-05,0.31748,-0.13119884466684928,9.995369953275102e-06,4.993224657323658e-05,0.3605853342684835,-7.630978826000945e-05,-0.1522597507844392
371,0.3616,0.0197204,1098.4,0.0226688,0.0316912,0.0779305,-0.0464252,-0.140981,0.308649,-0.165575,1.00747e-05,5.00922e-05,-7.63859e-05,0.318248,-0.13149418684864655,1.0074750749877737e-05,5.009345463524717e-05,0.36158437050528236,-7.638298267143018e-05,-0.1525936946513683
372,0.3626,0.0196844,1098.83,0.0226314,0.031759,0.0778394,-0.0462425,-0.14132,0.309384,-0.165969,1.01541e-05,5.02532e-05,-7.64585e-05,0.319016,-0.1317885604201653,1.0154151553143365e-05,5.025446271322842e-05,0.3625855028886851,-7.645557712343543e-05,-0.15292750697033053
373,0.3636,0.0196284,1099.25,0.0225666,0.0318325,0.0777435,-0.0460668,-0.14166,0.310117,-0.166362,1.02337e-05,5.04138e-05,-7.65307e-05,0.319783,-0.13208370213268816,1.0233752364419146e-05,5.0415070796949735e-05,0.3635846442028583,-7.652777160072066e-05,-0.15326034105390995
374,0.3646,0.0195904,1099.67,0.0225264,0.0319005,0.0776523,-0.0458858,-0.141999,0.31085,-0.166755,1.03133e-05,5.0574e-05,-7.66022e-05,0.32055,-0.1323778758923957,1.0313353182356266e-05,5.057527888618907e-05,0.3645845181560945,-7.65992661263537e-05,-0.15359304435939414
375,0.3656,0.0195368,1100.09,0.0224647,0.0319728,0.0775573,-0.0457104,-0.142338,0.311583,-0.167148,1.03931e-05,5.07339e-05,-7.66734e-05,0.321316,-0.13267194994410014,1.0393154008525585e-05,5.073518698606172e-05,0.3655851252856146,-7.667046066994754e-05,-0.15392561693816864
376,0.3666,0.0194973,1100.51,0.0224223,0.0320408,0.0774661,-0.0455309,-0.142677,0.312315,-0.167541,1.04728e-05,5.08935e-05,-7.6744e-05,0.322082,-0.1329659243215967,1.04728548400157e-05,5.08947950961236e-05,0.36658509954325114,-7.674105525456998e-05,-0.15425805884159915
377,0.3676,0.0194456,1100.93,0.0223632,0.0321122,0.0773721,-0.0453559,-0.143015,0.313046,-0.167933,1.05527e-05,5.10527e-05,-7.68141e-05,0.322847,-0.1332589323180351,1.0552755679960057e-05,5.105400321125941e-05,0.3675844384648925,-7.681114987256876e-05,-0.1545895247109783
378,0.3686,0.019405,1101.35,0.0223191,0.0321801,0.077281,-0.0451778,-0.143353,0.313777,-0.168325,1.06327e-05,5.12116e-05,-7.68837e-05,0.323612,-0.13355184129450604,1.0632756527462206e-05,5.121291133636241e-05,0.3685845081703545,-7.688074452405491e-05,-0.1549208606712006
379,0.3696,0.0193549,1101.77,0.0222621,0.0322506,0.0771877,-0.0450032,-0.143691,0.314508,-0.168716,1.07127e-05,5.13701e-05,-7.69528e-05,0.324376,-0.13384465128447254,1.0712757381181603e-05,5.137141946609525e-05,0.36958530919403554,-7.694983920925047e-05,-0.15525122202482466
380,0.3706,0.0193134,1102.18,0.0222168,0.0323184,0.0770968,-0.0448264,-0.144029,0.315238,-0.169108,1.07928e-05,5.15283e-05,-7.70214e-05,0.325139,-0.1341373623213864,1.0792858242458792e-05,5.1529627605573225e-05,0.37058547148456755,-7.701843392815544e-05,-0.15558229865053275
381,0.3716,0.0192646,1102.6,0.0221615,0.0323881,0.0770042,-0.0446524,-0.144367,0.315967,-0.169499,1.08731e-05,5.16862e-05,-7.70896e-05,0.325902,-0.1344299744386882,1.0873159112412267e-05,5.16875357545743e-05,0.37158499257445143,-7.708662867311755e-05,-0.155912401432461
382,0.3726,0.0192225,1103.01,0.0221153,0.0324556,0.0769135,-0.0444768,-0.144704,0.316696,-0.16989,1.09533e-05,5.18437e-05,-7.71572e-05,0.326664,-0.13472162239186203,1.095335998768654e-05,5.1845043907761124e-05,0.3725852425808678,-7.715422345977441e-05,-0.1562423751694314
383,0.3736,0.0191748,1103.42,0.0220613,0.0325246,0.0768216,-0.0443035,-0.145041,0.317424,-0.17028,1.10337e-05,5.20009e-05,-7.72244e-05,0.327426,-0.13501317207623498,1.1033760871415055e-05,5.2002252070249e-05,0.3735848484498552,-7.722141827282147e-05,-0.1565713764836889
384,0.3746,0.0191323,1103.84,0.0220145,0.0325918,0.0767312,-0.0441289,-0.145378,0.318152,-0.17067,1.11141e-05,5.21578e-05,-7.7291e-05,0.328187,-0.1353046235249178,1.1114161761804908e-05,5.215916024159384e-05,0.3745851822968669,-7.728801312756328e-05,-0.1569002495124513
385,0.3756,0.0190855,1104.25,0.0219617,0.0326601,0.0766399,-0.0439563,-0.145714,0.318879,-0.17106,1.11947e-05,5.23143e-05,-7.73572e-05,0.328948,-0.1355951123665552,1.119476266087105e-05,5.231566841690238e-05,0.3755848690665071,-7.735420800891735e-05,-0.1572289943057399
386,0.3766,0.0190428,1104.65,0.0219145,0.032727,0.0765497,-0.0437828,-0.14605,0.319606,-0.17145,1.12753e-05,5.24705e-05,-7.74229e-05,0.329708,-0.13588550362033736,1.1275363566376484e-05,5.2471876600845846e-05,0.3765852828726748,-7.741990292464696e-05,-0.1575576109135569
387,0.3776,0.0189968,1105.06,0.0218627,0.0327947,0.076459,-0.0436109,-0.146387,0.320332,-0.171839,1.13559e-05,5.26264e-05,-7.74882e-05,0.330468,-0.13617666114281923,1.1355964478543257e-05,5.262778479320218e-05,0.3775850466583819,-7.748519786698882e-05,-0.15788525727156322
388,0.3786,0.0189539,1105.47,0.0218152,0.0328612,0.0763692,-0.0434385,-0.146722,0.321058,-0.172228,1.14367e-05,5.27819e-05,-7.75529e-05,0.331227,-0.1364659934954614,1.1436765399386317e-05,5.2783292989078134e-05,0.378585536536137,-7.754989285158054e-05,-0.15821277619992302
389,0.3796,0.0189085,1105.88,0.0217642,0.0329283,0.076279,-0.0432674,-0.147058,0.321783,-0.172617,1.15175e-05,5.29371e-05,-7.76172e-05,0.331985,-0.1367560921823383,1.1517566326668671e-05,5.293850119292287e-05,0.379585373447211,-7.761418786311758e-05,-0.15854016774819668
390,0.3806,0.0188656,1106.28,0.0217165,0.0329945,0.0761896,-0.0430959,-0.147393,0.322507,-0.173005,1.15984e-05,5.3092e-05,-7.7681e-05,0.332743,-0.13704523045809203,1.159846726173086e-05,5.309340940518048e-05,0.38058455491763343,-7.767798290925221e-05,-0.15886659083293686
391,0.3816,0.0188208,1106.68,0.0216663,0.033061,0.0760999,-0.0429256,-0.147728,0.323231,-0.173394,1.16794e-05,5.32466e-05,-7.77443e-05,0.333501,-0.1373342718887458,1.167946820435084e-05,5.3248017625406874e-05,0.38158446005737723,-7.774127799020647e-05,-0.15919372809677979
392,0.3826,0.0187779,1107.09,0.0216186,0.0331268,0.0760109,-0.0427551,-0.148063,0.323955,-0.173782,1.17604e-05,5.34008e-05,-7.78071e-05,0.334258,-0.13762321650673726,1.1760469153854203e-05,5.340222584804266e-05,0.38258508939056846,-7.780407310609139e-05,-0.15951989764929309
393,0.3836,0.0187336,1107.49,0.0215689,0.0331927,0.0759217,-0.0425855,-0.148398,0.324678,-0.174169,1.18416e-05,5.35547e-05,-7.78695e-05,0.335014,-0.13791206434449343,1.1841670112033853e-05,5.355613407864723e-05,0.3835850598559618,-7.786646824914367e-05,-0.15984510051808898
394,0.3846,0.0186908,1107.89,0.0215212,0.0332581,0.075833,-0.042416,-0.148732,0.3254,-0.174556,1.19228e-05,5.37083e-05,-7.79314e-05,0.33577,-0.13819995363481452,1.1922871076874841e-05,5.3709742316554454e-05,0.38458436897635995,-7.792836342734866e-05,-0.1601701775577241
395,0.3856,0.018647,1108.29,0.0214721,0.0333236,0.0757443,-0.0422472,-0.149067,0.326122,-0.174943,1.2004e-05,5.38616e-05,-7.79929e-05,0.336525,-0.13848860829799126,1.2004072048377168e-05,5.386305056198637e-05,0.3855843998584676,-7.798985863283203e-05,-0.160495128816885
396,0.3866,0.0186043,1108.69,0.0214245,0.0333885,0.0756561,-0.0420786,-0.149401,0.326844,-0.17533,1.20854e-05,5.40146e-05,-7.80538e-05,0.33728,-0.13877630505478677,1.2085473028777827e-05,5.4016058814720935e-05,0.38658515302358487,-7.805075388145344e-05,-0.16081995434423924
397,0.3876,0.0185609,1109.08,0.0213759,0.0334535,0.0755678,-0.0419106,-0.149734,0.327565,-0.175717,1.21668e-05,5.41672e-05,-7.81144e-05,0.338034,-0.13906304480038623,1.2166874015839824e-05,5.416866706919876e-05,0.38758524140745343,-7.811134914970097e-05,-0.1611446541884356
398,0.3886,0.0185184,1109.48,0.0213285,0.033518,0.0754799,-0.0417429,-0.150068,0.328285,-0.176103,1.22482e-05,5.43195e-05,-7.81744e-05,0.338787,-0.13935054972742733,1.2248275009563159e-05,5.432097533075719e-05,0.3885846625296958,-7.817134446119756e-05,-0.16146838986691336
399,0.3896,0.0184753,1109.88,0.0212803,0.0335824,0.0753921,-0.0415758,-0.150401,0.329005,-0.176489,1.23298e-05,5.44715e-05,-7.8234e-05,0.33954,-0.13963709828138593,1.232987601240687e-05,5.4472983599174185e-05,0.3895848034942584,-7.823093980041662e-05,-0.16179200060753374
400,0.3906,0.018433,1110.27,0.021233,0.0336465,0.0753046,-0.0414089,-0.150734,0.329724,-0.176874,1.24114e-05,5.46232e-05,-7.82932e-05,0.340293,-0.1399235514305619,1.2411477021689876e-05,5.462469187422769e-05,0.3905842742346446,-7.829013516735817e-05,-0.16211464857358093
401,0.3916,0.0183903,1110.66,0.0211852,0.0337105,0.0752173,-0.0412426,-0.151067,0.330443,-0.17726,1.24931e-05,5.47746e-05,-7.83518e-05,0.341045,-0.1402099092067196,1.2493178039196806e-05,5.477610015569567e-05,0.3915844638528987,-7.834873057788183e-05,-0.16243800990647939
402,0.3926,0.0183482,1111.06,0.0211382,0.0337742,0.0751302,-0.0410766,-0.151399,0.331162,-0.177645,1.25748e-05,5.49256e-05,-7.84101e-05,0.341796,-0.140495312137355,1.257487906314303e-05,5.4927108438462824e-05,0.39258537286608,-7.840702600847571e-05,-0.16276040920681778
403,0.3936,0.0183058,1111.45,0.0210907,0.0338377,0.0750433,-0.0409112,-0.151732,0.33188,-0.178029,1.26566e-05,5.50763e-05,-7.84678e-05,0.342547,-0.14078147954889486,1.2656680095091133e-05,5.507781672720036e-05,0.3935856082053142,-7.846472148265171e-05,-0.1630818474895822
404,0.3946,0.0182639,1111.84,0.0210439,0.0339009,0.0749566,-0.040746,-0.152064,0.332597,-0.178414,1.27385e-05,5.52268e-05,-7.85252e-05,0.343298,-0.14106669274967354,1.2738581135041116e-05,5.5228325027689706e-05,0.3945851673855416,-7.8522116977231e-05,-0.16340399896016133
405,0.3956,0.0182218,1112.23,0.0209968,0.033964,0.0748701,-0.0405814,-0.152396,0.333314,-0.178798,1.28205e-05,5.53769e-05,-7.85821e-05,0.344048,-0.14135181127538643,1.2820582182992979e-05,5.537843332881209e-05,0.3955854435066939,-7.857901250762911e-05,-0.16372519015190512
406,0.3966,0.0181802,1112.62,0.0209502,0.0340268,0.0747839,-0.0404171,-0.152727,0.33403,-0.179182,1.29025e-05,5.55267e-05,-7.86385e-05,0.344797,-0.14163597679386652,1.290258323760618e-05,5.552824163568282e-05,0.3965850404972633,-7.863540807417913e-05,-0.1640462580299089
407,0.3976,0.0181384,1113.0,0.0209035,0.0340894,0.0746978,-0.0402533,-0.153059,0.334746,-0.179566,1.29846e-05,5.56762e-05,-7.86945e-05,0.345546,-0.14192090634864762,1.2984684300221261e-05,5.567774994830188e-05,0.39758535345556356,-7.869140366900673e-05,-0.16436720264151616
408,0.3986,0.018097,1113.39,0.0208571,0.0341518,0.0746119,-0.0400899,-0.15339,0.335461,-0.179949,1.30667e-05,5.58254e-05,-7.875e-05,0.346294,-0.14220488352783034,1.3066785369719724e-05,5.582695826666928e-05,0.39858498430872813,-7.874689930009726e-05,-0.16468718872165866
409,0.3996,0.0180555,1113.78,0.0208107,0.034214,0.0745262,-0.0399269,-0.153721,0.336176,-0.180332,1.31489e-05,5.59743e-05,-7.88051e-05,0.347042,-0.14248876672612143,1.3148986447220068e-05,5.597586659034093e-05,0.3995853301535315,-7.880199495968743e-05,-0.16500705227059853
410,0.4006,0.0180143,1114.16,0.0207646,0.0342759,0.0744408,-0.0397643,-0.154052,0.33689,-0.180715,1.32312e-05,5.61229e-05,-7.88598e-05,0.347789,-0.14277255597462346,1.3231287532722291e-05,5.6124474919316825e-05,0.40058499091568467,-7.88566906476662e-05,-0.16532679333525646
411,0.4016,0.0179731,1114.55,0.0207185,0.0343377,0.0743555,-0.0396022,-0.154382,0.337604,-0.181097,1.33135e-05,5.62711e-05,-7.8914e-05,0.348536,-0.1430553943602515,1.3313588625107897e-05,5.627268324803758e-05,0.4015853656904942,-7.891088637224097e-05,-0.16564557760852971
412,0.4026,0.0179321,1114.93,0.0206727,0.0343992,0.0742705,-0.0394404,-0.154712,0.338317,-0.18148,1.33959e-05,5.64191e-05,-7.89678e-05,0.349282,-0.14333813942461104,1.3395989725495383e-05,5.642069158739993e-05,0.4025850524021932,-7.896468212531538e-05,-0.16596507416480955
413,0.4036,0.0178912,1115.31,0.0206269,0.0344605,0.0741856,-0.0392791,-0.155042,0.33903,-0.181862,1.34783e-05,5.65668e-05,-7.90212e-05,0.350027,-0.14362079119849314,1.3478390832766252e-05,5.656839993162244e-05,0.40358545214468333,-7.901807790722248e-05,-0.1662836146613702
414,0.4046,0.0178505,1115.69,0.0205813,0.0345216,0.0741009,-0.0391181,-0.155372,0.339742,-0.182243,1.35608e-05,5.67142e-05,-7.90741e-05,0.350772,-0.1439033497126786,1.3560891948039e-05,5.6715808280705104e-05,0.404585160840673,-7.907097372572558e-05,-0.16660120010031632
415,0.4056,0.0178099,1116.07,0.0205358,0.0345825,0.0740165,-0.0389576,-0.155702,0.340454,-0.182625,1.36434e-05,5.68612e-05,-7.91266e-05,0.351517,-0.14418581499793803,1.3643493071535673e-05,5.686281662864445e-05,0.40558558158271274,-7.91234695731724e-05,-0.1669194976431767
416,0.4066,0.0177694,1116.45,0.0204905,0.0346431,0.0739322,-0.0387975,-0.156031,0.341165,-0.183006,1.3726e-05,5.7008e-05,-7.91787e-05,0.352261,-0.14446733155279112,1.3726094201915728e-05,5.700962498700335e-05,0.40658530829194794,-7.917556544945192e-05,-0.16723684085685364
417,0.4076,0.017729,1116.83,0.0204453,0.0347036,0.0738482,-0.0386378,-0.15636,0.341875,-0.183387,1.38087e-05,5.71545e-05,-7.92303e-05,0.353004,-0.14474875550393174,1.3808795340519708e-05,5.715613334955627e-05,0.4075843384745823,-7.92271613626605e-05,-0.16755406318579613
418,0.4086,0.0176888,1117.2,0.0204003,0.0347639,0.0737643,-0.0384785,-0.156689,0.342586,-0.183767,1.38915e-05,5.73006e-05,-7.92815e-05,0.353747,-0.14503008688182173,1.3891596487347613e-05,5.730224171074383e-05,0.4085854868052943,-7.927835730492383e-05,-0.16787033254680128
419,0.4096,0.0176487,1117.58,0.0203553,0.0348239,0.0736806,-0.0383196,-0.157018,0.343295,-0.184148,1.39743e-05,5.74465e-05,-7.93323e-05,0.35449,-0.1453113257169124,1.39743976410589e-05,5.74481500816848e-05,0.4095845280337047,-7.932915327635293e-05,-0.16818731356138317
420,0.4106,0.0176087,1117.96,0.0203106,0.0348838,0.0735971,-0.0381611,-0.157346,0.344004,-0.184528,1.40571e-05,5.75921e-05,-7.93826e-05,0.355232,-0.14559161763169037,1.4057198801431525e-05,5.75937584568198e-05,0.41058427783350515,-7.93794492848221e-05,-0.16850334233296038
421,0.4116,0.0175688,1118.33,0.0202659,0.0349434,0.0735139,-0.038003,-0.157674,0.344713,-0.184907,1.41401e-05,5.77374e-05,-7.94326e-05,0.355973,-0.14587181762579604,1.4140199971590661e-05,5.773906683570473e-05,0.4115847367072505,-7.942944531458274e-05,-0.16881841985525414
422,0.4126,0.0175291,1118.7,0.0202214,0.0350028,0.0734308,-0.0378453,-0.158002,0.345421,-0.185287,1.4223e-05,5.78824e-05,-7.94821e-05,0.356714,-0.14615192572937452,1.4223101147292638e-05,5.7884075218339603e-05,0.41258449257265384,-7.94789413816055e-05,-0.1691342088519998
423,0.4136,0.0174895,1119.08,0.020177,0.0350621,0.0733479,-0.037688,-0.15833,0.346129,-0.185666,1.43061e-05,5.80271e-05,-7.95312e-05,0.357455,-0.14643194197256093,1.4306202332781126e-05,5.802878360472441e-05,0.4135849565158398,-7.952803747790504e-05,-0.16944904732118637
424,0.4146,0.01745,1119.45,0.0201328,0.0351211,0.0732652,-0.0375311,-0.158658,0.346836,-0.186045,1.43891e-05,5.81715e-05,-7.95799e-05,0.358194,-0.14671186638548062,1.438920352359041e-05,5.817319199441506e-05,0.41458471445288314,-7.957673360370343e-05,-0.1697637664892021
425,0.4156,0.0174106,1119.82,0.0200887,0.0351799,0.0731827,-0.0373746,-0.158985,0.347543,-0.186424,1.44723e-05,5.83156e-05,-7.96281e-05,0.358934,-0.1469908459895214,1.4472404724186205e-05,5.831730038763361e-05,0.4155851794687109,-7.962492976698599e-05,-0.1700783664012535
426,0.4166,0.0173714,1120.19,0.0200447,0.0352386,0.0731003,-0.0372185,-0.159312,0.348249,-0.186802,1.45555e-05,5.84594e-05,-7.9676e-05,0.359672,-0.14726973438214552,1.4555605931887428e-05,5.8461108783935956e-05,0.4165849354777609,-7.967282595178204e-05,-0.17039201749496247
427,0.4176,0.0173323,1120.56,0.0200008,0.035297,0.0730182,-0.0370628,-0.159639,0.348955,-0.18718,1.46387e-05,5.8603e-05,-7.97234e-05,0.360411,-0.14754853159317427,1.4638807146249988e-05,5.8604717189325584e-05,0.4175853975637691,-7.97202221741733e-05,-0.1707055500509631
428,0.4186,0.0172933,1120.93,0.0199571,0.0353552,0.0729363,-0.0369075,-0.159965,0.34966,-0.187558,1.4722e-05,5.87462e-05,-7.97705e-05,0.361149,-0.14782638547923066,1.4722108369280562e-05,5.8747925591795536e-05,0.4185851476395448,-7.976731841830009e-05,-0.17101896411405415
429,0.4196,0.0172544,1121.29,0.0199136,0.0354133,0.0728545,-0.0367526,-0.160292,0.350365,-0.187936,1.48054e-05,5.88892e-05,-7.98171e-05,0.361886,-0.14810500069510846,1.480550960053506e-05,5.889093400290868e-05,0.4195856027876328,-7.981391470002208e-05,-0.17133225972901733
430,0.4206,0.0172157,1121.66,0.0198701,0.0354711,0.0727729,-0.0365981,-0.160618,0.351069,-0.188313,1.48888e-05,5.90319e-05,-7.98633e-05,0.362623,-0.1483826732018042,1.4888910838672942e-05,5.903364241688358e-05,0.420585342919231,-7.986011101157597e-05,-0.17164460858564057
431,0.4216,0.017177,1122.02,0.0198268,0.0355288,0.0726916,-0.036444,-0.160944,0.351772,-0.18869,1.49722e-05,5.91743e-05,-7.99091e-05,0.363359,-0.14866025520201598,1.497231208391625e-05,5.9176050833498195e-05,0.4215843655306073,-7.990590735296177e-05,-0.17195683970893894
432,0.4226,0.0171385,1122.39,0.0197836,0.0355862,0.0726104,-0.0362903,-0.16127,0.352476,-0.189067,1.50557e-05,5.93164e-05,-7.99545e-05,0.364094,-0.1489377467252443,1.5055813337605528e-05,5.931815925253048e-05,0.4225855132866023,-7.995130372417947e-05,-0.1722689531432896
433,0.4236,0.0171001,1122.75,0.0197406,0.0356435,0.0725294,-0.036137,-0.161595,0.353178,-0.189443,1.51393e-05,5.94582e-05,-7.99995e-05,0.36483,-0.1492142970157021,1.5139414599740775e-05,5.9459967673758385e-05,0.423584518926883,-7.999630012534009e-05,-0.17258012151358815
434,0.4246,0.0170618,1123.12,0.0196976,0.0357005,0.0724485,-0.035984,-0.161921,0.35388,-0.189819,1.52229e-05,5.95997e-05,-8.00441e-05,0.365564,-0.14949160795073668,1.5223015868981449e-05,5.960147609740396e-05,0.42458422611533786,-8.004089655655466e-05,-0.17289117290657252
435,0.4256,0.0170237,1123.48,0.0196548,0.0357574,0.0723679,-0.0358315,-0.162246,0.354582,-0.190195,1.53066e-05,5.9741e-05,-8.00883e-05,0.366298,-0.1497679782655439,1.5306717146668092e-05,5.9742784529026594e-05,0.4255846353446264,-8.008509301771216e-05,-0.173202107366218
436,0.4266,0.0169856,1123.84,0.0196122,0.0358141,0.0722874,-0.0356793,-0.16257,0.355283,-0.190571,1.53903e-05,5.9882e-05,-8.01321e-05,0.367032,-0.15004340881842682,1.5390418431238118e-05,5.988379296284485e-05,0.4265843205227209,-8.012888950903463e-05,-0.1735129249364833
437,0.4276,0.0169477,1124.2,0.0195696,0.0358706,0.0722072,-0.0355275,-0.162895,0.355984,-0.190947,1.5474e-05,6.00226e-05,-8.01755e-05,0.367765,-0.15031959982709087,1.547411972291357e-05,6.002440139218912e-05,0.4275847067258056,-8.017228603052207e-05,-0.17382362566131038
438,0.4286,0.0169099,1124.56,0.0195272,0.0359269,0.0721271,-0.0353761,-0.16322,0.356684,-0.191322,1.55578e-05,6.01631e-05,-8.02185e-05,0.368498,-0.1505957010882618,1.5557921023257038e-05,6.0164909835513924e-05,0.42858436586039117,-8.021528258217447e-05,-0.17413338371842169
439,0.4296,0.0168722,1124.92,0.0194849,0.035983,0.0720472,-0.0352251,-0.163544,0.357384,-0.191697,1.56417e-05,6.03032e-05,-8.02611e-05,0.36923,-0.15087086350239098,1.5641822332046473e-05,6.0305018274586786e-05,0.4295847250013449,-8.025787916410287e-05,-0.17444302563803882
440,0.4306,0.0168346,1125.27,0.0194428,0.036039,0.0719674,-0.0350745,-0.163868,0.358083,-0.192071,1.57256e-05,6.04431e-05,-8.03033e-05,0.369962,-0.1511459367783392,1.5725723647941336e-05,6.044492672097057e-05,0.43058435405377304,-8.030007577630727e-05,-0.17475172621584378
441,0.4316,0.0167971,1125.63,0.0194007,0.0360947,0.0718879,-0.0349243,-0.164191,0.358782,-0.192446,1.58095e-05,6.05826e-05,-8.03452e-05,0.370693,-0.15142007236547916,1.5809624970719582e-05,6.058443516288037e-05,0.4315846820911755,-8.034197241091334e-05,-0.17506113630049613
442,0.4326,0.0167598,1125.99,0.0193588,0.0361503,0.0718085,-0.0347744,-0.164515,0.35948,-0.19282,1.58935e-05,6.0722e-05,-8.03866e-05,0.371423,-0.15169496772657942,1.5893626302387887e-05,6.072384361788252e-05,0.4325842770173205,-8.038336908389176e-05,-0.1753696057481373
443,0.4336,0.0167226,1126.34,0.019317,0.0362056,0.0717293,-0.0346249,-0.164838,0.360178,-0.193193,1.59776e-05,6.0861e-05,-8.04277e-05,0.372153,-0.15196892600535994,1.597772764250216e-05,6.0862852068188644e-05,0.43358456990428396,-8.042446577927187e-05,-0.175677135527324
444,0.4346,0.0166854,1126.7,0.0192754,0.0362608,0.0716503,-0.0344758,-0.165161,0.360876,-0.193567,1.60617e-05,6.09998e-05,-8.04683e-05,0.372883,-0.15224279580990574,1.606182898972186e-05,6.1001660525583645e-05,0.4345855612394125,-8.046506251313534e-05,-0.17598537463433073
445,0.4356,0.0166484,1127.05,0.0192338,0.0363158,0.0715715,-0.0343271,-0.165484,0.361572,-0.19394,1.61458e-05,6.11382e-05,-8.05086e-05,0.373612,-0.1525165771687893,1.6145930344046988e-05,6.114006897783852e-05,0.43558438033876135,-8.050535926962255e-05,-0.17629267477455313
446,0.4366,0.0166115,1127.4,0.0191924,0.0363707,0.0714928,-0.0341788,-0.165807,0.362269,-0.194313,1.623e-05,6.12764e-05,-8.05485e-05,0.374341,-0.15279027011057422,1.6230131707262174e-05,6.127827743696024e-05,0.43658533144279454,-8.05452560567188e-05,-0.17659986031319774
447,0.4376,0.0165748,1127.75,0.0191511,0.0364253,0.0714143,-0.0340308,-0.166129,0.362965,-0.194686,1.63142e-05,6.14144e-05,-8.0588e-05,0.375069,-0.15306302772726565,1.6314333077360743e-05,6.141628590294879e-05,0.4375855428666777,-8.05847528743131e-05,-0.17690693129300306
448,0.4386,0.0165381,1128.11,0.0191099,0.0364798,0.071336,-0.0338833,-0.166452,0.36366,-0.195059,1.63984e-05,6.15521e-05,-8.06272e-05,0.375796,-0.15333654419402232,1.639853445456474e-05,6.15539943693566e-05,0.438585012094296,-8.062394971464215e-05,-0.17721388775669134
449,0.4396,0.0165015,1128.46,0.0190689,0.036534,0.0712579,-0.0337361,-0.166774,0.364355,-0.195431,1.64827e-05,6.16895e-05,-8.06659e-05,0.376523,-0.15360912593877585,1.648283584043675e-05,6.169140283640573e-05,0.4395851761944676,-8.066264659378763e-05,-0.17751990726728784
450,0.4406,0.0164651,1128.81,0.019028,0.0365882,0.0711799,-0.0335892,-0.167095,0.365049,-0.195803,1.65671e-05,6.18266e-05,-8.07043e-05,0.37725,-0.15388077380753395,1.6567237235198817e-05,6.182851130365208e-05,0.4405845950649818,-8.070104349555685e-05,-0.17782581295979794
451,0.4416,0.0164288,1129.15,0.0189872,0.0366421,0.0711021,-0.0334428,-0.167417,0.365743,-0.196174,1.66515e-05,6.19635e-05,-8.07423e-05,0.377976,-0.15415318033856273,1.6651638637066313e-05,6.196541977732117e-05,0.4415847077729256,-8.073904042826818e-05,-0.17813078300774787
452,0.4426,0.0163925,1129.5,0.0189465,0.0366958,0.0710245,-0.0332967,-0.167738,0.366437,-0.196546,1.67359e-05,6.21001e-05,-8.07799e-05,0.378702,-0.15442465359388546,1.6736040046039236e-05,6.210202825118749e-05,0.44258551479998975,-8.07766373916996e-05,-0.17843646149674497
453,0.4436,0.0163564,1129.85,0.0189059,0.0367494,0.0709471,-0.033151,-0.168059,0.36713,-0.196917,1.68204e-05,6.22364e-05,-8.08172e-05,0.379427,-0.15469603972027823,1.6820541463680172e-05,6.223833672502899e-05,0.4435855730419038,-8.081393437808781e-05,-0.1787412050361077
454,0.4446,0.0163204,1130.2,0.0188655,0.0368028,0.0708698,-0.0330057,-0.16838,0.367822,-0.197288,1.69049e-05,6.23725e-05,-8.08541e-05,0.380151,-0.1549673387457049,1.690504288864858e-05,6.237444520484914e-05,0.4445848799787713,-8.085083139530713e-05,-0.17904583553658737
455,0.4456,0.0162845,1130.54,0.0188251,0.0368561,0.0707927,-0.0328607,-0.168701,0.368514,-0.197659,1.69895e-05,6.25083e-05,-8.08906e-05,0.380875,-0.15523855069812031,1.6989644322285002e-05,6.251025368442242e-05,0.44558487867536045,-8.08873284435796e-05,-0.1793503530401136
456,0.4466,0.0162487,1130.89,0.0187849,0.0369091,0.0707158,-0.0327161,-0.169021,0.369206,-0.198029,1.70741e-05,6.26438e-05,-8.09267e-05,0.381599,-0.1555088311147239,1.7074245763248896e-05,6.264576216374884e-05,0.4465855696105343,-8.092342552290521e-05,-0.17965393724294776
457,0.4476,0.016213,1131.23,0.0187448,0.036962,0.070639,-0.0325719,-0.169342,0.369897,-0.198399,1.71587e-05,6.27791e-05,-8.09625e-05,0.382322,-0.15577986927598386,1.7158847211318218e-05,6.278107064883187e-05,0.44758550567725863,-8.095922262529864e-05,-0.1799574091404047
458,0.4486,0.0161775,1131.57,0.0187049,0.0370147,0.0705624,-0.0324281,-0.169662,0.370587,-0.198769,1.72434e-05,6.29141e-05,-8.09979e-05,0.383044,-0.15604997649835506,1.7243548668277597e-05,6.291607913344599e-05,0.4485846843531769,-8.09946197586342e-05,-0.18026076877402974
459,0.4496,0.016142,1131.92,0.018665,0.0370672,0.070486,-0.0322846,-0.169982,0.371277,-0.199139,1.73281e-05,6.30488e-05,-8.10329e-05,0.383767,-0.15631999730024304,1.7328250132342404e-05,6.305078761736915e-05,0.44958455270029063,-8.102961692324495e-05,-0.18056401618535278
460,0.4506,0.0161067,1132.26,0.0186253,0.0371196,0.0704098,-0.0321415,-0.170301,0.371967,-0.199508,1.74128e-05,6.31833e-05,-8.10676e-05,0.384488,-0.15658908829880813,1.7412951603734683e-05,6.318529610682688e-05,0.45058511119463707,-8.106431411092352e-05,-0.18086633228263005
461,0.4516,0.0160714,1132.6,0.0185856,0.0371718,0.0703337,-0.0319987,-0.170621,0.372656,-0.199877,1.74976e-05,6.33175e-05,-8.11019e-05,0.385209,-0.1568589366125196,1.7497753083794976e-05,6.331950459514957e-05,0.4515849087269479,-8.109861132976626e-05,-0.18116853684584688
462,0.4526,0.0160363,1132.94,0.0185461,0.0372238,0.0702578,-0.0318563,-0.17094,0.373345,-0.200246,1.75825e-05,6.34515e-05,-8.11359e-05,0.38593,-0.1571278557168626,1.758265457296737e-05,6.345351308900682e-05,0.4525853953571257,-8.113260857189886e-05,-0.18147062991615148
463,0.4536,0.0160012,1133.28,0.0185067,0.0372757,0.070182,-0.0317143,-0.171259,0.374033,-0.200614,1.76673e-05,6.35852e-05,-8.11695e-05,0.38665,-0.15739668904969262,1.7667456067682608e-05,6.358722158172903e-05,0.45358511797427736,-8.116620584530665e-05,-0.18177179330687965
464,0.4546,0.0159663,1133.62,0.0184675,0.0373274,0.0701064,-0.0315727,-0.171577,0.374721,-0.200983,1.77522e-05,6.37187e-05,-8.12027e-05,0.38737,-0.15766459430338187,1.7752357571287902e-05,6.372073007954171e-05,0.4545855286372502,-8.119940314998964e-05,-0.18207366381661516
465,0.4556,0.0159314,1133.95,0.0184283,0.0373789,0.070031,-0.0314314,-0.171896,0.375408,-0.201351,1.78372e-05,6.38519e-05,-8.12356e-05,0.388089,-0.15793325644390932,1.7837359083783255e-05,6.38539385759973e-05,0.45558517223368256,-8.123230047796248e-05,-0.1823746053316957
466,0.4566,0.0158967,1134.29,0.0183892,0.0374303,0.0699557,-0.0312905,-0.172214,0.376095,-0.201719,1.79222e-05,6.39848e-05,-8.12681e-05,0.388807,-0.15820099109629426,1.792236060360608e-05,6.398684707087376e-05,0.45658550282122023,-8.126479783743257e-05,-0.1826754361206735
467,0.4576,0.0158621,1134.63,0.0183503,0.0374815,0.0698806,-0.0311499,-0.172532,0.376781,-0.202086,1.80072e-05,6.41175e-05,-8.13003e-05,0.389525,-0.15846864062259547,1.8007362130534332e-05,6.41195555708407e-05,0.45758506328619575,-8.129699522019251e-05,-0.18297533920003595
468,0.4586,0.0158276,1134.96,0.0183115,0.0375325,0.0698057,-0.0310097,-0.17285,0.377467,-0.202453,1.80922e-05,6.42499e-05,-8.13321e-05,0.390243,-0.15873620504987873,1.8092363664790057e-05,6.425196406900646e-05,0.45858530968489886,-8.13287926344497e-05,-0.18327513223516267
469,0.4596,0.0157932,1135.3,0.0182728,0.0375834,0.0697309,-0.0308699,-0.173168,0.378152,-0.20282,1.81773e-05,6.43821e-05,-8.13636e-05,0.39096,-0.1590036844052014,1.8177465208157884e-05,6.438417257181861e-05,0.4595847829025286,-8.136029007210777e-05,-0.1835748152664325
470,0.4606,0.0157588,1135.63,0.0182342,0.0376341,0.0696563,-0.0307304,-0.173486,0.378837,-0.203187,1.82624e-05,6.4514e-05,-8.13947e-05,0.391677,-0.15927107871561186,1.8262566758631138e-05,6.451608107282958e-05,0.46058494099385494,-8.139138754126307e-05,-0.18387438833420933
471,0.4616,0.0157246,1135.96,0.0181957,0.0376847,0.0695819,-0.0305913,-0.173803,0.379521,-0.203554,1.83476e-05,6.46457e-05,-8.14255e-05,0.392393,-0.15953754754611793,1.8347768318216495e-05,6.464778957826489e-05,0.46158432284312334,-8.142218503393028e-05,-0.18417385147884247
472,0.4626,0.0156905,1136.3,0.0181573,0.0377351,0.0695076,-0.0304525,-0.17412,0.380205,-0.20392,1.84328e-05,6.47771e-05,-8.14559e-05,0.393109,-0.1598039319193919,1.8432969885129324e-05,6.477919808167698e-05,0.4625843885034133,-8.145258255820575e-05,-0.1844723892134632
473,0.4636,0.0156565,1136.63,0.018119,0.0377853,0.0694335,-0.0303141,-0.174437,0.380889,-0.204286,1.8518e-05,6.49083e-05,-8.1486e-05,0.393824,-0.16007023186220248,1.851817145914758e-05,6.491040658929137e-05,0.4635851384426115,-8.148268010610416e-05,-0.1847708177032661
474,0.4646,0.0156226,1136.96,0.0180809,0.0378354,0.0693595,-0.0301761,-0.174753,0.381572,-0.204652,1.86033e-05,6.50392e-05,-8.15157e-05,0.394539,-0.16033560773733746,1.8603473042499985e-05,6.504131509466049e-05,0.4645851085430843,-8.151237768561082e-05,-0.18506913698822736
475,0.4656,0.0155888,1137.29,0.0180428,0.0378853,0.0692857,-0.0300384,-0.17507,0.382254,-0.205017,1.86885e-05,6.51699e-05,-8.15451e-05,0.395253,-0.1606017391656248,1.8688674631173186e-05,6.517202360400987e-05,0.46558429627139697,-8.15417752887404e-05,-0.1853665324752486
476,0.4666,0.0155551,1137.62,0.0180049,0.0379351,0.0692121,-0.029901,-0.175386,0.382937,-0.205382,1.87739e-05,6.53003e-05,-8.15741e-05,0.395967,-0.16086694711098615,1.877407623074312e-05,6.530243211089193e-05,0.4665856322630657,-8.157077292358927e-05,-0.18566381943272492
477,0.4676,0.0155215,1137.95,0.0179671,0.0379847,0.0691386,-0.029764,-0.175702,0.383618,-0.205747,1.88592e-05,6.54304e-05,-8.16028e-05,0.39668,-0.16113207126387674,1.8859377835855895e-05,6.543254061530668e-05,0.4675847172284562,-8.159947058206107e-05,-0.18596099790026233
478,0.4686,0.015488,1138.28,0.0179294,0.0380341,0.0690652,-0.0296274,-0.176018,0.384299,-0.206112,1.89446e-05,6.55604e-05,-8.16312e-05,0.397393,-0.16139711165077075,1.8944779450080773e-05,6.55625491299272e-05,0.4685844828024288,-8.162786826426682e-05,-0.18625806791745247
479,0.4696,0.0154546,1138.61,0.0178918,0.0380834,0.0689921,-0.0294911,-0.176333,0.38498,-0.206477,1.903e-05,6.569e-05,-8.16592e-05,0.398105,-0.16166122995978316,1.9030181071633123e-05,6.569215763518876e-05,0.4695849294486363,-8.165586597830288e-05,-0.18655502952387248
480,0.4706,0.0154213,1138.93,0.0178543,0.0381325,0.068919,-0.0293552,-0.176649,0.38566,-0.206841,1.91155e-05,6.58195e-05,-8.16869e-05,0.398817,-0.1619261031589463,1.9115682702297576e-05,6.582166615087814e-05,0.47058458704572437,-8.168356371607288e-05,-0.18685106961056142
481,0.4716,0.0153881,1139.26,0.0178169,0.0381815,0.0688462,-0.0292196,-0.176964,0.38634,-0.207205,1.9201e-05,6.59487e-05,-8.17143e-05,0.399528,-0.16219005486187554,1.92011843402895e-05,6.595087466321203e-05,0.47158492464115165,-8.171096147757684e-05,-0.1871470019582684
482,0.4726,0.0153549,1139.58,0.0177796,0.0382303,0.0687735,-0.0290844,-0.177279,0.387019,-0.207569,1.92865e-05,6.60776e-05,-8.17413e-05,0.400239,-0.16245392343311216,1.9286685985830943e-05,6.607978317263452e-05,0.4725844701122677,-8.17379592709111e-05,-0.18744282660620337
483,0.4736,0.0153219,1139.91,0.0177424,0.038279,0.0687009,-0.0289496,-0.177594,0.387698,-0.207932,1.9372e-05,6.62063e-05,-8.1768e-05,0.400949,-0.16271770889883874,1.937218763847781e-05,6.620849168537113e-05,0.47358469450522667,-8.176465708820135e-05,-0.18773773133169935
484,0.4746,0.015289,1140.23,0.0177053,0.0383275,0.0686285,-0.028815,-0.177908,0.388377,-0.208295,1.94576e-05,6.63348e-05,-8.17943e-05,0.401659,-0.16298057426622203,1.9457789300236783e-05,6.633700020142186e-05,0.47458559828117286,-8.179095493743294e-05,-0.18803252902620726
485,0.4756,0.0152562,1140.56,0.0176684,0.0383759,0.0685563,-0.0286809,-0.178223,0.389054,-0.208658,1.95432e-05,6.6463e-05,-8.18203e-05,0.402369,-0.16324419386306188,1.954339096954527e-05,6.64652087141171e-05,0.4755842307301512,-8.181695281050949e-05,-0.18832721972857236
486,0.4766,0.0152235,1140.88,0.0176315,0.0384241,0.0684842,-0.0285471,-0.178537,0.389732,-0.209021,1.96288e-05,6.65909e-05,-8.1846e-05,0.403077,-0.1635068939401183,1.962899264618123e-05,6.65931172232348e-05,0.4765850160664782,-8.184265070754204e-05,-0.1886218034776257
487,0.4776,0.0151908,1141.2,0.0175948,0.0384722,0.0684122,-0.0284136,-0.178851,0.390409,-0.209384,1.97145e-05,6.67187e-05,-8.18714e-05,0.403786,-0.1637695115422998,1.9714694331929294e-05,6.672092574189215e-05,0.47758500257959646,-8.186804862841957e-05,-0.18891628031218421
488,0.4786,0.0151583,1141.52,0.0175581,0.0385201,0.0683405,-0.0282805,-0.179164,0.391086,-0.209746,1.98002e-05,6.68462e-05,-8.18964e-05,0.404494,-0.16403121072712812,1.9800396025226874e-05,6.684843425697196e-05,0.478585666312797,-8.189304658134944e-05,-0.18920983948129588
489,0.4796,0.0151259,1141.84,0.0175216,0.0385679,0.0682688,-0.0281477,-0.179478,0.391762,-0.210108,1.98859e-05,6.69734e-05,-8.19211e-05,0.405201,-0.16429366371968357,1.9886097725851926e-05,6.697564276825219e-05,0.47958552813844557,-8.191774455834633e-05,-0.18950329240122055
490,0.4806,0.0150935,1142.16,0.0174851,0.0386155,0.0681973,-0.0280152,-0.179791,0.392437,-0.210469,1.99716e-05,6.71004e-05,-8.19455e-05,0.405908,-0.16455519887055303,1.997179943380445e-05,6.71026512821804e-05,0.4805845855138702,-8.194214255918819e-05,-0.18979582890664748
491,0.4816,0.0150613,1142.48,0.0174488,0.038663,0.068126,-0.0278831,-0.180104,0.393112,-0.210831,2.00574e-05,6.72272e-05,-8.19696e-05,0.406615,-0.16481665217372998,2.005760115109112e-05,6.722945979875661e-05,0.4815843174806722,-8.196624058409707e-05,-0.19008906973679074
492,0.4826,0.0150291,1142.8,0.0174126,0.0387104,0.0680548,-0.0277514,-0.180417,0.393787,-0.211192,2.01432e-05,6.73538e-05,-8.19933e-05,0.407321,-0.16507802365482904,2.0143402875705263e-05,6.735606831820284e-05,0.48258472449435463,-8.198993864128035e-05,-0.19038139481476446
493,0.4836,0.0149971,1143.12,0.0173764,0.0387576,0.0679838,-0.02762,-0.18073,0.394461,-0.211553,2.0229e-05,6.748e-05,-8.20168e-05,0.408027,-0.16533931333945617,2.0229204607646878e-05,6.748227682651375e-05,0.4835843234256625,-8.201343671421224e-05,-0.1906736143824309
494,0.4846,0.0149651,1143.44,0.0173404,0.0388046,0.0679129,-0.0274889,-0.181042,0.395135,-0.211914,2.03149e-05,6.76061e-05,-8.20399e-05,0.408732,-0.16559968685331394,2.031510634892264e-05,6.760838534392022e-05,0.48458459631374806,-8.203653481941853e-05,-0.1909657284778722
495,0.4856,0.0149332,1143.75,0.0173045,0.0388515,0.0678422,-0.0273582,-0.181355,0.395809,-0.212274,2.04007e-05,6.77319e-05,-8.20627e-05,0.409436,-0.1658608132829108,2.0400908095741244e-05,6.773419385686097e-05,0.4855855436130112,-8.205933294869183e-05,-0.1912569283964899
496,0.4866,0.0149014,1144.07,0.0172687,0.0388983,0.0677716,-0.0272278,-0.181667,0.396481,-0.212635,2.04866e-05,6.78575e-05,-8.20851e-05,0.410141,-0.16612102411416607,2.0486809851893995e-05,6.785980237222766e-05,0.48658419260679975,-8.208173111035055e-05,-0.19154883195357664
497,0.4876,0.0148697,1144.38,0.0172329,0.0389449,0.0677011,-0.0270978,-0.181979,0.397154,-0.212995,2.05726e-05,6.79829e-05,-8.21073e-05,0.410844,-0.16638115377230556,2.0572811617380893e-05,6.798521088979825e-05,0.48758500050250664,-8.210392928786892e-05,-0.19183982199272354
498,0.4886,0.0148382,1144.7,0.0171973,0.0389914,0.0676308,-0.0269681,-0.18229,0.397826,-0.213354,2.06585e-05,6.8108e-05,-8.21291e-05,0.411548,-0.16664036892343714,2.0658713388188588e-05,6.811031940245904e-05,0.48858499358288743,-8.21257274977727e-05,-0.19212989942461367
499,0.4896,0.0148066,1145.01,0.0171618,0.0390377,0.0675607,-0.0268388,-0.182602,0.398498,-0.213714,2.07445e-05,6.82329e-05,-8.21506e-05,0.41225,-0.166900336571271,2.0744715168552474e-05,6.823522791732373e-05,0.4895856588844596,-8.214722573185451e-05,-0.19242068031711979
500,0.4906,0.0147752,1145.32,0.0171264,0.0390839,0.0674907,-0.0267098,-0.182913,0.399169,-0.214073,2.08305e-05,6.83576e-05,-8.21718e-05,0.412953,-0.16715939028165738,2.0830716956465878e-05,6.835993643394822e-05,0.49058550627285546,-8.216842399011437e-05,-0.19271054925829778
501,0.4916,0.0147439,1145.64,0.0170911,0.03913,0.0674208,-0.0265811,-0.183224,0.399839,-0.214432,2.09165e-05,6.8482e-05,-8.21927e-05,0.413655,-0.1674183634388665,2.091671875148471e-05,6.848434494566291e-05,0.49158453319870654,-8.218932227255227e-05,-0.1930003141552029
502,0.4926,0.0147127,1145.95,0.0170558,0.0391759,0.0673511,-0.0264527,-0.183535,0.400509,-0.214791,2.10026e-05,6.86062e-05,-8.22133e-05,0.414356,-0.1676772560679466,2.100282055605973e-05,6.860855345913741e-05,0.4925842296968794,-8.220992057927923e-05,-0.19328997504518053
503,0.4936,0.0146815,1146.26,0.0170207,0.0392217,0.0672815,-0.0263247,-0.183845,0.401179,-0.215149,2.10887e-05,6.87302e-05,-8.22336e-05,0.415057,-0.16793523612958994,2.108892236818427e-05,6.873256197437172e-05,0.49358459621613826,-8.223021891018423e-05,-0.1935787255446909
504,0.4946,0.0146505,1146.57,0.0169857,0.0392673,0.0672121,-0.0261971,-0.184156,0.401849,-0.215508,2.11748e-05,6.8854e-05,-8.22536e-05,0.415757,-0.16819396803625675,2.1175024187636282e-05,6.885637049114379e-05,0.4945856332055474,-8.225021726537829e-05,-0.19386817882224827
505,0.4956,0.0146195,1146.88,0.0169508,0.0393128,0.0671428,-0.0260697,-0.184466,0.402517,-0.215866,2.12609e-05,6.89775e-05,-8.22732e-05,0.416457,-0.16845178794201543,2.126112601463781e-05,6.897987900256197e-05,0.49558434994278144,-8.226981565306879e-05,-0.19415672236185466
506,0.4966,0.0145887,1147.19,0.0169159,0.0393582,0.0670737,-0.0259428,-0.184776,0.403186,-0.216223,2.1347e-05,6.91008e-05,-8.22926e-05,0.417157,-0.16870952793599026,2.1347227848744765e-05,6.910318751529587e-05,0.4965852306301535,-8.228921405684098e-05,-0.19444435706612184
507,0.4976,0.0145579,1147.5,0.0168812,0.0394034,0.0670047,-0.0258161,-0.185086,0.403854,-0.216581,2.14332e-05,6.92238e-05,-8.23117e-05,0.417856,-0.16896718804295008,2.1433429692629957e-05,6.922619602245383e-05,0.49758528354470055,-8.230831248501325e-05,-0.19473269437083507
508,0.4986,0.0145272,1147.81,0.0168466,0.0394485,0.0669359,-0.0256898,-0.185396,0.404521,-0.216938,2.15194e-05,6.93467e-05,-8.23304e-05,0.418554,-0.1692247682876561,2.151963154384262e-05,6.934910453804122e-05,0.4985845061325127,-8.232701094557093e-05,-0.19502012348979425
509,0.4996,0.0144966,1148.11,0.0168121,0.0394935,0.0668672,-0.0255638,-0.185705,0.405188,-0.217295,2.16056e-05,6.94693e-05,-8.23489e-05,0.419252,-0.16948143817671502,2.16058334026048e-05,6.947171304760857e-05,0.4995843954241117,-8.234550942243235e-05,-0.19530745001487204
510,0.5006,0.0144661,1148.42,0.0167776,0.0395383,0.0667986,-0.0254381,-0.186014,0.405855,-0.217652,2.16918e-05,6.95917e-05,-8.2367e-05,0.41995,-0.1697380287670306,2.1692035268694454e-05,6.959412155849165e-05,0.5005849518643377,-8.23636079317902e-05,-0.19559467398268793
511,0.5016,0.0144356,1148.73,0.0167433,0.039583,0.0667301,-0.0253128,-0.186323,0.406521,-0.218009,2.17781e-05,6.97138e-05,-8.23849e-05,0.420647,-0.16999454008310222,2.1778337144562343e-05,6.97162300633547e-05,0.501584674312902,-8.238150645734077e-05,-0.1958817954298484
512,0.5026,0.0144053,1149.03,0.016709,0.0396276,0.0666619,-0.0251878,-0.186632,0.407187,-0.218365,2.18644e-05,6.98358e-05,-8.24024e-05,0.421344,-0.17025097214942198,2.1864639027757704e-05,6.983823857620308e-05,0.5025850627983828,-8.23990050154988e-05,-0.19616801056135913
513,0.5036,0.014375,1149.34,0.0166749,0.039672,0.0665937,-0.0250631,-0.186941,0.407852,-0.218721,2.19507e-05,6.99575e-05,-8.24197e-05,0.42204,-0.17050732499047416,2.1950940918280537e-05,6.995994708303144e-05,0.5035846141791422,-8.241630358984953e-05,-0.19645412381841776
514,0.5046,0.0143449,1149.64,0.0166408,0.0397163,0.0665257,-0.0249388,-0.187249,0.408517,-0.219077,2.2037e-05,7.0079e-05,-8.24366e-05,0.422736,-0.17076276939391954,2.203724281657493e-05,7.008145559050938e-05,0.5045848304826321,-8.243320219680772e-05,-0.19674013523728517
515,0.5056,0.0143148,1149.95,0.0166069,0.0397605,0.0664578,-0.0248148,-0.187557,0.409181,-0.219433,2.21233e-05,7.02003e-05,-8.24533e-05,0.423431,-0.17101813513260378,2.2123544721974753e-05,7.02027640986369e-05,0.505584206566214,-8.244990082006964e-05,-0.19702604485420927
516,0.5066,0.0142848,1150.25,0.016573,0.0398045,0.0663901,-0.0246911,-0.187865,0.409845,-0.219788,2.22097e-05,7.03213e-05,-8.24697e-05,0.424126,-0.1712734222307516,2.220994663715281e-05,7.032377260052236e-05,0.5065842464558745,-8.246629946773165e-05,-0.19731105001687654
517,0.5076,0.0142549,1150.55,0.0165392,0.0398485,0.0663225,-0.0245678,-0.188173,0.410509,-0.220143,2.22961e-05,7.04421e-05,-8.24858e-05,0.424821,-0.17152863071258084,2.2296348559880386e-05,7.04445811030574e-05,0.5075849505925274,-8.248239813990477e-05,-0.19759595402066776
518,0.5086,0.0142251,1150.85,0.0165056,0.0398922,0.0662551,-0.0244448,-0.188481,0.411172,-0.220498,2.23825e-05,7.05627e-05,-8.25016e-05,0.425515,-0.1717837606023015,2.2382750489935432e-05,7.056518960579794e-05,0.5085848108318138,-8.249819683658899e-05,-0.1978807569014881
519,0.5096,0.0141953,1151.15,0.016472,0.0399359,0.0661877,-0.0243221,-0.188788,0.411835,-0.220853,2.24689e-05,7.06831e-05,-8.25171e-05,0.426208,-0.17203798396251413,2.2469152427539996e-05,7.068559810918806e-05,0.5095853341982415,-8.251369555778432e-05,-0.19816545869522972
520,0.5106,0.0141657,1151.46,0.0164385,0.0399794,0.0661206,-0.0241997,-0.189096,0.412497,-0.221207,2.25553e-05,7.08033e-05,-8.25323e-05,0.426901,-0.17229295699559088,2.2555554372694075e-05,7.080580661278368e-05,0.5105850105458434,-8.252889430337973e-05,-0.19844925788743084
521,0.5116,0.0141361,1151.76,0.0164051,0.0400229,0.0660535,-0.0240777,-0.189403,0.413159,-0.221561,2.26418e-05,7.09232e-05,-8.25472e-05,0.427594,-0.1725470240565039,2.2642056327404347e-05,7.092571510969314e-05,0.5115853488982867,-8.254379307359727e-05,-0.19873295663249824
522,0.5126,0.0141066,1152.06,0.0163718,0.0400661,0.0659866,-0.023956,-0.189709,0.41382,-0.221915,2.27283e-05,7.1043e-05,-8.25618e-05,0.428286,-0.17280018593140034,2.2728558289664136e-05,7.104552361369976e-05,0.5125848371083703,-8.255839186843694e-05,-0.19901655496598358
523,0.5136,0.0140772,1152.35,0.0163386,0.0401093,0.0659198,-0.0238346,-0.190016,0.414481,-0.222269,2.28148e-05,7.11625e-05,-8.25762e-05,0.428977,-0.17305409729693055,2.281506025947344e-05,7.116503211079817e-05,0.5135849861985577,-8.257279067946932e-05,-0.19930005292342667
524,0.5146,0.0140479,1152.65,0.0163054,0.0401523,0.0658532,-0.0237135,-0.190322,0.415141,-0.222622,2.29013e-05,7.12818e-05,-8.25902e-05,0.429669,-0.17330710403115313,2.2901562236832262e-05,7.128434060788003e-05,0.5145842820207958,-8.25867895233312e-05,-0.19958265012340437
525,0.5156,0.0140186,1152.95,0.0162724,0.0401952,0.0657867,-0.0235928,-0.190629,0.415801,-0.222976,2.29878e-05,7.14009e-05,-8.2604e-05,0.430359,-0.17356085979671254,2.2988064221518556e-05,7.140344910494534e-05,0.5155842375959709,-8.260058838349682e-05,-0.19986594771862787
526,0.5166,0.0139895,1153.25,0.0162395,0.040238,0.0657203,-0.0234724,-0.190935,0.416461,-0.223329,2.30743e-05,7.15198e-05,-8.26175e-05,0.43105,-0.17381371148533342,2.3074566213754366e-05,7.152235760177206e-05,0.516584853359664,-8.261408726828456e-05,-0.2001483451929965
527,0.5176,0.0139604,1153.54,0.0162066,0.0402807,0.0656541,-0.0233523,-0.191241,0.41712,-0.223681,2.31609e-05,7.16384e-05,-8.26307e-05,0.43174,-0.1740664858131743,2.3161168215768413e-05,7.164096609146853e-05,0.517584612162372,-8.262728617769444e-05,-0.20042984342889247
528,0.5186,0.0139314,1153.84,0.0161739,0.0403232,0.065588,-0.0232326,-0.191546,0.417779,-0.224034,2.32475e-05,7.17569e-05,-8.26437e-05,0.432429,-0.17431835712267407,2.3247770225331976e-05,7.17594745880401e-05,0.5185850300232671,-8.264028510351906e-05,-0.20071204188320457
529,0.5196,0.0139025,1154.13,0.0161412,0.0403657,0.065522,-0.0231131,-0.191852,0.418437,-0.224386,2.33341e-05,7.18751e-05,-8.26563e-05,0.433118,-0.17457097705257407,2.333437224222301e-05,7.18776830768153e-05,0.5195845877914638,-8.265288406217319e-05,-0.2009933417327836
530,0.5206,0.0138737,1154.43,0.0161086,0.040408,0.0654561,-0.022994,-0.192157,0.419095,-0.224738,2.34207e-05,7.19931e-05,-8.26687e-05,0.433806,-0.17482269451570864,2.3420974266663563e-05,7.19956915653519e-05,0.5205848034851055,-8.266528303713105e-05,-0.20127454258224065
531,0.5216,0.013845,1154.72,0.0160762,0.0404501,0.0653904,-0.0228752,-0.192462,0.419753,-0.22509,2.35073e-05,7.21109e-05,-8.26808e-05,0.434494,-0.17507433521672366,2.3507576298653632e-05,7.211350005342787e-05,0.52158567753725,-8.267738203682207e-05,-0.2015556444664176
532,0.5226,0.0138163,1155.02,0.0160438,0.0404922,0.0653249,-0.0227567,-0.192767,0.42041,-0.225442,2.3594e-05,7.22285e-05,-8.26926e-05,0.435182,-0.1753258991790282,2.359427834064398e-05,7.223110854082115e-05,0.5225856877947905,-8.268918106124623e-05,-0.20183664742014418
533,0.5236,0.0137877,1155.31,0.0160114,0.0405341,0.0652594,-0.0226386,-0.193071,0.421066,-0.225793,2.36806e-05,7.23459e-05,-8.27042e-05,0.435869,-0.1755765620029981,2.368088038751104e-05,7.23485170277538e-05,0.5235848316893505,-8.270078010197413e-05,-0.20211675359539016
534,0.5246,0.0137592,1155.6,0.0159792,0.040576,0.0651941,-0.0225207,-0.193376,0.421722,-0.226144,2.37673e-05,7.2463e-05,-8.27155e-05,0.436556,-0.17582797280949014,2.376758244460042e-05,7.246562550666802e-05,0.5245846312373363,-8.271207916732415e-05,-0.20239676147062124
535,0.5256,0.0137308,1155.89,0.0159471,0.0406177,0.0651289,-0.0224032,-0.19368,0.422378,-0.226495,2.3854e-05,7.258e-05,-8.27265e-05,0.437242,-0.17607848302627394,2.3854284509017276e-05,7.258263399201326e-05,0.5255850868689977,-8.272307825740732e-05,-0.20267667108033482
536,0.5266,0.0137025,1156.19,0.0159151,0.0406593,0.0650639,-0.022286,-0.193984,0.423033,-0.226846,2.39407e-05,7.26968e-05,-8.27372e-05,0.437928,-0.17632891709952614,2.3940986580761603e-05,7.269944247645377e-05,0.5265846724294307,-8.273377737222365e-05,-0.20295648245901587
537,0.5276,0.0136742,1156.48,0.0158831,0.0407007,0.0649989,-0.0221691,-0.194288,0.423688,-0.227196,2.40274e-05,7.28133e-05,-8.27477e-05,0.438613,-0.1765792750523909,2.402768866027749e-05,7.281595095265381e-05,0.5275849129328762,-8.274427650345473e-05,-0.20323539887693487
538,0.5286,0.013646,1156.77,0.0158512,0.0407421,0.0649341,-0.0220525,-0.194592,0.424342,-0.227546,2.41142e-05,7.29296e-05,-8.27579e-05,0.439298,-0.1768295569080054,2.4114490749571615e-05,7.293225942794912e-05,0.5285842802234177,-8.275447565941896e-05,-0.20351421769118916
539,0.5296,0.0136179,1157.06,0.0158194,0.0407833,0.0648695,-0.0219363,-0.194895,0.424996,-0.227896,2.42009e-05,7.30458e-05,-8.27678e-05,0.439983,-0.17707893976885092,2.4201192844186536e-05,7.304846790945341e-05,0.5295843013139367,-8.276437484011634e-05,-0.2037929389359341
540,0.5306,0.0135899,1157.34,0.0157878,0.0408245,0.0648049,-0.0218204,-0.195199,0.42565,-0.228246,2.42877e-05,7.31617e-05,-8.27774e-05,0.440667,-0.17732906974947782,2.4287994948579694e-05,7.316437638249518e-05,0.530584976632158,-8.277397404554687e-05,-0.20407156264531312
541,0.5316,0.0135619,1157.63,0.0157561,0.0408655,0.0647405,-0.0217047,-0.195502,0.426303,-0.228595,2.43745e-05,7.32774e-05,-8.27868e-05,0.44135,-0.17757830128085994,2.437479706052237e-05,7.328008485418813e-05,0.5315847750205458,-8.278337326739216e-05,-0.20434929320314854
542,0.5326,0.0135341,1157.92,0.0157246,0.0409064,0.0646762,-0.0215894,-0.195805,0.426956,-0.228945,2.44612e-05,7.33929e-05,-8.2796e-05,0.442033,-0.17782745730652771,2.4461499177563795e-05,7.339559332475432e-05,0.5325852264904889,-8.279257250576322e-05,-0.20462772222260683
543,0.5336,0.0135063,1158.21,0.0156932,0.0409472,0.0646121,-0.0214744,-0.196107,0.427608,-0.229294,2.45481e-05,7.35082e-05,-8.28048e-05,0.442716,-0.17807571592548277,2.4548401307056267e-05,7.351090179397168e-05,0.5335847978830246,-8.280137177718583e-05,-0.20490525871461618
544,0.5346,0.0134786,1158.5,0.0156618,0.0409879,0.064548,-0.0213598,-0.19641,0.42826,-0.229642,2.46349e-05,7.36233e-05,-8.28134e-05,0.443398,-0.17832472125734455,2.463520344164749e-05,7.362601026161819e-05,0.5345850212086152,-8.280997106502319e-05,-0.20518190354559107
545,0.5356,0.0134509,1158.78,0.0156306,0.0410284,0.0644841,-0.0212454,-0.196712,0.428911,-0.229991,2.47217e-05,7.37382e-05,-8.28218e-05,0.44408,-0.17857282972526045,2.472200558378823e-05,7.374091872791588e-05,0.5355843613073308,-8.281837036938633e-05,-0.20545924666206472
546,0.5366,0.0134234,1159.07,0.0155994,0.0410689,0.0644203,-0.0211314,-0.197014,0.429562,-0.230339,2.48085e-05,7.38529e-05,-8.28298e-05,0.444762,-0.1788208632757321,2.480880773347849e-05,7.385562719264271e-05,0.5365843521882572,-8.282636970680102e-05,-0.20573569873877506
547,0.5376,0.0133959,1159.35,0.0155683,0.0411092,0.0643567,-0.0210176,-0.197316,0.430213,-0.230687,2.48954e-05,7.39674e-05,-8.28377e-05,0.445442,-0.1790688219313813,2.4895709892946982e-05,7.397013565557664e-05,0.5375849942751916,-8.283426905242308e-05,-0.20601205462690042
548,0.5386,0.0133685,1159.64,0.0155373,0.0411495,0.0642932,-0.0209042,-0.197618,0.430863,-0.231035,2.49823e-05,7.40817e-05,-8.28452e-05,0.446123,-0.17931670571482272,2.4982612060187037e-05,7.408444411693971e-05,0.5385847494066884,-8.284176843120772e-05,-0.2062883143599087
549,0.5396,0.0133412,1159.92,0.0155064,0.0411896,0.0642298,-0.0207911,-0.19792,0.431513,-0.231383,2.50692e-05,7.41957e-05,-8.28525e-05,0.446803,-0.1795645146486644,2.506951423497661e-05,7.419845256895208e-05,0.5395851545902648,-8.284906782640711e-05,-0.2065644779712561
550,0.5406,0.0133139,1160.2,0.0154755,0.0412296,0.0641665,-0.0206783,-0.198221,0.432162,-0.23173,2.51561e-05,7.43096e-05,-8.28596e-05,0.447483,-0.17981142856734622,2.5156416417315697e-05,7.431236102672933e-05,0.540584669663152,-8.285616723813227e-05,-0.2068397523345359
551,0.5416,0.0132868,1160.49,0.0154448,0.0412695,0.0641033,-0.0205658,-0.198522,0.432811,-0.232077,2.5243e-05,7.44233e-05,-8.28663e-05,0.448162,-0.1800582681761227,2.52433186072043e-05,7.442606948249164e-05,0.5415848336318654,-8.286286668302001e-05,-0.20711493119418245
552,0.5426,0.0132597,1160.77,0.0154141,0.0413093,0.0640403,-0.0204536,-0.198823,0.43346,-0.232424,2.53299e-05,7.45368e-05,-8.28729e-05,0.44884,-0.18030503349735771,2.5330220804642423e-05,7.4539577936239e-05,0.5425856469176751,-8.286946613611512e-05,-0.20739001458332984
553,0.5436,0.0132326,1161.05,0.0153835,0.041349,0.0639774,-0.0203418,-0.199124,0.434108,-0.232771,2.54168e-05,7.46501e-05,-8.28791e-05,0.449519,-0.1805517245534085,2.541712300963006e-05,7.46528863879714e-05,0.5435855663557865,-8.287566562226178e-05,-0.20766500253510056
554,0.5446,0.0132057,1161.33,0.015353,0.0413886,0.0639146,-0.0202302,-0.199425,0.434755,-0.233117,2.55037e-05,7.47631e-05,-8.28852e-05,0.450197,-0.18079834136662554,2.5504025222167215e-05,7.476589483013107e-05,0.5445845893663126,-8.288176511672685e-05,-0.2079391030221046
555,0.5456,0.0131788,1161.61,0.0153225,0.0414281,0.0638519,-0.020119,-0.199725,0.435402,-0.233464,2.55907e-05,7.4876e-05,-8.28909e-05,0.450874,-0.18104406500382708,2.559102744470465e-05,7.487880327761154e-05,0.5455842589538717,-8.288746464424346e-05,-0.20821390047324084
556,0.5466,0.013152,1161.89,0.0152922,0.0414675,0.0637894,-0.020008,-0.200025,0.436049,-0.23381,2.56776e-05,7.49887e-05,-8.28965e-05,0.451551,-0.1812897149349939,2.5677929672340838e-05,7.499151172285501e-05,0.5465845755369343,-8.289306418007847e-05,-0.2084878110744105
557,0.5476,0.0131253,1162.17,0.0152619,0.0415068,0.0637269,-0.0198974,-0.200325,0.436696,-0.234156,2.57646e-05,7.51012e-05,-8.29017e-05,0.452228,-0.18153529118223444,2.576493191019935e-05,7.510402016563944e-05,0.5475855395342422,-8.289826374907605e-05,-0.20876162691890598
558,0.5486,0.0130986,1162.45,0.0152318,0.0415459,0.0636646,-0.0197871,-0.200625,0.437342,-0.234501,2.58516e-05,7.52135e-05,-8.29068e-05,0.452904,-0.18178079376765066,2.5851934155385337e-05,7.521632860618688e-05,0.5485856027784306,-8.290336332628101e-05,-0.20903455707445995
559,0.5496,0.013072,1162.73,0.0152016,0.041585,0.0636025,-0.019677,-0.200925,0.437987,-0.234846,2.59386e-05,7.53256e-05,-8.29115e-05,0.453579,-0.1820262227133378,2.5938936408342883e-05,7.532843704427528e-05,0.5495847626866535,-8.290806293653752e-05,-0.2093073930853513
560,0.5506,0.0130455,1163.01,0.0151716,0.041624,0.0635404,-0.0195673,-0.201224,0.438632,-0.235192,2.60256e-05,7.54375e-05,-8.29161e-05,0.454255,-0.18227076031255363,2.6025938668849946e-05,7.544034547968259e-05,0.5505845672608995,-8.291266255522345e-05,-0.2095809254035238
561,0.5516,0.0130191,1163.29,0.0151417,0.0416629,0.0634785,-0.0194579,-0.201524,0.439277,-0.235536,2.61126e-05,7.55492e-05,-8.29203e-05,0.454929,-0.1825160422903236,2.6112940936906526e-05,7.555205391263087e-05,0.5515850169171126,-8.291686220696093e-05,-0.20985278280303143
562,0.5526,0.0129927,1163.56,0.0151118,0.0417016,0.0634166,-0.0193488,-0.201823,0.439921,-0.235881,2.61996e-05,7.56607e-05,-8.29244e-05,0.455604,-0.18276043345537885,2.6199943212512622e-05,7.566356234289806e-05,0.5525845594861689,-8.292096186701681e-05,-0.2101253365747353
563,0.5536,0.0129665,1163.84,0.015082,0.0417403,0.0633549,-0.01924,-0.202122,0.440565,-0.236226,2.62866e-05,7.5772e-05,-8.29282e-05,0.456278,-0.18300475155839913,2.6286945495668235e-05,7.577487077048417e-05,0.5535847459679573,-8.292476155191686e-05,-0.2103977963316066
564,0.5546,0.0129402,1164.12,0.0150523,0.0417789,0.0632934,-0.0191315,-0.20242,0.441209,-0.23657,2.63737e-05,7.58831e-05,-8.29317e-05,0.456951,-0.1832481798698149,2.6374047789046173e-05,7.588597919516715e-05,0.5545855767772914,-8.292826126166108e-05,-0.21066937277584197
565,0.5556,0.0129141,1164.39,0.0150227,0.0418173,0.0632319,-0.0190233,-0.202719,0.441852,-0.236914,2.64607e-05,7.5994e-05,-8.2935e-05,0.457624,-0.1834923521584576,2.646105008730082e-05,7.599688761716905e-05,0.5555854967429767,-8.293156098793109e-05,-0.21094085581384736
566,0.5566,0.012888,1164.67,0.0149932,0.0418557,0.0631705,-0.0189155,-0.203017,0.442494,-0.237258,2.65478e-05,7.61048e-05,-8.29381e-05,0.458297,-0.1837356351865428,2.6548152395999836e-05,7.610769604382561e-05,0.5565845032786707,-8.293466073083788e-05,-0.21121224547774897
567,0.5576,0.012862,1164.94,0.0149637,0.041894,0.0631093,-0.0188079,-0.203316,0.443137,-0.237601,2.66349e-05,7.62153e-05,-8.29409e-05,0.458969,-0.1839796617478331,2.6635254712026324e-05,7.621820445979921e-05,0.5575857089674123,-8.293746049869988e-05,-0.2114827532828094
568,0.5586,0.0128361,1165.22,0.0149343,0.0419321,0.0630482,-0.0187006,-0.203614,0.443778,-0.237944,2.67219e-05,7.63257e-05,-8.29435e-05,0.459641,-0.184222799579296,2.6722257033151564e-05,7.632861288042747e-05,0.5585844414664296,-8.294006028297662e-05,-0.21175316831960345
569,0.5596,0.0128102,1165.49,0.014905,0.0419702,0.0629872,-0.0185936,-0.203911,0.44442,-0.238288,2.6809e-05,7.64358e-05,-8.29458e-05,0.460312,-0.1844650494319371,2.680935936449913e-05,7.643872129015072e-05,0.559585373942797,-8.294236009220857e-05,-0.21202427859606043
570,0.5606,0.0127845,1165.76,0.0148758,0.0420082,0.0629263,-0.0184869,-0.204209,0.445061,-0.23863,2.68961e-05,7.65458e-05,-8.2948e-05,0.460983,-0.1847080426394203,2.6896461703396213e-05,7.654872970452864e-05,0.5605853886379635,-8.294455990975891e-05,-0.21229372021563742
571,0.5616,0.0127587,1166.03,0.0148466,0.0420461,0.0628656,-0.0183806,-0.204506,0.445701,-0.238973,2.69832e-05,7.66556e-05,-8.29498e-05,0.461654,-0.18495014839627177,2.6983564049842812e-05,7.665853811555934e-05,0.5615844829627734,-8.294635976047182e-05,-0.2125638571384727
572,0.5626,0.0127331,1166.31,0.0148176,0.0420838,0.0628049,-0.0182745,-0.204804,0.446341,-0.239315,2.70703e-05,7.67651e-05,-8.29515e-05,0.462324,-0.18519299706580084,2.7070666403838928e-05,7.676804651568503e-05,0.5625842169126092,-8.294805961950313e-05,-0.21283311425374019
573,0.5636,0.0127075,1166.58,0.0147886,0.0421215,0.0627444,-0.0181687,-0.205101,0.446981,-0.239658,2.71574e-05,7.68745e-05,-8.29529e-05,0.462993,-0.1854349588125742,2.7157768765606605e-05,7.687745492002129e-05,0.5635845908969623,-8.294945950337862e-05,-0.21310306619614638
574,0.5646,0.012682,1166.85,0.0147597,0.0421591,0.062684,-0.0180633,-0.205397,0.447621,-0.24,2.72445e-05,7.69837e-05,-8.2954e-05,0.463662,-0.18567603438382096,2.7244871134701754e-05,7.698666332101034e-05,0.5645856053255855,-8.295055941209828e-05,-0.21337213893344653
575,0.5656,0.0126566,1167.12,0.0147308,0.0421966,0.0626237,-0.0179581,-0.205694,0.44826,-0.240341,2.73316e-05,7.70928e-05,-8.2955e-05,0.464331,-0.18591785268981298,2.7331973511568464e-05,7.709577172620996e-05,0.5655856950220166,-8.295155932913634e-05,-0.2136403333043312
576,0.5666,0.0126312,1167.39,0.0147021,0.042234,0.0625635,-0.0178532,-0.205991,0.448898,-0.240683,2.74188e-05,7.72016e-05,-8.29557e-05,0.465,-0.18615959918643243,2.74191758986575e-05,7.720458012028253e-05,0.5665848573943457,-8.295225927101857e-05,-0.21390922232769727
577,0.5676,0.0126059,1167.66,0.0146734,0.0422713,0.0625034,-0.0177486,-0.206287,0.449536,-0.241024,2.75059e-05,7.73103e-05,-8.29562e-05,0.465668,-0.18640046029587043,2.7506278290845287e-05,7.731328851834363e-05,0.5675846574356629,-8.29527592295376e-05,-0.21417723358436724
578,0.5686,0.0125807,1167.93,0.0146448,0.0423086,0.0624435,-0.0176444,-0.206583,0.450174,-0.241365,2.75931e-05,7.74187e-05,-8.29564e-05,0.466335,-0.18664125012097066,2.7593480693033356e-05,7.742169690483358e-05,0.568585095552931,-8.295295921301182e-05,-0.21444515346477921
579,0.5696,0.0125555,1168.2,0.0146162,0.0423457,0.0623836,-0.0175404,-0.206879,0.450811,-0.241706,2.76802e-05,7.7527e-05,-8.29564e-05,0.467002,-0.18688196868283014,2.7680583100320177e-05,7.753000529553411e-05,0.5695846025679852,-8.295295921301182e-05,-0.21471298200008715
580,0.5706,0.0125304,1168.46,0.0145878,0.0423827,0.0623239,-0.0174367,-0.207175,0.451448,-0.242047,2.77674e-05,7.76351e-05,-8.29562e-05,0.467669,-0.18712261600253965,2.7767785517829324e-05,7.763811368244333e-05,0.5705847464718354,-8.29527592295376e-05,-0.21498071922143447
581,0.5716,0.0125054,1168.73,0.0145594,0.0424197,0.0622643,-0.0173333,-0.20747,0.452085,-0.242387,2.78545e-05,7.7743e-05,-8.29558e-05,0.468335,-0.1873623794639695,2.785488794021518e-05,7.77460220653392e-05,0.5715855276703092,-8.295235926281119e-05,-0.2152475804079267
582,0.5726,0.0124804,1169.0,0.0145311,0.0424566,0.0622048,-0.0172302,-0.207766,0.452721,-0.242728,2.79417e-05,7.78507e-05,-8.29551e-05,0.469001,-0.18760288460313157,2.7942090373045403e-05,7.785373044444377e-05,0.5725853739833322,-8.295165932081794e-05,-0.21551513536229527
583,0.5736,0.0124555,1169.27,0.0145028,0.0424933,0.0621454,-0.0171274,-0.208061,0.453356,-0.243068,2.80289e-05,7.79582e-05,-8.29542e-05,0.469666,-0.1878425064062199,2.80292928132031e-05,7.796123881953498e-05,0.5735842828158004,-8.295075939546148e-05,-0.21578181487818537
584,0.5746,0.0124307,1169.53,0.0144747,0.04253,0.0620861,-0.017025,-0.208356,0.453992,-0.243407,2.81161e-05,7.80656e-05,-8.29531e-05,0.470331,-0.18808205753130192,2.81164952613544e-05,7.806864719817064e-05,0.574585400741426,-8.294965948674182e-05,-0.21604761978646414
585,0.5756,0.012406,1169.8,0.0144466,0.0425666,0.0620269,-0.0169228,-0.208651,0.454627,-0.243747,2.82033e-05,7.81727e-05,-8.29518e-05,0.470996,-0.18832153799922446,2.8203697716833176e-05,7.817575556523515e-05,0.5755855799942013,-8.294835959454794e-05,-0.21631411828842417
586,0.5766,0.0123813,1170.06,0.0144186,0.0426031,0.0619679,-0.0168208,-0.208945,0.455261,-0.244086,2.82904e-05,7.82797e-05,-8.29502e-05,0.47166,-0.18856013639137037,2.8290800177188657e-05,7.828276393562206e-05,0.5765848179768875,-8.294675972730925e-05,-0.21657974277642988
587,0.5776,0.0123567,1170.33,0.0143906,0.0426395,0.0619089,-0.0167192,-0.20924,0.455895,-0.244425,2.83776e-05,7.83865e-05,-8.29485e-05,0.472324,-0.18879947584682955,2.837800264798851e-05,7.838957230199561e-05,0.5775846896773218,-8.294505986827794e-05,-0.2168452772329953
588,0.5786,0.0123321,1170.59,0.0143627,0.0426759,0.0618501,-0.0166179,-0.209534,0.456529,-0.244764,2.84648e-05,7.84931e-05,-8.29465e-05,0.472987,-0.18903793374590183,2.8465205126337878e-05,7.849618066391173e-05,0.578585195497409,-8.294306003420182e-05,-0.217110721688636
589,0.5796,0.0123076,1170.85,0.0143349,0.0427121,0.0617914,-0.0165169,-0.209828,0.457162,-0.245103,2.85521e-05,7.85996e-05,-8.29442e-05,0.47365,-0.18927632154865637,2.8552507615131617e-05,7.860268902959433e-05,0.5795847562537622,-8.294076022496988e-05,-0.217376076173857
590,0.5806,0.0122832,1171.12,0.0143072,0.0427483,0.0617328,-0.0164162,-0.210122,0.457795,-0.245441,2.86393e-05,7.87058e-05,-8.29418e-05,0.474312,-0.18951463927569867,2.863971010858002e-05,7.870889738281761e-05,0.5805849499323728,-8.293836042405633e-05,-0.21764055836010288
591,0.5816,0.0122588,1171.38,0.0142796,0.0427843,0.0616743,-0.0163157,-0.210416,0.458427,-0.24578,2.87265e-05,7.88119e-05,-8.29392e-05,0.474974,-0.1897528869476277,2.872691260979998e-05,7.881500573936329e-05,0.5815841953490215,-8.293576063966857e-05,-0.2179057332611336
592,0.5826,0.0122345,1171.64,0.014252,0.0428203,0.0616159,-0.0162156,-0.210709,0.45906,-0.246118,2.88137e-05,7.89178e-05,-8.29363e-05,0.475636,-0.1899902545756964,2.881411511856946e-05,7.892091409145152e-05,0.5825856550732407,-8.293286088012497e-05,-0.2181700364535355
593,0.5836,0.0122103,1171.9,0.0142245,0.0428562,0.0615576,-0.0161157,-0.211003,0.459691,-0.246455,2.89009e-05,7.90235e-05,-8.29332e-05,0.476297,-0.19022836243728036,2.89013176351105e-05,7.902662243908232e-05,0.5835845817498138,-8.292976113721817e-05,-0.2184334687604138
594,0.5846,0.0121861,1172.17,0.0141971,0.042892,0.0614994,-0.0160162,-0.211296,0.460322,-0.246793,2.89882e-05,7.9129e-05,-8.29299e-05,0.476958,-0.1904655907714382,2.8988620161873868e-05,7.913213078181158e-05,0.5845841389480286,-8.292646141094817e-05,-0.21869759360835894
595,0.5856,0.012162,1172.43,0.0141697,0.0429278,0.0614413,-0.0159169,-0.211589,0.460953,-0.24713,2.90754e-05,7.92344e-05,-8.29264e-05,0.477618,-0.19070274960787592,2.9075822693513942e-05,7.923753912808529e-05,0.5855843270658696,-8.292296170109292e-05,-0.21896084815842976
596,0.5866,0.012138,1172.69,0.0141424,0.0429634,0.0613834,-0.0158179,-0.211882,0.461584,-0.247468,2.91626e-05,7.93396e-05,-8.29227e-05,0.478278,-0.19093983896695355,2.9163025232703532e-05,7.934274746923542e-05,0.586585146501573,-8.29192620079855e-05,-0.21922479478225998
597,0.5876,0.012114,1172.95,0.0141152,0.042999,0.0613255,-0.0157193,-0.212174,0.462214,-0.247805,2.92499e-05,7.94446e-05,-8.29187e-05,0.478938,-0.19117605004547933,2.9250327782559538e-05,7.944775580570607e-05,0.5875850100678219,-8.291526233961122e-05,-0.21948787169546868
598,0.5886,0.0120901,1173.21,0.0140881,0.0430345,0.0612678,-0.0156209,-0.212467,0.462844,-0.248141,2.93371e-05,7.95494e-05,-8.29146e-05,0.479597,-0.19141300074784295,2.933753033684816e-05,7.955256413749723e-05,0.5885855037465819,-8.291116267955534e-05,-0.21975007971716454
599,0.5896,0.0120663,1173.47,0.014061,0.0430699,0.0612101,-0.0155228,-0.212759,0.463473,-0.248478,2.94244e-05,7.9654e-05,-8.29102e-05,0.480256,-0.19164907368329864,2.94248329018032e-05,7.965717246416482e-05,0.5895850383491164,-8.290676304434363e-05,-0.22001297963917488
600,0.5906,0.0120425,1173.72,0.014034,0.0431053,0.0611526,-0.0154249,-0.213051,0.464102,-0.248814,2.95116e-05,7.97585e-05,-8.29056e-05,0.480914,-0.19188507769552043,2.9512035471634945e-05,7.976168079371071e-05,0.5905852018566857,-8.290216342576873e-05,-0.22027501125423954
601,0.5916,0.0120188,1173.98,0.014007,0.0431405,0.0610952,-0.0153274,-0.213343,0.46473,-0.24915,2.95989e-05,7.98628e-05,-8.29009e-05,0.481572,-0.192121012804631,2.9599338051689017e-05,7.986598911835507e-05,0.5915844030797965,-8.289746381529017e-05,-0.22053695484147107
602,0.5926,0.0119952,1174.24,0.0139802,0.0431757,0.0610378,-0.0152302,-0.213635,0.465358,-0.249486,2.96861e-05,7.99669e-05,-8.28959e-05,0.482229,-0.19235687903074716,2.9686540636619796e-05,7.997009743787586e-05,0.5925842319983514,-8.289246422976682e-05,-0.22079881043044192
603,0.5936,0.0119716,1174.5,0.0139534,0.0432108,0.0609806,-0.0151332,-0.213926,0.465986,-0.249822,2.97734e-05,8.00709e-05,-8.28907e-05,0.482886,-0.19259186898625247,2.9773843231994945e-05,8.007410576005292e-05,0.5935846890066667,-8.288726466088026e-05,-0.22106057805071433
604,0.5946,0.011948,1174.75,0.0139267,0.0432458,0.0609235,-0.0150366,-0.214218,0.466613,-0.250157,2.98606e-05,8.01747e-05,-8.28853e-05,0.483543,-0.19282759774243508,2.9861045832246802e-05,8.01779140771064e-05,0.5945841799143292,-8.288186510840845e-05,-0.22132147905370936
605,0.5956,0.0119246,1175.01,0.0139,0.0432807,0.0608665,-0.0149402,-0.214509,0.46724,-0.250492,2.99479e-05,8.02783e-05,-8.28797e-05,0.484199,-0.19306245073872386,2.994834844294303e-05,8.02815223890363e-05,0.5955842976992967,-8.287626557257344e-05,-0.22158229266950658
606,0.5966,0.0119012,1175.27,0.0138734,0.0433156,0.0608096,-0.0148441,-0.2148,0.467867,-0.250827,3.00352e-05,8.03817e-05,-8.28739e-05,0.484855,-0.19329723540273336,3.0035651061188773e-05,8.038493069539854e-05,0.5965850427547437,-8.28704660532642e-05,-0.2218430189273758
607,0.5976,0.0118778,1175.52,0.0138469,0.0433504,0.0607528,-0.0147483,-0.215091,0.468493,-0.251162,3.01224e-05,8.04849e-05,-8.28678e-05,0.48551,-0.19353195175434568,3.012285368408918e-05,8.048813899641516e-05,0.5975848178884762,-8.286436655868812e-05,-0.22210365785657693
608,0.5986,0.0118546,1175.78,0.0138204,0.0433851,0.0606961,-0.0146528,-0.215382,0.469119,-0.251497,3.02097e-05,8.0588e-05,-8.28616e-05,0.486166,-0.1937665998134368,3.0210156317656e-05,8.059124730008804e-05,0.598585219077377,-8.285816707243043e-05,-0.22236420948636038
609,0.5996,0.0118314,1176.03,0.0137941,0.0434197,0.0606395,-0.0145575,-0.215672,0.469744,-0.251831,3.0297e-05,8.06909e-05,-8.28552e-05,0.48682,-0.19400037360065336,3.029745895877234e-05,8.069415559819326e-05,0.5995846471280326,-8.285176760269852e-05,-0.2226238964702515
610,0.6006,0.0118082,1176.28,0.0137677,0.0434543,0.0605831,-0.0144626,-0.215962,0.470369,-0.252165,3.03842e-05,8.07936e-05,-8.28486e-05,0.487474,-0.19423407960330086,3.038466160454334e-05,8.079686389073082e-05,0.6005847000164615,-8.284516814949239e-05,-0.2228834967331731
611,0.6016,0.0117851,1176.54,0.0137415,0.0434888,0.0605267,-0.0143679,-0.216253,0.470994,-0.252499,3.04715e-05,8.08962e-05,-8.28418e-05,0.488128,-0.19446852337291343,3.0471964260980755e-05,8.089947218592464e-05,0.6015853781333091,-8.283836871281203e-05,-0.22314301030408534
612,0.6026,0.0117621,1176.79,0.0137153,0.0435232,0.0604704,-0.0142736,-0.216543,0.471618,-0.252833,3.05588e-05,8.09986e-05,-8.28347e-05,0.488782,-0.1947020936318108,3.055926692496769e-05,8.10018804751067e-05,0.602585079283585,-8.283126930097584e-05,-0.22340243721193842
613,0.6036,0.0117391,1177.04,0.0136892,0.0435575,0.0604142,-0.0141795,-0.216832,0.472242,-0.253167,3.06461e-05,8.11008e-05,-8.28275e-05,0.489435,-0.1949347911003474,3.0646569596504136e-05,8.11040887587211e-05,0.6035854044420488,-8.282406989734703e-05,-0.22366177748567306
614,0.6046,0.0117162,1177.3,0.0136632,0.0435918,0.0603582,-0.0140857,-0.217122,0.472865,-0.2535,3.07334e-05,8.12029e-05,-8.28201e-05,0.490087,-0.19516822616120855,3.0733872275812146e-05,8.120619704476972e-05,0.6045847494126517,-8.2816670510244e-05,-0.22392025507486324
615,0.6056,0.0116934,1177.55,0.0136372,0.043626,0.0603022,-0.0139922,-0.217411,0.473488,-0.253833,3.08206e-05,8.13047e-05,-8.28125e-05,0.490739,-0.19540078893690815,3.0821074959552774e-05,8.130800531680471e-05,0.6055847171691489,-8.280907113955571e-05,-0.2241786466053457
616,0.6066,0.0116706,1177.8,0.0136113,0.0436601,0.0602463,-0.0138989,-0.217701,0.474111,-0.254166,3.09079e-05,8.14064e-05,-8.28047e-05,0.491391,-0.19563408887798994,3.090837765395982e-05,8.140971359082982e-05,0.6065853080996568,-8.280127178550423e-05,-0.2244369521057734
617,0.6076,0.0116478,1178.05,0.0135854,0.0436942,0.0601906,-0.013806,-0.21799,0.474733,-0.254499,3.09952e-05,8.1508e-05,-8.27967e-05,0.492042,-0.1958665170388173,3.099568035613842e-05,8.151132186728915e-05,0.6075849150068153,-8.27932724478675e-05,-0.22469517160478936
618,0.6086,0.0116252,1178.3,0.0135597,0.0437281,0.0601349,-0.0137133,-0.218279,0.475355,-0.254831,3.10825e-05,8.16094e-05,-8.27885e-05,0.492693,-0.1960988780376115,3.108298306586654e-05,8.161273013773673e-05,0.6085851438628762,-8.278507312675654e-05,-0.2249525300839451
619,0.6096,0.0116026,1178.55,0.013534,0.0437621,0.0600793,-0.0136209,-0.218567,0.475976,-0.255163,3.11698e-05,8.17106e-05,-8.27801e-05,0.493344,-0.19633036822454963,3.1170285783366225e-05,8.171393840195051e-05,0.6095843854696215,-8.277667382206033e-05,-0.22520980313426775
620,0.6106,0.01158,1178.8,0.0135083,0.0437959,0.0600239,-0.0135288,-0.218856,0.476597,-0.255495,3.12571e-05,8.18116e-05,-8.27715e-05,0.493994,-0.19656259518971997,3.125758850819338e-05,8.181494666015254e-05,0.6105842477981187,-8.27680745338899e-05,-0.22546699078411503
621,0.6116,0.0115575,1179.05,0.0134827,0.0438297,0.0599685,-0.013437,-0.219144,0.477218,-0.255827,3.13444e-05,8.19125e-05,-8.27628e-05,0.494644,-0.19679395184534776,3.1344891240792094e-05,8.19158549203447e-05,0.611584731233956,-8.275937525392685e-05,-0.22572409306183505
622,0.6126,0.0115351,1179.3,0.0134572,0.0438634,0.0599133,-0.0133454,-0.219432,0.477838,-0.256159,3.14316e-05,8.20132e-05,-8.27538e-05,0.495293,-0.1970252418798527,3.143209397782343e-05,8.20165631745251e-05,0.6125842235779306,-8.275037599869695e-05,-0.2259811099957667
623,0.6136,0.0115127,1179.55,0.0134318,0.043897,0.0598581,-0.0132541,-0.21972,0.478458,-0.25649,3.15189e-05,8.21137e-05,-8.27446e-05,0.495942,-0.1972564653124188,3.151939672574322e-05,8.211707142224967e-05,0.6135843357993005,-8.274117675999282e-05,-0.22623726785189413
624,0.6146,0.0114904,1179.8,0.0134064,0.0439306,0.059803,-0.0131632,-0.220008,0.479078,-0.256822,3.16062e-05,8.22141e-05,-8.27353e-05,0.496591,-0.1974876221622247,3.160669948121253e-05,8.221747967174231e-05,0.6145850682825091,-8.273187752949607e-05,-0.2264941144400744
625,0.6156,0.0114682,1180.04,0.0133811,0.0439641,0.0597481,-0.0130724,-0.220296,0.479697,-0.257153,3.16935e-05,8.23143e-05,-8.27258e-05,0.497239,-0.1977187124484434,3.1694002244231356e-05,8.231768791500116e-05,0.6155848058266242,-8.272237831541407e-05,-0.2267501025198304
626,0.6166,0.011446,1180.29,0.0133558,0.0439975,0.0596932,-0.012982,-0.220583,0.480316,-0.257483,3.17808e-05,8.24143e-05,-8.27161e-05,0.497887,-0.19794893413957781,3.1781305015021744e-05,8.241769615180417e-05,0.6165851623998488,-8.271267911774682e-05,-0.2270052328871729
627,0.6176,0.0114238,1180.54,0.0133306,0.0440309,0.0596384,-0.0128919,-0.220871,0.480934,-0.257814,3.18681e-05,8.25142e-05,-8.27062e-05,0.498534,-0.19817989158707683,3.186860779336165e-05,8.251760439015321e-05,0.6175845208001509,-8.270277993649433e-05,-0.22726105181471912
628,0.6186,0.0114018,1180.78,0.0133055,0.0440642,0.0595838,-0.012802,-0.221158,0.481552,-0.258144,3.19554e-05,8.26139e-05,-8.26961e-05,0.499181,-0.19840998093878992,3.195591057925107e-05,8.261731262226846e-05,0.6185844969948233,-8.269268077176761e-05,-0.22751601359661244
629,0.6196,0.0113797,1181.03,0.0132805,0.0440974,0.0595292,-0.0127124,-0.221445,0.48217,-0.258475,3.20427e-05,8.27135e-05,-8.26858e-05,0.499827,-0.19864000426433448,3.2043213372690005e-05,8.271692085592974e-05,0.619585091365781,-8.268238162345565e-05,-0.22777166348372158
630,0.6206,0.0113578,1181.27,0.0132555,0.0441306,0.0594747,-0.0126231,-0.221732,0.482787,-0.258805,3.21299e-05,8.28129e-05,-8.26753e-05,0.500474,-0.1988699615826569,3.2130416170783604e-05,8.281632908291314e-05,0.6205846837096807,-8.267188249155843e-05,-0.22802645679156386
631,0.6216,0.0113359,1181.52,0.0132305,0.0441637,0.0594204,-0.0125341,-0.222018,0.483404,-0.259134,3.22172e-05,8.29121e-05,-8.26647e-05,0.501119,-0.19909905201215128,3.221771897954362e-05,8.291553730321866e-05,0.6215848929923624,-8.26612833678686e-05,-0.22828039431226677
632,0.6226,0.011314,1181.76,0.0132057,0.0441967,0.0593661,-0.0124453,-0.222305,0.484021,-0.259464,3.23045e-05,8.30112e-05,-8.26539e-05,0.501765,-0.19932887760267404,3.2305021796075195e-05,8.301464552507021e-05,0.6225857195945952,-8.265048426048249e-05,-0.22853501976663304
633,0.6236,0.0112922,1182.01,0.0131809,0.0442297,0.0593119,-0.0123568,-0.222591,0.484637,-0.259793,3.23918e-05,8.311e-05,-8.26429e-05,0.50241,-0.19955783680095374,3.239232461993424e-05,8.31134537317979e-05,0.6235855403110304,-8.263948516962216e-05,-0.22878878999763774
634,0.6246,0.0112705,1182.25,0.0131561,0.0442626,0.0592578,-0.0122686,-0.222877,0.485252,-0.260122,3.24791e-05,8.32088e-05,-8.26317e-05,0.503054,-0.1997867305262656,3.2479627451786897e-05,8.321226194829556e-05,0.6245843525215953,-8.262828609506556e-05,-0.2290424767519692
635,0.6256,0.0112488,1182.5,0.0131314,0.0442955,0.0592039,-0.0121807,-0.223163,0.485868,-0.260451,3.25664e-05,8.33074e-05,-8.26203e-05,0.503698,-0.20001555879733257,3.256693029096702e-05,8.331087015789329e-05,0.6255854047751881,-8.261688703703474e-05,-0.22929608005708657
636,0.6266,0.0112272,1182.74,0.0131068,0.0443283,0.05915,-0.0120931,-0.223449,0.486483,-0.26078,3.26537e-05,8.34058e-05,-8.26088e-05,0.504342,-0.20024432163287176,3.265423313791871e-05,8.340927836036904e-05,0.6265854472806751,-8.260538798698924e-05,-0.22954959994044022
637,0.6276,0.0112056,1182.98,0.0130823,0.044361,0.0590962,-0.0120057,-0.223735,0.487097,-0.261109,3.27409e-05,8.3504e-05,-8.2597e-05,0.504986,-0.20047301905159498,3.274143598908097e-05,8.350748655594487e-05,0.6275844774161712,-8.25935889616769e-05,-0.2298030364294713
638,0.6286,0.0111841,1183.22,0.0130578,0.0443937,0.0590425,-0.0119186,-0.22402,0.487711,-0.261437,3.28282e-05,8.36021e-05,-8.25851e-05,0.505629,-0.2007008517734603,3.2828738851353734e-05,8.360559475284468e-05,0.6285841211445242,-8.258168994446091e-05,-0.23005561960761678
639,0.6296,0.0111626,1183.46,0.0130333,0.0444263,0.0589889,-0.0118318,-0.224305,0.488325,-0.261765,3.29155e-05,8.37001e-05,-8.2573e-05,0.506271,-0.20092861957225183,3.291604172095397e-05,8.370360295106849e-05,0.6295843788425959,-8.256959094365968e-05,-0.23030811995206524
640,0.6306,0.0111412,1183.71,0.013009,0.0444589,0.0589354,-0.0117452,-0.22459,0.488939,-0.262093,3.30028e-05,8.37978e-05,-8.25608e-05,0.506913,-0.20115632246647008,3.300334459832577e-05,8.380131113372435e-05,0.6305852508874792,-8.25573919509548e-05,-0.23056053748998173
641,0.6316,0.0111199,1183.95,0.0129847,0.0444914,0.058882,-0.011659,-0.224875,0.489552,-0.262421,3.30901e-05,8.38954e-05,-8.25484e-05,0.507555,-0.20138396047461016,3.309064748346913e-05,8.389891931748217e-05,0.6315851060705773,-8.254499297455364e-05,-0.23081287224852232
642,0.6326,0.0110986,1184.19,0.0129604,0.0445238,0.0588287,-0.011573,-0.22516,0.490165,-0.262748,3.31773e-05,8.39929e-05,-8.25358e-05,0.508197,-0.20161153361516193,3.3177850372601014e-05,8.399642750234193e-05,0.6325855743527984,-8.253239401456725e-05,-0.23106435531957403
643,0.6336,0.0110774,1184.43,0.0129362,0.0445562,0.0587754,-0.0114872,-0.225445,0.490777,-0.263076,3.32646e-05,8.40902e-05,-8.2523e-05,0.508838,-0.20183904190661017,3.3265153272843406e-05,8.409373568007972e-05,0.6335850225242479,-8.251959507088458e-05,-0.23131652485296494
644,0.6346,0.0110562,1184.67,0.0129121,0.0445885,0.0587223,-0.0114018,-0.225729,0.491389,-0.263403,3.33519e-05,8.41873e-05,-8.251e-05,0.509478,-0.2020656874335205,3.335245618085736e-05,8.419084385025144e-05,0.6345850825451853,-8.250659614361666e-05,-0.23156784325653967
645,0.6356,0.0110351,1184.91,0.0128881,0.0446208,0.0586693,-0.0113166,-0.226013,0.492,-0.26373,3.34391e-05,8.42843e-05,-8.24969e-05,0.510118,-0.20229226860224048,3.343965909285984e-05,8.428785202130307e-05,0.6355841192052398,-8.249349722433408e-05,-0.23181907949243152
646,0.6366,0.011014,1185.15,0.012864,0.044653,0.0586163,-0.0112317,-0.226297,0.492612,-0.264056,3.35264e-05,8.43812e-05,-8.24836e-05,0.510758,-0.2025187854310453,3.352696201597283e-05,8.438476019367869e-05,0.6365854030477973,-8.248019832135522e-05,-0.23206946565735453
647,0.6376,0.010993,1185.38,0.0128401,0.0446851,0.0585635,-0.0111471,-0.226581,0.493223,-0.264383,3.36137e-05,8.44778e-05,-8.24701e-05,0.511398,-0.20274523793820476,3.361426494663533e-05,8.448136834982023e-05,0.6375856622771359,-8.246669943479112e-05,-0.23232053788953744
648,0.6386,0.010972,1185.62,0.0128162,0.0447172,0.0585108,-0.0110627,-0.226865,0.493833,-0.264709,3.37009e-05,8.45743e-05,-8.24565e-05,0.512037,-0.20297162614198372,3.370146788173045e-05,8.457787650684168e-05,0.6385848942658969,-8.245310055621236e-05,-0.23257076060566662
649,0.6396,0.0109511,1185.86,0.0127924,0.0447493,0.0584581,-0.0109786,-0.227148,0.494443,-0.265035,3.37882e-05,8.46707e-05,-8.24427e-05,0.512676,-0.20319715325819343,3.378877082771403e-05,8.467428466496507e-05,0.6395847359721163,-8.243930169404834e-05,-0.23282090176248527
650,0.6406,0.0109303,1186.1,0.0127686,0.0447812,0.0584055,-0.0108948,-0.227432,0.495053,-0.265361,3.38755e-05,8.47669e-05,-8.24287e-05,0.513314,-0.20342341313624468,3.387607378124713e-05,8.477049281507831e-05,0.6405851877678346,-8.242530284807703e-05,-0.23307096138657735
651,0.6416,0.0109095,1186.33,0.0127449,0.0448132,0.0583531,-0.0108113,-0.227715,0.495662,-0.265687,3.39627e-05,8.48629e-05,-8.24146e-05,0.513952,-0.2036488124148249,3.39632767389908e-05,8.486650095784753e-05,0.6415846084398908,-8.241120401020208e-05,-0.23332093950451827
652,0.6426,0.0108887,1186.57,0.0127213,0.0448451,0.0583007,-0.010728,-0.227998,0.496271,-0.266012,3.405e-05,8.49588e-05,-8.24003e-05,0.514589,-0.20387414791443437,3.4050579707844975e-05,8.496240910105257e-05,0.6425846379445073,-8.239690518851983e-05,-0.2335700697133275
653,0.6436,0.010868,1186.81,0.0126977,0.0448769,0.0582484,-0.010645,-0.228281,0.49688,-0.266338,3.41372e-05,8.50546e-05,-8.23858e-05,0.515226,-0.20409941965312006,3.413778268090972e-05,8.505821724513751e-05,0.6435852766525756,-8.238240638314132e-05,-0.23381988514847263
654,0.6446,0.0108474,1187.04,0.0126742,0.0449087,0.0581962,-0.0105623,-0.228564,0.497488,-0.266663,3.42245e-05,8.51502e-05,-8.23712e-05,0.515863,-0.20432462764892378,3.422508566486293e-05,8.51538253812123e-05,0.6445848803495111,-8.236780758585915e-05,-0.23406885322629523
655,0.6456,0.0108268,1187.28,0.0126507,0.0449404,0.0581441,-0.0104798,-0.228846,0.498096,-0.266988,3.43117e-05,8.52456e-05,-8.23564e-05,0.5165,-0.2045489764692563,3.431228865302671e-05,8.524923350949898e-05,0.6455850919902906,-8.23530088047697e-05,-0.23431774040263975
656,0.6466,0.0108063,1187.51,0.0126273,0.0449721,0.0580921,-0.0103976,-0.229128,0.498703,-0.267312,3.4399e-05,8.53409e-05,-8.23414e-05,0.517136,-0.2047732620321413,3.4399591652301e-05,8.534454163822147e-05,0.6465842653595675,-8.233801003998398e-05,-0.23456578126995897
657,0.6476,0.0107858,1187.75,0.012604,0.0450037,0.0580401,-0.0103157,-0.229411,0.499311,-0.267637,3.44862e-05,8.5436e-05,-8.23263e-05,0.517771,-0.2049982793575329,3.448679465578586e-05,8.543964975893381e-05,0.6475856929960584,-8.232291128318359e-05,-0.23481450697093054
658,0.6486,0.0107654,1187.98,0.0125807,0.0450353,0.0579883,-0.0102341,-0.229693,0.499917,-0.267961,3.45735e-05,8.5531e-05,-8.2311e-05,0.518406,-0.20522243823486686,3.457409767038122e-05,8.553465788030401e-05,0.6485844325135233,-8.23076125425759e-05,-0.23506238691195303
659,0.6496,0.010745,1188.22,0.0125574,0.0450668,0.0579366,-0.0101527,-0.229975,0.500524,-0.268285,3.46607e-05,8.56258e-05,-8.22955e-05,0.519041,-0.20544653390830958,3.466130068896511e-05,8.562946599344201e-05,0.6495854270351618,-8.229211381827195e-05,-0.23531018655288394
660,0.6506,0.0107246,1188.45,0.0125343,0.0450982,0.0578849,-0.0100716,-0.230256,0.50113,-0.268609,3.47479e-05,8.57205e-05,-8.22799e-05,0.519676,-0.20566977206585124,3.474850371532057e-05,8.572417410701583e-05,0.6505853787587157,-8.227651510184231e-05,-0.23555790591973635
661,0.6516,0.0107044,1188.68,0.0125112,0.0451297,0.0578333,-0.00999074,-0.230538,0.501735,-0.268933,3.48352e-05,8.5815e-05,-8.22641e-05,0.52031,-0.20589374160893892,3.483580675256448e-05,8.581868221235744e-05,0.6515842850515496,-8.22607164017164e-05,-0.2358055450385148
662,0.6526,0.0106842,1188.92,0.0124881,0.045161,0.0577819,-0.00991016,-0.230819,0.502341,-0.269256,3.49224e-05,8.59093e-05,-8.22482e-05,0.520943,-0.206116854118771,3.4923009794018967e-05,8.591299030968891e-05,0.6525854484501621,-8.224481770957581e-05,-0.2360523399879374
663,0.6536,0.010664,1189.15,0.0124651,0.0451924,0.0577305,-0.00982985,-0.2311,0.502946,-0.269579,3.50096e-05,8.60036e-05,-8.22321e-05,0.521577,-0.20633990394279578,3.5010212843245014e-05,8.600729841568011e-05,0.6535855651512708,-8.222871903351692e-05,-0.2362990552354638
664,0.6546,0.0106439,1189.38,0.0124421,0.0452237,0.0576792,-0.00974981,-0.231381,0.50355,-0.269903,3.50968e-05,8.60976e-05,-8.22159e-05,0.52221,-0.20656289109862513,3.5097415899798534e-05,8.61013065047711e-05,0.6545846325205948,-8.221252036555438e-05,-0.23654645426076115
665,0.6556,0.0106238,1189.61,0.0124193,0.0452549,0.057628,-0.00967004,-0.231662,0.504154,-0.270225,3.51841e-05,8.61915e-05,-8.21995e-05,0.522842,-0.20678581560386655,3.51847189676846e-05,8.619521459407586e-05,0.6555843035088844,-8.219612171367352e-05,-0.23679224672777832
666,0.6566,0.0106038,1189.84,0.0123964,0.0452861,0.0575769,-0.00959053,-0.231943,0.504758,-0.270548,3.52713e-05,8.62853e-05,-8.21829e-05,0.523474,-0.2070086774761224,3.52719220395592e-05,8.62890226835944e-05,0.6565845784808355,-8.217952307798537e-05,-0.23703872302402051
667,0.6576,0.0105838,1190.07,0.0123737,0.0453172,0.0575258,-0.00951129,-0.232223,0.505362,-0.270871,3.53585e-05,8.63789e-05,-8.21662e-05,0.524106,-0.2072306839640703,3.535912511920536e-05,8.638263076465869e-05,0.6575854578013647,-8.216282445028256e-05,-0.23728511972127497
668,0.6586,0.0105639,1190.31,0.0123509,0.0453483,0.0574749,-0.00943232,-0.232504,0.505965,-0.271193,3.54457e-05,8.64724e-05,-8.21493e-05,0.524737,-0.20745342084587892,3.544632820617899e-05,8.64761388457147e-05,0.6585852832494961,-8.214592583866143e-05,-0.2375306743763036
669,0.6596,0.010544,1190.54,0.0123283,0.0453794,0.0574241,-0.00935361,-0.232784,0.506568,-0.271515,3.55329e-05,8.65657e-05,-8.21323e-05,0.525368,-0.20767530282311564,3.553353130092418e-05,8.656944691831647e-05,0.6595857117741821,-8.212892723502563e-05,-0.23777614997546193
670,0.6606,0.0105242,1190.77,0.0123057,0.0454104,0.0573733,-0.00927517,-0.233064,0.50717,-0.271837,3.56201e-05,8.66589e-05,-8.21151e-05,0.525999,-0.2078971226820956,3.562073440321889e-05,8.666265499090997e-05,0.6605850831532738,-8.211172864747152e-05,-0.23802154654420193
671,0.6616,0.0105045,1190.99,0.0122831,0.0454413,0.0573226,-0.00919699,-0.233344,0.507772,-0.272159,3.57073e-05,8.67519e-05,-8.20978e-05,0.526629,-0.20811888044020965,3.570793751328516e-05,8.675566305482718e-05,0.6615850563350603,-8.209443006779171e-05,-0.23826686410796727
672,0.6626,0.0104847,1191.22,0.0122606,0.0454722,0.057272,-0.00911908,-0.233624,0.508374,-0.27248,3.57945e-05,8.68448e-05,-8.20803e-05,0.527259,-0.20834057611484358,3.57951406306789e-05,8.684857111873612e-05,0.6625856316819356,-8.207693150430462e-05,-0.23851134120391548
673,0.6636,0.0104651,1191.45,0.0122382,0.0455031,0.0572215,-0.00904143,-0.233903,0.508975,-0.272802,3.58817e-05,8.69375e-05,-8.20627e-05,0.527889,-0.20856141828519226,3.5882343755844204e-05,8.694127917396877e-05,0.6635851459705346,-8.205933294869183e-05,-0.23875650107918966
674,0.6646,0.0104455,1191.68,0.0122158,0.045534,0.0571711,-0.00896405,-0.234182,0.509576,-0.273123,3.59689e-05,8.70301e-05,-8.20449e-05,0.528518,-0.20878219884916982,3.596954688855902e-05,8.70338872289711e-05,0.6645852611477703,-8.204153440927175e-05,-0.23900082102689368
675,0.6656,0.0104259,1191.91,0.0121935,0.0455647,0.0571208,-0.00888694,-0.234462,0.510176,-0.273444,3.60561e-05,8.71225e-05,-8.2027e-05,0.529147,-0.2090037088206489,3.6056750029045403e-05,8.712629527529714e-05,0.66558431198974,-8.202363587761496e-05,-0.23924506256048073
676,0.6666,0.0104064,1192.14,0.0121712,0.0455955,0.0570705,-0.00881008,-0.234741,0.510777,-0.273764,3.61433e-05,8.72148e-05,-8.20089e-05,0.529775,-0.2092243660027796,3.6143953176859256e-05,8.721860332117082e-05,0.6665856290268759,-8.200553736203986e-05,-0.23948846519396294
677,0.6676,0.0103869,1192.36,0.012149,0.0456262,0.0570204,-0.00873349,-0.23502,0.511376,-0.274085,3.62304e-05,8.7307e-05,-8.19907e-05,0.530403,-0.20944496163014392,3.623105632888368e-05,8.731081136703622e-05,0.6675842128646647,-8.198733885445009e-05,-0.23973255021889328
678,0.6686,0.0103675,1192.59,0.0121268,0.0456569,0.0569703,-0.00865717,-0.235298,0.511976,-0.274405,3.63176e-05,8.7399e-05,-8.19723e-05,0.531031,-0.20966470538501358,3.631825949201861e-05,8.740281940378125e-05,0.6685850636175836,-8.196894036283098e-05,-0.23997579688128157
679,0.6696,0.0103481,1192.82,0.0121047,0.0456875,0.0569203,-0.0085811,-0.235577,0.512575,-0.274725,3.64048e-05,8.74908e-05,-8.19538e-05,0.531658,-0.20988517817482688,3.640546266270306e-05,8.749462743162795e-05,0.6695848454754636,-8.195044187908618e-05,-0.2402189657171908
680,0.6706,0.0103288,1193.04,0.0120827,0.0457181,0.0568704,-0.0085053,-0.235855,0.513174,-0.275045,3.64919e-05,8.75825e-05,-8.19351e-05,0.532285,-0.2101047995665064,3.6492565837376034e-05,8.758633545902228e-05,0.6705852263820733,-8.193174341142306e-05,-0.24046205675152144
681,0.6716,0.0103095,1193.27,0.0120607,0.0457486,0.0568206,-0.00842977,-0.236133,0.513772,-0.275365,3.65791e-05,8.76741e-05,-8.19163e-05,0.532911,-0.21032435991192477,3.657976902338156e-05,8.76779434861863e-05,0.6715845351109802,-8.191294495152324e-05,-0.24070507000916597
682,0.6726,0.0102903,1193.49,0.0120387,0.0457791,0.0567709,-0.00835449,-0.236411,0.51437,-0.275685,3.66663e-05,8.77655e-05,-8.18973e-05,0.533537,-0.21054385922805074,3.66669722169366e-05,8.776935150422993e-05,0.6725844416052207,-8.18939465077051e-05,-0.24094800551500906
683,0.6736,0.0102711,1193.72,0.0120168,0.0458096,0.0567212,-0.00827948,-0.236689,0.514968,-0.276004,3.67534e-05,8.78568e-05,-8.18782e-05,0.534163,-0.21076329753184786,3.675407541448017e-05,8.786065952159916e-05,0.6735849462223658,-8.187484807165024e-05,-0.24119010448441114
684,0.6746,0.010252,1193.94,0.011995,0.0458401,0.0566717,-0.00820473,-0.236967,0.515565,-0.276323,3.68406e-05,8.79479e-05,-8.1859e-05,0.534788,-0.21098267484027522,3.6841278623134244e-05,8.795176752984801e-05,0.6745843747349878,-8.18556496434697e-05,-0.24143212623655874
685,0.6756,0.0102329,1194.17,0.0119732,0.0458705,0.0566222,-0.00813024,-0.237245,0.516162,-0.276642,3.69277e-05,8.80389e-05,-8.18396e-05,0.535413,-0.21120199117028726,3.692838183599889e-05,8.80427755376445e-05,0.6755844000845699,-8.183625123125982e-05,-0.2416740707960804
686,0.6766,0.0102139,1194.39,0.0119515,0.0459008,0.0565728,-0.00805601,-0.237522,0.516759,-0.276961,3.70148e-05,8.81298e-05,-8.18201e-05,0.536038,-0.2114204579596859,3.701548505619101e-05,8.813368354498863e-05,0.6765850226275301,-8.181675282692424e-05,-0.24191593818759638
687,0.6776,0.0101949,1194.62,0.0119298,0.0459311,0.0565235,-0.00798204,-0.237799,0.517355,-0.27728,3.7102e-05,8.82205e-05,-8.18004e-05,0.536662,-0.2116388642421645,3.710268828771568e-05,8.822439154276829e-05,0.6775845651350956,-8.179705443844831e-05,-0.2421577284357196
688,0.6786,0.010176,1194.84,0.0119082,0.0459614,0.0564743,-0.00790834,-0.238076,0.517951,-0.277598,3.71891e-05,8.83111e-05,-8.17806e-05,0.537286,-0.211857210034481,3.718979152322888e-05,8.831499953987354e-05,0.6785847035475578,-8.177725605784669e-05,-0.24239868396411746
689,0.6796,0.0101571,1195.06,0.0118866,0.0459917,0.0564251,-0.00783489,-0.238353,0.518547,-0.277916,3.72762e-05,8.84015e-05,-8.17606e-05,0.53791,-0.2120754953533891,3.7276894766069546e-05,8.840540752763637e-05,0.6795854382201814,-8.175725769321573e-05,-0.2426395628808392
690,0.6806,0.0101383,1195.29,0.0118651,0.0460219,0.0563761,-0.0077617,-0.23863,0.519142,-0.278234,3.73634e-05,8.84918e-05,-8.17406e-05,0.538533,-0.21229372021563742,3.736409802046481e-05,8.849571551472479e-05,0.6805850889225145,-8.173725932814069e-05,-0.24288036521024348
691,0.6816,0.0101195,1195.51,0.0118436,0.0460521,0.0563271,-0.00768878,-0.238907,0.519737,-0.278552,3.74505e-05,8.85819e-05,-8.17203e-05,0.539156,-0.21251188463797022,3.7451201278626556e-05,8.858582349224875e-05,0.6815853345940013,-8.171696098724368e-05,-0.24312109097668122
692,0.6826,0.0101007,1195.73,0.0118222,0.0460822,0.0562782,-0.00761611,-0.239183,0.520331,-0.27887,3.75376e-05,8.86719e-05,-8.17e-05,0.539778,-0.21272920136672202,3.7538304544559864e-05,8.86758314690983e-05,0.6825844930034195,-8.169666264590258e-05,-0.2433617402044954
693,0.6836,0.010082,1195.95,0.0118008,0.0461124,0.0562294,-0.00754371,-0.239459,0.520925,-0.279187,3.76247e-05,8.87618e-05,-8.16795e-05,0.5404,-0.2129464581243331,3.7625407817820644e-05,8.87657394450514e-05,0.6835842450892373,-8.167616432042113e-05,-0.2436015565199564
694,0.6846,0.0100634,1196.17,0.0117795,0.0461424,0.0561807,-0.00747156,-0.239735,0.521519,-0.279505,3.77118e-05,8.88515e-05,-8.16588e-05,0.541022,-0.21316365492735323,3.7712511098852985e-05,8.885544741144003e-05,0.6845845912042032,-8.165546601091034e-05,-0.24384205298401862
695,0.6856,0.0100448,1196.39,0.0117583,0.0461725,0.056132,-0.00739967,-0.240011,0.522113,-0.279822,3.77989e-05,8.89411e-05,-8.16381e-05,0.541643,-0.2133807917923275,3.779961438743484e-05,8.89450553769322e-05,0.6855855317012758,-8.163476770095546e-05,-0.24408171706445891
696,0.6866,0.0100262,1196.61,0.0117371,0.0462025,0.0560835,-0.00732804,-0.240287,0.522706,-0.280138,3.7886e-05,8.90305e-05,-8.16172e-05,0.542264,-0.21359786873579667,3.788671768356622e-05,8.903446333263787e-05,0.6865853803473985,-8.161386940697124e-05,-0.24432054950435367
697,0.6876,0.0100077,1196.83,0.0117159,0.0462325,0.056035,-0.00725667,-0.240563,0.523298,-0.280455,3.79731e-05,8.91198e-05,-8.15961e-05,0.542885,-0.21381488577429664,3.797382098724711e-05,8.912377128744708e-05,0.6875841344946227,-8.159277112873564e-05,-0.24456006192543633
698,0.6886,0.00998923,1197.05,0.0116948,0.0462625,0.0559866,-0.00718556,-0.240838,0.523891,-0.280772,3.80602e-05,8.9209e-05,-8.1575e-05,0.543505,-0.21403105695580893,3.806092429869956e-05,8.92129792411378e-05,0.6885851686636748,-8.157167285016698e-05,-0.24479949843311444
699,0.6896,0.0099708,1197.27,0.0116737,0.0462924,0.0559383,-0.0071147,-0.241114,0.524483,-0.281088,3.81473e-05,8.9298e-05,-8.15537e-05,0.544125,-0.21424795445085787,3.8148027617479485e-05,8.930198718504201e-05,0.6895851070360783,-8.155037458745795e-05,-0.24503810408993032
700,0.6906,0.00995243,1197.49,0.0116527,0.0463223,0.05589,-0.0070441,-0.241389,0.525075,-0.281404,3.82343e-05,8.93869e-05,-8.15322e-05,0.544744,-0.2144640065548581,3.823503094024794e-05,8.939089512804976e-05,0.6905856375472541,-8.152887634049755e-05,-0.24527663435927038
701,0.6916,0.0099341,1197.71,0.0116318,0.0463522,0.0558419,-0.00697376,-0.241664,0.525666,-0.28172,3.83214e-05,8.94757e-05,-8.15107e-05,0.545363,-0.21467999925269832,3.8322134274126896e-05,8.947970306993902e-05,0.6915850689619374,-8.150737809320407e-05,-0.24551508926495358
702,0.6926,0.00991581,1197.93,0.0116109,0.046382,0.0557938,-0.00690368,-0.241939,0.526257,-0.282036,3.84085e-05,8.95643e-05,-8.1489e-05,0.545982,-0.21489593256071315,3.8409237615777414e-05,8.956831100159768e-05,0.6925850912151623,-8.148567986165922e-05,-0.24575346883079074
703,0.6936,0.00989757,1198.15,0.01159,0.0464118,0.0557458,-0.00683385,-0.242213,0.526848,-0.282351,3.84956e-05,8.96528e-05,-8.14671e-05,0.5466,-0.21511102160664652,3.8496340965199494e-05,8.965681893235988e-05,0.6935857046562177,-8.146378164597401e-05,-0.24599101907198184
704,0.6946,0.00987938,1198.37,0.0115692,0.0464416,0.0556979,-0.00676429,-0.242488,0.527438,-0.282667,3.85826e-05,8.97411e-05,-8.14452e-05,0.547218,-0.21532683639981054,3.858334431816601e-05,8.974512685289149e-05,0.6945852150485365,-8.144188342973369e-05,-0.24622924826775983
705,0.6956,0.00986123,1198.58,0.0115485,0.0464714,0.0556501,-0.00669497,-0.242762,0.528028,-0.282982,3.86697e-05,8.98293e-05,-8.14231e-05,0.547836,-0.21554180739426587,3.867044768246508e-05,8.98333347723046e-05,0.6955853153259859,-8.1419785229353e-05,-0.24646664866203039
706,0.6966,0.00984312,1198.8,0.0115278,0.0465011,0.0556023,-0.00662592,-0.243036,0.528617,-0.283297,3.87567e-05,8.99174e-05,-8.14009e-05,0.548453,-0.21575671949473751,3.8757451050530634e-05,8.992144269059921e-05,0.6965843092515429,-8.139758703662459e-05,-0.24670397428695345
707,0.6976,0.00982506,1199.02,0.0115071,0.0465308,0.0555547,-0.00655711,-0.24331,0.529207,-0.283612,3.88438e-05,9.00053e-05,-8.13785e-05,0.54907,-0.21597157271736023,3.884455443015078e-05,9.000935059844117e-05,0.6975855893425826,-8.137518885964479e-05,-0.24694122516607786
708,0.6986,0.00980705,1199.23,0.0114865,0.0465605,0.0555071,-0.00648857,-0.243584,0.529796,-0.283926,3.89308e-05,9.00931e-05,-8.13561e-05,0.549687,-0.21618636707826444,3.893155781353741e-05,9.009715850516464e-05,0.6985857617765723,-8.13527906822209e-05,-0.24717764850096957
709,0.6996,0.00978908,1199.45,0.011466,0.0465901,0.0554595,-0.00642028,-0.243858,0.530384,-0.284241,3.90178e-05,9.01808e-05,-8.13335e-05,0.550303,-0.21640110259357592,3.901856120425151e-05,9.018486641054757e-05,0.699584823899976,-8.133019252054563e-05,-0.24741475019621428
710,0.7006,0.00977115,1199.67,0.0114455,0.0466198,0.0554121,-0.00635224,-0.244132,0.530972,-0.284555,3.91049e-05,9.02683e-05,-8.13108e-05,0.550919,-0.21661577927941622,3.910566460652021e-05,9.027237430547785e-05,0.7005844736446523,-8.130749436652263e-05,-0.24765102486758794
711,0.7016,0.00975327,1199.88,0.011425,0.0466494,0.0553647,-0.00628446,-0.244405,0.53156,-0.284869,3.91919e-05,9.03557e-05,-8.12879e-05,0.551534,-0.21682961398190803,3.919266801255539e-05,9.035978219928964e-05,0.7015847113562237,-8.128459622813722e-05,-0.24788722536036145
712,0.7026,0.00973543,1200.1,0.0114046,0.046679,0.0553175,-0.00621694,-0.244678,0.532148,-0.285183,3.92789e-05,9.0443e-05,-8.1265e-05,0.552149,-0.2170433903154937,3.9279671426140084e-05,9.044709009153884e-05,0.7025855373805165,-8.126169808930772e-05,-0.24812335169782318
713,0.7036,0.00971764,1200.31,0.0113843,0.0467085,0.0552703,-0.00614967,-0.244951,0.532735,-0.285497,3.93659e-05,9.05301e-05,-8.12419e-05,0.552764,-0.21725710829610578,3.93666748472743e-05,9.053419797311335e-05,0.7035852484774601,-8.123859996622684e-05,-0.2483594039032544
714,0.7046,0.00969989,1200.53,0.011364,0.0467381,0.0552231,-0.00608265,-0.245224,0.533322,-0.28581,3.94529e-05,9.06171e-05,-8.12187e-05,0.553378,-0.21747076793967268,3.9453678275958026e-05,9.062120585334732e-05,0.7045855465770858,-8.121540185068721e-05,-0.24859463059493503
715,0.7056,0.00968218,1200.74,0.0113437,0.0467676,0.0551761,-0.00601589,-0.245497,0.533908,-0.286123,3.95399e-05,9.0704e-05,-8.11954e-05,0.553993,-0.21768436926211798,3.954068171219127e-05,9.070811373224075e-05,0.7055847264384867,-8.119210374268881e-05,-0.24882978367218234
716,0.7066,0.00966452,1200.96,0.0113235,0.0467971,0.0551291,-0.00594938,-0.24577,0.534494,-0.286436,3.96269e-05,9.07907e-05,-8.11719e-05,0.554606,-0.21789791227936128,3.9627685155974035e-05,9.079482160023744e-05,0.7065844919908768,-8.116860565043904e-05,-0.24906486315803422
717,0.7076,0.00964689,1201.17,0.0113034,0.0468265,0.0550822,-0.00588313,-0.246042,0.53508,-0.286749,3.97139e-05,9.08773e-05,-8.11483e-05,0.555219,-0.21811061511832386,3.9714688607306314e-05,9.088142946689359e-05,0.707584843577572,-8.114500756573051e-05,-0.24929986907552104
718,0.7086,0.00962932,1201.38,0.0112833,0.046856,0.0550354,-0.00581712,-0.246314,0.535666,-0.287062,3.98009e-05,9.09638e-05,-8.11247e-05,0.555832,-0.21832326010998182,3.9801692066410155e-05,9.096793733198716e-05,0.7085857815420888,-8.112140948046687e-05,-0.24953480144766615
719,0.7096,0.00961178,1201.6,0.0112632,0.0468854,0.0549887,-0.00575138,-0.246586,0.536251,-0.287375,3.98879e-05,9.10501e-05,-8.11008e-05,0.556445,-0.21853584727006736,3.988869553284147e-05,9.105424518618399e-05,0.7095855966416942,-8.10975114190482e-05,-0.2497696602974857
720,0.7106,0.00959429,1201.81,0.0112432,0.0469148,0.054942,-0.00568588,-0.246858,0.536835,-0.287687,3.99749e-05,9.11363e-05,-8.10769e-05,0.557057,-0.2187483766143088,3.997569900704434e-05,9.114045303881824e-05,0.7105842862191054,-8.107361335696339e-05,-0.25000369565205904
721,0.7116,0.00957684,1202.02,0.0112232,0.0469442,0.0548955,-0.00562064,-0.24713,0.53742,-0.287999,4.00619e-05,9.12224e-05,-8.10529e-05,0.557669,-0.21896084815842976,4.0062702488574686e-05,9.122656088966785e-05,0.7115852707859827,-8.104961530241983e-05,-0.25023765799899156
722,0.7126,0.00955944,1202.23,0.0112033,0.0469736,0.054849,-0.00555565,-0.247402,0.538004,-0.288311,4.01489e-05,9.13083e-05,-8.10287e-05,0.558281,-0.2191732619181498,4.014970597787659e-05,9.131246872962073e-05,0.7125851285141609,-8.102541726351387e-05,-0.25047154736105814
723,0.7136,0.00954208,1202.44,0.0111834,0.0470029,0.0548025,-0.00549091,-0.247673,0.538588,-0.288623,4.02358e-05,9.13941e-05,-8.10044e-05,0.558892,-0.2193848372944116,4.023660947072294e-05,9.139827656801103e-05,0.7135855703297893,-8.100111923214914e-05,-0.25070536376102637
724,0.7146,0.00952476,1202.66,0.0111636,0.0470322,0.0547562,-0.00542642,-0.247945,0.539171,-0.288935,4.03228e-05,9.14798e-05,-8.098e-05,0.559503,-0.21959713574476936,4.032361297512388e-05,9.148398440439465e-05,0.7145848819883356,-8.097672120832566e-05,-0.2509391072216569
725,0.7156,0.00950748,1202.87,0.0111438,0.0470615,0.0547099,-0.00536219,-0.248216,0.539754,-0.289246,4.04097e-05,9.15653e-05,-8.09555e-05,0.560113,-0.21980859626678761,4.0410516482847214e-05,9.156949223010358e-05,0.715584776415439,-8.09522231919324e-05,-0.25117202893810675
726,0.7166,0.00949024,1203.08,0.0111241,0.0470908,0.0546637,-0.0052982,-0.248487,0.540337,-0.289557,4.04967e-05,9.16507e-05,-8.09309e-05,0.560723,-0.22001999949076867,4.049752000234719e-05,9.165490005380583e-05,0.7165852539509534,-8.092762518308039e-05,-0.25140487822716573
727,0.7176,0.00947305,1203.29,0.0111044,0.0471201,0.0546176,-0.00523447,-0.248758,0.540919,-0.289868,4.05836e-05,9.1736e-05,-8.09062e-05,0.561333,-0.2202313454322382,4.05844235253916e-05,9.174020787550141e-05,0.7175845973494734,-8.090292718165859e-05,-0.2516376551113554
728,0.7186,0.00945589,1203.5,0.0110848,0.0471494,0.0545715,-0.00517099,-0.249029,0.541501,-0.290179,4.06706e-05,9.18212e-05,-8.08813e-05,0.561942,-0.2204426341067175,4.0671427059990606e-05,9.182541569541236e-05,0.7185845225351348,-8.087802919587439e-05,-0.25187035961319015
729,0.7196,0.00943878,1203.71,0.0110652,0.0471786,0.0545256,-0.00510776,-0.249299,0.542083,-0.29049,4.07575e-05,9.19062e-05,-8.08564e-05,0.562551,-0.2206530861831999,4.075833059813405e-05,9.191042350420453e-05,0.7195850298466366,-8.085313120942406e-05,-0.25210299175517725
730,0.7206,0.00942171,1203.92,0.0110457,0.0472079,0.0544797,-0.00504478,-0.24957,0.542664,-0.290801,4.08444e-05,9.19911e-05,-8.08313e-05,0.56316,-0.22086426058142095,4.0845234143827014e-05,9.199533131099003e-05,0.7205843990376153,-8.08280332385003e-05,-0.25233555155981735
731,0.7216,0.00940469,1204.13,0.0110262,0.0472371,0.0544338,-0.00498205,-0.24984,0.543245,-0.291111,4.09314e-05,9.20759e-05,-8.08061e-05,0.563769,-0.22107459883412206,4.093223770107457e-05,9.208013911576884e-05,0.7215843490308003,-8.080283527500676e-05,-0.2525672916172691
732,0.7226,0.0093877,1204.34,0.0110067,0.0472663,0.0543881,-0.00491957,-0.25011,0.543826,-0.291421,4.10183e-05,9.21605e-05,-8.07808e-05,0.564377,-0.22128488030316096,4.1019141261866565e-05,9.216474690942889e-05,0.7225848801637365,-8.077753731905446e-05,-0.25279895984643685
733,0.7236,0.00937076,1204.54,0.0109873,0.0472955,0.0543424,-0.00485734,-0.25038,0.544406,-0.291731,4.11052e-05,9.22451e-05,-8.07554e-05,0.564984,-0.2214951050038675,4.110604483020808e-05,9.224935470997231e-05,0.7235842691890324,-8.075213937042136e-05,-0.25303055626958426
734,0.7246,0.00935385,1204.75,0.0109679,0.0473246,0.0542968,-0.00479536,-0.25065,0.544986,-0.292041,4.11921e-05,9.23294e-05,-8.07299e-05,0.565591,-0.22170527295156672,4.1192948406099106e-05,9.233366249028485e-05,0.7245842380280929,-8.07266414293295e-05,-0.2532620809089674
735,0.7256,0.00933699,1204.96,0.0109486,0.0473538,0.0542513,-0.00473363,-0.25092,0.545566,-0.292351,4.1279e-05,9.24137e-05,-8.07043e-05,0.566198,-0.22191538416157996,4.127985198953965e-05,9.241797027748078e-05,0.7255847870173073,-8.070104349555685e-05,-0.25349353378683603
736,0.7266,0.00932017,1205.17,0.0109294,0.0473829,0.0542058,-0.00467215,-0.251189,0.546145,-0.29266,4.13659e-05,9.24978e-05,-8.06785e-05,0.566805,-0.22212466077427417,4.136675558052971e-05,9.250207805333588e-05,0.7265841899082073,-8.067524557731076e-05,-0.2537241686499744
737,0.7276,0.00930339,1205.37,0.0109102,0.0474121,0.0541605,-0.00461092,-0.251459,0.546724,-0.292969,4.14528e-05,9.25819e-05,-8.06527e-05,0.567411,-0.22233465876486058,4.1453659179291336e-05,9.258618583629641e-05,0.7275841716209337,-8.064944765839854e-05,-0.2539547322579496
738,0.7286,0.00928665,1205.58,0.010891,0.0474412,0.0541152,-0.00454993,-0.251728,0.547303,-0.293278,4.15397e-05,9.26657e-05,-8.06268e-05,0.568017,-0.22254382260785477,4.154056278538043e-05,9.266999359858197e-05,0.7285847324907215,-8.062354974691655e-05,-0.25418522463277604
739,0.7296,0.00926995,1205.79,0.0108718,0.0474703,0.0540699,-0.0044892,-0.251997,0.547881,-0.293587,4.16266e-05,9.27495e-05,-8.06007e-05,0.568623,-0.22275293019334208,4.162746639901904e-05,9.275380136775091e-05,0.7295841432679919,-8.05974518508501e-05,-0.25441564579646125
740,0.7306,0.00925329,1206.0,0.0108528,0.0474994,0.0540248,-0.00442871,-0.252266,0.548459,-0.293896,4.17135e-05,9.28331e-05,-8.05746e-05,0.569228,-0.22296198153645375,4.171437002020717e-05,9.283740912557903e-05,0.7305841318716675,-8.057135395411752e-05,-0.25464599577100633
741,0.7316,0.00923667,1206.2,0.0108337,0.0475285,0.0539797,-0.00436848,-0.252534,0.549037,-0.294204,4.18004e-05,9.29166e-05,-8.05483e-05,0.569833,-0.2231701998229053,4.1801273648944814e-05,9.292091688095638e-05,0.7315846986358279,-8.054505607280049e-05,-0.254875529454307
742,0.7326,0.00922009,1206.41,0.0108147,0.0475576,0.0539347,-0.00430849,-0.252803,0.549614,-0.294513,4.18872e-05,9.3e-05,-8.05219e-05,0.570437,-0.22337913893558248,4.1888077281004854e-05,9.300432463410502e-05,0.7325841113097695,-8.051865819880266e-05,-0.25510573734675457
743,0.7336,0.00920355,1206.61,0.0107958,0.0475867,0.0538897,-0.00424874,-0.253071,0.550191,-0.294821,4.19741e-05,9.30833e-05,-8.04955e-05,0.571041,-0.22358724543883068,4.197498092484153e-05,9.308763238480289e-05,0.7335841008112225,-8.04922603241387e-05,-0.2553351294514542
744,0.7346,0.00918705,1206.82,0.0107769,0.0476157,0.0538449,-0.00418925,-0.25334,0.550768,-0.295129,4.2061e-05,9.31664e-05,-8.04689e-05,0.571645,-0.2237960723813246,4.2061884576227726e-05,9.317074012393789e-05,0.7345846674731129,-8.046566246489029e-05,-0.25556445091426505
745,0.7356,0.00917059,1207.02,0.010758,0.0476448,0.0538001,-0.00413,-0.253608,0.551345,-0.295437,4.21478e-05,9.32494e-05,-8.04422e-05,0.572249,-0.224004067161381,4.2148688230936315e-05,9.325374786040008e-05,0.7355858116285576,-8.043896461296107e-05,-0.2557937017569414
746,0.7366,0.00915417,1207.23,0.0107392,0.0476738,0.0537554,-0.004071,-0.253876,0.55192,-0.295744,4.22347e-05,9.33323e-05,-8.04154e-05,0.572852,-0.2242120062063051,4.223559189742154e-05,9.333665559463356e-05,0.7365840604392733,-8.041216676835106e-05,-0.25602213802374085
747,0.7376,0.00913779,1207.43,0.0107204,0.0477029,0.0537107,-0.00401225,-0.254144,0.552496,-0.296052,4.23215e-05,9.3415e-05,-8.03886e-05,0.573454,-0.2244198895310321,4.2322395567229165e-05,9.341936331708212e-05,0.7375846209918622,-8.038536892307491e-05,-0.25625124792049425
748,0.7386,0.00912145,1207.64,0.0107017,0.0477319,0.0536661,-0.00395375,-0.254411,0.553071,-0.296359,4.24084e-05,9.34977e-05,-8.03616e-05,0.574057,-0.22462694177782228,4.2409299248813426e-05,9.350207104619201e-05,0.7385840194484532,-8.035837109310329e-05,-0.25647954374218096
749,0.7396,0.00910514,1207.84,0.010683,0.0477609,0.0536216,-0.00389549,-0.254679,0.553647,-0.296666,4.24952e-05,9.35802e-05,-8.03345e-05,0.574659,-0.22483471391471588,4.249610293372008e-05,9.3584578763517e-05,0.739585732309264,-8.033127327045086e-05,-0.2567077694878077
750,0.7406,0.00908888,1208.04,0.0106644,0.04779,0.0535772,-0.00383748,-0.254946,0.554221,-0.296973,4.25821e-05,9.36626e-05,-8.03073e-05,0.575261,-0.22504165541818055,4.2583006630403375e-05,9.366698647816918e-05,0.7405845411503233,-8.030407545511764e-05,-0.2569359251788844
751,0.7416,0.00907266,1208.25,0.0106458,0.047819,0.0535328,-0.00377971,-0.255214,0.554796,-0.29728,4.26689e-05,9.37449e-05,-8.02801e-05,0.575862,-0.22524931642671042,4.2669810330409064e-05,9.374929419037059e-05,0.7415856650570247,-8.027687763900726e-05,-0.25716401083691454
752,0.7426,0.00905647,1208.45,0.0106272,0.047848,0.0534885,-0.00372219,-0.255481,0.55537,-0.297586,4.27557e-05,9.3827e-05,-8.02527e-05,0.576463,-0.22545614724608143,4.275661403796427e-05,9.383140189056505e-05,0.7425856221890095,-8.024947983820141e-05,-0.2573912838750503
753,0.7436,0.00904033,1208.65,0.0106087,0.047877,0.0534443,-0.00366491,-0.255748,0.555943,-0.297893,4.28425e-05,9.3909e-05,-8.02252e-05,0.577064,-0.22566292284899525,4.284341775306899e-05,9.39134095880867e-05,0.7435844098758684,-8.022198204471476e-05,-0.2576192297594171
754,0.7446,0.00902422,1208.85,0.0105903,0.047906,0.0534002,-0.00360789,-0.256014,0.556517,-0.298199,4.29294e-05,9.39909e-05,-8.01977e-05,0.577664,-0.22586886911944914,4.293032147995035e-05,9.399531728293553e-05,0.7445855146167111,-8.019448425045095e-05,-0.2578463635218726
755,0.7456,0.00900815,1209.06,0.0105718,0.047935,0.0533561,-0.0035511,-0.256281,0.55709,-0.298505,4.30162e-05,9.40727e-05,-8.017e-05,0.578264,-0.2260755345403328,4.301712520993206e-05,9.407712497511156e-05,0.7455854485703051,-8.016678647138065e-05,-0.2580734277920299
756,0.7466,0.00899212,1209.26,0.0105535,0.047964,0.0533121,-0.00349456,-0.256547,0.557662,-0.298811,4.3103e-05,9.41544e-05,-8.01423e-05,0.578864,-0.22628137107067292,4.310392894768533e-05,9.415883266461478e-05,0.7465842090651573,-8.013908869164421e-05,-0.25830042259115005
757,0.7476,0.00897613,1209.46,0.0105351,0.047993,0.0532681,-0.00343827,-0.256814,0.558235,-0.299117,4.31898e-05,9.42359e-05,-8.01144e-05,0.579463,-0.22648792636823767,4.3190732692766076e-05,9.4240340341889e-05,0.7475852885988479,-8.011119092710128e-05,-0.25852734794048793
758,0.7486,0.00896017,1209.66,0.0105168,0.048022,0.0532243,-0.00338222,-0.25708,0.558807,-0.299422,4.32766e-05,9.43173e-05,-8.00865e-05,0.580062,-0.2266936532169398,4.327753644561838e-05,9.43217480164904e-05,0.7485851933294168,-8.008329316189222e-05,-0.25875346261512533
759,0.7496,0.00894426,1209.86,0.0104986,0.048051,0.0531805,-0.00332642,-0.257346,0.559379,-0.299727,4.33634e-05,9.43986e-05,-8.00584e-05,0.580661,-0.2268993253495778,4.336434020579816e-05,9.440305568797491e-05,0.7495856701690988,-8.005519541176565e-05,-0.25897950833530314
760,0.7506,0.00892838,1210.06,0.0104804,0.04808,0.0531368,-0.00327086,-0.257612,0.55995,-0.300032,4.34502e-05,9.44798e-05,-8.00303e-05,0.581259,-0.22710494278070403,4.345114397352745e-05,9.448426335678661e-05,0.7505849688593904,-8.002709766097293e-05,-0.2592054851220491
761,0.7516,0.00891254,1210.26,0.0104622,0.048109,0.0530931,-0.00321555,-0.257878,0.560521,-0.300337,4.3537e-05,9.45608e-05,-8.00021e-05,0.581857,-0.2273105055248673,4.3537947749028305e-05,9.456527101336931e-05,0.7515848383121715,-7.99988999173884e-05,-0.25943139299638474
762,0.7526,0.00889674,1210.46,0.0104441,0.048138,0.0530495,-0.00316048,-0.258143,0.561092,-0.300642,4.36237e-05,9.46418e-05,-7.99737e-05,0.582454,-0.22751524111223986,4.3624651527407465e-05,9.46462786763913e-05,0.7525852788534402,-7.997050218888635e-05,-0.2596572319793252
763,0.7536,0.00888097,1210.66,0.010426,0.048167,0.053006,-0.00310565,-0.258409,0.561662,-0.300947,4.37105e-05,9.47226e-05,-7.99453e-05,0.583052,-0.2277206947315612,4.371145531778531e-05,9.47270863271843e-05,0.7535845372239671,-7.994210445960714e-05,-0.2598830020918792
764,0.7546,0.00886524,1210.86,0.010408,0.048196,0.0529625,-0.00305107,-0.258674,0.562232,-0.301251,4.37973e-05,9.48033e-05,-7.99168e-05,0.583649,-0.22792532163319534,4.379825911571267e-05,9.480779397486039e-05,0.7545843653341258,-7.991360673764714e-05,-0.2601079634633823
765,0.7556,0.00884955,1211.06,0.01039,0.0482249,0.0529191,-0.00299673,-0.258939,0.562802,-0.301556,4.38841e-05,9.48839e-05,-7.98883e-05,0.584245,-0.22812989431588493,4.3885062921189544e-05,9.488840161964163e-05,0.7555847635087605,-7.988510901468793e-05,-0.26033359612379614
766,0.7566,0.0088339,1211.26,0.010372,0.0482539,0.0528758,-0.00294263,-0.259204,0.563372,-0.30186,4.39708e-05,9.49643e-05,-7.98596e-05,0.584841,-0.22833441279399602,4.397176672976677e-05,9.496880925197182e-05,0.7565857320728999,-7.985641130703325e-05,-0.26055842053553246
767,0.7576,0.00881829,1211.46,0.0103541,0.0482829,0.0528326,-0.00288878,-0.259469,0.563941,-0.302164,4.40576e-05,9.50447e-05,-7.98308e-05,0.585437,-0.2285388770818909,4.405857055034268e-05,9.504921689051926e-05,0.7575855137653669,-7.982761360647572e-05,-0.26078317661103523
768,0.7586,0.00880271,1211.66,0.0103362,0.0483119,0.0527894,-0.00283517,-0.259734,0.564509,-0.302467,4.41443e-05,9.51249e-05,-7.9802e-05,0.586033,-0.2287432871939281,4.414527437401894e-05,9.51294245168377e-05,0.7585841059105072,-7.979881590514104e-05,-0.2610071253785704
769,0.7596,0.00878717,1211.85,0.0103184,0.0483409,0.0527463,-0.00278181,-0.259998,0.565078,-0.302771,4.42311e-05,9.5205e-05,-7.9773e-05,0.586628,-0.22894687209172004,4.423207820947184e-05,9.52095321398172e-05,0.7595850250012466,-7.976981821888884e-05,-0.26123174506853264
770,0.7606,0.00877166,1212.05,0.0103006,0.0483699,0.0527033,-0.00272868,-0.260262,0.565646,-0.303074,4.43178e-05,9.5285e-05,-7.9744e-05,0.587223,-0.22915040325019276,4.431878204824713e-05,9.528953975990184e-05,0.7605847531913754,-7.974082053174847e-05,-0.2614555579404144
771,0.7616,0.00875619,1212.25,0.0102828,0.048399,0.0526603,-0.0026758,-0.260527,0.566214,-0.303377,4.44046e-05,9.53649e-05,-7.97149e-05,0.587818,-0.2293546513292657,4.440558589879906e-05,9.536944737664754e-05,0.7615850493884146,-7.971172285181627e-05,-0.26167930300726905
772,0.7626,0.00874076,1212.45,0.0102651,0.048428,0.0526174,-0.00262316,-0.260791,0.566781,-0.30368,4.44913e-05,9.54446e-05,-7.96857e-05,0.588412,-0.22955807484822877,4.4492289752673386e-05,9.544915498072015e-05,0.7625841513300518,-7.968252517898122e-05,-0.2619029802896382
773,0.7636,0.00872537,1212.64,0.0102475,0.048457,0.0525745,-0.00257077,-0.261055,0.567349,-0.303983,4.45781e-05,9.55243e-05,-7.96564e-05,0.589006,-0.2297614446704711,4.457909361832435e-05,9.552886259123206e-05,0.7635855835078218,-7.965322751324333e-05,-0.2621265898080577
774,0.7646,0.00871001,1212.84,0.0102298,0.048486,0.0525318,-0.00251861,-0.261319,0.567915,-0.304286,4.46648e-05,9.56038e-05,-7.9627e-05,0.589599,-0.22996476081016692,4.4665797487075665e-05,9.560837018884882e-05,0.7645840554890024,-7.962382985460259e-05,-0.26235013158305664
775,0.7656,0.00869469,1213.04,0.0102123,0.0485151,0.0524891,-0.0024667,-0.261582,0.568482,-0.304589,4.47515e-05,9.56832e-05,-7.95976e-05,0.590192,-0.2301672534491246,4.4752501363376496e-05,9.568777778334869e-05,0.7655848583492635,-7.959443219507367e-05,-0.2625736056351583
776,0.7666,0.0086794,1213.23,0.0101947,0.0485441,0.0524464,-0.00241503,-0.261846,0.569048,-0.304891,4.48382e-05,9.57625e-05,-7.9568e-05,0.590785,-0.23037046246944315,4.48392052470048e-05,9.576708537450962e-05,0.7665844622403044,-7.956483455062724e-05,-0.2627962747815231
777,0.7676,0.00866415,1213.43,0.0101772,0.0485731,0.0524039,-0.0023636,-0.262109,0.569614,-0.305193,4.4925e-05,9.58416e-05,-7.95384e-05,0.591378,-0.23057284842289416,4.492600914285383e-05,9.584619295277541e-05,0.7675846320672925,-7.953523690529263e-05,-0.26301887669195867
778,0.7686,0.00864894,1213.62,0.0101597,0.0486022,0.0523614,-0.00231241,-0.262372,0.57018,-0.305495,4.50117e-05,9.59207e-05,-7.95087e-05,0.59197,-0.23077518115583828,4.501271304180321e-05,9.59253005374805e-05,0.7685853681506383,-7.950553926705517e-05,-0.2632414113867675
779,0.7696,0.00863376,1213.82,0.0101423,0.0486313,0.0523189,-0.00226147,-0.262635,0.570745,-0.305797,4.50984e-05,9.59996e-05,-7.94789e-05,0.592562,-0.23097746068227065,4.509941694808006e-05,9.60042081090684e-05,0.7695849012251472,-7.947574163591486e-05,-0.26346387888624545
780,0.7706,0.00861861,1214.01,0.0101249,0.0486603,0.0522766,-0.00221076,-0.262898,0.57131,-0.306098,4.51851e-05,9.60785e-05,-7.9449e-05,0.593153,-0.23117968701618263,4.518612086190643e-05,9.608311568687355e-05,0.7705849991954115,-7.944584401176069e-05,-0.2636855428965935
781,0.7716,0.00860351,1214.21,0.0101076,0.0486894,0.0522343,-0.00216029,-0.263161,0.571875,-0.3064,4.52718e-05,9.61572e-05,-7.94191e-05,0.593745,-0.23138186017156204,4.527282478350436e-05,9.616182325178357e-05,0.7715856623806869,-7.941594638671834e-05,-0.2639078762886068
782,0.7726,0.00858844,1214.4,0.0100903,0.0487185,0.052192,-0.00211007,-0.263424,0.572439,-0.306701,4.53585e-05,9.62358e-05,-7.93891e-05,0.594336,-0.23158398016239312,4.535952871220772e-05,9.62404308131326e-05,0.7725851185144059,-7.938594876877314e-05,-0.26412940667584806
783,0.7736,0.0085734,1214.6,0.010073,0.0487476,0.0521499,-0.00206009,-0.263686,0.573003,-0.307002,4.54452e-05,9.63143e-05,-7.9359e-05,0.594926,-0.23178527878831912,4.544623264868264e-05,9.631893837114269e-05,0.7735851385003754,-7.935585115781407e-05,-0.2643508703924772
784,0.7746,0.0085584,1214.79,0.0100558,0.0487767,0.0521077,-0.00201034,-0.263949,0.573567,-0.307303,4.55319e-05,9.63926e-05,-7.93288e-05,0.595516,-0.23198729269400475,4.5532936592707074e-05,9.63972459160356e-05,0.7745857226566983,-7.932565355395216e-05,-0.264572267458559
785,0.7756,0.00854343,1214.98,0.0100386,0.0488058,0.0520657,-0.00196084,-0.264211,0.57413,-0.307604,4.56186e-05,9.64709e-05,-7.92985e-05,0.596106,-0.23218848566588868,4.561964054405898e-05,9.647555346692371e-05,0.7755850957156725,-7.929535595707637e-05,-0.26479359789415235
786,0.7766,0.0085285,1215.18,0.0100215,0.0488349,0.0520237,-0.00191158,-0.264473,0.574693,-0.307905,4.57053e-05,9.6549e-05,-7.92682e-05,0.596696,-0.23238962593211876,4.570634450318245e-05,9.655366100469465e-05,0.776585031580094,-7.926505835920139e-05,-0.26501486171931
787,0.7776,0.00851361,1215.37,0.0100044,0.0488641,0.0519818,-0.00186255,-0.264735,0.575256,-0.308205,4.5792e-05,9.66271e-05,-7.92378e-05,0.597285,-0.23259071350650207,4.579304846963339e-05,9.663176854868283e-05,0.777585530566911,-7.923466076842356e-05,-0.26523532418977025
788,0.7786,0.00849875,1215.56,0.0099873,0.0488932,0.05194,-0.00181377,-0.264997,0.575818,-0.308505,4.58787e-05,9.6705e-05,-7.92073e-05,0.597874,-0.2327917484028419,4.587975244363385e-05,9.670967607933179e-05,0.7785848144075473,-7.920416318463186e-05,-0.265455720531409
789,0.7796,0.00848392,1215.76,0.00997027,0.0489224,0.0518982,-0.00176523,-0.265258,0.57638,-0.308806,4.59653e-05,9.67828e-05,-7.91767e-05,0.598462,-0.23299196362728547,4.596635642051261e-05,9.678748360619771e-05,0.7795846600035405,-7.917356560782629e-05,-0.26567678508764436
790,0.7806,0.00846913,1215.95,0.00995328,0.0489516,0.0518565,-0.00171692,-0.26552,0.576942,-0.309105,4.6052e-05,9.68605e-05,-7.9146e-05,0.599051,-0.23319289340986415,4.60530604096121e-05,9.686519112972469e-05,0.7805850676706858,-7.914286803800685e-05,-0.2658963149075595
791,0.7816,0.00845437,1216.14,0.00993633,0.0489808,0.0518148,-0.00166885,-0.265781,0.577503,-0.309405,4.61387e-05,9.69381e-05,-7.91153e-05,0.599639,-0.23339300394912288,4.613976440626111e-05,9.694279864946864e-05,0.7815842561398094,-7.911217046718821e-05,-0.2661165129817247
792,0.7826,0.00843965,1216.33,0.00991942,0.04901,0.0517733,-0.00162103,-0.266042,0.578065,-0.309705,4.62254e-05,9.70155e-05,-7.90845e-05,0.600226,-0.23359306226634602,4.622646841023759e-05,9.702020615587337e-05,0.7825857878958229,-7.90813729033557e-05,-0.26633664500637544
793,0.7836,0.00842496,1216.52,0.00990254,0.0490392,0.0517317,-0.00157344,-0.266303,0.578625,-0.310004,4.6312e-05,9.70929e-05,-7.90537e-05,0.600813,-0.233793068375162,4.6313072417314416e-05,9.70976136682733e-05,0.7835843154986781,-7.905057533863502e-05,-0.266555977557668
794,0.7846,0.00841031,1216.71,0.00988571,0.0490685,0.0516903,-0.00152609,-0.266564,0.579186,-0.310304,4.63987e-05,9.71701e-05,-7.90227e-05,0.6014,-0.23399302228919516,4.639977643638993e-05,9.717482116711196e-05,0.7845851870178846,-7.901957778866375e-05,-0.26677597776272
795,0.7856,0.00839569,1216.91,0.00986891,0.0490977,0.0516489,-0.00147898,-0.266825,0.579746,-0.310603,4.64854e-05,9.72473e-05,-7.89917e-05,0.601987,-0.2341929240220667,4.6486480463014956e-05,9.725202867194582e-05,0.7855848345978129,-7.89885802378043e-05,-0.26699517897315495
796,0.7866,0.00838111,1217.1,0.00985216,0.049127,0.0516076,-0.00143211,-0.267085,0.580306,-0.310902,4.6572e-05,9.73243e-05,-7.89606e-05,0.602573,-0.234392007979785,4.657308449251829e-05,9.732903616344046e-05,0.7865850421371599,-7.895748269381997e-05,-0.26721431465222534
797,0.7876,0.00836655,1217.29,0.00983544,0.0491563,0.0515663,-0.00138548,-0.267346,0.580866,-0.3112,4.66587e-05,9.74012e-05,-7.89295e-05,0.603159,-0.2345918055909798,4.665978853402031e-05,9.740594365093003e-05,0.7875858099495907,-7.892638514894745e-05,-0.26743265225254076
798,0.7886,0.00835204,1217.48,0.00981875,0.0491856,0.0515251,-0.00133908,-0.267606,0.581425,-0.311499,4.67453e-05,9.7478e-05,-7.88982e-05,0.603745,-0.2347907858529712,4.6746392578622675e-05,9.748275113463656e-05,0.7885853497627022,-7.889508761882436e-05,-0.26765165714665395
799,0.7896,0.00833755,1217.67,0.00980211,0.0492149,0.051484,-0.00129293,-0.267866,0.581984,-0.311797,4.6832e-05,9.75547e-05,-7.88669e-05,0.60433,-0.23498971438681937,4.6833096635223725e-05,9.755945861456006e-05,0.7895854484747669,-7.886379008781308e-05,-0.26786986443832306
800,0.7906,0.0083231,1217.86,0.0097855,0.0492442,0.0514429,-0.00124701,-0.268126,0.582542,-0.312095,4.69186e-05,9.76313e-05,-7.88356e-05,0.604915,-0.23518859120597202,4.691970069470308e-05,9.763606609047848e-05,0.7905843158130856,-7.883249255569158e-05,-0.268088006713907
801,0.7916,0.00830869,1218.05,0.00976893,0.0492736,0.0514019,-0.00120133,-0.268386,0.583101,-0.312394,4.70053e-05,9.77077e-05,-7.88041e-05,0.605499,-0.23538741632387306,4.7006404766403165e-05,9.771247355283563e-05,0.7915855322595502,-7.880099503843052e-05,-0.2683068156863281
802,0.7926,0.0082943,1218.23,0.0097524,0.049303,0.0513609,-0.00115588,-0.268646,0.583659,-0.312691,4.70919e-05,9.77841e-05,-7.87726e-05,0.606084,-0.23558618975396317,4.7093008840981554e-05,9.778888102096595e-05,0.792585515956056,-7.876949752017026e-05,-0.26852409629430174
803,0.7936,0.00827995,1218.42,0.00973591,0.0493324,0.05132,-0.00111068,-0.268906,0.584216,-0.312989,4.71786e-05,9.78603e-05,-7.87411e-05,0.606668,-0.2357849115096794,4.7179712927558626e-05,9.786508847531294e-05,0.7935842642140114,-7.87380000009108e-05,-0.26874204363783893
804,0.7946,0.00826564,1218.61,0.00971945,0.0493618,0.0512792,-0.00106571,-0.269165,0.584774,-0.313287,4.72652e-05,9.79365e-05,-7.87094e-05,0.607251,-0.23598281758765505,4.726631701723605e-05,9.794129593565515e-05,0.7945853635141722,-7.870630249640076e-05,-0.2689599260427441
805,0.7956,0.00825135,1218.8,0.00970304,0.0493912,0.0512385,-0.00102098,-0.269424,0.585331,-0.313584,4.73518e-05,9.80125e-05,-7.86777e-05,0.607835,-0.23618067241459373,4.735292111424094e-05,9.8017303381992e-05,0.7955852259975007,-7.867460499089152e-05,-0.26917701270574423
806,0.7966,0.0082371,1218.99,0.00968665,0.0494207,0.0511978,-0.000976481,-0.269684,0.585888,-0.313881,4.74385e-05,9.80884e-05,-7.86459e-05,0.608418,-0.23637923962490992,4.7439625223466564e-05,9.809321082432376e-05,0.7965856455593643,-7.864280749225738e-05,-0.26939403490357905
807,0.7976,0.00822289,1219.18,0.00967031,0.0494501,0.0511571,-0.000932223,-0.269943,0.586444,-0.314178,4.75251e-05,9.81643e-05,-7.86141e-05,0.609,-0.236576991791836,4.752622933534845e-05,9.816911827265073e-05,0.7975848249244184,-7.861100999262405e-05,-0.2696109926553917
808,0.7986,0.0082087,1219.36,0.009654,0.0494796,0.0511166,-0.000888202,-0.270202,0.587,-0.314475,4.76118e-05,9.824e-05,-7.85822e-05,0.609583,-0.236774692747583,4.76129334596731e-05,9.82448257067503e-05,0.7985845599876695,-7.85791124997548e-05,-0.2698278859803199
809,0.7996,0.00819455,1219.55,0.00963773,0.0495092,0.0510761,-0.000844418,-0.27046,0.587556,-0.314772,4.76984e-05,9.83156e-05,-7.85502e-05,0.610165,-0.2369715794773739,4.769953758687606e-05,9.832043313706684e-05,0.7995848510581713,-7.854711501376066e-05,-0.2700447148974957
810,0.8006,0.00818043,1219.74,0.0096215,0.0495387,0.0510356,-0.00080087,-0.270719,0.588112,-0.315069,4.7785e-05,9.83911e-05,-7.85182e-05,0.610746,-0.23716917824814387,4.7786141721406494e-05,9.839594056293421e-05,0.8005856984451503,-7.851511752676732e-05,-0.2702614794260453
811,0.8016,0.00816634,1219.93,0.0096053,0.0495683,0.0509952,-0.000757559,-0.270977,0.588667,-0.315365,4.78716e-05,9.84665e-05,-7.84861e-05,0.611328,-0.23736596321380365,4.78727458632644e-05,9.847134798501855e-05,0.8015853008718024,-7.848302004664909e-05,-0.270477450062904
812,0.8026,0.00815229,1220.11,0.00958914,0.0495979,0.0509549,-0.000714484,-0.271236,0.589222,-0.315661,4.79583e-05,9.85417e-05,-7.84539e-05,0.611909,-0.23756345985241256,4.7959450017565075e-05,9.854655539287549e-05,0.8025854582317806,-7.845082257329494e-05,-0.27069335678191464
813,0.8036,0.00813827,1220.3,0.00957302,0.0496275,0.0509146,-0.000671645,-0.271494,0.589776,-0.315957,4.80449e-05,9.86169e-05,-7.84217e-05,0.61249,-0.23776014310653992,4.804605417474406e-05,9.862176280628354e-05,0.80358436724789,-7.841862509883057e-05,-0.2709091996019939
814,0.8046,0.00812428,1220.48,0.00955693,0.0496571,0.0508744,-0.000629042,-0.271752,0.590331,-0.316253,4.81315e-05,9.8692e-05,-7.83894e-05,0.61307,-0.23795677562293305,4.813265833925051e-05,9.869687021568652e-05,0.8045856343976456,-7.838632763124131e-05,-0.2711249785420531
815,0.8056,0.00811032,1220.67,0.00954088,0.0496868,0.0508343,-0.000586675,-0.27201,0.590885,-0.316549,4.82181e-05,9.87669e-05,-7.83571e-05,0.61365,-0.2381533574146808,4.821926251130648e-05,9.877177761086209e-05,0.8055856518183504,-7.835403016265285e-05,-0.271340693620998
816,0.8066,0.0080964,1220.86,0.00952486,0.0497165,0.0507942,-0.000544543,-0.272268,0.591438,-0.316844,4.83048e-05,9.88418e-05,-7.83247e-05,0.61423,-0.23834988849486827,4.830596669558318e-05,9.884668501158878e-05,0.8065844168168756,-7.832163270071746e-05,-0.2715556164137092
817,0.8076,0.00808251,1221.04,0.00950888,0.0497462,0.0507542,-0.000502647,-0.272525,0.591992,-0.31714,4.83914e-05,9.89165e-05,-7.82922e-05,0.614809,-0.2385456074225657,4.8392570882738184e-05,9.89213923983101e-05,0.8075855418698266,-7.828913524565717e-05,-0.2717712040427075
818,0.8086,0.00806865,1221.23,0.00949294,0.049776,0.0507142,-0.000460987,-0.272783,0.592545,-0.317435,4.8478e-05,9.89911e-05,-7.82597e-05,0.615389,-0.23874203731530486,4.847917507722066e-05,9.899599978058227e-05,0.8085854131133987,-7.825663778959768e-05,-0.2719859998535752
819,0.8096,0.00805482,1221.41,0.00947703,0.0498057,0.0506743,-0.000419562,-0.27304,0.593098,-0.31773,4.85646e-05,9.90657e-05,-7.82271e-05,0.615967,-0.23893765547370482,4.856577927925265e-05,9.907060716840554e-05,0.8095858374386815,-7.822404034019126e-05,-0.27220073230902386
820,0.8106,0.00804102,1221.6,0.00946116,0.0498355,0.0506345,-0.000378372,-0.273297,0.59365,-0.318025,4.86512e-05,9.91401e-05,-7.81945e-05,0.616546,-0.23913322336469767,4.865238348883416e-05,9.914501454222346e-05,0.8105850045657039,-7.819144288978563e-05,-0.2724154014277409
821,0.8116,0.00802725,1221.78,0.00944532,0.0498654,0.0505947,-0.000337418,-0.273555,0.594202,-0.31832,4.87378e-05,9.92144e-05,-7.81618e-05,0.617124,-0.23932950167207911,4.8738987705965187e-05,9.921932191137017e-05,0.8115847233852334,-7.81587454461441e-05,-0.2726300072284078
822,0.8126,0.00801352,1221.96,0.00942952,0.0498952,0.050555,-0.000296698,-0.273811,0.594754,-0.318614,4.88245e-05,9.92886e-05,-7.8129e-05,0.617702,-0.2395242083961271,4.882569193531694e-05,9.929352927628976e-05,0.8125849942018886,-7.812594800915562e-05,-0.27284382257388673
823,0.8136,0.00799982,1222.15,0.00941375,0.0499251,0.0505153,-0.000256213,-0.274068,0.595306,-0.318909,4.89111e-05,9.93628e-05,-7.80962e-05,0.618279,-0.2397196255623878,4.8912296167324953e-05,9.936773664653842e-05,0.8135858173204558,-7.809315057116795e-05,-0.2730583020089553
824,0.8146,0.00798615,1222.33,0.00939802,0.049955,0.0504758,-0.000215963,-0.274325,0.595857,-0.319203,4.89977e-05,9.94368e-05,-7.80633e-05,0.618857,-0.23991499251288972,4.8998900406882484e-05,9.944174400255967e-05,0.8145853784596042,-7.806025313983334e-05,-0.27327199145427705
825,0.8156,0.0079725,1222.52,0.00938233,0.049985,0.0504362,-0.000175948,-0.274581,0.596408,-0.319497,4.90843e-05,9.95107e-05,-7.80304e-05,0.619434,-0.24010954937046614,4.908550465398953e-05,9.951565135390972e-05,0.8155854905087021,-7.802735570749952e-05,-0.2734856180841362
826,0.8166,0.0079589,1222.7,0.00936667,0.0500149,0.0503967,-0.000136167,-0.274838,0.596958,-0.319791,4.91709e-05,9.95845e-05,-7.79974e-05,0.62001,-0.24030481612342547,4.917210890842405e-05,9.958945870103264e-05,0.816584337186139,-7.79943582819298e-05,-0.2736991819169977
827,0.8176,0.00794532,1222.88,0.00935104,0.0500449,0.0503573,-9.66201e-05,-0.275094,0.597509,-0.320085,4.92575e-05,9.96582e-05,-7.79644e-05,0.620586,-0.24049927319893016,4.925871317063013e-05,9.966316604348435e-05,0.8175855509649936,-7.796136085513883e-05,-0.2739126829713213
828,0.8186,0.00793177,1223.06,0.00933545,0.050075,0.050318,-5.73078e-05,-0.27535,0.598059,-0.320378,4.93441e-05,9.97318e-05,-7.79313e-05,0.621162,-0.240693680499795,4.934531744016368e-05,9.973677338126485e-05,0.8185854979782461,-7.792826343511194e-05,-0.2741253953913194
829,0.8196,0.00791826,1223.25,0.0093199,0.050105,0.0502787,-1.82297e-05,-0.275606,0.598608,-0.320672,4.94307e-05,9.98052e-05,-7.78981e-05,0.621738,-0.2408880380387607,4.943192171724675e-05,9.981018070459591e-05,0.8195841755285402,-7.789506602173812e-05,-0.27433877115729977
830,0.8206,0.00790477,1223.43,0.00930438,0.0501351,0.0502394,2.06144e-05,-0.275862,0.599158,-0.320965,4.95173e-05,9.98786e-05,-7.78649e-05,0.622313,-0.24108234582856447,4.951852600165729e-05,9.988358803347808e-05,0.82058522208765,-7.78618686073651e-05,-0.2745513587517472
831,0.8216,0.00789132,1223.61,0.00928889,0.0501653,0.0502002,5.92246e-05,-0.276118,0.599707,-0.321258,4.9604e-05,9.99519e-05,-7.78317e-05,0.622888,-0.2412766038819406,4.960523029873265e-05,9.995689535768904e-05,0.8215849977878946,-7.782867119177084e-05,-0.2747638840671538
832,0.8226,0.00787789,1223.79,0.00927344,0.0501954,0.0501611,9.7601e-05,-0.276373,0.600256,-0.321551,4.96906e-05,0.000100025,-7.77984e-05,0.623463,-0.24147005368205288,4.9691834598242224e-05,0.00010003000266700646,0.8225853225156932,-7.779537378294066e-05,-0.27497634712176466
833,0.8236,0.0078645,1223.97,0.00925802,0.0502256,0.0501221,0.000135744,-0.276628,0.600804,-0.321844,4.97772e-05,0.000100098,-7.7765e-05,0.624038,-0.24166345415875523,4.9778438905301314e-05,0.00010010300997187471,0.8235843729872594,-7.776197638076354e-05,-0.27518874793381953
834,0.8246,0.00785114,1224.15,0.00924264,0.0502559,0.0500831,0.000173653,-0.276884,0.601353,-0.322136,4.98638e-05,0.000100171,-7.77316e-05,0.624612,-0.24185756346743903,4.986504321990992e-05,0.00010017601728207204,0.8245857956734044,-7.77285789774762e-05,-0.2754003619222769
835,0.8256,0.0078378,1224.34,0.00922729,0.0502861,0.0500441,0.000211328,-0.277139,0.6019,-0.322429,4.99504e-05,0.000100244,-7.76981e-05,0.625185,-0.2420508651417439,4.9951647542068045e-05,0.00010024902459759844,0.825584117119661,-7.769508158084193e-05,-0.2756126385161941
836,0.8266,0.0078245,1224.52,0.00921198,0.0503165,0.0500052,0.00024877,-0.277394,0.602448,-0.322721,5.0037e-05,0.000100317,-7.76646e-05,0.625759,-0.24224411753040598,5.003825187155364e-05,0.0001003220319184539,0.8265848113810275,-7.766158418298641e-05,-0.27582412874667095
837,0.8276,0.00781123,1224.7,0.0091967,0.0503468,0.0499664,0.000285979,-0.277649,0.602995,-0.323013,5.01236e-05,0.000100389,-7.76311e-05,0.626332,-0.24243732064599155,5.012485620858875e-05,0.00010039403914419154,0.8275842265879922,-7.762808678413169e-05,-0.2760355572310159
838,0.8286,0.00779799,1224.88,0.00918145,0.0503772,0.0499276,0.000322955,-0.277903,0.603542,-0.323305,5.02102e-05,0.000100462,-7.75974e-05,0.626905,-0.24262971713115944,5.021146055317338e-05,0.00010046704647570515,0.8285841886246199,-7.75943893995823e-05,-0.27624692398725625
839,0.8296,0.00778478,1225.06,0.00916624,0.0504076,0.0498889,0.000359698,-0.278158,0.604089,-0.323597,5.02969e-05,0.000100534,-7.75638e-05,0.627477,-0.2428228219313826,5.029816491020078e-05,0.00010053905371187888,0.8295846977901076,-7.756079200627042e-05,-0.2764582290334139
840,0.8306,0.0077716,1225.24,0.00915106,0.050438,0.0498502,0.000396207,-0.278412,0.604636,-0.323889,5.03835e-05,0.000100607,-7.75301e-05,0.628049,-0.24301512051165852,5.0384769269884444e-05,0.00010061206105405063,0.8305857543838167,-7.752709461950058e-05,-0.2766694723875054
841,0.8316,0.00775845,1225.42,0.00913591,0.0504685,0.0498116,0.000432484,-0.278667,0.605182,-0.32418,5.04701e-05,0.000100679,-7.74963e-05,0.628621,-0.24320812704654893,5.047137363689558e-05,0.00010068406830066046,0.8315855271188295,-7.749329723927278e-05,-0.27687993094783503
842,0.8326,0.00774532,1225.6,0.0091208,0.0504991,0.0497731,0.000468528,-0.278921,0.605727,-0.324471,5.05567e-05,0.000100751,-7.74625e-05,0.629193,-0.2434003277717537,5.055797801145623e-05,0.00010075607555237731,0.8325840132938775,-7.745949985804579e-05,-0.27709032827363356
843,0.8336,0.00773223,1225.78,0.00910572,0.0505296,0.0497346,0.00050434,-0.279175,0.606273,-0.324763,5.06433e-05,0.000100823,-7.74287e-05,0.629764,-0.24359247968417375,5.0644582393566395e-05,0.00010082808280942324,0.8335848773761658,-7.742570247559755e-05,-0.27730138708169205
844,0.8346,0.00771917,1225.95,0.00909068,0.0505602,0.0496962,0.000539918,-0.279429,0.606818,-0.325054,5.07299e-05,0.000100895,-7.73948e-05,0.630335,-0.24378458279620585,5.073118678322608e-05,0.00010090009007179823,0.8345844534940865,-7.739180509969135e-05,-0.2775116617815986
845,0.8356,0.00770614,1226.13,0.00907566,0.0505909,0.0496578,0.000575265,-0.279683,0.607363,-0.325344,5.08166e-05,0.000100967,-7.73609e-05,0.630906,-0.24397663712024398,5.0817891185328534e-05,0.00010097209733905821,0.8355845745294677,-7.735790772278595e-05,-0.27772115302198386
846,0.8366,0.00769313,1226.31,0.00906069,0.0506216,0.0496195,0.000610379,-0.279936,0.607908,-0.325635,5.09032e-05,0.000101039,-7.73269e-05,0.631476,-0.24416788683694324,5.0904495589865206e-05,0.00010104410461164726,0.8365852407793708,-7.732391035231156e-05,-0.2779313055877731
847,0.8376,0.00768016,1226.49,0.00904574,0.0506523,0.0495813,0.000645261,-0.28019,0.608452,-0.325926,5.09898e-05,0.000101111,-7.72929e-05,0.632046,-0.24435984381411857,5.0991100001951395e-05,0.00010111611188934333,0.8375846149554849,-7.728991298072696e-05,-0.27814139700806284
848,0.8386,0.00766721,1226.67,0.00903083,0.050683,0.0495431,0.00067991,-0.280443,0.608996,-0.326216,5.10764e-05,0.000101182,-7.72588e-05,0.632616,-0.24455099659178758,5.10777044215871e-05,0.00010118711907125544,0.8385845329390529,-7.725581561579542e-05,-0.2783507056517103
849,0.8396,0.0076543,1226.84,0.00901595,0.0507139,0.0495049,0.000714328,-0.280696,0.60954,-0.326506,5.11631e-05,0.000101254,-7.72247e-05,0.633185,-0.24474210101392102,5.116440885366558e-05,0.00010125912635938761,0.8395849950259866,-7.722171824964263e-05,-0.2785599536046517
850,0.8406,0.00764141,1227.02,0.0090011,0.0507447,0.0494668,0.000748513,-0.280949,0.610083,-0.326796,5.12497e-05,0.000101325,-7.71905e-05,0.633754,-0.24493315709275143,5.1251013288400316e-05,0.00010133013355129172,0.8405841609272777,-7.718752089003189e-05,-0.2787691408844847
851,0.8416,0.00762855,1227.2,0.00898629,0.0507756,0.0494288,0.000782467,-0.281202,0.610627,-0.327086,5.13363e-05,0.000101396,-7.71563e-05,0.634323,-0.24512416484050803,5.1337617730462526e-05,0.00010140114074808082,0.8415857111077718,-7.71533235291999e-05,-0.27897826750880206
852,0.8426,0.00761572,1227.38,0.0089715,0.0508065,0.0493908,0.000816189,-0.281455,0.611169,-0.327376,5.1423e-05,0.000101467,-7.71221e-05,0.634891,-0.24531512426941704,5.142432218518955e-05,0.00010147214795019899,0.8425841211078606,-7.711912616725769e-05,-0.2791873334951912
853,0.8436,0.00760292,1227.55,0.00895676,0.0508375,0.0493529,0.000849679,-0.281708,0.611712,-0.327665,5.15096e-05,0.000101538,-7.70878e-05,0.63546,-0.24550603539170157,5.151092664212875e-05,0.00010154315515720214,0.8435849159768389,-7.708482881185752e-05,-0.2793956182572134
854,0.8446,0.00759015,1227.73,0.00894204,0.0508685,0.049315,0.000882937,-0.28196,0.612254,-0.327955,5.15962e-05,0.000101609,-7.70535e-05,0.636027,-0.24569614391610273,5.159753110683951e-05,0.00010161416236931231,0.8445844098396671,-7.705053145534713e-05,-0.2796045632294334
855,0.8456,0.00757741,1227.91,0.00892735,0.0508996,0.0492772,0.000915964,-0.282213,0.612796,-0.328244,5.16829e-05,0.00010168,-7.70191e-05,0.636595,-0.24588695865261,5.1684235583993043e-05,0.00010168516958630747,0.8455844455750035,-7.701613410526775e-05,-0.2798127274294844
856,0.8466,0.00756469,1228.08,0.0089127,0.0509307,0.0492395,0.000948759,-0.282465,0.613338,-0.328533,5.17695e-05,0.000101751,-7.69847e-05,0.637162,-0.24607697119644345,5.177084006358079e-05,0.00010175617680863169,0.8465850234766219,-7.698173675407816e-05,-0.28002083147877377
857,0.8476,0.00755201,1228.26,0.00889808,0.0509619,0.0492018,0.000981323,-0.282717,0.613879,-0.328822,5.18562e-05,0.000101822,-7.69503e-05,0.637729,-0.24626693586314863,5.18575445560554e-05,0.0001018271840358409,0.8475842962532365,-7.694733940155629e-05,-0.28022887539468244
858,0.8486,0.00753935,1228.43,0.00888349,0.0509931,0.0491642,0.00101366,-0.282969,0.61442,-0.329111,5.19428e-05,0.000101892,-7.69158e-05,0.638296,-0.24645685266478912,5.194414905052014e-05,0.00010189719116615592,0.8485841097826836,-7.691284205568749e-05,-0.2804368591945867
859,0.8496,0.00752672,1228.61,0.00886894,0.0510243,0.0491266,0.00104576,-0.283221,0.614961,-0.329399,5.20294e-05,0.000101963,-7.68813e-05,0.638862,-0.24664672161342527,5.203075355275644e-05,0.00010196819840335714,0.8495844643575898,-7.687834470859745e-05,-0.2806440635402807
860,0.8506,0.00751412,1228.78,0.00885441,0.0510556,0.049089,0.00107763,-0.283473,0.615502,-0.329688,5.21161e-05,0.000102033,-7.68467e-05,0.639428,-0.24683654272111455,5.211745806743551e-05,0.00010203820554366416,0.8505853602707398,-7.684374736793842e-05,-0.2808519273681477
861,0.8516,0.00750155,1228.96,0.00883992,0.051087,0.0490516,0.00110927,-0.283724,0.616042,-0.329976,5.22028e-05,0.000102104,-7.68121e-05,0.639994,-0.247025563025851,5.220416258988614e-05,0.00010210921279085738,0.8515849462292049,-7.680915002616917e-05,-0.2810590121914198
862,0.8526,0.00748901,1229.13,0.00882546,0.0511184,0.0490142,0.00114068,-0.283976,0.616582,-0.330264,5.22894e-05,0.000102174,-7.67775e-05,0.640559,-0.24721528867753229,5.229076711454894e-05,0.00010217921994093437,0.8525850721098533,-7.677455268317868e-05,-0.28126603738285016
863,0.8536,0.00747649,1229.31,0.00881103,0.0511498,0.0489768,0.00117185,-0.284227,0.617122,-0.330552,5.23761e-05,0.000102244,-7.67429e-05,0.641124,-0.24740421392896328,5.237747165187656e-05,0.00010224922709589634,0.8535857382043219,-7.673995533896694e-05,-0.2814730029596103
864,0.8546,0.007464,1229.48,0.00879663,0.0511813,0.0489395,0.0012028,-0.284478,0.617661,-0.33084,5.24627e-05,0.000102314,-7.67082e-05,0.641689,-0.247593091766107,5.246407619141635e-05,0.0001023192342557433,0.8545850902183876,-7.670525800129724e-05,-0.28167990893886674
865,0.8556,0.00745154,1229.66,0.00878227,0.0512128,0.0489022,0.00123352,-0.28473,0.6182,-0.331128,5.25494e-05,0.000102384,-7.66734e-05,0.642254,-0.24778267441856439,5.2550780743843006e-05,0.00010238924142069727,0.8555849810283811,-7.667046066994754e-05,-0.2818867553377812
866,0.8566,0.00743911,1229.83,0.00876793,0.0512444,0.048865,0.001264,-0.28498,0.618739,-0.331415,5.26361e-05,0.000102454,-7.66386e-05,0.642818,-0.2479707052451271,5.2637485303819176e-05,0.00010245924859031419,0.8565854109247921,-7.663566333748761e-05,-0.28209282426669346
867,0.8576,0.0074267,1230.0,0.00875363,0.0512761,0.0488279,0.00129426,-0.285231,0.619277,-0.331702,5.27228e-05,0.000102523,-7.66038e-05,0.643382,-0.24815944091079367,5.272418987134486e-05,0.00010252825566237078,0.8575845226128147,-7.660086600380644e-05,-0.28229883406230916
868,0.8586,0.00741433,1230.18,0.00873936,0.0513077,0.0487908,0.00132428,-0.285482,0.619815,-0.33199,5.28094e-05,0.000102593,-7.6569e-05,0.643945,-0.2483481292097529,5.2810794440860676e-05,0.00010259826284175766,0.8585841719675451,-7.656606866890403e-05,-0.28250550223645365
869,0.8596,0.00740198,1230.35,0.00872512,0.0513395,0.0487538,0.00135407,-0.285732,0.620353,-0.332277,5.28961e-05,0.000102662,-7.65341e-05,0.644509,-0.24853601869028685,5.289749902326335e-05,0.00010266726992336217,0.8595843592783254,-7.653117134043264e-05,-0.28271139361048636
870,0.8606,0.00738965,1230.52,0.00871091,0.0513713,0.0487168,0.00138364,-0.285983,0.620891,-0.332564,5.29828e-05,0.000102732,-7.64992e-05,0.645072,-0.24872461248008482,5.2984203613437586e-05,0.00010273727711251901,0.8605850848346539,-7.649627401085102e-05,-0.2829172259021735
871,0.8616,0.00737736,1230.7,0.00869673,0.0514031,0.0486798,0.00141297,-0.286233,0.621428,-0.33285,5.30695e-05,0.000102801,-7.64643e-05,0.645634,-0.24891240785156532,5.307090821071725e-05,0.00010280628420389348,0.8615844873407665,-7.646137667993713e-05,-0.2831222822511098
872,0.8626,0.00736509,1230.87,0.00868258,0.051435,0.048643,0.00144207,-0.286483,0.621965,-0.333137,5.31562e-05,0.00010287,-7.64293e-05,0.646197,-0.24910015628007098,5.3157612815768474e-05,0.0001028752912999309,0.8625844266701492,-7.642637935545427e-05,-0.28332799663467767
873,0.8636,0.00735285,1231.04,0.00866846,0.051467,0.0486061,0.00147095,-0.286733,0.622502,-0.333423,5.32429e-05,0.00010294,-7.63943e-05,0.646759,-0.2492878577773362,5.3244317428369214e-05,0.00010294529850352063,0.8635849031111533,-7.639138202975015e-05,-0.2835329355199826
874,0.8646,0.00734064,1231.21,0.00865438,0.051499,0.0485694,0.00149959,-0.286983,0.623038,-0.333709,5.33296e-05,0.000103009,-7.63593e-05,0.647321,-0.24947551235509224,5.333102204829743e-05,0.00010301430560910596,0.8645840523673005,-7.63563847028248e-05,-0.2837378158011471
875,0.8656,0.00732845,1231.39,0.00864032,0.051531,0.0485327,0.001528,-0.287233,0.623575,-0.333996,5.34163e-05,0.000103078,-7.63242e-05,0.647882,-0.24966312002506763,5.34177266759972e-05,0.00010308331271957627,0.8655856028956705,-7.632128738233046e-05,-0.28394335355193423
876,0.8666,0.0073163,1231.56,0.00862629,0.0515631,0.048496,0.00155618,-0.287483,0.624111,-0.334282,5.35031e-05,0.000103146,-7.62892e-05,0.648443,-0.24985068079898765,5.350453131636179e-05,0.00010315131973159808,0.8665858248143503,-7.628629005296261e-05,-0.28414811647032523
877,0.8676,0.00730416,1231.73,0.0086123,0.0515953,0.0484594,0.00158414,-0.287732,0.624646,-0.334567,5.35898e-05,0.000103215,-7.6254e-05,0.649004,-0.2500374447263948,5.3591235958938555e-05,0.00010322032685139426,0.8675847154100347,-7.625109273767805e-05,-0.2843521051873583
878,0.8686,0.00729206,1231.9,0.00859833,0.0516275,0.0484228,0.00161186,-0.287981,0.625181,-0.334853,5.36765e-05,0.000103284,-7.62189e-05,0.649565,-0.25022416215537335,5.3677940609064834e-05,0.00010328933397607543,0.8685841405551669,-7.621599541340895e-05,-0.2845567512194972
879,0.8696,0.00727998,1232.07,0.0085844,0.0516598,0.0483863,0.00163935,-0.288231,0.625716,-0.335138,5.37632e-05,0.000103352,-7.61837e-05,0.650125,-0.25041158268629193,5.376464526674063e-05,0.000103357341001864,0.8695841005358078,-7.618079809557088e-05,-0.28476062349222075
880,0.8706,0.00726793,1232.24,0.00857049,0.0516921,0.0483499,0.00166662,-0.28848,0.626251,-0.335424,5.385e-05,0.000103421,-7.61485e-05,0.650685,-0.250598206966516,5.3851449937303286e-05,0.00010342634813609308,0.8705845956381704,-7.614560077651156e-05,-0.28496515270483047
881,0.8716,0.0072559,1232.41,0.00855662,0.0517245,0.0483135,0.00169365,-0.288729,0.626786,-0.335709,5.39367e-05,0.000103489,-7.61133e-05,0.651245,-0.2507847847830792,5.393815460985607e-05,0.00010349435517120753,0.8715856261486217,-7.611040345623099e-05,-0.28516890859971533
882,0.8726,0.00724391,1232.58,0.00854277,0.051757,0.0482771,0.00172045,-0.288977,0.62732,-0.335994,5.40235e-05,0.000103558,-7.6078e-05,0.651804,-0.2509705671184911,5.402495929551776e-05,0.00010356336231476249,0.8725853197674256,-7.607510614238144e-05,-0.28537260643244455
883,0.8736,0.00723193,1232.75,0.00852896,0.0517895,0.0482409,0.00174703,-0.289226,0.627854,-0.336279,5.41102e-05,0.000103626,-7.60428e-05,0.652363,-0.2511570522289188,5.411166398316958e-05,0.00010363136935942485,0.8735855473651815,-7.603990881954736e-05,-0.28557624621956323
884,0.8746,0.00721999,1232.92,0.00851517,0.0518221,0.0482046,0.00177337,-0.289475,0.628387,-0.336563,5.4197e-05,0.000103694,-7.60075e-05,0.652922,-0.2513434909103347,5.41984686839303e-05,0.00010369937640875015,0.8745844346417386,-7.60046115031443e-05,-0.285779113757083
885,0.8756,0.00720807,1233.09,0.00850142,0.0518547,0.0481684,0.00179949,-0.289723,0.628921,-0.336848,5.42837e-05,0.000103762,-7.59721e-05,0.65348,-0.2515291347038071,5.428517338668115e-05,0.00010376738346251635,0.8755857300519179,-7.596921419306124e-05,-0.28598263770612187
886,0.8766,0.00719618,1233.26,0.00848769,0.0518874,0.0481323,0.00182537,-0.289971,0.629454,-0.337132,5.43705e-05,0.00010383,-7.59368e-05,0.654038,-0.2517147324633271,5.437197810231886e-05,0.00010383539052094548,0.8765856837100126,-7.593391687421569e-05,-0.28618538984484687
887,0.8776,0.00718431,1233.43,0.008474,0.0519201,0.0480962,0.00185103,-0.29022,0.629986,-0.337417,5.44573e-05,0.000103898,-7.59014e-05,0.654596,-0.25190103229965155,5.4458782825728136e-05,0.00010390339758403755,0.8775842929002384,-7.589851956157911e-05,-0.28638879802169914
888,0.8786,0.00717247,1233.6,0.00846033,0.0519529,0.0480602,0.00187646,-0.290468,0.630519,-0.337701,5.45441e-05,0.000103965,-7.5866e-05,0.655154,-0.25208653784000346,5.454558755646488e-05,0.00010397040454801498,0.8785853120762666,-7.586312224783232e-05,-0.28659143482727256
889,0.8796,0.00716066,1233.77,0.0084467,0.0519858,0.0480242,0.00190166,-0.290716,0.631051,-0.337985,5.46309e-05,0.000104033,-7.58306e-05,0.655711,-0.2522719973806855,5.463239229475114e-05,0.00010403841162021088,0.8795849853518047,-7.582772493275325e-05,-0.28679401409216443
890,0.8806,0.00714887,1233.94,0.00843309,0.0520187,0.0479883,0.00192663,-0.290963,0.631583,-0.338269,5.47177e-05,0.000104101,-7.57951e-05,0.656268,-0.2524566633901415,5.471919704058692e-05,0.00010410641869706971,0.8805851905950164,-7.579222762399418e-05,-0.2869965358327138
891,0.8816,0.0071371,1234.11,0.00841951,0.0520517,0.0479524,0.00195137,-0.291211,0.632114,-0.338552,5.48045e-05,0.000104168,-7.57596e-05,0.656825,-0.2526420311510683,5.4806001793972214e-05,0.00010417342567459187,0.8815840465039961,-7.575673031401386e-05,-0.2871982872638992
892,0.8826,0.00712537,1234.27,0.00840596,0.0520848,0.0479166,0.00197588,-0.291458,0.632646,-0.338836,5.48913e-05,0.000104236,-7.57241e-05,0.657381,-0.2528266057734697,5.4892806554907025e-05,0.00010424143276055453,0.8825853155306824,-7.572123300270128e-05,-0.28740069420716985
893,0.8836,0.00711366,1234.44,0.00839244,0.0521179,0.0478808,0.00200016,-0.291706,0.633177,-0.339119,5.49781e-05,0.000104303,-7.56886e-05,0.657938,-0.25301188180006107,5.497961132339135e-05,0.00010430843974695847,0.8835852337880314,-7.568573569016745e-05,-0.28760233127771795
894,0.8846,0.00710197,1234.61,0.00837895,0.0521511,0.0478451,0.00202421,-0.291953,0.633708,-0.339402,5.50649e-05,0.00010437,-7.56531e-05,0.658493,-0.25319636508063337,5.50664160994252e-05,0.00010437544673802535,0.8845856831429695,-7.565023837641238e-05,-0.28780391129304883
895,0.8856,0.00709031,1234.78,0.00836549,0.0521843,0.0478094,0.00204804,-0.2922,0.634238,-0.339685,5.51518e-05,0.000104437,-7.56175e-05,0.659049,-0.2533808027994625,5.515332088856795e-05,0.00010444245373331107,0.8855847782918624,-7.561464106886628e-05,-0.2880054342693068
896,0.8866,0.00707868,1234.95,0.00835205,0.0522176,0.0477738,0.00207163,-0.292447,0.634768,-0.339968,5.52386e-05,0.000104504,-7.5582e-05,0.659604,-0.2535651949678007,5.524012567947878e-05,0.00010450946073325973,0.8865844031015322,-7.55791437525577e-05,-0.2882069002226316
897,0.8876,0.00706707,1235.11,0.00833865,0.052251,0.0477382,0.002095,-0.292694,0.635298,-0.340251,5.53255e-05,0.000104571,-7.55464e-05,0.660159,-0.2537495415968978,5.532703048372056e-05,0.00010457646773764928,0.8875845578527732,-7.554354644256911e-05,-0.2884083091691585
898,0.8886,0.00705549,1235.28,0.00832528,0.0522845,0.0477027,0.00211813,-0.292941,0.635828,-0.340533,5.54123e-05,0.000104638,-7.55108e-05,0.660714,-0.25393384269800034,5.541383528995247e-05,0.00010464347474647973,0.8885852428265286,-7.550794913124825e-05,-0.2886089497343234
899,0.8896,0.00704393,1235.45,0.00831193,0.052318,0.0476672,0.00214104,-0.293187,0.636357,-0.340816,5.54992e-05,0.000104705,-7.54751e-05,0.661268,-0.2541173524000778,5.5500740109071245e-05,0.00010471048175975106,0.8895845687183779,-7.54722518262474e-05,-0.28881024491693674
900,0.8906,0.0070324,1235.61,0.00829861,0.0523515,0.0476318,0.00216372,-0.293434,0.636886,-0.341098,5.5586e-05,0.000104771,-7.54395e-05,0.661822,-0.254301562663131,5.558754493040219e-05,0.00010477648867279754,0.8905844233934748,-7.543665451248405e-05,-0.28901077215220117
901,0.8916,0.00702089,1235.78,0.00828532,0.0523852,0.0475964,0.00218617,-0.29368,0.637415,-0.34138,5.56729e-05,0.000104838,-7.54038e-05,0.662376,-0.2544849819172226,5.567444976461999e-05,0.0001048434956951727,0.8915848071316197,-7.540095720492968e-05,-0.2892112428467578
902,0.8926,0.00700941,1235.95,0.00827206,0.0524189,0.0475611,0.0022084,-0.293927,0.637944,-0.341662,5.57598e-05,0.000104904,-7.53681e-05,0.662929,-0.2546691013869985,5.576135460660936e-05,0.00010490950261710097,0.892585720212761,-7.536525989615406e-05,-0.2894116570165489
903,0.8936,0.00699795,1236.11,0.00825882,0.0524527,0.0475259,0.00223039,-0.294173,0.638472,-0.341944,5.58467e-05,0.000104971,-7.53324e-05,0.663483,-0.2548524302376841,5.58482594559262e-05,0.00010497650964813587,0.8935852693307791,-7.532956258604617e-05,-0.2896120146775123
904,0.8946,0.00698652,1236.28,0.00824562,0.0524865,0.0474906,0.00225215,-0.294419,0.639,-0.342226,5.59336e-05,0.000105037,-7.52967e-05,0.664035,-0.25503571399501923,5.5935164313014596e-05,0.00010504251657872388,0.894585346350085,-7.529386527460602e-05,-0.2898123158455811
905,0.8956,0.00697511,1236.44,0.00823244,0.0525204,0.0474555,0.00227369,-0.294664,0.639527,-0.342507,5.60205e-05,0.000105103,-7.5261e-05,0.664588,-0.25521820788867555,5.602206917743047e-05,0.00010510852351375277,0.8955840559644805,-7.525816796194462e-05,-0.2900118505488898
906,0.8966,0.00696373,1236.61,0.00821929,0.0525544,0.0474204,0.002295,-0.29491,0.640055,-0.342789,5.61075e-05,0.00010517,-7.52252e-05,0.66514,-0.2554014016757753,5.610907405517729e-05,0.0001051755305583324,0.896585188621793,-7.522237065560322e-05,-0.2902120389791396
907,0.8976,0.00695237,1236.77,0.00820617,0.0525885,0.0473853,0.00231608,-0.295156,0.640582,-0.34307,5.61944e-05,0.000105236,-7.51895e-05,0.665692,-0.25558455040274597,5.619597893491424e-05,0.00010524153750202103,0.8975849524308217,-7.518667334038831e-05,-0.29041146137602747
908,0.8986,0.00694104,1236.94,0.00819308,0.0526226,0.0473503,0.00233693,-0.295401,0.641109,-0.343351,5.62813e-05,0.000105302,-7.51537e-05,0.666244,-0.25576690984795314,5.628288382197866e-05,0.00010530754445015056,0.8985852432542341,-7.515087603138237e-05,-0.29061082774309444
909,0.8996,0.00692973,1237.1,0.00818002,0.0526568,0.0473153,0.00235755,-0.295647,0.641635,-0.343632,5.63683e-05,0.000105367,-7.51179e-05,0.666796,-0.2559499686709722,5.636988872237403e-05,0.0001053725512973891,0.8995841617847278,-7.511507872115519e-05,-0.2908101380960826
910,0.9006,0.00691844,1237.27,0.00816698,0.052691,0.0472804,0.00237795,-0.295892,0.642162,-0.343913,5.64553e-05,0.000105433,-7.50821e-05,0.667347,-0.2561322385996697,5.645689363054096e-05,0.00010543855825417836,0.9005855064691375,-7.507928140970677e-05,-0.29100939245072965
911,0.9016,0.00690719,1237.43,0.00815397,0.0527254,0.0472455,0.00239811,-0.296137,0.642688,-0.344193,5.65422e-05,0.000105499,-7.50463e-05,0.667898,-0.25631446387770473,5.654379854025393e-05,0.00010550456521518647,0.9015854774148435,-7.504348409681505e-05,-0.29120788203100534
912,0.9026,0.00689595,1237.6,0.00814099,0.0527598,0.0472107,0.00241805,-0.296382,0.643213,-0.344474,5.66292e-05,0.000105564,-7.50105e-05,0.668448,-0.2564966445160153,5.6630803463519896e-05,0.00010556957207508155,0.9025840718986018,-7.500768678281311e-05,-0.29140702463530843
913,0.9036,0.00688474,1237.76,0.00812803,0.0527943,0.0471759,0.00243776,-0.296627,0.643739,-0.344754,5.67162e-05,0.00010563,-7.49746e-05,0.668998,-0.2566787805255366,5.6717808394113334e-05,0.00010563557904497145,0.9035850943662493,-7.497178947490912e-05,-0.29160540289415815
914,0.9046,0.00687355,1237.93,0.00811511,0.0528288,0.0471412,0.00245724,-0.296871,0.644264,-0.345034,5.68032e-05,0.000105695,-7.49388e-05,0.669548,-0.2568601287777019,5.680481333225629e-05,0.00010570058591330422,0.9045847389245276,-7.493599215824265e-05,-0.2918037256148712
915,0.9056,0.00686239,1238.09,0.00810221,0.0528635,0.0471066,0.00247649,-0.297116,0.644789,-0.345314,5.68902e-05,0.000105761,-7.49029e-05,0.670098,-0.2570421757444873,5.68918182781708e-05,0.00010576659289163182,0.9055849084339864,-7.490009484778515e-05,-0.292001992812996
916,0.9066,0.00685125,1238.25,0.00808934,0.0528982,0.0470719,0.00249551,-0.29736,0.645314,-0.345594,5.69772e-05,0.000105826,-7.48671e-05,0.670648,-0.2572234353390358,5.697882323141279e-05,0.00010583159976862433,0.9065856031702981,-7.486429752856516e-05,-0.2922002045040766
917,0.9076,0.00684014,1238.42,0.00807649,0.052933,0.0470374,0.00251431,-0.297605,0.645838,-0.345874,5.70643e-05,0.000105891,-7.48312e-05,0.671197,-0.2574053933066166,5.706592819820777e-05,0.00010589660664983569,0.9075849158234088,-7.482840021555415e-05,-0.2923983607036529
918,0.9086,0.00682905,1238.58,0.00806367,0.0529678,0.0470028,0.00253288,-0.297849,0.646362,-0.346153,5.71513e-05,0.000105956,-7.47953e-05,0.671746,-0.2575865642868913,5.715293316654879e-05,0.0001059616135352659,0.9085847522535673,-7.479250290132189e-05,-0.292595754023368
919,0.9096,0.00681799,1238.74,0.00805088,0.0530027,0.0469684,0.00255122,-0.298093,0.646886,-0.346433,5.72384e-05,0.000106021,-7.47594e-05,0.672294,-0.2577676910668395,5.724003814844281e-05,0.00010602662042491495,0.9095851127353047,-7.475660558564634e-05,-0.29279379948458295
920,0.9106,0.00680694,1238.9,0.00803812,0.0530378,0.0469339,0.00256933,-0.298337,0.647409,-0.346712,5.73254e-05,0.000106086,-7.47235e-05,0.672842,-0.2579487736572448,5.7327043132104905e-05,0.00010609162731878286,0.910584086958254,-7.472070826886057e-05,-0.2929910824922676
921,0.9116,0.00679593,1239.07,0.00802538,0.0530728,0.0468995,0.00258721,-0.298581,0.647933,-0.346991,5.74125e-05,0.000106151,-7.46876e-05,0.67339,-0.25812981206888796,5.741414812909795e-05,0.00010615663421664756,0.9115854953659093,-7.468481095063151e-05,-0.2931883104656705
922,0.9126,0.00678493,1239.23,0.00801267,0.053108,0.0468652,0.00260486,-0.298824,0.648456,-0.34727,5.74996e-05,0.000106216,-7.46517e-05,0.673938,-0.258310064622983,5.750125313364052e-05,0.00010622164111895316,0.9125855160626035,-7.46489136311812e-05,-0.2933854834201445
923,0.9136,0.00677396,1239.39,0.00799999,0.0531432,0.0468309,0.00262229,-0.299068,0.648978,-0.347549,5.75867e-05,0.00010628,-7.46157e-05,0.674486,-0.2584910148903846,5.75883581457326e-05,0.00010628564791925754,0.91358414632181,-7.461291631793987e-05,-0.2935826013710374
924,0.9146,0.00676301,1239.55,0.00798734,0.0531786,0.0467967,0.00263949,-0.299311,0.649501,-0.347828,5.76738e-05,0.000106345,-7.45798e-05,0.675033,-0.25867117968285736,5.767546316559624e-05,0.00010635065483000083,0.9145852125863458,-7.457701899582503e-05,-0.2937796643336933
925,0.9156,0.00675209,1239.71,0.00797471,0.053214,0.0467625,0.00265646,-0.299555,0.650023,-0.348106,5.77609e-05,0.000106409,-7.45439e-05,0.675579,-0.2588520418489332,5.77625681930094e-05,0.00010641466163852087,0.9155848869596279,-7.454112167248894e-05,-0.29397596629977096
926,0.9166,0.00674119,1239.88,0.0079621,0.0532494,0.0467284,0.0026732,-0.299798,0.650545,-0.348385,5.78481e-05,0.000106474,-7.45079e-05,0.676126,-0.2590321189225133,5.7849773233531465e-05,0.00010647966855747981,0.916585083299154,-7.450512435536183e-05,-0.29417291952892033
927,0.9176,0.00673032,1240.04,0.00794953,0.053285,0.0466943,0.00268971,-0.300041,0.651067,-0.348663,5.79352e-05,0.000106538,-7.4472e-05,0.676672,-0.2592121522426809,5.793687827604366e-05,0.0001065436753742155,0.9175858018774616,-7.446922702947223e-05,-0.2943691121852485
928,0.9186,0.00671946,1240.2,0.00793698,0.0533206,0.0466602,0.002706,-0.300284,0.651588,-0.348941,5.80224e-05,0.000106602,-7.4436e-05,0.677218,-0.25939214182006654,5.8024083332108845e-05,0.00010660768219517003,0.9185851243811471,-7.443322970968058e-05,-0.29456525030759884
929,0.9196,0.00670863,1240.36,0.00792446,0.0533564,0.0466262,0.00272206,-0.300527,0.652109,-0.349219,5.81096e-05,0.000106667,-7.44e-05,0.677764,-0.2595720876652986,5.8111288395501504e-05,0.00010667268912678551,0.9195849676675096,-7.439723238866769e-05,-0.2947613339111296
930,0.9206,0.00669783,1240.52,0.00791196,0.0533922,0.0465923,0.00273788,-0.300769,0.65263,-0.349497,5.81968e-05,0.000106731,-7.43641e-05,0.678309,-0.25975124954062234,5.8198493466665724e-05,0.00010673669595573365,0.9205853320079467,-7.436133505889231e-05,-0.29495736301099484
931,0.9216,0.00668704,1240.68,0.00789949,0.0534281,0.0465584,0.00275349,-0.301012,0.65315,-0.349774,5.8284e-05,0.000106795,-7.43281e-05,0.678855,-0.2599311081332799,5.828569854537946e-05,0.00010680070278912268,0.9215842960887417,-7.432533773521488e-05,-0.2951526327753299
932,0.9226,0.00667628,1240.84,0.00788704,0.053464,0.0465245,0.00276886,-0.301255,0.653671,-0.350052,5.83712e-05,0.000106859,-7.42922e-05,0.679399,-0.26011092302560934,5.8372903631642714e-05,0.00010686470962628647,0.9225857023506834,-7.428944040288599e-05,-0.29534855310923014
933,0.9236,0.00666555,1241.0,0.00787463,0.0535001,0.0464907,0.002784,-0.301497,0.654191,-0.350329,5.84584e-05,0.000106922,-7.42562e-05,0.679944,-0.26028995451855275,5.8460108725455484e-05,0.00010692771636078291,0.9235857068945537,-7.425344307665505e-05,-0.29554371452891437
934,0.9246,0.00665483,1241.16,0.00786223,0.0535362,0.046457,0.00279892,-0.301739,0.65471,-0.350607,5.85456e-05,0.000106986,-7.42202e-05,0.680488,-0.26046894269111687,5.8547313827039815e-05,0.00010699172320616235,0.9245843069907416,-7.421744574909184e-05,-0.2957395261571979
935,0.9256,0.00664414,1241.32,0.00784987,0.0535724,0.0464233,0.00281361,-0.301981,0.65523,-0.350884,5.86329e-05,0.00010705,-7.41842e-05,0.681032,-0.2606478875537839,5.863461894217714e-05,0.00010705573005576063,0.9255853510792829,-7.418144842030738e-05,-0.295934579292346
936,0.9266,0.00663347,1241.48,0.00783753,0.0536087,0.0463896,0.00282807,-0.302223,0.655749,-0.351161,5.87202e-05,0.000107113,-7.41483e-05,0.681576,-0.2608267891170336,5.872192406464194e-05,0.00010711873680224748,0.9265849892601623,-7.414555108276044e-05,-0.296129578405258
937,0.9276,0.00662283,1241.64,0.00782521,0.0536451,0.046356,0.0028423,-0.302465,0.656268,-0.351437,5.88074e-05,0.000107177,-7.41123e-05,0.682119,-0.26100564739134324,5.8809129189096865e-05,0.00010718274365983937,0.9275851463879126,-7.410955375131145e-05,-0.29632381983506784
938,0.9286,0.00661221,1241.8,0.00781292,0.0536816,0.0463224,0.0028563,-0.302707,0.656787,-0.351714,5.88947e-05,0.00010724,-7.40763e-05,0.682663,-0.2611844623871873,5.889643432688274e-05,0.00010724575041431983,0.9285858227319375,-7.407355641864122e-05,-0.2965187111432812
939,0.9296,0.00660161,1241.96,0.00780066,0.0537181,0.0462889,0.00287008,-0.302948,0.657305,-0.35199,5.89821e-05,0.000107303,-7.40403e-05,0.683206,-0.2613624954779029,5.898383947822161e-05,0.00010730875717279709,0.9295850889757258,-7.403755908463872e-05,-0.29671284518727525
940,0.9306,0.00659103,1242.12,0.00778842,0.0537548,0.0462554,0.00288363,-0.30319,0.657823,-0.352267,5.90694e-05,0.000107367,-7.40044e-05,0.683748,-0.26154122412695846,5.9071144631328565e-05,0.00010737276404260143,0.9305848729735151,-7.400166174198475e-05,-0.29690762875038934
941,0.9316,0.00658048,1242.27,0.00777621,0.0537915,0.046222,0.00289695,-0.303431,0.658341,-0.352543,5.91567e-05,0.00010743,-7.39684e-05,0.68429,-0.26171917124845445,5.9158449791985035e-05,0.0001074357708090723,0.9315851749935713,-7.396566440531771e-05,-0.29710165546793554
942,0.9326,0.00656994,1242.43,0.00776403,0.0538284,0.0461886,0.00291004,-0.303672,0.658858,-0.352819,5.92441e-05,0.000107493,-7.39324e-05,0.684833,-0.2618970754898614,5.9245854966416545e-05,0.00010749877757953996,0.932584062719271,-7.392966706742943e-05,-0.29729562864149706
943,0.9336,0.00655943,1242.59,0.00775187,0.0538653,0.0461552,0.0029229,-0.303913,0.659376,-0.353095,5.93314e-05,0.000107556,-7.38965e-05,0.685374,-0.2620749368615122,5.933316014239409e-05,0.00010756178435400443,0.9335854005878772,-7.389376972088968e-05,-0.29748954828585017
944,0.9346,0.00654895,1242.75,0.00773973,0.0539023,0.0461219,0.00293553,-0.304154,0.659893,-0.353371,5.94188e-05,0.000107619,-7.38605e-05,0.685916,-0.26225275537373716,5.9420565331924635e-05,0.00010762479113224366,0.934585322697574,-7.385777238044788e-05,-0.2976834144157666
945,0.9356,0.00653848,1242.91,0.00772762,0.0539394,0.0460887,0.00294794,-0.304395,0.66041,-0.353646,5.95062e-05,0.000107682,-7.38245e-05,0.686457,-0.2624305310368643,5.9507970529004695e-05,0.00010768779791470173,0.9355857619006591,-7.382177503867382e-05,-0.29787652492289063
946,0.9366,0.00652804,1243.06,0.00771553,0.0539765,0.0460555,0.00296012,-0.304636,0.660926,-0.353922,5.95936e-05,0.000107744,-7.37886e-05,0.686998,-0.2626082638612188,5.9595375733856315e-05,0.00010774980459316019,0.9365847818787878,-7.378587768824829e-05,-0.2980702842619931
947,0.9376,0.00651762,1243.22,0.00770348,0.0540138,0.0460223,0.00297207,-0.304876,0.661442,-0.354197,5.96811e-05,0.000107807,-7.37526e-05,0.687539,-0.26278521664270893,5.968288095226093e-05,0.00010781281138338983,0.9375843174842458,-7.374988034380969e-05,-0.2982632883945364
948,0.9386,0.00650722,1243.38,0.00769144,0.0540512,0.0459892,0.00298379,-0.305117,0.661958,-0.354472,5.97685e-05,0.00010787,-7.37167e-05,0.688079,-0.26296286399813196,5.977028617243363e-05,0.00010787581817761627,0.9385843689831652,-7.371398299083065e-05,-0.29845623945824074
949,0.9396,0.00649684,1243.54,0.00767943,0.0540886,0.0459561,0.00299528,-0.305357,0.662474,-0.354748,5.9856e-05,0.000107932,-7.36807e-05,0.688619,-0.26313973168580085,5.985779140615932e-05,0.00010793782486784309,0.9395849366418159,-7.367798564383854e-05,-0.2986498388182096
950,0.9406,0.00648649,1243.69,0.00766745,0.0541262,0.0459231,0.00300655,-0.305597,0.662989,-0.355022,5.99435e-05,0.000107994,-7.36448e-05,0.689159,-0.2633165569303182,5.994529664743453e-05,0.00010799983156184467,0.9405840801415546,-7.364208828830598e-05,-0.2988419824374955
951,0.9416,0.00647616,1243.85,0.00765549,0.0541638,0.0458901,0.00301759,-0.305837,0.663505,-0.355297,6.0031e-05,0.000108057,-7.36089e-05,0.689698,-0.26349333974186895,6.00328018964813e-05,0.00010806283836783948,0.9415856799174263,-7.360619093144116e-05,-0.2990347743822177
952,0.9426,0.00646585,1244.01,0.00764355,0.0542015,0.0458572,0.00302839,-0.306077,0.66402,-0.355572,6.01185e-05,0.000108119,-7.35729e-05,0.690238,-0.26367008013063586,6.0120307153299635e-05,0.00010812484506983466,0.9425858540653209,-7.357019358056327e-05,-0.2992275133164445
953,0.9436,0.00645556,1244.16,0.00763164,0.0542393,0.0458243,0.00303897,-0.306317,0.664534,-0.355846,6.0206e-05,0.000108181,-7.3537e-05,0.690777,-0.26384677810679924,6.020781241766748e-05,0.00010818685177538256,0.9435845998499883,-7.353429622114493e-05,-0.2994194986746006
954,0.9446,0.00644529,1244.32,0.00761976,0.0542773,0.0457915,0.00304932,-0.306557,0.665049,-0.356121,6.02935e-05,0.000108243,-7.35011e-05,0.691315,-0.2640234336805368,6.029531768958485e-05,0.00010824885848492727,0.9445858037067756,-7.349839886028331e-05,-0.2996121318241931
955,0.9456,0.00643505,1244.48,0.0076079,0.0543153,0.0457587,0.00305945,-0.306797,0.665563,-0.356395,6.03811e-05,0.000108305,-7.34652e-05,0.691854,-0.26420004686202403,6.038292297527725e-05,0.00010831086519824673,0.9455855777297935,-7.346250149831146e-05,-0.29980401181131455
956,0.9466,0.00642482,1244.63,0.00759606,0.0543534,0.0457259,0.00306934,-0.307036,0.666077,-0.356669,6.04687e-05,0.000108367,-7.34293e-05,0.692392,-0.2643758820376835,6.047052826874122e-05,0.00010837287191534095,0.9465858657687498,-7.342660413489632e-05,-0.29999583923052164
957,0.9476,0.00641462,1244.79,0.00758425,0.0543916,0.0456932,0.00307901,-0.307276,0.66659,-0.356943,6.05563e-05,0.000108429,-7.33934e-05,0.69293,-0.26455241064171464,6.05581335697547e-05,0.00010843487863643197,0.9475847205022228,-7.339070677025994e-05,-0.3001876140962161
958,0.9486,0.00640444,1244.94,0.00757246,0.0544299,0.0456606,0.00308845,-0.307515,0.667103,-0.357217,6.06439e-05,0.000108491,-7.33576e-05,0.693467,-0.2647281616124937,6.0645738878539746e-05,0.00010849688536129776,0.9485840877796301,-7.335490939708311e-05,-0.30037933642279546
959,0.9496,0.00639428,1245.1,0.0075607,0.0544683,0.045628,0.00309766,-0.307754,0.667616,-0.35749,6.07315e-05,0.000108553,-7.33217e-05,0.694005,-0.2649038705838098,6.0733344194874306e-05,0.00010855889209016034,0.9495839678639746,-7.331901202989322e-05,-0.30057030679531016
960,0.9506,0.00638415,1245.25,0.00754896,0.0545067,0.0455954,0.00310664,-0.307993,0.668129,-0.357764,6.08192e-05,0.000108614,-7.32858e-05,0.694542,-0.2650795375656998,6.0821049524983906e-05,0.00010861989871413513,0.9505843610183935,-7.328311466137105e-05,-0.3007619242784543
961,0.9516,0.00637403,1245.41,0.00753724,0.0545453,0.0455629,0.00311539,-0.308232,0.668642,-0.358037,6.09069e-05,0.000108676,-7.325e-05,0.695078,-0.2652551625681978,6.0908754862865067e-05,0.00010868190545032519,0.9515852675061593,-7.324731728430844e-05,-0.30095279021874
962,0.9526,0.00636394,1245.56,0.00752555,0.054584,0.0455304,0.00312391,-0.308471,0.669154,-0.35831,6.09946e-05,0.000108737,-7.32142e-05,0.695615,-0.2654307456013357,6.099646020851779e-05,0.0001087429120818495,0.9525847350049685,-7.321151990591357e-05,-0.30114360405973584
963,0.9536,0.00635386,1245.72,0.00751389,0.0546228,0.0454979,0.0031322,-0.308709,0.669666,-0.358583,6.10823e-05,0.000108799,-7.31783e-05,0.696151,-0.26560555228106253,6.108416556172003e-05,0.00010880491882581111,0.9535847143621616,-7.317562253350562e-05,-0.3013343658156631
964,0.9546,0.00634381,1245.87,0.00750225,0.0546617,0.0454655,0.00314027,-0.308948,0.670178,-0.358856,6.117e-05,0.00010886,-7.31425e-05,0.696687,-0.2657810515810657,6.117187092269383e-05,0.00010886592546488494,0.9545852058398774,-7.313982515255724e-05,-0.3015250755007389
965,0.9556,0.00633378,1246.03,0.00749063,0.0547007,0.0454332,0.00314811,-0.309186,0.670689,-0.359129,6.12577e-05,0.000108921,-7.31067e-05,0.697223,-0.2659557748978899,6.125957629121714e-05,0.00010892693210751148,0.9555842541151565,-7.310402777027658e-05,-0.30171573312917677
966,0.9566,0.00632377,1246.18,0.00747903,0.0547398,0.0454009,0.00315572,-0.309424,0.671201,-0.359402,6.13455e-05,0.000108982,-7.3071e-05,0.697758,-0.2661304566355128,6.134738167373754e-05,0.00010898793875391277,0.956585769619354,-7.306833037945548e-05,-0.30190633871518624
967,0.9576,0.00631378,1246.33,0.00746746,0.0547789,0.0453686,0.0031631,-0.309663,0.671712,-0.359674,6.14333e-05,0.000109043,-7.30352e-05,0.698293,-0.26630583049836554,6.143518706380746e-05,0.00010904894540408883,0.9575858404439634,-7.303253299473234e-05,-0.3020961943695162
968,0.9586,0.00630382,1246.49,0.00745592,0.0548182,0.0453364,0.00317025,-0.309901,0.672222,-0.359947,6.15211e-05,0.000109104,-7.29994e-05,0.698828,-0.2664804289326691,6.152299246164894e-05,0.0001091099520578176,0.9585844638499132,-7.299673560867692e-05,-0.30228669610378345
969,0.9596,0.00629387,1246.64,0.0074444,0.0548576,0.0453042,0.00317717,-0.310139,0.672733,-0.360219,6.16089e-05,0.000109165,-7.29637e-05,0.699363,-0.2666549858174899,6.161079786726198e-05,0.00010917095871554316,0.9595855562682698,-7.296103821397004e-05,-0.30247644831497267
970,0.9606,0.00628394,1246.79,0.0074329,0.0548971,0.0452721,0.00318386,-0.310376,0.673243,-0.360491,6.16968e-05,0.000109226,-7.29279e-05,0.699897,-0.26682876799185007,6.169870328665006e-05,0.00010923196537682145,0.9605851997893973,-7.292524082536112e-05,-0.3026661489205791
971,0.9616,0.00627404,1246.95,0.00742142,0.0549367,0.04524,0.00319032,-0.310614,0.673753,-0.360763,6.17846e-05,0.000109287,-7.28922e-05,0.700431,-0.26700324198183956,6.178650870780622e-05,0.00010929297204165245,0.9615853532587462,-7.288954342810072e-05,-0.30285579793463746
972,0.9626,0.00626415,1247.1,0.00740997,0.0549764,0.045208,0.00319656,-0.310852,0.674262,-0.361035,6.18725e-05,0.000109347,-7.28565e-05,0.700965,-0.2671776744519606,6.187441414251538e-05,0.00010935297860115156,0.9625840543514208,-7.285384602961908e-05,-0.3030453953711789
973,0.9636,0.00625429,1247.25,0.00739854,0.0550162,0.045176,0.00320256,-0.311089,0.674772,-0.361306,6.19604e-05,0.000109408,-7.28209e-05,0.701498,-0.26735133276379264,6.196231958521814e-05,0.00010941398527353208,0.9635852274965917,-7.2818248622597e-05,-0.3032342444788235
974,0.9646,0.00624445,1247.41,0.00738714,0.0550561,0.045144,0.00320834,-0.311326,0.675281,-0.361578,6.20483e-05,0.000109468,-7.27852e-05,0.702032,-0.2675249499234815,6.205022503547042e-05,0.00010947399184013662,0.9645849467843621,-7.278255122156185e-05,-0.3034237389919032
975,0.9656,0.00623463,1247.56,0.00737576,0.0550961,0.0451121,0.00321389,-0.311564,0.67579,-0.361849,6.21363e-05,0.000109529,-7.27495e-05,0.702565,-0.2676992582418871,6.213823049994183e-05,0.0001095349985198446,0.9655851750587763,-7.274685381930546e-05,-0.30361248558231824
976,0.9666,0.00622482,1247.71,0.0073644,0.0551362,0.0450802,0.0032192,-0.311801,0.676298,-0.36212,6.22243e-05,0.000109589,-7.27139e-05,0.703097,-0.26787279295300825,6.222623597196275e-05,0.00010959500509377662,0.9665839459940446,-7.27112564083976e-05,-0.3038011810293375
977,0.9676,0.00621504,1247.86,0.00735306,0.0551764,0.0450484,0.00322429,-0.312038,0.676807,-0.362392,6.23122e-05,0.00010965,-7.26783e-05,0.70363,-0.26804628654127605,6.231414144552971e-05,0.00010965601178103412,0.9675851920180518,-7.267565899637951e-05,-0.3039905213566457
978,0.9686,0.00620528,1248.01,0.00734175,0.0552168,0.0450166,0.00322915,-0.312275,0.677315,-0.362662,6.24003e-05,0.00010971,-7.26427e-05,0.704162,-0.2682197390164356,6.240224693931928e-05,0.00010971601836207157,0.9685849792200456,-7.264006158291814e-05,-0.30417841854861694
979,0.9696,0.00619554,1248.17,0.00733046,0.0552572,0.0449849,0.00323378,-0.312511,0.677823,-0.362933,6.24883e-05,0.00010977,-7.26071e-05,0.704694,-0.26839241878101405,6.249025243443285e-05,0.00010977602494688377,0.9695852744429643,-7.260446416834654e-05,-0.30436696064858193
980,0.9706,0.00618582,1248.32,0.0073192,0.0552977,0.0449532,0.00323818,-0.312748,0.67833,-0.363204,6.25763e-05,0.00010983,-7.25716e-05,0.705225,-0.2685657892325529,6.257825793754002e-05,0.00010983603153524868,0.9705841073598556,-7.256896674512348e-05,-0.3045554516605604
981,0.9716,0.00617612,1248.47,0.00730796,0.0553384,0.0449215,0.00324235,-0.312984,0.678838,-0.363475,6.26644e-05,0.00010989,-7.2536e-05,0.705757,-0.2687383873389164,6.266636345442222e-05,0.0001098960381271663,0.9715854183978645,-7.253336932799836e-05,-0.30474389159839554
982,0.9726,0.00616644,1248.62,0.00729674,0.0553792,0.0448899,0.0032463,-0.313221,0.679345,-0.363745,6.27525e-05,0.00010995,-7.25005e-05,0.706288,-0.2689116758056227,6.275446897929804e-05,0.00010995604472285869,0.9725852656448517,-7.249787190222179e-05,-0.3049315854078595
983,0.9736,0.00615678,1248.77,0.00728554,0.05542,0.0448583,0.00325001,-0.313457,0.679852,-0.364015,6.28407e-05,0.00011001,-7.2465e-05,0.706818,-0.26908419229238634,6.284267451817094e-05,0.00011001605132188175,0.97358561994292,-7.246237447533499e-05,-0.3051192285468356
984,0.9746,0.00614714,1248.92,0.00727437,0.055461,0.0448268,0.00325349,-0.313693,0.680358,-0.364285,6.29288e-05,0.000110069,-7.24295e-05,0.707349,-0.2692566680700631,6.293078005836783e-05,0.00011007505781468474,0.9745845069637147,-7.242687704711592e-05,-0.3053068210290033
985,0.9756,0.00613752,1249.07,0.00726321,0.0555021,0.0447953,0.00325674,-0.313929,0.680865,-0.364555,6.3017e-05,0.000110129,-7.23941e-05,0.707879,-0.26942910314825896,6.301898561278385e-05,0.00011013506442103527,0.9755858751341266,-7.239147961035641e-05,-0.3054943628680379
986,0.9766,0.00612792,1249.22,0.00725209,0.0555433,0.0447639,0.00325977,-0.314165,0.681371,-0.364825,6.31052e-05,0.000110189,-7.23587e-05,0.708409,-0.269601497536578,6.310719117497143e-05,0.00011019507103093851,0.9765857745401598,-7.235608217237566e-05,-0.30568185407761117
987,0.9776,0.00611835,1249.37,0.00724098,0.0555846,0.0447325,0.00326256,-0.314401,0.681876,-0.365095,6.31934e-05,0.000110248,-7.23232e-05,0.708939,-0.26977385124462194,6.319539674493058e-05,0.0001102540775341776,0.9775842024381283,-7.232058474038183e-05,-0.30586929467139135
988,0.9786,0.00610879,1249.52,0.0072299,0.055626,0.0447011,0.00326512,-0.314637,0.682382,-0.365365,6.32816e-05,0.000110308,-7.22879e-05,0.709468,-0.26994616428199003,6.328360232266128e-05,0.00011031408415118626,0.9785851132536425,-7.228528729275041e-05,-0.3060566846630428
989,0.9796,0.00609925,1249.67,0.00721884,0.0556676,0.0446698,0.00326746,-0.314872,0.682887,-0.365634,6.33699e-05,0.000110367,-7.22525e-05,0.709998,-0.27011770677635116,6.337190791461111e-05,0.00011037309066130874,0.9795845510726449,-7.22498898509949e-05,-0.30624333030990347
990,0.9806,0.00608973,1249.82,0.0072078,0.0557092,0.0446385,0.00326956,-0.315108,0.683392,-0.365903,6.34582e-05,0.000110426,-7.22171e-05,0.710527,-0.2702899386733888,6.346021351411046e-05,0.00011043209717520597,0.980584493735208,-7.221449240801814e-05,-0.3064299257558375
991,0.9816,0.00608023,1249.97,0.00719678,0.055751,0.0446073,0.00327144,-0.315343,0.683897,-0.366172,6.35465e-05,0.000110486,-7.21818e-05,0.711055,-0.2704614003902597,6.354851912160342e-05,0.00011049210380287278,0.9815849414963422,-7.217919495650094e-05,-0.30661647101434697
992,0.9826,0.00607075,1250.12,0.00718579,0.0557929,0.0445761,0.00327308,-0.315578,0.684402,-0.366441,6.36348e-05,0.000110545,-7.21465e-05,0.711584,-0.27063282181836135,6.363682473686794e-05,0.00011055111032365339,0.982585894611187,-7.214389750387351e-05,-0.30680296609893065
993,0.9836,0.00606129,1250.27,0.00717482,0.0558348,0.0445449,0.0032745,-0.315813,0.684906,-0.36671,6.37232e-05,0.000110604,-7.21113e-05,0.712112,-0.27080420296716035,6.372523036612954e-05,0.00011061011684798672,0.983585369748649,-7.210870004270564e-05,-0.3069894110230835
994,0.9846,0.00605184,1250.42,0.00716387,0.055877,0.0445138,0.00327568,-0.316048,0.68541,-0.366979,6.38116e-05,0.000110663,-7.2076e-05,0.71264,-0.2709755438461212,6.381363600338474e-05,0.00011066912337565071,0.9845853487485425,-7.20734025875247e-05,-0.3071758058002968
995,0.9856,0.00604242,1250.57,0.00715295,0.0559192,0.0444828,0.00327664,-0.316283,0.685914,-0.367248,6.39e-05,0.000110722,-7.20408e-05,0.713167,-0.27114684446470627,6.390204164841151e-05,0.00011072812990686742,0.9855858318648789,-7.203820512391435e-05,-0.30736215044405824
996,0.9866,0.00603302,1250.72,0.00714204,0.0559615,0.0444517,0.00327736,-0.316518,0.686417,-0.367516,6.39884e-05,0.00011078,-7.20056e-05,0.713695,-0.27131810483237584,6.399044730143189e-05,0.00011078613633075385,0.9865848327659708,-7.200300765897172e-05,-0.3075477525159507
997,0.9876,0.00602364,1250.87,0.00713116,0.056004,0.0444207,0.00327786,-0.316752,0.68692,-0.367785,6.40769e-05,0.000110839,-7.19705e-05,0.714222,-0.2714885964475481,6.407895296844934e-05,0.00011084514286885394,0.9875843362909147,-7.196791018571069e-05,-0.30773399711950167
998,0.9886,0.00601427,1251.02,0.0071203,0.0560466,0.0443898,0.00327812,-0.316987,0.687423,-0.368053,6.41654e-05,0.000110898,-7.19353e-05,0.714748,-0.2716597765129375,6.416745864323836e-05,0.00011090414941050675,0.9885843426925949,-7.193271271832558e-05,-0.30791949954983766
999,0.9896,0.00600493,1251.17,0.00710946,0.0560893,0.0443589,0.00327816,-0.317221,0.687926,-0.368321,6.42539e-05,0.000110957,-7.19002e-05,0.715275,-0.27183018818629,6.425596432602099e-05,0.00011096315595571227,0.9895848522240216,-7.189761524262206e-05,-0.3081049522721835
