,Time,S11,S22,S33,S12,S13,S23,LE11,LE22,LE33,LE12,LE13,LE23,SDV_EPBAR,E11,E12,E13,E22,E23,E33
0,1e-05,3.46945e-18,0.0830984,6.93889e-18,5.28749e-19,-1.0575e-18,0.0,-1.2e-07,4e-07,-1.2e-07,0.0,0.0,0.0,0.0,-1.1999999283140994e-07,0.0,0.0,4.0000007994756004e-07,0.0,-1.1999999283140994e-07
1,2e-05,0.0,0.166197,0.0,-2.7495e-25,-5.28749e-19,-5.28749e-19,-2.4e-07,8e-07,-2.4e-07,0.0,0.0,0.0,0.0,-2.3999997122992056e-07,0.0,0.0,8.000003199892802e-07,0.0,-2.3999997122992056e-07
2,3.5e-05,1.04083e-17,0.290844,1.38778e-17,-2.7495e-25,-5.28749e-19,-5.28748e-19,-4.2e-07,1.4e-06,-4.2e-07,0.0,0.0,0.0,0.0,-4.19999911849267e-07,0.0,0.0,1.4000009800341218e-06,0.0,-4.19999911849267e-07
3,5.75e-05,1.04083e-17,0.477815,2.77556e-17,-1.0575e-18,-2.64375e-18,5.28749e-19,-6.89999e-07,2.3e-06,-6.89999e-07,0.0,0.0,0.0,0.0,-6.899987619046755e-07,0.0,0.0,2.3000026450059607e-06,0.0,-6.899987619046755e-07
4,9.125e-05,2.42861e-17,0.758272,2.77556e-17,1.0575e-18,1.58625e-18,5.28748e-19,-1.095e-06,3.64999e-06,-1.095e-06,0.0,0.0,0.0,0.0,-1.0949994004860741e-06,0.0,0.0,3.649996661136967e-06,0.0,-1.0949994004860741e-06
5,0.00014188,-7.28584e-17,1.17896,-5.55112e-17,-1.0575e-18,1.58625e-18,5.28747e-19,-1.7025e-06,5.67498e-06,-1.7025e-06,0.0,0.0,0.0,0.0,-1.7024985506930435e-06,0.0,0.0,5.674996102822405e-06,0.0,-1.7024985506930435e-06
6,0.00021781,1.63064e-16,1.80998,1.66533e-16,1.0575e-18,5.81624e-18,5.28745e-19,-2.61374e-06,8.71246e-06,-2.61374e-06,0.0,0.0,0.0,0.0,-2.6137365841671922e-06,0.0,0.0,8.712497953533571e-06,0.0,-2.6137365841671922e-06
7,0.00033172,-1.14492e-16,2.75651,-1.66533e-16,1.05749e-18,-1.11037e-17,5.28742e-19,-3.9806e-06,1.32687e-05,-3.9806e-06,0.0,0.0,0.0,0.0,-3.980592077401646e-06,0.0,0.0,1.3268788029652256e-05,0.0,-3.980592077401646e-06
8,0.00050258,-8.67362e-17,4.1763,5.55112e-17,1.05748e-18,5.81624e-18,5.28737e-19,-6.03088e-06,2.01029e-05,-6.03088e-06,0.0,0.0,0.0,0.0,-6.030861814276811e-06,0.0,0.0,2.0103102064572553e-05,0.0,-6.030861814276811e-06
9,0.00075887,-4.75314e-16,6.30597,-4.996e-16,1.05747e-18,5.81624e-18,5.2873e-19,-9.10627e-06,3.03542e-05,-9.10627e-06,0.0,0.0,0.0,0.0,-9.106228538002803e-06,0.0,0.0,3.0354660693454605e-05,0.0,-9.106228538002803e-06
10,0.0011433,-4.75314e-16,9.50043,-7.21645e-16,1.05745e-18,-2.80237e-17,5.28719e-19,-1.37193e-05,4.5731e-05,-1.37193e-05,0.0,0.0,0.0,0.0,-1.3719205890883046e-05,0.0,0.0,4.573204567814848e-05,0.0,-1.3719205890883046e-05
11,0.00172,-5.13825e-15,14.292,-4.94049e-15,1.05741e-18,3.96562e-17,5.28704e-19,-2.06387e-05,6.87957e-05,-2.06387e-05,0.0,0.0,0.0,0.0,-2.0638487023494356e-05,0.0,0.0,6.879806647841491e-05,0.0,-2.0638487023494356e-05
12,0.0025849,-3.53363e-14,21.4792,-3.46945e-14,1.05737e-18,3.96562e-17,5.2868e-19,-3.10175e-05,0.000103392,-3.10175e-05,0.0,0.0,0.0,0.0,-3.101701896235376e-05,0.0,0.0,0.00010339734513697962,0.0,-3.101701896235376e-05
13,0.0035849,-7.64146e-14,29.788,-7.68829e-14,1.05731e-18,-2.80237e-17,5.28652e-19,-4.3016e-05,0.000143387,-4.3016e-05,0.0,0.0,0.0,0.0,-4.301507482518119e-05,0.0,0.0,0.00014339728040724253,0.0,-4.301507482518119e-05
14,0.0045849,-8.72948e-14,38.0965,-8.75411e-14,1.05726e-18,1.07336e-16,5.28625e-19,-5.50141e-05,0.00018338,-5.50141e-05,0.0,0.0,0.0,0.0,-5.501258675211229e-05,0.0,0.0,0.0001833968151401244,0.0,-5.501258675211229e-05
15,0.0055849,-8.41861e-14,46.4047,-8.39884e-14,3.48954e-17,1.07336e-16,5.28597e-19,-6.70116e-05,0.000223372,-6.70116e-05,0.0,0.0,0.0,0.0,-6.70093547728845e-05,0.0,0.0,0.00022339694938278143,0.0,-6.70093547728845e-05
16,0.0065849,-8.24098e-14,54.7125,-8.26561e-14,1.05539e-18,1.75016e-16,5.2857e-19,-7.90087e-05,0.000263362,-7.90087e-05,0.0,0.0,0.0,0.0,-7.900557889484183e-05,0.0,0.0,0.0002633966828162748,0.0,-7.900557889484183e-05
17,0.0075849,-8.17436e-14,63.02,-8.2212e-14,1.05533e-18,1.07336e-16,5.28542e-19,-9.10053e-05,0.000303351,-9.10053e-05,0.0,0.0,0.0,0.0,-9.10011591432891e-05,0.0,0.0,0.0003033970155674748,0.0,-9.10011591432891e-05
18,0.0085849,-8.24098e-14,71.3271,-8.26561e-14,1.05528e-18,3.96562e-17,5.28515e-19,-0.000103001,0.000343338,-0.000103001,0.0,0.0,0.0,0.0,-0.00010299569557914445,0.0,0.0,0.0003433969472372844,0.0,-0.00010299569557914445
19,0.0095849,-9.06254e-14,79.6339,-9.15379e-14,1.05522e-18,1.07336e-16,5.28487e-19,-0.000114997,0.000383324,-0.000114997,0.0,0.0,0.0,0.0,-0.00011499038809847928,0.0,0.0,0.00038339747803273205,0.0,-0.00011499038809847928
20,0.010585,-8.15216e-14,87.9404,-8.17679e-14,1.05517e-18,1.07336e-16,5.2846e-19,-0.000126992,0.000423307,-0.000126992,0.0,0.0,0.0,0.0,-0.00012698393685728337,0.0,0.0,0.00042339660705148496,0.0,-0.00012698393685728337
21,0.011585,-8.99593e-14,96.2466,-9.02056e-14,1.05511e-18,3.96562e-17,5.28432e-19,-0.000138987,0.00046329,-0.000138987,0.0,0.0,0.0,0.0,-0.00013897734175438714,0.0,0.0,0.000463397335387139,0.0,-0.00013897734175438714
22,0.012585,-8.21877e-14,104.552,-8.17679e-14,1.05506e-18,3.96562e-17,5.28405e-19,-0.000150981,0.00050327,-0.000150981,0.0,0.0,0.0,0.0,-0.0001509696029423635,0.0,0.0,0.0005033966615939356,0.0,-0.0001509696029423635
23,0.013585,-8.41861e-14,112.858,-8.39884e-14,1.055e-18,1.75016e-16,5.28377e-19,-0.000162975,0.000543249,-0.000162975,0.0,0.0,0.0,0.0,-0.00016296172029606204,0.0,0.0,0.0005433965864622969,0.0,-0.00016296172029606204
24,0.014585,-8.61845e-14,121.163,-8.57647e-14,1.05495e-18,1.07336e-16,5.2835e-19,-0.000174968,0.000583227,-0.000174968,0.0,0.0,0.0,0.0,-0.00017495269399214752,0.0,0.0,0.0005833971099360458,0.0,-0.00017495269399214752
25,0.015585,-8.30759e-14,129.468,-8.26561e-14,1.05489e-18,1.75016e-16,5.28322e-19,-0.000186961,0.000623203,-0.000186961,0.0,0.0,0.0,0.0,-0.0001869435238813777,0.0,0.0,0.0006233972313360869,0.0,-0.0001869435238813777
26,0.016585,-9.50663e-14,137.772,-9.50906e-14,1.05484e-18,1.07336e-16,5.28295e-19,-0.000198953,0.000663177,-0.000198953,0.0,0.0,0.0,0.0,-0.0001989332101642871,0.0,0.0,0.000663396950486117,0.0,-0.0001989332101642871
27,0.017585,-7.8413e-14,146.077,-7.86593e-14,1.05478e-18,3.96562e-17,5.28267e-19,-0.000210945,0.00070315,-0.000210945,0.0,0.0,0.0,0.0,-0.00021092275266787475,0.0,0.0,0.0007033972679133527,0.0,-0.00021092275266787475
28,0.018585,-8.57404e-14,154.38,-8.57647e-14,1.05473e-18,1.07336e-16,5.2824e-19,-0.000222936,0.000743121,-0.000222936,0.0,0.0,0.0,0.0,-0.00022291115161654496,0.0,0.0,0.0007433971828185726,0.0,-0.00022291115161654496
29,0.019585,-7.68587e-14,162.684,-7.68829e-14,-3.27835e-17,1.75016e-16,5.28213e-19,-0.000234927,0.00078309,-0.000234927,0.0,0.0,0.0,0.0,-0.00023489940681320487,0.0,0.0,0.0007833966950254734,0.0,-0.00023489940681320487
30,0.020585,-7.88571e-14,170.987,-7.91034e-14,1.05638e-18,1.41176e-16,5.28185e-19,-0.000246917,0.000823058,-0.000246917,0.0,0.0,0.0,0.0,-0.0002468865185064617,0.0,0.0,0.0008233968051813978,0.0,-0.0002468865185064617
31,0.021585,-7.59705e-14,179.29,-7.59948e-14,1.05632e-18,7.34961e-17,5.28158e-19,-0.000258907,0.000863025,-0.000258907,0.0,0.0,0.0,0.0,-0.00025887348647501973,0.0,0.0,0.0008633975132303906,0.0,-0.00025887348647501973
32,0.022585,-7.55264e-14,187.592,-7.55507e-14,1.05627e-18,7.34961e-17,5.2813e-19,-0.000270897,0.000902989,-0.000270897,0.0,0.0,0.0,0.0,-0.00027086031072076633,0.0,0.0,0.0009033968173093321,0.0,-0.00027086031072076633
33,0.023585,-7.44162e-14,195.895,-7.46625e-14,1.05621e-18,1.41176e-16,5.28103e-19,-0.000282886,0.000942952,-0.000282886,0.0,0.0,0.0,0.0,-0.0002828459915281689,0.0,0.0,0.0009433967190091153,0.0,-0.0002828459915281689
34,0.024585,-7.19737e-14,204.196,-7.24421e-14,1.05616e-18,2.08856e-16,5.28075e-19,-0.000294874,0.000982914,-0.000294874,0.0,0.0,0.0,0.0,-0.0002948305289349751,0.0,0.0,0.0009833972182733408,0.0,-0.0002948305289349751
35,0.025585,-7.39721e-14,212.498,-7.33302e-14,1.0561e-18,1.41176e-16,5.28048e-19,-0.000306862,0.00102287,-0.000306862,0.0,0.0,0.0,0.0,-0.00030681492267203847,0.0,0.0,0.001023393309929288,0.0,-0.00030681492267203847
36,0.026585,-8.46302e-14,220.799,-8.44325e-14,1.05605e-18,1.41176e-16,5.2802e-19,-0.00031885,0.00106283,-0.00031885,0.0,0.0,0.0,0.0,-0.00031879917274102443,0.0,0.0,0.0010633950039544704,0.0,-0.00031879917274102443
37,0.027585,-8.59625e-14,229.1,-8.57647e-14,1.05599e-18,7.34961e-17,5.27993e-19,-0.000330837,0.00110279,-0.000330837,0.0,0.0,0.0,0.0,-0.000330782279474362,0.0,0.0,0.0011033982964792077,0.0,-0.000330782279474362
38,0.028585,-6.93091e-14,237.4,-6.93334e-14,1.05594e-18,7.34961e-17,5.27965e-19,-0.000342823,0.00114274,-0.000342823,0.0,0.0,0.0,0.0,-0.0003427642429099098,0.0,0.0,0.0011433931761335447,0.0,-0.0003427642429099098
39,0.029585,-8.46302e-14,245.701,-8.44325e-14,1.05588e-18,7.34961e-17,5.27938e-19,-0.000354809,0.0011827,-0.000354809,0.0,0.0,0.0,0.0,-0.00035474606273055986,0.0,0.0,0.0011833996654493362,0.0,-0.00035474606273055986
40,0.030585,-8.70727e-14,254.001,-8.62088e-14,1.05583e-18,2.08856e-16,5.2791e-19,-0.000366795,0.00122265,-0.000366795,0.0,0.0,0.0,0.0,-0.0003667277389378665,0.0,0.0,0.0012233977412221542,0.0,-0.0003667277389378665
41,0.031585,-6.88651e-14,262.3,-6.88893e-14,1.05577e-18,1.41176e-16,5.27883e-19,-0.00037878,0.0012626,-0.00037878,0.0,0.0,0.0,0.0,-0.0003787082719124424,0.0,0.0,0.0012633974149500737,0.0,-0.0003787082719124424
42,0.032585,-6.97532e-14,270.599,-6.93334e-14,1.05572e-18,1.41176e-16,-3.33103e-17,-0.000390765,0.00130255,-0.000390765,0.0,0.0,0.0,0.0,-0.0003906886613012084,0.0,0.0,0.0013033986866968217,0.0,-0.0003906886613012084
43,0.033585,-6.95312e-14,278.898,-6.93334e-14,1.05566e-18,2.08856e-16,3.43678e-17,-0.000402749,0.0013425,-0.000402749,0.0,0.0,0.0,0.0,-0.000402667907508536,0.0,0.0,0.0013434015565263469,0.0,-0.000402667907508536
44,0.034585,-8.61845e-14,287.197,-8.57647e-14,1.05561e-18,1.41176e-16,-3.33104e-17,-0.000414732,0.00138244,-0.000414732,0.0,0.0,0.0,0.0,-0.00041464601057206174,0.0,0.0,0.0013833960106686138,0.0,-0.00041464601057206174
45,0.035585,-8.30759e-14,295.495,-8.31002e-14,1.05555e-18,1.41176e-16,-3.33087e-17,-0.000426716,0.00142238,-0.000426716,0.0,0.0,0.0,0.0,-0.00042662496967615926,0.0,0.0,0.001423392062221085,0.0,-0.00042662496967615926
46,0.036585,-7.08635e-14,303.793,-7.11098e-14,1.0555e-18,7.34961e-17,3.43694e-17,-0.000438698,0.00146233,-0.000438698,0.0,0.0,0.0,0.0,-0.00043860178610255485,0.0,0.0,0.00146339972588172,0.0,-0.00043860178610255485
47,0.037585,-6.93091e-14,312.09,-6.93334e-14,1.05544e-18,2.08856e-16,-3.33087e-17,-0.00045068,0.00150227,-0.00045068,0.0,0.0,0.0,0.0,-0.00045057845902352067,0.0,0.0,0.0015033989728463482,0.0,-0.00045057845902352067
48,0.038585,-1.05724e-13,320.387,-1.06193e-13,1.05539e-18,2.08856e-16,-3.3307e-17,-0.000462662,0.00154221,-0.000462662,0.0,0.0,0.0,0.0,-0.0004625549884409441,0.0,0.0,0.001543399817412805,0.0,-0.0004625549884409441
49,0.039585,-8.50743e-14,328.684,-8.53206e-14,1.05533e-18,2.08856e-16,-3.33053e-17,-0.000474643,0.00158214,-0.000474643,0.0,0.0,0.0,0.0,-0.0004745303748309171,0.0,0.0,0.0015833922438110992,0.0,-0.0004745303748309171
50,0.040585,-6.59785e-14,336.981,-6.57807e-14,1.05528e-18,2.08856e-16,-3.33035e-17,-0.000486624,0.00162208,-0.000486624,0.0,0.0,0.0,0.0,-0.00048650561774465917,0.0,0.0,0.0016233962833727134,0.0,-0.00048650561774465917
51,0.041585,-6.57564e-14,345.277,-6.53366e-14,1.05522e-18,2.08856e-16,5.36394e-19,-0.000498605,0.00166202,-0.000498605,0.0,0.0,0.0,0.0,-0.0004984807171838357,0.0,0.0,0.0016634019207275585,0.0,-0.0004984807171838357
52,0.042585,-8.59625e-14,353.573,-8.57647e-14,1.05517e-18,7.34961e-17,-6.714e-17,-0.000510584,0.00170195,-0.000510584,0.0,0.0,0.0,0.0,-0.0005104536741711296,0.0,0.0,0.0017033991389052705,0.0,-0.0005104536741711296
53,0.043585,-4.3774e-14,361.868,-4.31322e-14,1.05511e-18,2.08856e-16,-3.32983e-17,-0.000522564,0.00174188,-0.000522564,0.0,0.0,0.0,0.0,-0.0005224274872128731,0.0,0.0,0.0017433979542038625,0.0,-0.0005224274872128731
54,0.044585,-4.26638e-14,370.164,-4.26881e-14,1.05506e-18,1.41176e-16,-3.32966e-17,-0.000534543,0.00178181,-0.000534543,0.0,0.0,0.0,0.0,-0.0005344001573435175,0.0,0.0,0.0017833983666870612,0.0,-0.0005344001573435175
55,0.045585,-4.31079e-14,378.459,-4.31322e-14,1.055e-18,1.75016e-16,5.43311e-19,-0.000546521,0.00182174,-0.000546521,0.0,0.0,0.0,0.0,-0.0005463716846008104,0.0,0.0,0.0018234003764188156,0.0,-0.0005463716846008104
56,0.046585,-8.75168e-14,386.753,-8.75411e-14,-3.27832e-17,1.75016e-16,-3.32949e-17,-0.000558499,0.00186166,-0.000558499,0.0,0.0,0.0,0.0,-0.0005583430684640289,0.0,0.0,0.0018633939648284858,0.0,-0.0005583430684640289
57,0.047585,-8.50743e-14,395.047,-8.53206e-14,6.8733e-17,1.41176e-16,-3.32932e-17,-0.000570476,0.00190159,-0.000570476,0.0,0.0,0.0,0.0,-0.0005703133095051882,0.0,0.0,0.0019033991688481855,0.0,-0.0005703133095051882
58,0.048585,-8.59625e-14,403.341,-8.62088e-14,1.05308e-18,1.41176e-16,5.46741e-19,-0.000582453,0.00194151,-0.000582453,0.0,0.0,0.0,0.0,-0.0005822834071795846,0.0,0.0,0.00194339595087345,0.0,-0.0005822834071795846
59,0.049585,-8.61845e-14,411.635,-8.57647e-14,1.05303e-18,1.75016e-16,-3.32915e-17,-0.00059443,0.00198143,-0.00059443,0.0,0.0,0.0,0.0,-0.0005942533614889944,0.0,0.0,0.0019833943296021506,0.0,-0.0005942533614889944
60,0.050585,-6.19817e-14,419.928,-6.17839e-14,3.48912e-17,1.41176e-16,-1.00966e-16,-0.000606406,0.00202135,-0.000606406,0.0,0.0,0.0,0.0,-0.0006062221730414041,0.0,0.0,0.002023394305097792,0.0,-0.0006062221730414041
61,0.051585,-1.12386e-13,428.221,-1.1241e-13,3.48893e-17,2.42696e-16,-6.71227e-17,-0.000618381,0.00206127,-0.000618381,0.0,0.0,0.0,0.0,-0.0006181898418743392,0.0,0.0,0.0020633958774245453,0.0,-0.0006181898418743392
62,0.052585,-6.04274e-14,436.513,-6.04516e-14,3.48875e-17,1.41176e-16,-3.3281e-17,-0.000630356,0.00210119,-0.000630356,0.0,0.0,0.0,0.0,-0.0006301573673952454,0.0,0.0,0.002103399046645915,0.0,-0.0006301573673952454
63,0.053585,-1.13052e-13,444.806,-1.1241e-13,1.04754e-18,1.75016e-16,5.58897e-19,-0.000642331,0.0021411,-0.000642331,0.0,0.0,0.0,0.0,-0.000642124749605899,0.0,0.0,0.0021433937913917234,0.0,-0.000642124749605899
64,0.054585,-6.02053e-14,453.098,-6.08957e-14,3.48857e-17,7.34961e-17,5.58869e-19,-0.000654305,0.00218102,-0.000654305,0.0,0.0,0.0,0.0,-0.0006540909891621371,0.0,0.0,0.0021834001541936043,0.0,-0.0006540909891621371
65,0.055585,-5.8873e-14,461.389,-5.77871e-14,3.48839e-17,1.07336e-16,-3.32793e-17,-0.000666279,0.00222093,-0.000666279,0.0,0.0,0.0,0.0,-0.0006660570854354342,0.0,0.0,0.0022233980918473506,0.0,-0.0006660570854354342
66,0.056585,-3.11175e-14,469.68,-3.15858e-14,3.48821e-17,1.75016e-16,5.6057e-19,-0.000678252,0.00226084,-0.000678252,0.0,0.0,0.0,0.0,-0.000678022039105719,0.0,0.0,0.002263397625850594,0.0,-0.000678022039105719
67,0.057585,-8.59625e-14,477.971,-8.57647e-14,3.48802e-17,7.34961e-17,5.60543e-19,-0.000690225,0.00230075,-0.000690225,0.0,0.0,0.0,0.0,-0.0006899868495202632,0.0,0.0,0.002303398756267061,0.0,-0.0006899868495202632
68,0.058585,-1.17271e-13,486.262,-1.16407e-13,6.87166e-17,7.34961e-17,5.60515e-19,-0.000702197,0.00234066,-0.000702197,0.0,0.0,0.0,0.0,-0.0007019505173830876,0.0,0.0,0.002343401483160479,0.0,-0.0007019505173830876
69,0.059585,-2.68986e-14,494.552,-2.67009e-14,6.87131e-17,1.75016e-16,-3.32777e-17,-0.000714168,0.00238056,-0.000714168,0.0,0.0,0.0,0.0,-0.0007139130427316065,0.0,0.0,0.002383395782760589,0.0,-0.0007139130427316065
70,0.060585,-0.00258046,500.271,-0.00257499,6.82517e-17,2.40923e-16,-3.30265e-17,-0.000728266,0.00242047,-0.000728974,0.0,0.0,0.0,1.29745e-05,-0.0007280008786801906,0.0,0.0,0.002423401702399186,0.0,-0.0007287083630050928
71,0.061585,-0.0133343,501.383,-0.0134907,6.69971e-17,3.71215e-17,-3.23444e-17,-0.00074618,0.00246037,-0.000748863,0.0,0.0,0.0,4.91784e-05,-0.0007459016769344462,0.0,0.0,0.0024633991940716804,0.0,-0.0007485826720836641
72,0.062585,0.000198561,502.508,0.00019355,6.57678e-17,1.02699e-16,-3.16777e-17,-0.000764034,0.00250027,-0.000768692,0.0,0.0,0.0,8.53935e-05,-0.0007637422003431427,0.0,0.0,0.002503398281676006,0.0,-0.0007683966319917968
73,0.063585,-0.000160138,503.608,-0.000159174,-6.83154e-17,2.9961e-16,3.52602e-17,-0.000781936,0.00254017,-0.000788572,0.0,0.0,0.0,0.000121686,-0.0007816303677127268,0.0,0.0,0.0025433989652758893,0.0,-0.0007882611588126975
74,0.064585,-2.42406e-05,504.699,-2.56461e-05,-6.23947e-19,2.83097e-17,1.0082e-16,-0.000799844,0.00258007,-0.000808462,0.0,0.0,0.0,0.000158029,-0.0007995242100542477,0.0,0.0,0.0025834012449348354,0.0,-0.000808135282649447
75,0.065585,-2.95344e-05,505.779,-3.07471e-05,6.58274e-17,2.93043e-16,9.8745e-17,-0.00081776,0.00261996,-0.000828363,0.0,0.0,0.0,0.000194423,-0.0008174257254162098,0.0,0.0,0.0026233950944825057,0.0,-0.0008280200020855943
76,0.066585,-2.75156e-05,506.848,-2.87615e-05,-1.81874e-18,8.8201e-17,3.04261e-17,-0.000835683,0.00265986,-0.000848275,0.0,0.0,0.0,0.000230867,-0.0008353339142102012,0.0,0.0,0.0026634005660506332,0.0,-0.0008479153164728803
77,0.067585,-2.69841e-05,507.908,-2.82166e-05,-6.82275e-17,8.64361e-17,2.98006e-17,-0.000853615,0.00269975,-0.000868196,0.0,0.0,0.0,0.00026736,-0.000853250774359382,0.0,0.0,0.00270339760683469,0.0,-0.0008678192268982698
78,0.068585,-2.63732e-05,508.958,-2.75957e-05,6.59051e-17,8.47078e-17,2.91883e-17,-0.000871553,0.00273964,-0.000888127,0.0,0.0,0.0,0.0003039,-0.0008711733079993511,0.0,0.0,0.0027433962431329117,0.0,-0.000887732731944646
79,0.069585,-2.57946e-05,509.998,-2.70062e-05,6.47011e-17,2.15674e-16,-3.7702e-17,-0.000889499,0.00277953,-0.000908069,0.0,0.0,0.0,0.000340487,-0.0008891035130349501,0.0,0.0,0.0027833964750083595,0.0,-0.0009076568301146226
80,0.070585,-2.52307e-05,511.029,-2.64314e-05,-2.92461e-18,2.77702e-16,-3.69292e-17,-0.000907451,0.00281942,-0.000928019,0.0,0.0,0.0,0.00037712,-0.0009070393908557906,0.0,0.0,0.00282339830252476,0.0,-0.0009275885235415782
81,0.071585,-2.46825e-05,512.051,-2.58721e-05,-2.87149e-18,2.05836e-16,-3.61728e-17,-0.000925411,0.00285931,-0.000947979,0.0,0.0,0.0,0.000413798,-0.0009249829392947717,0.0,0.0,0.002863401725746062,0.0,-0.0009475298098599039
82,0.072585,-2.41491e-05,513.064,-2.53275e-05,-2.81939e-18,2.01735e-16,9.71561e-17,-0.000943377,0.00289919,-0.000967948,0.0,0.0,0.0,0.00045052,-0.0009429321598128926,0.0,0.0,0.0029033967157017226,0.0,-0.0009674796894468818
83,0.073585,-2.36302e-05,514.068,-2.47972e-05,6.36791e-17,2.64054e-16,-2.36308e-16,-0.00096135,0.00293907,-0.000987926,0.0,0.0,0.0,0.000487286,-0.0009608880511321471,0.0,0.0,0.0029433933006892676,0.0,-0.0009874381617718253
84,0.074585,-2.31251e-05,515.063,-2.42807e-05,-7.03766e-17,5.97992e-17,3.37079e-17,-0.00097933,0.00297896,-0.00100791,0.0,0.0,0.0,0.000524093,-0.0009788506128810548,0.0,0.0,0.002983401510606498,0.0,-0.0010074022293259377
85,0.075585,-2.26335e-05,516.049,-2.37776e-05,-6.90972e-17,1.91281e-16,3.30193e-17,-0.000997315,0.00301884,-0.00102791,0.0,0.0,0.0,0.000560943,-0.00099681784668193,0.0,0.0,0.0030234012862488946,0.0,-0.0010273818814842128
86,0.076585,-2.21548e-05,517.027,-2.32873e-05,-1.39166e-18,2.53819e-16,-1.00252e-16,-0.00101531,0.00305871,-0.00104791,0.0,0.0,0.0,0.000597834,-0.001014794747197123,0.0,0.0,0.0030633926264802547,0.0,-0.0010473611340533484
87,0.077585,-2.16887e-05,517.997,-2.28096e-05,-6.78177e-17,1.82445e-16,3.43922e-17,-0.00103331,0.00309859,-0.00106792,0.0,0.0,0.0,0.000634764,-0.0010327763190570716,0.0,0.0,0.003103395592232161,0.0,-0.0010673499763680372
88,0.078585,-2.12347e-05,518.958,-2.2344e-05,-1.35384e-19,1.12489e-16,-9.89098e-17,-0.00105131,0.00313847,-0.00108794,0.0,0.0,0.0,0.000671734,-0.0010507575672515923,0.0,0.0,0.0031434001533339195,0.0,-0.0010873484078365303
89,0.079585,-2.07924e-05,519.912,-2.189e-05,-6.65861e-17,1.1026e-16,-9.68954e-17,-0.00106932,0.00317834,-0.00110797,0.0,0.0,0.0,0.000708743,-0.0010687484810991688,0.0,0.0,0.003183396278015671,0.0,-0.0011073564278669679
90,0.080585,-2.03614e-05,520.858,-2.14474e-05,-6.538e-17,1.74418e-16,3.76819e-17,-0.00108733,0.00321821,-0.00112801,0.0,0.0,0.0,0.00074579,-0.0010867390709332625,0.0,0.0,0.0032233939973744796,0.0,-0.0011273740358670459
91,0.081585,-1.99414e-05,521.795,-2.10157e-05,-6.41966e-17,2.3731e-16,-2.93879e-17,-0.00110536,0.00325808,-0.00114805,0.0,0.0,0.0,0.000782874,-0.0011047493146649767,0.0,0.0,0.003263393311474072,0.0,-0.001147391242718343
92,0.082585,-1.9532e-05,522.726,-2.05947e-05,-6.30355e-17,3.65305e-16,-9.50953e-17,-0.00112338,0.00329795,-0.0011681,0.0,0.0,0.0,0.000819995,-0.0011227492449024101,0.0,0.0,0.003303394220378175,0.0,-0.001167418036754575
93,0.083585,-1.91329e-05,523.649,-2.0184e-05,-6.18962e-17,2.91748e-16,-2.68585e-17,-0.00114141,0.00333782,-0.00118816,0.0,0.0,0.0,0.000857152,-0.0011407588393765877,0.0,0.0,0.003343396724150516,0.0,-0.0011874544173832158
94,0.084585,-1.87436e-05,524.564,-1.97832e-05,-6.07783e-17,2.06117e-17,-9.26202e-17,-0.00115945,0.00337769,-0.00120823,0.0,0.0,0.0,0.000894344,-0.0011587780975529371,0.0,0.0,0.0033834008228541546,0.0,-0.0012075003840110732
95,0.085585,-1.83641e-05,525.473,-1.93921e-05,-1.2614e-16,4.18279e-16,4.18737e-17,-0.00117749,0.00341755,-0.0012283,0.0,0.0,0.0,0.000931571,-0.0011767970306647557,0.0,0.0,0.003423396482319152,0.0,-0.0012275459483205298
96,0.086585,-1.79938e-05,526.374,-1.90104e-05,-5.74058e-17,1.44651e-16,-2.5283e-17,-0.00119554,0.00345741,-0.00124838,0.0,0.0,0.0,0.000968833,-0.0011948256267698687,0.0,0.0,0.0034633937360430966,0.0,-0.0012476010978434982
97,0.087585,-1.76325e-05,527.268,-1.86377e-05,-5.63712e-17,1.41803e-16,1.07849e-16,-0.0012136,0.00349727,-0.00126847,0.0,0.0,0.0,0.00100613,-0.0012128638853330376,0.0,0.0,0.003503392584089049,0.0,-0.001267665831986453
98,0.088585,-1.728e-05,528.155,-1.82738e-05,1.11058e-17,2.7171e-16,3.93575e-17,-0.00123165,0.00353713,-0.00128856,0.0,0.0,0.0,0.00104346,-0.0012308918304372307,0.0,0.0,0.003543393026520958,0.0,-0.001287730163033074
99,0.089585,-1.6936e-05,529.036,-1.79185e-05,1.09066e-17,2.00019e-16,-2.77498e-17,-0.00124972,0.00357699,-0.00130866,0.0,0.0,0.0,0.00108082,-0.001248939425161355,0.0,0.0,0.003583395063402328,0.0,-0.0013078040779131994
100,0.090585,-1.66001e-05,529.91,-1.75715e-05,-5.57524e-17,6.33881e-17,-2.71892e-17,-0.00126778,0.00361685,-0.00132877,0.0,0.0,0.0,0.00111821,-0.001266976706438161,0.0,0.0,0.0036233986947966645,0.0,-0.0013278875760329711
101,0.091585,-1.62723e-05,530.777,-1.72325e-05,1.17139e-17,6.21423e-17,3.96741e-17,-0.00128585,0.0036567,-0.00134888,0.0,0.0,0.0,0.00115563,-0.0012850236491144251,0.0,0.0,0.0036633938841335034,0.0,-0.0013479706702776983
102,0.092585,-1.59521e-05,531.638,-1.69013e-05,1.15043e-17,6.09221e-17,-9.37563e-17,-0.00130393,0.00369656,-0.001369,0.0,0.0,0.0,0.00119309,-0.001303080252654687,0.0,0.0,0.003703400704344384,0.0,-0.0013680633469747017
103,0.093585,-1.56394e-05,532.493,-1.65777e-05,-5.51677e-17,1.92435e-16,4.07659e-17,-0.00132201,0.00373641,-0.00138912,0.0,0.0,0.0,0.00123057,-0.0013211365297345345,0.0,0.0,0.00374339908182475,0.0,-0.001388155619411302
104,0.094585,-1.5334e-05,533.341,-1.62614e-05,-5.41786e-17,5.59554e-17,-2.63719e-17,-0.0013401,0.00377626,-0.00140926,0.0,0.0,0.0,0.00126809,-0.001339202466967726,0.0,0.0,0.003783399053272296,0.0,-0.0014082674594302347
105,0.095585,-1.50357e-05,534.183,-1.59522e-05,-5.3208e-17,1.87572e-16,4.04775e-17,-0.00135819,0.00381611,-0.00142939,0.0,0.0,0.0,0.00130563,-0.0013572680773912271,0.0,0.0,0.0038234006187505276,0.0,-0.0014283689086844742
106,0.096585,-1.47441e-05,535.019,-1.565e-05,-5.22554e-17,5.1569e-16,3.96644e-17,-0.00137628,0.00385595,-0.00144954,0.0,0.0,0.0,0.00134321,-0.0013753333610107,0.0,0.0,0.003863393739688803,0.0,-0.0014484899243309979
107,0.097585,-1.44592e-05,535.849,-1.53545e-05,-1.17791e-16,1.73826e-16,3.88681e-17,-0.00139438,0.0038958,-0.00146969,0.0,0.0,0.0,0.00138081,-0.0013934083038981138,0.0,0.0,0.003903398493018795,0.0,-0.0014686105345432798
108,0.098585,-1.41808e-05,536.674,-1.50656e-05,1.72563e-17,3.03151e-16,3.80884e-17,-0.00141248,0.00393564,-0.00148984,0.0,0.0,0.0,0.00141844,-0.0014114829196321121,0.0,0.0,0.003943394801135813,0.0,-0.0014887307393292026
109,0.099585,-1.39086e-05,537.492,-1.4783e-05,-4.95227e-17,2.97239e-16,3.73249e-17,-0.00143059,0.00397548,-0.00151,0.0,0.0,0.0,0.0014561,-0.0014295671939228427,0.0,0.0,0.003983392702737731,0.0,-0.0015088605236086572
110,0.1006,-0.04112,550.257,-0.04638,-3.81799e-17,2.2442e-16,2.79808e-17,-0.00173175,0.00463655,-0.0018455,0.0,0.0,0.0,0.00208491,-0.0017302513861684465,0.0,0.0,0.004647315429671561,0.0,-0.0018437981119807656
111,0.1016,-0.263174,568.693,-0.311895,-2.56886e-17,4.3954e-15,1.41937e-15,-0.0022358,0.00573749,-0.00240792,0.0,0.0,0.0,0.00314596,-0.0022333024608593988,0.0,0.0,0.005753980919493307,0.0,-0.002405023286121688
112,0.1026,-0.001656,585.123,0.000494666,-1.73622e-17,4.17436e-17,9.23366e-16,-0.00274026,0.00683723,-0.00297051,0.0,0.0,0.0,0.00421744,-0.0027365089146648147,0.0,0.0,0.006860657219029509,0.0,-0.002966102400522863
113,0.1036,-0.145307,599.238,-0.150007,-1.48665e-15,1.45997e-15,-2.23261e-15,-0.00324673,0.00793575,-0.00353599,0.0,0.0,0.0,0.00529802,-0.00324146507162848,0.0,0.0,0.007967321523344895,0.0,-0.0035297457493973505
114,0.1046,0.0274799,612.192,0.0262299,-1.01671e-15,9.70647e-16,1.38152e-15,-0.00375298,0.00903306,-0.00410148,0.0,0.0,0.0,0.00638416,-0.003745946372332276,0.0,0.0,0.009073981208252091,0.0,-0.00409308041840073
115,0.1056,-0.0675761,623.698,-0.0691023,-6.97596e-16,6.47861e-16,-3.38441e-15,-0.00426039,0.0101292,-0.00466843,0.0,0.0,0.0,0.00747552,-0.00425132741314338,0.0,0.0,0.010180673996320388,0.0,-0.004657549818374407
116,0.1066,0.0354085,634.429,0.0346434,-1.97522e-15,1.8881e-15,-8.08769e-16,-0.00476748,0.0112241,-0.00523522,0.0,0.0,0.0,0.00857014,-0.004756133605622215,0.0,0.0,0.011287326542660292,0.0,-0.005221540118583223
117,0.1076,-0.0231562,644.188,-0.0239463,-1.36628e-15,-1.87552e-16,9.06927e-16,-0.00527513,0.0123178,-0.00580275,0.0,0.0,0.0,0.00966791,-0.005261240934682054,0.0,0.0,0.012393976552945274,0.0,-0.005785946563975575
118,0.1086,0.037228,653.374,0.0370169,5.5955e-16,2.80375e-15,-8.42396e-16,-0.00578244,0.0134103,-0.00637005,0.0,0.0,0.0,0.0107677,-0.005765753871494139,0.0,0.0,0.013500621366988819,0.0,-0.006349804243137025
119,0.1096,0.00289494,661.873,0.00259065,-1.11806e-15,3.37451e-15,8.9131e-16,-0.00628996,0.0145017,-0.00693766,0.0,0.0,0.0,0.0118694,-0.0062702196120347775,0.0,0.0,0.014607359782444096,0.0,-0.006913649993368964
120,0.1106,0.0378664,669.924,0.0380201,7.37399e-16,5.25158e-15,-2.32058e-15,-0.00679714,0.0155918,-0.00750499,0.0,0.0,0.0,0.0129723,-0.006774091694329631,0.0,0.0,0.015713986322553275,0.0,-0.007476897883498146
121,0.1116,0.0185391,677.467,0.0186083,2.04264e-15,2.1092e-15,1.36372e-15,-0.00730429,0.0166808,-0.00807236,0.0,0.0,0.0,0.0140764,-0.007277678505907548,0.0,0.0,0.016820701350618306,0.0,-0.008039865995235096
122,0.1126,0.0385405,684.647,0.0389414,-8.43623e-17,-3.94734e-17,2.39872e-15,-0.00781111,0.0177685,-0.00863943,0.0,0.0,0.0,0.0151811,-0.007780682555863727,0.0,0.0,0.01792729894147671,0.0,-0.008602217367059461
123,0.1136,0.0280716,691.438,0.0284244,1.47277e-15,-3.00728e-15,-1.31643e-15,-0.00831775,0.0188551,-0.00920635,0.0,0.0,0.0,0.0162865,-0.008283253228900667,0.0,0.0,0.019033979895380693,0.0,-0.00916410131131784
124,0.1146,0.039385,697.928,0.0399662,-4.89093e-16,2.40671e-15,5.8115e-16,-0.00882403,0.0199405,-0.00977294,0.0,0.0,0.0,0.0173923,-0.008785212506762452,0.0,0.0,0.02014063985287229,0.0,-0.009725340012023853
125,0.1156,0.0339413,704.11,0.0345074,-3.45309e-16,-2.83015e-15,3.98717e-16,-0.00933005,0.0210247,-0.0103393,0.0,0.0,0.0,0.0184983,-0.009286660131566316,0.0,0.0,0.021247276133725235,0.0,-0.010286033176376885
126,0.1166,0.0402871,710.039,0.0410074,-1.78511e-15,1.0404e-15,1.76169e-15,-0.00983571,0.0221078,-0.0109053,0.0,0.0,0.0,0.0196044,-0.00978749760159503,0.0,0.0,0.022353988290283233,0.0,-0.010846052781100513
127,0.1176,0.0375882,715.718,0.0383152,-1.27049e-15,-7.83218e-16,2.70357e-15,-0.010341,0.0231897,-0.0114709,0.0,0.0,0.0,0.0207105,-0.010287715688690358,0.0,0.0,0.02346067162261467,0.0,-0.011405360066636727
128,0.1186,0.0411295,721.181,0.0419609,-1.30584e-16,3.97984e-15,-1.12542e-15,-0.010846,0.0242704,-0.0120362,0.0,0.0,0.0,0.0218165,-0.010787394212821044,0.0,0.0,0.024567323442041822,0.0,-0.011964054686678494
129,0.1196,0.0398707,726.435,0.0407203,-1.6416e-15,4.29025e-15,7.18316e-16,-0.0113505,0.0253499,-0.012601,0.0,0.0,0.0,0.0229223,-0.011286326106288214,0.0,0.0,0.025673941057091643,0.0,-0.012521939826997452
130,0.1206,0.041842,731.505,0.0427636,-3.9674e-16,-1.54579e-15,4.96291e-16,-0.0118547,0.0264283,-0.0131655,0.0,0.0,0.0,0.0240278,-0.011784709887555977,0.0,0.0,0.026780624451562707,0.0,-0.013079213886563412
131,0.1216,0.0413032,736.398,0.0422476,-1.83868e-15,-2.60386e-15,-1.16179e-15,-0.0123585,0.0275055,-0.0137295,0.0,0.0,0.0,0.025133,-0.012282447360117521,0.0,0.0,0.027887268471682436,0.0,-0.013635680271659956
132,0.1226,0.0423981,741.131,0.0433935,-5.39299e-16,-1.8311e-15,2.20529e-15,-0.0128618,0.0285816,-0.0142931,0.0,0.0,0.0,0.0262378,-0.01277944052553992,0.0,0.0,0.028993973317030797,0.0,-0.014191438574857829
133,0.1236,0.0421956,745.711,0.0432145,-1.16556e-15,2.34191e-16,-1.48562e-15,-0.0133648,0.0296565,-0.0148563,0.0,0.0,0.0,0.0273422,-0.013275887600049274,0.0,0.0,0.03010063360696824,0.0,-0.014746489639601124
134,0.1246,0.0427986,750.151,0.0438548,-8.36843e-16,-4.41976e-15,4.73602e-16,-0.0138673,0.0307303,-0.015419,0.0,0.0,0.0,0.028446,-0.013771591910391567,0.0,0.0,0.031207349756894986,0.0,-0.015300735838088664
135,0.1256,0.0427363,754.459,0.0438145,1.84798e-16,1.46619e-15,3.29634e-16,-0.0143694,0.0318029,-0.0159812,0.0,0.0,0.0,0.0295493,-0.014266652898631604,0.0,0.0,0.032314016159336933,0.0,-0.01585417817718182
136,0.1266,0.0430591,758.643,0.0441655,1.40587e-16,1.03601e-15,2.2908e-16,-0.014871,0.0328743,-0.016543,0.0,0.0,0.0,0.030652,-0.014760972759752189,0.0,0.0,0.03342063010348317,0.0,-0.016406916021283524
137,0.1276,0.0430414,762.71,0.0441674,-6.78498e-16,-3.87526e-15,1.68057e-15,-0.0153722,0.0339446,-0.0171043,0.0,0.0,0.0,0.0317541,-0.015254650834145123,0.0,0.0,0.03452729232852869,0.0,-0.016958851904024352
138,0.1286,0.0432004,766.667,0.0443483,-4.87221e-16,-2.75529e-15,1.17986e-15,-0.0158729,0.0350138,-0.0176651,0.0,0.0,0.0,0.0328556,-0.015747589413000918,0.0,0.0,0.03563400045021692,0.0,-0.017509986827199953
139,0.1296,0.043184,770.52,0.0443488,1.23082e-15,2.66011e-15,-6.98783e-16,-0.0163732,0.0360818,-0.0182254,0.0,0.0,0.0,0.0339564,-0.01623988773532381,0.0,0.0,0.036740648407517895,0.0,-0.018060321790843048
140,0.1306,0.0432435,774.276,0.0444258,-3.04842e-15,-1.19367e-15,-4.96815e-16,-0.016873,0.0371487,-0.0187852,0.0,0.0,0.0,0.0350564,-0.01673144818824379,0.0,0.0,0.03784733726349754,0.0,-0.018609857793226547
141,0.1316,0.0432111,777.938,0.0444078,-1.42957e-15,2.23687e-15,1.17735e-15,-0.0173724,0.0382144,-0.0193446,0.0,0.0,0.0,0.0361558,-0.01722236990966175,0.0,0.0,0.03895396073039947,0.0,-0.01915869391500158
142,0.1326,0.0432076,781.512,0.0444183,5.47474e-16,-1.49948e-15,-7.03852e-16,-0.0178713,0.039279,-0.0199034,0.0,0.0,0.0,0.0372544,-0.01771255538238037,0.0,0.0,0.04006062008724709,0.0,-0.01970663492786462
143,0.1336,0.0431543,785.002,0.0443771,4.09618e-16,-1.07562e-15,1.03381e-15,-0.0183698,0.0403425,-0.0204617,0.0,0.0,0.0,0.0383523,-0.018202103643480405,0.0,0.0,0.0411673129363237,0.0,-0.020253779963835594
144,0.1346,0.0431088,788.412,0.0443431,-4.86359e-16,2.33175e-15,-8.08081e-16,-0.0188678,0.0414049,-0.0210195,0.0,0.0,0.0,0.0394493,-0.018690917271170338,0.0,0.0,0.04227403687724851,0.0,-0.020800130014176688
145,0.1356,0.0430351,791.747,0.0442795,-1.14555e-15,-1.43819e-15,-5.78425e-16,-0.0193653,0.0424661,-0.0215768,0.0,0.0,0.0,0.0405456,-0.019178997119898566,0.0,0.0,0.04338068516891247,0.0,-0.021345686068405256
146,0.1366,0.0429604,795.009,0.0442142,-3.74294e-17,6.74841e-15,1.12777e-15,-0.0198623,0.0435262,-0.0221336,0.0,0.0,0.0,0.0416411,-0.019666344042588157,0.0,0.0,0.044487359522359826,0.0,-0.021890449114296162
147,0.1376,0.0428688,798.202,0.044131,-1.88509e-17,1.73731e-15,8.00891e-16,-0.0203589,0.0445851,-0.0226898,0.0,0.0,0.0,0.0427357,-0.02015305687533786,0.0,0.0,0.045593952969859686,0.0,-0.022434322381322258
148,0.1386,0.0427731,801.328,0.044043,-5.15062e-18,4.37201e-15,-9.79209e-16,-0.020855,0.045643,-0.0232456,0.0,0.0,0.0,0.0438295,-0.020639038386140895,0.0,0.0,0.04670067210857942,0.0,-0.022977502421226648
149,0.1396,0.0426666,804.392,0.0439434,-7.95157e-16,2.71236e-17,-7.04157e-16,-0.0213506,0.0466997,-0.0238008,0.0,0.0,0.0,0.0449224,-0.021124289423577358,0.0,0.0,0.047807305295467284,0.0,-0.0235197947575998
150,0.1406,0.0425554,807.394,0.0438385,-1.38018e-15,1.76794e-17,1.04355e-15,-0.0218457,0.0477553,-0.0243555,0.0,0.0,0.0,0.0460145,-0.021608810834711112,0.0,0.0,0.04891395467371806,0.0,-0.02406129812760338
151,0.1416,0.0424368,810.339,0.0437256,-2.10493e-16,-1.55615e-15,-8.08655e-16,-0.0223404,0.0488098,-0.0249096,0.0,0.0,0.0,0.0471057,-0.022092701255827074,0.0,0.0,0.05002061782451972,0.0,-0.024601915970305588
152,0.1426,0.042314,813.227,0.0436078,-1.46279e-16,5.14566e-15,9.70998e-16,-0.0228346,0.0498632,-0.0254633,0.0,0.0,0.0,0.048196,-0.022575863643606753,0.0,0.0,0.05112729232646096,0.0,-0.025141844396453616
153,0.1436,0.0421859,816.062,0.0434843,-9.87132e-17,2.15902e-15,-8.62865e-16,-0.0233283,0.0509155,-0.0260164,0.0,0.0,0.0,0.0492854,-0.023058298840798352,0.0,0.0,0.052233975755539896,0.0,-0.02568088935569235
154,0.1446,0.0420541,818.846,0.0433567,-8.68089e-16,-3.15173e-15,-6.2461e-16,-0.0238216,0.0519667,-0.026569,0.0,0.0,0.0,0.0503739,-0.02354010533463813,0.0,0.0,0.053340665685171595,0.0,-0.026219149361297656
155,0.1456,0.0419186,821.579,0.0432248,1.70055e-16,2.43033e-15,1.1073e-15,-0.0243143,0.0530168,-0.0271211,0.0,0.0,0.0,0.0514615,-0.024021088624776143,0.0,0.0,0.05444735968619585,0.0,-0.026756625385026434
156,0.1466,0.0417801,824.265,0.0430896,-6.69499e-16,1.76705e-15,7.9508e-16,-0.0248066,0.0540657,-0.0276726,0.0,0.0,0.0,0.0525482,-0.024501444793473715,0.0,0.0,0.05555394977148587,0.0,-0.027293221126250322
157,0.1476,0.0416389,826.905,0.0429512,3.18647e-16,-1.86981e-15,-9.94096e-16,-0.0252984,0.0551136,-0.0282236,0.0,0.0,0.0,0.053634,-0.024981077031689614,0.0,0.0,0.05666064450688668,0.0,-0.02782903493115041
158,0.1486,0.0414953,829.5,0.0428102,-5.59842e-16,1.79397e-15,-7.22469e-16,-0.0257897,0.0561604,-0.0287741,0.0,0.0,0.0,0.0547188,-0.02545998617487988,0.0,0.0,0.05776733601083128,0.0,-0.028364067766121104
159,0.1496,0.0413498,832.053,0.0426668,-4.07515e-16,1.30838e-15,1.04131e-15,-0.0262805,0.0572061,-0.029324,0.0,0.0,0.0,0.0558028,-0.02593817305700541,0.0,0.0,0.05887402184393986,0.0,-0.028898223485681163
160,0.1506,0.0412024,834.564,0.0425214,-2.93864e-16,9.54859e-16,7.50688e-16,-0.0267709,0.0582507,-0.0298734,0.0,0.0,0.0,0.0568857,-0.02641573586896584,0.0,0.0,0.059980699564298634,0.0,-0.029431600269679392
161,0.1516,0.0410536,837.034,0.0423742,-1.01935e-15,-2.47153e-15,2.11129e-15,-0.0272608,0.0592942,-0.0304223,0.0,0.0,0.0,0.0579678,-0.02689257798794964,0.0,0.0,0.061087366727466286,0.0,-0.0299641990791758
162,0.1526,0.0409036,839.467,0.0422255,5.89335e-17,1.36114e-15,1.52792e-15,-0.0277501,0.0603366,-0.0309706,0.0,0.0,0.0,0.0590489,-0.027368602980528456,0.0,0.0,0.06219402088648329,0.0,-0.030495923923133605
163,0.1536,0.0407525,841.861,0.0420754,-7.56372e-16,-2.17848e-15,-4.69401e-16,-0.0282391,0.0613779,-0.0315184,0.0,0.0,0.0,0.060129,-0.02784410346432753,0.0,0.0,0.0633006595918797,0.0,-0.031026872815829276
164,0.1546,0.0406005,844.22,0.0419243,2.56676e-16,4.75729e-15,-3.47119e-16,-0.0287275,0.0624181,-0.0320657,0.0,0.0,0.0,0.0612082,-0.02831878847667979,0.0,0.0,0.06440728039168353,0.0,-0.03155704671301629
165,0.1556,0.0404479,846.543,0.0417723,2.04364e-16,3.11931e-16,-2.58258e-16,-0.0292154,0.0634573,-0.0326124,0.0,0.0,0.0,0.0622865,-0.028792756105976647,0.0,0.0,0.06551398738282121,0.0,-0.032086349777402434
166,0.1566,0.0402947,848.832,0.0416195,1.65146e-16,5.00577e-15,1.38522e-15,-0.0297029,0.0644954,-0.0331586,0.0,0.0,0.0,0.0633637,-0.02926610424939058,0.0,0.0,0.0666206717782738,0.0,-0.03261487985844902
167,0.1576,0.040141,851.088,0.0414661,1.35725e-16,4.9584e-16,1.00485e-15,-0.0301899,0.0655324,-0.0337043,0.0,0.0,0.0,0.06444,-0.029738736561311985,0.0,0.0,0.06772733111860352,0.0,-0.03314263790663008
168,0.1586,0.0399871,853.312,0.0413122,9.29163e-16,-1.23025e-15,2.30939e-15,-0.0306764,0.0665683,-0.0342495,0.0,0.0,0.0,0.0655154,-0.030210653862783432,0.0,0.0,0.0688339629419028,0.0,-0.03366962487074343
169,0.1596,0.039833,855.505,0.041158,-1.73721e-15,1.48737e-15,1.68095e-15,-0.0311624,0.0676032,-0.0347941,0.0,0.0,0.0,0.0665898,-0.030681856973375554,0.0,0.0,0.069940671777863,0.0,-0.03419574511749213
170,0.1606,0.0396788,857.668,0.0410036,-4.81863e-16,-2.09937e-15,1.22191e-15,-0.031648,0.068637,-0.0353382,0.0,0.0,0.0,0.0676632,-0.03115244359595004,0.0,0.0,0.07104734838692361,0.0,-0.03472109627782993
171,0.1616,0.0395247,859.801,0.040849,-3.5186e-16,3.24791e-15,-2.28614e-15,-0.0321331,0.0696697,-0.0358817,0.0,0.0,0.0,0.0687356,-0.03162231756841527,0.0,0.0,0.07215399029980452,0.0,-0.03524558281987433
172,0.1626,0.0393706,861.906,0.0406943,5.64476e-16,1.60016e-15,-9.59406e-17,-0.0326177,0.0707014,-0.0364247,0.0,0.0,0.0,0.0698071,-0.032091479706154336,0.0,0.0,0.07326070237085291,0.0,-0.035769302265705405
173,0.1636,0.0392166,863.983,0.0405397,4.38783e-16,-1.22e-15,-7.8054e-17,-0.0331018,0.0717319,-0.0369672,0.0,0.0,0.0,0.0708776,-0.03255993082308717,0.0,0.0,0.07436726758444778,0.0,-0.036292255555320785
174,0.1646,0.0390629,866.033,0.0403851,1.16341e-15,7.00209e-16,-8.60169e-16,-0.0335854,0.0727615,-0.0375092,0.0,0.0,0.0,0.0719471,-0.033027671731673536,0.0,0.0,0.07547400577420382,0.0,-0.03681444362705899
175,0.1656,0.0389095,868.057,0.0402308,-7.47867e-16,5.19009e-16,1.56396e-16,-0.0340686,0.07379,-0.0380506,0.0,0.0,0.0,0.0730156,-0.033494799893440064,0.0,0.0,0.07658069980899374,0.0,-0.03733577115118447
176,0.1666,0.0387564,870.055,0.0400766,-5.55269e-16,-4.18569e-16,9.0425e-16,-0.0345512,0.0748174,-0.0385915,0.0,0.0,0.0,0.0740832,-0.03396112277025065,0.0,0.0,0.07768734720740267,0.0,-0.03785633543326683
177,0.1676,0.0386037,872.029,0.0399227,2.87654e-15,4.92657e-16,6.57977e-16,-0.0350334,0.0758437,-0.0391318,0.0,0.0,0.0,0.0751498,-0.034426834424747144,0.0,0.0,0.07879394548561702,0.0,-0.038376041244064574
178,0.1686,0.0384514,873.977,0.0397692,-2.71671e-16,1.17027e-15,4.76784e-16,-0.0355152,0.076869,-0.0396717,0.0,0.0,0.0,0.0762154,-0.03489193552406944,0.0,0.0,0.07990060014748934,0.0,-0.03889508189176605
179,0.1696,0.0382996,875.903,0.0396161,-1.95473e-16,-1.5457e-15,3.43355e-16,-0.0359964,0.0778933,-0.040211,0.0,0.0,0.0,0.07728,-0.035356233805569515,0.0,0.0,0.0810073090364154,0.0,-0.03941326603318884
180,0.1706,0.0381483,877.805,0.0394633,-1.37607e-16,-1.95621e-15,-5.54188e-16,-0.0364772,0.0789165,-0.0407498,0.0,0.0,0.0,0.0783436,-0.03581992304852932,0.0,0.0,0.08211396178201635,0.0,-0.03993069075871147
181,0.1716,0.0379975,879.685,0.039311,-9.36247e-17,5.8004e-15,1.18216e-15,-0.0369575,0.0799387,-0.041288,0.0,0.0,0.0,0.0794063,-0.03628290754486185,0.0,0.0,0.0832206642129969,0.0,-0.04044726103941343
182,0.1726,0.0378473,881.543,0.0391592,-8.84691e-16,-6.1689e-15,6.47193e-17,-0.0374373,0.0809598,-0.0418257,0.0,0.0,0.0,0.0804679,-0.03674518809584926,0.0,0.0,0.08432730573289993,0.0,-0.04096307385844844
183,0.1736,0.0376977,883.379,0.0390079,1.62467e-16,2.44764e-16,1.64137e-15,-0.0379167,0.0819799,-0.0423629,0.0,0.0,0.0,0.0815286,-0.03720686178065191,0.0,0.0,0.08543399238703753,0.0,-0.04147813013866841
184,0.1746,0.0375487,885.194,0.0388572,9.60993e-16,3.41545e-15,4.04092e-16,-0.0383956,0.0829989,-0.0428996,0.0,0.0,0.0,0.0825883,-0.03766783302617027,0.0,0.0,0.08654061335290608,0.0,-0.041992430801295
185,0.1756,0.0374003,886.989,0.038707,7.44357e-16,9.33051e-16,2.89837e-16,-0.038874,0.0840169,-0.0434357,0.0,0.0,0.0,0.083647,-0.038128102629582994,0.0,0.0,0.08764727489245128,0.0,-0.04250588101651498
186,0.1766,0.0372526,888.764,0.0385574,5.79197e-16,-2.5403e-15,2.05216e-16,-0.0393519,0.0850339,-0.0439713,0.0,0.0,0.0,0.0847047,-0.038587671386635214,0.0,0.0,0.08875397483254921,0.0,-0.04301857755425342
187,0.1776,0.0371055,890.52,0.0384084,4.53196e-16,-1.9002e-15,1.4249e-16,-0.0398294,0.0860498,-0.0445064,0.0,0.0,0.0,0.0857615,-0.039046636186981454,0.0,0.0,0.08986060201168233,0.0,-0.04353052133063118
188,0.1786,0.0369591,892.256,0.0382601,-4.70969e-16,2.63077e-15,9.00089e-16,-0.0403064,0.0870648,-0.045041,0.0,0.0,0.0,0.0868172,-0.03950490163652143,0.0,0.0,0.09096737211353245,0.0,-0.044041713260150384
189,0.1796,0.0368134,893.974,0.0381123,-3.49679e-16,3.59284e-15,6.58657e-16,-0.0407829,0.0880786,-0.045575,0.0,0.0,0.0,0.087872,-0.03996246852692242,0.0,0.0,0.09207395566780674,0.0,-0.04455205871090673
190,0.1806,0.0366684,895.674,0.0379653,-2.56921e-16,-5.53871e-16,4.79321e-16,-0.041259,0.0890915,-0.0461086,0.0,0.0,0.0,0.0889258,-0.04041943360648781,0.0,0.0,0.09318067778229588,0.0,-0.04506174973471977
191,0.1816,0.0365242,897.355,0.0378189,6.43696e-16,4.45861e-15,-4.59882e-16,-0.0417346,0.0901033,-0.0466416,0.0,0.0,0.0,0.0899786,-0.04087570161473175,0.0,0.0,0.09428731774682486,0.0,-0.04557059620248105
192,0.1826,0.0363806,899.02,0.0376731,-1.15616e-15,1.72103e-15,4.53428e-16,-0.0422097,0.0911141,-0.047174,0.0,0.0,0.0,0.0910304,-0.04133127333926212,0.0,0.0,0.095393982581786,0.0,-0.046078599174672163
193,0.1836,0.0362378,900.667,0.0375281,-8.75809e-16,-3.58854e-15,3.2719e-16,-0.0426844,0.0921239,-0.047706,0.0,0.0,0.0,0.0920812,-0.041786245387648635,0.0,0.0,0.09650067009788366,0.0,-0.046585950392521336
194,0.1846,0.0360957,902.297,0.0373838,-6.60858e-16,-1.07007e-15,2.33138e-16,-0.0431586,0.0931326,-0.0482374,0.0,0.0,0.0,0.0931311,-0.04224052263243849,0.0,0.0,0.0976072683428082,0.0,-0.04709246002695355
195,0.1856,0.0359543,903.911,0.0372401,-4.95938e-16,9.01968e-18,1.6301e-16,-0.0436323,0.0941404,-0.0487683,0.0,0.0,0.0,0.0941799,-0.042694105857199016,0.0,0.0,0.09871399453350005,0.0,-0.04759822437290029
196,0.1866,0.0358137,905.509,0.0370972,-3.69319e-16,8.21198e-16,1.1068e-16,-0.0441055,0.0951471,-0.0492987,0.0,0.0,0.0,0.0952278,-0.043146995844085656,0.0,0.0,0.09982062684170989,0.0,-0.048103244331560324
197,0.1876,0.0356738,907.091,0.036955,-2.72039e-16,6.17832e-16,8.8085e-16,-0.0445783,0.0961528,-0.0498286,0.0,0.0,0.0,0.0962747,-0.04359928901391974,0.0,0.0,0.10092727282978498,0.0,-0.04860752080253827
198,0.1886,0.0355347,908.658,0.0368135,-1.97247e-16,2.91344e-15,-1.62549e-16,-0.0450507,0.0971576,-0.050358,0.0,0.0,0.0,0.0973206,-0.04405098601055879,0.0,0.0,0.10203404050048381,0.0,-0.0491110546838468
199,0.1896,0.0353964,910.21,0.0366727,-1.39706e-16,-2.70385e-15,1.48761e-15,-0.0455225,0.0981613,-0.0508868,0.0,0.0,0.0,0.0983655,-0.044501896377239336,0.0,0.0,0.1031407073547892,0.0,-0.04961375183328953
200,0.1906,0.0352587,911.747,0.0365326,-9.54032e-17,2.86227e-15,-1.33068e-15,-0.045994,0.0991639,-0.0514151,0.0,0.0,0.0,0.0994095,-0.04495230754032142,0.0,0.0,0.10424727085557217,0.0,-0.05011570828472467
201,0.1916,0.0351219,913.27,0.0363933,-6.12686e-17,1.34281e-15,-1.97186e-16,-0.0464649,0.100166,-0.051943,0.0,0.0,0.0,0.100452,-0.04540193362593026,0.0,0.0,0.10535439167593563,0.0,-0.0506170198694863
202,0.1926,0.0349858,914.778,0.0362547,-3.49479e-17,1.83231e-15,-1.59294e-16,-0.0469354,0.101166,-0.0524703,0.0,0.0,0.0,0.101494,-0.045850966372921964,0.0,0.0,0.10646029892907927,0.0,-0.051117497552371716
203,0.1936,0.0348504,916.272,0.0361168,-8.50425e-16,-1.07212e-15,6.81529e-16,-0.0474054,0.102166,-0.052997,0.0,0.0,0.0,0.102535,-0.04629931104947438,0.0,0.0,0.10756731264261399,0.0,-0.05161714237339665
204,0.1946,0.0347158,917.753,0.0359797,-1.4804e-15,1.64532e-15,4.99977e-16,-0.047875,0.103165,-0.0535233,0.0,0.0,0.0,0.103575,-0.04674706375244253,0.0,0.0,0.10867432524867393,0.0,-0.052116144947319865
205,0.1956,0.034582,919.22,0.0358433,-2.94024e-16,-5.31423e-15,-1.26323e-15,-0.0483441,0.104162,-0.0540491,0.0,0.0,0.0,0.104615,-0.04719412983728788,0.0,0.0,0.1097802247502424,0.0,-0.05261441127261024
206,0.1966,0.0344489,920.673,0.0357076,-1.0513e-15,8.95361e-16,-9.60963e-16,-0.0488127,0.105159,-0.0545743,0.0,0.0,0.0,0.105653,-0.04764051007298864,0.0,0.0,0.11088722738343337,0.0,-0.05311184754561038
207,0.1976,0.0343165,922.114,0.0355727,-7.99662e-16,2.31929e-15,8.0636e-17,-0.0492809,0.106155,-0.0550991,0.0,0.0,0.0,0.10669,-0.04808630041850903,0.0,0.0,0.1119942222538397,0.0,-0.05360864407720645
208,0.1986,0.0341849,923.543,0.0354385,-6.05062e-16,3.40063e-15,8.64569e-16,-0.0497487,0.10715,-0.0556233,0.0,0.0,0.0,0.107726,-0.04853150150651997,0.0,0.0,0.11310120713863392,0.0,-0.05410461242132114
209,0.1996,0.0340541,924.958,0.035305,-4.54481e-16,2.57984e-15,-1.75846e-16,-0.0502159,0.108143,-0.056147,0.0,0.0,0.0,0.108761,-0.048975923763892926,0.0,0.0,0.1142070656051819,0.0,-0.05459984814700258
210,0.2006,0.0339239,926.362,0.0351722,-3.37893e-16,-1.3313e-15,6.72082e-16,-0.0506828,0.109136,-0.0566702,0.0,0.0,0.0,0.109795,-0.049419853261681745,0.0,0.0,0.11531402273458324,0.0,-0.055094352132929014
211,0.2016,0.0337946,927.753,0.0350401,-2.47568e-16,-1.01284e-15,-3.21386e-16,-0.0511491,0.110128,-0.057193,0.0,0.0,0.0,0.110828,-0.049863005455142106,0.0,0.0,0.11642096319683026,0.0,-0.05558821969740391
212,0.2026,0.0336659,929.133,0.0349088,-1.77546e-16,8.75563e-16,-1.07096e-15,-0.0516151,0.111118,-0.0577152,0.0,0.0,0.0,0.111861,-0.05030566614664833,0.0,0.0,0.11752676723307642,0.0,-0.05608126278432379
213,0.2036,0.033538,930.501,0.0347782,7.17248e-16,-3.45403e-15,-2.16728e-18,-0.0520805,0.112108,-0.0582369,0.0,0.0,0.0,0.112892,-0.050747551055029594,0.0,0.0,0.1186336665573966,0.0,-0.05657357675826302
214,0.2046,0.0334108,931.857,0.0346483,-2.69582e-16,1.49099e-15,-1.2811e-17,-0.0525455,0.113097,-0.058758,0.0,0.0,0.0,0.113922,-0.05118885083363878,0.0,0.0,0.1197405425135607,0.0,-0.05706506819819768
215,0.2056,0.0332843,933.202,0.0345191,-1.95004e-16,-2.16468e-15,-2.08636e-17,-0.0530101,0.114085,-0.0592787,0.0,0.0,0.0,0.114952,-0.05162956610745595,0.0,0.0,0.12084739286360002,0.0,-0.05755592661110864
216,0.2066,0.0331586,934.536,0.0343907,-1.3706e-16,1.64964e-15,-2.69632e-17,-0.0534742,0.115072,-0.0597989,0.0,0.0,0.0,0.11598,-0.052069602707434215,0.0,0.0,0.12195421536740936,0.0,-0.058046058523722244
217,0.2076,0.0330335,935.86,0.0342629,-9.20119e-17,2.90743e-15,7.87741e-16,-0.0539379,0.116058,-0.0603186,0.0,0.0,0.0,0.117007,-0.05250905613750678,0.0,0.0,0.12306100778275408,0.0,-0.058535464803870396
218,0.2086,0.0329092,937.172,0.0341358,7.85727e-16,-1.08821e-15,-1.05472e-15,-0.0544011,0.117043,-0.0608378,0.0,0.0,0.0,0.118034,-0.05294783231429623,0.0,0.0,0.12416776786527683,0.0,-0.05902414631784536
219,0.2096,0.0327856,938.474,0.0340095,-1.90322e-15,-1.65849e-15,1.02122e-17,-0.0548638,0.118027,-0.0613565,0.0,0.0,0.0,0.119059,-0.053385931990108326,0.0,0.0,0.12527449336850438,0.0,-0.05951210393040307
220,0.2106,0.0326627,939.766,0.0338838,-6.24019e-16,1.21288e-15,-3.39258e-18,-0.0553262,0.11901,-0.0618746,0.0,0.0,0.0,0.120084,-0.05382354515119592,0.0,0.0,0.1263811820438545,0.0,-0.05999924450469418
221,0.2116,0.0325404,941.048,0.0337588,3.72868e-16,-9.6947e-15,-3.12183e-14,-0.055788,0.119992,-0.0623923,0.0,0.0,0.0,0.121107,-0.05426038856313786,0.0,0.0,0.12748783164064292,0.0,-0.060485756951201286
222,0.2126,0.0324189,942.319,0.0336346,3.05889e-16,8.64462e-16,-6.80965e-16,-0.0562495,0.120973,-0.0629095,0.0,0.0,0.0,0.12213,-0.054696746696431986,0.0,0.0,0.1285944399060901,0.0,-0.060971548081291016
223,0.2136,0.0322981,943.581,0.033511,-5.91137e-16,-1.69718e-16,-5.16542e-16,-0.0567104,0.121953,-0.0634262,0.0,0.0,0.0,0.123152,-0.055132336576480756,0.0,0.0,0.12970100458532885,0.0,-0.0614566187535972
224,0.2146,0.0321779,944.833,0.033388,-4.46166e-16,1.52514e-15,2.89835e-15,-0.057171,0.122932,-0.0639424,0.0,0.0,0.0,0.124172,-0.05556744240968792,0.0,0.0,0.13080752342141033,0.0,-0.0619409698252299
225,0.2156,0.0320585,946.075,0.0332658,5.12645e-16,1.16609e-15,5.56319e-16,-0.0576311,0.12391,-0.0644581,0.0,0.0,0.0,0.125192,-0.05600187588035144,0.0,0.0,0.13191399415531202,0.0,-0.06242460215177725
226,0.2166,0.0319397,947.308,0.0331442,-4.30278e-16,2.55047e-15,4.22382e-16,-0.0580907,0.124887,-0.0649733,0.0,0.0,0.0,0.126211,-0.05643563773208793,0.0,0.0,0.1330204145259435,0.0,-0.06290751658730842
227,0.2176,0.0318215,948.532,0.0330233,1.37205e-15,-2.19769e-15,3.20556e-16,-0.0585499,0.125863,-0.065488,0.0,0.0,0.0,0.127228,-0.056868823020287174,0.0,0.0,0.13412678227015506,0.0,-0.06338971398437565
228,0.2186,0.0317041,949.746,0.0329031,-3.10942e-14,1.50652e-14,2.43101e-16,-0.0590087,0.126839,-0.0660022,0.0,0.0,0.0,0.128245,-0.05730143235611529,0.0,0.0,0.13523423035640625,0.0,-0.06387119519401718
229,0.2196,0.0315873,950.952,0.0327835,2.66719e-16,7.5451e-16,1.84153e-16,-0.059467,0.127813,-0.0665159,0.0,0.0,0.0,0.129261,-0.05773337212310847,0.0,0.0,0.13634048715637825,0.0,-0.06435196106575947
230,0.2206,0.0314711,952.149,0.0326645,2.33471e-16,-1.08611e-15,-6.85881e-16,-0.0599249,0.128787,-0.0670291,0.0,0.0,0.0,0.130276,-0.05816473724343196,0.0,0.0,0.13744782197538363,0.0,-0.06483201244761982
231,0.2216,0.0313557,953.337,0.0325463,2.0748e-16,-8.36541e-16,1.12742e-15,-0.0603823,0.129759,-0.0675418,0.0,0.0,0.0,0.13129,-0.058595434184717354,0.0,0.0,0.13855395875372967,0.0,-0.06531135018610879
232,0.2226,0.0312408,954.516,0.0324286,1.87159e-16,4.34785e-15,3.27616e-17,-0.0608393,0.130731,-0.0680541,0.0,0.0,0.0,0.132303,-0.059025557780567284,0.0,0.0,0.13966117121972377,0.0,-0.06579006854723024
233,0.2236,0.0311266,955.687,0.0323116,1.02017e-15,1.00221e-17,8.50195e-16,-0.0612959,0.131701,-0.0685658,0.0,0.0,0.0,0.133315,-0.05945510863696135,0.0,0.0,0.1407671788828031,0.0,-0.06626798148470159
234,0.2246,0.0310131,956.849,0.0321953,8.24377e-16,1.67099e-15,-1.79196e-16,-0.0617521,0.132671,-0.0690771,0.0,0.0,0.0,0.134327,-0.05988408735891482,0.0,0.0,0.14187425989380542,0.0,-0.06674527663486518
235,0.2256,0.0309001,958.004,0.0320796,-1.78809e-16,4.50157e-16,-1.38363e-16,-0.0622077,0.133639,-0.0695879,0.0,0.0,0.0,0.135337,-0.06031230661296083,0.0,0.0,0.14298012933183846,0.0,-0.06722186141744413
236,0.2266,0.0307878,959.15,0.0319645,7.33812e-16,2.84551e-15,7.20497e-16,-0.062663,0.134607,-0.0700982,0.0,0.0,0.0,0.136346,-0.060740049036807964,0.0,0.0,0.14408706976976782,0.0,-0.06769773667166501
237,0.2276,0.0306762,960.288,0.03185,-2.50248e-16,4.69228e-15,-2.78789e-16,-0.0631178,0.135574,-0.070608,0.0,0.0,0.0,0.137354,-0.06116712733753893,0.0,0.0,0.1451939370503137,0.0,-0.0681729032352616
238,0.2286,0.0305651,961.419,0.0317362,-1.72629e-16,-5.59771e-16,-2.14875e-16,-0.0635722,0.13654,-0.0711173,0.0,0.0,0.0,0.138362,-0.06159363608475066,0.0,0.0,0.14630072888789436,0.0,-0.06864736194447785
239,0.2296,0.0304547,962.541,0.0316229,-9.62857e-16,4.00457e-16,6.62918e-16,-0.0640262,0.137505,-0.0716262,0.0,0.0,0.0,0.139368,-0.06201957587831897,0.0,0.0,0.14740744299494457,0.0,-0.06912120672195432
240,0.2306,0.0303449,963.656,0.0315103,1.18775e-16,3.0584e-16,1.33526e-15,-0.0644797,0.138469,-0.0721345,0.0,0.0,0.0,0.140374,-0.062444853561654856,0.0,0.0,0.14851407708192244,0.0,-0.06959425217788995
241,0.2316,0.0302356,964.764,0.0313983,1.17823e-16,1.06887e-15,1.91177e-16,-0.0649328,0.139432,-0.0726424,0.0,0.0,0.0,0.141378,-0.06286956357318685,0.0,0.0,0.14962062885731697,0.0,-0.07006668527266857
242,0.2326,0.0280822,965.865,0.0366982,-7.35251e-16,-1.41233e-17,9.74383e-16,-0.0653855,0.140394,-0.0731498,0.0,0.0,0.0,0.142382,-0.06329370650975996,0.0,0.0,0.15072709602765566,0.0,-0.070538413748926
243,0.2336,0.0298445,966.956,0.0302608,2.98343e-16,3.3329e-15,-8.58124e-17,-0.0658377,0.141355,-0.0736568,0.0,0.0,0.0,0.143385,-0.06371718933899229,0.0,0.0,0.15183347629751065,0.0,-0.07100953133475563
244,0.2346,0.0301606,968.042,0.0316865,-5.93524e-16,1.73622e-15,-6.84205e-17,-0.0662895,0.142316,-0.0741632,0.0,0.0,0.0,0.144387,-0.06414010636869794,0.0,0.0,0.1529409203098515,0.0,-0.07147985301258808
245,0.2356,0.0296332,969.119,0.0307024,4.10414e-16,2.17697e-15,-5.50796e-17,-0.0667408,0.143275,-0.0746692,0.0,0.0,0.0,0.145388,-0.06456236464894605,0.0,0.0,0.15404712099087603,0.0,-0.07194956535971797
246,0.2366,0.029819,970.191,0.030982,-5.05593e-16,8.43687e-16,1.61852e-15,-0.0671917,0.144234,-0.0751747,0.0,0.0,0.0,0.146388,-0.06498405840072485,0.0,0.0,0.15515438302719198,0.0,-0.07241857630192572
247,0.2376,0.0295327,971.255,0.0306607,-3.74015e-16,3.16423e-15,-4.23584e-16,-0.0676422,0.145191,-0.0756797,0.0,0.0,0.0,0.147387,-0.0654051882158021,0.0,0.0,0.1562603949140251,0.0,-0.0728868866625747
248,0.2386,0.0295307,972.312,0.0306655,-2.70216e-16,7.69913e-16,-3.28579e-16,-0.0680923,0.146148,-0.0761843,0.0,0.0,0.0,0.148385,-0.06582575468500207,0.0,0.0,0.1573674657608657,0.0,-0.07335458992810684
249,0.2396,0.0293675,973.362,0.030496,6.66625e-16,1.43237e-15,-2.55553e-16,-0.068542,0.147104,-0.0766884,0.0,0.0,0.0,0.149382,-0.06624575839820723,0.0,0.0,0.15847443810660589,0.0,-0.07382159416101775
250,0.2406,0.0292961,974.406,0.0304234,-1.15917e-15,2.67774e-16,-1.99396e-16,-0.0689912,0.148058,-0.077192,0.0,0.0,0.0,0.150378,-0.06666510661087488,0.0,0.0,0.15958015006130144,0.0,-0.07428790018048748
251,0.2416,0.0291745,975.443,0.0302983,-3.50557e-17,2.04348e-16,-1.56192e-16,-0.06944,0.149012,-0.0776951,0.0,0.0,0.0,0.151374,-0.06708389332825915,0.0,0.0,0.1606869173685248,0.0,-0.07475350880423648
252,0.2426,0.0290817,976.474,0.0302032,8.53537e-16,9.95727e-16,-1.22938e-16,-0.0698884,0.149965,-0.0781978,0.0,0.0,0.0,0.152368,-0.0675021191372569,0.0,0.0,0.1617935792414027,0.0,-0.07521851332668139
253,0.2436,0.0289738,977.498,0.0300924,-1.01267e-15,-9.11064e-16,7.37032e-16,-0.0703363,0.150917,-0.0786999,0.0,0.0,0.0,0.153362,-0.06791969141580256,0.0,0.0,0.16290013336503062,0.0,-0.07568272955990218
254,0.2446,0.028875,978.516,0.029991,-3.24734e-14,1.62686e-14,5.65287e-16,-0.0707838,0.151869,-0.0792017,0.0,0.0,0.0,0.154354,-0.06833670404036019,0.0,0.0,0.16400774142978047,0.0,-0.07614643561263013
255,0.2456,0.0287721,979.527,0.0298854,4.51424e-17,-4.18973e-15,1.26801e-15,-0.0712309,0.152819,-0.0797029,0.0,0.0,0.0,0.155346,-0.06875315759485423,0.0,0.0,0.16511407420900337,0.0,-0.07660935500181165
256,0.2466,0.0286723,980.532,0.0297829,-3.33675e-14,1.20527e-14,1.39367e-16,-0.0716776,0.153768,-0.0802037,0.0,0.0,0.0,0.156337,-0.06916905266227769,0.0,0.0,0.16622029228288215,0.0,-0.07707167326267172
257,0.2476,0.0285716,981.531,0.0296795,-3.23895e-14,-1.35303e-14,1.04054e-16,-0.0721239,0.154717,-0.080704,0.0,0.0,0.0,0.157327,-0.06958438982469262,0.0,0.0,0.16732756065600096,0.0,-0.07753329881927673
258,0.2486,0.0284723,982.524,0.0295775,1.84699e-15,-2.1055e-15,7.67943e-17,-0.0725698,0.155664,-0.0812038,0.0,0.0,0.0,0.158316,-0.06999916966323239,0.0,0.0,0.16843354345614348,0.0,-0.07799423247961002
259,0.2496,0.028373,983.511,0.0294755,-3.28191e-14,-1.6976e-14,1.72891e-15,-0.0730152,0.156611,-0.0817032,0.0,0.0,0.0,0.159304,-0.07041329979943678,0.0,0.0,0.169540574118082,0.0,-0.07845456720476152
260,0.2506,0.0282745,984.492,0.0293744,-1.05952e-15,-5.73696e-16,-3.41792e-16,-0.0734602,0.157557,-0.0822021,0.0,0.0,0.0,0.160291,-0.07082687385397402,0.0,0.0,0.1706474829865432,0.0,-0.07891421155336653
261,0.2516,0.0281764,985.468,0.0292736,9.41084e-16,-2.97987e-15,5.68978e-16,-0.0739048,0.158502,-0.0827005,0.0,0.0,0.0,0.161277,-0.07123989240503126,0.0,0.0,0.1717542677313919,0.0,-0.0793731663292977
262,0.2526,0.0280789,986.437,0.0291734,-4.92993e-17,1.04993e-15,1.27357e-15,-0.074349,0.159446,-0.0831985,0.0,0.0,0.0,0.162262,-0.07165235602987174,0.0,0.0,0.17286092602066105,0.0,-0.07983152435184515
263,0.2536,0.0279818,987.401,0.0290737,2.41624e-17,2.50305e-15,9.80948e-16,-0.0747928,0.160389,-0.083696,0.0,0.0,0.0,0.163247,-0.0720642653048369,0.0,0.0,0.17396745552055926,0.0,-0.08028919431363746
264,0.2546,0.0278853,988.359,0.0289745,9.42647e-16,1.10429e-15,7.54487e-16,-0.0752361,0.161331,-0.084193,0.0,0.0,0.0,0.16423,-0.07247552805290414,0.0,0.0,0.17507385389547947,0.0,-0.08074617701445586
265,0.2556,0.0277892,989.311,0.0288758,8.12145e-16,1.70278e-15,-2.59592e-16,-0.0756791,0.162272,-0.0846896,0.0,0.0,0.0,0.165213,-0.07288633039453973,0.0,0.0,0.176180118808005,0.0,-0.08120256513240154
266,0.2566,0.0276937,990.258,0.0287776,7.0852e-16,3.86074e-15,6.3279e-16,-0.0761216,0.163213,-0.0851857,0.0,0.0,0.0,0.166195,-0.07329648743940143,0.0,0.0,0.17728742520575524,0.0,-0.08165826749352245
267,0.2576,0.0275987,991.2,0.0286799,6.26216e-16,4.74455e-16,4.85175e-16,-0.0765637,0.164152,-0.0856813,0.0,0.0,0.0,0.167175,-0.07370609251243154,0.0,0.0,0.17839341728003766,0.0,-0.08211328489352754
268,0.2586,0.0275041,992.136,0.0285828,5.60832e-16,-4.70777e-15,3.70739e-16,-0.0770054,0.165091,-0.0861765,0.0,0.0,0.0,0.168155,-0.07411514618521464,0.0,0.0,0.17950044836861867,0.0,-0.08256770986993778
269,0.2596,0.0274101,993.067,0.0284861,1.37063e-15,1.39502e-15,2.81985e-16,-0.0774467,0.166029,-0.0866712,0.0,0.0,0.0,0.169134,-0.07452364902842123,0.0,0.0,0.18060733883966185,0.0,-0.08302145138164863
270,0.2606,0.0273165,993.992,0.0283899,-5.70756e-16,1.93394e-15,2.1312e-16,-0.0778876,0.166966,-0.0871655,0.0,0.0,0.0,0.170112,-0.074931601611809,0.0,0.0,0.1817140863463873,0.0,-0.08347460187286015
271,0.2616,0.0272234,994.913,0.0282942,4.70301e-16,3.20272e-15,1.00051e-15,-0.0783281,0.167902,-0.0876593,0.0,0.0,0.0,0.17109,-0.07533900450422426,0.0,0.0,0.18282068854024347,0.0,-0.08392707039078406
272,0.2626,0.0271308,995.828,0.028199,4.37053e-16,7.58553e-15,7.71051e-16,-0.0787682,0.168837,-0.0881527,0.0,0.0,0.0,0.172066,-0.07574585827360314,0.0,0.0,0.18392714307091418,0.0,-0.08437894928656242
273,0.2636,0.0270387,996.738,0.0281042,-4.52415e-16,1.69632e-15,1.43433e-15,-0.0792078,0.169771,-0.0886456,0.0,0.0,0.0,0.173041,-0.07615207110218469,0.0,0.0,0.18503344758632667,0.0,-0.08483014769547637
274,0.2646,0.026947,997.643,0.02801,5.65129e-16,4.77083e-16,2.6637e-16,-0.0796471,0.170705,-0.089138,0.0,0.0,0.0,0.174016,-0.07655782836624103,0.0,0.0,0.18614078587285277,0.0,-0.08528066640394238
275,0.2656,0.0268558,998.543,0.0279162,-3.50573e-16,1.21877e-15,2.00218e-16,-0.0800859,0.171637,-0.08963,0.0,0.0,0.0,0.17499,-0.07696294590186625,0.0,0.0,0.1872467844005421,0.0,-0.08573059762391555
276,0.2666,0.0267651,999.438,0.0278228,-1.08118e-15,1.03726e-16,1.4876e-16,-0.0805244,0.172569,-0.0901216,0.0,0.0,0.0,0.175962,-0.07736760892123717,0.0,0.0,0.18835381419935682,0.0,-0.08617994200422552
277,0.2676,0.0266748,1000.33,0.02773,6.42216e-17,1.51773e-14,3.55097e-14,-0.0809624,0.1735,-0.0906126,0.0,0.0,0.0,0.176934,-0.07777163342070514,0.0,0.0,0.18946068676960848,0.0,-0.08662851751840084
278,0.2686,0.026585,1001.21,0.0276376,1.14175e-16,-8.37744e-16,-1.93693e-16,-0.0814001,0.17443,-0.0911033,0.0,0.0,0.0,0.177905,-0.07817520444879433,0.0,0.0,0.19056739975007386,0.0,-0.08707659895908204
279,0.2696,0.0264957,1002.09,0.0275456,1.88396e-15,1.04016e-15,6.74427e-16,-0.0818373,0.175359,-0.0915934,0.0,0.0,0.0,0.178875,-0.07857813816168158,0.0,0.0,0.1916739507778107,0.0,-0.08752391309464957
280,0.2706,0.0264068,1002.97,0.0274542,7.02522e-16,-8.85416e-16,5.07113e-16,-0.0822741,0.176287,-0.0920832,0.0,0.0,0.0,0.179845,-0.07898052734273753,0.0,0.0,0.19278033748816603,0.0,-0.08797073444653392
281,0.2716,0.0263183,1003.84,0.0273631,6.23829e-16,-2.39748e-15,3.76705e-16,-0.0827106,0.177215,-0.0925725,0.0,0.0,0.0,0.180813,-0.07938246461336129,0.0,0.0,0.19388775140193704,0.0,-0.08841688120746305
282,0.2726,0.0262303,1004.71,0.0272726,-3.04862e-16,-1.83613e-16,2.75019e-16,-0.0831466,0.178141,-0.0930613,0.0,0.0,0.0,0.18178,-0.07978376636865003,0.0,0.0,0.19499380348281425,0.0,-0.08886235415347121
283,0.2736,0.0261427,1005.57,0.0271824,1.55078e-15,3.25681e-15,1.95695e-16,-0.0835822,0.179067,-0.0935497,0.0,0.0,0.0,0.182747,-0.08018452526839459,0.0,0.0,0.19610088024227124,0.0,-0.08930724512848309
284,0.2746,0.0260556,1006.43,0.0270928,4.36328e-16,-8.46394e-16,9.7898e-16,-0.0840174,0.179992,-0.0940376,0.0,0.0,0.0,0.183713,-0.08058474186954867,0.0,0.0,0.19720778542121598,0.0,-0.08975146374764065
285,0.2756,0.0259689,1007.28,0.0270035,4.1112e-16,-1.51876e-15,7.45118e-16,-0.0844523,0.180916,-0.0945251,0.0,0.0,0.0,0.184678,-0.08098450862972673,0.0,0.0,0.1983145166460294,0.0,-0.0901951017635112
286,0.2766,0.0258826,1008.13,0.0269147,3.90995e-16,3.91385e-15,5.62493e-16,-0.0848867,0.181839,-0.0950121,0.0,0.0,0.0,0.185642,-0.08138364226107675,0.0,0.0,0.19942107154141908,0.0,-0.09063806887770531
287,0.2776,0.0257968,1008.97,0.0268263,1.24229e-15,2.22556e-15,4.1982e-16,-0.0853207,0.182761,-0.0954987,0.0,0.0,0.0,0.186605,-0.08178223525939832,0.0,0.0,0.2005274477304273,0.0,-0.09108045675169063
288,0.2786,0.0257113,1009.81,0.0267384,1.05686e-15,-1.65939e-15,3.08313e-16,-0.0857544,0.183682,-0.0959849,0.0,0.0,0.0,0.187567,-0.08218037996004723,0.0,0.0,0.2016336428344392,0.0,-0.09152226602108127
289,0.2796,0.0256263,1010.65,0.0266509,9.08331e-16,3.80786e-15,-6.25673e-16,-0.0861876,0.184603,-0.0964706,0.0,0.0,0.0,0.188528,-0.08257789331183996,0.0,0.0,0.2027408572134457,0.0,-0.09196340651683321
290,0.2806,0.0255417,1011.48,0.0265638,-7.89209e-17,1.47516e-14,-3.4394e-14,-0.0866205,0.185523,-0.0969558,0.0,0.0,0.0,0.189489,-0.08297495939067168,0.0,0.0,0.20384788795814224,0.0,-0.09240387900472435
291,0.2816,0.0254576,1012.31,0.0264771,-2.20024e-18,2.23693e-15,1.04015e-15,-0.0870529,0.186441,-0.0974406,0.0,0.0,0.0,0.190448,-0.08337139530261017,0.0,0.0,0.2049535277302974,0.0,-0.09284377496478635
292,0.2826,0.0253738,1013.13,0.0263909,9.28227e-16,-2.50567e-15,-4.30582e-17,-0.087485,0.187359,-0.097925,0.0,0.0,0.0,0.191407,-0.08376738496297242,0.0,0.0,0.20606018294578066,0.0,-0.09328309502828369
293,0.2836,0.0252905,1013.95,0.026305,-3.39595e-14,1.28247e-14,-4.33255e-17,-0.0879166,0.188277,-0.098409,0.0,0.0,0.0,0.192365,-0.0841627456346522,0.0,0.0,0.20716785453719688,0.0,-0.09372183982548421
294,0.2846,0.0252075,1014.76,0.0262196,2.36498e-15,2.42895e-15,8.04833e-16,-0.0883479,0.189193,-0.0988925,0.0,0.0,0.0,0.193322,-0.08455766107282392,0.0,0.0,0.20827412688733715,0.0,-0.0941599194016568
295,0.2856,0.025125,1015.58,0.0261346,2.29475e-16,-6.46056e-16,-2.27764e-16,-0.0887788,0.190108,-0.0993755,0.0,0.0,0.0,0.194278,-0.0849520402015822,0.0,0.0,0.2093802036663961,0.0,-0.09459733451633201
296,0.2866,0.0250429,1016.38,0.02605,1.12383e-15,2.90973e-15,6.60634e-16,-0.0892093,0.191023,-0.0998581,0.0,0.0,0.0,0.195234,-0.08534588356740835,0.0,0.0,0.21048729296886637,0.0,-0.0950341764242636
297,0.2876,0.0249611,1017.18,0.0259658,1.0213e-16,1.44324e-15,5.08139e-16,-0.0896394,0.191937,-0.10034,0.0,0.0,0.0,0.196188,-0.0857391917159056,0.0,0.0,0.2115941841268414,0.0,-0.09547017439249672
298,0.2886,0.0248798,1017.98,0.025882,1.02193e-15,-1.42517e-15,3.88519e-16,-0.0900691,0.19285,-0.100822,0.0,0.0,0.0,0.197142,-0.08613196519180044,0.0,0.0,0.21270087474434085,0.0,-0.09590605271332542
299,0.2896,0.0247989,1018.78,0.0257986,1.76174e-15,-1.98118e-15,2.94652e-16,-0.0904984,0.193762,-0.101303,0.0,0.0,0.0,0.198095,-0.0865242045389436,0.0,0.0,0.2138073624237966,0.0,-0.09634081733269706
300,0.2906,0.0247183,1019.57,0.0257156,-2.56406e-16,-7.0908e-16,2.20963e-16,-0.0909273,0.194673,-0.101784,0.0,0.0,0.0,0.199047,-0.08691591030031165,0.0,0.0,0.21491364476606112,0.0,-0.09677537288057247
301,0.2916,0.0246381,1020.36,0.025633,7.33828e-16,-1.416e-15,1.63094e-16,-0.0913558,0.195584,-0.102265,0.0,0.0,0.0,0.199998,-0.08730708301800783,0.0,0.0,0.2160209353907423,0.0,-0.0972097194574909
302,0.2926,0.0245584,1021.14,0.0255508,6.59325e-16,1.45136e-15,1.1763e-16,-0.091784,0.196493,-0.102745,0.0,0.0,0.0,0.200948,-0.0876978144634869,0.0,0.0,0.21712680096076764,0.0,-0.0976429548073493
303,0.2936,0.024479,1021.92,0.0254689,5.994e-16,2.92705e-16,8.18965e-17,-0.0922118,0.197402,-0.103224,0.0,0.0,0.0,0.201897,-0.08808801386885556,0.0,0.0,0.21823367221961254,0.0,-0.09807508032967172
304,0.2946,0.0243999,1022.7,0.0253875,5.51195e-16,2.32815e-16,5.38002e-17,-0.0926391,0.19831,-0.103703,0.0,0.0,0.0,0.202846,-0.08847759062152871,0.0,0.0,0.21934033074092318,0.0,-0.09850699891343462
305,0.2956,0.0243213,1023.47,0.0253064,-3.60142e-16,-6.72558e-16,3.1699e-17,-0.0930661,0.199217,-0.104182,0.0,0.0,0.0,0.203793,-0.08886672760367498,0.0,0.0,0.2204467741171252,0.0,-0.09893871065773796
306,0.2966,0.024243,1024.24,0.0252257,6.50969e-16,1.18366e-15,1.71837e-15,-0.0934927,0.200124,-0.10466,0.0,0.0,0.0,0.20474,-0.08925533416200693,0.0,0.0,0.2215542214927142,0.0,-0.09936931503139945
307,0.2976,0.0241651,1025.0,0.0251454,-3.69506e-14,-1.29873e-14,4.89036e-16,-0.093919,0.201029,-0.105138,0.0,0.0,0.0,0.205686,-0.08964350186922831,0.0,0.0,0.22266022845582878,0.0,-0.09979971362535556
308,0.2986,0.0240876,1025.76,0.0250655,-2.91569e-17,6.77185e-18,-4.78877e-16,-0.0943448,0.201934,-0.105616,0.0,0.0,0.0,0.206631,-0.09003104915146065,0.0,0.0,0.22376723680830501,0.0,-0.1002299065379455
309,0.2996,0.0240104,1026.52,0.024986,1.80176e-15,-8.51793e-16,1.31748e-15,-0.0947703,0.202838,-0.106093,0.0,0.0,0.0,0.207576,-0.09041815857667601,0.0,0.0,0.22487402258217593,0.0,-0.10065899452690574
310,0.3006,0.0239336,1027.28,0.0249068,1.53166e-15,-6.74498e-16,1.73274e-16,-0.0951954,0.203741,-0.106569,0.0,0.0,0.0,0.208519,-0.09080473964383762,0.0,0.0,0.225980583361568,0.0,-0.10108697897713081
311,0.3016,0.0238572,1028.03,0.024828,4.39515e-16,1.18452e-15,-7.28562e-16,-0.0956201,0.204643,-0.107045,0.0,0.0,0.0,0.209462,-0.09119079288670207,0.0,0.0,0.22708691672909898,0.0,-0.10151475975523538
312,0.3026,0.0237811,1028.77,0.0247495,1.30657e-15,9.41337e-16,1.12173e-15,-0.0960444,0.205545,-0.107521,0.0,0.0,0.0,0.210404,-0.09157631883816575,0.0,0.0,0.22819424845952163,0.0,-0.10194233695814447
313,0.3036,0.0237054,1029.52,0.0246714,1.13233e-15,1.60854e-15,1.88782e-17,-0.0964683,0.206445,-0.107996,0.0,0.0,0.0,0.211344,-0.09196131803026641,0.0,0.0,0.229300120851065,0.0,-0.10236881305199841
314,0.3046,0.02363,1030.26,0.0245937,9.91631e-16,-4.41376e-16,8.5749e-16,-0.0968919,0.207345,-0.108471,0.0,0.0,0.0,0.212285,-0.09234588175960046,0.0,0.0,0.2304069889757736,0.0,-0.102795086617812
315,0.3056,0.023555,1031.0,0.0245163,8.77988e-16,-2.07031e-15,6.64737e-16,-0.0973151,0.208244,-0.108946,0.0,0.0,0.0,0.213224,-0.09272991971427691,0.0,0.0,0.23151362221597238,0.0,-0.10322115775176322
316,0.3066,0.0234803,1031.73,0.0244393,7.8618e-16,7.72649e-17,-3.42368e-16,-0.0977378,0.209143,-0.10942,0.0,0.0,0.0,0.214162,-0.09311334173526054,0.0,0.0,0.2326212507667793,0.0,-0.10364613019656266
317,0.3076,0.023406,1032.46,0.0243627,1.58782e-15,-1.65913e-15,-2.82545e-16,-0.0981603,0.21004,-0.109893,0.0,0.0,0.0,0.2151,-0.09349642041730732,0.0,0.0,0.23372740806609715,0.0,-0.10407000532260957
318,0.3086,0.023332,1033.19,0.0242863,4.84315e-16,-4.56872e-16,6.20219e-16,-0.0985823,0.210937,-0.110366,0.0,0.0,0.0,0.216037,-0.09387888422235247,0.0,0.0,0.23483455803365771,0.0,-0.10449368000313108
319,0.3096,0.0232584,1033.91,0.0242104,1.34403e-15,4.9989e-16,-3.77908e-16,-0.099004,0.211832,-0.110839,0.0,0.0,0.0,0.216973,-0.09426091494003763,0.0,0.0,0.2359402296773525,0.0,-0.10491715433291526
320,0.3106,0.0231851,1034.63,0.0241348,1.16347e-15,2.985e-15,5.45157e-16,-0.0994253,0.212727,-0.111311,0.0,0.0,0.0,0.217908,-0.09464242244637433,0.0,0.0,0.2370468913401358,0.0,-0.10533953374668692
321,0.3116,0.0231121,1035.35,0.0240595,1.89422e-15,1.25173e-14,-3.81177e-14,-0.0998462,0.213622,-0.111783,0.0,0.0,0.0,0.218842,-0.09502340726688663,0.0,0.0,0.23815454390847135,0.0,-0.10576171384441746
322,0.3126,0.0230395,1036.07,0.0239846,2.48626e-15,1.34624e-15,-1.02975e-15,-0.100267,0.214515,-0.112255,0.0,0.0,0.0,0.219776,-0.09540414130504893,0.0,0.0,0.2392607097457189,0.0,-0.10618369472016198
323,0.3136,0.0229672,1036.78,0.02391,1.21131e-15,1.07459e-15,8.97818e-16,-0.100687,0.215408,-0.112726,0.0,0.0,0.0,0.220708,-0.09578399179151487,0.0,0.0,0.24036786383024555,0.0,-0.10660458307296083
324,0.3146,0.0228952,1037.49,0.0238357,1.78067e-16,-1.73061e-15,-1.47901e-16,-0.101107,0.216299,-0.113197,0.0,0.0,0.0,0.22164,-0.09616368277427456,0.0,0.0,0.24147352409541956,0.0,-0.10702527323402333
325,0.3156,0.0228236,1038.19,0.0237618,2.18349e-16,3.48437e-16,-1.18482e-16,-0.101526,0.21719,-0.113667,0.0,0.0,0.0,0.222571,-0.09654231086306819,0.0,0.0,0.24258016994290155,0.0,-0.10744487274199488
326,0.3166,0.0227523,1038.89,0.0236882,1.12923e-15,2.79142e-16,-9.51838e-17,-0.101945,0.218081,-0.114137,0.0,0.0,0.0,0.223502,-0.09692078033992413,0.0,0.0,0.24368780225123654,0.0,-0.10786427508453511
327,0.3176,0.0226813,1039.59,0.023615,9.89787e-16,-2.36685e-15,7.81309e-16,-0.102364,0.21897,-0.114606,0.0,0.0,0.0,0.224431,-0.09729909127128689,0.0,0.0,0.24479393230939905,0.0,-0.10828258863732465
328,0.3186,0.0226107,1040.29,0.0235421,8.76714e-16,2.3615e-14,-2.40559e-16,-0.102782,0.219859,-0.115075,0.0,0.0,0.0,0.22536,-0.09767634140036563,0.0,0.0,0.24590104615441155,0.0,-0.10870070604705706
329,0.3196,0.0225403,1040.98,0.0234695,2.54288e-15,-1.63858e-16,6.66391e-16,-0.1032,0.220747,-0.115544,0.0,0.0,0.0,0.226287,-0.09805343387184318,0.0,0.0,0.24700789765272857,0.0,-0.10911862740570177
330,0.3206,0.0224703,1041.67,0.0233972,3.79019e-16,7.36424e-16,5.26881e-16,-0.103618,0.221634,-0.116012,0.0,0.0,0.0,0.227214,-0.09843036875160649,0.0,0.0,0.24811448435659722,0.0,-0.10953546234109302
331,0.3216,0.0224006,1042.36,0.0233253,3.80603e-16,-3.73361e-15,-4.42915e-16,-0.104035,0.22252,-0.11648,0.0,0.0,0.0,0.228141,-0.0988062449122109,0.0,0.0,0.24922080381688683,0.0,-0.1099521022433757
332,0.3226,0.0223312,1043.05,0.0232536,3.81936e-16,2.21053e-15,-3.53187e-16,-0.104452,0.223405,-0.116947,0.0,0.0,0.0,0.229066,-0.09918196436513216,0.0,0.0,0.2503268535830958,0.0,-0.11036765757190647
333,0.3236,0.0222621,1043.73,0.0231823,1.26302e-15,1.76912e-15,5.77705e-16,-0.104868,0.22429,-0.117414,0.0,0.0,0.0,0.22999,-0.09955662673278065,0.0,0.0,0.2514338826366187,0.0,-0.11078301888140585
334,0.3246,0.0221934,1044.41,0.0231113,1.97927e-15,-1.17997e-15,4.57028e-16,-0.105284,0.225174,-0.11788,0.0,0.0,0.0,0.230914,-0.0999311332732985,0.0,0.0,0.25254063930324255,0.0,-0.11119729746020135
335,0.3256,0.0221249,1045.08,0.0230407,8.00839e-16,-7.52419e-17,1.22139e-15,-0.1057,0.226057,-0.118346,0.0,0.0,0.0,0.231837,-0.10030548405149631,0.0,0.0,0.25364712112758014,0.0,-0.11161138303015372
336,0.3266,0.0220568,1045.75,0.0229703,-3.62662e-14,-1.67246e-14,1.82881e-15,-0.106116,0.22694,-0.118812,0.0,0.0,0.0,0.232759,-0.1006796791321577,0.0,0.0,0.2547545804068514,0.0,-0.11202527568118403
337,0.3276,0.0219889,1046.43,0.0229002,-3.51436e-16,1.71563e-14,5.90195e-16,-0.106531,0.227821,-0.119277,0.0,0.0,0.0,0.233681,-0.10105281963330848,0.0,0.0,0.255860506281006,0.0,-0.11243808794170329
338,0.3286,0.0219214,1047.09,0.0228305,3.85674e-14,-6.64171e-15,3.74898e-14,-0.106945,0.228702,-0.119742,0.0,0.0,0.0,0.234601,-0.10142490673863502,0.0,0.0,0.25696740690517017,0.0,-0.11285070828914479
339,0.3296,0.0218541,1047.76,0.0227611,3.93977e-14,1.48353e-14,5.212e-16,-0.10736,0.229582,-0.120207,0.0,0.0,0.0,0.235521,-0.10179773803449366,0.0,0.0,0.2580740250638227,0.0,-0.11326313681272704
340,0.3306,0.0217872,1048.42,0.0226919,1.28097e-15,1.47516e-15,4.01281e-16,-0.107773,0.230461,-0.120671,0.0,0.0,0.0,0.23644,-0.1021686189764992,0.0,0.0,0.25918035829407526,0.0,-0.11367448727655816
341,0.3316,0.0217205,1049.08,0.0226231,1.98708e-15,-1.41964e-15,3.05851e-16,-0.108187,0.23134,-0.121134,0.0,0.0,0.0,0.237358,-0.1025402442365062,0.0,0.0,0.2602876644187617,0.0,-0.11408476100325227
342,0.3326,0.0216542,1049.74,0.0225546,7.98076e-16,1.46674e-15,2.29883e-16,-0.1086,0.232217,-0.121598,0.0,0.0,0.0,0.238275,-0.10291081858676576,0.0,0.0,0.2613934215040665,0.0,-0.11449573032189153
343,0.3336,0.0215881,1050.39,0.0224863,1.59406e-15,2.91272e-15,1.69388e-16,-0.109013,0.233094,-0.122061,0.0,0.0,0.0,0.239192,-0.10328123992141869,0.0,0.0,0.2625001487636942,0.0,-0.11490562390106651
344,0.3346,0.0215224,1051.04,0.0224184,4.77641e-16,9.93371e-15,3.98001e-14,-0.109426,0.233971,-0.122523,0.0,0.0,0.0,0.240108,-0.10365150830364711,0.0,0.0,0.2636078470488612,0.0,-0.11531444305832728
345,0.3356,0.0214569,1051.69,0.0223508,1.98742e-14,1.95792e-14,6.26006e-16,-0.109838,0.234846,-0.122985,0.0,0.0,0.0,0.241023,-0.10402072781778338,0.0,0.0,0.2647139877810252,0.0,-0.11572307338476051
346,0.3366,0.0213917,1052.34,0.0222834,1.25118e-15,9.39225e-16,-1.25203e-15,-0.110249,0.235721,-0.123447,0.0,0.0,0.0,0.241937,-0.10438889963415932,0.0,0.0,0.26582109680989774,0.0,-0.11613151496758622
347,0.3376,0.0213268,1052.98,0.0222164,-3.77922e-14,2.05614e-15,3.78286e-14,-0.110661,0.236595,-0.123908,0.0,0.0,0.0,0.24285,-0.10475781540564266,0.0,0.0,0.2669279080545681,0.0,-0.11653888443330973
348,0.3386,0.0212622,1053.62,0.0221496,1.92079e-15,-8.79954e-17,7.71355e-16,-0.111072,0.237468,-0.124369,0.0,0.0,0.0,0.243763,-0.10512568434126635,0.0,0.0,0.2680344190400694,0.0,-0.11694606614499026
349,0.3396,0.0211978,1054.26,0.0220832,-1.35409e-16,1.23289e-15,3.85909e-14,-0.111483,0.23834,-0.124829,0.0,0.0,0.0,0.244675,-0.10549340211382352,0.0,0.0,0.2691406272901742,0.0,-0.11735217754178118
350,0.3406,0.0211338,1054.9,0.022017,-2.69823e-15,2.72846e-15,5.05344e-16,-0.111893,0.239212,-0.125289,0.0,0.0,0.0,0.245586,-0.10586007464595126,0.0,0.0,0.27024780057456677,0.0,-0.11775810217028959
351,0.3416,0.02107,1055.53,0.0219511,1.39911e-15,-2.52087e-14,3.57818e-16,-0.112303,0.240082,-0.125749,0.0,0.0,0.0,0.246496,-0.1062265968731555,0.0,0.0,0.27135339702578753,0.0,-0.11816384011640912
352,0.3426,0.0210065,1056.16,0.0218855,-1.44581e-15,-2.4508e-16,1.96929e-15,-0.112713,0.240953,-0.126208,0.0,0.0,0.0,0.247405,-0.10659296885704861,0.0,0.0,0.27246122822504715,0.0,-0.11856851003494473
353,0.3436,0.0209432,1056.79,0.0218201,-1.11596e-15,2.41794e-15,-2.03174e-16,-0.113122,0.241822,-0.126667,0.0,0.0,0.0,0.248314,-0.10695829761796172,0.0,0.0,0.27356747762812383,0.0,-0.11897299425260932
354,0.3446,0.0208803,1057.42,0.0217551,-4.38653e-15,7.1659e-15,6.56586e-16,-0.113531,0.24269,-0.127126,0.0,0.0,0.0,0.249222,-0.1073234769899638,0.0,0.0,0.2746734141056997,0.0,-0.11937729285462007
355,0.3456,0.0208176,1058.04,0.0216903,9.07057e-16,-2.07852e-15,4.78273e-16,-0.113939,0.243558,-0.127584,0.0,0.0,0.0,0.250129,-0.10768761472220312,0.0,0.0,0.27578031095287825,0.0,-0.11978052570712072
356,0.3466,0.0207552,1058.66,0.0216258,-7.71771e-17,-8.0405e-16,3.3572e-16,-0.114347,0.244425,-0.128041,0.0,0.0,0.0,0.251035,-0.10805160391655155,0.0,0.0,0.27688689211609163,0.0,-0.12018269410439442
357,0.3476,0.0206931,1059.28,0.0215616,3.53369e-18,1.96423e-15,1.08761e-15,-0.114755,0.245292,-0.128499,0.0,0.0,0.0,0.251941,-0.1084154446336002,0.0,0.0,0.2779944331011961,0.0,-0.12058555816758199
358,0.3486,0.0206312,1059.9,0.0214976,6.95954e-17,-1.03703e-15,-9.09414e-16,-0.115163,0.246157,-0.128955,0.0,0.0,0.0,0.252846,-0.10877913693391528,0.0,0.0,0.27910037653740694,0.0,-0.12098647973599275
359,0.3496,0.0205696,1060.51,0.021434,1.00989e-15,3.52162e-15,9.19358e-17,-0.11557,0.247022,-0.129412,0.0,0.0,0.0,0.25375,-0.10914179002027402,0.0,0.0,0.28020727702855663,0.0,-0.12138809713818721
360,0.3506,0.0205082,1061.12,0.0213705,6.79434e-18,1.96053e-15,2.6668e-17,-0.115977,0.247886,-0.129868,0.0,0.0,0.0,0.254653,-0.10950429553685903,0.0,0.0,0.2813138540883613,0.0,-0.12178865283225315
361,0.3516,0.0204471,1061.73,0.0213074,9.58808e-16,7.03685e-16,-8.9249e-16,-0.116383,0.248749,-0.130324,0.0,0.0,0.0,0.255556,-0.1098657634099276,0.0,0.0,0.28242010522314565,0.0,-0.12218902591456127
362,0.3526,0.0203863,1062.34,0.0212445,-3.52041e-17,1.43622e-15,1.05706e-16,-0.116789,0.249612,-0.130779,0.0,0.0,0.0,0.256457,-0.11022708455682717,0.0,0.0,0.28352731146472876,0.0,-0.12258833905714117
363,0.3536,0.0203257,1062.95,0.0211819,3.76227e-17,-1.46447e-15,-8.29522e-16,-0.117195,0.250474,-0.131234,0.0,0.0,0.0,0.257358,-0.11058825903711633,0.0,0.0,0.28463418900289206,0.0,-0.12298747055356885
364,0.3546,0.0202654,1063.55,0.0211196,9.73271e-17,-1.18466e-15,1.02399e-15,-0.117601,0.251335,-0.131688,0.0,0.0,0.0,0.258258,-0.11094928691032979,0.0,0.0,0.28574073533946254,0.0,-0.1233855438724567
365,0.3556,0.0202054,1064.15,0.0210575,1.46293e-16,1.36631e-14,3.98277e-14,-0.118006,0.252195,-0.132143,0.0,0.0,0.0,0.259158,-0.1113092795457018,0.0,0.0,0.28684694797510835,0.0,-0.12378431272320167
366,0.3566,0.0201456,1064.75,0.0209957,1.86468e-16,-3.38096e-16,-2.48768e-16,-0.11841,0.253055,-0.132596,0.0,0.0,0.0,0.260056,-0.11166823808225868,0.0,0.0,0.2879541123628153,0.0,-0.1241811485394394
367,0.3576,0.020086,1065.34,0.0209341,-6.68573e-16,-2.76229e-16,-2.56833e-16,-0.118815,0.253914,-0.13305,0.0,0.0,0.0,0.260954,-0.11202793960136104,0.0,0.0,0.28906094025985785,0.0,-0.12457868005152117
368,0.3586,0.0200268,1065.94,0.0208728,1.29481e-15,3.26962e-15,-2.63332e-16,-0.119219,0.254772,-0.133503,0.0,0.0,0.0,0.261851,-0.11238660785789589,0.0,0.0,0.2901674291624603,0.0,-0.12497515610085264
369,0.3596,0.0199677,1066.53,0.0208118,2.4036e-16,1.2902e-14,3.96978e-14,-0.119622,0.255629,-0.133955,0.0,0.0,0.0,0.262748,-0.11274424398640903,0.0,0.0,0.2912735765657142,0.0,-0.12537057795822304
370,0.3606,0.0199089,1067.12,0.020751,1.15241e-15,-2.76096e-14,-3.63513e-16,-0.120026,0.256486,-0.134407,0.0,0.0,0.0,0.263643,-0.11310262291442064,0.0,0.0,0.29238067234361287,0.0,-0.1257658211253011
371,0.3616,0.0198504,1067.71,0.0206904,4.56789e-15,1.42058e-14,3.9629e-14,-0.120429,0.257342,-0.134859,0.0,0.0,0.0,0.264538,-0.11345997054700174,0.0,0.0,0.29348742382119175,0.0,-0.12616088568283634
372,0.3626,0.0197921,1068.29,0.0206301,2.03762e-15,-5.14971e-15,-4.29127e-16,-0.120831,0.258197,-0.135311,0.0,0.0,0.0,0.265432,-0.11381628801423238,0.0,0.0,0.2945938284891536,0.0,-0.1265557717115421
373,0.3636,0.019734,1068.88,0.0205701,8.4896e-16,-1.27218e-14,-4.21724e-14,-0.121234,0.259052,-0.135762,0.0,0.0,0.0,0.266326,-0.11417334809772339,0.0,0.0,0.29570117953762676,0.0,-0.12694960624213802
374,0.3646,0.0196762,1069.46,0.0205103,-4.10479e-14,6.72914e-16,4.00023e-14,-0.121636,0.259905,-0.136212,0.0,0.0,0.0,0.267218,-0.11452937884481329,0.0,0.0,0.2968068841597502,0.0,-0.12734239053623464
375,0.3656,0.0196186,1070.04,0.0204508,4.10879e-14,-3.38251e-15,-9.99166e-16,-0.122037,0.260758,-0.136663,0.0,0.0,0.0,0.26811,-0.11488438138113088,0.0,0.0,0.2979135323502913,0.0,-0.12773587038172818
376,0.3666,0.0195613,1070.61,0.0203915,1.42466e-17,3.18403e-14,-9.83603e-18,-0.122439,0.261611,-0.137113,0.0,0.0,0.0,0.269001,-0.11524012635028613,0.0,0.0,0.29902112491445676,0.0,-0.12812830093655925
377,0.3676,0.0195042,1071.19,0.0203324,4.52771e-15,2.10329e-15,-9.55829e-16,-0.12284,0.262462,-0.137562,0.0,0.0,0.0,0.269891,-0.11559484393399089,0.0,0.0,0.3001270624014163,0.0,-0.12851968345748754
378,0.3686,0.0194474,1071.76,0.0202736,2.25199e-16,2.57653e-15,2.51921e-17,-0.12324,0.263313,-0.138011,0.0,0.0,0.0,0.270781,-0.11594853525343751,0.0,0.0,0.3012339414417513,0.0,-0.12891089028710956
379,0.3696,0.0193907,1072.33,0.020215,-6.41582e-16,-5.46718e-16,-5.67895e-17,-0.12364,0.264163,-0.13846,0.0,0.0,0.0,0.27167,-0.1163020851246479,0.0,0.0,0.302340460495953,0.0,-0.1293019215042931
380,0.3706,0.0193343,1072.9,0.0201567,4.27097e-16,1.33537e-14,-4.02089e-14,-0.12404,0.265013,-0.138908,0.0,0.0,0.0,0.272558,-0.11665549360418992,0.0,0.0,0.3034479204911944,0.0,-0.12969190688021226
381,0.3716,0.0192782,1073.47,0.0200986,-4.75652e-16,-2.5563e-14,-1.05327e-15,-0.12444,0.265861,-0.139356,0.0,0.0,0.0,0.273445,-0.11700876074860922,0.0,0.0,0.3045537131175795,0.0,-0.13008171758181308
382,0.3726,0.0192223,1074.03,0.0200408,5.63942e-16,-2.99449e-14,-4.29007e-17,-0.124839,0.266709,-0.139804,0.0,0.0,0.0,0.274332,-0.11736100397587357,0.0,0.0,0.3056604438538142,0.0,-0.13047135368733198
383,0.3736,0.0191666,1074.6,0.0199831,-3.63186e-16,1.32773e-14,-4.19637e-14,-0.125238,0.267556,-0.140251,0.0,0.0,0.0,0.275218,-0.11771310668612522,0.0,0.0,0.3067668067282927,0.0,-0.13085994613535123
384,0.3746,0.0191111,1075.16,0.0199258,-2.34908e-16,-1.52993e-15,-7.12268e-16,-0.125637,0.268403,-0.140698,0.0,0.0,0.0,0.276103,-0.11806506893541935,0.0,0.0,0.30787410708909557,0.0,-0.1312483649213626
385,0.3756,0.0190559,1075.71,0.0198686,2.54664e-15,-1.68621e-14,-4.07693e-14,-0.126035,0.269249,-0.141145,0.0,0.0,0.0,0.276987,-0.11841600919623863,0.0,0.0,0.3089810367489183,0.0,-0.13163661012297567
386,0.3766,0.0190009,1076.27,0.0198117,3.77555e-16,2.13007e-15,1.13323e-15,-0.126433,0.270094,-0.141591,0.0,0.0,0.0,0.277871,-0.11876680981062548,0.0,0.0,0.31008759317922063,0.0,-0.132023813842013
387,0.3776,0.0189461,1076.83,0.019755,3.94436e-15,5.23928e-15,-5.63111e-18,-0.12683,0.270938,-0.142036,0.0,0.0,0.0,0.278754,-0.1191165899511788,0.0,0.0,0.31119377385044267,0.0,-0.13240997731710757
388,0.3786,0.0188916,1077.38,0.0196986,6.36358e-16,-1.44933e-16,-5.07951e-17,-0.127228,0.271782,-0.142482,0.0,0.0,0.0,0.279636,-0.11946711178990532,0.0,0.0,0.31230088853224847,0.0,-0.13279683619128257
389,0.3796,0.0188372,1077.93,0.0196423,5.87445e-16,1.63712e-15,-8.72479e-17,-0.127625,0.272625,-0.142927,0.0,0.0,0.0,0.280517,-0.11981661396575238,0.0,0.0,0.31340762460499394,0.0,-0.1331826557479593
390,0.3806,0.0187831,1078.48,0.0195863,-1.23888e-15,1.51582e-14,4.18225e-14,-0.128021,0.273467,-0.143371,0.0,0.0,0.0,0.281398,-0.12016509758231186,0.0,0.0,0.3145139795349732,0.0,-0.13356743722099895
391,0.3816,0.0187292,1079.03,0.0195306,2.61399e-15,-2.85543e-14,-3.87422e-16,-0.128417,0.274309,-0.143816,0.0,0.0,0.0,0.282278,-0.12051344322667956,0.0,0.0,0.3156212664080964,0.0,-0.1339529139365052
392,0.3826,0.0186755,1079.57,0.019475,4.32297e-16,-3.0697e-14,-1.2436e-15,-0.128813,0.275149,-0.144259,0.0,0.0,0.0,0.283157,-0.12086165095348145,0.0,0.0,0.31672685255305155,0.0,-0.13433648782774144
393,0.3836,0.0186221,1080.12,0.0194197,4.19175e-16,3.27081e-14,-1.06059e-15,-0.129209,0.275989,-0.144703,0.0,0.0,0.0,0.284035,-0.12120972081732229,0.0,0.0,0.3178333677805285,0.0,-0.13472075711305187
394,0.3846,0.0185689,1080.66,0.0193646,-4.07086e-14,2.52827e-14,-1.78743e-15,-0.129604,0.276829,-0.145146,0.0,0.0,0.0,0.284913,-0.12155677442999857,0.0,0.0,0.3189408128712845,0.0,-0.13510399092509395
395,0.3856,0.0185158,1081.2,0.0193097,-3.89034e-14,1.28589e-14,2.49876e-16,-0.129999,0.277668,-0.145589,0.0,0.0,0.0,0.28579,-0.12190369098356868,0.0,0.0,0.3200478685582042,0.0,-0.1354870550021564
396,0.3866,0.018463,1081.74,0.0192551,1.45884e-16,-9.9437e-16,-1.6041e-15,-0.130394,0.278506,-0.146031,0.0,0.0,0.0,0.286666,-0.12225047053216054,0.0,0.0,0.32115453229940116,0.0,-0.1358690852889325
397,0.3876,0.0184104,1082.27,0.0192006,2.0013e-16,-3.45481e-15,3.98474e-16,-0.130788,0.279343,-0.146473,0.0,0.0,0.0,0.287542,-0.12259623572655454,0.0,0.0,0.3222608015520332,0.0,-0.13625094675563376
398,0.3886,0.018358,1082.81,0.0191464,-4.18047e-14,-1.36186e-14,2.66521e-16,-0.131182,0.28018,-0.146915,0.0,0.0,0.0,0.288417,-0.1229418647162962,0.0,0.0,0.3233679971396468,0.0,-0.13663263947686233
399,0.3896,0.0183059,1083.34,0.0190924,4.41965e-16,-1.43719e-14,3.95683e-14,-0.131575,0.281015,-0.147356,0.0,0.0,0.0,0.289291,-0.12328648084195848,0.0,0.0,0.3244734708883181,0.0,-0.1370133005409191
400,0.3906,0.0182539,1083.87,0.0190386,1.34899e-15,2.40037e-15,-4.68481e-16,-0.131969,0.281851,-0.147797,0.0,0.0,0.0,0.290164,-0.12363183792869303,0.0,0.0,0.32558119367358973,0.0,-0.1373937937704569
401,0.3916,0.0182021,1084.4,0.018985,-3.99795e-14,1.62898e-14,-4.44459e-16,-0.132362,0.282685,-0.148238,0.0,0.0,0.0,0.291037,-0.12397618294815882,0.0,0.0,0.32668718952527676,0.0,-0.13777411923947436
402,0.3926,0.0181506,1084.93,0.0189316,1.68825e-16,3.56118e-15,4.51355e-16,-0.132754,0.283519,-0.148678,0.0,0.0,0.0,0.291909,-0.12431951698657506,0.0,0.0,0.3277941081622522,0.0,-0.13815341517578372
403,0.3936,0.0180993,1085.45,0.0188785,2.36587e-16,1.1328e-15,-5.76728e-16,-0.133146,0.284352,-0.149118,0.0,0.0,0.0,0.29278,-0.12466271646442384,0.0,0.0,0.3289006214531538,0.0,-0.13853254425859152
404,0.3946,0.0180481,1085.98,0.0188255,2.08448e-15,-8.45261e-16,3.4445e-16,-0.133538,0.285184,-0.149557,0.0,0.0,0.0,0.293651,-0.12500578143444263,0.0,0.0,0.33000672684624033,0.0,-0.1389106454723733
405,0.3956,0.0179972,1086.5,0.0187728,1.82151e-15,1.23039e-14,4.05581e-14,-0.13393,0.286016,-0.149996,0.0,0.0,0.0,0.29452,-0.12534871194934805,0.0,0.0,0.33111375290195655,0.0,-0.1392885807361508
406,0.3966,0.0179465,1087.02,0.0187203,2.50021e-15,1.19822e-15,-5.54352e-16,-0.134321,0.286847,-0.150435,0.0,0.0,0.0,0.295389,-0.12569063375290712,0.0,0.0,0.332220368165578,0.0,-0.1396663501227603
407,0.3976,0.0178959,1087.54,0.0186679,1.26917e-15,4.00498e-14,4.15951e-14,-0.134712,0.287678,-0.150873,0.0,0.0,0.0,0.296258,-0.12603242189117436,0.0,0.0,0.333327903408682,0.0,-0.14004309374852952
408,0.3986,0.0178456,1088.06,0.0186158,2.04323e-15,4.39712e-15,-6.01795e-16,-0.135103,0.288507,-0.151311,0.0,0.0,0.0,0.297125,-0.12637407641640253,0.0,0.0,0.33443369052603944,0.0,-0.14041967239672326
409,0.3996,0.0177955,1088.57,0.0185639,8.9062e-16,-1.71727e-15,3.04757e-16,-0.135493,0.289336,-0.151749,0.0,0.0,0.0,0.297992,-0.12671472409598483,0.0,0.0,0.3355403947209932,0.0,-0.14079608613958616
410,0.4006,0.0177455,1089.09,0.0185122,1.72999e-15,3.01224e-15,-7.16405e-16,-0.135883,0.290164,-0.152186,0.0,0.0,0.0,0.298858,-0.12705523894887505,0.0,0.0,0.33664668010676757,0.0,-0.14117147622123627
411,0.4016,0.0176958,1089.6,0.0184607,1.52828e-15,-1.97587e-16,2.11966e-16,-0.136273,0.290992,-0.152623,0.0,0.0,0.0,0.299724,-0.12739562102686552,0.0,0.0,0.33775388187617184,0.0,-0.1415467022932595
412,0.4026,0.0176463,1090.11,0.0184094,1.36115e-15,7.18138e-16,-7.91991e-16,-0.136662,0.291819,-0.15306,0.0,0.0,0.0,0.300589,-0.12773499811716238,0.0,0.0,0.3388606619269545,0.0,-0.1419217644273123
413,0.4036,0.0175969,1090.62,0.0183583,1.22266e-15,-2.95462e-15,-7.27985e-16,-0.137052,0.292645,-0.153496,0.0,0.0,0.0,0.301453,-0.12807511514076608,0.0,0.0,0.33996701769573545,0.0,-0.14229580499125372
414,0.4046,0.0175478,1091.13,0.0183074,-4.10928e-14,-1.59198e-14,-1.55506e-15,-0.13744,0.293471,-0.153932,0.0,0.0,0.0,0.302316,-0.12841335637304907,0.0,0.0,0.3410742876919053,0.0,-0.14266968250905598
415,0.4056,0.0174988,1091.63,0.0182567,-7.48509e-16,2.0292e-15,-2.22661e-15,-0.137829,0.294296,-0.154367,0.0,0.0,0.0,0.303179,-0.12875233764128868,0.0,0.0,0.34218113048912624,0.0,-0.14304254009476014
416,0.4066,0.0174501,1092.14,0.0182062,3.8026e-16,-1.15282e-16,-1.01321e-15,-0.138217,0.29512,-0.154802,0.0,0.0,0.0,0.304041,-0.12909031616221078,0.0,0.0,0.3432875435202156,0.0,-0.14341523552268642
417,0.4076,0.0174015,1092.64,0.0181559,4.18381e-16,-9.83301e-16,-9.07217e-16,-0.138605,0.295943,-0.155237,0.0,0.0,0.0,0.304902,-0.12942816357290376,0.0,0.0,0.3443935242171636,0.0,-0.1437877688633581
418,0.4086,0.0173531,1093.14,0.0181058,1.34873e-15,9.62029e-16,5.86944e-17,-0.138992,0.296766,-0.155672,0.0,0.0,0.0,0.305763,-0.12976500968967342,0.0,0.0,0.3455004155108843,0.0,-0.14416014018726764
419,0.4096,0.0173049,1093.64,0.0180558,3.23311e-16,1.66742e-15,-1.79649e-15,-0.139379,0.297588,-0.156106,0.0,0.0,0.0,0.306623,-0.1301017254722171,0.0,0.0,0.3466068715435624,0.0,-0.1445314940967991
420,0.4106,0.0172569,1094.14,0.0180061,1.27012e-15,1.35903e-15,-6.63814e-16,-0.139766,0.29841,-0.156539,0.0,0.0,0.0,0.307482,-0.13043831097096448,0.0,0.0,0.34771423745700925,0.0,-0.1449018317759615
421,0.4116,0.0172091,1094.63,0.0179566,1.15717e-15,1.10676e-15,-6.23365e-16,-0.140152,0.299231,-0.156973,0.0,0.0,0.0,0.30834,-0.13077389701065723,0.0,0.0,0.3488211651776145,0.0,-0.14527286386118443
422,0.4126,0.0171615,1095.13,0.0179072,1.06341e-15,-3.52925e-15,-5.90506e-16,-0.140539,0.300051,-0.157406,0.0,0.0,0.0,0.309198,-0.131110222429348,0.0,0.0,0.34992765213071064,0.0,-0.14564288059672814
423,0.4136,0.017114,1095.62,0.0178581,9.8556e-16,2.4236e-15,-1.44469e-15,-0.140925,0.30087,-0.157838,0.0,0.0,0.0,0.310055,-0.1314455491612675,0.0,0.0,0.35103369574084,0.0,-0.14601188316201752
424,0.4146,0.0170667,1096.11,0.0178091,-4.22708e-14,-1.42168e-14,-1.25865e-15,-0.14131,0.301689,-0.158271,0.0,0.0,0.0,0.310911,-0.13177987826235882,0.0,0.0,0.3521406455717324,0.0,-0.14638157997147294
425,0.4156,0.0170197,1096.6,0.0177603,2.77867e-15,-2.53396e-14,-1.10728e-15,-0.141695,0.302507,-0.158702,0.0,0.0,0.0,0.311767,-0.13211407867152092,0.0,0.0,0.35324714911806154,0.0,-0.14674941023738886
426,0.4166,0.0169728,1097.09,0.0177117,1.51987e-15,2.49515e-14,-1.02606e-16,-0.14208,0.303325,-0.159134,0.0,0.0,0.0,0.312622,-0.13244815043829083,0.0,0.0,0.3543545581545866,0.0,-0.14711793488511105
427,0.4176,0.0169261,1097.58,0.0176633,2.27404e-15,-2.60864e-14,-1.92972e-15,-0.142465,0.304141,-0.159565,0.0,0.0,0.0,0.313476,-0.1327820936121863,0.0,0.0,0.3554601624992655,0.0,-0.14748544785044249
428,0.4186,0.0168795,1098.07,0.0176151,4.71115e-15,-2.70961e-14,9.91761e-16,-0.142849,0.304957,-0.159996,0.0,0.0,0.0,0.31433,-0.13311504135818064,0.0,0.0,0.3565666693852767,0.0,-0.14785280245181565
429,0.4196,0.0168332,1098.55,0.0175671,4.33073e-16,-2.7042e-14,-1.56886e-16,-0.143233,0.305773,-0.160427,0.0,0.0,0.0,0.315183,-0.1334478612767851,0.0,0.0,0.357674079549394,0.0,-0.14821999875747083
430,0.4206,0.016787,1099.03,0.0175192,1.37854e-15,1.78204e-17,-1.09282e-15,-0.143617,0.306588,-0.160857,0.0,0.0,0.0,0.316035,-0.13378055341707573,0.0,0.0,0.3587810349472791,0.0,-0.1485861854222299
431,0.4216,0.016741,1099.51,0.0174715,2.16541e-15,8.95643e-16,-1.85562e-15,-0.144,0.307402,-0.161287,0.0,0.0,0.0,0.316886,-0.134112251940795,0.0,0.0,0.3598875329933342,0.0,-0.14895221466057218
432,0.4226,0.0166952,1099.99,0.017424,1.91908e-15,-2.90606e-14,-7.12023e-16,-0.144383,0.308215,-0.161716,0.0,0.0,0.0,0.317737,-0.13444382344830486,0.0,0.0,0.3609935711012273,0.0,-0.14931723585783774
433,0.4236,0.0166495,1100.47,0.0173767,3.6176e-16,1.9155e-15,-6.62547e-16,-0.144766,0.309028,-0.162145,0.0,0.0,0.0,0.318587,-0.13477526798824313,0.0,0.0,0.36210050878372946,0.0,-0.1496821004945943
434,0.4246,0.016604,1100.95,0.0173296,5.8279e-15,7.78366e-15,-1.50536e-15,-0.145149,0.30984,-0.162574,0.0,0.0,0.0,0.319437,-0.13510658560922917,0.0,0.0,0.3632069835648273,0.0,-0.1500468086379919
435,0.4256,0.0165587,1101.42,0.0172827,2.26348e-15,1.04954e-15,-1.30956e-15,-0.145531,0.310652,-0.163003,0.0,0.0,0.0,0.320286,-0.13543691179720763,0.0,0.0,0.36431435716832006,0.0,-0.1504113603551518
436,0.4266,0.0165136,1101.9,0.0172359,-4.2653e-14,1.25581e-14,-2.66319e-16,-0.145913,0.311463,-0.163431,0.0,0.0,0.0,0.321134,-0.1357671118246805,0.0,0.0,0.3654212649024,0.0,-0.15077490648849767
437,0.4276,0.0164686,1102.37,0.0171893,-2.27089e-16,-2.56471e-14,-2.06615e-15,-0.146294,0.312273,-0.163858,0.0,0.0,0.0,0.321981,-0.1360963218365857,0.0,0.0,0.3665277041743815,0.0,-0.1511374481952642
438,0.4286,0.0164239,1102.84,0.0171429,5.8003e-15,-7.60367e-15,1.85628e-14,-0.146675,0.313082,-0.164286,0.0,0.0,0.0,0.322828,-0.13642540644336754,0.0,0.0,0.3676336723908826,0.0,-0.15150068362950875
439,0.4296,0.0163792,1103.31,0.0170966,1.34681e-15,-9.14822e-16,-1.72782e-15,-0.147056,0.313891,-0.164713,0.0,0.0,0.0,0.323674,-0.1367543656927962,0.0,0.0,0.36874053569768606,0.0,-0.15186291549559172
440,0.4306,0.0163348,1103.78,0.0170505,1.24516e-15,-1.64772e-15,-1.49589e-15,-0.147437,0.314699,-0.16514,0.0,0.0,0.0,0.324519,-0.13708319963262394,0.0,0.0,0.369846924971603,0.0,-0.152224992721686
441,0.4316,0.0162905,1104.25,0.0170047,-4.17326e-14,-1.76208e-14,-1.30648e-15,-0.147817,0.315507,-0.165566,0.0,0.0,0.0,0.325364,-0.13741104572206142,0.0,0.0,0.3709542085693114,0.0,-0.15258606796030016
442,0.4326,0.0162464,1104.71,0.0169589,5.47167e-16,-1.15683e-14,4.3969e-14,-0.148197,0.316314,-0.165992,0.0,0.0,0.0,0.326208,-0.13773876725365242,0.0,0.0,0.3720610151520156,0.0,-0.15294698941362128
443,0.4336,0.0162025,1105.18,0.0169134,-4.09685e-14,-1.59921e-14,4.40019e-16,-0.148577,0.31712,-0.166418,0.0,0.0,0.0,0.327051,-0.13806636427471997,0.0,0.0,0.37316734212010383,0.0,-0.15330775714714795
444,0.4346,0.0161587,1105.64,0.016868,1.193e-15,2.82901e-14,2.65163e-16,-0.148956,0.317926,-0.166843,0.0,0.0,0.0,0.327894,-0.13839297522597505,0.0,0.0,0.37427456114717983,0.0,-0.1536675248942989
445,0.4356,0.0161151,1106.1,0.0168228,1.58589e-15,-6.12929e-15,-7.63144e-16,-0.149335,0.318731,-0.167268,0.0,0.0,0.0,0.328736,-0.138719462415134,0.0,0.0,0.3753812975705475,0.0,-0.15402713977264415
446,0.4366,0.0160716,1106.56,0.0167777,2.36588e-15,-5.95183e-16,-7.18557e-16,-0.149714,0.319535,-0.167693,0.0,0.0,0.0,0.329577,-0.13904582588909375,0.0,0.0,0.37648754878719193,0.0,-0.15438660184713937
447,0.4376,0.0160283,1107.02,0.0167329,1.661e-15,2.17564e-15,-2.45353e-15,-0.150092,0.320338,-0.168117,0.0,0.0,0.0,0.330418,-0.1393712050663688,0.0,0.0,0.3775933121934585,0.0,-0.1547450659282007
448,0.4386,0.0159852,1107.48,0.0166881,6.20291e-16,1.13339e-14,4.39656e-14,-0.150471,0.321142,-0.168541,0.0,0.0,0.0,0.331258,-0.13969732157666637,0.0,0.0,0.3787013425849919,0.0,-0.1551033780527088
449,0.4396,0.0159423,1107.93,0.0166436,1.1078e-15,4.08427e-16,-2.22984e-15,-0.150848,0.321944,-0.168965,0.0,0.0,0.0,0.332097,-0.14002159455713437,0.0,0.0,0.3798075045734117,0.0,-0.15546153828507947
450,0.4406,0.0158995,1108.39,0.0165992,1.58158e-16,3.00334e-15,-1.92839e-15,-0.151226,0.322746,-0.169388,0.0,0.0,0.0,0.332936,-0.1403466049635551,0.0,0.0,0.3809145540595853,0.0,-0.1558187025088259
451,0.4416,0.0158568,1108.84,0.016555,2.07919e-15,1.29141e-14,-4.51192e-14,-0.151603,0.323547,-0.169811,0.0,0.0,0.0,0.333774,-0.14067063321032147,0.0,0.0,0.3820211097337707,0.0,-0.15617571568405475
452,0.4426,0.0158143,1109.3,0.016511,9.69715e-16,-2.63254e-14,-1.57024e-15,-0.15198,0.324347,-0.170233,0.0,0.0,0.0,0.334611,-0.1409945393214629,0.0,0.0,0.383127168986269,0.0,-0.15653173440680224
453,0.4436,0.015772,1109.75,0.0164671,-8.71348e-16,2.60794e-14,-4.91909e-16,-0.152357,0.325147,-0.170656,0.0,0.0,0.0,0.335448,-0.14131832334301575,0.0,0.0,0.38423411344020253,0.0,-0.1568884460333203
454,0.4446,0.0157299,1110.2,0.0164233,-4.2699e-14,1.63748e-14,-2.26978e-15,-0.152733,0.325946,-0.171078,0.0,0.0,0.0,0.336284,-0.14164112696255526,0.0,0.0,0.3853405584627647,0.0,-0.15724416404731434
455,0.4456,0.0156878,1110.64,0.0163798,2.46329e-15,-2.8059e-14,-2.83925e-15,-0.153109,0.326745,-0.171499,0.0,0.0,0.0,0.337119,-0.14196380923074925,0.0,0.0,0.38644788788817186,0.0,-0.15759888957928658
456,0.4466,0.015646,1111.09,0.0163364,2.19686e-15,2.74998e-15,2.43794e-16,-0.153485,0.327542,-0.171921,0.0,0.0,0.0,0.337954,-0.14228637019321733,0.0,0.0,0.38755332731391445,0.0,-0.1579543078493546
457,0.4476,0.0156043,1111.54,0.0162931,1.52109e-15,3.15256e-15,1.08023e-16,-0.15386,0.32834,-0.172341,0.0,0.0,0.0,0.338788,-0.1426079525039431,0.0,0.0,0.38866103678640784,0.0,-0.15830789278202428
458,0.4486,0.0155628,1111.98,0.0162501,2.76784e-15,-2.82653e-14,-8.91154e-16,-0.154236,0.329136,-0.172762,0.0,0.0,0.0,0.339621,-0.142930271314068,0.0,0.0,0.3897668510273691,0.0,-0.15866217057845422
459,0.4496,0.0155214,1112.43,0.0162071,5.62376e-15,-9.90603e-16,-1.71056e-15,-0.15461,0.329932,-0.173182,0.0,0.0,0.0,0.340454,-0.14325075545832588,0.0,0.0,0.39087354584689016,0.0,-0.15901545827120245
460,0.4506,0.0154801,1112.87,0.0161644,-4.72855e-14,-1.16814e-14,-6.06283e-16,-0.154985,0.330728,-0.173602,0.0,0.0,0.0,0.341286,-0.14357197619237705,0.0,0.0,0.3919811219461904,0.0,-0.15936859761427535
461,0.4516,0.0154391,1113.31,0.0161218,7.69873e-15,-2.98019e-14,-2.36555e-15,-0.155359,0.331522,-0.174022,0.0,0.0,0.0,0.342117,-0.14389222038388438,0.0,0.0,0.3930867938506737,0.0,-0.15972158866996666
462,0.4526,0.0153981,1113.75,0.0160793,2.50849e-15,2.20845e-15,1.52231e-15,-0.155733,0.332316,-0.174441,0.0,0.0,0.0,0.342948,-0.14421234482645862,0.0,0.0,0.39419334400726913,0.0,-0.1600735915745557
463,0.4536,0.0153573,1114.19,0.016037,1.78933e-15,1.81569e-15,-1.50817e-15,-0.156107,0.33311,-0.17486,0.0,0.0,0.0,0.343778,-0.14453234956487726,0.0,0.0,0.395300773113586,0.0,-0.16042544702082218
464,0.4546,0.0153167,1114.62,0.0159949,1.64052e-15,-2.67236e-14,-2.21807e-15,-0.15648,0.333903,-0.175279,0.0,0.0,0.0,0.344607,-0.1448513794957087,0.0,0.0,0.3964076854594034,0.0,-0.16077715507053858
465,0.4556,0.0152762,1115.06,0.0159529,1.96953e-15,7.43496e-15,-1.02271e-15,-0.156853,0.334695,-0.175697,0.0,0.0,0.0,0.345436,-0.14517029045056618,0.0,0.0,0.39751407842006636,0.0,-0.1611278769137472
466,0.4566,0.0152359,1115.49,0.015911,-2.13486e-14,4.47023e-15,-4.10221e-17,-0.157226,0.335487,-0.176115,0.0,0.0,0.0,0.346264,-0.14548908247381975,0.0,0.0,0.39862134799104587,0.0,-0.16147845218586088
467,0.4576,0.0151957,1115.93,0.0158693,1.31177e-15,2.91197e-14,-1.90322e-15,-0.157599,0.336277,-0.176533,0.0,0.0,0.0,0.347091,-0.1458077556098224,0.0,0.0,0.3997266954107024,0.0,-0.16182888094813352
468,0.4586,0.0151557,1116.36,0.0158278,3.06034e-15,7.90236e-16,-7.64133e-16,-0.157971,0.337068,-0.17695,0.0,0.0,0.0,0.347918,-0.1461254560287939,0.0,0.0,0.40083431723345164,0.0,-0.16217832544053778
469,0.4596,0.0151158,1116.79,0.0157864,2.25659e-15,5.12101e-15,-1.60786e-15,-0.158343,0.337857,-0.177367,0.0,0.0,0.0,0.348744,-0.14644303828518912,0.0,0.0,0.40194001164883586,0.0,-0.1625276242449668
470,0.4606,0.015076,1117.22,0.0157452,2.94482e-15,4.22611e-15,-2.3014e-15,-0.158714,0.338647,-0.177784,0.0,0.0,0.0,0.34957,-0.1467596491830322,0.0,0.0,0.40304798184864365,0.0,-0.16287677742215967
471,0.4616,0.0150364,1117.65,0.0157041,2.15968e-15,-5.46649e-15,-1.09107e-15,-0.159086,0.339435,-0.1782,0.0,0.0,0.0,0.350395,-0.14707699556344977,0.0,0.0,0.40415401937989537,0.0,-0.1632249482581971
472,0.4626,0.014997,1118.08,0.0156632,1.0468e-15,4.42713e-15,-1.87674e-15,-0.159457,0.340223,-0.178616,0.0,0.0,0.0,0.351219,-0.14739337130676644,0.0,0.0,0.40526092881220577,0.0,-0.16357297428528905
473,0.4636,0.0149577,1118.5,0.0156224,-2.03318e-14,-2.18028e-14,-7.41694e-16,-0.159827,0.34101,-0.179031,0.0,0.0,0.0,0.352042,-0.14770877740565636,0.0,0.0,0.40636730446489566,0.0,-0.16392001948410106
474,0.4646,0.0149185,1118.93,0.0155817,1.71427e-15,2.54602e-14,-1.58962e-15,-0.160198,0.341797,-0.179447,0.0,0.0,0.0,0.352865,-0.1480249188013838,0.0,0.0,0.4074745511779416,0.0,-0.16426775642169777
475,0.4656,0.0148795,1119.35,0.0155412,1.58592e-15,-4.45153e-16,-1.39633e-15,-0.160568,0.342583,-0.179862,0.0,0.0,0.0,0.353688,-0.14834009127092485,0.0,0.0,0.40858126105517245,0.0,-0.1646145133457444
476,0.4666,0.0148406,1119.78,0.0155009,5.6906e-16,-1.27257e-15,-1.23728e-15,-0.160938,0.343368,-0.180276,0.0,0.0,0.0,0.354509,-0.14865514714822303,0.0,0.0,0.4096874314601806,0.0,-0.16496029135623236
477,0.4676,0.0148019,1120.2,0.0154607,1.07921e-15,-2.57691e-14,-1.10639e-15,-0.161307,0.344153,-0.180691,0.0,0.0,0.0,0.35533,-0.14896923544607055,0.0,0.0,0.4107944705498707,0.0,-0.16530676093790875
478,0.4686,0.0147632,1120.62,0.0154206,2.41725e-15,2.05389e-14,-4.73587e-14,-0.161677,0.344937,-0.181105,0.0,0.0,0.0,0.356151,-0.14928405858308347,0.0,0.0,0.4119009671047551,0.0,-0.1656522524172096
479,0.4696,0.0147248,1121.04,0.0153807,2.17681e-15,4.44671e-15,-1.62414e-15,-0.162046,0.34572,-0.181519,0.0,0.0,0.0,0.35697,-0.14959791485542284,0.0,0.0,0.4130069184854599,0.0,-0.16599760089264182
480,0.4706,0.0146865,1121.46,0.0153409,2.88468e-15,-1.6697e-14,-4.64563e-14,-0.162414,0.346503,-0.181932,0.0,0.0,0.0,0.357789,-0.14991080524739286,0.0,0.0,0.4141137361652074,0.0,-0.16634197276578644
481,0.4716,0.0146483,1121.88,0.0153013,-2.89882e-15,-6.66319e-15,2.08231e-17,-0.162783,0.347285,-0.182345,0.0,0.0,0.0,0.358608,-0.15022443029287702,0.0,0.0,0.41522000560186245,0.0,-0.16668620244271293
482,0.4726,0.0146102,1122.29,0.0152618,2.7071e-15,-3.0138e-14,-5.06103e-17,-0.163151,0.348067,-0.182758,0.0,0.0,0.0,0.359426,-0.1505370901695835,0.0,0.0,0.4163271404795603,0.0,-0.16703028998213632
483,0.4736,0.0145723,1122.71,0.0152225,2.413e-15,-7.03587e-15,-1.09509e-16,-0.163519,0.348848,-0.18317,0.0,0.0,0.0,0.360243,-0.15084963500862358,0.0,0.0,0.41743372404090784,0.0,-0.16737340281656632
484,0.4746,0.0145345,1123.12,0.0151833,3.07626e-15,4.43744e-16,2.88225e-16,-0.163886,0.349629,-0.183582,0.0,0.0,0.0,0.361059,-0.1511612160139637,0.0,0.0,0.41854117218159104,0.0,-0.16771637431762532
485,0.4756,0.0144969,1123.53,0.0151442,-1.82992e-15,3.0496e-14,1.69713e-16,-0.164254,0.350408,-0.183994,0.0,0.0,0.0,0.361875,-0.15147353121694862,0.0,0.0,0.41964664628097825,0.0,-0.1680592045435304
486,0.4766,0.0144594,1123.95,0.0151053,1.78552e-15,-3.45407e-15,5.18445e-16,-0.164621,0.351188,-0.184406,0.0,0.0,0.0,0.36269,-0.1517848832943911,0.0,0.0,0.42075440263389186,0.0,-0.16840189355247515
487,0.4776,0.014422,1124.36,0.0150665,2.54964e-15,1.61856e-15,-9.80271e-16,-0.164987,0.351966,-0.184817,0.0,0.0,0.0,0.363505,-0.15209527322228367,0.0,0.0,0.4218601796506247,0.0,-0.16874361014665473
488,0.4786,0.0143848,1124.77,0.0150278,3.19265e-15,2.23344e-15,-1.32334e-15,-0.165354,0.352744,-0.185227,0.0,0.0,0.0,0.364319,-0.1524063971622761,0.0,0.0,0.4229668172966181,0.0,-0.16908435540894262
489,0.4796,0.0143477,1125.17,0.0149893,1.91118e-15,-1.74839e-15,-2.66163e-16,-0.16572,0.353522,-0.185638,0.0,0.0,0.0,0.365132,-0.1527165596577157,0.0,0.0,0.424074316241702,0.0,-0.16942579156893234
490,0.4806,0.0143107,1125.58,0.0149509,1.74406e-15,5.69478e-14,-1.18109e-15,-0.166086,0.354299,-0.186048,0.0,0.0,0.0,0.365945,-0.1530266086544535,0.0,0.0,0.42518125197426304,0.0,-0.1697662571941665
491,0.4816,0.0142738,1125.99,0.0149127,1.60342e-15,1.4213e-15,-5.95535e-16,-0.166451,0.355075,-0.186458,0.0,0.0,0.0,0.366757,-0.1533356975301432,0.0,0.0,0.4262876218417846,0.0,-0.1701065832571067
492,0.4826,0.0142371,1126.39,0.0148746,1.94095e-15,-1.52432e-15,-5.59135e-16,-0.166816,0.35585,-0.186868,0.0,0.0,0.0,0.367569,-0.15364467360898004,0.0,0.0,0.4273934231913872,0.0,-0.17044676981496143
493,0.4836,0.0142005,1126.8,0.0148366,2.22525e-15,-4.87033e-15,-5.29098e-16,-0.167181,0.356625,-0.187277,0.0,0.0,0.0,0.36838,-0.15395353693212732,0.0,0.0,0.42850008186920774,0.0,-0.1707859877113186
494,0.4846,0.0141641,1127.2,0.0147988,2.92084e-15,1.81724e-14,-4.65657e-14,-0.167546,0.3574,-0.187686,0.0,0.0,0.0,0.36919,-0.15426228754073323,0.0,0.0,0.4296075985399326,0.0,-0.17112506689592455
495,0.4856,0.0141278,1127.6,0.0147611,1.68231e-15,-3.02692e-14,-9.53905e-16,-0.167911,0.358174,-0.188094,0.0,0.0,0.0,0.37,-0.1545709254759311,0.0,0.0,0.430714543153506,0.0,-0.17146317888909413
496,0.4866,0.0140916,1128.01,0.0147235,-1.8523e-14,-5.49083e-15,4.89766e-17,-0.168275,0.358947,-0.188503,0.0,0.0,0.0,0.370809,-0.1548786056578676,0.0,0.0,0.431820913052239,0.0,-0.17180198115914136
497,0.4876,0.0140555,1128.41,0.014686,1.40982e-15,-3.67088e-15,-9.12079e-16,-0.168639,0.359719,-0.188911,0.0,0.0,0.0,0.371617,-0.15518617386459854,0.0,0.0,0.43292670557811075,0.0,-0.17213981702762482
498,0.4886,0.0140196,1128.8,0.0146487,-2.14944e-14,3.61523e-14,5.31246e-16,-0.169002,0.360491,-0.189318,0.0,0.0,0.0,0.372425,-0.1554927856300834,0.0,0.0,0.4340333521054145,0.0,-0.17247668756429013
499,0.4896,0.0139838,1129.2,0.0146116,2.1042e-15,3.22276e-14,-6.60528e-17,-0.169366,0.361263,-0.189726,0.0,0.0,0.0,0.373232,-0.15580013031598772,0.0,0.0,0.43514085329369423,0.0,-0.17281424820870983
500,0.4906,0.0139481,1129.6,0.0145745,1.91475e-15,3.07713e-14,-5.59987e-16,-0.169729,0.362034,-0.190133,0.0,0.0,0.0,0.374038,-0.15610651925572605,0.0,0.0,0.43624777355451094,0.0,-0.1731508443077363
501,0.4916,0.0139125,1130.0,0.0145376,1.75503e-15,-1.43318e-15,-5.20714e-16,-0.170091,0.362804,-0.190539,0.0,0.0,0.0,0.374844,-0.1564119534088384,0.0,0.0,0.43735411022510395,0.0,-0.17348647692691532
502,0.4926,0.0138771,1130.39,0.0145008,-1.57664e-15,-2.31956e-14,-4.88244e-16,-0.170454,0.363574,-0.190946,0.0,0.0,0.0,0.37565,-0.15671812029709875,0.0,0.0,0.4384612991029908,0.0,-0.17382279948452295
503,0.4936,0.0138418,1130.79,0.0144641,2.92128e-15,2.31667e-15,-4.61397e-16,-0.170816,0.364343,-0.191352,0.0,0.0,0.0,0.376454,-0.1570233330907026,0.0,0.0,0.439567901276003,0.0,-0.1741581593452739
504,0.4946,0.0138066,1131.18,0.0144276,2.14799e-15,-4.38687e-15,-8.87263e-16,-0.171178,0.365111,-0.191758,0.0,0.0,0.0,0.377258,-0.15732843541727082,0.0,0.0,0.4406739140787366,0.0,-0.17449338307755735
505,0.4956,0.0137715,1131.57,0.0143912,1.95236e-15,-2.75694e-15,1.04685e-16,-0.17154,0.365879,-0.192163,0.0,0.0,0.0,0.378062,-0.1576334273167853,0.0,0.0,0.4417807766255626,0.0,-0.17482764556468833
506,0.4966,0.0137366,1131.96,0.0143549,1.33025e-15,4.0208e-16,-1.31533e-15,-0.171901,0.366646,-0.192568,0.0,0.0,0.0,0.378864,-0.1579374667671013,0.0,0.0,0.44288704668156686,0.0,-0.175161772702922
507,0.4976,0.0137018,1132.35,0.0143187,2.1764e-15,-1.47575e-15,-1.59448e-15,-0.172262,0.367413,-0.192973,0.0,0.0,0.0,0.379667,-0.15824139647898472,0.0,0.0,0.4439941655721906,0.0,-0.17549576454706373
508,0.4986,0.0136671,1132.74,0.0142827,-2.17971e-14,1.06161e-14,-4.80462e-16,-0.172623,0.368179,-0.193378,0.0,0.0,0.0,0.380468,-0.1585452164920439,0.0,0.0,0.44510068884732834,0.0,-0.17582962115189626
509,0.4996,0.0136325,1133.13,0.0142468,1.85391e-15,3.08592e-14,-6.19058e-18,-0.172983,0.368944,-0.193782,0.0,0.0,0.0,0.381269,-0.15884808569437936,0.0,0.0,0.4462066138366705,0.0,-0.17616251873511124
510,0.5006,0.013598,1133.52,0.014211,2.16578e-15,3.14819e-15,-5.10437e-16,-0.173344,0.369709,-0.194186,0.0,0.0,0.0,0.38207,-0.1591516867321593,0.0,0.0,0.44731338518231945,0.0,-0.17649528185486596
511,0.5016,0.0135637,1133.9,0.0141754,6.0969e-15,8.11882e-16,4.17687e-16,-0.173704,0.370474,-0.194589,0.0,0.0,0.0,0.382869,-0.15945433764450279,0.0,0.0,0.44842100353198555,0.0,-0.17682708739297193
512,0.5026,0.0135295,1134.29,0.0141398,2.55611e-15,6.69982e-16,-6.08092e-16,-0.174063,0.371238,-0.194993,0.0,0.0,0.0,0.383669,-0.15975603937858684,0.0,0.0,0.4495280200051299,0.0,-0.17715958208121574
513,0.5036,0.0134954,1134.67,0.0141044,5.06295e-15,3.08533e-14,-5.60774e-16,-0.174423,0.372001,-0.195396,0.0,0.0,0.0,0.384467,-0.16005847276313512,0.0,0.0,0.45063443192686536,0.0,-0.17749111996026734
514,0.5046,0.0134614,1135.06,0.0140691,5.80893e-15,1.28133e-14,-4.81064e-14,-0.174782,0.372763,-0.195798,0.0,0.0,0.0,0.385265,-0.16035995765163769,0.0,0.0,0.45174023662207596,0.0,-0.1778217020785855
515,0.5056,0.0134276,1135.44,0.014034,1.8623e-15,-5.43219e-14,-4.28346e-16,-0.175141,0.373525,-0.196201,0.0,0.0,0.0,0.386062,-0.16066133432649077,0.0,0.0,0.45284688426158537,0.0,-0.17815297317703804
516,0.5066,0.0133938,1135.82,0.0139989,3.56121e-15,1.40325e-14,-4.71068e-14,-0.175499,0.374287,-0.196603,0.0,0.0,0.0,0.386859,-0.1609617637887194,0.0,0.0,0.4539543754879616,0.0,-0.17848328928383506
517,0.5076,0.0133602,1136.2,0.013964,5.92197e-15,-9.4623e-16,-9.37297e-16,-0.175858,0.375048,-0.197005,0.0,0.0,0.0,0.387655,-0.1612629244539454,0.0,0.0,0.45506125588227997,0.0,-0.17881347263024383
518,0.5086,0.0133267,1136.58,0.0139292,-7.90717e-16,-7.94252e-16,8.32792e-17,-0.176216,0.375808,-0.197406,0.0,0.0,0.0,0.388451,-0.161563138585455,0.0,0.0,0.45616752276491757,0.0,-0.179142702412736
519,0.5096,0.0132933,1136.96,0.0138945,5.90591e-15,-1.57144e-15,3.15595e-17,-0.176574,0.376568,-0.197807,0.0,0.0,0.0,0.389246,-0.16186324525954143,0.0,0.0,0.4572746307299569,0.0,-0.1794718002005521
520,0.5106,0.01326,1137.34,0.0138599,3.32591e-15,-1.31659e-15,-4.608e-16,-0.176931,0.377327,-0.198208,0.0,0.0,0.0,0.39004,-0.16216240667749338,0.0,0.0,0.458381122035012,0.0,-0.17980076604661133
521,0.5116,0.0132268,1137.71,0.0138255,2.96721e-15,1.60737e-15,-4.20064e-16,-0.177289,0.378085,-0.198609,0.0,0.0,0.0,0.390834,-0.1624622988520007,0.0,0.0,0.45948699399803905,0.0,-0.18012960000381184
522,0.5126,0.0131938,1138.09,0.0137911,2.69519e-14,5.98686e-15,-8.35828e-16,-0.177646,0.378843,-0.199009,0.0,0.0,0.0,0.391627,-0.16276124644598988,0.0,0.0,0.4605937045297914,0.0,-0.1804574825829227
523,0.5136,0.0131609,1138.46,0.0137569,2.33782e-15,-1.33487e-15,6.17528e-16,-0.178002,0.379601,-0.199409,0.0,0.0,0.0,0.39242,-0.16305925039440505,0.0,0.0,0.4617012542661454,0.0,-0.18078523403522906
524,0.5146,0.013128,1138.84,0.0137228,2.58516e-15,3.0148e-14,-1.77323e-15,-0.178359,0.380357,-0.199809,0.0,0.0,0.0,0.393212,-0.16335798491472953,0.0,0.0,0.46280671822709674,0.0,-0.18111285441317104
525,0.5156,0.0130953,1139.21,0.0136888,-2.56322e-14,3.66814e-14,-6.10669e-16,-0.178715,0.381114,-0.200208,0.0,0.0,0.0,0.394003,-0.16365577646205942,0.0,0.0,0.4639144821485386,0.0,-0.18143952520910256
526,0.5166,0.0130627,1139.58,0.013655,-4.54036e-14,1.55208e-14,1.25517e-15,-0.179071,0.381869,-0.200607,0.0,0.0,0.0,0.394794,-0.1639534620144666,0.0,0.0,0.4650201549215107,0.0,-0.18176606568938625
527,0.5176,0.0130302,1139.96,0.0136212,2.05934e-15,-4.22768e-15,1.05899e-16,-0.179426,0.382624,-0.201006,0.0,0.0,0.0,0.395584,-0.16425020586030248,0.0,0.0,0.46612666279263637,0.0,-0.18209247590600752
528,0.5186,0.0129979,1140.33,0.0135876,-8.48614e-16,2.79737e-15,-3.99381e-16,-0.179782,0.383379,-0.201404,0.0,0.0,0.0,0.396373,-0.16454767983350727,0.0,0.0,0.4672340063926528,0.0,-0.18241793832927855
529,0.5196,0.0129656,1140.7,0.0135541,-2.53432e-14,7.89524e-15,5.30981e-16,-0.180137,0.384133,-0.201802,0.0,0.0,0.0,0.397162,-0.16484421276945593,0.0,0.0,0.46834071801132104,0.0,-0.18274327124427892
530,0.5206,0.0129334,1141.06,0.0135206,2.99722e-15,2.50789e-14,-4.61027e-17,-0.180492,0.384886,-0.2022,0.0,0.0,0.0,0.397951,-0.16514064045489552,0.0,0.0,0.46944679495769104,0.0,-0.18306847470254262
531,0.5216,0.0129014,1141.43,0.0134873,1.7777e-15,-1.04606e-14,4.90088e-14,-0.180846,0.385639,-0.202598,0.0,0.0,0.0,0.398739,-0.1654361283637289,0.0,0.0,0.4705537050936579,0.0,-0.18339354875558345
532,0.5226,0.0128694,1141.8,0.0134542,-6.33218e-16,-1.66385e-14,4.83779e-14,-0.181201,0.386391,-0.202995,0.0,0.0,0.0,0.399526,-0.16573234595642616,0.0,0.0,0.47165997738613696,0.0,-0.1837176771729795
533,0.5236,0.0128376,1142.16,0.0134211,-1.30014e-15,1.57046e-14,4.74019e-14,-0.181555,0.387143,-0.203392,0.0,0.0,0.0,0.400312,-0.16602762443858265,0.0,0.0,0.472767081908259,0.0,-0.18404167693693319
534,0.5246,0.0128059,1142.53,0.0133881,-4.54871e-14,1.70192e-14,-2.69175e-16,-0.181909,0.387894,-0.203789,0.0,0.0,0.0,0.401098,-0.16632279841065578,0.0,0.0,0.4738735454118137,0.0,-0.1843655480985099
535,0.5256,0.0127743,1142.89,0.0133553,3.83174e-15,-2.97954e-15,-1.1908e-15,-0.182262,0.388645,-0.204185,0.0,0.0,0.0,0.401884,-0.16661703452708698,0.0,0.0,0.47498084018156117,0.0,-0.18468847539763766
536,0.5266,0.0127428,1143.26,0.0133225,-4.71123e-14,1.49823e-14,-1.55138e-16,-0.182615,0.389395,-0.204581,0.0,0.0,0.0,0.402669,-0.16691116679649898,0.0,0.0,0.47608749075378776,0.0,-0.18501127484287172
537,0.5276,0.0127114,1143.62,0.0132899,-2.60292e-14,-6.10213e-15,4.75904e-14,-0.182968,0.390144,-0.204977,0.0,0.0,0.0,0.403453,-0.16720519525554356,0.0,0.0,0.47719349443103365,0.0,-0.18533394648483215
538,0.5286,0.0126801,1143.98,0.0132574,6.10576e-15,-3.89127e-14,4.85738e-14,-0.183321,0.390893,-0.205372,0.0,0.0,0.0,0.404237,-0.1674991199408593,0.0,0.0,0.47830032681534584,0.0,-0.18565567603020228
539,0.5296,0.0126489,1144.34,0.013225,2.13122e-15,-1.32801e-14,4.80392e-14,-0.183673,0.391642,-0.205767,0.0,0.0,0.0,0.40502,-0.16779210868159655,0.0,0.0,0.47940798852765854,0.0,-0.18597727851749757
540,0.5306,0.0126178,1144.7,0.0131927,1.97468e-15,-1.44876e-14,4.80442e-14,-0.184026,0.392389,-0.206162,0.0,0.0,0.0,0.405802,-0.16808582622303592,0.0,0.0,0.4805135191593717,0.0,-0.1862987539968961
541,0.5316,0.0125868,1145.06,0.0131605,3.22089e-15,1.4668e-15,-1.57551e-15,-0.184378,0.393137,-0.206557,0.0,0.0,0.0,0.406584,-0.16837860847950514,0.0,0.0,0.4816213575516082,0.0,-0.1866201025185561
542,0.5326,0.012556,1145.42,0.0131284,-4.72143e-14,2.93437e-14,4.73145e-14,-0.184729,0.393883,-0.206951,0.0,0.0,0.0,0.407366,-0.1686704563656285,0.0,0.0,0.48272705945987515,0.0,-0.1869405110735336
543,0.5336,0.0125252,1145.78,0.0130964,3.29897e-15,2.80743e-15,-2.64429e-15,-0.185081,0.394629,-0.207345,0.0,0.0,0.0,0.408146,-0.16896303286850234,0.0,0.0,0.48383358652951247,0.0,-0.18726079341240653
544,0.5346,0.0124945,1146.14,0.0130645,-2.60078e-14,7.01758e-15,-9.60928e-16,-0.185432,0.395375,-0.207739,0.0,0.0,0.0,0.408927,-0.16925467565766183,0.0,0.0,0.48494093937632043,0.0,-0.18758094958489446
545,0.5356,0.0124639,1146.49,0.0130328,-2.00865e-14,9.11196e-15,4.78434e-14,-0.185783,0.39612,-0.208132,0.0,0.0,0.0,0.409706,-0.16954621609816545,0.0,0.0,0.48604763256818284,0.0,-0.1879001675412706
546,0.5366,0.0124335,1146.85,0.0130011,2.88706e-15,2.18855e-15,-1.31014e-15,-0.186133,0.396864,-0.208525,0.0,0.0,0.0,0.410485,-0.16983682406317058,0.0,0.0,0.4871536633992637,0.0,-0.18821926006963807
547,0.5376,0.0124031,1147.2,0.0129696,7.84583e-16,9.23689e-16,-1.21221e-15,-0.186484,0.397608,-0.208918,0.0,0.0,0.0,0.411264,-0.17012816020544042,0.0,0.0,0.4882605174234729,0.0,-0.18853822721928049
548,0.5386,0.0123729,1147.55,0.0129381,-2.26317e-14,6.3512e-15,-2.03389e-15,-0.186834,0.398351,-0.209311,0.0,0.0,0.0,0.412042,-0.17041856452564796,0.0,0.0,0.48936670588604314,0.0,-0.18885706903946187
549,0.5396,0.0123427,1147.91,0.0129068,1.64861e-15,-1.25809e-16,-2.26773e-15,-0.187184,0.399094,-0.209703,0.0,0.0,0.0,0.412819,-0.17070886722212852,0.0,0.0,0.49047371655205185,0.0,-0.18917497475480738
550,0.5406,0.0123127,1148.26,0.0128755,-2.2361e-14,7.28994e-15,-1.10739e-15,-0.187533,0.399836,-0.210095,0.0,0.0,0.0,0.413596,-0.1709982393290982,0.0,0.0,0.49158005845181907,0.0,-0.1894927558755345
551,0.5416,0.0122827,1148.61,0.0128444,4.18493e-15,-2.97253e-15,-2.39849e-15,-0.187883,0.400578,-0.210487,0.0,0.0,0.0,0.414372,-0.1712883391748986,0.0,0.0,0.49268722156190714,0.0,-0.18981041245047492
552,0.5426,0.0122528,1148.96,0.0128133,-1.78827e-15,1.73776e-14,4.75979e-14,-0.188232,0.401319,-0.210878,0.0,0.0,0.0,0.415147,-0.17157750908144276,0.0,0.0,0.4937937126974208,0.0,-0.19012713465598052
553,0.5436,0.0122231,1149.31,0.0127824,6.48707e-15,2.60143e-14,-1.97601e-15,-0.18858,0.40206,-0.211269,0.0,0.0,0.0,0.415922,-0.1718657499514621,0.0,0.0,0.4949010240467173,0.0,-0.190443733047311
554,0.5446,0.0121934,1149.66,0.0127516,-4.68151e-14,-1.56983e-14,-1.77691e-15,-0.188929,0.4028,-0.21166,0.0,0.0,0.0,0.416697,-0.17215471837680574,0.0,0.0,0.4960076602093928,0.0,-0.19076020767286828
555,0.5456,0.0121639,1150.01,0.0127209,2.73576e-15,-2.82563e-14,-2.51506e-15,-0.189277,0.403539,-0.21205,0.0,0.0,0.0,0.417471,-0.17244275841293744,0.0,0.0,0.497113618471533,0.0,-0.19107574965718943
556,0.5466,0.0121344,1150.35,0.0126902,-4.63286e-14,1.6409e-14,-2.57464e-14,-0.189625,0.404278,-0.212441,0.0,0.0,0.0,0.418244,-0.1727306982285759,0.0,0.0,0.4982203943388972,0.0,-0.19139197721255763
557,0.5476,0.012105,1150.7,0.0126597,2.23625e-15,1.80768e-14,2.31523e-14,-0.189973,0.405017,-0.21283,0.0,0.0,0.0,0.419017,-0.1730185378585919,0.0,0.0,0.4993279884159183,0.0,-0.19170646456166685
558,0.5486,0.0120758,1151.04,0.0126293,3.01793e-15,-3.17362e-14,-1.139e-15,-0.190321,0.405754,-0.21322,0.0,0.0,0.0,0.419789,-0.17330627733784387,0.0,0.0,0.5004334004376754,0.0,-0.1920216375777548
559,0.5496,0.0120466,1151.39,0.0125989,2.30055e-15,-2.17161e-14,-2.6419e-14,-0.190668,0.406492,-0.21361,0.0,0.0,0.0,0.420561,-0.17359309029468173,0.0,0.0,0.5015411289887572,0.0,-0.1923366877003324
560,0.5506,0.0120175,1151.73,0.0125687,-3.3819e-15,8.77926e-15,4.79482e-14,-0.191015,0.407228,-0.213999,0.0,0.0,0.0,0.421332,-0.17387980374468892,0.0,0.0,0.5026466700488974,0.0,-0.19265080762852982
561,0.5516,0.0119886,1152.08,0.0125386,4.69018e-15,-2.94022e-14,-1.23571e-15,-0.191362,0.407965,-0.214387,0.0,0.0,0.0,0.422102,-0.1741664177223885,0.0,0.0,0.5037545288405421,0.0,-0.19296399835224043
562,0.5526,0.0119597,1152.42,0.0125086,9.58456e-16,9.22438e-15,4.95456e-14,-0.191708,0.4087,-0.214776,0.0,0.0,0.0,0.422872,-0.1744521067148107,0.0,0.0,0.5048601947016682,0.0,-0.19327787430405086
563,0.5536,0.0119309,1152.76,0.0124786,7.92723e-15,-1.47397e-14,4.80909e-14,-0.192054,0.409435,-0.215164,0.0,0.0,0.0,0.423641,-0.17473769687594043,0.0,0.0,0.5059666735259294,0.0,-0.19359082177308584
564,0.5546,0.0119022,1153.1,0.0124488,-3.04313e-14,-8.5082e-15,4.77791e-14,-0.1924,0.41017,-0.215552,0.0,0.0,0.0,0.42441,-0.1750231882399672,0.0,0.0,0.5070739659110737,0.0,-0.19390364784205594
565,0.5556,0.0118736,1153.44,0.0124191,7.02224e-15,-1.31303e-14,-2.85837e-14,-0.192746,0.410904,-0.21594,0.0,0.0,0.0,0.425178,-0.17530858084106904,0.0,0.0,0.5081805642739694,0.0,-0.19421635255805536
566,0.5566,0.0118451,1153.78,0.0123894,1.10337e-15,-1.62442e-14,4.88731e-14,-0.193092,0.411638,-0.216327,0.0,0.0,0.0,0.425946,-0.17559387471341192,0.0,0.0,0.5092879751782295,0.0,-0.19452813049669304
567,0.5576,0.0118167,1154.12,0.0123599,2.98111e-15,9.74835e-15,4.75387e-14,-0.193437,0.412371,-0.216714,0.0,0.0,0.0,0.426713,-0.17587824576980793,0.0,0.0,0.5103946888250348,0.0,-0.19483978780061284
568,0.5586,0.0117884,1154.46,0.0123304,-5.03672e-16,6.37766e-15,-3.43205e-15,-0.193782,0.413103,-0.217101,0.0,0.0,0.0,0.42748,-0.17616251873511124,0.0,0.0,0.5115007024888698,0.0,-0.1951513245164912
569,0.5596,0.0117601,1154.79,0.0123011,2.52683e-15,2.6698e-14,-2.13539e-15,-0.194127,0.413835,-0.217487,0.0,0.0,0.0,0.428246,-0.17644669364315724,0.0,0.0,0.5126075260510936,0.0,-0.1954619361533253
570,0.5606,0.011732,1155.13,0.0122718,2.80259e-15,-3.17007e-16,-3.3165e-15,-0.194471,0.414566,-0.217874,0.0,0.0,0.0,0.429011,-0.17672994725812896,0.0,0.0,0.5137136463903653,0.0,-0.19577323214437448
571,0.5616,0.011704,1155.46,0.0122427,2.1142e-15,-2.61668e-14,-2.94534e-15,-0.194815,0.415297,-0.21826,0.0,0.0,0.0,0.429776,-0.17701310345061483,0.0,0.0,0.514820575599211,0.0,-0.19608360377118916
572,0.5626,0.011676,1155.8,0.0122136,2.73929e-14,4.30901e-14,4.72516e-14,-0.195159,0.416027,-0.218645,0.0,0.0,0.0,0.43054,-0.17729616225412226,0.0,0.0,0.5159267983415738,0.0,-0.19639305201112867
573,0.5636,0.0116482,1156.13,0.0121846,3.23464e-15,2.6626e-14,-2.775e-15,-0.195503,0.416757,-0.219031,0.0,0.0,0.0,0.431304,-0.17757912370214746,0.0,0.0,0.5170338289213634,0.0,-0.1967031844336441
574,0.5646,0.0116204,1156.47,0.0121558,-2.60347e-15,1.65458e-14,7.37139e-14,-0.195847,0.417486,-0.219416,0.0,0.0,0.0,0.432067,-0.17786198782817475,0.0,0.0,0.5181401497876075,0.0,-0.1970123941809414
575,0.5656,0.0115927,1156.8,0.012127,3.50436e-15,3.54437e-14,-2.39232e-15,-0.19619,0.418215,-0.219801,0.0,0.0,0.0,0.43283,-0.17814393281002117,0.0,0.0,0.5192472774558066,0.0,-0.19732148490539947
576,0.5666,0.0115651,1157.13,0.0120983,1.3233e-15,9.51777e-15,4.68173e-14,-0.196533,0.418943,-0.220185,0.0,0.0,0.0,0.433592,-0.178425781101322,0.0,0.0,0.5203536921598815,0.0,-0.19762965428288848
577,0.5676,0.0115376,1157.46,0.0120697,2.697e-15,-1.86446e-15,-2.70811e-15,-0.196876,0.419671,-0.220569,0.0,0.0,0.0,0.434353,-0.17870753273523676,0.0,0.0,0.5214609126271232,0.0,-0.19793770534605437
578,0.5686,0.0115102,1157.79,0.0120412,-1.67769e-15,-1.57402e-15,-3.82937e-15,-0.197218,0.420398,-0.220953,0.0,0.0,0.0,0.435114,-0.17898836673369034,0.0,0.0,0.5225674168761627,0.0,-0.19824563814032115
579,0.5696,0.0114829,1158.12,0.0120128,-1.26002e-15,-2.99983e-14,-2.49949e-15,-0.19756,0.421125,-0.221337,0.0,0.0,0.0,0.435875,-0.17926910470333823,0.0,0.0,0.523674725846272,0.0,-0.19855345271109526
580,0.5706,0.0114557,1158.45,0.0119845,5.57883e-15,-1.55693e-15,-4.10877e-15,-0.197902,0.421851,-0.221721,0.0,0.0,0.0,0.436635,-0.17954974667701673,0.0,0.0,0.524781315340618,0.0,-0.19886114910376584
581,0.5716,0.0114285,1158.78,0.0119562,-6.04465e-16,5.23171e-15,-1.82528e-15,-0.198244,0.422576,-0.222104,0.0,0.0,0.0,0.437394,-0.1798302926875509,0.0,0.0,0.5258871826226905,0.0,-0.19916792653203153
582,0.5726,0.0114015,1159.11,0.0119281,2.83514e-14,8.19418e-15,-3.99779e-15,-0.198585,0.423301,-0.222487,0.0,0.0,0.0,0.438153,-0.18010992287808736,0.0,0.0,0.5269938519492483,0.0,-0.19947458648703964
583,0.5736,0.0113745,1159.43,0.0119,1.73971e-15,2.34134e-15,-2.64051e-15,-0.198927,0.424026,-0.222869,0.0,0.0,0.0,0.438911,-0.18039027734111723,0.0,0.0,0.5281013239019847,0.0,-0.19978032879450303
584,0.5746,0.0113477,1159.76,0.0118721,-1.11374e-15,-7.68413e-16,-3.77343e-15,-0.199268,0.42475,-0.223252,0.0,0.0,0.0,0.439669,-0.18066971660944087,0.0,0.0,0.5292080698541803,0.0,-0.2000867542443553
585,0.5756,0.0113209,1160.09,0.0118442,1.53799e-15,2.53028e-14,-2.9065e-15,-0.199608,0.425473,-0.223634,0.0,0.0,0.0,0.440426,-0.18094824155387002,0.0,0.0,0.5303140870657279,0.0,-0.2003922627483946
586,0.5766,0.0112942,1160.41,0.0118164,2.87915e-15,3.19296e-14,-2.63328e-15,-0.199949,0.426196,-0.224015,0.0,0.0,0.0,0.441183,-0.1812274905888337,0.0,0.0,0.5314209042168629,0.0,-0.20069685526772796
587,0.5776,0.0112675,1160.74,0.0117887,5.41455e-15,2.26886e-15,-3.31313e-15,-0.200289,0.426918,-0.224397,0.0,0.0,0.0,0.441939,-0.18150582592234554,0.0,0.0,0.5325269893583948,0.0,-0.2010021307576848
588,0.5786,0.011241,1161.06,0.0117611,5.73852e-15,9.98014e-16,-3.42938e-15,-0.200629,0.42764,-0.224778,0.0,0.0,0.0,0.442694,-0.1817840666379299,0.0,0.0,0.5336338733817607,0.0,-0.2013064909615655
589,0.5796,0.0112145,1161.38,0.0117336,5.09737e-15,2.68099e-14,-2.61751e-15,-0.200969,0.428361,-0.225159,0.0,0.0,0.0,0.443449,-0.18206221276775147,0.0,0.0,0.5347400221231717,0.0,-0.20161073522629636
590,0.5806,0.0111882,1161.7,0.0117062,3.15965e-15,-3.88148e-15,-3.75487e-15,-0.201309,0.429082,-0.22554,0.0,0.0,0.0,0.444204,-0.1823402643439639,0.0,0.0,0.5358469686854053,0.0,-0.20191486359604172
591,0.5816,0.0111619,1162.02,0.0116789,-1.27702e-15,-2.01142e-14,-3.80065e-15,-0.201648,0.429803,-0.22592,0.0,0.0,0.0,0.444958,-0.1826174040165227,0.0,0.0,0.5369547136438972,0.0,-0.20221807833342653
592,0.5826,0.0111357,1162.35,0.0116516,3.26553e-15,-1.7793e-14,-5.47966e-14,-0.201987,0.430522,-0.2263,0.0,0.0,0.0,0.445711,-0.1828944497546553,0.0,0.0,0.5380601814510604,0.0,-0.20252117787110036
593,0.5836,0.0111096,1162.67,0.0116244,-1.65812e-15,-4.05648e-15,-3.45975e-15,-0.202326,0.431242,-0.22668,0.0,0.0,0.0,0.446464,-0.18317140159020007,0.0,0.0,0.5391679835426009,0.0,-0.20282416225283084
594,0.5846,0.0110836,1162.98,0.0115974,6.17597e-15,-1.6003e-15,-2.63344e-15,-0.202664,0.43196,-0.22706,0.0,0.0,0.0,0.447216,-0.18344744300283577,0.0,0.0,0.5402735029887722,0.0,-0.203127031522369
595,0.5856,0.0110576,1163.3,0.0115704,2.68579e-15,2.64689e-14,-2.84917e-15,-0.203002,0.432679,-0.227439,0.0,0.0,0.0,0.447968,-0.1837233911292403,0.0,0.0,0.541381357863522,0.0,-0.20342898915283658
596,0.5866,0.0110318,1163.62,0.0115435,5.73144e-15,-5.12722e-16,-3.48584e-15,-0.203341,0.433396,-0.227818,0.0,0.0,0.0,0.448719,-0.18400006200128516,0.0,0.0,0.5424869245954205,0.0,-0.20373083236304623
597,0.5876,0.011006,1163.94,0.0115166,5.46965e-14,1.35594e-14,-3.56594e-15,-0.203678,0.434113,-0.228197,0.0,0.0,0.0,0.44947,-0.18427500764944682,0.0,0.0,0.5435932843029132,0.0,-0.20403256119635504
598,0.5886,0.0109803,1164.26,0.0114899,2.04281e-15,-2.27186e-15,-2.26709e-15,-0.204016,0.43483,-0.228575,0.0,0.0,0.0,0.45022,-0.18455067610626774,0.0,0.0,0.5447004375547679,0.0,-0.20433338002988144
599,0.5896,0.0109547,1164.57,0.0114632,2.39168e-15,-1.00805e-15,-3.90735e-15,-0.204353,0.435546,-0.228953,0.0,0.0,0.0,0.450969,-0.18482543622873893,0.0,0.0,0.5458068391125477,0.0,-0.20463408517537718
600,0.5906,0.0109291,1164.89,0.0114367,5.94475e-15,1.89185e-15,-3.46521e-15,-0.20469,0.436262,-0.229331,0.0,0.0,0.0,0.451718,-0.18510010377264918,0.0,0.0,0.5469140331375124,0.0,-0.20493467667580811
601,0.5916,0.0109037,1165.2,0.0114102,2.95871e-15,-2.73259e-14,-2.63754e-15,-0.205027,0.436977,-0.229709,0.0,0.0,0.0,0.452467,-0.18537467876919222,0.0,0.0,0.5480204721760256,0.0,-0.2052351545741241
602,0.5926,0.0108783,1165.51,0.0113838,2.25592e-15,5.10674e-14,-2.39665e-15,-0.205364,0.437692,-0.230087,0.0,0.0,0.0,0.453215,-0.18564916124955144,0.0,0.0,0.5491277026013381,0.0,-0.2055355189132586
603,0.5936,0.010853,1165.83,0.0113575,-1.60183e-15,2.90758e-14,-3.10544e-15,-0.2057,0.438406,-0.230464,0.0,0.0,0.0,0.453962,-0.18592273716804342,0.0,0.0,0.5502341747445443,0.0,-0.20583497557150143
604,0.5946,0.0108278,1166.14,0.0113312,-2.1238e-15,4.44224e-15,-3.24633e-15,-0.206036,0.439119,-0.230841,0.0,0.0,0.0,0.454709,-0.18619622118046797,0.0,0.0,0.5513398858503038,0.0,-0.20613431935586213
605,0.5956,0.0108027,1166.45,0.0113051,2.06984e-15,-2.41089e-14,-3.36497e-15,-0.206372,0.439833,-0.231217,0.0,0.0,0.0,0.455456,-0.18646961331770018,0.0,0.0,0.5524479380563652,0.0,-0.20643275674203976
606,0.5966,0.0107776,1166.76,0.011279,-1.98639e-14,-3.19135e-14,-3.4649e-15,-0.206708,0.440545,-0.231594,0.0,0.0,0.0,0.456202,-0.18674291361060502,0.0,0.0,0.553553674583753,0.0,-0.20673187520537484
607,0.5976,0.0107526,1167.07,0.011253,5.13903e-14,-1.90347e-14,-3.54906e-15,-0.207043,0.441257,-0.23197,0.0,0.0,0.0,0.456947,-0.1870153091057526,0.0,0.0,0.5546601986758879,0.0,-0.20703008795278777
608,0.5986,0.0107277,1167.39,0.0112271,6.17651e-15,3.84318e-16,-2.70774e-15,-0.207379,0.441969,-0.232345,0.0,0.0,0.0,0.457692,-0.18728842607567264,0.0,0.0,0.5557675108937159,0.0,-0.2073273959210774
609,0.5996,0.0107029,1167.69,0.0112013,-1.48847e-15,-2.42836e-15,-3.36746e-15,-0.207714,0.44268,-0.232721,0.0,0.0,0.0,0.458436,-0.18756063885475105,0.0,0.0,0.556874054923749,0.0,-0.2076253847947921
610,0.6006,0.0106782,1168.0,0.0111755,-1.10453e-15,6.97612e-15,-2.94736e-14,-0.208048,0.443391,-0.233096,0.0,0.0,0.0,0.45918,-0.18783194829017558,0.0,0.0,0.5579813859863441,0.0,-0.20792246956861749
611,0.6016,0.0106535,1168.31,0.0111499,-1.24733e-15,2.23797e-15,-3.105e-15,-0.208383,0.444101,-0.233471,0.0,0.0,0.0,0.459923,-0.18810397901980713,0.0,0.0,0.5590879455525557,0.0,-0.20821944295653882
612,0.6026,0.0106289,1168.62,0.0111243,-4.48464e-16,-1.70993e-14,-5.57266e-14,-0.208717,0.44481,-0.233846,0.0,0.0,0.0,0.460666,-0.18837510700991966,0.0,0.0,0.5601937308605227,0.0,-0.20851630500031804
613,0.6036,0.0106044,1168.93,0.0110988,7.01715e-16,-3.06211e-14,-3.31861e-15,-0.209051,0.445519,-0.23422,0.0,0.0,0.0,0.461408,-0.18864614445840477,0.0,0.0,0.5613003004482675,0.0,-0.20881226455436153
614,0.6046,0.01058,1169.23,0.0110734,6.80804e-15,1.61479e-14,-5.54572e-14,-0.209385,0.446228,-0.234595,0.0,0.0,0.0,0.46215,-0.1889170913954984,0.0,0.0,0.5624076548720414,0.0,-0.20910890433171914
615,0.6056,0.0105556,1169.54,0.011048,1.36809e-15,-3.75406e-15,-3.08255e-15,-0.209718,0.446936,-0.234969,0.0,0.0,0.0,0.462891,-0.1891871370389686,0.0,0.0,0.5635142311734775,0.0,-0.20940464229505273
616,0.6066,0.0105314,1169.84,0.0110227,-9.77804e-16,2.74807e-14,-2.7481e-15,-0.210051,0.447643,-0.235342,0.0,0.0,0.0,0.463631,-0.18945709277221046,0.0,0.0,0.5646200265875352,0.0,-0.2096994793729433
617,0.6076,0.0105072,1170.15,0.0109975,2.12165e-15,3.4472e-16,-3.37946e-15,-0.210385,0.44835,-0.235716,0.0,0.0,0.0,0.464372,-0.1897277688977953,0.0,0.0,0.565726604075381,0.0,-0.20999499650250997
618,0.6086,0.010483,1170.45,0.0109724,2.45851e-15,1.20922e-15,-2.08489e-15,-0.210717,0.449057,-0.236089,0.0,0.0,0.0,0.465111,-0.18999673462773947,0.0,0.0,0.5668339641901368,0.0,-0.2102896134193437
619,0.6096,0.010459,1170.75,0.0109474,1.81786e-15,3.7791e-15,-2.36316e-15,-0.21105,0.449763,-0.236462,0.0,0.0,0.0,0.46585,-0.190266420809867,0.0,0.0,0.5679405395439918,0.0,-0.21058412046455977
620,0.6106,0.010435,1171.06,0.0109224,2.19773e-15,-5.22189e-15,-2.14106e-15,-0.211382,0.450469,-0.236834,0.0,0.0,0.0,0.466589,-0.19053520773705934,0.0,0.0,0.5690478964158903,0.0,-0.21087772855725584
621,0.6116,0.0104111,1171.36,0.0108976,5.77991e-15,2.91721e-14,-2.86764e-15,-0.211714,0.451174,-0.237207,0.0,0.0,0.0,0.467327,-0.1908039054418036,0.0,0.0,0.5701544652025279,0.0,-0.21117201627643234
622,0.6126,0.0103873,1171.66,0.0108728,-1.99836e-14,1.63408e-14,-5.46741e-14,-0.212046,0.451878,-0.237579,0.0,0.0,0.0,0.468064,-0.19107251395371672,0.0,0.0,0.5712602431341924,0.0,-0.21146540571255912
623,0.6136,0.0103635,1171.96,0.010848,1.14642e-15,1.00027e-15,-1.95599e-15,-0.212378,0.452582,-0.237951,0.0,0.0,0.0,0.468801,-0.1913410333024057,0.0,0.0,0.5723667998076056,0.0,-0.2117586860281132
624,0.6146,0.0103399,1172.26,0.0108234,2.55431e-15,5.68949e-14,-2.70281e-15,-0.212709,0.453286,-0.238322,0.0,0.0,0.0,0.469538,-0.19160865512652736,0.0,0.0,0.573474135771195,0.0,-0.2120510693151434
625,0.6156,0.0103163,1172.56,0.0107988,1.90296e-15,-5.01937e-15,-2.41899e-15,-0.213041,0.453989,-0.238694,0.0,0.0,0.0,0.470274,-0.19187699650589152,0.0,0.0,0.5745806769923094,0.0,-0.21234413180435552
626,0.6166,0.0102927,1172.86,0.0107743,6.47052e-15,2.93649e-14,-2.17925e-15,-0.213372,0.454692,-0.239065,0.0,0.0,0.0,0.471009,-0.19214444095554994,0.0,0.0,0.5756879963853976,0.0,-0.21263629793128835
627,0.6176,0.0102693,1173.16,0.0107499,-1.24763e-15,-6.32851e-15,-3.34898e-15,-0.213702,0.455394,-0.239435,0.0,0.0,0.0,0.471744,-0.19241098930713763,0.0,0.0,0.576794517702401,0.0,-0.21292756861265483
628,0.6186,0.0102459,1173.46,0.0107256,1.89266e-15,2.71822e-14,-2.50738e-15,-0.214033,0.456095,-0.239806,0.0,0.0,0.0,0.472478,-0.19267825703442787,0.0,0.0,0.5779002381690546,0.0,-0.21321951832467934
629,0.6196,0.0102226,1173.75,0.0107013,1.79953e-15,1.01239e-15,-2.71128e-15,-0.214363,0.456796,-0.240176,0.0,0.0,0.0,0.473212,-0.19294462925577271,0.0,0.0,0.5790067340174949,0.0,-0.2135105732544167
630,0.6206,0.0101993,1174.05,0.0106771,3.1165e-15,-1.63439e-14,-5.64255e-14,-0.214693,0.457497,-0.240546,0.0,0.0,0.0,0.473946,-0.19321091358878684,0.0,0.0,0.5801140057914551,0.0,-0.21380152051375034
631,0.6216,0.0101762,1174.35,0.010653,4.72279e-15,-4.68554e-15,-1.59613e-15,-0.215023,0.458197,-0.240916,0.0,0.0,0.0,0.474678,-0.1934771100624686,0.0,0.0,0.5812204728137862,0.0,-0.21409236014251098
632,0.6226,0.0101531,1174.64,0.0106289,3.30987e-15,-1.38292e-14,-5.54897e-14,-0.215352,0.458897,-0.241286,0.0,0.0,0.0,0.475411,-0.19374241244862245,0.0,0.0,0.5823277146341805,0.0,-0.21438309218051443
633,0.6236,0.01013,1174.94,0.010605,3.02592e-15,-6.23149e-15,-2.16946e-15,-0.215682,0.459596,-0.241655,0.0,0.0,0.0,0.476143,-0.19400843355661745,0.0,0.0,0.5834341483602468,0.0,-0.21467293134088605
634,0.6246,0.0101071,1175.23,0.0105811,9.17903e-16,2.25148e-16,-1.49234e-15,-0.216011,0.460295,-0.242024,0.0,0.0,0.0,0.476874,-0.19427356116609418,0.0,0.0,0.5845413557538528,0.0,-0.21496266357033733
635,0.6256,0.0100842,1175.52,0.0105572,4.22954e-15,-3.07181e-14,-3.20942e-15,-0.21634,0.460993,-0.242393,0.0,0.0,0.0,0.477605,-0.19453860156293457,0.0,0.0,0.5856477517074368,0.0,-0.2152522889083187
636,0.6266,0.0100614,1175.82,0.0105335,-8.50398e-16,5.9689e-15,-2.89372e-14,-0.216668,0.46169,-0.242761,0.0,0.0,0.0,0.478335,-0.19480274957897903,0.0,0.0,0.5867533334408523,0.0,-0.215541022935681
637,0.6276,0.0100386,1176.11,0.0105098,-1.02852e-15,4.93932e-14,-2.77995e-14,-0.216997,0.462388,-0.243129,0.0,0.0,0.0,0.479065,-0.19506761590146837,0.0,0.0,0.5878612738938296,0.0,-0.2158296507284696
638,0.6286,0.010016,1176.4,0.0104862,5.61571e-14,-2.98176e-14,-5.61584e-14,-0.217325,0.463084,-0.243497,0.0,0.0,0.0,0.479794,-0.1953315904292635,0.0,0.0,0.5889668100224039,0.0,-0.21611817232577146
639,0.6296,0.00999335,1176.69,0.0104626,1.89549e-15,1.34837e-15,-1.34316e-15,-0.217653,0.463781,-0.243865,0.0,0.0,0.0,0.480523,-0.19559547838761182,0.0,0.0,0.5900747059458669,0.0,-0.21640658776665966
640,0.6306,0.00997082,1176.98,0.0104392,3.65935e-15,1.10048e-14,-5.6228e-14,-0.217981,0.464476,-0.244232,0.0,0.0,0.0,0.481251,-0.19585927980490314,0.0,0.0,0.5911801919783974,0.0,-0.21669411378469772
641,0.6316,0.00994835,1177.27,0.0104158,5.65259e-15,2.92415e-14,-9.34826e-16,-0.218308,0.465172,-0.2446,0.0,0.0,0.0,0.481979,-0.19612219083211124,0.0,0.0,0.5922880388780138,0.0,-0.21698231731812234
642,0.6326,0.00992595,1177.56,0.0103925,3.5362e-14,2.01325e-14,-5.49724e-14,-0.218635,0.465866,-0.244966,0.0,0.0,0.0,0.482706,-0.19638501590146829,0.0,0.0,0.5933934703173367,0.0,-0.2172688493514232
643,0.6336,0.00990362,1177.85,0.0103692,3.11495e-15,1.3172e-14,-5.48813e-14,-0.218962,0.466561,-0.245333,0.0,0.0,0.0,0.483433,-0.196647755041078,0.0,0.0,0.5945012636928142,0.0,-0.21755605897752128
644,0.6346,0.00988136,1178.14,0.010346,2.38806e-15,-2.9716e-14,-2.06949e-15,-0.219289,0.467254,-0.2457,0.0,0.0,0.0,0.484159,-0.19691040827903472,0.0,0.0,0.5956066360358323,0.0,-0.21784316321702601
645,0.6356,0.00985917,1178.43,0.0103229,-1.12317e-16,-1.91102e-14,-1.36333e-15,-0.219616,0.467948,-0.246066,0.0,0.0,0.0,0.484885,-0.19717297564342373,0.0,0.0,0.5967143713809455,0.0,-0.2181293802383787
646,0.6366,0.00983704,1178.72,0.0102999,3.33257e-15,6.77705e-15,-7.65106e-16,-0.219942,0.468641,-0.246432,0.0,0.0,0.0,0.485611,-0.19743465459737697,0.0,0.0,0.5978212779391356,0.0,-0.21841549252346937
647,0.6376,0.00981498,1179.0,0.0102769,3.03503e-15,1.10275e-14,-5.48495e-14,-0.220268,0.469333,-0.246797,0.0,0.0,0.0,0.486335,-0.19769624825789478,0.0,0.0,0.5989273529212751,0.0,-0.21870071881173414
648,0.6386,0.00979299,1179.29,0.010254,2.31176e-15,-4.4424e-15,-1.11663e-15,-0.220594,0.470025,-0.247163,0.0,0.0,0.0,0.48706,-0.19795775665277837,0.0,0.0,0.6000341935721931,0.0,-0.2189866220251694
649,0.6396,0.00977106,1179.58,0.0102312,7.75703e-15,1.25428e-14,-5.46951e-14,-0.22092,0.470716,-0.247528,0.0,0.0,0.0,0.487783,-0.19821917980981973,0.0,0.0,0.6011401992809158,0.0,-0.21927163988920573
650,0.6406,0.0097492,1179.86,0.0102084,-2.44321e-14,-8.43959e-15,-5.42148e-14,-0.221245,0.471407,-0.247893,0.0,0.0,0.0,0.488507,-0.19847971623691885,0.0,0.0,0.6022469695036923,0.0,-0.21955655374070515
651,0.6416,0.00972741,1180.15,0.0101857,2.44097e-15,1.28308e-14,-5.61399e-16,-0.221571,0.472098,-0.248258,0.0,0.0,0.0,0.489229,-0.19874096926286866,0.0,0.0,0.6033545047689846,0.0,-0.2198413636176253
652,0.6426,0.00970569,1180.43,0.0101631,5.83111e-14,-1.60926e-14,-5.18204e-16,-0.221896,0.472788,-0.248622,0.0,0.0,0.0,0.489952,-0.1990013361359496,0.0,0.0,0.6044612011436163,0.0,-0.22012528968358958
653,0.6436,0.00968403,1180.71,0.0101405,1.41489e-17,-4.1658e-14,-5.37418e-14,-0.222221,0.473477,-0.248986,0.0,0.0,0.0,0.490674,-0.19926161840354584,0.0,0.0,0.6055670558343975,0.0,-0.22040911241927308
654,0.6446,0.00966243,1181.0,0.010118,6.70807e-15,-1.86185e-14,-5.52563e-14,-0.222545,0.474166,-0.24935,0.0,0.0,0.0,0.491395,-0.1995210156145657,0.0,0.0,0.6066736727216071,0.0,-0.22069283186228117
655,0.6456,0.0096409,1181.28,0.0100956,3.49168e-14,1.99869e-14,-5.5162e-14,-0.222869,0.474855,-0.249714,0.0,0.0,0.0,0.492116,-0.19978032879450303,0.0,0.0,0.6077810523305798,0.0,-0.22097644805020555
656,0.6466,0.00961944,1181.56,0.0100732,3.18987e-15,-3.59793e-14,-2.6143e-14,-0.223194,0.475543,-0.250077,0.0,0.0,0.0,0.492836,-0.20004035793062136,0.0,0.0,0.6088875862986205,0.0,-0.22125918228019592
657,0.6476,0.00959804,1181.84,0.010051,-3.68029e-16,1.15193e-14,-5.48106e-14,-0.223517,0.47623,-0.25044,0.0,0.0,0.0,0.493556,-0.20029870317000753,0.0,0.0,0.6099932718299002,0.0,-0.22154181389628647
658,0.6486,0.00957671,1182.12,0.0100287,7.31791e-15,-1.39124e-14,-5.38664e-14,-0.223841,0.476918,-0.250803,0.0,0.0,0.0,0.494275,-0.20055776441999174,0.0,0.0,0.611101328328647,0.0,-0.22182434293571907
659,0.6496,0.00955543,1182.4,0.0100066,-7.72123e-17,-1.06684e-14,-5.3983e-14,-0.224165,0.477604,-0.251166,0.0,0.0,0.0,0.494994,-0.200816741747727,0.0,0.0,0.6122069230155007,0.0,-0.22210676943572238
660,0.6506,0.00953423,1182.68,0.00998449,6.15992e-15,-3.55873e-15,6.10291e-16,-0.224488,0.47829,-0.251528,0.0,0.0,0.0,0.495712,-0.2010748362556355,0.0,0.0,0.6133132764005134,0.0,-0.22238831582221608
661,0.6516,0.00951308,1182.96,0.00996247,-2.39876e-14,9.10616e-15,1.91108e-15,-0.224811,0.478976,-0.25189,0.0,0.0,0.0,0.49643,-0.20133284741248003,0.0,0.0,0.6144203890043303,0.0,-0.22266976030736318
662,0.6526,0.00949201,1183.24,0.00994051,4.69999e-16,-1.2283e-14,-5.35297e-14,-0.225134,0.479661,-0.252252,0.0,0.0,0.0,0.497147,-0.20159077524517832,0.0,0.0,0.6155266458205009,0.0,-0.2229511029280452
663,0.6536,0.00947099,1183.52,0.00991862,5.43314e-14,-2.27616e-14,8.39612e-17,-0.225456,0.480346,-0.252614,0.0,0.0,0.0,0.497864,-0.2018478216288606,0.0,0.0,0.6166336606821914,0.0,-0.22323234372113043
664,0.6546,0.00945004,1183.8,0.00989679,4.03308e-15,1.54175e-14,-5.32485e-14,-0.225779,0.481031,-0.252975,0.0,0.0,0.0,0.498581,-0.20210558315174754,0.0,0.0,0.617741434108841,0.0,-0.22351270623656838
665,0.6556,0.00942915,1184.07,0.00987503,-1.06452e-15,-8.09947e-15,3.31296e-16,-0.226101,0.481714,-0.253337,0.0,0.0,0.0,0.499297,-0.20236246379396972,0.0,0.0,0.6188467289235493,0.0,-0.22379374376604888
666,0.6566,0.00940832,1184.35,0.00985334,6.12769e-16,1.40499e-15,1.69192e-15,-0.226423,0.482398,-0.253698,0.0,0.0,0.0,0.500012,-0.20261926173394096,0.0,0.0,0.6199543988660676,0.0,-0.22407390365264723
667,0.6576,0.00938755,1184.63,0.00983171,-2.08646e-14,1.58506e-14,-5.32762e-14,-0.226744,0.483081,-0.254058,0.0,0.0,0.0,0.500727,-0.20287517987386539,0.0,0.0,0.6210612056519844,0.0,-0.22435318677335425
668,0.6586,0.00936685,1184.9,0.00981014,3.15707e-15,5.88611e-16,7.76002e-16,-0.227066,0.483763,-0.254419,0.0,0.0,0.0,0.501441,-0.20313181274583625,0.0,0.0,0.6221671464771938,0.0,-0.2246331447374762
669,0.6596,0.00934621,1185.18,0.00978863,-8.91114e-16,-4.23159e-16,1.61842e-15,-0.227387,0.484445,-0.254779,0.0,0.0,0.0,0.502155,-0.20338756638328992,0.0,0.0,0.6232738418113044,0.0,-0.22491222656762722
670,0.6606,0.00932563,1185.45,0.0097672,3.56649e-15,-1.30362e-14,-5.4273e-14,-0.227708,0.485127,-0.255139,0.0,0.0,0.0,0.502869,-0.20364323793700112,0.0,0.0,0.6243812921690663,0.0,-0.22519120794640168
671,0.6616,0.00930511,1185.73,0.00974582,5.55552e-15,-6.51149e-15,1.31795e-15,-0.228029,0.485808,-0.255499,0.0,0.0,0.0,0.503582,-0.20389882743331444,0.0,0.0,0.6254878725768966,0.0,-0.22547008890995557
672,0.6626,0.00928466,1186.0,0.00972451,3.99813e-15,-1.45409e-14,-5.31539e-14,-0.22835,0.486488,-0.255858,0.0,0.0,0.0,0.504294,-0.20415433489856627,0.0,0.0,0.6265935802282439,0.0,-0.2257480952429144
673,0.6636,0.00926426,1186.27,0.00970326,3.12065e-14,-5.54012e-15,-5.38921e-14,-0.22867,0.487168,-0.256217,0.0,0.0,0.0,0.505006,-0.20440896476844672,0.0,0.0,0.6277000400164914,0.0,-0.22602600178951227
674,0.6646,0.00924392,1186.55,0.00968207,2.28958e-15,1.68162e-14,2.57988e-15,-0.22899,0.487848,-0.256576,0.0,0.0,0.0,0.505718,-0.20466351316980447,0.0,0.0,0.6288072524532666,0.0,-0.2263038085855663
675,0.6656,0.00922365,1186.82,0.00966095,3.5352e-14,1.42307e-14,-5.3928e-14,-0.22931,0.488527,-0.256935,0.0,0.0,0.0,0.506429,-0.2049179801287052,0.0,0.0,0.6299135881361413,0.0,-0.22658151566688045
676,0.6666,0.00920343,1187.09,0.00963988,6.81586e-15,9.11151e-15,-5.36349e-14,-0.22963,0.489206,-0.257293,0.0,0.0,0.0,0.507139,-0.20517236567120645,0.0,0.0,0.6310206752760352,0.0,-0.22685834992798226
677,0.6676,0.00918328,1187.36,0.00961888,4.14353e-15,-1.41551e-14,-5.38451e-14,-0.229949,0.489884,-0.257652,0.0,0.0,0.0,0.507849,-0.20542587524962974,0.0,0.0,0.6321268822556629,0.0,-0.22713585796468505
678,0.6686,0.00916318,1187.63,0.00959795,2.29073e-14,6.5474e-15,2.18526e-15,-0.230269,0.490562,-0.25801,0.0,0.0,0.0,0.508559,-0.20568009829169387,0.0,0.0,0.6332338394979333,0.0,-0.22741249380676343
679,0.6696,0.00914315,1187.9,0.00957707,8.22691e-15,1.45833e-14,-5.28858e-14,-0.230588,0.491239,-0.258367,0.0,0.0,0.0,0.509268,-0.20593344592924212,0.0,0.0,0.6343399131709662,0.0,-0.22768825831958006
680,0.6706,0.00912317,1188.17,0.00955626,3.48718e-15,7.56591e-15,-5.3213e-14,-0.230907,0.491916,-0.258725,0.0,0.0,0.0,0.509977,-0.20618671276178324,0.0,0.0,0.6354467359094058,0.0,-0.227964696437726
681,0.6716,0.00910326,1188.44,0.0095355,4.07119e-15,-1.36317e-14,-5.30295e-14,-0.231225,0.492593,-0.259082,0.0,0.0,0.0,0.510685,-0.20643910525459175,0.0,0.0,0.6365543082205412,0.0,-0.228240263849388
682,0.6726,0.0090834,1188.71,0.00951481,3.50458e-14,3.34714e-14,2.90516e-15,-0.231544,0.493269,-0.259439,0.0,0.0,0.0,0.511392,-0.20669221080753342,0.0,0.0,0.6376609929501929,0.0,-0.22851573290104232
683,0.6736,0.0090636,1188.98,0.00949418,7.01423e-15,-2.86419e-15,3.04686e-15,-0.231862,0.493944,-0.259796,0.0,0.0,0.0,0.5121,-0.20694444257751965,0.0,0.0,0.6387667872840364,0.0,-0.2287911036277973
684,0.6746,0.00904386,1189.25,0.00947361,-8.57291e-16,2.29434e-14,3.16751e-15,-0.23218,0.494619,-0.260153,0.0,0.0,0.0,0.512806,-0.20719659415055502,0.0,0.0,0.6398733282810254,0.0,-0.22906637606474867
685,0.6756,0.00902417,1189.51,0.0094531,7.33103e-15,-1.68077e-15,2.80909e-15,-0.232498,0.495294,-0.260509,0.0,0.0,0.0,0.513513,-0.20744866555213815,0.0,0.0,0.6409806164453282,0.0,-0.22934077958814436
686,0.6766,0.00900455,1189.78,0.00943265,3.63693e-15,2.13041e-15,-2.47079e-14,-0.232815,0.495968,-0.260865,0.0,0.0,0.0,0.514219,-0.20769986450802003,0.0,0.0,0.6420870101936216,0.0,-0.22961508544127207
687,0.6776,0.00898498,1190.05,0.00941226,7.0033e-15,1.93179e-14,-5.27632e-14,-0.233133,0.496642,-0.261221,0.0,0.0,0.0,0.514924,-0.20795177589507308,0.0,0.0,0.6431941499026617,0.0,-0.2298892936588962
688,0.6786,0.00896547,1190.31,0.00939193,8.51997e-15,-2.16026e-14,3.22089e-14,-0.23345,0.497315,-0.261576,0.0,0.0,0.0,0.515629,-0.2082028153902521,0.0,0.0,0.6443003917741821,0.0,-0.23016263443878826
689,0.6796,0.00894602,1190.58,0.00937165,7.95747e-15,-1.80844e-15,4.03412e-15,-0.233767,0.497988,-0.261932,0.0,0.0,0.0,0.516333,-0.20845377531852316,0.0,0.0,0.6454073783970624,0.0,-0.23043664776366224
690,0.6806,0.00892662,1190.84,0.00935144,7.46994e-15,8.47156e-16,-5.27424e-14,-0.234083,0.49866,-0.262287,0.0,0.0,0.0,0.517037,-0.20870386440936517,0.0,0.0,0.6465134637584025,0.0,-0.23070979426733318
691,0.6816,0.00890728,1191.11,0.00933129,-4.60817e-16,-1.29121e-14,-5.31393e-14,-0.2344,0.499332,-0.262642,0.0,0.0,0.0,0.51774,-0.20895466553026942,0.0,0.0,0.6476202926589065,0.0,-0.23098284382120482
692,0.6826,0.008888,1191.37,0.00931119,8.15973e-15,-1.78506e-15,4.22115e-15,-0.234716,0.500004,-0.262996,0.0,0.0,0.0,0.518443,-0.20920459636481026,0.0,0.0,0.6487278655984008,0.0,-0.23125502771510054
693,0.6836,0.00886878,1191.63,0.00929116,8.59221e-15,9.3271e-15,-5.35115e-14,-0.235032,0.500675,-0.263351,0.0,0.0,0.0,0.519146,-0.20945444823368464,0.0,0.0,0.6498345332416893,0.0,-0.23152788374545075
694,0.6846,0.00884961,1191.9,0.00927118,6.62737e-15,-2.21514e-15,4.37411e-15,-0.235348,0.501345,-0.263705,0.0,0.0,0.0,0.519848,-0.20970422116184173,0.0,0.0,0.6509402927670378,0.0,-0.23179987472936026
695,0.6856,0.0088305,1192.16,0.00925126,8.67946e-15,-1.56993e-14,-5.29257e-14,-0.235664,0.502015,-0.264059,0.0,0.0,0.0,0.520549,-0.2099539151742228,0.0,0.0,0.6520467933995111,0.0,-0.2320717694455019
696,0.6866,0.00881144,1192.42,0.0092314,2.94637e-15,3.11188e-15,-2.37507e-14,-0.235979,0.502685,-0.264413,0.0,0.0,0.0,0.52125,-0.21020274049889676,0.0,0.0,0.6531540356358179,0.0,-0.2323435679279484
697,0.6876,0.00879244,1192.68,0.00921159,3.60914e-15,5.18432e-14,4.83306e-15,-0.236295,0.503354,-0.264766,0.0,0.0,0.0,0.521951,-0.2104522770040549,0.0,0.0,0.654260365711806,0.0,-0.232614502825647
698,0.6886,0.00877349,1192.94,0.00919185,7.0093e-15,-1.97245e-15,4.27508e-15,-0.23661,0.504023,-0.265119,0.0,0.0,0.0,0.522651,-0.2107009453694748,0.0,0.0,0.6553674361702455,0.0,-0.23288534210020517
699,0.6896,0.0087546,1193.2,0.00917216,8.54981e-15,1.10309e-14,-5.25654e-14,-0.236924,0.504691,-0.265472,0.0,0.0,0.0,0.523351,-0.21094874636583638,0.0,0.0,0.6564735910321984,0.0,-0.23315608578537195
700,0.6906,0.00873576,1193.46,0.00915252,1.43066e-15,-7.55595e-16,5.20264e-15,-0.237239,0.505359,-0.265825,0.0,0.0,0.0,0.52405,-0.21119725836803593,0.0,0.0,0.6575804850524505,0.0,-0.23342673391488444
701,0.6916,0.00871698,1193.72,0.00913295,6.52142e-15,-2.003e-14,-5.22422e-14,-0.237554,0.506027,-0.266178,0.0,0.0,0.0,0.524749,-0.21144569210128272,0.0,0.0,0.6586881187249243,0.0,-0.2336972865224678
702,0.6926,0.00869825,1193.98,0.00911343,6.02116e-16,-5.10544e-15,5.0248e-15,-0.237868,0.506693,-0.26653,0.0,0.0,0.0,0.525447,-0.21169325928388116,0.0,0.0,0.6597931729542073,0.0,-0.23396697760919594
703,0.6936,0.00867958,1194.24,0.00909397,7.21275e-15,-7.95757e-15,3.31143e-14,-0.238182,0.50736,-0.266882,0.0,0.0,0.0,0.526145,-0.21194074874258761,0.0,0.0,0.6609006242945321,0.0,-0.23423657378136753
704,0.6946,0.00866096,1194.5,0.00907456,1.664e-15,7.76183e-15,-5.293e-14,-0.238495,0.508026,-0.267234,0.0,0.0,0.0,0.526842,-0.21218737268957,0.0,0.0,0.6620071525433184,0.0,-0.23450607507238663
705,0.6956,0.0086424,1194.76,0.00905521,2.95746e-15,-6.34791e-15,4.90409e-15,-0.238809,0.508692,-0.267585,0.0,0.0,0.0,0.527539,-0.2124347070210233,0.0,0.0,0.6631144179853767,0.0,-0.2347747162907443
706,0.6966,0.00862389,1195.01,0.00903591,7.84113e-15,-2.82826e-14,4.81877e-15,-0.239122,0.509357,-0.267937,0.0,0.0,0.0,0.528235,-0.21268117638325834,0.0,0.0,0.6642207568902518,0.0,-0.2350440281889351
707,0.6976,0.00860543,1195.27,0.00901667,-3.02309e-14,-1.72389e-14,4.74585e-15,-0.239436,0.510022,-0.268288,0.0,0.0,0.0,0.528931,-0.2129283556846927,0.0,0.0,0.6653278317551785,0.0,-0.2353124806188832
708,0.6986,0.00858703,1195.53,0.00899749,3.47469e-15,3.12802e-14,4.22098e-15,-0.239748,0.510686,-0.268639,0.0,0.0,0.0,0.529627,-0.21317388373335178,0.0,0.0,0.6664339766349228,0.0,-0.2355808388385633
709,0.6996,0.00856868,1195.78,0.00897836,3.0139e-16,-1.0358e-15,5.16031e-15,-0.240061,0.51135,-0.268989,0.0,0.0,0.0,0.530322,-0.21342012176948022,0.0,0.0,0.6675408562387686,0.0,-0.23584833872975808
710,0.7006,0.00855038,1196.04,0.00895929,8.36934e-15,3.97369e-17,5.0376e-15,-0.240374,0.512013,-0.26934,0.0,0.0,0.0,0.531017,-0.21366628274516408,0.0,0.0,0.6686468024070982,0.0,-0.23611650889624647
711,0.7016,0.00853214,1196.29,0.00894027,-3.91393e-15,-8.96372e-16,4.93268e-15,-0.240686,0.512676,-0.26969,0.0,0.0,0.0,0.531711,-0.21391158059649296,0.0,0.0,0.6697534820608608,0.0,-0.2363838213357271
712,0.7026,0.00851395,1196.55,0.0089213,9.41252e-15,-1.39014e-14,4.84297e-15,-0.240998,0.513339,-0.27004,0.0,0.0,0.0,0.532404,-0.21415680192683006,0.0,0.0,0.6708608956865185,0.0,-0.23665104023222483
713,0.7036,0.00849581,1196.8,0.00890239,7.81897e-15,1.50514e-16,5.22907e-15,-0.24131,0.514001,-0.270389,0.0,0.0,0.0,0.533098,-0.2144019467600462,0.0,0.0,0.6719673718026486,0.0,-0.23691740253625815
714,0.7046,0.00847772,1197.06,0.00888354,5.02988e-15,-1.35484e-14,-5.36909e-14,-0.241622,0.514663,-0.270739,0.0,0.0,0.0,0.53379,-0.21464701512000495,0.0,0.0,0.6730745806484744,0.0,-0.23718443471201378
715,0.7056,0.00845968,1197.31,0.00886473,-2.2805e-14,9.88946e-15,5.65063e-15,-0.241933,0.515324,-0.271088,0.0,0.0,0.0,0.534483,-0.21489122192217658,0.0,0.0,0.6741808485275378,0.0,-0.23745061089385378
716,0.7066,0.0084417,1197.56,0.00884599,9.47588e-15,1.30262e-14,-5.33367e-14,-0.242245,0.515985,-0.271437,0.0,0.0,0.0,0.535174,-0.21513613765209627,0.0,0.0,0.6752878478913982,0.0,-0.23771669419641472
717,0.7076,0.00842377,1197.81,0.00882729,1.16579e-14,2.79323e-14,-5.37734e-14,-0.242556,0.516645,-0.271786,0.0,0.0,0.0,0.535866,-0.21538019236081218,0.0,0.0,0.6763939028289863,0.0,-0.23798268465210592
718,0.7086,0.00840589,1198.07,0.00880865,3.28548e-14,5.5247e-15,4.20779e-15,-0.242867,0.517305,-0.272135,0.0,0.0,0.0,0.536557,-0.21562417118031496,0.0,0.0,0.6775006880037846,0.0,-0.23824858229332502
719,0.7096,0.00838806,1198.32,0.00879006,3.15123e-14,3.01935e-15,5.17453e-15,-0.243177,0.517964,-0.272483,0.0,0.0,0.0,0.537247,-0.21586729000188476,0.0,0.0,0.6786065252905447,0.0,-0.23851362566646517
720,0.7106,0.00837028,1198.57,0.00877153,1.19891e-14,1.06968e-14,-5.23666e-14,-0.243488,0.518624,-0.272831,0.0,0.0,0.0,0.537937,-0.21611111735757516,0.0,0.0,0.679714771278183,0.0,-0.23877857682055859
721,0.7116,0.00835255,1198.82,0.00875304,2.07299e-15,-2.65608e-14,4.95632e-15,-0.243798,0.519282,-0.273179,0.0,0.0,0.0,0.538627,-0.21635408524922528,0.0,0.0,0.6808203873054661,0.0,-0.23904343578769183
722,0.7126,0.00833488,1199.07,0.00873461,-1.97385e-14,-6.60107e-15,-5.2096e-14,-0.244108,0.51994,-0.273527,0.0,0.0,0.0,0.539316,-0.21659697783250242,0.0,0.0,0.6819267310674935,0.0,-0.23930820259994035
723,0.7136,0.00831725,1199.32,0.00871623,7.45305e-15,-1.9518e-15,5.1961e-15,-0.244418,0.520598,-0.273874,0.0,0.0,0.0,0.540004,-0.21683979513074858,0.0,0.0,0.6830338030432725,0.0,-0.23957211686186553
724,0.7146,0.00829968,1199.57,0.00869791,4.73073e-15,2.04577e-15,6.03704e-15,-0.244728,0.521255,-0.274221,0.0,0.0,0.0,0.540693,-0.21708253716729842,0.0,0.0,0.6841399195713636,0.0,-0.2398359395614289
725,0.7156,0.00828215,1199.82,0.00867964,4.71754e-15,2.9303e-14,5.82986e-15,-0.245037,0.521912,-0.274568,0.0,0.0,0.0,0.54138,-0.21732442129029217,0.0,0.0,0.6852467630567931,0.0,-0.24009967073039695
726,0.7166,0.00826467,1200.07,0.00866141,8.48257e-15,-1.60468e-14,5.65242e-15,-0.245346,0.522569,-0.274915,0.0,0.0,0.0,0.542068,-0.21756623068263825,0.0,0.0,0.6863543339773284,0.0,-0.2403633104005254
727,0.7176,0.00824725,1200.32,0.00864324,4.69103e-15,2.75663e-14,5.03678e-15,-0.245655,0.523225,-0.275261,0.0,0.0,0.0,0.542755,-0.2178079653674252,0.0,0.0,0.6874609453492633,0.0,-0.24062609923003764
728,0.7186,0.00822987,1200.56,0.00862513,8.93108e-15,3.21983e-15,5.4369e-15,-0.245964,0.52388,-0.275608,0.0,0.0,0.0,0.543441,-0.21804962536773376,0.0,0.0,0.6885665943289785,0.0,-0.24088955626116637
729,0.7196,0.00821255,1200.81,0.00860706,1.77442e-15,-1.46598e-14,-5.31176e-14,-0.246273,0.524536,-0.275954,0.0,0.0,0.0,0.544127,-0.21829121070663804,0.0,0.0,0.6896746574198154,0.0,-0.2411521630411072
730,0.7206,0.00819527,1201.06,0.00858904,3.08584e-15,-2.23181e-14,5.25642e-15,-0.246581,0.52519,-0.2763,0.0,0.0,0.0,0.544813,-0.21853193993953546,0.0,0.0,0.6907800660749983,0.0,-0.2414146789748195
731,0.7216,0.00817804,1201.3,0.00857108,-2.12289e-14,3.16359e-14,5.63339e-15,-0.24689,0.525845,-0.276645,0.0,0.0,0.0,0.545498,-0.2187733762662606,0.0,0.0,0.6918878897909373,0.0,-0.2416763457704555
732,0.7226,0.00816086,1201.55,0.00855316,4.27438e-15,6.58698e-15,-2.4199e-14,-0.247198,0.526499,-0.276991,0.0,0.0,0.0,0.546182,-0.21901395701503346,0.0,0.0,0.6929947463735113,0.0,-0.24193868036831634
733,0.7236,0.00814373,1201.8,0.0085353,-2.82194e-14,1.85809e-14,-5.25471e-14,-0.247505,0.527152,-0.277336,0.0,0.0,0.0,0.546866,-0.2192536829304189,0.0,0.0,0.6941006329755721,0.0,-0.2422001664146527
734,0.7246,0.00812665,1202.04,0.00851748,7.14249e-15,2.77201e-14,5.29357e-15,-0.247813,0.527805,-0.277681,0.0,0.0,0.0,0.54755,-0.21949411576751876,0.0,0.0,0.6952072419574153,0.0,-0.24246156226386295
735,0.7256,0.00810961,1202.29,0.00849972,3.51223e-14,3.85242e-14,5.21359e-15,-0.24812,0.528458,-0.278025,0.0,0.0,0.0,0.548233,-0.21973369429679224,0.0,0.0,0.6963145737909091,0.0,-0.24272211066954907
736,0.7266,0.00809263,1202.53,0.00848201,5.90249e-14,-1.91771e-14,-2.36326e-14,-0.248428,0.52911,-0.27837,0.0,0.0,0.0,0.548916,-0.21997397931315676,0.0,0.0,0.6974209315264495,0.0,-0.24298332647904997
737,0.7276,0.00807569,1202.77,0.00846434,3.42911e-15,-2.52741e-15,6.41313e-15,-0.248735,0.529762,-0.278714,0.0,0.0,0.0,0.549599,-0.22021341054693278,0.0,0.0,0.6985280108424432,0.0,-0.24324369542871427
738,0.7286,0.0080588,1203.02,0.00844673,2.76919e-16,6.2117e-16,5.24887e-15,-0.249042,0.530413,-0.279058,0.0,0.0,0.0,0.550281,-0.22045276828660187,0.0,0.0,0.6996341125745515,0.0,-0.2435039748268636
739,0.7296,0.00804196,1203.26,0.00842916,7.43848e-15,-3.97641e-16,6.10769e-15,-0.249348,0.531064,-0.279402,0.0,0.0,0.0,0.550962,-0.22069127324638627,0.0,0.0,0.7007409346133218,0.0,-0.2437641647042984
740,0.7306,0.00802516,1203.5,0.00841165,5.1933e-15,-6.73661e-15,-2.28761e-14,-0.249655,0.531714,-0.279745,0.0,0.0,0.0,0.551643,-0.2209304843047234,0.0,0.0,0.7018467755802,0.0,-0.2440235091156957
741,0.7316,0.00800842,1203.75,0.00839418,3.70823e-15,-4.73419e-15,-2.31222e-14,-0.249961,0.532364,-0.280089,0.0,0.0,0.0,0.552324,-0.22116884310576967,0.0,0.0,0.7029533355773658,0.0,-0.2442835203040714
742,0.7326,0.00799172,1203.99,0.00837676,3.8296e-15,-3.9427e-15,-2.37973e-14,-0.250267,0.533014,-0.280432,0.0,0.0,0.0,0.553004,-0.22140712898018122,0.0,0.0,0.7040606150723416,0.0,-0.24454268660704526
743,0.7336,0.00797506,1204.23,0.00835939,3.9354e-15,-1.53119e-15,6.28432e-15,-0.250573,0.533663,-0.280775,0.0,0.0,0.0,0.553684,-0.22164534195026997,0.0,0.0,0.7051669093651907,0.0,-0.24480176403122078
744,0.7346,0.00795846,1204.47,0.00834208,4.02764e-15,-2.59743e-14,6.54377e-15,-0.250878,0.534312,-0.281118,0.0,0.0,0.0,0.554363,-0.2218827039214345,0.0,0.0,0.7062739218760723,0.0,-0.24506075260707816
745,0.7356,0.0079419,1204.71,0.0083248,9.77373e-15,1.18748e-14,-5.27101e-14,-0.251184,0.53496,-0.28146,0.0,0.0,0.0,0.555042,-0.22212077138785458,0.0,0.0,0.7073799456904617,0.0,-0.2453188976843621
746,0.7366,0.00792538,1204.95,0.00830758,2.98004e-15,2.5562e-14,7.03595e-15,-0.251489,0.535608,-0.281802,0.0,0.0,0.0,0.55572,-0.22235798837515186,0.0,0.0,0.708486686440545,0.0,-0.24557695449112482
747,0.7376,0.00790892,1205.19,0.0082904,4.13822e-15,1.49923e-15,6.26752e-15,-0.251794,0.536256,-0.282144,0.0,0.0,0.0,0.556398,-0.22259513302230027,0.0,0.0,0.7095941445910472,0.0,-0.24583492305754961
748,0.7386,0.00789249,1205.43,0.00827328,7.51715e-15,-2.7109e-14,6.07259e-15,-0.252099,0.536903,-0.282486,0.0,0.0,0.0,0.557076,-0.2228322053513605,0.0,0.0,0.7107006099055289,0.0,-0.24609280341380946
749,0.7396,0.00787612,1205.67,0.0082562,5.73417e-15,-4.13873e-14,-5.267e-14,-0.252404,0.53755,-0.282828,0.0,0.0,0.0,0.557753,-0.22306920538438613,0.0,0.0,0.711807791334707,0.0,-0.2463505955900671
750,0.7406,0.00785979,1205.91,0.00823916,6.54768e-15,-2.05158e-16,6.14885e-15,-0.252708,0.538196,-0.283169,0.0,0.0,0.0,0.55843,-0.2233053564491687,0.0,0.0,0.712913976427225,0.0,-0.24660754622439784
751,0.7416,0.00784351,1206.15,0.00822218,4.89525e-15,-1.11075e-15,6.90872e-15,-0.253012,0.538842,-0.28351,0.0,0.0,0.0,0.559106,-0.22354143573493857,0.0,0.0,0.7140208763461771,0.0,-0.24686440925349984
752,0.7426,0.00782727,1206.38,0.00820524,8.17816e-15,-2.35433e-17,6.63122e-15,-0.253316,0.539487,-0.283851,0.0,0.0,0.0,0.559782,-0.22377744326351323,0.0,0.0,0.7151267764258558,0.0,-0.24712118470724143
753,0.7436,0.00781108,1206.62,0.00818835,4.42762e-15,-2.82312e-15,6.39278e-15,-0.25362,0.540132,-0.284192,0.0,0.0,0.0,0.560457,-0.2240133790567036,0.0,0.0,0.7162333900411764,0.0,-0.2473778726154805
754,0.7446,0.00779493,1206.86,0.00817151,4.9347e-15,-1.50137e-15,7.1182e-15,-0.253924,0.540777,-0.284532,0.0,0.0,0.0,0.561132,-0.22424924313631378,0.0,0.0,0.717340717652518,0.0,-0.24763372064216205
755,0.7456,0.00777883,1207.1,0.00815471,-2.91331e-14,8.1848e-15,6.811e-15,-0.254227,0.541421,-0.284873,0.0,0.0,0.0,0.561806,-0.22448426000878918,0.0,0.0,0.718447041272656,0.0,-0.24789023380544306
756,0.7466,0.00776277,1207.33,0.00813796,6.77518e-16,-4.15091e-15,5.61642e-15,-0.254531,0.542065,-0.285213,0.0,0.0,0.0,0.562481,-0.22471998096234624,0.0,0.0,0.7195540775946705,0.0,-0.2481459076589312
757,0.7476,0.00774675,1207.57,0.00812125,1.17062e-15,-9.98967e-15,-2.33296e-14,-0.254834,0.542708,-0.285552,0.0,0.0,0.0,0.563154,-0.22495485522286718,0.0,0.0,0.7206601064167228,0.0,-0.24840074299920412
758,0.7486,0.00773079,1207.8,0.0081046,3.96522e-15,-2.30355e-14,6.2404e-15,-0.255137,0.543351,-0.285892,0.0,0.0,0.0,0.563827,-0.225189658327268,0.0,0.0,0.7217668466440004,0.0,-0.24865624330907043
759,0.7496,0.00771486,1208.04,0.00808798,3.56868e-15,-3.80527e-14,3.67791e-14,-0.255439,0.543994,-0.286231,0.0,0.0,0.0,0.5645,-0.22542361572110847,0.0,0.0,0.722874298734083,0.0,-0.24891090567487884
760,0.7506,0.00769898,1208.27,0.00807142,7.48555e-15,8.05072e-16,6.2438e-15,-0.255742,0.544636,-0.286571,0.0,0.0,0.0,0.565172,-0.22565827681259432,0.0,0.0,0.7239807391632453,0.0,-0.24916623255891945
761,0.7516,0.00768315,1208.51,0.0080549,3.81266e-15,-2.38721e-16,5.59361e-15,-0.256044,0.545278,-0.28691,0.0,0.0,0.0,0.565844,-0.2258920927050201,0.0,0.0,0.7250878901552291,0.0,-0.24942072206767296
762,0.7526,0.00766735,1208.74,0.00803842,-5.99397e-14,-1.73085e-14,7.36243e-15,-0.256346,0.545919,-0.287248,0.0,0.0,0.0,0.566516,-0.22612583799570773,0.0,0.0,0.7261940259714736,0.0,-0.2496743749938547
763,0.7536,0.00765161,1208.98,0.00802199,7.36116e-15,-5.32913e-14,5.15838e-15,-0.256648,0.54656,-0.287587,0.0,0.0,0.0,0.567187,-0.22635951270597576,0.0,0.0,0.72730087104807,0.0,-0.2499286922715177
764,0.7546,0.0076359,1209.21,0.00800561,8.44921e-15,-3.06696e-14,6.52252e-15,-0.25695,0.5472,-0.287925,0.0,0.0,0.0,0.567858,-0.22659311685713623,0.0,0.0,0.7284066974322381,0.0,-0.2501821735327836
765,0.7556,0.00762024,1209.44,0.00798927,3.72218e-15,-3.00135e-16,7.23017e-15,-0.257252,0.54784,-0.288263,0.0,0.0,0.0,0.568528,-0.22682665047049488,0.0,0.0,0.7295132317718136,0.0,-0.2504355691318608
766,0.7566,0.00760462,1209.67,0.00797298,4.32289e-15,-2.12948e-15,6.44146e-15,-0.257553,0.54848,-0.288601,0.0,0.0,0.0,0.569197,-0.22705934062707778,0.0,0.0,0.7306204745200331,0.0,-0.25068887909769844
767,0.7576,0.00758905,1209.91,0.00795673,4.84792e-15,-1.8393e-15,7.16038e-15,-0.257854,0.549119,-0.288939,0.0,0.0,0.0,0.569867,-0.22729196075446367,0.0,0.0,0.7317266944028629,0.0,-0.2509421034592355
768,0.7586,0.00757352,1210.14,0.00794052,3.88695e-15,-1.58854e-15,5.91527e-15,-0.258155,0.549758,-0.289276,0.0,0.0,0.0,0.570536,-0.22752451087372783,0.0,0.0,0.7328336213860922,0.0,-0.25119449344026934
769,0.7596,0.00755803,1210.37,0.00792436,3.99351e-15,-2.3084e-15,5.7756e-15,-0.258456,0.550397,-0.289613,0.0,0.0,0.0,0.571204,-0.2277569910059397,0.0,0.0,0.7339412559217031,0.0,-0.2514467983802098
770,0.7606,0.00754258,1210.6,0.00790825,5.98023e-15,1.27112e-14,-5.44621e-14,-0.258756,0.551035,-0.28995,0.0,0.0,0.0,0.571872,-0.22798862916117724,0.0,0.0,0.7350478634132345,0.0,-0.2516990183077108
771,0.7616,0.00752718,1210.83,0.00789217,2.98297e-15,-1.1801e-15,6.47684e-15,-0.259057,0.551672,-0.290287,0.0,0.0,0.0,0.57254,-0.2282209696148073,0.0,0.0,0.7361534409913031,0.0,-0.2519511532514169
772,0.7626,0.00751182,1211.06,0.00787615,8.41121e-15,-2.57551e-14,6.26702e-15,-0.259357,0.55231,-0.290624,0.0,0.0,0.0,0.573207,-0.22845246859733925,0.0,0.0,0.7372614603072329,0.0,-0.2522032032399626
773,0.7636,0.0074965,1211.29,0.00786016,-5.64519e-14,1.45183e-14,7.48487e-15,-0.259657,0.552946,-0.29096,0.0,0.0,0.0,0.573874,-0.22868389814059287,0.0,0.0,0.7383667100281439,0.0,-0.2524544207567677
774,0.7646,0.00748122,1211.52,0.00784422,4.73085e-15,2.25626e-15,5.73605e-15,-0.259957,0.553583,-0.291296,0.0,0.0,0.0,0.57454,-0.22891525826539671,0.0,0.0,0.739474402384992,0.0,-0.25270555387866633
775,0.7656,0.00746598,1211.75,0.00782833,1.40832e-15,-9.95041e-15,-5.35906e-14,-0.260256,0.554219,-0.291632,0.0,0.0,0.0,0.575206,-0.22914577813873693,0.0,0.0,0.7405810599847222,0.0,-0.2529566026340103
776,0.7666,0.00745079,1211.98,0.00781247,6.08057e-15,1.54775e-14,-5.47889e-14,-0.260556,0.554854,-0.291968,0.0,0.0,0.0,0.575872,-0.22937699972032388,0.0,0.0,0.7416866799550019,0.0,-0.2532075670511421
777,0.7676,0.00743564,1212.21,0.00779666,2.11501e-15,-1.59798e-15,6.67777e-15,-0.260855,0.55549,-0.292304,0.0,0.0,0.0,0.576537,-0.22960738155360716,0.0,0.0,0.7427947450107903,0.0,-0.2534584471583947
778,0.7686,0.00742053,1212.44,0.00778089,-5.96376e-14,-1.38286e-14,7.85532e-15,-0.261154,0.556124,-0.292639,0.0,0.0,0.0,0.577202,-0.22983769451301927,0.0,0.0,0.7439000272165635,0.0,-0.253708496692961
779,0.7696,0.00740546,1212.66,0.00776517,4.30573e-15,2.96594e-14,6.07078e-15,-0.261453,0.556759,-0.292974,0.0,0.0,0.0,0.577866,-0.23006793861915065,0.0,0.0,0.7450077554003225,0.0,-0.2539584624749628
780,0.7706,0.00739043,1212.89,0.00774949,5.7742e-15,-1.52928e-14,-5.37869e-14,-0.261752,0.557393,-0.293309,0.0,0.0,0.0,0.57853,-0.23029811389258537,0.0,0.0,0.7461144410995431,0.0,-0.2542083445324521
781,0.7716,0.00737544,1213.12,0.00773385,7.05661e-14,-3.46453e-15,-5.54436e-14,-0.26205,0.558026,-0.293643,0.0,0.0,0.0,0.579193,-0.23052745088173687,0.0,0.0,0.7472200814390082,0.0,-0.2544573973512423
782,0.7726,0.0073605,1213.35,0.00771825,8.32285e-15,3.56974e-14,-5.26703e-14,-0.262348,0.558659,-0.293978,0.0,0.0,0.0,0.579856,-0.23075671953864751,0.0,0.0,0.7483264218703642,0.0,-0.25470711229354137
783,0.7736,0.00734559,1213.57,0.0077027,7.39415e-15,-5.65626e-15,6.66105e-15,-0.262647,0.559292,-0.294312,0.0,0.0,0.0,0.580519,-0.23098668889737306,0.0,0.0,0.749433462836909,0.0,-0.25495599855171647
784,0.7746,0.00733073,1213.8,0.00768719,1.84018e-15,-2.07555e-16,7.86564e-15,-0.262945,0.559925,-0.294646,0.0,0.0,0.0,0.581181,-0.23121582072174418,0.0,0.0,0.7505412047822222,0.0,-0.2552048016957622
785,0.7756,0.00731591,1214.02,0.00767172,3.25359e-14,-2.40211e-14,6.10321e-15,-0.263242,0.560557,-0.29498,0.0,0.0,0.0,0.581843,-0.23144411571950452,0.0,0.0,0.7516478965013911,0.0,-0.25545352175343405
786,0.7766,0.00730112,1214.25,0.00765629,4.41381e-15,-4.85889e-15,6.45096e-15,-0.26354,0.561188,-0.295314,0.0,0.0,0.0,0.582504,-0.23167311125099121,0.0,0.0,0.7527535351163814,0.0,-0.25570215875247815
787,0.7776,0.00728638,1214.47,0.0076409,-2.11654e-14,-2.86256e-15,-5.39498e-14,-0.263837,0.561819,-0.295647,0.0,0.0,0.0,0.583165,-0.23190127045363096,0.0,0.0,0.7538598716094951,0.0,-0.2559499686709722
788,0.7786,0.00727168,1214.7,0.00762556,3.38862e-15,1.13798e-15,-2.47885e-14,-0.264134,0.56245,-0.29598,0.0,0.0,0.0,0.583825,-0.23212936190304934,0.0,0.0,0.7549669064212323,0.0,-0.25619769608250154
789,0.7796,0.00725701,1214.92,0.00761026,3.15389e-14,4.87395e-15,7.37147e-15,-0.264431,0.563081,-0.296313,0.0,0.0,0.0,0.584485,-0.23235738561936614,0.0,0.0,0.7560746399923712,0.0,-0.2564453410145364
790,0.7806,0.00724239,1215.15,0.007595,3.54016e-15,-1.14521e-14,-5.2697e-14,-0.264728,0.563711,-0.296646,0.0,0.0,0.0,0.585145,-0.23258534162269506,0.0,0.0,0.7571813155817735,0.0,-0.256692903494538
791,0.7816,0.00722781,1215.37,0.00757978,1.30483e-15,-1.82333e-14,-5.45373e-14,-0.265025,0.56434,-0.296979,0.0,0.0,0.0,0.585804,-0.2328132299331438,0.0,0.0,0.7582869303086539,0.0,-0.2569403835499582
792,0.7826,0.00721326,1215.59,0.0075646,4.09061e-15,-7.84172e-16,7.88074e-15,-0.265321,0.564969,-0.297311,0.0,0.0,0.0,0.586463,-0.23304028361148144,0.0,0.0,0.7593932406859567,0.0,-0.2571870383956496
793,0.7836,0.00719876,1215.82,0.00754946,-1.06713e-15,-1.93148e-14,-5.31961e-14,-0.265617,0.565598,-0.297643,0.0,0.0,0.0,0.587122,-0.23326727009187598,0.0,0.0,0.7605002471513835,0.0,-0.25743361136552445
794,0.7846,0.00718429,1216.04,0.00753436,-3.7462e-16,-3.41684e-14,8.11155e-15,-0.265913,0.566227,-0.297975,0.0,0.0,0.0,0.58778,-0.2334941893942153,0.0,0.0,0.7616079501429114,0.0,-0.2576801024867609
795,0.7856,0.00716986,1216.26,0.0075193,-3.09679e-15,4.21639e-16,8.21944e-15,-0.266209,0.566855,-0.298307,0.0,0.0,0.0,0.588437,-0.2337210415383809,0.0,0.0,0.7627145873833245,0.0,-0.25792651178652815
796,0.7866,0.00715548,1216.48,0.00750429,6.3831e-15,1.17018e-15,-8.5634e-14,-0.266505,0.567482,-0.298638,0.0,0.0,0.0,0.589094,-0.23394782654424884,0.0,0.0,0.7638201559891526,0.0,-0.2581720974644549
797,0.7876,0.00714113,1216.7,0.00748931,-5.24987e-15,-8.61116e-16,8.16551e-15,-0.2668,0.56811,-0.29897,0.0,0.0,0.0,0.589751,-0.23417377860585065,0.0,0.0,0.764928182931158,0.0,-0.2584183434490014
798,0.7886,0.00712682,1216.92,0.00747437,-2.82678e-14,-4.0953e-15,-5.29642e-14,-0.267096,0.568736,-0.299301,0.0,0.0,0.0,0.590407,-0.23440042962137808,0.0,0.0,0.7660333738623428,0.0,-0.2586637663575876
799,0.7896,0.00711255,1217.14,0.00745948,3.13128e-14,-5.15959e-15,-5.43199e-14,-0.267391,0.569363,-0.299632,0.0,0.0,0.0,0.591063,-0.23462624818476407,0.0,0.0,0.7671410239997851,0.0,-0.2589091080446341
800,0.7906,0.00709831,1217.37,0.00744462,4.74102e-15,-1.35932e-14,-5.26839e-14,-0.267686,0.569989,-0.299962,0.0,0.0,0.0,0.591719,-0.23485200014149876,0.0,0.0,0.7682476006031491,0.0,-0.2591536276910187
801,0.7916,0.00708412,1217.59,0.00742981,-2.75942e-14,2.24261e-14,9.0575e-15,-0.267981,0.570615,-0.300293,0.0,0.0,0.0,0.592374,-0.23507768551122832,0.0,0.0,0.7693548701403325,0.0,-0.25939880726079567
802,0.7926,0.00706996,1217.8,0.00741503,1.02752e-15,2.54807e-15,7.6693e-15,-0.268275,0.57124,-0.300623,0.0,0.0,0.0,0.593029,-0.23530253961651493,0.0,0.0,0.7704610625832997,0.0,-0.25964316533310006
803,0.7936,0.00705585,1218.02,0.00740029,-2.65865e-14,-8.51989e-15,-2.20631e-14,-0.26857,0.571865,-0.300953,0.0,0.0,0.0,0.593683,-0.23552809209670145,0.0,0.0,0.7715679466126419,0.0,-0.25988744278054454
804,0.7946,0.00704176,1218.24,0.0073856,3.56484e-14,2.26751e-14,-5.47685e-14,-0.268864,0.572489,-0.301283,0.0,0.0,0.0,0.594337,-0.2357528138019157,0.0,0.0,0.7726737499860998,0.0,-0.26013163962973074
805,0.7956,0.00702772,1218.46,0.00737094,3.18205e-14,4.43703e-14,-5.30852e-14,-0.269158,0.573113,-0.301613,0.0,0.0,0.0,0.594991,-0.23597746944865972,0.0,0.0,0.773780243596194,0.0,-0.2603757559072518
806,0.7966,0.00701372,1218.68,0.00735632,4.23012e-15,2.4007e-14,-2.16831e-14,-0.269452,0.573737,-0.301942,0.0,0.0,0.0,0.595644,-0.23620205905635172,0.0,0.0,0.7748874278737667,0.0,-0.26061905225911386
807,0.7976,0.00699975,1218.9,0.00734174,4.72542e-15,2.87566e-14,8.73351e-15,-0.269745,0.57436,-0.302271,0.0,0.0,0.0,0.596296,-0.23642581907060534,0.0,0.0,0.7759935272555136,0.0,-0.2608622685796421
808,0.7986,0.00698582,1219.12,0.0073272,5.16009e-15,1.34132e-14,-5.29608e-14,-0.270039,0.574983,-0.3026,0.0,0.0,0.0,0.596949,-0.23665027688288343,0.0,0.0,0.7771003159518748,0.0,-0.2611054048951623
809,0.7996,0.00697193,1219.33,0.00731269,-3.01096e-14,5.60206e-15,-5.24658e-14,-0.270332,0.575606,-0.302929,0.0,0.0,0.0,0.597601,-0.23687390558855148,0.0,0.0,0.7782077943924266,0.0,-0.26134846123199207
810,0.8006,0.00695807,1219.55,0.00729823,1.18698e-15,1.11761e-14,-5.3909e-14,-0.270625,0.576228,-0.303258,0.0,0.0,0.0,0.598252,-0.237097468780607,0.0,0.0,0.7793141836919404,0.0,-0.2615914376164399
811,0.8016,0.00694425,1219.77,0.0072838,3.46989e-15,-3.45751e-15,9.45052e-15,-0.270918,0.57685,-0.303586,0.0,0.0,0.0,0.598903,-0.23732096647824263,0.0,0.0,0.780421261379665,0.0,-0.26183359590877064
812,0.8026,0.00693047,1219.98,0.00726942,-2.2574e-14,-4.47648e-15,1.08647e-14,-0.271211,0.577471,-0.303914,0.0,0.0,0.0,0.599554,-0.23754439870064548,0.0,0.0,0.7815272463557743,0.0,-0.2620756747862064
813,0.8036,0.00691673,1220.2,0.00725507,4.15628e-14,1.76078e-14,-5.3469e-14,-0.271503,0.578092,-0.304242,0.0,0.0,0.0,0.600204,-0.23776700323438127,0.0,0.0,0.7826339183618543,0.0,-0.2623176742747908
814,0.8046,0.00690302,1220.42,0.00724076,8.50189e-15,4.09535e-14,-5.15102e-14,-0.271796,0.578713,-0.30457,0.0,0.0,0.0,0.600854,-0.23799030478715866,0.0,0.0,0.7837412778246833,0.0,-0.2625595944005591
815,0.8056,0.00688935,1220.63,0.00722649,7.12431e-14,-2.65019e-14,-5.40298e-14,-0.272088,0.579333,-0.304898,0.0,0.0,0.0,0.601503,-0.23821277913532524,0.0,0.0,0.7848475403228716,0.0,-0.26280143518953814
816,0.8066,0.00687571,1220.85,0.00721225,-1.59444e-16,3.45336e-15,1.17116e-14,-0.27238,0.579953,-0.305225,0.0,0.0,0.0,0.602152,-0.23843518853046575,0.0,0.0,0.7859544889164767,0.0,-0.2630424597105743
817,0.8076,0.00686211,1221.06,0.00719805,9.41228e-15,9.31801e-15,-5.36768e-14,-0.272672,0.580572,-0.305552,0.0,0.0,0.0,0.602801,-0.23865753299154369,0.0,0.0,0.7870603369697786,0.0,-0.2632834054294768
818,0.8086,0.00684855,1221.27,0.00718389,-1.21257e-15,2.63777e-14,1.06195e-14,-0.272963,0.581191,-0.30588,0.0,0.0,0.0,0.603449,-0.23887905141694898,0.0,0.0,0.7881668697549282,0.0,-0.2635250088473694
819,0.8096,0.00683502,1221.49,0.00716977,-5.85951e-14,-1.59239e-14,1.09713e-14,-0.273255,0.58181,-0.306206,0.0,0.0,0.0,0.604097,-0.2391012662889851,0.0,0.0,0.7892740876959059,0.0,-0.26376506056392934
820,0.8106,0.00682153,1221.7,0.00715569,2.30524e-15,-1.26253e-14,-5.38616e-14,-0.273546,0.582428,-0.306533,0.0,0.0,0.0,0.604745,-0.2393226556067869,0.0,0.0,0.7903802008358576,0.0,-0.26400577003098225
821,0.8116,0.00680808,1221.92,0.00714164,-3.2201e-14,1.75333e-14,1.23421e-14,-0.273837,0.583046,-0.306859,0.0,0.0,0.0,0.605392,-0.23954398050967018,0.0,0.0,0.7914869977649994,0.0,-0.2642456650449403
822,0.8126,0.00679466,1222.13,0.00712763,6.47174e-15,1.77988e-14,-5.31496e-14,-0.274128,0.583664,-0.307186,0.0,0.0,0.0,0.606038,-0.23976524101637675,0.0,0.0,0.7925944789060428,0.0,-0.2644862173800203
823,0.8136,0.00678128,1222.34,0.00711365,8.57794e-15,-1.34377e-14,-5.26601e-14,-0.274419,0.584281,-0.307512,0.0,0.0,0.0,0.606685,-0.23998643714564327,0.0,0.0,0.7937008509802144,0.0,-0.26472595579366975
824,0.8146,0.00676793,1222.55,0.00709972,4.71792e-15,-9.52722e-15,-5.22351e-14,-0.27471,0.584898,-0.307837,0.0,0.0,0.0,0.607331,-0.24020756891620076,0.0,0.0,0.7948079058965904,0.0,-0.2649648810305828
825,0.8156,0.00675461,1222.77,0.00708582,5.13236e-15,-1.0836e-14,-5.18659e-14,-0.275,0.585514,-0.308163,0.0,0.0,0.0,0.607976,-0.24042787677503152,0.0,0.0,0.795913848161869,0.0,-0.2652044634253147
826,0.8166,0.00674134,1222.98,0.00707195,-2.78189e-14,3.55053e-14,1.2227e-14,-0.27529,0.58613,-0.308488,0.0,0.0,0.0,0.608621,-0.24064812075384623,0.0,0.0,0.7970204718974545,0.0,-0.26544323317251584
827,0.8176,0.00672809,1223.19,0.00705813,7.00961e-15,-3.02307e-15,-5.23137e-14,-0.27558,0.586746,-0.308814,0.0,0.0,0.0,0.609266,-0.24086830087116762,0.0,0.0,0.7981277775232616,0.0,-0.26568265964986537
828,0.8186,0.00671489,1223.4,0.00704434,-5.80577e-14,-2.42861e-14,-5.00623e-14,-0.27587,0.587361,-0.309139,0.0,0.0,0.0,0.60991,-0.24108841714551255,0.0,0.0,0.7992339662245984,0.0,-0.2659212740085455
829,0.8196,0.00670171,1223.61,0.00703058,-5.90854e-14,-1.2782e-14,1.23979e-14,-0.27616,0.587976,-0.309463,0.0,0.0,0.0,0.610554,-0.24130846959539287,0.0,0.0,0.8003408354412236,0.0,-0.2661590769896035
830,0.8206,0.00668858,1223.82,0.00701686,4.64526e-14,-6.94612e-15,-5.26395e-14,-0.276449,0.58859,-0.309788,0.0,0.0,0.0,0.611197,-0.24152769976739408,0.0,0.0,0.8014465841442975,0.0,-0.2663975365378064
831,0.8216,0.00667547,1224.03,0.00700318,4.55311e-16,-1.32992e-15,1.39259e-14,-0.276739,0.589205,-0.310112,0.0,0.0,0.0,0.611841,-0.2417476248437842,0.0,0.0,0.8025548145394628,0.0,-0.26663518523480023
832,0.8226,0.0066624,1224.24,0.00698953,-5.93059e-14,-2.09375e-14,-5.03828e-14,-0.277028,0.589818,-0.310437,0.0,0.0,0.0,0.612483,-0.24196672811825615,0.0,0.0,0.803660119382098,0.0,-0.26687349007296524
833,0.8236,0.00664937,1224.45,0.00697592,3.57797e-14,-2.61567e-14,1.07277e-14,-0.277317,0.590432,-0.31076,0.0,0.0,0.0,0.613126,-0.24218576808103087,0.0,0.0,0.8047679067513185,0.0,-0.26711025169661096
834,0.8246,0.00663637,1224.66,0.00696235,-5.34894e-14,3.082e-14,-1.60852e-14,-0.277606,0.591045,-0.311084,0.0,0.0,0.0,0.613767,-0.24240474475040263,0.0,0.0,0.8058745686353705,0.0,-0.2673476695112984
835,0.8256,0.0066234,1224.87,0.00694881,-2.55568e-14,-4.81512e-15,-5.24697e-14,-0.277894,0.591657,-0.311408,0.0,0.0,0.0,0.614409,-0.24262290076794002,0.0,0.0,0.8069801021301188,0.0,-0.2675850104150741
836,0.8266,0.00661047,1225.08,0.0069353,3.8097e-14,-2.8826e-14,-5.16234e-14,-0.278183,0.59227,-0.311731,0.0,0.0,0.0,0.61505,-0.24284175112421846,0.0,0.0,0.80808812050566,0.0,-0.2678215422547614
837,0.8276,0.00659757,1225.29,0.00692183,2.61867e-15,1.88125e-14,-1.80268e-14,-0.278471,0.592881,-0.312055,0.0,0.0,0.0,0.615691,-0.2430597813020421,0.0,0.0,0.8091931999146693,0.0,-0.2680587296486382
838,0.8286,0.00658471,1225.5,0.0069084,-6.03083e-14,-3.95281e-15,-4.99286e-14,-0.278759,0.593493,-0.312378,0.0,0.0,0.0,0.616331,-0.24327774869621566,0.0,0.0,0.8103007650333742,0.0,-0.2682951085017218
839,0.8296,0.00657188,1225.7,0.006895,-5.82683e-14,2.86176e-14,-5.17682e-14,-0.279047,0.594104,-0.3127,0.0,0.0,0.0,0.616971,-0.24349565332481848,0.0,0.0,0.8114071967812873,0.0,-0.2685306795478104
840,0.8306,0.00655908,1225.91,0.00688164,-5.71865e-14,2.58642e-14,-4.96057e-14,-0.279335,0.594715,-0.313023,0.0,0.0,0.0,0.617611,-0.24371349520592434,0.0,0.0,0.8125143047655676,0.0,-0.26876690598569297
841,0.8316,0.00654632,1226.12,0.00686831,1.33729e-14,-2.59753e-14,1.37948e-14,-0.279622,0.595325,-0.313345,0.0,0.0,0.0,0.61825,-0.2439305182884982,0.0,0.0,0.8136202757783393,0.0,-0.26900232513744804
842,0.8326,0.00653359,1226.33,0.00685501,-1.9133e-14,-1.19546e-15,-8.24473e-14,-0.27991,0.595935,-0.313668,0.0,0.0,0.0,0.618889,-0.2441482349465275,0.0,0.0,0.8147269216392363,0.0,-0.26923839925840565
843,0.8336,0.00652089,1226.53,0.00684175,2.06751e-15,1.57987e-14,-4.94473e-14,-0.280197,0.596545,-0.31399,0.0,0.0,0.0,0.619527,-0.24436513327669862,0.0,0.0,0.815834242760042,0.0,-0.2694736666137675
844,0.8346,0.00650822,1226.74,0.00682853,-6.05694e-14,2.41411e-14,-4.94701e-14,-0.280484,0.597154,-0.314311,0.0,0.0,0.0,0.620165,-0.2445819693659811,0.0,0.0,0.8169404226114592,0.0,-0.26970812793372934
845,0.8356,0.00649559,1226.94,0.00681534,7.29863e-15,1.22774e-14,-5.04285e-14,-0.280771,0.597763,-0.314633,0.0,0.0,0.0,0.620803,-0.24479874323223527,0.0,0.0,0.818047276331578,0.0,-0.2699432440608067
846,0.8366,0.006483,1227.15,0.00680218,-5.69277e-14,-3.04294e-15,-4.65601e-14,-0.281057,0.598372,-0.314955,0.0,0.0,0.0,0.62144,-0.2450146999083942,0.0,0.0,0.8191548043309098,0.0,-0.2701782844926788
847,0.8376,0.00647043,1227.35,0.00678906,-2.57433e-14,5.03405e-15,1.27207e-14,-0.281344,0.59898,-0.315276,0.0,0.0,0.0,0.622077,-0.24523134959880277,0.0,0.0,0.8202611867581182,0.0,-0.27041251966659985
848,0.8386,0.0064579,1227.56,0.00677597,-2.40277e-14,3.6076e-14,1.52996e-14,-0.28163,0.599588,-0.315597,0.0,0.0,0.0,0.622713,-0.24544718256723186,0.0,0.0,0.821368242070379,0.0,-0.27064667966309686
849,0.8396,0.0064454,1227.76,0.00676291,8.25452e-15,9.47021e-15,-4.8266e-14,-0.281916,0.600195,-0.315918,0.0,0.0,0.0,0.623349,-0.24566295381625824,0.0,0.0,0.8224741482018707,0.0,-0.2708807645062976
850,0.8406,0.00643293,1227.97,0.00674989,-5.72885e-14,1.11816e-15,-4.75133e-14,-0.282202,0.600802,-0.316238,0.0,0.0,0.0,0.623985,-0.24587866336353115,0.0,0.0,0.8235807258221606,0.0,-0.2711140453347324
851,0.8416,0.0064205,1228.17,0.0067369,-5.65975e-14,-4.99061e-16,-4.87391e-14,-0.282488,0.601409,-0.316559,0.0,0.0,0.0,0.62462,-0.2460943112266949,0.0,0.0,0.8246879753389658,0.0,-0.27134798017762884
852,0.8426,0.00640809,1228.38,0.00672395,4.60883e-15,-3.65701e-14,-5.12129e-14,-0.282774,0.602015,-0.316879,0.0,0.0,0.0,0.625255,-0.24630989742338838,0.0,0.0,0.8257940713652674,0.0,-0.27158111152096776
853,0.8436,0.00639572,1228.58,0.00671103,6.53858e-15,-1.66934e-15,1.81136e-14,-0.283059,0.602621,-0.317199,0.0,0.0,0.0,0.62589,-0.24652466849629107,0.0,0.0,0.8269008378889009,0.0,-0.2718141682742118
854,0.8446,0.00638339,1228.78,0.00669814,-9.08023e-14,-1.92588e-14,-4.77049e-14,-0.283345,0.603226,-0.317519,0.0,0.0,0.0,0.626524,-0.24674013162840458,0.0,0.0,0.8280064473089501,0.0,-0.27204715046122596
855,0.8456,0.00637108,1228.99,0.00668529,8.10865e-15,4.01347e-14,-4.93791e-14,-0.28363,0.603832,-0.317839,0.0,0.0,0.0,0.627158,-0.2469547801020301,0.0,0.0,0.8291145549387198,0.0,-0.27228005810586775
856,0.8466,0.00635881,1229.19,0.00667247,1.08275e-14,-1.19469e-14,1.73704e-14,-0.283915,0.604437,-0.318158,0.0,0.0,0.0,0.627791,-0.2471693674095572,0.0,0.0,0.8302215040628034,0.0,-0.27251216374451437
857,0.8476,0.00634656,1229.39,0.00665968,-5.40897e-14,4.28573e-15,-4.83549e-14,-0.2842,0.605041,-0.318478,0.0,0.0,0.0,0.628424,-0.24738389356841572,0.0,0.0,0.8313272917655261,0.0,-0.27274492260871164
858,0.8486,0.00633435,1229.59,0.00664692,4.07272e-14,2.16783e-14,-5.0419e-14,-0.284484,0.605645,-0.318797,0.0,0.0,0.0,0.629057,-0.24759760619401305,0.0,0.0,0.8324337475657664,0.0,-0.2729768799792318
859,0.8496,0.00632217,1229.8,0.0066342,-1.6986e-14,-6.56453e-16,-1.41005e-14,-0.284769,0.606249,-0.319116,0.0,0.0,0.0,0.629689,-0.24781201032220823,0.0,0.0,0.8335408718671771,0.0,-0.2732087633671517
860,0.8506,0.00631002,1230.0,0.00662151,1.28231e-14,-7.04874e-15,-1.68868e-14,-0.285053,0.606852,-0.319434,0.0,0.0,0.0,0.630321,-0.24802560137991092,0.0,0.0,0.8346468304259069,0.0,-0.2734398462362774
861,0.8516,0.00629791,1230.2,0.00660886,4.19818e-14,-1.14172e-14,-4.84853e-14,-0.285337,0.607455,-0.319753,0.0,0.0,0.0,0.630952,-0.24823913178636614,0.0,0.0,0.8357534560787565,0.0,-0.27367158196151475
862,0.8526,0.00628582,1230.4,0.00659623,4.02399e-14,-1.69711e-14,1.7237e-14,-0.285621,0.608058,-0.320071,0.0,0.0,0.0,0.631584,-0.24845260155879634,0.0,0.0,0.8368607492281048,0.0,-0.273902517677726
863,0.8536,0.00627377,1230.6,0.00658364,1.02813e-14,-4.15343e-14,-4.80087e-14,-0.285905,0.60866,-0.320389,0.0,0.0,0.0,0.632214,-0.24866601071441907,0.0,0.0,0.8379668723087821,0.0,-0.27413337996805476
864,0.8546,0.00626174,1230.8,0.00657108,6.54015e-15,1.55954e-15,1.62466e-14,-0.286188,0.609262,-0.320707,0.0,0.0,0.0,0.632845,-0.24887860814943097,0.0,0.0,0.8390736614760259,0.0,-0.274364168855847
865,0.8556,0.00624975,1231.0,0.00655855,-4.76349e-14,1.89847e-15,-4.65213e-14,-0.286472,0.609864,-0.321025,0.0,0.0,0.0,0.633475,-0.24909189633636042,0.0,0.0,0.840181117130941,0.0,-0.2745948843644407
866,0.8566,0.00623779,1231.2,0.00654606,7.76258e-15,1.5577e-14,-4.93112e-14,-0.286755,0.610465,-0.321343,0.0,0.0,0.0,0.634104,-0.2493043732627941,0.0,0.0,0.841287398386555,0.0,-0.27482552651716685
867,0.8576,0.00622586,1231.4,0.00653359,8.39097e-15,8.86319e-15,-1.40659e-14,-0.287038,0.611066,-0.32166,0.0,0.0,0.0,0.634733,-0.2495167900667652,0.0,0.0,0.8423943447170386,0.0,-0.2750553703930819
868,0.8586,0.00621396,1231.6,0.00652116,-2.68955e-14,9.63347e-15,-1.44913e-14,-0.287321,0.611666,-0.321977,0.0,0.0,0.0,0.635362,-0.24972914676528624,0.0,0.0,0.843500113021187,0.0,-0.27528514142003535
869,0.8596,0.00620209,1231.8,0.00650876,-5.32629e-14,2.73289e-14,1.66944e-14,-0.287604,0.612266,-0.322294,0.0,0.0,0.0,0.635991,-0.2499414433753644,0.0,0.0,0.8446065449853959,0.0,-0.2755148396211169
870,0.8606,0.00619025,1232.0,0.00649639,6.62081e-15,1.0365e-14,-4.8496e-14,-0.287886,0.612866,-0.322611,0.0,0.0,0.0,0.636619,-0.25015293006730743,0.0,0.0,0.8457136410079811,0.0,-0.2757444650194084
871,0.8616,0.00617844,1232.2,0.00648406,-2.51185e-14,-6.2078e-15,2.00915e-14,-0.288169,0.613466,-0.322928,0.0,0.0,0.0,0.637246,-0.25036510676367985,0.0,0.0,0.8468214014874968,0.0,-0.2759740176379849
872,0.8626,0.00616666,1232.39,0.00647175,9.96116e-15,2.44345e-14,1.85255e-14,-0.288451,0.614065,-0.323244,0.0,0.0,0.0,0.637874,-0.25057647399939154,0.0,0.0,0.8479279788938343,0.0,-0.27620277370304946
873,0.8636,0.00615491,1232.59,0.00645948,3.39946e-15,-2.28293e-14,-8.03677e-14,-0.288733,0.614663,-0.32356,0.0,0.0,0.0,0.638501,-0.25078778163794635,0.0,0.0,0.8490333703043034,0.0,-0.27643145749261766
874,0.8646,0.0061432,1232.79,0.00644724,-5.78588e-14,-2.84553e-14,-4.58022e-14,-0.289015,0.615262,-0.323877,0.0,0.0,0.0,0.639127,-0.2509990296961483,0.0,0.0,0.8501412730768698,0.0,-0.27666079236909413
875,0.8656,0.00613151,1232.99,0.00643502,-5.88878e-14,2.62336e-14,-4.6819e-14,-0.289296,0.61586,-0.324192,0.0,0.0,0.0,0.639754,-0.2512094694006405,0.0,0.0,0.8512479884330808,0.0,-0.2768886083365991
876,0.8666,0.00611985,1233.18,0.00642284,-8.94454e-14,-2.8868e-15,-1.28268e-14,-0.289578,0.616457,-0.324508,0.0,0.0,0.0,0.640379,-0.2514205985596589,0.0,0.0,0.8523535134485576,0.0,-0.27711707543666186
877,0.8676,0.00610822,1233.38,0.00641069,4.40208e-14,1.81671e-14,-4.92231e-14,-0.289859,0.617055,-0.324824,0.0,0.0,0.0,0.641005,-0.25163091981994257,0.0,0.0,0.8534615521201427,0.0,-0.27734547035252666
878,0.8686,0.00609662,1233.58,0.00639858,-5.23568e-14,-4.52468e-15,-4.36695e-14,-0.290141,0.617651,-0.325139,0.0,0.0,0.0,0.64163,-0.251841930146699,0.0,0.0,0.8545665444602142,0.0,-0.2775730706804319
879,0.8696,0.00608505,1233.77,0.00638649,5.75509e-15,-6.65751e-15,-1.57325e-14,-0.290422,0.618248,-0.325454,0.0,0.0,0.0,0.642255,-0.2520521330294395,0.0,0.0,0.8556740512451386,0.0,-0.2778005993255247
880,0.8706,0.00607351,1233.97,0.00637443,-5.48364e-14,2.63685e-14,-4.23246e-14,-0.290703,0.618844,-0.325769,0.0,0.0,0.0,0.642879,-0.25226227685346825,0.0,0.0,0.8567803626277244,0.0,-0.2780280563103812
881,0.8716,0.006062,1234.16,0.0063624,-2.39262e-14,-1.21052e-14,1.84499e-14,-0.290983,0.61944,-0.326084,0.0,0.0,0.0,0.643503,-0.25247161410736607,0.0,0.0,0.8578873335684232,0.0,-0.278255441657571
882,0.8726,0.00605052,1234.36,0.00635041,1.10453e-14,-3.00641e-15,1.95091e-14,-0.291264,0.620035,-0.326398,0.0,0.0,0.0,0.644127,-0.2526816400737716,0.0,0.0,0.8589931054664133,0.0,-0.27848203387205117
883,0.8736,0.00603907,1234.55,0.00633844,-2.48072e-14,-6.01398e-15,-4.55954e-14,-0.291544,0.620631,-0.326713,0.0,0.0,0.0,0.64475,-0.25289085992240523,0.0,0.0,0.8601013955949228,0.0,-0.2787092762388297
884,0.8746,0.00602764,1234.75,0.00632651,1.0024e-14,6.7884e-15,-4.68882e-14,-0.291824,0.621225,-0.327027,0.0,0.0,0.0,0.645373,-0.25310002119768193,0.0,0.0,0.8612066240442586,0.0,-0.2789357259716221
885,0.8756,0.00601625,1234.94,0.0063146,-5.51464e-14,2.29865e-14,-4.3768e-14,-0.292104,0.62182,-0.327341,0.0,0.0,0.0,0.645995,-0.2533091239159998,0.0,0.0,0.8623143715077546,0.0,-0.2791621046103606
886,0.8766,0.00600488,1235.14,0.00630272,4.78331e-14,-1.46518e-14,-4.85964e-14,-0.292384,0.622414,-0.327655,0.0,0.0,0.0,0.646617,-0.2535181680937527,0.0,0.0,0.8634209148552687,0.0,-0.27938841217736554
887,0.8776,0.00599355,1235.33,0.00629088,1.10678e-14,1.53403e-14,-4.40743e-14,-0.292664,0.623008,-0.327968,0.0,0.0,0.0,0.647239,-0.25372715374732957,0.0,0.0,0.8645281156847839,0.0,-0.27961392830923826
888,0.8786,0.00598224,1235.53,0.00627906,-5.08737e-14,6.91369e-16,-4.55585e-14,-0.292944,0.623601,-0.328282,0.0,0.0,0.0,0.647861,-0.2539360808931149,0.0,0.0,0.8656341087519193,0.0,-0.2798400940258734
889,0.8796,0.00597096,1235.72,0.00626728,-5.53673e-14,3.07924e-14,-1.07511e-14,-0.293223,0.624194,-0.328595,0.0,0.0,0.0,0.648482,-0.25414420369206525,0.0,0.0,0.8667407578674426,0.0,-0.2800654688034506
890,0.8806,0.00595971,1235.91,0.00625552,1.31987e-14,-1.06869e-14,-4.64826e-14,-0.293502,0.624787,-0.328908,0.0,0.0,0.0,0.649102,-0.2543522684328542,0.0,0.0,0.8678480634205059,0.0,-0.28029077304976124
891,0.8816,0.00594849,1236.11,0.0062438,1.18274e-14,-1.47681e-14,-4.52986e-14,-0.293781,0.625379,-0.329221,0.0,0.0,0.0,0.649723,-0.25456027513167767,0.0,0.0,0.8689541568454009,0.0,-0.28051600678687794
892,0.8826,0.00593729,1236.3,0.0062321,-5.33171e-14,1.94331e-14,-7.80152e-14,-0.29406,0.625971,-0.329534,0.0,0.0,0.0,0.650342,-0.2547682238047271,0.0,0.0,0.8700609052714645,0.0,-0.2807411700368668
893,0.8836,0.00592613,1236.49,0.00622043,9.98978e-15,5.64212e-15,2.18655e-14,-0.294339,0.626562,-0.329846,0.0,0.0,0.0,0.650962,-0.2549761144681896,0.0,0.0,0.8711664379191988,0.0,-0.28096554378769
894,0.8846,0.00591499,1236.68,0.00620879,1.49822e-14,1.32095e-14,-4.37722e-14,-0.294617,0.627154,-0.330158,0.0,0.0,0.0,0.651581,-0.255183202321822,0.0,0.0,0.872274496403397,0.0,-0.2811898475448227
895,0.8856,0.00590388,1236.87,0.00619718,1.02976e-14,-1.70334e-15,2.19881e-14,-0.294896,0.627745,-0.330471,0.0,0.0,0.0,0.6522,-0.25539097722242776,0.0,0.0,0.8733813376701494,0.0,-0.28141479991565854
896,0.8866,0.0058928,1237.07,0.0061856,1.4536e-14,1.05726e-14,-4.4379e-14,-0.295174,0.628335,-0.330782,0.0,0.0,0.0,0.652819,-0.2555979497602442,0.0,0.0,0.8744869587855315,0.0,-0.2816382451653474
897,0.8876,0.00588174,1237.26,0.00617405,-6.02916e-14,-1.37568e-14,2.38272e-14,-0.295452,0.628925,-0.331094,0.0,0.0,0.0,0.653437,-0.25580486476769226,0.0,0.0,0.8755932324098428,0.0,-0.28186233907238856
898,0.8886,0.00587072,1237.45,0.00616253,-8.43439e-14,-5.53515e-15,-1.10319e-13,-0.29573,0.629515,-0.331406,0.0,0.0,0.0,0.654054,-0.2560117222607631,0.0,0.0,0.8767001589281778,0.0,-0.2820863630730365
899,0.8896,0.00585972,1237.64,0.00615104,1.45992e-15,-2.81288e-14,2.1345e-14,-0.296008,0.630105,-0.331717,0.0,0.0,0.0,0.654672,-0.2562185222554434,0.0,0.0,0.8778077387258565,0.0,-0.2823095994990573
900,0.8906,0.00584875,1237.83,0.00613957,1.5105e-14,9.2455e-15,-4.37625e-14,-0.296285,0.630694,-0.332028,0.0,0.0,0.0,0.655289,-0.2564245211926087,0.0,0.0,0.8789140932733954,0.0,-0.2825327665093442
901,0.8916,0.00583781,1238.02,0.00612814,-6.26845e-14,2.32763e-14,-4.24617e-14,-0.296563,0.631283,-0.332339,0.0,0.0,0.0,0.655905,-0.25663120644513593,0.0,0.0,0.8800210996557094,0.0,-0.28275586412548237
902,0.8926,0.00582689,1238.21,0.00611673,-5.03041e-14,8.95395e-16,-4.39241e-14,-0.29684,0.631871,-0.33265,0.0,0.0,0.0,0.656522,-0.2568370910846116,0.0,0.0,0.8811268771290244,0.0,-0.28297889236904983
903,0.8936,0.005816,1238.4,0.00610535,-5.75644e-14,-3.42734e-15,-4.26004e-14,-0.297117,0.632459,-0.332961,0.0,0.0,0.0,0.657138,-0.25704291870194007,0.0,0.0,0.8822333049906892,0.0,-0.2832018512616181
904,0.8946,0.00580514,1238.59,0.006094,-5.4171e-14,1.38151e-14,-4.26254e-14,-0.297394,0.633047,-0.333272,0.0,0.0,0.0,0.657753,-0.25724868931291434,0.0,0.0,0.8833403836232447,0.0,-0.2834247408247522
905,0.8956,0.00579431,1238.78,0.00608268,-5.35626e-14,-3.59999e-15,-4.26462e-14,-0.297671,0.633635,-0.333582,0.0,0.0,0.0,0.658368,-0.2574544029333229,0.0,0.0,0.8844481134094562,0.0,-0.283646844727213
906,0.8966,0.0057835,1238.97,0.00607138,1.36219e-14,1.36661e-14,-4.24269e-14,-0.297947,0.634222,-0.333892,0.0,0.0,0.0,0.658983,-0.25765931723863833,0.0,0.0,0.8855546091767632,0.0,-0.283868879788135
907,0.8976,0.00577272,1239.16,0.00606012,-4.98646e-14,-2.78755e-14,-4.01072e-14,-0.298224,0.634808,-0.334202,0.0,0.0,0.0,0.659598,-0.25786491713086357,0.0,0.0,0.886659867986944,0.0,-0.2840908460288558
908,0.8986,0.00576197,1239.34,0.00604888,-2.28987e-14,-1.07453e-14,-4.25718e-14,-0.2985,0.635395,-0.334512,0.0,0.0,0.0,0.660212,-0.25806971814989477,0.0,0.0,0.8877676624353137,0.0,-0.28431274347070623
909,0.8996,0.00575125,1239.53,0.00603767,1.27364e-14,-4.66977e-15,2.47769e-14,-0.298776,0.635981,-0.334821,0.0,0.0,0.0,0.660825,-0.25827446265164444,0.0,0.0,0.8888742184747547,0.0,-0.28453385666922537
910,0.9006,0.00574055,1239.72,0.00602649,2.36858e-14,-4.04225e-14,-4.19454e-14,-0.299052,0.636567,-0.335131,0.0,0.0,0.0,0.661439,-0.2584791506517091,0.0,0.0,0.8899814231460654,0.0,-0.2847556167990618
911,0.9016,0.00572988,1239.91,0.00601533,-4.863e-14,-1.19623e-14,-1.07074e-13,-0.299328,0.637152,-0.33544,0.0,0.0,0.0,0.662052,-0.25868378216568133,0.0,0.0,0.8910873857411243,0.0,-0.2849765931708632
912,0.9026,0.00571923,1240.1,0.00600421,-5.03314e-14,-2.466e-15,-4.19453e-14,-0.299604,0.637737,-0.335749,0.0,0.0,0.0,0.662665,-0.25888835720914904,0.0,0.0,0.892193995513582,0.0,-0.2851975012715142
913,0.9036,0.00570861,1240.28,0.00599311,2.01298e-14,-1.23383e-14,-4.22806e-14,-0.299879,0.638322,-0.336058,0.0,0.0,0.0,0.663277,-0.2590921348902011,0.0,0.0,0.8933012528421485,0.0,-0.2854183411221072
914,0.9046,0.00569802,1240.47,0.00598204,-1.9147e-14,-2.4794e-14,-6.38743e-15,-0.300154,0.638906,-0.336366,0.0,0.0,0.0,0.663889,-0.25929585654009557,0.0,0.0,0.8944072636975438,0.0,-0.28563839838248384
915,0.9056,0.00568745,1240.66,0.00597099,-5.51597e-14,2.28932e-14,-4.19642e-14,-0.30043,0.63949,-0.336675,0.0,0.0,0.0,0.664501,-0.25950026267434645,0.0,0.0,0.8955139206519211,0.0,-0.2858591020169161
916,0.9066,0.00567691,1240.84,0.00595998,7.93013e-15,2.48307e-14,-4.25346e-14,-0.300705,0.640074,-0.336983,0.0,0.0,0.0,0.665112,-0.25970387210453116,0.0,0.0,0.8966212240827127,0.0,-0.2860790235438412
917,0.9076,0.0056664,1241.03,0.00594899,-4.62815e-14,-1.16195e-14,2.84121e-14,-0.300979,0.640657,-0.337291,0.0,0.0,0.0,0.665723,-0.25990668545687634,0.0,0.0,0.8977272766393454,0.0,-0.2862988773453662
918,0.9086,0.00565591,1241.21,0.00593802,-1.75376e-14,-9.52119e-16,-9.19035e-15,-0.301254,0.64124,-0.337599,0.0,0.0,0.0,0.666333,-0.2601101831361624,0.0,0.0,0.8988339742126223,0.0,-0.28651866344234744
919,0.9096,0.00564545,1241.4,0.00592709,-5.18138e-14,2.54594e-15,-4.01622e-14,-0.301529,0.641823,-0.337907,0.0,0.0,0.0,0.666943,-0.2603136248612806,0.0,0.0,0.8999413171786985,0.0,-0.2867383818556346
920,0.9106,0.00563501,1241.59,0.00591618,1.861e-14,3.3872e-16,2.52908e-14,-0.301803,0.642405,-0.338215,0.0,0.0,0.0,0.667553,-0.26051627116425724,0.0,0.0,0.9010474048655919,0.0,-0.286958032606071
921,0.9116,0.0056246,1241.77,0.0059053,-1.61621e-14,-3.11836e-14,-3.96069e-14,-0.302077,0.642987,-0.338522,0.0,0.0,0.0,0.668163,-0.26071886194975324,0.0,0.0,0.9021541364828845,0.0,-0.2871769028917531
922,0.9126,0.00561422,1241.96,0.00589444,-5.61232e-14,-2.22895e-15,-4.14338e-14,-0.302351,0.643569,-0.338829,0.0,0.0,0.0,0.668772,-0.260921397232978,0.0,0.0,0.903261512405453,0.0,-0.28739570599457054
923,0.9136,0.00560386,1242.14,0.00588362,-5.17076e-14,2.56073e-14,-3.92428e-14,-0.302625,0.64415,-0.339137,0.0,0.0,0.0,0.669381,-0.2611238770291373,0.0,0.0,0.9043676286398117,0.0,-0.28761515432034723
924,0.9146,0.00559353,1242.32,0.00587282,-5.35594e-14,1.03854e-14,-1.08579e-13,-0.302899,0.644731,-0.339443,0.0,0.0,0.0,0.669989,-0.2613263013534325,0.0,0.0,0.9054743877144293,0.0,-0.28783311073409323
925,0.9156,0.00558322,1242.51,0.00586204,1.53846e-14,-4.70895e-14,-7.56974e-14,-0.303172,0.645311,-0.33975,0.0,0.0,0.0,0.670597,-0.26152793174936173,0.0,0.0,0.9065798834220682,0.0,-0.2880517124120233
926,0.9166,0.00557294,1242.69,0.00585129,2.08281e-14,-1.25515e-14,-3.93617e-14,-0.303446,0.645892,-0.340057,0.0,0.0,0.0,0.671205,-0.2617302453778295,0.0,0.0,0.9076879281901722,0.0,-0.28827024698953885
927,0.9176,0.00556268,1242.88,0.00584057,2.32617e-14,-2.32572e-15,-1.42074e-13,-0.303719,0.646472,-0.340363,0.0,0.0,0.0,0.671812,-0.2619317655120915,0.0,0.0,0.9087947081236765,0.0,-0.28848800297559507
928,0.9186,0.00555245,1243.06,0.00582988,1.4366e-14,4.00579e-14,-3.9629e-14,-0.303992,0.647051,-0.340669,0.0,0.0,0.0,0.672419,-0.2621332306388656,0.0,0.0,0.9099002202745634,0.0,-0.2887056923385133
929,0.9196,0.00554225,1243.24,0.00581921,-8.88813e-14,1.00646e-14,-3.64503e-14,-0.304265,0.647631,-0.340975,0.0,0.0,0.0,0.673026,-0.2623346407731669,0.0,0.0,0.9110082837096558,0.0,-0.2889233150986773
930,0.9206,0.00553206,1243.43,0.00580856,-5.17393e-14,2.2154e-14,-4.00632e-14,-0.304538,0.648209,-0.341281,0.0,0.0,0.0,0.673632,-0.2625359959300064,0.0,0.0,0.9121131657777977,0.0,-0.2891408712764644
931,0.9216,0.00552191,1243.61,0.00579795,1.34041e-14,-1.45131e-14,-3.94334e-14,-0.30481,0.648788,-0.341587,0.0,0.0,0.0,0.674238,-0.2627365588613183,0.0,0.0,0.9132205998720151,0.0,-0.2893583608922454
932,0.9226,0.00551178,1243.79,0.00578736,-5.20321e-14,-3.35338e-14,-2.3996e-15,-0.305083,0.649366,-0.341892,0.0,0.0,0.0,0.674844,-0.26293780430949554,0.0,0.0,0.9143267610285195,0.0,-0.2895750735418142
933,0.9236,0.00550167,1243.97,0.00577679,1.84361e-14,-1.58723e-14,-3.98798e-14,-0.305355,0.649944,-0.342197,0.0,0.0,0.0,0.675449,-0.26313825796379053,0.0,0.0,0.9154335617309832,0.0,-0.2897917201041038
934,0.9246,0.00549159,1244.16,0.00576625,-1.72948e-14,2.20793e-14,-3.71414e-14,-0.305627,0.650522,-0.342503,0.0,0.0,0.0,0.676054,-0.263338657102106,0.0,0.0,0.9165410023491709,0.0,-0.290009010590612
935,0.9256,0.00548154,1244.34,0.00575574,-4.68485e-14,-2.43577e-14,-3.75869e-14,-0.305899,0.651099,-0.342807,0.0,0.0,0.0,0.676659,-0.26353900173926836,0.0,0.0,0.9176471656049361,0.0,-0.290224815047453
936,0.9266,0.0054715,1244.52,0.00574525,-5.43445e-14,2.52232e-14,-3.7739e-14,-0.306171,0.651676,-0.343112,0.0,0.0,0.0,0.677263,-0.26373929189010004,0.0,0.0,0.9187539673010725,0.0,-0.2904412634688014
937,0.9276,0.0054615,1244.7,0.00573479,1.63923e-14,4.97598e-14,2.92001e-14,-0.306442,0.652253,-0.343417,0.0,0.0,0.0,0.677867,-0.26393879150857846,0.0,0.0,0.9198614078060658,0.0,-0.2906576458834478
938,0.9286,0.00545152,1244.88,0.00572435,1.18889e-14,1.78738e-14,-3.75779e-14,-0.306714,0.652829,-0.343721,0.0,0.0,0.0,0.67847,-0.26413897293138044,0.0,0.0,0.9209675665200887,0.0,-0.2908732531851289
939,0.9296,0.00544156,1245.06,0.00571394,1.99092e-14,-7.9478e-15,-4.31228e-15,-0.306985,0.653405,-0.344025,0.0,0.0,0.0,0.679073,-0.264338364250972,0.0,0.0,0.9220743625650645,0.0,-0.2910887949521521
940,0.9306,0.00543162,1245.24,0.00570356,9.95597e-15,-3.4021e-14,-3.62955e-15,-0.307257,0.65398,-0.34433,0.0,0.0,0.0,0.679676,-0.26453843700476765,0.0,0.0,0.923179873127367,0.0,-0.2913049798998113
941,0.9316,0.00542171,1245.42,0.0056932,-5.03338e-14,1.0831e-15,-3.64604e-14,-0.307528,0.654556,-0.344633,0.0,0.0,0.0,0.680279,-0.26473772008426255,0.0,0.0,0.9242879438280143,0.0,-0.2915196819618966
942,0.9326,0.00541183,1245.6,0.00568286,2.40416e-14,8.44265e-15,-5.46298e-15,-0.307798,0.655131,-0.344937,0.0,0.0,0.0,0.680881,-0.26493621410194146,0.0,0.0,0.9253947275655456,0.0,-0.2917350272444388
943,0.9336,0.00540197,1245.78,0.00567255,-5.0085e-14,-7.11453e-16,-3.56964e-14,-0.308069,0.655705,-0.345241,0.0,0.0,0.0,0.681483,-0.26513538939844816,0.0,0.0,0.9265002213855418,0.0,-0.2919503070719647
944,0.9346,0.00539213,1245.96,0.00566227,1.80166e-14,-1.0831e-14,-3.96506e-14,-0.30834,0.65628,-0.345544,0.0,0.0,0.0,0.682084,-0.26533451072576275,0.0,0.0,0.927608277548456,0.0,-0.2921648136295373
945,0.9356,0.00538232,1246.14,0.00565201,1.43025e-14,-2.26827e-14,-3.69473e-14,-0.30861,0.656853,-0.345847,0.0,0.0,0.0,0.682685,-0.2655328436317196,0.0,0.0,0.9287131135967901,0.0,-0.2923792552014688
946,0.9366,0.00537253,1246.32,0.00564177,1.72561e-14,1.96114e-15,3.18357e-14,-0.30888,0.657427,-0.34615,0.0,0.0,0.0,0.683286,-0.26573112299502044,0.0,0.0,0.9298205127171371,0.0,-0.2925936318074468
947,0.9376,0.00536276,1246.5,0.00563156,-4.55461e-14,2.55373e-14,-3.6464e-14,-0.30915,0.658,-0.346453,0.0,0.0,0.0,0.683886,-0.26592934883011987,0.0,0.0,0.9309266167394625,0.0,-0.292807943467153
948,0.9386,0.00535302,1246.68,0.00562138,4.85166e-14,1.66195e-14,-3.9853e-14,-0.30942,0.658573,-0.346756,0.0,0.0,0.0,0.684486,-0.2661275211514684,0.0,0.0,0.9320333547410105,0.0,-0.2930221902002633
949,0.9396,0.00534331,1246.86,0.00561122,-5.48289e-14,-2.09109e-15,-3.42808e-14,-0.30969,0.659146,-0.347058,0.0,0.0,0.0,0.685086,-0.266325639973513,0.0,0.0,0.933140727085155,0.0,-0.2932356652624659
950,0.9406,0.00533361,1247.04,0.00560108,-5.06763e-14,-2.56478e-14,-3.91243e-14,-0.30996,0.659718,-0.347361,0.0,0.0,0.0,0.685686,-0.26652370531069636,0.0,0.0,0.934246799887712,0.0,-0.29344978241550457
951,0.9416,0.00532394,1247.21,0.00559097,1.82218e-14,-1.18177e-14,-3.7911e-14,-0.310229,0.66029,-0.347663,0.0,0.0,0.0,0.686285,-0.26672098389880805,0.0,0.0,0.9353535055448909,0.0,-0.29366312836435526
952,0.9426,0.0053143,1247.39,0.00558088,-4.46976e-14,1.27337e-14,3.33994e-14,-0.310499,0.660862,-0.347965,0.0,0.0,0.0,0.686883,-0.26691894250754067,0.0,0.0,0.9364608444187885,0.0,-0.29387640989245756
953,0.9436,0.00530467,1247.57,0.00557082,2.47517e-14,3.81482e-14,-3.88915e-14,-0.310768,0.661433,-0.348267,0.0,0.0,0.0,0.687482,-0.26711611479114494,0.0,0.0,0.9375668793038605,0.0,-0.29408962701926333
954,0.9446,0.00529507,1247.75,0.00556078,5.66555e-14,2.01038e-14,-3.55752e-14,-0.311037,0.662004,-0.348568,0.0,0.0,0.0,0.68808,-0.26731323404253826,0.0,0.0,0.9386735459151923,0.0,-0.2943020740666459
955,0.9456,0.00528549,1247.92,0.00555077,-1.944e-14,5.87078e-15,-3.45653e-14,-0.311306,0.662575,-0.34887,0.0,0.0,0.0,0.688677,-0.2675103002759841,0.0,0.0,0.9397808446136029,0.0,-0.2945151626622803
956,0.9466,0.00527594,1248.1,0.00554078,-1.31954e-14,-2.09508e-14,3.2081e-14,-0.311574,0.663145,-0.349171,0.0,0.0,0.0,0.689275,-0.26770658121268975,0.0,0.0,0.9408868348723116,0.0,-0.29472748164270934
957,0.9476,0.00526641,1248.28,0.00553081,-4.15787e-14,1.42317e-14,3.42607e-14,-0.311843,0.663715,-0.349472,0.0,0.0,0.0,0.689872,-0.267903541649977,0.0,0.0,0.9419934557251701,0.0,-0.2949397367247425
958,0.9486,0.0052569,1248.45,0.00552087,-8.51221e-14,-1.69298e-14,-2.05604e-15,-0.312111,0.664285,-0.349773,0.0,0.0,0.0,0.690468,-0.26809971721211534,0.0,0.0,0.9431007075317195,0.0,-0.29515192792761025
959,0.9496,0.00524742,1248.63,0.00551095,6.29946e-14,-1.24707e-14,-7.4517e-14,-0.31238,0.664854,-0.350074,0.0,0.0,0.0,0.691065,-0.2682965719100414,0.0,0.0,0.944206646444087,0.0,-0.29536405527053733
960,0.9506,0.00523796,1248.8,0.00550106,5.33982e-14,2.03574e-14,-3.62e-14,-0.312648,0.665423,-0.350374,0.0,0.0,0.0,0.691661,-0.2684926421541832,0.0,0.0,0.94531321481476,0.0,-0.2955754143485093
961,0.9516,0.00522852,1248.98,0.00549119,2.00588e-14,1.48101e-14,-3.63087e-14,-0.312916,0.665992,-0.350675,0.0,0.0,0.0,0.692256,-0.2686886598585403,0.0,0.0,0.9464204130020017,0.0,-0.2957874142412059
962,0.9526,0.0052191,1249.16,0.00548134,-5.10205e-14,3.00791e-14,1.1256e-15,-0.313184,0.666561,-0.350975,0.0,0.0,0.0,0.692852,-0.26888462503719135,0.0,0.0,0.9475282413642794,0.0,-0.29599864633053596
963,0.9536,0.00520971,1249.33,0.00547152,-8.17342e-14,-5.10404e-15,3.42104e-14,-0.313451,0.667129,-0.351275,0.0,0.0,0.0,0.693447,-0.2690798067843836,0.0,0.0,0.9486347516245395,0.0,-0.29620981505974364
964,0.9546,0.00520034,1249.51,0.00546172,-4.4743e-14,1.53489e-15,6.82318e-14,-0.313719,0.667696,-0.351575,0.0,0.0,0.0,0.694041,-0.2692756671497042,0.0,0.0,0.9497399408202387,0.0,-0.2964209204478342
965,0.9556,0.00519099,1249.68,0.00545194,2.26172e-14,-1.45973e-14,-3.56725e-14,-0.313986,0.668264,-0.351875,0.0,0.0,0.0,0.694635,-0.2694707445025897,0.0,0.0,0.9508477076826307,0.0,-0.2966319625138071
966,0.9566,0.00518167,1249.86,0.00544219,-1.98311e-14,-3.76512e-14,2.52652e-16,-0.314253,0.668831,-0.352174,0.0,0.0,0.0,0.695229,-0.2696657697767748,0.0,0.0,0.9519541519802026,0.0,-0.2968422381192459
967,0.9576,0.00517236,1250.03,0.00543246,2.40712e-14,-2.78732e-14,3.27371e-14,-0.31452,0.669398,-0.352474,0.0,0.0,0.0,0.695823,-0.2698607429861627,0.0,0.0,0.9530612238095799,0.0,-0.29705315380887487
968,0.9586,0.00516308,1250.2,0.00542275,2.19496e-14,9.53313e-15,-3.57074e-14,-0.314787,0.669964,-0.352773,0.0,0.0,0.0,0.696416,-0.27005566414465265,0.0,0.0,0.9541669693587271,0.0,-0.29726330349694197
969,0.9596,0.00515382,1250.38,0.00541307,2.00611e-14,-1.04159e-14,-3.66153e-14,-0.315054,0.67053,-0.353072,0.0,0.0,0.0,0.697009,-0.2702505332661407,0.0,0.0,0.9552733409370047,0.0,-0.29747339035964526
970,0.9606,0.00514459,1250.55,0.00540341,-4.86169e-14,-2.63465e-14,-3.55099e-14,-0.315321,0.671096,-0.353371,0.0,0.0,0.0,0.697602,-0.27044535036451867,0.0,0.0,0.9563803388988457,0.0,-0.2976834144157666
971,0.9616,0.00513537,1250.73,0.00539377,5.82183e-14,1.01865e-14,-4.11168e-15,-0.315587,0.671662,-0.35367,0.0,0.0,0.0,0.698194,-0.27063938609342564,0.0,0.0,0.9574879635988829,0.0,-0.2978933756840825
972,0.9626,0.00512618,1250.9,0.00538416,-5.80436e-14,-4.32463e-14,3.77243e-14,-0.315853,0.672227,-0.353968,0.0,0.0,0.0,0.698786,-0.27083337021569276,0.0,0.0,0.958594256796715,0.0,-0.2981025722862868
973,0.9636,0.00511701,1251.07,0.00537457,-1.25981e-14,4.5314e-15,-3.79906e-14,-0.316119,0.672792,-0.354267,0.0,0.0,0.0,0.699378,-0.2710273027450455,0.0,0.0,0.9597011752268152,0.0,-0.29831240824513405
974,0.9646,0.00510786,1251.24,0.005365,2.32867e-14,1.13762e-14,-3.60113e-14,-0.316385,0.673356,-0.354565,0.0,0.0,0.0,0.699969,-0.27122118369520576,0.0,0.0,0.960806758434801,0.0,-0.29852147999423917
975,0.9656,0.00509874,1251.42,0.00535546,2.0768e-14,-4.27269e-14,-3.56986e-14,-0.316651,0.673921,-0.354863,0.0,0.0,0.0,0.70056,-0.2714150130798918,0.0,0.0,0.9619149272815364,0.0,-0.2987304894492453
976,0.9666,0.00508963,1251.59,0.00534594,2.69628e-14,-2.34047e-15,-1.07004e-13,-0.316917,0.674484,-0.355161,0.0,0.0,0.0,0.701151,-0.2716087909128182,0.0,0.0,0.9630197963770621,0.0,-0.2989394366287135
977,0.9676,0.00508055,1251.76,0.00533644,1.946e-14,-1.32552e-14,-3.50318e-14,-0.317182,0.675048,-0.355459,0.0,0.0,0.0,0.701741,-0.27180178900984897,0.0,0.0,0.9641272518152959,0.0,-0.29914832155119886
978,0.9686,0.00507149,1251.93,0.00532696,2.55631e-14,1.1929e-14,-3.53033e-14,-0.317448,0.675611,-0.355756,0.0,0.0,0.0,0.702331,-0.27199546397406016,0.0,0.0,0.9652333668002191,0.0,-0.29935644359204516
979,0.9696,0.00506245,1252.11,0.00531751,-4.52008e-14,1.49433e-15,-3.48274e-14,-0.317713,0.676174,-0.356054,0.0,0.0,0.0,0.70292,-0.2721883596163056,0.0,0.0,0.9663401047032141,0.0,-0.2995652042649696
980,0.9706,0.00505343,1252.28,0.00530807,1.4506e-14,-1.65628e-14,-3.6787e-14,-0.317978,0.676737,-0.356351,0.0,0.0,0.0,0.70351,-0.2723812041479783,0.0,0.0,0.9674474658750818,0.0,-0.2997732025100346
981,0.9716,0.00504444,1252.45,0.00529866,1.65611e-14,5.32472e-15,7.47074e-16,-0.318243,0.677299,-0.356648,0.0,0.0,0.0,0.704099,-0.2725739975826207,0.0,0.0,0.9685534821123556,0.0,-0.2999811389887935
982,0.9726,0.00503546,1252.62,0.00528928,-4.47945e-14,-2.87269e-14,-3.47887e-14,-0.318508,0.677861,-0.356945,0.0,0.0,0.0,0.704687,-0.2727667399337719,0.0,0.0,0.9696601201054518,0.0,-0.3001890137195883
983,0.9736,0.00502651,1252.79,0.00527991,-5.00134e-14,-2.72435e-14,-3.58023e-14,-0.318773,0.678423,-0.357242,0.0,0.0,0.0,0.705276,-0.272959431214967,0.0,0.0,0.9707673802038952,0.0,-0.3003968267207553
984,0.9746,0.00501758,1252.96,0.00527057,-5.08097e-14,1.06205e-14,-1.04752e-13,-0.319037,0.678984,-0.357538,0.0,0.0,0.0,0.705864,-0.27315134459144597,0.0,0.0,0.9718732908831307,0.0,-0.30060387861485394
985,0.9756,0.00500867,1253.13,0.00526125,-5.1036e-14,1.29548e-15,-3.35168e-14,-0.319301,0.679545,-0.357835,0.0,0.0,0.0,0.706451,-0.2733432073094807,0.0,0.0,0.9729798221523163,0.0,-0.3008115684194427
986,0.9766,0.00499978,1253.3,0.00525195,-8.53265e-15,4.66081e-15,-3.27701e-14,-0.319566,0.680106,-0.358131,0.0,0.0,0.0,0.707039,-0.27353574584706064,0.0,0.0,0.9740869743597009,0.0,-0.30101849756816557
987,0.9776,0.00499091,1253.47,0.00524267,1.87332e-14,-1.09764e-15,-3.40169e-14,-0.31983,0.680667,-0.358427,0.0,0.0,0.0,0.707626,-0.27372750709655835,0.0,0.0,0.9751947478537286,0.0,-0.30122536547492484
988,0.9786,0.00498206,1253.64,0.00523342,6.16229e-14,-3.43993e-15,-3.43981e-14,-0.320094,0.681227,-0.358723,0.0,0.0,0.0,0.708212,-0.27391921772776806,0.0,0.0,0.9763011666808838,0.0,-0.30143217215784524
989,0.9796,0.00497324,1253.81,0.00522419,2.601e-14,1.10471e-14,-3.11614e-14,-0.320357,0.681787,-0.359018,0.0,0.0,0.0,0.708798,-0.2741101518645661,0.0,0.0,0.9774082052761013,0.0,-0.3016382192736148
990,0.9806,0.00496443,1253.98,0.00521498,2.27397e-14,1.33217e-14,-3.35518e-14,-0.320621,0.682346,-0.359314,0.0,0.0,0.0,0.709384,-0.27430176149089036,0.0,0.0,0.9785138854716731,0.0,-0.30184490376989526
991,0.9816,0.00495565,1254.15,0.00520579,-4.82392e-14,-2.83795e-14,-3.13674e-14,-0.320884,0.682905,-0.359609,0.0,0.0,0.0,0.70997,-0.2744925950319076,0.0,0.0,0.9796201839152587,0.0,-0.3020508291477966
992,0.9826,0.00494688,1254.32,0.00519662,-4.90139e-14,-2.60003e-14,-3.34932e-14,-0.321148,0.683464,-0.359905,0.0,0.0,0.0,0.710555,-0.2746841037065618,0.0,0.0,0.9807271009525549,0.0,-0.30225739152962805
993,0.9836,0.00493814,1254.49,0.00518747,2.17489e-14,-2.64611e-14,2.26544e-15,-0.321411,0.684023,-0.3602,0.0,0.0,0.0,0.711141,-0.2748748367047984,0.0,0.0,0.9818346369294528,0.0,-0.3024631952415868
994,0.9846,0.00492942,1254.66,0.00517835,-4.35741e-14,-2.43107e-14,-2.98665e-14,-0.321674,0.684581,-0.360495,0.0,0.0,0.0,0.711725,-0.2750655195468522,0.0,0.0,0.982940809250235,0.0,-0.30266893825040464
995,0.9856,0.00492072,1254.82,0.00516925,2.29904e-14,-1.45085e-14,-3.45557e-14,-0.321937,0.685139,-0.360789,0.0,0.0,0.0,0.71231,-0.2752561522459126,0.0,0.0,0.9840475989874156,0.0,-0.3028739234482585
996,0.9866,0.00491203,1254.99,0.00516017,-1.22903e-14,8.22972e-15,-6.63132e-14,-0.322199,0.685696,-0.361084,0.0,0.0,0.0,0.712894,-0.27544601026153803,0.0,0.0,0.9851530213315944,0.0,-0.3030795453101255
997,0.9876,0.00490337,1255.16,0.00515111,1.85335e-14,1.27536e-14,-3.3271e-14,-0.322462,0.686254,-0.361378,0.0,0.0,0.0,0.713477,-0.2756365429046984,0.0,0.0,0.9862610458275822,0.0,-0.30328440980724747
998,0.9886,0.00489473,1255.33,0.00514207,-8.78846e-15,2.17348e-14,-3.06367e-14,-0.322725,0.686811,-0.361673,0.0,0.0,0.0,0.714061,-0.27582702544436255,0.0,0.0,0.9873677014050748,0.0,-0.30348991059349817
999,0.9896,0.00488611,1255.49,0.00513305,-5.05498e-14,4.72743e-15,-6.66785e-14,-0.322987,0.687367,-0.361967,0.0,0.0,0.0,0.714644,-0.27601673391080184,0.0,0.0,0.9884729850874461,0.0,-0.30369465446096033
