,Time,S11,S22,S33,S12,S13,S23,LE11,LE22,LE33,LE12,LE13,LE23,SDV_EPBAR,E11,E12,E13,E22,E23,E33
0,1e-05,-3.33067e-16,2.07745,-3.33067e-16,1.69198e-17,-1.692e-17,8.45988e-18,-2.99999e-06,9.99995e-06,-2.99999e-06,0.0,0.0,0.0,0.0,-2.999985500018454e-06,0.0,0.0,9.999999999621423e-06,0.0,-2.999985500018454e-06
1,2e-05,2.77556e-16,4.15488,2.22045e-16,2.53794e-17,-1.692e-17,1.69196e-17,-5.99994e-06,1.99998e-05,-5.99994e-06,0.0,0.0,0.0,0.0,-5.999922000343716e-06,0.0,0.0,1.9999999997244444e-05,0.0,-5.999922000343716e-06
2,3.5e-05,-3.88578e-16,7.27098,0.0,8.45927e-18,-1.692e-17,-3.29936e-22,-1.04998e-05,3.49994e-05,-1.04998e-05,0.0,0.0,0.0,0.0,-1.0499744877323636e-05,0.0,0.0,3.5000012486241516e-05,0.0,-1.0499744877323636e-05
3,5.75e-05,-3.83027e-15,11.9451,-4.21885e-15,4.2298e-17,3.38399e-17,-3.29936e-22,-1.72495e-05,5.74983e-05,-1.72495e-05,0.0,0.0,0.0,0.0,-1.7249351228265652e-05,0.0,0.0,5.749995305892597e-05,0.0,-1.7249351228265652e-05
4,9.125e-05,-2.82552e-14,18.956,-2.81997e-14,4.22961e-17,3.38399e-17,-3.29936e-22,-2.73738e-05,9.12458e-05,-2.73738e-05,0.0,0.0,0.0,0.0,-2.737342534098186e-05,0.0,0.0,9.124996302456445e-05,0.0,-2.737342534098186e-05
5,0.00014188,-1.57929e-13,29.4719,-1.58762e-13,8.45562e-18,-3.38399e-17,3.38374e-17,-4.25595e-05,0.000141865,-4.25595e-05,0.0,0.0,0.0,0.0,-4.255859435731146e-05,0.0,0.0,0.00014187506331508892,0.0,-4.255859435731146e-05
6,0.00021781,-7.97418e-13,45.2448,-7.97362e-13,8.45479e-18,-3.38399e-17,3.3834e-17,-6.53366e-05,0.000217789,-6.53366e-05,0.0,0.0,0.0,0.0,-6.533446561085565e-05,0.0,0.0,0.0002178127177461242,0.0,-6.533446561085565e-05
7,0.00033172,-4.04016e-12,68.9018,-4.03744e-12,1.43793e-16,-1.692e-16,-2.3685e-16,-9.94991e-05,0.000331664,-9.94991e-05,0.0,0.0,0.0,0.0,-9.949415012866503e-05,0.0,0.0,0.0003317190065854625,0.0,-9.949415012866503e-05
8,0.00050258,-2.04484e-11,104.382,-2.04492e-11,8.43162e-18,-1.692e-16,-2.36798e-16,-0.000150736,0.000502452,-0.000150736,0.0,0.0,0.0,0.0,-0.00015072463989995732,0.0,0.0,0.0005025782501502096,0.0,-0.00015072463989995732
9,0.00075887,-1.03424e-10,157.592,-1.03423e-10,8.4288e-18,-1.692e-16,-2.36719e-16,-0.000227574,0.000758579,-0.000227574,0.0,0.0,0.0,0.0,-0.0002275481070015406,0.0,0.0,0.0007588667938165372,0.0,-0.0002275481070015406
10,0.0011433,-5.23067e-10,237.381,-5.23062e-10,8.42458e-18,-1.692e-16,-2.36601e-16,-0.000342794,0.00114265,-0.000342794,0.0,0.0,0.0,0.0,-0.00034273525284966855,0.0,0.0,0.0011433030732321825,0.0,-0.00034273525284966855
11,0.00172,-2.6442e-09,357.006,-2.6442e-09,8.41824e-18,9.13679e-16,3.0461e-16,-0.000515542,0.00171847,-0.000515542,0.0,0.0,0.0,0.0,-0.0005154091310572984,0.0,0.0,0.001719947415747436,0.0,-0.0005154091310572984
12,0.0025849,0.0945012,502.872,0.133606,-0.017992,0.0169432,0.0199792,-0.000801325,0.00258159,-0.000811585,-2.45117e-07,2.27825e-07,2.79008e-07,0.000169226,-0.0008010040248630501,-2.451169699435596e-07,2.2782502595575238e-07,0.0025849251728629064,2.790080388948013e-07,-0.0008112557539703413
13,0.0035849,-0.308848,515.109,-0.361587,0.0678516,-0.0525044,-0.0864705,-0.00123647,0.00357852,-0.00135181,1.29192e-06,-2.21061e-06,-6.10014e-07,0.00115302,-0.0012357058859366887,1.2919208345341104e-06,-2.2106075565631045e-06,0.00358493054717135,-6.100138139064626e-07,-0.0013508967164369556
14,0.0043349,-0.206349,524.45,-0.30502,0.059565,-0.0388441,-0.0804173,-0.00156758,0.00432556,-0.00174956,1.48359e-06,-2.69369e-06,-5.69211e-07,0.00189022,-0.0015663519882245236,1.4835911004151825e-06,-2.693686372068349e-06,0.00433492873813246,-5.692108380195293e-07,-0.001748030412068502
15,0.0050849,0.114781,533.902,0.160039,-0.022897,0.0164405,0.0209428,-0.00189885,0.00507204,-0.00214517,3.50495e-07,-2.33137e-06,1.19348e-06,0.00262721,-0.001897048324889461,3.5049506141859865e-07,-2.3313672823377374e-06,0.005084924569354055,1.1934807122582214e-06,-0.0021428707672110914
16,0.0060849,0.271309,545.872,0.376814,-0.0565637,0.0466225,0.0429742,-0.00233445,0.00606649,-0.00268049,-4.15404e-07,-2.62267e-06,2.72534e-06,0.00361154,-0.002331727290687091,-4.1540391371164276e-07,-2.622666560814224e-06,0.006084928417094071,2.725343713816386e-06,-0.002676900694428719
17,0.0070849,-0.229236,556.75,-0.272938,0.0494252,-0.0356122,-0.0783526,-0.00277146,0.00705995,-0.00321844,1.22699e-06,-4.87982e-06,1.5725e-06,0.00459801,-0.002767623050203616,1.226990752778434e-06,-4.8798080937162425e-06,0.007084930198717254,1.5725012363354551e-06,-0.0032132663738067
18,0.0080849,-0.341423,567.74,-0.409926,0.0704723,-0.0498847,-0.107879,-0.00320793,0.00805242,-0.00375399,1.92603e-06,-6.33486e-06,1.33492e-06,0.0055842,-0.003202790090183427,1.92603185489304e-06,-6.33483993484063e-06,0.008084927931183428,1.3349208909385624e-06,-0.003746952588418284
19,0.0090849,0.351326,579.28,0.41971,-0.0713228,0.0669638,0.05658,-0.00364313,0.00904391,-0.00428534,-2.59749e-07,-5.28971e-06,4.59094e-06,0.00656922,-0.0036365018534111337,-2.5974896622482646e-07,-5.289696009547207e-06,0.009084929720343693,4.590950538396754e-06,-0.00427617103259903
20,0.010085,0.348405,589.753,0.413271,-0.0737394,0.0680747,0.0420297,-0.00408023,0.0100344,-0.00481881,-7.0681e-07,-5.66057e-06,5.4707e-06,0.00755625,-0.004071917171500905,-7.068097501727877e-07,-5.660553978992233e-06,0.010084913407549134,5.4707149643729025e-06,-0.004807218162187876
21,0.011085,-0.145898,599.392,-0.173496,0.0296931,-0.016149,-0.0684159,-0.00451851,0.0110239,-0.00535378,7.69102e-07,-7.63605e-06,4.4044e-06,0.00854481,-0.004508316892022579,7.691022958500326e-07,-7.636020845414038e-06,0.011084887084752193,4.404409699398926e-06,-0.005339474061524463
22,0.012085,-0.262508,609.139,-0.317095,0.051988,-0.0325538,-0.103049,-0.004956,0.0120125,-0.00588677,1.35079e-06,-8.83353e-06,4.04362e-06,0.00953301,-0.004943739295046989,1.3507909122356665e-06,-8.833490984461179e-06,0.012084939848757026,4.043628175409708e-06,-0.0058694769195858365
23,0.013085,0.290192,619.327,0.349709,-0.0639682,0.065218,0.0311993,-0.00539232,0.0130001,-0.00641623,-4.43294e-07,-7.93691e-06,6.6084e-06,0.0105202,-0.005377807539503232,-4.432939016973947e-07,-7.936878502867728e-06,0.013084968668301,6.6084218355300095e-06,-0.006395689949667882
24,0.014085,-0.411916,627.87,-0.494259,0.0813749,-0.0616123,-0.138001,-0.00583143,0.0139867,-0.00695043,1.83092e-06,-1.0638e-05,4.31411e-06,0.0115104,-0.005814460214140449,1.8309216760492575e-06,-1.0637943416713647e-05,0.014084971518679934,4.31411930579273e-06,-0.006926331625086157
25,0.015085,-0.406347,636.906,-0.493354,0.0809409,-0.0543679,-0.142718,-0.00626893,0.0149723,-0.00748132,2.26959e-06,-1.15794e-05,4.03684e-06,0.0124995,-0.006249321255007767,2.2695925754323554e-06,-1.1579332959033017e-05,0.015084946373268515,4.036848147981331e-06,-0.007453404583628864
26,0.016085,0.301089,646.448,0.367504,-0.0716976,0.0730501,0.0316038,-0.0067052,0.0159569,-0.00800848,-9.83152e-09,-1.02025e-05,7.02008e-06,0.0134873,-0.0066827703063401245,-9.831520042524744e-09,-1.0202447954688054e-05,0.01608489120352563,7.020104640709235e-06,-0.007976497557908635
27,0.017085,0.282254,654.936,0.341862,-0.0697048,0.0695792,0.0181231,-0.0071432,0.0169406,-0.00853807,-3.37568e-07,-1.04702e-05,7.55035e-06,0.0144769,-0.007117747985880163,-3.375679430428491e-07,-1.0470145187624347e-05,0.01708490568748644,7.550378503973221e-06,-0.008501724194903915
28,0.018085,-0.0852816,662.793,-0.105885,0.0131757,0.00432825,-0.0681678,-0.00758189,0.0179233,-0.0090687,7.78862e-07,-1.18855e-05,6.64945e-06,0.0154676,-0.007553219975428793,7.788623033189168e-07,-1.188542936769732e-05,0.018084886284298385,6.649472107600474e-06,-0.009027703362489925
29,0.019085,0.305966,671.235,0.36453,-0.070737,0.080274,0.0273096,-0.00801895,0.0189051,-0.00959564,-6.21162e-07,-1.10631e-05,8.55151e-06,0.0164568,-0.00798688398960612,-6.211618071017e-07,-1.106303880415993e-05,0.01908493286818902,8.551546564206092e-06,-0.009549748749102527
30,0.020085,-0.308792,678.344,-0.374971,0.060372,-0.0372025,-0.123959,-0.00845814,0.0198859,-0.0101263,1.33496e-06,-1.33348e-05,6.49374e-06,0.0174483,-0.008422470570389917,1.3349608911639166e-06,-1.3334711091994578e-05,0.020084941694509917,6.493761084414018e-06,-0.010075201648682919
31,0.021085,-0.305942,685.894,-0.375323,0.0591758,-0.0339679,-0.128805,-0.00889582,0.0208657,-0.0106541,1.62368e-06,-1.40531e-05,6.23242e-06,0.0184387,-0.008856369262154273,1.6236813180636744e-06,-1.40530012556761e-05,0.021084910725212014,6.232439421660629e-06,-0.010597546098426447
32,0.022085,0.233431,693.815,0.286074,-0.0602884,0.06763,0.00766872,-0.00933244,0.0218446,-0.0111789,-1.58761e-07,-1.29414e-05,8.48104e-06,0.019428,-0.009289027933619076,-1.587609873565654e-07,-1.2941316260395297e-05,0.022084940128856534,8.481075964184015e-06,-0.01111664828190706
33,0.023085,-0.336732,700.295,-0.412219,0.0654666,-0.0416626,-0.135334,-0.00977135,0.0228225,-0.011708,1.74494e-06,-1.50748e-05,6.43715e-06,0.0204197,-0.009723765474062729,1.7449415223858011e-06,-1.5074686375737834e-05,0.02308492585513977,6.437170718465168e-06,-0.011639728070340194
34,0.024085,-0.290143,707.243,-0.357938,0.055194,-0.0294052,-0.127012,-0.0102088,0.0237995,-0.0122341,1.8912e-06,-1.55976e-05,6.32551e-06,0.0214102,-0.010156867075801657,1.8912017882843912e-06,-1.5597478358109207e-05,0.024084968268871965,6.3255300060127695e-06,-0.012159567653609815
35,0.025085,0.198484,714.478,0.244062,-0.0544486,0.0642274,-0.00158826,-0.0106452,0.0247755,-0.0127577,2.67893e-07,-1.45687e-05,8.34027e-06,0.0223997,-0.010588740377401429,2.6789303597674063e-07,-1.4568593877051228e-05,0.02508496311600683,8.340304780141139e-06,-0.012676665515952257
36,0.026085,-0.2845,720.437,-0.350719,0.0538495,-0.0296933,-0.12418,-0.0110837,0.0257505,-0.013285,1.88846e-06,-1.6391e-05,6.58944e-06,0.0233914,-0.011022502105536569,1.8884617831727013e-06,-1.6390865668292065e-05,0.026084908349131686,6.589461710504452e-06,-0.013197143874046802
37,0.027085,0.455711,727.554,0.552225,-0.110565,0.118305,0.0614988,-0.0115195,0.0267246,-0.0138066,-6.78512e-07,-1.43685e-05,9.66149e-06,0.0243803,-0.011453404598645966,-6.785117697694076e-07,-1.43683967736008e-05,0.027084904627469708,9.661536672256332e-06,-0.013711726029109417
38,0.028085,0.282602,733.482,0.349414,-0.0766291,0.08034,0.0132965,-0.0119572,0.0276978,-0.0143315,-5.99444e-07,-1.48706e-05,9.54108e-06,0.0253712,-0.01188599676375146,-5.994438203593688e-07,-1.4870489433160827e-05,0.02808495019989854,9.541125516321358e-06,-0.014229292896808965
39,0.029085,-0.00089506,739.094,-0.00990147,-0.00635803,0.0284619,-0.0583345,-0.0123949,0.02867,-0.0148565,2.60799e-07,-1.58136e-05,8.74708e-06,0.0263622,-0.012318399624698495,2.6079903392428605e-07,-1.5813474965709062e-05,0.029084940404958015,8.74711825571417e-06,-0.01474668669028345
40,0.030085,0.204861,745.08,0.247594,-0.0537032,0.0703572,-0.00294011,-0.0128315,0.0296413,-0.0153789,-5.68379e-07,-1.53509e-05,9.81713e-06,0.0273521,-0.012749527289404594,-5.683788384391875e-07,-1.535078217551611e-05,0.03008497619633399,9.817178188153974e-06,-0.015261248605882072
41,0.031085,-0.142,750.279,-0.179534,0.0246511,0.00031729,-0.0929389,-0.013269,0.0306116,-0.0159033,5.33752e-07,-1.66472e-05,8.60097e-06,0.028343,-0.013181354902037423,5.337521424841896e-07,-1.664706143611472e-05,0.031084952708887226,8.601006988406823e-06,-0.015777510231484104
42,0.032085,0.304167,756.19,0.368583,-0.0768678,0.0905902,0.0200584,-0.0137047,0.031581,-0.0164239,-1.07461e-06,-1.54576e-05,1.04869e-05,0.029332,-0.01361121813320143,-1.0746094225577707e-06,-1.5457480531888557e-05,0.03208497109264119,1.0486954987731778e-05,-0.016289763108664257
43,0.033085,-0.301977,760.774,-0.374475,0.0608031,-0.032331,-0.134876,-0.0141424,0.0325494,-0.0169484,9.30431e-07,-1.75626e-05,8.23536e-06,0.0303232,-0.014042866029991052,9.304314327884811e-07,-1.7562445778440683e-05,0.033084926278801996,8.235393910593913e-06,-0.01680558384210118
44,0.034085,0.50522,766.767,0.615232,-0.123185,0.132812,0.0704842,-0.0145769,0.0335169,-0.0174665,-1.91116e-06,-1.52074e-05,1.15062e-05,0.031311,-0.014471171348632184,-1.9111581737174532e-06,-1.5207284368101703e-05,0.034084919613748266,1.1506266196503745e-05,-0.01731484493363522
45,0.035085,0.287227,771.477,0.358384,-0.0786111,0.0837109,0.0116374,-0.0150136,0.0344835,-0.0179883,-1.68976e-06,-1.57782e-05,1.11684e-05,0.0323009,-0.014901457828213172,-1.6897585723985031e-06,-1.577807552488597e-05,0.035084949333548554,1.1168462366706322e-05,-0.017827476290396382
46,0.036085,0.0198006,775.97,0.0135896,-0.00978413,0.0339748,-0.0581075,-0.0154501,0.0354491,-0.0185101,-8.61725e-07,-1.66008e-05,1.03455e-05,0.0332907,-0.01533135950900355,-8.617246287645486e-07,-1.660066220743328e-05,0.03608491006397019,1.034555351497879e-05,-0.018339840225891968
47,0.037085,0.182464,780.81,0.221905,-0.048546,0.0677711,-0.0119627,-0.0158854,0.0364138,-0.0190296,-1.55009e-06,-1.62007e-05,1.11914e-05,0.0342792,-0.01575989249123888,-1.5500887986519274e-06,-1.6200568769386692e-05,0.03708490344596327,1.1191462623960646e-05,-0.01884968023648559
48,0.038085,-0.104274,785.004,-0.13534,0.0179675,0.00842094,-0.0882189,-0.0163215,0.0373776,-0.0195505,-6.31042e-07,-1.72551e-05,1.01294e-05,0.0352685,-0.016189026022755737,-6.310418009247698e-07,-1.7254951131584484e-05,0.038084927710186456,1.0129451302631765e-05,-0.019360628350060916
49,0.039085,0.249507,789.779,0.303504,-0.0644729,0.0813836,0.00345475,-0.016756,0.0383404,-0.0200683,-1.93275e-06,-1.62853e-05,1.16048e-05,0.0362561,-0.016616399037437724,-1.93274813220512e-06,-1.6285167395269085e-05,0.039084877177014477,1.1604867335979208e-05,-0.019868271976424157
50,0.040085,-0.221151,793.504,-0.278057,0.0448897,-0.0161777,-0.119018,-0.017192,0.0393024,-0.0205891,-3.62781e-07,-1.79234e-05,9.8074e-06,0.0372451,-0.017045060832395542,-3.6278093418218305e-07,-1.7923239376771427e-05,0.040084957790507136,9.807448092757909e-06,-0.02037859168159295
51,0.041085,0.388807,798.305,0.475191,-0.0970449,0.111126,0.0389982,-0.0176255,0.0402634,-0.0211049,-2.54509e-06,-1.61182e-05,1.22674e-05,0.0382314,-0.017471079452317295,-2.5450867612297756e-06,-1.611807010248878e-05,0.04108495985897753,1.2267475244964743e-05,-0.020883750112444477
52,0.042085,-0.40198,801.422,-0.501371,0.0873743,-0.053873,-0.166491,-0.0180617,0.0412234,-0.0216262,1.43088e-07,-1.8768e-05,9.19862e-06,0.0392205,-0.01789956510794477,1.430880103292509e-07,-1.8767823882215318e-05,0.04208488130594268,9.19866230741917e-06,-0.021394030397398733
53,0.043085,-0.30036,805.413,-0.377136,0.0629343,-0.0319649,-0.14218,-0.0184956,0.0421826,-0.0221434,1.07284e-07,-1.89621e-05,9.12277e-06,0.0402073,-0.018325606050377696,1.0728400567927565e-07,-1.8961920220550432e-05,0.043084928670131584,9.122811612582993e-06,-0.02190003454092615
54,0.044085,0.164197,809.698,0.203644,-0.0472667,0.0634899,-0.0181649,-0.0189286,0.0431408,-0.0226584,-1.46418e-06,-1.77714e-05,1.08698e-05,0.0411928,-0.018750579049663707,-1.4641789281011341e-06,-1.777124208957037e-05,0.04408489165453977,1.0869859076390043e-05,-0.022403626337119675
55,0.045085,-0.224965,812.909,-0.284414,0.0457812,-0.017184,-0.12107,-0.0193632,0.0440981,-0.0231768,-1.00374e-07,-1.91656e-05,9.29101e-06,0.0421799,-0.0191769373936298,-1.0037399500451016e-07,-1.9165416341060393e-05,0.04508487268587413,9.291053161497587e-06,-0.02291028096100156
56,0.046085,0.348436,817.092,0.427898,-0.0890734,0.104379,0.0300616,-0.0197955,0.0450546,-0.0236904,-2.15158e-06,-1.74453e-05,1.15889e-05,0.0431643,-0.019600855567079467,-2.1515776853497925e-06,-1.744514783164064e-05,0.04608497458908456,1.1588967151476837e-05,-0.023411985391973533
57,0.047085,-0.358547,819.734,-0.449986,0.0781047,-0.0446084,-0.155752,-0.0202303,0.04601,-0.0242091,2.73128e-07,-1.98115e-05,8.80541e-06,0.0441513,-0.020027040455769862,2.731280372980649e-07,-1.981130375350304e-05,0.04708488175340064,8.805448767690294e-06,-0.02391841024251129
58,0.048085,0.551593,824.084,0.679334,-0.137119,0.148418,0.0830838,-0.0206614,0.0469646,-0.0247204,-2.97871e-06,-1.69839e-05,1.24319e-05,0.0451341,-0.020449415749093425,-2.978705563649875e-06,-1.6983755774413467e-05,0.048084906217258805,1.2431977276294859e-05,-0.02441735319371907
59,0.049085,0.285985,827.025,0.361538,-0.0797322,0.0870221,0.0115078,-0.0210949,0.0479183,-0.0252361,-2.5767e-06,-1.7625e-05,1.18358e-05,0.0461191,-0.020873958900989642,-2.5766966803564273e-06,-1.7624844680597107e-05,0.0490849415833845,1.1835870043386265e-05,-0.02492033146058381
60,0.050085,0.0432846,829.877,0.0411649,-0.0140057,0.04082,-0.0545944,-0.0215279,0.048871,-0.0257516,-1.80238e-06,-1.82872e-05,1.1005e-05,0.0471037,-0.021297828702350974,-1.8023783756593303e-06,-1.8287032790165192e-05,0.05008488105276543,1.100506055529138e-05,-0.02542285549301815
61,0.051085,0.154055,833.047,0.188792,-0.0419191,0.0645025,-0.0203373,-0.0219599,0.0498229,-0.0262649,-2.31508e-06,-1.79604e-05,1.1583e-05,0.0480869,-0.021720536728843887,-2.3150773201807695e-06,-1.7960238713032872e-05,0.051084932750131484,1.1583067083265064e-05,-0.025922977573980543
62,0.052085,-0.0605227,835.753,-0.0833761,0.00977469,0.0185056,-0.0795939,-0.0223922,0.0507738,-0.0267793,-1.62086e-06,-1.87141e-05,1.07188e-05,0.0490704,-0.022143355541944687,-1.6208586863797336e-06,-1.871392489227741e-05,0.052084884764521444,1.0718857446523344e-05,-0.026423913942436594
63,0.053085,0.187307,838.894,0.22869,-0.0500439,0.0709793,-0.0131594,-0.0228234,0.0517239,-0.0272911,-2.56514e-06,-1.799e-05,1.17244e-05,0.0500523,-0.022564916431975224,-2.565136710042104e-06,-1.79898381809096e-05,0.05308494561721555,1.1724468730989202e-05,-0.026922062696141058
64,0.054085,-0.13307,841.309,-0.171969,0.0268855,0.00248033,-0.0987867,-0.0232554,0.052673,-0.0278051,-1.48641e-06,-1.909e-05,1.04382e-05,0.051035,-0.02298707719478643,-1.4864088953014942e-06,-1.908981778708796e-05,0.0540849029938113,1.0438254478106757e-05,-0.027422096236286553
65,0.055085,0.265575,844.45,0.325679,-0.0687142,0.0880522,0.00729235,-0.0236856,0.0536213,-0.0283154,-2.95238e-06,-1.78675e-05,1.20237e-05,0.0520155,-0.02340729775825312,-2.9523756417404456e-06,-1.7867340377120122e-05,0.05508496581216149,1.2023772284930345e-05,-0.027918276129510033
66,0.056085,-0.233124,846.501,-0.296347,0.0511164,-0.0190794,-0.125354,-0.0241174,0.0545686,-0.0288292,-1.24011e-06,-1.95403e-05,1.00254e-05,0.0529975,-0.02382889945672373,-1.2401092310820871e-06,-1.954010908955528e-05,0.056084921354439876,1.0025450254413926e-05,-0.02841760343106614
67,0.057085,0.388075,849.733,0.478458,-0.0981982,0.114797,0.0398354,-0.0245465,0.0555151,-0.0293376,-3.49441e-06,-1.75872e-05,1.24874e-05,0.0539765,-0.024247684619184473,-3.494403894577225e-06,-1.758704534615685e-05,0.057084978935092456,1.2487477967892957e-05,-0.02891143038003474
68,0.058085,-0.383368,851.322,-0.483931,0.0875895,-0.0515317,-0.165583,-0.0249784,0.0564606,-0.0298517,-8.12056e-07,-2.01387e-05,9.3956e-06,0.054958,-0.024669021050045536,-8.12055670262879e-07,-2.0138497217714324e-05,0.05808492543288879,9.395644138709969e-06,-0.029410538706888145
69,0.059085,0.574062,854.784,0.711015,-0.143281,0.155505,0.0894966,-0.0254062,0.0574053,-0.0303578,-4.26349e-06,-1.70839e-05,1.31933e-05,0.055935,-0.02508617840651972,-4.263480911315121e-06,-1.7083754071056667e-05,0.05908497055888562,1.3193387031984471e-05,-0.02990162975217736
70,0.060085,0.281153,856.773,0.357917,-0.0782603,0.0869507,0.0103184,-0.0258366,0.058349,-0.0308687,-3.74685e-06,-1.77829e-05,1.24483e-05,0.0569143,-0.025505691029740984,-3.746842980545395e-06,-1.7782741885130626e-05,0.06008490078847206,1.2448377480378525e-05,-0.03039712642413428
71,0.061085,0.0569791,858.754,0.0578125,-0.0157448,0.0438367,-0.0522357,-0.0262663,0.0592919,-0.0313791,-3.0175e-06,-1.8353e-05,1.16378e-05,0.0578929,-0.02592434128085741,-3.0174954473993765e-06,-1.8352831584689255e-05,0.06108492622932937,1.1637867719516137e-05,-0.030891885457561274
72,0.062085,0.136393,861.025,0.167731,-0.0366587,0.0610688,-0.0257029,-0.0266951,0.0602339,-0.0318875,-3.4164e-06,-1.80883e-05,1.20576e-05,0.0588702,-0.02634193538474172,-3.4163941641240925e-06,-1.8088136407690136e-05,0.06208493916198066,1.2057672693188692e-05,-0.031384454801257955
73,0.063085,-0.0365029,862.939,-0.05424,0.00590259,0.0233056,-0.0746717,-0.0271241,0.061175,-0.0323968,-2.85356e-06,-1.86764e-05,1.13161e-05,0.0598474,-0.02675954511077061,-2.8535559285503e-06,-1.8676225597147322e-05,0.063084937773767,1.1316164027386222e-05,-0.03187764509685831
74,0.064085,0.154062,865.204,0.18817,-0.0410706,0.0641764,-0.0224998,-0.027552,0.0621152,-0.0329039,-3.59593e-06,-1.80971e-05,1.20662e-05,0.0608232,-0.02717590561473504,-3.5959235346050278e-06,-1.8096936248435114e-05,0.06408492025036083,1.2066272796928956e-05,-0.03236845548753753
75,0.065085,-0.0892843,866.915,-0.118458,0.0184556,0.0112918,-0.0886104,-0.0279806,0.0630545,-0.0334126,-2.77198e-06,-1.89214e-05,1.10458e-05,0.0617994,-0.027592768681451885,-2.7719761580558e-06,-1.8921220991452437e-05,0.06508488477577035,1.1045861004976842e-05,-0.03286056447569763
76,0.066085,0.206342,869.177,0.253034,-0.053658,0.0757076,-0.00868541,-0.0284076,0.063993,-0.0339184,-3.87751e-06,-1.79924e-05,1.21983e-05,0.0627737,-0.028007897932822323,-3.8775024824300175e-06,-1.7992238137698457e-05,0.0660849361408331,1.2198374399474687e-05,-0.03334961990964025
77,0.067085,-0.15618,870.637,-0.201834,0.0349245,-0.00339759,-0.10643,-0.0288358,0.0649306,-0.0344266,-2.62605e-06,-1.92034e-05,1.07012e-05,0.0637489,-0.02842401585372245,-2.6260465518790355e-06,-1.9203215615881675e-05,0.06708496611775194,1.0701257258105557e-05,-0.03384074682688232
78,0.068085,0.28587,872.951,0.352619,-0.0730121,0.0932628,0.0127463,-0.0292619,0.0658673,-0.0349309,-4.25421e-06,-1.77905e-05,1.24324e-05,0.0647216,-0.028837916192837598,-4.254200950848386e-06,-1.7790341749979177e-05,0.06808497288556636,1.2432477282553478e-05,-0.03432785810282579
79,0.069085,-0.25229,874.103,-0.322348,0.0586461,-0.0245098,-0.132365,-0.0296898,0.0668031,-0.035439,-2.37201e-06,-1.95715e-05,1.02275e-05,0.0656959,-0.02925338755206197,-2.3720071867794346e-06,-1.9571308479404692e-05,0.06908495462167163,1.0227552301067533e-05,-0.03481839148756416
80,0.070085,0.402107,876.551,0.498629,-0.101508,0.118966,0.0442187,-0.0301148,0.067738,-0.0359414,-4.76266e-06,-1.74585e-05,1.28073e-05,0.0666668,-0.0296658672042176,-4.762648658562796e-06,-1.745834760125131e-05,0.070084909501823,1.280738201381304e-05,-0.035303176939378456
81,0.071085,-0.391398,877.31,-0.49712,0.0929879,-0.055075,-0.170083,-0.0305426,0.0686721,-0.0364497,-1.9618e-06,-2.00703e-05,9.57156e-06,0.0676404,-0.030080887367085363,-1.961798075655885e-06,-2.007009859283926e-05,0.0710849428086302,9.571605807501271e-06,-0.03579340773182915
82,0.072085,0.570742,880.006,0.710763,-0.143072,0.156378,0.0899675,-0.0309663,0.0696053,-0.0369499,-5.46072e-06,-1.69435e-05,1.33862e-05,0.0686092,-0.030491755046643365,-5.460705090332141e-06,-1.6943356459742098e-05,0.07208494580608571,1.3386289595684886e-05,-0.03627558326712699
83,0.073085,-0.591746,880.25,-0.749074,0.142435,-0.0990902,-0.224591,-0.0313942,0.0705376,-0.0374589,-1.33086e-06,-2.07582e-05,8.65975e-06,0.0695823,-0.03090651887960827,-1.3308591143568194e-06,-2.075798455003497e-05,0.0730849166650469,8.659787495757243e-06,-0.036765994175079975
84,0.074085,-0.360114,882.024,-0.459639,0.0852776,-0.0479233,-0.163216,-0.0318187,0.0714691,-0.0379616,-1.72466e-06,-2.05094e-05,8.91719e-06,0.0705515,-0.031317811759253966,-1.7246585127805858e-06,-2.0509189683659557e-05,0.07408496096324124,8.917229758154122e-06,-0.03725009022207215
85,0.075085,0.125062,884.045,0.157631,-0.0361368,0.0563684,-0.0287765,-0.0322424,0.0723997,-0.0384625,-3.38077e-06,-1.91478e-05,1.06517e-05,0.0715194,-0.03172815546495866,-3.380764285187965e-06,-1.9147616682091417e-05,0.0750849696597915,1.0651756729540551e-05,-0.037732210894677154
86,0.076085,-0.196911,885.101,-0.254463,0.0451312,-0.0134342,-0.117804,-0.0326675,0.0733294,-0.0389665,-2.18572e-06,-2.02615e-05,9.20524e-06,0.0724885,-0.03213968035025894,-2.1857176113471155e-06,-2.0261294737200508e-05,0.07608494092069851,9.205282368363044e-06,-0.03821707166520849
87,0.077085,0.283369,887.029,0.352228,-0.0732211,0.0931109,0.0142093,-0.0330906,0.0742583,-0.0394665,-3.94101e-06,-1.87127e-05,1.10839e-05,0.0734551,-0.03254909543363427,-3.9410022342201145e-06,-1.871252491847386e-05,0.07708498061885005,1.108396142668333e-05,-0.038697842926544435
88,0.078085,-0.26324,887.749,-0.337795,0.0622701,-0.0272629,-0.135002,-0.0335155,0.0751863,-0.0399706,-2.00102e-06,-2.05136e-05,8.80733e-06,0.0744233,-0.03296007800355427,-2.001017997965704e-06,-2.0513389597520693e-05,0.07808497940853742,8.807368784724545e-06,-0.039182313222927645
89,0.079085,0.40402,889.807,0.503123,-0.102747,0.120281,0.0469039,-0.0339376,0.0761134,-0.0404689,-4.45141e-06,-1.83347e-05,1.14443e-05,0.075388,-0.03336817941876613,-4.451400092531088e-06,-1.833453192046086e-05,0.07908493545094752,1.144436548616845e-05,-0.03966096940915553
90,0.080085,-0.39125,890.167,-0.498911,0.0941539,-0.0556425,-0.16987,-0.0343624,0.0770397,-0.0409732,-1.6216e-06,-2.09465e-05,8.1722e-06,0.0763554,-0.03377871741170568,-1.6215986852197162e-06,-2.0946280623546087e-05,0.08008495491416623,8.172233392444994e-06,-0.04014514628682153
91,0.081085,0.562198,892.474,0.702437,-0.142034,0.15565,0.0900486,-0.0347832,0.0779651,-0.0414693,-5.11036e-06,-1.78197e-05,1.19631e-05,0.077318,-0.034185217793740064,-5.1103469421720504e-06,-1.7819541230035263e-05,0.08108492814769708,1.1963171558271313e-05,-0.04062121218183945
92,0.082085,-0.57518,892.372,-0.730827,0.139927,-0.0963901,-0.220225,-0.035208,0.0788897,-0.0419742,-1.04233e-06,-2.15514e-05,7.30615e-06,0.0782848,-0.0345954087824869,-1.042329456746316e-06,-2.155116777025068e-05,0.08208496151644584,7.306176689869659e-06,-0.04110548026804284
93,0.083085,-0.340926,893.791,-0.436528,0.0814215,-0.0444558,-0.157522,-0.0356295,0.0798134,-0.0424728,-1.47448e-06,-2.12554e-05,7.60093e-06,0.0792476,-0.03500224107175687,-1.4744789129661484e-06,-2.1255174105561103e-05,0.08308494516674703,7.600958887188369e-06,-0.04158346590385986
94,0.084085,0.113222,895.43,0.142641,-0.0330398,0.0540753,-0.030828,-0.0360502,0.0807362,-0.0429698,-3.03094e-06,-1.99623e-05,9.21727e-06,0.0802093,-0.035408130244164115,-3.030935406655999e-06,-1.9962100754611356e-05,0.08408487725185232,9.21731247927049e-06,-0.04205968057215814
95,0.085085,-0.176187,896.184,-0.229014,0.0407042,-0.00910427,-0.111392,-0.0364723,0.0816583,-0.0434696,-1.94939e-06,-2.09561e-05,7.89572e-06,0.0811719,-0.035815198554577266,-1.949388099942162e-06,-2.095588042250185e-05,0.08508497294042106,7.895751171327348e-06,-0.04253833951697383
96,0.086085,0.256327,897.73,0.318972,-0.0667629,0.0875874,0.00836799,-0.0368925,0.0825794,-0.0439658,-3.54089e-06,-1.95442e-05,9.58167e-06,0.0821321,-0.03622026389795585,-3.5408837310013652e-06,-1.95440090133836e-05,0.08608490515708156,9.581715904261046e-06,-0.04301331414195553
97,0.087085,-0.228437,898.201,-0.294888,0.0544185,-0.0199729,-0.124925,-0.0373143,0.0834997,-0.0444655,-1.81265e-06,-2.11354e-05,7.53968e-06,0.0830937,-0.036626700467145334,-1.8126483571911933e-06,-2.1135176649034193e-05,0.08708488916736168,7.539708423376368e-06,-0.04349140092894688
98,0.088085,0.357339,899.86,0.445586,-0.0916378,0.110478,0.0359284,-0.0377334,0.0844192,-0.0449601,-3.97962e-06,-1.92045e-05,9.85167e-06,0.0840521,-0.03703036562303763,-3.979612081317363e-06,-1.920431559476743e-05,0.08808492341823881,9.851718527853492e-06,-0.04396437310638601
99,0.089085,-0.332918,900.039,-0.426756,0.0806591,-0.0433188,-0.153549,-0.038155,0.0853378,-0.0454599,-1.51279e-06,-2.14678e-05,6.98473e-06,0.0850127,-0.037436268050646926,-1.5127888557397995e-06,-2.14675695684452e-05,0.08908489744664516,6.984754393313253e-06,-0.04444208032372965
100,0.090085,0.485551,901.905,0.607575,-0.123695,0.139295,0.0711531,-0.038573,0.0862556,-0.0459526,-4.52881e-06,-1.8764e-05,1.02396e-05,0.0859691,-0.03783853561082451,-4.528799744996093e-06,-1.87638239572685e-05,0.09008491840494148,1.0239652424859358e-05,-0.04491276774738551
101,0.091085,-0.48053,901.713,-0.613396,0.117692,-0.0762728,-0.194192,-0.0389945,0.0871725,-0.0464526,-1.05809e-06,-2.19334e-05,6.25163e-06,0.0869288,-0.03824400121018645,-1.0580894401757135e-06,-2.193315946474872e-05,0.09108487562695955,6.251649541377802e-06,-0.04539019199750294
102,0.092085,-0.283724,902.818,-0.364205,0.067539,-0.0327729,-0.141217,-0.039413,0.0880886,-0.0469473,-1.44115e-06,-2.16771e-05,6.48791e-06,0.0878851,-0.03864641188537299,-1.4411489615007156e-06,-2.1676865053388283e-05,0.09208487646196728,6.487931046628148e-06,-0.045862320678863866
103,0.093085,0.101441,904.113,0.126797,-0.0296042,0.0517596,-0.0333072,-0.0398308,0.0890039,-0.0474406,-2.76691e-06,-2.05586e-05,7.84884e-06,0.0888403,-0.039047981520749064,-2.7669061720692056e-06,-2.0558388673430628e-05,0.09308491934920271,7.848870802185104e-06,-0.046332880722895764
104,0.094085,-0.141015,904.664,-0.184791,0.0325744,-0.00146202,-0.100848,-0.0402497,0.0899183,-0.0479362,-1.86209e-06,-2.13819e-05,6.72752e-06,0.0897961,-0.039450440020472044,-1.8620882663578087e-06,-2.1381671408859937e-05,0.09408489331787862,6.727542629869632e-06,-0.04680540104700148
105,0.095085,0.218024,905.879,0.270931,-0.0572201,0.0793103,-0.000950374,-0.040667,0.0908319,-0.0484286,-3.19457e-06,-2.01959e-05,8.11515e-06,0.0907498,-0.03985119372877466,-3.1945648973907836e-06,-2.019569606415139e-05,0.09508490601265662,8.11518292787028e-06,-0.04727463853177638
106,0.096085,-0.179894,906.207,-0.234105,0.0429334,-0.00956628,-0.110991,-0.0410855,0.0917447,-0.048924,-1.77434e-06,-2.14961e-05,6.41628e-06,0.0917045,-0.0402529319346161,-1.7743384258528394e-06,-2.1495868960497155e-05,0.09608495586818178,6.416300584399792e-06,-0.047746501785669304
107,0.097085,0.29626,907.508,0.369298,-0.076603,0.0971003,0.0205499,-0.0415019,0.0926566,-0.049415,-3.55055e-06,-1.99122e-05,8.28639e-06,0.0926563,-0.04065248742053318,-3.550543696828612e-06,-1.9912001753441544e-05,0.09708493160908205,8.286424332260012e-06,-0.04821394348696395
108,0.098085,-0.25938,907.611,-0.334728,0.0630587,-0.0274515,-0.132891,-0.0419201,0.0935677,-0.0499101,-1.56053e-06,-2.17292e-05,5.95175e-06,0.0936099,-0.04105360267124902,-1.5605287824183023e-06,-2.1728963922607036e-05,0.09808494117545319,5.9517677117870704e-06,-0.048685056129985305
109,0.099085,0.393031,909.069,0.491895,-0.100931,0.11893,0.0473332,-0.0423354,0.094478,-0.0503995,-3.9832e-06,-1.95586e-05,8.53986e-06,0.0945598,-0.04145177042480286,-3.983192067069652e-06,-1.9558408731801258e-05,0.09908498299738366,8.539896464654362e-06,-0.04915051575625451
110,0.1001,-0.369978,908.893,-0.474937,0.0910188,-0.0523146,-0.163493,-0.0427533,0.0953874,-0.0508947,-1.23437e-06,-2.20587e-05,5.35867e-06,0.0955123,-0.04185226404097275,-1.234369238156674e-06,-2.2058456708662355e-05,0.10008494549495439,5.3586843578035115e-06,-0.04962125985499333
111,0.1011,0.522997,910.585,0.656887,-0.13376,0.14832,0.0833882,-0.0431674,0.096296,-0.0513821,-4.53928e-06,-1.90896e-05,8.92774e-06,0.0964602,-0.04224895087875491,-4.5392696974566604e-06,-1.9089417794715402e-05,0.10108493690373255,8.927779852285767e-06,-0.050084361585880366
112,0.1021,-0.519322,910.05,-0.664438,0.128755,-0.0858496,-0.20496,-0.0435853,0.0972038,-0.0518776,-7.66397e-07,-2.25106e-05,4.60302e-06,0.0974118,-0.04264911142281336,-7.663967063198385e-07,-2.2510346638360268e-05,0.10208495564928599,4.603030594019231e-06,-0.05055492819221008
113,0.1031,-0.295164,910.94,-0.380113,0.0715,-0.0358726,-0.143996,-0.044,0.0981107,-0.0523673,-1.23018e-06,-2.21695e-05,4.92769e-06,0.0983597,-0.04304604252695332,-1.230179243361107e-06,-2.2169254258463944e-05,0.10308488984719189,4.927702140999912e-06,-0.05101975762109956
114,0.1041,0.093246,912.002,0.117058,-0.0274472,0.0497957,-0.0343477,-0.0444141,0.0990169,-0.0528556,-2.57114e-06,-2.10353e-05,6.29886e-06,0.0993064,-0.04344223512340428,-2.571136694662357e-06,-2.1035078759612524e-05,0.1040849584370116,6.298879837940419e-06,-0.051483031555916936
115,0.1051,-0.137635,912.334,-0.181116,0.0323466,-0.00115961,-0.0993158,-0.0448291,0.0999222,-0.0533462,-1.69839e-06,-2.18158e-05,5.20993e-06,0.100254,-0.04383912423564107,-1.6983885577914748e-06,-2.1815562037175162e-05,0.10508493912284589,5.2099435716712605e-06,-0.051948259850803535
116,0.1061,0.208322,913.31,0.259536,-0.0548525,0.0771766,-0.00227979,-0.0452427,0.100827,-0.0538338,-2.9882e-06,-2.06621e-05,6.5469e-06,0.101199,-0.0442345106023202,-2.988195535347238e-06,-2.066188654026302e-05,0.10608527245832056,6.5469214309832324e-06,-0.05241041719618289
117,0.1071,-0.168872,913.442,-0.220827,0.0408366,-0.00757136,-0.10737,-0.0456574,0.10173,-0.0543242,-1.63276e-06,-2.18894e-05,4.91882e-06,0.102145,-0.04463078437772694,-1.6327586670472627e-06,-2.188916042877853e-05,0.10708451855106182,4.918832097411396e-06,-0.052875001202280836
118,0.1081,0.278622,914.501,0.348042,-0.0723574,0.0932711,0.0171446,-0.04607,0.102633,-0.0548105,-3.31198e-06,-2.03886e-05,6.6774e-06,0.103089,-0.04502488840684049,-3.3119745154186475e-06,-2.0388392153902757e-05,0.10808466737054467,6.6774222939880445e-06,-0.05333547611564626
119,0.1091,-0.2379,914.442,-0.308426,0.0584381,-0.0232038,-0.126492,-0.0464844,0.103535,-0.0553006,-1.45152e-06,-2.20737e-05,4.48654e-06,0.104034,-0.045420548106732794,-1.4515189465935663e-06,-2.207345637772473e-05,0.10908461064713415,4.486550064575212e-06,-0.053799322723906084
120,0.1101,0.362413,915.643,0.454462,-0.0935592,0.112264,0.0404841,-0.046896,0.104437,-0.0557853,-3.69456e-06,-2.0063e-05,6.87103e-06,0.104975,-0.04581337216039594,-3.694553175170867e-06,-2.0062798739339804e-05,0.1100854562794602,6.871053605639332e-06,-0.054257835062739845
121,0.1111,-0.332576,915.351,-0.428774,0.0825417,-0.0446204,-0.152841,-0.0473101,0.105337,-0.0562754,-1.17747e-06,-2.23376e-05,3.94842e-06,0.105919,-0.04620841904288209,-1.1774693068344888e-06,-2.2337350517709353e-05,0.11108498290962743,3.948427794941978e-06,-0.05472122973363591
122,0.1121,0.472519,916.756,0.594631,-0.121551,0.137274,0.0712392,-0.0477206,0.106237,-0.0567583,-4.17568e-06,-1.9646e-05,7.17248e-06,0.106859,-0.046599870136031174,-4.175671281858584e-06,-1.9645807018631167e-05,0.11208540951869139,7.1725057222415955e-06,-0.055177594653619155
123,0.1131,-0.458019,916.166,-0.588388,0.114465,-0.0729622,-0.187876,-0.0481344,0.107135,-0.0572485,-7.90014e-07,-2.26993e-05,3.28076e-06,0.107802,-0.046994305495464794,-7.900136879124275e-07,-2.269904237284237e-05,0.1130845107457501,3.280765381807882e-06,-0.0556406330967254
124,0.1141,0.618214,917.854,0.780281,-0.15871,0.170459,0.11195,-0.0485437,0.108033,-0.0577293,-4.78961e-06,-1.91062e-05,7.61828e-06,0.108739,-0.04738429091026597,-4.789598529786332e-06,-1.910601747767693e-05,0.11408450956867111,7.6183090191861425e-06,-0.0560945719446887
125,0.1151,-0.623206,916.88,-0.798699,0.15648,-0.110227,-0.234142,-0.0489575,0.108931,-0.05822,-2.56616e-07,-2.31875e-05,2.44578e-06,0.109681,-0.047778401743532206,-2.56615967031415e-07,-2.318723117200605e-05,0.11508540679385715,2.445782991022938e-06,-0.05655763271698344
126,0.1161,-0.337065,917.639,-0.435655,0.0835738,-0.0456991,-0.155428,-0.0493675,0.109827,-0.0587037,-8.81694e-07,-2.26882e-05,2.95095e-06,0.110619,-0.048168732575528894,-8.816936113431595e-07,-2.2687942624721735e-05,0.11608497105626192,2.9509543539862904e-06,-0.05701386544125864
127,0.1171,0.0841781,918.544,0.106926,-0.0252484,0.0473774,-0.0353743,-0.0497771,0.110723,-0.0591862,-2.34046e-06,-2.14627e-05,4.44413e-06,0.111555,-0.04855852282817252,-2.3404572611074315e-06,-2.1462469677935303e-05,0.11708543132959859,4.444139875214859e-06,-0.05746874650230227
128,0.1181,-0.146008,918.685,-0.192587,0.0350813,-0.00367116,-0.101146,-0.0501877,0.111617,-0.0596711,-1.45225e-06,-2.22425e-05,3.33262e-06,0.112493,-0.04894910450679324,-1.4522489454327214e-06,-2.224225263747215e-05,0.11808455224571235,3.3326255530763405e-06,-0.05792566911728236
129,0.1191,0.207846,919.487,0.260141,-0.0548567,0.0769684,-0.000910716,-0.0505968,0.112511,-0.060153,-2.77567e-06,-2.10551e-05,4.70785e-06,0.113428,-0.049338099853716066,-2.7756661478139932e-06,-2.1054878342918748e-05,0.11908456677531065,4.707861081865161e-06,-0.0583795453670688
130,0.1201,-0.170434,919.437,-0.223588,0.0419224,-0.00847753,-0.107207,-0.051007,0.113405,-0.0606377,-1.40314e-06,-2.2283e-05,3.05957e-06,0.114364,-0.04972798139498502,-1.4031390156432622e-06,-2.2282751735769324e-05,0.1200854757176415,3.0595746804973345e-06,-0.05883583820992577
131,0.1211,0.274867,920.321,0.344525,-0.0716096,0.0924473,0.0176842,-0.0514152,0.114297,-0.0611183,-3.08273e-06,-2.07802e-05,4.81745e-06,0.115297,-0.05011580327314913,-3.082725248404472e-06,-2.0779984093111104e-05,0.12108503770034962,4.817461603856543e-06,-0.059288053030156496
132,0.1221,-0.233161,920.102,-0.303355,0.0580246,-0.0227699,-0.124671,-0.0518251,0.115188,-0.0616027,-1.23894e-06,-2.24355e-05,2.64469e-06,0.116232,-0.050505081017463316,-1.2389392325395931e-06,-2.2435248326013735e-05,0.12208436960519164,2.644693497089179e-06,-0.059743623549180946
133,0.1231,0.351108,921.122,0.441584,-0.0910318,0.109821,0.0390446,-0.0522323,0.116079,-0.0620818,-3.43461e-06,-2.04679e-05,4.97498e-06,0.117164,-0.050891636640406857,-3.4346041016819484e-06,-2.0467690533987337e-05,0.12308459231155422,4.97499237517296e-06,-0.0601939924846453
134,0.1241,-0.318098,920.698,-0.411621,0.0797976,-0.0420956,-0.148458,-0.0526418,0.116969,-0.062566,-9.94386e-07,-2.26569e-05,2.1383e-06,0.118097,-0.05128021694795448,-9.94385505603823e-07,-2.2656643334340032e-05,0.1240845825283503,2.1383022861254375e-06,-0.060648936402673215
135,0.1251,0.448907,921.909,0.566453,-0.116068,0.132145,0.0665514,-0.053048,0.117859,-0.0630434,-3.8681e-06,-2.00806e-05,5.22233e-06,0.119027,-0.051665508665784676,-3.868092518954924e-06,-2.008039838607978e-05,0.12508546313260283,5.222343636424043e-06,-0.06109727557335942
136,0.1261,-0.428393,921.227,-0.55238,0.108065,-0.0671579,-0.179465,-0.0534573,0.118747,-0.0635278,-6.55735e-07,-2.29593e-05,1.52465e-06,0.119959,-0.05205358254835002,-6.557347850266737e-07,-2.2959036437342206e-05,0.126084982744892,1.5246511622102332e-06,-0.06155196991721068
137,0.1271,0.575607,922.69,0.728393,-0.148602,0.161134,0.102206,-0.0538622,0.119635,-0.0640033,-4.41013e-06,-1.95938e-05,5.58802e-06,0.120887,-0.05243732835819426,-4.410120275410989e-06,-1.9593608042711708e-05,0.12708539032479615,5.588035612902331e-06,-0.06199809588066152
138,0.1281,-0.570711,921.681,-0.734126,0.144524,-0.0994482,-0.219587,-0.0542714,0.120521,-0.0644879,-1.98625e-07,-2.33642e-05,7.7549e-07,0.121818,-0.05282499168210464,-1.986249802410356e-07,-2.3363927059150136e-05,0.12808443049006368,7.754903006418346e-07,-0.06245254148233503
139,0.1291,-0.303357,922.283,-0.39324,0.0756325,-0.0390387,-0.145507,-0.0546771,0.121408,-0.064966,-8.06366e-07,-2.28783e-05,1.26268e-06,0.122746,-0.05320918264457286,-8.063656748991122e-07,-2.2878038293705494e-05,0.1290854852820753,1.262680797253779e-06,-0.06290067578721059
140,0.1301,0.075184,923.006,0.0950978,-0.0225309,0.0452314,-0.0370055,-0.0550823,0.122293,-0.0654431,-2.12243e-06,-2.17654e-05,2.60054e-06,0.123672,-0.05359274456887142,-2.122427747663913e-06,-2.176516313534549e-05,0.1300851682310069,2.600543381303666e-06,-0.06334765923841157
141,0.1311,-0.124753,923.053,-0.165744,0.0302589,0.000718542,-0.0943851,-0.0554884,0.123177,-0.0659223,-1.34673e-06,-2.24371e-05,1.61729e-06,0.1246,-0.053977002526442885,-1.3467290931323816e-06,-2.2436848290174893e-05,0.13108460520578125,1.6172913077650009e-06,-0.06379639551430571
142,0.1321,0.183377,923.678,0.229508,-0.0485604,0.071306,-0.00656713,-0.0558932,0.124061,-0.0663987,-2.5075e-06,-2.13937e-05,2.80876e-06,0.125525,-0.05435987513717555,-2.5074968562632804e-06,-2.139347115648338e-05,0.13208492607346445,2.8087639445395496e-06,-0.06424229668938952
143,0.1331,-0.141531,923.568,-0.187166,0.0351251,-0.00246413,-0.0984602,-0.0562989,0.124944,-0.0668776,-1.32397e-06,-2.2443e-05,1.37191e-06,0.12645,-0.05474344352372407,-1.3239691235567008e-06,-2.2442748157769365e-05,0.13308499853019828,1.371910941072585e-06,-0.06469032376485895
144,0.1341,0.23761,924.259,0.297945,-0.0621809,0.0838847,0.00857513,-0.0567028,0.125826,-0.0673529,-2.76539e-06,-2.11531e-05,2.86396e-06,0.127374,-0.0551251555549509,-2.76538617627331e-06,-2.1152876274799226e-05,0.1340848203555114,2.8639641012073724e-06,-0.06513477082276309
145,0.1351,-0.190568,924.016,-0.249709,0.0478113,-0.0137055,-0.112189,-0.0571081,0.126707,-0.0678313,-1.20514e-06,-2.25429e-05,1.00808e-06,0.128298,-0.055508035733495054,-1.2051392738188227e-06,-2.2542645910728076e-05,0.13508438932772449,1.0080805081802424e-06,-0.06558190338576464
146,0.1361,0.29707,924.817,0.373853,-0.0774098,0.0974794,0.0253565,-0.0575111,0.127588,-0.0683053,-3.05206e-06,-2.08895e-05,2.95008e-06,0.12922,-0.055888589308398684,-3.052055342456228e-06,-2.088928181587235e-05,0.13608483930822945,2.9500843514718156e-06,-0.06602471260948306
147,0.1371,-0.256137,924.417,-0.333524,0.0647437,-0.0287141,-0.13065,-0.057916,0.128468,-0.0687835,-1.02633e-06,-2.26941e-05,5.76282e-07,0.130143,-0.05627078263832652,-1.0263294732970607e-06,-2.2693842490872917e-05,0.13708503398793392,5.76282165987152e-07,-0.06647123282042178
148,0.1381,0.371725,925.364,0.469451,-0.0966245,0.114571,0.0465113,-0.058318,0.129347,-0.0692559,-3.39658e-06,-2.0573e-05,3.10029e-06,0.131063,-0.05665008553871487,-3.3965742316510728e-06,-2.0572788377304363e-05,0.13808497114080542,3.100294805991055e-06,-0.06691212766247645
149,0.1391,-0.339733,924.77,-0.440519,0.0863266,-0.0478256,-0.154277,-0.0587226,0.130225,-0.069734,-7.7994e-07,-2.29032e-05,6.78124e-08,0.131985,-0.05703168771078082,-7.799396958274585e-07,-2.2902937723667804e-05,0.13908464853962554,6.781240236009012e-08,-0.06735813034880322
150,0.1401,0.466575,925.909,0.591034,-0.121108,0.136333,0.0734033,-0.0591236,0.131103,-0.0702048,-3.81713e-06,-2.01871e-05,3.33385e-06,0.132903,-0.057409742199017955,-3.8171227147998366e-06,-2.0186896241836116e-05,0.14008520404063218,3.333855557174914e-06,-0.06779711479598771
151,0.1411,-0.445622,925.072,-0.576136,0.113656,-0.0720015,-0.184286,-0.0595279,0.131979,-0.0706829,-4.50176e-07,-2.31841e-05,-5.35492e-07,0.133824,-0.05779075441343773,-4.501758986696913e-07,-2.3183831250883635e-05,0.14108435624414306,-5.354918566347067e-07,-0.06824269447109488
152,0.1421,0.586948,926.46,0.745432,-0.152256,0.164019,0.107531,-0.0599277,0.132855,-0.0711519,-4.33417e-06,-1.97133e-05,3.67264e-06,0.134739,-0.058167374378475634,-4.3341606075220085e-06,-1.971310569415241e-05,0.14208438408845891,3.6726467440573174e-06,-0.06867958618827197
153,0.1431,-0.579303,925.318,-0.747427,0.148143,-0.102477,-0.222261,-0.0603319,0.133731,-0.0716303,-1.70131e-08,-2.35542e-05,-1.25704e-06,0.135659,-0.05854798619892099,-1.7013099817830835e-08,-2.3553922602004285e-05,0.14308528834097722,-1.2570392099453542e-06,-0.06912502331718273
154,0.1441,-0.298889,925.832,-0.388751,0.0754593,-0.0387861,-0.143891,-0.0607324,0.134605,-0.0721019,-6.79464e-07,-2.30152e-05,-7.05771e-07,0.136575,-0.058924962235958,-6.794637691376337e-07,-2.3014935152332328e-05,0.1440847815979165,-7.057707509527944e-07,-0.0695639204561066
155,0.1451,0.0659813,926.439,0.0836706,-0.0198959,0.0428153,-0.0385138,-0.0611326,0.135479,-0.0725726,-1.95295e-06,-2.19398e-05,5.8538e-07,0.13749,-0.05930150511481558,-1.952948093020268e-06,-2.1939559324390956e-05,0.14508514879381806,5.853801712252249e-07,-0.07000177366191174
156,0.1461,-0.115383,926.409,-0.154164,0.0284509,0.00229845,-0.0910554,-0.0615337,0.136352,-0.0730454,-1.23985e-06,-2.25475e-05,-3.27493e-07,0.138405,-0.059678743620874,-1.2398492313936416e-06,-2.2547245807080785e-05,0.14608524460702066,-3.2749294642808735e-07,-0.07044137289387697
157,0.1471,0.168663,926.912,0.211489,-0.044721,0.0677127,-0.00945864,-0.0619334,0.137224,-0.0735156,-2.31615e-06,-2.15793e-05,7.70603e-07,0.139319,-0.06005451492415104,-2.3161473177157887e-06,-2.157906716859781e-05,0.14708506679943967,7.706032969512222e-07,-0.07087834861929831
158,0.1481,-0.125742,926.744,-0.167421,0.0316694,0.000551011,-0.0933569,-0.0623341,0.138095,-0.073988,-1.23624e-06,-2.25263e-05,-5.49915e-07,0.140233,-0.060431075631044884,-1.2362392358689078e-06,-2.2526046284832013e-05,0.1480846131318585,-5.499148487686512e-07,-0.07131716203152205
159,0.1491,0.215039,927.302,0.270072,-0.056409,0.0785359,0.00355802,-0.062733,0.138966,-0.0744572,-2.54121e-06,-2.13593e-05,7.91332e-07,0.141145,-0.06080579493224225,-2.541206771122795e-06,-2.13590718918244e-05,0.14908503044839128,7.913323130104288e-07,-0.07175279781095101
160,0.1501,-0.165597,927.025,-0.218383,0.04206,-0.00864064,-0.10457,-0.0631332,0.139836,-0.0749291,-1.14578e-06,-2.25909e-05,-8.79924e-07,0.142058,-0.061181585252451764,-1.1457793436253638e-06,-2.259064482756923e-05,0.15008516942225114,-8.799236128620436e-07,-0.0721907343264162
161,0.1511,0.2635,927.675,0.332102,-0.0688898,0.0896578,0.0173309,-0.0635313,0.140705,-0.075397,-2.78319e-06,-2.11272e-05,8.30207e-07,0.142968,-0.061555254479568,-2.783186126897874e-06,-2.112697682232767e-05,0.1510850278100273,8.302073446486702e-07,-0.07262475473483199
162,0.1521,-0.218328,927.274,-0.285987,0.0557793,-0.0207817,-0.119501,-0.063931,0.141573,-0.0758686,-1.00856e-06,-2.26953e-05,-1.26272e-06,0.143879,-0.0619302758913306,-1.0085594913666895e-06,-2.269504246366072e-05,0.15208460336719964,-1.2627192027547807e-06,-0.07306200178953959
163,0.1531,0.322888,928.044,0.408387,-0.0842649,0.103301,0.0342907,-0.0643282,0.142441,-0.0763352,-3.0672e-06,-2.08571e-05,9.16067e-07,0.144787,-0.06230280319692594,-3.0671952961913718e-06,-2.0856882492203965e-05,0.1530850469326166,9.160674196984075e-07,-0.07349441017078406
164,0.1541,-0.284248,927.49,-0.370619,0.0729272,-0.0359406,-0.138243,-0.0647276,0.143308,-0.0768065,-8.21401e-07,-2.28422e-05,-1.70197e-06,0.145698,-0.06267724467638802,-8.214006625983927e-07,-2.2841939118944943e-05,0.15408520517425428,-1.7019685516483918e-06,-0.07393096937201404
165,0.1551,0.396764,928.413,0.50339,-0.103446,0.120305,0.0554023,-0.0651238,0.144174,-0.0772716,-3.40597e-06,-2.05373e-05,1.06234e-06,0.146604,-0.0630485383939049,-3.4059641996764256e-06,-2.053708911109453e-05,0.15508507584344655,1.0623405641840833e-06,-0.07436158393098091
166,0.1561,-0.366075,927.672,-0.475751,0.094208,-0.054734,-0.161571,-0.0655228,0.145039,-0.0777428,-5.74054e-07,-2.30406e-05,-2.20935e-06,0.147513,-0.06342230745519928,-5.740538352450031e-07,-2.304033456745902e-05,0.1560846566904417,-2.2093475593454315e-06,-0.0747976420092813
167,0.1571,0.4886,928.786,0.62156,-0.127344,0.14149,0.081646,-0.065918,0.145904,-0.0782063,-3.81286e-06,-2.01559e-05,1.28333e-06,0.148418,-0.06379236983015124,-3.8128527310998805e-06,-2.0155696871193562e-05,0.15708510254893282,1.2833308233872742e-06,-0.07522637393591047
168,0.1581,-0.467333,927.816,-0.605913,0.120533,-0.0779606,-0.190504,-0.0663168,0.146768,-0.0786775,-2.53556e-07,-2.33018e-05,-2.79994e-06,0.149325,-0.06416565499505378,-2.5355596788845247e-07,-2.330152851515166e-05,0.1580852560816437,-2.7999360802111184e-06,-0.07566202462114979
169,0.1591,0.602509,929.171,0.76821,-0.157051,0.167829,0.114191,-0.0667109,0.147631,-0.0791392,-4.30401e-06,-1.96983e-05,1.59617e-06,0.150228,-0.0645343946454996,-4.304000737809233e-06,-1.9698105989784942e-05,0.159085115034725,1.5961712738210565e-06,-0.07608869296041687
170,0.1601,-0.592276,927.918,-0.766582,0.153001,-0.106578,-0.226282,-0.0671095,0.148493,-0.0796107,1.55613e-07,-2.36389e-05,-3.49206e-06,0.151135,-0.06490719693136238,1.5561301203170785e-07,-2.36386206033945e-05,0.1600846771532649,-3.49205390282048e-06,-0.07652421445942414
171,0.1611,-0.295977,928.376,-0.386359,0.0757606,-0.0389129,-0.142724,-0.0675044,0.149355,-0.0800753,-5.70383e-07,-2.30405e-05,-2.86543e-06,0.152038,-0.06527639217689507,-5.70382837294936e-07,-2.3040234569671192e-05,0.16108510126581677,-2.865425894671425e-06,-0.07695316165723642
172,0.1621,0.0563475,928.899,0.0717066,-0.0170925,0.0402119,-0.0401299,-0.067899,0.150216,-0.080539,-1.80537e-06,-2.20015e-05,-1.61544e-06,0.15294,-0.06564516134959919,-1.805368370355609e-06,-2.2001257968806698e-05,0.16208522602993325,-1.615438695146132e-06,-0.07738107925581328
173,0.1631,-0.106639,928.82,-0.143338,0.0268183,0.00369312,-0.0878615,-0.0682944,0.151076,-0.0810047,-1.15392e-06,-2.25468e-05,-2.45846e-06,0.153842,-0.0660145322233675,-1.153919334195841e-06,-2.2546545822788033e-05,0.16308504918665379,-2.4584569779939613e-06,-0.07781064285555606
174,0.1641,0.154352,929.23,0.193958,-0.0409073,0.0641156,-0.0122399,-0.0686886,0.151935,-0.081468,-2.14891e-06,-2.16519e-05,-1.44894e-06,0.154742,-0.06638263673659872,-2.14890769112408e-06,-2.165166559930931e-05,0.16408456847597952,-1.4489389502658767e-06,-0.07823779422746524
175,0.1651,-0.111017,929.029,-0.148929,0.0284838,0.00329877,-0.0884807,-0.0690836,0.152794,-0.0819333,-1.16754e-06,-2.25022e-05,-2.65816e-06,0.155643,-0.06675134277085204,-1.1675393184473748e-06,-2.2501946827402364e-05,0.1650849467212434,-2.6581564670502544e-06,-0.07866659041464197
176,0.1661,0.193687,929.482,0.243676,-0.0508471,0.0733588,-0.00114232,-0.069477,0.153652,-0.0823956,-2.34342e-06,-2.1452e-05,-1.45837e-06,0.156542,-0.06711841058563273,-2.3434172542469156e-06,-2.145176990753228e-05,0.16608501857500402,-1.458368936613219e-06,-0.0790924244107809
177,0.1671,-0.142672,929.194,-0.18951,0.0368071,-0.0040492,-0.0974269,-0.0698715,0.154509,-0.0828604,-1.10162e-06,-2.25366e-05,-2.9569e-06,0.157442,-0.06748635978990425,-1.1016193932622542e-06,-2.253634605275945e-05,0.1670847817732637,-2.9568956283476666e-06,-0.07952036279133079
178,0.1681,0.232473,929.723,0.293453,-0.0608897,0.0822938,0.00996291,-0.0702642,0.155366,-0.0833215,-2.54482e-06,-2.12492e-05,-1.4605e-06,0.158339,-0.06785248600282767,-2.544816761984592e-06,-2.1248974237386697e-05,0.16808540213582668,-1.460498933458787e-06,-0.07994469811402083
179,0.1691,-0.184219,929.337,-0.24294,0.0477046,-0.0136745,-0.109257,-0.0706582,0.156221,-0.0837859,-9.9983e-07,-2.26014e-05,-3.29599e-06,0.159237,-0.06821967978141807,-9.998295001922841e-07,-2.2601144590295164e-05,0.16908454222617508,-3.2959845682745126e-06,-0.0803718725986241
180,0.1701,0.278736,929.962,0.353079,-0.0729376,0.0929579,0.0232881,-0.07105,0.157076,-0.0842458,-2.77538e-06,-2.10202e-05,-1.42959e-06,0.160133,-0.06858467980270633,-2.775376148678177e-06,-2.1019979077108175e-05,0.17008453694660286,-1.4295889780857607e-06,-0.08079471233496571
181,0.1711,-0.235083,929.459,-0.308459,0.0610444,-0.0254431,-0.123805,-0.0714435,0.157931,-0.0847098,-8.62306e-07,-2.26962e-05,-3.67527e-06,0.16103,-0.06895111962943967,-8.623056282353048e-07,-2.269594244319606e-05,0.1710853870281317,-3.675263246183391e-06,-0.08122112465313414
182,0.1721,0.334987,930.202,0.425672,-0.0876298,0.105946,0.0395045,-0.0718345,0.158784,-0.0851685,-3.04384e-06,-2.0757e-05,-1.35651e-06,0.161924,-0.06931508858109747,-3.0438353675332763e-06,-2.07567845749157e-05,0.17208474903056525,-1.3565090799527724e-06,-0.08164247187988138
183,0.1731,-0.296857,929.559,-0.3881,0.077243,-0.0397192,-0.141526,-0.0722277,0.159637,-0.0856322,-6.82911e-07,-2.28267e-05,-4.10169e-06,0.16282,-0.06968096195284867,-6.829107668249179e-07,-2.2826439472822813e-05,0.17308496385246275,-4.101681588042361e-06,-0.08206821554937238
184,0.1741,0.403374,930.447,0.51398,-0.105531,0.121768,0.0592193,-0.0726177,0.160489,-0.0860895,-3.35846e-06,-2.04523e-05,-1.23242e-06,0.163712,-0.07004371563612088,-3.358454360391505e-06,-2.0452090853106952e-05,0.17408485813614427,-1.2324192405488432e-06,-0.08248788978857324
185,0.1751,-0.371662,929.634,-0.48459,0.0968527,-0.0569866,-0.163032,-0.0730105,0.16134,-0.086553,-4.53765e-07,-2.29994e-05,-4.58433e-06,0.164606,-0.07040893073167853,-4.5376489710147183e-07,-2.2999135515844316e-05,0.17508442960775517,-4.584319492018096e-06,-0.0829130581112858
186,0.1761,0.486336,930.7,0.62116,-0.127291,0.141003,0.0831316,-0.0733996,0.162191,-0.0870088,-3.72886e-06,-2.00975e-05,-1.04704e-06,0.165496,-0.07077056425636596,-3.728853047779701e-06,-2.0097298046639622e-05,0.1760848520767364,-1.0470394518069526e-06,-0.08333097108979559
187,0.1771,-0.462002,929.682,-0.60117,0.120528,-0.0778157,-0.18906,-0.0737921,0.163041,-0.0874724,-1.656e-07,-2.32224e-05,-5.13408e-06,0.16639,-0.07113521524245792,-1.6559998627929673e-07,-2.3222130362210436e-05,0.1770849491820572,-5.134066820677852e-06,-0.08375584035929218
188,0.1781,0.586749,930.964,0.750945,-0.153681,0.164335,0.112067,-0.0741801,0.16389,-0.0879265,-4.1665e-06,-1.96823e-05,-7.88263e-07,0.167278,-0.0714955448704756,-4.166491320178878e-06,-1.9682106304763636e-05,0.1780847186459973,-7.882626893440658e-07,-0.08417181237859006
189,0.1791,-0.570808,929.7,-0.741632,0.149031,-0.102869,-0.220472,-0.0745725,0.164739,-0.0883902,1.92335e-07,-2.35046e-05,-5.76372e-06,0.168171,-0.07185981854349954,1.9233501857840452e-07,-2.350432376907463e-05,0.17908533727463172,-5.763703389782826e-06,-0.08459638346477616
190,0.1801,-0.277422,930.108,-0.363504,0.0718983,-0.0355963,-0.136991,-0.0749613,0.165586,-0.0888471,-5.52342e-07,-2.28894e-05,-5.11066e-06,0.169059,-0.07222060930378116,-5.523418474817632e-07,-2.2889138039716705e-05,0.18008444561795578,-5.11064694064256e-06,-0.0850145358429859
191,0.1811,0.047539,930.552,0.0604041,-0.0143078,0.0377955,-0.0416122,-0.0753498,0.166433,-0.0893033,-1.69679e-06,-2.19272e-05,-3.95657e-06,0.169947,-0.07258098159021731,-1.6967885604346478e-06,-2.192695960068214e-05,0.18108440056453268,-3.956562172779954e-06,-0.08543185701353773
192,0.1821,-0.0929372,930.453,-0.125951,0.023932,0.0062386,-0.0831159,-0.0757391,0.16728,-0.0897612,-1.12672e-06,-2.23946e-05,-4.70562e-06,0.170835,-0.07294195554594485,-1.1267193652519936e-06,-2.2394349242782496e-05,0.182085202831739,-4.705608928623484e-06,-0.08585054190099062
193,0.1831,0.136575,930.782,0.171783,-0.0360595,0.0596533,-0.0160596,-0.0761272,0.168125,-0.0902171,-2.00824e-06,-2.16018e-05,-3.82054e-06,0.171721,-0.07330167696454104,-2.0082379834640562e-06,-2.1601566682849516e-05,0.18308448696621915,-3.820532701759305e-06,-0.08626720765276308
194,0.1841,-0.0922429,930.579,-0.125051,0.0242452,0.00696197,-0.0823423,-0.076516,0.16897,-0.0906746,-1.15522e-06,-2.23306e-05,-4.88432e-06,0.172608,-0.07366190723923394,-1.1552193327490912e-06,-2.2330350674004684e-05,0.18408461585265035,-4.884308071773091e-06,-0.0866851447948509
195,0.1851,0.168202,930.94,0.211799,-0.0440706,0.067131,-0.00708077,-0.0769035,0.169814,-0.0911295,-2.16948e-06,-2.14256e-05,-3.86152e-06,0.173492,-0.074020793711434,-2.1694776466407717e-06,-2.1425370473449057e-05,0.18508440512015212,-3.861512544389711e-06,-0.08710051723885848
196,0.1861,-0.115759,930.671,-0.155286,0.0304925,0.00146284,-0.089015,-0.0772917,0.170658,-0.0915865,-1.11357e-06,-2.23365e-05,-5.15055e-06,0.174378,-0.07438018907616162,-1.1135693799291246e-06,-2.233625054226529e-05,0.18608503856598868,-5.150536735887279e-06,-0.08751761698792837
197,0.1871,0.19737,931.089,0.249344,-0.0516592,0.073872,0.00134589,-0.0776784,0.171501,-0.0920404,-2.32964e-06,-2.12535e-05,-3.90374e-06,0.175261,-0.07473805705881187,-2.329637286413444e-06,-2.1253274145927037e-05,0.18708532981702408,-3.903732380461378e-06,-0.08793169875861051
198,0.1881,-0.146466,930.747,-0.194908,0.0386227,-0.00570104,-0.097803,-0.0780662,0.172343,-0.0924968,-1.04589e-06,-2.23641e-05,-5.44586e-06,0.176145,-0.07509680407474206,-1.0458894530440688e-06,-2.2363849925377544e-05,0.18808527658324148,-5.445845171370145e-06,-0.08834787175339553
199,0.1891,0.231136,931.237,0.293026,-0.0605012,0.0816774,0.0111702,-0.0784522,0.173184,-0.0929496,-2.50802e-06,-2.10652e-05,-3.92486e-06,0.177026,-0.07545374781379566,-2.508016854974038e-06,-2.1064978130258538e-05,0.1890848765737274,-3.924852297720882e-06,-0.08876057439413643
200,0.1901,-0.183233,930.811,-0.24244,0.0483562,-0.0142675,-0.10838,-0.0788395,0.174025,-0.0934057,-9.54563e-07,-2.24114e-05,-5.76755e-06,0.177909,-0.07581175524465322,-9.545625444529193e-07,-2.241114886647466e-05,0.19008531758140368,-5.7675333676732166e-06,-0.0891760959292659
201,0.1911,0.271196,931.387,0.344924,-0.0710239,0.0909514,0.0228372,-0.0792246,0.174865,-0.0938573,-2.71031e-06,-2.08553e-05,-3.91901e-06,0.178789,-0.07616759161701747,-2.710306327147194e-06,-2.0855082529691593e-05,0.19108540922785822,-3.919002320662557e-06,-0.08958733114044448
202,0.1921,-0.22685,930.861,-0.29888,0.059901,-0.0244178,-0.120966,-0.0796115,0.175704,-0.0943129,-8.36424e-07,-2.24811e-05,-6.11912e-06,0.17967,-0.07652495323975705,-8.36423650230067e-07,-2.248084730194222e-05,0.19208514921848163,-6.119101278234673e-06,-0.09000202067892693
203,0.1931,0.318745,931.54,0.406564,-0.0835413,0.10198,0.0366847,-0.0799958,0.176542,-0.0947634,-2.94109e-06,-2.062e-05,-3.88129e-06,0.180549,-0.07687977651656752,-2.941085675001176e-06,-2.0619787409303925e-05,0.1930845352577928,-3.881282467754765e-06,-0.0904118824403175
204,0.1941,-0.278443,930.897,-0.365679,0.0735528,-0.0364112,-0.135888,-0.0803822,0.17738,-0.0952187,-6.87235e-07,-2.25769e-05,-6.50543e-06,0.181429,-0.0772364012665826,-6.872347638742227e-07,-2.2576645143712604e-05,0.19408475913360923,-6.5054088397298315e-06,-0.09082592364660935
205,0.1951,0.375066,931.697,0.479608,-0.0983972,0.115069,0.0530831,-0.0807657,0.178217,-0.0956679,-3.20545e-06,-2.03545e-05,-3.80624e-06,0.182305,-0.07759021325891102,-3.2054448625418175e-06,-2.0354292848523414e-05,0.19508462646310853,-3.8062327563093135e-06,-0.0912342329285768
206,0.1961,-0.339315,930.916,-0.444529,0.0896559,-0.0505476,-0.153531,-0.0811518,0.179054,-0.096123,-5.021e-07,-2.2703e-05,-6.93218e-06,0.183184,-0.07794628693312555,-5.020998739002636e-07,-2.2702742288882582e-05,0.19608533103189818,-6.932155972472209e-06,-0.09164771813347605
207,0.1971,0.441624,931.862,0.565965,-0.115986,0.130566,0.0724569,-0.0815344,0.179889,-0.0965709,-3.50924e-06,-2.00539e-05,-3.68759e-06,0.184059,-0.07829899720596722,-3.5092338426245817e-06,-2.005369892188469e-05,0.19708447936968843,-3.68758320079543e-06,-0.09205447801984734
208,0.1981,-0.410955,930.919,-0.537364,0.108603,-0.0671677,-0.174337,-0.0819201,0.180724,-0.0970258,-2.75468e-07,-2.28639e-05,-7.40592e-06,0.184937,-0.07865442873336848,-2.75467962107534e-07,-2.2863638623027427e-05,0.19808446234475308,-7.405892576195505e-06,-0.09246740850963542
209,0.1991,0.520097,932.035,0.667822,-0.136761,0.148875,0.0952933,-0.0823017,0.181559,-0.0974722,-3.85926e-06,-1.9712e-05,-3.51819e-06,0.18581,-0.07900594712938824,-3.859252553084502e-06,-1.9711805719802022e-05,0.19908528065430553,-3.5181838111686403e-06,-0.09287244064857725
210,0.2001,-0.49505,930.902,-0.646382,0.130837,-0.0866557,-0.198807,-0.0826872,0.182392,-0.0979271,-1.08587e-09,-2.3065e-05,-7.9341e-06,0.186687,-0.07936092191098465,-1.0858699495130963e-09,-2.3064734004929477e-05,0.2000845348246716,-7.934068525061733e-06,-0.0932849991317849
211,0.2011,0.612403,932.221,0.78769,-0.161244,0.170455,0.12215,-0.0830678,0.183225,-0.0983719,-4.26335e-06,-1.93219e-05,-3.28983e-06,0.187558,-0.07971125047235117,-4.263340911969671e-06,-1.9321713333297907e-05,0.20108462172054353,-3.2898245885260025e-06,-0.09368821628202895
212,0.2021,-0.593506,930.864,-0.774062,0.15686,-0.109444,-0.227512,-0.0834531,0.184057,-0.0988269,3.28045e-07,-2.3312e-05,-8.52521e-06,0.188434,-0.08006576942508203,3.280450537879176e-07,-2.3311728277408683e-05,0.20208433995092978,-8.525173660456353e-06,-0.09410049434324896
213,0.2031,-0.27722,931.266,-0.364892,0.0731979,-0.0364556,-0.13655,-0.0838346,0.184889,-0.0992747,-5.0472e-07,-2.26188e-05,-7.76615e-06,0.189305,-0.08041665739790982,-5.047198726737534e-07,-2.2618544196828516e-05,0.20308489029299426,-7.76611984354414e-06,-0.0945060653277614
214,0.2041,0.0363752,931.667,0.0464736,-0.0108823,0.034642,-0.0435391,-0.084216,0.18572,-0.0997221,-1.61531e-06,-2.16928e-05,-6.64604e-06,0.190176,-0.08076731960924377,-1.6153086953574203e-06,-2.169256471296066e-05,0.2040850693536702,-6.6460179151128784e-06,-0.09491109270275389
215,0.2051,-0.0847698,931.559,-0.115764,0.022588,0.00738143,-0.0798967,-0.084598,0.18655,-0.100171,-1.1099e-06,-2.20962e-05,-7.32055e-06,0.191047,-0.08111839943263754,-1.1098993840663596e-06,-2.2095955880763185e-05,0.20508487482310644,-7.320523204845664e-06,-0.0953172959341031
216,0.2061,0.122163,931.833,0.154069,-0.0319704,0.0558293,-0.0187662,-0.084979,0.18738,-0.100618,-1.91031e-06,-2.13773e-05,-6.5213e-06,0.191917,-0.08146842663803688,-1.9103081753124584e-06,-2.1377071507178158e-05,0.20608551047556056,-6.52127873634889e-06,-0.09572159873441277
217,0.2071,-0.0786901,931.633,-0.107841,0.021465,0.00935248,-0.0775449,-0.0853606,0.188208,-0.101067,-1.15222e-06,-2.20137e-05,-7.47619e-06,0.192787,-0.08181887141731525,-1.152219336164606e-06,-2.201345770025398e-05,0.2070845628288307,-7.476162053321467e-06,-0.09612752859850693
218,0.2081,0.148024,931.927,0.186752,-0.0385192,0.0620019,-0.0113873,-0.0857409,0.189036,-0.101513,-2.04358e-06,-2.12199e-05,-6.58573e-06,0.193655,-0.08216798931154001,-2.043577911892136e-06,-2.1219674859462856e-05,0.20808444274001103,-6.585708314132965e-06,-0.09653056583676689
219,0.2091,-0.0955449,931.676,-0.129554,0.0259992,0.00537424,-0.0823313,-0.086122,0.189864,-0.101961,-1.12835e-06,-2.19972e-05,-7.71484e-06,0.194523,-0.08251770844759931,-1.128349363388459e-06,-2.1996958063374983e-05,0.20908515089460344,-7.714810240644354e-06,-0.09693522949184519
220,0.2101,0.169609,932.013,0.214606,-0.044158,0.0670094,-0.00509219,-0.0865017,0.190691,-0.102406,-2.16867e-06,-2.10729e-05,-6.65911e-06,0.19539,-0.082866010344402,-2.168667648461131e-06,-2.107267796802592e-05,0.21008547789259424,-6.659087828153609e-06,-0.09733700391328248
221,0.2111,-0.117688,931.71,-0.158226,0.0319287,0.000164812,-0.0886965,-0.0868822,0.191517,-0.102853,-1.08549e-06,-2.19962e-05,-7.97458e-06,0.196257,-0.08321491344444165,-1.0854894108014435e-06,-2.199595808538568e-05,0.21108542141715603,-7.974548203115717e-06,-0.09774040410587326
222,0.2121,0.193638,932.099,0.245821,-0.0504851,0.0725809,0.00198474,-0.0872612,0.192342,-0.103298,-2.30381e-06,-2.0917e-05,-6.72028e-06,0.197122,-0.08356230915660046,-2.303807346226705e-06,-2.0916781241053783e-05,0.21208497915069668,-6.720257418990627e-06,-0.09814182030431773
223,0.2131,-0.143539,931.737,-0.191782,0.0388504,-0.00590789,-0.0961752,-0.0876412,0.193167,-0.103745,-1.02779e-06,-2.20074e-05,-8.25064e-06,0.197988,-0.0839104893207,-1.0277894718635494e-06,-2.2007157838954683e-05,0.2130853618596229,-8.250605963544544e-06,-0.09854486082437464
224,0.2141,0.221318,932.186,0.281846,-0.0577995,0.0790067,0.0101487,-0.0880194,0.193991,-0.104188,-2.45281e-06,-2.07488e-05,-6.76543e-06,0.198852,-0.08425688886535598,-2.4528069918483553e-06,-2.074858474510055e-05,0.21408535613885715,-6.765407114528443e-06,-0.09894411700925498
225,0.2151,-0.173365,931.756,-0.230543,0.0468353,-0.0129056,-0.104835,-0.088399,0.194814,-0.104634,-9.54062e-07,-2.20316e-05,-8.54427e-06,0.199716,-0.08460443898115744,-9.5406154487776e-07,-2.2031357306051547e-05,0.21508495966738983,-8.5442334978314e-06,-0.0993458983291744
226,0.2161,0.253254,932.276,0.323441,-0.0662587,0.0864342,0.0195679,-0.0887765,0.195637,-0.105076,-2.61794e-06,-2.0566e-05,-6.79214e-06,0.200578,-0.08494993558885433,-2.617936573190427e-06,-2.0565788521276218e-05,0.21608538620824946,-6.792116933440617e-06,-0.0997438994773796
227,0.2171,-0.207674,931.767,-0.27516,0.0560176,-0.0209467,-0.114822,-0.0891556,0.196459,-0.105522,-8.62371e-07,-2.20706e-05,-8.85765e-06,0.201442,-0.08529676532254282,-8.623706281296606e-07,-2.207035644608002e-05,0.21708541935302628,-8.857610771184632e-06,-0.10014532417385125
228,0.2181,0.290032,932.368,0.371363,-0.0760196,0.0950034,0.0304112,-0.0895324,0.19728,-0.105964,-2.80153e-06,-2.03668e-05,-6.7979e-06,0.202302,-0.0856413605755465,-2.801526075679739e-06,-2.0366592598186628e-05,0.21808505677732803,-6.79787689428224e-06,-0.10054297205391105
229,0.2191,-0.247046,931.769,-0.326386,0.0665517,-0.0301657,-0.126308,-0.089911,0.198101,-0.106409,-7.5051e-07,-2.21263e-05,-9.19335e-06,0.203164,-0.08598747123355088,-7.505097183724274e-07,-2.2126055215232476e-05,0.21908551524094566,-9.193307741295342e-06,-0.10094314138706684
230,0.2201,0.332286,932.463,0.426442,-0.0872548,0.104866,0.0428647,-0.090287,0.19892,-0.106849,-3.00615e-06,-2.01487e-05,-6.77996e-06,0.204023,-0.08633107534274642,-3.006145481543321e-06,-2.0148497016259093e-05,0.2200843552470786,-6.779937016143656e-06,-0.10133863938891541
231,0.2211,-0.292118,931.762,-0.385055,0.078608,-0.0407103,-0.139484,-0.0906652,0.19974,-0.107294,-6.16058e-07,-2.22006e-05,-9.55419e-06,0.204884,-0.08667655959486165,-6.160578102099024e-07,-2.2200353568480047e-05,0.22108523472288377,-9.554144358880912e-06,-0.10173845472887644
232,0.2221,0.380717,932.564,0.489596,-0.100155,0.116191,0.0571345,-0.0910404,0.200558,-0.107733,-3.23467e-06,-1.99095e-05,-6.73526e-06,0.205741,-0.08701917427116901,-3.2346647684811103e-06,-1.9909301807174984e-05,0.22208449108502037,-6.735237318200582e-06,-0.10213270500298355
233,0.2231,-0.34359,931.746,-0.452082,0.0923732,-0.0527419,-0.15456,-0.0914182,0.201376,-0.108178,-4.56373e-07,-2.22958e-05,-9.94331e-06,0.206601,-0.08736403327916087,-4.563728958073554e-07,-2.2295551450501883e-05,0.22308456517326558,-9.943260565470347e-06,-0.10253216706235702
234,0.2241,0.436096,932.67,0.56184,-0.114932,0.129163,0.0734476,-0.0917926,0.202194,-0.108616,-3.49028e-06,-1.96462e-05,-6.66045e-06,0.207456,-0.08770566022854565,-3.4902739090014734e-06,-1.9646007014650912e-05,0.224085457656793,-6.660427819271675e-06,-0.10292517189884154
235,0.2251,-0.402223,931.719,-0.528467,0.108051,-0.0664359,-0.171766,-0.0921701,0.20301,-0.109061,-2.68592e-07,-2.24141e-05,-1.03641e-05,0.208315,-0.08804998634616557,-2.68591963892284e-07,-2.241384880596886e-05,0.22508471903343552,-1.0364046292954399e-05,-0.10332428138889893
236,0.2261,0.499273,932.783,0.64429,-0.131817,0.143988,0.092054,-0.0925436,0.203826,-0.109497,-3.7765e-06,-1.93557e-05,-6.55183e-06,0.209169,-0.08839053607464453,-3.7764928689787425e-06,-1.9355512679619657e-05,0.226084796140134,-6.551808536814363e-06,-0.10371514678736471
237,0.2271,-0.468848,931.68,-0.615296,0.125862,-0.0819823,-0.191354,-0.0929207,0.204641,-0.109942,-4.96303e-08,-2.25581e-05,-1.08204e-05,0.210026,-0.08873423919419465,-4.963029875959535e-08,-2.2557845567927615e-05,0.22708446255771975,-1.0820341459716332e-05,-0.10411390481680238
238,0.2281,0.571177,932.904,0.73817,-0.151068,0.160891,0.113227,-0.0932934,0.205456,-0.110377,-4.09726e-06,-1.90347e-05,-6.40535e-06,0.210878,-0.08907380466129156,-4.097251606216545e-06,-1.9034518841221093e-05,0.2280849440355277,-6.405329485814626e-06,-0.10450353051847305
239,0.2291,-0.544362,931.629,-0.713745,0.146047,-0.0995857,-0.213597,-0.0936702,0.20627,-0.110821,2.03819e-07,-2.27305e-05,-1.13163e-05,0.211735,-0.08941697699396745,2.0381902077204472e-07,-2.273024166410398e-05,0.22908501215247634,-1.131623597094844e-05,-0.10490104269668898
240,0.2301,-0.246028,931.993,-0.325432,0.0661898,-0.0304412,-0.12683,-0.0940437,0.207083,-0.111259,-6.12789e-07,-2.20543e-05,-1.05662e-05,0.212587,-0.08975701624677668,-6.12788812248688e-07,-2.2054056805664857e-05,0.23008466457100263,-1.0566144177936998e-05,-0.10529301019283976
241,0.2311,0.02806,932.33,0.0354545,-0.00779851,0.0321822,-0.0447431,-0.094417,0.207896,-0.111696,-1.5893e-06,-2.12394e-05,-9.58632e-06,0.213439,-0.0900967465380077,-1.5892987370591527e-06,-2.1239174445519815e-05,0.2310851300374046,-9.586274051343047e-06,-0.10568391172917901
242,0.2321,-0.0677187,932.233,-0.0937583,0.0190405,0.0105993,-0.0737777,-0.0947908,0.208708,-0.112135,-1.17959e-06,-2.15543e-05,-1.01477e-05,0.214291,-0.09043680481330052,-1.1795893042343408e-06,-2.1554067707763025e-05,0.23208517712716548,-1.01476485122598e-05,-0.10607643032779357
243,0.2331,0.102063,932.447,0.128675,-0.0261201,0.0506039,-0.023102,-0.0951638,0.209519,-0.112572,-1.84264e-06,-2.09577e-05,-9.49791e-06,0.215142,-0.09077600861966262,-1.842638302385069e-06,-2.0957480388994476e-05,0.2330848034995201,-9.497864895013919e-06,-0.10646698958432743
244,0.2341,-0.0582084,932.276,-0.0813974,0.0169438,0.0133017,-0.0704956,-0.0955372,0.21033,-0.113011,-1.23004e-06,-2.14595e-05,-1.02858e-05,0.215993,-0.09111544948049133,-1.2300392434605456e-06,-2.1459269746615384e-05,0.234085240897689,-1.0285747101379528e-05,-0.10685916448721033
245,0.2351,0.120814,932.5,0.152381,-0.0308648,0.0551135,-0.0177049,-0.0959096,0.21114,-0.113447,-1.94251e-06,-2.08243e-05,-9.58948e-06,0.216842,-0.09145385507207271,-1.9425081133617184e-06,-2.0824083175718933e-05,0.23508525489380894,-9.589434021073373e-06,-0.10724848901258
246,0.2361,-0.0683764,932.295,-0.0945359,0.0197361,0.0108682,-0.0733736,-0.0962825,0.211949,-0.113885,-1.2235e-06,-2.14212e-05,-1.04951e-05,0.217692,-0.09179258876869345,-1.2234992515791632e-06,-2.1420970567787023e-05,0.2360848431439475,-1.0495044926672747e-05,-0.10763942855238329
247,0.2371,0.134578,932.545,0.1702,-0.0344651,0.0583125,-0.0136299,-0.0966542,0.212758,-0.11432,-2.03013e-06,-2.07042e-05,-9.69426e-06,0.218539,-0.09213010673184863,-2.0301279393120097e-06,-2.070398566955678e-05,0.23708524038817447,-9.694213010780217e-06,-0.10802752098473922
248,0.2381,-0.082046,932.308,-0.112308,0.0234572,0.00761381,-0.0773073,-0.0970265,0.213566,-0.114758,-1.20449e-06,-2.13929e-05,-1.07181e-05,0.219388,-0.09246804378222706,-1.2044892746532199e-06,-2.139267117351462e-05,0.23808520919540266,-1.0718042561363994e-05,-0.10841811938325419
249,0.2391,0.14917,932.59,0.189253,-0.0383192,0.0616985,-0.00925406,-0.0973976,0.214373,-0.115192,-2.12141e-06,-2.05808e-05,-9.7939e-06,0.220234,-0.09280476640843194,-2.121407749799964e-06,-2.0580588216745355e-05,0.23908474721856998,-9.793852039918782e-06,-0.10880498196418942
250,0.2401,-0.0975615,932.317,-0.132541,0.0276789,0.00392611,-0.0818082,-0.0977694,0.21518,-0.115629,-1.17774e-06,-2.13706e-05,-1.09492e-05,0.221081,-0.09314199890087616,-1.1777393064127395e-06,-2.137037165039768e-05,0.2400850921944837,-1.0949140057725515e-05,-0.1091943491041546
251,0.2411,0.165406,932.636,0.210503,-0.042626,0.0654702,-0.00437636,-0.0981399,0.215986,-0.116063,-2.21877e-06,-2.0452e-05,-9.886e-06,0.221926,-0.09347792755565731,-2.218767538586519e-06,-2.045179085929938e-05,0.2410850036889931,-9.885951133714599e-06,-0.1095808748744842
252,0.2421,-0.114894,932.323,-0.155174,0.0323935,-0.00018743,-0.086858,-0.0985112,0.216791,-0.116499,-1.1432e-06,-2.13544e-05,-1.11884e-05,0.222772,-0.09381445672065014,-1.1431993465205181e-06,-2.135417199644607e-05,0.24208447935194344,-1.1188337410095173e-05,-0.1099690129927805
253,0.2431,0.183531,932.682,0.234247,-0.0474471,0.0696887,0.00106793,-0.098881,0.217596,-0.116932,-2.32307e-06,-2.03167e-05,-9.96968e-06,0.223615,-0.09414950218083107,-2.3230673016350067e-06,-2.0316493617222875e-05,0.24308475991673184,-9.969630302864019e-06,-0.11035431298668597
254,0.2441,-0.134191,932.325,-0.180393,0.0376402,-0.00476201,-0.0924974,-0.0992518,0.2184,-0.117367,-1.1003e-06,-2.13447e-05,-1.14364e-05,0.22446,-0.09448532927923059,-1.1002993947073492e-06,-2.1344472203477238e-05,0.24408460194634118,-1.1436334604653098e-05,-0.11074122470113779
255,0.2451,0.203731,932.73,0.260718,-0.052832,0.074399,0.00713134,-0.0996209,0.219204,-0.117799,-2.43505e-06,-2.01745e-05,-1.00441e-05,0.225302,-0.09481949307047222,-2.4350470352318965e-06,-2.0174296496144883e-05,0.24508524817218613,-1.0044049558177726e-05,-0.1111253015254996
256,0.2461,-0.155626,932.324,-0.208422,0.0434651,-0.00983821,-0.0987775,-0.0999912,0.220007,-0.118234,-1.04837e-06,-2.13422e-05,-1.16939e-05,0.226145,-0.09515461935972636,-1.0483694504737073e-06,-2.134197225689416e-05,0.24608545315502384,-1.169383162658022e-05,-0.11151187793287165
257,0.2471,0.226189,932.779,0.29016,-0.0588312,0.0796453,0.0138683,-0.10036,0.220809,-0.118665,-2.55546e-06,-2.00246e-05,-1.01086e-05,0.226985,-0.09548826480810402,-2.555456734776307e-06,-2.002439950898882e-05,0.24708521453918175,-1.010854890826085e-05,-0.11189473380211612
258,0.2481,-0.179377,932.318,-0.239496,0.0499174,-0.0154584,-0.105753,-0.10073,0.22161,-0.1191,-9.86717e-07,-2.13474e-05,-1.19617e-05,0.227827,-0.09582287224393216,-9.867165131627331e-07,-2.1347172145858018e-05,0.2480845299684269,-1.1961628459178364e-05,-0.11228097557923511
259,0.2491,0.251095,932.829,0.322824,-0.0654974,0.085474,0.021336,-0.101097,0.222411,-0.11953,-2.68511e-06,-1.98664e-05,-1.01621e-05,0.228667,-0.09615464436591037,-2.6851063951172094e-06,-1.9866202664364785e-05,0.24908464616999737,-1.0162048366013643e-05,-0.11266261270187428
260,0.2501,-0.205633,932.309,-0.273863,0.0570478,-0.0216665,-0.11348,-0.101467,0.223211,-0.119964,-9.14611e-07,-2.13609e-05,-1.22407e-05,0.229507,-0.09648900528691007,-9.146105817148253e-07,-2.1360671857650892e-05,0.2500843137006299,-1.224062508298207e-05,-0.11304763357238934
261,0.2511,0.278651,932.882,0.358973,-0.0728857,0.0919331,0.0295941,-0.101834,0.224011,-0.120393,-2.82483e-06,-1.96991e-05,-1.02039e-05,0.230345,-0.09682053298291649,-2.824826010217052e-06,-1.9698905973974945e-05,0.2510847812852661,-1.0203847940370991e-05,-0.11342805453145666
262,0.2521,-0.234588,932.295,-0.311779,0.0649093,-0.0285077,-0.122019,-0.102203,0.22481,-0.120827,-8.31308e-07,-2.13833e-05,-1.25318e-05,0.231184,-0.09715374472489857,-8.313076544919085e-07,-2.138307137888873e-05,0.25208479747878143,-1.2531721477304636e-05,-0.11381274327229507
263,0.2531,0.30906,932.937,0.398882,-0.0810536,0.0990728,0.0387047,-0.102569,0.225608,-0.121255,-2.97552e-06,-1.9522e-05,-1.02329e-05,0.232021,-0.09748412599086953,-2.9755155731558958e-06,-1.9521809446976235e-05,0.2530843599195396,-1.0232847644009446e-05,-0.11419195026208995
264,0.2541,-0.266439,932.277,-0.353507,0.073556,-0.0360284,-0.131431,-0.102938,0.226406,-0.121688,-7.36044e-07,-2.14151e-05,-1.28359e-05,0.232859,-0.09781709291220375,-7.36043729077096e-07,-2.1414870698399646e-05,0.2540847203294727,-1.283581762023811e-05,-0.11457542211997784
265,0.2551,0.342539,932.994,0.442834,-0.0900607,0.106945,0.048732,-0.103303,0.227203,-0.122115,-3.13807e-06,-1.93344e-05,-1.02483e-05,0.233694,-0.09814632958394309,-3.1380650762358187e-06,-1.933421309163741e-05,0.2550846242603628,-1.024824748629971e-05,-0.11495341770693146
266,0.2561,-0.301391,932.254,-0.399318,0.0830435,-0.0442762,-0.141779,-0.103671,0.228,-0.122548,-6.28046e-07,-2.14571e-05,-1.31539e-05,0.234531,-0.09847815067583054,-6.280458028085079e-07,-2.1456869798042177e-05,0.2560853254323441,-1.3153813487876143e-05,-0.11533655992078884
267,0.2571,0.379304,933.054,0.491121,-0.0999681,0.115604,0.0597419,-0.104036,0.228795,-0.122974,-3.31346e-06,-1.91353e-05,-1.0249e-05,0.235364,-0.09880714610551544,-3.3134545105450997e-06,-1.9135116921309425e-05,0.2570843103099365,-1.024894747914118e-05,-0.1157133462850688
268,0.2581,-0.33965,932.226,-0.449484,0.0934281,-0.0532988,-0.153127,-0.104404,0.229591,-0.123407,-5.06534e-07,-2.15099e-05,-1.34868e-05,0.2362,-0.09913872406166269,-5.065338717358259e-07,-2.1509668663766135e-05,0.25808534778100056,-1.3486709053545098e-05,-0.11609615952108066
269,0.2591,0.419581,933.118,0.544041,-0.110839,0.125103,0.0718017,-0.104768,0.230385,-0.123832,-3.50267e-06,-1.8924e-05,-1.0234e-05,0.237032,-0.099466577893087,-3.5026638656177056e-06,-1.8923820942262637e-05,0.2590846642232658,-1.0233947632776186e-05,-0.11647173883702633
270,0.2601,-0.381423,932.194,-0.504281,0.104766,-0.0631443,-0.16554,-0.105135,0.231179,-0.124264,-3.70735e-07,-2.15739e-05,-1.38356e-05,0.237867,-0.09979701302044552,-3.7073493130979074e-07,-2.1573667285057496e-05,0.26008477443787203,-1.3835504288572942e-05,-0.11685334061393027
271,0.2611,0.463596,933.185,0.601897,-0.122737,0.1355,0.0849797,-0.105499,0.231972,-0.124688,-3.70671e-06,-1.86994e-05,-1.02023e-05,0.238697,-0.10012462727829385,-3.7067031302129294e-06,-1.8699225167284617e-05,0.2610844179702765,-1.0202247956669908e-05,-0.11722771542444155
272,0.2621,-0.426919,932.156,-0.563985,0.117115,-0.0738606,-0.179083,-0.105866,0.232765,-0.12512,-2.19885e-07,-2.16498e-05,-1.42013e-05,0.239531,-0.10045482094583857,-2.1988497578284694e-07,-2.1649565644765723e-05,0.26208485453439767,-1.420119916206719e-05,-0.1176089906899912
273,0.2631,0.511578,933.256,0.664994,-0.135728,0.146852,0.0993449,-0.106229,0.233557,-0.125543,-3.92663e-06,-1.84609e-05,-1.01529e-05,0.240359,-0.10078129658692148,-3.926622290761905e-06,-1.846072959865719e-05,0.2630848216739059,-1.0152848459510366e-05,-0.11798216315538856
274,0.2641,-0.476342,932.113,-0.62887,0.13053,-0.0854949,-0.193821,-0.106595,0.234348,-0.125974,-5.32438e-08,-2.17382e-05,-1.45848e-05,0.241192,-0.10111035041184746,-5.324379859228401e-08,-2.173796372706427e-05,0.264084317016144,-1.4584693642349933e-05,-0.11836223093257914
275,0.2651,0.563758,933.331,0.733641,-0.149876,0.159215,0.114966,-0.106957,0.235139,-0.126396,-4.16349e-06,-1.82073e-05,-1.00848e-05,0.242019,-0.101435689575057,-4.163481332697394e-06,-1.820713424816045e-05,0.2650846032719629,-1.0084749148542294e-05,-0.11873420357937692
276,0.2661,-0.529893,932.065,-0.699203,0.145067,-0.0980931,-0.209818,-0.107323,0.235929,-0.126828,1.29899e-07,-2.18395e-05,-1.49872e-05,0.242851,-0.10176450393597392,1.2989900843862756e-07,-2.18392615198848e-05,0.26608441498217483,-1.4987087692430734e-05,-0.11911482818259689
277,0.2671,0.620362,933.41,0.808143,-0.165247,0.172647,0.131912,-0.107684,0.236719,-0.127248,-4.41839e-06,-1.79377e-05,-9.99683e-06,0.243676,-0.10208870842762141,-4.418380238901953e-06,-1.7937539120382873e-05,0.26708501685571107,-9.996780031884533e-06,-0.11948472227156404
278,0.2681,-0.587768,932.01,-0.775245,0.160778,-0.111699,-0.227137,-0.10805,0.237508,-0.127679,3.3021e-07,-2.19541e-05,-1.54093e-05,0.244507,-0.10241728382737081,3.302100544111397e-07,-2.195385901049285e-05,0.26808514143127216,-1.540918127729274e-05,-0.11986414258531397
279,0.2691,-0.249522,932.41,-0.332448,0.0694226,-0.0325559,-0.127168,-0.108412,0.238296,-0.128103,-6.40755e-07,-2.11482e-05,-1.44721e-05,0.245333,-0.1027421499663066,-6.407547946674086e-07,-2.1147976378421696e-05,0.2690847863310837,-1.4471995279707883e-05,-0.120237241086386
280,0.2701,0.0119981,932.723,0.0151547,-0.00240127,0.027471,-0.0475139,-0.108775,0.239084,-0.128527,-1.58089e-06,-2.03773e-05,-1.35251e-05,0.246159,-0.10306779545763622,-1.5808887503521163e-06,-2.0377092384227247e-05,0.2700852192615193,-1.35250085362415e-05,-0.12061018142722602
281,0.2711,-0.0583491,932.645,-0.0819004,0.0179562,0.0116834,-0.0695591,-0.109137,0.239871,-0.128952,-1.25724e-06,-2.06091e-05,-1.39847e-05,0.246984,-0.10339242615397948,-1.2572392096288354e-06,-2.0608887633999373e-05,0.271085169757987,-1.3984602214578423e-05,-0.12098384269147644
282,0.2721,0.0844056,932.818,0.106778,-0.0205182,0.0456291,-0.0261562,-0.109499,0.240657,-0.129375,-1.81957e-06,-2.01028e-05,-1.3438e-05,0.247809,-0.10371693935527848,-1.8195683445521027e-06,-2.0102597940052647e-05,0.2720846354399742,-1.3437909710534157e-05,-0.12135558789636414
283,0.2731,-0.0433652,932.674,-0.0622035,0.0143378,0.0156959,-0.0645744,-0.109861,0.241443,-0.1298,-1.31812e-06,-2.04977e-05,-1.40949e-05,0.248634,-0.10404133510405889,-1.31811913128832e-06,-2.049748992360989e-05,0.2730848870108016,-1.4094800667385776e-05,-0.12172893243017513
284,0.2741,0.0981787,932.845,0.124056,-0.0239644,0.0490023,-0.0221762,-0.110223,0.242228,-0.130223,-1.88908e-06,-1.99879e-05,-1.35475e-05,0.249457,-0.10436561344283068,-1.8890782157443553e-06,-1.998770024325136e-05,0.27408465100313206,-1.3547408233005598e-05,-0.122100362528753
285,0.2751,-0.0477955,932.68,-0.0678797,0.0156114,0.0145989,-0.0657677,-0.110584,0.243013,-0.130647,-1.32196e-06,-2.04422e-05,-1.42766e-05,0.250281,-0.1046888791034154,-1.3219591261659502e-06,-2.0441991059660936e-05,0.27508520011831683,-1.4276498089826894e-05,-0.12247251307355
286,0.2761,0.105763,932.864,0.133862,-0.0259295,0.0507681,-0.0198886,-0.110945,0.243797,-0.131069,-1.94142e-06,-1.98905e-05,-1.36756e-05,0.251103,-0.10501202808615828,-1.9414181154919774e-06,-1.989030218529919e-05,0.2760852588870226,-1.367550648945226e-05,-0.12284275154722057
287,0.2771,-0.054725,932.682,-0.0769128,0.0175549,0.0129118,-0.0677349,-0.111306,0.24458,-0.131492,-1.31708e-06,-2.03934e-05,-1.44676e-05,0.251925,-0.10533506043317231,-1.31707913264556e-06,-2.0393192056045173e-05,0.27708482492376607,-1.4467495344727688e-05,-0.12321371059994513
288,0.2781,0.113038,932.883,0.14342,-0.0278417,0.0524519,-0.0176348,-0.111666,0.245363,-0.131914,-1.99296e-06,-1.97937e-05,-1.38034e-05,0.252746,-0.10565708184408462,-1.992958014063184e-06,-1.9793504105969362e-05,0.27808517392720744,-1.3803304733550625e-05,-0.12358363635424796
289,0.2791,-0.0623223,932.683,-0.0868743,0.0196853,0.0110667,-0.0699232,-0.112027,0.246145,-0.132336,-1.30903e-06,-2.03468e-05,-1.46616e-05,0.253567,-0.10597988136871905,-1.3090291431927525e-06,-2.0346593005315938e-05,0.2790850274249834,-1.466149251927451e-05,-0.12395340603281679
290,0.2801,0.120694,932.901,0.153526,-0.0298668,0.0542235,-0.0152512,-0.112387,0.246926,-0.132757,-2.04563e-06,-1.96958e-05,-1.39291e-05,0.254386,-0.10630167068587393,-2.045627907731884e-06,-1.9695606038983016e-05,0.2800843830289683,-1.3929002990575867e-05,-0.12432214402408348
291,0.2811,-0.0704128,932.683,-0.0975077,0.0219541,0.00910516,-0.0722686,-0.112747,0.247707,-0.133179,-1.29836e-06,-2.03019e-05,-1.48578e-05,0.255206,-0.10662334417972397,-1.298359157075879e-06,-2.0301693917867958e-05,0.28108451943454327,-1.4857689623393178e-05,-0.12469160211816466
292,0.2821,0.128824,932.92,0.164273,-0.0320249,0.0561081,-0.0127187,-0.113106,0.248488,-0.133599,-2.09968e-06,-1.95963e-05,-1.40523e-05,0.256024,-0.10694400883641364,-2.0996777956305834e-06,-1.959610799373568e-05,0.2820854372517525,-1.4052201266934183e-05,-0.1250591544538815
293,0.2831,-0.0789894,932.682,-0.108793,0.0243582,0.00702836,-0.0747648,-0.113465,0.249267,-0.13402,-1.2851e-06,-2.02587e-05,-1.50561e-05,0.256843,-0.10726455839515281,-1.2850991742974216e-06,-2.0258494793923276e-05,0.283084570919409,-1.5055986657519504e-05,-0.12542742702304122
294,0.2841,0.137448,932.939,0.175679,-0.0343201,0.0581109,-0.0100341,-0.113824,0.250046,-0.13444,-2.15517e-06,-1.94953e-05,-1.41732e-05,0.257659,-0.10758499289725443,-2.1551676776532247e-06,-1.9495109967904156e-05,0.2840844832154288,-1.417309956064372e-05,-0.1257946703771886
295,0.2851,-0.0880579,932.68,-0.120735,0.0268991,0.0048346,-0.0774125,-0.114183,0.250825,-0.13486,-1.26923e-06,-2.02172e-05,-1.52565e-05,0.258477,-0.10790531238401613,-1.2692291945226586e-06,-2.021699563381496e-05,0.2850851747466001,-1.5256383620210201e-05,-0.12616175952151376
296,0.2861,0.146572,932.958,0.187752,-0.0367545,0.0602341,-0.00719592,-0.114541,0.251603,-0.135279,-2.21213e-06,-1.93926e-05,-1.42916e-05,0.259292,-0.1082246251217922,-2.2121275532471785e-06,-1.939241196480257e-05,0.28608536003418017,-1.4291497875573711e-05,-0.1265278210490287
297,0.2871,-0.0976221,932.677,-0.133337,0.0295776,0.00252285,-0.0802126,-0.114899,0.25238,-0.135699,-1.25073e-06,-2.01775e-05,-1.54591e-05,0.260108,-0.10854382356606795,-1.2507292178609575e-06,-2.0177296435663905e-05,0.2870850366830102,-1.5458980508697984e-05,-0.12689460233472638
298,0.2881,0.156199,932.977,0.200496,-0.0393289,0.0624785,-0.00420324,-0.115257,0.253157,-0.136117,-2.27059e-06,-1.92883e-05,-1.44075e-05,0.260922,-0.10886290775775309,-2.2705874221928823e-06,-1.928811398188568e-05,0.28808549038244147,-1.4407396212501311e-05,-0.12725948412534338
299,0.2891,-0.107682,932.672,-0.1466,0.032394,9.28811e-05,-0.0831655,-0.115615,0.253933,-0.136537,-1.22961e-06,-2.01395e-05,-1.56639e-05,0.261737,-0.10918187773774268,-1.2296092439800788e-06,-2.0139297201682282e-05,0.28908543265039977,-1.5663777321761607e-05,-0.12762595817707278
300,0.2901,0.16633,932.996,0.213911,-0.0420436,0.0648443,-0.00105604,-0.115971,0.254708,-0.136954,-2.33055e-06,-1.91824e-05,-1.45209e-05,0.26255,-0.10949895254660336,-2.3305472842682917e-06,-1.918221601893144e-05,0.2900848610892004,-1.4520794572203677e-05,-0.1279896623149298
301,0.2911,-0.118236,932.667,-0.160522,0.035348,-0.00245476,-0.0862707,-0.116329,0.255483,-0.137373,-1.20588e-06,-2.01033e-05,-1.58708e-05,0.263364,-0.10981769486331272,-1.2058792728808498e-06,-2.0103097929990987e-05,0.2910850643852596,-1.587067405950382e-05,-0.12835495811160613
302,0.2921,0.17696,933.015,0.227993,-0.0448976,0.0673308,0.00224479,-0.116685,0.256257,-0.137789,-2.39201e-06,-1.90748e-05,-1.46319e-05,0.264175,-0.11013454336156225,-2.3920071391403397e-06,-1.9074618077152827e-05,0.2920847510539273,-1.4631792954244993e-05,-0.12871748703778696
303,0.2931,-0.129277,932.661,-0.175094,0.0384379,-0.00511873,-0.0895267,-0.117042,0.257031,-0.138207,-1.17956e-06,-2.00688e-05,-1.60798e-05,0.264988,-0.11045216863009832,-1.179559304342881e-06,-2.0068598623024236e-05,0.2930852117795977,-1.6079670720703376e-05,-0.1290816070218268
304,0.2941,0.188082,933.035,0.242733,-0.0478895,0.0699363,0.00569735,-0.117398,0.257804,-0.138623,-2.45496e-06,-1.89657e-05,-1.47404e-05,0.265798,-0.11076879129588757,-2.4549569865861542e-06,-1.8965520152236515e-05,0.2940851530758233,-1.4740291360837432e-05,-0.12944383372492763
305,0.2951,-0.140797,932.654,-0.190306,0.0416615,-0.00789683,-0.0929311,-0.117754,0.258576,-0.139041,-1.15069e-06,-2.00359e-05,-1.62909e-05,0.266609,-0.11108530126406913,-1.1506893379253924e-06,-2.0035699282661135e-05,0.2950845725402744,-1.629076730402801e-05,-0.12980765015949858
306,0.2961,0.199686,933.055,0.258117,-0.0510164,0.0726587,0.00929866,-0.118109,0.259348,-0.139456,-2.51935e-06,-1.88549e-05,-1.48465e-05,0.267418,-0.11140080997601054,-2.519346826490576e-06,-1.8854722247496625e-05,0.29608476385444815,-1.4846389791212111e-05,-0.1301687050606085
307,0.2971,-0.152781,932.647,-0.20614,0.0450154,-0.010786,-0.09648,-0.118466,0.260119,-0.139873,-1.11932e-06,-2.00047e-05,-1.65041e-05,0.268228,-0.11171798326804783,-1.119319373521499e-06,-2.0004499907355644e-05,0.29708443052936273,-1.650396380814545e-05,-0.13053134909406228
308,0.2981,0.211756,933.075,0.274127,-0.0542748,0.0754946,0.0130446,-0.11882,0.26089,-0.140287,-2.58516e-06,-1.87427e-05,-1.49502e-05,0.269036,-0.11203237945056344,-2.5851566585188834e-06,-1.874252435674073e-05,0.29808486824448166,-1.4950088246368232e-05,-0.13089123461409435
309,0.2991,-0.165212,932.638,-0.222574,0.0484951,-0.0137823,-0.100169,-0.119176,0.26166,-0.140704,-1.08552e-06,-1.9975e-05,-1.67192e-05,0.269845,-0.1123484396614235,-1.0855194108039257e-06,-1.9974800500976997e-05,0.2990847785090778,-1.671906023492653e-05,-0.13125357741553556
310,0.3001,0.224276,933.096,0.290739,-0.0576598,0.0784397,0.0169299,-0.119529,0.26243,-0.141117,-2.65231e-06,-1.86289e-05,-1.50517e-05,0.270651,-0.11266172536404329,-2.652306482664457e-06,-1.862872648317193e-05,0.3000854590010773,-1.5051586723768828e-05,-0.13161229560765741
311,0.3011,-0.178071,932.629,-0.239581,0.0520952,-0.0168808,-0.103992,-0.119885,0.263198,-0.141533,-1.04938e-06,-1.99467e-05,-1.69362e-05,0.271459,-0.11297756156763383,-1.049379449447052e-06,-1.9946501065848388e-05,0.30108430814256515,-1.693605658337205e-05,-0.13197346976325175
312,0.3021,0.237221,933.117,0.307925,-0.0611656,0.0814891,0.020948,-0.120238,0.263967,-0.141946,-2.72073e-06,-1.85137e-05,-1.51509e-05,0.272264,-0.11329062522941324,-2.720726298810483e-06,-1.8513528622476905e-05,0.3020852267794172,-1.5150785225737096e-05,-0.1323318907012212
313,0.3031,-0.191331,932.618,-0.257129,0.0558089,-0.0200757,-0.107941,-0.120592,0.264734,-0.142362,-1.011e-06,-1.99199e-05,-1.71549e-05,0.27307,-0.11360446479520148,-1.0109994889040408e-06,-1.991970160009071e-05,0.3030843092475044,-1.7154752855574884e-05,-0.13269276556751297
314,0.3041,0.250566,933.137,0.32565,-0.0647852,0.0846365,0.0250912,-0.120945,0.265502,-0.142773,-2.79033e-06,-1.83972e-05,-1.52481e-05,0.273874,-0.1139173071991959,-2.7903261070605367e-06,-1.83970307725545e-05,0.30408546239060485,-1.5247983748301053e-05,-0.1330491555976967
315,0.3051,-0.204964,932.607,-0.275181,0.0596287,-0.0233602,-0.112009,-0.121299,0.266268,-0.143189,-9.70505e-07,-1.98943e-05,-1.73753e-05,0.274679,-0.1142309249588288,-9.70504529074212e-07,-1.989410210967435e-05,0.3050847745424874,-1.7375149050313787e-05,-0.13340973214384644
316,0.3061,0.264281,933.158,0.343874,-0.0685104,0.0878749,0.0293504,-0.121651,0.267034,-0.143599,-2.86099e-06,-1.82794e-05,-1.53433e-05,0.275482,-0.1145426608045157,-2.8609859074046895e-06,-1.8279232932738587e-05,0.3060848524607296,-1.5343182292126833e-05,-0.1337649613267089
317,0.3071,-0.218937,932.596,-0.293693,0.0635456,-0.0267265,-0.116186,-0.122005,0.267799,-0.144014,-9.28019e-07,-1.98699e-05,-1.75972e-05,0.276286,-0.11485605722815106,-9.280185694349186e-07,-1.9869702594821348e-05,0.3070843896470896,-1.7597045170236747e-05,-0.13412437428441126
318,0.3081,0.27833,933.18,0.362553,-0.072332,0.091196,0.0337154,-0.122356,0.268564,-0.144424,-2.9326e-06,-1.81605e-05,-1.54367e-05,0.277087,-0.11516668823313347,-2.932595699944862e-06,-1.816033509915993e-05,0.30808469177194886,-1.5436580854788495e-05,-0.13447931052405337
319,0.3091,-0.233213,932.584,-0.312617,0.0675497,-0.0301658,-0.12046,-0.12271,0.269328,-0.144839,-8.837e-07,-1.98465e-05,-1.78204e-05,0.27789,-0.11547986379015485,-8.836996094885308e-07,-1.984630305951196e-05,0.3090844503356045,-1.7820241217658683e-05,-0.13483842708834481
320,0.3101,0.292675,933.201,0.381635,-0.0762395,0.0945909,0.0381746,-0.123061,0.270092,-0.145248,-3.00499e-06,-1.80405e-05,-1.55284e-05,0.27869,-0.11579027587745627,-3.0049854850000557e-06,-1.8040337271152396e-05,0.3100849730066544,-1.5528279435073067e-05,-0.1351922058189835
321,0.3111,-0.24775,932.571,-0.331898,0.07163,-0.0336687,-0.12482,-0.123413,0.270855,-0.145662,-8.37715e-07,-1.98239e-05,-1.80447e-05,0.279492,-0.11610146292821333,-8.377146490934351e-07,-1.9823703507837465e-05,0.31108494928349506,-1.8044537195338606e-05,-0.13555016214370252
322,0.3121,0.307273,933.222,0.401064,-0.0802213,0.0980494,0.0427153,-0.123764,0.271617,-0.14607,-3.07802e-06,-1.79197e-05,-1.56187e-05,0.28029,-0.11641165687250365,-3.0780152628917534e-06,-1.791953944318969e-05,0.3120843767483539,-1.5618578028786523e-05,-0.1359027857374432
323,0.3131,-0.262505,932.558,-0.351479,0.0757743,-0.0372244,-0.129252,-0.124116,0.272379,-0.146483,-7.90249e-07,-1.98021e-05,-1.827e-05,0.281091,-0.1167226252356417,-7.902486877098269e-07,-1.9801903939686838e-05,0.3130845660671706,-1.8269833104600508e-05,-0.1362595842029789
324,0.3141,0.322078,933.244,0.42078,-0.0842648,0.101561,0.0473236,-0.124466,0.273141,-0.146891,-3.1515e-06,-1.77981e-05,-1.57078e-05,0.281888,-0.11703171822238123,-3.151495034048324e-06,-1.7797941614716706e-05,0.3140855178206987,-1.5707676633169854e-05,-0.13661191841155795
325,0.3151,-0.277429,932.544,-0.371296,0.0799696,-0.0408216,-0.133742,-0.124818,0.273901,-0.147304,-7.415e-07,-1.97809e-05,-1.8496e-05,0.282688,-0.11734246836233375,-7.414997250654309e-07,-1.978070435926238e-05,0.3150846024183003,-1.8495828950082505e-05,-0.13696842406576903
326,0.3161,0.337039,933.265,0.440715,-0.0883562,0.105112,0.0519843,-0.125167,0.274661,-0.147711,-3.22525e-06,-1.7676e-05,-1.57958e-05,0.283484,-0.11765046209284313,-3.225244798898963e-06,-1.767584378042919e-05,0.31608444660880486,-1.5795675247010088e-05,-0.13731960644671204
327,0.3171,-0.29247,932.531,-0.391281,0.0842018,-0.044448,-0.138274,-0.125518,0.275421,-0.148123,-6.91683e-07,-1.976e-05,-1.87225e-05,0.284282,-0.11796011243383464,-6.916827607339471e-07,-1.9759804772534473e-05,0.3170850509697223,-1.8722324735098717e-05,-0.13767495756149972
328,0.3181,0.352102,933.287,0.4608,-0.0924808,0.108692,0.0566812,-0.125867,0.27618,-0.148529,-3.29905e-06,-1.75534e-05,-1.5883e-05,0.285077,-0.11826789064417353,-3.2990445580916017e-06,-1.7553245939994078e-05,0.3180850979932446,-1.5882873865780134e-05,-0.1380249904672417
329,0.3191,-0.307573,932.516,-0.41136,0.0884558,-0.0480907,-0.142831,-0.126218,0.276938,-0.148941,-6.41024e-07,-1.97392e-05,-1.89492e-05,0.285874,-0.11857732430577295,-6.410237944898256e-07,-1.9739005183261327e-05,0.3190845852553401,-1.8949020465064415e-05,-0.13838005102367212
330,0.3201,0.367211,933.308,0.480958,-0.0966231,0.112286,0.0613972,-0.126566,0.277696,-0.149346,-3.37269e-06,-1.74306e-05,-1.59697e-05,0.286667,-0.11888400603119931,-3.372684312497043e-06,-1.7430448087996098e-05,0.32008483041598734,-1.596957248506392e-05,-0.13872893644894013
331,0.3211,-0.32268,932.502,-0.431458,0.0927159,-0.0517359,-0.147397,-0.126916,0.278453,-0.149758,-5.8976e-07,-1.97184e-05,-1.91759e-05,0.287463,-0.1191923426670295,-5.897598260862225e-07,-1.9718205593655114e-05,0.3210845129647182,-1.9175716143626786e-05,-0.13908370703936312
332,0.3221,0.382306,933.329,0.501112,-0.100767,0.11588,0.0661143,-0.127264,0.27921,-0.150162,-3.44592e-06,-1.73078e-05,-1.60561e-05,0.288256,-0.11949881040330235,-3.4459140628717577e-06,-1.7307650220899085e-05,0.3220849525596441,-1.605597110154733e-05,-0.13943144697352283
333,0.3231,-0.337732,932.487,-0.451495,0.0969656,-0.0553695,-0.151953,-0.127614,0.279966,-0.150573,-5.38141e-07,-1.96974e-05,-1.94024e-05,0.289051,-0.11980693189525471,-5.381408552107558e-07,-1.9697206007474044e-05,0.32308482668857774,-1.9402211774655065e-05,-0.13978506797472312
334,0.3241,0.397324,933.35,0.521178,-0.104894,0.11946,0.0708135,-0.12796,0.280722,-0.150977,-3.5185e-06,-1.71852e-05,-1.61425e-05,0.289841,-0.12011142601629832,-3.518493810084067e-06,-1.7185052335277895e-05,0.3240854570081573,-1.614236971059224e-05,-0.14013252461629389
335,0.3251,-0.352665,932.473,-0.471388,0.101188,-0.0589766,-0.15648,-0.12831,0.281477,-0.151387,-4.86422e-07,-1.96759e-05,-1.96282e-05,0.290635,-0.1204193331303044,-4.864218816624799e-07,-1.9675706430799522e-05,0.32508551900409666,-1.9628007368099887e-05,-0.140484998019216
336,0.3261,0.412202,933.37,0.541071,-0.108987,0.123009,0.0754753,-0.128656,0.282231,-0.15179,-3.59017e-06,-1.70629e-05,-1.62293e-05,0.291425,-0.12072361539717358,-3.590163555333703e-06,-1.706275442958649e-05,0.326085010246272,-1.622916830557042e-05,-0.1408313127779034
337,0.3271,-0.367415,932.459,-0.491052,0.105365,-0.062542,-0.160958,-0.129005,0.282985,-0.1522,-4.34869e-07,-1.96538e-05,-1.98532e-05,0.292218,-0.12103042931325736,-4.3486890544119916e-07,-1.965360686528861e-05,0.32708525538902844,-1.985300292650649e-05,-0.14118349973640443
338,0.3281,0.426873,933.391,0.560704,-0.113029,0.126512,0.0800796,-0.129351,0.283738,-0.152603,-3.66066e-06,-1.69413e-05,-1.63166e-05,0.293006,-0.12133450017742198,-3.6606532998195718e-06,-1.6941156496974585e-05,0.3280849269154309,-1.6316466885046843e-05,-0.14152953305561355
339,0.3291,-0.381917,932.444,-0.5104,0.109479,-0.0660503,-0.165367,-0.1297,0.284491,-0.153012,-3.8375e-07,-1.96307e-05,-2.0077e-05,0.293798,-0.12164110093191638,-3.8374992639145233e-07,-1.9630507319123858e-05,0.32908535147797524,-2.00767984583905e-05,-0.1418805756834829
340,0.3301,0.44127,933.41,0.579986,-0.116999,0.129952,0.0846059,-0.130045,0.285243,-0.153414,-3.7297e-06,-1.68205e-05,-1.64048e-05,0.294585,-0.12194408248477184,-3.729693044629556e-06,-1.6820358536229207e-05,0.3300851995580465,-1.6404665441949184e-05,-0.14222547036358268
341,0.3311,-0.396106,932.43,-0.529345,0.113512,-0.0694857,-0.169688,-0.130393,0.285994,-0.153822,-3.33337e-07,-1.96065e-05,-2.02993e-05,0.295375,-0.12224959278219216,-3.333369444913359e-07,-1.9606307793851308e-05,0.33108446872151975,-2.029909397061047e-05,-0.14257537098709328
342,0.3321,0.455324,933.429,0.598828,-0.120879,0.133314,0.0890334,-0.130738,0.286745,-0.154223,-3.79702e-06,-1.67008e-05,-1.64943e-05,0.296161,-0.12255236444156792,-3.7970127912956286e-06,-1.6700660542379175e-05,0.3320844886179999,-1.6494163969760223e-05,-0.14291912933517237
343,0.3331,-0.409913,932.417,-0.547797,0.117444,-0.0728326,-0.173898,-0.131086,0.287496,-0.154632,-2.83903e-07,-1.9581e-05,-2.05199e-05,0.29695,-0.12285766309369572,-2.8390295969682455e-07,-1.9580808293451213e-05,0.3330852598114986,-2.0519689468256885e-05,-0.14326960373437392
344,0.3341,0.468968,933.448,0.617138,-0.124651,0.13658,0.0933413,-0.13143,0.288246,-0.155032,-3.86232e-06,-1.65823e-05,-1.65853e-05,0.297735,-0.12315934816478424,-3.862312541236257e-06,-1.6582162514433563e-05,0.33408544878033686,-1.6585162464721748e-05,-0.14361222736358603
345,0.3351,-0.423275,932.403,-0.56567,0.121259,-0.0760751,-0.177979,-0.131777,0.288995,-0.15544,-2.3572e-07,-1.95538e-05,-2.07383e-05,0.298523,-0.12346355908732354,-2.357199722080594e-07,-1.955360882566204e-05,0.33508505308655434,-2.0738084962945713e-05,-0.1439615623056475
346,0.3361,0.482135,933.466,0.634825,-0.128294,0.139735,0.0975089,-0.13212,0.289744,-0.155839,-3.92533e-06,-1.64654e-05,-1.66781e-05,0.299307,-0.12376415953063347,-3.925322295872391e-06,-1.6465264446097194e-05,0.3360854063768568,-1.6677960921307466e-05,-0.14430305351026185
347,0.3371,-0.436124,932.39,-0.582875,0.124938,-0.0791979,-0.18191,-0.132467,0.290492,-0.156246,-1.89055e-07,-1.95249e-05,-2.09543e-05,0.300094,-0.1240681606200369,-1.890549821137455e-07,-1.9524709390372763e-05,0.3370851721266026,-2.095408046021152e-05,-0.14465125130442547
348,0.3381,0.494756,933.483,0.651802,-0.13179,0.142761,0.101515,-0.13281,0.291239,-0.156645,-3.98577e-06,-1.63502e-05,-1.67731e-05,0.300876,-0.12436855372058242,-3.985762056846198e-06,-1.63500663361571e-05,0.3380843478958686,-1.6772959332334025e-05,-0.14499246737802152
349,0.3391,-0.448396,932.378,-0.599327,0.128463,-0.0821855,-0.18567,-0.133156,0.291986,-0.157052,-1.44171e-07,-1.9494e-05,-2.11676e-05,0.301662,-0.12467146979349253,-1.4417098959107477e-07,-1.94938099932207e-05,0.33908427032827837,-2.1167375967912072e-05,-0.1453403846378336
350,0.3401,0.506767,933.499,0.667979,-0.135121,0.145643,0.105341,-0.133499,0.292733,-0.15745,-4.04334e-06,-1.6237e-05,-1.68706e-05,0.302443,-0.1249716559944768,-4.043331825687169e-06,-1.6236868180641295e-05,0.3400849399817971,-1.687045769227513e-05,-0.14568047148297625
351,0.3411,-0.460031,932.366,-0.614942,0.131816,-0.0850234,-0.18924,-0.133845,0.293479,-0.157856,-1.01323e-07,-1.94609e-05,-2.13779e-05,0.303228,-0.12527436343009646,-1.0132299488319063e-07,-1.9460710637964063e-05,0.34108501632912125,-2.1377671494349215e-05,-0.1460272548097753
352,0.3421,0.518104,933.515,0.683272,-0.138269,0.148366,0.108966,-0.134187,0.294224,-0.158253,-4.09779e-06,-1.6126e-05,-1.69708e-05,0.304008,-0.12557346844792994,-4.097781604039952e-06,-1.6125869976790774e-05,0.34208449692658105,-1.6970655996817463e-05,-0.14636621470162536
353,0.3431,-0.470967,932.355,-0.629641,0.134981,-0.0876971,-0.192602,-0.134532,0.294969,-0.158659,-6.07531e-08,-1.94253e-05,-2.15848e-05,0.304791,-0.12587509356799043,-6.075309810782414e-08,-1.942511133012914e-05,0.34308472241452304,-2.158456704992595e-05,-0.14671271967318755
354,0.3441,0.528707,933.529,0.697599,-0.141216,0.150915,0.112371,-0.134873,0.295713,-0.159055,-4.14885e-06,-1.60174e-05,-1.7074e-05,0.30557,-0.1261731193448009,-4.148841393547542e-06,-1.6017271722179593e-05,0.3440843492630763,-1.707385424010166e-05,-0.14705055454047844
355,0.3451,-0.481148,932.345,-0.643346,0.137942,-0.0901931,-0.195738,-0.135218,0.296457,-0.159461,-2.26944e-08,-1.93872e-05,-2.17883e-05,0.306352,-0.1264745376209846,-2.2694399692824163e-08,-1.9387012069493892e-05,0.3450847201107383,-2.1788062636751704e-05,-0.1473967817264603
356,0.3461,0.538518,933.543,0.710883,-0.143947,0.153275,0.115539,-0.135559,0.2972,-0.159857,-4.19627e-06,-1.59115e-05,-1.71806e-05,0.30713,-0.12677235902222106,-4.196261195632545e-06,-1.591137341272475e-05,0.3460844894260877,-1.7180452414389258e-05,-0.14773434575880695
357,0.3471,-0.49052,932.336,-0.655986,0.140684,-0.0924986,-0.19863,-0.135904,0.297943,-0.160261,1.2636e-08,-1.93464e-05,-2.19878e-05,0.307911,-0.12707357059637425,1.2636000024102145e-08,-1.934621285959448e-05,0.3470850018460676,-2.1987558270097907e-05,-0.14807859154079028
358,0.3481,0.547483,933.555,0.723051,-0.146445,0.155434,0.118453,-0.136244,0.298685,-0.160656,-4.23979e-06,-1.58084e-05,-1.72907e-05,0.308687,-0.12737031513294161,-4.239781012049804e-06,-1.5808275047879405e-05,0.3480849098374261,-1.7290550516690928e-05,-0.1484150340453626
359,0.3491,-0.499033,932.327,-0.667494,0.143193,-0.0946018,-0.201262,-0.136588,0.299427,-0.161061,4.50372e-08,-1.93026e-05,-2.21833e-05,0.309468,-0.12767044811870254,4.5037201079622946e-08,-1.9302413706068222e-05,0.3490855600358389,-2.218305395240705e-05,-0.14875985612538967
360,0.3501,0.555552,933.566,0.734035,-0.148696,0.157378,0.121097,-0.136928,0.300168,-0.161455,-4.2792e-06,-1.57083e-05,-1.74047e-05,0.310243,-0.12796698975140797,-4.2791908442252335e-06,-1.570817662532864e-05,0.35008560290595025,-1.740454853904616e-05,-0.1490951786791953
361,0.3511,-0.506643,932.32,-0.677808,0.145456,-0.0964917,-0.203621,-0.137271,0.300908,-0.161859,7.4326e-08,-1.92558e-05,-2.23745e-05,0.311022,-0.12826604578288192,7.432600268586498e-08,-1.9255614608248983e-05,0.3510850359967368,-2.237424969275814e-05,-0.1494388747957187
362,0.3521,0.562681,933.576,0.743775,-0.150688,0.159097,0.123458,-0.13761,0.301648,-0.162253,-4.31429e-06,-1.56113e-05,-1.75227e-05,0.311796,-0.12856151350875233,-4.3142806934737266e-06,-1.5611178144303572e-05,0.3520852089417228,-1.7522546478354606e-05,-0.1497739298688654
363,0.3531,-0.513308,932.314,-0.686874,0.147461,-0.0981586,-0.205693,-0.137954,0.302387,-0.162656,1.00339e-07,-1.92058e-05,-2.25612e-05,0.312574,-0.12886123679274475,1.0033900510464377e-07,-1.920561556978395e-05,0.3530847692031571,-2.2560945498018015e-05,-0.15011650194221904
364,0.3541,0.568829,933.585,0.752215,-0.152408,0.160581,0.125521,-0.138292,0.303126,-0.163049,-4.34487e-06,-1.55177e-05,-1.76449e-05,0.313346,-0.12915563193912638,-4.34486056111183e-06,-1.5517579601165288e-05,0.35408506841263243,-1.7644744329636808e-05,-0.15045044053372447
365,0.3551,-0.518993,932.308,-0.694642,0.149198,-0.0995939,-0.207466,-0.138635,0.303864,-0.163452,1.22935e-07,-1.91526e-05,-2.27432e-05,0.314124,-0.12945428033624318,1.2293500750715225e-07,-1.9152416590118015e-05,0.35508475203100365,-2.274294137538657e-05,-0.15079274002820853
366,0.3561,0.573961,933.593,0.759309,-0.153846,0.161821,0.127277,-0.138973,0.304602,-0.163844,-4.37076e-06,-1.54276e-05,-1.77714e-05,0.314895,-0.1297484750677791,-4.3707504482348725e-06,-1.5427480995144904e-05,0.3560851736881878,-1.777124208957037e-05,-0.1511255640363499
367,0.3571,-0.523668,932.304,-0.701072,0.150658,-0.10079,-0.208931,-0.139315,0.305339,-0.164246,1.41992e-07,-1.9096e-05,-2.29204e-05,0.315671,-0.13004605020105764,1.419920101497496e-07,-1.9095817672565296e-05,0.35708497684340346,-2.2920137329629497e-05,-0.1514667429780454
368,0.3581,0.578049,933.599,0.765016,-0.154995,0.16281,0.128716,-0.139653,0.306076,-0.164638,-4.39183e-06,-1.53411e-05,-1.79026e-05,0.316441,-0.13034004494817852,-4.391820355942322e-06,-1.534098232591763e-05,0.35808551712514247,-1.790243974941763e-05,-0.1517993028288087
369,0.3591,-0.527308,932.301,-0.706129,0.151834,-0.101742,-0.210079,-0.139995,0.306812,-0.16504,1.57416e-07,-1.90361e-05,-2.30926e-05,0.317216,-0.13063741779915017,1.5741601244734227e-07,-1.9035918814580555e-05,0.3590854359907514,-2.3092333367946694e-05,-0.15214021098194175
370,0.3601,0.58107,933.604,0.769304,-0.155846,0.163541,0.12983,-0.140332,0.307547,-0.165431,-4.40793e-06,-1.52582e-05,-1.80383e-05,0.317985,-0.13093034362857736,-4.407920285109945e-06,-1.5258083594260619e-05,0.3600847309821269,-1.8038137310827373e-05,-0.15247165935706786
371,0.3611,-0.529895,932.299,-0.709787,0.152721,-0.102443,-0.210904,-0.140673,0.308282,-0.165832,1.69133e-07,-1.89726e-05,-2.32597e-05,0.318759,-0.13122664585899846,1.691330142605807e-07,-1.8972420021357017e-05,0.3610847607253094,-2.325942949532589e-05,-0.1528114500890706
372,0.3621,0.583006,933.608,0.772149,-0.156395,0.164012,0.130614,-0.14101,0.309017,-0.166222,-4.41899e-06,-1.51792e-05,-1.81789e-05,0.319526,-0.13151937315202478,-4.418980236287062e-06,-1.5179084796534958e-05,0.36208552576053954,-1.8178734764839888e-05,-0.15314178920322163
373,0.3631,-0.531416,932.299,-0.712028,0.153314,-0.102892,-0.211401,-0.141351,0.30975,-0.166623,1.77097e-07,-1.89057e-05,-2.34216e-05,0.320299,-0.131815474557621,1.7709701571888559e-07,-1.8905521288359317e-05,0.36308430045712914,-2.3421325716421748e-05,-0.1534813112670277
374,0.3641,0.583848,933.61,0.773538,-0.156639,0.164218,0.131064,-0.141687,0.310484,-0.167012,-4.42492e-06,-1.5104e-05,-1.83242e-05,0.321066,-0.13210713555637799,-4.424910210021338e-06,-1.5103885935174866e-05,0.3640851716084419,-1.8324032112881916e-05,-0.15381054299722163
375,0.3651,-0.531864,932.299,-0.712843,0.15361,-0.103087,-0.211567,-0.142027,0.311217,-0.167412,1.81284e-07,-1.88354e-05,-2.35783e-05,0.321837,-0.13240216897176593,1.812840164649998e-07,-1.883522261492132e-05,0.36508541258276295,-2.357802203412085e-05,-0.15414895109389137
376,0.3661,0.583592,933.611,0.773462,-0.156576,0.164159,0.131179,-0.142363,0.311949,-0.167802,-4.42568e-06,-1.50326e-05,-1.84743e-05,0.322603,-0.1326936328743138,-4.425670206642529e-06,-1.5032487011068518e-05,0.3660850209167894,-1.8474129351186974e-05,-0.15447876868435417
377,0.3671,-0.531239,932.301,-0.712229,0.15361,-0.103026,-0.211402,-0.142703,0.312681,-0.168201,1.81698e-07,-1.87615e-05,-2.37298e-05,0.323373,-0.13298846691450938,1.8169801641043648e-07,-1.8761324004135105e-05,0.36708536123198865,-2.3729518450532616e-05,-0.15481606436068684
378,0.3681,0.582241,933.611,0.771924,-0.156205,0.163835,0.130957,-0.143038,0.313412,-0.16859,-4.42125e-06,-1.49651e-05,-1.86293e-05,0.324138,-0.13327886713334058,-4.421240226260004e-06,-1.4964988023447034e-05,0.36808506597861723,-1.862912647565551e-05,-0.1551447769729023
379,0.3691,-0.529548,932.304,-0.710193,0.153315,-0.102712,-0.210907,-0.143377,0.314143,-0.168988,1.78366e-07,-1.86843e-05,-2.38761e-05,0.324907,-0.13357263580077983,1.7836601595710988e-07,-1.8684125449586197e-05,0.36908550177658217,-2.3875814968210562e-05,-0.15548096244632015
380,0.3701,0.579803,933.609,0.768935,-0.15553,0.163248,0.130403,-0.143712,0.314873,-0.169376,-4.41164e-06,-1.49015e-05,-1.87891e-05,0.32567,-0.13386284035580964,-4.411630268763567e-06,-1.4901388973198593e-05,0.3700852990744936,-1.8788923485946185e-05,-0.1558085722724747
381,0.3711,-0.526802,932.308,-0.706749,0.152726,-0.102146,-0.210084,-0.144051,0.315602,-0.169775,1.71342e-07,-1.86037e-05,-2.40172e-05,0.326439,-0.1341564110898782,1.7134201457658094e-07,-1.8603526952265526e-05,0.3710844554057522,-2.4016911589375134e-05,-0.15614533746301473
382,0.3721,0.576294,933.606,0.764514,-0.154553,0.162401,0.129519,-0.144385,0.316331,-0.170162,-4.39688e-06,-1.48417e-05,-1.89537e-05,0.327201,-0.13444555455892682,-4.396870333711611e-06,-1.4841589862535365e-05,0.3720843403875371,-1.895352037972753e-05,-0.15647184603393305
383,0.3731,-0.523019,932.313,-0.70192,0.15185,-0.101333,-0.20894,-0.144723,0.31706,-0.17056,1.60701e-07,-1.85198e-05,-2.41532e-05,0.327968,-0.13473806252485487,1.60701012941189e-07,-1.8519628509516828e-05,0.3730849545512285,-2.415290831381256e-05,-0.1568075034389571
384,0.3741,0.571736,933.602,0.758688,-0.153281,0.1613,0.128312,-0.145057,0.317788,-0.170947,-4.37704e-06,-1.47858e-05,-1.91229e-05,0.328729,-0.13502701175476395,-4.377030420776862e-06,-1.4785690690577447e-05,0.3740849243429818,-1.9122717158537306e-05,-0.15713375580122224
385,0.3751,-0.518222,932.32,-0.695737,0.15069,-0.100279,-0.207479,-0.145395,0.318515,-0.171344,1.46543e-07,-1.84328e-05,-2.42841e-05,0.329495,-0.13531932322137008,1.4654301083716348e-07,-1.8432630117026783e-05,0.3750842472928573,-2.4283805143632264e-05,-0.1574683072873051
386,0.3761,0.566155,933.596,0.751493,-0.151721,0.159951,0.12679,-0.145728,0.319242,-0.17173,-4.35219e-06,-1.47335e-05,-1.92967e-05,0.330255,-0.13560721395027076,-4.3521805291879545e-06,-1.4733391462518064e-05,0.3760842970146667,-1.9296513819933026e-05,-0.1577934617618414
387,0.3771,-0.512442,932.327,-0.688237,0.149256,-0.0989887,-0.205712,-0.146066,0.319969,-0.172126,1.2899e-07,-1.83427e-05,-2.44101e-05,0.33102,-0.13589932934167337,1.289900082301898e-07,-1.8342531773685167e-05,0.3770850740369658,-2.4409802075964215e-05,-0.15812690952396935
388,0.3781,0.559586,933.59,0.742971,-0.149882,0.158362,0.124962,-0.146398,0.320695,-0.172512,-4.32247e-06,-1.46849e-05,-1.94748e-05,0.331779,-0.1361861631472855,-4.322460658179317e-06,-1.468479217736629e-05,0.37808520080280394,-1.9474610367331557e-05,-0.1584518098271005
389,0.3791,-0.505713,932.336,-0.679465,0.147556,-0.0974715,-0.203647,-0.146735,0.32142,-0.172908,1.08186e-07,-1.82497e-05,-2.45314e-05,0.332542,-0.13647721936457768,1.0818600593154315e-07,-1.824953347528968e-05,0.37908467483894515,-2.4531099107716337e-05,-0.15878499693500758
390,0.3801,0.552067,933.582,0.733174,-0.147774,0.156542,0.12284,-0.147068,0.322145,-0.173293,-4.288e-06,-1.46397e-05,-1.96572e-05,0.3333,-0.1367647245782545,-4.287990806539632e-06,-1.4639592840093307e-05,0.38008487375650013,-1.9657006798512455e-05,-0.15910880237464076
391,0.3811,-0.498073,932.345,-0.669472,0.145601,-0.0957361,-0.201298,-0.147404,0.322869,-0.173688,8.42931e-08,-1.81539e-05,-2.46481e-05,0.334063,-0.13705472290834841,8.429310360824616e-08,-1.815373521896202e-05,0.3810844169960912,-2.4647796238119746e-05,-0.15944088880631468
392,0.3821,0.54364,933.573,0.722157,-0.145409,0.154501,0.120436,-0.147736,0.323593,-0.174073,-4.24894e-06,-1.4598e-05,-1.98437e-05,0.33482,-0.13734117318696548,-4.248930973282938e-06,-1.4597893449708188e-05,0.38208468416701935,-1.9843503115124506e-05,-0.159764441776181
393,0.3831,-0.489568,932.356,-0.658316,0.143402,-0.0937926,-0.198676,-0.148072,0.324316,-0.174467,5.74913e-08,-1.80555e-05,-2.47603e-05,0.335581,-0.1376309778628626,5.7491301719281296e-08,-1.805533700038886e-05,0.383084292708616,-2.475999346629454e-05,-0.16009542937728205
394,0.3841,0.534355,933.562,0.709985,-0.142801,0.15225,0.117765,-0.148403,0.325039,-0.174852,-4.20548e-06,-1.45595e-05,-2.00339e-05,0.336337,-0.13791637477339558,-4.205471156981666e-06,-1.455939401096007e-05,0.38408462422851364,-2.003369932279675e-05,-0.16041873039753196
395,0.3851,-0.480244,932.368,-0.646061,0.140972,-0.0916524,-0.195796,-0.148739,0.325761,-0.175246,2.79779e-08,-1.79546e-05,-2.48684e-05,0.337097,-0.13820598621402502,2.797790044084536e-08,-1.7954438817135987e-05,0.3850842941646275,-2.486809078394714e-05,-0.16074946025969405
396,0.3861,0.524264,933.551,0.696725,-0.139962,0.149804,0.114842,-0.14907,0.326483,-0.175629,-4.15781e-06,-1.4524e-05,-2.02278e-05,0.337852,-0.1384911928282896,-4.157801356319268e-06,-1.4523894527274095e-05,0.386084686123054,-2.0227595419419764e-05,-0.16107083166986103
397,0.3871,-0.470155,932.38,-0.632773,0.138325,-0.0893273,-0.192674,-0.149405,0.327204,-0.176022,-4.03543e-09,-1.78515e-05,-2.49725e-05,0.338611,-0.13877974994267683,-4.035429990167927e-09,-1.785134066289995e-05,0.3870844135401743,-2.4972188189753552e-05,-0.1614004660556153
398,0.3881,0.513421,933.539,0.682451,-0.13691,0.147174,0.111684,-0.149735,0.327925,-0.176406,-4.10615e-06,-1.44915e-05,-2.0425e-05,0.339364,-0.13906390573691096,-4.106141569759636e-06,-1.4491394998761287e-05,0.3880848620206747,-2.042479141106668e-05,-0.16172242645629686
399,0.3891,-0.459355,932.393,-0.618526,0.135476,-0.0868304,-0.189327,-0.15007,0.328645,-0.176798,-3.83246e-08,-1.77463e-05,-2.50728e-05,0.340122,-0.13935227102460657,-3.832459927188836e-08,-1.7746142535357556e-05,0.38908464299929135,-2.507248567995557e-05,-0.16205096686699838
400,0.3901,0.501885,933.527,0.667241,-0.133659,0.144375,0.108308,-0.1504,0.329365,-0.177181,-4.05074e-06,-1.44616e-05,-2.06253e-05,0.340875,-0.13963623791805402,-4.050731795768314e-06,-1.4461495431605798e-05,0.39008514407941797,-2.062508729994139e-05,-0.16237183989558102
401,0.3911,-0.447902,932.407,-0.603397,0.132442,-0.0841751,-0.185772,-0.150734,0.330084,-0.177573,-7.46545e-08,-1.76392e-05,-2.51697e-05,0.341632,-0.1399235514305619,-7.465449725074791e-08,-1.7639044430195483e-05,0.39108497469404413,-2.5169383245704502e-05,-0.1627001257861036
402,0.3921,0.489718,933.513,0.651175,-0.130228,0.141421,0.104733,-0.151064,0.330803,-0.177955,-3.99181e-06,-1.44342e-05,-2.08284e-05,0.342383,-0.14020732983257822,-3.991802032698999e-06,-1.4434095827464688e-05,0.39208552444538114,-2.082818309034895e-05,-0.16301991325475806
403,0.3931,-0.435856,932.422,-0.587464,0.129237,-0.0813755,-0.182027,-0.151397,0.331521,-0.178346,-1.12782e-07,-1.75305e-05,-2.52634e-05,0.343139,-0.1404935931262602,-1.1278199363307095e-07,-1.7530346341665393e-05,0.3930854007645763,-2.5263080883020095e-05,-0.16334710849783685
404,0.3941,0.476983,933.499,0.634338,-0.126633,0.138329,0.100978,-0.151726,0.332238,-0.178728,-3.92964e-06,-1.44092e-05,-2.1034e-05,0.34389,-0.14077632422230613,-3.929632279020545e-06,-1.4409096187995019e-05,0.3940846011674626,-2.103377878692747e-05,-0.16366664886629467
405,0.3951,-0.423278,932.437,-0.570809,0.12588,-0.0784463,-0.178112,-0.152059,0.332955,-0.179119,-1.52455e-07,-1.74203e-05,-2.53542e-05,0.344644,-0.1410623980724005,-1.5245498841132132e-07,-1.742014826744409e-05,0.395084518253938,-2.5353878584932765e-05,-0.16399359128517976
406,0.3961,0.463745,933.484,0.616816,-0.122893,0.135113,0.0970625,-0.152388,0.333672,-0.1795,-3.86448e-06,-1.43861e-05,-2.12418e-05,0.345394,-0.14134494206239978,-3.864472532866259e-06,-1.4385996520593913e-05,0.3960851525380489,-2.124157439453711e-05,-0.16431204905684227
407,0.3971,-0.410232,932.453,-0.553517,0.122386,-0.0754021,-0.174046,-0.15272,0.334388,-0.17989,-1.93421e-07,-1.73088e-05,-2.54424e-05,0.346147,-0.1416299682246741,-1.9342098134256247e-07,-1.7308650203551323e-05,0.39708510744840475,-2.544207634491702e-05,-0.16463790381190269
408,0.3981,0.450068,933.468,0.598695,-0.119026,0.13179,0.0930067,-0.153049,0.335103,-0.180271,-3.7966e-06,-1.43649e-05,-2.14515e-05,0.346896,-0.14191232551480704,-3.7965927929262122e-06,-1.4364796825372395e-05,0.3980843804977743,-2.1451269918260074e-05,-0.16495611614725114
409,0.3991,-0.396782,932.47,-0.535672,0.118775,-0.0722583,-0.169849,-0.153381,0.335818,-0.18066,-2.3542e-07,-1.71964e-05,-2.55282e-05,0.347648,-0.14219716333704135,-2.354199722942596e-07,-1.7196252142803736e-05,0.39908436828286176,-2.552787415832647e-05,-0.16528088504642358
410,0.4001,0.43602,933.452,0.580064,-0.11505,0.128375,0.0888306,-0.153709,0.336533,-0.181041,-3.72628e-06,-1.43454e-05,-2.16628e-05,0.348395,-0.14247847652958112,-3.726273057447216e-06,-1.4345297105200494e-05,0.400085071314886,-2.1662565363289588e-05,-0.16559885245258366
411,0.4011,-0.382991,932.486,-0.517359,0.115064,-0.0690297,-0.16554,-0.15404,0.337247,-0.181429,-2.78195e-07,-1.70831e-05,-2.56119e-05,0.349146,-0.1427622691835746,-2.7819496128955734e-07,-1.7082954084646218e-05,0.4010850890196418,-2.561157201808051e-05,-0.16592253729891115
412,0.4021,0.421665,933.436,0.56101,-0.110985,0.124884,0.0845544,-0.154368,0.33796,-0.181809,-3.6538e-06,-1.43272e-05,-2.18754e-05,0.349893,-0.1430433970517916,-3.6537933248981247e-06,-1.4327097366151342e-05,0.40208441890688174,-2.1875160735151944e-05,-0.16623942652197188
413,0.4031,-0.368924,932.503,-0.498663,0.111269,-0.0657317,-0.161139,-0.154699,0.338673,-0.182197,-3.21487e-07,-1.69692e-05,-2.56939e-05,0.350643,-0.14332700274803534,-3.214869482848215e-07,-1.6969056023885543e-05,0.4030844615704061,-2.5693569914553294e-05,-0.16656286287377153
414,0.4041,0.407069,933.419,0.54162,-0.106847,0.121334,0.0801978,-0.155026,0.339386,-0.182577,-3.57944e-06,-1.43102e-05,-2.2089e-05,0.351389,-0.14360708902153518,-3.579433593858816e-06,-1.4310097609548933e-05,0.40408521751860516,-2.2088756039817525e-05,-0.16687950881933955
415,0.4051,-0.354642,932.52,-0.479668,0.10741,-0.0623792,-0.156665,-0.155356,0.340098,-0.182964,-3.65044e-07,-1.68549e-05,-2.57744e-05,0.352137,-0.14388965205669302,-3.650439334146327e-07,-1.6854757956985544e-05,0.40508528217424766,-2.5774067842987414e-05,-0.1672018640696623
416,0.4061,0.392295,933.402,0.521981,-0.102655,0.117739,0.0757808,-0.155683,0.340809,-0.183343,-3.50346e-06,-1.42941e-05,-2.23032e-05,0.352882,-0.14416955437394752,-3.503453862907513e-06,-1.4293997839809336e-05,0.40608465304411756,-2.2302951285468886e-05,-0.1675174347587569
417,0.4071,-0.340208,932.538,-0.460456,0.103502,-0.0589869,-0.152138,-0.156013,0.34152,-0.183729,-4.08615e-07,-1.67404e-05,-2.58538e-05,0.35363,-0.1444519318261619,-4.086149165694053e-07,-1.6740259880299035e-05,0.40708473471933737,-2.5853465793423958e-05,-0.1678387110186328
418,0.4081,0.377407,933.385,0.502175,-0.0984274,0.114116,0.0713226,-0.156339,0.342231,-0.184108,-3.42614e-06,-1.42787e-05,-2.25178e-05,0.354373,-0.14473079503921316,-3.4261341307351145e-06,-1.4278598059802583e-05,0.40808552770546913,-2.2517546476197303e-05,-0.1681540403884666
419,0.4091,-0.325683,932.555,-0.441109,0.0995634,-0.0555692,-0.147577,-0.156669,0.342941,-0.184494,-4.51957e-07,-1.6626e-05,-2.59322e-05,0.35512,-0.14501298731256418,-4.5195689790666904e-07,-1.6625861788854834e-05,0.4090856234221072,-2.593186376342871e-05,-0.16847507096598913
420,0.4101,0.362465,933.368,0.482284,-0.0941802,0.110477,0.0668417,-0.156995,0.34365,-0.184873,-3.34774e-06,-1.42639e-05,-2.27325e-05,0.355862,-0.14529166765133705,-3.3477343963639328e-06,-1.4263798271074712e-05,0.41008501937311337,-2.2732241618639293e-05,-0.16879015920110085
421,0.4111,-0.311124,932.573,-0.421704,0.0956097,-0.05214,-0.143,-0.157324,0.344359,-0.185257,-4.94835e-07,-1.65116e-05,-2.60101e-05,0.356608,-0.1455728204405099,-4.948348775180023e-07,-1.651146368431e-05,0.41108512414709675,-2.6009761740275472e-05,-0.16910928250437207
422,0.4121,0.347527,933.351,0.462386,-0.0899303,0.106839,0.0623564,-0.157649,0.345067,-0.185636,-3.26852e-06,-1.42493e-05,-2.29471e-05,0.357349,-0.14585046415431935,-3.2685146583721902e-06,-1.4249198479254765e-05,0.4120845261615589,-2.294683671733022e-05,-0.1694241304188543
423,0.4131,-0.296587,932.59,-0.402316,0.0916569,-0.0487129,-0.138424,-0.157978,0.345775,-0.18602,-5.37024e-07,-1.63977e-05,-2.60875e-05,0.358094,-0.1461314331296818,-5.370238558288776e-07,-1.6397565558490257e-05,0.4130846360031888,-2.6087159724186293e-05,-0.16974301032391337
424,0.4141,0.332649,933.334,0.442556,-0.0856933,0.103213,0.0578838,-0.158303,0.346483,-0.186397,-3.18871e-06,-1.42349e-05,-2.31611e-05,0.358834,-0.1464088953238658,-3.1887049161127834e-06,-1.4234798684342742e-05,0.414085454173305,-2.3160831783775038e-05,-0.17005595821463726
425,0.4151,-0.282125,932.608,-0.383017,0.0877199,-0.0453006,-0.133866,-0.158631,0.34719,-0.186781,-5.78307e-07,-1.62843e-05,-2.61649e-05,0.359577,-0.14668882729484667,-5.783068327547269e-07,-1.6284167411506623e-05,0.4150855660873083,-2.6164557701990887e-05,-0.17037459554440004
426,0.4161,0.317882,933.317,0.422864,-0.0814841,0.099614,0.0534404,-0.158956,0.347896,-0.187158,-3.10856e-06,-1.42204e-05,-2.33745e-05,0.360317,-0.14696610836536128,-3.108555168385152e-06,-1.422029889064369e-05,0.416084969244769,-2.3374226818528854e-05,-0.17068730537237353
427,0.4171,-0.26779,932.625,-0.363874,0.0838131,-0.0419152,-0.129342,-0.159283,0.348602,-0.187541,-6.18481e-07,-1.61716e-05,-2.62424e-05,0.361059,-0.147245004845866,-6.184808087894567e-07,-1.6171469240378045e-05,0.41708507822998686,-2.6242055671255038e-05,-0.17100487131665565
428,0.4181,0.303278,933.3,0.403377,-0.0773168,0.0960526,0.0490417,-0.159607,0.349307,-0.187918,-3.02828e-06,-1.42056e-05,-2.35869e-05,0.361798,-0.14752125270972538,-3.0282754147625823e-06,-1.4205499100916619e-05,0.41808447545626737,-2.3586621831217514e-05,-0.17131734357544748
429,0.4191,-0.253628,932.642,-0.344952,0.0799498,-0.0385683,-0.124867,-0.159934,0.350012,-0.1883,-6.57355e-07,-1.60597e-05,-2.63202e-05,0.362539,-0.14779996768770687,-6.573547839394678e-07,-1.6059571043669507e-05,0.4190845775060137,-2.63198536265552e-05,-0.1716338398955558
430,0.4201,0.28888,933.283,0.384158,-0.0732043,0.0925403,0.0447019,-0.160258,0.350717,-0.188677,-2.94808e-06,-1.41904e-05,-2.37981e-05,0.363276,-0.1480760357727312,-2.9480756543742714e-06,-1.4190299316707566e-05,0.4200853848763013,-2.3797816827486606e-05,-0.17194607507788517
431,0.4211,-0.239683,932.659,-0.326309,0.0761425,-0.0352704,-0.120454,-0.160584,0.351421,-0.189058,-6.94751e-07,-1.59488e-05,-2.63986e-05,0.364016,-0.14835371772045258,-6.947507587007351e-07,-1.5948672818510978e-05,0.42108547697836896,-2.6398251560033614e-05,-0.17226150353034464
432,0.4221,0.274733,933.267,0.365262,-0.0691589,0.0890874,0.0404345,-0.160908,0.352124,-0.189434,-2.86816e-06,-1.41746e-05,-2.4008e-05,0.364753,-0.1486296064195285,-2.868155886792678e-06,-1.4174499540886565e-05,0.4220848513076032,-2.400771181032546e-05,-0.1725726747011711
433,0.4231,-0.225996,932.675,-0.308,0.0724027,-0.0320314,-0.116117,-0.161234,0.352827,-0.189815,-7.30505e-07,-1.58391e-05,-2.64777e-05,0.365492,-0.1489071079326314,-7.305047331485071e-07,-1.583897456214345e-05,0.4230849284439986,-2.6477349468811973e-05,-0.17288786446464732
434,0.4241,0.260875,933.251,0.346743,-0.0651915,0.0857035,0.0362518,-0.161557,0.353529,-0.190191,-2.78869e-06,-1.4158e-05,-2.42163e-05,0.366227,-0.14918196654471372,-2.7886861115877792e-06,-1.4157899775990579e-05,0.4240842847968054,-2.4216006787813882e-05,-0.17319880016803313
435,0.4251,-0.212603,932.691,-0.290076,0.0687412,-0.0288604,-0.111867,-0.161882,0.354231,-0.190571,-7.64467e-07,-1.57305e-05,-2.65578e-05,0.366965,-0.14945843747662668,-7.644667078254841e-07,-1.5730376276335e-05,0.42508434294407316,-2.6557447344699447e-05,-0.1735129249364833
436,0.4261,0.24734,933.235,0.328649,-0.0613122,0.082397,0.0321648,-0.162205,0.354933,-0.190946,-2.70984e-06,-1.41406e-05,-2.44228e-05,0.3677,-0.14973311803802303,-2.7098363284405735e-06,-1.4140500022241653e-05,0.42608510337863414,-2.4422501765819504e-05,-0.17382279948452295
437,0.4271,-0.199538,932.707,-0.272581,0.0651674,-0.0257653,-0.107715,-0.16253,0.355634,-0.191325,-7.96502e-07,-1.56233e-05,-2.66389e-05,0.368436,-0.15000940987480527,-7.965016828315186e-07,-1.562317795689161e-05,0.42708513950781435,-2.663854518769604e-05,-0.17413586131455416
438,0.4281,0.23416,933.22,0.311021,-0.0575299,0.0791755,0.0281835,-0.162853,0.356334,-0.1917,-2.63174e-06,-1.41223e-05,-2.46274e-05,0.36917,-0.15028391250085493,-2.6317365370287504e-06,-1.4122200280741737e-05,0.42808444882292496,-2.4627096748108812e-05,-0.1744455023052469
439,0.4291,-0.18683,932.722,-0.255555,0.0616899,-0.0227536,-0.10367,-0.163177,0.357034,-0.192079,-8.26491e-07,-1.55175e-05,-2.67213e-05,0.369906,-0.15055917591812307,-8.264906584676268e-07,-1.5517379604257364e-05,0.42908445789944416,-2.672094298927785e-05,-0.1747583281756262
440,0.4301,0.221363,933.205,0.293896,-0.0538525,0.0760457,0.0243166,-0.163499,0.357734,-0.192454,-2.55454e-06,-1.41028e-05,-2.48299e-05,0.370639,-0.15083265183149253,-2.5545367371426764e-06,-1.4102700556017922e-05,0.4300851672273762,-2.482959174054944e-05,-0.17506773578500767
441,0.4311,-0.174506,932.737,-0.239034,0.0583161,-0.0198314,-0.0997403,-0.163823,0.358433,-0.192832,-8.54328e-07,-1.54131e-05,-2.6805e-05,0.371373,-0.15110773748601658,-8.543276350803097e-07,-1.541298121876533e-05,0.4310851462112071,-2.680464074922284e-05,-0.17537950125349522
442,0.4321,0.208971,933.191,0.277308,-0.0502868,0.0730134,0.0205717,-0.164145,0.359131,-0.193206,-2.47834e-06,-1.40823e-05,-2.50303e-05,0.372105,-0.15138103679099668,-2.4783369289016477e-06,-1.408220084486711e-05,0.4320843923395916,-2.5029986744695698e-05,-0.17568785165490708
443,0.4331,-0.162586,932.751,-0.223048,0.0550527,-0.0170044,-0.0959337,-0.164468,0.359829,-0.193583,-8.79923e-07,-1.53104e-05,-2.68903e-05,0.372838,-0.15165509645309505,-8.799226128841653e-07,-1.531028279644353e-05,0.4330843361852488,-2.6889938459118135e-05,-0.1759985587628633
444,0.4341,0.197005,933.177,0.261283,-0.0468386,0.0700833,0.0169554,-0.164789,0.360527,-0.193957,-2.40324e-06,-1.40604e-05,-2.52284e-05,0.373569,-0.15192737146465618,-2.403237112202916e-06,-1.4060301153029364e-05,0.4340849782353551,-2.5228081766637267e-05,-0.17630667768005692
445,0.4351,-0.15109,932.765,-0.207622,0.051905,-0.0142772,-0.0922558,-0.165112,0.361224,-0.194333,-9.03201e-07,-1.52093e-05,-2.6977e-05,0.374301,-0.15220125468915124,-9.032005920950326e-07,-1.5209184339171067e-05,0.4350848838918262,-2.697663612405421e-05,-0.17661632815131256
446,0.4361,0.18548,933.164,0.245844,-0.0435126,0.0672596,0.013473,-0.165433,0.361921,-0.194707,-2.32933e-06,-1.40373e-05,-2.54241e-05,0.375031,-0.152473354412054,-2.3293272871649506e-06,-1.4037201477523631e-05,0.43608548672547776,-2.5423776810362675e-05,-0.1769242160659551
447,0.4371,-0.140032,932.778,-0.192776,0.0488775,-0.0116535,-0.0887116,-0.165755,0.362617,-0.195083,-9.24099e-07,-1.51098e-05,-2.70654e-05,0.375762,-0.15274621405917255,-9.240985729963569e-07,-1.5109685847503052e-05,0.4370853501363432,-2.706503373539615e-05,-0.1772336343864247
448,0.4381,0.174411,933.151,0.231008,-0.0403127,0.0645453,0.0101286,-0.166076,0.363312,-0.195456,-2.25667e-06,-1.40128e-05,-2.56174e-05,0.376491,-0.15301813887819116,-2.2566674536816933e-06,-1.4012701821219942e-05,0.4380844716091832,-2.561707187720419e-05,-0.17754046901258336
449,0.4391,-0.129424,932.791,-0.178528,0.0459739,-0.00913629,-0.085305,-0.166398,0.364007,-0.195831,-9.42571e-07,-1.5012e-05,-2.71555e-05,0.377221,-0.15329082313295128,-9.425705558285813e-07,-1.5011887320448558e-05,0.4390842877128027,-2.7155131292699863e-05,-0.17784883351474579
450,0.4401,0.163805,933.138,0.216788,-0.0372415,0.0619427,0.00692565,-0.166718,0.364702,-0.196204,-2.18532e-06,-1.39869e-05,-2.58082e-05,0.377949,-0.15356172672266266,-2.1853176122021978e-06,-1.398680218378523e-05,0.44008479893013863,-2.5807866971261362e-05,-0.1781554387144202
451,0.4411,-0.119275,932.803,-0.164889,0.0431968,-0.00672777,-0.0820388,-0.167039,0.365396,-0.196578,-9.58582e-07,-1.49159e-05,-2.72473e-05,0.378678,-0.15383338980412742,-9.585815405888098e-07,-1.4915788758562698e-05,0.441084564659177,-2.7246928795743308e-05,-0.17846275110934107
452,0.4421,0.153669,933.127,0.203195,-0.0343012,0.0594534,0.00386624,-0.167359,0.36609,-0.19695,-2.11531e-06,-1.39596e-05,-2.59964e-05,0.379405,-0.1541041198002805,-2.1153077627289463e-06,-1.3959502565219495e-05,0.44208502446644893,-2.599606209652272e-05,-0.17876830612917105
453,0.4431,-0.10959,932.815,-0.151867,0.0405478,-0.00442939,-0.078915,-0.16768,0.366783,-0.197325,-9.7211e-07,-1.48216e-05,-2.73409e-05,0.380133,-0.1543756088015087,-9.721095275416758e-07,-1.48214901606325e-05,0.4430847357483543,-2.7340526240982044e-05,-0.17907621027873633
454,0.4441,0.144007,933.115,0.190231,-0.0314926,0.0570782,0.000951702,-0.167999,0.367476,-0.197696,-2.04667e-06,-1.39309e-05,-2.61821e-05,0.380859,-0.15464531996108388,-2.046667905597488e-06,-1.3930802965411715e-05,0.4440851400702883,-2.6181757251775295e-05,-0.17938071651532328
455,0.4451,-0.10037,932.826,-0.139465,0.0380279,-0.00224186,-0.0759345,-0.168319,0.368168,-0.19807,-9.83145e-07,-1.4729e-05,-2.74363e-05,0.381586,-0.1549157901811531,-9.831445166863517e-07,-1.4728891528759114e-05,0.4450847928271795,-2.7435923628194026e-05,-0.17968757074202935
456,0.4461,0.134818,933.105,0.177898,-0.0288162,0.0548173,-0.00181757,-0.168639,0.36886,-0.198441,-1.97942e-06,-1.39007e-05,-2.63652e-05,0.382311,-0.15518617386459854,-1.9794180409204998e-06,-1.3900603385685883e-05,0.44608513758318225,-2.6364852441118636e-05,-0.17999185020595343
457,0.4471,-0.0916163,932.836,-0.127684,0.0356374,-0.00016526,-0.0730975,-0.168958,0.369551,-0.198814,-9.91688e-07,-1.46381e-05,-2.75335e-05,0.383037,-0.1554556264951562,-9.916875082227605e-07,-1.463799286349765e-05,0.447084727731875,-2.753312095671312e-05,-0.18029765620946137
458,0.4481,0.1261,933.095,0.166195,-0.0262715,0.0526701,-0.004442,-0.169277,0.370242,-0.199184,-1.91355e-06,-1.3869e-05,-2.65458e-05,0.383761,-0.1557249931840331,-1.9135481691412437e-06,-1.3868903825819956e-05,0.44808500883605795,-2.6545447663339772e-05,-0.18060088997495793
459,0.4491,-0.0833251,932.846,-0.116519,0.0333755,0.00180095,-0.0704034,-0.169596,0.370932,-0.199557,-9.97751e-07,-1.45489e-05,-2.76324e-05,0.384486,-0.1559942739586403,-9.977505022185085e-07,-1.45487941652922e-05,0.44908453228808964,-2.7632018228751498e-05,-0.1809064688489943
460,0.4501,0.11785,933.085,0.155115,-0.0238573,0.0506356,-0.00692274,-0.169915,0.371622,-0.199927,-1.84905e-06,-1.3836e-05,-2.67238e-05,0.385209,-0.1562634688463801,-1.8490482904809369e-06,-1.38359042829439e-05,0.45008474564929446,-2.6723442922427232e-05,-0.18120947739548232
461,0.4511,-0.0754915,932.856,-0.105966,0.0312412,0.00365786,-0.0678506,-0.170234,0.372312,-0.200299,-1.00135e-06,-1.44614e-05,-2.77332e-05,0.385933,-0.15653257787464603,-1.001349498652715e-06,-1.446129543447583e-05,0.45108564939587414,-2.7732815438330505e-05,-0.18151401082316176
462,0.4521,0.110059,933.076,0.144649,-0.0215718,0.0487123,-0.00926167,-0.170552,0.373,-0.200669,-1.78591e-06,-1.38015e-05,-2.68993e-05,0.386655,-0.15680075787200243,-1.7859084052718188e-06,-1.3801404759705704e-05,0.4520843398327752,-2.6898938217057022e-05,-0.18181679462070033
463,0.4531,-0.0681081,932.865,-0.0960141,0.0292326,0.0054071,-0.0654372,-0.17087,0.373689,-0.20104,-1.00253e-06,-1.43756e-05,-2.78356e-05,0.387378,-0.1570688526016778,-1.002529497418081e-06,-1.437549667160365e-05,0.4530851706895571,-2.78352125933079e-05,-0.18212028428908156
464,0.4541,0.10272,933.067,0.134787,-0.0194127,0.0468979,-0.0114613,-0.171188,0.374377,-0.201409,-1.7241e-06,-1.37656e-05,-2.70722e-05,0.388099,-0.15733686209078324,-1.724098513733452e-06,-1.376550525455933e-05,0.4540852372704476,-2.7071833551328695e-05,-0.1824220262293671
465,0.4551,-0.0611658,932.873,-0.0866521,0.0273472,0.00705075,-0.0631605,-0.171505,0.375064,-0.20178,-1.00131e-06,-1.42914e-05,-2.79397e-05,0.388821,-0.15760394397078592,-1.0013094986494053e-06,-1.4291297878443743e-05,0.45508453704862295,-2.793930969025027e-05,-0.1827252913984686
466,0.4561,0.0958214,933.059,0.125515,-0.0173773,0.0451901,-0.0135246,-0.171823,0.375751,-0.202149,-1.66358e-06,-1.37284e-05,-2.72427e-05,0.389542,-0.15787178332788832,-1.6635786163066157e-06,-1.3728305765958737e-05,0.4560845235816191,-2.724232892103995e-05,-0.18302681013231492
467,0.4571,-0.0546539,932.881,-0.077866,0.0255824,0.00859123,-0.0610174,-0.17214,0.376438,-0.202519,-9.97745e-07,-1.42088e-05,-2.80455e-05,0.390262,-0.15813869566473282,-9.977445022402165e-07,-1.42086990554402e-05,0.45708519734139896,-2.8045106728602498e-05,-0.18332903429764758
468,0.4581,0.0893516,933.052,0.116816,-0.0154622,0.043586,-0.0154551,-0.172457,0.377124,-0.202887,-1.60431e-06,-1.36898e-05,-2.74108e-05,0.390982,-0.158405523403776,-1.604308713099023e-06,-1.3689706295116899e-05,0.45808510071441955,-2.741042432741203e-05,-0.18362951392138427
469,0.4591,-0.0485602,932.888,-0.0696399,0.0239349,0.0100314,-0.0590043,-0.172774,0.377809,-0.203257,-9.91882e-07,-1.41277e-05,-2.81528e-05,0.391701,-0.1586722665718312,-9.91881508038972e-07,-1.4127600204472124e-05,0.4590842311715224,-2.815240371367711e-05,-0.1839315151275649
470,0.4601,0.0832974,933.045,0.108674,-0.013664,0.0420824,-0.0172568,-0.17309,0.378495,-0.203624,-1.54623e-06,-1.365e-05,-2.75766e-05,0.39242,-0.15893808413420762,-1.5462288045497985e-06,-1.3649906839163783e-05,0.46008550635222667,-2.7576219769009924e-05,-0.18423095731051153
471,0.4611,-0.0428711,932.895,-0.0619559,0.0224009,0.0113745,-0.057117,-0.173407,0.379179,-0.203993,-9.83777e-07,-1.40481e-05,-2.82617e-05,0.393138,-0.15920465850726673,-9.837765161391232e-07,-1.4048001325872583e-05,0.4610845464713418,-2.8261300641929665e-05,-0.1845319205561301
472,0.4621,0.0776444,933.038,0.101071,-0.0119785,0.0406759,-0.0189339,-0.173723,0.379863,-0.204361,-1.48931e-06,-1.36089e-05,-2.774e-05,0.393856,-0.15947030786036998,-1.489308890989527e-06,-1.3608807399312361e-05,0.4620842701676551,-2.7739615249711136e-05,-0.1848319575991635
473,0.4631,-0.0375722,932.902,-0.0547951,0.0209767,0.0126237,-0.0553512,-0.174039,0.380547,-0.204729,-9.73491e-07,-1.397e-05,-2.8372e-05,0.394573,-0.1597358732815397,-9.734905261904458e-07,-1.3969902419974645e-05,0.4630846779088935,-2.8371597518561664e-05,-0.18513188424887872
474,0.4641,0.0723773,933.032,0.0939842,-0.0104016,0.0393628,-0.0204911,-0.174354,0.38123,-0.205096,-1.43347e-06,-1.35667e-05,-2.79013e-05,0.39529,-0.16000051479822897,-1.4334689726336336e-06,-1.3566607972692601e-05,0.4640843060780653,-2.7900910762324038e-05,-0.18543088597718627
475,0.4651,-0.0326483,932.908,-0.0481373,0.019658,0.0137828,-0.0537024,-0.17467,0.381913,-0.205464,-9.61087e-07,-1.38932e-05,-2.84837e-05,0.396007,-0.16026591270047563,-9.610865381315392e-07,-1.3893103489981407e-05,0.46508461722648775,-2.848329434324004e-05,-0.185730592261808
476,0.4661,0.0674801,933.026,0.0873944,-0.00892898,0.0381393,-0.0219331,-0.174985,0.382596,-0.205831,-1.37865e-06,-1.35233e-05,-2.80604e-05,0.396722,-0.16053038728104174,-1.3786490496991988e-06,-1.3523208560628497e-05,0.46608561182079455,-2.8060006310615115e-05,-0.18602937430458943
477,0.4671,-0.0280834,932.913,-0.0419614,0.0184405,0.0148555,-0.0521657,-0.175301,0.383277,-0.206198,-9.46631e-07,-1.38178e-05,-2.85968e-05,0.397438,-0.1607956177700366,-9.466305519456597e-07,-1.3817704534679898e-05,0.4670843561562925,-2.859639111540968e-05,-0.1863280467144801
478,0.4681,0.0629364,933.021,0.0812791,-0.00755598,0.0370014,-0.023265,-0.175615,0.383959,-0.206564,-1.3248e-06,-1.34788e-05,-2.82174e-05,0.398152,-0.16105908657928902,-1.32479912240413e-06,-1.3478709161351965e-05,0.46808524895283976,-2.8217001892927307e-05,-0.18662579615791075
479,0.4691,-0.0238612,932.918,-0.0362459,0.0173197,0.0158457,-0.0507359,-0.17593,0.38464,-0.20693,-9.30192e-07,-1.37437e-05,-2.8711e-05,0.398867,-0.16132331134943045,-9.30191567327654e-07,-1.3743605555838201e-05,0.46908535550500674,-2.8710587843150392e-05,-0.18692343664498523
480,0.4701,0.0587295,933.016,0.0756163,-0.00627796,0.0359452,-0.024492,-0.176244,0.38532,-0.207296,-1.27184e-06,-1.34333e-05,-2.83724e-05,0.399581,-0.16158661448891043,-1.2718391911858973e-06,-1.3433209773650034e-05,0.47008467327628534,-2.8371997507270486e-05,-0.18722096821557443
481,0.4711,-0.0199651,932.923,-0.0309685,0.0162909,0.0167573,-0.0494082,-0.176559,0.386,-0.207662,-9.1184e-07,-1.36708e-05,-2.88265e-05,0.400294,-0.16185067311392953,-9.118395842833138e-07,-1.3670706555002354e-05,0.47108467081474314,-2.882608452048352e-05,-0.18751839090953437
482,0.4721,0.0548422,933.012,0.0703831,-0.00509021,0.0349665,-0.0256191,-0.176873,0.38668,-0.208027,-1.2197e-06,-1.33869e-05,-2.85254e-05,0.401007,-0.1621138106878106,-1.219699256149731e-06,-1.3386810395865645e-05,0.47208534858277895,-2.8524993154643852e-05,-0.18781489258200534
483,0.4731,-0.0163778,932.927,-0.0261064,0.0153496,0.0175944,-0.0481773,-0.177187,0.387359,-0.208393,-8.91645e-07,-1.3599e-05,-2.8943e-05,0.40172,-0.1623768656494643,-8.916446024853641e-07,-1.3598907534051463e-05,0.4730852339571354,-2.8942581155377844e-05,-0.1881120979394223
484,0.4741,0.0512574,933.008,0.0655566,-0.00398791,0.0340611,-0.0266516,-0.1775,0.388037,-0.208758,-1.16832e-06,-1.33395e-05,-2.86767e-05,0.402431,-0.16263900066424608,-1.1683193175127116e-06,-1.3339411029211767e-05,0.47408432439914616,-2.867628882741169e-05,-0.18840838294837092
485,0.4751,-0.0130827,932.931,-0.0216375,0.014491,0.018361,-0.0470378,-0.177814,0.388716,-0.209123,-8.6968e-07,-1.35284e-05,-2.90605e-05,0.403143,-0.16290189074213535,-8.696796218732317e-07,-1.3528308491661534e-05,0.47508556753899134,-2.9060077747722346e-05,-0.18870455983302514
486,0.4761,0.0479582,933.004,0.0611143,-0.00296632,0.033225,-0.0275949,-0.178127,0.389393,-0.209487,-1.11762e-06,-1.32913e-05,-2.88261e-05,0.403854,-0.16316386144977857,-1.1176193754902641e-06,-1.3291211671040415e-05,0.47608453858175825,-2.8825684531996743e-05,-0.18899981763306628
487,0.4771,-0.0100631,932.935,-0.0175393,0.0137104,0.0190611,-0.0459848,-0.17844,0.39007,-0.209851,-8.46014e-07,-1.34588e-05,-2.91789e-05,0.404565,-0.16342575017342142,-8.46013642141763e-07,-1.3458709430702598e-05,0.47708418615690174,-2.9178474300062263e-05,-0.18929496797882606
488,0.4781,0.0449276,933.0,0.0570336,-0.00202073,0.0324542,-0.0284541,-0.178753,0.390747,-0.210215,-1.06754e-06,-1.32423e-05,-2.89739e-05,0.405274,-0.16368755693872095,-1.0675394301884467e-06,-1.3242212321129543e-05,0.47808451072258906,-2.8973480260652273e-05,-0.18959001090941074
489,0.4791,-0.0073022,932.938,-0.0137896,0.0130032,0.0196987,-0.0450131,-0.179065,0.391424,-0.210579,-8.20717e-07,-1.33902e-05,-2.92982e-05,0.405984,-0.16394844572018985,-8.207166631857277e-07,-1.3390110351618745e-05,0.4790855127372977,-2.9297770811953505e-05,-0.1898849464639123
490,0.4801,0.042149,932.997,0.0532922,-0.00114649,0.0317446,-0.0292343,-0.179378,0.392099,-0.210942,-1.01802e-06,-1.31926e-05,-2.91201e-05,0.406693,-0.16421008890738453,-1.0180194818243393e-06,-1.3192512978044135e-05,0.4800842324883914,-2.9119676014044416e-05,-0.19017896486077823
491,0.4811,-0.004784,932.941,-0.0103667,0.0123649,0.0202777,-0.0441176,-0.17969,0.392775,-0.211306,-7.93859e-07,-1.33225e-05,-2.94183e-05,0.407402,-0.16447081468430924,-7.938586848998952e-07,-1.332241125584499e-05,0.481085107687256,-2.9417867286052335e-05,-0.19047368607505388
492,0.4821,0.0396061,932.994,0.0498684,-0.00033904,0.0310922,-0.0299405,-0.180002,0.39345,-0.211669,-9.68973e-07,-1.31422e-05,-2.92647e-05,0.40811,-0.16473145912748022,-9.68972530546175e-07,-1.314211364167317e-05,0.4820851776205761,-2.9264271792839303e-05,-0.1907674907982252
493,0.4831,-0.00249195,932.944,-0.00724893,0.011791,0.020802,-0.0432933,-0.180314,0.394124,-0.212032,-7.65507e-07,-1.32557e-05,-2.9539e-05,0.408817,-0.16499202226226972,-7.655067070233557e-07,-1.3255612143603379e-05,0.48308443974379944,-2.953856372800434e-05,-0.19106118888963675
494,0.4841,0.0372832,932.992,0.046741,0.000406078,0.0304934,-0.0305777,-0.180625,0.394798,-0.212394,-9.20347e-07,-1.30911e-05,-2.94079e-05,0.409525,-0.16525166936612878,-9.203465765050822e-07,-1.3091014311905624e-05,0.48408437559671524,-2.9407467591946457e-05,-0.19135397174236513
495,0.4851,-0.000411295,932.947,-0.0044161,0.0112772,0.0212751,-0.0425356,-0.180937,0.395472,-0.212756,-7.35728e-07,-1.31898e-05,-2.96604e-05,0.410231,-0.16551207022064085,-7.357277294062214e-07,-1.3189713015004934e-05,0.4850849856335704,-2.9659960134709173e-05,-0.1916466486268822
496,0.4861,0.0351651,932.989,0.0438899,0.00109313,0.0299443,-0.0311506,-0.181248,0.396145,-0.213118,-8.72076e-07,-1.30394e-05,-2.95496e-05,0.410937,-0.165771555614732,-8.720756197178048e-07,-1.3039314987417505e-05,0.48608478422339085,-2.9549163414910318e-05,-0.19193921958154148
497,0.4871,0.00147317,932.949,-0.00184809,0.0108193,0.0217008,-0.0418397,-0.181559,0.396818,-0.21348,-7.04583e-07,-1.31246e-05,-2.97823e-05,0.411643,-0.16603096032141307,-7.045827518092906e-07,-1.3124513872808663e-05,0.4870852559041319,-2.97818565117014e-05,-0.19223168464468265
498,0.4881,0.0332371,932.987,0.041295,0.00172626,0.0294415,-0.0316637,-0.181869,0.39749,-0.213841,-8.24099e-07,-1.29873e-05,-2.96901e-05,0.412348,-0.1662894506556416,-8.240986604235445e-07,-1.298721566533878e-05,0.48808491304327917,-2.9689659253318013e-05,-0.19252323637827173
499,0.4891,0.00317565,932.951,0.000474282,0.0104132,0.0220824,-0.0412012,-0.18218,0.398162,-0.214203,-6.72136e-07,-1.30601e-05,-2.99047e-05,0.413053,-0.16654869432200803,-6.721357741490408e-07,-1.3060014717236612e-05,0.4890852421777889,-2.9904252858869995e-05,-0.19281549006559395
500,0.4901,0.0314849,932.985,0.0389376,0.00230945,0.0289815,-0.0321215,-0.18249,0.398833,-0.214564,-7.76358e-07,-1.29346e-05,-2.98293e-05,0.413758,-0.16680702418357085,-7.763576986841159e-07,-1.293451634842846e-05,0.4900847536738955,-2.9828855110825003e-05,-0.1931068310834625
501,0.4911,0.00471004,932.953,0.00256964,0.0100552,0.0224233,-0.0406158,-0.1828,0.399504,-0.214924,-6.38444e-07,-1.29964e-05,-3.00275e-05,0.414461,-0.16706527397528814,-6.384437961637346e-07,-1.2996315547186832e-05,0.49108493606727666,-3.0027049179093268e-05,-0.19339726034386895
502,0.4921,0.0298952,932.983,0.0367994,0.0028465,0.0285611,-0.0325281,-0.18311,0.400174,-0.215285,-7.28795e-07,-1.28815e-05,-2.99673e-05,0.415165,-0.1673234437219775,-7.28794734450311e-07,-1.2881417033816511e-05,0.49208429772321205,-2.9966850984997073e-05,-0.19368839138057103
503,0.4931,0.00608942,932.955,0.00445555,0.0097414,0.0227267,-0.0400795,-0.18342,0.400844,-0.215645,-6.03564e-07,-1.29332e-05,-3.01507e-05,0.415868,-0.16758153344844928,-6.035638178136793e-07,-1.2933116366520281e-05,0.4930843291758138,-3.0150245472260195e-05,-0.19397861131695104
504,0.4941,0.0284552,932.981,0.0348633,0.00334103,0.0281771,-0.0328876,-0.18373,0.401514,-0.216005,-6.81359e-07,-1.2828e-05,-3.01041e-05,0.41657,-0.16783954317950567,-6.813587678511368e-07,-1.2827917721613957e-05,0.4940850308739957,-3.010364687616729e-05,-0.19426872679295804
505,0.4951,0.00732612,932.956,0.00614853,0.00946842,0.0229955,-0.0395883,-0.184039,0.402183,-0.216365,-5.6755e-07,-1.28707e-05,-3.02742e-05,0.417272,-0.16809664103699862,-5.675498389035027e-07,-1.2870617172922039e-05,0.49508490818131756,-3.0273741741027038e-05,-0.19455873784619082
506,0.4961,0.0271527,932.98,0.033113,0.00379649,0.0278267,-0.0332038,-0.184348,0.402852,-0.216725,-6.33997e-07,-1.27741e-05,-3.02399e-05,0.417973,-0.1683536594635262,-6.339967990598439e-07,-1.2774018411487731e-05,0.496085454630361,-3.0239442778801084e-05,-0.194848644514235
507,0.4971,0.008432,932.958,0.00766451,0.00923293,0.0232326,-0.0391385,-0.184657,0.40352,-0.217084,-5.30451e-07,-1.28087e-05,-3.03978e-05,0.418675,-0.16861059848362892,-5.304508593484414e-07,-1.280861796892907e-05,0.4970851735830093,-3.0397337991594497e-05,-0.19513764197270678
508,0.4981,0.0259761,932.979,0.0315328,0.0042161,0.027507,-0.0334802,-0.184966,0.404188,-0.217443,-5.86662e-07,-1.272e-05,-3.03747e-05,0.419375,-0.16886745812183968,-5.866618278949076e-07,-1.2719919101122912e-05,0.49808556057101705,-3.037423869345357e-05,-0.1954265356997118
509,0.4991,0.00941807,932.959,0.00901865,0.00903173,0.0234407,-0.0387267,-0.185274,0.404855,-0.217802,-4.92317e-07,-1.27472e-05,-3.05217e-05,0.420075,-0.16912340752650645,-4.923168788195653e-07,-1.274711875476342e-05,0.4990851169549144,-3.052123421765085e-05,-0.19571532573248307
510,0.5001,0.0249149,932.977,0.0301087,0.00460296,0.0272155,-0.0337203,-0.185583,0.405522,-0.21816,-5.39309e-07,-1.26655e-05,-3.05085e-05,0.420775,-0.16938010873120213,-5.393088545746494e-07,-1.2665419792945443e-05,0.5000853402653149,-3.0508034620457813e-05,-0.19600320811185024
511,0.5011,0.010295,932.96,0.0102247,0.00886191,0.0236222,-0.0383497,-0.185891,0.406188,-0.218519,-4.53191e-07,-1.26862e-05,-3.06457e-05,0.421474,-0.16963590026379471,-4.53190897253819e-07,-1.268611953053611e-05,0.5010847298617269,-3.0645230425285774e-05,-0.19629179115638218
512,0.5021,0.0239587,932.976,0.0288266,0.00495989,0.0269496,-0.0339272,-0.186199,0.406854,-0.218877,-4.91895e-07,-1.26108e-05,-3.06414e-05,0.422173,-0.16989161302472688,-4.918948790511024e-07,-1.2610720484196314e-05,0.5020847852733017,-3.064093055704653e-05,-0.1965794671980643
513,0.5031,0.011072,932.961,0.0112958,0.00872069,0.0237796,-0.0380042,-0.186506,0.40752,-0.219234,-4.13118e-07,-1.26257e-05,-3.07698e-05,0.422871,-0.17014641718508838,-4.1311791465492576e-07,-1.262562029613612e-05,0.5030855069436204,-3.076932661461029e-05,-0.19686623713679485
514,0.5041,0.0230979,932.975,0.0276737,0.0052896,0.0267072,-0.0341038,-0.186814,0.408185,-0.219592,-4.4438e-07,-1.25559e-05,-3.07734e-05,0.423569,-0.1704019727310211,-4.4437990120993476e-07,-1.2555821174986548e-05,0.5040853912304155,-3.0772926503774833e-05,-0.19715370756362316
515,0.5051,0.0117592,932.962,0.0122448,0.00860546,0.0239151,-0.0376876,-0.187121,0.408849,-0.219949,-3.72136e-07,-1.25656e-05,-3.08939e-05,0.424266,-0.17065662023500072,-3.721359307373717e-07,-1.2565521053220507e-05,0.505084435576209,-3.089342278839169e-05,-0.19744027253513197
516,0.5061,0.0223241,932.974,0.0266383,0.00559463,0.0264859,-0.0342531,-0.187428,0.409514,-0.220306,-3.96727e-07,-1.25008e-05,-3.09046e-05,0.424963,-0.1709111895741956,-3.9672692131453857e-07,-1.2500721865316144e-05,0.5060856495926307,-3.0904122457764416e-05,-0.19772673522120499
517,0.5071,0.0123639,932.963,0.0130822,0.00851382,0.0240308,-0.037397,-0.187735,0.410177,-0.220663,-3.30284e-07,-1.25058e-05,-3.10181e-05,0.425659,-0.17116568077259864,-3.3028394541556594e-07,-1.25057218027802e-05,0.5070845154657584,-3.101761894375166e-05,-0.19801309565835168
518,0.5081,0.021629,932.974,0.0257095,0.00587726,0.0262839,-0.0343775,-0.188042,0.410841,-0.22102,-3.48901e-07,-1.24455e-05,-3.1035e-05,0.426355,-0.1714200938541952,-3.4890093913997333e-07,-1.2445422555074082e-05,0.5080855518913416,-3.1034518419348345e-05,-0.1982993538830683
519,0.5091,0.0128946,932.963,0.0138194,0.00844355,0.0241284,-0.0371301,-0.188348,0.411503,-0.221376,-2.87593e-07,-1.24464e-05,-3.11421e-05,0.42705,-0.17167360051697833,-2.875929586698689e-07,-1.2446322543935295e-05,0.5090842350543483,-3.1141615089880226e-05,-0.19858470851694732
520,0.5101,0.021005,932.973,0.0248769,0.00613963,0.0260994,-0.0344795,-0.188655,0.412166,-0.221732,-3.00872e-07,-1.23901e-05,-3.11646e-05,0.427745,-0.17192785769114638,-3.008719546837568e-07,-1.2390023243047388e-05,0.5100850896488254,-3.116411438885969e-05,-0.1988699615826569
521,0.5111,0.0133585,932.964,0.0144656,0.00839261,0.0242098,-0.0368845,-0.188961,0.412828,-0.222088,-2.44098e-07,-1.23874e-05,-3.12661e-05,0.42844,-0.17218120900196543,-2.440979701701096e-07,-1.2387323276463746e-05,0.511085096944067,-3.1265611220576695e-05,-0.19915511311634893
522,0.5121,0.0204449,932.972,0.024131,0.00638374,0.0259305,-0.0345612,-0.189267,0.413489,-0.222444,-2.5261e-07,-1.23346e-05,-3.12935e-05,0.429134,-0.17243448279914353,-2.5260996805442915e-07,-1.233452392912504e-05,0.5120842543782997,-3.129301036353116e-05,-0.19944016315416224
523,0.5131,0.0137626,932.964,0.0150308,0.00835904,0.0242767,-0.0366582,-0.189572,0.414151,-0.222799,-1.99827e-07,-1.23287e-05,-3.139e-05,0.429827,-0.17268685179366183,-1.99826980074036e-07,-1.2328624001911592e-05,0.51308558555875,-3.1389507339052436e-05,-0.1997243114569347
524,0.5141,0.0199428,932.972,0.0234636,0.00661147,0.0257758,-0.0346247,-0.189878,0.414811,-0.223155,-2.04087e-07,-1.2279e-05,-3.14217e-05,0.430521,-0.17293997088781643,-2.0408697920526464e-07,-1.2278924613418063e-05,0.5140845516677721,-3.1421206343584807e-05,-0.2000091588962034
525,0.5151,0.0141118,932.965,0.0155215,0.00834111,0.0243305,-0.0364493,-0.190183,0.415471,-0.22351,-1.54807e-07,-1.22702e-05,-3.15138e-05,0.431213,-0.1731921857319767,-1.5480698800640624e-07,-1.2270124721380782e-05,0.5150841773120491,-3.151330344541847e-05,-0.20029310524133703
526,0.5161,0.0194922,932.971,0.0228663,0.00682439,0.0256339,-0.0346717,-0.190488,0.416131,-0.223864,-1.55279e-07,-1.22233e-05,-3.15493e-05,0.431906,-0.17344432366233953,-1.5527898789002847e-07,-1.2223225295815432e-05,0.5160844629270176,-3.15488023260313e-05,-0.2005761513799592
527,0.5171,0.0144128,932.965,0.0159466,0.00833726,0.0243725,-0.0362559,-0.190793,0.416791,-0.224219,-1.09064e-07,-1.2212e-05,-3.16374e-05,0.432597,-0.17369638470235993,-1.0906399405818945e-07,-1.2211925433880388e-05,0.5170854089484023,-3.1636899542775154e-05,-0.20085989647848435
528,0.5181,0.0190882,932.971,0.0223319,0.0070241,0.0255034,-0.0347041,-0.191098,0.41745,-0.224573,-1.06163e-07,-1.21676e-05,-3.16762e-05,0.433289,-0.17394836887548581,-1.0616299439547561e-07,-1.2167525975104176e-05,0.5180854977259581,-3.16756983145261e-05,-0.20114274200851845
529,0.5191,0.014671,932.966,0.0163137,0.00834597,0.024404,-0.0360763,-0.191403,0.418108,-0.224927,-6.26197e-08,-1.21541e-05,-3.17608e-05,0.433979,-0.1742002762051582,-6.261969809351342e-08,-1.2154026139188367e-05,0.5190847266937397,-3.176029563112248e-05,-0.20142548742895527
530,0.5201,0.0187261,932.97,0.0218542,0.00721204,0.0253831,-0.0347234,-0.191707,0.418766,-0.225281,-5.67189e-08,-1.21118e-05,-3.18025e-05,0.43467,-0.17445128116650466,-5.6718898355789804e-08,-1.2111726652497268e-05,0.5200846133705446,-3.180199430585784e-05,-0.20170813277522748
531,0.5211,0.0148903,932.966,0.0166274,0.00836591,0.0244262,-0.0359093,-0.192011,0.419424,-0.225634,-1.54959e-08,-1.20965e-05,-3.1884e-05,0.43536,-0.17470220983394014,-1.549589989657818e-08,-1.2096426837637786e-05,0.5210851581892877,-3.18834917106825e-05,-0.2019898800730341
532,0.5221,0.0184003,932.97,0.0214259,0.00738942,0.0252719,-0.0347309,-0.192315,0.420081,-0.225987,-6.92749e-09,-1.20561e-05,-3.19282e-05,0.436049,-0.17495306223065443,-6.927490026065186e-09,-1.2056027325568763e-05,0.5220848394975686,-3.19276903004706e-05,-0.20227152793159664
533,0.5231,0.0150753,932.966,0.0168949,0.00839585,0.0244401,-0.0357533,-0.192619,0.420738,-0.22634,3.22882e-08,-1.2039e-05,-3.20069e-05,0.436738,-0.17520383837983033,3.228820055767301e-08,-1.2038927531543564e-05,0.523085177812272,-3.200638778466658e-05,-0.20255307638601094
534,0.5241,0.0181084,932.97,0.0210433,0.00755746,0.0251689,-0.0347281,-0.192922,0.421394,-0.226693,4.32286e-08,-1.20003e-05,-3.20534e-05,0.437427,-0.1754537137587696,4.322860092109693e-08,-1.2000227996633583e-05,0.5240846494797813,-3.205288629526404e-05,-0.2028345254713605
535,0.5251,0.01523,932.966,0.0171208,0.00843472,0.0244466,-0.0356072,-0.193226,0.42205,-0.227046,8.07158e-08,-1.19818e-05,-3.21296e-05,0.438115,-0.17570433773301275,8.071580315238691e-08,-1.1981728218479759e-05,0.525084777015806,-3.212908384997437e-05,-0.20311587522271646
536,0.5261,0.0178453,932.97,0.0207002,0.00771716,0.0250732,-0.0347161,-0.193529,0.422706,-0.227398,9.37639e-08,-1.19445e-05,-3.2178e-05,0.438803,-0.1759540614836208,9.376390441850901e-08,-1.1944428664700801e-05,0.5260855608507369,-3.2177482293671567e-05,-0.20339632907186478
537,0.5271,0.0153575,932.967,0.0173097,0.00848149,0.0244466,-0.0354698,-0.193832,0.423361,-0.22775,1.2977e-07,-1.19247e-05,-3.22521e-05,0.43949,-0.1762037095793948,1.297700085167719e-07,-1.1924628901094358e-05,0.5270854743290092,-3.2251579906605876e-05,-0.20367668421863094
538,0.5281,0.0176079,932.969,0.0203917,0.00786951,0.0249839,-0.0346959,-0.194134,0.424015,-0.228102,1.44693e-07,-1.18888e-05,-3.2302e-05,0.440177,-0.1764524584961248,1.446930104620492e-07,-1.1888729328446423e-05,0.5280845148798716,-3.2301478296026254e-05,-0.20395694069775194
539,0.5291,0.0154606,932.967,0.0174657,0.00853525,0.0244409,-0.0353402,-0.194437,0.424669,-0.228454,1.79438e-07,-1.18679e-05,-3.23742e-05,0.440863,-0.1767019556004803,1.7943801600139864e-07,-1.1867829576739375e-05,0.5290842090169539,-3.237367596120588e-05,-0.20423709854395267
540,0.5301,0.017394,932.969,0.0201152,0.00801534,0.0249003,-0.0346684,-0.194739,0.425323,-0.228805,1.96027e-07,-1.18331e-05,-3.24255e-05,0.441549,-0.17695055406963067,1.9602701928356225e-07,-1.1833029989194443e-05,0.530084557167841,-3.242497429911673e-05,-0.20451636230870585
541,0.5311,0.0155433,932.967,0.0175936,0.00859524,0.0244301,-0.0352175,-0.195042,0.425977,-0.229156,2.29706e-07,-1.18112e-05,-3.2496e-05,0.442234,-0.17719990027389,2.2970602642224947e-07,-1.1811130248062796e-05,0.5310855597603976,-3.249547201067404e-05,-0.20479552806907841
542,0.5321,0.0172006,932.969,0.0198663,0.00815541,0.0248218,-0.0346346,-0.195344,0.42663,-0.229507,2.47779e-07,-1.17774e-05,-3.25486e-05,0.442919,-0.17744834838645396,2.4777903062656037e-07,-1.1777330646722817e-05,0.5320856851363178,-3.254807030006468e-05,-0.20507459585946386
543,0.5331,0.0156069,932.967,0.0176956,0.00866071,0.0244148,-0.0351009,-0.195645,0.427282,-0.229858,2.80562e-07,-1.17547e-05,-3.26176e-05,0.443604,-0.1776958991753269,2.805620393786512e-07,-1.1754630913740627e-05,0.5330849307216889,-3.261706805191e-05,-0.20535356571424357
544,0.5341,0.0170246,932.969,0.0196411,0.00829041,0.0247478,-0.0345951,-0.195947,0.427934,-0.230208,2.99957e-07,-1.17217e-05,-3.26711e-05,0.444288,-0.17794419751883894,2.999570449802036e-07,-1.1721631301142565e-05,0.5340848280276196,-3.267056630540388e-05,-0.20563164329982742
545,0.5351,0.015655,932.967,0.0177762,0.00873097,0.0243956,-0.0349896,-0.196249,0.428586,-0.230559,3.31996e-07,-1.16983e-05,-3.27388e-05,0.444972,-0.17819242088757292,3.3199605509182106e-07,-1.1698231575207885e-05,0.53508537747917,-3.273826409133651e-05,-0.20591041766526585
546,0.5361,0.0168643,932.969,0.0194376,0.00842104,0.0246776,-0.0345509,-0.19655,0.429237,-0.230909,3.52571e-07,-1.16661e-05,-3.27932e-05,0.445655,-0.17843974774432658,3.525710621232747e-07,-1.166603195135174e-05,0.5360850434158664,-3.279266230893363e-05,-0.20618830038677005
547,0.5371,0.0156884,932.967,0.0178367,0.00880544,0.0243731,-0.034883,-0.196851,0.429888,-0.231258,3.83997e-07,-1.16421e-05,-3.28596e-05,0.446338,-0.1786870001668991,3.8399707369407565e-07,-1.1642032231029553e-05,0.5370853603469632,-3.285906012928663e-05,-0.20646529233202915
548,0.5381,0.0167184,932.968,0.0192533,0.00854773,0.024611,-0.0345022,-0.197152,0.430538,-0.231608,4.05628e-07,-1.16106e-05,-3.29147e-05,0.44702,-0.17893417817769208,4.056280822339886e-07,-1.161053259723932e-05,0.5380847906108361,-3.291415831718769e-05,-0.2067429808813821
549,0.5391,0.0157096,932.967,0.0178805,0.00888367,0.0243476,-0.0347806,-0.197452,0.431188,-0.231957,4.36559e-07,-1.15861e-05,-3.29802e-05,0.447702,-0.1791804609799712,4.365590953181453e-07,-1.1586032881427677e-05,0.5390848707155562,-3.29796561592266e-05,-0.20701977927692494
550,0.5401,0.0165842,932.968,0.0190849,0.00867104,0.0245474,-0.0344498,-0.197753,0.431838,-0.232306,4.59136e-07,-1.15551e-05,-3.30359e-05,0.448383,-0.17942749048141127,4.591361053574161e-07,-1.1555033240129298e-05,0.5400856010836568,-3.3035354320642973e-05,-0.20729648108668297
551,0.5411,0.0157202,932.967,0.0179099,0.0089651,0.0243195,-0.0346817,-0.198053,0.432487,-0.232655,4.89672e-07,-1.15302e-05,-3.31003e-05,0.449064,-0.17967362531219622,4.896721199632026e-07,-1.1530133527504205e-05,0.5410854410517354,-3.30997521911236e-05,-0.20757308634435867
552,0.5421,0.0164611,932.968,0.0189314,0.00879144,0.0244865,-0.0343942,-0.198353,0.433135,-0.233004,5.131e-07,-1.14997e-05,-3.31565e-05,0.449745,-0.17991968631360689,5.131001317160155e-07,-1.149963387869768e-05,0.5420843880414064,-3.315595032937768e-05,-0.20784959508364287
553,0.5431,0.015721,932.967,0.0179259,0.00904937,0.0242893,-0.034586,-0.198653,0.433784,-0.233352,5.4333e-07,-1.14744e-05,-3.32202e-05,0.450425,-0.18016567350778878,5.433301475399333e-07,-1.147433416937016e-05,0.543085525643257,-3.321964821523249e-05,-0.208125215463826
554,0.5441,0.016347,932.968,0.0187901,0.0089092,0.0244281,-0.0343357,-0.198953,0.434431,-0.2337,5.67525e-07,-1.14444e-05,-3.32767e-05,0.451105,-0.18041158691688064,5.67525161088156e-07,-1.1444334513055487e-05,0.5440842250227589,-3.3276146336747026e-05,-0.20840073994480435
555,0.5451,0.015714,932.967,0.0179312,0.00913615,0.024257,-0.0344931,-0.199252,0.435079,-0.234048,5.97528e-07,-1.14188e-05,-3.33396e-05,0.451784,-0.18065660722003185,5.975281784920128e-07,-1.1418734805701547e-05,0.5450851158541796,-3.33390442417425e-05,-0.20867616855994486
556,0.5461,0.0162405,932.968,0.0186597,0.00902477,0.0243716,-0.0342748,-0.199551,0.435726,-0.234396,6.22417e-07,-1.13892e-05,-3.33965e-05,0.452463,-0.18090155427306376,6.224171937851963e-07,-1.1389135143313744e-05,0.5460851093871615,-3.339594234308407e-05,-0.2089515013426032
557,0.5471,0.0157006,932.967,0.0179272,0.00922502,0.0242233,-0.0344025,-0.199851,0.436372,-0.234743,6.52258e-07,-1.13632e-05,-3.34587e-05,0.453141,-0.18114724695103734,6.522582127743703e-07,-1.1363135439035332e-05,0.5470842030403307,-3.345814026389782e-05,-0.20922594755246615
558,0.5481,0.0161422,932.968,0.0185392,0.00913846,0.0243169,-0.0342118,-0.20015,0.437019,-0.235091,6.7778e-07,-1.1334e-05,-3.35158e-05,0.453819,-0.18139204732471936,6.777802297186497e-07,-1.1333935770463377e-05,0.54808549040123,-3.351523835182224e-05,-0.2095010890453214
559,0.5491,0.0156801,932.967,0.0179138,0.00931577,0.024188,-0.0343141,-0.200448,0.437664,-0.235438,7.07516e-07,-1.13079e-05,-3.35774e-05,0.454496,-0.18163595615039663,7.075162502534482e-07,-1.1307836065954646e-05,0.5490843276329176,-3.357683628546493e-05,-0.20977534458133518
560,0.5501,0.0160488,932.968,0.0184269,0.0092504,0.0242639,-0.0341469,-0.200747,0.43831,-0.235784,7.33615e-07,-1.12789e-05,-3.36347e-05,0.455173,-0.1818806104218713,7.336152691994613e-07,-1.1278836393402436e-05,0.5500853594070192,-3.363413435986118e-05,-0.21004871501629763
561,0.5511,0.0156542,932.967,0.0178932,0.0094082,0.0241516,-0.0342276,-0.201045,0.438955,-0.236131,7.63299e-07,-1.12526e-05,-3.36957e-05,0.45585,-0.1821243736774366,7.632992913286785e-07,-1.1252536689765336e-05,0.5510854869703028,-3.369513230622179e-05,-0.21032278055906528
562,0.5521,0.0159617,932.968,0.0183221,0.00936087,0.0242124,-0.0340804,-0.201343,0.439599,-0.236477,7.89926e-07,-1.12239e-05,-3.37531e-05,0.456526,-0.18236806430237418,7.899263119170996e-07,-1.1223837012241944e-05,0.5520847077384647,-3.375253037052328e-05,-0.210595961613944
563,0.5531,0.0156254,932.967,0.0178676,0.00950207,0.0241142,-0.0341427,-0.201641,0.440243,-0.236823,8.19603e-07,-1.11975e-05,-3.38137e-05,0.457202,-0.18261168231832492,8.196033358665034e-07,-1.1197437308263503e-05,0.5530845722120521,-3.381312832329009e-05,-0.2108690481645279
564,0.5541,0.0158798,932.968,0.0182244,0.00947015,0.0241619,-0.0340127,-0.201939,0.440887,-0.237169,8.46717e-07,-1.1169e-05,-3.38711e-05,0.457877,-0.18285522774692287,8.467173584492116e-07,-1.11689376269819e-05,0.5540850808057449,-3.387052638081922e-05,-0.2111420402435099
565,0.5551,0.0155905,932.967,0.0178346,0.00959714,0.0240759,-0.0340592,-0.202237,0.44153,-0.237515,8.76423e-07,-1.11424e-05,-3.39313e-05,0.458552,-0.18309870060979594,8.764233840885538e-07,-1.1142337923653045e-05,0.5550846788490336,-3.3930724339992224e-05,-0.21141493788357135
566,0.5561,0.0158014,932.968,0.0181312,0.00957826,0.0241127,-0.0339436,-0.202534,0.442173,-0.23786,9.03988e-07,-1.11142e-05,-3.39887e-05,0.459226,-0.1833412842702581,9.039884085737526e-07,-1.1114138237511284e-05,0.55608491984055,-3.3988122390637976e-05,-0.2116869528047296
567,0.5571,0.0155537,932.967,0.0177986,0.00969334,0.0240368,-0.033977,-0.202832,0.442815,-0.238206,9.33757e-07,-1.10875e-05,-3.40485e-05,0.4599,-0.1835846123098669,9.337574360390732e-07,-1.108743853395211e-05,0.5570842471088169,-3.404792035643922e-05,-0.21195966193765847
568,0.5581,0.0157263,932.967,0.0180427,0.0096855,0.0240644,-0.0338737,-0.203129,0.443457,-0.238551,9.61742e-07,-1.10594e-05,-3.41059e-05,0.460574,-0.1838270516759829,9.617424625574245e-07,-1.1059338845043065e-05,0.5580842161511774,-3.4105318400423634e-05,-0.2122314889614323
569,0.5591,0.0155146,932.967,0.0177592,0.00979037,0.0239971,-0.0338957,-0.203425,0.444099,-0.238895,9.91601e-07,-1.10327e-05,-3.41653e-05,0.461247,-0.18406860311730988,9.91601491584504e-07,-1.1032639140040601e-05,0.5590848273797828,-3.41647163727421e-05,-0.21250243472388652
570,0.5601,0.0156545,932.967,0.0179585,0.00979206,0.0240168,-0.0338031,-0.203722,0.44474,-0.23924,1.01998e-06,-1.10048e-05,-3.42227e-05,0.46192,-0.18431089875950002,1.019980520267083e-06,-1.1004739447373346e-05,0.560084521121748,-3.4222114410065174e-05,-0.21277407452334707
571,0.5611,0.0154722,932.967,0.0177158,0.00988816,0.0239571,-0.0338153,-0.204019,0.445381,-0.239584,1.04995e-06,-1.0978e-05,-3.42817e-05,0.462592,-0.18455312245056987,1.0499505511685214e-06,-1.0977939742029541e-05,0.5610848558728232,-3.4281112389233925e-05,-0.21304483366846794
572,0.5621,0.0155848,932.967,0.0178777,0.0098979,0.0239701,-0.0337317,-0.204315,0.446021,-0.239928,1.07871e-06,-1.09503e-05,-3.43391e-05,0.463264,-0.18479445900675207,1.0787105817477993e-06,-1.0950240045715098e-05,0.5620842699589761,-3.433851041989566e-05,-0.21331549968846142
573,0.5631,0.0154283,932.967,0.0176696,0.00998668,0.0239165,-0.0337359,-0.204611,0.446661,-0.240272,1.10881e-06,-1.09234e-05,-3.43977e-05,0.463935,-0.18503572413788516,1.1088106146583954e-06,-1.092334033991893e-05,0.5630843238748675,-3.43971084059147e-05,-0.213586072615357
574,0.5641,0.0155174,932.967,0.0177996,0.0100032,0.0239239,-0.0336597,-0.204907,0.447301,-0.240616,1.13792e-06,-1.08958e-05,-3.4455e-05,0.464606,-0.1852769178651077,1.1379206474870784e-06,-1.0895740640948226e-05,0.5640850180301202,-3.445440643334852e-05,-0.21385655248117308
575,0.5651,0.0153828,932.967,0.0176216,0.0100857,0.0238758,-0.033657,-0.205203,0.44794,-0.240959,1.16817e-06,-1.0869e-05,-3.45133e-05,0.465277,-0.1855180402095521,1.168170682408487e-06,-1.0868940932606819e-05,0.5650847877490477,-3.4512704422895446e-05,-0.21412615344446362
576,0.5661,0.0154533,932.967,0.0177257,0.010108,0.0238784,-0.0335873,-0.205498,0.448579,-0.241302,1.19761e-06,-1.08415e-05,-3.45705e-05,0.465947,-0.18575827695102864,1.1976107170408312e-06,-1.0841441231201898e-05,0.5660851965249827,-3.456990244710134e-05,-0.2143956619504811
577,0.5671,0.0153363,932.967,0.0175718,0.0101854,0.0238347,-0.0335789,-0.205794,0.449217,-0.241645,1.22804e-06,-1.08146e-05,-3.46286e-05,0.466617,-0.185999256834269,1.2280407539755345e-06,-1.0814541522408128e-05,0.5670846776809515,-3.462800043696479e-05,-0.21466507803093293
578,0.5681,0.0153901,932.967,0.0176532,0.0102124,0.0238333,-0.0335145,-0.206089,0.449855,-0.241988,1.2578e-06,-1.07872e-05,-3.46857e-05,0.467286,-0.18623935163777816,1.2578007910768463e-06,-1.0787141818346946e-05,0.5680847967093579,-3.468509845805379e-05,-0.21493440171751566
579,0.5691,0.0152893,932.967,0.017521,0.0102854,0.0237934,-0.0335012,-0.206384,0.450493,-0.24233,1.2884e-06,-1.07603e-05,-3.47434e-05,0.467955,-0.18647937562376649,1.2884008300240168e-06,-1.0760242108220908e-05,0.5690855540172934,-3.474279645510059e-05,-0.21520284824515545
580,0.5701,0.0153285,932.967,0.0175826,0.0103166,0.0237886,-0.0334415,-0.206679,0.45113,-0.242673,1.31847e-06,-1.0733e-05,-3.48004e-05,0.468623,-0.1867193288131218,1.3184708691493796e-06,-1.0732942401614487e-05,0.5700853799259462,-3.479979447307269e-05,-0.21547198750818508
581,0.5711,0.0152393,932.967,0.0174669,0.0103857,0.0237521,-0.033424,-0.206973,0.451766,-0.243015,1.34926e-06,-1.07062e-05,-3.48579e-05,0.469291,-0.18695839818553095,1.3492609103327169e-06,-1.0706142688832188e-05,0.5710842718415376,-3.485729247043601e-05,-0.21574025021291998
582,0.5721,0.0152693,932.967,0.017515,0.0104203,0.0237446,-0.0333681,-0.207268,0.452403,-0.243357,1.37964e-06,-1.0679e-05,-3.49147e-05,0.469959,-0.18719821008407211,1.3796409517041752e-06,-1.0678942979680528e-05,0.5720853713390395,-3.491409048894667e-05,-0.21600842118749664
583,0.5731,0.0151897,932.967,0.017413,0.0104866,0.0237104,-0.0333474,-0.207562,0.453039,-0.243698,1.41062e-06,-1.06521e-05,-3.49719e-05,0.470626,-0.18743713868608192,1.4106209949016346e-06,-1.0652043266556888e-05,0.5730855356537496,-3.497128849028197e-05,-0.21627571673939006
584,0.5741,0.0152095,932.967,0.0174472,0.0105238,0.0237008,-0.0332945,-0.207856,0.453674,-0.24404,1.44128e-06,-1.0625e-05,-3.50286e-05,0.471292,-0.18767599705340765,1.441281038738751e-06,-1.0624943554859989e-05,0.5740847621897389,-3.502798650578676e-05,-0.21654370461572625
585,0.5751,0.015139,932.967,0.0173575,0.0105876,0.0236689,-0.033271,-0.20815,0.454309,-0.244381,1.47248e-06,-1.05982e-05,-3.50856e-05,0.471959,-0.18791478520669547,1.4724810841748592e-06,-1.0598143839302132e-05,0.5750846234360776,-3.50849845075496e-05,-0.21681081766708865
586,0.5761,0.0151504,932.967,0.0173805,0.0106272,0.0236573,-0.0332208,-0.208444,0.454944,-0.244722,1.50342e-06,-1.05711e-05,-3.51421e-05,0.472625,-0.18815350316658508,1.5034211300335443e-06,-1.0571044126161944e-05,0.5760851197959349,-3.514148252359295e-05,-0.21707783964842886
587,0.5771,0.0150887,932.967,0.0173022,0.0106888,0.0236273,-0.033195,-0.208738,0.455578,-0.245063,1.53483e-06,-1.05444e-05,-3.51989e-05,0.47329,-0.18839215095371042,1.5348311779295187e-06,-1.0544344408058848e-05,0.5770846745872731,-3.5198280526005377e-05,-0.2173447705907965
588,0.5781,0.0150944,932.967,0.0173166,0.0107305,0.0236141,-0.0331471,-0.209031,0.456212,-0.245403,1.56605e-06,-1.05174e-05,-3.52552e-05,0.473955,-0.18862991721902211,1.5660512262538617e-06,-1.051734469237342e-05,0.5780848632972797,-3.525457854269831e-05,-0.21761082813644994
589,0.5791,0.0150377,932.967,0.0172459,0.0107903,0.0235857,-0.0331193,-0.209324,0.456846,-0.245743,1.59768e-06,-1.04906e-05,-3.53117e-05,0.47462,-0.18886761382902306,1.5976812763884851e-06,-1.0490544973817961e-05,0.579085686327987,-3.5311076549304765e-05,-0.21787679523791403
590,0.5801,0.0150376,932.967,0.0172531,0.0108336,0.0235712,-0.0330733,-0.209617,0.457479,-0.246084,1.62917e-06,-1.04637e-05,-3.53679e-05,0.475284,-0.1891052408041194,1.6291713271776587e-06,-1.0463645255698317e-05,0.5800855639953277,-3.536727456321387e-05,-0.21814345378287214
591,0.5811,0.014986,932.967,0.0171888,0.0108919,0.023544,-0.033044,-0.20991,0.458111,-0.246423,1.66102e-06,-1.0437e-05,-3.54242e-05,0.475947,-0.1893427981647109,1.661021379550931e-06,-1.0436945534708642e-05,0.5810844937003099,-3.542357257046991e-05,-0.21840845823124788
592,0.5821,0.0149828,932.967,0.0171907,0.0109365,0.0235286,-0.0329993,-0.210203,0.458744,-0.246763,1.69277e-06,-1.04101e-05,-3.54802e-05,0.476611,-0.1895802859311918,1.6927714328041077e-06,-1.0410045815145708e-05,0.5820856370132517,-3.547957058513962e-05,-0.21867415418457758
593,0.5831,0.0149357,932.967,0.0171329,0.0109938,0.0235025,-0.0329688,-0.210495,0.459375,-0.247102,1.72485e-06,-1.03834e-05,-3.55363e-05,0.477274,-0.18981689394124923,1.724851487638901e-06,-1.0383346092712742e-05,0.5830842480788643,-3.5535668593156267e-05,-0.21893897875600798
594,0.5841,0.0149265,932.967,0.0171274,0.0110395,0.0234861,-0.0329256,-0.210787,0.460007,-0.247442,1.75686e-06,-1.03566e-05,-3.55921e-05,0.477936,-0.19005343287185383,1.7568615433560808e-06,-1.0356546370604569e-05,0.5840850735511867,-3.559146660869761e-05,-0.21920449436301992
595,0.5851,0.0148839,932.967,0.0170756,0.0110956,0.0234611,-0.0328937,-0.211079,0.460638,-0.247781,1.78916e-06,-1.033e-05,-3.5648e-05,0.478598,-0.19028990274317392,1.7891616006515676e-06,-1.0329946645737387e-05,0.5850849466593873,-3.5647364617585886e-05,-0.2194691391796001
596,0.5861,0.0148729,932.967,0.0170671,0.0111425,0.0234438,-0.0328518,-0.211371,0.461269,-0.248119,1.82144e-06,-1.03033e-05,-3.57036e-05,0.47926,-0.1905263035753717,1.821441658833578e-06,-1.0303246921194997e-05,0.5860854508866162,-3.570296263410988e-05,-0.21973291403009643
597,0.5871,0.0148314,932.967,0.0170173,0.0111977,0.0234195,-0.0328192,-0.211663,0.461899,-0.248458,1.85398e-06,-1.02767e-05,-3.57593e-05,0.479921,-0.19076263538860372,1.8539817185914131e-06,-1.0276647194884525e-05,0.5870849995454421,-3.575866064386979e-05,-0.21999737974276923
598,0.5881,0.0148191,932.967,0.0170072,0.0112452,0.0234019,-0.0327779,-0.211955,0.462529,-0.248796,1.88651e-06,-1.025e-05,-3.58148e-05,0.480582,-0.19099889820302063,1.886511779458644e-06,-1.0249947468898846e-05,0.5880851781183254,-3.5814158657720974e-05,-0.2202609760781259
599,0.5891,0.0147814,932.967,0.0169615,0.0113,0.0233781,-0.0327448,-0.212246,0.463158,-0.249134,1.91928e-06,-1.02234e-05,-3.58702e-05,0.481242,-0.1912342832734547,1.9192818419000446e-06,-1.0223347741256106e-05,0.5890843979170441,-3.5869556672118996e-05,-0.2205244833329768
600,0.5901,0.0147663,932.967,0.0169474,0.011348,0.02336,-0.0327042,-0.212537,0.463787,-0.249472,1.95206e-06,-1.01968e-05,-3.59255e-05,0.481902,-0.19146959985679868,1.952061905230451e-06,-1.019674801283621e-05,0.5900842464227238,-3.5924854686952834e-05,-0.2207879015374259
601,0.5911,0.0147293,932.967,0.0169029,0.0114022,0.0233369,-0.0326706,-0.212828,0.464416,-0.24981,1.98507e-06,-1.01703e-05,-3.59807e-05,0.482562,-0.19170484797297938,1.9850719703562447e-06,-1.0170248282648231e-05,0.5910847240309458,-3.598005270233351e-05,-0.22105123072156707
602,0.5921,0.014712,932.967,0.0168867,0.0114507,0.0233185,-0.0326305,-0.213119,0.465044,-0.250148,2.0181e-06,-1.01437e-05,-3.60358e-05,0.483221,-0.19194002764191787,2.0181020363718716e-06,-1.0143648552896067e-05,0.5920842390525045,-3.6035150718372044e-05,-0.22131447091548428
603,0.5931,0.0146782,932.967,0.0168463,0.0115045,0.0232958,-0.0325964,-0.21341,0.465672,-0.250485,2.05134e-06,-1.01172e-05,-3.60909e-05,0.48388,-0.19217513888352922,2.051342103959186e-06,-1.0117148821264799e-05,0.5930843819666345,-3.6090248731301955e-05,-0.221576843726484
604,0.5941,0.0146603,932.966,0.0168285,0.0115536,0.0232769,-0.0325571,-0.2137,0.4663,-0.250822,2.08463e-06,-1.00907e-05,-3.61457e-05,0.484538,-0.19240937412750103,2.0846321728829054e-06,-1.0090649089078418e-05,0.594085153167776,-3.614504675208963e-05,-0.22183912813274342
605,0.5951,0.0146262,932.966,0.0167881,0.0116069,0.0232546,-0.0325226,-0.21399,0.466927,-0.251159,2.11811e-06,-1.00643e-05,-3.62006e-05,0.485196,-0.1926435414531008,2.118112243154613e-06,-1.0064249355123955e-05,0.5950849579648618,-3.6199944766224235e-05,-0.22210132416405004
606,0.5961,0.0146083,932.966,0.0167703,0.0116562,0.0232358,-0.0324834,-0.214281,0.467554,-0.251495,2.15164e-06,-1.00378e-05,-3.62553e-05,0.485854,-0.1928784480019774,2.151642314762725e-06,-1.0037749621494285e-05,0.5960853898361225,-3.625464278456114e-05,-0.222362654213224
607,0.5971,0.0145761,932.966,0.0167327,0.0117095,0.0232135,-0.0324489,-0.21457,0.46818,-0.251832,2.18536e-06,-1.00115e-05,-3.631e-05,0.486511,-0.19311167242795202,2.18536238794087e-06,-1.0011449885105606e-05,0.5970848520892063,-3.630934079990045e-05,-0.2226246738459663
608,0.5981,0.0145541,932.966,0.0167099,0.011759,0.0231946,-0.0324102,-0.21486,0.468806,-0.252168,2.21914e-06,-9.98506e-06,-3.63645e-05,0.487167,-0.1933456361165733,2.2191424622342026e-06,-9.985010149482498e-06,0.5980849402015342,-3.6363838819553074e-05,-0.2228858280791859
609,0.5991,0.0145274,932.966,0.016678,0.0118118,0.023173,-0.0323751,-0.21515,0.469432,-0.252504,2.25309e-06,-9.95872e-06,-3.64189e-05,0.487824,-0.1935795319655622,2.253092538317958e-06,-9.958670412091308e-06,0.5990856545650165,-3.641823683986356e-05,-0.22314689457932313
610,0.6001,0.0145016,932.966,0.0166506,0.0118621,0.0231531,-0.0323374,-0.215439,0.470057,-0.25284,2.28713e-06,-9.93238e-06,-3.64732e-05,0.48848,-0.19381255380754614,2.2871326155193827e-06,-9.932330674033985e-06,0.6000853954856136,-3.647253486094293e-05,-0.22340787337585144
611,0.6011,0.0144757,932.966,0.0166209,0.011914,0.0231325,-0.0323014,-0.215728,0.470681,-0.253175,2.32131e-06,-9.90607e-06,-3.65275e-05,0.489135,-0.1940455083159479,2.3213126942867035e-06,-9.906020935090964e-06,0.6010841603546278,-3.6526832879024695e-05,-0.22366798816661038
612,0.6021,0.0144497,932.966,0.0165924,0.0119651,0.0231123,-0.0322645,-0.216018,0.471306,-0.253511,2.35559e-06,-9.87978e-06,-3.65816e-05,0.48979,-0.19427920123142572,2.355592774394566e-06,-9.879731195150399e-06,0.602085150731758,-3.6580930901419784e-05,-0.22392879190510473
613,0.6031,0.0144255,932.966,0.0165655,0.0120166,0.0230919,-0.032228,-0.216306,0.47193,-0.253846,2.39001e-06,-9.85352e-06,-3.66357e-05,0.490445,-0.19451121540982574,2.3900128560683243e-06,-9.853471454213114e-06,0.6030851638374553,-3.663502892092829e-05,-0.22418873221738322
614,0.6041,0.0143999,932.966,0.0165365,0.012068,0.0230715,-0.0321917,-0.216595,0.472553,-0.254181,2.42455e-06,-9.82729e-06,-3.66896e-05,0.491099,-0.19474396803419802,2.4245529393063237e-06,-9.827241712390133e-06,0.6040841970610622,-3.6688926944861144e-05,-0.2244485854642414
615,0.6051,0.0143765,932.966,0.0165095,0.0121193,0.0230514,-0.0321551,-0.216884,0.473177,-0.254515,2.4592e-06,-9.80108e-06,-3.67435e-05,0.491753,-0.19497665340278092,2.459203023885692e-06,-9.801031969569607e-06,0.6050854579609402,-3.674282496590742e-05,-0.22470757638280525
616,0.6061,0.0143482,932.966,0.0164786,0.0121708,0.0230309,-0.0321189,-0.217172,0.473799,-0.25485,2.49398e-06,-9.77489e-06,-3.67972e-05,0.492406,-0.19520846674387748,2.493983110030129e-06,-9.774842225973579e-06,0.6060841316711183,-3.6796522991378033e-05,-0.22496725584597843
617,0.6071,0.0143239,932.966,0.0164507,0.0122219,0.0230111,-0.0320821,-0.21746,0.474422,-0.255184,2.52887e-06,-9.74872e-06,-3.68509e-05,0.493059,-0.19544021333234463,2.528873197515935e-06,-9.748672481380005e-06,0.6070850338337996,-3.685022101396207e-05,-0.22522607355756197
618,0.6081,0.0142982,932.966,0.0164225,0.0122736,0.0229906,-0.0320461,-0.217748,0.475044,-0.255518,2.56389e-06,-9.72259e-06,-3.69044e-05,0.493712,-0.19567189318740452,2.563893286788854e-06,-9.72254273579054e-06,0.6080849516670528,-3.690371904097045e-05,-0.22548480483846456
619,0.6091,0.0142732,932.966,0.0163946,0.0123249,0.0229706,-0.0320097,-0.218036,0.475666,-0.255852,2.59903e-06,-9.69647e-06,-3.69579e-05,0.494364,-0.19590350632827336,2.5990333774039698e-06,-9.696422989424747e-06,0.6090854916426642,-3.6957217065203274e-05,-0.22574344971754923
620,0.6101,0.01425,932.966,0.0163686,0.0123764,0.0229505,-0.0319735,-0.218324,0.476287,-0.256186,2.63429e-06,-9.67038e-06,-3.70113e-05,0.495016,-0.1961350527741621,2.634293469805371e-06,-9.670333242062235e-06,0.6100850440618784,-3.7010615090316e-05,-0.22600200822366945
621,0.6111,0.0142232,932.966,0.0163384,0.0124279,0.0229303,-0.0319374,-0.218611,0.476908,-0.256519,2.66967e-06,-9.64432e-06,-3.70645e-05,0.495667,-0.19636572891040704,2.6696735635489688e-06,-9.644273493703004e-06,0.6110852173959185,-3.706381311985307e-05,-0.22625970664576234
622,0.6121,0.0141984,932.966,0.0163104,0.0124791,0.0229104,-0.0319009,-0.218898,0.477528,-0.256852,2.70517e-06,-9.61827e-06,-3.71177e-05,0.496318,-0.19659633885210015,2.705173659078852e-06,-9.618223744567445e-06,0.6120843999452872,-3.711701114672561e-05,-0.2265173192685671
623,0.6131,0.0141741,932.966,0.0162826,0.0125307,0.0228904,-0.031865,-0.219186,0.478148,-0.257185,2.74079e-06,-9.59226e-06,-3.71708e-05,0.496969,-0.19682768579095244,2.740793755950932e-06,-9.592213994435994e-06,0.613084202179919,-3.717010917436703e-05,-0.22677484612065002
624,0.6141,0.0141499,932.966,0.0162571,0.012582,0.0228704,-0.0318287,-0.219472,0.478768,-0.257518,2.77653e-06,-9.56626e-06,-3.72238e-05,0.497619,-0.1970573602278063,2.7765338546092977e-06,-9.566214243528215e-06,0.614084624484138,-3.722310720299937e-05,-0.22703228723056812
625,0.6151,0.0141252,932.966,0.0162289,0.0126337,0.0228503,-0.0317931,-0.219759,0.479388,-0.257851,2.81239e-06,-9.54029e-06,-3.72767e-05,0.498269,-0.19728777169979306,2.8123939548319044e-06,-9.540244491623717e-06,0.6150856672425065,-3.72760052324006e-05,-0.22728964262686868
626,0.6161,0.0141004,932.966,0.0162013,0.0126849,0.0228306,-0.0317568,-0.220046,0.480007,-0.258183,2.84837e-06,-9.51435e-06,-3.73295e-05,0.498918,-0.1975181170531759,2.848374056618752e-06,-9.514304738722501e-06,0.6160857147533028,-3.7328803262903776e-05,-0.2275461398846158
627,0.6171,0.0140739,932.966,0.0161704,0.0127366,0.0228106,-0.031721,-0.220332,0.480625,-0.258515,2.88447e-06,-9.48843e-06,-3.73822e-05,0.499567,-0.19774759405492326,2.8844741601918855e-06,-9.488384985045784e-06,0.6170847643995643,-3.7381501294286856e-05,-0.2278025519994078
628,0.6181,0.0140514,932.966,0.0161467,0.0127878,0.022791,-0.0316847,-0.220619,0.481243,-0.258847,2.92069e-06,-9.46253e-06,-3.74348e-05,0.500216,-0.1979778074582259,2.92069426532926e-06,-9.46248523037152e-06,0.6180844316493268,-3.7434099326660863e-05,-0.2280588789995075
629,0.6191,0.0140269,932.966,0.0161197,0.0128396,0.0227709,-0.0316493,-0.220905,0.481861,-0.259179,2.95703e-06,-9.43666e-06,-3.74873e-05,0.500864,-0.19820715300731606,2.9570343720308756e-06,-9.43661547481156e-06,0.6190847168843876,-3.7486597359914775e-05,-0.2283151209131683
630,0.6201,0.0140008,932.966,0.0160892,0.012891,0.0227512,-0.0316134,-0.22119,0.482479,-0.25951,2.99349e-06,-9.4108e-06,-3.75397e-05,0.501512,-0.19843563140899023,2.993494480518777e-06,-9.410755718586294e-06,0.6200856204867795,-3.7538995394270636e-05,-0.22857050633952636
631,0.6211,0.013977,932.966,0.0160638,0.0129424,0.0227316,-0.0315773,-0.221476,0.483096,-0.259842,3.03007e-06,-9.38498e-06,-3.7592e-05,0.502159,-0.1986648460391528,3.0300745905709192e-06,-9.384935961254115e-06,0.6210855217524396,-3.759129342961742e-05,-0.228826578421104
632,0.6221,0.0139552,932.966,0.0160392,0.012994,0.0227118,-0.0315418,-0.221762,0.483712,-0.260173,3.06677e-06,-9.35918e-06,-3.76443e-05,0.502806,-0.19889399512330452,3.066774702631392e-06,-9.359136203035412e-06,0.622084418062316,-3.764359146218865e-05,-0.22908179458304168
633,0.6231,0.0139297,932.966,0.0160091,0.0130457,0.0226919,-0.0315064,-0.222047,0.484329,-0.260504,3.10359e-06,-9.3334e-06,-3.76964e-05,0.503452,-0.1991222778028674,3.103594816034061e-06,-9.333356443930185e-06,0.6230855529666184,-3.7695689499628315e-05,-0.22933692628240898
634,0.6241,0.0139068,932.966,0.0159837,0.0130969,0.0226725,-0.0314702,-0.222332,0.484945,-0.260835,3.14052e-06,-9.30764e-06,-3.77484e-05,0.504099,-0.1993504954311368,3.140524931444233e-06,-9.307596684049457e-06,0.6240856816752627,-3.7747687538058905e-05,-0.22959197354715866
635,0.6251,0.0138803,932.966,0.015954,0.0131488,0.0226526,-0.0314351,-0.222617,0.48556,-0.261165,3.17759e-06,-9.28192e-06,-3.78004e-05,0.504744,-0.1995786480266497,3.1775950486423454e-06,-9.281876923061816e-06,0.6250848015673687,-3.779968557393598e-05,-0.229846166251785
636,0.6261,0.0138589,932.966,0.0159305,0.0131999,0.0226334,-0.031399,-0.222902,0.486175,-0.261495,3.21476e-06,-9.25621e-06,-3.78522e-05,0.50539,-0.19980673560793794,3.214765167403044e-06,-9.256167161408868e-06,0.6260845361071932,-3.785148361457047e-05,-0.2301002750866581
637,0.6271,0.0138308,932.966,0.0158995,0.013252,0.0226133,-0.0313641,-0.223187,0.48679,-0.261826,3.25206e-06,-9.23053e-06,-3.7904e-05,0.506035,-0.20003475819352778,3.252065287950856e-06,-9.230487398759202e-06,0.6270848856728608,-3.79032816524294e-05,-0.2303550697247655
638,0.6281,0.0138129,932.966,0.0158788,0.0133029,0.0225945,-0.031328,-0.223472,0.487404,-0.262155,3.28947e-06,-9.20486e-06,-3.79556e-05,0.506679,-0.20026271580194044,3.289475410284126e-06,-9.204817635444229e-06,0.6280842225576921,-3.795487969537881e-05,-0.2306082412578253
639,0.6291,0.0137833,932.966,0.015846,0.0133553,0.0225741,-0.0312936,-0.223756,0.488018,-0.262485,3.32701e-06,-9.17924e-06,-3.80072e-05,0.507324,-0.2004898089419005,3.3270155344045094e-06,-9.179197870912148e-06,0.6290841732237822,-3.800647773555266e-05,-0.23086209864943685
640,0.6301,0.0137621,932.966,0.0158235,0.0134059,0.0225556,-0.0312571,-0.22404,0.488632,-0.262815,3.36465e-06,-9.15362e-06,-3.80587e-05,0.507967,-0.2007168375965661,3.364655660531568e-06,-9.153578105713933e-06,0.6300847380481087,-3.8057975776828457e-05,-0.2311158722819302
641,0.6311,0.0137367,932.966,0.0157936,0.0134584,0.0225354,-0.0312228,-0.224324,0.489245,-0.263144,3.40244e-06,-9.12804e-06,-3.81101e-05,0.508611,-0.20094380178424853,3.40244578822535e-06,-9.127998339519827e-06,0.6310842863227784,-3.810937381931723e-05,-0.23136879355211903
642,0.6321,0.013712,932.966,0.0157666,0.0135093,0.0225165,-0.0311868,-0.224608,0.489858,-0.263473,3.44032e-06,-9.10247e-06,-3.81614e-05,0.509254,-0.20117070152325378,3.44032591792498e-06,-9.102428572660415e-06,0.6320844475083784,-3.816067186301897e-05,-0.2316216316248968
643,0.6331,0.0136918,932.966,0.0157431,0.0135612,0.022497,-0.0311518,-0.224892,0.490471,-0.263802,3.47834e-06,-9.07693e-06,-3.82126e-05,0.509896,-0.20139753683188266,3.4783460494125507e-06,-9.076888804804284e-06,0.6330852219807386,-3.821186990793368e-05,-0.23187438652763082
644,0.6341,0.0136668,932.966,0.0157157,0.0136129,0.0224774,-0.0311168,-0.225175,0.491083,-0.26413,3.51647e-06,-9.05142e-06,-3.82637e-05,0.510539,-0.20162350935233941,3.5164761826855795e-06,-9.051379036062457e-06,0.6340849760301255,-3.8262967953950344e-05,-0.23212629041435395
645,0.6351,0.0136431,932.966,0.0156875,0.0136644,0.0224584,-0.0310815,-0.225458,0.491695,-0.264459,3.55471e-06,-9.02592e-06,-3.83147e-05,0.51118,-0.20184941793162103,3.554716317966111e-06,-9.025879266544301e-06,0.635085342116255,-3.8313966001291e-05,-0.23237887931165568
646,0.6361,0.0136207,932.966,0.0156623,0.013716,0.022439,-0.0310463,-0.225742,0.492306,-0.264787,3.59308e-06,-9.00045e-06,-3.83656e-05,0.511822,-0.20207606051215865,3.593086455033756e-06,-9.000409496029427e-06,0.6360846845283052,-3.8364864049733605e-05,-0.23263061775188032
647,0.6371,0.0135962,932.966,0.0156356,0.0137678,0.0224196,-0.0310117,-0.226025,0.492917,-0.265115,3.63157e-06,-8.97501e-06,-3.84165e-05,0.512463,-0.20230184103758253,3.631576594109731e-06,-8.974969724739879e-06,0.6370846377251451,-3.841576209573372e-05,-0.23288227363543668
648,0.6381,0.0135743,932.965,0.0156121,0.0138192,0.0224007,-0.0309763,-0.226307,0.493528,-0.265443,3.67017e-06,-8.94958e-06,-3.84672e-05,0.513103,-0.20252676020331706,3.6701767349711645e-06,-8.949539952674002e-06,0.638085202080078,-3.846646014671329e-05,-0.23313384698939876
649,0.6391,0.0135484,932.965,0.0155814,0.0138713,0.022381,-0.0309421,-0.22659,0.494138,-0.265771,3.7089e-06,-8.92419e-06,-3.85178e-05,0.513744,-0.20275241319877457,3.7089068780638e-06,-8.924150179501211e-06,0.6390847388810772,-3.851705819901685e-05,-0.23338533784083182
650,0.6401,0.013528,932.965,0.0155611,0.0139222,0.0223625,-0.0309061,-0.226872,0.494748,-0.266098,3.74773e-06,-8.8988e-06,-3.85684e-05,0.514384,-0.20297720532107355,3.747737022719022e-06,-8.89876040577331e-06,0.6400848855855266,-3.8567656248877924e-05,-0.23363597985315554
651,0.6411,0.0135004,932.965,0.015529,0.0139747,0.0223428,-0.0308724,-0.227155,0.495358,-0.266425,3.7867e-06,-8.87346e-06,-3.86189e-05,0.515023,-0.20320273085859897,3.7867071696062737e-06,-8.873420630939322e-06,0.6410856425655809,-3.8618154299840945e-05,-0.23388653991894015
652,0.6421,0.0134809,932.965,0.015507,0.0140256,0.0223244,-0.0308367,-0.227437,0.495967,-0.266752,3.82577e-06,-8.84812e-06,-3.86692e-05,0.515662,-0.20342739600922177,3.825777318278156e-06,-8.848080855550222e-06,0.6420853681074323,-3.866845235611649e-05,-0.23413701806497778
653,0.6431,0.0134567,932.965,0.0154795,0.0140781,0.0223045,-0.030803,-0.227719,0.496576,-0.267079,3.86498e-06,-8.82283e-06,-3.87195e-05,0.516301,-0.20365199781320442,3.864987468960024e-06,-8.822791078944014e-06,0.6430857026675665,-3.871875040983852e-05,-0.23438741431805188
654,0.6441,0.0134314,932.965,0.0154504,0.0141292,0.0222859,-0.0307678,-0.228001,0.497184,-0.267406,3.90428e-06,-8.79754e-06,-3.87697e-05,0.516939,-0.20387653628840807,3.9042876216477396e-06,-8.797501301782695e-06,0.6440850025311631,-3.8768948464884545e-05,-0.23463772870493715
655,0.6451,0.0134086,932.965,0.015426,0.014181,0.0222669,-0.030733,-0.228282,0.497792,-0.267732,3.94372e-06,-8.77228e-06,-3.88198e-05,0.517577,-0.2041002155533025,3.943727776567485e-06,-8.772241523624658e-06,0.6450849101538167,-3.8819046521365586e-05,-0.2348871961399781
656,0.6461,0.0133841,932.965,0.0153988,0.0142329,0.0222478,-0.0306989,-0.228564,0.4984,-0.268059,3.98327e-06,-8.74705e-06,-3.88698e-05,0.518215,-0.20432462764892378,3.983277933272689e-06,-8.747011744691946e-06,0.6460854259051574,-3.88690445790596e-05,-0.2351373471249253
657,0.6471,0.0133644,932.965,0.0153755,0.0142843,0.0222292,-0.030664,-0.228845,0.499007,-0.268385,4.02293e-06,-8.72183e-06,-3.89197e-05,0.518852,-0.20454818101783512,4.022938091985395e-06,-8.721791964982906e-06,0.6470849030693131,-3.891894263829965e-05,-0.2353866517109071
658,0.6481,0.0133365,932.965,0.0153451,0.0143365,0.0222095,-0.0306302,-0.229126,0.499614,-0.26871,4.06273e-06,-8.69665e-06,-3.89695e-05,0.519488,-0.20477167157707488,4.0627382529301315e-06,-8.696612184277974e-06,0.648084987100273,-3.896874069886369e-05,-0.2356351106723329
659,0.6491,0.0133206,932.965,0.0153269,0.0143875,0.0221916,-0.030595,-0.229407,0.500221,-0.269036,4.10262e-06,-8.67147e-06,-3.90193e-05,0.520125,-0.20499509934429028,4.102628415658671e-06,-8.671432402906909e-06,0.6490856783665169,-3.9018538756985244e-05,-0.23588425301384552
660,0.6501,0.0132898,932.965,0.0152919,0.0144402,0.0221716,-0.0305617,-0.229688,0.500827,-0.269361,4.14266e-06,-8.64635e-06,-3.90689e-05,0.520761,-0.20521846433712332,4.142668580842113e-06,-8.646312620430585e-06,0.6500853271505964,-3.906813682041932e-05,-0.23613255028112456
661,0.6511,0.0132779,932.965,0.0152796,0.0144907,0.0221542,-0.0305261,-0.229969,0.501433,-0.269687,4.18278e-06,-8.62121e-06,-3.91185e-05,0.521396,-0.205441766573211,4.18278874780853e-06,-8.621172837508517e-06,0.6510855819054295,-3.9117734881410904e-05,-0.23638153048375488
662,0.6521,0.0132436,932.965,0.0152432,0.0145441,0.0221336,-0.0304936,-0.230249,0.502038,-0.270012,4.22306e-06,-8.59614e-06,-3.91679e-05,0.522032,-0.20566421173479466,4.223068917230677e-06,-8.596103053259974e-06,0.652084790912729,-3.916713294782603e-05,-0.23662966616211578
663,0.6531,0.0132299,932.965,0.0152246,0.014594,0.0221169,-0.0304575,-0.230529,0.502643,-0.270336,4.26341e-06,-8.57104e-06,-3.92173e-05,0.522666,-0.205886594620452,4.263419088434972e-06,-8.571003268786903e-06,0.6530846046243826,-3.921653101168765e-05,-0.23687695808682407
664,0.6541,0.0132004,932.965,0.0151908,0.0146476,0.0220962,-0.0304252,-0.23081,0.503248,-0.270661,4.30393e-06,-8.54601e-06,-3.92666e-05,0.523301,-0.20610970913830573,4.303939261873779e-06,-8.545973482987357e-06,0.6540850234063471,-3.926582907720633e-05,-0.237124932777376
665,0.6551,0.0131827,932.965,0.0151758,0.0146976,0.0220791,-0.0303893,-0.23109,0.503852,-0.270986,4.34451e-06,-8.52096e-06,-3.93158e-05,0.523935,-0.20633196730215198,4.344519437315952e-06,-8.520923696742067e-06,0.6550843925395804,-3.9315027144049e-05,-0.2373728268892482
666,0.6561,0.0131584,932.965,0.0151452,0.014751,0.0220592,-0.0303572,-0.231369,0.504456,-0.27131,4.38527e-06,-8.49598e-06,-3.93649e-05,0.524569,-0.20655336979619066,4.385279615215509e-06,-8.495943909281323e-06,0.6560843654741002,-3.9364125212437706e-05,-0.23761987806888374
667,0.6571,0.0131393,932.965,0.0151228,0.0148017,0.0220412,-0.0303221,-0.231649,0.50506,-0.271634,4.4261e-06,-8.47099e-06,-3.94139e-05,0.525202,-0.20677550375244247,4.42610979511926e-06,-8.47095412126464e-06,0.6570849425747118,-3.9413123282483475e-05,-0.23786684921690293
668,0.6581,0.0131128,932.965,0.0150961,0.0148541,0.0220222,-0.0302887,-0.231928,0.505663,-0.271958,4.46707e-06,-8.44604e-06,-3.94628e-05,0.525835,-0.20699678251707254,4.467079977477084e-06,-8.446004332252066e-06,0.6580844661211473,-3.946202135396426e-05,-0.23811374035923183
669,0.6591,0.0130942,932.965,0.0150744,0.0149055,0.0220041,-0.0302546,-0.232208,0.506266,-0.272281,4.50814e-06,-8.42109e-06,-3.95117e-05,0.526467,-0.20721879233514273,4.50815016161954e-06,-8.42105454268438e-06,0.6590845925620359,-3.951091942311358e-05,-0.23835978988195872
670,0.6601,0.0130713,932.965,0.0150486,0.0149577,0.0219851,-0.0302212,-0.232487,0.506869,-0.272605,4.54934e-06,-8.39619e-06,-3.95604e-05,0.5271,-0.20743994743950966,4.549350348215242e-06,-8.396154752121632e-06,0.6600853222610321,-3.955961749768644e-05,-0.2386065213373827
671,0.6611,0.0130464,932.965,0.0150184,0.0150094,0.0219666,-0.0301874,-0.232766,0.507471,-0.272928,4.59065e-06,-8.3713e-06,-3.96091e-05,0.527731,-0.2076610408502091,4.590660537040492e-06,-8.371264960782554e-06,0.6610849944961856,-3.960831556992783e-05,-0.23885241171755656
672,0.6621,0.013021,932.965,0.0149924,0.0150609,0.0219485,-0.0301532,-0.233045,0.508073,-0.273251,4.63208e-06,-8.34643e-06,-3.96577e-05,0.528363,-0.20788207258445113,4.6320907280961165e-06,-8.346395168667975e-06,0.6620852687152037,-3.9656913643826286e-05,-0.239098222687963
673,0.6631,0.0130049,932.965,0.0149723,0.0151129,0.02193,-0.0301199,-0.233323,0.508674,-0.273574,4.67363e-06,-8.32158e-06,-3.97062e-05,0.528994,-0.208102250762088,4.673640921382116e-06,-8.321545375777895e-06,0.6630844821952757,-3.970541171927078e-05,-0.23934395427424715
674,0.6641,0.0129818,932.965,0.0149453,0.0151652,0.0219108,-0.030087,-0.233602,0.509275,-0.273896,4.7153e-06,-8.29677e-06,-3.97546e-05,0.529624,-0.20832315941593516,4.715311117120535e-06,-8.296735581891923e-06,0.6640842963831444,-3.975380979637233e-05,-0.2395888460912724
675,0.6651,0.0129621,932.965,0.0149258,0.0152165,0.0218929,-0.0300528,-0.23388,0.509876,-0.274219,4.75708e-06,-8.27197e-06,-3.98029e-05,0.530255,-0.20854321498847572,4.757091314866457e-06,-8.271935787340645e-06,0.6650847116399425,-3.980210787513094e-05,-0.23983441923178772
676,0.6661,0.0129385,932.965,0.0149005,0.0152687,0.0218744,-0.0300198,-0.234158,0.510477,-0.274541,4.79898e-06,-8.2472e-06,-3.98511e-05,0.530884,-0.20876320939406967,4.798991515064799e-06,-8.247165991903671e-06,0.6660857283270218,-3.9850305955435594e-05,-0.24007915314452055
677,0.6671,0.0129121,932.965,0.0148659,0.0153206,0.0218561,-0.0299867,-0.234436,0.511077,-0.274863,4.84099e-06,-8.22245e-06,-3.98993e-05,0.531514,-0.20898314264971918,4.841001717714732e-06,-8.222416195802218e-06,0.6670856797194373,-3.98985040335198e-05,-0.2403238082656196
678,0.6681,0.0128993,932.965,0.0148546,0.0153719,0.0218381,-0.0299523,-0.234714,0.511676,-0.275185,4.88312e-06,-8.19771e-06,-3.99473e-05,0.532143,-0.20920301477242143,4.883131922372996e-06,-8.197676398813414e-06,0.6680845631773182,-3.9946502117249594e-05,-0.24056838462045171
679,0.6691,0.0128753,932.965,0.0148233,0.0154248,0.021819,-0.0299207,-0.234992,0.512276,-0.275507,4.92538e-06,-8.17302e-06,-3.99953e-05,0.532772,-0.20942282577916904,4.925392129706552e-06,-8.172986600940568e-06,0.669085714230506,-3.999450019864792e-05,-0.24081288223437558
680,0.6701,0.0128549,932.965,0.0148034,0.0154757,0.0218014,-0.0298861,-0.235269,0.512874,-0.275828,4.96773e-06,-8.14832e-06,-4.00431e-05,0.5334,-0.20964178532913058,4.967742339268e-06,-8.148286802511784e-06,0.6700841259829771,-4.004229828580286e-05,-0.24105654218966321
681,0.6711,0.0128316,932.965,0.0147774,0.0155283,0.0217829,-0.029854,-0.235547,0.513473,-0.276149,5.01022e-06,-8.12367e-06,-4.00909e-05,0.534028,-0.20986147437461689,5.010232551283522e-06,-8.123637003087936e-06,0.6710848060481998,-4.009009637062633e-05,-0.24130012394265743
682,0.6721,0.0128064,932.965,0.0147495,0.0155798,0.0217647,-0.0298204,-0.235824,0.514071,-0.27647,5.05281e-06,-8.09903e-06,-4.01386e-05,0.534656,-0.21008031243574432,5.052822765527765e-06,-8.098997202998781e-06,0.6720844136150903,-4.013779445721788e-05,-0.24154362751845704
683,0.6731,0.0127816,932.965,0.0147216,0.0156319,0.0217466,-0.0297877,-0.236101,0.514669,-0.276791,5.09553e-06,-8.07441e-06,-4.01863e-05,0.535283,-0.21029908988712376,5.095542982225254e-06,-8.074377402023103e-06,0.6730846191260738,-4.018549254147796e-05,-0.24178705294215286
684,0.6741,0.0127586,932.965,0.0146967,0.0156837,0.0217284,-0.0297545,-0.236378,0.515267,-0.277112,5.13836e-06,-8.04982e-06,-4.02338e-05,0.53591,-0.21051780674554166,5.1383732013743355e-06,-8.049787600272751e-06,0.6740854229388269,-4.023299063149466e-05,-0.24203040023882771
685,0.6751,0.0127395,932.965,0.0146755,0.0157358,0.0217102,-0.029722,-0.236654,0.515864,-0.277432,5.18131e-06,-8.02525e-06,-4.02812e-05,0.536536,-0.21073567376384827,5.1813234229758365e-06,-8.025217797746897e-06,0.6750851503252533,-4.028038872339046e-05,-0.24227291170684695
686,0.6761,0.0127201,932.965,0.0146539,0.0157876,0.0216921,-0.029689,-0.236931,0.516461,-0.277753,5.22437e-06,-8.0007e-06,-4.03286e-05,0.537162,-0.21095426970528008,5.2243836470289295e-06,-8.000667994445543e-06,0.676085474727121,-4.032778681295479e-05,-0.2425161030678874
687,0.6771,0.0127003,932.965,0.0146291,0.0158397,0.0216739,-0.0296565,-0.237207,0.517057,-0.278073,5.26755e-06,-7.97618e-06,-4.03759e-05,0.537788,-0.21117201627643234,5.267563873534442e-06,-7.976148190369514e-06,0.6770847194153966,-4.0375084904287206e-05,-0.2427584591358667
688,0.6781,0.0126781,932.965,0.0146063,0.0158917,0.0216557,-0.0296239,-0.237483,0.517653,-0.278393,5.31085e-06,-7.95168e-06,-4.04231e-05,0.538414,-0.21138970275782376,5.310864102492374e-06,-7.951648385517984e-06,0.6780845598310155,-4.0422282997498726e-05,-0.24300073766231156
689,0.6791,0.0126549,932.965,0.0145826,0.0159435,0.0216381,-0.0295911,-0.237759,0.518249,-0.278712,5.35425e-06,-7.92719e-06,-4.04702e-05,0.539039,-0.21160732916603675,5.3542643341231155e-06,-7.927158579890126e-06,0.679084996329137,-4.046938109247833e-05,-0.24324218191459157
690,0.6801,0.0126308,932.964,0.0145524,0.0159957,0.0216198,-0.0295588,-0.238035,0.518844,-0.279032,5.39779e-06,-7.90274e-06,-4.05172e-05,0.539663,-0.21182489551764938,5.397804567985887e-06,-7.902708773377398e-06,0.6800843491799429,-4.051637918933704e-05,-0.24348430567451118
691,0.6811,0.0126122,932.964,0.0145344,0.0160472,0.0216024,-0.0295257,-0.238311,0.519439,-0.279351,5.44142e-06,-7.87829e-06,-4.05641e-05,0.540287,-0.21204240182923473,5.4414348045206395e-06,-7.87825896630956e-06,0.681084296822628,-4.056327728807485e-05,-0.24372559569319696
692,0.6821,0.0125941,932.964,0.0145068,0.0160998,0.021584,-0.0294941,-0.238587,0.520034,-0.27967,5.48519e-06,-7.85389e-06,-4.0611e-05,0.540911,-0.21225984811736176,5.485205043731511e-06,-7.853859158246657e-06,0.6820848396111991,-4.0610175384481195e-05,-0.2439668087526422
693,0.6831,0.0125739,932.964,0.0144902,0.0161512,0.0215661,-0.0294607,-0.238862,0.520628,-0.279989,5.52905e-06,-7.82949e-06,-4.06578e-05,0.541535,-0.2124764468754352,5.529065285170276e-06,-7.829459349628642e-06,0.6830842948147366,-4.065697348287767e-05,-0.2442079448773934
694,0.6841,0.0125455,932.964,0.0144574,0.0162043,0.0215476,-0.0294303,-0.239137,0.521222,-0.280308,5.57306e-06,-7.80514e-06,-4.07045e-05,0.542158,-0.21269298607703957,5.573075529508031e-06,-7.805109540015565e-06,0.6840843438710218,-4.070367158304222e-05,-0.24444900409198866
695,0.6851,0.0125335,932.964,0.0144414,0.0162547,0.0215313,-0.0293959,-0.239412,0.521816,-0.280627,5.61714e-06,-7.78077e-06,-4.0751e-05,0.542781,-0.21290946573855074,5.617155776072025e-06,-7.78073972984572e-06,0.6850849871329081,-4.0750169689296456e-05,-0.2446899864209583
696,0.6861,0.0125148,932.964,0.0144217,0.0163084,0.0215118,-0.0293655,-0.239687,0.522409,-0.280945,5.66139e-06,-7.75647e-06,-4.07976e-05,0.543403,-0.21312588587633974,5.6614060257587084e-06,-7.756439918682467e-06,0.6860845388680765,-4.079676778923069e-05,-0.24493013681933928
697,0.6871,0.0124866,932.964,0.0143893,0.0163597,0.0214944,-0.0293333,-0.239962,0.523002,-0.281263,5.70572e-06,-7.73216e-06,-4.0844e-05,0.544025,-0.21334224650677358,5.705736277672457e-06,-7.732130106963275e-06,0.6870846835132041,-4.0843165895143585e-05,-0.24517021086203483
698,0.6881,0.0124711,932.964,0.0143719,0.0164112,0.0214777,-0.0293,-0.240237,0.523595,-0.281581,5.75016e-06,-7.70787e-06,-4.08903e-05,0.544647,-0.2135585476462144,5.750176532259843e-06,-7.707840294468582e-06,0.6880854214199912,-4.0889464003046605e-05,-0.24541020857332219
699,0.6891,0.0124474,932.964,0.0143469,0.0164643,0.0214587,-0.0292693,-0.240511,0.524187,-0.281899,5.79474e-06,-7.68363e-06,-4.09366e-05,0.545268,-0.21377400308541616,5.794756789523348e-06,-7.683600480978825e-06,0.6890850638544375,-4.09357621088402e-05,-0.24565012997747082
700,0.6901,0.0124167,932.964,0.0143152,0.0165156,0.0214416,-0.029237,-0.240785,0.524779,-0.282217,5.83941e-06,-7.65938e-06,-4.09828e-05,0.545889,-0.21398939949791462,5.839427049458834e-06,-7.659350667044151e-06,0.690085298252409,-4.09819602165129e-05,-0.24588997509874244
701,0.6911,0.0123949,932.964,0.0142883,0.0165679,0.021424,-0.0292052,-0.241059,0.52537,-0.282534,5.88422e-06,-7.63517e-06,-4.10289e-05,0.54651,-0.21420473689988095,5.8842373120704394e-06,-7.635140852113587e-06,0.6910844338791722,-4.102805832617573e-05,-0.2461289900907584
702,0.6921,0.0123941,932.964,0.0142851,0.0166196,0.0214067,-0.0291729,-0.241333,0.525961,-0.282851,5.92912e-06,-7.61097e-06,-4.10749e-05,0.54713,-0.21442001530748167,5.929137577354027e-06,-7.610941036628738e-06,0.6920841601696148,-4.107405643782869e-05,-0.24636792932702978
703,0.6931,0.0123655,932.964,0.0142551,0.0166731,0.0213871,-0.0291431,-0.241607,0.526552,-0.283168,5.97417e-06,-7.58683e-06,-4.11209e-05,0.54775,-0.21463523473687907,5.97418784531456e-06,-7.58680122003863e-06,0.6930844774729223,-4.112005454737222e-05,-0.2466067928315674
704,0.6941,0.0123504,932.964,0.0142379,0.0167234,0.0213716,-0.0291097,-0.241881,0.527143,-0.283485,6.01929e-06,-7.56266e-06,-4.11667e-05,0.548369,-0.2148503952042311,6.019308115945421e-06,-7.562631403112974e-06,0.6940853861384864,-4.116585266300543e-05,-0.24684558062837436
705,0.6951,0.0123212,932.964,0.014201,0.016777,0.0213528,-0.0290795,-0.242154,0.527733,-0.283802,6.06457e-06,-7.53855e-06,-4.12125e-05,0.548988,-0.21506471179079523,6.0645883894761e-06,-7.538521585193081e-06,0.6950851914298661,-4.121165077664024e-05,-0.24708429274144628
706,0.6961,0.0123109,932.964,0.0141963,0.0168276,0.0213363,-0.029046,-0.242428,0.528323,-0.284118,6.10992e-06,-7.51443e-06,-4.12582e-05,0.549607,-0.21527975459755455,6.109938665677106e-06,-7.514401766717249e-06,0.6960855867804183,-4.1257348892154155e-05,-0.2473221765173238
707,0.6971,0.012277,932.964,0.0141523,0.0168817,0.0213172,-0.0290177,-0.242701,0.528912,-0.284434,6.15544e-06,-7.49037e-06,-4.13039e-05,0.550225,-0.2154939539850027,6.155458944778758e-06,-7.490341947247181e-06,0.6970848754526566,-4.130304700566967e-05,-0.24755998513380406
708,0.6981,0.0122588,932.964,0.0141362,0.0169315,0.0213015,-0.0289831,-0.242974,0.529501,-0.284751,6.20101e-06,-7.46629e-06,-4.13493e-05,0.550843,-0.21570809490399945,6.201029226327037e-06,-7.466262127331369e-06,0.6980847528792937,-4.1348445129485434e-05,-0.24779847081653883
709,0.6991,0.0122339,932.964,0.0141031,0.0169857,0.0212827,-0.0289545,-0.243247,0.53009,-0.285066,6.24676e-06,-7.44227e-06,-4.13948e-05,0.551461,-0.21592217737050434,6.2467795109988344e-06,-7.4422423064213206e-06,0.6990852194072086,-4.1393943247092224e-05,-0.24803537698355138
710,0.7001,0.0122214,932.964,0.0140975,0.0170363,0.021266,-0.0289212,-0.243519,0.530678,-0.285382,6.29257e-06,-7.41825e-06,-4.14402e-05,0.552078,-0.2161354175362823,6.292589798340131e-06,-7.418222484845138e-06,0.7000845752980585,-4.1439341366800164e-05,-0.24827296026428924
711,0.7011,0.0122099,932.964,0.0140744,0.0170899,0.0212481,-0.0288925,-0.243792,0.531266,-0.285698,6.33854e-06,-7.39426e-06,-4.14855e-05,0.552695,-0.21634938335963116,6.3385600885812465e-06,-7.394232662494282e-06,0.7010845189829669,-4.148463948849823e-05,-0.24851046848057123
712,0.7021,0.0121779,932.964,0.0140447,0.0171411,0.0212305,-0.0288597,-0.244064,0.531854,-0.286013,6.38459e-06,-7.37029e-06,-4.15307e-05,0.553312,-0.21656250734118188,6.384610381493516e-06,-7.370262839478947e-06,0.7020850508076579,-4.152983761240847e-05,-0.24874715040363993
713,0.7031,0.0121697,932.964,0.0140297,0.0171931,0.0212145,-0.0288288,-0.244336,0.532441,-0.286328,6.43076e-06,-7.34633e-06,-4.15758e-05,0.553928,-0.2167755733608927,6.430780677302295e-06,-7.346303015798306e-06,0.7030844680327402,-4.157493573841986e-05,-0.2489837577836439
714,0.7041,0.0121279,932.964,0.0139879,0.0172465,0.0211951,-0.0287992,-0.244608,0.533028,-0.286643,6.47708e-06,-7.32243e-06,-4.16209e-05,0.554544,-0.21698858143452726,6.4771009762321086e-06,-7.322403191123428e-06,0.7040844720879513,-4.1620033862321826e-05,-0.2492202906440607
715,0.7051,0.0121193,932.964,0.0139796,0.0172969,0.02118,-0.0287666,-0.24488,0.533615,-0.286958,6.52345e-06,-7.29849e-06,-4.16658e-05,0.555159,-0.21720153157784472,6.523471277830595e-06,-7.298463366112173e-06,0.7050850633178618,-4.166493199264654e-05,-0.24945674900836023
716,0.7061,0.0120844,932.964,0.0139385,0.0173511,0.0211606,-0.0287378,-0.245152,0.534201,-0.287272,6.57001e-06,-7.27464e-06,-4.17107e-05,0.555774,-0.21741442380659992,6.570031582553426e-06,-7.27461353988712e-06,0.7060845359818555,-4.1709830120861824e-05,-0.24969238259276283
717,0.7071,0.0120789,932.964,0.0139315,0.0174014,0.0211452,-0.028705,-0.245424,0.534787,-0.287587,6.61661e-06,-7.25075e-06,-4.17555e-05,0.556389,-0.21762725813654338,6.616631889722058e-06,-7.250723713325691e-06,0.7070845945084712,-4.175462825128928e-05,-0.2499286922715177
718,0.7081,0.0120519,932.964,0.0139048,0.0174556,0.021126,-0.0286768,-0.245695,0.535373,-0.287901,6.66339e-06,-7.22694e-06,-4.18003e-05,0.557003,-0.21783925242306512,6.663412200458296e-06,-7.22691388577168e-06,0.708085239241125,-4.179942637960732e-05,-0.2501641776889991
719,0.7091,0.0120516,932.964,0.0138968,0.0175059,0.0211108,-0.0286444,-0.245966,0.535958,-0.288215,6.71023e-06,-7.20309e-06,-4.18449e-05,0.557617,-0.21805118926691913,6.71025251364199e-06,-7.20306405777027e-06,0.7090847614378186,-4.18440245143481e-05,-0.2503995891756672
720,0.7101,0.0120043,932.964,0.0138502,0.0175603,0.0210909,-0.0286159,-0.246237,0.536543,-0.288529,6.75724e-06,-7.17934e-06,-4.18895e-05,0.558231,-0.21826306868367007,6.7572628301704185e-06,-7.179314228555889e-06,0.710084868526061,-4.188862264709048e-05,-0.2506349267547324
721,0.7111,0.0120026,932.964,0.0138479,0.0176095,0.0210777,-0.0285823,-0.246508,0.537128,-0.288842,6.80428e-06,-7.15551e-06,-4.1934e-05,0.558844,-0.2184748906888787,6.80430314914382e-06,-7.1554843994459105e-06,0.7110855608481146,-4.193312078215605e-05,-0.2508694413192143
722,0.7121,0.0119689,932.964,0.0138081,0.0176654,0.0210565,-0.0285559,-0.246779,0.537712,-0.289156,6.85155e-06,-7.13181e-06,-4.19784e-05,0.559457,-0.2186866552981015,6.85157347191101e-06,-7.131784568681354e-06,0.712085126660458,-4.1977518919322776e-05,-0.2511046313878669
723,0.7131,0.0119571,932.964,0.0138037,0.0177143,0.0210426,-0.0285222,-0.24705,0.538296,-0.289469,6.89881e-06,-7.10804e-06,-4.20227e-05,0.56007,-0.21889836252689054,6.898833796897819e-06,-7.108014737911006e-06,0.7130852763897231,-4.202181705870167e-05,-0.2513389989578043
724,0.7141,0.0119303,932.964,0.0137659,0.0177695,0.0210231,-0.0284954,-0.24732,0.538879,-0.289782,6.9463e-06,-7.08436e-06,-4.20671e-05,0.560682,-0.21910923150041584,6.946324125678416e-06,-7.084334905926859e-06,0.7140842962918634,-4.2066215191982614e-05,-0.2515732931821717
725,0.7151,0.0119276,932.964,0.0137594,0.0178192,0.0210082,-0.0284624,-0.247591,0.539463,-0.290095,6.9938e-06,-7.06064e-06,-4.21112e-05,0.561294,-0.21932082422656984,6.9938244566802865e-06,-7.060615073717358e-06,0.7150856138771742,-4.2110313335896876e-05,-0.2518075140839223
726,0.7161,0.011905,932.964,0.0137396,0.0178738,0.0209889,-0.0284345,-0.247861,0.540045,-0.290408,7.0415e-06,-7.03701e-06,-4.21553e-05,0.561905,-0.21953157915083354,7.0415247914734636e-06,-7.036985240294058e-06,0.7160840842311398,-4.2154411477812737e-05,-0.2520416616860027
727,0.7171,0.0118783,932.964,0.0137088,0.0179251,0.0209728,-0.0284045,-0.248131,0.540628,-0.29072,7.08927e-06,-7.01335e-06,-4.21994e-05,0.562517,-0.219742277178949,7.089295128936968e-06,-7.013325406535209e-06,0.7170848529479816,-4.219850961784122e-05,-0.25227498828671424
728,0.7181,0.0118693,932.964,0.0136984,0.0179768,0.0209566,-0.0283729,-0.248401,0.54121,-0.291033,7.13715e-06,-6.98972e-06,-4.22433e-05,0.563127,-0.21995291832627617,7.137175469518198e-06,-6.989695572001686e-06,0.7180844871977474,-4.224240776440347e-05,-0.25250898959226575
729,0.7191,0.0118461,932.964,0.0136651,0.0180303,0.0209385,-0.028345,-0.248671,0.541792,-0.291345,7.18517e-06,-6.96613e-06,-4.22872e-05,0.563738,-0.22016350260817075,7.1851958134416805e-06,-6.9661057365832946e-06,0.7190847034039796,-4.2286305908967314e-05,-0.25274217040941394
730,0.7201,0.0118272,932.964,0.0136454,0.0180817,0.0209221,-0.0283141,-0.24894,0.542374,-0.291657,7.23327e-06,-6.94254e-06,-4.2331e-05,0.564348,-0.22037325041362454,7.233296160258362e-06,-6.942515900609791e-06,0.7200855019054748,-4.2330104055854356e-05,-0.2529752784854954
731,0.7211,0.0117948,932.964,0.0136119,0.0181348,0.0209048,-0.0282855,-0.24921,0.542955,-0.291969,7.28152e-06,-6.91899e-06,-4.23747e-05,0.564958,-0.2205837212211752,7.281546510418124e-06,-6.918966063862442e-06,0.7210851619552059,-4.237380220506459e-05,-0.25320831384320164
732,0.7221,0.0117955,932.964,0.0136145,0.0181856,0.0208898,-0.0282538,-0.249479,0.543536,-0.29228,7.32984e-06,-6.89542e-06,-4.24183e-05,0.565567,-0.2207933560030244,7.329866863248213e-06,-6.895396226669348e-06,0.7220854029761816,-4.241740035659802e-05,-0.25344052994612076
733,0.7231,0.011759,932.964,0.0135727,0.0182407,0.0208697,-0.0282279,-0.249748,0.544116,-0.292592,7.37834e-06,-6.87195e-06,-4.2462e-05,0.566176,-0.2210029344007014,7.3783672200899986e-06,-6.871926388152261e-06,0.7230845022206807,-4.24610985020335e-05,-0.25367342016801375
734,0.7241,0.0117409,932.964,0.0135508,0.0182904,0.0208555,-0.0281956,-0.250017,0.544696,-0.292903,7.42687e-06,-6.84842e-06,-4.25054e-05,0.566785,-0.22121245642937126,7.426897579376757e-06,-6.848396549630209e-06,0.7240841811108223,-4.250449665832434e-05,-0.25390549164535625
735,0.7251,0.0117354,932.964,0.0135441,0.018344,0.0208382,-0.0281671,-0.250286,0.545276,-0.293214,7.47557e-06,-6.82495e-06,-4.25489e-05,0.567393,-0.22142192210419542,7.475597942230294e-06,-6.824926710113921e-06,0.7250844399828991,-4.254799480840621e-05,-0.2541374909596913
736,0.7261,0.0116896,932.964,0.0134886,0.0183973,0.0208198,-0.0281398,-0.250554,0.545856,-0.293525,7.52439e-06,-6.80153e-06,-4.25923e-05,0.568001,-0.22163055307127322,7.524418308202385e-06,-6.801506869602569e-06,0.7260852791733974,-4.259139296092229e-05,-0.2543694181334579
737,0.7271,0.0116792,932.964,0.0134878,0.0184472,0.0208056,-0.0281069,-0.250823,0.546435,-0.293835,7.57326e-06,-6.77806e-06,-4.26355e-05,0.568609,-0.22183990629322625,7.573288677287238e-06,-6.778037028976058e-06,0.7270849719331647,-4.263459111997214e-05,-0.254600527789989
738,0.7281,0.0116692,932.964,0.01347,0.0185021,0.0207873,-0.028081,-0.251091,0.547014,-0.294146,7.62233e-06,-6.75467e-06,-4.26787e-05,0.569216,-0.22204842525555069,7.622359049941352e-06,-6.7546471872459435e-06,0.728085243682641,-4.267778927724564e-05,-0.2548323109816918
739,0.7291,0.0116477,932.963,0.0134429,0.0185536,0.0207703,-0.0280514,-0.251359,0.547592,-0.294456,7.67145e-06,-6.73129e-06,-4.27219e-05,0.569823,-0.22225688834228086,7.671479425708227e-06,-6.7312673449615446e-06,0.7290843656719286,-4.272098743263175e-05,-0.2550632771636796
740,0.7301,0.0116487,932.963,0.0134374,0.0186053,0.020755,-0.028021,-0.251627,0.548171,-0.294766,7.72069e-06,-6.7079e-06,-4.27649e-05,0.570429,-0.22246529556838934,7.720719804593656e-06,-6.707877502121207e-06,0.7300857954055839,-4.276398559466266e-05,-0.2552941717572478
741,0.7311,0.0116052,932.963,0.0133969,0.0186603,0.020735,-0.0279956,-0.251895,0.548748,-0.295076,7.7701e-06,-6.6846e-06,-4.28079e-05,0.571036,-0.22267364694884506,7.77013018726791e-06,-6.68457765806707e-06,0.7310843429627993,-4.2806983754917205e-05,-0.25552499478458535
742,0.7321,0.0115977,932.963,0.0133922,0.0187089,0.0207231,-0.0279624,-0.252163,0.549326,-0.295386,7.81952e-06,-6.66121e-06,-4.28508e-05,0.571641,-0.22288194249861237,7.819550572607525e-06,-6.661187814227532e-06,0.732085198932543,-4.284988191760597e-05,-0.25575574626787423
743,0.7331,0.0115635,932.963,0.0133564,0.0187653,0.0207025,-0.027938,-0.252431,0.549903,-0.295696,7.86917e-06,-6.63796e-06,-4.28937e-05,0.572247,-0.22309018223265198,7.869200961962974e-06,-6.6379379688452644e-06,0.7330849004784874,-4.2892780078407355e-05,-0.2559864262292898
744,0.7341,0.0115641,932.963,0.0133455,0.0188143,0.0206894,-0.0279061,-0.252698,0.55048,-0.296005,7.91882e-06,-6.61463e-06,-4.29364e-05,0.572852,-0.22329758946389833,7.918851353982959e-06,-6.614608123345356e-06,0.7340851790186704,-4.2935478245964553e-05,-0.2562162909076632
745,0.7351,0.0115401,932.963,0.0133191,0.0188699,0.0206693,-0.0278801,-0.252965,0.551056,-0.296314,7.96869e-06,-6.59142e-06,-4.29791e-05,0.573457,-0.22350494132480625,7.968721750017949e-06,-6.591398276634131e-06,0.7350842998009468,-4.2978176411745395e-05,-0.2564460845688237
746,0.7361,0.0115207,932.963,0.0132999,0.0189199,0.0206553,-0.0278495,-0.253233,0.551633,-0.296623,8.01858e-06,-6.56815e-06,-4.30217e-05,0.574061,-0.22371301411753153,8.018612148941173e-06,-6.568128429695896e-06,0.7360857323274321,-4.302077457996045e-05,-0.25667580723471217
747,0.7371,0.0114911,932.963,0.0132599,0.018974,0.0206378,-0.0278227,-0.253499,0.552208,-0.296932,8.06865e-06,-6.54494e-06,-4.30643e-05,0.574665,-0.2239194789947302,8.06868255165405e-06,-6.544918581874448e-06,0.7370842686752086,-4.306337274628813e-05,-0.2569054589272628
748,0.7381,0.0115,932.963,0.013276,0.0190247,0.020623,-0.0277922,-0.253766,0.552784,-0.297241,8.11878e-06,-6.52172e-06,-4.31067e-05,0.575269,-0.22412666483329835,8.118812957480515e-06,-6.521698733608083e-06,0.7380851174307357,-4.310577091959367e-05,-0.2571350396684031
749,0.7391,0.0114444,932.963,0.0132162,0.0190807,0.0206026,-0.0277689,-0.254033,0.553359,-0.29755,8.16911e-06,-6.4986e-06,-4.31492e-05,0.575873,-0.22433379536063192,8.16914336732033e-06,-6.498578884128747e-06,0.7390848037555333,-4.314826908669023e-05,-0.2573645494800535
750,0.7401,0.0114603,932.963,0.0132364,0.0191284,0.0205916,-0.0277349,-0.2543,0.553934,-0.297858,8.21941e-06,-6.47537e-06,-4.31914e-05,0.576476,-0.2245408705914972,8.21944377937811e-06,-6.475349034862354e-06,0.74008506506526,-4.3190467264864196e-05,-0.25759324597774513
751,0.7411,0.0114028,932.963,0.013171,0.0191869,0.0205687,-0.0277136,-0.254566,0.554508,-0.298166,8.27e-06,-6.45232e-06,-4.32338e-05,0.577079,-0.22474711528815905,8.270034196566911e-06,-6.452299183834498e-06,0.7410841606055958,-4.323286543272964e-05,-0.25782187204776175
752,0.7421,0.0114193,932.963,0.013201,0.0192327,0.0205591,-0.0276779,-0.254832,0.555083,-0.298474,8.3205e-06,-6.42911e-06,-4.32758e-05,0.577681,-0.22495330513102763,8.320534615524622e-06,-6.429089333348514e-06,0.7420855718760933,-4.327486361610511e-05,-0.258050427711792
753,0.7431,0.0113694,932.963,0.0131432,0.0192921,0.0205367,-0.0276581,-0.255098,0.555656,-0.298782,8.37133e-06,-6.4061e-06,-4.33181e-05,0.578283,-0.2251594401346918,8.371365039616663e-06,-6.4060794809917e-06,0.743084072952017,-4.331716178462841e-05,-0.2582789129915174
754,0.7441,0.0113811,932.963,0.0131437,0.0193384,0.0205261,-0.0276235,-0.255364,0.55623,-0.299089,8.42206e-06,-6.38295e-06,-4.336e-05,0.578885,-0.22536552031373702,8.422095465698831e-06,-6.382929629067391e-06,0.744084890417025,-4.335905996877276e-05,-0.25850658641557034
755,0.7451,0.0113419,932.963,0.0131005,0.0193965,0.0205041,-0.0276011,-0.25563,0.556803,-0.299397,8.4731e-06,-6.35998e-06,-4.34021e-05,0.579486,-0.22557154568274473,8.473135896913675e-06,-6.359959775381618e-06,0.7450845374307524,-4.3401158142497565e-05,-0.2587349312200493
756,0.7461,0.011344,932.963,0.0130985,0.0194445,0.0204923,-0.027569,-0.255896,0.557376,-0.299704,8.52408e-06,-6.33689e-06,-4.34439e-05,0.580087,-0.2257775162562924,8.524116330121956e-06,-6.336869921907962e-06,0.7460847574063563,-4.34429563274108e-05,-0.25896246466799344
757,0.7471,0.0113146,932.963,0.0130679,0.019501,0.0204726,-0.0275456,-0.256161,0.557949,-0.300011,8.57531e-06,-6.31392e-06,-4.34858e-05,0.580688,-0.22598265803199868,8.575346768013858e-06,-6.313900067222988e-06,0.7470855506722385,-4.34848545063371e-05,-0.2591899282738903
758,0.7481,0.0113053,932.963,0.0130698,0.0195499,0.02046,-0.0275141,-0.256426,0.558521,-0.300318,8.62654e-06,-6.29088e-06,-4.35275e-05,0.581288,-0.22618774545233677,8.626577208792341e-06,-6.290860212421201e-06,0.7480851694709445,-4.352655269213024e-05,-0.2594173220591782
759,0.7491,0.0112645,932.963,0.0130079,0.0196072,0.0204395,-0.0274932,-0.256692,0.559093,-0.300625,8.67801e-06,-6.26797e-06,-4.35693e-05,0.581888,-0.22639355213854362,8.678047654031573e-06,-6.267950356297902e-06,0.7490853602151641,-4.356835087182542e-05,-0.2596446460452887
760,0.7501,0.0112682,932.963,0.0130148,0.0196544,0.0204277,-0.0274583,-0.256957,0.559664,-0.300931,8.72943e-06,-6.24497e-06,-4.36108e-05,0.582488,-0.22659853068636981,8.729468101487114e-06,-6.244950500167157e-06,0.7500843731468958,-4.360984906293108e-05,-0.2598711601251772
761,0.7511,0.0112373,932.963,0.0129781,0.0197124,0.0204071,-0.0274375,-0.257221,0.560236,-0.301238,8.78113e-06,-6.2221e-06,-4.36525e-05,0.583087,-0.22680268172514573,8.781168554294894e-06,-6.222080642825922e-06,0.7510857077627342,-4.365154724350617e-05,-0.2600983448043862
762,0.7521,0.0112206,932.963,0.0129718,0.0197605,0.0203948,-0.0274056,-0.257486,0.560806,-0.301544,8.83279e-06,-6.19914e-06,-4.36939e-05,0.583686,-0.22700755186799582,8.832829009097765e-06,-6.199120785366219e-06,0.7520841111340881,-4.369294543549174e-05,-0.26032472007369334
763,0.7531,0.0112155,932.963,0.0129672,0.0198159,0.0203772,-0.0273811,-0.257751,0.561377,-0.30185,8.88468e-06,-6.17628e-06,-4.37354e-05,0.584284,-0.2272123677274508,8.884719468804647e-06,-6.1762609268045665e-06,0.7530848368415453,-4.373444362137935e-05,-0.2605510260827656
764,0.7541,0.0111852,932.963,0.0129289,0.0198684,0.0203599,-0.0273549,-0.258015,0.561947,-0.302156,8.93664e-06,-6.15343e-06,-4.37767e-05,0.584883,-0.227416356734637,8.93667993184799e-06,-6.15341106768863e-06,0.7540843800412942,-4.377574181424482e-05,-0.2607772628527931
765,0.7551,0.0111675,932.963,0.0129037,0.0199201,0.0203456,-0.0273268,-0.258279,0.562517,-0.302461,8.98869e-06,-6.13056e-06,-4.3818e-05,0.585481,-0.22762029189583333,8.988730398451494e-06,-6.1305412081269495e-06,0.7550844931430738,-4.381704000544495e-05,-0.2610026914080208
766,0.7561,0.011145,932.963,0.0128712,0.0199735,0.020329,-0.0273005,-0.258544,0.563087,-0.302767,9.04088e-06,-6.10774e-06,-4.38592e-05,0.586078,-0.22782494540069387,9.04092086884134e-06,-6.10772134779225e-06,0.7560851764718204,-4.385823819930135e-05,-0.26122878998960275
767,0.7571,0.0111323,932.963,0.012879,0.0200255,0.0203131,-0.0272725,-0.258808,0.563656,-0.303072,9.09316e-06,-6.08494e-06,-4.39003e-05,0.586675,-0.22802877270871957,9.09320134301339e-06,-6.084921486793071e-06,0.7570846732671048,-4.3899336395925026e-05,-0.26145408085005317
768,0.7581,0.0111105,932.963,0.0128374,0.0200799,0.0202966,-0.0272497,-0.259071,0.564225,-0.303377,9.14559e-06,-6.06216e-06,-4.39415e-05,0.587272,-0.22823177444559872,9.14563182097261e-06,-6.0621416251294136e-06,0.7580847389378951,-4.394053458645075e-05,-0.26167930300726905
769,0.7591,0.0110981,932.963,0.0128244,0.0201302,0.0202813,-0.0272182,-0.259335,0.564794,-0.303682,9.19807e-06,-6.03939e-06,-4.39824e-05,0.587869,-0.2284354943649325,9.198112302266637e-06,-6.039371762911472e-06,0.7590853738079741,-4.3981432788386954e-05,-0.2619044564822015
770,0.7601,0.0110793,932.963,0.0128027,0.0201858,0.0202641,-0.0271965,-0.259599,0.565362,-0.303987,9.25074e-06,-6.01667e-06,-4.40235e-05,0.588465,-0.22863916050930622,9.25078278823932e-06,-6.016651899920511e-06,0.7600848181156101,-4.402253097990361e-05,-0.26212954129579547
771,0.7611,0.0110474,932.963,0.0127712,0.020237,0.0202486,-0.0271684,-0.259862,0.56593,-0.304292,9.30346e-06,-5.99394e-06,-4.40643e-05,0.589061,-0.2288420017353019,9.303503277324765e-06,-5.993922036373611e-06,0.7610848302688658,-4.406332918294176e-05,-0.2623545574689895
772,0.7621,0.0110436,932.963,0.0127567,0.0202893,0.0202344,-0.0271413,-0.260125,0.566498,-0.304596,9.3563e-06,-5.97122e-06,-4.41051e-05,0.589656,-0.22904478962106967,9.356343770416942e-06,-5.971202172272427e-06,0.7620854105903685,-4.4104127384425595e-05,-0.26257876760185195
773,0.7631,0.0110277,932.963,0.0127503,0.0203436,0.0202159,-0.0271164,-0.260388,0.567065,-0.3049,9.40929e-06,-5.94857e-06,-4.41459e-05,0.590252,-0.2292475241806361,9.409334267518332e-06,-5.948552307288857e-06,0.7630847963172527,-4.414492558413308e-05,-0.26280290958519337
774,0.7641,0.0110166,932.963,0.0127464,0.0203949,0.0202023,-0.0270896,-0.260651,0.567632,-0.305204,9.46234e-06,-5.92588e-06,-4.41866e-05,0.590847,-0.2294502054280243,9.462384768177401e-06,-5.92586244196891e-06,0.7640847488565201,-4.418562378660784e-05,-0.26302698343972786
775,0.7651,0.0109849,932.963,0.0127123,0.0204498,0.0201841,-0.027066,-0.260914,0.568199,-0.305508,9.51557e-06,-5.90328e-06,-4.42273e-05,0.591441,-0.2296528333772534,9.51561527307021e-06,-5.903262575657209e-06,0.7650852685296443,-4.422632198741727e-05,-0.26325098918616363
776,0.7661,0.0109692,932.963,0.0126726,0.0205004,0.0201712,-0.0270383,-0.261177,0.568765,-0.305812,9.56883e-06,-5.88062e-06,-4.42678e-05,0.592035,-0.22985540804233917,9.568875781296171e-06,-5.880602709229521e-06,0.766084589572809,-4.4266820195426604e-05,-0.26347492684520224
777,0.7671,0.0109483,932.963,0.0126729,0.0205544,0.0201527,-0.0270113,-0.261439,0.569331,-0.306116,9.62226e-06,-5.85805e-06,-4.43083e-05,0.592629,-0.23005715949483763,9.622306294199134e-06,-5.858032841699057e-06,0.7670844763917837,-4.43073184017706e-05,-0.26369879643753913
778,0.7681,0.0109214,932.963,0.0126153,0.0206074,0.0201387,-0.0269888,-0.261702,0.569897,-0.306419,9.67578e-06,-5.83545e-06,-4.43487e-05,0.593223,-0.23025962783613663,9.675826810440213e-06,-5.8354329738330435e-06,0.7680849293068881,-4.4347716610992904e-05,-0.26392186190609346
779,0.7691,0.0109315,932.963,0.0126448,0.0206585,0.0201233,-0.0269585,-0.261964,0.570462,-0.306722,9.72939e-06,-5.81289e-06,-4.4389e-05,0.593816,-0.23046127339692157,9.729437330685542e-06,-5.812873105193184e-06,0.769084179553559,-4.438801482287147e-05,-0.2641448597960495
780,0.7701,0.0108768,932.963,0.0125552,0.0207162,0.0201037,-0.0269416,-0.262226,0.571028,-0.307025,9.78321e-06,-5.7904e-06,-4.44295e-05,0.594409,-0.23066286613348996,9.783257855833227e-06,-5.790383235670937e-06,0.7700857646210217,-4.4428513024330485e-05,-0.2643677901278805
781,0.7711,0.010876,932.963,0.0125778,0.0207619,0.0200941,-0.0269053,-0.262488,0.571592,-0.307328,9.83695e-06,-5.7678e-06,-4.44695e-05,0.595001,-0.23086440605967973,9.836998382972695e-06,-5.767783366250612e-06,0.7710843745738034,-4.446851124639828e-05,-0.2645906529220533
782,0.7721,0.0108385,932.963,0.0125271,0.0208222,0.0200726,-0.0268897,-0.26275,0.572157,-0.307631,9.89104e-06,-5.74538e-06,-4.45099e-05,0.595593,-0.23106589318932558,9.891088916580415e-06,-5.745363495290867e-06,0.7720853199858895,-4.4508909449070266e-05,-0.26481344819902897
783,0.7731,0.0108387,932.963,0.0125613,0.0208684,0.020062,-0.0268562,-0.263011,0.572721,-0.307933,9.94501e-06,-5.72284e-06,-4.45499e-05,0.596185,-0.23126655880320135,9.945059451732519e-06,-5.7228236245432385e-06,0.773085058005982,-4.4548907667918414e-05,-0.26503544101507037
784,0.7741,0.0108294,932.963,0.0125273,0.0209279,0.0200422,-0.0268403,-0.263273,0.573285,-0.308235,9.99931e-06,-5.70044e-06,-4.45901e-05,0.596777,-0.23146794058262987,9.99935999335122e-06,-5.700423752474926e-06,0.7740853600373543,-4.458910587623599e-05,-0.2652573667994037
785,0.7751,0.0108137,932.963,0.0125259,0.0209755,0.0200293,-0.0268079,-0.263534,0.573848,-0.308538,1.00535e-05,-5.67796e-06,-4.46299e-05,0.597368,-0.23166850127582883,1.0053550536515132e-05,-5.677943880399994e-06,0.7750844513128592,-4.462890410084075e-05,-0.2654799600926765
786,0.7761,0.0108049,932.963,0.0125017,0.0210328,0.0200111,-0.0267884,-0.263796,0.574411,-0.30884,1.0108e-05,-5.65558e-06,-4.46699e-05,0.597959,-0.23186977776012374,1.0108051085921943e-05,-5.655564007223113e-06,0.7760841052351226,-4.466890231491494e-05,-0.2657017516525173
787,0.7771,0.0107775,932.963,0.0124681,0.0210831,0.019997,-0.0267608,-0.264057,0.574974,-0.309141,1.01625e-05,-5.63317e-06,-4.47098e-05,0.598549,-0.2320702335875049,1.0162551638437378e-05,-5.633154133710683e-06,0.7770843221210035,-4.470880053175641e-05,-0.2659227421645294
788,0.7781,0.0107567,932.963,0.0124424,0.0211362,0.0199823,-0.0267349,-0.264318,0.575537,-0.309443,1.02171e-05,-5.61078e-06,-4.47496e-05,0.599139,-0.2322706371027422,1.0217152194735846e-05,-5.610764259644796e-06,0.7780851022875397,-4.474859875158721e-05,-0.26614440002437423
789,0.7791,0.0107733,932.963,0.0124672,0.0211893,0.0199669,-0.0267107,-0.264578,0.576099,-0.309745,1.02719e-05,-5.58842e-06,-4.47893e-05,0.599729,-0.23247022079009183,1.0271952756157887e-05,-5.588404384804235e-06,0.7790846669663913,-4.4788296974296316e-05,-0.2663659909536523
790,0.7801,0.0107037,932.962,0.0123915,0.0212456,0.0199468,-0.0266916,-0.264839,0.576661,-0.310046,1.03268e-05,-5.56615e-06,-4.48291e-05,0.600319,-0.23267051992229182,1.0326853321585006e-05,-5.5661345089719205e-06,0.7800847935584752,-4.482809519090747e-05,-0.26658678155972204
791,0.7811,0.0107076,932.962,0.0123859,0.0212923,0.0199389,-0.0266588,-0.265099,0.577223,-0.310347,1.03817e-05,-5.54373e-06,-4.48686e-05,0.600908,-0.2328699996536232,1.0381753890120748e-05,-5.543714633571284e-06,0.7810854823796753,-4.4867593419373186e-05,-0.2668075057178203
792,0.7821,0.0106674,932.962,0.0123483,0.0213511,0.0199176,-0.0266397,-0.26536,0.577784,-0.310648,1.04368e-05,-5.52151e-06,-4.49082e-05,0.601497,-0.23307019445715527,1.043685446355802e-05,-5.521494756521861e-06,0.7820849516602106,-4.4907191641851973e-05,-0.2670281634479449
793,0.7831,0.0107075,932.962,0.0123497,0.0214002,0.0199069,-0.0266135,-0.26562,0.578345,-0.310949,1.0492e-05,-5.49917e-06,-4.49477e-05,0.602085,-0.23326957028661544,1.0492055041222415e-05,-5.499154879573531e-06,0.7830849818003187,-4.494668986732009e-05,-0.2672487547700876
794,0.7841,0.0106545,932.962,0.0123201,0.0214571,0.0198846,-0.0265907,-0.26588,0.578906,-0.311249,1.05473e-05,-5.47701e-06,-4.49871e-05,0.602674,-0.23346889428509832,1.0547355622891885e-05,-5.476995001196805e-06,0.7840855731147303,-4.498608809555549e-05,-0.2674685471731476
795,0.7851,0.0106354,932.962,0.0123081,0.0215073,0.0198747,-0.0265664,-0.26614,0.579466,-0.31155,1.06027e-05,-5.4547e-06,-4.50265e-05,0.603261,-0.23366816646607802,1.0602756208788477e-05,-5.4546851231407345e-06,0.7850849408325187,-4.5025486322347597e-05,-0.26768900595973666
796,0.7861,0.0105997,932.962,0.012278,0.0215618,0.0198579,-0.0265426,-0.2664,0.580026,-0.31185,1.06582e-05,-5.4325e-06,-4.50658e-05,0.603849,-0.23386738684302566,1.0658256798912191e-05,-5.4324852439835425e-06,0.7860848683529591,-4.5064784552129034e-05,-0.2679086663072492
797,0.7871,0.0106087,932.962,0.0122909,0.0216138,0.0198439,-0.0265178,-0.266659,0.580586,-0.31215,1.07139e-05,-5.41029e-06,-4.51051e-05,0.604436,-0.23406578949558066,1.0713957393937434e-05,-5.410275364381434e-06,0.7870853559896291,-4.5104082780245136e-05,-0.26812826076654117
798,0.7881,0.0105856,932.962,0.0122434,0.0216691,0.0198257,-0.0264967,-0.266919,0.581145,-0.31245,1.07696e-05,-5.38815e-06,-4.51443e-05,0.605023,-0.23426490650397902,1.0769657992293347e-05,-5.388135483896939e-06,0.7880846159707711,-4.514328101146159e-05,-0.26834778935737613
799,0.7891,0.0105884,932.962,0.0122466,0.021719,0.0198132,-0.0264683,-0.267178,0.581704,-0.31275,1.08255e-05,-5.36595e-06,-4.51834e-05,0.60561,-0.2344632062122738,1.0825558595994877e-05,-5.365935603296457e-06,0.7890844346943966,-4.518237924555635e-05,-0.2685672520995116
800,0.7901,0.0105515,932.962,0.0121839,0.0217766,0.0197947,-0.0264515,-0.267437,0.582263,-0.313049,1.08815e-05,-5.34386e-06,-4.52226e-05,0.606196,-0.23466145456759457,1.0881559203701485e-05,-5.343845721594853e-06,0.7900848124729298,-4.5221577473664176e-05,-0.26878591779898275
801,0.7911,0.0105572,932.962,0.0122254,0.0218238,0.0197842,-0.026419,-0.267697,0.582822,-0.313349,1.09375e-05,-5.32168e-06,-4.52615e-05,0.606782,-0.2348604167232059,1.0937559814738762e-05,-5.321665839885803e-06,0.79108574961897,-4.526047571373759e-05,-0.2690052491222995
802,0.7921,0.0105281,932.962,0.0121762,0.0218839,0.0197639,-0.0264056,-0.267955,0.58338,-0.313648,1.09938e-05,-5.29965e-06,-4.53006e-05,0.607367,-0.23505779727250564,1.099386043201811e-05,-5.299635956856896e-06,0.7920854543589406,-4.5299573943280436e-05,-0.2692237838802375
803,0.7931,0.0105201,932.962,0.0121822,0.021931,0.0197524,-0.0263742,-0.268214,0.583938,-0.313947,1.105e-05,-5.27752e-06,-4.53394e-05,0.607953,-0.235255891648683,1.105006105150963e-05,-5.277506073930738e-06,0.7930857170898209,-4.533837218489989e-05,-0.26944225330605054
804,0.7941,0.0104623,932.962,0.012086,0.0219903,0.0197329,-0.0263593,-0.268473,0.584495,-0.314246,1.11065e-05,-5.25553e-06,-4.53784e-05,0.608537,-0.2354539347250605,1.1106561677465265e-05,-5.255516189683895e-06,0.7940847440374161,-4.537737041598877e-05,-0.26966065741927003
805,0.7951,0.0104835,932.962,0.0121088,0.0220357,0.0197252,-0.0263254,-0.268731,0.585052,-0.314545,1.11629e-05,-5.23338e-06,-4.5417e-05,0.609122,-0.23565116216646742,1.1162962305411028e-05,-5.233366305867904e-06,0.7950843275980233,-4.54159686636979e-05,-0.26987899623942135
806,0.7961,0.0104713,932.962,0.0121053,0.0220968,0.0197024,-0.0263114,-0.26899,0.585609,-0.314843,1.12196e-05,-5.21147e-06,-4.54559e-05,0.609706,-0.23584910288103733,1.1219662940042952e-05,-5.211456420295413e-06,0.7960844680817625,-4.54548668962218e-05,-0.27009653988292925
807,0.7971,0.0104911,932.962,0.0121386,0.0221444,0.0196929,-0.0262841,-0.269248,0.586166,-0.315142,1.12763e-05,-5.18939e-06,-4.54945e-05,0.61029,-0.2360462283822109,1.12763635777835e-05,-5.189376535152945e-06,0.797085165798926,-4.549346514093333e-05,-0.2703147483937062
808,0.7981,0.0104146,932.962,0.0120646,0.0222038,0.0196705,-0.0262673,-0.269506,0.586722,-0.31544,1.13333e-05,-5.16752e-06,-4.55333e-05,0.610874,-0.23624330303156538,1.1333364221988163e-05,-5.167506648362519e-06,0.7980846229744576,-4.553226337500327e-05,-0.2705321622024185
809,0.7991,0.0104285,932.962,0.0120878,0.0222502,0.0196637,-0.0262374,-0.269764,0.587278,-0.315738,1.13901e-05,-5.14544e-06,-4.55717e-05,0.611457,-0.23644032684221872,1.1390164867508545e-05,-5.1454267622208505e-06,0.7990846360026915,-4.5570661625804476e-05,-0.2707495112314684
810,0.8001,0.0103504,932.962,0.0119875,0.0223111,0.0196411,-0.0262234,-0.270022,0.587834,-0.316036,1.14473e-05,-5.12361e-06,-4.56104e-05,0.61204,-0.23663729982728576,1.1447365520611541e-05,-5.1235968743235105e-06,0.8000852051927678,-4.560935986153147e-05,-0.27096679550015734
811,0.8011,0.0104242,932.962,0.0120561,0.0223549,0.0196357,-0.0261892,-0.270279,0.588389,-0.316334,1.15043e-05,-5.10155e-06,-4.56487e-05,0.612623,-0.2368334588337181,1.1504366174808212e-05,-5.101536987073274e-06,0.8010845297685685,-4.564765811398974e-05,-0.2711840150277812
812,0.8021,0.0103731,932.962,0.012038,0.0224178,0.0196098,-0.0261759,-0.270537,0.588944,-0.316631,1.15618e-05,-5.0798e-06,-4.56872e-05,0.613205,-0.2370303304038145,1.1561866837928036e-05,-5.079787097850286e-06,0.8020844091234451,-4.568615635580642e-05,-0.2714004412344354
813,0.8031,0.0103757,932.962,0.0120145,0.0224645,0.0196028,-0.0261502,-0.270794,0.589499,-0.316929,1.16191e-05,-5.05781e-06,-4.57255e-05,0.613787,-0.23722638841436716,1.1619167501919492e-05,-5.0577972092735735e-06,0.8030848435653863,-4.5724454605267084e-05,-0.2716175315548832
814,0.8041,0.0102944,932.962,0.0119134,0.0225229,0.0195822,-0.0261315,-0.271051,0.590053,-0.317226,1.16767e-05,-5.03603e-06,-4.57639e-05,0.614369,-0.23742239604448534,1.1676768172819152e-05,-5.036017319270947e-06,0.8040840293176197,-4.576285284874082e-05,-0.271833829026247
815,0.8051,0.0103233,932.962,0.0119208,0.0225702,0.0195741,-0.0261022,-0.271309,0.590608,-0.317523,1.17342e-05,-5.01409e-06,-4.5802e-05,0.61495,-0.23761911568838068,1.1734268845930984e-05,-5.014077429477126e-06,0.8050855738567921,-4.580095110440219e-05,-0.2720500622668005
816,0.8061,0.0102804,932.962,0.0118815,0.0226295,0.0195532,-0.0260866,-0.271566,0.591161,-0.31782,1.17921e-05,-4.99234e-06,-4.58403e-05,0.615531,-0.23781502240055785,1.1792169527069518e-05,-4.992327538255736e-06,0.8060840622357262,-4.5839249349532984e-05,-0.27226623129561744
817,0.8071,0.0102618,932.962,0.0118732,0.0226793,0.0195406,-0.0260613,-0.271822,0.591715,-0.318117,1.18498e-05,-4.97051e-06,-4.58784e-05,0.616112,-0.23801011678167716,1.1849870209079683e-05,-4.970497647027727e-06,0.8070849100154416,-4.587734760230777e-05,-0.272482336131766
818,0.8081,0.0102961,932.962,0.0119342,0.0227346,0.0195256,-0.026042,-0.272079,0.592268,-0.318413,1.19078e-05,-4.94873e-06,-4.59165e-05,0.616692,-0.23820592301948496,1.1907870898220096e-05,-4.948717755026699e-06,0.8080845043330351,-4.591544585363927e-05,-0.27269764949232156
819,0.8091,0.0102305,932.962,0.0118586,0.02279,0.019507,-0.0260234,-0.272336,0.592821,-0.31871,1.19659e-05,-4.92702e-06,-4.59546e-05,0.617272,-0.2384016789415555,1.1965971591587632e-05,-4.927007862254307e-06,0.8090846515791572,-4.595354410352748e-05,-0.2729136262162912
820,0.8101,0.0102817,932.962,0.0119181,0.0228371,0.0195005,-0.0259931,-0.272592,0.593374,-0.319006,1.2024e-05,-4.90516e-06,-4.59925e-05,0.617852,-0.23859662315782215,1.2024072288507881e-05,-4.905147969691548e-06,0.8100853520596611,-4.59914423611707e-05,-0.27312881193387384
821,0.8111,0.0101809,932.962,0.0117448,0.0229015,0.0194747,-0.0259869,-0.272848,0.593926,-0.319302,1.20825e-05,-4.88358e-06,-4.60307e-05,0.618431,-0.2387915174747567,1.2082572993676877e-05,-4.8835680753755994e-06,0.8110847949948703,-4.6029640603628685e-05,-0.27334393396590995
822,0.8121,0.0102661,932.962,0.0119186,0.0229389,0.0194729,-0.0259408,-0.273104,0.594478,-0.319598,1.21406e-05,-4.86169e-06,-4.60681e-05,0.619011,-0.238986361905132,1.2140673697480509e-05,-4.861678182033202e-06,0.8120847897748751,-4.606703888132557e-05,-0.2735589923312478
823,0.8131,0.0101685,932.962,0.0117172,0.0230128,0.0194432,-0.0259503,-0.27336,0.59503,-0.319894,1.21995e-05,-4.84021e-06,-4.61065e-05,0.619589,-0.23918115646171723,1.219957441422892e-05,-4.840198286171216e-06,0.8130853367043773,-4.610543711169868e-05,-0.2737739870487298
824,0.8141,0.0101852,932.962,0.0118252,0.0230448,0.019443,-0.0258982,-0.273616,0.595581,-0.320189,1.22577e-05,-4.81835e-06,-4.61437e-05,0.620168,-0.23937590115727847,1.2257775125812387e-05,-4.818338391721078e-06,0.8140846220027194,-4.614263539581831e-05,-0.2739881921257482
825,0.8151,0.0101957,932.962,0.0117998,0.0231163,0.0194186,-0.0259015,-0.273872,0.596132,-0.320485,1.23168e-05,-4.79683e-06,-4.61819e-05,0.620746,-0.23957059600457842,1.2316875852125264e-05,-4.7968184951896475e-06,0.8150844580589802,-4.618083363250314e-05,-0.2742030598188916
826,0.8161,0.0101771,932.962,0.0117914,0.0231609,0.0194055,-0.025871,-0.274127,0.596683,-0.32078,1.23755e-05,-4.77518e-06,-4.62194e-05,0.621324,-0.23976448078123758,1.2375576576850733e-05,-4.775168598869506e-06,0.8160848451767118,-4.621833189999425e-05,-0.2744171383381109
827,0.8171,0.0101158,932.962,0.0117237,0.023217,0.0193919,-0.0258513,-0.274383,0.597234,-0.321075,1.24345e-05,-4.75355e-06,-4.6257e-05,0.621901,-0.23995907616488577,1.2434577308706452e-05,-4.753538701884885e-06,0.8170857836596326,-4.6255930161498426e-05,-0.27463115371348124
828,0.8181,0.0100887,932.962,0.0116919,0.0232688,0.0193794,-0.0258288,-0.274638,0.597784,-0.32137,1.24935e-05,-4.73193e-06,-4.62946e-05,0.622478,-0.24015286189173346,1.2493578044114884e-05,-4.731918804457003e-06,0.8180854557252633,-4.6293528421559316e-05,-0.2748451059636272
829,0.8191,0.010067,932.962,0.0116798,0.023323,0.0193629,-0.0258067,-0.274893,0.598334,-0.321665,1.25527e-05,-4.71038e-06,-4.63321e-05,0.623055,-0.24034659820952076,1.2552778785535068e-05,-4.7103689061467335e-06,0.8190856777617583,-4.633102668483158e-05,-0.27505899510716814
830,0.8201,0.010103,932.962,0.011707,0.0233768,0.0193499,-0.0257888,-0.275148,0.598883,-0.321959,1.2612e-05,-4.6888e-06,-4.63696e-05,0.623632,-0.24054028513084535,1.2612079531626463e-05,-4.688789007611938e-06,0.8200846299861446,-4.636852494666055e-05,-0.27527209643517647
831,0.8211,0.0100818,932.962,0.0116607,0.0234338,0.0193302,-0.0257732,-0.275403,0.599432,-0.322254,1.26714e-05,-4.66734e-06,-4.64071e-05,0.624208,-0.24073392266830163,1.2671480282611114e-05,-4.6673291079768475e-06,0.8210841307858723,-4.6406023207157254e-05,-0.27548585963510586
832,0.8221,0.0100959,932.962,0.0116887,0.0234824,0.0193206,-0.0257456,-0.275658,0.599981,-0.322548,1.27308e-05,-4.64576e-06,-4.64444e-05,0.624784,-0.24092751083448105,1.2730881036926434e-05,-4.645749208442851e-06,0.8220841804621919,-4.6443321475519994e-05,-0.27569883548338936
833,0.8231,0.0100031,932.962,0.011607,0.0235406,0.0193021,-0.0257299,-0.275912,0.60053,-0.322842,1.27905e-05,-4.62432e-06,-4.64818e-05,0.62536,-0.24112029076264174,1.2790581798816092e-05,-4.624309307810215e-06,0.8230847793165195,-4.6480719737895804e-05,-0.275911748725977
834,0.8241,0.00999676,932.962,0.011566,0.02359,0.0192926,-0.0257058,-0.276167,0.601078,-0.323136,1.28502e-05,-4.60277e-06,-4.6519e-05,0.625935,-0.24131378041751783,1.2850282564258464e-05,-4.6027594072795e-06,0.8240841035654207,-4.651791800813765e-05,-0.276124599381272
835,0.8251,0.0100658,932.962,0.0116455,0.0236461,0.0192761,-0.0256873,-0.276421,0.601627,-0.32343,1.291e-05,-4.58134e-06,-4.65562e-05,0.62651,-0.24150646224566363,1.2910083334372047e-05,-4.58132950564849e-06,0.8250858006789763,-4.6555116276936204e-05,-0.27633738746767256
836,0.8261,0.00997684,932.962,0.0115657,0.0237032,0.0192548,-0.0256724,-0.276675,0.602174,-0.323723,1.297e-05,-4.56e-06,-4.65935e-05,0.627085,-0.24169909513884014,1.2970084110719426e-05,-4.559989603247772e-06,0.8260843957027877,-4.659241453974783e-05,-0.2765493895533223
837,0.8271,0.00992475,932.962,0.0115127,0.0237506,0.01925,-0.0256464,-0.276929,0.602722,-0.324017,1.303e-05,-4.53845e-06,-4.66306e-05,0.627659,-0.24189167910947518,1.3030084890841565e-05,-4.5384397012737665e-06,0.8270853641919493,-4.662951281042549e-05,-0.27676205276976895
838,0.8281,0.00990045,932.962,0.0114767,0.0238082,0.0192324,-0.0256289,-0.277183,0.603269,-0.32431,1.30902e-05,-4.51708e-06,-4.66677e-05,0.628233,-0.2420842141699936,1.3090285676975455e-05,-4.517069797982387e-06,0.8280850532762005,-4.66666110798819e-05,-0.2769739304467119
839,0.8291,0.00988784,932.962,0.0114552,0.0238604,0.0192183,-0.0256082,-0.277437,0.603816,-0.324603,1.31504e-05,-4.49569e-06,-4.67047e-05,0.628807,-0.2422767003328169,1.3150486466884104e-05,-4.495679894356286e-06,0.8290852893399661,-4.670360935243867e-05,-0.2771857460525895
840,0.8301,0.00991878,932.962,0.0114976,0.023915,0.0192034,-0.0255893,-0.277691,0.604362,-0.324896,1.32108e-05,-4.47434e-06,-4.67417e-05,0.62938,-0.24246913761036348,1.321088726302655e-05,-4.474329990178383e-06,0.8300842425973678,-4.674060762377419e-05,-0.2773974996055857
841,0.8311,0.00993095,932.962,0.0114367,0.0239717,0.0191865,-0.0255764,-0.277944,0.604909,-0.325189,1.32714e-05,-4.45303e-06,-4.67788e-05,0.629953,-0.24266076867619613,1.3271488065402792e-05,-4.453020085226633e-06,0.8310855725168345,-4.6777705889011756e-05,-0.2776091911238793
842,0.8321,0.0099077,932.962,0.0114855,0.0240195,0.0191752,-0.0255447,-0.278197,0.605455,-0.325481,1.33319e-05,-4.43166e-06,-4.68155e-05,0.630526,-0.24285235126550153,1.3331988870213252e-05,-4.431650180158897e-06,0.8320856182270633,-4.6814404171535706e-05,-0.27782009844610356
843,0.8331,0.00989185,932.962,0.0114387,0.0240818,0.0191561,-0.02554,-0.278451,0.606,-0.325774,1.33927e-05,-4.41042e-06,-4.68526e-05,0.631098,-0.24304464234627898,1.339278968259805e-05,-4.410410274102716e-06,0.8330843770260485,-4.685150243410874e-05,-0.278031666161075
844,0.8341,0.00988601,932.962,0.0114265,0.0241261,0.0191501,-0.0255082,-0.278704,0.606546,-0.326066,1.34534e-05,-4.38902e-06,-4.68892e-05,0.631671,-0.24323612782783055,1.3453490497417064e-05,-4.389010368255342e-06,0.8340855143815316,-4.6888100718622816e-05,-0.2782424501385976
845,0.8351,0.00986757,932.962,0.0114074,0.0241882,0.019129,-0.0254983,-0.278957,0.607091,-0.326358,1.35145e-05,-4.36784e-06,-4.69261e-05,0.632242,-0.2434275648696832,1.3514591321373004e-05,-4.36783046098288e-06,0.8350853634209845,-4.692499898784064e-05,-0.27845317257618396
846,0.8361,0.00980244,932.961,0.0113548,0.0242385,0.0191152,-0.0254761,-0.27921,0.607636,-0.32665,1.35755e-05,-4.34659e-06,-4.69628e-05,0.632814,-0.24361895348409057,1.3575592147541116e-05,-4.346580553593604e-06,0.8360857575266807,-4.6961697264924496e-05,-0.27866383349180124
847,0.8371,0.00975921,932.961,0.0113156,0.0242934,0.0191023,-0.0254586,-0.279462,0.60818,-0.326942,1.36366e-05,-4.32534e-06,-4.69995e-05,0.633385,-0.24380953749321888,1.3636692978824527e-05,-4.325330645760239e-06,0.8370848599099845,-4.699839554078711e-05,-0.2788744329034112
848,0.8381,0.00981811,932.962,0.0114162,0.0243443,0.0190911,-0.0254344,-0.279715,0.608724,-0.327234,1.36978e-05,-4.30408e-06,-4.7036e-05,0.633956,-0.24400082948077628,1.3697893815223239e-05,-4.3040707374819576e-06,0.8380845059528466,-4.70348938247378e-05,-0.2790849708289703
849,0.8391,0.00986158,932.962,0.0114114,0.0244038,0.019073,-0.0254256,-0.279967,0.609268,-0.327525,1.37593e-05,-4.28294e-06,-4.70728e-05,0.634527,-0.24419131726927779,1.3759394659640378e-05,-4.282930828214404e-06,0.8390846959510982,-4.707169209317019e-05,-0.2792947265815169
850,0.8401,0.00973175,932.961,0.0112473,0.0244576,0.0190543,-0.0254066,-0.280219,0.609812,-0.327816,1.38208e-05,-4.26183e-06,-4.71093e-05,0.635097,-0.24438175706090426,1.3820895507610231e-05,-4.261820918394221e-06,0.8400854302007321,-4.710819037434533e-05,-0.27950442130401976
851,0.8411,0.00968577,932.961,0.0112258,0.0245064,0.0190473,-0.0253797,-0.280472,0.610355,-0.328108,1.38823e-05,-4.24058e-06,-4.71457e-05,0.635667,-0.24457290429522316,1.3882396359576887e-05,-4.2405710087844994e-06,0.8410848679121128,-4.714458865895388e-05,-0.2797147752998209
852,0.8421,0.00980404,932.961,0.0113212,0.0245618,0.0190365,-0.0253637,-0.280724,0.610898,-0.328399,1.3944e-05,-4.21939e-06,-4.71822e-05,0.636237,-0.24476324793903437,1.3944097217999385e-05,-4.219381098402586e-06,0.8420848484655392,-4.718108693746448e-05,-0.2799243478059301
853,0.8431,0.00962029,932.961,0.0111807,0.0246232,0.0190081,-0.0253546,-0.280975,0.611441,-0.32869,1.40059e-05,-4.19846e-06,-4.72188e-05,0.636806,-0.24495278857545666,1.4005998083099769e-05,-4.198451186487873e-06,0.8430853721558542,-4.721768520998815e-05,-0.28013385933531265
854,0.8441,0.00976814,932.961,0.0113131,0.0246638,0.0190133,-0.0253225,-0.281227,0.611983,-0.32898,1.40676e-05,-4.1771e-06,-4.72549e-05,0.637375,-0.2451430365004903,1.4067698949071783e-05,-4.177091275980871e-06,0.8440845951925444,-4.725378350478593e-05,-0.28034259024866015
855,0.8451,0.00960016,932.961,0.0111388,0.0247358,0.0189768,-0.0253229,-0.281479,0.612525,-0.329271,1.413e-05,-4.15632e-06,-4.72916e-05,0.637944,-0.24533323648908711,1.4130099828868481e-05,-4.1563113625242565e-06,0.8450843599549147,-4.729048176987938e-05,-0.2805519800871986
856,0.8461,0.00966247,932.961,0.0111816,0.0247716,0.018984,-0.0252877,-0.28173,0.613067,-0.329561,1.41918e-05,-4.13497e-06,-4.73276e-05,0.638512,-0.2455226340763368,1.4191900704174643e-05,-4.1349614510188815e-06,0.8460846667366604,-4.732648006677831e-05,-0.28076058976310836
857,0.8471,0.00964645,932.961,0.0111754,0.0248394,0.0189557,-0.0252803,-0.281982,0.613609,-0.329851,1.42543e-05,-4.11411e-06,-4.7364e-05,0.63908,-0.24571273841839636,1.4254401593083443e-05,-4.1141015371115586e-06,0.847085515831635,-4.736287834350428e-05,-0.2809691389509832
858,0.8481,0.00970175,932.961,0.0112305,0.0248856,0.0189489,-0.0252579,-0.282233,0.61415,-0.330141,1.43165e-05,-4.09299e-06,-4.74001e-05,0.639648,-0.24590204076261535,1.4316602481523333e-05,-4.092981623737835e-06,0.8480850594478693,-4.739897663297299e-05,-0.2811776276683623
859,0.8491,0.00960657,932.961,0.0110689,0.0249475,0.0189281,-0.0252497,-0.282484,0.614691,-0.330431,1.43791e-05,-4.07208e-06,-4.74365e-05,0.640216,-0.24609129559790854,1.4379203379766281e-05,-4.072071709049219e-06,0.8490851439634999,-4.743537490703442e-05,-0.2813860559327793
860,0.8501,0.00971677,932.961,0.0112789,0.0249896,0.0189254,-0.025214,-0.282735,0.615232,-0.330721,1.44415e-05,-4.05093e-06,-4.74723e-05,0.640783,-0.24628050293619907,1.444160427888086e-05,-4.050921795006879e-06,0.8500857696712327,-4.7471173208246675e-05,-0.28159442376176336
861,0.8511,0.00957407,932.961,0.0110426,0.0250641,0.0188927,-0.0252272,-0.282986,0.615772,-0.331011,1.45045e-05,-4.03022e-06,-4.75089e-05,0.64135,-0.2464696627894074,1.4504605190701625e-05,-4.030211878669476e-06,0.8510850857779206,-4.75077714701122e-05,-0.28180273117283794
862,0.8521,0.00964215,932.961,0.0112366,0.0250926,0.0189001,-0.025173,-0.283236,0.616312,-0.3313,1.45669e-05,-4.00898e-06,-4.75443e-05,0.641916,-0.24665802182784924,1.456700609780981e-05,-4.008971964064578e-06,0.8520849416610325,-4.754316978772266e-05,-0.282010260194141
863,0.8531,0.00963019,932.961,0.0111298,0.0251724,0.0188698,-0.0251925,-0.283487,0.616852,-0.331589,1.46302e-05,-3.98826e-06,-4.7581e-05,0.642483,-0.24684708693570678,1.463030702186785e-05,-3.988252046949192e-06,0.8530853376121268,-4.757986804215797e-05,-0.2822177292482225
864,0.8541,0.00958982,932.961,0.0111276,0.0252062,0.018866,-0.025147,-0.283737,0.617391,-0.331878,1.46929e-05,-3.96721e-06,-4.76165e-05,0.643049,-0.24703535162990553,1.469300794121331e-05,-3.967202130583658e-06,0.8540844198375717,-4.761536635244923e-05,-0.2824251383524107
865,0.8551,0.00945385,932.961,0.0109891,0.0252754,0.0188444,-0.0251492,-0.283987,0.61793,-0.332167,1.47563e-05,-3.94642e-06,-4.76527e-05,0.643614,-0.2472235692638135,1.4756408874827542e-05,-3.946412212907369e-06,0.8550840407134892,-4.765156462815945e-05,-0.28263248752402836
866,0.8561,0.00956974,932.961,0.0111648,0.0253159,0.0188428,-0.025116,-0.284238,0.618469,-0.332456,1.48193e-05,-3.92537e-06,-4.76884e-05,0.64418,-0.2474124924370782,1.4819409806410277e-05,-3.925362295764678e-06,0.8560842005302907,-4.7687262926365825e-05,-0.2828397767803936
867,0.8571,0.00940211,932.961,0.0109057,0.0253893,0.01881,-0.0251251,-0.284488,0.619008,-0.332745,1.48829e-05,-3.90476e-06,-4.77247e-05,0.644745,-0.2476006157975691,1.4883010750921244e-05,-3.904752376437948e-06,0.8570848995785427,-4.7723561194645825e-05,-0.2830470061388195
868,0.8581,0.00959381,932.961,0.0111508,0.0254162,0.0188225,-0.0250701,-0.284737,0.619546,-0.333033,1.49459e-05,-3.88356e-06,-4.77598e-05,0.64531,-0.24778793992141424,1.4946011690497585e-05,-3.883552458949779e-06,0.8580842800637614,-4.77586595188928e-05,-0.2832534588704312
869,0.8591,0.0094508,932.961,0.010924,0.0255062,0.018775,-0.0251012,-0.284987,0.620084,-0.333322,1.50101e-05,-3.86319e-06,-4.77964e-05,0.645874,-0.2479759694317657,1.501021265215563e-05,-3.86318253786655e-06,0.8590841983603388,-4.779525777032223e-05,-0.28346056869200686
870,0.8601,0.00950613,932.961,0.011103,0.0255263,0.0187884,-0.0250415,-0.285237,0.620622,-0.33361,1.50732e-05,-3.84202e-06,-4.78314e-05,0.646438,-0.24816395194061514,1.5073313601288163e-05,-3.842012619492685e-06,0.8600846547576964,-4.7830256096781376e-05,-0.2836669023347528
871,0.8611,0.00939493,932.961,0.0109414,0.0256097,0.0187563,-0.0250625,-0.285486,0.62116,-0.333898,1.51375e-05,-3.82149e-06,-4.78678e-05,0.647002,-0.24835113581122292,1.51376145725024e-05,-3.82148269806315e-06,0.8610856495454096,-4.7866654355188665e-05,-0.28387317656196587
872,0.8621,0.00946071,932.961,0.0109805,0.0256399,0.0187614,-0.0250176,-0.285736,0.621697,-0.334186,1.52009e-05,-3.80046e-06,-4.7903e-05,0.647565,-0.24853902454020038,1.5201015534316298e-05,-3.800452778257579e-06,0.8620853209269586,-4.790185266956293e-05,-0.28407939139075533
873,0.8631,0.00929504,932.961,0.0107854,0.0257145,0.0187277,-0.0250211,-0.285985,0.622234,-0.334473,1.52653e-05,-3.77998e-06,-4.7939e-05,0.648129,-0.24872611502935726,1.5265416515308772e-05,-3.7799728558329804e-06,0.8630855292762023,-4.793785094447944e-05,-0.2842848311234144
874,0.8641,0.00945508,932.961,0.0110002,0.0257483,0.0187365,-0.0249835,-0.286234,0.62277,-0.334761,1.53291e-05,-3.75893e-06,-4.79742e-05,0.648692,-0.24891315893878185,1.5329217491144576e-05,-3.7589229352485987e-06,0.8640844107962273,-4.797304925652224e-05,-0.2844909274127606
875,0.8651,0.00933779,932.961,0.0107967,0.0258288,0.0186976,-0.0250018,-0.286483,0.623307,-0.335048,1.53937e-05,-3.73856e-06,-4.80104e-05,0.649254,-0.24910015628007098,1.5393818483699917e-05,-3.738553011611856e-06,0.8650856929450201,-4.800924751924285e-05,-0.2846962490515287
876,0.8661,0.00941562,932.961,0.0109606,0.0258561,0.0187054,-0.0249493,-0.286732,0.623843,-0.335335,1.54576e-05,-3.71757e-06,-4.80453e-05,0.649817,-0.2492871070648186,1.5457719469313957e-05,-3.7175630898111933e-06,0.8660856468401423,-4.8044145843029185e-05,-0.28490151177144163
877,0.8671,0.00922556,932.961,0.0107062,0.0259382,0.0186709,-0.0249703,-0.28698,0.624378,-0.335622,1.55225e-05,-3.69718e-06,-4.80814e-05,0.650379,-0.24947326077825194,1.5522620474550664e-05,-3.6971731653956397e-06,0.867084269769016,-4.808024410796197e-05,-0.2851067155894068
878,0.8681,0.00942014,932.961,0.0109099,0.0259635,0.0186849,-0.0249191,-0.287229,0.624914,-0.335909,1.55866e-05,-3.67614e-06,-4.81162e-05,0.65094,-0.24966011867154503,1.558672147172757e-05,-3.6761332430357285e-06,0.8680852951884588,-4.811504243418252e-05,-0.2853118605223267
879,0.8691,0.00920567,932.961,0.0106867,0.0260521,0.0186345,-0.0249426,-0.287477,0.625449,-0.336196,1.56518e-05,-3.656e-06,-4.81524e-05,0.651502,-0.2498461798895698,1.565192249008973e-05,-3.655993316864503e-06,0.8690849882154246,-4.8151240691796104e-05,-0.2855169465870988
880,0.8701,0.00937617,932.961,0.0109673,0.0260695,0.0186607,-0.0248861,-0.287726,0.625984,-0.336483,1.57159e-05,-3.63484e-06,-4.8187e-05,0.652063,-0.2500329449375638,1.571602349548229e-05,-3.6348333939395516e-06,0.8700852162212538,-4.818583902521656e-05,-0.2857219738006158
881,0.8711,0.00913143,932.961,0.010569,0.0261658,0.0186083,-0.0249228,-0.287974,0.626518,-0.336769,1.57815e-05,-3.61476e-06,-4.82233e-05,0.652624,-0.2502189137061389,1.578162452853249e-05,-3.61475346677409e-06,0.871084108407193,-4.822213727539992e-05,-0.2859262281063508
882,0.8721,0.00927486,932.961,0.0107848,0.0261723,0.0186372,-0.0248436,-0.288222,0.627053,-0.337055,1.58457e-05,-3.59359e-06,-4.82575e-05,0.653184,-0.25040483636017774,1.5845825543703285e-05,-3.593583543071155e-06,0.8720854062284749,-4.825633562555165e-05,-0.28613042400370725
883,0.8731,0.00912372,932.961,0.0105671,0.0262766,0.0185791,-0.0248898,-0.28847,0.627587,-0.337341,1.59116e-05,-3.57362e-06,-4.82939e-05,0.653745,-0.25059071291111545,1.5911726590100983e-05,-3.573613614582527e-06,0.8730853668011118,-4.8292733868415816e-05,-0.2863345615093874
884,0.8741,0.0091876,932.961,0.0107071,0.0262901,0.0186008,-0.0248306,-0.288718,0.62812,-0.337627,1.59762e-05,-3.5526e-06,-4.83284e-05,0.654305,-0.250776543370384,1.5976327620181863e-05,-3.5525936895597354e-06,0.8740839874103676,-4.8327232201716974e-05,-0.28653864064008894
885,0.8751,0.0092483,932.961,0.0107483,0.0263723,0.0185702,-0.024845,-0.288965,0.628654,-0.337913,1.60419e-05,-3.53228e-06,-4.83641e-05,0.654864,-0.25096157871136626,1.6042028671892083e-05,-3.5322737614862376e-06,0.8750850155103602,-4.836293047572049e-05,-0.2867426614125047
886,0.8761,0.00925917,932.961,0.0107541,0.0264143,0.0185603,-0.0248185,-0.289213,0.629187,-0.338199,1.61072e-05,-3.51172e-06,-4.83991e-05,0.655424,-0.2511473172073203,1.6107329721570807e-05,-3.5117138339479936e-06,0.8760847022164677,-4.8397928782417665e-05,-0.2869466238433229
887,0.8771,0.00931766,932.961,0.010765,0.0264756,0.0185441,-0.0248107,-0.28946,0.62972,-0.338484,1.61728e-05,-3.49126e-06,-4.84344e-05,0.655983,-0.25133226097847416,1.617293078037818e-05,-3.4912539055298453e-06,0.8770849218976147,-4.8433227073374496e-05,-0.2871498150993982
888,0.8781,0.0091601,932.961,0.0106691,0.0265301,0.0185259,-0.0247948,-0.289707,0.630253,-0.33877,1.62385e-05,-3.47086e-06,-4.84695e-05,0.656541,-0.2515171590741576,1.6238631845189033e-05,-3.47085397656155e-06,0.8780856748379529,-4.8468325372752474e-05,-0.2873536611009121
889,0.8791,0.00925035,932.961,0.0107023,0.0265794,0.0185258,-0.0247771,-0.289954,0.630785,-0.339055,1.63041e-05,-3.45021e-06,-4.85046e-05,0.6571,-0.2517020115056512,1.6304232912656147e-05,-3.4502040480166585e-06,0.8790850822357632,-4.850342367090921e-05,-0.28755673636789825
890,0.8801,0.00913252,932.961,0.010625,0.0266446,0.0184971,-0.0247732,-0.290201,0.631317,-0.33934,1.63702e-05,-3.42998e-06,-4.85398e-05,0.657658,-0.25188681828423254,1.6370333992377084e-05,-3.429974117619139e-06,0.8800850214597622,-4.853862196296799e-05,-0.28775975376667984
891,0.8811,0.00909783,932.961,0.0104729,0.0266884,0.0185001,-0.0247515,-0.290448,0.631849,-0.339625,1.6436e-05,-3.40933e-06,-4.85748e-05,0.658216,-0.25207157942117653,1.6436135071851155e-05,-3.409324188186069e-06,0.881085492792957,-4.8573620263558936e-05,-0.2879627133137471
892,0.8821,0.00899764,932.961,0.0105292,0.0267464,0.0184765,-0.0247273,-0.290695,0.63238,-0.33991,1.65021e-05,-3.38905e-06,-4.86096e-05,0.658773,-0.25225629492775536,1.6502236160453876e-05,-3.389044257229301e-06,0.8820846144329495,-4.860841857257103e-05,-0.28816561502558535
893,0.8831,0.00915359,932.961,0.0105712,0.0268017,0.0184757,-0.0247295,-0.290942,0.632911,-0.340194,1.65683e-05,-3.36848e-06,-4.86448e-05,0.659331,-0.25244096481523826,1.6568437255060076e-05,-3.3684743266926276e-06,0.8830842667474141,-4.8643616860855055e-05,-0.2883677472867784
894,0.8841,0.00924276,932.961,0.0107531,0.0268589,0.0184463,-0.0247077,-0.291188,0.633442,-0.340479,1.66346e-05,-3.34832e-06,-4.86797e-05,0.659888,-0.25262484172010713,1.6634738355669754e-05,-3.3483143944135207e-06,0.8840844500182143,-4.8678515162658975e-05,-0.2885705335803822
895,0.8851,0.00895735,932.961,0.010541,0.0269238,0.018425,-0.0247163,-0.291434,0.633973,-0.340763,1.67012e-05,-3.32809e-06,-4.8715e-05,0.660444,-0.25280867339682067,1.6701339465852172e-05,-3.3280844619065775e-06,0.8850851645273627,-4.87138134436238e-05,-0.2887725508610337
896,0.8861,0.00918184,932.961,0.0106295,0.0269584,0.0184434,-0.0246816,-0.291681,0.634503,-0.341047,1.67674e-05,-3.30731e-06,-4.87495e-05,0.661001,-0.25299320686367033,1.6767540573559003e-05,-3.3073045309084392e-06,0.8860845244715541,-4.8748311762381036e-05,-0.2889745107769237
897,0.8871,0.00906879,932.961,0.0105831,0.0270327,0.0183983,-0.0246754,-0.291927,0.635033,-0.341331,1.68344e-05,-3.28742e-06,-4.87845e-05,0.661557,-0.2531769479337036,1.683454169931764e-05,-3.2874145964312262e-06,0.8870844142169008,-4.878331005564451e-05,-0.2891764133443414
898,0.8881,0.00914207,932.961,0.0105136,0.0270761,0.0184067,-0.0246661,-0.292173,0.635563,-0.341615,1.69009e-05,-3.26683e-06,-4.88195e-05,0.662112,-0.2533606438089929,1.6901042821038104e-05,-3.2668246638944964e-06,0.8880848340442717,-4.881830834757572e-05,-0.28937825857957156
899,0.8891,0.00899898,932.961,0.0105788,0.0271344,0.0183785,-0.0246384,-0.292419,0.636093,-0.341899,1.69679e-05,-3.24675e-06,-4.8854e-05,0.662668,-0.25354429450065463,1.6968043955678525e-05,-3.2467447292905405e-06,0.8890857842346851,-4.8852806662780246e-05,-0.28958004649889413
900,0.8901,0.00902877,932.961,0.0104817,0.0271946,0.0183748,-0.0246513,-0.292664,0.636622,-0.342182,1.70349e-05,-3.22635e-06,-4.88893e-05,0.663223,-0.25372715374732957,1.7035045094759838e-05,-3.2263447953262414e-06,0.8900853749829878,-4.888810493763884e-05,-0.2897810669000065
901,0.8911,0.00906161,932.961,0.0105028,0.02724,0.0183601,-0.024613,-0.29291,0.637151,-0.342465,1.71018e-05,-3.20612e-06,-4.89236e-05,0.663778,-0.25391071428863554,1.7101946236719456e-05,-3.2061148603768075e-06,0.891085494654684,-4.892240326015429e-05,-0.2899820304203945
902,0.8921,0.00894563,932.961,0.0105059,0.0273065,0.0183382,-0.0246164,-0.293155,0.637679,-0.342749,1.71692e-05,-3.18601e-06,-4.89586e-05,0.664333,-0.25409348377345864,1.7169347391599032e-05,-3.1860049246601463e-06,0.8920842514444511,-4.895740154731154e-05,-0.2901836468928609
903,0.8931,0.0089852,932.961,0.0104502,0.0273525,0.0183431,-0.0246037,-0.293401,0.638208,-0.343032,1.72363e-05,-3.16555e-06,-4.89934e-05,0.664887,-0.2542769542086616,1.7236448545787653e-05,-3.165544989691682e-06,0.8930854288015286,-4.899219984300096e-05,-0.29038449649923037
904,0.8941,0.00884512,932.961,0.0103634,0.0274135,0.0183113,-0.0245821,-0.293646,0.638736,-0.343315,1.73038e-05,-3.1456e-06,-4.90279e-05,0.665441,-0.25445963397569527,1.730394971155569e-05,-3.1455950526559917e-06,0.8940852418353489,-4.902669815209926e-05,-0.2905852892732035
905,0.8951,0.00909803,932.961,0.0105975,0.0274627,0.0183149,-0.0245731,-0.293891,0.639264,-0.343597,1.73713e-05,-3.12519e-06,-4.90626e-05,0.665995,-0.2546422689916682,1.737145088198666e-05,-3.1251851165814415e-06,0.8950855829098419,-4.9061396450333916e-05,-0.290785316016532
906,0.8961,0.00889422,932.961,0.0103863,0.0275313,0.0182832,-0.0245763,-0.294136,0.639791,-0.34388,1.74391e-05,-3.10528e-06,-4.90975e-05,0.666548,-0.25482485926754317,1.7439252061990373e-05,-3.1052751786608823e-06,0.8960845562183819,-4.909629473748289e-05,-0.2909859953746309
907,0.8971,0.00911222,932.961,0.0105511,0.027572,0.0182864,-0.0245483,-0.294381,0.640318,-0.344162,1.75066e-05,-3.08492e-06,-4.91319e-05,0.667101,-0.25500740481427997,1.7506753241525175e-05,-3.0849152415912684e-06,0.8970840561246018,-4.9130693048016205e-05,-0.29118590913477016
908,0.8981,0.00897158,932.961,0.0104332,0.027641,0.0182575,-0.0245478,-0.294625,0.640845,-0.344445,1.75747e-05,-3.06501e-06,-4.91667e-05,0.667654,-0.2551891608323693,1.757485443598661e-05,-3.065005302893553e-06,0.8980840829060917,-4.91654913375994e-05,-0.29138647514105653
909,0.8991,0.00898645,932.961,0.0103825,0.0276872,0.0182553,-0.0245308,-0.29487,0.641372,-0.344727,1.76425e-05,-3.04476e-06,-4.92011e-05,0.668207,-0.2553716171361555,1.7642655629757087e-05,-3.0447553647228176e-06,0.899084636840588,-4.919988964569022e-05,-0.2915862759818242
910,0.9001,0.0090274,932.961,0.010544,0.0277452,0.0182363,-0.0245133,-0.295114,0.641899,-0.345009,1.77106e-05,-3.02474e-06,-4.92356e-05,0.668759,-0.2555532842972793,1.7710756833544394e-05,-3.0247354254608894e-06,0.9000857182059736,-4.923438794768309e-05,-0.29178602048669844
911,0.9011,0.00887716,932.961,0.0102532,0.0278095,0.0182218,-0.0245272,-0.295359,0.642425,-0.345291,1.77789e-05,-3.0047e-06,-4.92706e-05,0.669311,-0.25573565140174404,1.77790580455639e-05,-3.0046954858642394e-06,0.9010854261939012,-4.9269386223960154e-05,-0.2919857086715638
912,0.9021,0.00872009,932.96,0.0102209,0.0278417,0.0182277,-0.024474,-0.295603,0.642951,-0.345572,1.78468e-05,-2.98437e-06,-4.93043e-05,0.669863,-0.2559172297493427,1.784695925510782e-05,-2.9843655467987062e-06,0.9020856601665523,-4.930308456296828e-05,-0.2921846327372869
913,0.9031,0.00875079,932.96,0.0102349,0.0279227,0.0181964,-0.0244995,-0.295847,0.643476,-0.345854,1.79156e-05,-2.96457e-06,-4.93394e-05,0.670414,-0.2560987637972294,1.7915760485376353e-05,-2.9645656056676017e-06,0.9030845173151987,-4.9338182831815125e-05,-0.29238420852934566
914,0.9041,0.00888853,932.96,0.0102113,0.0279665,0.0181892,-0.0244812,-0.296091,0.644002,-0.346135,1.7984e-05,-2.94447e-06,-4.93738e-05,0.670965,-0.25628025355621176,1.79841617131693e-05,-2.9444656650667866e-06,0.9040858030863783,-4.9372581134021765e-05,-0.2925830206323403
915,0.9051,0.00885243,932.961,0.0103677,0.0280198,0.0181725,-0.0244504,-0.296335,0.644527,-0.346417,1.80525e-05,-2.92452e-06,-4.94079e-05,0.671516,-0.25646169903709526,1.8052662947409814e-05,-2.924515723590204e-06,0.9050857105857506,-4.9406679449859325e-05,-0.29278248409485186
916,0.9061,0.00900709,932.961,0.0104265,0.0280851,0.0181658,-0.0244701,-0.296578,0.645051,-0.346698,1.81214e-05,-2.90444e-06,-4.94428e-05,0.672067,-0.25664235689341064,1.812156419345179e-05,-2.9044357821028655e-06,0.906084237089194,-4.944157772490687e-05,-0.29298118429813524
917,0.9071,0.00885859,932.961,0.0103072,0.0281407,0.0181345,-0.0244497,-0.296822,0.645576,-0.346979,1.81903e-05,-2.88473e-06,-4.94771e-05,0.672617,-0.256823714031858,1.819046544460079e-05,-2.8847258392028508e-06,0.9070851940418752,-4.9475876028437504e-05,-0.2931798286745054
918,0.9081,0.00910336,932.961,0.0105593,0.0281814,0.0181503,-0.024423,-0.297065,0.6461,-0.34726,1.8259e-05,-2.86439e-06,-4.95111e-05,0.673167,-0.25700428392921726,1.825916669662142e-05,-2.8643858976939995e-06,0.9080847685492024,-4.950987434571008e-05,-0.29337841723964775
919,0.9091,0.00878455,932.96,0.010108,0.0282662,0.0181036,-0.0244506,-0.297309,0.646624,-0.34754,1.83285e-05,-2.84492e-06,-4.95462e-05,0.673716,-0.25718555276824073,1.8328667968026124e-05,-2.8449159532595303e-06,0.9090848669708249,-4.9544972607340476e-05,-0.2935762435858398
920,0.9101,0.00856114,932.96,0.00993202,0.0282908,0.0181175,-0.0244003,-0.297552,0.647148,-0.347821,1.83972e-05,-2.82464e-06,-4.95798e-05,0.674266,-0.2573660347494693,1.8397369229594673e-05,-2.8246360107564428e-06,0.9100854895813459,-4.957857094201046e-05,-0.2937747207740412
921,0.9111,0.00877277,932.961,0.0103403,0.0283509,0.0181126,-0.0243844,-0.297795,0.647671,-0.348101,1.84665e-05,-2.80461e-06,-4.9614e-05,0.674815,-0.25754647287890453,1.846667050675599e-05,-2.804606067052795e-06,0.9110847255698313,-4.9612769245865884e-05,-0.2939724361707772
922,0.9121,0.0085813,932.96,0.00995345,0.0284385,0.0180657,-0.0244366,-0.298038,0.648194,-0.348381,1.85365e-05,-2.78519e-06,-4.96494e-05,0.675364,-0.2577268671672013,1.8536671801960836e-05,-2.7851861214012175e-06,0.9120844842954225,-4.964816748898038e-05,-0.2941700962149518
923,0.9131,0.00893159,932.961,0.0103805,0.0284474,0.018092,-0.0243559,-0.29828,0.648717,-0.348661,1.86051e-05,-2.76478e-06,-4.96824e-05,0.675912,-0.2579064755318581,1.860527307595561e-05,-2.7647761779991953e-06,0.9130847660315826,-4.968116585002402e-05,-0.29436770092206155
924,0.9141,0.00865293,932.96,0.01015,0.0285547,0.0180284,-0.0244052,-0.298523,0.64924,-0.348941,1.86756e-05,-2.74564e-06,-4.97177e-05,0.67646,-0.25808678235013827,1.8675774390075617e-05,-2.7456362307054505e-06,0.9140855710519176,-4.9716464095683754e-05,-0.29456525030759884
925,0.9151,0.0086754,932.96,0.0100444,0.0285694,0.0180616,-0.0243618,-0.298766,0.649762,-0.349221,1.87447e-05,-2.72519e-06,-4.97514e-05,0.677008,-0.25826704535918454,1.874487568298555e-05,-2.725186286633985e-06,0.9150849845442344,-4.975016241959285e-05,-0.2947627443870513
926,0.9161,0.00872489,932.96,0.0100128,0.0286476,0.0180288,-0.0243634,-0.299008,0.650284,-0.349501,1.88149e-05,-2.70563e-06,-4.97858e-05,0.677556,-0.25844652301653515,1.8815077001299585e-05,-2.7056263397495783e-06,0.9160849198665801,-4.978456070758863e-05,-0.29496018317590256
927,0.9171,0.00870768,932.96,0.0100673,0.0286917,0.0180225,-0.0243432,-0.29925,0.650806,-0.34978,1.88846e-05,-2.68574e-06,-4.98198e-05,0.678103,-0.2586259572455477,1.8884778315131356e-05,-2.685736393392979e-06,0.9170853772914209,-4.981855901442511e-05,-0.295156861846846
928,0.9181,0.00850869,932.96,0.00985241,0.028757,0.0180075,-0.0243501,-0.299493,0.651327,-0.350059,1.89548e-05,-2.66599e-06,-4.98543e-05,0.67865,-0.258806089251012,1.8954979643437397e-05,-2.665986446270807e-06,0.9180844390059675,-4.985305729499068e-05,-0.2953534856520945
929,0.9191,0.00872861,932.96,0.0100621,0.0287998,0.0180054,-0.0243197,-0.299735,0.651848,-0.350339,1.90247e-05,-2.64607e-06,-4.98881e-05,0.679197,-0.25898543647552386,1.9024880970830438e-05,-2.6460664991345695e-06,0.9190840213672842,-4.988685560947115e-05,-0.2955507590565464
930,0.9201,0.00857745,932.96,0.0100912,0.0288776,0.0179617,-0.0243327,-0.299977,0.652369,-0.350618,1.90954e-05,-2.62675e-06,-4.99226e-05,0.679744,-0.25916474030325853,1.9095582318273685e-05,-2.6267465500495746e-06,0.9200841246466984,-4.9921353887705244e-05,-0.29574727297980263
931,0.9211,0.00864663,932.96,0.010167,0.0289142,0.0179777,-0.0243124,-0.300218,0.65289,-0.350897,1.91654e-05,-2.60664e-06,-4.99566e-05,0.68029,-0.2593432600883473,1.9165583657443364e-05,-2.6066366026755716e-06,0.9210847491156793,-4.995535218987879e-05,-0.2959437320833219
932,0.9221,0.00850053,932.96,0.00997513,0.0289901,0.0179469,-0.0243261,-0.30046,0.65341,-0.351175,1.92363e-05,-2.58717e-06,-4.99911e-05,0.680836,-0.2595224773332446,1.923648501889197e-05,-2.5871666532450988e-06,0.9220839729609034,-4.9989850465781416e-05,-0.29613943252218133
933,0.9231,0.00910165,932.961,0.0104634,0.0290152,0.0179702,-0.0242776,-0.300702,0.653931,-0.351454,1.93063e-05,-2.56697e-06,-5.00245e-05,0.681382,-0.2597016512128162,1.930648636783161e-05,-2.5669667053085377e-06,0.9230856396223235,-5.002324879554987e-05,-0.29633578222845003
934,0.9241,0.00854657,932.96,0.0100543,0.0291319,0.0178724,-0.0243366,-0.300943,0.65445,-0.351732,1.93781e-05,-2.54848e-06,-5.00599e-05,0.681927,-0.25988004161796663,1.9378287756666168e-05,-2.5484767526284813e-06,0.9240839801162362,-5.005864702412044e-05,-0.29653137369251725
935,0.9251,0.00868435,932.96,0.00986976,0.0291134,0.0179644,-0.0242616,-0.301184,0.65497,-0.352011,1.94477e-05,-2.5274e-06,-5.00928e-05,0.682472,-0.2600583890362096,1.944788910779316e-05,-2.527396806173421e-06,0.9250847639671469,-5.0091545376607094e-05,-0.2967276140624525
936,0.9261,0.00857867,932.96,0.0100465,0.0292145,0.0178906,-0.0242616,-0.301425,0.655489,-0.352289,1.95194e-05,-2.50856e-06,-5.01269e-05,0.683017,-0.26023669347790357,1.9519590504835094e-05,-2.5085568535754277e-06,0.9260841422758841,-5.0125643667908726e-05,-0.2969230966124098
937,0.9271,0.00863375,932.96,0.010023,0.0292598,0.0179025,-0.0242827,-0.301667,0.656008,-0.352567,1.95902e-05,-2.4886e-06,-5.01615e-05,0.683562,-0.2604156945380801,1.959039188914602e-05,-2.4885969034382782e-06,0.9270840393965838,-5.016024193293944e-05,-0.2971185248257713
938,0.9281,0.00829218,932.96,0.00976481,0.0293289,0.0178584,-0.0242738,-0.301907,0.656527,-0.352845,1.96616e-05,-2.46943e-06,-5.01956e-05,0.684106,-0.2605931734730669,1.9661793290604024e-05,-2.469426950924003e-06,0.9280844555985788,-5.0194340221909606e-05,-0.29731389871764047
939,0.9291,0.00866093,932.96,0.0102541,0.0293519,0.017896,-0.0242253,-0.302148,0.657046,-0.353122,1.97323e-05,-2.44914e-06,-5.02288e-05,0.68465,-0.26077134904724075,1.9732494683122326e-05,-2.4491370008705715e-06,0.9290853911513426,-5.022753855499218e-05,-0.2975085158119837
940,0.9301,0.00824128,932.96,0.00941164,0.0294682,0.0178163,-0.0242977,-0.302389,0.657564,-0.3534,1.98047e-05,-2.43049e-06,-5.02643e-05,0.685193,-0.2609494816862752,1.9804896114417048e-05,-2.43048704640092e-06,0.9300849162386071,-5.026303677124755e-05,-0.2977037813014273
941,0.9311,0.00865202,932.96,0.0101449,0.0294412,0.0178798,-0.0241718,-0.30263,0.658082,-0.353677,1.98748e-05,-2.40989e-06,-5.02962e-05,0.685737,-0.26112757140051623,1.987499750510935e-05,-2.4098870962108165e-06,0.9310849592139878,-5.029493516728323e-05,-0.2978982904132511
942,0.9321,0.00855022,932.96,0.00987399,0.0295856,0.0178062,-0.0242907,-0.30287,0.6586,-0.353955,1.99479e-05,-2.39116e-06,-5.03324e-05,0.68628,-0.2613048795055565,1.994809896066485e-05,-2.391157141179434e-06,0.9320855203458209,-5.0331133345959955e-05,-0.2980934475604159
943,0.9331,0.00885749,932.961,0.0104613,0.0295725,0.0178297,-0.0241879,-0.30311,0.659117,-0.354232,2.00184e-05,-2.37115e-06,-5.03647e-05,0.686823,-0.2614821450617575,2.0018600369597905e-05,-2.3711471888177016e-06,0.9330846668169475,-5.036343171982427e-05,-0.298287848749634
944,0.9341,0.00828455,932.96,0.00966397,0.0296996,0.01777,-0.0242823,-0.30335,0.659634,-0.354509,2.00915e-05,-2.35231e-06,-5.04005e-05,0.687365,-0.2616593680793299,2.0091701835589504e-05,-2.3523072333331285e-06,0.9340843299803532,-5.039922991612045e-05,-0.29848219609717996
945,0.9351,0.00875456,932.96,0.0101319,0.0296687,0.017835,-0.0241514,-0.303591,0.660151,-0.354785,2.01619e-05,-2.33175e-06,-5.04322e-05,0.687908,-0.26183728673156403,2.016210325250789e-05,-2.3317472814810003e-06,0.9350845101032366,-5.043092831802376e-05,-0.2986757882941051
946,0.9361,0.00823972,932.96,0.00947732,0.0298229,0.0177305,-0.0242672,-0.303831,0.660668,-0.355062,2.02356e-05,-2.31353e-06,-5.04684e-05,0.68845,-0.26201442452536294,2.0235804741197683e-05,-2.3135273238272802e-06,0.9360852074529353,-5.0467126491704484e-05,-0.29887002819727904
947,0.9371,0.00867475,932.96,0.01014,0.0297745,0.0178193,-0.0241336,-0.30407,0.661184,-0.355339,2.03059e-05,-2.29269e-06,-5.05e-05,0.688991,-0.26219078200234347,2.03061061661014e-05,-2.2926873718409624e-06,0.9370844852114706,-5.04987248964861e-05,-0.2990642143034511
948,0.9381,0.00825904,932.96,0.00972107,0.0299372,0.0177067,-0.0242516,-0.30431,0.6617,-0.355615,2.03801e-05,-2.2746e-06,-5.05362e-05,0.689533,-0.2623678349674572,2.0380307675704756e-05,-2.2745974130877755e-06,0.938084278730384,-5.0534923067724336e-05,-0.29925764588551707
949,0.9391,0.00841648,932.96,0.00984282,0.0299081,0.0177729,-0.0241574,-0.30455,0.662216,-0.355891,2.0451e-05,-2.25412e-06,-5.05685e-05,0.690074,-0.26254484544495804,2.0451209123084624e-05,-2.2541174594659097e-06,0.9390845882758769,-5.056722143492731e-05,-0.2994510240878332
950,0.9401,0.00825045,932.96,0.0095867,0.0300247,0.0177101,-0.0242056,-0.304789,0.662732,-0.356167,2.05245e-05,-2.23538e-06,-5.06034e-05,0.690615,-0.26272107616648654,2.0524710629077347e-05,-2.23537750154712e-06,0.9400854141142871,-5.060211966956274e-05,-0.29964434892513014
951,0.9411,0.00831475,932.96,0.00959074,0.0300398,0.0177332,-0.024159,-0.305028,0.663247,-0.356443,2.05964e-05,-2.21551e-06,-5.06366e-05,0.691155,-0.2628972647739056,2.0596612107404155e-05,-2.2155075457552798e-06,0.9410848154263052,-5.063531798898957e-05,-0.2998376204121347
952,0.9421,0.00864356,932.96,0.00996016,0.0301107,0.0177156,-0.0241568,-0.305268,0.663762,-0.356719,2.06693e-05,-2.19617e-06,-5.06705e-05,0.691696,-0.2630741482034993,2.0669513611348833e-05,-2.1961675884529797e-06,0.9420847315625545,-5.066921627194798e-05,-0.3000308385635695
953,0.9431,0.00822818,932.96,0.00964015,0.0301989,0.0176544,-0.024204,-0.305507,0.664277,-0.356995,2.07427e-05,-2.17751e-06,-5.07054e-05,0.692236,-0.26325025243678446,2.0742915131322093e-05,-2.1775076292085416e-06,0.9430851627882382,-5.070411450291967e-05,-0.3002240033941531
954,0.9441,0.00826102,932.96,0.00948454,0.0302021,0.017716,-0.0241394,-0.305746,0.664791,-0.35727,2.08147e-05,-2.15715e-06,-5.07382e-05,0.692776,-0.26342631458618715,2.0814916627420743e-05,-2.1571476733761585e-06,0.9440841652835583,-5.073691283929982e-05,-0.30041641533536523
955,0.9451,0.00849442,932.96,0.00963175,0.0303054,0.0176457,-0.024165,-0.305985,0.665306,-0.357546,2.08885e-05,-2.1386e-06,-5.07726e-05,0.693315,-0.2636023346617642,2.088871816630089e-05,-2.138597713141621e-06,0.9450856264828036,-5.077131109332278e-05,-0.3006094737614443
956,0.9461,0.0083756,932.96,0.00986169,0.0303418,0.017648,-0.0241519,-0.306223,0.66582,-0.357821,2.09614e-05,-2.11912e-06,-5.08064e-05,0.693854,-0.26377757645151445,2.0961619691783895e-05,-2.1191177547175144e-06,0.9460856574807655,-5.0805109376717006e-05,-0.3008017797128797
957,0.9471,0.00831667,932.96,0.00930517,0.0304104,0.0176486,-0.0241753,-0.306462,0.666333,-0.358096,2.10348e-05,-2.09965e-06,-5.08408e-05,0.694393,-0.2639535125855371,2.1035021232851392e-05,-2.0996477957391235e-06,0.9470842555415555,-5.08395076284085e-05,-0.3009940327874493
958,0.9481,0.00854726,932.96,0.00997246,0.0304335,0.0176406,-0.0240831,-0.3067,0.666847,-0.358371,2.11076e-05,-2.0803e-06,-5.0873e-05,0.694932,-0.2641286708048868,2.1107822766985862e-05,-2.08029783621555e-06,0.9480853140989136,-5.087170599082924e-05,-0.30118623299969227
959,0.9491,0.00797686,932.96,0.00925483,0.0305527,0.0175937,-0.0241973,-0.306939,0.66736,-0.358646,2.11822e-05,-2.06152e-06,-5.0909e-05,0.69547,-0.2643045230373856,2.1182424344345918e-05,-2.061517875073804e-06,0.9490849382467177,-5.090770415883128e-05,-0.3013783803641439
960,0.9501,0.00824905,932.96,0.00951502,0.0305406,0.0176386,-0.0240971,-0.307177,0.667873,-0.358921,2.12546e-05,-2.04149e-06,-5.09412e-05,0.696008,-0.26447959772618823,2.1254825880667738e-05,-2.0414879161601007e-06,0.9500850753332672,-5.09399025191426e-05,-0.30157047489533506
961,0.9511,0.00795253,932.96,0.00942307,0.0306565,0.0175594,-0.02414,-0.307415,0.668386,-0.359195,2.13293e-05,-2.02317e-06,-5.09758e-05,0.696546,-0.2646546307521731,2.13295274711367e-05,-2.0231679533910807e-06,0.9510857256217673,-5.097450075597365e-05,-0.30176181836996063
962,0.9521,0.00805765,932.96,0.00945913,0.030663,0.0176214,-0.0241065,-0.307653,0.668898,-0.35947,2.14023e-05,-2.00294e-06,-5.10091e-05,0.697084,-0.26482962212525474,2.1402529030822848e-05,-2.0029379941277625e-06,0.9520849372896445,-5.1007799057978254e-05,-0.30195380747019773
963,0.9531,0.00800943,932.96,0.00931618,0.0307727,0.0175431,-0.0241491,-0.307891,0.66941,-0.359744,2.14771e-05,-1.98463e-06,-5.10438e-05,0.697621,-0.2650045718553452,2.147733063462276e-05,-1.9846280305824138e-06,0.9530846606848864,-5.1042497287379085e-05,-0.30214504592608593
964,0.9541,0.00812206,932.96,0.00959199,0.0307857,0.0175694,-0.0240943,-0.308129,0.669922,-0.360018,2.15504e-05,-1.96494e-06,-5.10767e-05,0.698158,-0.26517947995235447,2.1550632211431164e-05,-1.9649380694763963e-06,0.9540848960695654,-5.107539560755825e-05,-0.3023362319898153
965,0.9551,0.00808236,932.96,0.00944983,0.030882,0.0175329,-0.0241423,-0.308367,0.670434,-0.360292,2.16253e-05,-1.94611e-06,-5.11115e-05,0.698695,-0.26535434642619005,2.1625533828562027e-05,-1.9461081063321117e-06,0.9550856437058861,-5.111019382952886e-05,-0.30252736567573935
966,0.9561,0.00878507,932.96,0.0101785,0.0308977,0.0175501,-0.0240759,-0.308604,0.670945,-0.360566,2.16988e-05,-1.92656e-06,-5.11442e-05,0.699231,-0.26552843681556093,2.1699035420708057e-05,-1.926558144238477e-06,0.9560849477702633,-5.114289215768508e-05,-0.3027184469982076
967,0.9571,0.00828294,932.96,0.00962817,0.0310185,0.0174809,-0.0241661,-0.308842,0.671456,-0.360839,2.17743e-05,-1.90823e-06,-5.11797e-05,0.699767,-0.26570322024754545,2.177453706186938e-05,-1.908228179359206e-06,0.9570847626095094,-5.117839034152194e-05,-0.302908778880693
968,0.9581,0.00869715,932.96,0.0100979,0.0309987,0.0175408,-0.0240575,-0.309079,0.671967,-0.361113,2.18475e-05,-1.88814e-06,-5.12117e-05,0.700303,-0.2658772279636179,2.184773865843148e-05,-1.8881382174429362e-06,0.9580850884846968,-5.121038870326e-05,-0.30309975571025927
969,0.9591,0.00830727,932.96,0.00983947,0.0311211,0.0174678,-0.0241192,-0.309316,0.672477,-0.361386,2.19232e-05,-1.86987e-06,-5.12466e-05,0.700839,-0.26605119444474823,2.1923440315152476e-05,-1.8698682517914733e-06,0.9590839665720854,-5.1245286915468924e-05,-0.3032899835096742
970,0.9601,0.00901029,932.961,0.0102495,0.0311358,0.0175075,-0.0240934,-0.309553,0.672988,-0.36166,2.19972e-05,-1.85009e-06,-5.12801e-05,0.701374,-0.26622511970070795,2.1997441940202478e-05,-1.8500882885685854e-06,0.9600853143015593,-5.1278785198172194e-05,-0.3034808559034805
971,0.9611,0.00744258,932.959,0.00868894,0.0312479,0.0174126,-0.0241331,-0.30979,0.673498,-0.361933,2.2073e-05,-1.83218e-06,-5.13147e-05,0.701909,-0.2663990037412661,2.2073243610476467e-05,-1.8321783216146414e-06,0.9610852127642884,-5.1313383423345904e-05,-0.30367097967674295
972,0.9621,0.00831106,932.96,0.00980922,0.0311907,0.0175604,-0.0239934,-0.310027,0.674008,-0.362206,2.21459e-05,-1.81092e-06,-5.1346e-05,0.702444,-0.26657284657618974,2.2146145222334823e-05,-1.8109183602676993e-06,0.9620856213052922,-5.1344681816667403e-05,-0.30386105155329957
973,0.9631,0.00749575,932.959,0.0085215,0.0314058,0.0173759,-0.0241861,-0.310264,0.674517,-0.362479,2.22238e-05,-1.7942e-06,-5.13833e-05,0.702979,-0.2667466482152434,2.2224046950514165e-05,-1.7941983904146142e-06,0.9630845770992187,-5.1381979900844144e-05,-0.30405107154731614
974,0.9641,0.00923964,932.961,0.010395,0.0312898,0.0175295,-0.0239701,-0.3105,0.675026,-0.362751,2.22959e-05,-1.7729e-06,-5.14132e-05,0.703513,-0.2669196755882316,2.2296148555422945e-05,-1.7728984283982285e-06,0.9640840414910714,-5.141187836410488e-05,-0.3042403439136465
975,0.9651,0.00755591,932.959,0.00894868,0.0315692,0.01727,-0.0242275,-0.310737,0.675535,-0.363024,2.23751e-05,-1.75733e-06,-5.14518e-05,0.704047,-0.2670933950385491,2.2375350324344012e-05,-1.7573284558647373e-06,0.9650840147397926,-5.145047637888922e-05,-0.30443026037498166
976,0.9661,0.00819541,932.96,0.00936312,0.0313833,0.0175397,-0.0239659,-0.310973,0.676044,-0.363296,2.24462e-05,-1.73454e-06,-5.14809e-05,0.704581,-0.2672663405889424,2.2446451917845778e-05,-1.73453849572347e-06,0.9660844971044564,-5.1479574881163614e-05,-0.30461942961597654
977,0.9671,0.00769158,932.959,0.00865663,0.0316254,0.0173536,-0.0241299,-0.311209,0.676553,-0.363568,2.25249e-05,-1.71785e-06,-5.15177e-05,0.705114,-0.26743924532900165,2.2525153687391608e-05,-1.7178485245405994e-06,0.9670854888442688,-5.1516372986060155e-05,-0.304808547409935
978,0.9681,0.0084873,932.96,0.00995869,0.031575,0.0174048,-0.0240243,-0.311445,0.677061,-0.363841,2.25987e-05,-1.69807e-06,-5.15496e-05,0.705647,-0.26761210926835677,2.2598955352615135e-05,-1.6980685583201094e-06,0.9680850221325616,-5.154827134223883e-05,-0.3049983087728876
979,0.9691,0.00784208,932.959,0.00875865,0.0317409,0.0173235,-0.0241833,-0.311681,0.677569,-0.364113,2.26763e-05,-1.68011e-06,-5.15864e-05,0.70618,-0.2677849324166358,2.2676557109191364e-05,-1.6801085885864708e-06,0.9690850633127586,-5.1585069444581855e-05,-0.30518732352572964
980,0.9701,0.00861141,932.96,0.0100546,0.0316616,0.0174253,-0.0239725,-0.311917,0.678077,-0.364384,2.27498e-05,-1.65964e-06,-5.16165e-05,0.706713,-0.2679577147834643,2.2750058778608917e-05,-1.6596386227529791e-06,0.9700856126429342,-5.161516789142784e-05,-0.30537559224948985
981,0.9711,0.00777927,932.959,0.00872927,0.0318717,0.0172902,-0.0241802,-0.312153,0.678584,-0.364656,2.28284e-05,-1.64241e-06,-5.16541e-05,0.707245,-0.26813045637846544,2.2828660569906845e-05,-1.642408651192362e-06,0.9710846992956093,-5.165276594998325e-05,-0.30556450439518146
982,0.9721,0.00785599,932.96,0.00954979,0.031786,0.0173667,-0.0239708,-0.312389,0.679091,-0.364928,2.2902e-05,-1.62235e-06,-5.16841e-05,0.707777,-0.2683031572112603,2.2902262252877392e-05,-1.6223486839495038e-06,0.9720842926136464,-5.168276439992958e-05,-0.30575336516375706
983,0.9731,0.00728267,932.959,0.00867034,0.031972,0.0173023,-0.0241721,-0.312624,0.679598,-0.365199,2.29804e-05,-1.60419e-06,-5.17217e-05,0.708309,-0.26847508576691914,2.2980664051486244e-05,-1.6041887133111388e-06,0.9730843928539896,-5.172036245593148e-05,-0.3059414805110169
984,0.9741,0.00795365,932.959,0.00919363,0.0319064,0.0173743,-0.0239925,-0.31286,0.680105,-0.36547,2.30545e-05,-1.58416e-06,-5.17523e-05,0.708841,-0.26864770527677484,2.3054765756924667e-05,-1.5841587451825845e-06,0.9740850002737136,-5.175096087284281e-05,-0.3061295448859246
985,0.9751,0.00827249,932.96,0.00959292,0.0320693,0.0172617,-0.0241001,-0.313095,0.680611,-0.365742,2.31328e-05,-1.56667e-06,-5.1788e-05,0.709372,-0.2688195528731513,2.3133067565295207e-05,-1.5666687728232986e-06,0.9750841400448962,-5.178665902472179e-05,-0.3063182519843868
986,0.9761,0.00748757,932.959,0.00895954,0.0320947,0.0172643,-0.024099,-0.31333,0.681118,-0.366013,2.32088e-05,-1.54773e-06,-5.18219e-05,0.709903,-0.2689913600900874,2.3209069326179943e-05,-1.5477288022314184e-06,0.9760857615935061,-5.182055726848933e-05,-0.30650621426805924
987,0.9771,0.00760096,932.959,0.00892368,0.0321081,0.0173408,-0.0240259,-0.313565,0.681624,-0.366284,2.32846e-05,-1.52768e-06,-5.18545e-05,0.710434,-0.26916312693707123,2.32848710883804e-05,-1.5276788331020086e-06,0.9770859140060932,-5.1853155578651666e-05,-0.3066941256208543
988,0.9781,0.00722871,932.959,0.00844294,0.0322367,0.0172334,-0.0240949,-0.3138,0.682129,-0.366554,2.33626e-05,-1.51016e-06,-5.18896e-05,0.710964,-0.26933485342358865,2.3362872907606302e-05,-1.5101588597410398e-06,0.9780845945382766,-5.1888253758014535e-05,-0.30688129293821176
989,0.9791,0.00857361,932.96,0.0101442,0.0322039,0.0173222,-0.0239884,-0.314035,0.682635,-0.366825,2.34378e-05,-1.48999e-06,-5.19214e-05,0.711495,-0.26950653955912307,2.3438074667314623e-05,-1.4899888899355673e-06,0.9790857586162636,-5.192005210741257e-05,-0.307069102658459
990,0.9801,0.00774936,932.959,0.00905575,0.0324226,0.0171251,-0.0241977,-0.314269,0.68314,-0.367095,2.35177e-05,-1.4738e-06,-5.19592e-05,0.712025,-0.26967745503097607,2.3517976543319108e-05,-1.4737989139090857e-06,0.9800854493250231,-5.195785014411314e-05,-0.30725616874568296
991,0.9811,0.00869936,932.961,0.0104162,0.0322721,0.0173426,-0.0239393,-0.314504,0.683645,-0.367366,2.35911e-05,-1.45195e-06,-5.19883e-05,0.712554,-0.26984906066459213,2.359137827223634e-05,-1.4519489459630108e-06,0.9810856450050853,-5.198694863173259e-05,-0.30744387688835084
992,0.9821,0.00786408,932.959,0.00892951,0.0325514,0.017122,-0.0242038,-0.314739,0.684149,-0.367636,2.36722e-05,-1.43605e-06,-5.20271e-05,0.713084,-0.2700206259756224,2.3672480188752232e-05,-1.4360489688503009e-06,0.98208436382617,-5.202574661389292e-05,-0.30763084180019207
993,0.9831,0.00743927,932.959,0.00897477,0.0324135,0.0172729,-0.0239687,-0.314973,0.684654,-0.367906,2.37461e-05,-1.41516e-06,-5.20567e-05,0.713613,-0.27019142116532746,2.3746381940803474e-05,-1.4151589986521884e-06,0.9830855692129845,-5.20553450734651e-05,-0.3078177562383213
994,0.9841,0.00810216,932.959,0.00895397,0.0325997,0.0172021,-0.0241238,-0.315207,0.685158,-0.368176,2.38257e-05,-1.3972e-06,-5.20933e-05,0.714142,-0.2703621763936339,2.382598383432466e-05,-1.3971990239225462e-06,0.9840852962499191,-5.209194316757593e-05,-0.30800462021636477
995,0.9851,0.00722953,932.959,0.00851836,0.0326113,0.0171482,-0.024046,-0.315441,0.685662,-0.368446,2.39025e-05,-1.37913e-06,-5.21259e-05,0.71467,-0.2705328916698916,2.3902785666995996e-05,-1.379129048961758e-06,0.9850855272762749,-5.212454146885648e-05,-0.30819143374794467
996,0.9861,0.00760389,932.959,0.00912022,0.0326707,0.0171945,-0.0240695,-0.315675,0.686165,-0.368715,2.39802e-05,-1.35969e-06,-5.21602e-05,0.715199,-0.270703567003448,2.398048752727533e-05,-1.3596890756639723e-06,0.9860842764608571,-5.2158839680460645e-05,-0.3083775052245309
997,0.9871,0.00868325,932.96,0.0103308,0.032711,0.0172056,-0.0240328,-0.315909,0.686669,-0.368985,2.40576e-05,-1.34067e-06,-5.21933e-05,0.715727,-0.2708742024036487,2.4057889386419617e-05,-1.3406691012907146e-06,0.987085515227168,-5.2191937953360856e-05,-0.30856421809074897
998,0.9881,0.00800821,932.959,0.00869053,0.0328732,0.0170585,-0.0241879,-0.316143,0.687172,-0.369254,2.41374e-05,-1.32392e-06,-5.22302e-05,0.716255,-0.27104479787983715,2.4137691309489284e-05,-1.3239191236635861e-06,0.9880852706587395,-5.222883602684636e-05,-0.3087501893018333
999,0.9891,0.00890627,932.961,0.0104719,0.032764,0.0172012,-0.0239332,-0.316377,0.687675,-0.369523,2.42124e-05,-1.30324e-06,-5.22594e-05,0.716782,-0.2712153534413543,2.4212693122471762e-05,-1.3032391508183139e-06,0.9890855290937879,-5.225803450137345e-05,-0.30893611049338965
