,Time,S11,S22,S33,S12,S13,S23,LE11,LE22,LE33,LE12,LE13,LE23,SDV_EPBAR,E11,E12,E13,E22,E23,E33
0,1e-05,5.55112e-17,1.03873,0.0,8.45993e-18,3.13508e-39,4.22997e-18,-1.5e-06,4.99999e-06,-1.5e-06,0.0,0.0,0.0,0.0,-1.4999988749986315e-06,0.0,0.0,5.000002500032963e-06,0.0,-1.4999988749986315e-06
1,2e-05,-5.55112e-17,2.07745,5.55112e-17,-5.49898e-23,3.13508e-39,-2.74949e-23,-2.99999e-06,9.99995e-06,-2.99999e-06,0.0,0.0,0.0,0.0,-2.999985500018454e-06,0.0,0.0,9.999999999621423e-06,0.0,-2.999985500018454e-06
2,3.5e-05,1.11022e-16,3.63552,1.66533e-16,1.69198e-17,8.45999e-18,-8.45993e-18,-5.24995e-06,1.74998e-05,-5.24995e-06,0.0,0.0,0.0,0.0,-5.2499362190872034e-06,0.0,0.0,1.749995312239072e-05,0.0,-5.2499362190872034e-06
3,5.75e-05,7.21645e-16,5.97261,8.32667e-16,8.45964e-18,2.538e-17,-8.45981e-18,-8.62488e-06,2.87496e-05,-8.62488e-06,0.0,0.0,0.0,0.0,-8.624842805837751e-06,0.0,0.0,2.875001327362625e-05,0.0,-8.624842805837751e-06
4,9.125e-05,-1.4988e-15,9.4782,-1.38778e-15,8.45946e-18,-8.45999e-18,8.45998e-18,-1.36872e-05,4.5624e-05,-1.36872e-05,0.0,0.0,0.0,0.0,-1.3687106330650955e-05,0.0,0.0,4.56250407905312e-05,0.0,-1.3687106330650955e-05
5,0.00014188,-8.04912e-15,14.7365,-8.04912e-15,-8.46024e-18,-8.45999e-18,-4.22985e-17,-2.12805e-05,7.0935e-05,-2.12805e-05,0.0,0.0,0.0,0.0,-2.1280273571733233e-05,0.0,0.0,7.093751594666742e-05,0.0,-2.1280273571733233e-05
6,0.00021781,-4.93494e-14,22.6236,-4.93494e-14,2.53785e-17,5.92199e-17,-4.22965e-17,-3.26701e-05,0.0001089,-3.26701e-05,0.0,0.0,0.0,0.0,-3.266956633807272e-05,0.0,0.0,0.00010890592982026881,0.0,-3.266956633807272e-05
7,0.00033172,-2.48745e-13,34.4538,-2.48301e-13,2.53766e-17,5.92199e-17,-4.22933e-17,-4.97537e-05,0.000165846,-4.97537e-05,0.0,0.0,0.0,0.0,-4.9752462305208134e-05,0.0,0.0,0.00016585975320815294,0.0,-4.9752462305208134e-05
8,0.00050258,-1.27326e-12,52.1977,-1.27237e-12,2.53738e-17,-2.115e-16,-4.22886e-17,-7.53772e-05,0.000251258,-7.53772e-05,0.0,0.0,0.0,0.0,-7.537435921023405e-05,0.0,0.0,0.00025128956793518675,0.0,-7.537435921023405e-05
9,0.00075887,-6.47266e-12,78.8109,-6.47177e-12,2.53695e-17,5.92199e-17,-4.22816e-17,-0.000113808,0.000379362,-0.000113808,0.0,0.0,0.0,0.0,-0.00011380152411522015,0.0,0.0,0.0003794339668636848,0.0,-0.00011380152411522015
10,0.0011433,-3.2753e-11,118.724,-3.27547e-11,2.53632e-17,1.9458e-16,2.28381e-16,-0.000171446,0.000571487,-0.000171446,0.0,0.0,0.0,0.0,-0.00017143130397445638,0.0,0.0,0.0005716503298076603,0.0,-0.00017143130397445638
11,0.00172,-1.65601e-10,178.58,-1.65601e-10,2.53537e-17,1.9458e-16,2.28295e-16,-0.000257882,0.000859606,-0.000257882,0.0,0.0,0.0,0.0,-0.0002578487512951977,0.0,0.0,0.0008599755671241383,0.0,-0.0002578487512951977
12,0.0025849,-8.37562e-10,268.331,-8.37555e-10,2.53394e-17,-3.46859e-16,2.28167e-16,-0.000387489,0.00129163,-0.000387489,0.0,0.0,0.0,0.0,-0.00038741393583330286,0.0,0.0,0.0012924645132839085,0.0,-0.00038741393583330286
13,0.0035849,-1.84633e-09,372.044,-1.84633e-09,2.5323e-17,1.9458e-16,7.69107e-16,-0.000537258,0.00179086,-0.000537258,0.0,0.0,0.0,0.0,-0.0005371137027634365,0.0,0.0,0.0017924645474667322,0.0,-0.0005371137027634365
14,0.0045849,-2.10352e-09,475.705,-2.10354e-09,2.53065e-17,1.9458e-16,-3.13569e-16,-0.000686952,0.00228984,-0.000686952,0.0,0.0,0.0,0.0,-0.000686716102494711,0.0,0.0,0.0022924636858374647,0.0,-0.000686716102494711
15,0.0055849,-0.0989879,510.094,-0.0680752,-0.00665837,-0.0149794,0.00166317,-0.000893956,0.00278857,-0.000912849,-6.05874e-08,-2.57938e-07,-2.01825e-08,0.000349018,-0.0008935565403770385,-6.058739820957726e-08,-2.579379667633219e-07,0.002792461677887159,-2.0182499782528396e-08,-0.0009124324801011996
16,0.0065849,0.268008,522.648,0.246056,0.0656978,0.0189143,0.00098673,-0.00111765,0.00328706,-0.00116224,1.07503e-06,1.5319e-07,-1.49719e-07,0.00080919,-0.0011170256618575625,1.075030577890601e-06,1.5319001178681901e-07,0.0032924683059070148,-1.4971898876225964e-07,-0.0011615648606745355
17,0.0075849,-0.192823,533.265,-0.206777,0.0106153,-0.0416594,-0.0462384,-0.00134464,0.00378529,-0.00141498,5.65909e-07,-7.80266e-07,-1.01666e-06,0.00127652,-0.0013437363766966026,5.659091601994959e-07,-7.802656956101828e-07,0.003792463258290635,-1.0166594831551024e-06,-0.0014139793878041873
18,0.0085849,0.0516794,543.602,0.0630181,-0.00924162,0.0217261,0.0189905,-0.00157037,0.00428328,-0.00166639,2.97659e-07,5.3646e-08,-2.59259e-07,0.00174707,-0.0015691376142165092,2.976590443015681e-07,5.3646001418883316e-08,0.0042924663550065745,-2.592589664063283e-07,-0.0016650023430835326
19,0.0095849,-0.1221,552.709,-0.138254,0.0231407,-0.0234909,-0.0347627,-0.0017977,0.00478102,-0.00192012,8.77614e-07,-6.04169e-07,-1.17001e-06,0.00222226,-0.001796085105198797,8.776143851640938e-07,-6.041688175306703e-07,0.00479246731212557,-1.170009315543119e-06,-0.001918277748895858
20,0.010585,0.0214907,561.469,0.0301853,-0.00322071,0.0177341,0.0160074,-0.00202469,0.00527851,-0.00217319,5.46553e-07,-4.30478e-08,-6.03809e-07,0.00269993,-0.0020226416978275097,5.465531494053266e-07,-4.3047799103135276e-08,0.005292465878519614,-6.038088177229284e-07,-0.0021708303322569567
21,0.011585,-0.0675538,569.4,-0.0802114,0.0138065,-0.00951309,-0.0167781,-0.0022526,0.00577575,-0.00242773,8.67224e-07,-4.17943e-07,-1.18908e-06,0.00318078,-0.002250064800573992,8.67224376088771e-07,-4.179429126116574e-07,0.005792461802937909,-1.1890792930291383e-06,-0.0024247854468655294
22,0.012585,0.0101337,577.008,0.0146774,-0.0015739,0.0132891,0.0130391,-0.00248042,0.00627275,-0.00268197,6.82123e-07,-9.19471e-08,-8.92553e-07,0.00366353,-0.0024773463001924734,6.821232325648907e-07,-9.194709582605043e-08,0.006292464896930694,-8.925526017167229e-07,-0.0026783767315234908
23,0.013585,-0.0361124,584.039,-0.0447514,0.00785706,-0.00120348,-0.00496997,-0.00270877,0.0067695,-0.0029371,8.65765e-07,-2.73903e-07,-1.25078e-06,0.00414852,-0.0027051045928720985,8.65765374724603e-07,-2.739029625331568e-07,0.00679246485607643,-1.2507792177540722e-06,-0.0029327909415391984
24,0.014585,0.00404087,590.777,0.00607536,-0.000255072,0.0108691,0.0114315,-0.00293713,0.007266,-0.00319213,7.76715e-07,-8.44385e-08,-1.12442e-06,0.00463502,-0.0029328208535550626,7.767153016313699e-07,-8.443849641714962e-08,0.007292461428755503,-1.1244193678372483e-06,-0.003187040569845978
25,0.015585,-0.0191593,597.098,-0.0244928,0.00465402,0.00347045,0.00216475,-0.00316581,0.00776226,-0.00344769,8.79896e-07,-1.5914e-07,-1.34696e-06,0.00512315,-0.003160804107483539,8.798963870848553e-07,-1.5913998729910617e-07,0.007792464441150004,-1.346959092818345e-06,-0.0034417535411481737
26,0.016585,0.00124963,603.157,0.00199531,0.000529397,0.00966867,0.0109416,-0.00339452,0.00825827,-0.00370327,8.4257e-07,-4.384e-08,-1.3146e-06,0.00561249,-0.0033887651304995714,8.425703550418717e-07,-4.3839999075423464e-08,0.008292463573471132,-1.3145991358820552e-06,-0.003696421352392343
27,0.017585,-0.0098545,608.901,-0.0129372,0.00296683,0.00605087,0.00651326,-0.00362343,0.00875403,-0.00395916,9.0116e-07,-6.10829e-08,-1.45976e-06,0.00610306,-0.003616873299157053,9.011604060749079e-07,-6.108289818396173e-08,0.008792458573732453,-1.4597589345077822e-06,-0.003951332859088774
28,0.018585,0.000475433,614.415,0.000681746,0.000910504,0.00917942,0.0111851,-0.00385238,0.00924955,-0.0042151,8.89405e-07,1.6064e-08,-1.47516e-06,0.00659459,-0.00384496910375165,8.894053955543768e-07,1.6064000130100453e-08,0.009292459282749688,-1.4751589119121888e-06,-0.004206228934514611
29,0.019585,-0.00453407,619.682,-0.00619681,0.00207439,0.00748329,0.009269,-0.00408143,0.00974483,-0.00447123,9.2395e-07,2.8452e-08,-1.5775e-06,0.00708707,-0.004073112284483149,9.239504268343524e-07,2.845200031131867e-08,0.009792465463292821,-1.5774987557337639e-06,-0.004461248932567385
30,0.020585,0.000734696,624.749,0.000806121,0.00106322,0.00904849,0.0117984,-0.00431053,0.0102399,-0.00472741,9.2394e-07,8.66078e-08,-1.61518e-06,0.00758033,-0.004301252999941996,9.23940426833525e-07,8.660780381752886e-08,0.010292507186784539,-1.6151786955687086e-06,-0.0047162533849008925
31,0.021585,-0.00132952,629.614,-0.00211028,0.00160005,0.00829024,0.0111163,-0.00453968,0.0107346,-0.00498371,9.45578e-07,1.13801e-07,-1.69386e-06,0.00807433,-0.004529391227881319,9.455784470979722e-07,1.1380100639613033e-07,0.010792422533955737,-1.6938585654102667e-06,-0.004971311922010613
32,0.022585,0.00142118,634.306,0.001551,0.00110877,0.00907179,0.0125454,-0.00476886,0.0112292,-0.00524005,9.50414e-07,1.627e-07,-1.74063e-06,0.00856896,-0.0047575070412101406,9.504144515837254e-07,1.6270001323981376e-07,0.011292484121177448,-1.7406284851251286e-06,-0.005226344886940848
33,0.023585,0.000717341,638.83,0.000496286,0.00134915,0.00875302,0.0124355,-0.00499806,0.0117235,-0.00549646,9.64997e-07,1.97048e-07,-1.80583e-06,0.00906417,-0.004985590481235591,9.649974657133242e-07,1.9704801945685801e-07,0.011792489562242547,-1.805828369505491e-06,-0.00548138210140503
34,0.024585,0.00221689,643.202,0.00248271,0.00111417,0.00914485,0.0133006,-0.00522727,0.0122175,-0.0057529,9.71404e-07,2.41457e-07,-1.85518e-06,0.0095599,-0.005213631598390833,9.71404471750148e-07,2.4145702925970625e-07,0.012292438529314165,-1.855178279108749e-06,-0.0057363837580690635
35,0.025585,0.00210587,647.43,0.00225587,0.00122031,0.00902229,0.0134359,-0.00545649,0.0127113,-0.00600937,9.81964e-07,2.79099e-07,-1.9122e-06,0.0100561,-0.005441630397815089,9.819644821718043e-07,2.790990389911485e-07,0.012792431973681628,-1.9121981716940795e-06,-0.005991349850752226
36,0.026585,0.00297742,651.527,0.00339907,0.00111143,0.00921992,0.0140075,-0.0056857,0.0132049,-0.00626585,9.88478e-07,3.21272e-07,-1.96109e-06,0.0105527,-0.005669566998039666,9.884784886171616e-07,3.212720516287959e-07,0.013292469717266275,-1.9610880770404293e-06,-0.0062462604982036485
37,0.027585,0.00310139,655.499,0.00351079,0.00116004,0.00917904,0.0142338,-0.0059149,0.0136982,-0.00652234,9.96592e-07,3.60288e-07,-2.01269e-06,0.0110497,-0.005897441417877625,9.96592496527171e-07,3.602880649378193e-07,0.01379245020262565,-2.0126879745063775e-06,-0.0065011157095447025
38,0.028585,0.00364932,659.354,0.00422065,0.00111368,0.00927849,0.014647,-0.00614408,0.0141913,-0.00677883,1.00262e-06,4.01249e-07,-2.05982e-06,0.011547,-0.006125243737388653,1.002620502621454e-06,4.0124908040617413e-07,0.014292474530686938,-2.0598178785968813e-06,-0.006755905561455
39,0.029585,0.00384855,663.1,0.00444897,0.00113965,0.00926749,0.014895,-0.00637324,0.0146841,-0.00703531,1.00912e-06,4.40691e-07,-2.10742e-06,0.0120446,-0.00635297398220569,1.0091205091544708e-06,4.406910971699318e-07,0.014792441043766313,-2.107417779395604e-06,-0.00701062014080267
40,0.030585,0.00422177,666.743,0.00492685,0.00112488,0.00931575,0.0152174,-0.00660237,0.0151767,-0.00729177,1.01447e-06,4.80882e-07,-2.15232e-06,0.0125425,-0.006580622243758105,1.0144705144821131e-06,4.80882115683201e-07,0.015292450942551827,-2.152317683745686e-06,-0.007265249544637253
41,0.031585,0.00442918,670.289,0.00517654,0.00114337,0.00931242,0.0154582,-0.00683146,0.0156691,-0.00754822,1.01982e-06,5.20281e-07,-2.19673e-06,0.0130406,-0.006808178622567662,1.0198205200318e-06,5.202811352855718e-07,0.015792504048367073,-2.1967275871670466e-06,-0.007519803729786112
42,0.032585,0.00470155,673.744,0.00552228,0.00114506,0.00933268,0.0157241,-0.00706052,0.0161612,-0.00780463,1.02448e-06,5.59881e-07,-2.23929e-06,0.0135389,-0.007035653087527294,1.0244805248582622e-06,5.598811567697481e-07,0.016292498553167167,-2.239287492766806e-06,-0.00777425295385481
43,0.033585,0.00489183,677.112,0.00575606,0.0011622,0.00932829,0.0159473,-0.00728953,0.016653,-0.00806101,1.02895e-06,5.99003e-07,-2.28099e-06,0.0140374,-0.007263025816305668,1.0289505294469592e-06,5.990031795022333e-07,0.016792434128036993,-2.2809873985174534e-06,-0.00802860718382059
44,0.034585,0.00510114,680.397,0.00602044,0.00117283,0.00933225,0.016175,-0.0075185,0.0171447,-0.00831735,1.03295e-06,6.38077e-07,-2.32126e-06,0.014536,-0.007490306780030376,1.032950533552679e-06,6.380772035186055e-07,0.017292513902434914,-2.3212573059261388e-06,-0.008282856542122574
45,0.035585,0.005267,683.604,0.00622645,0.00119078,0.00932394,0.0163782,-0.00774742,0.017636,-0.00857365,1.03672e-06,6.76805e-07,-2.36057e-06,0.0150348,-0.00771748609506584,1.0367205374173238e-06,6.76805228971844e-07,0.017792432509465383,-2.360567213810505e-06,-0.008537001075977546
46,0.036585,0.00543357,686.738,0.00643647,0.00120649,0.00931776,0.0165777,-0.00797628,0.0181272,-0.0088299,1.04014e-06,7.15369e-07,-2.39868e-06,0.0155338,-0.007944553886839567,1.040140541030965e-06,7.153692558325986e-07,0.018292494957596883,-2.398677123149895e-06,-0.008791030920487941
47,0.037585,0.00557493,689.8,0.0066133,0.00122577,0.00930508,0.0167616,-0.00820509,0.0186181,-0.0090861,1.04332e-06,7.53643e-07,-2.43582e-06,0.0160328,-0.008171520126401877,1.0433205441806592e-06,7.536432840016261e-07,0.0187924974589444,-2.4358170334082274e-06,-0.009044946130438936
48,0.038585,0.00571047,692.796,0.0067843,0.00124447,0.00929219,0.0169392,-0.00843385,0.0191087,-0.00934225,1.04623e-06,7.91701e-07,-2.47191e-06,0.0165319,-0.008398384859680252,1.0462305473080136e-06,7.917013133962314e-07,0.019292439683998186,-2.471906944800928e-06,-0.009298746760584176
49,0.039585,0.00582983,695.727,0.00693442,0.00126497,0.00927559,0.0171056,-0.00866254,0.0195991,-0.00959834,1.04891e-06,8.2949e-07,-2.50706e-06,0.0170311,-0.008625128305079222,1.048910550194293e-06,8.294903439676204e-07,0.01979242328237718,-2.5070568573370977e-06,-0.009552422961170759
50,0.040585,0.00594166,698.597,0.00707581,0.00128547,0.00925805,0.0172652,-0.00889117,0.0200893,-0.00985437,1.05137e-06,8.67041e-07,-2.54126e-06,0.0175303,-0.008851760433555844,1.0513705526182804e-06,8.67041375807176e-07,0.020292448074334057,-2.5412567710159095e-06,-0.009805974794496963
51,0.041585,0.0060421,701.409,0.00720272,0.00130691,0.00923821,0.0174163,-0.00911974,0.0205793,-0.0101103,1.05362e-06,9.04331e-07,-2.57457e-06,0.0180296,-0.009078281297750346,1.0536205550248923e-06,9.043314088685861e-07,0.020792513880007357,-2.5745666858423277e-06,-0.010059362725198251
52,0.042585,0.00613514,704.164,0.00732075,0.00132847,0.00921733,0.0175608,-0.00934824,0.0210689,-0.0103662,1.05568e-06,9.41374e-07,-2.60701e-06,0.0185289,-0.00930468104331783,1.0556805571937389e-06,9.413744430641913e-07,0.021292416260919822,-2.607006601706985e-06,-0.010312656124004227
53,0.043585,0.00621957,706.866,0.00742796,0.00135052,0.00919494,0.0176984,-0.00957667,0.0215584,-0.0106221,1.05756e-06,9.7816e-07,-2.63862e-06,0.0190283,-0.009530959729623034,1.0575605591256476e-06,9.781604783931641e-07,0.021792461274712016,-2.638616518835235e-06,-0.010565884713322204
54,0.044585,0.00629738,709.516,0.00752707,0.00137268,0.00917164,0.01783,-0.00980503,0.0220476,-0.0108778,1.05927e-06,1.0147e-06,-2.66941e-06,0.0195276,-0.009757117415991723,1.0592705610434905e-06,1.014700514723188e-06,0.02229244443267686,-2.6694064371168835e-06,-0.010818850673524727
55,0.045585,0.00636836,712.116,0.00761766,0.00139507,0.00914729,0.0179558,-0.0100333,0.0225366,-0.0111335,1.06083e-06,1.05098e-06,-2.69943e-06,0.020027,-0.009983134361373658,1.0608305627268777e-06,1.050980552363967e-06,0.02279246768372567,-2.6994263565560672e-06,-0.011071751958600218
56,0.046585,0.00643359,714.669,0.00770117,0.0014175,0.00912221,0.0180763,-0.0102615,0.0230253,-0.0113891,1.06223e-06,1.08702e-06,-2.72868e-06,0.0205263,-0.010209030434390254,1.0622305641749819e-06,1.0870205908730668e-06,0.023292428518162156,-2.728676277152786e-06,-0.011324489717538078
57,0.047585,0.00649326,717.176,0.00777775,0.00144001,0.0090964,0.0181917,-0.0104897,0.0235138,-0.0116447,1.06349e-06,1.1228e-06,-2.7572e-06,0.0210256,-0.010434874963804242,1.0634905656115023e-06,1.1228006302488325e-06,0.02379242898466427,-2.75719619891035e-06,-0.011577162884959802
58,0.048585,0.00654801,719.639,0.00784826,0.00146248,0.00907002,0.0183024,-0.0107177,0.0240021,-0.0119001,1.06461e-06,1.15834e-06,-2.78501e-06,0.0215249,-0.01066047009349036,1.06461056659235e-06,1.158340670937008e-06,0.02429246890254766,-2.7850061218304134e-06,-0.011829573843307628
59,0.049585,0.00659812,722.06,0.007913,0.00148493,0.00904314,0.0184086,-0.0109457,0.0244901,-0.0121555,1.06561e-06,1.19364e-06,-2.81212e-06,0.0220242,-0.010886013793350191,1.0656105677853134e-06,1.1936407124935045e-06,0.024792445611766967,-2.8121160460248262e-06,-0.012081920344128139
60,0.050585,0.00664406,724.44,0.00797255,0.00150729,0.00901584,0.0185107,-0.0111736,0.0249779,-0.0124108,1.06649e-06,1.22869e-06,-2.83857e-06,0.0225234,-0.01111140718625403,1.0664905687463033e-06,1.2286907549174941e-06,0.025292461310650438,-2.8385659712748534e-06,-0.012334103637297145
61,0.051585,0.00668608,726.781,0.00802725,0.00152954,0.0089882,0.0186088,-0.0114015,0.0254654,-0.012666,1.06725e-06,1.2635e-06,-2.86437e-06,0.0230225,-0.011336749217856434,1.0672505694753198e-06,1.2635007982098045e-06,0.025792413238920453,-2.8643658976923447e-06,-0.012586123814906536
62,0.052585,0.00672454,729.083,0.00807751,0.00155167,0.00896028,0.0187033,-0.0116292,0.0259528,-0.0129212,1.06791e-06,1.29807e-06,-2.88953e-06,0.0235216,-0.011561842212249651,1.0679105701960623e-06,1.2980708425924803e-06,0.026292506323917886,-2.8895258252781275e-06,-0.012838079685172477
63,0.053585,0.00675968,731.349,0.00812364,0.00157364,0.00893212,0.0187942,-0.0118569,0.0264398,-0.0131762,1.06847e-06,1.33241e-06,-2.91408e-06,0.0240207,-0.011786883958802785,1.0684705709085307e-06,1.3324108876222596e-06,0.026792432496640206,-2.914075754034684e-06,-0.013089773882478672
64,0.054585,0.00679177,733.579,0.00816598,0.00159544,0.00890379,0.0188817,-0.0120845,0.0269267,-0.0134312,1.06892e-06,1.36652e-06,-2.93803e-06,0.0245197,-0.012011775670366154,1.068920571389853e-06,1.3665209337432316e-06,0.027292499463446473,-2.9380256839628416e-06,-0.01334140390594718
65,0.055585,0.00682103,735.775,0.00820478,0.00161706,0.00887533,0.0189662,-0.012312,0.0274133,-0.013686,1.06929e-06,1.40039e-06,-2.96141e-06,0.0250186,-0.012236517426057136,1.0692905716425116e-06,1.4003909805104797e-06,0.027792501634347655,-2.9614056150650825e-06,-0.013592772490514271
66,0.056585,0.00684766,737.937,0.00824032,0.00163848,0.00884677,0.0190476,-0.0125394,0.0278996,-0.0139408,1.06956e-06,1.43404e-06,-2.98421e-06,0.0255174,-0.01246110930492994,1.0695605718868961e-06,1.4340410281477034e-06,0.028292438677732124,-2.984205547229557e-06,-0.01384407703452517
67,0.057585,0.00687186,740.068,0.00827282,0.00165969,0.00881815,0.0191263,-0.0127667,0.0283857,-0.0141955,1.06975e-06,1.46746e-06,-3.00647e-06,0.0260161,-0.012685551385976157,1.0697505721246614e-06,1.4674610766540752e-06,0.028792413141121687,-3.006465480570597e-06,-0.014095218963822154
68,0.058585,0.0068938,742.167,0.0083025,0.00168069,0.0087895,0.0192022,-0.012994,0.0288716,-0.0144501,1.06987e-06,1.50066e-06,-3.02819e-06,0.0265147,-0.012909942457134727,1.0698705723566349e-06,1.5006611260304226e-06,0.02929242484267225,-3.0281854150882026e-06,-0.014346198370039809
69,0.059585,0.00691364,744.236,0.00832955,0.00170146,0.00876085,0.0192755,-0.0132212,0.0293573,-0.0147046,1.0699e-06,1.53364e-06,-3.04938e-06,0.0270133,-0.013134183843422353,1.069900572359117e-06,1.5336411760547008e-06,0.029792473600428693,-3.049375350672179e-06,-0.014597015344740782
70,0.060585,0.00693153,746.276,0.00835416,0.00172201,0.00873222,0.0193465,-0.0134482,0.0298427,-0.014959,1.06986e-06,1.56641e-06,-3.07007e-06,0.0275117,-0.01335817695950936,1.0698605723558074e-06,1.5664112267277375e-06,0.030292456203075302,-3.070065287325008e-06,-0.014847669979415667
71,0.061585,0.0069476,748.287,0.00837649,0.00174232,0.00870363,0.0194151,-0.0136752,0.0303279,-0.0152134,1.06975e-06,1.59895e-06,-3.09026e-06,0.0280101,-0.01358211923492969,1.0697505721246614e-06,1.5989512782699222e-06,0.030792475397672048,-3.090255225157712e-06,-0.015098260855662016
72,0.062585,0.00696197,750.271,0.0083967,0.00176239,0.00867511,0.0194814,-0.0139021,0.0308128,-0.0154676,1.06957e-06,1.63129e-06,-3.10996e-06,0.0285083,-0.013805912061818915,1.0695705718877235e-06,1.6312913304616927e-06,0.031292427872673834,-3.1099551640600964e-06,-0.015348591059435646
73,0.063585,0.00697475,752.227,0.00841492,0.00178223,0.00864666,0.0195457,-0.0141289,0.0312975,-0.0157217,1.06933e-06,1.66342e-06,-3.12919e-06,0.0290064,-0.014029555518836667,1.0693305716458212e-06,1.6634213835242662e-06,0.03179241647491282,-3.129185104144838e-06,-0.015598759197239409
74,0.064585,0.00698606,754.158,0.00843129,0.00180182,0.00861831,0.0196079,-0.0143557,0.031782,-0.0159758,1.06902e-06,1.69534e-06,-3.14795e-06,0.0295044,-0.014253148259269821,1.0690205713981271e-06,1.6953414370135533e-06,0.03229244102186013,-3.1479450451898927e-06,-0.015848863775395072
75,0.065585,0.00699599,756.064,0.00844593,0.00182117,0.00859007,0.0196682,-0.0145823,0.0322663,-0.0162297,1.06866e-06,1.72706e-06,-3.16627e-06,0.0300023,-0.014476493189937933,1.0686605709242514e-06,1.7270614913744708e-06,0.032792501330876966,-3.166264987419787e-06,-0.01609870802981217
76,0.066585,0.00700463,757.945,0.00845894,0.00184028,0.00856195,0.0197267,-0.0148088,0.0327503,-0.0164836,1.06824e-06,1.75857e-06,-3.18414e-06,0.0305001,-0.01469968898635221,1.0682405706674558e-06,1.7585715463841467e-06,0.033292493889959696,-3.1841349306116484e-06,-0.016348488856825605
77,0.067585,0.00701207,759.802,0.00847043,0.00185915,0.00853396,0.0197834,-0.0150353,0.033234,-0.0167373,1.06776e-06,1.78989e-06,-3.20158e-06,0.0309978,-0.014922834234643467,1.0677605699616066e-06,1.789891601822191e-06,0.033792418366241916,-3.201574874989177e-06,-0.016598009592158958
78,0.068585,0.00701837,761.635,0.0084805,0.00187777,0.00850611,0.0198383,-0.0152617,0.0337176,-0.016991,1.06723e-06,1.82101e-06,-3.2186e-06,0.0314953,-0.015145830460847387,1.067230569473665e-06,1.8210116581318658e-06,0.03429248128523188,-3.2185948203311554e-06,-0.016847467032111263
79,0.069585,0.00702361,763.446,0.00848923,0.00189616,0.00847841,0.0198917,-0.0154879,0.0342009,-0.0172445,1.06665e-06,1.85194e-06,-3.23521e-06,0.0319927,-0.015368579280156003,1.0666505689815864e-06,1.851941714869909e-06,0.03479247565534416,-3.2352047667494332e-06,-0.017096664612090806
80,0.070585,0.00702786,765.235,0.00849671,0.0019143,0.00845086,0.0199434,-0.0157141,0.034684,-0.017498,1.06602e-06,1.88267e-06,-3.25141e-06,0.0324899,-0.015591277719379737,1.0660205682633261e-06,1.8826717722575381e-06,0.03529250467261735,-3.2514047141329883e-06,-0.017345799028490205
81,0.071585,0.00703118,767.002,0.00850301,0.00193221,0.00842347,0.0199937,-0.0159402,0.0351668,-0.0177513,1.06534e-06,1.91322e-06,-3.26722e-06,0.032987,-0.015813827371301215,1.0653405675409289e-06,1.9132218302964077e-06,0.03579246457448204,-3.2672146625944976e-06,-0.017594673816273776
82,0.072585,0.00703363,768.749,0.00850821,0.00194988,0.00839625,0.0200425,-0.0161662,0.0356494,-0.0180046,1.06462e-06,1.94358e-06,-3.28264e-06,0.033484,-0.01603622831406215,1.064620566815222e-06,1.943581888763646e-06,0.03629245865675368,-3.282634612133961e-06,-0.01784348557205684
83,0.073585,0.00703525,770.475,0.00851237,0.00196732,0.0083692,0.0200899,-0.0163921,0.0361318,-0.0182577,1.06385e-06,1.97375e-06,-3.29769e-06,0.0339809,-0.0162584806257422,1.0638505658633335e-06,1.973751947881297e-06,0.03679248673588553,-3.2976845626420115e-06,-0.018092037930230842
84,0.074585,0.00703611,772.18,0.00851554,0.00198453,0.00834232,0.020136,-0.0166179,0.0366139,-0.0185108,1.06304e-06,2.00375e-06,-3.31236e-06,0.0344776,-0.016480584384358954,1.06304056513018e-06,2.0037520074289716e-06,0.037292444898972876,-3.3123545141178212e-06,-0.018340527387763372
85,0.075585,0.00703624,773.867,0.0085178,0.00200151,0.00831562,0.0201808,-0.0168436,0.0370958,-0.0187637,1.06219e-06,2.03356e-06,-3.32667e-06,0.0349741,-0.01670253966786739,1.0621905641716722e-06,2.0335620676270594e-06,0.037792436591491896,-3.3266644666740675e-06,-0.01858875767834367
86,0.076585,0.00703569,775.534,0.00851919,0.00201826,0.0082891,0.0202244,-0.0170692,0.0375775,-0.0190166,1.06129e-06,2.0632e-06,-3.34062e-06,0.0354705,-0.016924346554160863,1.0612905632090275e-06,2.063202128477215e-06,0.038292461629559904,-3.3406144200887056e-06,-0.01883692519942104
87,0.077585,0.00703449,777.183,0.00851976,0.00203479,0.00826277,0.0202667,-0.0172948,0.0380589,-0.0192693,1.06036e-06,2.09266e-06,-3.35422e-06,0.0359668,-0.01714610340646472,1.0603605622439005e-06,2.092662189534522e-06,0.038792415949937986,-3.3542143745846076e-06,-0.019084833783854283
88,0.078585,0.0070327,778.814,0.00851957,0.0020511,0.00823661,0.0203079,-0.0175202,0.0385402,-0.0195219,1.05939e-06,2.12195e-06,-3.36748e-06,0.0364629,-0.017367613709607932,1.0593905610534193e-06,2.121952251243897e-06,0.03929250707701071,-3.3674743300515786e-06,-0.01933258166296603
89,0.079585,0.00703033,780.427,0.00851864,0.0020672,0.00821065,0.020348,-0.0177456,0.0390211,-0.0197745,1.05839e-06,2.15107e-06,-3.38041e-06,0.0369588,-0.017589074089955248,1.0583905600825005e-06,2.15107231360534e-06,0.03979242303882269,-3.3804042863794237e-06,-0.019580266968866833
90,0.080585,0.00702743,782.022,0.00851704,0.00208307,0.00818487,0.020387,-0.0179708,0.0395019,-0.0200269,1.05735e-06,2.18002e-06,-3.39301e-06,0.0374546,-0.017810288120835405,1.0573505588862275e-06,2.1800223761747617e-06,0.04029247543878367,-3.3930042437901875e-06,-0.019827693682919034
91,0.081585,0.00702403,783.601,0.00851479,0.00209874,0.00815927,0.0204249,-0.0181959,0.0399824,-0.0202792,1.05628e-06,2.20881e-06,-3.40528e-06,0.0379503,-0.018031354143065226,1.056280557909517e-06,2.2088124393970787e-06,0.040792456083962314,-3.4052742020618254e-06,-0.02007495996185016
92,0.082585,0.00702015,785.164,0.00851192,0.0021142,0.00813387,0.0204618,-0.018421,0.0404627,-0.0205315,1.05517e-06,2.23743e-06,-3.41724e-06,0.0384458,-0.018252370408933682,1.055170556707452e-06,2.237432503049419e-06,0.04129246876905346,-3.4172341611959922e-06,-0.02032216386336827
93,0.083585,0.00701582,786.71,0.00850849,0.00212945,0.00810865,0.0204978,-0.018646,0.0409428,-0.0207836,1.05403e-06,2.26588e-06,-3.42888e-06,0.0389411,-0.01847323877696838,1.054030555502905e-06,2.265882567131783e-06,0.041792513309396595,-3.428874121413905e-06,-0.02056910951705071
94,0.084585,0.00701108,788.24,0.0085045,0.0021445,0.00808362,0.0205328,-0.0188708,0.0414226,-0.0210356,1.05286e-06,2.29418e-06,-3.44023e-06,0.0394362,-0.018693861194002626,1.0528605542958758e-06,2.2941826316458247e-06,0.042292485290969406,-3.4402240823849795e-06,-0.020815895005175
95,0.085585,0.00700593,789.755,0.00850001,0.00215935,0.00805878,0.020567,-0.0190956,0.0419022,-0.0212875,1.05166e-06,2.32232e-06,-3.45127e-06,0.0399312,-0.018914434020691595,1.0516605530863643e-06,2.3223226965907173e-06,0.04279248865813834,-3.451264044329605e-06,-0.021062520417448383
96,0.086585,0.00700041,791.254,0.00849503,0.00217401,0.00803412,0.0206002,-0.0193203,0.0423815,-0.0215393,1.05043e-06,2.3503e-06,-3.46202e-06,0.0404261,-0.019134859181672792,1.050430551652326e-06,2.3503027619664607e-06,0.04329241889666302,-3.4620140072494365e-06,-0.021308985843507933
97,0.087585,0.00699453,792.739,0.00848959,0.00218847,0.00800966,0.0206326,-0.0195449,0.0428607,-0.021791,1.04917e-06,2.37812e-06,-3.47247e-06,0.0409207,-0.019355136754203306,1.0491705504378501e-06,2.378122827773055e-06,0.04379248442993089,-3.4724639710326244e-06,-0.021555291372919894
98,0.088585,0.00698832,794.209,0.00848371,0.00220274,0.00798538,0.0206641,-0.0197693,0.0433396,-0.0220426,1.04789e-06,2.4058e-06,-3.48265e-06,0.0414152,-0.019575168772999807,1.0478905489996748e-06,2.4058028940121545e-06,0.044292476364237165,-3.4826439355706285e-06,-0.02180143709518012
99,0.089585,0.00698179,795.665,0.00847743,0.00221682,0.00796128,0.0206948,-0.0199937,0.0438183,-0.0222941,1.04658e-06,2.43332e-06,-3.49255e-06,0.0419096,-0.019795151422150825,1.0465805475590173e-06,2.4333229604600604e-06,0.04479249884350467,-3.492543901084666e-06,-0.02204742309971397
100,0.090585,0.00697496,797.107,0.00847075,0.00223072,0.00793737,0.0207248,-0.020218,0.0442967,-0.0225455,1.04524e-06,2.46069e-06,-3.50217e-06,0.0424037,-0.02001498671423707,1.0452405463379222e-06,2.460693027561689e-06,0.04529244715305181,-3.5021638674637146e-06,-0.02229324947587652
101,0.091585,0.00696786,798.535,0.00846371,0.00224444,0.00791364,0.020754,-0.0204422,0.0447749,-0.0227968,1.04387e-06,2.48791e-06,-3.51152e-06,0.0428977,-0.020234674726269386,1.0438705448923002e-06,2.487913094872951e-06,0.04579242553658425,-3.5115138345975794e-06,-0.02253891631295235
102,0.092585,0.00696048,799.95,0.00845632,0.00225798,0.00789009,0.0207825,-0.0206663,0.0452529,-0.0230479,1.04249e-06,2.51499e-06,-3.52061e-06,0.0433915,-0.020454215535196774,1.042490543445851e-06,2.514993162616719e-06,0.046292433808447386,-3.5206038027091324e-06,-0.022784325978593145
103,0.093585,0.00695286,801.352,0.0084486,0.00227134,0.00786672,0.0208102,-0.0208903,0.0457307,-0.023299,1.04107e-06,2.54193e-06,-3.52944e-06,0.0438852,-0.020673609217907063,1.041070541996092e-06,2.541933230792992e-06,0.04679247178288026,-3.529433771576329e-06,-0.023029674029602987
104,0.094585,0.006945,802.741,0.00844057,0.00228454,0.00784353,0.0208373,-0.0211142,0.0462082,-0.02355,1.03964e-06,2.56872e-06,-3.53801e-06,0.0443787,-0.020892855851226688,1.039640540323461e-06,2.568723299178899e-06,0.04729243454476628,-3.5380037411991694e-06,-0.02327486280894253
105,0.095585,0.00693691,804.118,0.00843225,0.00229756,0.00782052,0.0208636,-0.021338,0.0466855,-0.0238008,1.03818e-06,2.59537e-06,-3.54633e-06,0.044872,-0.021111955511920688,1.0381805388703924e-06,2.5953733679973112e-06,0.04779242653737148,-3.5463237118005253e-06,-0.0235197947575998
106,0.096585,0.00692862,805.482,0.00842364,0.00231041,0.00779769,0.0208894,-0.0215617,0.0471626,-0.0240516,1.0367e-06,2.62188e-06,-3.5544e-06,0.0453651,-0.021330908276692817,1.036700537415669e-06,2.6218834370261845e-06,0.048292447574606046,-3.5543936831583522e-06,-0.023764665285026965
107,0.097585,0.00692012,806.833,0.00841478,0.0023231,0.00777503,0.0209144,-0.0217853,0.0476395,-0.0243022,1.03519e-06,2.64825e-06,-3.56223e-06,0.045858,-0.02154971422218588,1.0351905357364188e-06,2.648253506709608e-06,0.0487924974702747,-3.5622236552734776e-06,-0.02400927920850171
108,0.098585,0.00691144,808.173,0.00840566,0.00233563,0.00775254,0.0209389,-0.0220089,0.0481161,-0.0245527,1.03367e-06,2.67449e-06,-3.56982e-06,0.0463508,-0.021768471248138854,1.0336705342783858e-06,2.6744935763822753e-06,0.04929247110882318,-3.5698136281459014e-06,-0.024253734264785942
109,0.099585,0.00690257,809.502,0.0083963,0.002348,0.00773023,0.0209628,-0.0222323,0.0485925,-0.0248032,1.03212e-06,2.70059e-06,-3.57718e-06,0.0468434,-0.02198698376290531,1.032120532595826e-06,2.700593646487448e-06,0.04979247313308499,-3.5771736018874734e-06,-0.02449812809274765
110,0.1006,0.00689355,810.818,0.00838672,0.00236021,0.00770808,0.020986,-0.0224556,0.0490687,-0.0250535,1.03056e-06,2.72656e-06,-3.5843e-06,0.0473358,-0.022205349687968168,1.0305605311344834e-06,2.726563717025954e-06,0.05029250335653801,-3.5842935763863437e-06,-0.024742265656195306
111,0.1016,0.00688436,812.124,0.00837693,0.00237227,0.00768611,0.0210087,-0.0226788,0.0495446,-0.0253037,1.02897e-06,2.75239e-06,-3.59119e-06,0.047828,-0.022423569099725538,1.028970529448614e-06,2.7523937877749205e-06,0.05079245651330311,-3.59118355164334e-06,-0.024986244618287246
112,0.1026,0.00687502,813.418,0.00836693,0.00238417,0.0076643,0.0210309,-0.0229019,0.0500203,-0.0255538,1.02737e-06,2.7781e-06,-3.59786e-06,0.04832,-0.022641642074514468,1.0273705277619172e-06,2.7781038589580476e-06,0.05129243739589118,-3.5978535276592893e-06,-0.02523006506749015
113,0.1036,0.00686554,814.701,0.00835675,0.00239593,0.00764265,0.0210525,-0.023125,0.0504958,-0.0258038,1.02574e-06,2.80368e-06,-3.60431e-06,0.0488119,-0.02285966640264958,1.0257405260727381e-06,2.803683930352463e-06,0.051792445817454125,-3.604303504434192e-06,-0.02547372709220108
114,0.1046,0.00685593,815.974,0.00834639,0.00240754,0.00762117,0.0210735,-0.0233479,0.0509711,-0.0260537,1.0241e-06,2.82912e-06,-3.61054e-06,0.0493036,-0.02307744671049139,1.0241005243827317e-06,2.8291240019573394e-06,0.05229248159103905,-3.610533481968048e-06,-0.025717230780747613
115,0.1056,0.0068462,817.237,0.00833585,0.00241901,0.00759985,0.0210941,-0.0235707,0.0514461,-0.0263034,1.02244e-06,2.85445e-06,-3.61656e-06,0.0497951,-0.023295080810025293,1.0224405226910704e-06,2.8544540739972035e-06,0.05279243925033872,-3.6165534602616844e-06,-0.025960478817440458
116,0.1066,0.00683634,818.488,0.00832515,0.00243033,0.0075787,0.0211141,-0.0237935,0.0519209,-0.0265531,1.02076e-06,2.87964e-06,-3.62236e-06,0.0502864,-0.023512666426083184,1.0207605209977544e-06,2.8796441462475286e-06,0.05329242378743104,-3.6223534393142742e-06,-0.026203666122681102
117,0.1076,0.00682638,819.73,0.00831431,0.00244151,0.00755769,0.0211337,-0.0240161,0.0523955,-0.0268027,1.01907e-06,2.90472e-06,-3.62796e-06,0.0507775,-0.023730008315486995,1.019070519303611e-06,2.904724218710797e-06,0.053792435015039386,-3.6279534190164497e-06,-0.026446695356306726
118,0.1086,0.00681631,820.962,0.00830331,0.00245256,0.00753685,0.0211528,-0.0242387,0.0528699,-0.0270521,1.01736e-06,2.92967e-06,-3.63335e-06,0.0512685,-0.023947301829970513,1.0173605176078127e-06,2.9296742913853535e-06,0.054292472745782305,-3.6333433993673836e-06,-0.02668946927531879
119,0.1096,0.00680614,822.184,0.00829218,0.00246347,0.00751616,0.0211714,-0.0244611,0.053344,-0.0273015,1.01563e-06,2.9545e-06,-3.63854e-06,0.0517592,-0.024164351813190765,1.015630515688315e-06,2.9545043644940705e-06,0.05479243131292466,-3.6385333804789255e-06,-0.026932182654065162
120,0.1106,0.00679588,823.396,0.00828093,0.00247425,0.00749562,0.0211895,-0.0246834,0.0538179,-0.0275507,1.01389e-06,2.97921e-06,-3.64353e-06,0.0522498,-0.024381255967992677,1.0138905139900345e-06,2.9792144378149032e-06,0.05529241590811651,-3.6435233623510754e-06,-0.027174640942590256
121,0.1116,0.00678554,824.599,0.00826955,0.0024849,0.00747524,0.0212072,-0.0249057,0.0542916,-0.0277998,1.01213e-06,3.0038e-06,-3.64832e-06,0.0527402,-0.024598111910359877,1.0121305122900992e-06,3.0038045113478518e-06,0.055792426343654,-3.648313344872811e-06,-0.02741694155973673
122,0.1126,0.00677511,825.793,0.00825805,0.00249542,0.007455,0.0212245,-0.0251278,0.0547651,-0.0280488,1.01035e-06,3.02827e-06,-3.65292e-06,0.0532304,-0.024814724613973493,1.0103505103664645e-06,3.0282745853149606e-06,0.05629246243172914,-3.65291332804496e-06,-0.02765908459322952
123,0.1136,0.0067646,826.977,0.00824645,0.00250581,0.00743491,0.0212413,-0.0253499,0.0552383,-0.0282977,1.00856e-06,3.05263e-06,-3.65733e-06,0.0537204,-0.02503128921324771,1.008560508664047e-06,3.052634659272968e-06,0.056792418305182224,-3.657323311978544e-06,-0.027901070130724848
124,0.1146,0.00675403,828.153,0.00823474,0.00251608,0.00741497,0.0212578,-0.0255718,0.0557114,-0.0285465,1.00676e-06,3.07687e-06,-3.66155e-06,0.0542102,-0.02524761076840709,1.0067605067387575e-06,3.076874733665136e-06,0.05729250508448258,-3.6615432965625416e-06,-0.028142898259809646
125,0.1156,0.00674338,829.319,0.00822294,0.00252622,0.00739518,0.0212738,-0.0257937,0.0561842,-0.0287952,1.00494e-06,3.101e-06,-3.66559e-06,0.0546998,-0.025463884327138864,1.0049405050338578e-06,3.1010048080482022e-06,0.05779251117301154,-3.6655832816867573e-06,-0.028384569068001797
126,0.1166,0.00673268,830.477,0.00821105,0.00253624,0.00737552,0.0212894,-0.0260154,0.0566567,-0.0290438,1.0031e-06,3.12502e-06,-3.66944e-06,0.0551893,-0.02567991503609457,1.0031005031052587e-06,3.1250248828662563e-06,0.058292436232535216,-3.6694332675724084e-06,-0.02862608264275035
127,0.1176,0.00672191,831.626,0.00819907,0.00254614,0.00735601,0.0213046,-0.0262371,0.0571291,-0.0292923,1.00126e-06,3.14892e-06,-3.67311e-06,0.0556785,-0.025895897856350825,1.0012605011766595e-06,3.1489249578964262e-06,0.058792491683209436,-3.6731032541093e-06,-0.028867439071435297
128,0.1186,0.00671109,832.766,0.00818701,0.00255593,0.00733664,0.0213195,-0.0264587,0.0576012,-0.0295407,9.99396e-07,3.17271e-06,-3.67661e-06,0.0561676,-0.026111735409701686,9.993964993348925e-07,3.1727150331395393e-06,0.05929246562809665,-3.6766032412982597e-06,-0.029108638441368018
129,0.1196,0.00670022,833.899,0.00817487,0.0025656,0.0073174,0.021334,-0.0266801,0.0580731,-0.0297889,9.97522e-07,3.19639e-06,-3.67993e-06,0.0566564,-0.026327330404235405,9.97522497492298e-07,3.196395108373551e-06,0.059792463707894816,-3.6799232290274375e-06,-0.02934958377475405
130,0.1206,0.0066893,835.023,0.00816267,0.00257516,0.0072983,0.0213481,-0.0269015,0.0585448,-0.0300371,9.95635e-07,3.21997e-06,-3.68308e-06,0.0571451,-0.02654287767132102,9.95635495604219e-07,3.2199751840433777e-06,0.0602924857339493,-3.6830732175197056e-06,-0.0295904693129293
131,0.1216,0.00667834,836.139,0.00815039,0.0025846,0.00727934,0.0213619,-0.0271228,0.0590162,-0.0302851,9.93736e-07,3.24344e-06,-3.68606e-06,0.0576336,-0.026758279897356907,9.93736493759556e-07,3.2434452599261476e-06,0.06079242543825458,-3.686053206441997e-06,-0.029831101036972507
132,0.1226,0.00666734,837.247,0.00813806,0.00259393,0.00726051,0.0213753,-0.0273439,0.0594875,-0.0305331,9.91824e-07,3.2668e-06,-3.68887e-06,0.0581219,-0.02697343985486178,9.918244918694086e-07,3.2668053360218607e-06,0.0612924947404383,-3.6888631961273788e-06,-0.03007167309174763
133,0.1236,0.0066563,838.347,0.00812566,0.00260316,0.00724181,0.0213883,-0.027565,0.0599585,-0.0307809,9.89899e-07,3.29005e-06,-3.69151e-06,0.05861,-0.02718855224575878,9.898994899337765e-07,3.290055412330517e-06,0.061792481243039266,-3.691503186353806e-06,-0.030311991554468176
134,0.1246,0.00664522,839.439,0.00811321,0.00261228,0.00722325,0.0214011,-0.027786,0.0604293,-0.0310286,9.87963e-07,3.3132e-06,-3.69399e-06,0.0590979,-0.027403519820920486,9.87963488130461e-07,3.3132054886308993e-06,0.06229249083623101,-3.693983177233129e-06,-0.03055215352887164
135,0.1256,0.00663411,840.524,0.00810071,0.00262129,0.00720481,0.0214135,-0.0280068,0.0608998,-0.0312762,9.86015e-07,3.33625e-06,-3.69631e-06,0.0595856,-0.027618245417165843,9.86015486148517e-07,3.3362555653670967e-06,0.06279241705158922,-3.6963031686543246e-06,-0.030792159101741823
136,0.1266,0.00662298,841.601,0.00808816,0.0026302,0.0071865,0.0214256,-0.0282276,0.0613702,-0.0315237,9.84055e-07,3.3592e-06,-3.69847e-06,0.0600731,-0.02783292360723333,9.840554842099891e-07,3.35920564209502e-06,0.06329247220832235,-3.6984631606173934e-06,-0.03103200835979414
137,0.1276,0.00661181,842.671,0.00807557,0.002639,0.00716831,0.0214373,-0.0284483,0.0618403,-0.0317711,9.82085e-07,3.38204e-06,-3.70048e-06,0.0605604,-0.02804745720633972,9.820854822706337e-07,3.3820457190358866e-06,0.06379244350855418,-3.700473153234185e-06,-0.03127170138967561
138,0.1286,0.00660063,843.733,0.00806294,0.00264771,0.00715025,0.0214488,-0.0286689,0.0623102,-0.0320184,9.80102e-07,3.40478e-06,-3.70232e-06,0.0610475,-0.028261846289294734,9.801024802857938e-07,3.4047857961905237e-06,0.06429243704203924,-3.7023131463920222e-06,-0.03151123827796487
139,0.1296,0.00658942,844.789,0.00805027,0.00265631,0.00713231,0.02146,-0.0288894,0.0627799,-0.0322655,9.78109e-07,3.42743e-06,-3.70402e-06,0.0615345,-0.02847609093084813,9.781094783001265e-07,3.4274358735597588e-06,0.06479245261918343,-3.7040131400933873e-06,-0.031750522286229654
140,0.1306,0.00657819,845.837,0.00803756,0.00266482,0.0071145,0.0214708,-0.0291097,0.0632494,-0.0325126,9.76106e-07,3.44997e-06,-3.70556e-06,0.0620212,-0.028690094074704353,9.761064763136318e-07,3.449975951141937e-06,0.06529249005028981,-3.7055531344476478e-06,-0.031989747174720584
141,0.1316,0.00656694,846.878,0.00802482,0.00267323,0.0070968,0.0214814,-0.02933,0.0637186,-0.0327595,9.74092e-07,3.47242e-06,-3.70696e-06,0.0625077,-0.028904050078860433,9.740924744594537e-07,3.4724260289387132e-06,0.06579244256630967,-3.7069531292344138e-06,-0.03222871940380745
142,0.1326,0.00655568,847.913,0.00801205,0.00268154,0.00707922,0.0214917,-0.0295502,0.0641876,-0.0330064,9.72067e-07,3.49477e-06,-3.7082e-06,0.0629941,-0.02911786186549148,9.720674725155476e-07,3.4947761067272154e-06,0.06629241645658612,-3.708193124674075e-06,-0.032467632637934174
143,0.1336,0.0065444,848.94,0.00799925,0.00268976,0.00706176,0.0215017,-0.0297703,0.0646565,-0.0332531,9.70033e-07,3.51702e-06,-3.7093e-06,0.0634802,-0.029331529509108112,9.7003347043767e-07,3.517026184729488e-06,0.0667925182103557,-3.709293120546242e-06,-0.03270629343294296
144,0.1346,0.00653312,849.961,0.00798643,0.00269789,0.00704442,0.0215114,-0.0299903,0.065125,-0.0334997,9.67988e-07,3.53918e-06,-3.71026e-06,0.0639662,-0.029545053084161665,9.679884684921092e-07,3.539186262946359e-06,0.06729242759976795,-3.710253116961937e-06,-0.03294479865208022
145,0.1356,0.00652182,850.975,0.00797358,0.00270593,0.00702719,0.0215209,-0.0302102,0.0655934,-0.0337463,9.65934e-07,3.56124e-06,-3.71108e-06,0.0644519,-0.029758432665043633,9.659344664125769e-07,3.5612463411549555e-06,0.06779246447234888,-3.7110731139211595e-06,-0.03318324506308179
146,0.1366,0.00651051,851.983,0.00796072,0.00271388,0.00701007,0.0215301,-0.03043,0.0660615,-0.0339927,9.6387e-07,3.58321e-06,-3.71176e-06,0.0649375,-0.02997166832608622,9.638704645542617e-07,3.5832164198001948e-06,0.06829241512929074,-3.71175311142391e-06,-0.03342143936475517
147,0.1376,0.0064992,852.984,0.00794784,0.00272173,0.00699307,0.021539,-0.0306497,0.0665295,-0.034239,9.61797e-07,3.60509e-06,-3.71229e-06,0.0654228,-0.030184760141561906,9.617974625619752e-07,3.6050964984379874e-06,0.06879249298866297,-3.712283109469361e-06,-0.03365947834853533
148,0.1386,0.00648788,853.979,0.00793493,0.0027295,0.00697617,0.0215477,-0.0308693,0.0669972,-0.0344852,9.59714e-07,3.62687e-06,-3.7127e-06,0.065908,-0.03039770818568388,9.597144605688612e-07,3.626876577067506e-06,0.06929248415145306,-3.7126931079489722e-06,-0.0338973621002745
149,0.1396,0.00647656,854.968,0.00792202,0.00273719,0.00695939,0.0215562,-0.0310888,0.0674647,-0.0347312,9.57623e-07,3.64857e-06,-3.71296e-06,0.066393,-0.030610512532605605,9.576234585306764e-07,3.6485766561344946e-06,0.06979249525628273,-3.712953106971284e-06,-0.03413499411926113
150,0.1406,0.00646524,855.95,0.00790909,0.00274479,0.00694272,0.0215643,-0.0313082,0.0679319,-0.0349772,9.55522e-07,3.67017e-06,-3.7131e-06,0.0668777,-0.030823173256421477,9.555224564916642e-07,3.6701767349711645e-06,0.07029241908317907,-3.713093106427756e-06,-0.03437256768796082
151,0.1416,0.00645391,856.926,0.00789616,0.0027523,0.00692615,0.0215723,-0.0315275,0.068399,-0.0352231,9.53413e-07,3.69168e-06,-3.7131e-06,0.0673623,-0.031035690431166496,9.534134544075812e-07,3.691686814244477e-06,0.07079246944980411,-3.713093106427756e-06,-0.034609986281753824
152,0.1426,0.00644259,857.897,0.00788321,0.00275973,0.00690968,0.02158,-0.0317467,0.0688658,-0.0354688,9.51295e-07,3.71311e-06,-3.71297e-06,0.0678467,-0.031248064130816045,9.512954524115713e-07,3.7131168935111702e-06,0.07129243205673719,-3.7129631069721114e-06,-0.03484715347094214
153,0.1436,0.00643126,858.861,0.00787025,0.00276708,0.00689333,0.0215875,-0.0319658,0.0693324,-0.0357145,9.49169e-07,3.73445e-06,-3.71271e-06,0.0683309,-0.031460294429286884,9.491694503704906e-07,3.7344569729924615e-06,0.07179241374219081,-3.7127031079497996e-06,-0.03508426239531015
154,0.1446,0.00641994,859.819,0.00785729,0.00277435,0.00687707,0.0215947,-0.0321848,0.0697988,-0.03596,9.47034e-07,3.7557e-06,-3.71233e-06,0.0688148,-0.03167238140043582,9.470344484174831e-07,3.7557070526883507e-06,0.07229241431503008,-3.7123231093616482e-06,-0.03532112013341515
155,0.1456,0.00640862,860.772,0.00784433,0.00278154,0.00686092,0.0216018,-0.0324038,0.070265,-0.0362054,9.44892e-07,3.77686e-06,-3.71182e-06,0.0692986,-0.03188442192962371,9.448924465083053e-07,3.7768671323767933e-06,0.0727924335840191,-3.7118131112068298e-06,-0.03555782328586965
156,0.1466,0.00639731,861.719,0.00783136,0.00278865,0.00684487,0.0216086,-0.0326226,0.070731,-0.0364508,9.42741e-07,3.79794e-06,-3.71119e-06,0.0697822,-0.03209622244628396,9.427414444651561e-07,3.7979472122806612e-06,0.07329247135782158,-3.711183113597194e-06,-0.03579446835849731
157,0.1476,0.006386,862.66,0.00781839,0.00279569,0.00682892,0.0216152,-0.0328413,0.0711967,-0.036696,9.40582e-07,3.81893e-06,-3.71044e-06,0.0702656,-0.03230787985685357,9.40582442376936e-07,3.8189372921770826e-06,0.07379242006575404,-3.7104331163106963e-06,-0.03603086257174093
158,0.1486,0.0063747,863.596,0.00780542,0.00280264,0.00681306,0.0216215,-0.0330599,0.0716623,-0.0369411,9.38416e-07,3.83983e-06,-3.70956e-06,0.0707487,-0.03251939423495298,9.384164403325457e-07,3.839837372066057e-06,0.07429249422476691,-3.709553119568554e-06,-0.036267102454944244
159,0.1496,0.00636341,864.526,0.00779245,0.00280953,0.00679731,0.0216277,-0.0332784,0.0721276,-0.0371861,9.36242e-07,3.86066e-06,-3.70856e-06,0.0712317,-0.032730765654144234,9.362424382430845e-07,3.860667452393329e-06,0.0747924788347285,-3.7085531232605717e-06,-0.03650318809317121
160,0.1506,0.00635213,865.451,0.00777949,0.00281633,0.00678165,0.0216337,-0.0334969,0.0725927,-0.037431,9.3406e-07,3.8814e-06,-3.70745e-06,0.0717145,-0.03294209089372557,9.340604363305971e-07,3.881407532713155e-06,0.07529248108314412,-3.7074431273875774e-06,-0.0367391195714184
161,0.1516,0.00634085,866.37,0.00776652,0.00282307,0.00676609,0.0216394,-0.0337152,0.0730576,-0.0376757,9.31871e-07,3.90205e-06,-3.70622e-06,0.0721971,-0.03315317659444095,9.318714342398948e-07,3.9020576130255336e-06,0.0757925007781719,-3.7062131319487435e-06,-0.03697480067210068
162,0.1526,0.00632959,867.284,0.00775356,0.00282973,0.00675062,0.021645,-0.0339334,0.0735222,-0.0379204,9.29675e-07,3.92263e-06,-3.70488e-06,0.0726795,-0.03336411955659391,9.296754321930223e-07,3.922637693554165e-06,0.07629243009862186,-3.7048731369448973e-06,-0.037210424108673035
163,0.1536,0.00631833,868.193,0.00774061,0.00283631,0.00673525,0.0216503,-0.0341516,0.0739867,-0.038165,9.27472e-07,3.94312e-06,-3.70342e-06,0.0731616,-0.0335750164960138,9.274724301899795e-07,3.94312777407535e-06,0.07679248406094463,-3.7034131423752115e-06,-0.0374458936398383
164,0.1546,0.00630709,869.096,0.00772766,0.00284283,0.00671997,0.0216555,-0.0343696,0.0744509,-0.0384094,9.25262e-07,3.96354e-06,-3.70184e-06,0.0736436,-0.033785674179895864,9.252624280087218e-07,3.963547854812788e-06,0.07729244716450423,-3.701833148239686e-06,-0.03768111311844169
165,0.1556,0.00629586,869.995,0.00771472,0.00284928,0.00670478,0.0216605,-0.0345876,0.0749149,-0.0386538,9.23045e-07,3.98387e-06,-3.70016e-06,0.0741254,-0.033996285945408156,9.230454260933385e-07,3.983877935542779e-06,0.07779242684630439,-3.7001531544289534e-06,-0.03791627511642881
166,0.1566,0.00628464,870.888,0.00770179,0.00285566,0.00668968,0.0216653,-0.0348054,0.0753787,-0.038898,9.20821e-07,4.00413e-06,-3.69837e-06,0.074607,-0.034206658643910814,9.208214239997403e-07,4.004138016489023e-06,0.07829242291400096,-3.6983631610532086e-06,-0.03815118727810307
167,0.1576,0.00627344,871.777,0.00768887,0.00286197,0.00667467,0.0216699,-0.0350232,0.0758423,-0.0391421,9.1859e-07,4.0243e-06,-3.69646e-06,0.0750884,-0.03441698552822903,9.185904219499719e-07,4.02430809742782e-06,0.07879243517515055,-3.696453168111624e-06,-0.03838594591983058
168,0.1586,0.00626225,872.66,0.00767596,0.00286821,0.00665975,0.0216743,-0.0352408,0.0763057,-0.0393862,9.16353e-07,4.0444e-06,-3.69445e-06,0.0755696,-0.03462707353377403,9.163534198108891e-07,4.04440817858287e-06,0.07929246343721119,-3.6944431754948326e-06,-0.03862064726396708
169,0.1596,0.00625108,873.538,0.00766305,0.00287438,0.00664492,0.0216786,-0.0354584,0.0767689,-0.0396301,9.14109e-07,4.06442e-06,-3.69234e-06,0.0760505,-0.03483711582914262,9.141094177156361e-07,4.064428259731301e-06,0.07979250750754141,-3.692333183313856e-06,-0.038855099095536305
170,0.1606,0.00623992,874.412,0.00765016,0.00288049,0.00663017,0.0216826,-0.0356758,0.0772318,-0.0398739,9.11859e-07,4.08437e-06,-3.69012e-06,0.0765313,-0.03504691943368321,9.118594157531135e-07,4.084378341095984e-06,0.08029245916415029,-3.6901131915678675e-06,-0.03908939766022124
171,0.1616,0.00622878,875.281,0.00763729,0.00288654,0.00661551,0.0216865,-0.0358932,0.0776945,-0.0401176,9.09603e-07,4.10423e-06,-3.68779e-06,0.0770119,-0.03525667743187777,9.096034137012765e-07,4.104238422453221e-06,0.08079242614344628,-3.6877832001458444e-06,-0.03932354304223784
172,0.1626,0.00621765,876.145,0.00762442,0.00289252,0.00660094,0.0216902,-0.0361104,0.0781571,-0.0403612,9.07341e-07,4.12403e-06,-3.68536e-06,0.0774923,-0.035466196926898674,9.073414115601253e-07,4.124038503805494e-06,0.08129251638173418,-3.685353209048614e-06,-0.03955753532573547
173,0.1636,0.00620654,877.004,0.00761157,0.00289844,0.00658644,0.0216938,-0.0363276,0.0786194,-0.0406046,9.05072e-07,4.14374e-06,-3.68283e-06,0.0779725,-0.035675670919227076,9.050724096848484e-07,4.143748585372364e-06,0.08179251347748107,-3.682823218387199e-06,-0.039791278573929945
174,0.1646,0.00619545,877.859,0.00759873,0.00290429,0.00657204,0.0216972,-0.0365447,0.0790814,-0.040848,9.02798e-07,4.16339e-06,-3.6802e-06,0.0784525,-0.03588500300725017,9.027984075871132e-07,4.16339866693427e-06,0.08229241708754986,-3.6801932280505767e-06,-0.0400249649359411
175,0.1656,0.00618438,878.71,0.00758591,0.00291008,0.00655771,0.0217004,-0.0367616,0.0795433,-0.0410913,9.00517e-07,4.18295e-06,-3.67747e-06,0.0789322,-0.03609409687304843,9.005174055332077e-07,4.18295874848873e-06,0.0827924434271956,-3.6774632381497696e-06,-0.040258498451468006
176,0.1666,0.00617332,879.555,0.0075731,0.00291581,0.00654346,0.0217035,-0.0369785,0.080005,-0.0413344,8.98232e-07,4.20245e-06,-3.67464e-06,0.0794118,-0.0363031453913053,8.982324033457445e-07,4.2024588302602695e-06,0.08329248412383805,-3.6746332485737554e-06,-0.04049178325357794
177,0.1676,0.00616228,880.396,0.00756031,0.00292148,0.0065293,0.0217064,-0.0371953,0.0804664,-0.0415775,8.9594e-07,4.22187e-06,-3.67171e-06,0.0798912,-0.03651205222306564,8.959404014241557e-07,4.22187891202519e-06,0.08379243060479658,-3.671703259322534e-06,-0.040725011351045115
178,0.1686,0.00615127,881.233,0.00754754,0.00292709,0.00651522,0.0217092,-0.037412,0.0809277,-0.0418204,8.93643e-07,4.24122e-06,-3.66869e-06,0.0803704,-0.03672081744082056,8.936433992801085e-07,4.241228994006363e-06,0.08429249938503092,-3.668683270396933e-06,-0.04095799094927022
179,0.1696,0.00614027,882.066,0.00753479,0.00293264,0.00650121,0.0217118,-0.0376286,0.0813887,-0.0420632,8.9134e-07,4.2605e-06,-3.66557e-06,0.0808494,-0.03692944111700314,8.913403972687917e-07,4.260509075981744e-06,0.08479247346241747,-3.6655632817961248e-06,-0.04119081808270997
180,0.1706,0.00612929,882.894,0.00752205,0.00293814,0.00648728,0.0217142,-0.0378451,0.0818495,-0.042306,8.89032e-07,4.2797e-06,-3.66236e-06,0.0813281,-0.03713792332398813,8.890323952570611e-07,4.2797091579505064e-06,0.08529246102247567,-3.662353293520937e-06,-0.04142358869258389
181,0.1716,0.00611833,883.718,0.00750933,0.00294357,0.00647343,0.0217165,-0.0380615,0.0823101,-0.0425486,8.86718e-07,4.29884e-06,-3.65905e-06,0.0818067,-0.037346264134092144,8.867183931560163e-07,4.298849240136349e-06,0.08579246187137857,-3.659043305681564e-06,-0.0416561111238557
182,0.1726,0.00610739,884.537,0.00749662,0.00294895,0.00645966,0.0217187,-0.0382777,0.0827705,-0.0427911,8.84399e-07,4.31791e-06,-3.65565e-06,0.0822851,-0.037554367375015385,8.843993910545578e-07,4.317919322094355e-06,0.08629247581520172,-3.6556433181678116e-06,-0.041888481340880634
183,0.1736,0.00609647,885.353,0.00748394,0.00295427,0.00644596,0.0217207,-0.0384939,0.0832307,-0.0430335,8.82076e-07,4.3369e-06,-3.65216e-06,0.0827633,-0.03776242562888121,8.820763890415861e-07,4.336909404267786e-06,0.08679250265992411,-3.652153330868657e-06,-0.04212069942703456
184,0.1746,0.00608558,886.164,0.00747128,0.00295953,0.00643234,0.0217226,-0.0387101,0.0836906,-0.0432758,8.79747e-07,4.35583e-06,-3.64858e-06,0.0832412,-0.03797043890541474,8.797473869393002e-07,4.355839486658297e-06,0.0872924334821783,-3.648573343895123e-06,-0.042352765465627384
185,0.1756,0.0060747,886.971,0.00745864,0.00296474,0.00641879,0.0217243,-0.0389261,0.0841504,-0.043518,8.77413e-07,4.37469e-06,-3.64492e-06,0.083719,-0.03817821485000139,8.774133848366006e-07,4.374699569043017e-06,0.08779248549624152,-3.6449133572480363e-06,-0.042584679539903525
186,0.1766,0.00606385,887.774,0.00744601,0.00296989,0.00640532,0.0217259,-0.039142,0.0846099,-0.0437601,8.75074e-07,4.39348e-06,-3.64116e-06,0.0841966,-0.03838584975842041,8.750743829555319e-07,4.393489651421945e-06,0.08829244099930711,-3.641153371036765e-06,-0.042816441733041444
187,0.1776,0.00605301,888.573,0.00743341,0.00297499,0.00639192,0.0217273,-0.0393578,0.0850693,-0.044002,8.7273e-07,4.4122e-06,-3.63731e-06,0.0846739,-0.03859334370264067,8.727303808520048e-07,4.4122097337950805e-06,0.0887925174054578,-3.6373033850400915e-06,-0.04304795643295434
188,0.1786,0.0060422,889.368,0.00742083,0.00298004,0.00637859,0.0217286,-0.0395735,0.0855284,-0.0442439,8.70382e-07,4.43085e-06,-3.63338e-06,0.0851511,-0.03880069675457343,8.703823788369647e-07,4.430859816162425e-06,0.08929249681168949,-3.6333733992588435e-06,-0.043279415136234456
189,0.1796,0.00603141,890.159,0.00740827,0.00298503,0.00636533,0.0217298,-0.0397891,0.0859873,-0.0444857,8.68028e-07,4.44944e-06,-3.62937e-06,0.0856281,-0.03900790898607187,8.680283767326102e-07,4.449449898746849e-06,0.08979248785264615,-3.629363413804043e-06,-0.04351072220750252
190,0.1806,0.00602065,890.947,0.00739573,0.00298997,0.00635214,0.0217309,-0.0400047,0.086446,-0.0447273,8.65671e-07,4.46796e-06,-3.62527e-06,0.0861049,-0.03921507654742895,8.656713745835987e-07,4.467969981325481e-06,0.09029249033362641,-3.625263428674863e-06,-0.04374178210385782
191,0.1816,0.00600991,891.73,0.00738322,0.00299486,0.00633902,0.0217318,-0.0402201,0.0869045,-0.0449688,8.63308e-07,4.48642e-06,-3.62108e-06,0.0865814,-0.039422007332694964,8.633083725673174e-07,4.4864300638991494e-06,0.09079250405983141,-3.6210734438713033e-06,-0.04397269058015896
192,0.1826,0.00599918,892.51,0.00737072,0.0029997,0.00632597,0.0217326,-0.0404354,0.0873627,-0.0452103,8.60941e-07,4.50481e-06,-3.61681e-06,0.0870578,-0.0396287975127545,8.60941370639523e-07,4.50482014668907e-06,0.0912924197071201,-3.616803459394191e-06,-0.044203543298796055
193,0.1836,0.00598849,893.285,0.00735825,0.00300449,0.00631299,0.0217333,-0.0406507,0.0878208,-0.0454516,8.5857e-07,4.52313e-06,-3.61246e-06,0.087534,-0.03983554317568083,8.585703685781709e-07,4.523140229473199e-06,0.09179245528899349,-3.612453475021482e-06,-0.04443414916008204
194,0.1846,0.00597781,894.057,0.0073458,0.00300922,0.00630008,0.0217338,-0.0408658,0.0882787,-0.0456928,8.56195e-07,4.54139e-06,-3.60803e-06,0.0880099,-0.04004205233948688,8.561953666053057e-07,4.541400312030319e-06,0.09229250153112023,-3.608023491086243e-06,-0.04466460384935178
195,0.1856,0.00596716,894.826,0.00733337,0.00301391,0.00628724,0.0217342,-0.0410809,0.0887363,-0.045934,8.53815e-07,4.55959e-06,-3.60352e-06,0.0884857,-0.040248517087948965,8.538153644099822e-07,4.559600395026564e-06,0.09279244895906835,-3.6035135073664293e-06,-0.04489500295965365
196,0.1866,0.00595653,895.59,0.00732097,0.00301854,0.00627446,0.0217345,-0.0412958,0.0891938,-0.046175,8.51431e-07,4.57772e-06,-3.59893e-06,0.0889612,-0.0404547455215879,8.514313625251901e-07,4.577730477794972e-06,0.09329251588605447,-3.598923523862041e-06,-0.04512515552944174
197,0.1876,0.00594592,896.351,0.00730859,0.00302313,0.00626175,0.0217347,-0.0415107,0.089651,-0.0464159,8.49042e-07,4.59579e-06,-3.59426e-06,0.0894366,-0.040660929641498034,8.490423604179398e-07,4.595800560558416e-06,0.0937924835082069,-3.5942535406841003e-06,-0.04535515717466421
198,0.1886,0.00593534,897.109,0.00729624,0.00302767,0.0062491,0.0217348,-0.0417254,0.090108,-0.0466567,8.4665e-07,4.6138e-06,-3.58952e-06,0.0899118,-0.040866877630596266,8.466503584880769e-07,4.61381064353894e-06,0.09429246090930476,-3.5895135577224124e-06,-0.04558500797766918
199,0.1896,0.00592478,897.863,0.0072839,0.00303216,0.00623652,0.0217347,-0.0419401,0.0905648,-0.0468974,8.44254e-07,4.63175e-06,-3.58469e-06,0.0903867,-0.041072781407407666,8.442543564246563e-07,4.6317607265145e-06,0.09479244789378116,-3.5846835749753225e-06,-0.045814708020739836
200,0.1906,0.00591425,898.613,0.0072716,0.00303661,0.006224,0.0217345,-0.0421547,0.0910214,-0.0471379,8.41853e-07,4.64963e-06,-3.57979e-06,0.0908615,-0.04127854510928275,8.41853354360822e-07,4.649640809484268e-06,0.09529244426597439,-3.5797835925555077e-06,-0.046044161990514976
201,0.1916,0.00590374,899.36,0.00725931,0.00304101,0.00621155,0.0217342,-0.0423691,0.0914778,-0.0473784,8.39449e-07,4.66745e-06,-3.57482e-06,0.091336,-0.04148407295583878,8.394493522523305e-07,4.667460892671116e-06,0.09579244983012791,-3.5748136103519457e-06,-0.04627356078324574
202,0.1926,0.00589325,900.103,0.00724705,0.00304536,0.00619915,0.0217338,-0.0425835,0.091934,-0.0476188,8.37041e-07,4.68521e-06,-3.56977e-06,0.0918104,-0.041689556741948075,8.37041350232326e-07,4.685220975630955e-06,0.09629246439038974,-3.569763628363809e-06,-0.04650280906248627
203,0.1936,0.00588279,900.843,0.00723482,0.00304966,0.00618682,0.0217333,-0.0427978,0.09239,-0.0478591,8.34629e-07,4.70291e-06,-3.56464e-06,0.0922846,-0.04189490066655088,8.346293483008083e-07,4.702921058807874e-06,0.0967924877508135,-3.56463364670212e-06,-0.046731906910259635
204,0.1946,0.00587235,901.58,0.00722261,0.00305392,0.00617456,0.0217327,-0.043012,0.0928457,-0.0480992,8.32214e-07,4.72055e-06,-3.55944e-06,0.0927585,-0.042100104800680827,8.322143463246334e-07,4.720561141757784e-06,0.09729240998611166,-3.5594336651456615e-06,-0.046960759104605176
205,0.1956,0.00586194,902.313,0.00721042,0.00305814,0.00616235,0.021732,-0.0432261,0.0933013,-0.0483393,8.29795e-07,4.73813e-06,-3.55417e-06,0.0932323,-0.04230516921531402,8.297953442149009e-07,4.7381412249247745e-06,0.09779245030863715,-3.554163683916478e-06,-0.04718955635813471
206,0.1966,0.00585155,903.043,0.00719826,0.00306231,0.00615021,0.0217312,-0.0434401,0.0937567,-0.0485792,8.27372e-07,4.75565e-06,-3.54883e-06,0.0937058,-0.042510093981369956,8.273723421936552e-07,4.7556613080868004e-06,0.09829249884291702,-3.5488237029035474e-06,-0.047418108167678774
207,0.1976,0.00584118,903.769,0.00718613,0.00306643,0.00613812,0.0217302,-0.043654,0.0942118,-0.0488191,8.24945e-07,4.77311e-06,-3.54342e-06,0.0941792,-0.04271487916971062,8.249453402608964e-07,4.773121391243862e-06,0.0987924455133764,-3.5434137221068696e-06,-0.04764660515421992
208,0.1986,0.00583084,904.493,0.00717402,0.00307051,0.00612609,0.0217292,-0.0438678,0.0946668,-0.0490588,8.22515e-07,4.79051e-06,-3.53794e-06,0.0946523,-0.042919524851141255,8.225153382834804e-07,4.790521474618004e-06,0.09929250983209026,-3.5379337415264445e-06,-0.0478748569058991
209,0.1996,0.00582053,905.213,0.00716194,0.00307455,0.00611413,0.021728,-0.0440815,0.0951215,-0.0492984,8.20082e-07,4.80785e-06,-3.53238e-06,0.0951253,-0.043124031096410054,8.200823362614074e-07,4.807861557765136e-06,0.09979247179404904,-3.5323737611614447e-06,-0.04810295876249082
210,0.2006,0.00581024,905.93,0.00714988,0.00307855,0.00610222,0.0217268,-0.0442951,0.095576,-0.0495379,8.17645e-07,4.82514e-06,-3.52676e-06,0.095598,-0.04332839797620802,8.176453343278212e-07,4.825151640908132e-06,0.1002924410818935,-3.5267537810135252e-06,-0.04833091080552043
211,0.2016,0.00579997,906.643,0.00713784,0.0030825,0.00609037,0.0217254,-0.0445087,0.0960303,-0.0497774,8.15205e-07,4.84236e-06,-3.52107e-06,0.0960706,-0.0435327212079023,8.152053323495778e-07,4.84237172426738e-06,0.10079241749892098,-3.5210638010818585e-06,-0.048558808260572905
212,0.2026,0.00578973,907.354,0.00712584,0.00308641,0.00607857,0.021724,-0.0447221,0.0964845,-0.0500167,8.12762e-07,4.85953e-06,-3.51532e-06,0.0965429,-0.04373680954819614,8.127623303266773e-07,4.859541807622492e-06,0.10129251097758063,-3.5153138212562496e-06,-0.048786460898031736
213,0.2036,0.00577951,908.061,0.00711385,0.00309028,0.00606684,0.0217224,-0.0449354,0.0969384,-0.0502559,8.10315e-07,4.87665e-06,-3.50949e-06,0.0970151,-0.04394075873476555,8.103153283922637e-07,4.876661890973466e-06,0.10179250111249027,-3.5094838417570884e-06,-0.04901396396613322
214,0.2046,0.00576931,908.766,0.0071019,0.00309411,0.00605516,0.0217208,-0.0451487,0.0973921,-0.050495,8.07865e-07,4.8937e-06,-3.5036e-06,0.097487,-0.044144664423612534,8.07865326413193e-07,4.893711974096604e-06,0.10229249778591365,-3.503593862363985e-06,-0.04924131754614525
215,0.2056,0.00575915,909.467,0.00708997,0.00309789,0.00604353,0.021719,-0.0453618,0.0978456,-0.050734,8.05412e-07,4.9107e-06,-3.49765e-06,0.0979588,-0.04434833549370065,8.054123243894651e-07,4.9107120574376495e-06,0.10279250080077373,-3.497643883187962e-06,-0.04946852171927152
216,0.2066,0.005749,910.165,0.00707806,0.00310164,0.00603197,0.0217172,-0.0455749,0.0982989,-0.0509729,8.02956e-07,4.92765e-06,-3.49163e-06,0.0984304,-0.04455196316610788,8.0295632232108e-07,4.927662140996603e-06,0.10329250995990091,-3.4916239042281916e-06,-0.049695576566651356
217,0.2076,0.00573888,910.86,0.00706618,0.00310534,0.00602045,0.0217153,-0.0457878,0.0987519,-0.0512116,8.00497e-07,4.94454e-06,-3.48554e-06,0.0989017,-0.044755356401171675,8.004973204300825e-07,4.944552224328547e-06,0.10379241468678457,-3.485533925484674e-06,-0.049922387161603465
218,0.2086,0.00572879,911.552,0.00705433,0.00310901,0.00600899,0.0217133,-0.0460007,0.0992048,-0.0514503,7.98035e-07,4.96137e-06,-3.47939e-06,0.0993729,-0.044958706338424914,7.980353184944278e-07,4.961382307655526e-06,0.10429243549256073,-3.4793839469582366e-06,-0.050149143623327674
219,0.2096,0.00571872,912.242,0.00704251,0.00311264,0.00599759,0.0217112,-0.0462135,0.0996575,-0.0516889,7.9557e-07,4.97815e-06,-3.47318e-06,0.0998438,-0.04516191750328136,7.955703165141159e-07,4.978162390978369e-06,0.10479246185053492,-3.473173968537857e-06,-0.05037575100232372
220,0.2106,0.00570867,912.928,0.00703071,0.00311622,0.00598624,0.021709,-0.0464262,0.10011,-0.0519274,7.93102e-07,4.99487e-06,-3.46691e-06,0.100315,-0.04536498996590632,7.931023144891469e-07,4.994882474296247e-06,0.10529249356316517,-3.4669039902235355e-06,-0.050602209379474794
221,0.2116,0.00569865,913.611,0.00701893,0.00311977,0.00597494,0.0217067,-0.0466387,0.100562,-0.0521657,7.90631e-07,5.01154e-06,-3.46058e-06,0.100785,-0.045567828353196616,7.906313126415654e-07,5.011552557832033e-06,0.10579219869510781,-3.4605740122373163e-06,-0.050828423918446775
222,0.2126,0.00568866,914.292,0.00700718,0.00312328,0.00596369,0.0217043,-0.0468512,0.101014,-0.052404,7.88157e-07,5.02816e-06,-3.45418e-06,0.101255,-0.04577062364190909,7.881573105272821e-07,5.028172641141637e-06,0.10629212974482383,-3.4541740343563276e-06,-0.05105458455691669
223,0.2136,0.00567868,914.969,0.00699546,0.00312675,0.0059525,0.0217018,-0.0470636,0.101466,-0.0526421,7.85681e-07,5.04472e-06,-3.44772e-06,0.101726,-0.04597328043853388,7.856813086792869e-07,5.0447327246683216e-06,0.10679228681445085,-3.447714056581397e-06,-0.05128050156384678
224,0.2146,0.00566874,915.644,0.00698377,0.00313018,0.00594135,0.0216993,-0.0472759,0.101918,-0.0528802,7.83201e-07,5.06123e-06,-3.44121e-06,0.102196,-0.04617579881301059,7.832013066977339e-07,5.061242807968824e-06,0.10729267000617315,-3.4412040790243736e-06,-0.05150636478634074
225,0.2156,0.00565882,916.316,0.0069721,0.00313358,0.00593026,0.0216966,-0.0474881,0.102369,-0.0531181,7.80719e-07,5.07769e-06,-3.43463e-06,0.102665,-0.04637817883522277,7.807193047604244e-07,5.077702891487235e-06,0.10779217162949539,-3.4346241016836032e-06,-0.05173198458361905
226,0.2166,0.00564892,916.985,0.00696046,0.00313694,0.00591922,0.0216939,-0.0477002,0.102821,-0.053356,7.78235e-07,5.09409e-06,-3.428e-06,0.103135,-0.04658042057499712,7.782353028673583e-07,5.0941029750006805e-06,0.10829300687130972,-3.427994124449718e-06,-0.05195755071233177
227,0.2176,0.00563905,917.652,0.00694884,0.00314026,0.00590823,0.0216911,-0.0479123,0.103272,-0.0535937,7.75747e-07,5.11044e-06,-3.4213e-06,0.103604,-0.046782619423847205,7.757473008407345e-07,5.110453058287945e-06,0.10879295974830816,-3.4212941473210634e-06,-0.05218287362183871
228,0.2186,0.0056292,918.316,0.00693725,0.00314355,0.00589729,0.0216882,-0.0481242,0.103722,-0.0538313,7.73258e-07,5.12674e-06,-3.41455e-06,0.104073,-0.04698458478780532,7.732582989472547e-07,5.126753141793117e-06,0.10929202886232381,-3.4145441704103163e-06,-0.0524080482192647
229,0.2196,0.00561938,918.977,0.00692569,0.00314679,0.0058864,0.0216852,-0.048336,0.104173,-0.0540689,7.70765e-07,5.14299e-06,-3.40775e-06,0.104542,-0.04718641207848262,7.707652971422618e-07,5.1430032252941515e-06,0.10979243239985648,-3.4077441936064545e-06,-0.0526331693215617
230,0.2206,0.00560958,919.635,0.00691415,0.00315001,0.00587556,0.0216822,-0.0485478,0.104623,-0.0543063,7.6827e-07,5.15919e-06,-3.40088e-06,0.105011,-0.04738819662666649,7.682702951594678e-07,5.159203308569005e-06,0.11029195137777714,-3.4008742170188455e-06,-0.05285804751306733
231,0.2216,0.00559981,920.291,0.00690264,0.00315318,0.00586476,0.021679,-0.0487594,0.105074,-0.0545436,7.65773e-07,5.17534e-06,-3.39396e-06,0.10548,-0.047589747959377204,7.657732932209171e-07,5.175353392061766e-06,0.1107928059820722,-3.3939542405381218e-06,-0.05308277763310909
232,0.2226,0.00559006,920.944,0.00689116,0.00315632,0.00585402,0.0216758,-0.048971,0.105524,-0.0547808,7.63273e-07,5.19143e-06,-3.38699e-06,0.105948,-0.04779125664833783,7.632732912377094e-07,5.191443475549562e-06,0.11129277522940773,-3.3869842641642833e-06,-0.05330735976176115
233,0.2236,0.00558033,921.594,0.0068797,0.00315943,0.00584332,0.0216725,-0.0491824,0.105974,-0.0550179,7.60771e-07,5.20748e-06,-3.37996e-06,0.106416,-0.04799253230109635,7.60771289298745e-07,5.207493559034049e-06,0.11179296951353423,-3.3799542878965028e-06,-0.05353179397903374
234,0.2246,0.00557063,922.242,0.00686827,0.0031625,0.00583267,0.0216691,-0.0493938,0.106423,-0.0552549,7.58267e-07,5.22347e-06,-3.37287e-06,0.106884,-0.048193765408678924,7.582672874040242e-07,5.2234836422915265e-06,0.11229227664290797,-3.3728643118458024e-06,-0.053756080364874226
235,0.2256,0.00556096,922.887,0.00685686,0.00316554,0.00582207,0.0216657,-0.0496051,0.106873,-0.0554918,7.5576e-07,5.23942e-06,-3.36574e-06,0.107352,-0.048394860819569785,7.557602856866907e-07,5.239433725767739e-06,0.11279292080388514,-3.3657343359028147e-06,-0.053980218999166274
236,0.2266,0.0055513,923.529,0.00684549,0.00316854,0.00581151,0.0216622,-0.0498163,0.107322,-0.0557286,7.53251e-07,5.25531e-06,-3.35854e-06,0.107819,-0.04859581860307571,7.532512837915561e-07,5.2553238092389876e-06,0.11329267701219892,-3.3585343600650575e-06,-0.05420420996173059
237,0.2276,0.00554168,924.17,0.00683413,0.00317151,0.005801,0.0216586,-0.0500273,0.107771,-0.0559653,7.50739e-07,5.27116e-06,-3.3513e-06,0.108287,-0.048796543708107154,7.507392818517644e-07,5.271173892484882e-06,0.11379265766143343,-3.3512943844460352e-06,-0.0544280533323247
238,0.2286,0.00553207,924.807,0.00682281,0.00317445,0.00579054,0.0216549,-0.0502383,0.10822,-0.0562019,7.48226e-07,5.28695e-06,-3.344e-06,0.108754,-0.04899722646460947,7.482262798230721e-07,5.286963975947856e-06,0.11429286285238516,-3.3439944088220486e-06,-0.05465174919064264
239,0.2296,0.0055225,925.442,0.00681151,0.00317735,0.00578012,0.0216512,-0.0504492,0.108668,-0.0564384,7.4571e-07,5.3027e-06,-3.33665e-06,0.109221,-0.04919777180129892,7.457102779717673e-07,5.302714059407521e-06,0.1147921778931611,-3.3366444334159695e-06,-0.05487529761631571
240,0.2306,0.00551294,926.075,0.00680024,0.00318022,0.00576975,0.0216474,-0.05066,0.109117,-0.0566748,7.43192e-07,5.3184e-06,-3.32926e-06,0.109688,-0.049398179787259355,7.431922761647058e-07,5.318414142641004e-06,0.11529283196946416,-3.329254458006581e-06,-0.05509869868891204
241,0.2316,0.00550341,926.705,0.00678899,0.00318305,0.00575942,0.0216435,-0.0508708,0.109565,-0.0569111,7.40672e-07,5.33405e-06,-3.32181e-06,0.110154,-0.04959854553166887,7.406722744018879e-07,5.334064226092394e-06,0.1157925950967682,-3.3218044828142723e-06,-0.0553219524879367
242,0.2326,0.00549391,927.332,0.00677777,0.00318585,0.00574914,0.0216395,-0.0510814,0.110013,-0.0571472,7.3815e-07,5.34966e-06,-3.3143e-06,0.110621,-0.049798679003185575,7.381502724612687e-07,5.349674309540475e-06,0.11629258216811311,-3.3142945077280217e-06,-0.05554496464733294
243,0.2336,0.00548443,927.958,0.00676658,0.00318862,0.0057389,0.0216355,-0.0512919,0.110461,-0.0573833,7.35626e-07,5.36522e-06,-3.30675e-06,0.111087,-0.04999867533090341,7.35626270564893e-07,5.365234392762375e-06,0.11679279328384817,-3.3067445327494838e-06,-0.055767924159773496
244,0.2346,0.00547497,928.581,0.00675541,0.00319136,0.0057287,0.0216314,-0.0515024,0.110908,-0.0576193,7.331e-07,5.38072e-06,-3.29915e-06,0.111553,-0.050198629563824926,7.331002687127608e-07,5.380734476201354e-06,0.1172921112516978,-3.299144557766809e-06,-0.05599073663676546
245,0.2356,0.00546553,929.201,0.00674427,0.00319407,0.00571855,0.0216272,-0.0517127,0.111356,-0.0578551,7.30572e-07,5.39619e-06,-3.29151e-06,0.112019,-0.05039835179049945,7.30572266904872e-07,5.396204559415807e-06,0.11779277025678203,-3.291504583002869e-06,-0.05621330777889755
246,0.2366,0.00545612,929.819,0.00673315,0.00319674,0.00570844,0.021623,-0.051923,0.111803,-0.0580909,7.28042e-07,5.4116e-06,-3.28381e-06,0.112484,-0.0505980320200059,7.28042264919182e-07,5.411614642625295e-06,0.11829253531425565,-3.2838046083449868e-06,-0.056435826444941495
247,0.2376,0.00544674,930.435,0.00672206,0.00319938,0.00569838,0.0216187,-0.0521331,0.11225,-0.0583266,7.2551e-07,5.42697e-06,-3.27606e-06,0.11295,-0.05079748042069032,7.255102631997801e-07,5.426984726053519e-06,0.11879252381664629,-3.2760546336829677e-06,-0.056658198313094266
248,0.2386,0.00543738,931.048,0.006711,0.003202,0.00568835,0.0216143,-0.0523432,0.112697,-0.0585621,7.22976e-07,5.44229e-06,-3.26827e-06,0.113415,-0.050996886921667484,7.22976261302577e-07,5.44230480925556e-06,0.11929273586385603,-3.2682646592396836e-06,-0.05688032915045882
249,0.2396,0.00542804,931.659,0.00669996,0.00320458,0.00567837,0.0216098,-0.0525532,0.113143,-0.0587976,7.20441e-07,5.45757e-06,-3.26043e-06,0.11388,-0.051196156651360014,7.204412595385179e-07,5.4575848924542925e-06,0.11979205176322005,-3.2604246847922624e-06,-0.05710240768217045
250,0.2406,0.00541873,932.268,0.00668895,0.00320713,0.00566843,0.0216053,-0.0527631,0.11359,-0.0590329,7.17903e-07,5.4728e-06,-3.25255e-06,0.114345,-0.05139528967833651,7.179032577298017e-07,5.472814975870932e-06,0.12029271069929415,-3.252544710452554e-06,-0.057324245385413475
251,0.2416,0.00540944,932.875,0.00667796,0.00320965,0.00565853,0.0216008,-0.0529729,0.114036,-0.0592682,7.15364e-07,5.48798e-06,-3.24461e-06,0.114809,-0.051594286071110496,7.153642558321849e-07,5.48799505906139e-06,0.12079247268690496,-3.2446047362189034e-06,-0.05754603089638566
252,0.2426,0.00540017,933.479,0.006667,0.00321214,0.00564868,0.0215961,-0.0531826,0.114482,-0.0595033,7.12823e-07,5.50312e-06,-3.23664e-06,0.115274,-0.05179314589813977,7.128232539788115e-07,5.503135142248539e-06,0.12129245761807494,-3.236634762093793e-06,-0.057767575780900304
253,0.2436,0.00539093,934.081,0.00665607,0.00321459,0.00563886,0.0215914,-0.0533922,0.114928,-0.0597383,7.1028e-07,5.51822e-06,-3.22861e-06,0.115738,-0.05199186922782706,7.102802521696816e-07,5.5182352254323774e-06,0.12179266559225943,-3.2286047880747404e-06,-0.05798897438523687
254,0.2446,0.00538171,934.681,0.00664516,0.00321702,0.00562908,0.0215867,-0.0536017,0.115373,-0.0599733,7.07736e-07,5.53327e-06,-3.22055e-06,0.116202,-0.05219045612851969,7.077362504936957e-07,5.533285308612079e-06,0.1222919744164217,-3.2205448140532056e-06,-0.058210320967014395
255,0.2456,0.00537251,935.278,0.00663428,0.00321942,0.00561935,0.0215818,-0.0538111,0.115819,-0.0602081,7.05189e-07,5.54827e-06,-3.21243e-06,0.116666,-0.052388906668509705,7.051892485510081e-07,5.548285391787644e-06,0.12279262827452264,-3.2124248401377287e-06,-0.0584314272247608
256,0.2466,0.00536334,935.874,0.00662343,0.00322179,0.00560965,0.021577,-0.0540204,0.116264,-0.0604428,7.02642e-07,5.56323e-06,-3.20428e-06,0.117129,-0.05258722091603396,7.02642246830365e-07,5.563245474737855e-06,0.12329238218110206,-3.204274866330792e-06,-0.058652387438095865
257,0.2476,0.00535419,936.467,0.0066126,0.00322413,0.0056,0.021572,-0.0542297,0.116709,-0.0606775,7.00092e-07,5.57815e-06,-3.19608e-06,0.117593,-0.05278549366072971,7.000922450650648e-07,5.5781655579068e-06,0.12379235852765924,-3.196074892519718e-06,-0.058873295798154035
258,0.2486,0.00534506,937.058,0.00660179,0.00322645,0.00559038,0.021567,-0.0544388,0.117154,-0.060912,6.97541e-07,5.59302e-06,-3.18783e-06,0.118056,-0.052983535508008606,6.975412432108641e-07,5.593035641071609e-06,0.12429255741320167,-3.1878249189265517e-06,-0.0590939641359155
259,0.2496,0.00533596,937.647,0.00659101,0.00322873,0.0055808,0.0215619,-0.0546479,0.117599,-0.0611464,6.94989e-07,5.60785e-06,-3.17955e-06,0.118519,-0.05318153594906627,6.949892414898073e-07,5.607865724011063e-06,0.12479297893678143,-3.179544945219881e-06,-0.05931448666447203
260,0.2506,0.00532688,938.234,0.00658026,0.00323098,0.00557126,0.0215568,-0.0548569,0.118043,-0.0613808,6.92434e-07,5.62264e-06,-3.17122e-06,0.118982,-0.05337940033050481,6.924342397240935e-07,5.622655807169252e-06,0.12529249790443409,-3.1712149717311178e-06,-0.05953495750860549
261,0.2516,0.00531782,938.819,0.00656953,0.00323321,0.00556176,0.0215516,-0.0550658,0.118487,-0.061615,6.89879e-07,5.63738e-06,-3.16285e-06,0.119444,-0.053577128720326384,6.898792379583796e-07,5.63739589010126e-06,0.12579223870775236,-3.162844998239045e-06,-0.05975518863148588
262,0.2526,0.00530879,939.401,0.00655883,0.00323541,0.0055523,0.0215464,-0.0552745,0.118931,-0.0618491,6.87321e-07,5.65208e-06,-3.15444e-06,0.119907,-0.053774626563945715,6.873212361480086e-07,5.652095973029958e-06,0.126292201445253,-3.1544350247436626e-06,-0.059975274179808746
263,0.2536,0.00529978,939.982,0.00654815,0.00323758,0.00554287,0.0215411,-0.0554832,0.119375,-0.0620831,6.84763e-07,5.66674e-06,-3.14599e-06,0.120369,-0.05397208319406577,6.847632345596821e-07,5.6667560559553465e-06,0.1267923862154965,-3.145985051355993e-06,-0.060195214231660965
264,0.2546,0.00529079,940.56,0.0065375,0.00323972,0.00553348,0.0215357,-0.0556918,0.119819,-0.062317,6.82203e-07,5.68135e-06,-3.13749e-06,0.120831,-0.05416940403623205,6.822032327935545e-07,5.681366138876598e-06,0.12729279311708774,-3.1374850780752084e-06,-0.06041500886506779
265,0.2556,0.00528183,941.137,0.00652687,0.00324183,0.00552413,0.0215303,-0.0559004,0.120262,-0.0625509,6.79641e-07,5.69593e-06,-3.12896e-06,0.121293,-0.05436668372156361,6.796412308496258e-07,5.695946221795367e-06,0.1277922944558163,-3.1289551047919417e-06,-0.06063475209452174
266,0.2566,0.00527289,941.711,0.00651627,0.00324392,0.00551482,0.0215248,-0.0561088,0.120705,-0.0627846,6.77078e-07,5.71046e-06,-3.12039e-06,0.121754,-0.05456373317141017,6.770782292608857e-07,5.710476304709999e-06,0.12829201712265847,-3.1203851316163878e-06,-0.06085425610291473
267,0.2576,0.00526397,942.283,0.00650569,0.00324598,0.00550555,0.0215193,-0.0563171,0.121148,-0.0630182,6.74514e-07,5.72494e-06,-3.11177e-06,0.122216,-0.05476064703649952,6.74514227583245e-07,5.72495638739845e-06,0.12879196121568426,-3.1117651584366968e-06,-0.06107361492658103
268,0.2586,0.00525507,942.854,0.00649514,0.00324801,0.00549631,0.0215137,-0.0565253,0.121591,-0.0632517,6.71948e-07,5.73939e-06,-3.10312e-06,0.122677,-0.0549574253844497,6.719482257278031e-07,5.739406470306463e-06,0.12929212683300717,-3.103115185365546e-06,-0.061292828643298214
269,0.2596,0.0052462,943.422,0.00648462,0.00325001,0.0054871,0.0215081,-0.0567335,0.122034,-0.0634851,6.69381e-07,5.7538e-06,-3.09443e-06,0.123138,-0.05515416276741236,6.693812240055053e-07,5.753816553211166e-06,0.12979251407278447,-3.0944252122910854e-06,-0.06151189733078255
270,0.2606,0.00523735,943.988,0.00647412,0.00325199,0.00547793,0.0215024,-0.0569416,0.122476,-0.0637184,6.66813e-07,5.76816e-06,-3.0857e-06,0.123599,-0.055350764728996915,6.668132224163514e-07,5.768176635889688e-06,0.1302919927406585,-3.0856952392133152e-06,-0.06173082106668848
271,0.2616,0.00522852,944.553,0.00646364,0.00325394,0.0054688,0.0214966,-0.0571495,0.122919,-0.0639516,6.64243e-07,5.78248e-06,-3.07693e-06,0.12406,-0.055547136891416216,6.642432206493964e-07,5.7824967185649e-06,0.13079282301915884,-3.076925266243258e-06,-0.061949599928609045
272,0.2626,0.00521971,945.115,0.00645319,0.00325587,0.00545971,0.0214908,-0.0573574,0.123361,-0.0641847,6.61672e-07,5.79677e-06,-3.06813e-06,0.12452,-0.05574346823230636,6.616722190155855e-07,5.79678680123763e-06,0.13129274392131363,-3.068125293270718e-06,-0.06216823399407534
273,0.2636,0.00521093,945.676,0.00644276,0.00325777,0.00545065,0.021485,-0.0575652,0.123803,-0.0644177,6.591e-07,5.81101e-06,-3.05928e-06,0.124981,-0.055939664354124674,6.591002172928739e-07,5.811026883906223e-06,0.13179288583734783,-3.0592753204050638e-06,-0.06238672334055739
274,0.2646,0.00520216,946.234,0.00643236,0.00325964,0.00544162,0.0214791,-0.0577729,0.124244,-0.0646506,6.56527e-07,5.82521e-06,-3.0504e-06,0.125441,-0.056135725324201746,6.565272154812618e-07,5.825226966571506e-06,0.13229211657228834,-3.050395347536927e-06,-0.06260506804546351
275,0.2656,0.00519342,946.791,0.00642198,0.00326149,0.00543263,0.0214731,-0.0579805,0.124686,-0.0648834,6.53952e-07,5.83937e-06,-3.04149e-06,0.125901,-0.05633165120981387,6.539522139359377e-07,5.83938704923348e-06,0.1327927003086693,-3.0414853746663084e-06,-0.0628232681861407
276,0.2666,0.00518471,947.346,0.00641163,0.00326331,0.00542367,0.0214671,-0.058188,0.125127,-0.0651161,6.51377e-07,5.85349e-06,-3.03253e-06,0.12636,-0.05652744207818272,6.51377212168569e-07,5.853507131670099e-06,0.13329237205902844,-3.032525401902575e-06,-0.06304132383987449
277,0.2676,0.00517601,947.898,0.0064013,0.00326511,0.00541475,0.0214611,-0.0583954,0.125568,-0.0653487,6.488e-07,5.86758e-06,-3.02354e-06,0.12682,-0.05672309799647568,6.488002104454438e-07,5.867597214326281e-06,0.13379226421322477,-3.023535429136359e-06,-0.0632592350838892
278,0.2686,0.00516734,948.45,0.006391,0.00326688,0.00540586,0.021455,-0.0586028,0.126009,-0.0655812,6.46222e-07,5.88162e-06,-3.01452e-06,0.127279,-0.05691871333993881,6.462222088554626e-07,5.881637296756281e-06,0.13429237686847806,-3.0145154563676613e-06,-0.06347700199534778
279,0.2696,0.00515869,948.999,0.00638072,0.00326863,0.005397,0.0214488,-0.05881,0.12645,-0.0658136,6.43643e-07,5.89562e-06,-3.00546e-06,0.127738,-0.05711409953982549,6.436432071765807e-07,5.895637379182972e-06,0.13479271012205074,-3.0054554835956537e-06,-0.063694624651352
280,0.2706,0.00515006,949.546,0.00637047,0.00327035,0.00538818,0.0214426,-0.0590172,0.12689,-0.0660459,6.41063e-07,5.90959e-06,-2.99636e-06,0.128197,-0.05730944525988535,6.410632054087984e-07,5.90960746160718e-06,0.13529212877855157,-2.996355510931359e-06,-0.06391210312894235
281,0.2716,0.00514145,950.091,0.00636024,0.00327204,0.00537939,0.0214363,-0.0592243,0.127331,-0.0662781,6.38481e-07,5.92351e-06,-2.98723e-06,0.128656,-0.057504656258975384,6.38481203907304e-07,5.923527544027252e-06,0.13579290301994718,-2.987225538264582e-06,-0.06412943750509814
282,0.2726,0.00513286,950.635,0.00635003,0.00327371,0.00537064,0.02143,-0.0594312,0.127771,-0.0665102,6.35899e-07,5.9374e-06,-2.97807e-06,0.129114,-0.05769963837400005,6.358992021837651e-07,5.937417626444841e-06,0.13629276185815598,-2.9780655655953225e-06,-0.06434662785673795
283,0.2736,0.0051243,951.177,0.00633985,0.00327536,0.00536192,0.0214237,-0.0596381,0.128211,-0.0667422,6.33316e-07,5.95125e-06,-2.96887e-06,0.129573,-0.057894580151398145,6.333162005933701e-07,5.951267708637076e-06,0.13679284068264708,-2.9688655929227536e-06,-0.06456367426071874
284,0.2746,0.00511575,951.717,0.00632969,0.00327698,0.00535323,0.0214173,-0.0598449,0.12865,-0.0669741,6.30731e-07,5.96505e-06,-2.95964e-06,0.130031,-0.05808938740845815,6.30731198825174e-07,5.965067791047218e-06,0.1372920022976647,-2.9596356202477025e-06,-0.06478057679383697
285,0.2756,0.00510723,952.255,0.00631956,0.00327858,0.00534457,0.0214108,-0.0600516,0.12909,-0.0672059,6.28146e-07,5.97883e-06,-2.95037e-06,0.130489,-0.05828406021195354,6.281461972790225e-07,5.978847873233661e-06,0.13779252088468974,-2.950365647680364e-06,-0.06499733553282772
286,0.2766,0.00509873,952.792,0.00630945,0.00328015,0.00533594,0.0214043,-0.0602582,0.129529,-0.0674376,6.2556e-07,5.99256e-06,-2.94107e-06,0.130947,-0.05847859862860327,6.255601956439705e-07,5.9925779554159675e-06,0.13829212145565983,-2.9410656751105435e-06,-0.06521395055436552
287,0.2776,0.00509025,953.327,0.00629936,0.0032817,0.00532735,0.0213978,-0.0604648,0.129968,-0.0676692,6.22972e-07,6.00625e-06,-2.93174e-06,0.131404,-0.05867309685776778,6.229721940531618e-07,6.006268037594964e-06,0.1387919413994294,-2.9317357024272184e-06,-0.06543042193506354
288,0.2786,0.0050818,953.86,0.0062893,0.00328323,0.00531879,0.0213912,-0.0606712,0.130407,-0.0679007,6.20384e-07,6.01991e-06,-2.92238e-06,0.131861,-0.05886736668124082,6.203841924623532e-07,6.019928119771478e-06,0.13929198081232408,-2.9223757298524333e-06,-0.06564674975147478
289,0.2796,0.00507336,954.391,0.00627927,0.00328473,0.00531026,0.0213846,-0.0608776,0.130846,-0.0681321,6.17795e-07,6.03353e-06,-2.91298e-06,0.132319,-0.05906159641156017,6.17795190782644e-07,6.033548201722638e-06,0.1397922397907123,-2.9129757572743387e-06,-0.06586293408009081
290,0.2806,0.00506495,954.92,0.00626925,0.00328621,0.00530176,0.0213779,-0.0610838,0.131285,-0.0683633,6.15205e-07,6.04712e-06,-2.90356e-06,0.132776,-0.05925559790813839,6.152051892360788e-07,6.047138283893361e-06,0.14029271843100433,-2.903555784694589e-06,-0.06607888160523567
291,0.2816,0.00505655,955.448,0.00625926,0.00328766,0.00529329,0.0213711,-0.06129,0.131723,-0.0685945,6.12614e-07,6.06066e-06,-2.8941e-06,0.133232,-0.059449559405732044,6.12614187600613e-07,6.0606783658379015e-06,0.14079227603680633,-2.89409581211153e-06,-0.06629477920908378
292,0.2826,0.00504818,955.974,0.00624929,0.00328909,0.00528486,0.0213644,-0.0614961,0.132161,-0.0688256,6.10022e-07,6.07417e-06,-2.88461e-06,0.133689,-0.0596433868769316,6.100221860982913e-07,6.07418844777996e-06,0.14129205249676513,-2.884605839525989e-06,-0.06651053355423375
293,0.2836,0.00503983,956.499,0.00623935,0.0032905,0.00527645,0.0213576,-0.0617021,0.132599,-0.0690566,6.0743e-07,6.08764e-06,-2.87509e-06,0.134145,-0.0598370803881183,6.074301845959695e-07,6.087658529718709e-06,0.14179204790676025,-2.8750858669379653e-06,-0.06672614471693461
294,0.2846,0.0050315,957.021,0.00622943,0.00329189,0.00526807,0.0213507,-0.061908,0.133037,-0.0692875,6.04836e-07,6.10108e-06,-2.86553e-06,0.134602,-0.06003064000561997,6.048361829158466e-07,6.101098611654976e-06,0.1422922623627123,-2.865525894346632e-06,-0.06694161277337507
295,0.2856,0.00502319,957.542,0.00621953,0.00329325,0.00525973,0.0213438,-0.0621138,0.133475,-0.0695183,6.02242e-07,6.11448e-06,-2.85595e-06,0.135058,-0.06022406579571027,6.022421814577683e-07,6.1144986933658885e-06,0.14279269596058453,-2.8559459217536443e-06,-0.06715693779968313
296,0.2866,0.0050149,958.062,0.00620966,0.00329459,0.00525141,0.0213369,-0.0623195,0.133912,-0.069749,5.99647e-07,6.12784e-06,-2.84634e-06,0.135513,-0.06041735782460933,5.996471796887448e-07,6.127858775295536e-06,0.14329220550360522,-2.846335949158174e-06,-0.06737211987192637
297,0.2876,0.00500663,958.58,0.00619981,0.00329591,0.00524313,0.0213299,-0.0625252,0.134349,-0.0699796,5.97051e-07,6.14117e-06,-2.8367e-06,0.135969,-0.06061061009742719,5.970511782749099e-07,6.141188857000657e-06,0.14379193337999863,-2.8366959765602218e-06,-0.0675871590661119
298,0.2886,0.00499838,959.096,0.00618998,0.0032972,0.00523487,0.0213228,-0.0627307,0.134787,-0.0702101,5.94454e-07,6.15446e-06,-2.82703e-06,0.136425,-0.06080363478308637,5.944541767721745e-07,6.154478938702468e-06,0.14429302397764898,-2.827026003959787e-06,-0.06780205545818652
299,0.2896,0.00499015,959.61,0.00618018,0.00329847,0.00522664,0.0213158,-0.0629362,0.135223,-0.0704405,5.91856e-07,6.16772e-06,-2.81733e-06,0.13688,-0.060996619806248265,5.918561751805385e-07,6.167739020401797e-06,0.1447920445146753,-2.8173260313568704e-06,-0.06801680912403663
300,0.2906,0.00498195,960.123,0.0061704,0.00329972,0.00521845,0.0213087,-0.0631416,0.13566,-0.0706708,5.89258e-07,6.18094e-06,-2.8076e-06,0.137335,-0.0611894712940142,5.892581735889024e-07,6.180959102097816e-06,0.1452924279639487,-2.807596058640449e-06,-0.06823142013948835
301,0.2916,0.00497376,960.634,0.00616064,0.00330095,0.00521028,0.0213015,-0.0633468,0.136097,-0.070901,5.86659e-07,6.19412e-06,-2.79784e-06,0.13779,-0.06138209545059026,5.866591721304104e-07,6.194139183568481e-06,0.14579303012857525,-2.797836086032568e-06,-0.06844588858030765
302,0.2926,0.00496559,961.144,0.00615091,0.00330216,0.00520214,0.0212943,-0.063552,0.136533,-0.0711311,5.8406e-07,6.20727e-06,-2.78805e-06,0.138244,-0.06157468008474465,5.840601706719184e-07,6.207289265036664e-06,0.14629270481087642,-2.7880461134222045e-06,-0.06866021452220006
303,0.2936,0.00495745,961.652,0.0061412,0.00330334,0.00519403,0.0212871,-0.0637571,0.136969,-0.0713611,5.81459e-07,6.22038e-06,-2.77824e-06,0.138699,-0.061767131381304075,5.814591690356252e-07,6.220399346501537e-06,0.14679259739883932,-2.778236140699164e-06,-0.06887439804081108
304,0.2946,0.00494932,962.159,0.00613151,0.0033045,0.00518595,0.0212798,-0.0639622,0.137405,-0.071591,5.78858e-07,6.23346e-06,-2.7684e-06,0.139153,-0.06195954321015029,5.788581676213767e-07,6.233479427963928e-06,0.14729270798749106,-2.7683961679736413e-06,-0.06908843921172614
305,0.2956,0.00494122,962.664,0.00612184,0.00330564,0.0051779,0.0212725,-0.0641671,0.13784,-0.0718208,5.76257e-07,6.24651e-06,-2.75853e-06,0.139607,-0.06215172800974145,5.762571659850835e-07,6.246529509423837e-06,0.14779188887943828,-2.7585261952456364e-06,-0.0693023381104706
306,0.2966,0.00493313,963.167,0.0061122,0.00330676,0.00516987,0.0212651,-0.0643719,0.138276,-0.0720505,5.73654e-07,6.25952e-06,-2.74863e-06,0.140061,-0.062343779669083776,5.736541646150783e-07,6.259539590880436e-06,0.1482924352541699,-2.748626222515149e-06,-0.06951609481250953
307,0.2976,0.00492507,963.669,0.00610258,0.00330786,0.00516187,0.0212577,-0.0645767,0.138711,-0.0722801,5.71052e-07,6.2725e-06,-2.73871e-06,0.140515,-0.0625357920002737,5.710521631119292e-07,6.272519672112509e-06,0.1487920511220786,-2.7387062497830073e-06,-0.0697297093932483
308,0.2986,0.00491702,964.169,0.00609298,0.00330894,0.0051539,0.0212503,-0.0647814,0.139147,-0.0725097,5.68448e-07,6.28544e-06,-2.72876e-06,0.140968,-0.06272767128413659,5.684481616530235e-07,6.2854597533412715e-06,0.14929303366262525,-2.7287562769373608e-06,-0.06994327493370933
309,0.2996,0.004909,964.668,0.0060834,0.00330999,0.00514596,0.0212428,-0.0649859,0.139581,-0.0727391,5.65844e-07,6.29834e-06,-2.71878e-06,0.141422,-0.0629193238782133,5.658441601941178e-07,6.298359834566725e-06,0.14979193509301436,-2.718776304089232e-06,-0.07015660547649072
310,0.3006,0.00490099,965.165,0.00607385,0.00331102,0.00513805,0.0212353,-0.0651904,0.140016,-0.0729684,5.63239e-07,6.31122e-06,-2.70878e-06,0.141875,-0.06311093728334172,5.632391586463115e-07,6.311239915790523e-06,0.15029220338524474,-2.7087763312394486e-06,-0.07036979412384248
311,0.3016,0.004893,965.661,0.00606432,0.00331204,0.00513016,0.0212278,-0.0653948,0.140451,-0.0731976,5.60634e-07,6.32406e-06,-2.69875e-06,0.142328,-0.06330241783778179,5.606341570985052e-07,6.324079997011012e-06,0.1507926893415208,-2.698746358387183e-06,-0.07058284095093026
312,0.3026,0.00488504,966.155,0.00605481,0.00331303,0.0051223,0.0212202,-0.0655991,0.140885,-0.0734267,5.58028e-07,6.33686e-06,-2.68869e-06,0.142781,-0.06349376560697728,5.580281556838429e-07,6.336880078006146e-06,0.15129224176372946,-2.6886863854214127e-06,-0.07079574603285999
313,0.3036,0.00487709,966.648,0.00604532,0.003314,0.00511447,0.0212126,-0.0658034,0.141319,-0.0736557,5.55421e-07,6.34964e-06,-2.67861e-06,0.143233,-0.06368507428781667,5.5542115418028e-07,6.349660158999626e-06,0.15179201103874318,-2.67860641256501e-06,-0.07100850944467807
314,0.3046,0.00486916,967.139,0.00603586,0.00331495,0.00510666,0.0212049,-0.0660075,0.141753,-0.0738847,5.52814e-07,6.36238e-06,-2.66851e-06,0.143686,-0.06387615666353474,5.528141528987618e-07,6.362400239989796e-06,0.1522919972606962,-2.668506439484908e-06,-0.07122122413925314
315,0.3056,0.00486126,967.629,0.00602641,0.00331588,0.00509888,0.0211972,-0.0662116,0.142187,-0.0741135,5.50207e-07,6.37508e-06,-2.65838e-06,0.144138,-0.06406720004331956,5.502071513951989e-07,6.3751003209766566e-06,0.15279220052376408,-2.658376466513346e-06,-0.07143370441449959
316,0.3066,0.00485337,968.117,0.00601699,0.00331679,0.00509113,0.0211895,-0.0664155,0.142621,-0.0743422,5.47599e-07,6.38776e-06,-2.64822e-06,0.14459,-0.06425801728675173,5.475991500247801e-07,6.387780401739818e-06,0.153292620922163,-2.6482164934282793e-06,-0.07164604324442936
317,0.3076,0.0048455,968.604,0.00600759,0.00331768,0.0050834,0.0211817,-0.0666194,0.143054,-0.0745708,5.4499e-07,6.4004e-06,-2.63804e-06,0.145042,-0.06444879562651418,5.449901485654607e-07,6.400420482499669e-06,0.15379210475746863,-2.638036520341558e-06,-0.07185824070384994
318,0.3086,0.00483765,969.09,0.00599822,0.00331855,0.0050757,0.0211739,-0.0668232,0.143488,-0.0747994,5.42381e-07,6.41301e-06,-2.62784e-06,0.145493,-0.06463944153448764,5.423811471061413e-07,6.413030563479083e-06,0.15429295920848785,-2.6278365472531817e-06,-0.07207038966047541
319,0.3096,0.00482982,969.573,0.00598886,0.0033194,0.00506803,0.0211661,-0.0670269,0.143921,-0.0750278,5.39772e-07,6.42558e-06,-2.61761e-06,0.145945,-0.06482995507578415,5.397721456468219e-07,6.425600644011098e-06,0.15479287628406113,-2.617606574051301e-06,-0.07228230458187168
320,0.3106,0.00482201,970.056,0.00597953,0.00332023,0.00506038,0.0211582,-0.0672305,0.144354,-0.0752561,5.37162e-07,6.43812e-06,-2.60736e-06,0.146396,-0.06502033631546289,5.371621443206465e-07,6.438140724762675e-06,0.15529300987059957,-2.6073566008477655e-06,-0.07249407835683941
321,0.3116,0.00481421,970.537,0.00597021,0.00332104,0.00505276,0.0211503,-0.0674341,0.144786,-0.0754844,5.34551e-07,6.45063e-06,-2.59708e-06,0.146847,-0.06521067879746678,5.345511429055705e-07,6.450650805289726e-06,0.15579220426909024,-2.597076627641748e-06,-0.07270580378937286
322,0.3126,0.00480644,971.017,0.00596092,0.00332183,0.00504516,0.0211423,-0.0676375,0.145219,-0.0757125,5.3194e-07,6.46311e-06,-2.58678e-06,0.147298,-0.06540079560986412,5.319401414904945e-07,6.463130886036339e-06,0.15629277065834102,-2.586776654323053e-06,-0.07291729547398484
323,0.3136,0.00479869,971.495,0.00595165,0.0033226,0.00503759,0.0211344,-0.0678409,0.145651,-0.0759405,5.29329e-07,6.47556e-06,-2.57646e-06,0.147749,-0.06559087375643424,5.293291400754185e-07,6.475580966558425e-06,0.15679239704679526,-2.576456680891681e-06,-0.07312864623571436
324,0.3146,0.00479095,971.972,0.00594241,0.00332335,0.00503004,0.0211263,-0.0680441,0.146083,-0.0761685,5.26717e-07,6.48797e-06,-2.56612e-06,0.148199,-0.06578072640120503,5.267171387934866e-07,6.487991046855157e-06,0.15729223932047698,-2.5661167075696767e-06,-0.07333994881496331
325,0.3156,0.00478323,972.448,0.00593318,0.00332409,0.00502252,0.0211183,-0.0682473,0.146515,-0.0763963,5.24105e-07,6.50036e-06,-2.55575e-06,0.148649,-0.06597054047183759,5.2410513728951e-07,6.500381127372279e-06,0.1577922975726691,-2.5557467340231455e-06,-0.07355101793293795
326,0.3166,0.00477554,972.922,0.00592398,0.0033248,0.00501502,0.0211102,-0.0684504,0.146947,-0.0766241,5.21493e-07,6.51271e-06,-2.54536e-06,0.1491,-0.06616022259219645,5.214931360075781e-07,6.5127312076640465e-06,0.1582925718966941,-2.5453567605859817e-06,-0.07376203897484357
327,0.3176,0.00476786,973.395,0.00591479,0.00332549,0.00500755,0.0211021,-0.0686534,0.147378,-0.0768517,5.1888e-07,6.52503e-06,-2.53495e-06,0.14955,-0.06634977282701038,5.188801346367455e-07,6.525051287953332e-06,0.15879190359343265,-2.534946787036141e-06,-0.07397282674621464
328,0.3186,0.0047602,973.866,0.00590563,0.00332616,0.0050001,0.0210939,-0.0688563,0.14781,-0.0770793,5.16267e-07,6.53732e-06,-2.52452e-06,0.149999,-0.06653919124095586,5.16267133265913e-07,6.537341368240135e-06,0.15929260984054738,-2.524516813373623e-06,-0.07418356654774805
329,0.3196,0.00475255,974.336,0.00589649,0.00332682,0.00499268,0.0210858,-0.0690592,0.148241,-0.0773067,5.13653e-07,6.54958e-06,-2.51406e-06,0.150449,-0.06672857122580389,5.136531320282245e-07,6.549601448524456e-06,0.1597923726465369,-2.5140568397086227e-06,-0.07439407326919367
330,0.3206,0.00474493,974.805,0.00588737,0.00332745,0.00498528,0.0210775,-0.0692619,0.148672,-0.0775341,5.11039e-07,6.5618e-06,-2.50359e-06,0.150898,-0.06691772617291492,5.110391305684914e-07,6.5618215285834225e-06,0.16029235089672067,-2.503586866042795e-06,-0.07460453212685325
331,0.3216,0.00473733,975.272,0.00587827,0.00332807,0.00497791,0.0210693,-0.0694646,0.149103,-0.0777614,5.08425e-07,6.574e-06,-2.49309e-06,0.151347,-0.0671068427822038,5.084251293308029e-07,6.574021608862779e-06,0.1607925446839753,-2.493086892263463e-06,-0.07481485061309934
332,0.3226,0.00472974,975.738,0.00586919,0.00332867,0.00497056,0.021061,-0.0696671,0.149534,-0.0779885,5.0581e-07,6.58616e-06,-2.48257e-06,0.151796,-0.06729573452060644,5.058101280042138e-07,6.586181688694737e-06,0.16129295410121713,-2.482566918371454e-06,-0.075024936304392
333,0.3236,0.00472217,976.203,0.00586013,0.00332925,0.00496323,0.0210527,-0.0698696,0.149964,-0.0782156,5.03195e-07,6.5983e-06,-2.47203e-06,0.152245,-0.06748458801230461,5.031951266776247e-07,6.598321768747084e-06,0.16179241744840445,-2.472026944588812e-06,-0.07523497429064119
334,0.3246,0.00471462,976.666,0.0058511,0.00332981,0.00495593,0.0210444,-0.070072,0.150394,-0.0784426,5.0058e-07,6.6104e-06,-2.46147e-06,0.152694,-0.0676733100323782,5.005801253510356e-07,6.610421848796122e-06,0.162292095611013,-2.461466970582471e-06,-0.07544487212717144
335,0.3256,0.00470709,977.128,0.00584208,0.00333035,0.00494865,0.021036,-0.0702744,0.150824,-0.0786695,4.97964e-07,6.62247e-06,-2.45089e-06,0.153142,-0.06786199385898029,4.979641239355459e-07,6.622491928620633e-06,0.1627919886814333,-2.450886996574475e-06,-0.07565462988776794
336,0.3266,0.00469958,977.589,0.00583308,0.00333087,0.00494139,0.0210276,-0.0704766,0.151254,-0.0788963,4.95349e-07,6.63452e-06,-2.44029e-06,0.15359,-0.06805045310994962,4.953491226089568e-07,6.634542008443489e-06,0.16329209675209566,-2.440287022453802e-06,-0.07586424764615707
337,0.3276,0.00469208,978.049,0.00582411,0.00333138,0.00493416,0.0210191,-0.0706787,0.151684,-0.0791229,4.92733e-07,6.64653e-06,-2.42967e-06,0.154038,-0.0682387810821935,4.927331214155117e-07,6.646552088263036e-06,0.1637924199154701,-2.429667048331474e-06,-0.07607363308337445
338,0.3286,0.0046846,978.507,0.00581515,0.00333187,0.00492695,0.0210107,-0.0708808,0.152114,-0.0793495,4.90116e-07,6.65851e-06,-2.41903e-06,0.154486,-0.06842707099720002,4.901161201331661e-07,6.6585321678580556e-06,0.1642929582640662,-2.4190270740964692e-06,-0.0762829710792271
339,0.3296,0.00467714,978.964,0.00580622,0.00333233,0.00491977,0.0210022,-0.0710828,0.152543,-0.079576,4.87499e-07,6.67047e-06,-2.40836e-06,0.154934,-0.06861522972418732,4.874991188508204e-07,6.670492247673465e-06,0.16479254709730418,-2.408357099858982e-06,-0.07649216929368541
340,0.3306,0.0046697,979.419,0.00579731,0.00333278,0.0049126,0.0209937,-0.0712847,0.152972,-0.0798024,4.84883e-07,6.68239e-06,-2.39769e-06,0.155382,-0.06880325732728076,4.848831176573754e-07,6.6824123272635205e-06,0.16529235030013067,-2.3976871255104726e-06,-0.07670122780024147
341,0.3316,0.00466228,979.874,0.00578841,0.00333322,0.00490546,0.0209851,-0.0714865,0.153401,-0.0800287,4.82265e-07,6.69428e-06,-2.38699e-06,0.155829,-0.06899115387055321,4.822651162861291e-07,6.694302406851094e-06,0.16579236796452967,-2.386987151159481e-06,-0.07691014667232832
342,0.3326,0.00465487,980.327,0.00577954,0.00333363,0.00489835,0.0209765,-0.0716882,0.15383,-0.0802549,4.79648e-07,6.70615e-06,-2.37627e-06,0.156276,-0.06917891941802556,4.796481150037835e-07,6.706172486214967e-06,0.16629260018252534,-2.376267176695812e-06,-0.07711892598332071
343,0.3336,0.00464748,980.779,0.00577069,0.00333403,0.00489125,0.0209679,-0.0718898,0.154259,-0.080481,4.77031e-07,6.71798e-06,-2.36553e-06,0.156723,-0.0693665540336661,4.770311137214378e-07,6.7180025655755315e-06,0.1667930470461807,-2.365527202119466e-06,-0.0773275658065351
344,0.3346,0.00464011,981.229,0.00576186,0.00333441,0.00488418,0.0209592,-0.0720914,0.154687,-0.0807071,4.74413e-07,6.72979e-06,-2.35478e-06,0.15717,-0.06955415082598093,4.7441311257223617e-07,6.7298126451564855e-06,0.16729254135447347,-2.354777227542293e-06,-0.07753615846161788
345,0.3356,0.00463276,981.679,0.00575304,0.00333477,0.00487713,0.0209506,-0.0722928,0.155115,-0.080933,4.71795e-07,6.74157e-06,-2.344e-06,0.157616,-0.06974152375091769,4.7179511120098994e-07,6.741592724512913e-06,0.1677922494920865,-2.343997252851615e-06,-0.0777445195081552
346,0.3366,0.00462542,982.127,0.00574425,0.00333511,0.0048701,0.0209419,-0.0724942,0.155543,-0.0811588,4.69177e-07,6.75331e-06,-2.33321e-06,0.158063,-0.06992885894274714,4.691771100517883e-07,6.7533328036439855e-06,0.1682921715505581,-2.3332072780490876e-06,-0.07795274128652674
347,0.3376,0.0046181,982.574,0.00573548,0.00333544,0.00486309,0.0209331,-0.0726955,0.155971,-0.0813845,4.66558e-07,6.76503e-06,-2.3224e-06,0.158509,-0.07011606342067911,4.665581088136861e-07,6.7650528827734036e-06,0.16879230762146613,-2.3223973032449052e-06,-0.0781608238698156
348,0.3386,0.0046108,983.019,0.00572672,0.00333575,0.00485611,0.0209244,-0.0728967,0.156399,-0.0816102,4.6394e-07,6.77672e-06,-2.31157e-06,0.158955,-0.07030313724846071,4.6394010766448446e-07,6.776742962122384e-06,0.16929265779642755,-2.311567328328046e-06,-0.07836885949416483
349,0.3396,0.00460352,983.464,0.00571799,0.00333604,0.00484915,0.0209156,-0.0730978,0.156826,-0.0818357,4.61321e-07,6.78838e-06,-2.30073e-06,0.159401,-0.07049008048978711,4.6132110642638224e-07,6.788403041024793e-06,0.16979205237446116,-2.3007273532993366e-06,-0.0785766638855232
350,0.3406,0.00459625,983.907,0.00570928,0.00333631,0.00484221,0.0209068,-0.0732988,0.157254,-0.0820611,4.58702e-07,6.80002e-06,-2.28986e-06,0.159846,-0.0706768932083015,4.5870210518828003e-07,6.800043120147592e-06,0.1702928305317586,-2.2898573782681453e-06,-0.07878432930071189
351,0.3416,0.004589,984.349,0.00570058,0.00333657,0.00483529,0.0208979,-0.0734998,0.157681,-0.0822865,4.56083e-07,6.81162e-06,-2.27898e-06,0.160292,-0.07086366838123292,4.560831039501778e-07,6.8116431990450366e-06,0.17079265227474338,-2.2789774031251042e-06,-0.07899194791339081
352,0.3426,0.00458177,984.79,0.00569191,0.00333681,0.00482839,0.020889,-0.0737007,0.158108,-0.0825117,4.53464e-07,6.8232e-06,-2.26809e-06,0.160737,-0.07105031312116328,4.534641027120756e-07,6.823223278162871e-06,0.17129268748718496,-2.2680874278702134e-06,-0.07919933557399372
353,0.3436,0.00457456,985.23,0.00568326,0.00333703,0.00482151,0.0208801,-0.0739014,0.158535,-0.0827369,4.50845e-07,6.83475e-06,-2.25717e-06,0.161182,-0.07123673461529711,4.50845101696018e-07,6.834773357056179e-06,0.17179293626025438,-2.2571674526128405e-06,-0.07940667653615385
354,0.3446,0.00456736,985.668,0.00567462,0.00333724,0.00481466,0.0208712,-0.0741021,0.158961,-0.082962,4.48225e-07,6.84627e-06,-2.24624e-06,0.161627,-0.07142311869839146,4.482251003690152e-07,6.846293435724959e-06,0.17229222639234854,-2.2462374772436178e-06,-0.07961387877177895
355,0.3456,0.00456018,986.106,0.00566601,0.00333743,0.00480783,0.0208623,-0.0743027,0.159388,-0.0831869,4.45606e-07,6.85776e-06,-2.23529e-06,0.162072,-0.07160937253889577,4.456060993529576e-07,6.857783514391258e-06,0.1727929020596657,-2.235287501761718e-06,-0.07982085033561848
356,0.3466,0.00455301,986.542,0.00565741,0.0033376,0.00480101,0.0208533,-0.0745033,0.159814,-0.0834118,4.42986e-07,6.86922e-06,-2.22433e-06,0.162516,-0.071795589020627,4.429860980259548e-07,6.869243593055074e-06,0.1732926182679384,-2.2243275261679685e-06,-0.08002777535678718
357,0.3476,0.00454587,986.977,0.00564883,0.00333776,0.00479422,0.0208443,-0.0747037,0.16024,-0.0836366,4.40366e-07,6.88066e-06,-2.21335e-06,0.16296,-0.07198158254741338,4.403660969209966e-07,6.880683671717236e-06,0.1737925474006652,-2.213347550572564e-06,-0.08023456186921218
358,0.3486,0.00453874,987.411,0.00564028,0.00333789,0.00478745,0.0208352,-0.0749041,0.160666,-0.0838613,4.37746e-07,6.89207e-06,-2.20235e-06,0.163405,-0.07216753880483151,4.377460958160384e-07,6.892093750376915e-06,0.1742926895485719,-2.2023475748644827e-06,-0.08044120994537929
359,0.3496,0.00453162,987.844,0.00563174,0.00333802,0.0047807,0.0208262,-0.0751043,0.161092,-0.0840859,4.35126e-07,6.90345e-06,-2.19134e-06,0.163849,-0.0723532722710225,4.351260947110802e-07,6.903473828812068e-06,0.17479304480242175,-2.1913375990445516e-06,-0.08064771965771678
360,0.3506,0.00452452,988.275,0.00562322,0.00333812,0.00477397,0.0208171,-0.0753045,0.161517,-0.0843103,4.32506e-07,6.91481e-06,-2.18031e-06,0.164292,-0.0725389685570954,4.32506093606122e-07,6.9148339072455656e-06,0.17529243795999183,-2.1803076231119434e-06,-0.08085399916399938
361,0.3516,0.00451744,988.706,0.00561472,0.00333821,0.00476726,0.020808,-0.0755046,0.161942,-0.0845347,4.29886e-07,6.92613e-06,-2.16927e-06,0.164736,-0.07272453494295106,4.2988609250116383e-07,6.926153985675754e-06,0.17579204340476173,-2.1692676471785077e-06,-0.08106023238635396
362,0.3526,0.00451038,989.135,0.00560624,0.00333828,0.00476057,0.0207988,-0.0757046,0.162368,-0.084759,4.27266e-07,6.93743e-06,-2.15821e-06,0.165179,-0.07290997149168943,4.2726609117416103e-07,6.937454064104287e-06,0.17629303751942205,-2.1582076710213727e-06,-0.08126632746180296
363,0.3536,0.00450333,989.563,0.00559778,0.00333834,0.0047539,0.0207897,-0.0759046,0.162792,-0.0849833,4.24646e-07,6.94871e-06,-2.14714e-06,0.165623,-0.07309537095682661,4.2464609006920284e-07,6.948734142309121e-06,0.17679189151690422,-2.1471376948634102e-06,-0.08147237631531046
364,0.3546,0.0044963,989.99,0.00558933,0.00333838,0.00474725,0.0207805,-0.0761044,0.163217,-0.0852074,4.22025e-07,6.95995e-06,-2.13605e-06,0.166066,-0.07328054800190653,4.2202508909738867e-07,6.959974220510645e-06,0.17729213436487434,-2.1360477185927707e-06,-0.08167819529290044
365,0.3556,0.00448929,990.416,0.00558091,0.0033384,0.00474062,0.0207713,-0.0763042,0.163642,-0.0854314,4.19405e-07,6.97117e-06,-2.12495e-06,0.166509,-0.07346568805230891,4.194050879924305e-07,6.971194298710515e-06,0.17779258986123958,-2.1249477423213037e-06,-0.08188387634001748
366,0.3566,0.00448229,990.841,0.0055725,0.00333841,0.00473401,0.020762,-0.0765039,0.164066,-0.0856553,4.16785e-07,6.98237e-06,-2.11383e-06,0.166951,-0.07365069848049877,4.167850868874723e-07,6.982394376908729e-06,0.17829207980372552,-2.1138277658261373e-06,-0.08208941952868631
367,0.3576,0.00447531,991.265,0.00556412,0.0033384,0.00472743,0.0207528,-0.0767035,0.164491,-0.0858792,4.14164e-07,6.99353e-06,-2.1027e-06,0.167394,-0.07383557934935747,4.141640856936135e-07,6.99355445488159e-06,0.17879296036722248,-2.1026977893301435e-06,-0.08229491670138689
368,0.3586,0.00446835,991.687,0.00555575,0.00333838,0.00472086,0.0207435,-0.076903,0.164915,-0.0861029,4.11544e-07,7.00467e-06,-2.09155e-06,0.167836,-0.0740203307217151,4.115440845886553e-07,7.004694532852795e-06,0.17929287455673704,-2.0915478127214726e-06,-0.08250018436847617
369,0.3596,0.0044614,992.109,0.0055474,0.00333834,0.00471431,0.0207342,-0.0771024,0.165339,-0.0863265,4.08923e-07,7.01578e-06,-2.08039e-06,0.168278,-0.07420495266035021,4.0892308361684115e-07,7.015804610599474e-06,0.17979300075481053,-2.080387836000952e-06,-0.08270531439286
370,0.3606,0.00445446,992.529,0.00553907,0.00333828,0.00470777,0.0207248,-0.0773017,0.165762,-0.0865501,4.06303e-07,7.02687e-06,-2.06921e-06,0.16872,-0.07438944522798996,4.0630308251188296e-07,7.026894688566543e-06,0.18029215875860483,-2.0692078591677543e-06,-0.08291039855529803
371,0.3616,0.00444755,992.949,0.00553075,0.00333821,0.00470126,0.0207155,-0.077501,0.166186,-0.0867736,4.03682e-07,7.03793e-06,-2.05803e-06,0.169162,-0.07457390102992478,4.036820815400688e-07,7.037954766309085e-06,0.18079270874301634,-2.0580278822235343e-06,-0.08311534517758268
372,0.3626,0.00444065,993.367,0.00552246,0.00333812,0.00469477,0.0207061,-0.0777002,0.166609,-0.0869969,4.01062e-07,7.04897e-06,-2.04682e-06,0.169604,-0.07475822754930883,4.010620804351106e-07,7.048994844049972e-06,0.18129228971274047,-2.046817905276832e-06,-0.0833200626634466
373,0.3636,0.00443376,993.784,0.00551418,0.00333802,0.0046883,0.0206967,-0.0778993,0.167032,-0.0872202,3.98441e-07,7.05997e-06,-2.03561e-06,0.170045,-0.07494242484875413,3.9844107946329643e-07,7.0599949215655045e-06,0.18179208204991615,-2.0356079281080852e-06,-0.08352473444099939
374,0.3646,0.00442689,994.201,0.00550593,0.0033379,0.00468185,0.0206872,-0.0780983,0.167455,-0.0874434,3.95821e-07,7.07096e-06,-2.02438e-06,0.170486,-0.07512649299082164,3.9582107835833824e-07,7.0709849993022544e-06,0.18229208584397005,-2.0243779509376836e-06,-0.08372926889337817
375,0.3656,0.00442004,994.616,0.00549769,0.00333777,0.00467541,0.0206778,-0.0782972,0.167878,-0.0876665,3.932e-07,7.08191e-06,-2.01314e-06,0.170927,-0.07531043203802112,3.9320007738652407e-07,7.08193507681365e-06,0.18279230118436818,-2.0131379736554322e-06,-0.08393366609213271
376,0.3666,0.0044132,995.03,0.00548947,0.00333762,0.00466899,0.0206683,-0.0784961,0.168301,-0.0878894,3.9058e-07,7.09285e-06,-2.00188e-06,0.171368,-0.07549433450338228,3.905800762815659e-07,7.0928751543242186e-06,0.1832927281606127,-2.0018779962605038e-06,-0.08413783452254397
377,0.3676,0.00440638,995.443,0.00548126,0.00333745,0.0046626,0.0206588,-0.0786948,0.168723,-0.0881123,3.8796e-07,7.10375e-06,-1.99061e-06,0.171809,-0.07567801552980213,3.879600751766077e-07,7.103775231609433e-06,0.1837921830694702,-1.9906080187537256e-06,-0.08434195744888351
378,0.3686,0.00439958,995.855,0.00547308,0.00333727,0.00465622,0.0206493,-0.0788935,0.169146,-0.0883351,3.85339e-07,7.11463e-06,-1.97933e-06,0.172249,-0.0758616600624279,3.853390742047935e-07,7.114655309115037e-06,0.18429303308521883,-1.9793280411350977e-06,-0.08454594333589227
379,0.3696,0.00439279,996.266,0.00546491,0.00333708,0.00464986,0.0206397,-0.0790921,0.169568,-0.0885579,3.82719e-07,7.12549e-06,-1.96804e-06,0.17269,-0.07604517571303215,3.8271907332187993e-07,7.125515386396941e-06,0.1847929102118362,-1.96803806340462e-06,-0.084749883779908
380,0.3706,0.00438601,996.676,0.00545676,0.00333687,0.00464352,0.0206302,-0.0792906,0.16999,-0.0887805,3.80099e-07,7.13632e-06,-1.95673e-06,0.17313,-0.07622856254390797,3.8009907221692174e-07,7.1363454636763635e-06,0.18529299833111734,-1.9567280855614655e-06,-0.08495359578179162
381,0.3716,0.00437925,997.085,0.00544863,0.00333664,0.00463719,0.0206206,-0.0794891,0.170411,-0.089003,3.77478e-07,7.14712e-06,-1.94541e-06,0.17357,-0.07641191297611061,3.7747807124510757e-07,7.147145540731259e-06,0.18579211173941523,-1.9454081077174834e-06,-0.0851571709581519
382,0.3726,0.00437251,997.492,0.00544052,0.0033364,0.00463089,0.020611,-0.0796874,0.170833,-0.0892254,3.74858e-07,7.1579e-06,-1.93408e-06,0.174009,-0.07659504233589132,3.74858070362194e-07,7.1579256177845e-06,0.18629262161072435,-1.9340781296506293e-06,-0.08536060938013978
383,0.3736,0.00436578,997.899,0.00543243,0.00333614,0.0046246,0.0206013,-0.0798857,0.171254,-0.0894478,3.72238e-07,7.16865e-06,-1.92274e-06,0.174449,-0.07677813538472034,3.722380692572358e-07,7.168675694835258e-06,0.18679215594902265,-1.922738151582948e-06,-0.08556400256245345
384,0.3746,0.00435907,998.305,0.00542435,0.00333587,0.00461833,0.0205917,-0.0800838,0.171675,-0.08967,3.69618e-07,7.17938e-06,-1.91138e-06,0.174888,-0.0769610075220174,3.696180683743222e-07,7.179405771884362e-06,0.18729190063555223,-1.911378173291567e-06,-0.08576716766860482
385,0.3756,0.00435237,998.71,0.00541629,0.00333559,0.00461208,0.020582,-0.0802819,0.172097,-0.0898922,3.66998e-07,7.19009e-06,-1.90002e-06,0.175328,-0.07714384343593206,3.66998067269364e-07,7.190115848709766e-06,0.18779304355133863,-1.900018195000186e-06,-0.08597028763648473
386,0.3766,0.00434569,999.114,0.00540825,0.00333528,0.00460585,0.0205723,-0.08048,0.172517,-0.0901142,3.64378e-07,7.20077e-06,-1.88864e-06,0.175767,-0.07732664313363957,3.6437806638645043e-07,7.200795925532688e-06,0.18829202140764512,-1.8886382164851057e-06,-0.08617317971077587
387,0.3776,0.00433902,999.517,0.00540022,0.00333497,0.00459964,0.0205626,-0.0806779,0.172938,-0.0903362,3.61758e-07,7.21142e-06,-1.87725e-06,0.176206,-0.07750922212417644,3.6175806550353684e-07,7.211446002353128e-06,0.1887923976704704,-1.877248237969198e-06,-0.08637602674802591
388,0.3786,0.00433237,999.919,0.00539221,0.00333464,0.00459344,0.0205528,-0.0808757,0.173359,-0.0905581,3.59139e-07,7.22206e-06,-1.86585e-06,0.176644,-0.07769167275507793,3.5913906448747923e-07,7.22208607917274e-06,0.18929298463605226,-1.8658482593414405e-06,-0.08657873741611011
389,0.3796,0.00432574,1000.32,0.00538422,0.00333429,0.00458726,0.0205431,-0.0810735,0.173779,-0.0907799,3.56519e-07,7.23266e-06,-1.85444e-06,0.177083,-0.07787408730081369,3.5651906360456564e-07,7.232686155766999e-06,0.18979259259992753,-1.854438280490811e-06,-0.08678131178582316
390,0.3806,0.00431912,1000.72,0.00537625,0.00333393,0.0045811,0.0205333,-0.0812712,0.174199,-0.0910016,3.539e-07,7.24324e-06,-1.84301e-06,0.177521,-0.07805637357416251,3.5390006258850804e-07,7.243266232359602e-06,0.19029241044321932,-1.8430083016385268e-06,-0.08698374992790292
391,0.3816,0.00431251,1001.12,0.0053683,0.00333356,0.00457495,0.0205235,-0.0814688,0.174619,-0.0912232,3.5128e-07,7.2538e-06,-1.83158e-06,0.177959,-0.07823853163693495,3.5128006170559445e-07,7.253826308950551e-06,0.1907924382540953,-1.8315783226752202e-06,-0.08718605191303119
392,0.3826,0.00430592,1001.52,0.00536036,0.00333317,0.00456883,0.0205137,-0.0816663,0.175039,-0.0914447,3.48661e-07,7.26434e-06,-1.82014e-06,0.178397,-0.07842056155089094,3.4866106068953684e-07,7.2643663853178e-06,0.1912926761207605,-1.820138343600064e-06,-0.08738821781183259
393,0.3836,0.00429934,1001.91,0.00535244,0.00333277,0.00456272,0.0205038,-0.0818638,0.175458,-0.0916661,3.46042e-07,7.27485e-06,-1.80868e-06,0.178835,-0.07860255551748885,3.4604205989552383e-07,7.274876461682567e-06,0.19179193233892877,-1.8086783643012083e-06,-0.08759024769487567
394,0.3846,0.00429278,1002.31,0.00534454,0.00333235,0.00455663,0.0204939,-0.0820611,0.175878,-0.0918874,3.43423e-07,7.28533e-06,-1.79721e-06,0.179273,-0.07878432930071189,3.434230588794662e-07,7.2853565380448515e-06,0.1922925900812773,-1.7972083850015252e-06,-0.08779214163267268
395,0.3856,0.00428623,1002.7,0.00533665,0.00333192,0.00455055,0.020484,-0.0822584,0.176297,-0.0921087,3.40804e-07,7.29579e-06,-1.78574e-06,0.17971,-0.07896606722350519,3.408040580854532e-07,7.2958166144054815e-06,0.19279226535118,-1.7857384055908199e-06,-0.08799399089628457
396,0.3866,0.0042797,1003.1,0.00532878,0.00333147,0.00454449,0.0204741,-0.0824556,0.176716,-0.0923298,3.38185e-07,7.30623e-06,-1.77425e-06,0.180147,-0.07914767720771576,3.381850572914402e-07,7.306256690542412e-06,0.1932921500288889,-1.7742484260674374e-06,-0.08819561313473756
397,0.3876,0.00427319,1003.49,0.00532093,0.00333101,0.00453845,0.0204642,-0.0826527,0.177135,-0.0925508,3.35566e-07,7.31665e-06,-1.76276e-06,0.180584,-0.07932915931488893,3.355660562753826e-07,7.316676766677688e-06,0.1937922442021638,-1.7627584463220103e-06,-0.08839709963915598
398,0.3886,0.00426668,1003.88,0.0053131,0.00333053,0.00453243,0.0204543,-0.0828497,0.177554,-0.0927718,3.32947e-07,7.32704e-06,-1.75125e-06,0.181021,-0.07951051360651962,3.329470554813696e-07,7.327066842810481e-06,0.19429254795880202,-1.7512484665749284e-06,-0.08859854161997693
399,0.3896,0.0042602,1004.28,0.00530528,0.00333005,0.00452642,0.0204443,-0.0830467,0.177972,-0.0929927,3.30329e-07,7.3374e-06,-1.73973e-06,0.181458,-0.07969183217487374,3.303290545542126e-07,7.337426918718748e-06,0.19479186659417347,-1.7397284867159968e-06,-0.08879984796702844
400,0.3906,0.00425373,1004.67,0.00529748,0.00332954,0.00452043,0.0204343,-0.0832435,0.178391,-0.0932134,3.27711e-07,7.34775e-06,-1.72821e-06,0.181894,-0.07987293100159276,3.2771105362705555e-07,7.347776994848232e-06,0.19529258928035342,-1.7282085066350206e-06,-0.08900092765062284
401,0.3916,0.00424727,1005.05,0.00528969,0.00332903,0.00451446,0.0204243,-0.0834403,0.178809,-0.0934341,3.25093e-07,7.35807e-06,-1.71667e-06,0.182331,-0.08005399419156933,3.250930529219431e-07,7.358097070753189e-06,0.19579232602037488,-1.7166685265523896e-06,-0.08920196296082794
402,0.3926,0.00424082,1005.44,0.00528193,0.00332849,0.0045085,0.0204143,-0.083637,0.179227,-0.0936547,3.22475e-07,7.36837e-06,-1.70513e-06,0.182767,-0.08023492977531377,3.224750519947861e-07,7.368397146434447e-06,0.19629227169401786,-1.705128546247714e-06,-0.08940286284772647
403,0.3936,0.00423439,1005.83,0.00527418,0.00332795,0.00450256,0.0204042,-0.0838336,0.179645,-0.0938752,3.19857e-07,7.37864e-06,-1.69358e-06,0.183203,-0.08041573781410738,3.1985705106762907e-07,7.378667222335267e-06,0.1967924263886347,-1.693578565942211e-06,-0.08960362738136529
404,0.3946,0.00422798,1006.22,0.00526644,0.00332739,0.00449663,0.0203942,-0.0840302,0.180063,-0.0940956,3.17239e-07,7.38889e-06,-1.68201e-06,0.183639,-0.08059651030953463,3.1723905036251665e-07,7.388917298012387e-06,0.1972927901916146,-1.6820085854130085e-06,-0.08980425663173486
405,0.3956,0.00422158,1006.6,0.00525873,0.00332682,0.00449073,0.0203841,-0.0842266,0.18048,-0.0943159,3.14621e-07,7.39912e-06,-1.67044e-06,0.184074,-0.08077706342401358,3.146210494353596e-07,7.399147373465809e-06,0.19779216539761868,-1.6704386047727837e-06,-0.0900047506687699
406,0.3966,0.00421519,1006.99,0.00525103,0.00332623,0.00448483,0.020374,-0.084423,0.180898,-0.0945362,3.12004e-07,7.40932e-06,-1.65886e-06,0.18451,-0.08095758108134288,3.120040485971032e-07,7.409347449138792e-06,0.19829294717885548,-1.6588586241317316e-06,-0.09020520054183334
407,0.3976,0.00420882,1007.37,0.00524334,0.00332563,0.00447896,0.0203639,-0.0846193,0.181315,-0.0947563,3.09387e-07,7.41951e-06,-1.64727e-06,0.184945,-0.0811379714022874,3.0938704775884673e-07,7.419537524588904e-06,0.19879273953729348,-1.6472686432678074e-06,-0.09040542434175658
408,0.3986,0.00420246,1007.76,0.00523567,0.00332502,0.0044731,0.0203537,-0.0848155,0.181732,-0.0949763,3.0677e-07,7.42967e-06,-1.63567e-06,0.18538,-0.0813182344479152,3.067700471426349e-07,7.429697600036533e-06,0.19929274035260525,-1.6356686622920336e-06,-0.09060551313782683
409,0.3996,0.00419612,1008.14,0.00522802,0.00332439,0.00446725,0.0203436,-0.0850116,0.182149,-0.0951963,3.04153e-07,7.4398e-06,-1.62407e-06,0.185815,-0.08149837027924445,3.0415304630437845e-07,7.4398276754816806e-06,0.19979294971173522,-1.6240686812052374e-06,-0.09080555791920375
410,0.4006,0.00418979,1008.52,0.00522039,0.00332375,0.00446143,0.0203334,-0.0852077,0.182565,-0.0954161,3.01536e-07,7.44992e-06,-1.61245e-06,0.18625,-0.08167847078940049,3.01536045466122e-07,7.449947750703956e-06,0.20029216740889688,-1.6124487000057641e-06,-0.09100537689666299
411,0.4016,0.00418348,1008.9,0.00521277,0.00332309,0.00445561,0.0203232,-0.0854037,0.182982,-0.0956359,2.9892e-07,7.46001e-06,-1.60083e-06,0.186685,-0.08185844417115817,2.9892004471676614e-07,7.460037825923749e-06,0.2007927936160161,-1.6008287186952685e-06,-0.09120515195873746
412,0.4026,0.00417718,1009.28,0.00520517,0.00332243,0.00444982,0.020313,-0.0855996,0.183398,-0.0958556,2.96304e-07,7.47008e-06,-1.58919e-06,0.187119,-0.08203829048542344,2.963040439674103e-07,7.470107901141887e-06,0.2012924273347685,-1.5891887372720959e-06,-0.09140479225556253
413,0.4036,0.00417089,1009.66,0.00519758,0.00332174,0.00444404,0.0203028,-0.0857954,0.183814,-0.0960752,2.93687e-07,7.48013e-06,-1.57755e-06,0.187553,-0.08221800979305205,2.9368704312915384e-07,7.480157976136326e-06,0.2017922689443863,-1.5775487556268786e-06,-0.09160429785666646
414,0.4046,0.00416462,1010.03,0.00519001,0.00332105,0.00443827,0.0202925,-0.0859911,0.18423,-0.0962947,2.91071e-07,7.49015e-06,-1.56591e-06,0.187987,-0.0823976021548497,2.9107104237979797e-07,7.490178051350327e-06,0.20229231853136986,-1.5659087739816613e-06,-0.09180366883152191
415,0.4056,0.00415836,1010.41,0.00518246,0.00332034,0.00443252,0.0202823,-0.0861867,0.184646,-0.0965141,2.88456e-07,7.50015e-06,-1.55425e-06,0.188421,-0.08257706763157246,2.884560414972981e-07,7.500178126118584e-06,0.20279257618225577,-1.5542487921127446e-06,-0.09200290524954602
416,0.4066,0.00415211,1010.79,0.00517492,0.00331962,0.00442679,0.020272,-0.0863823,0.185062,-0.0967334,2.8584e-07,7.51013e-06,-1.54259e-06,0.188855,-0.08275649800828078,2.858400407479422e-07,7.510158201107231e-06,0.20329304198361697,-1.5425888102438279e-06,-0.09220200718010019
417,0.4076,0.00414588,1011.16,0.0051674,0.00331889,0.00442107,0.0202617,-0.0865778,0.185477,-0.0969526,2.83225e-07,7.52009e-06,-1.53092e-06,0.189288,-0.08293580158542435,2.8322504008748695e-07,7.5201182758721785e-06,0.20379251222894768,-1.5309188281520392e-06,-0.0924009746924902
418,0.4086,0.00413966,1011.54,0.00515989,0.00331814,0.00441537,0.0202514,-0.0867732,0.185892,-0.0971718,2.8061e-07,7.53003e-06,-1.51924e-06,0.189722,-0.08311497842364746,2.8061003942703167e-07,7.530058350857516e-06,0.20429218979744657,-1.5192388459484008e-06,-0.09259989859598128
419,0.4096,0.00413346,1011.91,0.0051524,0.00331738,0.00440968,0.020241,-0.0869685,0.186307,-0.0973908,2.77995e-07,7.53994e-06,-1.50755e-06,0.190155,-0.08329402858354407,2.779950385445318e-07,7.539968425396282e-06,0.20479207477517103,-1.5075488636329126e-06,-0.09279859745986907
420,0.4106,0.00412727,1012.28,0.00514493,0.0033166,0.00440401,0.0202307,-0.0871638,0.186722,-0.0976098,2.7538e-07,7.54984e-06,-1.49586e-06,0.190588,-0.08347304377835896,2.753800378840765e-07,7.549868500156265e-06,0.20529216724821353,-1.4958588812064022e-06,-0.09299725281347015
421,0.4116,0.00412109,1012.65,0.00513747,0.00331582,0.00439835,0.0202203,-0.0873589,0.187137,-0.0978286,2.72766e-07,7.55971e-06,-1.48416e-06,0.191021,-0.08365184074530652,2.727660370904772e-07,7.559738574691721e-06,0.2057924673027025,-1.484158898668042e-06,-0.09319568330546713
422,0.4126,0.00411493,1013.03,0.00513003,0.00331502,0.00439271,0.0202099,-0.087554,0.187552,-0.0980474,2.70152e-07,7.56956e-06,-1.47245e-06,0.191453,-0.08383060283236843,2.701520365189225e-07,7.569588649225523e-06,0.20629297502480215,-1.47244891590681e-06,-0.09339407038562186
423,0.4136,0.00410878,1013.4,0.0051226,0.0033142,0.00438708,0.0201995,-0.087749,0.187966,-0.0982661,2.67537e-07,7.57939e-06,-1.46074e-06,0.191886,-0.08400923844727759,2.675370358584672e-07,7.579418723757669e-06,0.20679248370762537,-1.4607389331455778e-06,-0.09359232342266877
424,0.4146,0.00410265,1013.76,0.00511519,0.00331338,0.00438147,0.0201891,-0.0879439,0.18838,-0.0984847,2.64924e-07,7.58919e-06,-1.44902e-06,0.192318,-0.08418774765041737,2.649240351537685e-07,7.589218798065289e-06,0.20729219922985598,-1.4490189501614736e-06,-0.093790442485566
425,0.4156,0.00409652,1014.13,0.0051078,0.00331254,0.00437587,0.0201787,-0.0881388,0.188794,-0.0987032,2.6231e-07,7.59898e-06,-1.43729e-06,0.19275,-0.0843662220655036,2.623100343601692e-07,7.599008872372082e-06,0.20779212167714323,-1.4372889670655198e-06,-0.0939884276432168
426,0.4166,0.00409041,1014.5,0.00510042,0.00331169,0.00437029,0.0201682,-0.0883335,0.189208,-0.0989216,2.59697e-07,7.60874e-06,-1.42556e-06,0.193182,-0.08454447860822989,2.596970336554705e-07,7.608768946454347e-06,0.20829225113517214,-1.4255589838585436e-06,-0.09418627896446874
427,0.4176,0.00408432,1014.87,0.00509305,0.00331082,0.00436472,0.0201578,-0.0885282,0.189622,-0.09914,2.57084e-07,7.61848e-06,-1.41382e-06,0.193614,-0.08472270044778574,2.5708403295077176e-07,7.618509020757003e-06,0.20879258768966258,-1.4138190005397178e-06,-0.09438408707971047
428,0.4186,0.00407824,1015.23,0.00508571,0.00330994,0.00435917,0.0201473,-0.0887228,0.190035,-0.0993582,2.54471e-07,7.62821e-06,-1.40207e-06,0.194045,-0.08490079608101153,2.5447103246811764e-07,7.628239094836786e-06,0.2092919221338434,-1.4020690171090422e-06,-0.09458167091472935
429,0.4196,0.00407217,1015.6,0.00507837,0.00330905,0.00435363,0.0201368,-0.0889173,0.190449,-0.0995764,2.51858e-07,7.63791e-06,-1.39032e-06,0.194477,-0.08507876556808003,2.518580317634189e-07,7.637939168914087e-06,0.20979267263780899,-1.390319033456322e-06,-0.0947792116416587
430,0.4206,0.00406611,1015.96,0.00507106,0.00330815,0.00434811,0.0201263,-0.0891118,0.190862,-0.0997944,2.49246e-07,7.64759e-06,-1.37856e-06,0.194908,-0.08525670044344946,2.492460311476208e-07,7.647619242989734e-06,0.21029242020237704,-1.3785590498027744e-06,-0.0949765282652274
431,0.4216,0.00406007,1016.33,0.00506375,0.00330724,0.0043426,0.0201158,-0.0893062,0.191275,-0.100012,2.46633e-07,7.65725e-06,-1.36679e-06,0.195339,-0.08543450925730656,2.4663303044292206e-07,7.65727931684168e-06,0.21079237420531594,-1.3667890659263549e-06,-0.09517343994790883
432,0.4226,0.00405404,1016.69,0.00505647,0.00330631,0.0043371,0.0201052,-0.0895004,0.191688,-0.10023,2.44022e-07,7.66688e-06,-1.35502e-06,0.19577,-0.08561210063092828,2.440220296939799e-07,7.666909390691146e-06,0.21129253473190213,-1.355019081938913e-06,-0.09537067063907378
433,0.4236,0.00404803,1017.05,0.0050492,0.00330537,0.00433162,0.0200947,-0.0896946,0.192101,-0.100448,2.4141e-07,7.6765e-06,-1.34324e-06,0.196201,-0.08578965751965384,2.4141002907818176e-07,7.676529464317738e-06,0.2117929018674476,-1.3432390978396214e-06,-0.09556785833863424
434,0.4246,0.00404202,1017.41,0.00504194,0.00330442,0.00432615,0.0200841,-0.0898888,0.192513,-0.100666,2.38798e-07,7.6861e-06,-1.33146e-06,0.196631,-0.08596717993017955,2.3879802846238363e-07,7.686129538164721e-06,0.21229226340442997,-1.3314591136293075e-06,-0.09576500305596147
435,0.4256,0.00403603,1017.77,0.0050347,0.00330345,0.0043207,0.0200735,-0.0900828,0.192926,-0.100883,2.36187e-07,7.69567e-06,-1.31967e-06,0.197061,-0.08614448509811579,2.3618702793548607e-07,7.695699611787177e-06,0.21279304351319017,-1.3196691291961216e-06,-0.09596120076207737
436,0.4266,0.00403006,1018.13,0.00502747,0.00330247,0.00431526,0.0200629,-0.0902768,0.193338,-0.101101,2.33576e-07,7.70523e-06,-1.30788e-06,0.197492,-0.0863217558721856,2.335760271865439e-07,7.705259685408805e-06,0.2132928171934263,-1.3078791447629357e-06,-0.09615825974010217
437,0.4276,0.00402409,1018.49,0.00502026,0.00330148,0.00430984,0.0200523,-0.0904707,0.19375,-0.101318,2.30966e-07,7.71476e-06,-1.29608e-06,0.197922,-0.08649890090895573,2.3096602674854694e-07,7.714789758805907e-06,0.21379279682284147,-1.2960791601068777e-06,-0.09635437211877595
438,0.4286,0.00401814,1018.85,0.00501307,0.00330048,0.00430443,0.0200416,-0.0906645,0.194162,-0.101536,2.28355e-07,7.72427e-06,-1.28427e-06,0.198352,-0.08667592026822957,2.2835502599960478e-07,7.724299832201353e-06,0.2142929824863038,-1.2842691753389701e-06,-0.09655134539478682
439,0.4296,0.0040122,1019.2,0.00500589,0.00329947,0.00429903,0.020031,-0.0908582,0.194573,-0.101753,2.25745e-07,7.73377e-06,-1.27246e-06,0.198781,-0.08685281400976164,2.257450255616078e-07,7.733799905595973e-06,0.2147921594759501,-1.2724591904600402e-06,-0.09674737248312792
440,0.4306,0.00400628,1019.56,0.00499872,0.00329844,0.00429365,0.0200203,-0.0910518,0.194985,-0.10197,2.23135e-07,7.74324e-06,-1.26065e-06,0.199211,-0.08702958219325707,2.2313502490156623e-07,7.74326997898811e-06,0.21529275696165517,-1.2606492053590657e-06,-0.09694335703820578
441,0.4316,0.00400037,1019.92,0.00499157,0.0032974,0.00428828,0.0200096,-0.0912454,0.195396,-0.102187,2.20526e-07,7.75269e-06,-1.24883e-06,0.19964,-0.08720631615774477,2.2052602433042523e-07,7.752720052156548e-06,0.2157923449430641,-1.2488292202572637e-06,-0.09713929906924923
442,0.4326,0.00399447,1020.27,0.00498443,0.00329635,0.00428293,0.0199989,-0.0914389,0.195807,-0.102404,2.17916e-07,7.76213e-06,-1.237e-06,0.200069,-0.08738292464814568,2.1791602367038365e-07,7.762160125324158e-06,0.21629213829733462,-1.2369992349325898e-06,-0.0973351985854849
443,0.4336,0.00398858,1020.62,0.00497731,0.00329529,0.00427759,0.0199882,-0.0916323,0.196218,-0.102621,2.15307e-07,7.77154e-06,-1.22517e-06,0.200498,-0.08755940772405524,2.1530702309924266e-07,7.771570198489286e-06,0.2167921371088921,-1.2251692494968935e-06,-0.09753105559613773
444,0.4346,0.00398271,1020.98,0.00497021,0.00329421,0.00427226,0.0199775,-0.0918256,0.196629,-0.102838,2.12698e-07,7.78093e-06,-1.21334e-06,0.200927,-0.08773576544501926,2.1269802252810166e-07,7.780960271430715e-06,0.21729234146219722,-1.213339263950175e-06,-0.09772687011043013
445,0.4356,0.00397685,1021.33,0.00496311,0.00329312,0.00426694,0.0199668,-0.0920189,0.19704,-0.103055,2.1009e-07,7.79031e-06,-1.2015e-06,0.201355,-0.08791208907933046,2.1009002204586125e-07,7.79034034459336e-06,0.21779275144174481,-1.2014992781805844e-06,-0.09792264213758295
446,0.4366,0.003971,1021.68,0.00495604,0.00329202,0.00426164,0.019956,-0.0922121,0.19745,-0.103271,2.07481e-07,7.79966e-06,-1.18965e-06,0.201784,-0.08808828744241037,2.0748102147472025e-07,7.79969041753148e-06,0.2182921488393068,-1.1896492924101665e-06,-0.09811746980473568
447,0.4376,0.00396516,1022.03,0.00494897,0.00329091,0.00425636,0.0199453,-0.0924052,0.197861,-0.103488,2.04873e-07,7.80899e-06,-1.1778e-06,0.202212,-0.08826436059369547,2.0487302099247984e-07,7.8090204902459e-06,0.2187929698241422,-1.177799306417704e-06,-0.09831315708095067
448,0.4386,0.00395934,1022.38,0.00494193,0.00328979,0.00425108,0.0199345,-0.0925982,0.198271,-0.103704,2.02266e-07,7.8183e-06,-1.16595e-06,0.20264,-0.08844030859257279,2.022660203770954e-07,7.818330562958664e-06,0.2192927773953206,-1.165949320314219e-06,-0.098507900405985
449,0.4396,0.00395353,1022.73,0.00493489,0.00328865,0.00424582,0.0199237,-0.0927911,0.198681,-0.103921,1.99658e-07,7.8276e-06,-1.15409e-06,0.203068,-0.08861613149838077,1.99658019894855e-07,7.827630635670602e-06,0.21979278992961793,-1.1540893339878622e-06,-0.09870350296795138
450,0.4406,0.00394773,1023.08,0.00492787,0.00328751,0.00424058,0.0199129,-0.092984,0.199091,-0.104137,1.97051e-07,7.83687e-06,-1.14223e-06,0.203496,-0.08879192049122131,1.9705101950151516e-07,7.836900708380057e-06,0.22029300751108605,-1.1422293476615053e-06,-0.09889816198737933
451,0.4416,0.00394194,1023.43,0.00492087,0.00328635,0.00423534,0.0199021,-0.0931768,0.1995,-0.104353,1.94444e-07,7.84613e-06,-1.13037e-06,0.203924,-0.08896758447439845,1.9444401888613072e-07,7.84616078086664e-06,0.22079220943099176,-1.1303693611131038e-06,-0.0990927789649998
452,0.4426,0.00393617,1023.78,0.00491388,0.00328518,0.00423012,0.0198912,-0.0933695,0.19991,-0.104569,1.91837e-07,7.85536e-06,-1.1185e-06,0.204351,-0.08914312350714126,1.918370184927909e-07,7.855390853350741e-06,0.22129283685846812,-1.1184993744528526e-06,-0.09928735390989285
453,0.4436,0.00393041,1024.12,0.00490691,0.003284,0.00422492,0.0198804,-0.0935621,0.200319,-0.104785,1.89231e-07,7.86458e-06,-1.10663e-06,0.204778,-0.08931853764862974,1.8923101796630704e-07,7.864610925834015e-06,0.22179244779221463,-1.1066293876815791e-06,-0.09948188683113646
454,0.4446,0.00392466,1024.47,0.00489994,0.0032828,0.00421972,0.0198695,-0.0937546,0.200728,-0.105001,1.86625e-07,7.87377e-06,-1.09475e-06,0.205205,-0.08949382695799502,1.8662501743982318e-07,7.873800998314806e-06,0.22229226310862638,-1.094749400798456e-06,-0.0996763777378068
455,0.4456,0.00391892,1024.81,0.004893,0.0032816,0.00421454,0.0198587,-0.0939471,0.201137,-0.105217,1.84019e-07,7.88295e-06,-1.08287e-06,0.205632,-0.0896690825274159,1.8401901691333933e-07,7.882981070572725e-06,0.22279228289131314,-1.0828694136932882e-06,-0.09987082663897806
456,0.4466,0.0039132,1025.16,0.00488607,0.00328038,0.00420937,0.0198478,-0.0941395,0.201546,-0.105433,1.81414e-07,7.89211e-06,-1.07098e-06,0.206059,-0.08984421334781245,1.8141401647575606e-07,7.89214114282899e-06,0.22329250722391847,-1.0709794264762706e-06,-0.10006523354372254
457,0.4476,0.00390748,1025.5,0.00487915,0.00327915,0.00420422,0.0198369,-0.0943318,0.201955,-0.105648,1.78809e-07,7.90125e-06,-1.0591e-06,0.206485,-0.0900192194782069,1.7880901603817279e-07,7.901281214861555e-06,0.22379293619012053,-1.0590994391490582e-06,-0.10025869872025894
458,0.4486,0.00390178,1025.84,0.00487224,0.00327791,0.00419908,0.019826,-0.094524,0.202363,-0.105864,1.76204e-07,7.91037e-06,-1.0472e-06,0.206912,-0.09019410097757274,1.7620401560058951e-07,7.91040128711451e-06,0.224292345580674,-1.0471994517091687e-06,-0.10045302185368132
459,0.4496,0.0038961,1026.19,0.00486535,0.00327666,0.00419395,0.019815,-0.0947162,0.202771,-0.10608,1.73599e-07,7.91947e-06,-1.03531e-06,0.207338,-0.09036894886794433,1.7359901516300624e-07,7.919501359143766e-06,0.22479195877183122,-1.035309464048062e-06,-0.10064730301783986
460,0.4506,0.00389042,1026.53,0.00485848,0.00327539,0.00418883,0.0198041,-0.0949083,0.20318,-0.106295,1.70995e-07,7.92855e-06,-1.02341e-06,0.207764,-0.09054367221015247,1.7099501459227895e-07,7.928581430949322e-06,0.22529300113914852,-1.0234094762751056e-06,-0.10084064306289142
461,0.4516,0.00388476,1026.87,0.00485162,0.00327412,0.00418373,0.0197931,-0.0951003,0.203588,-0.10651,1.68391e-07,7.93761e-06,-1.01151e-06,0.20819,-0.09071827106306185,1.6839101424359626e-07,7.937641502975268e-06,0.2257930226810716,-1.0115094883911269e-06,-0.10103394154430156
462,0.4526,0.0038791,1027.21,0.00484477,0.00327283,0.00417863,0.0197822,-0.0952922,0.203995,-0.106726,1.65787e-07,7.94666e-06,-9.99605e-07,0.208616,-0.09089274548548865,1.6578701367286897e-07,7.946691574778342e-06,0.22629202198077203,-9.996045003957121e-07,-0.10122809724335768
463,0.4536,0.00387346,1027.55,0.00483793,0.00327154,0.00417356,0.0197712,-0.095484,0.204403,-0.106941,1.63184e-07,7.95568e-06,-9.87698e-07,0.209041,-0.09106709553620018,1.6318401341308686e-07,7.955711646578933e-06,0.22679245120636016,-9.876975122224962e-07,-0.10142131243107333
464,0.4546,0.00386784,1027.88,0.00483112,0.00327023,0.00416849,0.0197602,-0.0956758,0.204811,-0.107156,1.6058e-07,7.96469e-06,-9.75788e-07,0.209467,-0.09124141214977866,1.6058001284235957e-07,7.964721718156653e-06,0.22729308464873,-9.75787523893601e-07,-0.10161448608198909
465,0.4556,0.00386222,1028.22,0.00482431,0.00326891,0.00416344,0.0197492,-0.0958675,0.205218,-0.107371,1.57978e-07,7.97367e-06,-9.63874e-07,0.209892,-0.09141560447420183,1.5797801244943344e-07,7.97370178973189e-06,0.22779269459790985,-9.638735354311478e-07,-0.10180761820503426
466,0.4566,0.00385662,1028.56,0.00481752,0.00326758,0.00415839,0.0197382,-0.0960591,0.205625,-0.107586,1.55375e-07,7.98264e-06,-9.51958e-07,0.210317,-0.09158967256812867,1.5537501196760672e-07,7.9826718613063e-06,0.22829250792972489,-9.519575469019159e-07,-0.10200070880913648
467,0.4576,0.00385102,1028.9,0.00481074,0.00326623,0.00415336,0.0197272,-0.0962506,0.206032,-0.1078,1.52773e-07,7.99159e-06,-9.4004e-07,0.210742,-0.09176361649016973,1.527730115746806e-07,7.991621932879056e-06,0.2287925247269682,-9.400395581948828e-07,-0.10219286009653017
468,0.4586,0.00384544,1029.23,0.00480398,0.00326488,0.00414835,0.0197161,-0.0964421,0.206439,-0.108015,1.50171e-07,8.00053e-06,-9.28119e-07,0.211166,-0.09193752710513903,1.5017101118175447e-07,8.00056200422894e-06,0.22929274507246733,-9.281185693321703e-07,-0.10238586788252901
469,0.4596,0.00383987,1029.57,0.00479722,0.00326352,0.00414334,0.0197051,-0.0966335,0.206845,-0.10823,1.47569e-07,8.00944e-06,-9.16195e-07,0.211591,-0.09211131363055003,1.4756901078882834e-07,8.00947207557634e-06,0.22979193925652908,-9.161945803137783e-07,-0.1025788341763143
470,0.4606,0.00383432,1029.9,0.00479049,0.00326214,0.00413835,0.019694,-0.0968248,0.207252,-0.108444,1.44968e-07,8.01834e-06,-9.04269e-07,0.212015,-0.09228497612490538,1.449680104848028e-07,8.018372146922914e-06,0.23029256644652896,-9.042685911175852e-07,-0.10277086175811656
471,0.4616,0.00382877,1030.23,0.00478376,0.00326075,0.00413337,0.0196829,-0.097016,0.207658,-0.108659,1.42367e-07,8.02721e-06,-8.9234e-07,0.212439,-0.09245851464665888,1.4236701018077724e-07,8.027242218044961e-06,0.23079216664048285,-8.923396018767349e-07,-0.10296374528711616
472,0.4626,0.00382324,1030.57,0.00477705,0.00325935,0.0041284,0.0196719,-0.0972071,0.208064,-0.108873,1.39766e-07,8.03607e-06,-8.80409e-07,0.212863,-0.09263192925421648,1.397660098767517e-07,8.036102289388225e-06,0.23129196971329713,-8.804086124580834e-07,-0.10315569050675366
473,0.4636,0.00381772,1030.9,0.00477036,0.00325795,0.00412345,0.0196608,-0.0973982,0.20847,-0.109087,1.37166e-07,8.04491e-06,-8.68476e-07,0.213287,-0.09280531072540876,1.3716600943958213e-07,8.044942360285745e-06,0.23179197574735744,-8.684756228616308e-07,-0.10334759465450905
474,0.4646,0.0038122,1031.23,0.00476368,0.00325653,0.0041185,0.0196497,-0.0975892,0.208876,-0.109302,1.34566e-07,8.05373e-06,-8.56541e-07,0.213711,-0.09297856836442897,1.3456600900241256e-07,8.053762431403655e-06,0.23229218482508274,-8.565406331983993e-07,-0.10354035419926477
475,0.4656,0.00380671,1031.56,0.00475701,0.0032551,0.00411357,0.0196385,-0.0977801,0.209282,-0.109516,1.31966e-07,8.06254e-06,-8.44604e-07,0.214134,-0.09315170222957492,1.319660087872876e-07,8.062572502298693e-06,0.23279259702892507,-8.446036433573667e-07,-0.10373217603779727
476,0.4666,0.00380122,1031.89,0.00475035,0.00325365,0.00410865,0.0196274,-0.0979709,0.209687,-0.10973,1.29366e-07,8.07133e-06,-8.32665e-07,0.214558,-0.09332471237909645,1.2936600835011802e-07,8.071362573192076e-06,0.2332919791487753,-8.326646533385329e-07,-0.10392395683084843
477,0.4676,0.00379574,1032.22,0.00474371,0.0032522,0.00410374,0.0196163,-0.0981617,0.210093,-0.109944,1.26767e-07,8.08009e-06,-8.20724e-07,0.214981,-0.09349768952143034,1.2676700800184904e-07,8.080122644082977e-06,0.23379279735152547,-8.207236632529202e-07,-0.10411569658720099
478,0.4686,0.00379028,1032.55,0.00473708,0.00325074,0.00409885,0.0196051,-0.0983524,0.210498,-0.110157,1.24168e-07,8.08884e-06,-8.08781e-07,0.215404,-0.09367054302993272,1.2416800765358005e-07,8.088872714751005e-06,0.23429258463454605,-8.087806729895064e-07,-0.10430649962258332
479,0.4696,0.00378482,1032.88,0.00473047,0.00324926,0.00409396,0.0195939,-0.098543,0.210903,-0.110371,1.2157e-07,8.09758e-06,-7.96837e-07,0.215827,-0.09384327296274575,1.2157000739421164e-07,8.097612785418207e-06,0.23479257437241086,-7.968366825261697e-07,-0.1044981575235372
480,0.4706,0.00377938,1033.21,0.00472386,0.00324778,0.00408909,0.0195828,-0.0987335,0.211308,-0.110585,1.18972e-07,8.10629e-06,-7.84891e-07,0.216249,-0.0940158793779633,1.1897200713484324e-07,8.106322856082926e-06,0.23529276664713028,-7.848906919960541e-07,-0.10468977441408867
481,0.4716,0.00377395,1033.53,0.00471727,0.00324628,0.00408423,0.0195716,-0.098924,0.211712,-0.110799,1.16374e-07,8.11499e-06,-7.72943e-07,0.216672,-0.0941884529147905,1.1637400687547483e-07,8.115022926524773e-06,0.23579192574820484,-7.729427012881374e-07,-0.10488135030301271
482,0.4726,0.00376853,1033.86,0.0047107,0.00324478,0.00407938,0.0195604,-0.0991144,0.212117,-0.111012,1.13776e-07,8.12367e-06,-7.60994e-07,0.217094,-0.09436090301558497,1.1377600639406182e-07,8.12370299718701e-06,0.23629252284220192,-7.6099371049132e-07,-0.10507199027152081
483,0.4736,0.00376313,1034.19,0.00470414,0.00324326,0.00407454,0.0195492,-0.0993047,0.212521,-0.111225,1.11179e-07,8.13233e-06,-7.49043e-07,0.217516,-0.09453322973833334,1.11179006223594e-07,8.132363067403503e-06,0.23679208592637835,-7.490427195167015e-07,-0.1052625896380398
484,0.4746,0.00375773,1034.51,0.00469759,0.00324173,0.00406972,0.019538,-0.0994949,0.212925,-0.111439,1.08582e-07,8.14098e-06,-7.37091e-07,0.217938,-0.09470543314097446,1.0858200583108157e-07,8.141013137841213e-06,0.23729185087481475,-7.370907283421602e-07,-0.1054540429576214
485,0.4756,0.00375234,1034.84,0.00469105,0.00324019,0.0040649,0.0195267,-0.099685,0.21333,-0.111652,1.05985e-07,8.1496e-06,-7.25138e-07,0.21836,-0.0948775132813987,1.0598500566061375e-07,8.149633208054397e-06,0.2377930555615173,-7.251377370787182e-07,-0.10564456095558439
486,0.4766,0.00374697,1035.16,0.00468453,0.00323864,0.0040601,0.0195155,-0.0998751,0.213733,-0.111865,1.03388e-07,8.15821e-06,-7.13183e-07,0.218782,-0.09504956071249748,1.0338800526810132e-07,8.158243278266752e-06,0.23829198669077867,-7.131827456374751e-07,-0.10583503837753527
487,0.4776,0.00374161,1035.48,0.00467802,0.00323708,0.0040553,0.0195042,-0.100065,0.214137,-0.112078,1.00792e-07,8.16681e-06,-7.01228e-07,0.219203,-0.09522139448478517,1.0079200518653408e-07,8.166843348478281e-06,0.23879235772154406,-7.012277540852097e-07,-0.1060254752321158
488,0.4786,0.00373625,1035.8,0.00467152,0.00323551,0.00405052,0.019493,-0.100255,0.214541,-0.112291,9.81966e-08,8.17538e-06,-6.89271e-07,0.219624,-0.0953932860896135,9.819660484744475e-08,8.175413418465283e-06,0.23929293094304582,-6.892707624661654e-07,-0.10621587152796608
489,0.4796,0.00373091,1036.13,0.00466504,0.00323393,0.00404576,0.0194817,-0.100445,0.214944,-0.112504,9.56012e-08,8.18394e-06,-6.77314e-07,0.220045,-0.09556514503813929,9.560120450835541e-08,8.183973488451457e-06,0.23979246664389886,-6.773137706250765e-07,-0.10640622727372395
490,0.4806,0.00372558,1036.45,0.00465857,0.00323234,0.004041,0.0194704,-0.100635,0.215347,-0.112717,9.3006e-08,8.19248e-06,-6.65355e-07,0.220466,-0.09573697133656678,9.300600423145511e-08,8.192513558435977e-06,0.24029220369820936,-6.653547786061864e-07,-0.10659654247802586
491,0.4816,0.00372027,1036.77,0.00465211,0.00323074,0.00403625,0.0194591,-0.100824,0.21575,-0.11293,9.04112e-08,8.201e-06,-6.53396e-07,0.220887,-0.09590786089941183,9.041120407893288e-08,8.201033628196797e-06,0.24079214218713907,-6.533957865872964e-07,-0.10678681714950622
492,0.4826,0.00371496,1037.09,0.00464566,0.00322913,0.00403151,0.0194478,-0.101014,0.216153,-0.113142,8.78167e-08,8.20951e-06,-6.41436e-07,0.221308,-0.09607962208801124,8.781670390867191e-08,8.209543698178834e-06,0.2412922821918826,-6.414357942574611e-07,-0.10697615827340223
493,0.4836,0.00370966,1037.41,0.00463923,0.00322751,0.00402679,0.0194365,-0.101203,0.216556,-0.113355,8.52225e-08,8.218e-06,-6.29475e-07,0.221728,-0.09625044689598383,8.52225037206722e-08,8.218033767937172e-06,0.24179262379366695,-6.294748018387253e-07,-0.10716635209532888
494,0.4846,0.00370438,1037.73,0.00463281,0.00322587,0.00402208,0.0194252,-0.101393,0.216958,-0.113567,8.26286e-08,8.22647e-06,-6.17513e-07,0.222149,-0.0964221429994272,8.262860351493373e-08,8.22650383747181e-06,0.2422919247812063,-6.175128093310889e-07,-0.10735561276634464
495,0.4856,0.0036991,1038.04,0.00462641,0.00322423,0.00401737,0.0194138,-0.101582,0.217361,-0.11378,8.0035e-08,8.23493e-06,-6.05551e-07,0.222569,-0.0965929030770647,8.003500329145652e-08,8.234963907227666e-06,0.24279266932014076,-6.055508166014079e-07,-0.10754572577307142
496,0.4866,0.00369384,1038.36,0.00462001,0.00322258,0.00401268,0.0194025,-0.101772,0.217763,-0.113992,7.74418e-08,8.24337e-06,-5.93589e-07,0.222989,-0.09676453412001462,7.744180297031278e-08,8.243403976759822e-06,0.24329237240679835,-5.935888238717268e-07,-0.10773490602539226
497,0.4876,0.00368858,1038.68,0.00461363,0.00322091,0.004008,0.0193911,-0.101961,0.218165,-0.114204,7.48488e-08,8.25179e-06,-5.81626e-07,0.223409,-0.09693522949184519,7.484880271135808e-08,8.251824046068279e-06,0.2437922764144791,-5.816258308311006e-07,-0.10792404617575058
498,0.4886,0.00368334,1038.99,0.00460726,0.00321924,0.00400333,0.0193798,-0.10215,0.218567,-0.114416,7.22562e-08,8.26019e-06,-5.69663e-07,0.223828,-0.097105892605299,7.225620257678145e-08,8.260224115375081e-06,0.2442923814239697,-5.696628377904744e-07,-0.108113146232647
499,0.4896,0.00367811,1039.31,0.00460091,0.00321756,0.00399867,0.0193684,-0.102339,0.218969,-0.114629,6.96639e-08,8.26858e-06,-5.57699e-07,0.224248,-0.09727652346647231,6.966390242446607e-08,8.2686141849031e-06,0.24479268751608907,-5.57698844438903e-07,-0.10830309790192849
500,0.4906,0.00367289,1039.62,0.00459456,0.00321586,0.00399403,0.019357,-0.102528,0.21937,-0.114841,6.70719e-08,8.27695e-06,-5.45736e-07,0.224667,-0.09744712208146011,6.707190225441195e-08,8.276984253985376e-06,0.2452919494791166,-5.457358510652099e-07,-0.10849211760837651
501,0.4916,0.00366768,1039.94,0.00458823,0.00321416,0.00398939,0.0193456,-0.102717,0.219772,-0.115052,6.44802e-08,8.28531e-06,-5.33772e-07,0.225086,-0.09761768845635665,6.448020206661909e-08,8.285344323288868e-06,0.24579265747837198,-5.33771857491594e-07,-0.10868020592754568
502,0.4926,0.00366248,1040.25,0.00458191,0.00321244,0.00398476,0.0193342,-0.102906,0.220173,-0.115264,6.18888e-08,8.29365e-06,-5.21808e-07,0.225505,-0.09778822259725439,6.188880186108747e-08,8.293684392368661e-06,0.24629232050976313,-5.218078638069557e-07,-0.10886914569556594
503,0.4936,0.00365729,1040.57,0.00457561,0.00321072,0.00398015,0.0193228,-0.103095,0.220574,-0.115476,5.92978e-08,8.30197e-06,-5.09844e-07,0.225924,-0.09795872451024523,5.9297801779933934e-08,8.3020044614468e-06,0.24679218394620817,-5.09843870011295e-07,-0.109058045412601
504,0.4946,0.00365211,1040.88,0.00456931,0.00320899,0.00397554,0.0193114,-0.103283,0.220975,-0.115688,5.6707e-08,8.31027e-06,-4.9788e-07,0.226343,-0.09812829233016274,5.670700153892483e-08,8.310304530301238e-06,0.24729224786808612,-4.978798761046122e-07,-0.10924690508714063
505,0.4956,0.00364694,1041.19,0.00456303,0.00320724,0.00397095,0.0193,-0.103472,0.221376,-0.115899,5.41166e-08,8.31856e-06,-4.85917e-07,0.226761,-0.0982987299760475,5.41166014222938e-08,8.318594599376894e-06,0.24779251235580735,-4.859168819537629e-07,-0.10943483416295252
506,0.4966,0.00364178,1041.5,0.00455676,0.00320549,0.00396637,0.0192885,-0.103661,0.221777,-0.116111,5.15265e-08,8.32683e-06,-4.73953e-07,0.227179,-0.0984691354122611,5.152650128792402e-08,8.32686466822885e-06,0.24829297748981527,-4.739528877140131e-07,-0.1096236139667438
507,0.4976,0.00363664,1041.81,0.00455051,0.00320372,0.00396179,0.0192771,-0.103849,0.222177,-0.116322,4.89367e-08,8.33509e-06,-4.6199e-07,0.227597,-0.09863860728394847,4.89367011358155e-08,8.335124736857935e-06,0.24879239455756585,-4.61989893230097e-07,-0.1098114635653672
508,0.4986,0.0036315,1042.12,0.00454426,0.00320195,0.00395723,0.0192656,-0.104038,0.222577,-0.116533,4.63472e-08,8.34333e-06,-4.50027e-07,0.228015,-0.09880894848942079,4.634720096596823e-08,8.34336480570741e-06,0.24929201143210222,-4.5002689874618085e-07,-0.10999927353190664
509,0.4996,0.00362638,1042.43,0.00453803,0.00320016,0.00395268,0.0192542,-0.104226,0.222978,-0.116744,4.3758e-08,8.35156e-06,-4.38064e-07,0.228433,-0.0989783564822545,4.3758001000426816e-08,8.351594874334012e-06,0.24979307798581618,-4.380639040402201e-07,-0.11018704387472356
510,0.5006,0.00362126,1042.74,0.00453181,0.00319837,0.00394814,0.0192427,-0.104414,0.223377,-0.116956,4.11692e-08,8.35976e-06,-4.26102e-07,0.228851,-0.09914773262937915,4.1169200937218875e-08,8.359794942958132e-06,0.25029184492131895,-4.2610190920111535e-07,-0.11037566422695844
511,0.5016,0.00361616,1043.05,0.0045256,0.00319657,0.0039436,0.0192312,-0.104602,0.223777,-0.117167,3.85806e-08,8.36795e-06,-4.1414e-07,0.229268,-0.09931707693678116,3.8580600714155366e-08,8.36798501135938e-06,0.2507920616959729,-4.141399142509883e-07,-0.11056335515971671
512,0.5026,0.00361106,1043.36,0.00451941,0.00319475,0.00393908,0.0192197,-0.10479,0.224177,-0.117378,3.59924e-08,8.37613e-06,-4.02179e-07,0.229686,-0.09948638941044585,3.599240061546993e-08,8.376165079981845e-06,0.25129247859735937,-4.021789191677172e-07,-0.11075100649386604
513,0.5036,0.00360598,1043.66,0.00451323,0.00319293,0.00393457,0.0192082,-0.104978,0.224576,-0.117588,3.34044e-08,8.38429e-06,-3.90219e-07,0.230103,-0.09965567005635734,3.3404400578973537e-08,8.384325148158567e-06,0.2517918439130753,-3.902189238402798e-07,-0.11093772917593459
514,0.5046,0.0036009,1043.97,0.00450706,0.0031911,0.00393007,0.0191967,-0.105166,0.224976,-0.117799,3.08168e-08,8.39243e-06,-3.78259e-07,0.23052,-0.09982491888049883,3.081680044481061e-08,8.392465216555678e-06,0.2522926608073419,-3.782589285128424e-07,-0.1111253015254996
515,0.5056,0.00359584,1044.28,0.0045009,0.00318926,0.00392558,0.0191852,-0.105354,0.225375,-0.11801,2.82295e-08,8.40056e-06,-3.663e-07,0.230937,-0.09999413588885209,2.8229500292908938e-08,8.400595284729917e-06,0.25279242527538504,-3.6629993294123864e-07,-0.1113128343014741
516,0.5066,0.00359078,1044.58,0.00449475,0.0031874,0.0039211,0.0191737,-0.105542,0.225774,-0.118221,2.56425e-08,8.40867e-06,-3.54342e-07,0.231353,-0.100163321087398,2.5642500345313124e-08,8.408705352902501e-06,0.2532923891892378,-3.543419372364909e-07,-0.11150032751220718
517,0.5076,0.00358574,1044.89,0.00448861,0.00318554,0.00391663,0.0191621,-0.10573,0.226173,-0.118431,2.30559e-08,8.41677e-06,-3.42385e-07,0.23177,-0.10033247448211624,2.305590030005078e-08,8.416805421074258e-06,0.253792552628495,-3.423849413985991e-07,-0.11168689285338318
518,0.5086,0.00358071,1045.19,0.00448249,0.00318367,0.00391217,0.0191506,-0.105917,0.226572,-0.118642,2.04695e-08,8.42485e-06,-3.30428e-07,0.232186,-0.10050069658013172,2.0469500316977474e-08,8.42488548924436e-06,0.2542929156727829,-3.30427945449685e-07,-0.11187430714608793
519,0.5096,0.00357569,1045.49,0.00447638,0.00318179,0.00390772,0.019139,-0.106105,0.22697,-0.118852,1.78834e-08,8.43291e-06,-3.18473e-07,0.232602,-0.1006697865542191,1.7883400094120816e-08,8.432945557190763e-06,0.25479222360890885,-3.184729492344829e-07,-0.11206079395978641
520,0.5106,0.00357067,1045.8,0.00447028,0.0031799,0.00390328,0.0191275,-0.106293,0.227369,-0.119062,1.52977e-08,8.44096e-06,-3.06519e-07,0.233018,-0.10083884474237925,1.5297700217686838e-08,8.440995624914294e-06,0.25529298560150293,-3.0651895299715903e-07,-0.11224724161536581
521,0.5116,0.00356567,1046.1,0.0044642,0.003178,0.00389885,0.0191159,-0.10648,0.227767,-0.119273,1.27122e-08,8.449e-06,-2.94566e-07,0.233434,-0.10100697215800913,1.2712199959352688e-08,8.449035692859042e-06,0.25579269164467866,-2.9456595662669116e-07,-0.11243453768695455
522,0.5126,0.00356068,1046.4,0.00445812,0.00317609,0.00389443,0.0191043,-0.106667,0.228165,-0.119483,1.01271e-08,8.45701e-06,-2.82614e-07,0.23385,-0.1011750681367517,1.0127100047441218e-08,8.457045760579263e-06,0.25629259661044235,-2.8261396001205696e-07,-0.11262090686459181
523,0.5136,0.00355569,1046.7,0.00445206,0.00317417,0.00389002,0.0190927,-0.106855,0.228563,-0.119693,7.54228e-09,8.46502e-06,-2.70663e-07,0.234265,-0.1013440313409032,7.542279911731953e-09,8.465055828299484e-06,0.2567927005779813,-2.7066296337530105e-07,-0.11280723690881078
524,0.5146,0.00355072,1047.0,0.004446,0.00317224,0.00388562,0.0190811,-0.107042,0.228961,-0.119903,4.95776e-09,8.473e-06,-2.58714e-07,0.234681,-0.10151206429547155,4.957759980328547e-09,8.473035896017223e-06,0.25729300362651397,-2.587139665832794e-07,-0.11299352782782879
525,0.5156,0.00354576,1047.3,0.00443996,0.0031703,0.00388123,0.0190695,-0.107229,0.229358,-0.120113,2.37355e-09,8.48098e-06,-2.46766e-07,0.235096,-0.10168006583081513,2.3735500231936157e-09,8.481015963512917e-06,0.2577922480424131,-2.467659695470914e-07,-0.11317977962986125
526,0.5166,0.00354081,1047.6,0.00443394,0.00316835,0.00387685,0.0190579,-0.107416,0.229756,-0.120322,-2.10359e-10,8.48893e-06,-2.34819e-07,0.235511,-0.10184803595280889,-2.1035895247933922e-10,8.488966031006129e-06,0.2582929489900132,-2.348189723777594e-07,-0.11336510568867086
527,0.5176,0.00353586,1047.9,0.00442792,0.0031664,0.00387248,0.0190463,-0.107603,0.230153,-0.120532,-2.79396e-09,8.49687e-06,-2.22874e-07,0.235926,-0.10201597466732648,-2.793959952285263e-09,8.496906098498513e-06,0.25879259046303216,-2.2287397516418395e-07,-0.11355127946754529
528,0.5186,0.00353093,1048.2,0.00442191,0.00316443,0.00386812,0.0190347,-0.10779,0.23055,-0.120742,-5.37726e-09,8.5048e-06,-2.1093e-07,0.236341,-0.10218388198024064,-5.377259970629211e-09,8.50483616599007e-06,0.25929243033309524,-2.1092997770644217e-07,-0.11373741415403094
529,0.5196,0.00352601,1048.5,0.00441592,0.00316245,0.00386377,0.0190231,-0.107977,0.230947,-0.120951,-7.96025e-09,8.51271e-06,-1.98988e-07,0.236755,-0.1023517578974229,-7.960250014704684e-09,8.512746233257928e-06,0.25979246867898165,-1.9898798020445696e-07,-0.1139226236794032
530,0.5206,0.0035211,1048.8,0.00440994,0.00316047,0.00385943,0.0190114,-0.108164,0.231344,-0.121161,-1.05429e-08,8.5206e-06,-1.87047e-07,0.237169,-0.10251960242474367,-1.0542899997467714e-08,8.520636300524131e-06,0.2602927055795019,-1.8704698245830542e-07,-0.114108680391792
531,0.5216,0.00351619,1049.09,0.00440397,0.00315847,0.0038551,0.0189998,-0.10835,0.23174,-0.12137,-1.31253e-08,8.52848e-06,-1.75109e-07,0.237584,-0.10268651825503927,-1.3125299958005598e-08,8.528516367567462e-06,0.260791880320987,-1.7510898464578872e-07,-0.11429381233062863
532,0.5226,0.0035113,1049.39,0.00439801,0.00315647,0.00385078,0.0189881,-0.108537,0.232137,-0.121579,-1.57074e-08,8.53635e-06,-1.63172e-07,0.237998,-0.10285430018802588,-1.5707399825259927e-08,8.53638643483201e-06,0.2612925140666975,-1.63171986700128e-07,-0.1144789055809331
533,0.5236,0.00350641,1049.69,0.00439206,0.00315446,0.00384646,0.0189765,-0.108723,0.232533,-0.121789,-1.82892e-08,8.5442e-06,-1.51237e-07,0.238412,-0.10302115377032672,-1.8289199821275304e-08,8.54423650187286e-06,0.2617920848107469,-1.5123698859920154e-07,-0.11466484548638767
534,0.5246,0.00350154,1049.98,0.00438613,0.00315243,0.00384216,0.0189648,-0.10891,0.232929,-0.121998,-2.08707e-08,8.55203e-06,-1.39303e-07,0.238825,-0.10318887313232261,-2.0870699835029427e-08,8.552066568690009e-06,0.2622918534239864,-1.3930299025410875e-07,-0.11484986119886564
535,0.5256,0.00349668,1050.28,0.0043802,0.0031504,0.00383787,0.0189531,-0.109096,0.233326,-0.122207,-2.34519e-08,8.55985e-06,-1.27372e-07,0.239239,-0.10335566448984279,-2.3451899755499994e-08,8.559886635728375e-06,0.2627930827772391,-1.273719918426508e-07,-0.11503483824710015
536,0.5266,0.00349182,1050.57,0.00437429,0.00314836,0.00383358,0.0189414,-0.109283,0.233721,-0.122416,-2.60327e-08,8.56765e-06,-1.15442e-07,0.239652,-0.10352332130418251,-2.603269966261479e-08,8.567686702320998e-06,0.2632919845715538,-1.1544199329804883e-07,-0.11521977663917138
537,0.5276,0.00348698,1050.87,0.00436839,0.00314631,0.00382931,0.0189297,-0.109469,0.234117,-0.122625,-2.86133e-08,8.57544e-06,-1.03515e-07,0.240066,-0.1036900504601278,-2.861329961856285e-08,8.575476769134838e-06,0.26379234726271816,-1.035149946870817e-07,-0.11540467638315743
538,0.5286,0.00348214,1051.16,0.0043625,0.00314425,0.00382504,0.018918,-0.109655,0.234513,-0.122833,-3.11936e-08,8.58322e-06,-9.15897e-08,0.240479,-0.10385674860733396,-3.119359948122735e-08,8.58325683594785e-06,0.264292908136746,-9.158969582756527e-08,-0.11558865307623045
539,0.5296,0.00347732,1051.45,0.00435662,0.00314219,0.00382079,0.0189063,-0.109841,0.234908,-0.123042,-3.37736e-08,8.59098e-06,-7.96665e-08,0.240892,-0.10402341575156804,-3.3773599472652904e-08,8.591016902537163e-06,0.2647924024790982,-7.966649684387761e-08,-0.11577347573309704
540,0.5306,0.0034725,1051.74,0.00435075,0.00314011,0.00381654,0.0188946,-0.110027,0.235303,-0.123251,-3.63533e-08,8.59873e-06,-6.77455e-08,0.241304,-0.1041900518985962,-3.63532993707949e-08,8.598766969125649e-06,0.26529209416068733,-6.774549765609095e-08,-0.11595825976606478
541,0.5316,0.00346769,1052.04,0.0043449,0.00313802,0.0038123,0.0188829,-0.110213,0.235698,-0.123459,-3.89327e-08,8.60646e-06,-5.58267e-08,0.241717,-0.10435665705418318,-3.893269928667564e-08,8.60649703571248e-06,0.26579198325947817,-5.582669848624988e-08,-0.11614212132576829
542,0.5326,0.0034629,1052.33,0.00433905,0.00313593,0.00380808,0.0188712,-0.110399,0.236093,-0.123668,-4.15118e-08,8.61417e-06,-4.39102e-08,0.242129,-0.10452323122409313,-4.151179910927283e-08,8.61420710207561e-06,0.2662920698534659,-4.3910199032382025e-08,-0.11632682831985797
543,0.5336,0.00345811,1052.62,0.00433322,0.00313383,0.00380386,0.0188594,-0.110585,0.236488,-0.123876,-4.40906e-08,8.62187e-06,-3.19961e-08,0.242542,-0.10468977441408867,-4.4090599060631064e-08,8.621907168437914e-06,0.26679235402067625,-3.19960994366042e-08,-0.11651061322527467
544,0.5346,0.00345333,1052.91,0.0043274,0.00313171,0.00379965,0.0188477,-0.110771,0.236883,-0.124084,-4.66691e-08,8.62956e-06,-2.00843e-08,0.242954,-0.1048562866299314,-4.666909891870574e-08,8.629597234799391e-06,0.2672928358391664,-2.0084299778844183e-08,-0.1166943599074064
545,0.5356,0.00344856,1053.2,0.00432158,0.00312959,0.00379545,0.0188359,-0.110956,0.237277,-0.124293,-4.92474e-08,8.63723e-06,-8.17503e-09,0.243366,-0.10502187289970266,-4.9247398825613686e-08,8.637267300937168e-06,0.2677922475941421,-8.175029986290383e-09,-0.11687895149569294
546,0.5366,0.0034438,1053.49,0.00431578,0.00312746,0.00379125,0.0188242,-0.111142,0.237671,-0.124501,-5.18253e-08,8.64489e-06,3.73178e-09,0.243778,-0.1051883233509715,-5.1825298608143555e-08,8.644927367074118e-06,0.26829185615611784,3.731779996130058e-09,-0.11706262157143177
547,0.5376,0.00343905,1053.77,0.00430999,0.00312532,0.00378707,0.0188124,-0.111327,0.238066,-0.124709,-5.44029e-08,8.65253e-06,1.5636e-08,0.244189,-0.105353848199631,-5.440289851943447e-08,8.652567433209413e-06,0.2687929303949468,1.5636000050278653e-08,-0.11724625344776762
548,0.5386,0.00343431,1054.06,0.00430422,0.00312317,0.0037829,0.0188007,-0.111513,0.23846,-0.124917,-5.69803e-08,8.66016e-06,2.75377e-08,0.244601,-0.10552023690923618,-5.698029836853635e-08,8.66019749934388e-06,0.26929293330362714,2.753770034225056e-08,-0.11742984713264537
549,0.5396,0.00342958,1054.35,0.00429845,0.00312101,0.00377874,0.0187889,-0.111698,0.238853,-0.125125,-5.95574e-08,8.66778e-06,3.94367e-08,0.245012,-0.10568570035956693,-5.955739823537698e-08,8.667817565255476e-06,0.2697918634597696,3.943670079387118e-08,-0.11761340263400788
550,0.5406,0.00342486,1054.64,0.00429269,0.00311885,0.00377458,0.0187771,-0.111884,0.239247,-0.125333,-6.21342e-08,8.67538e-06,5.1333e-08,0.245423,-0.10585202735041033,-6.213419811995635e-08,8.675417631165416e-06,0.2702922600256228,5.133300140514052e-08,-0.11779691995979646
551,0.5416,0.00342015,1054.92,0.00428695,0.00311667,0.00377043,0.0187653,-0.112069,0.239641,-0.12554,-6.47107e-08,8.68296e-06,6.32266e-08,0.245834,-0.10601742942518688,-6.471069791125217e-08,8.682997697073702e-06,0.27079285378656803,6.322660195401397e-08,-0.11797951709790899
552,0.5426,0.00341544,1055.21,0.00428121,0.00311449,0.0037663,0.0187535,-0.112254,0.240034,-0.125748,-6.72869e-08,8.69054e-06,7.51174e-08,0.246245,-0.10618280090340981,-6.728689772028673e-08,8.690577762759943e-06,0.27129237352730584,7.511740274246392e-08,-0.11816295827980838
553,0.5436,0.00341075,1055.49,0.00427549,0.0031123,0.00376217,0.0187417,-0.112439,0.240427,-0.125956,-6.98628e-08,8.69809e-06,8.70053e-08,0.246656,-0.10634814179073904,-6.986279754706004e-08,8.698127828443702e-06,0.27179208961788226,8.700530385041816e-08,-0.11834636130990983
554,0.5446,0.00340606,1055.78,0.00426978,0.0031101,0.00375805,0.0187299,-0.112624,0.24082,-0.126163,-7.24385e-08,8.70564e-06,9.88904e-08,0.247066,-0.10651345209283336,-7.243849742266661e-08,8.705677894127462e-06,0.27229200213547755,9.889040497590429e-08,-0.11852884472543357
555,0.5456,0.00340139,1056.06,0.00426407,0.00310789,0.00375394,0.0187181,-0.112809,0.241213,-0.126371,-7.50138e-08,8.71317e-06,1.10772e-07,0.247477,-0.10667873181535048,-7.501379717389511e-08,8.713207959809566e-06,0.27279211115730284,1.1077200623432759e-07,-0.11871217165906855
556,0.5466,0.00339672,1056.35,0.00425838,0.00310567,0.00374984,0.0187063,-0.112994,0.241606,-0.126578,-7.75889e-08,8.72068e-06,1.22652e-07,0.247887,-0.10684398096394698,-7.758889697395688e-08,8.72071802526797e-06,0.27329241676059945,1.226520074393278e-07,-0.11889457935968684
557,0.5476,0.00339206,1056.63,0.0042527,0.00310344,0.00374574,0.0186945,-0.113179,0.241999,-0.126785,-8.01637e-08,8.72818e-06,1.34528e-07,0.248297,-0.10700919954427879,-8.016369679175739e-08,8.728218090725548e-06,0.2737929190226389,1.345280089548595e-07,-0.1190769493058188
558,0.5486,0.00338742,1056.91,0.00424703,0.00310121,0.00374166,0.0186826,-0.113363,0.242391,-0.126992,-8.27383e-08,8.73567e-06,1.46401e-07,0.248707,-0.10717349473594151,-8.273829654736886e-08,8.735708156182298e-06,0.2742923437277427,1.4640101064777866e-07,-0.11925928150527876
559,0.5496,0.00338278,1057.2,0.00424137,0.00309896,0.00373758,0.0186708,-0.113548,0.242783,-0.127199,-8.53125e-08,8.74314e-06,1.5827e-07,0.249116,-0.1073386523618639,-8.531249640064686e-08,8.743178221415349e-06,0.27479196424570773,1.582700124291847e-07,-0.11944157596587957
560,0.5506,0.00337815,1057.48,0.00423573,0.00309671,0.00373352,0.018659,-0.113733,0.243176,-0.127406,-8.78865e-08,8.7506e-06,1.70137e-07,0.249526,-0.10750377943645162,-8.788649619173583e-08,8.750638286647572e-06,0.27529305594572584,1.701370144768788e-07,-0.11962383269543231
561,0.5516,0.00337353,1057.76,0.00423009,0.00309445,0.00372946,0.0186471,-0.113917,0.243568,-0.127613,-9.04602e-08,8.75805e-06,1.82001e-07,0.249935,-0.10766798363378582,-9.046019588954124e-08,8.758088351878968e-06,0.27579306881977717,1.8200101647991573e-07,-0.11980605170174652
562,0.5526,0.00336891,1058.04,0.00422446,0.00309218,0.00372541,0.0186353,-0.114102,0.243959,-0.12782,-9.30336e-08,8.76548e-06,1.93861e-07,0.250345,-0.10783304978772357,-9.30335957161077e-08,8.765518416886664e-06,0.27629200144465726,1.9386101879348416e-07,-0.11998823299263017
563,0.5536,0.00336431,1058.32,0.00421885,0.0030899,0.00372137,0.0186234,-0.114286,0.244351,-0.128027,-9.56068e-08,8.7729e-06,2.05718e-07,0.250754,-0.10799719340488678,-9.560679548048512e-08,8.772938481893533e-06,0.2767924059821052,2.0571802106239545e-07,-0.12017037657588936
564,0.5546,0.00335972,1058.6,0.00421324,0.00308761,0.00371733,0.0186115,-0.11447,0.244743,-0.128234,-9.81797e-08,8.7803e-06,2.17571e-07,0.251163,-0.10816130682240288,-9.817969515157898e-08,8.780338546898747e-06,0.27729300671658375,2.1757102364183822e-07,-0.12035248245932895
565,0.5556,0.00335513,1058.88,0.00420765,0.00308532,0.00371331,0.0185997,-0.114655,0.245134,-0.12844,-1.00752e-07,8.78769e-06,2.29421e-07,0.251571,-0.10832628171999215,-1.0075199496917264e-07,8.787728611903134e-06,0.27779252593185255,2.2942102639866846e-07,-0.12053367118486291
566,0.5566,0.00335055,1059.16,0.00420206,0.00308301,0.0037093,0.0185878,-0.114839,0.245525,-0.128647,-1.03325e-07,8.79507e-06,2.41268e-07,0.25198,-0.10849033459082869,-1.0332499467136103e-07,8.795108676684649e-06,0.27829224049732315,2.4126802911084155e-07,-0.1207157018741013
567,0.5576,0.00334599,1059.44,0.00419649,0.0030807,0.00370529,0.0185759,-0.115023,0.245916,-0.128853,-1.05897e-07,8.80243e-06,2.53111e-07,0.252389,-0.10865435727871398,-1.0589699439567113e-07,8.802468741464509e-06,0.278792150489392,2.5311103213354613e-07,-0.12089681578414202
568,0.5586,0.00334143,1059.72,0.00419092,0.00307838,0.00370129,0.018564,-0.115207,0.246307,-0.12906,-1.08469e-07,8.80978e-06,2.64951e-07,0.252797,-0.10881834978920102,-1.0846899411998123e-07,8.809818806243541e-06,0.27929225598448637,2.6495103511159357e-07,-0.12107877131022804
569,0.5596,0.00333688,1060.0,0.00418537,0.00307605,0.0036973,0.0185521,-0.115391,0.246698,-0.129266,-1.1104e-07,8.81712e-06,2.76787e-07,0.253205,-0.10898231212784204,-1.1103999386641306e-07,8.817158871021746e-06,0.2797925570590625,2.767870384001725e-07,-0.12125981043566803
570,0.5606,0.00333234,1060.27,0.00417983,0.00307372,0.00369332,0.0185402,-0.115575,0.247089,-0.129472,-1.13611e-07,8.82444e-06,2.88619e-07,0.253613,-0.10914624430018816,-1.1361099350182258e-07,8.824478935576252e-06,0.2802930537896071,2.886190415551937e-07,-0.12144081227088921
571,0.5616,0.00332781,1060.55,0.00417429,0.00307137,0.00368934,0.0185283,-0.115758,0.247479,-0.129678,-1.16182e-07,8.83175e-06,3.00448e-07,0.254021,-0.10930925562149041,-1.161819932482544e-07,8.831788999907886e-06,0.2807924654595306,3.0044804510964696e-07,-0.12162177682357245
572,0.5626,0.00332328,1060.83,0.00416877,0.00306902,0.00368538,0.0185164,-0.115942,0.247869,-0.129884,-1.18753e-07,8.83904e-06,3.12273e-07,0.254428,-0.10947312764176786,-1.1875299299468622e-07,8.83907906445991e-06,0.28129207193799055,3.122730487525871e-07,-0.12180270410139737
573,0.5636,0.00331877,1061.1,0.00416326,0.00306665,0.00368142,0.0185045,-0.116126,0.248259,-0.13009,-1.21324e-07,8.84632e-06,3.24094e-07,0.254836,-0.10963696951236745,-1.2132399263009574e-07,8.84635912878906e-06,0.2817918733009772,3.2409405248401413e-07,-0.12198359411204174
574,0.5646,0.00331426,1061.38,0.00415776,0.00306428,0.00367747,0.0184926,-0.116309,0.248649,-0.130296,-1.23894e-07,8.85359e-06,3.35911e-07,0.255243,-0.10979989103917231,-1.2389399228762699e-07,8.853629193117385e-06,0.28229186962451025,3.3591105652597264e-07,-0.12216444686318173
575,0.5656,0.00330976,1061.65,0.00415227,0.00306191,0.00367353,0.0184806,-0.116493,0.249039,-0.130502,-1.26464e-07,8.86085e-06,3.47725e-07,0.25565,-0.10996367279083785,-1.2646399205618053e-07,8.860889257444882e-06,0.28279206098463905,3.47725060523274e-07,-0.1223452623624921
576,0.5666,0.00330528,1061.93,0.00414679,0.00305952,0.0036696,0.0184687,-0.116676,0.249429,-0.130708,-1.29034e-07,8.86809e-06,3.59534e-07,0.256058,-0.11012653453641286,-1.2903399171371177e-07,8.868129321548679e-06,0.283292447457443,3.595340647422063e-07,-0.12252604061764583
577,0.5676,0.0033008,1062.2,0.00414132,0.00305712,0.00366568,0.0184568,-0.11686,0.249819,-0.130913,-1.31603e-07,8.87532e-06,3.7134e-07,0.256464,-0.11029025619120403,-1.3160299139336473e-07,8.875359385873693e-06,0.2837930291190305,3.713400689164814e-07,-0.12270590434265749
578,0.5686,0.00329632,1062.47,0.00413586,0.00305472,0.00366176,0.0184448,-0.117043,0.250208,-0.131119,-1.34172e-07,8.88254e-06,3.83142e-07,0.256871,-0.11045305817748496,-1.341719909619954e-07,8.882579449975836e-06,0.2842925217523762,3.8314207340128803e-07,-0.12288660831321485
579,0.5696,-0.00521089,1062.75,0.0214351,0.00130168,-0.00221165,0.0299067,-0.117226,0.250597,-0.131324,-1.36741e-07,8.88974e-06,3.9494e-07,0.257278,-0.11061583037372824,-1.3674099064164835e-07,8.889779513854279e-06,0.2847922087261532,3.9494007797458153e-07,-0.12306639812942488
580,0.5706,-0.00523774,1063.02,0.0199186,0.00156959,-0.00213454,0.0292936,-0.117409,0.250986,-0.13153,-1.122e-07,8.97143e-06,2.47519e-07,0.257684,-0.11077857278538505,-1.1219999374034728e-07,8.971470243368529e-06,0.28529209011597456,2.475190306050479e-07,-0.12324702784591068
581,0.5716,0.00274753,1063.29,0.00252929,0.00339207,0.00367226,0.0183234,-0.117592,0.251375,-0.131735,-6.1628e-08,9.13403e-06,-5.38122e-08,0.25809,-0.11094128541790538,-6.162799814912745e-08,9.134071715433123e-06,0.2857921659974825,-5.381219858602293e-08,-0.12342674378368923
582,0.5726,0.00408687,1063.56,0.00593878,0.00312241,0.00362164,0.0198701,-0.117775,0.251764,-0.131941,-3.97244e-08,9.22307e-06,-1.88032e-07,0.258496,-0.1111039682767383,-3.972439921451354e-08,9.223112532597e-06,0.2862924364463495,-1.8803198231776008e-07,-0.12360729927661551
583,0.5736,0.00289995,1063.83,0.00353845,0.00344958,0.00346993,0.0191734,-0.117958,0.252153,-0.132146,-9.07352e-09,9.31048e-06,-3.52586e-07,0.258902,-0.1112666213673319,-9.073520046420924e-09,9.310523342742627e-06,0.28679290153827663,-3.5258593789055936e-07,-0.12378694136632051
584,0.5746,0.00350703,1064.1,0.00442688,0.00340163,0.00360542,0.0196501,-0.118141,0.252541,-0.132351,1.62097e-08,9.40155e-06,-5.0069e-07,0.259308,-0.11142924469513338,1.620970002669253e-08,9.401594194713425e-06,0.28729227405607705,-5.006898746717781e-07,-0.12396654663317153
585,0.5756,0.00317802,1064.37,0.0039658,0.00352571,0.00349577,0.0196961,-0.118323,0.252929,-0.132556,4.39289e-08,9.48925e-06,-6.54112e-07,0.259714,-0.11159094985698281,4.392890096127644e-08,9.489295023090705e-06,0.2877918403680082,-6.541117860692225e-07,-0.12414611508471662
586,0.5766,0.00332171,1064.64,0.00416204,0.00356483,0.00351787,0.019947,-0.118506,0.253318,-0.132761,7.04018e-08,9.57848e-06,-8.04172e-07,0.260119,-0.11175351383810095,7.040180238782057e-08,9.578525873799038e-06,0.28829288884152104,-8.041716766937768e-07,-0.12432564672850199
587,0.5776,0.00324767,1064.91,0.00406253,0.00364216,0.0034771,0.0201061,-0.118689,0.253706,-0.132966,9.73859e-08,9.66672e-06,-9.54918e-07,0.260524,-0.11191604807273259,9.738590467378572e-08,9.666766722871145e-06,0.2887928434673168,-9.54917544038203e-07,-0.1245051415720726
588,0.5786,0.00327619,1065.18,0.00410166,0.00370127,0.00346626,0.0203072,-0.118871,0.254094,-0.133171,1.24074e-07,9.75518e-06,-1.10452e-06,0.260929,-0.11207766464442914,1.240740077346203e-07,9.755227581953463e-06,0.28929299211314485,-1.10451939006051e-06,-0.12468459962297163
589,0.5796,0.00325752,1065.45,0.00407712,0.00376848,0.00344169,0.0204882,-0.119054,0.254481,-0.133376,1.50843e-07,9.84329e-06,-1.25384e-06,0.261334,-0.11224013956489065,1.5084301141499168e-07,9.843338445447714e-06,0.2897920450616098,-1.2538392138994325e-06,-0.12486402088874082
590,0.5806,0.00326076,1065.72,0.00408213,0.00383166,0.00342358,0.0206778,-0.119236,0.254869,-0.133581,1.77519e-07,9.93131e-06,-1.40247e-06,0.261739,-0.11240169715730297,1.775190157093931e-07,9.931359315595856e-06,0.29029258147287806,-1.4024690165870268e-06,-0.12504340537692038
591,0.5816,0.0032539,1065.98,0.00407352,0.00389642,0.00340259,0.0208626,-0.119418,0.255256,-0.133785,2.04182e-07,1.00191e-05,-1.55062e-06,0.262144,-0.11256322534890895,2.041820208464884e-07,1.0019150191276083e-05,0.2907920213372883,-1.5506187978076014e-06,-0.12522187831736464
592,0.5826,0.00325172,1066.25,0.00407121,0.00396017,0.00338302,0.0210488,-0.1196,0.255644,-0.13399,2.30795e-07,1.01068e-05,-1.69818e-06,0.262548,-0.1127247241450593,2.307950266455805e-07,1.0106851073832246e-05,0.2912929458146316,-1.6981785581071662e-06,-0.12540118945229028
593,0.5836,0.00324739,1066.52,0.004066,0.00402412,0.00336287,0.0212336,-0.119783,0.256031,-0.134195,2.57376e-07,1.01943e-05,-1.8452e-06,0.262953,-0.11288708066446607,2.5737603315256763e-07,1.019435196214502e-05,0.29179277289496364,-1.8451982976008807e-06,-0.12558046383220078
594,0.5846,0.00324406,1066.78,0.00406214,0.00408771,0.00334309,0.0214182,-0.119965,0.256418,-0.134399,2.83917e-07,1.02816e-05,-1.99167e-06,0.263357,-0.11304852052431225,2.8391704032237897e-07,1.0281652855770318e-05,0.29229279344580994,-1.9916680166209844e-06,-0.12575882722389453
595,0.5856,0.00324027,1067.05,0.00405766,0.00415119,0.00332322,0.0216021,-0.120147,0.256805,-0.134603,3.10421e-07,1.03687e-05,-2.1376e-06,0.263761,-0.11320993100477761,3.1042104819967165e-07,1.0368753755152227e-05,0.29279300754205817,-2.137597715279327e-06,-0.12593715423316743
596,0.5866,0.00323671,1067.32,0.00405347,0.00421445,0.00330348,0.0217855,-0.120329,0.257191,-0.134808,3.36887e-07,1.04557e-05,-2.28299e-06,0.264165,-0.11337131211120854,3.368870566955451e-07,1.0455754660965155e-05,0.29329212196585597,-2.2829873940199974e-06,-0.12611631875155904
597,0.5876,0.00323305,1067.58,0.00404916,0.00427755,0.00328378,0.0219684,-0.120511,0.257578,-0.135012,3.63316e-07,1.05425e-05,-2.42783e-06,0.264568,-0.11353266384895078,3.6331606589889986e-07,1.054255557231265e-05,0.29379272287708513,-2.4278270528421686e-06,-0.12629457283999856
598,0.5886,0.00322944,1067.84,0.00404491,0.00434045,0.00326414,0.0221507,-0.120692,0.257964,-0.135216,3.89707e-07,1.06292e-05,-2.57213e-06,0.264972,-0.11369309991689203,3.8970707594288e-07,1.0629256490091166e-05,0.29429222326548876,-2.5721266920797348e-06,-0.12647279056831284
599,0.5896,0.00322581,1068.11,0.00404064,0.00440317,0.00324456,0.0223325,-0.120874,0.25835,-0.13542,4.16061e-07,1.07157e-05,-2.71589e-06,0.265375,-0.11385439309458267,4.160610864722969e-07,1.0715757413404248e-05,0.29479191649825887,-2.7158863119547405e-06,-0.1266509719439186
600,0.5906,0.0032222,1068.37,0.00403638,0.00446571,0.00322504,0.0225138,-0.121056,0.258737,-0.135624,4.42378e-07,1.0802e-05,-2.85912e-06,0.265779,-0.11401565691958626,4.423780979312397e-07,1.0802058341807808e-05,0.29529309794229786,-2.859115912690058e-06,-0.12682911697423116
601,0.5916,0.00321859,1068.64,0.00403213,0.00452807,0.00320558,0.0226945,-0.121237,0.259122,-0.135828,4.68658e-07,1.08882e-05,-3.00181e-06,0.266182,-0.1141760055736929,4.686581098756193e-07,1.0888259276642387e-05,0.29579188179473626,-3.0018054946179262e-06,-0.12700722566666411
602,0.5926,0.00321499,1068.9,0.00402788,0.00459025,0.00318617,0.0228747,-0.121419,0.259508,-0.136031,4.949e-07,1.09741e-05,-3.14397e-06,0.266585,-0.11433721087055149,4.949001224385796e-07,1.0974160215670992e-05,0.2962921540074346,-3.143965057739173e-06,-0.12718442521349127
603,0.5936,0.00321139,1069.16,0.00402363,0.00465225,0.00316683,0.0230544,-0.1216,0.259894,-0.136235,5.21105e-07,1.106e-05,-3.28559e-06,0.266988,-0.11449750132865988,5.211051357090213e-07,1.1060061162027068e-05,0.296792619362481,-3.2855846024970603e-06,-0.12736246143043617
604,0.5946,0.00320779,1069.42,0.00401939,0.00471406,0.00314754,0.0232335,-0.121782,0.260279,-0.136439,5.47274e-07,1.11456e-05,-3.42669e-06,0.26739,-0.11465864811861537,5.472741497758449e-07,1.1145662112355126e-05,0.2972919806418137,-3.4266841288932426e-06,-0.12754046133169716
605,0.5956,0.00320421,1069.68,0.00401516,0.0047757,0.00312831,0.0234121,-0.121963,0.260665,-0.136642,5.73405e-07,1.12311e-05,-3.56726e-06,0.267793,-0.11481888040184673,5.734051644612492e-07,1.1231163069114203e-05,0.2977928320044356,-3.5672536373709818e-06,-0.1277175526426706
606,0.5966,0.00320062,1069.94,0.00401093,0.00483716,0.00310914,0.0235902,-0.122144,0.26105,-0.136846,5.995e-07,1.13165e-05,-3.7073e-06,0.268195,-0.11497908368565946,5.995001797209909e-07,1.131656403186021e-05,0.2982925784397732,-3.707293127930278e-06,-0.12789548011271246
607,0.5976,0.00319705,1070.2,0.0040067,0.00489844,0.00309003,0.0237678,-0.122325,0.261435,-0.137049,6.25557e-07,1.14016e-05,-3.84682e-06,0.268597,-0.11513925797530189,6.255571955993133e-07,1.1401664998578198e-05,0.2987925173145307,-3.8468126010160475e-06,-0.1280724993621879
608,0.5986,0.00319347,1070.46,0.00400248,0.00495955,0.00307098,0.0239448,-0.122507,0.26182,-0.137252,6.51579e-07,1.14866e-05,-3.98582e-06,0.268999,-0.11530028797617575,6.515792123629183e-07,1.1486665971283117e-05,0.29929264870281136,-3.985812056628291e-06,-0.12824948268040282
609,0.5996,0.00318991,1070.72,0.00399827,0.00502047,0.00305198,0.0241213,-0.122688,0.262205,-0.137456,6.77563e-07,1.15715e-05,-4.12429e-06,0.269401,-0.11546040413310277,6.775632295230594e-07,1.1571566949974965e-05,0.2997929726787474,-4.124281495099247e-06,-0.1284273016477846
610,0.6006,0.00318634,1070.98,0.00399406,0.00508122,0.00303304,0.0242974,-0.122869,0.262589,-0.137659,7.03511e-07,1.16562e-05,-4.26225e-06,0.269803,-0.115620491311628,7.035112474795824e-07,1.1656267933757292e-05,0.30029218902365984,-4.262240916652615e-06,-0.1286042129484456
611,0.6016,0.00318279,1071.24,0.00398985,0.0051418,0.00301415,0.0244729,-0.123049,0.262974,-0.137862,7.29423e-07,1.17407e-05,-4.39969e-06,0.270205,-0.11577966529710348,7.294232660104427e-07,1.1740768922186007e-05,0.30079289789670716,-4.399680321398591e-06,-0.12878108833975743
612,0.6026,0.00317923,1071.5,0.00398565,0.00520219,0.00299533,0.0246478,-0.12323,0.263358,-0.138065,7.55298e-07,1.18251e-05,-4.53661e-06,0.270606,-0.11593969469458731,7.552982852487844e-07,1.1825169916823697e-05,0.3012924982866352,-4.536599709559219e-06,-0.12895792782900906
613,0.6036,0.00317569,1071.76,0.00398145,0.00526242,0.00297656,0.0248223,-0.123411,0.263742,-0.138268,7.81137e-07,1.19093e-05,-4.67302e-06,0.271007,-0.11609969512937146,7.811373050614634e-07,1.190937091588573e-05,0.3017922905599524,-4.673009081468393e-06,-0.12913473142348775
614,0.6046,0.00317215,1072.02,0.00397726,0.00532247,0.00295784,0.0249963,-0.123592,0.264126,-0.138471,8.06939e-07,1.19933e-05,-4.80892e-06,0.271408,-0.11625966660669751,8.069393255816237e-07,1.1993371919816198e-05,0.3022922747903558,-4.808908437126114e-06,-0.12931149913047946
615,0.6056,0.00316861,1072.27,0.00397308,0.00538234,0.00293918,0.0251697,-0.123772,0.26451,-0.138673,8.32706e-07,1.20772e-05,-4.94431e-06,0.271809,-0.11641872555097388,8.32706346765022e-07,1.2077272929733596e-05,0.3027924510515714,-4.944297776865447e-06,-0.12948736044506437
616,0.6066,0.00316508,1072.53,0.00396889,0.00544204,0.00292058,0.0253427,-0.123953,0.264894,-0.138876,8.58436e-07,1.21609e-05,-5.07919e-06,0.27221,-0.11657863928901935,8.58436368433857e-07,1.2160973944075337e-05,0.30329281941735275,-5.0791771009084385e-06,-0.12966405657562996
617,0.6076,0.00316155,1072.79,0.00396472,0.00550157,0.00290203,0.0255151,-0.124133,0.265277,-0.139079,8.84131e-07,1.22445e-05,-5.21356e-06,0.272611,-0.1167376408233799,8.841313907659298e-07,1.2244574964181965e-05,0.3037920761687545,-5.21354640936611e-06,-0.12984071684052156
618,0.6086,0.00315803,1073.04,0.00396054,0.00556093,0.00288354,0.025687,-0.124314,0.265661,-0.139281,9.09789e-07,1.23279e-05,-5.34743e-06,0.273011,-0.11689749684298467,9.097894138054841e-07,1.232797598893498e-05,0.30429282846429095,-5.347415702572356e-06,-0.13001647126392535
619,0.6096,0.00315451,1073.3,0.00395638,0.00562011,0.0028651,0.0258585,-0.124494,0.266044,-0.139484,9.35412e-07,1.24111e-05,-5.48079e-06,0.273412,-0.11705644098815071,9.354124375082762e-07,1.241117701811234e-05,0.3047924682925123,-5.480774980526348e-06,-0.13019305999589603
620,0.6106,0.003151,1073.55,0.00395221,0.00567913,0.00284672,0.0260294,-0.124674,0.266427,-0.139686,9.60998e-07,1.24942e-05,-5.61365e-06,0.273812,-0.11721535652594539,9.60998461696505e-07,1.2494278052832541e-05,0.30529229951943826,-5.61363424345096e-06,-0.1303687432531706
621,0.6116,0.0031475,1073.81,0.00394806,0.00573797,0.00282839,0.0261998,-0.124855,0.26681,-0.139888,9.86549e-07,1.25772e-05,-5.74601e-06,0.274212,-0.11737512608683276,9.865494865479718e-07,1.2577279093317628e-05,0.3057923222183887,-5.745993491679258e-06,-0.13054439102601112
622,0.6126,0.00314399,1074.06,0.0039439,0.00579664,0.00281011,0.0263698,-0.125035,0.267193,-0.140091,1.01206e-06,1.266e-05,-5.87787e-06,0.274612,-0.11753398426647199,1.0120605120622628e-06,1.2660080138227059e-05,0.3062925364627114,-5.8778527253222634e-06,-0.13072087260114684
623,0.6136,0.0031405,1074.32,0.00393975,0.00585515,0.00279189,0.0265392,-0.125215,0.267576,-0.140293,1.03754e-06,1.27426e-05,-6.00923e-06,0.275012,-0.11769281385421226,1.0375405381513048e-06,1.2742681187338789e-05,0.30679294232578247,-6.009211944602022e-06,-0.13089644925104282
624,0.6146,0.00313701,1074.57,0.00393561,0.00591348,0.00277373,0.0267081,-0.125395,0.267958,-0.140495,1.06299e-06,1.2825e-05,-6.1401e-06,0.275411,-0.11785161485519968,1.0629905649039983e-06,1.2825082240652819e-05,0.30729223258811933,-6.140081149630383e-06,-0.1310719904380373
625,0.6156,0.00313352,1074.82,0.00393147,0.00597165,0.00275562,0.0268766,-0.125575,0.268341,-0.140697,1.0884e-06,1.29074e-05,-6.27048e-06,0.275811,-0.11801038727457935,1.0884005923195161e-06,1.2907483300850231e-05,0.30779302140813813,-6.270460340629391e-06,-0.1312474961692932
626,0.6166,0.00313004,1075.08,0.00392733,0.00602964,0.00273756,0.0270445,-0.125755,0.268723,-0.140899,1.11377e-06,1.29895e-05,-6.40036e-06,0.27621,-0.1181691311174955,1.1137706201758135e-06,1.2989584363909401e-05,0.30829269377366164,-6.4003395177092415e-06,-0.13142296645197182
627,0.6176,0.00312656,1075.33,0.0039232,0.00608747,0.00271955,0.027212,-0.125934,0.269105,-0.141101,1.13911e-06,1.30715e-05,-6.52975e-06,0.276609,-0.11832696471649684,1.1391106486957625e-06,1.3071585432511412e-05,0.30879255705049036,-6.529728681203828e-06,-0.13159840129323297
628,0.6186,0.00312309,1075.58,0.00391908,0.00614514,0.0027016,0.027379,-0.126114,0.269487,-0.141302,1.16441e-06,1.31534e-05,-6.65866e-06,0.277008,-0.11848565158060165,1.1644106778785357e-06,1.315348650643422e-05,0.3092926113115668,-6.6586378312250005e-06,-0.13177293247360178
629,0.6196,0.00311962,1075.83,0.00391496,0.00620263,0.0026837,0.0275455,-0.126294,0.269869,-0.141504,1.18968e-06,1.32351e-05,-6.78707e-06,0.277407,-0.1186443098836415,1.1896807077249605e-06,1.3235187584337282e-05,0.30979285662986045,-6.787046967882127e-06,-0.1319482966288662
630,0.6206,0.00311616,1076.08,0.00391084,0.00625996,0.00266585,0.0277115,-0.126473,0.27025,-0.141706,1.21491e-06,1.33166e-05,-6.915e-06,0.277806,-0.11880205843325597,1.2149107380121649e-06,1.33166886662206e-05,0.31029198278573134,-6.9149760913989056e-06,-0.13212362536414868
631,0.6216,0.0031127,1076.33,0.00390673,0.00631713,0.00264806,0.027877,-0.126653,0.270632,-0.141907,1.24011e-06,1.3398e-05,-7.04245e-06,0.278204,-0.11896065978818782,1.2401107689630209e-06,1.3398089753646758e-05,0.3107926099368534,-7.042425201997382e-06,-0.1322980509850883
632,0.6226,0.00310925,1076.58,0.00390262,0.00637412,0.00263032,0.0280421,-0.126832,0.271013,-0.142109,1.26527e-06,1.34793e-05,-7.16941e-06,0.278603,-0.11911835171623708,1.2652708003546564e-06,1.3479390846171668e-05,0.3112921170713061,-7.169384299787751e-06,-0.13247330907712618
633,0.6236,0.0031058,1076.83,0.00389852,0.00643096,0.00261263,0.0282066,-0.127012,0.271394,-0.14231,1.2904e-06,1.35603e-05,-7.29589e-06,0.279001,-0.11927689614350168,1.2904008326319882e-06,1.3560391941336292e-05,0.3117918145542362,-7.295863385103907e-06,-0.1326476644187028
634,0.6246,0.00310236,1077.08,0.00389443,0.00648763,0.00259499,0.0283707,-0.127191,0.271776,-0.142511,1.31549e-06,1.36413e-05,-7.42189e-06,0.279399,-0.11943453147030936,1.3154908653500996e-06,1.3641393042940209e-05,0.3122930147505387,-7.421862457834827e-06,-0.13282198471837758
635,0.6256,0.00309893,1077.33,0.00389033,0.00654414,0.00257741,0.0285343,-0.12737,0.272157,-0.142713,1.34055e-06,1.37221e-05,-7.54742e-06,0.279797,-0.11959213858291873,1.340550898509818e-06,1.372219414852438e-05,0.3127930936481391,-7.547391518314406e-06,-0.13299713698648985
636,0.6266,0.00309549,1077.58,0.00388625,0.00660048,0.00255987,0.0286974,-0.12755,0.272537,-0.142914,1.36557e-06,1.38027e-05,-7.67247e-06,0.280195,-0.11975059773622221,1.3655709323323606e-06,1.3802795257644718e-05,0.31329204981939385,-7.672440566652838e-06,-0.1331713870492376
637,0.6276,0.00309206,1077.83,0.00388216,0.00665666,0.00254239,0.0288601,-0.127729,0.272918,-0.143115,1.39056e-06,1.38832e-05,-7.79704e-06,0.280592,-0.1199081482780332,1.3905609668185548e-06,1.3883296372085852e-05,0.3137925094218754,-7.797009603183191e-06,-0.13334560209124247
638,0.6286,0.00308864,1078.08,0.00387808,0.00671268,0.00252496,0.0290223,-0.127908,0.273298,-0.143316,1.41552e-06,1.39635e-05,-7.92114e-06,0.28099,-0.12006567062082119,1.415521001746356e-06,1.3963597490063151e-05,0.31429184544329125,-7.921108627906293e-06,-0.13351978211954285
639,0.6296,0.00308522,1078.33,0.00387401,0.00676854,0.00250758,0.029184,-0.128087,0.273679,-0.143517,1.44044e-06,1.40437e-05,-8.04477e-06,0.281387,-0.12022316476963324,1.4404410373369814e-06,1.4043798613139202e-05,0.3147926860404804,-8.044737640933164e-06,-0.13369392714117578
640,0.6306,0.00308181,1078.57,0.00386994,0.00682423,0.00249025,0.0293452,-0.128266,0.274059,-0.143717,1.46532e-06,1.41238e-05,-8.16793e-06,0.281785,-0.12038063072951555,1.465321073590431e-06,1.4123899741314005e-05,0.3152924022012329,-8.167896642596872e-06,-0.13386717103078116
641,0.6316,0.0030784,1078.82,0.00386588,0.00687977,0.00247297,0.029506,-0.128445,0.274439,-0.143918,1.49017e-06,1.42036e-05,-8.29062e-06,0.282182,-0.12053806850551363,1.4901711102854875e-06,1.4203700871684433e-05,0.31579230829021077,-8.290585632897418e-06,-0.13404124623425995
642,0.6326,0.003075,1079.07,0.00386182,0.00693514,0.00245574,0.0296663,-0.128623,0.274819,-0.144119,1.51499e-06,1.42834e-05,-8.41284e-06,0.282578,-0.12069459879771038,1.5149911476441957e-06,1.4283502008272109e-05,0.31629240437960027,-8.412804612167868e-06,-0.13421528645213898
643,0.6336,0.0030716,1079.31,0.00385776,0.00699036,0.00243856,0.0298261,-0.128802,0.275199,-0.14432,1.53977e-06,1.4363e-05,-8.5346e-06,0.282975,-0.1208519803784539,1.5397711854436835e-06,1.436310314839595e-05,0.3167926905416152,-8.53456358040905e-06,-0.13438929169144975
644,0.6346,0.0030682,1079.56,0.00385371,0.00704541,0.00242143,0.0299855,-0.128981,0.275578,-0.14452,1.56452e-06,1.44424e-05,-8.65589e-06,0.283372,-0.12100933379041567,1.564521223906823e-06,1.4442504292055958e-05,0.31729184955598866,-8.655852537842179e-06,-0.13456239652205138
645,0.6356,0.00306481,1079.8,0.00384967,0.00710031,0.00240435,0.0301444,-0.129159,0.275958,-0.144721,1.58923e-06,1.45217e-05,-8.77672e-06,0.283768,-0.12116578020485702,1.589231262810742e-06,1.4521805440370628e-05,0.31779251557933974,-8.77668148469013e-06,-0.1347363319992494
646,0.6366,0.00306143,1080.05,0.00384562,0.00715505,0.00238732,0.0303029,-0.129338,0.276337,-0.144921,1.61391e-06,1.46009e-05,-8.89709e-06,0.284165,-0.1213230774516767,1.6139113023783125e-06,1.4601006593562005e-05,0.3182920535992195,-8.897050421063923e-06,-0.13490936742872983
647,0.6376,0.00305805,1080.29,0.00384159,0.00720963,0.00237034,0.0304609,-0.129516,0.276717,-0.145121,1.63856e-06,1.46799e-05,-9.017e-06,0.284561,-0.12147946802471643,1.63856134238749e-06,1.4680007750289548e-05,0.31879309977233095,-9.01695934696356e-06,-0.13508236825458486
648,0.6386,0.00305467,1080.54,0.00383756,0.00726405,0.00235341,0.0306184,-0.129695,0.277096,-0.145321,1.66317e-06,1.47587e-05,-9.13646e-06,0.284957,-0.12163670912644153,1.6631713830594919e-06,1.4758808910109167e-05,0.3192930170854913,-9.136418262722934e-06,-0.1352553344837344
649,0.6396,0.0030513,1080.78,0.00383353,0.00731831,0.00233653,0.0307755,-0.129873,0.277474,-0.145522,1.68775e-06,1.48374e-05,-9.25545e-06,0.285353,-0.12179304387801138,1.6877514241731006e-06,1.4837510074805493e-05,0.31979180411075836,-9.255407168451413e-06,-0.13542913069439888
650,0.6406,0.00304794,1081.03,0.00382951,0.00737242,0.00231969,0.0309321,-0.130051,0.277853,-0.145722,1.71229e-06,1.4916e-05,-9.37399e-06,0.285748,-0.12194935080447189,1.7122914659495336e-06,1.4916111244156482e-05,0.32029210000459973,-9.373946064261673e-06,-0.13560202757799533
651,0.6416,0.00304458,1081.27,0.00382549,0.00742637,0.00230291,0.0310883,-0.130229,0.278232,-0.145922,1.7368e-06,1.49944e-05,-9.49208e-06,0.286144,-0.12210562991077567,1.7368015081675736e-06,1.4994512416599548e-05,0.3207925855465208,-9.49203495037576e-06,-0.13577488988567277
652,0.6426,0.00304122,1081.51,0.00382147,0.00748017,0.00228617,0.031244,-0.130407,0.27861,-0.146122,1.76128e-06,1.50727e-05,-9.60971e-06,0.286539,-0.12226188120187409,1.7612815510492652e-06,1.5072813593697276e-05,0.3212919395158118,-9.60966382690387e-06,-0.13594771762434565
653,0.6436,0.00303787,1081.75,0.00381747,0.00753381,0.00226948,0.0313992,-0.130585,0.278989,-0.146321,1.78572e-06,1.51508e-05,-9.7269e-06,0.286935,-0.12241810468271785,1.7857215943717364e-06,1.5150914773887081e-05,0.3217928040687257,-9.726852693847654e-06,-0.13611964692100598
654,0.6446,0.00303452,1082.0,0.00381346,0.0075873,0.00225284,0.0315541,-0.130763,0.279367,-0.146521,1.81013e-06,1.52288e-05,-9.84363e-06,0.28733,-0.12257430035825678,1.8101316383578592e-06,1.5228915958731548e-05,0.32229253619208453,-9.84358155164955e-06,-0.13629240571516654
655,0.6456,0.00303118,1082.24,0.00380946,0.00764063,0.00223625,0.0317084,-0.130941,0.279745,-0.146721,1.83451e-06,1.53067e-05,-9.95992e-06,0.287725,-0.1227304682334398,1.834511682785589e-06,1.5306817148230678e-05,0.3227924572498926,-9.959870400200188e-06,-0.1364651299610231
656,0.6466,0.00302784,1082.48,0.00380547,0.00769381,0.00221971,0.0318623,-0.131119,0.280123,-0.146921,1.85885e-06,1.53844e-05,-1.00758e-05,0.288119,-0.12288660831321485,1.8588517276540983e-06,1.5384518340377795e-05,0.32329256731358025,-1.0075749239280007e-05,-0.13663781966548494
657,0.6476,0.00302451,1082.72,0.00380148,0.00774683,0.00220321,0.0320158,-0.131297,0.280501,-0.14712,1.88316e-06,1.54619e-05,-1.01912e-05,0.288514,-0.12304272060252919,1.8831617731862593e-06,1.5462019535839033e-05,0.3237928664546055,-1.0191148069882416e-05,-0.13680961164550254
658,0.6486,0.00302118,1082.96,0.00379749,0.0077997,0.00218676,0.0321688,-0.131475,0.280878,-0.14732,1.90744e-06,1.55394e-05,-1.03061e-05,0.288909,-0.12319880510632897,1.9074418191600273e-06,1.553952073707343e-05,0.32429203045176,-1.0306046892338827e-05,-0.13698223246051655
659,0.6496,0.00301785,1083.2,0.00379351,0.00785242,0.00217036,0.0323214,-0.131652,0.281256,-0.147519,1.93168e-06,1.56166e-05,-1.04206e-05,0.289303,-0.1233539851839831,1.9316818657966195e-06,1.561672193983732e-05,0.3247927074612642,-1.0420545705769335e-05,-0.1371539559092071
660,0.6506,0.00301453,1083.44,0.00378953,0.00790499,0.00215401,0.0324735,-0.13183,0.281633,-0.147718,1.95589e-06,1.56938e-05,-1.05347e-05,0.289697,-0.12351001428761821,1.955891912652774e-06,1.5693923148374367e-05,0.3252922484695404,-1.0534644510284963e-05,-0.13732564518833124
661,0.6516,0.00301122,1083.68,0.00378556,0.0079574,0.0021377,0.0326252,-0.132007,0.28201,-0.147918,1.98007e-06,1.57708e-05,-1.06483e-05,0.290091,-0.123665139286122,1.980071960394625e-06,1.5770924359781446e-05,0.3257919778402809,-1.0648243307098681e-05,-0.1374981628069566
662,0.6526,0.00300791,1083.92,0.00378159,0.00800966,0.00212144,0.0327765,-0.132185,0.282387,-0.148117,2.00421e-06,1.58476e-05,-1.07615e-05,0.290485,-0.1238211130092558,2.0042120083552106e-06,1.5847725573836513e-05,0.3262918956445118,-1.0761442095219564e-05,-0.13766978359572324
663,0.6536,0.0030046,1084.16,0.00377763,0.00806177,0.00210523,0.0329273,-0.132362,0.282764,-0.148316,2.02832e-06,1.59243e-05,-1.08743e-05,0.290879,-0.12397618294815882,2.028322056979448e-06,1.5924426792324198e-05,0.3267920019532857,-1.0874240874980678e-05,-0.1378413702353508
664,0.6546,0.0030013,1084.4,0.00377367,0.00811373,0.00208906,0.0330777,-0.13254,0.283141,-0.148515,2.0524e-06,1.60009e-05,-1.09866e-05,0.291273,-0.12413210131044805,2.052402106267337e-06,1.6001028015022456e-05,0.32729229683768235,-1.0986539647483973e-05,-0.13801292273263432
665,0.6556,0.00299801,1084.63,0.00376972,0.00816555,0.00207294,0.0332276,-0.132717,0.283518,-0.148714,2.07645e-06,1.60773e-05,-1.10985e-05,0.291666,-0.12428711620929289,2.0764521557747884e-06,1.6077429240590746e-05,0.3277927803688079,-1.1098438411849543e-05,-0.13818444109436756
666,0.6566,0.00299471,1084.87,0.00376577,0.00821721,0.00205686,0.0333772,-0.132894,0.283894,-0.148913,2.10046e-06,1.61536e-05,-1.12099e-05,0.29206,-0.12444210367292863,2.100462205945064e-06,1.6153730470147565e-05,0.32829212432500743,-1.120983716929036e-05,-0.13835592532734264
667,0.6576,0.00299143,1085.11,0.00376183,0.00826872,0.00204083,0.0335262,-0.133071,0.284271,-0.149111,2.12444e-06,1.62298e-05,-1.1321e-05,0.292453,-0.12459706370621104,2.1244422565569465e-06,1.6229931703914957e-05,0.3287929848621569,-1.1320935917713548e-05,-0.13852651396529536
668,0.6586,0.00298814,1085.35,0.00375789,0.00832008,0.00202485,0.0336749,-0.133248,0.284647,-0.14931,2.14838e-06,1.63058e-05,-1.14316e-05,0.292846,-0.1247519963139948,2.1483823078316533e-06,1.6305932940330337e-05,0.3292927049659573,-1.143153465954505e-05,-0.13869793013254195
669,0.6596,0.00298486,1085.58,0.00375395,0.00837129,0.00200891,0.0338231,-0.133425,0.285023,-0.149509,2.1723e-06,1.63817e-05,-1.15417e-05,0.293239,-0.1249069015011337,2.1723023595487945e-06,1.6381834180734245e-05,0.3297926129998454,-1.1541633394784867e-05,-0.1388693121913651
670,0.6606,0.00298159,1085.82,0.00375002,0.00842236,0.00199301,0.0339709,-0.133602,0.285399,-0.149707,2.19618e-06,1.64574e-05,-1.16515e-05,0.293632,-0.12506177927248086,2.1961824117067152e-06,1.645753542378614e-05,0.33029270903449603,-1.1651432121562166e-05,-0.1390397991887815
671,0.6616,0.00297832,1086.06,0.00374609,0.00847328,0.00197717,0.0341183,-0.133779,0.285775,-0.149906,2.22003e-06,1.6533e-05,-1.17608e-05,0.294024,-0.1252166296328885,2.220032464306243e-06,1.6533136670826565e-05,0.33079299314061084,-1.1760730842080847e-05,-0.1392111132224313
672,0.6626,0.00297506,1086.29,0.00374217,0.00852405,0.00196136,0.0342652,-0.133956,0.28615,-0.150104,2.24384e-06,1.66085e-05,-1.18697e-05,0.294417,-0.12537145258720783,2.2438425173465504e-06,1.6608637921855518e-05,0.3312921340961186,-1.1869629555349981e-05,-0.139381532549943
673,0.6636,0.0029718,1086.53,0.00373825,0.00857467,0.00194561,0.0344117,-0.134132,0.286526,-0.150303,2.26763e-06,1.66838e-05,-1.19781e-05,0.294809,-0.12552537366610017,2.2676325710513368e-06,1.6683939175310414e-05,0.3317927940567127,-1.1978028262804585e-05,-0.13955277858541992
674,0.6646,0.00296854,1086.76,0.00373434,0.00862515,0.00192989,0.0345578,-0.134309,0.286901,-0.150501,2.29138e-06,1.6759e-05,-1.20862e-05,0.295201,-0.12568014197756172,2.2913826251969027e-06,1.675914043275384e-05,0.3322923100078712,-1.208612696212974e-05,-0.1397231302698867
675,0.6656,0.00296529,1087.0,0.00373043,0.00867548,0.00191422,0.0347035,-0.134486,0.287276,-0.150699,2.3151e-06,1.6834e-05,-1.21938e-05,0.295593,-0.12583488289745626,2.3151026797840757e-06,1.6834141692623206e-05,0.33279201331263786,-1.219372565597343e-05,-0.13989344822805894
676,0.6666,0.00296204,1087.23,0.00372653,0.00872567,0.0018986,0.0348487,-0.134662,0.287651,-0.150897,2.33878e-06,1.6909e-05,-1.2301e-05,0.295985,-0.1259887224197912,2.338782735034073e-06,1.6909142958043688e-05,0.3332919040412836,-1.2300924343011665e-05,-0.14006373246661386
677,0.6676,0.0029588,1087.46,0.00372263,0.00877571,0.00188302,0.0349935,-0.134839,0.288026,-0.151095,2.36244e-06,1.69837e-05,-1.24078e-05,0.296377,-0.126143408725781,2.36244279050446e-06,1.6983844223883438e-05,0.33379198226410556,-1.240772302357751e-05,-0.14023398299222722
678,0.6686,0.00295556,1087.7,0.00371874,0.0088256,0.00186748,0.0351379,-0.135015,0.288401,-0.151293,2.38606e-06,1.70584e-05,-1.25142e-05,0.296768,-0.12629719395234829,2.386062846637671e-06,1.7058545495274302e-05,0.3342922480514272,-1.2514121697670966e-05,-0.1404041998115736
679,0.6696,0.00295233,1087.93,0.00371485,0.00887536,0.00185199,0.0352819,-0.135191,0.288776,-0.151491,2.40965e-06,1.71329e-05,-1.26201e-05,0.29716,-0.1264509521150975,2.409652903212489e-06,1.7133046768869065e-05,0.3347927014735985,-1.262002036683807e-05,-0.14057438293132607
680,0.6706,0.0029491,1088.16,0.00371096,0.00892496,0.00183654,0.0354255,-0.135367,0.28915,-0.151689,2.43321e-06,1.72073e-05,-1.27257e-05,0.297551,-0.12660468321879126,2.4332129602289143e-06,1.7207448046452356e-05,0.33529200730832076,-1.272561902865288e-05,-0.14074453235815654
681,0.6716,0.00294587,1088.4,0.00370708,0.00897443,0.00182114,0.0355686,-0.135544,0.289525,-0.151887,2.45674e-06,1.72815e-05,-1.28308e-05,0.297942,-0.1267592605093678,2.4567430176869465e-06,1.72816493260175e-05,0.33579283571051755,-1.283071768565236e-05,-0.14091464809873555
682,0.6726,0.00294265,1088.63,0.0037032,0.00902374,0.00180578,0.0357114,-0.13572,0.289899,-0.152085,2.48023e-06,1.73556e-05,-1.29355e-05,0.298333,-0.12691293735555897,2.480233075807803e-06,1.735575060934913e-05,0.3362925156654004,-1.2935416336734562e-05,-0.14108473015973222
683,0.6736,0.00293943,1088.86,0.00369933,0.00907292,0.00179046,0.0358537,-0.135896,0.290273,-0.152282,2.50369e-06,1.74296e-05,-1.30399e-05,0.298724,-0.12706658715700525,2.5036931341482216e-06,1.7429751896447243e-05,0.33679238253553745,-1.303981498090856e-05,-0.14125391980216384
684,0.6746,0.00293622,1089.09,0.00369546,0.00912196,0.00177518,0.0359956,-0.136072,0.290647,-0.15248,2.52713e-06,1.75034e-05,-1.31438e-05,0.299115,-0.12722020991846605,2.5271331931531194e-06,1.7503553185305165e-05,0.3372924363908478,-1.3143713620600295e-05,-0.14142393469401326
685,0.6756,0.00293301,1089.32,0.0036916,0.00917085,0.00175995,0.0361371,-0.136248,0.291021,-0.152677,2.55053e-06,1.75772e-05,-1.32473e-05,0.299506,-0.12737380564470002,2.5505332525987967e-06,1.7577354479936247e-05,0.3377926773012774,-1.3247212254929863e-05,-0.14159305751973328
686,0.6766,0.00292981,1089.55,0.00368774,0.0092196,0.00174476,0.0362782,-0.136424,0.291395,-0.152875,2.57389e-06,1.76507e-05,-1.33504e-05,0.299896,-0.1275273743404649,2.5738933124852537e-06,1.7650855774542507e-05,0.33829310533679746,-1.3350310883786243e-05,-0.14176300526896202
687,0.6776,0.00292661,1089.78,0.00368389,0.00926821,0.00172961,0.0364189,-0.136599,0.291768,-0.153072,2.59723e-06,1.77242e-05,-1.3453e-05,0.300286,-0.1276800436909975,2.597233372814145e-06,1.7724357074477837e-05,0.338792381774355,-1.3452909508826494e-05,-0.14193206130435776
688,0.6786,0.00292342,1090.01,0.00368004,0.00931667,0.00171451,0.0365592,-0.136775,0.292141,-0.153269,2.62053e-06,1.77975e-05,-1.35553e-05,0.300677,-0.127833558493609,2.620533433583816e-06,1.779765837639502e-05,0.3392918444767601,-1.3555208127291607e-05,-0.1421010840389948
689,0.6796,0.00292023,1090.24,0.00367619,0.009365,0.00169945,0.0366991,-0.136951,0.292515,-0.153466,2.64381e-06,1.78707e-05,-1.36572e-05,0.301067,-0.1279870462799927,2.6438134947959213e-06,1.7870859681856643e-05,0.3397928333056657,-1.3657106740838643e-05,-0.14227007347943266
690,0.6806,0.00291704,1090.47,0.00367235,0.00941319,0.00168443,0.0368386,-0.137126,0.292888,-0.153663,2.66705e-06,1.79437e-05,-1.37587e-05,0.301456,-0.1281396351949743,2.667053556670851e-06,1.7943860989078075e-05,0.34029266924609636,-1.37586053494676e-05,-0.14243902963222976
691,0.6816,0.00291386,1090.7,0.00366851,0.00946123,0.00166945,0.0369776,-0.137302,0.293261,-0.15386,2.69026e-06,1.80166e-05,-1.38598e-05,0.301846,-0.12829306911659877,2.690263618765343e-06,1.8016762299843947e-05,0.34079269166010806,-1.3859703953400526e-05,-0.1426079525039431
692,0.6826,0.00291068,1090.93,0.00366468,0.00950914,0.00165452,0.0371163,-0.137477,0.293634,-0.154057,2.71344e-06,1.80894e-05,-1.39605e-05,0.302236,-0.1284456044822696,2.7134436813014418e-06,1.8089563614154258e-05,0.34129290061726847,-1.3960402552637419e-05,-0.1427768421011283
693,0.6836,0.00290751,1091.16,0.00366086,0.00955691,0.00163962,0.0372546,-0.137653,0.294006,-0.154254,2.73658e-06,1.81621e-05,-1.40608e-05,0.302625,-0.1285989845580381,2.736583744500365e-06,1.816226493200901e-05,0.34179195439454557,-1.4060701147400323e-05,-0.14294569843033988
694,0.6846,0.00290434,1091.39,0.00365703,0.00960454,0.00162477,0.0373924,-0.137828,0.294379,-0.154451,2.7597e-06,1.82346e-05,-1.41607e-05,0.303014,-0.1287514663931908,2.759703807919678e-06,1.8234766251401524e-05,0.3422925361462277,-1.4160599737800261e-05,-0.14311452149813086
695,0.6856,0.00290118,1091.62,0.00365321,0.00965203,0.00160996,0.0375299,-0.138003,0.294751,-0.154648,2.78278e-06,1.8307e-05,-1.42602e-05,0.303404,-0.128903921546357,2.782783872001815e-06,1.8307167574116434e-05,0.3427919618570969,-1.4260098323837234e-05,-0.14328331131105332
696,0.6866,0.00289802,1091.84,0.0036494,0.00969938,0.00159519,0.037667,-0.138179,0.295124,-0.154844,2.80584e-06,1.83793e-05,-1.43593e-05,0.303793,-0.12905722096542016,2.805843936304342e-06,1.8379468900375784e-05,0.34329291668113604,-1.4359196905733285e-05,-0.1434512113272972
697,0.6876,0.00289486,1092.07,0.00364559,0.00974659,0.00158046,0.0378037,-0.138354,0.295496,-0.155041,2.82886e-06,1.84514e-05,-1.4458e-05,0.304181,-0.12920962261621782,2.828864001269693e-06,1.8451570228172898e-05,0.34379271460279126,-1.4457895483599437e-05,-0.14361993481885615
698,0.6886,0.00289171,1092.3,0.00364179,0.00979367,0.00156577,0.0379399,-0.138529,0.295868,-0.155238,2.85185e-06,1.85234e-05,-1.45563e-05,0.30457,-0.1293619975990602,2.8518540664546066e-06,1.8523571559292407e-05,0.3442926984838597,-1.4556194057546712e-05,-0.1437886250751611
699,0.6896,0.00288856,1092.52,0.00363798,0.00984061,0.00155113,0.0380758,-0.138704,0.29624,-0.155434,2.87481e-06,1.85953e-05,-1.46543e-05,0.304959,-0.12951434591861355,2.8748141323031717e-06,1.859547289373431e-05,0.34479286839353085,-1.4654192626251117e-05,-0.14395642605961267
700,0.6906,0.00288542,1092.75,0.00363419,0.00988741,0.00153652,0.0382113,-0.138879,0.296611,-0.15563,2.89774e-06,1.86671e-05,-1.47518e-05,0.305347,-0.1296666675795437,2.8977441983712993e-06,1.866727423149861e-05,0.3452918791084687,-1.4751691192693706e-05,-0.14412419415829425
701,0.6916,0.00288228,1092.98,0.0036304,0.00993408,0.00152196,0.0383464,-0.139054,0.296983,-0.155827,2.92064e-06,1.87387e-05,-1.4849e-05,0.305735,-0.12981896258651549,2.9206442651030784e-06,1.8738875570578628e-05,0.3457924207824761,-1.4848889754115469e-05,-0.14429278508529353
702,0.6926,0.00287915,1093.2,0.00362661,0.00998061,0.00150743,0.0384811,-0.139228,0.297354,-0.156023,2.94351e-06,1.88102e-05,-1.49457e-05,0.306124,-0.12997036091498892,2.94351433205442e-06,1.881037691298104e-05,0.3462918024001487,-1.4945588313608482e-05,-0.14446048726406635
703,0.6936,0.00287602,1093.43,0.00362283,0.010027,0.00149295,0.0386155,-0.139403,0.297726,-0.156219,2.96634e-06,1.88816e-05,-1.50421e-05,0.306512,-0.1301226027802771,2.9663443996685857e-06,1.8881778258483806e-05,0.3467927161148159,-1.5041986868191692e-05,-0.14462815657643324
704,0.6946,0.00287289,1093.65,0.00361905,0.0100733,0.0014785,0.0387494,-0.139578,0.298097,-0.156415,2.98915e-06,1.89528e-05,-1.51381e-05,0.306899,-0.13027481800556984,2.989154467503141e-06,1.8952979605524334e-05,0.3472924689109058,-1.513798541952216e-05,-0.14479579302883527
705,0.6956,0.00286977,1093.88,0.00361527,0.0101194,0.0014641,0.0388829,-0.139753,0.298468,-0.156611,3.01193e-06,1.90239e-05,-1.52338e-05,0.307287,-0.13042700659552886,3.0119345357793037e-06,1.9024080955443168e-05,0.34779240714968074,-1.523368396627589e-05,-0.1449633966277124
706,0.6966,0.00286665,1094.1,0.0036115,0.0101654,0.00144973,0.0390161,-0.139927,0.298839,-0.156807,3.03467e-06,1.90949e-05,-1.5329e-05,0.307675,-0.13057829913354868,3.0346746047182904e-06,1.9095082308684397e-05,0.3482925308999527,-1.532888251143394e-05,-0.14513096737950326
707,0.6976,0.00286354,1094.33,0.00360774,0.0102112,0.00143541,0.0391489,-0.140102,0.29921,-0.157003,3.05738e-06,1.91658e-05,-1.54239e-05,0.308062,-0.13073043461895706,3.0573846738768395e-06,1.9165983665025976e-05,0.3487928402305587,-1.5423781052237295e-05,-0.14529850529064525
708,0.6986,0.00286043,1094.55,0.00360398,0.010257,0.00142112,0.0392813,-0.140276,0.29958,-0.157199,3.08007e-06,1.92365e-05,-1.55184e-05,0.308449,-0.1308816743650939,3.080074743477823e-06,1.9236685022683275e-05,0.3492919859177017,-1.5518279590231998e-05,-0.14546601036757445
709,0.6996,0.00285732,1094.77,0.00360022,0.0103025,0.00140688,0.0394133,-0.14045,0.299951,-0.157394,3.10272e-06,1.93071e-05,-1.56125e-05,0.308837,-0.1310328877978042,3.102724813519586e-06,1.930728638321888e-05,0.3497926661149109,-1.561237812552907e-05,-0.1456326282497813
710,0.7006,0.00285422,1095.0,0.00359647,0.010348,0.00139267,0.0395449,-0.140625,0.300321,-0.15759,3.12534e-06,1.93776e-05,-1.57062e-05,0.309224,-0.13118494373715683,3.1253448837809117e-06,1.9377787746854835e-05,0.3502921818060776,-1.5706076658239532e-05,-0.14580006784502797
711,0.7016,0.00285112,1095.22,0.00359272,0.0103933,0.00137851,0.0396762,-0.140799,0.300691,-0.157786,3.14794e-06,1.9448e-05,-1.57996e-05,0.30961,-0.13133610440558707,3.147944954706716e-06,1.944818911359114e-05,0.35079188235224623,-1.579947518692837e-05,-0.14596747462533
712,0.7026,0.00284803,1095.44,0.00358898,0.0104385,0.00136438,0.039807,-0.140973,0.301062,-0.157981,3.1705e-06,1.95182e-05,-1.58926e-05,0.309997,-0.1314872387743491,3.1705050260733003e-06,1.9518390481199077e-05,0.35129311911426897,-1.589247371325264e-05,-0.14613399473153998
713,0.7036,0.00284494,1095.66,0.00358524,0.0104836,0.00135029,0.0399375,-0.141147,0.301431,-0.158176,3.19303e-06,1.95884e-05,-1.59852e-05,0.310384,-0.13163834684801867,3.193035097659447e-06,1.958859185391404e-05,0.3517918382832501,-1.5985072237323372e-05,-0.1463004823694951
714,0.7046,0.00284186,1095.88,0.0035815,0.0105285,0.00133624,0.0400676,-0.141321,0.301801,-0.158372,3.21553e-06,1.96584e-05,-1.60774e-05,0.31077,-0.13178942863117082,3.215535169909245e-06,1.965859322750063e-05,0.35229209380497917,-1.6077270759251583e-05,-0.14646779107816166
715,0.7056,0.00283878,1096.11,0.00357777,0.0105733,0.00132223,0.0401974,-0.141495,0.302171,-0.158567,3.238e-06,1.97282e-05,-1.61693e-05,0.311156,-0.13194048412837966,3.2380052423786054e-06,1.97283946021809e-05,0.3527925344554983,-1.6169169277602258e-05,-0.146634213632175
716,0.7066,0.0028357,1096.33,0.00357405,0.010618,0.00130825,0.0403267,-0.141669,0.30254,-0.158762,3.26044e-06,1.9798e-05,-1.62608e-05,0.311543,-0.13209151334421843,3.260445315289573e-06,1.9798195981746147e-05,0.3532918070108335,-1.6260667793921435e-05,-0.14680060373695425
717,0.7076,0.00283263,1096.55,0.00357032,0.0106625,0.00129432,0.0404557,-0.141843,0.30291,-0.158957,3.28286e-06,1.98676e-05,-1.63519e-05,0.311929,-0.1322425162832599,3.282865388642975e-06,1.986779736196098e-05,0.35379261762367764,-1.635176630843116e-05,-0.14696696139882637
718,0.7086,0.00282956,1096.77,0.00356661,0.0107069,0.00128042,0.0405843,-0.142017,0.303279,-0.159153,3.30524e-06,1.99371e-05,-1.64427e-05,0.312315,-0.13239349295007563,3.3052454622151117e-06,1.9937298745276166e-05,0.3542922592777966,-1.6442564819585392e-05,-0.147134139490404
719,0.7096,0.0028265,1096.99,0.00356289,0.0107512,0.00126656,0.0407126,-0.142191,0.303648,-0.159347,3.32759e-06,2.00065e-05,-1.65331e-05,0.3127,-0.13254444334923676,3.3275955364509002e-06,2.0006700131247612e-05,0.3547920853337061,-1.6532963329041195e-05,-0.14729957941915095
720,0.7106,0.00282344,1097.21,0.00355919,0.0107953,0.00125274,0.0408404,-0.142364,0.304017,-0.159542,3.34991e-06,2.00757e-05,-1.66231e-05,0.313086,-0.1326945001802472,3.349915610906251e-06,2.0075901518312733e-05,0.35529209585946275,-1.662296183702061e-05,-0.14746583979025119
721,0.7116,0.00282038,1097.43,0.00355548,0.0108393,0.00123896,0.0409679,-0.142538,0.304386,-0.159737,3.3722e-06,2.01449e-05,-1.67128e-05,0.313471,-0.13284539820870667,3.372205685803209e-06,2.0145102909818746e-05,0.35579229092314857,-1.6712660341977603e-05,-0.14763206774373983
722,0.7126,0.00281733,1097.65,0.00355178,0.0108832,0.00122521,0.0410951,-0.142711,0.304755,-0.159932,3.39446e-06,2.02139e-05,-1.68021e-05,0.313857,-0.1329954029790298,3.394465761141774e-06,2.021410430219639e-05,0.3562926705928706,-1.680195884545821e-05,-0.14779826328593781
723,0.7136,0.00281428,1097.87,0.00354809,0.010927,0.00121151,0.0412218,-0.142885,0.305123,-0.160127,3.41669e-06,2.02828e-05,-1.68911e-05,0.314242,-0.13314624865495706,3.4166958369219458e-06,2.028300569745234e-05,0.3567918781442043,-1.6890957346138435e-05,-0.14796442642316465
724,0.7146,0.00281124,1098.09,0.00354439,0.0109706,0.00119784,0.0413482,-0.143058,0.305492,-0.160321,3.43889e-06,2.03516e-05,-1.69797e-05,0.314627,-0.13329620138265486,3.43889591292168e-06,2.0351807095142505e-05,0.3572926267296719,-1.6979555845675343e-05,-0.14812970529186997
725,0.7156,0.0028082,1098.3,0.00354071,0.0110141,0.0011842,0.0414743,-0.143232,0.30586,-0.160516,3.46107e-06,2.04202e-05,-1.70679e-05,0.315012,-0.13344699472421306,3.4610759895858934e-06,2.04204084937043e-05,0.35779220233258147,-1.7067754344179953e-05,-0.14829580380420682
726,0.7166,0.00280517,1098.52,0.00353702,0.0110574,0.00117061,0.0415999,-0.143405,0.306228,-0.16071,3.48321e-06,2.04887e-05,-1.71558e-05,0.315396,-0.1335968954273411,3.4832160664688416e-06,2.0488909894922358e-05,0.35829196181314416,-1.7155652840106228e-05,-0.1484610183919356
727,0.7176,0.00280213,1098.74,0.00353335,0.0111007,0.00115705,0.0417252,-0.143578,0.306596,-0.160905,3.50532e-06,2.05572e-05,-1.72433e-05,0.315781,-0.13374677019989056,3.5053261435713523e-06,2.0557411300581308e-05,0.3587919052390398,-1.724315133511123e-05,-0.14862705230451656
728,0.7186,0.00279911,1098.96,0.00352967,0.0111438,0.00114353,0.0418502,-0.143751,0.306964,-0.161099,3.5274e-06,2.06255e-05,-1.73304e-05,0.316165,-0.13389661904634698,3.5274062213375146e-06,2.0625712707111887e-05,0.3592920326779725,-1.733024982952802e-05,-0.14879220263626936
729,0.7196,0.00279608,1099.18,0.003526,0.0111868,0.00113004,0.0419748,-0.143924,0.307332,-0.161293,3.54946e-06,2.06936e-05,-1.74172e-05,0.31655,-0.1340464419711953,3.5494662993240667e-06,2.0693814114070008e-05,0.35979234419767137,-1.7417048321477502e-05,-0.14895732093196534
730,0.7206,0.00279306,1099.39,0.00352234,0.0112297,0.0011166,0.042099,-0.144097,0.3077,-0.161488,3.57148e-06,2.07617e-05,-1.75037e-05,0.316934,-0.13419623897891952,3.5714863777513983e-06,2.0761915525691066e-05,0.36029283986589067,-1.7503546811181714e-05,-0.1491232580749864
731,0.7216,0.00279005,1099.61,0.00351868,0.0112724,0.00110318,0.0422228,-0.14427,0.308067,-0.161682,3.59348e-06,2.08296e-05,-1.75898e-05,0.317318,-0.13434601007400293,3.5934864566211644e-06,2.082981693751762e-05,0.36079215895757044,-1.758964530040874e-05,-0.14928831215215665
732,0.7226,0.00278704,1099.82,0.00351502,0.011315,0.00108981,0.0423463,-0.144443,0.308435,-0.161876,3.61544e-06,2.08974e-05,-1.76755e-05,0.317702,-0.13449575526092794,3.6154465357096655e-06,2.089761835222248e-05,0.3612930226253295,-1.7675343789269604e-05,-0.14945333421194174
733,0.7236,0.00278403,1100.04,0.00351137,0.0113575,0.00107647,0.0424695,-0.144616,0.308802,-0.16207,3.63738e-06,2.09651e-05,-1.77609e-05,0.318086,-0.1346454745441764,3.637386615240601e-06,2.0965319769139512e-05,0.36179270885144676,-1.7760742276107244e-05,-0.14961832426055244
734,0.7246,0.00278103,1100.26,0.00350772,0.0113998,0.00106317,0.0425923,-0.144789,0.309169,-0.162264,3.65928e-06,2.10327e-05,-1.7846e-05,0.318469,-0.1347951679282292,3.659286695212316e-06,2.1032921188712805e-05,0.36229257849606444,-1.7845840761143705e-05,-0.14978328230419835
735,0.7256,0.00277803,1100.47,0.00350407,0.0114421,0.0010499,0.0427147,-0.144962,0.309536,-0.162458,3.68116e-06,2.11002e-05,-1.79307e-05,0.318853,-0.13494483541756652,3.681166775404421e-06,2.1100422610720315e-05,0.3627926316265093,-1.7930539245925026e-05,-0.14994820834908773
736,0.7266,0.00277503,1100.69,0.00350043,0.0114842,0.00103667,0.0428368,-0.145134,0.309903,-0.162651,3.70301e-06,2.11675e-05,-1.80151e-05,0.319236,-0.13509361211071225,3.7030168562601773e-06,2.1167724033155366e-05,0.3632928683101331,-1.801493772901619e-05,-0.1501122525141052
737,0.7276,0.00277204,1100.9,0.0034968,0.0115262,0.00102348,0.0429585,-0.145307,0.310269,-0.162845,3.72483e-06,2.12348e-05,-1.80991e-05,0.319619,-0.13524322797367183,3.7248369371134515e-06,2.123502546003131e-05,0.3637919248217052,-1.80989362122963e-05,-0.15027711474496397
738,0.7286,0.00276905,1101.12,0.00349317,0.011568,0.00101032,0.0430798,-0.145479,0.310636,-0.163039,3.74662e-06,2.13019e-05,-1.81827e-05,0.320002,-0.13539195334771148,3.7466270186303774e-06,2.130212688711275e-05,0.3642925283132368,-1.8182534695765362e-05,-0.15044194499565222
739,0.7296,0.00276607,1101.33,0.00348954,0.0116097,0.000997193,0.0432009,-0.145652,0.311002,-0.163232,3.76838e-06,2.13689e-05,-1.82661e-05,0.320385,-0.1355415176021013,3.7683871003668656e-06,2.1369128316628405e-05,0.3647919507673334,-1.8265933175776183e-05,-0.15060589387869194
740,0.7306,0.00276309,1101.55,0.00348592,0.0116514,0.000984105,0.0433215,-0.145824,0.311369,-0.163426,3.79011e-06,2.14358e-05,-1.8349e-05,0.320768,-0.13569019167473706,3.790117182544961e-06,2.1436029748356233e-05,0.3652929213357414,-1.8348831658077103e-05,-0.1507706603524147
741,0.7316,0.00276011,1101.76,0.0034823,0.0116928,0.000971052,0.0434418,-0.145996,0.311735,-0.163619,3.81181e-06,2.15025e-05,-1.84317e-05,0.321151,-0.13583884017763126,3.8118172649426185e-06,2.1502731180511603e-05,0.3657927100006968,-1.843153013725285e-05,-0.15093454579951238
742,0.7326,0.00275714,1101.97,0.00347868,0.0117342,0.000958035,0.0435618,-0.146169,0.312101,-0.163813,3.83348e-06,2.15692e-05,-1.8514e-05,0.321533,-0.13598832712728648,3.833487347781883e-06,2.156943261688582e-05,0.3662926816217824,-1.851382861695061e-05,-0.1510992485209467
743,0.7336,0.00275418,1102.19,0.00347507,0.0117755,0.000945052,0.0436814,-0.146341,0.312467,-0.164006,3.85513e-06,2.16357e-05,-1.85959e-05,0.321916,-0.13613692435529268,3.855137431063582e-06,2.1635934053465533e-05,0.3667928362659727,-1.859572709728141e-05,-0.15126307055664723
744,0.7346,0.00275121,1102.4,0.00347147,0.0118166,0.000932105,0.0438007,-0.146513,0.312832,-0.164199,3.87675e-06,2.17021e-05,-1.86775e-05,0.322298,-0.13628549602677353,3.876757514564844e-06,2.170233549225742e-05,0.3672918067077757,-1.867732557658819e-05,-0.15142686097774571
745,0.7356,0.00274825,1102.61,0.00346787,0.0118576,0.000919192,0.0439196,-0.146685,0.313198,-0.164392,3.89833e-06,2.17684e-05,-1.87588e-05,0.32268,-0.13643404214612442,3.898337598506885e-06,2.1768636933261476e-05,0.36779232709867493,-1.875862405475992e-05,-0.15159061979034327
746,0.7366,0.0027453,1102.82,0.00346427,0.0118984,0.000906315,0.0440382,-0.146857,0.313564,-0.164585,3.91989e-06,2.18346e-05,-1.88398e-05,0.323062,-0.13658256271774005,3.9198976826693155e-06,2.183483837669975e-05,0.36829303071356545,-1.8839622532129674e-05,-0.1517543470005398
747,0.7376,0.00274234,1103.04,0.00346068,0.0119392,0.000893471,0.0441564,-0.147029,0.313929,-0.164778,3.94142e-06,2.19007e-05,-1.89204e-05,0.323444,-0.13673105774601402,3.941427767495398e-06,2.190093982212815e-05,0.36879254882628576,-1.892022101035451e-05,-0.15191804261443376
748,0.7386,0.00273939,1103.25,0.00345709,0.0119798,0.000880663,0.0442743,-0.147201,0.314294,-0.164971,3.96292e-06,2.19667e-05,-1.90007e-05,0.323825,-0.13687952723533958,3.962927852318998e-06,2.1966941269768725e-05,0.3692922492963955,-1.900051948788839e-05,-0.15208170663812293
749,0.7396,0.00273645,1103.46,0.0034535,0.0120203,0.000867888,0.0443919,-0.147373,0.314659,-0.165164,3.98439e-06,2.20325e-05,-1.90806e-05,0.324207,-0.13702797119010912,3.984397937584205e-06,2.203274271739275e-05,0.3697921321904669,-1.9080417966499397e-05,-0.15224533907770332
750,0.7406,0.00273351,1103.67,0.00344992,0.0120607,0.000855148,0.0445091,-0.147545,0.315024,-0.165357,4.00584e-06,2.20982e-05,-1.91602e-05,0.324588,-0.137176389614714,4.005848023291847e-06,2.2098444167006903e-05,0.37029219757509746,-1.916001644453047e-05,-0.1524089399392704
751,0.7416,0.00273057,1103.88,0.00344635,0.012101,0.000842442,0.0446259,-0.147716,0.315389,-0.165549,4.02725e-06,2.21639e-05,-1.92395e-05,0.32497,-0.13732391983789627,4.027258109440268e-06,2.2164145621061948e-05,0.3707924455169078,-1.923931492198161e-05,-0.15257166180100346
752,0.7426,0.00272764,1104.09,0.00344277,0.0121412,0.000829771,0.0447425,-0.147888,0.315754,-0.165742,4.04864e-06,2.22294e-05,-1.93184e-05,0.325351,-0.1374722873637111,4.048648195809079e-06,2.22296470748784e-05,0.371292876082544,-1.9318213400953965e-05,-0.15273519968836213
753,0.7436,0.00272471,1104.3,0.00343921,0.0121812,0.000817133,0.0448587,-0.14806,0.316118,-0.165935,4.07e-06,2.22948e-05,-1.9397e-05,0.325732,-0.13762062937250608,4.070008282397453e-06,2.2295048530907025e-05,0.37179211754587205,-1.939681187945741e-05,-0.15289870601595412
754,0.7446,0.00272179,1104.51,0.00343564,0.0122211,0.000804529,0.0449745,-0.148231,0.316483,-0.166127,4.09133e-06,2.236e-05,-1.94753e-05,0.326113,-0.1377680836371845,4.091338369427433e-06,2.2360249986697056e-05,0.3722929130583974,-1.9475110357602965e-05,-0.15306133385162723
755,0.7456,0.00271886,1104.72,0.00343208,0.0122609,0.000791958,0.04509,-0.148403,0.316847,-0.16632,4.11263e-06,2.24252e-05,-1.95533e-05,0.326493,-0.13791637477339558,4.11263845689902e-06,2.2425451446705935e-05,0.37279251860144313,-1.9553108835501654e-05,-0.15322477724139938
756,0.7466,0.00271595,1104.93,0.00342853,0.0123006,0.000779421,0.0452052,-0.148574,0.317211,-0.166512,4.1339e-06,2.24903e-05,-1.96309e-05,0.326874,-0.13806377846993412,4.13390854459017e-06,2.249055290870494e-05,0.37329230603400854,-1.9630707315143603e-05,-0.15338734247740693
757,0.7476,0.00271303,1105.14,0.00342498,0.0123401,0.000766918,0.04532,-0.148745,0.317575,-0.166704,4.15514e-06,2.25552e-05,-1.97082e-05,0.327254,-0.13821115696259545,4.155148632500882e-06,2.2555454370465355e-05,0.3737922754223133,-1.9708005794649708e-05,-0.15354987650388552
758,0.7486,0.00271012,1105.35,0.00342143,0.0123795,0.000754448,0.0454346,-0.148917,0.317939,-0.166896,4.17636e-06,2.26201e-05,-1.97852e-05,0.327635,-0.13835937189674818,4.176368721076074e-06,2.2620355836444617e-05,0.37429242683260133,-1.9785004274242013e-05,-0.15371237932682646
759,0.7496,0.00270722,1105.56,0.00341789,0.0124189,0.000742011,0.0455487,-0.149088,0.318303,-0.167089,4.19755e-06,2.26848e-05,-1.98619e-05,0.328015,-0.13850669984725505,4.197558809648783e-06,2.268505730196324e-05,0.37479276033114073,-1.9861702753809496e-05,-0.1538756970769466
760,0.7506,0.00270432,1105.77,0.00341435,0.0124581,0.000729608,0.0456626,-0.149259,0.318666,-0.167281,4.21871e-06,2.27494e-05,-1.99382e-05,0.328395,-0.13865400260683636,4.2187188986630986e-06,2.2749658769471992e-05,0.37529190069163554,-1.9938001235453306e-05,-0.15403813734834282
761,0.7516,0.00270142,1105.97,0.00341081,0.0124971,0.000717237,0.0457761,-0.14943,0.31903,-0.167473,4.23984e-06,2.28139e-05,-2.00143e-05,0.328775,-0.1388012801797992,4.2398489881190216e-06,2.281416023897087e-05,0.37579259806488086,-2.001409971519319e-05,-0.15420054643420067
762,0.7526,0.00269852,1106.18,0.00340728,0.0125361,0.0007049,0.0458893,-0.149601,0.319393,-0.167665,4.26094e-06,2.28783e-05,-2.009e-05,0.329154,-0.13894853257045026,4.260949077794507e-06,2.2878561710237832e-05,0.3762921014323546,-2.0089798197342468e-05,-0.15436292434050747
763,0.7536,0.00269563,1106.39,0.00340376,0.012575,0.000692595,0.0460021,-0.149772,0.319756,-0.167857,4.28202e-06,2.29426e-05,-2.01653e-05,0.329534,-0.13909575978309519,4.282029167912427e-06,2.294286318349492e-05,0.37679178615246434,-2.0165096681679096e-05,-0.1545252710732491
764,0.7546,0.00269274,1106.6,0.00340023,0.0126137,0.000680323,0.0461146,-0.149943,0.32012,-0.168048,4.30307e-06,2.30067e-05,-2.02404e-05,0.329914,-0.13924296182203932,4.303079258249909e-06,2.300696465606933e-05,0.37729302958339406,-2.0240195164444863e-05,-0.15468674132557414
765,0.7556,0.00268986,1106.8,0.00339672,0.0126523,0.000668084,0.0462268,-0.150114,0.320483,-0.16824,4.32409e-06,2.30708e-05,-2.03151e-05,0.330293,-0.13939013869158678,4.3240993488069535e-06,2.3071066132862583e-05,0.37779307770637605,-2.0314893649731047e-05,-0.1548490258914227
766,0.7566,0.00268698,1107.01,0.0033932,0.0126908,0.000655877,0.0463387,-0.150284,0.320845,-0.168432,4.34508e-06,2.31348e-05,-2.03896e-05,0.330672,-0.13953642993290138,4.345089439805605e-06,2.3135067611645965e-05,0.37829192908715803,-2.0389392133557394e-05,-0.15501127930162573
767,0.7576,0.00268411,1107.22,0.00338969,0.0127292,0.000643702,0.0464503,-0.150455,0.321208,-0.168623,4.36604e-06,2.31986e-05,-2.04637e-05,0.331051,-0.13968355662369225,4.366049531245864e-06,2.319886908952462e-05,0.3787923398764801,-2.0463490619904157e-05,-0.1551726567352436
768,0.7586,0.00268123,1107.42,0.00338619,0.0127675,0.00063156,0.0465615,-0.150626,0.321571,-0.168815,4.38698e-06,2.32624e-05,-2.05375e-05,0.33143,-0.13983065815797002,4.386989622906512e-06,2.3262670571622124e-05,0.37929293234789196,-2.0537289107003254e-05,-0.15533484801428943
769,0.7596,0.00267837,1107.63,0.00338269,0.0128056,0.00061945,0.0466724,-0.150796,0.321933,-0.169006,4.40788e-06,2.3326e-05,-2.0611e-05,0.331809,-0.13997687451734042,4.407889714785895e-06,2.332627205325899e-05,0.3797923267743395,-2.0610787594743663e-05,-0.15549616365218488
770,0.7606,0.0026755,1107.83,0.00337919,0.0128436,0.000607372,0.0467829,-0.150967,0.322295,-0.169198,4.42876e-06,2.33895e-05,-2.06841e-05,0.332188,-0.1401239258985465,4.4287698068856685e-06,2.3389773536441893e-05,0.38029190201429475,-2.0683886085448577e-05,-0.15565829282386512
771,0.7616,0.00267264,1108.04,0.0033757,0.0128816,0.000595326,0.0468932,-0.151137,0.322658,-0.169389,4.44962e-06,2.34529e-05,-2.0757e-05,0.332566,-0.14027009240663857,4.449629899649921e-06,2.345317502139288e-05,0.3807930389255725,-2.07567845749157e-05,-0.15581954668970133
772,0.7626,0.00266978,1108.25,0.00337221,0.0129194,0.000583312,0.0470031,-0.151308,0.32302,-0.16958,4.47044e-06,2.35162e-05,-2.08295e-05,0.332945,-0.14041709365187238,4.470449992410863e-06,2.3516476507889905e-05,0.38129297648890303,-2.082928306745835e-05,-0.15598076975899033
773,0.7636,0.00266693,1108.45,0.00336872,0.0129571,0.000571329,0.0471127,-0.151478,0.323382,-0.169771,4.49124e-06,2.35794e-05,-2.09018e-05,0.333323,-0.14056321032568242,4.49125008561424e-06,2.3579677996155013e-05,0.38179309506239245,-2.0901581558874227e-05,-0.15614196203761377
774,0.7646,0.00266408,1108.65,0.00336524,0.0129946,0.000559378,0.047222,-0.151648,0.323743,-0.169963,4.51201e-06,2.36425e-05,-2.09737e-05,0.333701,-0.14070930216176913,4.5120201790371794e-06,2.3642779486188203e-05,0.38229201241887445,-2.0973480053476656e-05,-0.15630396722790652
775,0.7656,0.00266123,1108.86,0.00336176,0.0130321,0.000547459,0.047331,-0.151819,0.324105,-0.170154,4.53275e-06,2.37055e-05,-2.10453e-05,0.334079,-0.14085622830855593,4.532760272901726e-06,2.3705780977545388e-05,0.3827924927088371,-2.104507854927551e-05,-0.15646509778170825
776,0.7666,0.00265839,1109.06,0.00335829,0.0130695,0.000535571,0.0474396,-0.151989,0.324466,-0.170345,4.55346e-06,2.37684e-05,-2.11166e-05,0.334457,-0.14100227033581936,4.5534703669858345e-06,2.3768682470670655e-05,0.3832917709129986,-2.1116377046159762e-05,-0.15662619756251317
777,0.7676,0.00265555,1109.27,0.00335482,0.0131067,0.000523715,0.0475479,-0.152159,0.324828,-0.170536,4.57415e-06,2.38311e-05,-2.11877e-05,0.334834,-0.14114828753804842,4.574160461512378e-06,2.3831383962891195e-05,0.3837926131810503,-2.118747554225031e-05,-0.15678726657619824
778,0.7686,0.00265272,1109.47,0.00335136,0.0131438,0.00051189,0.0476559,-0.152329,0.325189,-0.170726,4.59481e-06,2.38938e-05,-2.12584e-05,0.335212,-0.14129427991946297,4.594820556258483e-06,2.389408545910854e-05,0.38429225249387855,-2.1258174041860478e-05,-0.15694746177652286
779,0.7696,0.00264989,1109.67,0.0033479,0.0131808,0.000500095,0.0477636,-0.152499,0.32555,-0.170917,4.61544e-06,2.39564e-05,-2.13288e-05,0.335589,-0.14144024748428208,4.615450651224151e-06,2.395668695687192e-05,0.3847920722090594,-2.132857254277809e-05,-0.15710846943460266
780,0.7706,0.00264706,1109.88,0.00334444,0.0132177,0.000488332,0.047871,-0.152669,0.325911,-0.171108,4.63604e-06,2.40188e-05,-2.13989e-05,0.335967,-0.14158619023672436,4.636050746409381e-06,2.4019088453730575e-05,0.3852920723917297,-2.1398671045225193e-05,-0.15726944634315654
781,0.7716,0.00264424,1110.08,0.00334099,0.0132545,0.0004766,0.0479781,-0.152839,0.326272,-0.171298,4.65662e-06,2.40812e-05,-2.14686e-05,0.336344,-0.14173210818100745,4.656630842037046e-06,2.4081489954363988e-05,0.38579225310705034,-2.1468369551302935e-05,-0.15742954993802816
782,0.7726,0.00264142,1110.28,0.00333754,0.0132912,0.000464899,0.0480848,-0.153009,0.326633,-0.171489,4.67717e-06,2.41434e-05,-2.15381e-05,0.336721,-0.1418780013213483,4.677180937884273e-06,2.414369145431472e-05,0.386292614420205,-2.1537868056809018e-05,-0.15759046552606215
783,0.7736,0.0026386,1110.48,0.0033341,0.0133278,0.000453228,0.0481913,-0.153178,0.326993,-0.17168,4.69769e-06,2.42055e-05,-2.16073e-05,0.337098,-0.1420230116854041,4.697701034173107e-06,2.4205792955589445e-05,0.38679176960393846,-2.1607066563955613e-05,-0.15775135038215382
784,0.7746,0.00263579,1110.69,0.00333066,0.0133642,0.000441588,0.0482974,-0.153348,0.327354,-0.17187,4.71819e-06,2.42676e-05,-2.16762e-05,0.337475,-0.1421688553763527,4.718201130682331e-06,2.4267894460638928e-05,0.3872924918076852,-2.1675965072853742e-05,-0.15791136242395587
785,0.7756,0.00263298,1110.89,0.00332722,0.0134006,0.000429979,0.0484032,-0.153518,0.327714,-0.17206,4.73866e-06,2.43295e-05,-2.17448e-05,0.337851,-0.142314674275981,4.7386712274111176e-06,2.4329795964783685e-05,0.38779200701207817,-2.1744563583503407e-05,-0.15807134406635803
786,0.7766,0.00263017,1111.09,0.00332379,0.0134368,0.0004184,0.0485087,-0.153687,0.328075,-0.172251,4.7591e-06,2.43913e-05,-2.18131e-05,0.338228,-0.14245961084854308,4.759111324581511e-06,2.4391597470252435e-05,0.3882930903667132,-2.181286209601563e-05,-0.15823213708341932
787,0.7776,0.00262737,1111.29,0.00332036,0.0134729,0.000406852,0.0486139,-0.153857,0.328435,-0.172441,4.77951e-06,2.4453e-05,-2.18811e-05,0.338604,-0.14260538032394232,4.7795214219714666e-06,2.445329897704518e-05,0.38879296585143375,-2.188086061050143e-05,-0.1583920577844259
788,0.7786,0.00262457,1111.49,0.00331694,0.0135089,0.000395333,0.0487188,-0.154026,0.328795,-0.172631,4.7999e-06,2.45147e-05,-2.19488e-05,0.33898,-0.14275026777133337,4.799911519581812e-06,2.451500048761268e-05,0.3892930213237247,-2.1948559126849787e-05,-0.15855194810338546
789,0.7796,0.00262178,1111.69,0.00331352,0.0135448,0.000383845,0.0488234,-0.154195,0.329154,-0.172821,4.82026e-06,2.45762e-05,-2.20162e-05,0.339356,-0.14289513073481486,4.82027161741172e-06,2.4576501997275457e-05,0.38979186705583113,-2.2015957645282747e-05,-0.15871180804607044
790,0.7806,0.00261899,1111.89,0.0033101,0.0135806,0.000372387,0.0489277,-0.154365,0.329514,-0.173011,4.84059e-06,2.46376e-05,-2.20833e-05,0.339732,-0.1430408261781264,4.840601715683235e-06,2.4637903508262227e-05,0.3902922821972923,-2.2083056165689285e-05,-0.1588716376182514
791,0.7816,0.0026162,1112.09,0.00330669,0.0136163,0.000360958,0.0490316,-0.154534,0.329874,-0.173201,4.86089e-06,2.46989e-05,-2.21502e-05,0.340108,-0.14318564004138612,4.860901814174312e-06,2.4699205020350945e-05,0.3907928775206351,-2.2149954686079276e-05,-0.15903143682569854
792,0.7826,0.00261341,1112.29,0.00330328,0.0136519,0.00034956,0.0491353,-0.154703,0.330233,-0.173391,4.88117e-06,2.47601e-05,-2.22167e-05,0.340484,-0.14333042943317098,4.881181912885779e-06,2.4760406533763657e-05,0.39129226179777943,-2.2216453210988085e-05,-0.15919120567418044
793,0.7836,0.00261063,1112.49,0.00329988,0.0136873,0.000338191,0.0492387,-0.154872,0.330592,-0.173581,4.90142e-06,2.48212e-05,-2.22829e-05,0.340859,-0.14347519435761613,4.901432012038853e-06,2.4821508048500363e-05,0.3917918253860635,-2.2282651737981496e-05,-0.15935094416946471
794,0.7846,0.00260786,1112.69,0.00329648,0.0137227,0.000326852,0.0493417,-0.155041,0.330952,-0.17377,4.92165e-06,2.48822e-05,-2.23489e-05,0.341235,-0.14361993481885615,4.921662111412317e-06,2.488250956456106e-05,0.39229296064213637,-2.2348650265180403e-05,-0.15950981182755009
795,0.7856,0.00260508,1112.89,0.00329308,0.0137579,0.000315543,0.0494445,-0.15521,0.331311,-0.17396,4.94185e-06,2.49431e-05,-2.24145e-05,0.34161,-0.14376465082102519,4.941862211005343e-06,2.494341108172371e-05,0.3927928835457988,-2.241424879700915e-05,-0.15966948979341578
796,0.7866,0.00260231,1113.09,0.00328969,0.0137931,0.000304263,0.0495469,-0.155379,0.33167,-0.17415,4.96202e-06,2.50039e-05,-2.24799e-05,0.341985,-0.14390934236825625,4.962032310817932e-06,2.500421260021035e-05,0.39329298595400286,-2.2479647328932373e-05,-0.15982913742334992
797,0.7876,0.00259955,1113.29,0.0032863,0.0138281,0.000293012,0.0496491,-0.155548,0.332028,-0.174339,4.98216e-06,2.50646e-05,-2.2545e-05,0.34236,-0.14405400946468205,4.982172411072128e-06,2.5064914119798942e-05,0.39379187413863126,-2.2544745863384286e-05,-0.15998791471145046
798,0.7886,0.00259679,1113.49,0.00328292,0.013863,0.000281791,0.0497509,-0.155717,0.332387,-0.174529,5.00228e-06,2.51252e-05,-2.26097e-05,0.342735,-0.1441986521144344,5.0022925113246686e-06,2.5125515640489482e-05,0.3942923352488412,-2.2609444402688084e-05,-0.16014750184639737
799,0.7896,0.00259403,1113.68,0.00327954,0.0138978,0.000270599,0.0498525,-0.155886,0.332746,-0.174718,5.02237e-06,2.51856e-05,-2.26742e-05,0.34311,-0.1443432703216443,5.022382612018816e-06,2.5185917159831206e-05,0.3947929760568436,-2.26739429423084e-05,-0.16030621896930786
800,0.7906,0.00259127,1113.88,0.00327617,0.0139325,0.000259436,0.0499537,-0.156054,0.333104,-0.174907,5.04243e-06,2.5246e-05,-2.27385e-05,0.343485,-0.14448700857787866,5.042442713154571e-06,2.5246318682947688e-05,0.3952924013340626,-2.2738241482245236e-05,-0.16046490609751674
801,0.7916,0.00258852,1114.08,0.00327279,0.0139671,0.000248302,0.0500547,-0.156223,0.333462,-0.175097,5.06247e-06,2.53063e-05,-2.28024e-05,0.343859,-0.14463157805696403,5.062482814288671e-06,2.530662020716612e-05,0.3957920054375388,-2.2802140027256e-05,-0.16062440261270938
802,0.7926,0.00258577,1114.28,0.00326943,0.0140016,0.000237197,0.0501553,-0.156392,0.33382,-0.175286,5.08248e-06,2.53665e-05,-2.2866e-05,0.344233,-0.14477612310587173,5.082492915864378e-06,2.53668217324865e-05,0.3962917884313035,-2.2865738575017502e-05,-0.1607830296098921
803,0.7936,0.00258303,1114.47,0.00326606,0.014036,0.000226121,0.0502557,-0.15656,0.334179,-0.175475,5.10246e-06,2.54266e-05,-2.29294e-05,0.344608,-0.1449197886489464,5.102473017659648e-06,2.5426923258686784e-05,0.39679314717185954,-2.2929137123317567e-05,-0.16094162662940548
804,0.7946,0.00258029,1114.67,0.0032627,0.0140703,0.000215073,0.0503558,-0.156729,0.334536,-0.175664,5.12242e-06,2.54866e-05,-2.29925e-05,0.344982,-0.14506428499437962,5.122433119675307e-06,2.5486924786211063e-05,0.397291891345938,-2.299223567447939e-05,-0.16110019367691442
805,0.7956,0.00257755,1114.87,0.00325935,0.0141044,0.000204054,0.0504555,-0.156897,0.334894,-0.175853,5.14235e-06,2.55465e-05,-2.30553e-05,0.345356,-0.1452079021303233,5.142363221910529e-06,2.5546826314615245e-05,0.397792211394985,-2.305503422861399e-05,-0.1612587307580835
806,0.7966,0.00257481,1115.06,0.00325599,0.0141385,0.000193064,0.050555,-0.157065,0.335252,-0.176042,5.16226e-06,2.56063e-05,-2.31178e-05,0.34573,-0.14535149514061485,5.162273324588185e-06,2.5606627844121377e-05,0.39829271059067506,-2.3117532785721373e-05,-0.16141723787857543
807,0.7976,0.00257208,1115.26,0.00325265,0.0141725,0.000182102,0.0506542,-0.157234,0.335609,-0.176231,5.18214e-06,2.56659e-05,-2.31801e-05,0.346103,-0.1454959185338156,5.1821534272633585e-06,2.5666229372056648e-05,0.3987919902044641,-2.3179831343589363e-05,-0.16157571504405255
808,0.7986,0.00256936,1115.46,0.0032493,0.0142063,0.000171168,0.0507531,-0.157402,0.335967,-0.17642,5.20199e-06,2.57255e-05,-2.3242e-05,0.346477,-0.14563946316141563,5.202003530380139e-06,2.5725830903544633e-05,0.39929284738504345,-2.324172990686435e-05,-0.16173416226017556
809,0.7996,0.00256663,1115.65,0.00324596,0.0142401,0.000160263,0.0508516,-0.15757,0.336324,-0.176608,5.22181e-06,2.5785e-05,-2.33037e-05,0.34685,-0.14578298367554376,5.2218236337164825e-06,2.5785332435912522e-05,0.3997924841114091,-2.3303428470899945e-05,-0.16189174142476503
810,0.8006,0.00256391,1115.85,0.00324263,0.0142737,0.000149386,0.0509499,-0.157738,0.336681,-0.176797,5.24161e-06,2.58444e-05,-2.33651e-05,0.347224,-0.14592648008025078,5.2416237372732155e-06,2.584473396938236e-05,0.4002922992399287,-2.3364827038130365e-05,-0.16205012891754633
811,0.8016,0.00256119,1116.04,0.00323929,0.0143072,0.000138537,0.051048,-0.157906,0.337038,-0.176986,5.26139e-06,2.59037e-05,-2.34263e-05,0.347597,-0.14606995237958664,5.261403841050338e-06,2.5904035503732104e-05,0.40079229283430373,-2.3426025606343437e-05,-0.16220848647791997
812,0.8026,0.00255848,1116.24,0.00323597,0.0143407,0.000127716,0.0511457,-0.158074,0.337395,-0.177174,5.28113e-06,2.59629e-05,-2.34871e-05,0.34797,-0.1462134005776009,5.281143945268241e-06,2.596323703896175e-05,0.40129246495825743,-2.348682418018555e-05,-0.16236597647793827
813,0.8036,0.00255577,1116.43,0.00323264,0.014374,0.000116922,0.0512431,-0.158242,0.337752,-0.177363,5.30085e-06,2.6022e-05,-2.35477e-05,0.348343,-0.1463568246783421,5.300864049484488e-06,2.6022338575071302e-05,0.4017928156755366,-2.354742275512134e-05,-0.16252427434876393
814,0.8046,0.00255307,1116.63,0.00322932,0.0144072,0.000106157,0.0513403,-0.15841,0.338108,-0.177551,5.32055e-06,2.6081e-05,-2.3608e-05,0.348715,-0.14650022468585822,5.32056415414317e-06,2.6081340112282803e-05,0.4022919427572662,-2.3607721333362974e-05,-0.1626817049862428
815,0.8056,0.00255036,1116.82,0.00322601,0.0144403,9.54196e-05,0.0514371,-0.158578,0.338465,-0.177739,5.34021e-06,2.61399e-05,-2.3668e-05,0.349088,-0.14664360060419657,5.340224259020587e-06,2.6140241650152163e-05,0.4027926503518182,-2.36677199151325e-05,-0.16283910602954366
816,0.8066,0.00254766,1117.02,0.00322269,0.0144734,8.47097e-05,0.0515337,-0.158746,0.338821,-0.177928,5.35986e-06,2.61987e-05,-2.37278e-05,0.34946,-0.14678695243740392,5.3598743641192215e-06,2.6199043188901427e-05,0.4032921334380575,-2.3727518497995703e-05,-0.1629973144873339
817,0.8076,0.00254497,1117.21,0.00321938,0.0145063,7.40274e-05,0.05163,-0.158913,0.339177,-0.178116,5.37947e-06,2.62574e-05,-2.37873e-05,0.349833,-0.14692942711937984,5.379484469436591e-06,2.6257744728530596e-05,0.4037917943719307,-2.3787017084386797e-05,-0.16315465620162573
818,0.8086,0.00254228,1117.4,0.00321608,0.0145391,6.33725e-05,0.051726,-0.159081,0.339534,-0.178304,5.39906e-06,2.6316e-05,-2.38465e-05,0.350205,-0.14707273093776596,5.39907457497435e-06,2.631634626903967e-05,0.40429303750909784,-2.3846215674527826e-05,-0.16331196833845563
819,0.8096,0.00253959,1117.6,0.00321278,0.0145718,5.2745e-05,0.0518217,-0.159248,0.33989,-0.178492,5.41863e-06,2.63745e-05,-2.39055e-05,0.350577,-0.1472151578987171,5.418644680732498e-06,2.6374847810206603e-05,0.404793054828253,-2.390521426576253e-05,-0.1634692509033836
820,0.8106,0.0025369,1117.79,0.00320948,0.0146044,4.21448e-05,0.0519171,-0.159416,0.340245,-0.17868,5.43816e-06,2.6433e-05,-2.39641e-05,0.350949,-0.14735841371836433,5.438174786709382e-06,2.643334935492625e-05,0.4052918448927152,-2.396381286329241e-05,-0.16362650390196876
821,0.8116,0.00253422,1117.98,0.00320619,0.0146369,3.15719e-05,0.0520123,-0.159583,0.340601,-0.178868,5.45767e-06,2.64913e-05,-2.40226e-05,0.351321,-0.14750079297427465,5.4576848931287e-06,2.6491650897630947e-05,0.4057922178505988,-2.4022311459703793e-05,-0.16378372733976898
822,0.8126,0.00253154,1118.17,0.0032029,0.0146693,2.10261e-05,0.0521071,-0.159751,0.340957,-0.179056,5.47716e-06,2.65495e-05,-2.40807e-05,0.351693,-0.14764400081125983,5.477174999768408e-06,2.6549852440993504e-05,0.40629276897296696,-2.408041006229933e-05,-0.16394092122234116
823,0.8136,0.00252887,1118.37,0.00319962,0.0147016,1.05073e-05,0.0522017,-0.159918,0.341312,-0.179243,5.49662e-06,2.66076e-05,-2.41386e-05,0.352064,-0.14778633237810768,5.496635106405634e-06,2.6607953985235966e-05,0.40679209153046236,-2.4138308666321606e-05,-0.16409724965290873
824,0.8146,0.00252619,1118.56,0.00319633,0.0147338,1.54833e-08,0.052296,-0.160085,0.341668,-0.179431,5.51605e-06,2.66657e-05,-2.41962e-05,0.352436,-0.14792864017756857,5.516065213484467e-06,2.666605553303114e-05,0.40729299867122815,-2.4195907274315864e-05,-0.16425438459882624
825,0.8156,0.00252352,1118.75,0.00319306,0.0147659,-1.04494e-05,0.05239,-0.160253,0.342023,-0.179619,5.53546e-06,2.67236e-05,-2.42535e-05,0.352807,-0.14807177614226108,5.535475320783689e-06,2.6723957078589322e-05,0.40779267637330086,-2.4253205886282103e-05,-0.16441149000615063
826,0.8166,0.00252086,1118.94,0.00318978,0.0147979,-2.08876e-05,0.0524838,-0.16042,0.342378,-0.179806,5.55485e-06,2.67814e-05,-2.43106e-05,0.353178,-0.14821403627659346,5.554865428303302e-06,2.6781758624805363e-05,0.4082925314924475,-2.4310304499786106e-05,-0.16456773044858286
827,0.8176,0.0025182,1119.13,0.00318651,0.0148297,-3.1299e-05,0.0525772,-0.160587,0.342733,-0.179994,5.5742e-06,2.68392e-05,-2.43675e-05,0.353549,-0.14835627265546703,5.574215535819604e-06,2.6839560174574117e-05,0.4087925640916623,-2.4367203114827873e-05,-0.1647247769524246
828,0.8186,0.00251554,1119.32,0.00318325,0.0148615,-4.16838e-05,0.0526704,-0.160754,0.343088,-0.180181,5.59353e-06,2.68968e-05,-2.4424e-05,0.35392,-0.1484984852828487,5.5935456437783415e-06,2.6897161722105878e-05,0.4092927742339618,-2.4423701736497883e-05,-0.16488095881567522
829,0.8196,0.00251289,1119.52,0.00317999,0.0148932,-5.2042e-05,0.0527633,-0.160921,0.343442,-0.180369,5.61284e-06,2.69544e-05,-2.44803e-05,0.354291,-0.14864067416270454,5.6128557519574684e-06,2.6954763273190352e-05,0.40979175218992814,-2.44800003599277e-05,-0.16503794643811898
830,0.8206,0.00251023,1119.71,0.00317673,0.0149248,-6.23738e-05,0.0528559,-0.161088,0.343797,-0.180556,5.63212e-06,2.70119e-05,-2.45363e-05,0.354662,-0.14878283929900005,5.632135860356158e-06,2.701226482471064e-05,0.4102923171069712,-2.453599898744052e-05,-0.16519406974415096
831,0.8216,0.00250759,1119.9,0.00317347,0.0149563,-7.26792e-05,0.0529483,-0.161255,0.344152,-0.180743,5.65137e-06,2.70692e-05,-2.45921e-05,0.355032,-0.14892498069570015,5.6513859689744095e-06,2.7069566373993936e-05,0.4107930597561056,-2.4591797616824174e-05,-0.16535016385785428
832,0.8226,0.00250494,1120.09,0.00317022,0.0149877,-8.29583e-05,0.0530404,-0.161421,0.344506,-0.180931,5.6706e-06,2.71265e-05,-2.46476e-05,0.355403,-0.14906624742344188,5.670616077813051e-06,2.7126867926829945e-05,0.4112925689071627,-2.464729625040185e-05,-0.16550706327804143
833,0.8236,0.0025023,1120.28,0.00316698,0.015019,-9.32112e-05,0.0531322,-0.161588,0.34486,-0.181118,5.6898e-06,2.71837e-05,-2.47029e-05,0.355773,-0.149208341494937,5.689816186871255e-06,2.718406948010177e-05,0.4117922549157611,-2.470259488585036e-05,-0.16566309886742603
834,0.8246,0.00249966,1120.47,0.00316373,0.0150501,-0.000103438,0.0532237,-0.161755,0.345214,-0.181305,5.70898e-06,2.72408e-05,-2.47579e-05,0.356143,-0.14935041183870346,5.708996296149849e-06,2.7241171034031453e-05,0.4122921178445196,-2.4757593525714938e-05,-0.16581910528088362
835,0.8256,0.00249703,1120.66,0.00316049,0.0150812,-0.000113639,0.053315,-0.161922,0.345568,-0.181492,5.72813e-06,2.72978e-05,-2.48126e-05,0.356513,-0.14949245845870351,5.728146405870049e-06,2.7298172588396952e-05,0.4127921577560789,-2.4812292169995587e-05,-0.16597508252386928
836,0.8266,0.0024944,1120.85,0.00315726,0.0151122,-0.000123813,0.0534059,-0.162088,0.345922,-0.181679,5.74726e-06,2.73547e-05,-2.48671e-05,0.356883,-0.1496336309929548,5.747276515588595e-06,2.7355074143198266e-05,0.4132923747131023,-2.486679081625809e-05,-0.16613103060183765
837,0.8276,0.00249177,1121.03,0.00315403,0.0151431,-0.000133962,0.0534966,-0.162255,0.346276,-0.181865,5.76636e-06,2.74115e-05,-2.49213e-05,0.357253,-0.1497756303193052,5.7663766255267035e-06,2.741187569865744e-05,0.41379276877827453,-2.492098946693666e-05,-0.16628611580677455
838,0.8286,0.00248914,1121.22,0.0031508,0.0151739,-0.000144085,0.0535871,-0.162421,0.346629,-0.182052,5.78543e-06,2.74682e-05,-2.49753e-05,0.357622,-0.149916755850929,5.785446735684374e-06,2.746857725455243e-05,0.4142919257216706,-2.497498811981913e-05,-0.16644200572695678
839,0.8296,0.00248652,1121.41,0.00314758,0.0152046,-0.000154182,0.0536772,-0.162587,0.346983,-0.182239,5.80448e-06,2.75248e-05,-2.5029e-05,0.357992,-0.1500578579576589,5.804496846062435e-06,2.7525178810883233e-05,0.4147926736905372,-2.5028686777228693e-05,-0.16659786649844954
840,0.8306,0.0024839,1121.6,0.00314436,0.0152352,-0.000164254,0.0537671,-0.162754,0.347336,-0.182426,5.82351e-06,2.75814e-05,-2.50825e-05,0.358361,-0.15019978644402143,5.823526956660885e-06,2.758178037032266e-05,0.41529218366267306,-2.508218543673113e-05,-0.16675369812670304
841,0.8316,0.00248129,1121.79,0.00314114,0.0152657,-0.0001743,0.0538568,-0.16292,0.347689,-0.182612,5.84251e-06,2.76378e-05,-2.51357e-05,0.35873,-0.15034084157157224,5.842527067478898e-06,2.7638181927525096e-05,0.4157918699929546,-2.5135384100982705e-05,-0.16690866752625055
842,0.8326,0.00247868,1121.98,0.00313793,0.0152961,-0.00018432,0.0539461,-0.163086,0.348043,-0.182799,5.86148e-06,2.76942e-05,-2.51887e-05,0.3591,-0.15048187328591522,5.861497178516473e-06,2.7694583487836155e-05,0.4162931490360877,-2.5188382767327155e-05,-0.16706444104014562
843,0.8336,0.00247607,1122.16,0.00313472,0.0153264,-0.000194316,0.0540352,-0.163252,0.348395,-0.182985,5.88043e-06,2.77504e-05,-2.52414e-05,0.359469,-0.15062288159093662,5.8804472897744375e-06,2.775078504591022e-05,0.41679177197703776,-2.5241081438531765e-05,-0.16721935264688614
844,0.8346,0.00247347,1122.35,0.00313152,0.0153566,-0.000204285,0.054124,-0.163418,0.348748,-0.183172,5.89935e-06,2.78066e-05,-2.52939e-05,0.359837,-0.1507638664905222,5.899367401251965e-06,2.780698660709291e-05,0.4172919877554362,-2.5293580112051295e-05,-0.16737506806809543
845,0.8356,0.00247086,1122.54,0.00312832,0.0153867,-0.00021423,0.0542126,-0.163584,0.349101,-0.183358,5.91825e-06,2.78627e-05,-2.53461e-05,0.360206,-0.15090482798855664,5.918267512949882e-06,2.7863088168711414e-05,0.4177923801411738,-2.534577879031996e-05,-0.16752992190358162
846,0.8366,0.00246827,1122.73,0.00312512,0.0154167,-0.000224149,0.0543009,-0.16375,0.349454,-0.183544,5.93712e-06,2.79186e-05,-2.5398e-05,0.360575,-0.15104576608892462,5.937137624645317e-06,2.7918989727648835e-05,0.41829294919660387,-2.539767747355981e-05,-0.16768474693893298
847,0.8376,0.00246567,1122.91,0.00312192,0.0154466,-0.000234043,0.0543889,-0.163916,0.349806,-0.18373,5.95597e-06,2.79745e-05,-2.54497e-05,0.360943,-0.15118668079550968,5.955987736783186e-06,2.7974891289916926e-05,0.4187922761911165,-2.544937615911458e-05,-0.16783954317950567
848,0.8386,0.00246308,1123.1,0.00311874,0.0154764,-0.000243913,0.0544767,-0.164082,0.350158,-0.183917,5.97479e-06,2.80303e-05,-2.55012e-05,0.361311,-0.15132757211219472,5.974807849140618e-06,2.803069285262083e-05,0.41929177897966907,-2.5500874847206312e-05,-0.16799514263592852
849,0.8396,0.00246049,1123.29,0.00311555,0.0155061,-0.000253757,0.0545642,-0.164248,0.350511,-0.184103,5.99359e-06,2.80861e-05,-2.55524e-05,0.36168,-0.15146844004286242,5.993607961496394e-06,2.8086494418211316e-05,0.41979287741631954,-2.5552073540158204e-05,-0.16814988114827045
850,0.8406,0.00245791,1123.47,0.00311237,0.0155357,-0.000263576,0.0546514,-0.164414,0.350863,-0.184289,6.01236e-06,2.81417e-05,-2.56034e-05,0.362048,-0.15160928459139433,6.012378074293778e-06,2.8142095981342763e-05,0.42029273247849974,-2.5603072235758084e-05,-0.16830459088192562
851,0.8416,0.00245533,1123.66,0.00310919,0.0155653,-0.000273371,0.0547384,-0.164579,0.351215,-0.184475,6.03111e-06,2.81972e-05,-2.56541e-05,0.362416,-0.15174925751135326,6.031128187089507e-06,2.819759754468798e-05,0.42079276352063255,-2.5653770936440168e-05,-0.1684592718422463
852,0.8426,0.00245275,1123.84,0.00310602,0.0155947,-0.00028314,0.0548251,-0.164745,0.351567,-0.18466,6.04984e-06,2.82526e-05,-2.57046e-05,0.362783,-0.15189005544805434,6.049858300327671e-06,2.8252999108469012e-05,0.42129297060467397,-2.5704269639548194e-05,-0.1686130926480922
853,0.8436,0.00245017,1124.03,0.00310284,0.015624,-0.000292886,0.0549115,-0.164911,0.351918,-0.184846,6.06853e-06,2.8308e-05,-2.57548e-05,0.363151,-0.15203083001423767,6.0685484135625245e-06,2.8308400675136625e-05,0.42179193199995835,-2.575446834796047e-05,-0.1687677162324206
854,0.8446,0.0024476,1124.21,0.00309968,0.0156532,-0.000302606,0.0549977,-0.165076,0.35227,-0.185032,6.08721e-06,2.83633e-05,-2.58048e-05,0.363519,-0.15217073338493992,6.0872285270185955e-06,2.8363702242240052e-05,0.42229249085321197,-2.580446705902073e-05,-0.16892231105943678
855,0.8456,0.00244503,1124.4,0.00309651,0.0156824,-0.000312302,0.0550836,-0.165242,0.352621,-0.185218,6.10585e-06,2.84184e-05,-2.58546e-05,0.363886,-0.15231146136245266,6.1058686406934015e-06,2.8418803806662396e-05,0.42279180314168174,-2.585426577272898e-05,-0.16907687713448905
856,0.8466,0.00244247,1124.58,0.00309335,0.0157114,-0.000321974,0.0551693,-0.165407,0.352973,-0.185403,6.12448e-06,2.84735e-05,-2.59041e-05,0.364253,-0.15245131843280224,6.124498754589425e-06,2.847390537397132e-05,0.4232927140115288,-2.5903764491741477e-05,-0.16923058369392407
857,0.8476,0.0024399,1124.77,0.0030902,0.0157404,-0.000331621,0.0552547,-0.165572,0.353324,-0.185589,6.14307e-06,2.85285e-05,-2.59534e-05,0.364621,-0.15259115242863897,6.143088868704183e-06,2.8528906941494014e-05,0.4237923774399486,-2.595306321340196e-05,-0.16938509243559863
858,0.8486,0.00243735,1124.95,0.00308705,0.0157692,-0.000341244,0.0553399,-0.165738,0.353675,-0.185774,6.16165e-06,2.85834e-05,-2.60024e-05,0.364988,-0.15273181062238272,6.161668983040158e-06,2.858380850923048e-05,0.42429221628101477,-2.6002061940477716e-05,-0.16953874198047691
859,0.8496,0.00243479,1125.14,0.0030839,0.015798,-0.000350843,0.0554248,-0.165903,0.354026,-0.18596,6.1802e-06,2.86382e-05,-2.60512e-05,0.365355,-0.1528715983408261,6.1802190973736515e-06,2.8638610077180715e-05,0.42479223059630833,-2.6050860670423504e-05,-0.1696931934100403
860,0.8506,0.00243224,1125.32,0.00308075,0.0158267,-0.000360418,0.0555094,-0.166068,0.354377,-0.186145,6.19872e-06,2.8693e-05,-2.60997e-05,0.365721,-0.15301136299619866,6.198739212148752e-06,2.869341164801753e-05,0.4252924204474311,-2.609935940578456e-05,-0.16984678596151037
861,0.8516,0.00242969,1125.5,0.00307761,0.0158552,-0.000369968,0.0555938,-0.166233,0.354728,-0.18633,6.21722e-06,2.87476e-05,-2.61481e-05,0.366088,-0.15315110459230563,6.217239326922197e-06,2.8748013216173263e-05,0.42579278589600733,-2.614775814135939e-05,-0.17000035010098657
862,0.8526,0.00242714,1125.69,0.00307448,0.0158837,-0.000379495,0.0556779,-0.166398,0.355078,-0.186516,6.23569e-06,2.88022e-05,-2.61961e-05,0.366455,-0.15329082313295128,6.235709441915205e-06,2.880261478743762e-05,0.42629190071106837,-2.6195756885116772e-05,-0.17015471567942397
863,0.8536,0.0024246,1125.87,0.00307134,0.0159121,-0.000388998,0.0557618,-0.166563,0.355429,-0.186701,6.25414e-06,2.88566e-05,-2.6244e-05,0.366821,-0.15343051862193957,6.254159557128602e-06,2.8857016355576803e-05,0.4267926170387928,-2.6243655629198948e-05,-0.1703082228571715
864,0.8546,0.00242206,1126.05,0.00306821,0.0159404,-0.000398476,0.0558454,-0.166728,0.355779,-0.186886,6.27257e-06,2.8911e-05,-2.62916e-05,0.367187,-0.15357019106307368,6.27258967256239e-06,2.8911417927046656e-05,0.42729208185600065,-2.6291254378918438e-05,-0.17046170163871788
865,0.8556,0.00241952,1126.24,0.00306509,0.0159686,-0.000407932,0.0559287,-0.166893,0.35613,-0.187071,6.29097e-06,2.89653e-05,-2.63389e-05,0.367553,-0.15370984046015623,6.2909897882157395e-06,2.896571949828619e-05,0.42779314930892576,-2.6338553134164222e-05,-0.170615152029316
866,0.8566,0.00241699,1126.42,0.00306197,0.0159967,-0.000417363,0.0560118,-0.167058,0.35648,-0.187256,6.30934e-06,2.90195e-05,-2.63861e-05,0.367919,-0.15384946681698908,6.309359903866607e-06,2.9019921069739496e-05,0.4282929643737179,-2.6385751889956843e-05,-0.17076857403421752
867,0.8576,0.00241446,1126.6,0.00305885,0.0160247,-0.000426771,0.0560947,-0.167223,0.35683,-0.187441,6.32769e-06,2.90736e-05,-2.6433e-05,0.368285,-0.15398907013737362,6.327710019959909e-06,2.9074022641184527e-05,0.4287929544044,-2.643265065138678e-05,-0.1709219676586734
868,0.8586,0.00241193,1126.78,0.00305573,0.0160526,-0.000436155,0.0561773,-0.167387,0.35718,-0.187625,6.34602e-06,2.91277e-05,-2.64796e-05,0.368651,-0.15412780455333797,6.346040136051556e-06,2.9128124215516138e-05,0.42929311946222093,-2.647924941845403e-05,-0.17107450398285207
869,0.8596,0.00240941,1126.97,0.00305262,0.0160804,-0.000445516,0.0562597,-0.167552,0.357529,-0.18781,6.36432e-06,2.91816e-05,-2.65261e-05,0.369017,-0.1542673619517847,6.364340252362766e-06,2.918202578694462e-05,0.42979202981570586,-2.652574818606812e-05,-0.17122784101550237
870,0.8606,0.00240689,1127.15,0.00304951,0.0161081,-0.000454853,0.0563418,-0.167717,0.357879,-0.187995,6.3826e-06,2.92355e-05,-2.65723e-05,0.369382,-0.15440689632516036,6.382620368894365e-06,2.923592736148173e-05,0.4302925446111212,-2.657194695954157e-05,-0.17138114968342555
871,0.8616,0.00240437,1127.33,0.00304641,0.0161358,-0.000464167,0.0564236,-0.167881,0.358228,-0.18818,6.40085e-06,2.92892e-05,-2.66183e-05,0.369748,-0.15454556222324856,6.400870485423482e-06,2.9289628932893663e-05,0.4307918038248557,-2.6617945736218118e-05,-0.1715344299918684
872,0.8626,0.00240186,1127.51,0.00304331,0.0161633,-0.000473458,0.0565052,-0.168046,0.358578,-0.188364,6.41908e-06,2.93429e-05,-2.6664e-05,0.370113,-0.15468505069736616,6.419100602395034e-06,2.9343330507192178e-05,0.43129266860241744,-2.6663644518754026e-05,-0.1716868536333448
873,0.8636,0.00239935,1127.69,0.00304021,0.0161908,-0.000482725,0.0565866,-0.16821,0.358927,-0.188549,6.43728e-06,2.93965e-05,-2.67095e-05,0.370478,-0.15482367098187777,6.437300719364103e-06,2.9396932081260374e-05,0.43179227692034017,-2.6709143304493033e-05,-0.17184007739178797
874,0.8646,0.00239684,1127.87,0.00303712,0.0162182,-0.000491969,0.0566677,-0.168374,0.359276,-0.188733,6.45546e-06,2.945e-05,-2.67548e-05,0.370843,-0.15496226853452677,6.455480836553562e-06,2.945043365554234e-05,0.4322920596319957,-2.675444209354616e-05,-0.17199244479931652
875,0.8656,0.00239433,1128.05,0.00303403,0.0162454,-0.000501191,0.0567485,-0.168539,0.359625,-0.188918,6.47362e-06,2.95035e-05,-2.67998e-05,0.371208,-0.15510168825777504,6.473640953963411e-06,2.9503935232488843e-05,0.4327920167982582,-2.679944088856967e-05,-0.1721456120286231
876,0.8666,0.00239183,1128.23,0.00303095,0.0162726,-0.000510389,0.0568291,-0.168703,0.359974,-0.189102,6.49175e-06,2.95568e-05,-2.68447e-05,0.371573,-0.15524024021932936,6.491771071370778e-06,2.9557236806532217e-05,0.43329214848002295,-2.684433968425104e-05,-0.17229792322295023
877,0.8676,0.00238933,1128.41,0.00302786,0.0162997,-0.000519564,0.0569095,-0.168867,0.360323,-0.189286,6.50986e-06,2.96101e-05,-2.68893e-05,0.371937,-0.15537876946022522,6.509881189220579e-06,2.9610538383240126e-05,0.4337924547382064,-2.6888938486013814e-05,-0.17245020639459574
878,0.8686,0.00238684,1128.59,0.00302479,0.0163267,-0.000528717,0.0569896,-0.169031,0.360672,-0.18947,6.52794e-06,2.96632e-05,-2.69336e-05,0.372302,-0.1555172759841883,6.527961307067898e-06,2.9663639957044907e-05,0.43429293563374616,-2.6933237293857992e-05,-0.1726024615487154
879,0.8696,0.00238435,1128.77,0.00302171,0.0163536,-0.000537847,0.0570695,-0.169195,0.36102,-0.189654,6.546e-06,2.97163e-05,-2.69778e-05,0.372666,-0.15565575979494406,6.546021425135606e-06,2.9716741533514224e-05,0.4347921564347281,-2.6977436102471053e-05,-0.17275468869046395
880,0.8706,0.00238186,1128.95,0.00301864,0.0163804,-0.000546954,0.0571491,-0.169359,0.361369,-0.189838,6.56403e-06,2.97693e-05,-2.70217e-05,0.37303,-0.15579422089621697,6.564051543200833e-06,2.9769743109975266e-05,0.4352929862870496,-2.7021334917165518e-05,-0.17290688782499508
881,0.8716,0.00237937,1129.13,0.00301557,0.0164071,-0.000556038,0.0572285,-0.169523,0.361717,-0.190022,6.58204e-06,2.98223e-05,-2.70654e-05,0.373395,-0.15593265929173128,6.582061661708494e-06,2.9822744689100844e-05,0.43579255516622073,-2.706503373539615e-05,-0.17305905895746176
882,0.8726,0.00237689,1129.31,0.00301251,0.0164338,-0.0005651,0.0573076,-0.169687,0.362065,-0.190206,6.60003e-06,2.98751e-05,-2.71088e-05,0.373759,-0.15607107498521033,6.6000517802145e-06,2.9875546265323294e-05,0.4362922979256154,-2.7108432559819207e-05,-0.17321120209301588
883,0.8736,0.00237441,1129.49,0.00300945,0.0164603,-0.000574139,0.0573865,-0.169851,0.362413,-0.19039,6.61799e-06,2.99279e-05,-2.71521e-05,0.374122,-0.15620946798037705,6.618011898940068e-06,2.9928347843988234e-05,0.4367922146257541,-2.715173138512217e-05,-0.17336331723680842
884,0.8746,0.00237193,1129.67,0.00300639,0.0164868,-0.000583156,0.0574652,-0.170015,0.362761,-0.190574,6.63593e-06,2.99805e-05,-2.71951e-05,0.374486,-0.15634783828095344,6.6359520178860265e-06,2.9980949419750047e-05,0.4372923053271789,-2.7194730216617558e-05,-0.17351540439398927
885,0.8756,0.00236946,1129.85,0.00300334,0.0165131,-0.00059215,0.0575436,-0.170179,0.363109,-0.190758,6.65384e-06,3.00331e-05,-2.72379e-05,0.37485,-0.15648618589066132,6.6538621368295026e-06,3.003355099795435e-05,0.437792570090453,-2.7237529051760134e-05,-0.17366746356970764
886,0.8766,0.00236699,1130.03,0.00300029,0.0165394,-0.000601122,0.0576217,-0.170342,0.363457,-0.190941,6.67173e-06,3.00856e-05,-2.72805e-05,0.375213,-0.1566236674373107,6.671752255993368e-06,3.008605257615038e-05,0.4382930089761601,-2.72801278905499e-05,-0.17381866858819317
887,0.8776,0.00236452,1130.21,0.00299725,0.0165656,-0.000610072,0.0576997,-0.170506,0.363804,-0.191125,6.68959e-06,3.0138e-05,-2.73229e-05,0.375577,-0.156761969814746,6.689612375376797e-06,3.013845415411609e-05,0.438792183252003,-2.732252673298685e-05,-0.17397067196843308
888,0.8786,0.00236206,1130.38,0.0029942,0.0165917,-0.000619,0.0577774,-0.170669,0.364152,-0.191309,6.70743e-06,3.01904e-05,-2.7365e-05,0.37594,-0.15689940641227917,6.70745249475857e-06,3.0190855734746336e-05,0.4392929700636259,-2.7364625581838276e-05,-0.17412264738262406
889,0.8796,0.0023596,1130.56,0.00299116,0.0166177,-0.000627905,0.0578548,-0.170833,0.364499,-0.191492,6.72525e-06,3.02426e-05,-2.74069e-05,0.376303,-0.1570376635722306,6.725272614582778e-06,3.0243057312029364e-05,0.43979249138617527,-2.7406524434336887e-05,-0.17427376911009318
890,0.8806,0.00235714,1130.74,0.00298813,0.0166436,-0.000636789,0.057932,-0.170996,0.364846,-0.191675,6.74305e-06,3.02948e-05,-2.74486e-05,0.376666,-0.15717505523534359,6.743072734405331e-06,3.029525889197693e-05,0.4402921860727005,-2.744822329059371e-05,-0.17442486318481654
891,0.8816,0.00235469,1130.92,0.0029851,0.0166695,-0.00064565,0.058009,-0.17116,0.365193,-0.191859,6.76081e-06,3.03469e-05,-2.74901e-05,0.377029,-0.15731326719259475,6.760832854224574e-06,3.0347360471916218e-05,0.440792054183369,-2.7489722150608742e-05,-0.17457675503551173
892,0.8826,0.00235223,1131.09,0.00298207,0.0166952,-0.00065449,0.0580857,-0.171323,0.36554,-0.192042,6.77856e-06,3.03989e-05,-2.75314e-05,0.377392,-0.1574506139359787,6.77858297448708e-06,3.03993620511811e-05,0.4412920957783699,-2.7531021014493007e-05,-0.1747277936688838
893,0.8836,0.00234978,1131.27,0.00297905,0.0167209,-0.000663307,0.0581622,-0.171486,0.365887,-0.192225,6.79628e-06,3.04508e-05,-2.75724e-05,0.377754,-0.1575879382936679,6.796303094747103e-06,3.0451263630215664e-05,0.4417923109179127,-2.7572019884902765e-05,-0.17487880466471484
894,0.8846,0.00234734,1131.45,0.00297603,0.0167464,-0.000672103,0.0582385,-0.17165,0.366234,-0.192409,6.81398e-06,3.05027e-05,-2.76133e-05,0.378117,-0.15772608254364961,6.814003215227515e-06,3.0503165212136807e-05,0.4422926996622274,-2.761291875630345e-05,-0.1750306129978616
895,0.8856,0.0023449,1131.62,0.00297301,0.0167719,-0.000680877,0.0583145,-0.171813,0.36658,-0.192592,6.83165e-06,3.05544e-05,-2.76539e-05,0.378479,-0.15786336200361506,6.831673335705446e-06,3.055486679048869e-05,0.4427918192790248,-2.7653517634451674e-05,-0.17518156858282563
896,0.8866,0.00234246,1131.8,0.00297,0.0167973,-0.00068963,0.0583903,-0.171976,0.366927,-0.192775,6.8493e-06,3.06061e-05,-2.76943e-05,0.378841,-0.1580006190888521,6.849323456403766e-06,3.0606568371505105e-05,0.44329255491292274,-2.769391651646913e-05,-0.17533249654544525
897,0.8876,0.00234002,1131.98,0.00296699,0.0168226,-0.00069836,0.0584659,-0.172139,0.367273,-0.192958,6.86693e-06,3.06577e-05,-2.77345e-05,0.379203,-0.1581378538030076,6.8669535773224766e-06,3.065816995206916e-05,0.4437920205394932,-2.773411540235582e-05,-0.17548339689077463
898,0.8886,0.00233759,1132.15,0.00296398,0.0168478,-0.00070707,0.0585412,-0.172302,0.36762,-0.193141,6.88453e-06,3.07092e-05,-2.77744e-05,0.379565,-0.15827506614972764,6.884553698460749e-06,3.0709671532402893e-05,0.44429310330345184,-2.7774014294879024e-05,-0.17563426962386752
899,0.8896,0.00233516,1132.33,0.00296098,0.016873,-0.000715757,0.0586163,-0.172465,0.367966,-0.193323,6.90211e-06,3.07606e-05,-2.78142e-05,0.379927,-0.15841225613265786,6.902133819597367e-06,3.076107311206222e-05,0.44479291517966324,-2.7813813188726222e-05,-0.17578429053447908
900,0.8906,0.00233273,1132.5,0.00295798,0.016898,-0.000724424,0.0586911,-0.172628,0.368312,-0.193506,6.91967e-06,3.0812e-05,-2.78538e-05,0.380289,-0.15854942375544323,6.9196939409543745e-06,3.081247469460813e-05,0.4452929000207049,-2.7853412086553675e-05,-0.1759351082090731
901,0.8916,0.0023303,1132.68,0.00295498,0.016923,-0.000733069,0.0587658,-0.172791,0.368658,-0.193689,6.9372e-06,3.08633e-05,-2.78931e-05,0.380651,-0.15868656902172829,6.9372240625309445e-06,3.0863776276479626e-05,0.4457930578864331,-2.7892710991128666e-05,-0.17608589828655796
902,0.8926,0.00232788,1132.85,0.00295199,0.0169478,-0.000741693,0.0588401,-0.172953,0.369003,-0.193872,6.9547e-06,3.09145e-05,-2.79322e-05,0.381012,-0.15882285075842806,6.954724183882988e-06,3.091497785812081e-05,0.446291942544059,-2.7931809899683913e-05,-0.1762366607719833
903,0.8936,0.00232547,1133.03,0.002949,0.0169726,-0.000750295,0.0589143,-0.173116,0.369349,-0.194054,6.97219e-06,3.09656e-05,-2.79711e-05,0.381374,-0.15895995145974373,6.972214305678293e-06,3.096607943908758e-05,0.44679244613830793,-2.7970708812441458e-05,-0.17638657205738206
904,0.8946,0.00232305,1133.2,0.00294602,0.0169973,-0.000758877,0.0589882,-0.173279,0.369695,-0.194237,6.98965e-06,3.10166e-05,-2.80098e-05,0.381735,-0.15909702981546625,6.98967442769316e-06,3.101708101960199e-05,0.44729312293676293,-2.800940772917926e-05,-0.17653727952454168
905,0.8956,0.00232064,1133.38,0.00294304,0.0170219,-0.000767437,0.0590619,-0.173441,0.37004,-0.194419,7.00709e-06,3.10676e-05,-2.80483e-05,0.382096,-0.15923324506290326,7.0071145497063725e-06,3.106808260278093e-05,0.4477925252061141,-2.804790665011936e-05,-0.17668713610230602
906,0.8966,0.00231823,1133.55,0.00294006,0.0170464,-0.000775976,0.0591354,-0.173604,0.370385,-0.194602,7.0245e-06,3.11184e-05,-2.80866e-05,0.382457,-0.1593702788753989,7.0245246719391474e-06,3.1118884182390616e-05,0.44829209979897233,-2.8086205575150736e-05,-0.17683778857127797
907,0.8976,0.00231582,1133.73,0.00293708,0.0170709,-0.000784494,0.0592086,-0.173766,0.37073,-0.194784,7.04189e-06,3.11692e-05,-2.81247e-05,0.382818,-0.15950644986007345,7.0419147941702676e-06,3.1169685764664834e-05,0.44879184677479955,-2.8124304504384412e-05,-0.17698759046137247
908,0.8986,0.00231342,1133.9,0.00293411,0.0170952,-0.000792992,0.0592816,-0.173929,0.371075,-0.194966,7.05926e-06,3.12199e-05,-2.81626e-05,0.383179,-0.1596434391438164,7.0592849166217775e-06,3.12203873460426e-05,0.44929176619307776,-2.8162203437709366e-05,-0.17713736509000388
909,0.8996,0.00231102,1134.08,0.00293115,0.0171195,-0.000801468,0.0593544,-0.174091,0.37142,-0.195148,7.0766e-06,3.12706e-05,-2.82002e-05,0.383539,-0.15977956588011166,7.07662503929285e-06,3.1271088930306945e-05,0.44979185811331046,-2.8199802378114924e-05,-0.17728711246213325
910,0.9006,0.00230862,1134.25,0.00292818,0.0171437,-0.000809924,0.059427,-0.174254,0.371765,-0.195331,7.09392e-06,3.13211e-05,-2.82377e-05,0.3839,-0.15991651064957135,7.093945161962267e-06,3.1321590510779984e-05,0.4502921225950207,-2.82373013199555e-05,-0.17743765514547705
911,0.9016,0.00230623,1134.42,0.00292522,0.0171678,-0.000818359,0.0594993,-0.174416,0.37211,-0.195513,7.11121e-06,3.13716e-05,-2.8275e-05,0.38426,-0.16005259315186582,7.111235284629203e-06,3.1372092093695514e-05,0.45079255969775245,-2.8274600265998373e-05,-0.17758734786978947
912,0.9026,0.00230384,1134.6,0.00292227,0.0171918,-0.000826773,0.0595714,-0.174578,0.372455,-0.195695,7.12849e-06,3.1422e-05,-2.8312e-05,0.38462,-0.16018865361058054,7.1285154077394e-06,3.142249367615868e-05,0.45129316948107023,-2.8311599219121852e-05,-0.17773701335250514
913,0.9036,0.00230145,1134.77,0.00291931,0.0172157,-0.000835166,0.0596433,-0.17474,0.372799,-0.195877,7.14574e-06,3.14723e-05,-2.83489e-05,0.38498,-0.16032469202928612,7.145765530847115e-06,3.147279525794744e-05,0.45179250021133344,-2.8348498173680348e-05,-0.17788665159858152
914,0.9046,0.00229906,1134.94,0.00291636,0.0172396,-0.000843539,0.0597149,-0.174902,0.373143,-0.196059,7.16296e-06,3.15226e-05,-2.83855e-05,0.38534,-0.1604607084115529,7.162985653952347e-06,3.152309684240073e-05,0.4522920027409154,-2.8385097135541493e-05,-0.17803626261297534
915,0.9056,0.00229668,1135.11,0.00291342,0.0172633,-0.000851892,0.0597863,-0.175064,0.373488,-0.19624,7.18016e-06,3.15727e-05,-2.84219e-05,0.3857,-0.16059670276095062,7.180185777500014e-06,3.1573198422840676e-05,0.45279312992132903,-2.8421496101604937e-05,-0.17818502458607766
916,0.9066,0.0022943,1135.29,0.00291047,0.017287,-0.000860224,0.0598575,-0.175226,0.373832,-0.196422,7.19734e-06,3.16228e-05,-2.84582e-05,0.38606,-0.16073267508104794,7.197365900823982e-06,3.1623300005945154e-05,0.4532929767267433,-2.845779506921442e-05,-0.17833458130152902
917,0.9076,0.00229192,1135.46,0.00290753,0.0173106,-0.000868536,0.0599285,-0.175388,0.374176,-0.196604,7.2145e-06,3.16728e-05,-2.84942e-05,0.38642,-0.1608686253754137,7.214526024590384e-06,3.1673301588375224e-05,0.4537929955090372,-2.8493794044126552e-05,-0.17848411080013504
918,0.9086,0.00228955,1135.63,0.0029046,0.0173341,-0.000876827,0.0599993,-0.17555,0.374519,-0.196786,7.23163e-06,3.17227e-05,-2.853e-05,0.386779,-0.16100455364761557,7.231656148354304e-06,3.172320317013089e-05,0.4542917320349211,-2.852959302346303e-05,-0.17863361308684866
919,0.9096,0.00228718,1135.8,0.00290167,0.0173575,-0.000885098,0.0600698,-0.175712,0.374863,-0.196967,7.24874e-06,3.17726e-05,-2.85657e-05,0.387139,-0.16114045990122083,7.248766272116569e-06,3.177310475432904e-05,0.45479209444814206,-2.856529200423452e-05,-0.17878226694929955
920,0.9106,0.00228481,1135.98,0.00289874,0.0173808,-0.000893349,0.0601401,-0.175874,0.375207,-0.197149,7.26583e-06,3.18224e-05,-2.86011e-05,0.387498,-0.1612763441397964,7.265856396099224e-06,3.1822906337852785e-05,0.4552926290156418,-2.8600690992419686e-05,-0.1789317149765317
921,0.9116,0.00228245,1136.15,0.00289581,0.0174041,-0.00090158,0.0602102,-0.176035,0.37555,-0.19733,7.28289e-06,3.1872e-05,-2.86363e-05,0.387857,-0.16141136777869525,7.282916520301441e-06,3.1872507917585224e-05,0.45579188000404414,-2.8635889985029195e-05,-0.17908031488742338
922,0.9126,0.00228009,1136.32,0.00289289,0.0174273,-0.000909791,0.06028,-0.176197,0.375894,-0.197512,7.29993e-06,3.19217e-05,-2.86713e-05,0.388216,-0.16154720813374923,7.299956644502004e-06,3.192220950287705e-05,0.4562927585569372,-2.867088898217407e-05,-0.17922970867486687
923,0.9136,0.00227773,1136.49,0.00288997,0.0174504,-0.000917981,0.0603497,-0.176359,0.376237,-0.197693,7.31695e-06,3.19712e-05,-2.87062e-05,0.388575,-0.1616830264844482,7.316976768922956e-06,3.197171108415553e-05,0.45679235264861084,-2.8705787980976005e-05,-0.1793782546537801
924,0.9146,0.00227537,1136.66,0.00288706,0.0174734,-0.000926152,0.0604191,-0.17652,0.37658,-0.197874,7.33394e-06,3.20207e-05,-2.87408e-05,0.388934,-0.1618179846527601,7.333966893341426e-06,3.202121266809854e-05,0.4572921181304499,-2.8740386987191613e-05,-0.17952677374830417
925,0.9156,0.00227302,1136.83,0.00288414,0.0174963,-0.000934303,0.0604883,-0.176682,0.376923,-0.198055,7.35091e-06,3.207e-05,-2.87753e-05,0.389292,-0.1619537591412159,7.350937017980286e-06,3.2070514248028203e-05,0.45779205506125065,-2.877488599506428e-05,-0.17967526596330496
926,0.9166,0.00227067,1137.0,0.00288124,0.0175191,-0.000942434,0.0605573,-0.176843,0.377266,-0.198237,7.36786e-06,3.21194e-05,-2.88095e-05,0.389651,-0.16208867372507874,7.367887142839535e-06,3.2119915833517254e-05,0.45829216349983093,-2.880908501035062e-05,-0.1798245514795055
927,0.9176,0.00226832,1137.17,0.00287833,0.0175419,-0.000950545,0.0606261,-0.177005,0.377609,-0.198418,7.38478e-06,3.21686e-05,-2.88435e-05,0.390009,-0.1622244043654565,7.384807267474258e-06,3.2169117414992954e-05,0.45879244350502746,-2.884308403028335e-05,-0.17997298980161436
928,0.9186,0.00226598,1137.34,0.00287543,0.0175646,-0.000958636,0.0606946,-0.177166,0.377952,-0.198599,7.40168e-06,3.22177e-05,-2.88774e-05,0.390368,-0.1623592753789458,7.401707392551415e-06,3.22182189955722e-05,0.4592928951356978,-2.887698305187314e-05,-0.18012140125881815
929,0.9196,0.00226363,1137.51,0.00287253,0.0175872,-0.000966708,0.0607629,-0.177327,0.378294,-0.19878,7.41856e-06,3.22668e-05,-2.8911e-05,0.390726,-0.16249412467994973,7.418587517626918e-06,3.226732057881598e-05,0.45979205865793116,-2.8910582081098646e-05,-0.1802697858559792
930,0.9206,0.0022613,1137.68,0.00286964,0.0176097,-0.00097476,0.060831,-0.177488,0.378637,-0.198961,7.43542e-06,3.23158e-05,-2.89445e-05,0.391084,-0.16262895227196383,7.435447642700765e-06,3.231632216116331e-05,0.4602928532154076,-2.8944081111981212e-05,-0.1804181435979586
931,0.9216,0.00225896,1137.85,0.00286675,0.0176321,-0.000982792,0.0608989,-0.17765,0.378979,-0.199141,7.45225e-06,3.23648e-05,-2.89778e-05,0.391442,-0.1627645953943062,7.452277767994175e-06,3.236532374573109e-05,0.46079235878179037,-2.897738014762119e-05,-0.18056565505568145
932,0.9226,0.00225663,1138.02,0.00286386,0.0176544,-0.000990805,0.0609666,-0.177811,0.379321,-0.199322,7.46906e-06,3.24136e-05,-2.90108e-05,0.3918,-0.16289937944404065,7.469087893507975e-06,3.241412532650756e-05,0.46129203520829254,-2.9010379190785862e-05,-0.18071395925018197
933,0.9236,0.0022543,1138.19,0.00286097,0.0176767,-0.000998799,0.0610341,-0.177972,0.379663,-0.199503,7.48584e-06,3.24624e-05,-2.90437e-05,0.392157,-0.16303414179528974,7.485868019019293e-06,3.2462926909504475e-05,0.46179188255335757,-2.904327823582964e-05,-0.18086223660405232
934,0.9246,0.00225197,1138.36,0.00285809,0.0176989,-0.00100677,0.0611013,-0.178133,0.380005,-0.199684,7.50261e-06,3.25111e-05,-2.90764e-05,0.392515,-0.16316888245154682,7.5026381447518276e-06,3.251162849160494e-05,0.46229190087545025,-2.9075977285630827e-05,-0.1810104871221504
935,0.9256,0.00224965,1138.53,0.00285522,0.017721,-0.00101473,0.0611684,-0.178294,0.380347,-0.199864,7.51935e-06,3.25597e-05,-2.91089e-05,0.392872,-0.1633036014163045,7.51937827048188e-06,3.256023007280895e-05,0.46279209023305445,-2.9108476340078404e-05,-0.18115789196763432
936,0.9266,0.00224733,1138.7,0.00285234,0.017743,-0.00102266,0.0612352,-0.178455,0.380689,-0.200045,7.53606e-06,3.26083e-05,-2.91412e-05,0.39323,-0.1634382986930547,7.5360883962094505e-06,3.260883165645545e-05,0.4632924506846745,-2.9140775399394414e-05,-0.18130608897695422
937,0.9276,0.00224501,1138.87,0.00284947,0.017765,-0.00103058,0.0613018,-0.178615,0.381031,-0.200225,7.55276e-06,3.26568e-05,-2.91733e-05,0.393587,-0.16357213785784508,7.552788522158238e-06,3.26573332392055e-05,0.46379298228883425,-2.9172874463467835e-05,-0.18145344061889268
938,0.9286,0.00224269,1139.03,0.0028466,0.0177868,-0.00103848,0.0613682,-0.178776,0.381372,-0.200406,7.56943e-06,3.27052e-05,-2.92052e-05,0.393944,-0.1637067919037084,7.569458648104543e-06,3.270573482083705e-05,0.4642922208111251,-2.9204773532298667e-05,-0.18160158413874772
939,0.9296,0.00224038,1139.2,0.00284374,0.0178086,-0.00104635,0.0614344,-0.178937,0.381714,-0.200586,7.58608e-06,3.27535e-05,-2.9237e-05,0.394301,-0.16384142427201553,7.5861087742712385e-06,3.2754036401794195e-05,0.46479309439514327,-2.9236572603119626e-05,-0.1817488825963438
940,0.9306,0.00223807,1139.37,0.00284088,0.0178303,-0.00105421,0.0615003,-0.179098,0.382055,-0.200766,7.60271e-06,3.28017e-05,-2.92685e-05,0.394658,-0.163976034966256,7.6027389006583235e-06,3.280223798163284e-05,0.46529267401381613,-2.9268071681687324e-05,-0.18189615454260366
941,0.9316,0.00223576,1139.54,0.00283802,0.0178519,-0.00106205,0.0615661,-0.179258,0.382396,-0.200947,7.61931e-06,3.28499e-05,-2.92999e-05,0.395014,-0.16410978810012533,7.619339027042926e-06,3.285043956391398e-05,0.4657924240181879,-2.9299470762134128e-05,-0.1820442179384899
942,0.9326,0.00223346,1139.7,0.00283517,0.0178735,-0.00106987,0.0616316,-0.179419,0.382737,-0.201127,7.63589e-06,3.2898e-05,-2.9331e-05,0.395371,-0.1642443555912675,7.635919153425874e-06,3.289854114507662e-05,0.46629234446637025,-2.9330569850438692e-05,-0.18219143672917237
943,0.9336,0.00223116,1139.87,0.00283232,0.0178949,-0.00107768,0.061697,-0.179579,0.383078,-0.201307,7.65245e-06,3.29461e-05,-2.9362e-05,0.395728,-0.1643780657972712,7.652479280029212e-06,3.294664272868175e-05,0.4667924354164943,-2.9361568940733385e-05,-0.18233862902285725
944,0.9346,0.00222886,1140.04,0.00282947,0.0179163,-0.00108546,0.0617621,-0.17974,0.383419,-0.201487,7.66899e-06,3.2994e-05,-2.93928e-05,0.396084,-0.16451259009918096,7.66901940685294e-06,3.299454430805149e-05,0.46729269692671127,-2.939236803589651e-05,-0.1824857948243137
945,0.9356,0.00222656,1140.21,0.00282663,0.0179376,-0.00109322,0.061827,-0.1799,0.38376,-0.201667,7.6855e-06,3.30419e-05,-2.94234e-05,0.39644,-0.16464625739109662,7.68552953345214e-06,3.304244588964167e-05,0.467793129055192,-2.942296713603909e-05,-0.18263293413830972
946,0.9366,0.00222427,1140.37,0.00282379,0.0179588,-0.00110097,0.0618917,-0.18006,0.3841,-0.201847,7.70199e-06,3.30897e-05,-2.94538e-05,0.396796,-0.16477990329795633,7.702019660493775e-06,3.3090247470113354e-05,0.4682922635671294,-2.9453366241050105e-05,-0.1827800469696128
947,0.9376,0.00222198,1140.54,0.00282095,0.01798,-0.00110869,0.0619562,-0.180221,0.384441,-0.202027,7.71846e-06,3.31375e-05,-2.94841e-05,0.397152,-0.16491436290923622,7.718489787311711e-06,3.313804905302753e-05,0.4687930366059565,-2.948366534816227e-05,-0.18292713332298938
948,0.9386,0.0022197,1140.71,0.00281812,0.018001,-0.0011164,0.0620205,-0.180381,0.384781,-0.202206,7.7349e-06,3.31851e-05,-2.95141e-05,0.397508,-0.1650479659226447,7.734929914349209e-06,3.3185650631484265e-05,0.4692925111442623,-2.9513664463243217e-05,-0.18307337627698972
949,0.9396,0.00221741,1140.87,0.00281529,0.018022,-0.00112409,0.0620846,-0.180541,0.385121,-0.202386,7.75133e-06,3.32327e-05,-2.9544e-05,0.397864,-0.165181547561281,7.751360041607924e-06,3.323325221238349e-05,0.4697921555327842,-2.954356358031429e-05,-0.18322040983584253
950,0.9406,0.00221513,1141.04,0.00281246,0.0180429,-0.00113176,0.0621484,-0.180701,0.385461,-0.202566,7.76773e-06,3.32802e-05,-2.95737e-05,0.398219,-0.16531510782856484,7.767760168864157e-06,3.3280753791942175e-05,0.4702919698292809,-2.9573262702475844e-05,-0.18336741693103664
951,0.9416,0.00221285,1141.21,0.00280964,0.0180638,-0.00113942,0.0622121,-0.180861,0.385801,-0.202745,7.7841e-06,3.33277e-05,-2.96032e-05,0.398575,-0.16544864672791548,7.784130296117908e-06,3.332825537394335e-05,0.47079195409153085,-2.9602761829616853e-05,-0.1835135810813242
952,0.9426,0.00221058,1141.37,0.00280682,0.0180845,-0.00114705,0.0622756,-0.181021,0.386141,-0.202925,7.80046e-06,3.33751e-05,-2.96325e-05,0.39893,-0.1655821642627513,7.800490423592876e-06,3.337565695482603e-05,0.4712921083773325,-2.963206096184834e-05,-0.18366053541044314
953,0.9436,0.0022083,1141.54,0.002804,0.0181052,-0.00115467,0.0623388,-0.181181,0.386481,-0.203105,7.81679e-06,3.34224e-05,-2.96616e-05,0.399286,-0.16571566043649066,7.816820551287407e-06,3.342295853459021e-05,0.47179243274450355,-2.966116009905928e-05,-0.1838074632901634
954,0.9446,0.00220603,1141.7,0.00280119,0.0181258,-0.00116226,0.0624019,-0.181341,0.386821,-0.203284,7.8331e-06,3.34696e-05,-2.96906e-05,0.399641,-0.16584913525255074,7.833130678758238e-06,3.347016011323589e-05,0.47229292725088134,-2.9690159238482394e-05,-0.1839535486792021
955,0.9456,0.00220377,1141.87,0.00279838,0.0181463,-0.00116984,0.0624647,-0.181501,0.38716,-0.203463,7.84939e-06,3.35167e-05,-2.97193e-05,0.399996,-0.16598258871434868,7.849420806449459e-06,3.351726169076308e-05,0.47279211916146746,-2.9718858385985314e-05,-0.18409960792129643
956,0.9466,0.0022015,1142.03,0.00279557,0.0181667,-0.0011774,0.0625274,-0.181661,0.3875,-0.203643,7.86565e-06,3.35638e-05,-2.97479e-05,0.400351,-0.16611602082530086,7.865680934360242e-06,3.3564363270732755e-05,0.47329295361901536,-2.9747457535589383e-05,-0.18424645677507723
957,0.9476,0.00219924,1142.2,0.00279277,0.0181871,-0.00118495,0.0625898,-0.181821,0.387839,-0.203822,7.88189e-06,3.36108e-05,-2.97763e-05,0.400706,-0.1662494315888231,7.88192106226937e-06,3.361136484936189e-05,0.4737924845960091,-2.9775856690394953e-05,-0.18439246359131456
958,0.9486,0.00219698,1142.36,0.00278997,0.0182074,-0.00119247,0.062652,-0.18198,0.388178,-0.204001,7.89812e-06,3.36578e-05,-2.98046e-05,0.40106,-0.16638198739073495,7.898151190177671e-06,3.365836643021147e-05,0.4742921849427104,-2.9804155847301672e-05,-0.1845384442746708
959,0.9496,0.00219472,1142.53,0.00278717,0.0182276,-0.00119998,0.0627141,-0.18214,0.388517,-0.20418,7.91431e-06,3.37047e-05,-2.98326e-05,0.401415,-0.166515355603011,7.914341318304707e-06,3.370526800972051e-05,0.4747920547165454,-2.983215501239922e-05,-0.18468439882982324
960,0.9506,0.00219247,1142.69,0.00278438,0.0182477,-0.00120746,0.0627759,-0.1823,0.388856,-0.204359,7.93049e-06,3.37515e-05,-2.98605e-05,0.401769,-0.16664870247808006,7.930521446430916e-06,3.37520695883331e-05,0.47529209397495986,-2.986005417970894e-05,-0.18483032726144843
961,0.9516,0.00219022,1142.86,0.00278159,0.0182677,-0.00121493,0.0628375,-0.182459,0.389195,-0.204538,7.94664e-06,3.37982e-05,-2.98882e-05,0.402123,-0.1667811948009672,7.946671574554642e-06,3.3798771165605146e-05,0.47579230277541873,-2.988775335222016e-05,-0.184976229574222
962,0.9526,0.00218797,1143.02,0.0027788,0.0182877,-0.00122239,0.0628989,-0.182619,0.389534,-0.204717,7.96277e-06,3.38448e-05,-2.99157e-05,0.402478,-0.1669144991451671,7.962801702898759e-06,3.3845372741758695e-05,0.47629268117540646,-2.991525252993288e-05,-0.18512210577281896
963,0.9536,0.00218573,1143.18,0.00277602,0.0183076,-0.00122982,0.0629602,-0.182778,0.389872,-0.204896,7.97888e-06,3.38914e-05,-2.99431e-05,0.402832,-0.16704694920974383,7.97891183124122e-06,3.3891974319910645e-05,0.4767917524399361,-2.994265170985777e-05,-0.18526795586191325
964,0.9546,0.00218349,1143.35,0.00277324,0.0183274,-0.00123724,0.0630212,-0.182937,0.390211,-0.205075,7.99497e-06,3.39379e-05,-2.99702e-05,0.403186,-0.16717937821643447,7.995001959804071e-06,3.39384758969441e-05,0.4772924697107952,-2.9969750898084513e-05,-0.18541377984617802
965,0.9556,0.00218125,1143.51,0.00277046,0.0183472,-0.00124464,0.063082,-0.183097,0.390549,-0.205254,8.01103e-06,3.39844e-05,-2.99972e-05,0.40354,-0.1673126188563845,8.01106208836444e-06,3.3984977476198e-05,0.4777918789609663,-2.9996750088523427e-05,-0.18555957773028564
966,0.9566,0.00217901,1143.67,0.00276768,0.0183668,-0.00125202,0.0631426,-0.183256,0.390888,-0.205432,8.02707e-06,3.40308e-05,-3.00241e-05,0.403893,-0.16744500562495923,8.027102216923154e-06,3.40313790543334e-05,0.4782929353321905,-3.0023649281174514e-05,-0.18570453522385
967,0.9576,0.00217677,1143.84,0.00276491,0.0183864,-0.00125938,0.063203,-0.183415,0.391226,-0.205611,8.04309e-06,3.40771e-05,-3.00507e-05,0.404247,-0.16757737134571127,8.043122345702258e-06,3.4077680630906215e-05,0.4787926827968967,-3.0050248482238473e-05,-0.18585028106740276
968,0.9586,0.00217454,1144.0,0.00276215,0.0184059,-0.00126673,0.0632633,-0.183574,0.391564,-0.20579,8.05909e-06,3.41233e-05,-3.00772e-05,0.4046,-0.1677097160219867,8.059122474479707e-06,3.4123882206360534e-05,0.4792925992047956,-3.0076747685514604e-05,-0.1859960008247843
969,0.9596,0.00217232,1144.16,0.00275938,0.0184254,-0.00127406,0.0633233,-0.183733,0.391902,-0.205968,8.07507e-06,3.41695e-05,-3.01035e-05,0.404954,-0.1678420396571314,8.075102603477546e-06,3.41700837840353e-05,0.4797926846129996,-3.010304689421428e-05,-0.18614088064195122
970,0.9606,0.00217009,1144.32,0.00275662,0.0184447,-0.00128137,0.0633831,-0.183892,0.39224,-0.206147,8.09102e-06,3.42156e-05,-3.01296e-05,0.405307,-0.1679743422544907,8.091052732472903e-06,3.421618536036952e-05,0.480292939078641,-3.0129146108115457e-05,-0.18628654838666425
971,0.9616,0.00216787,1144.49,0.00275386,0.018464,-0.00128866,0.0634428,-0.184051,0.392577,-0.206325,8.10695e-06,3.42616e-05,-3.01555e-05,0.40566,-0.16810662381740926,8.106982861466605e-06,3.4262186935363204e-05,0.4807918818662482,-3.0155045327440178e-05,-0.18643137649096775
972,0.9626,0.00216565,1144.65,0.00275111,0.0184832,-0.00129594,0.0635022,-0.18421,0.392915,-0.206503,8.12286e-06,3.43075e-05,-3.01813e-05,0.406013,-0.1682388843492314,8.122892990458652e-06,3.4308088509016343e-05,0.48129247411764364,-3.0180844549199115e-05,-0.1865761788181629
973,0.9636,0.00216343,1144.81,0.00274836,0.0185024,-0.0013032,0.0635614,-0.184369,0.393252,-0.206682,8.13875e-06,3.43534e-05,-3.02069e-05,0.406366,-0.16837112385330077,8.138783119671089e-06,3.435399008488993e-05,0.48179175380532335,-3.0206443776159553e-05,-0.1867217686514756
974,0.9646,0.00216121,1144.97,0.00274561,0.0185214,-0.00131044,0.0636205,-0.184528,0.39359,-0.20686,8.15461e-06,3.43992e-05,-3.02324e-05,0.406719,-0.16850334233296038,8.154643248881044e-06,3.439979165920093e-05,0.4822926840705555,-3.0231943005554207e-05,-0.18686651929346632
975,0.9656,0.002159,1145.14,0.00274287,0.0185404,-0.00131766,0.0636793,-0.184687,0.393927,-0.207038,8.17046e-06,3.4445e-05,-3.02576e-05,0.407071,-0.168635539791553,8.170493378312216e-06,3.4445593235732375e-05,0.48279230088579217,-3.0257142243472757e-05,-0.18701124417213577
976,0.9666,0.00215679,1145.3,0.00274013,0.0185593,-0.00132487,0.063738,-0.184846,0.394264,-0.207216,8.18628e-06,3.44907e-05,-3.02827e-05,0.407424,-0.1687677162324206,8.186313507740905e-06,3.449129481092328e-05,0.4832920861002694,-3.02822414837145e-05,-0.18715594329206942
977,0.9676,0.00215458,1145.46,0.00273739,0.0185782,-0.00133206,0.0637964,-0.185004,0.394601,-0.207394,8.20208e-06,3.45363e-05,-3.03076e-05,0.407776,-0.1688990405583609,8.20211363716794e-06,3.453689638477364e-05,0.4837920397707469,-3.030714072937979e-05,-0.18730061665785191
978,0.9686,0.00215238,1145.62,0.00273465,0.0185969,-0.00133923,0.0638547,-0.185163,0.394938,-0.207572,8.21785e-06,3.45818e-05,-3.03324e-05,0.408129,-0.16903117510593724,8.217883766592493e-06,3.458239795728346e-05,0.4842921619540044,-3.0331939977368272e-05,-0.18744526427406705
979,0.9696,0.00215018,1145.78,0.00273192,0.0186156,-0.00134638,0.0639127,-0.185321,0.395275,-0.20775,8.23361e-06,3.46273e-05,-3.0357e-05,0.408481,-0.1691624578086639,8.233643896238263e-06,3.4627899531791684e-05,0.4847924527068399,-3.0356539230891322e-05,-0.1875898861452978
980,0.9706,0.00214798,1145.94,0.00272919,0.0186342,-0.00135352,0.0639706,-0.18548,0.395612,-0.207928,8.24934e-06,3.46727e-05,-3.03814e-05,0.408833,-0.169294550476227,8.24937402588155e-06,3.4673301104959364e-05,0.48529291208607117,-3.038093848994894e-05,-0.18773448227612655
981,0.9716,0.00214578,1146.1,0.00272647,0.0186528,-0.00136064,0.0640283,-0.185638,0.395948,-0.208106,8.26505e-06,3.4718e-05,-3.04056e-05,0.409185,-0.16942579156893234,8.265084155523184e-06,3.47186026767865e-05,0.48579205435573747,-3.04051377544301e-05,-0.18787905267113458
982,0.9726,0.00214359,1146.26,0.00272375,0.0186712,-0.00136775,0.0640858,-0.185797,0.396285,-0.208284,8.28074e-06,3.47633e-05,-3.04297e-05,0.409537,-0.16955784236975602,8.280774285385206e-06,3.476390425061204e-05,0.4862928506574926,-3.042923702134548e-05,-0.18802359733490237
983,0.9736,0.0021414,1146.42,0.00272103,0.0186896,-0.00137483,0.0641431,-0.185955,0.396621,-0.208461,8.29641e-06,3.48085e-05,-3.04536e-05,0.409888,-0.1696890418656285,8.296444415245574e-06,3.4809105822875e-05,0.48679232896296987,-3.0453136293795424e-05,-0.18816730443972007
984,0.9746,0.00213921,1146.58,0.00271831,0.0187079,-0.0013819,0.0642002,-0.186113,0.396957,-0.208639,8.31205e-06,3.48536e-05,-3.04774e-05,0.41024,-0.16982022063361812,8.31208454510346e-06,3.485420739379741e-05,0.48729197512135536,-3.047693556879061e-05,-0.18831179779923934
985,0.9756,0.00213703,1146.74,0.0027156,0.0187262,-0.00138896,0.0642571,-0.186272,0.397293,-0.208816,8.32768e-06,3.48987e-05,-3.0501e-05,0.410591,-0.169952208725206,8.327714675182563e-06,3.489930896671822e-05,0.4877917891890573,-3.0500534849209338e-05,-0.18845545389708918
986,0.9766,0.00213485,1146.9,0.00271289,0.0187444,-0.00139599,0.0643138,-0.18643,0.397629,-0.208994,8.34328e-06,3.49437e-05,-3.05244e-05,0.410943,-0.17008334591611662,8.343314805259183e-06,3.4944310538298495e-05,0.48829177122250256,-3.0523934135273656e-05,-0.1885998959705696
987,0.9776,0.00213267,1147.06,0.00271018,0.0187625,-0.00140301,0.0643704,-0.186588,0.397965,-0.209171,8.35886e-06,3.49886e-05,-3.05477e-05,0.411294,-0.17021446238898774,8.358894935334149e-06,3.4989212108094137e-05,0.4887919212781373,-3.054723342377219e-05,-0.18874350107955573
988,0.9786,0.00213049,1147.22,0.00270748,0.0187805,-0.00141002,0.0644267,-0.186746,0.398301,-0.209349,8.37442e-06,3.50335e-05,-3.05707e-05,0.411645,-0.17034555814709262,8.374455065629505e-06,3.503411368033227e-05,0.48929223941242617,-3.0570232720905643e-05,-0.1888878918852006
989,0.9796,0.00212831,1147.38,0.00270478,0.0187984,-0.001417,0.0644829,-0.186904,0.398637,-0.209526,8.38996e-06,3.50783e-05,-3.05937e-05,0.411996,-0.17047663319370399,8.389995195923206e-06,3.507891525078577e-05,0.4897927256818535,-3.0593232017483984e-05,-0.18903144602342092
990,0.9806,0.00212614,1147.54,0.00270209,0.0188163,-0.00142397,0.0645388,-0.187062,0.398972,-0.209703,8.40547e-06,3.5123e-05,-3.06164e-05,0.412347,-0.1706076875320941,8.40550532599238e-06,3.5123616819676684e-05,0.4902918898502868,-3.0615931322808265e-05,-0.18917497475480738
991,0.9816,0.00212397,1147.7,0.00269939,0.0188341,-0.00143093,0.0645946,-0.18722,0.399308,-0.209881,8.42096e-06,3.51676e-05,-3.0639e-05,0.412698,-0.17073872116553435,8.420995456281943e-06,3.516821838722706e-05,0.4907927120586959,-3.0638530630677785e-05,-0.18931928876497306
992,0.9826,0.00212181,1147.86,0.0026967,0.0188518,-0.00143787,0.0646502,-0.187378,0.399643,-0.210058,8.43643e-06,3.52122e-05,-3.06615e-05,0.413048,-0.170869734097296,8.436465586791897e-06,3.521281995677583e-05,0.4912922112786835,-3.066102994098152e-05,-0.18946276655270278
993,0.9836,0.00211964,1148.02,0.00269402,0.0188695,-0.00144479,0.0647056,-0.187536,0.399978,-0.210235,8.45188e-06,3.52568e-05,-3.06837e-05,0.413399,-0.17100072633064978,8.451915717300196e-06,3.525742152832301e-05,0.4917918778589412,-3.068322926014222e-05,-0.1896062189471116
994,0.9846,0.00211748,1148.18,0.00269133,0.0188871,-0.00145169,0.0647608,-0.187694,0.400313,-0.210412,8.46731e-06,3.53012e-05,-3.07059e-05,0.413749,-0.1711316978688655,8.46734584780684e-06,3.530182309474661e-05,0.4922917118555439,-3.0705428578636784e-05,-0.1897496459526935
995,0.9856,0.00211532,1148.34,0.00268865,0.0189046,-0.00145858,0.0648158,-0.187851,0.400649,-0.210589,8.48272e-06,3.53456e-05,-3.07278e-05,0.4141,-0.17126181997744727,8.482755978311829e-06,3.534622466316861e-05,0.492793206117045,-3.072732790598831e-05,-0.189893047573942
996,0.9866,0.00211317,1148.49,0.00268597,0.018922,-0.00146545,0.0648707,-0.188009,0.400983,-0.210766,8.4981e-06,3.53899e-05,-3.07496e-05,0.41445,-0.17139275026612566,8.49813610903638e-06,3.5390526229805985e-05,0.4932918823221786,-3.0749127235885076e-05,-0.1900364238153497
997,0.9876,0.00211101,1148.65,0.0026833,0.0189394,-0.00147231,0.0649253,-0.188167,0.401318,-0.210943,8.51347e-06,3.54342e-05,-3.07712e-05,0.4148,-0.17152365986945262,8.513506239760105e-06,3.5434827798663804e-05,0.493792218904455,-3.077072657142743e-05,-0.19017977468140845
998,0.9886,0.00210886,1148.81,0.00268063,0.0189567,-0.00147914,0.0649798,-0.188324,0.401653,-0.211119,8.52881e-06,3.54784e-05,-3.07927e-05,0.41515,-0.17165372044483074,8.528846370481347e-06,3.5479029365959036e-05,0.49429272312756445,-3.079222590962605e-05,-0.1903222904993047
999,0.9896,0.00210671,1148.97,0.00267796,0.0189739,-0.00148597,0.0650341,-0.188482,0.401987,-0.211296,8.54413e-06,3.55225e-05,-3.0814e-05,0.4155,-0.17178458881812675,8.544166501200934e-06,3.552313093146964e-05,0.49479190025502895,-3.0813525253581275e-05,-0.1904655907714382
