,Time,S11,S22,S33,S12,S13,S23,LE11,LE22,LE33,LE12,LE13,LE23,SDV_EPBAR,E11,E12,E13,E22,E23,E33
0,0.0001,-2.45759e-12,20.7736,-2.45848e-12,2.29301e-37,1.3536e-16,1.35342e-16,-2.99985e-05,9.9995e-05,-2.99985e-05,0.0,0.0,0.0,0.0,-2.999805004955114e-05,0.0,0.0,9.999999966670003e-05,0.0,-2.999805004955114e-05
1,0.0002,-3.38973e-12,41.545,-3.38929e-12,1.71972e-37,6.76799e-17,6.76535e-17,-5.9994e-05,0.00019998,-5.9994e-05,0.0,0.0,0.0,0.0,-5.9992200395986295e-05,0.0,0.0,0.00019999999733322227,0.0,-5.9992200395986295e-05
2,0.0003,-3.38396e-12,62.3145,-3.38218e-12,6.76711e-17,0.0,6.76447e-17,-8.99865e-05,0.000299955,-8.99865e-05,0.0,0.0,0.0,0.0,-8.998245133640115e-05,0.0,0.0,0.0002999999909993889,0.0,-8.998245133640115e-05
3,0.0004,-3.38485e-12,83.0818,-3.38396e-12,-8.79619e-21,1.3536e-16,6.76359e-17,-0.000119976,0.00039992,-0.000119976,0.0,0.0,0.0,0.0,-0.00011996880316755831,0.0,0.0,0.00039999997866457804,0.0,-0.00011996880316755831
4,0.0005,-3.37907e-12,103.847,-3.37863e-12,-6.76799e-17,0.0,-6.77151e-17,-0.000149963,0.000499875,-0.000149963,0.0,0.0,0.0,0.0,-0.00014995175611143274,0.0,0.0,0.0004999999583281678,0.0,-0.00014995175611143274
5,0.0006,-3.3813e-12,124.61,-3.38041e-12,-1.75845e-24,-1.3536e-16,6.76359e-17,-0.000179946,0.00059982,-0.000179946,0.0,0.0,0.0,0.0,-0.00017992981068959413,0.0,0.0,0.0005999999279893142,0.0,-0.00017992981068959413
6,0.0007,-3.37286e-12,145.371,-3.3733e-12,-1.75845e-24,-4.06079e-16,-4.39836e-20,-0.000209927,0.000699755,-0.000209927,0.0,0.0,0.0,0.0,-0.0002099049668691233,0.0,0.0,0.0006999998856467293,0.0,-0.0002099049668691233
7,0.0008,-3.37375e-12,166.13,-3.37508e-12,-1.75845e-24,-2.7072e-16,6.76271e-17,-0.000239904,0.00079968,-0.000239904,0.0,0.0,0.0,0.0,-0.00023987522533652772,0.0,0.0,0.000799999829299125,0.0,-0.00023987522533652772
8,0.0009,-3.36486e-12,186.887,-3.36442e-12,-1.75845e-24,-2.7072e-16,6.76183e-17,-0.000269879,0.000899595,-0.000269879,0.0,0.0,0.0,0.0,-0.00026984258593854005,0.0,0.0,0.0008999997569454354,0.0,-0.00026984258593854005
9,0.001,-3.37108e-12,207.642,-3.36975e-12,-1.75845e-24,-2.0304e-16,-6.15663e-20,-0.00029985,0.0009995,-0.00029985,0.0,0.0,0.0,0.0,-0.00029980504948168285,0.0,0.0,0.0009999996665834843,0.0,-0.00029980504948168285
10,0.0011,-3.37375e-12,228.395,-3.3733e-12,-1.75845e-24,-1.3536e-16,-6.15663e-20,-0.000329819,0.0010994,-0.000329819,0.0,0.0,0.0,0.0,-0.0003297646156927847,0.0,0.0,0.0011000045617113319,0.0,-0.0003297646156927847
11,0.0012,-3.36042e-12,249.146,-3.36087e-12,6.76711e-17,-2.7072e-16,6.76095e-17,-0.000359784,0.00119928,-0.000359784,0.0,0.0,0.0,0.0,-0.0003597192854979392,0.0,0.0,0.0011999994238274247,0.0,-0.0003597192854979392
12,0.0013,-3.36975e-12,269.894,-3.36975e-12,-8.79004e-21,-4.06079e-16,-7.03546e-20,-0.000389747,0.00129916,-0.000389747,0.0,0.0,0.0,0.0,-0.00038967105850429284,0.0,0.0,0.0013000042739288453,0.0,-0.00038967105850429284
13,0.0014,-3.36975e-12,290.641,-3.36797e-12,-8.79004e-21,-3.38399e-16,1.35272e-16,-0.000419706,0.00139902,-0.000419706,0.0,0.0,0.0,0.0,-0.0004196179357576213,0.0,0.0,0.0013999990850135369,0.0,-0.0004196179357576213
14,0.0015,-3.36708e-12,311.386,-3.36975e-12,-8.79004e-21,-3.38399e-16,-6.7759e-17,-0.000449663,0.00149888,-0.000449663,0.0,0.0,0.0,0.0,-0.00044956191674494494,0.0,0.0,0.0015000038820784933,0.0,-0.00044956191674494494
15,0.0016,-3.36797e-12,332.128,-3.3662e-12,-8.79004e-21,-3.38399e-16,6.7592e-17,-0.000479616,0.00159872,-0.000479616,0.0,0.0,0.0,0.0,-0.0004795010026318325,0.0,0.0,0.0015999986341210803,0.0,-0.0004795010026318325
16,0.0017,-3.36842e-12,352.868,-3.36797e-12,-8.79004e-21,-2.0304e-16,-8.79267e-20,-0.000509567,0.00169856,-0.000509567,0.0,0.0,0.0,0.0,-0.0005094371927857333,0.0,0.0,0.0017000033701379813,0.0,-0.0005094371927857333
17,0.0018,-3.38973e-12,373.607,-3.38929e-12,-8.79004e-21,-2.7072e-16,1.35254e-16,-0.000539515,0.00179838,-0.000539515,0.0,0.0,0.0,0.0,-0.0005393694879521904,0.0,0.0,0.0017999980551262063,0.0,-0.0005393694879521904
18,0.0019,-3.3693e-12,394.343,-3.36797e-12,-8.79004e-21,-3.38399e-16,6.75656e-17,-0.000569459,0.0018982,-0.000569459,0.0,0.0,0.0,0.0,-0.000569296888996984,0.0,0.0,0.001900002722081906,0.0,-0.000569296888996984
19,0.002,-3.39151e-12,415.077,-3.39107e-12,-8.79004e-21,-4.73759e-16,6.75568e-17,-0.000599401,0.001998,-0.000599401,0.0,0.0,0.0,0.0,-0.0005992213951074854,0.0,0.0,0.001999997332001513,0.0,-0.0005992213951074854
20,0.0021,-3.33555e-12,435.809,-3.336e-12,-8.79004e-21,-4.06079e-16,-1.23056e-19,-0.000629339,0.0020978,-0.000629339,0.0,0.0,0.0,0.0,-0.0006291410077484683,0.0,0.0,0.0021000019218813115,0.0,-0.0006291410077484683
21,0.0022,-3.3693e-12,456.539,-3.36797e-12,-8.79004e-21,-4.06079e-16,1.35219e-16,-0.000659275,0.00219758,-0.000659275,0.0,0.0,0.0,0.0,-0.0006590577259876218,0.0,0.0,0.0021999964487171564,0.0,-0.0006590577259876218
22,0.0023,-3.35643e-12,477.267,-3.35731e-12,-8.79004e-21,-2.7072e-16,6.75305e-17,-0.000689208,0.00229736,-0.000689208,0.0,0.0,0.0,0.0,-0.0006889705507201471,0.0,0.0,0.0023000009535045773,0.0,-0.0006889705507201471
23,0.0024,-0.046755,489.422,-0.0680781,0.00894359,-0.011355,-0.0141534,-0.000726247,0.00239712,-0.000728755,1.17475e-07,-1.4704e-07,-1.81087e-07,4.30008e-05,-0.0007259833464772214,1.1747500683334522e-07,-1.4703998918452754e-07,0.0023999953892392956,-1.8108698363050735e-07,-0.0007284895225682098
24,0.0025,-0.103957,492.489,-0.149129,0.0236119,-0.0296076,-0.0400393,-0.000770781,0.00249688,-0.000778359,3.32029e-07,-4.05586e-07,-5.25966e-07,0.000131752,-0.0007704840246308686,3.320290551389604e-07,-4.055859177398702e-07,0.0024999998009163082,-5.259658616418861e-07,-0.0007780561572121591
25,0.0026,0.00607958,495.662,0.010648,-0.0068436,0.00622819,0.0131744,-0.000815049,0.00259663,-0.000827203,-5.72186e-08,4.65526e-08,1.48534e-07,0.00022055,-0.0008147169377855645,-5.7218598414898736e-08,4.655260110730808e-08,0.002600004163531233,1.485340110907174e-07,-0.0008268609619165312
26,0.0027,-0.00626782,498.611,-0.0105728,-0.00250464,0.00226342,0.00471356,-0.000859617,0.00269636,-0.000876756,-5.71887e-09,-1.9151e-09,4.5482e-08,0.000310013,-0.0008592476351516609,-5.718870044191249e-09,-1.9150999674977243e-09,0.0026999984480784445,4.5482001054253374e-08,-0.000876371761760808
27,0.0028,5.84546e-05,501.507,0.000482551,-0.00465712,0.00453544,0.00875234,-0.000904217,0.00279609,-0.000926271,-3.81032e-08,2.91341e-08,1.01538e-07,0.000399808,-0.0009038083189965018,-3.8103199262451426e-08,2.9134100465455504e-08,0.0028000027055530285,1.0153800511503164e-07,-0.0009258421434399366
28,0.0029,-0.00114456,504.32,-0.00182311,-0.0041743,0.00408993,0.00784568,-0.000948882,0.0028958,-0.000975909,-3.69224e-08,2.59077e-08,9.50785e-08,0.000489977,-0.0009484319538332064,-3.692239936015085e-08,2.590770042942836e-08,0.0028999968789495956,9.507850462497913e-08,-0.000975432955683142
29,0.003,-0.000656168,507.067,-0.000901167,-0.0043241,0.00424833,0.00816321,-0.000993597,0.00299551,-0.00102561,-4.3846e-08,3.03543e-08,1.04135e-07,0.000580481,-0.0009931035459458393,-4.3845999053715445e-08,3.035430040654319e-08,0.0030000010232620333,1.0413500550754407e-07,-0.00102508424182024
30,0.0031,-0.00072645,509.746,-0.00106394,-0.00426291,0.0042087,0.00806782,-0.00103836,0.0030952,-0.00107537,-4.80582e-08,3.23107e-08,1.07944e-07,0.000671306,-0.0010378210907986407,-4.805819886488649e-08,3.2310700559534666e-08,0.0030999950774850404,1.079440057338843e-07,-0.0010747919968892017
31,0.0032,-0.00065296,512.364,-0.000937262,-0.00425871,0.00422016,0.00808488,-0.00108318,0.00319489,-0.00112521,-5.29819e-08,3.49253e-08,1.13156e-07,0.000762435,-0.0010825935722984514,-5.298189864610947e-08,3.492530065152266e-08,0.003199999100611972,1.131560063427628e-07,-0.0011245771885988187
32,0.0033,-0.000626891,514.922,-0.000905076,-0.00423685,0.00421522,0.00806631,-0.00112803,0.00329457,-0.0011751,-5.76607e-08,3.73417e-08,1.17896e-07,0.000853855,-0.001127394013319405,-5.7660698327133275e-08,3.7341700620530105e-08,0.0033000030606369357,1.1789600695699676e-07,-0.0011744098403569936
33,0.0034,-0.000590634,517.423,-0.000850688,-0.00421997,0.00421418,0.00805722,-0.00117293,0.00339423,-0.00122505,-6.23834e-08,3.98151e-08,1.22734e-07,0.00094555,-0.00117224238647462,-6.23833980029076e-08,3.9815100771889433e-08,0.003399996921553239,1.227340076237482e-07,-0.0012242999325700055
34,0.0035,-0.000560334,519.87,-0.000807259,-0.00420159,0.00421133,0.00804469,-0.00121787,0.00349389,-0.00127505,-6.7067e-08,4.22718e-08,1.27507e-07,0.00103751,-0.0012171286972988415,-6.706699773317837e-08,4.227180094851235e-08,0.003500000748354326,1.275070080630769e-07,-0.001274237469124584
35,0.0036,-0.000530975,522.265,-0.000764586,-0.00418369,0.00420844,0.00803264,-0.00126285,0.00359354,-0.00132511,-7.17362e-08,4.47328e-08,1.32266e-07,0.00112972,-0.0012620529404963055,-7.173619742673054e-08,4.473280101890964e-08,0.003600004506033372,1.322660088121097e-07,-0.0013242324294125973
36,0.0037,-0.000503792,524.61,-0.000725303,-0.00416572,0.00420506,0.00802001,-0.00130786,0.00369317,-0.00137521,-7.63838e-08,4.71913e-08,1.36996e-07,0.00122217,-0.0013070051238369684,-7.638379706520482e-08,4.719130108910008e-08,0.003699998155583195,1.3699600942551626e-07,-0.001374264832045724
37,0.0038,-0.000478224,526.908,-0.000688339,-0.00414788,0.00420138,0.00800718,-0.00135291,0.0037928,-0.00142536,-8.1012e-08,4.96486e-08,1.41702e-07,0.00131485,-0.0013519952298463034,-8.101199666654679e-08,4.9648601230245504e-08,0.0038000017679966636,1.417020101257549e-07,-0.0014243446569023321
38,0.0039,-0.000454255,529.16,-0.000653738,-0.00413013,0.00419738,0.00799408,-0.00139799,0.00389241,-0.00147556,-8.56203e-08,5.21037e-08,1.46385e-07,0.00140774,-0.0013970132671872193,-8.562029629732848e-08,5.210370135344533e-08,0.0038999952662663873,1.4638501077968158e-07,-0.00147447189659633
39,0.004,-0.000431728,531.368,-0.000621244,-0.0041125,0.00419312,0.0079808,-0.0014431,0.00399202,-0.0015258,-9.0209e-08,5.45564e-08,1.51045e-07,0.00150085,-0.0014420592318993286,-9.020899593981113e-08,5.455640139651052e-08,0.003999998725384479,1.510450113872963e-07,-0.0015246365589813848
40,0.0041,-0.000410541,533.534,-0.000590714,-0.004095,0.00418863,0.00796736,-0.00148824,0.00409162,-0.00157608,-9.47781e-08,5.70062e-08,1.55683e-07,0.00159416,-0.0014871331200203564,-9.477809548297245e-08,5.7006201537035395e-08,0.004100002105343004,1.5568301203749968e-07,-0.001574838638164322
41,0.0042,-0.000390591,535.66,-0.000561991,-0.00407765,0.00418392,0.00795379,-0.00153341,0.0041912,-0.0016264,-9.93278e-08,5.94529e-08,1.603e-07,0.00168766,-0.001532234927585252,-9.932779510002376e-08,5.945290171283091e-08,0.0041999953621343344,1.6030001281919226e-07,-0.0016250781282478588
42,0.0043,-0.000371787,537.747,-0.00053494,-0.00406045,0.00417903,0.00794011,-0.00157861,0.00429078,-0.00167676,-1.03858e-07,6.18961e-08,1.64895e-07,0.00178135,-0.0015773646506271888,-1.0385799464884826e-07,6.189610202156359e-08,0.004299998576750008,1.6489501364347348e-07,-0.0016753550233304937
43,0.0044,-0.000354044,539.797,-0.000509438,-0.00404341,0.00417398,0.00792635,-0.00162384,0.00439035,-0.00172715,-1.08369e-07,6.43356e-08,1.6947e-07,0.00187521,-0.0016225222851763421,-1.083689941117072e-07,6.433560217899981e-08,0.004400001706181378,1.6947001446609988e-07,-0.0017256593347630966
44,0.0045,-0.000337288,541.811,-0.000485371,-0.00402654,0.00416878,0.00791254,-0.00166908,0.00448991,-0.00177758,-1.12861e-07,6.67711e-08,1.74026e-07,0.00196925,-0.001667687860615219,-1.128609936618119e-07,6.67711022028783e-08,0.00450000474842005,1.7402601515392746e-07,-0.0017760010403859994
45,0.0046,-0.000321447,543.79,-0.000462636,-0.00400983,0.00416346,0.00789869,-0.00171436,0.00458945,-0.00182804,-1.17335e-07,6.92024e-08,1.78561e-07,0.00206345,-0.0017128913242947519,-1.1733499316601836e-07,6.920240247509923e-08,0.004599997655457155,1.7856101597324425e-07,-0.0018263701525501608
46,0.0047,-0.000306459,545.736,-0.00044114,-0.0039933,0.00415803,0.00788481,-0.00175965,0.00468899,-0.00187854,-1.21789e-07,7.16293e-08,1.83078e-07,0.0021578,-0.0017581027236267532,-1.2178899255754772e-07,7.162930248938437e-08,0.004700000516283609,1.830780167466628e-07,-0.001876776648082723
47,0.0048,-0.000292264,547.649,-0.000420795,-0.00397695,0.00415251,0.00787093,-0.00180497,0.00478852,-0.00192906,-1.26225e-07,7.40517e-08,1.87576e-07,0.00225231,-0.0018033420212810736,-1.2622499201420112e-07,7.40517027697507e-08,0.004800003283890186,1.8757601760732712e-07,-0.0019272005596077113
48,0.0049,-0.00027881,549.531,-0.000401525,-0.00396078,0.0041469,0.00785705,-0.00185031,0.00488803,-0.00197961,-1.30642e-07,7.64694e-08,1.92056e-07,0.00234697,-0.001848599231765169,-1.30641991447078e-07,7.646940303196459e-08,0.004899995907267529,1.920560184220932e-07,-0.001977651864451979
49,0.005,-0.000266046,551.383,-0.000383255,-0.00394479,0.00414123,0.00784319,-0.00189567,0.00498754,-0.00203019,-1.35041e-07,7.88823e-08,1.96517e-07,0.00244177,-0.0018938743524564705,-1.3504099083405663e-07,7.88823031339092e-08,0.004999998481405754,1.9651701932410504e-07,-0.0020281305582037223
50,0.0051,-0.000253928,553.206,-0.00036592,-0.00392898,0.0041355,0.00782936,-0.00194105,0.00508704,-0.0020808,-1.39422e-07,8.12901e-08,2.00962e-07,0.0025367,-0.0019391673807317433,-1.3942199028615931e-07,8.12901033153679e-08,0.005100000956295148,2.009620201359752e-07,-0.002078636636449138
51,0.0052,-0.000242415,555.001,-0.000349458,-0.00391335,0.00412971,0.00781556,-0.00198644,0.00518653,-0.00213143,-1.43785e-07,8.36929e-08,2.05389e-07,0.00263177,-0.0019844683338114955,-1.4378498969236375e-07,8.36929034964129e-08,0.005200003329925984,2.053890211239917e-07,-0.0021291601160635665
52,0.0053,-0.000231466,556.768,-0.000333814,-0.00389791,0.00412389,0.0078018,-0.00203186,0.005286,-0.00218209,-1.4813e-07,8.60906e-08,2.09799e-07,0.00272696,-0.002029797169834091,-1.4812998905266994e-07,8.609060375697197e-08,0.005299995547287661,2.0979902193296596e-07,-0.002179710972348037
53,0.0054,-0.000221048,558.509,-0.000318935,-0.00388264,0.00411803,0.0077881,-0.00207729,0.00538547,-0.00223277,-1.52457e-07,8.84829e-08,2.14192e-07,0.00282228,-0.0020751339263164192,-1.5245698836707788e-07,8.848290389273927e-08,0.005399997711369897,2.1419202300698714e-07,-0.0022302792231856383
54,0.0055,-0.000211127,560.224,-0.000304773,-0.00386755,0.00411214,0.00777445,-0.00212274,0.00548493,-0.00228347,-1.56767e-07,9.087e-08,2.18569e-07,0.00291772,-0.002120488580787172,-1.5676698772448816e-07,9.087000418794844e-08,0.005499999768162178,2.1856902399086664e-07,-0.0022808648656721386
55,0.0056,-0.000201673,561.915,-0.000291285,-0.00385264,0.00410624,0.00776087,-0.0021682,0.00558438,-0.0023342,-1.6106e-07,9.32516e-08,2.22931e-07,0.00301326,-0.0021658511522771873,-1.6105998701387847e-07,9.325160443829361e-08,0.0056000017156534465,2.2293102475146043e-07,-0.002331477873587784
56,0.0057,-0.000192658,563.582,-0.000278428,-0.00383791,0.00410032,0.00774735,-0.00221368,0.00568382,-0.00238495,-1.65335e-07,9.56279e-08,2.27276e-07,0.00310892,-0.0022112316174072166,-1.6533498636839283e-07,9.562790448391922e-08,0.005700003551833088,2.2727602577710115e-07,-0.002382108266328564
57,0.0058,-0.000184055,565.225,-0.000266166,-0.00382336,0.00409439,0.0077339,-0.00225918,0.00578324,-0.00243572,-1.69594e-07,9.79986e-08,2.31605e-07,0.00320469,-0.002256629973548141,-1.695939856327655e-07,9.799860478665323e-08,0.005799995216689391,2.316050267126002e-07,-0.0024327560409872495
58,0.0059,-0.000175841,566.845,-0.000254464,-0.00380897,0.00408846,0.00772053,-0.00230468,0.00588266,-0.00248651,-1.73835e-07,1.00364e-07,2.3592e-07,0.00330056,-0.0023020262641109124,-1.7383498485123994e-07,1.0036400510671228e-07,0.005899996823211406,2.359200277357587e-07,-0.0024834211946554996
59,0.006,-0.000167994,568.444,-0.000243287,-0.00379476,0.00408253,0.00770724,-0.0023502,0.00598207,-0.00253731,-1.7806e-07,1.02723e-07,2.40219e-07,0.00339654,-0.002347440442240889,-1.7805998420161728e-07,1.0272300521307898e-07,0.005999998312387289,2.4021902889082014e-07,-0.0025340937497649874
60,0.0061,-0.000160491,570.021,-0.000232607,-0.00378072,0.00407661,0.00769402,-0.00239574,0.00608147,-0.00258814,-1.82268e-07,1.05077e-07,2.44503e-07,0.00349261,-0.0023928725053071753,-1.8226798337295236e-07,1.0507700554107657e-07,0.006099999682205315,2.4450302982259586e-07,-0.0025847936532307214
61,0.0062,-0.000153315,571.577,-0.000222395,-0.00376684,0.00407069,0.00768089,-0.00244129,0.00618086,-0.00263898,-1.8646e-07,1.07426e-07,2.48773e-07,0.00358877,-0.0024383124750614327,-1.8645998256516805e-07,1.0742600586866047e-07,0.0062000009306533155,2.4877303084203106e-07,-0.0026355009533308715
62,0.0063,-0.000146446,573.113,-0.000212624,-0.00375313,0.00406478,0.00766784,-0.00248684,0.00628024,-0.00268984,-1.90636e-07,1.09768e-07,2.53028e-07,0.00368503,-0.0024837503750722023,-1.9063598177826435e-07,1.097680060180295e-07,0.006300002055719567,2.5302803208226976e-07,-0.0026862256218131986
63,0.0064,-0.000139868,574.629,-0.000203271,-0.00373959,0.00405889,0.00765488,-0.00253241,0.00637961,-0.00274072,-1.94796e-07,1.12105e-07,2.57269e-07,0.00378137,-0.00252920615484975,-1.9479598101224127e-07,1.1210500638902943e-07,0.006400003055391235,2.5726903318812333e-07,-0.0027369676557652545
64,0.0065,-0.000133566,576.126,-0.000194312,-0.0037262,0.00405301,0.00764201,-0.002578,0.00647897,-0.00279161,-1.9894e-07,1.14437e-07,2.61496e-07,0.0038778,-0.0025746798117612935,-1.989399801560765e-07,1.1443700653757105e-07,0.0065000039276557064,2.6149603415959177e-07,-0.002787717080151131
65,0.0066,-0.000127523,577.605,-0.000185726,-0.00371297,0.00404715,0.00762923,-0.00262359,0.00657832,-0.00284252,-2.03068e-07,1.16763e-07,2.65709e-07,0.00397431,-0.0026201513955760314,-2.0306797943181465e-07,1.16763006818843e-07,0.006600004670500592,2.657090352187197e-07,-0.0028384838651951405
66,0.0067,-0.000121728,579.065,-0.000177493,-0.00369989,0.00404132,0.00761653,-0.00266919,0.00667765,-0.00289344,-2.0718e-07,1.19083e-07,2.69908e-07,0.00407091,-0.0026656308797322614,-2.071799785063888e-07,1.1908300701080066e-07,0.006699995214912713,2.699080363655071e-07,-0.0028892580368753418
67,0.0068,-0.000116166,580.508,-0.000169595,-0.00368697,0.0040355,0.00760392,-0.0027148,0.00677698,-0.00294438,-2.11277e-07,1.21397e-07,2.74094e-07,0.00416758,-0.0027111182629602215,-2.1127697769074416e-07,1.2139700733548864e-07,0.006799995691878946,2.7409403746680994e-07,-0.0029400495643997493
68,0.0069,-0.000110826,581.933,-0.000162015,-0.0036742,0.00402971,0.00759141,-0.00276043,0.0068763,-0.00299533,-2.15359e-07,1.23706e-07,2.78266e-07,0.00426433,-0.002756623516423584,-2.153589767628361e-07,1.2370600765976292e-07,0.006899996033385758,2.7826603865577226e-07,-0.0029908484747611652
69,0.007,-0.000105696,583.342,-0.000154735,-0.00366157,0.00402394,0.00757898,-0.00280606,0.00697561,-0.0030463,-2.19426e-07,1.26009e-07,2.82426e-07,0.00436116,-0.0028021266935296385,-2.1942597594470925e-07,1.260090078947229e-07,0.00699999623741987,2.824260398881506e-07,-0.003041664736151084
70,0.0071,-0.000100766,584.734,-0.000147741,-0.00364909,0.0040182,0.00756665,-0.0028517,0.00707491,-0.00309727,-2.23478e-07,1.28306e-07,2.86572e-07,0.00445806,-0.0028476377658968044,-2.2347797501431899e-07,1.2830600826241323e-07,0.007099996301967115,2.8657204098614386e-07,-0.0030924784075020417
71,0.0072,-9.60263e-05,586.11,-0.000141018,-0.00363676,0.00401249,0.00755441,-0.00289734,0.0071742,-0.00314826,-2.27515e-07,1.30598e-07,2.90705e-07,0.00455502,-0.002893146761186016,-2.2751497408268762e-07,1.3059800862968984e-07,0.007199996225013994,2.9070504226069716e-07,-0.0031433094260802097
72,0.0073,-9.14668e-05,587.471,-0.000134552,-0.00362456,0.00400681,0.00754226,-0.002943,0.00727348,-0.00319926,-2.31538e-07,1.32884e-07,2.94826e-07,0.00465206,-0.002938673620718757,-2.3153797323871572e-07,1.3288400890765217e-07,0.0072999960045461165,2.948260433566219e-07,-0.003194147820909321
73,0.0074,-8.70791e-05,588.816,-0.000128332,-0.0036125,0.00400116,0.0075302,-0.00298867,0.00737275,-0.00325028,-2.35546e-07,1.35165e-07,2.98934e-07,0.00474916,-0.0029842083717005474,-2.3554597228248042e-07,1.351650091852008e-07,0.007399995638549317,2.9893404462910667e-07,-0.0032450035581466086
74,0.0075,-8.28549e-05,590.147,-0.000122346,-0.00360058,0.00399554,0.00751823,-0.00303434,0.00747201,-0.0033013,-2.39539e-07,1.3744e-07,3.0303e-07,0.00484633,-0.0030297410431577854,-2.39538971325004e-07,1.3744000937343515e-07,0.007499995125008763,3.030300459450075e-07,-0.003295856700790467
75,0.0076,-7.87864e-05,591.462,-0.000116581,-0.00358879,0.00398995,0.00750634,-0.00308002,0.00757127,-0.00335234,-2.43519e-07,1.39709e-07,3.07113e-07,0.00494356,-0.0030752816044326003,-2.4351897032204306e-07,1.397090096943998e-07,0.007600004537909877,3.0711304721542376e-07,-0.0033467271820386557
76,0.0077,-7.48663e-05,592.764,-0.000111028,-0.00357713,0.00398439,0.00749455,-0.00312571,0.00767051,-0.00340338,-2.47484e-07,1.41973e-07,3.11184e-07,0.00504085,-0.003120830054253787,-2.474839694288633e-07,1.4197301001495077e-07,0.007700003724237847,3.1118404830721147e-07,-0.003397595066923831
77,0.0078,-7.10877e-05,594.052,-0.000105676,-0.0035656,0.00397886,0.00748285,-0.0031714,0.00776974,-0.00345444,-2.51435e-07,1.44232e-07,3.15243e-07,0.0051382,-0.0031663764230138725,-2.514349684012984e-07,1.4423201033508803e-07,0.007800002756977342,3.152430496644598e-07,-0.003448480286609046
78,0.0079,-6.7444e-05,595.326,-0.000100517,-0.0035542,0.00397337,0.00747124,-0.0032171,0.00786896,-0.0035055,-2.55373e-07,1.46484e-07,3.19291e-07,0.00523561,-0.003211930678688635,-2.553729674392713e-07,1.4648401069905503e-07,0.007900001634113085,3.192910509319802e-07,-0.0034993629081612188
79,0.008,-6.39291e-05,596.587,-9.55416e-05,-0.00354292,0.00396791,0.00745971,-0.00326281,0.00796817,-0.00355658,-2.59297e-07,1.48732e-07,3.23326e-07,0.00533308,-0.0032574928200066466,-2.5929696634285904e-07,1.4873201115150891e-07,0.0080000003536298,3.233260523760606e-07,-0.003550262860708031
80,0.0081,-6.05373e-05,597.835,-9.07411e-05,-0.00353177,0.00396249,0.00744827,-0.00330852,0.00806737,-0.00360766,-2.63207e-07,1.50974e-07,3.2735e-07,0.0054306,-0.0033030528787267865,-2.6320696533410626e-07,1.509740112926039e-07,0.00809999891351132,3.2735005350836843e-07,-0.003601160213351662
81,0.0082,-5.7263e-05,599.07,-8.61078e-05,-0.00352073,0.0039571,0.00743692,-0.00335424,0.00816656,-0.00365875,-2.67104e-07,1.5321e-07,3.31363e-07,0.00552817,-0.003348620821458037,-2.6710396427986893e-07,1.5321001178847382e-07,0.008199997311742147,3.313630549950375e-07,-0.0036520649297042684
82,0.0083,-5.4101e-05,600.293,-8.16343e-05,-0.00350981,0.00395174,0.00742565,-0.00339996,0.00826574,-0.00370986,-2.70987e-07,1.55441e-07,3.35364e-07,0.0056258,-0.003394186680870659,-2.709869633132911e-07,1.5544101206188543e-07,0.008299995546306116,3.3536405630307797e-07,-0.0037029869713418595
83,0.0084,-5.10464e-05,601.504,-7.73136e-05,-0.00349901,0.00394642,0.00741447,-0.00344569,0.00836492,-0.00376097,-2.74858e-07,1.57667e-07,3.39354e-07,0.00572347,-0.0034397604226621414,-2.7485796227910697e-07,1.5766701233488334e-07,0.008400003699186698,3.3935405752139047e-07,-0.0037539064104203934
84,0.0085,-4.80947e-05,602.703,-7.3139e-05,-0.00348832,0.00394113,0.00740337,-0.00349142,0.00846408,-0.00381208,-2.78715e-07,1.59888e-07,3.43332e-07,0.0058212,-0.0034853320804141275,-2.7871496111053773e-07,1.5988801282951215e-07,0.008500001601367435,3.433320590051636e-07,-0.003804823247072875
85,0.0086,-4.52413e-05,603.89,-6.91043e-05,-0.00347774,0.00393588,0.00739236,-0.00353716,0.00856323,-0.00386321,-2.8256e-07,1.62103e-07,3.473e-07,0.00591898,-0.0035309116189128353,-2.825599600964068e-07,1.6210301323482668e-07,0.008599999333831931,3.4730006026606475e-07,-0.003855757404317428
86,0.0087,-4.24821e-05,605.066,-6.52035e-05,-0.00346727,0.00393066,0.00738142,-0.00358291,0.00866237,-0.00391434,-2.86392e-07,1.64312e-07,3.51257e-07,0.0060168,-0.0035764990368860605,-2.863919590367914e-07,1.6431201355082692e-07,0.008699996894563133,3.512570616592825e-07,-0.003906688957365123
87,0.0088,-3.98132e-05,606.23,-6.14309e-05,-0.00345691,0.00392548,0.00737057,-0.00362866,0.00876151,-0.00396548,-2.90211e-07,1.66517e-07,3.55203e-07,0.00611467,-0.0036220843692826854,-2.902109579316914e-07,1.6651701395531404e-07,0.008800004369543757,3.5520306318481687e-07,-0.003957627866772895
88,0.0089,-3.72309e-05,607.384,-5.77811e-05,-0.00344665,0.00392033,0.0073598,-0.00367441,0.00886063,-0.00401663,-2.94018e-07,1.68716e-07,3.59138e-07,0.00621258,-0.003667667616198078,-2.940179567589851e-07,1.6871601427048688e-07,0.008900001581756856,3.5913806439857865e-07,-0.004008574131145637
89,0.009,-3.47314e-05,608.526,-5.42491e-05,-0.0034365,0.00391521,0.00734911,-0.00372017,0.00895974,-0.00406778,-2.97812e-07,1.7091e-07,3.63063e-07,0.00631054,-0.003713258740595138,-2.978119556518166e-07,1.7091001458524602e-07,0.008999998616184834,3.6306306583355763e-07,-0.004059517789683609
90,0.0091,-3.23115e-05,609.659,-5.083e-05,-0.00342645,0.00391013,0.0073385,-0.00376593,0.00905884,-0.00411894,-3.01594e-07,1.73099e-07,3.66977e-07,0.00640854,-0.0037588477787899865,-3.0159395447704185e-07,1.7309901489959145e-07,0.009099995470809974,3.6697706740085323e-07,-0.004110468801415523
91,0.0092,-2.9968e-05,610.781,-4.75193e-05,-0.00341651,0.00390509,0.00732797,-0.00381169,0.00915794,-0.0041701,-3.05364e-07,1.75283e-07,3.70881e-07,0.00650658,-0.0038044347308782145,-3.053639533456831e-07,1.752830154355678e-07,0.009200002235614457,3.708810687452768e-07,-0.0041614172065603805
92,0.0093,-2.76978e-05,611.892,-4.43126e-05,-0.00340666,0.00390008,0.00731752,-0.00385746,0.00925702,-0.00422128,-3.09121e-07,1.77462e-07,3.74774e-07,0.00660467,-0.003850029558455037,-3.0912095216883984e-07,1.7746201574908582e-07,0.009299998725580405,3.7477407022201703e-07,-0.00421238292100401
93,0.0094,-2.54979e-05,612.994,-4.12056e-05,-0.0033969,0.0038951,0.00730714,-0.00390324,0.00935609,-0.00427245,-3.12867e-07,1.79636e-07,3.78658e-07,0.00670279,-0.0038956322602480276,-3.1286695101329087e-07,1.7963601606219015e-07,0.009399995029689245,3.786580717868304e-07,-0.004263336069722512
94,0.0095,-2.33657e-05,614.086,-3.81946e-05,-0.00338725,0.00389016,0.00729683,-0.00394901,0.00945516,-0.00432364,-3.16601e-07,1.81804e-07,3.82531e-07,0.00680095,-0.0039412229138093835,-3.1660094990115795e-07,1.818040165080248e-07,0.009500001240922762,3.825310732619158e-07,-0.00431430652494913
95,0.0096,-2.12985e-05,615.169,-3.52757e-05,-0.00337768,0.00388525,0.00728661,-0.00399479,0.00955421,-0.00437482,-3.20323e-07,1.83968e-07,3.86394e-07,0.00689915,-0.003986821440866151,-3.2032294872141875e-07,1.8396801682030173e-07,0.009599997168262098,3.863940747361738e-07,-0.004365264414717629
96,0.0097,-1.92938e-05,616.242,-3.24454e-05,-0.00336821,0.00388037,0.00727645,-0.00404057,0.00965326,-0.00442602,-3.24034e-07,1.86126e-07,3.90247e-07,0.00699739,-0.004032417880470152,-3.240339474519516e-07,1.8612601726530897e-07,0.00970000300068885,3.902470762096044e-07,-0.004416239608203476
97,0.0098,-1.73492e-05,617.306,-2.97002e-05,-0.00335883,0.00387553,0.00726637,-0.00408636,0.00975229,-0.00447722,-3.27733e-07,1.8828e-07,3.94091e-07,0.00709566,-0.004078022191936648,-3.2773294633692274e-07,1.882800177988031e-07,0.009799998543183586,3.940910775490636e-07,-0.004467212191826331
98,0.0099,-1.54624e-05,618.361,-2.70369e-05,-0.00334954,0.00387072,0.00725636,-0.00413215,0.00985132,-0.00452842,-3.3142e-07,1.90429e-07,3.97925e-07,0.00719397,-0.004123624415229621,-3.3141994504326533e-07,1.9042901810983892e-07,0.009900003988727146,3.9792507910973995e-07,-0.004518182165719642
99,0.01,-1.36313e-05,619.407,-2.44525e-05,-0.00334033,0.00386594,0.00724642,-0.00417794,0.00995033,-0.00457963,-3.35096e-07,1.92573e-07,4.01749e-07,0.00729231,-0.004169224550444661,-3.3509594388192454e-07,1.9257301864250564e-07,0.009999999138300186,4.017490806695889e-07,-0.004569159484325569
100,0.0101,-1.18537e-05,620.444,-2.19439e-05,-0.00333122,0.0038612,0.00723656,-0.00422373,0.0100493,-0.00463084,-3.38761e-07,1.94712e-07,4.05563e-07,0.00739069,-0.004214822597677248,-3.3876094263085577e-07,1.9471201895271406e-07,0.01009996378488398,4.055630822286105e-07,-0.004620134192449776
101,0.0102,-1.01278e-05,621.473,-1.95084e-05,-0.00332218,0.00385649,0.00722676,-0.00426953,0.0101483,-0.00468206,-3.42415e-07,1.96846e-07,4.09368e-07,0.0074891,-0.004260428514418768,-3.424149414010813e-07,1.9684601948455338e-07,0.01019996863145689,4.093680838757052e-07,-0.004671116243515017
102,0.0103,-8.45153e-06,622.493,-1.71432e-05,-0.00331323,0.00385181,0.00721703,-0.00431533,0.0102473,-0.00473328,-3.46058e-07,1.98975e-07,4.13164e-07,0.00758754,-0.004306032342457189,-3.4605794008157886e-07,1.989750197939344e-07,0.010299983378999622,4.1316408538882854e-07,-0.004722095683346361
103,0.0104,-6.82322e-06,623.505,-1.48459e-05,-0.00330436,0.00384716,0.00720737,-0.00436113,0.0103463,-0.0047845,-3.4969e-07,2.011e-07,4.1695e-07,0.00768601,-0.0043516340818881005,-3.4968993889439304e-07,2.0110002019180229e-07,0.010400008028492724,4.1695008690112445e-07,-0.004773072512077814
104,0.0105,-5.24109e-06,624.509,-1.26139e-05,-0.00329557,0.00384254,0.00719777,-0.00440693,0.0104453,-0.00483573,-3.53311e-07,2.0322e-07,4.20727e-07,0.00778452,-0.004397233732807093,-3.533109376174792e-07,2.0322002058925648e-07,0.01050004258091608,4.2072708850149354e-07,-0.004824056681602351
105,0.0106,-3.70351e-06,625.504,-1.04449e-05,-0.00328686,0.00383796,0.00718825,-0.00445273,0.0105442,-0.00488696,-3.56922e-07,2.05335e-07,4.24495e-07,0.00788305,-0.004442831295309979,-3.56921936339738e-07,2.0533502098629697e-07,0.010599985977246762,4.244950901899358e-07,-0.00487503823927482
106,0.0107,-2.2089e-06,626.492,-8.33666e-06,-0.00327823,0.00383341,0.00717878,-0.00449854,0.0106432,-0.0049382,-3.60522e-07,2.07446e-07,4.28254e-07,0.00798161,-0.00448843672460808,-3.605219349722688e-07,2.0744602147182434e-07,0.010700040328467164,4.2825409174440665e-07,-0.00492602713596868
107,0.0108,-7.55752e-07,627.473,-6.28706e-06,-0.00326968,0.00382888,0.00716938,-0.00454435,0.0107421,-0.00498944,-3.64111e-07,2.09552e-07,4.32004e-07,0.00808021,-0.004534040064769207,-3.6411093373711623e-07,2.09552021956938e-07,0.010800003505553324,4.3200409338695067e-07,-0.004977013420058518
108,0.0109,6.57381e-07,628.445,-4.29402e-06,-0.0032612,0.00382439,0.00716005,-0.00459016,0.010841,-0.00504068,-3.67689e-07,2.11653e-07,4.35745e-07,0.00817883,-0.004579641315889282,-3.6768893241223566e-07,2.1165302244163797e-07,0.010899976569486602,4.3574509489552327e-07,-0.005027997091678005
109,0.011,2.03188e-06,629.41,-2.3556e-06,-0.00325279,0.00381993,0.00715078,-0.00463597,0.0109399,-0.00509192,-3.71258e-07,2.1375e-07,4.39477e-07,0.00827747,-0.004625240478063786,-3.7125793106440597e-07,2.1375002279278021e-07,0.010999959521244662,4.3947709649216904e-07,-0.005078978150961144
110,0.0111,3.36906e-06,630.368,-4.69914e-07,-0.00324446,0.0038155,0.00714157,-0.00468178,0.0110388,-0.00514317,-3.74816e-07,2.15842e-07,4.432e-07,0.00837615,-0.004670837551388529,-3.748159297378706e-07,2.1584202336555336e-07,0.011099952361805832,4.43200098176888e-07,-0.005129966546742137
111,0.0112,4.6702e-06,631.319,1.36484e-06,-0.0032362,0.0038111,0.00713242,-0.0047276,0.0111377,-0.00519442,-3.78364e-07,2.17929e-07,4.46915e-07,0.00847485,-0.00471644248879477,-3.783639284105078e-07,2.179290237158682e-07,0.011199955092147995,4.469150998165361e-07,-0.005180952329434718
112,0.0113,5.9365e-06,632.262,3.15039e-06,-0.00322801,0.00380672,0.00712334,-0.00477341,0.0112366,-0.00524568,-3.81902e-07,2.20013e-07,4.5062e-07,0.00857357,-0.004762035384251129,-3.8190192708231763e-07,2.200130242435705e-07,0.01129996771324926,4.506201014553568e-07,-0.00523194544685357
113,0.0114,7.16915e-06,633.198,4.88839e-06,-0.00321989,0.00380238,0.00711431,-0.00481923,0.0113355,-0.00529693,-3.85429e-07,2.22091e-07,4.54318e-07,0.00867233,-0.00480763614306845,-3.8542892577542176e-07,2.2209102468195852e-07,0.01139999022608773,4.5431810313800725e-07,-0.005282926003261523
114,0.0115,8.36924e-06,634.128,6.58042e-06,-0.00321184,0.00379807,0.00710534,-0.00486505,0.0114344,-0.00534819,-3.88947e-07,2.24166e-07,4.58007e-07,0.0087711,-0.004853234812506879,-3.8894692433455447e-07,2.241660250756894e-07,0.01150002263164196,4.5800710490873087e-07,-0.0053339138936437935
115,0.0116,9.53785e-06,635.05,8.22801e-06,-0.00320385,0.00379378,0.00709643,-0.00491087,0.0115332,-0.00539945,-3.92455e-07,2.26235e-07,4.61687e-07,0.0088699,-0.0048988313926622284,-3.9245492300388207e-07,2.2623502560215059e-07,0.01159996377088901,4.6168710654548306e-07,-0.005384899170453816
116,0.0117,1.0676e-05,635.966,9.8326e-06,-0.00319593,0.00378952,0.00708758,-0.00495669,0.0116321,-0.00545072,-3.95953e-07,2.28301e-07,4.65359e-07,0.00896873,-0.004944425883629977,-3.9595292156135997e-07,2.2830102608395464e-07,0.011700015954804854,4.65359108359209e-07,-0.005435891779466684
117,0.0118,1.17847e-05,636.876,1.13956e-05,-0.00318808,0.00378529,0.00707878,-0.00500251,0.0117309,-0.00550198,-3.99442e-07,2.30362e-07,4.69023e-07,0.00906757,-0.004990018285506159,-3.9944192020691105e-07,2.30362026565345e-07,0.0117999768543684,4.690231099058195e-07,-0.005486871829024187
118,0.0119,1.28649e-05,637.779,1.29184e-05,-0.00318029,0.00378109,0.00707005,-0.00504833,0.0118298,-0.00555325,-4.0292e-07,2.32419e-07,4.72678e-07,0.00916644,-0.005035608598386254,-4.0291991887375644e-07,2.3241902691317762e-07,0.011900048820556508,4.726781117625478e-07,-0.005537859210032803
119,0.012,1.39175e-05,638.675,1.44022e-05,-0.00317256,0.00377692,0.00706136,-0.00509415,0.0119286,-0.00560452,-4.0639e-07,2.34471e-07,4.76325e-07,0.00926533,-0.005081196822366074,-4.063899173845087e-07,2.3447102748264115e-07,0.012000029484343422,4.7632511335216066e-07,-0.005588843976985447
120,0.0121,1.49434e-05,639.566,1.58483e-05,-0.0031649,0.00377277,0.00705274,-0.00513997,0.0120274,-0.00565579,-4.09849e-07,2.3652e-07,4.79965e-07,0.00936424,-0.00512678295754132,-4.0984891602757756e-07,2.3652002800744754e-07,0.012100020026707847,4.799651152076478e-07,-0.005639826130016123
121,0.0122,1.59434e-05,640.45,1.72579e-05,-0.0031573,0.00376865,0.00704416,-0.00518579,0.0121262,-0.00570706,-4.133e-07,2.38564e-07,4.83596e-07,0.00946318,-0.005172367004007694,-4.132999146255756e-07,2.385640285318402e-07,0.012200020448625892,4.835961169291636e-07,-0.005690805669258725
122,0.0123,1.69183e-05,641.328,1.86321e-05,-0.00314976,0.00376456,0.00703564,-0.00523162,0.012225,-0.00575834,-4.16741e-07,2.40604e-07,4.87219e-07,0.00956213,-0.005217958909681464,-4.167409131117239e-07,2.406040289226752e-07,0.012300030751073887,4.872191186056085e-07,-0.005741792537429569
123,0.0124,1.78689e-05,642.199,1.9972e-05,-0.00314227,0.00376049,0.00702718,-0.00527744,0.0123237,-0.00580961,-4.20173e-07,2.42639e-07,4.90834e-07,0.0096611,-0.00526353877856145,-4.201729116859454e-07,2.4263902953514105e-07,0.012399949695027779,4.908341204590272e-07,-0.005792766848988551
124,0.0125,1.87959e-05,643.065,2.12788e-05,-0.00313485,0.00375645,0.00701876,-0.00532327,0.0124225,-0.00586089,-4.23595e-07,2.44671e-07,4.94441e-07,0.0097601,-0.005309126505928519,-4.235949102593395e-07,2.4467102988090517e-07,0.01249997975146111,4.94441122267375e-07,-0.005843748488724154
125,0.0126,1.97002e-05,643.926,2.25533e-05,-0.00312749,0.00375243,0.0070104,-0.00536909,0.0125213,-0.00591217,-4.27009e-07,2.46698e-07,4.98041e-07,0.00985911,-0.005354702197604921,-4.2700890878766273e-07,2.466980304483002e-07,0.012600019691352271,4.980411241195526e-07,-0.0058947275141881805
126,0.0127,2.05822e-05,644.78,2.37967e-05,-0.00312018,0.00374844,0.00700209,-0.00541491,0.01262,-0.00596345,-4.30413e-07,2.48722e-07,5.01633e-07,0.00995814,-0.005400275801050958,-4.304129074261809e-07,2.4872203097103807e-07,0.012699968245675652,5.016331259266593e-07,-0.005945703925514967
127,0.0128,2.14429e-05,645.629,2.50097e-05,-0.00311293,0.00374448,0.00699383,-0.00546074,0.0127188,-0.00601473,-4.33809e-07,2.50741e-07,5.05217e-07,0.0100572,-0.00544585726190383,-4.338089059086059e-07,2.5074103149336224e-07,0.012800027945406134,5.052171276886952e-07,-0.005996677722838295
128,0.0129,2.22827e-05,646.472,2.61934e-05,-0.00310573,0.00374054,0.00698561,-0.00550656,0.0128175,-0.00606601,-4.37196e-07,2.52756e-07,5.08793e-07,0.0101563,-0.005491426688720602,-4.3719590447910406e-07,2.527560318821287e-07,0.012899996241518608,5.087931294056602e-07,-0.006047648906292391
129,0.013,2.31023e-05,647.309,2.73487e-05,-0.00309859,0.00373663,0.00697745,-0.00555239,0.0129162,-0.00611729,-4.40573e-07,2.54767e-07,5.12362e-07,0.0102553,-0.005537003972224008,-4.4057290293775253e-07,2.5476703235938203e-07,0.012999974404988901,5.12362131166455e-07,-0.006098617476011148
130,0.0131,2.39023e-05,648.142,2.84763e-05,-0.0030915,0.00373274,0.00696934,-0.00559821,0.0130149,-0.00616857,-4.43942e-07,2.56774e-07,5.15923e-07,0.0103544,-0.005582569222794098,-4.4394190146235246e-07,2.5677403292512224e-07,0.013099962436790902,5.159231331042236e-07,-0.00614958343212868
131,0.0132,2.46832e-05,648.968,2.95771e-05,-0.00308446,0.00372887,0.00696127,-0.00564404,0.0131136,-0.00621986,-4.47303e-07,2.58778e-07,5.19477e-07,0.0104536,-0.005628142329330954,-4.4730289994188155e-07,2.587780334462053e-07,0.01319996033789872,5.194771348637772e-07,-0.006200556712773531
132,0.0133,2.54457e-05,649.79,3.06519e-05,-0.00307748,0.00372503,0.00695326,-0.00568986,0.0132123,-0.00627114,-4.50654e-07,2.60777e-07,5.23023e-07,0.0105527,-0.005673703404037167,-4.5065389842058323e-07,2.607770339668747e-07,0.013299968109286242,5.230231368003047e-07,-0.006251517441581034
133,0.0134,2.61903e-05,650.606,3.17014e-05,-0.00307055,0.00372121,0.00694529,-0.00573568,0.013311,-0.00632243,-4.53998e-07,2.62772e-07,5.26562e-07,0.0106519,-0.005719262391182922,-4.5399789694311465e-07,2.6277203457603093e-07,0.013399985751928245,5.265621385586172e-07,-0.006302485494164567
134,0.0135,2.69174e-05,651.417,3.27263e-05,-0.00306366,0.00371741,0.00693736,-0.00578151,0.0134097,-0.00637371,-4.57332e-07,2.64764e-07,5.30094e-07,0.010751,-0.005764829233215307,-4.5733189546481867e-07,2.6476403514053004e-07,0.013500013266798616,5.300941405828041e-07,-0.0063534409961981675
135,0.0136,2.76276e-05,652.223,3.37274e-05,-0.00305683,0.00371364,0.00692948,-0.00582733,0.0135083,-0.006425,-4.60658e-07,2.66751e-07,5.33618e-07,0.0108502,-0.005810384045071171,-4.6065789394145185e-07,2.6675103548257084e-07,0.01359994929487196,5.336181423398756e-07,-0.006404403821256621
136,0.0137,2.83213e-05,653.024,3.47054e-05,-0.00305005,0.00370989,0.00692165,-0.00587315,0.013607,-0.00647629,-4.63976e-07,2.68735e-07,5.37135e-07,0.0109494,-0.005855936769653347,-4.639758923730142e-07,2.687350360019991e-07,0.013699996547117843,5.371351443628214e-07,-0.0064553640324989114
137,0.0138,2.89991e-05,653.82,3.56608e-05,-0.00304332,0.00370617,0.00691386,-0.00591897,0.0137056,-0.00652757,-4.67286e-07,2.70715e-07,5.40645e-07,0.0110486,-0.005901487407057426,-4.6728589087052796e-07,2.7071503660991425e-07,0.013799952294514917,5.406451462075523e-07,-0.006506311695122058
138,0.0139,2.96613e-05,654.612,3.65943e-05,-0.00303663,0.00370247,0.00690611,-0.0059648,0.0138043,-0.00657886,-4.70587e-07,2.72691e-07,5.44148e-07,0.0111478,-0.0059470458979088425,-4.7058688923407033e-07,2.7269103708427167e-07,0.013900019288031196,5.44148148096113e-07,-0.006557266679643514
139,0.014,3.03084e-05,655.398,3.75066e-05,-0.00302999,0.00369878,0.00689841,-0.00601062,0.0139029,-0.00663015,-4.7388e-07,2.74664e-07,5.47644e-07,0.0112471,-0.005992592360788307,-4.7387988766356415e-07,2.7466403773601655e-07,0.013999994758642664,5.476441500285034e-07,-0.006608219050750708
140,0.0141,3.09408e-05,656.18,3.83983e-05,-0.0030234,0.00369513,0.00689076,-0.00605644,0.0140015,-0.00668144,-4.77165e-07,2.76632e-07,5.51132e-07,0.0113463,-0.006038136736776778,-4.771648861590094e-07,2.7663203816530313e-07,0.014099980087321606,5.51132151915823e-07,-0.0066591688085779754
141,0.0142,3.1559e-05,656.956,3.92698e-05,-0.00301686,0.00369149,0.00688314,-0.00610226,0.0141001,-0.00673272,-4.80442e-07,2.78597e-07,5.54614e-07,0.0114456,-0.006083679025969624,-4.804418846093839e-07,2.7859703877197717e-07,0.014199975275039911,5.546141537138283e-07,-0.0067101060203601515
142,0.0143,3.21632e-05,657.729,4.01217e-05,-0.00301036,0.00368787,0.00687557,-0.00614808,0.0141987,-0.00678401,-4.83711e-07,2.80558e-07,5.58089e-07,0.0115449,-0.006129219228462657,-4.837108830146875e-07,2.805580394671381e-07,0.014299980322769912,5.580891557777079e-07,-0.006761050552538617
143,0.0144,3.2754e-05,658.496,4.09547e-05,-0.0030039,0.00368428,0.00686804,-0.00619389,0.0142973,-0.0068353,-4.86971e-07,2.82516e-07,5.61557e-07,0.0116442,-0.006174747406098913,-4.869708813970419e-07,2.8251603989559726e-07,0.01439999523148372,5.615571576633727e-07,-0.006811992471839168
144,0.0145,3.33316e-05,659.26,4.17691e-05,-0.00299749,0.00368071,0.00686055,-0.00623971,0.0143959,-0.00688659,-4.90224e-07,2.8447e-07,5.65018e-07,0.0117435,-0.006220283435934393,-4.902238798232261e-07,2.844700404125433e-07,0.014500020002153668,5.650181595928672e-07,-0.006862931778395587
145,0.0146,3.38964e-05,660.018,4.25656e-05,-0.00299112,0.00367715,0.0068531,-0.00628553,0.0144944,-0.00693787,-4.93469e-07,2.8642e-07,5.68472e-07,0.0118428,-0.0062658173793567196,-4.934688782043395e-07,2.8642004101797625e-07,0.014599953175751912,5.684721615661914e-07,-0.006913858541480633
146,0.0147,3.44487e-05,660.773,4.33445e-05,-0.0029848,0.00367362,0.00684569,-0.00633134,0.014593,-0.00698916,-4.96707e-07,2.88367e-07,5.71919e-07,0.0119421,-0.006311339299575058,-4.967068766292826e-07,2.8836704157875204e-07,0.014699997663247144,5.719191635833454e-07,-0.006964792623460281
147,0.0148,3.4989e-05,661.523,4.41063e-05,-0.00297852,0.00367011,0.00683832,-0.00637716,0.0146915,-0.00704045,-4.99936e-07,2.9031e-07,5.7536e-07,0.0120415,-0.0063568690709132625,-4.999358750312766e-07,2.903100422280147e-07,0.014799950535615114,5.753601655111851e-07,-0.007015724093097919
148,0.0149,3.55174e-05,662.268,4.48516e-05,-0.00297228,0.00366662,0.006831,-0.00642297,0.0147901,-0.00709173,-5.03158e-07,2.92249e-07,5.78794e-07,0.0121408,-0.006402386820149153,-5.03157873366078e-07,2.9224904274371966e-07,0.014900014743822299,5.787941674828545e-07,-0.007066643021193975
149,0.015,3.60343e-05,663.01,4.55807e-05,-0.00296608,0.00366315,0.00682371,-0.00646878,0.0148886,-0.00714302,-5.06372e-07,2.94185e-07,5.82221e-07,0.0122402,-0.006447902484264634,-5.063718717668308e-07,2.9418504321476746e-07,0.014999987318843111,5.822211694983537e-07,-0.007117569267058643
150,0.0151,3.654e-05,663.747,4.6294e-05,-0.00295992,0.0036597,0.00681646,-0.00651459,0.0149871,-0.0071943,-5.09579e-07,2.96118e-07,5.85642e-07,0.0123396,-0.006493416063355406,-5.095788702114135e-07,2.9611804386320273e-07,0.015099969741647623,5.856421714245386e-07,-0.007168482972668144
151,0.0152,3.70348e-05,664.48,4.6992e-05,-0.00295381,0.00365627,0.00680924,-0.0065604,0.0150856,-0.00724559,-5.12778e-07,2.98046e-07,5.89056e-07,0.012439,-0.006538927557516838,-5.127778684999029e-07,2.980460445112243e-07,0.015199962013205726,5.890561733945532e-07,-0.007219403995295637
152,0.0153,3.7519e-05,665.209,4.7675e-05,-0.00294773,0.00365285,0.00680207,-0.00660621,0.0151841,-0.00729687,-5.15969e-07,2.99972e-07,5.92464e-07,0.0125384,-0.006584436966844409,-5.159688668543438e-07,2.999720449814447e-07,0.015299964134487531,5.924641754972981e-07,-0.007270312478954044
153,0.0154,3.79928e-05,665.934,4.83435e-05,-0.00294169,0.00364946,0.00679493,-0.00665202,0.0152826,-0.00734815,-5.19153e-07,3.01894e-07,5.95865e-07,0.0126378,-0.006629944291433709,-5.191528652526145e-07,3.01894045540152e-07,0.015399976106463598,5.958651774218282e-07,-0.007321218352092429
154,0.0155,3.84566e-05,666.655,4.89978e-05,-0.00293569,0.00364609,0.00678783,-0.00669782,0.0153811,-0.00739944,-5.2233e-07,3.03812e-07,5.9926e-07,0.0127372,-0.006675439598134658,-5.223298635836926e-07,3.0381204618734614e-07,0.015499997930104037,5.992601794790886e-07,-0.007372131541123261
155,0.0156,3.89105e-05,667.372,4.96382e-05,-0.00292973,0.00364273,0.00678076,-0.00674363,0.0154796,-0.00745072,-5.25499e-07,3.05727e-07,6.02649e-07,0.0128366,-0.006720942753988934,-5.254988619807222e-07,3.0572704678988316e-07,0.015600029606379184,6.026491816690793e-07,-0.00742303219311391
156,0.0157,3.93548e-05,668.085,5.02652e-05,-0.00292381,0.0036394,0.00677373,-0.00678943,0.015578,-0.007502,-5.28661e-07,3.07639e-07,6.06031e-07,0.0129361,-0.006766433893055757,-5.286608603105591e-07,3.0763904734776304e-07,0.015699969566257854,6.060311836808552e-07,-0.007473930234986104
157,0.0158,3.97897e-05,668.794,5.0879e-05,-0.00291792,0.00363608,0.00676674,-0.00683523,0.0156765,-0.00755328,-5.31816e-07,3.09547e-07,6.09407e-07,0.0130355,-0.0068119229486761634,-5.318158585732036e-07,3.095470479941298e-07,0.015800020940709425,6.094071856033167e-07,-0.007524825666873625
158,0.0159,4.02156e-05,669.499,5.148e-05,-0.00291208,0.00363278,0.00675979,-0.00688103,0.0157749,-0.00760456,-5.34964e-07,3.11452e-07,6.12776e-07,0.013135,-0.006857409920945523,-5.349638568796777e-07,3.114520485958394e-07,0.015899980580703632,6.127761877916527e-07,-0.007575718488910366
159,0.016,4.06325e-05,670.201,5.20685e-05,-0.00290626,0.0036295,0.00675286,-0.00692683,0.0158733,-0.00765584,-5.38104e-07,3.13354e-07,6.16139e-07,0.0132344,-0.006902894809959204,-5.381038552521034e-07,3.133540491528919e-07,0.015999950057210333,6.161391898906743e-07,-0.007626608701230109
160,0.0161,4.10408e-05,670.899,5.26448e-05,-0.00290049,0.00362624,0.00674597,-0.00697263,0.0159718,-0.00770711,-5.41238e-07,3.15252e-07,6.19496e-07,0.0133339,-0.006948377615812684,-5.412378535352147e-07,3.1525204979843124e-07,0.016100030981195612,6.194961919003816e-07,-0.007677486380741505
161,0.0162,4.14406e-05,671.593,5.32093e-05,-0.00289475,0.00362299,0.00673912,-0.00701843,0.0160702,-0.00775839,-5.44364e-07,3.17147e-07,6.22847e-07,0.0134334,-0.006993858338601444,-5.443638518842775e-07,3.1714705039931346e-07,0.01620002014363031,6.228471940428193e-07,-0.007728371374537524
162,0.0163,4.18322e-05,672.283,5.37621e-05,-0.00288904,0.00361976,0.0067323,-0.00706422,0.0161686,-0.00780967,-5.47483e-07,3.19039e-07,6.26192e-07,0.0135329,-0.007039327048814048,-5.474828501661477e-07,3.1903905095553853e-07,0.016300019145482736,6.261921960959427e-07,-0.00777925375901789
163,0.0164,4.22157e-05,672.97,5.43036e-05,-0.00288337,0.00361655,0.00672552,-0.00711002,0.016267,-0.00786094,-5.50596e-07,3.20927e-07,6.29531e-07,0.0136324,-0.007084803606214107,-5.50595848469726e-07,3.209270516002505e-07,0.016400027987721,6.295311980597518e-07,-0.007830123612617812
164,0.0165,4.25913e-05,673.654,5.4834e-05,-0.00287773,0.00361336,0.00671876,-0.00715581,0.0163654,-0.00791221,-5.53701e-07,3.22812e-07,6.32863e-07,0.0137319,-0.007130268152138242,-5.537008467282334e-07,3.228120522003053e-07,0.01650004667131344,6.328632002894352e-07,-0.007880990858187276
165,0.0166,4.29593e-05,674.334,5.53537e-05,-0.00287213,0.00361018,0.00671204,-0.0072016,0.0164637,-0.00796348,-5.568e-07,3.24694e-07,6.3619e-07,0.0138314,-0.0071757306162885115,-5.567998450084488e-07,3.2469405275570296e-07,0.016599973537226198,6.361902022966603e-07,-0.00793185549585984
166,0.0167,4.33198e-05,675.01,5.58628e-05,-0.00286656,0.00360702,0.00670535,-0.00724738,0.0165621,-0.00801475,-5.59891e-07,3.26573e-07,6.39511e-07,0.0139309,-0.007221181070972027,-5.598908432435934e-07,3.265730532664435e-07,0.01670001189642889,6.395112044366158e-07,-0.00798271752576929
167,0.0168,4.3673e-05,675.683,5.63617e-05,-0.00286103,0.00360388,0.0066987,-0.00729317,0.0166604,-0.00806602,-5.62976e-07,3.28449e-07,6.42825e-07,0.0140305,-0.007266639372314976,-5.62975841500446e-07,3.2844905395457147e-07,0.01679995841988946,6.42825206620401e-07,-0.008033576948049292
168,0.0169,4.4019e-05,676.352,5.68505e-05,-0.00285552,0.00360075,0.00669207,-0.00733896,0.0167588,-0.00811729,-5.66055e-07,3.30321e-07,6.46134e-07,0.01413,-0.007312095592170054,-5.660548397790066e-07,3.3032105450914173e-07,0.016900016458572642,6.461342088037725e-07,-0.008084433762833632
169,0.017,4.4358e-05,677.018,5.73296e-05,-0.00285005,0.00359764,0.00668548,-0.00738474,0.0168571,-0.00816856,-5.69126e-07,3.3219e-07,6.49437e-07,0.0142295,-0.0073575398042079465,-5.691258380124964e-07,3.3219005524109946e-07,0.016999982643448153,6.494372108978297e-07,-0.008135287970255867
170,0.0171,4.46903e-05,677.681,5.7799e-05,-0.00284461,0.00359455,0.00667892,-0.00743052,0.0169554,-0.00821982,-5.72191e-07,3.34056e-07,6.52734e-07,0.0143291,-0.007402981935857311,-5.721908362676942e-07,3.3405605570635544e-07,0.017099958655482306,6.527342131246172e-07,-0.008186129652311025
171,0.0172,4.50158e-05,678.341,5.82591e-05,-0.00283921,0.00359147,0.00667239,-0.0074763,0.0170538,-0.00827108,-5.75249e-07,3.35919e-07,6.56025e-07,0.0144286,-0.007448421987213627,-5.752488345667217e-07,3.359190563489989e-07,0.017200046215641196,6.560252152620905e-07,-0.008236968728288385
172,0.0173,4.53349e-05,678.997,5.87101e-05,-0.00283383,0.00358841,0.00666589,-0.00752208,0.0171521,-0.00832235,-5.78301e-07,3.37779e-07,6.59311e-07,0.0145282,-0.007493859958371929,-5.78300832776435e-07,3.377790569469852e-07,0.017300041894891427,6.5931121739915e-07,-0.008287815115443409
173,0.0174,4.56477e-05,679.65,5.91522e-05,-0.00282849,0.00358536,0.00665942,-0.00756785,0.0172504,-0.00837361,-5.81345e-07,3.39636e-07,6.6259e-07,0.0146278,-0.007539285924820449,-5.813448310520997e-07,3.3963605772235894e-07,0.01740004740419998,6.625902195800393e-07,-0.008338648979157592
174,0.0175,4.59542e-05,680.3,5.95855e-05,-0.00282317,0.00358233,0.00665298,-0.00761362,0.0173486,-0.00842487,-5.84384e-07,3.4149e-07,6.65864e-07,0.0147274,-0.007584709812170076,-5.843838292163284e-07,3.4149005823103096e-07,0.017499960994532104,6.658642217605149e-07,-0.008389480237194546
175,0.0176,4.62546e-05,680.946,6.00104e-05,-0.00281789,0.00357932,0.00664657,-0.0076594,0.0174469,-0.00847612,-5.87416e-07,3.4334e-07,6.69133e-07,0.0148269,-0.007630141544214597,-5.874158274243868e-07,3.4334005905023446e-07,0.017599986156853875,6.691332239405767e-07,-0.008440298974091154
176,0.0177,4.65492e-05,681.59,6.04269e-05,-0.00281263,0.00357632,0.00664019,-0.00770517,0.0175452,-0.00852738,-5.90442e-07,3.45188e-07,6.72395e-07,0.0149265,-0.007675561273197684,-5.904418256541533e-07,3.451880594695922e-07,0.01770002115213254,6.723952261644683e-07,-0.008491125021683033
177,0.0178,4.68379e-05,682.23,6.08352e-05,-0.00280741,0.00357333,0.00663384,-0.00775093,0.0176434,-0.00857863,-5.93461e-07,3.47033e-07,6.75652e-07,0.0150261,-0.007720969000577171,-5.934608239277495e-07,3.47033060288382e-07,0.01779996420133312,6.756522281659016e-07,-0.008541938549417871
178,0.0179,4.7121e-05,682.867,6.12356e-05,-0.00280221,0.00357036,0.00662751,-0.0077967,0.0177417,-0.00862988,-5.96474e-07,3.48874e-07,6.78904e-07,0.0151257,-0.007766384572482687,-5.964738221120314e-07,3.4887406075156946e-07,0.01790001885541992,6.789042303889659e-07,-0.00859274947302624
179,0.018,4.73985e-05,683.502,6.16283e-05,-0.00279704,0.00356741,0.00662122,-0.00784246,0.0178399,-0.00868113,-5.9948e-07,3.50713e-07,6.82149e-07,0.0152253,-0.007811788143883058,-5.99479820340143e-07,3.50713061481045e-07,0.01799998154535931,6.821492326558598e-07,-0.008643557792641365
180,0.0181,4.76706e-05,684.133,6.20133e-05,-0.0027919,0.00356447,0.00661495,-0.00788822,0.0179381,-0.00873238,-6.0248e-07,3.52548e-07,6.8539e-07,0.0153249,-0.007857189637663464,-6.024798184789404e-07,3.5254806207696276e-07,0.01809995405211673,6.85390234789196e-07,-0.008694363508396918
181,0.0182,4.79374e-05,684.761,6.23909e-05,-0.00278679,0.00356154,0.00660871,-0.00793398,0.0180364,-0.00878363,-6.05474e-07,3.54381e-07,6.88625e-07,0.0154245,-0.007902589053919051,-6.054738167504681e-07,3.54381062717124e-07,0.018200038196655166,6.886252370552626e-07,-0.008745166620426237
182,0.0183,4.81991e-05,685.386,6.27612e-05,-0.00278171,0.00355863,0.0066025,-0.00797974,0.0181346,-0.00883487,-6.08462e-07,3.56211e-07,6.91854e-07,0.0155241,-0.007947986392744966,-6.084618149326815e-07,3.562110635346727e-07,0.01830003034994032,6.918542392320148e-07,-0.00879595721682247
183,0.0184,4.84557e-05,686.009,6.31244e-05,-0.00277666,0.00355573,0.00659632,-0.0080255,0.0182328,-0.00888612,-6.11444e-07,3.58038e-07,6.95078e-07,0.0156238,-0.007993381654236131,-6.114438130255806e-07,3.5803806408551964e-07,0.01840003232293741,6.95078241630398e-07,-0.008846755122307703
184,0.0185,4.87073e-05,686.628,6.34806e-05,-0.00277163,0.00355285,0.00659016,-0.00807125,0.018331,-0.00893736,-6.14419e-07,3.59861e-07,6.98296e-07,0.0157234,-0.00803876491887534,-6.144188112733318e-07,3.5986106472485346e-07,0.018500044116610104,6.982962437174223e-07,-0.008897540513442381
185,0.0186,4.8954e-05,687.245,6.383e-05,-0.00276663,0.00354998,0.00658403,-0.008117,0.0184291,-0.0089886,-6.17389e-07,3.61682e-07,7.01509e-07,0.015823,-0.008084146107277701,-6.173888094096469e-07,3.6168206540843073e-07,0.018599963871921865,7.015092460260774e-07,-0.008948323302400252
186,0.0187,4.91961e-05,687.859,6.41728e-05,-0.00276165,0.00354713,0.00657793,-0.00816275,0.0185273,-0.00903983,-6.20352e-07,3.63501e-07,7.04717e-07,0.0159227,-0.008129525219538136,-6.203518075897918e-07,3.6350106613625144e-07,0.01869999529983679,7.047172483343189e-07,-0.008999093579305728
187,0.0188,4.94334e-05,688.47,6.4509e-05,-0.0027567,0.00354428,0.00657185,-0.00820849,0.0186255,-0.00909107,-6.23309e-07,3.65316e-07,7.07919e-07,0.0160223,-0.008174892337500683,-6.233088057916447e-07,3.653160667305144e-07,0.018800036551320343,7.079192505532461e-07,-0.009049871164817924
188,0.0189,4.96663e-05,689.078,6.48389e-05,-0.00275178,0.00354146,0.0065658,-0.00825424,0.0187236,-0.0091423,-6.26261e-07,3.67128e-07,7.11116e-07,0.0161219,-0.008220267298216122,-6.262608038820616e-07,3.6712806750216487e-07,0.018899985737333314,7.111162527717596e-07,-0.00910063623955959
189,0.019,4.98946e-05,689.684,6.51625e-05,-0.00274689,0.00353864,0.00655978,-0.00829998,0.0188218,-0.00919353,-6.29206e-07,3.68938e-07,7.14308e-07,0.0162216,-0.008265630265730906,-6.292058020163083e-07,3.6893806809601415e-07,0.01900004662884225,7.14308255211904e-07,-0.009151398713673209
190,0.0191,5.01187e-05,690.286,6.548e-05,-0.00274202,0.00353584,0.00655378,-0.00834572,0.0189199,-0.00924476,-6.32145e-07,3.70745e-07,7.17495e-07,0.0163212,-0.008310991158391068,-6.321448001722629e-07,3.707450686452063e-07,0.019100015436806395,7.174952574295901e-07,-0.009202158587291787
191,0.0192,5.03384e-05,690.886,6.57916e-05,-0.00273717,0.00353305,0.0065478,-0.00839146,0.019018,-0.00929599,-6.35079e-07,3.72549e-07,7.20676e-07,0.0164209,-0.008356349976291422,-6.350787983278039e-07,3.725490693717859e-07,0.019199994052191638,7.206762597800065e-07,-0.009252915860548772
192,0.0193,5.0554e-05,691.484,6.60972e-05,-0.00273235,0.00353028,0.00654185,-0.00843719,0.0191161,-0.00934721,-6.38007e-07,3.7435e-07,7.23852e-07,0.0165205,-0.008401696803543857,-6.380067965050529e-07,3.7435007005370835e-07,0.019299982475960098,7.238522619079646e-07,-0.009303660626613808
193,0.0194,5.07655e-05,692.079,6.63972e-05,-0.00272756,0.00352752,0.00653593,-0.00848292,0.0192142,-0.00939843,-6.40928e-07,3.76148e-07,7.27023e-07,0.0166202,-0.008447041557133383,-6.409277946151093e-07,3.7614807069097367e-07,0.019399980709074116,7.270232642575536e-07,-0.00935440279359856
194,0.0195,5.09731e-05,692.671,6.66915e-05,-0.00272278,0.00352477,0.00653003,-0.00852866,0.0193123,-0.00944965,-6.43844e-07,3.77944e-07,7.30189e-07,0.0167199,-0.008492394152230798,-6.43843792724752e-07,3.779440713724824e-07,0.019499988752496034,7.301892666067289e-07,-0.009405142361636032
195,0.0196,5.11766e-05,693.26,6.69803e-05,-0.00271804,0.00352203,0.00652416,-0.00857438,0.0194104,-0.00950087,-6.46755e-07,3.79737e-07,7.33349e-07,0.0168195,-0.008537724843702632,-6.46754790833981e-07,3.7973707200933404e-07,0.019600006607188192,7.333492688665899e-07,-0.00945587933085934
196,0.0197,5.13764e-05,693.847,6.72637e-05,-0.00271332,0.00351931,0.0065183,-0.00862011,0.0195085,-0.00955209,-6.49659e-07,3.81527e-07,7.36505e-07,0.0169192,-0.008583063376872091,-6.496587889870398e-07,3.815270728235731e-07,0.019700034274113154,7.365052712149378e-07,-0.009506613701401712
197,0.0198,5.15724e-05,694.432,6.75419e-05,-0.00270862,0.0035166,0.00651248,-0.00866583,0.0196065,-0.0096033,-6.52558e-07,3.83315e-07,7.39655e-07,0.0170189,-0.008628389923041713,-6.525577870286625e-07,3.8331507346001104e-07,0.019799969774231485,7.396552734739714e-07,-0.009557335568969538
198,0.0199,5.17647e-05,695.013,6.78149e-05,-0.00270394,0.0035139,0.00650667,-0.00871155,0.0197046,-0.00965451,-6.55451e-07,3.85099e-07,7.42801e-07,0.0171186,-0.0086737143969291,-6.554507852030156e-07,3.8509907418493583e-07,0.019900017058505526,7.428012758214919e-07,-0.00960805483913707
199,0.02,5.19534e-05,695.593,6.80828e-05,-0.00269929,0.00351122,0.00650089,-0.00875727,0.0198026,-0.00970572,-6.58339e-07,3.86881e-07,7.45941e-07,0.0172182,-0.008719036798628843,-6.583387832659326e-07,3.8688107473205946e-07,0.019999972157897172,7.459412783017427e-07,-0.009658771512037312
200,0.0201,5.21386e-05,696.17,6.83457e-05,-0.00269466,0.00350854,0.00649514,-0.00880298,0.0199007,-0.00975693,-6.6122e-07,3.88661e-07,7.49077e-07,0.0173179,-0.008764347215879265,-6.612197813726794e-07,3.8866107554547114e-07,0.020100039063367214,7.490772806484358e-07,-0.009709485587803157
201,0.0202,5.23203e-05,696.744,6.86039e-05,-0.00269005,0.00350588,0.0064894,-0.0088487,0.0199987,-0.00980813,-6.64097e-07,3.90437e-07,7.52207e-07,0.0174176,-0.008809665473941353,-6.640967794568908e-07,3.904370762253251e-07,0.02020001376587577,7.522072829058146e-07,-0.009760187164169598
202,0.0203,5.24986e-05,697.316,6.88572e-05,-0.00268547,0.00350323,0.00648369,-0.00889441,0.0200967,-0.00985933,-6.66967e-07,3.92212e-07,7.55333e-07,0.0175173,-0.008854971748649687,-6.669667775849319e-07,3.9221207681627845e-07,0.0202999982663854,7.553332852516803e-07,-0.00981088614468184
203,0.0204,5.26736e-05,697.886,6.91059e-05,-0.00268091,0.00350059,0.00647801,-0.00894012,0.0201947,-0.00991053,-6.69833e-07,3.93983e-07,7.58453e-07,0.017617,-0.008900275952455572,-6.698327756904376e-07,3.939830777177633e-07,0.02039999256585623,7.584532877302763e-07,-0.009861582529472779
204,0.0205,5.28453e-05,698.453,6.935e-05,-0.00267637,0.00349797,0.00647234,-0.00898582,0.0202927,-0.00996173,-6.72692e-07,3.95752e-07,7.61569e-07,0.0177166,-0.008945568174909435,-6.726917737287508e-07,3.957520782194024e-07,0.020499996665248377,7.615692900753146e-07,-0.009912276318675084
205,0.0206,5.30138e-05,699.018,6.95896e-05,-0.00267185,0.00349535,0.0064667,-0.00903152,0.0203907,-0.0100129,-6.75547e-07,3.97518e-07,7.6468e-07,0.0178163,-0.008990858327555973,-6.755467718555508e-07,3.9751807912047354e-07,0.02060001056552263,7.646802924199392e-07,-0.009962937811310524
206,0.0207,5.31792e-05,699.58,6.98248e-05,-0.00266736,0.00349275,0.00646108,-0.00907722,0.0204887,-0.0100641,-6.78395e-07,3.99282e-07,7.67786e-07,0.017916,-0.009036146410489776,-6.783947699151582e-07,3.9928207962169893e-07,0.020700034267639555,7.677862947641501e-07,-0.01001362641125536
207,0.0208,5.33416e-05,700.141,7.00557e-05,-0.00266288,0.00349016,0.00645548,-0.00912292,0.0205866,-0.0101153,-6.81239e-07,4.01043e-07,7.70887e-07,0.0180157,-0.009081432423805547,-6.812387679522303e-07,4.010430805223564e-07,0.02079996569255771,7.708872971079472e-07,-0.010064312416010357
208,0.0209,5.35009e-05,700.698,7.02824e-05,-0.00265843,0.00348758,0.0064499,-0.00916862,0.0206846,-0.0101665,-6.84077e-07,4.02801e-07,7.73983e-07,0.0181154,-0.009126716367597765,-6.840767660110103e-07,4.028010811563121e-07,0.02090000899123723,7.739832994513307e-07,-0.010114995825708295
209,0.021,5.36573e-05,701.254,7.05049e-05,-0.002654,0.00348501,0.00644434,-0.00921431,0.0207825,-0.0102177,-6.86909e-07,4.04557e-07,7.77075e-07,0.0182151,-0.009171988333681047,-6.869087640914984e-07,4.045570818345112e-07,0.020999959994639106,7.770753018832011e-07,-0.010165676640482069
210,0.0211,5.38107e-05,701.807,7.07234e-05,-0.00264959,0.00348245,0.00643881,-0.00926,0.0208805,-0.0102689,-6.89737e-07,4.0631e-07,7.80162e-07,0.0183148,-0.009217258231335346,-6.89736762149451e-07,4.063100824680532e-07,0.021100022893720594,7.801623043146577e-07,-0.010216354860464572
211,0.0212,5.39614e-05,702.358,7.09379e-05,-0.0026452,0.00347991,0.0064333,-0.00930569,0.0209784,-0.01032,-6.92559e-07,4.08061e-07,7.83244e-07,0.0184145,-0.009262526060655363,-6.925587602291117e-07,4.0806108336788327e-07,0.021199993479442236,7.832443067457007e-07,-0.010266931512486699
212,0.0213,5.41092e-05,702.907,7.11485e-05,-0.00264083,0.00347737,0.0064278,-0.00935137,0.0210763,-0.0103712,-6.95375e-07,4.09809e-07,7.86321e-07,0.0185142,-0.009307781914813296,-6.95374758219458e-07,4.0980908400101157e-07,0.021299973852763276,7.863213091763299e-07,-0.01031760454835251
213,0.0214,5.42543e-05,703.454,7.13552e-05,-0.00263648,0.00347485,0.00642233,-0.00939705,0.0211742,-0.0104224,-6.98187e-07,4.11555e-07,7.89394e-07,0.0186139,-0.009353035701731072,-6.981867562982913e-07,4.115550846783833e-07,0.02139996401464206,7.893943114734014e-07,-0.010368274989825288
214,0.0215,5.43968e-05,703.998,7.15582e-05,-0.00263215,0.00347233,0.00641688,-0.00944273,0.0212721,-0.0104736,-7.00993e-07,4.13298e-07,7.92462e-07,0.0187136,-0.00939828742150306,-7.009927542878103e-07,4.132980853110979e-07,0.021499963966036928,7.924623139921039e-07,-0.010418942837037815
215,0.0216,5.45366e-05,704.54,7.17575e-05,-0.00262784,0.00346983,0.00641145,-0.00948841,0.02137,-0.0105247,-7.03794e-07,4.15039e-07,7.95525e-07,0.0188133,-0.00944353707422374,-7.037937523879378e-07,4.1503908621010055e-07,0.021599973707906006,7.955253165103926e-07,-0.010469509137078892
216,0.0217,5.46738e-05,705.081,7.19532e-05,-0.00262355,0.00346734,0.00640604,-0.00953408,0.0214679,-0.0105759,-7.0659e-07,4.16777e-07,7.98584e-07,0.018913,-0.009488774754875307,-7.065897503766294e-07,4.1677708684240145e-07,0.021699993241208304,7.985843188951236e-07,-0.010520171801235767
217,0.0218,5.48085e-05,705.618,7.21453e-05,-0.00261928,0.00346486,0.00640065,-0.00957975,0.0215658,-0.0106271,-7.09381e-07,4.18513e-07,8.01638e-07,0.0190127,-0.009534010369569135,-7.093807483649073e-07,4.185130875189458e-07,0.02180002256690239,8.016383212794409e-07,-0.01057083187153074
218,0.0219,5.49407e-05,706.154,7.2334e-05,-0.00261503,0.00346239,0.00639528,-0.00962542,0.0216636,-0.0106782,-7.12166e-07,4.20247e-07,8.04687e-07,0.0191124,-0.009579243918399594,-7.121657463748932e-07,4.2024708823973356e-07,0.021899959495945476,8.046873236633445e-07,-0.010621390410240461
219,0.022,5.50705e-05,706.688,7.25192e-05,-0.0026108,0.00345992,0.00638993,-0.00967109,0.0217615,-0.0107294,-7.14947e-07,4.21977e-07,8.07732e-07,0.0192121,-0.009624475401461052,-7.149467444733659e-07,4.219770890490082e-07,0.02200000839929417,8.07732326135735e-07,-0.010672045298275257
220,0.0221,5.51979e-05,707.22,7.27011e-05,-0.00260659,0.00345747,0.0063846,-0.00971675,0.0218593,-0.0107805,-7.17722e-07,4.23706e-07,8.10773e-07,0.0193118,-0.009669694915544813,-7.177217424825244e-07,4.237060897693823e-07,0.022099964887908108,8.107733286966123e-07,-0.010722598665110938
221,0.0222,5.5323e-05,707.749,7.28797e-05,-0.00260239,0.00345503,0.00637928,-0.00976241,0.0219572,-0.0108317,-7.20493e-07,4.25432e-07,8.13809e-07,0.0194116,-0.00971491236495281,-7.204927404691475e-07,4.254320904450992e-07,0.02220003337274301,8.138093310350314e-07,-0.0107732483714158
222,0.0223,5.54457e-05,708.277,7.30551e-05,-0.00259822,0.0034526,0.00637399,-0.00980806,0.022055,-0.0108828,-7.23258e-07,4.27156e-07,8.1684e-07,0.0195113,-0.00976011784738029,-7.232577384774785e-07,4.271560911650596e-07,0.022300009424756073,8.168403335950813e-07,-0.010823796566906574
223,0.0224,5.55662e-05,708.802,7.32273e-05,-0.00259406,0.00345018,0.00636872,-0.00985372,0.0221528,-0.010934,-7.26019e-07,4.28877e-07,8.19867e-07,0.019611,-0.009805331168171394,-7.260187364632742e-07,4.2887709206240743e-07,0.022399995254905214,8.198673360215736e-07,-0.010874441092011411
224,0.0225,5.56845e-05,709.326,7.33964e-05,-0.00258992,0.00344777,0.00636346,-0.00989937,0.0222506,-0.0109851,-7.28774e-07,4.30596e-07,8.22889e-07,0.0197107,-0.009850532523074884,-7.287737344707779e-07,4.305960927819541e-07,0.02249999086414678,8.228893386696967e-07,-0.01092498411668641
225,0.0226,5.58006e-05,709.847,7.35624e-05,-0.0025858,0.00344537,0.00635823,-0.00994502,0.0223484,-0.0110363,-7.31525e-07,4.32312e-07,8.25907e-07,0.0198104,-0.009895731814583475,-7.315247324557461e-07,4.3231209345684363e-07,0.022599996253437116,8.259073409622175e-07,-0.010975623461121353
226,0.0227,5.59145e-05,710.367,7.37254e-05,-0.0025817,0.00344298,0.00635301,-0.00999066,0.0224462,-0.0110874,-7.3427e-07,4.34027e-07,8.28921e-07,0.0199101,-0.009940919142200744,-7.342697304624224e-07,4.340270942648772e-07,0.02270001142373279,8.289213435652698e-07,-0.011026161315509264
227,0.0228,5.60264e-05,710.885,7.38855e-05,-0.00257761,0.0034406,0.00634781,-0.0100363,0.022544,-0.0111385,-7.37011e-07,4.35738e-07,8.3193e-07,0.0200098,-0.009986104407515572,-7.370107284465632e-07,4.35738094939353e-07,0.022800036375990596,8.319303459458638e-07,-0.011076696587478896
228,0.0229,5.61362e-05,711.4,7.40427e-05,-0.00257355,0.00343823,0.00634263,-0.0100819,0.0226417,-0.0111897,-7.39747e-07,4.37448e-07,8.34934e-07,0.0201095,-0.010031248011872607,-7.397467264302904e-07,4.3744809574697285e-07,0.02289996882116485,8.349343485480887e-07,-0.01112732816443418
229,0.023,5.6244e-05,711.914,7.4197e-05,-0.0025695,0.00343587,0.00633747,-0.0101276,0.0227395,-0.0112408,-7.42478e-07,4.39155e-07,8.37935e-07,0.0202092,-0.01007648855008425,-7.424777244136038e-07,4.3915509650993556e-07,0.0230000133302124,8.379353511056564e-07,-0.011177858266909868
230,0.0231,5.63498e-05,712.426,7.43486e-05,-0.00256547,0.00343351,0.00633233,-0.0101732,0.0228372,-0.0112919,-7.45204e-07,4.4086e-07,8.40931e-07,0.0203089,-0.010121628033018304,-7.452037222854813e-07,4.408600970950971e-07,0.023099965314089754,8.409313536628105e-07,-0.011228385787363293
231,0.0232,5.64536e-05,712.935,7.44974e-05,-0.00256145,0.00343117,0.0063272,-0.0102188,0.022935,-0.011343,-7.47925e-07,4.42562e-07,8.43922e-07,0.0204086,-0.010166765457638949,-7.479247202679673e-07,4.425620978576461e-07,0.023200029383750653,8.439223559975062e-07,-0.01127891072592635
232,0.0233,5.65555e-05,713.443,7.46436e-05,-0.00255745,0.00342884,0.00632209,-0.0102645,0.0230327,-0.0113942,-7.50642e-07,4.44262e-07,8.4691e-07,0.0205083,-0.010211999802844818,-7.506417182279179e-07,4.4426209866443855e-07,0.023300000910150942,8.46910358731634e-07,-0.011329531949782812
233,0.0234,5.66556e-05,713.95,7.4787e-05,-0.00255347,0.00342651,0.006317,-0.0103101,0.0231304,-0.0114453,-7.53354e-07,4.4596e-07,8.49893e-07,0.020608,-0.010257133106606697,-7.533537161874548e-07,4.4596009951547444e-07,0.02339998220424655,8.498933612433035e-07,-0.011380051719909079
234,0.0235,5.67537e-05,714.454,7.49279e-05,-0.00254951,0.0034242,0.00631193,-0.0103557,0.0232281,-0.0114964,-7.56061e-07,4.47656e-07,8.52871e-07,0.0207077,-0.010302264352336832,-7.56060714146578e-07,4.4765610018870916e-07,0.023499973266991825,8.528713637545593e-07,-0.011430568908540994
235,0.0236,5.68501e-05,714.956,7.50663e-05,-0.00254556,0.00342189,0.00630687,-0.0104013,0.0233258,-0.0115475,-7.58763e-07,4.49349e-07,8.55846e-07,0.0208075,-0.010347393540129035,-7.587627121052876e-07,4.4934910103933134e-07,0.023599974099341114,8.55846366221158e-07,-0.011481083515810564
236,0.0237,5.69447e-05,715.457,7.52021e-05,-0.00254163,0.00341959,0.00630183,-0.010447,0.0234235,-0.0115986,-7.61461e-07,4.5104e-07,8.58816e-07,0.0209072,-0.010392619630820166,-7.614607100414617e-07,4.5104010171215236e-07,0.02369998470224899,8.588163686873429e-07,-0.011531595541849682
237,0.0238,5.70375e-05,715.956,7.53355e-05,-0.00253771,0.0034173,0.00629681,-0.0104926,0.0235212,-0.0116497,-7.64153e-07,4.52729e-07,8.61782e-07,0.0210069,-0.010437744698505669,-7.641527079993438e-07,4.527291024292168e-07,0.02380000507667024,8.617823712420147e-07,-0.011582104986790132
238,0.0239,5.71287e-05,716.452,7.54665e-05,-0.00253381,0.00341503,0.0062918,-0.0105382,0.0236189,-0.0117008,-7.66842e-07,4.54415e-07,8.64744e-07,0.0211066,-0.010482867708535015,-7.66841706023591e-07,4.5441510332366875e-07,0.023900035223559213,8.647443738851734e-07,-0.011632611850763919
239,0.024,5.72181e-05,716.948,7.5595e-05,-0.00252993,0.00341275,0.00628682,-0.0105838,0.0237165,-0.0117519,-7.69525e-07,4.561e-07,8.67702e-07,0.0212063,-0.010527988661001908,-7.69524703958524e-07,4.561001039071755e-07,0.02399997274386867,8.677023763947744e-07,-0.011683116133902938
240,0.0241,5.73058e-05,717.441,7.57213e-05,-0.00252606,0.00341049,0.00628184,-0.0106294,0.0238142,-0.011803,-7.72204e-07,4.57782e-07,8.70655e-07,0.021306,-0.010573107556000383,-7.722037018709216e-07,4.577821048901143e-07,0.024100022428553247,8.706553791260063e-07,-0.011733617836338972
241,0.0242,5.73919e-05,717.933,7.58453e-05,-0.00252221,0.00340824,0.00627689,-0.010675,0.0239118,-0.0118541,-7.74879e-07,4.59462e-07,8.73604e-07,0.0214057,-0.010618224393624143,-7.748786997607837e-07,4.594621054732073e-07,0.024199979468566557,8.736043815016359e-07,-0.011784116958204027
242,0.0243,5.74765e-05,718.423,7.5967e-05,-0.00251838,0.00340599,0.00627195,-0.0107206,0.0240095,-0.0119052,-7.77549e-07,4.6114e-07,8.7655e-07,0.0215054,-0.010663339173967001,-7.775486977612545e-07,4.611401063225884e-07,0.024300048694862797,8.765503842766975e-07,-0.011834613499629887
243,0.0244,5.75594e-05,718.911,7.60864e-05,-0.00251456,0.00340376,0.00626703,-0.0107662,0.0241071,-0.0119563,-7.80214e-07,4.62815e-07,8.79491e-07,0.021605,-0.010708451897122662,-7.802136956502892e-07,4.6281510712731233e-07,0.024400025258392244,8.794913868293008e-07,-0.011885107460748334
244,0.0245,5.76408e-05,719.397,7.62038e-05,-0.00251075,0.00340153,0.00626212,-0.0108118,0.0242047,-0.0120074,-7.82875e-07,4.64488e-07,8.82428e-07,0.0217047,-0.01075356256318516,-7.828746935167885e-07,4.644881079762797e-07,0.024500011580110614,8.824283892483464e-07,-0.011935598841691264
245,0.0246,5.77206e-05,719.882,7.63189e-05,-0.00250696,0.00339931,0.00625723,-0.0108574,0.0243023,-0.0120585,-7.85531e-07,4.66159e-07,8.8536e-07,0.0218044,-0.010798671172248198,-7.855306914938964e-07,4.661591086474459e-07,0.024600007660970258,8.853603918890229e-07,-0.011986087642590681
246,0.0247,5.7799e-05,720.365,7.6432e-05,-0.00250319,0.0033971,0.00625236,-0.0109029,0.0243999,-0.0121095,-7.88183e-07,4.67828e-07,8.88289e-07,0.0219041,-0.010843678808778345,-7.881826893374466e-07,4.6782810936285557e-07,0.024700013501923523,8.882893944850423e-07,-0.012036475067230601
247,0.0248,5.78759e-05,720.846,7.6543e-05,-0.00249943,0.0033949,0.0062475,-0.0109485,0.0244975,-0.0121606,-7.9083e-07,4.69495e-07,8.91214e-07,0.0220038,-0.010888783308634298,-7.908296872916054e-07,4.6949511012250866e-07,0.024800029103923427,8.912143971695485e-07,-0.012086958713486529
248,0.0249,5.79513e-05,721.326,7.66519e-05,-0.00249568,0.0033927,0.00624266,-0.0109941,0.024595,-0.0122117,-7.93473e-07,4.7116e-07,8.94135e-07,0.0221035,-0.010933885751771899,-7.934726852232288e-07,4.711601109264052e-07,0.024899951977922052,8.94135399720497e-07,-0.012137439780094073
249,0.025,5.80253e-05,721.804,7.67589e-05,-0.00249195,0.00339052,0.00623783,-0.0110397,0.0246926,-0.0122627,-7.96112e-07,4.72822e-07,8.97051e-07,0.0222032,-0.010978986138284963,-7.961116831323167e-07,4.728221116856446e-07,0.02499998709486939,8.970514022710319e-07,-0.012187819485971807
250,0.0251,5.80979e-05,722.28,7.68639e-05,-0.00248824,0.00338834,0.00623302,-0.0110853,0.0247902,-0.0123138,-7.98746e-07,4.74483e-07,8.99964e-07,0.0223029,-0.011024084468267303,-7.98745681040991e-07,4.74483112578028e-07,0.025100031975720416,8.999644049989541e-07,-0.012238295398725563
251,0.0252,5.81692e-05,722.755,7.69669e-05,-0.00248454,0.00338617,0.00622822,-0.0111308,0.0248877,-0.0123649,-8.01376e-07,4.76141e-07,9.02873e-07,0.0224026,-0.011069081848725904,-8.013756789271298e-07,4.7614111342575427e-07,0.025199984101424988,9.028734075933187e-07,-0.012288768732226063
252,0.0253,5.82391e-05,723.228,7.70681e-05,-0.00248085,0.00338401,0.00622344,-0.0111764,0.0249853,-0.0124159,-8.04001e-07,4.77797e-07,9.05777e-07,0.0225022,-0.01111417607043752,-8.040006768128549e-07,4.777971140956794e-07,0.025300048502936656,9.057774101872695e-07,-0.012339140720524111
253,0.0254,5.83076e-05,723.7,7.71674e-05,-0.00247718,0.00338185,0.00621867,-0.011222,0.0250828,-0.012467,-8.06622e-07,4.79451e-07,9.08678e-07,0.0226019,-0.011159268235899522,-8.066216746760446e-07,4.794511150318925e-07,0.02540002013120346,9.086784129586079e-07,-0.012389608900960192
254,0.0255,5.83748e-05,724.17,7.72648e-05,-0.00247352,0.00337971,0.00621392,-0.0112675,0.0251803,-0.012518,-8.09238e-07,4.81103e-07,9.11575e-07,0.0227016,-0.011204259465636524,-8.092376725388206e-07,4.811031157903045e-07,0.025500001507179126,9.115754153743438e-07,-0.012439975746540766
255,0.0256,5.84408e-05,724.638,7.73605e-05,-0.00246988,0.00337757,0.00620918,-0.0113131,0.0252778,-0.0125691,-8.11851e-07,4.82753e-07,9.14468e-07,0.0228013,-0.011249347523389353,-8.118506704679618e-07,4.827531165929599e-07,0.025599992631814228,9.144684181006113e-07,-0.012490438774438783
256,0.0257,5.85055e-05,725.105,7.74544e-05,-0.00246625,0.00337544,0.00620446,-0.0113586,0.0253753,-0.0126201,-8.14459e-07,4.84401e-07,9.17357e-07,0.022901,-0.011294334654612048,-8.144586682856669e-07,4.844011172178142e-07,0.025699993506059116,9.17357420693321e-07,-0.012540800477827019
257,0.0258,5.85689e-05,725.57,7.75465e-05,-0.00246263,0.00337331,0.00619976,-0.0114042,0.0254728,-0.0126712,-8.17062e-07,4.86047e-07,9.20242e-07,0.0230006,-0.01133941860502996,-8.170616662139807e-07,4.860471181089565e-07,0.025800004130864806,9.202424233745177e-07,-0.012591258353712886
258,0.0259,5.86311e-05,726.034,7.76369e-05,-0.00245903,0.0033712,0.00619506,-0.0114497,0.0255703,-0.0127222,-8.19662e-07,4.8769e-07,9.23123e-07,0.0231003,-0.011384401638111608,-8.196616640976373e-07,4.876901189554417e-07,0.02590002450718165,9.231234261442012e-07,-0.012641614915433586
259,0.026,5.86921e-05,726.496,7.77256e-05,-0.00245544,0.00336909,0.00619039,-0.0114953,0.0256677,-0.0127732,-8.22257e-07,4.89332e-07,9.26e-07,0.0232,-0.011429481481568748,-8.222566619808802e-07,4.893321197130263e-07,0.025999952035960394,9.26000428780327e-07,-0.012691968909035123
260,0.0261,5.8752e-05,726.956,7.78126e-05,-0.00245186,0.00336699,0.00618572,-0.0115408,0.0257652,-0.0128243,-8.24848e-07,4.90972e-07,9.28874e-07,0.0232996,-0.011474460416882715,-8.248476598415877e-07,4.909721205148543e-07,0.02609999190814838,9.288744313717956e-07,-0.012742419060411514
261,0.0262,5.88106e-05,727.415,7.7898e-05,-0.0024483,0.0033649,0.00618107,-0.0115864,0.0258627,-0.0128753,-8.27435e-07,4.92609e-07,9.31743e-07,0.0233993,-0.011519536153753118,-8.274346576797598e-07,4.926091212720252e-07,0.02620004153469946,9.317434339628505e-07,-0.012792767913132774
262,0.0263,5.88681e-05,727.873,7.79818e-05,-0.00244475,0.00336281,0.00617644,-0.0116319,0.0259601,-0.0129263,-8.30018e-07,4.94245e-07,9.34609e-07,0.023499,-0.011564510991672772,-8.300176554953964e-07,4.942451221623401e-07,0.02629999828655971,9.346094367312929e-07,-0.012843114198128003
263,0.0264,5.89245e-05,728.329,7.8064e-05,-0.00244121,0.00336073,0.00617182,-0.0116774,0.0260575,-0.0129773,-8.32596e-07,4.95878e-07,9.37471e-07,0.0235986,-0.01160948378328397,-8.325956534216417e-07,4.958781230079978e-07,0.02639996477468176,9.374714393661776e-07,-0.012893457915528206
264,0.0265,5.89798e-05,728.783,7.81446e-05,-0.00243769,0.00335866,0.00616721,-0.0117229,0.026155,-0.0130284,-8.3517e-07,4.9751e-07,9.40329e-07,0.0236983,-0.011654454528679525,-8.351696512143292e-07,4.97510123764755e-07,0.026500043650013128,9.403294420895492e-07,-0.012943897771079516
265,0.0266,5.90339e-05,729.237,7.82237e-05,-0.00243418,0.0033566,0.00616261,-0.0117685,0.0262524,-0.0130794,-8.3774e-07,4.99139e-07,9.43183e-07,0.0237979,-0.011699522058005618,-8.377396490955036e-07,4.99139124476855e-07,0.026600029623502497,9.431834449014076e-07,-0.012994236348648491
266,0.0267,5.9087e-05,729.688,7.83013e-05,-0.00243068,0.00335454,0.00615803,-0.011814,0.0263498,-0.0131304,-8.40306e-07,5.00767e-07,9.46034e-07,0.0238976,-0.011744488706752931,-8.403056469541426e-07,5.007671253220991e-07,0.026700025336100053,9.460344474465643e-07,-0.013044572359015572
267,0.0268,5.91391e-05,730.138,7.83774e-05,-0.0024272,0.00335249,0.00615347,-0.0118595,0.0264472,-0.0131814,-8.42868e-07,5.02392e-07,9.48881e-07,0.0239972,-0.011789453309564268,-8.428676447902461e-07,5.02392126122686e-07,0.026800030788754148,9.488814500802079e-07,-0.01309490580231154
268,0.0269,5.91901e-05,730.587,7.84521e-05,-0.00242373,0.00335045,0.00614892,-0.011905,0.0265446,-0.0132324,-8.45426e-07,5.04016e-07,9.51724e-07,0.0240969,-0.011834415866532777,-8.454256426038143e-07,5.04016127056417e-07,0.026900045982414023,9.517244528023383e-07,-0.013145236678667405
269,0.027,5.924e-05,731.034,7.85253e-05,-0.00242027,0.00334841,0.00614438,-0.0119505,0.0266419,-0.0132834,-8.4798e-07,5.05637e-07,9.54563e-07,0.0241965,-0.011879376377751494,-8.479796405058693e-07,5.056371277234462e-07,0.02699996821802597,9.545634556129556e-07,-0.013195564988213948
270,0.0271,5.9289e-05,731.48,7.85971e-05,-0.00241682,0.00334639,0.00613985,-0.0119961,0.0267393,-0.0133344,-8.5053e-07,5.07257e-07,9.57399e-07,0.0242962,-0.011924433650875033,-8.505296382743666e-07,5.07257128745664e-07,0.027100002886539576,9.573994583789158e-07,-0.013245890731082177
271,0.0272,5.9337e-05,731.924,7.86675e-05,-0.00241339,0.00334436,0.00613534,-0.0120416,0.0268367,-0.0133854,-8.53075e-07,5.08874e-07,9.60231e-07,0.0243958,-0.01196939006637765,-8.530746361534725e-07,5.0887412950118e-07,0.027200047298904684,9.602314610113183e-07,-0.013296213907402987
272,0.0273,5.9384e-05,732.367,7.87365e-05,-0.00240997,0.00334235,0.00613084,-0.0120871,0.026934,-0.0134364,-8.55617e-07,5.1049e-07,9.6306e-07,0.0244954,-0.01201434443641003,-8.556166339879212e-07,5.104901303898401e-07,0.027299998726064922,9.630604638211082e-07,-0.013346534517307274
273,0.0274,5.943e-05,732.809,7.88042e-05,-0.00240656,0.00334034,0.00612635,-0.0121326,0.0270313,-0.0134874,-8.58155e-07,5.12104e-07,9.65884e-07,0.0245951,-0.012059296761064986,-8.581546317998345e-07,5.121041311006991e-07,0.027399959878972036,9.658844664084398e-07,-0.01339685256092582
274,0.0275,5.94751e-05,733.249,7.88705e-05,-0.00240316,0.00333834,0.00612188,-0.0121781,0.0271287,-0.0135384,-8.60688e-07,5.13715e-07,9.68705e-07,0.0246947,-0.012104247040435778,-8.606876296113342e-07,5.137151319889455e-07,0.027500033508570887,9.68705469173159e-07,-0.013447168038389634
275,0.0276,5.95192e-05,733.688,7.89355e-05,-0.00239977,0.00333635,0.00611742,-0.0122235,0.027226,-0.0135893,-8.63218e-07,5.15325e-07,9.71522e-07,0.0247943,-0.012149096489529887,-8.632176273781766e-07,5.153251327882913e-07,0.02760001412580948,9.715224720263649e-07,-0.013497382299572758
276,0.0277,5.95625e-05,734.126,7.89993e-05,-0.0023964,0.00333436,0.00611297,-0.012269,0.0273233,-0.0136403,-8.65744e-07,5.16933e-07,9.74336e-07,0.0248939,-0.012194042683105977,-8.65743625233506e-07,5.169331336318805e-07,0.027700004471635342,9.74336474612869e-07,-0.013547692650150656
277,0.0278,5.96048e-05,734.562,7.90617e-05,-0.00239304,0.00333238,0.00610853,-0.0123145,0.0274206,-0.0136913,-8.68265e-07,5.18539e-07,9.77146e-07,0.0249936,-0.01223898683167679,-8.682646230884217e-07,5.185391345197132e-07,0.02780000454699527,9.771464775099048e-07,-0.013598000434966062
278,0.0279,5.96463e-05,734.996,7.9123e-05,-0.00238969,0.0033304,0.00610411,-0.01236,0.0275179,-0.0137423,-8.70783e-07,5.20143e-07,9.79953e-07,0.0250932,-0.012283928935335364,-8.707826208986802e-07,5.201431352297448e-07,0.027900014352835845,9.799534801402388e-07,-0.013648305654149873
279,0.028,5.96868e-05,735.43,7.91829e-05,-0.00238635,0.00332844,0.0060997,-0.0124055,0.0276152,-0.0137932,-8.73297e-07,5.21746e-07,9.82756e-07,0.0251928,-0.012328868994174624,-8.732966186864033e-07,5.217461360729203e-07,0.02800003389010386,9.827564828590596e-07,-0.01369850967768882
280,0.0281,5.97265e-05,735.862,7.92417e-05,-0.00238302,0.00332648,0.00609531,-0.012451,0.0277124,-0.0138442,-8.75807e-07,5.23346e-07,9.85555e-07,0.0252924,-0.01237380700828783,-8.75806616451591e-07,5.233461368714387e-07,0.02809996034974538,9.855554856663673e-07,-0.013748809771031989
281,0.0282,5.97654e-05,736.293,7.92993e-05,-0.0023797,0.00332452,0.00609092,-0.0124964,0.0278097,-0.0138951,-8.78313e-07,5.24944e-07,9.88351e-07,0.025392,-0.012418644219637232,-8.783126143052655e-07,5.249441377142006e-07,0.02819999934270534,9.883514884290179e-07,-0.013799008679041602
282,0.0283,5.98034e-05,736.722,7.93557e-05,-0.0023764,0.00332257,0.00608655,-0.0125419,0.027907,-0.0139461,-8.80816e-07,5.26541e-07,9.91143e-07,0.0254916,-0.01246357814907062,-8.808156121142829e-07,5.265411386901064e-07,0.028300048069933137,9.911434912801553e-07,-0.01384930364706638
283,0.0284,5.98406e-05,737.15,7.9411e-05,-0.00237311,0.00332063,0.00608219,-0.0125874,0.0280042,-0.0139971,-8.83314e-07,5.28136e-07,9.93932e-07,0.0255912,-0.01250851003405673,-8.833136099228867e-07,5.281361394882111e-07,0.028400003692370168,9.93932493864591e-07,-0.01389959605011315
284,0.0285,5.9877e-05,737.577,7.94651e-05,-0.00236982,0.0033187,0.00607784,-0.0126328,0.0281014,-0.014048,-8.85809e-07,5.29728e-07,9.96717e-07,0.0256908,-0.012553341130027595,-8.858086076868332e-07,5.297281402416587e-07,0.028499969030965744,9.967174967595582e-07,-0.013949787283296544
285,0.0286,5.99126e-05,738.003,7.95181e-05,-0.00236655,0.00331677,0.0060735,-0.0126783,0.0281987,-0.0140989,-8.883e-07,5.31319e-07,9.99498e-07,0.0257904,-0.012598268930890999,-8.882996054282444e-07,5.313191411282503e-07,0.02860004694666407,9.994984995209677e-07,-0.013999975961811129
286,0.0287,5.99474e-05,738.427,7.95699e-05,-0.00236329,0.00331484,0.00606918,-0.0127237,0.0282959,-0.0141499,-8.90787e-07,5.32909e-07,1.00228e-06,0.02589,-0.012643095951900385,-8.907866032581424e-07,5.329091419259413e-07,0.028700031730409137,1.0022805023712777e-06,-0.014050260680765758
287,0.0288,5.99814e-05,738.85,7.96207e-05,-0.00236005,0.00331293,0.00606486,-0.0127692,0.0283931,-0.0142008,-8.9327e-07,5.34496e-07,1.00505e-06,0.0259896,-0.01268801966901234,-8.93269601065505e-07,5.344961429010198e-07,0.02880002623314737,1.0050505050429592e-06,-0.014100444245314647
288,0.0289,6.00146e-05,739.271,7.96705e-05,-0.00235681,0.00331102,0.00606056,-0.0128146,0.0284903,-0.0142518,-8.95749e-07,5.36081e-07,1.00782e-06,0.0260892,-0.012732842615430728,-8.957485988503322e-07,5.360811436982971e-07,0.02890003045582379,1.0078205079366853e-06,-0.01415072384051752
289,0.029,6.00472e-05,739.692,7.97191e-05,-0.00235358,0.00330911,0.00605628,-0.0128601,0.0285875,-0.0143027,-8.98225e-07,5.37665e-07,1.01059e-06,0.0261887,-0.012777762249162272,-8.982245965905022e-07,5.376651446287184e-07,0.029000044399382974,1.0105905106083668e-06,-0.014200902291621631
290,0.0291,6.00789e-05,740.111,7.97667e-05,-0.00235037,0.00330721,0.006052,-0.0129055,0.0286846,-0.0143536,-9.00697e-07,5.39247e-07,1.01335e-06,0.0262883,-0.012822581121360144,-9.006965944191592e-07,5.392471453813386e-07,0.029099965154768315,1.0133505135012655e-06,-0.014251078188707522
291,0.0292,6.011e-05,740.529,7.98133e-05,-0.00234716,0.00330532,0.00604773,-0.012951,0.0287818,-0.0144045,-9.03165e-07,5.40827e-07,1.01611e-06,0.0263879,-0.012867496672082535,-9.031645921142584e-07,5.408271461782022e-07,0.029199998532924765,1.0161105161721196e-06,-0.014301251531905312
292,0.0293,6.01403e-05,740.946,7.98589e-05,-0.00234396,0.00330344,0.00604348,-0.0129964,0.028879,-0.0144555,-9.0563e-07,5.42405e-07,1.01887e-06,0.0264875,-0.012912311470430038,-9.056295898757227e-07,5.424051470193092e-07,0.029300041634798157,1.0188705190650182e-06,-0.014351520886197733
293,0.0294,6.01699e-05,741.361,7.99035e-05,-0.00234078,0.00330156,0.00603923,-0.0130418,0.0289761,-0.0145064,-9.0809e-07,5.43981e-07,1.02163e-06,0.026587,-0.012957124234231787,-9.080895876367734e-07,5.439811479046597e-07,0.02939999152132944,1.021630521957917e-06,-0.014401689116992356
294,0.0295,6.01988e-05,741.776,7.99471e-05,-0.00233761,0.00329968,0.006035,-0.0130873,0.0290732,-0.0145573,-9.10547e-07,5.45556e-07,1.02438e-06,0.0266866,-0.013002033663381929,-9.105465854641892e-07,5.455561489231542e-07,0.029499951113465706,1.0243805246279436e-06,-0.01445185479428901
295,0.0296,6.0227e-05,742.189,7.99898e-05,-0.00233444,0.00329781,0.00603078,-0.0131327,0.0291704,-0.0146082,-9.13001e-07,5.47129e-07,1.02712e-06,0.0267862,-0.013046842353888644,-9.130005832469479e-07,5.471291497638475e-07,0.029600023372146955,1.0271205275191875e-06,-0.014502017918217591
296,0.0297,6.02546e-05,742.6,8.00315e-05,-0.00233129,0.00329595,0.00602657,-0.0131781,0.0292675,-0.0146591,-9.15451e-07,5.487e-07,1.02987e-06,0.0268857,-0.013091649010126938,-9.154505810071711e-07,5.487001504267397e-07,0.029700002388318936,1.0298705304112588e-06,-0.014552178488908218
297,0.0298,6.02815e-05,743.011,8.00722e-05,-0.00232815,0.00329409,0.00602238,-0.0132235,0.0293646,-0.01471,-9.17897e-07,5.50269e-07,1.03261e-06,0.0269853,-0.013136453632189293,-9.17896578744859e-07,5.502691513559199e-07,0.029799991112924973,1.032610533080458e-06,-0.014602336506490787
298,0.0299,6.03077e-05,743.421,8.01121e-05,-0.00232501,0.00329224,0.00601819,-0.0132689,0.0294617,-0.0147609,-9.20339e-07,5.51837e-07,1.03534e-06,0.0270848,-0.01318125622016797,-9.203385764600114e-07,5.518371521961996e-07,0.029899989546907424,1.0353405359708745e-06,-0.014652491971095194
299,0.03,6.03333e-05,743.829,8.0151e-05,-0.00232189,0.0032904,0.00601401,-0.0133143,0.0295588,-0.0148118,-9.22778e-07,5.53402e-07,1.03808e-06,0.0271843,-0.013226056774155337,-9.22777574241529e-07,5.534021532138667e-07,0.029999997691209312,1.0380805388621184e-06,-0.014702644882851446
300,0.0301,6.03583e-05,744.236,8.0189e-05,-0.00231878,0.00328856,0.00600985,-0.0133597,0.0296559,-0.0148627,-9.25213e-07,5.54966e-07,1.04081e-06,0.0272839,-0.013270855294243655,-9.252125720005111e-07,5.549661539205886e-07,0.03010001554677344,1.0408105417525348e-06,-0.014752795241889438
301,0.0302,6.03826e-05,744.642,8.02262e-05,-0.00231568,0.00328672,0.0060057,-0.0134052,0.029753,-0.0149136,-9.27645e-07,5.56528e-07,1.04354e-06,0.0273834,-0.013315750448955277,-9.276445697148361e-07,5.565281548935985e-07,0.03020004311454283,1.0435405444209067e-06,-0.014802943048339179
302,0.0303,6.04063e-05,745.047,8.02625e-05,-0.00231258,0.0032849,0.00600155,-0.0134506,0.02985,-0.0149645,-9.30073e-07,5.58089e-07,1.04626e-06,0.027483,-0.013360544897043192,-9.30072567517648e-07,5.580891557777079e-07,0.030299977365457753,1.0462605473104958e-06,-0.014853088302330453
303,0.0304,6.04294e-05,745.45,8.02979e-05,-0.0023095,0.00328307,0.00599742,-0.013496,0.0299471,-0.0150153,-9.32497e-07,5.59648e-07,1.04898e-06,0.0275825,-0.013405337311509391,-9.324965651869022e-07,5.596481567060607e-07,0.030400024350462518,1.0489805502000848e-06,-0.01490313249431141
304,0.0305,6.04518e-05,745.853,8.03324e-05,-0.00230643,0.00328126,0.0059933,-0.0135413,0.0300441,-0.0150662,-9.34918e-07,5.61205e-07,1.0517e-06,0.027682,-0.013450029037453959,-9.349175629225215e-07,5.612051574566124e-07,0.030499978000497974,1.051700553089674e-06,-0.014953272648789762
305,0.0306,6.04737e-05,746.254,8.03662e-05,-0.00230336,0.00327944,0.00598919,-0.0135867,0.0301412,-0.0151171,-9.37336e-07,5.6276e-07,1.05441e-06,0.0277815,-0.013494817389432368,-9.37335560724506e-07,5.627601582514075e-07,0.03060004440650732,1.0544105559784356e-06,-0.015003410251199112
306,0.0307,6.04951e-05,746.654,8.03991e-05,-0.00230031,0.00327764,0.00598509,-0.0136321,0.0302382,-0.0151679,-9.39749e-07,5.64313e-07,1.05712e-06,0.027881,-0.013539603708065728,-9.397485584150544e-07,5.643131593124906e-07,0.030700017459429407,1.0571205586451526e-06,-0.015053446807019033
307,0.0308,6.05158e-05,747.053,8.04312e-05,-0.00229727,0.00327584,0.005981,-0.0136775,0.0303352,-0.0152188,-9.4216e-07,5.65865e-07,1.05983e-06,0.0279805,-0.013584387993446412,-9.421595561498464e-07,5.658651600626285e-07,0.03080000021020801,1.0598305615339143e-06,-0.015103579310693505
308,0.0309,6.0536e-05,747.451,8.04625e-05,-0.00229423,0.00327404,0.00597692,-0.0137229,0.0304322,-0.0152697,-9.44567e-07,5.67415e-07,1.06253e-06,0.0280801,-0.013629170245666677,-9.445665538621029e-07,5.674151610790545e-07,0.030899992659783715,1.0625305644218486e-06,-0.015153709262688553
309,0.031,6.05556e-05,747.848,8.0493e-05,-0.00229121,0.00327225,0.00597285,-0.0137683,0.0305292,-0.0153205,-9.4697e-07,5.68964e-07,1.06523e-06,0.0281796,-0.013673950464818896,-9.469695516628462e-07,5.689641617845353e-07,0.030999994809097542,1.0652305673097828e-06,-0.015203738183512616
310,0.0311,6.05746e-05,748.244,8.05228e-05,-0.00228819,0.00327047,0.00596879,-0.0138136,0.0306262,-0.0153714,-9.4937e-07,5.70511e-07,1.06793e-06,0.0282791,-0.01371863002286322,-9.493695493079102e-07,5.705111627563042e-07,0.031100006659090518,1.067930570197717e-06,-0.015253863037550719
311,0.0312,6.05931e-05,748.638,8.05517e-05,-0.00228518,0.00326869,0.00596474,-0.013859,0.0307232,-0.0154222,-9.51766e-07,5.72056e-07,1.07062e-06,0.0283785,-0.013763406180633653,-9.51765547041461e-07,5.720561635502719e-07,0.031200028210703223,1.070620573084824e-06,-0.015303886870692285
312,0.0313,6.06111e-05,749.032,8.058e-05,-0.00228219,0.00326692,0.0059607,-0.0139044,0.0308201,-0.0154731,-9.54159e-07,5.73599e-07,1.07332e-06,0.028478,-0.013808180305612705,-9.54158544841377e-07,5.735991646105276e-07,0.031299956334876144,1.0733205759727582e-06,-0.015354006627291916
313,0.0314,6.06286e-05,749.424,8.06074e-05,-0.0022792,0.00326515,0.00595667,-0.0139497,0.0309171,-0.0155239,-9.56548e-07,5.75141e-07,1.076e-06,0.0285775,-0.013852853783183017,-9.565475425077352e-07,5.751411653598382e-07,0.031399997282548275,1.0760005788590377e-06,-0.015404025373268349
314,0.0315,6.06455e-05,749.816,8.06342e-05,-0.00227622,0.00326338,0.00595265,-0.0139951,0.0310141,-0.0155748,-9.58934e-07,5.76681e-07,1.07869e-06,0.028677,-0.013897623847333063,-9.589335402404586e-07,5.766811663754368e-07,0.03150004793466277,1.0786905817461445e-06,-0.015454140032947983
315,0.0316,6.06619e-05,750.206,8.06602e-05,-0.00227325,0.00326163,0.00594864,-0.0140404,0.031111,-0.0156256,-9.61317e-07,5.78219e-07,1.08137e-06,0.0287765,-0.013942293273202622,-9.61316537928525e-07,5.782191672132342e-07,0.03160000513215566,1.081370584632424e-06,-0.015504153692276534
316,0.0317,6.06778e-05,750.595,8.06855e-05,-0.00227029,0.00325987,0.00594464,-0.0140858,0.0312079,-0.0156764,-9.63696e-07,5.79756e-07,1.08405e-06,0.0288759,-0.013987059276892144,-9.636955355940557e-07,5.79756167962131e-07,0.0316999720159703,1.0840505875187034e-06,-0.015554164810975823
317,0.0318,6.06932e-05,750.983,8.07101e-05,-0.00226733,0.00325813,0.00594065,-0.0141311,0.0313049,-0.0157272,-9.66072e-07,5.81291e-07,1.08672e-06,0.0289754,-0.014031724651428434,-9.660715333259517e-07,5.812911689773159e-07,0.03180005176704537,1.0867205904041555e-06,-0.015604173389174858
318,0.0319,6.07082e-05,751.37,8.0734e-05,-0.00226439,0.00325638,0.00593667,-0.0141765,0.0314018,-0.0157781,-9.68445e-07,5.82824e-07,1.0894e-06,0.0290749,-0.014076486595025473,-9.684445310131906e-07,5.828241698146996e-07,0.031900038036318135,1.089400593290435e-06,-0.01565427786157969
319,0.032,6.07226e-05,751.757,8.07573e-05,-0.00226146,0.00325464,0.0059327,-0.0142218,0.0314987,-0.0158289,-9.70814e-07,5.84356e-07,1.09206e-06,0.0291743,-0.014121147918596089,-9.708135287889164e-07,5.843561707852274e-07,0.032000033994729726,1.0920605963971042e-06,-0.015704281354164795
320,0.0321,6.07366e-05,752.142,8.07798e-05,-0.00225853,0.00325291,0.00592874,-0.0142672,0.0315956,-0.0158797,-9.73179e-07,5.85886e-07,1.09473e-06,0.0292738,-0.014165905802469014,-9.731785264310844e-07,5.85886171577954e-07,0.03210003964321917,1.0947305992825562e-06,-0.015754282306637113
321,0.0322,6.075e-05,752.526,8.08017e-05,-0.00225561,0.00325118,0.00592479,-0.0143125,0.0316924,-0.0159305,-9.75542e-07,5.87414e-07,1.09739e-06,0.0293732,-0.014210563075441218,-9.755415241174958e-07,5.874141726369686e-07,0.032199951762725165,1.0973906021671809e-06,-0.01580428071912554
322,0.0323,6.07631e-05,752.908,8.0823e-05,-0.00225271,0.00324946,0.00592085,-0.0143578,0.0317893,-0.0159813,-9.77901e-07,5.88941e-07,1.10005e-06,0.0294727,-0.01425521832548493,-9.779005218923942e-07,5.88941173385038e-07,0.03229997678418517,1.1000506050518055e-06,-0.015854276591759087
323,0.0324,6.07756e-05,753.29,8.08436e-05,-0.00224981,0.00324774,0.00591692,-0.0144031,0.0318862,-0.0160321,-9.80256e-07,5.90466e-07,1.10271e-06,0.0295721,-0.014299871552691523,-9.802555195337348e-07,5.904661743993955e-07,0.032400011498538994,1.1027106079364302e-06,-0.01590426992466676
324,0.0325,6.07877e-05,753.671,8.08635e-05,-0.00224691,0.00324603,0.005913,-0.0144485,0.031983,-0.0160829,-9.82609e-07,5.9199e-07,1.10536e-06,0.0296716,-0.014344621322695539,-9.826085172193189e-07,5.919901753248524e-07,0.03249995265672623,1.1053606108202274e-06,-0.015954260717977675
325,0.0326,6.07994e-05,754.051,8.08828e-05,-0.00224403,0.00324432,0.00590909,-0.0144938,0.0320799,-0.0161337,-9.84958e-07,5.93512e-07,1.10801e-06,0.029771,-0.014389270500038132,-9.849575148823675e-07,5.935121760725082e-07,0.03260000674968122,1.1080106139260693e-06,-0.016004248971820845
326,0.0327,6.08106e-05,754.43,8.09016e-05,-0.00224116,0.00324262,0.00590518,-0.0145391,0.0321767,-0.0161845,-9.87303e-07,5.95032e-07,1.11066e-06,0.0298704,-0.014433917654818829,-9.87302512633903e-07,5.95032177086452e-07,0.03269996726834545,1.1106606168098665e-06,-0.016054234686325164
327,0.0328,6.08214e-05,754.808,8.09196e-05,-0.00223829,0.00324092,0.00590129,-0.0145844,0.0322736,-0.0162353,-9.89646e-07,5.96551e-07,1.1133e-06,0.0299698,-0.014478562787129112,-9.896455103186597e-07,5.965511780114952e-07,0.0328000407436555,1.1133006196928363e-06,-0.01610421786161964
328,0.0329,6.08318e-05,755.185,8.09371e-05,-0.00223543,0.00323923,0.00589741,-0.0146297,0.0323704,-0.0162861,-9.91985e-07,5.98068e-07,1.11594e-06,0.0300692,-0.014523205897060798,-9.919845079808809e-07,5.980681787587372e-07,0.03290002062654773,1.1159406225758062e-06,-0.016154198497833394
329,0.033,6.08417e-05,755.561,8.09541e-05,-0.00223259,0.00323754,0.00589353,-0.014675,0.0324672,-0.0163369,-9.94321e-07,5.99584e-07,1.11858e-06,0.0301687,-0.014567846984705368,-9.943205057094673e-07,5.995841798611679e-07,0.03300001018796106,1.1185806256808206e-06,-0.01620417659509532
330,0.0331,6.08513e-05,755.935,8.09704e-05,-0.00222974,0.00323586,0.00588966,-0.0147203,0.032564,-0.0163876,-9.96654e-07,6.01098e-07,1.12122e-06,0.0302681,-0.014612486050154527,-9.966535033933965e-07,6.010981805637527e-07,0.03310000942883229,1.1212206285637905e-06,-0.01625405377894462
331,0.0332,6.08604e-05,756.309,8.09861e-05,-0.00222691,0.00323418,0.00588581,-0.0147656,0.0326608,-0.0164384,-9.98983e-07,6.0261e-07,1.12385e-06,0.0303675,-0.014657123093499758,-9.989825010547904e-07,6.026101815326257e-07,0.03320001835009867,1.1238506314459329e-06,-0.016304026803687144
332,0.0333,6.08691e-05,756.682,8.10013e-05,-0.00222409,0.0032325,0.00588196,-0.0148109,0.0327576,-0.0164892,-1.00131e-06,6.04121e-07,1.12648e-06,0.0304669,-0.014701758114832764,-1.0013094986494053e-06,6.04121182412598e-07,0.03330003695269723,1.12648063455012e-06,-0.01635399728986442
333,0.0334,6.08774e-05,757.054,8.10159e-05,-0.00222127,0.00323083,0.00587812,-0.0148562,0.0328543,-0.01654,-1.00363e-06,6.0563e-07,1.1291e-06,0.0305663,-0.014746391114245139,-1.0036294963988723e-06,6.056301833368138e-07,0.03339996189756378,1.129100637431435e-06,-0.016403965237605456
334,0.0335,6.08853e-05,757.425,8.10299e-05,-0.00221846,0.00322917,0.00587429,-0.0149015,0.0329511,-0.0165907,-1.00595e-06,6.07138e-07,1.13173e-06,0.0306656,-0.014791022091828365,-1.005949494037317e-06,6.071381843941737e-07,0.03349999985563468,1.1317306403135774e-06,-0.01645383229242736
335,0.0336,6.08929e-05,757.795,8.10434e-05,-0.00221566,0.00322751,0.00587047,-0.0149468,0.0330479,-0.0166415,-1.00827e-06,6.08644e-07,1.13435e-06,0.030765,-0.014835651047674148,-1.0082694916757617e-06,6.086441852737323e-07,0.033600047497848395,1.134350643416937e-06,-0.01650379516867906
336,0.0337,6.09e-05,758.164,8.10564e-05,-0.00221287,0.00322585,0.00586665,-0.0149921,0.0331446,-0.0166922,-1.01058e-06,6.10149e-07,1.13696e-06,0.0308644,-0.014880277981873968,-1.010579489313379e-06,6.101491860643904e-07,0.03370000145513741,1.1369606462974247e-06,-0.016553657162251878
337,0.0338,6.09068e-05,758.533,8.10688e-05,-0.00221008,0.0032242,0.00586285,-0.0150373,0.0332413,-0.016743,-1.01289e-06,6.11652e-07,1.13958e-06,0.0309638,-0.01492480438700483,-1.0128894870620186e-06,6.116521871213365e-07,0.033799965078441296,1.1395806494007843e-06,-0.016603614967529046
338,0.0339,6.09132e-05,758.9,8.10807e-05,-0.00220731,0.00322255,0.00585905,-0.0150826,0.0333381,-0.0167937,-1.0152e-06,6.13153e-07,1.14219e-06,0.0310631,-0.014969427282649939,-1.015199484699636e-06,6.131531880004815e-07,0.0339000417586941,1.142190652281272e-06,-0.016653471900366257
339,0.034,6.09192e-05,759.266,8.10921e-05,-0.00220454,0.00322091,0.00585527,-0.0151279,0.0334348,-0.0168445,-1.0175e-06,6.14653e-07,1.1448e-06,0.0311625,-0.015014048156923532,-1.0174994823364258e-06,6.146531887907258e-07,0.034000024726830835,1.1448006553838042e-06,-0.016703424635183484
340,0.0341,6.09249e-05,759.631,8.1103e-05,-0.00220178,0.00321927,0.00585149,-0.0151731,0.0335315,-0.0168952,-1.0198e-06,6.16152e-07,1.1474e-06,0.0312619,-0.015058568515779136,-1.0197994799732157e-06,6.161521897141142e-07,0.03410001736378798,1.1474006582634644e-06,-0.016753276507798787
341,0.0342,6.09302e-05,759.996,8.11134e-05,-0.00219902,0.00321764,0.00584772,-0.0152184,0.0336282,-0.0169459,-1.0221e-06,6.17649e-07,1.15e-06,0.0313612,-0.015103185352046467,-1.0220994776100056e-06,6.176491906817461e-07,0.03420001967050057,1.1500006611431246e-06,-0.016803125852988265
342,0.0343,6.09352e-05,760.359,8.11232e-05,-0.00219628,0.00321601,0.00584396,-0.0152636,0.0337249,-0.0169967,-1.0244e-06,6.19144e-07,1.1526e-06,0.0314605,-0.015147701681991865,-1.0243994753578178e-06,6.191441916936213e-07,0.03430003164790407,1.1526006642448294e-06,-0.016853070985577867
343,0.0344,6.09398e-05,760.722,8.11326e-05,-0.00219354,0.00321438,0.00584021,-0.0153089,0.0338215,-0.0170474,-1.02669e-06,6.20638e-07,1.1552e-06,0.0315599,-0.015192314480618196,-1.0266894729937803e-06,6.20638192616596e-07,0.034399949856932954,1.1552006673465343e-06,-0.0169029152713156
344,0.0345,6.0944e-05,761.083,8.11415e-05,-0.00219081,0.00321276,0.00583646,-0.0153542,0.0339182,-0.0170981,-1.02898e-06,6.2213e-07,1.15779e-06,0.0316592,-0.015236925258330425,-1.0289794706297428e-06,6.221301935838142e-07,0.034499981168520044,1.157790670225367e-06,-0.01695275703001209
345,0.0346,6.0948e-05,761.444,8.11499e-05,-0.00218809,0.00321115,0.00583273,-0.0153994,0.0340149,-0.0171488,-1.03126e-06,6.23621e-07,1.16038e-06,0.0317586,-0.015281435543368804,-1.031259468264878e-06,6.236211944621317e-07,0.034600022153602694,1.1603806733262445e-06,-0.017002596261795455
346,0.0347,6.09516e-05,761.804,8.11579e-05,-0.00218537,0.00320953,0.005829,-0.0154446,0.0341115,-0.0171995,-1.03354e-06,6.2511e-07,1.16297e-06,0.0318579,-0.015325943816587695,-1.033539465900013e-06,6.251101953846927e-07,0.034699969343114256,1.1629706762050773e-06,-0.017052432966793818
347,0.0348,6.09548e-05,762.163,8.11653e-05,-0.00218266,0.00320793,0.00582528,-0.0154899,0.0342082,-0.0172503,-1.03582e-06,6.26598e-07,1.16556e-06,0.0319572,-0.01537054854102815,-1.035819463535148e-06,6.265981962183531e-07,0.034800029667988674,1.1655606793059547e-06,-0.01710236543490362
348,0.0349,6.09578e-05,762.521,8.11724e-05,-0.00217996,0.00320632,0.00582157,-0.0155351,0.0343048,-0.017301,-1.0381e-06,6.28084e-07,1.16814e-06,0.0320565,-0.015415052786430516,-1.0380994611702832e-06,6.280841973183016e-07,0.034899996179159176,1.1681406821839602e-06,-0.01715219708173321
349,0.035,6.09604e-05,762.878,8.11789e-05,-0.00217727,0.00320472,0.00581786,-0.0155803,0.0344014,-0.0173517,-1.04037e-06,6.29569e-07,1.17072e-06,0.0321558,-0.015459555020286508,-1.0403694588045909e-06,6.295691981073048e-07,0.03499997234756136,1.1707206852840102e-06,-0.01720202620216227
350,0.0351,6.09627e-05,763.234,8.11851e-05,-0.00217458,0.00320313,0.00581417,-0.0156256,0.034498,-0.0174024,-1.04264e-06,6.31053e-07,1.17329e-06,0.0322551,-0.015504153692276534,-1.0426394564388985e-06,6.310531990294521e-07,0.03509995817412781,1.1732906883832328e-06,-0.017251852796319023
351,0.0352,6.09647e-05,763.59,8.11907e-05,-0.0021719,0.00320154,0.00581048,-0.0156708,0.0345946,-0.0174531,-1.04491e-06,6.32535e-07,1.17587e-06,0.0323544,-0.015548651898862675,-1.0449094540732062e-06,6.325351999958428e-07,0.03519995365979156,1.1758706912612382e-06,-0.017301676864331372
352,0.0353,6.09664e-05,763.944,8.1196e-05,-0.00216923,0.00319995,0.0058068,-0.015716,0.0346912,-0.0175038,-1.04717e-06,6.34015e-07,1.17844e-06,0.0324537,-0.015593148094175224,-1.0471694517066865e-06,6.34015201006477e-07,0.035299958805485865,1.1784406943604608e-06,-0.01735149840632766
353,0.0354,6.09677e-05,764.298,8.12008e-05,-0.00216656,0.00319837,0.00580313,-0.0157612,0.0347878,-0.0175544,-1.04943e-06,6.35494e-07,1.181e-06,0.032553,-0.01563764227830522,-1.0494294493401668e-06,6.354942019282106e-07,0.035399973612143976,1.181000697458856e-06,-0.017401219162562542
354,0.0355,6.09688e-05,764.651,8.12052e-05,-0.00216391,0.00319679,0.00579947,-0.0158064,0.0348844,-0.0176051,-1.05169e-06,6.36971e-07,1.18357e-06,0.0326523,-0.015682134451343588,-1.051689446973647e-06,6.369712028941876e-07,0.035499998080698925,1.183570700336034e-06,-0.01745103565789219
355,0.0356,6.09696e-05,765.003,8.12091e-05,-0.00216126,0.00319522,0.00579582,-0.0158517,0.034981,-0.0176558,-1.05395e-06,6.38447e-07,1.18613e-06,0.0327516,-0.015726723040713764,-1.0539494446071274e-06,6.384472037712641e-07,0.03560003221208419,1.1861307034344293e-06,-0.017500849627589465
356,0.0357,6.09701e-05,765.354,8.12127e-05,-0.00215861,0.00319365,0.00579217,-0.0158969,0.0350775,-0.0177065,-1.0562e-06,6.39922e-07,1.18869e-06,0.0328508,-0.015771211187392664,-1.0561994422397802e-06,6.399222047814845e-07,0.03569997243723111,1.1886907065328245e-06,-0.017550661071782603
357,0.0358,6.09703e-05,765.704,8.12158e-05,-0.00215598,0.00319208,0.00578853,-0.0159421,0.0351741,-0.0177571,-1.05845e-06,6.41395e-07,1.19125e-06,0.0329501,-0.01581569732325272,-1.0584494398724331e-06,6.413952056139038e-07,0.03580002588707232,1.1912507096312197e-06,-0.017600371750641552
358,0.0359,6.09702e-05,766.053,8.12186e-05,-0.00215335,0.00319052,0.0057849,-0.0159873,0.0352706,-0.0178078,-1.06069e-06,6.42866e-07,1.1938e-06,0.0330494,-0.015860181448384858,-1.0606894375042586e-06,6.428662067126112e-07,0.035899985412539914,1.193800712506743e-06,-0.01765017814919101
359,0.036,6.09698e-05,766.402,8.12209e-05,-0.00215072,0.00318896,0.00578128,-0.0160325,0.0353671,-0.0178585,-1.06294e-06,6.44336e-07,1.19635e-06,0.0331486,-0.015904663562880117,-1.0629394350258892e-06,6.443362075003733e-07,0.035999954584567284,1.1963507156043107e-06,-0.01769998202261991
360,0.0361,6.09692e-05,766.749,8.12229e-05,-0.00214811,0.00318741,0.00577766,-0.0160777,0.0354637,-0.0179091,-1.06518e-06,6.45805e-07,1.1989e-06,0.0332479,-0.01594914366682909,-1.0651794326577146e-06,6.458052084212795e-07,0.0361000370140836,1.1989007187018785e-06,-0.017749685146029925
361,0.0362,6.09683e-05,767.096,8.12245e-05,-0.0021455,0.00318586,0.00577405,-0.0161228,0.0355602,-0.0179598,-1.06741e-06,6.47272e-07,1.20144e-06,0.0333471,-0.015993523359680184,-1.0674094302887127e-06,6.472722093864292e-07,0.03620002549202184,1.201440721798619e-06,-0.017799483974582087
362,0.0363,6.09671e-05,767.442,8.12256e-05,-0.0021429,0.00318431,0.00577045,-0.016168,0.0356567,-0.0180104,-1.06965e-06,6.48738e-07,1.20398e-06,0.0334464,-0.016037999447257145,-1.0696494279205382e-06,6.487382104847228e-07,0.03630002361931384,1.2039807246733147e-06,-0.017849182063320757
363,0.0364,6.09656e-05,767.787,8.12264e-05,-0.0021403,0.00318277,0.00576686,-0.0162132,0.0357532,-0.0180611,-1.07188e-06,6.50203e-07,1.20652e-06,0.0335456,-0.01608247352456038,-1.0718794255515363e-06,6.502032112720713e-07,0.03640003139689085,1.2065207277700551e-06,-0.017898975847506993
364,0.0365,6.09639e-05,768.132,8.12269e-05,-0.00213771,0.00318123,0.00576327,-0.0162584,0.0358497,-0.0181117,-1.07411e-06,6.51666e-07,1.20906e-06,0.0336448,-0.01612694559168082,-1.0741094231825343e-06,6.516662123257078e-07,0.03650004882568392,1.2090607308667956e-06,-0.01794866890208424
365,0.0366,6.09619e-05,768.475,8.12269e-05,-0.00213513,0.0031797,0.0057597,-0.0163036,0.0359461,-0.0181624,-1.07633e-06,6.53127e-07,1.2116e-06,0.033744,-0.016171415648709164,-1.0763294207016827e-06,6.531272132015431e-07,0.03659997224662237,1.211600733963536e-06,-0.0179984576424157
366,0.0367,6.09597e-05,768.818,8.12267e-05,-0.00213256,0.00317817,0.00575613,-0.0163487,0.0360426,-0.018213,-1.07855e-06,6.54587e-07,1.21413e-06,0.0338433,-0.01621578531731993,-1.0785494183318534e-06,6.545872142105225e-07,0.03670000897063841,1.214130737059449e-06,-0.018048145663341453
367,0.0368,6.09572e-05,769.16,8.1226e-05,-0.00212999,0.00317664,0.00575256,-0.0163939,0.036139,-0.0182636,-1.08077e-06,6.56046e-07,1.21666e-06,0.0339425,-0.016260251358883426,-1.080769415962024e-06,6.560462151306012e-07,0.0367999516686639,1.216660740155362e-06,-0.018097831170116985
368,0.0369,6.09545e-05,769.501,8.1225e-05,-0.00212743,0.00317512,0.00574901,-0.016439,0.0362355,-0.0183143,-1.08299e-06,6.57503e-07,1.21918e-06,0.0340417,-0.01630461702109398,-1.0829894135921947e-06,6.575032160949235e-07,0.03690000769162527,1.2191807432504476e-06,-0.01814761234811313
369,0.037,6.09515e-05,769.841,8.12236e-05,-0.00212487,0.0031736,0.00574546,-0.0164842,0.0363319,-0.0183649,-1.0852e-06,6.58959e-07,1.2217e-06,0.0341409,-0.016349079047555226,-1.085199411221538e-06,6.589592171923897e-07,0.03699996967045682,1.2217007463455332e-06,-0.018197292822001665
370,0.0371,6.09483e-05,770.181,8.12219e-05,-0.00212232,0.00317209,0.00574192,-0.0165294,0.0364284,-0.0184155,-1.08742e-06,6.60414e-07,1.22422e-06,0.0342401,-0.01639353906437835,-1.0874194087406863e-06,6.604142179789108e-07,0.03710004499608677,1.2242207494406188e-06,-0.018246970782121896
371,0.0372,6.09448e-05,770.519,8.12199e-05,-0.00211978,0.00317058,0.00573839,-0.0165745,0.0365248,-0.0184661,-1.08962e-06,6.61867e-07,1.22674e-06,0.0343393,-0.016437898715448873,-1.0896194063692022e-06,6.618672190317199e-07,0.03720002625944385,1.2267407525357044e-06,-0.018296646228600943
372,0.0373,6.09411e-05,770.857,8.12175e-05,-0.00211724,0.00316907,0.00573486,-0.0166197,0.0366212,-0.0185167,-1.09183e-06,6.63319e-07,1.22926e-06,0.0344384,-0.016482354717713754,-1.0918294039985454e-06,6.633192199956284e-07,0.037300017161459254,1.22926075563079e-06,-0.018346319161565927
373,0.0374,6.09372e-05,771.195,8.12148e-05,-0.00211471,0.00316756,0.00573134,-0.0166648,0.0367176,-0.0185673,-1.09403e-06,6.64769e-07,1.23177e-06,0.0345376,-0.016526710363288566,-1.094029401516039e-06,6.647692210037803e-07,0.03740001770306223,1.2317707587250482e-06,-0.01839598958114419
374,0.0375,6.0933e-05,771.531,8.12118e-05,-0.00211219,0.00316606,0.00572783,-0.0167099,0.036814,-0.0186179,-1.09623e-06,6.66218e-07,1.23428e-06,0.0346368,-0.016571064008468972,-1.0962293991445549e-06,6.662182219230317e-07,0.03750002788518225,1.2342807618193063e-06,-0.01844565748746274
375,0.0376,6.09286e-05,771.866,8.12084e-05,-0.00210967,0.00316457,0.00572432,-0.0167551,0.0369104,-0.0186685,-1.09843e-06,6.67665e-07,1.23679e-06,0.034736,-0.016615513991798614,-1.0984293967730707e-06,6.676652228865265e-07,0.03760004770874836,1.2367907649135645e-06,-0.018495322880648812
376,0.0377,6.0924e-05,772.201,8.12047e-05,-0.00210716,0.00316308,0.00572082,-0.0168002,0.0370067,-0.0187191,-1.10062e-06,6.69112e-07,1.23929e-06,0.0348351,-0.016659863632025762,-1.1006193942897369e-06,6.691122238500213e-07,0.03769997340468767,1.2392907680069953e-06,-0.018544985760829635
377,0.0378,6.09191e-05,772.535,8.12007e-05,-0.00210466,0.00316159,0.00571733,-0.0168453,0.0371031,-0.0187697,-1.10281e-06,6.70556e-07,1.24179e-06,0.0349343,-0.016704211272129066,-1.1028093919174253e-06,6.70556224768859e-07,0.03780001250393106,1.2417907711004261e-06,-0.01859464612813222
378,0.0379,6.09141e-05,772.868,8.11964e-05,-0.00210216,0.0031601,0.00571385,-0.0168905,0.0371994,-0.0188203,-1.105e-06,6.72e-07,1.24429e-06,0.0350334,-0.016748655237338372,-1.1049993894340915e-06,6.720002256876967e-07,0.037899957457407485,1.244290774193857e-06,-0.018644303982683796
379,0.038,6.09088e-05,773.201,8.11918e-05,-0.00209967,0.00315862,0.00571037,-0.0169356,0.0372958,-0.0188709,-1.10719e-06,6.73442e-07,1.24679e-06,0.0351326,-0.016792998873030762,-1.10718938706178e-06,6.734422268728224e-07,0.03800001583604273,1.2467907772872877e-06,-0.018693959324611598
380,0.0381,6.09033e-05,773.533,8.11869e-05,-0.00209718,0.00315714,0.0057069,-0.0169807,0.0373921,-0.0189215,-1.10937e-06,6.74883e-07,1.24928e-06,0.0352317,-0.01683734050887009,-1.109369384688641e-06,6.748832277470029e-07,0.038099980050767535,1.249280780379891e-06,-0.01874361215404252
381,0.0382,6.08976e-05,773.864,8.11817e-05,-0.0020947,0.00315567,0.00570344,-0.0170258,0.0374884,-0.018972,-1.11155e-06,6.76322e-07,1.25177e-06,0.0353308,-0.016881680144946842,-1.1115493822044797e-06,6.763222286654269e-07,0.03819995389250952,1.2517707834724945e-06,-0.01879316435042533
382,0.0383,6.08917e-05,774.194,8.11762e-05,-0.00209223,0.0031542,0.00569999,-0.0170709,0.0375848,-0.0190226,-1.11373e-06,6.7776e-07,1.25426e-06,0.0354299,-0.016926017781351166,-1.1137293798313408e-06,6.777602297169949e-07,0.03830004119219521,1.2542607865650979e-06,-0.018842812160209
383,0.0384,6.08855e-05,774.523,8.11704e-05,-0.00208976,0.00315273,0.00569654,-0.017116,0.0376811,-0.0190732,-1.1159e-06,6.79197e-07,1.25675e-06,0.0355291,-0.0169703534181731,-1.1158993773463521e-06,6.791972306796623e-07,0.038400034300752894,1.2567507896577013e-06,-0.018892457457877043
384,0.0385,6.08792e-05,774.852,8.11643e-05,-0.0020873,0.00315126,0.00569309,-0.0171611,0.0377774,-0.0191237,-1.11807e-06,6.80632e-07,1.25923e-06,0.0356282,-0.01701468705550291,-1.1180693749723858e-06,6.806322316865732e-07,0.038500037039110646,1.2592307927494772e-06,-0.01894200213776176
385,0.0386,6.08727e-05,775.18,8.11579e-05,-0.00208485,0.0031498,0.00568966,-0.0172062,0.0378737,-0.0191743,-1.12024e-06,6.82066e-07,1.26171e-06,0.0357273,-0.01705901869343074,-1.1202393724873971e-06,6.820662326045834e-07,0.038600049408195725,1.2617107960632978e-06,-0.01899164241654394
386,0.0387,6.0866e-05,775.507,8.11513e-05,-0.0020824,0.00314835,0.00568623,-0.0172513,0.0379699,-0.0192248,-1.12241e-06,6.83499e-07,1.26419e-06,0.0358264,-0.01710334833204674,-1.1224093701134308e-06,6.834992336557377e-07,0.0386999675389339,1.2641907991550738e-06,-0.01904118208771466
387,0.0388,6.0859e-05,775.834,8.11443e-05,-0.00207995,0.00314689,0.00568281,-0.0172964,0.0380662,-0.0192754,-1.12457e-06,6.8493e-07,1.26667e-06,0.0359255,-0.01714767597144118,-1.1245693676276147e-06,6.849302345290909e-07,0.038799999162253185,1.2666708022468498e-06,-0.01909081734811835
388,0.0389,6.08519e-05,776.16,8.11371e-05,-0.00207752,0.00314544,0.00567939,-0.0173415,0.0381625,-0.0193259,-1.12673e-06,6.8636e-07,1.26914e-06,0.0360246,-0.0171920016117042,-1.126729365252821e-06,6.86360235535588e-07,0.038900040419081794,1.2691408053377984e-06,-0.01914035201108144
389,0.039,6.08446e-05,776.485,8.11296e-05,-0.00207508,0.003144,0.00567598,-0.0173866,0.0382587,-0.0193765,-1.12889e-06,6.87789e-07,1.27161e-06,0.0361236,-0.017236325252925844,-1.128889362767005e-06,6.877892364531846e-07,0.03899998741034327,1.271610808428747e-06,-0.019189982253614013
390,0.0391,6.08371e-05,776.809,8.11219e-05,-0.00207266,0.00314255,0.00567258,-0.0174317,0.038355,-0.019427,-1.13105e-06,6.89216e-07,1.27408e-06,0.0362227,-0.017280646895196483,-1.1310493603922112e-06,6.892162374150246e-07,0.03910004792696742,1.2740808117417401e-06,-0.01923951190887585
391,0.0392,6.08295e-05,777.133,8.11139e-05,-0.00207024,0.00314111,0.00566919,-0.0174767,0.0384512,-0.0194775,-1.1332e-06,6.90642e-07,1.27654e-06,0.0363218,-0.017324868271097693,-1.1331993579055677e-06,6.906422385100086e-07,0.03920001415987673,1.2765408148318613e-06,-0.019289039062953317
392,0.0393,6.08216e-05,777.455,8.11056e-05,-0.00206782,0.00313968,0.0056658,-0.0175218,0.0385474,-0.0195281,-1.13535e-06,6.92067e-07,1.279e-06,0.0364209,-0.01736918592016823,-1.1353493555299465e-06,6.920672395160921e-07,0.039299990010000174,1.2790008179219825e-06,-0.0193386617821113
393,0.0394,6.08136e-05,777.778,8.10971e-05,-0.00206542,0.00313824,0.00566242,-0.0175669,0.0386436,-0.0195786,-1.1375e-06,6.9349e-07,1.28146e-06,0.0365199,-0.017413501570557766,-1.137499353043303e-06,6.93490240566419e-07,0.039399975478263016,1.2814608210121037e-06,-0.019388183929246572
394,0.0395,6.08054e-05,778.099,8.10883e-05,-0.00206301,0.00313681,0.00565904,-0.0176119,0.0387398,-0.0196291,-1.13964e-06,6.94912e-07,1.28392e-06,0.036619,-0.017457716968133252,-1.1396393505558322e-06,6.949122415278453e-07,0.039499970565590514,1.2839208243242695e-06,-0.019437703575576615
395,0.0396,6.0797e-05,778.42,8.10793e-05,-0.00206062,0.00313539,0.00565567,-0.017657,0.038836,-0.0196796,-1.14178e-06,6.96333e-07,1.28638e-06,0.036718,-0.017502028625862587,-1.1417793481793836e-06,6.96333242400371e-07,0.03959997527290837,1.2863808274143906e-06,-0.01948722072122755
396,0.0397,6.07884e-05,778.74,8.107e-05,-0.00205822,0.00313396,0.00565231,-0.017702,0.0389322,-0.0197301,-1.14392e-06,6.97752e-07,1.28883e-06,0.036817,-0.01754624003981009,-1.1439193456919128e-06,6.977522435391847e-07,0.03969998960114163,1.2888308305036844e-06,-0.01953673536632583
397,0.0398,6.07796e-05,779.059,8.10605e-05,-0.00205584,0.00313254,0.00564895,-0.0177471,0.0390284,-0.0197807,-1.14606e-06,6.99171e-07,1.29128e-06,0.0369161,-0.017590547705238935,-1.1460593433154642e-06,6.991712444559539e-07,0.03980001355121621,1.2912808335929782e-06,-0.019586345552368045
398,0.0399,6.07707e-05,779.378,8.10507e-05,-0.00205346,0.00313113,0.0056456,-0.0177921,0.0391246,-0.0198312,-1.14819e-06,7.00587e-07,1.29373e-06,0.0370151,-0.017634755135917612,-1.148189340827166e-06,7.005872453280659e-07,0.03990004712405737,1.2937308369043166e-06,-0.019635855191788676
399,0.04,6.07617e-05,779.696,8.10407e-05,-0.00205108,0.00312971,0.00564226,-0.0178372,0.0392207,-0.0198817,-1.15033e-06,7.02003e-07,1.29617e-06,0.0371141,-0.017679058809405568,-1.150329338339695e-06,7.020032464222226e-07,0.039999986320587544,1.296170839992783e-06,-0.019685362331035683
400,0.0401,6.07524e-05,780.013,8.10305e-05,-0.00204871,0.0031283,0.00563892,-0.0178822,0.0393169,-0.0199322,-1.15245e-06,7.03417e-07,1.29862e-06,0.0372131,-0.017723262257174133,-1.1524493359615917e-06,7.03417247338578e-07,0.040100039131734544,1.2986208433041213e-06,-0.0197348669702353
401,0.0402,6.0743e-05,780.33,8.102e-05,-0.00204635,0.0031269,0.00563559,-0.0179273,0.039413,-0.0199826,-1.15458e-06,7.0483e-07,1.30106e-06,0.0373122,-0.017767561939081022,-1.1545793334732934e-06,7.048302483880775e-07,0.040199997548420185,1.3010608463925877e-06,-0.01978427108794578
402,0.0403,6.07334e-05,780.646,8.10093e-05,-0.00204399,0.00312549,0.00563226,-0.0179723,0.0395091,-0.0200331,-1.1567e-06,7.06242e-07,1.30349e-06,0.0374112,-0.0178117614042983,-1.1566993309841678e-06,7.062422493486764e-07,0.04029996557157123,1.3034908494802266e-06,-0.019833770732379352
403,0.0404,6.07237e-05,780.961,8.09984e-05,-0.00204164,0.00312409,0.00562894,-0.0180173,0.0396053,-0.0200836,-1.15883e-06,7.07653e-07,1.30593e-06,0.0375101,-0.017855958880584444,-1.1588293286068918e-06,7.076532504424193e-07,0.04040004724211044,1.3059308527907376e-06,-0.019883267877143895
404,0.0405,6.07138e-05,781.275,8.09872e-05,-0.00203929,0.00312269,0.00562563,-0.0180624,0.0397014,-0.0201341,-1.16094e-06,7.09062e-07,1.30836e-06,0.0376091,-0.017900252578008535,-1.1609393261169387e-06,7.090622513583611e-07,0.040500034490960735,1.3083608558783766e-06,-0.019932762522365866
405,0.0406,6.07038e-05,781.589,8.09758e-05,-0.00203695,0.0031213,0.00562232,-0.0181074,0.0397975,-0.0201846,-1.16306e-06,7.1047e-07,1.31079e-06,0.0377081,-0.017944446072281406,-1.163059323627813e-06,7.104702524074469e-07,0.04060003134904733,1.3107908591880602e-06,-0.019982254668171273
406,0.0407,6.06936e-05,781.902,8.09642e-05,-0.00203461,0.00311991,0.00561902,-0.0181524,0.0398936,-0.020235,-1.16517e-06,7.11876e-07,1.31322e-06,0.0378071,-0.01798863757789182,-1.16516932113786e-06,7.118762532787315e-07,0.0407000378172937,1.3132208622756991e-06,-0.020031646317855922
407,0.0408,6.06832e-05,782.215,8.09524e-05,-0.00203228,0.00311852,0.00561573,-0.0181974,0.0399896,-0.0202855,-1.16728e-06,7.13282e-07,1.31564e-06,0.0379061,-0.01803282709492926,-1.1672793187589292e-06,7.132822543720607e-07,0.04079994981662338,1.3156408653625107e-06,-0.020081133470155832
408,0.0409,6.06727e-05,782.527,8.09404e-05,-0.00202996,0.00311714,0.00561244,-0.0182424,0.0400857,-0.020336,-1.16939e-06,7.14686e-07,1.31807e-06,0.038005,-0.0180770146234831,-1.1693893162689761e-06,7.146862552875888e-07,0.04089997549795776,1.3180708686721943e-06,-0.020130618123417543
409,0.041,6.06621e-05,782.838,8.09282e-05,-0.00202764,0.00311576,0.00560916,-0.0182874,0.0401818,-0.0203864,-1.1715e-06,7.16089e-07,1.32049e-06,0.038104,-0.018121200163642937,-1.171499313779023e-06,7.160892563362609e-07,0.04100001079222215,1.3204908717590058e-06,-0.020180002295772548
410,0.0411,6.06513e-05,783.148,8.09157e-05,-0.00202532,0.00311438,0.00560588,-0.0183324,0.0402778,-0.0204369,-1.1736e-06,7.1749e-07,1.3229e-06,0.0382029,-0.01816538371549825,-1.1735993112882426e-06,7.174902574291764e-07,0.041099951590339634,1.3229008750670346e-06,-0.0202294819562846
411,0.0412,6.06403e-05,783.458,8.09031e-05,-0.00202301,0.003113,0.00560261,-0.0183774,0.0403739,-0.0204873,-1.1757e-06,7.18891e-07,1.32532e-06,0.0383019,-0.018209565279138418,-1.1756993089084844e-06,7.188912583000473e-07,0.041200006103229825,1.3253208781538461e-06,-0.02027886114602795
412,0.0413,6.06293e-05,783.768,8.08902e-05,-0.00202071,0.00311163,0.00559935,-0.0184224,0.0404699,-0.0205378,-1.1778e-06,7.2029e-07,1.32773e-06,0.0384008,-0.01825374485465292,-1.177799306417704e-06,7.202902594372063e-07,0.04129996610181896,1.327730881461875e-06,-0.020328335814294274
413,0.0414,6.0618e-05,784.076,8.08772e-05,-0.00201841,0.00311026,0.00559609,-0.0184674,0.040566,-0.0205882,-1.17989e-06,7.21688e-07,1.33014e-06,0.0384998,-0.018297922442131354,-1.179889303926096e-06,7.216882604854646e-07,0.041400039837027336,1.330140884547859e-06,-0.020377710021928674
414,0.0415,6.06067e-05,784.384,8.08639e-05,-0.00201611,0.00310889,0.00559284,-0.0185124,0.040662,-0.0206387,-1.18199e-06,7.23084e-07,1.33255e-06,0.0385987,-0.01834209804166298,-1.1819893014353156e-06,7.230842613559219e-07,0.041500019039776515,1.3325508878558878e-06,-0.020427179698452758
415,0.0416,6.05952e-05,784.691,8.08505e-05,-0.00201383,0.00310753,0.00558959,-0.0185574,0.040758,-0.0206891,-1.18408e-06,7.2448e-07,1.33496e-06,0.0386976,-0.018386271653337394,-1.1840792989437077e-06,7.244802624484237e-07,0.04160000784099016,1.3349608911639166e-06,-0.02047654892448103
416,0.0417,6.05835e-05,784.998,8.08368e-05,-0.00201154,0.00310617,0.00558635,-0.0186024,0.040854,-0.0207395,-1.18617e-06,7.25874e-07,1.33736e-06,0.0387965,-0.01843044327724397,-1.1861692964520998e-06,7.258742633631243e-07,0.041700006241589316,1.3373608942490733e-06,-0.020525915662362948
417,0.0418,6.05718e-05,785.304,8.0823e-05,-0.00200926,0.00310481,0.00558311,-0.0186474,0.04095,-0.02079,-1.18825e-06,7.27267e-07,1.33976e-06,0.0388954,-0.0184746129134723,-1.1882492940706868e-06,7.27267264410969e-07,0.04180001424249569,1.3397608975562747e-06,-0.0205753778546911
418,0.0419,6.05599e-05,785.609,8.0809e-05,-0.00200699,0.00310346,0.00557988,-0.0186923,0.041046,-0.0208404,-1.19033e-06,7.28659e-07,1.34216e-06,0.0389943,-0.01851868241398469,-1.1903292915782515e-06,7.286592653699131e-07,0.04190003184463098,1.3421609006414315e-06,-0.02062473961172051
419,0.042,6.05478e-05,785.914,8.07948e-05,-0.00200472,0.00310211,0.00557666,-0.0187373,0.0411419,-0.0208908,-1.19241e-06,7.30049e-07,1.34455e-06,0.0390932,-0.018562848079541228,-1.1924092890858162e-06,7.300492665951452e-07,0.0419999548489165,1.3445509039478054e-06,-0.02067409888098004
420,0.0421,6.05357e-05,786.218,8.07804e-05,-0.00200246,0.00310076,0.00557344,-0.0187823,0.0412379,-0.0209412,-1.19449e-06,7.31438e-07,1.34695e-06,0.0391921,-0.01860701175768742,-1.194489286593381e-06,7.314382675094322e-07,0.04209999164627143,1.3469509070329622e-06,-0.020723455662595147
421,0.0422,6.13847e-05,786.521,5.73884e-05,-0.00199401,0.00309948,0.00556656,-0.0188272,0.0413339,-0.0209916,-1.19557e-06,7.34909e-07,1.34446e-06,0.039291,-0.0186510753136252,-1.195569285350473e-06,7.349092701058879e-07,0.04220003804761996,1.3444609037183142e-06,-0.020772809956691063
422,0.0423,6.09226e-05,786.824,8.25719e-05,-0.00199334,0.00309508,0.00558588,-0.0188722,0.0414298,-0.021042,-1.19675e-06,7.38337e-07,1.34231e-06,0.0393899,-0.01869523502163528,-1.1967492838937943e-06,7.383372726543769e-07,0.042299989823879613,1.3423109008758871e-06,-0.020822161763393243
423,0.0424,6.0288e-05,787.127,7.96323e-05,-0.00198812,0.00309203,0.00559023,-0.0189171,0.0415257,-0.0210924,-1.19787e-06,7.41778e-07,1.33997e-06,0.0394887,-0.01873929461643742,-1.1978692825431736e-06,7.417782750263058e-07,0.042399951185974505,1.3399708977956948e-06,-0.020871511082827143
424,0.0425,6.05769e-05,787.428,8.08436e-05,-0.00198365,0.00308925,0.00559655,-0.0189621,0.0416217,-0.0211428,-1.19899e-06,7.45218e-07,1.33767e-06,0.0395876,-0.01878345035466822,-1.1989892811925529e-06,7.452182777534233e-07,0.04250002638482098,1.337670894718812e-06,-0.020920857915117885
425,0.0426,6.04868e-05,787.729,8.06112e-05,-0.00197893,0.00308635,0.00560217,-0.019007,0.0417176,-0.0211932,-1.20011e-06,7.48654e-07,1.33537e-06,0.0396864,-0.018827505988690874,-1.2001092798419322e-06,7.486542803469831e-07,0.042600006931341916,1.3353708916419293e-06,-0.020970202260391035
426,0.0427,6.04995e-05,788.029,8.06627e-05,-0.00197428,0.0030835,0.0056079,-0.019052,0.0418135,-0.0212436,-1.20124e-06,7.52087e-07,1.33307e-06,0.0397853,-0.018871657757499105,-1.2012392784921389e-06,7.520872828958858e-07,0.042699997066456996,1.3330708885650466e-06,-0.021019544118771827
427,0.0428,6.04803e-05,788.329,8.06327e-05,-0.00196962,0.00308064,0.00561357,-0.0190969,0.0419094,-0.021294,-1.20235e-06,7.55516e-07,1.33077e-06,0.0398841,-0.018915709431098326,-1.2023492771406907e-06,7.555162853112307e-07,0.042799996791085926,1.330770885488164e-06,-0.021068883490385715
428,0.0429,6.04689e-05,788.628,8.06207e-05,-0.00196498,0.0030778,0.00561924,-0.0191418,0.0420053,-0.0213444,-1.20347e-06,7.58941e-07,1.32849e-06,0.039983,-0.018959759126821796,-1.20346927579007e-06,7.589412880371071e-07,0.04290000610614819,1.328490882412936e-06,-0.02111822037535782
429,0.043,6.04552e-05,788.927,8.06038e-05,-0.00196036,0.00307496,0.00562489,-0.0191868,0.0421012,-0.0213948,-1.20459e-06,7.62363e-07,1.3262e-06,0.0400818,-0.019003904944372763,-1.2045892744394493e-06,7.623632904962818e-07,0.0430000250125635,1.3262008793368807e-06,-0.0211675547738136
430,0.0431,6.04419e-05,789.225,8.05879e-05,-0.00195574,0.00307212,0.00563052,-0.0192317,0.042197,-0.0214451,-1.20571e-06,7.65782e-07,1.32393e-06,0.0401806,-0.019047950680206593,-1.2057092730888286e-06,7.65782293132844e-07,0.04309994920125204,1.3239308764845248e-06,-0.02121678880756217
431,0.0432,6.04284e-05,789.522,8.05715e-05,-0.00195114,0.0030693,0.00563613,-0.0192766,0.0422929,-0.0214955,-1.20682e-06,7.69197e-07,1.32166e-06,0.0402794,-0.019091994438431237,-1.2068192718484028e-06,7.69197295857893e-07,0.04319998728312968,1.3216608734101243e-06,-0.021266118238294163
432,0.0433,6.04148e-05,789.819,8.0555e-05,-0.00194655,0.00306648,0.00564172,-0.0193215,0.0423888,-0.0215459,-1.20793e-06,7.72609e-07,1.31939e-06,0.0403782,-0.01913603621913562,-1.2079292704969546e-06,7.726092985382849e-07,0.04330003495911949,1.3193908703357238e-06,-0.02131544518288553
433,0.0434,6.04011e-05,790.115,8.05383e-05,-0.00194198,0.00306367,0.0056473,-0.0193664,0.0424846,-0.0215962,-1.20904e-06,7.76017e-07,1.31713e-06,0.040477,-0.019180076022408343,-1.2090392691455065e-06,7.76017301085119e-07,0.04339998789013766,1.3171308674841953e-06,-0.021364671777933553
434,0.0435,6.03872e-05,790.41,8.05215e-05,-0.00193741,0.00306087,0.00565286,-0.0194113,0.0425804,-0.0216466,-1.21015e-06,7.79422e-07,1.31488e-06,0.0405758,-0.019224113848338442,-1.2101492677940584e-06,7.794223038093406e-07,0.04349995039710519,1.3148808644114496e-06,-0.02141399375555164
435,0.0436,6.03733e-05,790.705,8.05046e-05,-0.00193286,0.00305807,0.00565841,-0.0194562,0.0426763,-0.0216969,-1.21126e-06,7.82823e-07,1.31263e-06,0.0406746,-0.019268149697014403,-1.2112592664426103e-06,7.828233064000045e-07,0.04360002684093711,1.3126308615607485e-06,-0.021463215393731194
436,0.0437,6.03592e-05,791.0,8.04875e-05,-0.00192832,0.00305529,0.00566393,-0.0195011,0.0427721,-0.0217473,-1.21237e-06,7.86221e-07,1.31038e-06,0.0407734,-0.019312183568525154,-1.2123692650911622e-06,7.862213091680559e-07,0.04370000851255407,1.3103808584880028e-06,-0.021512532404876272
437,0.0438,6.03451e-05,791.293,8.04702e-05,-0.00192379,0.0030525,0.00566944,-0.019546,0.0428679,-0.0217976,-1.21348e-06,7.89616e-07,1.30815e-06,0.0408722,-0.019356215462959514,-1.213479263739714e-06,7.896163116694055e-07,0.043799999762873965,1.3081508556389565e-06,-0.021561749086686288
438,0.0439,6.03309e-05,791.586,8.04528e-05,-0.00191928,0.00304973,0.00567494,-0.0195909,0.0429637,-0.021848,-1.21458e-06,7.93007e-07,1.30591e-06,0.040971,-0.01940024538040619,-1.2145792623874385e-06,7.930073144812866e-07,0.043900000592814514,1.3059108527890828e-06,-0.0216110611318584
439,0.044,6.03165e-05,791.879,8.04353e-05,-0.00191478,0.00304696,0.00568041,-0.0196358,0.0430595,-0.0218983,-1.21568e-06,7.96395e-07,1.30369e-06,0.0410697,-0.019444273320953998,-1.215679261035163e-06,7.963953170264659e-07,0.04400001100329343,1.3036908497188193e-06,-0.021660272857798146
440,0.0441,6.0302e-05,792.171,8.04176e-05,-0.00191029,0.0030442,0.00568587,-0.0196807,0.0431553,-0.0219486,-1.21679e-06,7.99779e-07,1.30146e-06,0.0411685,-0.019488299284691535,-1.2167892596837149e-06,7.997793198821768e-07,0.044100030995228634,1.301460846869773e-06,-0.021709482108450362
441,0.0442,6.02875e-05,792.462,8.03997e-05,-0.00190581,0.00304145,0.00569131,-0.0197256,0.043251,-0.021999,-1.21789e-06,8.0316e-07,1.29925e-06,0.0412672,-0.01953232327170773,-1.2178892583314394e-06,8.031603224711859e-07,0.0441999561495372,1.2992508440223816e-06,-0.021758786708065747
442,0.0443,6.02728e-05,792.753,8.03818e-05,-0.00190134,0.0030387,0.00569674,-0.0197705,0.0433468,-0.0220493,-1.21899e-06,8.06538e-07,1.29704e-06,0.041366,-0.0195763452820914,-1.2189892569791638e-06,8.065383252375824e-07,0.04429999529713502,1.29704084117499e-06,-0.021807991003595983
443,0.0444,6.02581e-05,793.044,8.03637e-05,-0.00189688,0.00303596,0.00570215,-0.0198153,0.0434426,-0.0220996,-1.22008e-06,8.09912e-07,1.29483e-06,0.0414647,-0.019620267277962622,-1.2200792557370832e-06,8.099123278704212e-07,0.044400044028942265,1.2948308383275986e-06,-0.02185719282421228
444,0.0445,6.02432e-05,793.333,8.03454e-05,-0.00189244,0.00303323,0.00570754,-0.0198602,0.0435383,-0.0221499,-1.22118e-06,8.13283e-07,1.29263e-06,0.0415634,-0.019664285339748955,-1.2211792543848077e-06,8.132833306806475e-07,0.044499997895872,1.2926308354810345e-06,-0.021906392170039313
445,0.0446,6.02283e-05,793.622,8.0327e-05,-0.00188801,0.00303051,0.00571292,-0.0199051,0.043634,-0.0222002,-1.22228e-06,8.16651e-07,1.29043e-06,0.0416621,-0.019708301425168773,-1.2222792530325322e-06,8.166513334462167e-07,0.044599961328844584,1.2904308326344704e-06,-0.02195558904120154
446,0.0447,6.02133e-05,793.911,8.03085e-05,-0.00188359,0.00302779,0.00571828,-0.01995,0.0437298,-0.0222505,-1.22337e-06,8.20015e-07,1.28824e-06,0.0417609,-0.01975231553431056,-1.2233692516794292e-06,8.200153363002727e-07,0.044700038798774155,1.2882408297887338e-06,-0.022004783437823305
447,0.0448,6.01982e-05,794.199,8.02899e-05,-0.00187918,0.00302507,0.00572363,-0.0199948,0.0438255,-0.0223009,-1.22446e-06,8.23376e-07,1.28606e-06,0.0418596,-0.019796229646891206,-1.2244592503263263e-06,8.23376338887627e-07,0.04480002137657735,1.2860608269438245e-06,-0.022054073154626708
448,0.0449,6.01829e-05,794.486,8.02711e-05,-0.00187478,0.00302237,0.00572896,-0.0200397,0.0439212,-0.0223511,-1.22555e-06,8.26734e-07,1.28388e-06,0.0419583,-0.019840239808144533,-1.2255492489732234e-06,8.267343416523687e-07,0.04490001352317097,1.2838808240989152e-06,-0.0221031648079435
449,0.045,6.01676e-05,794.773,8.02522e-05,-0.00187039,0.00301967,0.00573427,-0.0200845,0.0440169,-0.0224014,-1.22664e-06,8.30089e-07,1.2817e-06,0.042057,-0.019884149981805876,-1.2266392477311427e-06,8.300893445944979e-07,0.04500001523947095,1.2817008214760506e-06,-0.02215235178169095
450,0.0451,6.01522e-05,795.06,8.02331e-05,-0.00186602,0.00301698,0.00573957,-0.0201294,0.0441126,-0.0224517,-1.22773e-06,8.3344e-07,1.27953e-06,0.0421557,-0.019928156195524793,-1.2277292463780398e-06,8.334403474030694e-07,0.045100026526393,1.2795308186319687e-06,-0.022201536281395762
451,0.0452,6.01368e-05,795.345,8.0214e-05,-0.00186166,0.00301429,0.00574485,-0.0201742,0.0442083,-0.022502,-1.22882e-06,8.36787e-07,1.27737e-06,0.0422543,-0.01997206243062022,-1.2288192450249369e-06,8.367873500780831e-07,0.0452000473848535,1.2773708157887143e-06,-0.022250718307182504
452,0.0453,6.01212e-05,795.631,8.01947e-05,-0.0018573,0.00301161,0.00575012,-0.020219,0.0443039,-0.0225523,-1.22991e-06,8.40132e-07,1.27521e-06,0.042353,-0.02001596669876038,-1.229909243671834e-06,8.401323530193849e-07,0.045299973285765294,1.2752108131675044e-06,-0.02229989785917552
453,0.0454,6.01056e-05,795.915,8.01753e-05,-0.00185296,0.00300894,0.00575537,-0.0202639,0.0443996,-0.0226026,-1.23099e-06,8.43473e-07,1.27306e-06,0.0424517,-0.020059966994041667,-1.2309892423179036e-06,8.43473355827129e-07,0.04540001328004628,1.2730608103250773e-06,-0.02234907493749938
454,0.0455,6.00898e-05,796.2,8.01558e-05,-0.00184863,0.00300628,0.0057606,-0.0203087,0.0444952,-0.0226529,-1.23208e-06,8.46811e-07,1.27091e-06,0.0425503,-0.020103867324145597,-1.2320792409648007e-06,8.468113585902159e-07,0.04549995829861153,1.2709108077046949e-06,-0.022398249542278315
455,0.0456,6.0074e-05,796.483,8.01361e-05,-0.00184431,0.00300362,0.00576582,-0.0203535,0.0445909,-0.0227031,-1.23316e-06,8.50146e-07,1.26877e-06,0.042649,-0.020147765687558716,-1.2331592396108704e-06,8.501463613086457e-07,0.04560001743237385,1.2687708048630952e-06,-0.022447323918374118
456,0.0457,6.00581e-05,796.766,8.01164e-05,-0.00184001,0.00300097,0.00577102,-0.0203984,0.0446865,-0.0227534,-1.23424e-06,8.53477e-07,1.26663e-06,0.0427476,-0.020191760065198183,-1.2342392383679623e-06,8.534773641155624e-07,0.04569998157225008,1.2666308022435402e-06,-0.022496493581353638
457,0.0458,6.00421e-05,797.049,8.00965e-05,-0.00183571,0.00299832,0.00577621,-0.0204432,0.0447821,-0.0228036,-1.23532e-06,8.56805e-07,1.26449e-06,0.0428463,-0.02023565449110476,-1.235319237014032e-06,8.568053670998665e-07,0.045799955269155035,1.2644907994019405e-06,-0.022545563025722526
458,0.0459,6.00261e-05,797.331,8.00765e-05,-0.00183143,0.00299568,0.00578138,-0.020488,0.0448778,-0.0228539,-1.2364e-06,8.6013e-07,1.26237e-06,0.0429449,-0.020279546950585203,-1.2363992356601017e-06,8.601303698174689e-07,0.04590004311400131,1.2623707967840403e-06,-0.022594727747399235
459,0.046,6.00099e-05,797.612,8.00564e-05,-0.00182715,0.00299305,0.00578654,-0.0205328,0.0449734,-0.0229042,-1.23748e-06,8.63452e-07,1.26024e-06,0.0430435,-0.020323437443727332,-1.2374792343061713e-06,8.634523727124588e-07,0.04600003593770374,1.2602407941653126e-06,-0.022643889996152633
460,0.0461,5.99937e-05,797.893,8.00362e-05,-0.00182289,0.00299042,0.00579169,-0.0205776,0.045069,-0.0229544,-1.23855e-06,8.6677e-07,1.25813e-06,0.0431422,-0.02036732597061952,-1.2385492329514136e-06,8.667703756959355e-07,0.04610003832117715,1.2581307915482398e-06,-0.0226929520414072
461,0.0462,5.99774e-05,798.173,8.00158e-05,-0.00181863,0.0029878,0.00579681,-0.0206224,0.0451646,-0.0230046,-1.23963e-06,8.70086e-07,1.25601e-06,0.0432408,-0.02041121253134981,-1.2396292317085056e-06,8.700863785016111e-07,0.04620005026533547,1.256010788708295e-06,-0.022742011623808844
462,0.0463,5.9961e-05,798.453,7.99954e-05,-0.00181439,0.00298519,0.00580193,-0.0206672,0.0452601,-0.0230549,-1.2407e-06,8.73397e-07,1.25391e-06,0.0433394,-0.020455097126006128,-1.2406992303537479e-06,8.733973813068729e-07,0.04629996714109064,1.2539107860920495e-06,-0.022791166464369628
463,0.0464,5.99446e-05,798.732,7.99748e-05,-0.00181016,0.00298258,0.00580702,-0.020712,0.0453557,-0.0231051,-1.24177e-06,8.76706e-07,1.2518e-06,0.043438,-0.020498979754676627,-1.2417692289989901e-06,8.767063843784229e-07,0.04639999819935792,1.2518007834749767e-06,-0.022840221116530945
464,0.0465,5.99281e-05,799.011,7.99542e-05,-0.00180594,0.00297998,0.00581211,-0.0207568,0.0454513,-0.0231553,-1.24284e-06,8.80012e-07,1.24971e-06,0.0435366,-0.02054286041744946,-1.2428392276442324e-06,8.80012387183271e-07,0.04650003882105125,1.2497107808595587e-06,-0.02288927330621071
465,0.0466,5.99115e-05,799.289,7.99334e-05,-0.00180173,0.00297738,0.00581718,-0.0208016,0.0455468,-0.0232056,-1.24391e-06,8.83314e-07,1.24761e-06,0.0436352,-0.020586739114412556,-1.2439092262894746e-06,8.833143900766061e-07,0.04659998434708146,1.2476107782433132e-06,-0.022938420739695098
466,0.0467,5.98948e-05,799.567,7.99126e-05,-0.00179753,0.00297479,0.00582223,-0.0208464,0.0456424,-0.0232558,-1.24498e-06,8.86613e-07,1.24553e-06,0.0437337,-0.020630615845654177,-1.2449792250457392e-06,8.866133931473286e-07,0.04670004408836448,1.2455307756287226e-06,-0.022987467999877387
467,0.0468,5.9878e-05,799.844,7.98916e-05,-0.00179334,0.00297221,0.00582727,-0.0208912,0.0457379,-0.023306,-1.24605e-06,8.89909e-07,1.24344e-06,0.0438323,-0.020674490611262142,-1.2460492236909815e-06,8.899093959513493e-07,0.046800008715810026,1.2434407730133046e-06,-0.02303651279794905
468,0.0469,5.98612e-05,800.121,7.98705e-05,-0.00178916,0.00296963,0.00583229,-0.020936,0.0458334,-0.0233562,-1.24712e-06,8.93202e-07,1.24136e-06,0.0439309,-0.020718363411324714,-1.2471192223362237e-06,8.932023989327575e-07,0.04689998289033315,1.241360770398714e-06,-0.023085555134033653
469,0.047,5.98444e-05,800.397,7.98493e-05,-0.001785,0.00296706,0.0058373,-0.0209807,0.0459289,-0.0234064,-1.24818e-06,8.96492e-07,1.23929e-06,0.0440294,-0.020762136322148406,-1.2481792209806386e-06,8.964924018695086e-07,0.046999966612846,1.2392907680069953e-06,-0.023134595008254766
470,0.0471,5.98274e-05,800.673,7.98281e-05,-0.00178084,0.0029645,0.0058423,-0.0210255,0.0460244,-0.0234566,-1.24924e-06,8.99778e-07,1.23722e-06,0.044128,-0.020806005195771027,-1.2492392197360758e-06,8.997784048947466e-07,0.04709995988426008,1.2372207653932321e-06,-0.023183632420736067
471,0.0472,5.98104e-05,800.948,7.98067e-05,-0.00177669,0.00296194,0.00584728,-0.0210703,0.0461199,-0.0235068,-1.25031e-06,9.03062e-07,1.23516e-06,0.0442265,-0.020849872104112266,-1.250309218381318e-06,9.030624077421834e-07,0.047199962705487764,1.2351607627802963e-06,-0.023232667371601012
472,0.0473,5.97933e-05,801.223,7.97852e-05,-0.00177255,0.00295939,0.00585225,-0.021115,0.0462154,-0.023557,-1.25137e-06,9.06342e-07,1.2331e-06,0.044325,-0.020893639136628672,-1.2513692170257329e-06,9.063424106781071e-07,0.04729997507744099,1.2331007601673605e-06,-0.02328169986097317
473,0.0474,5.97762e-05,801.497,7.97637e-05,-0.00176843,0.00295684,0.0058572,-0.0211598,0.0463109,-0.0236072,-1.25243e-06,9.09619e-07,1.23105e-06,0.0444236,-0.020937502119057205,-1.2524292156701478e-06,9.096194137914182e-07,0.0473999970010317,1.2310507577772967e-06,-0.02333072988897611
474,0.0475,5.97589e-05,801.771,7.9742e-05,-0.00176431,0.0029543,0.00586214,-0.0212046,0.0464064,-0.0236574,-1.25349e-06,9.12893e-07,1.229e-06,0.0445221,-0.020981363136468145,-1.253489214425585e-06,9.128934166380276e-07,0.047500028477172274,1.2290007551651883e-06,-0.023379757455733507
475,0.0476,5.97417e-05,802.044,7.97203e-05,-0.0017602,0.00295177,0.00586706,-0.0212493,0.0465018,-0.0237076,-1.25454e-06,9.16164e-07,1.22696e-06,0.0446206,-0.021025124291466857,-1.2545392130691724e-06,9.161644196620244e-07,0.047599964746773304,1.2269607527759518e-06,-0.02342878256136871
476,0.0477,5.97243e-05,802.316,7.96984e-05,-0.00175611,0.00294924,0.00587197,-0.021294,0.0465973,-0.0237578,-1.2556e-06,9.19431e-07,1.22492e-06,0.0447191,-0.021068883490385715,-1.2555992117135872e-06,9.194314227745082e-07,0.047700015320745415,1.2249207501646708e-06,-0.02347780520600551
477,0.0478,5.97069e-05,802.589,7.96765e-05,-0.00175202,0.00294672,0.00587687,-0.0213388,0.0466927,-0.023808,-1.25666e-06,9.22696e-07,1.22289e-06,0.0448176,-0.021112738622042992,-1.256659210358002e-06,9.226964257091907e-07,0.04779997067000141,1.2228907477762618e-06,-0.023526825389767247
478,0.0479,5.96894e-05,802.86,7.96545e-05,-0.00174794,0.0029442,0.00588175,-0.0213835,0.0467882,-0.0238581,-1.25771e-06,9.25957e-07,1.22086e-06,0.0449161,-0.021156493904688767,-1.2577092091126119e-06,9.259574287323602e-07,0.047900040345451256,1.2208607451658082e-06,-0.023575745470357012
479,0.048,5.96719e-05,803.131,7.96324e-05,-0.00174388,0.00294169,0.00588662,-0.0214283,0.0468836,-0.0239083,-1.25876e-06,9.29216e-07,1.21884e-06,0.0450146,-0.021200345111487495,-1.2587592077561993e-06,9.292164317997731e-07,0.04800001477800486,1.2188407427782266e-06,-0.02362476073764086
480,0.0481,5.96543e-05,803.402,7.96102e-05,-0.00173982,0.00293919,0.00589147,-0.021473,0.046979,-0.0239585,-1.25982e-06,9.32471e-07,1.21682e-06,0.0451131,-0.021244096478210683,-1.2598192064006142e-06,9.324714347336283e-07,0.04809999874857418,1.216820740390645e-06,-0.023673773544420018
481,0.0482,5.96366e-05,803.672,7.95879e-05,-0.00173577,0.00293669,0.00589632,-0.0215177,0.0470744,-0.0240086,-1.26087e-06,9.35723e-07,1.2148e-06,0.0452116,-0.021287845889291446,-1.260869205155224e-06,9.357234378448709e-07,0.04819999225806937,1.2148007377810188e-06,-0.023722686263091708
482,0.0483,5.96189e-05,803.942,7.95655e-05,-0.00173174,0.0029342,0.00590114,-0.0215625,0.0471698,-0.0240588,-1.26192e-06,9.38972e-07,1.21279e-06,0.04531,-0.021331691211653014,-1.2619192037988114e-06,9.389724409114564e-07,0.04829999530740037,1.2127907353942646e-06,-0.02377169415413294
483,0.0484,5.96012e-05,804.211,7.95431e-05,-0.00172771,0.00293171,0.00590596,-0.0216072,0.0472652,-0.0241089,-1.26296e-06,9.42218e-07,1.21079e-06,0.0454085,-0.02137543670733677,-1.2629592024415714e-06,9.422184439333847e-07,0.04840000789747756,1.2107907330083378e-06,-0.023820601967104782
484,0.0485,5.95833e-05,804.48,7.95205e-05,-0.00172369,0.00292923,0.00591076,-0.0216519,0.0473606,-0.0241591,-1.26401e-06,9.45461e-07,1.20879e-06,0.0455069,-0.021419180247640557,-1.264009201085159e-06,9.454614469106559e-07,0.04850003002921066,1.208790730622411e-06,-0.023869604942901135
485,0.0486,5.95655e-05,804.748,7.94979e-05,-0.00171968,0.00292675,0.00591554,-0.0216966,0.0474559,-0.0242092,-1.26506e-06,9.48701e-07,1.20679e-06,0.0456054,-0.02146292183265175,-1.2650591998397687e-06,9.487014500653146e-07,0.048599956843509595,1.2067907282364843e-06,-0.023918507850665405
486,0.0487,5.95475e-05,805.016,7.94752e-05,-0.00171569,0.00292428,0.00592032,-0.0217413,0.0475513,-0.0242593,-1.2661e-06,9.51938e-07,1.2048e-06,0.0457038,-0.021506661462457832,-1.2660991984825287e-06,9.519384531753161e-07,0.04869999805128211,1.2048007258513849e-06,-0.02396740830845534
487,0.0488,5.95295e-05,805.283,7.94524e-05,-0.0017117,0.00292182,0.00592508,-0.021786,0.0476467,-0.0243095,-1.26714e-06,9.55171e-07,1.20282e-06,0.0458023,-0.02155039913714618,-1.2671391971252888e-06,9.5517145615176e-07,0.04880004880344124,1.2028207234671129e-06,-0.024016403914758233
488,0.0489,5.95115e-05,805.55,7.94296e-05,-0.00170772,0.00291936,0.00592982,-0.0218307,0.047742,-0.0243596,-1.26819e-06,9.58402e-07,1.20084e-06,0.0459007,-0.02159413485680406,-1.2681891958798985e-06,9.584024591724472e-07,0.0489000042108918,1.200840721082841e-06,-0.02406529946807834
489,0.049,5.94934e-05,805.816,7.94066e-05,-0.00170375,0.00291691,0.00593456,-0.0218754,0.0478373,-0.0244097,-1.26923e-06,9.6163e-07,1.19886e-06,0.0459991,-0.021637868621519063,-1.2692291945226586e-06,9.616304623705219e-07,0.04899996914454641,1.198860718698569e-06,-0.02411419257179248
490,0.0491,5.94752e-05,806.082,7.93836e-05,-0.00169979,0.00291446,0.00593928,-0.0219201,0.0479327,-0.0244598,-1.27027e-06,9.64854e-07,1.19689e-06,0.0460975,-0.021681600431378456,-1.2702691931654186e-06,9.648544654350388e-07,0.04910004851531302,1.1968907163151243e-06,-0.024163083226023563
491,0.0492,5.9457e-05,806.347,7.93605e-05,-0.00169584,0.00291202,0.00594398,-0.0219648,0.048028,-0.02451,-1.27131e-06,9.68076e-07,1.19492e-06,0.0461959,-0.021725330286469613,-1.271309191919201e-06,9.680764685437993e-07,0.049200032514098435,1.1949207139316798e-06,-0.024212069009692083
492,0.0493,5.94387e-05,806.612,7.93373e-05,-0.0016919,0.00290958,0.00594868,-0.0220095,0.0481233,-0.0245601,-1.27234e-06,9.71295e-07,1.19296e-06,0.0462943,-0.02176905818688002,-1.2723391905611336e-06,9.712954716079025e-07,0.04930002604181283,1.1929607115490626e-06,-0.024260954760436437
493,0.0494,5.94204e-05,806.876,7.93141e-05,-0.00168797,0.00290715,0.00595336,-0.0220542,0.0482186,-0.0246102,-1.27338e-06,9.7451e-07,1.191e-06,0.0463927,-0.021812784132696827,-1.2733791892038937e-06,9.745104747604927e-07,0.049400029099364584,1.1910007091664454e-06,-0.02430983806206599
494,0.0495,5.9402e-05,807.14,7.92908e-05,-0.00168404,0.00290473,0.00595803,-0.0220988,0.0483139,-0.0246603,-1.27442e-06,9.77723e-07,1.18905e-06,0.0464911,-0.021856410309653573,-1.274419187957676e-06,9.777234779573263e-07,0.049500041687661867,1.1890507070067002e-06,-0.024358718914703537
495,0.0496,5.93836e-05,807.404,7.92674e-05,-0.00168013,0.00290231,0.00596268,-0.0221435,0.0484091,-0.0247104,-1.27545e-06,9.80932e-07,1.1871e-06,0.0465894,-0.02190013235091781,-1.2754491865996087e-06,9.809324810206022e-07,0.049599958847611925,1.1871007046249105e-06,-0.02440759731847164
496,0.0497,5.93652e-05,807.667,7.92439e-05,-0.00167622,0.00289989,0.00596732,-0.0221882,0.0485044,-0.0247605,-1.27648e-06,9.84139e-07,1.18516e-06,0.0466878,-0.021943852437850575,-1.2764791853525637e-06,9.84139484350166e-07,0.0496999904901223,1.185160702243948e-06,-0.024456473273493096
497,0.0498,5.93467e-05,807.929,7.92204e-05,-0.00167233,0.00289749,0.00597195,-0.0222328,0.0485997,-0.0248106,-1.27751e-06,9.87342e-07,1.18322e-06,0.0467862,-0.02198747276929114,-1.2775091839944963e-06,9.873424873241277e-07,0.04980003166610225,1.1832207000850303e-06,-0.02450534677989058
498,0.0499,5.93281e-05,808.191,7.91968e-05,-0.00166844,0.00289508,0.00597657,-0.0222775,0.0486949,-0.0248606,-1.27855e-06,9.90543e-07,1.18128e-06,0.0468845,-0.022031188952194358,-1.2785491826372564e-06,9.905434905643773e-07,0.04989997738645768,1.181280697704068e-06,-0.024554120293203585
499,0.05,5.93095e-05,808.453,7.91731e-05,-0.00166457,0.00289268,0.00598117,-0.0223222,0.0487902,-0.0249107,-1.27958e-06,9.93741e-07,1.17935e-06,0.0469829,-0.022074903181028005,-1.2795791813902113e-06,9.937414937599698e-07,0.05000003762209704,1.179350695323933e-06,-0.024602988907607926
500,0.0501,5.92908e-05,808.714,7.91494e-05,-0.0016607,0.00289029,0.00598576,-0.0223668,0.0488854,-0.0249608,-1.2806e-06,9.96935e-07,1.17743e-06,0.0470812,-0.02211851766773576,-1.2805991800313166e-06,9.969354970440492e-07,0.05010000238392576,1.17743069316667e-06,-0.02465185507375589
501,0.0502,5.92721e-05,808.975,7.91256e-05,-0.00165684,0.00288791,0.00599034,-0.0224115,0.0489806,-0.0250109,-1.28163e-06,1.00013e-06,1.17551e-06,0.0471795,-0.022162227993063,-1.2816291786732492e-06,1.0001305001949845e-06,0.05019997666285292,1.175510691009407e-06,-0.024700718791770382
502,0.0503,5.92534e-05,809.235,7.91017e-05,-0.00165299,0.00288552,0.00599491,-0.0224561,0.0490758,-0.0250609,-1.28266e-06,1.00332e-06,1.17359e-06,0.0472779,-0.02220583858517111,-1.2826591774262042e-06,1.0033205033455062e-06,0.050299960459784465,1.1735906886300995e-06,-0.02474948253672704
503,0.0504,5.92346e-05,809.495,7.90777e-05,-0.00164915,0.00288315,0.00599946,-0.0225008,0.049171,-0.025111,-1.28368e-06,1.0065e-06,1.17168e-06,0.0473762,-0.022249545007340554,-1.2836791760673094e-06,1.0065005064952004e-06,0.05039995377562656,1.171680686473664e-06,-0.02479834136372805
504,0.0505,5.92158e-05,809.754,7.90537e-05,-0.00164532,0.00288078,0.006004,-0.0225454,0.0492662,-0.0251611,-1.28471e-06,1.00968e-06,1.16977e-06,0.0474745,-0.022293151705196634,-1.284709174709242e-06,1.0096805096448946e-06,0.05049995661128559,1.1697706840951838e-06,-0.02484719774296318
505,0.0506,5.91969e-05,810.013,7.90297e-05,-0.0016415,0.00287841,0.00600853,-0.02259,0.0493614,-0.0252111,-1.28573e-06,1.01286e-06,1.16787e-06,0.0475728,-0.022336756458237295,-1.2857291734613696e-06,1.0128605130166335e-06,0.0505999689676675,1.1678706819395757e-06,-0.024895954164155354
506,0.0507,5.91779e-05,810.272,7.90055e-05,-0.00163768,0.00287605,0.00601305,-0.0226347,0.0494566,-0.0252612,-1.28675e-06,1.01604e-06,1.16597e-06,0.0476711,-0.02238045702850866,-1.2867491721024749e-06,1.0160405161663277e-06,0.05069999084567911,1.1659706797839675e-06,-0.024944805653111746
507,0.0508,5.9159e-05,810.53,7.89813e-05,-0.00163388,0.0028737,0.00601755,-0.0226793,0.0495518,-0.0253112,-1.28777e-06,1.01922e-06,1.16408e-06,0.0477694,-0.02242405788781876,-1.2877691708546024e-06,1.019220519316022e-06,0.050800022246226595,1.1640806776291868e-06,-0.024993557194030402
508,0.0509,5.914e-05,810.787,7.89571e-05,-0.00163008,0.00287135,0.00602205,-0.0227239,0.0496469,-0.0253613,-1.28879e-06,1.02239e-06,1.16219e-06,0.0478676,-0.0224676568025739,-1.2887891694957077e-06,1.0223905226869334e-06,0.05089995808021586,1.1621906752523614e-06,-0.025042403793197443
509,0.051,5.91209e-05,811.044,7.89328e-05,-0.00162629,0.002869,0.00602653,-0.0227685,0.0497421,-0.0254113,-1.28981e-06,1.02555e-06,1.1603e-06,0.0479659,-0.022511253772860895,-1.2898091682478352e-06,1.0255505258349729e-06,0.051000008518550466,1.1603006730975807e-06,-0.02509115045433108
510,0.0511,5.91018e-05,811.301,7.89084e-05,-0.00162251,0.00286666,0.00603099,-0.0228131,0.0498372,-0.0254613,-1.29083e-06,1.02872e-06,1.15842e-06,0.0480642,-0.022554848798766347,-1.2908291668889404e-06,1.0287205292058843e-06,0.05109996337213851,1.1584206709436273e-06,-0.025139894678192665
511,0.0512,5.90827e-05,811.557,7.88839e-05,-0.00161874,0.00286433,0.00603545,-0.0228578,0.0499324,-0.0255114,-1.29184e-06,1.03188e-06,1.15655e-06,0.0481624,-0.022598539620527824,-1.2918391655292183e-06,1.0318805323539237e-06,0.051200032851883126,1.1565506687905014e-06,-0.02518873394603538
512,0.0513,5.90635e-05,811.813,7.88595e-05,-0.00161498,0.002862,0.00603989,-0.0229024,0.0500275,-0.0255614,-1.29286e-06,1.03504e-06,1.15468e-06,0.0482607,-0.022642130753571243,-1.2928591642813458e-06,1.0350405357240078e-06,0.05130000672868995,1.1546806666373755e-06,-0.02523747329084436
513,0.0514,5.90443e-05,812.068,7.88349e-05,-0.00161123,0.00285968,0.00604433,-0.022947,0.0501226,-0.0256114,-1.29387e-06,1.0382e-06,1.15281e-06,0.0483589,-0.022685719942493576,-1.2938691629216237e-06,1.0382005388720472e-06,0.0513999901134643,1.1528106644842495e-06,-0.025286210198746883
514,0.0515,5.90251e-05,812.323,7.88103e-05,-0.00160748,0.00285736,0.00604875,-0.0229916,0.0502177,-0.0256614,-1.29488e-06,1.04135e-06,1.15095e-06,0.0484572,-0.02272930718738131,-1.2948791616729238e-06,1.0413505422413039e-06,0.051499983007111005,1.150950662331951e-06,-0.025334944669865078
515,0.0516,5.90058e-05,812.578,7.87856e-05,-0.00160375,0.00285504,0.00605315,-0.0230362,0.0503128,-0.0257114,-1.2959e-06,1.0445e-06,1.14909e-06,0.0485554,-0.022772892488321372,-1.295899160314029e-06,1.0445005453885159e-06,0.05159998541053379,1.1490906601796524e-06,-0.025383676704320512
516,0.0517,5.89865e-05,812.832,7.87609e-05,-0.00160002,0.00285273,0.00605755,-0.0230807,0.0504079,-0.0257614,-1.29691e-06,1.04765e-06,1.14724e-06,0.0486536,-0.022816378127042958,-1.2969091590653292e-06,1.0476505487577725e-06,0.05169999732463748,1.1472406580281813e-06,-0.0254324063022352
517,0.0518,5.89671e-05,813.086,7.87361e-05,-0.0015963,0.00285043,0.00606193,-0.0231253,0.050503,-0.0258114,-1.29792e-06,1.0508e-06,1.14539e-06,0.0487518,-0.022859959544705655,-1.297919157705607e-06,1.0508005521270292e-06,0.05180001875032647,1.1453906558767102e-06,-0.02548113346373093
518,0.0519,5.89477e-05,813.339,7.87113e-05,-0.00159259,0.00284813,0.00606631,-0.0231699,0.0505981,-0.0258614,-1.29893e-06,1.05394e-06,1.14354e-06,0.0488501,-0.022903539018680474,-1.298929156345885e-06,1.0539405554954584e-06,0.05190004968850537,1.1435406539472837e-06,-0.0255298581889295
519,0.052,5.89283e-05,813.591,7.86864e-05,-0.00158888,0.00284584,0.00607067,-0.0232145,0.0506931,-0.0259114,-1.29993e-06,1.05708e-06,1.1417e-06,0.0489483,-0.022947116549054125,-1.2999291550963576e-06,1.057080558641843e-06,0.05199998494007496,1.14170065179664e-06,-0.025578580477952695
520,0.0521,5.89088e-05,813.844,7.86615e-05,-0.00158519,0.00284355,0.00607502,-0.0232591,0.0507882,-0.0259614,-1.30094e-06,1.06021e-06,1.13987e-06,0.0490464,-0.022990692135913204,-1.3009391537366355e-06,1.0602105620094449e-06,0.05210003489594284,1.1398706496468236e-06,-0.02562730033092231
521,0.0522,5.88893e-05,814.096,7.86365e-05,-0.0015815,0.00284126,0.00607936,-0.0233036,0.0508832,-0.0260114,-1.30194e-06,1.06335e-06,1.13803e-06,0.0491446,-0.02303416808276615,-1.3019391524871082e-06,1.063350565377874e-06,0.05219998914700974,1.1380306474961799e-06,-0.025676017747960134
522,0.0523,5.88697e-05,814.347,7.86114e-05,-0.00157783,0.00283899,0.00608368,-0.0233482,0.0509782,-0.0260614,-1.30295e-06,1.06648e-06,1.13621e-06,0.0492428,-0.02307773978721339,-1.302949151127386e-06,1.066480568745476e-06,0.052299952894181434,1.1362106455692356e-06,-0.02572473272918807
523,0.0524,5.88502e-05,814.598,7.85864e-05,-0.00157416,0.00283671,0.006088,-0.0233928,0.0510733,-0.0261114,-1.30395e-06,1.06961e-06,1.13438e-06,0.049341,-0.023121309548405966,-1.3039491498778588e-06,1.0696105721130778e-06,0.052400031378358136,1.1343806434194192e-06,-0.025773445274727802
524,0.0525,5.88305e-05,814.849,7.85612e-05,-0.00157049,0.00283444,0.0060923,-0.0234373,0.0511683,-0.0261613,-1.30495e-06,1.07273e-06,1.13256e-06,0.0494391,-0.023164779682913417,-1.3049491485173093e-06,1.0727305754798522e-06,0.05250001413044458,1.1325606412704303e-06,-0.025822057966911838
525,0.0526,5.88109e-05,815.099,7.8536e-05,-0.00156684,0.00283218,0.00609659,-0.0234819,0.0512633,-0.0262113,-1.30596e-06,1.07585e-06,1.13075e-06,0.0495373,-0.023208345562213295,-1.3059591472686094e-06,1.075850578624582e-06,0.05260000638134388,1.1307506393443134e-06,-0.02587076564631141
526,0.0527,5.87912e-05,815.349,7.85108e-05,-0.0015632,0.00282992,0.00610087,-0.0235265,0.0513583,-0.0262613,-1.30696e-06,1.07897e-06,1.12894e-06,0.0496354,-0.023251909498518186,-1.3069591459080598e-06,1.0789705819913564e-06,0.052700008131957965,1.128940637196152e-06,-0.02591947089038782
527,0.0528,5.87715e-05,815.599,7.84855e-05,-0.00155956,0.00282766,0.00610514,-0.023571,0.0514533,-0.0263112,-1.30795e-06,1.08209e-06,1.12713e-06,0.0497336,-0.023295373821457188,-1.3079491446577052e-06,1.0820905853581309e-06,0.05280001938318968,1.127130635270035e-06,-0.02596807629607545
528,0.0529,5.87518e-05,815.848,7.84602e-05,-0.00155593,0.00282541,0.0061094,-0.0236155,0.0515483,-0.0263612,-1.30895e-06,1.08521e-06,1.12533e-06,0.0498317,-0.02333883621027677,-1.3089491432971556e-06,1.0852105889469499e-06,0.05290004013594163,1.1253306331227009e-06,-0.026016776674741005
529,0.053,5.8732e-05,816.096,7.84348e-05,-0.00155231,0.00282317,0.00611365,-0.0236601,0.0516432,-0.0264111,-1.30995e-06,1.08832e-06,1.12353e-06,0.0499298,-0.023382394326828537,-1.3099491420476284e-06,1.088320592312897e-06,0.0529999650911146,1.1235306311974114e-06,-0.026065377224991138
530,0.0531,5.87122e-05,816.344,7.84093e-05,-0.00154869,0.00282093,0.00611789,-0.0237046,0.0517382,-0.0264611,-1.31094e-06,1.09142e-06,1.12174e-06,0.050028,-0.02342585284332188,-1.3109391406862514e-06,1.0914205956780165e-06,0.05310000483961108,1.1217406290509047e-06,-0.026114072738731897
531,0.0532,5.86924e-05,816.592,7.83839e-05,-0.00154509,0.00281869,0.00612211,-0.0237492,0.0518331,-0.026511,-1.31194e-06,1.09453e-06,1.11995e-06,0.0501261,-0.023469407079018345,-1.3119391394367241e-06,1.0945305990439635e-06,0.05319994877233514,1.1199506271264426e-06,-0.02616266843402959
532,0.0533,5.86725e-05,816.839,7.83584e-05,-0.00154149,0.00281646,0.00612632,-0.0237937,0.0519281,-0.026561,-1.31293e-06,1.09763e-06,1.11817e-06,0.0502242,-0.023512861723530287,-1.3129291380753472e-06,1.0976306024090832e-06,0.05330000752018371,1.1181706252028079e-06,-0.026211359083331498
533,0.0534,5.86526e-05,817.086,7.83328e-05,-0.0015379,0.00281424,0.00613053,-0.0238382,0.052023,-0.0266109,-1.31393e-06,1.10073e-06,1.11639e-06,0.0503223,-0.023556314434353687,-1.31392913682582e-06,1.1007306057742028e-06,0.05339997043406264,1.1163906230571286e-06,-0.026259949924161696
534,0.0535,5.86327e-05,817.333,7.83072e-05,-0.00153432,0.00281202,0.00613472,-0.0238827,0.052118,-0.0266608,-1.31492e-06,1.10383e-06,1.11461e-06,0.0504204,-0.023599765211574364,-1.314919135464443e-06,1.1038306091393224e-06,0.05350004818487175,1.1146106211334939e-06,-0.026308538340369392
535,0.0536,5.86127e-05,817.579,7.82815e-05,-0.00153075,0.0028098,0.0061389,-0.0239272,0.0522129,-0.0267108,-1.31591e-06,1.10692e-06,1.11284e-06,0.0505185,-0.023643214055278472,-1.3159091342140883e-06,1.1069206127256592e-06,0.05360003008351044,1.1128406192106866e-06,-0.026357221696358346
536,0.0537,5.85928e-05,817.825,7.82559e-05,-0.00152718,0.00280759,0.00614307,-0.0239718,0.0523078,-0.0267607,-1.3169e-06,1.11002e-06,1.11107e-06,0.0506165,-0.023686758596881186,-1.3168991328527113e-06,1.1100206160907788e-06,0.05370002147088182,1.1110706172878793e-06,-0.026405805258825743
537,0.0538,5.85728e-05,818.07,7.82301e-05,-0.00152362,0.00280538,0.00614723,-0.0240163,0.0524027,-0.0268106,-1.31789e-06,1.11311e-06,1.10931e-06,0.0507146,-0.023730203569465758,-1.3178891316023567e-06,1.113110619455071e-06,0.053800022347885834,1.1093106153658994e-06,-0.02645438639703379
538,0.0539,5.85527e-05,818.315,7.82043e-05,-0.00152007,0.00280318,0.00615138,-0.0240608,0.0524976,-0.0268605,-1.31887e-06,1.11619e-06,1.10755e-06,0.0508127,-0.02377364660879211,-1.3188691302401523e-06,1.1161906230405805e-06,0.05390003271542354,1.1075506134439195e-06,-0.026502965111103616
539,0.054,5.85327e-05,818.56,7.81785e-05,-0.00151653,0.00280098,0.00615552,-0.0241053,0.0525924,-0.0269104,-1.31986e-06,1.11928e-06,1.10579e-06,0.0509107,-0.023817087714946283,-1.3198591289897976e-06,1.1192806264048727e-06,0.05399994717439549,1.105790611299895e-06,-0.02655154140115601
540,0.0541,5.85126e-05,818.804,7.81527e-05,-0.00151299,0.00279879,0.00615964,-0.0241498,0.0526873,-0.0269603,-1.32085e-06,1.12236e-06,1.10404e-06,0.0510088,-0.02386052688801421,-1.3208491276284207e-06,1.1223606297683375e-06,0.05409997651569953,1.1040406093787425e-06,-0.026600115267312097
541,0.0542,5.84924e-05,819.048,7.81268e-05,-0.00150947,0.0027966,0.00616376,-0.0241943,0.0527822,-0.0270102,-1.32183e-06,1.12543e-06,1.10229e-06,0.0511068,-0.023903964128081934,-1.3218291263772386e-06,1.1254306333530195e-06,0.05420001535023844,1.10229060745759e-06,-0.02664868670969267
542,0.0543,5.84723e-05,819.291,7.81008e-05,-0.00150595,0.00279441,0.00616786,-0.0242388,0.052877,-0.0270601,-1.32281e-06,1.12851e-06,1.10055e-06,0.0512048,-0.023947399435235495,-1.3228091251260565e-06,1.1285106367164843e-06,0.05429995824891232,1.100550605537265e-06,-0.026697255728418745
543,0.0544,5.84521e-05,819.534,7.80749e-05,-0.00150243,0.00279223,0.00617196,-0.0242832,0.0529719,-0.02711,-1.3238e-06,1.13158e-06,1.09881e-06,0.0513029,-0.023990735208639258,-1.3237991237646796e-06,1.1315806403011663e-06,0.05440001606261835,1.0988106036169398e-06,-0.026745822323611335
544,0.0545,5.84319e-05,819.776,7.80489e-05,-0.00149893,0.00279006,0.00617604,-0.0243277,0.0530667,-0.0271599,-1.32478e-06,1.13465e-06,1.09707e-06,0.0514009,-0.024034166654565592,-1.3247791225134975e-06,1.1346506436638037e-06,0.05449997792225836,1.0970706016966147e-06,-0.02679438649539123
545,0.0546,5.84117e-05,820.019,7.80228e-05,-0.00149543,0.00278789,0.00618012,-0.0243722,0.0531615,-0.0272098,-1.32576e-06,1.13772e-06,1.09534e-06,0.0514989,-0.02407759616783567,-1.3257591211512931e-06,1.1377206472484858e-06,0.054599949258731684,1.095340599777117e-06,-0.02684294824387934
546,0.0547,5.83915e-05,820.26,7.79967e-05,-0.00149194,0.00278572,0.00618418,-0.0244167,0.0532564,-0.0272597,-1.32674e-06,1.14078e-06,1.09362e-06,0.0515969,-0.02412102374853531,-1.326739119900111e-06,1.1407806506102958e-06,0.054700035542935455,1.0936205980804914e-06,-0.026891507569196782
547,0.0548,5.83712e-05,820.502,7.79706e-05,-0.00148846,0.00278356,0.00618824,-0.0244611,0.0533512,-0.0273095,-1.32771e-06,1.14385e-06,1.09189e-06,0.0516949,-0.024164351813190765,-1.3277091186481016e-06,1.1438506541949778e-06,0.05480002584577037,1.0918905961609937e-06,-0.026939967165465872
548,0.0549,5.83509e-05,820.743,7.79444e-05,-0.00148498,0.0027814,0.00619228,-0.0245056,0.053446,-0.0273594,-1.32869e-06,1.1469e-06,1.09018e-06,0.0517929,-0.024207775533350073,-1.3286891172858972e-06,1.146900657778005e-06,0.05490002562813534,1.0901805942431508e-06,-0.026988521649659813
549,0.055,5.83306e-05,820.983,7.79183e-05,-0.00148152,0.00277925,0.00619631,-0.0245501,0.0535408,-0.0274093,-1.32967e-06,1.14996e-06,1.08846e-06,0.0518908,-0.02425119732119696,-1.3296691160347152e-06,1.149960661139815e-06,0.055000034890929195,1.0884605923244806e-06,-0.027037073711045467
550,0.0551,5.83103e-05,821.224,7.7892e-05,-0.00147805,0.0027771,0.00620033,-0.0245945,0.0536355,-0.0274591,-1.33064e-06,1.15301e-06,1.08675e-06,0.0519888,-0.024294519606274045,-1.3306391146716834e-06,1.1530106647228422e-06,0.05509994812505026,1.0867505904066377e-06,-0.02708552605830128
551,0.0552,5.82899e-05,821.464,7.78658e-05,-0.0014746,0.00277496,0.00620434,-0.024639,0.0537303,-0.027509,-1.33162e-06,1.15607e-06,1.08504e-06,0.0520868,-0.024337937534095522,-1.3316191134205013e-06,1.1560706683066968e-06,0.05519997634139506,1.0850405887108394e-06,-0.02713407327928774
552,0.0553,5.82695e-05,821.703,7.78395e-05,-0.00147116,0.00277282,0.00620835,-0.0246834,0.0538251,-0.0275588,-1.33259e-06,1.15911e-06,1.08334e-06,0.0521847,-0.024381255967992677,-1.3325891120574695e-06,1.159110671666852e-06,0.055300014040864154,1.083340586793824e-06,-0.027182520796085186
553,0.0554,5.82491e-05,821.942,7.78131e-05,-0.00146772,0.00277069,0.00621234,-0.0247279,0.0539198,-0.0276087,-1.33356e-06,1.16216e-06,1.08164e-06,0.0522827,-0.024424670036131912,-1.33355911080546e-06,1.1621606752498792e-06,0.05539995568435607,1.0816405848768085e-06,-0.027231063177154957
554,0.0555,5.82287e-05,822.181,7.77868e-05,-0.00146429,0.00276856,0.00621632,-0.0247723,0.0540146,-0.0276585,-1.33453e-06,1.1652e-06,1.07995e-06,0.0523806,-0.02446798461919142,-1.3345291095534506e-06,1.165200678832079e-06,0.05550001234276558,1.079950583182665e-06,-0.027279505863975873
555,0.0556,5.82082e-05,822.419,7.77604e-05,-0.00146086,0.00276643,0.00622029,-0.0248168,0.0541093,-0.0277084,-1.3355e-06,1.16824e-06,1.07826e-06,0.0524785,-0.024511394827991584,-1.3354991081904188e-06,1.1682406824142788e-06,0.05559997292699337,1.078260581266477e-06,-0.027328043405611457
556,0.0557,5.81878e-05,822.657,7.7734e-05,-0.00145745,0.00276431,0.00622425,-0.0248612,0.0542041,-0.0277582,-1.33647e-06,1.17128e-06,1.07657e-06,0.0525765,-0.024554705560555834,-1.3364691069384094e-06,1.1712806859964786e-06,0.05570004854793642,1.0765705795723335e-06,-0.027376481262937236
557,0.0558,5.81673e-05,822.895,7.77075e-05,-0.00145404,0.00276219,0.0062282,-0.0249056,0.0542988,-0.027808,-1.33744e-06,1.17432e-06,1.07489e-06,0.0526744,-0.024598014370166288,-1.3374391055753776e-06,1.1743206895786784e-06,0.05580002807648987,1.0748905776569728e-06,-0.027424916708117753
558,0.0559,5.81468e-05,823.132,7.7681e-05,-0.00145063,0.00276008,0.00623214,-0.0249501,0.0543935,-0.0278579,-1.33841e-06,1.17735e-06,1.07321e-06,0.0527723,-0.024641418792771153,-1.3384091043233681e-06,1.1773506931600508e-06,0.055900017073552855,1.0732105759636568e-06,-0.02747344699393328
559,0.056,5.81262e-05,823.369,7.76545e-05,-0.00144724,0.00275797,0.00623608,-0.0249945,0.0544882,-0.0279077,-1.33938e-06,1.18038e-06,1.07154e-06,0.0528702,-0.024684723752399607,-1.3393791030713587e-06,1.1803806967414232e-06,0.05600001554002243,1.0715405740491235e-06,-0.02752187761034064
560,0.0561,5.81057e-05,823.605,7.76279e-05,-0.00144385,0.00275586,0.00624,-0.0250389,0.0545829,-0.0279575,-1.34034e-06,1.1834e-06,1.06987e-06,0.0529681,-0.024728026789330393,-1.3403391017074995e-06,1.1834007003219682e-06,0.05610002347679521,1.0698705723566349e-06,-0.027570305814963336
561,0.0562,5.80851e-05,823.841,7.76014e-05,-0.00144047,0.00275376,0.00624391,-0.0250833,0.0546776,-0.0280073,-1.34131e-06,1.18643e-06,1.0682e-06,0.053066,-0.02477132790364911,-1.34130910045549e-06,1.1864307039033406e-06,0.05620004088476804,1.0682005704421016e-06,-0.0276187316079215
562,0.0563,5.80645e-05,824.077,7.75747e-05,-0.00143709,0.00275167,0.00624781,-0.0251277,0.0547722,-0.0280571,-1.34227e-06,1.18945e-06,1.06654e-06,0.0531639,-0.024814627095441022,-1.3422690992026531e-06,1.1894507074838856e-06,0.056299962134836345,1.0665405687504403e-06,-0.027667154989335252
563,0.0564,5.80439e-05,824.313,7.75481e-05,-0.00143373,0.00274957,0.0062517,-0.0251721,0.0548669,-0.0281069,-1.34323e-06,1.19247e-06,1.06488e-06,0.0532617,-0.024857924364791506,-1.343229097838794e-06,1.1924707110644306e-06,0.05639999847789645,1.064880567058779e-06,-0.027715575959324612
564,0.0565,5.80233e-05,824.548,7.75214e-05,-0.00143037,0.00274749,0.00625559,-0.0252165,0.0549616,-0.0281567,-1.34419e-06,1.19549e-06,1.06322e-06,0.0533596,-0.024901219711785938,-1.344189096585957e-06,1.1954907146449756e-06,0.05650004429484712,1.0632205651450732e-06,-0.027763994518009705
565,0.0566,5.80027e-05,824.782,7.74947e-05,-0.00142701,0.0027454,0.00625946,-0.0252609,0.0550562,-0.0282065,-1.34515e-06,1.1985e-06,1.06157e-06,0.0534575,-0.024944513136509583,-1.3451490953331202e-06,1.1985007182246932e-06,0.05659999392658044,1.0615705634542394e-06,-0.027812410665510656
566,0.0567,5.7982e-05,825.016,7.7468e-05,-0.00142367,0.00274332,0.00626332,-0.0253053,0.0551508,-0.0282563,-1.34611e-06,1.20151e-06,1.05992e-06,0.0535553,-0.024987804639047817,-1.346109093969261e-06,1.2015107218044108e-06,0.05669995301399622,1.0599205617634055e-06,-0.02786082440194748
567,0.0568,5.79613e-05,825.25,7.74413e-05,-0.00142033,0.00274125,0.00626717,-0.0253497,0.0552455,-0.0283061,-1.34707e-06,1.20452e-06,1.05828e-06,0.0536532,-0.025031094219486016,-1.3470690927164242e-06,1.2045207253841284e-06,0.05680002723798627,1.058280560073399e-06,-0.027909235727440196
568,0.0569,5.79406e-05,825.484,7.74145e-05,-0.00141699,0.00273918,0.00627102,-0.0253941,0.0553401,-0.0283559,-1.34803e-06,1.20753e-06,1.05664e-06,0.053751,-0.025074381877909557,-1.348029091352565e-06,1.207530728963846e-06,0.05690000524944838,1.056640558161348e-06,-0.027957644642109036
569,0.057,5.79199e-05,825.717,7.73877e-05,-0.00141367,0.00273711,0.00627485,-0.0254385,0.0554347,-0.0284057,-1.34898e-06,1.21053e-06,1.05501e-06,0.0538488,-0.025117667614403705,-1.3489790900989007e-06,1.2105307327647807e-06,0.05699999271927769,1.055010556472169e-06,-0.028006051146073907
570,0.0571,5.78992e-05,825.95,7.73609e-05,-0.00141035,0.00273505,0.00627868,-0.0254829,0.0555293,-0.0284554,-1.34994e-06,1.21353e-06,1.05338e-06,0.0539467,-0.025160951429053835,-1.3499390888460638e-06,1.213530736343671e-06,0.05709998964836904,1.05338055478299e-06,-0.028054358044895533
571,0.0572,5.78784e-05,826.182,7.7334e-05,-0.00140704,0.00273299,0.00628249,-0.0255273,0.0556239,-0.0285052,-1.3509e-06,1.21653e-06,1.05175e-06,0.0540445,-0.025204233321945324,-1.3508990874822047e-06,1.2165307399225611e-06,0.057199996037617495,1.051750553093811e-06,-0.02810275973265286
572,0.0573,5.78577e-05,826.415,7.73071e-05,-0.00140373,0.00273093,0.0062863,-0.0255716,0.0557185,-0.028555,-1.35185e-06,1.21953e-06,1.05012e-06,0.0541423,-0.02524741581790979,-1.3518490862285404e-06,1.219530743723496e-06,0.05730001188791767,1.050120551404632e-06,-0.028151159010066262
573,0.0574,5.78369e-05,826.646,7.72802e-05,-0.00140043,0.00272888,0.00629009,-0.025616,0.0558131,-0.0286047,-1.3528e-06,1.22252e-06,1.0485e-06,0.0542401,-0.025290693871867553,-1.3527990849748761e-06,1.2225207473015587e-06,0.057400037200165066,1.0485005497162803e-06,-0.028199458697206192
574,0.0575,5.78161e-05,826.878,7.72533e-05,-0.00139714,0.00272683,0.00629388,-0.0256604,0.0559076,-0.0286545,-1.35375e-06,1.22551e-06,1.04689e-06,0.0543379,-0.02533397000432236,-1.3537490837212118e-06,1.2255107508796215e-06,0.05749996622525244,1.046890548028756e-06,-0.02824785315913103
575,0.0576,5.77953e-05,827.109,7.72264e-05,-0.00139385,0.00272479,0.00629766,-0.0257047,0.0560022,-0.0287042,-1.3547e-06,1.2285e-06,1.04527e-06,0.0544356,-0.025377146753079116,-1.3546990823565253e-06,1.2285007546797289e-06,0.05760001045407481,1.0452705463404044e-06,-0.02829614804069125
576,0.0577,5.77745e-05,827.339,7.71994e-05,-0.00139057,0.00272275,0.00630142,-0.0257491,0.0560967,-0.028754,-1.35565e-06,1.23148e-06,1.04367e-06,0.0545334,-0.025420419047111342,-1.355649081102861e-06,1.2314807582569642e-06,0.05769995837752773,1.0436705446537076e-06,-0.028344537687606586
577,0.0578,5.77536e-05,827.57,7.71724e-05,-0.0013873,0.00272072,0.00630518,-0.0257934,0.0561913,-0.0288037,-1.3566e-06,1.23447e-06,1.04206e-06,0.0546312,-0.025463591966260246,-1.3565990798491967e-06,1.2344707620570716e-06,0.057800021526502654,1.0420605429661833e-06,-0.028392827764065265
578,0.0579,5.77328e-05,827.8,7.71454e-05,-0.00138404,0.00271869,0.00630893,-0.0258378,0.0562858,-0.0288535,-1.35755e-06,1.23745e-06,1.04046e-06,0.0547289,-0.025506860422210176,-1.3575490784845101e-06,1.237450765634307e-06,0.057899988351894915,1.0404605412794865e-06,-0.02844121259645027
579,0.058,5.77119e-05,828.029,7.71183e-05,-0.00138078,0.00271666,0.00631267,-0.0258821,0.0563803,-0.0289032,-1.3585e-06,1.24043e-06,1.03886e-06,0.0548267,-0.025550029512091066,-1.3584990772308458e-06,1.240430769433587e-06,0.05799996462459878,1.0388605395927897e-06,-0.028489497868285252
580,0.0581,5.7691e-05,828.259,7.70913e-05,-0.00137752,0.00271464,0.0063164,-0.0259265,0.0564748,-0.0289529,-1.35944e-06,1.2434e-06,1.03727e-06,0.0549244,-0.025593294130299094,-1.3594390759763542e-06,1.243400773009995e-06,0.058099950345506635,1.0372705379069203e-06,-0.02853778074040192
581,0.0582,5.76701e-05,828.488,7.70642e-05,-0.00137428,0.00271262,0.00632013,-0.0259708,0.0565694,-0.0290027,-1.36039e-06,1.24637e-06,1.03568e-06,0.0550222,-0.025636459391251476,-1.3603890747226899e-06,1.2463707768084475e-06,0.05820005133551143,1.0356805362210508e-06,-0.028586158354308444
582,0.0583,5.76492e-05,828.716,7.70371e-05,-0.00137104,0.00271061,0.00632384,-0.0260151,0.0566638,-0.0290524,-1.36133e-06,1.24934e-06,1.03409e-06,0.0551199,-0.02567962274002522,-1.361329073357176e-06,1.2493407803848555e-06,0.05829995013550682,1.034090534757226e-06,-0.028634436422518283
583,0.0584,5.76283e-05,828.945,7.70099e-05,-0.00136781,0.0027086,0.00632754,-0.0260595,0.0567583,-0.0291021,-1.36228e-06,1.25231e-06,1.03251e-06,0.0552176,-0.02572288160442171,-1.3622790721035116e-06,1.252310784183308e-06,0.05839996420638505,1.032510533072184e-06,-0.028682712091367746
584,0.0585,5.76073e-05,829.173,7.69828e-05,-0.00136458,0.00270659,0.00633124,-0.0261038,0.0568528,-0.0291518,-1.36322e-06,1.25528e-06,1.03093e-06,0.0553153,-0.025766041124776207,-1.36321907084902e-06,1.255280787759716e-06,0.058499987729039526,1.030930531387142e-06,-0.02873098536097618
585,0.0586,5.75864e-05,829.4,7.69556e-05,-0.00136136,0.00270459,0.00633492,-0.0261481,0.0569473,-0.0292015,-1.36416e-06,1.25824e-06,1.02936e-06,0.0554131,-0.025809198733206307,-1.364159069483506e-06,1.2582407915573413e-06,0.05860002070436354,1.0293605297029274e-06,-0.028779256231462602
586,0.0587,5.75654e-05,829.627,7.69284e-05,-0.00135814,0.00270259,0.0063386,-0.0261924,0.0570417,-0.0292512,-1.3651e-06,1.2612e-06,1.02779e-06,0.0555108,-0.02585235442979661,-1.3650990682290143e-06,1.2612007953549664e-06,0.05869995726324939,1.0277905282407573e-06,-0.028827524702946472
587,0.0588,5.75445e-05,829.854,7.69012e-05,-0.00135494,0.00270059,0.00634227,-0.0262368,0.0571362,-0.0293009,-1.36604e-06,1.26416e-06,1.02622e-06,0.0556084,-0.025895605625076312,-1.3660390669745226e-06,1.2641607991525916e-06,0.05880000913658723,1.0262205265565427e-06,-0.028875790775546917
588,0.0589,5.75235e-05,830.081,7.6874e-05,-0.00135174,0.0026986,0.00634593,-0.0262811,0.0572306,-0.0293506,-1.36698e-06,1.26711e-06,1.02466e-06,0.0557061,-0.025938757493926157,-1.366979065720031e-06,1.2671108027273448e-06,0.05889996457527236,1.0246605248731555e-06,-0.028924054449383174
589,0.059,5.75025e-05,830.307,7.68468e-05,-0.00134854,0.00269661,0.00634958,-0.0263254,0.0573251,-0.0294003,-1.36792e-06,1.27007e-06,1.0231e-06,0.0558038,-0.025981907451190556,-1.367919064354517e-06,1.27007080652497e-06,0.05900003535019427,1.023100523411813e-06,-0.02897231572457437
590,0.0591,5.74815e-05,830.533,7.68195e-05,-0.00134535,0.00269463,0.00635322,-0.0263697,0.0574195,-0.02945,-1.36885e-06,1.27302e-06,1.02154e-06,0.0559015,-0.02602505549695422,-1.3688490630991978e-06,1.2730208103217677e-06,0.05910000967224516,1.0215405217284257e-06,-0.029020574601239857
591,0.0592,5.74605e-05,830.759,7.67922e-05,-0.00134217,0.00269265,0.00635685,-0.026414,0.0575139,-0.0294997,-1.36979e-06,1.27597e-06,1.01999e-06,0.0559991,-0.026068201631301746,-1.3697890618447062e-06,1.2759708141185655e-06,0.0591999934323173,1.0199905202679105e-06,-0.029068831079498758
592,0.0593,5.74394e-05,830.984,7.67649e-05,-0.00133899,0.00269067,0.00636047,-0.0264583,0.0576083,-0.0295494,-1.37073e-06,1.27891e-06,1.01844e-06,0.0560968,-0.026111345854317958,-1.3707290605902145e-06,1.2789108179145359e-06,0.059299986631302204,1.0184405185853507e-06,-0.029117085159470313
593,0.0594,5.74184e-05,831.209,7.67376e-05,-0.00133583,0.0026887,0.00636409,-0.0265025,0.0577027,-0.029599,-1.37166e-06,1.28185e-06,1.01689e-06,0.0561944,-0.026154390781531256,-1.371659059223873e-06,1.2818508214884616e-06,0.05939998927009049,1.0168905171248355e-06,-0.029165239757802497
594,0.0595,5.73973e-05,831.433,7.67103e-05,-0.00133266,0.00268673,0.00636769,-0.0265468,0.0577971,-0.0296487,-1.37259e-06,1.28479e-06,1.01535e-06,0.0562921,-0.026197531186452627,-1.372589057968554e-06,1.284790825284432e-06,0.05950000134957345,1.015350515443103e-06,-0.02921348904638177
595,0.0596,5.73763e-05,831.657,7.66829e-05,-0.0013295,0.00268477,0.00637129,-0.0265911,0.0578915,-0.0296984,-1.37352e-06,1.28773e-06,1.01381e-06,0.0563897,-0.02624066968029637,-1.373519056713235e-06,1.2877308290804024e-06,0.059600022870642366,1.0138105139834153e-06,-0.029261735937030964
596,0.0597,5.73552e-05,831.881,7.66555e-05,-0.00132635,0.00268281,0.00637488,-0.0266354,0.0579858,-0.029748,-1.37446e-06,1.29067e-06,1.01228e-06,0.0564873,-0.02628380626314719,-1.3744590554587433e-06,1.2906708328763727e-06,0.05969994786418842,1.0122805123025103e-06,-0.029309883360862488
597,0.0598,5.73341e-05,832.105,7.66282e-05,-0.00132321,0.00268085,0.00637846,-0.0266797,0.0580802,-0.0297977,-1.37539e-06,1.2936e-06,1.01075e-06,0.0565849,-0.026326940935089693,-1.3753890542034242e-06,1.2936008366715157e-06,0.059799988261099335,1.0107505108436499e-06,-0.029358125460833384
598,0.0599,5.7313e-05,832.328,7.66008e-05,-0.00132007,0.0026789,0.00638203,-0.0267239,0.0581746,-0.0298473,-1.37632e-06,1.29653e-06,1.00922e-06,0.0566826,-0.02636997633321103,-1.3763190528370828e-06,1.2965308404666587e-06,0.05990003810226918,1.0092205091627449e-06,-0.029406268103863042
599,0.06,5.72919e-05,832.551,7.65733e-05,-0.00131694,0.00267695,0.00638559,-0.0267682,0.0582689,-0.029897,-1.37724e-06,1.29946e-06,1.0077e-06,0.0567802,-0.026413107187904017,-1.3772390515809363e-06,1.2994608442618016e-06,0.059999991388585805,1.0077005077047119e-06,-0.02945450541363126
600,0.0601,5.72708e-05,832.773,7.65459e-05,-0.00131381,0.002675,0.00638915,-0.0268125,0.0583632,-0.0299466,-1.37817e-06,1.30239e-06,1.00618e-06,0.0568777,-0.026456236131942368,-1.3781690503256172e-06,1.3023908480569446e-06,0.06009995410094149,1.0061805062466789e-06,-0.029502643276333895
601,0.0602,5.72497e-05,832.996,7.65185e-05,-0.00131069,0.00267306,0.00639269,-0.0268567,0.0584576,-0.0299963,-1.3791e-06,1.30531e-06,1.00466e-06,0.0569753,-0.026499265815342343,-1.3790990490702981e-06,1.3053108518512602e-06,0.06020003226022341,1.0046605045666013e-06,-0.029550875796374942
602,0.0603,5.72286e-05,833.218,7.6491e-05,-0.00130758,0.00267112,0.00639623,-0.026901,0.0585519,-0.0300459,-1.38003e-06,1.30823e-06,1.00315e-06,0.0570729,-0.026542390942638105,-1.3800290477039567e-06,1.3082308556455757e-06,0.06030001383732286,1.0031505031093957e-06,-0.029599008879225175
603,0.0604,5.72074e-05,833.439,7.64635e-05,-0.00130447,0.00266918,0.00639976,-0.0269452,0.0586462,-0.0300955,-1.38095e-06,1.31115e-06,1.00164e-06,0.0571705,-0.026585416818079577,-1.3809490464478102e-06,1.311150859661936e-06,0.06040000484312946,1.00164050165219e-06,-0.02964713957473364
604,0.0605,5.71863e-05,833.661,7.6436e-05,-0.00130136,0.00266725,0.00640328,-0.0269895,0.0587405,-0.0301452,-1.38187e-06,1.31406e-06,1.00013e-06,0.057268,-0.02662853812897048,-1.3818690451916638e-06,1.314060863455424e-06,0.06050000527853272,1.0001305001949845e-06,-0.029695364913487232
605,0.0606,5.71651e-05,833.882,7.64085e-05,-0.00129827,0.00266533,0.00640679,-0.0270337,0.0588348,-0.0301948,-1.3828e-06,1.31698e-06,9.98633e-07,0.0573656,-0.02667156019679051,-1.3827990439363447e-06,1.3169808672497396e-06,0.06060001514442148,9.986334985612189e-07,-0.029743490829854835
606,0.0607,5.7144e-05,834.102,7.6381e-05,-0.00129518,0.0026634,0.0064103,-0.027078,0.0589291,-0.0302444,-1.38372e-06,1.31989e-06,9.97134e-07,0.0574631,-0.026714677691614175,-1.3837190426801982e-06,1.3198908710432278e-06,0.06070003444168526,9.971344971937413e-07,-0.029791614359236274
607,0.0608,5.71228e-05,834.322,7.63535e-05,-0.00129209,0.00266148,0.00641379,-0.0271222,0.0590233,-0.030294,-1.38464e-06,1.3228e-06,9.95639e-07,0.0575607,-0.026757695952149607,-1.3846390414240517e-06,1.322800874836716e-06,0.06079995709121255,9.956394957377768e-07,-0.029839735501749898
608,0.0609,5.71016e-05,834.542,7.63259e-05,-0.00128901,0.00265956,0.00641728,-0.0271664,0.0591176,-0.0303436,-1.38556e-06,1.3257e-06,9.94148e-07,0.0576582,-0.026800712311320085,-1.385559040056883e-06,1.3257008788514213e-06,0.060899995243891114,9.941484941933254e-07,-0.029887854257514057
609,0.061,5.70804e-05,834.762,7.62984e-05,-0.00128594,0.00265765,0.00642076,-0.0272107,0.0592119,-0.0303932,-1.38648e-06,1.32861e-06,9.9266e-07,0.0577557,-0.02684382408483177,-1.3864790388007364e-06,1.3286108826449095e-06,0.06100004283061211,9.926604926935312e-07,-0.02993597062664699
610,0.0611,5.70593e-05,834.982,7.62708e-05,-0.00128287,0.00265574,0.00642423,-0.0272549,0.0593061,-0.0304428,-1.3874e-06,1.33151e-06,9.91176e-07,0.0578532,-0.0268868366372228,-1.38739903754459e-06,1.3315108864375702e-06,0.06109999374226094,9.9117649110525e-07,-0.02998408460926727
611,0.0612,5.70381e-05,835.201,7.62432e-05,-0.00127981,0.00265383,0.00642769,-0.0272991,0.0594003,-0.0304924,-1.38832e-06,1.33441e-06,9.89695e-07,0.0579508,-0.02692984728850112,-1.3883190362884434e-06,1.334410890230231e-06,0.06119995406972878,9.896954897836707e-07,-0.030032196205493245
612,0.0613,5.70168e-05,835.419,7.62156e-05,-0.00127676,0.00265193,0.00643114,-0.0273433,0.0594946,-0.030542,-1.38924e-06,1.3373e-06,9.88218e-07,0.0580483,-0.026972856038750548,-1.389239035032297e-06,1.337300894244109e-06,0.06130002994390105,9.882184883736045e-07,-0.030080305415443154
613,0.0614,5.69956e-05,835.638,7.6188e-05,-0.00127371,0.00265003,0.00643459,-0.0273875,0.0595888,-0.0305916,-1.39015e-06,1.3402e-06,9.86744e-07,0.0581457,-0.027015862888055242,-1.390149033775323e-06,1.3402008980367697e-06,0.06140000911566679,9.867444867861508e-07,-0.030128412239235458
614,0.0615,5.69744e-05,835.856,7.61604e-05,-0.00127066,0.00264814,0.00643803,-0.0274317,0.059683,-0.0306412,-1.39107e-06,1.34309e-06,9.85274e-07,0.0582432,-0.027058867836499245,-1.3910690324081543e-06,1.3430909020506476e-06,0.06149999770591408,9.852744853322548e-07,-0.030176516676988507
615,0.0616,5.69532e-05,836.074,7.61328e-05,-0.00126763,0.00264625,0.00644146,-0.0274759,0.0597772,-0.0306908,-1.39198e-06,1.34598e-06,9.83808e-07,0.0583407,-0.02710187088416649,-1.3919790311511804e-06,1.345980905842481e-06,0.06159999571553021,9.838084840119166e-07,-0.03022461872882054
616,0.0617,5.6932e-05,836.291,7.61052e-05,-0.00126459,0.00264436,0.00644488,-0.0275201,0.0598714,-0.0307403,-1.3929e-06,1.34887e-06,9.82344e-07,0.0584382,-0.027144872031141132,-1.3928990298950339e-06,1.3488709096343143e-06,0.06170000314540269,9.823444824252903e-07,-0.030272621422117063
617,0.0618,5.69107e-05,836.508,7.60775e-05,-0.00126157,0.00264247,0.00644829,-0.0275643,0.0599656,-0.0307899,-1.39381e-06,1.35175e-06,9.80885e-07,0.0585356,-0.027187871277506992,-1.39380902863806e-06,1.3517509136473649e-06,0.0618000199964186,9.808854810611223e-07,-0.030320718707271932
618,0.0619,5.68895e-05,836.725,7.60499e-05,-0.00125855,0.00264059,0.0064517,-0.0276085,0.0600598,-0.0308395,-1.39472e-06,1.35464e-06,9.79428e-07,0.0586331,-0.027230868623348226,-1.3947190273810861e-06,1.3546409174391982e-06,0.06190004626946588,9.794284796527108e-07,-0.030368813606860723
619,0.062,5.68682e-05,836.942,7.60222e-05,-0.00125553,0.00263871,0.00645509,-0.0276527,0.0601539,-0.030889,-1.39563e-06,1.35752e-06,9.77975e-07,0.0587305,-0.027273864068748654,-1.3956290261241122e-06,1.3575209214522488e-06,0.061999975765428816,9.779754781558125e-07,-0.030416809162687408
620,0.0621,5.6847e-05,837.158,7.59945e-05,-0.00125252,0.00263684,0.00645848,-0.0276969,0.0602481,-0.0309386,-1.39654e-06,1.36039e-06,9.76526e-07,0.058828,-0.027316857613792545,-1.3965390248671383e-06,1.3603909252424273e-06,0.062100020875196726,9.76526476792472e-07,-0.03046489929630769
621,0.0622,5.68257e-05,837.374,7.59668e-05,-0.00124952,0.00263497,0.00646187,-0.0277411,0.0603422,-0.0309881,-1.39745e-06,1.36327e-06,9.7508e-07,0.0589254,-0.027359849258563607,-1.3974490236101644e-06,1.3632709292554779e-06,0.062199969189655535,9.750804754737885e-07,-0.030512890096010437
622,0.0623,5.68045e-05,837.589,7.59391e-05,-0.00124652,0.0026331,0.00646524,-0.0277853,0.0604364,-0.0310377,-1.39836e-06,1.36614e-06,9.73637e-07,0.0590228,-0.027402839003145996,-1.3983590222421682e-06,1.366140933267701e-06,0.062300033139691235,9.736374739777176e-07,-0.03056097546413472
623,0.0624,5.67832e-05,837.805,7.59114e-05,-0.00124353,0.00263123,0.0064686,-0.0278294,0.0605305,-0.0310872,-1.39927e-06,1.36901e-06,9.72198e-07,0.0591202,-0.027445729592201595,-1.3992690209851943e-06,1.3690109370578796e-06,0.06240000027618953,9.721984726152044e-07,-0.030608961508184818
624,0.0625,5.67619e-05,838.02,7.58837e-05,-0.00124054,0.00262937,0.00647196,-0.0278736,0.0606246,-0.0311368,-1.40017e-06,1.37188e-06,9.70763e-07,0.0592177,-0.02748871554095711,-1.400169019727393e-06,1.3718809410701027e-06,0.06249997682003827,9.707634711642044e-07,-0.03065704211128517
625,0.0626,5.67406e-05,838.234,7.5856e-05,-0.00123756,0.00262752,0.00647531,-0.0279178,0.0607187,-0.0311863,-1.40108e-06,1.37475e-06,9.6933e-07,0.0593151,-0.02753169958977575,-1.4010790184704192e-06,1.3747509448602813e-06,0.06259996277212232,9.693304698910055e-07,-0.03070502340015402
626,0.0627,5.67194e-05,838.449,7.58282e-05,-0.00123458,0.00262566,0.00647866,-0.0279619,0.0608128,-0.0312358,-1.40198e-06,1.37761e-06,9.67902e-07,0.0594124,-0.027574584496204646,-1.4019790172126179e-06,1.377610948871677e-06,0.06269995813332718,9.679024683961757e-07,-0.030753002314007793
627,0.0628,5.66981e-05,838.663,7.58005e-05,-0.00123161,0.00262381,0.00648199,-0.0280061,0.0609069,-0.0312854,-1.40289e-06,1.38047e-06,9.66476e-07,0.0595098,-0.02761756474969934,-1.402889015955644e-06,1.3804709528830728e-06,0.06279996290453815,9.66476467079147e-07,-0.030801075772861397
628,0.0629,5.66768e-05,838.877,7.57727e-05,-0.00122865,0.00262196,0.00648532,-0.0280502,0.061001,-0.0313349,-1.40379e-06,1.38333e-06,9.65054e-07,0.0596072,-0.027660445869558292,-1.4037890146978427e-06,1.3833309568944685e-06,0.06289997708664097,9.650544656736315e-07,-0.030849049932240358
629,0.063,5.66555e-05,839.09,7.5745e-05,-0.00122569,0.00262012,0.00648864,-0.0280944,0.0610951,-0.0313844,-1.40469e-06,1.38619e-06,9.63635e-07,0.0597046,-0.02770342232806411,-1.4046890134400414e-06,1.3861909606838196e-06,0.06300000068052114,9.636354643127731e-07,-0.030897021716957296
630,0.0631,5.66342e-05,839.304,7.57172e-05,-0.00122273,0.00261828,0.00649195,-0.0281385,0.0611892,-0.0314339,-1.4056e-06,1.38904e-06,9.6222e-07,0.0598019,-0.02774629966168729,-1.4055990121830675e-06,1.389040964694388e-06,0.06310003368706418,9.622204628634279e-07,-0.030944991127129562
631,0.0632,5.66129e-05,839.517,7.56895e-05,-0.00121979,0.00261644,0.00649525,-0.0281827,0.0612832,-0.0314834,-1.4065e-06,1.39189e-06,9.60808e-07,0.0598993,-0.027789272325539294,-1.4064990109252662e-06,1.3918909687049563e-06,0.06319996978715392,9.608084616807844e-07,-0.03099295816287484
632,0.0633,5.65916e-05,839.729,7.56617e-05,-0.00121684,0.00261461,0.00649855,-0.0282268,0.0613773,-0.0315329,-1.4074e-06,1.39474e-06,9.59399e-07,0.0599966,-0.027832145873261105,-1.407399009667465e-06,1.3947409727155247e-06,0.06330002161167547,9.593994603207534e-07,-0.03104092282431059
633,0.0634,5.65703e-05,839.941,7.56339e-05,-0.00121391,0.00261278,0.00650183,-0.0282709,0.0614713,-0.0315824,-1.4083e-06,1.39759e-06,9.57994e-07,0.060094,-0.027875017530301083,-1.4082990082986413e-06,1.397590976726093e-06,0.06339997651151363,9.579944588722356e-07,-0.031088885111554387
634,0.0635,5.6549e-05,840.154,7.56061e-05,-0.00121097,0.00261095,0.00650512,-0.0283151,0.0615654,-0.0316319,-1.40919e-06,1.40044e-06,9.56592e-07,0.0601913,-0.02791798450494909,-1.4091890070400126e-06,1.4004409805146167e-06,0.06350004715755331,9.565924574683748e-07,-0.031136845024723803
635,0.0636,5.65276e-05,840.365,7.55783e-05,-0.00120805,0.00260913,0.00650839,-0.0283592,0.0616594,-0.0316814,-1.41009e-06,1.40328e-06,9.55194e-07,0.0602886,-0.027960852376588963,-1.4100890057822113e-06,1.4032809845243577e-06,0.06360002086067662,9.551944561980719e-07,-0.031184802563936187
636,0.0637,5.65063e-05,840.577,7.55505e-05,-0.00120513,0.0026073,0.00651165,-0.0284033,0.0617534,-0.0317309,-1.41099e-06,1.40612e-06,9.53799e-07,0.0603859,-0.028003718357797358,-1.41098900452441e-06,1.4061209885340986e-06,0.06370000396176967,9.53799454972426e-07,-0.031232757729309113
637,0.0638,5.6485e-05,840.788,7.55227e-05,-0.00120221,0.00260549,0.00651491,-0.0284474,0.0618474,-0.0317804,-1.41188e-06,1.40896e-06,9.52407e-07,0.0604832,-0.028046582448657542,-1.4118790032657813e-06,1.4089609925438396e-06,0.06379999646171597,9.524074535693927e-07,-0.03128071052096015
638,0.0639,5.64637e-05,840.999,7.54949e-05,-0.0011993,0.00260367,0.00651816,-0.0284915,0.0619414,-0.0318299,-1.41278e-06,1.41179e-06,9.51018e-07,0.0605805,-0.028089444649253115,-1.41277900200798e-06,1.411790996552753e-06,0.06389999836139904,9.510184522110166e-07,-0.03132866093900666
639,0.064,5.64423e-05,841.209,7.5467e-05,-0.00119639,0.00260186,0.00652141,-0.0285357,0.0620354,-0.0318793,-1.41367e-06,1.41463e-06,9.49633e-07,0.0606778,-0.02813240214643198,-1.4136690007493513e-06,1.414631000562494e-06,0.06400000966170238,9.496334509861981e-07,-0.03137651212122239
640,0.0641,5.6421e-05,841.42,7.54392e-05,-0.00119349,0.00260005,0.00652464,-0.0285798,0.0621294,-0.0319288,-1.41457e-06,1.41746e-06,9.48251e-07,0.0607751,-0.028175260562462223,-1.41456899949155e-06,1.4174610045714076e-06,0.06410003036350997,9.482514495839922e-07,-0.03142445779720715
641,0.0642,5.63997e-05,841.63,7.54114e-05,-0.0011906,0.00259825,0.00652787,-0.0286239,0.0622233,-0.0319783,-1.41546e-06,1.42029e-06,9.46872e-07,0.0608724,-0.0282181170884781,-1.4154589982329213e-06,1.420291008580321e-06,0.06419995404770473,9.468724482264435e-07,-0.03147240109993965
642,0.0643,5.63784e-05,841.839,7.53835e-05,-0.00118771,0.00259645,0.00653109,-0.028668,0.0623173,-0.0320277,-1.41635e-06,1.42312e-06,9.45497e-07,0.0609697,-0.028260971724562878,-1.4163489969742926e-06,1.4231210125892346e-06,0.0642999935451678,9.454974470024524e-07,-0.03152024518156671
643,0.0644,5.6357e-05,842.049,7.53557e-05,-0.00118482,0.00259465,0.0065343,-0.0287121,0.0624113,-0.0320772,-1.41724e-06,1.42594e-06,9.44125e-07,0.0610669,-0.02830382447079982,-1.417238995715664e-06,1.4259410165973208e-06,0.06440004244678588,9.441254456010739e-07,-0.031568183742941014
644,0.0645,5.63357e-05,842.258,7.53279e-05,-0.00118194,0.00259285,0.00653751,-0.0287561,0.0625052,-0.0321266,-1.41813e-06,1.42876e-06,9.42756e-07,0.0611642,-0.028346578161934977,-1.4181289944570352e-06,1.4287610206054069e-06,0.06449999430343789,9.427564444663972e-07,-0.03161602309302247
645,0.0646,5.63144e-05,842.467,7.53e-05,-0.00117907,0.00259106,0.00654071,-0.0288002,0.0625991,-0.0321761,-1.41902e-06,1.43158e-06,9.41391e-07,0.0612614,-0.02838942713301129,-1.4190189931984065e-06,1.431581024613493e-06,0.06459995554600972,9.413914430211889e-07,-0.03166395691350754
646,0.0647,5.6293e-05,842.675,7.52722e-05,-0.0011762,0.00258927,0.0065439,-0.0288443,0.0626931,-0.0322255,-1.41991e-06,1.4344e-06,9.40028e-07,0.0613587,-0.028432274214489572,-1.4199089919397778e-06,1.4344010288436237e-06,0.06470003264538104,9.400284417537819e-07,-0.031711791532511135
647,0.0648,5.62717e-05,842.883,7.52443e-05,-0.00117334,0.00258749,0.00654709,-0.0288884,0.062787,-0.032275,-1.4208e-06,1.43722e-06,9.38669e-07,0.0614559,-0.02847511940645331,-1.4207989906811491e-06,1.4372210328517099e-06,0.06480001267243529,9.386694406199325e-07,-0.031759720612575815
648,0.0649,5.62503e-05,843.091,7.52164e-05,-0.00117048,0.00258571,0.00655026,-0.0289325,0.0628809,-0.0323244,-1.42168e-06,1.44003e-06,9.37313e-07,0.0615531,-0.028517962708985767,-1.421678989421693e-06,1.4400310368589686e-06,0.0649000020880548,9.373134393086957e-07,-0.03180755050096962
649,0.065,5.6229e-05,843.299,7.51886e-05,-0.00116763,0.00258393,0.00655343,-0.0289765,0.0629748,-0.0323738,-1.42257e-06,1.44284e-06,9.35961e-07,0.0616503,-0.028560706978245753,-1.4225689881630643e-06,1.4428410408662273e-06,0.0650000008931213,9.35961437908972e-07,-0.03185537802662519
650,0.0651,5.62076e-05,843.507,7.51607e-05,-0.00116478,0.00258215,0.00655659,-0.0290206,0.0630687,-0.0324233,-1.42345e-06,1.44565e-06,9.34612e-07,0.0617475,-0.028603546506449473,-1.4234489869036082e-06,1.445651044873486e-06,0.06510000908851654,9.346124367759501e-07,-0.03190329999933428
651,0.0652,5.61863e-05,843.714,7.51328e-05,-0.00116193,0.00258038,0.00655975,-0.0290647,0.0631626,-0.0324727,-1.42434e-06,1.44846e-06,9.33266e-07,0.0618447,-0.028646384145471604,-1.4243389856449795e-06,1.4484610491027894e-06,0.06520002667512204,9.332664354655407e-07,-0.0319511227950815
652,0.0653,5.6165e-05,843.921,7.51049e-05,-0.0011591,0.00257861,0.0065629,-0.0291087,0.0632564,-0.0325221,-1.42522e-06,1.45126e-06,9.31923e-07,0.0619419,-0.02868912276431268,-1.4252189843855234e-06,1.4512610531092207e-06,0.06529994712382003,9.319234341997884e-07,-0.03199894322844099
653,0.0654,5.61436e-05,844.127,7.50771e-05,-0.00115626,0.00257684,0.00656604,-0.0291528,0.0633503,-0.0325715,-1.4261e-06,1.45406e-06,9.30583e-07,0.0620391,-0.028731956629505118,-1.4260989831260673e-06,1.454061057115652e-06,0.06539998348548859,9.305834329786933e-07,-0.032046761299529436
654,0.0655,5.61223e-05,844.333,7.50492e-05,-0.00115343,0.00257508,0.00656917,-0.0291968,0.0634442,-0.0326209,-1.42698e-06,1.45686e-06,9.29247e-07,0.0621363,-0.028774691483239745,-1.4269789818666112e-06,1.4568610611220834e-06,0.06550002924101261,9.292474316691113e-07,-0.03209457700846352
655,0.0656,5.61009e-05,844.539,7.50213e-05,-0.00115061,0.00257332,0.0065723,-0.0292409,0.063538,-0.0326703,-1.42787e-06,1.45966e-06,9.27914e-07,0.0622334,-0.02881752157493489,-1.4278689806079825e-06,1.4596610653505593e-06,0.06559997783127103,9.279144304041864e-07,-0.03214239035535993
656,0.0657,5.60796e-05,844.745,7.49934e-05,-0.00114779,0.00257156,0.00657542,-0.0292849,0.0636319,-0.0327197,-1.42875e-06,1.46246e-06,9.26583e-07,0.0623306,-0.028860252663894803,-1.4287489793485264e-06,1.4624610693569906e-06,0.06570004236714588,9.265834293170627e-07,-0.032190201340335345
657,0.0658,5.60582e-05,844.951,7.49655e-05,-0.00114498,0.00256981,0.00657853,-0.029329,0.0637257,-0.0327691,-1.42963e-06,1.46525e-06,9.25257e-07,0.0624277,-0.028903078982425057,-1.4296289780890703e-06,1.4652510735846391e-06,0.06580000971951527,9.252574280083081e-07,-0.03223800996350645
658,0.0659,5.60369e-05,845.156,7.49376e-05,-0.00114217,0.00256805,0.00658164,-0.029373,0.0638195,-0.0328185,-1.4305e-06,1.46804e-06,9.23933e-07,0.0625249,-0.028945806306941768,-1.4304989768287868e-06,1.468041077590243e-06,0.06589998644926243,9.239334268773547e-07,-0.03228581622498983
659,0.066,5.60155e-05,845.361,7.49097e-05,-0.00113937,0.00256631,0.00658474,-0.029417,0.0639133,-0.0328679,-1.43138e-06,1.47083e-06,9.22613e-07,0.062622,-0.028988531751497626,-1.4313789755693307e-06,1.470831081595847e-06,0.06599997255726642,9.226134256579144e-07,-0.03233362012490226
660,0.0661,5.59942e-05,845.565,7.48818e-05,-0.00113657,0.00256456,0.00658783,-0.0294611,0.0640071,-0.0329173,-1.43226e-06,1.47362e-06,9.21295e-07,0.0627192,-0.029031352413044775,-1.4322589743098746e-06,1.4736210858234955e-06,0.06609996804440743,9.212954243942306e-07,-0.03238142166336033
661,0.0662,5.59728e-05,845.77,7.48539e-05,-0.00113378,0.00256282,0.00659091,-0.0295051,0.0641009,-0.0329667,-1.43313e-06,1.4764e-06,9.19981e-07,0.0628163,-0.02907407409365481,-1.433128973049591e-06,1.476401089828272e-06,0.06619997291156499,9.199814232641046e-07,-0.03242922084048083
662,0.0663,5.59515e-05,845.974,7.4826e-05,-0.00113099,0.00256108,0.00659399,-0.0295491,0.0641947,-0.033016,-1.43401e-06,1.47918e-06,9.1867e-07,0.0629134,-0.02911679389455213,-1.434008971790135e-06,1.4791810940550931e-06,0.06629998715961882,9.186704219565911e-07,-0.03247692090407717
663,0.0664,5.59301e-05,846.178,7.47981e-05,-0.00112821,0.00255934,0.00659706,-0.0295931,0.0642885,-0.0330654,-1.43488e-06,1.48197e-06,9.17362e-07,0.0630105,-0.02915951181581966,-1.4348789705298515e-06,1.481971098060697e-06,0.06640001078944935,9.173624206937347e-07,-0.032524715363651646
664,0.0665,5.59088e-05,846.381,7.47702e-05,-0.00112543,0.00255761,0.00660013,-0.0296371,0.0643823,-0.0331148,-1.43576e-06,1.48474e-06,9.16058e-07,0.0631076,-0.029202227857539897,-1.4357589692703954e-06,1.4847411022866908e-06,0.0665000438019363,9.160584195644361e-07,-0.032572507462238054
665,0.0666,5.58875e-05,846.585,7.47423e-05,-0.00112265,0.00255588,0.00660318,-0.0296811,0.064476,-0.0331641,-1.43663e-06,1.48752e-06,9.14756e-07,0.0632047,-0.029244942019795772,-1.4366289680101119e-06,1.4875211062914673e-06,0.06659997953795682,9.147564183908941e-07,-0.03262020046197811
666,0.0667,5.58661e-05,846.788,7.47144e-05,-0.00111989,0.00255415,0.00660624,-0.0297251,0.0645698,-0.0332135,-1.4375e-06,1.49029e-06,9.13458e-07,0.0633017,-0.029287654302669774,-1.4374989667498284e-06,1.490291110517461e-06,0.06670003130839208,9.134584171288651e-07,-0.03266798784371727
667,0.0668,5.58448e-05,846.99,7.46865e-05,-0.00111712,0.00255243,0.00660928,-0.0297691,0.0646635,-0.0332628,-1.43838e-06,1.49306e-06,9.12162e-07,0.0633988,-0.029330364706244616,-1.4383789654903723e-06,1.49306111452141e-06,0.06679998578411972,9.121624160446373e-07,-0.03271567613639048
668,0.0669,5.58234e-05,847.193,7.46586e-05,-0.00111436,0.00255071,0.00661232,-0.0298131,0.0647573,-0.0333122,-1.43925e-06,1.49583e-06,9.1087e-07,0.0634959,-0.02937307323060312,-1.4392489642300887e-06,1.4958311187474038e-06,0.06690005631602092,9.108704148719227e-07,-0.0327634588017478
669,0.067,5.58021e-05,847.395,7.46307e-05,-0.00111161,0.00254899,0.00661535,-0.0298571,0.064851,-0.0333615,-1.44012e-06,1.4986e-06,9.09581e-07,0.0635929,-0.029415779875827885,-1.4401189630808275e-06,1.4986011229733975e-06,0.06700002953496975,9.095814137438651e-07,-0.03281114238781879
670,0.0671,5.57808e-05,847.597,7.46028e-05,-0.00110886,0.00254727,0.00661837,-0.0299011,0.0649447,-0.0334109,-1.44098e-06,1.50137e-06,9.08295e-07,0.06369,-0.029458484642001626,-1.4409789618197166e-06,1.5013711269773466e-06,0.06710001212184835,9.082954124384202e-07,-0.03285892033725979
671,0.0672,5.57594e-05,847.799,7.45749e-05,-0.00110611,0.00254556,0.00662139,-0.0299451,0.0650384,-0.0334602,-1.44185e-06,1.50413e-06,9.07012e-07,0.063787,-0.02950118752920694,-1.4418489605594331e-06,1.504131131202513e-06,0.06720000407753401,9.070124113996769e-07,-0.03290659921719308
672,0.0673,5.57381e-05,848.0,7.4547e-05,-0.00110337,0.00254385,0.0066244,-0.0299891,0.0651321,-0.0335095,-1.44272e-06,1.50689e-06,9.05732e-07,0.0638841,-0.029543888537526652,-1.4427189592991496e-06,1.5068911354276793e-06,0.06730000540290515,9.057324101835462e-07,-0.03295427574661558
673,0.0674,5.57168e-05,848.201,7.45191e-05,-0.00110064,0.00254214,0.0066274,-0.0300331,0.0652258,-0.0335589,-1.44359e-06,1.50965e-06,9.04456e-07,0.0639811,-0.02958658766704325,-1.4435889580388661e-06,1.509651139430801e-06,0.06740001609883928,9.044564091009732e-07,-0.03300204662544326
674,0.0675,5.56954e-05,848.402,7.44912e-05,-0.00109791,0.00254044,0.00663039,-0.030077,0.0653195,-0.0336082,-1.44445e-06,1.5124e-06,9.03182e-07,0.0640781,-0.029629187880763075,-1.4444489567777552e-06,1.5124011436551399e-06,0.06750003616621458,9.031824079741568e-07,-0.0330497184494245
675,0.0676,5.56741e-05,848.603,7.44633e-05,-0.00109518,0.00253874,0.00663338,-0.030121,0.0654131,-0.0336575,-1.44532e-06,1.51516e-06,9.01911e-07,0.0641751,-0.029671883257191167,-1.4453189555174717e-06,1.5151611478803062e-06,0.06759995884590819,9.01911406669953e-07,-0.033097387923242794
676,0.0677,5.56528e-05,848.803,7.44354e-05,-0.00109246,0.00253704,0.00663637,-0.030165,0.0655068,-0.0337068,-1.44618e-06,1.51791e-06,9.00644e-07,0.0642721,-0.02971457675506406,-1.4461789542563608e-06,1.5179111521046451e-06,0.06769999764879686,9.006444054993068e-07,-0.03314505504701393
677,0.0678,5.56314e-05,849.003,7.44074e-05,-0.00108974,0.00253535,0.00663934,-0.0302089,0.0656005,-0.0337561,-1.44705e-06,1.52066e-06,8.9938e-07,0.0643691,-0.029757171350186296,-1.4470489529960773e-06,1.5206611561069394e-06,0.06780004582576038,8.993804043733178e-07,-0.03319271982085381
678,0.0679,5.56101e-05,849.203,7.43795e-05,-0.00108703,0.00253365,0.00664231,-0.0302529,0.0656941,-0.0338054,-1.44791e-06,1.52341e-06,8.98118e-07,0.0644661,-0.02979986109546562,-1.4479089517349664e-06,1.5234111603312783e-06,0.06789999658767254,8.981184032030853e-07,-0.03324038224487813
679,0.068,5.55888e-05,849.403,7.43516e-05,-0.00108432,0.00253196,0.00664528,-0.0302968,0.0657877,-0.0338547,-1.44877e-06,1.52615e-06,8.9686e-07,0.0645631,-0.029842451946687443,-1.4487689505848778e-06,1.5261511645547898e-06,0.06799995670541348,8.968604021664106e-07,-0.033288042319203015
680,0.0681,5.55675e-05,849.602,7.43237e-05,-0.00108162,0.00253028,0.00664823,-0.0303408,0.0658814,-0.033904,-1.44963e-06,1.5289e-06,8.95605e-07,0.06466,-0.029885137939703044,-1.4496289493237668e-06,1.5289011687791287e-06,0.06810003298985756,8.956054009523484e-07,-0.03333570004394415
681,0.0682,5.55462e-05,849.801,7.42958e-05,-0.00107892,0.00252859,0.00665118,-0.0303847,0.065975,-0.0339533,-1.45049e-06,1.53164e-06,8.94352e-07,0.064757,-0.029927725047353637,-1.450488948062656e-06,1.5316411730026402e-06,0.06820001183188218,8.943523999160874e-07,-0.03338335541921733
682,0.0683,5.55248e-05,850.0,7.42679e-05,-0.00107623,0.00252691,0.00665413,-0.0304287,0.0660686,-0.0340026,-1.45135e-06,1.53438e-06,8.93103e-07,0.064854,-0.029970407288435363,-1.451348946801545e-06,1.5343811772261517e-06,0.06830000003236458,8.931033987913395e-07,-0.033431008445138355
683,0.0684,5.55035e-05,850.199,7.42401e-05,-0.00107354,0.00252524,0.00665707,-0.0304726,0.0661622,-0.0340519,-1.45221e-06,1.53712e-06,8.91857e-07,0.0649509,-0.030012990652843796,-1.4522089455404341e-06,1.5371211814496633e-06,0.0683999975921803,8.918573977112487e-07,-0.03347865912182324
684,0.0685,5.54822e-05,850.397,7.42122e-05,-0.00107086,0.00252356,0.00666,-0.0305165,0.0662558,-0.0341012,-1.45307e-06,1.53985e-06,8.90614e-07,0.0650478,-0.030055572147883458,-1.4530689442793232e-06,1.5398511856723474e-06,0.06850000451220573,8.906143966758151e-07,-0.03352630744938756
685,0.0686,5.54609e-05,850.595,7.41843e-05,-0.00106818,0.00252189,0.00666292,-0.0305605,0.0663494,-0.0341504,-1.45393e-06,1.54258e-06,8.89373e-07,0.0651448,-0.030098248763816504,-1.4539289430182123e-06,1.5425811896729869e-06,0.06860002079331706,8.89373395596138e-07,-0.03357385678533786
686,0.0687,5.54396e-05,850.793,7.41564e-05,-0.0010655,0.00252022,0.00666584,-0.0306044,0.066443,-0.0341997,-1.45478e-06,1.54531e-06,8.88136e-07,0.0652417,-0.030140826516107277,-1.454778941756274e-06,1.545311193895671e-06,0.0687000464363905,8.881363944279741e-07,-0.033621500419773076
687,0.0688,5.54183e-05,850.99,7.41285e-05,-0.00106283,0.00251855,0.00666875,-0.0306483,0.0665365,-0.034249,-1.45564e-06,1.54804e-06,8.86902e-07,0.0653386,-0.03018340239927575,-1.4556389406061854e-06,1.548041198118355e-06,0.06879997456229936,8.869023933044673e-07,-0.033669141705435
688,0.0689,5.5397e-05,851.188,7.41006e-05,-0.00106017,0.00251689,0.00667166,-0.0306922,0.0666301,-0.0342982,-1.4565e-06,1.55077e-06,8.85671e-07,0.0654355,-0.030225976413403965,-1.4564989393450745e-06,1.5507712023410392e-06,0.06890001892192132,8.856713922256176e-07,-0.03371668401411276
689,0.069,5.53757e-05,851.385,7.40727e-05,-0.0010575,0.00251523,0.00667455,-0.0307361,0.0667236,-0.0343475,-1.45735e-06,1.55349e-06,8.84443e-07,0.0655324,-0.03026854855857397,-1.4573489380831361e-06,1.5534912065628959e-06,0.06899996574613176,8.844433911914251e-07,-0.03376432060733914
690,0.0691,5.53544e-05,851.581,7.40448e-05,-0.00105485,0.00251357,0.00667745,-0.0307801,0.0668172,-0.0343967,-1.4582e-06,1.55622e-06,8.83218e-07,0.0656293,-0.03031121580375118,-1.4581989368211978e-06,1.5562212110076246e-06,0.06910002882580457,8.832183899798451e-07,-0.033811858233330105
691,0.0692,5.53331e-05,851.778,7.4017e-05,-0.0010522,0.00251191,0.00668033,-0.030824,0.0669107,-0.034446,-1.45906e-06,1.55894e-06,8.81995e-07,0.0657262,-0.030353784206994083,-1.459058935560087e-06,1.5589412152294813e-06,0.06919999435181534,8.819953889460663e-07,-0.033859490134583226
692,0.0693,5.53119e-05,851.974,7.39891e-05,-0.00104955,0.00251026,0.00668321,-0.0308679,0.0670042,-0.0344952,-1.45991e-06,1.56166e-06,8.80776e-07,0.0658231,-0.030396350741525135,-1.4599089342981486e-06,1.561661219451338e-06,0.06929996922503978,8.807763878238006e-07,-0.033907023078348586
693,0.0694,5.52906e-05,852.17,7.39612e-05,-0.0010469,0.00250861,0.00668609,-0.0309118,0.0670977,-0.0345445,-1.46076e-06,1.56437e-06,8.7956e-07,0.0659199,-0.03043891540742627,-1.4607589330362103e-06,1.5643712236723673e-06,0.06939995344635186,8.795603867461921e-07,-0.033954650288090416
694,0.0695,5.52693e-05,852.366,7.39333e-05,-0.00104426,0.00250696,0.00668895,-0.0309556,0.0671913,-0.0345937,-1.46161e-06,1.56709e-06,8.78346e-07,0.0660168,-0.030481381252922657,-1.4616089318852943e-06,1.567091227894224e-06,0.06950005396662573,8.783463858463847e-07,-0.034002178550091466
695,0.0696,5.5248e-05,852.561,7.39055e-05,-0.00104163,0.00250532,0.00669181,-0.0309995,0.0672847,-0.0346429,-1.46246e-06,1.5698e-06,8.77136e-07,0.0661137,-0.030523942186066355,-1.462458930623356e-06,1.5698012321152532e-06,0.06959994993673524,8.771363846360458e-07,-0.034049704473759435
696,0.0697,5.52268e-05,852.757,7.38776e-05,-0.001039,0.00250367,0.00669467,-0.0310434,0.0673782,-0.0346922,-1.46331e-06,1.57251e-06,8.75929e-07,0.0662105,-0.03056650125082605,-1.4633089293614177e-06,1.5725112363362825e-06,0.06969996220755514,8.759293836924087e-07,-0.0340973246494819
697,0.0698,5.52055e-05,852.952,7.38497e-05,-0.00103637,0.00250204,0.00669752,-0.0310873,0.0674717,-0.0347414,-1.46416e-06,1.57522e-06,8.74724e-07,0.0663073,-0.030609058447283788,-1.4641589280994793e-06,1.5752212405573118e-06,0.06979998382995967,8.747243824824835e-07,-0.034144845892077
698,0.0699,5.51842e-05,853.146,7.38219e-05,-0.00103375,0.0025004,0.00670036,-0.0311312,0.0675652,-0.0347906,-1.46501e-06,1.57792e-06,8.73522e-07,0.0664042,-0.030651613775521724,-1.465008926837541e-06,1.5779212449995583e-06,0.06990001480482277,8.735223815392601e-07,-0.03419236479668453
699,0.07,5.5163e-05,853.341,7.3794e-05,-0.00103113,0.00249876,0.0067032,-0.0311751,0.0676586,-0.0348398,-1.46585e-06,1.58063e-06,8.72324e-07,0.066501,-0.030694167235621683,-1.4658489256857976e-06,1.5806312492205876e-06,0.06999994813301935,8.723243805075498e-07,-0.03423988136341938
700,0.0701,5.51417e-05,853.535,7.37662e-05,-0.00102852,0.00249713,0.00670603,-0.0312189,0.0677521,-0.034889,-1.4667e-06,1.58333e-06,8.71128e-07,0.0665978,-0.03073662190133275,-1.4666989244238593e-06,1.5833312534407895e-06,0.07009999780541909,8.71128379431596e-07,-0.034287395592396686
701,0.0702,5.51205e-05,853.729,7.37383e-05,-0.00102591,0.0024955,0.00670885,-0.0312628,0.0678455,-0.0349382,-1.46754e-06,1.58603e-06,8.69935e-07,0.0666946,-0.03077917162965793,-1.4675389231610936e-06,1.5860312576609914e-06,0.07019994981290023,8.699353784002994e-07,-0.03433490748373136
702,0.0703,5.50992e-05,853.923,7.37105e-05,-0.00102331,0.00249388,0.00671167,-0.0313067,0.067939,-0.0349874,-1.46839e-06,1.58873e-06,8.68745e-07,0.0667914,-0.03082171949009105,-1.4683889218991553e-06,1.588731262103238e-06,0.07030001818633136,8.6874537741366e-07,-0.03438241703753864
703,0.0704,5.5078e-05,854.117,7.36827e-05,-0.00102071,0.00249226,0.00671448,-0.0313505,0.0680324,-0.0350366,-1.46923e-06,1.59142e-06,8.67558e-07,0.0668882,-0.030864168569135764,-1.4692289206363895e-06,1.5914212663226124e-06,0.07039998887658849,8.675583762496331e-07,-0.03442992425393321
704,0.0705,5.50567e-05,854.31,7.36548e-05,-0.00101811,0.00249064,0.00671729,-0.0313944,0.0681258,-0.0350858,-1.47008e-06,1.59411e-06,8.66374e-07,0.066985,-0.030906712698285155,-1.4700789194854735e-06,1.5941112705419869e-06,0.07049996890454424,8.663743753523079e-07,-0.03447742913303031
705,0.0706,5.50355e-05,854.503,7.3627e-05,-0.00101552,0.00248902,0.00672009,-0.0314382,0.0682192,-0.035135,-1.47092e-06,1.59681e-06,8.65193e-07,0.0670817,-0.03094915805470888,-1.4709189182227078e-06,1.5968112749842334e-06,0.07059995827107057,8.651933742775952e-07,-0.03452493167494486
706,0.0707,5.50143e-05,854.696,7.35992e-05,-0.00101293,0.0024874,0.00672288,-0.0314821,0.0683126,-0.0351842,-1.47176e-06,1.5995e-06,8.64015e-07,0.0671785,-0.030991698452901617,-1.471758916959942e-06,1.5995012792036079e-06,0.0706999569770399,8.640153732475397e-07,-0.034572431879791865
707,0.0708,5.49931e-05,854.888,7.35713e-05,-0.00101035,0.00248579,0.00672567,-0.0315259,0.068406,-0.0352334,-1.4726e-06,1.60218e-06,8.62839e-07,0.0672753,-0.03103414008703087,-1.4725989156971764e-06,1.602181283422155e-06,0.07079996502332464,8.628393721732408e-07,-0.03461992974768624
708,0.0709,5.49718e-05,855.081,7.35435e-05,-0.00100777,0.00248418,0.00672845,-0.0315698,0.0684994,-0.0352825,-1.47344e-06,1.60487e-06,8.61667e-07,0.067372,-0.031076676754594357,-1.4734389144344107e-06,1.604871287863574e-06,0.0708999824107972,8.616673712324996e-07,-0.03466732874548073
709,0.071,5.49506e-05,855.273,7.35157e-05,-0.0010052,0.00248257,0.00673122,-0.0316136,0.0685928,-0.0353317,-1.47428e-06,1.60755e-06,8.60497e-07,0.0674688,-0.031119114666755432,-1.4742789132826672e-06,1.6075512920821211e-06,0.07100000914032978,8.604973702475149e-07,-0.0347148219445641
710,0.0711,5.49294e-05,855.465,7.34879e-05,-0.00100263,0.00248097,0.00673399,-0.0316574,0.0686862,-0.0353809,-1.47512e-06,1.61023e-06,8.5933e-07,0.0675655,-0.03116155072017668,-1.4751189120199015e-06,1.6102312965227128e-06,0.07110004521279545,8.593303693071874e-07,-0.034762312807039675
711,0.0712,5.49082e-05,855.656,7.34601e-05,-0.00100006,0.00247936,0.00673676,-0.0317013,0.0687795,-0.03543,-1.47596e-06,1.61291e-06,8.58166e-07,0.0676622,-0.031204081794536154,-1.4759589107571358e-06,1.6129113007412599e-06,0.07119998350906287,8.581663681894725e-07,-0.03480970481399759
712,0.0713,5.4887e-05,855.848,7.34323e-05,-0.000997501,0.00247776,0.00673951,-0.0317451,0.0688729,-0.0354792,-1.4768e-06,1.61559e-06,8.57005e-07,0.0677589,-0.03124651412647872,-1.47679890949437e-06,1.615591304959807e-06,0.07130003826000664,8.570053673384592e-07,-0.03485719100835072
713,0.0714,5.48658e-05,856.039,7.34045e-05,-0.000994943,0.00247617,0.00674227,-0.0317889,0.0689662,-0.0355283,-1.47763e-06,1.61826e-06,8.55847e-07,0.0678556,-0.031288944599925816,-1.4776289083417993e-06,1.6182613093995712e-06,0.07139999521649587,8.558473663100585e-07,-0.034904578356903304
714,0.0715,5.48446e-05,856.23,7.33767e-05,-0.00099239,0.00247457,0.00674501,-0.0318327,0.0690595,-0.0355775,-1.47847e-06,1.62094e-06,8.54691e-07,0.0679523,-0.031331373214958824,-1.4784689070790336e-06,1.6209413136181183e-06,0.07149996149940407,8.546913652374144e-07,-0.03495205988359307
715,0.0716,5.48234e-05,856.421,7.3349e-05,-0.00098984,0.00247298,0.00674775,-0.0318765,0.0691529,-0.0356266,-1.4793e-06,1.62361e-06,8.53539e-07,0.068049,-0.031373799971659344,-1.4792989058154404e-06,1.6236113180578826e-06,0.07160004426960076,8.53539364298328e-07,-0.03499944257419818
716,0.0717,5.48023e-05,856.611,7.33212e-05,-0.000987295,0.00247139,0.00675048,-0.0319203,0.0692462,-0.0356758,-1.48014e-06,1.62628e-06,8.52389e-07,0.0681457,-0.03141622487010853,-1.4801389045526747e-06,1.626281322497647e-06,0.07170002921795637,8.523893633149981e-07,-0.03504691943368321
717,0.0718,5.47811e-05,856.801,7.32934e-05,-0.000984754,0.00246981,0.00675321,-0.0319641,0.0693395,-0.0357249,-1.48097e-06,1.62895e-06,8.51242e-07,0.0682424,-0.03145864791038777,-1.480968903400104e-06,1.6289513267153666e-06,0.07180002349534309,8.512423623763254e-07,-0.03509429746679882
718,0.0719,5.47599e-05,856.991,7.32656e-05,-0.000982218,0.00246822,0.00675594,-0.0320079,0.0694328,-0.035774,-1.48181e-06,1.63161e-06,8.50098e-07,0.0683391,-0.03150106909257866,-1.4818089021373382e-06,1.6316113311543035e-06,0.07190002710263088,8.500983612602653e-07,-0.035141673173709975
719,0.072,5.47388e-05,857.181,7.32379e-05,-0.000979685,0.00246664,0.00675865,-0.0320517,0.0695261,-0.0358231,-1.48264e-06,1.63427e-06,8.48956e-07,0.0684357,-0.031543488416762466,-1.482638900873745e-06,1.6342713353711957e-06,0.0720000400406906,8.489563603220063e-07,-0.035189046554531145
720,0.0721,5.47176e-05,857.37,7.32101e-05,-0.000977156,0.00246506,0.00676136,-0.0320955,0.0696193,-0.0358723,-1.48347e-06,1.63694e-06,8.47818e-07,0.0685324,-0.03158590588302046,-1.483468899610152e-06,1.63694133981096e-06,0.0720999551003918,8.478183592952604e-07,-0.03523651408572981
721,0.0722,5.46965e-05,857.56,7.31824e-05,-0.000974632,0.00246348,0.00676407,-0.0321393,0.0697126,-0.0359214,-1.4843e-06,1.63959e-06,8.46682e-07,0.068629,-0.03162832149143424,-1.4842988984575811e-06,1.6395913440270249e-06,0.07219998669260397,8.466823584463157e-07,-0.03528388280997652
722,0.0723,5.46753e-05,857.749,7.31546e-05,-0.000972111,0.00246191,0.00676677,-0.0321831,0.0698059,-0.0359705,-1.48513e-06,1.64225e-06,8.45549e-07,0.0687257,-0.03167073524208497,-1.485128897193988e-06,1.6422513484659618e-06,0.07230002761819887,8.455493574199835e-07,-0.03533124920847597
723,0.0724,5.46542e-05,857.938,7.31269e-05,-0.000969595,0.00246034,0.00676946,-0.0322269,0.0698991,-0.0360196,-1.48596e-06,1.64491e-06,8.44419e-07,0.0688223,-0.03171314713505413,-1.4859588959303949e-06,1.6449113529048986e-06,0.07239997063804537,8.444193564383085e-07,-0.035378613281342286
724,0.0725,5.4633e-05,858.126,7.30992e-05,-0.000967083,0.00245877,0.00677215,-0.0322707,0.0699924,-0.0360687,-1.48679e-06,1.64756e-06,8.43292e-07,0.0689189,-0.031755557170423,-1.486788894777824e-06,1.6475613571209635e-06,0.07250003022301299,8.432923555012906e-07,-0.03542597502868983
725,0.0726,5.46119e-05,858.314,7.30714e-05,-0.000964574,0.0024572,0.00677483,-0.0323144,0.0700856,-0.0361178,-1.48762e-06,1.65021e-06,8.42167e-07,0.0690155,-0.031797868528064765,-1.487618893514231e-06,1.650211361559073e-06,0.07259999188397082,8.421673545200292e-07,-0.03547333445063261
726,0.0727,5.45908e-05,858.503,7.30437e-05,-0.00096207,0.00245564,0.0067775,-0.0323582,0.0701788,-0.0361669,-1.48844e-06,1.65286e-06,8.41046e-07,0.0691121,-0.03184027485271801,-1.4884388922498104e-06,1.6528613659971825e-06,0.07269996286178948,8.410463536723256e-07,-0.03552069154728488
727,0.0728,5.45697e-05,858.69,7.3016e-05,-0.00095957,0.00245408,0.00678018,-0.032402,0.0702721,-0.036216,-1.48927e-06,1.65551e-06,8.39926e-07,0.0692087,-0.03188267932001487,-1.4892688909862173e-06,1.655511370435292e-06,0.0728000504373374,8.39926352691478e-07,-0.03556804631876065
728,0.0729,5.45485e-05,858.878,7.29883e-05,-0.000957073,0.00245252,0.00678284,-0.0324457,0.0703653,-0.0362651,-1.4901e-06,1.65815e-06,8.3881e-07,0.0693053,-0.03192498512254005,-1.4900988898336465e-06,1.6581513746505294e-06,0.0729000400614821,8.388103518441881e-07,-0.03561539876517439
729,0.073,5.45274e-05,859.066,7.29606e-05,-0.000954581,0.00245096,0.0067855,-0.0324895,0.0704585,-0.0363142,-1.49092e-06,1.6608e-06,8.37697e-07,0.0694019,-0.031967385879608345,-1.490918888569226e-06,1.660801379088639e-06,0.07300003900509422,8.376973508195107e-07,-0.035662748886640006
730,0.0731,5.45063e-05,859.253,7.29329e-05,-0.000952093,0.00244941,0.00678815,-0.0325332,0.0705517,-0.0363632,-1.49175e-06,1.66344e-06,8.36586e-07,0.0694985,-0.032009687980537715,-1.4917488873056328e-06,1.663441383525921e-06,0.07310004726904218,8.365863499726345e-07,-0.03571000025427662
731,0.0732,5.44852e-05,859.44,7.29052e-05,-0.000949608,0.00244785,0.0067908,-0.032577,0.0706448,-0.0364123,-1.49257e-06,1.66608e-06,8.35478e-07,0.0695951,-0.03205208502770207,-1.4925688861522346e-06,1.666081387963203e-06,0.07319995753419373,8.354783489483708e-07,-0.03575734573092315
732,0.0733,5.44642e-05,859.627,7.28775e-05,-0.000947128,0.0024463,0.00679344,-0.0326207,0.070738,-0.0364614,-1.49339e-06,1.66872e-06,8.34373e-07,0.0696916,-0.032094383427359596,-1.493388884887814e-06,1.6687213924004851e-06,0.07329998443141683,8.343733481908089e-07,-0.03580468888296384
733,0.0734,5.44431e-05,859.813,7.28499e-05,-0.000944651,0.00244476,0.00679608,-0.0326645,0.0708312,-0.0365104,-1.49422e-06,1.67135e-06,8.3327e-07,0.0697882,-0.03213677676494464,-1.494218883624221e-06,1.6713513966148952e-06,0.07340002065158147,8.332703471669589e-07,-0.035851933295711014
734,0.0735,5.4422e-05,859.999,7.28222e-05,-0.000942179,0.00244321,0.00679871,-0.0327082,0.0709243,-0.0365595,-1.49504e-06,1.67399e-06,8.32171e-07,0.0698847,-0.03217907146365406,-1.4950388824708227e-06,1.6739914010521773e-06,0.07349995884555471,8.321713462766667e-07,-0.035899271803616295
735,0.0736,5.44009e-05,860.185,7.27945e-05,-0.00093971,0.00244167,0.00680134,-0.0327519,0.0710175,-0.0366086,-1.49586e-06,1.67662e-06,8.31074e-07,0.0699812,-0.03222136431412559,-1.4958588812064022e-06,1.676621405488632e-06,0.07360001370420322,8.31074345342131e-07,-0.03594660798725802
736,0.0737,5.43799e-05,860.371,7.27669e-05,-0.000937245,0.00244013,0.00680396,-0.0327957,0.0711106,-0.0366576,-1.49668e-06,1.67925e-06,8.29979e-07,0.0700778,-0.0322637520900696,-1.4966788799419817e-06,1.6792514099250866e-06,0.0736999705183965,8.299793443633519e-07,-0.03599384544613937
737,0.0738,5.43588e-05,860.557,7.27392e-05,-0.000934785,0.00243859,0.00680657,-0.0328394,0.0712038,-0.0367067,-1.4975e-06,1.68188e-06,8.28888e-07,0.0701743,-0.03230604124007863,-1.4974988787885835e-06,1.6818814143615413e-06,0.07380004401900142,8.288883435181305e-07,-0.03604117698632914
738,0.0739,5.43378e-05,860.742,7.27116e-05,-0.000932328,0.00243706,0.00680918,-0.0328831,0.0712969,-0.0367557,-1.49832e-06,1.6845e-06,8.27799e-07,0.0702708,-0.03234832854209213,-1.498318877524163e-06,1.6845014187971685e-06,0.07390001945688418,8.277993426286656e-07,-0.03608840981144312
739,0.074,5.43167e-05,860.927,7.2684e-05,-0.000929875,0.00243553,0.00681178,-0.0329268,0.07139,-0.0368047,-1.49914e-06,1.68713e-06,8.26713e-07,0.0703673,-0.03239061399619092,-1.4991388762597424e-06,1.6871314232336232e-06,0.0740000042029132,8.267133417838579e-07,-0.0361356403222054
740,0.0741,5.42957e-05,861.112,7.26563e-05,-0.000927425,0.002434,0.00681438,-0.0329706,0.0714831,-0.0368538,-1.49995e-06,1.68975e-06,8.25629e-07,0.0704638,-0.03243299435916114,-1.4999488751055168e-06,1.6897514276692505e-06,0.07409999825795555,8.256293408948068e-07,-0.03618296490043771
741,0.0742,5.42746e-05,861.297,7.26287e-05,-0.00092498,0.00243247,0.00681697,-0.0330143,0.0715762,-0.0369028,-1.50077e-06,1.69237e-06,8.24548e-07,0.0705603,-0.032475276113444584,-1.5007688738410963e-06,1.6923714321048777e-06,0.07420000162287788,8.245483400504128e-07,-0.03623019077811418
742,0.0743,5.42536e-05,861.482,7.26011e-05,-0.000922539,0.00243094,0.00681956,-0.033058,0.0716693,-0.0369518,-1.50159e-06,1.69499e-06,8.2347e-07,0.0706568,-0.03251755602005579,-1.5015888725766757e-06,1.694991436540505e-06,0.07430001429854682,8.234703390286313e-07,-0.036277414341779224
743,0.0744,5.42326e-05,861.666,7.25735e-05,-0.000920101,0.00242942,0.00682214,-0.0331017,0.0717624,-0.0370009,-1.5024e-06,1.6976e-06,8.22395e-07,0.0707532,-0.03255983407907537,-1.50239887142245e-06,1.6976014409753049e-06,0.07440003628582925,8.223953382735516e-07,-0.03632473195907804
744,0.0745,5.42116e-05,861.85,7.25459e-05,-0.000917667,0.0024279,0.00682472,-0.0331454,0.0718554,-0.0370499,-1.50322e-06,1.70022e-06,8.21322e-07,0.0708497,-0.03260211029058413,-1.5032188701580296e-06,1.7002214454109321e-06,0.07449996013559068,8.213223372521838e-07,-0.036371950890338844
745,0.0746,5.41906e-05,862.034,7.25183e-05,-0.000915237,0.00242638,0.00682729,-0.0331891,0.0719485,-0.0370989,-1.50403e-06,1.70283e-06,8.20252e-07,0.0709462,-0.032644384654662906,-1.5040288688927816e-06,1.702831449845732e-06,0.0746000007386971,8.202523364975178e-07,-0.03641916750792862
746,0.0747,5.41696e-05,862.218,7.24908e-05,-0.000912811,0.00242487,0.00682985,-0.0332328,0.0720416,-0.0371479,-1.50485e-06,1.70544e-06,8.19185e-07,0.0710426,-0.0326866571713923,-1.5048488677393834e-06,1.7054414542805318e-06,0.07470005065601737,8.191853355654644e-07,-0.036466381811960824
747,0.0748,5.41486e-05,862.401,7.24632e-05,-0.000910388,0.00242335,0.00683241,-0.0332764,0.0721346,-0.0371969,-1.50566e-06,1.70805e-06,8.1812e-07,0.071139,-0.03272883111374092,-1.5056588664741355e-06,1.7080514587153317e-06,0.07480000240841278,8.181203345891674e-07,-0.036513593802548816
748,0.0749,5.41276e-05,862.584,7.24356e-05,-0.000907969,0.00242184,0.00683497,-0.0333201,0.0722276,-0.0372459,-1.50647e-06,1.71065e-06,8.17058e-07,0.0712355,-0.032771099940240744,-1.5064688653199099e-06,1.7106514631493042e-06,0.07489996345675354,8.170583338795723e-07,-0.03656080347980595
749,0.075,5.41066e-05,862.767,7.24081e-05,-0.000905554,0.00242033,0.00683752,-0.0333638,0.0723207,-0.0372949,-1.50728e-06,1.71326e-06,8.15999e-07,0.0713319,-0.0328133669196331,-1.507278864054662e-06,1.713261467584104e-06,0.07500004130190274,8.159993329925896e-07,-0.03660801084384557
750,0.0751,5.40857e-05,862.95,7.23805e-05,-0.000903143,0.00241883,0.00684006,-0.0334075,0.0724137,-0.0373439,-1.50809e-06,1.71586e-06,8.14942e-07,0.0714283,-0.03285563205199882,-1.508088862789414e-06,1.7158614720180765e-06,0.07510002095472568,8.149423320613636e-07,-0.036655215894781046
751,0.0752,5.40647e-05,863.133,7.2353e-05,-0.000900736,0.00241732,0.0068426,-0.0334512,0.0725067,-0.0373929,-1.5089e-06,1.71846e-06,8.13888e-07,0.0715247,-0.0328978953374186,-1.5088988616351884e-06,1.718461476452049e-06,0.07520000990608855,8.138883311747946e-07,-0.03670241863272572
752,0.0753,5.40438e-05,863.315,7.23255e-05,-0.000898332,0.00241582,0.00684513,-0.0334948,0.0725997,-0.0374419,-1.50971e-06,1.72106e-06,8.12836e-07,0.0716211,-0.03294006006998407,-1.5097088603699405e-06,1.721061481108066e-06,0.07530000815685645,8.128363302439823e-07,-0.03674961905779284
753,0.0754,5.40228e-05,863.497,7.22979e-05,-0.000895932,0.00241432,0.00684766,-0.0335385,0.0726927,-0.0374908,-1.51052e-06,1.72366e-06,8.11788e-07,0.0717175,-0.03298231966598009,-1.5105188592157148e-06,1.7236614855420385e-06,0.07540001570789401,8.117883294467276e-07,-0.0367967208497727
754,0.0755,5.40019e-05,863.679,7.22704e-05,-0.000893535,0.00241282,0.00685019,-0.0335822,0.0727857,-0.0375398,-1.51133e-06,1.72625e-06,8.10741e-07,0.0718139,-0.033024577415272205,-1.511328857950467e-06,1.7262514899751835e-06,0.07550003256006632,8.107413287383736e-07,-0.03684391665414444
755,0.0756,5.39809e-05,863.861,7.22429e-05,-0.000891143,0.00241133,0.0068527,-0.0336258,0.0728786,-0.0375888,-1.51214e-06,1.72885e-06,8.09698e-07,0.0719103,-0.03306673662461945,-1.512138856685219e-06,1.728851494409156e-06,0.07559995115423801,8.09698327719488e-07,-0.036891110145978345
756,0.0757,5.396e-05,864.042,7.22154e-05,-0.000888754,0.00240983,0.00685522,-0.0336695,0.0729716,-0.0376377,-1.51294e-06,1.73144e-06,8.08657e-07,0.0720066,-0.033108990684970974,-1.512938855530166e-06,1.731441498842301e-06,0.07569998660127153,8.086573268784036e-07,-0.03693820501921319
757,0.0758,5.39391e-05,864.223,7.21879e-05,-0.000886369,0.00240834,0.00685772,-0.0337131,0.0730646,-0.0376867,-1.51375e-06,1.73403e-06,8.07619e-07,0.072103,-0.033151146213979965,-1.513748854264918e-06,1.7340315034974907e-06,0.07580003135203439,8.076193260819764e-07,-0.036985393891030394
758,0.0759,5.39182e-05,864.404,7.21605e-05,-0.000883987,0.00240686,0.00686022,-0.0337568,0.0731575,-0.0377357,-1.51455e-06,1.73662e-06,8.06583e-07,0.0721994,-0.033193396585712964,-1.514548853109865e-06,1.7366215079306357e-06,0.07589997781738833,8.065833252413057e-07,-0.03703258045064961
759,0.076,5.38973e-05,864.585,7.2133e-05,-0.000881609,0.00240537,0.00686272,-0.0338004,0.0732505,-0.0377846,-1.51536e-06,1.7392e-06,8.0555e-07,0.0722957,-0.03323554843470489,-1.515358851844617e-06,1.7392015123629534e-06,0.07600004116819914,8.055503244452922e-07,-0.03707966840615573
760,0.0761,5.38764e-05,864.766,7.21055e-05,-0.000879235,0.00240389,0.00686521,-0.033844,0.0733434,-0.0378336,-1.51616e-06,1.74179e-06,8.04519e-07,0.072392,-0.033277698445916215,-1.5161588505785417e-06,1.741791517018143e-06,0.07610000621532809,8.045193236050352e-07,-0.03712685034643681
761,0.0762,5.38555e-05,864.946,7.20781e-05,-0.000876864,0.00240241,0.0068677,-0.0338877,0.0734363,-0.0378825,-1.51697e-06,1.74437e-06,8.03491e-07,0.0724884,-0.03331994328743759,-1.516968849424316e-06,1.7443715214504607e-06,0.07619998054964139,8.034913228094354e-07,-0.03717393369225763
762,0.0763,5.38346e-05,865.127,7.20506e-05,-0.000874497,0.00240093,0.00687018,-0.0339313,0.0735292,-0.0379314,-1.51777e-06,1.74695e-06,8.02466e-07,0.0725847,-0.03336208961911358,-1.5177688481582408e-06,1.7469515258827784e-06,0.07629996417200191,8.024663220584927e-07,-0.03722101473575923
763,0.0764,5.38137e-05,865.307,7.20232e-05,-0.000872134,0.00239945,0.00687266,-0.0339749,0.0736221,-0.0379804,-1.51857e-06,1.74953e-06,8.01443e-07,0.072681,-0.033404234113249553,-1.5185688470031877e-06,1.7495315305371406e-06,0.0763999570832723,8.014433212633065e-07,-0.03726818975023993
764,0.0765,5.37929e-05,865.486,7.19958e-05,-0.000869774,0.00239797,0.00687513,-0.0340185,0.073715,-0.0380293,-1.51937e-06,1.7521e-06,8.00423e-07,0.0727773,-0.03344637676992557,-1.5193688457371124e-06,1.7521015349686309e-06,0.07649995928431563,8.004233202907329e-07,-0.03731526618473291
765,0.0766,5.3772e-05,865.666,7.19683e-05,-0.000867418,0.0023965,0.00687759,-0.0340622,0.0738079,-0.0380782,-1.52017e-06,1.75468e-06,7.99406e-07,0.0728736,-0.03348861424036531,-1.5201688445820594e-06,1.7546815394009485e-06,0.07659997077599501,7.994063195848611e-07,-0.0373623403172445
766,0.0767,5.37512e-05,865.845,7.19409e-05,-0.000865065,0.00239503,0.00688005,-0.0341058,0.0739008,-0.0381272,-1.52097e-06,1.75725e-06,7.98391e-07,0.0729699,-0.033530753218148024,-1.520968843315984e-06,1.7572515440544834e-06,0.07669999155917351,7.983913186127012e-07,-0.03740950840694135
767,0.0768,5.37303e-05,866.025,7.19135e-05,-0.000862716,0.00239356,0.00688251,-0.0341494,0.0739937,-0.0381761,-1.52177e-06,1.75982e-06,7.97378e-07,0.0730662,-0.03357289035871136,-1.521768842160931e-06,1.7598215484859736e-06,0.07680002163471444,7.973783178183425e-07,-0.037456577931121005
768,0.0769,5.37095e-05,866.204,7.18861e-05,-0.00086037,0.0023921,0.00688496,-0.034193,0.0740865,-0.038225,-1.52257e-06,1.76239e-06,7.96368e-07,0.0731624,-0.03361502566213548,-1.5225688408948557e-06,1.7623915529174639e-06,0.07689995331348043,7.963683170686409e-07,-0.03750364515365723
769,0.077,5.36887e-05,866.382,7.18588e-05,-0.000858028,0.00239063,0.00688741,-0.0342366,0.0741794,-0.0382739,-1.52337e-06,1.76496e-06,7.95361e-07,0.0732587,-0.033657159128500314,-1.5233688396287803e-06,1.7649615575709987e-06,0.07700000196633106,7.953613163635964e-07,-0.037550710074662486
770,0.0771,5.36678e-05,866.561,7.18314e-05,-0.00085569,0.00238917,0.00688985,-0.0342802,0.0742722,-0.0383228,-1.52417e-06,1.76753e-06,7.94356e-07,0.073355,-0.033699290757886136,-1.5241688384737273e-06,1.767531562002489e-06,0.0770999522041329,7.943563153922639e-07,-0.037597772694249465
771,0.0772,5.3647e-05,866.739,7.1804e-05,-0.000853355,0.00238771,0.00689228,-0.0343238,0.0743651,-0.0383717,-1.52496e-06,1.77009e-06,7.93354e-07,0.0734512,-0.03374142055037299,-1.5249588372068246e-06,1.7700915666551964e-06,0.0772000194377438,7.933543146876332e-07,-0.03764483301253052
772,0.0773,5.36262e-05,866.917,7.17767e-05,-0.000851024,0.00238626,0.00689471,-0.0343674,0.0744579,-0.0384206,-1.52576e-06,1.77265e-06,7.92354e-07,0.0735474,-0.03378354850604082,-1.5257588360517715e-06,1.7726515710858592e-06,0.07729998823802808,7.92354313938759e-07,-0.03769189102961834
773,0.0774,5.36054e-05,867.095,7.17493e-05,-0.000848696,0.0023848,0.00689714,-0.0344109,0.0745507,-0.0384695,-1.52655e-06,1.77521e-06,7.91357e-07,0.0736437,-0.03382557800753261,-1.5265488347848688e-06,1.7752115757385667e-06,0.07739996631584756,7.913573130124973e-07,-0.03773894674562528
774,0.0775,5.35846e-05,867.273,7.1722e-05,-0.000846372,0.00238335,0.00689956,-0.0344545,0.0746435,-0.0385184,-1.52735e-06,1.77777e-06,7.90363e-07,0.0737399,-0.03386770229401537,-1.5273488336298158e-06,1.7777715801692295e-06,0.0774999536720633,7.903633123529374e-07,-0.037786000160664135
775,0.0776,5.35639e-05,867.451,7.16947e-05,-0.000844051,0.0023819,0.00690197,-0.0344981,0.0747363,-0.0385673,-1.52814e-06,1.78032e-06,7.89371e-07,0.0738361,-0.03390982474391924,-1.528138832362913e-06,1.7803215848211096e-06,0.07759995030753619,7.893713116491341e-07,-0.03783305127484715
776,0.0777,5.35431e-05,867.628,7.16673e-05,-0.000841733,0.00238045,0.00690439,-0.0345417,0.0748291,-0.0386161,-1.52894e-06,1.78288e-06,7.88381e-07,0.0739323,-0.033951945357324376,-1.52893883120786e-06,1.7828815892517724e-06,0.07769995622312753,7.883813106790427e-07,-0.03788000387629209
777,0.0778,5.35223e-05,867.805,7.164e-05,-0.00083942,0.002379,0.00690679,-0.0345853,0.0749219,-0.038665,-1.52973e-06,1.78543e-06,7.87394e-07,0.0740285,-0.03399406413431072,-1.5297288299409573e-06,1.7854315939036525e-06,0.07779997141969841,7.873943099756531e-07,-0.03792705039380584
778,0.0779,5.35016e-05,867.982,7.16127e-05,-0.000837109,0.00237756,0.00690919,-0.0346288,0.0750147,-0.0387139,-1.53052e-06,1.78798e-06,7.8641e-07,0.0741247,-0.03403608447857176,-1.5305188287850768e-06,1.787981598333488e-06,0.07789999589811014,7.864103093169206e-07,-0.037974094610801146
779,0.078,5.34808e-05,868.159,7.15854e-05,-0.000834802,0.00237612,0.00691159,-0.0346724,0.0751075,-0.0387627,-1.53131e-06,1.79053e-06,7.85428e-07,0.0742209,-0.03407819958717251,-1.531308827518174e-06,1.790531602985368e-06,0.07800002965922426,7.854283083919e-07,-0.03802104032949927
780,0.0781,5.34601e-05,868.335,7.15582e-05,-0.000832499,0.00237468,0.00691398,-0.0347159,0.0752002,-0.0388116,-1.5321e-06,1.79308e-06,7.84448e-07,0.0743171,-0.034120216271620984,-1.5320988263622937e-06,1.793081607637248e-06,0.07809996489390003,7.844483076446807e-07,-0.03806807995049899
781,0.0782,5.34394e-05,868.512,7.15309e-05,-0.000830199,0.00237324,0.00691636,-0.0347595,0.075293,-0.0388605,-1.53289e-06,1.79562e-06,7.83471e-07,0.0744132,-0.03416232771215544,-1.532888825095391e-06,1.795621612066256e-06,0.07820001721299819,7.834713069421184e-07,-0.038115117271317556
782,0.0783,5.34186e-05,868.688,7.15036e-05,-0.000827902,0.00237181,0.00691874,-0.034803,0.0753857,-0.0389093,-1.53368e-06,1.79817e-06,7.82497e-07,0.0745094,-0.034204340737109984,-1.5336788239395105e-06,1.798171616718136e-06,0.07829997098737951,7.824973060621687e-07,-0.03816205610827783
783,0.0784,5.33979e-05,868.864,7.14764e-05,-0.000825609,0.00237037,0.00692112,-0.0348466,0.0754785,-0.0389582,-1.53447e-06,1.80071e-06,7.81525e-07,0.0746056,-0.034246448509897776,-1.5344688226726078e-06,1.8007116213691887e-06,0.07840004186790428,7.815253053600202e-07,-0.03820908883377461
784,0.0785,5.33772e-05,869.039,7.14492e-05,-0.000823319,0.00236894,0.00692349,-0.0348901,0.0755712,-0.039007,-1.53526e-06,1.80325e-06,7.80555e-07,0.0747017,-0.03428845787567725,-1.5352588215167273e-06,1.8032516257981968e-06,0.07850001418543084,7.805553046136282e-07,-0.03825602308503451
785,0.0786,5.33565e-05,869.215,7.14219e-05,-0.000821033,0.00236751,0.00692586,-0.0349337,0.0756639,-0.0390558,-1.53605e-06,1.80579e-06,7.79588e-07,0.0747978,-0.03433056198103768,-1.5360488202498246e-06,1.8057916304492494e-06,0.07859999577082055,7.795883039118934e-07,-0.03830295504595871
786,0.0787,5.33358e-05,869.39,7.13947e-05,-0.00081875,0.00236609,0.00692822,-0.0349772,0.0757566,-0.0391047,-1.53683e-06,1.80832e-06,7.78624e-07,0.074894,-0.03437256768796082,-1.5368288190931167e-06,1.8083216350994746e-06,0.07869998662493316,7.786243030327711e-07,-0.03834998088166597
787,0.0788,5.33152e-05,869.565,7.13675e-05,-0.00081647,0.00236466,0.00693058,-0.0350207,0.0758493,-0.0391535,-1.53762e-06,1.81086e-06,7.77662e-07,0.0749901,-0.034414571567675356,-1.537618817826214e-06,1.8108616395284827e-06,0.07879998674862732,7.7766230233145e-07,-0.03839690825756159
788,0.0789,5.32945e-05,869.74,7.13403e-05,-0.000814194,0.00236324,0.00693293,-0.0350643,0.075942,-0.0392023,-1.53841e-06,1.81339e-06,7.76702e-07,0.0750862,-0.03445667017459875,-1.5384088166703336e-06,1.813391644178708e-06,0.07889999614276277,7.767023015858854e-07,-0.038443833343457245
789,0.079,5.32738e-05,869.915,7.13131e-05,-0.000811921,0.00236182,0.00693528,-0.0351078,0.0760347,-0.0392512,-1.53919e-06,1.81592e-06,7.75745e-07,0.0751823,-0.03449867039593468,-1.5391888154026034e-06,1.8159216488289331e-06,0.07900001480819863,7.75745300884978e-07,-0.03849085229038418
790,0.0791,5.32532e-05,870.09,7.12859e-05,-0.000809651,0.0023604,0.00693762,-0.0351513,0.0761274,-0.0393,-1.53998e-06,1.81845e-06,7.7479e-07,0.0752784,-0.03454066879030071,-1.539978814246723e-06,1.8184516534791584e-06,0.07910004274579463,7.747903001398271e-07,-0.03853777279192283
791,0.0792,5.32325e-05,870.264,7.12588e-05,-0.000807385,0.00235898,0.00693996,-0.0351948,0.07622,-0.0393488,-1.54076e-06,1.82098e-06,7.73838e-07,0.0753745,-0.03458266535777643,-1.5407588129789929e-06,1.820981657907339e-06,0.0791999720364076,7.738382994393334e-07,-0.03858469100379691
792,0.0793,5.32119e-05,870.438,7.12316e-05,-0.000805122,0.00235757,0.00694229,-0.0352383,0.0763127,-0.0393976,-1.54154e-06,1.8235e-06,7.72888e-07,0.0754706,-0.03462466009844112,-1.541538811822285e-06,1.8235016625567368e-06,0.07930001851089785,7.728882986945962e-07,-0.03863160692611811
793,0.0794,5.31913e-05,870.612,7.12045e-05,-0.000802863,0.00235615,0.00694462,-0.0352819,0.0764053,-0.0394464,-1.54233e-06,1.82603e-06,7.71941e-07,0.0755666,-0.034666749545704145,-1.5423288105553823e-06,1.826031667206962e-06,0.07939996632012414,7.719412979945162e-07,-0.03867852055899812
794,0.0795,5.31706e-05,870.786,7.11773e-05,-0.000800607,0.00235474,0.00694694,-0.0353254,0.076498,-0.0394952,-1.54311e-06,1.82855e-06,7.70996e-07,0.0756627,-0.03470874062878626,-1.5431088093986745e-06,1.82855167185636e-06,0.07950003133494388,7.709962972501927e-07,-0.038725431902548735
795,0.0796,5.315e-05,870.959,7.11502e-05,-0.000798354,0.00235334,0.00694926,-0.0353689,0.0765906,-0.039544,-1.54389e-06,1.83107e-06,7.70054e-07,0.0757588,-0.03475072988529593,-1.5438888082419666e-06,1.8310716765057578e-06,0.07959999766621517,7.700542965505264e-07,-0.03877234095688176
796,0.0797,5.31294e-05,871.133,7.11231e-05,-0.000796104,0.00235193,0.00695157,-0.0354124,0.0766832,-0.0395928,-1.54467e-06,1.83359e-06,7.69114e-07,0.0758548,-0.03479271731531275,-1.5446688069742365e-06,1.833591680933111e-06,0.07969997325479738,7.691142958066166e-07,-0.03881924772210865
797,0.0798,5.31088e-05,871.306,7.1096e-05,-0.000793858,0.00235053,0.00695388,-0.0354558,0.0767758,-0.0396416,-1.54545e-06,1.8361e-06,7.68176e-07,0.0759509,-0.03483460640238145,-1.5454488058175286e-06,1.8361016855816814e-06,0.07979995810154761,7.681762950184634e-07,-0.03886615219834122
798,0.0799,5.30882e-05,871.479,7.10689e-05,-0.000791615,0.00234912,0.00695619,-0.0354993,0.0768684,-0.0396904,-1.54623e-06,1.83862e-06,7.67241e-07,0.0760469,-0.03487659018384914,-1.5462288045497985e-06,1.8386216902310792e-06,0.0798999522073236,7.672412942749673e-07,-0.03891305438569126
799,0.08,5.30677e-05,871.652,7.10418e-05,-0.000789375,0.00234772,0.00695849,-0.0355428,0.076961,-0.0397391,-1.54701e-06,1.84113e-06,7.66309e-07,0.0761429,-0.03491857213906202,-1.5470088033930907e-06,1.8411316948796497e-06,0.07999995557298223,7.663092935761284e-07,-0.03895985818026104
800,0.0801,5.30471e-05,871.824,7.10147e-05,-0.000787138,0.00234633,0.00696078,-0.0355863,0.0770536,-0.0397879,-1.54779e-06,1.84364e-06,7.65378e-07,0.0762389,-0.034960552268099465,-1.5477888021253605e-06,1.84364169952822e-06,0.08009996819938148,7.653782929661901e-07,-0.039006755794870784
801,0.0802,5.30265e-05,871.997,7.09877e-05,-0.000784905,0.00234493,0.00696307,-0.0356298,0.0771462,-0.0398367,-1.54856e-06,1.84615e-06,7.6445e-07,0.0763349,-0.03500253057104108,-1.5485588009678253e-06,1.8461517041767905e-06,0.08019999008737866,7.644502921788643e-07,-0.03905365112093273
802,0.0803,5.3006e-05,872.169,7.09606e-05,-0.000782675,0.00234353,0.00696536,-0.0356733,0.0772388,-0.0398855,-1.54934e-06,1.84866e-06,7.63525e-07,0.0764309,-0.035044507047966245,-1.5493387998111174e-06,1.848661708825361e-06,0.08030002123783153,7.635252914361956e-07,-0.03910054415855857
803,0.0804,5.29854e-05,872.341,7.09336e-05,-0.000780449,0.00234214,0.00696764,-0.0357167,0.0773313,-0.0399342,-1.55012e-06,1.85117e-06,7.62602e-07,0.0765269,-0.03508638520759777,-1.5501187985433873e-06,1.8511717134739314e-06,0.08039995361159713,7.626022908713281e-07,-0.0391473388225988
804,0.0805,5.29649e-05,872.513,7.09066e-05,-0.000778225,0.00234075,0.00696992,-0.0357602,0.0774239,-0.039983,-1.55089e-06,1.85367e-06,7.61681e-07,0.0766229,-0.0351283580369256,-1.550888797385852e-06,1.8536717181216744e-06,0.08050000327952977,7.616812900401726e-07,-0.03919422728837629
805,0.0806,5.29444e-05,872.684,7.08795e-05,-0.000776005,0.00233936,0.00697219,-0.0358036,0.0775164,-0.0400317,-1.55167e-06,1.85617e-06,7.60763e-07,0.0767189,-0.03517023255750307,-1.551668796118122e-06,1.8561717227694174e-06,0.08059995415248977,7.607632894757188e-07,-0.03924101739015917
806,0.0807,5.29239e-05,872.856,7.08525e-05,-0.000773788,0.00233798,0.00697446,-0.0358471,0.077609,-0.0400805,-1.55244e-06,1.85867e-06,7.59847e-07,0.0768149,-0.03521220173955053,-1.5524387949605867e-06,1.8586717274171605e-06,0.08070002234132989,7.59847288644977e-07,-0.03928790128453419
807,0.0808,5.29034e-05,873.027,7.08255e-05,-0.000771574,0.00233659,0.00697672,-0.0358906,0.0777015,-0.0401292,-1.55321e-06,1.86117e-06,7.58934e-07,0.0769108,-0.03525416909597823,-1.5532087938030514e-06,1.8611717320649035e-06,0.08079999171690866,7.589342880809369e-07,-0.03933468682450447
808,0.0809,5.28829e-05,873.198,7.07985e-05,-0.000769363,0.00233521,0.00697898,-0.035934,0.077794,-0.040178,-1.55399e-06,1.86367e-06,7.58023e-07,0.0770068,-0.03529603815647431,-1.5539887925353213e-06,1.8636717367126465e-06,0.08089997034008256,7.580232872506087e-07,-0.03938156614792265
809,0.081,5.28624e-05,873.369,7.07716e-05,-0.000767156,0.00233383,0.00698123,-0.0359775,0.0778865,-0.0402267,-1.55476e-06,1.86617e-06,7.57114e-07,0.0771027,-0.035338001866097146,-1.554758791377786e-06,1.8661717413603895e-06,0.08099995821170691,7.571142865980818e-07,-0.03942834712652521
810,0.0811,5.28419e-05,873.54,7.07446e-05,-0.000764951,0.00233245,0.00698348,-0.0360209,0.077979,-0.0402754,-1.55553e-06,1.86866e-06,7.56207e-07,0.0771987,-0.03537986728832998,-1.5555287901092285e-06,1.8686617460073052e-06,0.08109995533263703,7.562072859013114e-07,-0.039475125826949564
811,0.0812,5.28214e-05,873.71,7.07177e-05,-0.00076275,0.00233108,0.00698573,-0.0360643,0.0780715,-0.0403242,-1.5563e-06,1.87115e-06,7.55303e-07,0.0772946,-0.03542173089364287,-1.5562987889516933e-06,1.8711517506542208e-06,0.08119996170372867,7.553032852491981e-07,-0.03952199829711156
812,0.0813,5.2801e-05,873.881,7.06907e-05,-0.000760552,0.0023297,0.00698797,-0.0361078,0.078164,-0.0403729,-1.55707e-06,1.87364e-06,7.54402e-07,0.0773905,-0.0354636891357506,-1.557068787794158e-06,1.8736417553011364e-06,0.08129997732583738,7.54402284641742e-07,-0.03956877243683499
813,0.0814,5.27805e-05,874.051,7.06638e-05,-0.000758358,0.00232833,0.0069902,-0.0361512,0.0782565,-0.0404216,-1.55784e-06,1.87613e-06,7.53503e-07,0.0774864,-0.03550554910327419,-1.5578387865256005e-06,1.876131759948052e-06,0.08140000219981913,7.535032839900424e-07,-0.03961554429871328
814,0.0815,5.27601e-05,874.221,7.06369e-05,-0.000756166,0.00232696,0.00699244,-0.0361946,0.078349,-0.0404703,-1.55861e-06,1.87862e-06,7.52606e-07,0.0775823,-0.03554740725411476,-1.5586087853680652e-06,1.8786217645949677e-06,0.08150003632652969,7.526062832940994e-07,-0.039662313882857236
815,0.0816,5.27397e-05,874.391,7.061e-05,-0.000753977,0.00232559,0.00699466,-0.0362381,0.0784414,-0.040519,-1.55938e-06,1.8811e-06,7.51711e-07,0.0776782,-0.0355893600294197,-1.55937878421053e-06,1.8811017692410559e-06,0.0815999715468223,7.51711282553913e-07,-0.03970908118937799
816,0.0817,5.27192e-05,874.56,7.05831e-05,-0.000751792,0.00232423,0.00699689,-0.0362815,0.0785339,-0.0405677,-1.56015e-06,1.88359e-06,7.50819e-07,0.0777741,-0.03563121454294493,-1.5601487829419725e-06,1.8835917738879715e-06,0.08170002417155287,7.508192818583836e-07,-0.03975584621838635
817,0.0818,5.26988e-05,874.729,7.05562e-05,-0.00074961,0.00232286,0.0069991,-0.0363249,0.0786263,-0.0406164,-1.56092e-06,1.88607e-06,7.49929e-07,0.07787,-0.035673067240023615,-1.5609187817844372e-06,1.8860717785340597e-06,0.08179997787157611,7.499292811186109e-07,-0.039802608969993325
818,0.0819,5.26784e-05,874.899,7.05293e-05,-0.000747431,0.0023215,0.00700132,-0.0363683,0.0787188,-0.0406651,-1.56168e-06,1.88855e-06,7.49041e-07,0.0779659,-0.035714918120734684,-1.5616787806260746e-06,1.8885517834021925e-06,0.0819000489977475,7.490412805566393e-07,-0.039849369444309723
819,0.082,5.2658e-05,875.068,7.05024e-05,-0.000745255,0.00232014,0.00700353,-0.0364117,0.0788112,-0.0407138,-1.56245e-06,1.89103e-06,7.48156e-07,0.0780617,-0.03575676718515708,-1.562448779357517e-06,1.8910317880482808e-06,0.08200002118091865,7.481562798172803e-07,-0.039896127641446455
820,0.0821,5.26376e-05,875.237,7.04756e-05,-0.000743082,0.00231878,0.00700573,-0.0364551,0.0789036,-0.0407625,-1.56322e-06,1.8935e-06,7.47273e-07,0.0781576,-0.03579861443336929,-1.5632187781999818e-06,1.8935017926935416e-06,0.08210000260194628,7.472732792557224e-07,-0.03994288356151432
821,0.0822,5.26173e-05,875.405,7.04487e-05,-0.000740912,0.00231743,0.00700793,-0.0364985,0.078996,-0.0408112,-1.56398e-06,1.89598e-06,7.46393e-07,0.0782534,-0.03584045986545048,-1.5639787769305968e-06,1.8959817973396298e-06,0.08219999326168415,7.463932785167771e-07,-0.03998963720462445
822,0.0823,5.25969e-05,875.574,7.04219e-05,-0.000738745,0.00231607,0.00701013,-0.0365419,0.0790884,-0.0408599,-1.56475e-06,1.89845e-06,7.45515e-07,0.0783493,-0.03588230348147925,-1.5647487757730616e-06,1.8984518019848906e-06,0.08229999316098557,7.455152779556329e-07,-0.04003638857088765
823,0.0824,5.25765e-05,875.742,7.03951e-05,-0.000736581,0.00231472,0.00701232,-0.0365853,0.0791808,-0.0409085,-1.56551e-06,1.90092e-06,7.44639e-07,0.0784451,-0.035924145281534536,-1.565508774614699e-06,1.900921806852196e-06,0.08240000230070477,7.446392773502453e-07,-0.04008304166872356
824,0.0825,5.25562e-05,875.91,7.03683e-05,-0.000734421,0.00231337,0.00701451,-0.0366287,0.0792732,-0.0409572,-1.56627e-06,1.90339e-06,7.43765e-07,0.0785409,-0.035965985265695166,-1.566268773345314e-06,1.9033918114974568e-06,0.08250002068169549,7.437652767006142e-07,-0.04012978848630011
825,0.0826,5.25358e-05,876.078,7.03415e-05,-0.000732263,0.00231202,0.00701669,-0.0366721,0.0793656,-0.0410059,-1.56704e-06,1.90586e-06,7.42894e-07,0.0786367,-0.03600782343403974,-1.5670387721877788e-06,1.9058618161427177e-06,0.08260004830481149,7.428942758735957e-07,-0.040176533027362016
826,0.0827,5.25155e-05,876.246,7.03147e-05,-0.000730109,0.00231067,0.00701887,-0.0367154,0.0794579,-0.0410545,-1.5678e-06,1.90833e-06,7.42025e-07,0.0787326,-0.036049563391608475,-1.5677987710294161e-06,1.9083318207879785e-06,0.0826999769009038,7.420252752243783e-07,-0.04022317931434294
827,0.0828,5.24952e-05,876.414,7.02879e-05,-0.000727957,0.00230933,0.00702104,-0.0367588,0.0795503,-0.0411032,-1.56856e-06,1.91079e-06,7.41158e-07,0.0788283,-0.03609139793274119,-1.5685587697600312e-06,1.9107918256544565e-06,0.08280002300082812,7.411582747529621e-07,-0.04026991930738222
828,0.0829,5.24749e-05,876.581,7.02612e-05,-0.000725809,0.00230798,0.00702321,-0.0368022,0.0796426,-0.0411518,-1.56932e-06,1.91325e-06,7.40294e-07,0.0789241,-0.03613323065829421,-1.5693187686016685e-06,1.91325183029889e-06,0.0828999700554367,7.402942741041585e-07,-0.0403165610559002
829,0.083,5.24546e-05,876.748,7.02344e-05,-0.000723663,0.00230664,0.00702538,-0.0368456,0.079735,-0.0412005,-1.57008e-06,1.91571e-06,7.39432e-07,0.0790199,-0.03617506156834627,-1.5700787674433059e-06,1.9157118349433233e-06,0.08300003463558214,7.394322734111114e-07,-0.0403632965013595
830,0.0831,5.24343e-05,876.915,7.02077e-05,-0.000721521,0.0023053,0.00702754,-0.0368889,0.0798273,-0.0412491,-1.57084e-06,1.91817e-06,7.38572e-07,0.0791157,-0.036216794284660514,-1.5708387662849432e-06,1.9181718395877567e-06,0.08310000015211672,7.385722726738209e-07,-0.04040993371185608
831,0.0832,5.2414e-05,877.082,7.0181e-05,-0.000719381,0.00230396,0.00702969,-0.0369323,0.0799196,-0.0412978,-1.5716e-06,1.92063e-06,7.37715e-07,0.0792115,-0.03625862156812998,-1.5715987650155583e-06,1.9206318444542347e-06,0.08319997489589404,7.377152722032321e-07,-0.04045666461017772
832,0.0833,5.23937e-05,877.249,7.01543e-05,-0.000717245,0.00230263,0.00703185,-0.0369757,0.0800119,-0.0413464,-1.57236e-06,1.92309e-06,7.3686e-07,0.0793072,-0.036300447036334726,-1.5723587638571956e-06,1.923091849098668e-06,0.08329995886776631,7.368602714663552e-07,-0.04050329728309454
833,0.0834,5.23735e-05,877.415,7.01275e-05,-0.000715112,0.00230129,0.00703399,-0.037019,0.0801042,-0.041395,-1.57312e-06,1.92554e-06,7.36007e-07,0.079403,-0.03634217432357578,-1.573118762698833e-06,1.9255418539643188e-06,0.08339995206858508,7.360072709072796e-07,-0.040549927689718546
834,0.0835,5.23532e-05,877.582,7.01009e-05,-0.000712981,0.00229996,0.00703614,-0.0370624,0.0801965,-0.0414437,-1.57387e-06,1.92799e-06,7.35156e-07,0.0794987,-0.03638399616566956,-1.5738687614286206e-06,1.9279918586079248e-06,0.08349995449920211,7.351562703039605e-07,-0.040596651770499426
835,0.0836,5.2333e-05,877.748,7.00742e-05,-0.000710854,0.00229863,0.00703828,-0.0371057,0.0802888,-0.0414923,-1.57463e-06,1.93045e-06,7.34308e-07,0.0795945,-0.03642571983531162,-1.574628760270258e-06,1.930451863252358e-06,0.08359996616046961,7.343082695232539e-07,-0.04064327764020559
836,0.0837,5.23127e-05,877.914,7.00475e-05,-0.000708729,0.0022973,0.00704041,-0.037149,0.0803811,-0.0415409,-1.57539e-06,1.9329e-06,7.33462e-07,0.0796902,-0.036467441698357916,-1.5753887591118954e-06,1.932901868118009e-06,0.08369998705323933,7.334622689203485e-07,-0.040689901243949556
837,0.0838,5.22925e-05,878.079,7.00209e-05,-0.000706608,0.00229598,0.00704254,-0.0371924,0.0804734,-0.0415895,-1.57614e-06,1.93534e-06,7.32618e-07,0.0797859,-0.03650925810396566,-1.576138757841683e-06,1.9353418727607874e-06,0.08380001717836372,7.326182682731996e-07,-0.04073652258184135
838,0.0839,5.22723e-05,878.245,6.99942e-05,-0.00070449,0.00229465,0.00704467,-0.0372357,0.0805656,-0.0416381,-1.5769e-06,1.93779e-06,7.31776e-07,0.0798816,-0.036550976349883135,-1.5768987566833204e-06,1.937791877626438e-06,0.08389994814669444,7.31776267803852e-07,-0.04078314165399122
839,0.084,5.22521e-05,878.411,6.99676e-05,-0.000702374,0.00229333,0.00704679,-0.037279,0.0806579,-0.0416868,-1.57765e-06,1.94023e-06,7.30937e-07,0.0799773,-0.036592692789439774,-1.5776487555241303e-06,1.9402318822692166e-06,0.08399999672907943,7.309372671571168e-07,-0.04082985437752862
840,0.0841,5.22319e-05,878.576,6.9941e-05,-0.000700261,0.00229201,0.00704891,-0.0373224,0.0807502,-0.0417354,-1.5784e-06,1.94268e-06,7.301e-07,0.080073,-0.03663450375926813,-1.5783987543649403e-06,1.9426818869128226e-06,0.08410005454637459,7.301002664661382e-07,-0.04087646891386354
841,0.0842,5.22117e-05,878.741,6.99144e-05,-0.000698152,0.00229069,0.00705103,-0.0373657,0.0808424,-0.041784,-1.57916e-06,1.94512e-06,7.29265e-07,0.0801687,-0.03667621658216624,-1.5791587530955553e-06,1.945121891777646e-06,0.08420001317942605,7.292652659529608e-07,-0.040923081184786936
842,0.0843,5.21915e-05,878.906,6.98878e-05,-0.000696045,0.00228937,0.00705314,-0.037409,0.0809346,-0.0418325,-1.57991e-06,1.94756e-06,7.28432e-07,0.0802644,-0.036717927598938216,-1.5799087519363653e-06,1.9475618964204244e-06,0.08429998102908831,7.2843226539554e-07,-0.04096959528737332
843,0.0844,5.21714e-05,879.071,6.98612e-05,-0.000693941,0.00228806,0.00705524,-0.0374523,0.0810268,-0.0418811,-1.58066e-06,1.94999e-06,7.27602e-07,0.0803601,-0.03675963680966221,-1.5806587507771752e-06,1.9499919012844202e-06,0.08439995809621115,7.276022646607316e-07,-0.041016203032465004
844,0.0845,5.21512e-05,879.235,6.98346e-05,-0.00069184,0.00228674,0.00705735,-0.0374956,0.0811191,-0.0419297,-1.58141e-06,1.95243e-06,7.26774e-07,0.0804557,-0.0368013442144165,-1.5814087496179852e-06,1.952431905927199e-06,0.08450005283164441,7.267742641037245e-07,-0.041062808512475346
845,0.0846,5.21311e-05,879.4,6.98081e-05,-0.000689742,0.00228543,0.00705944,-0.0375389,0.0812113,-0.0419783,-1.58216e-06,1.95486e-06,7.25948e-07,0.0805514,-0.03684304981327935,-1.5821587483477728e-06,1.9548619107911946e-06,0.08460004834623791,7.259482635024739e-07,-0.041109411727514256
846,0.0847,5.21109e-05,879.564,6.97815e-05,-0.000687647,0.00228412,0.00706154,-0.0375822,0.0813034,-0.0420269,-1.58291e-06,1.9573e-06,7.25124e-07,0.080647,-0.03688475360632881,-1.5829087471885828e-06,1.9573019154339732e-06,0.08469994461084296,7.251242628569798e-07,-0.04115601267769209
847,0.0848,5.20908e-05,879.728,6.9755e-05,-0.000685555,0.00228281,0.00706363,-0.0376255,0.0813956,-0.0420754,-1.58366e-06,1.95973e-06,7.24303e-07,0.0807427,-0.03692645559364305,-1.5836587460293927e-06,1.959731920297969e-06,0.08479995855630795,7.243032622561429e-07,-0.04120251548337506
848,0.0849,5.20707e-05,879.892,6.97284e-05,-0.000683466,0.00228151,0.00706571,-0.0376688,0.0814878,-0.042124,-1.58441e-06,1.96216e-06,7.23484e-07,0.0808383,-0.03696815577530044,-1.5844087448702027e-06,1.9621619249399203e-06,0.08489998172348412,7.234842616110626e-07,-0.0412491119088203
849,0.085,5.20506e-05,880.055,6.97019e-05,-0.000681379,0.0022802,0.00706779,-0.0377121,0.08158,-0.0421726,-1.58516e-06,1.96459e-06,7.22667e-07,0.0809339,-0.03700985415137903,-1.5851587435999903e-06,1.964591929803916e-06,0.08500001411322122,7.226672611437834e-07,-0.041295706069734206
850,0.0851,5.20305e-05,880.219,6.96754e-05,-0.000679295,0.0022789,0.00706987,-0.0377554,0.0816721,-0.0422211,-1.58591e-06,1.96701e-06,7.21852e-07,0.0810295,-0.03705155072195698,-1.5859087424408003e-06,1.9670119346670845e-06,0.08509994721636982,7.218522606322608e-07,-0.04134220210045192
851,0.0852,5.20104e-05,880.382,6.9649e-05,-0.000677215,0.0022776,0.00707194,-0.0377987,0.0817643,-0.0422697,-1.58666e-06,1.96944e-06,7.21039e-07,0.0811251,-0.03709324548711257,-1.5866587412816102e-06,1.9694419393090357e-06,0.08519999804377543,7.210392598544502e-07,-0.041388791737292485
852,0.0853,5.19903e-05,880.545,6.96225e-05,-0.000675137,0.0022763,0.00707401,-0.037842,0.0818564,-0.0423182,-1.5874e-06,1.97186e-06,7.20229e-07,0.0812207,-0.03713493844692384,-1.5873987401215928e-06,1.971861944172204e-06,0.08529994956629228,7.202292593433413e-07,-0.041435283253464905
853,0.0854,5.19702e-05,880.708,6.9596e-05,-0.000673062,0.002275,0.00707608,-0.0378853,0.0819486,-0.0423668,-1.58815e-06,1.97428e-06,7.19421e-07,0.0813163,-0.03717662960146906,-1.5881487388513804e-06,1.974281948813328e-06,0.08540001883476456,7.194212587879889e-07,-0.04148186836667134
854,0.0855,5.19502e-05,880.871,6.95696e-05,-0.00067099,0.0022737,0.00707814,-0.0379285,0.0820407,-0.0424153,-1.5889e-06,1.9767e-06,7.18615e-07,0.0814119,-0.03721822267265351,-1.5888987376921904e-06,1.9767019536764963e-06,0.08549998878004472,7.186152581883931e-07,-0.04152835536873667
855,0.0856,5.19301e-05,881.034,6.95431e-05,-0.00066892,0.00227241,0.00708019,-0.0379718,0.0821328,-0.0424639,-1.58964e-06,1.97912e-06,7.17811e-07,0.0815075,-0.03725991022106978,-1.589638736532173e-06,1.9791219585396647e-06,0.08559996793298064,7.178112575445539e-07,-0.04157493595874828
856,0.0857,5.19101e-05,881.197,6.95167e-05,-0.000666854,0.00227112,0.00708225,-0.0380151,0.0822249,-0.0425124,-1.59038e-06,1.98153e-06,7.17009e-07,0.0816031,-0.03730159596445437,-1.5903787353721555e-06,1.981531963179961e-06,0.08569995629442073,7.170092570785158e-07,-0.04162141844714473
857,0.0858,5.189e-05,881.359,6.94903e-05,-0.00066479,0.00226983,0.00708429,-0.0380583,0.082317,-0.0425609,-1.59113e-06,1.98395e-06,7.1621e-07,0.0816986,-0.037343183637208566,-1.5911287341019431e-06,1.9839519680431295e-06,0.08579995386521277,7.162102564350903e-07,-0.04166789868119536
858,0.0859,5.187e-05,881.521,6.94639e-05,-0.000662729,0.00226854,0.00708634,-0.0381016,0.0824091,-0.0426094,-1.59187e-06,1.98636e-06,7.15413e-07,0.0817942,-0.037384865774932274,-1.5918687329419257e-06,1.9863619729054705e-06,0.08589996064620542,7.154132559694659e-07,-0.04171437666100919
859,0.086,5.185e-05,881.683,6.94375e-05,-0.000660671,0.00226725,0.00708838,-0.0381448,0.0825012,-0.042658,-1.59261e-06,1.98877e-06,7.14618e-07,0.0818897,-0.03742644985050825,-1.5926087317819082e-06,1.988771977545767e-06,0.08599997663824666,7.146182552375535e-07,-0.04176094821060561
860,0.0861,5.183e-05,881.845,6.94111e-05,-0.000658616,0.00226597,0.00709042,-0.0381881,0.0825933,-0.0427065,-1.59336e-06,1.99118e-06,7.13825e-07,0.0819853,-0.03746812838288305,-1.5933587306227182e-06,1.991181982408108e-06,0.08610000184218491,7.138252546834423e-07,-0.041807421677626744
861,0.0862,5.181e-05,882.007,6.93848e-05,-0.000656563,0.00226468,0.00709245,-0.0382313,0.0826854,-0.042755,-1.5941e-06,1.99359e-06,7.13034e-07,0.0820808,-0.037509708861592106,-1.5940987294627007e-06,1.993591987270449e-06,0.08620003625886885,7.130342543071322e-07,-0.041853892890739264
862,0.0863,5.179e-05,882.168,6.93584e-05,-0.000654514,0.0022634,0.00709448,-0.0382746,0.0827774,-0.0428035,-1.59484e-06,1.996e-06,7.12246e-07,0.0821763,-0.03755138378892964,-1.594838728191661e-06,1.9960019919107452e-06,0.08629997125914413,7.122462537534346e-07,-0.04190036185005275
863,0.0864,5.17701e-05,882.329,6.93321e-05,-0.000652467,0.00226212,0.0070965,-0.0383178,0.0828695,-0.042852,-1.59558e-06,1.9984e-06,7.11459e-07,0.0822718,-0.037592960671082865,-1.5955787270316435e-06,1.998401996772259e-06,0.08640002409385938,7.114592530665931e-07,-0.04194682855567633
864,0.0865,5.17501e-05,882.491,6.93058e-05,-0.000650423,0.00226084,0.00709852,-0.038361,0.0829615,-0.0429005,-1.59632e-06,2.00081e-06,7.10675e-07,0.0823673,-0.03763453575715359,-1.596318725871626e-06,2.0008120016346e-06,0.08649997749386196,7.106752524244087e-07,-0.04199329300771926
865,0.0866,5.17302e-05,882.652,6.92794e-05,-0.000648381,0.00225957,0.00710054,-0.0384043,0.0830536,-0.042949,-1.59706e-06,2.00321e-06,7.09893e-07,0.0824628,-0.03767620527960358,-1.5970587247116086e-06,2.0032120064961134e-06,0.08660004874999983,7.098932519600254e-07,-0.042039755206290996
866,0.0867,5.17102e-05,882.812,6.92531e-05,-0.000646343,0.00225829,0.00710255,-0.0384475,0.0831456,-0.0429975,-1.5978e-06,2.00561e-06,7.09113e-07,0.0825583,-0.037717776769584876,-1.5977987235515911e-06,2.0056120111355824e-06,0.08670002055311721,7.091132514513987e-07,-0.04208621515150068
867,0.0868,5.16903e-05,882.973,6.92269e-05,-0.000644307,0.00225702,0.00710456,-0.0384907,0.0832376,-0.043046,-1.59854e-06,2.00801e-06,7.08335e-07,0.0826538,-0.03775934646371659,-1.5985387222805514e-06,2.008012015997096e-06,0.08680000155406353,7.083352508985286e-07,-0.042132672843457675
868,0.0869,5.16704e-05,883.134,6.92006e-05,-0.000642274,0.00225575,0.00710656,-0.0385339,0.0833296,-0.0430945,-1.59927e-06,2.0104e-06,7.0756e-07,0.0827492,-0.03780091436207622,-1.5992687211197065e-06,2.010402020857782e-06,0.08689999175368524,7.075602503903156e-07,-0.04217912828227133
869,0.087,5.16505e-05,883.294,6.91743e-05,-0.000640243,0.00225448,0.00710857,-0.0385771,0.0834216,-0.0431429,-1.60001e-06,2.0128e-06,7.06786e-07,0.0828447,-0.03784248046474148,-1.600008719959689e-06,2.0128020257192958e-06,0.0869999911528283,7.067862497489585e-07,-0.042225485690604136
870,0.0871,5.16306e-05,883.454,6.91481e-05,-0.000638216,0.00225321,0.00711056,-0.0386204,0.0835136,-0.0431914,-1.60075e-06,2.01519e-06,7.06015e-07,0.0829402,-0.037884140983380665,-1.6007487187996716e-06,2.015192030579982e-06,0.0870999997523394,7.060152491522587e-07,-0.0422719366281038
871,0.0872,5.16107e-05,883.614,6.91218e-05,-0.000636191,0.00225194,0.00711256,-0.0386636,0.0836056,-0.0432399,-1.60148e-06,2.01758e-06,7.05246e-07,0.0830356,-0.03792570349073354,-1.6014787176388268e-06,2.0175820352186236e-06,0.08720001755306495,7.0524624873336e-07,-0.04231838531278764
872,0.0873,5.15908e-05,883.774,6.90956e-05,-0.000634169,0.00225068,0.00711454,-0.0387068,0.0836976,-0.0432883,-1.60222e-06,2.01997e-06,7.04479e-07,0.0831311,-0.03796726420262497,-1.6022187164788093e-06,2.0199720400793097e-06,0.08730004455585139,7.044792480481732e-07,-0.04236473598124324
873,0.0874,5.15709e-05,883.934,6.90694e-05,-0.000632149,0.00224941,0.00711653,-0.03875,0.0837895,-0.0433368,-1.60295e-06,2.02236e-06,7.03714e-07,0.0832265,-0.03800882311913234,-1.6029487153179645e-06,2.022362044939996e-06,0.08739997202154282,7.037142475407876e-07,-0.04241118016526757
874,0.0875,5.15511e-05,884.093,6.90432e-05,-0.000630132,0.00224815,0.00711851,-0.0387932,0.0838815,-0.0433853,-1.60369e-06,2.02475e-06,7.02951e-07,0.0833219,-0.03805038024033325,-1.6036887140469247e-06,2.024752049800682e-06,0.08750001742098656,7.029512469891586e-07,-0.04245762209680359
875,0.0876,5.15312e-05,884.253,6.9017e-05,-0.000628118,0.00224689,0.00712049,-0.0388364,0.0839734,-0.0434337,-1.60442e-06,2.02714e-06,7.0219e-07,0.0834173,-0.03809193556630541,-1.6044187128860798e-06,2.0271420546613683e-06,0.08759996326502884,7.021902466153307e-07,-0.04250396602636197
876,0.0877,5.15114e-05,884.412,6.89908e-05,-0.000626107,0.00224563,0.00712246,-0.0388795,0.0840654,-0.0434822,-1.60515e-06,2.02952e-06,7.01432e-07,0.0835127,-0.038133392910470354,-1.605148711725235e-06,2.029522059521227e-06,0.08770002706451341,7.014322460641154e-07,-0.04255040345789285
877,0.0878,5.14915e-05,884.571,6.89647e-05,-0.000624098,0.00224438,0.00712443,-0.0389227,0.0841573,-0.0435306,-1.60589e-06,2.0319e-06,7.00675e-07,0.0836081,-0.03817494465037252,-1.6058887105652175e-06,2.031902064381086e-06,0.08779999129028648,7.00675245379756e-07,-0.04259674289694204
878,0.0879,5.14717e-05,884.73,6.89385e-05,-0.000622092,0.00224312,0.0071264,-0.0389659,0.0842492,-0.043579,-1.60662e-06,2.03428e-06,6.99921e-07,0.0837035,-0.038216494595278316,-1.6066187094043727e-06,2.0342820692409447e-06,0.08789996470319394,6.999212449620984e-07,-0.0426430800932166
879,0.088,5.14519e-05,884.888,6.89124e-05,-0.000620089,0.00224187,0.00712836,-0.0390091,0.0843411,-0.0436275,-1.60735e-06,2.03666e-06,6.99169e-07,0.0837989,-0.03825804274526534,-1.6073487082435278e-06,2.0366620741008035e-06,0.08799994730408023,6.991692445001974e-07,-0.04268951077787897
880,0.0881,5.14321e-05,885.047,6.88863e-05,-0.000618088,0.00224062,0.00713032,-0.0390523,0.0844331,-0.0436759,-1.60808e-06,2.03904e-06,6.98418e-07,0.0838943,-0.03829958910041098,-1.608078707082683e-06,2.0390420787386176e-06,0.08810004790378922,6.984182439051523e-07,-0.04273584348429671
881,0.0882,5.14123e-05,885.205,6.88602e-05,-0.00061609,0.00223937,0.00713227,-0.0390954,0.084525,-0.0437243,-1.60881e-06,2.04142e-06,6.9767e-07,0.0839896,-0.038341037494901475,-1.6088087058108158e-06,2.0414220835984764e-06,0.08820004889316668,6.976702433547644e-07,-0.04278217394826578
882,0.0883,5.13926e-05,885.364,6.88341e-05,-0.000614095,0.00223812,0.00713422,-0.0391386,0.0846168,-0.0437727,-1.60954e-06,2.04379e-06,6.96924e-07,0.084085,-0.03838258026475139,-1.609538704649971e-06,2.043792088457508e-06,0.08829995024305681,6.96924242760133e-07,-0.042828502169894755
883,0.0884,5.13728e-05,885.522,6.8808e-05,-0.000612102,0.00223688,0.00713617,-0.0391817,0.0847087,-0.0438212,-1.61027e-06,2.04617e-06,6.9618e-07,0.0841804,-0.038424025082399726,-1.610268703489126e-06,2.0461720933173666e-06,0.08839996960430341,6.961802423433028e-07,-0.04287492386180436
884,0.0885,5.1353e-05,885.68,6.87819e-05,-0.000610112,0.00223563,0.00713811,-0.0392249,0.0848006,-0.0438696,-1.611e-06,2.04854e-06,6.95439e-07,0.0842757,-0.03846556426726333,-1.6109987023282812e-06,2.048542098176398e-06,0.08849999815775167,6.954392417490851e-07,-0.042921247594446044
885,0.0886,5.13333e-05,885.837,6.87558e-05,-0.000608125,0.00223439,0.00714005,-0.0392681,0.0848925,-0.043918,-1.61172e-06,2.05091e-06,6.94699e-07,0.084371,-0.038507101657672904,-1.611718701166609e-06,2.0509121030354294e-06,0.08860003590424648,6.94699241243768e-07,-0.042967569085073376
886,0.0887,5.13135e-05,885.995,6.87298e-05,-0.00060614,0.00223315,0.00714199,-0.0393112,0.0849843,-0.0439664,-1.61245e-06,2.05328e-06,6.93961e-07,0.0844664,-0.03854854110856487,-1.6124487000057641e-06,2.0532821078944608e-06,0.0886999739746297,6.939612406942075e-07,-0.043013888333794825
887,0.0888,5.12938e-05,886.152,6.87038e-05,-0.000604158,0.00223191,0.00714392,-0.0393543,0.0850762,-0.0440148,-1.61318e-06,2.05564e-06,6.93226e-07,0.0845617,-0.03858997877345505,-1.6131786988449193e-06,2.0556421127526647e-06,0.08880003009974646,6.932262401893041e-07,-0.04306020534071886
888,0.0889,5.12741e-05,886.31,6.86777e-05,-0.000602178,0.00223067,0.00714585,-0.0393975,0.085168,-0.0440632,-1.61391e-06,2.05801e-06,6.92492e-07,0.084657,-0.03863151078927396,-1.6139086976840744e-06,2.058012117611696e-06,0.08889998653043962,6.924922397733013e-07,-0.04310652010595395
889,0.089,5.12544e-05,886.467,6.86517e-05,-0.000600201,0.00222943,0.00714777,-0.0394406,0.0852598,-0.0441116,-1.61463e-06,2.06037e-06,6.91761e-07,0.0847523,-0.038672944878247906,-1.6146286965224022e-06,2.0603721224699e-06,0.0889999521375544,6.917612391799111e-07,-0.043152832629608784
890,0.0891,5.12347e-05,886.624,6.86257e-05,-0.000598227,0.0022282,0.00714969,-0.0394838,0.0853517,-0.04416,-1.61536e-06,2.06273e-06,6.91031e-07,0.0848476,-0.03871447331000866,-1.6153586953615573e-06,2.062732127328104e-06,0.08910003583193116,6.910312386754214e-07,-0.04319914291179161
891,0.0892,5.1215e-05,886.781,6.85997e-05,-0.000596255,0.00222696,0.00715161,-0.0395269,0.0854435,-0.0442083,-1.61608e-06,2.06509e-06,6.90304e-07,0.0849429,-0.038755903823375015,-1.6160786940888627e-06,2.0650921324083527e-06,0.0892000198044145,6.903042382155888e-07,-0.04324535527715134
892,0.0893,5.11953e-05,886.937,6.85738e-05,-0.000594286,0.00222573,0.00715352,-0.03957,0.0855353,-0.0442567,-1.61681e-06,2.06745e-06,6.89579e-07,0.0850381,-0.03879733255112472,-1.6168086929280179e-06,2.0674521372665566e-06,0.08930001295584811,6.895792377115129e-07,-0.04329166108134641
893,0.0894,5.11757e-05,887.094,6.85478e-05,-0.000592319,0.0022245,0.00715543,-0.0396131,0.0856271,-0.0443051,-1.61753e-06,2.06981e-06,6.88856e-07,0.0851334,-0.03883875949333471,-1.6175286917663456e-06,2.0698121421247606e-06,0.0894000152870742,6.888562371631934e-07,-0.04333796464439488
894,0.0895,5.1156e-05,887.25,6.85219e-05,-0.000590355,0.00222327,0.00715734,-0.0396563,0.0857189,-0.0443535,-1.61825e-06,2.07217e-06,6.88135e-07,0.0852287,-0.03888028076205874,-1.6182486906046734e-06,2.0721721469829646e-06,0.08950002679893565,6.881352367926752e-07,-0.04338426596640499
895,0.0896,5.11364e-05,887.406,6.84959e-05,-0.000588394,0.00222205,0.00715924,-0.0396994,0.0858107,-0.0444018,-1.61897e-06,2.07452e-06,6.87416e-07,0.0853239,-0.03892170412927798,-1.618968689443001e-06,2.074522151840341e-06,0.08960004749227535,6.874162363779135e-07,-0.043430469390537185
896,0.0897,5.11167e-05,887.562,6.847e-05,-0.000586435,0.00222082,0.00716114,-0.0397425,0.0859024,-0.0444502,-1.6197e-06,2.07687e-06,6.86699e-07,0.0854192,-0.03896312571118843,-1.6196986882821562e-06,2.0768721566977177e-06,0.08969996839793404,6.866992356968638e-07,-0.043476766235425957
897,0.0898,5.10971e-05,887.718,6.84441e-05,-0.000584479,0.0022196,0.00716303,-0.0397856,0.0859942,-0.0444985,-1.62042e-06,2.07922e-06,6.85984e-07,0.0855144,-0.03900454550786725,-1.620418687120484e-06,2.0792221615550943e-06,0.08980000744675509,6.859842351936152e-07,-0.04352296519190302
898,0.0899,5.10775e-05,887.874,6.84182e-05,-0.000582525,0.00221838,0.00716493,-0.0398287,0.0860859,-0.0445469,-1.62114e-06,2.08157e-06,6.85271e-07,0.0856097,-0.03904596351939127,-1.6211386859588117e-06,2.081572166412471e-06,0.08989994668958223,6.852712348681678e-07,-0.043569257560103436
899,0.09,5.10579e-05,888.029,6.83923e-05,-0.000580574,0.00221716,0.00716681,-0.0398718,0.0861777,-0.0445952,-1.62186e-06,2.08392e-06,6.8456e-07,0.0857049,-0.039087379745837536,-1.6218586847971395e-06,2.0839221712698475e-06,0.09000000409725306,6.845602342764323e-07,-0.04361545204935735
900,0.0901,5.10383e-05,888.185,6.83665e-05,-0.000578625,0.00221594,0.0071687,-0.0399149,0.0862694,-0.0446436,-1.62258e-06,2.08627e-06,6.83851e-07,0.0858001,-0.03912879418728288,-1.6225786836354672e-06,2.0862721763492686e-06,0.09009996168061374,6.83851233862498e-07,-0.04366173994130218
901,0.0902,5.10187e-05,888.34,6.83406e-05,-0.000576679,0.00221472,0.00717058,-0.039958,0.0863612,-0.0446919,-1.6233e-06,2.08861e-06,6.83144e-07,0.0858953,-0.039170206843804234,-1.623298682473795e-06,2.088612181205818e-06,0.09020003745050365,6.831442334043203e-07,-0.043707929963764935
902,0.0903,5.09991e-05,888.495,6.83148e-05,-0.000574736,0.0022135,0.00717245,-0.0400011,0.0864529,-0.0447403,-1.62402e-06,2.09096e-06,6.82439e-07,0.0859905,-0.03921161771547854,-1.6240186813121227e-06,2.0909621860631944e-06,0.09030001337776405,6.824392329018991e-07,-0.04375421337988705
903,0.0904,5.09796e-05,888.65,6.8289e-05,-0.000572795,0.00221229,0.00717433,-0.0400441,0.0865446,-0.0447886,-1.62473e-06,2.0933e-06,6.81736e-07,0.0860857,-0.03925293072768066,-1.624728680149623e-06,2.0933021909197436e-06,0.09039999847323732,6.817362323552345e-07,-0.043800398935990636
904,0.0905,5.096e-05,888.805,6.82631e-05,-0.000570856,0.00221108,0.0071762,-0.0400872,0.0866363,-0.0448369,-1.62545e-06,2.09564e-06,6.81036e-07,0.0861809,-0.03929433803403248,-1.6254486789879508e-06,2.0956421957762927e-06,0.09049999273776432,6.81036231853227e-07,-0.043846582261385714
905,0.0906,5.09405e-05,888.96,6.82373e-05,-0.00056892,0.00220987,0.00717806,-0.0401303,0.086728,-0.0448852,-1.62617e-06,2.09798e-06,6.80337e-07,0.086276,-0.039335743555767744,-1.6261686778262785e-06,2.0979822008548865e-06,0.09059999617218573,6.803372314401201e-07,-0.04389276335618009
906,0.0907,5.09209e-05,889.114,6.82115e-05,-0.000566987,0.00220866,0.00717992,-0.0401734,0.0868197,-0.0449336,-1.62689e-06,2.10032e-06,6.7964e-07,0.0863712,-0.0393771472929636,-1.6268886766646062e-06,2.1003222057114357e-06,0.09070000877734263,6.796402309827698e-07,-0.04393903782658237
907,0.0908,5.09014e-05,889.268,6.81858e-05,-0.000565056,0.00220745,0.00718178,-0.0402164,0.0869114,-0.0449819,-1.6276e-06,2.10265e-06,6.78945e-07,0.0864664,-0.03941845318754689,-1.6275986755021066e-06,2.1026522105671575e-06,0.09080003055407593,6.789452304811761e-07,-0.04398521445588077
908,0.0909,5.08819e-05,889.423,6.816e-05,-0.000563127,0.00220624,0.00718364,-0.0402595,0.087003,-0.0450302,-1.62832e-06,2.10499e-06,6.78253e-07,0.0865615,-0.039459853360034436,-1.6283186743404343e-06,2.1049922154237066e-06,0.0908999524132259,6.782532300242394e-07,-0.044031388854901876
909,0.091,5.08624e-05,889.577,6.81343e-05,-0.000561201,0.00220504,0.00718549,-0.0403026,0.0870947,-0.0450785,-1.62903e-06,2.10732e-06,6.77562e-07,0.0866567,-0.03950125174821295,-1.6290286731779346e-06,2.107322220501473e-06,0.09099999252563129,6.775622296562034e-07,-0.044077561023753375
910,0.0911,5.08429e-05,889.731,6.81085e-05,-0.000559277,0.00220383,0.00718733,-0.0403456,0.0871864,-0.0451268,-1.62975e-06,2.10965e-06,6.76873e-07,0.0867518,-0.03954255230641934,-1.62974867190524e-06,2.1096522253571948e-06,0.09110004181213549,6.768732290218793e-07,-0.04412373096254285
911,0.0912,5.08234e-05,889.884,6.80828e-05,-0.000557356,0.00220263,0.00718918,-0.0403887,0.087278,-0.0451751,-1.63046e-06,2.11198e-06,6.76186e-07,0.0868469,-0.03958394713035007,-1.6304586708537627e-06,2.1119822302129165e-06,0.09119999115357547,6.761862285653564e-07,-0.044169898671378216
912,0.0913,5.0804e-05,890.038,6.80571e-05,-0.000555438,0.00220143,0.00719102,-0.0404317,0.0873696,-0.0452234,-1.63117e-06,2.11431e-06,6.75501e-07,0.086942,-0.03962524413273161,-1.631168669691263e-06,2.1143122350686383e-06,0.09129994965079447,6.7550122806459e-07,-0.04421606415036716
913,0.0914,5.07845e-05,890.191,6.80314e-05,-0.000553522,0.00220023,0.00719286,-0.0404748,0.0874613,-0.0452717,-1.63189e-06,2.11664e-06,6.74819e-07,0.0870371,-0.03966663539272142,-1.6318886684185685e-06,2.1166422401464047e-06,0.09140002644462841,6.748192276084808e-07,-0.04426222739961727
914,0.0915,5.0765e-05,890.345,6.80057e-05,-0.000551608,0.00219904,0.00719469,-0.0405178,0.0875529,-0.04532,-1.6326e-06,2.11896e-06,6.74138e-07,0.0871322,-0.03970792883958407,-1.6325986672560688e-06,2.118962245001299e-06,0.09150000326591923,6.741382272412721e-07,-0.04430838841923623
915,0.0916,5.07456e-05,890.498,6.798e-05,-0.000549697,0.00219784,0.00719652,-0.0405609,0.0876445,-0.0453682,-1.63331e-06,2.12128e-06,6.73459e-07,0.0872273,-0.03974931653593983,-1.6333086662045915e-06,2.1212822498561934e-06,0.09159998924550616,6.734592268298201e-07,-0.0443544516447818
916,0.0917,5.07262e-05,890.651,6.79544e-05,-0.000547788,0.00219665,0.00719835,-0.0406039,0.0877361,-0.0454165,-1.63402e-06,2.12361e-06,6.72782e-07,0.0873224,-0.03979060642758969,-1.6340186650420918e-06,2.1236122549339598e-06,0.09169998438422855,6.727822263741245e-07,-0.0444006082100773
917,0.0918,5.07068e-05,890.803,6.79287e-05,-0.000545882,0.00219546,0.00720017,-0.0406469,0.0878277,-0.0454648,-1.63473e-06,2.12593e-06,6.72107e-07,0.0874175,-0.03983189454381242,-1.6347286638795921e-06,2.125932259788854e-06,0.09179998868292505,6.721072258741856e-07,-0.04444676254606461
918,0.0919,5.06874e-05,890.956,6.79031e-05,-0.000543978,0.00219426,0.00720199,-0.0406899,0.0879193,-0.0455131,-1.63544e-06,2.12825e-06,6.71435e-07,0.0875126,-0.03987318088468439,-1.6354386627170925e-06,2.1282522646437485e-06,0.09190000214243499,6.714352254189038e-07,-0.04449291465285121
919,0.092,5.0668e-05,891.109,6.78775e-05,-0.000542077,0.00219308,0.0072038,-0.040733,0.0880109,-0.0455613,-1.63615e-06,2.13056e-06,6.70764e-07,0.0876076,-0.03991456145883043,-1.6361486615545928e-06,2.13056226971986e-06,0.09200002476359725,6.707642250525225e-07,-0.04453896898444665
920,0.0921,5.06486e-05,891.261,6.78519e-05,-0.000540178,0.00219189,0.00720562,-0.040776,0.0881024,-0.0456096,-1.63686e-06,2.13288e-06,6.70095e-07,0.0877027,-0.03995584424510146,-1.6368586603920932e-06,2.1328822745747544e-06,0.09209994733725124,6.700952244198533e-07,-0.04458511663776987
921,0.0922,5.06292e-05,891.413,6.78263e-05,-0.000538281,0.0021907,0.00720743,-0.040819,0.088194,-0.0456578,-1.63757e-06,2.1352e-06,6.69428e-07,0.0877977,-0.039997125256250876,-1.6375686592295935e-06,2.1352022796516934e-06,0.09219998827423237,6.694282239649851e-07,-0.04463116652533672
922,0.0923,5.06098e-05,891.565,6.78007e-05,-0.000536387,0.00218952,0.00720923,-0.040862,0.0882856,-0.0457061,-1.63828e-06,2.13751e-06,6.68763e-07,0.0878928,-0.04003840449235485,-1.6382786580670938e-06,2.1375122845057604e-06,0.09230003837538292,6.687632236879182e-07,-0.044677309725626335
923,0.0924,5.05905e-05,891.717,6.77752e-05,-0.000534495,0.00218833,0.00721103,-0.040905,0.0883771,-0.0457543,-1.63899e-06,2.13982e-06,6.681e-07,0.0879878,-0.040079681953489876,-1.6389886569045942e-06,2.1398222893598273e-06,0.09239998840153829,6.681002231445632e-07,-0.04472335516959347
924,0.0925,5.05711e-05,891.869,6.77496e-05,-0.000532606,0.00218715,0.00721283,-0.040948,0.0884686,-0.0458026,-1.63969e-06,2.14213e-06,6.67438e-07,0.0880828,-0.040120957639732335,-1.639688655741267e-06,2.142132294435939e-06,0.0924999475735393,6.674382226901088e-07,-0.044769493917279024
925,0.0926,5.05518e-05,892.021,6.77241e-05,-0.000530719,0.00218597,0.00721463,-0.040991,0.0885602,-0.0458508,-1.6404e-06,2.14444e-06,6.66779e-07,0.0881778,-0.04016223155115839,-1.6403986545787674e-06,2.144442299290006e-06,0.0926000251522201,6.667792222803115e-07,-0.04481553491807522
926,0.0927,5.05325e-05,892.172,6.76985e-05,-0.000528835,0.00218479,0.00721642,-0.041034,0.0886517,-0.045899,-1.64111e-06,2.14675e-06,6.66122e-07,0.0882728,-0.04020350368784431,-1.6411086534162678e-06,2.1467523043661174e-06,0.09270000262842149,6.661222218262708e-07,-0.044861573699748525
927,0.0928,5.05132e-05,892.324,6.7673e-05,-0.000526952,0.00218361,0.00721821,-0.041077,0.0887432,-0.0459473,-1.64181e-06,2.14905e-06,6.65467e-07,0.0883678,-0.040244774049866594,-1.6418086522529407e-06,2.149052309219357e-06,0.09279998925298028,6.654672213279866e-07,-0.04490770577164038
928,0.0929,5.04938e-05,892.475,6.76475e-05,-0.000525073,0.00218244,0.00721999,-0.04112,0.0888347,-0.0459955,-1.64252e-06,2.15136e-06,6.64813e-07,0.0884628,-0.04028604263730151,-1.642518651090441e-06,2.151362314073424e-06,0.0928999850267338,6.648132209186031e-07,-0.04495374011078568
929,0.093,5.04746e-05,892.626,6.7622e-05,-0.000523195,0.00218126,0.00722177,-0.041163,0.0889262,-0.0460437,-1.64322e-06,2.15366e-06,6.64162e-07,0.0885578,-0.040327309450225224,-1.643218649927114e-06,2.153662319148708e-06,0.09299998995051917,6.641622205538766e-07,-0.04499977223112939
930,0.0931,5.04553e-05,892.777,6.75966e-05,-0.00052132,0.00218009,0.00722355,-0.041206,0.0890177,-0.0460919,-1.64392e-06,2.15596e-06,6.63512e-07,0.0886528,-0.040368574488714226,-1.643918648763787e-06,2.1559623240019476e-06,0.09310000402517371,6.635122200560062e-07,-0.0450458021327782
931,0.0932,5.0436e-05,892.928,6.75711e-05,-0.000519448,0.00217892,0.00722533,-0.0412489,0.0891092,-0.0461401,-1.64463e-06,2.15826e-06,6.62865e-07,0.0887478,-0.04040974179382362,-1.6446286476012872e-06,2.158262329077232e-06,0.09320002725153498,6.628652196027929e-07,-0.04509182981583937
932,0.0933,5.04167e-05,893.078,6.75457e-05,-0.000517578,0.00217775,0.0072271,-0.0412919,0.0892006,-0.0461883,-1.64533e-06,2.16056e-06,6.62219e-07,0.0888427,-0.04045100328779805,-1.6453286464379602e-06,2.1605623339304714e-06,0.09329995030043947,6.622192192384802e-07,-0.04513785528041969
933,0.0934,5.03975e-05,893.229,6.75202e-05,-0.00051571,0.00217658,0.00722886,-0.0413349,0.0892921,-0.0462365,-1.64603e-06,2.16286e-06,6.61576e-07,0.0889377,-0.040492263007566365,-1.6460286452746331e-06,2.1628623390057555e-06,0.09339999182272174,6.615762189188246e-07,-0.045183878526625976
934,0.0935,5.03782e-05,893.379,6.74948e-05,-0.000513844,0.00217541,0.00723063,-0.0413778,0.0893836,-0.0462847,-1.64673e-06,2.16515e-06,6.60934e-07,0.0890326,-0.040533425006552104,-1.646728644111306e-06,2.1651523438581677e-06,0.09350004249922228,6.60934218466025e-07,-0.045229899554565356
935,0.0936,5.0359e-05,893.529,6.74694e-05,-0.000511981,0.00217425,0.00723239,-0.0414208,0.089475,-0.0463329,-1.64743e-06,2.16745e-06,6.60294e-07,0.0891275,-0.040574681182262706,-1.647428642947979e-06,2.167452348933452e-06,0.0935999929707736,6.602942179689819e-07,-0.045275918364344525
936,0.0937,5.03398e-05,893.679,6.7444e-05,-0.00051012,0.00217308,0.00723415,-0.0414638,0.0895664,-0.0463811,-1.64814e-06,2.16974e-06,6.59656e-07,0.0892225,-0.0406159355839959,-1.6481386417854793e-06,2.169742353785864e-06,0.09369995257821562,6.5965621764974e-07,-0.04532193495607062
937,0.0938,5.03206e-05,893.829,6.74186e-05,-0.000508262,0.00217192,0.0072359,-0.0415067,0.0896579,-0.0464293,-1.64884e-06,2.17203e-06,6.5902e-07,0.0893174,-0.040657092277541884,-1.6488386406221522e-06,2.1720323588603208e-06,0.09380003070238097,6.590202170642101e-07,-0.04536794932985044
938,0.0939,5.03014e-05,893.979,6.73933e-05,-0.000506405,0.00217076,0.00723765,-0.0415497,0.0897493,-0.0464775,-1.64954e-06,2.17432e-06,6.58386e-07,0.0894123,-0.04069834313567422,-1.6495386394588252e-06,2.1743223639347775e-06,0.09390000859410708,6.583862166564813e-07,-0.04541396148579091
939,0.094,5.02822e-05,894.129,6.73679e-05,-0.000504552,0.0021696,0.0072394,-0.0415926,0.0898407,-0.0465257,-1.65023e-06,2.17661e-06,6.57754e-07,0.0895072,-0.04073949629401208,-1.650228638405693e-06,2.1766123687871897e-06,0.09399999562423034,6.577542164265537e-07,-0.045459971423998824
940,0.0941,5.0263e-05,894.278,6.73426e-05,-0.0005027,0.00216844,0.00724114,-0.0416356,0.0899321,-0.0465739,-1.65093e-06,2.17889e-06,6.57123e-07,0.0896021,-0.04078074360884787,-1.650928637242366e-06,2.178892373860819e-06,0.09409999179358564,6.571232158414375e-07,-0.04550597914458121
941,0.0942,5.02438e-05,894.427,6.73172e-05,-0.000500851,0.00216729,0.00724289,-0.0416785,0.0900235,-0.046622,-1.65163e-06,2.18118e-06,6.56495e-07,0.089697,-0.04082189323228125,-1.6516286360790389e-06,2.181182378713231e-06,0.09419999710300875,6.56495215523023e-07,-0.04555188920283859
942,0.0943,5.02247e-05,894.577,6.72919e-05,-0.000499004,0.00216613,0.00724462,-0.0417214,0.0901149,-0.0466702,-1.65233e-06,2.18346e-06,6.55868e-07,0.0897918,-0.040863041090433705,-1.6523286349157118e-06,2.1834623837868605e-06,0.09430001155333456,6.558682150714645e-07,-0.045597892493090875
943,0.0944,5.02055e-05,894.726,6.72666e-05,-0.000497159,0.00216498,0.00724636,-0.0417644,0.0902063,-0.0467183,-1.65303e-06,2.18575e-06,6.55244e-07,0.0898867,-0.04090428309295746,-1.6530286337523847e-06,2.1857523888613173e-06,0.09440003514539907,6.552442146645632e-07,-0.04564379813042252
944,0.0945,5.01864e-05,894.875,6.72413e-05,-0.000495317,0.00216382,0.00724809,-0.0418073,0.0902976,-0.0467665,-1.65372e-06,2.18803e-06,6.54621e-07,0.0899816,-0.04094542741666074,-1.6537186325882303e-06,2.188032393712902e-06,0.09449995843003656,6.546212143465624e-07,-0.04568979699077114
945,0.0946,5.01673e-05,895.023,6.72161e-05,-0.000493477,0.00216267,0.00724982,-0.0418502,0.090389,-0.0468147,-1.65442e-06,2.19031e-06,6.54e-07,0.0900764,-0.04098656997531036,-1.6544186314249032e-06,2.1903123987865314e-06,0.09460000029808069,6.540002137622736e-07,-0.04573579363402824
946,0.0947,5.01482e-05,895.172,6.71908e-05,-0.000491639,0.00216152,0.00725154,-0.0418931,0.0904803,-0.0468628,-1.65511e-06,2.19258e-06,6.53381e-07,0.0901713,-0.04102771076898204,-1.6551086302607487e-06,2.1925824036372887e-06,0.09469994184036978,6.533812133557859e-07,-0.045781692638474536
947,0.0948,5.01291e-05,895.32,6.71656e-05,-0.000489804,0.00216037,0.00725326,-0.041936,0.0905717,-0.0469109,-1.65581e-06,2.19486e-06,6.52764e-07,0.0902661,-0.041068849797751605,-1.6558086290974217e-06,2.194862408710918e-06,0.09480000198773308,6.527642131270994e-07,-0.0458275894352318
948,0.0949,5.011e-05,895.469,6.71403e-05,-0.000487971,0.00215923,0.00725498,-0.0419789,0.090663,-0.0469591,-1.6565e-06,2.19713e-06,6.52149e-07,0.0903609,-0.041109987061694664,-1.6564986280442895e-06,2.19713241378372e-06,0.09489996179101023,6.521492126321249e-07,-0.04587357943705306
949,0.095,5.00909e-05,895.617,6.71151e-05,-0.00048614,0.00215808,0.00725669,-0.0420219,0.0907544,-0.0470072,-1.6572e-06,2.19941e-06,6.51536e-07,0.0904558,-0.041151218445769855,-1.6571986268809624e-06,2.199412418635305e-06,0.09500004022103248,6.515362123149515e-07,-0.04591947181416167
950,0.0951,5.00718e-05,895.765,6.70899e-05,-0.000484311,0.00215694,0.0072584,-0.0420648,0.0908457,-0.0470553,-1.65789e-06,2.20168e-06,6.50924e-07,0.0905506,-0.041192352176173785,-1.657888625716808e-06,2.2016824237081067e-06,0.09510001828863412,6.509242118646341e-07,-0.04596536198389989
951,0.0952,5.00527e-05,895.913,6.70647e-05,-0.000482485,0.0021558,0.00726011,-0.0421077,0.090937,-0.0471035,-1.65859e-06,2.20395e-06,6.50314e-07,0.0906454,-0.04123348414197836,-1.6585886245534809e-06,2.2039524287809087e-06,0.0952000054846498,6.503142113700733e-07,-0.046011345345244425
952,0.0953,5.00337e-05,896.061,6.70395e-05,-0.000480661,0.00215465,0.00726182,-0.0421506,0.0910283,-0.0471516,-1.65928e-06,2.20622e-06,6.49707e-07,0.0907402,-0.04127461434325963,-1.6592786233893264e-06,2.206222433631666e-06,0.09530000180991327,6.497072111422142e-07,-0.04605723109597215
953,0.0954,5.00146e-05,896.208,6.70144e-05,-0.000478839,0.00215351,0.00726352,-0.0421935,0.0911196,-0.0471997,-1.65997e-06,2.20849e-06,6.49101e-07,0.090835,-0.04131574278009298,-1.659968622225172e-06,2.208492438704468e-06,0.0954000072652581,6.491012105591665e-07,-0.046103114639648335
954,0.0955,4.99956e-05,896.356,6.69892e-05,-0.00047702,0.00215238,0.00726522,-0.0422363,0.0912109,-0.0472478,-1.66066e-06,2.21075e-06,6.48497e-07,0.0909297,-0.04135677358823642,-1.6606586210610175e-06,2.2107524437764425e-06,0.09550002185151785,6.484972103759645e-07,-0.046148995976379226
955,0.0956,4.99766e-05,896.503,6.69641e-05,-0.000475202,0.00215124,0.00726691,-0.0422792,0.0913022,-0.0472959,-1.66135e-06,2.21302e-06,6.47895e-07,0.0910245,-0.041397898500513786,-1.6613486200078853e-06,2.2130224486272e-06,0.09560004556952606,6.478952099264745e-07,-0.04619487510627085
956,0.0957,4.99576e-05,896.651,6.69389e-05,-0.000473387,0.0021501,0.0072686,-0.0423221,0.0913934,-0.047344,-1.66204e-06,2.21528e-06,6.47294e-07,0.0911193,-0.041439021648570384,-1.6620386188437308e-06,2.2152824536991744e-06,0.09569996885011434,6.472942095658851e-07,-0.046240752029429344
957,0.0958,4.99386e-05,896.798,6.69138e-05,-0.000471575,0.00214897,0.00727029,-0.042365,0.0914847,-0.0473921,-1.66273e-06,2.21755e-06,6.46696e-07,0.091214,-0.0414801430324816,-1.6627286176795764e-06,2.2175524587719764e-06,0.09580001082411704,6.466962090279083e-07,-0.04628662674596096
958,0.0959,4.99196e-05,896.945,6.68887e-05,-0.000469764,0.00214784,0.00727198,-0.0424079,0.0915759,-0.0474402,-1.66342e-06,2.21981e-06,6.46099e-07,0.0913088,-0.041521262652323365,-1.6634186165154219e-06,2.219812463843951e-06,0.09589995234236826,6.460992088008766e-07,-0.046332499255971715
959,0.096,4.99006e-05,897.091,6.68636e-05,-0.000467956,0.00214671,0.00727366,-0.0424507,0.0916672,-0.0474883,-1.66411e-06,2.22207e-06,6.45504e-07,0.0914035,-0.04156228466440448,-1.6641086153512674e-06,2.222072468693881e-06,0.09600001257569724,6.455042083075568e-07,-0.04637836955956787
960,0.0961,4.98816e-05,897.238,6.68386e-05,-0.000466149,0.00214558,0.00727534,-0.0424936,0.0917584,-0.0475364,-1.6648e-06,2.22432e-06,6.44912e-07,0.0914983,-0.041603400760445886,-1.664798614187113e-06,2.224322473765028e-06,0.09609997233493983,6.449122078588942e-07,-0.04642423765685555
961,0.0962,4.98627e-05,897.385,6.68135e-05,-0.000464346,0.00214445,0.00727702,-0.0425365,0.0918497,-0.0475845,-1.66549e-06,2.22658e-06,6.4432e-07,0.091593,-0.04164451509264455,-1.6654886130229585e-06,2.2265824788370026e-06,0.09620005083092775,6.443202076322763e-07,-0.04647010354794068
962,0.0963,4.98437e-05,897.531,6.67885e-05,-0.000462544,0.00214332,0.00727869,-0.0425793,0.0919409,-0.0476326,-1.66618e-06,2.22883e-06,6.43731e-07,0.0916877,-0.04168553182963408,-1.6661786119698263e-06,2.2288324839081497e-06,0.09630002883449129,6.437312072282708e-07,-0.04651596723292961
963,0.0964,4.98248e-05,897.677,6.67634e-05,-0.000460744,0.00214219,0.00728036,-0.0426222,0.0920321,-0.0476807,-1.66686e-06,2.23109e-06,6.43144e-07,0.0917824,-0.04172664263848547,-1.6668586108048444e-06,2.2310924889801242e-06,0.09640001595646441,6.431442067800219e-07,-0.046561828711928266
964,0.0965,4.98059e-05,897.824,6.67384e-05,-0.000458947,0.00214107,0.00728202,-0.042665,0.0921233,-0.0477287,-1.66755e-06,2.23334e-06,6.42558e-07,0.0918771,-0.04176765586049136,-1.66754860964069e-06,2.2333424938292268e-06,0.0965000121976789,6.425582064206736e-07,-0.04660759264580683
965,0.0966,4.9787e-05,897.97,6.67134e-05,-0.000457152,0.00213995,0.00728369,-0.0427079,0.0922145,-0.0477768,-1.66823e-06,2.23559e-06,6.41974e-07,0.0919718,-0.041808763146297334,-1.668228608475708e-06,2.235592498900374e-06,0.09660001755896652,6.419742060170819e-07,-0.04665344971772922
966,0.0967,4.97681e-05,898.115,6.66884e-05,-0.000455359,0.00213882,0.00728535,-0.0427507,0.0923057,-0.0478249,-1.66892e-06,2.23784e-06,6.41393e-07,0.0920665,-0.04184977285362068,-1.6689186073115536e-06,2.237842503971521e-06,0.09670003204115907,6.413932056581473e-07,-0.04669930458397942
967,0.0968,4.97492e-05,898.261,6.66634e-05,-0.000453568,0.0021377,0.007287,-0.0427935,0.0923968,-0.0478729,-1.66961e-06,2.24009e-06,6.40812e-07,0.0921612,-0.04189078080576614,-1.6696086061473991e-06,2.2400925090426682e-06,0.09679994596508812,6.408122052992127e-07,-0.04674506191917449
968,0.0969,4.97303e-05,898.407,6.66385e-05,-0.00045178,0.00213658,0.00728866,-0.0428364,0.092488,-0.047921,-1.67029e-06,2.24233e-06,6.40234e-07,0.0922558,-0.04193188280962523,-1.6702886050934396e-06,2.242332514112988e-06,0.09689997868158273,6.402342049849352e-07,-0.04679091237898381
969,0.097,4.97114e-05,898.552,6.66135e-05,-0.000449993,0.00213547,0.00729031,-0.0428792,0.0925792,-0.047969,-1.67097e-06,2.24458e-06,6.39658e-07,0.0923505,-0.04197288724753978,-1.6709686039284577e-06,2.2445825189620905e-06,0.09700002052147694,6.396582046264143e-07,-0.04683666531711028
970,0.0971,4.96925e-05,898.698,6.65886e-05,-0.000448209,0.00213435,0.00729195,-0.042922,0.0926703,-0.0480171,-1.67166e-06,2.24682e-06,6.39083e-07,0.0924452,-0.042013889930501924,-1.6716586027643032e-06,2.2468225240324102e-06,0.09709996177560143,6.390832041347494e-07,-0.04688251137090216
971,0.0972,4.96737e-05,898.843,6.65636e-05,-0.000446427,0.00213324,0.0072936,-0.0429649,0.0927615,-0.0480651,-1.67234e-06,2.24907e-06,6.3851e-07,0.0925398,-0.04205498665309282,-1.6723386015993214e-06,2.2490725291035574e-06,0.09720002185478571,6.385102038208856e-07,-0.046928259912382586
972,0.0973,4.96548e-05,898.988,6.65387e-05,-0.000444647,0.00213212,0.00729524,-0.0430077,0.0928526,-0.0481131,-1.67302e-06,2.25131e-06,6.37939e-07,0.0926344,-0.04209598582227558,-1.6730186005453618e-06,2.251312534173877e-06,0.09729998132986162,6.379392034627784e-07,-0.046974006257985645
973,0.0974,4.9636e-05,899.133,6.65138e-05,-0.00044287,0.00213101,0.00729688,-0.0430505,0.0929437,-0.0481612,-1.67371e-06,2.25355e-06,6.3737e-07,0.0927291,-0.04213698323673154,-1.6737085993812073e-06,2.253552539244197e-06,0.09739994991166046,6.373702030604278e-07,-0.04701984570583717
974,0.0975,4.96172e-05,899.278,6.64889e-05,-0.000441094,0.0021299,0.00729851,-0.0430933,0.0930349,-0.0482092,-1.67439e-06,2.25578e-06,6.36802e-07,0.0928237,-0.04217797889653563,-1.6743885982162254e-06,2.255782544313689e-06,0.0975000373510102,6.368022027469777e-07,-0.047065587655427676
975,0.0976,4.95984e-05,899.422,6.64641e-05,-0.000439321,0.00212879,0.00730014,-0.0431361,0.093126,-0.0482572,-1.67507e-06,2.25802e-06,6.36237e-07,0.0929183,-0.04221897280176301,-1.6750685970512436e-06,2.258022549384009e-06,0.09760002415874292,6.362372024781848e-07,-0.04711132740945734
976,0.0977,4.95796e-05,899.567,6.64392e-05,-0.00043755,0.00212768,0.00730177,-0.0431789,0.0932171,-0.0483053,-1.67575e-06,2.26026e-06,6.35673e-07,0.0930129,-0.04225996495248885,-1.6757485958862617e-06,2.2602625544543287e-06,0.09770002007568857,6.356732020762479e-07,-0.047157160252320196
977,0.0978,4.95608e-05,899.711,6.64144e-05,-0.000435781,0.00212657,0.0073034,-0.0432217,0.0933082,-0.0483533,-1.67643e-06,2.26249e-06,6.35111e-07,0.0931075,-0.04230095534878808,-1.6764285948323021e-06,2.262492559523821e-06,0.09780002510267738,6.351112016300675e-07,-0.047202895610970685
978,0.0979,4.9542e-05,899.855,6.63895e-05,-0.000434014,0.00212547,0.00730502,-0.0432645,0.0933993,-0.0484013,-1.67711e-06,2.26472e-06,6.3455e-07,0.0932021,-0.042341943990735986,-1.6771085936673202e-06,2.2647225643712687e-06,0.09790003924053914,6.345502012727877e-07,-0.047248628774376744
979,0.098,4.95232e-05,900.0,6.63647e-05,-0.000432249,0.00212436,0.00730664,-0.0433073,0.0934903,-0.0484493,-1.67779e-06,2.26695e-06,6.33992e-07,0.0932967,-0.0423829308784075,-1.6777885925023384e-06,2.266952569440761e-06,0.09799995269010298,6.339922009601651e-07,-0.04729435974264351
980,0.0981,4.95045e-05,900.144,6.63399e-05,-0.000430486,0.00212326,0.00730826,-0.0433501,0.0935814,-0.0484973,-1.67847e-06,2.26918e-06,6.33435e-07,0.0933912,-0.04242391601187778,-1.6784685913373565e-06,2.2691825745102534e-06,0.09809998504219752,6.334352005143984e-07,-0.047340088515876566
981,0.0982,4.94857e-05,900.287,6.63151e-05,-0.000428726,0.00212216,0.00730987,-0.0433929,0.0936725,-0.0485453,-1.67914e-06,2.27141e-06,6.3288e-07,0.0934858,-0.04246489939122189,-1.6791385902825695e-06,2.2714125795797457e-06,0.09820002650765436,6.328802002464329e-07,-0.04738581509418116
982,0.0983,4.9467e-05,900.431,6.62903e-05,-0.000426967,0.00212106,0.00731148,-0.0434357,0.0937635,-0.0485933,-1.67982e-06,2.27364e-06,6.32327e-07,0.0935804,-0.04250588101651498,-1.6798185891175876e-06,2.273642584649238e-06,0.09829996725730172,6.323271999342239e-07,-0.047431539477662654
983,0.0984,4.94483e-05,900.575,6.62656e-05,-0.000425211,0.00211996,0.00731309,-0.0434785,0.0938546,-0.0486413,-1.6805e-06,2.27586e-06,6.31776e-07,0.0936749,-0.042546860887831994,-1.6804985879526058e-06,2.275862589717903e-06,0.09840002694196825,6.317761995777715e-07,-0.04747726166642641
984,0.0985,4.94295e-05,900.718,6.62408e-05,-0.000423457,0.00211886,0.00731469,-0.0435212,0.0939456,-0.0486893,-1.68118e-06,2.27809e-06,6.31226e-07,0.0937694,-0.042587743264027145,-1.6811785867876239e-06,2.2780925947873953e-06,0.09849998589248332,6.312261993102197e-07,-0.04752298166057778
985,0.0986,4.94108e-05,900.862,6.62161e-05,-0.000421704,0.00211777,0.00731629,-0.043564,0.0940366,-0.0487372,-1.68185e-06,2.28031e-06,6.30678e-07,0.093864,-0.042628719631714884,-1.681848585732837e-06,2.2803125998560603e-06,0.09859995393967669,6.306781987763799e-07,-0.047568604217087196
986,0.0987,4.93921e-05,901.005,6.61913e-05,-0.000419954,0.00211667,0.00731789,-0.0436068,0.0941277,-0.0487852,-1.68253e-06,2.28253e-06,6.30132e-07,0.0939585,-0.04266969424565159,-1.682528584567855e-06,2.282532604924725e-06,0.09870004095437479,6.301321986423858e-07,-0.04761431982690145
987,0.0988,4.93734e-05,901.148,6.61666e-05,-0.000418207,0.00211558,0.00731949,-0.0436495,0.0942187,-0.0488332,-1.6832e-06,2.28475e-06,6.29588e-07,0.094053,-0.04271057137697443,-1.6831985834020458e-06,2.28475260999339e-06,0.09880002720740722,6.295881982421037e-07,-0.047660033242418964
988,0.0989,4.93548e-05,901.291,6.61419e-05,-0.000416461,0.00211448,0.00732108,-0.0436923,0.0943097,-0.0488812,-1.68388e-06,2.28697e-06,6.29046e-07,0.0941475,-0.04275154248773139,-1.6838785822370639e-06,2.286972615062055e-06,0.09890002255960262,6.290461977975781e-07,-0.0477057444637452
989,0.099,4.93361e-05,901.434,6.61173e-05,-0.000414717,0.00211339,0.00732267,-0.043735,0.0944007,-0.0489291,-1.68455e-06,2.28919e-06,6.28505e-07,0.094242,-0.04279241612420881,-1.684548581182277e-06,2.28919262013072e-06,0.099000027011789,6.285051974419531e-07,-0.0477513582661262
990,0.0991,4.93175e-05,901.576,6.60926e-05,-0.000412975,0.0021123,0.00732425,-0.0437778,0.0944917,-0.0489771,-1.68523e-06,2.2914e-06,6.27966e-07,0.0943365,-0.04283338373208567,-1.685228580017295e-06,2.2914026251985575e-06,0.09910004056479482,6.279661972641293e-07,-0.04779706510395654
991,0.0992,4.92988e-05,901.719,6.60679e-05,-0.000411236,0.00211121,0.00732584,-0.0438205,0.0945826,-0.049025,-1.6859e-06,2.29362e-06,6.27428e-07,0.094431,-0.042874253874016555,-1.6858985788514858e-06,2.2936226302672225e-06,0.0991999532994472,6.274281967311168e-07,-0.04784267453218349
992,0.0993,4.92802e-05,901.861,6.60433e-05,-0.000409498,0.00211013,0.00732742,-0.0438633,0.0946736,-0.049073,-1.68657e-06,2.29583e-06,6.26893e-07,0.0945255,-0.042915217979312636,-1.6865685777966988e-06,2.29583263533506e-06,0.09929998504657278,6.268931964648061e-07,-0.047888376986938264
993,0.0994,4.92616e-05,902.004,6.60186e-05,-0.000407763,0.00210904,0.00732899,-0.043906,0.0947646,-0.0491209,-1.68724e-06,2.29804e-06,6.26359e-07,0.0946199,-0.04295608462699585,-1.6872385766308895e-06,2.2980426404028975e-06,0.09940002589700181,6.263591960653514e-07,-0.047933982041430845
994,0.0995,4.92429e-05,902.146,6.5994e-05,-0.00040603,0.00210796,0.00733057,-0.0439488,0.0948555,-0.0491689,-1.68792e-06,2.30025e-06,6.25827e-07,0.0947144,-0.04299704523001058,-1.6879185754659076e-06,2.300252645470735e-06,0.09949996590156007,6.258271958436978e-07,-0.047979680113530265
995,0.0996,4.92243e-05,902.288,6.59694e-05,-0.000404298,0.00210687,0.00733214,-0.0439915,0.0949465,-0.0492168,-1.68859e-06,2.30246e-06,6.25297e-07,0.0948089,-0.04303790838374477,-1.6885885743000983e-06,2.302462650760617e-06,0.0996000249510749,6.252971955778008e-07,-0.0480252807947078
996,0.0997,4.92057e-05,902.43,6.59448e-05,-0.000402569,0.00210579,0.00733371,-0.0440342,0.0950374,-0.0492648,-1.68926e-06,2.30467e-06,6.24768e-07,0.0949033,-0.043078769792659455,-1.6892585732453114e-06,2.3046726558284547e-06,0.09969998313637363,6.247681951787598e-07,-0.048070974484572315
997,0.0998,4.91872e-05,902.572,6.59202e-05,-0.000400842,0.00210471,0.00733527,-0.0440769,0.0951283,-0.0493127,-1.68993e-06,2.30688e-06,6.24242e-07,0.0949977,-0.043119629456829234,-1.689928572079502e-06,2.3068826608962922e-06,0.09979995040828449,6.242421948243759e-07,-0.04811657079285425
998,0.0999,4.91686e-05,902.713,6.58957e-05,-0.000399117,0.00210363,0.00733683,-0.0441197,0.0952193,-0.0493606,-1.6906e-06,2.30908e-06,6.23716e-07,0.0950922,-0.04316058306027515,-1.6905985709136928e-06,2.3090826659633024e-06,0.09990003675763148,6.23716194469992e-07,-0.04816216491712533
999,0.1,4.915e-05,902.855,6.58711e-05,-0.000397394,0.00210255,0.00733839,-0.0441624,0.0953102,-0.0494085,-1.69127e-06,2.31129e-06,6.23193e-07,0.0951866,-0.043201439231092986,-1.6912685698589058e-06,2.31129267103114e-06,0.10000002221524285,6.231931941602653e-07,-0.048207756857490014
