,Time,S11,S22,S33,S12,S13,S23,LE11,LE22,LE33,LE12,LE13,LE23,SDV_EPBAR,E11,E12,E13,E22,E23,E33
0,0.0001,29.6765,29.6765,-3.06635e-11,0.0,0.0,-2.22304e-36,9.9995e-05,9.9995e-05,-8.571e-05,0.0,0.0,0.0,0.0,9.999999966670003e-05,0.0,0.0,9.999999966670003e-05,0.0,-8.570632700288794e-05
1,0.0002,59.3501,59.3501,-4.35882e-11,0.0,0.0,-4.44585e-36,0.00019998,0.00019998,-0.000171411,0.0,0.0,0.0,0.0,0.00019999999733322227,0.0,0.0,0.00019999999733322227,0.0,-0.00017139630997387023
2,0.0003,89.0207,89.0207,-4.35634e-11,0.0,0.0,-4.44503e-36,0.000299955,0.000299955,-0.000257104,0.0,0.0,0.0,0.0,0.0002999999909993889,0.0,0.0,0.0002999999909993889,0.0,-0.0002570709515989922
3,0.0004,118.688,118.688,-4.35634e-11,0.0,0.0,-4.4442e-36,0.00039992,0.00039992,-0.000342789,0.0,0.0,0.0,0.0,0.00039999997866457804,0.0,0.0,0.00039999997866457804,0.0,-0.0003427302545633282
4,0.0005,148.353,148.353,-4.35527e-11,0.0,0.0,-4.44337e-36,0.000499875,0.000499875,-0.000428464,0.0,0.0,0.0,0.0,0.0004999999583281678,0.0,0.0,0.0004999999583281678,0.0,-0.00042837222240865724
5,0.0006,178.015,178.015,-4.35065e-11,0.0,0.0,-4.44255e-36,0.00059982,0.00059982,-0.000514132,0.0,0.0,0.0,0.0,0.0005999999279893142,0.0,0.0,0.0005999999279893142,0.0,-0.0005139998567905701
6,0.0007,207.673,207.673,-4.35385e-11,0.0,0.0,-4.44172e-36,0.000699755,0.000699755,-0.00059979,0.0,0.0,0.0,0.0,0.0006999998856467293,0.0,0.0,0.0006999998856467293,0.0,-0.0005996101619347716
7,0.0008,237.329,237.329,-4.34426e-11,0.0,0.0,-4.4409e-36,0.00079968,0.00079968,-0.00068544,0.0,0.0,0.0,0.0,0.000799999829299125,0.0,0.0,0.000799999829299125,0.0,-0.0006852051396671888
8,0.0009,266.982,266.982,-4.34035e-11,0.0,0.0,-4.44007e-36,0.000899595,0.000899595,-0.000771082,0.0,0.0,0.0,0.0,0.0008999997569454354,0.0,0.0,0.0008999997569454354,0.0,-0.0007707847926698985
9,0.001,296.632,296.632,-4.34603e-11,0.0,0.0,-4.43925e-36,0.0009995,0.0009995,-0.000856715,0.0,0.0,0.0,0.0,0.0009999996665834843,0.0,0.0,0.0009999996665834843,0.0,-0.0008563481244810989
10,0.0011,326.279,326.279,-4.34461e-11,0.0,0.0,-4.43842e-36,0.0010994,0.0010994,-0.000942339,0.0,0.0,0.0,0.0,0.0011000045617113319,0.0,0.0,0.0011000045617113319,0.0,-0.0009418951380383289
11,0.0012,355.923,355.923,-4.34142e-11,0.0,0.0,-4.4376e-36,0.00119928,0.00119928,-0.00102795,0.0,0.0,0.0,0.0,0.0011999994238274247,0.0,0.0,0.0011999994238274247,0.0,-0.0010274218403881763
12,0.0013,385.563,385.563,-4.34532e-11,0.0,0.0,-4.43677e-36,0.00129916,0.00129916,-0.00111356,0.0,0.0,0.0,0.0,0.0013000042739288453,0.0,0.0,0.0013000042739288453,0.0,-0.0011129402221378148
13,0.0014,415.201,415.201,-4.33964e-11,0.0,0.0,-4.43595e-36,0.00139902,0.00139902,-0.00119916,0.0,0.0,0.0,0.0,0.0013999990850135369,0.0,0.0,0.0013999990850135369,0.0,-0.0011984412949567202
14,0.0015,432.225,432.78,0.0293683,5.19507e-05,0.0017705,0.0015708,0.00149888,0.00149888,-0.0013322,-7.93586e-14,1.63536e-08,2.74764e-08,7.674e-05,0.0015000038820784933,-7.938094626069869e-14,1.6353600029717086e-08,0.0015000038820784933,2.7476400488168906e-08,-0.001331313015503932
15,0.0016,436.525,438.14,0.14239,0.000660753,0.0123524,0.0123341,0.00159872,0.00159872,-0.00151311,-3.97643e-12,1.09683e-07,2.25632e-07,0.000231226,0.0015999986341210803,-3.976374784997461e-12,1.0968300601099656e-07,0.0015999986341210803,2.2563202550784922e-07,-0.0015119658262235935
16,0.0017,440.346,442.976,-0.0590075,0.000318296,-0.00718068,-0.00594994,0.00169856,0.00169856,-0.00169651,-1.76309e-13,-1.41761e-07,-8.44493e-09,0.000387945,0.0017000033701379813,-1.7630341631047486e-13,-1.41760989946782e-07,0.0017000033701379813,-8.444929977535764e-09,-0.001695071740365539
17,0.0018,444.251,447.845,0.0174391,0.000237566,0.000817593,4.56308e-05,0.00179838,0.00179838,-0.00187913,3.86325e-13,-4.32512e-08,6.56959e-08,0.000545021,0.0017999980551262063,3.863576125695545e-13,-4.325119906667396e-08,0.0017999980551262063,6.569590205174336e-08,-0.001877365540610798
18,0.0019,447.887,452.401,-0.0280303,2.89643e-09,-0.00253801,-0.00598323,0.0018982,0.0018982,-0.00206308,-1.66272e-13,-8.91698e-08,-1.4773e-08,0.000703563,0.001900002722081906,-1.6631140908884845e-13,-8.916979599149499e-08,0.001900002722081906,-1.4773000045487095e-08,-0.0020609533132165403
19,0.002,451.444,456.835,-0.00437905,-0.000137572,-0.000739015,-0.00280339,0.001998,0.001998,-0.00224727,1.82474e-13,-6.94091e-08,2.23214e-08,0.000862896,0.001999997332001513,1.8252066524837574e-13,-6.940909758057501e-08,0.001999997332001513,2.23214002836869e-08,-0.002244746779246909
20,0.0021,454.837,461.066,-0.0155742,-0.000305832,-0.00156977,-0.00423724,0.0020978,0.0020978,-0.00243221,6.87395e-15,-8.31667e-08,7.48835e-10,0.00102326,0.0021000019218813115,6.8833827526759706e-15,-8.316669652952413e-08,0.0021000019218813115,7.488349940132366e-10,-0.002429254573815931
21,0.0022,458.127,465.155,-0.00831629,-0.000437293,-0.000991462,-0.0032497,0.00219758,0.00219758,-0.00261757,-8.45754e-14,-7.89404e-08,1.02374e-08,0.00118442,0.0021999964487171564,-8.459899447643693e-14,-7.894039688594034e-08,0.0021999964487171564,1.0237400038803912e-08,-0.0026141471508146497
22,0.0023,461.296,469.087,-0.0108056,-0.000568939,-0.00116376,-0.00354218,0.00229736,0.00229736,-0.00280346,2.94439e-14,-8.42602e-08,3.56486e-09,0.0013464,0.0023000009535045773,2.9531932455029164e-14,-8.426019648677396e-08,0.0023000009535045773,3.56485996277911e-09,-0.0027995339756885507
23,0.0024,464.367,472.885,-0.0082858,-0.000683068,-0.000946731,-0.00318511,0.00239712,0.00239712,-0.00298977,4.18097e-14,-8.4594e-08,5.32484e-09,0.0015091,0.0023999953892392956,4.1744385725905886e-14,-8.459399647442467e-08,0.0023999953892392956,5.324839902343115e-09,-0.002985305088468171
24,0.0025,467.339,476.552,-0.00851836,-0.000790551,-0.000945196,-0.0031886,0.00249688,0.00249688,-0.00317651,2.02445e-14,-8.76523e-08,2.62069e-09,0.00167248,0.0024999998009163082,2.020605904817785e-14,-8.765229619900339e-08,0.0024999998009163082,2.620690109367274e-09,-0.003171470229815676
25,0.0026,470.224,480.1,-0.00740593,-0.000887098,-0.000837596,-0.00302065,0.00259663,0.00259663,-0.00336362,1.66686e-14,-8.93365e-08,2.22415e-09,0.0018365,0.002600004163531233,1.6653345369377348e-14,-8.933649597864246e-08,0.002600004163531233,2.2241499753050675e-09,-0.003357969367550062
26,0.0027,473.024,483.535,-0.00709635,-0.000976245,-0.000793865,-0.00295856,0.00269636,0.00269636,-0.00355109,4.31774e-15,-9.18131e-08,5.87605e-10,0.00200112,0.0026999984480784445,4.218847493575595e-15,-9.181309579275876e-08,0.0026999984480784445,5.876050757080975e-10,-0.003544792336634517
27,0.0028,475.746,486.863,-0.00644575,-0.00105728,-0.000723018,-0.00285461,0.00279609,0.00279609,-0.0037389,-2.98394e-15,-9.39228e-08,-4.15236e-10,0.00216629,0.0028000027055530285,-2.9976021664879227e-15,-9.392279554099048e-08,0.0028000027055530285,-4.152359567299868e-10,-0.0037319190165048255
28,0.0029,478.395,490.091,-0.00604834,-0.00113162,-0.000672717,-0.00278487,0.0028958,0.0028958,-0.00392703,1.25791e-14,-9.62732e-08,-1.76321e-09,0.00233198,0.0028999968789495956,1.2656542480726785e-14,-9.627319541571921e-08,0.0028999968789495956,-1.7632100224318492e-09,-0.00391932930127914
29,0.003,480.975,493.225,-0.00558208,-0.00119944,-0.000617056,-0.00270787,0.00299551,0.00299551,-0.00411544,-2.03362e-14,-9.85344e-08,-2.93521e-09,0.00249816,0.0030000010232620333,-2.0317081350640365e-14,-9.853439519869056e-08,0.0030000010232620333,-2.9352099639723406e-09,-0.004106983181956569
30,0.0031,483.49,496.27,-0.00520991,-0.0012615,-0.000569276,-0.00264422,0.0030952,0.0030952,-0.00430414,-2.86371e-14,-1.00875e-07,-4.20114e-09,0.00266481,0.0030999950774850404,-2.864375403532904e-14,-1.0087499491273633e-07,0.0030999950774850404,-4.201139991444336e-09,-0.004294890464620393
31,0.0032,485.944,499.231,-0.0048395,-0.00131817,-0.000521885,-0.002582,0.00319489,0.00319489,-0.00449309,-3.63452e-14,-1.03201e-07,-5.4151e-09,0.00283189,0.003199999100611972,-3.630429290524262e-14,-1.0320099463889676e-07,0.003199999100611972,-5.415100035044418e-09,-0.004483011171803608
32,0.0033,488.339,502.112,-0.00451422,-0.00136993,-0.000478453,-0.00252658,0.00329457,0.00329457,-0.00468229,-4.40062e-14,-1.05556e-07,-6.65106e-09,0.00299938,0.0033000030606369357,-4.39648317751562e-14,-1.0555599438966112e-07,0.0033000030606369357,-6.651060036055867e-09,-0.004671345169131924
33,0.0034,490.68,504.917,-0.00420641,-0.00141717,-0.000436724,-0.00247433,0.00339423,0.00339423,-0.00487172,-5.13573e-14,-1.07914e-07,-7.86773e-09,0.00316726,0.003399996921553239,-5.140332604014475e-14,-1.0791399418508263e-07,0.003399996921553239,-7.867730023036756e-09,-0.004859872419294309
34,0.0035,492.969,507.651,-0.00392652,-0.00146026,-0.000397574,-0.00242647,0.00349389,0.00349389,-0.00506137,-5.85564e-14,-1.10283e-07,-9.08505e-09,0.00333551,0.003500000748354326,-5.850875339774575e-14,-1.1028299395920982e-07,0.003500000748354326,-9.085050045598564e-09,-0.005048582849457861
35,0.0036,495.208,510.317,-0.00366537,-0.00149952,-0.000360249,-0.00238174,0.00359354,0.00359354,-0.00525123,-6.55395e-14,-1.12657e-07,-1.02911e-08,0.00350411,0.003600004506033372,-6.550315845288424e-14,-1.1265699362272841e-07,0.003600004506033372,-1.0291099972192796e-08,-0.005237466394235724
36,0.0037,497.399,512.918,-0.00342459,-0.00153525,-0.000324893,-0.00234027,0.00369317,0.00369317,-0.00544128,-7.23568e-14,-1.15035e-07,-1.14911e-08,0.00367304,0.003699998155583195,-7.238654120556021e-14,-1.1503499341980472e-07,0.003699998155583195,-1.149109996045894e-08,-0.005426503049970277
37,0.0038,499.546,515.457,-0.00320047,-0.00156774,-0.000291198,-0.00230153,0.0037928,0.0037928,-0.00563152,-7.89974e-14,-1.17416e-07,-1.26814e-08,0.00384229,0.0038000017679966636,-7.904787935331115e-14,-1.1741599315051587e-07,0.0038000017679966636,-1.2681400041181234e-08,-0.005615692715738474
38,0.0039,501.65,517.938,-0.00299245,-0.00159723,-0.00025912,-0.00226538,0.00389241,0.00389241,-0.00582193,-8.54811e-14,-1.19797e-07,-1.38634e-08,0.00401183,0.0038999952662663873,-8.548717289613705e-14,-1.1979699277020472e-07,0.0038999952662663873,-1.386339998354913e-08,-0.005805015406649683
39,0.004,503.712,520.362,-0.00279856,-0.00162395,-0.000228495,-0.00223152,0.00399202,0.00399202,-0.00601251,9.35036e-14,-1.22177e-07,-1.50359e-08,0.00418166,0.003999998725384479,9.348077867343818e-14,-1.221769925230376e-07,0.003999998725384479,-1.503589985851761e-08,-0.0059944710330134265
40,0.0041,505.736,522.733,-0.00261785,-0.00164813,-0.00019924,-0.00219979,0.00409162,0.00409162,-0.00620325,-9.79955e-14,-1.24556e-07,-1.61992e-08,0.00435176,0.004100002105343004,-9.803269307440132e-14,-1.245559922979922e-07,0.004100002105343004,-1.6199199870392533e-08,-0.006184049566929084
41,0.0042,507.721,525.052,-0.00244903,-0.00166994,-0.000171247,-0.00216997,0.0041912,0.0041912,-0.00639415,-1.04042e-13,-1.26931e-07,-1.7353e-08,0.00452212,0.0041999953621343344,-1.0402789740737717e-13,-1.2693099193938906e-07,0.0041999953621343344,-1.7352999814868042e-08,-0.00637375092429604
42,0.0043,509.671,527.322,-0.00229118,-0.00168958,-0.000144435,-0.00214193,0.00429078,0.00429078,-0.00658518,-1.09957e-13,-1.29303e-07,-1.84975e-08,0.00469273,0.004299998576750008,-1.099120794378905e-13,-1.293029916471511e-07,0.004299998576750008,-1.8497499865155476e-08,-0.006563545217877831
43,0.0044,511.585,529.545,-0.00214334,-0.00170721,-0.000118719,-0.00211549,0.00439035,0.00439035,-0.00677636,-1.15746e-13,-1.3167e-07,-1.96324e-08,0.00486358,0.004400001706181378,-1.1579626146840383e-13,-1.3166999135449942e-07,0.004400001706181378,-1.9632399816948976e-08,-0.006753452245511937
44,0.0045,513.467,531.723,-0.00200474,-0.00172297,-9.40298e-05,-0.00209055,0.00448991,0.00448991,-0.00696766,-1.21414e-13,-1.34031e-07,-2.07581e-08,0.00503465,0.00450000474842005,-1.2145839889399213e-13,-1.3403099097253346e-07,0.00450000474842005,-2.0758099794626617e-08,-0.006943442136984834
45,0.0046,515.316,533.858,-0.00187461,-0.00173701,-7.02993e-05,-0.00206697,0.00458945,0.00458945,-0.00715909,-1.26967e-13,-1.36386e-07,-2.18744e-08,0.00520594,0.004599997655457155,-1.270095140171179e-13,-1.3638599072329782e-07,0.004599997655457155,-2.187439973599936e-08,-0.007133524759517895
46,0.0047,517.135,535.952,-0.00175231,-0.00174947,-4.74673e-05,-0.00204465,0.00468899,0.00468899,-0.00735064,1.35409e-13,-1.38734e-07,-2.29815e-08,0.00537744,0.004700000516283609,1.354472090042691e-13,-1.3873399040686962e-07,0.004700000516283609,-2.2981499703256247e-08,-0.007323690119181436
47,0.0048,518.923,538.005,-0.00163723,-0.00176044,-2.54779e-05,-0.0020235,0.00478852,0.00478852,-0.0075423,-1.37745e-13,-1.41074e-07,-2.40796e-08,0.00554914,0.004800003283890186,-1.3777867735598193e-13,-1.4107399004537058e-07,0.004800003283890186,-2.4079599758586312e-08,-0.007513928229632705
48,0.0049,520.683,540.02,-0.00152882,-0.00177006,-4.27999e-06,-0.00200342,0.00488803,0.00488803,-0.00773408,1.46383e-13,-1.43407e-07,-2.51688e-08,0.00572103,0.004899995907267529,1.4632739464559563e-13,-1.4340698972770127e-07,0.004899995907267529,-2.516879971103947e-08,-0.007704248958038784
49,0.005,522.415,541.999,-0.00142659,-0.00177841,1.61735e-05,-0.00198434,0.00498754,0.00498754,-0.00792596,-1.48113e-13,-1.45731e-07,-2.62492e-08,0.0058931,0.004999998481405754,-1.4810375148499588e-13,-1.4573098938708284e-07,0.004999998481405754,-2.624919970273254e-08,-0.007894632400777146
50,0.0051,524.121,543.941,-0.00133009,-0.0017856,3.59259e-05,-0.00196619,0.00508704,0.00508704,-0.00811793,-1.53153e-13,-1.48046e-07,-2.7321e-08,0.00606534,0.005100000956295148,-1.5309975509580909e-13,-1.480459890235153e-07,0.005100000956295148,-2.7320999573809956e-08,-0.008085068588592814
51,0.0052,525.8,545.85,-0.00123892,-0.00179171,5.50171e-05,-0.00194889,0.00518653,0.00518653,-0.00831001,-1.58102e-13,-1.50352e-07,-2.83844e-08,0.00623776,0.005200003329925984,-1.580957587066223e-13,-1.5035198874802091e-07,0.005200003329925984,-2.8384399608505362e-08,-0.0082755773115748
52,0.0053,527.455,547.726,-0.00115268,-0.00179681,7.34842e-05,-0.0019324,0.005286,0.005286,-0.00850217,-1.62962e-13,-1.52649e-07,-2.94394e-08,0.00641034,0.005299995547287661,-1.6298074001497298e-13,-1.5264898833855511e-07,0.005299995547287661,-2.943939958477415e-08,-0.008466128767868342
53,0.0054,529.085,549.569,-0.00107105,-0.00180099,9.13613e-05,-0.00191665,0.00538547,0.00538547,-0.00869443,1.72338e-13,-1.54936e-07,-3.04864e-08,0.00658308,0.005399997711369897,1.723066134218243e-13,-1.549359880392842e-07,0.005399997711369897,-3.0486399515972096e-08,-0.008656742745642654
54,0.0055,530.692,551.382,-0.00099371,-0.00180432,0.00010868,-0.00190159,0.00548493,0.00548493,-0.00888677,-1.72429e-13,-1.57213e-07,-3.15254e-08,0.00675597,0.005499999768162178,-1.724176357242868e-13,-1.572129876281636e-07,0.005499999768162178,-3.15253995131215e-08,-0.00884739937170742
55,0.0056,532.276,553.166,-0.000920368,-0.00180685,0.00012547,-0.00188719,0.00558438,0.00558438,-0.00907919,1.8211e-13,-1.5948e-07,-3.25567e-08,0.006929,0.0056000017156534465,1.8207657603852567e-13,-1.594799873272379e-07,0.0056000017156534465,-3.255669944746131e-08,-0.009038098607358491
56,0.0057,533.837,554.921,-0.000850761,-0.00180865,0.000141759,-0.00187339,0.00568382,0.00568382,-0.00927168,-1.81577e-13,-1.61736e-07,-3.35804e-08,0.00710218,0.005700003551833088,-1.816324868286756e-13,-1.617359869365842e-07,0.005700003551833088,-3.358039946110836e-08,-0.009228830506177066
57,0.0058,535.378,556.648,-0.000784647,-0.00180977,0.000157571,-0.00186016,0.00578324,0.00578324,-0.00946426,-1.86038e-13,-1.63982e-07,-3.45966e-08,0.00727549,0.005799995216689391,-1.8607337892717624e-13,-1.639819865451031e-07,0.005799995216689391,-3.4596599363112546e-08,-0.00941961484678433
58,0.0059,536.897,558.348,-0.000721803,-0.00181027,0.000172931,-0.00184747,0.00588266,0.00588266,-0.0096569,-1.90426e-13,-1.66217e-07,-3.56056e-08,0.00744893,0.005899996823211406,-1.9040324872321435e-13,-1.6621698617491631e-07,0.005899996823211406,-3.560559935777974e-08,-0.009610421873057384
59,0.006,538.397,560.023,-0.000662021,-0.00181019,0.00018786,-0.00183527,0.00598207,0.00598207,-0.00984961,-1.94743e-13,-1.68442e-07,-3.66075e-08,0.00762249,0.005999998312387289,-1.9473311851925246e-13,-1.6844198580390213e-07,0.005999998312387289,-3.660749936518215e-08,-0.009801261459719268
60,0.0061,539.876,561.672,-0.000605112,-0.00180957,0.00020238,-0.00182355,0.00608147,0.00608147,-0.0100424,-1.98992e-13,-1.70655e-07,-3.76024e-08,0.00779618,0.006099999682205315,-1.9895196601282805e-13,-1.7065498547630398e-07,0.006099999682205315,-3.7602399305392e-08,-0.00999214347385946
61,0.0062,541.337,563.297,-0.000550899,-0.00180846,0.000216509,-0.00181227,0.00618086,0.00618086,-0.0102352,-2.03175e-13,-1.72858e-07,-3.85905e-08,0.00796998,0.0062000009306533155,-2.0317081350640365e-13,-1.7285798503685612e-07,0.0062000009306533155,-3.859049924059832e-08,-0.010182998589573389
62,0.0063,542.779,564.898,-0.000499219,-0.0018069,0.000230266,-0.0018014,0.00628024,0.00628024,-0.0104281,-2.07293e-13,-1.7505e-07,-3.9572e-08,0.0081439,0.006300002055719567,-2.0727863869751673e-13,-1.7504998472972488e-07,0.006300002055719567,-3.957199923299015e-08,-0.010373915874581252
63,0.0064,544.203,566.477,-0.000449922,-0.00180491,0.000243668,-0.00179093,0.00637961,0.00637961,-0.0106211,2.18371e-13,-1.7723e-07,-4.05471e-08,0.00831793,0.006400003055391235,2.1826984664130578e-13,-1.7722998424396508e-07,0.006400003055391235,-4.054709912271193e-08,-0.010564895278712183
64,0.0065,545.609,568.033,-0.000402868,-0.00180254,0.00025673,-0.00178083,0.00647897,0.00647897,-0.0108141,-2.15344e-13,-1.794e-07,-4.15157e-08,0.00849206,0.0065000039276557064,-2.1538326677728037e-13,-1.7939998386840017e-07,0.0065000039276557064,-4.151569910071373e-08,-0.01075583782737477
65,0.0066,546.998,569.568,-0.000357926,-0.00179982,0.000269468,-0.00177108,0.00657832,0.00657832,-0.0110072,-2.19279e-13,-1.81559e-07,-4.24782e-08,0.0086663,0.006600004670500592,-2.1926904736346842e-13,-1.8155898351412958e-07,0.006600004670500592,-4.247819906932904e-08,-0.010946842433002146
66,0.0067,548.371,571.082,-0.000314977,-0.00179676,0.000281895,-0.00176166,0.00667766,0.00667765,-0.0112003,2.30869e-13,-1.83706e-07,-4.34346e-08,0.00884063,0.006700005281912835,2.3092638912203256e-13,-1.8370598309225272e-07,0.006699995214912713,-4.343459902855784e-08,-0.0111378101592009
67,0.0068,549.727,572.576,-0.000273908,-0.00179341,0.000294024,-0.00175255,0.00677698,0.00677698,-0.0113935,-2.26979e-13,-1.85842e-07,-4.43851e-08,0.00901506,0.006799995691878946,-2.26929586233382e-13,-1.8584198269167018e-07,0.006799995691878946,-4.438509904058918e-08,-0.011328839880212938
68,0.0069,551.067,574.05,-0.000234613,-0.00178977,0.000305869,-0.00174374,0.0068763,0.0068763,-0.0115867,-2.30746e-13,-1.87968e-07,-4.53298e-08,0.00918958,0.006899996033385758,-2.3070434451710753e-13,-1.8796798229026024e-07,0.006899996033385758,-4.5329799025495277e-08,-0.011519832697847843
69,0.007,552.392,575.505,-0.000196997,-0.00178589,0.00031744,-0.00173521,0.00697561,0.00697561,-0.01178,-2.34459e-13,-1.90082e-07,-4.62688e-08,0.0093642,0.00699999623741987,-2.3447910280083306e-13,-1.9008198193226633e-07,0.00699999623741987,-4.626879890334834e-08,-0.011710887448150742
70,0.0071,553.701,576.942,-0.000160967,-0.00178177,0.000328749,-0.00172695,0.00707491,0.00707491,-0.0119733,-2.38121e-13,-1.92185e-07,-4.72022e-08,0.0095389,0.007099996301967115,-2.381428387820961e-13,-1.9218498148454444e-07,0.007099996301967115,-4.72021989272875e-08,-0.011901905271139657
71,0.0072,554.996,578.36,-0.00012644,-0.00177744,0.000339806,-0.00171894,0.0071742,0.0071742,-0.0121667,-2.41731e-13,-1.94277e-07,-4.81303e-08,0.00971368,0.007199996225013994,-2.416955524608966e-13,-1.9427698116913916e-07,0.007199996225013994,-4.8130298857529397e-08,-0.012092984964658271
72,0.0073,556.277,579.76,-9.33349e-05,-0.00177292,0.000350622,-0.00171117,0.00727348,0.00727348,-0.0123601,-2.45292e-13,-1.96358e-07,-4.9053e-08,0.00988855,0.0072999960045461165,-2.452482661396971e-13,-1.963579807640059e-07,0.0072999960045461165,-4.905299877400182e-08,-0.012284027706937484
73,0.0074,557.543,581.144,-6.15784e-05,-0.00176822,0.000361205,-0.00170363,0.00737275,0.00737275,-0.0125535,-2.48805e-13,-1.98428e-07,-4.99704e-08,0.0100635,0.007399995638549317,-2.488009798184976e-13,-1.9842798026914465e-07,0.007399995638549317,-4.997039870779929e-08,-0.012475033505122912
74,0.0075,558.795,582.51,-3.11008e-05,-0.00176336,0.000371564,-0.0016963,0.00747201,0.00747201,-0.012747,2.6222e-13,-2.00487e-07,-5.08828e-08,0.0102385,0.007499995125008763,2.62234678416462e-13,-2.0048697990660003e-07,0.007499995125008763,-5.088279875220536e-08,-0.012666101099753746
75,0.0076,560.034,583.861,-1.83689e-06,-0.00175836,0.000381707,-0.00168919,0.00757127,0.00757126,-0.0129405,2.66111e-13,-2.02535e-07,-5.17902e-08,0.0104136,0.007600004537909877,2.660094367001875e-13,-2.025349794543274e-07,0.0075999944619098425,-5.1790198685175426e-08,-0.012857131726381699
76,0.0077,561.26,585.195,2.62743e-05,-0.00175323,0.000391644,-0.00168227,0.00767051,0.00767051,-0.0131341,-2.59065e-13,-2.04573e-07,-5.26928e-08,0.0105888,0.007700003724237847,-2.59015031645049e-13,-2.045729791122497e-07,0.007700003724237847,-5.2692798568898525e-08,-0.013048224087342075
77,0.0078,562.473,586.514,5.329e-05,-0.00174797,0.00040138,-0.00167553,0.00776974,0.00776974,-0.0133277,2.73217e-13,-2.06599e-07,-5.35905e-08,0.010764,0.007800002756977342,2.731148640577885e-13,-2.0659897870256572e-07,0.007800002756977342,-5.359049859432474e-08,-0.013239279456402353
78,0.0079,563.674,587.818,7.92642e-05,-0.00174261,0.000410924,-0.00166898,0.00786896,0.00786896,-0.0135213,-2.65683e-13,-2.08615e-07,-5.44835e-08,0.0109393,0.007900001634113085,-2.6567636979279996e-13,-2.0861497829205433e-07,0.007900001634113085,-5.448349849057621e-08,-0.01343029784072336
79,0.008,564.862,589.108,0.000104247,-0.00173716,0.000420281,-0.0016626,0.00796817,0.00796817,-0.013715,-2.68929e-13,-2.1062e-07,-5.53719e-08,0.0111147,0.0080000003536298,-2.688960165642129e-13,-2.1061997779181496e-07,0.0080000003536298,-5.537189851079205e-08,-0.013621377885331798
80,0.0081,566.038,590.383,0.000128287,-0.00173162,0.00042946,-0.00165638,0.00806737,0.00806737,-0.0139087,-2.72133e-13,-2.12615e-07,-5.62558e-08,0.0112901,0.00809999891351132,-2.7211566333562587e-13,-2.126149774017705e-07,0.00809999891351132,-5.625579846402218e-08,-0.013812420921320068
81,0.0082,567.203,591.643,0.000151429,-0.00172601,0.000438465,-0.00165032,0.00816656,0.00816656,-0.0141024,-2.75298e-13,-2.14599e-07,-5.71353e-08,0.0114657,0.008199997311742147,-2.753353101070388e-13,-2.1459897692199803e-07,0.008199997311742147,-5.713529838136111e-08,-0.014003426955855991
82,0.0083,568.355,592.891,0.000173713,-0.00172032,0.000447302,-0.00164441,0.00826574,0.00826574,-0.0142961,-2.78423e-13,-2.16573e-07,-5.80104e-08,0.0116412,0.008299995546306116,-2.7844393457598926e-13,-2.1657297655242047e-07,0.008299995546306116,-5.801039826280885e-08,-0.014194395996105946
83,0.0084,569.497,594.124,0.000195182,-0.00171459,0.000455978,-0.00163865,0.00836492,0.00836492,-0.0144899,-2.81509e-13,-2.18536e-07,-5.88813e-08,0.0118168,0.008400003699186698,-2.815525590449397e-13,-2.1853597609311493e-07,0.008400003699186698,-5.888129828157673e-08,-0.014385426610697527
84,0.0085,570.627,595.345,0.000215871,-0.0017088,0.000464497,-0.00163301,0.00846408,0.00846408,-0.0146837,2.97496e-13,-2.20489e-07,-5.9748e-08,0.0119925,0.008500001601367435,2.9753977059954195e-13,-2.2048897574400428e-07,0.008500001601367435,-5.974799821562016e-08,-0.014576420207143115
85,0.0086,571.747,596.553,0.000235816,-0.00170297,0.000472865,-0.00162752,0.00856323,0.00856323,-0.0148776,-2.87569e-13,-2.22432e-07,-6.06106e-08,0.0121682,0.008599999333831931,-2.8754776337791554e-13,-2.2243197528304393e-07,0.008599999333831931,-6.061059820705594e-08,-0.014767475315873524
86,0.0087,572.855,597.749,0.000255051,-0.0016971,0.000481086,-0.00162214,0.00866237,0.00866237,-0.0150714,-2.90545e-13,-2.24364e-07,-6.14691e-08,0.012344,0.008699996894563133,-2.9054536554440347e-13,-2.243639748433779e-07,0.008699996894563133,-6.146909814486179e-08,-0.014958394878454073
87,0.0088,573.954,598.932,0.000273608,-0.00169121,0.000489165,-0.00161689,0.00876151,0.00876151,-0.0152653,3.07492e-13,-2.26286e-07,-6.23237e-08,0.0125199,0.008800004369543757,3.0753177782116836e-13,-2.2628597440288445e-07,0.008800004369543757,-6.232369809122673e-08,-0.015149375929475961
88,0.0089,575.042,600.103,0.000291516,-0.00168529,0.000497106,-0.00161176,0.00886063,0.00886063,-0.0154592,-2.96391e-13,-2.28199e-07,-6.31744e-08,0.0126958,0.008900001581756856,-2.964295475749168e-13,-2.2819897393944188e-07,0.008900001581756856,-6.317439804615077e-08,-0.015340319952861892
89,0.009,576.12,601.263,0.000308803,-0.00167935,0.000504915,-0.00160673,0.00895974,0.00895974,-0.0156531,-2.99262e-13,-2.30101e-07,-6.40213e-08,0.0128717,0.008999998616184834,-2.993161274389422e-13,-2.3010097349729364e-07,0.008999998616184834,-6.402129792970612e-08,-0.015531226955791011
90,0.0091,577.189,602.411,0.000325496,-0.0016734,0.000512594,-0.00160182,0.00905884,0.00905884,-0.0158471,-3.021e-13,-2.31994e-07,-6.48645e-08,0.0130477,0.009099995470809974,-3.020916850005051e-13,-2.3199397314321857e-07,0.009099995470809974,-6.486449788400961e-08,-0.015722195373226167
91,0.0092,578.247,603.549,0.000341621,-0.00166744,0.000520147,-0.001597,0.00915794,0.00915794,-0.016041,-3.04905e-13,-2.33876e-07,-6.5704e-08,0.0132237,0.009200002235614457,-3.04867242562068e-13,-2.338759726994155e-07,0.009200002235614457,-6.570399779803893e-08,-0.015913028337689483
92,0.0093,579.296,604.675,0.000357202,-0.00166147,0.000527579,-0.00159229,0.00925702,0.00925702,-0.016235,3.2336e-13,-2.35749e-07,-6.65398e-08,0.0133998,0.009299998725580405,3.232969447708456e-13,-2.3574897223266333e-07,0.009299998725580405,-6.653979778281638e-08,-0.016103922692840777
93,0.0094,580.336,605.79,0.000372261,-0.0016555,0.000534893,-0.00158767,0.00935609,0.00935609,-0.016429,-3.1042e-13,-2.37612e-07,-6.73721e-08,0.0135759,0.009399995029689245,-3.1041835768519377e-13,-2.3761197176508375e-07,0.009399995029689245,-6.73720976784864e-08,-0.01629478001807927
94,0.0095,581.367,606.895,0.000386821,-0.00164954,0.000542093,-0.00158314,0.00945516,0.00945516,-0.016623,-3.13131e-13,-2.39466e-07,-6.82009e-08,0.0137521,0.009500001240922762,-3.1308289294429414e-13,-2.3946597127455505e-07,0.009500001240922762,-6.820089770709359e-08,-0.01648560032058788
95,0.0096,582.389,607.99,0.000400901,-0.00164358,0.000549181,-0.00157871,0.00955421,0.00955421,-0.0168171,-3.15812e-13,-2.4131e-07,-6.90262e-08,0.0139283,0.009599997168262098,-3.1585845050585704e-13,-2.4130997089422124e-07,0.009599997168262098,-6.902619764659335e-08,-0.01667648193990523
96,0.0097,583.402,609.075,0.000414521,-0.00163764,0.00055616,-0.00157435,0.00965326,0.00965326,-0.0170111,-3.18462e-13,-2.43145e-07,-6.98482e-08,0.0141046,0.00970000300068885,-3.184119634624949e-13,-2.431449704909383e-07,0.00970000300068885,-6.984819755917471e-08,-0.016867228199423434
97,0.0098,584.406,610.15,0.000427699,-0.0016317,0.000563035,-0.00157008,0.00975229,0.00975229,-0.0172052,-3.21084e-13,-2.4497e-07,-7.06668e-08,0.0142808,0.009799998543183586,-3.2107649872159527e-13,-2.4496996997580567e-07,0.009799998543183586,-7.066679752476546e-08,-0.017058035751957967
98,0.0099,585.402,611.215,0.000440454,-0.00162578,0.000569807,-0.00156589,0.00985132,0.00985132,-0.0173993,-3.23677e-13,-2.46786e-07,-7.14821e-08,0.0144572,0.009900003988727146,-3.2363001167823313e-13,-2.467859695487462e-07,0.009900003988727146,-7.148209746343781e-08,-0.01724880627234049
99,0.01,586.39,612.27,0.000452802,-0.00161988,0.000576479,-0.00156177,0.00995033,0.00995033,-0.0175934,-3.26242e-13,-2.48593e-07,-7.22942e-08,0.0146335,0.009999999138300186,-3.262945469373335e-13,-2.485929690987376e-07,0.009999999138300186,-7.229419740628629e-08,-0.017439539767758472
100,0.0101,587.369,613.317,0.000464758,-0.00161399,0.000583055,-0.00155773,0.0100493,0.0100493,-0.0177875,-3.28779e-13,-2.50391e-07,-7.31031e-08,0.0148099,0.01009996378488398,-3.2873703759150885e-13,-2.503909686257799e-07,0.01009996378488398,-7.310309735331089e-08,-0.017630236245397723
101,0.0102,588.34,614.354,0.000476339,-0.00160813,0.000589537,-0.00155376,0.0101483,0.0101483,-0.0179816,-3.31289e-13,-2.52179e-07,-7.39089e-08,0.0149864,0.01019996863145689,-3.312905505481467e-13,-2.521789681519948e-07,0.01019996863145689,-7.390889722458382e-08,-0.017820895712442608
102,0.0103,589.303,615.382,0.000487559,-0.00160229,0.000595926,-0.00154986,0.0102473,0.0102473,-0.0181758,-3.33772e-13,-2.53959e-07,-7.47116e-08,0.0151629,0.010299983378999622,-3.3373304120232206e-13,-2.5395896774416116e-07,0.010299983378999622,-7.471159724214971e-08,-0.018011616374919548
103,0.0104,590.259,616.402,0.00049843,-0.00159648,0.000602227,-0.00154603,0.0103463,0.0103463,-0.0183699,-3.36229e-13,-2.5573e-07,-7.55113e-08,0.0153394,0.010400008028492724,-3.361755318564974e-13,-2.557299673133784e-07,0.010400008028492724,-7.551129710403615e-08,-0.01820220182326504
104,0.0105,591.207,617.412,0.000508968,-0.00159069,0.00060844,-0.00154226,0.0104453,0.0104453,-0.0185641,-3.38661e-13,-2.57492e-07,-7.6308e-08,0.0155159,0.01050004258091608,-3.3861802251067274e-13,-2.574919668596465e-07,0.01050004258091608,-7.630799714331005e-08,-0.018392848443285037
105,0.0106,592.147,618.415,0.000519183,-0.00158494,0.000614568,-0.00153855,0.0105442,0.0105442,-0.0187583,-3.41067e-13,-2.59245e-07,-7.71017e-08,0.0156925,0.010599985977246762,-3.410605131648481e-13,-2.5924496638296546e-07,0.010599985977246762,-7.71016970269045e-08,-0.018583458043326173
106,0.0107,593.08,619.409,0.000529088,-0.00157921,0.000620614,-0.0015349,0.0106432,0.0106432,-0.0189525,-3.43448e-13,-2.60989e-07,-7.78925e-08,0.0158691,0.010700040328467164,-3.4350300381902343e-13,-2.609889659943576e-07,0.010700040328467164,-7.789249700795864e-08,-0.01877403063057692
107,0.0108,594.006,620.395,0.000538695,-0.00157351,0.000626579,-0.00153131,0.0107421,0.0107421,-0.0191467,-3.45804e-13,-2.62725e-07,-7.86805e-08,0.0160457,0.010800003505553324,-3.4583447217073626e-13,-2.627249654496566e-07,0.010800003505553324,-7.868049689552237e-08,-0.018964566212224754
108,0.0109,594.925,621.373,0.000548014,-0.00156784,0.000632465,-0.00152778,0.010841,0.010841,-0.0193409,3.6929e-13,-2.64452e-07,-7.94656e-08,0.0162224,0.010899976569486602,3.6926017799032707e-13,-2.644519649930288e-07,0.010899976569486602,-7.946559688054577e-08,-0.019155064795455146
109,0.011,595.836,622.343,0.000557056,-0.00156221,0.000638274,-0.0015243,0.0109399,0.0109399,-0.0195351,-3.50446e-13,-2.66171e-07,-8.0248e-08,0.0163991,0.010999959521244662,-3.504974088741619e-13,-2.6617096460235246e-07,0.010999959521244662,-8.02479968031733e-08,-0.019345526387452683
110,0.0111,596.741,623.305,0.000565831,-0.00155661,0.000644009,-0.00152088,0.0110388,0.0110388,-0.0197293,-3.52731e-13,-2.67882e-07,-8.10276e-08,0.0165758,0.011099952361805832,-3.5271785492341223e-13,-2.6788196416660526e-07,0.011099952361805832,-8.102759674333271e-08,-0.019535950995400397
111,0.0112,597.638,624.26,0.000574347,-0.00155104,0.00064967,-0.00151751,0.0111377,0.0111377,-0.0199235,-3.54994e-13,-2.69584e-07,-8.18044e-08,0.0167525,0.011199955092147995,-3.5504932327512506e-13,-2.6958396370790894e-07,0.011199955092147995,-8.180439670102402e-08,-0.019726338626479767
112,0.0113,598.529,625.207,0.000582615,-0.00154551,0.00065526,-0.00151418,0.0112366,0.0112366,-0.0201178,-3.57234e-13,-2.71277e-07,-8.25787e-08,0.0169293,0.01129996771324926,-3.5726976932437537e-13,-2.712769632262635e-07,0.01129996771324926,-8.257869654748617e-08,-0.01991678729619717
113,0.0114,599.414,626.147,0.000590644,-0.00154001,0.000660781,-0.00151091,0.0113355,0.0113355,-0.020312,-3.59452e-13,-2.72963e-07,-8.33502e-08,0.0171061,0.01139999022608773,-3.594902153736257e-13,-2.729629627884478e-07,0.01139999022608773,-8.335019652250253e-08,-0.020107100976047843
114,0.0115,600.292,627.079,0.00059844,-0.00153455,0.000666233,-0.00150768,0.0114344,0.0114344,-0.0205063,-3.61648e-13,-2.74641e-07,-8.41192e-08,0.0172829,0.01150002263164196,-3.615996391204135e-13,-2.7464096230556123e-07,0.01150002263164196,-8.411919649731203e-08,-0.020297475670827625
115,0.0116,601.163,628.005,0.000606013,-0.00152913,0.000671619,-0.0015045,0.0115332,0.0115332,-0.0207005,-3.63823e-13,-2.7631e-07,-8.48856e-08,0.0174597,0.01159996377088901,-3.638200851696638e-13,-2.7630996179972556e-07,0.01159996377088901,-8.488559644082017e-08,-0.02048771542817407
116,0.0117,602.028,628.923,0.00061337,-0.00152375,0.000676939,-0.00150136,0.0116321,0.0116321,-0.0208948,-3.65976e-13,-2.77972e-07,-8.56495e-08,0.0176366,0.011700015954804854,-3.659295089164516e-13,-2.779719613377196e-07,0.011700015954804854,-8.564949638412145e-08,-0.020678016176749914
117,0.0118,602.887,629.835,0.000620518,-0.0015184,0.000682196,-0.00149826,0.0117309,0.0117309,-0.0210891,-3.68109e-13,-2.79625e-07,-8.64109e-08,0.0178135,0.0117999768543684,-3.681499549657019e-13,-2.7962496085276456e-07,0.0117999768543684,-8.641089621619358e-08,-0.020868279953482283
118,0.0119,603.74,630.74,0.000627465,-0.00151308,0.000687391,-0.00149521,0.0118298,0.0118298,-0.0212834,-3.70221e-13,-2.81271e-07,-8.71698e-08,0.0179904,0.011900048820556508,-3.702593787124897e-13,-2.8127096041163924e-07,0.011900048820556508,-8.716979615908116e-08,-0.021058506765554097
119,0.012,604.587,631.638,0.000634217,-0.00150781,0.000692525,-0.0014922,0.0119286,0.0119286,-0.0214777,-3.72312e-13,-2.82909e-07,-8.79262e-08,0.0181673,0.012000029484343422,-3.72257780156815e-13,-2.8290896003646537e-07,0.012000029484343422,-8.792619610176189e-08,-0.021248696620146834
120,0.0121,605.428,632.53,0.00064078,-0.00150257,0.0006976,-0.00148922,0.0120274,0.0120274,-0.0216719,-3.74384e-13,-2.84539e-07,-8.86803e-08,0.0183443,0.012100020026707847,-3.743672039036028e-13,-2.8453895950519836e-07,0.012100020026707847,-8.86802961064248e-08,-0.021438751668320766
121,0.0122,606.263,633.415,0.000647162,-0.00149738,0.000702616,-0.00148629,0.0121262,0.0121262,-0.0218662,-3.76436e-13,-2.86161e-07,-8.94319e-08,0.0185213,0.012200020448625892,-3.764766276503906e-13,-2.861609590398828e-07,0.012200020448625892,-8.943189599985857e-08,-0.021628867648506023
122,0.0123,607.092,634.294,0.000653367,-0.00149222,0.000707576,-0.00148339,0.012225,0.012225,-0.0220605,4.04736e-13,-2.87776e-07,-9.01813e-08,0.0186983,0.012300030751073887,4.0478731477833207e-13,-2.87775958618397e-07,0.012300030751073887,-9.018129598636904e-08,-0.021818946692744756
123,0.0124,607.916,635.167,0.000659401,-0.00148709,0.00071248,-0.00148053,0.0123237,0.0123237,-0.0222548,-3.80483e-13,-2.89384e-07,-9.09283e-08,0.0188753,0.012399949695027779,-3.8047343053904115e-13,-2.893839581297186e-07,0.012399949695027779,-9.092829589274487e-08,-0.022008988808213004
124,0.0125,608.733,636.033,0.000665271,-0.00148201,0.000717329,-0.0014777,0.0124225,0.0124225,-0.0224491,-3.82479e-13,-2.90984e-07,-9.1673e-08,0.0190523,0.01249997975146111,-3.8247183198336643e-13,-2.909839577069917e-07,0.01249997975146111,-9.167299575008059e-08,-0.022198994002085137
125,0.0126,609.546,636.894,0.000670981,-0.00147696,0.000722125,-0.00147491,0.0125213,0.0125213,-0.0226434,-3.84455e-13,-2.92576e-07,-9.24154e-08,0.0192294,0.012600019691352271,-3.844702334276917e-13,-2.9257595723919394e-07,0.012600019691352271,-9.24153957804208e-08,-0.02238896228153453
126,0.0127,610.353,637.748,0.000676536,-0.00147195,0.000726868,-0.00147215,0.01262,0.01262,-0.0228377,-3.86414e-13,-2.94161e-07,-9.31556e-08,0.0194064,0.012699968245675652,-3.86468634872017e-13,-2.941609567042036e-07,0.012699968245675652,-9.31555956817931e-08,-0.02257889365373289
127,0.0128,611.154,638.597,0.000681941,-0.00146698,0.000731561,-0.00146943,0.0127188,0.0127188,-0.0230321,-3.88354e-13,-2.95739e-07,-9.38935e-08,0.0195835,0.012800027945406134,-3.8835601401387976e-13,-2.9573895632406533e-07,0.012800027945406134,-9.38934956451476e-08,-0.02276888584896697
128,0.0129,611.951,639.44,0.000687202,-0.00146205,0.000736203,-0.00146673,0.0128175,0.0128175,-0.0232264,-3.90277e-13,-2.97309e-07,-9.46293e-08,0.0197606,0.012899996241518608,-3.902433931557425e-13,-2.973089557878339e-07,0.012899996241518608,-9.462929551062871e-08,-0.022958743409187243
129,0.013,612.742,640.277,0.000692321,-0.00145716,0.000740796,-0.00146407,0.0129162,0.0129162,-0.0234207,-3.92182e-13,-2.98873e-07,-9.53629e-08,0.0199377,0.012999974404988901,-3.921307722976053e-13,-2.988729553843328e-07,0.012999974404988901,-9.536289546918653e-08,-0.023148564083667056
130,0.0131,613.528,641.109,0.000697305,-0.0014523,0.00074534,-0.00146144,0.0130149,0.0130149,-0.023615,-3.9407e-13,-3.00429e-07,-9.60943e-08,0.0201149,0.013099962436790902,-3.9401815143946806e-13,-3.004289548247385e-07,0.013099962436790902,-9.609429540979875e-08,-0.023338347879572785
131,0.0132,614.309,641.935,0.000702156,-0.00144748,0.000749838,-0.00145884,0.0131136,0.0131136,-0.0238093,-3.95941e-13,-3.01978e-07,-9.68237e-08,0.020292,0.01319996033789872,-3.959055305813308e-13,-3.019779544199963e-07,0.01319996033789872,-9.68236952836321e-08,-0.023528094804069144
132,0.0133,615.084,642.755,0.00070688,-0.0014427,0.000754289,-0.00145626,0.0132123,0.0132123,-0.0240036,-3.97796e-13,-3.03521e-07,-9.75509e-08,0.0204692,0.013299968109286242,-3.977929097231936e-13,-3.035209539259398e-07,0.013299968109286242,-9.755089525054217e-08,-0.023717804864319514
133,0.0134,615.855,643.57,0.000711479,-0.00143795,0.000758694,-0.00145371,0.013311,0.013311,-0.0241979,-3.99634e-13,-3.05056e-07,-9.82761e-08,0.0206463,0.013399985751928245,-3.9968028886505635e-13,-3.0505595349783476e-07,0.013399985751928245,-9.827609515067337e-08,-0.023907478067485943
134,0.0135,616.621,644.38,0.000715958,-0.00143324,0.000763055,-0.0014512,0.0134097,0.0134097,-0.0243923,-4.01455e-13,-3.06584e-07,-9.89992e-08,0.0208235,0.013500013266798616,-4.014566457044566e-13,-3.0658395300253716e-07,0.013500013266798616,-9.89991950639535e-08,-0.02409721201101278
135,0.0136,617.383,645.185,0.000720319,-0.00142857,0.000767373,-0.0014487,0.0135083,0.0135083,-0.0245866,-4.03261e-13,-3.08106e-07,-9.97202e-08,0.0210007,0.01359994929487196,-4.0323300254385686e-13,-3.0810595252894757e-07,0.01359994929487196,-9.972019499038254e-08,-0.02428681150253198
136,0.0137,618.139,645.984,0.000724568,-0.00142393,0.000771647,-0.00144624,0.013607,0.013607,-0.0247809,4.36716e-13,-3.0962e-07,-1.00439e-07,0.021178,0.013699996547117843,4.367617378875366e-13,-3.0961995212130944e-07,0.013699996547117843,-1.0043899500988829e-07,-0.02447637415844861
137,0.0138,618.891,646.779,0.000728706,-0.00141933,0.000775879,-0.00144379,0.0137056,0.0137056,-0.0249752,4.3861e-13,-3.11128e-07,-1.01156e-07,0.0213552,0.013799952294514917,4.3853809472693683e-13,-3.11127951624357e-07,0.013799952294514917,-1.0115599491378191e-07,-0.024665899985919282
138,0.0139,619.638,647.568,0.000732738,-0.00141476,0.00078007,-0.00144138,0.0138043,0.0138043,-0.0251695,-4.08583e-13,-3.1263e-07,-1.01871e-07,0.0215324,0.013900019288031196,-4.085620730620576e-13,-3.1262995114911263e-07,0.013900019288031196,-1.0187099486191897e-07,-0.024855388992098937
139,0.014,620.38,648.353,0.000736666,-0.00141023,0.000784221,-0.00143899,0.0139029,0.0139029,-0.0253638,-4.10326e-13,-3.14124e-07,-1.02585e-07,0.0217097,0.013999994758642664,-4.1033842990145786e-13,-3.141239506287974e-07,0.013999994758642664,-1.0258499472115545e-07,-0.025044841184141298
140,0.0141,621.119,649.132,0.000740493,-0.00140574,0.000788331,-0.00143662,0.0140015,0.0140015,-0.0255581,4.45255e-13,-3.15613e-07,-1.03296e-07,0.0218869,0.014099980087321606,4.4519943287468777e-13,-3.1561295021909075e-07,0.014099980087321606,-1.032959946467571e-07,-0.025234256569198643
141,0.0142,621.852,649.907,0.000744223,-0.00140128,0.000792403,-0.00143427,0.0141001,0.0141001,-0.0257525,-4.13768e-13,-3.17094e-07,-1.04005e-07,0.0220642,0.014199975275039911,-4.1378012127779584e-13,-3.1709394976431327e-07,0.014199975275039911,-1.0400499461660218e-07,-0.02542373261205344
142,0.0143,622.581,650.677,0.000747857,-0.00139685,0.000796436,-0.00143195,0.0141987,0.0141987,-0.0259468,4.49164e-13,-3.18569e-07,-1.04713e-07,0.0222415,0.014299980322769912,4.4919623576333834e-13,-3.185689492202215e-07,0.014299980322769912,-1.0471299449754667e-07,-0.025613074385657963
143,0.0144,623.306,651.443,0.000751399,-0.00139246,0.000800431,-0.00142965,0.0142973,0.0142973,-0.0261411,4.51478e-13,-3.20038e-07,-1.05418e-07,0.0224188,0.01439999523148372,4.5141668181258865e-13,-3.2003794880886005e-07,0.01439999523148372,-1.0541799444485633e-07,-0.025802379373729645
144,0.0145,624.027,652.203,0.000754851,-0.0013881,0.000804389,-0.00142737,0.0143959,0.0143959,-0.0263354,-4.18821e-13,-3.215e-07,-1.06122e-07,0.0225961,0.014500020002153668,-4.1877612488860905e-13,-3.2149994833030604e-07,0.014500020002153668,-1.0612199441428771e-07,-0.025991647583415323
145,0.0146,624.743,652.96,0.000758216,-0.00138378,0.000808311,-0.00142511,0.0144944,0.0144944,-0.0265297,-4.20477e-13,-3.22956e-07,-1.06824e-07,0.0227734,0.014599953175751912,-4.204414594255468e-13,-3.2295594787346005e-07,0.014599953175751912,-1.0682399431694023e-07,-0.02618087902186028
146,0.0147,625.456,653.711,0.000761497,-0.00137949,0.000812198,-0.00142288,0.014593,0.014593,-0.026724,-4.22118e-13,-3.24406e-07,-1.07524e-07,0.0229507,0.014699997663247144,-4.221067939624845e-13,-3.2440594732729977e-07,0.014699997663247144,-1.0752399426383619e-07,-0.026370073696208585
147,0.0148,626.164,654.459,0.000764694,-0.00137523,0.000816049,-0.00142066,0.0146915,0.0146915,-0.0269183,-4.23747e-13,-3.25849e-07,-1.08222e-07,0.0231281,0.014799950535615114,-4.2377212849942225e-13,-3.2584894693599153e-07,0.014799950535615114,-1.0822199414395328e-07,-0.02655923161360263
148,0.0149,626.868,655.201,0.000767812,-0.001371,0.000819865,-0.00141846,0.0147901,0.0147901,-0.0271126,4.61427e-13,-3.27287e-07,-1.08918e-07,0.0233054,0.014900014743822299,4.614086890342151e-13,-3.272869464332473e-07,0.014900014743822299,-1.0891799406831382e-07,-0.026748352781183704
149,0.015,627.568,655.94,0.000770852,-0.00136681,0.000823648,-0.00141628,0.0148886,0.0148886,-0.0273069,-4.26962e-13,-3.28718e-07,-1.09613e-07,0.0234828,0.014999987318843111,-4.269917752708352e-13,-3.287179459743328e-07,0.014999987318843111,-1.0961299401479607e-07,-0.02693743720609154
150,0.0151,628.263,656.674,0.000773815,-0.00136265,0.000827397,-0.00141413,0.0149871,0.0149871,-0.0275011,-4.2855e-13,-3.30143e-07,-1.10306e-07,0.0236601,0.015099969741647623,-4.285460875053104e-13,-3.301429455371263e-07,0.015099969741647623,-1.1030599389449947e-07,-0.02712638760810826
151,0.0152,628.956,657.404,0.000776705,-0.00135852,0.000831113,-0.00141199,0.0150856,0.0150856,-0.0276954,-4.30125e-13,-3.31562e-07,-1.10997e-07,0.0238375,0.015199962013205726,-4.3010039973978564e-13,-3.3156194501060554e-07,0.015199962013205726,-1.109969938184463e-07,-0.027315398587984596
152,0.0153,629.644,658.13,0.000779523,-0.00135442,0.000834797,-0.00140986,0.0151841,0.0151841,-0.0278897,-4.31687e-13,-3.32975e-07,-1.11687e-07,0.0240149,0.015299964134487531,-4.3165471197426086e-13,-3.329749446168151e-07,0.015299964134487531,-1.1168699376451485e-07,-0.027504372846595238
153,0.0154,630.328,658.852,0.000782272,-0.00135035,0.000838449,-0.00140776,0.0152826,0.0152826,-0.028084,-4.33236e-13,-3.34382e-07,-1.12374e-07,0.0241922,0.015399976106463598,-4.332090242087361e-13,-3.3438194413371036e-07,0.015399976106463598,-1.1237399366592626e-07,-0.027693310391074366
154,0.0155,631.009,659.569,0.000784952,-0.00134631,0.00084207,-0.00140567,0.0153811,0.0153811,-0.0282783,-4.34772e-13,-3.35783e-07,-1.1306e-07,0.0243696,0.015499997930104037,-4.347633364432113e-13,-3.3578294367231365e-07,0.015499997930104037,-1.130599935894594e-07,-0.02788221122855472
155,0.0156,631.685,660.283,0.000787566,-0.0013423,0.00084566,-0.0014036,0.0154796,0.0154796,-0.0284725,-4.36296e-13,-3.37178e-07,-1.13745e-07,0.024547,0.015600029606379184,-4.363176486776865e-13,-3.3717794312160265e-07,0.015600029606379184,-1.1374499353511425e-07,-0.028070978173270533
156,0.0157,632.359,660.993,0.000790115,-0.00133832,0.000849221,-0.00140155,0.015578,0.015578,-0.0286668,-4.37807e-13,-3.38568e-07,-1.14427e-07,0.0247244,0.015699969566257854,-4.377609386096992e-13,-3.3856794268150026e-07,0.015699969566257854,-1.1442699343611196e-07,-0.028259805637029234
157,0.0158,633.028,661.698,0.000792601,-0.00133437,0.000852751,-0.00139951,0.0156765,0.0156765,-0.028861,-4.39307e-13,-3.39951e-07,-1.15108e-07,0.0249018,0.015800020940709425,-4.3931525084417444e-13,-3.399509421742053e-07,0.015800020940709425,-1.1510799335923139e-07,-0.02844849926003079
158,0.0159,633.694,662.4,0.000795027,-0.00133045,0.000856252,-0.00139749,0.0157749,0.0157749,-0.0290553,4.81216e-13,-3.41329e-07,-1.15788e-07,0.0250792,0.015899980580703632,4.811706588725428e-13,-3.4132894177751893e-07,0.015899980580703632,-1.1578799330447254e-07,-0.02863725337856804
159,0.016,634.356,663.098,0.000797393,-0.00132656,0.000859724,-0.00139549,0.0158733,0.0158733,-0.0292495,-4.42269e-13,-3.42701e-07,-1.16466e-07,0.0252566,0.015999950057210333,-4.4231285301066237e-13,-3.427009412915183e-07,0.015999950057210333,-1.1646599318293482e-07,-0.028825873708335115
160,0.0161,635.015,663.792,0.0007997,-0.0013227,0.000863168,-0.0013935,0.0159718,0.0159718,-0.0294438,-4.43733e-13,-3.44068e-07,-1.17142e-07,0.025434,0.016100030981195612,-4.4375614294267507e-13,-3.4406794080510394e-07,0.016100030981195612,-1.1714199310564055e-07,-0.029014554510140123
161,0.0162,635.67,664.483,0.000801951,-0.00131887,0.000866584,-0.00139153,0.0160702,0.0160702,-0.029638,-4.45184e-13,-3.45429e-07,-1.17816e-07,0.0256115,0.01620002014363031,-4.4519943287468777e-13,-3.454289403403976e-07,0.01620002014363031,-1.1781599307258972e-07,-0.02920310157514172
162,0.0163,636.322,665.17,0.000804147,-0.00131506,0.000869972,-0.00138957,0.0161686,0.0161686,-0.0298322,-4.46625e-13,-3.46784e-07,-1.18489e-07,0.0257889,0.016300019145482736,-4.466427228067005e-13,-3.467839398973993e-07,0.016300019145482736,-1.184889929506383e-07,-0.029391612027858338
163,0.0164,636.97,665.853,0.000806289,-0.00131128,0.000873333,-0.00138762,0.016267,0.016267,-0.0300265,-4.48054e-13,-3.48134e-07,-1.19161e-07,0.0259663,0.016400027987721,-4.480860127387132e-13,-3.481339394539873e-07,0.016400027987721,-1.1916099285080861e-07,-0.029580182917386177
164,0.0165,637.615,666.532,0.000808379,-0.00130753,0.000876668,-0.00138569,0.0163654,0.0163654,-0.0302207,-4.49471e-13,-3.49478e-07,-1.19831e-07,0.0261438,0.01650004667131344,-4.4941828036826337e-13,-3.49477938921261e-07,0.01650004667131344,-1.1983099279522236e-07,-0.02976862014801629
165,0.0166,638.257,667.208,0.000810417,-0.00130381,0.000879976,-0.00138378,0.0164637,0.0164637,-0.0304149,-4.50878e-13,-3.50817e-07,-1.20499e-07,0.0263212,0.016599973537226198,-4.5086157030027607e-13,-3.508169384991433e-07,0.016599973537226198,-1.2049899278387954e-07,-0.02995702078768936
166,0.0167,638.895,667.881,0.000812406,-0.00130011,0.000883259,-0.00138188,0.0165621,0.0165621,-0.0306091,-4.52273e-13,-3.5215e-07,-1.21166e-07,0.0264986,0.01670001189642889,-4.5230486023228877e-13,-3.521499379877113e-07,0.01670001189642889,-1.2116599268363615e-07,-0.030145384843510592
167,0.0168,639.53,668.55,0.000814346,-0.00129644,0.000886516,-0.00137999,0.0166604,0.0166604,-0.0308033,-4.53658e-13,-3.53478e-07,-1.21831e-07,0.0266761,0.01679995841988946,-4.5363712786183896e-13,-3.5347793747586564e-07,0.01679995841988946,-1.218309926276362e-07,-0.03033371232258386
168,0.0169,640.162,669.215,0.000816238,-0.00129279,0.000889748,-0.00137811,0.0167588,0.0167588,-0.0309975,-4.55032e-13,-3.54801e-07,-1.22495e-07,0.0268535,0.016900016458572642,-4.550804177938517e-13,-3.5480093707462856e-07,0.016900016458572642,-1.2249499248273565e-07,-0.030522003232011707
169,0.017,640.79,669.877,0.000818085,-0.00128917,0.000892955,-0.00137625,0.0168571,0.0168571,-0.0311917,-4.56395e-13,-3.56118e-07,-1.23157e-07,0.027031,0.016999982643448153,-4.564126854234019e-13,-3.561179365840772e-07,0.016999982643448153,-1.2315699238207856e-07,-0.03071025757889534
170,0.0171,641.416,670.536,0.000819886,-0.00128557,0.000896138,-0.0013744,0.0169554,0.0169554,-0.0313859,-4.57747e-13,-3.5743e-07,-1.23818e-07,0.0272084,0.017099958655482306,-4.57744953052952e-13,-3.5742993609311213e-07,0.017099958655482306,-1.2381799230354318e-07,-0.03089847537033441
171,0.0172,642.038,671.191,0.000821643,-0.001282,0.000899297,-0.00137256,0.0170538,0.0170538,-0.03158,-4.5909e-13,-3.58737e-07,-1.24477e-07,0.0273859,0.017200046215641196,-4.590772206825022e-13,-3.5873693560173336e-07,0.017200046215641196,-1.2447699226925124e-07,-0.03108655972208818
172,0.0173,642.657,671.843,0.000823358,-0.00127846,0.000902432,-0.00137074,0.0171521,0.0171521,-0.0317742,-4.60421e-13,-3.60038e-07,-1.25135e-07,0.0275634,0.017300041894891427,-4.604094883120524e-13,-3.600379351320626e-07,0.017300041894891427,-1.2513499214605872e-07,-0.03127470444274649
173,0.0174,643.273,672.492,0.00082503,-0.00127494,0.000905543,-0.00136893,0.0172504,0.0172504,-0.0319684,5.08241e-13,-3.61335e-07,-1.25791e-07,0.0277408,0.01740004740419998,5.082601006733967e-13,-3.6133493475087874e-07,0.01740004740419998,-1.2579099206710964e-07,-0.03146281262924766
174,0.0175,643.886,673.138,0.000826662,-0.00127144,0.000908632,-0.00136713,0.0173486,0.0173486,-0.0321625,-4.63054e-13,-3.62626e-07,-1.26446e-07,0.0279183,0.017499960994532104,-4.630740235711528e-13,-3.626259342803806e-07,0.017499960994532104,-1.2644599201028228e-07,-0.03165078745376948
175,0.0176,644.497,673.78,0.000828253,-0.00126797,0.000911698,-0.00136534,0.0174469,0.0174469,-0.0323566,-4.64356e-13,-3.63912e-07,-1.271e-07,0.0280957,0.017599986156853875,-4.64406291200703e-13,-3.6391193380946874e-07,0.017599986156853875,-1.2709999197557664e-07,-0.03183872579591851
176,0.0177,645.104,674.419,0.000829806,-0.00126452,0.000914742,-0.00136356,0.0175452,0.0175452,-0.0325508,-4.65648e-13,-3.65193e-07,-1.27752e-07,0.0282732,0.01770002115213254,-4.656275365277907e-13,-3.651929333381432e-07,0.01770002115213254,-1.2775199187409214e-07,-0.03202672446010779
177,0.0178,645.708,675.055,0.00083132,-0.00126109,0.000917763,-0.0013618,0.0176434,0.0176434,-0.0327449,5.15362e-13,-3.6647e-07,-1.28402e-07,0.0284507,0.01779996420133312,5.153655280309977e-13,-3.664699328442822e-07,0.01779996420133312,-1.2840199170582878e-07,-0.03221458983996517
178,0.0179,646.309,675.688,0.000832797,-0.00125769,0.000920763,-0.00136004,0.0177417,0.0177417,-0.032939,-4.68201e-13,-3.67741e-07,-1.29052e-07,0.0286281,0.01790001885541992,-4.681810494844285e-13,-3.6774093237212924e-07,0.01790001885541992,-1.2905199164858772e-07,-0.03240241875869099
179,0.018,646.908,676.318,0.000834238,-0.00125431,0.000923741,-0.0013583,0.0178399,0.0178399,-0.0331331,-4.69464e-13,-3.69007e-07,-1.297e-07,0.0288056,0.01799998154535931,-4.695133171139787e-13,-3.690069318995626e-07,0.01799998154535931,-1.296999916355901e-07,-0.03259021122336159
180,0.0181,647.503,676.945,0.000835644,-0.00125095,0.000926698,-0.00135657,0.0179381,0.0179381,-0.0333272,5.20459e-13,-3.70268e-07,-1.30346e-07,0.0289831,0.01809995405211673,5.204725539442734e-13,-3.702679314265822e-07,0.01809995405211673,-1.303459915558136e-07,-0.0327779672410522
181,0.0182,648.096,677.569,0.000837014,-0.00124761,0.000929635,-0.00135485,0.0180364,0.0180364,-0.0335213,-4.7196e-13,-3.71524e-07,-1.30991e-07,0.0291605,0.018200038196655166,-4.71955807768154e-13,-3.7152393095318814e-07,0.018200038196655166,-1.3099099138713655e-07,-0.03296568681883627
182,0.0183,648.686,678.189,0.000838351,-0.0012443,0.00093255,-0.00135314,0.0181346,0.0181346,-0.0337154,-4.73195e-13,-3.72776e-07,-1.31635e-07,0.029338,0.01830003034994032,-4.731770530952417e-13,-3.7277593056828096e-07,0.01830003034994032,-1.316349913516035e-07,-0.03315336996378626
183,0.0184,649.273,678.807,0.000839655,-0.00124101,0.000935446,-0.00135143,0.0182328,0.0182328,-0.0339095,-4.7442e-13,-3.74022e-07,-1.32277e-07,0.0295155,0.01840003232293741,-4.743982984223294e-13,-3.740219300940595e-07,0.01840003232293741,-1.322769912492916e-07,-0.03334101668297307
184,0.0185,649.857,679.422,0.000840927,-0.00123774,0.000938321,-0.00134974,0.018331,0.018331,-0.0341036,-4.75635e-13,-3.75264e-07,-1.32918e-07,0.0296929,0.018500044116610104,-4.756195437494171e-13,-3.752639295973026e-07,0.018500044116610104,-1.329179911691014e-07,-0.03352862698346626
185,0.0186,650.439,680.035,0.000842166,-0.00123449,0.000941176,-0.00134806,0.0184291,0.0184291,-0.0342977,5.28613e-13,-3.76501e-07,-1.33558e-07,0.0298704,0.018599963871921865,5.286882043264995e-13,-3.76500929100132e-07,0.018599963871921865,-1.3355799111103295e-07,-0.03371620087233396
186,0.0187,651.018,680.644,0.000843375,-0.00123126,0.000944012,-0.00134639,0.0185273,0.0185273,-0.0344917,-4.7804e-13,-3.77733e-07,-1.34196e-07,0.0300479,0.01869999529983679,-4.780620344035924e-13,-3.7773292871357e-07,0.01869999529983679,-1.3419599098618562e-07,-0.03390364174701199
187,0.0188,651.594,681.25,0.000844554,-0.00122805,0.000946829,-0.00134473,0.0186255,0.0186255,-0.0346858,-4.79229e-13,-3.78961e-07,-1.34834e-07,0.0302253,0.018800036551320343,-4.792832797306801e-13,-3.789609281934503e-07,0.018800036551320343,-1.348339908613383e-07,-0.03409114285257797
188,0.0189,652.168,681.854,0.000845704,-0.00122486,0.000949627,-0.00134308,0.0187236,0.0187236,-0.0348798,-4.8041e-13,-3.80183e-07,-1.35469e-07,0.0304028,0.018899985737333314,-4.803935027553052e-13,-3.801829276950386e-07,0.018899985737333314,-1.3546899080285613e-07,-0.034278510995567
189,0.019,652.739,682.455,0.000846824,-0.00122169,0.000952406,-0.00134144,0.0188218,0.0188218,-0.0350738,-4.81581e-13,-3.81402e-07,-1.36104e-07,0.0305803,0.01900004662884225,-4.816147480823929e-13,-3.8140192726299205e-07,0.01900004662884225,-1.3610399074437396e-07,-0.03446584279266207
190,0.0191,653.308,683.053,0.000847916,-0.00121854,0.000955166,-0.0013398,0.0189199,0.0189199,-0.0352678,5.36911e-13,-3.82615e-07,-1.36737e-07,0.0307577,0.019100015436806395,5.369038547087257e-13,-3.826149268526535e-07,0.019100015436806395,-1.3673699061911293e-07,-0.03465313825091343
191,0.0192,653.874,683.648,0.000848981,-0.00121542,0.000957908,-0.00133818,0.019018,0.019018,-0.0354619,-4.83899e-13,-3.83824e-07,-1.37369e-07,0.0309352,0.019199994052191638,-4.839462164341057e-13,-3.838239263087573e-07,0.019199994052191638,-1.3736899051597362e-07,-0.03484049389332555
192,0.0193,654.437,684.241,0.000850019,-0.00121231,0.000960632,-0.00133656,0.0191161,0.0191161,-0.0356558,-4.85045e-13,-3.85028e-07,-1.37999e-07,0.0311127,0.019299982475960098,-4.850564394587309e-13,-3.8502792587546963e-07,0.019299982475960098,-1.3799899045707775e-07,-0.03502762017908001
193,0.0194,654.998,684.831,0.00085103,-0.00120922,0.000963338,-0.00133495,0.0192142,0.0192142,-0.0358498,-4.86182e-13,-3.86228e-07,-1.38629e-07,0.0312901,0.019399980709074116,-4.86166662483356e-13,-3.8622792541964657e-07,0.019399980709074116,-1.3862899039818188e-07,-0.03521480666308918
194,0.0195,655.557,685.419,0.000852016,-0.00120615,0.000966026,-0.00133336,0.0193123,0.0193123,-0.0360438,-4.87312e-13,-3.87424e-07,-1.39257e-07,0.0314676,0.019499988752496034,-4.872768855079812e-13,-3.874239249412881e-07,0.019499988752496034,-1.3925699027250715e-07,-0.03540195683644276
195,0.0196,656.113,686.003,0.000852976,-0.0012031,0.000968697,-0.00133177,0.0194104,0.0194104,-0.0362378,-4.88433e-13,-3.88614e-07,-1.39884e-07,0.031645,0.019600006607188192,-4.883871085326064e-13,-3.886139244846376e-07,0.019600006607188192,-1.3988399016895414e-07,-0.035589070706184334
196,0.0197,656.666,686.586,0.000853911,-0.00120006,0.000971351,-0.00133019,0.0195085,0.0195085,-0.0364318,-4.89546e-13,-3.89801e-07,-1.40509e-07,0.0318225,0.019700034274113154,-4.894973315572315e-13,-3.8980092398333e-07,0.019700034274113154,-1.4050899010964457e-07,-0.035776148279355935
197,0.0198,657.217,687.165,0.000854823,-0.00119705,0.000973988,-0.00132861,0.0196065,0.0196065,-0.0366257,-4.90651e-13,-3.90983e-07,-1.41134e-07,0.0319999,0.019799969774231485,-4.906075545818567e-13,-3.90982923592631e-07,0.019799969774231485,-1.41133990050335e-07,-0.03596309315931279
198,0.0199,657.766,687.743,0.00085571,-0.00119405,0.000976608,-0.00132705,0.0197046,0.0197046,-0.0368197,-4.91748e-13,-3.9216e-07,-1.41757e-07,0.0321774,0.019900017058505526,-4.917177776064818e-13,-3.9215992309049597e-07,0.019900017058505526,-1.4175698992424657e-07,-0.03615009817916637
199,0.02,658.313,688.317,0.000856575,-0.00119107,0.000979212,-0.00132549,0.0198026,0.0198026,-0.0370136,-4.92837e-13,-3.93334e-07,-1.42379e-07,0.0323548,0.019999972157897172,-4.92828000631107e-13,-3.933339226547261e-07,0.019999972157897172,-1.4237898982027986e-07,-0.03633697055726692
200,0.0201,658.857,688.889,0.000857417,-0.00118811,0.000981799,-0.00132394,0.0199007,0.0199007,-0.0372075,-4.93918e-13,-3.94502e-07,-1.42999e-07,0.0325323,0.020100039063367214,-4.939382236557321e-13,-3.9450192212964197e-07,0.020100039063367214,-1.4299898976055658e-07,-0.03652380670432609
201,0.0202,659.398,689.459,0.000858237,-0.00118516,0.00098437,-0.0013224,0.0199987,0.0199987,-0.0374014,-4.94992e-13,-3.95667e-07,-1.43619e-07,0.0327097,0.02020001376587577,-4.949374243778948e-13,-3.95666921670923e-07,0.02020001376587577,-1.436189897008333e-07,-0.03671060662736825
202,0.0203,659.938,690.026,0.000859035,-0.00118224,0.000986925,-0.00132087,0.0200967,0.0200967,-0.0375953,5.55523e-13,-3.96827e-07,-1.44237e-07,0.0328871,0.0202999982663854,5.555556015224283e-13,-3.968269212117903e-07,0.0202999982663854,-1.4423698957433118e-07,-0.03689737033341678
203,0.0204,660.475,690.591,0.000859812,-0.00117933,0.000989464,-0.00131934,0.0201947,0.0201947,-0.0377892,-4.97116e-13,-3.97983e-07,-1.44854e-07,0.0330646,0.02039999256585623,-4.971578704271451e-13,-3.979829208411445e-07,0.02039999256585623,-1.4485398946995076e-07,-0.03708409782949329
204,0.0205,661.01,691.153,0.000860568,-0.00117644,0.000991988,-0.00131783,0.0202927,0.0202927,-0.0379831,-4.98166e-13,-3.99135e-07,-1.4547e-07,0.033242,0.020499996665248377,-4.981570711493077e-13,-3.99134920336941e-07,0.020499996665248377,-1.4546998938769207e-07,-0.037270789122618386
205,0.0206,661.542,691.713,0.000861303,-0.00117356,0.000994496,-0.00131631,0.0203907,0.0203907,-0.038177,5.59958e-13,-4.00282e-07,-1.46085e-07,0.0334194,0.02060001056552263,5.59996493620929e-13,-4.0028191983232375e-07,0.02060001056552263,-1.460849893275551e-07,-0.03745744421981101
206,0.0207,662.073,692.271,0.000862019,-0.0011707,0.000996989,-0.00131481,0.0204887,0.0204887,-0.0383708,-5.00245e-13,-4.01426e-07,-1.46698e-07,0.0335969,0.020700034267639555,-5.002664948960955e-13,-4.014259193940717e-07,0.020700034267639555,-1.4669798920063926e-07,-0.0376439668924905
207,0.0208,662.601,692.826,0.000862716,-0.00116786,0.000999466,-0.00131331,0.0205866,0.0205866,-0.0385647,-5.01273e-13,-4.02565e-07,-1.4731e-07,0.0337743,0.02079996569255771,-5.012656956182582e-13,-4.025649189554059e-07,0.02079996569255771,-1.4730998909584514e-07,-0.0378305496375283
208,0.0209,663.127,693.38,0.000863393,-0.00116503,0.00100193,-0.00131183,0.0206846,0.0206846,-0.0387585,5.64409e-13,-4.037e-07,-1.47922e-07,0.0339517,0.02090000899123723,5.644373857194296e-13,-4.036999184942047e-07,0.02090000899123723,-1.4792198910207333e-07,-0.03801700000938402
209,0.021,663.651,693.93,0.000864051,-0.00116222,0.00100438,-0.00131034,0.0207825,0.0207825,-0.0389524,-5.03308e-13,-4.04831e-07,-1.48532e-07,0.0341291,0.020999959994639106,-5.032640970625835e-13,-4.048309180104681e-07,0.020999959994639106,-1.4853198893050035e-07,-0.03820351043031245
210,0.0211,664.172,694.479,0.000864691,-0.00115942,0.00100681,-0.00130887,0.0208805,0.0208805,-0.0391462,-5.04315e-13,-4.05957e-07,-1.49141e-07,0.0343065,0.021100022893720594,-5.042632977847461e-13,-4.059569176373401e-07,0.021100022893720594,-1.491409888920714e-07,-0.038389888529369975
211,0.0212,664.692,695.025,0.000865313,-0.00115664,0.00100923,-0.0013074,0.0209784,0.0209784,-0.03934,-5.05315e-13,-4.0708e-07,-1.49748e-07,0.0344839,0.021199993479442236,-5.052624985069087e-13,-4.0707991710853264e-07,0.021199993479442236,-1.4974798878686357e-07,-0.03857623051185166
212,0.0213,665.209,695.569,0.000865918,-0.00115388,0.00101164,-0.00130594,0.0210763,0.0210763,-0.0395338,-5.06307e-13,-4.08199e-07,-1.50355e-07,0.0346613,0.021299973852763276,-5.062616992290714e-13,-4.0819891666821206e-07,0.021299973852763276,-1.5035498868165575e-07,-0.03876253638475624
213,0.0214,665.725,696.111,0.000866505,-0.00115113,0.00101403,-0.00130448,0.0211742,0.0211742,-0.0397276,-5.07293e-13,-4.09313e-07,-1.5096e-07,0.0348387,0.02139996401464206,-5.07260899951234e-13,-4.093129162274778e-07,0.02139996401464206,-1.5095998862069138e-07,-0.03894880615508112
214,0.0215,666.238,696.65,0.000867075,-0.0011484,0.0010164,-0.00130303,0.0212721,0.0212721,-0.0399214,-5.08272e-13,-4.10424e-07,-1.51565e-07,0.0350161,0.021499963966036928,-5.082601006733967e-13,-4.1042391574208636e-07,0.021499963966036928,-1.51564988559727e-07,-0.03913503982982225
215,0.0216,666.749,697.188,0.000867629,-0.00114568,0.00101877,-0.00130159,0.02137,0.02137,-0.0401151,-5.09243e-13,-4.11531e-07,-1.52168e-07,0.0351935,0.021599973707906006,-5.092593013955593e-13,-4.115309153451818e-07,0.021599973707906006,-1.5216798843198376e-07,-0.03932114134809339
216,0.0217,667.259,697.723,0.000868167,-0.00114297,0.00102112,-0.00130015,0.0214679,0.0214679,-0.0403089,-5.10208e-13,-4.12633e-07,-1.5277e-07,0.0353709,0.021699993241208304,-5.102585021177219e-13,-4.126329148368413e-07,0.021699993241208304,-1.5276998832636224e-07,-0.039507302871265804
217,0.0218,667.766,698.256,0.000868688,-0.00114028,0.00102345,-0.00129873,0.0215658,0.0215658,-0.0405026,-5.11167e-13,-4.13732e-07,-1.53371e-07,0.0355483,0.02180002256690239,-5.111466805374221e-13,-4.137319143948659e-07,0.02180002256690239,-1.5337098824286244e-07,-0.03969333228916894
218,0.0219,668.271,698.787,0.000869195,-0.00113761,0.00102578,-0.0012973,0.0216636,0.0216636,-0.0406964,5.78796e-13,-4.14827e-07,-1.53971e-07,0.0357256,0.021899959495945476,5.788702850395566e-13,-4.148269139303551e-07,0.021899959495945476,-1.5397098818148436e-07,-0.03987942168872605
219,0.022,668.774,699.316,0.000869685,-0.00113495,0.00102809,-0.00129588,0.0217615,0.0217615,-0.0408901,-5.13063e-13,-4.15918e-07,-1.5457e-07,0.035903,0.02200000839929417,-5.130340596792848e-13,-4.1591791355433116e-07,0.02200000839929417,-1.545699880312057e-07,-0.040065379034194604
220,0.0221,669.275,699.843,0.000870161,-0.0011323,0.00103038,-0.00129447,0.0218593,0.0218593,-0.0410838,-5.14002e-13,-4.17005e-07,-1.55168e-07,0.0360804,0.022099964887908108,-5.140332604014475e-13,-4.170049130447495e-07,0.022099964887908108,-1.5516798801407106e-07,-0.04025130036321356
221,0.0222,669.775,700.367,0.000870623,-0.00112967,0.00103267,-0.00129307,0.0219572,0.0219572,-0.0412775,-5.14934e-13,-4.18088e-07,-1.55765e-07,0.0362577,0.02220003337274301,-5.149214388211476e-13,-4.1808791262365474e-07,0.02220003337274301,-1.5576498790803583e-07,-0.04043718568275889
222,0.0223,670.272,700.89,0.000871069,-0.00112705,0.00103494,-0.00129167,0.022055,0.022055,-0.0414712,-5.15859e-13,-4.19167e-07,-1.5636e-07,0.0364351,0.022300009424756073,-5.158096172408477e-13,-4.1916691218002455e-07,0.022300009424756073,-1.5635998773522175e-07,-0.040623034999804686
223,0.0224,670.767,701.411,0.000871502,-0.00112444,0.0010372,-0.00129027,0.0221528,0.0221528,-0.0416649,-5.16778e-13,-4.20243e-07,-1.56955e-07,0.0366124,0.022399995254905214,-5.168088179630104e-13,-4.202429116917372e-07,0.022399995254905214,-1.5695498767342997e-07,-0.04080884832132403
224,0.0225,671.261,701.929,0.000871921,-0.00112185,0.00103944,-0.00128889,0.0222506,0.0222506,-0.0418585,-5.17691e-13,-4.21315e-07,-1.57548e-07,0.0367898,0.02249999086414678,-5.176969963827105e-13,-4.2131491129193677e-07,0.02249999086414678,-1.5754798754485932e-07,-0.0409945297537464
225,0.0226,671.752,702.446,0.000872327,-0.00111927,0.00104167,-0.0012875,0.0223484,0.0223484,-0.0420522,-5.18597e-13,-4.22383e-07,-1.58141e-07,0.0369671,0.022599996253437116,-5.185851748024106e-13,-4.223829107585786e-07,0.022599996253437116,-1.5814098752731098e-07,-0.04118027112370071
226,0.0227,672.242,702.961,0.000872719,-0.00111671,0.0010439,-0.00128613,0.0224462,0.0224462,-0.0422458,-5.19497e-13,-4.23447e-07,-1.58732e-07,0.0371444,0.02270001142373279,-5.194733532221107e-13,-4.234469103137073e-07,0.02270001142373279,-1.5873198744298378e-07,-0.04136588065562874
227,0.0228,672.73,703.473,0.000873098,-0.00111415,0.00104611,-0.00128476,0.022544,0.022544,-0.0424394,-5.20391e-13,-4.24508e-07,-1.59322e-07,0.0373218,0.022800036375990596,-5.203615316418109e-13,-4.2450790993520116e-07,0.022800036375990596,-1.59321987269756e-07,-0.04155145425702955
228,0.0229,673.216,703.984,0.000873464,-0.00111162,0.0010483,-0.00128339,0.0226417,0.0226417,-0.0426331,-5.21279e-13,-4.25564e-07,-1.59912e-07,0.0374991,0.02289996882116485,-5.21249710061511e-13,-4.25563909445259e-07,0.02289996882116485,-1.599119872075505e-07,-0.0417370877611547
229,0.023,673.7,704.493,0.000873818,-0.00110909,0.00105049,-0.00128203,0.0227395,0.0227395,-0.0428267,-5.2216e-13,-4.26618e-07,-1.605e-07,0.0376764,0.0230000133302124,-5.221378884812111e-13,-4.266179089995603e-07,0.0230000133302124,-1.6049998707856616e-07,-0.041922589503816
230,0.0231,674.183,705.0,0.000874159,-0.00110658,0.00105266,-0.00128068,0.0228372,0.0228372,-0.0430203,-5.23036e-13,-4.27667e-07,-1.61087e-07,0.0378537,0.023099965314089754,-5.230260669009112e-13,-4.276669085534479e-07,0.023099965314089754,-1.6108698697170354e-07,-0.042108055336816164
231,0.0232,674.663,705.505,0.000874489,-0.00110407,0.00105482,-0.00127933,0.022935,0.022935,-0.0432138,5.96441e-13,-4.28713e-07,-1.61673e-07,0.038031,0.023200029383750653,5.964118088286341e-13,-4.2871290806267837e-07,0.023200029383750653,-1.6167298688696263e-07,-0.04229338949645023
232,0.0233,675.142,706.008,0.000874806,-0.00110159,0.00105697,-0.00127798,0.0230327,0.0230327,-0.0434074,-5.24769e-13,-4.29755e-07,-1.62258e-07,0.0382083,0.023300000910150942,-5.248024237403115e-13,-4.297549076603957e-07,0.023300000910150942,-1.6225798682434345e-07,-0.042478783549520394
233,0.0234,675.619,706.509,0.000875112,-0.00109911,0.00105911,-0.00127664,0.0231304,0.0231304,-0.043601,-5.25627e-13,-4.30794e-07,-1.62843e-07,0.0383856,0.02339998220424655,-5.255795798575491e-13,-4.307939072134559e-07,0.02339998220424655,-1.6284298676172426e-07,-0.04266414171377597
234,0.0235,676.094,707.008,0.000875407,-0.00109665,0.00106124,-0.00127531,0.0232281,0.0232281,-0.0437945,-5.26478e-13,-4.31829e-07,-1.63426e-07,0.0385629,0.023499973266991825,-5.264677582772492e-13,-4.3182890674398067e-07,0.023499973266991825,-1.6342598663232621e-07,-0.04284936828110597
235,0.0236,676.568,707.506,0.00087569,-0.00109419,0.00106336,-0.00127398,0.0233258,0.0233258,-0.043988,-5.27324e-13,-4.3286e-07,-1.64008e-07,0.0387401,0.023599974099341114,-5.273559366969494e-13,-4.328599063629923e-07,0.023599974099341114,-1.640079865250499e-07,-0.043034559010562634
236,0.0237,677.04,708.001,0.000875963,-0.00109175,0.00106546,-0.00127266,0.0234235,0.0234235,-0.0441816,-5.28165e-13,-4.33888e-07,-1.64589e-07,0.0389174,0.02369998470224899,-5.28133092814187e-13,-4.3388790582632453e-07,0.02369998470224899,-1.6458898643989528e-07,-0.04321980958710381
237,0.0238,677.51,708.495,0.000876224,-0.00108933,0.00106756,-0.00127134,0.0235212,0.0235212,-0.0443751,6.03982e-13,-4.34913e-07,-1.65169e-07,0.0390947,0.02380000507667024,6.039613253960852e-13,-4.349129054670442e-07,0.02380000507667024,-1.651689863768624e-07,-0.043404928643102414
238,0.0239,677.978,708.987,0.000876476,-0.00108691,0.00106964,-0.00127002,0.0236189,0.0236189,-0.0445686,-5.29828e-13,-4.35934e-07,-1.65748e-07,0.0392719,0.023900035223559213,-5.297984273511247e-13,-4.3593390497420614e-07,0.023900035223559213,-1.6574798622492892e-07,-0.043590011882029156
239,0.024,678.445,709.478,0.000876716,-0.0010845,0.00107172,-0.00126871,0.0237165,0.0237165,-0.0447621,-5.30651e-13,-4.36951e-07,-1.66326e-07,0.0394492,0.02399997274386867,-5.306866057708248e-13,-4.3695090456985497e-07,0.02399997274386867,-1.6632598620613948e-07,-0.043775059310813824
240,0.0241,678.91,709.966,0.000876947,-0.00108211,0.00107378,-0.00126741,0.0238142,0.0238142,-0.0449555,-5.31469e-13,-4.37965e-07,-1.66903e-07,0.0396264,0.024100022428553247,-5.314637618880624e-13,-4.3796490412084665e-07,0.024100022428553247,-1.6690298609844945e-07,-0.04395997533238749
241,0.0242,679.373,710.453,0.000877168,-0.00107973,0.00107583,-0.00126611,0.0239118,0.0239118,-0.045149,-5.32281e-13,-4.38976e-07,-1.6748e-07,0.0398037,0.024199979468566557,-5.322409180053e-13,-4.389759036271812e-07,0.024199979468566557,-1.6747998599075942e-07,-0.044144951180170255
242,0.0243,679.835,710.938,0.000877379,-0.00107736,0.00107787,-0.00126481,0.0240095,0.0240095,-0.0453424,-5.33087e-13,-4.39983e-07,-1.68055e-07,0.0399809,0.024300048694862797,-5.331290964250002e-13,-4.399829032220026e-07,0.024300048694862797,-1.6805498592731283e-07,-0.04432979567157347
243,0.0244,680.295,711.421,0.00087758,-0.001075,0.00107991,-0.00126352,0.0241071,0.0241071,-0.0455359,-5.33888e-13,-4.40986e-07,-1.68629e-07,0.0401581,0.024400025258392244,-5.339062525422378e-13,-4.409859027942886e-07,0.024400025258392244,-1.6862898577496566e-07,-0.044514699966043625
244,0.0245,680.753,711.903,0.000877772,-0.00107265,0.00108193,-0.00126224,0.0242047,0.0242047,-0.0457293,6.13382e-13,-4.41986e-07,-1.69202e-07,0.0403353,0.024500011580110614,6.132871988029365e-13,-4.419859023219175e-07,0.024500011580110614,-1.692019856447402e-07,-0.04469947295494625
245,0.0246,681.21,712.383,0.000877954,-0.00107031,0.00108394,-0.00126095,0.0243023,0.0243023,-0.0459227,-5.35474e-13,-4.42983e-07,-1.69775e-07,0.0405125,0.024600007660970258,-5.35460564776713e-13,-4.429829019159115e-07,0.024600007660970258,-1.6977498562553706e-07,-0.04488421021220812
246,0.0247,681.665,712.861,0.000878128,-0.00106798,0.00108594,-0.00125968,0.0243999,0.0243999,-0.0461161,6.15792e-13,-4.43977e-07,-1.70346e-07,0.0406897,0.024700013501923523,6.157296894571118e-13,-4.439769014652484e-07,0.024700013501923523,-1.7034598553955504e-07,-0.04506891174473926
247,0.0248,682.119,713.337,0.000878293,-0.00106567,0.00108793,-0.0012584,0.0244975,0.0244975,-0.0463095,-5.37038e-13,-4.44967e-07,-1.70916e-07,0.0408669,0.024800029103923427,-5.370148770111882e-13,-4.4496690099204983e-07,0.024800029103923427,-1.7091598536467245e-07,-0.04525357755944792
248,0.0249,682.571,713.812,0.000878448,-0.00106336,0.00108991,-0.00125714,0.024595,0.024595,-0.0465028,6.18057e-13,-4.45954e-07,-1.71486e-07,0.0410441,0.024899951977922052,6.179501355063621e-13,-4.4595390058521645e-07,0.024899951977922052,-1.7148598530081216e-07,-0.0454381122070574
249,0.025,683.021,714.285,0.000878596,-0.00106107,0.00109188,-0.00125587,0.0246926,0.0246926,-0.0466962,-5.38582e-13,-4.46937e-07,-1.72054e-07,0.0412213,0.02499998709486939,-5.385691892456634e-13,-4.4693690015584764e-07,0.02499998709486939,-1.72053985170173e-07,-0.04562270662530088
250,0.0251,683.47,714.757,0.000878734,-0.00105878,0.00109385,-0.00125461,0.0247902,0.0247902,-0.0468895,6.20605e-13,-4.47917e-07,-1.72622e-07,0.0413984,0.025100031975720416,6.206146707654625e-13,-4.479168996818217e-07,0.025100031975720416,-1.7262198515055616e-07,-0.04580716992715772
251,0.0252,683.918,715.227,0.000878865,-0.00105651,0.0010958,-0.00125336,0.0248877,0.0248877,-0.0470829,-5.40104e-13,-4.48894e-07,-1.73188e-07,0.0415756,0.025199984101424988,-5.401235014801387e-13,-4.488938992741609e-07,0.025199984101424988,-1.7318798495313814e-07,-0.04599169297653982
252,0.0253,684.364,715.695,0.000878987,-0.00105424,0.00109774,-0.0012521,0.0249853,0.0249853,-0.0472762,6.22989e-13,-4.49868e-07,-1.73754e-07,0.0417528,0.025300048502936656,6.230571614196379e-13,-4.4986789882184297e-07,0.025300048502936656,-1.7375398486674243e-07,-0.04617608496022807
253,0.0254,684.808,716.162,0.000879102,-0.00105199,0.00109968,-0.00125086,0.0250828,0.0250828,-0.0474695,-5.41607e-13,-4.50838e-07,-1.74319e-07,0.0419299,0.02540002013120346,-5.415667914121514e-13,-4.508378983469896e-07,0.02540002013120346,-1.7431898480246844e-07,-0.04636044130439054
254,0.0255,685.251,716.627,0.000879208,-0.00104974,0.0011016,-0.00124961,0.0251803,0.0251803,-0.0476628,-5.4235e-13,-4.51805e-07,-1.74883e-07,0.042107,0.025500001507179126,-5.42343947529389e-13,-4.518048979385014e-07,0.025500001507179126,-1.7488298476031616e-07,-0.04654476201591573
255,0.0256,685.692,717.09,0.000879307,-0.00104751,0.00110352,-0.00124837,0.0252778,0.0252778,-0.0478561,-5.43089e-13,-4.52769e-07,-1.75446e-07,0.0422842,0.025599992631814228,-5.431211036466266e-13,-4.527688974853561e-07,0.025599992631814228,-1.754459846292633e-07,-0.04672904710169068
256,0.0257,686.132,717.552,0.000879399,-0.00104528,0.00110542,-0.00124714,0.0253753,0.0253753,-0.0480493,-5.43822e-13,-4.5373e-07,-1.76008e-07,0.0424613,0.025699993506059116,-5.437872374614017e-13,-4.537298970985759e-07,0.025699993506059116,-1.7600798452033217e-07,-0.04691320125992615
257,0.0258,686.57,718.013,0.000879482,-0.00104307,0.00110732,-0.00124591,0.0254728,0.0254728,-0.0482426,-5.44551e-13,-4.54687e-07,-1.76569e-07,0.0426384,0.025800004130864806,-5.445643935786393e-13,-4.54686896578238e-07,0.025800004130864806,-1.7656898443352276e-07,-0.04709741513327814
258,0.0259,687.007,718.471,0.000879559,-0.00104086,0.00110921,-0.00124468,0.0255703,0.0255703,-0.0484358,-5.45274e-13,-4.55642e-07,-1.77129e-07,0.0428155,0.02590002450718165,-5.452305273934144e-13,-4.5564189621316586e-07,0.02590002450718165,-1.7712898425781276e-07,-0.047281498129684296
259,0.026,687.442,718.929,0.000879628,-0.00103867,0.00111109,-0.00124346,0.0256677,0.0256677,-0.0486291,-5.45993e-13,-4.56593e-07,-1.77688e-07,0.0429926,0.025999952035960394,-5.46007683510652e-13,-4.56592895714536e-07,0.025999952035960394,-1.7768798421524679e-07,-0.04746564081813165
260,0.0261,687.876,719.385,0.000879691,-0.00103648,0.00111296,-0.00124224,0.0257652,0.0257652,-0.0488223,-5.46707e-13,-4.57541e-07,-1.78246e-07,0.0431697,0.02609999190814838,-5.466738173254271e-13,-4.5754089528227126e-07,0.02609999190814838,-1.7824598408378023e-07,-0.04764965268020738
261,0.0262,688.309,719.839,0.000879746,-0.00103431,0.00111482,-0.00124102,0.0258627,0.0258627,-0.0490155,-5.47416e-13,-4.58486e-07,-1.78804e-07,0.0433468,0.02620004153469946,-5.474509734426647e-13,-4.584858949163717e-07,0.02620004153469946,-1.7880398406333597e-07,-0.04783362899462529
262,0.0263,688.74,720.292,0.000879795,-0.00103214,0.00111667,-0.00123981,0.0259601,0.0259601,-0.0492087,-5.48121e-13,-4.59428e-07,-1.7936e-07,0.0435239,0.02629999828655971,-5.481171072574398e-13,-4.59427894505815e-07,0.02629999828655971,-1.7935998386509056e-07,-0.048017569768252666
263,0.0264,689.17,720.743,0.000879837,-0.00102998,0.00111852,-0.0012386,0.0260575,0.0260575,-0.0494018,-5.48821e-13,-4.60366e-07,-1.79916e-07,0.0437009,0.02639996477468176,-5.487832410722149e-13,-4.603658940727229e-07,0.02639996477468176,-1.7991598377786744e-07,-0.04820137982809802
264,0.0265,689.598,721.193,0.000879872,-0.00102783,0.00112035,-0.0012374,0.026155,0.026155,-0.049595,-5.49516e-13,-4.61302e-07,-1.80471e-07,0.043878,0.026500043650013128,-5.495603971894525e-13,-4.613018935728519e-07,0.026500043650013128,-1.8047098371276604e-07,-0.048385249559127264
265,0.0266,690.025,721.641,0.000879901,-0.00102569,0.00112218,-0.0012362,0.0262524,0.0262524,-0.0497881,-5.50206e-13,-4.62235e-07,-1.81025e-07,0.044055,0.026600029623502497,-5.502265310042276e-13,-4.6223489313934607e-07,0.026600029623502497,-1.8102498366978637e-07,-0.04856898862685943
266,0.0267,690.45,722.088,0.000879923,-0.00102356,0.001124,-0.001235,0.0263498,0.0263498,-0.0499813,-5.50892e-13,-4.63164e-07,-1.81578e-07,0.0442321,0.026700025336100053,-5.508926648190027e-13,-4.631638927943271e-07,0.026700025336100053,-1.815779835379061e-07,-0.04875278734272903
267,0.0268,690.875,722.533,0.00087994,-0.00102144,0.00112581,-0.0012338,0.0264472,0.0264472,-0.0501744,-5.51573e-13,-4.64091e-07,-1.8213e-07,0.0444091,0.026800030788754148,-5.515587986337778e-13,-4.64090892271507e-07,0.026800030788754148,-1.8212998342814757e-07,-0.04893645544576719
268,0.0269,691.297,722.977,0.00087995,-0.00101932,0.00112761,-0.00123261,0.0265446,0.0265446,-0.0503675,-5.5225e-13,-4.65014e-07,-1.82681e-07,0.0445861,0.026900045982414023,-5.522249324485529e-13,-4.650138918371738e-07,0.026900045982414023,-1.8268098334051075e-07,-0.04912008808591861
269,0.027,691.719,723.419,0.000879954,-0.00101722,0.00112941,-0.00123143,0.0266419,0.0266419,-0.0505606,-5.52922e-13,-4.65934e-07,-1.83232e-07,0.0447631,0.02699996821802597,-5.52891066263328e-13,-4.659338914692057e-07,0.02699996821802597,-1.8323198325287393e-07,-0.049303685270030595
270,0.0271,692.139,723.861,0.000879953,-0.00101512,0.00113119,-0.00123024,0.0267393,0.0267393,-0.0507537,-5.53589e-13,-4.66852e-07,-1.83781e-07,0.0449401,0.027100002886539576,-5.535572000781031e-13,-4.668518910344588e-07,0.027100002886539576,-1.8378098309845825e-07,-0.049487247004949
271,0.0272,692.557,724.3,0.000879945,-0.00101304,0.00113297,-0.00122906,0.0268367,0.0268367,-0.0509467,-5.54252e-13,-4.67766e-07,-1.8433e-07,0.0451171,0.027200047298904684,-5.542233338928781e-13,-4.6776589057717644e-07,0.027200047298904684,-1.8432998305506487e-07,-0.04967067826459115
272,0.0273,692.975,724.738,0.000879932,-0.00101096,0.00113474,-0.00122789,0.026934,0.026934,-0.0511398,-5.54911e-13,-4.68678e-07,-1.84878e-07,0.0452941,0.027299998726064922,-5.548894677076532e-13,-4.686778901641375e-07,0.027299998726064922,-1.848779829227709e-07,-0.04985416914000407
273,0.0274,693.391,725.175,0.000879913,-0.00100889,0.00113651,-0.00122672,0.0270313,0.0270313,-0.0513328,-5.55565e-13,-4.69586e-07,-1.85424e-07,0.0454711,0.027399959878972036,-5.555556015224283e-13,-4.695858897285632e-07,0.027399959878972036,-1.854239828347204e-07,-0.050037529590507335
274,0.0275,693.806,725.611,0.000879889,-0.00100682,0.00113826,-0.00122555,0.0271287,0.0271287,-0.0515258,-5.56215e-13,-4.70492e-07,-1.85971e-07,0.0456481,0.027500033508570887,-5.562217353372034e-13,-4.704918893372323e-07,0.027500033508570887,-1.8597098272454815e-07,-0.05022085465585857
275,0.0276,694.219,726.045,0.000879859,-0.00100477,0.00114001,-0.00122438,0.027226,0.027226,-0.0517188,6.50243e-13,-4.71395e-07,-1.86516e-07,0.045825,0.02760001412580948,6.501466032204917e-13,-4.7139488890124426e-07,0.02760001412580948,-1.8651598265861935e-07,-0.050404144342886203
276,0.0277,694.631,726.478,0.000879824,-0.00100272,0.00114175,-0.00122322,0.0273233,0.0273233,-0.0519118,-5.57502e-13,-4.72294e-07,-1.8706e-07,0.046002,0.027700004471635342,-5.575540029667536e-13,-4.722938884427208e-07,0.027700004471635342,-1.8705998250378997e-07,-0.05058739865841777
277,0.0278,695.042,726.909,0.000879784,-0.00100069,0.00114348,-0.00122206,0.0274206,0.0274206,-0.0521048,-5.58139e-13,-4.73191e-07,-1.87604e-07,0.0461789,0.02780000454699527,-5.581091144790662e-13,-4.731908880284408e-07,0.02780000454699527,-1.8760398234896059e-07,-0.050770617609279256
278,0.0279,695.452,727.339,0.000879739,-0.000998657,0.0011452,-0.0012209,0.0275179,0.0275179,-0.0522978,6.53465e-13,-4.74085e-07,-1.88146e-07,0.0463558,0.027900014352835845,6.534772722943671e-13,-4.740848875695036e-07,0.027900014352835845,-1.8814598234939695e-07,-0.05095380120229531
279,0.028,695.86,727.768,0.000879688,-0.000996636,0.00114692,-0.00121975,0.0276152,0.0276152,-0.0524908,-5.594e-13,-4.74976e-07,-1.88688e-07,0.0465328,0.02800003389010386,-5.594413821086164e-13,-4.749758871769316e-07,0.02800003389010386,-1.88687982238811e-07,-0.05113694944428937
280,0.0281,696.267,728.195,0.000879633,-0.000994622,0.00114863,-0.0012186,0.0277124,0.0277124,-0.0526837,-5.60024e-13,-4.75864e-07,-1.89229e-07,0.0467097,0.02809996034974538,-5.59996493620929e-13,-4.758638867397025e-07,0.02809996034974538,-1.8922898215034678e-07,-0.05131996747408507
281,0.0282,696.673,728.621,0.000879573,-0.000992617,0.00115033,-0.00121745,0.0278097,0.0278097,-0.0528766,-5.60644e-13,-4.7675e-07,-1.8977e-07,0.0468866,0.02819999934270534,-5.606626274357041e-13,-4.767498863467168e-07,0.02819999934270534,-1.8976998195086026e-07,-0.05150295020310769
282,0.0283,697.077,729.046,0.000879508,-0.000990619,0.00115203,-0.00121631,0.027907,0.027907,-0.0530695,-5.6126e-13,-4.77632e-07,-1.90309e-07,0.0470635,0.028300048069933137,-5.612177389480166e-13,-4.776318859311957e-07,0.028300048069933137,-1.9030898190663947e-07,-0.05168589763816611
283,0.0284,697.481,729.469,0.000879438,-0.000988629,0.00115371,-0.00121517,0.0280042,0.0280042,-0.0532624,-5.61872e-13,-4.78512e-07,-1.90848e-07,0.0472403,0.028400003692370168,-5.618838727627917e-13,-4.78511885559918e-07,0.028400003692370168,-1.908479817513964e-07,-0.05186880978606789
284,0.0285,697.883,729.892,0.000879364,-0.000986646,0.00115539,-0.00121403,0.0281014,0.0281014,-0.0534553,-5.6248e-13,-4.79389e-07,-1.91385e-07,0.0474172,0.028499969030965744,-5.624389842751043e-13,-4.793888851439831e-07,0.028499969030965744,-1.9138498164039675e-07,-0.052051686653619145
285,0.0286,698.284,730.312,0.000879285,-0.000984672,0.00115707,-0.00121289,0.0281987,0.0281987,-0.0536482,-5.63083e-13,-4.80263e-07,-1.91922e-07,0.0475941,0.02860004694666407,-5.631051180898794e-13,-4.802628846833912e-07,0.02860004694666407,-1.919219815293971e-07,-0.05223452824762498
286,0.0287,698.683,730.732,0.000879201,-0.000982704,0.00115873,-0.00121176,0.0282959,0.0282959,-0.053841,-5.63683e-13,-4.81135e-07,-1.92458e-07,0.0477709,0.028700031730409137,-5.63660229602192e-13,-4.811348842670427e-07,0.028700031730409137,-1.9245798144051918e-07,-0.05241723981661761
287,0.0288,699.082,731.15,0.000879113,-0.000980744,0.00116039,-0.00121063,0.0283931,0.0283931,-0.0540339,6.63426e-13,-4.82003e-07,-1.92994e-07,0.0479478,0.02880002623314737,6.634692795159935e-13,-4.820028838281587e-07,0.02880002623314737,-1.9299398135164125e-07,-0.052600010902219
288,0.0289,699.479,731.567,0.000879021,-0.000978792,0.00116205,-0.00120951,0.0284903,0.0284903,-0.0542267,6.64529e-13,-4.82869e-07,-1.93528e-07,0.0481246,0.02890003045582379,6.645795025406187e-13,-4.828688834335182e-07,0.02890003045582379,-1.9352798130700677e-07,-0.052782652012948295
289,0.029,699.875,731.983,0.000878925,-0.000976847,0.00116369,-0.00120838,0.0285875,0.0285875,-0.0544195,-5.65458e-13,-4.83732e-07,-1.94062e-07,0.0483014,0.029000044399382974,-5.654365864415922e-13,-4.837318829942205e-07,0.029000044399382974,-1.9406198115134998e-07,-0.05296525791386564
290,0.0291,700.27,732.398,0.000878824,-0.00097491,0.00116533,-0.00120726,0.0286846,0.0286846,-0.0546123,-5.66041e-13,-4.84592e-07,-1.94595e-07,0.0484782,0.029099965154768315,-5.659916979539048e-13,-4.84591882621288e-07,0.029099965154768315,-1.9459498101781492e-07,-0.05314782861175904
291,0.0292,700.664,732.811,0.000878719,-0.000972979,0.00116696,-0.00120615,0.0287818,0.0287818,-0.0548051,-5.66621e-13,-4.8545e-07,-1.95127e-07,0.0486551,0.029199998532924765,-5.666578317686799e-13,-4.854498821815767e-07,0.029199998532924765,-1.9512698101742387e-07,-0.05333036411341496
292,0.0293,701.056,733.223,0.00087861,-0.000971056,0.00116859,-0.00120503,0.028879,0.028879,-0.0549979,-5.67197e-13,-4.86305e-07,-1.95658e-07,0.0488319,0.029300041634798157,-5.672129432809925e-13,-4.863048818082305e-07,0.029300041634798157,-1.9565798081710994e-07,-0.05351286442561842
293,0.0294,701.448,733.634,0.000878498,-0.00096914,0.0011702,-0.00120392,0.0289761,0.0289761,-0.0551906,-5.67769e-13,-4.87157e-07,-1.96188e-07,0.0490086,0.02939999152132944,-5.677680547933051e-13,-4.871568813902272e-07,0.02939999152132944,-1.9618798074994004e-07,-0.053695234924681645
294,0.0295,701.838,734.044,0.000878381,-0.000967231,0.00117182,-0.00120281,0.0290732,0.0290732,-0.0553834,-5.68337e-13,-4.88006e-07,-1.96718e-07,0.0491854,0.029499951113465706,-5.683231663056176e-13,-4.880058809275667e-07,0.029499951113465706,-1.9671798068277013e-07,-0.05387766489657386
295,0.0296,702.227,734.452,0.00087826,-0.000965329,0.00117342,-0.00120171,0.0291704,0.0291704,-0.0555761,-5.68901e-13,-4.88853e-07,-1.97247e-07,0.0493622,0.029600023372146955,-5.688782778179302e-13,-4.888528805091497e-07,0.029600023372146955,-1.9724698052669964e-07,-0.05405996510535904
296,0.0297,702.615,734.859,0.000878136,-0.000963434,0.00117502,-0.0012006,0.0292675,0.0292675,-0.0557688,-5.69462e-13,-4.89697e-07,-1.97775e-07,0.0495389,0.029700002388318936,-5.694333893302428e-13,-4.896968800460755e-07,0.029700002388318936,-1.9777498039275088e-07,-0.05424223018827845
297,0.0298,703.002,735.265,0.000878008,-0.000961546,0.00117661,-0.0011995,0.0293646,0.0293646,-0.0559615,-5.70019e-13,-4.90539e-07,-1.98302e-07,0.0497157,0.029799991112924973,-5.699885008425554e-13,-4.90538879738267e-07,0.029799991112924973,-1.9830198039194613e-07,-0.05442446015210023
298,0.0299,703.387,735.67,0.000877876,-0.000959664,0.0011782,-0.00119841,0.0294617,0.0294617,-0.0561542,6.74533e-13,-4.91378e-07,-1.98829e-07,0.0498924,0.029899989546907424,6.745715097622451e-13,-4.913778792747792e-07,0.029899989546907424,-1.9882898028011908e-07,-0.05460665500359119
299,0.03,703.772,736.074,0.000877741,-0.00095779,0.00117978,-0.00119731,0.0295588,0.0295588,-0.0563469,6.75731e-13,-4.92214e-07,-1.99355e-07,0.0500691,0.029999997691209312,6.756817327868703e-13,-4.922138788776564e-07,0.029999997691209312,-1.9935498007939145e-07,-0.0547888147495168
300,0.0301,704.155,736.476,0.000877602,-0.000955922,0.00118135,-0.00119622,0.0296559,0.0296559,-0.0565395,-5.71667e-13,-4.93048e-07,-1.9988e-07,0.0502458,0.03010001554677344,-5.716538353794931e-13,-4.930478784137549e-07,0.03010001554677344,-1.9987998001180785e-07,-0.0549708448937305
301,0.0302,704.538,736.878,0.00087746,-0.000954061,0.00118291,-0.00119513,0.029753,0.029753,-0.0567322,-5.72209e-13,-4.93879e-07,-2.00404e-07,0.0504225,0.03020004311454283,-5.722089468918057e-13,-4.938788780162184e-07,0.03020004311454283,-2.0040397996634596e-07,-0.05515293446702563
302,0.0303,704.919,737.278,0.000877314,-0.000952207,0.00118448,-0.00119404,0.02985,0.02985,-0.0569248,-5.72747e-13,-4.94707e-07,-2.00927e-07,0.0505992,0.030299977365457753,-5.727640584041183e-13,-4.947068776850472e-07,0.030299977365457753,-2.009269798319835e-07,-0.05533489448853468
303,0.0304,705.299,737.677,0.000877165,-0.000950359,0.00118603,-0.00119296,0.0299471,0.0299471,-0.0571174,-5.73282e-13,-4.95533e-07,-2.0145e-07,0.0507759,0.030400024350462518,-5.733191699164308e-13,-4.955328771760747e-07,0.030400024350462518,-2.0144997969762102e-07,-0.05551681946791831
304,0.0305,705.678,738.075,0.000877013,-0.000948518,0.00118758,-0.00119188,0.0300441,0.0300441,-0.05731,-5.73813e-13,-4.96356e-07,-2.01972e-07,0.0509526,0.030499978000497974,-5.737632591262809e-13,-4.963558768444898e-07,0.030499978000497974,-2.0197197958538027e-07,-0.055698709411924896
305,0.0306,706.056,738.472,0.000876857,-0.000946683,0.00118912,-0.0011908,0.0301412,0.0301412,-0.0575026,-5.74341e-13,-4.97177e-07,-2.02493e-07,0.0511293,0.03060004440650732,-5.743183706385935e-13,-4.97176876446126e-07,0.03060004440650732,-2.0249297949526124e-07,-0.05588056432730171
306,0.0307,706.433,738.867,0.000876698,-0.000944855,0.00119065,-0.00118972,0.0302382,0.0302382,-0.0576952,-5.74865e-13,-4.97995e-07,-2.03013e-07,0.0513059,0.030700017459429407,-5.748734821509061e-13,-4.97994876003105e-07,0.030700017459429407,-2.0301297942726393e-07,-0.05606238422079446
307,0.0308,706.809,739.262,0.000876536,-0.000943033,0.00119218,-0.00118865,0.0303352,0.0303352,-0.0578877,-5.75385e-13,-4.9881e-07,-2.03533e-07,0.0514825,0.03080000021020801,-5.754285936632186e-13,-4.988098756264492e-07,0.03080000021020801,-2.0353297924824432e-07,-0.05624407472355997
308,0.0309,707.184,739.655,0.000876371,-0.000941217,0.00119371,-0.00118758,0.0304322,0.0304322,-0.0580802,-5.75902e-13,-4.99623e-07,-2.04052e-07,0.0516592,0.030899992659783715,-5.758726828730687e-13,-4.996228751830145e-07,0.030899992659783715,-2.0405197920236873e-07,-0.05642573025426989
309,0.031,707.558,740.048,0.000876203,-0.000939408,0.00119523,-0.00118651,0.0305292,0.0305292,-0.0582728,-5.76415e-13,-5.00434e-07,-2.0457e-07,0.0518358,0.030999994809097542,-5.764277943853813e-13,-5.004338747838233e-07,0.030999994809097542,-2.0456997906759256e-07,-0.056607445158915914
310,0.0311,707.931,740.439,0.000876031,-0.000937605,0.00119674,-0.00118544,0.0306262,0.0306262,-0.0584653,-5.76925e-13,-5.01242e-07,-2.05087e-07,0.0520124,0.031100006659090518,-5.768718835952313e-13,-5.012418743399749e-07,0.031100006659090518,-2.050869789549381e-07,-0.05678903074754915
311,0.0312,708.302,740.829,0.000875857,-0.000935808,0.00119824,-0.00118438,0.0307232,0.0307232,-0.0586578,6.88149e-13,-5.02047e-07,-2.05604e-07,0.052189,0.031200028210703223,6.88116230662672e-13,-5.020468739624917e-07,0.031200028210703223,-2.0560397884228365e-07,-0.05697058138432087
312,0.0313,708.673,741.218,0.00087568,-0.000934018,0.00119974,-0.00118331,0.0308201,0.0308201,-0.0588503,6.88899e-13,-5.0285e-07,-2.0612e-07,0.0523656,0.031299956334876144,6.890044090823721e-13,-5.028498735182296e-07,0.031299956334876144,-2.0611997875175092e-07,-0.057152097075958586
313,0.0314,709.043,741.606,0.0008755,-0.000932233,0.00120124,-0.00118225,0.0309171,0.0309171,-0.0590427,-5.78435e-13,-5.03651e-07,-2.06635e-07,0.0525422,0.031399997282548275,-5.784261958297066e-13,-5.03650873118211e-07,0.031399997282548275,-2.066349786833399e-07,-0.05733348356254153
314,0.0315,709.411,741.993,0.000875318,-0.000930455,0.00120273,-0.0011812,0.0310141,0.0310141,-0.0592352,-5.78931e-13,-5.04449e-07,-2.07149e-07,0.0527187,0.03150004793466277,-5.789813073420191e-13,-5.044488727845575e-07,0.03150004793466277,-2.0714897852602832e-07,-0.05751492940223346
315,0.0316,709.779,742.379,0.000875132,-0.000928682,0.00120421,-0.00118014,0.031111,0.031111,-0.0594276,-5.79424e-13,-5.05245e-07,-2.07663e-07,0.0528953,0.03160000513215566,-5.794253965518692e-13,-5.052448723841252e-07,0.03160000513215566,-2.0766297847973902e-07,-0.05769624608659207
316,0.0317,710.145,742.763,0.000874944,-0.000926916,0.00120569,-0.00117909,0.0312079,0.0312079,-0.05962,6.92997e-13,-5.06038e-07,-2.08176e-07,0.0530718,0.0316999720159703,6.930012119710227e-13,-5.060378719390357e-07,0.0316999720159703,-2.0817597834454915e-07,-0.05787752788897638
317,0.0318,710.511,743.147,0.000874753,-0.000925155,0.00120716,-0.00117804,0.0313049,0.0313049,-0.0598124,-5.80399e-13,-5.06828e-07,-2.08688e-07,0.0532484,0.03180005176704537,-5.804245972740318e-13,-5.068278715603114e-07,0.03180005176704537,-2.08687978231481e-07,-0.058058774816097
318,0.0319,710.876,743.53,0.00087456,-0.000923401,0.00120863,-0.00117699,0.0314018,0.0314018,-0.0600048,-5.80882e-13,-5.07617e-07,-2.09199e-07,0.0534249,0.031900038036318135,-5.808686864838819e-13,-5.076168712037088e-07,0.031900038036318135,-2.0919897814053456e-07,-0.05823998687466336
319,0.032,711.239,743.911,0.000874363,-0.000921652,0.00121009,-0.00117595,0.0314987,0.0314987,-0.0601972,-5.81362e-13,-5.08403e-07,-2.0971e-07,0.0536014,0.032000033994729726,-5.81312775693732e-13,-5.084028708024491e-07,0.032000033994729726,-2.0970997804958813e-07,-0.058421164071383425
320,0.0321,711.602,744.292,0.000874165,-0.000919909,0.00121154,-0.0011749,0.0315956,0.0315956,-0.0603896,-5.81838e-13,-5.09186e-07,-2.1022e-07,0.0537779,0.03210003964321917,-5.818678872060445e-13,-5.091858703565322e-07,0.03210003964321917,-2.1021997786974111e-07,-0.058602306412964045
321,0.0322,711.963,744.672,0.000873964,-0.000918172,0.00121299,-0.00117386,0.0316924,0.0316924,-0.0605819,-5.82311e-13,-5.09967e-07,-2.10729e-07,0.0539544,0.032199951762725165,-5.823119764158946e-13,-5.099668699548587e-07,0.032199951762725165,-2.1072897782303812e-07,-0.058783319784447396
322,0.0323,712.324,745.05,0.00087376,-0.000916441,0.00121444,-0.00117282,0.0317893,0.0317893,-0.0607742,-5.82781e-13,-5.10746e-07,-2.11237e-07,0.0541309,0.03229997678418517,-5.827560656257447e-13,-5.107458695974287e-07,0.03229997678418517,-2.1123697768743455e-07,-0.058964298350406064
323,0.0324,712.684,745.428,0.000873554,-0.000914715,0.00121588,-0.00117179,0.0318862,0.0318862,-0.0609666,-5.83248e-13,-5.11522e-07,-2.11745e-07,0.0543073,0.032400011498538994,-5.832001548355947e-13,-5.115218691953416e-07,0.032400011498538994,-2.1174497755183097e-07,-0.05914533620300355
324,0.0325,713.043,745.804,0.000873346,-0.000912995,0.00121731,-0.00117075,0.031983,0.031983,-0.0611589,-5.83711e-13,-5.12296e-07,-2.12252e-07,0.0544838,0.03249995265672623,-5.837552663479073e-13,-5.122958687264756e-07,0.03249995265672623,-2.1225197743834912e-07,-0.05932624515989804
325,0.0326,713.4,746.179,0.000873135,-0.00091128,0.00121874,-0.00116972,0.0320799,0.0320799,-0.0613512,-5.84172e-13,-5.13067e-07,-2.12759e-07,0.0546602,0.03260000674968122,-5.841993555577574e-13,-5.13066868434997e-07,0.03260000674968122,-2.1275897732486726e-07,-0.05950711933134478
326,0.0327,713.757,746.554,0.000872922,-0.000909571,0.00122016,-0.00116869,0.0321767,0.0321767,-0.0615434,-5.84629e-13,-5.13837e-07,-2.13264e-07,0.0548367,0.03269996726834545,-5.846434447676074e-13,-5.138368679435956e-07,0.03269996726834545,-2.1326397725562884e-07,-0.05968786469282361
327,0.0328,714.113,746.927,0.000872707,-0.000907868,0.00122158,-0.00116766,0.0322736,0.0322736,-0.0617357,-5.85083e-13,-5.14603e-07,-2.13769e-07,0.0550131,0.0328000407436555,-5.850875339774575e-13,-5.146028675406811e-07,0.0328000407436555,-2.1376897718639043e-07,-0.05986866933152002
328,0.0329,714.468,747.3,0.000872489,-0.00090617,0.00122299,-0.00116664,0.0323704,0.0323704,-0.0619279,-5.85533e-13,-5.15368e-07,-2.14273e-07,0.0551895,0.03290002062654773,-5.855316231873076e-13,-5.153678671598882e-07,0.03290002062654773,-2.1427297702825143e-07,-0.06004934520976646
329,0.033,714.822,747.671,0.000872269,-0.000904478,0.0012244,-0.00116562,0.0324672,0.0324672,-0.0621202,-5.85981e-13,-5.1613e-07,-2.14777e-07,0.0553659,0.03300001018796106,-5.859757123971576e-13,-5.161298668454606e-07,0.03300001018796106,-2.1477697698113474e-07,-0.06023008034244259
330,0.0331,715.175,748.042,0.000872048,-0.000902791,0.0012258,-0.00116459,0.032564,0.032564,-0.0623124,-5.86426e-13,-5.1689e-07,-2.1528e-07,0.0555423,0.03310000942883229,-5.864198016070077e-13,-5.168898664642541e-07,0.03310000942883229,-2.1527997684511746e-07,-0.06041068676416772
331,0.0332,715.527,748.411,0.000871824,-0.000901109,0.0012272,-0.00116358,0.0326608,0.0326608,-0.0625046,-5.86867e-13,-5.17648e-07,-2.15782e-07,0.0557187,0.03320001835009867,-5.868638908168577e-13,-5.176478660162687e-07,0.03320001835009867,-2.157819767312219e-07,-0.060591258476674126
332,0.0333,715.879,748.78,0.000871597,-0.000899433,0.00122859,-0.00116256,0.0327576,0.0327576,-0.0626967,-5.87306e-13,-5.18403e-07,-2.16283e-07,0.055895,0.03330003695269723,-5.873079800267078e-13,-5.184028656346484e-07,0.03330003695269723,-2.1628297663944807e-07,-0.0607717015638074
333,0.0334,716.229,749.148,0.000871369,-0.000897762,0.00122998,-0.00116154,0.0328543,0.0328543,-0.0628889,-5.87741e-13,-5.19156e-07,-2.16784e-07,0.0560714,0.03339996189756378,-5.877520692365579e-13,-5.191558651862493e-07,0.03339996189756378,-2.1678397654767423e-07,-0.06095220389593703
334,0.0335,716.578,749.514,0.000871139,-0.000896096,0.00123136,-0.00116053,0.0329511,0.0329511,-0.0630811,-5.88174e-13,-5.19906e-07,-2.17284e-07,0.0562477,0.03349999985563468,-5.881961584464079e-13,-5.199058648042154e-07,0.03349999985563468,-2.172839763669998e-07,-0.06113267153885227
335,0.0336,716.927,749.88,0.000870907,-0.000894436,0.00123274,-0.00115952,0.0330479,0.0330479,-0.0632732,-5.88603e-13,-5.20655e-07,-2.17783e-07,0.056424,0.033600047497848395,-5.88640247656258e-13,-5.206548644443032e-07,0.033600047497848395,-2.177829763194694e-07,-0.0613130106305253
336,0.0337,717.274,750.245,0.000870673,-0.00089278,0.00123411,-0.00115851,0.0331446,0.0331446,-0.0634653,-5.8903e-13,-5.21401e-07,-2.18282e-07,0.0566004,0.03370000145513741,-5.890843368661081e-13,-5.214008640397338e-07,0.03370000145513741,-2.182819761609167e-07,-0.06149331508238609
337,0.0338,717.621,750.609,0.000870437,-0.00089113,0.00123548,-0.0011575,0.0332413,0.0332413,-0.0636574,-5.89454e-13,-5.22145e-07,-2.1878e-07,0.0567767,0.033799965078441296,-5.894174037734956e-13,-5.221448636794079e-07,0.033799965078441296,-2.1877997602448573e-07,-0.06167358490108832
338,0.0339,717.967,750.971,0.000870199,-0.000889485,0.00123684,-0.0011565,0.0333381,0.0333381,-0.0638495,-5.89874e-13,-5.22886e-07,-2.19277e-07,0.056953,0.0339000417586941,-5.898614929833457e-13,-5.228858632744249e-07,0.0339000417586941,-2.1927697591017647e-07,-0.06185382009328433
339,0.034,718.312,751.333,0.000869959,-0.000887845,0.0012382,-0.0011555,0.0334348,0.0334348,-0.0640416,-5.90292e-13,-5.23626e-07,-2.19773e-07,0.0571292,0.034000024726830835,-5.903055821931957e-13,-5.236258628915635e-07,0.034000024726830835,-2.1977297581798894e-07,-0.062034020665625245
340,0.0341,718.656,751.694,0.000869717,-0.00088621,0.00123955,-0.0011545,0.0335315,0.0335315,-0.0642336,-5.90706e-13,-5.24363e-07,-2.20269e-07,0.0573055,0.03410001736378798,-5.907496714030458e-13,-5.243628625750674e-07,0.03410001736378798,-2.202689757258014e-07,-0.06221409284617496
341,0.0342,718.999,752.055,0.000869474,-0.000884581,0.0012409,-0.0011535,0.0336282,0.0336282,-0.0644257,-5.91118e-13,-5.25098e-07,-2.20764e-07,0.0574818,0.03420001967050057,-5.910827383104333e-13,-5.2509786208077e-07,0.03420001967050057,-2.2076397565573558e-07,-0.0623942242167671
342,0.0343,719.341,752.414,0.000869229,-0.000882956,0.00124224,-0.0011525,0.0337249,0.0337249,-0.0646177,-5.91527e-13,-5.25831e-07,-2.21259e-07,0.057658,0.03430003164790407,-5.915268275202834e-13,-5.258308617417384e-07,0.03430003164790407,-2.2125897547464746e-07,-0.06257422724487383
343,0.0344,719.683,752.772,0.000868982,-0.000881336,0.00124358,-0.0011515,0.0338215,0.0338215,-0.0648097,-5.91933e-13,-5.26561e-07,-2.21753e-07,0.0578343,0.034399949856932954,-5.919709167301335e-13,-5.265608613580497e-07,0.034399949856932954,-2.2175297542670336e-07,-0.06275419571571672
344,0.0345,720.023,753.129,0.000868733,-0.000879721,0.00124492,-0.00115051,0.0339182,0.0339182,-0.0650017,7.19318e-13,-5.2729e-07,-2.22246e-07,0.0580105,0.034499981168520044,7.194245199571014e-13,-5.272898609964827e-07,0.034499981168520044,-2.2224597528985868e-07,-0.06293412963593026
345,0.0346,720.363,753.486,0.000868483,-0.000878111,0.00124625,-0.00114952,0.0340149,0.0340149,-0.0651937,-5.92737e-13,-5.28016e-07,-2.22738e-07,0.0581867,0.034600022153602694,-5.927480728473711e-13,-5.280158605902585e-07,0.034600022153602694,-2.2273797517513572e-07,-0.06311402901214735
346,0.0347,720.702,753.841,0.000868231,-0.000876506,0.00124757,-0.00114853,0.0341115,0.0341115,-0.0653857,-5.93135e-13,-5.2874e-07,-2.2323e-07,0.0583629,0.034699969343114256,-5.930811397547586e-13,-5.287398602282778e-07,0.034699969343114256,-2.2322997506041276e-07,-0.06329389385099993
347,0.0348,721.04,754.196,0.000867977,-0.000874905,0.00124889,-0.00114754,0.0342082,0.0342082,-0.0655776,-5.93529e-13,-5.29461e-07,-2.23721e-07,0.0585391,0.034800029667988674,-5.935252289646087e-13,-5.294608598216399e-07,0.034800029667988674,-2.2372097496781151e-07,-0.06347363050648624
348,0.0349,721.377,754.55,0.000867722,-0.00087331,0.00125021,-0.00114656,0.0343048,0.0343048,-0.0657696,-5.93921e-13,-5.30181e-07,-2.24211e-07,0.0587153,0.034899996179159176,-5.939693181744587e-13,-5.301808594371238e-07,0.034899996179159176,-2.24210974897332e-07,-0.0636534263084797
349,0.035,721.714,754.903,0.000867465,-0.000871719,0.00125152,-0.00114557,0.0344014,0.0344014,-0.0659615,-5.94311e-13,-5.30898e-07,-2.24701e-07,0.0588914,0.03499997234756136,-5.943023850818463e-13,-5.308978591189728e-07,0.03499997234756136,-2.2470097471583017e-07,-0.0638330939763071
350,0.0351,722.049,755.255,0.000867207,-0.000870133,0.00125283,-0.00114459,0.034498,0.034498,-0.0661534,-5.94697e-13,-5.31614e-07,-2.2519e-07,0.0590676,0.03509995817412781,-5.947464742916964e-13,-5.316138587119212e-07,0.03509995817412781,-2.2518997466747237e-07,-0.06401272716921691
351,0.0352,722.384,755.606,0.000866947,-0.000868552,0.00125413,-0.00114361,0.0345946,0.0345946,-0.0663453,-5.95081e-13,-5.32327e-07,-2.25679e-07,0.0592437,0.03519995365979156,-5.950795411990839e-13,-5.323268582602125e-07,0.03519995365979156,-2.2567897450809227e-07,-0.06419232589382429
352,0.0353,722.718,755.956,0.000866685,-0.000866975,0.00125543,-0.00114263,0.0346912,0.0346912,-0.0665372,-5.95462e-13,-5.33038e-07,-2.26166e-07,0.0594199,0.035299958805485865,-5.954126081064715e-13,-5.330378579637696e-07,0.035299958805485865,-2.261659743929556e-07,-0.06437189015674327
353,0.0354,723.051,756.306,0.000866422,-0.000865403,0.00125672,-0.00114166,0.0347878,0.0347878,-0.066729,-5.9584e-13,-5.33747e-07,-2.26653e-07,0.059596,0.035399973612143976,-5.958566973163215e-13,-5.337468576005477e-07,0.035399973612143976,-2.2665297427781894e-07,-0.0645513264197235
354,0.0355,723.383,756.654,0.000866158,-0.000863835,0.00125801,-0.00114068,0.0348844,0.0348844,-0.0669209,-5.96216e-13,-5.34454e-07,-2.2714e-07,0.0597721,0.035499998080698925,-5.961897642237091e-13,-5.344538571705471e-07,0.035499998080698925,-2.2713997416268228e-07,-0.06473082179705125
355,0.0356,723.714,757.002,0.000865892,-0.000862273,0.00125929,-0.00113971,0.034981,0.034981,-0.0671127,-5.96588e-13,-5.35159e-07,-2.27626e-07,0.0599482,0.03560003221208419,-5.966338534335591e-13,-5.351588567847898e-07,0.03560003221208419,-2.2762597406966734e-07,-0.06491018922354452
356,0.0357,724.045,757.349,0.000865625,-0.000860714,0.00126058,-0.00113874,0.0350775,0.0350775,-0.0673045,-5.96959e-13,-5.35861e-07,-2.28111e-07,0.0601243,0.03569997243723111,-5.969669203409467e-13,-5.358608564653977e-07,0.03569997243723111,-2.2811097399877411e-07,-0.06508952225066433
357,0.0358,724.375,757.695,0.000865356,-0.000859161,0.00126185,-0.00113777,0.0351741,0.0351741,-0.0674963,-5.97326e-13,-5.36562e-07,-2.28595e-07,0.0603003,0.03580002588707232,-5.972999872483342e-13,-5.36561856057105e-07,0.03580002588707232,-2.285949738389803e-07,-0.06526882088500796
358,0.0359,724.704,758.04,0.000865086,-0.000857611,0.00126312,-0.0011368,0.0352706,0.0352706,-0.0676881,-5.97691e-13,-5.3726e-07,-2.29079e-07,0.0604764,0.035899985412539914,-5.977440764581843e-13,-5.372598557151775e-07,0.035899985412539914,-2.290789737902088e-07,-0.06544808513317124
359,0.036,725.032,758.384,0.000864815,-0.000856066,0.00126439,-0.00113584,0.0353671,0.0353671,-0.0678799,-5.98053e-13,-5.37956e-07,-2.29562e-07,0.0606524,0.035999954584567284,-5.980771433655718e-13,-5.379558553064712e-07,0.035999954584567284,-2.2956197365253672e-07,-0.0656273150017489
360,0.0361,725.359,758.728,0.000864542,-0.000854526,0.00126565,-0.00113487,0.0354637,0.0354637,-0.0680716,-5.98413e-13,-5.38651e-07,-2.30045e-07,0.0608285,0.0361000370140836,-5.984102102729594e-13,-5.386508549198865e-07,0.0361000370140836,-2.3004497351486464e-07,-0.06580641707798052
361,0.0362,725.686,759.07,0.000864268,-0.00085299,0.00126691,-0.00113391,0.0355602,0.0355602,-0.0682634,-5.9877e-13,-5.39343e-07,-2.30527e-07,0.0610045,0.03620002549202184,-5.987432771803469e-13,-5.39342854599667e-07,0.03620002549202184,-2.3052697339931427e-07,-0.06598557822508178
362,0.0363,726.012,759.412,0.000863993,-0.000851459,0.00126817,-0.00113295,0.0356567,0.0356567,-0.0684551,-5.99125e-13,-5.40033e-07,-2.31008e-07,0.0611805,0.03630002361931384,-5.990763440877345e-13,-5.400328542126687e-07,0.03630002361931384,-2.3100797330588563e-07,-0.06616461162883602
363,0.0364,726.337,759.753,0.000863717,-0.000849932,0.00126942,-0.00113199,0.0357532,0.0357532,-0.0686468,-5.99477e-13,-5.40721e-07,-2.31488e-07,0.0613565,0.03640003139689085,-5.995204332975845e-13,-5.407208537588915e-07,0.03640003139689085,-2.314879732345787e-07,-0.06634361071517614
364,0.0365,726.661,760.094,0.000863439,-0.000848409,0.00127067,-0.00113103,0.0358497,0.0358497,-0.0688385,-5.99826e-13,-5.41407e-07,-2.31968e-07,0.0615325,0.03650004882568392,-5.998535002049721e-13,-5.4140685346038e-07,0.03650004882568392,-2.3196797305224948e-07,-0.06652257549068019
365,0.0366,726.985,760.433,0.00086316,-0.00084689,0.00127191,-0.00113008,0.0359461,0.0359461,-0.0690302,-6.00173e-13,-5.42091e-07,-2.32448e-07,0.0617085,0.03659997224662237,-6.001865671123596e-13,-5.420908530950896e-07,0.03659997224662237,-2.3244797298094255e-07,-0.06670150596192503
366,0.0367,727.307,760.772,0.00086288,-0.000845376,0.00127315,-0.00112912,0.0360426,0.0360426,-0.0692218,-6.00517e-13,-5.42773e-07,-2.32926e-07,0.0618844,0.03670000897063841,-6.005196340197472e-13,-5.427728526630204e-07,0.03670000897063841,-2.3292597284285677e-07,-0.06688030882352158
367,0.0368,727.629,761.109,0.000862599,-0.000843866,0.00127438,-0.00112817,0.036139,0.036139,-0.0694135,-6.00859e-13,-5.43453e-07,-2.33404e-07,0.0620604,0.0367999516686639,-6.008527009271347e-13,-5.434528522751947e-07,0.0367999516686639,-2.3340397281579328e-07,-0.06705917072385925
368,0.0369,727.951,761.446,0.000862316,-0.00084236,0.00127561,-0.00112722,0.0362355,0.0362355,-0.0696051,-6.01198e-13,-5.44131e-07,-2.33882e-07,0.0622363,0.03690000769162527,-6.011857678345223e-13,-5.441308519316124e-07,0.03690000769162527,-2.338819726777075e-07,-0.06723790506345206
369,0.037,728.271,761.782,0.000862033,-0.000840859,0.00127684,-0.00112627,0.0363319,0.0363319,-0.0697967,7.41018e-13,-5.44807e-07,-2.34358e-07,0.0624122,0.03699996967045682,7.409628466348295e-13,-5.448068516322735e-07,0.03699996967045682,-2.3435797258386515e-07,-0.06741660516082593
370,0.0371,728.591,762.118,0.000861748,-0.000839361,0.00127806,-0.00112532,0.0364284,0.0364284,-0.0699883,-6.01869e-13,-5.45481e-07,-2.34834e-07,0.0625881,0.03710004499608677,-6.018519016492974e-13,-5.454808512661558e-07,0.03710004499608677,-2.348339723790005e-07,-0.06759527102254093
371,0.0372,728.91,762.453,0.000861462,-0.000837868,0.00127928,-0.00112438,0.0365248,0.0365248,-0.0701799,-6.02201e-13,-5.46153e-07,-2.3531e-07,0.062764,0.03720002625944385,-6.021849685566849e-13,-5.461528508332592e-07,0.03720002625944385,-2.3530997228515815e-07,-0.06777390265515615
372,0.0373,729.228,762.786,0.000861175,-0.000836379,0.0012805,-0.00112343,0.0366212,0.0366212,-0.0703714,-6.0253e-13,-5.46823e-07,-2.35785e-07,0.0629399,0.037300017161459254,-6.025180354640725e-13,-5.46822850444606e-07,0.037300017161459254,-2.3578497221343753e-07,-0.06795240686047455
373,0.0374,729.545,763.119,0.000860888,-0.000834894,0.00128171,-0.00112249,0.0367176,0.0367176,-0.070563,-6.02857e-13,-5.47491e-07,-2.36259e-07,0.0631158,0.03740001770306223,-6.0285110237146e-13,-5.474908501001963e-07,0.03740001770306223,-2.3625897205281632e-07,-0.06813097007241808
374,0.0375,729.862,763.452,0.000860599,-0.000833413,0.00128291,-0.00112155,0.036814,0.036814,-0.0707545,-6.03182e-13,-5.48157e-07,-2.36733e-07,0.0632917,0.03750002788518225,-6.031841692788475e-13,-5.4815684980003e-07,0.03750002788518225,-2.367329720032174e-07,-0.06830940590587287
375,0.0376,730.178,763.783,0.000860309,-0.000831936,0.00128412,-0.00112061,0.0369104,0.0369104,-0.070946,-6.03504e-13,-5.48821e-07,-2.37205e-07,0.0634675,0.03760004770874836,-6.035172361862351e-13,-5.488208494330848e-07,0.03760004770874836,-2.3720497188683964e-07,-0.06848780757213713
376,0.0377,730.493,764.114,0.000860018,-0.000830463,0.00128532,-0.00111967,0.0370067,0.0370067,-0.0711375,-6.03823e-13,-5.49484e-07,-2.37678e-07,0.0636434,0.03769997340468767,-6.038503030936226e-13,-5.494838490882614e-07,0.03769997340468767,-2.3767797174834016e-07,-0.0686661750777533
377,0.0378,730.808,764.444,0.000859726,-0.000828995,0.00128651,-0.00111873,0.0371031,0.0371031,-0.071329,7.4742e-13,-5.50144e-07,-2.3815e-07,0.0638192,0.03780001250393106,7.474021401776554e-13,-5.501438486987809e-07,0.03780001250393106,-2.381499716319624e-07,-0.06884450842926249
378,0.0379,731.122,764.773,0.000859433,-0.00082753,0.0012877,-0.0011178,0.0371994,0.0371994,-0.0715205,-6.04455e-13,-5.50802e-07,-2.38621e-07,0.063995,0.037899957457407485,-6.044054146059352e-13,-5.508018483535437e-07,0.037899957457407485,-2.3862097153770634e-07,-0.06902280763320467
379,0.038,731.435,765.102,0.000859139,-0.000826069,0.00128889,-0.00111686,0.0372958,0.0372958,-0.071712,-6.04768e-13,-5.51458e-07,-2.39091e-07,0.0641708,0.03800001583604273,-6.047384815133228e-13,-5.514578479415277e-07,0.03800001583604273,-2.39090971465572e-07,-0.0692010726961183
380,0.0381,731.747,765.429,0.000858844,-0.000824612,0.00129008,-0.00111593,0.0373921,0.0373921,-0.0719034,-6.05078e-13,-5.52113e-07,-2.39561e-07,0.0643466,0.038099980050767535,-6.050715484207103e-13,-5.521128475516335e-07,0.038099980050767535,-2.395609712824154e-07,-0.06937921056246665
381,0.0382,732.059,765.756,0.000858548,-0.000823159,0.00129126,-0.001115,0.0374884,0.0374884,-0.0720948,-6.05386e-13,-5.52765e-07,-2.4003e-07,0.0645224,0.03819995389250952,-6.054046153280979e-13,-5.527648472281044e-07,0.03819995389250952,-2.4002997123240277e-07,-0.06955731433649015
382,0.0383,732.37,766.082,0.000858251,-0.00082171,0.00129243,-0.00111407,0.0375848,0.0375848,-0.0722862,-6.05691e-13,-5.53416e-07,-2.40499e-07,0.0646981,0.03830004119219521,-6.057376822354854e-13,-5.534158468156747e-07,0.03830004119219521,-2.4049897107136786e-07,-0.06973538402471335
383,0.0384,732.68,766.408,0.000857954,-0.000820265,0.00129361,-0.00111315,0.0376811,0.0376811,-0.0724776,-6.05995e-13,-5.54064e-07,-2.40967e-07,0.0648739,0.038400034300752894,-6.059597268404104e-13,-5.540638464696102e-07,0.038400034300752894,-2.4096697093245467e-07,-0.06991341963365971
384,0.0385,732.99,766.732,0.000857655,-0.000818823,0.00129477,-0.00111222,0.0377774,0.0377774,-0.072669,-6.06296e-13,-5.54711e-07,-2.41434e-07,0.0650496,0.038500037039110646,-6.06292793747798e-13,-5.547108461456673e-07,0.038500037039110646,-2.414339708156632e-07,-0.07009142116985134
385,0.0386,733.298,767.056,0.000857356,-0.000817386,0.00129594,-0.00111129,0.0378737,0.0378737,-0.0728604,-6.06594e-13,-5.55356e-07,-2.41901e-07,0.0652253,0.038600049408195725,-6.066258606551855e-13,-5.553558457549457e-07,0.038600049408195725,-2.4190097069887173e-07,-0.07026938863980936
386,0.0387,733.607,767.38,0.000857056,-0.000815952,0.0012971,-0.00111037,0.0379699,0.0379699,-0.0730517,7.54908e-13,-5.55999e-07,-2.42367e-07,0.065401,0.0386999675389339,7.549516567451064e-13,-5.559988454084674e-07,0.0386999675389339,-2.42366970604202e-07,-0.07044722909478063
387,0.0388,733.914,767.702,0.000856755,-0.000814522,0.00129826,-0.00110945,0.0380662,0.0380662,-0.073243,-6.07184e-13,-5.5664e-07,-2.42833e-07,0.0655767,0.038799999162253185,-6.071809721674981e-13,-5.566398451062327e-07,0.038799999162253185,-2.4283297050953223e-07,-0.07062503553212685
388,0.0389,734.221,768.024,0.000856453,-0.000813096,0.00129942,-0.00110853,0.0381625,0.0381625,-0.0734344,-6.07476e-13,-5.57279e-07,-2.43298e-07,0.0657524,0.038900040419081794,-6.075140390748857e-13,-5.57278844737219e-07,0.038900040419081794,-2.432979704369842e-07,-0.0708029008780694
389,0.039,734.527,768.345,0.00085615,-0.000811673,0.00130057,-0.00110761,0.0382587,0.0382587,-0.0736257,-6.07766e-13,-5.57916e-07,-2.43762e-07,0.0659281,0.03899998741034327,-6.077360836798107e-13,-5.579158444124488e-07,0.03899998741034327,-2.437619702755356e-07,-0.070980639281911
390,0.0391,734.832,768.665,0.000855847,-0.000810254,0.00130171,-0.00110669,0.038355,0.038355,-0.0738169,-6.08053e-13,-5.58552e-07,-2.44226e-07,0.0661037,0.03910004792696742,-6.080691505871982e-13,-5.58551843998778e-07,0.03910004792696742,-2.442259702251093e-07,-0.07115825080347782
391,0.0392,735.137,768.985,0.000855543,-0.000808839,0.00130286,-0.00110578,0.0384512,0.0384512,-0.0740082,-6.08338e-13,-5.59185e-07,-2.44689e-07,0.0662794,0.03920001415987673,-6.082911951921233e-13,-5.591848436514724e-07,0.03920001415987673,-2.446889700857824e-07,-0.07133592123538046
392,0.0393,735.441,769.304,0.000855238,-0.000807428,0.001304,-0.00110486,0.0385474,0.0385474,-0.0741994,-6.08621e-13,-5.59817e-07,-2.45152e-07,0.066455,0.039299990010000174,-6.086242620995108e-13,-5.598168433262884e-07,0.039299990010000174,-2.451519699464555e-07,-0.07151346483353138
393,0.0394,735.745,769.622,0.000854932,-0.00080602,0.00130514,-0.00110395,0.0386436,0.0386436,-0.0743907,-6.08901e-13,-5.60447e-07,-2.45614e-07,0.0666307,0.039399975478263016,-6.088463067044358e-13,-5.604468429343257e-07,0.039399975478263016,-2.456139698292503e-07,-0.07169106731948938
394,0.0395,736.047,769.94,0.000854625,-0.000804616,0.00130627,-0.00110304,0.0387398,0.0387398,-0.0745819,-6.0918e-13,-5.61075e-07,-2.46075e-07,0.0668063,0.039499970565590514,-6.091793736118234e-13,-5.610748425866063e-07,0.039499970565590514,-2.4607496973416687e-07,-0.07186854302020018
395,0.0396,736.349,770.257,0.000854318,-0.000803216,0.0013074,-0.00110213,0.038836,0.038836,-0.0747731,-6.09456e-13,-5.61701e-07,-2.46536e-07,0.0669819,0.03959997527290837,-6.094014182167484e-13,-5.617008422831304e-07,0.03959997527290837,-2.465359696390834e-07,-0.07204598479080082
396,0.0397,736.651,770.573,0.00085401,-0.000801819,0.00130853,-0.00110122,0.0389322,0.0389322,-0.0749643,-6.0973e-13,-5.62326e-07,-2.46996e-07,0.0671574,0.03969998960114163,-6.09734485124136e-13,-5.62325841890754e-07,0.03969998960114163,-2.469959694550994e-07,-0.07222339263777822
397,0.0398,736.951,770.888,0.000853702,-0.000800425,0.00130965,-0.00110031,0.0390284,0.0390284,-0.0751555,-6.10002e-13,-5.62948e-07,-2.47456e-07,0.067333,0.03980001355121621,-6.09956529729061e-13,-5.629478415647426e-07,0.03980001355121621,-2.4745596938213765e-07,-0.07240076656761785
398,0.0399,737.251,771.203,0.000853393,-0.000799036,0.00131077,-0.00109941,0.0391246,0.0391246,-0.0753466,-6.10272e-13,-5.63569e-07,-2.47915e-07,0.0675086,0.03990004712405737,-6.102895966364486e-13,-5.635688411498307e-07,0.03990004712405737,-2.4791496922027534e-07,-0.07257801384461005
399,0.04,737.551,771.517,0.000853083,-0.000797649,0.00131189,-0.0010985,0.0392207,0.0392207,-0.0755378,-6.10539e-13,-5.64188e-07,-2.48373e-07,0.0676841,0.039999986320587544,-6.105116412413736e-13,-5.641878408901846e-07,0.039999986320587544,-2.4837296919155705e-07,-0.07275531997735651
400,0.0401,737.85,771.83,0.000852772,-0.000796267,0.001313,-0.0010976,0.0393169,0.0393169,-0.0757289,-6.10805e-13,-5.64805e-07,-2.48831e-07,0.0678596,0.040100039131734544,-6.108447081487611e-13,-5.648048404527373e-07,0.040100039131734544,-2.4883096905181645e-07,-0.07293249950566572
401,0.0402,738.148,772.143,0.000852461,-0.000794887,0.00131411,-0.0010967,0.039413,0.039413,-0.07592,-6.11068e-13,-5.65421e-07,-2.49288e-07,0.0680352,0.040199997548420185,-6.110667527536862e-13,-5.65420840148434e-07,0.040199997548420185,-2.492879689341976e-07,-0.07310964517820207
402,0.0403,738.445,772.455,0.000852149,-0.000793512,0.00131522,-0.0010958,0.0395091,0.0395091,-0.0761111,-6.11329e-13,-5.66034e-07,-2.49745e-07,0.0682107,0.04029996557157123,-6.112887973586112e-13,-5.660338397994735e-07,0.04029996557157123,-2.497449688165787e-07,-0.07328675700143483
403,0.0404,738.742,772.766,0.000851836,-0.000792139,0.00131632,-0.0010949,0.0396053,0.0396053,-0.0763021,-6.11588e-13,-5.66646e-07,-2.50201e-07,0.0683862,0.04040004724211044,-6.116218642659987e-13,-5.666458394726348e-07,0.04040004724211044,-2.5020096872108155e-07,-0.07346374232821073
404,0.0405,739.038,773.077,0.000851523,-0.00079077,0.00131742,-0.001094,0.0397014,0.0397014,-0.0764932,7.68575e-13,-5.67256e-07,-2.50656e-07,0.0685617,0.040500034490960735,7.684963776455334e-13,-5.672558390790172e-07,0.040500034490960735,-2.506559685366838e-07,-0.07364078648994343
405,0.0406,739.334,773.387,0.000851209,-0.000789405,0.00131852,-0.0010931,0.0397975,0.0397975,-0.0766843,-6.121e-13,-5.67864e-07,-2.51111e-07,0.0687371,0.04060003134904733,-6.120659534758488e-13,-5.678638387296431e-07,0.04060003134904733,-2.511109684633084e-07,-0.07381779682176925
406,0.0407,739.629,773.696,0.000850895,-0.000788043,0.00131961,-0.00109221,0.0398936,0.0398936,-0.0768753,-6.12353e-13,-5.68471e-07,-2.51566e-07,0.0689126,0.0407000378172937,-6.123990203832363e-13,-5.684708384023907e-07,0.0407000378172937,-2.5156596838993295e-07,-0.07399468072962534
407,0.0408,739.923,774.005,0.00085058,-0.000786684,0.0013207,-0.00109131,0.0399896,0.0399896,-0.0770663,-6.12604e-13,-5.69075e-07,-2.52019e-07,0.069088,0.04079994981662338,-6.126210649881614e-13,-5.690748380304811e-07,0.04079994981662338,-2.5201896824977865e-07,-0.07417153085588135
408,0.0409,740.216,774.313,0.000850265,-0.000785329,0.00132179,-0.00109042,0.0400857,0.0400857,-0.0772573,-6.12853e-13,-5.69678e-07,-2.52472e-07,0.0692634,0.04089997549795776,-6.128431095930864e-13,-5.696778376806932e-07,0.04089997549795776,-2.5247196810962436e-07,-0.0743483472069888
409,0.041,740.51,774.62,0.000849949,-0.000783977,0.00132287,-0.00108953,0.0401818,0.0401818,-0.0774483,-6.131e-13,-5.70279e-07,-2.52925e-07,0.0694389,0.04100001079222215,-6.130651541980114e-13,-5.702788373751488e-07,0.04100001079222215,-2.5292496796947006e-07,-0.07452512978939818
410,0.0411,740.802,774.927,0.000849632,-0.000782628,0.00132396,-0.00108864,0.0402778,0.0402778,-0.0776392,-6.13344e-13,-5.70879e-07,-2.53377e-07,0.0696143,0.041099951590339634,-6.13398221105399e-13,-5.708788370917262e-07,0.041099951590339634,-2.533769678514375e-07,-0.07470178607974198
411,0.0412,741.094,775.233,0.000849315,-0.000781283,0.00132503,-0.00108775,0.0403739,0.0403739,-0.0778302,-6.13587e-13,-5.71477e-07,-2.53828e-07,0.0697896,0.041200006103229825,-6.13620265710324e-13,-5.714768367415246e-07,0.041200006103229825,-2.5382796775552663e-07,-0.07487850116177319
412,0.0413,741.385,775.538,0.000848997,-0.000779941,0.00132611,-0.00108686,0.0404699,0.0404699,-0.0780211,-6.13828e-13,-5.72072e-07,-2.54279e-07,0.069965,0.04129996610181896,-6.138423103152491e-13,-5.720718363466659e-07,0.04129996610181896,-2.5427896765961577e-07,-0.07505508999996058
413,0.0414,741.675,775.843,0.000848679,-0.000778602,0.00132718,-0.00108597,0.040566,0.040566,-0.078212,-6.14067e-13,-5.72667e-07,-2.5473e-07,0.0701404,0.041400039837027336,-6.140643549201741e-13,-5.726668360628295e-07,0.041400039837027336,-2.547299675637049e-07,-0.07523164513055614
414,0.0415,741.965,776.147,0.00084836,-0.000777267,0.00132825,-0.00108509,0.040662,0.040662,-0.0784029,-6.14303e-13,-5.73259e-07,-2.55179e-07,0.0703157,0.041500019039776515,-6.142863995250991e-13,-5.73258835734336e-07,0.041500019039776515,-2.551789674010152e-07,-0.07540816655999416
415,0.0416,742.255,776.451,0.000848041,-0.000775935,0.00132931,-0.00108421,0.040758,0.040758,-0.0785938,-6.14538e-13,-5.7385e-07,-2.55629e-07,0.0704911,0.04160000784099016,-6.145084441300241e-13,-5.738498353169419e-07,0.04160000784099016,-2.5562896732722606e-07,-0.07558465429470762
416,0.0417,742.543,776.753,0.000847721,-0.000774606,0.00133037,-0.00108332,0.040854,0.040854,-0.0787847,-6.14771e-13,-5.74439e-07,-2.56077e-07,0.0706664,0.041700006241589316,-6.147304887349492e-13,-5.744388350548135e-07,0.041700006241589316,-2.5607696718665807e-07,-0.07576110834112815
417,0.0418,742.832,777.056,0.000847401,-0.00077328,0.00133143,-0.00108244,0.04095,0.04095,-0.0789755,-6.15001e-13,-5.75026e-07,-2.56525e-07,0.0708417,0.04180001424249569,-6.149525333398742e-13,-5.750258347259063e-07,0.04180001424249569,-2.5652496704609007e-07,-0.0759374362994345
418,0.0419,743.119,777.357,0.000847081,-0.000771957,0.00133249,-0.00108156,0.041046,0.041046,-0.0791664,7.78994e-13,-5.75612e-07,-2.56973e-07,0.071017,0.04190003184463098,7.789324740770098e-13,-5.756118343080985e-07,0.04190003184463098,-2.569729670165444e-07,-0.07611382300619818
419,0.042,743.406,777.658,0.000846759,-0.000770638,0.00133354,-0.00108068,0.0411419,0.0411419,-0.0793572,-6.15457e-13,-5.76196e-07,-2.57419e-07,0.0711923,0.0419999548489165,-6.155076448521868e-13,-5.761958340455564e-07,0.0419999548489165,-2.574189669202198e-07,-0.07629008367296619
420,0.0421,743.692,777.958,0.000846438,-0.000769321,0.00133459,-0.0010798,0.0412379,0.0412379,-0.079548,-6.15682e-13,-5.76778e-07,-2.57866e-07,0.0713676,0.04209999164627143,-6.157296894571118e-13,-5.767778337162355e-07,0.04209999164627143,-2.5786596680177354e-07,-0.07646631071240728
421,0.0422,743.978,778.258,0.000846116,-0.000768008,0.00133564,-0.00107893,0.0413339,0.0413339,-0.0797388,-6.15905e-13,-5.77359e-07,-2.58312e-07,0.0715428,0.04220003804761996,-6.159517340620368e-13,-5.77358833298014e-07,0.04220003804761996,-2.583119665944267e-07,-0.07664250413093665
422,0.0423,744.263,778.557,0.000845794,-0.000766698,0.00133668,-0.00107805,0.0414298,0.0414298,-0.0799295,-6.16126e-13,-5.77938e-07,-2.58757e-07,0.0717181,0.042299989823879613,-6.161737786669619e-13,-5.779378330350582e-07,0.042299989823879613,-2.5875696652022384e-07,-0.07681857161683059
423,0.0424,744.548,778.856,0.000845471,-0.000765391,0.00133772,-0.00107718,0.0415257,0.0415257,-0.0801203,-6.16345e-13,-5.78515e-07,-2.59201e-07,0.0718933,0.042399951185974505,-6.163958232718869e-13,-5.785148327053236e-07,0.042399951185974505,-2.592009663571204e-07,-0.07699469783039092
424,0.0425,744.832,779.153,0.000845147,-0.000764087,0.00133876,-0.00107631,0.0416217,0.0416217,-0.080311,-6.16563e-13,-5.79091e-07,-2.59646e-07,0.0720685,0.04250002638482098,-6.166178678768119e-13,-5.790908322866883e-07,0.04250002638482098,-2.596459662829176e-07,-0.07717069815934996
425,0.0426,745.115,779.451,0.000844824,-0.000762787,0.0013398,-0.00107543,0.0417176,0.0417176,-0.0805018,-6.16778e-13,-5.79665e-07,-2.60089e-07,0.0722437,0.042600006931341916,-6.167288901792745e-13,-5.796648320233189e-07,0.042600006931341916,-2.600889661419359e-07,-0.0773467571935752
426,0.0427,745.398,779.747,0.0008445,-0.000761489,0.00134083,-0.00107456,0.0418135,0.0418135,-0.0806925,-6.16991e-13,-5.80237e-07,-2.60532e-07,0.0724189,0.042699997066456996,-6.169509347841995e-13,-5.802368316931705e-07,0.042699997066456996,-2.605319661119765e-07,-0.07752269039121484
427,0.0428,745.68,780.043,0.000844175,-0.000760194,0.00134186,-0.00107369,0.0419094,0.0419094,-0.0808832,-6.17203e-13,-5.80807e-07,-2.60974e-07,0.0725941,0.042799996791085926,-6.171729793891245e-13,-5.808068312962433e-07,0.042799996791085926,-2.609739659931165e-07,-0.07769859004159241
428,0.0429,745.962,780.339,0.00084385,-0.000758903,0.00134288,-0.00107282,0.0420053,0.0420053,-0.0810738,-6.17413e-13,-5.81376e-07,-2.61416e-07,0.0727692,0.04290000610614819,-6.173950239940496e-13,-5.813758310324602e-07,0.04290000610614819,-2.6141596587425653e-07,-0.07787436393854597
429,0.043,746.243,780.633,0.000843525,-0.000757614,0.00134391,-0.00107196,0.0421012,0.0421012,-0.0812645,-6.17621e-13,-5.81944e-07,-2.61858e-07,0.0729444,0.0430000250125635,-6.176170685989746e-13,-5.819438306797764e-07,0.0430000250125635,-2.6185796575539655e-07,-0.0780501965311724
430,0.0431,746.523,780.928,0.000843199,-0.000756329,0.00134493,-0.00107109,0.042197,0.042197,-0.0814551,-6.17827e-13,-5.82509e-07,-2.62298e-07,0.0731195,0.04309994920125204,-6.178391132038996e-13,-5.825088303934578e-07,0.04309994920125204,-2.622979655697577e-07,-0.07822590341831526
431,0.0432,746.803,781.221,0.000842874,-0.000755046,0.00134595,-0.00107023,0.0422929,0.0422929,-0.0816457,-6.18031e-13,-5.83073e-07,-2.62739e-07,0.0732947,0.04319998728312968,-6.180611578088246e-13,-5.830728300182386e-07,0.04319998728312968,-2.6273896547301945e-07,-0.0784015768189168
432,0.0433,747.083,781.514,0.000842547,-0.000753766,0.00134696,-0.00106936,0.0423888,0.0423888,-0.0818364,-6.18233e-13,-5.83636e-07,-2.63178e-07,0.0734698,0.04330003495911949,-6.182832024137497e-13,-5.836358296651412e-07,0.04330003495911949,-2.6317796542052463e-07,-0.07857730888163272
433,0.0434,747.362,781.807,0.000842221,-0.00075249,0.00134797,-0.0010685,0.0424846,0.0424846,-0.082027,-6.18434e-13,-5.84197e-07,-2.63617e-07,0.0736449,0.04339998789013766,-6.183942247162122e-13,-5.841968293562871e-07,0.04339998789013766,-2.636169652570075e-07,-0.07875291531073558
434,0.0435,747.64,782.098,0.000841894,-0.000751216,0.00134898,-0.00106764,0.0425804,0.0425804,-0.0822175,-6.18633e-13,-5.84756e-07,-2.64056e-07,0.07382,0.04349995039710519,-6.186162693211372e-13,-5.847558289806543e-07,0.04349995039710519,-2.640559650934904e-07,-0.0789283961652868
435,0.0436,747.918,782.39,0.000841566,-0.000749945,0.00134999,-0.00106678,0.0426763,0.0426763,-0.0824081,7.91336e-13,-5.85313e-07,-2.64494e-07,0.073995,0.04360002684093711,7.913669719528116e-13,-5.853128286492648e-07,0.04360002684093711,-2.644939650631173e-07,-0.07910393568353014
436,0.0437,748.195,782.68,0.000841239,-0.000748677,0.00135099,-0.00106592,0.0427721,0.0427721,-0.0825986,-6.19025e-13,-5.85869e-07,-2.64932e-07,0.0741701,0.04370000851255407,-6.190603585309873e-13,-5.858688283399971e-07,0.04370000851255407,-2.649319649217219e-07,-0.07927934967506922
437,0.0438,748.471,782.97,0.000840911,-0.000747412,0.00135199,-0.00106506,0.0428679,0.0428679,-0.0827892,-6.19218e-13,-5.86423e-07,-2.65368e-07,0.0743451,0.043799999762873965,-6.191713808334498e-13,-5.864228280749728e-07,0.043799999762873965,-2.653679648245699e-07,-0.07945482230794809
438,0.0439,748.747,783.26,0.000840582,-0.00074615,0.00135299,-0.0010642,0.0429637,0.0429637,-0.0829797,-6.1941e-13,-5.86976e-07,-2.65805e-07,0.0745202,0.043900000592814514,-6.193934254383748e-13,-5.86975827721048e-07,0.043900000592814514,-2.6580496470529624e-07,-0.07963016946195167
439,0.044,749.023,783.549,0.000840254,-0.000744891,0.00135399,-0.00106335,0.0430595,0.0430595,-0.0831702,-6.196e-13,-5.87527e-07,-2.66241e-07,0.0746952,0.04400001100329343,-6.196154700432999e-13,-5.875268274113665e-07,0.04400001100329343,-2.662409646081443e-07,-0.07980548321550396
440,0.0441,749.298,783.837,0.000839925,-0.000743634,0.00135498,-0.00106249,0.0431553,0.0431553,-0.0833607,-6.19788e-13,-5.88077e-07,-2.66676e-07,0.0748702,0.044100030995228634,-6.198375146482249e-13,-5.880768271238068e-07,0.044100030995228634,-2.6667596442209174e-07,-0.07998076357496708
441,0.0442,749.572,784.125,0.000839596,-0.000742381,0.00135597,-0.00106164,0.043251,0.043251,-0.0835511,-6.19974e-13,-5.88625e-07,-2.67111e-07,0.0750452,0.0441999561495372,-6.199485369506874e-13,-5.886248267694683e-07,0.0441999561495372,-2.671109643470615e-07,-0.08015591856229853
442,0.0443,749.846,784.412,0.000839266,-0.00074113,0.00135696,-0.00106079,0.0433468,0.0433468,-0.0837416,-6.20158e-13,-5.89171e-07,-2.67545e-07,0.0752201,0.04429999529713502,-6.201705815556124e-13,-5.891708264593731e-07,0.04429999529713502,-2.6754496418313067e-07,-0.08033113217018639
443,0.0444,750.119,784.699,0.000838937,-0.000739882,0.00135794,-0.00105994,0.0434426,0.0434426,-0.083932,7.9656e-13,-5.89716e-07,-2.67979e-07,0.0753951,0.044400044028942265,7.964739978660873e-13,-5.897158261713997e-07,0.044400044028942265,-2.6797896413022215e-07,-0.0805062204536876
444,0.0445,750.392,784.985,0.000838607,-0.000738637,0.00135892,-0.00105909,0.0435383,0.0435383,-0.0841224,-6.20522e-13,-5.90259e-07,-2.68412e-07,0.0755701,0.044499997895872,-6.20503648463e-13,-5.902588258166475e-07,0.044499997895872,-2.6841196398841305e-07,-0.08068127540355319
445,0.0446,750.664,785.27,0.000838277,-0.000737394,0.0013599,-0.00105824,0.043634,0.043634,-0.0843128,-6.20702e-13,-5.90801e-07,-2.68845e-07,0.075745,0.044599961328844584,-6.20725693067925e-13,-5.908008254840169e-07,0.044599961328844584,-2.6884496384660395e-07,-0.08085629702612906
446,0.0447,750.936,785.555,0.000837946,-0.000736155,0.00136088,-0.00105739,0.0437298,0.0437298,-0.0845032,-6.20879e-13,-5.91341e-07,-2.69277e-07,0.0759199,0.044700038798774155,-6.208367153703875e-13,-5.913408251956298e-07,0.044700038798774155,-2.6927696372691656e-07,-0.08103128532776038
447,0.0448,751.207,785.84,0.000837615,-0.000734918,0.00136185,-0.00105654,0.0438255,0.0438255,-0.0846936,7.99483e-13,-5.91879e-07,-2.69708e-07,0.0760948,0.04480002137657735,7.995826223350377e-13,-5.918788248404638e-07,0.04480002137657735,-2.697079636293509e-07,-0.08120624031479062
448,0.0449,751.478,786.123,0.000837284,-0.000733684,0.00136282,-0.00105569,0.0439212,0.0439212,-0.0848839,-6.21229e-13,-5.92416e-07,-2.70139e-07,0.0762697,0.04490001352317097,-6.212808045802376e-13,-5.924158245074196e-07,0.04490001352317097,-2.7013896353178524e-07,-0.08138107013167406
449,0.045,751.748,786.407,0.000836953,-0.000732452,0.00136379,-0.00105485,0.0440169,0.0440169,-0.0850742,-6.21402e-13,-5.92952e-07,-2.7057e-07,0.0764446,0.04500001523947095,-6.213918268827001e-13,-5.929518241964971e-07,0.04500001523947095,-2.705699634342196e-07,-0.08155586668160875
450,0.0451,752.018,786.689,0.000836622,-0.000731224,0.00136476,-0.00105401,0.0441126,0.0441126,-0.0852646,-6.21573e-13,-5.93486e-07,-2.71e-07,0.0766195,0.045100026526393,-6.216138714876251e-13,-5.93485823929818e-07,0.045100026526393,-2.7099996324775333e-07,-0.08173072179785734
451,0.0452,752.287,786.972,0.00083629,-0.000729998,0.00136572,-0.00105316,0.0442083,0.0442083,-0.0854549,-6.21742e-13,-5.94018e-07,-2.71429e-07,0.0767943,0.0452000473848535,-6.217248937900877e-13,-5.9401782359636e-07,0.0452000473848535,-2.714289631944311e-07,-0.08190545181541065
452,0.0453,752.555,787.253,0.000835958,-0.000728775,0.00136668,-0.00105232,0.0443039,0.0443039,-0.0856452,-6.21909e-13,-5.94549e-07,-2.71858e-07,0.0769692,0.045299973285765294,-6.219469383950127e-13,-5.945488232850238e-07,0.045299973285765294,-2.718579630300866e-07,-0.08208014858500534
453,0.0454,752.824,787.534,0.000835626,-0.000727554,0.00136764,-0.00105148,0.0443996,0.0443996,-0.0858354,-6.22075e-13,-5.95078e-07,-2.72287e-07,0.077144,0.04540001328004628,-6.220579606974752e-13,-5.950778229069087e-07,0.04540001328004628,-2.7228696297676436e-07,-0.0822547203384445
454,0.0455,753.091,787.815,0.000835294,-0.000726336,0.0013686,-0.00105064,0.0444952,0.0444952,-0.0860257,-6.22239e-13,-5.95606e-07,-2.72714e-07,0.0773188,0.04549995829861153,-6.222800053024002e-13,-5.956058226619376e-07,0.04549995829861153,-2.7271396285666327e-07,-0.08242935064856305
455,0.0456,753.358,788.095,0.000834961,-0.000725121,0.00136955,-0.0010498,0.0445909,0.0445909,-0.0862159,-6.22402e-13,-5.96132e-07,-2.73142e-07,0.0774936,0.04560001743237385,-6.223910276048628e-13,-5.961318223501877e-07,0.04560001743237385,-2.7314196271444047e-07,-0.08260385599008568
456,0.0457,753.625,788.374,0.000834629,-0.000723908,0.0013705,-0.00104896,0.0446865,0.0446865,-0.0864061,-6.22562e-13,-5.96657e-07,-2.73569e-07,0.0776684,0.04569998157225008,-6.226130722097878e-13,-5.966568219495372e-07,0.04569998157225008,-2.735689625943394e-07,-0.08277832814384856
457,0.0458,753.891,788.653,0.000834296,-0.000722698,0.00137145,-0.00104813,0.0447821,0.0447821,-0.0865963,-6.22722e-13,-5.9718e-07,-2.73995e-07,0.0778432,0.045799955269155035,-6.227240945122503e-13,-5.971798217041524e-07,0.045799955269155035,-2.7399496249636e-07,-0.0829527671161634
458,0.0459,754.156,788.932,0.000833963,-0.000721491,0.00137239,-0.00104729,0.0448778,0.0448778,-0.0867865,-6.22879e-13,-5.97702e-07,-2.74421e-07,0.0780179,0.04590004311400131,-6.228351168147128e-13,-5.97701821369867e-07,0.04590004311400131,-2.7442096239838065e-07,-0.08312717291334082
459,0.046,754.421,789.21,0.00083363,-0.000720286,0.00137334,-0.00104646,0.0449734,0.0449734,-0.0869767,-6.23035e-13,-5.98222e-07,-2.74846e-07,0.0781927,0.04600003593770374,-6.230571614196379e-13,-5.982218210798251e-07,0.04600003593770374,-2.748459622115007e-07,-0.08330154554169011
460,0.0461,754.686,789.487,0.000833296,-0.000719084,0.00137428,-0.00104562,0.045069,0.045069,-0.0871669,8.07969e-13,-5.98741e-07,-2.75271e-07,0.0783674,0.04610003832117715,8.080203173221889e-13,-5.987408207008826e-07,0.04610003832117715,-2.7527096213564306e-07,-0.08347588500751935
461,0.0462,754.95,789.764,0.000832963,-0.000717884,0.00137522,-0.00104479,0.0451646,0.0451646,-0.087357,-6.23342e-13,-5.99258e-07,-2.75695e-07,0.0785421,0.04620005026533547,-6.233902283270254e-13,-5.992578204772059e-07,0.04620005026533547,-2.7569496197088483e-07,-0.08365009968214987
462,0.0463,755.213,790.04,0.000832629,-0.000716687,0.00137615,-0.00104396,0.0452601,0.0452601,-0.0875471,-6.23493e-13,-5.99774e-07,-2.76119e-07,0.0787168,0.04629996714109064,-6.235012506294879e-13,-5.997738201646285e-07,0.04629996714109064,-2.761189619171489e-07,-0.08382428124171859
463,0.0464,755.476,790.316,0.000832295,-0.000715493,0.00137708,-0.00104313,0.0453557,0.0453557,-0.0877372,-6.23643e-13,-6.00288e-07,-2.76542e-07,0.0788915,0.04639999819935792,-6.236122729319504e-13,-6.002878197852723e-07,0.04639999819935792,-2.765419617745124e-07,-0.0839984296925198
464,0.0465,755.739,790.591,0.000831961,-0.000714301,0.00137802,-0.0010423,0.0454513,0.0454513,-0.0879273,-6.23791e-13,-6.00801e-07,-2.76965e-07,0.0790662,0.04650003882105125,-6.238343175368755e-13,-6.008008195390602e-07,0.04650003882105125,-2.769649616318759e-07,-0.08417254504084704
465,0.0466,756.001,790.866,0.000831627,-0.000713112,0.00137894,-0.00104147,0.0455468,0.0455468,-0.0881174,-6.23937e-13,-6.01312e-07,-2.77387e-07,0.0792409,0.04659998434708146,-6.23945339839338e-13,-6.013118192260691e-07,0.04659998434708146,-2.773869615113611e-07,-0.08434662729299247
466,0.0467,756.262,791.14,0.000831292,-0.000711925,0.00137987,-0.00104064,0.0456424,0.0456424,-0.0883074,-6.24082e-13,-6.01822e-07,-2.77809e-07,0.0794155,0.04670004408836448,-6.240563621418005e-13,-6.018218189351998e-07,0.04670004408836448,-2.778089613908463e-07,-0.08452058490731007
467,0.0468,756.523,791.414,0.000830958,-0.00071074,0.00138079,-0.00103981,0.0457379,0.0457379,-0.0884975,-6.24225e-13,-6.0233e-07,-2.7823e-07,0.0795902,0.046800008715810026,-6.242784067467255e-13,-6.023298185775516e-07,0.046800008715810026,-2.7822996129245325e-07,-0.08469460100336523
468,0.0469,756.784,791.687,0.000830623,-0.000709559,0.00138171,-0.00103899,0.0458334,0.0458334,-0.0886875,-6.24367e-13,-6.02837e-07,-2.7865e-07,0.0797648,0.04689998289033315,-6.24389429049188e-13,-6.028368182420252e-07,0.04689998289033315,-2.786499612161819e-07,-0.08486849250895845
469,0.047,757.044,791.96,0.000830289,-0.000708379,0.00138263,-0.00103816,0.0459289,0.0459289,-0.0888775,-6.24507e-13,-6.03343e-07,-2.7907e-07,0.0799394,0.046999966612846,-6.245004513516506e-13,-6.033428180396427e-07,0.046999966612846,-2.7906996102888826e-07,-0.08504235097830415
470,0.0471,757.303,792.232,0.000829954,-0.000707202,0.00138355,-0.00103734,0.0460244,0.0460244,-0.0890675,-6.24645e-13,-6.03847e-07,-2.7949e-07,0.080114,0.04709995988426008,-6.246114736541131e-13,-6.038468176594591e-07,0.04709995988426008,-2.794899609526169e-07,-0.08521617641767854
471,0.0472,757.562,792.504,0.000829619,-0.000706028,0.00138446,-0.00103651,0.0461199,0.0461199,-0.0892575,-6.24783e-13,-6.04349e-07,-2.79909e-07,0.0802886,0.047199962705487764,-6.248335182590381e-13,-6.043488174345413e-07,0.047199962705487764,-2.79908960787445e-07,-0.08538996883335692
472,0.0473,757.821,792.775,0.000829284,-0.000704856,0.00138538,-0.00103569,0.0462154,0.0462154,-0.0894474,8.16056e-13,-6.0485e-07,-2.80328e-07,0.0804631,0.04729997507744099,8.160139230994901e-13,-6.048498171207228e-07,0.04729997507744099,-2.8032796073329536e-07,-0.08556363678798129
473,0.0474,758.079,793.045,0.000828948,-0.000703686,0.00138628,-0.00103487,0.0463109,0.0463109,-0.0896374,-6.25052e-13,-6.0535e-07,-2.80746e-07,0.0806377,0.0473999970010317,-6.250555628639631e-13,-6.053498168290261e-07,0.0473999970010317,-2.8074596059024515e-07,-0.0857373631924605
474,0.0475,758.337,793.316,0.000828613,-0.000702519,0.00138719,-0.00103405,0.0464064,0.0464064,-0.0898273,-6.25184e-13,-6.05848e-07,-2.81163e-07,0.0808122,0.047500028477172274,-6.251665851664256e-13,-6.058478164705505e-07,0.047500028477172274,-2.8116296046931666e-07,-0.08591096518315955
475,0.0476,758.594,793.585,0.000828278,-0.000701354,0.0013881,-0.00103323,0.0465018,0.0465018,-0.0900172,-6.25315e-13,-6.06345e-07,-2.81581e-07,0.0809868,0.047599964746773304,-6.252776074688882e-13,-6.063448161341967e-07,0.047599964746773304,-2.8158096032626645e-07,-0.08608453420997053
476,0.0477,758.851,793.854,0.000827942,-0.000700192,0.001389,-0.00103241,0.0465973,0.0465973,-0.0902071,-6.25445e-13,-6.0684e-07,-2.81997e-07,0.0811613,0.047700015320745415,-6.254996520738132e-13,-6.068398158420862e-07,0.047700015320745415,-2.819969602274597e-07,-0.08625807027915278
477,0.0478,759.107,794.123,0.000827606,-0.000699032,0.0013899,-0.00103159,0.0466927,0.0466927,-0.090397,-6.25573e-13,-6.07334e-07,-2.82413e-07,0.0813358,0.04779997067000141,-6.256106743762757e-13,-6.073338155720975e-07,0.04779997067000141,-2.824129601286529e-07,-0.08643157339696439
478,0.0479,759.363,794.391,0.000827271,-0.000697875,0.0013908,-0.00103078,0.0467882,0.0467882,-0.0905868,-6.25699e-13,-6.07827e-07,-2.82829e-07,0.0815103,0.047900040345451256,-6.257216966787382e-13,-6.078268153242306e-07,0.047900040345451256,-2.8282896002984614e-07,-0.08660495223016185
479,0.048,759.618,794.659,0.000826935,-0.00069672,0.00139169,-0.00102996,0.0468836,0.0468836,-0.0907767,-6.25824e-13,-6.08318e-07,-2.83244e-07,0.0816847,0.04800001477800486,-6.258327189812007e-13,-6.083178150095847e-07,0.04800001477800486,-2.832439598421388e-07,-0.08677838948134509
480,0.0481,759.873,794.926,0.000826599,-0.000695567,0.00139259,-0.00102915,0.046979,0.046979,-0.0909665,-6.25948e-13,-6.08807e-07,-2.83658e-07,0.0818592,0.04809999874857418,-6.259437412836633e-13,-6.0880681462816e-07,0.04809999874857418,-2.8365795978757546e-07,-0.08695170249509632
481,0.0482,760.127,795.193,0.000826263,-0.000694416,0.00139348,-0.00102833,0.0470744,0.0470744,-0.0911563,-6.2607e-13,-6.09295e-07,-2.84073e-07,0.0820336,0.04819999225806937,-6.260547635861258e-13,-6.092948143798793e-07,0.04819999225806937,-2.840729595998681e-07,-0.08712498261715895
482,0.0483,760.381,795.459,0.000825927,-0.000693268,0.00139436,-0.00102752,0.0471698,0.0471698,-0.0913461,-6.2619e-13,-6.09782e-07,-2.84486e-07,0.0822081,0.04829999530740037,-6.261657858885883e-13,-6.09781814042698e-07,0.04829999530740037,-2.844859595674265e-07,-0.08729822985377533
483,0.0484,760.635,795.725,0.000825591,-0.000692123,0.00139525,-0.00102671,0.0472652,0.0472652,-0.0915359,8.22928e-13,-6.10268e-07,-2.84899e-07,0.0823825,0.04840000789747756,8.22897305852166e-13,-6.102678138386608e-07,0.04840000789747756,-2.848989594239626e-07,-0.08747144421118658
484,0.0485,760.888,795.99,0.000825255,-0.000690979,0.00139614,-0.0010259,0.0473606,0.0473606,-0.0917257,-6.26427e-13,-6.10752e-07,-2.85312e-07,0.0825569,0.04850003002921066,-6.263878304935133e-13,-6.107518134568224e-07,0.04850003002921066,-2.853119592804987e-07,-0.08764462569563258
485,0.0486,761.14,796.255,0.000824919,-0.000689838,0.00139702,-0.00102509,0.0474559,0.0474559,-0.0919154,8.24167e-13,-6.11234e-07,-2.85724e-07,0.0827313,0.048599956843509595,8.242295734817162e-13,-6.112338132302497e-07,0.048599956843509595,-2.857239591591565e-07,-0.08781768309512483
486,0.0487,761.392,796.519,0.000824582,-0.000688699,0.0013979,-0.00102428,0.0475513,0.0475513,-0.0921052,8.24704e-13,-6.11715e-07,-2.86136e-07,0.0829056,0.04869999805128211,8.246736626915663e-13,-6.117148129147765e-07,0.04869999805128211,-2.861359590378143e-07,-0.08799079886966665
487,0.0488,761.644,796.783,0.000824246,-0.000687563,0.00139877,-0.00102347,0.0476467,0.0476467,-0.0922949,-6.26771e-13,-6.12195e-07,-2.86547e-07,0.08308,0.04880004880344124,-6.267208974009009e-13,-6.121948126214249e-07,0.04880004880344124,-2.8654695893859383e-07,-0.08816379060633606
488,0.0489,761.895,797.047,0.00082391,-0.000686429,0.00139965,-0.00102266,0.047742,0.047742,-0.0924846,-6.26883e-13,-6.12674e-07,-2.86957e-07,0.0832543,0.0489000042108918,-6.268319197033634e-13,-6.126738123501951e-07,0.0489000042108918,-2.869569588614951e-07,-0.08833674952958548
489,0.049,762.146,797.309,0.000823573,-0.000685297,0.00140052,-0.00102185,0.0478373,0.0478373,-0.0926742,-6.26993e-13,-6.13151e-07,-2.87367e-07,0.0834287,0.04899996914454641,-6.269429420058259e-13,-6.131508120121865e-07,0.04899996914454641,-2.8736695867337403e-07,-0.08850958449660207
490,0.0491,762.396,797.572,0.000823237,-0.000684167,0.00140139,-0.00102105,0.0479327,0.0479327,-0.0928639,-6.27102e-13,-6.13626e-07,-2.87777e-07,0.083603,0.04910004851531302,-6.270539643082884e-13,-6.136258117184212e-07,0.04910004851531302,-2.877769585962753e-07,-0.08868247782897198
491,0.0492,762.646,797.834,0.0008229,-0.00068304,0.00140226,-0.00102024,0.048028,0.048028,-0.0930535,-6.2721e-13,-6.14101e-07,-2.88186e-07,0.0837773,0.049200032514098435,-6.271649866107509e-13,-6.14100811424656e-07,0.049200032514098435,-2.8818595843027595e-07,-0.08885524725211669
492,0.0493,762.896,798.095,0.000822564,-0.000681914,0.00140313,-0.00101944,0.0481233,0.0481233,-0.0932432,8.28311e-13,-6.14574e-07,-2.88595e-07,0.0839516,0.04930002604181283,8.282263763703668e-13,-6.145738111751342e-07,0.04930002604181283,-2.885949583752989e-07,-0.08902807501848109
493,0.0494,763.144,798.356,0.000822227,-0.000680791,0.00140399,-0.00101863,0.0482186,0.0482186,-0.0934328,-6.27421e-13,-6.15045e-07,-2.89003e-07,0.0841259,0.049400029099364584,-6.27387031215676e-13,-6.150448108588336e-07,0.049400029099364584,-2.890029582314213e-07,-0.08920077892261014
494,0.0495,763.393,798.617,0.000821891,-0.000679671,0.00140486,-0.00101783,0.0483139,0.0483139,-0.0936224,-6.27524e-13,-6.15516e-07,-2.89411e-07,0.0843001,0.049500041687661867,-6.274980535181385e-13,-6.155158105425329e-07,0.049500041687661867,-2.894109580875437e-07,-0.08937345008518294
495,0.0496,763.641,798.877,0.000821554,-0.000678552,0.00140572,-0.00101703,0.0484091,0.0484091,-0.093812,-6.27626e-13,-6.15984e-07,-2.89818e-07,0.0844744,0.049599958847611925,-6.27609075820601e-13,-6.159838102925974e-07,0.049599958847611925,-2.898179579657878e-07,-0.08954608851240664
496,0.0497,763.889,799.137,0.000821217,-0.000677436,0.00140658,-0.00101623,0.0485044,0.0485044,-0.0940015,-6.27726e-13,-6.16452e-07,-2.90225e-07,0.0846486,0.0496999904901223,-6.277200981230635e-13,-6.164518100426619e-07,0.0496999904901223,-2.902249578440319e-07,-0.08971860318235236
497,0.0498,764.136,799.396,0.000820881,-0.000676322,0.00140743,-0.00101543,0.0485997,0.0485997,-0.0941911,-6.27826e-13,-6.16918e-07,-2.90631e-07,0.0848228,0.04980003166610225,-6.27831120425526e-13,-6.169178097259476e-07,0.04980003166610225,-2.9063095774439773e-07,-0.08989117617475229
498,0.0499,764.383,799.655,0.000820544,-0.00067521,0.00140828,-0.00101463,0.0486949,0.0486949,-0.0943806,-6.27924e-13,-6.17383e-07,-2.91037e-07,0.084997,0.04989997738645768,-6.279421427279885e-13,-6.173828094313549e-07,0.04989997738645768,-2.9103695764476356e-07,-0.0900636254567817
499,0.05,764.629,799.913,0.000820207,-0.0006741,0.00140914,-0.00101383,0.0487902,0.0487902,-0.0945701,-6.2802e-13,-6.17846e-07,-2.91442e-07,0.0851712,0.05000003762209704,-6.280531650304511e-13,-6.178458091810057e-07,0.05000003762209704,-2.914419575672511e-07,-0.09023604206276825
500,0.0501,764.875,800.171,0.00081987,-0.000672993,0.00140999,-0.00101303,0.0488854,0.0488854,-0.0947596,-6.28115e-13,-6.18308e-07,-2.91847e-07,0.0853454,0.05010000238392576,-6.281641873329136e-13,-6.18307808841756e-07,0.05010000238392576,-2.9184695737871635e-07,-0.09040842599890353
501,0.0502,765.12,800.428,0.000819534,-0.000671887,0.00141083,-0.00101224,0.0489806,0.0489806,-0.0949491,-6.28209e-13,-6.18769e-07,-2.92251e-07,0.0855196,0.05019997666285292,-6.281641873329136e-13,-6.187688085246279e-07,0.05019997666285292,-2.922509573233256e-07,-0.09058077727137792
502,0.0503,765.366,800.685,0.000819197,-0.000670784,0.00141168,-0.00101144,0.0490758,0.0490758,-0.0951386,-6.28301e-13,-6.19229e-07,-2.92655e-07,0.0856937,0.050299960459784465,-6.282752096353761e-13,-6.192288082296216e-07,0.050299960459784465,-2.926549571569126e-07,-0.09075309588638059
503,0.0504,765.61,800.941,0.00081886,-0.000669683,0.00141252,-0.00101065,0.049171,0.049171,-0.095328,-6.28392e-13,-6.19687e-07,-2.93058e-07,0.0858679,0.05039995377562656,-6.283862319378386e-13,-6.196868079788587e-07,0.05039995377562656,-2.9305795701262127e-07,-0.09092529094263313
504,0.0505,765.854,801.197,0.000818523,-0.000668584,0.00141336,-0.00100985,0.0492662,0.0492662,-0.0955175,-6.28482e-13,-6.20144e-07,-2.93461e-07,0.086042,0.05049995661128559,-6.284972542403011e-13,-6.201438077502175e-07,0.05049995661128559,-2.9346095697935226e-07,-0.09109754427848038
505,0.0506,766.098,801.453,0.000818187,-0.000667487,0.0014142,-0.00100906,0.0493614,0.0493614,-0.0957069,-6.2857e-13,-6.20599e-07,-2.93863e-07,0.0862161,0.0505999689676675,-6.286082765427636e-13,-6.205988074547975e-07,0.0505999689676675,-2.9386295685718267e-07,-0.09126967410238518
506,0.0507,766.341,801.708,0.00081785,-0.000666392,0.00141504,-0.00100827,0.0494566,0.0494566,-0.0958963,-6.28658e-13,-6.21053e-07,-2.94265e-07,0.0863902,0.05069999084567911,-6.286082765427636e-13,-6.210528071814991e-07,0.05069999084567911,-2.9426495673501307e-07,-0.09144177132798847
507,0.0508,766.584,801.963,0.000817513,-0.0006653,0.00141588,-0.00100748,0.0495518,0.0495518,-0.0960857,-6.28743e-13,-6.21506e-07,-2.94667e-07,0.0865643,0.050800022246226595,-6.287192988452261e-13,-6.215058068193002e-07,0.050800022246226595,-2.946669566128435e-07,-0.09161383596146377
508,0.0509,766.827,802.217,0.000817177,-0.000664209,0.00141671,-0.00100668,0.0496469,0.0496469,-0.0962751,-6.28828e-13,-6.21958e-07,-2.95068e-07,0.0867383,0.05089995808021586,-6.288303211476887e-13,-6.219578065902454e-07,0.05089995808021586,-2.950679565127956e-07,-0.09178586800898358
509,0.051,767.069,802.471,0.00081684,-0.000663121,0.00141754,-0.00100589,0.0497421,0.0497421,-0.0964644,-6.28911e-13,-6.22408e-07,-2.95468e-07,0.0869124,0.051000008518550466,-6.289413434501512e-13,-6.224078062944116e-07,0.051000008518550466,-2.9546795632384715e-07,-0.09195777667250105
510,0.0511,767.311,802.724,0.000816503,-0.000662034,0.00141837,-0.00100511,0.0498372,0.0498372,-0.0966537,-6.28993e-13,-6.22857e-07,-2.95868e-07,0.0870864,0.05109996337213851,-6.289413434501512e-13,-6.228568060206996e-07,0.05109996337213851,-2.95867956245921e-07,-0.09212965279678853
511,0.0512,767.552,802.977,0.000816167,-0.00066095,0.0014192,-0.00100432,0.0499324,0.0499324,-0.0968431,-6.29073e-13,-6.23304e-07,-2.96268e-07,0.0872605,0.051200032851883126,-6.290523657526137e-13,-6.23303805791231e-07,0.051200032851883126,-2.9626795616799484e-07,-0.09230158715785086
512,0.0513,767.793,803.23,0.00081583,-0.000659868,0.00142002,-0.00100353,0.0500275,0.0500275,-0.0970324,-6.29152e-13,-6.23751e-07,-2.96667e-07,0.0874345,0.05130000672868995,-6.291633880550762e-13,-6.237508054507401e-07,0.05130000672868995,-2.966669560011681e-07,-0.09247339820497325
513,0.0514,768.033,803.482,0.000815493,-0.000658787,0.00142085,-0.00100274,0.0501226,0.0501226,-0.0972216,-6.2923e-13,-6.24196e-07,-2.97065e-07,0.0876085,0.0513999901134643,-6.292744103575387e-13,-6.241958051544927e-07,0.0513999901134643,-2.970649558564631e-07,-0.09264508599585564
514,0.0515,768.273,803.734,0.000815157,-0.000657709,0.00142167,-0.00100196,0.0502177,0.0502177,-0.0974109,-6.29307e-13,-6.24639e-07,-2.97463e-07,0.0877825,0.051499983007111005,-6.292744103575387e-13,-6.246388049024887e-07,0.051499983007111005,-2.9746295571175807e-07,-0.09281683202480218
515,0.0516,768.513,803.985,0.00081482,-0.000656633,0.00142249,-0.00100117,0.0503128,0.0503128,-0.0976002,8.42031e-13,-6.25082e-07,-2.97861e-07,0.0879564,0.05159998541053379,8.419931418757187e-13,-6.250818046504847e-07,0.05159998541053379,-2.9786095567807536e-07,-0.09298854554530234
516,0.0517,768.752,804.236,0.000814484,-0.000655559,0.00142331,-0.00100039,0.0504079,0.0504079,-0.0977894,8.42606e-13,-6.25523e-07,-2.98258e-07,0.0881304,0.05169999732463748,8.426592756904938e-13,-6.255228043317018e-07,0.05169999732463748,-2.9825795555549206e-07,-0.09316013587952765
517,0.0518,768.991,804.486,0.000814147,-0.000654487,0.00142412,-0.000999603,0.050503,0.050503,-0.0979786,-6.29529e-13,-6.25963e-07,-2.98655e-07,0.0883043,0.05180001875032647,-6.294964549624638e-13,-6.259628040350407e-07,0.05180001875032647,-2.9865495543290876e-07,-0.09333169375193284
518,0.0519,769.229,804.736,0.000813811,-0.000653417,0.00142494,-0.00099882,0.0505981,0.0505981,-0.0981678,-6.296e-13,-6.26402e-07,-2.99051e-07,0.0884782,0.05190004968850537,-6.296074772649263e-13,-6.264018037605013e-07,0.05190004968850537,-2.990509553324472e-07,-0.09350321916865889
519,0.052,769.467,804.985,0.000813474,-0.000652349,0.00142575,-0.000998038,0.0506931,0.0506931,-0.098357,8.44355e-13,-6.26839e-07,-2.99447e-07,0.0886522,0.05199998494007496,8.444356325298941e-13,-6.268388035302053e-07,0.05199998494007496,-2.994469551209633e-07,-0.09367471213584588
520,0.0521,769.705,805.235,0.000813138,-0.000651283,0.00142656,-0.000997256,0.0507882,0.0507882,-0.0985462,-6.2974e-13,-6.27275e-07,-2.99842e-07,0.0888261,0.05210003489594284,-6.297184995673888e-13,-6.272748032110087e-07,0.05210003489594284,-2.9984195504262345e-07,-0.09384617265963269
521,0.0522,769.942,805.483,0.000812802,-0.000650219,0.00142736,-0.000996476,0.0508832,0.0508832,-0.0987353,8.4525e-13,-6.2771e-07,-3.00237e-07,0.0889999,0.05219998914700974,8.453238109495942e-13,-6.277098030249562e-07,0.05219998914700974,-3.002369549642836e-07,-0.09401751014791271
522,0.0523,770.179,805.732,0.000812465,-0.000649157,0.00142817,-0.000995696,0.0509782,0.0509782,-0.0989245,-6.29874e-13,-6.28143e-07,-3.00632e-07,0.0891738,0.052299952894181434,-6.298295218698513e-13,-6.281428027721248e-07,0.052299952894181434,-3.0063195477492144e-07,-0.09418890582045081
523,0.0524,770.416,805.979,0.000812129,-0.000648097,0.00142897,-0.000994917,0.0510733,0.0510733,-0.0991136,-6.29939e-13,-6.28576e-07,-3.01025e-07,0.0893477,0.052400031378358136,-6.299405441723138e-13,-6.28575802408271e-07,0.052400031378358136,-3.01024954740825e-07,-0.09436017850401757
524,0.0525,770.652,806.227,0.000811793,-0.000647038,0.00142978,-0.000994138,0.0511683,0.0511683,-0.0993027,-6.30003e-13,-6.29007e-07,-3.01419e-07,0.0895215,0.05250001413044458,-6.300515664747763e-13,-6.290068021996831e-07,0.05250001413044458,-3.014189545735846e-07,-0.09453141880298188
525,0.0526,770.887,806.474,0.000811457,-0.000645982,0.00143058,-0.000993361,0.0512633,0.0512633,-0.0994918,8.47513e-13,-6.29436e-07,-3.01812e-07,0.0896953,0.05260000638134388,8.475442569988445e-13,-6.294358019243163e-07,0.05260000638134388,-3.0181195442846587e-07,-0.09470262672346719
526,0.0527,771.122,806.721,0.000811121,-0.000644928,0.00143138,-0.000992584,0.0513583,0.0513583,-0.0996809,-6.30128e-13,-6.29865e-07,-3.02204e-07,0.0898691,0.052700008131957965,-6.301625887772389e-13,-6.298648016489494e-07,0.052700008131957965,-3.0220395430546887e-07,-0.09487380227159559
527,0.0528,771.357,806.967,0.000810785,-0.000643876,0.00143217,-0.000991808,0.0514533,0.0514533,-0.0998699,-6.30188e-13,-6.30292e-07,-3.02596e-07,0.0900429,0.05280001938318968,-6.301625887772389e-13,-6.30291801417826e-07,0.05280001938318968,-3.0259595418247187e-07,-0.09504485495797821
528,0.0529,771.592,807.212,0.000810449,-0.000642825,0.00143297,-0.000991032,0.0515483,0.0515483,-0.100059,-6.30247e-13,-6.30718e-07,-3.02988e-07,0.0902167,0.05290004013594163,-6.302736110797014e-13,-6.307178010978021e-07,0.05290004013594163,-3.0298795405947487e-07,-0.09521596579686598
529,0.053,771.826,807.458,0.000810113,-0.000641777,0.00143376,-0.000990258,0.0516432,0.0516432,-0.100248,-6.30305e-13,-6.31143e-07,-3.03379e-07,0.0903905,0.0529999650911146,-6.302736110797014e-13,-6.311428007998998e-07,0.0529999650911146,-3.033789539585996e-07,-0.09538695382045315
530,0.0531,772.06,807.703,0.000809777,-0.00064073,0.00143455,-0.000989484,0.0517382,0.0517382,-0.100437,-6.30362e-13,-6.31566e-07,-3.0377e-07,0.0905643,0.05310000483961108,-6.303846333821639e-13,-6.31565800546241e-07,0.05310000483961108,-3.037699538577243e-07,-0.09555790953035759
531,0.0532,772.293,807.947,0.000809442,-0.000639686,0.00143534,-0.000988711,0.0518331,0.0518331,-0.100626,-6.30417e-13,-6.31989e-07,-3.0416e-07,0.090738,0.05319994877233514,-6.303846333821639e-13,-6.319888002925822e-07,0.05319994877233514,-3.0415995377897076e-07,-0.09572883293268608
532,0.0533,772.526,808.192,0.000809106,-0.000638643,0.00143613,-0.000987939,0.0519281,0.0519281,-0.100815,-6.30472e-13,-6.3241e-07,-3.0455e-07,0.0909117,0.05330000752018371,-6.304956556846264e-13,-6.324098000831668e-07,0.05330000752018371,-3.045499535891949e-07,-0.09589972403354408
533,0.0534,772.758,808.435,0.00080877,-0.000637602,0.00143691,-0.000987167,0.052023,0.052023,-0.101004,-6.30525e-13,-6.3283e-07,-3.04939e-07,0.0910854,0.05339997043406264,-6.304956556846264e-13,-6.328297997848509e-07,0.05339997043406264,-3.0493895353256306e-07,-0.09607058283903602
534,0.0535,772.99,808.679,0.000808435,-0.000636563,0.0014377,-0.000986396,0.052118,0.052118,-0.101193,-6.30577e-13,-6.33248e-07,-3.05328e-07,0.0912591,0.05350004818487175,-6.306066779870889e-13,-6.332477995307784e-07,0.05350004818487175,-3.053279533649089e-07,-0.09624140935526515
535,0.0536,773.222,808.922,0.000808099,-0.000635526,0.00143848,-0.000985626,0.0522129,0.0522129,-0.101382,-6.30628e-13,-6.33666e-07,-3.05717e-07,0.0914328,0.05360003008351044,-6.306066779870889e-13,-6.336657992767059e-07,0.05360003008351044,-3.057169533082771e-07,-0.09641220358833358
536,0.0537,773.454,809.164,0.000807764,-0.000634491,0.00143926,-0.000984856,0.0523078,0.0523078,-0.101571,-6.30677e-13,-6.34082e-07,-3.06105e-07,0.0916065,0.05370002147088182,-6.307177002895514e-13,-6.340817989558545e-07,0.05370002147088182,-3.0610495316274466e-07,-0.0965829655443422
537,0.0538,773.685,809.406,0.000807429,-0.000633458,0.00144004,-0.000984088,0.0524027,0.0524027,-0.10176,-6.30726e-13,-6.34497e-07,-3.06492e-07,0.0917801,0.053800022347885834,-6.307177002895514e-13,-6.344967986571248e-07,0.053800022347885834,-3.0649195303933396e-07,-0.09675369522939081
538,0.0539,773.915,809.648,0.000807093,-0.000632426,0.00144081,-0.00098332,0.0524976,0.0524976,-0.101948,-6.30773e-13,-6.3491e-07,-3.06879e-07,0.0919538,0.05390003271542354,-6.307177002895514e-13,-6.349097984026386e-07,0.05390003271542354,-3.0687895291592326e-07,-0.09692348957351926
539,0.054,774.146,809.89,0.000806758,-0.000631397,0.00144159,-0.000982552,0.0525924,0.0525924,-0.102137,-6.30819e-13,-6.35323e-07,-3.07266e-07,0.0921274,0.05399994717439549,-6.308287225920139e-13,-6.353227981481524e-07,0.05399994717439549,-3.0726595279251256e-07,-0.09709415490560802
540,0.0541,774.375,810.131,0.000806423,-0.000630369,0.00144236,-0.000981786,0.0526873,0.0526873,-0.102326,-6.30864e-13,-6.35734e-07,-3.07652e-07,0.092301,0.05409997651569953,-6.308287225920139e-13,-6.357337979379096e-07,0.05409997651569953,-3.076519526912236e-07,-0.09726478798499694
541,0.0542,774.605,810.371,0.000806088,-0.000629343,0.00144313,-0.00098102,0.0527822,0.0527822,-0.102515,-6.30908e-13,-6.36144e-07,-3.08037e-07,0.0924746,0.05420001535023844,-6.309397448944765e-13,-6.361437976387663e-07,0.05420001535023844,-3.080369526120563e-07,-0.09743538881778113
542,0.0543,774.834,810.611,0.000805754,-0.000628319,0.0014439,-0.000980255,0.052877,0.052877,-0.102704,8.57222e-13,-6.36553e-07,-3.08423e-07,0.0926482,0.05429995824891232,8.573142196155459e-13,-6.365527973617446e-07,0.05429995824891232,-3.0842295239974504e-07,-0.09760595741005496
543,0.0544,775.063,810.851,0.000805419,-0.000627296,0.00144467,-0.00097949,0.0529719,0.0529719,-0.102893,-6.30992e-13,-6.36961e-07,-3.08808e-07,0.0928218,0.05440001606261835,-6.309397448944765e-13,-6.369607971068447e-07,0.05440001606261835,-3.088079523205778e-07,-0.09777649376791098
544,0.0545,775.291,811.091,0.000805084,-0.000626276,0.00144543,-0.000978727,0.0530667,0.0530667,-0.103081,-6.31032e-13,-6.37367e-07,-3.09192e-07,0.0929954,0.05449997792225836,-6.31050767196939e-13,-6.373667968961882e-07,0.05449997792225836,-3.0919195215250994e-07,-0.09794609584398795
545,0.0546,775.519,811.33,0.000804749,-0.000625257,0.0014462,-0.000977964,0.0531615,0.0531615,-0.10327,-6.31071e-13,-6.37773e-07,-3.09576e-07,0.0931689,0.054599949258731684,-6.31050767196939e-13,-6.377727965745095e-07,0.054599949258731684,-3.095759520954644e-07,-0.0981165679217546
546,0.0547,775.747,811.568,0.000804415,-0.00062424,0.00144696,-0.000977201,0.0532564,0.0532564,-0.103459,-6.31109e-13,-6.38177e-07,-3.09959e-07,0.0933424,0.054700035542935455,-6.311617894994015e-13,-6.381767964080964e-07,0.054700035542935455,-3.099589519495183e-07,-0.0982870077833431
547,0.0548,775.974,811.807,0.000804081,-0.000623225,0.00144772,-0.00097644,0.0533512,0.0533512,-0.103648,-6.31146e-13,-6.3858e-07,-3.10342e-07,0.0935159,0.05480002584577037,-6.311617894994015e-13,-6.385797961527828e-07,0.05480002584577037,-3.1034195180357216e-07,-0.09845741543484177
548,0.0549,776.201,812.045,0.000803746,-0.000622212,0.00144848,-0.000975679,0.053446,0.053446,-0.103836,-6.31182e-13,-6.38982e-07,-3.10725e-07,0.0936894,0.05490002562813534,-6.311617894994015e-13,-6.389817958085686e-07,0.05490002562813534,-3.1072495176864834e-07,-0.0986268895096778
549,0.055,776.428,812.282,0.000803412,-0.000621201,0.00144924,-0.000974918,0.0535408,0.0535408,-0.104025,-6.31217e-13,-6.39382e-07,-3.11107e-07,0.0938629,0.055000034890929195,-6.311617894994015e-13,-6.393817956196202e-07,0.055000034890929195,-3.1110695164482394e-07,-0.09879723292960019
550,0.0551,776.654,812.519,0.000803078,-0.000620191,0.00144999,-0.000974159,0.0536355,0.0536355,-0.104214,-6.3125e-13,-6.39782e-07,-3.11489e-07,0.0940364,0.05509994812505026,-6.31272811801864e-13,-6.397817953196494e-07,0.05509994812505026,-3.1148895152099954e-07,-0.09896754415765852
551,0.0552,776.88,812.756,0.000802744,-0.000619183,0.00145075,-0.0009734,0.0537303,0.0537303,-0.104402,-6.31283e-13,-6.4018e-07,-3.1187e-07,0.0942099,0.05519997634139506,-6.31272811801864e-13,-6.401797950639221e-07,0.05519997634139506,-3.1186995141929685e-07,-0.09913692233730909
552,0.0553,777.105,812.992,0.00080241,-0.000618177,0.0014515,-0.000972642,0.0538251,0.0538251,-0.104591,8.62362e-13,-6.40577e-07,-3.12251e-07,0.0943833,0.055300014040864154,8.624212455288216e-13,-6.405767948303165e-07,0.055300014040864154,-3.1225095120657187e-07,-0.09930716937013595
553,0.0554,777.331,813.228,0.000802076,-0.000617172,0.00145225,-0.000971884,0.0539198,0.0539198,-0.10478,-6.31344e-13,-6.40973e-07,-3.12631e-07,0.0945567,0.05539995568435607,-6.313838341043265e-13,-6.409727946188326e-07,0.05539995568435607,-3.126309511269909e-07,-0.09947738422931407
554,0.0555,777.555,813.464,0.000801743,-0.00061617,0.001453,-0.000971127,0.0540146,0.0540146,-0.104968,-6.31374e-13,-6.41367e-07,-3.13011e-07,0.0947301,0.05550001234276558,-6.313838341043265e-13,-6.413667943405699e-07,0.05550001234276558,-3.1301095104740995e-07,-0.09964666656804055
555,0.0556,777.78,813.699,0.000801409,-0.000615169,0.00145375,-0.000970371,0.0541093,0.0541093,-0.105157,-6.31402e-13,-6.41761e-07,-3.1339e-07,0.0949035,0.05559997292699337,-6.313838341043265e-13,-6.417607940623071e-07,0.05559997292699337,-3.133899508789284e-07,-0.09981681726831149
556,0.0557,778.004,813.934,0.000801076,-0.000614169,0.00145449,-0.000969616,0.0542041,0.0542041,-0.105345,-6.31429e-13,-6.42153e-07,-3.13769e-07,0.0950769,0.05570004854793642,-6.313838341043265e-13,-6.421527938282878e-07,0.05570004854793642,-3.1376895082146916e-07,-0.09998603579962473
557,0.0558,778.228,814.169,0.000800742,-0.000613172,0.00145523,-0.000968861,0.0542988,0.0542988,-0.105534,-6.31454e-13,-6.42545e-07,-3.14148e-07,0.0952503,0.05580002807648987,-6.31494856406789e-13,-6.425447935942685e-07,0.05580002807648987,-3.141479506529876e-07,-0.1001561223651719
558,0.0559,778.451,814.403,0.000800409,-0.000612176,0.00145598,-0.000968107,0.0543935,0.0543935,-0.105722,8.65419e-13,-6.42935e-07,-3.14526e-07,0.0954237,0.055900017073552855,8.65529869997772e-13,-6.429347932934704e-07,0.055900017073552855,-3.145259505066278e-07,-0.10032527711312267
559,0.056,778.674,814.637,0.000800076,-0.000611182,0.00145672,-0.000967353,0.0544882,0.0544882,-0.105911,-6.31503e-13,-6.43324e-07,-3.14904e-07,0.095597,0.05600001554002243,-6.31494856406789e-13,-6.433237930147939e-07,0.05600001554002243,-3.1490395047129027e-07,-0.1004952995681202
560,0.0561,778.897,814.87,0.000799743,-0.00061019,0.00145746,-0.000966601,0.0545829,0.0545829,-0.106099,-6.31526e-13,-6.43711e-07,-3.15281e-07,0.0957703,0.05610002347679521,-6.31494856406789e-13,-6.437107927803609e-07,0.05610002347679521,-3.1528095034705217e-07,-0.10066439055675036
561,0.0562,779.119,815.103,0.00079941,-0.000609199,0.00145819,-0.000965848,0.0546776,0.0546776,-0.106288,-6.31547e-13,-6.44098e-07,-3.15658e-07,0.0959436,0.05620004088476804,-6.31494856406789e-13,-6.440977925459279e-07,0.05620004088476804,-3.1565795022281407e-07,-0.10083434892536347
562,0.0563,779.341,815.336,0.000799077,-0.00060821,0.00145893,-0.000965097,0.0547722,0.0547722,-0.106476,-6.31568e-13,-6.44484e-07,-3.16034e-07,0.0961169,0.056299962134836345,-6.316058787092516e-13,-6.444837923336166e-07,0.056299962134836345,-3.160339500096754e-07,-0.1010033761787058
563,0.0564,779.563,815.568,0.000798744,-0.000607223,0.00145966,-0.000964346,0.0548669,0.0548669,-0.106665,-6.31587e-13,-6.44868e-07,-3.1641e-07,0.0962902,0.05639999847789645,-6.316058787092516e-13,-6.448677920545265e-07,0.05639999847789645,-3.16409949907559e-07,-0.1011732704850904
564,0.0565,779.784,815.8,0.000798412,-0.000606237,0.00146039,-0.000963596,0.0549616,0.0549616,-0.106853,-6.31606e-13,-6.45251e-07,-3.16786e-07,0.0964635,0.05650004429484712,-6.316058787092516e-13,-6.452507917975581e-07,0.05650004429484712,-3.167859498054426e-07,-0.10134223402716858
565,0.0566,780.005,816.032,0.00079808,-0.000605253,0.00146112,-0.000962846,0.0550562,0.0550562,-0.107042,-6.31623e-13,-6.45633e-07,-3.17161e-07,0.0966368,0.05659999392658044,-6.316058787092516e-13,-6.456327915627114e-07,0.05659999392658044,-3.1716094972544795e-07,-0.10151206429547155
566,0.0567,780.225,816.263,0.000797747,-0.000604271,0.00146185,-0.000962097,0.0551508,0.0551508,-0.10723,-6.31639e-13,-6.46014e-07,-3.17536e-07,0.09681,0.05669995301399622,-6.316058787092516e-13,-6.460137913499864e-07,0.05669995301399622,-3.17535949534431e-07,-0.10168096415030015
567,0.0568,780.446,816.494,0.000797415,-0.00060329,0.00146258,-0.000961349,0.0552455,0.0552455,-0.107419,-6.31655e-13,-6.46394e-07,-3.1791e-07,0.0969832,0.05680002723798627,-6.316058787092516e-13,-6.463937910483608e-07,0.05680002723798627,-3.1790994947655804e-07,-0.1018507304046593
568,0.0569,780.666,816.724,0.000797083,-0.000602312,0.00146331,-0.000960602,0.0553401,0.0553401,-0.107607,8.70834e-13,-6.46773e-07,-3.18284e-07,0.0971564,0.05690000524944838,8.708589405159728e-13,-6.467727908798793e-07,0.05690000524944838,-3.182839493076628e-07,-0.102019566596244
569,0.057,780.885,816.955,0.000796751,-0.000601334,0.00146403,-0.000959855,0.0554347,0.0554347,-0.107795,-6.31682e-13,-6.4715e-07,-3.18657e-07,0.0973296,0.05699999271927769,-6.317169010117141e-13,-6.471497906446189e-07,0.05699999271927769,-3.1865694927191157e-07,-0.1021883710496081
570,0.0571,781.104,817.184,0.000796419,-0.000600359,0.00146475,-0.000959108,0.0555293,0.0555293,-0.107984,8.71609e-13,-6.47527e-07,-3.1903e-07,0.0975028,0.05709998964836904,8.715250743307479e-13,-6.475267904093585e-07,0.05709998964836904,-3.1902994912513805e-07,-0.10235804141312532
571,0.0572,781.323,817.414,0.000796088,-0.000599385,0.00146547,-0.000958363,0.0556239,0.0556239,-0.108172,-6.31705e-13,-6.47902e-07,-3.19402e-07,0.097676,0.057199996037617495,-6.317169010117141e-13,-6.479017901073192e-07,0.057199996037617495,-3.1940194900048624e-07,-0.10252678223920497
572,0.0573,781.542,817.643,0.000795756,-0.000598412,0.00146619,-0.000957618,0.0557185,0.0557185,-0.10836,-6.31715e-13,-6.48276e-07,-3.19774e-07,0.0978492,0.05730001188791767,-6.317169010117141e-13,-6.482757898274016e-07,0.05730001188791767,-3.1977394887583444e-07,-0.10269549134499112
573,0.0574,781.76,817.872,0.000795425,-0.000597442,0.00146691,-0.000956873,0.0558131,0.0558131,-0.108549,-6.31724e-13,-6.48649e-07,-3.20146e-07,0.0980223,0.057400037200165066,-6.317169010117141e-13,-6.486487896806281e-07,0.057400037200165066,-3.2014594875118263e-07,-0.10286506587182942
574,0.0575,781.978,818.1,0.000795094,-0.000596473,0.00146763,-0.00095613,0.0559076,0.0559076,-0.108737,-6.31733e-13,-6.49021e-07,-3.20517e-07,0.0981954,0.05749996622525244,-6.317169010117141e-13,-6.490207893339317e-07,0.05749996622525244,-3.2051694864865254e-07,-0.10303371138627038
575,0.0576,782.196,818.328,0.000794763,-0.000595505,0.00146834,-0.000955386,0.0560022,0.0560022,-0.108925,-6.3174e-13,-6.49392e-07,-3.20888e-07,0.0983685,0.05760001045407481,-6.317169010117141e-13,-6.493917891203793e-07,0.05760001045407481,-3.2088794854612246e-07,-0.10320232519833483
576,0.0577,782.413,818.556,0.000794432,-0.000594539,0.00146906,-0.000954644,0.0560967,0.0560967,-0.109113,-6.31746e-13,-6.49762e-07,-3.21258e-07,0.0985416,0.05769995837752773,-6.317169010117141e-13,-6.497617889289486e-07,0.05769995837752773,-3.212579483546918e-07,-0.10337090731398213
577,0.0578,782.63,818.783,0.000794101,-0.000593575,0.00146977,-0.000953902,0.0561913,0.0561913,-0.109302,-6.31751e-13,-6.50131e-07,-3.21628e-07,0.0987147,0.057800021526502654,-6.317169010117141e-13,-6.501307886486174e-07,0.057800021526502654,-3.216279482742834e-07,-0.10354035419926477
578,0.0579,782.846,819.01,0.00079377,-0.000592612,0.00147048,-0.000953161,0.0562858,0.0562858,-0.10949,-6.31755e-13,-6.50498e-07,-3.21998e-07,0.0988878,0.057899988351894915,-6.317169010117141e-13,-6.504977884125296e-07,0.057899988351894915,-3.2199794819387506e-07,-0.10370887277143315
579,0.058,783.062,819.237,0.00079344,-0.000591651,0.00147119,-0.00095242,0.0563803,0.0563803,-0.109678,-6.31758e-13,-6.50865e-07,-3.22367e-07,0.0990609,0.05799996462459878,-6.317169010117141e-13,-6.508647881764418e-07,0.05799996462459878,-3.223669480245661e-07,-0.10387735966508782
580,0.0581,783.278,819.463,0.000793109,-0.000590692,0.00147189,-0.00095168,0.0564748,0.0564748,-0.109866,-6.3176e-13,-6.5123e-07,-3.22736e-07,0.0992339,0.058099950345506635,-6.317169010117141e-13,-6.512297879845974e-07,0.058099950345506635,-3.2273594796627947e-07,-0.10404581488618392
581,0.0582,783.494,819.689,0.000792779,-0.000589734,0.0014726,-0.000950941,0.0565694,0.0565694,-0.110054,-6.31761e-13,-6.51594e-07,-3.23104e-07,0.0994069,0.05820005133551143,-6.317169010117141e-13,-6.515937877038525e-07,0.05820005133551143,-3.2310394781909224e-07,-0.10421423844067512
582,0.0583,783.709,819.915,0.000792449,-0.000588777,0.0014733,-0.000950202,0.0566638,0.0566638,-0.110242,-6.31761e-13,-6.51957e-07,-3.23472e-07,0.0995799,0.05829995013550682,-6.317169010117141e-13,-6.519567874452292e-07,0.05829995013550682,-3.23471947671905e-07,-0.10438263033451423
583,0.0584,783.924,820.14,0.000792119,-0.000587823,0.001474,-0.000949464,0.0567583,0.0567583,-0.110431,-6.3176e-13,-6.52319e-07,-3.23839e-07,0.0997529,0.05839996420638505,-6.317169010117141e-13,-6.523187872087277e-07,0.05839996420638505,-3.238389475468395e-07,-0.10455188602221477
584,0.0585,784.139,820.365,0.000791789,-0.00058687,0.00147471,-0.000948726,0.0568528,0.0568528,-0.110619,-6.31758e-13,-6.52681e-07,-3.24206e-07,0.0999259,0.058499987729039526,-6.317169010117141e-13,-6.526807869722262e-07,0.058499987729039526,-3.24205947421774e-07,-0.10472021444427504
585,0.0586,784.353,820.59,0.000791459,-0.000585918,0.00147541,-0.000947989,0.0569473,0.0569473,-0.110807,-6.31755e-13,-6.5304e-07,-3.24573e-07,0.100099,0.05860002070436354,-6.317169010117141e-13,-6.530397868020898e-07,0.05860002070436354,-3.245729472967085e-07,-0.10488851122356657
586,0.0587,784.567,820.814,0.00079113,-0.000584968,0.0014761,-0.000947253,0.0570417,0.0570417,-0.110995,-6.31751e-13,-6.53399e-07,-3.24939e-07,0.100272,0.05869995726324939,-6.317169010117141e-13,-6.533987865209312e-07,0.05869995726324939,-3.249389471937647e-07,-0.10505677636603761
587,0.0588,784.781,821.038,0.0007908,-0.000584019,0.0014768,-0.000946517,0.0571362,0.0571362,-0.111183,-6.31746e-13,-6.53757e-07,-3.25304e-07,0.100445,0.05880000913658723,-6.317169010117141e-13,-6.537567862618943e-07,0.05880000913658723,-3.2530394711294264e-07,-0.10522500987763517
588,0.0589,784.994,821.262,0.000790471,-0.000583072,0.00147749,-0.000945782,0.0572306,0.0572306,-0.111371,-6.31741e-13,-6.54114e-07,-3.2567e-07,0.100618,0.05889996457527236,-6.317169010117141e-13,-6.54113786024979e-07,0.05889996457527236,-3.2566994700999885e-07,-0.10539321176430538
589,0.059,785.207,821.485,0.000790142,-0.000582127,0.00147819,-0.000945048,0.0573251,0.0573251,-0.111559,-6.31734e-13,-6.54469e-07,-3.26035e-07,0.100791,0.05900003535019427,-6.317169010117141e-13,-6.544687858323073e-07,0.05900003535019427,-3.260349468181545e-07,-0.10556138203199328
590,0.0591,785.42,821.708,0.000789813,-0.000581183,0.00147888,-0.000944314,0.0574195,0.0574195,-0.111747,-6.31726e-13,-6.54824e-07,-3.26399e-07,0.100964,0.05910000967224516,-6.317169010117141e-13,-6.548237856396355e-07,0.05910000967224516,-3.2639894675945413e-07,-0.10572952068664254
591,0.0592,785.632,821.93,0.000789484,-0.000580241,0.00147957,-0.00094358,0.0575139,0.0575139,-0.111935,-6.31718e-13,-6.55177e-07,-3.26763e-07,0.101136,0.0591999934323173,-6.317169010117141e-13,-6.551767853801849e-07,0.0591999934323173,-3.267629465897315e-07,-0.10589762773419586
592,0.0593,785.844,822.153,0.000789155,-0.0005793,0.00148026,-0.000942848,0.0576083,0.0576083,-0.112123,-6.31708e-13,-6.5553e-07,-3.27127e-07,0.101309,0.059299986631302204,-6.317169010117141e-13,-6.555297851207342e-07,0.059299986631302204,-3.2712694653103114e-07,-0.10606570318059483
593,0.0594,786.056,822.375,0.000788827,-0.00057836,0.00148095,-0.000942116,0.0577027,0.0577027,-0.112311,8.83116e-13,-6.55881e-07,-3.2749e-07,0.101482,0.05939998927009049,8.830713937868495e-13,-6.55880784905527e-07,0.05939998927009049,-3.274899463834302e-07,-0.1062337470317799
594,0.0595,786.268,822.596,0.000788499,-0.000577423,0.00148163,-0.000941384,0.0577971,0.0577971,-0.112499,-6.31686e-13,-6.56232e-07,-3.27853e-07,0.101655,0.05950000134957345,-6.317169010117141e-13,-6.562317846903198e-07,0.05950000134957345,-3.278529462358293e-07,-0.10640175929369045
595,0.0596,786.479,822.818,0.00078817,-0.000576486,0.00148232,-0.000940653,0.0578915,0.0578915,-0.112687,8.84137e-13,-6.56581e-07,-3.28215e-07,0.101828,0.059600022870642366,8.841816168114747e-13,-6.565807844083338e-07,0.059600022870642366,-3.2821494611035007e-07,-0.10656973997226471
596,0.0597,786.689,823.039,0.000787842,-0.000575551,0.001483,-0.000939923,0.0579858,0.0579858,-0.112875,-6.3166e-13,-6.56929e-07,-3.28577e-07,0.102001,0.05969994786418842,-6.316058787092516e-13,-6.569287842594917e-07,0.05969994786418842,-3.2857694598487086e-07,-0.10673768907343972
597,0.0598,786.9,823.259,0.000787514,-0.000574618,0.00148368,-0.000939193,0.0580802,0.0580802,-0.113063,8.85098e-13,-6.57276e-07,-3.28938e-07,0.102173,0.059799988261099335,8.850697952311748e-13,-6.572757840217491e-07,0.059799988261099335,-3.2893794588151337e-07,-0.10690560660315152
598,0.0599,787.11,823.48,0.000787187,-0.000573686,0.00148436,-0.000938464,0.0581746,0.0581746,-0.113251,-6.31631e-13,-6.57622e-07,-3.293e-07,0.102346,0.05990003810226918,-6.316058787092516e-13,-6.576217838061282e-07,0.05990003810226918,-3.2929994575603416e-07,-0.107073492567335
599,0.06,787.32,823.7,0.000786859,-0.000572756,0.00148504,-0.000937735,0.0582689,0.0582689,-0.113438,-6.31614e-13,-6.57967e-07,-3.2966e-07,0.102519,0.059999991388585805,-6.316058787092516e-13,-6.579667835016068e-07,0.059999991388585805,-3.296599456747984e-07,-0.10724045421282458
600,0.0601,787.53,823.919,0.000786532,-0.000571827,0.00148572,-0.000937007,0.0583632,0.0583632,-0.113626,-6.31597e-13,-6.58311e-07,-3.3002e-07,0.102692,0.06009995410094149,-6.316058787092516e-13,-6.583107833302293e-07,0.06009995410094149,-3.300199455935626e-07,-0.10740827723157442
601,0.0602,787.739,824.139,0.000786204,-0.0005709,0.00148639,-0.00093628,0.0584576,0.0584576,-0.113814,-6.31579e-13,-6.58654e-07,-3.3038e-07,0.102864,0.06020003226022341,-6.316058787092516e-13,-6.586537830699513e-07,0.06020003226022341,-3.3037994540130455e-07,-0.10757606870256242
602,0.0603,787.948,824.358,0.000785877,-0.000569974,0.00148707,-0.000935553,0.0585519,0.0585519,-0.114002,-6.3156e-13,-6.58996e-07,-3.3074e-07,0.103037,0.06030001383732286,-6.316058787092516e-13,-6.589957828317949e-07,0.06030001383732286,-3.307399453200688e-07,-0.10774382863171894
603,0.0604,788.157,824.576,0.00078555,-0.000569049,0.00148774,-0.000934826,0.0586462,0.0586462,-0.11419,-6.31541e-13,-6.59337e-07,-3.31099e-07,0.10321,0.06040000484312946,-6.31494856406789e-13,-6.593367826157603e-07,0.06040000484312946,-3.3109894514993243e-07,-0.10791155702497313
604,0.0605,788.365,824.795,0.000785224,-0.000568126,0.00148841,-0.000934101,0.0587405,0.0587405,-0.114377,-6.3152e-13,-6.59677e-07,-3.31458e-07,0.103383,0.06050000527853272,-6.31494856406789e-13,-6.596767824218475e-07,0.06050000527853272,-3.314579450908184e-07,-0.10807836196706133
605,0.0606,788.573,825.013,0.000784897,-0.000567205,0.00148908,-0.000933376,0.0588348,0.0588348,-0.114565,-6.31498e-13,-6.60016e-07,-3.31816e-07,0.103555,0.06060001514442148,-6.31494856406789e-13,-6.60015782139034e-07,0.06060001514442148,-3.3181594494280375e-07,-0.10824602747396006
606,0.0607,788.781,825.231,0.000784571,-0.000566285,0.00148975,-0.000932651,0.0589291,0.0589291,-0.114753,-6.31476e-13,-6.60353e-07,-3.32174e-07,0.103728,0.06070003444168526,-6.31494856406789e-13,-6.603527820114863e-07,0.06070003444168526,-3.321739447947891e-07,-0.10841366146270626
607,0.0608,788.988,825.448,0.000784244,-0.000565366,0.00149042,-0.000931927,0.0590233,0.0590233,-0.114941,-6.31452e-13,-6.6069e-07,-3.32531e-07,0.103901,0.06079995709121255,-6.31494856406789e-13,-6.606897817729163e-07,0.06079995709121255,-3.325309446688962e-07,-0.10858126393922485
608,0.0609,789.195,825.665,0.000783918,-0.000564449,0.00149109,-0.000931203,0.0591176,0.0591176,-0.115128,-6.31428e-13,-6.61026e-07,-3.32888e-07,0.104073,0.060899995243891114,-6.313838341043265e-13,-6.61025781556468e-07,0.060899995243891114,-3.328879445430033e-07,-0.1087479436578288
609,0.061,789.402,825.882,0.000783592,-0.000563533,0.00149175,-0.00093048,0.0592119,0.0592119,-0.115316,-6.31402e-13,-6.6136e-07,-3.33245e-07,0.104246,0.06100004283061211,-6.313838341043265e-13,-6.613597812732408e-07,0.06100004283061211,-3.332449445281327e-07,-0.10891548329520173
610,0.0611,789.609,826.098,0.000783267,-0.000562619,0.00149242,-0.000929758,0.0593061,0.0593061,-0.115504,-6.31376e-13,-6.61694e-07,-3.33601e-07,0.104418,0.06109999374226094,-6.313838341043265e-13,-6.616937811010359e-07,0.06109999374226094,-3.336009443133392e-07,-0.10908299143808342
611,0.0612,789.815,826.315,0.000782941,-0.000561706,0.00149308,-0.000929036,0.0594003,0.0594003,-0.115691,-6.31349e-13,-6.62027e-07,-3.33957e-07,0.104591,0.06119995406972878,-6.313838341043265e-13,-6.620267808399305e-07,0.06119995406972878,-3.33956944209568e-07,-0.10924957734241703
612,0.0613,790.021,826.531,0.000782615,-0.000560794,0.00149374,-0.000928315,0.0594946,0.0594946,-0.115879,-6.31321e-13,-6.62358e-07,-3.34312e-07,0.104764,0.06130002994390105,-6.31272811801864e-13,-6.623577806230685e-07,0.06130002994390105,-3.3431194412791854e-07,-0.10941702268152165
613,0.0614,790.227,826.746,0.00078229,-0.000559884,0.0014944,-0.000927594,0.0595888,0.0595888,-0.116067,-6.31293e-13,-6.62689e-07,-3.34667e-07,0.104936,0.06140000911566679,-6.31272811801864e-13,-6.626887804062065e-07,0.06140000911566679,-3.3466694404626907e-07,-0.1095844365438613
614,0.0615,790.432,826.961,0.000781965,-0.000558975,0.00149505,-0.000926874,0.059683,0.059683,-0.116254,-6.31263e-13,-6.63019e-07,-3.35021e-07,0.105109,0.06149999770591408,-6.31272811801864e-13,-6.630187802114662e-07,0.06149999770591408,-3.35020943875719e-07,-0.10975092868672709
615,0.0616,790.637,827.176,0.00078164,-0.000558068,0.00149571,-0.000926155,0.0597772,0.0597772,-0.116442,-6.31232e-13,-6.63347e-07,-3.35376e-07,0.105281,0.06159999571553021,-6.31272811801864e-13,-6.633467799499471e-07,0.06159999571553021,-3.3537594379406954e-07,-0.10991827978063828
616,0.0617,790.842,827.391,0.000781315,-0.000557162,0.00149637,-0.000925436,0.0598714,0.0598714,-0.11663,-6.31201e-13,-6.63675e-07,-3.35729e-07,0.105454,0.06170000314540269,-6.311617894994015e-13,-6.636747797994502e-07,0.06170000314540269,-3.357289436456412e-07,-0.110085599415501
617,0.0618,791.046,827.605,0.000780991,-0.000556258,0.00149702,-0.000924717,0.0599656,0.0599656,-0.116817,-6.31169e-13,-6.64001e-07,-3.36083e-07,0.105626,0.0618000199964186,-6.311617894994015e-13,-6.640007795821745e-07,0.0618000199964186,-3.3608294347509116e-07,-0.11025199784967177
618,0.0619,791.251,827.819,0.000780666,-0.000555355,0.00149767,-0.000923999,0.0600598,0.0600598,-0.117005,-6.31136e-13,-6.64327e-07,-3.36436e-07,0.105799,0.06190004626946588,-6.311617894994015e-13,-6.643267793648988e-07,0.06190004626946588,-3.364359434376851e-07,-0.11041925475143466
619,0.062,791.455,828.033,0.000780342,-0.000554453,0.00149832,-0.000923282,0.0601539,0.0601539,-0.117192,-6.31102e-13,-6.64651e-07,-3.36788e-07,0.105971,0.061999975765428816,-6.31050767196939e-13,-6.646507790808442e-07,0.061999975765428816,-3.367879433113785e-07,-0.1105855907978911
620,0.0621,791.658,828.246,0.000780018,-0.000553553,0.00149897,-0.000922565,0.0602481,0.0602481,-0.11738,-6.31067e-13,-6.64975e-07,-3.3714e-07,0.106144,0.062100020875196726,-6.31050767196939e-13,-6.64974778907812e-07,0.062100020875196726,-3.371399431850719e-07,-0.11075278499007457
621,0.0622,791.861,828.46,0.000779694,-0.000552654,0.00149962,-0.000921849,0.0603422,0.0603422,-0.117567,-6.31031e-13,-6.65298e-07,-3.37492e-07,0.106316,0.062199969189655535,-6.31050767196939e-13,-6.652977786458791e-07,0.062199969189655535,-3.374919430587653e-07,-0.11091905867220764
622,0.0623,792.065,828.672,0.00077937,-0.000551756,0.00150027,-0.000921133,0.0604364,0.0604364,-0.117755,-6.30994e-13,-6.65619e-07,-3.37844e-07,0.106489,0.062300033139691235,-6.309397448944765e-13,-6.656187784281897e-07,0.062300033139691235,-3.378439429324587e-07,-0.11108619017832344
623,0.0624,792.267,828.885,0.000779047,-0.00055086,0.00150091,-0.000920418,0.0605305,0.0605305,-0.117942,-6.30957e-13,-6.6594e-07,-3.38194e-07,0.106661,0.06240000027618953,-6.309397448944765e-13,-6.659397782105003e-07,0.06240000027618953,-3.381939428503955e-07,-0.11125240151951532
624,0.0625,792.47,829.097,0.000778723,-0.000549965,0.00150156,-0.000919703,0.0606246,0.0606246,-0.11813,-6.30919e-13,-6.66259e-07,-3.38545e-07,0.106833,0.06249997682003827,-6.309397448944765e-13,-6.662587780370544e-07,0.06249997682003827,-3.385449427462106e-07,-0.11141947036306632
625,0.0626,792.672,829.309,0.0007784,-0.000549072,0.0015022,-0.000918989,0.0607187,0.0607187,-0.118317,-6.3088e-13,-6.66578e-07,-3.38895e-07,0.107006,0.06259996277212232,-6.308287225920139e-13,-6.665777778636084e-07,0.06259996277212232,-3.3889494255312513e-07,-0.11158561938669054
626,0.0627,792.874,829.521,0.000778077,-0.00054818,0.00150284,-0.000918276,0.0608128,0.0608128,-0.118504,-6.3084e-13,-6.66896e-07,-3.39245e-07,0.107178,0.06269995813332718,-6.308287225920139e-13,-6.668957776012618e-07,0.06269995813332718,-3.3924494247106196e-07,-0.1117517373433522
627,0.0628,793.076,829.732,0.000777754,-0.000547289,0.00150348,-0.000917562,0.0609069,0.0609069,-0.118692,-6.30799e-13,-6.67212e-07,-3.39594e-07,0.107351,0.06279996290453815,-6.308287225920139e-13,-6.672117773831587e-07,0.06279996290453815,-3.395939423000982e-07,-0.11191871232059203
628,0.0629,793.277,829.943,0.000777432,-0.000546399,0.00150412,-0.00091685,0.061001,0.061001,-0.118879,-6.30757e-13,-6.67528e-07,-3.39943e-07,0.107523,0.06289997708664097,-6.307177002895514e-13,-6.675277771650556e-07,0.06289997708664097,-3.3994294224015675e-07,-0.11208476799469858
629,0.063,793.478,830.154,0.000777109,-0.000545511,0.00150476,-0.000916138,0.0610951,0.0610951,-0.119067,-6.30715e-13,-6.67843e-07,-3.40292e-07,0.107695,0.06300000068052114,-6.307177002895514e-13,-6.678427769690742e-07,0.06300000068052114,-3.40291942069193e-07,-0.11225168036806088
630,0.0631,793.679,830.364,0.000776787,-0.000544625,0.0015054,-0.000915426,0.0611892,0.0611892,-0.119254,-6.30672e-13,-6.68156e-07,-3.4064e-07,0.107868,0.06310003368706418,-6.307177002895514e-13,-6.681557768173363e-07,0.06310003368706418,-3.4063994203137327e-07,-0.11241767378296408
631,0.0632,793.879,830.574,0.000776465,-0.000543739,0.00150603,-0.000914715,0.0612832,0.0612832,-0.119441,-6.30628e-13,-6.68469e-07,-3.40988e-07,0.10804,0.06319996978715392,-6.306066779870889e-13,-6.68468776554576e-07,0.06319996978715392,-3.4098794188253123e-07,-0.11258363616000078
632,0.0633,794.079,830.784,0.000776143,-0.000542855,0.00150667,-0.000914005,0.0613773,0.0613773,-0.119629,-6.30583e-13,-6.68781e-07,-3.41335e-07,0.108212,0.06330002161167547,-6.306066779870889e-13,-6.687807763139375e-07,0.06330002161167547,-3.413349417558109e-07,-0.11275045475496337
633,0.0634,794.279,830.994,0.000775821,-0.000541973,0.0015073,-0.000913295,0.0614713,0.0614713,-0.119816,-6.30537e-13,-6.69091e-07,-3.41682e-07,0.108384,0.06339997651151363,-6.304956556846264e-13,-6.690907761175424e-07,0.06339997651151363,-3.416819416290906e-07,-0.11291635490777652
634,0.0635,794.479,831.203,0.000775499,-0.000541091,0.00150793,-0.000912586,0.0615654,0.0615654,-0.120003,-6.3049e-13,-6.69401e-07,-3.42029e-07,0.108557,0.06350004715755331,-6.304956556846264e-13,-6.694007759211473e-07,0.06350004715755331,-3.420289415023703e-07,-0.11308222404016155
635,0.0636,794.678,831.412,0.000775178,-0.000540211,0.00150856,-0.000911877,0.0616594,0.0616594,-0.12019,-6.30443e-13,-6.6971e-07,-3.42375e-07,0.108729,0.06360002086067662,-6.304956556846264e-13,-6.69709775746874e-07,0.06360002086067662,-3.423749413977717e-07,-0.11324806215791872
636,0.0637,794.878,831.621,0.000774856,-0.000539332,0.00150919,-0.000911169,0.0617534,0.0617534,-0.120378,-6.30395e-13,-6.70018e-07,-3.42721e-07,0.108901,0.06370000396176967,-6.303846333821639e-13,-6.700177754837e-07,0.06370000396176967,-3.427209412931731e-07,-0.1134147558525348
637,0.0638,795.076,831.829,0.000774535,-0.000538455,0.00150982,-0.000910461,0.0618474,0.0618474,-0.120565,-6.30346e-13,-6.70325e-07,-3.43066e-07,0.109073,0.06379999646171597,-6.303846333821639e-13,-6.703247753536701e-07,0.06379999646171597,-3.430659410996739e-07,-0.11358053179265681
638,0.0639,795.275,832.037,0.000774214,-0.000537579,0.00151045,-0.000909753,0.0619414,0.0619414,-0.120752,-6.30296e-13,-6.70631e-07,-3.43411e-07,0.109246,0.06389999836139904,-6.302736110797014e-13,-6.706307751347396e-07,0.06389999836139904,-3.4341094101719705e-07,-0.11374627673557647
639,0.064,795.473,832.245,0.000773894,-0.000536704,0.00151107,-0.000909047,0.0620354,0.0620354,-0.120939,-6.30245e-13,-6.70936e-07,-3.43756e-07,0.109418,0.06400000966170238,-6.302736110797014e-13,-6.709357749379308e-07,0.06400000966170238,-3.4375594093472017e-07,-0.11391199068708957
640,0.0641,795.671,832.452,0.000773573,-0.00053583,0.00151169,-0.00090834,0.0621294,0.0621294,-0.121127,-6.30194e-13,-6.7124e-07,-3.441e-07,0.10959,0.06410003036350997,-6.301625887772389e-13,-6.712397747632437e-07,0.06410003036350997,-3.440999407633427e-07,-0.11407855957487434
641,0.0642,795.869,832.66,0.000773253,-0.000534958,0.00151232,-0.000907635,0.0622233,0.0622233,-0.121314,-6.30142e-13,-6.71543e-07,-3.44444e-07,0.109762,0.06419995404770473,-6.301625887772389e-13,-6.71542774499656e-07,0.06419995404770473,-3.4444394070298756e-07,-0.11424421139530594
642,0.0643,796.066,832.867,0.000772933,-0.000534087,0.00151294,-0.000906929,0.0623173,0.0623173,-0.121501,-6.30089e-13,-6.71845e-07,-3.44787e-07,0.109934,0.0642999935451678,-6.300515664747763e-13,-6.718447742581901e-07,0.0642999935451678,-3.447869405537318e-07,-0.11440983224174317
643,0.0644,796.264,833.073,0.000772613,-0.000533217,0.00151356,-0.000906224,0.0624113,0.0624113,-0.121688,-6.30035e-13,-6.72146e-07,-3.4513e-07,0.110106,0.06440004244678588,-6.300515664747763e-13,-6.721457741498682e-07,0.06440004244678588,-3.451299404044761e-07,-0.11457542211997784
644,0.0645,796.461,833.28,0.000772293,-0.000532349,0.00151418,-0.00090552,0.0625052,0.0625052,-0.121875,-6.29981e-13,-6.72447e-07,-3.45473e-07,0.110278,0.06449999430343789,-6.299405441723138e-13,-6.72446773930524e-07,0.06449999430343789,-3.4547294036624265e-07,-0.11474098103580033
645,0.0646,796.657,833.486,0.000771973,-0.000531482,0.00151479,-0.000904816,0.0625991,0.0625991,-0.122062,-6.29925e-13,-6.72746e-07,-3.45815e-07,0.110451,0.06459995554600972,-6.299405441723138e-13,-6.727457737554232e-07,0.06459995554600972,-3.4581494023910864e-07,-0.1149065089950001
646,0.0647,796.854,833.692,0.000771654,-0.000530616,0.00151541,-0.000904113,0.0626931,0.0626931,-0.122249,-6.29869e-13,-6.73044e-07,-3.46157e-07,0.110623,0.06470003264538104,-6.298295218698513e-13,-6.730437734914219e-07,0.06470003264538104,-3.461569401119746e-07,-0.11507200600336542
647,0.0648,797.05,833.897,0.000771335,-0.000529751,0.00151603,-0.00090341,0.062787,0.062787,-0.122436,-6.29812e-13,-6.73342e-07,-3.46498e-07,0.110795,0.06480001267243529,-6.298295218698513e-13,-6.733417733384428e-07,0.06480001267243529,-3.464979400069623e-07,-0.11523747206668367
648,0.0649,797.246,834.102,0.000771015,-0.000528888,0.00151664,-0.000902708,0.0628809,0.0628809,-0.122623,-6.29755e-13,-6.73638e-07,-3.4684e-07,0.110967,0.0649000020880548,-6.297184995673888e-13,-6.736377731186849e-07,0.0649000020880548,-3.468399398798283e-07,-0.11540290719074109
649,0.065,797.441,834.307,0.000770697,-0.000528026,0.00151725,-0.000902006,0.0629748,0.0629748,-0.12281,-6.29696e-13,-6.73934e-07,-3.4718e-07,0.111139,0.0650000008931213,-6.297184995673888e-13,-6.73933772898927e-07,0.0650000008931213,-3.4717993968591543e-07,-0.11556831138132251
650,0.0651,797.636,834.512,0.000770378,-0.000527165,0.00151786,-0.000901305,0.0630687,0.0630687,-0.122997,-6.29637e-13,-6.74228e-07,-3.47521e-07,0.111311,0.06510000908851654,-6.296074772649263e-13,-6.742277727234125e-07,0.06510000908851654,-3.4752093958090313e-07,-0.1157336846442123
651,0.0652,797.832,834.716,0.000770059,-0.000526305,0.00151847,-0.000900604,0.0631626,0.0631626,-0.123184,-6.29577e-13,-6.74522e-07,-3.47861e-07,0.111483,0.06520002667512204,-6.296074772649263e-13,-6.74521772547898e-07,0.06520002667512204,-3.4786093949801256e-07,-0.11589902698519305
652,0.0653,798.026,834.921,0.000769741,-0.000525447,0.00151908,-0.000899904,0.0632564,0.0632564,-0.123371,-6.29516e-13,-6.74814e-07,-3.482e-07,0.111655,0.06529994712382003,-6.294964549624638e-13,-6.748137723056047e-07,0.06529994712382003,-3.481999393262214e-07,-0.11606433841004693
653,0.0654,798.221,835.125,0.000769423,-0.00052459,0.00151969,-0.000899204,0.0633503,0.0633503,-0.123558,9.10347e-13,-6.75106e-07,-3.48539e-07,0.111827,0.06539998348548859,9.103828801926284e-13,-6.751057720633113e-07,0.06539998348548859,-3.4853893926545254e-07,-0.11622961892455452
654,0.0655,798.415,835.328,0.000769105,-0.000523734,0.0015203,-0.000898505,0.0634442,0.0634442,-0.123745,9.10854e-13,-6.75397e-07,-3.48878e-07,0.111999,0.06550002924101261,9.108269694024784e-13,-6.75396771954162e-07,0.06550002924101261,-3.488779390936614e-07,-0.11639486853449554
655,0.0656,798.609,835.531,0.000768787,-0.000522879,0.0015209,-0.000897806,0.063538,0.063538,-0.123932,-6.29329e-13,-6.75687e-07,-3.49217e-07,0.112171,0.06559997783127103,-6.292744103575387e-13,-6.756867717561121e-07,0.06559997783127103,-3.492169390328925e-07,-0.11656008724564859
656,0.0657,798.803,835.734,0.00076847,-0.000522026,0.00152151,-0.000897108,0.0636319,0.0636319,-0.124119,-6.29266e-13,-6.75976e-07,-3.49555e-07,0.112343,0.06570004236714588,-6.292744103575387e-13,-6.75975771580184e-07,0.06570004236714588,-3.495549388832231e-07,-0.11672527506379127
657,0.0658,798.996,835.937,0.000768152,-0.000521174,0.00152211,-0.00089641,0.0637257,0.0637257,-0.124306,-6.29201e-13,-6.76264e-07,-3.49892e-07,0.112515,0.06580000971951527,-6.291633880550762e-13,-6.762637713153552e-07,0.06580000971951527,-3.4989193875567537e-07,-0.11689043199470006
658,0.0659,799.19,836.14,0.000767835,-0.000520323,0.00152271,-0.000895713,0.0638195,0.0638195,-0.124493,-6.29136e-13,-6.76551e-07,-3.50229e-07,0.112687,0.06589998644926243,-6.291633880550762e-13,-6.765507711836705e-07,0.06589998644926243,-3.5022893862812765e-07,-0.11705555804415024
659,0.066,799.383,836.342,0.000767518,-0.000519473,0.00152331,-0.000895016,0.0639133,0.0639133,-0.12468,-6.2907e-13,-6.76838e-07,-3.50566e-07,0.112858,0.06599997255726642,-6.290523657526137e-13,-6.768377709409634e-07,0.06599997255726642,-3.5056593850057993e-07,-0.11722065321791608
660,0.0661,799.575,836.544,0.000767201,-0.000518625,0.00152391,-0.00089432,0.0640071,0.0640071,-0.124867,-6.29003e-13,-6.77123e-07,-3.50903e-07,0.11303,0.06609996804440743,-6.290523657526137e-13,-6.771227707424998e-07,0.06609996804440743,-3.509029384840545e-07,-0.11738571752177096
661,0.0662,799.768,836.746,0.000766885,-0.000517778,0.00152451,-0.000893624,0.0641009,0.0641009,-0.125053,-6.28935e-13,-6.77407e-07,-3.51239e-07,0.113202,0.06619997291156499,-6.289413434501512e-13,-6.774067705661579e-07,0.06619997291156499,-3.512389382676062e-07,-0.1175498685117966
662,0.0663,799.96,836.947,0.000766568,-0.000516931,0.00152511,-0.000892928,0.0641947,0.0641947,-0.12524,-6.28867e-13,-6.77691e-07,-3.51575e-07,0.113374,0.06629998715961882,-6.288303211476887e-13,-6.776907703898161e-07,0.06629998715961882,-3.515749381621802e-07,-0.11771487125814728
663,0.0664,800.152,837.148,0.000766252,-0.000516087,0.0015257,-0.000892233,0.0642885,0.0642885,-0.125427,-6.28798e-13,-6.77973e-07,-3.5191e-07,0.113546,0.06640001078944935,-6.288303211476887e-13,-6.779727701466953e-07,0.06640001078944935,-3.5190993807887594e-07,-0.11787984315186917
664,0.0665,800.344,837.349,0.000765936,-0.000515243,0.0015263,-0.000891539,0.0643823,0.0643823,-0.125614,-6.28729e-13,-6.78255e-07,-3.52245e-07,0.113718,0.0665000438019363,-6.287192988452261e-13,-6.782547700145969e-07,0.0665000438019363,-3.5224493799557166e-07,-0.11804478419873121
665,0.0666,800.535,837.55,0.00076562,-0.0005144,0.00152689,-0.000890845,0.064476,0.064476,-0.125801,-6.28658e-13,-6.78536e-07,-3.5258e-07,0.113889,0.06659997953795682,-6.286082765427636e-13,-6.785357697935979e-07,0.06659997953795682,-3.525799378012451e-07,-0.11820969440450124
666,0.0667,800.726,837.75,0.000765304,-0.000513559,0.00152749,-0.000890151,0.0645698,0.0645698,-0.125987,-6.28587e-13,-6.78816e-07,-3.52914e-07,0.114061,0.06670003130839208,-6.286082765427636e-13,-6.788157695947206e-07,0.06670003130839208,-3.529139377400625e-07,-0.118373692149079
667,0.0668,800.917,837.95,0.000764989,-0.000512719,0.00152808,-0.000889458,0.0646635,0.0646635,-0.126174,-6.28515e-13,-6.79095e-07,-3.53248e-07,0.114233,0.06679998578411972,-6.284972542403011e-13,-6.79094769417965e-07,0.06679998578411972,-3.5324793756785766e-07,-0.11853854085481275
668,0.0669,801.108,838.15,0.000764674,-0.00051188,0.00152867,-0.000888766,0.0647573,0.0647573,-0.126361,-6.28442e-13,-6.79373e-07,-3.53581e-07,0.114405,0.06690005631602092,-6.284972542403011e-13,-6.793727692633311e-07,0.06690005631602092,-3.535809375287968e-07,-0.11870335873672067
669,0.067,801.298,838.35,0.000764359,-0.000511043,0.00152926,-0.000888074,0.064851,0.064851,-0.126548,-6.28369e-13,-6.7965e-07,-3.53914e-07,0.114577,0.06700002953496975,-6.283862319378386e-13,-6.796497690197967e-07,0.06700002953496975,-3.539139373787137e-07,-0.11886814580056615
670,0.0671,801.488,838.549,0.000764044,-0.000510206,0.00152984,-0.000887382,0.0649447,0.0649447,-0.126734,-6.28295e-13,-6.79926e-07,-3.54247e-07,0.114748,0.06710001212184835,-6.282752096353761e-13,-6.79925768798384e-07,0.06710001212184835,-3.5424693722863054e-07,-0.11903202108457345
671,0.0672,801.678,838.748,0.000763729,-0.000509371,0.00153043,-0.000886691,0.0650384,0.0650384,-0.126921,-6.2822e-13,-6.80202e-07,-3.54579e-07,0.11492,0.06720000407753401,-6.282752096353761e-13,-6.802017686879935e-07,0.06720000407753401,-3.545789371006691e-07,-0.11919674669430613
672,0.0673,801.868,838.947,0.000763414,-0.000508537,0.00153102,-0.000886,0.0651321,0.0651321,-0.127108,-6.28145e-13,-6.80476e-07,-3.54911e-07,0.115092,0.06730000540290515,-6.281641873329136e-13,-6.804757685108243e-07,0.06730000540290515,-3.549109369727077e-07,-0.11936144150322969
673,0.0674,802.057,839.145,0.0007631,-0.000507704,0.0015316,-0.00088531,0.0652258,0.0652258,-0.127294,-6.28068e-13,-6.8075e-07,-3.55243e-07,0.115263,0.06740001609883928,-6.280531650304511e-13,-6.80749768333655e-07,0.06740001609883928,-3.552429369557686e-07,-0.11952522504276875
674,0.0675,802.247,839.344,0.000762786,-0.000506872,0.00153219,-0.00088462,0.0653195,0.0653195,-0.127481,-6.27991e-13,-6.81022e-07,-3.55574e-07,0.115435,0.06750003616621458,-6.279421427279885e-13,-6.810217680897068e-07,0.06750003616621458,-3.555739367389066e-07,-0.1196898584319841
675,0.0676,802.436,839.542,0.000762472,-0.000506041,0.00153277,-0.000883931,0.0654131,0.0654131,-0.127667,-6.27914e-13,-6.81294e-07,-3.55905e-07,0.115607,0.06759995884590819,-6.279421427279885e-13,-6.81293767956781e-07,0.06759995884590819,-3.559049366330669e-07,-0.11985358089165499
676,0.0677,802.624,839.739,0.000762158,-0.000505212,0.00153335,-0.000883242,0.0655068,0.0655068,-0.127854,-6.27836e-13,-6.81565e-07,-3.56235e-07,0.115778,0.06769999764879686,-6.27831120425526e-13,-6.815647677349546e-07,0.06769999764879686,-3.562349365493489e-07,-0.12001815288406736
677,0.0678,802.813,839.937,0.000761845,-0.000504383,0.00153393,-0.000882554,0.0656005,0.0656005,-0.128041,-6.27756e-13,-6.81835e-07,-3.56565e-07,0.11595,0.06780004582576038,-6.277200981230635e-13,-6.818347675352499e-07,0.06780004582576038,-3.565649364656309e-07,-0.12018269410439442
678,0.0679,803.001,840.134,0.000761531,-0.000503556,0.00153451,-0.000881866,0.0656941,0.0656941,-0.128227,-6.27677e-13,-6.82104e-07,-3.56895e-07,0.116122,0.06789999658767254,-6.277200981230635e-13,-6.821037673576669e-07,0.06789999658767254,-3.5689493627089064e-07,-0.12034632490515484
679,0.068,803.189,840.331,0.000761218,-0.00050273,0.00153509,-0.000881178,0.0657877,0.0657877,-0.128414,-6.27596e-13,-6.82373e-07,-3.57224e-07,0.116293,0.06799995670541348,-6.27609075820601e-13,-6.823727671800839e-07,0.06799995670541348,-3.572239362092944e-07,-0.12051080476305154
680,0.0681,803.377,840.528,0.000760905,-0.000501905,0.00153566,-0.000880491,0.0658814,0.0658814,-0.1286,-6.27515e-13,-6.8264e-07,-3.57553e-07,0.116465,0.06810003298985756,-6.274980535181385e-13,-6.826397670467443e-07,0.06810003298985756,-3.575529360366758e-07,-0.12067437454090468
681,0.0682,803.564,840.724,0.000760592,-0.000501081,0.00153624,-0.000879805,0.065975,0.065975,-0.128787,-6.27433e-13,-6.82907e-07,-3.57882e-07,0.116636,0.06820001183188218,-6.27387031215676e-13,-6.829067668023825e-07,0.06820001183188218,-3.5788193597507956e-07,-0.12083879305925493
682,0.0683,803.751,840.92,0.00076028,-0.000500259,0.00153681,-0.000879119,0.0660686,0.0660686,-0.128973,-6.27351e-13,-6.83172e-07,-3.5821e-07,0.116808,0.06830000003236458,-6.27387031215676e-13,-6.831717666022641e-07,0.06830000003236458,-3.582099358245827e-07,-0.12100230183695815
683,0.0684,803.938,841.116,0.000759967,-0.000499437,0.00153739,-0.000878433,0.0661622,0.0661622,-0.12916,-6.27268e-13,-6.83437e-07,-3.58538e-07,0.11698,0.0683999975921803,-6.272760089132134e-13,-6.834367664021457e-07,0.0683999975921803,-3.5853793567408587e-07,-0.12116665903863733
684,0.0685,804.125,841.312,0.000759655,-0.000498617,0.00153796,-0.000877748,0.0662558,0.0662558,-0.129346,-6.27184e-13,-6.83701e-07,-3.58865e-07,0.117151,0.06850000451220573,-6.271649866107509e-13,-6.83700766224149e-07,0.06850000451220573,-3.5886493565673305e-07,-0.12133010683893952
685,0.0686,804.311,841.507,0.000759343,-0.000497798,0.00153853,-0.000877063,0.0663494,0.0663494,-0.129533,-6.27099e-13,-6.83964e-07,-3.59193e-07,0.117323,0.06860002079331706,-6.270539643082884e-13,-6.83963766068274e-07,0.06860002079331706,-3.591929355062362e-07,-0.12149440274681456
686,0.0687,804.498,841.703,0.000759031,-0.000496979,0.0015391,-0.000876379,0.066443,0.066443,-0.129719,-6.27014e-13,-6.84226e-07,-3.59519e-07,0.117494,0.0687000464363905,-6.270539643082884e-13,-6.842257659345208e-07,0.0687000464363905,-3.595189353999828e-07,-0.12165778959245588
687,0.0688,804.684,841.898,0.00075872,-0.000496163,0.00153967,-0.000875695,0.0665365,0.0665365,-0.129905,-6.26928e-13,-6.84488e-07,-3.59846e-07,0.117666,0.06879997456229936,-6.269429420058259e-13,-6.844877656897452e-07,0.06879997456229936,-3.598459352716077e-07,-0.12182114605097005
688,0.0689,804.87,842.092,0.000758408,-0.000495347,0.00154024,-0.000875012,0.0666301,0.0666301,-0.130092,-6.26842e-13,-6.84748e-07,-3.60172e-07,0.117837,0.06890001892192132,-6.268319197033634e-13,-6.847477656002354e-07,0.06890001892192132,-3.601719351653543e-07,-0.12198535014309753
689,0.069,805.055,842.287,0.000758097,-0.000494532,0.0015408,-0.000874329,0.0667236,0.0667236,-0.130278,-6.26754e-13,-6.85008e-07,-3.60497e-07,0.118008,0.06899996574613176,-6.267208974009009e-13,-6.850077653997033e-07,0.06899996574613176,-3.604969349702003e-07,-0.12214864568101502
690,0.0691,805.24,842.481,0.000757786,-0.000493718,0.00154137,-0.000873646,0.0668172,0.0668172,-0.130464,-6.26666e-13,-6.85266e-07,-3.60823e-07,0.11818,0.06910002882580457,-6.267208974009009e-13,-6.852657652434146e-07,0.06910002882580457,-3.608229348639469e-07,-0.12231191084878712
691,0.0692,805.425,842.675,0.000757475,-0.000492906,0.00154193,-0.000872964,0.0669107,0.0669107,-0.130651,-6.26578e-13,-6.85524e-07,-3.61147e-07,0.118351,0.06919999435181534,-6.266098750984384e-13,-6.855237649761037e-07,0.06919999435181534,-3.6114693480193694e-07,-0.12247602317647743
692,0.0693,805.61,842.868,0.000757165,-0.000492094,0.0015425,-0.000872282,0.0670042,0.0670042,-0.130837,9.26202e-13,-6.85781e-07,-3.61472e-07,0.118523,0.06929996922503978,9.261480471423056e-13,-6.857807648419367e-07,0.06929996922503978,-3.6147193471780525e-07,-0.12263922745769795
693,0.0694,805.795,843.062,0.000756854,-0.000491284,0.00154306,-0.000871601,0.0670977,0.0670977,-0.131023,-6.26399e-13,-6.86037e-07,-3.61796e-07,0.118694,0.06939995344635186,-6.263878304935133e-13,-6.860367647298915e-07,0.06939995344635186,-3.61795934544773e-07,-0.12280240138574505
694,0.0695,805.979,843.255,0.000756544,-0.000490475,0.00154362,-0.000870921,0.0671913,0.0671913,-0.13121,-6.26308e-13,-6.86293e-07,-3.6212e-07,0.118866,0.06950005396662573,-6.262768081910508e-13,-6.86292764506824e-07,0.06950005396662573,-3.6211993448276303e-07,-0.12296642200028052
695,0.0696,806.163,843.448,0.000756234,-0.000489667,0.00154418,-0.00087024,0.0672847,0.0672847,-0.131396,-6.26217e-13,-6.86547e-07,-3.62443e-07,0.119037,0.06959994993673524,-6.261657858885883e-13,-6.865467643279999e-07,0.06959994993673524,-3.624429343318525e-07,-0.12312953507580227
696,0.0697,806.347,843.641,0.000755924,-0.00048886,0.00154474,-0.00086956,0.0673782,0.0673782,-0.131582,-6.26125e-13,-6.86801e-07,-3.62766e-07,0.119208,0.06969996220755514,-6.261657858885883e-13,-6.868007641491758e-07,0.06969996220755514,-3.6276593418094194e-07,-0.12329261781511325
697,0.0698,806.531,843.833,0.000755614,-0.000488054,0.0015453,-0.000868881,0.0674717,0.0674717,-0.131768,-6.26032e-13,-6.87053e-07,-3.63089e-07,0.11938,0.06979998382995967,-6.260547635861258e-13,-6.870527640145951e-07,0.06979998382995967,-3.630889340300314e-07,-0.12345567022385551
698,0.0699,806.714,844.025,0.000755305,-0.000487249,0.00154586,-0.000868202,0.0675652,0.0675652,-0.131955,-6.25939e-13,-6.87305e-07,-3.63411e-07,0.119551,0.06990001480482277,-6.259437412836633e-13,-6.873047637689922e-07,0.06990001480482277,-3.634109340122649e-07,-0.12361956868853952
699,0.07,806.897,844.217,0.000754996,-0.000486445,0.00154641,-0.000867523,0.0676586,0.0676586,-0.132141,-6.25845e-13,-6.87556e-07,-3.63733e-07,0.119722,0.06999994813301935,-6.258327189812007e-13,-6.875557636565333e-07,0.06999994813301935,-3.6373293388347605e-07,-0.12378256029007462
700,0.0701,807.08,844.409,0.000754687,-0.000485642,0.00154697,-0.000866845,0.0677521,0.0677521,-0.132327,-6.25751e-13,-6.87807e-07,-3.64055e-07,0.119894,0.07009999780541909,-6.257216966787382e-13,-6.87806763433052e-07,0.07009999780541909,-3.6405493375468723e-07,-0.1239455215779911
701,0.0702,807.263,844.601,0.000754378,-0.000484841,0.00154752,-0.000866168,0.0678455,0.0678455,-0.132513,-6.25656e-13,-6.88056e-07,-3.64376e-07,0.120065,0.07019994981290023,-6.256106743762757e-13,-6.880557632538142e-07,0.07019994981290023,-3.643759336480201e-07,-0.12410845255792669
702,0.0703,807.446,844.792,0.000754069,-0.00048404,0.00154807,-0.00086549,0.067939,0.067939,-0.132699,-6.2556e-13,-6.88304e-07,-3.64697e-07,0.120236,0.07030001818633136,-6.256106743762757e-13,-6.883037630966982e-07,0.07030001818633136,-3.64696933541353e-07,-0.1242713532355183
703,0.0704,807.628,844.983,0.000753761,-0.000483241,0.00154863,-0.000864813,0.0680324,0.0680324,-0.132886,-6.25463e-13,-6.88552e-07,-3.65018e-07,0.120407,0.07039998887658849,-6.254996520738132e-13,-6.885517629395821e-07,0.07039998887658849,-3.650179334346859e-07,-0.12443509918174012
704,0.0705,807.81,845.174,0.000753452,-0.000482442,0.00154918,-0.000864137,0.0681258,0.0681258,-0.133072,-6.25366e-13,-6.88799e-07,-3.65338e-07,0.120579,0.07049996890454424,-6.253886297713507e-13,-6.887987628045877e-07,0.07049996890454424,-3.6533793323911823e-07,-0.12459793910870964
705,0.0706,807.992,845.364,0.000753144,-0.000481645,0.00154973,-0.000863461,0.0682192,0.0682192,-0.133258,-6.25269e-13,-6.89045e-07,-3.65658e-07,0.12075,0.07059995827107057,-6.252776074688882e-13,-6.890447625806928e-07,0.07059995827107057,-3.6565793315457285e-07,-0.12476074875026932
706,0.0707,808.173,845.555,0.000752836,-0.000480849,0.00155027,-0.000862785,0.0683126,0.0683126,-0.133444,-6.2517e-13,-6.8929e-07,-3.65977e-07,0.120921,0.0706999569770399,-6.251665851664256e-13,-6.892897624899419e-07,0.0706999569770399,-3.659769329811269e-07,-0.12492352811205187
707,0.0708,808.355,845.745,0.000752529,-0.000480054,0.00155082,-0.00086211,0.068406,0.068406,-0.13363,-6.25071e-13,-6.89534e-07,-3.66296e-07,0.121092,0.07079996502332464,-6.250555628639631e-13,-6.895337623102904e-07,0.07079996502332464,-3.662959329187032e-07,-0.12508627719968868
708,0.0709,808.536,845.934,0.000752221,-0.000479259,0.00155137,-0.000861436,0.0684994,0.0684994,-0.133816,9.32374e-13,-6.89778e-07,-3.66615e-07,0.121263,0.0708999824107972,9.323652960802065e-13,-6.897777621306389e-07,0.0708999824107972,-3.6661493274525725e-07,-0.12524899601881023
709,0.071,808.717,846.124,0.000751914,-0.000478466,0.00155192,-0.000860761,0.0685928,0.0685928,-0.134002,9.32753e-13,-6.90021e-07,-3.66933e-07,0.121435,0.07100000914032978,9.328093852900565e-13,-6.900207619731091e-07,0.07100000914032978,-3.669329327049553e-07,-0.12541168457504603
710,0.0711,808.897,846.313,0.000751607,-0.000477674,0.00155246,-0.000860087,0.0686862,0.0686862,-0.134188,-6.24771e-13,-6.90262e-07,-3.67251e-07,0.121606,0.07110004521279545,-6.247224959565756e-13,-6.902617617488005e-07,0.07110004521279545,-3.6725093255363106e-07,-0.12557434287402425
711,0.0712,809.078,846.502,0.0007513,-0.000476883,0.001553,-0.000859414,0.0687795,0.0687795,-0.134374,-6.24669e-13,-6.90503e-07,-3.67569e-07,0.121777,0.07119998350906287,-6.247224959565756e-13,-6.905027616355142e-07,0.07119998350906287,-3.675689324023068e-07,-0.12573697092137248
712,0.0713,809.258,846.691,0.000750993,-0.000476093,0.00155355,-0.000858741,0.0688729,0.0688729,-0.13456,-6.24567e-13,-6.90744e-07,-3.67886e-07,0.121948,0.07130003826000664,-6.246114736541131e-13,-6.907437614112055e-07,0.07130003826000664,-3.678859323841266e-07,-0.1258995687227168
713,0.0714,809.438,846.88,0.000750687,-0.000475304,0.00155409,-0.000858068,0.0689662,0.0689662,-0.134746,-6.24464e-13,-6.90983e-07,-3.68203e-07,0.122119,0.07139999521649587,-6.245004513516506e-13,-6.909827612311403e-07,0.07139999521649587,-3.6820293225492406e-07,-0.12606213628368246
714,0.0715,809.618,847.068,0.00075038,-0.000474516,0.00155463,-0.000857396,0.0690595,0.0690595,-0.134932,-6.24361e-13,-6.91222e-07,-3.6852e-07,0.12229,0.07149996149940407,-6.24389429049188e-13,-6.912217610510751e-07,0.07149996149940407,-3.6851993212572154e-07,-0.12622467360989376
715,0.0716,809.797,847.256,0.000750074,-0.00047373,0.00155517,-0.000856724,0.0691529,0.0691529,-0.135118,-6.24257e-13,-6.91459e-07,-3.68836e-07,0.122461,0.07160004426960076,-6.242784067467255e-13,-6.914587609152534e-07,0.07160004426960076,-3.6883593201864073e-07,-0.12638718070697386
716,0.0717,809.977,847.444,0.000749768,-0.000472944,0.00155571,-0.000856053,0.0692462,0.0692462,-0.135304,-6.24152e-13,-6.91696e-07,-3.69152e-07,0.122632,0.07170002921795637,-6.24167384444263e-13,-6.916957607794316e-07,0.07170002921795637,-3.6915193191155993e-07,-0.1265496575805447
717,0.0718,810.156,847.632,0.000749463,-0.000472159,0.00155624,-0.000855382,0.0693395,0.0693395,-0.13549,-6.24047e-13,-6.91932e-07,-3.69467e-07,0.122803,0.07180002349534309,-6.240563621418005e-13,-6.919317606657316e-07,0.07180002349534309,-3.6946693171557854e-07,-0.12671210423622736
718,0.0719,810.335,847.82,0.000749157,-0.000471375,0.00155678,-0.000854711,0.0694328,0.0694328,-0.135676,-6.23941e-13,-6.92168e-07,-3.69782e-07,0.122974,0.07190002710263088,-6.23945339839338e-13,-6.921677604410092e-07,0.07190002710263088,-3.6978193163061945e-07,-0.1268745206796419
719,0.072,810.514,848.007,0.000748852,-0.000470593,0.00155732,-0.000854041,0.0695261,0.0695261,-0.135862,-6.23835e-13,-6.92402e-07,-3.70097e-07,0.123145,0.0720000400406906,-6.238343175368755e-13,-6.924017602605304e-07,0.0720000400406906,-3.7009693154566037e-07,-0.12703690691640734
720,0.0721,810.692,848.194,0.000748547,-0.000469811,0.00155785,-0.000853372,0.0696193,0.0696193,-0.136047,-6.23728e-13,-6.92636e-07,-3.70411e-07,0.123316,0.0720999551003918,-6.237232952344129e-13,-6.926357600800515e-07,0.0720999551003918,-3.704109313718007e-07,-0.127198390150968
721,0.0722,810.87,848.381,0.000748242,-0.00046903,0.00155839,-0.000852702,0.0697126,0.0697126,-0.136233,-6.2362e-13,-6.92869e-07,-3.70725e-07,0.123487,0.07219998669260397,-6.236122729319504e-13,-6.928687599216943e-07,0.07219998669260397,-3.7072493130896333e-07,-0.12736071615361377
722,0.0723,811.048,848.567,0.000747937,-0.00046825,0.00155892,-0.000852033,0.0698059,0.0698059,-0.136419,-6.23512e-13,-6.93101e-07,-3.71039e-07,0.123658,0.07230002761819887,-6.235012506294879e-13,-6.931007597854588e-07,0.07230002761819887,-3.7103893113510367e-07,-0.12752301196643068
723,0.0724,811.226,848.753,0.000747633,-0.000467472,0.00155945,-0.000851365,0.0698991,0.0698991,-0.136605,-6.23403e-13,-6.93332e-07,-3.71352e-07,0.123829,0.07239997063804537,-6.233902283270254e-13,-6.933317596713451e-07,0.07239997063804537,-3.71351931094388e-07,-0.12768527759503367
724,0.0725,811.404,848.94,0.000747328,-0.000466694,0.00155998,-0.000850697,0.0699924,0.0699924,-0.136791,-6.23294e-13,-6.93563e-07,-3.71665e-07,0.124,0.07250003022301299,-6.232792060245629e-13,-6.93562759446209e-07,0.07250003022301299,-3.716649309426501e-07,-0.1278475130450364
725,0.0726,811.581,849.125,0.000747024,-0.000465917,0.00156051,-0.000850029,0.0700856,0.0700856,-0.136976,-6.23184e-13,-6.93792e-07,-3.71978e-07,0.124171,0.07259999188397082,-6.231681837221004e-13,-6.937917593763387e-07,0.07259999188397082,-3.719779307909121e-07,-0.12800884633133391
726,0.0727,811.758,849.311,0.00074672,-0.000465142,0.00156104,-0.000849362,0.0701788,0.0701788,-0.137162,-6.23073e-13,-6.94021e-07,-3.7229e-07,0.124342,0.07269996286178948,-6.230571614196379e-13,-6.940207591954461e-07,0.07269996286178948,-3.722899306612959e-07,-0.12817102160314853
727,0.0728,811.935,849.496,0.000746417,-0.000464367,0.00156157,-0.000848695,0.0702721,0.0702721,-0.137348,-6.22962e-13,-6.94249e-07,-3.72602e-07,0.124513,0.0728000504373374,-6.229461391171753e-13,-6.942487590366753e-07,0.0728000504373374,-3.7260193053167967e-07,-0.12833316671316763
728,0.0729,812.112,849.682,0.000746113,-0.000463594,0.00156209,-0.000848028,0.0703653,0.0703653,-0.137534,-6.22851e-13,-6.94476e-07,-3.72914e-07,0.124684,0.0729000400614821,-6.228351168147128e-13,-6.944757589000261e-07,0.0729000400614821,-3.7291393051308575e-07,-0.12849528166700086
729,0.073,812.288,849.867,0.00074581,-0.000462821,0.00156262,-0.000847362,0.0704585,0.0704585,-0.137719,-6.22738e-13,-6.94703e-07,-3.73225e-07,0.124855,0.07300003900509422,-6.227240945122503e-13,-6.947027586523546e-07,0.07300003900509422,-3.7322493040559124e-07,-0.1286564951271877
730,0.0731,812.465,850.051,0.000745507,-0.000462049,0.00156314,-0.000846697,0.0705517,0.0705517,-0.137905,-6.22625e-13,-6.94928e-07,-3.73536e-07,0.125026,0.07310004726904218,-6.226130722097878e-13,-6.949277585599489e-07,0.07310004726904218,-3.7353593018707443e-07,-0.1288185499475285
731,0.0732,812.641,850.236,0.000745204,-0.000461279,0.00156367,-0.000846031,0.0706448,0.0706448,-0.138091,-6.22512e-13,-6.95153e-07,-3.73847e-07,0.125196,0.07319995753419373,-6.225020499073253e-13,-6.951527583565209e-07,0.07319995753419373,-3.738469300795799e-07,-0.12898057462847579
732,0.0733,812.817,850.42,0.000744901,-0.000460509,0.00156419,-0.000845367,0.070738,0.070738,-0.138276,-6.22398e-13,-6.95377e-07,-3.74157e-07,0.125367,0.07329998443141683,-6.223910276048628e-13,-6.953767581752146e-07,0.07329998443141683,-3.7415692999420713e-07,-0.12914169831776878
733,0.0734,812.992,850.604,0.000744599,-0.00045974,0.00156471,-0.000844702,0.0708312,0.0708312,-0.138462,-6.22283e-13,-6.95601e-07,-3.74467e-07,0.125538,0.07340002065158147,-6.222800053024002e-13,-6.956007581049306e-07,0.07340002065158147,-3.7446692990883435e-07,-0.12930366289870865
734,0.0735,813.168,850.788,0.000744296,-0.000458972,0.00156524,-0.000844038,0.0709243,0.0709243,-0.138648,-6.22168e-13,-6.95823e-07,-3.74776e-07,0.125709,0.07349995884555471,-6.221689829999377e-13,-6.958227579678677e-07,0.07349995884555471,-3.74775929734561e-07,-0.129465597357038
735,0.0736,813.343,850.972,0.000743994,-0.000458206,0.00156576,-0.000843374,0.0710175,0.0710175,-0.138833,9.42407e-13,-6.96045e-07,-3.75085e-07,0.12588,0.07360001370420322,9.423573033018329e-13,-6.960447577197826e-07,0.07360001370420322,-3.750849296713099e-07,-0.12962663132542562
736,0.0737,813.518,851.155,0.000743692,-0.00045744,0.00156627,-0.000842711,0.0711106,0.0711106,-0.139019,-6.21935e-13,-6.96266e-07,-3.75394e-07,0.12605,0.0736999705183965,-6.219469383950127e-13,-6.962657576048414e-07,0.0736999705183965,-3.7539392949703654e-07,-0.1297885057172139
737,0.0738,813.693,851.338,0.00074339,-0.000456675,0.00156679,-0.000842048,0.0712038,0.0712038,-0.139204,9.43164e-13,-6.96486e-07,-3.75702e-07,0.126221,0.07380004401900142,9.43245481721533e-13,-6.964857574009997e-07,0.07380004401900142,-3.757019294559072e-07,-0.12994947995308037
738,0.0739,813.867,851.521,0.000743089,-0.000455911,0.00156731,-0.000841386,0.0712969,0.0712969,-0.13939,-6.21701e-13,-6.96705e-07,-3.7601e-07,0.126392,0.07390001945688418,-6.217248937900877e-13,-6.96704757330302e-07,0.07390001945688418,-3.7600992930375554e-07,-0.1301112943006082
739,0.074,814.042,851.704,0.000742788,-0.000455148,0.00156783,-0.000840723,0.07139,0.07139,-0.139576,9.43835e-13,-6.96924e-07,-3.76318e-07,0.126563,0.0740000042029132,9.43911615536308e-13,-6.96923757148582e-07,0.0740000042029132,-3.763179291516039e-07,-0.13027307855346637
740,0.0741,814.216,851.887,0.000742486,-0.000454387,0.00156834,-0.000840062,0.0714831,0.0714831,-0.139761,-6.21464e-13,-6.97142e-07,-3.76626e-07,0.126733,0.07409999825795555,-6.215028491851626e-13,-6.971417569889837e-07,0.07409999825795555,-3.7662592911047454e-07,-0.1304339631516498
741,0.0742,814.39,852.069,0.000742186,-0.000453626,0.00156886,-0.0008394,0.0715762,0.0715762,-0.139947,-6.21345e-13,-6.97359e-07,-3.76933e-07,0.126904,0.07420000162287788,-6.213918268827001e-13,-6.973587568515072e-07,0.07420000162287788,-3.769329289804446e-07,-0.13059568739368277
742,0.0743,814.564,852.251,0.000741885,-0.000452866,0.00156937,-0.000838739,0.0716693,0.0716693,-0.140132,-6.21225e-13,-6.97575e-07,-3.77239e-07,0.127075,0.07430001429854682,-6.211697822777751e-13,-6.975747567361523e-07,0.07430001429854682,-3.772389288725364e-07,-0.13075651231475116
743,0.0744,814.737,852.433,0.000741584,-0.000452107,0.00156988,-0.000838079,0.0717624,0.0717624,-0.140318,-6.21105e-13,-6.9779e-07,-3.77546e-07,0.127245,0.07440003628582925,-6.210587599753126e-13,-6.977897565318969e-07,0.07440003628582925,-3.775459287425065e-07,-0.1309181765682189
744,0.0745,814.911,852.615,0.000741284,-0.000451349,0.00157039,-0.000837419,0.0718554,0.0718554,-0.140503,-6.20984e-13,-6.98005e-07,-3.77852e-07,0.127416,0.07449996013559068,-6.209477376728501e-13,-6.980047564386638e-07,0.07449996013559068,-3.7785192863459827e-07,-0.13107894183430813
745,0.0746,815.084,852.796,0.000740984,-0.000450592,0.0015709,-0.000836759,0.0719485,0.0719485,-0.140688,-6.20862e-13,-6.98219e-07,-3.78157e-07,0.127587,0.0746000007386971,-6.208367153703875e-13,-6.982187562565301e-07,0.0746000007386971,-3.781569285488118e-07,-0.13123967736157416
746,0.0747,815.257,852.977,0.000740684,-0.000449835,0.00157141,-0.000836099,0.0720416,0.0720416,-0.140874,-6.2074e-13,-6.98432e-07,-3.78463e-07,0.127757,0.07470005065601737,-6.20725693067925e-13,-6.984317560965181e-07,0.07470005065601737,-3.7846292832988127e-07,-0.13140125175470052
747,0.0748,815.43,853.158,0.000740384,-0.00044908,0.00157192,-0.00083544,0.0721346,0.0721346,-0.141059,-6.20618e-13,-6.98644e-07,-3.78768e-07,0.127928,0.07480000240841278,-6.206146707654625e-13,-6.986437559586278e-07,0.07480000240841278,-3.787679282440948e-07,-0.1315619276601463
748,0.0749,815.602,853.339,0.000740085,-0.000448326,0.00157243,-0.000834782,0.0722276,0.0722276,-0.141245,-6.20495e-13,-6.98856e-07,-3.79072e-07,0.128099,0.07489996345675354,-6.20503648463e-13,-6.988557558207376e-07,0.07489996345675354,-3.7907192818043e-07,-0.1317234421202912
749,0.075,815.774,853.52,0.000739785,-0.000447573,0.00157294,-0.000834123,0.0723207,0.0723207,-0.14143,-6.20371e-13,-6.99067e-07,-3.79376e-07,0.128269,0.07500004130190274,-6.203926261605375e-13,-6.99066755704969e-07,0.07500004130190274,-3.7937592800574294e-07,-0.13188405842603246
750,0.0751,815.947,853.7,0.000739486,-0.00044682,0.00157344,-0.000833466,0.0724137,0.0724137,-0.141615,-6.20247e-13,-6.99277e-07,-3.7968e-07,0.12844,0.07510002095472568,-6.20281603858075e-13,-6.992767555002999e-07,0.07510002095472568,-3.7967992794207817e-07,-0.13204464502050572
751,0.0752,816.118,853.88,0.000739187,-0.000446069,0.00157395,-0.000832808,0.0725067,0.0725067,-0.141801,-6.20122e-13,-6.99486e-07,-3.79984e-07,0.12861,0.07520000990608855,-6.201705815556124e-13,-6.994857553177525e-07,0.07520000990608855,-3.799839277673911e-07,-0.13220606970357096
752,0.0753,816.29,854.06,0.000738888,-0.000445318,0.00157445,-0.000832151,0.0725997,0.0725997,-0.141986,-6.19997e-13,-6.99695e-07,-3.80287e-07,0.128781,0.07530000815685645,-6.199485369506874e-13,-6.996947552462274e-07,0.07530000815685645,-3.8028692772584805e-07,-0.1323665967314679
753,0.0754,816.462,854.24,0.00073859,-0.000444569,0.00157496,-0.000831494,0.0726927,0.0726927,-0.142171,-6.19871e-13,-6.99903e-07,-3.8059e-07,0.128951,0.07540001570789401,-6.198375146482249e-13,-6.999027550858017e-07,0.07540001570789401,-3.805899275732827e-07,-0.1325270940646115
754,0.0755,816.633,854.419,0.000738291,-0.00044382,0.00157546,-0.000830838,0.0727857,0.0727857,-0.142357,-6.19744e-13,-7.0011e-07,-3.80893e-07,0.129122,0.07550003256006632,-6.197264923457624e-13,-7.001097549474977e-07,0.07550003256006632,-3.8089292742071734e-07,-0.1326884290204995
755,0.0756,816.804,854.599,0.000737993,-0.000443073,0.00157596,-0.000830182,0.0728786,0.0728786,-0.142542,-6.19617e-13,-7.00316e-07,-3.81195e-07,0.129292,0.07559995115423801,-6.196154700432999e-13,-7.003157548313155e-07,0.07559995115423801,-3.811949272902737e-07,-0.1328488668201766
756,0.0757,816.975,854.778,0.000737695,-0.000442326,0.00157646,-0.000829526,0.0729716,0.0729716,-0.142727,-6.1949e-13,-7.00521e-07,-3.81497e-07,0.129463,0.07569998660127153,-6.195044477408373e-13,-7.005207546262326e-07,0.07569998660127153,-3.814969272708524e-07,-0.1330092749416062
757,0.0758,817.146,854.956,0.000737398,-0.00044158,0.00157696,-0.000828871,0.0730646,0.0730646,-0.142912,-6.19362e-13,-7.00726e-07,-3.81798e-07,0.129633,0.07580003135203439,-6.193934254383748e-13,-7.007257545321721e-07,0.07580003135203439,-3.8179792716253047e-07,-0.1331696533902781
758,0.0759,817.316,855.135,0.0007371,-0.000440835,0.00157746,-0.000828216,0.0731575,0.0731575,-0.143098,-6.19233e-13,-7.0093e-07,-3.82099e-07,0.129804,0.07589997781738833,-6.192824031359123e-13,-7.00929754349211e-07,0.07589997781738833,-3.8209892705420856e-07,-0.13333086884124568
759,0.076,817.487,855.314,0.000736803,-0.000440091,0.00157796,-0.000827562,0.0732505,0.0732505,-0.143283,-6.19104e-13,-7.01133e-07,-3.824e-07,0.129974,0.07600004116819914,-6.190603585309873e-13,-7.011327541883716e-07,0.07600004116819914,-3.8239992683486435e-07,-0.13349118780054914
760,0.0761,817.657,855.492,0.000736506,-0.000439348,0.00157846,-0.000826907,0.0733434,0.0733434,-0.143468,-6.18975e-13,-7.01336e-07,-3.82701e-07,0.130144,0.07610000621532809,-6.189493362285248e-13,-7.013357540275322e-07,0.07610000621532809,-3.8270092672654243e-07,-0.13365147710358838
761,0.0762,817.827,855.67,0.000736209,-0.000438606,0.00157895,-0.000826254,0.0734363,0.0734363,-0.143653,-6.18845e-13,-7.01538e-07,-3.83001e-07,0.130315,0.07619998054964139,-6.188383139260623e-13,-7.015377538888146e-07,0.07619998054964139,-3.8300092664034224e-07,-0.13381173675584923
762,0.0763,817.996,855.848,0.000735912,-0.000437865,0.00157945,-0.0008256,0.0735292,0.0735292,-0.143838,-6.18714e-13,-7.01738e-07,-3.83301e-07,0.130485,0.07629996417200191,-6.187272916235997e-13,-7.017377537943403e-07,0.07629996417200191,-3.8330092655414205e-07,-0.13397196676281675
763,0.0764,818.166,856.025,0.000735615,-0.000437124,0.00157994,-0.000824947,0.0736221,0.0736221,-0.144024,-6.18583e-13,-7.01939e-07,-3.836e-07,0.130656,0.0763999570832723,-6.186162693211372e-13,-7.019387536777444e-07,0.0763999570832723,-3.835999263790413e-07,-0.13413303299737478
764,0.0765,818.335,856.203,0.000735319,-0.000436385,0.00158044,-0.000824295,0.073715,0.073715,-0.144209,-6.18451e-13,-7.02138e-07,-3.83899e-07,0.130826,0.07649995928431563,-6.185052470186747e-13,-7.021377534943696e-07,0.07649995928431563,-3.838989263149628e-07,-0.13429320357003538
765,0.0766,818.504,856.38,0.000735023,-0.000435646,0.00158093,-0.000823642,0.0738079,0.0738079,-0.144394,-6.18319e-13,-7.02337e-07,-3.84198e-07,0.130996,0.07659997077599501,-6.182832024137497e-13,-7.023367533109948e-07,0.07659997077599501,-3.8419792625088434e-07,-0.1344533445138809
766,0.0767,818.673,856.557,0.000734727,-0.000434909,0.00158142,-0.00082299,0.0739008,0.0739008,-0.144579,-6.18186e-13,-7.02535e-07,-3.84497e-07,0.131167,0.07669999155917351,-6.181721801112872e-13,-7.02534753260764e-07,0.07669999155917351,-3.8449692607578356e-07,-0.1346134558343921
767,0.0768,818.842,856.734,0.000734431,-0.000434172,0.00158191,-0.000822339,0.0739937,0.0739937,-0.144764,-6.18053e-13,-7.02732e-07,-3.84795e-07,0.131337,0.07680002163471444,-6.180611578088246e-13,-7.027317531216326e-07,0.07680002163471444,-3.847949259228045e-07,-0.13477353753704868
768,0.0769,819.011,856.911,0.000734135,-0.000433436,0.0015824,-0.000821688,0.0740865,0.0740865,-0.144949,-6.17919e-13,-7.02929e-07,-3.85093e-07,0.131507,0.07689995331348043,-6.179501355063621e-13,-7.029287529825012e-07,0.07689995331348043,-3.8509292588084776e-07,-0.1349335896273295
769,0.077,819.179,857.087,0.00073384,-0.000432701,0.00158289,-0.000821037,0.0741794,0.0741794,-0.145134,-6.17785e-13,-7.03125e-07,-3.8539e-07,0.131678,0.07700000196633106,-6.178391132038996e-13,-7.031247527544693e-07,0.07700000196633106,-3.853899257499904e-07,-0.13509361211071225
770,0.0771,819.347,857.263,0.000733545,-0.000431967,0.00158338,-0.000820386,0.0742722,0.0742722,-0.145319,9.5445e-13,-7.0332e-07,-3.85687e-07,0.131848,0.0770999522041329,9.543477119677846e-13,-7.033197526595814e-07,0.0770999522041329,-3.856869256191331e-07,-0.13525360499267391
771,0.0772,819.515,857.439,0.00073325,-0.000431234,0.00158387,-0.000819736,0.0743651,0.0743651,-0.145504,-6.17515e-13,-7.03514e-07,-3.85984e-07,0.132018,0.0772000194377438,-6.175060462965121e-13,-7.035137525868151e-07,0.0772000194377438,-3.8598392548827576e-07,-0.1354135682786901
772,0.0773,819.683,857.615,0.000732955,-0.000430501,0.00158435,-0.000819087,0.0744579,0.0744579,-0.145689,-6.17379e-13,-7.03708e-07,-3.8628e-07,0.132188,0.07729998823802808,-6.173950239940496e-13,-7.037077524030266e-07,0.07729998823802808,-3.8627992537954015e-07,-0.13557350197423557
773,0.0774,819.85,857.791,0.00073266,-0.00042977,0.00158484,-0.000818437,0.0745507,0.0745507,-0.145874,-6.17243e-13,-7.039e-07,-3.86576e-07,0.132359,0.07739996631584756,-6.17284001691587e-13,-7.038997522634816e-07,0.07739996631584756,-3.8657592527080453e-07,-0.13573340608478401
774,0.0775,820.018,857.966,0.000732366,-0.00042904,0.00158532,-0.000817788,0.0746435,0.0746435,-0.146059,9.55845e-13,-7.04093e-07,-3.86872e-07,0.132529,0.0774999536720633,9.559020242022598e-13,-7.040927521018148e-07,0.0774999536720633,-3.868719251620689e-07,-0.1358932806158082
775,0.0776,820.185,858.141,0.000732072,-0.00042831,0.00158581,-0.00081714,0.0747363,0.0747363,-0.146244,-6.16969e-13,-7.04284e-07,-3.87168e-07,0.132699,0.07759995030753619,-6.169509347841995e-13,-7.042837519843914e-07,0.07759995030753619,-3.871679250533333e-07,-0.13605312557277993
776,0.0777,820.352,858.316,0.000731778,-0.000427581,0.00158629,-0.000816491,0.0748291,0.0748291,-0.146429,-6.16831e-13,-7.04475e-07,-3.87463e-07,0.132869,0.07769995622312753,-6.16839912481737e-13,-7.044747518669681e-07,0.07769995622312753,-3.874629249667194e-07,-0.13621294096116976
777,0.0778,820.519,858.491,0.000731484,-0.000426853,0.00158677,-0.000815843,0.0749219,0.0749219,-0.146614,-6.16692e-13,-7.04665e-07,-3.87757e-07,0.133039,0.07779997141969841,-6.167288901792745e-13,-7.046647517716664e-07,0.07779997141969841,-3.8775692479120494e-07,-0.1363727267864473
778,0.0779,820.685,858.666,0.000731191,-0.000426126,0.00158725,-0.000815196,0.0750147,0.0750147,-0.146799,-6.16554e-13,-7.04854e-07,-3.88052e-07,0.133209,0.07789999589811014,-6.165068455743494e-13,-7.048537515874642e-07,0.07789999589811014,-3.8805192470459104e-07,-0.1365324830540815
779,0.078,820.852,858.84,0.000730897,-0.0004254,0.00158773,-0.000814548,0.0751075,0.0751075,-0.146984,-6.16414e-13,-7.05042e-07,-3.88346e-07,0.13338,0.07800002965922426,-6.163958232718869e-13,-7.050417514253837e-07,0.07800002965922426,-3.8834592464009887e-07,-0.13669220976953966
780,0.0781,821.018,859.014,0.000730604,-0.000424675,0.00158821,-0.000813902,0.0752002,0.0752002,-0.147169,-6.16275e-13,-7.0523e-07,-3.8864e-07,0.13355,0.07809996489390003,-6.162848009694244e-13,-7.052297513743255e-07,0.07809996489390003,-3.886399244645844e-07,-0.13685190693828875
781,0.0782,821.184,859.188,0.000730311,-0.000423951,0.00158869,-0.000813255,0.075293,0.075293,-0.147353,-6.16134e-13,-7.05417e-07,-3.88933e-07,0.13372,0.07820001721299819,-6.161737786669619e-13,-7.054167512343668e-07,0.07820001721299819,-3.8893292431119164e-07,-0.13701071157693734
782,0.0783,821.35,859.362,0.000730018,-0.000423227,0.00158917,-0.000812609,0.0753857,0.0753857,-0.147538,-6.15993e-13,-7.05603e-07,-3.89226e-07,0.13389,0.07829997098737951,-6.159517340620368e-13,-7.056027511165297e-07,0.07829997098737951,-3.892259242688212e-07,-0.137170349828302
783,0.0784,821.516,859.536,0.000729725,-0.000422504,0.00158965,-0.000811963,0.0754785,0.0754785,-0.147723,-6.15852e-13,-7.05789e-07,-3.89519e-07,0.13406,0.07840004186790428,-6.158407117595743e-13,-7.057887508876703e-07,0.07840004186790428,-3.8951892411542843e-07,-0.13732995854932184
784,0.0785,821.681,859.709,0.000729433,-0.000421783,0.00159012,-0.000811318,0.0755712,0.0755712,-0.147908,-6.1571e-13,-7.05974e-07,-3.89812e-07,0.13423,0.07850001418543084,-6.157296894571118e-13,-7.05973750791955e-07,0.07850001418543084,-3.89811924073058e-07,-0.13748953774545947
785,0.0786,821.847,859.882,0.000729141,-0.000421062,0.0015906,-0.000810672,0.0756639,0.0756639,-0.148093,9.59508e-13,-7.06158e-07,-3.90104e-07,0.1344,0.07859999577082055,9.594547378810603e-13,-7.061577507183614e-07,0.07859999577082055,-3.9010392394178695e-07,-0.1376490874221764
786,0.0787,822.012,860.055,0.000728849,-0.000420341,0.00159107,-0.000810028,0.0757566,0.0757566,-0.148277,-6.15425e-13,-7.06342e-07,-3.90395e-07,0.13457,0.07869998662493316,-6.153966225497243e-13,-7.063417505337455e-07,0.07869998662493316,-3.9039492383263763e-07,-0.1378077453931098
787,0.0788,822.177,860.228,0.000728557,-0.000419622,0.00159155,-0.000809383,0.0758493,0.0758493,-0.148462,-6.15282e-13,-7.06524e-07,-3.90687e-07,0.13474,0.07879998674862732,-6.152856002472618e-13,-7.06523750393373e-07,0.07879998674862732,-3.906869237013666e-07,-0.1379672362068569
788,0.0789,822.341,860.401,0.000728265,-0.000418904,0.00159202,-0.000808739,0.075942,0.075942,-0.148647,-6.15138e-13,-7.06706e-07,-3.90978e-07,0.13491,0.07889999614276277,-6.151745779447992e-13,-7.067057502530005e-07,0.07889999614276277,-3.909779235922173e-07,-0.1381266975175326
789,0.079,822.506,860.573,0.000727974,-0.000418186,0.00159249,-0.000808096,0.0760347,0.0760347,-0.148832,-6.14994e-13,-7.06888e-07,-3.91269e-07,0.13508,0.07900001480819863,-6.149525333398742e-13,-7.068877501126281e-07,0.07900001480819863,-3.9126892348306797e-07,-0.13828612933059448
790,0.0791,822.67,860.745,0.000727683,-0.00041747,0.00159297,-0.000807452,0.0761274,0.0761274,-0.149016,-6.1485e-13,-7.07068e-07,-3.91559e-07,0.13525,0.07910004274579463,-6.148415110374117e-13,-7.07067750016499e-07,0.07910004274579463,-3.9155892339604037e-07,-0.1384446700965999
791,0.0792,822.835,860.917,0.000727392,-0.000416754,0.00159344,-0.000806809,0.07622,0.07622,-0.149201,-6.14704e-13,-7.07248e-07,-3.91849e-07,0.13542,0.0791999720364076,-6.147304887349492e-13,-7.0724774992037e-07,0.0791999720364076,-3.9184892319799047e-07,-0.1386040430901755
792,0.0793,822.999,861.089,0.000727101,-0.000416039,0.00159391,-0.000806166,0.0763127,0.0763127,-0.149386,-6.14559e-13,-7.07427e-07,-3.92139e-07,0.13559,0.07930001851089785,-6.145084441300241e-13,-7.074267497353404e-07,0.07930001851089785,-3.921389231109629e-07,-0.13876338660247445
793,0.0794,823.162,861.261,0.00072681,-0.000415325,0.00159437,-0.000805524,0.0764053,0.0764053,-0.14957,-6.14413e-13,-7.07606e-07,-3.92428e-07,0.13576,0.07939996632012414,-6.143974218275616e-13,-7.07605749661333e-07,0.07939996632012414,-3.92427923046057e-07,-0.1389218395612204
794,0.0795,823.326,861.432,0.00072652,-0.000414611,0.00159484,-0.000804882,0.076498,0.076498,-0.149755,9.6241e-13,-7.07784e-07,-3.92718e-07,0.13593,0.07950003133494388,9.623413177450857e-13,-7.077837494984252e-07,0.07950003133494388,-3.927179228480071e-07,-0.13908112428661012
795,0.0796,823.49,861.604,0.000726229,-0.000413899,0.00159531,-0.00080424,0.0765906,0.0765906,-0.14994,9.62646e-13,-7.07961e-07,-3.93006e-07,0.1361,0.07959999766621517,9.625633623500107e-13,-7.07960749357639e-07,0.07959999766621517,-3.9300592280522295e-07,-0.13924037954705137
796,0.0797,823.653,861.775,0.000725939,-0.000413187,0.00159578,-0.000803599,0.0766832,0.0766832,-0.150124,-6.13972e-13,-7.08137e-07,-3.93295e-07,0.13627,0.07969997325479738,-6.139533326177116e-13,-7.081367492389745e-07,0.07969997325479738,-3.932949226292948e-07,-0.1393987447471695
797,0.0798,823.816,861.945,0.00072565,-0.000412476,0.00159624,-0.000802958,0.0767758,0.0767758,-0.150309,-6.13824e-13,-7.08313e-07,-3.93583e-07,0.13644,0.07979995810154761,-6.138423103152491e-13,-7.083127491203101e-07,0.07979995810154761,-3.935829225865106e-07,-0.13955794125326038
798,0.0799,823.979,862.116,0.00072536,-0.000411766,0.00159671,-0.000802318,0.0768684,0.0768684,-0.150493,-6.13675e-13,-7.08488e-07,-3.93871e-07,0.136609,0.0798999522073236,-6.13620265710324e-13,-7.084877490237673e-07,0.0798999522073236,-3.9387092243270416e-07,-0.1397162480273999
799,0.08,824.142,862.287,0.00072507,-0.000411057,0.00159717,-0.000801677,0.076961,0.076961,-0.150678,-6.13526e-13,-7.08662e-07,-3.94158e-07,0.136779,0.07999995557298223,-6.135092434078615e-13,-7.086617489493463e-07,0.07999995557298223,-3.941579223010194e-07,-0.13987538580081693
800,0.0801,824.304,862.457,0.000724781,-0.000410349,0.00159763,-0.000801037,0.0770536,0.0770536,-0.150862,-6.13377e-13,-7.08836e-07,-3.94446e-07,0.136949,0.08009996819938148,-6.13398221105399e-13,-7.08835748763903e-07,0.08009996819938148,-3.9444592225823527e-07,-0.14003363417053316
801,0.0802,824.466,862.627,0.000724492,-0.000409642,0.0015981,-0.000800398,0.0771462,0.0771462,-0.151047,-6.13227e-13,-7.09008e-07,-3.94732e-07,0.137119,0.08019999008737866,-6.13176176500474e-13,-7.090077486227031e-07,0.08019999008737866,-3.9473192214867225e-07,-0.14019271323294458
802,0.0803,824.629,862.797,0.000724203,-0.000408935,0.00159856,-0.000799758,0.0772388,0.0772388,-0.151231,-6.13077e-13,-7.09181e-07,-3.95019e-07,0.137289,0.08030002123783153,-6.130651541980114e-13,-7.091807485704038e-07,0.08030002123783153,-3.950189220169875e-07,-0.1403509032197846
803,0.0804,824.791,862.967,0.000723914,-0.000408229,0.00159902,-0.00079912,0.0773313,0.0773313,-0.151416,-6.12926e-13,-7.09352e-07,-3.95305e-07,0.137458,0.08039995361159713,-6.129541318955489e-13,-7.093517484513256e-07,0.08039995361159713,-3.953049219074245e-07,-0.14050992359285086
804,0.0805,824.953,863.136,0.000723626,-0.000407524,0.00159948,-0.000798481,0.0774239,0.0774239,-0.1516,-6.12775e-13,-7.09523e-07,-3.95591e-07,0.137628,0.08050000327952977,-6.127320872906239e-13,-7.095227483322475e-07,0.08050000327952977,-3.955909217978615e-07,-0.14066805521835413
805,0.0806,825.114,863.306,0.000723338,-0.00040682,0.00159994,-0.000797843,0.0775164,0.0775164,-0.151785,9.65722e-13,-7.09693e-07,-3.95876e-07,0.137798,0.08059995415248977,9.656719868189612e-13,-7.096927481242687e-07,0.08059995415248977,-3.958759215993979e-07,-0.14082701692372768
806,0.0807,825.276,863.475,0.00072305,-0.000406116,0.0016004,-0.000797205,0.077609,0.077609,-0.151969,-6.12471e-13,-7.09862e-07,-3.96162e-07,0.137968,0.08070002234132989,-6.125100426856989e-13,-7.09861748049434e-07,0.08070002234132989,-3.9616192148983487e-07,-0.1409850902094254
807,0.0808,825.437,863.644,0.000722762,-0.000405414,0.00160085,-0.000796567,0.0777015,0.0777015,-0.152154,-6.12319e-13,-7.10031e-07,-3.96446e-07,0.138137,0.08079999171690866,-6.122879980807738e-13,-7.100307479745993e-07,0.08079999171690866,-3.964459214245153e-07,-0.1411439932687505
808,0.0809,825.598,863.813,0.000722474,-0.000404712,0.00160131,-0.00079593,0.077794,0.077794,-0.152338,-6.12166e-13,-7.10199e-07,-3.96731e-07,0.138307,0.08089997034008256,-6.121769757783113e-13,-7.10198747810864e-07,0.08089997034008256,-3.96730921337074e-07,-0.14130200823616623
809,0.081,825.759,863.981,0.000722186,-0.000404011,0.00160177,-0.000795293,0.0778865,0.0778865,-0.152523,9.67112e-13,-7.10366e-07,-3.97015e-07,0.138477,0.08099995821170691,9.670042544485113e-13,-7.103657476692504e-07,0.08099995821170691,-3.970149211607321e-07,-0.14146085267107922
810,0.0811,825.92,864.15,0.000721899,-0.000403311,0.00160222,-0.000794656,0.077979,0.077979,-0.152707,-6.11858e-13,-7.10533e-07,-3.97299e-07,0.138647,0.08109995533263703,-6.118439088709238e-13,-7.105327475276368e-07,0.08109995533263703,-3.9729892109541254e-07,-0.14161880934172844
811,0.0812,826.08,864.318,0.000721612,-0.000402612,0.00160268,-0.00079402,0.0780715,0.0780715,-0.152891,9.67726e-13,-7.10699e-07,-3.97583e-07,0.138816,0.08119996170372867,9.676703882632864e-13,-7.10698747408145e-07,0.08119996170372867,-3.9758292091907066e-07,-0.14177673695102389
812,0.0813,826.241,864.486,0.000721325,-0.000401913,0.00160313,-0.000793384,0.078164,0.078164,-0.153076,-6.11549e-13,-7.10864e-07,-3.97866e-07,0.138986,0.08129997732583738,-6.115108419635362e-13,-7.108637473107748e-07,0.08129997732583738,-3.978659208758728e-07,-0.14193549356924795
813,0.0814,826.401,864.654,0.000721038,-0.000401215,0.00160358,-0.000792749,0.0782565,0.0782565,-0.15326,-6.11394e-13,-7.11029e-07,-3.98149e-07,0.139156,0.08140000219981913,-6.113998196610737e-13,-7.110287472134047e-07,0.08140000219981913,-3.9814892072165264e-07,-0.1420933629140062
814,0.0815,826.561,864.822,0.000720752,-0.000400518,0.00160403,-0.000792113,0.078349,0.078349,-0.153444,9.68629e-13,-7.11193e-07,-3.98432e-07,0.139325,0.08150003632652969,9.685585666829866e-13,-7.111927471381563e-07,0.08150003632652969,-3.984319206784548e-07,-0.14225120321347706
815,0.0816,826.721,864.989,0.000720465,-0.000399822,0.00160449,-0.000791478,0.0784414,0.0784414,-0.153629,-6.11082e-13,-7.11356e-07,-3.98714e-07,0.139495,0.0815999715468223,-6.110667527536862e-13,-7.113557469740073e-07,0.0815999715468223,-3.9871392054635635e-07,-0.14240987206356148
816,0.0817,826.881,865.157,0.000720179,-0.000399127,0.00160494,-0.000790844,0.0785339,0.0785339,-0.153813,-6.10925e-13,-7.11519e-07,-3.98996e-07,0.139664,0.08170002417155287,-6.109557304512236e-13,-7.115187469208806e-07,0.08170002417155287,-3.989959204142579e-07,-0.14256765413070638
817,0.0818,827.04,865.324,0.000719893,-0.000398432,0.00160539,-0.000790209,0.0786263,0.0786263,-0.153997,-6.10768e-13,-7.11681e-07,-3.99278e-07,0.139834,0.08179997787157611,-6.107336858462986e-13,-7.116807467788533e-07,0.08179997787157611,-3.9927792028215947e-07,-0.1427254071686218
818,0.0819,827.2,865.491,0.000719607,-0.000397738,0.00160584,-0.000789575,0.0787188,0.0787188,-0.154181,-6.10611e-13,-7.11842e-07,-3.99559e-07,0.140003,0.0819000489977475,-6.106226635438361e-13,-7.118417466589477e-07,0.0819000489977475,-3.9955892017218275e-07,-0.1428831311826485
819,0.082,827.359,865.658,0.000719322,-0.000397046,0.00160628,-0.000788942,0.0788112,0.0788112,-0.154366,-6.10453e-13,-7.12002e-07,-3.9984e-07,0.140173,0.08200002118091865,-6.104006189389111e-13,-7.120017465611639e-07,0.08200002118091865,-3.9983992006220603e-07,-0.1430416831368717
820,0.0821,827.518,865.824,0.000719036,-0.000396353,0.00160673,-0.000788308,0.0789036,0.0789036,-0.15455,-6.10295e-13,-7.12162e-07,-4.00121e-07,0.140343,0.08210000260194628,-6.102895966364486e-13,-7.1216174646338e-07,0.08210000260194628,-4.001209199522293e-07,-0.1431993489614738
821,0.0822,827.677,865.991,0.000718751,-0.000395662,0.00160718,-0.000787675,0.078996,0.078996,-0.154734,-6.10136e-13,-7.12321e-07,-4.00401e-07,0.140512,0.08219999326168415,-6.10178574333986e-13,-7.123207462766956e-07,0.08219999326168415,-4.004009198643743e-07,-0.14335698577823308
822,0.0823,827.835,866.157,0.000718466,-0.000394971,0.00160762,-0.000787043,0.0790884,0.0790884,-0.154918,-6.09977e-13,-7.1248e-07,-4.00681e-07,0.140682,0.08229999316098557,-6.09956529729061e-13,-7.124797462010335e-07,0.08229999316098557,-4.006809197765193e-07,-0.1435145935924863
823,0.0824,827.994,866.323,0.000718181,-0.000394281,0.00160807,-0.00078641,0.0791808,0.0791808,-0.155102,-6.09817e-13,-7.12638e-07,-4.00961e-07,0.140851,0.08240000230070477,-6.098455074265985e-13,-7.126377460364708e-07,0.08240000230070477,-4.00960919577642e-07,-0.14367217240956953
824,0.0825,828.152,866.489,0.000717897,-0.000393592,0.00160851,-0.000785778,0.0792732,0.0792732,-0.155286,-6.09657e-13,-7.12795e-07,-4.0124e-07,0.141021,0.08250002068169549,-6.096234628216735e-13,-7.127947460050521e-07,0.08250002068169549,-4.0123991951190874e-07,-0.14382972223481771
825,0.0826,828.31,866.655,0.000717612,-0.000392904,0.00160896,-0.000785147,0.0793656,0.0793656,-0.155471,-6.09497e-13,-7.12952e-07,-4.01519e-07,0.14119,0.08260004830481149,-6.095124405192109e-13,-7.129517458626111e-07,0.08260004830481149,-4.0151891944617546e-07,-0.14398809908589383
826,0.0827,828.468,866.82,0.000717328,-0.000392217,0.0016094,-0.000784515,0.0794579,0.0794579,-0.155655,-6.09336e-13,-7.13107e-07,-4.01798e-07,0.141359,0.0826999769009038,-6.092903959142859e-13,-7.131067457644136e-07,0.0826999769009038,-4.017979192694199e-07,-0.14414559078598133
827,0.0828,828.626,866.986,0.000717044,-0.00039153,0.00160984,-0.000783884,0.0795503,0.0795503,-0.155839,-6.09175e-13,-7.13263e-07,-4.02076e-07,0.141529,0.08280002300082812,-6.091793736118234e-13,-7.132627456440943e-07,0.08280002300082812,-4.02075919114786e-07,-0.14430305351026185
828,0.0829,828.784,867.151,0.00071676,-0.000390844,0.00161028,-0.000783253,0.0796426,0.0796426,-0.156023,-6.09013e-13,-7.13417e-07,-4.02355e-07,0.141698,0.0828999700554367,-6.090683513093609e-13,-7.134167455680185e-07,0.0828999700554367,-4.0235491904905274e-07,-0.14446048726406635
829,0.083,828.941,867.316,0.000716477,-0.000390159,0.00161072,-0.000782623,0.079735,0.079735,-0.156207,9.72993e-13,-7.13571e-07,-4.02632e-07,0.141868,0.08300003463558214,9.729994587814872e-13,-7.135707453809204e-07,0.08300003463558214,-4.026319189165406e-07,-0.14461789205272513
830,0.0831,829.099,867.481,0.000716193,-0.000389474,0.00161116,-0.000781993,0.0798273,0.0798273,-0.156391,-6.08688e-13,-7.13724e-07,-4.0291e-07,0.142037,0.08310000015211672,-6.087352844019733e-13,-7.137237453269663e-07,0.08310000015211672,-4.0290991887292904e-07,-0.14477526788156714
831,0.0832,829.256,867.645,0.00071591,-0.000388791,0.0016116,-0.000781363,0.0799196,0.0799196,-0.156575,-6.08525e-13,-7.13877e-07,-4.03187e-07,0.142206,0.08319997489589404,-6.085132397970483e-13,-7.138767451619898e-07,0.08319997489589404,-4.031869187404169e-07,-0.14493261475592056
832,0.0833,829.413,867.81,0.000715627,-0.000388108,0.00161204,-0.000780734,0.0800119,0.0800119,-0.156759,-6.08362e-13,-7.14029e-07,-4.03464e-07,0.142376,0.08329995886776631,-6.084022174945858e-13,-7.140287451301575e-07,0.08329995886776631,-4.0346391860790476e-07,-0.1450899326811126
833,0.0834,829.57,867.974,0.000715344,-0.000387426,0.00161248,-0.000780104,0.0801042,0.0801042,-0.156943,9.74228e-13,-7.1418e-07,-4.0374e-07,0.142545,0.08339995206858508,9.743317264110374e-13,-7.141797450094245e-07,0.08339995206858508,-4.0373991849751434e-07,-0.14524722166246917
834,0.0835,829.726,868.138,0.000715061,-0.000386744,0.00161292,-0.000779476,0.0801965,0.0801965,-0.157127,-6.08034e-13,-7.1433e-07,-4.04017e-07,0.142715,0.08349995449920211,-6.080691505871982e-13,-7.143297449108132e-07,0.08349995449920211,-4.040169183650022e-07,-0.1454044817053156
835,0.0836,829.883,868.302,0.000714779,-0.000386064,0.00161335,-0.000778847,0.0802888,0.0802888,-0.157311,-6.07869e-13,-7.1448e-07,-4.04293e-07,0.142884,0.08359996616046961,-6.078471059822732e-13,-7.14479744812202e-07,0.08359996616046961,-4.042929182546118e-07,-0.1455617128149762
836,0.0837,830.039,868.466,0.000714496,-0.000385384,0.00161379,-0.000778219,0.0803811,0.0803811,-0.157495,-6.07704e-13,-7.1463e-07,-4.04568e-07,0.143053,0.08369998705323933,-6.077360836798107e-13,-7.146297446025685e-07,0.08369998705323933,-4.045679181663431e-07,-0.14571891499677403
837,0.0838,830.195,868.63,0.000714214,-0.000384705,0.00161422,-0.000777591,0.0804734,0.0804734,-0.157679,9.75338e-13,-7.14778e-07,-4.04843e-07,0.143222,0.08380001717836372,9.754419494356625e-13,-7.147777445482006e-07,0.08380001717836372,-4.048429180780744e-07,-0.14587608825603127
838,0.0839,830.351,868.793,0.000713932,-0.000384026,0.00161466,-0.000776963,0.0805656,0.0805656,-0.157863,-6.07373e-13,-7.14926e-07,-4.05118e-07,0.143392,0.08389994814669444,-6.074030167724231e-13,-7.149257444938328e-07,0.08389994814669444,-4.051179179898057e-07,-0.14603323259806933
839,0.084,830.507,868.956,0.00071365,-0.000383349,0.00161509,-0.000776336,0.0806579,0.0806579,-0.158047,-6.07207e-13,-7.15073e-07,-4.05393e-07,0.143561,0.08399999672907943,-6.071809721674981e-13,-7.150727443505644e-07,0.08399999672907943,-4.0539291779051467e-07,-0.14619034802820852
840,0.0841,830.663,869.119,0.000713369,-0.000382672,0.00161552,-0.000775709,0.0807502,0.0807502,-0.158231,-6.0704e-13,-7.1522e-07,-4.05667e-07,0.14373,0.08410005454637459,-6.070699498650356e-13,-7.152197442072961e-07,0.08410005454637459,-4.056669177243677e-07,-0.1463474345517679
841,0.0842,830.818,869.282,0.000713088,-0.000381996,0.00161595,-0.000775083,0.0808424,0.0808424,-0.158414,-6.06873e-13,-7.15366e-07,-4.05941e-07,0.143899,0.08420001317942605,-6.068479052601106e-13,-7.153657440861494e-07,0.08420001317942605,-4.059409176582207e-07,-0.14650363867813143
842,0.0843,830.974,869.445,0.000712806,-0.000381321,0.00161638,-0.000774456,0.0809346,0.0809346,-0.158598,9.76784e-13,-7.15512e-07,-4.06215e-07,0.144069,0.08429998102908831,9.767742170652127e-13,-7.15511744076025e-07,0.08429998102908831,-4.0621491748105143e-07,-0.1466606675615144
843,0.0844,831.129,869.608,0.000712525,-0.000380646,0.00161681,-0.00077383,0.0810268,0.0810268,-0.158782,-6.06537e-13,-7.15656e-07,-4.06489e-07,0.144238,0.08439995809621115,-6.06514838352723e-13,-7.156557438880995e-07,0.08439995809621115,-4.0648891741490445e-07,-0.14681766755424075
844,0.0845,831.284,869.77,0.000712245,-0.000379972,0.00161724,-0.000773204,0.0811191,0.0811191,-0.158966,-6.06369e-13,-7.158e-07,-4.06762e-07,0.144407,0.08450005283164441,-6.064038160502605e-13,-7.157997438111963e-07,0.08450005283164441,-4.067619172598569e-07,-0.14697463866162608
845,0.0846,831.439,869.932,0.000711964,-0.000379299,0.00161767,-0.000772579,0.0812113,0.0812113,-0.15915,-6.062e-13,-7.15944e-07,-4.07034e-07,0.144576,0.08460004834623791,-6.061817714453355e-13,-7.15943743734293e-07,0.08460004834623791,-4.0703391712693104e-07,-0.1471315808889846
846,0.0847,831.593,870.094,0.000711684,-0.000378627,0.0016181,-0.000771954,0.0813035,0.0813034,-0.159333,9.7793e-13,-7.16087e-07,-4.07307e-07,0.144745,0.08470005308084283,9.778844400898379e-13,-7.160867435684892e-07,0.08469994461084296,-4.073069170829058e-07,-0.14728764152969775
847,0.0848,831.748,870.256,0.000711403,-0.000377955,0.00161853,-0.000771329,0.0813956,0.0813956,-0.159517,-6.05862e-13,-7.16229e-07,-4.07579e-07,0.144914,0.08479995855630795,-6.058487045379479e-13,-7.162287435358294e-07,0.08479995855630795,-4.0757891694997994e-07,-0.14744452616982684
848,0.0849,831.902,870.418,0.000711123,-0.000377284,0.00161896,-0.000770705,0.0814878,0.0814878,-0.159701,-6.05692e-13,-7.1637e-07,-4.07851e-07,0.145084,0.08489998172348412,-6.057376822354854e-13,-7.163697434142691e-07,0.08489998172348412,-4.078509168170541e-07,-0.1476013819458376
849,0.085,832.056,870.579,0.000710843,-0.000376614,0.00161938,-0.00077008,0.08158,0.08158,-0.159885,-6.05522e-13,-7.16511e-07,-4.08122e-07,0.145253,0.08500001411322122,-6.055156376305604e-13,-7.165107432927087e-07,0.08500001411322122,-4.0812191670625e-07,-0.1477582088630407
850,0.0851,832.21,870.741,0.000710564,-0.000375945,0.00161981,-0.000769456,0.0816721,0.0816721,-0.160068,-6.05351e-13,-7.16651e-07,-4.08394e-07,0.145422,0.08509994721636982,-6.054046153280979e-13,-7.1665074319327e-07,0.08509994721636982,-4.0839391657332413e-07,-0.14791415484132653
851,0.0852,832.364,870.902,0.000710284,-0.000375276,0.00162023,-0.000768833,0.0817643,0.0817643,-0.160252,-6.0518e-13,-7.16791e-07,-4.08665e-07,0.145591,0.08519999804377543,-6.051825707231728e-13,-7.167907430938314e-07,0.08519999804377543,-4.0866491646252e-07,-0.14807092421361123
852,0.0853,832.518,871.063,0.000710005,-0.000374608,0.00162065,-0.00076821,0.0818564,0.0818564,-0.160436,-6.05008e-13,-7.1693e-07,-4.08935e-07,0.14576,0.08529994956629228,-6.049605261182478e-13,-7.169297430165145e-07,0.08529994956629228,-4.089349163738376e-07,-0.148227664742985
853,0.0854,832.671,871.224,0.000709726,-0.000373941,0.00162108,-0.000767587,0.0819486,0.0819486,-0.160619,-6.04837e-13,-7.17068e-07,-4.09205e-07,0.145929,0.08540001883476456,-6.048495038157853e-13,-7.170677429613193e-07,0.08540001883476456,-4.092049162851552e-07,-0.1483835248187052
854,0.0855,832.825,871.385,0.000709447,-0.000373275,0.0016215,-0.000766964,0.0820407,0.0820407,-0.160803,-6.04664e-13,-7.17206e-07,-4.09475e-07,0.146098,0.08549998878004472,-6.046274592108603e-13,-7.172057427951017e-07,0.08549998878004472,-4.094749161964728e-07,-0.148540207834859
855,0.0856,832.978,871.545,0.000709168,-0.000372609,0.00162192,-0.000766341,0.0821328,0.0821328,-0.160987,-6.04492e-13,-7.17343e-07,-4.09745e-07,0.146267,0.08559996793298064,-6.045164369083977e-13,-7.173427427620283e-07,0.08559996793298064,-4.097449161077904e-07,-0.1486968620239899
856,0.0857,833.131,871.705,0.00070889,-0.000371944,0.00162234,-0.000765719,0.0822249,0.0822249,-0.16117,9.80863e-13,-7.17479e-07,-4.10014e-07,0.146436,0.08569995629442073,9.807710199538633e-13,-7.174787426400542e-07,0.08569995629442073,-4.100139159302074e-07,-0.14885263624446365
857,0.0858,833.284,871.866,0.000708612,-0.000371279,0.00162276,-0.000765098,0.082317,0.082317,-0.161354,-6.04145e-13,-7.17615e-07,-4.10283e-07,0.146605,0.08579995386521277,-6.041833700010102e-13,-7.176147425180801e-07,0.08579995386521277,-4.1028291586364674e-07,-0.14900923295205581
858,0.0859,833.437,872.026,0.000708333,-0.000370616,0.00162318,-0.000764476,0.0824091,0.0824091,-0.161538,-6.03972e-13,-7.1775e-07,-4.10552e-07,0.146774,0.08589996064620542,-6.039613253960852e-13,-7.177497424182278e-07,0.08589996064620542,-4.1055191568606375e-07,-0.1491658008485044
859,0.086,833.589,872.186,0.000708055,-0.000369953,0.0016236,-0.000763855,0.0825012,0.0825012,-0.161721,-6.03797e-13,-7.17885e-07,-4.1082e-07,0.146943,0.08599997663824666,-6.038503030936226e-13,-7.178847423183754e-07,0.08599997663824666,-4.108199156416248e-07,-0.14932148926102484
860,0.0861,833.742,872.345,0.000707778,-0.000369291,0.00162402,-0.000763234,0.0825933,0.0825933,-0.161905,-6.03623e-13,-7.18018e-07,-4.11089e-07,0.147112,0.08610000184218491,-6.036282584886976e-13,-7.180177422627665e-07,0.08610000184218491,-4.110889154640418e-07,-0.14947799970759823
861,0.0862,833.894,872.505,0.0007075,-0.000368629,0.00162444,-0.000762613,0.0826854,0.0826854,-0.162088,-6.03448e-13,-7.18152e-07,-4.11356e-07,0.147281,0.08620003625886885,-6.034062138837726e-13,-7.181517420740136e-07,0.08620003625886885,-4.1135591544172456e-07,-0.1496336309929548
862,0.0863,834.046,872.664,0.000707223,-0.000367969,0.00162485,-0.000761993,0.0827774,0.0827774,-0.162272,-6.03273e-13,-7.18284e-07,-4.11624e-07,0.14745,0.08629997125914413,-6.032951915813101e-13,-7.182837420405264e-07,0.08629997125914413,-4.116239152862633e-07,-0.14979008401073302
863,0.0864,834.198,872.823,0.000706945,-0.000367309,0.00162527,-0.000761373,0.0828695,0.0828695,-0.162455,-6.03097e-13,-7.18416e-07,-4.11891e-07,0.147619,0.08640002409385938,-6.03073146976385e-13,-7.184157418960169e-07,0.08640002409385938,-4.1189091515292375e-07,-0.14994565818988748
864,0.0865,834.35,872.982,0.000706668,-0.000366649,0.00162569,-0.000760754,0.0829615,0.0829615,-0.162639,-6.02921e-13,-7.18548e-07,-4.12158e-07,0.147788,0.08649997749386196,-6.029621246739225e-13,-7.185477418625297e-07,0.08649997749386196,-4.121579150195842e-07,-0.15010205379994324
865,0.0866,834.502,873.141,0.000706392,-0.000365991,0.0016261,-0.000760134,0.0830536,0.0830536,-0.162822,-6.02745e-13,-7.18679e-07,-4.12424e-07,0.147956,0.08660004874999983,-6.027400800689975e-13,-7.186787417401419e-07,0.08660004874999983,-4.124239149083664e-07,-0.15025757089384972
866,0.0867,834.653,873.3,0.000706115,-0.000365333,0.00162651,-0.000759515,0.0831456,0.0831456,-0.163006,-6.02568e-13,-7.18809e-07,-4.12691e-07,0.148125,0.08670002055311721,-6.025180354640725e-13,-7.188087416398758e-07,0.08670002055311721,-4.1269091488604914e-07,-0.1504139091172476
867,0.0868,834.804,873.458,0.000705838,-0.000364676,0.00162693,-0.000758896,0.0832376,0.0832376,-0.163189,-6.02391e-13,-7.18938e-07,-4.12957e-07,0.148294,0.08680000155406353,-6.024070131616099e-13,-7.189377415617315e-07,0.08680000155406353,-4.129569147748313e-07,-0.1505693691468526
868,0.0869,834.956,873.617,0.000705562,-0.000364019,0.00162734,-0.000758278,0.0833296,0.0833296,-0.163373,-6.02213e-13,-7.19067e-07,-4.13222e-07,0.148463,0.08689999175368524,-6.021849685566849e-13,-7.190667414835872e-07,0.08689999175368524,-4.132219145747129e-07,-0.15072565000464977
869,0.087,835.107,873.775,0.000705286,-0.000363364,0.00162775,-0.000757659,0.0834216,0.0834216,-0.163556,-6.02035e-13,-7.19195e-07,-4.13488e-07,0.148632,0.0869999911528283,-6.020739462542224e-13,-7.191947414275646e-07,0.0869999911528283,-4.134879144634951e-07,-0.15088105299089194
870,0.0871,835.257,873.933,0.00070501,-0.000362708,0.00162816,-0.000757042,0.0835136,0.0835136,-0.163739,-6.01857e-13,-7.19323e-07,-4.13753e-07,0.148801,0.0870999997523394,-6.018519016492974e-13,-7.193227412605196e-07,0.0870999997523394,-4.13752914374399e-07,-0.15103642754098967
871,0.0872,835.408,874.091,0.000704734,-0.000362054,0.00162857,-0.000756424,0.0836056,0.0836056,-0.163923,-6.01678e-13,-7.1945e-07,-4.14017e-07,0.148969,0.08720001755306495,-6.016298570443723e-13,-7.194497412266188e-07,0.08720001755306495,-4.140169143074246e-07,-0.15119262246794818
872,0.0873,835.559,874.249,0.000704459,-0.0003614,0.00162898,-0.000755807,0.0836976,0.0836976,-0.164106,-6.01499e-13,-7.19576e-07,-4.14282e-07,0.149138,0.08730004455585139,-6.015188347419098e-13,-7.195757411038173e-07,0.08730004455585139,-4.142819142183285e-07,-0.15134794000604834
873,0.0874,835.709,874.406,0.000704184,-0.000360747,0.00162939,-0.00075519,0.0837895,0.0837895,-0.164289,-6.0132e-13,-7.19702e-07,-4.14546e-07,0.149307,0.08739997202154282,-6.012967901369848e-13,-7.197017409810158e-07,0.08739997202154282,-4.145459140403318e-07,-0.15150322912363956
874,0.0875,835.859,874.564,0.000703908,-0.000360095,0.0016298,-0.000754573,0.0838815,0.0838815,-0.164473,-6.0114e-13,-7.19827e-07,-4.1481e-07,0.149476,0.08750001742098656,-6.011857678345223e-13,-7.19826740880336e-07,0.08750001742098656,-4.148099139733574e-07,-0.1516593381670085
875,0.0876,836.009,874.721,0.000703633,-0.000359444,0.00163021,-0.000753956,0.0839734,0.0839734,-0.164656,-6.0096e-13,-7.19952e-07,-4.15073e-07,0.149644,0.08759996326502884,-6.009637232295972e-13,-7.199517407796563e-07,0.08759996326502884,-4.1507291381748246e-07,-0.15181457030395018
876,0.0877,836.159,874.878,0.000703359,-0.000358793,0.00163062,-0.00075334,0.0840654,0.0840654,-0.164839,-6.0078e-13,-7.20076e-07,-4.15337e-07,0.149813,0.08770002706451341,-6.007416786246722e-13,-7.200757407010983e-07,0.08770002706451341,-4.153369137505081e-07,-0.15196977403600986
877,0.0878,836.309,875.035,0.000703084,-0.000358142,0.00163102,-0.000752724,0.0841573,0.0841573,-0.165023,-6.00599e-13,-7.20199e-07,-4.15599e-07,0.149982,0.08779999129028648,-6.006306563222097e-13,-7.201987406446619e-07,0.08779999129028648,-4.1559891361675483e-07,-0.152125797243012
878,0.0879,836.459,875.192,0.00070281,-0.000357493,0.00163143,-0.000752109,0.0842492,0.0842492,-0.165206,-6.00418e-13,-7.20322e-07,-4.15862e-07,0.150151,0.08789996470319394,-6.004086117172847e-13,-7.203217405882256e-07,0.08789996470319394,-4.1586191357190216e-07,-0.15228094402575298
879,0.088,836.608,875.349,0.000702535,-0.000356844,0.00163183,-0.000751493,0.0843412,0.0843411,-0.165389,9.87081e-13,-7.20444e-07,-4.16124e-07,0.150319,0.08800005610408057,9.869882688917642e-13,-7.204437404428887e-07,0.08799994730408023,-4.161239134381489e-07,-0.15243606241923036
880,0.0881,836.758,875.505,0.000702261,-0.000356196,0.00163224,-0.000750878,0.0844331,0.0844331,-0.165572,-6.00055e-13,-7.20566e-07,-4.16386e-07,0.150488,0.08810004790378922,-6.000755448098971e-13,-7.205657404085741e-07,0.08810004790378922,-4.1638591330439567e-07,-0.15259115242863897
881,0.0882,836.907,875.661,0.000701988,-0.000355549,0.00163264,-0.000750264,0.084525,0.084525,-0.165756,-5.99872e-13,-7.20687e-07,-4.16648e-07,0.150657,0.08820004889316668,-5.998535002049721e-13,-7.20686740285359e-07,0.08820004889316668,-4.166479131706424e-07,-0.1527470613125349
882,0.0883,837.056,875.817,0.000701714,-0.000354902,0.00163304,-0.000749649,0.0846168,0.0846168,-0.165939,-5.9969e-13,-7.20807e-07,-4.16909e-07,0.150825,0.08829995024305681,-5.997424779025096e-13,-7.208067401842655e-07,0.08829995024305681,-4.169089130590109e-07,-0.1529020944143532
883,0.0884,837.205,875.973,0.00070144,-0.000354256,0.00163345,-0.000749035,0.0847087,0.0847087,-0.166122,-5.99507e-13,-7.20927e-07,-4.1717e-07,0.150994,0.08839996960430341,-5.995204332975845e-13,-7.20926740083172e-07,0.08839996960430341,-4.1716991294737937e-07,-0.1530570991477097
884,0.0885,837.354,876.129,0.000701167,-0.00035361,0.00163385,-0.000748421,0.0848006,0.0848006,-0.166305,-5.99323e-13,-7.21046e-07,-4.17431e-07,0.151162,0.08849999815775167,-5.992983886926595e-13,-7.210457400042003e-07,0.08849999815775167,-4.1743091283574785e-07,-0.15321207551779537
885,0.0886,837.502,876.285,0.000700894,-0.000352966,0.00163425,-0.000747807,0.0848925,0.0848925,-0.166488,-5.9914e-13,-7.21165e-07,-4.17692e-07,0.151331,0.08860003590424648,-5.99187366390197e-13,-7.211647399252286e-07,0.08860003590424648,-4.176919127241163e-07,-0.15336702352980003
886,0.0887,837.651,876.44,0.000700621,-0.000352321,0.00163465,-0.000747194,0.0849843,0.0849843,-0.166671,-5.98956e-13,-7.21282e-07,-4.17952e-07,0.1515,0.0886999739746297,-5.98965321785272e-13,-7.212817398905003e-07,0.0886999739746297,-4.179519126346065e-07,-0.153521943188913
887,0.0888,837.799,876.596,0.000700348,-0.000351678,0.00163505,-0.000746581,0.0850762,0.0850762,-0.166855,9.89141e-13,-7.214e-07,-4.18212e-07,0.151668,0.08880003009974646,9.892087149410145e-13,-7.213997398336502e-07,0.08880003009974646,-4.182119125450967e-07,-0.15367768082306443
888,0.0889,837.947,876.751,0.000700076,-0.000351035,0.00163545,-0.000745968,0.085168,0.085168,-0.167038,-5.98587e-13,-7.21516e-07,-4.18471e-07,0.151837,0.08889998653043962,-5.986322548778844e-13,-7.215157397100214e-07,0.08889998653043962,-4.184709124777086e-07,-0.1538325436370942
889,0.089,838.095,876.906,0.000699803,-0.000350393,0.00163585,-0.000745356,0.0852598,0.0852598,-0.167221,-5.98402e-13,-7.21633e-07,-4.18731e-07,0.152005,0.0889999521375544,-5.984102102729594e-13,-7.216327396752931e-07,0.0889999521375544,-4.187309122771765e-07,-0.1539873781138219
890,0.0891,838.243,877.061,0.000699531,-0.000349752,0.00163624,-0.000744744,0.0853517,0.0853517,-0.167404,-5.98216e-13,-7.21748e-07,-4.1899e-07,0.152174,0.08910003583193116,-5.981881656680343e-13,-7.217477395737859e-07,0.08910003583193116,-4.1898991220978843e-07,-0.15414218425843274
891,0.0892,838.391,877.216,0.000699259,-0.000349111,0.00163664,-0.000744132,0.0854435,0.0854435,-0.167587,-5.98031e-13,-7.21863e-07,-4.19248e-07,0.152342,0.0892000198044145,-5.980771433655718e-13,-7.218627394722787e-07,0.0892000198044145,-4.1924791216452206e-07,-0.1542969620761112
892,0.0893,838.538,877.37,0.000698987,-0.000348471,0.00163704,-0.00074352,0.0855353,0.0855353,-0.16777,-5.97845e-13,-7.21977e-07,-4.19507e-07,0.152511,0.08930001295584811,-5.978550987606468e-13,-7.219767393928933e-07,0.08930001295584811,-4.195069119861117e-07,-0.15445171157204052
893,0.0894,838.685,877.525,0.000698716,-0.000347832,0.00163743,-0.000742909,0.0856271,0.0856271,-0.167953,-5.97658e-13,-7.22091e-07,-4.19765e-07,0.152679,0.0894000152870742,-5.976330541557218e-13,-7.220907393135079e-07,0.0894000152870742,-4.197649119408453e-07,-0.15460643275140318
894,0.0895,838.833,877.679,0.000698444,-0.000347193,0.00163783,-0.000742298,0.0857189,0.0857189,-0.168136,-5.97472e-13,-7.22204e-07,-4.20022e-07,0.152848,0.08950002679893565,-5.975220318532593e-13,-7.222037392562441e-07,0.08950002679893565,-4.2002191180667836e-07,-0.1547611256193805
895,0.0896,838.98,877.833,0.000698173,-0.000346555,0.00163822,-0.000741687,0.0858107,0.0858107,-0.168319,-5.97285e-13,-7.22317e-07,-4.2028e-07,0.153016,0.08960004749227535,-5.972999872483342e-13,-7.223167390879581e-07,0.08960004749227535,-4.202799116503897e-07,-0.1549157901811531
896,0.0897,839.127,877.987,0.000697902,-0.000345918,0.00163862,-0.000741076,0.0859024,0.0859024,-0.168502,-5.97097e-13,-7.22429e-07,-4.20537e-07,0.153184,0.08969996839793404,-5.970779426434092e-13,-7.224287390528161e-07,0.08969996839793404,-4.2053691162724505e-07,-0.1550704264419006
897,0.0898,839.274,878.141,0.000697631,-0.000345281,0.00163901,-0.000740466,0.0859942,0.0859942,-0.168685,-5.96909e-13,-7.2254e-07,-4.20794e-07,0.153353,0.08980000744675509,-5.968558980384842e-13,-7.225397389287735e-07,0.08980000744675509,-4.207939114930781e-07,-0.15522503440680147
898,0.0899,839.42,878.294,0.00069736,-0.000344645,0.0016394,-0.000739856,0.0860859,0.0860859,-0.168868,-5.96721e-13,-7.22651e-07,-4.2105e-07,0.153521,0.08989994668958223,-5.967448757360216e-13,-7.226507389157533e-07,0.08989994668958223,-4.2104991138103287e-07,-0.1553796140810334
899,0.09,839.567,878.448,0.000697089,-0.00034401,0.0016398,-0.000739247,0.0861777,0.0861777,-0.169051,-5.96533e-13,-7.22761e-07,-4.21307e-07,0.15369,0.09000000409725306,-5.965228311310966e-13,-7.227607388138324e-07,0.09000000409725306,-4.213069112468659e-07,-0.15553416546977317
900,0.0901,839.713,878.601,0.000696819,-0.000343375,0.00164019,-0.000738637,0.0862694,0.0862694,-0.169234,-5.96344e-13,-7.22871e-07,-4.21563e-07,0.153858,0.09009996168061374,-5.963007865261716e-13,-7.228707387119115e-07,0.09009996168061374,-4.215629111348207e-07,-0.15568868857819662
901,0.0902,839.859,878.754,0.000696549,-0.000342741,0.00164058,-0.000738028,0.0863612,0.0863612,-0.169416,-5.96155e-13,-7.2298e-07,-4.21818e-07,0.154026,0.09020003745050365,-5.961897642237091e-13,-7.229797386321124e-07,0.09020003745050365,-4.218179110448972e-07,-0.15584233925423974
902,0.0903,840.005,878.908,0.000696279,-0.000342107,0.00164097,-0.000737419,0.0864529,0.0864529,-0.169599,9.93058e-13,-7.23088e-07,-4.22074e-07,0.154195,0.09030001337776405,9.9298347322474e-13,-7.23087738574435e-07,0.09030001337776405,-4.2207391093285196e-07,-0.15599680597202037
903,0.0904,840.151,879.06,0.000696009,-0.000341475,0.00164136,-0.000736811,0.0865446,0.0865446,-0.169782,-5.95776e-13,-7.23196e-07,-4.22329e-07,0.154363,0.09039999847323732,-5.95745675013859e-13,-7.231957385167576e-07,0.09039999847323732,-4.2232891084292845e-07,-0.15615124442497808
904,0.0905,840.297,879.213,0.000695739,-0.000340843,0.00164175,-0.000736202,0.0866363,0.0866363,-0.169965,-5.95586e-13,-7.23303e-07,-4.22584e-07,0.154531,0.09049999273776432,-5.956346527113965e-13,-7.233027383701796e-07,0.09049999273776432,-4.2258391075300494e-07,-0.15630565461828472
905,0.0906,840.443,879.366,0.00069547,-0.000340211,0.00164213,-0.000735594,0.086728,0.086728,-0.170148,-5.95395e-13,-7.2341e-07,-4.22838e-07,0.1547,0.09059999617218573,-5.954126081064715e-13,-7.234097383346239e-07,0.09059999617218573,-4.2283791057418085e-07,-0.15646003655711127
906,0.0907,840.588,879.518,0.000695201,-0.00033958,0.00164252,-0.000734987,0.0868197,0.0868197,-0.170331,-5.95205e-13,-7.23516e-07,-4.23092e-07,0.154868,0.09070000877734263,-5.951905635015464e-13,-7.235157382101676e-07,0.09070000877734263,-4.2309191050637907e-07,-0.15661439024662804
907,0.0908,840.734,879.67,0.000694931,-0.00033895,0.00164291,-0.000734379,0.0869114,0.0869114,-0.170513,-5.95014e-13,-7.23622e-07,-4.23346e-07,0.155036,0.09080003055407593,-5.949685188966214e-13,-7.236217381967336e-07,0.09080003055407593,-4.233459104385773e-07,-0.156767872460298
908,0.0909,840.879,879.823,0.000694663,-0.000338321,0.00164329,-0.000733772,0.087003,0.087003,-0.170696,-5.94822e-13,-7.23727e-07,-4.236e-07,0.155204,0.0908999524132259,-5.948574965941589e-13,-7.23726738094399e-07,0.0908999524132259,-4.235999102597532e-07,-0.1569221698209987
909,0.091,841.024,879.975,0.000694394,-0.000337692,0.00164368,-0.000733165,0.0870947,0.0870947,-0.170879,-5.94631e-13,-7.23831e-07,-4.23853e-07,0.155373,0.09099999252563129,-5.946354519892338e-13,-7.238307380141862e-07,0.09099999252563129,-4.238529102140731e-07,-0.15707643894786583
910,0.0911,841.169,880.126,0.000694125,-0.000337063,0.00164406,-0.000732558,0.0871864,0.0871864,-0.171062,-5.94439e-13,-7.23935e-07,-4.24106e-07,0.155541,0.09110004181213549,-5.944134073843088e-13,-7.239347379339733e-07,0.09110004181213549,-4.2410591005737075e-07,-0.15723067984606576
911,0.0912,841.314,880.278,0.000693857,-0.000336436,0.00164445,-0.000731952,0.087278,0.087278,-0.171244,-5.94246e-13,-7.24038e-07,-4.24359e-07,0.155709,0.09119999115357547,-5.941913627793838e-13,-7.240377378758822e-07,0.09119999115357547,-4.243589100116907e-07,-0.15738404990523502
912,0.0913,841.458,880.43,0.000693589,-0.000335809,0.00164483,-0.000731346,0.0873696,0.0873696,-0.171427,-5.94054e-13,-7.24141e-07,-4.24611e-07,0.155877,0.09129994965079447,-5.940803404769213e-13,-7.241407378177911e-07,0.09129994965079447,-4.2461090987711003e-07,-0.1575382345157802
913,0.0914,841.603,880.581,0.000693321,-0.000335183,0.00164522,-0.00073074,0.0874613,0.0874613,-0.17161,-5.93861e-13,-7.24243e-07,-4.24863e-07,0.156045,0.09140002644462841,-5.938582958719962e-13,-7.242427377818217e-07,0.09140002644462841,-4.248629097425294e-07,-0.15769239091312326
914,0.0915,841.747,880.736,0.00251249,-0.000385105,0.00211955,-0.00104752,0.0875529,0.0875529,-0.171792,-5.93667e-13,-7.24344e-07,-4.25115e-07,0.156214,0.09150000326591923,-5.936362512670712e-13,-7.243437376569517e-07,0.09150000326591923,-4.2511490960794873e-07,-0.1578456769485247
915,0.0916,841.889,880.889,0.00235321,-0.000433736,0.00211156,-0.00107041,0.0876445,0.0876445,-0.171975,-5.93254e-13,-7.30618e-07,-4.21617e-07,0.156382,0.09159998924550616,-5.933031843596837e-13,-7.306177330912433e-07,0.09159998924550616,-4.2161691116149314e-07,-0.15799977708905022
916,0.0917,842.03,881.04,0.000560347,-0.00048205,0.00165557,-0.000759331,0.0877361,0.0877361,-0.172158,-5.91225e-13,-7.42793e-07,-4.13725e-07,0.15655,0.09169998438422855,-5.911937606128959e-13,-7.427927241066001e-07,0.09169998438422855,-4.1372491443869563e-07,-0.15815384903183016
917,0.0918,842.172,881.193,0.000859869,-0.000528158,0.00169327,-0.000728934,0.0878277,0.0878277,-0.17234,-5.89044e-13,-7.48632e-07,-4.09415e-07,0.156718,0.09179998868292505,-5.890843368661081e-13,-7.486317197269443e-07,0.09179998868292505,-4.094149161915084e-07,-0.15830705108949628
918,0.0919,842.314,881.345,0.000650266,-0.000573197,0.0016805,-0.000757903,0.0879193,0.0879193,-0.172523,-5.88396e-13,-7.55118e-07,-4.05879e-07,0.156886,0.09190000214243499,-5.88418203051333e-13,-7.551177149123234e-07,0.09190000214243499,-4.0587891758647743e-07,-0.15846106680627892
919,0.092,842.456,881.498,0.000712898,-0.000616632,0.00169472,-0.000755162,0.0880109,0.0880109,-0.172706,-5.86797e-13,-7.6125e-07,-4.01938e-07,0.157054,0.09200002476359725,-5.867528685143952e-13,-7.612497102682525e-07,0.09200002476359725,-4.0193791916998123e-07,-0.15861505434076428
920,0.0921,842.598,881.65,0.000683312,-0.000658707,0.00169979,-0.000763134,0.0881024,0.0881024,-0.172888,-5.85403e-13,-7.67494e-07,-3.98139e-07,0.157222,0.09209994733725124,-5.85420600884845e-13,-7.674937054780173e-07,0.09209994733725124,-3.9813892072082524e-07,-0.15876817246670205
921,0.0922,842.739,881.802,0.00069368,-0.000699383,0.00170882,-0.00076646,0.088194,0.088194,-0.173071,-5.83795e-13,-7.73681e-07,-3.94284e-07,0.15739,0.09219998827423237,-5.837552663479073e-13,-7.736807007274749e-07,0.09219998827423237,-3.9428392228924025e-07,-0.1589221038059936
922,0.0923,842.881,881.953,0.000688992,-0.000738734,0.00171634,-0.000771531,0.0882856,0.0882856,-0.173253,-5.82149e-13,-7.7988e-07,-3.90456e-07,0.157558,0.09230003837538292,-5.822009541134321e-13,-7.798796959335164e-07,0.09230003837538292,-3.9045592381548033e-07,-0.15907516605401384
923,0.0924,843.023,882.105,0.00069043,-0.000776792,0.00172447,-0.000775887,0.0883771,0.0883771,-0.173436,-5.80397e-13,-7.86065e-07,-3.86623e-07,0.157726,0.09239998840153829,-5.804245972740318e-13,-7.860646910051727e-07,0.09239998840153829,-3.866229252302844e-07,-0.15922904121861892
924,0.0925,843.164,882.256,0.000689482,-0.000813602,0.00173235,-0.000780517,0.0884686,0.0884686,-0.173618,-5.78568e-13,-7.92247e-07,-3.82797e-07,0.157894,0.0924999475735393,-5.785372181321691e-13,-7.922466861431943e-07,0.0924999475735393,-3.8279692671228105e-07,-0.15938204760911323
925,0.0926,843.306,882.407,0.000689486,-0.000849201,0.00174033,-0.000785032,0.0885602,0.0885602,-0.173801,9.74411e-13,-7.98422e-07,-3.78974e-07,0.158062,0.0926000251522201,9.743317264110374e-13,-7.984216812140232e-07,0.0926000251522201,-3.7897392823893483e-07,-0.15953586661953212
926,0.0927,843.447,882.558,0.000689115,-0.000883629,0.00174826,-0.000789587,0.0886517,0.0886517,-0.173983,-5.74649e-13,-8.0459e-07,-3.75155e-07,0.15823,0.09270000262842149,-5.74651437545981e-13,-8.045896763286819e-07,0.09270000262842149,-3.7515492967710173e-07,-0.15968881717288474
927,0.0928,843.588,882.709,0.000688893,-0.000916923,0.0017562,-0.000794122,0.0887432,0.0887432,-0.174166,-5.72565e-13,-8.10752e-07,-3.7134e-07,0.158398,0.09279998925298028,-5.725420137991932e-13,-8.107516713540264e-07,0.09279998925298028,-3.7133993102678176e-07,-0.15984258004960983
928,0.0929,843.729,882.859,0.000688613,-0.000949119,0.00176413,-0.00079866,0.0888347,0.0888347,-0.174348,-5.70397e-13,-8.16908e-07,-3.67529e-07,0.158566,0.0928999850267338,-5.704325900524054e-13,-8.169076662900565e-07,0.0928999850267338,-3.675289325100195e-07,-0.1599954747861977
929,0.093,843.87,883.009,0.000688356,-0.000980252,0.00177206,-0.000803191,0.0889262,0.0889262,-0.174531,-5.68146e-13,-8.23057e-07,-3.63722e-07,0.158734,0.09299998995051917,-5.681011217006926e-13,-8.230566612699164e-07,0.09299998995051917,-3.6372193390477037e-07,-0.16014918154971403
930,0.0931,844.011,883.16,0.00068809,-0.00101036,0.00177997,-0.00080772,0.0890177,0.0890177,-0.174713,-5.65813e-13,-8.29201e-07,-3.59919e-07,0.158902,0.09310000402517371,-5.657696533489798e-13,-8.292006562493626e-07,0.09310000402517371,-3.5991893521103435e-07,-0.1603020204899065
931,0.0932,844.152,883.31,0.000687827,-0.00103946,0.00178789,-0.000812244,0.0891092,0.0891092,-0.174896,-5.63399e-13,-8.35337e-07,-3.5612e-07,0.15907,0.09320002725153498,-5.634381849972669e-13,-8.353366510727156e-07,0.09320002725153498,-3.5611993653983376e-07,-0.1604556711606917
932,0.0933,844.293,883.459,0.000687564,-0.00106761,0.0017958,-0.000816766,0.0892006,0.0892006,-0.175078,9.53506e-13,-8.41468e-07,-3.52324e-07,0.159238,0.09329995030043947,9.534595335480844e-13,-8.414676460066772e-07,0.09329995030043947,-3.523239379132903e-07,-0.16060845432485082
933,0.0934,844.433,883.609,0.000687301,-0.00109481,0.0018037,-0.000821283,0.0892921,0.0892921,-0.17526,-5.58327e-13,-8.47592e-07,-3.48533e-07,0.159406,0.09339999182272174,-5.583311590839912e-13,-8.47591640762424e-07,0.09339999182272174,-3.4853293928716056e-07,-0.16076120968500418
934,0.0935,844.574,883.758,0.000687038,-0.00112112,0.0018116,-0.000825797,0.0893836,0.0893836,-0.175443,-5.5567e-13,-8.5371e-07,-3.44745e-07,0.159574,0.09350004249922228,-5.556666238248908e-13,-8.537096355398788e-07,0.09350004249922228,-3.4474494059466565e-07,-0.16091477633185514
935,0.0936,844.714,883.908,0.000686775,-0.00114655,0.00181949,-0.000830307,0.089475,0.089475,-0.175625,-5.52935e-13,-8.59821e-07,-3.40962e-07,0.159742,0.0935999929707736,-5.52891066263328e-13,-8.598206303611633e-07,0.0935999929707736,-3.4096194190258444e-07,-0.1610674759464763
936,0.0937,844.855,884.057,0.000686512,-0.00117113,0.00182737,-0.000834814,0.0895664,0.0895664,-0.175807,-5.5012e-13,-8.65927e-07,-3.37182e-07,0.159909,0.09369995257821562,-5.501155087017651e-13,-8.659266250710118e-07,0.09369995257821562,-3.371819431441381e-07,-0.16122014777229643
937,0.0938,844.995,884.206,0.00068625,-0.00119488,0.00183525,-0.000839317,0.0896579,0.0896579,-0.17599,9.35033e-13,-8.72026e-07,-3.33406e-07,0.160077,0.09380003070238097,9.350298313393068e-13,-8.720256198246901e-07,0.09380003070238097,-3.3340594440822713e-07,-0.1613736304411616
938,0.0939,845.135,884.354,0.000685987,-0.00121785,0.00184312,-0.000843817,0.0897493,0.0897493,-0.176172,-5.44254e-13,-8.78118e-07,-3.29634e-07,0.160245,0.09390000859410708,-5.442313266712517e-13,-8.781176144001535e-07,0.09390000859410708,-3.296339456948516e-07,-0.16152624655193393
939,0.094,845.275,884.503,0.000685725,-0.00124004,0.00185099,-0.000848313,0.0898407,0.0898407,-0.176354,-5.41205e-13,-8.84204e-07,-3.25866e-07,0.160413,0.09399999562423034,-5.412337245047638e-13,-8.842036091083472e-07,0.09399999562423034,-3.258659468929892e-07,-0.16167883488910162
940,0.0941,845.415,884.651,0.000685463,-0.00126149,0.00185886,-0.000852805,0.0899321,0.0899321,-0.176537,-5.38079e-13,-8.90285e-07,-3.22102e-07,0.160581,0.09409999179358564,-5.381251000358134e-13,-8.902846037051049e-07,0.09409999179358564,-3.221019481136622e-07,-0.16183223362590438
941,0.0942,845.555,884.799,0.000685201,-0.00128222,0.00186671,-0.000857294,0.0900235,0.0900235,-0.176719,-5.34876e-13,-8.96358e-07,-3.18342e-07,0.160748,0.09419999710300875,-5.349054532644004e-13,-8.963575982567917e-07,0.09419999710300875,-3.1834194935687066e-07,-0.161984766278492
942,0.0943,845.695,884.948,0.000684939,-0.00130225,0.00187456,-0.000861779,0.0901149,0.0901149,-0.176901,-5.31598e-13,-9.02426e-07,-3.14586e-07,0.160916,0.09430001155333456,-5.31574784190525e-13,-9.024255928080649e-07,0.09430001155333456,-3.145859505115922e-07,-0.16213727117266308
943,0.0944,845.834,885.095,0.000684677,-0.0013216,0.00188241,-0.00086626,0.0902063,0.0902063,-0.177083,-5.28243e-13,-9.08487e-07,-3.10833e-07,0.161084,0.09440003514539907,-5.282441151166495e-13,-9.084865872921455e-07,0.09440003514539907,-3.108329517109709e-07,-0.16228974831346887
944,0.0945,845.974,885.243,0.000684416,-0.00134029,0.00189025,-0.000870738,0.0902976,0.0902976,-0.177265,-5.24814e-13,-9.14542e-07,-3.07085e-07,0.161252,0.09449995843003656,-5.248024237403115e-13,-9.145415817979341e-07,0.09449995843003656,-3.07084952799741e-07,-0.16244219770596036
945,0.0946,846.113,885.391,0.000684154,-0.00135836,0.00189808,-0.000875213,0.090389,0.090389,-0.177448,-5.2131e-13,-9.20591e-07,-3.0334e-07,0.161419,0.09460000029808069,-5.213607323639735e-13,-9.205905762144084e-07,0.09460000029808069,-3.0333995404419056e-07,-0.16259545676014897
946,0.0947,846.252,885.538,0.000683893,-0.0013758,0.00190591,-0.000879683,0.0904803,0.0904803,-0.17763,-5.17732e-13,-9.26633e-07,-2.99599e-07,0.161587,0.09469994184036978,-5.176969963827105e-13,-9.266325706747125e-07,0.09469994184036978,-2.995989550891309e-07,-0.16274785051876595
947,0.0948,846.391,885.685,0.000683632,-0.00139266,0.00191373,-0.000884151,0.0905717,0.0905717,-0.177812,-5.14081e-13,-9.32669e-07,-2.95862e-07,0.161755,0.09480000198773308,-5.140332604014475e-13,-9.326685650457023e-07,0.09480000198773308,-2.95861956267629e-07,-0.16290021654424258
948,0.0949,846.531,885.832,0.000683371,-0.00140893,0.00192155,-0.000888614,0.090663,0.090663,-0.177994,-5.10356e-13,-9.38699e-07,-2.92129e-07,0.161922,0.09489996179101023,-5.103695244201845e-13,-9.386985594384001e-07,0.09489996179101023,-2.921289573576402e-07,-0.16305255484162606
949,0.095,846.669,885.979,0.000683111,-0.00142465,0.00192936,-0.000893074,0.0907544,0.0907544,-0.178176,-5.06559e-13,-9.44723e-07,-2.884e-07,0.16209,0.09500004022103248,-5.065947661364589e-13,-9.447225537417836e-07,0.09500004022103248,-2.8839995835916454e-07,-0.16320486541596213
950,0.0951,846.808,886.126,0.00068285,-0.00143983,0.00193717,-0.000897531,0.0908457,0.0908457,-0.178358,-5.02689e-13,-9.5074e-07,-2.84675e-07,0.162258,0.09510001828863412,-5.027089855502709e-13,-9.507395480889969e-07,0.09510001828863412,-2.846749594942466e-07,-0.1633571482722962
951,0.0952,846.947,886.273,0.000682589,-0.00145449,0.00194497,-0.000901984,0.090937,0.090937,-0.17854,8.67609e-13,-9.56751e-07,-2.80954e-07,0.162425,0.0952000054846498,8.675282714420973e-13,-9.567505423468958e-07,0.0952000054846498,-2.8095396054084176e-07,-0.16350940341567233
952,0.0953,847.086,886.419,0.000682329,-0.00146863,0.00195277,-0.000906433,0.0910283,0.0910283,-0.178723,-4.94736e-13,-9.62756e-07,-2.77236e-07,0.162593,0.09530000180991327,-4.947153797729698e-13,-9.627555365154805e-07,0.09530000180991327,-2.7723596152107177e-07,-0.16366246718908473
953,0.0954,847.224,886.565,0.000682069,-0.00148229,0.00196055,-0.000910879,0.0911196,0.0911196,-0.178905,-4.90653e-13,-9.68754e-07,-2.73522e-07,0.162761,0.0954000072652581,-4.906075545818567e-13,-9.68753530727895e-07,0.0954000072652581,-2.735219626348595e-07,-0.16381466676947443
954,0.0955,847.363,886.711,0.000681809,-0.00149548,0.00196834,-0.000915321,0.0912109,0.0912109,-0.179087,-4.86499e-13,-9.74747e-07,-2.69813e-07,0.162928,0.09550002185151785,-4.864997293907436e-13,-9.747465249398957e-07,0.09550002185151785,-2.6981296363803864e-07,-0.16396683865206096
955,0.0956,847.501,886.857,0.000681549,-0.0015082,0.00197612,-0.00091976,0.0913022,0.0913022,-0.179269,-4.82276e-13,-9.80733e-07,-2.66107e-07,0.163096,0.09560004556952606,-4.82280881897168e-13,-9.807325190847038e-07,0.09560004556952606,-2.661069645748526e-07,-0.16411898284188509
956,0.0957,847.639,887.003,0.00068129,-0.00152048,0.00198389,-0.000924195,0.0913934,0.0913934,-0.179451,-4.77984e-13,-9.86713e-07,-2.62405e-07,0.163263,0.09569996885011434,-4.779510121011299e-13,-9.8671251325122e-07,0.09569996885011434,-2.62404965534202e-07,-0.16427109934398632
957,0.0958,847.777,887.149,0.00068103,-0.00153233,0.00199166,-0.000928626,0.0914847,0.0914847,-0.179633,-4.73622e-13,-9.92687e-07,-2.58706e-07,0.163431,0.09580001082411704,-4.736211423050918e-13,-9.92686507328422e-07,0.09580001082411704,-2.5870596653820854e-07,-0.1644231881634033
958,0.0959,847.915,887.294,0.000680771,-0.00154375,0.00199942,-0.000933054,0.0915759,0.0915759,-0.179815,-4.69192e-13,-9.98654e-07,-2.55012e-07,0.163598,0.09589995234236826,-4.691802502065912e-13,-9.986535013384312e-07,0.09589995234236826,-2.550119674316065e-07,-0.16457524930517398
959,0.096,848.053,887.44,0.000680512,-0.00155478,0.00200717,-0.000937479,0.0916672,0.0916672,-0.179997,-4.64695e-13,-1.00462e-06,-2.51321e-07,0.163766,0.09600001257569724,-4.647393581080905e-13,-1.0046194953705623e-06,0.09600001257569724,-2.5132096836966156e-07,-0.16472728277433502
960,0.0961,848.191,887.585,0.000680253,-0.00156541,0.00201492,-0.0009419,0.0917584,0.0917584,-0.180178,-4.60129e-13,-1.01057e-06,-2.47635e-07,0.163933,0.09609997233493983,-4.600764214046649e-13,-1.010569489423574e-06,0.09609997233493983,-2.4763496930813034e-07,-0.16487845345479357
961,0.0962,848.328,887.73,0.000679994,-0.00157567,0.00202267,-0.000946317,0.0918497,0.0918497,-0.18036,-4.55497e-13,-1.01652e-06,-2.43952e-07,0.164101,0.09620005083092775,-4.555245070037017e-13,-1.0165194833655633e-06,0.09620005083092775,-2.4395197029125626e-07,-0.16503043174582077
962,0.0963,848.466,887.875,0.000679735,-0.00158555,0.00203041,-0.000950731,0.0919409,0.0919409,-0.180542,-4.50798e-13,-1.02246e-06,-2.40273e-07,0.164268,0.09630002883449129,-4.5075054799781356e-13,-1.0224594773067253e-06,0.09630002883449129,-2.402729711858953e-07,-0.16518238237931604
963,0.0964,848.603,888.02,0.000679476,-0.00159508,0.00203814,-0.000955142,0.0920321,0.0920321,-0.180724,-4.46033e-13,-1.0284e-06,-2.36597e-07,0.164436,0.09640001595646441,-4.460876112943879e-13,-1.0283994712478872e-06,0.09640001595646441,-2.3659697201416918e-07,-0.16533430536031235
964,0.0965,848.74,888.164,0.000679218,-0.00160427,0.00204587,-0.000959548,0.0921233,0.0921233,-0.180906,-4.41202e-13,-1.03433e-06,-2.32926e-07,0.164603,0.0965000121976789,-4.412026299860372e-13,-1.0343294650771995e-06,0.0965000121976789,-2.3292597284285677e-07,-0.16548620069384212
965,0.0966,848.877,888.309,0.00067896,-0.00161312,0.00205359,-0.000963952,0.0922145,0.0922145,-0.181088,-4.36306e-13,-1.04025e-06,-2.29258e-07,0.164771,0.09660001755896652,-4.363176486776865e-13,-1.0402494589056843e-06,0.09660001755896652,-2.292579737162015e-07,-0.16563806838493678
966,0.0967,849.014,888.453,0.000678702,-0.00162165,0.00206131,-0.000968352,0.0923057,0.0923057,-0.18127,-4.31344e-13,-1.04617e-06,-2.25595e-07,0.164938,0.09670003204115907,-4.313216450668733e-13,-1.0461694527341692e-06,0.09670003204115907,-2.2559497458995992e-07,-0.16578990843862662
967,0.0968,849.151,888.597,0.000678444,-0.00162987,0.00206902,-0.000972748,0.0923968,0.0923968,-0.181452,-4.26319e-13,-1.05208e-06,-2.21935e-07,0.165105,0.09679994596508812,-4.263256414560601e-13,-1.0520794465618266e-06,0.09679994596508812,-2.2193497539735318e-07,-0.1659417208599414
968,0.0969,849.288,888.741,0.000678186,-0.00163778,0.00207673,-0.000977141,0.092488,0.092488,-0.181633,-4.21229e-13,-1.05799e-06,-2.18278e-07,0.165273,0.09689997868158273,-4.212186155427844e-13,-1.0579894402784618e-06,0.09689997868158273,-2.182779761383813e-07,-0.16609267174699838
969,0.097,849.425,888.885,0.000677928,-0.0016454,0.00208443,-0.00098153,0.0925792,0.0925792,-0.181815,-4.16076e-13,-1.06389e-06,-2.14626e-07,0.16544,0.09700002052147694,-4.1611158962950867e-13,-1.0638894341052918e-06,0.09700002052147694,-2.146259769908454e-07,-0.16624442907040515
970,0.0971,849.561,889.029,0.000677671,-0.00165274,0.00209212,-0.000985916,0.0926703,0.0926703,-0.181997,-4.1086e-13,-1.06978e-06,-2.10977e-07,0.165607,0.09709996177560143,-4.1089354141377044e-13,-1.0697794278202721e-06,0.09709996177560143,-2.1097697777694435e-07,-0.16639615877649228
971,0.0972,849.698,889.173,0.000677413,-0.0016598,0.00209981,-0.000990299,0.0927615,0.0927615,-0.182179,-4.05581e-13,-1.07567e-06,-2.07333e-07,0.165775,0.09720002185478571,-4.055644708955697e-13,-1.0756694214242302e-06,0.09720002185478571,-2.073329784524347e-07,-0.1665478608702856
972,0.0973,849.834,889.316,0.000677156,-0.00166659,0.0021075,-0.000994678,0.0928526,0.0928526,-0.182361,-4.0024e-13,-1.08155e-06,-2.03692e-07,0.165942,0.09729998132986162,-4.0023540037736893e-13,-1.081549415138383e-06,0.09729998132986162,-2.036919792836045e-07,-0.16669953535681026
973,0.0974,849.97,889.459,0.000676899,-0.00167313,0.00211518,-0.000999053,0.0929437,0.0929437,-0.182542,-3.94837e-13,-1.08742e-06,-2.00054e-07,0.166109,0.09739994991166046,-3.9479530755670567e-13,-1.0874194087406863e-06,0.09739994991166046,-2.0005397993738683e-07,-0.16685034909185592
974,0.0975,850.107,889.603,0.000676643,-0.00167941,0.00212285,-0.00100343,0.0930349,0.0930349,-0.182724,-3.89372e-13,-1.09329e-06,-1.96421e-07,0.166277,0.0975000373510102,-3.893552147360424e-13,-1.0932894023429895e-06,0.0975000373510102,-1.9642098070260516e-07,-0.16700196853053384
975,0.0976,850.242,889.746,0.000676386,-0.00168546,0.00213052,-0.00100779,0.093126,0.093126,-0.182906,-3.83847e-13,-1.09916e-06,-1.92791e-07,0.166444,0.09760002415874292,-3.838040996129166e-13,-1.0991593959452928e-06,0.09760002415874292,-1.9279098140145834e-07,-0.1671535603769848
976,0.0977,850.378,889.888,0.000676129,-0.00169127,0.00213818,-0.00101216,0.0932171,0.0932171,-0.183087,-3.78261e-13,-1.10501e-06,-1.89165e-07,0.166611,0.09770002007568857,-3.7825298448979083e-13,-1.1050093894349189e-06,0.09770002007568857,-1.8916498212284694e-07,-0.16730429194093843
977,0.0978,850.514,890.031,0.000675873,-0.00169685,0.00214584,-0.00101652,0.0933082,0.0933082,-0.183269,-3.72614e-13,-1.11086e-06,-1.85543e-07,0.166778,0.09780002510267738,-3.7259084706420253e-13,-1.1108593830355673e-06,0.09780002510267738,-1.8554298275574865e-07,-0.16745582876953558
978,0.0979,850.65,890.174,0.000675617,-0.00170221,0.00215349,-0.00102088,0.0933993,0.0933993,-0.183451,-3.66908e-13,-1.11671e-06,-1.81925e-07,0.166946,0.09790003924053914,-3.6692870963861424e-13,-1.1167093765251934e-06,0.09790003924053914,-1.819249834111858e-07,-0.1676073380209394
979,0.098,850.785,890.316,0.000675361,-0.00170736,0.00216114,-0.00102523,0.0934903,0.0934903,-0.183632,-3.61143e-13,-1.12255e-06,-1.7831e-07,0.167113,0.09799995269010298,-3.611555499105634e-13,-1.1225493699029698e-06,0.09799995269010298,-1.7830998411128007e-07,-0.16775798745857218
980,0.0981,850.921,890.459,0.000675105,-0.0017123,0.00216878,-0.00102959,0.0935814,0.0935814,-0.183814,-3.55318e-13,-1.12838e-06,-1.747e-07,0.16728,0.09809998504219752,-3.552713678800501e-13,-1.1283793633909411e-06,0.09809998504219752,-1.7469998470076575e-07,-0.16790944172209865
981,0.0982,851.056,890.601,0.000674849,-0.00171705,0.00217641,-0.00103393,0.0936725,0.0936725,-0.183996,6.53339e-13,-1.1342e-06,-1.71093e-07,0.167447,0.09820002650765436,6.532552276894421e-13,-1.1341993567670627e-06,0.09820002650765436,-1.7109298533490858e-07,-0.16806086842345747
982,0.0983,851.191,890.743,0.000674594,-0.0017216,0.00218404,-0.00103828,0.0937635,0.0937635,-0.184177,6.44564e-13,-1.14002e-06,-1.67489e-07,0.167614,0.09829996725730172,6.445954880973659e-13,-1.1400193501431843e-06,0.09829996725730172,-1.6748898601370854e-07,-0.16821143577951603
983,0.0984,851.326,890.885,0.000674338,-0.00172596,0.00219167,-0.00104262,0.0938546,0.0938546,-0.184359,-3.37495e-13,-1.14584e-06,-1.6389e-07,0.167782,0.09840002694196825,-3.375077994860476e-13,-1.145839343519306e-06,0.09840002694196825,-1.638899865818999e-07,-0.16836280752295762
984,0.0985,851.461,891.027,0.000674083,-0.00173014,0.00219929,-0.00104696,0.0939456,0.0939456,-0.18454,-3.31439e-13,-1.15165e-06,-1.60294e-07,0.167949,0.09849998589248332,-3.3140157285060923e-13,-1.1516493368946001e-06,0.09849998589248332,-1.602939871947484e-07,-0.16851332023298482
985,0.0986,851.596,891.168,0.000673828,-0.00173414,0.0022069,-0.00105129,0.0940366,0.0940366,-0.184722,-3.25325e-13,-1.15745e-06,-1.56702e-07,0.168116,0.09859995393967669,-3.2529534621517087e-13,-1.1574493301580446e-06,0.09859995393967669,-1.5670198771911004e-07,-0.16866463703845547
986,0.0987,851.731,891.31,0.000673573,-0.00173798,0.00221451,-0.00105562,0.0941277,0.0941277,-0.184903,-3.19155e-13,-1.16324e-06,-1.53114e-07,0.168283,0.09870004095437479,-3.191891195797325e-13,-1.1632393234206617e-06,0.09870004095437479,-1.5311398826600708e-07,-0.1688150951222842
987,0.0988,851.865,891.451,0.000673319,-0.00174165,0.00222211,-0.00105995,0.0942187,0.0942187,-0.185085,-3.12929e-13,-1.16903e-06,-1.49529e-07,0.16845,0.09880002720740722,-3.1297187064183163e-13,-1.1690293166832788e-06,0.09880002720740722,-1.4952898885756127e-07,-0.16896635700972262
988,0.0989,852.0,891.592,0.000673064,-0.00174516,0.00222971,-0.00106427,0.0943097,0.0943097,-0.185266,-3.06647e-13,-1.17482e-06,-1.45948e-07,0.168617,0.09890002255960262,-3.0664359940146824e-13,-1.174819309945896e-06,0.09890002255960262,-1.4594798936062858e-07,-0.1691167604871785
989,0.099,852.134,891.734,0.00067281,-0.00174851,0.0022373,-0.00106859,0.0944007,0.0944007,-0.185448,-3.0031e-13,-1.18059e-06,-1.42371e-07,0.168784,0.099000027011789,-3.0031532816110484e-13,-1.1805893030958359e-06,0.099000027011789,-1.4237098988623131e-07,-0.1692679674765164
990,0.0991,852.268,891.875,0.000672555,-0.00175172,0.00224489,-0.00107291,0.0944917,0.0944917,-0.185629,-2.93917e-13,-1.18637e-06,-1.38798e-07,0.168951,0.09910004056479482,-2.9387603461827894e-13,-1.1863692962466033e-06,0.09910004056479482,-1.3879799032334716e-07,-0.1694183163674181
991,0.0992,852.403,892.015,0.000672301,-0.00175478,0.00225247,-0.00107722,0.0945826,0.0945826,-0.185811,-2.8747e-13,-1.19213e-06,-1.35228e-07,0.169118,0.0991999532994472,-2.8743674107545303e-13,-1.1921292893957158e-06,0.0991999532994472,-1.3522799080512016e-07,-0.1695694684785799
992,0.0993,852.537,892.156,0.000672047,-0.0017577,0.00226005,-0.00108153,0.0946736,0.0946736,-0.185992,-2.80969e-13,-1.19789e-06,-1.31662e-07,0.169285,0.09929998504657278,-2.809974475326271e-13,-1.1978892825448284e-06,0.09929998504657278,-1.3166199130942857e-07,-0.1697197628027386
993,0.0994,852.67,892.297,0.000671794,-0.00176048,0.00226762,-0.00108584,0.0947646,0.0947646,-0.186173,-2.74414e-13,-1.20364e-06,-1.281e-07,0.169452,0.09940002589700181,-2.744471316873387e-13,-1.2036392755820913e-06,0.09940002589700181,-1.280999918362724e-07,-0.16987002992608646
994,0.0995,852.804,892.437,0.00067154,-0.00176313,0.00227518,-0.00109015,0.0948555,0.0948555,-0.186355,-2.67805e-13,-1.20939e-06,-1.24541e-07,0.169619,0.09949996590156007,-2.6778579353958776e-13,-1.2093892687303764e-06,0.09949996590156007,-1.2454099229675109e-07,-0.1700210998328613
995,0.0996,852.938,892.577,0.000671287,-0.00176565,0.00228275,-0.00109445,0.0949465,0.0949465,-0.186536,-2.61143e-13,-1.21513e-06,-1.20986e-07,0.169786,0.0996000249510749,-2.611244553918368e-13,-1.215129261766812e-06,0.0996000249510749,-1.2098599266874288e-07,-0.1701713124191424
996,0.0997,853.071,892.718,0.000671033,-0.00176805,0.0022903,-0.00109874,0.0950374,0.0950374,-0.186718,-2.54428e-13,-1.22087e-06,-1.17435e-07,0.169953,0.09969998313637363,-2.544631172440859e-13,-1.220869254692225e-06,0.09969998313637363,-1.174349930632701e-07,-0.1703223274974932
997,0.0998,853.205,892.858,0.00067078,-0.00177034,0.00229785,-0.00110304,0.0951283,0.0951283,-0.186899,5.03733e-13,-1.2266e-06,-1.13888e-07,0.17012,0.09979995040828449,5.03819208574896e-13,-1.2265992477278331e-06,0.09979995040828449,-1.1388799348033274e-07,-0.17047248556650096
998,0.0999,853.338,892.998,0.000670527,-0.0017725,0.0023054,-0.00110733,0.0952193,0.0952193,-0.18708,-2.40842e-13,-1.23232e-06,-1.10344e-07,0.170287,0.09990003675763148,-2.4080737404119645e-13,-1.2323192406515915e-06,0.09990003675763148,-1.1034399394205252e-07,-0.17062261645935772
999,0.1,853.471,893.137,0.000670275,-0.00177455,0.00231294,-0.00111161,0.0953102,0.0953102,-0.187262,-2.33971e-13,-1.23804e-06,-1.06804e-07,0.170454,0.10000002221524285,-2.339239912885205e-13,-1.2380392335753498e-06,0.10000002221524285,-1.0680399431528542e-07,-0.17077354940784717
