,Time,S11,S22,S33,S12,S13,S23,LE11,LE22,LE33,LE12,LE13,LE23,SDV_EPBAR,E11,E12,E13,E22,E23,E33
0,1e-05,2.96779,2.96779,-3.9968e-15,0.0,0.0,-2.22312e-38,9.99995e-06,9.99995e-06,-8.57139e-06,0.0,0.0,0.0,0.0,9.999999999621423e-06,0.0,0.0,9.999999999621423e-06,0.0,-8.571353265707238e-06
1,2e-05,5.93554,5.93554,-3.10862e-15,0.0,0.0,-4.44622e-38,1.99998e-05,1.99998e-05,-1.71427e-05,0.0,0.0,0.0,0.0,1.9999999997244444e-05,0.0,0.0,1.9999999997244444e-05,0.0,-1.714255306473067e-05
2,3.5e-05,10.3871,10.3871,-1.73195e-14,0.0,0.0,-8.33656e-38,3.49994e-05,3.49994e-05,-2.99995e-05,0.0,0.0,0.0,0.0,3.5000012486241516e-05,0.0,0.0,3.5000012486241516e-05,0.0,-2.9999050019546836e-05
3,5.75e-05,17.0644,17.0644,-7.9492e-14,0.0,0.0,-1.8757e-37,5.74983e-05,5.74983e-05,-4.92843e-05,0.0,0.0,0.0,0.0,5.749995305892597e-05,0.0,0.0,5.749995305892597e-05,0.0,-4.928308554885685e-05
4,9.125e-05,27.0799,27.0799,-4.11671e-13,0.0,0.0,-4.22022e-37,9.12458e-05,9.12458e-05,-7.82107e-05,0.0,0.0,0.0,0.0,9.124996302456445e-05,0.0,0.0,9.124996302456445e-05,0.0,-7.820764162291827e-05
5,0.00014188,42.1027,42.1027,-2.06191e-12,0.0,0.0,-9.49518e-37,0.000141865,0.000141865,-0.000121599,0.0,0.0,0.0,0.0,0.00014187506331508892,0.0,0.0,0.00014187506331508892,0.0,-0.00012159160714120265
6,0.00021781,64.6354,64.6354,-1.04285e-11,0.0,0.0,-2.1363e-36,0.000217789,0.000217789,-0.000186676,0.0,0.0,0.0,0.0,0.0002178127177461242,0.0,0.0,0.0002178127177461242,0.0,-0.00018665857711963607
7,0.00033172,98.4312,98.4312,-5.28479e-11,0.0,0.0,-4.8063e-36,0.000331664,0.000331664,-0.000284283,0.0,0.0,0.0,0.0,0.0003317190065854625,0.0,0.0,0.0003317190065854625,0.0,-0.00028424259541681707
8,0.00050258,149.118,149.118,-2.67432e-10,0.0,0.0,-1.08129e-35,0.000502452,0.000502452,-0.000430673,0.0,0.0,0.0,0.0,0.0005025782501502096,0.0,0.0,0.0005025782501502096,0.0,-0.00043058027369557994
9,0.00075887,225.131,225.131,-1.35321e-09,0.0,0.0,-2.43248e-35,0.000758579,0.000758579,-0.000650211,0.0,0.0,0.0,0.0,0.0007588667938165372,0.0,0.0,0.0007588667938165372,0.0,-0.0006499996586357693
10,0.0011433,339.115,339.115,-6.84461e-09,0.0,0.0,-5.47162e-35,0.00114265,0.00114265,-0.000979412,0.0,0.0,0.0,0.0,0.0011433030732321825,0.0,0.0,0.0011433030732321825,0.0,-0.0009789325326119425
11,0.00172,432.363,435.522,-0.326613,0.00728735,0.0288763,-0.0779551,0.00171847,0.00171847,-0.00176712,2.39018e-11,-6.20234e-07,2.68647e-07,0.000461851,0.001719947415747436,2.390176945255007e-11,-6.202338076466418e-07,0.001719947415747436,2.6864703617235364e-07,-0.0017655595627481535
12,0.0022966,451.024,459.513,-0.497921,0.0387706,0.070186,-0.159395,0.00229397,0.00229397,-0.00283887,-1.37543e-11,-4.88134e-06,5.72784e-06,0.00137144,0.0022966031622606575,-1.375433100747614e-11,-4.881328086292491e-06,0.0022966031622606575,5.727856404069698e-06,-0.002834844219018917
13,0.0027291,462.856,474.817,-0.417906,0.0425798,0.074433,-0.153439,0.00272537,0.00272537,-0.00365005,-7.51205e-11,-6.04132e-06,7.32674e-06,0.0020677,0.002729087196963631,-7.512046540369965e-11,-6.041301751302797e-06,0.002729087196963631,7.326766840565213e-06,-0.003643396664962273
14,0.0031616,473.332,488.347,-0.288285,0.0435219,0.0846648,-0.140572,0.00315659,0.00315659,-0.0044666,4.66498e-11,-6.75173e-06,8.57363e-06,0.00277309,0.003161577276429073,4.664979513790968e-11,-6.7517072070977235e-06,0.003161577276429073,8.573666753664e-06,-0.004456639577479327
15,0.0038103,486.445,505.798,-0.577431,0.0524728,0.0902927,-0.197082,0.00380307,0.00380307,-0.00570264,7.96684e-11,-9.04905e-06,1.09305e-05,0.00384602,0.0038103108469518254,7.966849402407661e-11,-9.049009057515711e-06,0.0038103108469518254,1.0930559738220325e-05,-0.005686410812907217
16,0.0040536,491.933,512.274,0.165937,0.048351,0.125895,-0.0914531,0.00404539,0.00404539,-0.00616289,-4.88255e-12,-8.50779e-06,1.2253e-05,0.00424861,0.004053583635216906,-4.8825388176965134e-12,-8.507753808895124e-06,0.004053583635216906,1.2253075068358044e-05,-0.006143938345730571
17,0.0044185,498.756,520.704,0.363817,0.0444688,0.136551,-0.0660626,0.00440876,0.00440876,-0.00686007,1.46378e-11,-8.38729e-06,1.28752e-05,0.00485816,0.004418492880423619,1.463784649047284e-11,-8.387254826769386e-06,0.004418492880423619,1.287528288584916e-05,-0.006836593434101479
18,0.0049659,506.653,531.209,-0.721871,0.0432028,0.0783551,-0.218364,0.00495357,0.00495357,-0.00791686,3.18822e-11,-9.81881e-06,1.15776e-05,0.00578215,0.004965859211316204,3.188227459816062e-11,-9.818761795621356e-06,0.004965859211316204,1.1577667020645777e-05,-0.007885604200853713
19,0.0051711,511.033,536.03,0.315158,0.0400847,0.141546,-0.0770172,0.0051578,0.0051578,-0.00830563,3.3515e-11,-8.87647e-06,1.32992e-05,0.00612521,0.005171124348678946,3.3514968578174376e-11,-8.87643060420995e-06,0.005171124348678946,1.3299288434742706e-05,-0.00827123354909065
20,0.005479,515.819,541.665,0.345858,0.0365971,0.140184,-0.0725701,0.00546406,0.00546406,-0.00889811,-5.99145e-11,-8.74923e-06,1.33945e-05,0.00664597,0.005479015202141779,-5.991451779152612e-11,-8.74919172555444e-06,0.005479015202141779,1.33945897067278e-05,-0.008858638978469835
21,0.0059409,521.722,549.143,-0.313151,0.0338758,0.0973432,-0.160548,0.00592328,0.00592328,-0.00979228,1.70994e-11,-9.4173e-06,1.23991e-05,0.00743185,0.005940857310953174,1.7099432980671736e-11,-9.417255657395707e-06,0.005940857310953174,1.2399176869237749e-05,-0.00974449173875025
22,0.0066336,529.988,560.209,-0.796059,0.0345992,0.0803075,-0.227602,0.00661172,0.00661172,-0.0111334,-1.1278e-10,-1.04636e-05,1.22796e-05,0.00861357,0.0066336256721242215,-1.127800075551022e-10,-1.0463545256689244e-05,0.0066336256721242215,1.2279675394522016e-05,-0.011071653065770515
23,0.0068836,534.429,564.848,0.3341,0.0317941,0.145464,-0.0776975,0.00686004,0.00686004,-0.0116105,-2.99414e-11,-9.46329e-06,1.40972e-05,0.00903679,0.006883623972555375,-2.994138270651092e-11,-9.463245223217953e-06,0.006883623972555375,1.4097299366078175e-05,-0.011543358245874491
24,0.0072586,539.242,570.293,0.501091,0.0288521,0.152783,-0.0558978,0.00723241,0.00723241,-0.0123352,-2.65872e-11,-9.16925e-06,1.44482e-05,0.00967765,0.007258627043227772,-2.65871769045134e-11,-9.16920796256715e-06,0.007258627043227772,1.4448304375802579e-05,-0.01225943327302792
25,0.0078211,544.531,577.076,-0.540288,0.0270454,0.0873852,-0.192103,0.0077907,0.0077907,-0.0134308,6.20118e-11,-1.01615e-05,1.27516e-05,0.0106452,0.007821126466410755,6.201172908504304e-11,-1.0161448372181248e-05,0.007821126466410755,1.2751681301992335e-05,-0.013341009242429758
26,0.0080321,547.877,580.401,0.278318,0.0251094,0.141801,-0.0856796,0.00799997,0.00799997,-0.0138349,4.66353e-11,-9.31291e-06,1.40001e-05,0.0110045,0.0080320552633113,4.663536223858955e-11,-9.312866634969552e-06,0.0080320552633113,1.4000198001795638e-05,-0.013739637592312337
27,0.0083485,551.436,584.212,0.264753,0.0228922,0.137608,-0.0867931,0.00831381,0.00831381,-0.0144485,-8.68375e-12,-9.16898e-06,1.39154e-05,0.0115481,0.00834846569206249,-8.683720409408124e-12,-9.1689379649873e-06,0.00834846569206249,1.391549681972748e-05,-0.014344621322695539
28,0.0088231,555.947,589.586,-0.129075,0.0210417,0.109419,-0.137045,0.00878438,0.00878438,-0.0153715,1.25999e-11,-9.44013e-06,1.32128e-05,0.0123658,0.008823075889465626,1.2599921106470902e-11,-9.440085442125046e-06,0.008823075889465626,1.3212887289393294e-05,-0.01525396151215952
29,0.009535,563.29,598.953,0.696531,0.0212189,0.155173,-0.0316575,0.00948982,0.00948982,-0.0167489,2.78271e-10,-8.91457e-06,1.53365e-05,0.0135894,0.0095349911173368,2.7827096182875266e-10,-8.914530265302645e-06,0.0095349911173368,1.5336617604777558e-05,-0.01660941698908469
30,0.009785,564.909,600.44,-0.309943,0.0195441,0.092566,-0.160893,0.00973743,0.00973743,-0.0172401,3.64381e-10,-9.58411e-06,1.35089e-05,0.014024,0.009784993026696442,3.6438096984170443e-10,-9.584064072587495e-06,0.009784993026696442,1.3508991245636537e-05,-0.017092339827900593
31,0.01016,568.398,604.121,-0.432365,0.0177864,0.086252,-0.176395,0.0101087,0.0101087,-0.0179692,4.8245e-11,-9.56064e-06,1.30455e-05,0.0146716,0.010159965504766166,4.82449635796911e-11,-9.560594297242098e-06,0.010159965504766166,1.3045585092852363e-05,-0.017808716616039222
32,0.010722,574.18,610.844,0.495371,0.016707,0.147412,-0.0581621,0.0106654,0.0106654,-0.0190569,6.66144e-10,-8.59876e-06,1.47194e-05,0.01564,0.010722478118420975,6.661440288269205e-10,-8.598723030717181e-06,0.010722478118420975,1.4719508330873765e-05,-0.01887646527459763
33,0.010933,575.524,611.974,-0.224739,0.0155496,0.0973785,-0.14939,0.0108741,0.0108741,-0.0194708,3.83492e-10,-9.11356e-06,1.34037e-05,0.016007,0.010933437912493238,3.83491904898392e-10,-9.113518471659532e-06,0.010933437912493238,1.3403789830057633e-05,-0.019282468277502907
34,0.01125,578.386,614.821,-0.22531,0.0142411,0.0988205,-0.149467,0.011187,0.011187,-0.0200858,2.3218e-10,-8.95612e-06,1.31859e-05,0.0165541,0.011249808478809964,2.321800529614393e-10,-8.956079894040236e-06,0.011249808478809964,1.31859869343387e-05,-0.019885424131582674
35,0.011724,582.686,619.638,0.186364,0.0131889,0.128179,-0.0971676,0.0116562,0.0116562,-0.0210059,-2.47508e-10,-8.38649e-06,1.3778e-05,0.0173737,0.011724398218994514,-2.475080140840191e-10,-8.386454833475554e-06,0.011724398218994514,1.3778094916983008e-05,-0.020786812805388077
36,0.012436,587.168,625.762,-0.484473,0.0135337,0.0881915,-0.182671,0.0123597,0.0123597,-0.0223939,1.63401e-09,-8.99114e-06,1.26319e-05,0.0186084,0.012436396749259782,1.6340100383871459e-09,-8.991099579858108e-06,0.012436396749259782,1.2631979782851133e-05,-0.022145017896827324
37,0.012686,590.068,628.39,0.261438,0.0125241,0.137388,-0.087994,0.0126066,0.0126066,-0.0228756,2.85938e-10,-8.19142e-06,1.37145e-05,0.0190389,0.012686398157021106,2.8593793999220907e-10,-8.191386450362437e-06,0.012686398157021106,1.3714594044200723e-05,-0.022615937211683534
38,0.013061,593.069,631.398,0.288339,0.0114811,0.136222,-0.0841838,0.0129768,0.0129768,-0.0236045,1.4898e-09,-7.97533e-06,1.36668e-05,0.0196884,0.01306136406352576,1.4898000610941153e-09,-7.975298197182568e-06,0.01306136406352576,1.3666893391217627e-05,-0.023328092878386886
39,0.013624,596.641,635.686,-0.116505,0.0109532,0.107237,-0.134633,0.0135319,0.0135319,-0.0247004,1.38293e-09,-8.20272e-06,1.28915e-05,0.0206646,0.013623870535944826,1.3829299927436978e-09,-8.202686357816624e-06,0.013623870535944826,1.2891583095697712e-05,-0.024397841345665028
40,0.014468,602.835,643.999,0.945557,0.0123205,0.164707,-0.00167845,0.014364,0.0143639,-0.0263348,1.3878e-09,-7.34993e-06,1.53693e-05,0.0221239,0.014467657967692782,1.3878000970635185e-09,-7.349902989339796e-06,0.014467556520932012,1.5369418108202026e-05,-0.025991063178228524
41,0.014718,603.535,644.282,-0.367288,0.0114024,0.0832137,-0.166611,0.0146104,0.0146104,-0.0268283,-3.81595e-11,-8.26584e-06,1.30832e-05,0.022562,0.014717653596812763,-3.8159475579391255e-11,-8.265805838014728e-06,0.014717653596812763,1.3083285585357984e-05,-0.02647161800189446
42,0.015093,606.111,646.67,-0.514711,0.0104435,0.0750743,-0.185051,0.0149798,0.0149798,-0.027558,1.21739e-09,-8.26217e-06,1.25355e-05,0.023213,0.01509255953891575,1.2173899666123589e-09,-8.262135868353226e-06,0.01509255953891575,1.2535578569616845e-05,-0.02718174254179051
43,0.015655,610.819,651.835,0.603107,0.00989661,0.152729,-0.0444146,0.0155338,0.0155338,-0.0286449,-2.85876e-10,-6.99032e-06,1.43876e-05,0.024185,0.015655076619744523,-2.85875989547435e-10,-6.990295567721461e-06,0.015655076619744523,1.4387703501927973e-05,-0.02823852429374285
44,0.016499,615.739,658.6,0.924487,0.0109675,0.163083,-0.00571899,0.0163642,0.0163642,-0.0302829,1.10931e-09,-6.65887e-06,1.55419e-05,0.025648,0.016498826871989225,1.1093099772097048e-09,-6.658847829799086e-06,0.016498826871989225,1.5542020775916043e-05,-0.02982896666304702
45,0.017132,618.004,661.333,-0.587627,0.0105055,0.0763078,-0.195405,0.0169866,0.0169866,-0.031521,1.01761e-09,-7.70468e-06,1.28134e-05,0.0267513,0.017131692669240417,1.0176099962677654e-09,-7.704650319073636e-06,0.017131692669240417,1.2813482092033368e-05,-0.031029392142684853
46,0.017764,621.6,665.337,-0.655562,0.0100623,0.0709393,-0.203611,0.0176085,0.0176085,-0.0327505,-3.83137e-10,-7.73881e-06,1.23234e-05,0.0278498,0.017764443602420688,-3.8313696659741936e-10,-7.738780055444039e-06,0.017764443602420688,1.2323475933495587e-05,-0.032220009423087226
47,0.018002,624.164,667.37,0.228125,0.00936446,0.131963,-0.092968,0.0178417,0.0178417,-0.0332062,9.07182e-10,-6.80944e-06,1.36016e-05,0.0282587,0.018001813946975087,9.07182107212634e-10,-6.8094168158561175e-06,0.018001813946975087,1.3601692502085427e-05,-0.03266092629425388
48,0.018358,626.501,669.328,0.271559,0.00860241,0.132756,-0.0871128,0.0181913,0.0181913,-0.0338971,8.55703e-10,-6.57652e-06,1.35549e-05,0.0288764,0.01835776959855351,8.557030639622099e-10,-6.57649837476626e-06,0.01835776959855351,1.3554991868058863e-05,-0.03332903003726295
49,0.018892,629.141,672.126,-0.0996408,0.00809913,0.104679,-0.132486,0.0187154,0.0187154,-0.0349357,8.03213e-10,-6.74791e-06,1.27724e-05,0.0298043,0.01889163079170575,8.03213051625562e-10,-6.747887232871896e-06,0.01889163079170575,1.2772481567502325e-05,-0.03433249331798238
50,0.019693,633.959,678.308,0.928783,0.00871527,0.164741,-0.00344425,0.0195012,0.0195012,-0.0364842,7.54137e-10,-5.68365e-06,1.48569e-05,0.0311906,0.01969259049103278,7.541369750896365e-10,-5.683633848119207e-06,0.01969259049103278,1.4857010364188739e-05,-0.03582667228544556
51,0.019943,634.335,678.155,-0.347464,0.00809777,0.0806617,-0.163095,0.0197463,0.0197463,-0.0369765,7.3979e-10,-6.63682e-06,1.26455e-05,0.0316288,0.01994254777597604,7.397900070316155e-10,-6.636797976411479e-06,0.01994254777597604,1.2645579954728703e-05,-0.036301217995668655
52,0.020318,636.424,679.894,-0.465063,0.00745681,0.0742549,-0.177765,0.0201139,0.0201139,-0.0377046,6.94391e-10,-6.6053e-06,1.21565e-05,0.03228,0.020317547577279216,6.943909891532485e-10,-6.605278185078944e-06,0.020317547577279216,1.2156573890642619e-05,-0.03700263169820095
53,0.02088,640.281,683.984,0.538934,0.0071185,0.146329,-0.0523512,0.0206651,0.0206651,-0.0387897,1.15331e-10,-5.3954e-06,1.37393e-05,0.0332525,0.020880101635159187,1.1533107802108589e-10,-5.395385444861844e-06,0.020880101635159187,1.3739394384648662e-05,-0.03804701341077221
54,0.021724,644.202,689.461,0.907241,0.00797084,0.160671,-0.00762082,0.0214912,0.0214912,-0.0404234,5.86378e-10,-4.91549e-06,1.47718e-05,0.0347148,0.021723799128388288,5.863780572212818e-10,-4.9154779190319076e-06,0.021723799128388288,1.4771909103483694e-05,-0.03961727298917772
55,0.022568,646.221,692.782,-0.629841,0.0086149,0.0738256,-0.198419,0.0223167,0.0223167,-0.0420672,5.67682e-10,-6.05567e-06,1.20712e-05,0.0361833,0.022567580347350846,5.676819014865941e-10,-6.055651664449435e-06,0.022567580347350846,1.2071272857294701e-05,-0.04119465331176719
56,0.023411,651.263,698.868,0.888867,0.00906287,0.15979,-0.0105799,0.0231415,0.0231415,-0.0436926,5.18916e-10,-4.66818e-06,1.48586e-05,0.037641,0.023411342007095826,5.189160212637489e-10,-4.6681691040495465e-06,0.023411342007095826,1.4858710389642482e-05,-0.04275182966222557
57,0.024044,654.155,701.722,0.790824,0.00858974,0.159706,-0.0230594,0.0237596,0.0237596,-0.0449181,4.66064e-10,-4.31509e-06,1.48355e-05,0.0387382,0.024044108093803862,4.660640762210733e-10,-4.315080689987205e-06,0.024044108093803862,1.4835610046670666e-05,-0.04392421876682129
58,0.024677,656.024,703.59,-0.252802,0.00817107,0.0915087,-0.151904,0.0243774,0.0243774,-0.0461485,4.61612e-10,-5.0292e-06,1.29466e-05,0.0398384,0.02467695801099512,4.616120818923264e-10,-5.029187353566833e-06,0.02467695801099512,1.2946683807690818e-05,-0.045099851010779846
59,0.024914,657.891,704.794,0.209495,0.00762724,0.125927,-0.0955376,0.024609,0.024609,-0.0466049,4.22797e-10,-4.44606e-06,1.35441e-05,0.040248,0.024914300677690404,4.227969085945915e-10,-4.446050116291289e-06,0.024914300677690404,1.3544191721726051e-05,-0.0455355680005981
60,0.02527,659.233,705.566,-0.334363,0.00702306,0.0802997,-0.161638,0.0249562,0.0249562,-0.0472963,4.21909e-10,-4.89606e-06,1.24525e-05,0.0408665,0.02527021270563834,4.219089522194963e-10,-4.896048014346732e-06,0.02527021270563834,1.2452577532684472e-05,-0.04619525662824442
61,0.025804,661.507,707.729,-0.469349,0.00659639,0.0737737,-0.178257,0.0254768,0.0254768,-0.0483294,3.91666e-10,-4.86457e-06,1.18849e-05,0.0417917,0.02580410733908778,3.916660329394972e-10,-4.8645581679496175e-06,0.02580410733908778,1.1884970625652969e-05,-0.04718012348805001
62,0.026605,665.837,713.071,0.938072,0.00699508,0.163062,-0.0026133,0.0262573,0.0262573,-0.0498691,3.20327e-10,-3.37886e-06,1.44341e-05,0.0431736,0.026605059975971956,3.203270981799733e-10,-3.378854291691269e-06,0.026605059975971956,1.443420417213126e-05,-0.04864605141769551
63,0.026855,665.908,712.536,-0.368046,0.00652059,0.0738642,-0.164629,0.0265008,0.0265008,-0.0503595,3.49775e-10,-4.40866e-06,1.21959e-05,0.0436108,0.02685506874540855,3.497750977743408e-10,-4.408650281839677e-06,0.02685506874540855,1.2195974370188267e-05,-0.04911248101619503
64,0.02723,667.645,713.803,-0.441277,0.00602411,0.0708701,-0.173871,0.0268659,0.0268659,-0.0510841,3.28026e-10,-4.33887e-06,1.17863e-05,0.0442601,0.027230041978205888,3.280260507665389e-10,-4.338860587149718e-06,0.027230041978205888,1.1786369458643975e-05,-0.049801244543288825
65,0.027793,670.843,717.059,0.471098,0.0057545,0.138403,-0.0606103,0.0274134,0.0274134,-0.0521649,-1.47426e-10,-3.19791e-06,1.31642e-05,0.0452303,0.027792604413602984,-1.4742596032846222e-10,-3.1979048866759285e-06,0.027792604413602984,1.3164286648548185e-05,-0.05082766458088217
66,0.028636,672.208,719.754,-0.907558,0.00640646,0.0517617,-0.231532,0.028234,0.028234,-0.053801,2.79062e-10,-4.35928e-06,1.0503e-05,0.0466942,0.028636357169192994,2.7906210675610055e-10,-4.359270498355272e-06,0.028636357169192994,1.0503055156707575e-05,-0.052379335748133915
67,0.028886,674.819,721.774,0.420679,0.00598517,0.142478,-0.067276,0.028477,0.028477,-0.0542756,2.29768e-10,-3.04496e-06,1.24887e-05,0.047122,0.028886346176419275,2.2976798241813867e-10,-3.044955364073232e-06,0.028886346176419275,1.2488777984209776e-05,-0.052828969808785486
68,0.029261,676.517,723.014,0.409685,0.005542,0.137279,-0.0681742,0.0288414,0.0288414,-0.0549988,2.12428e-10,-2.87601e-06,1.23852e-05,0.0477704,0.029261340680815096,2.1242807513033313e-10,-2.876005864238529e-06,0.029261340680815096,1.2385276696891268e-05,-0.053513716263657085
69,0.029824,678.151,724.721,-0.106616,0.00531687,0.0972051,-0.130907,0.0293877,0.0293877,-0.0560861,2.12441e-10,-3.19757e-06,1.13575e-05,0.0487443,0.02982377976747763,2.1244095371741878e-10,-3.19756488775802e-06,0.02982377976747763,1.1357564496661254e-05,-0.05454227152456437
70,0.030668,681.701,729.569,0.900677,0.00595055,0.157442,-0.00670164,0.0302067,0.0302067,-0.0577061,1.57262e-10,-2.08655e-06,1.32519e-05,0.0501984,0.030667550920230102,1.572619812151288e-10,-2.0865478231879564e-06,0.030667550920230102,1.3251987806883747e-05,-0.05607267308473207
71,0.030918,681.734,729.019,-0.30724,0.00555947,0.0765264,-0.155351,0.0304492,0.0304492,-0.0581945,1.90144e-10,-3.01092e-06,1.11959e-05,0.0506343,0.030917518108624975,1.901439006246619e-10,-3.010915467172026e-06,0.030917518108624975,1.1195962674293014e-05,-0.0565335746298784
72,0.031293,683.275,730.111,-0.38662,0.00515559,0.0724474,-0.165248,0.0308129,0.0308129,-0.058917,1.77584e-10,-2.95162e-06,1.07972e-05,0.0512821,0.031292531001921864,1.7758394754707751e-10,-2.9516156440090313e-06,0.031292531001921864,1.0797258289896305e-05,-0.05721498293381688
73,0.031855,686.119,733.021,0.436416,0.00496004,0.133989,-0.0631976,0.0313582,0.0313582,-0.0599949,1.24685e-10,-1.89553e-06,1.20181e-05,0.0522503,0.03185504817544582,1.2468492904815776e-10,-1.895528203510466e-06,0.03185504817544582,1.2018172217631573e-05,-0.05823066340438232
74,0.032699,688.92,737.119,0.865185,0.00558831,0.154228,-0.010889,0.0321756,0.0321756,-0.0616156,8.93541e-11,-1.29174e-06,1.29757e-05,0.0537045,0.032698831299006414,8.935407969090647e-11,-1.2917391657429889e-06,0.032698831299006414,1.297578418468781e-05,-0.05975575277820344
75,0.033699,690.0,740.149,-0.582382,0.00682243,0.0707094,-0.188431,0.0331434,0.0331434,-0.0635465,1.30906e-10,-2.41801e-06,1.04692e-05,0.0554337,0.033698761015879874,1.3090595274434236e-10,-2.418007076565587e-06,0.033698761015879874,1.0469254802192296e-05,-0.06156951873129135
76,0.033949,692.106,741.553,0.309847,0.00637596,0.129962,-0.0799489,0.0333853,0.0333853,-0.0640216,-6.76996e-11,-1.51732e-06,1.17413e-05,0.0558616,0.033948842992365336,-6.769962368480265e-11,-1.5173188488981637e-06,0.033948842992365336,1.1741368929341078e-05,-0.062015261158444135
77,0.034324,693.655,742.486,0.261475,0.00588839,0.122772,-0.0855717,0.0337479,0.0337479,-0.0647422,8.23232e-11,-1.40447e-06,1.15461e-05,0.0565081,0.03432382082220631,8.232325932056028e-11,-1.4044690137549054e-06,0.03432382082220631,1.1546166656550838e-05,-0.06269092948871646
78,0.034886,695.389,744.078,0.0185579,0.00557427,0.10304,-0.114454,0.0342916,0.0342916,-0.0658237,7.97188e-11,-1.45327e-06,1.09836e-05,0.057478,0.03488633558936982,7.971889814939459e-11,-1.4532689439628044e-06,0.03488633558936982,1.0983660319929811e-05,-0.06370408128788685
79,0.03573,698.364,748.086,0.716731,0.00601653,0.145166,-0.0275875,0.0351065,0.0351065,-0.067439,3.61826e-11,-6.03563e-07,1.22949e-05,0.0589284,0.035730008171947825,3.61826124617437e-11,-6.03562817835801e-07,0.035730008171947825,1.2294975582527456e-05,-0.06521525925391858
80,0.03673,699.302,750.732,-0.737789,0.00704858,0.0600794,-0.206458,0.0360716,0.0360716,-0.0693651,8.16297e-11,-1.77972e-06,9.67205e-06,0.0606541,0.03673007370683501,8.162959197477448e-11,-1.7797184163059754e-06,0.03673007370683501,9.67209677438241e-06,-0.06701401529496975
81,0.03698,701.566,752.245,0.349876,0.00659051,0.132316,-0.0742463,0.0363127,0.0363127,-0.069838,3.78774e-11,-7.14709e-07,1.12513e-05,0.0610804,0.03698005946217764,3.7877478931136466e-11,-7.147087446313094e-07,0.03698005946217764,1.1251363296160832e-05,-0.06745512005969456
82,0.037355,703.067,753.059,0.308989,0.006081,0.125383,-0.078919,0.0366743,0.0366743,-0.0705567,3.07875e-11,-5.95885e-07,1.10806e-05,0.0617255,0.03735509925478708,3.0787594695880216e-11,-5.95884822485182e-07,0.03735509925478708,1.1080661389994972e-05,-0.06812509927903654
83,0.037918,704.636,754.388,-0.0156868,0.00572379,0.0992419,-0.117771,0.0372164,0.0372164,-0.071636,3.50659e-11,-7.35284e-07,1.03824e-05,0.0626936,0.0379176019066616,3.506595014357572e-11,-7.352837296803472e-07,0.0379176019066616,1.0382453897284094e-05,-0.06913032928942786
84,0.038761,707.64,758.296,0.840733,0.00607388,0.151883,-0.0114777,0.038029,0.038029,-0.0732464,-1.49389e-11,2.77462e-07,1.19824e-05,0.0641404,0.038761356521041845,-1.493893897475118e-11,2.7746203845602224e-07,0.038761356521041845,1.1982471789240279e-05,-0.07062819540163423
85,0.039761,708.006,760.252,-1.02832,0.00699377,0.0418027,-0.240915,0.0389912,0.0389912,-0.0751701,4.7883e-11,-1.27762e-06,8.55715e-06,0.0658638,0.03976133371016144,4.78830308736633e-11,-1.2776191838925754e-06,0.03976133371016144,8.557186612412337e-06,-0.07241430941756288
86,0.040011,710.043,761.52,-0.124723,0.00654272,0.0882454,-0.130591,0.0392316,0.0392316,-0.0756428,2.52474e-11,-5.9224e-07,9.79425e-06,0.0662898,0.04001132238221983,2.524735975839576e-11,-5.92239824626084e-07,0.04001132238221983,9.79429796377218e-06,-0.07285267555750152
87,0.040386,711.201,761.963,-0.44617,0.00603682,0.0625904,-0.169882,0.0395921,0.0395921,-0.0763614,3.20815e-11,-8.24374e-07,9.02493e-06,0.0669344,0.04038631405212589,3.2081448608778373e-11,-8.243736602242535e-07,0.04038631405212589,9.02497072474695e-06,-0.07351868429924513
88,0.040949,714.109,764.578,0.665928,0.00567035,0.147335,-0.0324734,0.0401326,0.0401326,-0.0774297,-2.54752e-11,5.56512e-07,1.07632e-05,0.0678954,0.040948794851613624,-2.5475177523048842e-11,5.565121548034568e-07,0.040948794851613624,1.076325792337407e-05,-0.07450791579672267
89,0.041793,716.325,767.637,0.866024,0.0059772,0.151724,-0.00862225,0.0409428,0.0409428,-0.0790397,-4.55627e-11,9.65603e-07,1.13229e-05,0.0693412,0.041792513309396595,-4.5562664752196724e-11,9.65603466296372e-07,0.041792513309396595,1.13229641043322e-05,-0.07599675921173821
90,0.042793,717.241,770.065,-0.29738,0.00682432,0.0820388,-0.150487,0.0419023,0.0419023,-0.0809545,-4.05851e-12,1.06455e-07,9.3676e-06,0.0710583,0.04279259293739224,-4.058531288819722e-12,1.0645500569950173e-07,0.04279259293739224,9.367643876156961e-06,-0.07776434778783092
91,0.043043,718.83,770.883,0.200526,0.00638838,0.116199,-0.0908136,0.042142,0.042142,-0.0814284,-2.71942e-11,6.70906e-07,1.00175e-05,0.0714847,0.0430425802817056,-2.7194246854378434e-11,6.709062250198627e-07,0.0430425802817056,1.0017550175378531e-05,-0.0782012917213718
92,0.043418,719.712,771.042,-0.333641,0.00589816,0.0703521,-0.155366,0.0425014,0.0425014,-0.0821463,-7.11372e-12,1.97976e-07,8.95774e-06,0.0721286,0.043417517157179564,-7.1137540302856905e-12,1.9797601957805e-07,0.043417517157179564,8.957780120777414e-06,-0.07886281353237967
93,0.04398,721.314,772.336,-0.442457,0.00553732,0.0654049,-0.16867,0.0430404,0.0430404,-0.0832189,-7.96121e-12,2.37957e-07,8.44838e-06,0.0730916,0.04398007079351296,-7.961187264982073e-12,2.3795702830398113e-07,0.04398007079351296,8.448415687700717e-06,-0.07985029559728107
94,0.044824,724.554,776.367,0.908962,0.00581157,0.154351,-0.00129437,0.0438483,0.0438483,-0.0848182,-7.26066e-11,1.72556e-06,1.08278e-05,0.0745301,0.04482384308863119,-7.260658740904091e-11,1.7255614888078696e-06,0.04482384308863119,1.0827858620832131e-05,-0.08132071488533354
95,0.045824,726.632,779.902,1.05309,0.0066096,0.15743,0.0141156,0.0448049,0.0448049,-0.0867205,-9.26155e-11,2.11393e-06,1.15248e-05,0.0762386,0.04582379977996154,-9.261547084804533e-11,2.113932234371063e-06,0.04582379977996154,1.1524866410761447e-05,-0.08306665730976015
96,0.046824,727.292,781.757,-0.310911,0.00726226,0.0795865,-0.151622,0.0457606,0.0457606,-0.0886299,3.85609e-11,1.14944e-06,9.25056e-06,0.0779511,0.046823771345712695,3.856093222509571e-11,1.1494406606527008e-06,0.046823771345712695,9.250602786670115e-06,-0.08481577941600449
97,0.047824,728.663,784.092,-1.02871,0.00777964,0.0363173,-0.240087,0.0467154,0.0467154,-0.0905339,-1.21125e-11,4.3844e-07,7.58339e-06,0.07966,0.047823755999298,-1.2112533198660458e-11,4.38440096006687e-07,0.047823755999298,7.5834187540646525e-06,-0.0865566323540854
98,0.048574,732.561,787.699,0.828644,0.00743468,0.150747,-0.0123948,0.047431,0.047431,-0.091947,-8.48719e-11,2.22951e-06,1.06115e-05,0.0809326,0.04857384702965262,-8.487188729588979e-11,2.2295124852966808e-06,0.04857384702965262,1.0611556302109193e-05,-0.0878465076009094
99,0.049324,732.879,787.814,-0.841629,0.0071425,0.0402021,-0.216967,0.048146,0.048146,-0.0933795,-2.18593e-11,8.22154e-07,7.5257e-06,0.0822166,0.04932384542275292,-2.185929215414717e-11,8.221543379427487e-07,0.04932384542275292,7.525728318080738e-06,-0.08915223203036349
100,0.049574,735.168,789.261,0.404742,0.00669517,0.132634,-0.0647099,0.0483842,0.0483842,-0.0938463,7.7707e-11,2.13742e-06,9.37682e-06,0.0826383,0.04957382413401512,7.770695198416888e-11,2.137422284276269e-06,0.04957382413401512,9.376863962407e-06,-0.08957731654600687
101,0.049949,736.435,789.698,0.324026,0.00618007,0.122087,-0.0740508,0.0487414,0.0487414,-0.0945577,7.83623e-11,2.19716e-06,9.15735e-06,0.0832773,0.04994879887049675,7.836220561330265e-11,2.1971624137862023e-06,0.04994879887049675,9.157391928749092e-06,-0.09022476091974685
102,0.050511,737.731,790.535,0.00970912,0.00576768,0.0960835,-0.111416,0.049277,0.049277,-0.0956254,-6.00516e-11,2.0497e-06,8.49064e-06,0.084236,0.05051130207208221,-6.005163033506733e-11,2.0497021007148675e-06,0.05051130207208221,8.490676045580514e-06,-0.09119560956273554
103,0.051355,740.225,793.621,0.76979,0.0059307,0.144095,-0.0173063,0.0500799,0.0500799,-0.097219,1.1346e-10,2.98806e-06,9.87245e-06,0.0856691,0.051355096292376556,1.1345990813538265e-10,2.9880644643043297e-06,0.051355096292376556,9.872498732743651e-06,-0.0926427268700124
104,0.052355,740.38,795.048,-0.814431,0.00658723,0.0474503,-0.211058,0.0510306,0.0510306,-0.0991206,-3.87763e-11,1.66998e-06,6.97293e-06,0.0873747,0.05235509485641998,-3.877631549187299e-11,1.6699813945031394e-06,0.05235509485641998,6.972954310846546e-06,-0.09436651796057993
105,0.053355,744.057,799.723,1.0406,0.00710905,0.155571,0.0143077,0.0519804,0.0519804,-0.101001,1.21485e-10,3.3849e-06,1.02849e-05,0.0890671,0.05335509655114268,1.2148504424658313e-10,3.384905728820442e-06,0.05335509655114268,1.0284952889794141e-05,-0.09606787104671688
106,0.054105,744.18,799.641,-0.677771,0.00683367,0.0486742,-0.195794,0.0526921,0.0526921,-0.102427,-4.765e-11,2.05534e-06,7.19243e-06,0.0903463,0.054105036207729995,-4.764999506079448e-11,2.0553421122837534e-06,0.054105036207729995,7.192455865556724e-06,-0.09735595963716448
107,0.054855,745.911,801.202,-0.742295,0.00658794,0.0441583,-0.20305,0.0534034,0.0534034,-0.103844,-4.23495e-11,2.00656e-06,6.63755e-06,0.091619,0.054855087844225325,-4.2349457274326596e-11,2.006562013212587e-06,0.054855087844225325,6.637572028678207e-06,-0.09863410046571786
108,0.055855,749.46,805.666,1.03473,0.00707632,0.154804,0.0141776,0.0543509,0.0543509,-0.10572,-1.15345e-10,3.75348e-06,9.83805e-06,0.0933082,0.05585503669091452,-1.153449558088937e-10,3.7534870442890167e-06,0.05585503669091452,9.83809839372185e-06,-0.10032347776187756
109,0.056855,751.237,808.211,0.991624,0.00748512,0.151773,0.00826211,0.0552976,0.0552976,-0.107605,-1.26727e-10,4.04854e-06,1.01983e-05,0.0950023,0.056855087953724626,-1.267269622573508e-10,4.048548195356716e-06,0.056855087953724626,1.01983520028881e-05,-0.1020177706335812
110,0.057855,752.019,809.634,-0.081653,0.00781607,0.0891147,-0.12123,0.0562433,0.0562433,-0.109495,-8.51778e-11,3.33195e-06,8.47385e-06,0.0966985,0.05785502855779234,-8.517775373917402e-11,3.331955551022503e-06,0.05785502855779234,8.47388590319298e-06,-0.1037133542158657
111,0.058855,753.011,811.155,-0.968173,0.00807456,0.0346526,-0.230307,0.0571882,0.0571882,-0.111382,-4.86439e-11,2.49722e-06,6.56723e-06,0.0983927,0.05885506816858488,-4.864386671243892e-11,2.497223118069769e-06,0.05885506816858488,6.567251564337795e-06,-0.10540305238485248
112,0.059855,754.829,813.405,-1.04303,0.00827285,0.030103,-0.238597,0.0581322,0.0581322,-0.113262,-3.92138e-11,2.27739e-06,5.90239e-06,0.100083,0.0598550992933633,-3.9213854385877767e-11,2.277392593175165e-06,0.0598550992933633,5.902407419045019e-06,-0.10708331470489496
113,0.060855,758.765,817.683,0.994163,0.00842386,0.152065,0.0095183,0.0590752,0.0590752,-0.115129,-1.12941e-10,4.15432e-06,9.47197e-06,0.101764,0.060855014037701105,-1.1294098989367285e-10,4.154328629102366e-06,0.060855014037701105,9.472014859346345e-06,-0.10874883490943954
114,0.061855,760.651,819.88,0.98652,0.00855128,0.151099,0.00803372,0.0600174,0.0600174,-0.117005,-1.24727e-10,4.47049e-06,9.87792e-06,0.103451,0.06185502266201115,-1.2472700650079105e-10,4.470499992637045e-06,0.06185502266201115,9.87796878670899e-06,-0.11041925475143466
115,0.062855,761.44,820.943,-0.112423,0.00864752,0.0861831,-0.124286,0.0609587,0.0609587,-0.118887,-8.36353e-11,3.71476e-06,8.09819e-06,0.10514,0.06285501736851495,-8.363532089106229e-11,3.714766899642896e-06,0.06285501736851495,8.09822279035366e-06,-0.11209187128814146
116,0.063855,764.419,824.138,0.986423,0.00870882,0.150684,0.00767044,0.0618992,0.0618992,-0.120754,-1.35503e-10,4.85996e-06,1.01852e-05,0.10682,0.0638551027287726,-1.3550305322240774e-10,4.8599718096564715e-06,0.0638551027287726,1.0185251869243572e-05,-0.11374804924125048
117,0.064855,766.287,826.204,0.988013,0.0087559,0.150331,0.00737808,0.0628387,0.0628387,-0.122625,1.8604e-10,5.182e-06,1.05947e-05,0.108503,0.06485506425616161,1.8604007223643748e-10,5.182013426585641e-06,0.06485506425616161,1.059475612397165e-05,-0.11540467638315743
118,0.065855,767.026,827.128,-0.124069,0.00878584,0.0842386,-0.126468,0.0637773,0.0637773,-0.124502,-1.02734e-10,4.40617e-06,8.77979e-06,0.110188,0.06585500641891961,-1.0273404349447901e-10,4.406179707094893e-06,0.06585500641891961,8.779828542415657e-06,-0.11706350450836867
119,0.066855,767.936,828.199,-1.05071,0.00879498,0.0265572,-0.240139,0.0647151,0.0647151,-0.126375,-6.21339e-11,3.50804e-06,6.76912e-06,0.111871,0.06685503408362004,-6.213385361775181e-11,3.5080461531222795e-06,0.06685503408362004,6.769142910645343e-06,-0.1187156968033316
120,0.067855,771.787,832.168,0.977517,0.00878582,0.149514,0.0065451,0.065652,0.065652,-0.12823,-1.43219e-10,5.3942e-06,1.02953e-05,0.113542,0.06785503894418121,-1.4321899222125012e-10,5.394214548815057e-06,0.06785503894418121,1.0295352996791962e-05,-0.12034896386222171
121,0.068855,771.67,832.195,-0.939103,0.00878209,0.0327631,-0.226296,0.066588,0.066588,-0.130106,-6.54502e-11,3.77294e-06,6.82421e-06,0.115226,0.06885501917837589,-6.545020081460962e-11,3.7729471176195517e-06,0.06885501917837589,6.824233284907777e-06,-0.12199764226215037
122,0.069855,775.348,835.969,0.953295,0.00875713,0.147789,0.00383358,0.0675232,0.0675232,-0.131959,-1.40966e-10,5.55405e-06,1.0126e-05,0.116895,0.06985507994783968,-1.409660166373783e-10,5.554065423796217e-06,0.06985507994783968,1.0126051268155578e-05,-0.1236230742032538
123,0.070605,776.992,836.845,0.838795,0.00817468,0.146546,-0.00988771,0.068224,0.068224,-0.133356,-1.4682e-10,5.86845e-06,1.00865e-05,0.118151,0.07060509716320373,-1.4682000060162181e-10,5.8684672192832465e-06,0.07060509716320373,1.0086550868981803e-05,-0.12484651799413027
124,0.071355,777.661,836.882,-0.172438,0.0076703,0.0778456,-0.1321,0.0689243,0.0689243,-0.134757,-1.04155e-10,5.11579e-06,8.29371e-06,0.119409,0.07135510449716342,-1.0415501794369675e-10,5.115803085598003e-06,0.07135510449716342,8.293744392817715e-06,-0.12607174954731037
125,0.072355,778.386,838.012,-1.0291,0.00780444,0.0258824,-0.236735,0.0698572,0.0698572,-0.136621,-6.66266e-11,4.30197e-06,6.39564e-06,0.121084,0.0723550380206206,-6.662659313150243e-11,4.301979253495958e-06,0.0723550380206206,6.395660452129803e-06,-0.1276992345189365
126,0.073355,780.071,840.029,-0.937417,0.00790541,0.0313997,-0.224852,0.0707893,0.0707893,-0.138478,-6.10684e-11,4.24219e-06,6.025e-06,0.122754,0.07335504613293886,-6.106837258101905e-11,4.242198998083424e-06,0.07335504613293886,6.025018150390693e-06,-0.12931759392865372
127,0.074355,781.626,841.865,-0.981579,0.00798389,0.0286702,-0.229464,0.0717205,0.0717205,-0.140334,-5.20507e-11,4.06756e-06,5.42713e-06,0.124423,0.07435501986740944,-5.2050697085803677e-11,4.0675682724256035e-06,0.07435501986740944,5.4271447269549355e-06,-0.1309320817661519
128,0.075355,785.146,845.607,0.936963,0.008041,0.146265,0.00394264,0.0726509,0.0726509,-0.142177,-1.19948e-10,5.88513e-06,8.75707e-06,0.126084,0.0753550649267154,-1.1994805149129206e-10,5.885147317474804e-06,0.0753550649267154,8.757108343360187e-06,-0.1325322988864326
129,0.076355,784.8,845.486,-1.00291,0.00809393,0.026858,-0.231657,0.0735804,0.0735804,-0.144041,-5.05032e-11,4.21809e-06,5.21116e-06,0.127757,0.07635507214091941,-5.050315721177867e-11,4.218098896169309e-06,0.07635507214091941,5.211173578212325e-06,-0.13414775261069667
130,0.077355,788.437,849.282,1.04062,0.00811884,0.152419,0.0168566,0.074509,0.074509,-0.14588,-1.22768e-10,6.1625e-06,8.78108e-06,0.129415,0.07735503967397928,-1.2276801797383996e-10,6.1625189882175135e-06,0.07735503967397928,8.781118553846667e-06,-0.13573859166879076
131,0.078355,789.927,850.932,0.949008,0.00814346,0.146226,0.00523335,0.0754368,0.0754368,-0.14773,-1.29084e-10,6.40467e-06,8.99571e-06,0.131078,0.07835507352375481,-1.2908396573863001e-10,6.404690509942412e-06,0.07835507352375481,8.995750461426866e-06,-0.13733599721847667
132,0.079355,790.529,851.683,-0.0201409,0.00815709,0.0875992,-0.111048,0.0763637,0.0763637,-0.149583,-9.45439e-11,5.75099e-06,7.42895e-06,0.132744,0.07935506421549543,-9.454392824181923e-11,5.751006536991454e-06,0.07935506421549543,7.42897759464789e-06,-0.13893303350454533
133,0.080355,791.11,852.396,-1.00052,0.00815695,0.0254392,-0.231277,0.0772897,0.0772897,-0.151435,-5.62632e-11,4.81195e-06,5.34867e-06,0.134407,0.08035500990836231,-5.626321630813891e-11,4.811961577422252e-06,0.08035500990836231,5.348684304129492e-06,-0.14052625374916572
134,0.081355,794.628,856.007,0.963652,0.00814364,0.146848,0.00749227,0.0782149,0.0782149,-0.153268,-1.26424e-10,6.68566e-06,8.75458e-06,0.136059,0.08135501689542846,-1.264239823939306e-10,6.685682349072408e-06,0.08135501689542846,8.754618321393792e-06,-0.1421002261396499
135,0.082355,794.231,855.73,-0.968922,0.00813707,0.0268534,-0.227098,0.0791393,0.0791393,-0.155122,-5.59721e-11,5.01508e-06,5.22906e-06,0.137724,0.08235508363267807,-5.597211583108219e-11,5.015092575444413e-06,0.08235508363267807,5.229073671619844e-06,-0.14368929879485692
136,0.083355,797.629,859.203,0.900245,0.00811368,0.142632,9.49908e-05,0.0800628,0.0800628,-0.156952,-1.21372e-10,6.80286e-06,8.45727e-06,0.139373,0.08335510023900872,-1.213720235426763e-10,6.802883139478411e-06,0.08335510023900872,8.457305762821221e-06,-0.14525491440285687
137,0.084355,799.267,860.928,1.02604,0.00809679,0.14995,0.0150078,0.0809854,0.0809854,-0.158791,-1.3627e-10,7.23414e-06,9.03337e-06,0.141027,0.0843550648672422,-1.362699952878188e-10,7.234166166547595e-06,0.0843550648672422,9.033410800940445e-06,-0.146825346160679
138,0.085355,799.462,861.216,-0.275887,0.00807739,0.0700816,-0.141671,0.0819072,0.0819072,-0.160636,-8.78253e-11,6.24489e-06,6.82203e-06,0.142685,0.08535508420413818,-8.782530258599763e-11,6.2449094992977905e-06,0.08535508420413818,6.822053270072459e-06,-0.1483980021757253
139,0.086355,800.326,862.162,-0.896189,0.00804841,0.0299193,-0.218049,0.0828281,0.0828281,-0.162476,-6.11248e-11,5.61055e-06,5.34497e-06,0.144339,0.08635504806387218,-6.112477191067e-11,5.6105657391114505e-06,0.08635504806387218,5.344984284283427e-06,-0.14996350914362988
140,0.087355,803.713,865.603,1.01563,0.008014,0.149024,0.0142999,0.0837482,0.0837482,-0.164299,-1.30824e-10,7.46957e-06,8.6887e-06,0.145983,0.08735506333006926,-1.3082401828512502e-10,7.469597897324931e-06,0.08735506333006926,8.688737746842534e-06,-0.15151171404892372
141,0.088355,803.246,865.223,-0.906365,0.0079893,0.0287464,-0.218999,0.0846674,0.0846674,-0.166143,-6.01792e-11,5.80654e-06,5.19882e-06,0.147638,0.08835501961378256,-6.017919496059676e-11,5.806556858001244e-06,0.08835501961378256,5.198833513908596e-06,-0.15307488476187803
142,0.089355,804.678,866.719,-0.92011,0.00795289,0.0277678,-0.219987,0.0855858,0.0855858,-0.167974,-5.22742e-11,5.6693e-06,4.67594e-06,0.149286,0.08935502399551942,-5.227418498066072e-11,5.669316070600061e-06,0.08935502399551942,4.6759509322313875e-06,-0.15462418582990745
143,0.090355,806.155,868.258,-0.874381,0.00791636,0.0305966,-0.213777,0.0865034,0.0865034,-0.169804,-4.65664e-11,5.5929e-06,4.26802e-06,0.150932,0.09035507491873185,-4.656641738876033e-11,5.592915640395546e-06,0.09035507491873185,4.268029107912241e-06,-0.15616980889339083
144,0.091355,809.424,871.572,0.973578,0.00787941,0.146295,0.0107869,0.0874201,0.0874201,-0.171621,-1.071e-10,7.40242e-06,7.49574e-06,0.15257,0.0913550616898191,-1.0709999553881744e-10,7.402447397941714e-06,0.0913550616898191,7.495768093113142e-06,-0.15770165624586374
145,0.092355,810.838,873.048,0.984138,0.00785134,0.146429,0.0116737,0.088336,0.088336,-0.173447,-1.16115e-10,7.73196e-06,7.86267e-06,0.154213,0.09235509168464873,-1.1611500649877371e-10,7.731989891679447e-06,0.09235509168464873,7.862700910798992e-06,-0.15923828964829911
146,0.093355,811.094,873.373,-0.149004,0.00782255,0.0763935,-0.124431,0.089251,0.089251,-0.175278,-7.77367e-11,6.89689e-06,5.96316e-06,0.155859,0.09335505400653643,-7.773670596122884e-11,6.896913783638325e-06,0.09335505400653643,5.963177779566564e-06,-0.16077631584727403
147,0.094355,811.612,873.955,-1.0092,0.00778771,0.0207877,-0.229905,0.0901652,0.0901652,-0.177106,-4.58584e-11,6.03764e-06,4.06007e-06,0.157502,0.09435505622827778,-4.5858428165956866e-11,6.037658226487608e-06,0.09435505622827778,4.060078242051901e-06,-0.16230901542768505
148,0.095355,813.109,875.504,-0.879544,0.00774879,0.0288715,-0.213517,0.0910786,0.0910786,-0.178927,-4.22051e-11,6.02819e-06,3.78078e-06,0.159141,0.09535509678563137,-4.2205128281125326e-11,6.028208169528426e-06,0.09535509678563137,3.780787147134035e-06,-0.16383306264445008
149,0.096355,816.238,878.672,0.892875,0.00771078,0.140462,0.00184032,0.0919911,0.0919911,-0.180737,1.69227e-10,7.76853e-06,6.85387e-06,0.160772,0.0963550644773219,1.6922707679611904e-10,7.768560175147599e-06,0.0963550644773219,6.8538934878681346e-06,-0.16534515594381372
150,0.097355,817.556,880.045,0.870354,0.00768161,0.138539,-0.00123356,0.0929028,0.0929028,-0.182555,-1.03843e-10,8.04401e-06,7.11199e-06,0.162408,0.0973550671715675,-1.0384304527377708e-10,8.044042353105851e-06,0.0973550671715675,7.112015290244855e-06,-0.16686117996691696
151,0.098355,817.982,880.532,-0.0315227,0.00765201,0.0827109,-0.109199,0.0938137,0.0938137,-0.184377,-7.49312e-11,7.41742e-06,5.6206e-06,0.164046,0.0983551032995611,-7.493117237800107e-11,7.417447509094899e-06,0.0983551032995611,5.620615795676187e-06,-0.16837777685769784
152,0.099355,820.308,882.901,0.975618,0.00761742,0.14468,0.0114266,0.0947237,0.0947237,-0.186186,-1.14144e-10,8.5384e-06,7.51058e-06,0.165676,0.09935506135547367,-1.1414402756315667e-10,8.538436452321108e-06,0.09935506135547367,7.510608204475133e-06,-0.16988082154555173
153,0.1004,819.675,882.336,-0.959512,0.00758856,0.0231045,-0.222052,0.0956329,0.0956329,-0.188011,-4.80455e-11,6.84276e-06,3.98313e-06,0.167314,0.10035504950298368,-4.804545650216596e-11,6.842783411675768e-06,0.10035504950298368,3.983137932594971e-06,-0.17139440747896795
154,0.1014,822.854,885.547,0.920772,0.00754981,0.140933,0.00510344,0.0965413,0.0965413,-0.189812,-1.09267e-10,8.67045e-06,7.21735e-06,0.168938,0.10135506616875478,-1.0926703986058328e-10,8.670487588569031e-06,0.10135506616875478,7.217376045032253e-06,-0.17288538312451862
155,0.1024,824.113,886.857,0.897781,0.00752053,0.138956,0.0019676,0.0974489,0.0974489,-0.191622,-1.15734e-10,8.94862e-06,7.47721e-06,0.170567,0.10235510977795159,-1.1573397795672236e-10,8.948660038976541e-06,0.10235510977795159,7.477237954356397e-06,-0.17438110654302463
156,0.1034,824.427,887.228,-0.0587111,0.00749111,0.0793531,-0.112618,0.0983556,0.0983556,-0.193436,1.53682e-10,8.26256e-06,5.87861e-06,0.172198,0.10335506841873121,1.5368195604992252e-10,8.262594135111101e-06,0.10335506841873121,5.878627278965709e-06,-0.17587742164764164
157,0.1044,826.734,889.574,0.985731,0.00745705,0.144036,0.0125404,0.0992615,0.0992615,-0.195237,-1.25155e-10,9.41972e-06,7.8257e-06,0.17382,0.10435505064877604,-1.2515499747678405e-10,9.419764365636851e-06,0.10435505064877604,7.825730620858451e-06,-0.17736033065086643
158,0.1054,827.81,890.699,0.811375,0.00742806,0.132464,-0.00897705,0.100167,0.100167,-0.197043,-1.25379e-10,9.55096e-06,7.8032e-06,0.175446,0.1053554970308801,-1.253790404831534e-10,9.551005610619612e-06,0.1053554970308801,7.803230445135867e-06,-0.17884467712539465
159,0.1064,828.368,891.31,0.130959,0.0073983,0.0902783,-0.0900111,0.101071,0.101071,-0.198851,-1.02212e-10,9.13107e-06,6.71457e-06,0.177071,0.10635519019342499,-1.0221201662830026e-10,9.131111688320814e-06,0.10635519019342499,6.714592542866882e-06,-0.18032798463510236
160,0.1074,830.559,893.538,1.09034,0.00736567,0.151338,0.0267312,0.101974,0.101974,-0.200648,-1.4597e-10,1.02704e-05,8.6021e-06,0.17869,0.1073546801319607,-1.459700138539688e-10,1.0270452740712699e-05,0.1073546801319607,8.602136998270282e-06,-0.18179961259297672
161,0.1084,831.506,894.534,0.818728,0.00733741,0.131839,-0.00866844,0.102877,0.102877,-0.20245,-1.41588e-10,1.02977e-05,8.39616e-06,0.180311,0.10835507301753045,-1.415879635757733e-10,1.0297753021415446e-05,0.10835507301753045,8.396195247950544e-06,-0.18327268205688418
162,0.1094,832.096,895.173,0.199703,0.007308,0.0934456,-0.0822593,0.103779,0.103779,-0.204253,2.17153e-10,9.93934e-06,7.42671e-06,0.181933,0.10935526031004805,2.1715296227853287e-10,9.93938939530814e-06,0.10935526031004805,7.4267375780312506e-06,-0.1847439146963531
163,0.1104,834.073,897.188,0.975542,0.00727624,0.142908,0.0121421,0.10468,0.10468,-0.206046,-1.57319e-10,1.08996e-05,8.96963e-06,0.183548,0.11035523982270923,-1.5731904667859453e-10,1.0899659400820383e-05,0.11035523982270923,8.969670227232385e-06,-0.18620435917756606
164,0.1114,833.517,896.691,-0.766921,0.00724827,0.0307313,-0.199824,0.10558,0.10558,-0.207851,-8.6247e-11,9.35561e-06,5.77889e-06,0.18517,0.11135500936736031,-8.624700953419051e-11,9.355653763920557e-06,0.11135500936736031,5.7789066978397585e-06,-0.1876719354232389
165,0.1124,834.591,897.806,-0.874399,0.00721306,0.0225273,-0.213634,0.106479,0.106479,-0.209646,-7.36514e-11,9.1291e-06,5.10085e-06,0.186785,0.11235456675450672,-7.365141829751565e-11,9.129141670394247e-06,0.11235456675450672,5.100863009310785e-06,-0.18912875641115812
166,0.1134,837.55,900.792,0.909663,0.00717883,0.136797,0.00306461,0.107378,0.107378,-0.211429,-1.40129e-10,1.09086e-05,8.19063e-06,0.188392,0.11335502314778712,-1.4012901949911338e-10,1.0908659499042628e-05,0.11335502314778712,8.190663543405918e-06,-0.1905732516882559
167,0.1144,836.831,900.131,-0.967988,0.00715299,0.0160863,-0.224557,0.108276,0.108276,-0.213231,-6.72677e-11,9.20037e-06,4.70134e-06,0.190011,0.11435526499994886,-6.726774692822346e-11,9.200412323551177e-06,0.11435526499994886,4.7013510513505e-06,-0.19203052529085896
168,0.1154,838.026,901.365,-0.92702,0.00711924,0.0186046,-0.218905,0.109173,0.109173,-0.21502,-5.97286e-11,9.10125e-06,4.25515e-06,0.191622,0.11535529011686618,-5.972855543490141e-11,9.10129141651339e-06,0.11535529011686618,4.255159053112578e-06,-0.1934746904901694
169,0.1164,840.943,904.309,0.843249,0.00708694,0.132309,-0.00390428,0.110069,0.110069,-0.216798,-1.21246e-10,1.08605e-05,7.29823e-06,0.193225,0.11635509630309393,-1.2124601322938133e-10,1.086055897547844e-05,0.11635509630309393,7.298256632148892e-06,-0.19490741841791182
170,0.1174,840.319,903.74,-0.912573,0.0070627,0.0191051,-0.216722,0.110964,0.110964,-0.218594,-5.65342e-11,9.26102e-06,4.0236e-06,0.194839,0.11735468136187466,-5.653422174844991e-11,9.261062883458848e-06,0.11735468136187466,4.0236080947053665e-06,-0.19635206701167263
171,0.1184,841.508,904.968,-0.850927,0.00703101,0.0229583,-0.208604,0.111859,0.111859,-0.220379,-5.04646e-11,9.19781e-06,3.64571e-06,0.196445,0.11835516144974889,-5.046463247282418e-11,9.197852300024678e-06,0.11835516144974889,3.6457166456838053e-06,-0.19778529903192876
172,0.1194,842.494,905.993,-0.983514,0.00700057,0.0144393,-0.223923,0.112753,0.112753,-0.222163,-3.88268e-11,8.94359e-06,2.90794e-06,0.198051,0.1193554180121481,-3.882683063949344e-11,8.943629993929392e-06,0.1193554180121481,2.9079442280810497e-06,-0.19921517423054524
173,0.1204,845.525,909.047,0.93393,0.0069705,0.138031,0.00888229,0.113646,0.113646,-0.223933,-1.00166e-10,1.08567e-05,6.22916e-06,0.199648,0.12035544884774496,-1.0016598661621856e-10,1.0856758934085775e-05,0.12035544884774496,6.229179401184837e-06,-0.2006313097225293
174,0.1214,844.677,908.256,-1.01083,0.00694882,0.0122265,-0.226832,0.114538,0.114538,-0.225725,-3.48166e-11,9.0683e-06,2.61279e-06,0.201257,0.12135525175392115,-3.481659405224491e-11,9.068341117135503e-06,0.12135525175392115,2.6127934134034803e-06,-0.20206249568988677
175,0.1224,845.904,909.519,-0.878248,0.00691871,0.0206646,-0.210105,0.115429,0.115429,-0.227503,-3.09174e-11,9.06e-06,2.34052e-06,0.202857,0.1223548245267756,-3.09173797674589e-11,9.060041041841771e-06,0.1223548245267756,2.3405227389527994e-06,-0.20347996806618818
176,0.1234,846.929,910.582,-0.938767,0.00689002,0.0167712,-0.216713,0.11632,0.11632,-0.22928,-2.23558e-11,8.87775e-06,1.74057e-06,0.204457,0.12335528831585951,-2.235578389075954e-11,8.877789407391035e-06,0.12335528831585951,1.7405715146967538e-06,-0.20489412731031864
177,0.1244,849.803,913.478,0.854474,0.00686181,0.13274,0.000999257,0.11721,0.11721,-0.231045,-7.4182e-11,1.06773e-05,4.83908e-06,0.206049,0.12435551955934043,-7.418199388098401e-11,1.0677357002553123e-05,0.12435551955934043,4.8390917084528695e-06,-0.20629625143707964
178,0.1254,849.121,912.849,-0.893283,0.00684126,0.0192548,-0.210821,0.118099,0.118099,-0.232829,-2.04754e-11,9.07481e-06,1.58359e-06,0.207652,0.12535551604880846,-2.0475399153951912e-11,9.074851176293919e-06,0.12535551604880846,1.5835912539063912e-06,-0.2077109566322718
179,0.1264,852.067,915.817,0.987439,0.00681328,0.141045,0.0175444,0.118987,0.118987,-0.234591,-7.57973e-11,1.09824e-05,4.88056e-06,0.209241,0.12635527557459292,-7.579725735951115e-11,1.0982460306729891e-05,0.12635527557459292,4.880571909948728e-06,-0.2091057407610094
180,0.1274,851.14,914.944,-0.989472,0.00679324,0.0124898,-0.222085,0.119874,0.119874,-0.236373,-1.56535e-11,9.15833e-06,1.21781e-06,0.210842,0.12735479592577081,-1.5653478513399932e-11,9.158371937711962e-06,0.12735479592577081,1.217810741582781e-06,-0.2105138593247068
181,0.1284,852.355,916.193,-0.822043,0.00676478,0.0232249,-0.201167,0.120761,0.120761,-0.238141,-1.32061e-11,9.19436e-06,1.031e-06,0.212434,0.1283552032448121,-1.3206102877916237e-11,9.19440226820889e-06,0.1283552032448121,1.0310005313929338e-06,-0.21190843765091316
182,0.1294,853.359,917.232,-0.858844,0.0067378,0.0208378,-0.204945,0.121647,0.121647,-0.239909,-6.35741e-12,9.05098e-06,5.07913e-07,0.214025,0.12935536896287303,-6.357359083608571e-12,9.051020960271217e-06,0.12935536896287303,5.079131288887595e-07,-0.21330055254095803
183,0.1304,856.028,919.923,0.774897,0.00671132,0.126996,-0.00660942,0.122532,0.122532,-0.241666,-4.8947e-11,1.07087e-05,3.32932e-06,0.21561,0.13035529086458308,-4.894695759816159e-11,1.0708757338440122e-05,0.13035529086458308,3.329325542145156e-06,-0.2146815698911292
184,0.1314,857.256,921.186,0.97861,0.00669145,0.139806,0.0179072,0.123416,0.123416,-0.243429,-6.04829e-11,1.11914e-05,3.96516e-06,0.217197,0.13135496673334113,-6.04829519801342e-11,1.1191462623960646e-05,0.13135496673334113,3.965167861164076e-06,-0.21606486654911383
185,0.1324,856.971,920.948,-0.321571,0.00667187,0.0560687,-0.138388,0.1243,0.1243,-0.2452,-2.2982e-11,1.01098e-05,1.67992e-06,0.218789,0.13235552670628348,-2.2981949676648128e-11,1.0109851104278533e-05,0.13235552670628348,1.6799214110907457e-06,-0.21745198701273305
186,0.1334,857.463,921.477,-0.840893,0.00664684,0.020775,-0.202353,0.125182,0.125182,-0.246964,-4.8165e-12,9.5373e-06,3.75881e-07,0.220377,0.13335470485362766,-4.816480547731317e-12,9.537345480259418e-06,0.13335470485362766,3.758810707132909e-07,-0.2188311848974711
187,0.1344,860.279,924.312,0.967158,0.00662044,0.138675,0.0171604,0.126064,0.126064,-0.248714,-5.41219e-11,1.13949e-05,3.56014e-06,0.221955,0.13435476466485463,-5.412192916054437e-11,1.1394964922084583e-05,0.13435476466485463,3.560146337289183e-06,-0.22019703485661002
188,0.1354,859.395,923.479,-0.910127,0.00660134,0.0157754,-0.210377,0.126945,0.126945,-0.250483,-1.0253e-12,9.65475e-06,8.01632e-08,0.223545,0.1353545715627953,-1.025290963241332e-12,9.654796607305727e-06,0.1353545715627953,8.016320318660064e-08,-0.2215752868786146
189,0.1364,862.237,926.339,0.93695,0.00657485,0.136345,0.013846,0.127826,0.127826,-0.25223,-5.03461e-11,1.15415e-05,3.31576e-06,0.22512,0.13635525967873252,-5.034606065379421e-11,1.1541566603323616e-05,0.13635525967873252,3.315765497058365e-06,-0.2229340076642624
190,0.1374,861.376,925.526,-0.905337,0.00655577,0.0155482,-0.209417,0.128705,0.128705,-0.253996,1.39972e-12,9.82751e-06,-1.09015e-07,0.226707,0.13735455507797667,1.3997691894473974e-12,9.827558290043115e-06,0.13735455507797667,-1.0901499403193071e-07,-0.22430509518011021
191,0.1384,864.172,928.34,0.90958,0.0065296,0.134198,0.0108917,0.129584,0.129584,-0.255739,-4.64873e-11,1.16838e-05,3.06624e-06,0.22828,0.13835472924403835,-4.6487258487104555e-11,1.1683868255785157e-05,0.13835472924403835,3.0662447008111826e-06,-0.2256559537839402
192,0.1394,863.36,927.575,-0.87054,0.00651061,0.0172864,-0.204824,0.130462,0.130462,-0.257502,3.19668e-12,1.00265e-05,-2.47384e-07,0.229864,0.13935464359447947,3.1967761771056757e-12,1.002655026560717e-05,0.13935464359447947,-2.4738396942058927e-07,-0.22701991964822343
193,0.1404,866.069,930.301,0.868622,0.0064849,0.131148,0.00628553,0.13134,0.13134,-0.259243,-4.222e-11,1.18114e-05,2.79229e-06,0.231434,0.14035543625524238,-4.22200052696553e-11,1.181146975492986e-05,0.14035543625524238,2.79229389854585e-06,-0.22836450716505297
194,0.1414,865.344,929.623,-0.811398,0.00646598,0.020624,-0.197291,0.132216,0.132216,-0.261002,4.42101e-12,1.02496e-05,-3.39219e-07,0.233015,0.1413548252858885,4.420908084057373e-12,1.024965252738319e-05,0.1413548252858885,-3.3921894249111517e-07,-0.2297206209452195
195,0.1424,867.925,932.222,0.81345,0.00644083,0.127147,-5.38398e-05,0.133092,0.133092,-0.262741,-3.76175e-11,1.1926e-05,2.49711e-06,0.234583,0.1423550901648909,-3.7617464698769254e-11,1.1926071115109238e-05,0.1423550901648909,2.497113117838623e-06,-0.23105897275122234
196,0.1434,869.023,933.35,0.964206,0.00642199,0.136585,0.0180173,0.133967,0.133967,-0.264486,-4.70868e-11,1.23564e-05,3.0368e-06,0.236155,0.1433550883041692,-4.708677892040214e-11,1.2356476340569245e-05,0.1433550883041692,3.0368046111117764e-06,-0.23239960480211885
197,0.1444,868.721,933.09,-0.275805,0.00640323,0.0560045,-0.130941,0.134841,0.134841,-0.266238,-1.20169e-11,1.13141e-05,8.51988e-07,0.23773,0.1443548174693532,-1.2016942996240232e-11,1.1314164004572191e-05,0.1443548174693532,8.519883629709568e-07,-0.23374326330595907
198,0.1454,869.197,933.6,-0.734159,0.00637972,0.0243991,-0.187557,0.135715,0.135715,-0.267984,4.19814e-12,1.08073e-05,-3.13638e-07,0.239301,0.14535542077977315,4.198197345317567e-12,1.080735839908975e-05,0.14535542077977315,-3.1363795083283463e-07,-0.23507998027472965
199,0.1464,871.695,936.114,0.83042,0.00635544,0.127321,0.00236073,0.136587,0.136587,-0.269717,-3.73125e-11,1.24412e-05,2.43711e-06,0.240864,0.14635460628826125,-3.7312486433904724e-11,1.244127739208345e-05,0.14635460628826125,2.4371129696554306e-06,-0.23640443869421546
200,0.1474,872.717,937.167,0.929786,0.00633706,0.133395,0.0141863,0.137459,0.137459,-0.271457,1.30914e-10,1.28169e-05,2.87721e-06,0.242431,0.14735466346650528,1.3091394635011966e-10,1.281698213673188e-05,0.14735466346650528,2.8772141391630868e-06,-0.23773193971007522
201,0.1484,872.489,936.979,-0.213478,0.00631856,0.0589608,-0.123013,0.138331,0.138331,-0.273202,-1.2515e-11,1.18655e-05,8.68121e-07,0.244,0.14835559307493318,-1.2514989045087077e-11,1.1865570395341862e-05,0.14835559307493318,8.68121376784714e-07,-0.23906093758739722
202,0.1494,874.503,939.013,0.885733,0.00629615,0.129968,0.00882595,0.139201,0.139201,-0.274933,-4.54333e-11,1.30893e-05,2.87494e-06,0.245561,0.14935509716214246,-4.5433323769827894e-11,1.308938566535467e-05,0.14935509716214246,2.8749441325359726e-06,-0.24037698373787775
203,0.1504,875.217,939.759,0.693869,0.00627767,0.116823,-0.0147034,0.140071,0.140071,-0.27667,-4.32989e-11,1.31529e-05,2.7438e-06,0.247124,0.1503554711962798,-4.329892000498603e-11,1.3152986499731512e-05,0.1503554711962798,2.7438037641935864e-06,-0.24169530362483715
204,0.1514,875.601,940.176,0.177986,0.00625826,0.0837755,-0.0756948,0.14094,0.14094,-0.278408,-2.91331e-11,1.28367e-05,1.90343e-06,0.248688,0.15135556457838795,-2.913314034458381e-11,1.2836782390834856e-05,0.15135556457838795,1.9034318115007665e-06,-0.24301209256608458
205,0.1524,877.123,941.722,0.802781,0.00623734,0.124947,0.0002797,0.141808,0.141808,-0.280137,-5.07988e-11,1.36495e-05,3.14066e-06,0.250246,0.152355375063419,-5.079880960323635e-11,1.3649593154863027e-05,0.152355375063419,3.140664931899906e-06,-0.2443197938245254
206,0.1534,876.697,941.335,-0.510913,0.00621829,0.037347,-0.159401,0.142675,0.142675,-0.281876,-1.02279e-11,1.24462e-05,6.97766e-07,0.251809,0.1533549004052237,-1.0227929614359255e-11,1.2446277454225552e-05,0.1533549004052237,6.977662434515253e-07,-0.24563277973093323
207,0.1544,877.312,941.979,-0.78132,0.00619478,0.0181635,-0.192986,0.143542,0.143542,-0.283607,2.66862e-12,1.2085e-05,-1.88647e-07,0.253368,0.15435529271127435,2.6685320619890263e-12,1.208507302385975e-05,0.15435529271127435,-1.886469822576231e-07,-0.24693745986279048
208,0.1554,879.708,944.39,0.731703,0.00617161,0.118334,-0.00937091,0.144408,0.144408,-0.285327,-3.88491e-11,1.36609e-05,2.44417e-06,0.254919,0.15535539737758008,-3.88491461222884e-11,1.3660993310571357e-05,0.15535539737758008,2.444172986892923e-06,-0.24823161414009576
209,0.1564,880.677,945.387,0.825731,0.0061539,0.124128,0.00185961,0.145273,0.145273,-0.287054,-4.57576e-11,1.40025e-05,2.82552e-06,0.256474,0.15635521215386183,-4.57576199153209e-11,1.400259803552295e-05,0.15635521215386183,2.8255239918895114e-06,-0.24952879770206282
210,0.1574,880.581,945.327,-0.137555,0.00613601,0.0611492,-0.113466,0.146137,0.146137,-0.288785,-1.70722e-11,1.3209e-05,1.12424e-06,0.258031,0.15735473478876272,-1.707223251656842e-11,1.3209087239118844e-05,0.15735473478876272,1.1242406319222908e-06,-0.2508267396603837
211,0.1584,882.325,947.09,0.739567,0.0061152,0.117867,-0.00858198,0.147001,0.147001,-0.290504,-4.40719e-11,1.42077e-05,2.71425e-06,0.25958,0.15835512138439745,-4.4071857274730064e-11,1.4207800929755265e-05,0.15835512138439745,2.7142536835889075e-06,-0.2521134622399991
212,0.1594,881.794,946.597,-0.648134,0.00609708,0.0264123,-0.175404,0.147864,0.147864,-0.292234,-1.60862e-12,1.29129e-05,1.0965e-07,0.261136,0.15935521333175773,-1.6086021403793893e-12,1.2912983371915487e-05,0.15935521333175773,1.0965000596385721e-07,-0.25340618742062626
213,0.1604,882.487,947.317,-0.81039,0.00607438,0.0145011,-0.195662,0.148726,0.148726,-0.293956,8.73489e-12,1.26382e-05,-6.1192e-07,0.262686,0.16035500837540595,8.734790668540882e-12,1.2638279862420276e-05,0.16035500837540595,-6.119198128207159e-07,-0.2546907156696496
214,0.1614,883.229,948.085,-0.918971,0.00605186,0.00729544,-0.208084,0.149587,0.149587,-0.295676,1.77141e-11,1.24018e-05,-1.27198e-06,0.264235,0.16135450425884934,1.7714052447104223e-11,1.2401876902545794e-05,0.16135450425884934,-1.2719791910864586e-06,-0.2559715458090107
215,0.1624,884.049,948.93,-0.944488,0.00602969,0.00560251,-0.210469,0.150448,0.150448,-0.297395,2.46727e-11,1.22339e-05,-1.80638e-06,0.265783,0.16235486107882835,2.467270832084978e-11,1.2233974834519046e-05,0.16235486107882835,-1.8063783685517976e-06,-0.25724943206385364
216,0.1634,884.924,949.83,-0.910157,0.00600811,0.0078932,-0.205629,0.151308,0.151308,-0.299111,2.99909e-11,1.21278e-05,-2.2277e-06,0.267328,0.16335491622143072,2.9990898653409204e-11,1.2127873542100431e-05,0.16335491622143072,-2.2276975186752423e-06,-0.25852289909122905
217,0.1644,885.814,950.745,-0.856569,0.00598723,0.0114605,-0.198486,0.152167,0.152167,-0.300826,3.4503e-11,1.20517e-05,-2.59376e-06,0.268873,0.1643546674261327,3.4503067070090765e-11,1.205177262209034e-05,0.1643546674261327,-2.593756636248834e-06,-0.2597934425168873
218,0.1654,886.687,951.643,-0.814604,0.00596701,0.0142454,-0.192772,0.153026,0.153026,-0.30254,3.88972e-11,1.19755e-05,-2.95941e-06,0.270416,0.16535527778607362,3.889710775695221e-11,1.1975571706512866e-05,0.16535527778607362,-2.9594056210058284e-06,-0.26106106988941924
219,0.1664,887.533,952.514,-0.795349,0.00594733,0.0155098,-0.189818,0.153884,0.153884,-0.304252,4.34749e-11,1.18838e-05,-3.35201e-06,0.271958,0.16635558168342035,4.347500137669158e-11,1.1883870612683367e-05,0.16635558168342035,-3.3520043820622902e-06,-0.262325051061164
220,0.1674,888.357,953.362,-0.794023,0.00592805,0.0155752,-0.189037,0.154741,0.154741,-0.305963,4.8201e-11,1.17769e-05,-3.77117e-06,0.273498,0.16735557685364966,4.8200998747915946e-11,1.1776969347954136e-05,0.16735557685364966,-3.7711628891878846e-06,-0.2635861337349171
221,0.1684,889.169,954.198,-0.799617,0.00590906,0.0151782,-0.189091,0.155597,0.155597,-0.307672,5.28917e-11,1.1663e-05,-4.20186e-06,0.275038,0.16835526103122245,5.289169102695723e-11,1.1663068013145761e-05,0.16835526103122245,-4.201851172225268e-06,-0.2648435902297369
222,0.1694,889.978,955.033,-0.803044,0.0058903,0.0149266,-0.188882,0.156452,0.156452,-0.30938,5.73829e-11,1.15507e-05,-4.62844e-06,0.276576,0.16935463194959133,5.738298725077584e-11,1.1550766709556015e-05,0.16935463194959133,-4.6284292888332246e-06,-0.2660981656652087
223,0.1704,890.789,955.868,-0.800579,0.00587178,0.0150689,-0.187961,0.157307,0.157307,-0.311087,6.16038e-11,1.14447e-05,-5.04246e-06,0.278112,0.1703548576954821,6.160383314579576e-11,1.1444765490864484e-05,0.1703548576954821,-5.0424472868293435e-06,-0.2673498674649929
224,0.1714,891.601,956.704,-0.793126,0.00585348,0.0155439,-0.186441,0.158161,0.158161,-0.312792,6.55666e-11,1.13455e-05,-5.44337e-06,0.279648,0.17135476764473156,6.55666632098928e-11,1.1345564360443205e-05,0.17135476764473156,-5.443355184930887e-06,-0.2685979716298088
225,0.1724,892.411,957.537,-0.783603,0.0058354,0.016156,-0.184676,0.159015,0.159015,-0.314495,6.93216e-11,1.12507e-05,-5.8351e-06,0.281182,0.17235553188180663,6.932165952378e-11,1.125076328944985e-05,0.17235553188180663,-5.835082975802486e-06,-0.26984248927656695
226,0.1734,893.216,958.366,-0.774577,0.00581753,0.0167331,-0.182976,0.159867,0.159867,-0.316198,7.29161e-11,1.1158e-05,-6.22206e-06,0.282715,0.17335480442462514,7.29161175883064e-11,1.1158062250604672e-05,0.17335480442462514,-6.222040643044657e-06,-0.2710848893134292
227,0.1744,894.015,959.189,-0.767187,0.00579986,0.0171989,-0.181479,0.160719,0.160719,-0.317898,-8.8983e-11,1.10659e-05,-6.60678e-06,0.284246,0.17435492871044111,-8.898304315607675e-11,1.1065961227352261e-05,0.17435492871044111,-6.606758175320415e-06,-0.2723229923158679
228,0.1754,894.808,960.005,-0.761271,0.00578236,0.0175644,-0.180164,0.16157,0.16157,-0.319598,7.97081e-11,1.09743e-05,-6.98963e-06,0.285777,0.17535473010993097,7.970801796375326e-11,1.0974360217907986e-05,0.17535473010993097,-6.989605572549351e-06,-0.2735589923312478
229,0.1764,895.596,960.817,-0.756065,0.00576501,0.017881,-0.178939,0.162421,0.162421,-0.321296,8.29083e-11,1.08836e-05,-7.36966e-06,0.287306,0.17635538270254325,8.290834685453774e-11,1.088365922652379e-05,0.17635538270254325,-7.369632844089757e-06,-0.27479144251594545
230,0.1774,896.38,961.624,-0.750866,0.00574781,0.0181962,-0.177717,0.16327,0.16327,-0.322992,8.59732e-11,1.07945e-05,-7.74574e-06,0.288834,0.17735453250153177,8.597322853631795e-11,1.0794558260807108e-05,0.17735453250153177,-7.745710001838546e-06,-0.27602035381808254
231,0.1784,897.161,962.428,-0.745345,0.00573075,0.0185318,-0.17646,0.164119,0.164119,-0.324687,8.89038e-11,1.07073e-05,-8.11723e-06,0.29036,0.17835453093889564,8.890377323211851e-11,1.0707357323447297e-05,0.17835453093889564,-8.117197055401704e-06,-0.2772464598999038
232,0.1794,897.938,963.227,-0.739528,0.00571382,0.0188861,-0.175172,0.164968,0.164968,-0.326381,9.17054e-11,1.06221e-05,-8.48406e-06,0.291885,0.17935537873543472,9.170531001245763e-11,1.0622156414674677e-05,0.17935537873543472,-8.484024010435576e-06,-0.278469767962367
233,0.1804,898.711,964.023,-0.733613,0.00569702,0.0192459,-0.173874,0.165815,0.165815,-0.328073,9.4385e-11,1.05387e-05,-8.84653e-06,0.293409,0.18035471590076857,9.438494430469291e-11,1.0538755532252253e-05,0.18035471590076857,-8.846490869518497e-06,-0.27968956487577656
234,0.1814,901.235,966.556,1.02346,0.00568068,0.138796,0.0406604,0.166662,0.166662,-0.329753,7.03586e-11,1.24785e-05,-5.59798e-06,0.294926,0.1813548998632497,7.03586078287799e-11,1.2478577856800399e-05,0.1813548998632497,-5.597964331305327e-06,-0.28089867047370143
235,0.1824,900.218,965.577,-0.747927,0.00566966,0.0177428,-0.175404,0.167508,0.167508,-0.331453,9.59467e-11,1.0744e-05,-8.91171e-06,0.296453,0.18235474898507853,9.594680605573558e-11,1.0744057717060329e-05,0.18235474898507853,-8.911670290823182e-06,-0.28212010422104894
236,0.1834,900.903,966.284,-0.81886,0.00565219,0.0128604,-0.183363,0.168354,0.168354,-0.333141,9.93951e-11,1.0569e-05,-9.43253e-06,0.297974,0.18335544433716922,9.939515877022131e-11,1.0569055852061027e-05,0.18335544433716922,-9.43248551388276e-06,-0.2833308633169578
237,0.1844,901.673,967.075,-0.800663,0.00563474,0.014089,-0.180511,0.169198,0.169198,-0.334828,1.0187e-10,1.04817e-05,-9.79719e-06,0.299493,0.18435461792413133,1.0187006793671571e-10,1.0481754933122645e-05,0.18435461792413133,-9.797142007661463e-06,-0.2845388649146998
238,0.1854,902.478,967.901,-0.744171,0.00561762,0.0178726,-0.173089,0.170042,0.170042,-0.336513,1.03845e-10,1.04425e-05,-1.00748e-05,0.30101,0.1853546351695745,1.0384493265291894e-10,1.0442554523093506e-05,0.1853546351695745,-1.0074749249411319e-05,-0.2857434018199799
239,0.1864,904.953,970.385,0.983523,0.00560119,0.135758,0.0378099,0.170886,0.170886,-0.338186,8.34687e-11,1.23562e-05,-6.87775e-06,0.30252,0.18635549678584717,8.346878743736852e-11,1.2356276338110206e-05,0.18635549678584717,-6.877726348331059e-06,-0.28693735408917953
240,0.1874,903.997,969.465,-0.709016,0.00559007,0.0197131,-0.168635,0.171728,0.171728,-0.339878,1.05023e-10,1.06928e-05,-1.00499e-05,0.304041,0.1873548287738669,1.0502310132665116e-10,1.0692857168148606e-05,0.1873548287738669,-1.0049849499926822e-05,-0.28814283596080315
241,0.1884,904.678,970.167,-0.764776,0.00557289,0.0158382,-0.174787,0.17257,0.17257,-0.34156,1.07857e-10,1.05437e-05,-1.05186e-05,0.305555,0.18835500255376525,1.0785705661930933e-10,1.0543755585068482e-05,0.18835500255376525,-1.0518544679705144e-05,-0.2893391733089583
242,0.1894,905.424,970.934,-0.75196,0.00555582,0.0166954,-0.172613,0.173411,0.173411,-0.343239,1.10029e-10,1.04625e-05,-1.08667e-05,0.307068,0.18935482947920534,1.1002909694468599e-10,1.0462554732137974e-05,0.18935482947920534,-1.0866640957618579e-05,-0.2905313717063467
243,0.1904,907.92,973.438,1.01068,0.00553935,0.137226,0.0424977,0.174252,0.174252,-0.344907,9.08157e-11,1.24229e-05,-7.59046e-06,0.308573,0.19035549761276793,9.081579932512795e-11,1.2422977164527893e-05,0.19035549761276793,-7.590431192583402e-06,-0.2917137789765337
244,0.1914,906.912,972.464,-0.719899,0.0055283,0.0183265,-0.168545,0.175091,0.175091,-0.346594,1.11242e-10,1.07126e-05,-1.08346e-05,0.310089,0.19135462495057443,1.1124190457678651e-10,1.0712657380063106e-05,0.19135462495057443,-1.083454130590411e-05,-0.2929076505176119
245,0.1924,907.597,973.169,-0.75783,0.00551118,0.0156499,-0.172542,0.17593,0.17593,-0.348269,1.13715e-10,1.05808e-05,-1.12675e-05,0.311598,0.19235459090796891,1.1371503738644151e-10,1.0580855976938253e-05,0.19235459090796891,-1.12674365219112e-05,-0.29409103883859744
246,0.1934,908.345,973.937,-0.728966,0.00549426,0.0175949,-0.168439,0.176769,0.176769,-0.349943,1.15596e-10,1.05193e-05,-1.1576e-05,0.313106,0.19335539618884878,1.1559597723476145e-10,1.0519355327920366e-05,0.19335539618884878,-1.1575932998386662e-05,-0.2952717419153851
247,0.1944,910.768,976.368,0.974311,0.005478,0.134345,0.0394329,0.177606,0.177606,-0.351606,9.86302e-11,1.2424e-05,-8.4025e-06,0.314606,0.1943546527860074,9.863021510625458e-11,1.2424077178163628e-05,0.1943546527860074,-8.402464699130974e-06,-0.2964427310612341
248,0.1954,909.825,975.459,-0.676483,0.00546696,0.0206141,-0.161906,0.178443,0.178443,-0.353286,1.16683e-10,1.07889e-05,-1.15014e-05,0.316117,0.19535474611105963,1.166831076204744e-10,1.0788958200391718e-05,0.19535474611105963,-1.150133385918739e-05,-0.29762371496880147
249,0.1964,910.5,976.153,-0.710706,0.0054502,0.0181802,-0.16548,0.179279,0.179279,-0.354956,1.189e-10,1.06706e-05,-1.19058e-05,0.317621,0.19635448050956117,1.1890000095604591e-10,1.0670656930944489e-05,0.19635448050956117,-1.1905729126238107e-05,-0.29879570448118054
250,0.1974,912.919,978.579,0.9989,0.00543394,0.135588,0.0431879,0.180115,0.180115,-0.356615,1.02109e-10,1.25927e-05,-8.70422e-06,0.319118,0.19735505103547246,1.0210898793161505e-10,1.2592779288445044e-05,0.19735505103547246,-8.70418211840196e-06,-0.2999580379852157
251,0.1984,911.939,977.632,-0.679511,0.00542288,0.0197714,-0.161503,0.18095,0.18095,-0.358291,1.20076e-10,1.09235e-05,-1.18551e-05,0.320625,0.19835526003222892,1.2007594918372888e-10,1.0923559661701887e-05,0.19835526003222892,-1.1855029728558009e-05,-0.30113032566206865
252,0.1994,912.612,978.325,-0.704987,0.00540611,0.017928,-0.16402,0.181784,0.181784,-0.359957,1.22169e-10,1.08136e-05,-1.2241e-05,0.322125,0.1993551051965754,1.2216894162975223e-10,1.0813658467112575e-05,0.1993551051965754,-1.2240925079232134e-05,-0.3022936732019369
253,0.2004,914.999,980.719,0.982274,0.00538993,0.133994,0.0419055,0.182617,0.182617,-0.361612,1.06038e-10,1.27161e-05,-9.07651e-06,0.323618,0.2003545842244252,1.0603806721576348e-10,1.2716180849858816e-05,0.2003545842244252,-9.076468808655314e-06,-0.3034474221821609
254,0.2014,914.046,979.798,-0.659082,0.00537882,0.0205242,-0.158267,0.18345,0.18345,-0.363284,1.23226e-10,1.10792e-05,-1.21619e-05,0.325121,0.20135489616516544,1.232260959938003e-10,1.1079261374558058e-05,0.20135489616516544,-1.2161826044354562e-05,-0.3046110849990643
255,0.2024,914.716,980.486,-0.679389,0.00536222,0.0190286,-0.160172,0.184282,0.184282,-0.364946,1.25207e-10,1.09788e-05,-1.25273e-05,0.326618,0.2023548393574608,1.252069559143365e-10,1.0978860267352175e-05,0.2023548393574608,-1.25272215336647e-05,-0.30576586149071683
256,0.2034,917.039,982.817,0.954526,0.00534623,0.131627,0.0392614,0.185114,0.185114,-0.366596,1.0995e-10,1.28299e-05,-9.45617e-06,0.328108,0.20335561484868037,1.0995004906533268e-10,1.282998230345278e-05,0.20335561484868037,-9.45612529057449e-06,-0.3069104033125861
257,0.2044,916.139,981.947,-0.625328,0.0053351,0.0221833,-0.153437,0.185944,0.185944,-0.368264,1.26174e-10,1.12515e-05,-1.24297e-05,0.329607,0.2043548146195473,1.2617396016878502e-10,1.1251563298397826e-05,0.2043548146195473,-1.2429622751608527e-05,-0.30806551313045816
258,0.2054,916.798,982.625,-0.646136,0.00531876,0.0206489,-0.155419,0.186774,0.186774,-0.369922,1.28078e-10,1.11571e-05,-1.27812e-05,0.3311,0.20535484407049376,1.2807799265601716e-10,1.1157162240760243e-05,0.20535484407049376,-1.2781118320814855e-05,-0.3092117899835871
259,0.2064,919.05,984.884,0.925661,0.00530303,0.129166,0.0364634,0.187603,0.187603,-0.371568,1.13678e-10,1.29477e-05,-9.81882e-06,0.332586,0.20635449753533908,1.1367795593741903e-10,1.2947783821770642e-05,0.20635449753533908,-9.818771795511161e-06,-0.31034789210872027
260,0.2074,919.655,985.509,0.857508,0.00529191,0.122759,0.0264238,0.188432,0.188432,-0.373223,1.13105e-10,1.313e-05,-9.67652e-06,0.334076,0.2073549800565031,1.1310508085671245e-10,1.3130086198742674e-05,0.2073549800565031,-9.676473182618217e-06,-0.3114883223809245
261,0.2084,919.387,985.267,-0.0791739,0.0052801,0.0595258,-0.085621,0.18926,0.18926,-0.374882,1.23521e-10,1.23133e-05,-1.13184e-05,0.335569,0.20835508396587055,1.2352097122914074e-10,1.2313375808981064e-05,0.20835508396587055,-1.1318335947141378e-05,-0.3126296162890343
262,0.2094,919.342,985.245,-0.790569,0.00526522,0.00952881,-0.172602,0.190087,0.190087,-0.376538,1.31086e-10,1.15114e-05,-1.29049e-05,0.337059,0.2093548069487854,1.3108603091893656e-10,1.1511466256441949e-05,0.2093548069487854,-1.2904816732106639e-05,-0.3137669596642302
263,0.2104,921.496,987.405,0.694593,0.00524869,0.111078,0.00722426,0.190914,0.190914,-0.37818,1.17853e-10,1.31503e-05,-1.02004e-05,0.338541,0.2103553570445713,1.178530606438244e-10,1.3150386465543562e-05,0.2103553570445713,-1.0200347976052626e-05,-0.3148928297241814
264,0.2114,922.163,988.091,0.700654,0.0052367,0.111034,0.00777778,0.19174,0.19174,-0.379829,1.16784e-10,1.33817e-05,-9.97633e-06,0.340026,0.21135552358140397,1.1678391587111037e-10,1.3381789535360511e-05,0.21135552358140397,-9.976280236578816e-06,-0.3160216404877032
265,0.2124,922.094,988.046,-0.0252892,0.0052244,0.0621214,-0.0786868,0.192565,0.192565,-0.381481,1.25106e-10,1.27707e-05,-1.12471e-05,0.341513,0.21235530424117455,1.2510592561909561e-10,1.277078154582334e-05,0.21235530424117455,-1.1247036751593775e-05,-0.3171506399273173
266,0.2134,923.744,989.706,0.966368,0.00521015,0.130133,0.0417143,0.193389,0.193389,-0.383122,1.12389e-10,1.40114e-05,-9.24871e-06,0.342993,0.21335469670501728,1.1238898700582922e-10,1.401149816016023e-05,0.21335469670501728,-9.248667230843388e-06,-0.3182702768138771
267,0.2144,924.026,990.009,0.596374,0.00519848,0.102766,-0.00519468,0.194213,0.194213,-0.384769,1.16242e-10,1.38356e-05,-9.72883e-06,0.344476,0.21435491300762544,1.1624190499048837e-10,1.3835695712449692e-05,0.21435491300762544,-9.728782675133552e-06,-0.3193921615422879
268,0.2154,924.378,990.381,0.298471,0.00518552,0.0832462,-0.0397826,0.195036,0.195036,-0.386415,1.19648e-10,1.37034e-05,-1.01536e-05,0.345957,0.21535473847277542,1.1964806923003835e-10,1.3703493892069929e-05,0.21535473847277542,-1.0153548452351835e-05,-0.32051152055919363
269,0.2164,925.177,991.196,0.449823,0.00517172,0.0933614,-0.0214238,0.195859,0.195859,-0.388057,1.17413e-10,1.40176e-05,-9.78181e-06,0.347436,0.21635538713298152,1.1741296823686298e-10,1.4017698247048571e-05,0.21635538713298152,-9.781762158267426e-06,-0.3216263251374021
270,0.2174,925.414,991.453,0.0429549,0.00515827,0.0649303,-0.0708263,0.196681,0.196681,-0.3897,1.22865e-10,1.36998e-05,-1.05177e-05,0.348916,0.21735564230976112,1.228650514661922e-10,1.3699893842700206e-05,0.21735564230976112,-1.0517644689178596e-05,-0.32273997796887954
271,0.2184,926.71,992.76,0.694593,0.005144,0.109626,0.00826348,0.197502,0.197502,-0.391336,1.137e-10,1.45512e-05,-9.20206e-06,0.350391,0.21835550167820594,1.1369993835330661e-10,1.455130586913711e-05,0.21835550167820594,-9.202017661191775e-06,-0.32384706951710884
272,0.2194,926.192,992.268,-0.459944,0.0051313,0.0296036,-0.131682,0.198322,0.198322,-0.392981,1.29177e-10,1.33945e-05,-1.14051e-05,0.35187,0.21935496291268497,1.2917689140579114e-10,1.33945897067278e-05,0.21935496291268497,-1.1405034962108651e-05,-0.3249584267458192
273,0.2204,927.99,994.074,0.698555,0.00511578,0.108121,0.00734405,0.199142,0.199142,-0.394612,1.14684e-10,1.47147e-05,-9.25519e-06,0.353341,0.2203552440414871,1.1468404004233435e-10,1.4714808261651058e-05,0.2203552440414871,-9.255147170872391e-06,-0.3260585221801009
274,0.2214,927.121,993.233,-0.800288,0.00510336,0.00550313,-0.172654,0.199961,0.199961,-0.396256,1.34176e-10,1.31599e-05,-1.21578e-05,0.35482,0.2213551243814662,1.341760036410733e-10,1.3159986591793071e-05,0.2213551243814662,-1.2157726094197407e-05,-0.3271655717255718
275,0.2224,927.95,994.076,-0.603498,0.0050868,0.0181137,-0.149346,0.200779,0.200779,-0.397889,1.34458e-10,1.32599e-05,-1.21413e-05,0.356291,0.22235460160366305,1.3445800028932808e-10,1.3259987912794813e-05,0.22235460160366305,-1.2141226294670737e-05,-0.3282634137149927
276,0.2234,929.903,996.035,0.71773,0.00507183,0.110168,0.0119438,0.201597,0.201597,-0.399515,1.18773e-10,1.47798e-05,-9.66123e-06,0.357758,0.22335489673270592,1.187729914420288e-10,1.4779909221829257e-05,0.22335489673270592,-9.661183330456069e-06,-0.32935476989127
277,0.2244,930.431,996.581,0.62045,0.00506044,0.101904,-0.00135411,0.202414,0.202414,-0.401147,1.19084e-10,1.48674e-05,-9.66879e-06,0.359228,0.2243547860825179,1.1908407593352877e-10,1.4867510520266691e-05,0.2243547860825179,-9.668743257362777e-06,-0.33044837028615837
278,0.2254,930.521,996.692,0.088915,0.00504845,0.0660736,-0.0642625,0.203231,0.203231,-0.402781,1.26129e-10,1.44487e-05,-1.05803e-05,0.360698,0.2253554926757273,1.2612910715859016e-10,1.4448804382949376e-05,0.2253554926757273,-1.058024402877944e-05,-0.3315415242990596
279,0.2264,931.788,997.97,0.733567,0.00503526,0.110472,0.0139744,0.204046,0.204046,-0.404406,1.1639e-10,1.53042e-05,-9.25474e-06,0.362164,0.22635456446871305,1.1639000874197336e-10,1.5304317109832155e-05,0.22635456446871305,-9.254697175054005e-06,-0.3326268872258592
280,0.2274,931.188,997.394,-0.482238,0.00502336,0.0258548,-0.133404,0.204861,0.204861,-0.406041,1.33347e-10,1.40651e-05,-1.15836e-05,0.363634,0.22735445083710415,1.3334688908628323e-10,1.4065198914003929e-05,0.22735445083710415,-1.1583532910419692e-05,-0.3337171507319521
281,0.2284,932.987,999.201,0.698974,0.00500867,0.106265,0.00832972,0.205676,0.205676,-0.407661,1.17914e-10,1.54143e-05,-9.3836e-06,0.365095,0.2283551524450509,1.1791390086557385e-10,1.5414418800929752e-05,0.2283551524450509,-9.383555974129543e-06,-0.3347956551233403
282,0.2294,932.085,998.326,-0.812799,0.00499683,0.00233686,-0.173177,0.20649,0.20649,-0.409295,1.38375e-10,1.38233e-05,-1.23283e-05,0.366564,0.2293554406011884,1.3837508916481056e-10,1.3823395542233996e-05,0.2293554406011884,-1.23282240068745e-05,-0.33588171147318746
283,0.2304,932.928,999.181,-0.581854,0.00498099,0.0173829,-0.145734,0.207303,0.207303,-0.410917,-2.48504e-10,1.39587e-05,-1.22417e-05,0.368026,0.23035531296744027,-2.4850399515941035e-10,1.3958797423052616e-05,0.23035531296744027,-1.2241625070741335e-05,-0.33695803820022807
284,0.2314,934.788,1001.05,0.667509,0.00496684,0.104787,0.00677742,0.208115,0.208115,-0.412533,1.22755e-10,1.54051e-05,-9.8912e-06,0.369484,0.23135476720507508,1.2275491734214938e-10,1.5405218659170217e-05,0.23135476720507508,-9.891151082297434e-06,-0.33802864872420546
285,0.2324,935.283,1001.56,0.557437,0.00495587,0.0956558,-0.00800333,0.208927,0.208927,-0.414155,1.23403e-10,1.54602e-05,-9.94685e-06,0.370944,0.232355033329132,1.2340306554392555e-10,1.546031950949711e-05,0.232355033329132,-9.94680053023611e-06,-0.33910149594167005
286,0.2334,935.46,1001.76,0.132739,0.00494431,0.0670803,-0.0579661,0.209738,0.209738,-0.415777,1.29107e-10,1.51457e-05,-1.06642e-05,0.372405,0.23335487864363524,1.2910694735523975e-10,1.5145814696637672e-05,0.23335487864363524,-1.0664143137661952e-05,-0.34017260441145347
287,0.2344,936.55,1002.86,0.620601,0.00493183,0.100741,0.00123139,0.210549,0.210549,-0.417393,1.21528e-10,1.58225e-05,-9.64603e-06,0.373862,0.23435553516158714,1.2152789885533366e-10,1.5822625176520333e-05,0.23435553516158714,-9.645983477191145e-06,-0.3412380243915226
288,0.2354,936.22,1002.55,-0.305056,0.00492018,0.0359884,-0.110946,0.211358,0.211358,-0.419015,1.34893e-10,1.48924e-05,-1.14197e-05,0.375322,0.23535453282960428,1.3489298567037622e-10,1.4892510892261512e-05,0.23535453282960428,-1.141963479545094e-05,-0.3423056702211208
289,0.2364,936.304,1002.65,-0.81699,0.004906,-0.00059918,-0.173417,0.212168,0.212168,-0.420635,1.42851e-10,1.42393e-05,-1.26968e-05,0.376779,0.23635557536869256,1.4285106431088934e-10,1.4239401379345651e-05,0.23635557536869256,-1.269671939596595e-05,-0.34337027247470864
290,0.2374,936.858,1003.22,-0.856958,0.00489086,-0.00337525,-0.177571,0.212976,0.212976,-0.422249,1.45626e-10,1.40564e-05,-1.31621e-05,0.378234,0.23735495436833487,1.4562595573863746e-10,1.4056498791603644e-05,0.23735495436833487,-1.3162013379974802e-05,-0.34442921805597126
291,0.2384,937.639,1004.01,-0.667661,0.00487614,0.00974636,-0.154155,0.213784,0.213784,-0.423862,1.4594e-10,1.4143e-05,-1.31596e-05,0.379687,0.238355141192526,1.4593992681000145e-10,1.4143100012686816e-05,0.238355141192526,-1.3159513412852597e-05,-0.3454858013637272
292,0.2394,939.637,1006.02,0.738824,0.00486299,0.10839,0.0172653,0.214591,0.214591,-0.425466,1.29301e-10,1.57707e-05,-1.04954e-05,0.381134,0.23935489713873515,1.2930101433994423e-10,1.577082435821886e-05,0.23935489713873515,-1.0495344923477923e-05,-0.3465348006160326
293,0.2404,940.133,1006.53,0.648264,0.00485321,0.100543,0.00478532,0.215398,0.215398,-0.427077,1.29376e-10,1.58608e-05,-1.04813e-05,0.382585,0.24035546021362553,1.293760654164089e-10,1.5860925783206525e-05,0.24035546021362553,-1.0481245071414236e-05,-0.34758668553144256
294,0.2414,940.121,1006.53,0.0534643,0.0048427,0.0600011,-0.0657659,0.216204,0.216204,-0.42869,1.37172e-10,1.53516e-05,-1.15247e-05,0.384037,0.2413555897126023,1.3717205149532674e-10,1.5351717836509238e-05,0.2413555897126023,-1.1524633590886957e-05,-0.34863817994945345
295,0.2424,941.423,1007.85,0.772461,0.00483096,0.109929,0.0214239,0.217009,0.217009,-0.430294,1.26373e-10,1.62951e-05,-1.004e-05,0.385484,0.24235528328499845,1.2637291213479784e-10,1.6295232765806134e-05,0.24235528328499845,-1.0039949599360831e-05,-0.349682126839585
296,0.2434,940.67,1007.12,-0.556998,0.00482032,0.0167511,-0.139594,0.217813,0.217813,-0.431909,1.44588e-10,1.48918e-05,-1.26167e-05,0.386936,0.24335453857956013,1.4458789721061294e-10,1.4891910883330084e-05,0.24335453857956013,-1.2616620409744428e-05,-0.3507315425734413
297,0.2444,942.513,1008.96,0.704991,0.00480694,0.10345,0.0118487,0.218617,0.218617,-0.433508,1.28372e-10,1.63396e-05,-1.02468e-05,0.388378,0.24435459759843248,1.283719797129379e-10,1.6339733492021224e-05,0.24435459759843248,-1.0246747501718723e-05,-0.3517688932539723
298,0.2454,942.948,1009.42,0.565744,0.00479659,0.0932925,-0.00516404,0.219421,0.219421,-0.435113,1.29242e-10,1.6373e-05,-1.03333e-05,0.389824,0.2453554609880697,1.2924195047503417e-10,1.6373134038349946e-05,0.2453554609880697,-1.0333246611593516e-05,-0.3528084696970396
299,0.2464,943.089,1009.57,0.135056,0.00478557,0.0641221,-0.05582,0.220223,0.220223,-0.436718,1.35086e-10,1.60383e-05,-1.10665e-05,0.39127,0.24635463668367996,1.3508594243205607e-10,1.603842861430671e-05,0.24635463668367996,-1.106643876647162e-05,-0.35384637895818705
300,0.2474,944.13,1010.63,0.604134,0.00477373,0.0966501,0.00103684,0.221025,0.221025,-0.438318,1.27586e-10,1.66929e-05,-1.00789e-05,0.392711,0.24735461403962078,1.275859418115033e-10,1.6693039327275727e-05,0.24735461403962078,-1.0078849208006169e-05,-0.3548793981161502
301,0.2484,943.807,1010.32,-0.285828,0.00476255,0.0340159,-0.106747,0.221827,0.221827,-0.439923,1.40662e-10,1.57793e-05,-1.1798e-05,0.394156,0.24835539369908188,1.4066192655093346e-10,1.5779424493711502e-05,0.24835539369908188,-1.1797930403845136e-05,-0.3559139862031403
302,0.2494,943.896,1010.43,-0.761865,0.00474907,-0.000263554,-0.16485,0.222627,0.222627,-0.441525,1.48327e-10,1.51583e-05,-1.29978e-05,0.395598,0.24935447759431484,1.4832690631294554e-10,1.5158414887528338e-05,0.24935447759431484,-1.2997715528983989e-05,-0.35694498594595203
303,0.2504,944.437,1010.98,-0.785614,0.0047348,-0.00193108,-0.167077,0.223428,0.223428,-0.443124,1.50824e-10,1.49993e-05,-1.34048e-05,0.397038,0.25035561143144225,1.5082401993993244e-10,1.4999412490057651e-05,0.25035561143144225,-1.3404710156095234e-05,-0.3579724092695675
304,0.2514,946.723,1013.27,0.934324,0.00472195,0.119195,0.0421468,0.224227,0.224227,-0.44471,1.28323e-10,1.70014e-05,-1.00979e-05,0.39847,0.2513550447854309,1.2832290785524947e-10,1.700154452466407e-05,0.2513550447854309,-1.009784901639943e-05,-0.358989857978366
305,0.2524,945.796,1012.37,-0.549034,0.00471233,0.0140532,-0.138381,0.225026,0.225026,-0.446314,1.48864e-10,1.54092e-05,-1.29713e-05,0.399913,0.252355277005774,1.488640322122592e-10,1.5409318722348075e-05,0.252355277005774,-1.297121587306993e-05,-0.3600172140863036
306,0.2534,947.625,1014.2,0.718898,0.00469979,0.102502,0.0149025,0.225824,0.225824,-0.447901,1.32268e-10,1.68902e-05,-1.05519e-05,0.401345,0.253355055375339,1.322679743509525e-10,1.689034264029665e-05,0.253355055375339,-1.0551844328854365e-05,-0.3610320612733089
307,0.2544,948.027,1014.62,0.565461,0.00469008,0.0913063,-0.0038275,0.226622,0.226622,-0.449495,1.33302e-10,1.69025e-05,-1.06644e-05,0.40278,0.2543556318864588,1.3330203607608837e-10,1.6902642848037885e-05,0.2543556318864588,-1.0664343135458054e-05,-0.3620497648424098
308,0.2554,948.151,1014.76,0.13705,0.00467962,0.0621626,-0.0542024,0.227418,0.227418,-0.451089,1.39086e-10,1.65602e-05,-1.13973e-05,0.404216,0.25535449646480113,1.390860759897805e-10,1.656033712094107e-05,0.25535449646480113,-1.1397235051058274e-05,-0.363065847484244
309,0.2564,949.156,1015.77,0.588894,0.00466841,0.0936071,0.000537918,0.228215,0.228215,-0.452677,1.31809e-10,1.71944e-05,-1.04392e-05,0.405647,0.2563554128106649,1.3180900815257246e-10,1.7194547824450623e-05,0.2563554128106649,-1.0439145511687009e-05,-0.3640764962509351
310,0.2574,948.847,1015.48,-0.267591,0.0046577,0.033083,-0.103142,0.22901,0.22901,-0.454271,1.44383e-10,1.63032e-05,-1.21024e-05,0.407081,0.25735461249309655,1.4438295004026713e-10,1.6303332897926737e-05,0.25735461249309655,-1.2102326766294524e-05,-0.36508935085633243
311,0.2584,948.942,1015.59,-0.720157,0.00464484,0.000324196,-0.158395,0.229805,0.229805,-0.455862,1.51725e-10,1.57045e-05,-1.32488e-05,0.408514,0.258354606855119,1.5172507694671822e-10,1.5704623316237232e-05,0.258354606855119,-1.324871223506996e-05,-0.36609869055647837
312,0.2594,949.47,1016.13,-0.738015,0.00463125,-0.000942247,-0.159933,0.2306,0.2306,-0.457449,1.54031e-10,1.55568e-05,-1.3625e-05,0.409943,0.25935539652875383,1.5403101016886467e-10,1.5556921007631175e-05,0.25935539652875383,-1.3624907180154189e-05,-0.3671038940945849
313,0.2604,951.639,1018.31,0.883944,0.00461911,0.11375,0.0373389,0.231393,0.231393,-0.459025,1.3262e-10,1.74632e-05,-1.04865e-05,0.411366,0.26035446143508123,1.3261991504975867e-10,1.7463352482538497e-05,0.26035446143508123,-1.0486445016888446e-05,-0.36810055278415477
314,0.2614,952.068,1018.75,0.771832,0.00461034,0.104241,0.0221437,0.232187,0.232187,-0.46061,1.32529e-10,1.75425e-05,-1.04677e-05,0.412793,0.2613555802690428,1.3252909880634434e-10,1.754265387066134e-05,0.2613555802690428,-1.0467645213840804e-05,-0.369101320090389
315,0.2624,951.807,1018.51,-0.0267666,0.00460061,0.0489717,-0.0730163,0.232979,0.232979,-0.462197,1.43805e-10,1.6777e-05,-1.19175e-05,0.414222,0.2623549695945486,1.4380496793364728e-10,1.6777140734669516e-05,0.2623549695945486,-1.1917428986873979e-05,-0.37010176223459057
316,0.2634,953.295,1020.0,0.920972,0.00458972,0.115478,0.0417723,0.233771,0.233771,-0.463773,1.28387e-10,1.79952e-05,-9.95331e-06,0.415644,0.26335515074992366,1.283870787460728e-10,1.799536191460227e-05,0.26335515074992366,-9.953260465933589e-06,-0.37109370000503306
317,0.2644,953.418,1020.14,0.5093,0.00458038,0.0846914,-0.00993174,0.234562,0.234562,-0.465356,1.33668e-10,1.77014e-05,-1.05706e-05,0.417069,0.2643548600070531,1.3366796558500482e-10,1.770155667069062e-05,0.2643548600070531,-1.0570544131449644e-05,-0.37208847110886434
318,0.2654,953.771,1020.51,0.329511,0.00456995,0.0729179,-0.030248,0.235353,0.235353,-0.466936,1.35667e-10,1.76449e-05,-1.07994e-05,0.418492,0.2653553603470369,1.3566703316314488e-10,1.764505567214414e-05,0.2653553603470369,-1.0799341686684727e-05,-0.3730797879779588
319,0.2664,954.269,1021.02,0.294815,0.00455908,0.0701589,-0.0344365,0.236143,0.236143,-0.468514,1.35824e-10,1.77103e-05,-1.08083e-05,0.419914,0.26635538603985,1.3582401869882688e-10,1.7710456828190502e-05,0.26635538603985,-1.0808241590498646e-05,-0.37406828794093805
320,0.2674,954.728,1021.49,0.224391,0.00454812,0.0648498,-0.0429803,0.236932,0.236932,-0.470092,1.36713e-10,1.77213e-05,-1.09088e-05,0.421334,0.2673549347095323,1.367130852969467e-10,1.772145702316763e-05,0.2673549347095323,-1.090874049924917e-05,-0.3750552292810527
321,0.2684,955.323,1022.1,0.290967,0.00453713,0.0692513,-0.0348924,0.237721,0.237721,-0.471667,1.35431e-10,1.78883e-05,-1.07414e-05,0.422753,0.2683552723343168,1.3543099974810957e-10,1.788845999661781e-05,0.2683552723343168,-1.074134231138224e-05,-0.37603874257490555
322,0.2694,955.719,1022.5,0.161122,0.00452624,0.0597874,-0.0505558,0.238509,0.238509,-0.473242,1.3736e-10,1.78224e-05,-1.09712e-05,0.424172,0.2693551301811701,1.3735990123109332e-10,1.782255881987993e-05,0.2693551301811701,-1.0971139816629005e-05,-0.37702070805454413
323,0.2704,956.45,1023.25,0.366751,0.00451531,0.0740354,-0.0256252,0.239296,0.239296,-0.474813,1.33793e-10,1.81492e-05,-1.05286e-05,0.425588,0.2703545058713748,1.3379297669757761e-10,1.8149364697794823e-05,0.2703545058713748,-1.0528544574506249e-05,-0.37799864015539386
324,0.2714,956.629,1023.44,0.0239153,0.00450459,0.0495115,-0.0670408,0.240083,0.240083,-0.476387,1.39221e-10,1.78296e-05,-1.1189e-05,0.427006,0.27135466837982025,1.3922107910957493e-10,1.7829758948373353e-05,0.27135466837982025,-1.1188937403372456e-05,-0.37897690020316377
325,0.2724,957.713,1024.53,0.585941,0.0044937,0.0889935,0.00101935,0.24087,0.24087,-0.477954,1.29594e-10,1.85749e-05,-1.00302e-05,0.428419,0.2723556183259759,1.2959389117384035e-10,1.857507251457058e-05,0.2723556183259759,-1.0030149697692892e-05,-0.3799492813409513
326,0.2734,957.305,1024.14,-0.339416,0.0044833,0.0232536,-0.110808,0.241655,0.241655,-0.479529,1.44489e-10,1.75657e-05,-1.18644e-05,0.429836,0.27335480961763325,1.444890873614213e-10,1.756585427781232e-05,0.27335480961763325,-1.1864329618305192e-05,-0.38092509256977813
327,0.2744,957.418,1024.27,-0.742526,0.00447083,-0.0061432,-0.15993,0.24244,0.24244,-0.4811,1.51966e-10,1.69919e-05,-1.29418e-05,0.43125,0.27435478558239823,1.5196599534306188e-10,1.6992044363117742e-05,0.27435478558239823,-1.2941716255321367e-05,-0.3818968956981229
328,0.2754,957.983,1024.84,-0.693372,0.00445791,-0.00268633,-0.153405,0.243225,0.243225,-0.482666,1.53568e-10,1.69113e-05,-1.31833e-05,0.432661,0.27535554683648145,1.5356804716759598e-10,1.6911442996869752e-05,0.27535554683648145,-1.318321310073145e-05,-0.3828640876505027
329,0.2764,959.981,1026.84,0.787215,0.0044467,0.102718,0.0265731,0.244008,0.244008,-0.484223,1.32027e-10,1.86714e-05,-1.02988e-05,0.434067,0.27635454128494175,1.3202705595460884e-10,1.8671574311568406e-05,0.27635454128494175,-1.0298746967563055e-05,-0.38382422060855625
330,0.2774,960.36,1027.24,0.654861,0.00443818,0.0918202,0.00906555,0.244792,0.244792,-0.485788,1.32599e-10,1.86898e-05,-1.03665e-05,0.435476,0.27735559560732814,1.3259904285689572e-10,1.868997465548361e-05,0.27735559560732814,-1.0366446268061935e-05,-0.38478778152022564
331,0.2784,960.264,1027.16,0.0503274,0.00442878,0.0498818,-0.0625875,0.245574,0.245574,-0.487355,1.41651e-10,1.81145e-05,-1.14626e-05,0.436887,0.27835487835172223,1.4165091322126955e-10,1.8114664068535902e-05,0.27835487835172223,-1.1462534304618188e-05,-0.385751064137542
332,0.2794,961.447,1028.35,0.723877,0.00441871,0.0973704,0.018921,0.246356,0.246356,-0.488913,1.29845e-10,1.90098e-05,-1.00444e-05,0.438292,0.27935494284084506,1.2984502362201056e-10,1.9009980687378913e-05,0.27935494284084506,-1.0044349555204946e-05,-0.3867073188637524
333,0.2804,960.731,1027.65,-0.496422,0.00440897,0.0104934,-0.128566,0.247137,0.247137,-0.490481,1.49174e-10,1.76428e-05,-1.24735e-05,0.439702,0.28035450933111017,1.4917400648073453e-10,1.764295563511098e-05,0.28035450933111017,-1.247342220622727e-05,-0.38766820825362036
334,0.2814,962.3,1029.22,0.565908,0.00439769,0.0844943,-0.00144897,0.247918,0.247918,-0.492034,1.3335e-10,1.88883e-05,-1.0448e-05,0.441103,0.28135485678773176,1.3334999771075218e-10,1.8888478385159502e-05,0.28135485678773176,-1.0447945419822524e-05,-0.3886184214946431
335,0.2824,961.597,1028.54,-0.637644,0.00438771,-8.44916e-05,-0.145342,0.248698,0.248698,-0.4936,1.52024e-10,1.75186e-05,-1.28831e-05,0.442511,0.28235470346553826,1.520239489849473e-10,1.7518753451462032e-05,0.28235470346553826,-1.2883017013187725e-05,-0.38957509577511207
336,0.2834,963.331,1030.27,0.591279,0.00437642,0.0859445,0.00204612,0.249478,0.249478,-0.49515,1.34166e-10,1.89489e-05,-1.05445e-05,0.44391,0.2833553303279861,1.3416601163385167e-10,1.8949079531482838e-05,0.2833553303279861,-1.0544444406956899e-05,-0.3905205214824553
337,0.2844,962.48,1029.44,-0.755893,0.00436662,-0.00889102,-0.159136,0.250257,0.250257,-0.496713,1.54693e-10,1.73969e-05,-1.32841e-05,0.445316,0.2843554536277604,1.5469292513614619e-10,1.7397051326861757e-05,0.2843554536277604,-1.328401176670102e-05,-0.39147239382535937
338,0.2854,964.387,1031.35,0.649537,0.00435539,0.0897615,0.00956054,0.251035,0.251035,-0.49826,1.34636e-10,1.90289e-05,-1.0603e-05,0.446712,0.28535507097140855,1.3463608006247796e-10,1.9029081050669916e-05,0.28535507097140855,-1.0602943788406982e-05,-0.3924130582405858
339,0.2864,964.795,1031.77,0.561437,0.00434674,0.0830689,-0.00122774,0.251813,0.251813,-0.499814,1.34676e-10,1.9081e-05,-1.06101e-05,0.448112,0.28635546631995457,1.3467604809136446e-10,1.908118204352327e-05,0.28635546631995457,-1.0610043713055184e-05,-0.3933565150922421
340,0.2874,964.802,1031.79,0.0750608,0.00433742,0.049358,-0.0585705,0.25259,0.25259,-0.501369,1.41935e-10,1.86225e-05,-1.14929e-05,0.449512,0.28735535292292536,1.4193490827096866e-10,1.8622673399804057e-05,0.28735535292292536,-1.1492833956849857e-05,-0.3942991126517358
341,0.2884,965.844,1032.84,0.622543,0.00432765,0.0880358,0.00764522,0.253366,0.253366,-0.502917,1.32258e-10,1.93638e-05,-1.03311e-05,0.450908,0.28835472838432263,1.3225798234373087e-10,1.9363987479481537e-05,0.28835472838432263,-1.0331046634393104e-05,-0.3952360122779489
342,0.2894,965.354,1032.37,-0.356122,0.00431804,0.0180601,-0.11057,0.254142,0.254142,-0.504473,-3.16066e-10,1.82638e-05,-1.22879e-05,0.452308,0.28935487966205575,-3.160659511891595e-10,1.8263966784282104e-05,0.28935487966205575,-1.2287824504020328e-05,-0.3961762933144857
343,0.2904,965.463,1032.49,-0.736383,0.00430638,-0.00986071,-0.156855,0.254917,0.254917,-0.506023,1.54981e-10,1.76972e-05,-1.33277e-05,0.453704,0.29035451700322956,1.5498091698873395e-10,1.769735659640226e-05,0.29035451700322956,-1.3327611186553234e-05,-0.397111495091236
344,0.2914,966.037,1033.08,-0.651338,0.00429439,-0.0038331,-0.14603,0.255692,0.255692,-0.50757,1.5595e-10,1.76554e-05,-1.34838e-05,0.455098,0.29135492936362395,1.559499196446268e-10,1.765555585753198e-05,0.29135492936362395,-1.348370909393104e-05,-0.3980434425610998
345,0.2924,967.894,1034.93,0.715409,0.00428415,0.0940869,0.0200047,0.256466,0.256466,-0.509109,1.36076e-10,1.93012e-05,-1.07948e-05,0.456487,0.2923548249886405,1.3607603932541679e-10,1.930138626926592e-05,0.2923548249886405,-1.079474173637518e-05,-0.398969141195188
346,0.2934,968.229,1035.28,0.566036,0.00427609,0.0819919,0.000550208,0.25724,0.25724,-0.510655,1.37123e-10,1.92698e-05,-1.09286e-05,0.457879,0.2933554948324548,1.371229796376383e-10,1.926998566381677e-05,0.2933554948324548,-1.0928540283061672e-05,-0.399897617006168
347,0.2944,968.25,1035.32,0.105583,0.00426723,0.0500162,-0.0536737,0.258013,0.258013,-0.512201,1.43767e-10,1.88375e-05,-1.17565e-05,0.459272,0.29435564513825185,1.437669983062051e-10,1.8837677426830624e-05,0.29435564513825185,-1.1756430892573277e-05,-0.400824658502555
348,0.2954,969.206,1036.28,0.578887,0.00425793,0.0835081,0.0035562,0.258785,0.258785,-0.513741,1.35463e-10,1.94914e-05,-1.07379e-05,0.46066,0.29535527350320057,1.3546297417121878e-10,1.949158995850908e-05,0.29535527350320057,-1.0737842348951254e-05,-0.40174667839092515
349,0.2964,968.821,1035.91,-0.285081,0.00424866,0.0215323,-0.100766,0.259557,0.259557,-0.515288,1.48987e-10,1.85171e-05,-1.24686e-05,0.462052,0.29635567387920503,1.4898704492338766e-10,1.8517271442641814e-05,0.29635567387920503,-1.2468522267328197e-05,-0.4026714607758466
350,0.2974,968.931,1036.03,-0.652624,0.00423758,-0.00558263,-0.145572,0.260328,0.260328,-0.516831,1.55615e-10,1.79754e-05,-1.34558e-05,0.463441,0.2973555495062896,1.5561507638039984e-10,1.797556155858082e-05,0.2973555495062896,-1.345570947108854e-05,-0.40359242800293016
351,0.2984,969.459,1036.57,-0.602623,0.00422616,-0.00204257,-0.138991,0.261098,0.261098,-0.518369,1.56809e-10,1.79043e-05,-1.36534e-05,0.464828,0.29835489797919545,1.5680901022108173e-10,1.7904460282824886e-05,0.29835489797919545,-1.3653306792704711e-05,-0.4045089978257932
352,0.2994,971.238,1038.35,0.697388,0.00421635,0.091366,0.0189306,0.261868,0.261868,-0.5199,1.3802e-10,1.94842e-05,-1.10756e-05,0.466209,0.2993550162467582,1.3802003984153544e-10,1.9484389818247294e-05,0.2993550162467582,-1.1075538665750173e-05,-0.4054199970023068
353,0.3004,971.541,1038.67,0.527833,0.00420848,0.0778181,-0.00293407,0.262637,0.262637,-0.521438,1.39436e-10,1.94174e-05,-1.12608e-05,0.467594,0.3003546045466934,1.3943601828714236e-10,1.9417588518866324e-05,0.3003546045466934,-1.1260736597407117e-05,-0.4063337581844473
354,0.3014,971.622,1038.76,0.136594,0.00419985,0.0506858,-0.0487981,0.263406,0.263406,-0.522976,1.44865e-10,1.90582e-05,-1.19549e-05,0.468979,0.3013549618256659,1.4486500887755938e-10,1.905838160864981e-05,0.3013549618256659,-1.1954828540439166e-05,-0.4072461150820612
355,0.3024,972.466,1039.61,0.509318,0.00419083,0.0770684,-0.00374257,0.264174,0.264174,-0.524508,1.38335e-10,1.95888e-05,-1.11393e-05,0.47036,0.3023547863198104,1.3833489909131913e-10,1.9588991861718696e-05,0.3023547863198104,-1.1139237958257553e-05,-0.40815351878504424
356,0.3034,972.242,1039.4,-0.183269,0.00418177,0.0271976,-0.0873342,0.264942,0.264942,-0.526045,1.48951e-10,1.88105e-05,-1.25269e-05,0.471744,0.30335537897410214,1.489510736973898e-10,1.881067691855698e-05,0.30335537897410214,-1.252682153873863e-05,-0.40906248810480594
357,0.3044,973.782,1040.94,0.886479,0.00417265,0.103536,0.0419195,0.265709,0.265709,-0.527571,1.30974e-10,2.018e-05,-1.02972e-05,0.473121,0.3043554360226266,1.3097389839344942e-10,2.018020361749251e-05,0.3043554360226266,-1.0297146983972993e-05,-0.40996357104681247
358,0.3054,973.87,1041.05,0.509219,0.0041647,0.0748803,-0.00533597,0.266475,0.266475,-0.529104,1.35856e-10,1.98757e-05,-1.0876e-05,0.474502,0.30535495505353594,1.3585599312193608e-10,1.9875897522947383e-05,0.30535495505353594,-1.0875940856580613e-05,-0.41086740392748733
359,0.3064,974.096,1041.28,0.270393,0.00415584,0.058612,-0.0328058,0.267241,0.267241,-0.530636,1.38872e-10,1.97049e-05,-1.12462e-05,0.475881,0.3063552400093348,1.3887202499063278e-10,1.9705094142841162e-05,0.3063552400093348,-1.124613676173336e-05,-0.41176926406341563
360,0.3074,974.619,1041.81,0.329996,0.00414662,0.0625837,-0.0255915,0.268006,0.268006,-0.532164,1.37333e-10,1.98525e-05,-1.10706e-05,0.477258,0.30735498412130835,1.373330338338974e-10,1.9852697062283653e-05,0.30735498412130835,-1.107053872118069e-05,-0.41266739428169497
361,0.3084,974.864,1042.07,0.112847,0.00413731,0.0466938,-0.0518042,0.268771,0.268771,-0.533693,1.406e-10,1.96485e-05,-1.14845e-05,0.478635,0.30835549333014,1.4059997610615937e-10,1.9648693033058606e-05,0.30835549333014,-1.1484434053410375e-05,-0.41356473964049056
362,0.3094,975.623,1042.84,0.411135,0.00412802,0.0678032,-0.0157571,0.269535,0.269535,-0.535217,1.35213e-10,2.00727e-05,-1.08419e-05,0.480009,0.30935545886523896,1.352129519460732e-10,2.0072901457890424e-05,0.30935545886523896,-1.0841841226794102e-05,-0.41445778630287444
363,0.3104,975.589,1042.82,-0.0813167,0.00411873,0.0322036,-0.0751076,0.270298,0.270298,-0.536745,1.43133e-10,1.9523e-05,-1.18337e-05,0.481385,0.31035487831038555,1.4313306095914413e-10,1.952319057507701e-05,0.31035487831038555,-1.1833629982027638e-05,-0.4153518115961332
364,0.3114,976.823,1044.05,0.693046,0.00410958,0.0875243,0.0184231,0.271061,0.271061,-0.538265,1.29505e-10,2.05305e-05,-1.02104e-05,0.482755,0.3113550606035582,1.2950507333187034e-10,2.053071075214241e-05,0.3113550606035582,-1.0210347874073378e-05,-0.41623980179898523
365,0.3124,976.046,1043.3,-0.537797,0.00410042,-0.00106461,-0.129923,0.271823,0.271823,-0.539795,1.49544e-10,1.90677e-05,-1.27307e-05,0.484131,0.31235469397168214,1.4954393279253964e-10,1.9067881789736063e-05,0.31235469397168214,-1.2730618965006713e-05,-0.4171322719884393
366,0.3134,976.19,1043.45,-0.848911,0.00408911,-0.0241075,-0.167575,0.272585,0.272585,-0.541318,1.55844e-10,1.85246e-05,-1.36945e-05,0.485503,0.313355089350722,1.5584400436807755e-10,1.852477158137411e-05,0.313355089350722,-1.3694406230779776e-05,-0.4180193038919483
367,0.3144,976.866,1044.13,-0.6267,0.00407787,-0.00819645,-0.140287,0.273346,0.273346,-0.542837,1.54997e-10,1.86255e-05,-1.35842e-05,0.486873,0.31435493296596095,1.5499690420028855e-10,1.8625673455785474e-05,0.31435493296596095,-1.3584107735220563e-05,-0.41890266148938915
368,0.3154,978.536,1045.8,0.587691,0.00406859,0.0795409,0.0070659,0.274107,0.274107,-0.54435,1.37247e-10,2.01041e-05,-1.11748e-05,0.488237,0.3153555377517796,1.372471025717914e-10,2.0104302088874704e-05,0.3153555377517796,-1.1174737562180681e-05,-0.41978119698286187
369,0.3164,977.66,1044.95,-0.736262,0.00405996,-0.0156622,-0.152114,0.274867,0.274867,-0.545876,1.57023e-10,1.8489e-05,-1.39408e-05,0.48961,0.3163555879314035,1.5702306122022947e-10,1.848917092250879e-05,0.3163555879314035,-1.3940702827452967e-05,-0.4206659356489746
370,0.3174,979.416,1046.7,0.567621,0.00405053,0.0768688,0.00399442,0.275626,0.275626,-0.547385,1.3881e-10,2.0035e-05,-1.14043e-05,0.490972,0.3173550810823118,1.388100745458587e-10,2.00352007020399e-05,0.3173550810823118,-1.140423497125731e-05,-0.4215394914884363
371,0.3184,978.518,1045.82,-0.775956,0.00404194,-0.0189273,-0.156424,0.276385,0.276385,-0.548909,1.58365e-10,1.83979e-05,-1.42079e-05,0.492343,0.318355333136489,1.5836509881239635e-10,1.8398069242309134e-05,0.318355333136489,-1.420779906824432e-05,-0.42242039388528463
372,0.3194,980.32,1047.62,0.576103,0.00403258,0.0771965,0.00554256,0.277143,0.277143,-0.550416,1.39865e-10,2.00027e-05,-1.15731e-05,0.493703,0.31935502531447635,1.3986500846385752e-10,2.0002900055438033e-05,0.31935502531447635,-1.1573033031897495e-05,-0.42329015082524024
373,0.3204,979.377,1046.7,-0.808876,0.00402407,-0.0216403,-0.159829,0.277901,0.277901,-0.551937,1.59602e-10,1.8308e-05,-1.44684e-05,0.495071,0.32035547554640087,1.596021093064337e-10,1.8308167592406832e-05,0.32035547554640087,-1.446829533324756e-05,-0.4241666597518171
374,0.3214,981.221,1048.54,0.587765,0.00401477,0.0777626,0.00748718,0.278658,0.278658,-0.553442,1.4088e-10,1.9968e-05,-1.17414e-05,0.496429,0.32135536305106127,1.4087997435296984e-10,1.9968199361786176e-05,0.32135536305106127,-1.1741331070069805e-05,-0.42503263711746786
375,0.3224,981.58,1048.91,0.504045,0.00400746,0.0713228,-0.00272638,0.279414,0.279414,-0.554954,1.40877e-10,1.99882e-05,-1.17613e-05,0.497791,0.3223546854017807,1.4087708777310581e-10,1.9988399765358267e-05,0.3223546854017807,-1.1761230836127012e-05,-0.4259013308721712
376,0.3234,981.601,1048.95,0.0848358,0.00399947,0.041935,-0.0519137,0.28017,0.28017,-0.556466,1.4656e-10,1.95613e-05,-1.25368e-05,0.499154,0.3233547635258436,1.4656009739155706e-10,1.956149132342766e-05,0.3233547635258436,-1.253672141465767e-05,-0.4267687121543966
377,0.3244,982.49,1049.84,0.533356,0.00399128,0.073985,0.00220686,0.280926,0.280926,-0.557973,1.38991e-10,2.01806e-05,-1.15556e-05,0.500512,0.3243555979948307,1.389910408988726e-10,2.0180803629754607e-05,0.3243555979948307,-1.1555533234286486e-05,-0.42763192111386317
378,0.3254,982.144,1049.51,-0.249344,0.00398289,0.017259,-0.0920943,0.28168,0.28168,-0.559485,1.50548e-10,1.92531e-05,-1.31549e-05,0.501873,0.32535453866902664,1.5054801849601063e-10,1.925328534202464e-05,0.32535453866902664,-1.3154813474636207e-05,-0.4284966877208357
379,0.3264,983.781,1051.15,0.947157,0.00397474,0.103331,0.0522497,0.282435,0.282435,-0.560985,1.31028e-10,2.07987e-05,-1.06268e-05,0.503227,0.3263555591834155,1.3102807727705112e-10,2.0798916294362257e-05,0.3263555591834155,-1.0626743535802063e-05,-0.4293533000693782
380,0.3274,983.827,1051.2,0.558039,0.0039676,0.0736019,0.00360343,0.283188,0.283188,-0.562493,1.35775e-10,2.04682e-05,-1.12196e-05,0.504585,0.327354681041651,1.3577494684113844e-10,2.046840947511619e-05,0.327354681041651,-1.1219537060513929e-05,-0.43021318677534415
381,0.3284,983.933,1051.32,0.230731,0.00395947,0.0508009,-0.0345255,0.283941,0.283941,-0.563999,1.40037e-10,2.017e-05,-1.17742e-05,0.505941,0.32835455552197246,1.4003709303267442e-10,2.0170203415714738e-05,0.32835455552197246,-1.1774130684427675e-05,-0.4310706398918026
382,0.3294,984.524,1051.92,0.386886,0.00395103,0.0617725,-0.0156961,0.284694,0.284694,-0.565502,1.36857e-10,2.04277e-05,-1.13919e-05,0.507295,0.3293551831913175,1.3685697020093812e-10,2.0427908646869497e-05,0.3293551831913175,-1.1391835112561921e-05,-0.4319250984335986
383,0.3304,984.577,1051.98,0.00839747,0.0039424,0.0341213,-0.0613037,0.285446,0.285446,-0.567006,1.42528e-10,2.00002e-05,-1.21497e-05,0.50865,0.33035523426115176,1.4252798941072342e-10,2.0000400005271146e-05,0.33035523426115176,-1.2149626192670127e-05,-0.4327788409102804
384,0.3314,985.548,1052.96,0.547511,0.00393394,0.0727987,0.00371269,0.286197,0.286197,-0.568505,-3.26713e-10,2.07221e-05,-1.09925e-05,0.510001,0.33135470629685604,-3.2671298999531473e-10,2.0722314704180178e-05,0.33135470629685604,-1.0992439582691027e-05,-0.433628468472805
385,0.3324,985.116,1052.54,-0.312436,0.00392527,0.0104043,-0.0997797,0.286948,0.286948,-0.57001,1.46633e-10,1.96799e-05,-1.27703e-05,0.511356,0.3323549292179815,1.4663292802197248e-10,1.9680093650498165e-05,0.3323549292179815,-1.277021846002313e-05,-0.43448021652657376
386,0.3334,985.256,1052.69,-0.600311,0.0039152,-0.0112017,-0.13481,0.287698,0.287698,-0.57151,1.51978e-10,1.91982e-05,-1.36035e-05,0.512707,0.3333545702334175,1.5197798575172783e-10,1.9198384286545078e-05,0.3333545702334175,-1.3603407472806417e-05,-0.435327860310013
387,0.3344,987.138,1054.57,0.851229,0.00390674,0.094249,0.0409436,0.288448,0.288448,-0.573,1.29497e-10,2.10257e-05,-1.06113e-05,0.514052,0.3343549612608345,1.2949707972609303e-10,2.1025921041584184e-05,0.3343549612608345,-1.0611243700386908e-05,-0.43616859529504426
388,0.3354,987.318,1054.76,0.605411,0.00389973,0.0749664,0.00982381,0.289197,0.289197,-0.574498,1.31874e-10,2.08591e-05,-1.09208e-05,0.515401,0.33535476750751725,1.318740672218155e-10,2.0859317552579526e-05,0.33535476750751725,-1.0920740368236537e-05,-0.43701258243509855
389,0.3364,987.249,1054.71,0.112831,0.00389176,0.0401467,-0.0481871,0.289946,0.289946,-0.575996,1.38978e-10,2.03384e-05,-1.18345e-05,0.51675,0.3363553228895948,1.3897794026718202e-10,2.0338606826708627e-05,0.3363553228895948,-1.1834429972545912e-05,-0.43785530622889957
390,0.3374,988.106,1055.57,0.546198,0.00388365,0.0712259,0.00403936,0.290694,0.290694,-0.577488,-3.29376e-10,2.09415e-05,-1.08707e-05,0.518095,0.33735529061242087,-3.2937597094218063e-10,2.0941719274691906e-05,0.33735529061242087,-1.0870640914206753e-05,-0.4386934007380313
391,0.3384,987.73,1055.21,-0.250957,0.00387517,0.0132135,-0.0919205,0.291441,0.291441,-0.578986,1.43601e-10,1.9972e-05,-1.25169e-05,0.519444,0.3383546682355787,1.4360090894172117e-10,1.9972199441609106e-05,0.3383546682355787,-1.251682166392154e-05,-0.4395336085509547
392,0.3394,989.342,1056.82,0.937256,0.00386723,0.0990434,0.0512779,0.292188,0.292188,-0.580471,1.23124e-10,2.1518e-05,-9.98653e-06,0.520784,0.3393547926727214,1.2312395547553479e-10,2.1518231513750763e-05,0.3393547926727214,-9.986480134727138e-06,-0.44036528347079273
393,0.3404,989.364,1056.85,0.540246,0.00386008,0.0686552,0.00176225,0.292935,0.292935,-0.581965,1.28315e-10,2.11572e-05,-1.06122e-05,0.522129,0.34035566448192744,1.2831491424947217e-10,2.1157423815143517e-05,0.34035566448192744,-1.0612143690802434e-05,-0.44120075348578625
394,0.3414,989.478,1056.97,0.236329,0.00385204,0.0474306,-0.0335363,0.29368,0.29368,-0.583456,1.32421e-10,2.08701e-05,-1.11309e-05,0.523473,0.34135460150980657,1.3242096308374585e-10,2.087031778197357e-05,0.34135460150980657,-1.1130838051709446e-05,-0.4420333023429306
395,0.3424,990.018,1057.52,0.35841,0.00384378,0.0559849,-0.018823,0.294426,0.294426,-0.584945,1.29696e-10,2.10753e-05,-1.08232e-05,0.524814,0.3423556253780118,1.2969603169210586e-10,2.1075522085745035e-05,0.3423556253780118,-1.0823141429416872e-05,-0.44286349652278834
396,0.3434,990.113,1057.63,0.0384974,0.00383532,0.0324771,-0.0573257,0.29517,0.29517,-0.586434,1.3468e-10,2.07037e-05,-1.14699e-05,0.526155,0.343354709576529,1.3468004489425311e-10,2.0703914323183525e-05,0.343354709576529,-1.1469834220956265e-05,-0.4436924554633761
397,0.3444,990.973,1058.49,0.482078,0.00382711,0.0643871,-0.00387342,0.295914,0.295914,-0.587918,1.26644e-10,2.13018e-05,-1.05092e-05,0.527493,0.3443545373702732,1.266440285974113e-10,2.130202688488403e-05,0.3443545373702732,-1.050914477851439e-05,-0.4445174035965581
398,0.3454,990.682,1058.21,-0.220947,0.00381861,0.0131272,-0.08838,0.296658,0.296658,-0.589408,1.38094e-10,2.04327e-05,-1.19769e-05,0.528834,0.345355109312685,1.3809398069497547e-10,2.0432908748979628e-05,0.345355109312685,-1.1976828277249219e-05,-0.44534445635788045
399,0.3464,992.173,1059.71,0.854669,0.00381079,0.0909763,0.0411886,0.297401,0.297401,-0.590886,1.18979e-10,2.18374e-05,-9.6795e-06,0.530168,0.34635507960186396,1.1897904883539923e-10,2.1837638437771645e-05,0.34635507960186396,-9.67945315377694e-06,-0.4461636317316593
400,0.3474,990.924,1058.48,-0.802311,0.00380223,-0.0294981,-0.157946,0.298143,0.298143,-0.592379,1.46e-10,1.9743e-05,-1.31709e-05,0.531511,0.34735444578993313,1.4600010089793614e-10,1.974319489428389e-05,0.34735444578993313,-1.31708132641295e-05,-0.44698989247235965
401,0.3484,992.727,1060.28,0.586989,0.00379347,0.0701484,0.00803586,0.298885,0.298885,-0.593854,1.24859e-10,2.14252e-05,-1.04051e-05,0.532841,0.3483545537828894,1.2485901201841898e-10,2.1425429521215733e-05,0.3483545537828894,-1.0405045867134533e-05,-0.44780498110531886
402,0.3494,991.721,1059.29,-0.82583,0.0037848,-0.0316484,-0.160329,0.299627,0.299627,-0.595343,1.47136e-10,1.96142e-05,-1.34272e-05,0.534181,0.34935540413135624,1.471360810967326e-10,1.9614392359645905e-05,0.34935540413135624,-1.3427109855523867e-05,-0.44862658765057994
403,0.3504,993.498,1061.06,0.539884,0.00377622,0.0665013,0.00296196,0.300368,0.300368,-0.596815,1.26985e-10,2.12645e-05,-1.07154e-05,0.53551,0.35035564703004374,1.2698508911057615e-10,2.1264726091096975e-05,0.35035564703004374,-1.071534259033946e-05,-0.44943761225300805
404,0.3514,992.578,1060.16,-0.784364,0.00376777,-0.0289379,-0.15475,0.301108,0.301108,-0.598302,1.47417e-10,1.95598e-05,-1.35572e-05,0.536847,0.3513552800274382,1.4741696752196276e-10,1.9559991294215706e-05,0.3513552800274382,-1.3557108101580617e-05,-0.45025569013194244
405,0.3524,992.885,1060.47,-0.883201,0.00375771,-0.0365724,-0.16645,0.301848,0.301848,-0.59978,1.50647e-10,1.92134e-05,-1.41389e-05,0.538179,0.352355653027018,1.506470503898072e-10,1.921358457845912e-05,0.352355653027018,-1.4138800046192834e-05,-0.4510676120638173
406,0.3534,995.057,1062.64,0.880075,0.00375016,0.0920504,0.0462781,0.302587,0.302587,-0.601247,1.24521e-10,2.14316e-05,-1.05028e-05,0.539504,0.35335541322049746,1.2452106012972308e-10,2.1431829658302703e-05,0.35335541322049746,-1.0502744845819478e-05,-0.45187230548997726
407,0.3544,995.28,1062.87,0.699881,0.00374412,0.0774621,0.0231389,0.303325,0.303325,-0.602724,1.25538e-10,2.13447e-05,-1.06578e-05,0.540834,0.3543545581545866,1.2553802442027973e-10,2.134492779970465e-05,0.3543545581545866,-1.0657743205855219e-05,-0.4526812925107847
408,0.3554,994.99,1062.6,0.00946832,0.00373687,0.0280403,-0.0585937,0.304063,0.304063,-0.604202,1.35744e-10,2.05471e-05,-1.20009e-05,0.542165,0.3553544407297933,1.3574408264105386e-10,2.0547311093022103e-05,0.3553544407297933,-1.2000827989466778e-05,-0.4534896320503835
409,0.3564,996.084,1063.69,0.70042,0.00372973,0.0780592,0.0245373,0.304801,0.304801,-0.605672,1.23566e-10,2.14834e-05,-1.04735e-05,0.543491,0.3563550614906974,1.2356604628394052e-10,2.14836307699251e-05,0.3563550614906974,-1.0473445153036387e-05,-0.4542924121033699
410,0.3574,995.29,1062.92,-0.490694,0.0037218,-0.00894254,-0.118595,0.305538,0.305538,-0.607151,1.42045e-10,1.99697e-05,-1.2984e-05,0.544822,0.357355063626539,1.4204504239501148e-10,1.9969899395677615e-05,0.357355063626539,-1.2983915708253413e-05,-0.4550989170684322
411,0.3584,995.449,1063.08,-0.730838,0.0037123,-0.0271047,-0.147606,0.306274,0.306274,-0.608624,1.46778e-10,1.94873e-05,-1.3782e-05,0.546148,0.3583544446804825,1.4677792314898852e-10,1.9487489878677877e-05,0.3583544446804825,-1.3781905028653618e-05,-0.45590096550989434
412,0.3594,997.448,1065.08,0.865455,0.00370495,0.0896213,0.0450579,0.30701,0.30701,-0.610085,1.22616e-10,2.15216e-05,-1.045e-05,0.547467,0.35935456154962875,1.2261591741946631e-10,2.152183159132015e-05,0.35935456154962875,-1.0449945398893767e-05,-0.45669531378657213
413,0.3604,997.612,1065.25,0.633383,0.00369876,0.0712361,0.0156877,0.307746,0.307746,-0.611556,1.24637e-10,2.13538e-05,-1.07315e-05,0.548792,0.3603554147757366,1.2463696741349395e-10,2.1354027994080482e-05,0.3603554147757366,-1.0731442417699633e-05,-0.45749392745563244
414,0.3614,997.447,1065.1,0.0745361,0.0036915,0.0312909,-0.0502129,0.308481,0.308481,-0.613027,1.32679e-10,2.07138e-05,-1.18052e-05,0.550117,0.3613556435446401,1.3267897891466873e-10,2.0714014532297043e-05,0.3613556435446401,-1.1805130318953694e-05,-0.45829136722759856
415,0.3624,998.35,1066.0,0.580716,0.00368432,0.0679208,0.0106577,0.309215,0.309215,-0.614491,1.23656e-10,2.14099e-05,-1.067e-05,0.551437,0.36235524539600306,1.2365597434893516e-10,2.1410129193544236e-05,0.36235524539600306,-1.0669943075747312e-05,-0.45908384842819494
416,0.3634,997.844,1065.51,-0.31704,0.00367646,0.00215473,-0.0971754,0.309949,0.309949,-0.615962,1.37484e-10,2.02634e-05,-1.25644e-05,0.552761,0.3633555812244613,1.374840241652464e-10,2.0263605304160492e-05,0.3633555812244613,-1.2564321068220252e-05,-0.4598789511457354
417,0.3644,999.554,1067.22,0.997528,0.00366959,0.0978616,0.0609234,0.310682,0.310682,-0.61742,1.15185e-10,2.19988e-05,-9.71898e-06,0.554077,0.3643552872129827,1.1518497267104522e-10,2.199904197541791e-05,0.3643552872129827,-9.718932770907962e-06,-0.4606658738289279
418,0.3654,999.527,1067.2,0.580308,0.00366318,0.0657721,0.00904614,0.311415,0.311415,-0.618886,1.20519e-10,2.15938e-05,-1.03843e-05,0.555397,0.36535572625462476,1.2051892817055432e-10,2.1594033147831482e-05,0.36535572625462476,-1.0384246083350313e-05,-0.4614559583844142
419,0.3664,999.544,1067.23,0.207618,0.00365581,0.0393411,-0.0344871,0.312147,0.312147,-0.620351,1.25651e-10,2.11933e-05,-1.10572e-05,0.556717,0.36635553253069686,1.2565104512418657e-10,2.1193524579521394e-05,0.36635553253069686,-1.1057138869396965e-05,-0.4622443477691517
420,0.3674,1000.12,1067.81,0.393565,0.00364833,0.0526256,-0.0121392,0.312878,0.312878,-0.621812,1.21825e-10,2.14702e-05,-1.06072e-05,0.558033,0.36735470357750133,1.2182499453672335e-10,2.147043048639219e-05,0.36735470357750133,-1.0607143743901482e-05,-0.4630294351310943
421,0.3684,1000.08,1067.79,-0.0299055,0.00364048,0.0213934,-0.0629926,0.313609,0.313609,-0.623275,1.28374e-10,2.09342e-05,-1.14904e-05,0.559351,0.368354605285365,1.2837397811438223e-10,2.0934419121987347e-05,0.368354605285365,-1.1490333985619827e-05,-0.46381444869006083
422,0.3694,1001.06,1068.76,0.556501,0.00363314,0.0639875,0.00750999,0.31434,0.31434,-0.624731,1.18025e-10,2.17179e-05,-1.02067e-05,0.560664,0.3693552381885965,1.1802492316803637e-10,2.1718135835291363e-05,0.3693552381885965,-1.0206647911847888e-05,-0.4645945667889755
423,0.3704,1000.54,1068.26,-0.349322,0.00362513,-0.00244328,-0.101142,0.31507,0.31507,-0.626195,1.32461e-10,2.05397e-05,-1.21405e-05,0.561981,0.37035523246597735,1.3246093111263235e-10,2.0539910940975403e-05,0.37035523246597735,-1.2140426304374508e-05,-0.4653778268569301
424,0.3714,1002.29,1070.0,1.01044,0.00361836,0.0967747,0.0623063,0.315799,0.315799,-0.627644,1.08802e-10,2.23391e-05,-9.19007e-06,0.56329,0.37135458565042256,1.0880207845787027e-10,2.233934951956229e-05,0.37135458565042256,-9.190027771444065e-06,-0.4661519334101737
425,0.3724,1002.25,1069.98,0.592532,0.00361197,0.0645773,0.010378,0.316528,0.316528,-0.629103,1.14305e-10,2.19259e-05,-9.8596e-06,0.564604,0.3723546676289524,1.1430500990172732e-10,2.1926140374217695e-05,0.3723546676289524,-9.859551394320043e-06,-0.4669302498194421
426,0.3734,1002.24,1069.97,0.196579,0.00360461,0.0363877,-0.035931,0.317257,0.317257,-0.630561,1.20012e-10,2.14856e-05,-1.05884e-05,0.565917,0.37335547893305177,1.2001200033751047e-10,2.1485830817180585e-05,0.37335547893305177,-1.0588343943074285e-05,-0.4677068992002257
427,0.3744,1002.83,1070.57,0.407191,0.00359723,0.0515058,-0.010634,0.317985,0.317985,-0.632014,1.15672e-10,2.17907e-05,-1.00857e-05,0.567226,0.3743556457382593,1.1567191648964581e-10,2.179093741894178e-05,0.3743556457382593,-1.0085649139512931e-05,-0.4684797594567389
428,0.3754,1002.75,1070.5,-0.0542842,0.0035894,0.0174382,-0.0660113,0.318712,0.318712,-0.63347,1.23076e-10,2.11938e-05,-1.1059e-05,0.568537,0.3753551655741485,1.2307599384087098e-10,2.1194024590220906e-05,0.3753551655741485,-1.1058938849450861e-05,-0.4692530898058581
429,0.3764,1003.77,1071.52,0.584861,0.00358222,0.0639819,0.0107836,0.319439,0.319439,-0.634919,1.11553e-10,2.20466e-05,-9.65785e-06,0.569844,0.3763554123251598,1.1155298906828648e-10,2.204684302808957e-05,0.3763554123251598,-9.65780336315003e-06,-0.47002158516937753
430,0.3774,1003.17,1070.93,-0.395378,0.00357421,-0.00801487,-0.106716,0.320165,0.320165,-0.636375,1.27644e-10,2.07542e-05,-1.17659e-05,0.571155,0.37735500916425524,1.2764389545338872e-10,2.0754415369861334e-05,0.37735500916425524,-1.176583078210669e-05,-0.4707926722537522
431,0.3784,1003.34,1071.12,-0.600246,0.00356518,-0.0236977,-0.131512,0.320891,0.320891,-0.637827,1.3203e-10,2.03203e-05,-1.24585e-05,0.572462,0.3783553319741513,1.3202994253447287e-10,2.0320506458615384e-05,0.3783553319741513,-1.2458422393168966e-05,-0.4715605236985855
432,0.3794,1005.07,1072.84,0.745983,0.00355826,0.0753702,0.0308499,0.321616,0.321616,-0.639268,1.10297e-10,2.20617e-05,-9.60782e-06,0.573763,0.3793550019264027,1.102971047828305e-10,2.2061943361073588e-05,0.3793550019264027,-9.60777384506617e-06,-0.47232145660010827
433,0.3804,1005.2,1072.97,0.496499,0.00355192,0.0557344,-0.000412735,0.322341,0.322341,-0.640717,1.1313e-10,2.18204e-05,-9.98614e-06,0.575069,0.3803553969021587,1.1312994985246405e-10,2.182063806666079e-05,0.3803553969021587,-9.986090138691672e-06,-0.47308550911976044
434,0.3814,1005.23,1073.01,0.151283,0.00354485,0.0311634,-0.0406129,0.323065,0.323065,-0.642166,1.18043e-10,2.14195e-05,-1.06387e-05,0.576374,0.3813551360714251,1.180429087810353e-10,2.141972939906367e-05,0.3813551360714251,-1.0638643409222048e-05,-0.4738484553290272
435,0.3824,1005.85,1073.64,0.397672,0.00353787,0.0489667,-0.0110048,0.323789,0.323789,-0.643611,1.13227e-10,2.17631e-05,-1.00662e-05,0.577676,0.38235559931393315,1.1322698334481629e-10,2.176333681802589e-05,0.38235559931393315,-1.0066149335963281e-05,-0.47460819526677533
436,0.3834,1005.75,1073.55,-0.0718264,0.0035304,0.0142558,-0.0672796,0.324512,0.324512,-0.645058,1.20661e-10,2.11425e-05,-1.10668e-05,0.57898,0.3833554037980058,1.2066103671770634e-10,2.114272350417501e-05,0.3833554037980058,-1.1066738763165773e-05,-0.475367887438384
437,0.3844,1006.79,1074.59,0.591237,0.00352364,0.0626623,0.0123345,0.325234,0.325234,-0.646498,1.08894e-10,2.20283e-05,-9.60728e-06,0.580278,0.3843545470468577,1.0889400492430923e-10,2.2028542624674685e-05,0.3843545470468577,-9.607233850239538e-06,-0.4761228140028949
438,0.3854,1006.15,1073.97,-0.412432,0.00351593,-0.0111987,-0.107878,0.325956,0.325956,-0.647947,-3.98098e-10,2.06876e-05,-1.17797e-05,0.581582,0.38535441193761666,-3.980979990103606e-10,2.068781398989472e-05,0.38535441193761666,-1.1779630619601633e-05,-0.4768813623444106
439,0.3864,1006.33,1074.16,-0.60156,0.00350723,-0.025736,-0.130744,0.326678,0.326678,-0.64939,1.29173e-10,2.0265e-05,-1.24432e-05,0.582882,0.3863549989914963,1.291728946029025e-10,2.0265205336489345e-05,0.3863549989914963,-1.2443122583749577e-05,-0.47763567816879093
440,0.3874,1008.04,1075.86,0.72872,0.00350067,0.0723597,0.0295694,0.327399,0.327399,-0.650823,1.08055e-10,2.19944e-05,-9.61167e-06,0.584175,0.38735492137447136,1.0805489836229754e-10,2.1994641878686494e-05,0.38735492137447136,-9.611623808081227e-06,-0.478383690163378
441,0.3884,1006.82,1074.65,-0.857645,0.00349288,-0.0441519,-0.160103,0.32812,0.32812,-0.652272,1.3251e-10,1.98481e-05,-1.30905e-05,0.585478,0.38835556496144763,1.3251000297032078e-10,1.984829697487811e-05,0.38835556496144763,-1.3090414319738564e-05,-0.47913896486766006
442,0.3894,1007.13,1074.97,-0.914964,0.00348375,-0.0487893,-0.166748,0.32884,0.32884,-0.653711,1.35103e-10,1.95128e-05,-1.36061e-05,0.586775,0.3893555409163647,1.351030398666353e-10,1.9512990375947226e-05,0.3893555409163647,-1.3606007437494405e-05,-0.4798879448768548
443,0.3904,1009.24,1077.08,0.826792,0.00347755,0.0795174,0.0426022,0.329559,0.329559,-0.655138,1.09684e-10,2.17641e-05,-9.92511e-06,0.588064,0.39035484675768317,1.0968403962863249e-10,2.176433683964696e-05,0.39035484675768317,-9.925060746263092e-06,-0.48062961547168903
444,0.3914,1009.41,1077.26,0.635191,0.00347212,0.0640506,0.018276,0.330278,0.330278,-0.656576,1.11031e-10,2.16164e-05,-1.01378e-05,0.589359,0.39135487135826486,1.1103096220210773e-10,2.16166336359791e-05,0.39135487135826486,-1.013774861269301e-05,-0.48137593335347806
445,0.3924,1009.18,1077.04,0.0358551,0.00346556,0.0207487,-0.0523435,0.330997,0.330997,-0.658015,1.1961e-10,2.08728e-05,-1.13349e-05,0.590655,0.3923556152350829,1.1961009960259616e-10,2.0873017838374253e-05,0.3923556152350829,-1.133483576021277e-05,-0.48212169667997995
446,0.3934,1010.1,1077.96,0.594183,0.00345937,0.0615366,0.0146117,0.331715,0.331715,-0.659446,1.09877e-10,2.16386e-05,-1.00659e-05,0.591946,0.39335568554910116,1.0987699639031234e-10,2.1638834116100014e-05,0.39335568554910116,-1.0065849339047084e-05,-0.4828622505393714
447,0.3944,1009.51,1077.38,-0.356471,0.00345213,-0.00864376,-0.0992302,0.332432,0.332432,-0.660885,1.24247e-10,2.03578e-05,-1.21248e-05,0.593241,0.39435507981566964,1.242470570872456e-10,2.035800722133274e-05,0.39435507981566964,-1.2124726494922022e-05,-0.483605876593579
448,0.3954,1011.24,1079.11,1.00582,0.00344641,0.0913853,0.0641399,0.333149,0.333149,-0.66231,1.01602e-10,2.21938e-05,-9.11426e-06,0.594527,0.39535519090487736,1.016020600985712e-10,2.2194046284118585e-05,0.39535519090487736,-9.114218465278157e-06,-0.4843412141669793
449,0.3964,1011.16,1079.04,0.569893,0.00344065,0.0577042,0.0101981,0.333865,0.333865,-0.663744,1.07174e-10,2.17257e-05,-9.84251e-06,0.595818,0.39635462297554946,1.0717404741455994e-10,2.1725936004690638e-05,0.39635462297554946,-9.84246156265911e-06,-0.4850801389301843
450,0.3974,1011.16,1079.05,0.204662,0.00343399,0.031556,-0.032377,0.334581,0.334581,-0.665176,1.12062e-10,2.12965e-05,-1.05215e-05,0.597108,0.3973547708958278,1.1206191530277465e-10,2.1296726772090935e-05,0.3973547708958278,-1.0521444649191913e-05,-0.4858169764696433
451,0.3984,1011.68,1079.57,0.366492,0.00342732,0.0431871,-0.0129811,0.335297,0.335297,-0.666605,1.08712e-10,2.15267e-05,-1.01194e-05,0.598396,0.3983556351784441,1.087119283482707e-10,2.1526931700988072e-05,0.3983556351784441,-1.0119348799020322e-05,-0.48655121926884193
452,0.3994,1011.66,1079.56,-0.0134892,0.00342019,0.0149209,-0.0584683,0.336011,0.336011,-0.668035,1.14366e-10,2.10082e-05,-1.09318e-05,0.599684,0.39935441762486357,1.143660721680817e-10,2.100842067376263e-05,0.39935441762486357,-1.0931740248132371e-05,-0.48728492629973064
453,0.4004,1012.52,1080.43,0.494046,0.00341368,0.0520656,0.00238559,0.336726,0.336726,-0.66946,1.05589e-10,2.16887e-05,-9.79698e-06,0.600969,0.4003553138112119,1.0558909302460506e-10,2.1688935201602533e-05,0.4003553138112119,-9.796932009753512e-06,-0.4880150249609111
454,0.4014,1012.11,1080.03,-0.273879,0.00340633,-0.00473137,-0.0894374,0.33744,0.33744,-0.670891,1.17419e-10,2.06348e-05,-1.14755e-05,0.602257,0.4013555245380105,1.1741896344119596e-10,2.0635012898839733e-05,0.4013555245380105,-1.1475434156693609e-05,-0.48874715149871917
455,0.4024,1013.59,1081.51,0.849766,0.00340039,0.0778816,0.0452318,0.338153,0.338153,-0.672309,9.84634e-11,2.21515e-05,-8.98302e-06,0.603537,0.4023550473145321,9.846345960795588e-11,2.215174534625497e-05,0.4023550473145321,-8.982979652794043e-06,-0.4894715942865696
456,0.4034,1012.29,1080.22,-0.805196,0.00339261,-0.0442555,-0.15262,0.338866,0.338866,-0.673743,1.23937e-10,1.98863e-05,-1.26217e-05,0.604827,0.40335528300491696,1.2393708281877025e-10,1.9886497733878628e-05,0.40335528300491696,-1.2621620346653373e-05,-0.49020316735710645
457,0.4044,1012.56,1080.5,-0.890508,0.00338368,-0.050989,-0.16263,0.339578,0.339578,-0.675167,1.26751e-10,1.95102e-05,-1.31849e-05,0.606109,0.40435482776212384,1.2675105409698517e-10,1.951039032510593e-05,0.40435482776212384,-1.3184813079547553e-05,-0.4909286014151558
458,0.4054,1014.62,1082.55,0.81083,0.00337774,0.0748119,0.0415742,0.34029,0.34029,-0.67658,1.02035e-10,2.17374e-05,-9.54632e-06,0.607385,0.4053550844486147,1.0203504707817501e-10,2.1737636259011595e-05,0.4053550844486147,-9.546274434057977e-06,-0.4916474113425463
459,0.4064,1014.76,1082.7,0.603332,0.0033723,0.0581502,0.0154093,0.341001,0.341001,-0.678002,1.03707e-10,2.15494e-05,-9.80799e-06,0.608667,0.40635464721611325,1.037070429532605e-10,2.1549632190032142e-05,0.40635464721611325,-9.807941901862627e-06,-0.4923697750013325
460,0.4074,1014.56,1082.51,0.0556075,0.00336581,0.0184675,-0.0489592,0.341712,0.341712,-0.679425,1.11393e-10,2.08504e-05,-1.09108e-05,0.609948,0.4073549209254492,1.1139289490813553e-10,2.0850617371115376e-05,0.4073549209254492,-1.0910740477432235e-05,-0.4930916190976242
461,0.4084,1015.4,1083.35,0.540701,0.00335976,0.054008,0.00913208,0.342422,0.342422,-0.680842,1.02972e-10,2.15165e-05,-9.79414e-06,0.611226,0.4083544977270803,1.0297207531095864e-10,2.151673148165223e-05,0.4083544977270803,-9.794092037607172e-06,-0.49380939960577086
462,0.4094,1014.92,1082.88,-0.288218,0.00335267,-0.00743829,-0.089977,0.343132,0.343132,-0.682265,1.15311e-10,2.03705e-05,-1.16089e-05,0.612507,0.40935478448024365,1.1531109400664263e-10,2.0370707479955286e-05,0.40935478448024365,-1.1608832616971654e-05,-0.4945291965731281
463,0.4104,1016.44,1084.4,0.881458,0.0033471,0.0787272,0.050082,0.343841,0.343841,-0.683676,9.61321e-11,2.19609e-05,-8.99574e-06,0.61378,0.4103543713341069,9.613199125624305e-11,2.1961141142279317e-05,0.4103543713341069,-8.995699538494328e-06,-0.49524191293712183
464,0.4114,1015.06,1083.04,-0.8442,0.00333948,-0.0488571,-0.156057,0.34455,0.34455,-0.685102,1.21777e-10,1.95756e-05,-1.28106e-05,0.615062,0.41135466714634594,1.2177703290205955e-10,1.9575791603276826e-05,0.41135466714634594,-1.281051794466137e-05,-0.49596118500640285
465,0.4124,1015.35,1083.33,-0.907771,0.00333077,-0.0539699,-0.16342,0.345259,0.345259,-0.686517,1.24187e-10,1.92173e-05,-1.33351e-05,0.616338,0.4123556724197899,1.2418710504391584e-10,1.9217484653388794e-05,0.4123556724197899,-1.3335011087911575e-05,-0.49667389556797925
466,0.4134,1017.4,1085.38,0.79916,0.00332511,0.0724695,0.0412563,0.345966,0.345966,-0.687922,1.00331e-10,2.14651e-05,-9.66512e-06,0.617606,0.4133545609456768,1.0033107677998032e-10,2.1465330376946312e-05,0.4133545609456768,-9.665073292919324e-06,-0.4973805721881308
467,0.4144,1017.54,1085.53,0.594009,0.00331985,0.055972,0.0154149,0.346674,0.346674,-0.689336,1.01906e-10,2.12719e-05,-9.92632e-06,0.61888,0.4143555702903201,1.0190603916271357e-10,2.1272126248472745e-05,0.4143555702903201,-9.926270734261777e-06,-0.49809077382816613
468,0.4154,1017.35,1085.34,0.055947,0.00331355,0.0169146,-0.0477621,0.34738,0.34738,-0.690752,1.09155e-10,2.05746e-05,-1.10152e-05,0.620155,0.4153544578887771,1.0915490733509614e-10,2.0574811658624625e-05,0.4153544578887771,-1.1015139332881674e-05,-0.4988009743517887
469,0.4164,1018.17,1086.16,0.528149,0.00330771,0.0515717,0.00873858,0.348087,0.348087,-0.69216,-3.75356e-10,2.1224e-05,-9.92059e-06,0.621425,0.41635546730563733,-3.7535596852933395e-10,2.1224225230653815e-05,0.41635546730563733,-9.920540791075183e-06,-0.49950616600847364
470,0.4174,1017.7,1085.71,-0.275299,0.00330082,-0.00810217,-0.0872436,0.348792,0.348792,-0.693575,1.12689e-10,2.00989e-05,-1.16886e-05,0.622699,0.4173543499748562,1.1268896926708294e-10,2.0099101984305534e-05,0.4173543499748562,-1.168853168853623e-05,-0.5002138639691837
471,0.4184,1019.17,1087.18,0.85092,0.00329544,0.0750085,0.0474977,0.349498,0.349498,-0.694978,9.48463e-11,2.16385e-05,-9.15635e-06,0.623965,0.41835535545929625,9.484635299372712e-11,2.163873411409334e-05,0.41835535545929625,-9.156308080737752e-06,-0.5009145722562314
472,0.4194,1017.86,1085.88,-0.80105,0.003288,-0.0473637,-0.149675,0.350203,0.350203,-0.696396,1.18468e-10,1.93305e-05,-1.28283e-05,0.625239,0.41935564854677754,1.184679021548618e-10,1.933068683523942e-05,0.41935564854677754,-1.2828217717752999e-05,-0.5016217738683302
473,0.4204,1018.14,1086.17,-0.85852,0.0032796,-0.0520398,-0.156337,0.350907,0.350907,-0.697803,1.20584e-10,1.89864e-05,-1.33209e-05,0.626508,0.4203552267335924,1.2058398723979735e-10,1.898658024290789e-05,0.4203552267335924,-1.3320811277250932e-05,-0.5023224989567986
474,0.4214,1020.11,1088.13,0.760172,0.00327413,0.068106,0.037646,0.351611,0.351611,-0.6992,9.87145e-11,2.11318e-05,-9.81746e-06,0.627769,0.4213555088712122,9.87145920561261e-11,2.1132023278136458e-05,0.4213555088712122,-9.817411808943355e-06,-0.5030172690158764
475,0.4224,1020.23,1088.26,0.549686,0.00326893,0.0512243,0.0112314,0.352314,0.352314,-0.700607,1.00382e-10,2.0916e-05,-1.01066e-05,0.629037,0.42235507309960885,1.0038192499450815e-10,2.0916218741007242e-05,0.42235507309960885,-1.0106548928523473e-05,-0.5037160320233198
476,0.4234,1020.1,1088.14,0.0793802,0.0032628,0.0170906,-0.0438176,0.353017,0.353017,-0.702014,1.06353e-10,2.02986e-05,-1.10556e-05,0.630304,0.4233553402687129,1.0635292646554717e-10,2.029880601805978e-05,0.4233553402687129,-1.1055538887028149e-05,-0.5044138125625404
477,0.4244,1020.83,1088.87,0.47206,0.00325707,0.0459254,0.00313591,0.353719,0.353719,-0.703415,9.98773e-11,2.08372e-05,-1.01342e-05,0.631567,0.4243548865172664,9.987721760751356e-11,2.083741709602016e-05,0.4243548865172664,-1.0134148649143526e-05,-0.5051076426696626
478,0.4254,1020.49,1088.54,-0.203437,0.00325041,-0.00437535,-0.0774875,0.354421,0.354421,-0.704821,1.09072e-10,1.98762e-05,-1.16254e-05,0.632833,0.4253551346936342,1.090720846974591e-10,1.987639753298076e-05,0.4253551346936342,-1.1625332425269086e-05,-0.5058029723927278
479,0.4264,1021.77,1089.82,0.733834,0.00324505,0.0648741,0.0345536,0.355122,0.355122,-0.706217,9.47269e-11,2.11607e-05,-9.50227e-06,0.634093,0.4263546589353704,9.472689299627746e-11,2.1160923889151917e-05,0.4263546589353704,-9.502224853630281e-06,-0.5064923901177331
480,0.4274,1020.73,1088.8,-0.634697,0.0032379,-0.0367306,-0.128654,0.355823,0.355823,-0.707626,1.13516e-10,1.92245e-05,-1.25588e-05,0.635359,0.4273548840892414,1.1351608542042868e-10,1.9224684791874225e-05,0.4273548840892414,-1.2558721138589135e-05,-0.5071872526944138
481,0.4284,1020.99,1089.06,-0.715142,0.00323,-0.0431777,-0.138198,0.356523,0.356523,-0.709026,1.15564e-10,1.88796e-05,-1.30447e-05,0.636621,0.4283543822916618,1.1556400281165224e-10,1.8879778220792787e-05,0.4283543822916618,-1.3044614918245045e-05,-0.5078767078094502
482,0.4294,1022.73,1090.79,0.686847,0.00322465,0.0611449,0.0298391,0.357223,0.357223,-0.710416,9.70103e-11,2.07511e-05,-9.98232e-06,0.637876,0.4293545803877581,9.701039971332648e-11,2.0751315305655993e-05,0.4293545803877581,-9.98227017678932e-06,-0.508560283990088
483,0.4304,1021.51,1089.59,-0.855196,0.00321751,-0.0532043,-0.153674,0.357923,0.357923,-0.711822,1.1675e-10,1.85406e-05,-1.34723e-05,0.639141,0.4303554788676276,1.1674994304655684e-10,1.854077187801728e-05,0.4303554788676276,-1.347220924896586e-05,-0.5092507627105105
484,0.4314,1021.88,1089.96,-0.822808,0.00320966,-0.051162,-0.149566,0.358622,0.358622,-0.713219,1.17588e-10,1.83146e-05,-1.37634e-05,0.640399,0.43135564686534766,1.175879393855439e-10,1.8314767713301094e-05,0.43135564686534766,-1.3763305284797411e-05,-0.5099358607426082
485,0.4324,1023.72,1091.8,0.681185,0.00320455,0.0607587,0.030493,0.35932,0.35932,-0.714605,9.92091e-11,2.03199e-05,-1.04866e-05,0.641652,0.43235508186909843,9.920908539129414e-11,2.0320106450588682e-05,0.43235508186909843,-1.0486545015786497e-05,-0.5106146191513841
486,0.4334,1023.85,1091.94,0.485341,0.00319961,0.0450012,0.00594797,0.360018,0.360018,-0.716001,1.00577e-10,2.01021e-05,-1.07674e-05,0.642909,0.433355214722003,1.0057710220223726e-10,2.010230204851915e-05,0.433355214722003,-1.0767342031758886e-05,-0.5112973245038404
487,0.4344,1023.8,1091.89,0.10123,0.00319389,0.0171502,-0.0387797,0.360715,0.360715,-0.717397,1.04797e-10,1.95878e-05,-1.1536e-05,0.644166,0.4343546115560013,1.0479705991883748e-10,1.958799184209603e-05,0.4343546115560013,-1.1535933460593562e-05,-0.5119790774645488
488,0.4354,1024.43,1092.53,0.405679,0.00318845,0.0395115,-0.00240758,0.361412,0.361412,-0.718788,1.0005e-10,2.00024e-05,-1.08061e-05,0.64542,0.43535470521240716,1.0004996831014523e-10,2.0002600049418007e-05,0.43535470521240716,-1.0806041614297435e-05,-0.5126574426554258
489,0.4364,1024.23,1092.33,-0.123159,0.00318224,-1.50741e-05,-0.0654442,0.362109,0.362109,-0.720183,1.06397e-10,1.92326e-05,-1.19747e-05,0.646676,0.4363554961770755,1.0639689129732233e-10,1.9232784947531556e-05,0.4363554961770755,-1.197462830360152e-05,-0.5133368115529431
490,0.4374,1025.28,1093.39,0.601384,0.00317704,0.0535894,0.0210665,0.362805,0.362805,-0.721569,9.61833e-11,2.02277e-05,-1.03125e-05,0.647927,0.43735554757993267,9.618328355998074e-11,2.0227904581338052e-05,0.43735554757993267,-1.0312446826366006e-05,-0.5140108595089935
491,0.4384,1024.55,1092.67,-0.449649,0.0031704,-0.0246869,-0.104125,0.3635,0.3635,-0.722965,1.09124e-10,1.87136e-05,-1.2671e-05,0.649183,0.4383548569052671,1.0912404313501156e-10,1.8713775100431818e-05,0.4383548569052671,-1.267091972323442e-05,-0.514688827017695
492,0.4394,1026.39,1094.5,1.05208,0.00316596,0.0867569,0.0751373,0.364195,0.364195,-0.724345,-3.77329e-10,2.08082e-05,-9.24624e-06,0.650429,0.4393548609919842,-3.773289458663953e-10,2.0808416492101856e-05,0.4393548609919842,-9.246197253620636e-06,-0.5153580945356104
493,0.4404,1026.24,1094.37,0.585303,0.00316096,0.0504691,0.0177421,0.36489,0.36489,-0.725735,9.33847e-11,2.02553e-05,-1.00564e-05,0.651681,0.44035556032311085,9.338463335950564e-11,2.0255505140065466e-05,0.44035556032311085,-1.0056349434628409e-05,-0.5160312788127451
494,0.4414,1026.17,1094.3,0.18844,0.00315509,0.021644,-0.0285024,0.365584,0.365584,-0.727125,9.77603e-11,1.97366e-05,-1.08249e-05,0.652932,0.44135551402577544,9.776024434415831e-11,1.9736794768077104e-05,0.44135551402577544,-1.0824841411016806e-05,-0.5167035280137631
495,0.4424,1026.67,1094.8,0.36101,0.00314934,0.0342007,-0.00793072,0.366277,0.366277,-0.728509,9.46798e-11,1.9969e-05,-1.03815e-05,0.654181,0.44235471958173145,9.467981954003335e-11,1.996919938185293e-05,0.44235471958173145,-1.0381446112428527e-05,-0.5173719476778903
496,0.4434,1026.6,1094.74,-0.0316554,0.00314301,0.00472993,-0.0547149,0.36697,0.36697,-0.729897,9.93638e-11,1.93838e-05,-1.12454e-05,0.65543,0.44335461782712704,9.936385048092689e-11,1.9383987867049868e-05,0.44335461782712704,-1.1245336770770997e-05,-0.5180413707274443
497,0.4444,1027.43,1095.57,0.474489,0.00313746,0.0421587,0.00568396,0.367663,0.367663,-0.731278,9.19862e-11,2.00707e-05,-1.00731e-05,0.656676,0.4443552092421621,9.19861964376878e-11,2.0070901417756914e-05,0.4443552092421621,-1.0073049266479117e-05,-0.5187064962196088
498,0.4454,1027.0,1095.16,-0.267593,0.00313085,-0.0132563,-0.0826226,0.368355,0.368355,-0.732665,1.01218e-10,1.89795e-05,-1.17435e-05,0.657925,0.4453550489515983,1.012179229320509e-10,1.8979680111774755e-05,0.4453550489515983,-1.1743431045374564e-05,-0.5193735875745535
499,0.4464,1028.38,1096.53,0.782666,0.00312589,0.0647203,0.0426489,0.369047,0.369047,-0.734041,-3.85625e-10,2.04398e-05,-9.33372e-06,0.659166,0.44635558078956206,-3.8562497639560434e-10,2.0440008894118122e-05,0.44635558078956206,-9.33367644095906e-06,-0.5200344747234169
500,0.4474,1027.2,1095.36,-0.714783,0.00311877,-0.0468834,-0.135517,0.369738,0.369738,-0.735431,1.05193e-10,1.82678e-05,-1.2728e-05,0.660416,0.447355357879091,1.0519296544941881e-10,1.826796685722165e-05,0.447355357879091,-1.272791899931125e-05,-0.5207011633476151
501,0.4484,1027.49,1095.66,-0.743464,0.00311112,-0.049434,-0.138786,0.370428,0.370428,-0.736811,1.06428e-10,1.79709e-05,-1.31147e-05,0.66166,0.44835437769822883,1.0642797754201183e-10,1.7971061477606298e-05,0.44835437769822883,-1.3114614002662783e-05,-0.5213621395637094
502,0.4494,1029.21,1097.37,0.655033,0.00310612,0.055041,0.0284021,0.371119,0.371119,-0.738182,8.97096e-11,1.98627e-05,-1.00203e-05,0.662898,0.4493555364337254,8.970957310339145e-11,1.9862897264744106e-05,0.4493555364337254,-1.0020249797015879e-05,-0.5220179024421977
503,0.4504,1028.04,1096.22,-0.827997,0.00309917,-0.055377,-0.147659,0.371808,0.371808,-0.739569,1.06787e-10,1.76787e-05,-1.34263e-05,0.664145,0.4503544864971065,1.0678702366817561e-10,1.7678856269132126e-05,0.4503544864971065,-1.3426209867661854e-05,-0.5226804040604298
504,0.4514,1028.42,1096.6,-0.765865,0.00309179,-0.051087,-0.140027,0.372498,0.372498,-0.740946,1.07074e-10,1.74956e-05,-1.36286e-05,0.665386,0.45135557642909774,1.0707390529773875e-10,1.7495753048990537e-05,0.45135557642909774,-1.362850713104713e-05,-0.5233372208219143
505,0.4524,1030.12,1098.3,0.616326,0.00308702,0.0522218,0.0251292,0.373186,0.373186,-0.742314,9.17576e-11,1.9364e-05,-1.05717e-05,0.666622,0.45235445263969654,9.175749049461501e-11,1.9364187483494888e-05,0.45235445263969654,-1.0571644119772294e-05,-0.5239888496880626
506,0.4534,1029.02,1097.21,-0.79804,0.00308041,-0.0531403,-0.142692,0.373875,0.373875,-0.743698,1.06843e-10,1.72703e-05,-1.38278e-05,0.667866,0.4533554696683313,1.0684297890861671e-10,1.7270449132578136e-05,0.4533554696683313,-1.3827704396396356e-05,-0.5246471934411314
507,0.4544,1029.4,1097.6,-0.734204,0.00307336,-0.0487283,-0.134888,0.374563,0.374563,-0.745072,1.06977e-10,1.70978e-05,-1.40105e-05,0.669105,0.45435572227890564,1.0697709384999143e-10,1.70979461682208e-05,0.45435572227890564,-1.4010401853448151e-05,-0.5252998796992014
508,0.4554,1031.05,1099.24,0.596145,0.00306877,0.0507799,0.0240538,0.37525,0.37525,-0.746438,9.31602e-11,1.89013e-05,-1.10571e-05,0.670338,0.45535520794412676,9.316014626392644e-11,1.8901478630706237e-05,0.45535520794412676,-1.1057038870498914e-05,-0.525947877380355
509,0.4564,1030.0,1098.21,-0.759546,0.00306243,-0.0502811,-0.136753,0.375937,0.375937,-0.747818,1.06549e-10,1.68872e-05,-1.41806e-05,0.671579,0.45635538049191715,1.0654899185169597e-10,1.6887342589644305e-05,0.45635538049191715,-1.4180499455784812e-05,-0.5266016181247077
510,0.4574,1030.37,1098.58,-0.703296,0.00305563,-0.0464479,-0.129888,0.376623,0.376623,-0.749189,1.06614e-10,1.67129e-05,-1.43635e-05,0.672815,0.45735478303881516,1.0661405092093901e-10,1.6713039661331308e-05,0.45735478303881516,-1.4363396845462617e-05,-0.5272502026000088
511,0.4584,1031.97,1100.18,0.581324,0.00305117,0.0497103,0.0235687,0.377309,0.377309,-0.750553,9.41084e-11,1.84601e-05,-1.14995e-05,0.674046,0.4583548714110717,9.410849877156124e-11,1.8460270388764854e-05,0.4583548714110717,-1.14994338810126e-05,-0.5278945937489915
512,0.4594,1030.97,1099.19,-0.72719,0.00304502,-0.0479008,-0.131594,0.377995,0.377995,-0.75193,1.0605e-10,1.65097e-05,-1.45162e-05,0.675285,0.4593556460793242,1.0605005762442943e-10,1.650983628587177e-05,0.4593556460793242,-1.451609464042658e-05,-0.5285442355123946
513,0.4604,1031.33,1099.56,-0.677484,0.00303841,-0.0445671,-0.12554,0.37868,0.37868,-0.753299,1.06049e-10,1.63335e-05,-1.46993e-05,0.676518,0.460355647158156,1.060489474014048e-10,1.633363339226257e-05,0.460355647158156,-1.469919196583902e-05,-0.5291892168635102
514,0.4614,1032.89,1101.11,0.568708,0.00303403,0.0487802,0.023301,0.379364,0.379364,-0.754659,9.46961e-11,1.80341e-05,-1.19094e-05,0.677747,0.46135487211679016,9.469602879619288e-11,1.8034262615262975e-05,0.46135487211679016,-1.1909329083348297e-05,-0.5298290843200804
515,0.4624,1031.93,1100.17,-0.699897,0.00302803,-0.0459171,-0.127082,0.380048,0.380048,-0.756034,1.05364e-10,1.61368e-05,-1.4836e-05,0.678983,0.4623547807790962,1.0536393979521108e-10,1.6136930198751287e-05,0.4623547807790962,-1.4835889947106828e-05,-0.5304751250743367
516,0.4634,1032.29,1100.52,-0.65526,0.00302157,-0.0429711,-0.121657,0.380732,0.380732,-0.757399,1.05295e-10,1.59598e-05,-1.50177e-05,0.680214,0.46335537361288703,1.0529510596768432e-10,1.59599273583666e-05,0.46335537361288703,-1.5017587234877894e-05,-0.5311155893123237
517,0.4644,1033.81,1102.04,0.557268,0.00301724,0.0479162,0.0231339,0.381415,0.381415,-0.758757,9.49787e-11,1.76198e-05,-1.22921e-05,0.68144,0.46435518673037746,9.497869157826244e-11,1.761995522953086e-05,0.46435518673037746,-1.22920244524094e-05,-0.5317519021878063
518,0.4654,1032.88,1101.13,-0.675795,0.00301136,-0.044188,-0.122989,0.382098,0.382098,-0.760129,1.04501e-10,1.57696e-05,-1.51385e-05,0.682674,0.4653556829534813,1.0450107446047241e-10,1.5769724340808366e-05,0.4653556829534813,-1.513838541344903e-05,-0.5323938980681239
519,0.4664,1033.23,1101.48,-0.635292,0.00300501,-0.0415587,-0.118079,0.38278,0.38278,-0.761492,1.04364e-10,1.55924e-05,-1.53179e-05,0.683902,0.4663553963927891,1.0436407293923367e-10,1.559252156213553e-05,0.4663553963927891,-1.531778268160089e-05,-0.5330308110302702
520,0.4674,1034.72,1102.97,0.546581,0.00300072,0.0470894,0.0230206,0.383462,0.383462,-0.762847,9.49942e-11,1.72155e-05,-1.26506e-05,0.685125,0.46735579186921083,9.49942347006072e-11,1.7215648187463017e-05,0.46735579186921083,-1.2650519981449726e-05,-0.5336631257913281
521,0.4684,1033.82,1102.08,-0.653742,0.00299493,-0.0426267,-0.119175,0.384143,0.384143,-0.764215,1.03473e-10,1.54085e-05,-1.54232e-05,0.686356,0.46835540149191845,1.0347300793966951e-10,1.5408618711632016e-05,0.46835540149191845,-1.5423081063059563e-05,-0.5343006384771471
522,0.4694,1034.17,1102.43,-0.616822,0.00298868,-0.0402722,-0.114714,0.384824,0.384824,-0.765576,1.0327e-10,1.52313e-05,-1.55997e-05,0.687582,0.4693556920806219,1.0327005917076804e-10,1.5231415996908027e-05,0.4693556920806219,-1.5599578325309338e-05,-0.5349340241914317
523,0.4704,1035.63,1103.89,0.536451,0.00298442,0.0462868,0.0229402,0.385504,0.385504,-0.766929,9.47714e-11,1.682e-05,-1.29866e-05,0.688804,0.47035519374328794,9.477130191726246e-11,1.6820141456985738e-05,0.47035519374328794,-1.2986515674495713e-05,-0.5355628329716355
524,0.4714,1034.76,1103.03,-0.633135,0.00297871,-0.0411869,-0.115568,0.386184,0.386184,-0.768294,1.02292e-10,1.50534e-05,-1.569e-05,0.690032,0.4713553752982218,1.0229195268607327e-10,1.5053513302998311e-05,0.4713553752982218,-1.56898769125835e-05,-0.5361963572259592
525,0.4724,1035.09,1103.37,-0.599457,0.00297255,-0.0390813,-0.111512,0.386863,0.386863,-0.769651,1.02028e-10,1.48764e-05,-1.58635e-05,0.691255,0.47235476485240624,1.0202794165081741e-10,1.4876510654238118e-05,0.47235476485240624,-1.586337417536221e-05,-0.5368253119269233
526,0.4734,1036.53,1104.8,0.526775,0.00296831,0.0455019,0.0228824,0.387542,0.387542,-0.771002,9.43344e-11,1.64327e-05,-1.33016e-05,0.692474,0.4733548332225299,9.433431813477e-11,1.6432835017621272e-05,0.4733548332225299,-1.3301511534113963e-05,-0.5374506384273467
527,0.4744,1035.68,1103.97,-0.613657,0.00296267,-0.0398442,-0.112127,0.388221,0.388221,-0.772364,1.00973e-10,1.47043e-05,-1.59393e-05,0.6937,0.47435558086966556,1.0097300773281859e-10,1.4704408108690004e-05,0.47435558086966556,-1.5939172970047544e-05,-0.5380802018278108
528,0.4754,1036.02,1104.31,-0.582986,0.00295659,-0.0379697,-0.108448,0.388899,0.388899,-0.773719,1.0065e-10,1.45275e-05,-1.61098e-05,0.694921,0.47535553289892785,1.0064993283265267e-10,1.4527605524561338e-05,0.47535553289892785,-1.6109670237907103e-05,-0.5387056792976489
529,0.4764,1037.42,1105.71,0.517497,0.00295237,0.0447315,0.0228417,0.389576,0.389576,-0.775067,9.37038e-11,1.60528e-05,-1.35966e-05,0.696137,0.47635468677012405,9.370371145678291e-11,1.6052928846876924e-05,0.47635468677012405,-1.3596507566604465e-05,-0.5393270851203346
530,0.4774,1036.6,1104.9,-0.595136,0.00294679,-0.0385851,-0.108831,0.390253,0.390253,-0.776426,9.95295e-11,1.43609e-05,-1.61715e-05,0.697361,0.4773545172975133,9.952949575620096e-11,1.4361003118246174e-05,0.4773545172975133,-1.6171369242035105e-05,-0.5399527144002717
531,0.4784,1036.93,1105.23,-0.567289,0.00294078,-0.0369278,-0.105506,0.39093,0.39093,-0.777778,-5.90913e-10,1.41843e-05,-1.63391e-05,0.698579,0.4783550249393471,-5.909129852099682e-10,1.4184400597638813e-05,0.4783550249393471,-1.6338966517648323e-05,-0.5405742780586895
532,0.4794,1038.31,1106.61,0.50858,0.00293658,0.0439737,0.022815,0.391606,0.391606,-0.779123,9.28983e-11,1.56799e-05,-1.38724e-05,0.699793,0.4793547307987165,9.289835567471982e-11,1.5680022930286697e-05,0.4793547307987165,-1.387230377869475e-05,-0.5411917902846375
533,0.4804,1037.52,1105.83,-0.577465,0.00293106,-0.037401,-0.105667,0.392282,0.392282,-0.78048,-5.93781e-10,1.40228e-05,-1.63873e-05,0.701014,0.480355112687719,-5.937810243494823e-10,1.4022898319865362e-05,0.480355112687719,-1.638716572893717e-05,-0.5418139707802787
534,0.4814,1037.84,1106.15,-0.552292,0.00292512,-0.0359494,-0.102676,0.392957,0.392957,-0.781829,9.75435e-11,1.38464e-05,-1.6552e-05,0.70223,0.48135468970807493,9.754352880975148e-11,1.3846495861891128e-05,0.48135468970807493,-1.6551863016411872e-05,-0.5424316470174035
535,0.4824,1039.19,1107.5,0.499997,0.00292093,0.043227,0.0228001,0.393632,0.393632,-0.783172,9.19344e-11,1.53135e-05,-1.41298e-05,0.703442,0.48235494167068693,9.193446004474026e-11,1.53136172522661e-05,0.48235494167068693,-1.4129700174891902e-05,-0.5430457488537741
536,0.4834,1038.42,1106.75,-0.560572,0.00291547,-0.0362861,-0.102623,0.394306,0.394306,-0.784525,9.63143e-11,1.36898e-05,-1.65873e-05,0.70466,0.4833543856761675,9.63142898768865e-11,1.368989370575946e-05,0.4833543856761675,-1.6587162431469515e-05,-0.5436635898918606
537,0.4844,1038.74,1107.07,-0.537938,0.00290959,-0.0350298,-0.0999501,0.39498,0.39498,-0.785872,9.58369e-11,1.35135e-05,-1.6749e-05,0.705873,0.48435450353397047,9.583689397629769e-11,1.3513591307745543e-05,0.48435450353397047,-1.674885973623752e-05,-0.5442778612316506
538,0.4854,1040.07,1108.4,0.491725,0.00290542,0.0424906,0.0227953,0.395654,0.395654,-0.787212,9.08276e-11,1.49533e-05,-1.43697e-05,0.707083,0.4853552956984255,9.082756768918898e-11,1.4953411801243988e-05,0.4853552956984255,-1.436959675638061e-05,-0.5448881199329553
539,0.4864,1039.33,1107.66,-0.544402,0.00290001,-0.0352355,-0.0996941,0.396327,0.396327,-0.788563,9.45649e-11,1.33615e-05,-1.67719e-05,0.708298,0.4863552762681489,9.456480043468218e-11,1.3361589265237228e-05,0.4863552762681489,-1.6771759352440796e-05,-0.5455025609345727
540,0.4874,1041.2,1109.53,1.03346,0.00289672,0.0829508,0.0875205,0.396999,0.396999,-0.789898,8.59587e-11,1.56638e-05,-1.30267e-05,0.709504,0.48735444269612027,8.595879563699782e-11,1.5663922678044173e-05,0.48735444269612027,-1.3026615152900156e-05,-0.5461089101875445
541,0.4884,1041.02,1109.36,0.559674,0.00289283,0.0458627,0.0296323,0.397672,0.397672,-0.791243,8.77881e-11,1.50625e-05,-1.38586e-05,0.710716,0.48835576914461054,8.778799909237023e-11,1.5062613440086636e-05,0.48835576914461054,-1.3858503970065605e-05,-0.5467189833371793
542,0.4894,1040.93,1109.28,0.181902,0.00288811,0.0181103,-0.0142293,0.398343,0.398343,-0.792588,8.89988e-11,1.45382e-05,-1.45811e-05,0.711927,0.48935479100005574,8.899880832302642e-11,1.453830568021175e-05,0.48935479100005574,-1.4580993696222677e-05,-0.5473282364899994
543,0.4904,1041.37,1109.71,0.324364,0.00288343,0.0285101,0.00259725,0.399014,0.399014,-0.793928,8.74411e-11,1.47332e-05,-1.41602e-05,0.713135,0.49035448342411647,8.744116541947733e-11,1.4733308534076173e-05,0.49035448342411647,-1.4160099744864318e-05,-0.5479344104258619
544,0.4914,1041.32,1109.68,-0.0116726,0.00287824,0.00302336,-0.0372469,0.399685,0.399685,-0.795271,8.84497e-11,1.42e-05,-1.48864e-05,0.714344,0.49135484686689535,8.844969201504682e-11,1.4200100820538353e-05,0.49135484686689535,-1.4886289198101643e-05,-0.5485411270112809
545,0.4924,1042.03,1110.38,0.400695,0.00287361,0.0337356,0.0116299,0.400355,0.400355,-0.796608,8.55584e-11,1.47784e-05,-1.38595e-05,0.71555,0.4923543894236615,8.555844921431799e-11,1.4778509201063272e-05,0.4923543894236615,-1.3859403957594552e-05,-0.5491443241972933
546,0.4934,1041.73,1110.09,-0.186922,0.00286816,-0.0105826,-0.0579125,0.401025,0.401025,-0.79795,8.77976e-11,1.38608e-05,-1.51892e-05,0.716759,0.49335460189833813,8.7797547010382e-11,1.3860896061368422e-05,0.49335460189833813,-1.5189084644706696e-05,-0.5497489667083506
547,0.4944,1042.82,1111.18,0.615736,0.00286386,0.0494655,0.0372117,0.401695,0.401695,-0.799283,8.28282e-11,1.50208e-05,-1.32449e-05,0.717961,0.4943554847399205,8.28281887521598e-11,1.5020912812691023e-05,0.4943554847399205,-1.324481228670571e-05,-0.5503487514903586
548,0.4954,1042.0,1110.37,-0.491717,0.00285803,-0.0338624,-0.0938081,0.402364,0.402364,-0.800626,8.7499e-11,1.33215e-05,-1.58031e-05,0.71917,0.4953555430414145,8.749889701675784e-11,1.3321588731685097e-05,0.4953555430414145,-1.580297513170681e-05,-0.5509522277920655
549,0.4964,1042.26,1110.64,-0.519567,0.00285185,-0.036422,-0.0971567,0.403032,0.403032,-0.801962,8.71578e-11,1.30735e-05,-1.60668e-05,0.720374,0.4963547742502332,8.715783650359299e-11,1.3073585458656112e-05,0.4963547742502332,-1.6066670929681948e-05,-0.5515517550423576
550,0.4974,1043.57,1111.94,0.499216,0.00284744,0.0404343,0.0241064,0.4037,0.4037,-0.803291,8.22843e-11,1.4512e-05,-1.36875e-05,0.721574,0.49735467316848947,8.22844015146984e-11,1.4512105299679945e-05,0.49735467316848947,-1.3687406326567952e-05,-0.5521473469014527
551,0.4984,1042.81,1111.2,-0.540691,0.00284171,-0.0377263,-0.0986428,0.404368,0.404368,-0.804632,8.5926e-11,1.28901e-05,-1.61185e-05,0.72278,0.4983552402423621,8.592593303546892e-11,1.2890183077596262e-05,0.4983552402423621,-1.611837009762862e-05,-0.5527475148067382
552,0.4994,1044.66,1113.04,1.01928,0.00283828,0.0793481,0.0861499,0.405035,0.405035,-0.805956,7.76616e-11,1.51864e-05,-1.23857e-05,0.723976,0.4993549765626024,7.766165488476418e-11,1.5186515313958537e-05,0.4993549765626024,-1.2385623297528348e-05,-0.5533392852586483
553,0.5004,1044.47,1112.86,0.541848,0.00283414,0.0419441,0.027947,0.405702,0.405702,-0.807291,7.94838e-11,1.45609e-05,-1.32428e-05,0.725178,0.5003553799294034,7.948375291277898e-11,1.4561006010493927e-05,0.5003553799294034,-1.3242712314509575e-05,-0.5539351794649439
554,0.5014,1044.4,1112.79,0.187308,0.00282927,0.0158685,-0.0131146,0.406368,0.406368,-0.808624,8.05303e-11,1.40558e-05,-1.39222e-05,0.726379,0.5013549494321337,8.053024913579065e-11,1.4055898783116305e-05,0.5013549494321337,-1.3922103086594362e-05,-0.5545293877429129
555,0.5024,1044.8,1113.2,0.303111,0.00282449,0.0242941,0.000534357,0.407034,0.407034,-0.809954,7.91648e-11,1.42051e-05,-1.35645e-05,0.727578,0.5023551848698846,7.916489686010664e-11,1.420520089290278e-05,0.5023551848698846,-1.3564408002597617e-05,-0.5551214698353455
556,0.5034,1044.79,1113.19,0.00893344,0.00281925,0.00191551,-0.0342886,0.407699,0.407699,-0.811286,7.99229e-11,1.37213e-05,-1.42005e-05,0.728778,0.5033545833309814,7.99229571413207e-11,1.3721394137578002e-05,0.5033545833309814,-1.4200399173325273e-05,-0.5557136535556116
557,0.5044,1045.43,1113.83,0.361713,0.00281456,0.0282137,0.00746301,0.408364,0.408364,-0.812613,7.74432e-11,1.42094e-05,-1.3309e-05,0.729974,0.5043546466130835,7.744316299351794e-11,1.4209500954098786e-05,0.5043546466130835,-1.3308911435694348e-05,-0.5563028305319613
558,0.5054,1045.21,1113.62,-0.139271,0.00280914,-0.00966653,-0.0517217,0.409029,0.409029,-0.813944,-5.6985e-10,1.34049e-05,-1.44466e-05,0.731173,0.5053553751584434,-5.698499450090821e-10,1.3404989846144133e-05,0.5053553751584434,-1.4446495648412494e-05,-0.5568929986205338
559,0.5064,1046.17,1114.58,0.538546,0.00280477,0.0411083,0.0284804,0.409693,0.409693,-0.815267,7.50582e-11,1.43826e-05,-1.27853e-05,0.732366,0.5063552630535926,7.505818189201818e-11,1.4382703430015908e-05,0.5063552630535926,-1.2785218268418497e-05,-0.5574788415628009
560,0.5074,1045.52,1113.94,-0.389634,0.00279905,-0.0288912,-0.081146,0.410356,0.410356,-0.816598,7.87133e-11,1.29276e-05,-1.49413e-05,0.733565,0.5073543077397149,7.871325813368912e-11,1.2927683561869685e-05,0.5073543077397149,-1.4941188379302694e-05,-0.558067445421917
561,0.5084,1047.07,1115.49,0.876885,0.00279531,0.0662207,0.0686728,0.41102,0.41102,-0.817916,7.15126e-11,1.47992e-05,-1.18769e-05,0.734755,0.5083555233668564,7.151257364057528e-11,1.4799309508761738e-05,0.5083555233668564,-1.1876829469903427e-05,-0.5586495288516082
562,0.5094,1045.62,1114.05,-0.849349,0.00278906,-0.0637797,-0.135122,0.411682,0.411682,-0.819251,7.85097e-11,1.21299e-05,-1.59342e-05,0.735954,0.5093543853101496,7.850964323097287e-11,1.2129973567587271e-05,0.5093543853101496,-1.5934073051337982e-05,-0.5592383386126265
563,0.5104,1046.01,1114.44,-0.747589,0.00278256,-0.0564082,-0.122833,0.412345,0.412345,-0.820574,7.78556e-11,1.20002e-05,-1.59981e-05,0.737147,0.5103554190736344,7.785549982486373e-11,1.2000272002765655e-05,0.5103554190736344,-1.5997972031112084e-05,-0.5598210807217376
564,0.5114,1047.57,1116.0,0.538506,0.00277841,0.0406695,0.0296191,0.413007,0.413007,-0.821889,7.2817e-11,1.38306e-05,-1.30033e-05,0.738334,0.5113556053862034,7.281708569450984e-11,1.3830695643202162e-05,0.5113556053862034,-1.3003215457496609e-05,-0.5603995355831606
565,0.5124,1046.62,1115.06,-0.689535,0.0027726,-0.0517445,-0.114987,0.413668,0.413668,-0.823218,7.64847e-11,1.18846e-05,-1.59202e-05,0.73953,0.5123549416856246,7.648459643405658e-11,1.1884670622075433e-05,0.5123549416856246,-1.5920073274333646e-05,-0.5609833765521131
566,0.5134,1047.01,1115.45,-0.580762,0.00276669,-0.0438762,-0.102008,0.414329,0.414329,-0.824538,7.57781e-11,1.18057e-05,-1.5904e-05,0.74072,0.5133549387647034,7.577805050118513e-11,1.1805769687622814e-05,0.5133549387647034,-1.5903873532008284e-05,-0.5615624961920138
567,0.5144,1048.32,1116.76,0.449702,0.00276262,0.0340338,0.0202905,0.41499,0.41499,-0.825852,7.20981e-11,1.32679e-05,-1.34855e-05,0.741906,0.5143555970603597,7.209810526376259e-11,1.3267988018927923e-05,0.5143555970603597,-1.3485409071090082e-05,-0.5621382247355269
568,0.5154,1047.63,1116.08,-0.518921,0.00275723,-0.0389332,-0.0937247,0.41565,0.41565,-0.827177,7.43822e-11,1.17176e-05,-1.57788e-05,0.743098,0.5153554016536424,7.438227811462639e-11,1.1717668651378688e-05,0.5153554016536424,-1.5778675515387697e-05,-0.5627180073969157
569,0.5164,1049.38,1117.82,0.953381,0.00275409,0.0718413,0.0802671,0.416309,0.416309,-0.828487,6.82367e-11,1.39105e-05,-1.22125e-05,0.744281,0.5163543499806538,6.82367495841163e-11,1.3910596751376403e-05,0.5163543499806538,-1.221242542770451e-05,-0.5632904717612
570,0.5174,1049.19,1117.64,0.490944,0.00275015,0.0355526,0.0240617,0.416969,0.416969,-0.829807,6.95624e-11,1.32768e-05,-1.30647e-05,0.74547,0.517355474186288,6.956235587551873e-11,1.3276888137125908e-05,0.517355474186288,-1.3064614657221085e-05,-0.5638665480444819
571,0.5184,1049.17,1117.63,0.197683,0.00274561,0.0139973,-0.00970084,0.417628,0.417628,-0.831125,7.00104e-11,1.28442e-05,-1.36132e-05,0.746658,0.5183557409954909,7.001044188825745e-11,1.2844282487156633e-05,0.5183557409954909,-1.3613107340826325e-05,-0.5644409932915846
572,0.5194,1049.51,1117.97,0.258512,0.00274109,0.0183148,-0.00256944,0.418286,0.418286,-0.832441,6.9043e-11,1.29034e-05,-1.33846e-05,0.747843,0.5193551478418592,6.904299354459908e-11,1.2903483249226966e-05,0.5193551478418592,-1.3384510426650564e-05,-0.5650138119470676
573,0.5204,1049.58,1118.04,0.0532273,0.00273623,0.00259024,-0.026818,0.418944,0.418944,-0.833757,6.91484e-11,1.25411e-05,-1.38141e-05,0.749029,0.5203552125143338,6.914846473193847e-11,1.2541178640024242e-05,0.5203552125143338,-1.3814004585777084e-05,-0.5655858772690021
574,0.5214,1050.09,1118.55,0.285898,0.00273174,0.0199075,0.000657411,0.419601,0.419601,-0.83507,6.75722e-11,1.28465e-05,-1.31991e-05,0.750212,0.5213544140907316,6.757217008157568e-11,1.2846582516656824e-05,0.5213544140907316,-1.3199012892317619e-05,-0.5661558887177417
575,0.5224,1050.03,1118.5,-0.0455153,0.00272674,-0.00527959,-0.0383917,0.420259,0.420259,-0.836385,6.81333e-11,1.2283e-05,-1.39411e-05,0.751397,0.522355794713298,6.813327679822123e-11,1.2283075436325674e-05,0.522355794713298,-1.3941002823369963e-05,-0.566726018781404
576,0.5234,1050.74,1119.22,0.395952,0.00272245,0.0278008,0.0137244,0.420915,0.420915,-0.837694,6.57704e-11,1.29071e-05,-1.28269e-05,0.752578,0.5233547877485203,6.577050015721397e-11,1.290718329705065e-05,0.5233547877485203,-1.2826817735622775e-05,-0.5672928033813673
577,0.5244,1050.42,1118.9,-0.202737,0.00271724,-0.0175321,-0.0568103,0.421571,0.421571,-0.839009,6.72561e-11,1.19293e-05,-1.42141e-05,0.753762,0.5243544363381718,6.725620060876736e-11,1.1929371154462132e-05,0.5243544363381718,-1.4213998980161513e-05,-0.5678614393848069
578,0.5254,1051.5,1119.98,0.604313,0.00271334,0.0431405,0.0384179,0.422227,0.422227,-0.840315,6.34734e-11,1.31171e-05,-1.22188e-05,0.754941,0.525354740912438,6.347344871926452e-11,1.3117186029587558e-05,0.525354740912438,-1.2218725350732207e-05,-0.5684254439698109
579,0.5264,1050.68,1119.17,-0.484155,0.00270775,-0.0391165,-0.0897895,0.422883,0.422883,-0.841631,6.6544e-11,1.13809e-05,-1.47872e-05,0.756125,0.526355701901785,6.654410356077278e-11,1.1380964762608414e-05,0.526355701901785,-1.4787090669932113e-05,-0.5689930225369357
580,0.5274,1052.42,1120.9,0.983738,0.00270459,0.0714618,0.0833768,0.423538,0.423538,-0.842932,6.00738e-11,1.35914e-05,-1.11956e-05,0.757299,0.5273557923804073,6.007372377325737e-11,1.359149236357382e-05,0.5273557923804073,-1.11955373295336e-05,-0.5695533980113281
581,0.5284,1052.2,1120.68,0.489804,0.00270044,0.0327306,0.0235103,0.424192,0.424192,-0.844242,6.16726e-11,1.28977e-05,-1.21305e-05,0.75848,0.5283550097770977,6.167266697332252e-11,1.289778317570267e-05,0.5283550097770977,-1.2130426425782659e-05,-0.5701169138764541
582,0.5294,1052.18,1120.68,0.208895,0.00269578,0.0120671,-0.00875848,0.424846,0.424846,-0.845551,-5.52027e-10,1.24728e-05,-1.26568e-05,0.759659,0.5293548808757027,-5.520269796832622e-10,1.2472877785718595e-05,0.5293548808757027,-1.265671990302586e-05,-0.5706792626985879
583,0.5304,1052.49,1120.98,0.241588,0.00269114,0.0142759,-0.00495171,0.4255,0.4255,-0.846857,6.13069e-11,1.24818e-05,-1.24989e-05,0.760836,0.5303554061038833,6.1306959509011e-11,1.248187789792965e-05,0.5303554061038833,-1.2498821889028733e-05,-0.5712395896083886
584,0.5314,1052.58,1121.09,0.0718183,0.00268624,0.00121905,-0.0249702,0.426153,0.426153,-0.848164,6.13281e-11,1.21633e-05,-1.28504e-05,0.762013,0.53135505453376,6.132805374647887e-11,1.2163373973139713e-05,0.53135505453376,-1.2850317433921177e-05,-0.5717996134094948
585,0.5324,1053.04,1121.54,0.253803,0.00268167,0.0147469,-0.0035027,0.426806,0.426806,-0.849467,5.99653e-11,1.23858e-05,-1.23581e-05,0.763188,0.5323553559472372,5.996536600605396e-11,1.2385876704268384e-05,0.5323553559472372,-1.2358023638969762e-05,-0.5723571951698164
586,0.5334,1053.04,1121.55,-0.00763561,0.00267669,-0.00518415,-0.0342413,0.427458,0.427458,-0.850772,6.03279e-11,1.19176e-05,-1.2941e-05,0.764364,0.5333547774153085,6.032796484589653e-11,1.1917671014938236e-05,0.5333547774153085,-1.2940916265580249e-05,-0.5729149050452766
587,0.5344,1053.65,1122.16,0.336592,0.00267233,0.0206124,0.00634457,0.42811,0.42811,-0.852073,5.83527e-11,1.23897e-05,-1.20588e-05,0.765537,0.5343548507186522,5.835265604048345e-11,1.2389776752552706e-05,0.5343548507186522,-1.205872729292956e-05,-0.5734701814681777
588,0.5354,1053.46,1121.97,-0.127568,0.00266721,-0.0146202,-0.0482354,0.428762,0.428762,-0.853378,5.94367e-11,1.16034e-05,-1.31351e-05,0.766712,0.5353555762824036,5.943667780172746e-11,1.1603467319654115e-05,0.5353555762824036,-1.3135013734899559e-05,-0.5740264398438282
589,0.5364,1054.34,1122.86,0.493252,0.00266319,0.0320798,0.02491,0.429413,0.429413,-0.854676,5.63982e-11,1.25062e-05,-1.15815e-05,0.767883,0.5363554181757886,5.639821942793333e-11,1.2506278202817356e-05,0.5363554181757886,-1.1581432934670843e-05,-0.5745789948391401
590,0.5374,1053.78,1122.3,-0.338414,0.00265779,-0.0309014,-0.0728789,0.430063,0.430063,-0.855981,5.87149e-11,1.11447e-05,-1.35508e-05,0.769057,0.5373543738230164,5.871481079111618e-11,1.1144762102510697e-05,0.5373543738230164,-1.3550708188314609e-05,-0.5751338071570993
591,0.5384,1055.16,1123.68,0.774697,0.00265436,0.0530199,0.0582145,0.430714,0.430714,-0.857274,5.37335e-11,1.28169e-05,-1.07995e-05,0.770225,0.5383555173572385,5.3733462124228026e-11,1.281698213673188e-05,0.5383555173572385,-1.0799441685582778e-05,-0.5756828041414082
592,0.5394,1053.93,1122.46,-0.712847,0.00264845,-0.0594789,-0.116634,0.431364,0.431364,-0.858581,5.80592e-11,1.04281e-05,-1.43637e-05,0.7714,0.5393557734915471,5.805911307277256e-11,1.0428154372910114e-05,0.5393557734915471,-1.4363596842592585e-05,-0.5762370244545252
593,0.5404,1054.29,1122.83,-0.61859,0.00264263,-0.052642,-0.105353,0.432013,0.432013,-0.859878,5.7411e-11,1.03083e-05,-1.43901e-05,0.77257,0.540355139647783,5.7410964870996395e-11,1.030835313065026e-05,0.540355139647783,-1.4389996462971233e-05,-0.5767862887589081
594,0.5414,1055.63,1124.16,0.457894,0.00263883,0.0290146,0.0218329,0.432662,0.432662,-0.861169,5.421e-11,1.18649e-05,-1.18229e-05,0.773735,0.5413551546031667,5.4209969846397144e-11,1.186497038818679e-05,0.5413551546031667,-1.182283010980889e-05,-0.5773323051307161
595,0.5424,1054.9,1123.44,-0.540683,0.00263342,-0.0464472,-0.0952224,0.433311,0.433311,-0.862471,5.61035e-11,1.02125e-05,-1.4237e-05,0.774906,0.5423558187789059,5.610356623719781e-11,1.0212552147725873e-05,0.5423558187789059,-1.4236898654429453e-05,-0.577882260370884
596,0.5434,1056.65,1125.19,0.950288,0.00263061,0.0661519,0.0802733,0.433959,0.433959,-0.863758,5.07946e-11,1.24771e-05,-1.05661e-05,0.776069,0.5433555892401201,5.079470177804524e-11,1.2477177839365083e-05,0.5433555892401201,-1.0566044178927925e-05,-0.5784251764603441
597,0.5444,1056.44,1124.98,0.4765,0.00262673,0.0289183,0.0229786,0.434606,0.434606,-0.865055,5.20455e-11,1.17911e-05,-1.14733e-05,0.777237,0.5443544634073068,5.204547903758794e-11,1.1791169515218414e-05,0.5443544634073068,-1.1473234181935688e-05,-0.5789716045712445
598,0.5454,1056.42,1124.97,0.198665,0.00262234,0.0084287,-0.00887576,0.435254,0.435254,-0.86635,5.23573e-11,1.13544e-05,-1.20039e-05,0.778404,0.5453555294099501,5.235722966290268e-11,1.1354464461543756e-05,0.5453555294099501,-1.2003827953521728e-05,-0.5795164834580976
599,0.5464,1056.72,1125.27,0.237727,0.002618,0.0111358,-0.00432502,0.435901,0.435901,-0.867643,5.15798e-11,1.13657e-05,-1.18315e-05,0.779569,0.5463556979571134,5.157985150106015e-11,1.1365764589710281e-05,0.5463556979571134,-1.1831430008046873e-05,-0.5800598173039573
600,0.5474,1056.81,1125.37,0.0655047,0.00261337,-0.00211933,-0.0245777,0.436547,0.436547,-0.868936,5.15218e-11,1.10313e-05,-1.21945e-05,0.780734,0.5473549664669717,5.1521897859174715e-11,1.1031360845015215e-05,0.5473549664669717,-1.219442564737161e-05,-0.5806024490731446
601,0.5484,1057.26,1125.81,0.250565,0.00260909,0.0116788,-0.00279865,0.437193,0.437193,-0.870226,5.03212e-11,1.12551e-05,-1.16909e-05,0.781897,0.5483548807128373,5.032130268034507e-11,1.1255163338885765e-05,0.5483548807128373,-1.1690831661748113e-05,-0.5811431231041123
602,0.5494,1057.25,1125.82,-0.0115991,0.00260437,-0.00833451,-0.0335438,0.437839,0.437839,-0.871518,5.05258e-11,1.07719e-05,-1.22831e-05,0.783061,0.549355441111991,5.0525805761481024e-11,1.07719580171306e-05,0.549355441111991,-1.2283024563020106e-05,-0.5816839367482176
603,0.5504,1057.86,1126.42,0.330327,0.00260027,0.0173482,0.00667341,0.438484,0.438484,-0.872805,4.88549e-11,1.12408e-05,-1.13983e-05,0.784222,0.5503550977261094,4.8854920109420163e-11,1.1240863178052507e-05,0.5503550977261094,-1.1398235039594695e-05,-0.5822219632273191
604,0.5514,1057.66,1126.23,-0.125901,0.00259539,-0.0173408,-0.0468374,0.439129,0.439129,-0.874096,4.95997e-11,1.04487e-05,-1.24677e-05,0.785384,0.5513553993267297,4.959965771433872e-11,1.0448754587777387e-05,0.5513553993267297,-1.2467622278578006e-05,-0.5827609666712075
605,0.5524,1058.52,1127.09,0.478078,0.00259161,0.0281835,0.0241494,0.439773,0.439773,-0.875381,4.71314e-11,1.13318e-05,-1.094e-05,0.786543,0.5523547939744322,4.713140988599207e-11,1.1331864204988662e-05,0.5523547939744322,-1.0939940158438688e-05,-0.5832967744987774
606,0.5534,1057.98,1126.55,-0.322751,0.00258644,-0.0325736,-0.0697758,0.440417,0.440417,-0.876672,4.87652e-11,9.9921e-06,-1.28558e-05,0.787706,0.553354832439575,4.876521408903045e-11,9.9921499212563e-06,0.553354832439575,-1.2855717364534947e-05,-0.5838343912566126
607,0.5544,1059.3,1127.87,0.738078,0.00258322,0.047555,0.0548484,0.441061,0.441061,-0.877952,4.48728e-11,1.16001e-05,-1.02047e-05,0.788861,0.5543555151369095,4.487277216469465e-11,1.1600167281411444e-05,0.5543555151369095,-1.0204647932221533e-05,-0.5843667424583514
608,0.5554,1058.15,1126.73,-0.665211,0.00257754,-0.0587727,-0.109684,0.441704,0.441704,-0.879246,4.78914e-11,9.3025e-06,-1.36011e-05,0.790024,0.5553552871253906,4.789146856865045e-11,9.30254326836355e-06,0.5553552871253906,-1.3601007505470442e-05,-0.5849042240680107
609,0.5564,1058.5,1127.09,-0.570358,0.00257205,-0.0518682,-0.0983793,0.442347,0.442347,-0.88053,4.72581e-11,9.19049e-06,-1.36046e-05,0.791182,0.556355702173982,4.7258197355404263e-11,9.190532232583593e-06,0.556355702173982,-1.3604507457798398e-05,-0.5854368650156405
610,0.5574,1059.75,1128.34,0.424403,0.00256846,0.0237614,0.0189153,0.442989,0.442989,-0.881808,4.49883e-11,1.06399e-05,-1.12032e-05,0.792335,0.5573552033403224,4.498823535925567e-11,1.0639956603997192e-05,0.5573552033403224,-1.1203137244342187e-05,-0.5859663382966589
611,0.5584,1059.1,1127.69,-0.48287,0.00256329,-0.0449293,-0.0871605,0.443631,0.443631,-0.883096,4.60297e-11,9.10344e-06,-1.34167e-05,0.793495,0.5583553463924347,4.6029624556354065e-11,9.103481436456562e-06,0.5583553463924347,-1.3416609996430573e-05,-0.5864992703710016
612,0.5594,1060.7,1129.29,0.862146,0.00256057,0.0568171,0.0707528,0.444272,0.444272,-0.88437,4.22916e-11,1.11636e-05,-1.00667e-05,0.794645,0.5593545723871898,4.229150363244116e-11,1.1163662313240508e-05,0.5593545723871898,-1.0066649330897626e-05,-0.5870257348714545
613,0.5604,1059.23,1127.83,-0.857461,0.00255484,-0.0734763,-0.130661,0.444913,0.444913,-0.885661,4.47216e-11,8.34966e-06,-1.42534e-05,0.795806,0.5603544390911332,4.4721559788740706e-11,8.349694858411638e-06,0.5603544390911332,-1.425329842075218e-05,-0.5875585406476055
614,0.5614,1059.66,1128.27,-0.681156,0.0025494,-0.0603121,-0.109669,0.445554,0.445554,-0.886941,4.41046e-11,8.33181e-06,-1.41072e-05,0.796959,0.5613549469150907,4.4104497831654044e-11,8.33184470971915e-06,0.5613549469150907,-1.4107100493876423e-05,-0.5880861279876457
615,0.5624,1061.04,1129.63,0.435568,0.00254603,0.0245663,0.0217505,0.446194,0.446194,-0.888214,4.2642e-11,9.96906e-06,-1.14157e-05,0.798109,0.562354533914837,4.264189001901286e-11,9.969109691310152e-06,0.562354533914837,-1.1415634841194233e-05,-0.5886101607291099
616,0.5634,1060.31,1128.91,-0.545137,0.00254098,-0.0496935,-0.0927954,0.446834,0.446834,-0.889498,-5.93673e-10,8.3049e-06,-1.382e-05,0.799265,0.5633547608550222,-5.936729996491863e-10,8.304934485670046e-06,0.5633547608550222,-1.3819904504219771e-05,-0.5891380463076672
617,0.5644,1062.03,1130.63,0.922545,0.00253856,0.0614149,0.0793781,0.447474,0.447474,-0.890768,4.01034e-11,1.05701e-05,-1.01547e-05,0.800411,0.5643556281453395,4.0103476095509905e-11,1.057015586369836e-05,0.5643556281453395,-1.0154648441229597e-05,-0.5896595097894565
618,0.5654,1060.41,1129.03,-0.941644,0.00253291,-0.0798838,-0.138786,0.448113,0.448113,-0.892055,4.12258e-11,7.51255e-06,-1.47086e-05,0.801569,0.5653555708393903,4.122568952880101e-11,7.512578219293076e-06,0.5653555708393903,-1.4708491829051873e-05,-0.5901872783084672
619,0.5664,1060.88,1129.5,-0.726856,0.00252755,-0.0637611,-0.113245,0.448751,0.448751,-0.893331,4.07033e-11,7.54256e-06,-1.4485e-05,0.802718,0.5663545863456454,4.0703218573412414e-11,7.542588445152987e-06,0.5663545863456454,-1.4484895092925498e-05,-0.5907098658595826
620,0.5674,1062.3,1130.91,0.436065,0.00252434,0.024646,0.023436,0.44939,0.44939,-0.894599,4.02074e-11,9.25659e-06,-1.16757e-05,0.803864,0.5673558067821816,4.020739297061482e-11,9.256632842458146e-06,0.5673558067821816,-1.1675631839236367e-05,-0.5912285168554496
621,0.5684,1061.54,1130.17,-0.566138,0.00251941,-0.0512702,-0.0935179,0.450027,0.450027,-0.89588,3.96567e-11,7.54974e-06,-1.41394e-05,0.805016,0.568354530490832,3.965672235040074e-11,7.549768499259812e-06,0.568354530490832,-1.4139300039128777e-05,-0.5917518178794923
622,0.5694,1063.3,1131.92,0.937951,0.00251714,0.0626571,0.0827753,0.450665,0.450665,-0.897145,3.80202e-11,9.88422e-06,-1.03689e-05,0.806159,0.5693554599438289,3.802025361210326e-11,9.884268848958655e-06,0.5693554599438289,-1.0368846243169472e-05,-0.5922679253230925
623,0.5704,1063.07,1131.7,0.460012,0.00251366,0.0250343,0.0252381,0.451302,0.451302,-0.898421,3.83778e-11,9.16591e-06,-1.13026e-05,0.807308,0.570355457837328,3.837774542603256e-11,9.165952007172962e-06,0.570355457837328,-1.1302536125912255e-05,-0.5927878596617269
624,0.5714,1063.06,1131.69,0.197937,0.00250972,0.00564401,-0.00470021,0.451938,0.451938,-0.899695,3.81382e-11,8.73674e-06,-1.18005e-05,0.808456,0.5713545215771054,3.813815929731845e-11,8.736778165374659e-06,0.5713545215771054,-1.1800430374409032e-05,-0.593306317600686
625,0.5724,1063.33,1131.96,0.219285,0.0025058,0.00702079,-0.00225821,0.452575,0.452575,-0.900966,3.75475e-11,8.71447e-06,-1.16638e-05,0.809601,0.5723557932785299,3.754752064821787e-11,8.714507971019358e-06,0.5723557932785299,-1.1663731978139857e-05,-0.5938228969153192
626,0.5734,1063.43,1132.07,0.0748896,0.00250162,-0.00415322,-0.0191817,0.45321,0.45321,-0.902237,3.71063e-11,8.41229e-06,-1.19577e-05,0.810747,0.5733545562809546,3.710631801823183e-11,8.412325383400088e-06,0.5733545562809546,-1.1957628507031082e-05,-0.5943388200747184
627,0.5744,1063.83,1132.46,0.221394,0.00249771,0.00676532,-0.00201946,0.453846,0.453846,-0.903506,3.64347e-11,8.57484e-06,-1.15348e-05,0.811891,0.5743555280540322,3.643463308833361e-11,8.574876763978168e-06,0.5743555280540322,-1.1534733474483083e-05,-0.5948532776196926
628,0.5754,1063.87,1132.51,0.0142851,0.00249343,-0.00912078,-0.0262089,0.454481,0.454481,-0.904777,3.60211e-11,8.16471e-06,-1.19936e-05,0.813035,0.5753555612912962,3.6021186033963204e-11,8.164743331429136e-06,0.5753555612912962,-1.1993528077014481e-05,-0.5953678919971238
629,0.5764,1064.38,1133.02,0.278885,0.00248964,0.0107714,0.00477815,0.455115,0.455115,-0.906043,3.52836e-11,8.51562e-06,-1.12796e-05,0.814177,0.5763546533958861,3.528355385640225e-11,8.51565625792361e-06,0.5763546533958861,-1.127953638557777e-05,-0.5958798321193818
630,0.5774,1064.28,1132.93,-0.0689421,0.00248523,-0.0157833,-0.0358469,0.455749,0.455749,-0.907313,3.49295e-11,7.87565e-06,-1.20907e-05,0.815321,0.5773543791257083,3.4929392711546825e-11,7.875681012903257e-06,0.5773543791257083,-1.2090626907768076e-05,-0.5963927389678025
631,0.5784,1064.98,1133.63,0.383746,0.00248165,0.0183867,0.0171277,0.456383,0.456383,-0.908577,3.40858e-11,8.53071e-06,-1.09078e-05,0.816461,0.5783547388826085,3.408584525743663e-11,8.530746386625765e-06,0.5783547388826085,-1.0907740510157637e-05,-0.5969025762606976
632,0.5794,1064.63,1133.29,-0.206999,0.00247701,-0.0265929,-0.0518658,0.457017,0.457017,-0.909846,3.37943e-11,7.49519e-06,-1.23258e-05,0.817604,0.5793557330686876,3.3794300691170065e-11,7.495218089070832e-06,0.5793557330686876,-1.2325724037642871e-05,-0.5974137824624857
633,0.5804,1065.65,1134.3,0.562545,0.00247381,0.031635,0.0381404,0.45765,0.45765,-0.911106,3.27624e-11,8.6647e-06,-1.03509e-05,0.818741,0.5803557817297289,3.2762459412083444e-11,8.664737538577327e-06,0.5803557817297289,-1.0350846429640903e-05,-0.5979207216578217
634,0.5814,1064.89,1133.55,-0.439369,0.00246879,-0.0445314,-0.0788428,0.458282,0.458282,-0.912376,3.24875e-11,6.95944e-06,-1.27968e-05,0.819884,0.5813548822662962,3.2487568191186256e-11,6.959464216915734e-06,0.5813548822662962,-1.279671812126626e-05,-0.5984310382217074
635,0.5824,1066.44,1135.1,0.865188,0.00246624,0.0543361,0.0736902,0.458914,0.458914,-0.913632,3.10884e-11,9.0001e-06,-9.48216e-06,0.821018,0.5823546144339771,3.1088465135553633e-11,9.000140501091991e-06,0.5823546144339771,-9.482115044479045e-06,-0.598935092225523
636,0.5834,1064.99,1133.66,-0.829915,0.00246061,-0.0743975,-0.124135,0.459546,0.459546,-0.914905,3.06394e-11,6.16476e-06,-1.36623e-05,0.822162,0.5833549786320884,3.063949094439522e-11,6.164779002171272e-06,0.5833549786320884,-1.3662206671205546e-05,-0.599445323022314
637,0.5844,1065.42,1134.09,-0.642645,0.00245542,-0.0603474,-0.101943,0.460177,0.460177,-0.916165,-5.96229e-10,6.17273e-06,-1.34633e-05,0.823299,0.5843543909050168,-5.962289550964783e-10,6.172749051236437e-06,0.5843543909050168,-1.3463209370234708e-05,-0.5999497040885047
638,0.5854,1066.71,1135.37,0.398937,0.00245219,0.0190163,0.0201965,0.460808,0.460808,-0.917421,3.05601e-11,7.72163e-06,-1.09093e-05,0.824432,0.5853544340060948,3.055999897583206e-11,7.72165981177686e-06,0.5853544340060948,-1.0909240493850447e-05,-0.6004518518453652
639,0.5864,1066.06,1134.73,-0.488618,0.00244734,-0.0483356,-0.0830611,0.461439,0.461439,-0.918686,2.93116e-11,6.17124e-06,-1.31104e-05,0.825571,0.5863551083335004,2.931166420694353e-11,6.1712590422313696e-06,0.5863551083335004,-1.3110314059039396e-05,-0.6009569607040703
640,0.5874,1067.62,1136.29,0.829926,0.00244494,0.0516824,0.0710064,0.462069,0.462069,-0.919938,2.90845e-11,8.23556e-06,-9.76131e-06,0.826701,0.5873548269300428,2.9084512576105226e-11,8.235593912386818e-06,0.5873548269300428,-9.761262358520817e-06,-0.6014562499689692
641,0.5884,1066.22,1134.9,-0.817795,0.00243955,-0.0734948,-0.121092,0.462699,0.462699,-0.921206,2.73097e-11,5.46281e-06,-1.38368e-05,0.827841,0.5883551755477368,2.730971004893945e-11,5.462824921087517e-06,0.5883551755477368,-1.3836704271907863e-05,-0.6019612831852823
642,0.5894,1066.65,1135.33,-0.624061,0.00243459,-0.0589454,-0.0981767,0.463328,0.463328,-0.922463,2.6946e-11,5.48732e-06,-1.36101e-05,0.828974,0.5893545652282608,2.694600098607225e-11,5.487335055454068e-06,0.5893545652282608,-1.361000738298035e-05,-0.6024613035236976
643,0.5904,1067.9,1136.58,0.384497,0.00243149,0.0179424,0.0200033,0.463957,0.463957,-0.923714,2.80256e-11,6.99189e-06,-1.11244e-05,0.830104,0.5903545837226352,2.802558185521775e-11,6.991914443421621e-06,0.5903545837226352,-1.1124338124113287e-05,-0.6029583134884382
644,0.5914,1067.29,1135.98,-0.46583,0.00242684,-0.0466173,-0.0788398,0.464586,0.464586,-0.924975,2.61783e-11,5.49726e-06,-1.32344e-05,0.831239,0.5913552314265083,2.6178392786846416e-11,5.4972751100113015e-06,0.5913552314265083,-1.3234312425725037e-05,-0.6034586675156132
645,0.5924,1068.8,1137.48,0.797385,0.0024245,0.049232,0.0686251,0.465214,0.465214,-0.926223,2.69098e-11,7.48114e-06,-1.00101e-05,0.832366,0.5923549163800645,2.690980771546947e-11,7.48116798376941e-06,0.5923549163800645,-1.0010049899089601e-05,-0.6039532424196217
646,0.5934,1067.46,1136.16,-0.775106,0.00241933,-0.0702913,-0.114554,0.465842,0.465842,-0.927487,2.40551e-11,4.82061e-06,-1.39056e-05,0.833502,0.5933552293329427,2.4055202274553267e-11,4.820621619217036e-06,0.5933552293329427,-1.390550331759055e-05,-0.6044535292733029
647,0.5944,1067.88,1136.58,-0.593134,0.00241455,-0.056643,-0.0930638,0.466469,0.466469,-0.92874,2.3729e-11,4.83699e-06,-1.3689e-05,0.834632,0.594354576324277,2.3729018749918396e-11,4.837001698287935e-06,0.594354576324277,-1.3688906306041915e-05,-0.6049488386250113
648,0.5954,1069.09,1137.78,0.372908,0.00241152,0.0170465,0.020063,0.467096,0.467096,-0.929987,2.53943e-11,6.28308e-06,-1.12932e-05,0.835758,0.5953545501026518,2.539435328685613e-11,6.28309973849106e-06,0.5953545501026518,-1.1293136232048973e-05,-0.6054411603968242
649,0.5964,1068.52,1137.22,-0.440159,0.00240702,-0.0447186,-0.0743743,0.467723,0.467723,-0.931244,2.30506e-11,4.8453e-06,-1.33106e-05,0.836889,0.5963551510611862,2.3050672481872425e-11,4.845311738499447e-06,0.5963551510611862,-1.3310511414399429e-05,-0.6059368092776212
650,0.5974,1069.96,1138.66,0.763756,0.00240469,0.0466538,0.0660339,0.468349,0.468349,-0.932489,2.45964e-11,6.74148e-06,-1.0222e-05,0.838013,0.5973547822376646,2.4596324976755568e-11,6.741502723839332e-06,0.5973547822376646,-1.0221947755573169e-05,-0.6064271126728752
651,0.5984,1068.7,1137.41,-0.730401,0.00239968,-0.066973,-0.107878,0.468975,0.468975,-0.933748,2.08489e-11,4.19932e-06,-1.39285e-05,0.839146,0.5983550393791659,2.0848878179435815e-11,4.199328817122705e-06,0.5983550393791659,-1.3928402998852896e-05,-0.6069223091464294
652,0.5994,1069.11,1137.82,-0.561574,0.00239504,-0.0543333,-0.0879735,0.4696,0.4696,-0.934997,2.05471e-11,4.2053e-06,-1.37258e-05,0.840272,0.5993543235225438,2.0547119561342697e-11,4.2053088422644436e-06,0.5993543235225438,-1.3725705801603816e-05,-0.6074129567091184
653,0.6004,1070.27,1138.98,0.361768,0.00239205,0.0161402,0.0200861,0.470226,0.470226,-0.936241,2.27044e-11,5.59194e-06,-1.1421e-05,0.841394,0.6003558327687575,2.27045049427943e-11,5.591955634987045e-06,0.6003558327687575,-1.1420934780681513e-05,-0.6079010313456056
654,0.6014,1069.73,1138.44,-0.414796,0.00238766,-0.0428843,-0.0700398,0.47085,0.47085,-0.937494,1.99511e-11,4.21022e-06,-1.33475e-05,0.842522,0.6013547664432981,1.9951151841723913e-11,4.21022886309963e-06,0.6013547664432981,-1.3347410922515124e-05,-0.6083920236823921
655,0.6024,1071.11,1139.82,0.730902,0.00238532,0.0440888,0.0634495,0.471474,0.471474,-0.938735,2.21811e-11,6.01947e-06,-1.0393e-05,0.843643,0.6023543236469726,2.2181145808986003e-11,6.019488117070537e-06,0.6023543236469726,-1.0392945992920843e-05,-0.6088777077517045
656,0.6034,1069.93,1138.65,-0.686874,0.00238044,-0.0637825,-0.101435,0.472098,0.472098,-0.93999,1.77049e-11,3.59347e-06,-1.39146e-05,0.844772,0.6033545047689846,1.7704948618302296e-11,3.593476456620337e-06,0.6033545047689846,-1.3914503192435923e-05,-0.6093682583435939
657,0.6044,1070.32,1139.04,-0.531157,0.00237592,-0.0521496,-0.0831093,0.472722,0.472722,-0.941236,1.74181e-11,3.58848e-06,-1.37264e-05,0.845894,0.6043553101987804,1.7418066988739156e-11,3.5884864386659387e-06,0.6043553101987804,-1.372630579343781e-05,-0.609854682388586
658,0.6054,1071.44,1140.16,0.351238,0.00237296,0.0152371,0.0200937,0.473345,0.473345,-0.942476,1.99886e-11,4.91769e-06,-1.15096e-05,0.847013,0.6053551349701121,1.9988677379956243e-11,4.917702091766785e-06,0.6053551349701121,-1.150953376483077e-05,-0.6103381627626423
659,0.6064,1070.93,1139.65,-0.390697,0.00236866,-0.0411853,-0.065944,0.473968,0.473968,-0.943725,1.6899e-11,3.58927e-06,-1.33496e-05,0.848138,0.6063555828263472,1.6898926702424433e-11,3.589276441395839e-06,0.6063555828263472,-1.3349510894489214e-05,-0.6108245465874231
660,0.6074,1072.26,1140.98,0.699774,0.0023663,0.0416117,0.0609859,0.47459,0.47459,-0.944962,1.97015e-11,5.31556e-06,-1.05228e-05,0.849255,0.6073550467999378,1.9701573705788178e-11,5.3155741275290325e-06,0.6073550467999378,-1.052274463553271e-05,-0.6113056589939225
661,0.6084,1071.14,1139.87,-0.645818,0.00236154,-0.0608158,-0.0953718,0.475212,0.475212,-0.946213,1.46345e-11,2.99972e-06,-1.38692e-05,0.85038,0.6083551326334986,1.4634515821398963e-11,2.999724499241907e-06,0.6083551326334986,-1.3869103823060946e-05,-0.6117916115877973
662,0.6094,1071.52,1140.25,-0.502606,0.00235711,-0.050144,-0.0785502,0.475834,0.475834,-0.947454,1.43561e-11,2.98392e-06,-1.36954e-05,0.851499,0.6093558407139463,1.4356071886822974e-11,2.983924451971376e-06,0.6093558407139463,-1.3695306218419745e-05,-0.6122730793852569
663,0.6104,1072.6,1141.33,0.341382,0.00235417,0.0143453,0.0200978,0.476455,0.476455,-0.948691,1.72751e-11,4.25898e-06,-1.15613e-05,0.852615,0.6103555610720732,1.7275070263167436e-11,4.2589890694166854e-06,0.6103555610720732,-1.1561233168477791e-05,-0.6127524010644785
664,0.6114,1072.12,1140.86,-0.368237,0.00234995,-0.0396472,-0.0621253,0.477075,0.477075,-0.949936,1.39099e-11,2.98031e-06,-1.33205e-05,0.853736,0.6113542910942522,1.3909984275528586e-11,2.9803144412365867e-06,0.6113542910942522,-1.3320411282546907e-05,-0.6132342243279352
665,0.6124,1073.39,1142.13,0.670726,0.00234756,0.039253,0.0586889,0.477696,0.477696,-0.95117,1.7191e-11,4.62888e-06,-1.06132e-05,0.85485,0.6123552528754872,1.719091535790085e-11,4.6288907131764034e-06,0.6123552528754872,-1.0613143680227033e-05,-0.6137111989412518
666,0.6134,1072.34,1141.09,-0.6077,0.0023429,-0.0581058,-0.0897371,0.478316,0.478316,-0.952416,1.16473e-11,2.41576e-06,-1.37962e-05,0.855971,0.6133552230910044,1.1647349751342517e-11,2.4157629179288875e-06,0.6133552230910044,-1.3796104832874967e-05,-0.6141922150521018
667,0.6144,1072.71,1141.45,-0.476153,0.00233856,-0.048331,-0.074317,0.478936,0.478936,-0.953654,1.13728e-11,2.38962e-06,-1.3636e-05,0.857087,0.6143558134802891,1.1372902619655179e-11,2.389622855147877e-06,0.6143558134802891,-1.3635907030185024e-05,-0.6146695495588423
668,0.6154,1073.75,1142.49,0.332191,0.00233564,0.0134675,0.0201025,0.479555,0.479555,-0.954887,1.45871e-11,3.61422e-06,-1.15789e-05,0.858199,0.6153554090717519,1.4586998275945007e-11,3.6142265313898747e-06,0.6153554090717519,-1.1578832964764807e-05,-0.6151443692177613
669,0.6164,1073.3,1142.05,-0.347493,0.00233148,-0.0382726,-0.0585868,0.480174,0.480174,-0.956128,1.09962e-11,2.3816e-06,-1.32633e-05,0.859316,0.6163556236044283,1.09960929250974e-11,2.381602836054597e-06,0.6163556236044283,-1.3263212042868844e-05,-0.6156216788236937
670,0.6174,1074.52,1143.27,0.6438,0.00232908,0.0370194,0.0565682,0.480792,0.480792,-0.957358,1.46782e-11,3.95799e-06,-1.06668e-05,0.860427,0.6173548401059126,1.4678258608569195e-11,3.957997832815252e-06,0.6173548401059126,-1.0666743109899457e-05,-0.6160941735149357
671,0.6184,1073.53,1142.29,-0.57256,0.00232451,-0.0556527,-0.0845293,0.48141,0.48141,-0.9586,8.7513e-12,1.83989e-06,-1.36986e-05,0.861545,0.6183546743140467,8.751221969305334e-12,1.8398916925566056e-06,0.6183546743140467,-1.369850617460866e-05,-0.6165706885743236
672,0.6194,1073.88,1142.64,-0.451776,0.00232025,-0.0467058,-0.0704014,0.482028,0.482028,-0.959834,8.4775e-12,1.80404e-06,-1.35512e-05,0.862657,0.6193551266106911,8.47744097143277e-12,1.8040416271958293e-06,0.6193551266106911,-1.3551108182907612e-05,-0.617043548530026
673,0.6204,1074.89,1143.64,0.323618,0.00231734,0.0126038,0.020108,0.482645,0.482645,-0.961064,1.19434e-11,2.98182e-06,-1.15653e-05,0.863766,0.6203545770225551,1.1943335209707584e-11,2.981824445580372e-06,0.6203545770225551,-1.1565233122179386e-05,-0.6175142953966617
674,0.6214,1074.46,1143.23,-0.328397,0.00231325,-0.0370531,-0.0553145,0.483262,0.483262,-0.9623,8.16822e-12,1.79169e-06,-1.31805e-05,0.86488,0.6213546442856026,8.168132836772202e-12,1.7916916050797482e-06,0.6213546442856026,-1.3180413137581226e-05,-0.6179867556869441
675,0.6224,1075.64,1144.4,0.618887,0.00231083,0.0349064,0.054616,0.483879,0.483879,-0.963527,1.21868e-11,3.30122e-06,-1.06865e-05,0.865987,0.6223553287805477,1.2186696096705418e-11,3.3012254490039084e-06,0.6223553287805477,-1.0686442899587867e-05,-0.6184551984892858
676,0.6234,1074.71,1143.48,-0.540238,0.00230635,-0.053441,-0.0797237,0.484495,0.484495,-0.964765,5.95343e-12,1.27082e-06,-1.35787e-05,0.867101,0.6233550075325209,5.9534599472499394e-12,1.2708208074752037e-06,0.6233550075325209,-1.3578607809816567e-05,-0.6189272586880012
677,0.6244,1075.04,1143.82,-0.429342,0.00230216,-0.0452551,-0.066782,0.485111,0.485111,-0.965996,5.67831e-12,1.22589e-06,-1.3443e-05,0.86821,0.6243553022763115,5.678346681747826e-12,1.225890751355152e-06,0.6243553022763115,-1.3442909643335277e-05,-0.6193960706196109
678,0.6254,1076.02,1144.79,0.315609,0.00229926,0.0117536,0.020113,0.485726,0.485726,-0.967221,9.35946e-12,2.36026e-06,-1.15231e-05,0.869316,0.6253545880360862,9.359402142194995e-12,2.3602627854391045e-06,0.6253545880360862,-1.1523033609295297e-05,-0.6198620249777889
679,0.6264,1075.62,1144.39,-0.310821,0.00229523,-0.0359758,-0.0522878,0.486341,0.486341,-0.968454,5.43428e-12,1.20935e-06,-1.30744e-05,0.870426,0.6263544885456196,5.434319660935216e-12,1.2093507313348795e-06,0.6263544885456196,-1.3074314530459041e-05,-0.6203304462599262
680,0.6274,1076.75,1145.52,0.595819,0.0022928,0.0329048,0.0528174,0.486956,0.486956,-0.969677,9.73595e-12,2.65695e-06,-1.06752e-05,0.87153,0.6273550041830986,9.735989792147848e-12,2.6569535296339097e-06,0.6273550041830986,-1.0675143020222322e-05,-0.6207944982984874
681,0.6284,1075.87,1144.65,-0.510494,0.0022884,-0.0514499,-0.0752866,0.48757,0.48757,-0.970912,3.2595e-12,7.07507e-07,-1.34385e-05,0.872641,0.6283545069716223,3.2593927556945346e-12,7.075072503415214e-07,0.6283545069716223,-1.3438409703803167e-05,-0.621262528025245
682,0.6294,1076.2,1144.98,-0.408676,0.00228428,-0.0439627,-0.0634332,0.488184,0.488184,-0.972138,2.9817e-12,6.54103e-07,-1.33137e-05,0.873746,0.6293546236433012,2.9816149549333204e-12,6.541032138152048e-07,0.6293546236433012,-1.3313611373133583e-05,-0.6217265756465692
683,0.6304,1077.14,1145.92,0.308107,0.0022814,0.0109157,0.0201158,0.488798,0.488798,-0.97336,6.84783e-12,1.74818e-06,-1.14549e-05,0.874849,0.630355354575175,6.8478556158879655e-12,1.7481815279829505e-06,0.630355354575175,-1.1454834392909952e-05,-0.622188543451313
684,0.6314,1076.76,1145.55,-0.294617,0.00227742,-0.0350265,-0.0494844,0.489411,0.489411,-0.974589,2.80131e-12,6.33527e-07,-1.29469e-05,0.875956,0.6313550687886309,2.801314735734195e-12,6.335272006996462e-07,0.6313550687886309,-1.2946816189240984e-05,-0.6226525885173089
685,0.6324,1077.86,1146.64,0.574416,0.00227498,0.031004,0.0511559,0.490024,0.490024,-0.975809,7.34142e-12,2.02365e-06,-1.06356e-05,0.877057,0.6323553960147688,7.34146077263631e-12,2.0236520474892217e-06,0.6323553960147688,-1.0635543442161222e-05,-0.6231126716515403
686,0.6334,1077.02,1145.81,-0.483073,0.00227065,-0.0496572,-0.0711833,0.490636,0.490636,-0.977039,6.74403e-13,1.49072e-07,-1.32796e-05,0.878163,0.6333547032739608,6.743494651573201e-13,1.4907201117964064e-07,0.6333547032739608,-1.3279511826502777e-05,-0.6235759580858429
687,0.6344,1078.6,1147.38,0.865172,0.00226875,0.0528704,0.0848877,0.491248,0.491248,-0.978254,7.80801e-12,2.36047e-06,-9.72168e-06,0.879261,0.6343546222963758,7.807976487583801e-12,2.360472785900569e-06,0.6343546222963758,-9.72163274459703e-06,-0.6240330355659703
688,0.6354,1077.12,1145.92,-0.827635,0.00226386,-0.0761416,-0.110846,0.49186,0.49186,-0.979487,-2.83258e-12,-5.95231e-07,-1.40036e-05,0.880369,0.6353551534565276,-2.8326230250286244e-12,-5.952308228529546e-07,0.6353551534565276,-1.4003501950021757e-05,-0.6244963171613205
689,0.6364,1077.59,1146.39,-0.5872,0.00225951,-0.0579398,-0.0827176,0.492471,0.492471,-0.980707,-2.18356e-12,-4.7279e-07,-1.36076e-05,0.881469,0.6363546607736801,-2.183586644832758e-12,-4.7278988823951096e-07,0.6363546607736801,-1.360750741707939e-05,-0.6249541523181512
690,0.6374,1078.72,1147.52,0.323192,0.00225674,0.0116734,0.0230189,0.493082,0.493082,-0.981923,3.57044e-12,9.34182e-07,-1.12749e-05,0.882567,0.63735477897641,3.5704772471945034e-12,9.341824362962825e-07,0.63735477897641,-1.1274836438590619e-05,-0.6254099308993932
691,0.6384,1078.23,1147.04,-0.387753,0.00225267,-0.0424767,-0.0589195,0.493693,0.493693,-0.983147,-1.67226e-12,-3.78183e-07,-1.30607e-05,0.883669,0.6383555084380823,-1.6722179196904108e-12,-3.7818292852875857e-07,0.6383555084380823,-1.3060614709403673e-05,-0.6258681486574968
692,0.6394,1079.5,1148.31,0.660956,0.00225046,0.0372825,0.062373,0.494303,0.494303,-0.984361,4.60161e-12,1.32418e-06,-1.02769e-05,0.884764,0.6393552101762607,4.601652392466349e-12,1.3241808767272545e-06,0.6393552101762607,-1.027684719279165e-05,-0.6263220691395452
693,0.6404,1078.46,1147.27,-0.600797,0.00224601,-0.0589433,-0.0833786,0.494913,0.494913,-0.985587,-4.1374e-12,-9.10262e-07,-1.34586e-05,0.885867,0.6403555219185315,-4.137357123568108e-12,-9.102615856626528e-07,0.6403555219185315,-1.3458509433461607e-05,-0.6267799175643474
694,0.6414,1078.83,1147.65,-0.449771,0.00224194,-0.0476439,-0.0657877,0.495522,0.495522,-0.986804,-3.98602e-12,-8.93717e-07,-1.32225e-05,0.886965,0.6413548026814877,-3.9860337253116995e-12,-8.937166006139918e-07,0.6413548026814877,-1.3222412583169252e-05,-0.6272338501306787
695,0.6424,1079.81,1148.62,0.299298,0.00223916,0.00971026,0.021259,0.496131,0.496131,-0.988017,9.91821e-13,2.61186e-07,-1.12717e-05,0.888059,0.6423546921917733,9.918732502001149e-13,2.6118603413394226e-07,0.6423546921917733,-1.1271636474630142e-05,-0.6276857413430417
696,0.6434,1079.42,1148.24,-0.304792,0.00223527,-0.0363497,-0.048327,0.49674,0.49674,-0.989237,-3.73123e-12,-8.6796e-07,-1.2776e-05,0.889158,0.6433551908202284,-3.731237541160226e-12,-8.679596232852305e-07,0.6433551908202284,-1.2775918387220031e-05,-0.6281396877749752
697,0.6444,1080.52,1149.33,0.57204,0.00223292,0.0303112,0.0529655,0.497348,0.497348,-0.990448,1.9238e-12,5.49091e-07,-1.04253e-05,0.890251,0.6443546545824419,1.9237944570704713e-12,5.490911507699536e-07,0.6443546545824419,-1.042524565675329e-05,-0.6285897380526358
698,0.6454,1079.68,1148.5,-0.483514,0.0022287,-0.0502429,-0.0688683,0.497956,0.497956,-0.991669,-5.88388e-12,-1.3403e-06,-1.30789e-05,0.891349,0.6453547262033934,-5.883848963605942e-12,-1.3402991018152122e-06,0.6453547262033934,-1.3078814471545464e-05,-0.6290429532382968
699,0.6464,1081.24,1150.06,0.85435,0.00222688,0.051541,0.0856149,0.498564,0.498564,-0.992876,2.7936e-12,8.75353e-07,-9.51956e-06,0.892439,0.646355406052773,2.793543174561819e-12,8.753533831118432e-07,0.646355406052773,-9.51951468908252e-06,-0.6294904282882202
700,0.6474,1079.79,1148.62,-0.813149,0.00222211,-0.0756086,-0.106744,0.499171,0.499171,-0.994099,-6.25407e-10,-2.06543e-06,-1.37615e-05,0.893539,0.6473550471446252,-6.25406948451257e-10,-2.0654278669596238e-06,0.6473550471446252,-1.376140531095249e-05,-0.6299432845163944
701,0.6484,1080.25,1149.08,-0.567724,0.00221791,-0.0570097,-0.0781156,0.499778,0.499778,-0.99531,-8.58966e-12,-1.92597e-06,-1.33359e-05,0.894631,0.648355295202816,-8.589684519222374e-12,-1.9259681452998834e-06,0.648355295202816,-1.3335811077319626e-05,-0.6303911519603738
702,0.6494,1081.35,1150.17,0.30697,0.00221521,0.00991274,0.0232402,0.500384,0.500384,-0.996517,-2.0848e-12,-5.63703e-07,-1.10723e-05,0.895721,0.6493545012405597,-2.084776795641119e-12,-5.637028410721001e-07,0.6493545012405597,-1.1072238702336534e-05,-0.6308370007161057
703,0.6504,1080.9,1149.73,-0.36361,0.00221128,-0.0411925,-0.0538661,0.50099,0.50099,-0.997733,-7.73975e-12,-1.8181e-06,-1.27603e-05,0.896815,0.6503543129806715,-7.739697771569354e-12,-1.818098347206032e-06,0.6503543129806715,-1.2760218587759553e-05,-0.6312856301012879
704,0.6514,1082.1,1150.93,0.623793,0.00220908,0.0339245,0.0600433,0.501596,0.501596,-0.998938,-6.87653e-13,-2.04065e-07,-1.01129e-05,0.897903,0.6513547307903182,-6.87672141452822e-13,-2.0406497913683097e-07,0.6513547307903182,-1.0112848864762825e-05,-0.6317296633332647
705,0.6524,1081.14,1149.98,-0.554188,0.0022048,-0.0559669,-0.0757183,0.502202,0.502202,-1.00015,-1.00903e-11,-2.31537e-06,-1.30945e-05,0.898997,0.6523557550368897,-1.0090261959305735e-11,-2.3153673195386304e-06,0.6523557550368897,-1.3094414267444954e-05,-0.6321757366062967
706,0.6534,1081.5,1150.33,-0.414917,0.00220089,-0.0455687,-0.0595614,0.502807,0.502807,-1.00136,-9.86407e-12,-2.30644e-06,-1.28659e-05,0.900087,0.6533557327314381,-9.864109529189591e-12,-2.306437340116041e-06,0.6533557327314381,-1.2865817234697374e-05,-0.632620534807822
707,0.6544,1082.41,1151.25,0.283965,0.00219817,0.00798168,0.0214836,0.503411,0.503411,-1.00257,-4.47252e-12,-1.22217e-06,-1.10223e-05,0.901173,0.6543546612400488,-4.472533454702443e-12,-1.222169253134453e-06,0.6543546612400488,-1.1022239254643296e-05,-0.6330647951290067
708,0.6554,1082.07,1150.91,-0.275439,0.00219441,-0.0347018,-0.0428112,0.504016,0.504016,-1.00378,-9.39977e-12,-2.28326e-06,-1.24147e-05,0.902264,0.6553558486387487,-9.39981426029135e-12,-2.2832573933762035e-06,0.6553558486387487,-1.241462293788409e-05,-0.6335085182202924
709,0.6564,1083.09,1151.93,0.531602,0.00219207,0.0266596,0.0501728,0.504619,0.504619,-1.00498,-3.29362e-12,-9.72427e-07,-1.02261e-05,0.903349,0.6563543292271206,-3.2935876248529894e-12,-9.724265271904287e-07,0.6563543292271206,-1.0226047713612907e-05,-0.6339480442300791
710,0.6574,1082.34,1151.19,-0.432872,0.00218801,-0.046991,-0.0608929,0.505223,0.505223,-1.00619,-1.13968e-11,-2.72201e-06,-1.26563e-05,0.90444,0.6573550694350927,-1.139677241468462e-11,-2.722006295363677e-06,0.6573550694350927,-1.2656219909423783e-05,-0.6343906992362744
711,0.6584,1083.77,1152.62,0.781177,0.00218613,0.0453849,0.0789241,0.505826,0.505826,-1.00739,-2.17046e-12,-6.99294e-07,-9.39342e-06,0.905522,0.6583547559171452,-2.170486013142181e-12,-6.992937554572976e-07,0.6583547559171452,-9.393375882016386e-06,-0.6348291672637583
712,0.6594,1082.48,1151.34,-0.721648,0.00218159,-0.0692752,-0.0940356,0.506429,0.506429,-1.0086,-1.47712e-11,-3.38288e-06,-1.32306e-05,0.906613,0.6593550453919304,-1.477118427573032e-11,-3.382874278035075e-06,0.6593550453919304,-1.3230512476036793e-05,-0.6352707567558488
713,0.6604,1082.91,1151.77,-0.506495,0.00217758,-0.0530022,-0.0690267,0.507031,0.507031,-1.00981,-1.38609e-11,-3.27312e-06,-1.28469e-05,0.907698,0.6603542778680545,-1.3860912417840154e-11,-3.273114643320696e-06,0.6603542778680545,-1.2846817478928685e-05,-0.6357118122477892
714,0.6614,1083.92,1152.77,0.288181,0.00217492,0.00784703,0.0228808,0.507634,0.507634,-1.01101,-7.18807e-12,-2.0286e-06,-1.07622e-05,0.908779,0.6613557734181712,-7.1880279506331135e-12,-2.0285979424050637e-06,0.6613557734181712,-1.0762142087727966e-05,-0.6361486958904801
715,0.6624,1083.53,1152.39,-0.319261,0.00217113,-0.03848,-0.0468093,0.508235,0.508235,-1.01221,-1.28629e-11,-3.18273e-06,-1.22897e-05,0.909866,0.6623545483397961,-1.2862932941004601e-11,-3.182724935157921e-06,0.6623545483397961,-1.22896244819648e-05,-0.6365850555872303
716,0.6634,1084.63,1153.49,0.56828,0.00216891,0.0290397,0.0553055,0.508837,0.508837,-1.01341,-5.60268e-12,-1.72606e-06,-9.88226e-06,0.910946,0.6633555870603198,-5.60262947146839e-12,-1.7260585103429094e-06,0.6633555870603198,-9.882211170597621e-06,-0.6370208919663978
717,0.6644,1083.79,1152.65,-0.483381,0.00216481,-0.0512611,-0.0656156,0.509438,0.509438,-1.01462,-1.49762e-11,-3.63747e-06,-1.25496e-05,0.912032,0.6643555642311836,-1.4976242468378587e-11,-3.637463384387196e-06,0.6643555642311836,-1.2549521254068274e-05,-0.6374598310754034
718,0.6654,1084.12,1152.98,-0.368264,0.00216106,-0.0427248,-0.052333,0.510038,0.510038,-1.01582,-1.47958e-11,-3.65423e-06,-1.23562e-05,0.913114,0.6653544772136497,-1.4795831226877e-11,-3.6542233232683685e-06,0.6653544772136497,-1.2356123662460305e-05,-0.6378946183535714
719,0.6664,1084.97,1153.83,0.26921,0.00215838,0.00615926,0.0214474,0.510639,0.510639,-1.01701,-9.27428e-12,-2.6607e-06,-1.06497e-05,0.914193,0.6663556560785684,-9.274248036206245e-12,-2.6606964603770322e-06,0.6663556560785684,-1.0649643292115485e-05,-0.6383252674706859
720,0.6674,1084.67,1153.54,-0.241892,0.00215475,-0.0328668,-0.0371647,0.511239,0.511239,-1.01821,-1.42063e-11,-3.64582e-06,-1.19193e-05,0.915275,0.6673557694762315,-1.420630280080104e-11,-3.6458133539918336e-06,0.6673557694762315,-1.1919228965373563e-05,-0.6387590168480446
721,0.6684,1085.61,1154.48,0.48849,0.0021524,0.0226612,0.0467565,0.511838,0.511838,-1.01941,-7.95072e-12,-2.45593e-06,-9.91439e-06,0.916353,0.6683548147663407,-7.950751168550596e-12,-2.4559269842239217e-06,0.6683548147663407,-9.91434085262366e-06,-0.6391922460383253
722,0.6694,1084.96,1153.83,-0.378885,0.0021485,-0.0436129,-0.0528926,0.512437,0.512437,-1.02061,-1.59965e-11,-4.05245e-06,-1.2103e-05,0.917435,0.6693544586638436,-1.5996537428009105e-11,-4.052441788804373e-06,0.6693544586638436,-1.2102926759016697e-05,-0.6396249556653779
723,0.6704,1086.25,1155.12,0.705242,0.00214654,0.0388746,0.0716221,0.513036,0.513036,-1.0218,-6.6771e-12,-2.23803e-06,-9.15828e-06,0.91851,0.6703547015274136,-6.6771033147006165e-12,-2.2380274956601554e-06,0.6703547015274136,-9.158238063133872e-06,-0.6400535469057708
724,0.6714,1085.13,1154.01,-0.627787,0.00214221,-0.0628819,-0.081429,0.513635,0.513635,-1.02301,-1.90231e-11,-4.65022e-06,-1.25722e-05,0.919593,0.6713555437159384,-1.9023116415439745e-11,-4.6502091877176355e-06,0.6713555437159384,-1.2572120970277822e-05,-0.6404888187214595
725,0.6724,1085.52,1154.4,-0.4459,0.00213838,-0.0491703,-0.0603713,0.514233,0.514233,-1.0242,-1.82068e-11,-4.57672e-06,-1.22402e-05,0.92067,0.6723553132323727,-1.8206769425432867e-11,-4.5767095268045566e-06,0.6723553132323727,-1.2240125089046927e-05,-0.6409163825762313
726,0.6734,1086.45,1155.33,0.271365,0.00213576,0.00579377,0.0224249,0.514831,0.514831,-1.02539,-1.15663e-11,-3.44856e-06,-1.03317e-05,0.921744,0.673355680789774,-1.1566303470544881e-11,-3.448554053764319e-06,0.673355680789774,-1.03316466282255e-05,-0.6413434379326324
727,0.6744,1086.11,1154.99,-0.277625,0.0021321,-0.0361025,-0.0404149,0.515428,0.515428,-1.02659,-1.71198e-11,-4.50891e-06,-1.17097e-05,0.922823,0.6743549723900684,-1.7119750062022376e-11,-4.5088998348319365e-06,0.6743549723900684,-1.1709631441703117e-05,-0.6417735676776506
728,0.6754,1087.12,1156.0,0.517066,0.00212985,0.0243445,0.0507639,0.516025,0.516025,-1.02778,-9.87891e-12,-3.20116e-06,-9.52846e-06,0.923895,0.675354860745562,-9.878875495417105e-12,-3.2011548762866937e-06,0.675354860745562,-9.528414604331736e-06,-0.6421996035904703
729,0.6764,1086.39,1155.27,-0.418654,0.00212592,-0.0471399,-0.0565676,0.516622,0.516622,-1.02897,-1.8976e-11,-4.92703e-06,-1.19054e-05,0.924974,0.6763553462126239,-1.8976042959195638e-11,-4.927017862255134e-06,0.6763553462126239,-1.190532913097897e-05,-0.6426251328220889
730,0.6774,1087.77,1156.65,0.747928,0.0021241,0.041647,0.0772166,0.517218,0.517218,-1.03016,-8.34641e-12,-2.95836e-06,-8.73123e-06,0.926044,0.6773547517922456,-8.346434654527002e-12,-2.9583556240275755e-06,0.6773547517922456,-8.731191882938028e-06,-0.6430501559750983
731,0.6784,1086.54,1155.44,-0.680108,0.00211973,-0.067354,-0.086487,0.517814,0.517814,-1.03136,-2.22299e-11,-5.55091e-06,-1.24081e-05,0.927122,0.6783547531951304,-2.2229884599767047e-11,-5.550894593753242e-06,0.6783547531951304,-1.2408023019827574e-05,-0.6434782388868112
732,0.6794,1086.96,1155.86,-0.468875,0.00211592,-0.0513684,-0.0620503,0.51841,0.51841,-1.03255,-2.10345e-11,-5.43356e-06,-1.20082e-05,0.928195,0.6793553507764951,-2.103450746915314e-11,-5.433545238187065e-06,0.6793553507764951,-1.2008127901808052e-05,-0.6439022474474059
733,0.6804,1087.91,1156.8,0.265943,0.00211334,0.00493447,0.0226158,0.519005,0.519005,-1.03373,-1.38243e-11,-4.27177e-06,-1.005e-05,0.929265,0.6803548645360629,-1.3824275058027524e-11,-4.271760876028985e-06,0.6803548645360629,-1.0049949498935895e-05,-0.6443221949776472
734,0.6814,1087.56,1156.46,-0.282713,0.00210973,-0.036932,-0.0400831,0.5196,0.5196,-1.03493,-1.96302e-11,-5.33831e-06,-1.14327e-05,0.930338,0.6813549731832789,-1.963018636530478e-11,-5.338295751222688e-06,0.6813549731832789,-1.1432634646979523e-05,-0.6447487523580588
735,0.6824,1088.57,1157.47,0.51525,0.00210753,0.0237714,0.0513276,0.520195,0.520195,-1.03611,-1.19211e-11,-4.01829e-06,-9.23423e-06,0.931407,0.682355677072207,-1.1921130749215081e-11,-4.018281926643219e-06,0.682355677072207,-9.234187364648427e-06,-0.6451677016016106
736,0.6834,1087.84,1156.74,-0.418406,0.00210364,-0.0475586,-0.0556054,0.520789,0.520789,-1.0373,-2.143e-11,-5.75001e-06,-1.16139e-05,0.93248,0.6833552932009865,-2.142996891052462e-11,-5.749993468695536e-06,0.6833552932009865,-1.1613832558876602e-05,-0.6455897008973243
737,0.6844,1089.21,1158.11,0.741861,0.00210186,0.0407515,0.0772423,0.521383,0.521383,-1.03848,-1.02369e-11,-3.78224e-06,-8.44377e-06,0.933546,0.6843555032781317,-1.0236922420858718e-11,-3.782232847360234e-06,0.6843555032781317,-8.443734351493148e-06,-0.6460076584068377
738,0.6854,1088.0,1156.91,-0.672551,0.00209755,-0.0672167,-0.0846542,0.521976,0.521976,-1.03968,-2.4652e-11,-6.36469e-06,-1.20973e-05,0.93462,0.6853546223010876,-2.465194715028929e-11,-6.364669745351215e-06,0.6853546223010876,-1.2097226827934016e-05,-0.6464321944441829
739,0.6864,1088.42,1157.33,-0.459591,0.00209382,-0.051093,-0.0600593,0.522569,0.522569,-1.04086,-2.33217e-11,-6.24045e-06,-1.16856e-05,0.935688,0.6863543339773284,-2.3321677922183426e-11,-6.240430528436924e-06,0.6863543339773284,-1.1685531723593101e-05,-0.6468491583976244
740,0.6874,1089.35,1158.25,0.25855,0.00209127,0.00393958,0.0225627,0.523162,0.523162,-1.04204,-1.59067e-11,-5.10101e-06,-9.76169e-06,0.936754,0.687354638658402,-1.590672038531693e-11,-5.100996989915174e-06,0.687354638658402,-9.761642354888522e-06,-0.6472656306237772
741,0.6884,1089.02,1157.93,-0.272133,0.00208772,-0.0365596,-0.037991,0.523755,0.523755,-1.04323,-2.17515e-11,-6.1411e-06,-1.11004e-05,0.937823,0.6883555366960641,-2.1751489498456067e-11,-6.1410811434958745e-06,0.6883555366960641,-1.110033839080149e-05,-0.6476851348688042
742,0.6894,1090.0,1158.9,0.498974,0.00208554,0.0220966,0.0501977,0.524347,0.524347,-1.04441,-1.38905e-11,-4.86178e-06,-8.96415e-06,0.938887,0.6893553390860963,-1.3890555372597646e-11,-4.86176818159656e-06,0.6893553390860963,-8.964109822096056e-06,-0.6481006212244989
743,0.6904,1089.3,1158.22,-0.398936,0.00208173,-0.0465109,-0.052488,0.524939,0.524939,-1.0456,-5.80825e-10,-6.53933e-06,-1.12567e-05,0.939956,0.6903557335343751,-5.808250547190141e-10,-6.539308618602746e-06,0.6903557335343751,-1.1256636643586226e-05,-0.6485191324216915
744,0.6914,1090.62,1159.53,0.71283,0.00207994,0.0381003,0.0745957,0.52553,0.52553,-1.04677,-1.2124e-11,-4.64756e-06,-8.20328e-06,0.941017,0.6913550290356283,-1.2123968495814097e-11,-4.6475492001540886e-06,0.6913550290356283,-8.203246353200022e-06,-0.6489301245594736
745,0.6924,1089.47,1158.39,-0.637094,0.00207572,-0.0649562,-0.0796871,0.526121,0.526121,-1.04796,-2.64907e-11,-7.1292e-06,-1.1698e-05,0.942087,0.6923549152950743,-2.6490698523673473e-11,-7.129174587339193e-06,0.6923549152950743,-1.1697931578624754e-05,-0.6493476492347946
746,0.6934,1089.88,1158.8,-0.435773,0.00207208,-0.049728,-0.056485,0.526712,0.526712,-1.04914,-2.51631e-11,-7.01668e-06,-1.13026e-05,0.94315,0.6933553926619551,-2.516309383082671e-11,-7.016655383162984e-06,0.6933553926619551,-1.1302536125912255e-05,-0.6497611749805248
747,0.6944,1090.77,1159.69,0.25073,0.00206957,0.00289228,0.0223926,0.527302,0.527302,-1.05032,-1.77453e-11,-5.92466e-06,-9.45043e-06,0.944212,0.6943547671301036,-1.774524971409619e-11,-5.924642449195439e-06,0.6943547671301036,-9.450385344833556e-06,-0.6501742130536584
748,0.6954,1090.46,1159.39,-0.255046,0.00206609,-0.0357131,-0.035235,0.527892,0.527892,-1.0515,-2.35138e-11,-6.92506e-06,-1.07256e-05,0.945276,0.6953547314031636,-2.3513746505443578e-11,-6.925036021843134e-06,0.6953547314031636,-1.0725542480938266e-05,-0.6505867640293099
749,0.6964,1091.4,1160.32,0.47706,0.0020639,0.0199661,0.0483507,0.528482,0.528482,-1.05267,-1.5677e-11,-5.70851e-06,-8.68448e-06,0.946336,0.6963552858292228,-1.5677015241521985e-11,-5.7084937065132735e-06,0.6963552858292228,-8.684442289963457e-06,-0.6509953384527497
750,0.6974,1090.75,1159.68,-0.37202,0.00206018,-0.0449193,-0.0486056,0.529071,0.529071,-1.05386,-2.50555e-11,-7.30785e-06,-1.08544e-05,0.947401,0.6973547334009917,-2.5055513219740533e-11,-7.307823297719729e-06,0.6973547334009917,-1.0854341091159903e-05,-0.6514104069852326
751,0.6984,1092.0,1160.93,0.675219,0.00205836,0.0347672,0.0708986,0.52966,0.52966,-1.05503,-1.3871e-11,-5.52173e-06,-7.96172e-06,0.948458,0.6983547698207797,-1.3871015447364243e-11,-5.521714755318818e-06,0.6983547698207797,-7.961688305635484e-06,-0.6518180183099366
752,0.6994,1090.94,1159.87,-0.591456,0.00205425,-0.0619437,-0.07365,0.530249,0.530249,-1.05621,-2.78874e-11,-7.86785e-06,-1.12463e-05,0.949523,0.6993553954355194,-2.788735908865192e-11,-7.867819048601454e-06,0.6993553954355194,-1.1246236760631412e-05,-0.6522286307393528
753,0.7004,1091.32,1160.26,-0.407065,0.0020507,-0.0480208,-0.0524495,0.530837,0.530837,-1.05739,-2.66291e-11,-7.77501e-06,-1.08792e-05,0.950582,0.7003549102365889,-2.662914333484423e-11,-7.774979774666235e-06,0.7003549102365889,-1.0879140821762334e-05,-0.6526387589318583
754,0.7014,1092.18,1161.11,0.243171,0.00204821,0.0018326,0.0221667,0.531425,0.531425,-1.05856,-1.93077e-11,-6.73876e-06,-9.11117e-06,0.951639,0.7013550129251835,-1.9307666576651172e-11,-6.738737294620378e-06,0.7013550129251835,-9.111128493444198e-06,-0.6530449339252025
755,0.7024,1091.9,1160.83,-0.236249,0.0020448,-0.0347682,-0.0323791,0.532013,0.532013,-1.05974,-2.49451e-11,-7.69627e-06,-1.03183e-05,0.952699,0.7023557038470827,-2.494504602879033e-11,-7.696240383769926e-06,0.7023557038470827,-1.031824676656079e-05,-0.6534540994480353
756,0.7034,1092.79,1161.72,0.454025,0.00204262,0.017716,0.0462935,0.5326,0.5326,-1.0609,-1.72205e-11,-6.54838e-06,-8.38096e-06,0.953755,0.7033552799921376,-1.7220447290355878e-11,-6.548358559399503e-06,0.7033552799921376,-8.380924879869411e-06,-0.6538558596267213
757,0.7044,1092.19,1161.13,-0.343668,0.00203898,-0.0432497,-0.044657,0.533187,0.533187,-1.06208,-2.63379e-11,-8.06404e-06,-1.04206e-05,0.954815,0.7043554430606347,-2.633793183548505e-11,-8.06400748576408e-06,0.7043554430606347,-1.0420545705769335e-05,-0.654264068821571
758,0.7054,1093.37,1162.31,0.636288,0.00203713,0.0312998,0.0669754,0.533773,0.533773,-1.06325,-1.53996e-11,-6.38988e-06,-7.69766e-06,0.955868,0.705354488041859,-1.539957050766816e-11,-6.3898595847877715e-06,0.705354488041859,-7.697630373115771e-06,-0.6546683433143539
759,0.7064,1092.39,1161.33,-0.544511,0.00203313,-0.0588615,-0.067566,0.53436,0.53436,-1.06443,-2.89301e-11,-8.59425e-06,-1.07637e-05,0.956928,0.7063558249899811,-2.8930080553379867e-11,-8.594213069534895e-06,0.7063558249899811,-1.076364207164282e-05,-0.6550755943438809
760,0.7074,1092.76,1161.7,-0.378192,0.00202966,-0.0463329,-0.048493,0.534945,0.534945,-1.0656,-2.77671e-11,-8.52341e-06,-1.04283e-05,0.957983,0.7073543351833558,-2.7767121935085015e-11,-8.523373675850543e-06,0.7073543351833558,-1.0428245625471178e-05,-0.6554789199070347
761,0.7084,1093.57,1162.52,0.236122,0.0020272,0.000778211,0.021912,0.535531,0.535531,-1.06676,-2.0583e-11,-7.54307e-06,-8.74447e-06,0.959036,0.7083551380303679,-2.058297976503809e-11,-7.543041551150154e-06,0.7083551380303679,-8.744431767238048e-06,-0.6558783326557607
762,0.7094,1093.31,1162.26,-0.217985,0.00202385,-0.0338959,-0.0296781,0.536116,0.536116,-1.06794,-2.60678e-11,-8.45915e-06,-9.88612e-06,0.960091,0.7093548181640452,-2.606781457359375e-11,-8.459114221537334e-06,0.7093548181640452,-9.886071132503282e-06,-0.6562841567399281
763,0.7104,1094.16,1163.11,0.431912,0.00202167,0.0155032,0.0442614,0.536701,0.536701,-1.0691,-1.84931e-11,-7.37822e-06,-8.04974e-06,0.961143,0.7103550832816918,-1.8493095943483695e-11,-7.378192780960191e-06,0.7103550832816918,-8.049707600932265e-06,-0.656682635955482
764,0.7114,1093.61,1162.57,-0.316588,0.00201811,-0.0417076,-0.0409488,0.537286,0.537286,-1.07027,-2.73138e-11,-8.81326e-06,-9.96422e-06,0.962198,0.7113559337256234,-2.7313817874130564e-11,-8.813221163306295e-06,0.7113559337256234,-9.964170357368296e-06,-0.657084082379461
765,0.7124,1094.73,1163.68,0.599256,0.00201622,0.0279452,0.0631965,0.53787,0.53787,-1.07144,-1.66704e-11,-7.24674e-06,-7.40412e-06,0.963248,0.7123556574818424,-1.6670442803956576e-11,-7.246713742414812e-06,0.7123556574818424,-7.4040925895912935e-06,-0.6574850593857869
766,0.7134,1093.82,1162.78,-0.500147,0.00201233,-0.0560045,-0.0618744,0.538453,0.538453,-1.07261,-2.96701e-11,-9.31588e-06,-1.02621e-05,0.964303,0.7133542518921407,-2.9670155221594996e-11,-9.315836607348693e-06,0.7133542518921407,-1.026204734477787e-05,-0.6578855675233573
767,0.7144,1094.17,1163.13,-0.351156,0.00200895,-0.044813,-0.0448363,0.539037,0.539037,-1.07378,-2.86077e-11,-9.26671e-06,-9.95798e-06,0.965354,0.7143551430070048,-2.860767178702872e-11,-9.266667064133927e-06,0.7143551430070048,-9.957930419468575e-06,-0.6582856073404273
768,0.7154,1094.95,1163.91,0.229624,0.00200651,-0.000263711,0.0216401,0.53962,0.53962,-1.07494,-2.15716e-11,-8.33897e-06,-8.35322e-06,0.966402,0.7153549034572317,-2.157163336846679e-11,-8.338935230889355e-06,0.7153549034572317,-8.353185111942274e-06,-0.65868176621934
769,0.7164,1094.71,1163.68,-0.201128,0.00200322,-0.0331585,-0.0272236,0.540203,0.540203,-1.0761,-2.68996e-11,-9.21684e-06,-9.43448e-06,0.967454,0.7163552469377381,-2.6899593663642918e-11,-9.21679752508009e-06,0.7163552469377381,-9.434435495392357e-06,-0.659077465820386
770,0.7174,1095.52,1164.49,0.411471,0.00200104,0.0133895,0.0423472,0.540785,0.540785,-1.07727,-1.94862e-11,-8.19818e-06,-7.69189e-06,0.968501,0.7173544564332142,-1.9486190439010898e-11,-8.198146394966521e-06,0.7173544564332142,-7.69186041749137e-06,-0.6594761119319252
771,0.7184,1095.02,1163.98,-0.291763,0.00199755,-0.0403637,-0.0375842,0.541367,0.541367,-1.07843,-2.80046e-11,-9.55886e-06,-9.49105e-06,0.969552,0.7183542476378779,-2.8004598640052336e-11,-9.558814314192254e-06,0.7183542476378779,-9.491004960171523e-06,-0.6598708906261737
772,0.7194,1096.07,1165.03,0.565252,0.00199564,0.0247945,0.0596973,0.541949,0.541949,-1.07959,-1.76678e-11,-8.09173e-06,-7.08107e-06,0.970597,0.719354620890382,-1.7667756146977354e-11,-8.091697262013753e-06,0.719354620890382,-7.081044929302394e-06,-0.6602652116426413
773,0.7204,1095.24,1164.21,-0.459695,0.00199185,-0.0534698,-0.056717,0.542531,0.542531,-1.08076,-3.01369e-11,-1.00367e-05,-9.74837e-06,0.971648,0.7203555765295773,-3.013689298114741e-11,-1.0036649632505501e-05,0.7203555765295773,-9.748322484792737e-06,-0.6606624689042042
774,0.7214,1096.67,1165.64,0.772839,0.00199037,0.0403195,0.0831726,0.543112,0.543112,-1.08191,-1.53383e-11,-7.88578e-06,-6.32152e-06,0.972691,0.7213553935382571,-1.533828619670885e-11,-7.885748907310308e-06,0.7213553935382571,-6.321500019224047e-06,-0.6610524827640122
775,0.7224,1095.38,1164.36,-0.704472,0.00198616,-0.0723879,-0.084479,0.543693,0.543693,-1.08308,-3.3447e-11,-1.06552e-05,-1.0213e-05,0.973742,0.7223557916094012,-3.3447022929067316e-11,-1.0655143233506692e-05,0.7223557916094012,-1.0212947847532128e-05,-0.6614488194570007
776,0.7234,1095.83,1164.81,-0.450267,0.00198272,-0.0530564,-0.0553559,0.544273,0.544273,-1.08424,-3.10472e-11,-1.04508e-05,-9.67594e-06,0.974787,0.7233550477247956,-3.104716483903758e-11,-1.0450745390633287e-05,0.7233550477247956,-9.675893188232365e-06,-0.6618413111372448
777,0.7244,1096.7,1165.68,0.224202,0.00198035,-0.00137836,0.0215755,0.544853,0.544853,-1.0854,-2.24848e-11,-9.36104e-06,-7.83159e-06,0.97583,0.7243548835768443,-2.2484791806220983e-11,-9.360996185647785e-06,0.7243548835768443,-7.831559333149052e-06,-0.6622333477911059
778,0.7254,1096.44,1165.41,-0.238365,0.00197706,-0.0366585,-0.0307454,0.545433,0.545433,-1.08656,-2.84515e-11,-1.03071e-05,-9.00983e-06,0.976876,0.7253552995018921,-2.8451463407463962e-11,-1.0307046881985471e-05,0.7253552995018921,-9.009789411651425e-06,-0.6626249299461089
779,0.7264,1097.31,1166.28,0.436661,0.00197499,0.0146496,0.0457604,0.546012,0.546012,-1.08771,-1.99068e-11,-9.17024e-06,-7.09301e-06,0.977917,0.7263545694810465,-1.990685394304137e-11,-9.170197953434212e-06,0.7263545694810465,-7.0929848446921184e-06,-0.6630126882728988
780,0.7274,1096.73,1165.72,-0.32816,0.00197149,-0.0437753,-0.0409688,0.546591,0.546591,-1.08887,-2.95315e-11,-1.06528e-05,-9.06762e-06,0.978963,0.7273544182050491,-2.9531488365819314e-11,-1.0652743259176312e-05,0.7273544182050491,-9.0675788892991e-06,-0.6634033669170805
781,0.7284,1097.86,1166.84,0.601754,0.00196972,0.0269266,0.0643603,0.54717,0.54717,-1.09003,-1.78155e-11,-9.0441e-06,-6.45004e-06,0.980003,0.7283548460090903,-1.7815526831554962e-11,-9.044059102292223e-06,0.7283548460090903,-6.450019198522838e-06,-0.663793592636782
782,0.7294,1096.94,1165.93,-0.504032,0.0019659,-0.0574704,-0.0609506,0.547749,0.547749,-1.09119,-3.17971e-11,-1.11494e-05,-9.34817e-06,0.981049,0.7293558532285547,-3.179712049217187e-11,-1.1149337845628438e-05,0.7293558532285547,-9.348126306041316e-06,-0.6641833659570909
783,0.7304,1097.3,1166.28,-0.344049,0.00196264,-0.0454209,-0.0427152,0.548327,0.548327,-1.09234,-3.04114e-11,-1.10778e-05,-9.00814e-06,0.982089,0.7303557098424458,-3.041145113513721e-11,-1.1077738641396273e-05,0.7303557098424458,-9.008099426832672e-06,-0.664569333112589
784,0.7314,1098.05,1167.04,0.216834,0.00196028,-0.00240834,0.0212385,0.548904,0.548904,-1.09349,-2.3061e-11,-1.01761e-05,-7.44398e-06,0.983128,0.7313544131852312,-2.306099755600144e-11,-1.0176048223620171e-05,0.7313544131852312,-7.4439522936842195e-06,-0.6649548566609813
785,0.7324,1097.84,1166.83,-0.18775,0.00195711,-0.0332919,-0.0244788,0.549482,0.549482,-1.09465,-2.83519e-11,-1.10167e-05,-8.46252e-06,0.98417,0.7323554253006852,-2.8351876402155085e-11,-1.1016639316352439e-05,0.7323554253006852,-8.46248419295037e-06,-0.6653432836960187
786,0.7334,1098.61,1167.6,0.387632,0.00195498,0.0104019,0.0405983,0.550059,0.550059,-1.0958,-2.07965e-11,-1.00556e-05,-6.8078e-06,0.985208,0.7333552828122356,-2.0796475652673507e-11,-1.0055549442666845e-05,0.7333552828122356,-6.807776826933676e-06,-0.6657279177128188
787,0.7344,1098.14,1167.14,-0.26552,0.00195163,-0.0395081,-0.0333593,0.550636,0.550636,-1.09696,-2.92028e-11,-1.13407e-05,-8.48521e-06,0.986249,0.7343557174080431,-2.9202751328227805e-11,-1.1340635694523371e-05,0.7343557174080431,-8.485174000760765e-06,-0.6661154485169503
788,0.7354,1099.13,1168.12,0.52421,0.00194975,0.0204934,0.0559148,0.551212,0.551212,-1.09811,-1.88824e-11,-9.98152e-06,-6.24016e-06,0.987285,0.7353549940653195,-1.8882451158219737e-11,-9.981470184827756e-06,0.7353549940653195,-6.2401405301892865e-06,-0.6664991950546046
789,0.7364,1098.38,1167.38,-0.41193,0.00194612,-0.0509668,-0.050007,0.551788,0.551788,-1.09926,-3.10073e-11,-1.17864e-05,-8.68706e-06,0.988326,0.73635484647175,-3.1007307832453535e-11,-1.1786330540664025e-05,0.73635484647175,-8.6870222676394e-06,-0.6668825005373957
790,0.7374,1099.69,1168.68,0.704076,0.0019446,0.0338948,0.0761334,0.552364,0.552364,-1.10041,-1.65039e-11,-9.82644e-06,-5.5518e-06,0.989359,0.7373552749590624,-1.6503909350262802e-11,-9.826391720646477e-06,0.7373552749590624,-5.551784588830877e-06,-0.6672653654722454
791,0.7384,1098.55,1167.55,-0.622168,0.00194061,-0.0672523,-0.0737967,0.552939,0.552939,-1.10156,-3.38252e-11,-1.23503e-05,-9.06275e-06,0.9904,0.7383545415037636,-3.3825164891254644e-11,-1.235022373535788e-05,0.7383545415037636,-9.062708933416097e-06,-0.6676477903654923
792,0.7394,1098.96,1167.97,-0.398402,0.00193734,-0.0502678,-0.0482797,0.553514,0.553514,-1.10271,-3.15419e-11,-1.21814e-05,-8.57709e-06,0.991436,0.7393543827919506,-3.154188021881055e-11,-1.2181325807048005e-05,0.7393543827919506,-8.577053216884956e-06,-0.6680297757228935
793,0.7404,1099.76,1168.77,0.210164,0.00193504,-0.00363668,0.0209031,0.554089,0.554089,-1.10386,-2.32557e-11,-1.11948e-05,-6.88836e-06,0.992469,0.740354799154197,-2.325573067452069e-11,-1.1194737338460214e-05,0.740354799154197,-6.888336275268081e-06,-0.6684113220496246
794,0.7414,1099.54,1168.54,-0.204998,0.00193189,-0.0352957,-0.0258809,0.554664,0.554664,-1.10501,-2.88693e-11,-1.20629e-05,-7.94395e-06,0.993505,0.7413557909212642,-2.886935135393287e-11,-1.2062827243530805e-05,0.7413557909212642,-7.943918446939868e-06,-0.668792429850281
795,0.7424,1100.33,1169.33,0.395459,0.00192983,0.0103015,0.0418844,0.555238,0.555238,-1.10615,-2.06727e-11,-1.10512e-05,-6.21573e-06,0.994538,0.7423556160676184,-2.0672685785427802e-11,-1.1051138935735949e-05,0.7423556160676184,-6.215710682377917e-06,-0.6691697913433323
796,0.7434,1099.84,1168.85,-0.278921,0.0019265,-0.0412014,-0.0342978,0.555811,0.555811,-1.1073,-2.96335e-11,-1.23843e-05,-7.95911e-06,0.995574,0.7433542719232038,-2.9633517861782366e-11,-1.2384223314843013e-05,0.7433542719232038,-7.959078326402746e-06,-0.6695500274056465
797,0.7444,1100.85,1169.85,0.534047,0.00192469,0.0205512,0.0573935,0.556385,0.556385,-1.10844,-1.85962e-11,-1.09746e-05,-5.64201e-06,0.996604,0.7443552445269419,-1.8596235662471372e-11,-1.0974539779273762e-05,0.7443552445269419,-5.64199408392696e-06,-0.6699265257295847
798,0.7454,1100.07,1169.09,-0.424444,0.00192109,-0.05258,-0.0508067,0.556958,0.556958,-1.1096,-3.14192e-11,-1.28324e-05,-8.16084e-06,0.99764,0.7453550464979652,-3.141920057458947e-11,-1.2832317665134596e-05,0.7453550464979652,-8.160806700407974e-06,-0.6703091889721483
799,0.7464,1101.4,1170.41,0.712915,0.00191965,0.0338781,0.0774504,0.557531,0.557531,-1.11073,-1.60705e-11,-1.08217e-05,-4.95483e-06,0.998668,0.7463554215196813,-1.607047828144914e-11,-1.082164144561304e-05,0.7463554215196813,-4.95481772488926e-06,-0.670681529176774
800,0.7474,1100.24,1169.26,-0.632118,0.00191568,-0.0686562,-0.0742527,0.558103,0.558103,-1.11189,-3.42223e-11,-1.33963e-05,-8.53235e-06,0.999704,0.747354622565046,-3.422229166716306e-11,-1.3396210269966957e-05,0.747354622565046,-8.532313599651786e-06,-0.6710633171231091
801,0.7484,1100.67,1169.68,-0.397845,0.00191248,-0.0508591,-0.0475912,0.558675,0.558675,-1.11303,-3.16649e-11,-1.32071e-05,-8.01604e-06,1.00073,0.7483543953169012,-3.1664892929939015e-11,-1.3207012786620176e-05,0.7483543953169012,-8.016007871591846e-06,-0.6714380912797313
802,0.7494,1101.46,1170.47,0.202872,0.00191022,-0.00484368,0.020543,0.559247,0.559247,-1.11417,-2.31751e-11,-1.22295e-05,-6.34229e-06,1.00176,0.7493547401023564,-2.3175128482932905e-11,-1.2229425219945078e-05,0.7493547401023564,-6.342269887715801e-06,-0.6718124384372509
803,0.7504,1101.24,1170.26,-0.198831,0.00190713,-0.0354618,-0.024617,0.559819,0.559819,-1.11531,-2.87543e-11,-1.30784e-05,-7.3659e-06,1.00279,0.7503556572487082,-2.8754332248581704e-11,-1.307831447805441e-05,0.7503556572487082,-7.365872871867296e-06,-0.6721863590821692
804,0.7514,1102.01,1171.03,0.383459,0.0019051,0.00873552,0.040941,0.56039,0.56039,-1.11645,-2.04876e-11,-1.20948e-05,-5.68087e-06,1.00382,0.7513553957271699,-2.048761160722279e-11,-1.2094726858147276e-05,0.7513553957271699,-5.6808538638764006e-06,-0.6725598537004336
805,0.7524,1101.55,1170.57,-0.266096,0.00190184,-0.0408538,-0.0322708,0.560961,0.560961,-1.11759,-2.93727e-11,-1.33904e-05,-7.36402e-06,1.00485,0.7523557052193117,-2.9372726473297917e-11,-1.3390310348970758e-05,0.7523557052193117,-7.363992885700554e-06,-0.6729329227774379
806,0.7534,1102.51,1171.54,0.513696,0.00190005,0.0183478,0.0554654,0.561531,0.561531,-1.11873,-1.83675e-11,-1.20344e-05,-5.129e-06,1.00588,0.7533548326955659,-1.836752971939859e-11,-1.2034327586896154e-05,0.7533548326955659,-5.128986846680839e-06,-0.6733055667980226
807,0.7544,1101.78,1170.81,-0.401125,0.00189653,-0.0514264,-0.0475703,0.562101,0.562101,-1.11988,-3.09787e-11,-1.38228e-05,-7.53904e-06,1.00691,0.7543545298368208,-3.0978664078418205e-11,-1.3822704465593638e-05,0.7543545298368208,-7.539011581458865e-06,-0.6736810494522972
808,0.7554,1103.05,1172.08,0.679243,0.00189507,0.0306544,0.0739635,0.562671,0.562671,-1.12101,-1.58303e-11,-1.19066e-05,-4.47705e-06,1.00793,0.755354796967878,-1.583033704122272e-11,-1.1906529116756381e-05,0.755354796967878,-4.477039978079134e-06,-0.6740495816065342
809,0.7564,1101.96,1171.0,-0.592346,0.00189122,-0.0662452,-0.0691283,0.563241,0.563241,-1.12215,-3.35213e-11,-1.43605e-05,-7.86833e-06,1.00896,0.7563556344137241,-3.352129684941474e-11,-1.4360396888513094e-05,0.7563556344137241,-7.868299044755389e-06,-0.6744209533613829
810,0.7574,1102.37,1171.4,-0.373054,0.00188811,-0.0496047,-0.0442385,0.56381,0.56381,-1.12329,-3.1027e-11,-1.41893e-05,-7.37821e-06,1.00998,0.7573552851433676,-3.10269587799894e-11,-1.4189199332381719e-05,0.7573552851433676,-7.378182781070386e-06,-0.6747919019936568
811,0.7584,1103.13,1172.16,0.196187,0.00188588,-0.00600616,0.0201959,0.564379,0.564379,-1.12442,-2.26934e-11,-1.32616e-05,-5.77978e-06,1.01101,0.7583555048361306,-2.269340271254805e-11,-1.3261512065376735e-05,0.7583555048361306,-5.779763297075746e-06,-0.6751591795934786
812,0.7594,1102.93,1171.96,-0.183278,0.00188286,-0.0349213,-0.0223694,0.564947,0.564947,-1.12556,-2.8079e-11,-1.40737e-05,-6.74562e-06,1.01203,0.7593545344604316,-2.807898358270222e-11,-1.4073600965947008e-05,0.7593545344604316,-6.745597248336566e-06,-0.675529287127365
813,0.7604,1103.66,1172.7,0.364117,0.00188085,0.00659905,0.0391053,0.565516,0.565516,-1.1267,-2.00091e-11,-1.31494e-05,-5.14998e-06,1.01305,0.7603558920497571,-2.0009105483609346e-11,-1.3149313547011765e-05,0.7603558920497571,-5.149966738837719e-06,-0.6758989729790674
814,0.7614,1103.24,1172.28,-0.243529,0.00187767,-0.0397762,-0.029228,0.566083,0.566083,-1.12783,-2.85361e-11,-1.4375e-05,-6.72525e-06,1.01408,0.7613542968615654,-2.85360624019404e-11,-1.4374896680213745e-05,0.7613542968615654,-6.725227385540045e-06,-0.6762650002952192
815,0.7624,1104.15,1173.19,0.482524,0.00187587,0.0153078,0.0522567,0.566651,0.566651,-1.12896,-1.79013e-11,-1.31119e-05,-4.62997e-06,1.0151,0.7623550302835695,-1.7901347071358487e-11,-1.3111814039401537e-05,0.7623550302835695,-4.629959281743368e-06,-0.6766306142341056
816,0.7634,1103.48,1172.53,-0.365222,0.00187246,-0.049328,-0.043006,0.567218,0.567218,-1.1301,-2.99059e-11,-1.47862e-05,-6.86586e-06,1.01612,0.7633545689281678,-2.9905855569722917e-11,-1.478609068472636e-05,0.7633545689281678,-6.8658364300588914e-06,-0.6769990452882768
817,0.7644,1104.67,1173.71,0.631124,0.00187096,0.0263175,0.0687942,0.567785,0.567785,-1.13123,-1.54142e-11,-1.30162e-05,-4.02405e-06,1.01714,0.7643546744718781,-1.541422545159321e-11,-1.3016115289588015e-05,0.7643546744718781,-4.024041903472053e-06,-0.6773638302247957
818,0.7654,1103.68,1172.73,-0.536108,0.00186724,-0.0625961,-0.0622515,0.568352,0.568352,-1.13237,-3.2106e-11,-1.52901e-05,-7.14229e-06,1.01817,0.7653553472362233,-3.210598453762259e-11,-1.5289983107069638e-05,0.7653553472362233,-7.142264493942285e-06,-0.6777314258890004
819,0.7664,1104.06,1173.11,-0.340861,0.00186422,-0.047812,-0.0401586,0.568918,0.568918,-1.1335,-2.98141e-11,-1.51513e-05,-6.69988e-06,1.01919,0.7663548211872051,-2.981415114788888e-11,-1.5151185219663965e-05,0.7663548211872051,-6.699857555858557e-06,-0.6780953837028527
820,0.7674,1104.77,1173.82,0.190281,0.00186202,-0.00713518,0.0198475,0.569484,0.569484,-1.13463,-2.17734e-11,-1.42858e-05,-5.19455e-06,1.0202,0.7673548610005667,-2.1773360892041183e-11,-1.4285697958471566e-05,0.7673548610005667,-5.1945365083794215e-06,-0.678458930476657
821,0.7684,1104.6,1173.65,-0.16551,0.00185907,-0.0342395,-0.0199746,0.57005,0.57005,-1.13576,-2.69138e-11,-1.50575e-05,-6.09792e-06,1.02122,0.7683554669966774,-2.691380451835812e-11,-1.5057386636430081e-05,0.7683554669966774,-6.097901407708939e-06,-0.6788220666746259
822,0.7694,1105.29,1174.34,0.343534,0.00185706,0.00434064,0.0370456,0.570615,0.570615,-1.13689,-1.91365e-11,-1.42e-05,-4.60221e-06,1.02224,0.7693548701403325,-1.9136470186253973e-11,-1.4199899180500353e-05,0.7693548701403325,-4.6021994098977e-06,-0.6791847927604479
823,0.7704,1104.91,1173.96,-0.219299,0.00185397,-0.0385998,-0.0261031,0.57118,0.57118,-1.13802,-2.72138e-11,-1.53491e-05,-6.06077e-06,1.02326,0.770354838106311,-2.7213786779611837e-11,-1.5348982203122752e-05,0.770354838106311,-6.060751633563122e-06,-0.6795471091972882
824,0.7714,1105.76,1174.81,0.449886,0.00185215,0.0121298,0.0488061,0.571745,0.571745,-1.13915,-1.70619e-11,-1.4186e-05,-4.11546e-06,1.02428,0.7713553712138275,-1.7061907442439406e-11,-1.4185899379182132e-05,0.7713553712138275,-4.115451531561121e-06,-0.6799090164477889
825,0.7724,1105.17,1174.22,-0.327857,0.00184885,-0.0471455,-0.0383865,0.572309,0.572309,-1.14028,-2.83417e-11,-1.57392e-05,-6.16773e-06,1.0253,0.7723546974266939,-2.8341662350328534e-11,-1.5739076139387187e-05,0.7723546974266939,-6.167710979609886e-06,-0.6802705149740691
826,0.7734,1106.26,1175.31,0.581828,0.0018473,0.0218668,0.0634267,0.572873,0.572873,-1.1414,-1.46464e-11,-1.41227e-05,-3.5557e-06,1.02631,0.7733545874185153,-1.4646395207762453e-11,-1.4122600275112696e-05,0.7733545874185153,-3.5556936784919557e-06,-0.6806284115378103
827,0.7744,1105.38,1174.44,-0.478962,0.00184372,-0.0589041,-0.0553887,0.573437,0.573437,-1.14253,-3.01957e-11,-1.62102e-05,-6.39287e-06,1.02733,0.7743550415073523,-3.0195734801452545e-11,-1.6210068615407636e-05,0.7743550415073523,-6.392849565606262e-06,-0.6809890976067636
828,0.7754,1105.73,1174.79,-0.308933,0.00184078,-0.0460665,-0.0362141,0.574,0.574,-1.14366,-2.81419e-11,-1.61067e-05,-6.00225e-06,1.02834,0.7753542846562733,-2.8141933228198468e-11,-1.610657028783269e-05,0.7753542846562733,-6.002231986546036e-06,-0.6813493763306522
829,0.7764,1106.4,1175.46,0.185054,0.00183861,-0.00823951,0.0194866,0.574564,0.574564,-1.14478,-2.04201e-11,-1.53025e-05,-4.58868e-06,1.02936,0.7763558668924602,-2.042011004732558e-11,-1.5302382917359303e-05,0.7763558668924602,-4.5886694720609356e-06,-0.6817060652460833
830,0.7774,1106.25,1175.31,-0.148593,0.00183573,-0.0336492,-0.0177736,0.575126,0.575126,-1.14591,-2.53142e-11,-1.60363e-05,-5.4335e-06,1.03037,0.7773544594678843,-2.5314195184478194e-11,-1.603617141920921e-05,0.7773544594678843,-5.433485238515168e-06,-0.6820655342541153
831,0.7784,1106.9,1175.97,0.324198,0.00183373,0.00215172,0.0350464,0.575689,0.575689,-1.14703,-1.78423e-11,-1.52425e-05,-4.0331e-06,1.03138,0.7783553917645674,-1.7842283206448428e-11,-1.5242383833657946e-05,0.7783553917645674,-4.033091867028382e-06,-0.6824214215216788
832,0.7794,1106.56,1175.63,-0.196696,0.00183072,-0.0375727,-0.0232595,0.576251,0.576251,-1.14816,-2.54679e-11,-1.63197e-05,-5.3821e-06,1.0324,0.7793551083887975,-2.5467850051086316e-11,-1.6319566834455124e-05,0.7793551083887975,-5.3820855164810055e-06,-0.6827800826336665
833,0.7804,1107.36,1176.42,0.41951,0.00182889,0.00910063,0.0455384,0.576813,0.576813,-1.14928,-1.58047e-11,-1.52507e-05,-3.57758e-06,1.03341,0.7803553870116775,-1.580469088935388e-11,-1.5250583708659171e-05,0.7803553870116775,-3.5775736004772796e-06,-0.6831351700550423
834,0.7814,1106.82,1175.89,-0.293405,0.00182568,-0.0452089,-0.0341958,0.577374,0.577374,-1.1504,-2.63688e-11,-1.66909e-05,-5.45917e-06,1.03442,0.7813544465938018,-2.636879603556963e-11,-1.669076070764941e-05,0.7813544465938018,-5.4591550987526105e-06,-0.683489860001134
835,0.7824,1107.83,1176.9,0.536473,0.00182409,0.0176955,0.058442,0.577936,0.577936,-1.15152,-1.34627e-11,-1.52169e-05,-3.06016e-06,1.03543,0.7823558491605516,-1.346267541890711e-11,-1.5216784223559543e-05,0.7823558491605516,-3.0601553177023177e-06,-0.6838441529168645
836,0.7834,1107.05,1176.12,-0.426818,0.00182064,-0.0556154,-0.0491935,0.578496,0.578496,-1.15265,-2.79029e-11,-1.71326e-05,-5.63883e-06,1.03644,0.7833542479616542,-2.7902902210996672e-11,-1.713245323786694e-05,0.7833542479616542,-5.638814101871503e-06,-0.6842012072503765
837,0.7844,1108.35,1177.42,0.692103,0.00181937,0.0292476,0.0756838,0.579057,0.579057,-1.15376,-1.06184e-11,-1.51102e-05,-2.43542e-06,1.03745,0.7843549903767619,-1.0618395052119922e-11,-1.5110085841540943e-05,0.7843549903767619,-2.435417034374332e-06,-0.684551549434445
838,0.7854,1107.23,1176.3,-0.605529,0.00181561,-0.0694281,-0.0691798,0.579617,0.579617,-1.15489,-3.02696e-11,-1.76614e-05,-5.94548e-06,1.03846,0.7853545090104697,-3.026956463259012e-11,-1.7661244038347235e-05,0.7853545090104697,-5.945462325684936e-06,-0.6849078048613593
839,0.7864,1107.65,1176.72,-0.363371,0.00181269,-0.051028,-0.0418834,0.580177,0.580177,-1.15601,-2.7042e-11,-1.74417e-05,-5.38364e-06,1.03947,0.786354587531366,-2.7042035277702325e-11,-1.7441547894403442e-05,0.786354587531366,-5.383625508281753e-06,-0.6852605105678494
840,0.7874,1108.36,1177.44,0.17502,0.00181058,-0.00985297,0.0185955,0.580737,0.580737,-1.15712,-1.83541e-11,-1.65564e-05,-3.85311e-06,1.04048,0.7873552262530754,-1.8354096020800625e-11,-1.6556262943612232e-05,0.7873552262530754,-3.853102576778511e-06,-0.685609677577578
841,0.7884,1108.2,1177.28,-0.16284,0.00180774,-0.0355389,-0.0189922,0.581296,0.581296,-1.15824,-2.34708e-11,-1.73062e-05,-4.71834e-06,1.04149,0.7883546371338674,-2.3470780874390584e-11,-1.7306050248633298e-05,0.7883546371338674,-4.718328868613675e-06,-0.6859615976266762
842,0.7894,1108.87,1177.95,0.32775,0.0018058,0.00159357,0.0356562,0.581855,0.581855,-1.15936,-1.5445e-11,-1.64748e-05,-3.26474e-06,1.04249,0.7893546068415191,-1.5444978629375328e-11,-1.6474664291221686e-05,0.7893546068415191,-3.264734670715974e-06,-0.6863131237459614
843,0.7904,1108.52,1177.6,-0.20536,0.00180283,-0.0390169,-0.023826,0.582414,0.582414,-1.16048,-2.34853e-11,-1.75835e-05,-4.65578e-06,1.0435,0.7903551356885026,-2.3485324796013174e-11,-1.7583345411131823e-05,0.7903551356885026,-4.655769161865386e-06,-0.6866642563763878
844,0.7914,1109.32,1178.4,0.423348,0.00180107,0.00856942,0.0461514,0.582972,0.582972,-1.16159,-1.32755e-11,-1.64843e-05,-2.80993e-06,1.0445,0.7913544326321353,-1.327549181695531e-11,-1.6484164134689117e-05,0.7913544326321353,-2.809926052171896e-06,-0.6870118660927266
845,0.7924,1108.78,1177.86,-0.299318,0.0017979,-0.0464271,-0.0344189,0.58353,0.58353,-1.16271,-2.43086e-11,-1.79536e-05,-4.72871e-06,1.04551,0.7923542873390639,-2.4308555168772727e-11,-1.795343883503886e-05,0.7923542873390639,-4.728698819622679e-06,-0.6873622165698123
846,0.7934,1109.79,1178.87,0.537348,0.00179638,0.01694,0.0586845,0.584088,0.584088,-1.16382,-1.0835e-11,-1.64574e-05,-2.30152e-06,1.04651,0.7933547001206076,-1.083499956422429e-11,-1.6457264577773856e-05,0.7933547001206076,-2.3015173514773224e-06,-0.6877090519801557
847,0.7944,1109.0,1178.09,-0.428243,0.00179297,-0.0564744,-0.0488692,0.584646,0.584646,-1.16494,-2.57518e-11,-1.83911e-05,-4.89965e-06,1.04752,0.7943556712882585,-2.575184510078543e-11,-1.8390930884737422e-05,0.7943556712882585,-4.8996379967691794e-06,-0.6880586220461593
848,0.7954,1110.29,1179.38,0.687011,0.00179176,0.0280357,0.0752058,0.585203,0.585203,-1.16604,-7.91243e-12,-1.63627e-05,-1.69368e-06,1.04852,0.7953554057973795,-7.912448474201028e-12,-1.6362566131800094e-05,0.7953554057973795,-1.6936785657284403e-06,-0.6884015689065548
849,0.7964,1109.18,1178.27,-0.59906,0.00178805,-0.0696676,-0.0679163,0.58576,0.58576,-1.16716,-2.79861e-11,-1.89097e-05,-5.18862e-06,1.04953,0.7963556973137342,-2.7986057915541096e-11,-1.8909521212751024e-05,0.7963556973137342,-5.188606539086038e-06,-0.6887503637877852
850,0.7974,1109.6,1178.69,-0.354521,0.00178522,-0.0510901,-0.0404314,0.586316,0.586316,-1.16828,-2.45621e-11,-1.86809e-05,-4.61395e-06,1.05053,0.7973547487920147,-2.4562130107597113e-11,-1.8680725513031682e-05,0.7973547487920147,-4.61393935580201e-06,-0.6890987682374312
851,0.7984,1110.3,1179.39,0.167703,0.00178316,-0.0111788,0.0180585,0.586872,0.586872,-1.16938,-1.58358e-11,-1.782e-05,-3.1214e-06,1.05153,0.7983543558973671,-1.5835777134043383e-11,-1.7819841224731015e-05,0.7983543558973671,-3.1213951284803088e-06,-0.6894405715660742
852,0.7994,1110.15,1179.25,-0.153745,0.00178038,-0.0355926,-0.0175883,0.587428,0.587428,-1.1705,-2.08094e-11,-1.85436e-05,-3.94545e-06,1.05253,0.799354518938806,-2.080935423975916e-11,-1.8543428068507062e-05,0.799354518938806,-3.945442216712891e-06,-0.6897882034157452
853,0.8004,1110.79,1179.89,0.313583,0.00177848,-0.000257657,0.0342997,0.587984,0.587984,-1.17161,-1.28715e-11,-1.77516e-05,-2.55171e-06,1.05353,0.8003552382255179,-1.2871481658294215e-11,-1.77514424413161e-05,0.8003552382255179,-2.5517067443470154e-06,-0.6901323474746661
854,0.8014,1110.46,1179.56,-0.19038,0.00177558,-0.0386144,-0.0217561,0.588539,0.588539,-1.17272,-2.06615e-11,-1.88124e-05,-3.86874e-06,1.05454,0.8013547127112477,-2.0661472532879088e-11,-1.881222304789265e-05,0.8013547127112477,-3.868732516454365e-06,-0.690476109745613
855,0.8024,1111.23,1180.33,0.401003,0.00177384,0.00609692,0.04385,0.589094,0.589094,-1.17382,-1.0693e-11,-1.7778e-05,-2.1207e-06,1.05553,0.8023547420592769,-1.0693002039374733e-11,-1.7777841972321795e-05,0.8023547420592769,-2.1206977512955305e-06,-0.6908163988315832
856,0.8034,1110.73,1179.83,-0.274806,0.00177077,-0.0452889,-0.031262,0.589649,0.589649,-1.17494,-2.12808e-11,-1.91678e-05,-3.91821e-06,1.05654,0.8033553265776399,-2.1280754936015e-11,-1.9167616298942924e-05,0.8033553265776399,-3.918202323816011e-06,-0.6911624906173136
857,0.8044,1111.68,1180.78,0.503223,0.00176923,0.0135701,0.0550299,0.590203,0.590203,-1.17604,-8.28317e-12,-1.77747e-05,-1.64617e-06,1.05753,0.8043546622189774,-8.283151942123368e-12,-1.7774542031001594e-05,0.8043546622189774,-1.6461686450641722e-06,-0.691502025099433
858,0.8054,1110.96,1180.07,-0.389685,0.00176595,-0.0542579,-0.0441171,0.590757,0.590757,-1.17715,-4.39701e-10,-1.95824e-05,-4.05354e-06,1.05853,0.8053545516456442,-4.397010533452317e-10,-1.958220826603352e-05,0.8053545516456442,-4.053531784453668e-06,-0.6918442678716943
859,0.8064,1112.16,1181.26,0.635753,0.00176469,0.0233563,0.0695867,0.591311,0.591311,-1.17825,-5.44046e-12,-1.77136e-05,-1.08699e-06,1.05953,0.806354995164523,-5.4404258875706546e-12,-1.7713443115074945e-05,0.806354995164523,-1.0869894092602195e-06,-0.6921830528111579
860,0.8074,1111.16,1180.26,-0.540213,0.00176113,-0.0659012,-0.0608715,0.591864,0.591864,-1.17937,-2.43012e-11,-2.00666e-05,-4.29003e-06,1.06053,0.8073541857275761,-2.43012276968102e-11,-2.0066398667140106e-05,0.8073541857275761,-4.290020797825811e-06,-0.6925276148012767
861,0.8084,1111.55,1180.66,-0.321855,0.00175839,-0.0493458,-0.0364161,0.592418,0.592418,-1.18047,-2.11293e-11,-1.98745e-05,-3.76965e-06,1.06152,0.8083557373506529,-2.112932051545613e-11,-1.987430250338651e-05,0.8083557373506529,-3.769642894835279e-06,-0.6928656484723911
862,0.8094,1112.21,1181.31,0.162391,0.00175636,-0.0123561,0.0176751,0.59297,0.59297,-1.18157,-1.27503e-11,-1.9077e-05,-2.37207e-06,1.06252,0.8093542252749839,-1.2750245304005148e-11,-1.907681803514638e-05,0.8093542252749839,-2.3720671866733767e-06,-0.6932033105109027
863,0.8104,1112.08,1181.19,-0.136902,0.00175367,-0.0350697,-0.0154143,0.593523,0.593523,-1.18268,-1.74515e-11,-1.9762e-05,-3.13707e-06,1.06352,0.8103550748709687,-1.7451484701780373e-11,-1.976180473295397e-05,0.8103550748709687,-3.137065079372725e-06,-0.6935436659040464
864,0.8114,1112.68,1181.79,0.294263,0.00175178,-0.00251218,0.0322951,0.594075,0.594075,-1.18378,-9.84921e-12,-1.90345e-05,-1.83987e-06,1.06451,0.8113546667342701,-9.849232540659614e-12,-1.9034318845090326e-05,0.8113546667342701,-1.8398683074849487e-06,-0.6938805825334333
865,0.8124,1112.39,1181.5,-0.168425,0.00174897,-0.0376977,-0.0190092,0.594627,0.594627,-1.18489,-1.71483e-11,-2.00232e-05,-3.04802e-06,1.0655,0.8123548105245979,-1.7148282793755243e-11,-2.002299953707265e-05,0.8123548105245979,-3.0480153547784994e-06,-0.6942201865717111
866,0.8134,1113.1,1182.22,0.371386,0.00174722,0.0030608,0.0406712,0.595179,0.595179,-1.18599,-7.70877e-12,-1.9082e-05,-1.43911e-06,1.0665,0.8133555065466997,-7.708722549182312e-12,-1.9081817939747836e-05,0.8133555065466997,-1.4391089644405497e-06,-0.6945563594375087
867,0.8144,1112.66,1181.78,-0.242097,0.00174426,-0.0435446,-0.0272989,0.59573,0.59573,-1.18709,-1.75352e-11,-2.03613e-05,-3.07073e-06,1.06749,0.8143549407496442,-1.753519551783711e-11,-2.0361092710086126e-05,0.8143549407496442,-3.0707252852701927e-06,-0.6948921627164638
868,0.8154,1113.54,1182.65,0.460183,0.00174269,0.00951367,0.0503253,0.596281,0.596281,-1.18819,-5.37409e-12,-1.91059e-05,-1.00387e-06,1.06848,0.8153549257925767,-5.37403455069807e-12,-1.9105717483425266e-05,0.8153549257925767,-1.0038694960856631e-06,-0.6952275968148987
869,0.8164,1112.9,1182.02,-0.341366,0.00173954,-0.0513181,-0.0383947,0.596832,0.596832,-1.18929,-1.83907e-11,-2.07496e-05,-3.16614e-06,1.06948,0.8163554619790945,-1.8390733380613256e-11,-2.0749384728513398e-05,0.8163554619790945,-3.1661349877420975e-06,-0.6955626621386883
870,0.8174,1113.99,1183.11,0.573934,0.00173821,0.0178681,0.0627488,0.597382,0.597382,-1.19039,-2.66276e-12,-1.90821e-05,-4.98938e-07,1.07047,0.8173547322573194,-2.6627589022609754e-12,-1.908191793786873e-05,0.8173547322573194,-4.989378755704266e-07,-0.6958973590932622
871,0.8184,1113.12,1182.24,-0.469997,0.00173482,-0.0612918,-0.0526919,0.597932,0.597932,-1.19149,-1.98141e-11,-2.11959e-05,-3.34556e-06,1.07146,0.8183545522853648,-1.981415032048517e-11,-2.1195675368512745e-05,0.8183545522853648,-3.345554403622053e-06,-0.6962316880836035
872,0.8194,1113.47,1182.6,-0.284873,0.00173217,-0.0472994,-0.0320411,0.598482,0.598482,-1.19259,-1.7031e-11,-2.10531e-05,-2.8978e-06,1.07245,0.8193549223656762,-1.7031043242354826e-11,-2.1052878385052765e-05,0.8193549223656762,-2.8977958014264615e-06,-0.6965656495142503
873,0.8204,1114.09,1183.21,0.158264,0.00173018,-0.0134669,0.0173283,0.599032,0.599032,-1.19369,-9.09551e-12,-2.03255e-05,-1.60446e-06,1.07344,0.8203558428008655,-9.095502129241595e-12,-2.0325293438427927e-05,0.8203558428008655,-1.6044587128893895e-06,-0.6968992437892958
874,0.8214,1113.98,1183.1,-0.119508,0.00172756,-0.0345306,-0.0132886,0.599581,0.599581,-1.19479,-1.35086e-11,-2.09723e-05,-2.31157e-06,1.07443,0.8213554925373079,-1.3508638652126592e-11,-2.0972080082892752e-05,0.8213554925373079,-2.311567328328046e-06,-0.6972324713123894
875,0.8224,1114.54,1183.67,0.275283,0.00172568,-0.00476341,0.0302429,0.60013,0.60013,-1.19588,-6.29155e-12,-2.03108e-05,-1.11268e-06,1.07542,0.8223556912321308,-6.2915228582483e-12,-2.0310593737082883e-05,0.8223556912321308,-1.1126793809657087e-06,-0.6975623081249396
876,0.8234,1114.29,1183.42,-0.146809,0.00172296,-0.0368319,-0.0164106,0.600678,0.600678,-1.19698,-1.3066e-11,-2.12277e-05,-2.21298e-06,1.07641,0.8233546158312679,-1.3065992732208542e-11,-2.1227474694018866e-05,0.8233546158312679,-2.2129775513191063e-06,-0.6978948066782708
877,0.8244,1114.95,1184.08,0.342634,0.0017212,7.01036e-05,0.037512,0.601227,0.601227,-1.19807,-4.19888e-12,-2.03788e-05,-7.41461e-07,1.07739,0.8243559123461031,-4.198863479132342e-12,-2.0378592353709202e-05,0.8243559123461031,-7.414607251510219e-07,-0.6982239219385895
878,0.8254,1114.56,1183.7,-0.210638,0.00171835,-0.04192,-0.0235888,0.601775,0.601775,-1.19917,-1.32328e-11,-2.15501e-05,-2.21174e-06,1.07838,0.8253559333668026,-1.323274823050724e-11,-2.154986779823176e-05,0.8253559333668026,-2.211737554103088e-06,-0.6985556931168554
879,0.8264,1115.36,1184.49,0.419138,0.00171674,0.00559175,0.0457777,0.602322,0.602322,-1.20026,-1.94443e-12,-2.04282e-05,-3.43153e-07,1.07937,0.8263546761936147,-1.944444605328499e-12,-2.0427991345717267e-05,0.8263546761936147,-3.431529411734857e-07,-0.698884088403413
880,0.8274,1114.82,1183.95,-0.295751,0.00171373,-0.0486079,-0.0330924,0.60287,0.60287,-1.20136,-1.37947e-11,-2.19147e-05,-2.27143e-06,1.08036,0.8273557928370758,-1.3794743125572495e-11,-2.191445987476115e-05,0.8273557928370758,-2.271427420263983e-06,-0.6992151337978219
881,0.8284,1115.8,1184.93,0.515997,0.00171233,0.0126623,0.0562936,0.603417,0.603417,-1.20245,6.33415e-13,-2.04386e-05,1.11932e-07,1.08134,0.8283556298862607,6.334932578511143e-13,-2.04383911331929e-05,0.8283556298862607,1.1193200633030642e-07,-0.6995428106856356
882,0.8294,1115.04,1184.18,-0.404814,0.00170911,-0.0570881,-0.0451986,0.603963,0.603963,-1.20355,-1.48243e-11,-2.2327e-05,-2.40025e-06,1.08233,0.8293541846408194,-1.4824252936307403e-11,-2.2326750754420033e-05,0.8293541846408194,-2.4002471193940167e-06,-0.699873131883915
883,0.8304,1116.26,1185.39,0.639754,0.00170798,0.021782,0.0697868,0.60451,0.60451,-1.20464,3.62178e-12,-2.03972e-05,6.42474e-07,1.08331,0.8303551151093438,3.6217695509321857e-12,-2.0396991978532952e-05,0.8303551151093438,6.424742062804967e-07,-0.7002000919445567
884,0.8314,1115.24,1184.38,-0.543784,0.0017045,-0.0678022,-0.0605455,0.605056,0.605056,-1.20573,-1.64612e-11,-2.27987e-05,-2.61487e-06,1.0843,0.831354761880928,-1.6461165763814734e-11,-2.279844011165988e-05,0.831354761880928,-2.6148665812630867e-06,-0.7005266958128924
885,0.8324,1115.64,1184.78,-0.312349,0.00170191,-0.0502595,-0.0347883,0.605602,0.605602,-1.20682,-1.27747e-11,-2.25758e-05,-2.05115e-06,1.08528,0.8323549546086817,-1.2774670210546901e-11,-2.2575545168490585e-05,0.8323549546086817,-2.0511478964202468e-06,-0.7008529438769602
886,0.8334,1116.27,1185.41,0.147901,0.00169997,-0.0151752,0.0162695,0.606148,0.606148,-1.20791,-4.27716e-12,-2.18144e-05,-7.11367e-07,1.08626,0.8333556935907789,-4.2771342023684156e-12,-2.181416206770148e-05,0.8333556935907789,-7.11366746952713e-07,-0.7011788365243754
887,0.8344,1116.16,1185.31,-0.122744,0.0016974,-0.0356523,-0.0134224,0.606693,0.606693,-1.209,-8.6905e-12,-2.24538e-05,-1.40549e-06,1.08724,0.8343551447694937,-8.690492769858338e-12,-2.2453547915302075e-05,0.8343551447694937,-1.4054890122849883e-06,-0.701504374142331
888,0.8354,1116.72,1185.87,0.269788,0.00169558,-0.00609204,0.0296912,0.607238,0.607238,-1.21009,-1.26043e-12,-2.17931e-05,-2.10215e-07,1.08822,0.8353551407975588,-1.2604361998569402e-12,-2.179286253212176e-05,0.8353551407975588,-2.102149778693274e-07,-0.7018295571175985
889,0.8364,1116.48,1185.62,-0.144155,0.00169292,-0.0374884,-0.0158729,0.607783,0.607783,-1.21118,-8.08079e-12,-2.27015e-05,-1.29495e-06,1.08921,0.8363556819719977,-8.080758284734202e-12,-2.270124232295334e-05,0.8363556819719977,-1.2949491615676934e-06,-0.7021543858365278
890,0.8374,1117.12,1186.27,0.333864,0.0016912,-0.00150104,0.0365773,0.608327,0.608327,-1.21227,8.93212e-13,-2.18696e-05,1.48716e-07,1.09019,0.8373549312341471,8.93285445613401e-13,-2.186936086201463e-05,0.8373549312341471,1.4871601106136723e-07,-0.7024788606850478
891,0.8384,1116.75,1185.9,-0.202592,0.00168842,-0.0421497,-0.0224252,0.608871,0.608871,-1.21336,-8.10232e-12,-2.30171e-05,-1.2829e-06,1.09117,0.8383547242357787,-8.10229661141193e-12,-2.3016835108635725e-05,0.8383547242357787,-1.282899177112995e-06,-0.7028029820486672
892,0.8394,1117.52,1186.67,0.404214,0.00168685,0.00355728,0.0441367,0.609415,0.609415,-1.21444,3.16823e-12,-2.19327e-05,5.26921e-07,1.09215,0.8393550612727674,3.1681324230703467e-12,-2.19324594801229e-05,0.8393550612727674,5.269211387215478e-07,-0.7031237815651341
893,0.8404,1117.01,1186.16,-0.280108,0.00168392,-0.0482431,-0.0310539,0.609959,0.609959,-1.21553,-8.4859e-12,-2.33706e-05,-1.32567e-06,1.09313,0.8403559426411489,-8.485878666419922e-12,-2.3370326909688544e-05,0.8403559426411489,-1.3256691212548688e-06,-0.7034472003479704
894,0.8414,1117.94,1187.09,0.491889,0.00168254,0.00993167,0.0536027,0.610502,0.610502,-1.21661,5.73099e-12,-2.19625e-05,9.5355e-07,1.0941,0.8413555272806721,5.730971253115058e-12,-2.196225882611369e-05,0.8413555272806721,9.535504545965523e-07,-0.7037673044842467
895,0.8424,1117.24,1186.39,-0.378202,0.00167942,-0.0558732,-0.0419081,0.611045,0.611045,-1.2177,-9.28063e-12,-2.37656e-05,-1.42828e-06,1.09508,0.8423556548420443,-9.280576307446609e-12,-2.376531760039935e-05,0.8423556548420443,-1.4282789799757722e-06,-0.704090022209247
896,0.8434,1118.39,1187.54,0.602392,0.00167828,0.0180423,0.0655845,0.611587,0.611587,-1.21878,8.65947e-12,-2.19481e-05,1.44432e-06,1.09606,0.8433544822647487,8.659517547471296e-12,-2.194785914222397e-05,0.8433544822647487,1.4443210429870845e-06,-0.7044094324726722
897,0.8444,1117.44,1186.6,-0.501559,0.00167493,-0.0653864,-0.0554875,0.61213,0.61213,-1.21987,-1.05984e-11,-2.42112e-05,-1.6039e-06,1.09704,0.8443556955534257,-1.059841103767667e-11,-2.4210906911292795e-05,0.8443556955534257,-1.6038987137312333e-06,-0.7047314506594826
898,0.8454,1117.82,1186.98,-0.287991,0.00167242,-0.0492278,-0.0318157,0.612672,0.612672,-1.22096,-7.05016e-12,-2.40126e-05,-1.07671e-06,1.09802,0.8453556072920188,-7.050138250974669e-12,-2.4012311699794786e-05,0.8453556072920188,-1.0767094204000571e-06,-0.7050531180376949
899,0.8464,1118.42,1187.58,0.142509,0.00167053,-0.0164469,0.015771,0.613213,0.613213,-1.22204,1.18948e-12,-2.33014e-05,1.8737e-07,1.09899,0.8463542147745318,1.1894929485833927e-12,-2.3301128524444437e-05,0.8463542147745318,1.8737001750146476e-07,-0.7053714887191007
900,0.8474,1118.33,1187.49,-0.109677,0.00166804,-0.0354979,-0.0117828,0.613755,0.613755,-1.22312,-2.98089e-12,-2.39086e-05,-4.58038e-07,1.09997,0.8473552100041422,-2.9808377988160828e-12,-2.3908314191745106e-05,0.8473552100041422,-4.580378950569397e-07,-0.7056895157457774
901,0.8484,1118.86,1188.02,0.253647,0.00166624,-0.00818769,0.0279526,0.614296,0.614296,-1.2242,4.16843e-12,-2.33008e-05,6.57799e-07,1.10094,0.8483548995643977,4.168443368257613e-12,-2.3300528538494625e-05,0.8483548995643977,6.577992164302771e-07,-0.7060071994886719
902,0.8494,1118.64,1187.8,-0.126945,0.00166366,-0.0370109,-0.01377,0.614837,0.614837,-1.22528,-2.22398e-12,-2.41505e-05,-3.38907e-07,1.10192,0.8493551301030271,-2.2239987629291136e-12,-2.4150208378981297e-05,0.8493551301030271,-3.389069426207314e-07,-0.7063245403183306
903,0.8504,1119.24,1188.4,0.309789,0.00166196,-0.00419379,0.0339443,0.615378,0.615378,-1.22636,6.29689e-12,-2.33945e-05,9.91447e-07,1.10289,0.8503559019127784,6.296962951068963e-12,-2.3394226350781366e-05,0.8503559019127784,9.914474914385352e-07,-0.7066415386048999
904,0.8514,1118.92,1188.08,-0.177176,0.00165928,-0.0410359,-0.0193958,0.615918,0.615918,-1.22744,-2.04132e-12,-2.44532e-05,-3.07762e-07,1.10386,0.8513553639302691,-2.0413670753782753e-12,-2.4452901022931073e-05,0.8513553639302691,-3.077619525893027e-07,-0.7069581947181265
905,0.8524,1119.63,1188.79,0.37009,0.00165771,0.000107086,0.0403758,0.616458,0.616458,-1.22852,8.51471e-12,-2.34791e-05,1.33816e-06,1.10484,0.852355365802997,8.514744465060176e-12,-2.3478824368039497e-05,0.852355365802997,1.3381608954254887e-06,-0.7072745090273581
906,0.8534,1119.18,1188.35,-0.243165,0.00165489,-0.0462416,-0.0267293,0.616998,0.616998,-1.2296,-2.163e-12,-2.47876e-05,-3.22273e-07,1.10581,0.853355907822563,-2.1630475188771925e-12,-2.4787292789985038e-05,0.853355907822563,-3.2227294810560636e-07,-0.7075904819015439
907,0.8544,1120.03,1189.2,0.444165,0.00165348,0.00545256,0.0483161,0.617537,0.617537,-1.23068,1.09731e-11,-2.35371e-05,1.72329e-06,1.10678,0.8543551359246613,1.0973000286185197e-11,-2.3536823004599583e-05,0.8543551359246613,1.7232914848452907e-06,-0.7079061137092347
908,0.8554,1119.42,1188.59,-0.325607,0.00165051,-0.0526731,-0.0358339,0.618076,0.618076,-1.23176,-2.61858e-12,-2.51555e-05,-3.85119e-07,1.10775,0.8553549027558813,-2.6185720258808942e-12,-2.5155183603020603e-05,0.8553549027558813,-3.8511892586079455e-07,-0.7082214048185833
909,0.8564,1120.45,1189.62,0.536283,0.00164929,0.0121674,0.0582351,0.618615,0.618615,-1.23283,1.3737e-11,-2.356e-05,2.15901e-06,1.10872,0.8563552086066761,1.3737011528291987e-11,-2.3559722465371635e-05,0.8563552086066761,2.1590123306935993e-06,-0.7085334409463284
910,0.8574,1119.64,1188.82,-0.427931,0.00164613,-0.0605835,-0.0470735,0.619153,0.619153,-1.23391,-3.49038e-12,-2.55637e-05,-5.06023e-07,1.10969,0.8573541964125302,-3.4904301671190296e-12,-2.5563373251435983e-05,0.8573541964125302,-5.060228719377946e-07,-0.7088480549079865
911,0.8584,1120.89,1190.06,0.650766,0.00164517,0.0205809,0.0706084,0.619692,0.619692,-1.23498,1.68677e-11,-2.35392e-05,2.65804e-06,1.11066,0.8583555801730767,1.6867618413130003e-11,-2.353892295525739e-05,0.8583555801730767,2.6580435326106766e-06,-0.7091594208787337
912,0.8594,1119.84,1189.02,-0.554609,0.00164177,-0.0703026,-0.060922,0.62023,0.62023,-1.23606,-4.88871e-12,-2.60209e-05,-6.97508e-07,1.11163,0.8593556444683832,-4.888756066634414e-12,-2.6020561459283442e-05,0.8593556444683832,-6.975077567750176e-07,-0.709473359147005
913,0.8604,1120.25,1189.43,-0.304778,0.00163934,-0.0513863,-0.0333351,0.620767,0.620767,-1.23714,-5.24314e-13,-2.57559e-05,-7.5643e-08,1.1126,0.8603543865877212,-5.243583345304614e-13,-2.5755568319629774e-05,0.8603543865877212,-7.56429970882877e-08,-0.7097869585449694
914,0.8614,1120.85,1190.03,0.131858,0.0016375,-0.0182027,0.0146926,0.621305,0.621305,-1.23821,8.11766e-12,-2.503e-05,1.20614e-06,1.11357,0.8613555265302022,8.11772871145422e-12,-2.502968675210937e-05,0.8613555265302022,1.2061407272945246e-06,-0.7100973204261088
915,0.8624,1120.77,1189.95,-0.108641,0.00163508,-0.0363201,-0.0114378,0.621842,0.621842,-1.23928,4.0439e-12,-2.562e-05,5.87525e-07,1.11454,0.8623553428746111,4.04387634489467e-12,-2.561967181058389e-05,0.8623553428746111,5.87525172512926e-07,-0.7104073503976387
916,0.8634,1121.29,1190.46,0.24453,0.00163333,-0.00982334,0.0270012,0.622379,0.622379,-1.24036,1.12662e-11,-2.50284e-05,1.67698e-06,1.1155,0.8633556962645808,1.1266099164686239e-11,-2.502808679216706e-05,0.8633556962645808,1.6769814061845523e-06,-0.7107199416295601
917,0.8644,1121.08,1190.26,-0.120088,0.00163083,-0.0373755,-0.0127702,0.622915,0.622915,-1.24143,4.98209e-12,-2.58536e-05,7.18534e-07,1.11647,0.8643547226329271,4.9820148007029275e-12,-2.5853265798514435e-05,0.8643547226329271,7.185342580928733e-07,-0.7110293057526947
918,0.8654,1121.66,1190.84,0.296247,0.00162917,-0.00615826,0.0324884,0.623451,0.623451,-1.2425,1.34319e-11,-2.51327e-05,1.99447e-06,1.11744,0.8653542846229407,1.3431922241124994e-11,-2.5132384176340672e-05,0.8653542846229407,1.9944719888975726e-06,-0.71133833903325
919,0.8664,1121.36,1190.54,-0.16422,0.00162657,-0.0409208,-0.0176991,0.623987,0.623987,-1.24357,5.33686e-12,-2.61475e-05,7.6236e-07,1.1184,0.8663543825217919,5.3368420793731275e-12,-2.6147158157074912e-05,0.8663543825217919,7.623602906736693e-07,-0.7116470418250379
920,0.8674,1122.03,1191.22,0.349579,0.00162502,-0.00237996,0.0381343,0.624523,0.624523,-1.24464,1.56455e-11,-2.52327e-05,2.31795e-06,1.11937,0.8673550166168047,1.564548490762263e-11,-2.5232381658080172e-05,0.8673550166168047,2.3179526864591793e-06,-0.7119554144814926
921,0.8684,1121.62,1190.81,-0.221933,0.00162231,-0.0454817,-0.0240929,0.625058,0.625058,-1.24571,5.42353e-12,-2.64689e-05,7.66651e-07,1.12033,0.8683543188402039,5.42343947529389e-12,-2.6468549701785804e-05,0.8683543188402039,7.666512937820613e-07,-0.7122634573556699
922,0.8694,1122.42,1191.6,0.413901,0.0016209,0.00222998,0.0449776,0.625593,0.625593,-1.24678,1.80608e-11,-2.53114e-05,2.67204e-06,1.1213,0.8693541558333309,1.806088611999712e-11,-2.5311079669187997e-05,0.8693541558333309,2.6720435699623124e-06,-0.712571170800248
923,0.8704,1121.87,1191.06,-0.293024,0.00161806,-0.0510361,-0.031918,0.626128,0.626128,-1.24785,5.23224e-12,-2.68178e-05,7.31239e-07,1.12226,0.8703545278823639,5.232259070453438e-12,-2.6817440406001758e-05,0.8703545278823639,7.312392673597401e-07,-0.7128785551675282
924,0.8714,1122.82,1192.0,0.492653,0.00161681,0.00793281,0.0533948,0.626663,0.626663,-1.24892,2.07333e-11,-2.5362e-05,3.06654e-06,1.12322,0.8713554352736343,2.0733192940269873e-11,-2.5361678387181286e-05,0.8713554352736343,3.0665447019462277e-06,-0.7131856108094349
925,0.8724,1122.1,1191.29,-0.379946,0.0016138,-0.0577643,-0.041433,0.627197,0.627197,-1.24999,4.70263e-12,-2.71992e-05,6.49116e-07,1.12419,0.872355005937685,4.702682687707238e-12,-2.7198830105157334e-05,0.872355005937685,6.491162107824522e-07,-0.713492338077516
926,0.8734,1123.23,1192.42,0.589038,0.00161278,0.0149716,0.0637362,0.627731,0.627731,-1.25105,2.37121e-11,-2.5378e-05,3.51091e-06,1.12515,0.8733551105150126,2.3712143359944093e-11,-2.5377677981275326e-05,0.8733551105150126,3.5109161633517516e-06,-0.7137958752960069
927,0.8744,1122.31,1191.51,-0.485947,0.00160957,-0.0659056,-0.0529803,0.628265,0.628265,-1.25212,3.75382e-12,-2.76194e-05,5.11136e-07,1.12611,0.8743557492908023,3.753886090862579e-12,-2.7619018587832223e-05,0.8743557492908023,5.111361305321083e-07,-0.7141019499303087
928,0.8754,1122.69,1191.88,-0.269252,0.00160723,-0.0495457,-0.0291728,0.628798,0.628798,-1.25319,7.70801e-12,-2.74045e-05,1.05868e-06,1.12707,0.8753550471944083,7.708056415367537e-12,-2.7404124500085558e-05,0.8753550471944083,1.0586805603285399e-06,-0.7144076972399018
929,0.8764,1123.25,1192.44,0.127931,0.00160544,-0.0194059,0.0143288,0.629331,0.629331,-1.25425,1.58905e-11,-2.67472e-05,2.23807e-06,1.12803,0.8763548778657666,1.589040010685494e-11,-2.6746842296865303e-05,0.8763548778657666,2.2380725044346406e-06,-0.7147102646917476
930,0.8774,1123.18,1192.38,-0.0928259,0.0016031,-0.0360022,-0.0095388,0.629864,0.629864,-1.25532,1.21139e-11,-2.73012e-05,1.67297e-06,1.12899,0.8773552415889185,1.2113865466290008e-11,-2.7300827325604793e-05,0.8773552415889185,1.6729713994134698e-06,-0.7150153614526515
931,0.8784,1123.66,1192.86,0.226899,0.00160137,-0.0120765,0.0250776,0.630396,0.630396,-1.25638,1.89398e-11,-2.67717e-05,2.66962e-06,1.12995,0.8783542602928569,1.8939738666290395e-11,-2.6771341641196322e-05,0.8783542602928569,2.6696235635448318e-06,-0.7153172851216971
932,0.8794,1123.49,1192.69,-0.101224,0.00159897,-0.0368186,-0.010534,0.630929,0.630929,-1.25745,1.31891e-11,-2.75305e-05,1.80933e-06,1.13091,0.8793556899708943,1.318900544333701e-11,-2.7530121039287536e-05,0.8793556899708943,1.8093316367373546e-06,-0.7156217327181059
933,0.8804,1124.02,1193.22,0.27058,0.00159732,-0.00901288,0.0296711,0.631461,0.631461,-1.25851,2.10645e-11,-2.68935e-05,2.96066e-06,1.13187,0.8803557731965097,2.106448349081802e-11,-2.6893138373118575e-05,0.8803557731965097,2.9606643827673196e-06,-0.715923013974149
934,0.8814,1123.77,1192.97,-0.137703,0.00159484,-0.0397701,-0.014605,0.631992,0.631992,-1.25957,1.37507e-11,-2.78121e-05,1.87044e-06,1.13283,0.8813545072525018,1.3750778293797339e-11,-2.7811713247172243e-05,0.8813545072525018,1.8704417492632075e-06,-0.7162239760412609
935,0.8824,1124.38,1193.58,0.314519,0.00159328,-0.0059375,0.0342773,0.632524,0.632524,-1.26063,2.32124e-11,-2.70139e-05,3.25349e-06,1.13378,0.8823556541318176,2.3212320954257848e-11,-2.7013535127906607e-05,0.8823556541318176,3.253495292510067e-06,-0.7165246192576022
936,0.8834,1124.04,1193.24,-0.184895,0.0015907,-0.0435204,-0.019825,0.633055,0.633055,-1.2617,1.40969e-11,-2.81155e-05,1.90003e-06,1.13474,0.8833554504065808,1.4096945832875463e-11,-2.811510476308232e-05,0.8833554504065808,1.9000318050022003e-06,-0.7168277756973777
937,0.8844,1124.75,1193.95,0.366646,0.00158925,-0.00224376,0.0397707,0.633586,0.633586,-1.26276,2.55186e-11,-2.71185e-05,3.56893e-06,1.1357,0.8843557777141422,2.5518698265614148e-11,-2.7118132296832798e-05,0.8843557777141422,3.568936368658626e-06,-0.7171277792251785
938,0.8854,1124.29,1193.5,-0.24218,0.00158656,-0.0480174,-0.0261181,0.634116,0.634116,-1.26382,1.42297e-11,-2.84401e-05,1.89922e-06,1.13665,0.8853547509808621,1.4229728506620631e-11,-2.843969558419257e-05,0.8853547509808621,1.899221803602913e-06,-0.717427464917722
939,0.8864,1125.12,1194.33,0.429496,0.00158525,0.00226048,0.0464274,0.634646,0.634646,-1.26488,2.80268e-11,-2.72022e-05,3.9142e-06,1.13761,0.8863542538437441,2.8026692078242377e-11,-2.7201830023471096e-05,0.8863542538437441,3.9142076604381515e-06,-0.7177268331117356
940,0.8874,1124.54,1193.74,-0.311179,0.00158243,-0.0533798,-0.0336538,0.635176,0.635176,-1.26594,1.41085e-11,-2.87891e-05,1.86334e-06,1.13856,0.887354286583548,1.4108492152331564e-11,-2.8788685597858077e-05,0.887354286583548,1.8633417360192084e-06,-0.7180258841435891
941,0.8884,1125.51,1194.72,0.505259,0.00158129,0.00774041,0.0544848,0.635706,0.635706,-1.26699,3.07735e-11,-2.72605e-05,4.29579e-06,1.13952,0.8883548494811837,3.077360588576994e-11,-2.7260128435901976e-05,0.8883548494811837,4.2957992270054035e-06,-0.7183218015813961
942,0.8894,1124.77,1193.98,-0.394074,0.00157831,-0.0597679,-0.0426608,0.636236,0.636236,-1.26806,1.36792e-11,-2.91667e-05,1.78623e-06,1.14047,0.8893559428177091,1.3679279931011479e-11,-2.9166274655989533e-05,0.8893559428177091,1.7862315953021124e-06,-0.7186230360645152
943,0.8904,1125.91,1195.12,0.59642,0.00157738,0.0143841,0.0642126,0.636765,0.636765,-1.26911,3.37985e-11,-2.72883e-05,4.72112e-06,1.14142,0.8903556765177094,3.379851953866364e-11,-2.7287927677699386e-05,0.8903556765177094,4.7211311444694815e-06,-0.7189183268218701
944,0.8914,1124.98,1194.19,-0.493449,0.00157421,-0.0673711,-0.0534095,0.637294,0.637294,-1.27017,1.28751e-11,-2.95782e-05,1.66061e-06,1.14238,0.8913559392167449,1.2875034371973015e-11,-2.957776256939937e-05,0.8913559392167449,1.6606113788508736e-06,-0.7192161155395356
945,0.8924,1125.36,1194.57,-0.266003,0.00157196,-0.0502195,-0.0285478,0.637822,0.637822,-1.27123,1.72225e-11,-2.93387e-05,2.24131e-06,1.14333,0.8923548388389453,1.7222445691800203e-11,-2.9338269624590296e-05,0.8923548388389453,2.2413125118081467e-06,-0.719513588768399
946,0.8934,1125.9,1195.12,0.119385,0.00157022,-0.0210437,0.013428,0.63835,0.63835,-1.27228,2.54625e-11,-2.86998e-05,3.39023e-06,1.14428,0.8933542660194091,2.5462520980568115e-11,-2.8699388164632467e-05,0.8933542660194091,3.390235746802972e-06,-0.7198079449361601
947,0.8944,1125.85,1195.07,-0.0860407,0.00156796,-0.0364359,-0.00863856,0.638878,0.638878,-1.27334,2.18877e-11,-2.92276e-05,2.86401e-06,1.14523,0.8943542210367608,2.188760284127511e-11,-2.922717287789922e-05,0.8943542210367608,2.8640141012115095e-06,-0.7201047911582353
948,0.8954,1126.31,1195.52,0.214244,0.00156628,-0.0140275,0.0236814,0.639406,0.639406,-1.27439,2.85761e-11,-2.87333e-05,3.80665e-06,1.14618,0.8953547041697723,2.8576030430826904e-11,-2.8732887202731483e-05,0.8953547041697723,3.8066572451977976e-06,-0.7203985268892734
949,0.8964,1126.16,1195.37,-0.0899254,0.00156397,-0.0368971,-0.00913164,0.639934,0.639934,-1.27545,2.31291e-11,-2.94504e-05,3.00852e-06,1.14713,0.8963557156973616,2.312905422741096e-11,-2.944996634124397e-05,0.8963557156973616,3.008524525505152e-06,-0.7206947474261501
950,0.8974,1126.65,1195.87,0.252513,0.00156235,-0.0113639,0.0276744,0.640461,0.640461,-1.2765,3.07039e-11,-2.88677e-05,4.07778e-06,1.14808,0.897355358542288,3.070388387982348e-11,-2.8867283331956983e-05,0.897355358542288,4.077788314127417e-06,-0.7209878640282066
951,0.8984,1126.43,1195.65,-0.120265,0.00155996,-0.0393665,-0.0125091,0.640988,0.640988,-1.27755,2.3874e-11,-2.97226e-05,3.08205e-06,1.14903,0.898355528337833,2.387401387693444e-11,-2.9722158287892597e-05,0.898355528337833,3.0820547494148087e-06,-0.7212806730193547
952,0.8994,1127.0,1196.22,0.289327,0.00155842,-0.00881736,0.0314951,0.641514,0.641514,-1.2786,3.28221e-11,-2.90042e-05,4.34575e-06,1.14998,0.8993543260064969,3.282218941080828e-11,-2.900377938230836e-05,0.8993543260064969,4.345759442747621e-06,-0.7215731747224168
953,0.9004,1126.7,1195.93,-0.159332,0.00155596,-0.0424849,-0.0168173,0.642041,0.642041,-1.27966,2.44397e-11,-3.00127e-05,3.12973e-06,1.15093,0.9003555495355298,2.443978353028342e-11,-3.001224962340121e-05,0.9003555495355298,3.129734897688863e-06,-0.7218681507922744
954,0.9014,1127.35,1196.57,0.332104,0.00155451,-0.0058215,0.035958,0.642567,0.642567,-1.28071,3.50621e-11,-2.91291e-05,4.63002e-06,1.15188,0.9013553994920711,3.5062175385291994e-11,-2.9128675751888267e-05,0.9013553994920711,4.630030718599798e-06,-0.7221600359674085
955,0.9024,1126.96,1196.19,-0.20601,0.00155196,-0.0461634,-0.021928,0.643093,0.643093,-1.28176,2.48406e-11,-3.03189e-05,3.15411e-06,1.15283,0.9023557755080314,2.4840574042173102e-11,-3.031844038681175e-05,0.9023557755080314,3.1541149743130603e-06,-0.7224516148239543
956,0.9034,1127.71,1196.93,0.382787,0.00155062,-0.00222945,0.0412734,0.643618,0.643618,-1.28281,3.74592e-11,-2.92387e-05,4.9361e-06,1.15377,0.9033547745044639,3.7459146895457707e-11,-2.923827255341127e-05,0.9033547745044639,4.936112182551966e-06,-0.7227428876833772
957,0.9044,1127.21,1196.44,-0.261291,0.00154796,-0.0504744,-0.027944,0.644143,0.644143,-1.28386,2.50512e-11,-3.06434e-05,3.15232e-06,1.15472,0.9043542981130681,2.5051294372246957e-11,-3.064293049581668e-05,0.9043542981130681,3.15232496861384e-06,-0.7230338548668058
958,0.9054,1128.07,1197.3,0.442843,0.00154676,0.00206901,0.047599,0.644668,0.644668,-1.28491,4.00398e-11,-2.93298e-05,5.26835e-06,1.15566,0.9053543466093379,4.003974929389642e-11,-2.9329369885644496e-05,0.9053543466093379,5.268363877819482e-06,-0.7233245166950313
959,0.9064,1127.46,1196.69,-0.326589,0.00154397,-0.0555212,-0.0350122,0.645193,0.645193,-1.28596,2.50358e-11,-3.09888e-05,3.12034e-06,1.15661,0.9063549202689114,2.5035751249902205e-11,-3.098831985204331e-05,0.9063549202689114,3.1203448682681767e-06,-0.7236148734885084
960,0.9074,1128.45,1197.68,0.513878,0.00154293,0.00719456,0.0551074,0.645718,0.645718,-1.28701,4.28318e-11,-2.93991e-05,5.6316e-06,1.15755,0.907356019367572,4.2831738156223764e-11,-2.9398667850677462e-05,0.907356019367572,5.631615857426553e-06,-0.7239049255673555
961,0.9084,1127.68,1196.92,-0.403555,0.00154,-0.0614245,-0.0433046,0.646242,0.646242,-1.28806,2.47516e-11,-3.13586e-05,3.05351e-06,1.1585,0.9083557358245575,2.4751534155598165e-11,-3.135810832421981e-05,0.9083557358245575,3.053514662010315e-06,-0.7241946732513551
962,0.9094,1128.84,1198.07,0.597733,0.00153914,0.013286,0.0639971,0.646766,0.646766,-1.2891,4.58661e-11,-2.94427e-05,6.03142e-06,1.15944,0.9093559762702395,4.586619972712924e-11,-2.9442266567980546e-05,0.9093559762702395,6.031438189113558e-06,-0.7244813616873468
963,0.9104,1127.9,1197.13,-0.494091,0.00153604,-0.0683226,-0.0530173,0.647289,0.647289,-1.29015,2.41478e-11,-3.17565e-05,2.94648e-06,1.16039,0.9103548306234743,2.4147794874807005e-11,-3.17559957676572e-05,0.9103548306234743,2.9464843409598984e-06,-0.7247705044310696
964,0.9114,1128.28,1197.52,-0.259349,0.00153389,-0.0506557,-0.0275132,0.647812,0.647812,-1.2912,2.8854e-11,-3.14973e-05,3.55257e-06,1.16133,0.9113542075141674,2.8854030276193043e-11,-3.1496803965302966e-05,0.9113542075141674,3.552576310461575e-06,-0.7250593437342457
965,0.9124,1128.81,1198.04,0.110738,0.00153221,-0.022719,0.0125395,0.648336,0.648336,-1.29224,3.7091e-11,-3.08833e-05,4.66128e-06,1.16227,0.9123560195707408,3.7090996940492005e-11,-3.088282311580759e-05,0.9123560195707408,4.661290863738898e-06,-0.725345133380387
966,0.9134,1128.77,1198.0,-0.0781176,0.00153004,-0.0368126,-0.00759518,0.648858,0.648858,-1.29329,3.37542e-11,-3.1382e-05,4.17791e-06,1.16321,0.913354530001506,3.3754110617678634e-11,-3.1381507590189095e-05,0.913354530001506,4.17791872742157e-06,-0.7256333696398196
967,0.9144,1129.2,1198.44,0.200558,0.0015284,-0.0160883,0.0221941,0.649381,0.649381,-1.29433,4.0254e-11,-3.09274e-05,5.05974e-06,1.16416,0.9143554761452977,4.0254022337649076e-11,-3.092692175288292e-05,0.9143554761452977,5.059752800518069e-06,-0.7259185626093447
968,0.9154,1129.07,1198.31,-0.0777344,0.00152618,-0.0369382,-0.00761752,0.649903,0.649903,-1.29538,3.51653e-11,-3.15983e-05,4.32975e-06,1.1651,0.9153550305648521,3.516520408197721e-11,-3.159780077899299e-05,0.9153550305648521,4.329759373478126e-06,-0.7262061970840792
969,0.9164,1129.53,1198.77,0.233328,0.0015246,-0.0138294,0.0255823,0.650425,0.650425,-1.29642,4.23799e-11,-3.10745e-05,5.31028e-06,1.16604,0.9163551068880187,4.2379877385201326e-11,-3.107401719271152e-05,0.9163551068880187,5.310294099558632e-06,-0.7264907946227399
970,0.9174,1129.35,1198.59,-0.102059,0.00152232,-0.0389355,-0.010319,0.650947,0.650947,-1.29746,3.60991e-11,-3.18608e-05,4.41519e-06,1.16698,0.917355705387302,3.609912369029189e-11,-3.1860292450058836e-05,0.917355705387302,4.415199746921061e-06,-0.7267750963338175
971,0.9184,1129.86,1199.11,0.263192,0.0015208,-0.0117958,0.0286445,0.651468,0.651468,-1.2985,4.44656e-11,-3.12266e-05,5.55339e-06,1.16792,0.9183549079794819,4.4465542359262145e-11,-3.122611245476303e-05,0.9183549079794819,5.553405420188895e-06,-0.7270591025248125
972,0.9194,1129.62,1198.86,-0.133308,0.00151846,-0.0414457,-0.0137541,0.651989,0.651989,-1.29955,3.68877e-11,-3.21377e-05,4.47996e-06,1.16886,0.9193546312918484,3.6887604082380676e-11,-3.2137183589631135e-05,0.9193546312918484,4.479970034942937e-06,-0.7273455400611385
973,0.9204,1130.2,1199.44,0.297075,0.00151701,-0.00945996,0.0321363,0.65251,0.65251,-1.30058,4.66387e-11,-3.13709e-05,5.80727e-06,1.16979,0.9203548755957669,4.6638692907663426e-11,-3.137040793843582e-05,0.9203548755957669,5.807286862280492e-06,-0.7276262295749607
974,0.9214,1129.88,1199.13,-0.170001,0.0015146,-0.044354,-0.0177574,0.653031,0.653031,-1.30163,3.75556e-11,-3.24263e-05,4.5277e-06,1.17073,0.921355641162745,3.755551425399517e-11,-3.24257742732037e-05,0.921355641162745,4.527710250057382e-06,-0.7279120719404033
975,0.9224,1130.54,1199.78,0.336443,0.00151324,-0.00671147,0.0362157,0.653551,0.653551,-1.30266,4.8927e-11,-3.15046e-05,6.07604e-06,1.17167,0.9223550059084646,4.89270846060208e-11,-3.150410373531365e-05,0.9223550059084646,6.0760584592589595e-06,-0.7281921782268035
976,0.9234,1130.14,1199.39,-0.212647,0.00151074,-0.0476967,-0.0223805,0.654071,0.654071,-1.30371,3.80887e-11,-3.27279e-05,4.55693e-06,1.17261,0.9233548904589892,3.808864335042017e-11,-3.27273644481485e-05,0.9233548904589892,4.556940382816066e-06,-0.7284774266580316
977,0.9244,1130.88,1200.13,0.382207,0.00150949,-0.00348208,0.0409799,0.654591,0.654591,-1.30474,5.13484e-11,-3.16259e-05,6.36243e-06,1.17354,0.9243552950846883,5.1348481022728265e-11,-3.1625399906531904e-05,0.9243552950846883,6.362450240215978e-06,-0.7287569509288622
978,0.9254,1130.39,1199.64,-0.262074,0.0015069,-0.0515343,-0.0277089,0.65511,0.65511,-1.30579,3.84658e-11,-3.30439e-05,4.56528e-06,1.17448,0.9253542947008133,3.84658971341878e-11,-3.304335405629466e-05,0.9253542947008133,4.565290420810442e-06,-0.7290416066599753
979,0.9264,1131.24,1200.48,0.435314,0.00150576,0.000298713,0.0465292,0.65563,0.65563,-1.30682,5.39208e-11,-3.17325e-05,6.6693e-06,1.17541,0.9263557392870845,5.392086777078475e-11,-3.173199652950487e-05,0.9263557392870845,6.669322239805098e-06,-0.7293205501245703
980,0.9274,1130.63,1199.88,-0.319242,0.00150306,-0.0559364,-0.0338415,0.656149,0.656149,-1.30786,3.86617e-11,-3.33763e-05,4.55004e-06,1.17635,0.9273557774032177,3.8661740475731676e-11,-3.337574301753854e-05,0.9273557774032177,4.550050351381785e-06,-0.7296019104197273
981,0.9284,1131.59,1200.84,0.496819,0.00150207,0.00470981,0.0529759,0.656667,0.656667,-1.30889,5.66638e-11,-3.18224e-05,6.99986e-06,1.17728,0.9283544063184721,5.6663784775423665e-11,-3.182189367278987e-05,0.9283544063184721,6.9998844991481235e-06,-0.7298802770685611
982,0.9294,1130.86,1200.11,-0.385232,0.00149925,-0.0609815,-0.040889,0.657186,0.657186,-1.30993,3.86476e-11,-3.37274e-05,4.50817e-06,1.17822,0.9293554820120231,3.8647529621016474e-11,-3.372683123759046e-05,0.9293554820120231,4.5081801618440664e-06,-0.7301610555502916
983,0.9304,1131.96,1201.21,0.567906,0.00149841,0.00984007,0.0604465,0.657704,0.657704,-1.31096,5.95986e-11,-3.18929e-05,7.35775e-06,1.17915,0.9303551470425953,5.95985483187178e-11,-3.189239142686873e-05,0.9303551470425953,7.357777068284221e-06,-0.7304388465761376
984,0.9314,1131.08,1200.34,-0.461249,0.00149545,-0.0667565,-0.0489745,0.658222,0.658222,-1.31201,3.83902e-11,-3.40994e-05,4.43628e-06,1.18009,0.9313553300337936,3.839017992390836e-11,-3.409881862204145e-05,0.9313553300337936,4.436289840370478e-06,-0.7307217372436415
985,0.9324,1131.45,1200.71,-0.238907,0.00149339,-0.0500793,-0.0249908,0.65874,0.65874,-1.31304,4.30812e-11,-3.38546e-05,5.01831e-06,1.18102,0.9323560312539911,4.3081094247554574e-11,-3.38540269394505e-05,0.9323560312539911,5.018322591698876e-06,-0.7309989510646547
986,0.9334,1131.94,1201.2,0.104191,0.00149177,-0.024267,0.0118779,0.659257,0.659257,-1.31407,5.10699e-11,-3.32875e-05,6.05498e-06,1.18195,0.9333553176154157,5.106981504354735e-11,-3.328694597737325e-05,0.9333553176154157,6.054998331395112e-06,-0.7312758795024299
987,0.9344,1131.92,1201.18,-0.0669169,0.00148969,-0.0369776,-0.0062121,0.659774,0.659774,-1.31511,4.80182e-11,-3.37535e-05,5.61899e-06,1.18288,0.9343551207414611,4.8018256038062646e-11,-3.375293035701166e-05,0.9343551207414611,5.619005786661191e-06,-0.7315552073121097
988,0.9354,1132.32,1201.58,0.185178,0.0014881,-0.0183108,0.0205227,0.660291,0.660291,-1.31614,5.42054e-11,-3.3349e-05,6.42498e-06,1.18381,0.9353554408993641,5.420530690969372e-11,-3.334844392832714e-05,0.9353554408993641,6.4250006401866955e-06,-0.7318315631009148
989,0.9364,1132.22,1201.48,-0.0634371,0.00148598,-0.0368582,-0.00589565,0.660807,0.660807,-1.31717,4.95813e-11,-3.3965e-05,5.77481e-06,1.18474,0.936354342001189,4.958122801212994e-11,-3.396442319592019e-05,0.936354342001189,5.774826674187494e-06,-0.7321076343898001
990,0.9374,1132.64,1201.9,0.212012,0.00148443,-0.0164868,0.0232667,0.661324,0.661324,-1.3182,5.63126e-11,-3.35095e-05,6.65317e-06,1.18567,0.9373556960237142,5.6312510210432265e-11,-3.350893856302051e-05,0.9373556960237142,6.653192132333174e-06,-0.7323834214716496
991,0.9384,1132.49,1201.76,-0.0819731,0.00148227,-0.038401,-0.00795042,0.66184,0.66184,-1.31924,5.07057e-11,-3.4218e-05,5.87128e-06,1.18661,0.9383556295235187,5.07056618914703e-11,-3.421741457088068e-05,0.9383556295235187,5.8712972359487026e-06,-0.7326615980364324
992,0.9394,1132.96,1202.22,0.235071,0.00148077,-0.0149512,0.0255963,0.662355,0.662355,-1.32026,5.83577e-11,-3.36769e-05,6.87124e-06,1.18753,0.939354139767042,5.835776306639673e-11,-3.3676332939602815e-05,0.939354139767042,6.8712636069889754e-06,-0.73293414418427
993,0.9404,1132.76,1202.03,-0.105744,0.00147856,-0.0403299,-0.0105553,0.662871,0.662871,-1.3213,5.1718e-11,-3.44819e-05,5.95195e-06,1.18846,0.9403551047299128,5.171796324532352e-11,-3.4481305506095516e-05,0.9403551047299128,5.9519677129138415e-06,-0.7332117482951593
994,0.9414,1133.28,1202.54,0.260547,0.00147711,-0.013234,0.0281823,0.663386,0.663386,-1.32232,6.04595e-11,-3.38398e-05,7.0955e-06,1.18939,0.9413546449683681,6.045941525201215e-11,-3.3839227440379815e-05,0.9413546449683681,7.095525173195227e-06,-0.733483733575824
995,0.9424,1133.03,1202.3,-0.133127,0.00147485,-0.0425203,-0.0135323,0.663901,0.663901,-1.32336,5.26483e-11,-3.47538e-05,6.02097e-06,1.19032,0.9423547001026205,5.26483301399594e-11,-3.4753196093695315e-05,0.9423547001026205,6.020988126076432e-06,-0.7337607664108611
996,0.9434,1133.6,1202.86,0.289512,0.00147347,-0.0112547,0.0311398,0.664416,0.664416,-1.32438,6.26394e-11,-3.3996e-05,7.32893e-06,1.19125,0.9433552703979098,6.263944918316611e-11,-3.399542214255202e-05,0.9433552703979098,7.328956856733626e-06,-0.7340321919785497
997,0.9444,1133.29,1202.56,-0.164295,0.00147115,-0.044984,-0.0168978,0.66493,0.66493,-1.32541,5.34909e-11,-3.50341e-05,6.07781e-06,1.19217,0.944354411764228,5.349098941564989e-11,-3.503348631306302e-05,0.944354411764228,6.077828469841506e-06,-0.734305997786614
998,0.9454,1133.92,1203.19,0.322479,0.00146984,-0.00897498,0.0345228,0.665444,0.665444,-1.32644,6.4908e-11,-3.41444e-05,7.57308e-06,1.1931,0.9453540668212159,6.490807891168515e-11,-3.414381708666259e-05,0.9453540668212159,7.573108675940077e-06,-0.7345795217198865
999,0.9464,1133.55,1202.82,-0.199669,0.00146746,-0.0477515,-0.0206948,0.665958,0.665958,-1.32747,5.42348e-11,-3.53237e-05,6.12128e-06,1.19403,0.946354235832978,5.423483884214875e-11,-3.53230761254153e-05,0.946354235832978,6.121298735006775e-06,-0.7348527640685485
