,Time,S11,S22,S33,S12,S13,S23,LE11,LE22,LE33,LE12,LE13,LE23,SDV_EPBAR,E11,E12,E13,E22,E23,E33
0,1e-05,2.96779,2.96779,-3.9968e-15,0.0,0.0,-2.22312e-38,9.99995e-06,9.99995e-06,-8.57139e-06,0.0,0.0,0.0,0.0,9.999999999621423e-06,0.0,0.0,9.999999999621423e-06,0.0,-8.571353265707238e-06
1,2e-05,5.93554,5.93554,-3.10862e-15,0.0,0.0,-4.44622e-38,1.99998e-05,1.99998e-05,-1.71427e-05,0.0,0.0,0.0,0.0,1.9999999997244444e-05,0.0,0.0,1.9999999997244444e-05,0.0,-1.714255306473067e-05
2,3.5e-05,10.3871,10.3871,-1.73195e-14,0.0,0.0,-8.33656e-38,3.49994e-05,3.49994e-05,-2.99995e-05,0.0,0.0,0.0,0.0,3.5000012486241516e-05,0.0,0.0,3.5000012486241516e-05,0.0,-2.9999050019546836e-05
3,5.75e-05,17.0644,17.0644,-7.9492e-14,0.0,0.0,-1.8757e-37,5.74983e-05,5.74983e-05,-4.92843e-05,0.0,0.0,0.0,0.0,5.749995305892597e-05,0.0,0.0,5.749995305892597e-05,0.0,-4.928308554885685e-05
4,9.125e-05,27.0799,27.0799,-4.11671e-13,0.0,0.0,-4.22022e-37,9.12458e-05,9.12458e-05,-7.82107e-05,0.0,0.0,0.0,0.0,9.124996302456445e-05,0.0,0.0,9.124996302456445e-05,0.0,-7.820764162291827e-05
5,0.00014188,42.1027,42.1027,-2.06191e-12,0.0,0.0,-9.49518e-37,0.000141865,0.000141865,-0.000121599,0.0,0.0,0.0,0.0,0.00014187506331508892,0.0,0.0,0.00014187506331508892,0.0,-0.00012159160714120265
6,0.00021781,64.6354,64.6354,-1.04285e-11,0.0,0.0,-2.1363e-36,0.000217789,0.000217789,-0.000186676,0.0,0.0,0.0,0.0,0.0002178127177461242,0.0,0.0,0.0002178127177461242,0.0,-0.00018665857711963607
7,0.00033172,98.4312,98.4312,-5.28479e-11,0.0,0.0,-4.8063e-36,0.000331664,0.000331664,-0.000284283,0.0,0.0,0.0,0.0,0.0003317190065854625,0.0,0.0,0.0003317190065854625,0.0,-0.00028424259541681707
8,0.00050258,149.118,149.118,-2.67432e-10,0.0,0.0,-1.08129e-35,0.000502452,0.000502452,-0.000430673,0.0,0.0,0.0,0.0,0.0005025782501502096,0.0,0.0,0.0005025782501502096,0.0,-0.00043058027369557994
9,0.00075887,225.131,225.131,-1.35321e-09,0.0,0.0,-2.43248e-35,0.000758579,0.000758579,-0.000650211,0.0,0.0,0.0,0.0,0.0007588667938165372,0.0,0.0,0.0007588667938165372,0.0,-0.0006499996586357693
10,0.0011433,339.115,339.115,-6.84461e-09,0.0,0.0,-5.47162e-35,0.00114265,0.00114265,-0.000979412,0.0,0.0,0.0,0.0,0.0011433030732321825,0.0,0.0,0.0011433030732321825,0.0,-0.0009789325326119425
11,0.00172,440.265,442.896,0.196334,0.0,0.0,-6.08812e-34,0.00171847,0.00171847,-0.00173623,0.0,0.0,0.0,0.000417497,0.001719947415747436,0.0,0.0,0.001719947415747436,0.0,-0.0017347236246243458
12,0.0025849,464.328,473.258,-0.899517,0.0,0.0,8.96087e-34,0.00258159,0.00258159,-0.00336109,0.0,0.0,0.0,0.00181028,0.0025849251728629064,0.0,0.0,0.0025849251728629064,0.0,-0.003355447860022842
13,0.0032337,479.898,492.559,-0.41044,0.0,0.0,2.31994e-34,0.00322844,0.00322844,-0.00458767,0.0,0.0,0.0,0.00287543,0.003233657025190295,0.0,0.0,0.003233657025190295,0.0,-0.004577162716110195
14,0.0038824,493.828,509.463,0.468198,0.0,0.0,-8.99031e-34,0.00387487,0.00387487,-0.00582045,0.0,0.0,0.0,0.00395318,0.003882387014774169,0.0,0.0,0.003882387014774169,0.0,-0.005803543996983684
15,0.0048555,511.148,530.034,0.756621,0.0,0.0,-6.53887e-34,0.00484374,0.00484374,-0.00768594,0.0,0.0,0.0,0.0055912,0.004855489872042096,0.0,0.0,0.004855489872042096,0.0,-0.00765647869076258
16,0.0058286,524.272,545.608,-0.845134,0.0,0.0,8.08346e-34,0.00581166,0.00581166,-0.00957089,0.0,0.0,0.0,0.00725067,0.005828580458747901,0.0,0.0,0.005828580458747901,0.0,-0.009525234802025273
17,0.0068017,538.902,562.1,0.875217,0.0,0.0,-8.02991e-34,0.00677866,0.00677866,-0.0114429,0.0,0.0,0.0,0.00890978,0.006801687117292454,0.0,0.0,0.006801687117292454,0.0,-0.01137767902918596
18,0.0077748,548.861,573.529,-0.826491,0.0,0.0,7.95301e-34,0.00774471,0.00774471,-0.0133383,0.0,0.0,0.0,0.010588,0.007774777838599478,0.0,0.0,0.007774777838599478,0.0,-0.013249739064604138
19,0.0087479,559.3,585.139,-0.945701,0.0,0.0,2.83455e-15,0.00870984,0.00870984,-0.0152275,0.0,0.0,0.0,0.0122666,0.008747881019936399,0.0,0.0,0.008747881019936399,0.0,-0.015112147872280213
20,0.009721,568.974,595.77,-0.954422,0.0,0.0,1.86175e-15,0.00967403,0.00967403,-0.017118,0.0,0.0,0.0,0.0139491,0.009720974687541295,0.0,0.0,0.009720974687541295,0.0,-0.016972319475500153
21,0.010694,577.924,605.52,-0.953616,0.0,0.0,-4.49971e-15,0.0106373,0.0106373,-0.0190096,0.0,0.0,0.0,0.0156349,0.010694077215820608,0.0,0.0,0.010694077215820608,0.0,-0.01883005703385887
22,0.011694,586.372,614.678,-1.048,-2.39711e-34,-2.85443e-15,2.73791e-15,0.0116262,0.0116262,-0.0209549,0.0,0.0,0.0,0.0173703,0.011694046942319458,0.0,0.0,0.011694046942319458,0.0,-0.020736871659352785
23,0.012694,596.41,625.322,1.04404,-1.65944e-34,-1.88883e-15,1.80789e-15,0.0126142,0.0126142,-0.0228882,0.0,0.0,0.0,0.0191002,0.012694094602893502,0.0,0.0,0.012694094602893502,0.0,-0.022628252173290342
24,0.013694,601.833,631.286,-1.04571,-1.95344e-34,-4.12255e-15,1.19233e-15,0.0136012,0.0136012,-0.0248454,0.0,0.0,0.0,0.0208457,0.013694117104188441,0.0,0.0,0.013694117104188441,0.0,-0.024539293403147977
25,0.014694,610.979,640.906,1.07665,-5.52187e-35,1.48421e-16,-2.09851e-15,0.0145872,0.0145872,-0.0267782,0.0,0.0,0.0,0.022578,0.01469411242032792,0.0,0.0,0.01469411242032792,0.0,-0.026422843008152896
26,0.015694,617.751,648.111,1.18155,4.00991e-35,3.00701e-15,1.48749e-15,0.0155722,0.0155722,-0.0287223,0.0,0.0,0.0,0.0243178,0.01569407852351845,0.0,0.0,0.01569407852351845,0.0,-0.02831373572124274
27,0.016694,622.48,653.237,-0.43468,2.67826e-35,2.02278e-15,9.90193e-16,0.0165563,0.0165563,-0.0306756,0.0,0.0,0.0,0.026064,0.016694115053460745,0.0,0.0,0.016694115053460745,0.0,-0.030209878030996173
28,0.017694,629.974,661.093,1.05748,1.84016e-35,1.36763e-15,6.59708e-16,0.0175394,0.0175394,-0.0326104,0.0,0.0,0.0,0.0277997,0.01769411850912772,0.0,0.0,0.01769411850912772,0.0,-0.03208441394816619
29,0.018694,635.826,667.284,1.16856,1.03986e-35,9.26593e-16,3.35823e-15,0.0185215,0.0185215,-0.0345523,0.0,0.0,0.0,0.0295402,0.01869408685699847,0.0,0.0,0.01869408685699847,0.0,-0.03396218541243112
30,0.019694,639.791,671.569,-0.372205,1.69247e-34,-2.30237e-15,-3.59382e-15,0.0195027,0.0195027,-0.0365027,0.0,0.0,0.0,0.0312861,0.01969412003106563,0.0,0.0,0.01969412003106563,0.0,-0.03584450932701522
31,0.020694,644.264,676.342,-1.16842,-3.54315e-34,4.32211e-15,-8.3127e-15,0.0204829,0.0204829,-0.0384478,0.0,0.0,0.0,0.0330292,0.020694114224608873,0.0,0.0,0.020694114224608873,0.0,-0.03771806545420853
32,0.021694,649.32,681.681,-1.16318,6.72536e-35,2.94316e-15,6.12723e-15,0.0214621,0.0214621,-0.0403873,0.0,0.0,0.0,0.0347692,0.021694067398432493,0.0,0.0,0.021694067398432493,0.0,-0.03958260254693491
33,0.022694,654.059,686.69,-1.28266,-3.54118e-35,-9.50435e-16,1.21844e-15,0.0224404,0.0224404,-0.0423262,0.0,0.0,0.0,0.0365091,0.022694079780868348,0.0,0.0,0.022694079780868348,0.0,-0.041442951740524925
34,0.023694,661.137,694.021,1.1358,3.87818e-34,2.31506e-15,6.7531e-15,0.0234177,0.0234177,-0.0442494,0.0,0.0,0.0,0.0382396,0.023694047259556372,0.0,0.0,0.023694047259556372,0.0,-0.04328467708498074
35,0.024694,663.207,696.34,-1.33177,3.16495e-35,1.58117e-15,-4.27861e-15,0.0243941,0.0243941,-0.0461994,0.0,0.0,0.0,0.0399862,0.02469407025908077,0.0,0.0,0.02469407025908077,0.0,-0.04514845419140201
36,0.025694,667.496,700.961,-1.35832,-4.78664e-34,-4.87243e-15,2.99918e-15,0.0253695,0.0253695,-0.0481346,0.0,0.0,0.0,0.041724,0.02569404446334911,0.0,0.0,0.02569404446334911,0.0,-0.04699449609658457
37,0.026694,671.656,705.417,-1.38656,-4.14251e-36,-3.73609e-16,8.00592e-15,0.026344,0.026344,-0.0500685,0.0,0.0,0.0,0.0434609,0.026694070493222144,0.0,0.0,0.026694070493222144,0.0,-0.04883573248321216
38,0.027694,675.712,709.742,-1.39464,-2.48369e-36,2.73056e-15,-4.7137e-16,0.0273175,0.0273175,-0.0520009,0.0,0.0,0.0,0.0451969,0.027694043828895287,0.0,0.0,0.027694043828895287,0.0,-0.05067198755270608
39,0.028694,679.677,713.954,-1.37714,1.6098e-34,1.88484e-15,5.63585e-15,0.0282901,0.0282901,-0.0539317,0.0,0.0,0.0,0.0469319,0.028694065287527826,0.0,0.0,0.028694065287527826,0.0,-0.05250318167544399
40,0.029694,683.548,718.056,-1.34139,3.0379e-35,1.30085e-15,8.78515e-16,0.0292617,0.0292617,-0.0558609,0.0,0.0,0.0,0.0486658,0.029694030145624772,0.0,0.0,0.029694030145624772,0.0,-0.05432933046784871
41,0.030694,687.32,722.045,-1.29972,-2.36095e-34,-2.10958e-15,5.84277e-16,0.0302324,0.0302324,-0.0577887,0.0,0.0,0.0,0.0503987,0.030694039416664598,0.0,0.0,0.030694039416664598,0.0,-0.05615063826192912
42,0.031694,690.988,725.917,-1.26241,7.45201e-36,4.55237e-15,-2.62595e-15,0.0312022,0.0312022,-0.0597149,0.0,0.0,0.0,0.0521305,0.03169409134288981,0.0,0.0,0.03169409134288981,0.0,-0.057966931069331706
43,0.032694,694.552,729.677,-1.23407,-1.69466e-34,1.45516e-16,4.1748e-15,0.032171,0.032171,-0.0616398,0.0,0.0,0.0,0.0538612,0.03269408089530823,0.0,0.0,0.03269408089530823,0.0,-0.05977850641366611
44,0.033694,698.018,733.33,-1.21387,-3.86322e-34,-2.92895e-15,-1.35704e-16,0.0331389,0.0331389,-0.0635631,0.0,0.0,0.0,0.0555909,0.03369410938192163,0.0,0.0,0.03369410938192163,0.0,-0.061585096547984164
45,0.034694,701.393,736.886,-1.19803,-1.97423e-34,9.74213e-16,-3.14297e-15,0.0341058,0.0341058,-0.0654849,0.0,0.0,0.0,0.0573193,0.03469407157009785,0.0,0.0,0.03469407157009785,0.0,-0.06338681048798855
46,0.035694,704.687,740.354,-1.18269,-1.45856e-34,6.75091e-16,-2.22001e-15,0.0350718,0.0350718,-0.0674052,0.0,0.0,0.0,0.0590467,0.03569406896421312,0.0,0.0,0.03569406896421312,0.0,-0.06518366299570766
47,0.036694,710.618,746.449,1.56258,-1.94517e-34,4.66648e-16,-4.61445e-15,0.0360369,0.0360369,-0.0693081,0.0,0.0,0.0,0.0607633,0.036694099797428326,0.0,0.0,0.036694099797428326,0.0,-0.06696083357817695
48,0.037694,710.779,746.778,-1.4207,-2.30209e-34,3.19173e-16,-6.27721e-15,0.037001,0.037001,-0.0712425,0.0,0.0,0.0,0.0624986,0.03769405853169672,0.0,0.0,0.03769405853169672,0.0,-0.06876395999557205
49,0.038694,716.448,752.603,1.20553,-3.43394e-34,-2.83373e-15,1.66465e-15,0.0379642,0.0379642,-0.073143,0.0,0.0,0.0,0.0642132,0.038694046965992435,0.0,0.0,0.038694046965992435,0.0,-0.0705320933886503
50,0.039694,717.054,753.366,-1.19219,-2.67558e-34,-1.99831e-15,-7.96735e-15,0.0389265,0.0389265,-0.0750708,0.0,0.0,0.0,0.0659439,0.03969406332809089,0.0,0.0,0.03969406332809089,0.0,-0.07232219558511199
51,0.040694,719.839,756.303,-1.33334,-2.08724e-34,-1.41305e-15,-8.66457e-15,0.0398879,0.0398879,-0.076984,0.0,0.0,0.0,0.0676655,0.04069410584398425,0.0,0.0,0.04069410584398425,0.0,-0.07409533203733243
52,0.041694,722.749,759.359,-1.28892,-1.60485e-34,-1.00068e-15,-6.10816e-15,0.0408483,0.0408483,-0.0788945,0.0,0.0,0.0,0.0693852,0.04169406856847613,0.0,0.0,0.04169406856847613,0.0,-0.07586258420030567
53,0.042694,728.415,765.166,1.58589,-1.2094e-34,-7.10787e-16,-1.25109e-15,0.0418078,0.0418078,-0.0807871,0.0,0.0,0.0,0.0710938,0.04269405369341239,0.0,0.0,0.04269405369341239,0.0,-0.07760995261713544
54,0.043694,728.206,765.102,-1.38819,-1.76489e-34,2.55759e-15,-8.76477e-16,0.0427664,0.0427664,-0.0827117,0.0,0.0,0.0,0.0728213,0.043694059439460364,0.0,0.0,0.043694059439460364,0.0,-0.07938347729209327
55,0.044694,730.818,767.851,-1.47347,1.25805e-34,-1.26114e-15,-6.74426e-15,0.0437241,0.0437241,-0.0846181,0.0,0.0,0.0,0.0745375,0.04469408402552433,0.0,0.0,0.04469408402552433,0.0,-0.0811368687671915
56,0.045694,733.64,770.807,-1.29604,9.53621e-35,-8.97856e-16,1.37259e-15,0.0446808,0.0446808,-0.0865213,0.0,0.0,0.0,0.0762514,0.04569402109934262,0.0,0.0,0.04569402109934262,0.0,-0.08288398599443736
57,0.046694,738.989,776.286,1.47139,7.22385e-35,-6.40973e-16,9.87048e-16,0.0456367,0.0456367,-0.0884079,0.0,0.0,0.0,0.077955,0.046694077915116816,0.0,0.0,0.046694077915116816,0.0,-0.08461258596539634
58,0.047694,738.829,776.259,-1.24885,5.25668e-35,-4.56693e-16,-5.43355e-15,0.0465916,0.0465916,-0.0903246,0.0,0.0,0.0,0.0796763,0.047694043447678025,0.0,0.0,0.047694043447678025,0.0,-0.0863654286484673
59,0.048694,741.288,778.844,-1.29205,-4.68829e-35,2.75955e-15,-7.68433e-16,0.0475456,0.0475456,-0.0922241,0.0,0.0,0.0,0.0813869,0.04869402047832949,0.0,0.0,0.04869402047832949,0.0,-0.08809923031730371
60,0.049694,746.637,784.314,1.612,3.14128e-34,-1.12632e-15,-6.71154e-15,0.0484988,0.0484988,-0.094105,0.0,0.0,0.0,0.0830859,0.049694112186634776,0.0,0.0,0.049694112186634776,0.0,-0.08981281243151018
61,0.050694,746.139,783.942,-1.3146,4.08602e-34,-3.8931e-15,-1.67219e-15,0.049451,0.049451,-0.0960179,0.0,0.0,0.0,0.0848038,0.05069410694220533,0.0,0.0,0.05069410694220533,0.0,-0.09155224529164185
62,0.051694,748.517,786.44,-1.31119,1.30921e-34,3.14319e-16,1.92112e-15,0.0504023,0.0504023,-0.0979121,0.0,0.0,0.0,0.0865101,0.05169410782114303,0.0,0.0,0.05169410782114303,0.0,-0.09327139830476594
63,0.052694,753.726,791.763,1.57529,-4.227e-34,3.33119e-15,-4.80393e-15,0.0513527,0.0513527,-0.0997882,0.0,0.0,0.0,0.088205,0.05269411302841864,0.0,0.0,0.05269411302841864,0.0,-0.0949709171023081
64,0.053694,753.2,791.356,-1.25918,3.38355e-35,-7.17591e-16,-3.4051e-15,0.0523022,0.0523022,-0.101695,0.0,0.0,0.0,0.0899184,0.053694120767283415,0.0,0.0,0.053694120767283415,0.0,-0.09669498231143159
65,0.054694,755.492,793.762,-1.22654,-3.25091e-34,2.59067e-15,-2.41005e-15,0.0532507,0.0532507,-0.103585,0.0,0.0,0.0,0.0916204,0.05469402376986654,0.0,0.0,0.05469402376986654,0.0,-0.09840061646286524
66,0.055694,760.41,798.79,1.47871,-6.48326e-35,-1.25542e-15,4.51975e-15,0.0541984,0.0541984,-0.105457,0.0,0.0,0.0,0.0933117,0.055694031074809525,0.0,0.0,0.055694031074809525,0.0,-0.10008683171893829
67,0.056694,762.736,801.226,1.61498,-9.25791e-34,2.20856e-15,-9.16366e-15,0.0551452,0.0551452,-0.107342,0.0,0.0,0.0,0.0950106,0.0566940355108283,0.0,0.0,0.0566940355108283,0.0,-0.10178157024826862
68,0.057694,762.696,801.297,-0.58999,8.76121e-35,-4.64243e-15,-3.43232e-15,0.0560911,0.0560911,-0.109239,0.0,0.0,0.0,0.0967161,0.05769403527434558,0.0,0.0,0.05769403527434558,0.0,-0.1034838754625178
69,0.058694,766.654,805.36,1.25188,6.01506e-35,-3.34771e-15,-2.43362e-15,0.0570361,0.0570361,-0.111111,0.0,0.0,0.0,0.0984062,0.058694028560088984,0.0,0.0,0.058694028560088984,0.0,-0.10516058375903392
70,0.059694,765.985,804.799,-1.52033,1.25908e-34,-2.40765e-15,-4.82236e-15,0.0579803,0.0579803,-0.113008,0.0,0.0,0.0,0.100111,0.05969411953050319,0.0,0.0,0.05969411953050319,0.0,-0.10685648506068468
71,0.060694,771.278,810.191,1.72179,-9.67441e-34,4.52638e-15,-3.43797e-15,0.0589235,0.0589235,-0.114869,0.0,0.0,0.0,0.101793,0.060694094538124244,0.0,0.0,0.060694094538124244,0.0,-0.10851707947961564
72,0.061694,770.259,809.278,-1.34114,-2.89669e-34,1.40914e-16,6.89491e-16,0.0598658,0.0598658,-0.116764,0.0,0.0,0.0,0.103496,0.061694057642032396,0.0,0.0,0.061694057642032396,0.0,-0.1102048399558847
73,0.062694,775.323,814.44,1.73049,-2.21398e-34,1.02348e-16,5.43972e-16,0.0608073,0.0608073,-0.118622,0.0,0.0,0.0,0.105176,0.0626941132996306,0.0,0.0,0.0626941132996306,0.0,-0.11185654445460447
74,0.063694,774.313,813.531,-1.26723,-6.161e-34,3.20354e-15,4.37865e-16,0.0617478,0.0617478,-0.120514,0.0,0.0,0.0,0.106876,0.0636940472584262,0.0,0.0,0.0636940472584262,0.0,-0.11353532324697013
75,0.064694,779.176,818.489,1.65682,-4.70805e-34,2.32208e-15,3.62074e-16,0.0626875,0.0626875,-0.122369,0.0,0.0,0.0,0.108554,0.06469407034189278,0.0,0.0,0.06469407034189278,0.0,-0.11517819099141835
76,0.065694,781.167,820.577,1.72485,3.49978e-34,-1.46104e-15,-9.09991e-15,0.0636263,0.0636263,-0.12424,0.0,0.0,0.0,0.11024,0.06569407446361875,0.0,0.0,0.06569407446361875,0.0,-0.11683214483975679
77,0.066694,780.738,820.245,-0.6103,2.65336e-34,-1.06184e-15,-3.39803e-15,0.0645642,0.0645642,-0.126123,0.0,0.0,0.0,0.111933,0.06669405780494264,0.0,0.0,0.06669405780494264,0.0,-0.11849358517403619
78,0.067694,784.42,824.019,1.20484,2.02281e-34,-7.7419e-16,-2.41197e-15,0.0655013,0.0655013,-0.12798,0.0,0.0,0.0,0.11361,0.06769412531495878,0.0,0.0,0.06769412531495878,0.0,-0.12012902361180144
79,0.068694,783.634,823.327,-1.44007,-6.44393e-34,2.58058e-15,-4.83012e-15,0.0664374,0.0664374,-0.129861,0.0,0.0,0.0,0.115301,0.0686940617328875,0.0,0.0,0.0686940617328875,0.0,-0.12178250533130675
80,0.069694,788.421,828.202,1.53182,1.36094e-34,-1.27964e-15,-3.02274e-16,0.0673727,0.0673727,-0.131708,0.0,0.0,0.0,0.116972,0.06969407887394219,0.0,0.0,0.06969407887394219,0.0,-0.12340307598625755
81,0.070694,790.338,830.209,1.64658,-3.48772e-34,2.21991e-15,2.99095e-15,0.0683071,0.0683071,-0.13357,0.0,0.0,0.0,0.118651,0.0706940681434709,0.0,0.0,0.0706940681434709,0.0,-0.12503378080144445
82,0.071694,789.894,829.856,-0.585371,1.07954e-33,-4.6943e-15,-9.14995e-16,0.0692406,0.0692406,-0.135444,0.0,0.0,0.0,0.120336,0.07169402771459699,0.0,0.0,0.07169402771459699,0.0,-0.12667193206906946
83,0.072694,790.576,830.626,-1.66617,8.26552e-34,-3.4228e-15,-6.05926e-16,0.0701733,0.0701733,-0.13731,0.0,0.0,0.0,0.122016,0.07269406302821824,0.0,0.0,0.07269406302821824,0.0,-0.1283000427441513
84,0.073694,792.362,832.499,-1.61739,6.33623e-34,-2.49694e-15,-3.8109e-16,0.0711051,0.0711051,-0.139167,0.0,0.0,0.0,0.123691,0.07369406518479837,0.0,0.0,0.07369406518479837,0.0,-0.12991728748828169
85,0.074694,797.325,837.544,1.63849,-1.44965e-34,1.34654e-15,-2.17774e-16,0.072036,0.072036,-0.141004,0.0,0.0,0.0,0.125353,0.07469403235258487,0.0,0.0,0.07469403235258487,0.0,-0.13151416225263102
86,0.075694,796.208,836.515,-1.18394,-7.41875e-34,4.14802e-15,-9.71143e-17,0.0729661,0.0729661,-0.142875,0.0,0.0,0.0,0.127035,0.07569407026761521,0.0,0.0,0.07569407026761521,0.0,-0.13313758007410081
87,0.076694,800.49,840.877,1.42853,1.52105e-34,-1.34843e-16,-3.1792e-15,0.0738953,0.0738953,-0.144712,0.0,0.0,0.0,0.128697,0.07669406972550497,0.0,0.0,0.07669406972550497,0.0,-0.1347285445911941
88,0.077694,802.109,842.58,1.38965,1.17215e-34,-9.90257e-17,-2.26054e-15,0.0748236,0.0748236,-0.146564,0.0,0.0,0.0,0.130366,0.07769402888966837,0.0,0.0,0.07769402888966837,0.0,-0.13632954434323452
89,0.078694,802.055,842.608,-0.309782,9.03505e-35,-7.27121e-17,-1.58653e-15,0.0757511,0.0757511,-0.148423,0.0,0.0,0.0,0.13204,0.07869405379132188,0.0,0.0,0.07869405379132188,0.0,-0.13793361627348455
90,0.079694,802.733,843.368,-1.25513,-1.17719e-33,3.12197e-15,-1.06056e-14,0.0766777,0.0766777,-0.150276,0.0,0.0,0.0,0.133709,0.07969403492127491,0.0,0.0,0.07969403492127491,0.0,-0.1395295461968059
91,0.080694,804.267,844.981,-1.32538,7.73019e-36,-4.06966e-15,5.00085e-15,0.0776035,0.0776035,-0.152122,0.0,0.0,0.0,0.135374,0.0806940785075525,0.0,0.0,0.0806940785075525,0.0,-0.1411165094367961
92,0.081694,808.662,849.452,1.49172,3.5138e-34,-2.99367e-15,-8.98281e-15,0.0785284,0.0785284,-0.153951,0.0,0.0,0.0,0.137028,0.08169407483778057,0.0,0.0,0.08169407483778057,0.0,-0.14268597163034114
93,0.082694,810.213,851.082,1.47466,-6.34849e-34,9.86211e-16,-3.33538e-15,0.0794524,0.0794524,-0.155793,0.0,0.0,0.0,0.13869,0.08269402206740661,0.0,0.0,0.08269402206740661,0.0,-0.14426369054538202
94,0.083694,809.916,850.863,-0.380364,-4.91604e-34,7.26803e-16,8.12608e-16,0.0803756,0.0803756,-0.157645,0.0,0.0,0.0,0.140357,0.0836940267197015,0.0,0.0,0.0836940267197015,0.0,-0.14584704754934275
95,0.084694,810.516,851.54,-1.3188,-3.79058e-34,5.36286e-16,-5.68672e-15,0.081298,0.081298,-0.15949,0.0,0.0,0.0,0.142019,0.08469408724695682,0.0,0.0,0.08469408724695682,0.0,-0.1474215068612741
96,0.085694,812.039,853.139,-1.31537,-2.93014e-34,3.96196e-16,-4.09793e-15,0.0822195,0.0822195,-0.161328,0.0,0.0,0.0,0.143676,0.08569409353048618,0.0,0.0,0.08569409353048618,0.0,-0.14898710690447514
97,0.086694,816.267,857.438,1.41537,-2.27161e-34,2.93344e-16,-2.93304e-15,0.0831401,0.0831401,-0.163148,0.0,0.0,0.0,0.145323,0.08669404371944034,0.0,0.0,0.08669404371944034,0.0,-0.1505345417770314
98,0.087694,817.716,858.961,1.37536,6.43394e-34,-2.97862e-15,1.12118e-15,0.0840599,0.0840599,-0.164983,0.0,0.0,0.0,0.146978,0.08769404473081588,0.0,0.0,0.08769404473081588,0.0,-0.15209188159659337
99,0.088694,817.518,858.838,-0.301534,4.98063e-34,-2.19431e-15,9.16395e-16,0.0849789,0.0849789,-0.166826,0.0,0.0,0.0,0.148637,0.08869409501064363,0.0,0.0,0.08869409501064363,0.0,-0.15365313711992634
100,0.089694,818.101,859.494,-1.17986,4.7324e-34,-1.61603e-15,-2.42805e-15,0.085897,0.085897,-0.168662,0.0,0.0,0.0,0.150292,0.08969408403399237,0.0,0.0,0.08969408403399237,0.0,-0.1552056043591481
101,0.090694,819.524,860.988,-1.20183,-8.09856e-34,2.0131e-15,-8.09553e-15,0.0868143,0.0868143,-0.170492,0.0,0.0,0.0,0.151942,0.09069411901319757,0.0,0.0,0.09069411901319757,0.0,-0.1567501643996857
102,0.091694,823.489,865.022,1.33871,1.9004e-34,-1.7135e-15,5.17433e-16,0.0877307,0.0877307,-0.172305,0.0,0.0,0.0,0.153583,0.09169408922022981,0.0,0.0,0.09169408922022981,0.0,-0.15827759132074148
103,0.092694,824.806,866.409,1.23825,-9.46078e-34,1.94336e-15,-2.72135e-15,0.0886463,0.0886463,-0.174132,0.0,0.0,0.0,0.155231,0.09269410206433881,0.0,0.0,0.09269410206433881,0.0,-0.15981401421171504
104,0.093694,824.799,866.473,-0.176429,3.55441e-34,-1.76382e-15,-1.91112e-15,0.089561,0.089561,-0.175965,0.0,0.0,0.0,0.156882,0.09369404661441783,0.0,0.0,0.09369404661441783,0.0,-0.16135266451984975
105,0.094694,827.93,869.671,1.56859,-7.32276e-34,1.91043e-15,1.89471e-15,0.0904749,0.0904749,-0.177778,0.0,0.0,0.0,0.15852,0.0946940304766446,0.0,0.0,0.0946940304766446,0.0,-0.16287175466775594
106,0.095694,826.187,867.999,-1.55971,-5.74046e-34,1.41859e-15,4.70486e-15,0.091388,0.091388,-0.179617,0.0,0.0,0.0,0.160174,0.09569405208625792,0.0,0.0,0.09569405208625792,0.0,-0.16440981882745953
107,0.096694,830.513,872.39,1.40983,1.74907e-33,-5.38305e-15,3.74208e-16,0.0923003,0.0923003,-0.18142,0.0,0.0,0.0,0.161806,0.0966941098769758,0.0,0.0,0.0966941098769758,0.0,-0.16591503056796653
108,0.097694,831.871,873.815,1.41542,-8.30677e-34,2.4428e-15,-2.83742e-15,0.0932117,0.0932117,-0.183238,0.0,0.0,0.0,0.163446,0.09769409251158456,0.0,0.0,0.09769409251158456,0.0,-0.16743001950018577
109,0.098694,831.442,873.453,-0.358085,-9.49678e-35,-1.39736e-15,7.63043e-15,0.0941223,0.0941223,-0.185065,0.0,0.0,0.0,0.165091,0.09869410799017264,0.0,0.0,0.09869410799017264,0.0,-0.168949736170655
110,0.099694,831.945,874.022,-1.18516,-2.80226e-33,5.4068e-15,-7.10185e-15,0.095032,0.095032,-0.186885,0.0,0.0,0.0,0.166732,0.09969404477249832,0.0,0.0,0.09969404477249832,0.0,-0.17046087210000482
111,0.1007,833.318,875.46,-1.12762,2.08128e-35,-5.64429e-15,4.47849e-15,0.095941,0.095941,-0.188698,0.0,0.0,0.0,0.168367,0.10069412112503673,0.0,0.0,0.10069412112503673,0.0,-0.171963464027724
112,0.1017,836.949,879.154,1.20479,-9.04115e-34,-9.72619e-16,3.4306e-15,0.0968491,0.0968491,-0.190496,0.0,0.0,0.0,0.169994,0.10169411543512674,0.0,0.0,0.10169411543512674,0.0,-0.17345093608130047
113,0.1027,835.362,877.633,-1.68209,-7.08414e-34,-7.16668e-16,2.64345e-15,0.0977563,0.0977563,-0.192323,0.0,0.0,0.0,0.171637,0.10269402582742537,0.0,0.0,0.10269402582742537,0.0,-0.17495966257975515
114,0.1037,839.636,881.967,1.31671,-4.66667e-34,-5.27848e-16,-1.16599e-15,0.0986628,0.0986628,-0.194115,0.0,0.0,0.0,0.173259,0.10369407116390494,0.0,0.0,0.10369407116390494,0.0,-0.17643681094418495
115,0.1047,840.943,883.338,1.35347,-3.68663e-34,-3.86042e-16,-7.74368e-16,0.0995684,0.0995684,-0.195921,0.0,0.0,0.0,0.174889,0.10469402922742255,0.0,0.0,0.10469402922742255,0.0,-0.17792282379011715
116,0.1057,840.514,882.972,-0.339991,-1.21312e-33,2.95024e-15,2.74398e-15,0.100473,0.100473,-0.197737,0.0,0.0,0.0,0.176524,0.10569378756878423,0.0,0.0,0.10569378756878423,0.0,-0.17941436121622512
117,0.1067,840.995,883.515,-1.11002,1.2505e-33,-4.25881e-15,-1.09006e-15,0.101377,0.101377,-0.199545,0.0,0.0,0.0,0.178154,0.10669378668424523,0.0,0.0,0.10669378668424523,0.0,-0.18089663966764558
118,0.1077,845.029,887.608,1.69159,-1.4038e-33,3.30508e-15,-7.1951e-15,0.10228,0.10228,-0.201331,0.0,0.0,0.0,0.179771,0.10769358251350103,0.0,0.0,0.10769358251350103,0.0,-0.18235825266027617
119,0.1087,845.97,888.61,1.40357,-9.20216e-35,-7.60663e-16,-2.03832e-15,0.103183,0.103183,-0.203133,0.0,0.0,0.0,0.181396,0.10869428156613492,0.0,0.0,0.10869428156613492,0.0,-0.1838303163612468
120,0.1097,845.618,888.32,-0.170503,-7.56699e-35,-5.6136e-16,-1.42021e-15,0.104084,0.104084,-0.204941,0.0,0.0,0.0,0.183025,0.10969366526857538,0.0,0.0,0.10969366526857538,0.0,-0.18530461797899567
121,0.1107,848.593,891.353,1.59962,-1.54141e-34,-4.13014e-16,2.28028e-15,0.104985,0.104985,-0.206728,0.0,0.0,0.0,0.184641,0.11069394982150427,0.0,0.0,0.11069394982150427,0.0,-0.1867591785896825
122,0.1117,846.642,889.463,-1.5576,-2.41858e-33,6.17687e-15,-1.43014e-15,0.105885,0.105885,-0.208542,0.0,0.0,0.0,0.186272,0.11169402434237297,0.0,0.0,0.11169402434237297,0.0,-0.18823306022491526
123,0.1127,850.662,893.54,1.27981,3.64622e-35,-1.86235e-15,2.27633e-15,0.106784,0.106784,-0.21032,0.0,0.0,0.0,0.187882,0.1126938866410192,0.0,0.0,0.1126938866410192,0.0,-0.18967509949103645
124,0.1137,851.799,894.734,1.23618,2.72731e-35,-1.39148e-15,1.80532e-15,0.107682,0.107682,-0.212113,0.0,0.0,0.0,0.1895,0.11369353452594644,0.0,0.0,0.11369353452594644,0.0,-0.19112671027968464
125,0.1147,851.516,894.51,-0.2207,2.0034e-34,-1.03722e-15,-5.03372e-15,0.10858,0.10858,-0.213913,0.0,0.0,0.0,0.191121,0.11469408049785512,0.0,0.0,0.11469408049785512,0.0,-0.192581372612323
126,0.1157,854.432,897.482,1.53832,8.06536e-34,-4.02745e-15,2.82645e-15,0.109477,0.109477,-0.215692,0.0,0.0,0.0,0.19273,0.11569440966862188,0.0,0.0,0.11569440966862188,0.0,-0.19401649343198246
127,0.1167,852.55,895.659,-1.50293,-3.13663e-33,6.73371e-15,-4.26815e-15,0.110373,0.110373,-0.217497,0.0,0.0,0.0,0.194354,0.11669451984213408,0.0,0.0,0.11669451984213408,0.0,-0.19546998149373696
128,0.1177,856.395,899.558,1.20383,-6.22902e-34,-1.44719e-15,3.40751e-15,0.111268,0.111268,-0.219268,0.0,0.0,0.0,0.195957,0.11769440882096616,0.0,0.0,0.11769440882096616,0.0,-0.1968935432205261
129,0.1187,857.465,900.684,1.13902,-3.07163e-33,5.43141e-15,-3.84304e-15,0.112162,0.112162,-0.221053,0.0,0.0,0.0,0.197567,0.11869407440638802,0.0,0.0,0.11869407440638802,0.0,-0.19832580956786894
130,0.1197,857.304,900.58,-0.151088,-1.21812e-33,8.29143e-16,-2.77915e-15,0.113055,0.113055,-0.222844,0.0,0.0,0.0,0.199181,0.11969351439837261,0.0,0.0,0.11969351439837261,0.0,-0.19976032305265212
131,0.1207,859.945,903.275,1.37554,5.99668e-34,-2.63684e-15,-8.5002e-15,0.113948,0.113948,-0.224617,0.0,0.0,0.0,0.200784,0.12069384728888966,0.0,0.0,0.12069384728888966,0.0,-0.2011778909545876
132,0.1217,858.429,901.815,-1.25536,2.84964e-34,-1.97967e-15,2.36562e-16,0.11484,0.11484,-0.226412,0.0,0.0,0.0,0.2024,0.1216939521811411,0.0,0.0,0.1216939521811411,0.0,-0.2026104904975783
133,0.1227,859.083,902.523,-1.7045,1.32128e-34,-1.48664e-15,3.5505e-15,0.115731,0.115731,-0.228193,0.0,0.0,0.0,0.204006,0.12269382687056019,0.0,0.0,0.12269382687056019,0.0,-0.20402937732023207
134,0.1237,860.812,904.305,-1.06781,1.232e-35,-1.11546e-15,6.04783e-15,0.116622,0.116622,-0.229966,0.0,0.0,0.0,0.205608,0.12369459284533613,0.0,0.0,0.12369459284533613,0.0,-0.20543938289493524
135,0.1247,863.708,907.254,0.747388,-1.28562e-33,2.43473e-15,-5.13002e-15,0.117511,0.117511,-0.231731,0.0,0.0,0.0,0.207204,0.12469400150970578,0.0,0.0,0.12469400150970578,0.0,-0.2068405454943869
136,0.1257,862.996,906.595,-1.04659,2.77053e-34,-1.42522e-15,-3.75052e-15,0.1184,0.1184,-0.233516,0.0,0.0,0.0,0.208811,0.125694299043422,0.0,0.0,0.125694299043422,0.0,-0.20825507227994
137,0.1267,863.808,907.46,-1.30438,-9.00427e-34,2.20008e-15,3.81819e-15,0.119288,0.119288,-0.235289,0.0,0.0,0.0,0.210412,0.12669435954211794,0.0,0.0,0.12669435954211794,0.0,-0.20965759233535342
138,0.1277,867.589,911.291,1.41962,-7.08631e-34,1.66893e-15,-6.82129e-15,0.120175,0.120175,-0.237044,0.0,0.0,0.0,0.212,0.1276941807942047,0.0,0.0,0.1276941807942047,0.0,-0.21104342683533073
139,0.1287,868.411,912.165,1.18633,7.56737e-34,-5.28254e-15,8.04501e-15,0.121061,0.121061,-0.238815,0.0,0.0,0.0,0.213598,0.12869376058684767,0.0,0.0,0.12869376058684767,0.0,-0.21243943239860497
140,0.1297,868.19,911.997,-0.0841512,-4.27123e-34,-7.11905e-16,-3.54281e-16,0.121947,0.121947,-0.24059,0.0,0.0,0.0,0.215198,0.1296942263996359,0.0,0.0,0.1296942263996359,0.0,-0.2138361124858188
141,0.1307,870.603,914.46,1.29097,-3.42291e-34,-5.31772e-16,-1.55762e-16,0.122832,0.122832,-0.242348,0.0,0.0,0.0,0.216787,0.13069444832291732,0.0,0.0,0.13069444832291732,0.0,-0.2152169744667507
142,0.1317,869.248,913.157,-1.10142,-3.6678e-34,-3.94369e-16,3.26579e-15,0.123716,0.123716,-0.244126,0.0,0.0,0.0,0.218388,0.131694424139426,0.0,0.0,0.131694424139426,0.0,-0.216611078959991
143,0.1327,869.873,913.833,-1.50292,-2.01269e-34,-2.90702e-16,-6.94918e-16,0.124599,0.124599,-0.245892,0.0,0.0,0.0,0.219981,0.1326941516306721,0.0,0.0,0.1326941516306721,0.0,-0.21799332291389617
144,0.1337,873.992,917.999,1.60275,1.1508e-34,-2.12564e-16,-1.02649e-14,0.125481,0.125481,-0.247635,0.0,0.0,0.0,0.22156,0.13369362857695055,0.0,0.0,0.13369362857695055,0.0,-0.21935517335461752
145,0.1347,874.762,918.82,1.3614,-5.87247e-36,-1.52852e-16,-4.37291e-15,0.126363,0.126363,-0.249397,0.0,0.0,0.0,0.22315,0.13469398745076866,0.0,0.0,0.13469398745076866,0.0,-0.22072945843845238
146,0.1357,874.223,918.331,-0.18645,8.43124e-35,-1.0743e-16,-6.46579e-15,0.127244,0.127244,-0.251164,0.0,0.0,0.0,0.224742,0.13569409333566806,0.0,0.0,0.13569409333566806,0.0,-0.2221052136477054
147,0.1367,876.902,921.058,1.49772,-1.42053e-33,3.21671e-15,-4.77859e-15,0.128124,0.128124,-0.252911,0.0,0.0,0.0,0.226323,0.1366939440075754,0.0,0.0,0.1366939440075754,0.0,-0.2234630094594876
148,0.1377,875.005,919.212,-1.39631,-1.12068e-33,2.44488e-15,-6.76646e-15,0.129003,0.129003,-0.254683,0.0,0.0,0.0,0.227917,0.1376935372412238,0.0,0.0,0.1376935372412238,0.0,-0.2248378145696589
149,0.1387,875.647,919.902,-1.74105,-8.93266e-34,1.86161e-15,1.57228e-15,0.129882,0.129882,-0.256439,0.0,0.0,0.0,0.229502,0.1386940095036009,0.0,0.0,0.1386940095036009,0.0,-0.22619780494625896
150,0.1397,880.047,924.348,1.68728,-7.13262e-34,1.42095e-15,1.32775e-15,0.13076,0.13076,-0.258172,0.0,0.0,0.0,0.231071,0.13969422187292113,0.0,0.0,0.13969422187292113,0.0,-0.22753764284542088
151,0.1407,880.808,925.157,1.47537,1.19869e-33,-2.20974e-15,-5.43592e-15,0.131637,0.131637,-0.259924,0.0,0.0,0.0,0.232653,0.140694172119596,0.0,0.0,0.140694172119596,0.0,-0.22888981204905923
152,0.1417,880.03,924.427,-0.272915,1.03768e-33,-1.67499e-15,-7.27565e-15,0.132513,0.132513,-0.261683,0.0,0.0,0.0,0.234238,0.14169385801286616,0.0,0.0,0.14169385801286616,0.0,-0.23024500263012648
153,0.1427,882.905,927.348,1.64621,5.45967e-34,-1.27063e-15,4.49132e-15,0.133389,0.133389,-0.26342,0.0,0.0,0.0,0.235809,0.14269442001465826,0.0,0.0,0.14269442001465826,0.0,-0.23158090649216645
154,0.1437,880.61,925.103,-1.60848,-9.71643e-34,2.33253e-15,3.54843e-15,0.134263,0.134263,-0.265185,0.0,0.0,0.0,0.237397,0.14369357150334938,0.0,0.0,0.14369357150334938,0.0,-0.2329359699968876
155,0.1447,884.259,928.796,1.09738,6.28982e-34,-1.52013e-15,2.83921e-15,0.135137,0.135137,-0.266914,0.0,0.0,0.0,0.238962,0.14469359663216652,0.0,0.0,0.14469359663216652,0.0,-0.2342610778189398
156,0.1457,882.368,926.953,-1.74069,5.90479e-34,-1.15101e-15,-9.97916e-16,0.136011,0.136011,-0.268674,0.0,0.0,0.0,0.240546,0.1456944961650053,0.0,0.0,0.1456944961650053,0.0,-0.23560759304100265
157,0.1467,886.07,930.699,1.02992,4.67889e-34,-8.7246e-16,-6.25202e-16,0.136883,0.136883,-0.2704,0.0,0.0,0.0,0.242109,0.1466939774761804,0.0,0.0,0.1466939774761804,0.0,-0.23692579639866385
158,0.1477,884.241,928.917,-1.73478,4.61616e-34,-6.57537e-16,-3.63234e-15,0.137755,0.137755,-0.272156,0.0,0.0,0.0,0.243689,0.14769433071516413,0.0,0.0,0.14769433071516413,0.0,-0.23826457890513186
159,0.1487,887.899,932.619,1.0041,8.57989e-35,-4.95164e-16,7.28355e-15,0.138626,0.138626,-0.273879,0.0,0.0,0.0,0.24525,0.1486944079476269,0.0,0.0,0.1486944079476269,0.0,-0.23957591899177588
160,0.1497,886.121,930.887,-1.69772,-1.25167e-33,2.93222e-15,5.68088e-15,0.139496,0.139496,-0.275632,0.0,0.0,0.0,0.246827,0.14969420693203728,0.0,0.0,0.14969420693203728,0.0,-0.24090777469319402
161,0.1507,887.031,931.842,-1.70131,8.6992e-34,-1.06284e-15,-5.44608e-15,0.140365,0.140365,-0.277367,0.0,0.0,0.0,0.248394,0.15069372542574677,0.0,0.0,0.15069372542574677,0.0,-0.2422236578453748
162,0.1517,891.059,935.913,1.42473,1.45376e-33,-4.12199e-15,5.90441e-15,0.141234,0.141234,-0.279084,0.0,0.0,0.0,0.249949,0.15169411287853563,0.0,0.0,0.15169411287853563,0.0,-0.24352364346782462
163,0.1527,891.774,936.672,1.23712,9.80663e-34,-3.14153e-15,7.94568e-15,0.142102,0.142102,-0.280818,0.0,0.0,0.0,0.251514,0.15269421735106325,0.0,0.0,0.15269421735106325,0.0,-0.24483423685719663
164,0.1537,891.282,936.225,-0.154429,-4.40018e-34,9.20396e-16,-4.19299e-16,0.142969,0.142969,-0.282557,0.0,0.0,0.0,0.253082,0.15369403659652026,0.0,0.0,0.15369403659652026,0.0,-0.246146328924589
165,0.1547,893.657,938.642,1.33141,-4.51146e-34,7.15154e-16,3.11953e-15,0.143835,0.143835,-0.284278,0.0,0.0,0.0,0.254639,0.15469356836700232,0.0,0.0,0.15469356836700232,0.0,-0.24744259533531876
166,0.1557,892.054,937.085,-1.16186,-1.75984e-34,5.56758e-16,-4.10451e-15,0.144701,0.144701,-0.286021,0.0,0.0,0.0,0.256208,0.15569396610690833,0.0,0.0,0.15569396610690833,0.0,-0.2487531604023966
167,0.1567,892.669,937.742,-1.42891,1.07513e-33,-2.88033e-15,3.03182e-16,0.145566,0.145566,-0.287749,0.0,0.0,0.0,0.257768,0.1566940738718403,0.0,0.0,0.1566940738718403,0.0,-0.25005019398146544
168,0.1577,896.372,941.486,1.40281,8.56126e-34,-2.19833e-15,3.61316e-16,0.14643,0.14643,-0.289458,0.0,0.0,0.0,0.259316,0.15769388940978146,0.0,0.0,0.15769388940978146,0.0,-0.25133076364149876
169,0.1587,896.955,942.112,1.11449,-7.34189e-34,1.64745e-15,7.03564e-15,0.147294,0.147294,-0.291184,0.0,0.0,0.0,0.260873,0.15869456916163416,0.0,0.0,0.15869456916163416,0.0,-0.252621852213495
170,0.1597,896.677,941.878,-0.0307858,-5.95136e-34,1.27427e-15,5.50984e-15,0.148156,0.148156,-0.292913,0.0,0.0,0.0,0.262432,0.15969379448449317,0.0,0.0,0.15969379448449317,0.0,-0.2539129525531352
171,0.1607,898.671,943.913,1.10382,2.8992e-33,-5.65965e-15,-2.29443e-15,0.149018,0.149018,-0.294627,0.0,0.0,0.0,0.263982,0.16069388151092157,0.0,0.0,0.16069388151092157,0.0,-0.25519065045255807
172,0.1617,897.597,942.882,-0.829605,-4.10768e-34,2.31693e-15,1.6842e-15,0.149879,0.149879,-0.296358,0.0,0.0,0.0,0.265541,0.16169366928977746,0.0,0.0,0.16169366928977746,0.0,-0.25647880022135294
173,0.1627,898.16,943.487,-1.11794,-2.37683e-34,1.79157e-15,-1.90568e-15,0.15074,0.15074,-0.298078,0.0,0.0,0.0,0.267093,0.1626943182565994,0.0,0.0,0.1626943182565994,0.0,-0.25775655749870396
174,0.1637,901.343,946.71,1.22245,1.21679e-33,-1.94092e-15,-1.33896e-15,0.151599,0.151599,-0.299781,0.0,0.0,0.0,0.268635,0.16369350176385833,0.0,0.0,0.16369350176385833,0.0,-0.2590195223614645
175,0.1647,899.399,944.808,-1.56832,7.83058e-34,-1.47566e-15,2.41941e-15,0.152458,0.152458,-0.301512,0.0,0.0,0.0,0.270193,0.1646935439384949,0.0,0.0,0.1646935439384949,0.0,-0.260301050086018
176,0.1657,902.806,948.343,1.04994,8.11355e-34,-1.12154e-15,-1.34543e-15,0.153317,0.153317,-0.303211,0.0,0.0,0.0,0.271732,0.16569444551842105,0.0,0.0,0.16569444551842105,0.0,-0.26155673159842274
177,0.1667,900.896,946.459,-1.70513,-7.69048e-34,2.47971e-15,2.41624e-15,0.154174,0.154174,-0.304939,0.0,0.0,0.0,0.273287,0.16669387385210221,0.0,0.0,0.16669387385210221,0.0,-0.26283165971108846
178,0.1677,904.444,950.12,1.05676,2.48764e-33,-4.74969e-15,-1.34932e-15,0.155031,0.155031,-0.306634,0.0,0.0,0.0,0.274822,0.1676941590629848,0.0,0.0,0.1676941590629848,0.0,-0.2640801016943969
179,0.1687,905.225,950.912,0.999726,-9.25212e-34,3.02773e-15,-4.24002e-15,0.155887,0.155887,-0.308344,0.0,0.0,0.0,0.276366,0.16869413319100968,0.0,0.0,0.16869413319100968,0.0,-0.26533744938184256
180,0.1697,904.954,950.66,-0.102796,7.57962e-34,-9.88564e-16,-3.12926e-15,0.156742,0.156742,-0.310058,0.0,0.0,0.0,0.277912,0.16969379396897244,0.0,0.0,0.16969379396897244,0.0,-0.26659558246553783
181,0.1707,907.011,952.825,1.17667,4.14657e-34,-7.4669e-16,1.05571e-15,0.157597,0.157597,-0.311758,0.0,0.0,0.0,0.279448,0.1706943098223932,0.0,0.0,0.1706943098223932,0.0,-0.26784131080624385
182,0.1717,905.638,951.461,-1.02561,1.39015e-34,-5.58938e-16,4.27134e-15,0.158451,0.158451,-0.313475,0.0,0.0,0.0,0.280995,0.17169450978757816,0.0,0.0,0.17169450978757816,0.0,-0.26909734865851753
183,0.1727,906.174,952.099,-1.26476,1.43204e-33,-3.75281e-15,3.41555e-15,0.159304,0.159304,-0.315181,0.0,0.0,0.0,0.282535,0.17269439159339028,0.0,0.0,0.17269439159339028,0.0,-0.2703432055636005
184,0.1737,909.461,955.473,1.24953,1.14912e-33,-2.8792e-15,2.75936e-15,0.160156,0.160156,-0.316869,0.0,0.0,0.0,0.284063,0.17369395296770773,0.0,0.0,0.17369395296770773,0.0,-0.27157382729566193
185,0.1747,907.332,953.426,-1.66009,-1.90635e-33,4.4747e-15,-4.41534e-15,0.161008,0.161008,-0.318587,0.0,0.0,0.0,0.285609,0.17469436633121216,0.0,0.0,0.17469436633121216,0.0,-0.2728241890920454
186,0.1757,908.156,954.321,-1.61354,-8.81539e-34,1.27864e-16,6.73953e-15,0.161859,0.161859,-0.320286,0.0,0.0,0.0,0.287143,0.17569445671506267,0.0,0.0,0.17569445671506267,0.0,-0.2740586118556999
187,0.1767,911.817,958.043,1.27546,5.19116e-34,-3.2326e-15,5.32717e-15,0.162709,0.162709,-0.321968,0.0,0.0,0.0,0.288667,0.1766942218432559,0.0,0.0,0.1766942218432559,0.0,-0.27527861895695716
188,0.1777,912.351,958.637,1.0351,-7.25249e-34,8.67773e-16,8.89199e-16,0.163558,0.163558,-0.323666,0.0,0.0,0.0,0.290199,0.1776936594388272,0.0,0.0,0.1776936594388272,0.0,-0.27650815169325893
189,0.1787,912.064,958.405,-0.0258506,-5.92363e-34,6.88836e-16,8.06983e-16,0.164407,0.164407,-0.325367,0.0,0.0,0.0,0.291734,0.17869394591721677,0.0,0.0,0.17869394591721677,0.0,-0.27773776524442306
190,0.1797,913.867,960.259,1.00891,-4.85609e-34,5.51026e-16,7.43839e-16,0.165255,0.165255,-0.327055,0.0,0.0,0.0,0.29326,0.17969390230494042,0.0,0.0,0.17969390230494042,0.0,-0.2789559154886403
191,0.1807,912.916,959.358,-0.711839,-1.71841e-33,3.78967e-15,-2.64662e-15,0.166102,0.166102,-0.328758,0.0,0.0,0.0,0.294794,0.18069352632120195,0.0,0.0,0.18069352632120195,0.0,-0.280182808568585
192,0.1817,913.444,959.932,-0.948213,-1.10741e-33,-4.03037e-16,1.14599e-14,0.166949,0.166949,-0.33045,0.0,0.0,0.0,0.296321,0.1816939973776761,0.0,0.0,0.1816939973776761,0.0,-0.28139970946800763
193,0.1827,916.204,962.734,1.05267,-3.32949e-34,-2.9597e-16,-1.07141e-15,0.167795,0.167795,-0.332128,0.0,0.0,0.0,0.29784,0.18269413349738506,0.0,0.0,0.18269413349738506,0.0,-0.2826045096454767
194,0.1837,914.653,961.227,-1.25944,-1.59512e-33,3.13631e-15,-4.05406e-15,0.16864,0.16864,-0.33383,0.0,0.0,0.0,0.299372,0.18369393239573495,0.0,0.0,0.18369393239573495,0.0,-0.28382447828224944
195,0.1847,915.393,962.008,-1.27449,-2.70769e-33,5.7969e-15,-3.01541e-15,0.169485,0.169485,-0.335517,0.0,0.0,0.0,0.300895,0.18469457648119492,0.0,0.0,0.18469457648119492,0.0,-0.2850316478535566
196,0.1857,918.519,965.171,1.10228,-9.61011e-34,1.14779e-15,1.14039e-15,0.170328,0.170328,-0.337188,0.0,0.0,0.0,0.302409,0.18569369507848887,0.0,0.0,0.18569369507848887,0.0,-0.28622536234377516
197,0.1867,916.683,963.376,-1.48553,-5.88871e-34,8.99005e-16,-5.69209e-15,0.171171,0.171171,-0.338887,0.0,0.0,0.0,0.303938,0.18669365628787116,0.0,0.0,0.18669365628787116,0.0,-0.28743703584504565
198,0.1877,917.504,964.236,-1.40889,1.0318e-33,-2.65056e-15,-4.28212e-15,0.172014,0.172014,-0.340569,0.0,0.0,0.0,0.305457,0.18769446081996377,0.0,0.0,0.18769446081996377,0.0,-0.2886345593511571
199,0.1887,920.77,967.536,1.1183,-2.20357e-33,4.6801e-15,-3.19381e-15,0.172855,0.172855,-0.342236,0.0,0.0,0.0,0.306967,0.18869373199614592,0.0,0.0,0.18869373199614592,0.0,-0.2898194176869133
200,0.1897,918.822,965.628,-1.57041,-2.66674e-34,2.79249e-16,-2.34085e-15,0.173696,0.173696,-0.343931,0.0,0.0,0.0,0.308493,0.18969384391286903,0.0,0.0,0.18969384391286903,0.0,-0.29102215416680965
201,0.1907,919.678,966.52,-1.44955,-1.73627e-33,3.58721e-15,-1.68329e-15,0.174536,0.174536,-0.345609,0.0,0.0,0.0,0.310008,0.19069360658329138,0.0,0.0,0.19069360658329138,0.0,-0.292210821421382
202,0.1917,922.965,969.84,1.10947,4.90425e-34,-5.71556e-16,-7.90039e-15,0.175376,0.175376,-0.347271,0.0,0.0,0.0,0.311513,0.19169420940717186,0.0,0.0,0.19169420940717186,0.0,-0.29338619003430766
203,0.1927,921.008,967.922,-1.57791,2.97602e-34,-4.35841e-16,-2.62645e-15,0.176215,0.176215,-0.348962,0.0,0.0,0.0,0.313035,0.19269446039547922,0.0,0.0,0.19269446039547922,0.0,-0.29458006428179506
204,0.1937,921.872,968.821,-1.43801,-1.28453e-33,3.03415e-15,1.4617e-15,0.177053,0.177053,-0.350636,0.0,0.0,0.0,0.314547,0.19369435725155904,0.0,0.0,0.19369435725155904,0.0,-0.29575994941480066
205,0.1947,925.114,972.096,1.08636,-2.569e-33,5.73733e-15,1.27354e-15,0.17789,0.17789,-0.352294,0.0,0.0,0.0,0.316048,0.19469389767789314,0.0,0.0,0.19469389767789314,0.0,-0.2969266119881382
206,0.1957,923.206,970.225,-1.5424,-2.08139e-33,4.45692e-15,1.12588e-15,0.178727,0.178727,-0.35398,0.0,0.0,0.0,0.317567,0.1956942750697852,0.0,0.0,0.1956942750697852,0.0,-0.2981109950048829
207,0.1967,924.064,971.117,-1.39815,1.35829e-33,-3.27096e-15,1.01191e-15,0.179563,0.179563,-0.35565,0.0,0.0,0.0,0.319074,0.19669429343317701,0.0,0.0,0.19669429343317701,0.0,-0.2992821714387114
208,0.1977,927.227,974.311,1.05626,1.19329e-33,-2.54577e-15,-2.44594e-15,0.180398,0.180398,-0.357304,0.0,0.0,0.0,0.320572,0.19769395046692328,0.0,0.0,0.19769395046692328,0.0,-0.30044020077288913
209,0.1987,925.396,972.517,-1.48479,-4.6376e-34,1.39138e-15,4.96523e-15,0.181233,0.181233,-0.358986,0.0,0.0,0.0,0.322087,0.1986944425628825,0.0,0.0,0.1986944425628825,0.0,-0.30161587133906653
210,0.1997,926.24,973.394,-1.34451,4.32441e-34,-6.0017e-16,6.28988e-16,0.182067,0.182067,-0.360651,0.0,0.0,0.0,0.32359,0.19969457072345254,0.0,0.0,0.19969457072345254,0.0,-0.3027777134113545
211,0.2007,929.307,976.492,1.02357,3.97156e-34,-4.64917e-16,-2.74765e-15,0.1829,0.1829,-0.362302,0.0,0.0,0.0,0.325085,0.20069433264389458,0.0,0.0,0.20069433264389458,0.0,-0.3039278776846448
212,0.2017,927.566,974.787,-1.41765,-4.41145e-34,1.32668e-15,1.36937e-15,0.183732,0.183732,-0.363979,0.0,0.0,0.0,0.326595,0.201693726018648,0.0,0.0,0.201693726018648,0.0,-0.3050942123887752
213,0.2027,928.392,975.646,-1.2857,-3.57941e-34,1.03654e-15,-2.16818e-15,0.184564,0.184564,-0.36564,0.0,0.0,0.0,0.328095,0.20269395123468703,0.0,0.0,0.20269395123468703,0.0,-0.306247492837434
214,0.2037,931.357,978.642,0.99076,-2.91024e-34,8.11004e-16,-1.55169e-15,0.185395,0.185395,-0.367287,0.0,0.0,0.0,0.329587,0.2036938052899846,0.0,0.0,0.2036938052899846,0.0,-0.30738916279344664
215,0.2047,929.709,977.029,-1.34822,-2.36801e-34,6.33278e-16,6.18398e-16,0.186226,0.186226,-0.36896,0.0,0.0,0.0,0.331093,0.20469449056932798,0.0,0.0,0.20469449056932798,0.0,-0.30854693198012584
216,0.2057,930.516,977.868,-1.22653,-1.91897e-34,4.95284e-16,-4.44064e-15,0.187055,0.187055,-0.370617,0.0,0.0,0.0,0.332589,0.20569359637414708,0.0,0.0,0.20569359637414708,0.0,-0.30969172099420417
217,0.2067,933.38,980.763,0.959096,-1.01282e-33,2.07987e-15,-3.32267e-15,0.187884,0.187884,-0.37226,0.0,0.0,0.0,0.334077,0.20669353078108665,0.0,0.0,0.20669353078108665,0.0,-0.3108249662806797
218,0.2077,931.822,979.239,-1.28036,-1.20727e-35,-6.71364e-17,9.3111e-16,0.188713,0.188713,-0.373928,0.0,0.0,0.0,0.33558,0.20769429447734256,0.0,0.0,0.20769429447734256,0.0,-0.3119735520500899
219,0.2087,932.609,980.058,-1.1695,-9.856e-36,-5.25598e-17,-8.18353e-16,0.189541,0.189541,-0.375581,0.0,0.0,0.0,0.337072,0.20869467945539655,0.0,0.0,0.20869467945539655,0.0,-0.31310992030143947
220,0.2097,935.378,982.857,0.929137,-8.04935e-36,-4.12031e-17,-4.94318e-16,0.190367,0.190367,-0.377221,0.0,0.0,0.0,0.338557,0.20969347370586444,0.0,0.0,0.20969347370586444,0.0,-0.31423549680713125
221,0.2107,933.905,981.418,-1.21593,-6.58255e-36,-3.22418e-17,-1.92724e-15,0.191194,0.191194,-0.378884,0.0,0.0,0.0,0.340055,0.2106943039949023,0.0,0.0,0.2106943039949023,0.0,-0.31537497543685156
222,0.2117,934.672,982.216,-1.11573,-5.34782e-36,-2.52665e-17,2.0244e-15,0.192019,0.192019,-0.380533,0.0,0.0,0.0,0.341544,0.2116935389234309,0.0,0.0,0.2116935389234309,0.0,-0.3165029917972584
223,0.2127,937.35,984.924,0.901054,8.56361e-34,-1.71506e-15,3.54367e-17,0.192844,0.192844,-0.382169,0.0,0.0,0.0,0.343026,0.21269359856092085,0.0,0.0,0.21269359856092085,0.0,-0.31762027871278
224,0.2137,935.957,983.564,-1.15565,6.73272e-34,-1.33923e-15,1.86513e-15,0.193669,0.193669,-0.383828,0.0,0.0,0.0,0.34452,0.21369448358803855,0.0,0.0,0.21369448358803855,0.0,-0.3187514081391043
225,0.2147,936.705,984.343,-1.06556,5.71436e-34,-1.04633e-15,-8.89353e-17,0.194492,0.194492,-0.385473,0.0,0.0,0.0,0.346005,0.21469376529605078,0.0,0.0,0.21469376529605078,0.0,-0.31987114084006685
226,0.2157,939.298,986.966,0.874822,-3.49163e-34,8.79213e-16,1.771e-15,0.195315,0.195315,-0.387106,0.0,0.0,0.0,0.347483,0.2156938697514228,0.0,0.0,0.2156938697514228,0.0,-0.32098088491442645
227,0.2167,937.978,985.678,-1.09963,6.22333e-34,-1.0046e-15,-1.85405e-15,0.196137,0.196137,-0.38876,0.0,0.0,0.0,0.348974,0.21669358093736513,0.0,0.0,0.21669358093736513,0.0,-0.3221030542409169
228,0.2177,938.708,986.439,-1.01898,4.5912e-34,-7.84609e-16,2.08506e-15,0.196959,0.196959,-0.390401,0.0,0.0,0.0,0.350456,0.2176941142237394,0.0,0.0,0.2176941142237394,0.0,-0.3232145708800733
229,0.2187,941.222,988.982,0.850329,3.73915e-34,-6.12646e-16,1.77881e-15,0.19778,0.19778,-0.39203,0.0,0.0,0.0,0.35193,0.21869425159172873,0.0,0.0,0.21869425159172873,0.0,-0.32431615685872894
230,0.2197,939.97,987.762,-1.04769,3.03667e-34,-4.76672e-16,1.53705e-15,0.1986,0.1986,-0.393679,0.0,0.0,0.0,0.353417,0.2196939907150559,0.0,0.0,0.2196939907150559,0.0,-0.3254294413607267
231,0.2207,940.683,988.505,-0.975772,1.13182e-33,-2.06842e-15,-3.47354e-16,0.19942,0.19942,-0.395316,0.0,0.0,0.0,0.354895,0.22069454996066828,0.0,0.0,0.22069454996066828,0.0,-0.32653281001158063
232,0.2217,943.122,990.974,0.827427,8.75329e-34,-1.61925e-15,1.57056e-15,0.200238,0.200238,-0.396942,0.0,0.0,0.0,0.356366,0.22169348661192534,0.0,0.0,0.22169348661192534,0.0,-0.32762697786296835
233,0.2227,941.933,989.816,-0.999525,-1.02481e-34,4.33571e-16,1.3748e-15,0.201057,0.201057,-0.398587,0.0,0.0,0.0,0.357849,0.22269446342151267,0.0,0.0,0.22269446342151267,0.0,-0.3287321222539099
234,0.2237,942.63,990.543,-0.935654,8.71446e-34,-1.35433e-15,-2.17303e-15,0.201874,0.201874,-0.40022,0.0,0.0,0.0,0.359324,0.22369381297683355,0.0,0.0,0.22369381297683355,0.0,-0.32982740815393297
235,0.2247,945.0,992.941,0.805968,6.61671e-34,-1.05834e-15,1.397e-16,0.202691,0.202691,-0.401842,0.0,0.0,0.0,0.360791,0.22469397933435942,0.0,0.0,0.22469397933435942,0.0,-0.3309135470011767
236,0.2257,943.869,991.842,-0.954789,5.37261e-34,-8.2397e-16,2.56029e-16,0.203507,0.203507,-0.403483,0.0,0.0,0.0,0.36227,0.22569373746733978,0.0,0.0,0.22569373746733978,0.0,-0.3320106174780315
237,0.2267,944.55,992.553,-0.898341,4.35962e-34,-6.40473e-16,3.47087e-16,0.204323,0.204323,-0.405112,0.0,0.0,0.0,0.363742,0.22669431173589483,0.0,0.0,0.22669431173589483,0.0,-0.3330978863612194
238,0.2277,946.855,994.886,0.785813,3.05687e-34,-4.96582e-16,2.11956e-15,0.205138,0.205138,-0.40673,0.0,0.0,0.0,0.365206,0.22769447511117402,0.0,0.0,0.22769447511117402,0.0,-0.3341760615021828
239,0.2287,945.778,993.839,-0.913155,2.46556e-34,-3.82561e-16,1.8084e-15,0.205952,0.205952,-0.408367,0.0,0.0,0.0,0.366681,0.2286942252570212,0.0,0.0,0.2286942252570212,0.0,-0.3352651236489337
240,0.2297,946.445,994.535,-0.863559,1.10994e-33,-1.99597e-15,-1.35797e-16,0.206765,0.206765,-0.409992,0.0,0.0,0.0,0.368149,0.22969355983661766,0.0,0.0,0.22969355983661766,0.0,-0.33634444064044267
241,0.2307,948.688,996.807,0.766835,8.33425e-34,-1.56241e-15,1.7406e-15,0.207578,0.207578,-0.411607,0.0,0.0,0.0,0.36961,0.23069370720558147,0.0,0.0,0.23069370720558147,0.0,-0.33741537935302723
242,0.2317,947.661,995.81,-0.87432,6.06506e-34,-1.21861e-15,3.21182e-15,0.208391,0.208391,-0.413239,0.0,0.0,0.0,0.371081,0.23169466802497918,0.0,0.0,0.23169466802497918,0.0,-0.33849583556184726
243,0.2327,948.314,996.492,-0.831062,5.64086e-34,-9.48861e-16,9.65357e-16,0.209202,0.209202,-0.41486,0.0,0.0,0.0,0.372545,0.23269397756599397,0.0,0.0,0.23269397756599397,0.0,-0.33956726518408165
244,0.2337,950.5,998.705,0.748925,1.39395e-33,-2.44311e-15,-8.02029e-16,0.210013,0.210013,-0.416471,0.0,0.0,0.0,0.374003,0.2336940978757689,0.0,0.0,0.2336940978757689,0.0,-0.34063036576243033
245,0.2347,949.519,997.755,-0.838015,1.13457e-33,-1.91024e-15,-4.86204e-16,0.210823,0.210823,-0.418099,0.0,0.0,0.0,0.375471,0.23469379491769193,0.0,0.0,0.23469379491769193,0.0,-0.3417029462095893
246,0.2357,952.543,1000.8,1.58589,9.23992e-34,-1.49358e-15,-2.39469e-16,0.211633,0.211633,-0.419703,0.0,0.0,0.0,0.376923,0.23569430204225794,0.0,0.0,0.23569430204225794,0.0,-0.3427580082978676
247,0.2367,952.418,1000.71,0.860122,7.50206e-34,-1.1626e-15,-4.3624e-17,0.212442,0.212442,-0.421323,0.0,0.0,0.0,0.378385,0.2366943832108983,0.0,0.0,0.2366943832108983,0.0,-0.3438218783570087
248,0.2377,952.434,1000.75,0.277295,1.9117e-33,-4.31445e-15,3.51937e-15,0.21325,0.21325,-0.422941,0.0,0.0,0.0,0.379846,0.2376940360779045,0.0,0.0,0.2376940360779045,0.0,-0.3448827161086533
249,0.2387,953.25,1001.6,0.49904,1.93287e-35,3.00571e-17,1.20924e-15,0.214058,0.214058,-0.424554,0.0,0.0,0.0,0.381302,0.23869449699083378,0.0,0.0,0.23869449699083378,0.0,-0.34593856851368177
250,0.2397,953.322,1001.7,-0.0229688,7.91795e-36,4.0339e-17,1.09533e-15,0.214865,0.214865,-0.426169,0.0,0.0,0.0,0.38276,0.23969452690770465,0.0,0.0,0.23969452690770465,0.0,-0.34699402521484024
251,0.2407,954.552,1002.96,0.617577,1.10448e-33,-1.66055e-15,-2.4081e-15,0.215671,0.215671,-0.427776,0.0,0.0,0.0,0.384213,0.2406941234796962,0.0,0.0,0.2406941234796962,0.0,-0.3480425630904873
252,0.2417,954.229,1002.66,-0.295297,3.11752e-35,4.16012e-16,-1.75258e-15,0.216477,0.216477,-0.429391,0.0,0.0,0.0,0.38567,0.24169452605129904,0.0,0.0,0.24169452605129904,0.0,-0.3490946245827734
253,0.2427,956.059,1004.52,0.950805,-7.9144e-35,3.45867e-16,4.70963e-16,0.217282,0.217282,-0.430993,0.0,0.0,0.0,0.387118,0.24269449257729692,0.0,0.0,0.24269449257729692,0.0,-0.3501365401969535
254,0.2437,954.927,1003.41,-0.767292,1.0564e-33,-1.41839e-15,-2.8959e-15,0.218086,0.218086,-0.43261,0.0,0.0,0.0,0.388576,0.24369402070579405,0.0,0.0,0.24369402070579405,0.0,-0.35118652027378194
255,0.2447,955.479,1004.0,-0.796,7.37716e-34,-1.10225e-15,-4.28782e-16,0.21889,0.21889,-0.434216,0.0,0.0,0.0,0.390026,0.24469435277804874,0.0,0.0,0.24469435277804874,0.0,-0.3522276784484253
256,0.2457,957.603,1006.14,0.749994,5.96985e-34,-8.52975e-16,-1.91372e-16,0.219693,0.219693,-0.435811,0.0,0.0,0.0,0.39147,0.24569424374582471,0.0,0.0,0.24569424374582471,0.0,-0.3532600517647151
257,0.2467,956.616,1005.19,-0.815525,4.80574e-34,-6.54457e-16,-2.44824e-18,0.220495,0.220495,-0.437424,0.0,0.0,0.0,0.392924,0.24669369125418905,0.0,0.0,0.24669369125418905,0.0,-0.35430240241941924
258,0.2477,959.538,1008.13,1.53373,1.42208e-33,-2.21265e-15,-1.56624e-15,0.221297,0.221297,-0.439012,0.0,0.0,0.0,0.394363,0.24769394064096528,0.0,0.0,0.24769394064096528,0.0,-0.3553269564931375
259,0.2487,959.383,1008.01,0.806195,1.85771e-33,-3.44019e-15,6.22901e-16,0.222098,0.222098,-0.440617,0.0,0.0,0.0,0.395811,0.24869374385514975,0.0,0.0,0.24869374385514975,0.0,-0.35636082682508496
260,0.2497,959.442,1008.09,0.294617,7.6728e-34,-9.85409e-16,-1.06902e-15,0.222899,0.222899,-0.44222,0.0,0.0,0.0,0.397257,0.24969434823253178,0.0,0.0,0.24969434823253178,0.0,-0.3573917539108684
261,0.2507,960.157,1008.83,0.440857,4.52122e-33,-7.61118e-15,-2.40622e-15,0.223699,0.223699,-0.443817,0.0,0.0,0.0,0.3987,0.25069450371997126,0.0,0.0,0.25069450371997126,0.0,-0.3584171802589958
262,0.2517,960.32,1009.02,0.0376916,4.33057e-33,-7.70905e-15,-3.82362e-17,0.224498,0.224498,-0.445416,0.0,0.0,0.0,0.400144,0.25169420795710185,0.0,0.0,0.25169420795710185,0.0,-0.3594422514249559
263,0.2527,961.358,1010.09,0.512415,1.76059e-33,-2.64376e-15,1.21612e-16,0.225296,0.225296,-0.447009,0.0,0.0,0.0,0.401584,0.25269345858302406,0.0,0.0,0.25269345858302406,0.0,-0.3604618475944721
264,0.2537,961.245,1010.0,-0.162594,8.76274e-34,-3.4634e-16,-3.17607e-15,0.226094,0.226094,-0.448607,0.0,0.0,0.0,0.403026,0.2536935069291939,0.0,0.0,0.2536935069291939,0.0,-0.36148301343320655
265,0.2547,962.712,1011.5,0.745543,7.04733e-34,-2.42279e-16,-2.36e-15,0.226892,0.226892,-0.450195,0.0,0.0,0.0,0.404462,0.2546943536324462,0.0,0.0,0.2546943536324462,0.0,-0.36249617374567566
266,0.2557,962.032,1010.84,-0.493569,5.6286e-34,-1.59352e-16,-1.7105e-15,0.227688,0.227688,-0.451794,0.0,0.0,0.0,0.405904,0.2556934879406365,0.0,0.0,0.2556934879406365,0.0,-0.36351472781285965
267,0.2567,964.268,1013.1,1.18888,9.07586e-34,-1.8118e-15,2.23272e-15,0.228485,0.228485,-0.453375,0.0,0.0,0.0,0.407335,0.2566946745704004,0.0,0.0,0.2566946745704004,0.0,-0.3645202159803511
268,0.2577,962.541,1011.41,-1.09384,1.16279e-33,-1.40099e-15,-1.50334e-15,0.22928,0.22928,-0.454978,0.0,0.0,0.0,0.408778,0.2576941440731704,0.0,0.0,0.2576941440731704,0.0,-0.36553807404293936
269,0.2587,963.203,1012.09,-0.982595,7.22401e-34,-1.07673e-15,6.81596e-16,0.230075,0.230075,-0.456565,0.0,0.0,0.0,0.410212,0.2586944084701237,0.0,0.0,0.2586944084701237,0.0,-0.3665441665738506
270,0.2597,965.486,1014.4,0.752644,1.01196e-33,-8.2005e-16,-2.73781e-15,0.230869,0.230869,-0.458142,0.0,0.0,0.0,0.411639,0.2596942086986138,0.0,0.0,0.2596942086986138,0.0,-0.36754233915721624
271,0.2607,964.379,1013.32,-0.903105,1.5149e-33,-2.33154e-15,-2.93903e-16,0.231662,0.231662,-0.459737,0.0,0.0,0.0,0.413077,0.2606935423895511,0.0,0.0,0.2606935423895511,0.0,-0.3685503050597624
272,0.2617,965.051,1014.02,-0.776837,9.88267e-34,-1.81395e-15,1.64285e-15,0.232455,0.232455,-0.461321,0.0,0.0,0.0,0.414508,0.26169366886640333,0.0,0.0,0.26169366886640333,0.0,-0.36954972962332566
273,0.2627,967.01,1016.0,0.639883,1.13979e-33,-3.12412e-15,4.89859e-15,0.233248,0.233248,-0.462895,0.0,0.0,0.0,0.415933,0.26269458875809915,0.0,0.0,0.26269458875809915,0.0,-0.3705412777957754
274,0.2637,966.222,1015.24,-0.690381,1.45132e-33,-2.4399e-15,6.0623e-16,0.234039,0.234039,-0.464485,0.0,0.0,0.0,0.417366,0.2636937753039881,0.0,0.0,0.2636937753039881,0.0,-0.37154132191831846
275,0.2647,968.765,1017.81,1.31552,1.17729e-33,-1.89971e-15,6.3719e-16,0.23483,0.23483,-0.466054,0.0,0.0,0.0,0.418787,0.2646937525191031,0.0,0.0,0.2646937525191031,0.0,-0.37252660043110863
276,0.2657,966.683,1015.75,-1.30669,2.91237e-35,2.52683e-16,6.62118e-16,0.235621,0.235621,-0.467648,0.0,0.0,0.0,0.420222,0.2656945210291113,0.0,0.0,0.2656945210291113,0.0,-0.3735259962999057
277,0.2667,967.431,1016.53,-1.09384,-2.40164e-34,2.42144e-16,2.40122e-15,0.23641,0.23641,-0.469225,0.0,0.0,0.0,0.421647,0.2666935480705448,0.0,0.0,0.2666935480705448,0.0,-0.3745131672148889
278,0.2677,969.803,1018.92,0.745914,2.64968e-34,2.33806e-16,-1.37923e-15,0.2372,0.2372,-0.470791,0.0,0.0,0.0,0.423065,0.2676946313493511,0.0,0.0,0.2676946313493511,0.0,-0.3754919130370322
279,0.2687,968.644,1017.79,-0.946014,8.5072e-34,-1.49351e-15,7.81035e-16,0.237988,0.237988,-0.472377,0.0,0.0,0.0,0.424494,0.26869396840594373,0.0,0.0,0.26869396840594373,0.0,-0.3764815978354562
280,0.2697,969.341,1018.51,-0.779049,-2.25632e-35,5.7677e-16,-9.43943e-16,0.238776,0.238776,-0.47395,0.0,0.0,0.0,0.425915,0.26969409325048455,0.0,0.0,0.26969409325048455,0.0,-0.3774616212915378
281,0.2707,971.257,1020.45,0.611056,6.14341e-34,-1.22332e-15,1.12821e-15,0.239563,0.239563,-0.475515,0.0,0.0,0.0,0.427331,0.27069373580962397,0.0,0.0,0.27069373580962397,0.0,-0.3784351318834829
282,0.2717,970.513,1019.73,-0.660922,1.71968e-33,-2.65268e-15,-6.67028e-16,0.24035,0.24035,-0.477094,0.0,0.0,0.0,0.428755,0.27169416539711255,0.0,0.0,0.27169416539711255,0.0,-0.3794158083624035
283,0.2727,972.952,1022.2,1.25627,1.66983e-33,-3.79551e-15,3.0732e-15,0.241136,0.241136,-0.478654,0.0,0.0,0.0,0.430168,0.27269410993783905,0.0,0.0,0.27269410993783905,0.0,-0.3803831649670266
284,0.2737,970.994,1020.26,-1.22694,4.58779e-34,-1.25004e-15,2.59803e-15,0.241921,0.241921,-0.480238,0.0,0.0,0.0,0.431594,0.27369356704973247,0.0,0.0,0.27369356704973247,0.0,-0.381363861117316
285,0.2747,971.72,1021.02,-1.02048,-5.75002e-35,7.75844e-16,-1.22399e-15,0.242706,0.242706,-0.481805,0.0,0.0,0.0,0.43301,0.2746938090434845,0.0,0.0,0.2746938090434845,0.0,-0.38233250481639913
286,0.2757,973.961,1023.28,0.70269,1.82134e-33,-2.78905e-15,-8.19238e-16,0.24349,0.24349,-0.483362,0.0,0.0,0.0,0.434419,0.2756935608412707,0.0,0.0,0.2756935608412707,0.0,-0.3832934648049151
287,0.2767,972.912,1022.26,-0.864118,8.51389e-34,-2.173e-15,2.95062e-15,0.244274,0.244274,-0.484937,0.0,0.0,0.0,0.435839,0.27669409675179835,0.0,0.0,0.27669409675179835,0.0,-0.384264013090442
288,0.2777,975.778,1025.14,1.48923,4.7306e-35,4.27243e-17,7.80537e-16,0.245057,0.245057,-0.486488,0.0,0.0,0.0,0.437244,0.27769413969527457,0.0,0.0,0.27769413969527457,0.0,-0.38521827938133146
289,0.2787,975.551,1024.94,0.748291,3.04496e-34,8.29197e-17,-9.46944e-16,0.245839,0.245839,-0.488055,0.0,0.0,0.0,0.438658,0.27869368728468635,0.0,0.0,0.27869368728468635,0.0,-0.38618088793676486
290,0.2797,975.619,1025.03,0.303961,-3.57168e-34,1.15004e-16,2.85189e-15,0.246621,0.246621,-0.48962,0.0,0.0,0.0,0.440071,0.2796940168260167,0.0,0.0,0.2796940168260167,0.0,-0.38714076354856497
291,0.2807,976.198,1025.64,0.373669,9.17903e-34,-1.58707e-15,7.01914e-16,0.247402,0.247402,-0.49118,0.0,0.0,0.0,0.441481,0.280693848236502,0.0,0.0,0.280693848236502,0.0,-0.38809607861793727
292,0.2817,976.424,1025.89,0.0909337,4.18676e-34,-1.21641e-15,2.44044e-15,0.248183,0.248183,-0.492742,0.0,0.0,0.0,0.44289,0.28169446082032734,0.0,0.0,0.28169446082032734,0.0,-0.38905112645659334
293,0.2827,977.235,1026.72,0.396209,-8.47732e-34,8.08169e-16,3.82682e-15,0.248963,0.248963,-0.494298,0.0,0.0,0.0,0.444297,0.28269457249261376,0.0,0.0,0.28269457249261376,0.0,-0.3900010236921252
294,0.2837,977.31,1026.82,-0.0343518,8.27375e-34,-1.03342e-15,-2.49473e-16,0.249742,0.249742,-0.495858,0.0,0.0,0.0,0.445705,0.283694180861495,0.0,0.0,0.283694180861495,0.0,-0.3909518802342289
295,0.2847,978.372,1027.91,0.525709,6.59134e-34,-7.74824e-16,-4.60594e-17,0.250521,0.250521,-0.497411,0.0,0.0,0.0,0.447109,0.2846945682286759,0.0,0.0,0.2846945682286759,0.0,-0.39189699789041155
296,0.2857,978.129,1027.69,-0.219274,2.03451e-34,-5.67438e-16,1.84419e-15,0.251299,0.251299,-0.49897,0.0,0.0,0.0,0.448516,0.2856944495061404,0.0,0.0,0.2856944495061404,0.0,-0.3928442918631836
297,0.2867,979.61,1029.19,0.763536,6.79748e-34,-2.13334e-15,3.35419e-15,0.252076,0.252076,-0.500518,0.0,0.0,0.0,0.449916,0.2866938222994577,0.0,0.0,0.2866938222994577,0.0,-0.39378344180978
298,0.2877,978.811,1028.42,-0.534903,8.76952e-34,-1.65103e-15,1.09998e-15,0.252853,0.252853,-0.502078,0.0,0.0,0.0,0.451322,0.2876939719071887,0.0,0.0,0.2876939719071887,0.0,-0.3947284023796742
299,0.2887,981.019,1030.65,1.17838,3.60348e-34,-1.2676e-15,2.76053e-15,0.253629,0.253629,-0.503619,0.0,0.0,0.0,0.452718,0.28869361023889817,0.0,0.0,0.28869361023889817,0.0,-0.39566040761713717
300,0.2897,979.258,1028.91,-1.07848,6.11245e-34,-9.5799e-16,6.25446e-16,0.254405,0.254405,-0.505182,0.0,0.0,0.0,0.454126,0.28969402459101,0.0,0.0,0.28969402459101,0.0,-0.3966042525930342
301,0.2907,979.934,1029.61,-0.895755,4.79083e-34,-7.11555e-16,6.499e-16,0.25518,0.25518,-0.50673,0.0,0.0,0.0,0.455524,0.2906939248713798,0.0,0.0,0.2906939248713798,0.0,-0.39753758662310157
302,0.2917,981.954,1031.65,0.634618,-6.53039e-34,-5.14692e-16,5.86513e-15,0.255955,0.255955,-0.508268,0.0,0.0,0.0,0.456917,0.29169460037482664,0.0,0.0,0.29169460037482664,0.0,-0.39846346163448276
303,0.2927,981.078,1030.8,-0.732444,-1.40007e-33,1.37584e-15,4.83271e-15,0.256728,0.256728,-0.509823,0.0,0.0,0.0,0.458318,0.29269346631286397,0.0,0.0,0.29269346631286397,0.0,-0.39939812406326625
304,0.2937,983.593,1033.34,1.29639,-3.60877e-34,-5.78157e-16,4.01267e-15,0.257502,0.257502,-0.511356,0.0,0.0,0.0,0.459707,0.2936943983665252,0.0,0.0,0.2936943983665252,0.0,-0.40031814136563815
305,0.2947,981.506,1031.28,-1.27889,-3.26594e-34,-4.06686e-16,3.34957e-15,0.258274,0.258274,-0.512915,0.0,0.0,0.0,0.461111,0.29469351605186933,0.0,0.0,0.29469351605186933,0.0,-0.4012523170041309
306,0.2957,982.269,1032.06,-1.0005,5.32063e-34,-2.00467e-15,2.82236e-15,0.259047,0.259047,-0.514456,0.0,0.0,0.0,0.462504,0.2956947010479254,0.0,0.0,0.2956947010479254,0.0,-0.40217427663128813
307,0.2967,984.384,1034.2,0.632838,1.14587e-33,-1.55057e-15,-1.06704e-15,0.259818,0.259818,-0.515989,0.0,0.0,0.0,0.463891,0.2966940668684517,0.0,0.0,0.2966940668684517,0.0,-0.4030900413522098
308,0.2977,983.456,1033.29,-0.778177,-2.71267e-34,5.50105e-16,1.02162e-15,0.260589,0.260589,-0.517537,0.0,0.0,0.0,0.465287,0.29769420349713416,0.0,0.0,0.29769420349713416,0.0,-0.40401334314823045
309,0.2987,986.042,1035.9,1.32956,2.11266e-34,-1.23907e-15,2.69582e-15,0.261359,0.261359,-0.519064,0.0,0.0,0.0,0.46667,0.2986938128340326,0.0,0.0,0.2986938128340326,0.0,-0.40492272028709586
310,0.2997,983.867,1033.75,-1.32643,-3.65082e-34,8.0007e-16,5.65958e-16,0.262129,0.262129,-0.520618,0.0,0.0,0.0,0.468069,0.2996941921665308,0.0,0.0,0.2996941921665308,0.0,-0.4058467522210021
311,0.3007,984.653,1034.56,-1.01673,5.22492e-34,-1.03749e-15,5.94598e-16,0.262898,0.262898,-0.522153,0.0,0.0,0.0,0.469456,0.30069404139306166,0.0,0.0,0.30069404139306166,0.0,-0.4067580778349934
312,0.3017,986.764,1036.69,0.619945,-7.66766e-34,9.6362e-16,2.35389e-15,0.263667,0.263667,-0.523679,0.0,0.0,0.0,0.470838,0.3016946597993597,0.0,0.0,0.3016946597993597,0.0,-0.40766267462532346
313,0.3027,985.848,1035.8,-0.771593,5.5751e-34,-2.64164e-15,3.75979e-15,0.264434,0.264434,-0.525222,0.0,0.0,0.0,0.472229,0.3026934425876606,0.0,0.0,0.3026934425876606,0.0,-0.4085759463480457
314,0.3037,988.397,1038.37,1.30769,3.13303e-34,-3.23247e-16,-3.20231e-16,0.265202,0.265202,-0.526743,0.0,0.0,0.0,0.473607,0.30369429542986537,0.0,0.0,0.30369429542986537,0.0,-0.40947481856803636
315,0.3047,986.265,1036.26,-1.29785,-1.34512e-34,-1.99295e-16,1.61771e-15,0.265969,0.265969,-0.52829,0.0,0.0,0.0,0.475,0.30469461252702734,0.0,0.0,0.30469461252702734,0.0,-0.4103876547628643
316,0.3057,987.045,1037.06,-0.987341,1.06001e-33,-3.57802e-15,3.17308e-15,0.266735,0.266735,-0.52982,0.0,0.0,0.0,0.476382,0.30569439146667143,0.0,0.0,0.30569439146667143,0.0,-0.41128907189113006
317,0.3067,989.099,1039.14,0.600254,4.13742e-34,-1.07365e-15,9.45848e-16,0.2675,0.2675,-0.53134,0.0,0.0,0.0,0.477758,0.30669362983608806,0.0,0.0,0.30669362983608806,0.0,-0.41218323276743374
318,0.3077,988.229,1038.29,-0.737527,3.14658e-34,-7.99551e-16,8.96213e-16,0.268265,0.268265,-0.532877,0.0,0.0,0.0,0.479144,0.3076936329153215,0.0,0.0,0.3076936329153215,0.0,-0.41308601317420257
319,0.3087,990.686,1040.77,1.25705,-9.40525e-34,-5.80722e-16,6.07551e-15,0.26903,0.26903,-0.534393,0.0,0.0,0.0,0.480517,0.3086944012895987,0.0,0.0,0.3086944012895987,0.0,-0.4139751006796222
320,0.3097,988.665,1038.77,-1.23023,-1.22904e-33,1.3352e-15,3.26975e-15,0.269794,0.269794,-0.535934,0.0,0.0,0.0,0.481904,0.3096946258493136,0.0,0.0,0.3096946258493136,0.0,-0.4148774695956552
321,0.3107,989.421,1039.55,-0.935495,-2.70111e-34,-6.05315e-16,2.75896e-15,0.270557,0.270557,-0.537457,0.0,0.0,0.0,0.483281,0.31069430417762023,0.0,0.0,0.31069430417762023,0.0,-0.41576793294949577
322,0.3117,991.394,1041.54,0.578132,-2.53983e-34,-4.24446e-16,2.34938e-15,0.271319,0.271319,-0.538972,0.0,0.0,0.0,0.484653,0.31169343385746684,0.0,0.0,0.31169343385746684,0.0,-0.41665237439751446
323,0.3127,990.585,1040.76,-0.691174,9.81856e-34,-2.01828e-15,2.79539e-16,0.272082,0.272082,-0.540503,0.0,0.0,0.0,0.486033,0.3126946378582538,0.0,0.0,0.3126946378582538,0.0,-0.41754479628903696
324,0.3137,992.927,1043.12,1.19439,3.74533e-34,-1.561e-15,2.0978e-15,0.272843,0.272843,-0.542014,0.0,0.0,0.0,0.487401,0.3136939786786179,0.0,0.0,0.3136939786786179,0.0,-0.41842422152875614
325,0.3147,991.044,1041.26,-1.14658,6.0343e-34,-2.92947e-15,3.55399e-15,0.273604,0.273604,-0.543548,0.0,0.0,0.0,0.488783,0.31469408028678925,0.0,0.0,0.31469408028678925,0.0,-0.41931567485342036
326,0.3157,991.77,1042.01,-0.875321,-1.0457e-33,1.19459e-15,2.98677e-15,0.274364,0.274364,-0.545066,0.0,0.0,0.0,0.490154,0.3156936275676623,0.0,0.0,0.3156936275676623,0.0,-0.4201964849549865
327,0.3167,993.654,1043.91,0.556011,-1.02344e-33,-7.16529e-16,6.01623e-15,0.275124,0.275124,-0.546576,0.0,0.0,0.0,0.491521,0.3166939347932114,0.0,0.0,0.3166939347932114,0.0,-0.4210713275902873
328,0.3177,992.909,1043.19,-0.641465,1.19667e-33,-5.10031e-16,-3.74118e-15,0.275883,0.275883,-0.5481,0.0,0.0,0.0,0.492896,0.3176936848468701,0.0,0.0,0.3176936848468701,0.0,-0.42195294292551944
329,0.3187,995.129,1045.43,1.12935,-2.80324e-34,-3.44649e-16,2.34652e-15,0.276642,0.276642,-0.549605,0.0,0.0,0.0,0.494259,0.3186941939988608,0.0,0.0,0.3186941939988608,0.0,-0.4228222494291891
330,0.3197,993.391,1043.71,-1.06006,-6.79581e-34,-2.10069e-16,3.75428e-15,0.2774,0.2774,-0.551133,0.0,0.0,0.0,0.495635,0.31969414313075495,0.0,0.0,0.31969414313075495,0.0,-0.4237035035824267
331,0.3207,994.084,1044.43,-0.814689,2.36047e-34,-1.02157e-16,-3.38741e-16,0.278157,0.278157,-0.552645,0.0,0.0,0.0,0.497002,0.3206935298172411,0.0,0.0,0.3206935298172411,0.0,-0.4245742054685051
332,0.3217,995.88,1046.24,0.535059,-6.66238e-34,-1.52647e-17,3.34193e-15,0.278914,0.278914,-0.55415,0.0,0.0,0.0,0.498363,0.32169367332586973,0.0,0.0,0.32169367332586973,0.0,-0.42543956993917154
333,0.3227,995.198,1045.58,-0.593122,6.1527e-34,-1.68934e-15,1.07171e-15,0.279671,0.279671,-0.555668,0.0,0.0,0.0,0.499733,0.32269457422977244,0.0,0.0,0.32269457422977244,0.0,-0.42631109102014786
334,0.3237,997.3,1047.7,1.06687,-6.6892e-34,4.52449e-16,2.73359e-15,0.280426,0.280426,-0.557168,0.0,0.0,0.0,0.501091,0.3236935857126957,0.0,0.0,0.3236935857126957,0.0,-0.427170979306174
335,0.3247,995.7,1046.13,-0.977384,-3.16855e-34,-1.31167e-15,4.0666e-15,0.281182,0.281182,-0.558689,0.0,0.0,0.0,0.502462,0.3246946764281049,0.0,0.0,0.3246946764281049,0.0,-0.4280415899793901
336,0.3257,996.361,1046.81,-0.757456,1.71924e-34,7.57816e-16,-1.8364e-15,0.281936,0.281936,-0.560196,0.0,0.0,0.0,0.503823,0.3256938728638499,0.0,0.0,0.3256938728638499,0.0,-0.42890288215663264
337,0.3267,998.073,1048.54,0.515712,1.16951e-33,-2.81635e-15,3.88459e-16,0.28269,0.28269,-0.561696,0.0,0.0,0.0,0.50518,0.326693822977808,0.0,0.0,0.326693822977808,0.0,-0.42975888567026177
338,0.3277,997.449,1047.94,-0.548276,-2.30172e-34,-4.5451e-16,2.18122e-15,0.283444,0.283444,-0.563208,0.0,0.0,0.0,0.506544,0.3276945273384675,0.0,0.0,0.3276945273384675,0.0,-0.43062043873687383
339,0.3287,999.442,1049.95,1.00905,-9.6044e-34,1.45236e-15,1.88202e-15,0.284197,0.284197,-0.564703,0.0,0.0,0.0,0.507898,0.32869465781942253,0.0,0.0,0.32869465781942253,0.0,-0.4314710252091506
340,0.3297,997.969,1048.5,-0.90137,3.68998e-34,-5.05248e-16,-1.06223e-16,0.284949,0.284949,-0.566218,0.0,0.0,0.0,0.509263,0.3296942119873656,0.0,0.0,0.3296942119873656,0.0,-0.4323316944843636
341,0.3307,998.6,1049.15,-0.705129,-1.63301e-34,-3.3785e-16,1.78346e-15,0.285701,0.285701,-0.567719,0.0,0.0,0.0,0.510619,0.33069451810273987,0.0,0.0,0.33069451810273987,0.0,-0.4331831254521451
342,0.3317,1000.24,1050.81,0.498027,2.75331e-34,-2.02744e-16,-1.87329e-16,0.286452,0.286452,-0.569213,0.0,0.0,0.0,0.511971,0.3316942450363112,0.0,0.0,0.3316942450363112,0.0,-0.434029317599791
343,0.3327,999.663,1050.25,-0.507609,9.60762e-34,-1.84161e-15,-2.89635e-17,0.287203,0.287203,-0.570719,0.0,0.0,0.0,0.51333,0.3326947230468038,0.0,0.0,0.3326947230468038,0.0,-0.43488102794861727
344,0.3337,1001.56,1052.17,0.956477,1.53581e-33,-3.16901e-15,9.83317e-17,0.287953,0.287953,-0.572209,0.0,0.0,0.0,0.514679,0.33369461900320263,0.0,0.0,0.33369461900320263,0.0,-0.4357224282181069
345,0.3347,1000.2,1050.83,-0.832738,7.63624e-34,-2.4856e-15,1.94895e-15,0.288702,0.288702,-0.573718,0.0,0.0,0.0,0.516038,0.3346939304682617,0.0,0.0,0.3346939304682617,0.0,-0.436573280944089
346,0.3357,1000.8,1051.45,-0.657975,7.54811e-34,-1.8432e-16,-1.80252e-15,0.289451,0.289451,-0.575213,0.0,0.0,0.0,0.51739,0.33569399069798567,0.0,0.0,0.33569399069798567,0.0,-0.43741497456632783
347,0.3367,1002.37,1053.04,0.481888,3.55537e-34,-1.82695e-15,2.16612e-15,0.290199,0.290199,-0.576702,0.0,0.0,0.0,0.518737,0.3366934635592771,0.0,0.0,0.3366934635592771,0.0,-0.4382520403190894
348,0.3377,1001.84,1052.53,-0.471072,-9.14701e-34,3.49437e-16,3.62007e-15,0.290947,0.290947,-0.578202,0.0,0.0,0.0,0.520091,0.33769368430594304,0.0,0.0,0.33769368430594304,0.0,-0.43909403060802077
349,0.3387,1003.65,1054.36,0.908958,9.4783e-34,-1.39511e-15,-4.55081e-16,0.291695,0.291695,-0.579688,0.0,0.0,0.0,0.521435,0.33869465349761096,0.0,0.0,0.33869465349761096,0.0,-0.4399269178900219
350,0.3397,1002.39,1053.12,-0.771192,7.60893e-34,-1.05148e-15,-2.46138e-16,0.292441,0.292441,-0.58119,0.0,0.0,0.0,0.522789,0.3396936923042633,0.0,0.0,0.3396936923042633,0.0,-0.4407675162119785
351,0.3407,1004.96,1055.71,1.37385,-6.01177e-34,9.79078e-16,1.6742e-15,0.293187,0.293187,-0.582668,0.0,0.0,0.0,0.524129,0.3406934766719252,0.0,0.0,0.3406934766719252,0.0,-0.44159345130662875
352,0.3417,1002.68,1053.46,-1.32136,3.75857e-34,-2.63324e-15,3.22223e-15,0.293933,0.293933,-0.584174,0.0,0.0,0.0,0.525484,0.3416940071569925,0.0,0.0,0.3416940071569925,0.0,-0.44243377864365185
353,0.3427,1003.5,1054.29,-0.929087,-3.08144e-34,1.45287e-15,-7.77855e-16,0.294678,0.294678,-0.585661,0.0,0.0,0.0,0.526828,0.34269394162166344,0.0,0.0,0.34269394162166344,0.0,-0.44326226348367015
354,0.3437,1005.34,1056.15,0.499239,-1.22835e-33,1.25436e-15,2.9965e-15,0.295423,0.295423,-0.58714,0.0,0.0,0.0,0.528167,0.3436946213150738,0.0,0.0,0.3436946213150738,0.0,-0.4440850699805866
355,0.3447,1004.65,1055.48,-0.607315,-3.48276e-34,-6.60866e-16,2.54252e-15,0.296167,0.296167,-0.588633,0.0,0.0,0.0,0.529514,0.3446947020972515,0.0,0.0,0.3446947020972515,0.0,-0.44491443169852585
356,0.3457,1006.71,1057.56,1.03061,-5.95965e-34,1.29715e-15,4.22906e-16,0.29691,0.29691,-0.59011,0.0,0.0,0.0,0.530851,0.34569418152153575,0.0,0.0,0.34569418152153575,0.0,-0.4457336879132566
357,0.3467,1005.15,1056.03,-0.93765,-8.26642e-34,-6.26096e-16,3.96352e-15,0.297653,0.297653,-0.591605,0.0,0.0,0.0,0.532198,0.3466944038349813,0.0,0.0,0.3466944038349813,0.0,-0.4465616969588464
358,0.3477,1005.81,1056.7,-0.696631,7.51554e-34,-4.30387e-16,-1.93509e-15,0.298395,0.298395,-0.593087,0.0,0.0,0.0,0.533538,0.3476940218950644,0.0,0.0,0.3476940218950644,0.0,-0.4473812850591643
359,0.3487,1007.38,1058.29,0.458869,-1.94232e-33,1.48498e-15,5.56903e-15,0.299137,0.299137,-0.594563,0.0,0.0,0.0,0.534873,0.348694381946993,0.0,0.0,0.348694381946993,0.0,-0.44819634861753765
360,0.3497,1006.86,1057.79,-0.466551,5.5496e-34,-4.74621e-16,-6.35763e-16,0.299878,0.299878,-0.59605,0.0,0.0,0.0,0.536214,0.3496941348467195,0.0,0.0,0.3496941348467195,0.0,-0.4490162708838562
361,0.3507,1008.62,1059.57,0.878812,4.3434e-34,-3.08086e-16,-3.99744e-16,0.300619,0.300619,-0.597522,0.0,0.0,0.0,0.537547,0.3506946288378854,0.0,0.0,0.3506946288378854,0.0,-0.44982672229453746
362,0.3517,1007.41,1058.38,-0.737461,-1.05648e-35,-1.9274e-15,3.30038e-15,0.301359,0.301359,-0.59901,0.0,0.0,0.0,0.538889,0.351694512774654,0.0,0.0,0.351694512774654,0.0,-0.4506447713523244
363,0.3527,1009.86,1060.85,1.30861,-7.31997e-34,2.71793e-16,2.79246e-15,0.302098,0.302098,-0.600477,0.0,0.0,0.0,0.540217,0.35269378420491093,0.0,0.0,0.35269378420491093,0.0,-0.4514500846310351
364,0.3537,1007.73,1058.73,-1.23711,4.43136e-35,-1.4562e-15,2.37585e-15,0.302837,0.302837,-0.601968,0.0,0.0,0.0,0.54156,0.35369379436968384,0.0,0.0,0.35369379436968384,0.0,-0.4522673631223285
365,0.3547,1008.51,1059.54,-0.858578,5.89926e-36,-1.10305e-15,2.0402e-15,0.303576,0.303576,-0.603442,0.0,0.0,0.0,0.542892,0.3546945438150988,0.0,0.0,0.3546945438150988,0.0,-0.4530741262985558
366,0.3557,1010.24,1061.28,0.463526,4.91122e-34,-8.16506e-16,1.05194e-17,0.304314,0.304314,-0.604909,0.0,0.0,0.0,0.54422,0.3556946773923313,0.0,0.0,0.3556946773923313,0.0,-0.45387587832637666
367,0.3567,1009.64,1060.7,-0.541609,-6.54786e-34,-5.82212e-16,3.6338e-15,0.305051,0.305051,-0.606388,0.0,0.0,0.0,0.545554,0.3566941926456981,0.0,0.0,0.3566941926456981,0.0,-0.4546829988895481
368,0.3577,1011.52,1062.6,0.93903,-1.25073e-33,1.3677e-15,3.06187e-15,0.305788,0.305788,-0.607852,0.0,0.0,0.0,0.54688,0.35769444481332635,0.0,0.0,0.35769444481332635,0.0,-0.45548075887637707
369,0.3587,1010.16,1061.26,-0.821016,-1.08369e-33,1.19084e-15,2.5937e-15,0.306524,0.306524,-0.609334,0.0,0.0,0.0,0.548215,0.35869407574376666,0.0,0.0,0.35869407574376666,0.0,-0.45628713871667137
370,0.3597,1010.77,1061.89,-0.614529,-2.7584e-34,-7.12383e-16,2.2152e-15,0.30726,0.30726,-0.610803,0.0,0.0,0.0,0.549543,0.35969444267338635,0.0,0.0,0.35969444267338635,0.0,-0.45708526654148185
371,0.3607,1012.21,1063.35,0.427983,2.55189e-34,-4.991e-16,1.48787e-16,0.307995,0.307995,-0.612266,0.0,0.0,0.0,0.550867,0.3606941854492143,0.0,0.0,0.3606941854492143,0.0,-0.4578789700608391
372,0.3617,1011.78,1062.94,-0.401924,-1.37139e-33,-3.24706e-16,5.50417e-15,0.30873,0.30873,-0.613739,0.0,0.0,0.0,0.552196,0.36169466330609157,0.0,0.0,0.36169466330609157,0.0,-0.4586769264987439
373,0.3627,1013.37,1064.54,0.792767,-1.18515e-33,-1.83387e-16,4.58008e-15,0.309464,0.309464,-0.615199,0.0,0.0,0.0,0.553517,0.3626945140893061,0.0,0.0,0.3626945140893061,0.0,-0.4594666815246
374,0.3637,1012.34,1063.54,-0.629005,7.25281e-34,-1.82776e-15,3.07294e-16,0.310197,0.310197,-0.616674,0.0,0.0,0.0,0.554847,0.3636937353379819,0.0,0.0,0.3636937353379819,0.0,-0.4602633804594436
375,0.3647,1014.52,1065.73,1.15394,3.70947e-35,-1.40633e-15,2.1162e-15,0.31093,0.31093,-0.618128,0.0,0.0,0.0,0.556164,0.364693689284334,0.0,0.0,0.364693689284334,0.0,-0.46104758724776174
376,0.3657,1012.72,1063.95,-1.04404,6.4346e-34,-2.82004e-15,1.82315e-15,0.311663,0.311663,-0.619605,0.0,0.0,0.0,0.557494,0.3656943764656264,0.0,0.0,0.3656943764656264,0.0,-0.461843032380559
377,0.3667,1013.42,1064.67,-0.732217,-1.16924e-33,-4.48479e-16,5.10803e-15,0.312395,0.312395,-0.621066,0.0,0.0,0.0,0.558815,0.36669443072440355,0.0,0.0,0.36669443072440355,0.0,-0.46262870563618486
378,0.3677,1014.97,1066.24,0.427669,7.65166e-34,-2.0449e-15,7.33528e-16,0.313126,0.313126,-0.622521,0.0,0.0,0.0,0.560131,0.36769384959635665,0.0,0.0,0.36769384959635665,0.0,-0.4634100123310265
379,0.3687,1014.48,1065.77,-0.452828,6.13437e-34,-1.57854e-15,6.98393e-16,0.313857,0.313857,-0.623987,0.0,0.0,0.0,0.561454,0.3686939993105953,0.0,0.0,0.3686939993105953,0.0,-0.4641960769268192
380,0.3697,1016.15,1067.46,0.829464,4.86041e-34,-1.20026e-15,6.69964e-16,0.314587,0.314587,-0.625439,0.0,0.0,0.0,0.562768,0.36969351070736534,0.0,0.0,0.36969351070736534,0.0,-0.4649734996776175
381,0.3707,1015.03,1066.36,-0.681308,-2.65131e-34,8.7291e-16,6.46693e-16,0.315317,0.315317,-0.626906,0.0,0.0,0.0,0.564091,0.37069375201383936,0.0,0.0,0.37069375201383936,0.0,-0.4657578081226875
382,0.3717,1017.31,1068.65,1.20581,-2.04768e-34,-9.67913e-16,2.39202e-15,0.316047,0.316047,-0.628353,0.0,0.0,0.0,0.565402,0.3716947237630466,0.0,0.0,0.3716947237630466,0.0,-0.466530297543451
383,0.3727,1015.38,1066.74,-1.10696,-2.03647e-34,-7.00178e-16,2.04605e-15,0.316775,0.316775,-0.629823,0.0,0.0,0.0,0.566726,0.3726936810982968,0.0,0.0,0.3726936810982968,0.0,-0.46731392190104803
384,0.3737,1016.12,1067.5,-0.754835,-2.02903e-34,-4.83202e-16,1.76605e-15,0.317504,0.317504,-0.631276,0.0,0.0,0.0,0.568039,0.3736947396333199,0.0,0.0,0.3736947396333199,0.0,-0.4680873527389493
385,0.3747,1017.67,1069.07,0.414478,2.88881e-33,-2.07281e-15,-5.52003e-15,0.318231,0.318231,-0.632723,0.0,0.0,0.0,0.569349,0.37469377881577426,0.0,0.0,0.37469377881577426,0.0,-0.4688564737462878
386,0.3757,1017.19,1068.61,-0.450508,-4.91971e-34,1.64828e-16,2.66087e-15,0.318958,0.318958,-0.634182,0.0,0.0,0.0,0.570665,0.375693544563789,0.0,0.0,0.375693544563789,0.0,-0.46963084710835823
387,0.3767,1018.84,1070.27,0.813506,-4.47194e-34,2.23246e-16,2.2697e-15,0.319685,0.319685,-0.635627,0.0,0.0,0.0,0.571973,0.37669403740576923,0.0,0.0,0.37669403740576923,0.0,-0.4703966770888698
388,0.3777,1017.74,1069.19,-0.664216,-4.07282e-34,-1.4939e-15,3.71192e-15,0.320411,0.320411,-0.637086,0.0,0.0,0.0,0.573289,0.3776938801759353,0.0,0.0,0.3776938801759353,0.0,-0.47116880493276714
389,0.3787,1019.96,1071.43,1.17316,8.13796e-34,-1.13038e-15,-4.06829e-16,0.321137,0.321137,-0.638526,0.0,0.0,0.0,0.574593,0.37869444909551286,0.0,0.0,0.37869444909551286,0.0,-0.47192977382456647
390,0.3797,1018.1,1069.59,-1.06625,-5.34404e-34,9.34744e-16,1.53191e-15,0.321862,0.321862,-0.639988,0.0,0.0,0.0,0.57591,0.37969436499682274,0.0,0.0,0.37969436499682274,0.0,-0.4727012484098977
391,0.3807,1018.82,1070.33,-0.722174,1.37456e-33,-9.14728e-16,-2.18408e-15,0.322586,0.322586,-0.641434,0.0,0.0,0.0,0.577217,0.3806936254056994,0.0,0.0,0.3806936254056994,0.0,-0.4734631714016142
392,0.3817,1020.32,1071.84,0.398628,5.10102e-34,-2.42549e-15,1.85169e-15,0.32331,0.32331,-0.642874,0.0,0.0,0.0,0.57852,0.3816936095410697,0.0,0.0,0.3816936095410697,0.0,-0.4742208387833561
393,0.3827,1019.87,1071.42,-0.422052,3.48106e-34,-1.20009e-16,-1.56578e-16,0.324034,0.324034,-0.644325,0.0,0.0,0.0,0.57983,0.38269431792710074,0.0,0.0,0.38269431792710074,0.0,-0.47498319112590226
394,0.3837,1021.44,1073.0,0.773953,8.5632e-34,-6.29526e-18,-1.79634e-15,0.324757,0.324757,-0.645763,0.0,0.0,0.0,0.581131,0.38369436739328133,0.0,0.0,0.38369436739328133,0.0,-0.4757376227307354
395,0.3847,1020.43,1072.01,-0.615796,9.47802e-35,8.72982e-17,4.01918e-16,0.325479,0.325479,-0.647215,0.0,0.0,0.0,0.58244,0.3846937554622183,0.0,0.0,0.3846937554622183,0.0,-0.4764982993176834
396,0.3857,1022.52,1074.12,1.10348,1.83343e-33,1.63306e-16,-4.87855e-15,0.326201,0.326201,-0.648648,0.0,0.0,0.0,0.583738,0.3856938653498865,0.0,0.0,0.3856938653498865,0.0,-0.47724794000892434
397,0.3867,1020.81,1072.42,-0.980962,1.56233e-33,-3.30961e-15,-3.43089e-16,0.326923,0.326923,-0.650101,0.0,0.0,0.0,0.585048,0.38669469757762664,0.0,0.0,0.38669469757762664,0.0,-0.47800694719983194
398,0.3877,1021.5,1073.13,-0.66705,-1.69219e-33,9.29064e-16,5.12789e-15,0.327643,0.327643,-0.65154,0.0,0.0,0.0,0.586348,0.3876934772774272,0.0,0.0,0.3876934772774272,0.0,-0.4787575550109664
399,0.3887,1022.92,1074.56,0.382933,4.21681e-34,-9.18022e-16,7.51347e-16,0.328364,0.328364,-0.652974,0.0,0.0,0.0,0.587645,0.38869436505122823,0.0,0.0,0.38869436505122823,0.0,-0.4795044810031488
400,0.3897,1022.52,1074.18,-0.384453,1.83396e-15,-6.55989e-16,7.14403e-16,0.329084,0.329084,-0.654417,0.0,0.0,0.0,0.588948,0.38969458503004795,0.0,0.0,0.38969458503004795,0.0,-0.4802550143969845
401,0.3907,1024.0,1075.68,0.727173,1.55445e-15,-4.42409e-16,4.2247e-15,0.329803,0.329803,-0.655848,0.0,0.0,0.0,0.590243,0.39069413473174164,0.0,0.0,0.39069413473174164,0.0,-0.48099823756837456
402,0.3917,1023.08,1074.78,-0.55791,1.31646e-15,-2.03676e-15,1.78069e-15,0.330522,0.330522,-0.657292,0.0,0.0,0.0,0.591545,0.3916944033680969,0.0,0.0,0.3916944033680969,0.0,-0.48174713527904933
403,0.3927,1025.03,1076.75,1.02353,1.1164e-15,2.01114e-16,3.32593e-15,0.33124,0.33124,-0.658719,0.0,0.0,0.0,0.592837,0.39269399876151834,0.0,0.0,0.39269399876151834,0.0,-0.48248615470124123
404,0.3937,1023.49,1075.22,-0.883987,9.4555e-16,-1.50971e-15,4.5825e-15,0.331958,0.331958,-0.660164,0.0,0.0,0.0,0.594139,0.3936943121221519,0.0,0.0,0.3936943121221519,0.0,-0.48323342217692056
405,0.3947,1024.13,1075.88,-0.607225,8.0169e-16,-1.13909e-15,3.01011e-16,0.332675,0.332675,-0.661596,0.0,0.0,0.0,0.595434,0.3946939492710362,0.0,0.0,0.3946939492710362,0.0,-0.4839729023222129
406,0.3957,1025.47,1077.24,0.368479,6.80023e-16,-2.60939e-15,2.11372e-15,0.333392,0.333392,-0.663023,0.0,0.0,0.0,0.596725,0.3956943034167688,0.0,0.0,0.3956943034167688,0.0,-0.48470874783995366
407,0.3967,1025.12,1076.91,-0.346375,5.76515e-16,-2.03697e-15,1.82348e-15,0.334108,0.334108,-0.664459,0.0,0.0,0.0,0.59802,0.39669397837894427,0.0,0.0,0.39669397837894427,0.0,-0.48544817504226
408,0.3977,1026.51,1078.31,0.681198,4.8919e-16,-1.56966e-15,1.04494e-14,0.334824,0.334824,-0.665883,0.0,0.0,0.0,0.599309,0.3976943693646984,0.0,0.0,0.3976943693646984,0.0,-0.48618037539062364
409,0.3987,1025.69,1077.51,-0.501236,4.14784e-16,-1.18441e-15,-2.19246e-16,0.335539,0.335539,-0.667319,0.0,0.0,0.0,0.600605,0.3986940781921102,0.0,0.0,0.3986940781921102,0.0,-0.4869176908523599
410,0.3997,1027.49,1079.33,0.946114,3.52131e-16,-8.70453e-16,-1.86243e-15,0.336254,0.336254,-0.668739,0.0,0.0,0.0,0.60189,0.3996945020669327,0.0,0.0,0.3996945020669327,0.0,-0.48764575068652893
411,0.4007,1026.12,1077.97,-0.790892,2.986e-16,2.93504e-15,3.40246e-16,0.336968,0.336968,-0.670177,0.0,0.0,0.0,0.603186,0.4006942408056664,0.0,0.0,0.4006942408056664,0.0,-0.48838198661653964
412,0.4017,1026.72,1078.59,-0.550802,2.53453e-16,7.3075e-16,3.70379e-16,0.337682,0.337682,-0.671602,0.0,0.0,0.0,0.604474,0.40169469361275145,0.0,0.0,0.40169469361275145,0.0,-0.4891105230800987
413,0.4027,1027.98,1079.87,0.355493,2.15224e-16,6.99214e-16,3.94331e-15,0.338395,0.338395,-0.673022,0.0,0.0,0.0,0.605759,0.4026944583030554,0.0,0.0,0.4026944583030554,0.0,-0.4898354713022718
414,0.4037,1027.67,1079.58,-0.311447,1.82674e-16,6.73265e-16,1.54588e-15,0.339107,0.339107,-0.67445,0.0,0.0,0.0,0.607048,0.4036935323855342,0.0,0.0,0.4036935323855342,0.0,-0.4905634663370877
415,0.4047,1028.98,1080.9,0.639193,1.55173e-16,-1.12457e-15,3.13151e-15,0.33982,0.33982,-0.675868,0.0,0.0,0.0,0.60833,0.40469472275607776,0.0,0.0,0.40469472275607776,0.0,-0.4912853354156883
416,0.4057,1028.24,1080.18,-0.449949,1.31724e-16,9.54263e-16,8.79974e-16,0.340531,0.340531,-0.677296,0.0,0.0,0.0,0.609619,0.40569381583945985,0.0,0.0,0.40569381583945985,0.0,-0.4920112615221166
417,0.4067,1029.92,1081.88,0.876079,1.11947e-16,-8.9431e-16,-2.74162e-15,0.341242,0.341242,-0.67871,0.0,0.0,0.0,0.610899,0.40669361953061545,0.0,0.0,0.40669361953061545,0.0,-0.4927290500022736
418,0.4077,1028.69,1080.67,-0.707431,9.50406e-17,-2.40737e-15,-3.81319e-16,0.341953,0.341953,-0.680139,0.0,0.0,0.0,0.612188,0.40769413433496626,0.0,0.0,0.40769413433496626,0.0,-0.49345342250240254
419,0.4087,1030.95,1082.93,1.19377,8.08153e-17,-1.87572e-15,-2.00001e-15,0.342663,0.342663,-0.681548,0.0,0.0,0.0,0.613463,0.408693952063637,0.0,0.0,0.408693952063637,0.0,-0.49416664404752264
420,0.4097,1029.02,1081.03,-1.08094,6.86131e-17,-1.43439e-15,-1.54633e-15,0.343373,0.343373,-0.682979,0.0,0.0,0.0,0.614753,0.4096944799149591,0.0,0.0,0.4096944799149591,0.0,-0.4948899739139373
421,0.4107,1029.77,1081.79,-0.686856,5.83258e-17,7.0396e-16,2.37625e-15,0.344082,0.344082,-0.684394,0.0,0.0,0.0,0.616032,0.41069430769828497,0.0,0.0,0.41069430769828497,0.0,-0.49560419916731235
422,0.4117,1031.15,1083.19,0.341828,4.96015e-17,-1.09756e-15,5.59541e-15,0.34479,0.34479,-0.685804,0.0,0.0,0.0,0.617308,0.4116934329167272,0.0,0.0,0.4116934329167272,0.0,-0.4963148960874131
423,0.4127,1030.8,1082.85,-0.357247,4.21591e-17,-7.96793e-16,4.67795e-15,0.345499,0.345499,-0.687223,0.0,0.0,0.0,0.618589,0.4126946784602681,0.0,0.0,0.4126946784602681,0.0,-0.49702911838929775
424,0.4137,1032.17,1084.24,0.663878,3.58641e-17,-2.3302e-15,2.14961e-15,0.346206,0.346206,-0.688632,0.0,0.0,0.0,0.619863,0.4136938067481717,0.0,0.0,0.4136938067481717,0.0,-0.4977373053266273
425,0.4147,1031.36,1083.45,-0.488774,3.04868e-17,1.74898e-15,1.85016e-15,0.346913,0.346913,-0.690052,0.0,0.0,0.0,0.621144,0.41469364166954015,0.0,0.0,0.41469364166954015,0.0,-0.4984500122114168
426,0.4157,1033.11,1085.21,0.909164,2.59467e-17,1.54277e-15,1.60567e-15,0.34762,0.34762,-0.691456,0.0,0.0,0.0,0.622415,0.41569418372414013,0.0,0.0,0.41569418372414013,0.0,-0.4991536942938577
427,0.4167,1031.79,1083.92,-0.748026,2.20587e-17,1.37187e-15,-3.7332e-16,0.348326,0.348326,-0.692877,0.0,0.0,0.0,0.623696,0.4166940167173665,0.0,0.0,0.4166940167173665,0.0,-0.49986489146899993
428,0.4177,1034.12,1086.25,1.22932,1.8784e-17,-2.33119e-15,-2.0012e-15,0.349032,0.349032,-0.694276,0.0,0.0,0.0,0.624964,0.41769455584192117,0.0,0.0,0.41769455584192117,0.0,-0.5005640912815263
429,0.4187,1032.11,1084.27,-1.12096,1.59697e-17,-1.80838e-15,5.55229e-15,0.349737,0.349737,-0.695698,0.0,0.0,0.0,0.626245,0.4186943829014167,0.0,0.0,0.4186943829014167,0.0,-0.5012737844323056
430,0.4197,1032.88,1085.05,-0.694443,1.35945e-17,4.00012e-16,-6.91475e-16,0.350441,0.350441,-0.697104,0.0,0.0,0.0,0.627516,0.4196934953933118,0.0,0.0,0.4196934953933118,0.0,-0.5019745007723733
431,0.4207,1034.24,1086.43,0.325823,1.15772e-17,4.35109e-16,3.07724e-15,0.351146,0.351146,-0.698506,0.0,0.0,0.0,0.628784,0.4206947322020691,0.0,0.0,0.4206947322020691,0.0,-0.5026722432904948
432,0.4217,1033.91,1086.11,-0.34684,9.85393e-18,4.64168e-16,2.6123e-15,0.351849,0.351849,-0.699916,0.0,0.0,0.0,0.630057,0.4216938317411483,0.0,0.0,0.4216938317411483,0.0,-0.50337298129107
433,0.4227,1035.24,1087.46,0.640209,8.39413e-18,4.88038e-16,-3.11116e-15,0.352552,0.352552,-0.701315,0.0,0.0,0.0,0.631323,0.42269363389414294,0.0,0.0,0.42269363389414294,0.0,-0.5040672767173535
434,0.4237,1034.48,1086.71,-0.463461,7.1456e-18,5.07838e-16,1.08764e-15,0.353255,0.353255,-0.702726,0.0,0.0,0.0,0.632596,0.42369413915516496,0.0,0.0,0.42369413915516496,0.0,-0.5047665443405815
435,0.4247,1036.15,1088.4,0.867802,6.08972e-18,5.24087e-16,8.8204e-17,0.353957,0.353957,-0.704122,0.0,0.0,0.0,0.63386,0.424693923324037,0.0,0.0,0.424693923324037,0.0,-0.5054574079097137
436,0.4257,1034.92,1087.18,-0.699844,5.18455e-18,5.37608e-16,1.57418e-16,0.354659,0.354659,-0.705533,0.0,0.0,0.0,0.635132,0.42569440958780214,0.0,0.0,0.42569440958780214,0.0,-0.5061547154409993
437,0.4267,1037.11,1089.39,1.15877,4.42074e-18,5.48691e-16,2.88829e-15,0.35536,0.35536,-0.706924,0.0,0.0,0.0,0.636392,0.4266941717446189,0.0,0.0,0.4266941717446189,0.0,-0.5068411766873391
438,0.4277,1035.26,1087.55,-1.03644,3.76383e-18,-1.22353e-15,-2.11915e-16,0.356061,0.356061,-0.708337,0.0,0.0,0.0,0.637665,0.42769463498040694,0.0,0.0,0.42769463498040694,0.0,-0.507537518023668
439,0.4287,1035.99,1088.3,-0.640959,3.20839e-18,8.82781e-16,-3.65501e-15,0.356761,0.356761,-0.709734,0.0,0.0,0.0,0.638928,0.4286943710917095,0.0,0.0,0.4286943710917095,0.0,-0.5082250077875795
440,0.4297,1037.27,1089.6,0.31126,2.73594e-18,-5.85794e-17,5.09995e-15,0.35746,0.35746,-0.711127,0.0,0.0,0.0,0.640188,0.42969337756919024,0.0,0.0,0.42969337756919024,0.0,-0.5089095734410567
441,0.4307,1036.98,1089.33,-0.312552,2.33193e-18,-8.33256e-16,7.16123e-16,0.35816,0.35816,-0.712528,0.0,0.0,0.0,0.641453,0.4306945132901112,0.0,0.0,0.4306945132901112,0.0,-0.5095971093972704
442,0.4317,1038.23,1090.59,0.597785,1.98911e-18,-5.79939e-16,6.73204e-16,0.358858,0.358858,-0.713919,0.0,0.0,0.0,0.642712,0.43169348666153584,0.0,0.0,0.43169348666153584,0.0,-0.5102787856023847
443,0.4327,1037.55,1089.93,-0.41325,1.69562e-18,1.41422e-15,5.09349e-15,0.359557,0.359557,-0.715321,0.0,0.0,0.0,0.643976,0.43269459025365586,0.0,0.0,0.43269459025365586,0.0,-0.5109648936708294
444,0.4337,1039.09,1091.49,0.798734,1.44696e-18,-2.29928e-15,-1.82932e-16,0.360254,0.360254,-0.716708,0.0,0.0,0.0,0.645232,0.43369352647189374,0.0,0.0,0.43369352647189374,0.0,-0.5116427151854233
445,0.4347,1038.01,1090.42,-0.619462,1.23363e-18,1.783e-15,7.95334e-15,0.360952,0.360952,-0.71811,0.0,0.0,0.0,0.646496,0.43469459388525467,0.0,0.0,0.43469459388525467,0.0,-0.5123269123644392
446,0.4357,1040.01,1092.43,1.05121,1.05322e-18,-2.08522e-16,1.27928e-15,0.361648,0.361648,-0.719493,0.0,0.0,0.0,0.647749,0.43569348889773996,0.0,0.0,0.43569348889773996,0.0,-0.5130008980760925
447,0.4367,1038.38,1090.82,-0.909847,-1.84569e-15,-1.84787e-15,2.02354e-15,0.362345,0.362345,-0.720896,0.0,0.0,0.0,0.649013,0.43669451607694776,0.0,0.0,0.43669451607694776,0.0,-0.5136836787334612
448,0.4377,1039.05,1091.5,-0.56876,-1.5754e-15,-5.22372e-16,3.53102e-15,0.36304,0.36304,-0.722284,0.0,0.0,0.0,0.650268,0.4376933658257032,0.0,0.0,0.4376933658257032,0.0,-0.514358217549147
449,0.4387,1040.24,1092.71,0.298934,-1.34518e-15,-3.22152e-16,2.98844e-15,0.363736,0.363736,-0.723669,0.0,0.0,0.0,0.651521,0.43869434870995394,0.0,0.0,0.43869434870995394,0.0,-0.5150303658477005
450,0.4397,1040.0,1092.49,-0.272941,-1.14809e-15,1.63061e-15,3.43148e-15,0.364431,0.364431,-0.725061,0.0,0.0,0.0,0.652778,0.43969458882548573,0.0,0.0,0.43969458882548573,0.0,-0.5157049739422763
451,0.4407,1041.15,1093.65,0.552663,-9.80588e-16,-3.32971e-16,2.01198e-15,0.365125,0.365125,-0.726444,0.0,0.0,0.0,0.654029,0.4406940836547204,0.0,0.0,0.4406940836547204,0.0,-0.5163742910238692
452,0.4417,1040.57,1093.08,-0.359424,-8.37053e-16,-1.65124e-16,8.40236e-16,0.365819,0.365819,-0.727836,0.0,0.0,0.0,0.655285,0.4416942723741184,0.0,0.0,0.4416942723741184,0.0,-0.5170470296760337
453,0.4427,1041.98,1094.51,0.726793,-7.15212e-16,-2.70551e-17,3.44822e-15,0.366512,0.366512,-0.729216,0.0,0.0,0.0,0.656533,0.4426937127709729,0.0,0.0,0.4426937127709729,0.0,-0.5177130451187286
454,0.4437,1041.04,1093.59,-0.5365,-6.10614e-16,8.77957e-17,-6.55142e-16,0.367205,0.367205,-0.730608,0.0,0.0,0.0,0.657789,0.4436938460200679,0.0,0.0,0.4436938460200679,0.0,-0.5183839215216193
455,0.4447,1042.84,1095.4,0.94222,-5.21969e-16,1.97219e-15,4.26174e-16,0.367898,0.367898,-0.731983,0.0,0.0,0.0,0.659034,0.44469467260171647,0.0,0.0,0.44469467260171647,0.0,-0.5190456885604251
456,0.4457,1041.44,1094.02,-0.782975,-4.45679e-16,-4.99311e-17,-1.36091e-15,0.36859,0.36859,-0.733376,0.0,0.0,0.0,0.66029,0.4456947473010946,0.0,0.0,0.4456947473010946,0.0,-0.5197151914992022
457,0.4467,1042.05,1094.64,-0.498493,-3.80904e-16,9.6308e-16,1.63211e-15,0.369281,0.369281,-0.734757,0.0,0.0,0.0,0.661538,0.4466940675968789,0.0,0.0,0.4466940675968789,0.0,-0.5203780070402693
458,0.4477,1043.15,1095.76,0.288549,-3.25657e-16,9.05374e-16,1.42109e-15,0.369972,0.369972,-0.736133,0.0,0.0,0.0,0.662783,0.4476940786616206,0.0,0.0,0.4476940786616206,0.0,-0.5210375130583837
459,0.4487,1042.95,1095.58,-0.236275,-2.78316e-16,-3.7276e-17,1.2461e-15,0.370663,0.370663,-0.737516,0.0,0.0,0.0,0.664032,0.44869478097280635,0.0,0.0,0.44869478097280635,0.0,-0.5216994603357733
460,0.4497,1044.02,1096.66,0.511534,-2.38014e-16,7.84313e-17,2.07311e-16,0.371353,0.371353,-0.738891,0.0,0.0,0.0,0.665275,0.44969472531280186,0.0,0.0,0.44969472531280186,0.0,-0.522356671641494
461,0.4507,1043.52,1096.17,-0.310836,-2.03447e-16,1.74616e-16,2.43937e-16,0.372042,0.372042,-0.740274,0.0,0.0,0.0,0.666524,0.45069390915784924,0.0,0.0,0.45069390915784924,0.0,-0.5230167957835519
462,0.4517,1044.81,1097.48,0.662005,-1.74053e-16,2.53911e-16,2.95913e-15,0.372731,0.372731,-0.741646,0.0,0.0,0.0,0.667765,0.45169378167778707,0.0,0.0,0.45169378167778707,0.0,-0.5236707680122024
463,0.4527,1044.0,1096.69,-0.46269,-1.488e-16,3.19948e-16,6.09254e-15,0.37342,0.37342,-0.743029,0.0,0.0,0.0,0.669012,0.4526943433472759,0.0,0.0,0.4526943433472759,0.0,-0.5243290760151293
464,0.4537,1045.63,1098.32,0.8455,-1.27355e-16,3.74329e-16,5.10748e-15,0.374108,0.374108,-0.744396,0.0,0.0,0.0,0.67025,0.4536941409464357,0.0,0.0,0.4536941409464357,0.0,-0.5249788739301525
465,0.4547,1044.43,1097.14,-0.671571,1.74288e-15,4.19728e-16,-1.9741e-15,0.374796,0.374796,-0.74578,0.0,0.0,0.0,0.671498,0.45469462664302207,0.0,0.0,0.45469462664302207,0.0,-0.5256358484374071
466,0.4557,1046.5,1099.23,1.08862,1.49239e-15,1.3539e-15,3.81086e-15,0.375483,0.375483,-0.747143,0.0,0.0,0.0,0.672733,0.45569434521553576,0.0,0.0,0.45569434521553576,0.0,-0.5262819663466036
467,0.4567,1044.78,1097.52,-0.950089,1.27612e-15,-5.61166e-16,5.32194e-16,0.37617,0.37617,-0.748527,0.0,0.0,0.0,0.67398,0.4566947508306809,0.0,0.0,0.4566947508306809,0.0,-0.5269371386213864
468,0.4577,1045.48,1098.24,-0.565779,1.09242e-15,-3.54757e-16,1.40318e-15,0.376856,0.376856,-0.749897,0.0,0.0,0.0,0.675218,0.45769438626550274,0.0,0.0,0.45769438626550274,0.0,-0.5275847909982986
469,0.4587,1046.63,1099.4,0.269463,9.35461e-16,1.60999e-15,3.01994e-15,0.377542,0.377542,-0.751262,0.0,0.0,0.0,0.676454,0.458694707685499,0.0,0.0,0.458694707685499,0.0,-0.5282291978508528
470,0.4597,1046.42,1099.21,-0.248686,8.00732e-16,-3.50117e-16,7.72538e-16,0.378227,0.378227,-0.752635,0.0,0.0,0.0,0.677693,0.4596942558664312,0.0,0.0,0.4596942558664312,0.0,-0.5288764946912361
471,0.4607,1047.49,1100.29,0.505887,6.85856e-16,1.61419e-15,1.60143e-15,0.378912,0.378912,-0.754,0.0,0.0,0.0,0.678927,0.4606944889724274,0.0,0.0,0.4606944889724274,0.0,-0.5295191395710694
472,0.4617,1046.98,1099.8,-0.311239,5.8717e-16,-3.46752e-16,-1.29705e-15,0.379596,0.379596,-0.755372,0.0,0.0,0.0,0.680166,0.46169394577814526,0.0,0.0,0.46169394577814526,0.0,-0.5301641967011996
473,0.4627,1048.25,1101.09,0.650675,5.03116e-16,1.61748e-15,7.85126e-16,0.38028,0.38028,-0.756734,0.0,0.0,0.0,0.681398,0.4626940864461724,0.0,0.0,0.4626940864461724,0.0,-0.5308036774800268
474,0.4637,1047.46,1100.31,-0.45225,4.30796e-16,-3.44158e-16,-1.97227e-15,0.380963,0.380963,-0.758106,0.0,0.0,0.0,0.682636,0.46369344775025123,0.0,0.0,0.46369344775025123,0.0,-0.5314469734325898
475,0.4647,1049.05,1101.91,0.821382,3.69277e-16,-1.07379e-15,6.50646e-15,0.381646,0.381646,-0.759464,0.0,0.0,0.0,0.683865,0.4646934918512493,0.0,0.0,0.4646934918512493,0.0,-0.5320828365938622
476,0.4657,1047.89,1100.77,-0.644601,3.16237e-16,1.01531e-15,4.55256e-15,0.382329,0.382329,-0.760836,0.0,0.0,0.0,0.685103,0.46569421921567633,0.0,0.0,0.46569421921567633,0.0,-0.532724378743505
477,0.4667,1049.89,1102.78,1.04368,2.71198e-16,9.52247e-16,2.93863e-15,0.383011,0.383011,-0.76219,0.0,0.0,0.0,0.686329,0.46669416361546356,0.0,0.0,0.46669416361546356,0.0,-0.533356641796005
478,0.4677,1048.25,1101.16,-0.897389,2.32266e-16,1.79648e-15,-4.67515e-15,0.383693,0.383693,-0.763563,0.0,0.0,0.0,0.687566,0.46769479020993354,0.0,0.0,0.46769479020993354,0.0,-0.5339969034865872
479,0.4687,1048.93,1101.85,-0.529859,1.99136e-16,-1.96742e-16,2.47083e-15,0.384374,0.384374,-0.764922,0.0,0.0,0.0,0.688795,0.4686946307691362,0.0,0.0,0.4686946307691362,0.0,-0.534629771563488
480,0.4697,1050.02,1102.96,0.256374,1.70784e-16,1.74348e-15,3.90629e-15,0.385054,0.385054,-0.766278,0.0,0.0,0.0,0.690022,0.46969368275723844,0.0,0.0,0.46969368275723844,0.0,-0.5352603859400729
481,0.4707,1049.84,1102.8,-0.224447,1.46414e-16,-1.13878e-15,-1.18786e-15,0.385734,0.385734,-0.76764,0.0,0.0,0.0,0.691252,0.4706934143317256,0.0,0.0,0.4706934143317256,0.0,-0.535892930433839
482,0.4717,1050.85,1103.81,0.473505,1.25598e-16,6.34312e-17,8.7291e-16,0.386414,0.386414,-0.768995,0.0,0.0,0.0,0.692477,0.47169382595487375,0.0,0.0,0.47169382595487375,0.0,-0.5365213696493801
483,0.4727,1050.4,1103.38,-0.275742,1.07694e-16,1.62969e-16,-2.80423e-15,0.387093,0.387093,-0.770357,0.0,0.0,0.0,0.693706,0.4726934453950917,0.0,0.0,0.4726934453950917,0.0,-0.5371521978523935
484,0.4737,1051.58,1104.58,0.600208,9.24149e-17,2.04366e-15,-1.36503e-15,0.387772,0.387772,-0.771709,0.0,0.0,0.0,0.694929,0.4736937438073945,0.0,0.0,0.4736937438073945,0.0,-0.5377775452507996
485,0.4747,1050.89,1103.9,-0.396683,7.92548e-17,9.07166e-16,2.5227e-15,0.388451,0.388451,-0.77307,0.0,0.0,0.0,0.696158,0.47469472165296045,0.0,0.0,0.47469472165296045,0.0,-0.5384062021136785
486,0.4757,1052.33,1105.36,0.74604,6.80367e-17,-9.36243e-16,-3.23591e-15,0.389128,0.389128,-0.774418,0.0,0.0,0.0,0.697378,0.4756934280034746,0.0,0.0,0.4756934280034746,0.0,-0.5390280113596398
487,0.4767,1051.33,1104.37,-0.559761,5.83568e-17,1.13074e-15,-8.23002e-16,0.389806,0.389806,-0.77578,0.0,0.0,0.0,0.698606,0.47669428740065656,0.0,0.0,0.47669428740065656,0.0,-0.5396554278405541
488,0.4777,1053.12,1106.17,0.932889,5.01174e-17,1.04924e-15,-6.1918e-16,0.390483,0.390483,-0.777124,0.0,0.0,0.0,0.699824,0.4776943479155149,0.0,0.0,0.4776943479155149,0.0,-0.5402737153632515
489,0.4787,1051.72,1104.79,-0.770981,4.29918e-17,-8.16586e-16,4.49464e-16,0.391159,0.391159,-0.778486,0.0,0.0,0.0,0.701051,0.4786936070062251,0.0,0.0,0.4786936070062251,0.0,-0.5408994363502064
490,0.4797,1052.33,1105.41,-0.461874,3.69142e-17,-1.46828e-15,4.03339e-15,0.391835,0.391835,-0.779836,0.0,0.0,0.0,0.702271,0.47969354182445123,0.0,0.0,0.47969354182445123,0.0,-0.5415188039439414
491,0.4807,1053.34,1106.43,0.247458,3.17052e-17,6.90338e-16,6.11036e-15,0.392511,0.392511,-0.781182,0.0,0.0,0.0,0.703489,0.4806941528271389,0.0,0.0,0.4806941528271389,0.0,-0.5421355045012506
492,0.4817,1053.2,1106.31,-0.191238,2.72224e-17,-1.11509e-15,6.39141e-16,0.393186,0.393186,-0.782534,0.0,0.0,0.0,0.70471,0.4816939587768436,0.0,0.0,0.4816939587768436,0.0,-0.5427541190215185
493,0.4827,1054.12,1107.24,0.436367,2.33865e-17,1.88502e-15,-3.00593e-15,0.393861,0.393861,-0.783879,0.0,0.0,0.0,0.705926,0.48269443982338434,0.0,0.0,0.48269443982338434,0.0,-0.5433687013321811
494,0.4837,1053.75,1106.89,-0.233571,2.00834e-17,-1.02229e-15,1.16304e-15,0.394535,0.394535,-0.78523,0.0,0.0,0.0,0.707146,0.4836941127277501,0.0,0.0,0.4836941127277501,0.0,-0.5439851936823302
495,0.4847,1054.82,1107.97,0.54361,1.72592e-17,1.06219e-15,3.72795e-15,0.395209,0.395209,-0.786572,0.0,0.0,0.0,0.70836,0.4846944596387681,0.0,0.0,0.4846944596387681,0.0,-0.5445967551029121
496,0.4857,1054.24,1107.41,-0.334653,1.48242e-17,9.94277e-16,-4.40232e-16,0.395882,0.395882,-0.787923,0.0,0.0,0.0,0.709579,0.4856939953161339,0.0,0.0,0.4856939953161339,0.0,-0.5452115894726348
497,0.4867,1055.54,1108.71,0.664682,1.27441e-17,1.83913e-15,5.95223e-16,0.396555,0.396555,-0.789262,0.0,0.0,0.0,0.710791,0.4866942039074207,0.0,0.0,0.4866942039074207,0.0,-0.5458201436363943
498,0.4877,1054.7,1107.89,-0.46918,1.09479e-17,1.63984e-15,1.45502e-15,0.397227,0.397227,-0.790613,0.0,0.0,0.0,0.71201,0.48769359817130997,0.0,0.0,0.48769359817130997,0.0,-0.5464333263241707
499,0.4887,1056.28,1109.48,0.817411,1.87199e-15,1.47493e-15,-4.13332e-15,0.397899,0.397899,-0.791948,0.0,0.0,0.0,0.713219,0.4886936642538504,0.0,0.0,0.4886936642538504,0.0,-0.5470384338343951
500,0.4897,1055.11,1108.33,-0.640899,1.60837e-15,4.36137e-16,2.02614e-15,0.398571,0.398571,-0.793299,0.0,0.0,0.0,0.714437,0.48969440260665564,0.0,0.0,0.48969440260665564,0.0,-0.5476499717234258
501,0.4907,1057.06,1110.29,1.0118,1.38379e-15,-4.29355e-16,1.74727e-15,0.399242,0.399242,-0.794631,0.0,0.0,0.0,0.715643,0.490694322986575,0.0,0.0,0.490694322986575,0.0,-0.5482521008540633
502,0.4917,1055.48,1108.73,-0.858696,1.18904e-15,-2.46503e-16,1.51297e-15,0.399912,0.399912,-0.795982,0.0,0.0,0.0,0.716861,0.4916934228440537,0.0,0.0,0.4916934228440537,0.0,-0.5488620001860449
503,0.4927,1056.14,1109.4,-0.489417,1.02275e-15,8.06651e-16,4.18302e-16,0.400583,0.400583,-0.797319,0.0,0.0,0.0,0.71807,0.4926946850166736,0.0,0.0,0.4926946850166736,0.0,-0.5494647686512864
504,0.4937,1057.15,1110.43,0.228672,8.79957e-16,-1.20054e-16,1.30962e-15,0.401252,0.401252,-0.798654,0.0,0.0,0.0,0.719277,0.49369363187141513,0.0,0.0,0.49369363187141513,0.0,-0.5500658318861584
505,0.4947,1057.03,1110.31,-0.188414,7.56856e-16,9.12197e-16,-6.51925e-16,0.401922,0.401922,-0.799994,0.0,0.0,0.0,0.720487,0.49469474193919183,0.0,0.0,0.49469474193919183,0.0,-0.5506683399009058
506,0.4957,1057.92,1111.22,0.418774,6.51329e-16,1.77234e-15,4.19102e-16,0.40259,0.40259,-0.801327,0.0,0.0,0.0,0.721693,0.49569353158540874,0.0,0.0,0.49569353158540874,0.0,-0.5512668999748973
507,0.4967,1057.57,1110.89,-0.219363,5.60309e-16,-2.17616e-16,4.09212e-16,0.403259,0.403259,-0.802667,0.0,0.0,0.0,0.722902,0.4966944853397377,0.0,0.0,0.4966944853397377,0.0,-0.5518677996362432
508,0.4977,1058.6,1111.93,0.516427,4.82337e-16,-7.14827e-17,3.1061e-15,0.403927,0.403927,-0.803997,0.0,0.0,0.0,0.724106,0.49769461126081227,0.0,0.0,0.49769461126081227,0.0,-0.5524634192878595
509,0.4987,1058.06,1111.41,-0.307472,4.15011e-16,5.09525e-17,8.42083e-16,0.404594,0.404594,-0.805336,0.0,0.0,0.0,0.725314,0.49869390679453596,0.0,0.0,0.49869390679453596,0.0,-0.5530622697495746
510,0.4997,1059.28,1112.64,0.622299,3.5738e-16,1.52662e-16,-1.41486e-16,0.405261,0.405261,-0.806664,0.0,0.0,0.0,0.726516,0.49969386908071756,0.0,0.0,0.49969386908071756,0.0,-0.5536554091236319
511,0.5007,1058.52,1111.89,-0.423766,3.07548e-16,2.0424e-15,-2.76227e-15,0.405928,0.405928,-0.808002,0.0,0.0,0.0,0.727723,0.5006944985642299,0.0,0.0,0.5006944985642299,0.0,-0.5542522188314936
512,0.5017,1059.98,1113.37,0.753183,2.64935e-16,-1.7998e-15,1.36799e-15,0.406594,0.406594,-0.809327,0.0,0.0,0.0,0.728922,0.5016942939951967,0.0,0.0,0.5016942939951967,0.0,-0.5548424435313271
513,0.5027,1058.95,1112.35,-0.569789,2.28027e-16,1.31844e-15,2.97571e-16,0.40726,0.40726,-0.810665,0.0,0.0,0.0,0.730129,0.5026947555117023,0.0,0.0,0.5026947555117023,0.0,-0.5554376660492183
514,0.5037,1060.72,1114.13,0.916832,1.96508e-16,3.067e-16,3.0165e-15,0.407925,0.407925,-0.811986,0.0,0.0,0.0,0.731326,0.5036943798623761,0.0,0.0,0.5036943798623761,0.0,-0.5560245451733618
515,0.5047,1059.34,1112.76,-0.751844,1.69153e-16,2.17159e-15,5.27583e-15,0.40859,0.40859,-0.813325,0.0,0.0,0.0,0.732532,0.5046946691843213,0.0,0.0,0.5046946691843213,0.0,-0.5566186304785005
516,0.5057,1059.94,1113.38,-0.431417,1.45741e-16,-7.88693e-16,-5.81219e-17,0.409254,0.409254,-0.814651,0.0,0.0,0.0,0.733731,0.5056941182250201,0.0,0.0,0.5056941182250201,0.0,-0.5572061645533072
517,0.5067,1060.87,1114.33,0.219638,1.25602e-16,-5.47984e-16,1.81481e-15,0.409918,0.409918,-0.815974,0.0,0.0,0.0,0.734928,0.5066942311202574,0.0,0.0,0.5066942311202574,0.0,-0.5577915934509963
518,0.5077,1060.78,1114.24,-0.160057,1.08216e-16,-3.4631e-16,6.67151e-16,0.410581,0.410581,-0.817302,0.0,0.0,0.0,0.736128,0.507693500616724,0.0,0.0,0.507693500616724,0.0,-0.5583784564516123
519,0.5087,1061.61,1115.08,0.385657,9.32821e-17,1.62981e-15,1.51637e-15,0.411244,0.411244,-0.818624,0.0,0.0,0.0,0.737323,0.5086934328485395,0.0,0.0,0.5086934328485395,0.0,-0.5589618943947309
520,0.5097,1061.32,1114.81,-0.183572,8.03838e-17,-3.36403e-16,4.17943e-16,0.411907,0.411907,-0.819952,0.0,0.0,0.0,0.738522,0.5096940282552429,0.0,0.0,0.5096940282552429,0.0,-0.5595472042671991
521,0.5107,1062.25,1115.76,0.467188,6.93117e-17,7.34176e-16,3.11544e-15,0.412569,0.412569,-0.821272,0.0,0.0,0.0,0.739716,0.5106937765821329,0.0,0.0,0.5106937765821329,0.0,-0.560128218403873
522,0.5117,1061.81,1115.33,-0.255533,5.97394e-17,-1.79978e-16,-5.5513e-17,0.413231,0.413231,-0.822599,0.0,0.0,0.0,0.740914,0.5116941869615306,0.0,0.0,0.5116941869615306,0.0,-0.5607115411378178
523,0.5127,1062.9,1116.43,0.553227,5.15272e-17,-1.84881e-15,1.81676e-15,0.413892,0.413892,-0.823916,0.0,0.0,0.0,0.742105,0.512693747137356,0.0,0.0,0.512693747137356,0.0,-0.5612897032348305
524,0.5137,1062.27,1115.82,-0.349272,1.91141e-15,3.7673e-16,6.67284e-16,0.414553,0.414553,-0.825242,0.0,0.0,0.0,0.743302,0.5136939682408705,0.0,0.0,0.5136939682408705,0.0,-0.5618710475718653
525,0.5147,1063.56,1117.12,0.657634,1.64921e-15,-4.78531e-16,4.22868e-15,0.415213,0.415213,-0.826556,0.0,0.0,0.0,0.744491,0.5146933360149979,0.0,0.0,0.5146933360149979,0.0,-0.5624463709451204
526,0.5157,1062.72,1116.29,-0.465021,1.42194e-15,-2.87045e-16,1.77474e-15,0.415873,0.415873,-0.827882,0.0,0.0,0.0,0.745687,0.5156933635895664,0.0,0.0,0.5156933635895664,0.0,-0.5630261825571927
527,0.5167,1064.24,1117.83,0.78592,1.22731e-15,7.7756e-16,6.30873e-16,0.416533,0.416533,-0.829193,0.0,0.0,0.0,0.746874,0.5166940514001881,0.0,0.0,0.5166940514001881,0.0,-0.5635986798778695
528,0.5177,1063.13,1116.73,-0.606893,2.9259e-15,7.62193e-16,2.38664e-15,0.417192,0.417192,-0.830518,0.0,0.0,0.0,0.748069,0.5176938821881214,0.0,0.0,0.5176938821881214,0.0,-0.5641765287176346
529,0.5187,1064.96,1118.57,0.943364,2.52635e-15,7.49464e-16,4.76151e-15,0.417851,0.417851,-0.831826,0.0,0.0,0.0,0.749254,0.5186943720816954,0.0,0.0,0.5186943720816954,0.0,-0.5647462131632234
530,0.5197,1063.51,1117.13,-0.780237,2.17878e-15,7.38747e-16,3.12088e-15,0.418509,0.418509,-0.833151,0.0,0.0,0.0,0.750449,0.5196940018206424,0.0,0.0,0.5196940018206424,0.0,-0.5653225425282595
531,0.5207,1064.13,1117.77,-0.431694,3.7504e-15,-1.75704e-16,-2.77108e-15,0.419167,0.419167,-0.834464,0.0,0.0,0.0,0.751636,0.5206942895324069,0.0,0.0,0.5206942895324069,0.0,-0.5658928995086225
532,0.5217,1065.04,1118.69,0.202829,3.23829e-15,8.71065e-16,4.06975e-15,0.419824,0.419824,-0.835775,0.0,0.0,0.0,0.752821,0.5216937139556026,0.0,0.0,0.5216937139556026,0.0,-0.5664616410258432
533,0.5227,1064.97,1118.63,-0.148775,2.79536e-15,8.40779e-16,7.35619e-16,0.420481,0.420481,-0.83709,0.0,0.0,0.0,0.754009,0.5226937952163919,0.0,0.0,0.5226937952163919,0.0,-0.567031369289462
534,0.5237,1065.75,1119.43,0.362403,2.41414e-15,8.15504e-16,6.64266e-16,0.421138,0.421138,-0.838399,0.0,0.0,0.0,0.755193,0.5236945337464589,0.0,0.0,0.5236945337464589,0.0,-0.5675977544471021
535,0.5247,1065.5,1119.19,-0.162692,2.08431e-15,7.94306e-16,2.41416e-15,0.421794,0.421794,-0.839713,0.0,0.0,0.0,0.756379,0.5246944052826037,0.0,0.0,0.5246944052826037,0.0,-0.5681655578692131
536,0.5257,1066.37,1120.07,0.433161,1.80057e-15,7.76631e-16,2.56206e-16,0.422449,0.422449,-0.84102,0.0,0.0,0.0,0.757562,0.5256934072554935,0.0,0.0,0.5256934072554935,0.0,-0.56872959680534
537,0.5267,1065.99,1119.7,-0.221961,1.55487e-15,7.61802e-16,2.62768e-16,0.423105,0.423105,-0.842334,0.0,0.0,0.0,0.758747,0.526694590482848,0.0,0.0,0.526694590482848,0.0,-0.5692959139632816
538,0.5277,1066.98,1120.71,0.504371,1.3436e-15,7.49452e-16,1.17408e-15,0.423759,0.423759,-0.843638,0.0,0.0,0.0,0.759928,0.5276933753120632,0.0,0.0,0.5276933753120632,0.0,-0.5698571860625318
539,0.5287,1066.45,1120.19,-0.298558,1.16048e-15,-1.67049e-16,3.74575e-15,0.424414,0.424414,-0.844951,0.0,0.0,0.0,0.761112,0.5286943422537795,0.0,0.0,0.5286943422537795,0.0,-0.5704215929630165
540,0.5297,1067.61,1121.36,0.588798,1.00311e-15,8.78795e-16,-4.4319e-16,0.425068,0.425068,-0.846253,0.0,0.0,0.0,0.76229,0.529694435348409,0.0,0.0,0.529694435348409,0.0,-0.5709805400954346
541,0.5307,1066.9,1120.67,-0.391404,8.66547e-16,8.47623e-16,-3.23173e-16,0.425721,0.425721,-0.847565,0.0,0.0,0.0,0.763474,0.5306936520234298,0.0,0.0,0.5306936520234298,0.0,-0.571543044543223
542,0.5317,1068.25,1122.03,0.690468,7.49283e-16,2.63638e-15,1.58985e-15,0.426374,0.426374,-0.848864,0.0,0.0,0.0,0.76465,0.5316935214000229,0.0,0.0,0.5316935214000229,0.0,-0.5720992487954879
543,0.5327,1067.33,1121.12,-0.503011,6.47377e-16,-4.01154e-16,1.37683e-15,0.427027,0.427027,-0.850175,0.0,0.0,0.0,0.765833,0.5326940439045422,0.0,0.0,0.5326940439045422,0.0,-0.572659859119955
544,0.5337,1068.91,1122.72,0.8128,5.59961e-16,1.59016e-15,1.19958e-15,0.427679,0.427679,-0.851471,0.0,0.0,0.0,0.767007,0.5336936862691661,0.0,0.0,0.5336936862691661,0.0,-0.573213333213854
545,0.5347,1067.73,1121.55,-0.636743,4.83873e-16,1.44278e-15,1.44133e-16,0.428331,0.428331,-0.852783,0.0,0.0,0.0,0.768189,0.5346939806131341,0.0,0.0,0.5346939806131341,0.0,-0.5737729101579334
546,0.5357,1069.6,1123.43,0.959635,4.18684e-16,4.12078e-16,1.9815e-15,0.428982,0.428982,-0.854075,0.0,0.0,0.0,0.76936,0.5356933916675155,0.0,0.0,0.5356933916675155,0.0,-0.574323239968398
547,0.5367,1068.11,1121.95,-0.796552,3.61836e-16,1.36306e-15,1.70375e-15,0.429633,0.429633,-0.855387,0.0,0.0,0.0,0.770542,0.536693453550315,0.0,0.0,0.536693453550315,0.0,-0.5748813616696635
548,0.5377,1068.74,1122.6,-0.425455,3.13011e-16,1.2531e-15,5.65321e-16,0.430284,0.430284,-0.856685,0.0,0.0,0.0,0.771716,0.5376941666853599,0.0,0.0,0.5376941666853599,0.0,-0.5754328076963218
549,0.5387,1069.62,1123.49,0.185457,2.70833e-16,1.16087e-15,5.18778e-16,0.430934,0.430934,-0.857981,0.0,0.0,0.0,0.772888,0.5386939928019909,0.0,0.0,0.5386939928019909,0.0,-0.5759826903766045
550,0.5397,1069.57,1123.45,-0.135006,2.3428e-16,1.9911e-15,5.0145e-15,0.431584,0.431584,-0.859281,0.0,0.0,0.0,0.774062,0.539694469016857,0.0,0.0,0.539694469016857,0.0,-0.5765335547396988
551,0.5407,1070.3,1124.2,0.336762,2.02749e-16,8.71198e-16,7.87545e-15,0.432233,0.432233,-0.860576,0.0,0.0,0.0,0.775233,0.5406940550578336,0.0,0.0,0.5406940550578336,0.0,-0.5770815888576306
552,0.5417,1070.09,1124.0,-0.139695,1.75416e-16,-6.79336e-17,2.10293e-15,0.432882,0.432882,-0.861876,0.0,0.0,0.0,0.776407,0.5416942900407098,0.0,0.0,0.5416942900407098,0.0,-0.5776310255808667
553,0.5427,1070.89,1124.81,0.396508,2.02662e-15,5.24651e-17,-1.21602e-17,0.43353,0.43353,-0.863169,0.0,0.0,0.0,0.777576,0.5426936316923825,0.0,0.0,0.5426936316923825,0.0,-0.5781767957483401
554,0.5437,1070.57,1124.51,-0.186466,1.75375e-15,1.06213e-15,2.75263e-15,0.434178,0.434178,-0.864467,0.0,0.0,0.0,0.778749,0.5436936211273042,0.0,0.0,0.5436936211273042,0.0,-0.5787239670764439
555,0.5447,1071.48,1125.42,0.453229,1.51855e-15,1.90974e-15,4.16405e-15,0.434826,0.434826,-0.865758,0.0,0.0,0.0,0.779916,0.5446942587653751,0.0,0.0,0.5446942587653751,0.0,-0.5792674835195951
556,0.5457,1071.04,1125.0,-0.24656,3.18887e-15,8.02975e-16,-1.01722e-16,0.435473,0.435473,-0.867056,0.0,0.0,0.0,0.781088,0.5456939993319947,0.0,0.0,0.5456939993319947,0.0,-0.5798132400533719
557,0.5467,1072.07,1126.03,0.518686,2.76199e-15,7.83016e-16,1.76997e-15,0.43612,0.43612,-0.868344,0.0,0.0,0.0,0.782253,0.546694386940056,0.0,0.0,0.546694386940056,0.0,-0.5803540922166197
558,0.5477,1071.49,1125.47,-0.317923,2.39102e-15,7.66198e-16,5.15318e-15,0.436766,0.436766,-0.869641,0.0,0.0,0.0,0.783424,0.5476938743136825,0.0,0.0,0.5476938743136825,0.0,-0.5808980201455028
559,0.5487,1072.67,1126.66,0.595741,2.07156e-15,1.66167e-15,1.63469e-15,0.437412,0.437412,-0.870927,0.0,0.0,0.0,0.784587,0.5486940075647484,0.0,0.0,0.5486940075647484,0.0,-0.5814366388855154
560,0.5497,1071.93,1125.94,-0.401848,1.79364e-15,-3.14272e-16,1.40689e-15,0.438058,0.438058,-0.872223,0.0,0.0,0.0,0.785757,0.549694787110625,0.0,0.0,0.549694787110625,0.0,-0.581978745640465
561,0.5507,1073.28,1127.3,0.686417,1.55447e-15,-1.55585e-16,1.21666e-15,0.438703,0.438703,-0.873506,0.0,0.0,0.0,0.786918,0.5506946626735161,0.0,0.0,0.5506946626735161,0.0,-0.5825147230068055
562,0.5517,1072.35,1126.38,-0.500222,1.34614e-15,-2.13048e-17,1.47718e-16,0.439347,0.439347,-0.874801,0.0,0.0,0.0,0.788087,0.5516936316697687,0.0,0.0,0.5516936316697687,0.0,-0.5830550165249516
563,0.5527,1073.9,1127.95,0.792862,1.16701e-15,-1.72952e-15,1.97809e-15,0.439992,0.439992,-0.876081,0.0,0.0,0.0,0.789246,0.5526947969032745,0.0,0.0,0.5526947969032745,0.0,-0.5835883646881554
564,0.5537,1072.75,1126.81,-0.615229,1.01075e-15,-4.32684e-16,7.8589e-16,0.440635,0.440635,-0.877376,0.0,0.0,0.0,0.790414,0.5536935007065467,0.0,0.0,0.5536935007065467,0.0,-0.5841272687401976
565,0.5547,1074.54,1128.61,0.917498,8.7655e-16,2.47753e-15,1.60449e-15,0.441279,0.441279,-0.878654,0.0,0.0,0.0,0.79157,0.5546944015764892,0.0,0.0,0.5546944015764892,0.0,-0.5846584146162401
566,0.5557,1073.14,1127.22,-0.749327,7.59284e-16,1.28105e-15,1.38042e-15,0.441922,0.441922,-0.879948,0.0,0.0,0.0,0.792738,0.5556943915390222,0.0,0.0,0.5556943915390222,0.0,-0.585195519046215
567,0.5567,1073.75,1127.84,-0.392428,6.58314e-16,2.75765e-16,3.01213e-15,0.442564,0.442564,-0.881231,0.0,0.0,0.0,0.793897,0.5566934680076214,0.0,0.0,0.5566934680076214,0.0,-0.5857273719386917
568,0.5577,1074.57,1128.68,0.171754,5.70885e-16,3.41057e-16,7.43919e-16,0.443207,0.443207,-0.882511,0.0,0.0,0.0,0.795055,0.557694743783214,0.0,0.0,0.557694743783214,0.0,-0.5862573016752257
569,0.5587,1074.54,1128.66,-0.114495,4.94957e-16,3.96166e-16,6.57574e-16,0.443848,0.443848,-0.883796,0.0,0.0,0.0,0.796215,0.5586935461959532,0.0,0.0,0.5586935461959532,0.0,-0.5867886195976975
570,0.5597,1075.22,1129.35,0.307406,4.29299e-16,-4.6822e-16,5.85108e-16,0.44449,0.44449,-0.885075,0.0,0.0,0.0,0.797373,0.5596945487400464,0.0,0.0,0.5596945487400464,0.0,-0.5873167791232167
571,0.5607,1075.06,1129.2,-0.112178,3.72269e-16,6.26639e-16,1.43367e-15,0.445131,0.445131,-0.886359,0.0,0.0,0.0,0.798532,0.5606946334386915,0.0,0.0,0.5606946334386915,0.0,-0.5878463243380414
572,0.5617,1075.78,1129.93,0.355274,3.22967e-16,6.36726e-16,1.23705e-15,0.445771,0.445771,-0.887636,0.0,0.0,0.0,0.799687,0.561693797702552,0.0,0.0,0.561693797702552,0.0,-0.588372308669388
573,0.5627,1075.53,1129.7,-0.146919,2.80119e-16,-2.65417e-16,1.0712e-15,0.446411,0.446411,-0.888919,0.0,0.0,0.0,0.800845,0.5626936016362138,0.0,0.0,0.5626936016362138,0.0,-0.5889000883542996
574,0.5637,1076.33,1130.51,0.397869,2.43085e-16,7.97651e-16,1.8425e-15,0.447051,0.447051,-0.890194,0.0,0.0,0.0,0.801999,0.5636940456491966,0.0,0.0,0.5636940456491966,0.0,-0.5894239067364682
575,0.5647,1075.99,1130.18,-0.191325,2.10876e-16,-1.29964e-16,6.69406e-16,0.44769,0.44769,-0.891475,0.0,0.0,0.0,0.803156,0.5646935654569345,0.0,0.0,0.5646935654569345,0.0,-0.5899495179860579
576,0.5657,1076.88,1131.08,0.445551,1.83045e-16,4.16247e-19,5.93737e-16,0.448329,0.448329,-0.892749,0.0,0.0,0.0,0.804307,0.5656937241619358,0.0,0.0,0.5656937241619358,0.0,-0.5904715896698676
577,0.5667,1076.45,1130.66,-0.242873,1.58822e-16,1.0218e-15,2.35039e-15,0.448968,0.448968,-0.894029,0.0,0.0,0.0,0.805463,0.5666945221725856,0.0,0.0,0.5666945221725856,0.0,-0.590995450692511
578,0.5677,1077.44,1131.67,0.500283,1.37899e-16,9.7022e-16,1.85254e-16,0.449606,0.449606,-0.8953,0.0,0.0,0.0,0.806613,0.5676943922023554,0.0,0.0,0.5676943922023554,0.0,-0.5915149652532404
579,0.5687,1076.89,1131.13,-0.302032,1.19672e-16,1.52754e-17,-7.24699e-16,0.450243,0.450243,-0.896579,0.0,0.0,0.0,0.807768,0.5686933316586269,0.0,0.0,0.5686933316586269,0.0,-0.5920370836467936
580,0.5697,1078.01,1132.26,0.563115,1.03936e-16,1.0348e-15,2.15429e-15,0.450881,0.450881,-0.897848,0.0,0.0,0.0,0.808916,0.5696944773357369,0.0,0.0,0.5696944773357369,0.0,-0.5925544602427655
581,0.5707,1077.33,1131.59,-0.369695,9.0214e-17,6.96437e-17,2.00475e-17,0.451518,0.451518,-0.899127,0.0,0.0,0.0,0.81007,0.5706946912521107,0.0,0.0,0.5706946912521107,0.0,-0.593075249972089
582,0.5717,1078.58,1132.85,0.635074,7.83732e-17,1.08086e-15,3.69308e-15,0.452154,0.452154,-0.900393,0.0,0.0,0.0,0.811216,0.5716939708129638,0.0,0.0,0.5716939708129638,0.0,-0.5935900907426529
583,0.5727,1077.75,1132.03,-0.44688,6.80378e-17,1.08425e-16,2.22424e-15,0.45279,0.45279,-0.901671,0.0,0.0,0.0,0.812368,0.5726938861177626,0.0,0.0,0.5726938861177626,0.0,-0.5941091508566232
584,0.5737,1079.16,1133.46,0.71727,5.9125e-17,-7.11784e-16,9.89091e-16,0.453426,0.453426,-0.902934,0.0,0.0,0.0,0.813513,0.5736944375709689,0.0,0.0,0.5736944375709689,0.0,-0.5946214674030896
585,0.5747,1078.16,1132.47,-0.534702,5.13361e-17,4.2315e-16,8.59913e-16,0.454061,0.454061,-0.904211,0.0,0.0,0.0,0.814664,0.5746940508824638,0.0,0.0,0.5746940508824638,0.0,-0.5951388053986025
586,0.5757,1079.75,1134.07,0.810912,4.46245e-17,4.6677e-16,3.48874e-15,0.454696,0.454696,-0.905472,0.0,0.0,0.0,0.815806,0.5756942991499887,0.0,0.0,0.5756942991499887,0.0,-0.5956490136111092
587,0.5767,1078.56,1132.89,-0.634366,3.87517e-17,1.41591e-15,-2.50502e-15,0.45533,0.45533,-0.906749,0.0,0.0,0.0,0.816957,0.5766936060824743,0.0,0.0,0.5766936060824743,0.0,-0.5961650402675827
588,0.5777,1080.36,1134.7,0.917317,3.36957e-17,-5.22887e-16,-2.58784e-16,0.455964,0.455964,-0.908007,0.0,0.0,0.0,0.818097,0.5776935467764361,0.0,0.0,0.5776935467764361,0.0,-0.5966727452335462
589,0.5787,1078.94,1133.29,-0.747174,2.92653e-17,1.49475e-15,1.63241e-15,0.456598,0.456598,-0.909283,0.0,0.0,0.0,0.819248,0.5786941216338068,0.0,0.0,0.5786941216338068,0.0,-0.597187062606361
590,0.5797,1079.56,1133.92,-0.376301,2.54408e-17,4.57326e-16,-3.1596e-15,0.457231,0.457231,-0.910547,0.0,0.0,0.0,0.82039,0.5796937513622316,0.0,0.0,0.5796937513622316,0.0,-0.5976958965084537
591,0.5807,1080.33,1134.71,0.153203,2.212e-17,4.95708e-16,1.92802e-15,0.457864,0.457864,-0.911809,0.0,0.0,0.0,0.821532,0.580694014056587,0.0,0.0,0.580694014056587,0.0,-0.5982032840581755
592,0.5817,1080.33,1134.72,-0.0975588,1.92288e-17,5.28211e-16,-1.72918e-16,0.458496,0.458496,-0.913074,0.0,0.0,0.0,0.822675,0.5816933284235484,0.0,0.0,0.5816933284235484,0.0,-0.5987112355567826
593,0.5827,1080.95,1135.35,0.278284,1.67216e-17,-1.27148e-15,-1.94381e-15,0.459128,0.459128,-0.914336,0.0,0.0,0.0,0.823815,0.5826932745568065,0.0,0.0,0.5826932745568065,0.0,-0.5992173425568222
594,0.5837,1080.83,1135.24,-0.087307,1.45386e-17,-4.83236e-17,2.04021e-15,0.45976,0.45976,-0.9156,0.0,0.0,0.0,0.824957,0.5836938528557645,0.0,0.0,0.5836938528557645,0.0,-0.5997236118062594
595,0.5847,1081.48,1135.9,0.315701,1.26459e-17,9.83739e-16,8.34619e-16,0.460391,0.460391,-0.91686,0.0,0.0,0.0,0.826096,0.5846934790258054,0.0,0.0,0.5846934790258054,0.0,-0.6002276424493951
596,0.5857,1081.29,1135.73,-0.110991,1.09972e-17,9.4074e-16,-1.81939e-16,0.461022,0.461022,-0.918123,0.0,0.0,0.0,0.827237,0.5856937361590075,0.0,0.0,0.5856937361590075,0.0,-0.60073223621894
597,0.5867,1081.99,1136.44,0.345739,9.56784e-18,1.81861e-15,7.87177e-16,0.461653,0.461653,-0.919381,0.0,0.0,0.0,0.828375,0.5866946246536344,0.0,0.0,0.5866946246536344,0.0,-0.6012341992648217
598,0.5877,1081.75,1136.21,-0.141554,8.32208e-18,7.31163e-16,6.90891e-16,0.462283,0.462283,-0.920643,0.0,0.0,0.0,0.829514,0.5876945572128496,0.0,0.0,0.5876945572128496,0.0,-0.6017371242929084
599,0.5887,1082.51,1136.98,0.378009,7.24222e-18,1.64169e-15,1.52338e-15,0.462912,0.462912,-0.921898,0.0,0.0,0.0,0.83065,0.5886935312337298,0.0,0.0,0.5886935312337298,0.0,-0.6022366306960916
600,0.5897,1082.2,1136.68,-0.176116,1.89044e-15,1.49561e-15,-1.42827e-15,0.463542,0.463542,-0.923159,0.0,0.0,0.0,0.831788,0.5896947235008567,0.0,0.0,0.5896947235008567,0.0,-0.6027378941917273
601,0.5907,1083.03,1137.53,0.41391,1.64555e-15,1.37256e-15,-1.17826e-15,0.46417,0.46417,-0.924413,0.0,0.0,0.0,0.832922,0.5906933653279283,0.0,0.0,0.5906933653279283,0.0,-0.6032357486524237
602,0.5917,1082.64,1137.15,-0.214624,1.43184e-15,3.53984e-16,1.77385e-15,0.464799,0.464799,-0.925673,0.0,0.0,0.0,0.83406,0.5916942261924629,0.0,0.0,0.5916942261924629,0.0,-0.6037353567898969
603,0.5927,1083.55,1138.07,0.453901,1.24667e-15,2.23798e-15,1.52428e-15,0.465427,0.465427,-0.926924,0.0,0.0,0.0,0.835192,0.5926941241015933,0.0,0.0,0.5926941241015933,0.0,-0.604230773910533
604,0.5937,1083.08,1137.61,-0.257367,1.08498e-15,1.69978e-16,1.31262e-15,0.466055,0.466055,-0.928183,0.0,0.0,0.0,0.836328,0.5936946501438236,0.0,0.0,0.5936946501438236,0.0,-0.6047287338346319
605,0.5947,1084.08,1138.62,0.498344,9.44904e-16,-6.62844e-16,2.20142e-16,0.466682,0.466682,-0.929432,0.0,0.0,0.0,0.837459,0.5946942100187382,0.0,0.0,0.5946942100187382,0.0,-0.6052221194626076
606,0.5957,1083.52,1138.07,-0.304682,8.22496e-16,-4.50384e-16,2.12003e-16,0.467309,0.467309,-0.93069,0.0,0.0,0.0,0.838594,0.5956943968142137,0.0,0.0,0.5956943968142137,0.0,-0.6057184377866431
607,0.5967,1084.61,1139.17,0.547601,7.16495e-16,1.55945e-15,2.03447e-15,0.467935,0.467935,-0.931938,0.0,0.0,0.0,0.839723,0.5966936142290393,0.0,0.0,0.5966936142290393,0.0,-0.6062101942564223
608,0.5977,1083.94,1138.52,-0.356925,6.23788e-16,5.12079e-16,-8.51588e-17,0.468561,0.468561,-0.933194,0.0,0.0,0.0,0.840857,0.5976934573497923,0.0,0.0,0.5976934573497923,0.0,-0.6067044837736395
609,0.5987,1085.14,1139.73,0.602047,5.43537e-16,5.41992e-16,-4.63629e-17,0.469187,0.469187,-0.934439,0.0,0.0,0.0,0.841984,0.5986939265682871,0.0,0.0,0.5986939265682871,0.0,-0.6071938320088563
610,0.5997,1084.36,1138.96,-0.414457,4.73291e-16,-3.47531e-16,-1.33706e-17,0.469812,0.469812,-0.935695,0.0,0.0,0.0,0.843117,0.5996934225823609,0.0,0.0,0.5996934225823609,0.0,-0.6076868868525938
611,0.6007,1085.68,1140.28,0.662064,4.12511e-16,7.3121e-16,-9.00864e-16,0.470437,0.470437,-0.936938,0.0,0.0,0.0,0.844242,0.6006935434766985,0.0,0.0,0.6006935434766985,0.0,-0.6081742291062779
612,0.6017,1084.77,1139.39,-0.47765,3.59259e-16,-1.87478e-16,1.09419e-15,0.471062,0.471062,-0.938193,0.0,0.0,0.0,0.845374,0.6016942896419715,0.0,0.0,0.6016942896419715,0.0,-0.6086656620101009
613,0.6027,1086.22,1140.85,0.728043,3.13207e-16,-4.93773e-17,1.86629e-15,0.471686,0.471686,-0.939434,0.0,0.0,0.0,0.846497,0.6026940587742369,0.0,0.0,0.6026940587742369,0.0,-0.609151006704874
614,0.6037,1085.18,1139.82,-0.546877,2.72818e-16,6.8404e-17,1.60154e-15,0.47231,0.47231,-0.940688,0.0,0.0,0.0,0.847628,0.6036944519571243,0.0,0.0,0.6036944519571243,0.0,-0.6096408241627329
615,0.6047,1086.76,1141.41,0.800381,2.37911e-16,1.67424e-16,1.37921e-15,0.472933,0.472933,-0.941926,0.0,0.0,0.0,0.84875,0.6046938648854958,0.0,0.0,0.6046938648854958,0.0,-0.6101237898050023
616,0.6057,1085.57,1140.24,-0.62251,2.07265e-16,-6.63565e-16,1.18959e-15,0.473556,0.473556,-0.943179,0.0,0.0,0.0,0.84988,0.6056939006421123,0.0,0.0,0.6056939006421123,0.0,-0.6106119987695859
617,0.6067,1087.31,1141.99,0.879477,1.80795e-16,1.38191e-15,3.77886e-15,0.474179,0.474179,-0.944415,0.0,0.0,0.0,0.851,0.6066945596151172,0.0,0.0,0.6066945596151172,0.0,-0.6110929850283655
618,0.6077,1085.96,1140.65,-0.70492,2.04459e-15,3.63436e-16,3.21585e-15,0.474801,0.474801,-0.945668,0.0,0.0,0.0,0.852129,0.6076942344978564,0.0,0.0,0.6076942344978564,0.0,-0.6115799803518391
619,0.6087,1086.56,1141.26,-0.342532,1.78306e-15,1.33438e-15,-5.55798e-18,0.475423,0.475423,-0.946909,0.0,0.0,0.0,0.853251,0.608694531371792,0.0,0.0,0.608694531371792,0.0,-0.6120617106207653
620,0.6097,1087.27,1141.98,0.135563,1.55521e-15,-5.94114e-16,-8.98547e-16,0.476044,0.476044,-0.948148,0.0,0.0,0.0,0.854372,0.6096938409292769,0.0,0.0,0.6096938409292769,0.0,-0.6125420685181382
621,0.6107,1087.29,1142.01,-0.0760932,1.35626e-15,-2.22592e-15,5.67354e-15,0.476665,0.476665,-0.949391,0.0,0.0,0.0,0.855495,0.6106937712507243,0.0,0.0,0.6106937712507243,0.0,-0.6130233795302054
622,0.6117,1087.85,1142.58,0.245284,3.07242e-15,1.89401e-15,2.07256e-15,0.477286,0.477286,-0.95063,0.0,0.0,0.0,0.856615,0.6116943227217482,0.0,0.0,0.6116943227217482,0.0,-0.6135025466576337
623,0.6127,1087.78,1142.52,-0.0595265,2.67985e-15,4.46489e-15,-6.47081e-15,0.477906,0.477906,-0.951871,0.0,0.0,0.0,0.857736,0.6126938830335131,0.0,0.0,0.6126938830335131,0.0,-0.6139818925016161
624,0.6137,1088.34,1143.09,0.271951,4.48563e-16,-6.94839e-16,1.87749e-15,0.478526,0.478526,-0.953108,0.0,0.0,0.0,0.858855,0.6136940632648265,0.0,0.0,0.6136940632648265,0.0,-0.6144591016858603
625,0.6147,1088.23,1142.99,-0.072841,2.28072e-15,-1.39553e-15,-2.0547e-15,0.479145,0.479145,-0.954349,0.0,0.0,0.0,0.859975,0.6146932491061012,0.0,0.0,0.6146932491061012,0.0,-0.6149372611813342
626,0.6157,1088.82,1143.6,0.290189,1.99046e-15,1.68039e-15,1.94971e-15,0.479765,0.479765,-0.955584,0.0,0.0,0.0,0.861092,0.6156946693287371,0.0,0.0,0.6156946693287371,0.0,-0.6154125201309675
627,0.6167,1088.67,1143.46,-0.0907402,1.73682e-15,2.4509e-15,2.58843e-15,0.480383,0.480383,-0.956823,0.0,0.0,0.0,0.862211,0.6166934772342361,0.0,0.0,0.6166934772342361,0.0,-0.6158887289462442
628,0.6177,1089.3,1144.1,0.308634,1.51612e-15,1.26883e-15,-5.37957e-16,0.481002,0.481002,-0.958057,0.0,0.0,0.0,0.863327,0.6176945202875057,0.0,0.0,0.6176945202875057,0.0,-0.6163624299211121
629,0.6187,1089.11,1143.92,-0.110351,1.32318e-15,2.67008e-16,1.3993e-15,0.48162,0.48162,-0.959294,0.0,0.0,0.0,0.864445,0.6186945644828712,0.0,0.0,0.6186945644828712,0.0,-0.6168366962011299
630,0.6197,1089.78,1144.6,0.328318,1.15531e-15,4.92556e-15,2.889e-16,0.482237,0.482237,-0.960526,0.0,0.0,0.0,0.865559,0.6196936072021424,0.0,0.0,0.6196936072021424,0.0,-0.6173084627235608
631,0.6207,1089.55,1144.38,-0.13138,1.00848e-15,6.11741e-16,3.01624e-15,0.482854,0.482854,-0.961763,0.0,0.0,0.0,0.866675,0.6206932665209728,0.0,0.0,0.6206932665209728,0.0,-0.6177815594844986
632,0.6217,1090.26,1145.1,0.349396,8.80729e-16,6.26736e-16,-1.09432e-15,0.483471,0.483471,-0.962993,0.0,0.0,0.0,0.867788,0.6216935428199215,0.0,0.0,0.6216935428199215,0.0,-0.6182513991556998
633,0.6227,1089.99,1144.84,-0.153824,7.68944e-16,-2.11424e-15,1.84496e-15,0.484088,0.484088,-0.964228,0.0,0.0,0.0,0.868903,0.6226944364797831,0.0,0.0,0.6226944364797831,0.0,-0.6187225676712976
634,0.6237,1090.74,1145.61,0.371915,-1.22015e-15,1.98937e-15,5.25413e-15,0.484704,0.484704,-0.965457,0.0,0.0,0.0,0.870014,0.6236943241864505,0.0,0.0,0.6236943241864505,0.0,-0.6191908698050232
635,0.6247,1090.42,1145.3,-0.177707,-1.06549e-15,8.77184e-16,-1.17315e-16,0.48532,0.48532,-0.96669,0.0,0.0,0.0,0.871128,0.6246948280136908,0.0,0.0,0.6246948280136908,0.0,-0.6196601181115233
636,0.6257,1091.22,1146.11,0.395903,-9.3094e-16,1.77114e-15,1.75489e-15,0.485935,0.485935,-0.967917,0.0,0.0,0.0,0.872238,0.6256943226460159,0.0,0.0,0.6256943226460159,0.0,-0.6201265089573028
637,0.6267,1090.85,1145.75,-0.203052,-2.70468e-15,4.3652e-15,2.42253e-15,0.48655,0.48655,-0.96915,0.0,0.0,0.0,0.873351,0.6266944321565955,0.0,0.0,0.6266944321565955,0.0,-0.6205946043316568
638,0.6277,1091.7,1146.61,0.421381,-2.36368e-15,1.9733e-15,-1.60134e-15,0.487164,0.487164,-0.970374,0.0,0.0,0.0,0.874459,0.6276935292293531,0.0,0.0,0.6276935292293531,0.0,-0.6210587124438471
639,0.6287,1091.28,1146.2,-0.229871,-3.95678e-15,2.69908e-15,-5.92805e-15,0.487779,0.487779,-0.971606,0.0,0.0,0.0,0.875571,0.6286948686301339,0.0,0.0,0.6286948686301339,0.0,-0.6215252806450904
640,0.6297,1092.18,1147.11,0.448362,-5.35184e-15,2.39691e-15,-5.00842e-15,0.488392,0.488392,-0.972829,0.0,0.0,0.0,0.876677,0.6296935646536621,0.0,0.0,0.6296935646536621,0.0,-0.6219878722944086
641,0.6307,1091.7,1146.64,-0.258171,-4.67608e-15,2.13919e-15,-5.52828e-16,0.489006,0.489006,-0.974059,0.0,0.0,0.0,0.877788,0.6306945037592189,0.0,0.0,0.6306945037592189,0.0,-0.6224525413814148
642,0.6317,1092.66,1147.61,0.476847,-4.0884e-15,1.00165e-15,3.22687e-15,0.489619,0.489619,-0.97528,0.0,0.0,0.0,0.878893,0.6316944259348587,0.0,0.0,0.6316944259348587,0.0,-0.6229132455112805
643,0.6327,1092.12,1147.08,-0.287948,-3.57282e-15,2.79291e-15,9.20002e-16,0.490231,0.490231,-0.976509,0.0,0.0,0.0,0.880002,0.6326933285565552,0.0,0.0,0.6326933285565552,0.0,-0.6233764004655303
644,0.6337,1093.14,1148.11,0.506829,-1.23051e-15,4.31557e-15,-1.95615e-15,0.490844,0.490844,-0.977729,0.0,0.0,0.0,0.881105,0.6336944763874206,0.0,0.0,0.6336944763874206,0.0,-0.6238356010876267
645,0.6347,1092.54,1147.52,-0.319186,-1.07553e-15,1.92809e-15,-1.63831e-15,0.491456,0.491456,-0.978957,0.0,0.0,0.0,0.882214,0.6346946034146239,0.0,0.0,0.6346946034146239,0.0,-0.6242972474606052
646,0.6357,1093.62,1148.61,0.538291,-2.83522e-15,8.2054e-16,3.22639e-15,0.492067,0.492067,-0.980174,0.0,0.0,0.0,0.883315,0.6356937070123772,0.0,0.0,0.6356937070123772,0.0,-0.6247541995986707
647,0.6367,1092.96,1147.96,-0.351861,-4.3719e-15,-1.19867e-16,4.59416e-15,0.492678,0.492678,-0.981401,0.0,0.0,0.0,0.884423,0.6366934212489599,0.0,0.0,0.6366934212489599,0.0,-0.6252143438395413
648,0.6377,1094.1,1149.12,0.571204,-1.93021e-15,6.61135e-19,2.08086e-15,0.493289,0.493289,-0.982616,0.0,0.0,0.0,0.885523,0.6376937464975863,0.0,0.0,0.6376937464975863,0.0,-0.6256694318898014
649,0.6387,1093.37,1148.39,-0.385934,-1.6877e-15,1.02329e-15,2.70268e-15,0.4939,0.4939,-0.983842,0.0,0.0,0.0,0.886629,0.6386946831316989,0.0,0.0,0.6386946831316989,0.0,-0.6261280799575903
650,0.6397,1094.58,1149.62,0.605526,-1.47695e-15,1.89285e-15,-2.2855e-15,0.49451,0.49451,-0.985056,0.0,0.0,0.0,0.887727,0.6396945918295565,0.0,0.0,0.6396945918295565,0.0,-0.6265816850745058
651,0.6407,1093.78,1148.82,-0.421358,-1.29162e-15,4.46956e-15,3.59256e-15,0.495119,0.495119,-0.986281,0.0,0.0,0.0,0.888832,0.6406934699635003,0.0,0.0,0.6406934699635003,0.0,-0.627038842444232
652,0.6417,1095.06,1150.12,0.641205,7.65158e-16,-7.02372e-16,-2.45042e-15,0.495729,0.495729,-0.987492,0.0,0.0,0.0,0.889929,0.6416945982932754,0.0,0.0,0.6416945982932754,0.0,-0.6274902250387077
653,0.6427,1094.18,1149.25,-0.458069,6.6926e-16,4.25172e-16,8.04875e-15,0.496338,0.496338,-0.988716,0.0,0.0,0.0,0.891033,0.642694694802113,0.0,0.0,0.642694694802113,0.0,-0.6279458980744725
654,0.6437,1095.54,1150.62,0.678174,-1.31023e-15,-4.58064e-16,4.14029e-16,0.496946,0.496946,-0.989926,0.0,0.0,0.0,0.892129,0.6436937568606422,0.0,0.0,0.6436937568606422,0.0,-0.6283958112854167
655,0.6447,1094.59,1149.68,-0.495995,-1.14621e-15,6.33129e-16,-3.31e-15,0.497554,0.497554,-0.991148,0.0,0.0,0.0,0.893232,0.6446934265335988,0.0,0.0,0.6446934265335988,0.0,-0.6288496342617134
656,0.6457,1096.02,1151.12,0.716355,-2.90041e-15,6.40177e-16,2.72596e-15,0.498162,0.498162,-0.992356,0.0,0.0,0.0,0.894325,0.6456937041905251,0.0,0.0,0.6456937041905251,0.0,-0.6292977132093521
657,0.6467,1094.99,1150.1,-0.535047,-2.53777e-15,5.24777e-15,-4.27795e-16,0.49877,0.49877,-0.993578,0.0,0.0,0.0,0.895427,0.6466945902011876,0.0,0.0,0.6466945902011876,0.0,-0.6297504347346214
658,0.6477,1096.5,1151.62,0.755655,-2.22292e-15,5.48756e-15,-1.26843e-15,0.499377,0.499377,-0.994784,0.0,0.0,0.0,0.896519,0.6476944372403166,0.0,0.0,0.6476944372403166,0.0,-0.6301966865663899
659,0.6487,1095.39,1150.52,-0.575125,-1.94532e-15,2.9232e-15,1.69837e-15,0.499983,0.499983,-0.996004,0.0,0.0,0.0,0.89762,0.6486932426767651,0.0,0.0,0.6486932426767651,0.0,-0.6306475715130367
660,0.6497,1096.98,1152.12,0.795969,-1.70437e-15,7.42905e-16,1.46048e-15,0.50059,0.50059,-0.997208,0.0,0.0,0.0,0.898711,0.6496943032662221,0.0,0.0,0.6496943032662221,0.0,-0.6310920042347485
661,0.6507,1095.79,1150.94,-0.616117,-1.49178e-15,1.65112e-15,-5.83401e-16,0.501196,0.501196,-0.998428,0.0,0.0,0.0,0.89981,0.6506943209887679,0.0,0.0,0.6506943209887679,0.0,-0.6315417975598645
662,0.6517,1097.46,1152.62,0.837178,-1.30731e-15,1.50361e-15,-3.24434e-15,0.501801,0.501801,-0.99963,0.0,0.0,0.0,0.900899,0.6516932932115929,0.0,0.0,0.6516932932115929,0.0,-0.6319844182508705
663,0.6527,1096.18,1151.35,-0.657896,-1.14444e-15,1.37689e-15,-5.5e-15,0.502407,0.502407,-1.00085,0.0,0.0,0.0,0.901998,0.65269452268917,0.0,0.0,0.65269452268917,0.0,-0.6324331234947513
664,0.6537,1097.93,1153.11,0.879151,-2.90154e-15,4.9591e-15,-4.66226e-15,0.503012,0.503012,-1.00205,0.0,0.0,0.0,0.903085,0.6536947054001594,0.0,0.0,0.6536947054001594,0.0,-0.632873939204234
665,0.6547,1096.57,1151.76,-0.700324,-4.4367e-15,6.306e-16,-6.70326e-15,0.503616,0.503616,-1.00327,0.0,0.0,0.0,0.904183,0.6546938387101058,0.0,0.0,0.6546938387101058,0.0,-0.6333215598942641
666,0.6557,1097.17,1152.38,-0.315775,-3.88798e-15,1.55519e-15,7.67382e-16,0.50422,0.50422,-1.00447,0.0,0.0,0.0,0.905273,0.6556935756788578,0.0,0.0,0.6556935756788578,0.0,-0.6337613101194857
667,0.6567,1097.81,1153.02,0.106369,-3.40751e-15,-1.34613e-15,4.35958e-15,0.504824,0.504824,-1.00568,0.0,0.0,0.0,0.906362,0.6566939166711359,0.0,0.0,0.6566939166711359,0.0,-0.6342041909373113
668,0.6577,1097.87,1153.09,-0.051893,-4.8839e-15,4.48242e-15,9.65186e-16,0.505428,0.505428,-1.00688,0.0,0.0,0.0,0.907453,0.6576948620518801,0.0,0.0,0.6576948620518801,0.0,-0.6346428826405215
669,0.6587,1098.34,1153.57,0.202463,-4.28092e-15,-1.62064e-15,2.6842e-15,0.506031,0.506031,-1.00809,0.0,0.0,0.0,0.908541,0.6586947534906689,0.0,0.0,0.6586947534906689,0.0,-0.6350846974006915
670,0.6597,1098.33,1153.57,-0.0274035,-3.75204e-15,1.4825e-15,-4.61099e-16,0.506633,0.506633,-1.00929,0.0,0.0,0.0,0.909631,0.6596935883513981,0.0,0.0,0.6596935883513981,0.0,-0.635522333129857
671,0.6607,1098.79,1154.04,0.218146,-3.28944e-15,4.12613e-15,-6.82524e-15,0.507236,0.507236,-1.0105,0.0,0.0,0.0,0.910718,0.6606946853855957,0.0,0.0,0.6606946853855957,0.0,-0.6359630843984769
672,0.6617,1098.75,1154.02,-0.030026,-2.88359e-15,2.68707e-15,6.63667e-16,0.507838,0.507838,-1.0117,0.0,0.0,0.0,0.911807,0.6616947245677902,0.0,0.0,0.6616947245677902,0.0,-0.6363996666954308
673,0.6627,1099.22,1154.5,0.224727,-2.52857e-15,-1.30711e-15,5.19575e-15,0.508439,0.508439,-1.0129,0.0,0.0,0.0,0.912893,0.6626937032602831,0.0,0.0,0.6626937032602831,0.0,-0.6368357254078416
674,0.6637,1099.18,1154.46,-0.0357029,-2.21702e-15,8.26291e-16,1.67719e-15,0.50904,0.50904,-1.01411,0.0,0.0,0.0,0.91398,0.6636932825194226,0.0,0.0,0.6636932825194226,0.0,-0.6372748884328865
675,0.6647,1099.65,1154.95,0.230257,-1.94446e-15,1.72169e-15,4.21399e-15,0.509641,0.509641,-1.0153,0.0,0.0,0.0,0.915064,0.6646934627062575,0.0,0.0,0.6646934627062575,0.0,-0.6377062745899809
676,0.6657,1099.6,1154.9,-0.0416885,-1.7052e-15,3.40713e-15,-1.00397e-15,0.510242,0.510242,-1.01651,0.0,0.0,0.0,0.91615,0.6656942441820537,0.0,0.0,0.6656942441820537,0.0,-0.6381443848875438
677,0.6667,1100.09,1155.4,0.235623,-1.49586e-15,2.07482e-15,-8.36779e-16,0.510842,0.510842,-1.0177,0.0,0.0,0.0,0.917233,0.666693960613501,0.0,0.0,0.666693960613501,0.0,-0.6385747369592598
678,0.6677,1100.02,1155.34,-0.0476492,-1.31206e-15,-1.83047e-15,2.07277e-15,0.511442,0.511442,-1.01891,0.0,0.0,0.0,0.918318,0.6676942770547918,0.0,0.0,0.6676942770547918,0.0,-0.6390117970528575
679,0.6687,1100.52,1155.85,0.240901,-1.15121e-15,2.22622e-15,3.62933e-15,0.512041,0.512041,-1.0201,0.0,0.0,0.0,0.9194,0.668693525171681,0.0,0.0,0.668693525171681,0.0,-0.6394411175180243
680,0.6697,1100.43,1155.78,-0.0535232,-1.00994e-15,1.44787e-16,5.87627e-15,0.51264,0.51264,-1.0213,0.0,0.0,0.0,0.920483,0.6696933720174938,0.0,0.0,0.6696933720174938,0.0,-0.6398735286784172
681,0.6707,1100.95,1156.3,0.246077,-8.86306e-16,-7.06944e-16,-4.2049e-15,0.513239,0.513239,-1.0225,0.0,0.0,0.0,0.921564,0.670693817950976,0.0,0.0,0.670693817950976,0.0,-0.640305421256629
682,0.6717,1100.85,1156.22,-0.0592796,-7.77695e-16,2.26111e-15,-7.97997e-16,0.513838,0.513838,-1.02369,0.0,0.0,0.0,0.922646,0.6716948633310886,0.0,0.0,0.6716948633310886,0.0,-0.6407332032245809
683,0.6727,1101.37,1156.75,0.251125,-6.82624e-16,1.74346e-16,-1.58626e-15,0.514436,0.514436,-1.02489,0.0,0.0,0.0,0.923725,0.6726948358213356,0.0,0.0,0.6726948358213356,0.0,-0.6411640648120556
684,0.6737,1101.27,1156.65,-0.0648905,-5.99086e-16,5.78387e-15,-5.02594e-15,0.515033,0.515033,-1.02608,0.0,0.0,0.0,0.924806,0.673693732779395,0.0,0.0,0.673693732779395,0.0,-0.641590825601898
685,0.6747,1101.8,1157.2,0.256016,-5.25954e-16,5.02716e-15,3.49995e-16,0.51563,0.51563,-1.02728,0.0,0.0,0.0,0.925884,0.6746932262569818,0.0,0.0,0.6746932262569818,0.0,-0.642020658659761
686,0.6757,1101.68,1157.09,-0.0703284,-2.36275e-15,6.84123e-16,4.00948e-15,0.516227,0.516227,-1.02847,0.0,0.0,0.0,0.926963,0.6756933166103241,0.0,0.0,0.6756933166103241,0.0,-0.6424464007091952
687,0.6767,1102.22,1157.64,0.260724,-2.07473e-15,-2.49941e-16,4.3605e-15,0.516824,0.516824,-1.02966,0.0,0.0,0.0,0.92804,0.6766940041958636,0.0,0.0,0.6766940041958636,0.0,-0.642871636426918
688,0.6777,1102.1,1157.52,-0.0755662,-1.82151e-15,1.72561e-15,9.64615e-16,0.51742,0.51742,-1.03086,0.0,0.0,0.0,0.929118,0.6776936116758037,0.0,0.0,0.6776936116758037,0.0,-0.643299933433606
689,0.6787,1102.65,1158.08,0.265221,3.0234e-16,6.38966e-16,-5.62677e-15,0.518016,0.518016,-1.03205,0.0,0.0,0.0,0.930194,0.6786938150993753,0.0,0.0,0.6786938150993753,0.0,-0.6437241540514909
690,0.6797,1102.51,1157.96,-0.0805774,2.6549e-16,2.48432e-15,7.60258e-16,0.518612,0.518612,-1.03324,0.0,0.0,0.0,0.931271,0.6796946148218668,0.0,0.0,0.6796946148218668,0.0,-0.6441478701470906
691,0.6807,1103.08,1158.6,0.317405,-1.66928e-15,4.98519e-15,4.36204e-15,0.519207,0.519207,-1.03443,0.0,0.0,0.0,0.932344,0.6806943305036073,0.0,0.0,0.6806943305036073,0.0,-0.6445710823204298
692,0.6817,1102.81,1158.34,-0.165757,-1.46602e-15,2.49558e-15,4.66092e-15,0.519802,0.519802,-1.03562,0.0,0.0,0.0,0.933421,0.6816946411931759,0.0,0.0,0.6816946411931759,0.0,-0.6449937911708195
693,0.6827,1103.55,1159.14,0.39205,-1.28815e-15,-5.55341e-16,-3.40037e-15,0.520396,0.520396,-1.0368,0.0,0.0,0.0,0.934493,0.6826938645500016,0.0,0.0,0.6826938645500016,0.0,-0.6454124514391011
694,0.6837,1103.13,1158.71,-0.244803,-1.13144e-15,-1.31028e-15,-1.03696e-15,0.52099,0.52099,-1.03799,0.0,0.0,0.0,0.935568,0.6836936816218169,0.0,0.0,0.6836936816218169,0.0,-0.6458341596557344
695,0.6847,1104.02,1159.67,0.470023,-9.94415e-16,3.59532e-15,4.67818e-15,0.521584,0.521584,-1.03918,0.0,0.0,0.0,0.936639,0.6846940927613938,0.0,0.0,0.6846940927613938,0.0,-0.6462553663380624
696,0.6857,1103.46,1159.16,-0.275732,-8.7356e-16,2.23362e-15,-2.46068e-15,0.522177,0.522177,-1.04037,0.0,0.0,0.0,0.937713,0.6856934126274574,0.0,0.0,0.6856934126274574,0.0,-0.6466760720825553
697,0.6867,1104.46,1160.21,0.532737,-7.67935e-16,2.92181e-15,-2.35864e-16,0.52277,0.52277,-1.04155,0.0,0.0,0.0,0.938782,0.6866933252659411,0.0,0.0,0.6866933252659411,0.0,-0.6470927484301044
698,0.6877,1103.79,1159.58,-0.328098,1.22811e-15,7.32782e-16,-1.85138e-16,0.523363,0.523363,-1.04274,0.0,0.0,0.0,0.939856,0.6876938310284637,0.0,0.0,0.6876938310284637,0.0,-0.6475124582825811
699,0.6887,1104.83,1160.66,0.524173,1.07984e-15,1.63873e-15,-1.42005e-16,0.523955,0.523955,-1.04392,0.0,0.0,0.0,0.940923,0.6886932415727653,0.0,0.0,0.6886932415727653,0.0,-0.6479281482764774
700,0.6897,1104.16,1160.03,-0.33973,9.48913e-16,4.26186e-15,-7.4995e-15,0.524548,0.524548,-1.04511,0.0,0.0,0.0,0.941996,0.6896949336373617,0.0,0.0,0.6896949336373617,0.0,-0.6483468645944073
701,0.6907,1105.22,1161.12,0.528115,8.34508e-16,3.72949e-15,1.01225e-15,0.525139,0.525139,-1.04628,0.0,0.0,0.0,0.943062,0.6906938384904504,0.0,0.0,0.6906938384904504,0.0,-0.6487580581676845
702,0.6917,1104.54,1160.47,-0.34607,-1.17005e-15,3.27157e-15,-4.66491e-15,0.52573,0.52573,-1.04747,0.0,0.0,0.0,0.944133,0.6916933338707911,0.0,0.0,0.6916933338707911,0.0,-0.6491757874802284
703,0.6927,1105.61,1161.58,0.532706,-1.02918e-15,6.12334e-15,2.51045e-15,0.526321,0.526321,-1.04865,0.0,0.0,0.0,0.945198,0.6926934201274884,0.0,0.0,0.6926934201274884,0.0,-0.6495895159032259
704,0.6937,1104.93,1160.91,-0.351057,-9.04731e-16,3.465e-15,3.08716e-15,0.526912,0.526912,-1.04983,0.0,0.0,0.0,0.946268,0.6936940976098533,0.0,0.0,0.6936940976098533,0.0,-0.6500027564146087
705,0.6947,1106.01,1162.02,0.536593,-7.95955e-16,2.11926e-15,3.42546e-16,0.527502,0.527502,-1.05101,0.0,0.0,0.0,0.947331,0.6946936719728842,0.0,0.0,0.6946936719728842,0.0,-0.650415509589773
706,0.6957,1105.32,1161.35,-0.355108,-6.99833e-16,1.89303e-15,3.10367e-16,0.528092,0.528092,-1.05219,0.0,0.0,0.0,0.9484,0.6956938362587994,0.0,0.0,0.6956938362587994,0.0,-0.6508277760034363
707,0.6967,1106.41,1162.46,0.5396,-2.52154e-15,-1.07935e-15,-5.27195e-15,0.528682,0.528682,-1.05337,0.0,0.0,0.0,0.949462,0.6966945908157562,0.0,0.0,0.6966945908157562,0.0,-0.6512395562296386
708,0.6977,1105.71,1161.78,-0.358247,-4.12199e-15,2.39916e-15,-4.02232e-15,0.529271,0.529271,-1.05455,0.0,0.0,0.0,0.95053,0.6976942382970301,0.0,0.0,0.6976942382970301,0.0,-0.6516508508417427
709,0.6987,1106.81,1162.9,0.541689,-3.62777e-15,7.4362e-16,-6.41549e-16,0.52986,0.52986,-1.05572,0.0,0.0,0.0,0.951591,0.6986944747441037,0.0,0.0,0.6986944747441037,0.0,-0.6520581810116421
710,0.6997,1106.11,1162.21,-0.360463,-3.19084e-15,5.34728e-15,-6.51837e-17,0.530448,0.530448,-1.0569,0.0,0.0,0.0,0.952657,0.6996936008095298,0.0,0.0,0.6996936008095298,0.0,-0.6524685102162059
711,0.7007,1107.21,1163.33,0.542846,-2.80878e-15,1.41216e-15,1.81703e-15,0.531036,0.531036,-1.05808,0.0,0.0,0.0,0.953717,0.7006933145338368,0.0,0.0,0.7006933145338368,0.0,-0.652878355517867
712,0.7017,1106.5,1162.64,-0.361745,-5.65682e-16,4.06618e-15,-6.29415e-15,0.531624,0.531624,-1.05926,0.0,0.0,0.0,0.954782,0.7016936162626703,0.0,0.0,0.7016936162626703,0.0,-0.6532877174872944
713,0.7027,1107.61,1163.76,0.54306,-4.98042e-16,4.48676e-15,2.5114e-15,0.532212,0.532212,-1.06043,0.0,0.0,0.0,0.95584,0.7026945063418786,0.0,0.0,0.7026945063418786,0.0,-0.6536931336431353
714,0.7037,1106.9,1163.07,-0.362088,-4.38218e-16,3.91617e-15,-2.46077e-15,0.532799,0.532799,-1.0616,0.0,0.0,0.0,0.956904,0.7036942814223797,0.0,0.0,0.7036942814223797,0.0,-0.6540980757394528
715,0.7047,1108.01,1164.18,0.542329,-3.8589e-16,4.82104e-15,-5.79082e-15,0.533386,0.533386,-1.06277,0.0,0.0,0.0,0.957961,0.7046946435431325,0.0,0.0,0.7046946435431325,0.0,-0.654502544330572
716,0.7057,1107.3,1163.49,-0.361492,-3.396e-16,3.08363e-17,2.01617e-15,0.533972,0.533972,-1.06395,0.0,0.0,0.0,0.959024,0.7056938873540908,0.0,0.0,0.7056938873540908,0.0,-0.6549099908875159
717,0.7067,1108.4,1164.6,0.540657,-2.99103e-16,-1.75384e-15,1.28481e-15,0.534558,0.534558,-1.06512,0.0,0.0,0.0,0.96008,0.7066937168935237,0.0,0.0,0.7066937168935237,0.0,-0.6553135100934107
718,0.7077,1107.7,1163.91,-0.359964,-2.63272e-16,2.28233e-15,6.58168e-16,0.535144,0.535144,-1.06629,0.0,0.0,0.0,0.961141,0.7076941325047692,0.0,0.0,0.7076941325047692,0.0,-0.6557165574579155
719,0.7087,1108.8,1165.02,0.538054,-2.31919e-16,-7.52912e-16,2.4397e-15,0.535729,0.535729,-1.06746,0.0,0.0,0.0,0.962196,0.7086934258370856,0.0,0.0,0.7086934258370856,0.0,-0.6561191335327621
720,0.7097,1108.1,1164.34,-0.357517,-2.04174e-16,4.53028e-15,2.56e-16,0.536314,0.536314,-1.06863,0.0,0.0,0.0,0.963256,0.7096933039270263,0.0,0.0,0.7096933039270263,0.0,-0.6565212388690369
721,0.7107,1109.19,1165.44,0.534535,-1.79891e-16,3.02865e-15,-1.61381e-15,0.536899,0.536899,-1.0698,0.0,0.0,0.0,0.964309,0.7106937671167748,0.0,0.0,0.7106937671167748,0.0,-0.656922874017182
722,0.7117,1108.5,1164.76,-0.354168,-1.584e-16,2.20393e-15,1.88419e-15,0.537484,0.537484,-1.07097,0.0,0.0,0.0,0.965368,0.7116948157487142,0.0,0.0,0.7116948157487142,0.0,-0.6573240395269956
723,0.7127,1109.58,1165.85,0.530121,-1.39586e-16,2.89051e-15,-3.46578e-15,0.538068,0.538068,-1.07213,0.0,0.0,0.0,0.96642,0.7126947374698349,0.0,0.0,0.7126947374698349,0.0,-0.6577213131778792
724,0.7137,1108.9,1165.18,-0.349941,-1.22933e-16,4.40383e-15,2.617e-15,0.538651,0.538651,-1.07331,0.0,0.0,0.0,0.967478,0.7136935296214022,0.0,0.0,0.7136935296214022,0.0,-0.658124963827609
725,0.7147,1109.97,1166.26,0.524839,-1.08351e-16,1.06191e-15,-2.83849e-15,0.539235,0.539235,-1.07447,0.0,0.0,0.0,0.968529,0.7146946189323276,0.0,0.0,0.7146946189323276,0.0,-0.6585213089449573
726,0.7157,1109.3,1165.6,-0.344866,1.81228e-15,2.37309e-15,4.54517e-15,0.539818,0.539818,-1.07564,0.0,0.0,0.0,0.969585,0.7156945773547223,0.0,0.0,0.7156945773547223,0.0,-0.6589206053795278
727,0.7167,1110.36,1166.67,0.518722,1.59759e-15,2.10584e-15,-5.36269e-15,0.5404,0.5404,-1.0768,0.0,0.0,0.0,0.970635,0.7166934022285874,0.0,0.0,0.7166934022285874,0.0,-0.6593160280877768
728,0.7177,1109.7,1166.02,-0.338976,-5.00565e-16,4.19519e-15,-3.17807e-15,0.540983,0.540983,-1.07797,0.0,0.0,0.0,0.97169,0.7176945262813921,0.0,0.0,0.7176945262813921,0.0,-0.6597143952446836
729,0.7187,1110.75,1167.07,0.511804,-4.41343e-16,-4.74855e-17,1.47612e-15,0.541565,0.541565,-1.07913,0.0,0.0,0.0,0.972739,0.7186945154643132,0.0,0.0,0.7186945154643132,0.0,-0.6601088976905441
730,0.7197,1110.1,1166.44,-0.332309,-3.88904e-16,1.42142e-15,-5.67275e-16,0.542146,0.542146,-1.08029,0.0,0.0,0.0,0.973793,0.7196933671161052,0.0,0.0,0.7196933671161052,0.0,-0.6605029427788863
731,0.7207,1111.13,1167.48,0.504128,-3.42953e-16,2.2177e-15,-1.39111e-15,0.542728,0.542728,-1.08145,0.0,0.0,0.0,0.97484,0.7206945199629855,0.0,0.0,0.7206945199629855,0.0,-0.6608965310399371
732,0.7217,1110.5,1166.85,-0.324908,1.60652e-15,2.89878e-15,4.39792e-15,0.543309,0.543309,-1.08262,0.0,0.0,0.0,0.975893,0.7216945339550185,0.0,0.0,0.7216945339550185,0.0,-0.6612930500897433
733,0.7227,1111.52,1167.88,0.495739,1.41695e-15,2.55556e-15,7.96522e-17,0.543889,0.543889,-1.08377,0.0,0.0,0.0,0.976939,0.7226934064297281,0.0,0.0,0.7226934064297281,0.0,-0.6616823391979999
734,0.7237,1110.9,1167.27,-0.316818,3.15819e-15,5.04508e-15,-5.47585e-15,0.54447,0.54447,-1.08494,0.0,0.0,0.0,0.97799,0.7236945821122365,0.0,0.0,0.7236945821122365,0.0,-0.6620779393898979
735,0.7247,1111.9,1168.28,0.486683,2.78599e-15,3.93174e-15,-3.74312e-15,0.54505,0.54505,-1.08609,0.0,0.0,0.0,0.979036,0.7246946149513507,0.0,0.0,0.7246946149513507,0.0,-0.6624663263942685
736,0.7257,1111.3,1167.69,-0.30809,2.45633e-15,4.36691e-15,5.16959e-15,0.545629,0.545629,-1.08726,0.0,0.0,0.0,0.980086,0.7256935022833846,0.0,0.0,0.7256935022833846,0.0,-0.6628610098575376
737,0.7267,1112.28,1168.68,0.477014,2.16722e-15,1.95414e-15,-1.86156e-16,0.546209,0.546209,-1.08841,0.0,0.0,0.0,0.98113,0.7266946948324813,0.0,0.0,0.7266946948324813,0.0,-0.6632484968484775
738,0.7277,1111.7,1168.11,-0.298774,1.91113e-15,4.99238e-15,2.18502e-15,0.546788,0.546788,-1.08957,0.0,0.0,0.0,0.982178,0.7276947405460854,0.0,0.0,0.7276947405460854,0.0,-0.6636389021133022
739,0.7287,1112.66,1169.07,0.466785,1.68648e-15,4.34953e-15,-4.24589e-16,0.547366,0.547366,-1.09073,0.0,0.0,0.0,0.983221,0.7286936367593171,0.0,0.0,0.7286936367593171,0.0,-0.6640288547705828
740,0.7297,1112.09,1168.52,-0.288926,1.48747e-15,3.79458e-15,-3.40411e-16,0.547945,0.547945,-1.09189,0.0,0.0,0.0,0.984269,0.7296948401954251,0.0,0.0,0.7296948401954251,0.0,-0.6644183553450398
741,0.7307,1113.03,1169.47,0.456051,1.31284e-15,6.50875e-17,-2.12687e-15,0.548523,0.548523,-1.09304,0.0,0.0,0.0,0.98531,0.7306948928004191,0.0,0.0,0.7306948928004191,0.0,-0.664804052418069
742,0.7317,1112.49,1168.94,-0.278601,1.15814e-15,4.7644e-15,-4.06685e-16,0.5491,0.5491,-1.0942,0.0,0.0,0.0,0.986357,0.731693791908244,0.0,0.0,0.731693791908244,0.0,-0.6651926542846063
743,0.7327,1113.41,1169.86,0.444869,1.02234e-15,2.2923e-15,1.39977e-16,0.549677,0.549677,-1.09535,0.0,0.0,0.0,0.987397,0.7326932675471673,0.0,0.0,0.7326932675471673,0.0,-0.6655774614256638
744,0.7337,1112.89,1169.35,-0.267856,-1.00886e-15,2.49261e-15,-2.17766e-15,0.550254,0.550254,-1.0965,0.0,0.0,0.0,0.988442,0.7336933200499436,0.0,0.0,0.7336933200499436,0.0,-0.6659618262928655
745,0.7347,1113.78,1170.25,0.433299,-8.9072e-16,5.45678e-15,-3.70365e-15,0.550831,0.550831,-1.09765,0.0,0.0,0.0,0.989482,0.7346939497495191,0.0,0.0,0.7346939497495191,0.0,-0.6663457493945337
746,0.7357,1113.28,1169.76,-0.25675,1.12521e-15,2.41908e-15,-2.22258e-15,0.551407,0.551407,-1.09881,0.0,0.0,0.0,0.990525,0.7356934212847435,0.0,0.0,0.7356934212847435,0.0,-0.666732563929431
747,0.7367,1114.15,1170.64,0.421399,9.93602e-16,-1.90162e-16,-1.41704e-15,0.551983,0.551983,-1.09996,0.0,0.0,0.0,0.991564,0.7366934686814046,0.0,0.0,0.7366934686814046,0.0,-0.6671156011922721
748,0.7377,1113.68,1170.17,-0.24534,8.77005e-16,2.21948e-15,-2.11841e-15,0.552559,0.552559,-1.10111,0.0,0.0,0.0,0.992606,0.7376940922712938,0.0,0.0,0.7376940922712938,0.0,-0.6674981982154473
749,0.7387,1114.52,1171.03,0.409227,2.68732e-15,2.89533e-15,-2.25689e-15,0.553134,0.553134,-1.10226,0.0,0.0,0.0,0.993643,0.738693553691971,0.0,0.0,0.738693553691971,0.0,-0.6678803555049411
750,0.7397,1114.07,1170.59,-0.233685,4.60447e-16,2.18259e-16,-5.01958e-17,0.553709,0.553709,-1.10341,0.0,0.0,0.0,0.994684,0.7396935899682202,0.0,0.0,0.7396935899682202,0.0,-0.6682620735661567
751,0.7407,1114.89,1171.41,0.396842,4.06728e-16,-2.2136e-16,-4.66583e-15,0.554284,0.554284,-1.10456,0.0,0.0,0.0,0.99572,0.7406942014306783,0.0,0.0,0.7406942014306783,0.0,-0.6686433529039163
752,0.7417,1114.47,1171.0,-0.221841,3.59131e-16,1.26223e-15,-2.58199e-15,0.554858,0.554858,-1.10571,0.0,0.0,0.0,0.99676,0.7416936467156552,0.0,0.0,0.7416936467156552,0.0,-0.6690241940224617
753,0.7427,1115.26,1171.8,0.384301,3.17284e-16,1.14163e-15,-7.92949e-16,0.555432,0.555432,-1.10685,0.0,0.0,0.0,0.997795,0.7426936658469039,0.0,0.0,0.7426936658469039,0.0,-0.6694012914549
754,0.7437,1114.86,1171.41,-0.209866,2.80205e-16,2.43341e-15,7.44054e-16,0.556006,0.556006,-1.108,0.0,0.0,0.0,0.998834,0.7436942591539064,0.0,0.0,0.7436942591539064,0.0,-0.6697812614451066
755,0.7447,1115.63,1172.18,0.37166,-1.66611e-15,1.21706e-15,-5.37903e-15,0.556579,0.556579,-1.10915,0.0,0.0,0.0,0.999868,0.74469368227178,0.0,0.0,0.74469368227178,0.0,-0.6701607947209834
756,0.7457,1115.25,1171.81,-0.197813,-1.47168e-15,1.56719e-15,1.45685e-15,0.557152,0.557152,-1.1103,0.0,0.0,0.0,1.00091,0.7456936782232011,0.0,0.0,0.7456936782232011,0.0,-0.6705398917844632
757,0.7467,1115.99,1172.57,0.358972,-1.30062e-15,1.86883e-15,-4.76646e-15,0.557725,0.557725,-1.11144,0.0,0.0,0.0,1.00194,0.7466942473364977,0.0,0.0,0.7466942473364977,0.0,-0.670915262305979
758,0.7477,1115.64,1172.22,-0.185734,-1.14904e-15,1.66169e-15,5.88851e-16,0.558297,0.558297,-1.11258,0.0,0.0,0.0,1.00297,0.7476936422456695,0.0,0.0,0.7476936422456695,0.0,-0.6712902051489233
759,0.7487,1116.36,1172.95,0.34629,-1.01565e-15,1.01816e-15,-1.32354e-15,0.558869,0.558869,-1.11372,0.0,0.0,0.0,1.00401,0.7486936089722531,0.0,0.0,0.7486936089722531,0.0,-0.6716647208005722
760,0.7497,1116.03,1172.63,-0.173682,-8.9745e-16,2.79246e-15,-6.39584e-16,0.559441,0.559441,-1.11487,0.0,0.0,0.0,1.00504,0.7496941478434225,0.0,0.0,0.7496941478434225,0.0,-0.6720420893431502
761,0.7507,1116.72,1173.33,0.333663,-7.93393e-16,3.85417e-15,-5.17262e-15,0.560012,0.560012,-1.11601,0.0,0.0,0.0,1.00607,0.7506935084921535,0.0,0.0,0.7506935084921535,0.0,-0.6724157483352063
762,0.7517,1116.42,1173.03,-0.161703,-7.01186e-16,4.29957e-15,-6.73856e-15,0.560583,0.560583,-1.11716,0.0,0.0,0.0,1.0071,0.7516934399387625,0.0,0.0,0.7516934399387625,0.0,-0.6727922536925464
763,0.7527,1117.09,1173.71,0.321138,-6.19985e-16,1.42228e-15,-5.7594e-15,0.561154,0.561154,-1.11829,0.0,0.0,0.0,1.00813,0.7526939425092676,0.0,0.0,0.7526939425092676,0.0,-0.6731617896187538
764,0.7537,1116.8,1173.43,-0.149843,-5.4803e-16,2.20698e-15,-2.59553e-16,0.561724,0.561724,-1.11944,0.0,0.0,0.0,1.00917,0.7536932628357342,0.0,0.0,0.7536932628357342,0.0,-0.6735374375217484
765,0.7547,1117.45,1174.09,0.308758,-4.84644e-16,8.65548e-17,-6.70612e-15,0.562295,0.562295,-1.12057,0.0,0.0,0.0,1.01019,0.7546949076311877,0.0,0.0,0.7546949076311877,0.0,-0.6739061318658124
766,0.7557,1117.19,1173.84,-0.138143,-4.28474e-16,1.98944e-15,3.11812e-15,0.562864,0.562864,-1.12172,0.0,0.0,0.0,1.01123,0.7556936131384016,0.0,0.0,0.7556936131384016,0.0,-0.6742809242672306
767,0.7567,1117.81,1174.47,0.296565,-3.78977e-16,1.76357e-15,-5.66387e-15,0.563434,0.563434,-1.12285,0.0,0.0,0.0,1.01225,0.7566946437645159,0.0,0.0,0.7566946437645159,0.0,-0.6746487789457725
768,0.7577,1117.57,1174.24,-0.126643,-3.35113e-16,2.9665e-15,7.56254e-16,0.564003,0.564003,-1.12399,0.0,0.0,0.0,1.01328,0.7576944874453695,0.0,0.0,0.7576944874453695,0.0,-0.675019468004865
769,0.7587,1118.17,1174.84,0.284595,-2.96449e-16,1.20552e-15,-6.29834e-15,0.564571,0.564571,-1.12513,0.0,0.0,0.0,1.01431,0.7586931415051423,0.0,0.0,0.7586931415051423,0.0,-0.6753897347192124
770,0.7597,1117.95,1174.64,-0.115378,-2.62184e-16,2.48583e-15,-4.9113e-15,0.56514,0.56514,-1.12627,0.0,0.0,0.0,1.01534,0.7596941226547891,0.0,0.0,0.7596941226547891,0.0,-0.6757595795700133
771,0.7607,1118.53,1175.22,0.272883,-2.31971e-16,2.19003e-15,1.40698e-15,0.565708,0.565708,-1.1274,0.0,0.0,0.0,1.01636,0.760693912829987,0.0,0.0,0.760693912829987,0.0,-0.6761257643117551
772,0.7617,1118.34,1175.04,-0.10438,-2.05196e-16,1.93443e-15,-1.07686e-15,0.566276,0.566276,-1.12854,0.0,0.0,0.0,1.01739,0.7616942710473134,0.0,0.0,0.7616942710473134,0.0,-0.6764947705669109
773,0.7627,1118.89,1175.59,0.261458,-1.81579e-16,2.64745e-15,-8.84886e-16,0.566843,0.566843,-1.12967,0.0,0.0,0.0,1.01841,0.762693434935191,0.0,0.0,0.762693434935191,0.0,-0.6768601250120319
774,0.7637,1118.72,1175.43,-0.0936784,1.75546e-15,3.7268e-15,2.5426e-15,0.567411,0.567411,-1.1308,0.0,0.0,0.0,1.01944,0.763694929203681,0.0,0.0,0.763694929203681,0.0,-0.6772250668398028
775,0.7647,1119.24,1175.97,0.250348,1.55367e-15,-9.40845e-16,-4.29536e-15,0.567977,0.567977,-1.13194,0.0,0.0,0.0,1.02046,0.7646934630920432,0.0,0.0,0.7646934630920432,0.0,-0.677592820604132
776,0.7657,1119.1,1175.83,-0.0832982,1.37482e-15,3.43443e-15,-1.32411e-15,0.568544,0.568544,-1.13307,0.0,0.0,0.0,1.02149,0.7656943280040054,0.0,0.0,0.7656943280040054,0.0,-0.6779569349534972
777,0.7667,1119.6,1176.34,0.239576,1.21698e-15,-7.26851e-16,7.67986e-16,0.56911,0.56911,-1.1342,0.0,0.0,0.0,1.02251,0.7666939938724089,0.0,0.0,0.7666939938724089,0.0,-0.6783206380860288
778,0.7677,1119.47,1176.22,-0.073261,1.07708e-15,2.21943e-15,-1.16025e-15,0.569676,0.569676,-1.13533,0.0,0.0,0.0,1.02353,0.7676942257118486,0.0,0.0,0.7676942257118486,0.0,-0.6786839304661394
779,0.7687,1119.96,1176.71,0.229162,9.53567e-16,1.95912e-15,-9.55893e-16,0.570241,0.570241,-1.13646,0.0,0.0,0.0,1.02455,0.7686932551486154,0.0,0.0,0.7686932551486154,0.0,-0.6790468125577174
780,0.7697,1119.85,1176.61,-0.0635851,8.44095e-16,4.53384e-15,-1.24563e-15,0.570807,0.570807,-1.13759,0.0,0.0,0.0,1.02558,0.7696946188902356,0.0,0.0,0.7696946188902356,0.0,-0.6794092848241265
781,0.7707,1120.31,1177.09,0.219122,2.66513e-15,3.95342e-15,-3.36116e-15,0.571372,0.571372,-1.13872,0.0,0.0,0.0,1.0266,0.7706947788684961,0.0,0.0,0.7706947788684961,0.0,-0.6797713477282079
782,0.7717,1120.22,1177.01,-0.0542856,2.35958e-15,3.45166e-15,1.34711e-15,0.571936,0.571936,-1.13985,0.0,0.0,0.0,1.02762,0.7716937324021942,0.0,0.0,0.7716937324021942,0.0,-0.6801330017322798
783,0.7727,1120.67,1177.46,0.20947,2.08967e-15,-2.48814e-16,-2.52681e-15,0.5725,0.5725,-1.14098,0.0,0.0,0.0,1.02864,0.7726932495045968,0.0,0.0,0.7726932495045968,0.0,-0.6804942472981381
784,0.7737,1120.6,1177.39,-0.0453743,1.85042e-15,4.03001e-15,-6.32956e-15,0.573064,0.573064,-1.14211,0.0,0.0,0.0,1.02966,0.7736933304936462,0.0,0.0,0.7736933304936462,0.0,-0.6808550848870573
785,0.7747,1121.02,1177.83,0.200216,1.63901e-15,2.11706e-15,-4.47472e-15,0.573628,0.573628,-1.14323,0.0,0.0,0.0,1.03067,0.7746939756874642,0.0,0.0,0.7746939756874642,0.0,-0.6812123270990014
786,0.7757,1120.97,1177.78,-0.0368596,1.4516e-15,4.20207e-15,-4.74089e-15,0.574191,0.574191,-1.14436,0.0,0.0,0.0,1.03169,0.7756934097100545,0.0,0.0,0.7756934097100545,0.0,-0.681572353716031
787,0.7767,1121.38,1178.2,0.191366,1.28596e-15,4.13277e-15,1.56303e-15,0.574754,0.574754,-1.14549,0.0,0.0,0.0,1.03271,0.7766934065724238,0.0,0.0,0.7766934065724238,0.0,-0.6819319737327558
788,0.7777,1121.34,1178.17,-0.0287475,1.13912e-15,-1.31418e-16,-3.27048e-15,0.575317,0.575317,-1.14661,0.0,0.0,0.0,1.03373,0.7776939665915406,0.0,0.0,0.7776939665915406,0.0,-0.6822880105043654
789,0.7787,1121.73,1178.57,0.182925,-9.09633e-16,2.72956e-15,3.76508e-15,0.575879,0.575879,-1.14774,0.0,0.0,0.0,1.03474,0.7786933113903505,0.0,0.0,0.7786933113903505,0.0,-0.6826468222856585
790,0.7797,1121.71,1178.55,-0.0210408,-8.05901e-16,-4.08315e-16,-2.77313e-15,0.576441,0.576441,-1.14886,0.0,0.0,0.0,1.03576,0.7796932179787854,0.0,0.0,0.7796932179787854,0.0,-0.6830020588750745
791,0.7807,1122.09,1178.94,0.174894,-7.14168e-16,6.21717e-16,2.32704e-15,0.577003,0.577003,-1.14998,0.0,0.0,0.0,1.03677,0.7806936866726599,0.0,0.0,0.7806936866726599,0.0,-0.6833568978222314
792,0.7817,1122.08,1178.94,-0.0137398,-6.32833e-16,1.08817e-16,1.88148e-16,0.577565,0.577565,-1.15111,0.0,0.0,0.0,1.03779,0.7816947177879656,0.0,0.0,0.7816947177879656,0.0,-0.6837145024430294
793,0.7827,1122.44,1179.31,0.167273,-5.60889e-16,-1.26854e-15,-2.59048e-15,0.578126,0.578126,-1.15223,0.0,0.0,0.0,1.0388,0.7826945289454528,0.0,0.0,0.7826945289454528,0.0,-0.6840685439000682
794,0.7837,1122.44,1179.32,-0.00684258,1.42234e-15,3.61805e-15,3.41896e-15,0.578687,0.578687,-1.15335,0.0,0.0,0.0,1.03981,0.783694901154359,0.0,0.0,0.783694901154359,0.0,-0.684422189052647
795,0.7847,1122.79,1179.68,0.160057,-6.59009e-16,4.09734e-15,6.62959e-16,0.579247,0.579247,-1.15447,0.0,0.0,0.0,1.04083,0.7846940500345809,0.0,0.0,0.7846940500345809,0.0,-0.6847754383443783
796,0.7857,1122.81,1179.7,-0.000344809,-5.84154e-16,3.03472e-16,2.02187e-15,0.579807,0.579807,-1.15559,0.0,0.0,0.0,1.04184,0.7856937585948713,0.0,0.0,0.7856937585948713,0.0,-0.6851282922183781
797,0.7867,1123.14,1180.04,0.153241,-5.17907e-16,1.70272e-15,2.7272e-15,0.580367,0.580367,-1.15671,0.0,0.0,0.0,1.04285,0.7866940271487393,0.0,0.0,0.7866940271487393,0.0,-0.6854807511172665
798,0.7877,1123.17,1180.08,0.00575971,-4.59157e-16,1.9755e-15,2.40084e-15,0.580927,0.580927,-1.15783,0.0,0.0,0.0,1.04386,0.7876948560098687,0.0,0.0,0.7876948560098687,0.0,-0.6858328154831678
799,0.7887,1123.49,1180.41,0.146818,-4.0715e-16,1.27589e-15,-2.08589e-15,0.581486,0.581486,-1.15895,0.0,0.0,0.0,1.04487,0.7886944567967684,0.0,0.0,0.7886944567967684,0.0,-0.6861844857577116
800,0.7897,1123.53,1180.46,0.011479,-3.61024e-16,4.41212e-15,2.45301e-15,0.582045,0.582045,-1.16006,0.0,0.0,0.0,1.04588,0.7896946165167156,0.0,0.0,0.7896946165167156,0.0,-0.6865326277239838
801,0.7907,1123.84,1180.78,0.14078,-3.20182e-16,1.97657e-15,-6.39262e-16,0.582603,0.582603,-1.16118,0.0,0.0,0.0,1.04689,0.7906935447878001,0.0,0.0,0.7906935447878001,0.0,-0.6868835146475765
802,0.7917,1123.89,1180.84,0.0168225,1.63676e-15,1.27544e-15,-5.0405e-16,0.583162,0.583162,-1.1623,0.0,0.0,0.0,1.0479,0.7916948223103306,0.0,0.0,0.7916948223103306,0.0,-0.6872340087978086
803,0.7927,1124.19,1181.14,0.135115,1.45183e-15,2.01911e-16,-1.32212e-15,0.58372,0.58372,-1.16341,0.0,0.0,0.0,1.04891,0.7926948670077023,0.0,0.0,0.7926948670077023,0.0,-0.6875809864398259
804,0.7937,1124.25,1181.21,0.0218013,1.28778e-15,-1.19329e-15,2.64613e-15,0.584277,0.584277,-1.16453,0.0,0.0,0.0,1.04992,0.7936936761911599,0.0,0.0,0.7936936761911599,0.0,-0.6879306998589418
805,0.7947,1124.54,1181.5,0.129812,3.06381e-15,3.21549e-15,5.13742e-15,0.584835,0.584835,-1.16564,0.0,0.0,0.0,1.05092,0.7946948365602404,0.0,0.0,0.7946948365602404,0.0,-0.6882769046029189
806,0.7957,1124.61,1181.59,0.0264272,2.71807e-15,4.2173e-15,-1.59508e-15,0.585392,0.585392,-1.16676,0.0,0.0,0.0,1.05193,0.7956947600370408,0.0,0.0,0.7956947600370408,0.0,-0.6886258390300092
807,0.7967,1124.89,1181.87,0.124859,2.41172e-15,1.33941e-15,-1.33057e-15,0.585948,0.585948,-1.16787,0.0,0.0,0.0,1.05293,0.7966934439320168,0.0,0.0,0.7966934439320168,0.0,-0.6889712725975885
808,0.7977,1124.97,1181.96,0.0307135,2.13991e-15,1.65959e-15,7.68618e-16,0.586505,0.586505,-1.16898,0.0,0.0,0.0,1.05394,0.7976944809432136,0.0,0.0,0.7976944809432136,0.0,-0.6893163229466334
809,0.7987,1125.23,1182.23,0.120241,1.89902e-15,3.80847e-15,1.17878e-15,0.587061,0.587061,-1.17009,0.0,0.0,0.0,1.05494,0.7986942769921637,0.0,0.0,0.7986942769921637,0.0,-0.6896609905022806
810,0.7997,1125.32,1182.33,0.0346738,1.68527e-15,1.92094e-15,5.97534e-16,0.587617,0.587617,-1.1712,0.0,0.0,0.0,1.05595,0.7996946290822817,0.0,0.0,0.7996946290822817,0.0,-0.6900052756891948
811,0.8007,1125.58,1182.59,0.115945,1.4958e-15,4.03393e-15,5.63136e-16,0.588172,0.588172,-1.17231,0.0,0.0,0.0,1.05695,0.8006937368281761,0.0,0.0,0.8006937368281761,0.0,-0.6903491789315699
812,0.8017,1125.68,1182.7,0.0383226,1.32765e-15,2.11498e-15,6.56044e-17,0.588727,0.588727,-1.17342,0.0,0.0,0.0,1.05796,0.8016933992327728,0.0,0.0,0.8016933992327728,0.0,-0.6906927006531294
813,0.8027,1125.93,1182.96,0.111955,1.17857e-15,5.60582e-15,-1.3e-15,0.589282,0.589282,-1.17453,0.0,0.0,0.0,1.05896,0.8026936166039933,0.0,0.0,0.8026936166039933,0.0,-0.6910358412771261
814,0.8037,1126.03,1183.07,0.0416745,1.04625e-15,2.53661e-15,4.53832e-15,0.589837,0.589837,-1.17564,0.0,0.0,0.0,1.05996,0.8036943892499291,0.0,0.0,0.8036943892499291,0.0,-0.6913786012263439
815,0.8047,1126.27,1183.32,0.108258,9.28913e-16,2.69166e-15,2.56471e-15,0.590391,0.590391,-1.17675,0.0,0.0,0.0,1.06096,0.8046939127840285,0.0,0.0,0.8046939127840285,0.0,-0.6917209809230971
816,0.8057,1126.38,1183.44,0.0447448,8.24758e-16,1.88866e-15,5.53812e-15,0.590945,0.590945,-1.17786,0.0,0.0,0.0,1.06196,0.8056939902075788,0.0,0.0,0.8056939902075788,0.0,-0.6920629807892318
817,0.8067,1126.62,1183.68,0.104837,2.65554e-15,4.47262e-15,2.95969e-15,0.591499,0.591499,-1.17897,0.0,0.0,0.0,1.06296,0.8066946218275199,0.0,0.0,0.8066946218275199,0.0,-0.6924046012461263
818,0.8077,1126.73,1183.8,0.0475486,4.34934e-16,3.89682e-15,3.07052e-15,0.592052,0.592052,-1.18007,0.0,0.0,0.0,1.06396,0.807694000256058,0.0,0.0,0.807694000256058,0.0,-0.6927427701577555
819,0.8087,1126.96,1184.04,0.101677,3.86276e-16,1.52441e-15,2.2299e-15,0.592605,0.592605,-1.18118,0.0,0.0,0.0,1.06496,0.8086939314937045,0.0,0.0,0.8086939314937045,0.0,-0.6930836364670803
820,0.8097,1127.08,1184.17,0.0501011,2.26661e-15,8.76868e-16,-2.24239e-15,0.593158,0.593158,-1.18228,0.0,0.0,0.0,1.06596,0.8096944158462474,0.0,0.0,0.8096944158462474,0.0,-0.6934210588506321
821,0.8107,1127.31,1184.4,0.0987638,2.01335e-15,2.19069e-15,2.31817e-15,0.59371,0.59371,-1.18339,0.0,0.0,0.0,1.06696,0.8106936429250959,0.0,0.0,0.8106936429250959,0.0,-0.6937611726772129
822,0.8117,1127.43,1184.53,0.0524174,1.78846e-15,4.26458e-15,1.74748e-16,0.594262,0.594262,-1.18449,0.0,0.0,0.0,1.06796,0.8116934217295542,0.0,0.0,0.8116934217295542,0.0,-0.6940978501806928
823,0.8127,1127.65,1184.76,0.0960813,-3.35192e-16,4.18472e-15,-7.42507e-16,0.594814,0.594814,-1.18559,0.0,0.0,0.0,1.06895,0.8126937525642588,0.0,0.0,0.8126937525642588,0.0,-0.694434157542534
824,0.8137,1127.78,1184.89,0.0545124,-2.22195e-15,2.2402e-15,3.3758e-16,0.595366,0.595366,-1.1867,0.0,0.0,0.0,1.06995,0.8136946357340147,0.0,0.0,0.8136946357340147,0.0,-0.6947731474534555
825,0.8147,1127.99,1185.11,0.093615,-4.99281e-17,5.56581e-16,3.3517e-16,0.595917,0.595917,-1.1878,0.0,0.0,0.0,1.07095,0.8146942568486308,0.0,0.0,0.8146942568486308,0.0,-0.6951087123967017
826,0.8157,1128.13,1185.26,0.0564007,-4.43653e-17,4.25533e-15,-1.35322e-16,0.596468,0.596468,-1.1889,0.0,0.0,0.0,1.07194,0.8156944289062518,0.0,0.0,0.8156944289062518,0.0,-0.6954439084214529
827,0.8167,1128.33,1185.47,0.0913506,-1.96409e-15,3.23822e-15,-7.38874e-17,0.597018,0.597018,-1.19,0.0,0.0,0.0,1.07294,0.8166933355162873,0.0,0.0,0.8166933355162873,0.0,-0.6957787359332959
828,0.8177,1128.47,1185.62,0.0580964,-1.74553e-15,1.2674e-17,2.32184e-15,0.597569,0.597569,-1.1911,0.0,0.0,0.0,1.07393,0.8176946093697712,0.0,0.0,0.8176946093697712,0.0,-0.6961131953373725
829,0.8187,1128.67,1185.83,0.0892738,-1.55145e-15,5.01604e-16,-1.2278e-15,0.598119,0.598119,-1.1922,0.0,0.0,0.0,1.07493,0.8186946163816442,0.0,0.0,0.8186946163816442,0.0,-0.6964472870383782
830,0.8197,1128.81,1185.98,0.0596134,-1.37903e-15,4.6766e-15,-5.50877e-16,0.598668,0.598668,-1.1933,0.0,0.0,0.0,1.07592,0.8196933538543889,0.0,0.0,0.8196933538543889,0.0,-0.6967810114405643
831,0.8207,1129.01,1186.18,0.0873713,6.99365e-16,3.13356e-15,1.90972e-15,0.599218,0.599218,-1.1944,0.0,0.0,0.0,1.07691,0.8206944604780941,0.0,0.0,0.8206944604780941,0.0,-0.697114368947737
832,0.8217,1129.16,1186.33,0.0609648,6.21737e-16,1.79641e-15,2.89982e-16,0.599767,0.599767,-1.1955,0.0,0.0,0.0,1.0779,0.8216942961666807,0.0,0.0,0.8216942961666807,0.0,-0.6974473599632595
833,0.8227,1129.35,1186.54,0.0856301,2.47833e-15,3.45231e-15,-2.51844e-15,0.600316,0.600316,-1.19659,0.0,0.0,0.0,1.07889,0.8226946809157631,0.0,0.0,0.8226946809157631,0.0,-0.6977769626747883
834,0.8237,1129.5,1186.69,0.0621634,2.20358e-15,2.07181e-15,-7.30587e-16,0.600864,0.600864,-1.19769,0.0,0.0,0.0,1.07989,0.823693791332156,0.0,0.0,0.823693791332156,0.0,-0.6981092252379332
835,0.8247,1129.69,1186.89,0.0840376,1.95948e-15,5.09795e-15,-1.5265e-15,0.601412,0.601412,-1.19879,0.0,0.0,0.0,1.08088,0.8246934494111029,0.0,0.0,0.8246934494111029,0.0,-0.6984411225132037
836,0.8257,1129.84,1187.05,0.0632213,3.66849e-15,3.02757e-15,5.97688e-16,0.60196,0.60196,-1.19988,0.0,0.0,0.0,1.08187,0.8256936554528054,0.0,0.0,0.8256936554528054,0.0,-0.6987696426136834
837,0.8267,1130.03,1187.24,0.082582,3.26262e-15,1.23286e-15,2.90621e-15,0.602508,0.602508,-1.20098,0.0,0.0,0.0,1.08286,0.8266944097576288,0.0,0.0,0.8266944097576288,0.0,-0.6991008138292467
838,0.8277,1130.18,1187.4,0.0641499,2.90183e-15,3.90081e-15,-1.65994e-15,0.603055,0.603055,-1.20207,0.0,0.0,0.0,1.08384,0.8276938849313051,0.0,0.0,0.8276938849313051,0.0,-0.699428615257939
839,0.8287,1130.37,1187.6,0.0812522,2.58117e-15,2.45833e-15,9.5101e-16,0.603602,0.603602,-1.20317,0.0,0.0,0.0,1.08483,0.8286939069674548,0.0,0.0,0.8286939069674548,0.0,-0.699759062002126
840,0.8297,1130.52,1187.76,0.0649603,2.29609e-15,1.67686e-15,3.68174e-15,0.604149,0.604149,-1.20426,0.0,0.0,0.0,1.08582,0.8296944761652933,0.0,0.0,0.8296944761652933,0.0,-0.7000861463312003
841,0.8307,1130.7,1187.95,0.0800374,2.04268e-15,5.2971e-16,3.23268e-15,0.604695,0.604695,-1.20535,0.0,0.0,0.0,1.08681,0.8306937621295225,0.0,0.0,0.8306937621295225,0.0,-0.7004128743325897
842,0.8317,1130.86,1188.11,0.0656626,1.81736e-15,2.35182e-15,4.97604e-16,0.605241,0.605241,-1.20644,0.0,0.0,0.0,1.0878,0.8316935938528669,0.0,0.0,0.8316935938528669,0.0,-0.7007392463944799
843,0.8327,1131.04,1188.3,0.0789278,-3.09996e-16,2.9926e-15,1.41177e-15,0.605787,0.605787,-1.20753,0.0,0.0,0.0,1.08878,0.8326939716333923,0.0,0.0,0.8326939716333923,0.0,-0.7010652629046334
844,0.8337,1131.19,1188.46,0.0662665,-2.203e-15,2.60881e-15,3.61144e-15,0.606333,0.606333,-1.20862,0.0,0.0,0.0,1.08977,0.8336948957693273,0.0,0.0,0.8336948957693273,0.0,-0.7013909242503908
845,0.8347,1131.37,1188.65,0.0779139,-1.96046e-15,-5.42007e-16,3.64047e-15,0.606878,0.606878,-1.20971,0.0,0.0,0.0,1.09075,0.8346945318636143,0.0,0.0,0.8346945318636143,0.0,-0.7017162308186702
846,0.8357,1131.53,1188.81,0.0667811,-1.74474e-15,1.89116e-15,8.49422e-16,0.607423,0.607423,-1.2108,0.0,0.0,0.0,1.09174,0.8356947129080579,0.0,0.0,0.8356947129080579,0.0,-0.7020411829959683
847,0.8367,1131.71,1189.0,0.076987,-1.55289e-15,7.13857e-16,3.07339e-16,0.607967,0.607967,-1.21189,0.0,0.0,0.0,1.09272,0.8366936025052163,0.0,0.0,0.8366936025052163,0.0,-0.7023657811683607
848,0.8377,1131.86,1189.16,0.0672147,-1.38222e-15,4.38972e-15,-6.31973e-16,0.608512,0.608512,-1.21298,0.0,0.0,0.0,1.0937,0.8376948733401008,0.0,0.0,0.8376948733401008,0.0,-0.7026900257215027
849,0.8387,1132.04,1189.35,0.0761391,-1.23042e-15,2.411e-15,9.00893e-16,0.609056,0.609056,-1.21407,0.0,0.0,0.0,1.09469,0.8386948513205477,0.0,0.0,0.8386948513205477,0.0,-0.7030139170406295
850,0.8397,1132.2,1189.51,0.0675752,-1.09536e-15,2.57299e-15,3.52059e-16,0.609599,0.609599,-1.21516,0.0,0.0,0.0,1.09567,0.8396935337425537,0.0,0.0,0.8396935337425537,0.0,-0.7033374555105562
851,0.8407,1132.37,1189.69,0.0753625,-9.75213e-16,1.77355e-15,1.28467e-15,0.610143,0.610143,-1.21624,0.0,0.0,0.0,1.09665,0.840694599290051,0.0,0.0,0.840694599290051,0.0,-0.7036576781072769
852,0.8417,1132.53,1189.86,0.0678698,-8.68301e-16,2.01931e-15,2.56289e-15,0.610686,0.610686,-1.21733,0.0,0.0,0.0,1.09763,0.8416943678700699,0.0,0.0,0.8416943678700699,0.0,-0.7039805152599281
853,0.8427,1132.7,1190.04,0.0746503,-7.73173e-16,1.2925e-15,-4.31192e-15,0.611229,0.611229,-1.21841,0.0,0.0,0.0,1.09861,0.8426946794718448,0.0,0.0,0.8426946794718448,0.0,-0.704300043727017
854,0.8437,1132.86,1190.21,0.0681051,-6.88515e-16,3.95137e-15,-2.2906e-15,0.611771,0.611771,-1.2195,0.0,0.0,0.0,1.09959,0.843693690695704,0.0,0.0,0.843693690695704,0.0,-0.7046221810826016
855,0.8447,1133.03,1190.38,0.0739962,1.3156e-15,-3.21357e-16,2.28126e-15,0.612313,0.612313,-1.22058,0.0,0.0,0.0,1.10057,0.84469324353041,0.0,0.0,0.84469324353041,0.0,-0.7049410169246868
856,0.8457,1133.19,1190.55,0.0682874,1.17172e-15,4.43049e-15,1.55007e-15,0.612855,0.612855,-1.22167,0.0,0.0,0.0,1.10155,0.8456933382695953,0.0,0.0,0.8456933382695953,0.0,-0.7052624560001176
857,0.8467,1133.36,1190.73,0.0733941,2.97273e-15,9.37269e-17,2.32484e-15,0.613397,0.613397,-1.22275,0.0,0.0,0.0,1.10253,0.8466939752070515,0.0,0.0,0.8466939752070515,0.0,-0.7055806007185659
858,0.8477,1133.52,1190.9,0.0684221,2.64803e-15,-3.80994e-16,-1.23144e-15,0.613938,0.613938,-1.22383,0.0,0.0,0.0,1.10351,0.847693306942499,0.0,0.0,0.847693306942499,0.0,-0.7058984020261934
859,0.8487,1133.69,1191.07,0.0728388,2.35898e-15,3.90885e-15,1.79077e-15,0.614479,0.614479,-1.22491,0.0,0.0,0.0,1.10449,0.8486931794626849,0.0,0.0,0.8486931794626849,0.0,-0.7062158602936837
860,0.8497,1133.85,1191.24,0.0685146,2.10163e-15,3.40192e-15,2.06396e-15,0.61502,0.61502,-1.22599,0.0,0.0,0.0,1.10547,0.849693593060252,0.0,0.0,0.849693593060252,0.0,-0.7065329758913201
861,0.8507,1134.02,1191.42,0.0723253,1.87251e-15,3.90179e-15,4.21123e-16,0.615561,0.615561,-1.22708,0.0,0.0,0.0,1.10644,0.850694548028003,0.0,0.0,0.850694548028003,0.0,-0.706852680676837
862,0.8517,1134.18,1191.58,0.0685694,-2.61298e-16,-3.67788e-16,3.69489e-15,0.616101,0.616101,-1.22816,0.0,0.0,0.0,1.10742,0.8516941929637794,0.0,0.0,0.8516941929637794,0.0,-0.7071691088797196
863,0.8527,1134.35,1191.76,0.071849,-2.32845e-16,2.03794e-15,2.30623e-15,0.616641,0.616641,-1.22923,0.0,0.0,0.0,1.10839,0.8526943778535956,0.0,0.0,0.8526943778535956,0.0,-0.7074822703619472
864,0.8537,1134.51,1191.93,0.0685908,-2.13757e-15,1.77577e-15,2.04051e-15,0.61718,0.61718,-1.23031,0.0,0.0,0.0,1.10937,0.8536932492949294,0.0,0.0,0.8536932492949294,0.0,-0.7077980189750145
865,0.8547,1134.68,1192.1,0.0714061,2.51211e-17,1.54776e-15,2.2797e-15,0.61772,0.61772,-1.23139,0.0,0.0,0.0,1.11034,0.8546945139666795,0.0,0.0,0.8546945139666795,0.0,-0.708113426763658
866,0.8557,1134.84,1192.27,0.0685826,2.23906e-17,2.29043e-15,5.30804e-15,0.618259,0.618259,-1.23247,0.0,0.0,0.0,1.11132,0.855694463771971,0.0,0.0,0.855694463771971,0.0,-0.7084284940957692
867,0.8567,1135.0,1192.44,0.0709926,1.99583e-17,1.52396e-15,4.14212e-16,0.618798,0.618798,-1.23355,0.0,0.0,0.0,1.11229,0.856694952695487,0.0,0.0,0.856694952695487,0.0,-0.7087432213388432
868,0.8577,1135.16,1192.61,0.0685485,1.77916e-17,3.87023e-16,-5.44395e-16,0.619336,0.619336,-1.23462,0.0,0.0,0.0,1.11326,0.8576941233328383,0.0,0.0,0.8576941233328383,0.0,-0.7090546994215188
869,0.8587,1135.33,1192.78,0.0706055,1.94664e-15,2.69312e-15,-9.06627e-16,0.619874,0.619874,-1.2357,0.0,0.0,0.0,1.11424,0.8586938316686206,0.0,0.0,0.8586938316686206,0.0,-0.7093687507279123
870,0.8597,1135.49,1192.95,0.0684914,1.73557e-15,1.40279e-15,1.13046e-15,0.620412,0.620412,-1.23677,0.0,0.0,0.0,1.11521,0.8596940779921929,0.0,0.0,0.8596940779921929,0.0,-0.7096795598520982
871,0.8607,1135.65,1193.12,0.0702416,1.5475e-15,3.10511e-15,1.9593e-15,0.62095,0.62095,-1.23785,0.0,0.0,0.0,1.11618,0.860694862593071,0.0,0.0,0.860694862593071,0.0,-0.709992936673514
872,0.8617,1135.81,1193.29,0.0684142,1.37991e-15,-5.93463e-16,-6.13611e-16,0.621487,0.621487,-1.23892,0.0,0.0,0.0,1.11715,0.8616943240656711,0.0,0.0,0.8616943240656711,0.0,-0.7103030782759261
873,0.8627,1135.98,1193.46,0.0698983,1.23056e-15,1.36935e-15,4.44063e-16,0.622024,0.622024,-1.24,0.0,0.0,0.0,1.11812,0.8626943223932146,0.0,0.0,0.8626943223932146,0.0,-0.7106157820609493
874,0.8637,1136.14,1193.63,0.0683195,-8.34043e-16,7.21867e-16,4.18602e-15,0.622561,0.622561,-1.24107,0.0,0.0,0.0,1.11909,0.8636948578640702,0.0,0.0,0.8636948578640702,0.0,-0.7109252575752174
875,0.8647,1136.3,1193.8,0.0695732,-2.67552e-15,2.51306e-15,-5.61528e-16,0.623097,0.623097,-1.24214,0.0,0.0,0.0,1.12006,0.8646940660717626,0.0,0.0,0.8646940660717626,0.0,-0.7112344021277814
876,0.8657,1136.46,1193.96,0.0682095,-2.38646e-15,1.71607e-15,4.88703e-16,0.623633,0.623633,-1.24322,0.0,0.0,0.0,1.12103,0.8656938099986142,0.0,0.0,0.8656938099986142,0.0,-0.7115461006259973
877,0.8667,1136.62,1194.13,0.0692642,-2.12879e-15,1.49357e-15,9.30916e-16,0.624169,0.624169,-1.24429,0.0,0.0,0.0,1.122,0.8666940899318476,0.0,0.0,0.8666940899318476,0.0,-0.7118545812317717
878,0.8677,1136.78,1194.3,0.0680861,-1.89908e-15,3.18383e-15,-5.67367e-16,0.624705,0.624705,-1.24536,0.0,0.0,0.0,1.12296,0.8676949061588388,0.0,0.0,0.8676949061588388,0.0,-0.7121627319398248
879,0.8687,1136.94,1194.47,0.0689692,-1.69428e-15,1.35666e-15,1.42508e-15,0.62524,0.62524,-1.24643,0.0,0.0,0.0,1.12393,0.8686943902717945,0.0,0.0,0.8686943902717945,0.0,-0.7124705531029583
880,0.8697,1137.1,1194.63,0.0679513,-1.51168e-15,-2.33253e-16,2.68646e-15,0.625775,0.625775,-1.2475,0.0,0.0,0.0,1.1249,0.8696944092518144,0.0,0.0,0.8696944092518144,0.0,-0.7127780450735964
881,0.8707,1137.26,1194.8,0.0686868,-1.34885e-15,-2.03287e-16,-1.3956e-15,0.62631,0.62631,-1.24857,0.0,0.0,0.0,1.12586,0.8706949633851295,0.0,0.0,0.8706949633851295,0.0,-0.7130852082037871
882,0.8717,1137.42,1194.97,0.0678066,-1.20365e-15,2.93979e-16,7.04796e-16,0.626844,0.626844,-1.24963,0.0,0.0,0.0,1.12683,0.8716941812630061,0.0,0.0,0.8716941812630061,0.0,-0.7133891767512994
883,0.8727,1137.58,1195.14,0.0684153,8.58597e-16,2.61153e-15,2.06048e-15,0.627378,0.627378,-1.2507,0.0,0.0,0.0,1.1278,0.8726939328657215,0.0,0.0,0.8726939328657215,0.0,-0.7136956863203124
884,0.8737,1137.74,1195.3,0.0676533,-1.16662e-15,8.58343e-16,-2.41146e-15,0.627912,0.627912,-1.25177,0.0,0.0,0.0,1.12876,0.8736942184783605,0.0,0.0,0.8736942184783605,0.0,-0.7140018680994855
885,0.8747,1137.9,1195.47,0.0681534,-1.04126e-15,-1.13909e-15,-6.4952e-16,0.628446,0.628446,-1.25284,0.0,0.0,0.0,1.12972,0.8746950383861607,0.0,0.0,0.8746950383861607,0.0,-0.7143077224393662
886,0.8757,1138.06,1195.64,0.0674928,-9.29442e-16,2.77821e-15,-1.94263e-15,0.628979,0.628979,-1.2539,0.0,0.0,0.0,1.13069,0.8756945171790571,0.0,0.0,0.8756945171790571,0.0,-0.7146103958083546
887,0.8767,1138.22,1195.8,0.0678999,-8.29691e-16,-8.82328e-16,3.05601e-15,0.629512,0.629512,-1.25497,0.0,0.0,0.0,1.13165,0.8766945288361458,0.0,0.0,0.8766945288361458,0.0,-0.7149155993718143
888,0.8777,1138.38,1195.97,0.067326,-7.40698e-16,1.73383e-16,-1.32427e-16,0.630044,0.630044,-1.25603,0.0,0.0,0.0,1.13261,0.8776931959473846,0.0,0.0,0.8776931959473846,0.0,-0.7152176287326388
889,0.8787,1138.54,1196.13,0.0676539,-6.61299e-16,1.56406e-15,3.91113e-16,0.630577,0.630577,-1.2571,0.0,0.0,0.0,1.13358,0.8786942731842085,0.0,0.0,0.8786942731842085,0.0,-0.7155221829043561
890,0.8797,1138.69,1196.3,0.0671541,-5.90454e-16,-5.25556e-16,1.78897e-15,0.631109,0.631109,-1.25816,0.0,0.0,0.0,1.13454,0.8796940044424781,0.0,0.0,0.8796940044424781,0.0,-0.7158235696272945
891,0.8807,1138.85,1196.46,0.0674144,-5.27236e-16,2.84155e-15,-1.7066e-15,0.631641,0.631641,-1.25923,0.0,0.0,0.0,1.1355,0.8806942676992764,0.0,0.0,0.8806942676992764,0.0,-0.7161274757890016
892,0.8817,1139.01,1196.63,0.0669777,1.46319e-15,2.47282e-15,-2.86373e-15,0.632172,0.632172,-1.26029,0.0,0.0,0.0,1.13646,0.8816931815435789,0.0,0.0,0.8816931815435789,0.0,-0.7164282212414157
893,0.8827,1139.17,1196.79,0.0671807,1.30672e-15,7.36494e-16,-1.0036e-16,0.632704,0.632704,-1.26135,0.0,0.0,0.0,1.13742,0.8826945086455529,0.0,0.0,0.8826945086455529,0.0,-0.7167286480725492
894,0.8837,1139.32,1196.96,0.0667976,1.16707e-15,1.11049e-15,-5.14105e-17,0.633235,0.633235,-1.26241,0.0,0.0,0.0,1.13838,0.8836944848998429,0.0,0.0,0.8836944848998429,0.0,-0.7170287566199621
895,0.8847,1139.48,1197.12,0.066952,1.04241e-15,4.9278e-16,-4.25091e-15,0.633766,0.633766,-1.26347,0.0,0.0,0.0,1.13934,0.8846949922825262,0.0,0.0,0.8846949922825262,0.0,-0.7173285472208561
896,0.8857,1139.64,1197.29,0.0666145,9.31135e-16,-1.46068e-15,-1.77847e-15,0.634296,0.634296,-1.26453,0.0,0.0,0.0,1.1403,0.8856941453806182,0.0,0.0,0.8856941453806182,0.0,-0.717628020212076
897,0.8867,1139.8,1197.45,0.0667277,8.31798e-16,2.02691e-15,-1.03976e-15,0.634826,0.634826,-1.26559,0.0,0.0,0.0,1.14125,0.8866938281702084,0.0,0.0,0.8866938281702084,0.0,-0.7179271759301097
898,0.8877,1139.95,1197.62,0.0664289,2.67795e-15,1.29127e-15,3.37544e-15,0.635356,0.635356,-1.26665,0.0,0.0,0.0,1.14221,0.8876940409321072,0.0,0.0,0.8876940409321072,0.0,-0.7182260147110886
899,0.8887,1140.11,1197.78,0.0665073,2.3926e-15,-1.70929e-15,-2.2102e-15,0.635886,0.635886,-1.26771,0.0,0.0,0.0,1.14317,0.8886947839472743,0.0,0.0,0.8886947839472743,0.0,-0.718524536890788
900,0.8897,1140.27,1197.94,0.0662413,2.1378e-15,-1.02097e-15,-9.44382e-16,0.636415,0.636415,-1.26877,0.0,0.0,0.0,1.14412,0.8896941678017063,0.0,0.0,0.8896941678017063,0.0,-0.7188227428046273
901,0.8907,1140.42,1198.11,0.0662905,1.91028e-15,2.88268e-15,1.57308e-15,0.636944,0.636944,-1.26983,0.0,0.0,0.0,1.14508,0.890694080470056,0.0,0.0,0.890694080470056,0.0,-0.719120632787671
902,0.8917,1140.58,1198.27,0.0660522,1.70709e-15,-7.94495e-16,-9.50511e-16,0.637473,0.637473,-1.27089,0.0,0.0,0.0,1.14604,0.8916945222321404,0.0,0.0,0.8916945222321404,0.0,-0.7194182071746281
903,0.8927,1140.73,1198.43,0.0660767,-4.09913e-16,2.60816e-15,-3.14879e-15,0.638001,0.638001,-1.27194,0.0,0.0,0.0,1.14699,0.892693600673377,0.0,0.0,0.892693600673377,0.0,-0.719712663440502
904,0.8937,1140.89,1198.59,0.0658617,-3.66363e-16,1.32595e-15,1.25303e-16,0.638529,0.638529,-1.273,0.0,0.0,0.0,1.14795,0.8936932067673184,0.0,0.0,0.8936932067673184,0.0,-0.7200096106074524
905,0.8947,1141.05,1198.76,0.0658656,1.60834e-15,2.56828e-15,2.03453e-15,0.639057,0.639057,-1.27405,0.0,0.0,0.0,1.1489,0.8946933407926392,0.0,0.0,0.8946933407926392,0.0,-0.7203034462256188
906,0.8957,1141.2,1198.92,0.0656703,1.43767e-15,8.18462e-16,8.67203e-16,0.639585,0.639585,-1.27511,0.0,0.0,0.0,1.14985,0.8956940030281604,0.0,0.0,0.8956940030281604,0.0,-0.7205997674946016
907,0.8967,1141.36,1199.08,0.065657,-6.50873e-16,2.12545e-15,1.73722e-15,0.640112,0.640112,-1.27616,0.0,0.0,0.0,1.15081,0.8966932970586057,0.0,0.0,0.8966932970586057,0.0,-0.7208929837732467
908,0.8977,1141.51,1199.24,0.0654783,-5.81887e-16,2.32065e-15,-8.07839e-16,0.640639,0.640639,-1.27722,0.0,0.0,0.0,1.15176,0.8976931178557956,0.0,0.0,0.8976931178557956,0.0,-0.7211886804635143
909,0.8987,1141.67,1199.4,0.0654505,-5.2025e-16,-1.28744e-15,-1.1383e-15,0.641166,0.641166,-1.27827,0.0,0.0,0.0,1.15271,0.8986934656974099,0.0,0.0,0.8986934656974099,0.0,-0.7214812787080667
910,0.8997,1141.82,1199.57,0.0652858,-4.65174e-16,2.64985e-15,-2.84205e-15,0.641693,0.641693,-1.27932,0.0,0.0,0.0,1.15366,0.8996943408612736,0.0,0.0,0.8996943408612736,0.0,-0.7217735698857007
911,0.9007,1141.97,1199.73,0.0652461,1.52066e-15,4.16256e-16,-4.32691e-15,0.642219,0.642219,-1.28038,0.0,0.0,0.0,1.15461,0.900693842930566,0.0,0.0,0.900693842930566,0.0,-0.7220683336492275
912,0.9017,1142.13,1199.89,0.0650931,1.35987e-15,1.30178e-15,-4.28482e-16,0.642745,0.642745,-1.28143,0.0,0.0,0.0,1.15556,0.9016938708762403,0.0,0.0,0.9016938708762403,0.0,-0.722360008742674
913,0.9027,1142.28,1200.05,0.0650434,1.21616e-15,2.54667e-15,-2.22222e-15,0.643271,0.643271,-1.28248,0.0,0.0,0.0,1.15651,0.9026944249749802,0.0,0.0,0.9026944249749802,0.0,-0.7226513777380023
914,0.9037,1142.44,1200.21,0.0649002,1.08772e-15,1.74283e-15,-9.07288e-18,0.643796,0.643796,-1.28353,0.0,0.0,0.0,1.15746,0.9036936018090611,0.0,0.0,0.9036936018090611,0.0,-0.7229424409564462
915,0.9047,1142.59,1200.37,0.0648424,-9.64251e-16,2.93112e-15,2.39308e-15,0.644321,0.644321,-1.28458,0.0,0.0,0.0,1.15841,0.904693303348703,0.0,0.0,0.904693303348703,0.0,-0.7232331987189033
916,0.9057,1142.74,1200.53,0.0647075,-2.79982e-15,6.60074e-16,2.38023e-16,0.644846,0.644846,-1.28563,0.0,0.0,0.0,1.15936,0.9056935298694488,0.0,0.0,0.9056935298694488,0.0,-0.7235236513459339
917,0.9067,1142.9,1200.69,0.0646428,-2.50464e-15,5.68094e-16,-6.97098e-16,0.645371,0.645371,-1.28668,0.0,0.0,0.0,1.16031,0.9066942816469861,0.0,0.0,0.9066942816469861,0.0,-0.7238137991577621
918,0.9077,1143.05,1200.85,0.0645148,-2.24074e-15,9.60348e-16,-9.58176e-17,0.645895,0.645895,-1.28773,0.0,0.0,0.0,1.16126,0.9076936512625413,0.0,0.0,0.9076936512625413,0.0,-0.7241036424742759
919,0.9087,1143.2,1201.01,0.0644447,-2.00478e-15,2.72062e-15,-1.93282e-15,0.646419,0.646419,-1.28877,0.0,0.0,0.0,1.1622,0.9086935446850006,0.0,0.0,0.9086935446850006,0.0,-0.7243904255330634
920,0.9097,1143.35,1201.17,0.0643225,-1.79379e-15,2.80989e-18,7.16024e-16,0.646943,0.646943,-1.28982,0.0,0.0,0.0,1.16315,0.9096939621889109,0.0,0.0,0.9096939621889109,0.0,-0.7246796637096372
921,0.9107,1143.51,1201.33,0.0642478,-1.60512e-15,-6.46431e-18,-1.2245e-15,0.647467,0.647467,-1.29087,0.0,0.0,0.0,1.16409,0.9106949040489623,0.0,0.0,0.9106949040489623,0.0,-0.7249685983455124
922,0.9117,1143.66,1201.49,0.0641305,-1.43639e-15,4.58203e-16,-1.02779e-15,0.64799,0.64799,-1.29191,0.0,0.0,0.0,1.16504,0.9116944588445748,0.0,0.0,0.9116944588445748,0.0,-0.7252544823177998
923,0.9127,1143.81,1201.65,0.0640521,-1.28549e-15,2.75516e-15,-3.69081e-15,0.648513,0.648513,-1.29296,0.0,0.0,0.0,1.16599,0.9126945365440733,0.0,0.0,0.9126945365440733,0.0,-0.7255428137108944
924,0.9137,1143.96,1201.81,0.0639389,-1.15052e-15,5.05158e-16,-3.44196e-16,0.649035,0.649035,-1.294,0.0,0.0,0.0,1.16693,0.9136932237268267,0.0,0.0,0.9136932237268267,0.0,-0.7258281008096298
925,0.9147,1144.12,1201.97,0.0638575,-1.02979e-15,4.31506e-16,-1.67626e-15,0.649558,0.649558,-1.29505,0.0,0.0,0.0,1.16787,0.9146943470537661,0.0,0.0,0.9146943470537661,0.0,-0.7261158302194044
926,0.9157,1144.27,1202.12,0.0637477,-9.21796e-16,8.40044e-16,1.41462e-15,0.65008,0.65008,-1.29609,0.0,0.0,0.0,1.16882,0.9156940784101113,0.0,0.0,0.9156940784101113,0.0,-0.726400521690751
927,0.9167,1144.42,1202.28,0.063664,-8.25182e-16,7.23841e-16,-2.03162e-15,0.650602,0.650602,-1.29714,0.0,0.0,0.0,1.16976,0.9166943317624536,0.0,0.0,0.9166943317624536,0.0,-0.7266876503740369
928,0.9177,1144.57,1202.44,0.0635572,1.20015e-15,-1.2698e-15,-3.14918e-15,0.651123,0.651123,-1.29818,0.0,0.0,0.0,1.1707,0.9176931896891976,0.0,0.0,0.9176931896891976,0.0,-0.7269717474615558
929,0.9187,1144.72,1202.6,0.0634715,1.07451e-15,-1.1193e-15,-8.1551e-16,0.651645,0.651645,-1.29922,0.0,0.0,0.0,1.17165,0.9186944868500377,0.0,0.0,0.9186944868500377,0.0,-0.7272555492416901
930,0.9197,1144.87,1202.76,0.0633671,-9.77074e-16,-5.14583e-16,-3.97799e-15,0.652166,0.652166,-1.30026,0.0,0.0,0.0,1.17259,0.9196943871290915,0.0,0.0,0.9196943871290915,0.0,-0.7275390560213999
931,0.9207,1145.02,1202.91,0.06328,-8.74905e-16,1.43326e-15,-2.01111e-15,0.652687,0.652687,-1.3013,0.0,0.0,0.0,1.17353,0.9206948084919213,0.0,0.0,0.9206948084919213,0.0,-0.7278222681073261
932,0.9217,1145.17,1203.07,0.0631777,-7.83472e-16,-6.50011e-16,1.12527e-15,0.653207,0.653207,-1.30235,0.0,0.0,0.0,1.17447,0.9216938295152917,0.0,0.0,0.9216938295152917,0.0,-0.7281079047403383
933,0.9227,1145.32,1203.23,0.0630894,-7.01643e-16,2.26136e-15,8.14223e-17,0.653727,0.653727,-1.30339,0.0,0.0,0.0,1.17541,0.9226933701646856,0.0,0.0,0.9226933701646856,0.0,-0.7283905255311236
934,0.9237,1145.47,1203.38,0.0629888,-6.28403e-16,-1.34638e-15,-1.30316e-15,0.654247,0.654247,-1.30443,0.0,0.0,0.0,1.17635,0.9236934307103783,0.0,0.0,0.9236934307103783,0.0,-0.7286728525490748
935,0.9247,1145.62,1203.54,0.0628997,-5.62846e-16,2.32986e-16,-1.5665e-15,0.654767,0.654767,-1.30546,0.0,0.0,0.0,1.17729,0.9246940114227866,0.0,0.0,0.9246940114227866,0.0,-0.7289521756348656
936,0.9257,1145.77,1203.7,0.0628007,-5.04163e-16,6.6697e-16,-8.50353e-16,0.655286,0.655286,-1.3065,0.0,0.0,0.0,1.17823,0.9256931868783176,0.0,0.0,0.9256931868783176,0.0,-0.729233918840344
937,0.9267,1145.92,1203.85,0.0627109,-4.51628e-16,-3.73776e-16,2.48459e-16,0.655806,0.655806,-1.30754,0.0,0.0,0.0,1.17916,0.9266948077343469,0.0,0.0,0.9266948077343469,0.0,-0.7295153691852025
938,0.9277,1146.07,1204.01,0.0626131,-4.04595e-16,-8.10302e-16,-1.62983e-15,0.656325,0.656325,-1.30858,0.0,0.0,0.0,1.1801,0.9276950218726785,0.0,0.0,0.9276950218726785,0.0,-0.7297965269738582
939,0.9287,1146.22,1204.17,0.0625229,-3.62485e-16,1.64869e-15,-3.2708e-15,0.656843,0.656843,-1.30962,0.0,0.0,0.0,1.18104,0.9286938265620892,0.0,0.0,0.9286938265620892,0.0,-0.7300773925104111
940,0.9297,1146.37,1204.32,0.0624263,-3.24779e-16,-1.4094e-15,-4.46122e-16,0.657362,0.657362,-1.31065,0.0,0.0,0.0,1.18198,0.9296950784604678,0.0,0.0,0.9296950784604678,0.0,-0.7303552696648241
941,0.9307,1146.52,1204.48,0.0623358,-2.91015e-16,1.12496e-15,1.07617e-15,0.65788,0.65788,-1.31169,0.0,0.0,0.0,1.18291,0.9306949194475693,0.0,0.0,0.9306949194475693,0.0,-0.7306355544110417
942,0.9317,1146.67,1204.63,0.0622401,-2.60779e-16,-1.86765e-15,4.05036e-17,0.658397,0.658397,-1.31272,0.0,0.0,0.0,1.18385,0.9316933467921533,0.0,0.0,0.9316933467921533,0.0,-0.7309128569546726
943,0.9327,1146.82,1204.79,0.0621495,-2.33699e-16,-2.22745e-16,-8.6469e-16,0.658915,0.658915,-1.31376,0.0,0.0,0.0,1.18478,0.9326942231503885,0.0,0.0,0.9326942231503885,0.0,-0.7311925621115474
944,0.9337,1146.96,1204.94,0.0620547,-2.09446e-16,-2.04718e-16,-1.6558e-15,0.659432,0.659432,-1.31479,0.0,0.0,0.0,1.18572,0.9336936844022288,0.0,0.0,0.9336936844022288,0.0,-0.73146929123261
945,0.9347,1147.11,1205.1,0.0619639,-1.87723e-16,-1.88934e-16,-9.27173e-16,0.659949,0.659949,-1.31583,0.0,0.0,0.0,1.18665,0.9346936625091318,0.0,0.0,0.9346936625091318,0.0,-0.7317484179986511
946,0.9357,1147.26,1205.25,0.0618699,-1.68263e-16,2.98589e-16,-1.7101e-15,0.660466,0.660466,-1.31686,0.0,0.0,0.0,1.18759,0.9356941577383806,0.0,0.0,0.9356941577383806,0.0,-0.7320245748829024
947,0.9367,1147.41,1205.41,0.0617792,-1.50831e-16,2.51371e-16,-2.73734e-17,0.660982,0.660982,-1.31789,0.0,0.0,0.0,1.18852,0.9366932336631946,0.0,0.0,0.9366932336631946,0.0,-0.7323004474720003
948,0.9377,1147.56,1205.56,0.0616858,-1.35214e-16,6.83794e-16,-1.87002e-15,0.661499,0.661499,-1.31892,0.0,0.0,0.0,1.18945,0.9376947629380079,0.0,0.0,0.9376947629380079,0.0,-0.7325760360586178
949,0.9387,1147.7,1205.72,0.0615952,-1.21222e-16,-3.5933e-16,-6.40245e-16,0.662015,0.662015,-1.31996,0.0,0.0,0.0,1.19038,0.9386948714414876,0.0,0.0,0.9386948714414876,0.0,-0.7328540124083599
950,0.9397,1147.85,1205.87,0.0615025,-1.08686e-16,1.57091e-15,-3.81314e-17,0.66253,0.66253,-1.32099,0.0,0.0,0.0,1.19132,0.9396935564395936,0.0,0.0,0.9396935564395936,0.0,-0.7331290311166306
951,0.9407,1148.0,1206.02,0.0614119,-9.74518e-17,-5.70853e-17,-3.29991e-15,0.663046,0.663046,-1.32202,0.0,0.0,0.0,1.19225,0.9406946965866614,0.0,0.0,0.9406946965866614,0.0,-0.7334037667014653
952,0.9417,1148.14,1206.18,0.0613198,-8.7385e-17,-2.42997e-15,-2.36379e-15,0.663561,0.663561,-1.32305,0.0,0.0,0.0,1.19318,0.9416944117599646,0.0,0.0,0.9416944117599646,0.0,-0.7336782194543312
953,0.9427,1148.29,1206.33,0.0612295,-7.83632e-17,1.6547e-15,-1.54459e-15,0.664076,0.664076,-1.32408,0.0,0.0,0.0,1.19411,0.94269464191918,0.0,0.0,0.94269464191918,0.0,-0.7339523896663951
954,0.9437,1148.44,1206.48,0.0611379,-7.02775e-17,-4.57627e-16,-1.30136e-15,0.66459,0.66459,-1.32511,0.0,0.0,0.0,1.19504,0.9436934436351774,0.0,0.0,0.9436934436351774,0.0,-0.7342262776285242
955,0.9447,1148.58,1206.64,0.0610477,-2.00545e-15,6.3239e-17,3.17502e-15,0.665105,0.665105,-1.32613,0.0,0.0,0.0,1.19597,0.9446947035609503,0.0,0.0,0.9446947035609503,0.0,-0.7344972286168476
956,0.9457,1148.73,1206.79,0.0609567,-1.79876e-15,9.93373e-16,-9.62255e-16,0.665619,0.665619,-1.32716,0.0,0.0,0.0,1.1969,0.9456945335728812,0.0,0.0,0.9456945335728812,0.0,-0.7347705556837685
957,0.9467,1148.88,1206.94,0.0608668,-1.61348e-15,3.85378e-16,-1.26591e-15,0.666133,0.666133,-1.32819,0.0,0.0,0.0,1.19782,0.9466948776295363,0.0,0.0,0.9466948776295363,0.0,-0.7350436013687469
958,0.9477,1149.02,1207.09,0.0607761,-1.44738e-15,3.27038e-16,-1.05763e-15,0.666646,0.666646,-1.32922,0.0,0.0,0.0,1.19875,0.9476937883004406,0.0,0.0,0.9476937883004406,0.0,-0.7353163659614572
959,0.9487,1149.17,1207.25,0.0606865,-1.29846e-15,2.75896e-16,-1.34904e-15,0.667159,0.667159,-1.33024,0.0,0.0,0.0,1.19968,0.9486932115439826,0.0,0.0,0.9486932115439826,0.0,-0.7355862056265522
960,0.9497,1149.31,1207.4,0.0605963,-1.16495e-15,7.05293e-16,-6.56091e-16,0.667672,0.667672,-1.33127,0.0,0.0,0.0,1.20061,0.9496931476231798,0.0,0.0,0.9496931476231798,0.0,-0.7358584116246025
961,0.9507,1149.46,1207.55,0.060507,-1.04523e-15,6.07061e-16,-1.47122e-15,0.668185,0.668185,-1.33229,0.0,0.0,0.0,1.20153,0.950693596801184,0.0,0.0,0.950693596801184,0.0,-0.7361276986849975
962,0.9517,1149.61,1207.7,0.0604172,-9.37873e-16,5.2093e-16,-1.23661e-15,0.668698,0.668698,-1.33332,0.0,0.0,0.0,1.20246,0.9516945593412827,0.0,0.0,0.9516945593412827,0.0,-0.736399347232334
963,0.9527,1149.75,1207.85,0.0603282,-8.416e-16,-9.77637e-16,1.33903e-15,0.66921,0.66921,-1.33434,0.0,0.0,0.0,1.20339,0.9526940828118389,0.0,0.0,0.9526940828118389,0.0,-0.7366680828197082
964,0.9537,1149.9,1208.01,0.0602388,-7.55259e-16,1.50456e-15,-2.0946e-15,0.669722,0.669722,-1.33537,0.0,0.0,0.0,1.20431,0.953694118169444,0.0,0.0,0.953694118169444,0.0,-0.7369391750579344
965,0.9547,1150.04,1208.16,0.0601501,-6.7782e-16,3.58383e-16,-8.3403e-16,0.670234,0.670234,-1.33639,0.0,0.0,0.0,1.20524,0.9546946656762512,0.0,0.0,0.9546946656762512,0.0,-0.7372073603016494
966,0.9557,1150.18,1208.31,0.0600611,-6.0836e-16,-2.06942e-15,1.69234e-15,0.670745,0.670745,-1.33741,0.0,0.0,0.0,1.20616,0.9556937698998003,0.0,0.0,0.9556937698998003,0.0,-0.7374752721358782
967,0.9567,1150.33,1208.46,0.0599727,-5.46054e-16,1.49711e-15,1.11359e-16,0.671256,0.671256,-1.33843,0.0,0.0,0.0,1.20708,0.9566933847960732,0.0,0.0,0.9566933847960732,0.0,-0.7377429108393565
968,0.9577,1150.47,1208.61,0.0598841,-4.90162e-16,-1.07165e-15,-7.99044e-16,0.671767,0.671767,-1.33945,0.0,0.0,0.0,1.20801,0.9576935106260909,0.0,0.0,0.9576935106260909,0.0,-0.7380102766905356
969,0.9587,1150.62,1208.76,0.059796,-4.40018e-16,-9.50206e-16,2.67182e-15,0.672278,0.672278,-1.34048,0.0,0.0,0.0,1.20893,0.9586941476510069,0.0,0.0,0.9586941476510069,0.0,-0.7382799871807972
970,0.9597,1150.76,1208.91,0.0597078,-3.95031e-16,-1.31826e-15,-4.53675e-16,0.672788,0.672788,-1.3415,0.0,0.0,0.0,1.20985,0.959693336437792,0.0,0.0,0.959693336437792,0.0,-0.7385468054934003
971,0.9607,1150.91,1209.06,0.05962,-3.54665e-16,-2.16846e-16,1.07723e-15,0.673299,0.673299,-1.34252,0.0,0.0,0.0,1.21077,0.9606949956348403,0.0,0.0,0.9606949956348403,0.0,-0.7388133517900761
972,0.9617,1151.05,1209.21,0.0595322,-3.18445e-16,-1.14994e-15,1.94403e-15,0.673808,0.673808,-1.34354,0.0,0.0,0.0,1.2117,0.9616932434201275,0.0,0.0,0.9616932434201275,0.0,-0.7390796263481396
973,0.9627,1151.19,1209.36,0.0594447,-2.85943e-16,-1.49322e-15,3.31382e-16,0.674318,0.674318,-1.34455,0.0,0.0,0.0,1.21262,0.9626939621358537,0.0,0.0,0.9626939621358537,0.0,-0.7393430228878846
974,0.9637,1151.34,1209.51,0.0593573,-2.56774e-16,-1.79407e-15,-1.32797e-16,0.674827,0.674827,-1.34557,0.0,0.0,0.0,1.21354,0.963693227654081,0.0,0.0,0.963693227654081,0.0,-0.7396087574568695
975,0.9647,1151.48,1209.66,0.0592702,-2.30596e-16,3.16271e-16,2.30727e-15,0.675337,0.675337,-1.34659,0.0,0.0,0.0,1.21446,0.9646949666219087,0.0,0.0,0.9646949666219087,0.0,-0.7398742211147824
976,0.9657,1151.62,1209.81,0.0591831,-2.071e-16,2.67625e-16,1.59847e-15,0.675845,0.675845,-1.34761,0.0,0.0,0.0,1.21538,0.9656932852164066,0.0,0.0,0.9656932852164066,0.0,-0.7401394141378113
977,0.9667,1151.76,1209.96,0.0590963,-1.8601e-16,-1.67455e-15,-9.21004e-16,0.676354,0.676354,-1.34863,0.0,0.0,0.0,1.2163,0.9666940777786817,0.0,0.0,0.9666940777786817,0.0,-0.7404043368018632
978,0.9677,1151.91,1210.11,0.0590095,-1.67078e-16,4.21353e-16,-2.81744e-16,0.676862,0.676862,-1.34964,0.0,0.0,0.0,1.21721,0.9676934121796399,0.0,0.0,0.9676934121796399,0.0,-0.740666396059491
979,0.9687,1152.05,1210.26,0.058923,-1.50083e-16,-1.14922e-16,2.78694e-16,0.67737,0.67737,-1.35066,0.0,0.0,0.0,1.21813,0.9686932543714422,0.0,0.0,0.9686932543714422,0.0,-0.7409307814760258
980,0.9697,1152.19,1210.41,0.0588367,-2.08041e-15,-1.53532e-15,-1.60321e-15,0.677878,0.677878,-1.35167,0.0,0.0,0.0,1.21905,0.969693604612111,0.0,0.0,0.969693604612111,0.0,-0.7411923092929553
981,0.9707,1152.33,1210.56,0.0587505,-1.86903e-15,-4.06229e-16,1.01928e-15,0.678386,0.678386,-1.35269,0.0,0.0,0.0,1.21997,0.9706944631598013,0.0,0.0,0.9706944631598013,0.0,-0.741456158551479
982,0.9717,1152.48,1210.7,0.0586645,-1.67924e-15,-1.7908e-15,-9.53916e-16,0.678893,0.678893,-1.3537,0.0,0.0,0.0,1.22088,0.971693858577954,0.0,0.0,0.971693858577954,0.0,-0.7417171560054407
983,0.9727,1152.62,1210.85,0.0585787,-1.50881e-15,-1.58025e-15,6.39349e-16,0.6794,0.6794,-1.35472,0.0,0.0,0.0,1.2218,0.9726937608180521,0.0,0.0,0.9726937608180521,0.0,-0.74198047019325
984,0.9737,1152.76,1211.0,0.058493,-1.35577e-15,1.45542e-15,1.08689e-15,0.679907,0.679907,-1.35573,0.0,0.0,0.0,1.22272,0.9736941701371198,0.0,0.0,0.9736941701371198,0.0,-0.7422409383597888
985,0.9747,1152.9,1211.15,0.0584075,-1.21833e-15,-1.57122e-16,5.48247e-17,0.680413,0.680413,-1.35674,0.0,0.0,0.0,1.22363,0.9746931120982116,0.0,0.0,0.9746931120982116,0.0,-0.7425011435862865
986,0.9757,1153.04,1211.3,0.0583221,8.51436e-16,-2.52276e-15,9.94328e-17,0.68092,0.68092,-1.35775,0.0,0.0,0.0,1.22455,0.9756945353453872,0.0,0.0,0.9756945353453872,0.0,-0.7427610861381784
987,0.9767,1153.18,1211.44,0.058237,2.71167e-15,-7.97008e-16,-8.11205e-16,0.681426,0.681426,-1.35877,0.0,0.0,0.0,1.22546,0.9766944897474004,0.0,0.0,0.9766944897474004,0.0,-0.7430233360601202
988,0.9777,1153.32,1211.59,0.058152,2.43724e-15,1.19319e-15,2.18966e-15,0.681932,0.681932,-1.35978,0.0,0.0,0.0,1.22637,0.9776949502543746,0.0,0.0,0.9776949502543746,0.0,-0.743282751463868
989,0.9787,1153.47,1211.74,0.0580672,2.19072e-15,-3.86983e-16,1.49713e-15,0.682437,0.682437,-1.36079,0.0,0.0,0.0,1.22729,0.9786939384275362,0.0,0.0,0.9786939384275362,0.0,-0.7435419049903285
990,0.9797,1153.61,1211.89,0.0579825,3.91609e-15,1.55317e-15,2.3145e-15,0.682942,0.682942,-1.3618,0.0,0.0,0.0,1.2282,0.9796934312171304,0.0,0.0,0.9796934312171304,0.0,-0.7438007969038638
991,0.9807,1153.75,1212.03,0.057898,3.52044e-15,-2.4481e-15,-1.244e-15,0.683447,0.683447,-1.36281,0.0,0.0,0.0,1.22911,0.9806934288780524,0.0,0.0,0.9806934288780524,0.0,-0.7440594274685701
992,0.9817,1153.89,1212.18,0.0578136,3.16496e-15,-1.68247e-15,-1.04061e-15,0.683952,0.683952,-1.36382,0.0,0.0,0.0,1.23003,0.9816939316653268,0.0,0.0,0.9816939316653268,0.0,-0.744317796948276
993,0.9827,1154.03,1212.33,0.0577295,2.84556e-15,-5.90643e-17,1.51363e-15,0.684457,0.684457,-1.36483,0.0,0.0,0.0,1.23094,0.9826949398341067,0.0,0.0,0.9826949398341067,0.0,-0.7445759056065444
994,0.9837,1154.17,1212.47,0.0576455,2.55855e-15,-5.35358e-16,9.0413e-16,0.684961,0.684961,-1.36583,0.0,0.0,0.0,1.23185,0.983694469944213,0.0,0.0,0.983694469944213,0.0,-0.7448312020314507
995,0.9847,1154.31,1212.62,0.0575616,2.30064e-15,-9.53616e-16,-2.00681e-15,0.685465,0.685465,-1.36684,0.0,0.0,0.0,1.23276,0.9846945039444641,0.0,0.0,0.9846945039444641,0.0,-0.7450887924123593
996,0.9857,1154.45,1212.76,0.0574779,4.01641e-15,1.0579e-16,-1.71015e-15,0.685969,0.685969,-1.36785,0.0,0.0,0.0,1.23367,0.9856950420888853,0.0,0.0,0.9856950420888853,0.0,-0.7453461227583229
997,0.9867,1154.59,1212.91,0.0573944,1.66431e-15,8.51534e-17,-2.36991e-17,0.686472,0.686472,-1.36886,0.0,0.0,0.0,1.23458,0.9866940979365373,0.0,0.0,0.9866940979365373,0.0,-0.7456031933318441
998,0.9877,1154.73,1213.06,0.0573111,1.49682e-15,-4.08624e-16,3.35801e-15,0.686975,0.686975,-1.36986,0.0,0.0,0.0,1.23549,0.9876936564356873,0.0,0.0,0.9876936564356873,0.0,-0.7458574629824979
999,0.9887,1154.87,1213.2,0.0572279,1.34627e-15,-1.79372e-15,-1.75419e-15,0.687478,0.687478,-1.37087,0.0,0.0,0.0,1.2364,0.9886937178392321,0.0,0.0,0.9886937178392321,0.0,-0.7461140173631141
