,Time,S11,S22,S33,S12,S13,S23,LE11,LE22,LE33,LE12,LE13,LE23,SDV_EPBAR,E11,E12,E13,E22,E23,E33
0,1e-05,2.96779,2.96779,-3.9968e-15,0.0,0.0,-2.22312e-38,9.99995e-06,9.99995e-06,-8.57139e-06,0.0,0.0,0.0,0.0,9.999999999621423e-06,0.0,0.0,9.999999999621423e-06,0.0,-8.571353265707238e-06
1,2e-05,5.93554,5.93554,-3.10862e-15,0.0,0.0,-4.44622e-38,1.99998e-05,1.99998e-05,-1.71427e-05,0.0,0.0,0.0,0.0,1.9999999997244444e-05,0.0,0.0,1.9999999997244444e-05,0.0,-1.714255306473067e-05
2,3.5e-05,10.3871,10.3871,-1.73195e-14,0.0,0.0,-8.33656e-38,3.49994e-05,3.49994e-05,-2.99995e-05,0.0,0.0,0.0,0.0,3.5000012486241516e-05,0.0,0.0,3.5000012486241516e-05,0.0,-2.9999050019546836e-05
3,5.75e-05,17.0644,17.0644,-7.9492e-14,0.0,0.0,-1.8757e-37,5.74983e-05,5.74983e-05,-4.92843e-05,0.0,0.0,0.0,0.0,5.749995305892597e-05,0.0,0.0,5.749995305892597e-05,0.0,-4.928308554885685e-05
4,9.125e-05,27.0799,27.0799,-4.11671e-13,0.0,0.0,-4.22022e-37,9.12458e-05,9.12458e-05,-7.82107e-05,0.0,0.0,0.0,0.0,9.124996302456445e-05,0.0,0.0,9.124996302456445e-05,0.0,-7.820764162291827e-05
5,0.00014188,42.1027,42.1027,-2.06191e-12,0.0,0.0,-9.49518e-37,0.000141865,0.000141865,-0.000121599,0.0,0.0,0.0,0.0,0.00014187506331508892,0.0,0.0,0.00014187506331508892,0.0,-0.00012159160714120265
6,0.00021781,64.6354,64.6354,-1.04285e-11,0.0,0.0,-2.1363e-36,0.000217789,0.000217789,-0.000186676,0.0,0.0,0.0,0.0,0.0002178127177461242,0.0,0.0,0.0002178127177461242,0.0,-0.00018665857711963607
7,0.00033172,98.4312,98.4312,-5.28479e-11,0.0,0.0,-4.8063e-36,0.000331664,0.000331664,-0.000284283,0.0,0.0,0.0,0.0,0.0003317190065854625,0.0,0.0,0.0003317190065854625,0.0,-0.00028424259541681707
8,0.00050258,149.118,149.118,-2.67432e-10,0.0,0.0,-1.08129e-35,0.000502452,0.000502452,-0.000430673,0.0,0.0,0.0,0.0,0.0005025782501502096,0.0,0.0,0.0005025782501502096,0.0,-0.00043058027369557994
9,0.00075887,225.131,225.131,-1.35321e-09,0.0,0.0,-2.43248e-35,0.000758579,0.000758579,-0.000650211,0.0,0.0,0.0,0.0,0.0007588667938165372,0.0,0.0,0.0007588667938165372,0.0,-0.0006499996586357693
10,0.0011433,339.115,339.115,-6.84461e-09,0.0,0.0,-5.47162e-35,0.00114265,0.00114265,-0.000979412,0.0,0.0,0.0,0.0,0.0011433030732321825,0.0,0.0,0.0011433030732321825,0.0,-0.0009789325326119425
11,0.00172,433.722,436.929,0.18376,0.000272712,0.00763883,0.0109669,0.00171847,0.00171847,-0.00176024,2.22844e-12,7.3228e-08,2.12672e-07,0.000454052,0.001719947415747436,2.2284396550276142e-12,7.322800277265173e-08,0.001719947415747436,2.1267202265917717e-07,-0.0017586916861723756
12,0.0020083,437.667,443.907,0.222258,0.000571158,0.00964632,0.0150044,0.00200626,0.00200626,-0.00231474,2.97603e-12,7.2582e-08,3.60484e-07,0.000939714,0.00200827388616176,2.9760638398101946e-12,7.258200263038361e-08,0.00200827388616176,3.6048406504285424e-07,-0.0023120630552415644
13,0.0022966,441.347,450.262,-0.108004,0.000834794,-0.0115528,-0.0297997,0.00229397,0.00229397,-0.00287149,-5.18179e-12,-2.66e-07,-2.0125e-07,0.00142696,0.0022966031622606575,-5.181743922832993e-12,-2.659999646104083e-07,0.0022966031622606575,-2.0124997979209525e-07,-0.0028673712158823195
14,0.0025849,445.733,456.996,0.209317,0.00106421,0.00960918,0.0127199,0.00258159,0.00258159,-0.00342474,9.56697e-13,-2.72095e-08,4.22371e-07,0.00191247,0.0025849251728629064,9.5679020262196e-13,-2.7209499653402247e-08,0.0025849251728629064,4.223710892148347e-07,-0.003418882266945089
15,0.0030174,451.208,465.806,-0.403519,0.00194746,-0.0260734,-0.0707325,0.00301287,0.00301287,-0.00426106,-3.04884e-11,-7.12241e-07,-6.2274e-07,0.00264494,0.0030174132544176224,-3.0488389590743736e-11,-7.122407463810987e-07,0.0030174132544176224,-6.227398060554279e-07,-0.004251994564530515
16,0.0036661,461.185,480.429,0.650534,0.0047114,0.0275883,0.0698436,0.00365944,0.00365944,-0.00550505,4.94473e-11,-4.22355e-07,2.14587e-06,0.00373857,0.0036661439256002737,4.944733511536015e-11,-4.2235491082287524e-07,0.0036661439256002737,2.1458723022949044e-06,-0.00548992497964107
17,0.0043149,468.951,491.978,-0.645915,0.00691144,-0.0293007,-0.108648,0.0043056,0.0043056,-0.00676292,1.31707e-11,-1.76106e-06,1.6556e-07,0.00484145,0.0043148824130179175,1.3170797785733157e-11,-1.7610584492899761e-06,0.0043148824130179175,1.6556001369849582e-07,-0.00674010292220284
18,0.0049636,477.933,504.019,-0.694787,0.0085924,-0.0300784,-0.115318,0.00495133,0.00495133,-0.00801425,-2.22843e-11,-2.38191e-06,2.95131e-07,0.00594169,0.004963608090312821,-2.228428552797368e-11,-2.38190716328468e-06,0.004963608090312821,2.951310436039023e-07,-0.007982221517004007
19,0.0056123,486.906,515.505,-0.68487,0.00988589,-0.0280693,-0.114082,0.00559665,0.00559665,-0.00926572,5.12973e-11,-2.9455e-06,5.17671e-07,0.00704309,0.005612340503373003,5.129741076359551e-11,-2.9454956620433848e-06,0.005612340503373003,5.176711339593965e-07,-0.009222925492409884
20,0.0062611,497.145,527.813,0.737039,0.0108602,0.0437229,0.0735558,0.00624155,0.00624155,-0.0105096,2.6412e-10,-2.32662e-06,3.80321e-06,0.00814112,0.006261069061803459,2.641200591568804e-10,-2.3266172933800178e-06,0.006261069061803459,3.8032172322566282e-06,-0.01045456711385484
21,0.0065043,500.212,530.876,0.153643,0.0100114,0.0182192,-0.00623983,0.00648329,0.00648329,-0.0109824,2.13959e-10,-2.64198e-06,2.8289e-06,0.00855689,0.006504352017064674,2.1395907268129122e-10,-2.641976510009414e-06,0.006504352017064674,2.8289040012730027e-06,-0.010922313610538303
22,0.0068693,505.618,536.653,0.388917,0.00928586,0.0328525,0.0247495,0.00684577,0.00684577,-0.0116854,2.25274e-10,-2.46358e-06,3.38905e-06,0.00917718,0.006869255845758149,2.2527402165906096e-10,-2.4635769654279827e-06,0.006869255845758149,3.38905574293058e-06,-0.011617390875785283
23,0.0074166,512.065,544.289,-0.451961,0.00942878,-0.0178686,-0.0863134,0.00738926,0.00738926,-0.0127471,-1.67804e-11,-3.42659e-06,2.077e-06,0.0101122,0.007416627949776711,-1.6780354883394466e-11,-3.4265841292180355e-06,0.007416627949776711,2.0770021569305186e-06,-0.012666199833138658
24,0.0076219,515.703,547.791,0.242642,0.00877802,0.0275481,0.00392819,0.00759299,0.00759299,-0.0131394,-2.05949e-10,-2.83464e-06,3.23142e-06,0.0104597,0.007621889847682084,-2.0594903560322564e-10,-2.834635982384981e-06,0.007621889847682084,3.231425220961981e-06,-0.013053454917892782
25,0.0079298,519.92,552.113,0.227175,0.00813133,0.0241252,0.00207591,0.00789851,0.00789851,-0.0137341,2.17889e-10,-2.87709e-06,3.27658e-06,0.0109847,0.007929785519216193,2.1788904014385935e-10,-2.877085861219264e-06,0.007929785519216193,3.2765853679173063e-06,-0.01364021753709499
26,0.0083916,525.587,558.461,-0.0740866,0.00793266,0.00362458,-0.0370158,0.00835661,0.00835661,-0.0146278,-1.75191e-10,-3.27645e-06,2.89119e-06,0.0117734,0.008391623929973946,-1.7519097283980045e-10,-3.276444632493991e-06,0.008391623929973946,2.8911941793996476e-06,-0.014521333489373234
27,0.0090844,534.519,569.209,0.608905,0.00939475,0.0408115,0.0504572,0.00904337,0.00904337,-0.0159624,3.02878e-10,-3.12044e-06,4.85424e-06,0.0129537,0.00908438481462892,3.0287794494654463e-10,-3.12043513139848e-06,0.00908438481462892,4.85425178187171e-06,-0.01583567606181213
28,0.0093344,536.992,571.501,-0.268533,0.00869984,-0.0116046,-0.0640877,0.00929109,0.00929109,-0.0164503,2.48575e-10,-3.82035e-06,3.34979e-06,0.0133837,0.009334386162323627,2.485749384106839e-10,-3.82034270252074e-06,0.009334386162323627,3.349795610452233e-06,-0.01631573271611786
29,0.0097094,541.567,576.222,-0.400661,0.00813267,-0.017917,-0.0814942,0.00966255,0.00966255,-0.0171757,-1.77663e-10,-4.01873e-06,3.04938e-06,0.014025,0.009709383157287421,-1.7766299542643083e-10,-4.018721924903268e-06,0.009709383157287421,3.049384649456144e-06,-0.017029038536305774
30,0.010272,548.997,584.561,0.512149,0.00837014,0.0405494,0.0356747,0.0102195,0.0102195,-0.0182576,2.96259e-10,-3.39577e-06,4.96889e-06,0.0149837,0.010271897429858123,2.9625901731833437e-10,-3.3957642343596106e-06,0.010271897429858123,4.968902344915094e-06,-0.018091939739429685
31,0.010483,550.963,586.292,-0.231354,0.00781222,-0.00884873,-0.0601574,0.0104283,0.0104283,-0.0186694,-5.54272e-11,-4.04034e-06,3.70684e-06,0.0153471,0.010482864226208699,-5.5427218370596165e-11,-4.040331837873445e-06,0.010482864226208699,3.7068468703438384e-06,-0.0184962062344608
32,0.010799,554.777,590.075,-0.241863,0.00727078,-0.00748328,-0.0619309,0.0107413,0.0107413,-0.019281,2.46417e-10,-4.08219e-06,3.62452e-06,0.0158885,0.010799194865874107,2.4641710894002244e-10,-4.0821816679192935e-06,0.010799194865874107,3.6245265686574157e-06,-0.0190963104241606
33,0.011274,560.56,596.37,0.211706,0.00714877,0.0245035,-0.00424467,0.0112108,0.0112108,-0.0201958,-2.14231e-10,-3.7537e-06,4.52725e-06,0.0166995,0.011273876510660141,-2.1423096630002192e-10,-3.7536929549109033e-06,0.011273876510660141,4.527260248021747e-06,-0.019993230805452455
34,0.011986,567.119,604.585,-0.556868,0.00859039,-0.0178251,-0.104767,0.0119145,0.0119145,-0.0215765,-2.26834e-10,-4.79665e-06,3.48245e-06,0.0179216,0.011985760384525035,-2.2683399603096177e-10,-4.796638496062933e-06,0.011985760384525035,3.4824560637414237e-06,-0.021345392472067015
35,0.012236,570.885,608.081,0.299609,0.00798575,0.0368123,0.00530662,0.0121615,0.0121615,-0.0220549,2.9169e-10,-4.07708e-06,4.89595e-06,0.0183472,0.012235751740001355,2.91690005482792e-10,-4.07707168870175e-06,0.012235751740001355,4.8959619851629554e-06,-0.021813468863508323
36,0.012611,575.034,612.251,0.338984,0.00747919,0.0365992,0.010302,0.0125319,0.0125319,-0.0227797,2.91917e-10,-4.06578e-06,5.07063e-06,0.01899,0.012610753308448963,2.919169350690254e-10,-4.065771734729218e-06,0.012610753308448963,5.0706428555979954e-06,-0.02252220158551077
37,0.013173,580.195,618.155,-0.170046,0.00766322,0.00255355,-0.0549747,0.0130872,0.0130872,-0.0238701,2.77759e-10,-4.69546e-06,4.37242e-06,0.0199564,0.0131732122120225,2.7775892696979554e-10,-4.695448976299588e-06,0.0131732122120225,4.3724295590852336e-06,-0.0235874624911091
38,0.014017,587.067,627.212,-0.939158,0.0101027,-0.0323175,-0.155438,0.0139197,0.0139197,-0.0255061,2.52822e-10,-5.92696e-06,3.36351e-06,0.021407,0.014017030101651118,2.5282198556908497e-10,-5.926942435618976e-06,0.014017030101651118,3.3635156566624858e-06,-0.025183567432634058
39,0.014861,594.516,636.452,-0.942568,0.0119195,-0.0310448,-0.155883,0.0147514,0.0147514,-0.0271378,-2.24726e-10,-6.67547e-06,3.58116e-06,0.0228561,0.014860738873244905,-2.2472601557410599e-10,-6.675447719151073e-06,0.014860738873244905,3.581166412303105e-06,-0.026772878413669265
40,0.015494,600.607,642.977,-0.663272,0.0116386,-0.0214228,-0.119238,0.0153748,0.0153748,-0.0283598,3.16619e-10,-6.8965e-06,4.01572e-06,0.0239426,0.015493600300269694,3.1661895327772527e-10,-6.896476219209191e-06,0.015493600300269694,4.015728062967128e-06,-0.027961435599902607
41,0.016126,607.355,650.126,0.465115,0.0113689,0.0474983,0.0244303,0.0159977,0.0159977,-0.0295769,-1.56724e-10,-6.1339e-06,6.25726e-06,0.0250267,0.016126348312806016,-1.5672396713739545e-10,-6.133881187642132e-06,0.016126348312806016,6.257279576704633e-06,-0.02914378407251661
42,0.016364,609.07,651.316,-0.241429,0.010569,-0.001404,-0.0650446,0.0162312,0.0162312,-0.0300397,3.70384e-10,-6.76372e-06,5.06763e-06,0.0254372,0.016363641518040595,3.7038394573585265e-10,-6.763697126044299e-06,0.016363641518040595,5.067642840472786e-06,-0.029592992374429028
43,0.01672,612.408,654.29,-0.25341,0.00973193,-0.000139046,-0.0669753,0.0165814,0.0165814,-0.030728,3.57377e-10,-6.79606e-06,4.97561e-06,0.0260495,0.016719634396014982,3.5737701686855416e-10,-6.79603690678654e-06,0.016719634396014982,4.9756223783337106e-06,-0.030260693702005237
44,0.017254,617.458,659.52,0.257386,0.00928667,0.0363665,-0.00270187,0.0171064,0.0171064,-0.0317573,3.9066e-10,-6.38531e-06,5.97907e-06,0.0269664,0.01725355234527104,3.906599488345819e-10,-6.3852896139415805e-06,0.01725355234527104,5.979087874585787e-06,-0.03125833284691204
45,0.018054,622.614,666.103,-0.598739,0.0104377,-0.0126865,-0.11223,0.0178934,0.0178934,-0.0333106,3.53946e-10,-7.52061e-06,4.81968e-06,0.0283477,0.01805444600128303,3.539459836332526e-10,-7.520581720266151e-06,0.01805444600128303,4.819691614699195e-06,-0.03276191122204375
46,0.018304,625.794,668.777,0.296974,0.0097049,0.0458706,0.000622866,0.018139,0.018139,-0.0337887,4.05864e-10,-6.7386e-06,6.25518e-06,0.0287751,0.018304510879931124,4.0586400906761355e-10,-6.738577295717363e-06,0.018304510879931124,6.255199563653946e-06,-0.033224237224451114
47,0.018679,628.977,671.643,0.305618,0.00896153,0.0435505,0.00175985,0.0185072,0.0185072,-0.0345134,4.02445e-10,-6.72996e-06,6.34115e-06,0.0294207,0.01867951963571235,4.024449662409779e-10,-6.729937353844306e-06,0.01867951963571235,6.3411701052285e-06,-0.033924605810525144
48,0.019242,632.847,675.804,-0.0949595,0.00866686,0.0147102,-0.048451,0.0190592,0.0190592,-0.0356029,3.81936e-10,-7.20937e-06,5.79175e-06,0.0303907,0.019241985956973684,3.8193603835168233e-10,-7.209344012548691e-06,0.019241985956973684,5.791766772178519e-06,-0.03497657178996949
49,0.020086,639.465,684.023,0.971494,0.010052,0.0752486,0.0854551,0.0198867,0.0198867,-0.0372275,4.94208e-10,-6.63303e-06,8.51084e-06,0.0318405,0.020085757762789758,4.942080078507161e-10,-6.6330080015220005e-06,0.020085757762789758,8.510876217338037e-06,-0.036543076035498
50,0.020336,640.26,684.299,-0.353532,0.00935002,-0.00874082,-0.0823377,0.0201317,0.0201317,-0.0377181,4.20934e-10,-7.71287e-06,6.31437e-06,0.0322758,0.02033570939126572,4.209339543592705e-10,-7.712840255913456e-06,0.02033570939126572,6.31438993559108e-06,-0.03701563207492031
51,0.020711,643.042,686.738,-0.458496,0.00863468,-0.0136147,-0.0958969,0.0204992,0.0204992,-0.0384432,-3.73528e-10,-7.84792e-06,6.0171e-06,0.0329224,0.020710751674265504,-3.7352798631928863e-10,-7.84788920515922e-06,0.020710751674265504,6.0171181028856324e-06,-0.03771363894712865
52,0.021273,647.832,691.761,0.494128,0.00831916,0.0547786,0.0233917,0.0210501,0.0210501,-0.0395244,4.4814e-10,-6.97958e-06,7.77864e-06,0.0338885,0.021273216143975926,4.4813996957770996e-10,-6.979555642772084e-06,0.021273216143975926,7.778670253699715e-06,-0.03875350071013062
53,0.022117,653.236,698.704,0.94595,0.00955978,0.0750342,0.0781595,0.0218759,0.0218759,-0.0411516,5.13579e-10,-6.87583e-06,9.41549e-06,0.0353413,0.022116931888150893,5.135789571397709e-10,-6.875806361494874e-06,0.022116931888150893,9.41553432576292e-06,-0.04031636911919323
54,0.023117,656.823,704.496,-0.852195,0.0118793,-0.0202605,-0.14866,0.0228538,0.0228538,-0.0430932,4.65757e-10,-8.8851e-06,6.91388e-06,0.0370714,0.023116948914477353,4.657569885324619e-10,-8.885060527652477e-06,0.023116948914477353,6.913903900951368e-06,-0.042177883114328685
55,0.023367,659.99,706.994,0.422072,0.0110556,0.0604902,0.00956227,0.0230982,0.0230982,-0.0435685,5.22602e-10,-7.80553e-06,8.92703e-06,0.0374982,0.023367029255364935,5.226019617055044e-10,-7.805499536939209e-06,0.023367029255364935,8.927069846009772e-06,-0.04263302779278311
56,0.023742,662.568,709.022,0.405849,0.0101507,0.0550378,0.00762252,0.0234645,0.0234645,-0.0442924,5.17126e-10,-7.8092e-06,8.97374e-06,0.0381449,0.023741957262053415,5.171258976588433e-10,-7.809169508266045e-06,0.023741957262053415,8.973780264209807e-06,-0.04332581495939547
57,0.024304,665.447,711.877,-0.121471,0.00954745,0.0155549,-0.0576724,0.0240138,0.0240138,-0.045381,-4.05598e-10,-8.394e-06,8.1763e-06,0.0391167,0.024304453194541775,-4.0559799963091336e-10,-8.393964770481155e-06,0.024304453194541775,8.17633342609092e-06,-0.044366683829514586
58,0.025148,670.724,718.358,0.881145,0.010285,0.0748027,0.0663569,0.0248372,0.0248372,-0.0470035,-4.29988e-10,-7.7603e-06,1.05604e-05,0.0405683,0.025148212809464,-4.299880451696936e-10,-7.760269888912319e-06,0.025148212809464,1.056045576119935e-05,-0.04591594170967661
59,0.025398,671.27,718.292,-0.307336,0.00957971,-0.00279122,-0.0816973,0.0250811,0.0250811,-0.0474925,5.1917e-10,-8.74962e-06,8.61249e-06,0.0410036,0.025398276952651067,5.191700402917832e-10,-8.749581722145017e-06,0.025398276952651067,8.612527087503707e-06,-0.0463823747620048
60,0.025773,673.52,720.059,-0.383942,0.00882369,-0.00618545,-0.0915822,0.0254467,0.0254467,-0.0482162,5.02173e-10,-8.84289e-06,8.36639e-06,0.0416506,0.02577323110014662,5.021729698739819e-10,-8.842850901746857e-06,0.02577323110014662,8.366424998351718e-06,-0.04707225817296723
61,0.026336,677.337,723.914,0.415461,0.00835903,0.0529613,0.00785763,0.0259949,0.0259949,-0.0492964,-5.20293e-10,-8.07621e-06,9.8008e-06,0.042618,0.02633571414795255,-5.202930308811915e-10,-8.076177387517092e-06,0.02633571414795255,9.800848028040932e-06,-0.04810105496650452
62,0.027179,681.549,729.401,0.877319,0.0091564,0.0755602,0.0639427,0.0268167,0.0268167,-0.0509206,5.71089e-10,-7.87318e-06,1.12775e-05,0.0440715,0.027179503503397262,5.710889539045638e-10,-7.873149006631941e-06,0.027179503503397262,1.1277563591205464e-05,-0.04964587434560408
63,0.028179,683.939,733.737,-0.731004,0.0108868,-0.013717,-0.136615,0.0277897,0.0277897,-0.0528571,5.38554e-10,-9.65191e-06,8.99981e-06,0.0458015,0.028179435548357112,5.385540902125285e-10,-9.651863420501172e-06,0.028179435548357112,8.999850498403461e-06,-0.051484454330302465
64,0.028679,686.783,736.083,-0.528216,0.0100119,-0.0129191,-0.111859,0.0282759,0.0282759,-0.0538192,-5.10641e-10,-9.75552e-06,9.15087e-06,0.0466631,0.028679457935513186,-5.106409739497053e-10,-9.755472415107214e-06,0.028679457935513186,9.150911869371114e-06,-0.05239658228727939
65,0.029429,691.002,740.719,0.44356,0.00990214,0.0538989,0.00859076,0.0290047,0.0290047,-0.055258,5.88506e-10,-8.98116e-06,1.10429e-05,0.047953,0.029429432782094977,5.885059106702784e-10,-8.981119669515536e-06,0.029429432782094977,1.1042960972984517e-05,-0.05375901371647829
66,0.030429,693.096,744.455,-1.05657,0.0112597,-0.0312986,-0.177144,0.0299757,0.0299757,-0.0571918,5.3779e-10,-1.07472e-05,8.72375e-06,0.0496821,0.03042949421257579,5.377900347269815e-10,-1.0747142249023511e-05,0.03042949421257579,8.723788051945291e-06,-0.05558708640258758
67,0.030679,695.483,746.068,-0.123911,0.0105023,0.0160296,-0.0619663,0.0302183,0.0302183,-0.0576675,5.83136e-10,-1.01431e-05,1.01053e-05,0.05011,0.03067950673316444,5.831359839447714e-10,-1.014304855895265e-05,0.03067950673316444,1.0105351058609102e-05,-0.05603623678669711
68,0.031054,697.07,746.946,-0.476805,0.00964184,-0.0115044,-0.105586,0.030582,0.030582,-0.058391,5.57428e-10,-1.05436e-05,9.40783e-06,0.0507577,0.031054433045980323,5.574281036757611e-10,-1.054354441643035e-05,0.031054433045980323,9.40787425385281e-06,-0.056718947568975886
69,0.031617,700.69,750.299,0.709817,0.00897759,0.0777964,0.0416228,0.0311275,0.0311275,-0.0594662,5.91766e-10,-9.31799e-06,1.15068e-05,0.0517231,0.031617026672667636,5.917659695597877e-10,-9.317946587650283e-06,0.031617026672667636,1.1506866203436772e-05,-0.05773261830950471
70,0.032461,701.994,752.52,-0.867056,0.00935324,-0.0246464,-0.154684,0.031945,0.031945,-0.0610977,5.27642e-10,-1.10215e-05,8.90865e-06,0.0531826,0.03246071840398068,5.276419301480928e-10,-1.1021439263458888e-05,0.03246071840398068,8.908689682174398e-06,-0.059268674164447255
71,0.033304,706.544,757.809,0.882436,0.0096054,0.081486,0.0616522,0.0327619,0.0327619,-0.0627093,-4.85559e-10,-9.69093e-06,1.22911e-05,0.0546303,0.033304480152409166,-4.855590374219787e-10,-9.690883043034226e-06,0.033304480152409166,1.229117553580572e-05,-0.06078353576581208
72,0.034148,707.536,759.461,-0.852999,0.0098,-0.0235695,-0.153524,0.0335781,0.0335781,-0.0643402,5.50438e-10,-1.14112e-05,9.44652e-06,0.0560896,0.03414820754741976,5.504379174681162e-10,-1.1411134892558294e-05,0.03414820754741976,9.446564618542652e-06,-0.062314055495773624
73,0.034992,711.916,764.37,0.890425,0.00990475,0.083102,0.0615557,0.0343937,0.0343937,-0.0659502,6.41242e-10,-1.00576e-05,1.27952e-05,0.0575366,0.03499200287845672,6.412419484291831e-10,-1.0057549422515244e-05,0.03499200287845672,1.279528185893497e-05,-0.0638225152304992
74,0.035836,712.753,765.692,-0.828423,0.00997807,-0.0218697,-0.151063,0.0352086,0.0352086,-0.0675793,-4.5698e-10,-1.17582e-05,9.97761e-06,0.058995,0.03583576160440294,-4.569800093889853e-10,-1.17581308726189e-05,0.03583576160440294,9.977659776616576e-06,-0.06534640035328199
75,0.036679,716.891,770.218,0.847901,0.00998656,0.0814801,0.0553392,0.0360228,0.0360228,-0.069188,6.53939e-10,-1.04424e-05,1.31774e-05,0.0604414,0.03667948251367337,6.539389030280063e-10,-1.044234547831202e-05,0.03667948251367337,1.317748682239106e-05,-0.06684876884493718
76,0.037523,719.336,773.015,0.919067,0.00997658,0.0859531,0.0630931,0.0368364,0.0368364,-0.0708051,-5.90505e-10,-1.03507e-05,1.39037e-05,0.0618927,0.037523268146096855,-5.905049782484184e-10,-1.0350646431733779e-05,0.037523268146096855,1.39037966568889e-05,-0.06835654825722248
77,0.038367,720.364,774.362,-0.339896,0.00994122,0.00926196,-0.0913648,0.0376493,0.0376493,-0.0724289,6.31033e-10,-1.15616e-05,1.20161e-05,0.0633482,0.03836701370469231,6.31033003628545e-10,-1.15615331649499e-05,0.03836701370469231,1.201617219370732e-05,-0.06986812331423942
78,0.038617,722.06,775.217,0.22812,0.00929206,0.0501405,-0.0229289,0.03789,0.03789,-0.0729043,6.38079e-10,-1.0995e-05,1.28596e-05,0.0637761,0.03861697872697456,6.380789230320261e-10,-1.0994939555253325e-05,0.03861697872697456,1.285968268494031e-05,-0.07031020291776802
79,0.038992,722.898,775.241,-0.388505,0.00854548,-0.00252754,-0.0977451,0.038251,0.038251,-0.0736258,6.15461e-10,-1.16891e-05,1.17812e-05,0.064423,0.03899198714124119,6.154610154851525e-10,-1.1689031682693418e-05,0.03899198714124119,1.1781269398714045e-05,-0.07098073218384249
80,0.039554,724.521,776.445,-0.497087,0.00794071,-0.00658784,-0.111364,0.0387922,0.0387922,-0.0747031,5.96781e-10,-1.18419e-05,1.14393e-05,0.0653902,0.03955444179118195,5.967810690066244e-10,-1.1841829885006483e-05,0.03955444179118195,1.1439365429133375e-05,-0.0719810257361958
81,0.040398,727.798,780.384,0.930541,0.00814816,0.0883544,0.0650412,0.0396036,0.0396036,-0.0763093,-4.17939e-10,-1.0579e-05,1.42535e-05,0.066835,0.040398278563533285,-4.179390167280417e-10,-1.0578944042549665e-05,0.040398278563533285,1.4253601581692976e-05,-0.07347041336525029
82,0.041398,727.636,781.583,-1.02553,0.00904955,-0.0293741,-0.176601,0.0405643,0.0405643,-0.0782327,-4.77919e-10,-1.2597e-05,1.10487e-05,0.0685591,0.041398269458464476,-4.779190376780207e-10,-1.2596920658136668e-05,0.041398269458464476,1.1048761037191213e-05,-0.07525078763737636
83,0.042148,729.567,783.478,-0.885985,0.00871786,-0.027882,-0.159471,0.0412842,0.0412842,-0.079665,5.84075e-10,-1.28522e-05,1.09932e-05,0.0698461,0.04214824199287159,5.840750105789994e-10,-1.2852117410866448e-05,0.04214824199287159,1.0993260425529172e-05,-0.07657435783317412
84,0.042898,733.057,786.94,0.893164,0.0084226,0.0904265,0.0600251,0.0420036,0.0420036,-0.0810871,6.48294e-10,-1.12419e-05,1.41967e-05,0.0711269,0.04289823317764463,6.482940850816021e-10,-1.1241836810116368e-05,0.04289823317764463,1.4196800773635943e-05,-0.07788662812794855
85,0.043148,732.757,785.852,-0.367129,0.00787931,-0.00273858,-0.0947656,0.0422433,0.0422433,-0.0815716,6.0938e-10,-1.24253e-05,1.21447e-05,0.0715602,0.043148245846958755,6.093801019346756e-10,-1.2425222806311531e-05,0.043148245846958755,1.2144773747113646e-05,-0.07833328384553562
86,0.043523,733.959,786.309,-0.360485,0.00726705,0.000697001,-0.0945424,0.0426027,0.0426027,-0.0822872,5.96675e-10,-1.2405e-05,1.20143e-05,0.0722034,0.043523220705461885,5.966749316854703e-10,-1.2404923058317863e-05,0.043523220705461885,1.201437217202006e-05,-0.07899259261880165
87,0.044086,736.008,788.007,0.318158,0.00679259,0.054158,-0.0113248,0.0431416,0.0431416,-0.0833565,-5.12632e-10,-1.16693e-05,1.31359e-05,0.0731657,0.04408572692278723,-5.126320479220681e-10,-1.166923191397995e-05,0.04408572692278723,1.313598627628032e-05,-0.07997689948605957
88,0.044929,736.352,789.099,-0.688651,0.00706403,-0.0124228,-0.134553,0.0439494,0.0439494,-0.0849714,5.66459e-10,-1.27863e-05,1.14229e-05,0.0746153,0.04492948011902942,5.66459101847272e-10,-1.278621825562265e-05,0.04492948011902942,1.1422965241481009e-05,-0.08146144577155201
89,0.045929,737.27,791.405,-1.01587,0.00793062,-0.0284874,-0.174733,0.0449059,0.0449059,-0.0868791,5.47437e-10,-1.3474e-05,1.07086e-05,0.0763295,0.045929433318143253,5.474369846325544e-10,-1.3473909226124903e-05,0.045929433318143253,1.0708657337321625e-05,-0.08321207140626818
90,0.046679,740.38,794.506,0.699077,0.00768853,0.0780841,0.0352573,0.0456228,0.0456228,-0.0882976,6.15548e-10,-1.20395e-05,1.3694e-05,0.0776077,0.04667952896854932,6.155480569702831e-10,-1.2039427525478708e-05,0.04667952896854932,1.3694093763172432e-05,-0.08451161316508071
91,0.047429,740.274,794.427,-0.740737,0.00748339,-0.0177855,-0.141481,0.046339,0.046339,-0.0897334,5.56027e-10,-1.34701e-05,1.12338e-05,0.0788962,0.04742942935447014,5.560270022186842e-10,-1.3470009278648831e-05,0.04742942935447014,1.1233863099313623e-05,-0.08582512819280663
92,0.047679,742.189,795.581,0.355535,0.00701458,0.0643382,-0.00755888,0.0465777,0.0465777,-0.0902026,5.84077e-10,-1.23662e-05,1.29207e-05,0.0793202,0.04767948060168603,5.840770089804437e-10,-1.2366123538831708e-05,0.04767948060168603,1.2920783472702979e-05,-0.08625395843121741
93,0.048054,743.129,795.795,0.2832,0.00648264,0.0550959,-0.0161393,0.0469356,0.0469356,-0.0909163,5.76736e-10,-1.24088e-05,1.28141e-05,0.079962,0.0480545121956939,5.767359922970172e-10,-1.240872301111473e-05,0.0480545121956939,1.281418210097307e-05,-0.08690586632008324
94,0.048617,743.979,796.311,0.0219364,0.0060817,0.0334893,-0.0473725,0.0474721,0.0474721,-0.0919874,5.62923e-10,-1.2666e-05,1.23961e-05,0.0809247,0.04861694430040853,5.629230415138409e-10,-1.266591978654752e-05,0.04861694430040853,1.2396176831908079e-05,-0.08788335785762214
95,0.049461,745.631,798.693,0.686229,0.00635838,0.0761989,0.0345542,0.0482764,0.0482764,-0.093587,5.8874e-10,-1.20642e-05,1.3846e-05,0.0823646,0.04946068617401922,5.887399456838693e-10,-1.20641272278732e-05,0.04946068617401922,1.3846095856306917e-05,-0.08934121333472878
96,0.050461,745.125,799.575,-0.654074,0.0071976,-0.0062355,-0.12953,0.0492289,0.0492289,-0.0954939,-4.76779e-10,-1.3467e-05,1.17174e-05,0.0840773,0.05046077369366975,-4.767789496540331e-10,-1.3466909320358766e-05,0.05046077369366975,1.1717468648919649e-05,-0.09107609392741223
97,0.051461,745.614,801.174,-1.05825,0.00785654,-0.030941,-0.179699,0.0501804,0.0501804,-0.0973938,5.22006e-10,-1.4241e-05,1.08187e-05,0.0857856,0.051460762789206305,5.220059939858857e-10,-1.4240898597472906e-05,0.051460762789206305,1.0818758522379568e-05,-0.09280131905999434
98,0.052211,748.518,803.897,0.715359,0.00755302,0.0806467,0.0368277,0.0508934,0.0508934,-0.0988058,5.89607e-10,-1.27224e-05,1.38753e-05,0.087059,0.05221072164163454,5.896070298661016e-10,-1.2722319070568311e-05,0.05221072164163454,1.3875396262408302e-05,-0.09408137966202046
99,0.052961,748.128,803.386,-0.743637,0.00729667,-0.0176414,-0.141769,0.0516059,0.0516059,-0.100235,5.30732e-10,-1.41707e-05,1.13738e-05,0.0883429,0.052960688924921895,5.307319028702295e-10,-1.4170599596075029e-05,0.052960688924921895,1.1373864681862855e-05,-0.09537519377441273
100,0.053961,748.625,804.852,-1.03163,0.00787302,-0.0290558,-0.176036,0.0525552,0.0525552,-0.102131,5.09347e-10,-1.47575e-05,1.06778e-05,0.0900479,0.05396073910563515,5.093470090145047e-10,-1.4757391108677353e-05,0.05396073910563515,1.0677857007923564e-05,-0.09708873745428503
101,0.054711,751.369,807.327,0.664685,0.00754186,0.0780592,0.0307894,0.0532665,0.0532665,-0.10354,5.76206e-10,-1.32991e-05,1.35878e-05,0.0913193,0.05471068806708956,5.762059718250612e-10,-1.3299011567324825e-05,0.05471068806708956,1.3587892314648187e-05,-0.09836004357772299
102,0.055461,751.0,806.762,-0.687132,0.00726156,-0.0134135,-0.134509,0.0539774,0.0539774,-0.104967,5.19205e-10,-1.46435e-05,1.12712e-05,0.0926005,0.05546074847261906,5.192049012947564e-10,-1.464339278445248e-05,0.05546074847261906,1.127126352029606e-05,-0.09964576621425691
103,0.056461,753.351,809.98,0.989314,0.00777983,0.0929823,0.0694435,0.0549244,0.0549244,-0.106847,-7.26431e-10,-1.32275e-05,1.45674e-05,0.0942956,0.05646074322420369,-7.264310264432083e-10,-1.3227412516969572e-05,0.05646074322420369,1.4567506105178651e-05,-0.10133684206439686
104,0.057211,754.172,810.499,0.853467,0.00744873,0.0910494,0.0530632,0.0556341,0.0556341,-0.108264,5.88577e-10,-1.31021e-05,1.47253e-05,0.0955709,0.0572107795325727,5.885769649438544e-10,-1.3102014167820641e-05,0.0572107795325727,1.4725408417737285e-05,-0.1026093459772488
105,0.057961,754.041,810.126,-0.174599,0.00715976,0.0220958,-0.0716775,0.0563432,0.0563432,-0.109685,5.54676e-10,-1.40438e-05,1.31149e-05,0.0968487,0.05796071355402299,5.546760828423203e-10,-1.4043701386357021e-05,0.05796071355402299,1.3114986000761775e-05,-0.10388363250161525
106,0.058961,753.769,810.696,-1.00202,0.00765232,-0.0273177,-0.173012,0.057288,0.057288,-0.111576,-4.92245e-10,-1.50842e-05,1.1559e-05,0.0985492,0.05896074717768296,-4.922450225208763e-10,-1.5084086234073979e-05,0.05896074717768296,1.1559066805499896e-05,-0.10557658735925313
107,0.059961,754.385,811.985,-0.974836,0.00803788,-0.0254596,-0.169372,0.0582319,0.0582319,-0.11346,5.1096e-10,-1.54659e-05,1.13447e-05,0.100246,0.05996077211446549,5.109599410246801e-10,-1.5465780403567386e-05,0.05996077211446549,1.1344764351273184e-05,-0.10726009470678566
108,0.060711,755.488,812.647,-0.764437,0.00763324,-0.0182237,-0.143974,0.0589392,0.0589392,-0.114871,5.10606e-10,-1.55692e-05,1.14005e-05,0.101516,0.06071074756613437,5.106060019244296e-10,-1.5569078800625746e-05,0.06071074756613437,1.1400564986052686e-05,-0.1085188624436737
109,0.061461,757.816,814.601,0.733234,0.00728216,0.0849515,0.0395486,0.059646,0.059646,-0.116274,5.63445e-10,-1.41273e-05,1.40325e-05,0.102782,0.06146072293258675,5.634450683800196e-10,-1.4127200210212187e-05,0.06146072293258675,1.4032598455893108e-05,-0.10976873349010474
110,0.062461,758.547,816.04,1.00791,0.00769238,0.0953832,0.0709559,0.0605877,0.0605877,-0.118152,5.88126e-10,-1.38984e-05,1.51272e-05,0.104474,0.06246077129423999,5.881259923512516e-10,-1.3898303417692048e-05,0.06246077129423999,1.512731441666304e-05,-0.11143901891968344
111,0.063461,757.622,815.704,-0.395641,0.00802528,0.0113041,-0.0983233,0.0615284,0.0615284,-0.120039,5.44471e-10,-1.52105e-05,1.29987e-05,0.106171,0.06346069838376533,5.444709127999658e-10,-1.5210384320951675e-05,0.06346069838376533,1.2998784483464476e-05,-0.11311415250538026
112,0.064461,759.517,818.049,0.99406,0.00827392,0.0949724,0.0685066,0.0624683,0.0624683,-0.121908,6.01898e-10,-1.40532e-05,1.57937e-05,0.107856,0.06446071497835604,6.018980869271218e-10,-1.4053101254241085e-05,0.06446071497835604,1.5793824721166416e-05,-0.11477019410140787
113,0.065211,760.072,818.035,0.730171,0.00781275,0.0841171,0.0366414,0.0631726,0.0631726,-0.123316,5.91225e-10,-1.40562e-05,1.56881e-05,0.109124,0.06521067872864905,5.912250689021903e-10,-1.4056101212078786e-05,0.06521067872864905,1.568822305886286e-05,-0.1160157206116823
114,0.065961,760.094,817.586,0.00365847,0.00741292,0.0351569,-0.0509077,0.0638765,0.0638765,-0.124726,5.68757e-10,-1.46958e-05,1.45986e-05,0.110393,0.06596074448007738,5.687570414636411e-10,-1.4695692017285822e-05,0.06596074448007738,1.4598706560065011e-05,-0.11726126013390192
115,0.066961,759.464,817.551,-0.970722,0.00773202,-0.0252452,-0.170016,0.0648142,0.0648142,-0.126605,5.29817e-10,-1.58457e-05,1.28006e-05,0.112083,0.06696076465636103,5.298170790979384e-10,-1.5845574457551415e-05,0.06696076465636103,1.2800681927993551e-05,-0.11891836888488405
116,0.067961,761.802,820.342,0.987211,0.00797512,0.0950548,0.0671036,0.065751,0.065751,-0.128465,-7.25335e-10,-1.42124e-05,1.64672e-05,0.113762,0.06796076182623301,-7.253350142732984e-10,-1.4212299004334739e-05,0.06796076182623301,1.6467335585135245e-05,-0.12055565756825237
117,0.068711,760.883,818.874,-0.65368,0.00753882,-0.0106487,-0.132294,0.066453,0.066453,-0.129877,5.4833e-10,-1.57163e-05,1.36996e-05,0.115031,0.06871073349028989,5.483300480335629e-10,-1.5716176499647183e-05,0.06871073349028989,1.3699693840019123e-05,-0.12179655669881018
118,0.069461,761.531,819.054,-0.667453,0.00715486,-0.0115308,-0.133789,0.0671545,0.0671545,-0.131279,5.37915e-10,-1.58894e-05,1.34354e-05,0.116294,0.06946069708881075,5.379150458395543e-10,-1.5889273764169154e-05,0.06946069708881075,1.343549025545343e-05,-0.12302693522943209
119,0.070461,761.481,819.592,-0.957049,0.00746729,-0.0241035,-0.168201,0.0680891,0.0680891,-0.133148,5.18334e-10,-1.64173e-05,1.2707e-05,0.117977,0.0704606822765994,5.183340423542404e-10,-1.6417165236815023e-05,0.0704606822765994,1.2707080734308818e-05,-0.12466446713724022
120,0.071461,761.762,820.344,-0.947547,0.00771685,-0.0233172,-0.166755,0.0690229,0.0690229,-0.135013,5.11278e-10,-1.67717e-05,1.24399e-05,0.119657,0.07146074531847368,5.112779088989328e-10,-1.677155935586594e-05,0.07146074531847368,1.2439977375766631e-05,-0.1262954465449888
121,0.072461,762.021,820.983,-0.97965,0.00791607,-0.0250684,-0.170337,0.0699558,0.0699558,-0.136877,5.01852e-10,-1.71647e-05,1.20945e-05,0.121337,0.07246077744023705,5.018518933752603e-10,-1.7164552687409795e-05,0.07246077744023705,1.209457313877671e-05,-0.12792251493378715
122,0.073461,762.293,821.561,-1.01316,0.00807294,-0.0269034,-0.174083,0.0708878,0.0708878,-0.13874,4.91511e-10,-1.75653e-05,1.17316e-05,0.123015,0.07346077681213337,4.915110540792966e-10,-1.7565145731035514e-05,0.07346077681213337,1.1731668815517793e-05,-0.12954568283809254
123,0.074461,762.592,822.108,-1.02519,0.00819446,-0.0274111,-0.175236,0.0718189,0.0718189,-0.140601,-5.1683e-10,-1.795e-05,1.13962e-05,0.124691,0.07446074160278848,-5.168300232227807e-10,-1.794983889968904e-05,0.07446074160278848,1.139626493684709e-05,-0.13116409192558576
124,0.075461,762.918,822.632,-1.01333,0.00828675,-0.0264427,-0.173516,0.0727492,0.0727492,-0.14246,4.72348e-10,-1.83107e-05,1.11032e-05,0.126366,0.07546077752528668,4.723479385404517e-10,-1.8310532360121812e-05,0.07546077752528668,1.1103261640776907e-05,-0.1327777575118141
125,0.076461,763.257,823.131,-0.987688,0.00835499,-0.0246224,-0.17015,0.0736786,0.0736786,-0.144317,4.63886e-10,-1.86518e-05,1.08434e-05,0.12804,0.0764607753989488,4.6388604069136363e-10,-1.8651626056298554e-05,0.0764607753989488,1.0843458789766558e-05,-0.13438669485542953
126,0.077461,763.593,823.596,-0.96043,0.00840349,-0.0227027,-0.166604,0.0746071,0.0746071,-0.146173,4.55643e-10,-1.89826e-05,1.05988e-05,0.129712,0.07746073338756321,4.556430788227317e-10,-1.8982419831559127e-05,0.07746073338756321,1.0598856167387538e-05,-0.13599178316706595
127,0.078461,763.917,824.024,-0.938994,0.00843579,-0.0211451,-0.163773,0.0755348,0.0755348,-0.148027,4.47214e-10,-1.93103e-05,1.03551e-05,0.131382,0.07846075749939052,4.472140435751726e-10,-1.9310113557380326e-05,0.07846075749939052,1.0355153614138857e-05,-0.13759217038370464
128,0.079461,764.227,824.417,-0.924668,0.00845484,-0.0200299,-0.16181,0.0764616,0.0764616,-0.149879,4.38435e-10,-1.96376e-05,1.01067e-05,0.133052,0.07946073824894184,4.384350660302516e-10,-1.9637407183581423e-05,0.07946073824894184,1.0106751072935793e-05,-0.13918787160872792
129,0.080461,764.523,824.781,-0.914807,0.00846305,-0.0191935,-0.160391,0.0773875,0.0773875,-0.15173,4.29373e-10,-1.99637e-05,9.85555e-06,0.13472,0.08046067379521138,4.2937298161405124e-10,-1.996350072663855e-05,0.08046067379521138,9.855598566144153e-06,-0.14077976111013546
130,0.081461,766.736,827.029,1.01254,0.00845844,0.100903,0.0724373,0.0783127,0.0783127,-0.153568,5.31254e-10,-1.82852e-05,1.3474e-05,0.136379,0.08146077858774325,5.312539297364083e-10,-1.8285032826748093e-05,0.08146077858774325,1.347409077467887e-05,-0.14235755747017842
131,0.082461,764.994,825.35,-0.987804,0.00846493,-0.0235206,-0.169398,0.0792369,0.0792369,-0.155427,4.34507e-10,-2.02272e-05,1.00817e-05,0.138051,0.08246072664413573,4.345070969691278e-10,-2.0226995431582573e-05,0.08246072664413573,1.008175082040097e-05,-0.14395043373362193
132,0.083461,765.235,825.624,-1.00518,0.00844936,-0.0244759,-0.171251,0.0801603,0.0801603,-0.157273,4.22441e-10,-2.0593e-05,9.74131e-06,0.139715,0.08346073251077146,4.224409710928967e-10,-2.0592787965623138e-05,0.08346073251077146,9.741357446690913e-06,-0.1455292435431509
133,0.084211,766.113,825.67,-0.748582,0.00788159,-0.0138756,-0.140472,0.0808523,0.0808523,-0.158655,4.24471e-10,-2.06171e-05,9.86206e-06,0.140961,0.08421074681268781,4.244709028711213e-10,-2.061688746901602e-05,0.08421074681268781,9.86210863018755e-06,-0.14670930651724
134,0.084961,768.075,826.926,0.664113,0.00739228,0.0854387,0.0319408,0.0815438,0.0815438,-0.160029,4.89519e-10,-1.91966e-05,1.23203e-05,0.142202,0.08496073782361546,4.895190919285142e-10,-1.919641574643638e-05,0.08496073782361546,1.2320375895269464e-05,-0.1478809228453457
135,0.085961,768.423,827.592,0.932579,0.00753698,0.096411,0.0628157,0.0824651,0.0824651,-0.161869,5.15374e-10,-1.8918e-05,1.33125e-05,0.14386,0.08596077274672442,5.153739657259848e-10,-1.89178210557861e-05,0.08596077274672442,1.331258861170248e-05,-0.14944738036444283
136,0.086961,767.255,826.692,-0.329005,0.00765868,0.0191631,-0.0886551,0.0833855,0.0833855,-0.163716,4.6216e-10,-2.00772e-05,1.13761e-05,0.145523,0.08696075116143387,4.6216008797728136e-10,-2.0076998454410244e-05,0.08696075116143387,1.1376164708032377e-05,-0.15101690115427058
137,0.087961,766.734,826.38,-0.961853,0.00774874,-0.0215442,-0.166344,0.0843051,0.0843051,-0.165558,4.21943e-10,-2.09308e-05,1.00739e-05,0.147182,0.08796078001099294,4.2194292504404984e-10,-2.093058095231637e-05,0.08796078001099294,1.0073950741817939e-05,-0.15257928862172654
138,0.088961,766.87,826.678,-0.950011,0.00781504,-0.0206337,-0.164669,0.0852238,0.0852238,-0.167395,4.11816e-10,-2.12469e-05,9.79272e-06,0.148838,0.08896074884494087,4.11815914702629e-10,-2.1246674286268252e-05,0.08896074884494087,9.7927679487686e-06,-0.1541345715038337
139,0.089961,768.942,828.861,0.982208,0.00786161,0.100358,0.0687947,0.0861417,0.0861417,-0.169219,5.12579e-10,-1.95419e-05,1.33961e-05,0.150485,0.08996076480341708,5.125790902837934e-10,-1.9541709058268353e-05,0.08996076480341708,1.3396189728176466e-05,-0.15567602381353973
140,0.090961,767.162,827.204,-0.922618,0.00791308,-0.018744,-0.161534,0.0870587,0.0870587,-0.171064,4.20786e-10,-2.1389e-05,1.01561e-05,0.152144,0.09096071723285992,4.2078607265239043e-10,-2.1388771257013772e-05,0.09096071723285992,1.015615157329286e-05,-0.15723236538302043
141,0.091961,769.21,829.315,0.980654,0.00793405,0.100502,0.0683715,0.0879749,0.0879749,-0.172885,5.17876e-10,-1.97033e-05,1.37127e-05,0.153789,0.09196071347031332,5.178759643342801e-10,-1.9703105891277772e-05,0.09196071347031332,1.371279401940484e-05,-0.15876564876743393
142,0.092711,768.158,827.487,-0.595921,0.00742908,-0.00272625,-0.122697,0.0886615,0.0886615,-0.174266,4.44043e-10,-2.11469e-05,1.1042e-05,0.155032,0.09271071114091889,4.440430245722382e-10,-2.1146676405847664e-05,0.09271071114091889,1.1042060963140088e-05,-0.1599265915909578
143,0.093461,768.64,827.307,-0.574291,0.00698724,-0.00116671,-0.119949,0.0893476,0.0893476,-0.175638,4.35261e-10,-2.12395e-05,1.08607e-05,0.156268,0.09346067720627182,4.352609384028483e-10,-2.1239274443418665e-05,0.09346067720627182,1.0860758977715435e-05,-0.16107838199839952
144,0.094461,768.215,827.224,-0.981308,0.00714738,-0.0221363,-0.168528,0.0902618,0.0902618,-0.177468,4.03995e-10,-2.18328e-05,9.90816e-06,0.157917,0.09446077603289371,4.0399505962795956e-10,-2.1832561666101924e-05,0.09446077603289371,9.908209086084696e-06,-0.162612204683534
145,0.095461,770.147,829.409,0.932026,0.0072717,0.0978973,0.062765,0.091175,0.091175,-0.179283,5.00911e-10,-2.0138e-05,1.34547e-05,0.159557,0.09546069410667068,5.009110903841929e-10,-2.013779723186726e-05,0.09546069410667068,1.3454790514844106e-05,-0.16413068509420936
146,0.096461,770.218,829.699,0.973328,0.00738536,0.100355,0.0673251,0.0920875,0.0920875,-0.181107,5.1515e-10,-1.99439e-05,1.41132e-05,0.161201,0.09646075819989308,5.151499227196155e-10,-1.9943701121794e-05,0.09646075819989308,1.4113299591667072e-05,-0.16565392111103605
147,0.097461,769.11,828.777,-0.174886,0.00748,0.0297599,-0.0702607,0.0929991,0.0929991,-0.182937,4.71366e-10,-2.09698e-05,1.24052e-05,0.162848,0.09746074755296474,4.713660572974732e-10,-2.0969580135310473e-05,0.09746074755296474,1.2405276944793542e-05,-0.16717937821643447
148,0.098461,770.241,830.035,0.894073,0.00754553,0.0955234,0.0572507,0.0939099,0.0939099,-0.184752,5.23458e-10,-1.99804e-05,1.46011e-05,0.164486,0.09846077014299226,5.234579436574904e-10,-1.998020039317705e-05,0.09846077014299226,1.4601206596687177e-05,-0.1686895767252471
149,0.099461,770.301,830.206,0.88941,0.00760362,0.0951502,0.0563047,0.0948198,0.0948198,-0.186572,5.33951e-10,-1.98429e-05,1.51439e-05,0.166126,0.09946071445342008,5.339511055524326e-10,-1.9842703130934503e-05,0.09946071445342008,1.5144014669399297e-05,-0.17020118571417286
150,0.1005,769.415,829.415,-0.0635948,0.00765047,0.036682,-0.0576272,0.0957289,0.0957289,-0.188395,5.01818e-10,-2.06854e-05,1.37854e-05,0.167768,0.10046068865833435,5.018179205507067e-10,-2.068518605857772e-05,0.10046068865833435,1.3785495019069671e-05,-0.17171253094288186
151,0.1015,770.527,830.584,0.968637,0.00767741,0.100254,0.0654072,0.0966372,0.0966372,-0.190205,5.47999e-10,-1.97032e-05,1.59557e-05,0.169402,0.10146069118423884,5.479989795276197e-10,-1.97030058932679e-05,0.10146069118423884,1.5955827292968294e-05,-0.17321037530380456
152,0.1025,770.554,830.664,0.917823,0.00770282,0.0969539,0.0588583,0.0975447,0.0975447,-0.19202,5.56041e-10,-1.95952e-05,1.64336e-05,0.171038,0.10246072045613897,5.560409910287945e-10,-1.9595008015294013e-05,0.10246072045613897,1.6433735032350683e-05,-0.17470963748062718
153,0.1035,769.659,829.817,-0.051622,0.00772197,0.0373592,-0.0570357,0.0984514,0.0984514,-0.193839,5.26372e-10,-2.04491e-05,1.50474e-05,0.172676,0.10346077489754513,5.263720570525265e-10,-2.0448890918567386e-05,0.10346077489754513,1.5047513212795849e-05,-0.17620947613324478
154,0.1045,770.751,830.928,0.956488,0.00772594,0.0994952,0.0630512,0.0993572,0.0993572,-0.195644,5.67059e-10,-1.94858e-05,1.71697e-05,0.174305,0.10446074248439685,5.670590663697794e-10,-1.948561015308048e-05,0.10446074248439685,1.7169847400078098e-05,-0.17769507687081487
155,0.1055,770.761,830.96,0.888208,0.00773204,0.0950882,0.0544009,0.100262,0.100262,-0.197455,5.73361e-10,-1.93981e-05,1.75996e-05,0.175937,0.10546051079117258,5.733609143021567e-10,-1.939791185812112e-05,0.10546051079117258,1.7599754873920403e-05,-0.17918292343489461
156,0.1065,769.933,830.155,-0.0137294,0.00773486,0.0396588,-0.0533147,0.101166,0.101166,-0.199268,5.48609e-10,-2.01884e-05,1.63283e-05,0.17757,0.10646029892907927,5.486089360573487e-10,-2.0188196215631393e-05,0.10646029892907927,1.632843330745537e-05,-0.18066971660944087
157,0.1075,770.916,831.137,0.887856,0.00772613,0.0951517,0.0538776,0.10207,0.10207,-0.201069,5.8164e-10,-1.93252e-05,1.82474e-05,0.179195,0.10746099128410713,5.816400694413915e-10,-1.9325013269511082e-05,0.10746099128410713,1.8247566484719258e-05,-0.18214400245692208
158,0.1085,769.238,829.479,-0.856677,0.00772457,-0.0137404,-0.155721,0.102972,0.102972,-0.202884,5.24152e-10,-2.10183e-05,1.52548e-05,0.180829,0.1084603717510777,5.241520550924861e-10,-2.101807911703002e-05,0.1084603717510777,1.5254916355011972e-05,-0.18362706480625235
159,0.1095,769.29,829.529,-0.879087,0.00770871,-0.0161709,-0.159464,0.103874,0.103874,-0.204688,5.15469e-10,-2.13425e-05,1.49049e-05,0.182454,0.10946065406590155,5.154690008168927e-10,-2.1342272250479688e-05,0.10946065406590155,1.4905011078480968e-05,-0.18509847397122692
160,0.1105,771.113,831.333,0.864592,0.00768867,0.0941536,0.0511031,0.104775,0.104775,-0.20648,5.76351e-10,-1.97707e-05,1.81473e-05,0.184072,0.11046072858112899,5.763509669520772e-10,-1.977050456103413e-05,0.11046072858112899,1.8147464663220703e-05,-0.18655746985512345
161,0.1115,769.391,829.623,-0.917015,0.00768312,-0.0183691,-0.164166,0.105675,0.105675,-0.20829,-7.517e-10,-2.15291e-05,1.50414e-05,0.185701,0.11146059310839851,-7.517000355505843e-10,-2.1528868250575428e-05,0.11146059310839851,1.5041513122371342e-05,-0.18802846917870275
162,0.1125,769.496,829.719,-0.879515,0.00766377,-0.0158968,-0.159447,0.106574,0.106574,-0.210088,5.09075e-10,-2.17864e-05,1.47987e-05,0.187323,0.11246024545800748,5.090750043734715e-10,-2.1786162678116838e-05,0.11246024545800748,1.4798809501392896e-05,-0.18948708230496814
163,0.1135,769.499,829.712,-0.94177,0.00764484,-0.019624,-0.166724,0.107473,0.107473,-0.211885,4.98118e-10,-2.2138e-05,1.43715e-05,0.188943,0.11346079689915967,4.981179912988409e-10,-2.213775495629733e-05,0.11346079689915967,1.4371603270557642e-05,-0.19094226614379584
164,0.1145,771.408,831.595,0.897561,0.0076219,0.0969399,0.0553984,0.108371,0.108371,-0.21367,5.6511e-10,-2.04687e-05,1.77821e-05,0.190555,0.11446113377881106,5.651099588277475e-10,-2.046849051762223e-05,0.11446113377881106,1.7782258102450044e-05,-0.19238514604530543
165,0.1155,769.593,829.787,-0.96843,0.00761498,-0.0211055,-0.170056,0.109268,0.109268,-0.215475,4.98488e-10,-2.23099e-05,1.4512e-05,0.192178,0.1154612539026274,4.98487917610646e-10,-2.2309651136032116e-05,0.1154612539026274,1.4512105299679945e-05,-0.19384157603320584
166,0.1165,769.739,829.919,-0.880832,0.007594,-0.0154711,-0.159299,0.110164,0.110164,-0.217266,4.93351e-10,-2.25213e-05,1.43453e-05,0.193794,0.1164611550749548,4.933509156757054e-10,-2.2521046397439015e-05,0.1164611550749548,1.4345402894244685e-05,-0.19528411359254594
167,0.1175,769.778,829.943,-0.898522,0.00757411,-0.0163889,-0.161216,0.111059,0.111059,-0.219057,-7.21127e-10,-2.28208e-05,1.40061e-05,0.195408,0.11746083509882665,-7.211270469653641e-10,-2.282053960755981e-05,0.11746083509882665,1.4006198085780852e-05,-0.19672406987933688
168,0.1185,769.766,829.918,-0.963611,0.00755458,-0.0203034,-0.168826,0.111953,0.111953,-0.220846,4.72203e-10,-2.3174e-05,1.35625e-05,0.197021,0.11846029177597295,4.722029434134356e-10,-2.317373148497115e-05,0.11846029177597295,1.3562591971050253e-05,-0.19815984583379553
169,0.1195,771.676,831.799,0.887267,0.00753114,0.0972178,0.0546975,0.112847,0.112847,-0.222623,5.44094e-10,-2.14838e-05,1.69921e-05,0.198626,0.11946064236690845,5.440941031054081e-10,-2.148356922482275e-05,0.11946064236690845,1.699224436646496e-05,-0.19958345054035398
170,0.1205,769.878,830.003,-0.95193,0.00752421,-0.0193627,-0.167536,0.11374,0.11374,-0.224419,4.74109e-10,-2.32996e-05,1.3762e-05,0.200242,0.12046076720982213,4.741089743021121e-10,-2.3299328566372957e-05,0.12046076720982213,1.3762094696723182e-05,-0.2010197085174521
171,0.1215,770.045,830.154,-0.832953,0.00750348,-0.0117329,-0.153007,0.114632,0.114632,-0.226202,4.70449e-10,-2.34665e-05,1.36659e-05,0.20185,0.12146066410188872,4.704490130791328e-10,-2.3466224663870605e-05,0.12146066410188872,1.3665993378930708e-05,-0.20244302111691326
172,0.1225,770.088,830.182,-0.835992,0.00748413,-0.0117322,-0.153176,0.115523,0.115523,-0.227985,4.62102e-10,-2.37322e-05,1.33773e-05,0.203457,0.12246033083900021,4.62101912290791e-10,-2.3731918393554707e-05,0.12246033083900021,1.3377389476376678e-05,-0.20386379821108436
173,0.1235,770.067,830.145,-0.901398,0.00746533,-0.0156837,-0.160846,0.116414,0.116414,-0.229766,4.50464e-10,-2.40643e-05,1.29605e-05,0.205063,0.12346088867610039,4.5046411045746027e-10,-2.4064010457069962e-05,0.12346088867610039,1.2960583987586816e-05,-0.2052804548792424
174,0.1245,771.855,831.902,0.836397,0.00744274,0.0948624,0.0490347,0.117304,0.117304,-0.231536,5.21502e-10,-2.2467e-05,1.61945e-05,0.206661,0.12446121394573728,5.215019527327058e-10,-2.2466747618854477e-05,0.12446121394573728,1.6194631131671855e-05,-0.20668586431983393
175,0.1255,770.194,830.243,-0.856792,0.00743583,-0.0126716,-0.155599,0.118192,0.118192,-0.233323,4.54222e-10,-2.41391e-05,1.32288e-05,0.20827,0.12546017897855166,4.542219933512115e-10,-2.4138808654261545e-05,0.12546017897855166,1.322888750099338e-05,-0.208102250762088
176,0.1265,771.964,831.982,0.86665,0.00741277,0.0969692,0.0525626,0.119081,0.119081,-0.23509,5.23693e-10,-2.25426e-05,1.64556e-05,0.209865,0.1264611579468906,5.23693088894106e-10,-2.2542345917475615e-05,0.1264611579468906,1.6455735394105275e-05,-0.20950029854601515
177,0.1275,770.269,830.287,-0.858868,0.00740548,-0.0127047,-0.155997,0.119968,0.119968,-0.236874,4.56294e-10,-2.42433e-05,1.34326e-05,0.211471,0.12746077225739727,4.5629389155976696e-10,-2.4243006133572997e-05,0.12746077225739727,1.343269021769622e-05,-0.21090929281682413
178,0.1285,772.034,832.02,0.861902,0.007382,0.096842,0.0518462,0.120855,0.120855,-0.238637,5.24548e-10,-2.26458e-05,1.6654e-05,0.213064,0.1284612736191466,5.245479606230674e-10,-2.2645543585775307e-05,0.1284612736191466,1.665413867857346e-05,-0.21229923414029706
179,0.1295,770.349,830.336,-0.849535,0.00737435,-0.0120164,-0.15502,0.12174,0.12174,-0.240419,4.58646e-10,-2.43336e-05,1.36522e-05,0.214667,0.12946040389623525,4.586460100597378e-10,-2.4333303940360373e-05,0.12946040389623525,1.3652293191723786e-05,-0.21370166696628956
180,0.1305,772.083,832.038,0.842679,0.00735081,0.0957878,0.049377,0.122625,0.122625,-0.242179,5.24718e-10,-2.27603e-05,1.68205e-05,0.216257,0.13046041879500647,5.2471804679044e-10,-2.2760040986335994e-05,0.13046041879500647,1.6820641465464803e-05,-0.21508433492771017
181,0.1315,770.444,830.398,-0.821406,0.00734285,-0.0101356,-0.151779,0.123509,0.123509,-0.243957,4.61582e-10,-2.44027e-05,1.39014e-05,0.217857,0.13146018763794354,4.615821058706615e-10,-2.4402402256540334e-05,0.13146018763794354,1.3901496624946219e-05,-0.21647867504451945
182,0.1325,772.116,832.038,0.811139,0.00731955,0.0939414,0.0454147,0.124393,0.124393,-0.245715,5.24348e-10,-2.28827e-05,1.69617e-05,0.219444,0.13246084066729047,5.2434789843403e-10,-2.2882438193039256e-05,0.13246084066729047,1.696184385036048e-05,-0.21785489548158554
183,0.1335,772.237,832.144,0.902519,0.00730742,0.0996447,0.0561279,0.125276,0.125276,-0.247479,5.34951e-10,-2.26291e-05,1.76238e-05,0.221036,0.13346124520320202,5.349509724084101e-10,-2.2628843963867773e-05,0.13346124520320202,1.7623955300027916e-05,-0.2192333832622806
184,0.1345,771.165,831.066,-0.193476,0.00729772,0.0311291,-0.0751102,0.126157,0.126157,-0.249249,5.00601e-10,-2.36187e-05,1.59136e-05,0.22263,0.1344602645636377,5.006008940711126e-10,-2.3618421080673357e-05,0.1344602645636377,1.5913726622018842e-05,-0.2206141178633092
185,0.1355,770.58,830.469,-0.804933,0.0072816,-0.00906508,-0.150329,0.127038,0.127038,-0.251015,4.72412e-10,-2.43942e-05,1.46426e-05,0.22422,0.13546016444794362,4.72412109431275e-10,-2.4393902463892836e-05,0.13546016444794362,1.4642707203416094e-05,-0.221989298689089
186,0.1365,770.567,830.438,-0.846403,0.00726195,-0.0115464,-0.155129,0.127919,0.127919,-0.252776,4.62805e-10,-2.46833e-05,1.42758e-05,0.225808,0.13646094563220323,4.6280490550998366e-10,-2.46829953698402e-05,0.13646094563220323,1.4275901899729604e-05,-0.22335816988925283
187,0.1375,770.564,830.417,-0.876501,0.00724295,-0.0132728,-0.158544,0.128798,0.128798,-0.254535,4.53129e-10,-2.49687e-05,1.39134e-05,0.227394,0.13746033397024116,4.531290898057705e-10,-2.4968388284585252e-05,0.13746033397024116,1.3913496791806423e-05,-0.22472308207622016
188,0.1385,770.584,830.42,-0.882696,0.00722453,-0.0134744,-0.159074,0.129677,0.129677,-0.256293,4.44124e-10,-2.52342e-05,1.35862e-05,0.228979,0.13846060115682568,4.4412407085303585e-10,-2.5233881620234655e-05,0.13846060115682568,1.358629229275543e-05,-0.22608482157819598
189,0.1395,770.622,830.44,-0.869852,0.0072067,-0.0124624,-0.157311,0.130555,0.130555,-0.258049,4.35865e-10,-2.54791e-05,1.32955e-05,0.230562,0.13946060850362585,4.358648997282444e-10,-2.547877541048127e-05,0.13946060850362585,1.3295588385586754e-05,-0.2274426241319597
190,0.1405,770.667,830.467,-0.849742,0.00718948,-0.0109884,-0.154677,0.131432,0.131432,-0.259803,4.28027e-10,-2.57115e-05,1.3026e-05,0.232144,0.14046035378151012,4.280269472189957e-10,-2.5711169462261374e-05,0.14046035378151012,1.302608483877421e-05,-0.2287965020711774
191,0.1415,770.709,830.491,-0.832117,0.00717282,-0.00967477,-0.152348,0.132309,0.132309,-0.261556,4.20227e-10,-2.59402e-05,1.27611e-05,0.233724,0.14146097622058207,4.202269643371892e-10,-2.5939863555923814e-05,0.14146097622058207,1.2761181423126544e-05,-0.23014723753750854
192,0.1425,770.743,830.508,-0.820931,0.00715665,-0.00877367,-0.1508,0.133184,0.133184,-0.263308,4.12245e-10,-2.61702e-05,1.24914e-05,0.235303,0.142460191667781,4.122449048793442e-10,-2.6169857563318466e-05,0.142460191667781,1.249147801796191e-05,-0.23149483873398913
193,0.1435,770.771,830.519,-0.81517,0.00714087,-0.00821988,-0.149907,0.134059,0.134059,-0.265057,4.04054e-10,-2.6402e-05,1.22161e-05,0.236881,0.14346028181112036,4.040539014482647e-10,-2.6401651470275844e-05,0.14346028181112036,1.2216174616774822e-05,-0.23283777951699058
194,0.1445,770.796,830.527,-0.8117,0.00712539,-0.00781305,-0.149291,0.134934,0.134934,-0.266806,3.95751e-10,-2.66336e-05,1.1939e-05,0.238457,0.14446124741629363,3.95750987536303e-10,-2.663324532881095e-05,0.14446124741629363,1.1939071270061774e-05,-0.23417837354939408
195,0.1455,770.821,830.535,-0.807811,0.00711016,-0.00738003,-0.148626,0.135807,0.135807,-0.268553,3.87452e-10,-2.68625e-05,1.16646e-05,0.240032,0.14546079832577785,3.8745207042722996e-10,-2.6862139206329516e-05,0.14546079832577785,1.1664668031707848e-05,-0.23551509596380027
196,0.1465,770.847,830.544,-0.802344,0.00709516,-0.00684674,-0.147772,0.13668,0.13668,-0.270298,3.79228e-10,-2.70875e-05,1.13955e-05,0.241605,0.1464612222242101,3.7922798235001665e-10,-2.7087133137038144e-05,0.1464612222242101,1.139556492901761e-05,-0.23684795886024956
197,0.1475,770.874,830.553,-0.795516,0.00708035,-0.00622712,-0.146756,0.137551,0.137551,-0.272042,3.71094e-10,-2.73083e-05,1.1132e-05,0.243177,0.14746022495129796,3.710940443824029e-10,-2.7307927131792198e-05,0.14746022495129796,1.113206196090566e-05,-0.23817773611718218
198,0.1485,770.9,830.563,-0.788149,0.00706574,-0.00557379,-0.145676,0.138423,0.138423,-0.273784,3.63029e-10,-2.75255e-05,1.08731e-05,0.244748,0.1484612466494859,3.630289402423159e-10,-2.7525121176874556e-05,0.1484612466494859,1.0873159112412267e-05,-0.23950367527255778
199,0.1495,770.926,830.572,-0.780969,0.00705129,-0.00493327,-0.144621,0.139293,0.139293,-0.275525,3.55004e-10,-2.77397e-05,1.06174e-05,0.246318,0.14946084269530147,3.5500402617572036e-10,-2.773931525812401e-05,0.14946084269530147,1.061745636476985e-05,-0.2408265474795077
200,0.1505,770.951,830.58,-0.774293,0.007037,-0.00432577,-0.143629,0.140162,0.140162,-0.277264,3.47003e-10,-2.79515e-05,1.03643e-05,0.247886,0.15046015830734993,3.470030929264567e-10,-2.7951109360491166e-05,0.15046015830734993,1.036435370949107e-05,-0.2421456028623702
201,0.1515,770.976,830.587,-0.768067,0.00702285,-0.00374786,-0.142693,0.141031,0.141031,-0.279002,3.39028e-10,-2.81608e-05,1.01136e-05,0.249452,0.15146034270209685,3.3902791685136435e-10,-2.8160403488408647e-05,0.15146034270209685,1.0113651142562574e-05,-0.24346160986324594
202,0.1525,772.674,832.254,0.905768,0.00700461,0.103762,0.0595933,0.141899,0.141899,-0.280728,4.17955e-10,-2.65286e-05,1.33169e-05,0.251012,0.15246024417402193,4.179550039395963e-10,-2.6528248119772613e-05,0.15246024417402193,1.3316988670242225e-05,-0.24476626888000064
203,0.1535,770.993,830.573,-0.783581,0.00700226,-0.00459169,-0.144735,0.142767,0.142767,-0.282473,3.42481e-10,-2.81885e-05,1.0333e-05,0.252582,0.15346101393720857,3.424809325025535e-10,-2.8188102707993323e-05,0.15346101393720857,1.0333053385602753e-05,-0.24608300255654836
204,0.1545,770.984,830.547,-0.809269,0.0069871,-0.00612937,-0.147643,0.143633,0.143633,-0.284206,3.32637e-10,-2.84338e-05,1.00103e-05,0.254145,0.15446034382266416,3.326370290324121e-10,-2.843339576330539e-05,0.15446034382266416,1.0010350103284438e-05,-0.2473884092515073
205,0.1555,771.021,830.566,-0.789171,0.00697205,-0.00465908,-0.145025,0.144499,0.144499,-0.285938,3.24973e-10,-2.86327e-05,9.77065e-06,0.255706,0.1554605395026356,3.249729374488197e-10,-2.8632290088204115e-05,0.1554605395026356,9.77069773289152e-06,-0.24869080432696866
206,0.1565,772.731,832.245,0.89836,0.00695308,0.103867,0.0589218,0.145364,0.145364,-0.287658,4.0495e-10,-2.69808e-05,1.29983e-05,0.25726,0.15646044526620173,4.049500734737421e-10,-2.698043602145095e-05,0.15646044526620173,1.2998384478324354e-05,-0.24998194544385643
207,0.1575,771.064,830.577,-0.775937,0.00695032,-0.0036595,-0.143597,0.146229,0.146229,-0.289396,3.29679e-10,-2.8628e-05,1.00333e-05,0.258824,0.1574612163224387,3.2967895080560083e-10,-2.8627590222707333e-05,0.1574612163224387,1.0033350333671365e-05,-0.2512843447098725
208,0.1585,771.073,830.569,-0.782204,0.00693491,-0.00395503,-0.144169,0.147092,0.147092,-0.291124,3.20998e-10,-2.88462e-05,9.75286e-06,0.260382,0.1584605364967584,3.209978949314518e-10,-2.8845783952347048e-05,0.1584605364967584,9.752907559335e-06,-0.2525770081793203
209,0.1595,771.117,830.595,-0.753928,0.00691978,-0.00196167,-0.140573,0.147955,0.147955,-0.292849,3.14136e-10,-2.90255e-05,9.54146e-06,0.261938,0.15946071945662688,3.1413605050545357e-10,-2.9025078764233214e-05,0.15946071945662688,9.541505519905513e-06,-0.25386520145407976
210,0.1605,772.754,832.201,0.861388,0.00690096,0.102051,0.0546515,0.148817,0.148817,-0.294564,3.91107e-10,-2.7435e-05,1.26415e-05,0.263487,0.1604606054857638,3.9110692462429597e-10,-2.7434623663835644e-05,0.1604606054857638,1.2641579903993616e-05,-0.25514372598543134
211,0.1615,772.765,832.198,0.859618,0.00689334,0.101783,0.0540655,0.149678,0.149678,-0.296287,4.00946e-10,-2.7237e-05,1.31298e-05,0.26504,0.161460192327471,4.0094594311312903e-10,-2.723662907633262e-05,0.161460192327471,1.3129886196283636e-05,-0.2564260083420792
212,0.1625,771.809,831.234,-0.106059,0.00688738,0.0409707,-0.0614898,0.150539,0.150539,-0.298014,3.64221e-10,-2.80866e-05,1.16335e-05,0.266595,0.16246064018406292,3.642210977261584e-10,-2.8086205575150736e-05,0.16246064018406292,1.1633567669422362e-05,-0.25770905239823694
213,0.1635,771.044,830.459,-0.880824,0.00687615,-0.0100321,-0.156413,0.151399,0.151399,-0.299738,3.22801e-10,-2.90052e-05,1.00415e-05,0.268148,0.16346078633582417,3.2280089712344306e-10,-2.9004779353303256e-05,0.16346078633582417,1.004155041606225e-05,-0.2589876595158799
214,0.1645,771.132,830.528,-0.807699,0.00685942,-0.00518231,-0.14739,0.152258,0.152258,-0.301456,-6.89438e-10,-2.91565e-05,9.87332e-06,0.269697,0.16446062852202514,-6.894379511734883e-10,-2.9156074953351485e-05,0.16446062852202514,9.873368741475375e-06,-0.2602596257849532
215,0.1655,772.813,832.178,0.852733,0.00683949,0.1019,0.0532881,0.153116,0.153116,-0.303164,3.93435e-10,-2.75184e-05,1.3047e-05,0.27124,0.16546016448090484,3.934350623069349e-10,-2.7518021372352486e-05,0.16546016448090484,1.3047085112516399e-05,-0.26152202394918456
216,0.1665,772.839,832.189,0.866815,0.0068312,0.102652,0.0546236,0.153974,0.153974,-0.304879,4.03402e-10,-2.73012e-05,1.356e-05,0.272786,0.16646055840965368,4.034019784882048e-10,-2.7300827325604793e-05,0.16646055840965368,1.3560091937314667e-05,-0.2627874282837416
217,0.1675,771.851,831.193,-0.129992,0.00682493,0.0397226,-0.0647162,0.154831,0.154831,-0.306599,3.6624e-10,-2.81848e-05,1.19919e-05,0.274335,0.16746064358349844,3.662399272741368e-10,-2.8184402812270193e-05,0.16746064358349844,1.1991971903047016e-05,-0.26405434404719996
218,0.1685,771.1,830.431,-0.890453,0.00681329,-0.0104178,-0.157889,0.155687,0.155687,-0.308315,3.26363e-10,-2.90934e-05,1.04101e-05,0.275881,0.16846041773669596,3.263629366756504e-10,-2.909297679110079e-05,0.16846041773669596,1.0410154185347409e-05,-0.265316143858946
219,0.1695,771.218,830.531,-0.785207,0.00679628,-0.00349398,-0.144994,0.156543,0.156543,-0.310026,3.22417e-10,-2.92078e-05,1.03007e-05,0.277424,0.16946104806295836,3.224169820015277e-10,-2.9207373456352492e-05,0.16946104806295836,1.0300753052305822e-05,-0.2665721131486697
220,0.1705,772.831,832.112,0.807889,0.00677652,0.099403,0.0475487,0.157397,0.157397,-0.311726,3.93103e-10,-2.76284e-05,1.33496e-05,0.27896,0.17046019437275417,3.93103105622572e-10,-2.7628018339220795e-05,0.17046019437275417,1.3349689106378904e-05,-0.2678178813533204
221,0.1715,772.837,832.103,0.802341,0.00676802,0.0989015,0.0465217,0.158251,0.158251,-0.313434,-8.409e-10,-2.74406e-05,1.37964e-05,0.2805,0.17146019431794857,-8.409000162856728e-10,-2.7440223510200035e-05,0.17146019431794857,1.3796495170748102e-05,-0.26906738103548045
222,0.1725,771.977,831.235,-0.064757,0.00676114,0.0442375,-0.0571277,0.159105,0.159105,-0.315146,3.70396e-10,-2.8196e-05,1.246e-05,0.282041,0.17246104862785816,3.703959361445186e-10,-2.819560249656128e-05,0.17246104862785816,1.246007762611967e-05,-0.27031766712887517
223,0.1735,771.269,830.516,-0.781771,0.00674976,-0.00319102,-0.145114,0.159957,0.159957,-0.316855,3.34677e-10,-2.904e-05,1.09902e-05,0.283581,0.1734604111092528,3.3467695281785836e-10,-2.9039578343326156e-05,0.1734604111092528,1.099026039241835e-05,-0.27156362925785793
224,0.1745,772.937,832.152,0.866786,0.0067293,0.103385,0.0541525,0.160809,0.160809,-0.318549,4.04549e-10,-2.73898e-05,1.41603e-05,0.285111,0.17446062541030516,4.045490609172475e-10,-2.7389424902879433e-05,0.17446062541030516,1.4160400257479111e-05,-0.27279655588620333
225,0.1755,772.93,832.13,0.8492,0.00672056,0.102086,0.0516453,0.16166,0.16166,-0.320252,4.12132e-10,-2.71987e-05,1.46045e-05,0.286646,0.1754605167959704,4.1213210622004226e-10,-2.7198330118660685e-05,0.1754605167959704,1.4604606646262397e-05,-0.27403392942890403
226,0.1765,771.99,831.182,-0.0975743,0.00671363,0.0422006,-0.0616602,0.162511,0.162511,-0.321958,3.794e-10,-2.80332e-05,1.31136e-05,0.288183,0.1764612594513688,3.7940006691883355e-10,-2.8032807073530286e-05,0.1764612594513688,1.3113685983556778e-05,-0.2752713717069105
227,0.1775,771.273,830.455,-0.822244,0.00670178,-0.00576756,-0.150546,0.16336,0.16336,-0.323662,3.44247e-10,-2.88949e-05,1.16045e-05,0.289718,0.17746049917788587,3.442470752901272e-10,-2.8894482546393263e-05,0.17746049917788587,1.1604567332401672e-05,-0.27650525772007783
228,0.1785,772.984,832.133,0.869763,0.00668087,0.103747,0.0539738,0.164209,0.164209,-0.32535,4.12508e-10,-2.71978e-05,1.48503e-05,0.291243,0.17846058761915917,4.1250802773618034e-10,-2.719743014323317e-05,0.17846058761915917,1.485041026616507e-05,-0.27772548668206476
229,0.1795,772.987,832.121,0.862616,0.00667195,0.103117,0.0527285,0.165057,0.165057,-0.327046,4.19964e-10,-2.6992e-05,1.53132e-05,0.292772,0.17946034603511762,4.1996406352495796e-10,-2.6991635719286755e-05,0.17946034603511762,1.531331724757834e-05,-0.27894942606267725
230,0.1805,772.01,831.136,-0.120922,0.00666506,0.0407686,-0.0650396,0.165905,0.165905,-0.328747,3.87069e-10,-2.78663e-05,1.37417e-05,0.294304,0.18046095260577966,3.870690434837343e-10,-2.7865911738311766e-05,0.18046095260577966,1.3741794417487796e-05,-0.28017489053593025
231,0.1815,771.301,830.416,-0.837523,0.00665304,-0.00671899,-0.152928,0.166752,0.166752,-0.330445,3.53317e-10,-2.87256e-05,1.22308e-05,0.295833,0.1814612265888682,3.5331693126749997e-10,-2.8725187423916942e-05,0.1814612265888682,1.2230874796514968e-05,-0.28139611645757245
232,0.1825,773.014,832.097,0.857163,0.00663211,0.103098,0.0519165,0.167598,0.167598,-0.332127,4.18481e-10,-2.70209e-05,1.54788e-05,0.297353,0.18246116570116744,4.184810276086637e-10,-2.7020534938748675e-05,0.18246116570116744,1.5478919797251578e-05,-0.2826037922496276
233,0.1835,773.016,832.084,0.849532,0.00662317,0.102438,0.050616,0.168443,0.168443,-0.333818,4.25272e-10,-2.68166e-05,1.59303e-05,0.298878,0.18346076765853359,4.2527203980569084e-10,-2.681624043820996e-05,0.18346076765853359,1.593042688785573e-05,-0.28381588412442393
234,0.1845,772.059,831.12,-0.113309,0.00661621,0.0413454,-0.0646564,0.169288,0.169288,-0.335513,3.94335e-10,-2.76725e-05,1.43869e-05,0.300404,0.18446121463652454,3.943350090906961e-10,-2.7672117119958983e-05,0.18446121463652454,1.4387003491878048e-05,-0.2850287879744282
235,0.1855,771.368,830.417,-0.812188,0.00660426,-0.00504616,-0.15041,0.170132,0.170132,-0.337205,3.62714e-10,-2.85108e-05,1.29087e-05,0.301928,0.18546132188757003,3.627140809925322e-10,-2.8510393570990722e-05,0.18546132188757003,1.2908783317611139e-05,-0.2862374964094755
236,0.1865,773.024,832.042,0.826314,0.00658373,0.101256,0.0476463,0.170975,0.170975,-0.338882,4.22797e-10,-2.6855e-05,1.60541e-05,0.303443,0.18646108712376153,4.227969085945915e-10,-2.6854639407769554e-05,0.18646108712376153,1.605422886785668e-05,-0.28743347302131783
237,0.1875,773.008,832.011,0.801478,0.00657478,0.0994874,0.0442723,0.171817,0.171817,-0.340567,4.28217e-10,-2.66758e-05,1.64503e-05,0.304963,0.1874605080562861,4.2821701740081153e-10,-2.6675444203982934e-05,0.1874605080562861,1.645043530684731e-05,-0.28863313661885304
238,0.1885,772.15,831.144,-0.0633298,0.00656745,0.0446742,-0.0591379,0.172659,0.172659,-0.342256,-1.00817e-09,-2.74341e-05,1.50826e-05,0.306484,0.1884607708556123,-1.0081699919339826e-09,-2.743372368851915e-05,0.1884607708556123,1.5082713743064247e-05,-0.28983362115652445
239,0.1895,771.487,830.469,-0.73366,0.00655578,6.82544e-05,-0.141486,0.1735,0.1735,-0.343942,3.73132e-10,-2.82283e-05,1.36795e-05,0.308003,0.18946068676960848,3.7313196976640484e-10,-2.82279015852982e-05,0.18946068676960848,1.3679593564797088e-05,-0.29102995288022093
240,0.1905,773.01,831.963,0.773053,0.00653607,0.0979374,0.0406443,0.17434,0.17434,-0.345614,4.25783e-10,-2.66946e-05,1.65867e-05,0.309513,0.19046025350574958,4.2578296444162334e-10,-2.669424370238538e-05,0.19046025350574958,1.6586837560117473e-05,-0.2922143603584275
241,0.1915,772.956,831.894,0.710363,0.00652706,0.0937271,0.0327064,0.17518,0.17518,-0.347294,4.29036e-10,-2.65698e-05,1.68733e-05,0.311027,0.19146066023069497,4.2903591790377504e-10,-2.65694470259481e-05,0.19146066023069497,1.687344235490329e-05,-0.29340244196503895
242,0.1925,772.291,831.219,0.0384634,0.00651897,0.0513746,-0.0473493,0.176019,0.176019,-0.348976,4.09921e-10,-2.71323e-05,1.58635e-05,0.312542,0.1924607151890203,4.099209860441988e-10,-2.7131931922497188e-05,0.1924607151890203,1.586362582606249e-05,-0.2945899400917643
243,0.1935,772.99,831.895,0.724857,0.00650438,0.0947069,0.03407,0.176857,0.176857,-0.350648,4.33981e-10,-2.63529e-05,1.7374e-05,0.314052,0.19346041608452103,4.339810733000604e-10,-2.6352552765396275e-05,0.19346041608452103,1.7374150928839427e-05,-0.29576840024470263
244,0.1945,771.687,830.587,-0.581827,0.00649791,0.010898,-0.122891,0.177695,0.177695,-0.352331,3.91547e-10,-2.76422e-05,1.50155e-05,0.315566,0.19446095508048722,3.915470170312574e-10,-2.764181795789078e-05,0.19446095508048722,1.501561273320462e-05,-0.29695262522224686
245,0.1955,771.52,830.405,-0.757814,0.00648293,-0.00141621,-0.145112,0.178532,0.178532,-0.354006,3.78891e-10,-2.80002e-05,1.44123e-05,0.317076,0.19546113741780635,3.7889091863974045e-10,-2.7999807998058124e-05,0.19546113741780635,1.4412403857688716e-05,-0.2981292438817764
246,0.1965,771.572,830.439,-0.716048,0.00646734,0.00146896,-0.139878,0.179368,0.179368,-0.355678,-9.23722e-10,-2.8138e-05,1.42049e-05,0.318584,0.196460960796629,-9.237219877888947e-10,-2.8137604130229477e-05,0.196460960796629,1.4205000889999653e-05,-0.2993017912632323
247,0.1975,773.042,831.88,0.738281,0.00644902,0.0961569,0.0359239,0.180203,0.180203,-0.357341,4.21748e-10,-2.66448e-05,1.70171e-05,0.320085,0.19746042291625843,4.2174796988092567e-10,-2.6644445030421515e-05,0.19746042291625843,1.7017244791750485e-05,-0.3004660840066178
248,0.1985,771.498,830.334,-0.807773,0.00644486,-0.00431201,-0.151041,0.181038,0.181038,-0.359019,3.69191e-10,-2.82248e-05,1.41283e-05,0.321596,0.19846071993527947,3.6919090007359046e-10,-2.82244016840405e-05,0.19846071993527947,1.412839980496905e-05,-0.30163891763504636
249,0.1995,773.035,831.841,0.712665,0.00642596,0.0946543,0.0327278,0.181872,0.181872,-0.360678,4.1891e-10,-2.66757e-05,1.70402e-05,0.323095,0.19946065308987193,4.1891001778537884e-10,-2.6675344206639195e-05,0.19946065308987193,1.7040345185126426e-05,-0.30279653815895713
250,0.2005,771.498,830.301,-0.826654,0.00642172,-0.00542492,-0.153399,0.182705,0.182705,-0.362354,3.66735e-10,-2.82562e-05,1.41486e-05,0.324603,0.20046022007574638,3.667350867431196e-10,-2.8255800797349906e-05,0.20046022007574638,1.4148700091975996e-05,-0.303964072493932
251,0.2015,773.048,831.821,0.707212,0.00640276,0.0944706,0.0319905,0.183538,0.183538,-0.364011,4.1638e-10,-2.66921e-05,1.70828e-05,0.326099,0.20146062004781062,4.1638004155686303e-10,-2.6691743769013954e-05,0.20146062004781062,1.7082945911850445e-05,-0.3051164490181908
252,0.2025,771.514,830.285,-0.828294,0.00639855,-0.00541683,-0.153672,0.18437,0.18437,-0.365684,3.64699e-10,-2.82713e-05,1.41914e-05,0.327605,0.20246065123897883,3.6469893771595707e-10,-2.827090037060831e-05,0.20246065123897883,1.4191500698368387e-05,-0.3062780172762066
253,0.2035,773.057,831.798,0.698669,0.00637968,0.0940851,0.0308819,0.185201,0.185201,-0.367337,4.13642e-10,-2.67112e-05,1.71129e-05,0.329099,0.20346031134140374,4.1364200953353247e-10,-2.6710843259114547e-05,0.20346031134140374,1.7113046426597833e-05,-0.30742379246955787
254,0.2045,771.543,830.282,-0.817509,0.00637546,-0.00460182,-0.152446,0.186032,0.186032,-0.369007,-9.47645e-10,-2.82721e-05,1.42532e-05,0.330602,0.20446080250663257,-9.476449625012151e-10,-2.827170034791493e-05,0.20446080250663257,1.4253301577227262e-05,-0.3085794295106248
255,0.2055,773.06,831.769,0.684001,0.00635677,0.0932977,0.0290311,0.186862,0.186862,-0.370659,4.10667e-10,-2.67342e-05,1.71283e-05,0.332093,0.2054609199640427,4.106670559167469e-10,-2.673384264451073e-05,0.2054609199640427,1.7128446690106713e-05,-0.30972071333307905
256,0.2065,771.584,830.291,-0.793783,0.00635244,-0.00294632,-0.149661,0.187691,0.187691,-0.372326,3.61725e-10,-2.82562e-05,1.43383e-05,0.333593,0.20646066140226393,3.6172509432219613e-10,-2.8255800797349906e-05,0.20646066140226393,1.4338402793967475e-05,-0.31087045033191496
257,0.2075,771.569,830.258,-0.818505,0.00633787,-0.00442651,-0.152416,0.18852,0.18852,-0.373983,3.53479e-10,-2.8473e-05,1.39664e-05,0.335088,0.20746123196976374,3.5347902382909524e-10,-2.8472594647999117e-05,0.20746123196976374,1.3966497530715216e-05,-0.31201139246410625
258,0.2085,773.205,831.865,0.801937,0.00631954,0.101404,0.0434731,0.189347,0.189347,-0.375629,4.05443e-10,-2.67891e-05,1.71014e-05,0.336575,0.20846021543132798,4.054430124966757e-10,-2.678874117523211e-05,0.20846021543132798,1.7101546229802977e-05,-0.31314289023398034
259,0.2095,773.153,831.799,0.742056,0.00631236,0.0973341,0.0358546,0.190175,0.190175,-0.377284,4.0832e-10,-2.66418e-05,1.73941e-05,0.338067,0.20946123485455614,4.083200444426893e-10,-2.664144511044242e-05,0.20946123485455614,1.739425127822436e-05,-0.3142786986099614
260,0.2105,772.41,831.046,-0.00654379,0.00630615,0.0497111,-0.0535271,0.191001,0.191001,-0.378942,3.87916e-10,-2.72852e-05,1.62058e-05,0.33956,0.21046066254135676,3.8791592160691835e-10,-2.728482776226393e-05,0.21046066254135676,1.6205931314683397e-05,-0.3154146825367592
261,0.2115,773.177,831.791,0.748623,0.00629258,0.0978012,0.0362585,0.191827,0.191827,-0.380589,4.11762e-10,-2.64119e-05,1.78479e-05,0.341046,0.21146091609646356,4.1176195786363223e-10,-2.6411551208860296e-05,0.21146091609646356,1.784805927473876e-05,-0.3165412665580145
262,0.2125,771.766,830.377,-0.664403,0.00628778,0.00656686,-0.133602,0.192652,0.192652,-0.382247,3.6859e-10,-2.78313e-05,1.52276e-05,0.342539,0.21246078374093513,3.685900473726633e-10,-2.7830912712967226e-05,0.21246078374093513,1.5227715940424602e-05,-0.31767350225529534
263,0.2135,771.696,830.291,-0.743069,0.00627345,0.000594628,-0.144003,0.193476,0.193476,-0.383897,3.59487e-10,-2.8089e-05,1.47786e-05,0.344026,0.21346026315570477,3.5948710674915674e-10,-2.808860550773673e-05,0.21346026315570477,1.47787092039664e-05,-0.31879841267026765
264,0.2145,773.231,831.797,0.776759,0.00625531,0.100023,0.0397303,0.1943,0.1943,-0.385536,4.05244e-10,-2.64901e-05,1.77406e-05,0.345506,0.2144605664809165,4.0524406053066286e-10,-2.6489749140434782e-05,0.2144605664809165,1.7740757365380944e-05,-0.31991398760850653
265,0.2155,773.141,831.693,0.678934,0.00624774,0.0934737,0.0275262,0.195123,0.195123,-0.387182,4.06379e-10,-2.63906e-05,1.79334e-05,0.346991,0.2154604789346659,4.063789305064347e-10,-2.6390251771202244e-05,0.2154604789346659,1.7933560804372917e-05,-0.32103248840621545
266,0.2165,772.537,831.079,0.069231,0.00624062,0.054847,-0.0450403,0.195946,0.195946,-0.388831,3.90918e-10,-2.68896e-05,1.70029e-05,0.348476,0.21646121465509238,3.9091796466550477e-10,-2.6889238477934008e-05,0.21646121465509238,1.7003044550101265e-05,-0.322151183215467
267,0.2175,771.697,830.23,-0.775754,0.00623143,-0.00144898,-0.148432,0.196767,0.196767,-0.390479,3.61417e-10,-2.78565e-05,1.52381e-05,0.349961,0.2174603393969099,3.614168964105602e-10,-2.7856112011281908e-05,0.2174603393969099,1.5238216100499358e-05,-0.323267358084817
268,0.2185,773.243,831.747,0.755706,0.00621288,0.0987878,0.0366583,0.197588,0.197588,-0.392112,4.05304e-10,-2.62452e-05,1.82135e-05,0.351436,0.2184602847569581,4.053040125739926e-10,-2.6244855597767902e-05,0.2184602847569581,1.8213665866850803e-05,-0.32437156066227957
269,0.2195,773.164,831.654,0.668584,0.00620497,0.0929367,0.0257582,0.198409,0.198409,-0.393754,4.06401e-10,-2.61369e-05,1.8415e-05,0.352916,0.21946105140924121,4.064009129223223e-10,-2.613655843419771e-05,0.21946105140924121,1.8415169557250977e-05,-0.3254800322554423
270,0.2205,772.566,831.046,0.0652947,0.00619763,0.0546746,-0.0460392,0.199228,0.199228,-0.395397,3.91573e-10,-2.66319e-05,1.74858e-05,0.354396,0.22046019910547776,3.915729962500336e-10,-2.6631545374078414e-05,0.22046019910547776,1.748595287742738e-05,-0.3265873586447203
271,0.2215,771.739,830.209,-0.766759,0.00618829,-0.000826537,-0.147857,0.200047,0.200047,-0.39704,3.63566e-10,-2.75866e-05,1.57381e-05,0.355876,0.22146016543886393,3.6356606614162956e-10,-2.7586219493280772e-05,0.22146016543886393,1.5738223844596888e-05,-0.32769286719050794
272,0.2225,773.257,831.698,0.735942,0.00616984,0.0976364,0.0337537,0.200866,0.200866,-0.398668,4.04595e-10,-2.59985e-05,1.86602e-05,0.357346,0.22246095108013764,4.04595024150467e-10,-2.599816204196248e-05,0.22246095108013764,1.866037410258592e-05,-0.3287864927499725
273,0.2235,771.721,830.161,-0.800883,0.00616574,-0.00294447,-0.152098,0.201684,0.201684,-0.400312,3.60191e-10,-2.75944e-05,1.57158e-05,0.358826,0.22346133323864237,3.601909881467691e-10,-2.759401927809879e-05,0.22346133323864237,1.5715923493919703e-05,-0.32988906119629935
274,0.2245,771.761,830.183,-0.770152,0.00615109,-0.000810189,-0.148164,0.202501,0.202501,-0.401946,3.54398e-10,-2.7741e-05,1.54439e-05,0.360299,0.22446130958261223,3.5439806644887994e-10,-2.77406152220383e-05,0.22446130958261223,1.544401925768213e-05,-0.3309831283739946
275,0.2255,773.256,831.65,0.709838,0.00613352,0.0963069,0.0307334,0.203317,0.203317,-0.40357,3.9506e-10,-2.61723e-05,1.83214e-05,0.361766,0.2254608777795919,3.950599847257763e-10,-2.6171957508314136e-05,0.2254608777795919,1.832156783776462e-05,-0.3320687300263784
276,0.2265,771.775,830.166,-0.772415,0.00612993,-0.000782921,-0.148521,0.204133,0.204133,-0.40521,3.51917e-10,-2.77131e-05,1.54756e-05,0.363242,0.22646126195709515,3.5191694003344764e-10,-2.7712715995553694e-05,0.22646126195709515,1.5475719747692906e-05,-0.3331632395659966
277,0.2275,771.818,830.193,-0.738235,0.00611604,0.00157919,-0.144181,0.204948,0.204948,-0.40684,3.46458e-10,-2.78459e-05,1.52237e-05,0.364712,0.22746123531938478,3.4645797342136575e-10,-2.784551230650134e-05,0.22746123531938478,1.522381588103805e-05,-0.3342492981073304
278,0.2285,773.256,831.603,0.685729,0.00609924,0.0950968,0.0279427,0.205762,0.205762,-0.408461,3.85782e-10,-2.63279e-05,1.80004e-05,0.366176,0.22846079553074872,3.857820729535888e-10,-2.6327553423910466e-05,0.22846079553074872,1.800056200806921e-05,-0.33532760579060406
279,0.2295,771.844,830.188,-0.728672,0.00609582,0.00237215,-0.143118,0.206576,0.206576,-0.410097,3.44451e-10,-2.77971e-05,1.52831e-05,0.367648,0.2294611697153668,3.444509122374484e-10,-2.779671366415215e-05,0.2294611697153668,1.528321678723188e-05,-0.33641412081590216
280,0.2305,771.881,830.208,-0.700019,0.00608251,0.00437438,-0.139457,0.207389,0.207389,-0.411723,3.39137e-10,-2.79229e-05,1.50388e-05,0.369114,0.23046112807433983,3.3913694075238254e-10,-2.792251015948377e-05,0.23046112807433983,1.503891308329841e-05,-0.3374922347113253
281,0.2315,773.258,831.559,0.663266,0.00606629,0.0939805,0.0253311,0.208201,0.208201,-0.413339,3.76907e-10,-2.64599e-05,1.7707e-05,0.370574,0.23146066826873501,3.769069500947353e-10,-2.6459549939961136e-05,0.23146066826873501,1.7707156769741772e-05,-0.33856198267088056
282,0.2325,771.913,830.21,-0.683999,0.00606286,0.00558135,-0.137623,0.209013,0.209013,-0.414971,3.37471e-10,-2.78576e-05,1.51181e-05,0.372043,0.23246102041937777,3.3747094008163003e-10,-2.7857211980619745e-05,0.23246102041937777,1.5118214279130626e-05,-0.33964056914920093
283,0.2335,771.943,830.224,-0.662647,0.00604999,0.00710647,-0.134855,0.209824,0.209824,-0.416593,3.3225e-10,-2.79783e-05,1.48778e-05,0.373505,0.23346095172427583,3.3225000528602777e-10,-2.79779086109766e-05,0.23346095172427583,1.4877910675004102e-05,-0.34071080395097797
284,0.2345,773.261,831.516,0.642384,0.00603421,0.0929537,0.0228897,0.210634,0.210634,-0.418206,3.68452e-10,-2.6568e-05,1.74418e-05,0.374962,0.23446045984131159,3.6845193562839995e-10,-2.6567647073760803e-05,0.23446045984131159,1.7441952109065184e-05,-0.34177338022605774
285,0.2355,771.979,830.23,-0.641872,0.00603068,0.00861706,-0.132455,0.211444,0.211444,-0.419833,3.30863e-10,-2.78984e-05,1.49734e-05,0.376427,0.23546077788789965,3.308628926390611e-10,-2.7898010843241394e-05,0.23546077788789965,1.4973512102001152e-05,-0.3428434442033347
286,0.2365,772.002,830.236,-0.627754,0.00601814,0.00966818,-0.130571,0.212253,0.212253,-0.421451,3.25721e-10,-2.80146e-05,1.4736e-05,0.377886,0.2364606700590599,3.2572100572281215e-10,-2.8014207594795337e-05,0.2364606700590599,1.4736108575386098e-05,-0.3439058637813972
287,0.2375,771.85,830.07,-0.786933,0.00600651,-0.000564369,-0.149517,0.213061,0.213061,-0.423069,3.14626e-10,-2.83308e-05,1.4129e-05,0.379344,0.23746013400952748,3.146261029485231e-10,-2.8330398686660097e-05,0.23746013400952748,1.412909981479693e-05,-0.3449665657544996
288,0.2385,773.436,831.628,0.784112,0.00598995,0.102866,0.0403642,0.213869,0.213869,-0.424676,3.59082e-10,-2.66263e-05,1.72228e-05,0.380795,0.23846040585321204,3.590820973897735e-10,-2.662594552327313e-05,0.23846040585321204,1.722294831330018e-05,-0.3460183591409959
289,0.2395,773.323,831.502,0.664934,0.00598411,0.0948525,0.0255602,0.214676,0.214676,-0.426291,3.59281e-10,-2.65347e-05,1.73575e-05,0.382251,0.23946024678228817,3.592810493557863e-10,-2.6534347957962723e-05,0.23946024678228817,1.7357650642368938e-05,-0.3470736870842912
290,0.2405,772.739,830.908,0.0755535,0.00597843,0.0572574,-0.0445816,0.215483,0.215483,-0.427907,3.44922e-10,-2.70117e-05,1.64313e-05,0.383707,0.24046089490865463,3.449220908890993e-10,-2.7011335187343555e-05,0.24046089490865463,1.643143499463484e-05,-0.3481279639208459
291,0.2415,773.583,831.732,0.909076,0.00596628,0.112321,0.056358,0.216289,0.216289,-0.429514,3.68309e-10,-2.59535e-05,1.83293e-05,0.385158,0.24146110942225207,3.6830893890282823e-10,-2.5953163210856722e-05,0.24146110942225207,1.832946798274726e-05,-0.34917468102037785
292,0.2425,773.364,831.5,0.683054,0.00595991,0.0959122,0.0269486,0.217094,0.217094,-0.431126,3.65865e-10,-2.59767e-05,1.82595e-05,0.386611,0.2424608879722132,3.658648939364184e-10,-2.5976362608481907e-05,0.2424608879722132,1.825966670576662e-05,-0.3502229662896448
293,0.2435,772.829,830.955,0.142762,0.005953,0.0615101,-0.0372883,0.217898,0.217898,-0.432738,3.53745e-10,-2.6392e-05,1.74416e-05,0.388063,0.2434602282070848,3.5374503326579543e-10,-2.6391651734236632e-05,0.2434602282070848,1.7441752105495922e-05,-0.35126956308433366
294,0.2445,773.509,831.615,0.813022,0.00594062,0.105816,0.043839,0.218702,0.218702,-0.434342,3.71307e-10,-2.55099e-05,1.90107e-05,0.389511,0.2444603722345866,3.71306985158526e-10,-2.5509574625215414e-05,0.2444603722345866,1.9010880704550814e-05,-0.3523092926191401
295,0.2455,772.036,830.139,-0.661615,0.00593654,0.00833824,-0.135066,0.219506,0.219506,-0.435957,3.33511e-10,-2.70367e-05,1.61709e-05,0.390964,0.24546132070122773,3.33510996597397e-10,-2.703633451173193e-05,0.24546132070122773,1.6171030749800863e-05,-0.3533544689045385
296,0.2465,772.059,830.146,-0.646964,0.00592253,0.00843588,-0.134257,0.220308,0.220308,-0.437562,3.2828e-10,-2.71685e-05,1.58983e-05,0.392411,0.24646058133038173,3.2828006979457314e-10,-2.7168130939614343e-05,0.24646058133038173,1.5898426378724295e-05,-0.35439150253983565
297,0.2475,773.333,831.394,0.613518,0.00590597,0.0916411,0.0180889,0.22111,0.22111,-0.439159,3.58977e-10,-2.5783e-05,1.83859e-05,0.393853,0.24746064368801046,3.5897707029164394e-10,-2.578266762132131e-05,0.24746064368801046,1.8386069021714135e-05,-0.35542171646550436
298,0.2485,773.486,831.531,0.758437,0.00589752,0.101105,0.0353465,0.221911,0.221911,-0.440761,3.64554e-10,-2.54145e-05,1.90111e-05,0.395298,0.2484602599564738,3.6455394258894103e-10,-2.5414177054372544e-05,0.2484602599564738,1.9011280712133427e-05,-0.3564535041930915
299,0.2495,772.52,830.558,-0.211271,0.00589227,0.0382369,-0.0808944,0.222712,0.222712,-0.442368,3.41862e-10,-2.63306e-05,1.72701e-05,0.396745,0.2494606772383312,3.4186209418862745e-10,-2.6330253352746524e-05,0.2494606772383312,1.7270249129008874e-05,-0.35748685289379134
300,0.2505,772.057,830.083,-0.680422,0.00588172,0.00632765,-0.138712,0.223512,0.223512,-0.443971,3.25528e-10,-2.69289e-05,1.61376e-05,0.398189,0.2504606457141805,3.255280489611323e-10,-2.6928537420478627e-05,0.2504606457141805,1.6137730211696066e-05,-0.3585159764057373
301,0.2515,772.08,830.09,-0.665575,0.00586842,0.00747344,-0.136712,0.224311,0.224311,-0.44557,3.20392e-10,-2.70479e-05,1.58699e-05,0.399631,0.2514601630240971,3.203919352046114e-10,-2.7047534208901602e-05,0.2514601630240971,1.5870025927622322e-05,-0.35954088972289255
302,0.2525,773.372,831.356,0.612923,0.00585243,0.091978,0.0178044,0.22511,0.22511,-0.44716,3.50728e-10,-2.56354e-05,1.83952e-05,0.401067,0.2524604792674756,3.507278911740741e-10,-2.563507141595256e-05,0.2524604792674756,1.8395369192791833e-05,-0.36055841056479765
303,0.2535,773.533,831.503,0.766593,0.00584453,0.10203,0.0361188,0.225908,0.225908,-0.448755,3.56289e-10,-2.52524e-05,1.90378e-05,0.402505,0.25346034162195097,3.562889983044215e-10,-2.525208116077593e-05,0.25346034162195097,1.9037981220160205e-05,-0.3615775069545254
304,0.2545,772.542,830.506,-0.227607,0.00583988,0.037449,-0.0830912,0.226706,0.226706,-0.450356,3.33465e-10,-2.61986e-05,1.72357e-05,0.403947,0.25446100218502776,3.3346503336417754e-10,-2.6198256819709442e-05,0.25446100218502776,1.7235848535523957e-05,-0.3625988035997777
305,0.2555,772.092,830.044,-0.683724,0.00582969,0.00637272,-0.139312,0.227503,0.227503,-0.451952,3.17693e-10,-2.67853e-05,1.61177e-05,0.405385,0.25546120613209733,3.1769298303174764e-10,-2.6784941277058216e-05,0.25546120613209733,1.611782989074939e-05,-0.36361528454167447
306,0.2565,772.133,830.069,-0.650497,0.00581675,0.00873253,-0.135096,0.228299,0.228299,-0.453545,3.13134e-10,-2.68803e-05,1.58858e-05,0.406821,0.256460951097887,3.131339632034269e-10,-2.6879938727963903e-05,0.256460951097887,1.5885926180070342e-05,-0.36462823836147196
307,0.2575,772.038,829.958,-0.754011,0.00580483,0.00212162,-0.147316,0.229094,0.229094,-0.455137,3.04695e-10,-2.71306e-05,1.53687e-05,0.408256,0.2574602347166173,3.0469493594864616e-10,-2.713023196865283e-05,0.2574602347166173,1.5368818099048553e-05,-0.3656389454696757
308,0.2585,773.504,831.398,0.699125,0.00578882,0.098293,0.0282752,0.229889,0.229889,-0.456718,3.39081e-10,-2.55161e-05,1.82486e-05,0.409685,0.25846031308169426,3.3908098551194144e-10,-2.5515774467077534e-05,0.25846031308169426,1.8248766506800962e-05,-0.36664107790245903
309,0.2595,772.09,829.982,-0.716657,0.00578627,0.00472445,-0.142928,0.230684,0.230684,-0.458315,3.02885e-10,-2.70136e-05,1.54505e-05,0.411122,0.25946118682519237,3.0288505037390223e-10,-2.7013235135986413e-05,0.25946118682519237,1.5450619359480555e-05,-0.36765174486867513
310,0.2605,772.211,830.086,-0.604277,0.00577373,0.0122674,-0.129175,0.231477,0.231477,-0.459902,3.00482e-10,-2.70181e-05,1.53783e-05,0.412553,0.26046033565649696,3.0048208365940354e-10,-2.7017735014456257e-05,0.26046033565649696,1.5378418246614345e-05,-0.36865448566429126
311,0.2615,773.696,831.544,0.86707,0.0057585,0.11081,0.0499463,0.23227,0.23227,-0.461479,3.35706e-10,-2.53151e-05,1.83998e-05,0.413978,0.26146027712706466,3.3570590751708096e-10,-2.531477957556927e-05,0.26146027712706466,1.8399969277327344e-05,-0.3696493328971793
312,0.2625,773.46,831.297,0.625241,0.00575336,0.093546,0.0189983,0.233063,0.233063,-0.463066,3.32588e-10,-2.5357e-05,1.82612e-05,0.415408,0.2624610118657076,3.3258795717472367e-10,-2.5356678513999142e-05,0.2624610118657076,1.8261366736771478e-05,-0.3706489060347956
313,0.2635,773.022,830.849,0.182132,0.00574724,0.0653752,-0.0334634,0.233855,0.233855,-0.464652,3.23453e-10,-2.56687e-05,1.76038e-05,0.416837,0.26346127703982836,3.234530421281079e-10,-2.566837056172666e-05,0.26346127703982836,1.7603954947764677e-05,-0.3716462657545039
314,0.2645,773.529,831.338,0.679886,0.00573664,0.0984359,0.0267146,0.234646,0.234646,-0.466231,3.35034e-10,-2.49605e-05,1.88151e-05,0.418262,0.2644610702760626,3.350340005425778e-10,-2.496018848929804e-05,0.2644610702760626,1.881527700509089e-05,-0.3726376533943552
315,0.2655,772.42,830.223,-0.432008,0.0057321,0.0245221,-0.108245,0.235436,0.235436,-0.467819,3.09208e-10,-2.60995e-05,1.66634e-05,0.419691,0.2654603892005829,3.092079925437474e-10,-2.609915941098606e-05,0.2654603892005829,1.6663538835226532e-05,-0.3736331141956972
316,0.2665,773.463,831.243,0.599328,0.00571741,0.0919043,0.0152055,0.236226,0.236226,-0.469393,3.31033e-10,-2.49164e-05,1.87494e-05,0.421112,0.2664604978989731,3.310329788064337e-10,-2.4916089589099855e-05,0.2664604978989731,1.874957577108205e-05,-0.37461824017642087
317,0.2675,773.475,831.241,0.603976,0.00570952,0.0921193,0.0154827,0.237015,0.237015,-0.470972,3.3237e-10,-2.47091e-05,1.90467e-05,0.422536,0.26746012953463816,3.323699093726873e-10,-2.4708794732708483e-05,0.26746012953463816,1.9046881389650494e-05,-0.3756049387716349
318,0.2685,772.88,830.637,0.00431137,0.00570298,0.0534618,-0.0559652,0.237804,0.237804,-0.472552,3.19876e-10,-2.52214e-05,1.80185e-05,0.42396,0.2684605501908912,3.1987590354276563e-10,-2.5221081943138657e-05,0.2684605501908912,1.8018662334196023e-05,-0.3765907040087665
319,0.2695,772.161,829.909,-0.719421,0.00569441,0.00455989,-0.144521,0.238592,0.238592,-0.474133,2.9986e-10,-2.60774e-05,1.6391e-05,0.425383,0.26946049102938985,2.998599146764036e-10,-2.6077059987583695e-05,0.26946049102938985,1.6391134333160196e-05,-0.37757553539138344
320,0.2705,772.162,829.894,-0.726424,0.00568143,0.00424372,-0.145156,0.23938,0.23938,-0.475708,2.94169e-10,-2.62251e-05,1.60424e-05,0.426803,0.2704612201318042,2.9416891145217505e-10,-2.6224756125126092e-05,0.2704612201318042,1.604252867992706e-05,-0.3785550823274392
321,0.2715,773.519,831.225,0.617185,0.00566548,0.093483,0.0171924,0.240166,0.240166,-0.477274,3.2221e-10,-2.47102e-05,1.87102e-05,0.428218,0.27146019519659803,3.2221003642973756e-10,-2.470989470548801e-05,0.27146019519659803,1.8710375036867788e-05,-0.3795275034640375
322,0.2725,772.289,829.991,-0.614983,0.00566174,0.0117767,-0.1318,0.240953,0.240953,-0.478853,2.93596e-10,-2.60186e-05,1.62447e-05,0.42964,0.27246122822504715,2.9359603637146847e-10,-2.6018261519156205e-05,0.27246122822504715,1.624483194584414e-05,-0.3805064564492888
323,0.2735,773.58,831.258,0.66378,0.00564644,0.0967102,0.022727,0.241738,0.241738,-0.480417,3.19968e-10,-2.4551e-05,1.88234e-05,0.431052,0.27346050245302345,3.199680520538095e-10,-2.4550698626613077e-05,0.27346050245302345,1.882357716120886e-05,-0.3814745870759071
324,0.2745,772.313,829.987,-0.605313,0.00564296,0.0125001,-0.130755,0.242523,0.242523,-0.481994,2.91133e-10,-2.58949e-05,1.62913e-05,0.432472,0.27446056141923814,2.911328955690351e-10,-2.5894564730011282e-05,0.27446056141923814,1.6291432703985365e-05,-0.38244923294183353
325,0.2755,773.597,831.246,0.665875,0.0056277,0.0969722,0.0228542,0.243307,0.243307,-0.483556,3.16952e-10,-2.44301e-05,1.88604e-05,0.433882,0.2754601302791846,3.169520201851128e-10,-2.442980158756658e-05,0.2754601302791846,1.886057785838169e-05,-0.38341309426830983
326,0.2765,772.332,829.977,-0.601134,0.0056242,0.0128565,-0.130375,0.244091,0.244091,-0.485131,2.88548e-10,-2.5773e-05,1.63284e-05,0.435299,0.2764604831083932,2.885480743231028e-10,-2.5772667879064848e-05,0.2764604831083932,1.6328533309017956e-05,-0.38438345428573184
327,0.2775,773.604,831.225,0.658955,0.00560898,0.0966328,0.0218883,0.244874,0.244874,-0.48669,3.13737e-10,-2.43168e-05,1.88774e-05,0.436707,0.27746034306075495,3.137370363504033e-10,-2.4316504348975698e-05,0.27746034306075495,1.887757817931046e-05,-0.3853424527469643
328,0.2785,772.356,829.973,-0.591285,0.0056054,0.0135883,-0.129311,0.245657,0.245657,-0.488262,2.86055e-10,-2.56427e-05,1.63743e-05,0.438123,0.2784609862100407,2.8605495749900456e-10,-2.564237122881785e-05,0.2784609862100407,1.6374434059551746e-05,-0.3863079353431017
329,0.2795,773.607,831.199,0.646754,0.0055903,0.09594,0.0202824,0.246439,0.246439,-0.489819,3.10395e-10,-2.42073e-05,1.88811e-05,0.439528,0.2794611337079609,3.1039504300167664e-10,-2.4207007005672132e-05,0.2794611337079609,1.8881278249116562e-05,-0.3872627104025044
330,0.2805,773.716,831.294,0.749215,0.00558298,0.102635,0.032369,0.24722,0.24722,-0.491381,3.13558e-10,-2.38586e-05,1.94139e-05,0.440937,0.2804607831656878,3.135580683988337e-10,-2.3858315385871798e-05,0.2804607831656878,1.9414088451075173e-05,-0.388219058946198
331,0.2815,772.779,830.351,-0.191075,0.00557846,0.0411468,-0.0803214,0.248001,0.248001,-0.492948,2.95129e-10,-2.47594e-05,1.7664e-05,0.442348,0.281461213654594,2.951290323238709e-10,-2.4759093488535555e-05,0.281461213654594,1.7664156009455922e-05,-0.38917696896232024
332,0.2825,772.384,829.944,-0.592769,0.00556879,0.0134979,-0.129954,0.248781,0.248781,-0.49451,2.82977e-10,-2.52711e-05,1.66462e-05,0.443756,0.282461143323119,2.829769751855338e-10,-2.5270780688479988e-05,0.282461143323119,1.6646338548698125e-05,-0.3901303297681741
333,0.2835,773.702,831.237,0.712899,0.00555346,0.100471,0.0278164,0.24956,0.24956,-0.496062,3.07454e-10,-2.37439e-05,1.93098e-05,0.445157,0.2834605697798316,3.074540622094446e-10,-2.374361811585679e-05,0.2834605697798316,1.9309986435400717e-05,-0.3910761133784496
334,0.2845,772.36,829.892,-0.630765,0.00555024,0.0110813,-0.134668,0.250339,0.250339,-0.497627,2.79461e-10,-2.51789e-05,1.66034e-05,0.446566,0.284460775093079,2.794608988665459e-10,-2.5178583014207057e-05,0.284460775093079,1.6603537837278637e-05,-0.39202833395406167
335,0.2855,773.669,831.176,0.665786,0.00553484,0.0974481,0.0219816,0.251117,0.251117,-0.499176,3.03342e-10,-2.36696e-05,1.9231e-05,0.447965,0.2854604744087099,3.0334201817083795e-10,-2.3669319877184236e-05,0.2854604744087099,1.9231184916757016e-05,-0.3929693530573145
336,0.2865,772.401,829.905,-0.603753,0.0055313,0.0129539,-0.131526,0.251895,0.251895,-0.500739,2.77065e-10,-2.50266e-05,1.66645e-05,0.449372,0.2864609517930381,2.770650375794048e-10,-2.5026286837204204e-05,0.2864609517930381,1.6664638853525204e-05,-0.39391740086611915
337,0.2875,773.652,831.131,0.634717,0.00551624,0.0954947,0.0180981,0.252672,0.252672,-0.502286,-1.41499e-09,-2.35788e-05,1.91764e-05,0.450769,0.287460920390072,-1.4149900140481009e-09,-2.3578522022282833e-05,0.287460920390072,1.9176583868407704e-05,-0.39485428577965187
338,0.2885,773.763,831.228,0.738296,0.00550892,0.102277,0.0303198,0.253448,0.253448,-0.503838,3.02135e-10,-2.32268e-05,1.97016e-05,0.452168,0.2884603778036172,3.021349836984655e-10,-2.3226530259989886e-05,0.2884603778036172,1.9701794077731094e-05,-0.39579274349656124
339,0.2895,772.84,830.299,-0.188195,0.00550438,0.0415703,-0.0806989,0.254224,0.254224,-0.505395,2.85112e-10,-2.4119e-05,1.7959e-05,0.453571,0.2894606110971176,2.8511193406188795e-10,-2.4118709139209216e-05,0.2894606110971176,1.7959161263902956e-05,-0.3967327622004728
340,0.2905,773.791,831.228,0.752258,0.00549135,0.103241,0.031656,0.254999,0.254999,-0.50694,3.00793e-10,-2.29464e-05,1.99757e-05,0.454965,0.2904603304119142,3.007929461062986e-10,-2.2946136733370537e-05,0.2904603304119142,1.9975899515634055e-05,-0.39766409044654427
341,0.2915,773.679,831.104,0.63359,0.00548456,0.0951835,0.016936,0.255774,0.255774,-0.50849,2.99581e-10,-2.28425e-05,2.00468e-05,0.456363,0.29146082480948565,2.9958102665261777e-10,-2.2842239112086382e-05,0.29146082480948565,2.004700093838352e-05,-0.3985969879240333
342,0.2925,773.108,830.523,0.0576141,0.00547824,0.0578528,-0.051647,0.256548,0.256548,-0.510042,2.89712e-10,-2.33232e-05,1.90445e-05,0.45776,0.2924608024293054,2.897120321421198e-10,-2.332292801632274e-05,0.2924608024293054,1.904468134772408e-05,-0.39952964147241443
343,0.2935,773.901,831.296,0.840669,0.00546627,0.110263,0.0431107,0.257321,0.257321,-0.511584,3.01741e-10,-2.22575e-05,2.08478e-05,0.459152,0.2934602608705035,3.0174107656932847e-10,-2.2257252303647945e-05,0.2934602608705035,2.0848017316943412e-05,-0.4004548532436605
344,0.2945,773.661,831.045,0.594316,0.00545974,0.0923901,0.0113663,0.258094,0.258094,-0.513131,2.98562e-10,-2.23108e-05,2.0641e-05,0.460547,0.2944604921917564,2.985620639606168e-10,-2.2310551115900523e-05,0.2944604921917564,2.0641213026806327e-05,-0.4013816325370777
345,0.2955,773.254,830.627,0.182015,0.00545248,0.0659649,-0.0374192,0.258866,0.258866,-0.514678,2.91921e-10,-2.25972e-05,1.99861e-05,0.461941,0.29546020152988217,2.9192093187191404e-10,-2.259694468520479e-05,0.29546020152988217,1.9986299723440126e-05,-0.4023069792113446
346,0.2965,773.699,831.055,0.618452,0.00544155,0.0951803,0.015302,0.259638,0.259638,-0.516219,2.97628e-10,-2.19353e-05,2.10544e-05,0.463331,0.2964606829415988,2.976279223076972e-10,-2.1935059423050518e-05,0.2964606829415988,2.1054621645477667e-05,-0.4032273148556407
347,0.2975,772.731,830.081,-0.35249,0.00543588,0.030109,-0.102523,0.260409,0.260409,-0.517767,2.81672e-10,-2.29436e-05,1.91068e-05,0.464725,0.2974606395618895,2.8167201904238937e-10,-2.294333679764282e-05,0.2974606395618895,1.9106982536154504e-05,-0.4041504043166678
348,0.2985,772.466,829.803,-0.624085,0.00542487,0.0111728,-0.136246,0.26118,0.26118,-0.519309,2.73327e-10,-2.33368e-05,1.82826e-05,0.466115,0.29846136744601814,2.733269166554919e-10,-2.3336527699036047e-05,0.29846136744601814,1.8282767127786315e-05,-0.4050684963623271
349,0.2995,773.743,831.055,0.640057,0.00540952,0.0957098,0.016452,0.261949,0.261949,-0.520842,2.9093e-10,-2.18413e-05,2.08538e-05,0.467499,0.2994602682657235,2.909299468001336e-10,-2.1841061480509794e-05,0.2994602682657235,2.0854017442006878e-05,-0.4059798276435008
350,0.3005,773.86,831.158,0.749828,0.00540198,0.102918,0.0294141,0.262719,0.262719,-0.52238,2.92469e-10,-2.14759e-05,2.13837e-05,0.468886,0.30046123799617797,2.92468937956869e-10,-2.1475669394477315e-05,0.30046123799617797,2.1383928632934257e-05,-0.4068927284678998
351,0.3015,772.905,830.197,-0.20823,0.00539729,0.0399009,-0.085416,0.263487,0.263487,-0.523922,2.78151e-10,-2.24169e-05,1.95405e-05,0.470275,0.301460375846784,2.7815105774209314e-10,-2.2416648743139866e-05,0.301460375846784,1.9540690916919345e-05,-0.4078065951083426
352,0.3025,773.875,831.146,0.750813,0.00538419,0.103019,0.0291876,0.264255,0.264255,-0.525453,2.90001e-10,-2.12099e-05,2.15952e-05,0.471657,0.3024602813299926,2.900009121731273e-10,-2.120967507168725e-05,0.3024602813299926,2.159543317792334e-05,-0.40871254952616476
353,0.3035,773.769,831.028,0.638883,0.00537732,0.0953824,0.0152817,0.265023,0.265023,-0.526989,2.8854e-10,-2.10969e-05,2.16645e-05,0.473041,0.3034609550355718,2.885400807173255e-10,-2.1096677461973634e-05,0.3034609550355718,2.1664734676907216e-05,-0.40962006989602284
354,0.3045,773.174,830.424,0.0398964,0.00537104,0.0563788,-0.0560879,0.26579,0.26579,-0.528526,2.8005e-10,-2.16123e-05,2.05854e-05,0.474426,0.304461093091998,2.80049983203412e-10,-2.1612066455900525e-05,0.304461093091998,2.0585611880896693e-05,-0.4105267868581073
355,0.3055,774.001,831.231,0.856147,0.0053591,0.11117,0.042677,0.266556,0.266556,-0.530054,2.88902e-10,-2.04949e-05,2.24585e-05,0.475805,0.3054606930872279,2.889020134233533e-10,-2.0494689980998793e-05,0.3054606930872279,2.245875219397675e-05,-0.4114268141318369
356,0.3065,773.769,830.987,0.618079,0.00535265,0.0938061,0.011941,0.267322,0.267322,-0.531587,2.86064e-10,-2.05346e-05,2.22589e-05,0.477187,0.3064610590693895,2.860640613278065e-10,-2.0534389166493305e-05,0.3064610590693895,2.2259147731240603e-05,-0.4123284055793599
357,0.3075,773.304,830.513,0.148259,0.00534569,0.0634277,-0.0438119,0.268087,0.268087,-0.53312,2.79794e-10,-2.08925e-05,2.14597e-05,0.478568,0.30746088416391615,2.7979396577393345e-10,-2.089228175328195e-05,0.30746088416391615,2.145993026103632e-05,-0.41322861594606275
358,0.3085,773.839,831.029,0.673742,0.00533463,0.0987098,0.019693,0.268851,0.268851,-0.534646,2.84316e-10,-2.01167e-05,2.27122e-05,0.479945,0.30846016595645565,2.843159041532317e-10,-2.0116497660538357e-05,0.30846016595645565,2.271245792395682e-05,-0.4141233462252979
359,0.3095,772.702,829.888,-0.465392,0.00532963,0.0221657,-0.118449,0.269615,0.269615,-0.536181,2.69692e-10,-2.13392e-05,2.03678e-05,0.481327,0.3094602114919973,2.6969204647286915e-10,-2.133897232092785e-05,0.3094602114919973,2.0368007425108914e-05,-0.4150219770132644
360,0.3105,772.486,829.658,-0.688296,0.00531828,0.00649646,-0.146179,0.270379,0.270379,-0.537709,2.62961e-10,-2.17026e-05,1.95825e-05,0.482704,0.310461021354264,2.6296098631917175e-10,-2.1702364500275628e-05,0.310461021354264,1.9582691738406766e-05,-0.4159151408814141
361,0.3115,773.812,830.961,0.626007,0.00530299,0.0946383,0.0125335,0.271142,0.271142,-0.539227,2.76482e-10,-2.01393e-05,2.22503e-05,0.484075,0.3114612846654836,2.764819484468717e-10,-2.0139097205662537e-05,0.3114612846654836,2.225054753979272e-05,-0.4168011090775654
362,0.3125,773.957,831.091,0.763393,0.00529559,0.103716,0.0288347,0.271904,0.271904,-0.540751,2.77201e-10,-1.97378e-05,2.2826e-05,0.485449,0.3124609990071898,2.7720092887761894e-10,-1.9737605210901066e-05,0.3124609990071898,2.2826260515085295e-05,-0.4176892272693755
363,0.3135,772.951,830.08,-0.245148,0.00529123,0.0371081,-0.092089,0.272665,0.272665,-0.54228,2.65327e-10,-2.07529e-05,2.08383e-05,0.486826,0.31346016196071824,2.653270936292529e-10,-2.0752684660063636e-05,0.31346016196071824,2.083851711898177e-05,-0.41857890011266585
364,0.3145,773.972,831.079,0.764234,0.00527827,0.103813,0.0286058,0.273427,0.273427,-0.543796,2.74019e-10,-1.94742e-05,2.2998e-05,0.488195,0.31446140002738887,2.7401902968904324e-10,-1.9474010379050277e-05,0.31446140002738887,2.2998264455953432e-05,-0.4194596667103284
365,0.3155,773.883,830.978,0.669788,0.00527165,0.0973155,0.0168058,0.274187,0.274187,-0.545318,2.72475e-10,-1.93343e-05,2.30983e-05,0.489567,0.31546077040404974,2.7247493150639457e-10,-1.9334113093627536e-05,0.31546077040404974,2.3098566767743023e-05,-0.42034257703240285
366,0.3165,773.213,830.3,-0.00446139,0.00526585,0.0531253,-0.0636688,0.274947,0.274947,-0.546842,2.64951e-10,-1.99457e-05,2.18327e-05,0.490939,0.31646090059088827,2.649509500685099e-10,-1.9945501085860684e-05,0.31646090059088827,2.1832938335020202e-05,-0.42122530213762566
367,0.3175,774.159,831.225,0.930538,0.00525383,0.116072,0.0494743,0.275706,0.275706,-0.548355,2.71493e-10,-1.86717e-05,2.39643e-05,0.492305,0.3174604737044471,2.714930502634161e-10,-1.867152568491015e-05,0.3174604737044471,2.396458714604144e-05,-0.4221003261329159
368,0.3185,773.955,831.01,0.721332,0.00524779,0.100564,0.0221822,0.276465,0.276465,-0.549874,2.69202e-10,-1.86559e-05,2.38479e-05,0.493674,0.31846080578198954,2.692019940297996e-10,-1.8655725979810356e-05,0.31846080578198954,2.3848184363517433e-05,-0.4229774893633854
369,0.3195,773.279,830.326,0.0406226,0.00524185,0.05591,-0.059094,0.277223,0.277223,-0.551394,2.6252e-10,-1.92646e-05,2.25832e-05,0.495044,0.3194605779385502,2.6252000573379064e-10,-1.926441443877991e-05,0.3194605779385502,2.258345500227854e-05,-0.4238538973407525
370,0.3205,774.146,831.173,0.897748,0.00522994,0.113646,0.0446011,0.277981,0.277981,-0.552904,2.67105e-10,-1.80765e-05,2.45548e-05,0.496407,0.32046110820969465,2.671050047808876e-10,-1.8076336621097866e-05,0.32046110820969465,2.4555101471479546e-05,-0.42472322145088603
371,0.3215,773.912,830.928,0.658442,0.00522359,0.0961212,0.0136908,0.278738,0.278738,-0.55442,2.646e-10,-1.81094e-05,2.43469e-05,0.497773,0.3214610757085552,2.645998975481234e-10,-1.8109236025853903e-05,0.3214610757085552,2.4347196388108117e-05,-0.4255946803144449
372,0.3225,773.366,830.373,0.107803,0.00521693,0.0601769,-0.0518422,0.279494,0.279494,-0.555936,2.59464e-10,-1.85689e-05,2.33469e-05,0.499139,0.3224604780082607,2.5946400583620743e-10,-1.8568727599088675e-05,0.3224604780082607,2.3347172541043903e-05,-0.4264648190472786
373,0.3235,774.015,831.003,0.747222,0.00520566,0.103264,0.0254509,0.28025,0.28025,-0.557444,2.61609e-10,-1.76439e-05,2.48413e-05,0.5005,0.3234606361417738,2.6160895671978324e-10,-1.7643744347317636e-05,0.3234606361417738,2.484160854754336e-05,-0.4273290582999809
374,0.3245,772.661,829.646,-0.608683,0.00520138,0.0118588,-0.13885,0.281005,0.281005,-0.558963,2.50512e-10,-1.91501e-05,2.19761e-05,0.501867,0.3244602262198326,2.5051205554404987e-10,-1.914991663798382e-05,0.3244602262198326,2.197634147615979e-05,-0.4281982851155218
375,0.3255,772.512,829.484,-0.764533,0.00518953,0.000711049,-0.158349,0.28176,0.28176,-0.560473,2.45646e-10,-1.94684e-05,2.12541e-05,0.503228,0.3254605712733678,2.456459480271178e-10,-1.9468210491924154e-05,0.3254605712733678,2.1254325869968227e-05,-0.4290610541504427
376,0.3265,773.894,830.841,0.605077,0.00517433,0.0928817,0.00697395,0.282514,0.282514,-0.561974,2.53637e-10,-1.78273e-05,2.40298e-05,0.504584,0.3264603454115924,2.5363688926915984e-10,-1.782714109466177e-05,0.3264603454115924,2.403008871798562e-05,-0.4299173906668301
377,0.3275,774.069,831.003,0.773446,0.00516705,0.104074,0.0270217,0.283268,0.283268,-0.56348,2.53106e-10,-1.73861e-05,2.46538e-05,0.505942,0.3274608736637825,2.531059806187841e-10,-1.7385948862691514e-05,0.3274608736637825,2.4654103907506553e-05,-0.43077528891695815
378,0.3285,773.016,829.944,-0.282418,0.00516296,0.0340201,-0.0995986,0.284021,0.284021,-0.564992,2.45008e-10,-1.84784e-05,2.25145e-05,0.507304,0.3284608281372621,2.450080138771682e-10,-1.847822927536491e-05,0.3284608281372621,2.251475345316223e-05,-0.4316353063430979
379,0.3295,774.079,830.986,0.769826,0.00515023,0.103877,0.0262724,0.284773,0.284773,-0.566491,2.49213e-10,-1.71325e-05,2.47653e-05,0.508657,0.32946020639915163,2.4921309460523844e-10,-1.7132353239524e-05,0.32946020639915163,2.476560666253569e-05,-0.43248664677981874
380,0.3305,774.005,830.9,0.689557,0.00514386,0.0983005,0.0161817,0.285525,0.285525,-0.567995,2.47379e-10,-1.69721e-05,2.48812e-05,0.510013,0.33046033647614137,2.473790061685577e-10,-1.6971955974720565e-05,0.33046033647614137,2.4881509539609326e-05,-0.43333954532258523
381,0.3315,773.28,830.168,-0.0389521,0.00513845,0.050275,-0.0708449,0.286277,0.286277,-0.569502,2.42086e-10,-1.76609e-05,2.34611e-05,0.51137,0.33146121893380864,2.420859068763548e-10,-1.766074404718765e-05,0.33146121893380864,2.3461375213695845e-05,-0.4341928594940626
382,0.3325,772.602,829.481,-0.721087,0.00513033,0.00353865,-0.154132,0.287027,0.287027,-0.571008,2.34862e-10,-1.85187e-05,2.17639e-05,0.512727,0.3324601894151127,2.348619076997238e-10,-1.851852852996494e-05,0.3324601894151127,2.1764136835411563e-05,-0.43504432373416246
383,0.3335,774.124,830.978,0.787792,0.00511528,0.105206,0.0279816,0.287778,0.287778,-0.5725,2.41224e-10,-1.667e-05,2.48974e-05,0.514074,0.3334612428658845,2.412239297200358e-10,-1.6669861056306523e-05,0.3334612428658845,2.4897709942850454e-05,-0.4358866091020184
384,0.3345,772.64,829.492,-0.697285,0.00511261,0.00522842,-0.151385,0.288527,0.288527,-0.574008,2.31005e-10,-1.83474e-05,2.17197e-05,0.515431,0.33446037946673846,2.3100499291217602e-10,-1.834723168747665e-05,0.33446037946673846,2.1719935874298102e-05,-0.4367366510028118
385,0.3355,773.944,830.772,0.594241,0.00509831,0.0922641,0.00448531,0.289276,0.289276,-0.575498,2.36234e-10,-1.6774e-05,2.43578e-05,0.516778,0.3354602647012346,2.362339213135556e-10,-1.6773859317198436e-05,0.3354602647012346,2.4358096653687156e-05,-0.4375752884527625
386,0.3365,774.076,830.891,0.719957,0.0050914,0.100606,0.0193732,0.290025,0.290025,-0.576995,2.35037e-10,-1.63871e-05,2.4871e-05,0.518127,0.33646089913030974,2.3503710089300967e-10,-1.638696573225129e-05,0.33646089913030974,2.487130928585657e-05,-0.43841660836088037
387,0.3375,773.143,829.953,-0.215602,0.0050871,0.0385084,-0.092685,0.290773,0.290773,-0.578496,2.29114e-10,-1.7345e-05,2.29647e-05,0.519479,0.33746094585370634,2.2911406105663445e-10,-1.7344849576383936e-05,0.33746094585370634,2.2964963690697004e-05,-0.4392589127241633
388,0.3385,774.047,830.837,0.678229,0.00507531,0.0978215,0.0140129,0.29152,0.29152,-0.579986,-1.65013e-09,-1.61758e-05,2.48826e-05,0.520824,0.3384604024308151,-1.6501300326154933e-09,-1.6175669172446838e-05,0.3384604024308151,2.488290957436412e-05,-0.4400937948025958
389,0.3395,773.925,830.703,0.549992,0.00506898,0.0890334,-0.00182483,0.292267,0.292267,-0.58148,2.28805e-10,-1.61011e-05,2.48328e-05,0.522171,0.3394606058809093,2.288049749665788e-10,-1.610097037796354e-05,0.3394606058809093,2.4833108336563825e-05,-0.4409296701188241
390,0.3405,773.473,830.242,0.0936186,0.00506275,0.0592614,-0.0559339,0.293013,0.293013,-0.582976,2.25384e-10,-1.64736e-05,2.39697e-05,0.523518,0.34046021630122514,2.2538393373849885e-10,-1.647346431099539e-05,0.34046021630122514,2.3969987275496152e-05,-0.441765414040006
391,0.3415,774.057,830.808,0.668352,0.00505265,0.0981458,0.0134902,0.293759,0.293759,-0.584464,2.25044e-10,-1.56184e-05,2.53085e-05,0.524861,0.3414605727091329,2.2504398344835863e-10,-1.5618278033424637e-05,0.3414605727091329,2.53088202628593e-05,-0.44259544940445184
392,0.3425,772.883,829.63,-0.507342,0.00504845,0.0185655,-0.128919,0.294504,0.294504,-0.585961,2.18988e-10,-1.69339e-05,2.27722e-05,0.526209,0.3424603332003433,2.1898793889363333e-10,-1.693375662237262e-05,0.3424603332003433,2.2772459288500357e-05,-0.4434292597539321
393,0.3435,772.755,829.489,-0.642748,0.00503781,0.00875221,-0.145984,0.295249,0.295249,-0.587451,2.1553e-10,-1.71991e-05,2.21231e-05,0.527552,0.3434608387906344,2.1553003826113581e-10,-1.7198952096286746e-05,0.3434608387906344,2.2123344717517313e-05,-0.4442579326422855
394,0.3445,772.693,829.414,-0.710897,0.00502705,0.00440435,-0.153853,0.295993,0.295993,-0.58894,2.12167e-10,-1.73961e-05,2.15857e-05,0.528894,0.3444607455738944,2.121669506749413e-10,-1.7395948688769813e-05,0.3444607455738944,2.158593297285627e-05,-0.4450848168125412
395,0.3455,772.701,829.408,-0.709804,0.0050164,0.00471118,-0.153402,0.296737,0.296737,-0.590427,2.0912e-10,-1.75187e-05,2.118e-05,0.530235,0.34546139656461183,2.0912005460616e-10,-1.7518546548522806e-05,0.34546139656461183,2.1180224297756567e-05,-0.44590936248829693
396,0.3465,772.747,829.44,-0.671012,0.00500612,0.00755493,-0.148428,0.297479,0.297479,-0.591913,2.06325e-10,-1.75898e-05,2.08649e-05,0.531575,0.34646009939379163,2.0632495711936372e-10,-1.758964530040874e-05,0.34646009939379163,2.086511767362964e-05,-0.4467321297081923
397,0.3475,774.293,830.961,0.862389,0.00499309,0.112173,0.0377391,0.298222,0.298222,-0.593389,2.11701e-10,-1.56413e-05,2.41354e-05,0.532908,0.34746089099568067,2.1170110109380857e-10,-1.564117767549611e-05,0.34746089099568067,2.4135691261140124e-05,-0.4475481507130944
398,0.3485,772.709,829.378,-0.721432,0.00499243,0.00426251,-0.154641,0.298964,0.298964,-0.594882,2.02203e-10,-1.74656e-05,2.06966e-05,0.534251,0.34846107800028947,2.0220292107353544e-10,-1.7465447477271745e-05,0.34846107800028947,2.069681417604663e-05,-0.4483723459092682
399,0.3495,772.631,829.286,-0.806289,0.00498246,-0.0012796,-0.164496,0.299705,0.299705,-0.596365,1.98388e-10,-1.77035e-05,2.0083e-05,0.535589,0.3494606579577242,1.9838797271631847e-10,-1.7703343293984375e-05,0.3494606579577242,2.0083201664800043e-05,-0.44918980342571757
400,0.3505,772.682,829.324,-0.762111,0.0049723,0.00196635,-0.158805,0.300446,0.300446,-0.597846,1.95429e-10,-1.77897e-05,1.97364e-05,0.536924,0.35046097887840055,1.954290063110875e-10,-1.7789541764234862e-05,0.35046097887840055,1.9736594764063753e-05,-0.45000494956213755
401,0.3515,772.782,829.41,-0.669208,0.00496252,0.00847114,-0.14731,0.301186,0.301186,-0.599326,1.92969e-10,-1.77979e-05,1.95272e-05,0.538259,0.3514606898502102,1.9296897413312308e-10,-1.7797741618363894e-05,0.3514606898502102,1.952739065691489e-05,-0.45081834017925804
402,0.3525,774.28,830.883,0.815888,0.00495024,0.109905,0.0329569,0.301926,0.301926,-0.600797,1.99893e-10,-1.5899e-05,2.26993e-05,0.539587,0.35246114088192715,1.9989299104850033e-10,-1.589887361153064e-05,0.35246114088192715,2.2699557631122858e-05,-0.45162559252119305
403,0.3535,772.785,829.388,-0.67896,0.00494989,0.00791728,-0.148625,0.302665,0.302665,-0.602284,1.89264e-10,-1.76217e-05,1.94389e-05,0.540925,0.3534609790597427,1.89263937855344e-10,-1.7621544738721795e-05,0.3534609790597427,1.9439088936534787e-05,-0.4524404192912672
404,0.3545,772.713,829.303,-0.757808,0.00494062,0.00277012,-0.15778,0.303403,0.303403,-0.603762,1.85418e-10,-1.78362e-05,1.8861e-05,0.542258,0.35446020193017636,1.8541790325343754e-10,-1.7836040935970132e-05,0.35446020193017636,1.8861177869755608e-05,-0.45324911457852224
405,0.3555,772.751,829.328,-0.726209,0.00493111,0.00516231,-0.153616,0.304141,0.304141,-0.605237,1.82392e-10,-1.79216e-05,1.85099e-05,0.543588,0.3554601624992655,1.8239210142212414e-10,-1.7921439409041007e-05,0.3554601624992655,1.851007130926341e-05,-0.4540549776643885
406,0.3565,774.388,830.939,0.897344,0.00491838,0.116073,0.0433542,0.304879,0.304879,-0.606703,1.91127e-10,-1.58403e-05,2.19981e-05,0.544913,0.3564608613116331,1.9112689209066502e-10,-1.58401745431469e-05,0.3564608613116331,2.1998341960038914e-05,-0.4548547466931987
407,0.3575,772.731,829.283,-0.758944,0.00491885,0.00306116,-0.1577,0.305616,0.305616,-0.608187,1.78642e-10,-1.77628e-05,1.83804e-05,0.546247,0.3574609414506833,1.786419900895453e-10,-1.776264224240265e-05,0.3574609414506833,1.8380568920672857e-05,-0.4556631422712293
408,0.3585,774.094,830.623,0.59225,0.00490606,0.0945559,0.00524507,0.306352,0.306352,-0.609652,1.85835e-10,-1.60724e-05,2.11824e-05,0.547571,0.3584604004593894,1.8583490302148675e-10,-1.6072270839662117e-05,0.3584604004593894,2.1182624348581314e-05,-0.4564600119182636
409,0.3595,774.246,830.762,0.737716,0.00490073,0.104261,0.0224942,0.307088,0.307088,-0.611123,1.85189e-10,-1.56387e-05,2.17463e-05,0.548897,0.35946059534069374,1.8518897526575984e-10,-1.5638577716137192e-05,0.35946059534069374,2.17465364524827e-05,-0.4572589714619191
410,0.3605,773.257,829.77,-0.252838,0.00489815,0.0380785,-0.0961685,0.307823,0.307823,-0.612599,1.78265e-10,-1.66792e-05,1.96747e-05,0.550226,0.3604601661755513,1.7826495835038259e-10,-1.667906090296878e-05,0.3604601661755513,1.967489354814944e-05,-0.45805946630951555
411,0.3615,774.195,830.688,0.675131,0.00488743,0.100037,0.0146106,0.308558,0.308558,-0.614063,1.81406e-10,-1.54312e-05,2.16922e-05,0.551548,0.3614604719650356,1.8140600133165208e-10,-1.543108093959855e-05,0.3614604719650356,2.169243527738729e-05,-0.45885228676466117
412,0.3625,774.085,830.566,0.559015,0.00488222,0.0920103,0.000230803,0.309292,0.309292,-0.615533,1.79529e-10,-1.53284e-05,2.16634e-05,0.552873,0.3624601507887042,1.795290582862208e-10,-1.5328282520710168e-05,0.3624601507887042,2.166363465305743e-05,-0.4596471895064598
413,0.3635,773.593,830.067,0.0635405,0.00487719,0.0593895,-0.058604,0.310026,0.310026,-0.617003,1.75751e-10,-1.575e-05,2.06891e-05,0.554197,0.3634605636459869,1.7575096933342138e-10,-1.574987596941746e-05,0.3634605636459869,2.0689314020883032e-05,-0.4604409245996599
414,0.3645,774.233,830.69,0.694787,0.00486778,0.102304,0.0176026,0.310759,0.310759,-0.618466,1.76486e-10,-1.4793e-05,2.2172e-05,0.555517,0.36446034661483306,1.7648593697572323e-10,-1.4792890584147678e-05,0.36446034661483306,2.2172245800700097e-05,-0.4612297223807006
415,0.3655,772.968,829.421,-0.572247,0.00486487,0.0161226,-0.135728,0.311492,0.311492,-0.619938,1.68983e-10,-1.62466e-05,1.93759e-05,0.556843,0.3654608626932474,1.6898304977530643e-10,-1.624646802467211e-05,0.3654608626932474,1.937608771407362e-05,-0.462022208816244
416,0.3665,772.906,829.346,-0.641013,0.00485475,0.0108328,-0.144669,0.312224,0.312224,-0.621403,1.65832e-10,-1.64298e-05,1.88469e-05,0.558163,0.3664607459573668,1.658320147868153e-10,-1.642966503156984e-05,0.3664607459573668,1.88470776039118e-05,-0.4628097692514527
417,0.3675,774.455,830.87,0.895377,0.00484129,0.116099,0.0417569,0.312956,0.312956,-0.622857,1.70934e-10,-1.44172e-05,2.21905e-05,0.559477,0.36746136140398145,1.7093393367417775e-10,-1.4417096072638635e-05,0.36746136140398145,2.219074621101491e-05,-0.4635902762808438
418,0.3685,772.846,829.263,-0.712444,0.00484038,0.00609539,-0.153405,0.313687,0.313687,-0.624328,1.61967e-10,-1.62967e-05,1.86452e-05,0.560801,0.3684613411072202,1.619671063934902e-10,-1.6296567209472812e-05,0.3684613411072202,1.864537382290088e-05,-0.4643787549162198
419,0.3695,772.802,829.205,-0.763758,0.00483013,0.00279702,-0.15922,0.314417,0.314417,-0.62579,1.58684e-10,-1.64804e-05,1.81059e-05,0.562118,0.3694606826014948,1.586839548650687e-10,-1.648026419898141e-05,0.3694606826014948,1.81060639128372e-05,-0.4651612610251864
420,0.3705,772.878,829.267,-0.694566,0.0048199,0.0077461,-0.150532,0.315147,0.315147,-0.627249,1.56231e-10,-1.65113e-05,1.7834e-05,0.563435,0.37046075388139954,1.5623102811446188e-10,-1.6511163689281183e-05,0.37046075388139954,1.7834159026675067e-05,-0.4659410217715644
421,0.3715,774.415,830.78,0.830011,0.00480703,0.112242,0.0343544,0.315876,0.315876,-0.628699,1.62424e-10,-1.45187e-05,2.11343e-05,0.564745,0.3714601840190026,1.6242407419042593e-10,-1.4518594604218116e-05,0.3714601840190026,2.113452333096788e-05,-0.46671484613175396
422,0.3725,772.906,829.271,-0.678944,0.00480642,0.00890232,-0.148796,0.316605,0.316605,-0.630166,1.52981e-10,-1.62856e-05,1.77872e-05,0.566064,0.37246034300680986,1.529809612321742e-10,-1.6285467390297903e-05,0.37246034300680986,1.7787358193244174e-05,-0.4674966018944261
423,0.3735,772.872,829.224,-0.719917,0.00479691,0.00630095,-0.153383,0.317334,0.317334,-0.631623,1.49793e-10,-1.64431e-05,1.72896e-05,0.567378,0.37346123137634635,1.4979306683926552e-10,-1.644296481295715e-05,0.37346123137634635,1.7289749465909665e-05,-0.46827189440771766
424,0.3745,774.528,830.855,0.923976,0.0047838,0.119017,0.04594,0.318061,0.318061,-0.633069,1.56774e-10,-1.42849e-05,2.0877e-05,0.568685,0.3744601007365751,1.5677392717350358e-10,-1.4284797971275687e-05,0.3744601007365751,2.0877217925985292e-05,-0.4690402176168489
425,0.3755,772.849,829.177,-0.754668,0.00478404,0.00405459,-0.157697,0.318789,0.318789,-0.634534,1.4632e-10,-1.62632e-05,1.7154e-05,0.570002,0.3754610719992426,1.463200671736331e-10,-1.626306775492914e-05,0.3754610719992426,1.7154147130771236e-05,-0.4698175041966013
426,0.3765,772.833,829.148,-0.777706,0.00477431,0.00266949,-0.160094,0.319516,0.319516,-0.635987,1.43137e-10,-1.64156e-05,1.66632e-05,0.571313,0.3764613957722194,1.4313705776203278e-10,-1.6415465264763007e-05,0.3764613957722194,1.6663338831879315e-05,-0.4705872999709402
427,0.3775,772.939,829.241,-0.678009,0.0047646,0.00969696,-0.147738,0.320242,0.320242,-0.637439,1.40965e-10,-1.6403e-05,1.64603e-05,0.572622,0.3774610695832348,1.4096501743665613e-10,-1.640286547155423e-05,0.3774610695832348,1.6460435471543633e-05,-0.47135544939993923
428,0.3785,774.418,830.696,0.788683,0.00475239,0.110379,0.030089,0.320967,0.320967,-0.638882,1.48064e-10,-1.4466e-05,1.96488e-05,0.573925,0.3784600909601725,1.480640055007143e-10,-1.4465895367909987e-05,0.3784600909601725,1.9648993038856588e-05,-0.47211773336630136
429,0.3795,772.995,829.272,-0.634959,0.00475195,0.0127067,-0.142709,0.321693,0.321693,-0.640341,1.38131e-10,-1.61353e-05,1.64716e-05,0.575238,0.3794612163507538,1.3813106214399795e-10,-1.6135169826791973e-05,0.3794612163507538,1.6471735657441755e-05,-0.4728873520199893
430,0.3805,772.964,829.229,-0.671715,0.00474303,0.0103868,-0.146803,0.322417,0.322417,-0.641791,1.35044e-10,-1.62705e-05,1.60057e-05,0.576545,0.3804603078988906,1.3504397600172524e-10,-1.627036763618417e-05,0.3804603078988906,1.6005828091802954e-05,-0.4736511115001202
431,0.3815,774.526,830.767,0.878227,0.00473058,0.11685,0.0411271,0.323141,0.323141,-0.64323,1.42687e-10,-1.42078e-05,1.94103e-05,0.577845,0.38146012305122134,1.4268697334784974e-10,-1.4207699069679336e-05,0.38146012305122134,1.9410488381055302e-05,-0.47440798285112873
432,0.3825,772.953,829.194,-0.695121,0.00473076,0.00888916,-0.149765,0.323865,0.323865,-0.644686,1.31868e-10,-1.60638e-05,1.59017e-05,0.579156,0.38246066233182496,1.3186807201748252e-10,-1.606367097783945e-05,0.38246066233182496,1.5901826432740407e-05,-0.4751726879876642
433,0.3835,772.935,829.163,-0.719742,0.00472154,0.00739071,-0.152377,0.324588,0.324588,-0.646133,1.28782e-10,-1.61975e-05,1.54359e-05,0.58046,0.38346054280392616,1.2878209609823443e-10,-1.6197368821191382e-05,0.38346054280392616,1.5436019134007495e-05,-0.4759315639289907
434,0.3845,774.568,830.772,0.900709,0.00470873,0.118713,0.0440141,0.325311,0.325311,-0.647569,1.37106e-10,-1.40423e-05,1.8998e-05,0.581757,0.3844611464510048,1.37106104247664e-10,-1.4042201407327148e-05,0.3844611464510048,1.899818046324775e-05,-0.47668358612202566
435,0.3855,772.941,829.146,-0.725397,0.00470913,0.00710805,-0.153196,0.326033,0.326033,-0.649022,1.25804e-10,-1.59695e-05,1.53626e-05,0.583065,0.38546108833432435,1.2580403385697991e-10,-1.596937248826702e-05,0.38546108833432435,1.5362718005285103e-05,-0.47744341272368485
436,0.3865,772.938,829.131,-0.734611,0.00469979,0.00666063,-0.153935,0.326754,0.326754,-0.650465,1.22817e-10,-1.60886e-05,1.49198e-05,0.584366,0.3864603659753143,1.228170898315284e-10,-1.6088470579211922e-05,0.3864603659753143,1.4919911300870226e-05,-0.4781969180942509
437,0.3875,774.582,830.75,0.896984,0.0046869,0.118796,0.0437533,0.327475,0.327475,-0.651898,1.31488e-10,-1.39136e-05,1.85108e-05,0.585661,0.3874603643552783,1.3148793165385086e-10,-1.3913503206341993e-05,0.3874603643552783,1.851097132599122e-05,-0.47894412640799966
438,0.3885,772.96,829.129,-0.724581,0.00468732,0.00744791,-0.152862,0.328196,0.328196,-0.653348,1.20033e-10,-1.58399e-05,1.48761e-05,0.586965,0.388461083994057,1.2003309457497835e-10,-1.5839774549442076e-05,0.388461083994057,1.4876210649772403e-05,-0.4796991099293757
439,0.3895,772.964,829.121,-0.726815,0.004678,0.00746988,-0.152771,0.328916,0.328916,-0.654788,1.17133e-10,-1.59475e-05,1.44504e-05,0.588264,0.3894611359500346,1.1713296999005252e-10,-1.594737283927561e-05,0.3894611359500346,1.4450504407514941e-05,-0.4804478040219564
440,0.3905,774.587,830.719,0.883126,0.00466521,0.118187,0.0422751,0.329635,0.329635,-0.656218,1.25918e-10,-1.3792e-05,1.80013e-05,0.589556,0.39046051774148327,1.2591794273930645e-10,-1.3791904890814166e-05,0.39046051774148327,1.8001462024352932e-05,-0.4811902326991848
441,0.3915,772.995,829.127,-0.708427,0.00466555,0.00882303,-0.150694,0.330354,0.330354,-0.657665,1.14497e-10,-1.56849e-05,1.44247e-05,0.590857,0.39146061834682255,1.1449707848498747e-10,-1.5684776992652694e-05,0.39146061834682255,1.4424804036572425e-05,-0.48194040755007095
442,0.3925,773.001,829.121,-0.708866,0.00465633,0.00895966,-0.150405,0.331072,0.331072,-0.659102,1.11671e-10,-1.5784e-05,1.40109e-05,0.592153,0.3924600458223235,1.1167089475350167e-10,-1.5783875433328376e-05,0.3924600458223235,1.4010998153013432e-05,-0.4826843245520417
443,0.3935,774.588,830.683,0.86575,0.00464369,0.117329,0.0403621,0.33179,0.33179,-0.660529,1.20439e-10,-1.36643e-05,1.74928e-05,0.593442,0.3934601911444282,1.204389921127813e-10,-1.3664206643837495e-05,0.3934601911444282,1.749295299990905e-05,-0.4834220075589002
444,0.3945,773.035,829.132,-0.686305,0.00464392,0.0105977,-0.147819,0.332508,0.332508,-0.661972,1.09154e-10,-1.55113e-05,1.39964e-05,0.594741,0.39446105482873506,1.0915401915667644e-10,-1.55111797004448e-05,0.39446105482873506,1.399649794997515e-05,-0.48416689203858765
445,0.3955,773.041,829.124,-0.687636,0.00463482,0.0106792,-0.147634,0.333225,0.333225,-0.663406,1.06394e-10,-1.56038e-05,1.3591e-05,0.596034,0.395461241929274,1.063940047174583e-10,-1.560367826136666e-05,0.395461241929274,1.359109235798961e-05,-0.4849060666005762
446,0.3965,774.588,830.648,0.847973,0.00462235,0.116438,0.0383968,0.333941,0.333941,-0.66483,1.15073e-10,-1.35245e-05,1.69959e-05,0.59732,0.39646074995966996,1.15073062190163e-10,-1.3524408544407507e-05,0.39646074995966996,1.6996044431172308e-05,-0.4856390383619843
447,0.3975,773.077,829.137,-0.662952,0.00462245,0.012439,-0.144827,0.334657,0.334657,-0.666271,1.03975e-10,-1.53236e-05,1.35832e-05,0.598616,0.39746097389407864,1.0397505079140501e-10,-1.5323482594253868e-05,0.39746097389407864,1.3583292252095092e-05,-0.48637969873374287
448,0.3985,773.081,829.128,-0.665727,0.00461348,0.0124283,-0.144812,0.335372,0.335372,-0.667701,1.01282e-10,-1.54099e-05,1.31855e-05,0.599906,0.39846051578405617,1.0128209382287423e-10,-1.540978126812753e-05,0.39846051578405617,1.3185586928976534e-05,-0.48711365086370917
449,0.3995,774.589,830.613,0.830212,0.00460119,0.115534,0.0364161,0.336087,0.336087,-0.669122,1.09827e-10,-1.33721e-05,1.65118e-05,0.60119,0.39946077260204116,1.0982703635420421e-10,-1.3372010593815098e-05,0.39946077260204116,1.651193632046244e-05,-0.48784194479044685
450,0.4005,773.119,829.143,-0.6396,0.00460115,0.0142834,-0.14183,0.336801,0.336801,-0.67056,9.89578e-11,-1.51226e-05,1.31837e-05,0.602483,0.40046034439834544,9.8957730898519e-11,-1.5122485654051054e-05,0.40046034439834544,1.3183786905290873e-05,-0.48857789879608826
451,0.4015,773.121,829.132,-0.644042,0.0045923,0.0141452,-0.142046,0.337515,0.337515,-0.671987,9.63291e-11,-1.52034e-05,1.27924e-05,0.603771,0.40146063014376177,9.632916686541648e-11,-1.520328442894403e-05,0.40146063014376177,1.279248182317616e-05,-0.4893071776702752
452,0.4025,774.59,830.578,0.813223,0.00458019,0.114658,0.0344899,0.338228,0.338228,-0.673405,1.04708e-10,-1.32063e-05,1.60417e-05,0.605052,0.40246022788730285,1.0470802003226254e-10,-1.3206212797212125e-05,0.40246022788730285,1.604182866876691e-05,-0.4900308269037773
453,0.4035,773.159,829.148,-0.617092,0.00458001,0.016055,-0.138962,0.338941,0.338941,-0.674839,9.40911e-11,-1.491e-05,1.27951e-05,0.606342,0.40346053859817776,9.409117929237709e-11,-1.4909888846448283e-05,0.40346053859817776,1.2795181857594429e-05,-0.4907615986094571
454,0.4045,773.159,829.135,-0.623564,0.00457127,0.015792,-0.139404,0.339653,0.339653,-0.676264,9.15277e-11,-1.49856e-05,1.24098e-05,0.607627,0.4044601583240528,9.15276743285176e-11,-1.4985487716501211e-05,0.4044601583240528,1.2409877001795522e-05,-0.4914867465408289
455,0.4055,774.591,830.545,0.796958,0.00455932,0.113836,0.0326667,0.340365,0.340365,-0.677679,9.97199e-11,-1.30272e-05,1.55858e-05,0.608905,0.4054604900326084,9.972001002722664e-11,-1.302711514639121e-05,0.4054604900326084,1.558592145922688e-05,-0.49220578395552983
456,0.4065,773.199,829.152,-0.595837,0.00455901,0.0177427,-0.136242,0.341076,0.341076,-0.67911,8.93721e-11,-1.46864e-05,1.24164e-05,0.610193,0.40646012777012563,8.93720653039054e-11,-1.4686292155396963e-05,0.40646012777012563,1.2416477083831978e-05,-0.4929319178060071
457,0.4075,773.197,829.138,-0.603907,0.00455038,0.0173624,-0.136896,0.341787,0.341787,-0.680532,8.68748e-11,-1.4757e-05,1.20368e-05,0.611474,0.40746047650280337,8.687472963231357e-11,-1.4756891115963455e-05,0.40746047650280337,1.203687244255569e-05,-0.4936524561946768
458,0.4085,774.593,830.512,0.781044,0.00453859,0.113026,0.0308712,0.342497,0.342497,-0.681944,9.4861e-11,-1.28359e-05,1.51418e-05,0.61275,0.4084601282755058,9.486100793765218e-11,-1.283581762023811e-05,0.4084601282755058,1.5141914637695209e-05,-0.49436691440033287
459,0.4095,774.637,830.545,0.819572,0.00453452,0.11453,0.0339919,0.343207,0.343207,-0.683363,9.43157e-11,-1.24742e-05,1.55235e-05,0.61403,0.409460490052989,9.43156663879563e-11,-1.2474122197514426e-05,0.409460490052989,1.5523620490176526e-05,-0.4950838989279688
460,0.4105,773.566,829.47,-0.253364,0.00453295,0.0419477,-0.0944874,0.343916,0.343916,-0.684788,8.74683e-11,-1.3647e-05,1.31867e-05,0.615313,0.4104601518786779,8.746825486127818e-11,-1.3646906880104837e-05,0.4104601518786779,1.3186786944840989e-05,-0.4958028919677884
461,0.4115,774.456,830.342,0.62722,0.0045228,0.101314,0.0103874,0.344625,0.344625,-0.686201,9.10346e-11,-1.23743e-05,1.5167e-05,0.616588,0.41146052271591604,9.103451326097911e-11,-1.2374223438693654e-05,0.41146052271591604,1.516711501947654e-05,-0.49651481938626574
462,0.4125,773.126,829.01,-0.703834,0.00452112,0.0109576,-0.149032,0.345333,0.345333,-0.687625,8.1744e-11,-1.39744e-05,1.20847e-05,0.61787,0.41246019060667405,8.174394494631088e-11,-1.397430235849928e-05,0.41246019060667405,1.2084773020282213e-05,-0.49723127204809736
463,0.4135,773.232,829.103,-0.603816,0.00451143,0.0173351,-0.137442,0.346041,0.346041,-0.68904,8.01154e-11,-1.39315e-05,1.19048e-05,0.619145,0.41346056651290675,8.01154698137907e-11,-1.3931402957134686e-05,0.41346056651290675,1.1904870862444739e-05,-0.4979421867074103
464,0.4145,774.547,830.396,0.699632,0.00449952,0.107496,0.0204327,0.346748,0.346748,-0.690447,8.65312e-11,-1.21146e-05,1.48168e-05,0.620416,0.41446023647512265,8.653122662849455e-11,-1.2114526618534072e-05,0.41446023647512265,1.4816909769344022e-05,-0.49864808533457616
465,0.4155,774.588,830.426,0.735282,0.00449492,0.108883,0.0233055,0.347455,0.347455,-0.69186,8.58313e-11,-1.17766e-05,1.51497e-05,0.621691,0.4154606134539027,8.583134203377085e-11,-1.177653065609352e-05,0.4154606134539027,1.5149814757364766e-05,-0.4993559953338014
466,0.4165,773.661,829.495,-0.194536,0.00449252,0.0460135,-0.0878843,0.348161,0.348161,-0.693278,8.04443e-11,-1.27757e-05,1.31152e-05,0.622967,0.4164602814882947,8.044431787368467e-11,-1.277561839108099e-05,0.4164602814882947,1.3115286004561355e-05,-0.5000654054417824
467,0.4175,773.073,828.9,-0.785636,0.00448617,0.00492975,-0.159593,0.348867,0.348867,-0.694693,7.44749e-11,-1.35802e-05,1.14459e-05,0.624242,0.4174606555375131,7.447487071488013e-11,-1.3580107789512574e-05,0.4174606555375131,1.1445965504508493e-05,-0.5007723126382919
468,0.4185,774.504,830.307,0.63327,0.00447322,0.102169,0.0110347,0.349572,0.349572,-0.696095,-1.51035e-09,-1.16597e-05,1.45428e-05,0.625509,0.41846031763915303,-1.5103499562130196e-09,-1.1659632025984301e-05,0.41846031763915303,1.4542905746983692e-05,-0.5014717394432164
469,0.4195,774.632,830.424,0.755757,0.0044681,0.110348,0.0253992,0.350277,0.350277,-0.697504,8.05823e-11,-1.12004e-05,1.50767e-05,0.626779,0.4194606847510618,8.058220757334311e-11,-1.120033727575187e-05,0.4194606847510618,1.5076813653980281e-05,-0.5021736711353362
470,0.4205,773.608,829.396,-0.270443,0.00446597,0.040816,-0.0973712,0.350981,0.350981,-0.698919,7.52011e-11,-1.23368e-05,1.27997e-05,0.628053,0.4204603369093991,7.52011786175899e-11,-1.2336723901995583e-05,0.4204603369093991,1.279978191659481e-05,-0.5028775972455051
471,0.4215,774.49,830.26,0.602369,0.00445572,0.0998103,0.0065841,0.351685,0.351685,-0.700321,7.76414e-11,-1.10648e-05,1.47638e-05,0.629319,0.42146069307063616,7.7641448825716e-11,-1.1064738785315775e-05,0.42146069307063616,1.4763908985360175e-05,-0.5035740745095216
472,0.4225,773.207,828.975,-0.681585,0.00445371,0.012487,-0.147121,0.352388,0.352388,-0.701735,7.03746e-11,-1.26209e-05,1.17557e-05,0.630592,0.42246033126952254,7.03745950403345e-11,-1.2620820356801232e-05,0.42246033126952254,1.1755769098620306e-05,-0.5042755247259891
473,0.4235,774.724,830.469,0.823377,0.00444073,0.115122,0.0331859,0.353091,0.353091,-0.703132,7.54861e-11,-1.0547e-05,1.51191e-05,0.631854,0.4234606724611356,7.548606184570872e-11,-1.054694438062942e-05,0.4234606724611356,1.5119214294090355e-05,-0.5049675683129515
474,0.4245,773.284,829.029,-0.616562,0.00443993,0.0163398,-0.140186,0.353793,0.353793,-0.704545,6.84861e-11,-1.22833e-05,1.18016e-05,0.633125,0.42446029267884855,6.848610567544711e-11,-1.2283224560594164e-05,0.42446029267884855,1.1801669639099899e-05,-0.5056665551883999
475,0.4255,773.318,829.05,-0.589048,0.00443075,0.0183967,-0.136551,0.354495,0.354495,-0.705948,6.66612e-11,-1.23067e-05,1.14881e-05,0.63439,0.42546061487632003,6.666112106756827e-11,-1.2306624272873101e-05,0.42546061487632003,1.1488165988504662e-05,-0.5063596187137216
476,0.4265,774.646,830.357,0.728488,0.00441893,0.109706,0.0229068,0.355196,0.355196,-0.707343,7.10711e-11,-1.04409e-05,1.44654e-05,0.63565,0.426460213085587,7.107114896598432e-11,-1.0440845493953077e-05,0.426460213085587,1.4465504624361358e-05,-0.5070477669506246
477,0.4275,774.672,830.372,0.748734,0.00441446,0.11002,0.0238993,0.355897,0.355897,-0.708745,7.01388e-11,-1.01133e-05,1.47672e-05,0.636914,0.42746051225885795,7.013878366990411e-11,-1.0113248860799118e-05,0.42746051225885795,1.4767309035601528e-05,-0.5077384017332509
478,0.4285,773.728,829.424,-0.197416,0.00441211,0.0458602,-0.0892294,0.356597,0.356597,-0.710151,6.61809e-11,-1.11455e-05,1.26685e-05,0.63818,0.4284600844268822,6.618083858711543e-11,-1.114543788915956e-05,0.4284600844268822,1.2668580245733807e-05,-0.5084300352081439
479,0.4295,773.151,828.839,-0.778358,0.0044058,0.0053768,-0.15969,0.357297,0.357297,-0.711554,6.14694e-11,-1.19449e-05,1.10008e-05,0.639444,0.4294603565403763,6.146949615981612e-11,-1.1944828659959938e-05,0.4294603565403763,1.1000860508980637e-05,-0.5091192242895558
480,0.4305,774.55,830.216,0.609874,0.00439309,0.100757,0.00721165,0.357997,0.357997,-0.712945,6.58579e-11,-1.00402e-05,1.40495e-05,0.6407,0.43046132908947365,6.585798573155444e-11,-1.0040149597378978e-05,0.43046132908947365,1.4049598694665377e-05,-0.5098015647707437
481,0.4315,774.669,830.324,0.723044,0.00438799,0.108298,0.0204173,0.358695,0.358695,-0.714342,6.5031e-11,-9.59594e-06,1.45438e-05,0.64196,0.43146013964150876,6.503109162281362e-11,-9.59589395910232e-06,0.43146013964150876,1.4543905761499332e-05,-0.5104858938695882
482,0.4325,773.704,829.354,-0.244502,0.00438564,0.0426404,-0.0951992,0.359394,0.359394,-0.715744,6.13825e-11,-1.06707e-05,1.23694e-05,0.643223,0.43246108006704187,6.13824546746855e-11,-1.0670643068255714e-05,0.43246108006704187,1.236947650129494e-05,-0.5111717117756938
483,0.4335,773.147,828.789,-0.805904,0.00437918,0.00354004,-0.163175,0.360092,0.360092,-0.717143,5.70211e-11,-1.14564e-05,1.07232e-05,0.644483,0.43346128693251584,5.702105454474804e-11,-1.1456334375714583e-05,0.43346128693251584,1.0723257493738814e-05,-0.511855104406313
484,0.4345,774.571,830.191,0.606893,0.00436643,0.100635,0.00656418,0.360789,0.360789,-0.71853,6.09569e-11,-9.51593e-06,1.38278e-05,0.645736,0.43446075772461623,6.095679516704422e-11,-9.515884723643175e-06,0.43446075772461623,1.3827895604556772e-05,-0.5125316920545009
485,0.4355,774.7,830.308,0.730081,0.00436138,0.108901,0.0210313,0.361486,0.361486,-0.719923,-1.52213e-09,-9.05537e-06,1.43463e-05,0.646992,0.43546092539069114,-1.5221299776158048e-09,-9.055329000307033e-06,0.43546092539069114,1.4346402908760325e-05,-0.5132102626733053
486,0.4365,773.714,829.319,-0.257901,0.00435917,0.0417628,-0.0970623,0.362182,0.362182,-0.721321,5.68071e-11,-1.01628e-05,1.21129e-05,0.648251,0.4364603539555587,5.680700354560031e-11,-1.0162748358966134e-05,0.4364603539555587,1.2112973361455559e-05,-0.5138903192557781
487,0.4375,773.159,828.756,-0.81677,0.00435275,0.00282063,-0.164697,0.362878,0.362878,-0.722716,5.27594e-11,-1.09511e-05,1.04602e-05,0.649508,0.43746047836483304,5.2759352442421914e-11,-1.0951040036899506e-05,0.43746047836483304,1.0460254708188899e-05,-0.5145679694894847
488,0.4385,774.592,830.166,0.604848,0.00434004,0.100572,0.00603111,0.363574,0.363574,-0.724099,5.61772e-11,-8.9924e-06,1.35898e-05,0.650757,0.4384612991029908,5.617728504603292e-11,-8.992359568527064e-06,0.4384612991029908,1.3589892341681065e-05,-0.5152388579613689
489,0.4395,774.723,830.286,0.730467,0.00433505,0.108996,0.020764,0.364269,0.364269,-0.725488,5.5213e-11,-8.52729e-06,1.4112e-05,0.65201,0.43946137719274825,5.521294532684351e-11,-8.527253642753863e-06,0.43946137719274825,1.4112099574692394e-05,-0.5159117237741724
490,0.4405,773.734,829.293,-0.260919,0.0043329,0.0416026,-0.0976605,0.364963,0.364963,-0.726883,5.23826e-11,-9.64364e-06,1.18614e-05,0.653266,0.4404607101169351,5.2382542747864136e-11,-9.643593500308079e-06,0.4404607101169351,1.1861470346596903e-05,-0.5165865561145133
491,0.4415,773.184,828.736,-0.814449,0.00432655,0.00299465,-0.164653,0.365657,0.365657,-0.728274,4.86806e-11,-1.04277e-05,1.02138e-05,0.654519,0.44146073681888454,4.8680615094554014e-11,-1.0427645631749805e-05,0.44146073681888454,1.0213852160934067e-05,-0.5172585167579835
492,0.4425,774.606,830.136,0.596253,0.00431398,0.100108,0.00480744,0.366351,0.366351,-0.729653,5.15243e-11,-8.47462e-06,1.3327e-05,0.655765,0.44246145778024526,5.152434034982889e-11,-8.474584090478743e-06,0.44246145778024526,1.3327088804748755e-05,-0.5179237584737904
493,0.4435,774.735,830.253,0.719681,0.00430902,0.108367,0.0192373,0.367044,0.367044,-0.731039,5.04935e-11,-8.01352e-06,1.38381e-05,0.657014,0.4434614300208486,5.0493609293766895e-11,-8.013487891811444e-06,0.4434614300208486,1.3838195746851412e-05,-0.518591453325127
494,0.4445,773.765,829.279,-0.252612,0.00430686,0.0421927,-0.0969406,0.367736,0.367736,-0.732429,4.8112e-11,-9.11031e-06,1.16201e-05,0.658267,0.44446065102101495,4.811195886134101e-11,-9.110268501255625e-06,0.44446065102101495,1.1620167513548552e-05,-0.5192601463556838
495,0.4455,773.225,828.731,-0.79661,0.00430058,0.00425855,-0.162699,0.368428,0.368428,-0.733817,4.4797e-11,-9.87972e-06,9.99568e-06,0.659516,0.44546056372141396,4.4797054954415216e-11,-9.879671195700546e-06,0.44546056372141396,9.995729957079647e-06,-0.5199269504034807
496,0.4465,774.614,830.099,0.581816,0.00428823,0.0992089,0.00283617,0.36912,0.36912,-0.735192,4.70124e-11,-7.96045e-06,1.30436e-05,0.660759,0.44646116860086793,4.7012393977752254e-11,-7.960418315744455e-06,0.44646116860086793,1.3043685068048205e-05,-0.5205865972355501
497,0.4475,774.734,830.207,0.695309,0.0042833,0.106757,0.0160081,0.369811,0.369811,-0.736574,4.59278e-11,-7.51691e-06,1.35199e-05,0.662005,0.4474610186767882,4.5927706082693476e-11,-7.516881748048654e-06,0.4474610186767882,1.3519991394206343e-05,-0.5212486889474188
498,0.4485,773.809,829.279,-0.231119,0.004281,0.0437594,-0.0945076,0.370501,0.370501,-0.73796,4.40005e-11,-8.55604e-06,1.14008e-05,0.663253,0.448460111427035,4.400058095654913e-11,-8.556003397219847e-06,0.448460111427035,1.1400864989408177e-05,-0.5219117786372334
499,0.4495,773.286,828.747,-0.758819,0.00427481,0.00686568,-0.158404,0.371192,0.371192,-0.739344,4.11144e-11,-9.29874e-06,9.82047e-06,0.6645,0.4494613432497869,4.111444518173357e-11,-9.29869676680184e-06,0.4494613432497869,9.820518221070884e-06,-0.5225729950682849
500,0.4505,773.232,828.682,-0.818468,0.00426612,0.00303692,-0.165077,0.371881,0.371881,-0.740723,3.92236e-11,-9.48489e-06,9.20209e-06,0.665744,0.4504603662391844,3.9223513326192005e-11,-9.484845018614685e-06,0.4504603662391844,9.202132339458657e-06,-0.5232309131692947
501,0.4515,774.984,830.41,0.921849,0.00425343,0.123911,0.0449669,0.37257,0.37257,-0.742092,4.14989e-11,-7.00441e-06,1.3208e-05,0.66698,0.45146007779260455,4.14988043928588e-11,-7.004385469189245e-06,0.45146007779260455,1.3208087225935472e-05,-0.5238831634819585
502,0.4525,773.365,828.793,-0.696422,0.00425426,0.0114873,-0.150621,0.373259,0.373259,-0.743479,3.79324e-11,-9.04037e-06,9.37142e-06,0.668228,0.45246047838463177,3.793232394855295e-11,-9.040329135956426e-06,0.45246047838463177,9.371463912000166e-06,-0.524543079776465
503,0.4535,773.467,828.882,-0.600751,0.0042456,0.018256,-0.138765,0.373947,0.373947,-0.744855,3.68463e-11,-8.97848e-06,9.1828e-06,0.669469,0.45346011502933514,3.684630378586462e-11,-8.978439693607676e-06,0.45346011502933514,9.182842162003269e-06,-0.5251968585957107
504,0.4545,774.742,830.137,0.663648,0.00423481,0.106324,0.0140591,0.374635,0.374635,-0.746223,3.84383e-11,-7.13464e-06,1.20774e-05,0.670705,0.4544604396606904,3.8438363603177095e-11,-7.134614548487406e-06,0.4544604396606904,1.2077472932192634e-05,-0.5258459452166767
505,0.4555,774.759,830.144,0.676034,0.00423085,0.106124,0.0141199,0.375322,0.375322,-0.747597,3.74393e-11,-6.82553e-06,1.23188e-05,0.671944,0.45545999729147013,3.743938492561938e-11,-6.8255067061651076e-06,0.45545999729147013,1.2318875876715651e-05,-0.5264969855208363
506,0.4565,773.935,829.315,-0.150508,0.00422863,0.0497978,-0.0845801,0.376009,0.376009,-0.748976,3.58345e-11,-7.73013e-06,1.04302e-05,0.673185,0.45646024185427625,3.583444652122125e-11,-7.730100122671502e-06,0.45646024185427625,1.0430254394622196e-05,-0.5271494961683083
507,0.4575,773.422,828.794,-0.667619,0.00422302,0.0136455,-0.147083,0.376696,0.376696,-0.750352,3.33438e-11,-8.43548e-06,8.91e-06,0.674425,0.45746117382119333,3.3343772187777176e-11,-8.435444421417415e-06,0.45746117382119333,8.910039694276506e-06,-0.5277996910249307
508,0.4585,773.335,828.697,-0.760015,0.00421498,0.00751299,-0.157756,0.377382,0.377382,-0.751724,3.15694e-11,-8.64282e-06,8.24851e-06,0.675662,0.45846133520256593,3.156941374982125e-11,-8.64278265089169e-06,0.45846133520256593,8.248544019151538e-06,-0.5284471056208748
509,0.4595,775.003,830.341,0.895542,0.00420282,0.122665,0.0419819,0.378067,0.378067,-0.753085,3.33958e-11,-6.24929e-06,1.20896e-05,0.676892,0.4594607234685826,3.3395730625329634e-11,-6.249270473213109e-06,0.4594607234685826,1.2089673079529462e-05,-0.5290884525745245
510,0.4605,773.451,828.791,-0.655055,0.00420361,0.0148913,-0.145165,0.378752,0.378752,-0.754464,3.03854e-11,-8.20365e-06,8.39462e-06,0.678133,0.460460796550084,3.0385471916360984e-11,-8.203616350122012e-06,0.460460796550084,8.394655234944537e-06,-0.5297373920518171
511,0.4615,774.952,830.269,0.834283,0.00419194,0.11753,0.0332805,0.379436,0.379436,-0.755825,3.15123e-11,-6.04622e-06,1.18337e-05,0.679362,0.4614600934555053,3.151234828635552e-11,-6.0462017216211805e-06,0.4614600934555053,1.183377001856556e-05,-0.5303769841201047
512,0.4625,773.539,828.856,-0.578671,0.00419195,0.0199701,-0.136444,0.38012,0.38012,-0.757201,2.90695e-11,-7.80362e-06,8.47334e-06,0.6806,0.46246007411382695,2.9069413542970324e-11,-7.803589551880208e-06,0.46246007411382695,8.473375898931934e-06,-0.5310227410073287
513,0.4635,774.893,830.189,0.764684,0.00418074,0.112735,0.0247542,0.380804,0.380804,-0.75856,2.96562e-11,-5.83548e-06,1.15806e-05,0.681828,0.4634607389928953,2.965627743378718e-11,-5.835462973613481e-06,0.4634607389928953,1.1580667055310911e-05,-0.5316596482258205
514,0.4645,774.888,830.175,0.754753,0.00417689,0.111745,0.0230542,0.381487,0.381487,-0.759927,2.85713e-11,-5.51471e-06,1.18272e-05,0.68306,0.46446062409952193,2.857136749412348e-11,-5.514694794039876e-06,0.46446062409952193,1.1827269941644403e-05,-0.5322994320947916
515,0.4655,773.942,829.226,-0.192765,0.00417499,0.0471287,-0.0898722,0.38217,0.38217,-0.761297,2.77775e-11,-6.58348e-06,9.64918e-06,0.684294,0.46546119236094685,2.777755803151649e-11,-6.58345832893481e-06,0.46546119236094685,9.649226553554158e-06,-0.5329397431595924
516,0.4665,773.409,828.685,-0.729402,0.00416911,0.00945747,-0.154864,0.382852,0.382852,-0.762665,2.5751e-11,-7.33789e-06,8.03997e-06,0.685526,0.46646097778221374,2.575095692236573e-11,-7.3378630777165554e-06,0.46646097778221374,8.040002320575113e-06,-0.5335782447562822
517,0.4675,773.359,828.623,-0.786194,0.00416067,0.0058166,-0.161179,0.383534,0.383534,-0.764029,2.43269e-11,-7.50877e-06,7.43575e-06,0.686756,0.4674614452897028,2.4326984870981505e-11,-7.50874180921457e-06,0.4674614452897028,7.43577764517056e-06,-0.5342140103397368
518,0.4685,775.039,830.28,0.882501,0.00414838,0.121961,0.0398778,0.384215,0.384215,-0.765381,2.50186e-11,-5.08134e-06,1.13203e-05,0.687978,0.46846112688689434,2.5018653815322978e-11,-5.0813270899841e-06,0.46846112688689434,1.1320364074807188e-05,-0.5348433274835074
519,0.4695,773.514,828.756,-0.64213,0.00414897,0.0158105,-0.144074,0.384895,0.384895,-0.766752,2.33259e-11,-7.01859e-06,7.65485e-06,0.689211,0.4694600200383583,2.3326007791979464e-11,-7.018565369776297e-06,0.4694600200383583,7.654879298435446e-06,-0.5354806203174662
520,0.4705,774.974,830.195,0.807225,0.00413749,0.115993,0.0297501,0.385576,0.385576,-0.768104,2.33791e-11,-4.8935e-06,1.10236e-05,0.690433,0.47046106312848956,2.3379076452556546e-11,-4.893488026902482e-06,0.47046106312848956,1.1023660760001164e-05,-0.5361082261616461
521,0.4715,774.991,830.201,0.819031,0.0041338,0.116351,0.0304165,0.386256,0.386256,-0.769464,2.2218e-11,-4.52805e-06,1.13416e-05,0.691659,0.471461316699088,2.2218005213403558e-11,-4.528039748374901e-06,0.471461316699088,1.1341664316155686e-05,-0.536738690161371
522,0.4725,773.922,829.13,-0.251002,0.00413246,0.0431896,-0.0971657,0.386935,0.386935,-0.770829,2.208e-11,-5.77127e-06,8.85883e-06,0.692888,0.4724607782119108,2.2079893469140188e-11,-5.7712533462206395e-06,0.4724607782119108,8.858869239514178e-06,-0.5373706104655755
523,0.4735,773.372,828.573,-0.804956,0.00412655,0.00451222,-0.163788,0.387614,0.387614,-0.77219,2.03117e-11,-6.56826e-06,7.17315e-06,0.694114,0.47346091858954953,2.0311752280122164e-11,-6.568238429038864e-06,0.47346091858954953,7.173175727182013e-06,-0.5379998207899813
524,0.4745,773.366,828.555,-0.817316,0.00411794,0.00378065,-0.16504,0.388292,0.388292,-0.773547,1.91317e-11,-6.69608e-06,6.6391e-06,0.695337,0.4744602638321085,1.9131807249550548e-11,-6.696057581301318e-06,0.4744602638321085,6.639122038798462e-06,-0.5386263298506313
525,0.4755,775.064,830.229,0.869253,0.0041056,0.121258,0.0380136,0.38897,0.38897,-0.774893,1.9228e-11,-4.2327e-06,1.05742e-05,0.696554,0.47546028686048536,1.9227952563483086e-11,-4.23269104210533e-06,0.47546028686048536,1.057425590711425e-05,-0.5392469210590745
526,0.4765,773.56,828.725,-0.635284,0.00410617,0.0163217,-0.14355,0.389648,0.389648,-0.776257,1.82995e-11,-6.15805e-06,6.92928e-06,0.697781,0.47646098813437465,1.829958407029153e-11,-6.158031039205092e-06,0.47646098813437465,6.9293040074747125e-06,-0.5398749598389301
527,0.4775,774.992,830.136,0.786504,0.00409489,0.114873,0.0271762,0.390325,0.390325,-0.777603,1.77898e-11,-4.0533e-06,1.0252e-05,0.698997,0.4774608906521536,1.7789769657383658e-11,-4.053291785433011e-06,0.4774608906521536,1.0252052552006674e-05,-0.5404938715219831
528,0.4785,775.003,830.137,0.792191,0.00409128,0.114974,0.0273922,0.391001,0.391001,-0.778956,1.66649e-11,-3.69658e-06,1.05488e-05,0.700217,0.47845999187239974,1.666489168883345e-11,-3.696573167677464e-06,0.47845999187239974,1.0548855638781163e-05,-0.5411151629154077
529,0.4795,773.979,829.111,-0.233277,0.00408989,0.0446837,-0.0949965,0.391678,0.391678,-0.780314,1.70038e-11,-4.89005e-06,8.15056e-06,0.70144,0.47946124817391356,1.7003731755949048e-11,-4.890038043714462e-06,0.47946124817391356,8.150593215905388e-06,-0.5417379055861918
530,0.4805,773.448,828.572,-0.768122,0.00408408,0.00726267,-0.159344,0.392353,0.392353,-0.781669,1.5693e-11,-5.65707e-06,6.5136e-06,0.702661,0.48046022163204327,1.5693002453076588e-11,-5.657053998797679e-06,0.48046022163204327,6.513621213510845e-06,-0.5423584302237391
531,0.4815,773.437,828.551,-0.783963,0.00407576,0.00619655,-0.161179,0.393029,0.393029,-0.783019,1.47023e-11,-5.78028e-06,5.9826e-06,0.703878,0.4814613510854975,1.4702239425901098e-11,-5.7802632942305365e-06,0.4814613510854975,5.982617895750053e-06,-0.542975829504655
532,0.4825,775.071,830.161,0.837951,0.00406384,0.119592,0.0345115,0.393703,0.393703,-0.78436,1.40571e-11,-3.38131e-06,9.79512e-06,0.705089,0.4824601926079095,1.4057199848593882e-11,-3.3813042833452656e-06,0.4824601926079095,9.79516797228186e-06,-0.5435882881719716
533,0.4835,773.633,828.723,-0.600514,0.00406421,0.0190591,-0.13915,0.394378,0.394378,-0.785717,1.39244e-11,-5.22811e-06,6.28607e-06,0.70631,0.4834611910368831,1.3924417174848713e-11,-5.228096333409482e-06,0.4834611910368831,6.286089757390201e-06,-0.5442072188254965
534,0.4845,774.991,830.061,0.747563,0.0040534,0.112283,0.0220921,0.395052,0.395052,-0.787057,1.28391e-11,-3.21638e-06,9.43747e-06,0.707521,0.4844613809057643,1.283906314597516e-11,-3.2163748274749437e-06,0.4844613809057643,9.437514532972813e-06,-0.544817572124231
535,0.4855,774.982,830.043,0.733973,0.00404982,0.111278,0.0203862,0.395725,0.395725,-0.788404,1.18146e-11,-2.89354e-06,9.66984e-06,0.708735,0.4854607596683467,1.1814549338851066e-11,-2.89353581373053e-06,0.4854607596683467,9.669886753105317e-06,-0.5454302900963819
536,0.4865,774.07,829.127,-0.180183,0.00404796,0.0483853,-0.0889919,0.396398,0.396398,-0.789755,1.24982e-11,-3.94612e-06,7.51361e-06,0.709952,0.48646081123921103,1.2498224677415237e-11,-3.946112214103792e-06,0.48646081123921103,7.513638227152342e-06,-0.5460439991206707
537,0.4875,773.568,828.617,-0.685896,0.00404244,0.0129077,-0.149901,0.39707,0.39707,-0.791103,1.16988e-11,-4.65829e-06,5.96794e-06,0.711167,0.48746004861051717,1.1698864099685125e-11,-4.658279150193678e-06,0.48746004861051717,5.967957808161728e-06,-0.5466555195524853
538,0.4885,773.533,828.573,-0.726054,0.0040346,0.0103537,-0.154306,0.397743,0.397743,-0.792447,1.09011e-11,-4.79032e-06,5.41691e-06,0.712379,0.4884614461557093,1.0901057834189487e-11,-4.790308526403386e-06,0.4884614461557093,5.416924671486356e-06,-0.5472644052713493
539,0.4895,775.083,830.1,0.812822,0.00402307,0.117944,0.0310716,0.398414,0.398414,-0.793782,9.44438e-12,-2.48765e-06,9.05237e-06,0.713584,0.48946053894422437,9.444445225881282e-12,-2.4876469058021655e-06,0.48946053894422437,9.052410972820724e-06,-0.5478684040314346
540,0.4905,775.118,830.125,0.8431,0.00401968,0.119064,0.033469,0.399085,0.399085,-0.795124,8.24693e-12,-2.09258e-06,9.41285e-06,0.714795,0.49046030234896687,8.246958671520588e-12,-2.092577810586249e-06,0.49046030234896687,9.412894301119579e-06,-0.5484747576789252
541,0.4915,773.992,828.998,-0.28385,0.0040189,0.0414052,-0.101326,0.399756,0.399756,-0.796472,9.70169e-12,-3.44548e-06,6.73661e-06,0.716008,0.49146073682007185,9.701794922989393e-12,-3.445474064389664e-06,0.49146073682007185,6.736632691017874e-06,-0.5490830036556817
542,0.4925,773.454,828.452,-0.825937,0.00401321,0.00364643,-0.166071,0.400426,0.400426,-0.797816,8.93061e-12,-4.24075e-06,5.04676e-06,0.717218,0.49246035034687874,8.93063401008476e-12,-4.240741008021409e-06,0.49246035034687874,5.046772734829119e-06,-0.5496886290273552
543,0.4935,773.488,828.474,-0.79808,0.00400489,0.00561857,-0.162661,0.401096,0.401096,-0.799155,8.26001e-12,-4.31104e-06,4.5994e-06,0.718426,0.4934606338391623,8.260059303211165e-12,-4.311030707526697e-06,0.4934606338391623,4.59941057728841e-06,-0.5502911924468492
544,0.4945,775.101,830.067,0.804731,0.00399338,0.11792,0.0306363,0.401765,0.401765,-0.800485,6.67684e-12,-1.91323e-06,8.39127e-06,0.719628,0.49446009328510865,6.6768812700956914e-12,-1.9132281697809006e-06,0.49446009328510865,8.391305206911781e-06,-0.550888907592215
545,0.4955,773.719,828.685,-0.577107,0.00399379,0.0212422,-0.135913,0.402434,0.402434,-0.80183,7.65934e-12,-3.70044e-06,4.98529e-06,0.720839,0.49546022159313385,7.659428646888955e-12,-3.7004331533418977e-06,0.49546022159313385,4.985302426652183e-06,-0.5514925559669702
546,0.4965,775.011,829.957,0.704729,0.00398335,0.109888,0.0170149,0.403103,0.403103,-0.80316,5.8342e-12,-1.76012e-06,7.99669e-06,0.72204,0.4964610192108563,5.834221994405198e-12,-1.760118450988557e-06,0.4964610192108563,7.99672197371315e-06,-0.5520886743609292
547,0.4975,774.988,829.926,0.677717,0.00397989,0.107946,0.0136888,0.403771,0.403771,-0.804496,4.95648e-12,-1.46603e-06,8.17005e-06,0.723244,0.49746098912445613,4.956479671136549e-12,-1.466028925367624e-06,0.49746098912445613,8.170083374947623e-06,-0.5526866843323734
548,0.4985,774.173,829.109,-0.138427,0.00397804,0.0517929,-0.0837525,0.404438,0.404438,-0.805836,6.15689e-12,-2.39328e-06,6.22705e-06,0.724451,0.49846012878023527,6.156852805361268e-12,-2.3932771361367955e-06,0.49846012878023527,6.2270693881316674e-06,-0.5532856827567936
549,0.4995,773.706,828.632,-0.610544,0.0039727,0.0185188,-0.140708,0.405106,0.405106,-0.807173,6.00326e-12,-3.04792e-06,4.77548e-06,0.725656,0.499461434545152,6.0031979387531464e-12,-3.0479153551032923e-06,0.499461434545152,4.775491402542187e-06,-0.5538825407104953
550,0.5005,773.656,828.57,-0.666615,0.00396507,0.0147699,-0.147158,0.405772,0.405772,-0.808507,5.52024e-12,-3.18255e-06,4.21241e-06,0.726858,0.5004604084819548,5.520250923041203e-12,-3.1825449356981395e-06,0.5004604084819548,4.2124188721626155e-06,-0.5544772646321363
551,0.5015,775.104,829.994,0.769459,0.00395395,0.115513,0.0259589,0.406438,0.406438,-0.809831,3.10964e-12,-9.90035e-07,7.64046e-06,0.728055,0.5014600479569995,3.1097346919750635e-12,-9.90034509928961e-07,0.5014600479569995,7.640489188442956e-06,-0.5550667464107137
552,0.5025,775.11,829.991,0.770786,0.00395057,0.114428,0.0245217,0.407104,0.407104,-0.811163,2.11176e-12,-6.51887e-07,7.89305e-06,0.729255,0.5024603534136816,2.1118662374419728e-12,-6.518867875504597e-07,0.5024603534136816,7.893081150234238e-06,-0.5556590029740571
553,0.5035,774.122,829.0,-0.218491,0.00394933,0.0461669,-0.0936792,0.40777,0.40777,-0.812499,4.13452e-12,-1.8278e-06,5.52056e-06,0.730459,0.503461325295693,4.134470543704083e-12,-1.8277983295789113e-06,0.503461325295693,5.520575238282532e-06,-0.5562522461713881
554,0.5045,773.627,828.497,-0.717768,0.00394386,0.011114,-0.153628,0.408435,0.408435,-0.813832,4.12205e-12,-2.54892e-06,3.95324e-06,0.731659,0.5044614595848085,4.122036045828281e-12,-2.548916751554664e-06,0.5044614595848085,3.953247813992533e-06,-0.5568433678571083
555,0.5055,773.632,828.49,-0.719241,0.00393592,0.0113558,-0.153198,0.409099,0.409099,-0.815161,3.73962e-12,-2.62525e-06,3.48787e-06,0.732858,0.5054607537229114,3.739675236147377e-12,-2.6252465540332892e-06,0.5054607537229114,3.4878760826195787e-06,-0.557431931833835
556,0.5065,775.128,829.962,0.764745,0.00392475,0.11523,0.0251204,0.409763,0.409763,-0.816481,1.05111e-12,-3.67129e-07,7.02162e-06,0.73405,0.5064607116126629,1.0511591597150982e-12,-3.6712893258794566e-07,0.5064607116126629,7.021644651716841e-06,-0.5580157362881061
557,0.5075,775.152,829.978,0.784915,0.00392145,0.115674,0.0263148,0.410427,0.410427,-0.817808,-1.55754e-14,5.22019e-09,7.32932e-06,0.735246,0.507461333694941,-1.554312234475219e-14,5.220190057997343e-09,0.507461333694941,7.32934685943043e-06,-0.5586018604266756
558,0.5085,774.121,828.946,-0.246522,0.00392065,0.0445294,-0.0967294,0.41109,0.41109,-0.81914,2.43281e-12,-1.2357e-06,4.84407e-06,0.736446,0.5084611119490492,2.432720691558643e-12,-1.2356992364903618e-06,0.5084611119490492,4.844081732624517e-06,-0.5591894113527998
559,0.5095,773.632,828.453,-0.737556,0.00391546,0.00975707,-0.156126,0.411752,0.411752,-0.820468,2.6006e-12,-1.9602e-06,3.26957e-06,0.737643,0.509460043815126,2.6005864128819667e-12,-1.9601980788541695e-06,0.509460043815126,3.2695753451328358e-06,-0.5597744192832816
560,0.5105,773.663,828.473,-0.712429,0.00390768,0.0118233,-0.152554,0.412415,0.412415,-0.821793,2.32059e-12,-2.00078e-06,2.86297e-06,0.738837,0.5104611476534264,2.320588166071502e-12,-2.0007779983899354e-06,0.5104611476534264,2.8629740982388796e-06,-0.5603573319128328
561,0.5115,775.127,829.913,0.739215,0.00389674,0.113545,0.0218865,0.413077,0.413077,-0.823108,-5.64542e-13,2.20608e-07,6.32686e-06,0.740025,0.511461403981488,-5.645484080218921e-13,2.2060802429280102e-07,0.511461403981488,6.326880014562164e-06,-0.5609350820673858
562,0.5125,775.149,829.924,0.755459,0.00389329,0.11391,0.0229429,0.413738,0.413738,-0.824431,-1.56369e-12,5.85149e-07,6.6175e-06,0.741218,0.5124608102368986,-1.5636381078820705e-12,5.85149171117294e-07,0.5124608102368986,6.617521895790901e-06,-0.5615155808691814
563,0.5135,774.18,828.955,-0.212835,0.00389234,0.0464874,-0.0935712,0.414399,0.414399,-0.825758,1.00245e-12,-5.84494e-07,4.25392e-06,0.742413,0.5134608773182232,1.0025313912365164e-12,-5.844938292254298e-07,0.5134608773182232,4.253929047903782e-06,-0.5620970637941181
564,0.5145,773.7,828.466,-0.698141,0.00388702,0.0128161,-0.151005,0.415059,0.415059,-0.827082,1.40491e-12,-1.27824e-06,2.73046e-06,0.743606,0.5144600912015633,1.404876215360673e-12,-1.278239183055696e-06,0.5144600912015633,2.7304637277847377e-06,-0.5626764636343209
565,0.5155,773.706,828.462,-0.697053,0.00387957,0.0133313,-0.150099,0.41572,0.41572,-0.828402,1.23036e-12,-1.34046e-06,2.28388e-06,0.744796,0.5154614802444655,1.2303491558895985e-12,-1.340459101606406e-06,0.5154614802444655,2.283882608145049e-06,-0.5632533498736418
566,0.5165,775.151,829.888,0.738082,0.00386905,0.113829,0.0220315,0.416379,0.416379,-0.829713,-1.99518e-12,8.69222e-07,5.72045e-06,0.745981,0.5164604985003074,-1.995181797553869e-12,8.692223778528074e-07,0.5164604985003074,5.720466361713861e-06,-0.5638255495731002
567,0.5175,775.175,829.901,0.757277,0.00386571,0.113645,0.0221362,0.417038,0.417038,-0.831032,-2.93604e-12,1.22353e-06,5.98986e-06,0.747169,0.5174601753261547,-2.9359847886212265e-12,1.2235307484953495e-06,0.5174601753261547,5.989877939205357e-06,-0.5644004844203274
568,0.5185,774.198,828.921,-0.221654,0.00386461,0.0462619,-0.0941346,0.417697,0.417697,-0.832355,-7.01439e-14,4.8482e-08,3.61716e-06,0.748361,0.5184605111561484,-7.016609515630989e-14,4.848200108042988e-08,0.5184605111561484,3.6171665418471832e-06,-0.5649764015262699
569,0.5195,773.718,828.435,-0.704657,0.00385956,0.0126582,-0.151418,0.418355,0.418355,-0.833675,5.39824e-13,-6.47307e-07,2.08827e-06,0.74955,0.5194599869639684,5.397904345727511e-13,-6.473067905021779e-07,0.5194599869639684,2.0882721805115523e-06,-0.565550253850398
570,0.5205,773.741,828.448,-0.686741,0.00385216,0.0142732,-0.148635,0.419013,0.419013,-0.83499,4.59029e-13,-6.84809e-07,1.68112e-06,0.750736,0.5204601206432862,4.589661983800397e-13,-6.848087654720558e-07,0.5204601206432862,1.6811214131884356e-06,-0.566121179800501
571,0.5215,775.152,829.843,0.715883,0.00384208,0.112538,0.0194961,0.419671,0.419671,-0.836297,-2.98919e-12,1.48761e-06,5.04744e-06,0.751917,0.5214609126271232,-2.9891644715007715e-12,1.4876111065209585e-06,0.5214609126271232,5.047452738438096e-06,-0.5666878889933709
572,0.5225,775.159,829.841,0.718355,0.00383893,0.112176,0.0193059,0.420328,0.420328,-0.837611,-3.86147e-12,1.83333e-06,5.2991e-06,0.753101,0.5224608408871845,-3.861466701948757e-12,1.8333316804675093e-06,0.5224608408871845,5.299114040235864e-06,-0.5672568871935468
573,0.5235,774.258,828.933,-0.186288,0.00383743,0.0486679,-0.0901895,0.420985,0.420985,-0.83893,-8.92265e-13,7.35316e-07,3.05767e-06,0.754289,0.5234614263159689,-8.922862448912383e-13,7.353162703171989e-07,0.5234614263159689,3.057674674566968e-06,-0.5678272990899944
574,0.5245,773.792,828.458,-0.656707,0.00383224,0.016272,-0.145338,0.421641,0.421641,-0.840245,-4.71322e-14,7.49172e-08,1.58776e-06,0.755474,0.5244611448834711,-4.718447854656915e-14,7.491720288577142e-08,0.5244611448834711,1.5877612604686675e-06,-0.5683952326935064
575,0.5255,773.802,828.455,-0.652784,0.00382486,0.0165204,-0.144898,0.422296,0.422296,-0.841557,-1.00781e-14,2.21213e-08,1.15157e-06,0.756656,0.5254599940207514,-1.0103029524088925e-14,2.2121300347066608e-08,0.5254599940207514,1.1515706630493838e-06,-0.5689611268404773
576,0.5265,775.172,829.81,0.70918,0.00381491,0.112081,0.0184247,0.422952,0.422952,-0.842859,-3.77209e-12,2.15175e-06,4.43802e-06,0.757833,0.5264610240787897,-3.772093748466432e-12,2.151752314993871e-06,0.5264610240787897,4.438029848063962e-06,-0.56952197426243
577,0.5275,775.161,829.79,0.69372,0.00381182,0.110307,0.0158002,0.423607,0.423607,-0.844169,-4.49858e-12,2.46408e-06,4.62907e-06,0.759014,0.5274611835660357,-4.498623695781134e-12,2.4640830358357846e-06,0.5274611835660357,4.6290807140803025e-06,-0.5700855312657157
578,0.5285,774.301,828.927,-0.167955,0.00381038,0.0505272,-0.0871747,0.424261,0.424261,-0.845483,-1.42272e-12,1.43857e-06,2.51151e-06,0.760197,0.5284604699111051,-1.4227508060571381e-12,1.4385710347397662e-06,0.5284604699111051,2.5115131538910873e-06,-0.5706500678958394
579,0.5295,773.864,828.481,-0.609552,0.00380534,0.0195507,-0.139843,0.424915,0.424915,-0.846794,-3.54633e-13,8.16232e-07,1.10505e-06,0.761378,0.5294604100031961,-3.54605234065275e-13,8.162323330562771e-07,0.5294604100031961,1.1050506105725333e-06,-0.5712125768516412
580,0.5305,773.845,828.451,-0.633998,0.00379819,0.0184014,-0.141771,0.425569,0.425569,-0.848101,-1.86326e-13,7.45675e-07,6.3652e-07,0.762557,0.5304610042699993,-1.8629542353210127e-13,7.456752779688713e-07,0.5304610042699993,6.365202025460093e-07,-0.5717726359353581
581,0.5315,775.212,829.797,0.722364,0.00378797,0.11216,0.0182689,0.426222,0.426222,-0.8494,-4.33005e-12,2.85119e-06,3.87452e-06,0.76373,0.5314607216779972,-4.3300918406430355e-12,2.851194064623641e-06,0.5314607216779972,3.874527505942638e-06,-0.5723285421420271
582,0.5325,775.18,829.753,0.68425,0.00378459,0.110216,0.0153793,0.426875,0.426875,-0.850706,-5.02006e-12,3.16085e-06,4.05811e-06,0.764907,0.5324610921146533,-5.02009545044757e-12,3.1608549955208787e-06,0.5324610921146533,4.058118234118169e-06,-0.5728867164987977
583,0.5335,774.352,828.921,-0.145682,0.003783,0.0520784,-0.0847098,0.427527,0.427527,-0.852015,-1.69025e-12,2.16817e-06,1.995e-06,0.766087,0.5334605825451852,-1.6902035326893383e-12,2.168172350547337e-06,0.5334605825451852,1.995001990051648e-06,-0.5734454420212659
584,0.5345,773.932,828.499,-0.566902,0.00377845,0.0215926,-0.13647,0.428179,0.428179,-0.853321,-3.74042e-13,1.56138e-06,6.1399e-07,0.767264,0.5344607248559674,-3.7403413699621524e-13,1.5613812189840814e-06,0.5344607248559674,6.139901884694154e-07,-0.5740021586588921
585,0.5355,773.907,828.461,-0.597976,0.0037714,0.0201597,-0.138892,0.42883,0.42883,-0.854625,-8.53634e-14,1.49324e-06,1.46741e-07,0.768439,0.5354599840114134,-8.537615059367454e-14,1.4932411149803926e-06,0.5354599840114134,1.467410106759104e-07,-0.5745572978146074
586,0.5365,775.207,829.747,0.694205,0.00376192,0.110564,0.015288,0.429482,0.429482,-0.855919,-1.24072e-09,3.53788e-06,3.27567e-06,0.769608,0.5364614303570208,-1.240719971207227e-09,3.5378862583979043e-06,0.5364614303570208,3.2756753649554327e-06,-0.5751074646365333
587,0.5375,775.224,829.756,0.707045,0.00375886,0.109453,0.0137679,0.430132,0.430132,-0.857221,-5.21417e-12,3.8605e-06,3.47752e-06,0.770782,0.5374604549345667,-5.214162435152048e-12,3.860507451713957e-06,0.5374604549345667,3.4775260466801683e-06,-0.5756603147340635
588,0.5385,774.365,828.892,-0.154316,0.00375736,0.0500162,-0.0883374,0.430782,0.430782,-0.858526,-1.48297e-12,2.82995e-06,1.35126e-06,0.771957,0.5384601290891775,-1.4829248939918216e-12,2.82995400424646e-06,0.5384601290891775,1.3512609129406883e-06,-0.5762137168499168
589,0.5395,773.888,828.414,-0.631765,0.00375299,0.0195837,-0.139984,0.431432,0.431432,-0.859829,4.16408e-14,2.21306e-06,-4.85926e-08,0.77313,0.5394604532432157,4.1744385725905886e-14,2.213062448852554e-06,0.5394604532432157,-4.859259883360778e-08,-0.576765550778981
590,0.5405,773.901,828.413,-0.625326,0.00374574,0.0186749,-0.14149,0.432082,0.432082,-0.861127,4.24799e-13,2.14855e-06,-5.11371e-07,0.774301,0.5404614278193185,4.247713292215849e-13,2.1485523080677638e-06,0.5404614278193185,-5.113708692050523e-07,-0.5773145527147334
591,0.5415,775.227,829.724,0.692926,0.00373624,0.110491,0.014922,0.43273,0.43273,-0.862418,-4.35989e-12,4.22817e-06,2.671e-06,0.775467,0.5414599703173737,-4.35984581770299e-12,4.2281789387477176e-06,0.5414599703173737,2.671003567211727e-06,-0.5778598875378089
592,0.5425,775.19,829.676,0.650038,0.00373308,0.107578,0.0103393,0.433379,0.433379,-0.863715,-4.86713e-12,4.50955e-06,2.79989e-06,0.776637,0.5424607025405903,-4.867106717654224e-12,4.5095601679534525e-06,0.5424607025405903,2.7998939196027806e-06,-0.5784070483531804
593,0.5435,774.44,828.924,-0.10105,0.00373152,0.0543763,-0.0810641,0.434027,0.434027,-0.865016,-1.2469e-12,3.61097e-06,8.97138e-07,0.777808,0.5434605409885074,-1.2468914789565133e-12,3.610976519574649e-06,0.5434605409885074,8.97138402455866e-07,-0.5789551841436266
594,0.5445,775.368,829.841,0.821495,0.00372391,0.120054,0.0310924,0.434675,0.434675,-0.866306,-6.68957e-12,5.24273e-06,3.32003e-06,0.778973,0.5444610275417021,-6.689537812576418e-12,5.2427437431390445e-06,0.5444610275417021,3.3200355114004765e-06,-0.5794979817763357
595,0.5455,775.162,829.621,0.60816,0.00372087,0.101839,0.00039218,0.435322,0.435322,-0.867602,-5.82044e-12,5.20987e-06,2.91124e-06,0.780141,0.5454606171588929,-5.820455228899846e-12,5.2098835714442515e-06,0.5454606171588929,2.9112442376799663e-06,-0.5800425994035021
596,0.5465,774.557,829.012,0.0011213,0.00371816,0.0627742,-0.0667405,0.435969,0.435969,-0.868899,-1.19251e-09,4.61273e-06,1.52379e-06,0.781309,0.5464608537198299,-1.1925099796528116e-09,4.612740638565427e-06,0.5464608537198299,1.5237911610288535e-06,-0.5805869310766791
597,0.5475,775.202,829.645,0.639865,0.00371086,0.107788,0.00994739,0.436615,0.436615,-0.870188,-7.08179e-12,5.80362e-06,3.18922e-06,0.782473,0.5474601901822571,-7.081779607176486e-12,5.803636841106297e-06,0.5474601901822571,3.189225085575842e-06,-0.5811272062403717
598,0.5485,774.022,828.459,-0.542707,0.00370936,0.0229639,-0.13468,0.437261,0.437261,-0.871487,-5.74096e-14,4.16408e-06,3.6087e-08,0.783642,0.5484601724246034,-5.739853037312059e-14,4.164088669877941e-06,0.5484601724246034,3.60870007209968e-08,-0.5816709687492538
599,0.5495,775.161,829.581,0.587519,0.00369948,0.102078,0.000537107,0.437907,0.437907,-0.872772,-6.32931e-12,5.9798e-06,2.77457e-06,0.784802,0.5494608008641775,-6.329270441085555e-12,5.979817879087079e-06,0.5494608008641775,2.774573849118056e-06,-0.582208176324623
600,0.5505,775.128,829.528,0.544346,0.00369483,0.0995817,-0.00366863,0.438552,0.438552,-0.874062,-6.76414e-12,6.23506e-06,2.84799e-06,0.785966,0.550460525457257,-6.764144799831229e-12,6.23507943808832e-06,0.550460525457257,2.8479940554770877e-06,-0.5827467803029074
601,0.5515,774.52,828.931,-0.0579325,0.00369303,0.0569642,-0.076853,0.439197,0.439197,-0.875355,-2.72952e-12,5.54185e-06,1.29491e-06,0.787131,0.551460895080699,-2.7294833060409474e-12,5.541865356173403e-06,0.551460895080699,1.2949108383342178e-06,-0.5832859400740675
602,0.5525,775.268,829.67,0.685424,0.00368575,0.109244,0.01229,0.439841,0.439841,-0.87664,-8.3989e-12,6.88183e-06,3.21339e-06,0.78829,0.5524603576895482,-8.398948203591772e-12,6.881853679807648e-06,0.5524603576895482,3.2133951628487978e-06,-0.5838210737440539
603,0.5535,773.922,828.315,-0.66554,0.00368448,0.015905,-0.146743,0.440485,0.440485,-0.877935,5.37008e-13,5.04186e-06,-2.8085e-07,0.789456,0.5534604641596186,5.369038547087257e-13,5.041872710220829e-06,0.5534604641596186,-2.808499605100323e-07,-0.5843596766329139
604,0.5545,775.221,829.588,0.620993,0.0036738,0.104705,0.0048236,0.441129,0.441129,-0.879215,-7.48308e-12,7.06126e-06,2.79843e-06,0.790612,0.5544612149056902,-7.48312523057848e-12,7.061284930776068e-06,0.5544612149056902,2.7984339157072213e-06,-0.5848913558995013
605,0.5555,775.212,829.567,0.605775,0.0036697,0.103827,0.00341089,0.441772,0.441772,-0.880501,-8.22953e-12,7.36611e-06,2.95452e-06,0.791771,0.5554610548809782,-8.229528170033973e-12,7.366137129816153e-06,0.5554610548809782,2.9545243644957253e-06,-0.5854248425104005
606,0.5565,774.432,828.787,-0.174738,0.00366765,0.0522766,-0.0849151,0.442414,0.442414,-0.881791,-2.61559e-12,6.47844e-06,1.06926e-06,0.792933,0.5564599814993461,-2.6155744237144063e-12,6.47846098522642e-06,0.5564599814993461,1.0692605716400294e-06,-0.5859592996645817
607,0.5575,774.056,828.395,-0.558442,0.00366166,0.0224382,-0.135304,0.443057,0.443057,-0.883078,6.85482e-13,5.8762e-06,-3.09398e-07,0.794093,0.5574611070948363,6.854516954035716e-13,5.876217264999539e-06,0.5574611070948363,-3.0939795214735e-07,-0.5864918272908808
608,0.5585,774.104,828.428,-0.5184,0.003654,0.0244688,-0.131865,0.443699,0.443699,-0.884361,1.42727e-12,5.89291e-06,-6.43317e-07,0.79525,0.5584613181589886,1.4273027204581012e-12,5.8929273631935786e-06,0.5584613181589886,-6.433167930586237e-07,-0.5870220180863428
609,0.5595,775.209,829.523,0.581697,0.00364522,0.101348,-0.00139341,0.44434,0.44434,-0.885638,-5.82532e-12,7.67771e-06,2.01819e-06,0.796403,0.5594606121034218,-5.825340210208196e-12,7.677739473743728e-06,0.5594606121034218,2.018192036601363e-06,-0.5875490543849489
610,0.5605,775.146,829.442,0.509987,0.00364084,0.0974744,-0.00759672,0.444981,0.444981,-0.88692,-6.03198e-12,7.89842e-06,2.03433e-06,0.797559,0.5604605468006125,-6.031952715090938e-12,7.898451192644984e-06,0.5604605468006125,2.0343320692450817e-06,-0.5880774777055058
611,0.5615,774.607,828.904,-0.0289858,0.00363852,0.0589205,-0.073716,0.445622,0.445622,-0.888205,-1.67996e-12,7.2853e-06,6.1515e-07,0.798716,0.5614611226614155,-1.6799894808627869e-12,7.285326537820325e-06,0.5614611226614155,6.151501892315281e-07,-0.5886064582038952
612,0.5625,775.331,829.6,0.680875,0.00363039,0.106385,0.00706672,0.446262,0.446262,-0.889481,-7.55071e-12,8.53129e-06,2.36443e-06,0.799869,0.5624607776353887,-7.550737812778152e-12,8.531326391558736e-06,0.5624607776353887,2.36443279533205e-06,-0.5891310615950844
613,0.5635,774.005,828.264,-0.650029,0.00362889,0.0168593,-0.145047,0.446902,0.446902,-0.890769,2.57617e-12,6.75301e-06,-1.0206e-06,0.801027,0.5634610725933187,2.5761615063402132e-12,6.753032801620762e-06,0.5634610725933187,-1.0205994791512296e-06,-0.5896599201297416
614,0.5645,775.284,829.527,0.62094,0.00361891,0.104392,0.00392385,0.447541,0.447541,-0.89204,-6.64008e-12,8.76348e-06,2.03e-06,0.802175,0.5644604434837,-6.640132887980599e-12,8.763518399401704e-06,0.5644604434837,2.030002060449121e-06,-0.5901811310715377
615,0.5655,775.266,829.51,0.602981,0.00361565,0.10279,0.00122251,0.44818,0.44818,-0.893318,-7.25468e-12,9.0511e-06,2.15049e-06,0.803328,0.5654604531761556,-7.254641332110623e-12,9.051140961391368e-06,0.5654604531761556,2.150492312225083e-06,-0.5907045450532535
616,0.5665,774.536,828.789,-0.12224,0.00361449,0.0513757,-0.0866404,0.448819,0.448819,-0.8946,-7.56138e-13,8.1538e-06,2.49163e-07,0.804482,0.5664611020790109,-7.561729020721941e-13,8.15383324237473e-06,0.5664611020790109,2.491630310963444e-07,-0.5912289256267284
617,0.5675,775.456,829.692,0.789044,0.00360636,0.117745,0.0262044,0.449457,0.449457,-0.895871,-9.87454e-12,9.81853e-06,2.706e-06,0.805629,0.5674608231392446,-9.874545625621067e-12,9.818578201814532e-06,0.5674608231392446,2.706003661145928e-06,-0.591748143629319
618,0.5685,775.165,829.389,0.491663,0.00360339,0.0973444,-0.00810412,0.450095,0.450095,-0.897148,-7.84483e-12,9.71947e-06,2.17479e-06,0.806781,0.5684611822250232,-7.844835892001356e-12,9.719517234163533e-06,0.5684611822250232,2.174792364861844e-06,-0.5922691485174818
619,0.5695,774.881,829.102,0.206342,0.00359999,0.069929,-0.0552064,0.450732,0.450732,-0.898425,-4.13585e-12,9.36477e-06,1.19168e-06,0.807931,0.569460610282142,-4.135802811333633e-12,9.364813849499498e-06,0.569460610282142,1.1916807101108873e-06,-0.5927894885070305
620,0.5705,775.105,829.311,0.423077,0.00359417,0.0845933,-0.0301588,0.451369,0.451369,-0.899698,-6.26475e-12,9.88826e-06,1.71195e-06,0.809079,0.5704606751777448,-6.264766483354833e-12,9.88830888903891e-06,0.5704606751777448,1.7119514654773127e-06,-0.5933075376799031
621,0.5715,774.505,828.733,-0.166144,0.00359266,0.05106,-0.0871503,0.452006,0.452006,-0.900974,-1.37072e-12,9.33139e-06,3.97488e-07,0.810228,0.5714613773176267,-1.3706813462022183e-12,9.331433537651534e-06,0.5714613773176267,3.9748807889594673e-07,-0.5938261463191462
622,0.5725,775.412,829.635,0.738928,0.00358568,0.110356,0.0133616,0.452642,0.452642,-0.902241,-1.02712e-11,1.08328e-05,2.56928e-06,0.811373,0.5724611446459109,-1.0271228312319636e-11,1.0832858674980628e-05,0.5724611446459109,2.569283300557501e-06,-0.5943404427161927
623,0.5735,773.944,828.181,-0.722577,0.00358681,0.00640497,-0.162822,0.453277,0.453277,-0.903521,4.46241e-12,8.71221e-06,-1.38991e-06,0.812524,0.5734599745676985,4.462430425178354e-12,8.712247951514485e-06,0.5734599745676985,-1.3899090340885323e-06,-0.5948593547749497
624,0.5745,775.394,829.592,0.708153,0.003575,0.109228,0.011834,0.453913,0.453913,-0.904784,-9.02381e-12,1.1057e-05,2.21772e-06,0.813665,0.5744610134081318,-9.02378172185081e-12,1.1057061128916246e-05,0.5744610134081318,2.2177224592301314e-06,-0.5953707244119664
625,0.5755,775.336,829.523,0.644025,0.00357155,0.106266,0.00688938,0.454548,0.454548,-0.906054,-9.6507e-12,1.13339e-05,2.31707e-06,0.814811,0.5754611136498673,-9.650724663856636e-12,1.133396422892119e-05,0.5754611136498673,2.3170726843879663e-06,-0.5958842774167793
626,0.5765,774.523,828.698,-0.174617,0.00356918,0.049924,-0.0891718,0.455182,0.455182,-0.907328,-8.58594e-13,1.03258e-05,2.26586e-07,0.815958,0.5764602726958705,-8.586464872450961e-13,1.0325853311288213e-05,0.5764602726958705,2.265860257200103e-07,-0.5963987930313124
627,0.5775,774.084,828.246,-0.620326,0.00356344,0.0188579,-0.141435,0.455816,0.455816,-0.908599,4.39308e-12,9.67355e-06,-1.23925e-06,0.817103,0.5774600654095607,4.3931525084417444e-12,9.67359678893942e-06,0.5774600654095607,-1.2392492321211535e-06,-0.596911444306471
628,0.5785,774.177,828.342,-0.525462,0.00355721,0.01786,-0.143224,0.45645,0.45645,-0.909866,6.07729e-12,9.6029e-06,-1.72937e-06,0.818245,0.57846049219281,6.077360836798107e-12,9.602946108078214e-06,0.57846049219281,-1.7293685046215757e-06,-0.5974218341063195
629,0.5795,775.285,829.442,0.578175,0.00354875,0.0989949,-0.00585158,0.457083,0.457083,-0.911126,-4.57739e-12,1.14893e-05,1.0902e-06,0.819383,0.5794599739869826,-4.577338508227058e-12,1.1489366002370716e-05,0.5794599739869826,1.0902005942448056e-06,-0.5979287631629733
630,0.5805,775.221,829.371,0.510758,0.00354539,0.094554,-0.0131726,0.457716,0.457716,-0.912393,-4.50166e-12,1.16866e-05,1.05553e-06,0.820524,0.5804600886534137,-4.501621297947622e-12,1.1686668288657387e-05,0.5804600886534137,1.0555305571813278e-06,-0.5984378648360313
631,0.5815,774.696,828.813,-0.0311492,0.00354118,0.0579521,-0.0756265,0.458349,0.458349,-0.913662,1.32929e-12,1.10955e-05,-3.28747e-07,0.821667,0.5814608365928382,1.3293810496861624e-12,1.1095561555318767e-05,0.5814608365928382,-3.287469459989367e-07,-0.5989471239922788
632,0.5825,775.43,829.538,0.697883,0.00353418,0.106545,0.00661902,0.458981,0.458981,-0.914922,-6.63853e-12,1.23829e-05,1.47311e-06,0.822804,0.5824606357448183,-6.6385785757461235e-12,1.23829766685013e-05,0.5824606357448183,1.473111085115164e-06,-0.5994521323939428
633,0.5835,774.083,828.186,-0.65142,0.00353363,0.0155045,-0.14739,0.459613,0.459613,-0.916193,7.73176e-12,1.05376e-05,-2.01895e-06,0.823948,0.5834610669695763,7.731815188094515e-12,1.053765552061492e-05,0.5834610669695763,-2.0189479619237005e-06,-0.5999609053399719
634,0.5845,775.347,829.449,0.612214,0.003525,0.0995464,-0.00482171,0.460244,0.460244,-0.917448,-4.16172e-12,1.24911e-05,9.18022e-07,0.825082,0.5844605462053702,-4.161671007807399e-12,1.249117801416233e-05,0.5844605462053702,9.180224214144772e-07,-0.6004626394997313
635,0.5855,775.431,829.573,0.716651,0.00352523,0.105212,0.00466196,0.460875,0.460875,-0.918709,-6.04625e-12,1.29329e-05,1.28994e-06,0.826219,0.5854606563115807,-6.0462745921086025e-12,1.2932983630253858e-05,0.5854606563115807,1.2899408319277939e-06,-0.600966138588428
636,0.5865,774.388,828.515,-0.334458,0.00352391,0.0377688,-0.109705,0.461506,0.461506,-0.919976,5.34425e-12,1.16439e-05,-1.26813e-06,0.827361,0.5864613976864124,5.3441695513356535e-12,1.1643967790408993e-05,0.5864613976864124,-1.2681291958749341e-06,-0.6014713943437254
637,0.5875,774.013,828.135,-0.711965,0.00351901,0.0111317,-0.154507,0.462136,0.462136,-0.921239,1.05975e-11,1.10393e-05,-2.65601e-06,0.828498,0.5874611832663446,1.059752285925697e-11,1.1039360933384756e-05,0.5874611832663446,-2.6560064727565447e-06,-0.6019744182462075
638,0.5885,774.168,828.276,-0.563789,0.00351197,0.0192304,-0.140754,0.462765,0.462765,-0.922498,1.14042e-11,1.11538e-05,-2.83273e-06,0.829633,0.5884600104488364,1.1404210908949608e-11,1.115386220384984e-05,0.5884600104488364,-2.832725987778062e-06,-0.6024752171345847
639,0.5895,775.541,829.571,0.769995,0.00349869,0.101508,-0.00189469,0.463395,0.463395,-0.923749,-2.58419e-13,1.309e-05,5.47692e-08,0.830763,0.5894610555515172,-2.5845992013273644e-13,1.3090085674516416e-05,0.5894610555515172,5.4769201396354106e-08,-0.6029722097042809
640,0.5905,775.356,829.378,0.580324,0.00349583,0.0994241,-0.00498497,0.464024,0.464024,-0.925008,-6.57566e-13,1.3356e-05,1.36775e-07,0.831899,0.5904611410493752,-6.575850974854802e-13,1.3356089191729481e-05,0.5904611410493752,1.367750093184128e-07,-0.6034717531636709
641,0.5915,774.886,828.915,0.114113,0.00349366,0.0652153,-0.0636152,0.464652,0.464652,-0.926268,5.22407e-12,1.28378e-05,-1.13201e-06,0.833034,0.5914602643378302,5.2240434200712116e-12,1.283788240491468e-05,0.5914602643378302,-1.1320093592503966e-06,-0.6039710641227215
642,0.5925,775.325,829.308,0.52995,0.00348537,0.094026,-0.0145742,0.46528,0.46528,-0.927521,3.17738e-13,1.36905e-05,-6.46503e-08,0.834165,0.5924600152727708,3.177458296477198e-13,1.3690593715365296e-05,0.5924600152727708,-6.465029789293197e-08,-0.6044669776246844
643,0.5935,774.549,828.544,-0.240189,0.00348365,0.0384425,-0.108537,0.465908,0.465908,-0.928781,1.00999e-11,1.26312e-05,-2.23038e-06,0.835299,0.5934603942484826,1.0099920899619974e-11,1.263127977391143e-05,0.5934603942484826,-2.2303775126797376e-06,-0.6049650353905918
644,0.5945,774.23,828.22,-0.561665,0.00347812,0.0198613,-0.139607,0.466536,0.466536,-0.930037,1.4394e-11,1.22216e-05,-3.28962e-06,0.836432,0.5944614016594993,1.4394041514265155e-11,1.222167468406532e-05,0.5944614016594993,-3.289614589174761e-06,-0.6054608878456139
645,0.5955,775.532,829.485,0.721548,0.00346744,0.112834,0.0171204,0.467163,0.467163,-0.931284,-2.50776e-13,1.44284e-05,4.86121e-08,0.837558,0.595461442438362,-2.5079938126282286e-13,1.4428504089947225e-05,0.595461442438362,4.861210123330295e-08,-0.6059525714900038
646,0.5965,775.553,829.507,0.743238,0.00346488,0.102652,0.000304004,0.467789,0.467789,-0.932537,6.21617e-13,1.45484e-05,-1.19665e-07,0.838687,0.5964605139780943,6.217248937900877e-13,1.4548505828493319e-05,0.5964605139780943,-1.1966499280369192e-07,-0.6064460037180781
647,0.5975,774.422,828.455,-0.347658,0.00346927,0.0401891,-0.105623,0.468415,0.468415,-0.933795,1.19797e-11,1.33553e-05,-2.51556e-06,0.839821,0.5974602111324074,1.1979750524915289e-11,1.335538918234569e-05,0.5974602111324074,-2.5155568359469527e-06,-0.606940783363752
648,0.5985,775.331,829.314,0.535802,0.00346008,0.0925011,-0.0170075,0.469041,0.469041,-0.935042,3.49563e-12,1.4671e-05,-6.69095e-07,0.840946,0.5984605342930587,3.495648215334768e-12,1.4671107619657064e-05,0.5984605342930587,-6.690947761400778e-07,-0.6074306227285781
649,0.5995,774.217,828.175,-0.590711,0.0034575,0.0139276,-0.149627,0.469667,0.469667,-0.9363,1.75964e-11,1.30414e-05,-3.79405e-06,0.842078,0.5994614838520509,1.7596368806493956e-11,1.3041485039444467e-05,0.5994614838520509,-3.794042802596209e-06,-0.6079241645023215
650,0.6005,774.099,827.987,-0.744746,0.00344685,0.00122463,-0.170869,0.470292,0.470292,-0.937551,2.15951e-11,1.26659e-05,-4.80069e-06,0.843206,0.6004614597393718,2.1595170096588845e-11,1.2665980212878125e-05,0.6004614597393718,-4.800678476746256e-06,-0.6084143447008871
651,0.6015,774.297,828.181,-0.548521,0.00343944,0.0256044,-0.129904,0.470916,0.470916,-0.938798,2.04498e-11,1.31351e-05,-4.38953e-06,0.844332,0.6014604593457109,2.0449864024385533e-11,1.3135186265778032e-05,0.6014604593457109,-4.389520366077093e-06,-0.6089023476799502
652,0.6025,775.17,829.125,0.360531,0.00343645,0.0878247,-0.025261,0.47154,0.47154,-0.940041,1.16683e-11,1.46309e-05,-2.25149e-06,0.845455,0.6024600825223378,1.166822194420547e-11,1.463100703213982e-05,0.6024600825223378,-2.251487465354529e-06,-0.6093881800544104
653,0.6035,774.428,828.453,-0.346138,0.00344102,0.024533,-0.132044,0.472164,0.472164,-0.941293,2.2623e-11,1.33465e-05,-4.79175e-06,0.846582,0.6034603296584822,2.2623014572786815e-11,1.3346589064822112e-05,0.6034603296584822,-4.791738519638322e-06,-0.6098769200379108
654,0.6045,774.116,828.054,-0.701949,0.00343209,0.017636,-0.142955,0.472788,0.472788,-0.942542,2.54362e-11,1.31584e-05,-5.47187e-06,0.847707,0.6044612011436163,2.5436097672582036e-11,1.3158486572129036e-05,0.6044612011436163,-5.471855029304251e-06,-0.6103638795952351
655,0.6055,774.45,828.298,-0.413679,0.00342096,0.0257111,-0.129551,0.473411,0.473411,-0.943786,2.6327e-11,1.33057e-05,-5.60821e-06,0.84883,0.6054610919055605,2.6326940627541262e-11,1.3305788521211781e-05,0.6054610919055605,-5.608194273976075e-06,-0.6108482855660351
656,0.6065,775.324,829.179,0.464108,0.00341367,0.0867488,-0.0268765,0.474033,0.474033,-0.945026,1.82804e-11,1.47793e-05,-3.51045e-06,0.84995,0.6064599993327304,1.8280488234267978e-11,1.4779409214460415e-05,0.6064599993327304,-3.5104438383948278e-06,-0.6113305346357178
657,0.6075,774.553,828.324,-0.349912,0.00340622,0.0233389,-0.133782,0.474656,0.474656,-0.946276,2.88184e-11,1.3486e-05,-6.07282e-06,0.851074,0.607461135733923,2.8818503139405038e-11,1.3486090936432049e-05,0.607461135733923,-6.0728015605082675e-06,-0.611816067945884
658,0.6085,775.291,829.05,0.38238,0.00339725,0.0956471,-0.0116876,0.475278,0.475278,-0.947515,1.88211e-11,1.52273e-05,-3.51717e-06,0.852192,0.6084612875753268,1.882116684726043e-11,1.5227415935958888e-05,0.6084612875753268,-3.517163814747981e-06,-0.6122967300060631
659,0.6095,774.173,827.892,-0.756441,0.00339382,0.02164,-0.136734,0.475899,0.475899,-0.948764,3.10827e-11,1.37115e-05,-6.45916e-06,0.853316,0.6094604522434308,3.108269197582558e-11,1.3711594003096295e-05,0.6094604522434308,-6.459139139658454e-06,-0.6127806691074047
660,0.6105,774.199,827.913,-0.73278,0.00338724,0.00711688,-0.160847,0.47652,0.47652,-0.950007,-9.31883e-10,1.33236e-05,-7.48438e-06,0.854437,0.6104602375854928,-9.318830151983093e-10,1.3323688759614427e-05,0.6104602375854928,-7.484351992048666e-06,-0.6132616837231879
661,0.6115,775.443,829.175,0.52054,0.00338126,0.104986,0.00386182,0.477141,0.477141,-0.951241,2.18689e-11,1.56234e-05,-3.99877e-06,0.855551,0.6114606439870711,2.186895109446141e-11,1.562352204587114e-05,0.6114606439870711,-3.998762004964185e-06,-0.613738624472509
662,0.6125,775.371,829.024,0.408409,0.0033735,0.0959695,-0.0109824,0.477761,0.477761,-0.952483,2.30173e-11,1.57391e-05,-4.18325e-06,0.85667,0.6124600593730982,2.301736579113367e-11,1.573922386022275e-05,0.6124600593730982,-4.1832412501774385e-06,-0.6142180633077671
663,0.6135,775.212,828.993,0.314298,0.00337859,0.0677982,-0.0591815,0.478381,0.478381,-0.953724,2.81002e-11,1.5342e-05,-5.24606e-06,0.857789,0.613460094588792,2.8100188842472562e-11,1.534211768916549e-05,0.613460094588792,-5.246046239415492e-06,-0.6146965217463356
664,0.6145,775.141,829.026,0.29607,0.00338237,0.0726713,-0.0504692,0.479001,0.479001,-0.954964,2.79391e-11,1.56309e-05,-5.12621e-06,0.858905,0.6144607500185659,2.7939206503901914e-11,1.563102216306511e-05,0.6144607500185659,-5.126196860993915e-06,-0.6151740019604564
665,0.6155,774.953,828.718,0.0474325,0.00337362,0.0673416,-0.0594132,0.47962,0.47962,-0.956204,2.95409e-11,1.5694e-05,-5.40531e-06,0.860022,0.6154604105858539,2.9540814239226165e-11,1.569412315149954e-05,0.6154604105858539,-5.4052953913918955e-06,-0.6156508904660465
666,0.6165,775.23,828.966,0.30955,0.00336784,0.0815461,-0.035938,0.480239,0.480239,-0.957441,2.77813e-11,1.62127e-05,-4.92707e-06,0.861137,0.6164606901345877,2.7781332789800217e-11,1.6212831426498653e-05,0.6164606901345877,-4.927057862036399e-06,-0.6161260363762069
667,0.6175,775.002,828.66,0.0418575,0.00335856,0.0637193,-0.0658512,0.480857,0.480857,-0.958679,3.1461e-11,1.60077e-05,-5.65843e-06,0.862253,0.6174599715872557,3.1461055982617836e-11,1.6007828123942858e-05,0.6174599715872557,-5.658413991138644e-06,-0.6166009782934665
668,0.6185,775.256,828.857,0.266943,0.00335041,0.0833389,-0.0323922,0.481476,0.481476,-0.959913,2.86614e-11,1.66453e-05,-4.96382e-06,0.863367,0.6184614892474054,2.8661295559118116e-11,1.664543853374667e-05,0.6184614892474054,-4.963807680224974e-06,-0.617073800894708
669,0.6195,774.65,828.397,-0.264876,0.00335761,0.0508719,-0.0874681,0.482093,0.482093,-0.961151,3.50795e-11,1.60833e-05,-6.29574e-06,0.864483,0.6194603881148826,3.5079494864476146e-11,1.6083429337010458e-05,0.6194603881148826,-6.295720181848097e-06,-0.617547570205487
670,0.6205,775.682,829.374,0.7388,0.0033484,0.10873,0.0098534,0.482711,0.482711,-0.96238,2.51169e-11,1.76064e-05,-4.12307e-06,0.865592,0.6204615239538487,2.511679753069984e-11,1.7606554993498946e-05,0.6204615239538487,-4.1230615001053295e-06,-0.6180173155240793
671,0.6215,774.497,828.101,-0.490632,0.00334255,0.0248309,-0.130472,0.483327,0.483327,-0.963621,4.05108e-11,1.58894e-05,-7.37814e-06,0.86671,0.6214600357626672,4.051070590094241e-11,1.5889526237211626e-05,0.6214600357626672,-7.378112781619706e-06,-0.6184910620150156
672,0.6225,774.595,828.117,-0.434238,0.0033311,0.0179651,-0.141787,0.483944,0.483944,-0.964855,4.37359e-11,1.57026e-05,-8.07055e-06,0.867823,0.6224607853042183,4.373590378747849e-11,1.5702723286548093e-05,0.6224607853042183,-8.070517433234059e-06,-0.618961553691421
673,0.6235,775.299,828.885,0.302155,0.00332644,0.0935559,-0.0153513,0.48456,0.48456,-0.966083,3.26795e-11,1.75222e-05,-5.41099e-06,0.868931,0.6234605290374222,3.267941472984148e-11,1.752235351459852e-05,0.6234605290374222,-5.410975360664594e-06,-0.6194291817211132
674,0.6245,774.496,828.073,-0.505491,0.0033244,0.0337378,-0.116256,0.485176,0.485176,-0.967318,4.38942e-11,1.6329e-05,-7.80893e-06,0.870045,0.6244608888024843,4.389422159079004e-11,1.6329133318837563e-05,0.6244608888024843,-7.808899510353129e-06,-0.6198988965730647
675,0.6255,774.624,828.299,-0.327615,0.00332574,0.0195096,-0.139675,0.485791,0.485791,-0.968549,4.80414e-11,1.59967e-05,-8.73539e-06,0.871154,0.6254602395179445,4.804134867697485e-11,1.599682794783952e-05,0.6254602395179445,-8.735351846644868e-06,-0.6203665131543269
676,0.6265,775.01,828.558,-0.0056627,0.00331208,0.082278,-0.0337861,0.486406,0.486406,-0.969777,3.95083e-11,1.75119e-05,-6.57055e-06,0.872261,0.6264602050231234,3.950839655431082e-11,1.751205333411221e-05,0.6264602050231234,-6.570528414018284e-06,-0.6208324169526933
677,0.6275,774.843,828.537,-0.0987025,0.0033168,0.0660497,-0.0625146,0.487021,0.487021,-0.971006,4.32143e-11,1.73447e-05,-7.26532e-06,0.873369,0.6274607856962324,4.321432101050959e-11,1.7344850420153435e-05,0.6274607856962324,-7.265293607616741e-06,-0.6212981276744008
678,0.6285,775.183,828.743,0.17332,0.00330305,0.0688307,-0.0562958,0.487635,0.487635,-0.972234,4.35141e-11,1.75804e-05,-7.22681e-06,0.874475,0.628460353454549,4.3514081227158385e-11,1.7580554536156257e-05,0.628460353454549,-7.226783886649102e-06,-0.621762888152279
679,0.6295,774.593,828.018,-0.485582,0.0032912,0.0617061,-0.0684634,0.488249,0.488249,-0.973464,4.58172e-11,1.75832e-05,-7.61767e-06,0.875582,0.6294605351359241,4.581712786944081e-11,1.7583354585459787e-05,0.6294605351359241,-7.61764098566875e-06,-0.6222278337996605
680,0.6305,775.528,828.855,0.399889,0.00327853,0.107939,0.00839643,0.488863,0.488863,-0.974685,3.77595e-11,1.88798e-05,-5.85418e-06,0.876685,0.6304613311174225,3.7759573245921274e-11,1.8879978224584093e-05,0.6304613311174225,-5.854162864360468e-06,-0.62268881213005
681,0.6315,775.595,828.877,0.444245,0.00327113,0.100245,-0.0035392,0.489476,0.489476,-0.975911,3.86829e-11,1.9041e-05,-5.95403e-06,0.87779,0.6314611103144143,3.8682834713199554e-11,1.904118128104315e-05,0.6314611103144143,-5.9540122747669955e-06,-0.6231511121985305
682,0.6325,774.466,827.792,-0.662802,0.00327416,0.0231362,-0.132766,0.490089,0.490089,-0.977143,5.36027e-11,1.74387e-05,-9.01991e-06,0.8789,0.6324615025639351,5.360267785192718e-11,1.7438852055073895e-05,0.6324615025639351,-9.019869320781027e-06,-0.6236151041505713
683,0.6335,775.711,829.066,0.596889,0.00326977,0.0948914,-0.0126126,0.490701,0.490701,-0.978362,4.21965e-11,1.9201e-05,-6.45689e-06,0.880001,0.6334608747802102,4.219646854153325e-11,1.92011843402895e-05,0.6334608747802102,-6.456869154347622e-06,-0.6240736378055688
684,0.6345,774.453,827.904,-0.611982,0.00327552,0.00930983,-0.156786,0.491313,0.491313,-0.979593,5.86516e-11,1.73592e-05,-9.93949e-06,0.881111,0.634460858799474,5.865152807871254e-11,1.7359350671819485e-05,0.634460858799474,-9.939440603456973e-06,-0.6245361184421963
685,0.6355,774.775,828.502,-0.150424,0.00328823,0.022377,-0.134836,0.491925,0.491925,-0.980814,5.92341e-11,1.75942e-05,-9.91648e-06,0.882212,0.6354614549962649,5.923417312203583e-11,1.7594354778882604e-05,0.6354614549962649,-9.916430831924394e-06,-0.6249942800769797
686,0.6365,775.106,828.833,0.180628,0.00328561,0.0725056,-0.0503202,0.492536,0.492536,-0.982034,5.25825e-11,1.88158e-05,-8.24167e-06,0.883315,0.6364610272835045,5.258260493690159e-11,1.881597701824944e-05,0.6364610272835045,-8.241636037520372e-06,-0.6254515080894867
687,0.6375,775.192,828.789,0.20072,0.00327701,0.0637196,-0.065542,0.493147,0.493147,-0.983255,5.52578e-11,1.87917e-05,-8.68286e-06,0.884416,0.6374612104960304,5.5257798337038366e-11,1.879187656506076e-05,0.6374612104960304,-8.682822304040272e-06,-0.6259085527155834
688,0.6385,775.22,829.061,0.352818,0.00329058,0.070253,-0.0547478,0.493757,0.493757,-0.984475,5.5155e-11,1.91057e-05,-8.53484e-06,0.885518,0.638460366546046,5.515499168495808e-11,1.9105882514969252e-05,0.638460366546046,-8.534803578319483e-06,-0.6263646659955964
689,0.6395,774.639,828.417,-0.259982,0.003286,0.0555661,-0.0784581,0.494367,0.494367,-0.985698,5.88542e-11,1.89224e-05,-9.2069e-06,0.886623,0.6394601322671831,5.88542548030091e-11,1.8922579029689857e-05,0.6394601322671831,-9.206857616628206e-06,-0.6268213426943604
690,0.6405,775.091,829.228,0.373886,0.00330566,0.11077,0.0121483,0.494977,0.494977,-0.986912,4.90344e-11,2.04174e-05,-7.11781e-06,0.887719,0.640460508031454,4.903433215019959e-11,2.041760843662921e-05,0.640460508031454,-7.117784668442262e-06,-0.6272741067009706
691,0.6415,775.156,828.908,0.243605,0.00328277,0.0966345,-0.00932734,0.495587,0.495587,-0.988131,5.12575e-11,2.04323e-05,-7.44425e-06,0.88882,0.6414614942110992,5.1257442734709e-11,2.0432508740952926e-05,0.6414614942110992,-7.444222291597136e-06,-0.6277281827493224
692,0.6425,774.757,828.635,-0.0916493,0.00329112,0.059004,-0.0739745,0.496196,0.496196,-0.989351,5.95331e-11,1.97877e-05,-8.93881e-06,0.889919,0.6424614487163154,5.953304516026492e-11,1.9787895777723108e-05,0.6424614487163154,-8.938770048927402e-06,-0.6281820774343123
693,0.6435,775.399,829.228,0.525573,0.00328586,0.0981757,-0.00700511,0.496804,0.496804,-0.990567,5.21811e-11,2.09042e-05,-7.42557e-06,0.891015,0.6434603689181042,5.218114829119713e-11,2.0904418494227528e-05,0.6434603689181042,-7.425542430494758e-06,-0.6286339332441415
694,0.6445,775.202,828.855,0.239229,0.00327467,0.0476133,-0.0919913,0.497413,0.497413,-0.991786,6.31332e-11,1.99446e-05,-9.42791e-06,0.892114,0.6444615411087642,6.313327638451938e-11,1.994479889488865e-05,0.6444615411087642,-9.427865557354309e-06,-0.6290863526738514
695,0.6455,775.408,829.013,0.421306,0.00326482,0.0849922,-0.0290514,0.49802,0.49802,-0.993002,5.69199e-11,2.0969e-05,-8.09469e-06,0.893209,0.6454600322756288,5.6919802204902226e-11,2.096921985095257e-05,0.6454600322756288,-8.094657238055802e-06,-0.6295371095532745
696,0.6465,775.406,829.15,0.489118,0.0032699,0.090366,-0.0206079,0.498628,0.498628,-0.994218,5.61123e-11,2.13524e-05,-7.84616e-06,0.894305,0.6464607761705681,5.611222597678989e-11,2.135262796421067e-05,0.6464607761705681,-7.846129219002407e-06,-0.6299873186454543
697,0.6475,774.684,828.641,-0.124463,0.00327879,0.0589009,-0.0731579,0.499235,0.499235,-0.995435,6.33459e-11,2.08297e-05,-9.091e-06,0.895401,0.6474604812414975,6.334599511603756e-11,2.082991693974634e-05,0.6474604812414975,-9.090958676960526e-06,-0.6304373501789299
698,0.6485,774.951,828.796,0.0856785,0.00327144,0.0713196,-0.051615,0.499842,0.499842,-0.996652,6.19285e-11,2.12763e-05,-8.71163e-06,0.896493,0.6484607933176127,6.192846235819616e-11,2.1276526342095536e-05,0.6484607933176127,-8.711592053844974e-06,-0.6308868343571625
699,0.6487,774.848,828.262,-0.235983,0.00313482,0.0578402,-0.073933,0.499994,0.499994,-0.996957,6.51342e-11,2.10613e-05,-9.25894e-06,0.896768,0.648711378402181,6.513412031949883e-11,2.1061521790821658e-05,0.648711378402181,-9.25889713609962e-06,-0.6309993967060528
700,0.6491,775.555,828.318,0.141045,0.00296178,0.0751429,-0.0517934,0.500221,0.500221,-0.997409,6.38709e-11,2.15415e-05,-8.88098e-06,0.897178,0.6490856783665169,6.387090856208033e-11,2.1541732019736415e-05,0.6490856783665169,-8.880940564170992e-06,-0.6311661472902707
701,0.6496,775.337,827.648,-0.305936,0.00278736,0.037989,-0.10135,0.500562,0.500562,-0.998093,7.05042e-11,2.08395e-05,-1.01405e-05,0.897793,0.6496481124724047,7.050426908961072e-11,2.0839717143950054e-05,0.6496481124724047,-1.0140448585271855e-05,-0.6314183433846272
702,0.6505,775.488,827.494,-0.309759,0.00271069,0.0291992,-0.118423,0.501073,0.501073,-0.999116,7.47971e-11,2.06879e-05,-1.08479e-05,0.898713,0.6504912980734514,7.479705743662635e-11,2.0688113996136792e-05,0.6504912980734514,-1.0847841161787386e-05,-0.6317952096193988
703,0.6515,776.333,828.241,0.485935,0.00274682,0.0881714,-0.0222524,0.501679,0.501679,-1.00032,6.49774e-11,2.21846e-05,-8.79857e-06,0.899799,0.6514917989212226,6.497735682842176e-11,2.2184846079964515e-05,0.6514917989212226,-8.798531292653067e-06,-0.6322382614163141
704,0.6517,775.934,827.482,-0.0951581,0.0026334,0.0497201,-0.0824331,0.50183,0.50183,-1.00063,7.23815e-11,2.14405e-05,-1.01444e-05,0.900074,0.6517411930116397,7.238143417964693e-11,2.1440729849109275e-05,0.6517411930116397,-1.0144348545737536e-05,-0.6323522498861494
705,0.6521,776.653,827.557,0.29771,0.00249065,0.0745882,-0.0513608,0.502057,0.502057,-1.00108,7.03512e-11,2.20785e-05,-9.57924e-06,0.900481,0.6521161808219595,7.035128035681737e-11,2.207874373194585e-05,0.6521161808219595,-9.579194119258005e-06,-0.6325176541549489
706,0.6527,775.979,826.599,-0.519792,0.00235491,0.0213995,-0.123269,0.502398,0.502398,-1.00177,7.93382e-11,2.0998e-05,-1.13666e-05,0.901097,0.6526796485053998,7.933809165194816e-11,2.0998220459533812e-05,0.6526796485053998,-1.1366535400458844e-05,-0.6327711295145264
707,0.6535,776.414,827.197,-0.00278864,0.00233757,0.00895551,-0.150049,0.502908,0.502908,-1.00279,8.51759e-11,2.06917e-05,-1.23962e-05,0.902014,0.6535227300936688,8.517586636003216e-11,2.0691914074610906e-05,0.6535227300936688,-1.2396123167390805e-05,-0.6331455119948975
708,0.6545,775.593,826.743,-0.637792,0.00243826,0.0127273,-0.147428,0.503513,0.503513,-1.004,8.81884e-11,2.07028e-05,-1.28432e-05,0.903109,0.6545234140217406,8.818834551505006e-11,2.0703014304457312e-05,0.6545234140217406,-1.2843117526473158e-05,-0.6335891374778405
709,0.6555,775.433,827.037,-0.567693,0.00253191,0.0281581,-0.122105,0.504117,0.504117,-1.0052,8.84389e-11,2.10238e-05,-1.26982e-05,0.904196,0.655523048022888,8.84388118294055e-11,2.1024021001680993e-05,0.655523048022888,-1.2698119378207195e-05,-0.6340285668025408
710,0.6565,776.408,827.944,0.372226,0.00258349,0.0813651,-0.0325321,0.504721,0.504721,-1.00641,-7.82152e-10,2.23774e-05,-1.08249e-05,0.90528,0.6565232859853498,-7.821520098261203e-10,2.237765037582662e-05,0.6565232859853498,-1.0824841411016806e-05,-0.6344711244353461
711,0.6575,775.273,826.934,-0.699224,0.00264556,0.0206774,-0.134984,0.505324,0.505324,-1.00762,9.34245e-11,2.10787e-05,-1.34113e-05,0.90637,0.6575224707507299,9.342460138839215e-11,2.107892215730267e-05,0.6575224707507299,-1.3411210068925428e-05,-0.6349131468972595
712,0.6585,775.715,828.291,0.206419,0.00274685,-0.00373955,-0.176913,0.505928,0.505928,-1.00883,1.00427e-10,2.04157e-05,-1.49024e-05,0.907454,0.6585239167293035,1.0042700004930794e-10,2.0415908401849592e-05,0.6585239167293035,-1.490228895983936e-05,-0.635354634835446
713,0.6595,775.41,828.264,0.0423641,0.00280577,0.0605449,-0.066614,0.50653,0.50653,-1.01004,9.19116e-11,2.19026e-05,-1.27281e-05,0.908542,0.6595226487153403,9.191158945043298e-11,2.1902839863585655e-05,0.6595226487153403,-1.2728018998098278e-05,-0.6357955888962883
714,0.6605,775.934,828.587,0.464169,0.00283352,0.0903899,-0.0181586,0.507133,0.507133,-1.01124,8.7425e-11,2.28083e-05,-1.16399e-05,0.90963,0.6605236426418535,8.74249561633178e-11,2.2808560111275966e-05,0.6605236426418535,-1.1639832256604699e-05,-0.6362323720672961
715,0.6615,775.202,828.399,0.00803663,0.00290469,0.0466397,-0.0931468,0.507735,0.507735,-1.01244,9.72061e-11,2.19663e-05,-1.34543e-05,0.910713,0.6615235788253169,9.720602101026543e-11,2.1966541260853845e-05,0.6615235788253169,-1.345420949128151e-05,-0.6366686314128569
716,0.6625,775.092,827.932,-0.282781,0.00291465,-0.00460861,-0.174636,0.508336,0.508336,-1.01365,1.0761e-10,2.07473e-05,-1.57882e-05,0.9118,0.6625224546283035,1.0760992097402777e-10,2.074751522673779e-05,0.6625224546283035,-1.5788075367062504e-05,-0.6371079964993638
717,0.6635,775.355,828.613,0.191912,0.00296063,0.123973,0.0374826,0.508938,0.508938,-1.01485,8.61834e-11,2.387e-05,-1.10033e-05,0.912879,0.6635235944588438,8.618350477718195e-11,2.387028489070353e-05,0.6635235944588438,-1.1003239463902581e-05,-0.6375432057258036
718,0.6645,774.97,827.664,-0.479068,0.00295546,0.00686844,-0.157214,0.509539,0.509539,-1.01605,1.09315e-10,2.13204e-05,-1.56442e-05,0.913962,0.6645236726325023,1.0931500149524709e-10,2.1320627281440352e-05,0.6645236726325023,-1.564407763010589e-05,-0.6379778930143969
719,0.6655,775.99,828.374,0.383891,0.00294992,0.101124,2.57153e-05,0.510139,0.510139,-1.01725,9.4305e-11,2.36379e-05,-1.21872e-05,0.915041,0.6655226865102748,9.43050082469199e-11,2.363817937744983e-05,0.6655226865102748,-1.2187125736362603e-05,-0.6384120589910938
720,0.6665,775.406,827.798,-0.195765,0.00295883,0.0571638,-0.0733499,0.51074,0.51074,-1.01845,1.03845e-10,2.28439e-05,-1.39029e-05,0.916124,0.6665239664993656,1.0384493265291894e-10,2.2844160923796153e-05,0.6665239664993656,-1.3902803355114735e-05,-0.6388457042810931
721,0.6675,775.235,827.576,-0.392509,0.00296491,0.0570899,-0.0733008,0.511339,0.511339,-1.01964,1.05594e-10,2.29752e-05,-1.40728e-05,0.917203,0.6675225133902358,1.0559397800591341e-10,2.297546393181804e-05,0.6675225133902358,-1.4072700978640107e-05,-0.639275222279103
722,0.6678,775.8,827.856,0.0280811,0.0028429,0.0686318,-0.0575255,0.511489,0.511489,-1.01994,1.04996e-10,2.32953e-05,-1.38048e-05,0.917471,0.6677726605278107,1.049960118848503e-10,2.329557133751159e-05,0.6677726605278107,-1.3804704714237559e-05,-0.6393834234814275
723,0.6681,776.103,827.635,0.0654395,0.00268955,0.052534,-0.0769104,0.511714,0.511714,-1.02039,1.078e-10,2.30378e-05,-1.43383e-05,0.917876,0.6681479515950912,1.077999911558436e-10,2.303806537207187e-05,0.6681479515950912,-1.4338197207086623e-05,-0.6395456644339086
724,0.6687,776.253,827.293,-0.0336622,0.00253112,0.0607381,-0.065947,0.512051,0.512051,-1.02106,1.08452e-10,2.33404e-05,-1.42472e-05,0.918483,0.6687102121903679,1.0845191411590349e-10,2.3340672389293715e-05,0.6687102121903679,-1.4247098509168055e-05,-0.6397870879528279
725,0.6696,776.132,827.163,-0.1589,0.00248617,-0.0278527,-0.205077,0.512557,0.512557,-1.02208,1.23885e-10,2.12835e-05,-1.78654e-05,0.919392,0.6695547932187162,1.2388490233661287e-10,2.128372649523591e-05,0.6695547932187162,-1.786524041469395e-05,-0.6401543178040531
726,0.6706,775.204,827.083,-0.657506,0.00259218,0.133477,0.0546772,0.513156,0.513156,-1.02327,9.79946e-11,2.51563e-05,-1.19701e-05,0.92047,0.6705551561186316,9.799450140235422e-11,2.515661642243927e-05,0.6705551561186316,-1.1970028358621043e-05,-0.640582279478167
727,0.6716,775.446,826.915,-0.623401,0.00261986,0.0354988,-0.108306,0.513754,0.513754,-1.02446,1.18449e-10,2.31285e-05,-1.57555e-05,0.92155,0.6715544468601433,1.1844902836344318e-10,2.312876746590753e-05,0.6715544468601433,-1.5755375882720024e-05,-0.641009732180787
728,0.6726,775.439,827.219,-0.47329,0.00267676,-0.0303198,-0.216588,0.514352,0.514352,-1.02566,1.3141e-10,2.14727e-05,-1.88494e-05,0.922632,0.6725543353562289,1.3140999399752218e-10,2.147293054011179e-05,0.6725543353562289,-1.8849222351180472e-05,-0.6414402621325355
729,0.6736,776.077,827.799,0.135723,0.00270243,0.135097,0.0590759,0.51495,0.51495,-1.02685,1.04043e-10,2.54618e-05,-1.26003e-05,0.923708,0.6735548219644529,1.0404299644051207e-10,2.5462124154440602e-05,0.6735548219644529,-1.2600220616554303e-05,-0.6418666944430504
730,0.6746,776.009,827.979,0.193226,0.00275576,0.00761312,-0.15271,0.515547,0.515547,-1.02805,1.29279e-10,2.26676e-05,-1.7607e-05,0.924793,0.6745542324875236,1.2927903192405665e-10,2.2667856911962048e-05,0.6745542324875236,-1.7606844997630766e-05,-0.6422961966568501
731,0.6756,775.723,828.13,0.128911,0.00280808,0.182414,0.135757,0.516144,0.516144,-1.02924,9.39275e-11,2.70743e-05,-1.07226e-05,0.925874,0.6755542398368115,9.392753241854734e-11,2.7074666512083567e-05,0.6755542398368115,-1.0722542513108557e-05,-0.6427216110110853
732,0.6766,774.746,827.609,-0.616881,0.00287406,-0.019211,-0.197761,0.516741,0.516741,-1.03044,1.35101e-10,2.25752e-05,-1.85182e-05,0.926955,0.6765548443687281,1.3510104146519097e-10,2.2575454821760488e-05,0.6765548443687281,-1.851802853913842e-05,-0.6431500879402973
733,0.6776,774.61,827.654,-0.661705,0.00291027,-0.0107475,-0.186538,0.517337,0.517337,-1.03164,1.38048e-10,2.25754e-05,-1.89439e-05,0.928036,0.6775543688846903,1.38048017461756e-10,2.2575654826217928e-05,0.6775543688846903,-1.894372056543414e-05,-0.6435780510055742
734,0.6786,775.024,828.533,-0.0116817,0.00295713,-0.0210253,-0.20101,0.517933,0.517933,-1.03284,1.42518e-10,2.2126e-05,-1.99777e-05,0.929104,0.6785544892948228,1.425179974035018e-10,2.2126244781706106e-05,0.6785544892948228,-1.9977500447132535e-05,-0.6440055008231829
735,0.6796,774.068,828.259,-0.621663,0.00302687,0.0664109,-0.0581285,0.518529,0.518529,-1.03403,1.32307e-10,2.41438e-05,-1.7016e-05,0.93018,0.6795552059543846,1.323070542014193e-10,2.4144091463895734e-05,0.6795552059543846,-1.701585522873028e-05,-0.6444288823152531
736,0.6806,774.452,828.817,-0.149211,0.00306448,0.113015,0.0213031,0.519124,0.519124,-1.03522,1.23577e-10,2.55124e-05,-1.50579e-05,0.931249,0.6805548386631672,1.2357692646958185e-10,2.5512725444043483e-05,0.6805548386631672,-1.505778663035695e-05,-0.644851760283004
737,0.6816,774.373,828.526,-0.33608,0.00306427,0.100436,-0.00267088,0.519719,0.519719,-1.0364,1.26655e-10,2.55651e-05,-1.54187e-05,0.93231,0.681555066330394,1.2665490878305263e-10,2.5565426789997403e-05,0.681555066330394,-1.5418581132409237e-05,-0.6452705880488901
738,0.6826,773.919,828.423,-0.611823,0.00310297,0.0944258,-0.0117854,0.520313,0.520313,-1.0376,1.27889e-10,2.57249e-05,-1.549e-05,0.933383,0.6825542067551227,1.2788903269722596e-10,2.572523088817391e-05,0.6825542067551227,-1.548988003052809e-05,-0.6456960080401863
739,0.6828,774.309,828.268,-0.498414,0.00297758,0.0658392,-0.05941,0.520462,0.520462,-1.03789,1.33925e-10,2.51893e-05,-1.65707e-05,0.933648,0.6828049260100497,1.33925093237508e-10,2.5189617253174035e-05,0.6828049260100497,-1.6570562706763603e-05,-0.6457987413008119
740,0.6831,774.907,828.426,-0.123578,0.00285551,0.0678863,-0.0566168,0.52061,0.52061,-1.03819,-6.17937e-10,2.53095e-05,-1.65746e-05,0.933915,0.6830539995700879,-6.179370348746716e-10,2.530982028803308e-05,0.6830539995700879,-1.657446264202722e-05,-0.6459049857409587
741,0.6834,775.46,828.577,0.225257,0.00270536,0.0489968,-0.0798287,0.520833,0.520833,-1.03863,1.37758e-10,2.49806e-05,-1.71997e-05,0.934318,0.6834293624633991,1.377580272077239e-10,2.4980912017857904e-05,0.6834293624633991,-1.7199552086011316e-05,-0.646060753275862
742,0.684,775.65,827.98,0.0170668,0.00254351,0.0366556,-0.0981655,0.521167,0.521167,-1.03931,1.41458e-10,2.47836e-05,-1.78135e-05,0.934918,0.68399172177924,1.414579564595897e-10,2.478390711591061e-05,0.68399172177924,-1.7813341340544575e-05,-0.6463013501514256
743,0.6842,776.257,827.904,0.278065,0.00245111,0.0695999,-0.0539613,0.521292,0.521292,-1.03955,1.38522e-10,2.55539e-05,-1.6922e-05,0.935144,0.6842022339011957,1.3852208269327093e-10,2.5554226503743394e-05,0.6842022339011957,-1.6921856823781667e-05,-0.6463862276416832
744,0.6845,776.714,827.777,0.438897,0.00233269,0.0710841,-0.0513443,0.52148,0.52148,-1.03993,1.39293e-10,2.56851e-05,-1.69354e-05,0.935481,0.6845188936862563,1.3929302156157064e-10,2.5685429865029974e-05,0.6845188936862563,-1.69352565969616e-05,-0.6465205753474985
745,0.685,775.986,827.262,-0.180685,0.00221214,0.092514,-0.0216683,0.521762,0.521762,-1.0405,1.37564e-10,2.633e-05,-1.63244e-05,0.935995,0.6849939950004125,1.3756396022301942e-10,2.633034663745981e-05,0.6849939950004125,-1.6324266757683503e-05,-0.6467220012077267
746,0.6857,776.536,827.569,0.246102,0.0021417,-0.00207215,-0.156399,0.522184,0.522184,-1.04134,1.5241e-10,2.42461e-05,-1.96565e-05,0.936758,0.6857052125226453,1.5241008455291194e-10,2.424639393905359e-05,0.6857052125226453,-1.9656306812221302e-05,-0.6470186301251251
747,0.686,776.576,827.284,0.121932,0.00205447,0.0763256,-0.0447248,0.522333,0.522333,-1.04164,1.43994e-10,2.60083e-05,-1.73177e-05,0.937027,0.6859564013124113,1.4399392789243848e-10,2.600863821866639e-05,0.6859564013124113,-1.7317550049522623e-05,-0.6471245086535142
748,0.6863,777.152,827.124,0.325489,0.0019487,0.0906763,-0.0249819,0.522555,0.522555,-1.04207,1.43161e-10,2.64649e-05,-1.69276e-05,0.937428,0.6863307251819148,1.4316103857936469e-10,2.6465250198448587e-05,0.6863307251819148,-1.6927456728987877e-05,-0.6472762124961295
749,0.6869,776.374,826.288,-0.482067,0.00186222,0.0274757,-0.109232,0.522889,0.522889,-1.04274,1.52482e-10,2.51528e-05,-1.89824e-05,0.938031,0.6868940537147536,1.5248202700490765e-10,2.5153116334220016e-05,0.6868940537147536,-1.898221983542836e-05,-0.6475124582825811
750,0.6871,777.154,826.763,0.144076,0.00179814,0.0742718,-0.0466458,0.523014,0.523014,-1.04298,1.48097e-10,2.62246e-05,-1.76871e-05,0.938252,0.6871049286508768,1.4809709014684813e-10,2.622494386783636e-05,0.6871049286508768,-1.7686943584172e-05,-0.6475970451417642
751,0.6874,777.124,826.593,0.0436228,0.00171773,0.0371784,-0.0910476,0.523201,0.523201,-1.04336,1.52604e-10,2.54782e-05,-1.87661e-05,0.938588,0.6874204467725595,1.526039294930115e-10,2.5478524572131178e-05,0.6874204467725595,-1.8765923917807292e-05,-0.6477309328243396
752,0.6879,777.012,825.645,-0.490968,0.00162641,0.0229369,-0.112125,0.523482,0.523482,-1.04393,1.5639e-10,2.52062e-05,-1.94498e-05,0.939095,0.6878946785445461,1.563900120515882e-10,2.5206517678899587e-05,0.6878946785445461,-1.94496108538722e-05,-0.6479316689773911
753,0.6886,777.953,826.806,0.561076,0.00160983,0.0999845,-0.00366307,0.523904,0.523904,-1.04477,1.47655e-10,2.71314e-05,-1.70741e-05,0.939859,0.6886071204135535,1.476549993384424e-10,2.7131768059796002e-05,0.6886071204135535,-1.7073954238333577e-05,-0.6482272822005144
754,0.6896,777.178,826.586,0.0667213,0.00177511,0.0391635,-0.0971644,0.524496,0.524496,-1.04595,1.59563e-10,2.58839e-05,-1.93622e-05,0.940918,0.6896070717852403,1.595630294559669e-10,2.5884234990947164e-05,0.6896070717852403,-1.936201255381409e-05,-0.6486421291996521
755,0.6906,777.526,826.877,0.385768,0.00189456,0.0836758,-0.021461,0.525088,0.525088,-1.04714,1.52509e-10,2.71043e-05,-1.7693e-05,0.941976,0.6906076153033973,1.5250889440210358e-10,2.7104667324806542e-05,0.6906076153033973,-1.769284347974409e-05,-0.6490599963856172
756,0.6916,777.594,826.779,0.370154,0.00198194,0.159001,0.100033,0.525679,0.525679,-1.04831,1.35066e-10,2.93291e-05,-1.44971e-05,0.943048,0.6916070597107735,1.3506595841761282e-10,2.9329530102151224e-05,0.6916070597107735,-1.4496994917512218e-05,-0.6494703560826114
757,0.6926,777.226,826.089,-0.160634,0.00205164,-0.000115577,-0.160607,0.52627,0.52627,-1.0495,1.69331e-10,2.57962e-05,-2.06873e-05,0.944113,0.6926070949643723,1.6933099367122395e-10,2.5796532724831067e-05,0.6926070949643723,-2.068708601932201e-05,-0.6498872382647791
758,0.6929,776.808,825.808,-0.509453,0.00197096,0.0529031,-0.0706196,0.526418,0.526418,-1.0498,1.61249e-10,2.69924e-05,-1.88323e-05,0.94438,0.6928576193527745,1.6124901414116266e-10,2.6992764298183758e-05,0.6928576193527745,-1.8832122673395624e-05,-0.6499922563398008
759,0.6931,777.603,826.345,0.155114,0.00189226,0.0740891,-0.0452907,0.526565,0.526565,-1.05009,1.60111e-10,2.75323e-05,-1.83377e-05,0.944644,0.6931064877141957,1.6011103554092188e-10,2.7532679017339134e-05,0.6931064877141957,-1.8337531865419976e-05,-0.6500937438690593
760,0.6935,778.352,825.954,0.328922,0.00179217,0.028658,-0.101381,0.526787,0.526787,-1.05054,1.66192e-10,2.65938e-05,-1.97143e-05,0.945042,0.6934823990790859,1.6619194909139878e-10,2.659415361816464e-05,0.6934823990790859,-1.971410567447318e-05,-0.6502511662616234
761,0.694,778.867,826.069,0.64233,0.00170522,0.0965123,-0.0100506,0.527119,0.527119,-1.0512,1.5899e-10,2.82848e-05,-1.77435e-05,0.94565,0.6940447285771116,1.589899323306554e-10,2.8285200018629553e-05,0.6940447285771116,-1.774334258508592e-05,-0.6504819243333505
762,0.6949,777.007,825.557,-0.537413,0.00178272,-0.0500831,-0.236749,0.527617,0.527617,-1.05223,1.84261e-10,2.48403e-05,-2.3438e-05,0.946569,0.6948885729517527,1.8426105086177813e-10,2.4840608522813667e-05,0.6948885729517527,-2.3437725332198234e-05,-0.6508417426130622
763,0.6959,776.522,826.369,-0.367416,0.00196585,-0.0772128,-0.289388,0.528207,0.528207,-1.0534,1.93135e-10,2.37741e-05,-2.56972e-05,0.947634,0.6958888522631745,1.93135063497607e-10,2.3774382606145394e-05,0.6958888522631745,-2.5696869829783253e-05,-0.6512500188860111
764,0.6969,776.939,827.722,0.522245,0.00212172,-0.0518335,-0.249236,0.528796,0.528796,-1.05459,1.95066e-10,2.39559e-05,-2.57861e-05,0.948693,0.6968880250246496,1.9506596338203508e-10,2.395618694484014e-05,0.6968880250246496,-2.5785767541419702e-05,-0.6516647845290333
765,0.6979,777.026,827.689,0.549369,0.0021991,0.189809,0.152489,0.529385,0.529385,-1.05576,1.53473e-10,2.99077e-05,-1.62685e-05,0.949769,0.6978877864722322,1.5347301207668806e-10,2.990814723968782e-05,0.6978877864722322,-1.6268367668659245e-05,-0.652072098406052
766,0.6981,776.673,827.355,0.205455,0.00211564,0.0697171,-0.0485874,0.529533,0.529533,-1.05606,1.78485e-10,2.73937e-05,-2.06619e-05,0.950034,0.6981390924608146,1.784850045538633e-10,2.7394075210906976e-05,0.6981390924608146,-2.066168654446532e-05,-0.6521764611213401
767,0.6985,776.257,826.788,-0.286989,0.00201224,0.0426927,-0.0818767,0.529753,0.529753,-1.0565,1.8224e-10,2.68736e-05,-2.15141e-05,0.950432,0.6985127241591358,1.822400008677505e-10,2.6873961098461407e-05,0.6985127241591358,-2.1513868573408423e-05,-0.6523294698140658
768,0.6989,776.38,826.539,-0.351776,0.00191058,0.0869282,-0.0258044,0.529974,0.529974,-1.05694,1.79226e-10,2.79725e-05,-2.03355e-05,0.950831,0.6988881369527606,1.7922596740049812e-10,2.797289123401825e-05,0.6988881369527606,-2.0335293235085317e-05,-0.6524824111977758
769,0.6993,776.933,826.618,-0.0386341,0.00181629,0.0793013,-0.0351316,0.530195,0.530195,-1.05738,1.81138e-10,2.7938e-05,-2.05864e-05,0.95123,0.6992636327217814,1.8113799349350757e-10,2.7938390269488522e-05,0.6992636327217814,-2.058618810152346e-05,-0.6526352853020794
770,0.6998,776.817,826.258,-0.277652,0.001739,0.000685885,-0.142781,0.530526,0.530526,-1.05804,1.91833e-10,2.62077e-05,-2.32557e-05,0.951825,0.6998261820809952,1.9183299393432662e-10,2.6208043424791327e-05,0.6998261820809952,-2.3255429588253662e-05,-0.6528644703743869
771,0.7004,777.513,826.839,0.359895,0.00166494,0.102166,-0.000997581,0.530857,0.530857,-1.0587,1.81599e-10,2.86441e-05,-2.01551e-05,0.952416,0.700388917674867,1.8159895809333193e-10,2.864451024620074e-05,0.700388917674867,-2.0154896887336626e-05,-0.6530935042344519
772,0.701,777.167,826.161,-0.153331,0.00159189,0.0972858,-0.0066633,0.531187,0.531187,-1.05937,1.83249e-10,2.87724e-05,-2.02602e-05,0.953017,0.7009501386140615,1.8324897155252984e-10,2.8772813929434093e-05,0.7009501386140615,-2.0259994763516254e-05,-0.6533258537408384
773,0.7018,776.8,826.014,-0.409428,0.00164141,0.134482,0.0555186,0.531683,0.531683,-1.06035,1.7539e-10,3.00146e-05,-1.86061e-05,0.953906,0.701794019147886,1.7538992480581328e-10,3.001505044264441e-05,0.701794019147886,-1.8605926907611092e-05,-0.6536654279856151
774,0.702,777.848,826.868,0.540739,0.00157956,0.0704892,-0.0461259,0.53183,0.53183,-1.06064,1.87985e-10,2.87068e-05,-2.08564e-05,0.954171,0.702044201256635,1.8798496093097583e-10,2.87072120441767e-05,0.702044201256635,-2.085618250680099e-05,-0.6537658504495383
775,0.7024,777.788,826.488,0.319122,0.00150505,0.0390484,-0.0846329,0.532051,0.532051,-1.06107,1.9241e-10,2.80827e-05,-2.18307e-05,0.954568,0.7024203945929455,1.9241008786252678e-10,2.8083094322672864e-05,0.7024203945929455,-2.1830461712002425e-05,-0.6539146991290854
776,0.703,777.217,825.939,-0.240687,0.00145006,0.0919318,-0.014358,0.532381,0.532381,-1.06173,1.87525e-10,2.94386e-05,-2.03091e-05,0.955154,0.7029822860301489,1.875251065541761e-10,2.9439033319755836e-05,0.7029822860301489,-2.0308893771581182e-05,-0.654143040066862
777,0.7032,777.262,825.511,-0.434581,0.00140004,0.0725228,-0.0433083,0.532505,0.532505,-1.06198,1.9135e-10,2.90884e-05,-2.09777e-05,0.955381,0.7031934689266857,1.9135004691861468e-10,2.9088823071621306e-05,0.7031934689266857,-2.097747996954169e-05,-0.6542294934997158
778,0.7035,777.673,825.49,-0.241217,0.00133994,0.0606989,-0.0569186,0.532691,0.532691,-1.06235,-4.46502e-10,2.89125e-05,-2.13502e-05,0.955713,0.7035102923755734,-4.46501946527178e-10,2.891291797024742e-05,0.7035102923755734,-2.1349972086137647e-05,-0.6543574049220485
779,0.7036,777.968,825.627,-0.026185,0.00131211,0.0618117,-0.0554287,0.53276,0.53276,-1.06248,1.93843e-10,2.89699e-05,-2.13482e-05,0.955836,0.7036278386410468,1.93842941698108e-10,2.8970319631671515e-05,0.7036278386410468,-2.1347972128826775e-05,-0.6544023355388553
780,0.7038,778.383,825.721,0.227099,0.0012731,0.0592225,-0.0582134,0.532865,0.532865,-1.06269,1.94716e-10,2.89612e-05,-2.14549e-05,0.956025,0.7038067289556813,1.9471602108467323e-10,2.896161937959718e-05,0.7038067289556813,-2.1454669845266672e-05,-0.6544749034284971
781,0.7041,778.125,824.934,-0.297554,0.00122125,0.037729,-0.0834951,0.533021,0.533021,-1.06301,1.97643e-10,2.85375e-05,-2.21074e-05,0.956317,0.7040725435383968,1.97643013066795e-10,2.8537907198256107e-05,0.7040725435383968,-2.2107155633221964e-05,-0.6545854537704019
782,0.7045,778.056,825.145,-0.225329,0.00117294,0.0968201,-0.00973827,0.533256,0.533256,-1.06348,1.92594e-10,2.99903e-05,-2.0508e-05,0.956733,0.7044730476435175,1.925939407954047e-10,2.9990749713437737e-05,0.7044730476435175,-2.050778971240952e-05,-0.6547477604620695
783,0.7051,778.172,825.255,-0.11232,0.00115027,0.0891013,-0.0154027,0.533609,0.533609,-1.06418,1.93983e-10,3.00412e-05,-2.06345e-05,0.95737,0.7050748328381735,1.939830518438157e-10,3.00416512413193e-05,0.7050748328381735,-2.0634287110188332e-05,-0.6549893524626808
784,0.706,778.064,826.758,0.592239,0.00133695,-0.0308416,-0.206594,0.534137,0.534137,-1.06523,2.16888e-10,2.72044e-05,-2.55021e-05,0.958316,0.7059753500655392,2.168880630648573e-10,2.7204770043143256e-05,0.7059753500655392,-2.550177482418814e-05,-0.6553514235220235
785,0.7069,777.046,827.016,0.218695,0.00151221,-0.0572808,-0.246048,0.534665,0.534665,-1.06631,2.23672e-10,2.62774e-05,-2.72548e-05,0.959271,0.7068763428915479,2.2367196983452686e-10,2.6277745253988627e-05,0.7068763428915479,-2.7254428591305668e-05,-0.6557234430579102
786,0.7078,777.329,826.163,-0.0720969,0.00154637,0.201018,0.172679,0.535193,0.535193,-1.06735,1.76691e-10,3.26612e-05,-1.73389e-05,0.960211,0.7077778115673823,1.7669110619067396e-10,3.266173338278833e-05,0.7077778115673823,-1.7338749682127563e-05,-0.6560813045568952
787,0.7088,776.511,827.494,0.195622,0.00179941,-0.00435356,-0.161522,0.535778,0.535778,-1.06853,2.19775e-10,2.80201e-05,-2.51667e-05,0.961257,0.7087771538662717,2.1977508701809256e-10,2.8020492566671606e-05,0.7087771538662717,-2.5166383321284513e-05,-0.6564868892754727
788,0.709,776.571,827.6,0.278769,0.00172838,0.0647116,-0.0504258,0.535924,0.535924,-1.06882,2.10245e-10,2.95951e-05,-2.28004e-05,0.96152,0.7090266535437693,2.1024493257471022e-10,2.9595537939242078e-05,0.7090266535437693,-2.280014007283171e-05,-0.6565864936342527
789,0.7091,776.006,826.752,-0.428788,0.0016989,0.0596115,-0.055905,0.535979,0.535979,-1.06893,2.10944e-10,2.951e-05,-2.29446e-05,0.961621,0.7091206525946645,2.1094392899101422e-10,2.9510435424429105e-05,0.7091206525946645,-2.2944336774632923e-05,-0.6566242670423774
790,0.7093,776.291,827.193,-0.0651283,0.0016593,0.0726699,-0.041578,0.536062,0.536062,-1.06909,2.1062e-10,2.98414e-05,-2.26583e-05,0.961766,0.709262515496059,2.106199659124286e-10,2.9841845259115374e-05,0.709262515496059,-2.265804330270349e-05,-0.6566792027646757
791,0.7095,777.083,827.328,0.394364,0.00160161,0.0744199,-0.0386985,0.536185,0.536185,-1.06934,2.11099e-10,2.99525e-05,-2.26308e-05,0.961989,0.7094727677157113,2.110989161252519e-10,2.99529485805472e-05,0.7094727677157113,-2.263054392537267e-05,-0.6567650222361036
792,0.7098,776.916,826.706,-0.00239273,0.00152976,0.0758053,-0.0356174,0.53637,0.53637,-1.06971,2.11783e-10,3.00901e-05,-2.26081e-05,0.962317,0.7097890494328956,2.117830355530259e-10,3.009055271152583e-05,0.7097890494328956,-2.2607844438859992e-05,-0.6568919956863394
793,0.7103,776.835,825.766,-0.517093,0.00145473,0.0176261,-0.11149,0.536648,0.536648,-1.07027,2.19748e-10,2.884e-05,-2.4488e-05,0.962818,0.7102644368644291,2.197479975762917e-10,2.8840415876807413e-05,0.7102644368644291,-2.4487700171382798e-05,-0.657084082379461
794,0.711,777.513,826.277,0.0765074,0.00145287,-0.0264286,-0.182955,0.537064,0.537064,-1.07111,2.29391e-10,2.77336e-05,-2.66033e-05,0.963587,0.7109760548764488,2.2939095067897597e-10,2.7733984579780824e-05,0.7109760548764488,-2.6602946135323435e-05,-0.657372010803394
795,0.712,776.918,826.924,0.108652,0.00168163,0.141998,0.0805197,0.537648,0.537648,-1.07228,2.01441e-10,3.19207e-05,-2.03194e-05,0.964674,0.7119755567186274,2.0144108603403765e-10,3.1921209471041934e-05,0.7119755567186274,-2.0319193562379212e-05,-0.6577726511304598
796,0.713,775.609,827.355,-0.319977,0.00193138,-0.174704,-0.438645,0.538232,0.538232,-1.07347,2.49612e-10,2.4089e-05,-3.34011e-05,0.965712,0.7129756424403582,2.496121087602887e-10,2.4089290142192965e-05,0.7129756424403582,-3.3400542189476745e-05,-0.6581796594576295
797,0.7132,775.66,827.142,-0.402589,0.0018515,0.0709954,-0.0411351,0.538378,0.538378,-1.07376,2.26802e-10,2.95384e-05,-2.47567e-05,0.965978,0.7132257551419372,2.268019105855501e-10,2.953883626277687e-05,0.7132257551419372,-2.475639355548065e-05,-0.6582787729842308
798,0.7135,775.973,827.644,0.00593,0.00178397,0.0886038,-0.0205768,0.538524,0.538524,-1.07405,2.26443e-10,3.00236e-05,-2.43247e-05,0.966244,0.7134759043626366,2.2644308650399125e-10,3.0024050712729178e-05,0.7134759043626366,-2.432440415689463e-05,-0.6583778577720767
799,0.7137,776.338,827.681,0.205053,0.00171482,0.0480088,-0.0678204,0.53867,0.53867,-1.07435,2.3012e-10,2.91876e-05,-2.54346e-05,0.966508,0.7137260901077886,2.3011992311694485e-10,2.9188025962190167e-05,0.7137260901077886,-2.5434276543334633e-05,-0.6584803290432858
800,0.7138,776.166,827.437,-0.00348172,0.00168615,0.0638945,-0.0491328,0.538724,0.538724,-1.07446,2.29506e-10,2.95625e-05,-2.50476e-05,0.966606,0.7138186338153121,2.2950596978432714e-10,2.9562936975091603e-05,0.7138186338153121,-2.5047286311474792e-05,-0.6585178941409728
801,0.714,776.736,827.69,0.406052,0.00164518,0.0675252,-0.0451076,0.538806,0.538806,-1.07462,2.29871e-10,2.96859e-05,-2.4987e-05,0.966754,0.7139591727053007,2.2987101111482389e-10,2.9686340630608044e-05,0.7139591727053007,-2.498668782746627e-05,-0.6585725269071724
802,0.7142,776.823,826.997,0.0989512,0.00158721,0.0536171,-0.0603945,0.53893,0.53893,-1.07487,2.31435e-10,2.94323e-05,-2.53795e-05,0.966976,0.7141717168201789,2.314350933119158e-10,2.943273313449346e-05,0.7141717168201789,-2.5379177943207765e-05,-0.6586578731067262
803,0.7142,776.608,826.612,-0.202284,0.00156355,0.0616877,-0.0511127,0.538976,0.538976,-1.07496,2.31289e-10,2.96313e-05,-2.51954e-05,0.967061,0.7142505705327742,2.3128898796187514e-10,2.9631739011382052e-05,0.7142505705327742,-2.5195082598572505e-05,-0.6586885925157524
804,0.7144,777.156,826.715,0.120891,0.0015308,0.0722148,-0.0397683,0.539045,0.539045,-1.0751,2.31259e-10,2.99014e-05,-2.49678e-05,0.967185,0.7143688579030083,2.3125901194021026e-10,2.990184705131682e-05,0.7143688579030083,-2.4967488307048313e-05,-0.6587363727681045
805,0.7145,776.959,826.112,-0.281498,0.00148483,0.0517802,-0.0620302,0.539149,0.539149,-1.07531,2.32988e-10,2.94963e-05,-2.55048e-05,0.967376,0.7145471615358583,2.329880732787615e-10,2.949673502006256e-05,0.7145471615358583,-2.5504474755355666e-05,-0.6588080306054869
806,0.7148,776.926,825.649,-0.531035,0.00142496,0.0430889,-0.0732712,0.539304,0.539304,-1.07562,2.34804e-10,2.93529e-05,-2.58367e-05,0.967658,0.7148129369429583,2.348039540578384e-10,2.935333080067437e-05,0.7148129369429583,-2.583636623532115e-05,-0.6589137837234191
807,0.7152,776.892,826.324,-0.207696,0.0013707,0.0835316,-0.0229847,0.539538,0.539538,-1.07608,2.32816e-10,3.03833e-05,-2.47597e-05,0.968074,0.7152142501220138,2.3281598870994458e-10,3.0383761577157387e-05,0.7152142501220138,-2.4759393481121883e-05,-0.6590706473015173
808,0.7154,777.333,826.279,-0.0120637,0.00133569,0.0581936,-0.0543312,0.539625,0.539625,-1.07625,2.35516e-10,2.98684e-05,-2.54828e-05,0.968228,0.715363480253191,2.3551605110583296e-10,2.9868846065150834e-05,0.715363480253191,-2.5482475316196407e-05,-0.6591286003653261
809,0.7156,777.59,825.742,-0.155496,0.00128736,0.0502581,-0.0633186,0.539757,0.539757,-1.07652,2.36888e-10,2.97448e-05,-2.5744e-05,0.968466,0.7155899231774887,2.3688806471966473e-10,2.974524238097409e-05,0.7155899231774887,-2.574366862606592e-05,-0.659220623219583
810,0.7159,778.161,825.832,0.172951,0.00123178,0.0948965,-0.0091826,0.539954,0.539954,-1.0769,2.34418e-10,3.08628e-05,-2.45616e-05,0.968816,0.7159279276847055,2.344180405344787e-10,3.086327626111718e-05,0.7159279276847055,-2.456129836636567e-05,-0.6593500947816049
811,0.7161,777.36,825.265,-0.510154,0.00120523,0.0602364,-0.0515091,0.540027,0.540027,-1.07705,2.37824e-10,3.01401e-05,-2.55196e-05,0.968951,0.7160531949956277,2.3782398272942373e-10,3.0140554217350513e-05,0.7160531949956277,-2.5519274377772128e-05,-0.6594011884352677
812,0.7162,778.218,825.985,0.278306,0.0011698,0.052465,-0.0604363,0.540138,0.540138,-1.07727,2.39044e-10,3.00127e-05,-2.57646e-05,0.969149,0.716243687472409,2.3904389578888185e-10,3.0013150385643783e-05,0.716243687472409,-2.5764268095529452e-05,-0.6594761119319252
813,0.7165,778.252,825.954,0.279103,0.00112536,0.0597971,-0.0520801,0.540304,0.540304,-1.0776,2.39692e-10,3.02463e-05,-2.56428e-05,0.969447,0.7165286075722435,2.39692043990658e-10,3.024675742402394e-05,0.7165286075722435,-2.564247122616159e-05,-0.6595884662755014
814,0.717,776.979,825.696,-0.481156,0.00109437,-0.0390851,-0.180398,0.540553,0.540553,-1.07811,2.48895e-10,2.79748e-05,-2.8803e-05,0.96989,0.7169560764131908,2.4889490468638087e-10,2.7975191298379443e-05,0.7169560764131908,-2.8802585197551522e-05,-0.659762031894706
815,0.7171,777.795,826.188,0.171114,0.00106386,0.0611189,-0.0499584,0.540647,0.540647,-1.0783,2.42436e-10,3.02158e-05,-2.59792e-05,0.970055,0.7171174778701235,2.4243607121832156e-10,3.0216256501791605e-05,0.7171174778701235,-2.5978862543518666e-05,-0.6598266709677396
816,0.7174,777.703,825.882,-0.0289323,0.00102524,0.0743542,-0.0342725,0.540787,0.540787,-1.07858,2.42424e-10,3.05869e-05,-2.56695e-05,0.97031,0.7173578911455618,2.424240808096556e-10,3.058736778394078e-05,0.7173578911455618,-2.5669170541253727e-05,-0.6599219061663186
817,0.7176,777.425,825.321,-0.449476,0.00098806,0.0465774,-0.0664484,0.540927,0.540927,-1.07886,2.45125e-10,3.00252e-05,-2.64478e-05,0.970564,0.717598338081215,2.451250313839637e-10,3.0025650760823197e-05,0.717598338081215,-2.6447450260036476e-05,-0.6600171147027749
818,0.7177,778.056,825.96,0.185417,0.000977289,0.0634893,-0.0468846,0.540962,0.540962,-1.07893,2.44366e-10,3.04132e-05,-2.60312e-05,0.970626,0.7176584550750893,2.4436608292432993e-10,3.04136624860174e-05,0.7176584550750893,-2.603086119123965e-05,-0.660040912671807
819,0.7177,778.04,825.878,0.135864,0.000961422,0.0558326,-0.0549016,0.541014,0.541014,-1.07903,2.45035e-10,3.02684e-05,-2.62299e-05,0.970721,0.7177477756370674,2.4503510331896905e-10,3.026885809265245e-05,0.7177477756370674,-2.6229555999179865e-05,-0.6600749068808011
820,0.7179,778.319,825.427,0.0471862,0.000938368,0.0695437,-0.0400801,0.541093,0.541093,-1.07919,2.44942e-10,3.06131e-05,-2.59285e-05,0.970863,0.717883483071716,2.4494206662950546e-10,3.06135685856912e-05,0.717883483071716,-2.5928163859378905e-05,-0.660129290544891
821,0.7179,778.349,825.313,0.00456661,0.000929612,0.0620344,-0.0481945,0.541123,0.541123,-1.07925,2.45505e-10,3.04627e-05,-2.61178e-05,0.970916,0.7179350203492634,2.455049497029904e-10,3.046316399268889e-05,0.7179350203492634,-2.611745893321693e-05,-0.6601496821757034
822,0.718,778.3,825.096,-0.12898,0.000916849,0.0641524,-0.0459216,0.541167,0.541167,-1.07934,2.45721e-10,3.05315e-05,-2.60841e-05,0.970998,0.7180106111531441,2.4572099910358247e-10,3.0531966090929785e-05,0.7180106111531441,-2.608375981283384e-05,-0.6601802673279549
823,0.7181,778.262,824.962,-0.21571,0.000898544,0.0637953,-0.0461082,0.541234,0.541234,-1.07947,2.46163e-10,3.05577e-05,-2.61117e-05,0.971121,0.7181257217202524,2.461630899119882e-10,3.055816689134794e-05,0.7181257217202524,-2.6111359092473307e-05,-0.66022444102185
824,0.7183,778.018,824.663,-0.487004,0.000873807,0.0593122,-0.0509983,0.541333,0.541333,-1.07967,2.47072e-10,3.05059e-05,-2.62576e-05,0.971306,0.7182958245866555,2.4707191847994636e-10,3.0506365309657113e-05,0.7182958245866555,-2.625725527227729e-05,-0.6602923893385875
825,0.7186,778.556,825.585,0.244031,0.000845816,0.0326072,-0.0824178,0.541483,0.541483,-1.07997,2.49781e-10,2.9953e-05,-2.70429e-05,0.971575,0.7185535882921383,2.4978108470463667e-10,2.9953448595687604e-05,0.7185535882921383,-2.7042534344046132e-05,-0.660394286336472
826,0.7189,778.147,825.949,0.224842,0.000827758,0.0122866,-0.110998,0.541707,0.541707,-1.08043,2.53461e-10,2.95115e-05,-2.78637e-05,0.971999,0.7189385874142076,2.534610299420592e-10,2.9511935468518047e-05,0.7189385874142076,-2.7863311810705227e-05,-0.6605504690399814
827,0.7191,777.783,825.405,-0.229819,0.000806945,0.0678278,-0.0409454,0.541791,0.541791,-1.0806,2.49953e-10,3.07776e-05,-2.63517e-05,0.972157,0.7190829843201356,2.4995294722884864e-10,3.077807363527363e-05,0.7190829843201356,-2.6351352797049366e-05,-0.6606081705554768
828,0.7191,778.194,825.64,0.0923418,0.000798785,0.062127,-0.0471581,0.541822,0.541822,-1.08066,2.50448e-10,3.06681e-05,-2.64998e-05,0.972215,0.7191362767186773,2.5044810669783146e-10,3.066857027089753e-05,0.7191362767186773,-2.6499448883443577e-05,-0.6606285334543505
829,0.7192,777.996,825.383,-0.135227,0.000787053,0.0610258,-0.0482697,0.54187,0.54187,-1.08076,2.50825e-10,3.06675e-05,-2.65425e-05,0.972302,0.7192187972404365,2.5082491639238924e-10,3.066797025264023e-05,0.7192187972404365,-2.6542147750996392e-05,-0.6606624689042042
830,0.7193,778.36,825.592,0.150522,0.000770278,0.0750264,-0.0330325,0.541941,0.541941,-1.0809,2.5063e-10,3.10188e-05,-2.62248e-05,0.972429,0.7193408661084342,2.5062996122926506e-10,3.101928108795171e-05,0.7193408661084342,-2.6224456132983853e-05,-0.660709972833205
831,0.7195,778.419,825.596,0.181859,0.000748124,0.0481262,-0.0626625,0.542047,0.542047,-1.08112,2.52727e-10,3.04669e-05,-2.69288e-05,0.972622,0.7195231258998398,2.5272695047817706e-10,3.0467364120712048e-05,0.7195231258998398,-2.6928437423134888e-05,-0.6607846084289651
832,0.7198,778.91,825.356,0.30453,0.000720363,0.087216,-0.0166374,0.542206,0.542206,-1.08143,2.5102e-10,3.14337e-05,-2.59318e-05,0.972904,0.719796551813642,2.5102009360011834e-10,3.143419404394443e-05,0.719796551813642,-2.593146377383171e-05,-0.6608897489027367
833,0.7202,779.167,824.247,-0.126218,0.000690715,0.0274831,-0.0913238,0.542446,0.542446,-1.08193,2.57601e-10,3.01623e-05,-2.7746e-05,0.97334,0.7202093525201807,2.576010516008864e-10,3.016275488665343e-05,0.7202093525201807,-2.7745615083341058e-05,-0.6610592616465678
834,0.7206,779.649,824.448,0.214327,0.000669691,0.02381,-0.0959936,0.542685,0.542685,-1.08241,2.59586e-10,3.01128e-05,-2.8018e-05,0.973762,0.7206205316893866,2.595859083243113e-10,3.011325339485893e-05,0.7206205316893866,-2.8017607499486452e-05,-0.6612219141612511
835,0.721,780.677,823.659,0.33013,0.000637183,0.0895286,-0.0104611,0.542924,0.542924,-1.08289,2.55051e-10,3.17209e-05,-2.61446e-05,0.974199,0.7210318091421581,2.5505109135792736e-10,3.1721403113138535e-05,0.7210318091421581,-2.6144258232885242e-05,-0.6613844886214617
836,0.7216,779.933,823.025,-0.358812,0.000661787,0.0384502,-0.0798804,0.543283,0.543283,-1.08361,2.62729e-10,3.06734e-05,-2.78699e-05,0.974853,0.7216497704790632,2.627289497070251e-10,3.067387043365066e-05,0.7216497704790632,-2.7869511637912403e-05,-0.6616282040415746
837,0.7223,779.961,822.824,-0.445837,0.000674696,0.0820528,-0.0169236,0.543641,0.543641,-1.08433,2.59e-10,3.18307e-05,-2.6493e-05,0.975506,0.7222662314368222,2.589999326119141e-10,3.1831206602106477e-05,0.7222662314368222,-2.649264906362525e-05,-0.6618717440497408
838,0.7224,780.977,823.568,0.434065,0.000657878,0.0693994,-0.0375343,0.54373,0.54373,-1.08451,2.61735e-10,3.16004e-05,-2.69723e-05,0.975663,0.722419519952658,2.6173507805538065e-10,3.1600899297989926e-05,0.722419519952658,-2.6971936250785866e-05,-0.6619326016584628
839,0.7225,780.337,822.929,-0.206097,0.000650879,0.0611055,-0.0464984,0.543764,0.543764,-1.08457,2.62373e-10,3.14344e-05,-2.71824e-05,0.975726,0.722478083211906,2.6237301220533027e-10,3.1434894065984764e-05,0.722478083211906,-2.718203056195634e-05,-0.6619528850938541
840,0.7226,780.304,822.985,-0.1937,0.000640793,0.0652376,-0.0421555,0.543814,0.543814,-1.08467,2.62562e-10,3.15521e-05,-2.7103e-05,0.975816,0.7225642092692002,2.6256197216412147e-10,3.155259777276598e-05,0.7225642092692002,-2.7102632716990982e-05,-0.6619866881151655
841,0.7227,781.084,823.686,0.546076,0.000626885,0.0633188,-0.0440176,0.54389,0.54389,-1.08482,2.63136e-10,3.15483e-05,-2.71693e-05,0.975951,0.722695129123996,2.631359574678527e-10,3.154879765276952e-05,0.722695129123996,-2.7168930917920164e-05,-0.6620373863094885
842,0.7229,780.613,823.387,0.161551,0.000608827,0.0474996,-0.0618245,0.544003,0.544003,-1.08506,2.64809e-10,3.12398e-05,-2.7618e-05,0.976156,0.7228898046725483,2.648090635659628e-10,3.124028796763767e-05,0.7228898046725483,-2.7617618626574192e-05,-0.6621184876042296
843,0.723,780.433,823.416,0.0866402,0.000600801,0.0644032,-0.0427749,0.544046,0.544046,-1.08514,2.64182e-10,3.16331e-05,-2.72122e-05,0.976229,0.7229638905269837,2.641820096016545e-10,3.163360033187068e-05,0.7229638905269837,-2.721182975140568e-05,-0.6621455170440292
844,0.7231,780.42,823.316,0.0302258,0.000589718,0.0576566,-0.0498744,0.54411,0.54411,-1.08527,2.6491e-10,3.1514e-05,-2.73935e-05,0.976344,0.7230741637446827,2.649100938612037e-10,3.151449657123884e-05,0.7230741637446827,-2.7393124801489144e-05,-0.6621894352720669
845,0.7232,781.19,823.478,0.494637,0.000574301,0.0609351,-0.0462633,0.544205,0.544205,-1.08546,2.6539e-10,3.16292e-05,-2.7348e-05,0.976509,0.723237863565857,2.6538993225244667e-10,3.162970020831324e-05,0.723237863565857,-2.7347626046836382e-05,-0.6622536131822707
846,0.7233,780.578,822.786,-0.157157,0.000567835,0.059947,-0.0472485,0.544241,0.544241,-1.08554,2.65673e-10,3.16244e-05,-2.73832e-05,0.976573,0.7232999012456167,2.656730391237261e-10,3.162490005670371e-05,0.7232999012456167,-2.7382825083632767e-05,-0.6622806318124563
847,0.7234,780.598,822.698,-0.191587,0.000558357,0.0696482,-0.0368645,0.544295,0.544295,-1.08565,2.65604e-10,3.18683e-05,-2.71693e-05,0.976672,0.7233929619529005,2.656039832515944e-10,3.1868807799595444e-05,0.7233929619529005,-2.7168930917920164e-05,-0.6623177788998298
848,0.7235,780.573,823.004,-0.0502953,0.00054629,0.0687535,-0.0374068,0.544376,0.544376,-1.0858,2.661e-10,3.18921e-05,-2.72035e-05,0.976817,0.7235325624365618,2.661000308989969e-10,3.1892608558514723e-05,0.7235325624365618,-2.7203129988162544e-05,-0.6623684274342598
849,0.7237,781.113,823.833,0.634534,0.000530415,0.0755384,-0.029261,0.544497,0.544497,-1.08604,2.66339e-10,3.21115e-05,-2.7048e-05,0.97703,0.7237411224942458,2.6633895089389625e-10,3.2112015579732756e-05,0.7237411224942458,-2.704763420613432e-05,-0.6624494492886641
850,0.7239,780.704,823.538,0.282895,0.000514603,0.0538126,-0.0540361,0.544618,0.544618,-1.08629,2.68532e-10,3.16824e-05,-2.76463e-05,0.977257,0.7239497077892236,2.685320854567408e-10,3.168290189248246e-05,0.7239497077892236,-2.7645917844543177e-05,-0.6625338263787662
851,0.7242,780.493,822.596,-0.29475,0.000498571,0.0459192,-0.0629199,0.544738,0.544738,-1.08654,2.69824e-10,3.15504e-05,-2.79019e-05,0.977475,0.7241565941670927,2.698239409681946e-10,3.155089771911257e-05,0.7241565941670927,-2.7901510745609315e-05,-0.6626181823772324
852,0.7245,780.766,822.035,-0.439674,0.000480254,0.0442378,-0.0663498,0.54492,0.54492,-1.08691,2.7155e-10,3.15735e-05,-2.80692e-05,0.977809,0.7244704192244449,2.715498936822769e-10,3.157399844821995e-05,0.7244704192244449,-2.8068806063652474e-05,-0.6627429905588154
853,0.7248,780.912,822.273,-0.24788,0.000467619,0.0975812,-0.000171691,0.545101,0.545101,-1.08727,2.67936e-10,3.28861e-05,-2.65991e-05,0.978117,0.7247825766197165,2.679358956925171e-10,3.2886640753737595e-05,0.7247825766197165,-2.659874624710845e-05,-0.6628643812305822
854,0.7251,780.715,823.18,0.108778,0.000460767,0.0932317,-0.00597234,0.545283,0.545283,-1.08762,2.6935e-10,3.29161e-05,-2.67239e-05,0.978441,0.7250965156162434,2.693500977812846e-10,3.2916641740765584e-05,0.7250965156162434,-2.672354291977097e-05,-0.6629823580500038
855,0.7252,780.671,822.995,-0.00648456,0.000452189,0.0543043,-0.0522606,0.545351,0.545351,-1.08776,2.72838e-10,3.20861e-05,-2.77737e-05,0.97856,0.7252138261678192,2.72837974435447e-10,3.208661476450381e-05,0.7252138261678192,-2.777331431436103e-05,-0.6630295372172581
856,0.7254,781.236,823.128,0.341974,0.000439842,0.0780924,-0.025811,0.545453,0.545453,-1.08796,2.72124e-10,3.26736e-05,-2.7208e-05,0.978743,0.7253898069529556,2.72124101030613e-10,3.267413378793549e-05,0.7253898069529556,-2.720762986574421e-05,-0.6630969245708547
857,0.7257,780.318,822.491,-0.435173,0.0004288,0.0496401,-0.0581445,0.545606,0.545606,-1.08827,2.74983e-10,3.21042e-05,-2.79893e-05,0.979026,0.7256538117892744,2.749829253190228e-10,3.210471534531578e-05,0.7256538117892744,-2.798890830324474e-05,-0.6632013483377175
858,0.7259,781.032,823.063,0.20791,0.0004154,0.102966,0.00540522,0.545758,0.545758,-1.08858,2.71563e-10,3.34059e-05,-2.65716e-05,0.979299,0.7259161311044291,2.7156299431396747e-10,3.3406457983220506e-05,0.7259161311044291,-2.65712469781354e-05,-0.6633057397382298
859,0.7262,780.84,822.886,0.0231329,0.000404139,0.0370602,-0.0735077,0.545911,0.545911,-1.08889,2.779e-10,3.19897e-05,-2.84036e-05,0.979577,0.7261802164745039,2.7789992529392293e-10,3.1990211675880786e-05,0.7261802164745039,-2.8403196621562543e-05,-0.6634100987824232
860,0.7262,780.723,822.809,-0.0732723,0.000402004,0.0610943,-0.0443824,0.545926,0.545926,-1.08892,2.76214e-10,3.25274e-05,-2.77653e-05,0.979604,0.7262061093719472,2.7621394060872717e-10,3.252792902164181e-05,0.7262061093719472,-2.7764914547590003e-05,-0.663420196327996
861,0.7262,780.883,822.896,0.0499368,0.000399306,0.0619744,-0.0434257,0.545947,0.545947,-1.08896,2.76321e-10,3.25573e-05,-2.77516e-05,0.979643,0.7262423600808752,2.7632096610830104e-10,3.2557829994672716e-05,0.7262423600808752,-2.775121492792909e-05,-0.6634336592508825
862,0.7263,781.06,823.135,0.257569,0.000395409,0.0604147,-0.0450446,0.545979,0.545979,-1.08902,2.76602e-10,3.25378e-05,-2.77982e-05,0.9797,0.7262976007202433,2.766020745781361e-10,3.253832936001011e-05,0.7262976007202433,-2.779781363360101e-05,-0.6634538526255203
863,0.7264,781.014,823.224,0.27958,0.000389961,0.0632129,-0.0420035,0.546028,0.546028,-1.08912,2.76797e-10,3.26241e-05,-2.77465e-05,0.979784,0.7263821913751325,2.767970297412603e-10,3.262463217179601e-05,0.7263821913751325,-2.7746115069393618e-05,-0.663487505557583
864,0.7265,781.11,823.198,0.314809,0.000382014,0.070664,-0.0336623,0.5461,0.5461,-1.08926,2.76845e-10,3.28306e-05,-2.75804e-05,0.979911,0.7265064953678018,2.768449913759241e-10,3.28311389301561e-05,0.7265064953678018,-2.758001966429724e-05,-0.6635346140091363
865,0.7267,779.787,822.956,-0.466339,0.000375474,0.0444183,-0.0630771,0.546209,0.546209,-1.08948,2.79126e-10,3.22867e-05,-2.82818e-05,0.980111,0.7266946948324813,2.7912605560231896e-10,3.22872212210612e-05,0.7266946948324813,-2.8281400073715268e-05,-0.6636086282521891
866,0.7268,780.314,823.43,0.0340259,0.00037056,0.0626704,-0.0423047,0.54625,0.54625,-1.08956,2.78315e-10,3.27103e-05,-2.78365e-05,0.980183,0.7267654907662762,2.783149266605278e-10,3.271083498779248e-05,0.7267654907662762,-2.7836112568180305e-05,-0.6636355384855053
867,0.7269,780.521,823.337,0.0905741,0.000363913,0.0545836,-0.0509553,0.546311,0.546311,-1.08968,2.79128e-10,3.25569e-05,-2.80525e-05,0.980291,0.7268708266739254,2.791280540037633e-10,3.255742998153899e-05,0.7268708266739254,-2.805210653233914e-05,-0.6636758997991596
868,0.727,780.375,823.369,0.033994,0.000355881,0.055542,-0.0500254,0.546403,0.546403,-1.08986,2.79731e-10,3.26164e-05,-2.80666e-05,0.980452,0.7270297060983208,2.7973090510613474e-10,3.261693192047055e-05,0.7270297060983208,-2.806620613671207e-05,-0.6637364326890723
869,0.7273,779.894,822.945,-0.418166,0.000346076,0.0635403,-0.0408038,0.546541,0.546541,-1.09014,2.80144e-10,3.28619e-05,-2.7905e-05,0.980712,0.727268052643296,2.801439080712953e-10,3.286243995814786e-05,0.727268052643296,-2.7904610659157392e-05,-0.6638305733076177
870,0.7274,780.286,823.332,-0.0286089,0.000340995,0.0629256,-0.0416507,0.546592,0.546592,-1.09024,2.80575e-10,3.28738e-05,-2.79404e-05,0.980801,0.7273561455603308,2.805748966494548e-10,3.287434034926484e-05,0.7273561455603308,-2.794000967065724e-05,-0.6638641885694958
871,0.7275,779.866,823.261,-0.273833,0.000334472,0.0603488,-0.0443241,0.54667,0.54667,-1.09039,2.8123e-10,3.28541e-05,-2.80264e-05,0.980941,0.7274908845944386,2.8122992823398363e-10,3.2854639701929145e-05,0.7274908845944386,-2.8026007264148056e-05,-0.6639146051598717
872,0.7275,779.957,823.507,-0.105028,0.000331482,0.0596387,-0.0450224,0.546699,0.546699,-1.09045,2.81454e-10,3.28522e-05,-2.80518e-05,0.980992,0.7275409825565089,2.81453971240353e-10,3.2852739639377404e-05,0.7275409825565089,-2.8051406551932168e-05,-0.6639347696786204
873,0.7276,780.111,823.837,0.137622,0.000327299,0.0599216,-0.0447291,0.546742,0.546742,-1.09054,2.81751e-10,3.28791e-05,-2.80606e-05,0.98107,0.7276152684158932,2.817510669217427e-10,3.287964052356429e-05,0.7276152684158932,-2.806020630508055e-05,-0.663965014188326
874,0.7277,779.729,823.375,-0.284982,0.000320979,0.0593002,-0.0453764,0.546808,0.546808,-1.09067,2.82247e-10,3.28969e-05,-2.80983e-05,0.981191,0.7277292947864376,2.8224689252454027e-10,3.289744110901438e-05,0.7277292947864376,-2.8097905246493582e-05,-0.664008695897109
875,0.7279,779.871,823.197,-0.303243,0.00031258,0.0664087,-0.037024,0.546906,0.546906,-1.09086,2.82428e-10,3.3108e-05,-2.7942e-05,0.981374,0.7278986205541538,2.824280809221591e-10,3.310854807581087e-05,0.7278986205541538,-2.7941609625936614e-05,-0.6640725281806295
876,0.7281,780.201,823.563,0.0447829,0.000305154,0.0548647,-0.0498067,0.547004,0.547004,-1.09106,2.83785e-10,3.28959e-05,-2.82624e-05,0.981553,0.7280679629166082,2.8378499550285596e-10,3.289644107606904e-05,0.7280679629166082,-2.826200062211459e-05,-0.6641397069568917
877,0.7282,780.117,823.435,-0.0614167,0.000298169,0.0577745,-0.0467715,0.547102,0.547102,-1.09125,2.84335e-10,3.30028e-05,-2.82305e-05,0.981722,0.7282373218754274,2.8433499998925527e-10,3.300334459832577e-05,0.7282373218754274,-2.8230101523196716e-05,-0.6642035143506757
878,0.7285,779.936,823.307,-0.215838,0.000293027,0.0380213,-0.0700422,0.547249,0.547249,-1.09154,2.86714e-10,3.26053e-05,-2.88214e-05,0.981984,0.7284913914353983,2.8671398588642205e-10,3.26058315585076e-05,0.7284913914353983,-2.882098466738814e-05,-0.6643008812126365
879,0.7289,779.048,824.405,-0.105565,0.000316967,0.0302254,-0.0826483,0.547469,0.547469,-1.09198,2.89408e-10,3.24668e-05,-2.9228e-05,0.982381,0.7288717013740735,2.8940805307797746e-10,3.2467327052199124e-05,0.7288717013740735,-2.9227572866163953e-05,-0.6644485563339938
880,0.729,779.027,824.284,-0.177315,0.000311364,0.0633328,-0.0402196,0.547524,0.547524,-1.09209,2.86815e-10,3.32274e-05,-2.8306e-05,0.982477,0.7289667919326155,2.8681501618166294e-10,3.322795203608564e-05,0.7289667919326155,-2.8305599388933622e-05,-0.6644854649627854
881,0.7291,779.263,824.501,0.049279,0.000306696,0.0567395,-0.0471469,0.547579,0.547579,-1.0922,2.87491e-10,3.31065e-05,-2.84792e-05,0.982576,0.729061887721282,2.8749091995905474e-10,3.3107048026170816e-05,0.729061887721282,-2.8478794471431534e-05,-0.664522369531851
882,0.7292,779.207,824.019,-0.220467,0.000299917,0.0623176,-0.0412823,0.547662,0.547662,-1.09237,2.87787e-10,3.32692e-05,-2.83733e-05,0.982724,0.7292054058138813,2.877869054174198e-10,3.32697534259907e-05,0.7292054058138813,-2.83728974816988e-05,-0.6645793958816535
883,0.7293,779.444,824.163,-0.0305036,0.000297073,0.0607869,-0.0428235,0.547693,0.547693,-1.09243,2.88052e-10,3.32499e-05,-2.84176e-05,0.98278,0.7292590120123532,2.880520266757003e-10,3.325045278401717e-05,0.7292590120123532,-2.8417196223817776e-05,-0.6645995205141555
884,0.7293,779.511,824.452,0.147984,0.000293046,0.0599042,-0.0437507,0.547739,0.547739,-1.09252,2.88409e-10,3.32516e-05,-2.84536e-05,0.982865,0.7293385597564899,2.8840907440041974e-10,3.325215284055716e-05,0.7293385597564899,-2.8453195200173198e-05,-0.664629705198978
885,0.7295,779.212,824.828,0.18865,0.000288482,0.0567917,-0.0470567,0.547809,0.547809,-1.09266,2.89035e-10,3.32132e-05,-2.8552e-05,0.982992,0.7294596176926511,2.890350181417034e-10,3.321375156439821e-05,0.7294596176926511,-2.8551592395564818e-05,-0.6646766537537746
886,0.7296,779.134,824.874,0.172927,0.000283392,0.0508209,-0.0533098,0.547878,0.547878,-1.0928,2.89787e-10,3.31092e-05,-2.872e-05,0.98312,0.7295789545233453,2.897870832185845e-10,3.3109748115656146e-05,0.7295789545233453,-2.8719587584769002e-05,-0.6647235957362336
887,0.7297,778.732,824.601,-0.163708,0.000278355,0.0654361,-0.0374492,0.547948,0.547948,-1.09294,2.89528e-10,3.34699e-05,-2.83887e-05,0.983252,0.7297000292877291,2.8952795716463697e-10,3.347046012325272e-05,0.7297000292877291,-2.838829704465695e-05,-0.6647705311472751
888,0.7298,778.657,824.644,-0.179561,0.000273343,0.0602309,-0.0428977,0.548018,0.548018,-1.09308,2.90245e-10,3.33879e-05,-2.85325e-05,0.983373,0.7298211125276433,2.902449391939399e-10,3.3388457382210746e-05,0.7298211125276433,-2.8532092952060495e-05,-0.664817459987819
889,0.73,778.744,824.595,-0.160765,0.000266967,0.0610169,-0.0419464,0.548122,0.548122,-1.09329,2.90884e-10,3.3454e-05,-2.85443e-05,0.983555,0.7300010232785432,2.9088398356691414e-10,3.345455959125054e-05,0.7300010232785432,-2.8543892615306987e-05,-0.664887840930964
890,0.7303,779.177,824.431,-0.0285895,0.000260562,0.107558,0.013916,0.548279,0.548279,-1.09359,2.87628e-10,3.46214e-05,-2.72807e-05,0.983838,0.7302726547617113,2.876279214802935e-10,3.462199932768861e-05,0.7302726547617113,-2.7280327885126354e-05,-0.6649883595001453
891,0.7304,779.086,824.103,-0.238761,0.000256838,0.0625425,-0.0404165,0.548338,0.548338,-1.09371,2.92059e-10,3.36524e-05,-2.85017e-05,0.983941,0.7303747438599411,2.920590436161774e-10,3.365296624835423e-05,0.7303747438599411,-2.850129383036304e-05,-0.665028558485018
892,0.7305,779.273,824.538,0.0731995,0.000252065,0.0547645,-0.0487525,0.548426,0.548426,-1.09389,2.93047e-10,3.35159e-05,-2.87191e-05,0.984099,0.7305270235376082,2.9304692006348887e-10,3.351646166405153e-05,0.7305270235376082,-2.8718687610562732e-05,-0.6650888479182789
893,0.7308,779.531,823.763,-0.188524,0.000245155,0.0459522,-0.058669,0.548558,0.548558,-1.09415,2.94546e-10,3.33678e-05,-2.90013e-05,0.984343,0.7307554681817301,2.9454594319133776e-10,3.3368356711305225e-05,0.7307554681817301,-2.900087946633434e-05,-0.6651759134988042
894,0.7311,780.242,824.613,0.592503,0.000248716,0.086541,-0.00992093,0.548756,0.548756,-1.09454,2.92228e-10,3.43951e-05,-2.79236e-05,0.984688,0.731098191692938,2.9222801956052535e-10,3.439569151830746e-05,0.731098191692938,-2.7923210139890742e-05,-0.665306469432478
895,0.7316,779.602,823.653,-0.20808,0.00027595,0.0706548,-0.0266695,0.549054,0.549054,-1.09512,2.94497e-10,3.41824e-05,-2.83307e-05,0.985221,0.7316141358259203,2.9449709337825425e-10,3.418298422497301e-05,0.7316141358259203,-2.8330298689538402e-05,-0.6655005353956374
896,0.7317,780.141,823.841,0.15456,0.000270755,0.0587525,-0.0437399,0.549128,0.549128,-1.09527,2.96647e-10,3.39533e-05,-2.87338e-05,0.985354,0.7317422800132476,2.966469292431384e-10,3.395387641980108e-05,0.7317422800132476,-2.8733387188339954e-05,-0.6655507065523972
897,0.7318,780.021,823.633,-0.00988914,0.000269213,0.0594639,-0.0429981,0.549147,0.549147,-1.09531,2.96741e-10,3.39777e-05,-2.87234e-05,0.985386,0.7317751834291495,2.967410761556266e-10,3.3978277248492006e-05,0.7317751834291495,-2.872298748712865e-05,-0.6655640842565793
898,0.7318,780.031,823.621,-0.0110533,0.000267654,0.0590032,-0.0434452,0.549165,0.549165,-1.09534,2.96882e-10,3.39761e-05,-2.87394e-05,0.985418,0.7318063556630003,2.96882074479754e-10,3.397667719418074e-05,0.7318063556630003,-2.8738987027376872e-05,-0.665574117183557
899,0.7318,780.381,823.837,0.27194,0.000266111,0.0592763,-0.0431202,0.549184,0.549184,-1.09538,2.96989e-10,3.39909e-05,-2.87381e-05,0.985451,0.731839260296351,2.969890999793279e-10,3.39914776972261e-05,0.731839260296351,-2.8737687064794848e-05,-0.6655874939513324
900,0.7319,779.881,823.465,-0.163702,0.000263747,0.0581825,-0.0442103,0.549212,0.549212,-1.09544,2.97227e-10,3.39796e-05,-2.87722e-05,0.985502,0.7318877524745266,2.972269097512026e-10,3.398017731304215e-05,0.7318877524745266,-2.877178608418074e-05,-0.6656075580997649
901,0.732,779.839,823.266,-0.284552,0.000260356,0.0618717,-0.0403802,0.549254,0.549254,-1.09552,2.9735e-10,3.40816e-05,-2.87001e-05,0.985581,0.7319604932876769,2.9734992246233105e-10,3.408218078426728e-05,0.7319604932876769,-2.869968815610857e-05,-0.6656343084250896
902,0.7321,780.474,823.575,0.186527,0.000255884,0.0560336,-0.0465245,0.549316,0.549316,-1.09564,2.98045e-10,3.3978e-05,-2.88582e-05,0.985691,0.7320678781671577,2.980449220757464e-10,3.397857725873088e-05,0.7320678781671577,-2.8857783606173193e-05,-0.6656744299007419
903,0.7322,780.177,823.328,-0.0851028,0.000251569,0.0485248,-0.0544667,0.549379,0.549379,-1.09578,2.98839e-10,3.3835e-05,-2.90608e-05,0.985802,0.7321770018808429,2.988389535829583e-10,3.383557241010138e-05,0.7321770018808429,-2.906037773908743e-05,-0.6657212322043181
904,0.7323,780.411,823.669,0.202969,0.000247349,0.054442,-0.0480414,0.549442,0.549442,-1.0959,2.98956e-10,3.39915e-05,-2.89417e-05,0.985914,0.7322861324695389,2.989559710897538e-10,3.3992077717481806e-05,0.7322861324695389,-2.8941281193017865e-05,-0.6657613432497428
905,0.7324,780.265,823.915,0.253031,0.000243428,0.0626116,-0.0392591,0.549504,0.549504,-1.09603,2.98949e-10,3.42028e-05,-2.87655e-05,0.986022,0.7323935375392749,2.9894908770700113e-10,3.420338492232666e-05,0.7323935375392749,-2.876508627702723e-05,-0.665804791450926
906,0.7325,779.952,823.525,-0.0984469,0.000239383,0.062189,-0.0395996,0.549567,0.549567,-1.09615,2.99375e-10,3.42245e-05,-2.87915e-05,0.98613,0.732502681770147,2.9937496925924734e-10,3.422508566486293e-05,0.732502681770147,-2.8791085528778737e-05,-0.6658448924698426
907,0.7327,780.608,824.179,0.556466,0.000234151,0.0653262,-0.0358775,0.549661,0.549661,-1.09634,2.99743e-10,3.43431e-05,-2.87322e-05,0.986296,0.7326655446766701,2.997428971696081e-10,3.434368973098678e-05,0.7326655446766701,-2.8731787234281825e-05,-0.6659083759091557
908,0.7329,780.316,823.995,0.318929,0.000231749,0.0406809,-0.0644941,0.549802,0.549802,-1.09663,3.02475e-10,3.38344e-05,-2.94377e-05,0.986553,0.732909867742841,3.024749339886057e-10,3.3834972389845674e-05,0.732909867742841,-2.9437266715115484e-05,-0.6660052484329471
909,0.733,780.497,824.401,0.61281,0.000229069,0.0598526,-0.0418569,0.549837,0.549837,-1.0967,3.013e-10,3.42769e-05,-2.89467e-05,0.986614,0.7329705206496315,3.0130009598394736e-10,3.4277487459544176e-05,0.7329705206496315,-2.8946281048325417e-05,-0.6660286272472888
910,0.733,779.787,823.924,0.0200271,0.000226686,0.0603511,-0.0412778,0.549873,0.549873,-1.09677,3.0152e-10,3.43054e-05,-2.89456e-05,0.986679,0.7330329087113532,3.0151992014282314e-10,3.430598843690014e-05,0.7330329087113532,-2.8945181080208826e-05,-0.6660520044251708
911,0.7331,780.108,824.012,0.223707,0.000223229,0.0624846,-0.0389503,0.549925,0.549925,-1.09687,3.01762e-10,3.43785e-05,-2.891e-05,0.986772,0.7331230287657073,3.017619487621914e-10,3.437909094738956e-05,0.7331230287657073,-2.8909582109992726e-05,-0.6660853975550438
912,0.7333,779.248,823.905,-0.257678,0.000220049,0.050816,-0.0514843,0.550005,0.550005,-1.09704,3.02944e-10,3.41513e-05,-2.92206e-05,0.98692,0.7332616841541502,3.0294389219420736e-10,3.415188316235884e-05,0.7332616841541502,-2.922017308237823e-05,-0.666142158212667
913,0.7335,780.023,824.205,0.278624,0.000214199,0.110844,0.0177786,0.550124,0.550124,-1.09727,2.98797e-10,3.55936e-05,-2.76587e-05,0.987141,0.7334679545674108,2.987969871526275e-10,3.559423345977919e-05,0.7334679545674108,-2.7658317501733087e-05,-0.6662189366864151
914,0.7338,778.83,823.923,-0.456555,0.000223042,-0.017592,-0.135399,0.550302,0.550302,-1.09764,3.10103e-10,3.26992e-05,-3.12566e-05,0.987467,0.7337765393265525,3.101030543462002e-10,3.269973462471931e-05,0.7337765393265525,-3.1256111517552476e-05,-0.6663424128353448
915,0.7339,779.481,824.621,0.218155,0.000218366,0.0571451,-0.0441444,0.550369,0.550369,-1.09778,3.05189e-10,3.43894e-05,-2.92529e-05,0.98759,0.7338927062462357,3.0518898519460436e-10,3.438999132221454e-05,0.7338927062462357,-2.9252472138141528e-05,-0.6663891216278561
916,0.7341,779.257,824.499,0.0453932,0.000214157,0.068405,-0.0317413,0.550469,0.550469,-1.09797,3.05132e-10,3.46907e-05,-2.89987e-05,0.987763,0.734066104186613,3.051319197311386e-10,3.469130172928381e-05,0.734066104186613,-2.8998279541725402e-05,-0.6664525016734518
917,0.7342,779.254,825.229,0.411771,0.000212189,0.062095,-0.0388055,0.550569,0.550569,-1.09817,3.06169e-10,3.45961e-05,-2.9182e-05,0.987935,0.7342395194676512,3.0616909008074344e-10,3.4596698452071806e-05,0.7342395194676512,-2.9181574209613537e-05,-0.6665192045026119
918,0.7344,779.337,824.848,0.261003,0.000207637,0.0401114,-0.0628993,0.55067,0.55067,-1.09837,3.08098e-10,3.41376e-05,-2.97657e-05,0.988113,0.7344146865049039,3.080979915637272e-10,3.413818269448754e-05,0.7344146865049039,-2.9765257005931467e-05,-0.6665858939925401
919,0.7345,778.807,824.234,-0.311289,0.000205217,0.0578033,-0.0431026,0.550707,0.550707,-1.09844,3.073e-10,3.45473e-05,-2.93385e-05,0.988181,0.734478861035526,3.0729996325362663e-10,3.454789676493597e-05,0.734478861035526,-2.933806963045793e-05,-0.6666092321631152
920,0.7346,779.211,824.581,0.0638927,0.000201996,0.0637268,-0.0367599,0.550764,0.550764,-1.09855,3.07378e-10,3.47077e-05,-2.92133e-05,0.98828,0.7345777291483195,3.073779009099553e-10,3.47083023191086e-05,0.7345777291483195,-2.9212873295714203e-05,-0.6666459031306369
921,0.7346,779.091,824.43,-0.0719423,0.000201135,0.0587304,-0.0420377,0.550778,0.550778,-1.09858,3.07731e-10,3.46035e-05,-2.93356e-05,0.988305,0.734602013406517,3.077309518317861e-10,3.460409870803538e-05,0.734602013406517,-2.933516971548311e-05,-0.6666559036035351
922,0.7346,779.324,824.557,0.107984,0.00020032,0.0579177,-0.0428552,0.550792,0.550792,-1.09861,3.07857e-10,3.45917e-05,-2.93584e-05,0.988329,0.7346262980046965,3.0785707316738353e-10,3.459229829982924e-05,0.7346262980046965,-2.9357969046350796e-05,-0.6666659037764238
923,0.7347,779.59,824.79,0.357239,0.000198895,0.0586064,-0.0421022,0.550813,0.550813,-1.09865,3.07973e-10,3.46172e-05,-2.9349e-05,0.988368,0.7346627255394425,3.079729804511544e-10,3.461779918212393e-05,0.7346627255394425,-2.9348569322351636e-05,-0.666679236873609
924,0.7347,779.159,824.566,0.0307349,0.000197072,0.0572662,-0.0434449,0.550845,0.550845,-1.09871,3.08253e-10,3.46025e-05,-2.93898e-05,0.988428,0.7347182356348165,3.0825297869796486e-10,3.460309867331368e-05,0.7347182356348165,-2.938936812402204e-05,-0.6666992355194312
925,0.7348,779.325,824.479,0.0695784,0.000194495,0.0568459,-0.0439151,0.550892,0.550892,-1.09881,3.08605e-10,3.4614e-05,-2.94162e-05,0.988508,0.7347997693079176,3.0860491939677104e-10,3.4614599071502994e-05,0.7347997693079176,-2.9415767347829025e-05,-0.666732563929431
926,0.7349,778.895,824.704,-0.0311511,0.000191591,0.052938,-0.048188,0.550964,0.550964,-1.09895,3.09319e-10,3.45553e-05,-2.95382e-05,0.988633,0.7349246793880166,3.0931901484620994e-10,3.455589704115525e-05,0.7349246793880166,-2.953776375169692e-05,-0.6667792181046124
927,0.735,778.827,824.409,-0.213689,0.000188267,0.05076,-0.0502726,0.551035,0.551035,-1.0991,3.09891e-10,3.45354e-05,-2.96138e-05,0.98876,0.7350478634132345,3.098910017484968e-10,3.4535996353834975e-05,0.7350478634132345,-2.9613361515745673e-05,-0.6668291974733503
928,0.7352,779.457,825.36,0.577916,0.000185392,0.0602978,-0.0400739,0.551107,0.551107,-1.09924,3.09869e-10,3.47797e-05,-2.94075e-05,0.988883,0.7351727913567521,3.0986901933260924e-10,3.478030482084726e-05,0.7351727913567521,-2.9407067603681725e-05,-0.6668758381207825
929,0.7354,779.144,824.656,0.0681646,0.000182053,0.0329744,-0.0707746,0.551214,0.551214,-1.09946,3.12295e-10,3.41964e-05,-3.01492e-05,0.989073,0.7353584647787781,3.1229507868602013e-10,3.419698470352728e-05,0.7353584647787781,-3.0148745517433184e-05,-0.6669491173753825
930,0.7354,778.793,824.421,-0.224171,0.000179742,0.0566098,-0.0437304,0.551254,0.551254,-1.09954,3.11055e-10,3.47411e-05,-2.95609e-05,0.989145,0.7354278805056746,3.1105495956751383e-10,3.474170347894656e-05,0.7354278805056746,-2.9560463080890997e-05,-0.666975760380258
931,0.7355,779.088,825.086,0.25706,0.000177336,0.0527357,-0.0479015,0.551314,0.551314,-1.09966,3.11677e-10,3.46792e-05,-2.96761e-05,0.989253,0.7355320093023376,3.1167690650590885e-10,3.467980133042836e-05,0.7355320093023376,-2.967565966893737e-05,-0.6670157208913338
932,0.7357,778.908,825.113,0.18126,0.000175082,0.0474073,-0.0540598,0.551404,0.551404,-1.09985,3.12683e-10,3.45936e-05,-2.98506e-05,0.98942,0.7356882142122905,3.1268299061082416e-10,3.4594198365489603e-05,0.7356882142122905,-2.9850154475319357e-05,-0.6670789818943788
933,0.7357,778.464,824.808,-0.192751,0.000173193,0.0569717,-0.0431133,0.551438,0.551438,-1.09992,3.12286e-10,3.48226e-05,-2.96184e-05,0.989483,0.7357472286148128,3.122859748572182e-10,3.4823206313872035e-05,0.7357472286148128,-2.9617961379568847e-05,-0.6671022855500087
934,0.7358,778.914,825.274,0.26503,0.000170758,0.0654393,-0.034081,0.551489,0.551489,-1.10002,3.12199e-10,3.50384e-05,-2.94305e-05,0.989576,0.7358357539808498,3.121989333720876e-10,3.5039013851934087e-05,0.7358357539808498,-2.9430066927127463e-05,-0.6671355736570206
935,0.736,778.944,825.282,0.284061,0.000167709,0.0618341,-0.0378593,0.551565,0.551565,-1.10017,3.12881e-10,3.49953e-05,-2.95352e-05,0.989716,0.7359676825113728,3.128810543984173e-10,3.499591234268351e-05,0.7359676825113728,-2.9534763840266542e-05,-0.6671854995764346
936,0.7361,778.392,824.823,-0.220786,0.000165195,0.0407145,-0.0607841,0.551641,0.551641,-1.10033,3.14582e-10,3.45496e-05,-3.00831e-05,0.98985,0.7360996210688455,3.1458191607214303e-10,3.45501968443962e-05,0.7360996210688455,-3.008264750803402e-05,-0.6672387456367039
937,0.7362,779.153,825.109,0.300698,0.000161891,0.0617682,-0.0377406,0.551717,0.551717,-1.10048,3.13919e-10,3.50555e-05,-2.95907e-05,0.989984,0.7362315696540294,3.139188908818369e-10,3.505611445131507e-05,0.7362315696540294,-2.959026219950811e-05,-0.6672886560814815
938,0.7364,779.599,824.132,0.0307094,0.000157869,0.0333996,-0.0693079,0.551832,0.551832,-1.10071,3.16431e-10,3.44506e-05,-3.03574e-05,0.990198,0.736431247765811,3.164311035419587e-10,3.445119342870839e-05,0.736431247765811,-3.0356939218822987e-05,-0.6673651708910423
939,0.7367,778.892,824.217,-0.277641,0.000163063,0.0882571,-0.00502034,0.552003,0.552003,-1.10104,3.13032e-10,3.57836e-05,-2.89214e-05,0.990482,0.7367282028981192,3.130320447297663e-10,3.578424024075488e-05,0.7367282028981192,-2.892098178031155e-05,-0.667474922274674
940,0.7372,779.116,825.217,0.336908,0.000197565,0.130803,0.055156,0.55226,0.55226,-1.10156,3.06845e-10,3.69896e-05,-2.74383e-05,0.990943,0.7371745994057581,3.0684499385813524e-10,3.699028412373906e-05,0.7371745994057581,-2.7437923573292444e-05,-0.6676477903654923
941,0.7376,778.988,825.441,0.386224,0.000220563,0.0856918,-0.00302415,0.552517,0.552517,-1.10207,3.13723e-10,3.61504e-05,-2.87178e-05,0.991392,0.7376211106520432,3.13723047540293e-10,3.615105343368619e-05,0.7376211106520432,-2.8717387647980708e-05,-0.6678172467773478
942,0.7377,778.199,824.833,-0.312258,0.000217455,0.0432238,-0.0573382,0.552581,0.552581,-1.1022,3.18853e-10,3.52244e-05,-2.99584e-05,0.991514,0.7377323219618486,3.18852944047876e-10,3.5225020386553396e-05,0.7377323219618486,-2.9957951251602388e-05,-0.6678604277284441
943,0.7379,778.505,824.833,-0.159578,0.000212127,0.0805086,-0.0159237,0.552677,0.552677,-1.1024,3.1691e-10,3.61177e-05,-2.90445e-05,0.991695,0.7378991522724838,3.16910053754782e-10,3.6118352251923724e-05,0.7378991522724838,-2.9044078212581148e-05,-0.6679268490005499
944,0.7379,778.741,825.049,0.0659871,0.000211767,0.0562838,-0.0430935,0.552686,0.552686,-1.10242,3.18744e-10,3.5582e-05,-2.96529e-05,0.991711,0.7379147934352395,3.187439201468578e-10,3.558263304692666e-05,0.7379147934352395,-2.9652460357132426e-05,-0.6679334903971557
945,0.7379,778.451,824.641,-0.283497,0.000210798,0.0564656,-0.0428969,0.5527,0.5527,-1.10245,3.18835e-10,3.55925e-05,-2.96533e-05,0.991737,0.7379391244126638,3.188349584348771e-10,3.5593133420608325e-05,0.7379391244126638,-2.9652860345286136e-05,-0.6679434522430152
946,0.738,778.699,824.776,-0.0921531,0.000209486,0.0574437,-0.0418638,0.55272,0.55272,-1.10248,3.18926e-10,3.5624e-05,-2.96367e-05,0.991775,0.7379738835427423,3.1892599672289634e-10,3.5624634542319455e-05,0.7379738835427423,-2.9636260837295758e-05,-0.667953413790024
947,0.738,778.854,825.101,0.147875,0.000207619,0.0545535,-0.0448272,0.552751,0.552751,-1.10255,3.19266e-10,3.55725e-05,-2.97128e-05,0.99183,0.7380277615682371,3.1926594701303657e-10,3.557313270885487e-05,0.7380277615682371,-2.971235857918142e-05,-0.6679766562375635
948,0.7381,779.115,825.114,0.284417,0.000204815,0.0556548,-0.0435638,0.552796,0.552796,-1.10264,3.19513e-10,3.56184e-05,-2.97e-05,0.991911,0.7381059745772873,3.1951308265831813e-10,3.56190343426821e-05,0.7381059745772873,-2.969955895937293e-05,-0.6680065369938479
949,0.7382,779.498,825.272,0.554484,0.000201013,0.0593653,-0.039605,0.552865,0.552865,-1.10277,3.19779e-10,3.57331e-05,-2.96329e-05,0.99204,0.7382259080271896,3.197790920950183e-10,3.573373843490657e-05,0.7382259080271896,-2.963246095000205e-05,-0.6680496933388156
950,0.7384,778.374,825.469,0.0956584,0.000200864,0.083511,-0.0118776,0.552968,0.552968,-1.10298,3.18418e-10,3.63404e-05,-2.90192e-05,0.99223,0.7384049545164524,3.1841795866682787e-10,3.634106032035511e-05,0.7384049545164524,-2.9018778947120794e-05,-0.6681193955842226
951,0.7385,778.336,825.237,-0.0405043,0.000198748,0.0627297,-0.0360006,0.553006,0.553006,-1.10306,3.20458e-10,3.58971e-05,-2.95678e-05,0.992298,0.7384710151598681,3.2045810449687906e-10,3.5897744308677204e-05,0.7384710151598681,-2.9567362876958825e-05,-0.6681459449705862
952,0.7386,778.44,825.023,-0.0964572,0.000195417,0.0533581,-0.0457212,0.553064,0.553064,-1.10317,3.21355e-10,3.57142e-05,-2.98055e-05,0.992408,0.7385718494029123,3.2135494265617126e-10,3.5714837759659446e-05,0.7385718494029123,-2.980505582050874e-05,-0.668182446908996
953,0.7387,778.912,825.501,0.378749,0.000192431,0.0542014,-0.0447751,0.553122,0.553122,-1.10328,3.2169e-10,3.57558e-05,-2.98049e-05,0.992511,0.7386726894945119,3.2169000796500313e-10,3.575643924613736e-05,0.7386726894945119,-2.9804455838333688e-05,-0.6682189448324134
954,0.7387,778.578,825.062,-0.00856896,0.000191499,0.0563785,-0.0425028,0.553136,0.553136,-1.10331,3.21686e-10,3.58114e-05,-2.97591e-05,0.992538,0.7386970310825556,3.216860111621145e-10,3.5812041235816494e-05,0.7386970310825556,-2.9758657202338945e-05,-0.6682288981147684
955,0.7387,778.805,825.026,0.0859603,0.000190176,0.0575072,-0.0413587,0.553158,0.553158,-1.10336,3.21788e-10,3.58465e-05,-2.97405e-05,0.992577,0.7387352828380074,3.2178792963577507e-10,3.5847142493494744e-05,0.7387352828380074,-2.9740057755689442e-05,-0.6682454862551557
956,0.7388,778.375,824.618,-0.332814,0.000188323,0.0555604,-0.0432579,0.553191,0.553191,-1.10342,3.22088e-10,3.58175e-05,-2.9794e-05,0.992636,0.7387926620490926,3.220879118970288e-10,3.581814145436901e-05,0.7387926620490926,-2.9793556163171253e-05,-0.6682653909288343
957,0.7389,779.021,825.077,0.219276,0.000185646,0.0558158,-0.0428866,0.553239,0.553239,-1.10351,3.22401e-10,3.58456e-05,-2.98022e-05,0.992723,0.7388761260999923,3.224009947899731e-10,3.584624246122381e-05,0.7388761260999923,-2.9801755918823503e-05,-0.6682952457001659
958,0.7389,778.777,824.605,-0.139989,0.000184503,0.0567233,-0.0420211,0.553258,0.553258,-1.10355,3.22502e-10,3.5874e-05,-2.97889e-05,0.992756,0.7389091650602573,3.2250202508521397e-10,3.587464347964975e-05,0.7389091650602573,-2.9788456315071876e-05,-0.6683085136249776
959,0.7389,778.998,824.654,-0.00518593,0.000183465,0.0566095,-0.0421638,0.553276,0.553276,-1.10359,3.22637e-10,3.58793e-05,-2.9798e-05,0.992789,0.7389404657069332,3.226370282050084e-10,3.5879943669714365e-05,0.7389404657069332,-2.9797556044042217e-05,-0.6683217810190829
960,0.739,778.451,824.11,-0.550742,0.000182433,0.0556386,-0.043105,0.553294,0.553294,-1.10362,3.22791e-10,3.58656e-05,-2.98246e-05,0.992823,0.7389717669170259,3.2279090511622144e-10,3.5866243178306334e-05,0.7389717669170259,-2.982415525099036e-05,-0.6683317312163986
961,0.739,779.003,824.793,0.067122,0.000181002,0.0570279,-0.0416705,0.553322,0.553322,-1.10367,3.22905e-10,3.59084e-05,-2.9801e-05,0.99287,0.739020458808183,3.229050360431529e-10,3.5909044714399485e-05,0.739020458808183,-2.9800555954584418e-05,-0.6683483142152593
962,0.7391,779.124,824.862,0.162366,0.000179587,0.0537424,-0.0450355,0.553349,0.553349,-1.10373,3.23241e-10,3.58464e-05,-2.9885e-05,0.992916,0.7390674129944494,3.232409895304045e-10,3.5847042489933756e-05,0.7390674129944494,-2.988455344787866e-05,-0.6683682127194454
963,0.7391,778.925,824.662,-0.037358,0.000178118,0.0540993,-0.0445449,0.553377,0.553377,-1.10378,3.23392e-10,3.58667e-05,-2.98836e-05,0.992965,0.7391161075637342,3.233919798617535e-10,3.5867343217699243e-05,0.7391161075637342,-2.988315348961823e-05,-0.6683847938942765
964,0.7392,778.256,824.445,-0.479251,0.000176255,0.0570532,-0.0415186,0.553418,0.553418,-1.10387,3.23531e-10,3.59509e-05,-2.98286e-05,0.993034,0.7391874127858913,3.2353097978443657e-10,3.5951546241363985e-05,0.7391874127858913,-2.98281551317503e-05,-0.6684146379198248
965,0.7393,779.125,824.745,0.103693,0.000173226,0.0640673,-0.0338433,0.553479,0.553479,-1.10399,3.23468e-10,3.6137e-05,-2.96725e-05,0.993136,0.7392935064538952,3.2346791911663786e-10,3.613765294918636e-05,0.7392935064538952,-2.9672059775776027e-05,-0.6684544257759553
966,0.7395,779.293,824.882,0.256007,0.000170241,0.064608,-0.0326087,0.553572,0.553572,-1.10417,3.23919e-10,3.61988e-05,-2.96681e-05,0.993311,0.7394552682718034,3.239188917092406e-10,3.619945518451573e-05,0.7394552682718034,-2.9667659906307264e-05,-0.6685140986085996
967,0.7397,778.97,824.828,0.0680648,0.000171069,0.0439588,-0.0567788,0.553711,0.553711,-1.10445,3.26542e-10,3.57815e-05,-3.02647e-05,0.993558,0.7396970693588794,3.2654190462722e-10,3.578214016553005e-05,0.7396970693588794,-3.0264242028565924e-05,-0.6686069016679546
968,0.7401,778.744,824.231,-0.34438,0.000179151,-0.00779183,-0.120883,0.553919,0.553919,-1.10487,3.3262e-10,3.45971e-05,-3.18956e-05,0.993922,0.7400589639850426,3.3261993159783287e-10,3.459769848657146e-05,0.7400589639850426,-3.1895091340716775e-05,-0.6687460575444744
969,0.7406,779.438,823.989,-0.120812,0.000204032,0.0657809,-0.0268437,0.554231,0.554231,-1.10551,3.27145e-10,3.63935e-05,-2.98391e-05,0.994474,0.7406019470827643,3.271449777741964e-10,3.639416225142966e-05,0.7406019470827643,-2.983865481853698e-05,-0.6689579922413088
970,0.7408,779.166,823.422,-0.540872,0.000199942,0.0758069,-0.0190275,0.554349,0.554349,-1.10574,3.27952e-10,3.66891e-05,-2.96779e-05,0.994684,0.7408073502310675,3.2795210991309887e-10,3.6689773053266705e-05,0.7408073502310675,-2.967745961546253e-05,-0.6690341231477035
971,0.7408,779.693,823.932,-0.0230977,0.000199534,0.0557808,-0.0419836,0.554359,0.554359,-1.10576,3.29619e-10,3.62462e-05,-3.01938e-05,0.994702,0.7408247583916105,3.296189987622711e-10,3.624685690151175e-05,0.7408247583916105,-3.019334417175834e-05,-0.6690407423990479
972,0.7409,779.849,824.005,0.0917694,0.000198404,0.055483,-0.0422043,0.554376,0.554376,-1.10579,3.29738e-10,3.62473e-05,-3.02048e-05,0.994734,0.7408543526640536,3.297380146705109e-10,3.624795694134875e-05,0.7408543526640536,-3.0204343839601577e-05,-0.6690506710278457
973,0.7409,779.808,823.989,0.0633834,0.000197341,0.0554244,-0.0423199,0.554392,0.554392,-1.10582,3.29875e-10,3.62532e-05,-3.02132e-05,0.994766,0.7408822065565268,3.2987501619174964e-10,3.625385715522178e-05,0.7408822065565268,-3.021274358583348e-05,-0.669060599358789
974,0.7409,779.756,823.818,-0.0487735,0.000196214,0.0563632,-0.041329,0.554409,0.554409,-1.10586,3.29945e-10,3.6282e-05,-3.01966e-05,0.994797,0.7409118018055973,3.29944960242301e-10,3.6282658199660034e-05,0.7409118018055973,-3.0196144087279997e-05,-0.6690738366700668
975,0.741,779.682,823.749,-0.120167,0.000194625,0.0563017,-0.0413225,0.554434,0.554434,-1.10591,3.30116e-10,3.62922e-05,-3.02051e-05,0.994843,0.7409553251446819,3.301159345880933e-10,3.6292858569764164e-05,0.7409553251446819,-3.020464383052257e-05,-0.6690903825645824
976,0.741,779.801,824.058,0.0942799,0.000192553,0.0548011,-0.042852,0.554471,0.554471,-1.10599,3.30447e-10,3.62751e-05,-3.02518e-05,0.994912,0.741019741683411,3.304470030940365e-10,3.6275757949288945e-05,0.741019741683411,-3.0251342418963212e-05,-0.6691168542750947
977,0.7411,779.004,824.081,-0.290482,0.000190179,0.0532167,-0.0443191,0.554526,0.554526,-1.1061,3.30884e-10,3.62636e-05,-3.03045e-05,0.995016,0.741115500402544,3.30883986876529e-10,3.626425753222584e-05,0.741115500402544,-3.0304040823270206e-05,-0.6691532494193548
978,0.7413,779.79,824.998,0.561339,0.000187328,0.0536994,-0.0442269,0.55461,0.55461,-1.10628,3.31525e-10,3.63088e-05,-3.03301e-05,0.99518,0.7412617602474054,3.3152502965094754e-10,3.6309459172434444e-05,0.7412617602474054,-3.032964004712202e-05,-0.6692127964750636
979,0.7413,779.423,823.956,-0.144799,0.00018544,0.0537816,-0.0437452,0.554641,0.554641,-1.10635,3.31643e-10,3.63236e-05,-3.03304e-05,0.995235,0.7413157401986581,3.3164293533616274e-10,3.632425970989672e-05,0.7413157401986581,-3.0329940038043013e-05,-0.6692359507689005
980,0.7414,779.641,823.842,-0.0938371,0.000182751,0.0637995,-0.0329855,0.554688,0.554688,-1.10644,3.31363e-10,3.65717e-05,-3.01017e-05,0.995318,0.7413975839617606,3.3136293708935227e-10,3.657236875276304e-05,0.7413975839617606,-3.0101246948355254e-05,-0.6692657181937771
981,0.7415,779.441,823.635,-0.297141,0.000179851,0.0485391,-0.049449,0.554758,0.554758,-1.10658,3.3274e-10,3.62542e-05,-3.04955e-05,0.99544,0.7415194860591616,3.327400577290973e-10,3.625485719149779e-05,0.7415194860591616,-3.0495035016953054e-05,-0.6693120177521853
982,0.7416,779.637,824.004,-0.0141345,0.000176741,0.0568982,-0.040307,0.554828,0.554828,-1.10672,3.32682e-10,3.64711e-05,-3.03126e-05,0.995564,0.741641396690008,3.326821040872119e-10,3.6471765078704976e-05,0.741641396690008,-3.031214057780396e-05,-0.669358310829109
983,0.7418,780.136,823.985,0.224281,0.000173468,0.0608644,-0.0359797,0.554899,0.554899,-1.10686,3.32879e-10,3.65919e-05,-3.02343e-05,0.995689,0.7417650576190842,3.328790576517804e-10,3.659256949184453e-05,0.7417650576190842,-3.023384294820186e-05,-0.6694045974254557
984,0.7419,779.942,823.191,-0.271223,0.000170127,0.0625783,-0.0339469,0.554969,0.554969,-1.107,3.33195e-10,3.66654e-05,-3.02061e-05,0.995817,0.7418869854405414,3.331950271245887e-10,3.666607218399953e-05,0.7418869854405414,-3.0205643800407245e-05,-0.6694508775421323
985,0.742,779.947,823.116,-0.306407,0.000167205,0.0544554,-0.0428054,0.555039,0.555039,-1.10713,3.34207e-10,3.65131e-05,-3.0428e-05,0.995947,0.7420089217972448,3.34207106433837e-10,3.6513766611401266e-05,0.7420089217972448,-3.0427537073052235e-05,-0.6694938461350327
986,0.7422,781.154,823.453,0.464308,0.000162999,0.0525174,-0.0449432,0.555144,0.555144,-1.10734,3.35052e-10,3.65114e-05,-3.0512e-05,0.996125,0.7421918423371938,3.3505198615557674e-10,3.651206654931016e-05,0.7421918423371938,-3.0511534513610883e-05,-0.6695632451401938
987,0.7425,779.797,823.312,-0.282482,0.000167905,0.0627593,-0.0325426,0.555303,0.555303,-1.10764,3.3505e-10,3.68161e-05,-3.02677e-05,0.996412,0.7424688728634687,3.350499877541324e-10,3.6816777720938276e-05,0.7424688728634687,-3.0267241937775857e-05,-0.6696623612984847
988,0.7426,780.935,823.692,0.47537,0.00016499,0.0559026,-0.0408825,0.555362,0.555362,-1.10776,3.36125e-10,3.66893e-05,-3.0473e-05,0.996519,0.7425716815597945,3.361249056865745e-10,3.6689973060610725e-05,0.7425716815597945,-3.047253570287456e-05,-0.669701999436793
989,0.7427,781.125,823.133,0.289635,0.00016115,0.0473822,-0.0502435,0.555451,0.555451,-1.10793,-9.79679e-11,3.65302e-05,-3.07168e-05,0.996677,0.7427267773411133,-9.796785604976321e-11,3.653086723587329e-05,0.7427267773411133,-3.0716328243918234e-05,-0.6697581453243531
990,0.7428,780.948,822.869,0.0690456,0.000159372,0.0537081,-0.0430825,0.555484,0.555484,-1.108,3.37071e-10,3.66858e-05,-3.05684e-05,0.996738,0.7427842882736906,3.3707103774816005e-10,3.66864729322014e-05,0.7427842882736906,-3.05679327912145e-05,-0.6697812614451066
991,0.7429,781.338,822.531,0.0936968,0.000156965,0.0569296,-0.0396266,0.555534,0.555534,-1.1081,3.37223e-10,3.67802e-05,-3.05064e-05,0.996831,0.7428714296666208,3.3722291625792877e-10,3.678087639991112e-05,0.7428714296666208,-3.0505934684565972e-05,-0.6698142816679236
992,0.7429,781.478,822.507,0.151518,0.000156059,0.0553211,-0.0413122,0.555553,0.555553,-1.10814,3.37436e-10,3.67524e-05,-3.05499e-05,0.996864,0.7429045445383748,3.374360790786568e-10,3.675307537776007e-05,0.7429045445383748,-3.054943335656368e-05,-0.6698274888325118
993,0.743,781.185,822.095,-0.200882,0.000154616,0.0548519,-0.0418049,0.555581,0.555581,-1.1082,3.3766e-10,3.67547e-05,-3.05698e-05,0.996918,0.7429533465488469,3.3765990004042123e-10,3.675537546232732e-05,0.7429533465488469,-3.056933274847573e-05,-0.6698472985888831
994,0.743,781.111,822.156,-0.207416,0.000152732,0.057022,-0.0394743,0.555623,0.555623,-1.10828,3.37828e-10,3.68227e-05,-3.05309e-05,0.996998,0.7430265521267083,3.378279878063495e-10,3.682337796395707e-05,0.7430265521267083,-3.05304339368595e-05,-0.6698737097485356
995,0.7431,781.366,822.618,0.151631,0.000150467,0.0557101,-0.0406204,0.555686,0.555686,-1.10841,3.38292e-10,3.68221e-05,-3.05768e-05,0.997106,0.7431363662586012,3.382920610306428e-10,3.682277794192501e-05,0.7431363662586012,-3.05763325344488e-05,-0.6699166233768219
996,0.7433,781.195,822.428,-0.0291502,0.000148332,0.0512636,-0.0455393,0.555781,0.555781,-1.1086,3.39242e-10,3.676e-05,-3.07196e-05,0.99727,0.7433019720795475,3.392419678505121e-10,3.6760675657054875e-05,0.7433019720795475,-3.071912815788558e-05,-0.6699793332607528
997,0.7434,782.003,822.716,0.518224,0.000146657,0.0548625,-0.0416106,0.555817,0.555817,-1.10867,3.39255e-10,3.6856e-05,-3.06428e-05,0.997337,0.7433647320802157,3.3925506848220266e-10,3.685667919062219e-05,0.7433647320802157,-3.0642330514196736e-05,-0.6700024338988928
998,0.7435,781.228,821.8,-0.326727,0.000144378,0.0589835,-0.0369964,0.55587,0.55587,-1.10878,3.39347e-10,3.69756e-05,-3.05549e-05,0.997436,0.7434571328596149,3.393469949486416e-10,3.69762836058829e-05,0.7434571328596149,-3.055443320376661e-05,-0.6700387316347518
999,0.7436,781.495,821.91,-0.138537,0.000142442,0.0508225,-0.0458157,0.555924,0.555924,-1.10888,3.40223e-10,3.68141e-05,-3.07711e-05,0.997535,0.7435512820867956,3.4022296091507087e-10,3.681477764727603e-05,0.7435512820867956,-3.077062657452778e-05,-0.670071726111837
