,Time,S11,S22,S33,S12,S13,S23,LE11,LE22,LE33,LE12,LE13,LE23,SDV_EPBAR,E11,E12,E13,E22,E23,E33
0,1e-05,2.08407,-1.66533e-16,-2.22045e-16,1.69736e-17,-3.59433e-39,0.0,9.99995e-06,-2.99999e-06,-2.99999e-06,0.0,0.0,0.0,0.0,9.999999999621423e-06,0.0,0.0,-2.999985500018454e-06,0.0,-2.999985500018454e-06
1,2e-05,4.16811,3.33067e-16,4.44089e-16,-2.20659e-22,-3.59433e-39,0.0,1.99998e-05,-5.99994e-06,-5.99994e-06,0.0,0.0,0.0,0.0,1.9999999997244444e-05,0.0,0.0,-5.999922000343716e-06,0.0,-5.999922000343716e-06
2,3.5e-05,7.29414,-1.11022e-16,-2.22045e-16,-2.20659e-22,-3.59433e-39,-1.37033e-38,3.49994e-05,-1.04998e-05,-1.04998e-05,0.0,0.0,0.0,0.0,3.5000012486241516e-05,0.0,0.0,-1.0499744877323636e-05,0.0,-1.0499744877323636e-05
3,5.75e-05,11.9831,-4.21885e-15,-4.44089e-15,1.69731e-17,-1.0783e-38,-3.39477e-17,5.74983e-05,-1.72495e-05,-1.72495e-05,0.0,0.0,0.0,0.0,5.749995305892597e-05,0.0,0.0,-1.7249351228265652e-05,0.0,-1.7249351228265652e-05
4,9.125e-05,19.0163,-2.88658e-14,-2.93099e-14,1.69724e-17,-3.39462e-17,0.0,9.12458e-05,-2.73738e-05,-2.73738e-05,0.0,0.0,0.0,0.0,9.124996302456445e-05,0.0,0.0,-2.737342534098186e-05,0.0,-2.737342534098186e-05
5,0.00014188,29.5657,-1.57208e-13,-1.57208e-13,-1.69742e-17,1.48934e-21,-1.35791e-16,0.000141865,-4.25595e-05,-4.25595e-05,0.0,0.0,0.0,0.0,0.00014187506331508892,0.0,0.0,-4.255859435731146e-05,0.0,-4.255859435731146e-05
6,0.00021781,45.3888,-8.01581e-13,-8.01137e-13,-8.48612e-17,-6.78872e-17,-6.78954e-17,0.000217789,-6.53366e-05,-6.53366e-05,0.0,0.0,0.0,0.0,0.0002178127177461242,0.0,0.0,-6.533446561085565e-05,0.0,-6.533446561085565e-05
7,0.00033172,69.1212,-4.04787e-12,-4.05009e-12,1.86693e-16,-6.78772e-17,-4.75268e-16,0.000331664,-9.94991e-05,-9.94991e-05,0.0,0.0,0.0,0.0,0.0003317190065854625,0.0,0.0,-9.949415012866503e-05,0.0,-9.949415012866503e-05
8,0.00050258,104.715,-2.05174e-11,-2.05169e-11,1.86651e-16,2.03659e-16,-3.39477e-16,0.000502452,-0.000150736,-0.000150736,0.0,0.0,0.0,0.0,0.0005025782501502096,0.0,0.0,-0.00015072463989995732,0.0,-0.00015072463989995732
9,0.00075887,158.094,-1.03756e-10,-1.03753e-10,1.86589e-16,2.03591e-16,-6.78954e-17,0.000758579,-0.000227574,-0.000227574,0.0,0.0,0.0,0.0,0.0007588667938165372,0.0,0.0,-0.0002275481070015406,0.0,-0.0002275481070015406
10,0.0011433,238.136,-5.24726e-10,-5.24729e-10,-3.56396e-16,2.0349e-16,-6.11059e-16,0.00114265,-0.000342794,-0.000342794,0.0,0.0,0.0,0.0,0.0011433030732321825,0.0,0.0,-0.00034273525284966855,0.0,-0.00034273525284966855
11,0.00172,357.657,-0.000178794,-0.00015723,1.93807e-05,-2.32165e-05,-5.61569e-05,0.00171847,-0.00051594,-0.000516077,2.42213e-10,-2.90259e-10,-7.01834e-10,2.34882e-06,0.001719947415747436,2.422129163903719e-10,-2.9025903902635264e-10,-0.0005158069258452969,-7.01834035332638e-10,-0.0005159438551703976
12,0.0021524,365.206,-0.256034,-0.0340194,0.0257834,-0.0601176,0.00688259,0.00215013,-0.000711159,-0.000738467,3.37015e-07,-8.91834e-07,2.51185e-07,0.000400624,0.0021524431870956207,3.3701505675054477e-07,-8.918336023011619e-07,-0.0007109061863721511,2.511850314412811e-07,-0.0007381944003510554
13,0.0025849,372.503,0.202413,-0.0384697,-0.0124803,0.0526155,-0.0320335,0.00258159,-0.000903287,-0.000962834,-2.22789e-07,7.80778e-07,-2.37461e-07,0.000800983,0.0025849251728629064,-2.2278897515715101e-07,7.807783048985328e-07,-0.0009028791591061402,-2.3746097177479442e-07,-0.0009623706240742269
14,0.0030174,378.871,-0.352056,0.0285163,0.0237004,-0.0901102,0.0294175,0.00301287,-0.00110091,-0.00118513,2.52923e-07,-1.27124e-06,7.36521e-07,0.00120426,0.0030174132544176224,2.52923032073582e-07,-1.2712391920244315e-06,-0.0011003042209091207,7.365212713050795e-07,-0.0011844280107851102
15,0.0036661,388.045,-0.260127,0.0990342,0.00473682,-0.0669264,0.0505193,0.00365944,-0.00139151,-0.00152298,-6.07091e-08,-1.19533e-06,1.54219e-06,0.00181211,0.0036661439256002737,-6.070909819300141e-08,-1.1953292855526598e-06,-0.0013905422988672589,1.542191189196629e-06,-0.0015218208544862666
16,0.0043149,396.375,0.0868252,-0.161999,0.0142539,0.0325698,-0.0668805,0.0043056,-0.00168026,-0.00186407,3.52876e-08,3.47103e-07,-6.85399e-08,0.00242346,0.0043148824130179175,3.528760061932701e-08,3.471030602941738e-07,-0.0016788491534731609,-6.853989764632473e-08,-0.001862333700546337
17,0.0049636,404.017,-0.225647,0.100844,0.00280583,-0.0596704,0.047287,0.00495133,-0.0019739,-0.00220145,-1.62839e-07,-1.01644e-06,1.78876e-06,0.00303747,0.004963608090312821,-1.6283898673918884e-07,-1.0164394834699664e-06,-0.0019719531405743007,1.788761599730293e-06,-0.0021990285861485104
18,0.0052069,406.797,0.0477004,-0.0308932,-0.00116793,0.010711,-0.00918877,0.00519338,-0.00208324,-0.00232854,-2.18587e-07,-1.11469e-07,1.07571e-06,0.00326819,0.005206888973532164,-2.1858697607513022e-07,-1.1146899381309083e-07,-0.0020810715616050857,1.0757105786129983e-06,-0.002325831053772043
19,0.0055718,410.697,-0.154903,0.0608949,0.00423291,-0.0396895,0.0248268,0.00555633,-0.00225009,-0.00251735,-1.54341e-07,-8.37912e-07,1.60078e-06,0.003615,0.005571795031205973,-1.54340988101076e-07,-8.379116489543037e-07,-0.002247560445093666,1.600781281307917e-06,-0.0025141841315788893
20,0.0061192,416.324,-0.255344,0.118871,0.00333065,-0.0653289,0.0507023,0.00610052,-0.00249814,-0.00280271,-1.87278e-07,-1.39285e-06,2.22774e-06,0.0041363,0.006119166069758375,-1.87277982455214e-07,-1.3928490300019192e-06,-0.0024950222450067505,2.227742481375472e-06,-0.002798786075058568
21,0.0069402,424.203,-0.327042,0.1144,0.00691796,-0.08057,0.0581868,0.00691624,-0.00286685,-0.00323458,-1.87848e-07,-1.97951e-06,2.93272e-06,0.00492054,0.006940212422343217,-1.878479823913537e-07,-1.979508040816924e-06,-0.0028627445097507698,2.932724300519496e-06,-0.003229354381856786
22,0.0077613,431.733,0.320163,-0.108801,-0.0100594,0.0874704,-0.0660515,0.0077313,-0.0032311,-0.00366998,-5.12604e-07,7.90639e-07,1.15255e-06,0.00570652,0.007761263669441298,-5.126038685743239e-07,7.906393124645916e-07,-0.0032258856139744108,1.1525506642406924e-06,-0.003663253854189197
23,0.0085823,438.403,-0.334426,0.114265,0.00917818,-0.0841625,0.05806,0.0085457,-0.00360329,-0.0041001,-2.88913e-07,-1.78961e-06,3.24124e-06,0.00649468,0.008582318730814498,-2.8891295822397467e-07,-1.7896083986945754e-06,-0.0035968059409077213,3.241245252860736e-06,-0.004091706065903367
24,0.0094034,444.83,-0.36493,0.12359,0.00964734,-0.0904628,0.0625282,0.00935943,-0.00397249,-0.00453222,-2.91066e-07,-2.34973e-06,3.83946e-06,0.00728392,0.009403366431302906,-2.910659576693675e-07,-2.3497272393369073e-06,-0.0039646100993286915,3.839467370703176e-06,-0.004521964989440019
25,0.010224,451.116,0.35113,-0.0956913,-0.014601,0.0966126,-0.0644535,0.0101725,-0.00433687,-0.0049678,-7.04144e-07,6.57313e-07,1.98784e-06,0.00807393,0.01022441576650679,-7.041437520838301e-07,6.573132160792028e-07,-0.004327479359535258,1.9878419756924615e-06,-0.004955480889647812
26,0.011045,456.845,0.350853,-0.12185,-0.0103089,0.096359,-0.0750386,0.0109849,-0.00470482,-0.00540123,-7.36925e-07,1.30976e-06,1.51431e-06,0.0088652,0.011045455543076121,-7.36924728461652e-07,1.30976085777057e-06,-0.004693769671112347,1.5143111464777093e-06,-0.005386669583757664
27,0.011867,462.145,-0.278486,0.14669,0.00338215,-0.0752757,0.0661079,0.0117967,-0.00507722,-0.00583102,-5.88759e-07,-1.22641e-06,3.78385e-06,0.00965735,0.011866555483258212,-5.887588266917376e-07,-1.226409247934157e-06,-0.005064352704443165,3.7838571587123226e-06,-0.0058140525979855084
28,0.012688,467.491,0.356704,-0.12508,-0.0100738,0.0975401,-0.0766989,0.0126078,-0.00544191,-0.00626639,-8.34156e-07,1.56898e-06,1.63993e-06,0.0104497,0.012687613381427987,-8.341556521074267e-07,1.5689812309371831e-06,-0.005427129631076055,1.6399313447212904e-06,-0.006246797125078141
29,0.013509,472.25,-0.360785,0.132029,0.0119584,-0.0954775,0.0648244,0.0134182,-0.00581472,-0.00669571,-5.3971e-07,-1.35421e-06,3.88041e-06,0.011243,0.013508628053524152,-5.397098543635792e-07,-1.3542090830931386e-06,-0.0057978472349695664,3.8804175288564835e-06,-0.006673343681101063
30,0.01433,477.206,0.382454,-0.130708,-0.0114908,0.104234,-0.0806722,0.014228,-0.00617883,-0.00713089,-9.09978e-07,1.79599e-06,1.67373e-06,0.012036,0.014329699747580804,-9.09977585950017e-07,1.7959916127630038e-06,-0.006159780285092786,1.6737314005865755e-06,-0.007105525530128776
31,0.015151,481.546,-0.373864,0.135671,0.0132174,-0.0997735,0.0669499,0.0150371,-0.0065517,-0.00755969,-5.7339e-07,-1.28589e-06,3.98228e-06,0.0128299,0.015150726009030668,-5.733898356119482e-07,-1.2858891732525635e-06,-0.006530284408588938,3.982287929193973e-06,-0.007531187412351703
32,0.015972,486.134,0.377541,-0.129705,-0.0113258,0.103019,-0.0799869,0.0158456,-0.00691563,-0.00799444,-9.52036e-07,1.87835e-06,1.75911e-06,0.0136234,0.01597180724837366,-9.520355468417563e-07,1.8783517641285385e-06,-0.006891772060093837,1.759111547317005e-06,-0.007962569450159163
33,0.016793,490.143,-0.352724,0.129391,0.0129234,-0.0948466,0.0630974,0.0166534,-0.00728814,-0.00842291,-6.19966e-07,-1.09412e-06,3.97219e-06,0.0144176,0.016792840845091916,-6.199658078021031e-07,-1.0941194014124633e-06,-0.007261645910952574,3.972197889057227e-06,-0.008387536678671204
34,0.017614,494.402,0.34336,-0.118575,-0.010119,0.0938755,-0.0736478,0.0174606,-0.00765219,-0.00885694,-9.71312e-07,1.828e-06,1.91138e-06,0.0152113,0.017613927372161386,-9.713115283194185e-07,1.8280016707006297e-06,-0.007622986531741316,1.9113818265914517e-06,-0.008817832848648233
35,0.018435,498.33,0.373935,-0.140949,-0.0086587,0.101441,-0.0828426,0.0182671,-0.00801942,-0.00928862,-1.00933e-06,2.52441e-06,1.38985e-06,0.0160053,0.018434964043121616,-1.0093294906532435e-06,2.5244131862667274e-06,-0.007987350235660995,1.3898509658716307e-06,-0.009245614027631466
36,0.019256,501.983,-0.279355,0.166339,0.00439328,-0.0811864,0.0745485,0.0190729,-0.00839124,-0.00971628,-8.48858e-07,-1.74907e-07,3.82567e-06,0.0167995,0.019255949667832617,-8.488576397347458e-07,-1.749069846734841e-07,-0.008356131814664436,3.825677317825793e-06,-0.009669229460192108
37,0.020256,506.616,0.422757,-0.135165,-0.0116506,0.109947,-0.085519,0.0200536,-0.00883249,-0.0102459,-1.13603e-06,3.00777e-06,1.34014e-06,0.0177662,0.020256024284106333,-1.1360293546980316e-06,3.007774523444695e-06,-0.008793598148393311,1.3401408980318052e-06,-0.010193589574826634
38,0.021006,509.814,0.345945,-0.144008,-0.00530949,0.0933863,-0.080735,0.0207884,-0.0091687,-0.0106386,-1.09059e-06,3.28811e-06,1.03508e-06,0.0184913,0.021005983912173676,-1.0905894053392373e-06,3.288115405730707e-06,-0.00912679563745733,1.0350805357273174e-06,-0.010582210241538492
39,0.021756,512.868,-0.183029,0.13907,0.00167665,-0.0579341,0.0579659,0.0215227,-0.00950811,-0.011028,-1.01121e-06,1.1339e-06,3.09034e-06,0.0192163,0.021755983934969025,-1.0112094886993717e-06,1.1339006429356147e-06,-0.009463050844332077,3.0903447751917668e-06,-0.010967414524729047
40,0.022756,516.83,-0.428542,0.1386,0.0191523,-0.115857,0.0730978,0.0225009,-0.00995509,-0.0115521,-7.29638e-07,-3.11948e-07,3.84624e-06,0.0201829,0.022755954644390952,-7.296377337873139e-07,-3.119479513591372e-07,-0.00990570211436359,3.846247396799285e-06,-0.011485630692367854
41,0.023506,520.064,0.273728,0.0202699,-0.0249376,0.0497246,0.00762169,0.023234,-0.0102874,-0.0119455,-1.38158e-06,2.01756e-06,3.1004e-06,0.020907,0.023506011934648186,-1.3815790456117583e-06,2.0175620352169688e-06,-0.010234665688523936,3.100404806222201e-06,-0.011874435762281865
42,0.024256,522.944,0.371552,-0.0988444,-0.0154818,0.0964662,-0.0655711,0.0239665,-0.010622,-0.0123379,-1.33057e-06,3.08734e-06,1.90105e-06,0.0216314,0.02425600473972067,-1.3305691147769139e-06,3.087344765839717e-06,-0.010565785769905744,1.9010518070849969e-06,-0.01226210016895779
43,0.025256,526.6,-0.0842261,0.115739,0.00194089,-0.00110045,0.00349438,0.0249423,-0.0110692,-0.0128599,-1.12806e-06,1.90168e-06,2.85662e-06,0.022597,0.025255961548727335,-1.1280593636975311e-06,1.9016818082473463e-06,-0.01100816182785036,2.8566240801719545e-06,-0.012777564804695052
44,0.026256,530.401,0.462292,-0.071602,-0.0175511,0.128891,-0.0755612,0.0259172,-0.01151,-0.013386,-1.47524e-06,4.39349e-06,1.44975e-06,0.0235619,0.026255970961026165,-1.4752389118077858e-06,4.393499651422772e-06,-0.011444013361381344,1.4497510509858813e-06,-0.013296805929497002
45,0.027256,533.878,0.409915,-0.1388,-0.00838871,0.103736,-0.0849379,0.0268911,-0.0119533,-0.0139101,-1.42129e-06,4.77909e-06,8.52631e-07,0.0245267,0.027255928501432658,-1.4212889899445358e-06,4.779101419938314e-06,-0.011882143111624166,8.52631363512657e-07,-0.013813801582964302
46,0.028256,537.206,-0.240331,0.231605,-0.00385374,-0.0824953,0.0984986,0.0278641,-0.0124012,-0.0144293,-1.40355e-06,1.96432e-06,3.83211e-06,0.025491,0.028255934944104277,-1.4035490150110519e-06,1.964321929337487e-06,-0.012324621999180274,3.832117342561503e-06,-0.014325696557747736
47,0.029256,540.412,-0.442484,0.149146,0.0215583,-0.123911,0.0773759,0.0288362,-0.0128461,-0.0149508,-1.00958e-06,6.99677e-07,4.11909e-06,0.0264549,0.02925598853575928,-1.0095794903408617e-06,6.99677244808683e-07,-0.01276394104108558,4.119098483412742e-06,-0.014839591697188625
48,0.030256,543.587,-0.505671,0.0528277,0.0409027,-0.131138,0.053355,0.0298073,-0.01329,-0.0154722,-6.04634e-07,-1.78933e-07,4.21319e-06,0.0274182,0.03025598449567868,-6.046338172360777e-07,-1.7893298398519164e-07,-0.01320207787599248,4.213198875557822e-06,-0.01535312044549908
49,0.031256,547.251,0.55243,0.0462882,-0.0462411,0.130466,-0.0273897,0.0307775,-0.0137274,-0.0159958,-1.91832e-06,3.9317e-06,3.09119e-06,0.02838,0.031256023892503926,-1.9183181599879973e-06,3.931707729165623e-06,-0.013633608904413563,3.0911947777045867e-06,-0.015868546601290667
50,0.032256,549.935,-0.416194,0.132175,0.021561,-0.115368,0.0690634,0.0317467,-0.0141751,-0.0165138,-9.94555e-07,1.77602e-07,4.77794e-06,0.0293427,0.03225600174184917,-9.94554505417966e-07,1.7760201576066947e-07,-0.014075106301140505,4.777951414292048e-06,-0.016378194683901892
51,0.033256,553.204,0.416398,-0.132553,-0.0115552,0.107995,-0.084569,0.032715,-0.0146125,-0.0170374,-1.47732e-06,3.66096e-06,2.39288e-06,0.0303037,0.0332560193087057,-1.477318908760239e-06,3.660966701346524e-06,-0.014506255550429725,2.3928828629671273e-06,-0.016893084251313306
52,0.034256,556.147,0.426433,-0.149632,-0.00922051,0.11037,-0.0905072,0.0336823,-0.0150536,-0.017558,-1.50621e-06,4.39291e-06,1.81553e-06,0.0312646,0.03425597140504566,-1.5062088656314643e-06,4.392919648932292e-06,-0.014940860981831783,1.8155316481305306e-06,-0.017404756511806285
53,0.035256,558.884,-0.287296,0.215196,0.00268116,-0.0900421,0.0943537,0.0346487,-0.0154996,-0.0180737,-1.36312e-06,1.3705e-06,4.74636e-06,0.032225,0.035255959492228595,-1.3631190709517682e-06,1.3705009391795642e-06,-0.015380099400385538,4.7463712640194444e-06,-0.017911350242452495
54,0.036256,561.605,-0.399171,0.13613,0.0201764,-0.1124,0.0688285,0.0356142,-0.0159419,-0.018592,-1.074e-06,4.40658e-07,4.89308e-06,0.0331848,0.036255981804205195,-1.0739994232844552e-06,4.4065809712279247e-07,-0.01581550048637248,4.893091971158725e-06,-0.018420234900770605
55,0.037256,564.708,0.501101,-0.00168991,-0.0346206,0.121417,-0.0408338,0.0365787,-0.0163779,-0.0191131,-1.92414e-06,4.1168e-06,3.32648e-06,0.0341431,0.03725593284752815,-1.9241381488122045e-06,4.116808474119438e-06,-0.016244511396985795,3.3264855328063447e-06,-0.018931602867868325
56,0.038256,567.035,-0.451618,0.145845,0.0237539,-0.126476,0.0760916,0.0375424,-0.0168238,-0.0196279,-1.10891e-06,2.90202e-07,5.28688e-06,0.035102,0.03825601820374258,-1.108909385205692e-06,2.9020204217466983e-07,-0.016683070185405602,5.286893975497975e-06,-0.01943652690011488
57,0.039256,569.679,-0.435884,0.13864,0.0228654,-0.120902,0.0721032,0.0385051,-0.0172647,-0.0201446,-1.03824e-06,-3.31419e-07,5.711e-06,0.0360596,0.03925602855021415,-1.0382394610708445e-06,-3.3141894506538705e-07,-0.017116519058935076,5.711016307863304e-06,-0.019943053174333314
58,0.040256,572.585,0.449732,-0.0425255,-0.0251898,0.112586,-0.0498894,0.0394668,-0.0176998,-0.0206643,-1.76093e-06,3.27531e-06,3.93771e-06,0.037016,0.04025596181371349,-1.7609284496122868e-06,3.275315363815423e-06,-0.017544078639160632,3.937717752755532e-06,-0.020452256441668815
59,0.041256,574.81,-0.419918,0.141919,0.0211671,-0.117409,0.071742,0.0404277,-0.0181443,-0.0211776,-1.10722e-06,-2.64332e-07,5.92051e-06,0.0379728,0.04125602417043073,-1.1072193870642622e-06,-2.6433196509412227e-07,-0.017980683253641327,5.920527526237507e-06,-0.0209549292764174
60,0.042256,577.558,0.458507,-0.143092,-0.0145425,0.120633,-0.0918647,0.0413876,-0.0185784,-0.0216969,-1.62931e-06,3.43862e-06,3.38359e-06,0.038928,0.04225600569238086,-1.6293086726459904e-06,3.4386259120111617e-06,-0.018406885325188305,3.38359572427116e-06,-0.021463215393731194
61,0.043256,579.734,-0.444658,0.161034,0.0206493,-0.125108,0.0799578,0.0423466,-0.0190227,-0.0222086,-1.11752e-06,-3.36802e-07,6.03417e-06,0.0398832,0.0432560086266065,-1.1175193755930124e-06,-3.3680194333474134e-07,-0.018842910275922886,6.03418820555035e-06,-0.021963804579748225
62,0.044256,582.135,-0.401997,0.134873,0.0203095,-0.111673,0.0676634,0.0433047,-0.0194617,-0.022723,-1.05143e-06,-7.90904e-07,6.31303e-06,0.0408374,0.044256031192783984,-1.0514294472852015e-06,-7.909036872089104e-07,-0.019273543707357566,6.313049927264558e-06,-0.022466777023069207
63,0.045256,584.775,0.396974,-0.028057,-0.0235922,0.0999463,-0.0412093,0.0442618,-0.0198956,-0.02324,-1.71186e-06,2.45155e-06,4.75653e-06,0.0417903,0.0452559670832271,-1.711858534814148e-06,2.4515530050450707e-06,-0.019698988609796464,4.7565413123784595e-06,-0.022972031079920407
64,0.046256,587.031,0.409619,-0.139421,-0.0108765,0.108509,-0.086731,0.0452181,-0.0203327,-0.023755,-1.61142e-06,3.20119e-06,3.72947e-06,0.0427432,0.04625602346529445,-1.6114187016968984e-06,3.201195123869738e-06,-0.020127384549121885,3.729476954372757e-06,-0.023475070940032094
65,0.047256,589.187,-0.265881,0.246648,-0.00436745,-0.0853771,0.101119,0.0461734,-0.0207745,-0.0242648,-1.56145e-06,3.12266e-07,6.68845e-06,0.0436953,0.04725598940219333,-1.5614487809401112e-06,3.1226604879641684e-07,-0.02056019665539388,6.688472367732956e-06,-0.023972776472947266
66,0.048256,591.289,-0.44405,0.160493,0.0207754,-0.124565,0.0792844,0.0471278,-0.0212131,-0.0247771,-1.17535e-06,-8.62484e-07,6.90397e-06,0.0446467,0.048255967632185204,-1.1753493093236145e-06,-8.624836280723969e-07,-0.02098968475951457,6.9039938324078065e-06,-0.024472667161627104
67,0.049256,593.856,0.558729,-0.0210695,-0.0388739,0.140711,-0.0520069,0.0480813,-0.0216446,-0.0252926,-2.0924e-06,3.26902e-06,5.00851e-06,0.0455966,0.049255956366188736,-2.0923978109044228e-06,3.2690253433109717e-06,-0.021412036581581972,5.008522542704341e-06,-0.024975421905536588
68,0.050256,595.641,-0.418701,0.141616,0.0217554,-0.117404,0.0708669,0.0490339,-0.0220864,-0.0258015,-1.25879e-06,-5.98392e-07,6.97667e-06,0.046547,0.05025595381338688,-1.2587892077586815e-06,-5.983918209828687e-07,-0.021844281253941444,6.9766943369131695e-06,-0.02547148567919577
69,0.051256,598.011,0.417351,-0.132667,-0.0129752,0.110896,-0.0856265,0.0499856,-0.0225178,-0.0263161,-1.75809e-06,2.89695e-06,4.57982e-06,0.0474957,0.05125595818123152,-1.7580884545953523e-06,2.8969541960854883e-06,-0.022266166623791217,4.5798304872946005e-06,-0.02597284904080832
70,0.052256,600.092,0.437263,-0.166224,-0.00911099,0.11709,-0.0978421,0.0509364,-0.0229529,-0.0268279,-1.75882e-06,3.64572e-06,3.91618e-06,0.048444,0.052255967675447934,-1.7588184533234852e-06,3.6457266456846327e-06,-0.0226914860797357,3.916187668151494e-06,-0.02647122859046369
71,0.053256,602.014,-0.285571,0.221128,0.00174607,-0.0894392,0.09492,0.0518863,-0.0233928,-0.0273347,-1.62831e-06,5.85945e-07,6.88266e-06,0.0493916,0.053255980500040545,-1.628308674339607e-06,5.859451717160624e-07,-0.023121309548405966,6.882683685649482e-06,-0.02696448796932982
72,0.054256,603.936,-0.427976,0.153262,0.0212677,-0.121155,0.0754726,0.0528353,-0.0238292,-0.0278441,-1.31134e-06,-4.60096e-07,7.09125e-06,0.0503386,0.054255994857296264,-1.311339140164236e-06,-4.600958941614053e-07,-0.023547526401637486,7.091275142867559e-06,-0.02746002603489739
73,0.055256,606.279,0.514265,-0.024109,-0.0346029,0.12966,-0.0498076,0.0537834,-0.0242589,-0.0283565,-2.1596e-06,3.40896e-06,5.28723e-06,0.051284,0.05525600894779137,-2.1595976680277573e-06,3.4089658105251885e-06,-0.023967017895340614,5.2872439775253355e-06,-0.027958227867347252
74,0.056256,608.146,0.444032,-0.149869,-0.0121233,0.117522,-0.0930798,0.0547306,-0.0246928,-0.0288665,-1.93814e-06,3.91875e-06,4.26945e-06,0.0522294,0.05625602097039395,-1.938138121770905e-06,3.918757678356144e-06,-0.024390426741083826,4.269459114025764e-06,-0.028453842778590088
75,0.057256,609.975,-0.236844,0.252502,-0.00683695,-0.0796925,0.100896,0.0556769,-0.0251312,-0.0293714,-1.91061e-06,1.03499e-06,7.27279e-06,0.053174,0.05725602912227101,-1.910608174782169e-06,1.0349905354978262e-06,-0.024818040238273165,7.272816446857178e-06,-0.02894425261898892
76,0.058256,611.757,-0.389066,0.145915,0.0195121,-0.111781,0.0697997,0.0566223,-0.025566,-0.029879,-1.51569e-06,4.48725e-08,7.29634e-06,0.0541179,0.05825603159889203,-1.5156888513168099e-06,4.487250104823204e-08,-0.02524195718815425,7.2963666184477916e-06,-0.029437035437499426
77,0.059256,613.971,0.481018,-8.17608e-05,-0.0349733,0.119382,-0.0390096,0.0575668,-0.0259948,-0.0303891,-2.34564e-06,3.601e-06,5.75892e-06,0.0550603,0.05925602659403406,-2.3456372489905064e-06,3.60100648366668e-06,-0.025659843835611706,5.758936582500596e-06,-0.029931993355973185
78,0.060256,615.453,-0.487829,0.153382,0.0278211,-0.13758,0.0803571,0.0585104,-0.0264331,-0.0308931,-1.46241e-06,-3.39011e-07,7.7129e-06,0.0560031,0.06025601229978683,-1.4624089307302413e-06,-3.3901094254051856e-07,-0.02608680355100179,7.712929744441155e-06,-0.030420784445620463
79,0.061256,617.283,-0.4812,0.145458,0.0279456,-0.134255,0.0766032,0.0594531,-0.0268665,-0.0313989,-1.36326e-06,-9.99881e-07,8.10821e-06,0.0569444,0.06125598690655765,-1.3632590707413073e-06,-9.998805001742994e-07,-0.02650880607578998,8.108242871562865e-06,-0.03091107360826595
80,0.062256,619.426,0.456943,-0.0517767,-0.0259752,0.117602,-0.0544282,0.0603949,-0.0272937,-0.0319079,-2.14961e-06,2.79846e-06,6.21234e-06,0.0578845,0.06225594860307626,-2.149607689627686e-06,2.7984639157097035e-06,-0.02692459269548908,6.212359296542402e-06,-0.03140421435683183
81,0.063256,621.135,0.398695,-0.140598,-0.00976229,0.106506,-0.086856,0.0613359,-0.0277252,-0.0324144,-1.99516e-06,3.24354e-06,5.37426e-06,0.0588245,0.06325600190199498,-1.9951580096932986e-06,3.243545260378511e-06,-0.027344384157219626,5.374274441471982e-06,-0.03189468390036265
82,0.064256,622.803,-0.202796,0.221925,-0.00558785,-0.0685332,0.0873407,0.0622759,-0.0281607,-0.0329162,-1.9751e-06,7.0523e-07,8.04085e-06,0.0597636,0.06425593243750627,-1.9750980494448456e-06,7.052302486432183e-07,-0.02776788345425374,8.040882327753351e-06,-0.03238035728233879
83,0.065256,624.627,0.404585,-0.154581,-0.00789498,0.108651,-0.0916052,0.0632151,-0.028588,-0.0334241,-2.0448e-06,3.5147e-06,5.35262e-06,0.0607018,0.06525595114452698,-2.0447979094395663e-06,3.5147061765439247e-06,-0.02818322949265295,5.352634325328509e-06,-0.032871686515254406
84,0.066256,626.14,-0.413642,0.190904,0.0153487,-0.121687,0.0866422,0.0641534,-0.0290238,-0.0339246,-1.70557e-06,5.64099e-09,8.06201e-06,0.0616395,0.06625594987952521,-1.7055685455069636e-06,5.640989897415238e-09,-0.028606654970127043,8.062042498035993e-06,-0.03335561312341784
85,0.067256,627.806,-0.422192,0.145875,0.0228899,-0.120046,0.0719279,0.0650908,-0.0294549,-0.0344278,-1.53431e-06,-5.87141e-07,8.28459e-06,0.0625763,0.06725592682291093,-1.5343088229924362e-06,-5.871408276236778e-07,-0.0290253323887677,8.28462431723409e-06,-0.03384190621729044
86,0.068256,629.777,0.412469,-0.0313418,-0.024938,0.10505,-0.0439722,0.0660274,-0.0298806,-0.0349335,-2.23806e-06,2.7974e-06,6.63656e-06,0.0635117,0.06825598697903823,-2.2380574955516153e-06,2.797403912735419e-06,-0.029438588337000415,6.636582021934956e-06,-0.03433036884713081
87,0.069256,631.13,-0.426337,0.146739,0.023241,-0.121357,0.0728351,0.0669631,-0.0303152,-0.0354333,-1.55686e-06,-6.55344e-07,8.50154e-06,0.0644473,0.06925602189942826,-1.5568587881098495e-06,-6.553437852385713e-07,-0.02986030268134443,8.501576138186806e-06,-0.034812889936716274
88,0.070256,633.049,0.511175,-0.145246,-0.020221,0.136458,-0.0970897,0.0678979,-0.0307393,-0.0359391,-2.18743e-06,3.29838e-06,5.90471e-06,0.0653812,0.07025602975955225,-2.187427607602821e-06,3.298385439665097e-06,-0.03027165169425361,5.904727432781698e-06,-0.0353009581341337
89,0.071256,634.609,0.411962,-0.15786,-0.00825945,0.110987,-0.093616,0.0688318,-0.0311682,-0.0364412,-2.07859e-06,3.56888e-06,5.49033e-06,0.0663148,0.07125600873324722,-2.0785878397378e-06,3.5688863684324446e-06,-0.030687479002301288,5.4903450719123725e-06,-0.03578521194096285
90,0.072256,636.109,-0.182612,0.189989,-0.00225721,-0.0617496,0.0758624,0.0697648,-0.0316007,-0.0369394,-2.02172e-06,1.10144e-06,8.02295e-06,0.0672477,0.07225595699272147,-2.0217179563797316e-06,1.1014406064990823e-06,-0.03110661602271858,8.022982183941707e-06,-0.03626546410762577
91,0.073256,637.541,-0.470977,0.173812,0.0238281,-0.134756,0.0869508,0.070697,-0.032031,-0.037439,-1.61562e-06,-4.9072e-07,8.63505e-06,0.0681799,0.07325598003415146,-1.6156186949389806e-06,-4.907198796200163e-07,-0.031523441159484245,8.635087282105047e-06,-0.03674682562763765
92,0.074256,639.476,0.606984,-0.0716901,-0.0366595,0.157725,-0.0722914,0.0716283,-0.0324532,-0.0379429,-2.51957e-06,3.99733e-06,6.3044e-06,0.0691105,0.07425596890089725,-2.519566825842645e-06,3.997337989281036e-06,-0.03193224565792452,6.304419872815714e-06,-0.03723208663042621
93,0.075256,640.893,0.436806,-0.156133,-0.0106275,0.116753,-0.0949334,0.0725588,-0.0328809,-0.0384434,-2.24243e-06,4.09466e-06,5.56295e-06,0.0700411,0.07525602928589681,-2.242427485810161e-06,4.094668383025635e-06,-0.03234619970607322,5.562965473160375e-06,-0.03771383140438167
94,0.076256,642.335,-0.162722,0.221018,-0.00838893,-0.059351,0.0840518,0.0734883,-0.033312,-0.0389395,-2.25493e-06,1.59988e-06,8.24947e-06,0.0709708,0.07625594440367767,-2.2549274576455502e-06,1.599881279901183e-06,-0.0327632653544202,8.24950402700253e-06,-0.038191103175570396
95,0.077256,643.894,0.356396,-0.142228,-0.00481316,0.094996,-0.0838161,0.074417,-0.0337355,-0.0394414,-2.23726e-06,4.03141e-06,5.75544e-06,0.0718996,0.0772559275695559,-2.237257497372802e-06,4.031418126215769e-06,-0.033172803385743466,5.755456562672734e-06,-0.03867371393958441
96,0.078256,645.223,-0.331862,0.162082,0.0132559,-0.100614,0.0706137,0.0753449,-0.0341663,-0.0399366,-1.9713e-06,1.08449e-06,8.0644e-06,0.0728278,0.07825597724604183,-1.9712980570130156e-06,1.0844905879991984e-06,-0.03358922283885446,8.064432517329578e-06,-0.0391496448662183
97,0.079256,646.89,0.418669,-0.140895,-0.0111073,0.110932,-0.0882136,0.0762719,-0.0345881,-0.0404377,-2.32665e-06,4.31054e-06,5.66342e-06,0.0737548,0.07925598396845346,-2.3266472933825e-06,4.310549290398313e-06,-0.03399676894714443,5.663436037250946e-06,-0.03963100636398009
98,0.080256,648.126,-0.409562,0.172322,0.019218,-0.1213,0.0800849,0.077198,-0.0350189,-0.0409317,-1.8853e-06,8.02657e-07,8.19026e-06,0.0746816,0.0802559458961083,-1.885298222870091e-06,8.026573221631139e-07,-0.034412833512339924,8.19029354026668e-06,-0.04010531148382601
99,0.081256,649.815,0.484636,-0.159713,-0.0145835,0.129127,-0.0994915,0.0781233,-0.0354392,-0.0414323,-2.37133e-06,4.60424e-06,5.47642e-06,0.0756068,0.08125596931232937,-2.3713271883885056e-06,4.604250599449244e-06,-0.03481858452386655,5.4764349957103775e-06,-0.04058571450998738
100,0.082256,651.195,0.362059,-0.144837,-0.00467073,0.0959252,-0.0851902,0.0790477,-0.0358645,-0.041929,-2.27302e-06,4.68058e-06,5.25383e-06,0.0765318,0.08225594444766138,-2.273017416731804e-06,4.680590953931585e-06,-0.03522898890119153,5.253843801344971e-06,-0.04106213725620633
101,0.083256,652.542,-0.126928,0.160077,-0.00187275,-0.0475764,0.0615526,0.0799713,-0.0362924,-0.0424224,-2.25367e-06,2.65732e-06,7.41488e-06,0.0774559,0.08325597778225835,-2.2536674605388995e-06,2.6573235307747467e-06,-0.03564172610541827,7.4149074902329914e-06,-0.04153516049325534
102,0.084256,654.047,0.487438,-0.187988,-0.00569789,0.133065,-0.099786,0.080894,-0.0367128,-0.0429212,-2.33109e-06,5.59775e-06,4.93102e-06,0.0783791,0.0842559593435046,-2.331087282980704e-06,5.597765667442189e-06,-0.03604705711721512,4.931032157484694e-06,-0.04201312354130726
103,0.085256,655.212,-0.396012,0.178702,0.0177279,-0.119801,0.0814966,0.0818159,-0.0371422,-0.0434125,-1.98208e-06,1.84523e-06,7.61944e-06,0.0793019,0.08525599580840448,-1.9820780357004963e-06,1.8452317025463572e-06,-0.036460889654684525,7.619469027941861e-06,-0.04248366689527172
104,0.086256,656.818,0.486433,-0.166097,-0.0132218,0.128886,-0.101526,0.0827369,-0.0375607,-0.0439108,-2.42656e-06,5.61529e-06,4.85922e-06,0.0802232,0.08625597700119791,-2.426557055956735e-06,5.615305765704903e-06,-0.03686404640592966,4.85923180604253e-06,-0.04296067842676443
105,0.087256,657.921,-0.461198,0.190714,0.0222281,-0.137424,0.0904579,0.0836571,-0.0379897,-0.044401,-1.91069e-06,1.60974e-06,7.72239e-06,0.0811445,0.08725600979575687,-1.910688174677766e-06,1.6097412955939916e-06,-0.03727714311444197,7.722419817834947e-06,-0.04342970413460656
106,0.088256,659.535,0.521742,-0.176252,-0.0151326,0.1387,-0.107513,0.0845764,-0.0384071,-0.0448987,-2.44213e-06,5.76911e-06,4.74901e-06,0.0820642,0.08825598381319488,-2.44212701805413e-06,5.769126641297362e-06,-0.03767889978245653,4.749021276673204e-06,-0.04390567071674989
107,0.089256,660.813,0.373567,-0.149991,-0.00444401,0.0980789,-0.0874976,0.0854949,-0.03883,-0.045392,-2.33239e-06,5.75183e-06,4.59406e-06,0.0829837,0.08925600612426865,-2.332387279979642e-06,5.751846541723893e-06,-0.03808577933499313,4.594070552643714e-06,-0.04437719573817678
108,0.090256,662.064,-0.119151,0.154755,-0.0011437,-0.0466189,0.0593559,0.0864125,-0.0392554,-0.0458822,-2.3035e-06,3.72067e-06,6.73792e-06,0.0839023,0.09025596614698372,-2.3034973469782116e-06,3.7206769216702185e-06,-0.038494890620324074,6.737942699786004e-06,-0.04484552723939683
109,0.091256,663.473,0.476046,-0.183785,-0.00487769,0.128813,-0.0974634,0.0873293,-0.0396735,-0.0463777,-2.37606e-06,6.56281e-06,4.33069e-06,0.0848199,0.0912559711489962,-2.376057177122526e-06,6.562831535328328e-06,-0.03889681187906158,4.330699377552705e-06,-0.04531868904513148
110,0.092256,664.559,-0.368217,0.167653,0.0176441,-0.113558,0.0758994,0.0882453,-0.0401001,-0.0468659,-2.0392e-06,2.98071e-06,6.88346e-06,0.0857372,0.0922560195708213,-2.0391979208556066e-06,2.980714442379906e-06,-0.03930673105713667,6.883483691044745e-06,-0.045784650710642305
111,0.093256,666.055,0.441586,-0.151677,-0.0106782,0.115387,-0.0929816,0.0891604,-0.0405166,-0.0473606,-2.4407e-06,6.42689e-06,4.34985e-06,0.086653,0.09325600052583383,-2.440697021488525e-06,6.426910652557183e-06,-0.03970677648840726,4.34985946062838e-06,-0.04625658430153745
112,0.094256,667.101,-0.402005,0.169332,0.0207438,-0.122457,0.078975,0.0900747,-0.0409425,-0.047848,-1.98131e-06,2.86077e-06,6.89743e-06,0.0875687,0.09425602157707469,-1.9813080371910985e-06,2.8607740920616465e-06,-0.04011567829048113,6.897453787235719e-06,-0.04672132557570008
113,0.095256,668.592,0.444249,-0.150193,-0.011249,0.116058,-0.0926023,0.0909881,-0.0413581,-0.0483419,-2.43067e-06,6.4279e-06,4.33424e-06,0.088483,0.09525597163485311,-2.430667045971724e-06,6.427920659080044e-06,-0.040514523328843866,4.334249392723422e-06,-0.0471920336620677
114,0.096256,669.611,-0.40742,0.169859,0.0212309,-0.123951,0.0795735,0.0919007,-0.0417833,-0.0488284,-1.95645e-06,2.82965e-06,6.88493e-06,0.0893972,0.09625595845915269,-1.956448086204432e-06,2.829654003555504e-06,-0.04092240983070883,6.8849537011583806e-06,-0.04765546199960757
115,0.097256,671.081,0.442648,-0.149788,-0.0112275,0.115712,-0.0923176,0.0928125,-0.0421983,-0.0493214,-2.41138e-06,6.40713e-06,4.32136e-06,0.0903098,0.09725598048283324,-2.4113770926703637e-06,6.407150525689076e-06,-0.04132034445348365,4.321369337034753e-06,-0.048124852142664376
116,0.098256,672.08,-0.403053,0.16817,0.0211089,-0.122774,0.0786786,0.0937234,-0.0426227,-0.049807,-1.93955e-06,2.83584e-06,6.85061e-06,0.0912224,0.0982559263116416,-1.939548119112011e-06,2.835844020943057e-06,-0.04172712177504434,6.8506334653939405e-06,-0.04858697050304517
117,0.099256,673.525,0.433817,-0.147129,-0.010851,0.113353,-0.0907316,0.0946336,-0.043037,-0.050299,-2.3867e-06,6.35535e-06,4.32764e-06,0.0921335,0.09925601392659922,-2.38669715180162e-06,6.355370195221255e-06,-0.0421240519987196,4.327649364199715e-06,-0.049054950581018386
118,0.1003,674.509,-0.391241,0.163899,0.0206653,-0.119507,0.0763486,0.0955429,-0.0434606,-0.0507837,-1.92687e-06,2.87242e-06,6.79461e-06,0.0930445,0.10025602200483275,-1.926868143597993e-06,2.872424125444084e-06,-0.04252972232325214,6.794633083506696e-06,-0.04951576195981244
119,0.1013,675.925,0.418125,-0.141914,-0.0102013,0.109054,-0.0877711,0.0964513,-0.0438744,-0.0512747,-2.35785e-06,6.27427e-06,4.35365e-06,0.0939541,0.1012559486731539,-2.3578472202467893e-06,6.274289683361189e-06,-0.04292584156143209,4.35365947715205e-06,-0.049982335167594094
120,0.1023,676.898,-0.372927,0.157183,0.0199687,-0.114398,0.072702,0.097359,-0.0442971,-0.0517587,-1.91749e-06,2.93576e-06,6.71873e-06,0.0948635,0.10225601250807159,-1.9174881615846573e-06,2.935764309430766e-06,-0.04333031131749876,6.718752570744613e-06,-0.05044203246165391
121,0.1033,678.283,0.396441,-0.134381,-0.00932402,0.103049,-0.0835813,0.0982658,-0.0447105,-0.0522486,-2.3255e-06,6.16756e-06,4.39713e-06,0.0957715,0.10325599158220378,-2.325497296062906e-06,6.16757901950038e-06,-0.04372571683084925,4.397139667489114e-06,-0.050907106980646044
122,0.1043,679.25,-0.349137,0.148358,0.0190649,-0.107734,0.067931,0.0991718,-0.0451322,-0.0527319,-1.91077e-06,3.02156e-06,6.62592e-06,0.0966794,0.10425599444347022,-1.9107681744623406e-06,3.021564564997803e-06,-0.04412889268045905,6.625941951554637e-06,-0.05136569274966485
123,0.1053,680.33,-0.524399,0.15703,0.0347876,-0.152489,0.0852071,0.100077,-0.0455507,-0.0532168,-1.60142e-06,1.75564e-06,7.25967e-06,0.0975863,0.1052560195127028,-1.6014187177448846e-06,1.7556415410346915e-06,-0.04452884104383992,7.259696351402667e-06,-0.05182557401802612
124,0.1063,681.851,0.535181,-0.0793356,-0.0289683,0.138053,-0.0682545,0.100981,-0.0459617,-0.0537056,-2.50968e-06,6.06772e-06,5.04743e-06,0.0984916,0.10625562270691158,-2.509676850781517e-06,6.0677384086105235e-06,-0.044921459001653785,5.047442738215224e-06,-0.05228892842440358
125,0.1073,682.658,-0.441827,0.159264,0.0262073,-0.131827,0.0785655,0.101885,-0.0463835,-0.0541873,-1.73389e-06,2.06793e-06,7.2643e-06,0.0993974,0.10725612995097711,-1.7338884967799117e-06,2.0679321381944504e-06,-0.04532422618067733,7.2643263850924455e-06,-0.05274533091421674
126,0.1083,684.046,0.44506,-0.141299,-0.0135842,0.117031,-0.0896631,0.102788,-0.0467945,-0.0546752,-2.28806e-06,5.75551e-06,4.76999e-06,0.100301,0.10825643380554184,-2.28805738233806e-06,5.75552656290057e-06,-0.045716517302369364,4.770001376330768e-06,-0.053207383740310976
127,0.1093,684.935,-0.385006,0.15807,0.0207714,-0.117038,0.0737805,0.103689,-0.0472149,-0.055156,-1.79278e-06,2.2772e-06,7.16986e-06,0.101205,0.10925542282937428,-1.792778392961658e-06,2.277202592715355e-06,-0.04611761376211221,7.1698857035951136e-06,-0.05366249221336439
128,0.1103,686.26,0.393901,-0.133941,-0.0097068,0.103346,-0.0833097,0.104591,-0.0476257,-0.0556427,-2.21648e-06,5.54116e-06,4.84562e-06,0.102108,0.11025642260379653,-2.216477543615092e-06,5.541175352341554e-06,-0.04650938817040573,4.845631740080236e-06,-0.05412296261384264
129,0.1113,687.359,0.469086,-0.209318,-0.00473395,0.126603,-0.113071,0.105491,-0.0480396,-0.056127,-2.17728e-06,6.42947e-06,3.97383e-06,0.10301,0.11125610317291756,-2.177277629744623e-06,6.429490668979909e-06,-0.04690395627314026,3.973837895632215e-06,-0.05458093995488422
130,0.1123,688.319,-0.314007,0.231218,0.00544204,-0.103089,0.100259,0.10639,-0.048459,-0.0566059,-2.0382e-06,3.07303e-06,7.11447e-06,0.103912,0.11225557160341526,-2.03819792288229e-06,3.0730347218010934e-06,-0.04730360094253416,7.114495307991575e-06,-0.05503359274637776
131,0.1133,689.531,0.382208,-0.15218,-0.00523012,0.100714,-0.0883772,0.107289,-0.048869,-0.0570916,-2.19738e-06,6.11368e-06,4.37597e-06,0.104812,0.11325593896003872,-2.197377585777538e-06,6.1136986886367595e-06,-0.04769412640295767,4.375979574477995e-06,-0.05549245148751503
132,0.1143,690.599,0.443922,-0.226566,0.000906377,0.120525,-0.116921,0.108187,-0.0492819,-0.0575745,-2.12432e-06,6.92645e-06,3.50534e-06,0.105712,0.11425609179463692,-2.124317743601445e-06,6.926473987922677e-06,-0.04808725233173272,3.5053461437950517e-06,-0.055948444074420456
133,0.1153,691.569,-0.291768,0.235642,0.00286429,-0.0983056,0.100163,0.109084,-0.0497001,-0.0580521,-2.09727e-06,3.73056e-06,6.68851e-06,0.106611,0.11525602791327949,-2.0972678007602497e-06,3.7305669584597467e-06,-0.04848525901380962,6.68853236818201e-06,-0.05639921544475879
134,0.1163,692.735,0.361291,-0.148719,-0.00338872,0.0944131,-0.0855077,0.10998,-0.0501093,-0.0585364,-2.19447e-06,6.60046e-06,4.00266e-06,0.107509,0.11625574512071624,-2.1944675921981016e-06,6.600481783136658e-06,-0.04887453919366447,4.002668010594235e-06,-0.05685609066345476
135,0.1173,693.778,0.415037,-0.219154,0.00288922,0.111979,-0.112135,0.110876,-0.0505213,-0.0590179,-2.11287e-06,7.34206e-06,3.18122e-06,0.108406,0.11725635847618521,-2.1128677678561303e-06,7.342086953077143e-06,-0.04926632217068161,3.1812250600449232e-06,-0.05731010514304269
136,0.1183,694.74,-0.266346,0.226221,0.00216199,-0.0918047,0.0951598,0.11177,-0.0509381,-0.0594943,-2.1219e-06,4.36701e-06,6.2159e-06,0.109303,0.11825563226949387,-2.1218977487302837e-06,4.367019535322925e-06,-0.0496625053972809,6.215919318819374e-06,-0.057759095650921854
137,0.1193,695.667,-0.472314,0.197212,0.0241948,-0.143577,0.0950885,0.112664,-0.0513518,-0.0599731,-1.77099e-06,3.07422e-06,6.66211e-06,0.110199,0.11925579981302059,-1.770988431792908e-06,3.074224725452268e-06,-0.05005557870597799,6.662132191914694e-06,-0.05821013260905972
138,0.1203,697.012,0.505398,-0.0795315,-0.0257209,0.129361,-0.0665549,0.113557,-0.0517582,-0.0604557,-2.49202e-06,7.11057e-06,4.36466e-06,0.111094,0.12025574164983355,-2.4920168949504884e-06,7.110595280135357e-06,-0.05044155768255143,4.3646695251364775e-06,-0.058664530743973375
139,0.1213,697.738,-0.386773,0.147258,0.0237343,-0.118731,0.0705543,0.114449,-0.0521747,-0.0609315,-1.7973e-06,3.45648e-06,6.41003e-06,0.111989,0.12125545557751072,-1.7972983848979496e-06,3.4564859736629927e-06,-0.05083696642419022,6.410050544358725e-06,-0.0591123116247263
140,0.1223,698.679,-0.551425,0.151124,0.0393885,-0.160648,0.0851069,0.115341,-0.0525872,-0.0614088,-1.47684e-06,2.21515e-06,6.99053e-06,0.112883,0.12225606164784764,-1.4768389094976797e-06,2.2151524534663736e-06,-0.051228415433631436,6.990554433761176e-06,-0.059561290161136426
141,0.1233,700.075,0.526421,-0.0771854,-0.0288957,0.135552,-0.0668243,0.116232,-0.0529923,-0.0618901,-2.43943e-06,6.5702e-06,4.8149e-06,0.113775,0.12325643739999181,-2.4394270246030914e-06,6.570221583901414e-06,-0.05161268496349092,4.814911591655147e-06,-0.0600138144034873
142,0.1243,700.759,-0.403883,0.146801,0.0251954,-0.122507,0.0715495,0.117121,-0.0534078,-0.0623645,-1.68158e-06,2.77533e-06,6.87791e-06,0.114667,0.12425545637097768,-1.6815785861545862e-06,2.77533385117934e-06,-0.052006658039314146,6.877933652837953e-06,-0.06045963809219412
143,0.1253,701.683,-0.565171,0.153304,0.0401098,-0.163719,0.0867181,0.118011,-0.0538193,-0.0628405,-1.3687e-06,1.53356e-06,7.47022e-06,0.115559,0.1252564891206449,-1.3686990633088314e-06,1.533561175826037e-06,-0.05239667704761641,7.470247902263694e-06,-0.06090675288269998
144,0.1263,703.063,0.530654,-0.0805155,-0.0293298,0.137726,-0.0684173,0.118899,-0.0542233,-0.0633206,-2.34695e-06,5.96216e-06,5.24934e-06,0.116449,0.12625616067146206,-2.3469472458792495e-06,5.962177773710664e-06,-0.05277943146849018,5.2493537778808275e-06,-0.06135750333933587
145,0.1273,703.727,-0.40392,0.147353,0.0247638,-0.121878,0.0716079,0.119786,-0.0546378,-0.0637936,-1.5906e-06,2.15248e-06,7.33065e-06,0.117339,0.12725559306871914,-1.5905987349462691e-06,2.152482316608584e-06,-0.05317197303428678,7.330676869310437e-06,-0.06180137625603599
146,0.1283,704.632,-0.561197,0.153647,0.0393478,-0.162087,0.0863721,0.120673,-0.0550483,-0.0642684,-1.28498e-06,9.35003e-07,7.91339e-06,0.118228,0.12825591235578981,-1.284979174398515e-06,9.35003437119164e-07,-0.05356056617515714,7.913421310901114e-06,-0.062246727227902365
147,0.1293,705.987,0.522904,-0.0802585,-0.0291127,0.136522,-0.0678935,0.121559,-0.0554513,-0.0647471,-2.24989e-06,5.32023e-06,5.70745e-06,0.119116,0.12925599006314004,-2.249887468996903e-06,5.3202441523403365e-06,-0.05394190442217073,5.707466287585561e-06,-0.06269552229190956
148,0.1303,706.637,-0.393211,0.14423,0.0238557,-0.118232,0.0696213,0.122444,-0.0558647,-0.0652189,-1.51077e-06,1.5897e-06,7.74621e-06,0.120004,0.1302558239755942,-1.5107688587923107e-06,1.5897012635157637e-06,-0.05433292400956513,7.746240001882398e-06,-0.06313763824113872
149,0.1313,707.525,-0.544029,0.149259,0.0380389,-0.156758,0.0834409,0.123328,-0.0562741,-0.0656924,-1.21504e-06,4.21222e-07,8.30139e-06,0.120891,0.1312554118767464,-1.2150392618703876e-06,4.2122208876449463e-07,-0.054720000870435825,8.301424456735873e-06,-0.06358113756268102
150,0.1323,708.849,0.504954,-0.0760715,-0.0284741,0.132357,-0.0652801,0.124212,-0.0566762,-0.0661697,-2.15305e-06,4.66613e-06,6.17777e-06,0.121776,0.13225588380428532,-2.153047682140752e-06,4.66614088634465e-06,-0.055100021549807865,6.1777890825176485e-06,-0.06402798363742346
151,0.1333,709.492,-0.373706,0.137652,0.022638,-0.112105,0.0658144,0.125095,-0.0570884,-0.0666404,-1.44134e-06,1.09415e-06,8.11744e-06,0.122662,0.133256107283362,-1.4413389612943917e-06,1.094150598568433e-06,-0.05548942905852394,8.117472946489457e-06,-0.06446844199551849
152,0.1343,710.364,-0.516088,0.14067,0.0363449,-0.148404,0.0782913,0.125977,-0.0574967,-0.0671127,-1.15764e-06,-5.54459e-09,8.63067e-06,0.123546,0.1342560800931698,-1.1576393299517207e-06,-5.544590009343153e-09,-0.055874994006198775,8.63070724443915e-06,-0.06491018922354452
153,0.1353,711.653,0.47881,-0.0686026,-0.0275014,0.125778,-0.0609423,0.126858,-0.0578981,-0.0675885,-2.05861e-06,4.01999e-06,6.64586e-06,0.124429,0.13525580001169413,-2.0586078810502784e-06,4.019998080195819e-06,-0.05625388973414469,6.645882083766708e-06,-0.06535499912684439
154,0.1363,712.536,0.516693,-0.180545,-0.0159156,0.140064,-0.107025,0.127739,-0.0583035,-0.068062,-1.96989e-06,4.82193e-06,5.62389e-06,0.125313,0.13625640107155212,-1.9698880597829316e-06,4.821941625543502e-06,-0.05663640686578508,5.6239058141560605e-06,-0.0657974487765367
155,0.1373,713.28,-0.312274,0.224957,0.00527296,-0.10074,0.0967392,0.128618,-0.0587145,-0.0685301,-1.69183e-06,1.3476e-06,8.60089e-06,0.126195,0.13725560953587834,-1.6918285689060397e-06,1.3476009079749218e-06,-0.05702404963651708,8.60092698773407e-06,-0.06623464665661749
156,0.1383,714.086,-0.504237,0.192581,0.0268562,-0.148805,0.0952148,0.129497,-0.0591216,-0.0690008,-1.33966e-06,1.02069e-07,9.00912e-06,0.127077,0.13825569669057258,-1.3396591026504368e-06,1.0206900524778462e-07,-0.0574078570166171,9.009160582218456e-06,-0.06667406658284347
157,0.1393,715.322,0.498105,-0.0791764,-0.027587,0.131447,-0.066454,0.130375,-0.0595215,-0.0694752,-2.12183e-06,4.22672e-06,6.72265e-06,0.127957,0.1392555240522495,-2.1218277489465365e-06,4.22672893263254e-06,-0.0577847242549695,6.722672597048174e-06,-0.0671167313972606
158,0.1403,716.176,0.528656,-0.196045,-0.0145166,0.144067,-0.113151,0.131253,-0.0599256,-0.0699471,-2.00928e-06,5.01988e-06,5.67041e-06,0.128837,0.14025622964783802,-2.0092779814406825e-06,5.01989259960034e-06,-0.058165396527885105,5.670426076909152e-06,-0.06755685515634569
159,0.1413,716.902,-0.316934,0.233168,0.00457148,-0.102728,0.0999213,0.132129,-0.0603353,-0.0704133,-1.75981e-06,1.46233e-06,8.77316e-06,0.129716,0.14125553173542071,-1.759808451518019e-06,1.4623310691241898e-06,-0.058551187130326365,8.773198484357536e-06,-0.06799145883648239
160,0.1423,717.685,-0.508654,0.198955,0.0265018,-0.150672,0.0976398,0.133005,-0.0607411,-0.0708823,-1.40473e-06,2.14805e-07,9.17839e-06,0.130595,0.14225570959516398,-1.4047290133323287e-06,2.148050231021159e-07,-0.05893314955317164,9.17843212144831e-06,-0.0684284683555455
161,0.1433,718.895,0.497696,-0.0819711,-0.0270736,0.131431,-0.0674132,0.13388,-0.0611397,-0.0713551,-2.17395e-06,4.36061e-06,6.84773e-06,0.131472,0.1432556207383886,-2.173947637018614e-06,4.3606195074819e-06,-0.05930818405041893,6.8477534458377676e-06,-0.06886881127043909
162,0.1443,719.727,0.524783,-0.196696,-0.0139448,0.143028,-0.113099,0.134755,-0.0615424,-0.0718252,-2.05828e-06,5.13131e-06,5.81215e-06,0.132349,0.1442564071867536,-2.058277881689108e-06,5.131323165263879e-06,-0.059686924380218165,5.812166890661885e-06,-0.06930643317117369
163,0.1453,720.434,-0.311133,0.230485,0.00455873,-0.101284,0.0985166,0.135628,-0.0619508,-0.0722899,-1.81607e-06,1.61244e-06,8.88675e-06,0.133226,0.1452557791926372,-1.8160683509238496e-06,1.612441300036238e-06,-0.06007086983330323,8.886789487183577e-06,-0.06973882599742476
164,0.1463,721.198,-0.496227,0.195085,0.0261063,-0.147508,0.0953467,0.136501,-0.0623552,-0.0727572,-1.46739e-06,4.04691e-07,9.26726e-06,0.134101,0.1462560240312183,-1.4673889233707271e-06,4.046910819788252e-07,-0.06045090032619782,9.267302941262656e-06,-0.07017343548961952
165,0.1473,722.378,0.482384,-0.0785153,-0.026064,0.127095,-0.0651527,0.137373,-0.0627525,-0.0732282,-2.21537e-06,4.43497e-06,7.00506e-06,0.134976,0.14725599520824306,-2.215367546076763e-06,4.434979834488928e-06,-0.06082410904067792,7.005084535549599e-06,-0.07061128068086708
166,0.1483,723.187,0.502656,-0.189499,-0.0127932,0.136743,-0.109048,0.138244,-0.063154,-0.0736966,-2.09373e-06,5.14936e-06,6.01266e-06,0.13585,0.14825569048416143,-2.0937278081278876e-06,5.1493732580176754e-06,-0.06120111247239468,6.012678076094957e-06,-0.07104650441963922
167,0.1493,723.885,-0.29138,0.221925,0.00407216,-0.0957834,0.0940769,0.139115,-0.0635608,-0.0741598,-1.87361e-06,1.80414e-06,8.95875e-06,0.136723,0.14925625687397992,-1.8736082447734503e-06,1.804141627426148e-06,-0.06158293819122418,8.958790129742766e-06,-0.07147669603872142
168,0.1503,724.632,-0.466413,0.184186,0.0250759,-0.139354,0.0893788,0.139985,-0.0639637,-0.0746255,-1.53532e-06,6.68868e-07,9.29137e-06,0.137596,0.15025654487964957,-1.5353188214106694e-06,6.688682236966059e-07,-0.06196095026978021,9.291413164858042e-06,-0.07190900866956695
169,0.1513,725.774,0.453938,-0.0697516,-0.0245705,0.118958,-0.0601237,0.140854,-0.0643601,-0.0750946,-2.24643e-06,4.45644e-06,7.18941e-06,0.138467,0.15125655225742518,-2.2464274768152492e-06,4.456449929968187e-06,-0.06233271526040407,7.189435843768521e-06,-0.07234427405412225
170,0.1523,726.562,0.46455,-0.175929,-0.0110444,0.125885,-0.101661,0.141722,-0.0647604,-0.0755613,-2.1156e-06,5.08587e-06,6.26085e-06,0.139339,0.15225627676245157,-2.115597762086807e-06,5.085882933020258e-06,-0.0627079883585635,6.260869599206131e-06,-0.0727771099713036
171,0.1533,727.259,-0.259821,0.20867,0.00313275,-0.0868583,0.087169,0.142589,-0.0651654,-0.076023,-1.93226e-06,2.02993e-06,8.99612e-06,0.140209,0.1532557161487731,-1.932258133163778e-06,2.0299320602212845e-06,-0.06308751476399355,8.996160465235548e-06,-0.0732051099682276
172,0.1543,727.99,-0.422458,0.167676,0.0235024,-0.127137,0.0804621,0.143456,-0.0655669,-0.0764872,-1.60716e-06,9.91782e-07,9.26307e-06,0.141079,0.15425602242478464,-1.607158708560874e-06,9.917824919103424e-07,-0.06346360962072106,9.263112902280213e-06,-0.07363522831798786
173,0.1553,729.09,0.415331,-0.0568295,-0.0227049,0.107871,-0.0529344,0.144322,-0.0659624,-0.0769544,-2.26871e-06,4.43563e-06,7.39369e-06,0.141947,0.15525604108578728,-2.2687074264782225e-06,4.4356398374301165e-06,-0.06383393652614333,7.393717333492589e-06,-0.07406792485353642
174,0.1563,729.857,0.414489,-0.157533,-0.00885138,0.111588,-0.0917564,0.145187,-0.0663615,-0.0774193,-2.12646e-06,4.96024e-06,6.54328e-06,0.142815,0.15625576988169554,-2.1264577391155726e-06,4.960252302010915e-06,-0.06420748585534886,6.543301407369029e-06,-0.07449829062899616
175,0.1573,730.559,-0.219864,0.192015,0.00187271,-0.0754845,0.0784892,0.146052,-0.0667647,-0.0778798,-1.99061e-06,2.27826e-06,9.00743e-06,0.143683,0.15725636381713115,-1.9906080187537256e-06,2.2782625952455504e-06,-0.06458472134126736,9.007470566979592e-06,-0.07492438605016094
176,0.1583,731.516,0.56184,-0.225713,-0.00928677,0.156788,-0.119929,0.146915,-0.0671589,-0.0783468,-2.16647e-06,5.89115e-06,6.05098e-06,0.144549,0.15825550712743297,-2.1664676531640836e-06,5.891167352833904e-06,-0.06495338937487116,6.0509983073053775e-06,-0.07535629550316869
177,0.1593,732.102,-0.329285,0.150939,0.0171742,-0.103019,0.0669716,0.147778,-0.0675626,-0.0788058,-1.78391e-06,2.17068e-06,8.67398e-06,0.145416,0.15925551307058394,-1.7839084088810964e-06,2.1706823558620414e-06,-0.0653307915078345,8.674017619059171e-06,-0.07578060957600341
178,0.1603,732.84,-0.480448,0.164928,0.0302345,-0.142699,0.083428,0.148641,-0.0679623,-0.0792673,-1.53108e-06,1.08025e-06,9.23761e-06,0.146281,0.16025638239135764,-1.531078827943233e-06,1.0802505834295317e-06,-0.06570430413899675,9.237652666804763e-06,-0.07620703841866017
179,0.1613,733.941,0.443488,-0.0826644,-0.0214257,0.116648,-0.0634086,0.149502,-0.0683554,-0.0797323,-2.25758e-06,4.86796e-06,7.15973e-06,0.147145,0.1612557933212615,-2.2575774516475633e-06,4.8679718485100665e-06,-0.06607150359925718,7.159755631036546e-06,-0.07663650228770758
180,0.1623,734.69,0.449991,-0.172504,-0.00993474,0.121538,-0.099378,0.150363,-0.0687524,-0.0801947,-2.14799e-06,5.44349e-06,6.31778e-06,0.148009,0.16225606511452462,-2.1479876930463604e-06,5.443504815794142e-06,-0.06644219962429865,6.317799957189507e-06,-0.07706336687035242
181,0.1633,735.347,-0.244493,0.195886,0.0039158,-0.0826908,0.0815116,0.151223,-0.069154,-0.0806526,-1.96599e-06,2.51394e-06,8.92281e-06,0.148872,0.1632560352560526,-1.96598806745385e-06,2.513943159865306e-06,-0.06681704116371046,8.922849808357114e-06,-0.0774858828122551
182,0.1643,736.3,0.603123,-0.23826,-0.0113867,0.168278,-0.127264,0.152082,-0.0695458,-0.0811174,-2.20054e-06,6.40811e-06,5.81266e-06,0.149734,0.1642557014855135,-2.200537578822548e-06,6.4081305319874104e-06,-0.0671825906311656,5.8126768935906625e-06,-0.07791456773982908
183,0.1653,736.843,-0.345243,0.156454,0.0181939,-0.108076,0.0700809,0.152941,-0.0699479,-0.0815738,-1.77529e-06,2.45679e-06,8.57496e-06,0.150596,0.16525622679718843,-1.775288424155086e-06,2.456793017913128e-06,-0.06755760111056308,8.57499676509832e-06,-0.07833531151008077
184,0.1663,737.555,-0.497355,0.172186,0.0311013,-0.148142,0.0871663,0.153799,-0.0703457,-0.0820328,-1.52237e-06,1.34442e-06,9.15719e-06,0.151457,0.16625644567231745,-1.5223688412113745e-06,1.3444209037150046e-06,-0.0679284529295241,9.157231927181542e-06,-0.0787582585283314
185,0.1673,738.635,0.450411,-0.0882018,-0.0211946,0.118542,-0.0657898,0.154656,-0.0707366,-0.0824955,-2.25614e-06,5.23176e-06,6.99593e-06,0.152317,0.16725635584656984,-2.2561374549701085e-06,5.231773685610008e-06,-0.06829272849497614,6.9959544715114674e-06,-0.07918441848240187
186,0.1683,739.359,0.454204,-0.175503,-0.00976189,0.122564,-0.100653,0.155512,-0.0711317,-0.0829555,-2.14616e-06,5.79496e-06,6.16698e-06,0.153176,0.16825595505459856,-2.1461576970027707e-06,5.794976790873818e-06,-0.0686607733259037,6.166999015899677e-06,-0.07960789624254783
187,0.1693,739.99,-0.244293,0.194436,0.00430719,-0.0830052,0.080996,0.156368,-0.0715313,-0.0834109,-1.95998e-06,2.84724e-06,8.77509e-06,0.154035,0.16925641028587513,-1.959978079280056e-06,2.847244053416631e-06,-0.06903286213258786,8.77512850117057e-06,-0.08002694738141236
188,0.1703,740.917,0.599499,-0.237492,-0.0111083,0.167031,-0.126782,0.157223,-0.0719213,-0.0838732,-2.19484e-06,6.72078e-06,5.68493e-06,0.154893,0.17025655201633194,-2.194837591340537e-06,6.720802584458951e-06,-0.06939586852550839,5.684946159156823e-06,-0.08045215262987182
189,0.1713,741.44,-0.334731,0.152151,0.0180813,-0.105529,0.0678897,0.158077,-0.0723214,-0.0843273,-1.77489e-06,2.82825e-06,8.40136e-06,0.15575,0.17125637797667315,-1.7748884248991459e-06,2.8282539994428646e-06,-0.06976812876288485,8.401395291457447e-06,-0.08086962451319768
190,0.1723,742.131,-0.479654,0.166686,0.0304954,-0.143719,0.0840021,0.15893,-0.0727171,-0.0847839,-1.53066e-06,1.76324e-06,8.95422e-06,0.156607,0.172255885896611,-1.5306588285746159e-06,1.7632415545421054e-06,-0.07013614869678753,8.954260089177879e-06,-0.08128920364543946
191,0.1733,743.175,0.431035,-0.0835727,-0.0199067,0.112839,-0.0627921,0.159783,-0.0731063,-0.0852441,-2.23647e-06,5.49733e-06,6.88453e-06,0.157462,0.1732562467605332,-2.236467499083794e-06,5.497345110239138e-06,-0.07049798129052454,6.884553698460749e-06,-0.0817118970847015
192,0.1743,743.873,0.427538,-0.166466,-0.00837508,0.114748,-0.0955787,0.160635,-0.0734996,-0.0857016,-2.12048e-06,5.99648e-06,6.10607e-06,0.158318,0.17425628703943752,-2.120477751832439e-06,5.996497978832949e-06,-0.07086348255394803,6.106088642043872e-06,-0.08213191780471951
193,0.1753,744.494,-0.222057,0.184237,0.00384974,-0.0769302,0.0758769,0.161486,-0.073897,-0.0861548,-1.9589e-06,3.25035e-06,8.56241e-06,0.159172,0.17525600445913714,-1.9588980814111423e-06,3.2503552824802995e-06,-0.07123264804793905,8.562446657478517e-06,-0.08254780137323559
194,0.1763,745.381,0.55447,-0.220971,-0.00919022,0.153823,-0.117927,0.162336,-0.0742854,-0.0866145,-2.15758e-06,6.82151e-06,5.68733e-06,0.160026,0.1762553967444771,-2.157577672412536e-06,6.82153326647672e-06,-0.07159331124211088,5.687346172900121e-06,-0.08296945722392146
195,0.1773,746.069,0.46398,-0.225829,-0.00183363,0.127054,-0.118305,0.163186,-0.0746781,-0.0870704,-2.07483e-06,7.00248e-06,5.22463e-06,0.160879,0.17725563887439222,-2.074827847531324e-06,7.002504517350516e-06,-0.0719578249718309,5.22464364838271e-06,-0.0833874361628344
196,0.1783,746.699,-0.202182,0.180364,0.00289517,-0.0723736,0.0729701,0.164035,-0.0750747,-0.0875222,-2.01135e-06,4.17585e-06,7.91476e-06,0.161731,0.1782555533154151,-2.0113479772820853e-06,4.17585871881343e-06,-0.07232581352149425,7.914791321894654e-06,-0.08380146818230005
197,0.1793,747.558,0.55225,-0.23859,-0.00566226,0.153383,-0.124032,0.164884,-0.0754622,-0.0879807,-2.14238e-06,7.68012e-06,4.97797e-06,0.162582,0.17925631704427025,-2.142377705127707e-06,7.68014949215079e-06,-0.07268521762971147,4.977982390075297e-06,-0.08422144892119665
198,0.1803,748.24,0.457092,-0.229029,-0.000138077,0.12451,-0.118756,0.165731,-0.0758541,-0.0884354,-2.07775e-06,7.82106e-06,4.58647e-06,0.163433,0.18025557026880779,-2.077747841444655e-06,7.82109058450331e-06,-0.07304856109112079,4.586480517820846e-06,-0.0846377587731546
199,0.1813,748.865,-0.194634,0.174557,0.00351,-0.0710275,0.0705502,0.166578,-0.0762496,-0.088886,-2.02613e-06,5.04906e-06,7.24067e-06,0.164284,0.1812556702193644,-2.0261279474187432e-06,5.0490727465657415e-06,-0.07341509789777789,7.240696213717257e-06,-0.08505012808526813
200,0.1823,749.708,0.537515,-0.233363,-0.00461827,0.148233,-0.121094,0.167424,-0.0766363,-0.0893432,-2.14851e-06,8.44841e-06,4.38486e-06,0.165133,0.1822554353573944,-2.1485076919791624e-06,8.448445687925243e-06,-0.07377333900903771,4.384869613405229e-06,-0.08546834755445176
201,0.1833,750.38,0.440295,-0.221832,0.000838382,0.118766,-0.114945,0.16827,-0.0770272,-0.0897967,-2.08174e-06,8.55587e-06,4.02168e-06,0.165982,0.18325604665460604,-2.0817378332260716e-06,8.555906601648289e-06,-0.07413533025502062,4.0216880869969884e-06,-0.0858829936307316
202,0.1843,751.001,-0.182255,0.168223,0.00369757,-0.0683143,0.0676023,0.169115,-0.0774217,-0.0902463,-2.03957e-06,5.90224e-06,6.57824e-06,0.16683,0.1842563205702401,-2.0395679201090644e-06,5.90225741814443e-06,-0.07450051183043316,6.578261636747129e-06,-0.08629388826076079
203,0.1853,751.825,0.512094,-0.22286,-0.00336135,0.139957,-0.115556,0.169959,-0.0778076,-0.0907022,-2.14456e-06,9.12702e-06,3.85247e-06,0.167677,0.1852562548176966,-2.1445577004231e-06,9.127061651348356e-06,-0.07485759317964014,3.852477420851486e-06,-0.08671035193699439
204,0.1863,752.486,0.414451,-0.210874,0.00210966,0.110458,-0.109202,0.170802,-0.0781976,-0.0911544,-2.07376e-06,9.1982e-06,3.51666e-06,0.168524,0.1862558471094622,-2.0737578497742604e-06,9.19824230360966e-06,-0.07521832837036557,3.516666183367434e-06,-0.08712324815297823
205,0.1873,753.108,-0.165203,0.160189,0.00364545,-0.0641979,0.0637246,0.171645,-0.0785909,-0.091603,-2.04856e-06,6.7192e-06,5.93639e-06,0.16937,0.18725628241280923,-2.0485579017570643e-06,6.719222573892125e-06,-0.0755819734863179,5.936407620366069e-06,-0.08753267282303712
206,0.1883,753.909,0.476943,-0.208686,-0.00173661,0.128914,-0.10807,0.172487,-0.0789762,-0.0920575,-2.12735e-06,9.70535e-06,3.3839e-06,0.170215,0.18825637318172883,-2.12734773719081e-06,9.70539709710394e-06,-0.07593808314300277,3.3839057254070326e-06,-0.08794729499321352
207,0.1893,754.56,0.380684,-0.196788,0.00365702,0.0999332,-0.101825,0.173328,-0.0793653,-0.0925085,-2.05292e-06,9.73884e-06,3.07761e-06,0.171059,0.1892561171249778,-2.052917892791939e-06,9.738887422727771e-06,-0.07629756569298629,3.0776147359468098e-06,-0.08835853802089821
208,0.1903,755.185,-0.144275,0.150478,0.00342241,-0.058874,0.0589797,0.174168,-0.0797573,-0.0929562,-2.05092e-06,7.48303e-06,5.32612e-06,0.171903,0.19025551195042523,-2.0509178968453057e-06,7.4830579979145995e-06,-0.07665958608660162,5.326134183691877e-06,-0.0887665885544987
209,0.1913,755.96,0.433596,-0.191266,0.000161993,0.115552,-0.0988916,0.175008,-0.0801421,-0.0934093,-2.09705e-06,1.01765e-05,2.98506e-06,0.172746,0.19125574662021094,-2.097047801186136e-06,1.0176551780816112e-05,-0.07701481912665531,2.985064455396369e-06,-0.0891793748894184
210,0.1923,756.603,0.340445,-0.180051,0.00540212,0.0876145,-0.0930855,0.175847,-0.0805303,-0.0938591,-2.01942e-06,1.01724e-05,2.70915e-06,0.173589,0.19225562958387532,-2.0194179609633878e-06,1.0172451738954535e-05,-0.07737305243628612,2.7091536698442553e-06,-0.08958896988177356
211,0.1933,757.234,-0.120372,0.139448,0.00305622,-0.0525902,0.0535551,0.176686,-0.0809209,-0.0943059,-2.04542e-06,8.17883e-06,4.75855e-06,0.174431,0.19325635180136413,-2.0454179081585977e-06,8.178863446728357e-06,-0.07773336014932719,4.758561321871468e-06,-0.08999565067077664
212,0.1943,757.981,0.383892,-0.171264,0.00224959,0.100412,-0.0883825,0.177523,-0.0813052,-0.0947574,-2.05412e-06,1.05379e-05,2.65873e-06,0.175272,0.19425552546366687,-2.0541178903377144e-06,1.053795552397041e-05,-0.07808771912458357,2.6587335344441243e-06,-0.09040642489523953
213,0.1953,758.496,-0.454402,0.27784,0.0146087,-0.15003,0.127105,0.17836,-0.0816976,-0.0952018,-1.8588e-06,6.75034e-06,5.85014e-06,0.176112,0.1952555357844179,-1.858798272413864e-06,6.750362783636277e-06,-0.07844940653588806,5.850157112075038e-06,-0.09081055847488362
214,0.1963,759.109,-0.485273,0.200858,0.0282462,-0.153096,0.0970873,0.179197,-0.082085,-0.0956497,-1.60753e-06,6.11631e-06,5.86194e-06,0.176952,0.19625638346419327,-1.6075287079253542e-06,6.116328704619534e-06,-0.07880634609213988,5.8619571812190685e-06,-0.0912176932411054
215,0.1973,760.035,0.360537,-0.0591081,-0.0147525,0.0877609,-0.0492494,0.180032,-0.082467,-0.0961003,-2.20426e-06,9.54959e-06,3.85932e-06,0.17779,0.19725567469041194,-2.2042575705816247e-06,9.549635597405626e-06,-0.07915817486435883,3.859327447175431e-06,-0.09162709830264348
216,0.1983,760.651,0.358461,-0.145175,-0.00253772,0.0905984,-0.0825364,0.180867,-0.0828528,-0.0965485,-2.06053e-06,9.94729e-06,3.13961e-06,0.178629,0.19825580067326687,-2.0605278771013147e-06,9.947339474347672e-06,-0.07951336711950452,3.1396149284823593e-06,-0.09203413981236785
217,0.1993,761.222,-0.176196,0.163175,0.00480307,-0.0686882,0.0659964,0.181701,-0.083242,-0.0969928,-1.95774e-06,7.64569e-06,5.25781e-06,0.179467,0.19925556285390855,-1.957738083646632e-06,7.645719228399628e-06,-0.07987155080995412,5.257823822324426e-06,-0.09243745943995929
218,0.2003,761.989,0.449473,-0.184875,-0.00249679,0.119065,-0.0975774,0.182535,-0.0836238,-0.0974425,-2.06308e-06,1.05215e-05,2.85619e-06,0.180303,0.20025615918400064,-2.06307787187221e-06,1.0521555351195033e-05,-0.08022278879625655,2.8561940788041085e-06,-0.09284549855997648
219,0.2013,762.599,0.350768,-0.179694,0.00438983,0.0899893,-0.0936763,0.183368,-0.0840091,-0.0978889,-1.96724e-06,1.05063e-05,2.55942e-06,0.18114,0.20125638910252475,-1.9672380650037624e-06,1.0506355191397532e-05,-0.08057711069123685,2.5594232753167745e-06,-0.09325036195718583
220,0.2023,763.195,-0.123186,0.139824,0.00343996,-0.0538374,0.0538847,0.1842,-0.0843971,-0.0983323,-1.9743e-06,8.46024e-06,4.61786e-06,0.181975,0.20225625030284,-1.974298051043988e-06,8.460275787935956e-06,-0.08093377757443876,4.6178706623045684e-06,-0.09365232562476333
221,0.2033,763.918,0.386831,-0.171452,0.00204211,0.100875,-0.0887088,0.185031,-0.0847786,-0.0987804,-1.99109e-06,1.08414e-05,2.51345e-06,0.18281,0.20325574047749173,-1.9910880177942403e-06,1.0841458768284795e-05,-0.08128433446531547,2.5134531587145403e-06,-0.09405836903683018
222,0.2043,764.525,0.291609,-0.158461,0.0073474,0.072467,-0.0820549,0.185862,-0.0851631,-0.0992256,-1.90692e-06,1.07647e-05,2.29685e-06,0.183644,0.20425606157367882,-1.906918181804329e-06,1.0764757939485392e-05,-0.08163751273583986,2.296852637861946e-06,-0.09446160448406415
223,0.2053,765.137,-0.0881378,0.12239,0.00289599,-0.044097,0.045439,0.186692,-0.0855496,-0.0996682,-1.96032e-06,9.1055e-06,4.07169e-06,0.184478,0.20525600902557217,-1.9603180785310315e-06,9.105541455278754e-06,-0.08199239125247648,4.071698289420667e-06,-0.09486230709589027
224,0.2063,765.826,0.315963,-0.142818,0.00485431,0.0796285,-0.0737418,0.187521,-0.0859308,-0.100115,-1.92611e-06,1.10066e-05,2.31758e-06,0.185311,0.20625558052219417,-1.9261081450894224e-06,1.1006660572743243e-05,-0.08234226906198372,2.317582685540387e-06,-0.09526663228410648
225,0.2073,766.346,-0.356589,0.23544,0.0119802,-0.122628,0.105435,0.18835,-0.0863184,-0.100555,-1.80538e-06,7.94424e-06,4.96334e-06,0.186143,0.20725598100715503,-1.8053783703564363e-06,7.944271555482274e-06,-0.0826978842758147,4.963352317366443e-06,-0.09566462740055492
226,0.2083,766.927,-0.382273,0.15946,0.0250077,-0.124725,0.0755254,0.189178,-0.086702,-0.100999,-1.5719e-06,7.44224e-06,4.88686e-06,0.186974,0.20825600291136404,-1.5718987645962912e-06,7.4422676934471355e-06,-0.08304969388600925,4.886871940668058e-06,-0.09606606318065103
227,0.2093,767.771,0.288429,-0.0334609,-0.0111214,0.0659926,-0.035151,0.190005,-0.0870814,-0.101444,-2.07081e-06,1.01502e-05,3.38544e-06,0.187805,0.20925564392035545,-2.0708078558584475e-06,1.0150251513518782e-05,-0.08339751884558178,3.3854457306414787e-06,-0.0964682242950512
228,0.2103,768.162,-0.444288,0.169125,0.031431,-0.141982,0.0881952,0.190832,-0.0874681,-0.101884,-1.44108e-06,6.94009e-06,5.26776e-06,0.188635,0.2102561119743971,-1.441078961605946e-06,6.940114082532034e-06,-0.08375190050093506,5.267773874662041e-06,-0.09686569082731189
229,0.2113,769.131,0.676953,-0.177516,-0.027567,0.178916,-0.110612,0.191658,-0.0878441,-0.102331,-2.27968e-06,1.17533e-05,2.38424e-06,0.189464,0.2112561965009363,-2.279677401517688e-06,1.1753369070222064e-05,-0.08409634502671781,2.384242842268236e-06,-0.09726930164977277
230,0.2123,769.669,0.542906,-0.21724,-0.00946586,0.142663,-0.120309,0.192483,-0.088226,-0.102774,-2.07939e-06,1.1841e-05,1.82411e-06,0.190293,0.2122558951820539,-2.0793878380276354e-06,1.1841070104878781e-05,-0.08444606184987424,1.8241116637174315e-06,-0.0976691227822224
231,0.2133,770.142,-0.220145,0.183149,0.00683688,-0.0830023,0.0759597,0.193308,-0.0886121,-0.103212,-1.85576e-06,8.62997e-06,4.56856e-06,0.191121,0.2132564189548869,-1.8557582780465154e-06,8.630007238386028e-06,-0.08479948899189371,4.568570435958819e-06,-0.09806425716569678
232,0.2143,770.913,0.581398,-0.238414,-0.00682443,0.156416,-0.125422,0.194132,-0.0889886,-0.103657,-2.05477e-06,1.23103e-05,1.5994e-06,0.191949,0.21425655424325551,-2.0547678889482057e-06,1.2310375772095483e-05,-0.0851439971265624,1.5994012789732892e-06,-0.09846552928159047
233,0.2153,771.474,0.440275,-0.215736,0.00163894,0.114399,-0.112263,0.194955,-0.0893698,-0.104098,-1.94625e-06,1.22131e-05,1.35654e-06,0.192776,0.21525629872582264,-1.9462481060106285e-06,1.2213174580111286e-05,-0.08549267377286662,1.3565409200388956e-06,-0.09886301833040001
234,0.2163,772.0,-0.154694,0.150575,0.00570951,-0.0646195,0.0600169,0.195777,-0.0897541,-0.104536,-1.88251e-06,9.67096e-06,3.74077e-06,0.193602,0.2162556500805115,-1.8825082280793382e-06,9.671006763856127e-06,-0.08584405141679696,3.7407769966080195e-06,-0.09925762990212839
235,0.2173,772.713,0.458049,-0.19936,-0.000127931,0.120117,-0.103328,0.196599,-0.0901307,-0.104979,-1.96228e-06,1.25096e-05,1.33035e-06,0.194427,0.21725582323972947,-1.9622780746963997e-06,1.2509678245287148e-05,-0.0861882577289167,1.3303508850093237e-06,-0.09965657040023712
236,0.2183,773.276,0.338102,-0.175775,0.00609152,0.0842071,-0.0911336,0.19742,-0.0905111,-0.105419,-1.86988e-06,1.23736e-05,1.15576e-06,0.195252,0.2182556006230676,-1.8698782517923007e-06,1.2373676553378843e-05,-0.08653580560787899,1.155760667836958e-06,-0.10005263436879808
237,0.2193,773.832,-0.102959,0.125317,0.00473628,-0.0500429,0.0476704,0.198241,-0.0908936,-0.105856,-1.87847e-06,1.0462e-05,3.07534e-06,0.196076,0.21925619916067518,-1.8784682356276505e-06,1.0462054726989578e-05,-0.08688513884799276,3.0753447288756064e-06,-0.10044582544907066
238,0.2203,774.498,0.348225,-0.154253,0.00406908,0.0873153,-0.0799057,0.199061,-0.0912703,-0.106298,-1.8801e-06,1.25663e-05,1.19948e-06,0.196899,0.22025639926998708,-1.8800982326538929e-06,1.2566378956302415e-05,-0.08722904443750412,1.1994807194160018e-06,-0.10084334053691602
239,0.2213,774.96,-0.394069,0.245702,0.0150185,-0.135241,0.111688,0.19988,-0.0916541,-0.106733,-1.7019e-06,9.19489e-06,4.01346e-06,0.197722,0.22125619862293866,-1.7018985517536223e-06,9.194932273137724e-06,-0.08757929871215431,4.01346805389835e-06,-0.10123438862465706
240,0.2223,775.512,-0.401368,0.167182,0.026696,-0.132222,0.0797511,0.200698,-0.0920334,-0.107171,-1.48161e-06,8.73914e-06,3.92008e-06,0.198544,0.2222555948907592,-1.481608902453857e-06,8.739178186445429e-06,-0.08792531425815608,3.9200876835732146e-06,-0.10162796176362998
241,0.2233,776.321,0.284488,-0.0372089,-0.00951729,0.0635394,-0.0359902,0.201516,-0.0924084,-0.107611,-1.97771e-06,1.15056e-05,2.35475e-06,0.199365,0.22325580899917785,-1.9777080443317274e-06,1.1505666189570718e-05,-0.08826727814307345,2.3547527723266626e-06,-0.1020231585107938
242,0.2243,776.681,-0.444484,0.172474,0.0317838,-0.144228,0.0893661,0.202333,-0.0927909,-0.108046,-1.36281e-06,8.2906e-06,4.25825e-06,0.200187,0.22425561736123267,-1.362809071370208e-06,8.290634367025262e-06,-0.08861594922158889,4.258259066469705e-06,-0.1024136934893255
243,0.2253,777.605,0.663794,-0.180484,-0.0252696,0.174155,-0.110598,0.20315,-0.0931628,-0.108488,-2.17069e-06,1.30537e-05,1.3691e-06,0.201006,0.22525624290049073,-2.1706876440763523e-06,1.30537851998902e-05,-0.08895482993129955,1.3691009372873708e-06,-0.10281033897169412
244,0.2263,778.109,0.518452,-0.210737,-0.00734772,0.134363,-0.116075,0.203966,-0.0935406,-0.108925,-1.96535e-06,1.30517e-05,8.86717e-07,0.201826,0.22625646002778543,-1.9653480687331637e-06,1.30517851737455e-05,-0.08929895778670638,8.867173930671157e-07,-0.10320232519833483
245,0.2273,778.559,-0.19716,0.170598,0.00720776,-0.0778883,0.0701218,0.204781,-0.0939222,-0.109358,-1.76262e-06,1.00285e-05,3.47712e-06,0.202645,0.22725626640846674,-1.7626184465324712e-06,1.0028550285534621e-05,-0.0896464150053613,3.47712604509276e-06,-0.10359055453380706
246,0.2283,779.278,0.533711,-0.220608,-0.0043106,0.141129,-0.11584,0.205595,-0.0942949,-0.109798,-1.92707e-06,1.3387e-05,7.45183e-07,0.203463,0.22825565970721295,-1.9270681431704517e-06,1.3387089606187175e-05,-0.08998564056787861,7.451832777505274e-07,-0.10398488793010308
247,0.2293,779.804,0.38866,-0.193699,0.00403763,0.097991,-0.100811,0.206409,-0.094672,-0.110234,-1.81289e-06,1.3203e-05,5.76184e-07,0.20428,0.22925586684329136,-1.8128883567669618e-06,1.3203087160018612e-05,-0.09032874228692545,5.761841659346345e-07,-0.10437546536689712
248,0.2303,780.316,-0.120049,0.132075,0.0057621,-0.0558958,0.0512845,0.207222,-0.0950516,-0.110667,-1.77909e-06,1.1014e-05,2.67118e-06,0.205097,0.23025565822316163,-1.7790884174750943e-06,1.1014060654401803e-05,-0.09067398796457793,2.6711835676707096e-06,-0.10476318684263597
249,0.2313,780.97,0.386069,-0.169329,0.0028826,0.0976254,-0.0878005,0.208035,-0.0954247,-0.111105,-1.81249e-06,1.33648e-05,6.27763e-07,0.205913,0.23125626276392874,-1.8124883573999995e-06,1.3364889309253059e-05,-0.09101319421680709,6.277631969808795e-07,-0.1051552147064293
250,0.2323,781.383,-0.439223,0.261679,0.0174833,-0.149312,0.120389,0.208847,-0.0958057,-0.111536,-1.58056e-06,9.62544e-06,3.67273e-06,0.206729,0.2322564488698966,-1.5805587508799235e-06,9.625486324660315e-06,-0.09135945222347164,3.6727367445088532e-06,-0.10554080970719915
251,0.2333,781.915,-0.429477,0.179244,0.0281314,-0.141413,0.0859997,0.209658,-0.0961817,-0.11197,-1.37006e-06,9.20555e-06,3.56578e-06,0.207544,0.2332562141999741,-1.3700590614229569e-06,9.205592371275273e-06,-0.09170103684750197,3.5657863572957638e-06,-0.10592892076959382
252,0.2343,782.704,0.288022,-0.0427459,-0.0087908,0.0640745,-0.0380947,0.210468,-0.0965532,-0.112406,-1.87391e-06,1.21026e-05,1.89045e-06,0.208358,0.23425555641243312,-1.873908244243161e-06,1.2102673236702444e-05,-0.09203840724188228,1.8904517868900683e-06,-0.10631865079281932
253,0.2353,783.038,-0.458246,0.18051,0.0322928,-0.149409,0.0930589,0.211278,-0.0969326,-0.112837,-1.26015e-06,8.79472e-06,3.87347e-06,0.209171,0.2352557084200071,-1.2601492059838293e-06,8.79475867376911e-06,-0.09238282253046304,3.873477501858957e-06,-0.10670374446068098
254,0.2363,783.938,0.671775,-0.189739,-0.0244891,0.176266,-0.114349,0.212087,-0.097301,-0.113275,-2.0631e-06,1.36613e-05,8.84489e-07,0.209984,0.2362554346228427,-2.0630978717628423e-06,1.3661393315933523e-05,-0.09271712711595725,8.844893910620044e-07,-0.10709492254635267
255,0.2373,784.415,0.515664,-0.212043,-0.00660236,0.133094,-0.116204,0.212896,-0.0976757,-0.113708,-1.85514e-06,1.36018e-05,4.53695e-07,0.210796,0.23725596993141562,-1.8551382792164617e-06,1.3601892504988555e-05,-0.09305702232508273,4.5369510282000647e-07,-0.10748146675203019
256,0.2383,784.843,-0.188347,0.164713,0.00754983,-0.076037,0.0674961,0.213704,-0.098054,-0.114138,-1.65631e-06,1.06219e-05,2.99866e-06,0.211608,0.2382560767438613,-1.6563086283616357e-06,1.0621956412659728e-05,-0.0934000539650115,2.9986644960455777e-06,-0.10786516721981398
257,0.2393,785.531,0.515322,-0.214044,-0.00332297,0.13517,-0.112296,0.214511,-0.0984236,-0.114573,-1.80979e-06,1.38574e-05,3.63194e-07,0.212419,0.23925575271279387,-1.8097883622836264e-06,1.3857496014235693e-05,-0.09373507139003212,3.6319406593321446e-07,-0.10825316147720421
258,0.2403,786.033,0.364976,-0.183223,0.00505339,0.0904466,-0.0954376,0.215318,-0.0987976,-0.115005,-1.69219e-06,1.36178e-05,2.42099e-07,0.213229,0.24025623574583999,-1.6921885682696924e-06,1.3617892722583846e-05,-0.09407395109887662,2.4209902926841664e-07,-0.10863831291274606
259,0.2413,786.528,-0.102475,0.121806,0.00586664,-0.0513677,0.0465189,0.216124,-0.0991737,-0.115434,-1.66986e-06,1.15987e-05,2.18994e-06,0.214039,0.2412562852376574,-1.6698586058350173e-06,1.1598767265086352e-05,-0.09441460582173222,2.189942397867739e-06,-0.10902062506468657
260,0.2423,787.147,0.349696,-0.153774,0.00427352,0.0862914,-0.0798725,0.216929,-0.0995439,-0.115868,-1.68292e-06,1.37026e-05,3.38157e-07,0.214848,0.24225589883776655,-1.68291858393399e-06,1.3702693881123551e-05,-0.09474979148796214,3.3815705724471457e-07,-0.10940722621489063
261,0.2433,787.557,-0.387029,0.237858,0.016303,-0.134782,0.108388,0.217734,-0.0999211,-0.116295,-1.4874e-06,1.035e-05,3.08381e-06,0.215656,0.243256317450798,-1.487398893829095e-06,1.0350053561536399e-05,-0.09509118747528189,3.0838147548895023e-06,-0.10978742815040676
262,0.2443,788.067,-0.374901,0.156981,0.0265102,-0.126504,0.0744876,0.218538,-0.100294,-0.116726,-1.28756e-06,9.99718e-06,2.93625e-06,0.216464,0.24425629746812838,-1.2875591710592715e-06,9.997229972080746e-06,-0.0954285650635115,2.9362543108035766e-06,-0.11017102709736282
263,0.2453,788.807,0.250419,-0.0300804,-0.00671246,0.0525398,-0.0309975,0.219341,-0.100663,-0.117158,-1.73877e-06,1.25133e-05,1.52019e-06,0.217271,0.24525583653622185,-1.7387684883019006e-06,1.251337829155652e-05,-0.09576229034690154,1.5201911554019176e-06,-0.11055535019389084
264,0.2463,789.148,-0.387917,0.154304,0.0297233,-0.12992,0.0789469,0.220144,-0.101038,-0.117586,-1.19168e-06,9.67837e-06,3.18237e-06,0.218078,0.24625617855652915,-1.1916792899135942e-06,9.678416835523507e-06,-0.09610131591675419,3.1823750636927883e-06,-0.11093595104961473
265,0.2473,789.977,0.570338,-0.154291,-0.0195839,0.146298,-0.094954,0.220946,-0.101404,-0.118018,-1.88566e-06,1.37971e-05,6.86551e-07,0.218883,0.24725607691737927,-1.8856582221227214e-06,1.3797195180353938e-05,-0.09643208230118794,6.865512356402093e-07,-0.1113199437703618
266,0.2483,790.435,0.422462,-0.175599,-0.00257603,0.105554,-0.096931,0.221747,-0.101776,-0.118448,-1.67713e-06,1.36596e-05,3.29006e-07,0.219688,0.2482555292622166,-1.677128593668975e-06,1.3659693292700226e-05,-0.09676814705465231,3.2900605417829354e-07,-0.11170199404784409
267,0.2493,790.876,-0.136472,0.139846,0.00640258,-0.0614278,0.0552335,0.222548,-0.10215,-0.118874,-1.5479e-06,1.12753e-05,2.43269e-06,0.220493,0.24925578248909286,-1.5478988020234397e-06,1.1275363566376484e-05,-0.097105892605299,2.4326929590756663e-06,-0.11208032840743964
268,0.2503,791.503,0.408149,-0.170936,0.000844027,0.103217,-0.0898614,0.223348,-0.102518,-0.119305,-1.62154e-06,1.37912e-05,3.15496e-07,0.221297,0.250255586983559,-1.621538685325774e-06,1.3791295099041534e-05,-0.0974380965075532,3.1549604972980205e-07,-0.11246293932731988
269,0.2513,791.988,0.276244,-0.145314,0.00829895,0.0641279,-0.0760129,0.224148,-0.102888,-0.119733,-1.50683e-06,1.35223e-05,2.30522e-07,0.2221,0.25125619164164337,-1.5068288646835626e-06,1.3522391426601388e-05,-0.09777198263910192,2.3052202657858345e-07,-0.11284272390958971
270,0.2523,792.491,-0.0591522,0.099824,0.00502906,-0.0390037,0.0358464,0.224947,-0.103261,-0.120159,-1.53959e-06,1.20469e-05,1.76213e-06,0.222903,0.2522563448467623,-1.539588814880588e-06,1.2046972564183633e-05,-0.09810845093433951,1.7621315524518621e-06,-0.11322057242175687
271,0.2533,793.056,0.255671,-0.114224,0.00759429,0.0582154,-0.0595949,0.225745,-0.103628,-0.120588,-1.48999e-06,1.35245e-05,3.71982e-07,0.223705,0.2532560442369558,-1.4899888899355673e-06,1.3524591456537394e-05,-0.09843938440284072,3.719820691472364e-07,-0.11360091920596949
272,0.2543,793.497,-0.262872,0.184441,0.0123075,-0.0988565,0.081038,0.226543,-0.104001,-0.121012,-1.39991e-06,1.11313e-05,2.42065e-06,0.224506,0.2542565417056535,-1.3999090201499698e-06,1.113136195307618e-05,-0.09877560380364203,2.4206529298798074e-06,-0.11397667275084533
273,0.2553,794.163,0.458522,-0.190908,-0.00112498,0.11704,-0.100428,0.22734,-0.104366,-0.121442,-1.58075e-06,1.43631e-05,-1.85109e-07,0.225307,0.25525658263276596,-1.5807487505625772e-06,1.4363203149736492e-05,-0.09910449068274696,-1.8510898291967948e-07,-0.11435758088044545
274,0.2563,794.641,0.337327,-0.169483,0.00603537,0.0813456,-0.0886287,0.228136,-0.104735,-0.121869,-1.47589e-06,1.41982e-05,-3.37926e-07,0.226107,0.2562561646534067,-1.4758889108623663e-06,1.419830079485429e-05,-0.09943685979981154,-3.3792594289483446e-07,-0.11473566946575187
275,0.2573,795.108,-0.0991791,0.115273,0.00692201,-0.0511933,0.0440835,0.228932,-0.105107,-0.122293,-1.44984e-06,1.22957e-05,1.48151e-06,0.226906,0.2572565426580953,-1.4498389490080754e-06,1.2295775592363611e-05,-0.09977180698392718,1.4815110973565027e-06,-0.11511094197850358
276,0.2583,795.692,0.32478,-0.141446,0.00505857,0.0779293,-0.0738405,0.229727,-0.105473,-0.12272,-1.4644e-06,1.42592e-05,-2.37408e-07,0.227705,0.2582564590235994,-1.4643989277862701e-06,1.4259301662766788e-05,-0.1001012302144425,-2.3740797183702256e-07,-0.11548870894729113
277,0.2593,796.081,-0.353016,0.218912,0.0162898,-0.125759,0.0993656,0.230521,-0.105845,-0.123142,-1.2793e-06,1.11623e-05,2.27922e-06,0.228503,0.2592559113821431,-1.279299181700111e-06,1.1162362298700046e-05,-0.10043593029872733,2.2792225973233826e-06,-0.1158618939645385
278,0.2603,796.795,0.582473,-0.23956,-0.00593763,0.15278,-0.125911,0.231315,-0.106207,-0.123572,-1.58707e-06,1.53381e-05,-9.59192e-07,0.229301,0.26025615762098786,-1.5870687406494e-06,1.533821762933485e-05,-0.1007615135578338,-9.591915399731477e-07,-0.11624199162328042
279,0.2613,797.255,0.431265,-0.207815,0.00269748,0.108065,-0.108402,0.232108,-0.106575,-0.123996,-1.47195e-06,1.51495e-05,-1.10726e-06,0.230098,0.26125593711415784,-1.4719489166425959e-06,1.5149614754239593e-05,-0.10109237243907654,-1.1072593869565495e-06,-0.11661662559081853
280,0.2623,797.68,-0.138218,0.132059,0.00859998,-0.0633597,0.0527426,0.232901,-0.106946,-0.124418,-1.37645e-06,1.26959e-05,1.09563e-06,0.230894,0.2622565097469043,-1.3764490527368167e-06,1.2695980593280254e-05,-0.10142580531327894,1.095630600245201e-06,-0.11698933472766015
281,0.2633,798.284,0.408132,-0.175651,0.00226868,0.101771,-0.091491,0.233692,-0.107309,-0.124844,-1.45642e-06,1.52139e-05,-1.01086e-06,0.23169,0.26325534963521036,-1.4564189394494775e-06,1.5214015731901398e-05,-0.10175192855100157,-1.0108594891145017e-06,-0.11736541715982063
282,0.2643,798.746,0.269327,-0.141789,0.00920464,0.0603656,-0.0740687,0.234484,-0.107677,-0.125268,-1.34589e-06,1.48954e-05,-1.03988e-06,0.232485,0.2642562441740399,-1.345889094284125e-06,1.4895510936918654e-05,-0.10208242302658155,-1.0398794593191596e-06,-0.11773957489589948
283,0.2653,799.226,-0.0513357,0.0923879,0.00616296,-0.0382963,0.0329081,0.235274,-0.108045,-0.125689,-1.37287e-06,1.34777e-05,4.17831e-07,0.23328,0.26525540122200697,-1.3728690576586544e-06,1.3477790824500957e-05,-0.10241279590257024,4.1783108728488116e-07,-0.11811092835947934
284,0.2663,799.763,0.239024,-0.10575,0.00860908,0.0515027,-0.0553515,0.236064,-0.108409,-0.126114,-1.32216e-06,1.48354e-05,-8.6459e-07,0.234073,0.2662553479159109,-1.3221591259604537e-06,1.483551004510808e-05,-0.10273945818871877,-8.645896262260422e-07,-0.11848565158060165
285,0.2673,800.188,-0.238571,0.170387,0.0128518,-0.0933827,0.0745535,0.236854,-0.108778,-0.126534,-1.23689e-06,1.26183e-05,1.02208e-06,0.234867,0.26725608487981845,-1.2368892350345106e-06,1.2618379610973562e-05,-0.10307048625021376,1.0220805222171947e-06,-0.11885580986825606
286,0.2683,800.817,0.417212,-0.172533,0.000789335,0.1032,-0.0910171,0.237643,-0.10914,-0.126959,-1.39524e-06,1.55519e-05,-1.34687e-06,0.235659,0.2682563444813113,-1.395239026646955e-06,1.5552020931508537e-05,-0.10339511597266626,-1.3468690929219207e-06,-0.11923021658199984
287,0.2693,801.272,0.296772,-0.151023,0.00797395,0.0678155,-0.079149,0.238431,-0.109506,-0.127381,-1.28472e-06,1.53362e-05,-1.46092e-06,0.236451,0.26925612434229373,-1.2847191747100695e-06,1.53363176000898e-05,-0.10372321331474421,-1.4609189328274041e-06,-0.11960182301612987
288,0.2703,801.729,-0.0756806,0.102343,0.00725313,-0.0458725,0.0381268,0.239218,-0.109873,-0.127801,-1.27876e-06,1.36946e-05,1.42189e-07,0.237243,0.2702554220842348,-1.2787591824325872e-06,1.3694693771437727e-05,-0.10405208654352882,1.4218901012164054e-07,-0.11997151261021388
289,0.2713,802.273,0.275377,-0.120232,0.00733272,0.0617317,-0.0628886,0.240005,-0.110235,-0.128224,-1.26221e-06,1.53211e-05,-1.32395e-06,0.238033,0.27125550658304687,-1.2622092033787169e-06,1.5321217368580164e-05,-0.10437636099098391,-1.323949123555046e-06,-0.12034368594017109
290,0.2723,802.667,-0.286588,0.188778,0.0150311,-0.107913,0.0843296,0.240792,-0.110603,-0.128642,-1.12635e-06,1.27287e-05,8.10149e-07,0.238823,0.27225637845815154,-1.1263493656654688e-06,1.272878101032937e-05,-0.1047058898531098,8.101493280676664e-07,-0.12071130544161968
291,0.2733,803.316,0.48108,-0.197996,-0.00160385,0.121507,-0.104277,0.241577,-0.110963,-0.129066,-1.35059e-06,1.61569e-05,-1.88932e-06,0.239613,0.27325549181592756,-1.3505890879006444e-06,1.615703052348927e-05,-0.10502813772466546,-1.8893182152091015e-06,-0.12108404482177959
292,0.2743,803.758,0.34299,-0.169931,0.00638931,0.0808133,-0.0888655,0.242362,-0.111327,-0.129486,-1.23369e-06,1.59157e-05,-1.99046e-06,0.240402,0.27425538978560926,-1.233689238988589e-06,1.5915826655499288e-05,-0.105353848199631,-1.9904580190743815e-06,-0.1214531120134189
293,0.2753,804.19,-0.0931988,0.109476,0.00814519,-0.0515324,0.0418945,0.243147,-0.111694,-0.129904,-1.19324e-06,1.40091e-05,-2.07392e-07,0.24119,0.2752560729833591,-1.1932392880442677e-06,1.4009198127995504e-05,-0.10568212309521385,-2.0739197847952084e-07,-0.1218202678716771
294,0.2763,804.74,0.313278,-0.135802,0.00611672,0.0723878,-0.0709107,0.243931,-0.112054,-0.130325,-1.20736e-06,1.58869e-05,-1.84649e-06,0.241978,0.2762562657689187,-1.2073592711159264e-06,1.5887026197480836e-05,-0.10600401958605465,-1.8464882952651251e-06,-0.12218990372509642
295,0.2773,805.104,-0.332598,0.20677,0.0171196,-0.121959,0.0938323,0.244714,-0.112421,-0.130741,-1.02306e-06,1.2921e-05,5.36309e-07,0.242765,0.2772559657564855,-1.0230594766902357e-06,1.292108347650256e-05,-0.10633205591251882,5.363091437615708e-07,-0.12255499678052606
296,0.2783,805.773,0.543083,-0.22318,-0.00381351,0.139231,-0.117297,0.245497,-0.112779,-0.131164,-1.30923e-06,1.68284e-05,-2.48587e-06,0.243551,0.27825644881567513,-1.309229142987256e-06,1.6828541598234992e-05,-0.1066519317753063,-2.485866910206802e-06,-0.12292607752777684
297,0.2793,806.202,0.386728,-0.188033,0.00496941,0.0930345,-0.0981171,0.246279,-0.113142,-0.131583,-1.18568e-06,1.65558e-05,-2.56928e-06,0.244337,0.27925643630279673,-1.1856792970776908e-06,1.6555937047968428e-05,-0.10697615827340223,-2.5692766993934413e-06,-0.12329349452205707
298,0.2803,806.611,-0.108829,0.115824,0.00901049,-0.0567186,0.0452637,0.24706,-0.113507,-0.131998,-1.11325e-06,1.44018e-05,-6.18516e-07,0.245122,0.28025592582940506,-1.113249380346737e-06,1.4401903706495744e-05,-0.10730205249631863,-6.185158086813303e-07,-0.12365725223688384
299,0.2813,807.165,0.347737,-0.15008,0.00508261,0.0819713,-0.0782342,0.247841,-0.113866,-0.132419,-1.15487e-06,1.65071e-05,-2.41417e-06,0.245907,0.2812561962622382,-1.1548693331642212e-06,1.650723624302408e-05,-0.10762247354045362,-2.4141670859068043e-06,-0.12402611488265702
300,0.2823,807.501,-0.373748,0.222927,0.0190476,-0.134672,0.102364,0.248621,-0.114233,-0.132833,-9.26968e-07,1.32035e-05,1.92814e-07,0.246691,0.2822559659548145,-9.269675703693636e-07,1.3203587166499275e-05,-0.10794991600329717,1.928140185292193e-07,-0.12438869301224409
301,0.2833,808.187,0.597937,-0.245666,-0.00568601,0.154808,-0.128872,0.249401,-0.114588,-0.133254,-1.26778e-06,1.75375e-05,-3.11647e-06,0.247474,0.28325651577196,-1.2677791964010865e-06,1.7537653782762064e-05,-0.10826653757946103,-3.1164651438375657e-06,-0.1247572477862624
302,0.2843,808.603,0.424269,-0.203658,0.00382771,0.103395,-0.106067,0.25018,-0.11495,-0.133671,-1.13756e-06,1.72301e-05,-3.17919e-06,0.248257,0.2842565620652051,-1.1375593529372452e-06,1.7230248438915297e-05,-0.10858928667174705,-3.1791849464113398e-06,-0.12512214792696852
303,0.2853,808.992,-0.121265,0.120785,0.00980162,-0.0610323,0.0479319,0.250958,-0.115314,-0.134085,-1.03789e-06,1.4867e-05,-1.0882e-06,0.24904,0.28525610244128097,-1.0378894613749523e-06,1.4867110514460435e-05,-0.10891370112438614,-1.0881994079170454e-06,-0.12548427239279014
304,0.2863,809.549,0.375731,-0.161759,0.004326,0.0895979,-0.0841958,0.251736,-0.115672,-0.134504,-1.10174e-06,1.71561e-05,-3.00979e-06,0.249821,0.2862564207623508,-1.1017393930501385e-06,1.7156247166694172e-05,-0.10923265292360507,-3.0097854706312432e-06,-0.12585061772795025
305,0.2873,809.862,-0.40642,0.235708,0.0206806,-0.14497,0.109133,0.252513,-0.116037,-0.134916,-8.38404e-07,1.35801e-05,-2.23847e-07,0.250602,0.2872562303770174,-8.384036485065138e-07,1.3580192209872166e-05,-0.1095577236762666,-2.2384697495603234e-07,-0.12621069309282773
306,0.2883,810.31,-0.353848,0.149212,0.0278196,-0.125469,0.070881,0.253289,-0.116397,-0.135331,-6.76763e-07,1.34013e-05,-4.55712e-07,0.251383,0.2882555288894666,-6.767627710457802e-07,1.3401389797884633e-05,-0.10987822520200707,-4.557118961079354e-07,-0.12657324042142026
307,0.2893,810.949,0.204844,-0.0232609,-0.001579,0.0355693,-0.0249572,0.254065,-0.116754,-0.135749,-1.06817e-06,1.56393e-05,-1.72598e-06,0.252162,0.28925560315851606,-1.068169429463417e-06,1.5639422294544403e-05,-0.11019594195979432,-1.7259785104473124e-06,-0.12693825651324608
308,0.2903,811.251,-0.320075,0.133511,0.0280709,-0.115434,0.0670752,0.254841,-0.117116,-0.136161,-6.12131e-07,1.32608e-05,-3.45594e-07,0.252942,0.29025645378638676,-6.121308125939251e-07,1.3260887924859688e-05,-0.1105179927340979,-3.455939402430275e-07,-0.12729788386324148
309,0.2913,811.943,0.453248,-0.124411,-0.0109877,0.10902,-0.0761197,0.255615,-0.117471,-0.136579,-1.15417e-06,1.65867e-05,-2.37656e-06,0.25372,0.2912554988621865,-1.1541693339944814e-06,1.6586837560117473e-05,-0.11083370280482407,-2.3765571759426507e-06,-0.12766259711740624
310,0.2923,812.333,0.305902,-0.132525,0.00425392,0.0679258,-0.0731421,0.256389,-0.117831,-0.136993,-9.47801e-07,1.62867e-05,-2.57367e-06,0.254498,0.2922553174982039,-9.478005508212206e-07,1.628683262899777e-05,-0.11115374506075182,-2.5736666880993297e-06,-0.1280236700549443
311,0.2933,812.742,-0.0680074,0.100794,0.007154,-0.0452121,0.0372763,0.257163,-0.118192,-0.137405,-8.95109e-07,1.46483e-05,-1.06378e-06,0.255276,0.2932559102934067,-8.951085993524899e-07,1.4648407286932397e-05,-0.11147456064808725,-1.0637794342072127e-06,-0.12838285030666907
312,0.2943,813.245,0.262722,-0.111501,0.0075616,0.0564497,-0.058844,0.257936,-0.118548,-0.137821,-8.73932e-07,1.61816e-05,-2.44935e-06,0.256052,0.2942559835905951,-8.739316180728096e-07,1.6181730922770754e-05,-0.11179081940709734,-2.4493470003328355e-06,-0.12874536763210986
313,0.2953,813.607,-0.26459,0.1752,0.0154765,-0.102853,0.0780869,0.258708,-0.118909,-0.138231,-7.3425e-07,1.37369e-05,-4.74057e-07,0.256829,0.2952555349871231,-7.342497304607676e-07,1.3736994351587484e-05,-0.11211140505210093,-4.7405688763380027e-07,-0.1291025088124358
314,0.2963,814.208,0.439196,-0.179589,1.65449e-05,0.107881,-0.0949014,0.25948,-0.119263,-0.138647,-9.39951e-07,1.68808e-05,-2.93723e-06,0.257604,0.29625585833526413,-9.399505582763368e-07,1.6880942481423133e-05,-0.11242566198795301,-2.93722568633914e-06,-0.12946472682220012
315,0.2973,814.613,0.297904,-0.149205,0.00815848,0.0662864,-0.078305,0.260251,-0.119621,-0.13906,-8.16128e-07,1.65663e-05,-2.97992e-06,0.258379,0.2972556569748894,-8.161276670026751e-07,1.656643722180995e-05,-0.11274335673020941,-2.979915560086255e-06,-0.12982418365707682
316,0.2983,815.025,-0.0656039,0.0931736,0.00829728,-0.0446156,0.0344151,0.261022,-0.119981,-0.13947,-7.96619e-07,1.49579e-05,-1.45171e-06,0.259154,0.298256226756503,-7.96618682685768e-07,1.4958011870014332e-05,-0.1130627116344547,-1.45170894627622e-06,-0.1301808826134946
317,0.2993,815.521,0.255262,-0.110669,0.00833958,0.0539441,-0.0580951,0.261792,-0.120336,-0.139884,-7.78276e-07,1.64425e-05,-2.7886e-06,0.259928,0.29925626901796565,-7.78275697110864e-07,1.6442635178748333e-05,-0.11337751849030142,-2.7885961119133995e-06,-0.13054091319661953
318,0.3003,815.881,-0.254947,0.170147,0.0154578,-0.100425,0.0756484,0.262561,-0.120696,-0.140293,-6.49092e-07,1.40697e-05,-8.62979e-07,0.260701,0.300255781352077,-6.490917893176018e-07,1.406979897877747e-05,-0.11369664513740185,-8.629786276692641e-07,-0.13089644925104282
319,0.3013,816.468,0.423551,-0.173738,0.000820843,0.102916,-0.0917575,0.26333,-0.121048,-0.140708,-8.42191e-07,1.71012e-05,-3.24422e-06,0.261474,0.30125606260678506,-8.421906453337513e-07,1.710134622645576e-05,-0.11400856901649004,-3.2442147375189023e-06,-0.13125705239427599
320,0.3023,816.867,0.284036,-0.143131,0.00877654,0.0618259,-0.0751649,0.264098,-0.121405,-0.141118,-7.19149e-07,1.67759e-05,-3.27507e-06,0.262246,0.3022558111171554,-7.19148741445963e-07,1.67760407161488e-05,-0.1143248115047083,-3.2750646369317238e-06,-0.13161316399492762
321,0.3033,817.276,-0.0586631,0.0890357,0.00837774,-0.042929,0.032531,0.264866,-0.121763,-0.141527,-7.06542e-07,1.52527e-05,-1.81662e-06,0.263017,0.303256327729295,-7.065417504392713e-07,1.5252816323085838e-05,-0.11464182647312449,-1.816618349970156e-06,-0.13196826158844577
322,0.3043,817.76,0.240191,-0.104081,0.00895399,0.0490853,-0.0547304,0.265633,-0.122117,-0.141939,-6.79703e-07,1.66353e-05,-3.07589e-06,0.263788,0.3042563087763719,-6.797027689575685e-07,1.663543836727399e-05,-0.11495518779832603,-3.075885269487877e-06,-0.13232581700319812
323,0.3053,818.121,-0.23562,0.161048,0.0150695,-0.0951083,0.0711477,0.266399,-0.122476,-0.142347,-5.64686e-07,1.44134e-05,-1.26489e-06,0.264559,0.3052557518467214,-5.64685840531709e-07,1.4413503873544897e-05,-0.11527286186000041,-1.2648892000477474e-06,-0.1326797558614239
324,0.3063,818.69,0.394729,-0.16164,0.00196939,0.0940495,-0.0855221,0.267165,-0.122827,-0.14276,-7.34945e-07,1.72297e-05,-3.49002e-06,0.265328,0.3062559607837523,-7.349447299631606e-07,1.7229848432220862e-05,-0.11558334659222946,-3.4900139098681393e-06,-0.13303788516346182
325,0.3073,818.944,-0.468168,0.251516,0.0245707,-0.163354,0.11866,0.26793,-0.123187,-0.143165,-3.79584e-07,1.32821e-05,-5.47952e-07,0.266098,0.3072556289180608,-3.7958392795633955e-07,1.3282188207508483e-05,-0.11590167928413364,-5.479518498940905e-07,-0.1333889337278379
326,0.3083,819.379,-0.374167,0.156607,0.0288585,-0.131916,0.0749457,0.268695,-0.123542,-0.143574,-2.53504e-07,1.3249e-05,-8.41673e-07,0.266866,0.3082560620910819,-2.535039678175366e-07,1.3249087768452128e-05,-0.11621547848533409,-8.416726458015944e-07,-0.1337433051800413
327,0.3093,819.989,0.191511,-0.0236611,-0.00032579,0.0317024,-0.0241494,0.269459,-0.123893,-0.143985,-6.40746e-07,1.55173e-05,-2.14831e-06,0.267634,0.30925595163168795,-6.407457947554818e-07,1.551742039396231e-05,-0.11652563241718639,-2.1483076924067035e-06,-0.13409926352716128
328,0.3103,820.272,-0.312143,0.132791,0.0273142,-0.113778,0.0661602,0.270223,-0.12425,-0.144392,-2.12234e-07,1.32137e-05,-7.98898e-07,0.268402,0.31025660537979327,-2.1223397750347317e-07,1.3213787301236124e-05,-0.11684097647415015,-7.988976808981363e-07,-0.13445161341883882
329,0.3113,820.923,0.429862,-0.121743,-0.00924708,0.102383,-0.0736292,0.270985,-0.1246,-0.144803,-7.19112e-07,1.64167e-05,-2.77317e-06,0.269168,0.3112554014060498,-7.191117414873105e-07,1.6416834754728882e-05,-0.11715002804520436,-2.7731661547125697e-06,-0.1348072807110885
330,0.3123,821.091,-0.520176,0.2196,0.0349404,-0.174855,0.110701,0.271748,-0.124959,-0.145207,-5.39143e-08,1.21659e-05,-1.07132e-07,0.269935,0.31225627106053966,-5.3914298581148046e-08,1.2165974004885172e-05,-0.11746691430064982,-1.0713199427581088e-07,-0.13515674797254118
331,0.3133,821.548,-0.392336,0.1482,0.0316981,-0.135383,0.0732128,0.27251,-0.125312,-0.145614,-1.98106e-08,1.22301e-05,-3.30529e-07,0.2707,0.3132565914127394,-1.9810599827252418e-08,1.2230174788019355e-05,-0.1177783935005885,-3.3052894532481503e-07,-0.1355086675556233
332,0.3143,822.159,0.18547,-0.0281861,0.000372444,0.0313269,-0.0255113,0.273271,-0.125663,-0.146023,-4.33919e-07,1.45407e-05,-1.63655e-06,0.271465,0.3142563600425192,-4.33918905806685e-07,1.4540805716389826e-05,-0.11808799894553557,-1.6365486608105329e-06,-0.13586217221396257
333,0.3153,822.44,-0.31334,0.132724,0.0268065,-0.113134,0.0660205,0.274031,-0.126018,-0.146428,-2.23574e-08,1.22518e-05,-2.73873e-07,0.27223,0.3152555745295611,-2.235739970934958e-08,1.2251875053603811e-05,-0.11840102214100534,-2.738729625306746e-07,-0.13621207717367878
334,0.3163,823.083,0.426299,-0.122836,-0.00937924,0.102544,-0.073907,0.274791,-0.126367,-0.146838,-5.25158e-07,1.54516e-05,-2.24934e-06,0.272994,0.31625554870825945,-5.251578620857345e-07,1.5451719376669004e-05,-0.1187086465007049,-2.2493374702836633e-06,-0.13656615763058377
335,0.3173,823.249,-0.515412,0.218969,0.0339234,-0.172564,0.11002,0.275551,-0.126725,-0.14724,1.26227e-07,1.12343e-05,4.07005e-07,0.273757,0.31725628315619914,1.2622700795716923e-07,1.1234363104906109e-05,-0.11902409233708389,4.070050827476024e-07,-0.13691318827738286
336,0.3183,823.699,-0.385263,0.146291,0.0306586,-0.132401,0.0719633,0.27631,-0.127076,-0.147646,1.56989e-07,1.13208e-05,1.70837e-07,0.27452,0.31825646019428544,1.5698901223437645e-07,1.1320864080399673e-05,-0.11933326061846605,1.7083701453479705e-07,-0.13726353039867922
337,0.3193,824.299,0.179389,-0.0265219,8.79701e-05,0.030615,-0.0246061,0.277068,-0.127425,-0.148054,-2.48456e-07,1.3583e-05,-1.105e-06,0.275282,0.31925607739817097,-2.484559691318111e-07,1.3583092249414008e-05,-0.11964055968370424,-1.1049993894340915e-06,-0.13761545508075945
338,0.3203,824.579,-0.303242,0.129245,0.0256987,-0.109222,0.063984,0.277826,-0.12778,-0.148457,1.49661e-07,1.13677e-05,2.12947e-07,0.276044,0.3202564525991418,1.4966101113955688e-07,1.1367764612524311e-05,-0.11995303181793104,2.1294702268193078e-07,-0.13796292603226257
339,0.3213,825.208,0.411425,-0.118177,-0.00924138,0.0992867,-0.0713716,0.278583,-0.128127,-0.148865,-3.36927e-07,1.44642e-05,-1.69597e-06,0.276805,0.32125626511505145,-3.369269432340616e-07,1.446430460694259e-05,-0.12025835513923033,-1.6959685618100906e-06,-0.13831456541912845
340,0.3223,825.378,-0.494425,0.2114,0.0323573,-0.165497,0.105795,0.279339,-0.128483,-0.149266,2.88492e-07,1.04049e-05,8.60114e-07,0.277565,0.3222555125194051,2.884920415890946e-07,1.0404954131182365e-05,-0.12057148742394697,8.601143699493718e-07,-0.13866003200771515
341,0.3233,825.821,-0.367042,0.139411,0.0292778,-0.12617,0.0682096,0.280095,-0.128834,-0.149671,3.17824e-07,1.05044e-05,6.16241e-07,0.278325,0.3232555156404213,3.1782405041091977e-07,1.0504455171478355e-05,-0.12088011266496279,6.162411898547049e-07,-0.13900880406364335
342,0.3243,826.408,0.169683,-0.0230389,-7.60143e-05,0.0287726,-0.0228101,0.280851,-0.129181,-0.150076,-7.25436e-08,1.26563e-05,-5.84254e-07,0.279084,0.32425627504963805,-7.254359735142657e-08,1.2656380091291553e-05,-0.12118511434501611,-5.842538293165944e-07,-0.1393574348954888
343,0.3253,826.689,-0.284628,0.122002,0.0243455,-0.102823,0.0600486,0.281606,-0.129534,-0.150478,3.06697e-07,1.05707e-05,6.48219e-07,0.279843,0.3252564660618964,3.066970470921859e-07,1.0570755869965254e-05,-0.12149528125197251,6.482192100865092e-07,-0.1397033436743379
344,0.3263,827.3,0.386671,-0.109148,-0.00874217,0.0930423,-0.0666253,0.28236,-0.129881,-0.150884,-1.5474e-07,1.34813e-05,-1.13599e-06,0.280601,0.3262560862467585,-1.5473998804527156e-07,1.3481390873204546e-05,-0.12180006950555777,-1.1359893548057443e-06,-0.140052553222471
345,0.3273,827.48,-0.460126,0.198103,0.0303593,-0.154534,0.0986542,0.283114,-0.130235,-0.151284,4.33163e-07,9.6843e-06,1.24683e-06,0.281359,0.32725646042946144,4.3316309383811813e-07,9.68434689307962e-06,-0.12211089726119406,1.2468307772905973e-06,-0.14039646341455814
346,0.3283,828.198,0.654608,-0.220332,-0.0188807,0.172387,-0.124005,0.283867,-0.130579,-0.151691,-2.66753e-07,1.45991e-05,-1.91596e-06,0.282116,0.3282562609218087,-2.667529643840538e-07,1.4599206567433853e-05,-0.12241283917554946,-1.915958164566689e-06,-0.14074625086737325
347,0.3293,828.521,0.423626,-0.186772,-0.00134189,0.105604,-0.100258,0.284619,-0.130929,-0.152094,-4.21779e-08,1.40692e-05,-1.92902e-06,0.282873,0.3292554852912961,-4.217789906224567e-08,1.4069298971630673e-05,-0.12271994093589489,-1.929018139446015e-06,-0.14109246036237488
348,0.3303,828.846,-0.092051,0.10674,0.00679189,-0.0495722,0.0407772,0.285371,-0.131281,-0.152493,7.86214e-08,1.18474e-05,-3.28947e-08,0.283629,0.33025546136011275,7.862140316561295e-08,1.1847470180681441e-05,-0.12302868917380771,-3.2894699408814176e-08,-0.1414350961103129
349,0.3313,829.324,0.326933,-0.139787,0.00336929,0.0782242,-0.0735705,0.286123,-0.131627,-0.152897,3.83919e-08,1.38076e-05,-1.68404e-06,0.284384,0.3312561896937496,3.839190076959653e-08,1.380769532532966e-05,-0.12333206875965863,-1.6840385820282577e-06,-0.1417818862751542
350,0.3323,829.604,-0.330562,0.198362,0.0168026,-0.119862,0.0902822,0.286874,-0.131979,-0.153296,2.54091e-07,1.07807e-05,6.52408e-07,0.285139,0.33225633860111703,2.540910322146317e-07,1.0780758112005628e-05,-0.12364060156649548,6.524082127867814e-07,-0.14212424699702442
351,0.3333,830.192,0.513524,-0.212068,-0.00468478,0.132719,-0.11172,0.287624,-0.132322,-0.153701,-4.47355e-08,1.458e-05,-2.21177e-06,0.285893,0.33325590564585506,-4.473549897188178e-08,1.4580106288741845e-05,-0.12394114129464828,-2.211767553994548e-06,-0.14247161632995264
352,0.3343,830.541,0.330327,-0.161902,0.00490952,0.0784163,-0.0850761,0.288374,-0.132671,-0.154102,9.07788e-08,1.41222e-05,-2.13909e-06,0.286647,0.3342562226470751,9.077880402941219e-08,1.4122299718755116e-05,-0.12424683249012003,-2.1390877121829632e-06,-0.14281541627530825
353,0.3353,830.894,-0.0629239,0.0866252,0.0072238,-0.0411723,0.0316895,0.289123,-0.133021,-0.154501,1.35857e-07,1.23988e-05,-5.75233e-07,0.2874,0.33525595491083293,1.3585700919804822e-07,1.2398876865438169e-05,-0.12455329246512448,-5.752328345876023e-07,-0.14315736470096696
354,0.3363,831.345,0.255086,-0.109922,0.00623302,0.0563976,-0.058212,0.289872,-0.133367,-0.154903,1.34794e-07,1.38859e-05,-1.8719e-06,0.288153,0.3362564362545517,1.3479400906568628e-07,1.3885996409612744e-05,-0.12485614462948569,-1.8718982479626334e-06,-0.1435017462150351
355,0.3373,831.656,-0.246252,0.160626,0.0143434,-0.0953855,0.0712786,0.29062,-0.133717,-0.1553,2.74121e-07,1.15536e-05,-2.56274e-08,0.288905,0.337256329982504,2.741210376466796e-07,1.1553666743102653e-05,-0.12516239138255736,-2.5627399646843685e-08,-0.14384170853480216
356,0.3383,832.191,0.396844,-0.162589,-0.000279415,0.0976866,-0.0863857,0.291367,-0.13406,-0.155703,7.66494e-08,1.44483e-05,-2.25539e-06,0.289656,0.338255633654454,7.664940304685786e-08,1.444840437714312e-05,-0.12546240922631158,-2.255387456573388e-06,-0.14418667081169512
357,0.3393,832.404,-0.462195,0.245099,0.0232,-0.158963,0.115529,0.292114,-0.134412,-0.156099,4.41193e-07,1.05093e-05,6.32217e-07,0.290407,0.33925568408512663,4.4119309738910317e-07,1.0509355222954042e-05,-0.12577019228526753,6.322171999251225e-07,-0.14452550579629875
358,0.3403,832.808,-0.346761,0.146455,0.025924,-0.121495,0.0692948,0.292861,-0.134758,-0.156498,5.37814e-07,1.06089e-05,2.78755e-07,0.291158,0.3402564818325591,5.378141445522289e-07,1.0608956274582582e-05,-0.12607262347512382,2.7875503882945907e-07,-0.14486677203234444
359,0.3413,833.359,0.15964,-0.0165221,-0.000176021,0.0254747,-0.0197396,0.293606,-0.135102,-0.156899,1.88516e-07,1.26527e-05,-8.8628e-07,0.291907,0.34125534494183296,1.8851601768510307e-07,1.2652780045696588e-05,-0.12637320279004205,-8.862796072595103e-07,-0.14520961171280955
360,0.3423,833.629,-0.263242,0.115568,0.0231615,-0.0970255,0.0563071,0.294352,-0.13545,-0.157296,5.512e-07,1.07034e-05,2.4509e-07,0.292657,0.3422562947370129,5.512001519658583e-07,1.0703457281602269e-05,-0.1266771720217572,2.4509003004880014e-07,-0.14554889614454358
361,0.3433,834.204,0.354671,-0.0991473,-0.0071424,0.0836054,-0.0609562,0.295097,-0.135792,-0.157696,1.28903e-07,1.33885e-05,-1.40002e-06,0.293405,0.34325664826201163,1.289030082674003e-07,1.33885896262953e-05,-0.126975797361082,-1.4000190199370266e-06,-0.1458906082391107
362,0.3443,834.387,-0.414351,0.181472,0.0283009,-0.141607,0.0895988,0.295841,-0.136142,-0.158091,6.64704e-07,9.92279e-06,7.63921e-07,0.294154,0.3442564030709907,6.647042209984022e-07,9.922839230958047e-06,-0.12728130236551116,7.639212917798233e-07,-0.1462279148264196
363,0.3453,835.052,0.585725,-0.196945,-0.0156158,0.152227,-0.111143,0.296584,-0.136482,-0.158493,4.10261e-08,1.43437e-05,-2.07772e-06,0.294901,0.3452555567180873,4.102610073886126e-08,1.4343802871463751e-05,-0.12757797628528256,-2.077717841553195e-06,-0.14657106222741068
364,0.3463,835.361,0.366248,-0.163542,0.000863753,0.0887155,-0.0881189,0.297327,-0.136827,-0.15889,2.58253e-07,1.37912e-05,-2.0559e-06,0.295648,0.34625545301220284,2.582530334027666e-07,1.3791295099041534e-05,-0.12787890996941875,-2.0558978865992117e-06,-0.1469098062705647
365,0.3473,835.686,-0.0661512,0.0919658,0.00634844,-0.0419619,0.0338169,0.29807,-0.137175,-0.159285,3.43203e-07,1.19127e-05,-4.22703e-07,0.296394,0.34725609250532896,3.4320305886126334e-07,1.1912770956579166e-05,-0.12818235530619837,-4.227029106740332e-07,-0.14724671035415082
366,0.3483,836.126,0.270317,-0.115682,0.00519849,0.0613007,-0.0613085,0.298812,-0.137517,-0.159683,3.3735e-07,1.34945e-05,-1.79168e-06,0.29714,0.34825612749306645,3.373500570003074e-07,1.349459105126627e-05,-0.12848046596085605,-1.7916783949800674e-06,-0.1475860386326232
367,0.3493,836.417,-0.260333,0.166133,0.0146159,-0.0992366,0.0740896,0.299553,-0.137864,-0.160077,4.94742e-07,1.10286e-05,1.33409e-07,0.297886,0.3492555555258945,4.947421223810977e-07,1.1028660815259883e-05,-0.1287828307758383,1.3340900895109087e-07,-0.14792182357942363
368,0.3503,836.945,0.411834,-0.169555,-0.00112158,0.102599,-0.0899305,0.300294,-0.138204,-0.160476,2.79822e-07,1.40623e-05,-2.18285e-06,0.298631,0.35025572440934605,2.7982203909537873e-07,1.4062398874692406e-05,-0.12907899426272873,-2.182847617548944e-06,-0.1482617349549865
369,0.3513,837.138,-0.478266,0.251226,0.0236151,-0.163452,0.118672,0.301035,-0.138553,-0.160868,6.626e-07,9.97584e-06,7.92296e-07,0.299375,0.3512566346925947,6.626002195808667e-07,9.975889758928602e-06,-0.12938289266037606,7.922963138895511e-07,-0.14859555092267984
370,0.3523,837.532,-0.349718,0.148523,0.0256459,-0.122139,0.0702043,0.301774,-0.138896,-0.161264,7.48844e-07,1.01309e-05,4.10292e-07,0.300119,0.35225558241135246,7.488442803627038e-07,1.0130951317632864e-05,-0.12968146312043238,4.102920840853841e-07,-0.1489326403364054
371,0.3533,838.068,0.152879,-0.0159344,6.83796e-05,0.0239965,-0.0191179,0.302514,-0.139237,-0.161661,4.05951e-07,1.21651e-05,-7.55799e-07,0.300862,0.35325662188126006,4.0595108230512267e-07,1.2165173995049017e-05,-0.12997819114650455,-7.557987143913536e-07,-0.14927044701912862
372,0.3543,838.33,-0.256373,0.113785,0.0224145,-0.0947622,0.0551072,0.303252,-0.139582,-0.162055,7.54175e-07,1.02705e-05,3.46323e-07,0.301605,0.3542556938804313,7.541752844453242e-07,1.0270552741831196e-05,-0.13027829689934,3.463230600075917e-07,-0.14960556843974793
373,0.3553,838.884,0.3409,-0.0963266,-0.00654678,0.0801346,-0.0591122,0.30399,-0.139922,-0.162451,3.50022e-07,1.28735e-05,-1.25266e-06,0.302346,0.35525550346687407,3.5002206133505354e-07,1.287358286394813e-05,-0.13057395201417654,-1.2526592154671334e-06,-0.1499422579657198
374,0.3563,839.065,-0.394944,0.17511,0.0270002,-0.135703,0.0859325,0.304728,-0.140268,-0.162843,8.58412e-07,9.54612e-06,8.26975e-07,0.303088,0.3562560511851287,8.58412368520689e-07,9.546165564255915e-06,-0.1308747213906769,8.269753419831716e-07,-0.150275415297494
375,0.3573,839.703,0.554653,-0.18768,-0.0142665,0.143723,-0.105856,0.305465,-0.140605,-0.163241,2.71685e-07,1.37559e-05,-1.88206e-06,0.303829,0.3572559803234787,2.71685036912217e-07,1.3755994612729694e-05,-0.13116756726226741,-1.8820582289302834e-06,-0.1506135383912467
376,0.3583,840.002,0.339338,-0.152852,0.00162305,0.0813172,-0.0825336,0.306202,-0.140948,-0.163634,4.83711e-07,1.31876e-05,-1.83577e-06,0.30457,0.3582566466812358,4.837111169386787e-07,1.318768695668382e-05,-0.1314655256839059,-1.8357683150282966e-06,-0.15094728168580596
377,0.3593,840.323,-0.0536633,0.0842354,0.00591454,-0.0377548,0.0301948,0.306937,-0.141292,-0.164026,5.51884e-07,1.14729e-05,-3.30264e-07,0.30531,0.35925533228854767,5.51884152377724e-07,1.1472965814052216e-05,-0.1317642501595151,-3.3026394541391113e-07,-0.15128004512548987
378,0.3603,840.742,0.242883,-0.103909,0.00575247,0.0535941,-0.0553989,0.307673,-0.141632,-0.164421,5.60397e-07,1.28731e-05,-1.55984e-06,0.306049,0.36025611245503675,5.603971571233046e-07,1.2873182858808008e-05,-0.1320594001361215,-1.5598387834714345e-06,-0.15161522330561672
379,0.3613,841.034,-0.226477,0.149989,0.0133428,-0.0887596,0.0660079,0.308408,-0.141976,-0.164811,6.90504e-07,1.06801e-05,1.62527e-07,0.306788,0.3612562682099054,6.905042384541815e-07,1.0680157032538773e-05,-0.13235792035405336,1.6252701318109075e-07,-0.15194602885725195
380,0.3623,841.531,0.36235,-0.148708,0.000271411,0.0884281,-0.0793317,0.309142,-0.142313,-0.165207,5.13815e-07,1.33442e-05,-1.88475e-06,0.307526,0.36225579709299627,5.138151319972195e-07,1.3344289034211698e-05,-0.13265026647180644,-1.8847482238237845e-06,-0.15228179174438505
381,0.3633,841.739,-0.412129,0.222206,0.0210816,-0.143493,0.103856,0.309876,-0.142659,-0.165595,8.38772e-07,9.77201e-06,7.22786e-07,0.308264,0.3632560598996044,8.38772351796635e-07,9.772057746326723e-06,-0.1329503175677742,7.227862612868563e-07,-0.15261064260799517
382,0.3643,842.341,0.587316,-0.238473,-0.00897668,0.154934,-0.126096,0.310609,-0.142993,-0.165992,4.13298e-07,1.42783e-05,-2.52113e-06,0.309001,0.36425569291225246,4.132980853110979e-07,1.4278401935463592e-05,-0.13323986380479325,-2.5211268219749172e-06,-0.15294698941362128
383,0.3653,842.644,0.363541,-0.173964,0.00281876,0.0885564,-0.0914983,0.311342,-0.143334,-0.166383,5.74091e-07,1.36764e-05,-2.35927e-06,0.309738,0.36525605892450996,5.740911648288716e-07,1.3676493522352118e-05,-0.13353537862309572,-2.3592672169225892e-06,-0.15327812240004302
384,0.3663,842.954,-0.0614896,0.0829677,0.00718692,-0.0403596,0.0302697,0.312074,-0.143677,-0.166773,6.46428e-07,1.18182e-05,-7.41653e-07,0.310474,0.3662557922173879,6.464282089613249e-07,1.1818269835206507e-05,-0.13383252502470688,-7.416527250114768e-07,-0.15360827954747858
385,0.3673,843.374,0.258817,-0.111354,0.00548574,0.057859,-0.0591137,0.312806,-0.144015,-0.167165,6.33724e-07,1.33259e-05,-2.02845e-06,0.31121,0.3672562575829419,6.337242008935817e-07,1.332598879022484e-05,-0.13412524015960403,-2.0284479427257196e-06,-0.15394000008042363
386,0.3683,843.651,-0.243553,0.15571,0.0144463,-0.0943053,0.0691826,0.313537,-0.144357,-0.167554,7.84826e-07,1.09805e-05,-2.12363e-07,0.311945,0.3682560873004743,7.8482630794241e-07,1.0980560285922536e-05,-0.13442131869515395,-2.1236297742532884e-07,-0.15426905341536934
387,0.3693,844.15,0.382434,-0.157093,-0.000301911,0.0938885,-0.083607,0.314268,-0.144693,-0.167947,5.84056e-07,1.38135e-05,-2.36359e-06,0.312679,0.36925664816073045,5.840561705383607e-07,1.381359540686411e-05,-0.1347121042773588,-2.363587206732909e-06,-0.15460136037478256
388,0.3703,844.34,-0.435939,0.231236,0.0223649,-0.151088,0.108665,0.314998,-0.145037,-0.168334,9.37197e-07,1.0037e-05,3.69004e-07,0.313414,0.37025657044111515,9.3719743921028e-07,1.0037050370836909e-05,-0.1350097121220033,3.6900406819029286e-07,-0.15492846634922897
389,0.3713,844.948,0.614099,-0.24991,-0.00978514,0.16243,-0.131886,0.315727,-0.145369,-0.168728,4.81186e-07,1.47761e-05,-3.02151e-06,0.314147,0.3712558516747215,4.811861158415809e-07,1.477620916712219e-05,-0.1352968412315093,-3.0215054352966675e-06,-0.15526135894933868
390,0.3723,845.242,0.376723,-0.17961,0.00255524,0.0919529,-0.0942991,0.316456,-0.145709,-0.169118,6.48952e-07,1.41261e-05,-2.82857e-06,0.31488,0.3722558616499412,6.48952210635656e-07,1.412619977392282e-05,-0.13559079033131194,-2.8285659996463153e-06,-0.15559074278532548
391,0.3733,845.541,-0.0621164,0.082637,0.00753587,-0.041058,0.0302449,0.317185,-0.14605,-0.169505,7.30368e-07,1.22072e-05,-1.17728e-06,0.315612,0.37325660089822055,7.303682667547662e-07,1.2207274508124755e-05,-0.13588550362033736,-1.1772793070408127e-06,-0.15591746594285882
392,0.3743,845.956,0.263051,-0.113267,0.00555634,0.0586074,-0.0600468,0.317912,-0.146386,-0.169896,7.14026e-07,1.37384e-05,-2.47687e-06,0.316344,0.374255321438002,7.140262550109355e-07,1.3738494372139698e-05,-0.1361757973190485,-2.4768669325547776e-06,-0.15624743769999283
393,0.3753,846.224,-0.24657,0.156303,0.0149065,-0.095741,0.0696157,0.31864,-0.146727,-0.170282,8.71523e-07,1.1356e-05,-6.44296e-07,0.317076,0.37525614356706205,8.715233796863231e-07,1.1356064479661754e-05,-0.13647031115469976,-6.442957924956971e-07,-0.15657306333924914
394,0.3763,846.718,0.384221,-0.158088,-0.000138166,0.0939303,-0.0840458,0.319367,-0.147061,-0.170674,6.66811e-07,1.42128e-05,-2.80578e-06,0.317806,0.3762563183029002,6.668112222385503e-07,1.4212901002341738e-05,-0.13675868191017715,-2.805776063818932e-06,-0.1569036219047084
395,0.3773,846.9,-0.436502,0.23097,0.0227188,-0.151828,0.108626,0.320093,-0.147403,-0.171058,1.0237e-06,1.04187e-05,-7.11309e-08,0.318537,0.37725584317361394,1.0237005239055463e-06,1.0418754274876818e-05,-0.13705385996263986,-7.113089750543367e-08,-0.15722730876204294
396,0.3783,847.501,0.61113,-0.249192,-0.00941695,0.161109,-0.131396,0.320819,-0.147734,-0.171451,5.68032e-07,1.5152e-05,-3.45047e-06,0.319266,0.37825609396286053,5.68032161307741e-07,1.5152114792194027e-05,-0.13733944786758645,-3.4504640471499926e-06,-0.15755845335552476
397,0.3793,847.788,0.370715,-0.17698,0.00297912,0.0896946,-0.0928942,0.321544,-0.148072,-0.171838,7.37902e-07,1.44781e-05,-3.23975e-06,0.319996,0.37925569194146624,7.379022721742956e-07,1.4478204808154871e-05,-0.1376309778628626,-3.2397447520260414e-06,-0.1578844151563994
398,0.3803,848.082,-0.0575442,0.079679,0.00774618,-0.0401854,0.0289398,0.322269,-0.148411,-0.172224,8.17032e-07,1.26007e-05,-1.62703e-06,0.320725,0.38025601489137695,8.170323337886032e-07,1.2600779389249084e-05,-0.13792327141481076,-1.627028676343123e-06,-0.15820940904429348
399,0.3813,848.488,0.254123,-0.109398,0.0060558,0.0554459,-0.058054,0.322993,-0.148745,-0.172612,8.05655e-07,1.40693e-05,-2.87822e-06,0.321453,0.38125568208201455,8.056553244539799e-07,1.4069398972971214e-05,-0.13821115696259545,-2.8782158579820916e-06,-0.15853596043851714
400,0.3823,848.754,-0.235033,0.150506,0.0148584,-0.0928241,0.0668123,0.323717,-0.149084,-0.172997,9.55796e-07,1.1775e-05,-1.11564e-06,0.322181,0.3822560732937621,9.557964568696065e-07,1.1775069325592469e-05,-0.13850325386716245,-1.1156393776579066e-06,-0.1588598617387471
401,0.3833,849.235,0.366792,-0.150761,0.000687721,0.0882793,-0.0802601,0.32444,-0.149417,-0.173386,7.64372e-07,1.45021e-05,-3.1818e-06,0.322908,0.38325580579450347,7.643722921280016e-07,1.450220515586409e-05,-0.13879008452366992,-3.181794938078575e-06,-0.15918700161969868
402,0.3843,849.421,-0.413013,0.220402,0.0222013,-0.145398,0.103328,0.325163,-0.149757,-0.173769,1.10239e-06,1.08867e-05,-5.78936e-07,0.323634,0.38425626136320035,1.1023906076879086e-06,1.088675926030902e-05,-0.13908284612263977,-5.789358323848859e-07,-0.15950897133694164
403,0.3853,850.002,0.577654,-0.235407,-0.00795871,0.150741,-0.124255,0.325885,-0.150087,-0.174159,6.7593e-07,1.53667e-05,-3.77897e-06,0.32436,0.3852560552660722,6.75930228455357e-07,1.5366818068240917e-05,-0.13936690191163625,-3.7789628597462155e-06,-0.1598366989270863
404,0.3863,850.284,0.345599,-0.1659,0.00403518,0.0818208,-0.0872312,0.326607,-0.150423,-0.174544,8.43254e-07,1.46974e-05,-3.56787e-06,0.325086,0.3862565712807928,8.432543554537375e-07,1.4697508007310844e-05,-0.13965602605701743,-3.5678636352010074e-06,-0.1601600995393868
405,0.3873,850.58,-0.0482972,0.0743585,0.00780966,-0.0378642,0.0264815,0.327328,-0.15076,-0.174928,9.09279e-07,1.29617e-05,-2.06454e-06,0.325811,0.38725642267179916,9.092794133191973e-07,1.2961784003229226e-05,-0.13994591312752136,-2.0645378688843863e-06,-0.16048253614937247
406,0.3883,850.973,0.232783,-0.100014,0.00693171,0.0486234,-0.0532824,0.328048,-0.151093,-0.175315,9.10785e-07,1.42869e-05,-3.21023e-06,0.326536,0.3882556069593015,9.107854148648897e-07,1.4287002058299691e-05,-0.14023226345847373,-3.2102248471721495e-06,-0.16080736654914618
407,0.3893,851.243,-0.21012,0.138782,0.0143291,-0.0858643,0.0610133,0.328768,-0.15143,-0.175697,1.04089e-06,1.2198e-05,-1.59832e-06,0.32726,0.3892555109185418,1.040890541759154e-06,1.2198074395897152e-05,-0.140521956369691,-1.5983187227064377e-06,-0.1611278769137472
408,0.3903,851.704,0.331899,-0.135795,0.00208541,0.0774792,-0.0726109,0.329488,-0.151762,-0.176084,8.78267e-07,1.46546e-05,-3.47246e-06,0.327983,0.39025613506786994,8.782673857066214e-07,1.4654707379158083e-05,-0.1408072557178639,-3.472453971031797e-06,-0.16145245761496485
409,0.3913,851.903,-0.368016,0.200519,0.0208949,-0.132504,0.0932915,0.330207,-0.1521,-0.176466,1.17722e-06,1.13958e-05,-1.12233e-06,0.328706,0.39125608866922534,1.17722069292725e-06,1.1395864932373101e-05,-0.14109761379215235,-1.1223293702178339e-06,-0.16177272160183997
410,0.3923,852.452,0.517309,-0.209995,-0.00557646,0.132421,-0.111216,0.330925,-0.152428,-0.176853,8.05223e-07,1.54019e-05,-3.99345e-06,0.329429,0.3922553692396853,8.052233242406004e-07,1.540201860983359e-05,-0.14137928757780238,-3.993442026173355e-06,-0.16209705279644604
411,0.3933,852.733,0.304282,-0.147584,0.00559669,0.0692115,-0.0779354,0.331643,-0.152763,-0.177237,9.65517e-07,1.47662e-05,-3.79992e-06,0.330151,0.3932553675512329,9.655174662004384e-07,1.4766309020863844e-05,-0.14166687734248873,-3.799912780322323e-06,-0.16241874575917037
412,0.3943,853.035,-0.0356209,0.0672568,0.00774648,-0.0344344,0.0231574,0.332361,-0.153098,-0.177619,1.00958e-06,1.32554e-05,-2.46453e-06,0.330872,0.3942560841193916,1.0095805096366206e-06,1.3255487853136572e-05,-0.14195437078073936,-2.4645269630640954e-06,-0.16273864069446775
413,0.3953,853.412,0.201629,-0.0862195,0.0080752,0.0389394,-0.046299,0.333078,-0.15343,-0.178003,1.02992e-06,1.4374e-05,-3.46009e-06,0.331593,0.39525612420323264,1.0299205304153958e-06,1.4374103306513675e-05,-0.14223919464626233,-3.460084013862108e-06,-0.1630600873347362
414,0.3963,853.692,-0.174992,0.122469,0.0134147,-0.0757665,0.0529035,0.333794,-0.153765,-0.178384,1.13024e-06,1.25823e-05,-2.06174e-06,0.332314,0.3962554853167468,1.130240638635982e-06,1.2582379157466406e-05,-0.14252649639032677,-2.0617378746479176e-06,-0.16337890070365824
415,0.3973,854.127,0.283864,-0.115004,0.00387902,0.0628359,-0.0620301,0.33451,-0.154095,-0.178769,1.00793e-06,1.4661e-05,-3.67028e-06,0.333033,0.39725556222904346,1.0079305079457868e-06,1.4661107472946355e-05,-0.1428094159622212,-3.670273264533286e-06,-0.16370093783076256
416,0.3983,854.346,-0.307176,0.173674,0.0189932,-0.114792,0.0797281,0.335226,-0.154431,-0.179149,1.25296e-06,1.18924e-05,-1.66321e-06,0.333753,0.39825635545281846,1.2529607849032232e-06,1.1892470714869319e-05,-0.1430973836171826,-1.6632086168311133e-06,-0.16401867110124202
417,0.3993,854.855,0.437601,-0.176084,-0.00256989,0.1084,-0.093886,0.335941,-0.154759,-0.179534,9.53453e-07,1.52627e-05,-4.09608e-06,0.334472,0.39925646624396816,9.534534546329354e-07,1.5262816475569707e-05,-0.14337840158588988,-4.096071611114915e-06,-0.1643404619641522
418,0.4003,854.982,-0.501514,0.252041,0.0267271,-0.172267,0.120445,0.336655,-0.155096,-0.179912,1.40776e-06,1.09139e-05,-1.0657e-06,0.33519,0.40025589211344315,1.4077609908902389e-06,1.091395955676866e-05,-0.1436670344271901,-1.0656994321456281e-06,-0.16465628157586265
419,0.4013,855.346,-0.332191,0.14198,0.025674,-0.119278,0.0669983,0.337369,-0.155427,-0.180294,1.45066e-06,1.12609e-05,-1.53224e-06,0.335908,0.40125603182780134,1.450661052171398e-06,1.1260963404202684e-05,-0.14395043373362193,-1.5322388261518327e-06,-0.1649753219357123
420,0.4023,855.818,0.117852,-0.00943351,0.00313189,0.0122486,-0.0142966,0.338082,-0.155756,-0.180676,1.15105e-06,1.30874e-05,-2.58192e-06,0.336625,0.40225548364072505,1.1510506625622696e-06,1.3087485640328467e-05,-0.1442320277161735,-2.581916666799522e-06,-0.1652942404454194
421,0.4033,856.061,-0.210342,0.0975673,0.0207756,-0.0834308,0.0462397,0.338795,-0.156089,-0.181056,1.4345e-06,1.15279e-05,-1.68664e-06,0.337342,0.40325564831689675,1.4345010288518978e-06,1.152796644654508e-05,-0.14451695100858286,-1.686638577580446e-06,-0.16561136837592716
422,0.4043,856.534,0.268267,-0.0755906,-0.00192531,0.0574562,-0.0468725,0.339508,-0.156418,-0.181439,1.12073e-06,1.36241e-05,-2.9778e-06,0.338059,0.4042565263647695,1.1207306280791585e-06,1.3624192808370239e-05,-0.14479835863760782,-2.9777955663501388e-06,-0.16593087803183437
423,0.4053,856.72,-0.297091,0.138939,0.0231737,-0.109196,0.0665347,0.340219,-0.156752,-0.181817,1.51046e-06,1.10187e-05,-1.36452e-06,0.338775,0.4052553077797325,1.5104611408300883e-06,1.1018760706082986e-05,-0.14508394828969595,-1.3645190690692033e-06,-0.16624609657987943
424,0.4063,857.244,0.410689,-0.138934,-0.00673474,0.100128,-0.0789217,0.340931,-0.157078,-0.1822,1.08802e-06,1.41799e-05,-3.40089e-06,0.33949,0.4062562058362966,1.0880205918439856e-06,1.418000053532431e-05,-0.14536260549896052,-3.400884217019673e-06,-0.16656536318143245
425,0.4073,857.355,-0.463038,0.21231,0.0286817,-0.158613,0.103588,0.341642,-0.157414,-0.182576,1.63003e-06,1.01661e-05,-8.19002e-07,0.340205,0.4072564095289235,1.630031328581083e-06,1.0166151674928514e-05,-0.14564971542634397,-8.190016645981402e-07,-0.16687867569843173
426,0.4083,857.967,0.621211,-0.231279,-0.0140781,0.162993,-0.125597,0.342352,-0.157738,-0.18296,1.01672e-06,1.50527e-05,-4.03378e-06,0.340919,0.40825591636262737,1.016720516888725e-06,1.5052813292504297e-05,-0.14592648008025078,-4.033771864309088e-06,-0.16719853287045616
427,0.4093,858.213,0.35575,-0.163978,0.00212925,0.0848829,-0.0871692,0.343062,-0.158068,-0.183339,1.23757e-06,1.42556e-05,-3.79871e-06,0.341633,0.40925613309816855,1.2375707658662805e-06,1.4255701611620708e-05,-0.14620827784263613,-3.798702784885144e-06,-0.16751410482183604
428,0.4103,858.486,-0.0394728,0.0710561,0.00697127,-0.0350222,0.0247479,0.343771,-0.1584,-0.183716,1.31617e-06,1.25153e-05,-2.32517e-06,0.342346,0.41025564998340114,1.3161708660724969e-06,1.2515378316590997e-05,-0.1464916896454299,-2.325167296812758e-06,-0.16782789285155808
429,0.4113,858.855,0.223208,-0.0959888,0.00681057,0.0460891,-0.0512741,0.34448,-0.158728,-0.184096,1.32679e-06,1.37653e-05,-3.41478e-06,0.343059,0.4112558757773839,1.326790880273876e-06,1.376539474207128e-05,-0.14677159446432653,-3.4147741696521905e-06,-0.16814405817705813
430,0.4123,859.111,-0.194692,0.130558,0.0136432,-0.0810283,0.05699,0.345188,-0.15906,-0.184473,1.44785e-06,1.17826e-05,-1.89467e-06,0.343771,0.4122553987268063,1.4478510481641393e-06,1.1782669415039138e-05,-0.1470548192770439,-1.8946682051046437e-06,-0.16845760875912696
431,0.4133,859.543,0.3061,-0.125643,0.0026642,0.0701988,-0.0673639,0.345896,-0.159386,-0.184853,1.3025e-06,1.40638e-05,-3.63307e-06,0.344483,0.4132556295890484,1.3025008482880907e-06,1.4063898895688709e-05,-0.1473328340870833,-3.6330634004544393e-06,-0.1687735348380418
432,0.4143,859.738,-0.332128,0.183842,0.0194613,-0.121655,0.0848933,0.346604,-0.159718,-0.185228,1.57189e-06,1.10713e-05,-1.48463e-06,0.345194,0.41425656886549,1.571891235396805e-06,1.1071361287084969e-05,-0.14761587259917364,-1.484628897929774e-06,-0.1690851863241718
433,0.4153,860.246,0.462726,-0.188294,-0.00385906,0.11668,-0.0999558,0.34731,-0.160042,-0.18561,1.24429e-06,1.46859e-05,-4.07043e-06,0.345905,0.41525538654426253,1.244290774193857e-06,1.4686007838271564e-05,-0.14789200032134497,-4.07042171579608e-06,-0.16940253516550818
434,0.4163,860.513,0.261265,-0.128395,0.00661861,0.0568572,-0.0682179,0.348017,-0.160371,-0.185987,1.39845e-06,1.40474e-05,-3.86298e-06,0.346615,0.41625632589291595,1.3984509779074727e-06,1.4047498665181735e-05,-0.1481722977417853,-3.862972538737353e-06,-0.16971561139117408
435,0.4173,860.808,-0.0192457,0.0566025,0.0072725,-0.0290984,0.018274,0.348723,-0.160701,-0.186362,1.42112e-06,1.27854e-05,-2.7258e-06,0.347325,0.4172565558986423,1.4211210097592186e-06,1.2785481733557091e-05,-0.14845335450661368,-2.725796285019122e-06,-0.17002690966482803
436,0.4183,861.156,0.163526,-0.0692452,0.00881541,0.0278954,-0.0378249,0.349428,-0.161028,-0.18674,1.45939e-06,1.36515e-05,-3.52754e-06,0.348035,0.41825607405930376,1.4593910648841302e-06,1.365159318211795e-05,-0.14873176473713645,-3.527533778191483e-06,-0.17034058020550769
437,0.4193,861.434,-0.131106,0.100468,0.0119192,-0.0622872,0.0420924,0.350133,-0.161357,-0.187115,1.52599e-06,1.22285e-05,-2.40486e-06,0.348743,0.4192562971287195,1.5259911643195068e-06,1.2228574768347045e-05,-0.14901178592052744,-2.4048571083401526e-06,-0.17065164415979395
438,0.4203,861.827,0.221401,-0.0879617,0.00555626,0.044631,-0.048366,0.350837,-0.161682,-0.187493,1.44955e-06,1.38289e-05,-3.66505e-06,0.349452,0.42025580534751006,1.449551050525244e-06,1.382899561974682e-05,-0.14928831215215665,-3.6650432837515012e-06,-0.17096507859546117
439,0.4213,862.061,-0.227685,0.137146,0.0161284,-0.0907872,0.0613903,0.351541,-0.162012,-0.187867,1.62712e-06,1.16989e-05,-2.11559e-06,0.35016,0.42125601746783103,1.6271213236773718e-06,1.1698968432449774e-05,-0.14956900069298995,-2.1155877620859798e-06,-0.17127507968224975
440,0.4223,862.507,0.330279,-0.1306,0.00084229,0.0769274,-0.0707037,0.352244,-0.162336,-0.188246,1.41872e-06,1.4231e-05,-3.95826e-06,0.350867,0.42225551172918063,1.4187210064520173e-06,1.423110126119731e-05,-0.14984449570416358,-3.958252166147425e-06,-0.17158910691513063
441,0.4233,862.675,-0.363702,0.191661,0.0216201,-0.131031,0.089746,0.352947,-0.162666,-0.188618,1.74747e-06,1.09837e-05,-1.69638e-06,0.351574,0.42325570888203323,1.7474715268139818e-06,1.0983760321048308e-05,-0.15012500073470558,-1.6963785611778803e-06,-0.17189721845505856
442,0.4243,863.197,0.495693,-0.198607,-0.00574327,0.126136,-0.105756,0.35365,-0.162988,-0.188997,1.35986e-06,1.48925e-05,-4.42882e-06,0.35228,0.42425660942069543,1.3598609245324411e-06,1.4892610893824099e-05,-0.15039861642997798,-4.4288101928025014e-06,-0.1722110099420212
443,0.4253,863.451,0.276792,-0.134126,0.00592017,0.0612014,-0.0712239,0.354351,-0.163315,-0.189372,1.52884e-06,1.41935e-05,-4.19321e-06,0.352986,0.42525536332624414,1.5288411687741643e-06,1.4193600728296119e-05,-0.15067639066384297,-4.193201208479991e-06,-0.17252137261665446
444,0.4263,863.735,-0.0197396,0.0566708,0.00735037,-0.0294773,0.0183657,0.355053,-0.163643,-0.189745,1.56217e-06,1.28626e-05,-3.01777e-06,0.353691,0.4262562438592632,1.5621712201596694e-06,1.2862682723602248e-05,-0.15095492312588432,-3.017765446533538e-06,-0.17282996458868782
445,0.4273,864.077,0.168709,-0.071615,0.00867901,0.0292201,-0.0390031,0.355754,-0.163968,-0.19012,1.59717e-06,1.37578e-05,-3.83776e-06,0.354396,0.4272563999999792,1.5971712754581091e-06,1.375789463886612e-05,-0.1512308179405325,-3.8377526357935565e-06,-0.17314009519884332
446,0.4283,864.347,-0.135337,0.101658,0.0122175,-0.0637828,0.042798,0.356454,-0.164295,-0.190493,1.67032e-06,1.22889e-05,-2.69091e-06,0.355101,0.428255829239403,1.6703213949753604e-06,1.2288975508756295e-05,-0.15150832008899195,-2.6909063794988697e-06,-0.1734484564303893
447,0.4293,864.735,0.22517,-0.0898708,0.0054851,0.0455443,-0.0492852,0.357154,-0.164618,-0.190869,1.5884e-06,1.39285e-05,-3.97275e-06,0.355804,0.4292559583242117,1.5884012614097998e-06,1.3928597001999776e-05,-0.15178233864522406,-3.9727421086155346e-06,-0.17375918139081814
448,0.4303,864.96,-0.231446,0.13817,0.0164104,-0.0921589,0.0620046,0.357853,-0.164946,-0.19124,1.77161e-06,1.17591e-05,-2.40427e-06,0.356508,0.43025535748839583,1.7716115692234524e-06,1.1759169138425563e-05,-0.1520605084158122,-2.4042671097346258e-06,-0.17406565987924716
449,0.4313,865.401,0.332232,-0.131893,0.00085351,0.0773254,-0.0712796,0.358552,-0.165268,-0.191616,1.55897e-06,1.4322e-05,-4.2616e-06,0.357211,0.43125545547680644,1.5589712152319635e-06,1.432210256036015e-05,-0.15233350097794096,-4.261590919374392e-06,-0.17437615281480268
450,0.4323,865.562,-0.364645,0.191698,0.0217723,-0.131591,0.0898183,0.359251,-0.165596,-0.191986,1.89049e-06,1.10537e-05,-1.99404e-06,0.357913,0.43225625277809243,1.890491786893378e-06,1.1053761092449932e-05,-0.15261148999692886,-1.9940380119320977e-06,-0.1746815771312783
451,0.4333,866.077,0.493197,-0.198274,-0.00553678,0.125248,-0.105458,0.359949,-0.165916,-0.192363,1.50315e-06,1.49633e-05,-4.72006e-06,0.358615,0.43325631662421094,1.5031511297891598e-06,1.4963411950841277e-05,-0.15288261093846567,-4.720048860540338e-06,-0.1749926635332285
452,0.4343,866.324,0.271796,-0.131913,0.00613015,0.0595201,-0.0700512,0.360646,-0.166241,-0.192735,1.67304e-06,1.42442e-05,-4.46843e-06,0.359316,0.43425564450220655,1.6730413996413063e-06,1.4244301449028995e-05,-0.15315787935636982,-4.4684200165567844e-06,-0.17529950918556425
453,0.4353,866.603,-0.0163583,0.054109,0.00743534,-0.0286521,0.0172598,0.361343,-0.166567,-0.193106,1.70484e-06,1.29469e-05,-3.32515e-06,0.360017,0.43525566915453084,1.7048414533427092e-06,1.2946983811490398e-05,-0.1534339048930925,-3.325144471655328e-06,-0.17560541631837445
454,0.4363,866.937,0.161887,-0.0685806,0.00891807,0.0269574,-0.0374694,0.36204,-0.166889,-0.193479,1.74243e-06,1.37945e-05,-4.107e-06,0.360718,0.43625639106700476,1.7424315179592753e-06,1.3794595144611677e-05,-0.15370645529274773,-4.106991566277252e-06,-0.1759128581566204
455,0.4373,867.203,-0.12716,0.0971165,0.0121256,-0.0615439,0.0406453,0.362736,-0.167215,-0.19385,1.81084e-06,1.23916e-05,-3.01345e-06,0.361418,0.43725637346869584,1.8108416395268279e-06,1.239167677624664e-05,-0.15398230202286223,-3.013445459609798e-06,-0.17621853777916807
456,0.4383,867.58,0.212899,-0.0845849,0.00593151,0.0416788,-0.0465888,0.363431,-0.167536,-0.194223,1.73696e-06,1.39391e-05,-4.22608e-06,0.362117,0.43825561384406564,1.7369615086249013e-06,1.3939197149648308e-05,-0.15425383012132154,-4.22607107009032e-06,-0.1765257509657554
457,0.4393,867.805,-0.215823,0.130601,0.0160288,-0.0877187,0.0582829,0.364126,-0.167862,-0.194592,1.90821e-06,1.18933e-05,-2.74986e-06,0.362816,0.4392555489328811,1.908211820556005e-06,1.1893370725601926e-05,-0.15452949843632524,-2.7498562191752285e-06,-0.1768295569080054
458,0.4403,868.231,0.310394,-0.122693,0.00167112,0.0706336,-0.066559,0.364821,-0.168182,-0.194965,1.7132e-06,1.42882e-05,-4.48696e-06,0.363515,0.4402561792181361,1.7132014675791396e-06,1.4288302076836956e-05,-0.15480000571335295,-4.486949933601991e-06,-0.17713654222695752
459,0.4413,868.398,-0.336631,0.179076,0.0209085,-0.123487,0.0834762,0.365515,-0.168508,-0.195333,2.02032e-06,1.12419e-05,-2.37761e-06,0.364213,0.4412560639263756,2.0203220407744027e-06,1.1241963190355975e-05,-0.15507549600413317,-2.377607173476015e-06,-0.17743930026852162
460,0.4423,868.89,0.455393,-0.182494,-0.00410224,0.113831,-0.0973468,0.366209,-0.168826,-0.195707,1.66666e-06,1.48564e-05,-4.89813e-06,0.36491,0.4422566427954484,1.6666613888993709e-06,1.4856510356819896e-05,-0.15534413927985924,-4.898118004192931e-06,-0.17774688044914222
461,0.4433,868.974,-0.512155,0.252175,0.0275583,-0.175625,0.121044,0.366902,-0.169154,-0.196073,2.15864e-06,1.03372e-05,-1.83223e-06,0.365608,0.443256473050075,2.158642329774807e-06,1.0337253429026916e-05,-0.15562114097141455,-1.8322283215077562e-06,-0.1780477700247466
462,0.4443,869.315,-0.314331,0.135635,0.0245425,-0.114356,0.0636883,0.367594,-0.169475,-0.196444,2.1702e-06,1.08355e-05,-2.3664e-06,0.366304,0.4442555521709328,2.1702023549341476e-06,1.083555870429187e-05,-0.15589214308699617,-2.3663972000820266e-06,-0.1783526577418989
463,0.4453,869.741,0.0915003,-0.00380271,0.00450097,0.00471043,-0.0105129,0.368286,-0.169795,-0.196815,1.90362e-06,1.24921e-05,-3.31592e-06,0.367,0.4452553228938092,1.9036218119605763e-06,1.2492178026679568e-05,-0.15616221438749567,-3.315914502310946e-06,-0.17865743236668785
464,0.4463,869.971,-0.175554,0.0845589,0.0187715,-0.0733777,0.039203,0.368978,-0.170118,-0.197184,2.13826e-06,1.11944e-05,-2.58193e-06,0.367696,0.44625578569745783,2.138262286122128e-06,1.1194462657515558e-05,-0.1564347299786113,-2.5819266668003493e-06,-0.1789604518636091
465,0.4473,870.386,0.216232,-0.059906,0.000474329,0.0423915,-0.0379181,0.369669,-0.170437,-0.197554,1.88623e-06,1.29208e-05,-3.64336e-06,0.368391,0.4472554938047475,1.8862317789913874e-06,1.2920883473821476e-05,-0.1567037843832889,-3.6433533630031434e-06,-0.17926418030319324
466,0.4483,870.574,-0.229852,0.112715,0.0198935,-0.0895695,0.0526627,0.37036,-0.170761,-0.197921,2.19389e-06,1.08303e-05,-2.36261e-06,0.369086,0.448255892949065,2.1938924066322585e-06,1.083035864790638e-05,-0.15697696809899697,-2.362607209094314e-06,-0.1795653350837395
467,0.4493,871.021,0.315062,-0.105423,-0.00264327,0.0721853,-0.0607375,0.37105,-0.171079,-0.198292,1.87665e-06,1.32823e-05,-3.93929e-06,0.36978,0.44925553435182297,1.8766517608792554e-06,1.3282388210189566e-05,-0.1572450068027289,-3.939282240961184e-06,-0.17986965988868153
468,0.4503,871.16,-0.338937,0.162719,0.0232324,-0.12219,0.0776324,0.37174,-0.171403,-0.198658,2.28034e-06,1.02306e-05,-1.99388e-06,0.370474,0.4502558657451683,2.280342600080587e-06,1.0230652332854362e-05,-0.15751801519077768,-1.993878012251926e-06,-0.18016977266917333
469,0.4513,871.662,0.450972,-0.166797,-0.00714403,0.112971,-0.0914977,0.372429,-0.171719,-0.19903,1.84544e-06,1.38208e-05,-4.35001e-06,0.371167,0.45125543634919674,1.8454417027857772e-06,1.3820895507610231e-05,-0.1577841974389671,-4.350000538666521e-06,-0.18047469279508066
470,0.4523,871.731,-0.501962,0.235333,0.0286049,-0.170882,0.11422,0.373118,-0.172045,-0.199394,2.39662e-06,9.38433e-06,-1.46426e-06,0.37186,0.4522556958946844,2.396622871936316e-06,9.384374032972431e-06,-0.15805871504180158,-1.464258927996731e-06,-0.18077294572157743
471,0.4533,872.316,0.648664,-0.254616,-0.0139346,0.17221,-0.135716,0.373807,-0.172358,-0.199766,1.77957e-06,1.46465e-05,-4.94919e-06,0.372552,0.45325664485647543,1.7795715834267867e-06,1.46466072605822e-05,-0.15832220142622322,-4.949177752733291e-06,-0.18107764150883887
472,0.4543,872.526,0.350046,-0.164133,0.00223557,0.0836225,-0.086643,0.374494,-0.172679,-0.200133,2.00324e-06,1.3675e-05,-4.56857e-06,0.373244,0.4542553751960827,2.0032420064985956e-06,1.3675093503140445e-05,-0.15859233664054384,-4.56855956409985e-06,-0.18137813087123444
473,0.4553,872.771,-0.0226038,0.0579467,0.00675169,-0.0296726,0.0190065,0.375182,-0.173001,-0.200498,2.07742e-06,1.20199e-05,-3.19297e-06,0.373935,0.4552562471546917,2.077422157853448e-06,1.2019972239318832e-05,-0.1588632262925711,-3.1929649024764473e-06,-0.1816768733296511
474,0.4563,873.099,0.19566,-0.0842424,0.00715998,0.0380055,-0.0453619,0.375869,-0.173319,-0.200866,2.09621e-06,1.30719e-05,-4.11474e-06,0.374626,0.4562563516930609,2.0962121971557224e-06,1.3071985437651534e-05,-0.15913066526156028,-4.11473153449915e-06,-0.18197796083676654
475,0.4573,873.336,-0.15808,0.110069,0.0125916,-0.0699535,0.0471906,0.376555,-0.173641,-0.201231,2.1961e-06,1.13685e-05,-2.82583e-06,0.375317,0.4572556862828965,2.1961024114780514e-06,1.1368564621694333e-05,-0.15940138159967654,-2.82582600730219e-06,-0.18227648439719712
476,0.4583,873.716,0.249251,-0.101626,0.00410166,0.0534723,-0.0551325,0.377241,-0.173957,-0.201599,2.08592e-06,1.32392e-05,-4.2476e-06,0.376007,0.4582557066514559,2.085922175432131e-06,1.3239287638633357e-05,-0.1596669687981036,-4.247590978945226e-06,-0.18257735128803565
477,0.4593,873.909,-0.257327,0.147993,0.0169109,-0.0993246,0.0671044,0.377927,-0.174279,-0.201963,2.29679e-06,1.08258e-05,-2.53434e-06,0.376696,0.45925641326934463,2.296792637634937e-06,1.0825858599128324e-05,-0.15993751247428123,-2.5343367885399815e-06,-0.1828748389861211
478,0.4603,874.342,0.355345,-0.143694,-0.000443792,0.0850333,-0.0770656,0.378612,-0.174594,-0.202332,2.05461e-06,1.36363e-05,-4.5376e-06,0.377385,0.460256346350415,2.0546121106690407e-06,1.3636392974802902e-05,-0.1602020904846274,-4.537589705089218e-06,-0.1831763025470876
479,0.4613,874.473,-0.387802,0.200982,0.0220995,-0.138032,0.0945322,0.379296,-0.174917,-0.202694,2.41088e-06,1.01317e-05,-2.13423e-06,0.378074,0.4612555033640622,2.4108829062008397e-06,1.0131751325914706e-05,-0.16047330140647909,-2.1342277225500084e-06,-0.1834719392121007
480,0.4623,874.976,0.50989,-0.20813,-0.00649901,0.131151,-0.110119,0.37998,-0.17523,-0.203064,2.00053e-06,1.42579e-05,-4.98139e-06,0.378762,0.4622553440348909,2.0005320011673433e-06,1.4258001644229523e-05,-0.16073603214363352,-4.9813775928608806e-06,-0.1837739987101391
481,0.4633,875.201,0.270367,-0.13144,0.00554888,0.0598185,-0.0697181,0.380664,-0.175549,-0.203428,2.17561e-06,1.34488e-05,-4.66101e-06,0.379449,0.4632558688306825,2.175612366706048e-06,1.3448890435530103e-05,-0.16100371465174967,-4.660999137540145e-06,-0.18407105090782883
482,0.4643,875.461,-0.00860136,0.047645,0.00698219,-0.0255866,0.0144287,0.381347,-0.175868,-0.203792,2.20803e-06,1.21884e-05,-3.56672e-06,0.380136,0.46425561396319237,2.208032437778229e-06,1.2188474278751471e-05,-0.1612713117827641,-3.566713639213681e-06,-0.18436799499819523
483,0.4653,875.772,0.149324,-0.0630539,0.0086275,0.023829,-0.0347673,0.38203,-0.176184,-0.204157,2.24705e-06,1.29466e-05,-4.26949e-06,0.380823,0.46525604215486593,2.2470525247175743e-06,1.2946683807690818e-05,-0.16153630817660547,-4.269480885721322e-06,-0.18466564635534366
484,0.4663,876.024,-0.111056,0.0872506,0.0113686,-0.0560483,0.0359761,0.382712,-0.176503,-0.20452,2.30727e-06,1.16712e-05,-3.28436e-06,0.381509,0.46625568761597114,2.3072726618167394e-06,1.1671268108637278e-05,-0.16180373543738125,-3.284354606503115e-06,-0.18496155901431977
485,0.4673,876.374,0.187352,-0.0736992,0.00614002,0.0347177,-0.0411149,0.383394,-0.176819,-0.204886,2.24614e-06,1.30366e-05,-4.35217e-06,0.382195,0.46725601506781334,2.246142522643879e-06,1.3036684976874824e-05,-0.16206856361192767,-4.352160529297322e-06,-0.1852598085007351
486,0.4683,876.592,-0.183217,0.114056,0.014629,-0.0773541,0.0501507,0.384075,-0.177138,-0.205248,2.39275e-06,1.12496e-05,-3.07294e-06,0.38288,0.4682555567193778,2.3927528627343264e-06,1.1249663276924338e-05,-0.1623358211102981,-3.072935278569666e-06,-0.18555469107309208
487,0.4693,876.981,0.263236,-0.103002,0.00273002,0.0572815,-0.0565234,0.384756,-0.177452,-0.205614,2.2321e-06,1.32928e-05,-4.5512e-06,0.383565,0.4692557792906338,2.2321024910620935e-06,1.3292888349614174e-05,-0.16259880637162272,-4.551189643264841e-06,-0.18585272351289583
488,0.4703,877.154,-0.27618,0.151206,0.0184215,-0.104894,0.0694686,0.385437,-0.177771,-0.205975,2.48641e-06,1.07263e-05,-2.78692e-06,0.384249,0.4702566832454458,2.486413091196127e-06,1.072635752685791e-05,-0.16286589474952895,-2.7869161165483547e-06,-0.1861465776358473
489,0.4713,877.593,0.372413,-0.148066,-0.00164871,0.0898683,-0.079712,0.386116,-0.178084,-0.20634,2.20332e-06,1.37038e-05,-4.8576e-06,0.384933,0.47125532653439794,2.2033224273965146e-06,1.3703893897432096e-05,-0.16312787672215479,-4.857588201900853e-06,-0.18644357992879435
490,0.4723,877.705,-0.406029,0.205518,0.0233202,-0.143513,0.097323,0.386796,-0.178404,-0.2067,2.5965e-06,1.00304e-05,-2.38192e-06,0.385617,0.4722561203877875,2.5965033709773877e-06,1.0030450304565619e-05,-0.16339563295832105,-2.3819171632855074e-06,-0.18673640752788967
491,0.4733,878.212,0.526683,-0.213783,-0.00746674,0.136006,-0.113207,0.387475,-0.178715,-0.207067,2.15255e-06,1.43262e-05,-5.30749e-06,0.386299,0.4732561217555753,2.1525523168364202e-06,1.4326302620437659e-05,-0.16365577646205942,-5.307475915317106e-06,-0.1870348205041963
492,0.4743,878.427,0.275115,-0.133044,0.00527471,0.0610938,-0.0705435,0.388153,-0.179031,-0.207428,2.33711e-06,1.34658e-05,-4.95909e-06,0.386982,0.47425532809879933,2.337112731121138e-06,1.3465890664310365e-05,-0.16392001948410106,-4.959077703703407e-06,-0.18732824796715064
493,0.4753,878.679,-0.00621419,0.0459517,0.00697469,-0.0249922,0.0136972,0.388832,-0.179348,-0.207789,2.37317e-06,1.21935e-05,-3.86617e-06,0.387664,0.47525668738958515,2.373172816039215e-06,1.2193574341123892e-05,-0.16418501483394254,-3.866162526344752e-06,-0.18762156952190834
494,0.4763,878.982,0.147367,-0.0622785,0.00866924,0.0231062,-0.0343619,0.389509,-0.179663,-0.208152,2.41293e-06,1.29333e-05,-4.55276e-06,0.388346,0.47625577431971466,2.412932911033394e-06,1.293338363539398e-05,-0.16444825509175254,-4.552749636177467e-06,-0.18791640937550091
495,0.4773,879.228,-0.107813,0.0849922,0.0113704,-0.0552077,0.034957,0.390186,-0.179979,-0.208512,2.47257e-06,1.16789e-05,-3.58936e-06,0.389027,0.4772555378607026,2.4725730567443094e-06,1.167896819853631e-05,-0.16471224773010995,-3.5893535582642855e-06,-0.1882087068514232
496,0.4783,879.569,0.181621,-0.0714011,0.00633045,0.0328807,-0.0399172,0.390863,-0.180292,-0.208875,2.41413e-06,1.30056e-05,-4.62522e-06,0.389707,0.47825597847076984,2.4141329140192624e-06,1.3005684573075271e-05,-0.16497365188468616,-4.625209303665834e-06,-0.18850333361284377
497,0.4793,879.784,-0.175794,0.110077,0.0144717,-0.0752779,0.0482439,0.391539,-0.180609,-0.209235,2.55579e-06,1.12749e-05,-3.39147e-06,0.390388,0.47925561735209055,2.5557932661346427e-06,1.1274963561902496e-05,-0.16523831328599026,-3.391464248991838e-06,-0.18879541983406878
498,0.4803,880.162,0.25179,-0.0983761,0.0031438,0.0537563,-0.0541192,0.392215,-0.180921,-0.209597,2.40334e-06,1.32354e-05,-4.80797e-06,0.391067,0.48025593221775176,2.4033428880354535e-06,1.3235487588358907e-05,-0.1654987183069494,-4.807958441710447e-06,-0.18908902274675543
499,0.4813,880.334,-0.261451,0.144251,0.0179773,-0.100656,0.0660189,0.39289,-0.181238,-0.209956,2.64531e-06,1.07832e-05,-3.12815e-06,0.391747,0.48125544226869077,2.6453134989168348e-06,1.0783258138857832e-05,-0.16576321328857657,-3.1281451073894573e-06,-0.18938008753833313
500,0.4823,880.758,0.35156,-0.139567,-0.000870394,0.0835582,-0.0753113,0.393565,-0.181548,-0.210319,2.37989e-06,1.36033e-05,-5.08694e-06,0.392425,0.48225562721666626,2.379892831916308e-06,1.3603392525318725e-05,-0.16602178661152134,-5.0869270615816475e-06,-0.1896742891657308
501,0.4833,880.875,-0.379341,0.193633,0.0224155,-0.135731,0.0913274,0.39424,-0.181866,-0.210676,2.74868e-06,1.01401e-05,-2.75998e-06,0.393104,0.4832564875173877,2.748683777697991e-06,1.0140151410986675e-05,-0.1662869495202418,-2.7599761912577847e-06,-0.18996352381304227
502,0.4843,881.36,0.49063,-0.198944,-0.00610873,0.125185,-0.105553,0.394914,-0.182175,-0.211039,2.33764e-06,1.41561e-05,-5.49171e-06,0.393782,0.4842565393695901,2.3376427322752136e-06,1.4156200198067737e-05,-0.1665445270550615,-5.4916949205896515e-06,-0.1902575136915069
503,0.4853,881.402,-0.543195,0.263979,0.0283047,-0.184591,0.127128,0.395587,-0.182494,-0.211395,2.87361e-06,9.28217e-06,-2.24616e-06,0.394459,0.48525578022741933,2.8736141288732142e-06,9.282213079497836e-06,-0.16681035694880864,-2.246157477348021e-06,-0.19054573071095926
504,0.4863,881.727,-0.310569,0.135892,0.0234674,-0.112968,0.063616,0.39626,-0.182806,-0.211755,2.85554e-06,9.95155e-06,-2.86548e-06,0.395136,0.4862556938006888,2.8555440769739704e-06,9.95159951688862e-06,-0.1670702715686514,-2.8654758945645398e-06,-0.19083708180156045
505,0.4873,882.117,0.0711907,0.000343402,0.00517079,-0.000505525,-0.00770326,0.396933,-0.183117,-0.212115,2.61065e-06,1.15242e-05,-3.77098e-06,0.395813,0.4872562805422891,2.6106534076753007e-06,1.152426640382842e-05,-0.16732927243747098,-3.7709728898382977e-06,-0.1911283280246463
506,0.4883,882.334,-0.153646,0.0764862,0.0169758,-0.0664529,0.0347709,0.397605,-0.183431,-0.212473,2.80873e-06,1.04068e-05,-3.14422e-06,0.396489,0.4882560526486177,2.8087339445370674e-06,1.0406854150879497e-05,-0.16759069000122018,-3.144215056982702e-06,-0.19141785225528396
507,0.4893,882.706,0.181361,-0.0500508,0.00172767,0.0329126,-0.0322027,0.398277,-0.183742,-0.212833,2.59833e-06,1.18956e-05,-4.0601e-06,0.397164,0.489256496827593,2.5983333755696947e-06,1.189567075288167e-05,-0.16784952904507222,-4.0600917577959805e-06,-0.19170888943863584
508,0.4903,882.89,-0.186562,0.0955049,0.0173189,-0.0762912,0.043581,0.398948,-0.184056,-0.21319,2.84973e-06,1.01431e-05,-2.99465e-06,0.39784,0.49025612327413115,2.8497340605060373e-06,1.0143151441432963e-05,-0.16811078327389162,-2.994645516007921e-06,-0.1919973978632883
509,0.4913,883.282,0.253241,-0.0841919,-0.00039144,0.0547066,-0.0491877,0.399619,-0.184366,-0.21355,2.60038e-06,1.21399e-05,-4.27699e-06,0.398514,0.49125642069510156,2.600383381068383e-06,1.2139973688984895e-05,-0.16836862896292992,-4.276980853701318e-06,-0.19228822644777133
510,0.4923,883.433,-0.260953,0.130783,0.0193963,-0.0986141,0.0610214,0.400289,-0.18468,-0.213906,2.91466e-06,9.70284e-06,-2.73628e-06,0.399189,0.4922558972842359,2.914664247732901e-06,9.7028870726934e-06,-0.16862972021996303,-2.7362762563543086e-06,-0.19257572066214945
511,0.4933,883.861,0.344827,-0.126673,-0.00327079,0.0823186,-0.070316,0.400959,-0.184989,-0.214266,2.59004e-06,1.24817e-05,-4.55518e-06,0.399862,0.49325604374706766,2.5900433542336287e-06,1.2481777896811153e-05,-0.1688865739504699,-4.555169625164446e-06,-0.1928663410878958
512,0.4943,883.966,-0.367793,0.179551,0.0227284,-0.130622,0.0854047,0.401628,-0.185304,-0.214621,2.998e-06,9.11348e-06,-2.38281e-06,0.400536,0.49425536627644884,2.9980044939925676e-06,9.113521527881474e-06,-0.16914833345038993,-2.3828071611387003e-06,-0.19315282268331768
513,0.4953,884.446,0.471242,-0.184051,-0.00744987,0.120352,-0.099032,0.402297,-0.185611,-0.214981,2.55973e-06,1.29877e-05,-4.93925e-06,0.401209,0.49525535757628125,2.559733276008558e-06,1.2987784340445785e-05,-0.16940336576255766,-4.939237801870888e-06,-0.19344323538972807
514,0.4963,884.486,-0.516195,0.246201,0.0275623,-0.175044,0.118882,0.402966,-0.185927,-0.215334,3.10368e-06,8.33052e-06,-1.90342e-06,0.401881,0.49625601809412156,3.103684816485597e-06,8.330554698954273e-06,-0.16966579283331584,-1.9034181885091428e-06,-0.19372789968143211
515,0.4973,885.04,0.64612,-0.262537,-0.0133775,0.172908,-0.138425,0.403634,-0.186232,-0.215696,2.50263e-06,1.37218e-05,-5.47171e-06,0.402553,0.49725585102122705,2.502633131618026e-06,1.372189414428071e-05,-0.16991900614950795,-5.471695030179191e-06,-0.19401971735956092
516,0.4983,885.224,0.328808,-0.156453,0.00241434,0.0782779,-0.0823772,0.404302,-0.186544,-0.216051,2.72457e-06,1.26231e-05,-4.98298e-06,0.403225,0.4982563520598522,2.7245737117542745e-06,1.2623179671766849e-05,-0.17017795102208866,-4.982967584998832e-06,-0.19430578957907496
517,0.4993,885.449,-0.00538149,0.0451756,0.00610814,-0.0235902,0.0133213,0.404969,-0.186856,-0.216406,2.78643e-06,1.11241e-05,-3.74922e-06,0.403896,0.4992560223996725,2.78643388207378e-06,1.112416187298848e-05,-0.17043681511647113,-3.749212971637661e-06,-0.19459176026097502
518,0.5003,885.742,0.1641,-0.0703799,0.00729693,0.0292929,-0.0384518,0.405636,-0.187165,-0.216763,2.81607e-06,1.19538e-05,-4.49094e-06,0.404567,0.5002563597420302,2.816073965128396e-06,1.1953871446923614e-05,-0.17069311054091774,-4.49092991572364e-06,-0.19487923968443155
519,0.5013,885.967,-0.120467,0.0894282,0.0111065,-0.0578915,0.0372595,0.406302,-0.187477,-0.217118,2.8905e-06,1.05601e-05,-3.44427e-06,0.405237,0.5012558632753503,2.8905041775662e-06,1.0560155758065903e-05,-0.17095181393060166,-3.444264068508396e-06,-0.19516500682767446
520,0.5023,886.301,0.194484,-0.0779795,0.00511078,0.0378933,-0.0431996,0.406968,-0.187785,-0.217475,2.81535e-06,1.20186e-05,-4.55615e-06,0.405907,0.5022560326997407,2.8153539630704216e-06,1.2018672223668148e-05,-0.17120712145253436,-4.556139620803812e-06,-0.19545228163863215
521,0.5033,886.496,-0.189143,0.11487,0.0142378,-0.0782069,0.0507205,0.407633,-0.188097,-0.217828,2.97066e-06,1.01582e-05,-3.24742e-06,0.406576,0.5032553652027159,2.970664412460522e-06,1.0158251594782897e-05,-0.17146566449582912,-3.2474147271255305e-06,-0.19573623686216812
522,0.5043,886.865,0.262406,-0.104231,0.00203911,0.0581261,-0.0569896,0.408298,-0.188403,-0.218185,2.80235e-06,1.22471e-05,-4.735e-06,0.407245,0.5042553624828192,2.8023539266897046e-06,1.2247174995927423e-05,-0.17171915721612918,-4.734988789945049e-06,-0.19602330778040056
523,0.5053,887.02,-0.271598,0.147986,0.0175893,-0.102673,0.0679021,0.408963,-0.188716,-0.218538,3.05451e-06,9.68518e-06,-2.99541e-06,0.407914,0.5052560249822751,3.054514664979635e-06,9.685226901590127e-06,-0.1719783685512304,-2.9954055137393354e-06,-0.19630706146728183
524,0.5063,887.433,0.356822,-0.143497,-0.00172566,0.0863723,-0.0771409,0.409627,-0.189021,-0.218895,2.7787e-06,1.25998e-05,-5.00084e-06,0.408581,0.5062558468870009,2.778703860562004e-06,1.2599879377850343e-05,-0.1722308766393813,-5.000827495771354e-06,-0.19659392863750136
525,0.5073,887.535,-0.381626,0.194451,0.0216829,-0.135458,0.0916484,0.410291,-0.189334,-0.219246,3.14944e-06,9.08138e-06,-2.65222e-06,0.409249,0.5072563328939288,3.1494449594937635e-06,9.081421235901388e-06,-0.17248992783136674,-2.652216482879055e-06,-0.19687587468412382
526,0.5083,888.006,0.484755,-0.198563,-0.006489,0.12473,-0.105114,0.410954,-0.189638,-0.219604,2.73958e-06,1.31116e-05,-5.37507e-06,0.409916,0.50825597518744,2.739583752742192e-06,1.3111685957412078e-05,-0.17274145265959506,-5.375055554313057e-06,-0.19716334166132765
527,0.5093,888.04,-0.530196,0.258797,0.0269456,-0.179826,0.124298,0.411617,-0.189952,-0.219953,3.26182e-06,8.29611e-06,-2.18585e-06,0.410583,0.5092562804635465,3.2618253198446467e-06,8.296144412778261e-06,-0.17300117106553625,-2.185847611024805e-06,-0.19744348276762136
528,0.5103,888.353,-0.292694,0.129048,0.0218716,-0.106742,0.0600013,0.412279,-0.190259,-0.220308,3.23569e-06,9.01788e-06,-2.82859e-06,0.411249,0.5102557389054572,3.235695234860003e-06,9.017920661102963e-06,-0.17325502073810062,-2.8285859995369478e-06,-0.19772833976613002
529,0.5113,888.721,0.0589321,0.00387871,0.00503427,-0.00301548,-0.00568962,0.412941,-0.190565,-0.220662,3.00871e-06,1.04736e-05,-3.65847e-06,0.411915,0.511255859207908,3.0087145261870063e-06,1.0473654848297542e-05,-0.17350796599915608,-3.6584633078540207e-06,-0.19801229367104634
530,0.5123,888.933,-0.134953,0.0686912,0.0154027,-0.0598853,0.0306617,0.413603,-0.190874,-0.221015,3.18409e-06,9.49835e-06,-3.12117e-06,0.412581,0.5122566418091956,3.1840950691641723e-06,9.49839510955286e-06,-0.17376331258458322,-3.1211651291274123e-06,-0.1982953453698164
531,0.5133,889.28,0.156999,-0.0416635,0.00207574,0.0268099,-0.027712,0.414264,-0.19118,-0.221369,2.99957e-06,1.08011e-05,-3.91646e-06,0.413245,0.5132565738905768,2.9995744987854067e-06,1.0801158332185423e-05,-0.1740161023321284,-3.916452330665621e-06,-0.19857909859027223
532,0.5143,889.466,-0.156813,0.0828324,0.0153646,-0.0664366,0.0370156,0.414924,-0.191489,-0.22172,3.21573e-06,9.29276e-06,-3.00886e-06,0.41391,0.5142556528891475,3.2157351703698822e-06,9.292803177851638e-06,-0.17427129192768476,-3.0088554733298523e-06,-0.19886034796451435
533,0.5153,889.827,0.213767,-0.0693053,0.000506483,0.0440896,-0.0413846,0.415584,-0.191795,-0.222074,3.00628e-06,1.0983e-05,-4.0891e-06,0.414574,0.5152553914975047,3.00628451888052e-06,1.0983060313440873e-05,-0.17452392625733115,-4.089091639625231e-06,-0.19914390120944936
534,0.5163,889.987,-0.213064,0.110226,0.0168081,-0.083355,0.0504574,0.416244,-0.192104,-0.222425,3.26779e-06,8.94164e-06,-2.80879e-06,0.415238,0.5162557901511342,3.267795339212398e-06,8.941679976670613e-06,-0.17477895895953588,-2.808786055408241e-06,-0.19942495237276026
535,0.5173,890.374,0.282807,-0.101973,-0.00157,0.0649671,-0.0575425,0.416903,-0.192408,-0.222779,3.00447e-06,1.12276e-05,-4.29967e-06,0.415901,0.5172553320297193,3.0044745134016893e-06,1.1227663029744761e-05,-0.17502978802806213,-4.299660756434953e-06,-0.1997083057831076
536,0.5183,890.501,-0.292352,0.14703,0.0191753,-0.10715,0.0687669,0.417562,-0.192718,-0.223128,3.33339e-06,8.48457e-06,-2.54253e-06,0.416564,0.518255532823491,3.333395555804586e-06,8.484605994008021e-06,-0.17528548915805053,-2.5425267677903207e-06,-0.19998755885189434
537,0.5193,890.925,0.375386,-0.144609,-0.0045449,0.0928891,-0.0787944,0.418221,-0.193021,-0.223482,2.9887e-06,1.15841e-05,-4.58125e-06,0.417226,0.5192563929668179,2.9887044661336404e-06,1.158416709601262e-05,-0.1755353398005517,-4.581239506085133e-06,-0.20027071313479572
538,0.5203,891.005,-0.399599,0.195814,0.0225672,-0.139302,0.093171,0.418879,-0.193331,-0.22383,3.41426e-06,7.89655e-06,-2.19221e-06,0.417888,0.5202563926372012,3.4142658285052363e-06,7.896581177835316e-06,-0.17579088423377998,-2.1922075971181343e-06,-0.2005489705070339
539,0.5213,891.482,0.499948,-0.201156,-0.00867837,0.130403,-0.107087,0.419536,-0.193632,-0.224185,2.95503e-06,1.20923e-05,-4.96045e-06,0.418549,0.5212555292676073,2.955034366092235e-06,1.2092373112171373e-05,-0.17603893384428637,-4.960437697043574e-06,-0.2008327252530564
540,0.5223,891.499,-0.543562,0.260677,0.027241,-0.182445,0.125709,0.420193,-0.193944,-0.224532,3.51429e-06,7.13593e-06,-1.72955e-06,0.419211,0.5222553225464648,3.5142961751777335e-06,7.135955460757515e-06,-0.17629596959726446,-1.729548504303402e-06,-0.2011099881894921
541,0.5233,891.81,-0.293268,0.129046,0.0210789,-0.105674,0.0599911,0.42085,-0.194248,-0.224883,3.47052e-06,7.92047e-06,-2.39217e-06,0.419871,0.5232557729053338,3.470526022342213e-06,7.920501366998067e-06,-0.17654633756464766,-2.392167138709489e-06,-0.20139034937737066
542,0.5243,892.17,0.0533214,0.00465171,0.00460725,-0.00333326,-0.00512831,0.421506,-0.194552,-0.225234,3.24665e-06,9.36269e-06,-3.21346e-06,0.420531,0.5242553565199388,3.246655270405796e-06,9.362733830009518e-06,-0.17679662943173657,-3.213454836892282e-06,-0.20167061217574067
543,0.5253,892.379,-0.12994,0.0668402,0.0142682,-0.0571579,0.0295695,0.422162,-0.194858,-0.225584,3.41003e-06,8.43622e-06,-2.70072e-06,0.421191,0.5252555960765206,3.4100358141664344e-06,8.436255584998165e-06,-0.17704849112632592,-2.7007163531100886e-06,-0.20194997856950847
544,0.5263,892.715,0.148895,-0.0395305,0.00168838,0.025738,-0.0265202,0.422818,-0.195162,-0.225935,3.23432e-06,9.68726e-06,-3.46373e-06,0.42185,0.5262564920055182,3.2343252305278014e-06,9.687306921746242e-06,-0.17729863036193338,-3.463724001284696e-06,-0.2022300449725014
545,0.5273,892.899,-0.147338,0.0789924,0.0140845,-0.0623799,0.0349286,0.423473,-0.195468,-0.226283,3.43576e-06,8.25881e-06,-2.60369e-06,0.422509,0.5272565174803716,3.4357659022266063e-06,8.258844104158669e-06,-0.17755033846773827,-2.6036866104250933e-06,-0.20250762061588778
546,0.5283,893.247,0.200477,-0.0648147,0.000290424,0.0414582,-0.0390082,0.424127,-0.195771,-0.226634,3.23987e-06,9.85302e-06,-3.62101e-06,0.423168,0.528255669930042,3.2398752483064897e-06,9.853068541065824e-06,-0.17779950296485503,-3.6210034441985783e-06,-0.20278749132086948
547,0.5293,893.409,-0.197055,0.103465,0.0153171,-0.0773517,0.046902,0.424781,-0.196078,-0.226982,3.48098e-06,7.94506e-06,-2.42551e-06,0.423826,0.5292554760391379,3.4809860585127694e-06,7.945091561989415e-06,-0.1780518797756221,-2.4255070584233707e-06,-0.2030648730066772
548,0.5303,893.779,0.261475,-0.0938998,-0.00150958,0.0599239,-0.0533632,0.425435,-0.196379,-0.227332,3.2385e-06,1.00681e-05,-3.80759e-06,0.424483,0.5302559362352923,3.238505243974288e-06,1.0068150683384403e-05,-0.1782992489288845,-3.8075827510919424e-06,-0.20334375149454265
549,0.5313,893.912,-0.266479,0.135913,0.0173544,-0.0982061,0.0630116,0.426088,-0.196686,-0.227679,3.53802e-06,7.54064e-06,-2.19134e-06,0.425141,0.5312555196901327,3.538026258853577e-06,7.5406684307832705e-06,-0.1785514723411885,-2.1913375990445516e-06,-0.20362014325603006
550,0.5323,894.315,0.341972,-0.131203,-0.00406156,0.0842257,-0.071925,0.426741,-0.196987,-0.22803,3.22539e-06,1.03764e-05,-4.05279e-06,0.425797,0.5322557560861312,3.225395201589265e-06,1.0376453835059252e-05,-0.17879869113971814,-4.052781787500237e-06,-0.20389962353408897
551,0.5333,894.407,-0.359049,0.17826,0.0202457,-0.125982,0.0841577,0.427394,-0.197295,-0.228375,3.60781e-06,7.02746e-06,-1.88785e-06,0.426454,0.5332566458497976,3.6078165082109592e-06,7.0274846926121626e-06,-0.17905158219562523,-1.887848217974053e-06,-0.2041742307914941
552,0.5343,894.855,0.448666,-0.179898,-0.00756427,0.116388,-0.096253,0.428046,-0.197593,-0.228727,3.19754e-06,1.08094e-05,-4.37784e-06,0.427109,0.5342566551504979,3.1975451122434606e-06,1.080945842169001e-05,-0.17929618837599992,-4.37783041729034e-06,-0.20445431216504184
553,0.5353,894.893,-0.481484,0.233705,0.024179,-0.162702,0.111925,0.428697,-0.197902,-0.22907,3.69322e-06,6.37336e-06,-1.49309e-06,0.427765,0.5352557814133136,3.6932268199230123e-06,6.3733803099541575e-06,-0.17954974667701673,-1.4930888853070812e-06,-0.20472713754374194
554,0.5363,895.4,0.589618,-0.243748,-0.0122698,0.158847,-0.128213,0.429348,-0.198199,-0.229422,3.15104e-06,1.14059e-05,-4.80845e-06,0.42842,0.5362555583190876,3.1510449645111294e-06,1.140596504756175e-05,-0.17979338422028757,-4.808438439418694e-06,-0.20500702432836249
555,0.5373,895.569,0.284208,-0.137173,0.00229214,0.0675109,-0.0726064,0.429999,-0.198503,-0.229769,3.35817e-06,1.02991e-05,-4.293e-06,0.429074,0.5372559862915265,3.3581756386791284e-06,1.0299153035964181e-05,-0.1800426891352176,-4.2929907850819404e-06,-0.20528283903430156
556,0.5383,895.786,0.00947575,0.0340441,0.00452062,-0.0165652,0.00825348,0.430649,-0.198807,-0.230115,3.3964e-06,9.05516e-06,-3.25886e-06,0.429729,0.5382555274983161,3.3964057677415838e-06,9.05520099814261e-06,-0.18029191827297208,-3.2588546898804083e-06,-0.20555776360730182
557,0.5393,896.051,0.128479,-0.0542585,0.00660153,0.0209671,-0.030568,0.431299,-0.199109,-0.230462,3.437e-06,9.65098e-06,-3.81586e-06,0.430382,0.5392557186180889,3.437005906548052e-06,9.651026570800525e-06,-0.1805394327370884,-3.815852719579738e-06,-0.20583338723986422
558,0.5403,896.271,-0.082963,0.0692251,0.00862383,-0.0441531,0.0273993,0.431949,-0.199413,-0.230808,3.48109e-06,8.59776e-06,-3.0194e-06,0.431036,0.5402565600734255,3.48109605896596e-06,8.59779696082974e-06,-0.18078851088773917,-3.019395441561379e-06,-0.20610812135613632
559,0.5413,896.565,0.142791,-0.0550989,0.00504452,0.0248091,-0.0318485,0.432598,-0.199714,-0.231156,3.43856e-06,9.65309e-06,-3.8344e-06,0.431689,0.5412565110299001,3.4385659117841527e-06,9.653136591181166e-06,-0.1810350564389951,-3.834392648727203e-06,-0.20638434766373914
560,0.5423,896.766,-0.128182,0.0849899,0.010856,-0.0574977,0.0358795,0.433246,-0.200017,-0.231501,3.54086e-06,8.31612e-06,-2.89503e-06,0.432341,0.5422555689088413,3.5408662688585224e-06,8.316154578968948e-06,-0.18128316522651455,-2.895025809412921e-06,-0.20665809783917466
561,0.5433,897.083,0.183672,-0.0699973,0.00301365,0.0369738,-0.0398196,0.433894,-0.200317,-0.231848,3.4338e-06,9.77077e-06,-3.93515e-06,0.432993,0.5432552743870875,3.433805895403097e-06,9.770817734233717e-06,-0.181528743438373,-3.935142257271984e-06,-0.2069333397219959
562,0.5443,897.258,-0.177588,0.104192,0.0129742,-0.0721322,0.045935,0.434542,-0.200621,-0.232192,3.59922e-06,8.00886e-06,-2.74584e-06,0.433645,0.5442556278844191,3.599226477302153e-06,8.008892071087459e-06,-0.18177752088428,-2.745836230166887e-06,-0.20720610773434356
563,0.5453,897.602,0.238394,-0.09236,0.000735873,0.0533635,-0.0513518,0.43519,-0.20092,-0.232539,3.42516e-06,9.95407e-06,-4.084e-06,0.434296,0.5452566298208885,3.4251658658224216e-06,9.954119541966122e-06,-0.18202213283422675,-4.083991660519537e-06,-0.2074811594907202
564,0.5463,897.747,-0.239996,0.130303,0.0153383,-0.0907259,0.0593043,0.435837,-0.201223,-0.232883,3.66124e-06,7.63855e-06,-2.55078e-06,0.434947,0.5462567343593132,3.66124670225787e-06,7.638579173852023e-06,-0.18226994258290508,-2.5507767467125575e-06,-0.20775373908547712
565,0.5473,898.122,0.309087,-0.122746,-0.00193215,0.074603,-0.066792,0.436483,-0.201521,-0.23323,3.41029e-06,1.02145e-05,-4.28672e-06,0.435597,0.5472559389180331,3.4102958150761253e-06,1.0214552168097413e-05,-0.18251358983477184,-4.28671081198484e-06,-0.2080286008467408
566,0.5483,898.229,-0.3203,0.165164,0.0181727,-0.114729,0.0769657,0.437129,-0.201826,-0.233572,3.73028e-06,7.18273e-06,-2.29667e-06,0.436247,0.5482557891714348,3.730286957548401e-06,7.182755795920315e-06,-0.18276288517040096,-2.296667362622351e-06,-0.20829940875445951
567,0.5493,898.645,0.400401,-0.162984,-0.00519479,0.102079,-0.0870916,0.437775,-0.202122,-0.23392,3.38604e-06,1.05744e-05,-4.55655e-06,0.436897,0.549256285536772,3.3860457326895244e-06,1.0574455909129199e-05,-0.18300475155839913,-4.556539618949529e-06,-0.20857487262671914
568,0.5503,898.705,-0.423941,0.211004,0.0216936,-0.145762,0.100068,0.43842,-0.202427,-0.234261,3.8096e-06,6.61574e-06,-1.96772e-06,0.437546,0.5502558781749143,3.809607256544112e-06,6.6157618840989585e-06,-0.18325389711254536,-1.967718064044277e-06,-0.20884470258653065
569,0.5513,899.172,0.518405,-0.215639,-0.00928883,0.137613,-0.113559,0.439065,-0.202722,-0.234609,3.34874e-06,1.10627e-05,-4.91152e-06,0.438195,0.5512561157582809,3.3487456070346866e-06,1.10627611917824e-05,-0.1834948016777268,-4.911507938465398e-06,-0.20911997672955152
570,0.5523,899.172,-0.557687,0.270739,0.0261437,-0.185848,0.130093,0.439709,-0.203028,-0.234948,3.90288e-06,5.90552e-06,-1.54355e-06,0.438843,0.5522554464467726,3.9028876162028325e-06,5.905537437511654e-06,-0.18374461404517184,-1.5435488087689464e-06,-0.2093880396182134
571,0.5533,899.472,-0.288299,0.1289,0.0196382,-0.103168,0.059617,0.440353,-0.203327,-0.235293,3.84957e-06,6.79909e-06,-2.27113e-06,0.439491,0.5532554209115015,3.849577409509308e-06,6.7991131138533945e-06,-0.18398863792218478,-2.271127421016317e-06,-0.20966075369866133
572,0.5543,899.812,0.0415628,0.00802011,0.00431476,-0.00552605,-0.00321019,0.440997,-0.203625,-0.235637,3.63886e-06,8.18386e-06,-3.05903e-06,0.440138,0.5542560395671929,3.638866620692127e-06,8.183893487778704e-06,-0.1842317730791463,-3.059025321161535e-06,-0.2099325836419581
573,0.5553,900.013,-0.117141,0.0615962,0.0127652,-0.0521617,0.0267532,0.44164,-0.203925,-0.23598,3.78279e-06,7.3691e-06,-2.61476e-06,0.440786,0.5552557475723143,3.7827971548498596e-06,7.369127151823918e-06,-0.18447646684132302,-2.61475658147603e-06,-0.21020353029576144
574,0.5563,900.326,0.130081,-0.0336273,0.00172786,0.0214726,-0.0232881,0.442283,-0.204223,-0.236324,3.6272e-06,8.48691e-06,-3.29274e-06,0.441432,0.5562560985963914,3.6272065782050333e-06,8.486946013963603e-06,-0.18471945664692502,-3.292734578885792e-06,-0.2104751735560202
575,0.5573,900.507,-0.125406,0.0694958,0.0123036,-0.0546462,0.0300043,0.442925,-0.204523,-0.236666,3.80034e-06,7.24185e-06,-2.54943e-06,0.442078,0.557255535796704,3.8003472213610223e-06,7.241876222252586e-06,-0.18496400412597502,-2.5494267501535717e-06,-0.21074514487893636
576,0.5583,900.827,0.170584,-0.0540424,0.000719631,0.0338728,-0.0333092,0.443567,-0.204821,-0.23701,3.63476e-06,8.60896e-06,-3.41768e-06,0.442724,0.558255614841709,3.6347666056979477e-06,8.608997057235612e-06,-0.18520684866711168,-3.417674159789108e-06,-0.21101660185582105
577,0.5593,900.992,-0.161697,0.0879747,0.0130917,-0.065605,0.0389641,0.444209,-0.205121,-0.237351,3.83512e-06,6.99702e-06,-2.41555e-06,0.44337,0.5592563361436036,3.835127354134826e-06,6.997044479151171e-06,-0.18545124995048612,-2.4155470825792946e-06,-0.21128559932791258
578,0.5603,901.328,0.215302,-0.0758866,-0.000521949,0.0474583,-0.0440197,0.44485,-0.205418,-0.237694,3.638e-06,8.75571e-06,-3.55553e-06,0.444015,0.5602561398579289,3.638006617512346e-06,8.755748331257251e-06,-0.1856931350075418,-3.5555236791440237e-06,-0.211556081976917
579,0.5613,901.471,-0.211532,0.11174,0.0144689,-0.0806037,0.0506955,0.445491,-0.205718,-0.238035,3.87854e-06,6.69001e-06,-2.24464e-06,0.444659,0.5612565846518789,3.878547521596332e-06,6.690032378076083e-06,-0.18593739042689472,-2.244637480774969e-06,-0.21182489551764938
580,0.5623,901.83,0.272212,-0.102728,-0.00226014,0.0646903,-0.0573116,0.446131,-0.206014,-0.238378,3.63339e-06,8.96144e-06,-3.72939e-06,0.445303,0.5622561086796278,3.633396600699612e-06,8.96148015372411e-06,-0.18617831730039203,-3.729383045825152e-06,-0.21209519321978088
581,0.5633,901.945,-0.275922,0.141633,0.0164025,-0.0999541,0.0655564,0.446771,-0.206315,-0.238718,3.93028e-06,6.31422e-06,-2.03087e-06,0.445947,0.5632562726075008,3.930287723497017e-06,6.314239934690491e-06,-0.18642324076405403,-2.0308679378189254e-06,-0.2123630353183492
582,0.5643,902.334,0.345152,-0.136482,-0.00459169,0.0867334,-0.0741103,0.44741,-0.206609,-0.239061,3.61946e-06,9.24426e-06,-3.95169e-06,0.44659,0.5642555125888702,3.6194665502531365e-06,9.244302728195208e-06,-0.1866623971735546,-3.951682192138151e-06,-0.21263314847018122
583,0.5653,902.413,-0.358296,0.179397,0.0189704,-0.124696,0.0843957,0.448049,-0.206911,-0.239399,3.99155e-06,5.85291e-06,-1.76249e-06,0.447234,0.5652553912886364,3.991557966154247e-06,5.852927128291441e-06,-0.18690798804352027,-1.762488446854782e-06,-0.21289923349509587
584,0.5663,902.841,0.438313,-0.179184,-0.00763362,0.114861,-0.0954158,0.448688,-0.207203,-0.239744,3.59437e-06,9.62452e-06,-4.23615e-06,0.447876,0.566255909115071,3.594376459803428e-06,9.624566315924454e-06,-0.18714537625064653,-4.236141027513796e-06,-0.2131707364225921
585,0.5673,902.874,-0.463224,0.227222,0.0222979,-0.156205,0.108293,0.449326,-0.207506,-0.24008,4.06427e-06,5.28412e-06,-1.42468e-06,0.448518,0.5672554992204235,4.064278259052756e-06,5.284133961058757e-06,-0.18739163389172597,-1.4246789851179997e-06,-0.21343506664518985
586,0.5683,903.352,0.556911,-0.233295,-0.0115456,0.150653,-0.122446,0.449964,-0.207797,-0.240425,3.55561e-06,1.01276e-05,-4.59951e-06,0.44916,0.5682557272677453,3.555616321149202e-06,1.0127651284275174e-05,-0.18762806852335612,-4.5994994222198216e-06,-0.21370638474213444
587,0.5693,903.51,0.257284,-0.125396,0.00226351,0.0608595,-0.0666216,0.450602,-0.208095,-0.240764,3.75414e-06,9.00566e-06,-4.06163e-06,0.449801,0.5692565936641729,3.754147046786116e-06,9.005700551067974e-06,-0.18787011929158037,-4.061621751594302e-06,-0.21397289310198753
588,0.5703,903.719,0.0183222,0.0268897,0.00369824,-0.0124704,0.00506787,0.451239,-0.208393,-0.241103,3.77954e-06,7.91487e-06,-3.15061e-06,0.450442,0.5702565285597894,3.7795471423685e-06,7.91490132256989e-06,-0.1881120979394223,-3.150605036861265e-06,-0.21423931113081873
589,0.5713,903.964,0.107147,-0.0445402,0.00621962,0.0158388,-0.025813,0.451875,-0.208689,-0.241444,3.82571e-06,8.36857e-06,-3.59498e-06,0.451082,0.5712555293605337,3.825717318051147e-06,8.368605016517705e-06,-0.18835238119475606,-3.594973538079138e-06,-0.21450720984639615
590,0.5723,904.178,-0.0613173,0.0569787,0.00728644,-0.0362613,0.0215074,0.452512,-0.208986,-0.241782,3.8534e-06,7.51664e-06,-2.94807e-06,0.451723,0.5722567379838279,3.853407424259103e-06,7.516668250051595e-06,-0.1885934047437725,-2.9480656544844663e-06,-0.2147726615456037
591,0.5733,904.448,0.112933,-0.0418354,0.00500584,0.0171579,-0.0252673,0.453147,-0.209281,-0.242122,3.82859e-06,8.3366e-06,-3.58938e-06,0.452362,0.5732554380661654,3.828597329169625e-06,8.336634749639416e-06,-0.18883273438651516,-3.589373558154918e-06,-0.21503959345968138
592,0.5743,904.647,-0.0940973,0.0676427,0.00903339,-0.0459044,0.0273605,0.453783,-0.209578,-0.242461,3.90215e-06,7.29903e-06,-2.86211e-06,0.453001,0.5742563467800077,3.902157613477897e-06,7.299056637988244e-06,-0.1890736152918172,-2.8621059041666896e-06,-0.21530564993837742
593,0.5753,904.934,0.139899,-0.0509065,0.00351622,0.0251653,-0.0302494,0.454418,-0.209873,-0.2428,3.82803e-06,8.39676e-06,-3.65065e-06,0.45364,0.5752563170171623,3.8280373269028445e-06,8.39679525288517e-06,-0.18931280329334133,-3.6506433364058566e-06,-0.21557161623921317
594,0.5763,905.116,-0.126821,0.0798162,0.0105254,-0.0555681,0.0338195,0.455052,-0.21017,-0.243138,3.94728e-06,7.07638e-06,-2.76505e-06,0.454279,0.5762553461809323,3.947287790628806e-06,7.076405037720335e-06,-0.18955354163934923,-2.765046177244379e-06,-0.21583670822985412
595,0.5773,905.419,0.175055,-0.0649089,0.00197045,0.0357009,-0.0375234,0.455687,-0.210463,-0.243478,3.8265e-06,8.4961e-06,-3.74249e-06,0.454917,0.577256586185815,3.826507321003092e-06,8.49613609199551e-06,-0.1897909676670373,-3.7424829968379925e-06,-0.21610327842955412
596,0.5783,905.581,-0.166243,0.0960407,0.0120586,-0.067298,0.0421619,0.45632,-0.21076,-0.243814,3.99296e-06,6.82041e-06,-2.64194e-06,0.455555,0.5782553056662381,3.992967971822026e-06,6.820433259058234e-06,-0.1900315640193132,-2.6419365101171266e-06,-0.21636662348355518
597,0.5793,905.905,0.218747,-0.083568,0.000280687,0.0488498,-0.0470206,0.456954,-0.211053,-0.244154,3.82253e-06,8.63744e-06,-3.86486e-06,0.456192,0.5792562367916698,3.822537305797624e-06,8.6374773027309e-06,-0.1902688500069608,-3.86485253145441e-06,-0.21663301354269449
598,0.5803,906.044,-0.215,0.117142,0.0137838,-0.081868,0.0528557,0.457587,-0.21135,-0.24449,4.04147e-06,6.51921e-06,-2.48665e-06,0.456829,0.5802562224516301,4.041478166794121e-06,6.519231250168289e-06,-0.19050930444925662,-2.486646908272938e-06,-0.21689618063559668
599,0.5813,906.391,0.273073,-0.107565,-0.00167107,0.0652307,-0.0591171,0.458219,-0.211642,-0.24483,3.8143e-06,8.83087e-06,-4.02302e-06,0.457465,0.5812552600468461,3.8143072744745155e-06,8.830908992285558e-06,-0.19074564122550874,-4.0230119077167e-06,-0.21716239067590914
600,0.5823,906.502,-0.275606,0.144042,0.0158208,-0.100023,0.0663919,0.458852,-0.21194,-0.245165,4.09463e-06,6.16092e-06,-2.29245e-06,0.458101,0.5822565114891047,4.0946383830231525e-06,6.160938978538866e-06,-0.19098676309548057,-2.292447372376216e-06,-0.21742459735296216
601,0.5833,906.878,0.340717,-0.137947,-0.00400449,0.0856454,-0.0743603,0.459483,-0.21223,-0.245504,3.79994e-06,9.08933e-06,-4.2245e-06,0.458737,0.5832552304105365,3.799947219773614e-06,9.089371308057537e-06,-0.1912213429184646,-4.224491076842973e-06,-0.21768984545236647
602,0.5843,906.955,-0.351004,0.177943,0.0182871,-0.12264,0.0833905,0.460115,-0.212528,-0.245838,4.15422e-06,5.73151e-06,-2.05086e-06,0.459372,0.584256163977847,4.154228628872048e-06,5.731526425245548e-06,-0.19146232305045185,-2.0508578969513636e-06,-0.21795109341314733
603,0.5853,907.367,0.42493,-0.176088,-0.00684661,0.111071,-0.0934513,0.460746,-0.212818,-0.246178,3.77746e-06,9.42858e-06,-4.47892e-06,0.460007,0.5852561450781746,3.7774671346468836e-06,9.428624449192569e-06,-0.19169676498104427,-4.478909969685141e-06,-0.2182169448440825
604,0.5863,907.402,-0.44473,0.22038,0.0213086,-0.150776,0.104628,0.461377,-0.213117,-0.246511,4.22217e-06,5.21405e-06,-1.75122e-06,0.460641,0.5862567573656952,4.2221789133822796e-06,5.214063593106388e-06,-0.19193841152035696,-1.7512184665724462e-06,-0.21847723526068985
605,0.5873,907.859,0.529652,-0.223722,-0.0103406,0.142698,-0.117265,0.462007,-0.213405,-0.246851,3.74459e-06,9.86784e-06,-4.79831e-06,0.461275,0.5872564139816061,3.744597010912898e-06,9.867888687287163e-06,-0.19217109974912583,-4.798298488095654e-06,-0.21874290783380446
606,0.5883,907.842,-0.561067,0.273264,0.0250267,-0.185713,0.131065,0.462637,-0.213704,-0.247183,4.30061e-06,4.58807e-06,-1.38039e-06,0.461909,0.5882567005796084,4.300619247610271e-06,4.588080525280702e-06,-0.1924126044835438,-1.380389047289654e-06,-0.2190022421365273
607,0.5893,908.131,-0.275791,0.124707,0.0179304,-0.0981966,0.057319,0.463266,-0.213996,-0.24752,4.23337e-06,5.58719e-06,-2.15946e-06,0.462542,0.5892560282998931,4.233378960716294e-06,5.587205608392765e-06,-0.19264838557731967,-2.1594576683492406e-06,-0.21926539403734147
608,0.5903,908.447,0.0281146,0.0117978,0.00402365,-0.00804224,-0.00104268,0.463895,-0.214287,-0.247856,4.03956e-06,6.87521e-06,-2.88654e-06,0.463175,0.5902559847950428,4.039568159086571e-06,6.8752336344068965e-06,-0.19288329071676114,-2.886535833912518e-06,-0.21952767679897345
609,0.5913,908.642,-0.100505,0.0544719,0.0110339,-0.0458249,0.0230117,0.464524,-0.214581,-0.248191,4.16022e-06,6.20065e-06,-2.52745e-06,0.463808,0.5912565704606811,4.160228653793396e-06,6.200669224076805e-06,-0.19312054815073865,-2.5274468059555133e-06,-0.21978909123788248
610,0.5923,908.929,0.107866,-0.0262571,0.00177774,0.016345,-0.0193189,0.465152,-0.214872,-0.248527,4.02833e-06,7.15056e-06,-3.09819e-06,0.46444,0.5922561934356918,4.028338113748475e-06,7.150585565218748e-06,-0.19335531591086108,-3.0981852006117805e-06,-0.2200511980668134
611,0.5933,909.107,-0.100018,0.0582008,0.01032,-0.0456822,0.0242132,0.46578,-0.215166,-0.248861,4.16955e-06,6.12371e-06,-2.49325e-06,0.465071,0.5932564443710895,4.1695586925349915e-06,6.123728749862778e-06,-0.19359243458982944,-2.4932468918326123e-06,-0.2203116574675178
612,0.5943,909.397,0.137298,-0.0416639,0.00113779,0.0254115,-0.0268228,0.466407,-0.215457,-0.249197,4.0373e-06,7.22908e-06,-3.19049e-06,0.465703,0.594255729404831,4.037308149795749e-06,7.2291061299356585e-06,-0.19382706505097602,-3.1904849103758792e-06,-0.22057358874369015
613,0.5953,909.565,-0.123485,0.0708165,0.0107049,-0.0527958,0.0302468,0.467034,-0.21575,-0.249531,4.1941e-06,5.94665e-06,-2.40232e-06,0.466334,0.5952556411867536,4.194108795152474e-06,5.946667681389073e-06,-0.19406323911972534,-2.4023171144582633e-06,-0.22083387369504315
614,0.5963,909.864,0.166772,-0.0565831,0.00039861,0.0344111,-0.0340692,0.467661,-0.21604,-0.249866,4.04407e-06,7.31207e-06,-3.28247e-06,0.466964,0.5962561801099517,4.044078177223298e-06,7.312096733214091e-06,-0.19429692689401568,-3.2824646126750068e-06,-0.22109485063127776
615,0.5973,910.018,-0.155449,0.0865014,0.0115038,-0.0624368,0.0379296,0.468287,-0.216334,-0.250199,4.2247e-06,5.73094e-06,-2.28982e-06,0.467594,0.5972557493112183,4.224708924027709e-06,5.730956421867717e-06,-0.19453376878004558,-2.289817378375858e-06,-0.22135418286480424
616,0.5983,910.331,0.202673,-0.0739405,-0.000637936,0.0453257,-0.0426079,0.468913,-0.216623,-0.250534,4.04605e-06,7.42668e-06,-3.3926e-06,0.468224,0.5982559444386992,4.04605818538073e-06,7.426707577806724e-06,-0.19476651488743568,-3.3925942450885316e-06,-0.2216149855266597
617,0.5993,910.468,-0.195314,0.105369,0.0126313,-0.0744357,0.0472571,0.469539,-0.216917,-0.250866,4.26023e-06,5.47775e-06,-2.15497e-06,0.468853,0.5992567658843471,4.260239074849181e-06,5.4777650029258496e-06,-0.19500321873488824,-2.154967678080766e-06,-0.22187336645785694
618,0.6003,910.799,0.246926,-0.0947984,-0.00200207,0.0587444,-0.0529366,0.470164,-0.217206,-0.251202,4.04279e-06,7.58194e-06,-3.52743e-06,0.469482,0.6002566137829461,4.0427981720103645e-06,7.581968743064493e-06,-0.19523582919084403,-3.5274237786264706e-06,-0.22213477308795393
619,0.6013,910.914,-0.244385,0.128201,0.0140965,-0.0891937,0.0585961,0.470788,-0.217499,-0.251533,4.30082e-06,5.18044e-06,-1.99266e-06,0.470111,0.601255485525519,4.300829248515825e-06,5.18045341846296e-06,-0.195471590552165,-1.992658014704496e-06,-0.22239220387091685
620,0.6023,911.267,0.301269,-0.120083,-0.00372792,0.0752003,-0.0655003,0.471413,-0.217787,-0.251868,4.03375e-06,7.78644e-06,-3.693e-06,0.470739,0.6022565830143498,4.03375813551321e-06,7.786470314297134e-06,-0.19570326137188665,-3.692993180925974e-06,-0.22265265885397467
621,0.6033,911.356,-0.30448,0.155941,0.015937,-0.107263,0.0724024,0.472037,-0.218081,-0.252199,4.34707e-06,4.83009e-06,-1.79666e-06,0.471366,0.603256703127174,4.347079448629998e-06,4.830101664854425e-06,-0.19593968985635302,-1.7966583859552188e-06,-0.22290991824511597
622,0.6043,911.737,0.367758,-0.150822,-0.00586833,0.0953202,-0.0807997,0.47266,-0.218368,-0.252534,4.01807e-06,8.05038e-06,-3.89618e-06,0.471994,0.6042558432530554,4.018078072487441e-06,8.050412404481122e-06,-0.19617042205371016,-3.8961724099229045e-06,-0.2231701998229053
623,0.6053,911.793,-0.377828,0.189682,0.0182098,-0.129316,0.0892108,0.473283,-0.218662,-0.252864,4.39984e-06,4.41589e-06,-1.55965e-06,0.472621,0.6052556060371728,4.39984967925966e-06,4.415899750087604e-06,-0.19640671321312397,-1.5596487837887807e-06,-0.22342651136323366
624,0.6063,912.208,0.448869,-0.188205,-0.00849561,0.119857,-0.0994209,0.473906,-0.218948,-0.253199,3.9946e-06,8.38599e-06,-4.14498e-06,0.473247,0.6062559918675636,3.9946079783970134e-06,8.38602516251008e-06,-0.1966365080309197,-4.144971409547615e-06,-0.22368661991131256
625,0.6073,912.225,-0.467101,0.2307,0.0209889,-0.156158,0.10965,0.474528,-0.219243,-0.253527,4.46026e-06,3.92489e-06,-1.27304e-06,0.473874,0.6072553938763088,4.460269946937601e-06,3.924897702400898e-06,-0.19687346530813377,-1.2730391897308735e-06,-0.22394120894509761
626,0.6083,912.682,0.547566,-0.233628,-0.0117022,0.149714,-0.122056,0.47515,-0.219527,-0.253864,3.96184e-06,8.80801e-06,-4.44889e-06,0.474499,0.6082554177064701,3.961847848010791e-06,8.808048790553968e-06,-0.19710152085856525,-4.4488801037578796e-06,-0.22420269669452264
627,0.6093,912.825,0.240819,-0.118402,0.00175821,0.0575402,-0.0630123,0.475772,-0.219818,-0.254194,4.15694e-06,7.61939e-06,-3.85688e-06,0.475125,0.6092560637449402,4.156948639977287e-06,7.619419027715679e-06,-0.1973351303241696,-3.856872562213454e-06,-0.22445866756709654
628,0.6103,913.022,0.0268437,0.0197149,0.00277331,-0.00825278,0.0018949,0.476393,-0.220108,-0.254525,4.17454e-06,6.63552e-06,-3.03873e-06,0.47575,0.6102557221223261,4.1745487133759696e-06,6.635542015187568e-06,-0.1975678693875803,-3.0387253830976846e-06,-0.22471532926827698
629,0.6113,913.246,0.0901895,-0.0368603,0.00556697,0.0122231,-0.0220782,0.477014,-0.220397,-0.254856,4.22356e-06,6.96984e-06,-3.38625e-06,0.476374,0.6112560014803592,4.223568919270448e-06,6.969864289496641e-06,-0.19779973876658818,-3.3862442666565684e-06,-0.22497190602849282
630,0.6123,913.451,-0.0440846,0.0464887,0.00598873,-0.029478,0.0165242,0.477634,-0.220687,-0.255187,4.2392e-06,6.27977e-06,-2.86204e-06,0.476999,0.6122552899486915,4.2392089854015325e-06,6.279789717789086e-06,-0.19803234311308548,-2.8620359043829424e-06,-0.2252283978758548
631,0.6133,913.697,0.0888097,-0.0312109,0.00465009,0.0114151,-0.0200077,0.478254,-0.220975,-0.255518,4.22664e-06,6.91105e-06,-3.36136e-06,0.477622,0.6132551981679775,4.226648932181831e-06,6.911073881399332e-06,-0.19826327654225895,-3.361354350639445e-06,-0.22548480483846456
632,0.6143,913.891,-0.0673912,0.0533298,0.00735643,-0.0363057,0.020402,0.478874,-0.221264,-0.255848,4.2781e-06,6.11373e-06,-2.80558e-06,0.478246,0.6142557265225812,4.278109151156784e-06,6.113748688862941e-06,-0.19849494497763687,-2.8055760643574956e-06,-0.22574035268515413
633,0.6153,914.148,0.105194,-0.035895,0.00358355,0.0162572,-0.0227326,0.479493,-0.221552,-0.256179,4.22814e-06,6.92969e-06,-3.39362e-06,0.478869,0.6152552601410384,4.228148938523191e-06,6.929714010395216e-06,-0.19872574519665642,-3.3936142417312354e-06,-0.22599659021876395
634,0.6163,914.331,-0.0877194,0.0603162,0.00837672,-0.042276,0.0242027,0.480112,-0.221841,-0.256508,4.3119e-06,5.95711e-06,-2.74759e-06,0.479492,0.6162554126623361,4.311909296284e-06,5.957127743538848e-06,-0.19895727999790436,-2.7475862254267014e-06,-0.22625119545572403
635,0.6173,914.599,0.126084,-0.0438158,0.00257863,0.0225174,-0.0269071,0.480731,-0.222128,-0.256839,4.23053e-06,6.97008e-06,-3.44486e-06,0.480114,0.6172561844696938,4.2305389487129474e-06,6.970104291070811e-06,-0.19918714627115686,-3.444854066447789e-06,-0.22650726392835796
636,0.6183,914.769,-0.110691,0.0694614,0.0093147,-0.04909,0.0289483,0.481349,-0.222418,-0.257168,4.34436e-06,5.78654e-06,-2.67652e-06,0.480736,0.6182559576898012,4.3443694366374075e-06,5.786556741993465e-06,-0.19941934832781272,-2.6765164181652423e-06,-0.22676170118130246
637,0.6193,915.048,0.15083,-0.0542211,0.00157562,0.0299795,-0.0322254,0.481967,-0.222704,-0.257499,4.23277e-06,7.03005e-06,-3.51172e-06,0.481357,0.6192563489607168,4.232778958224159e-06,7.030074710812073e-06,-0.19964828165516468,-3.5117138339479936e-06,-0.22701760070450394
638,0.6203,915.205,-0.137712,0.0810324,0.0102818,-0.0571523,0.0348263,0.482584,-0.222993,-0.257827,4.37716e-06,5.59593e-06,-2.59004e-06,0.481979,0.6202557384079652,4.377169579683482e-06,5.595945657299595e-06,-0.19987954988189793,-2.5900366458220248e-06,-0.22727109735574935
639,0.6213,915.497,0.180178,-0.0671771,0.000501712,0.0388534,-0.0387559,0.483201,-0.223279,-0.258157,4.23373e-06,7.11316e-06,-3.59522e-06,0.482599,0.6212557446687701,4.233738962300393e-06,7.113185298557312e-06,-0.20010835161042495,-3.5952135372108174e-06,-0.2275260558231611
640,0.6223,915.639,-0.169767,0.0952633,0.0113475,-0.0667496,0.0419831,0.483818,-0.223568,-0.258485,4.41139e-06,5.38068e-06,-2.4862e-06,0.48322,0.6222563681238229,4.411399730175347e-06,5.380694475976e-06,-0.200339486896152,-2.4861969094569503e-06,-0.22777938572847545
641,0.6233,915.946,0.215083,-0.0829565,-0.000703615,0.0494203,-0.0466574,0.484434,-0.223853,-0.258815,4.23246e-06,7.22402e-06,-3.69755e-06,0.48384,0.623255985897252,4.232468956866242e-06,7.224046093323722e-06,-0.20056735766925904,-3.697543164093986e-06,-0.2280341764883974
642,0.6243,916.07,-0.207882,0.112497,0.0125666,-0.0781836,0.0506064,0.48505,-0.224142,-0.259142,4.44786e-06,5.13591e-06,-2.36241e-06,0.48446,0.6242562196249242,4.447869891732736e-06,5.135923188737124e-06,-0.20079836032140164,-2.362407209521855e-06,-0.22828656804441727
643,0.6253,916.394,0.256629,-0.101958,-0.00209295,0.062003,-0.056142,0.485665,-0.224426,-0.259472,4.22814e-06,7.3679e-06,-3.82162e-06,0.485079,0.6252554444301268,4.228148938523191e-06,7.36792714306489e-06,-0.20102530135991747,-3.821612697629817e-06,-0.22854119146178808
644,0.6263,916.498,-0.253201,0.133185,0.0139878,-0.0917945,0.0609312,0.48628,-0.224716,-0.259798,4.48735e-06,4.85612e-06,-2.21547e-06,0.485698,0.6262552839475892,4.4873600681949455e-06,4.856131790909046e-06,-0.20125697042888446,-2.2154675458629924e-06,-0.2287926460440477
645,0.6273,916.843,0.306043,-0.12469,-0.00371649,0.0769711,-0.0674706,0.486895,-0.224999,-0.260128,4.21996e-06,7.55084e-06,-3.97098e-06,0.486316,0.6272557385554758,4.2199689040955946e-06,7.550868507566477e-06,-0.2014829827240049,-3.970972115685534e-06,-0.22904710248323146
646,0.6283,916.922,-0.307023,0.157886,0.0156583,-0.107971,0.0732409,0.487509,-0.225289,-0.260453,4.53056e-06,4.535e-06,-2.04152e-06,0.486934,0.6282551803761891,4.530570262950562e-06,4.535010283079899e-06,-0.20171451908462001,-2.0415179160515606e-06,-0.22929762146338506
647,0.6293,917.293,0.364734,-0.151769,-0.00562601,0.0947504,-0.0809547,0.488123,-0.225571,-0.260784,4.2071e-06,7.77984e-06,-4.1499e-06,0.487552,0.6292552360426116,4.207108849962893e-06,7.779870263124877e-06,-0.20193960385179432,-4.149891389193527e-06,-0.22955268173587684
648,0.6303,917.343,-0.370842,0.187268,0.0176275,-0.12716,0.0878696,0.488737,-0.225861,-0.261108,4.57825e-06,4.16533e-06,-1.83601e-06,0.48817,0.6302559059317603,4.578260480281315e-06,4.1653386750883925e-06,-0.20217100781148145,-1.8360083144930428e-06,-0.22980226623212263
649,0.6313,917.743,0.43432,-0.183924,-0.00787783,0.115832,-0.0969599,0.48935,-0.226142,-0.261438,4.18865e-06,8.06297e-06,-4.36338e-06,0.488786,0.631255559164509,4.188658772497078e-06,8.063002505886985e-06,-0.20239516626254905,-4.36337048048685e-06,-0.23005638955161223
650,0.6323,917.76,-0.446368,0.222112,0.0199485,-0.149875,0.105207,0.489963,-0.226433,-0.261762,4.63123e-06,3.73881e-06,-1.59362e-06,0.489403,0.6322558253725472,4.631240724251029e-06,3.738816989340421e-06,-0.20262723550145467,-1.5936187302001414e-06,-0.23030581087296143
651,0.6333,918.195,0.516665,-0.222006,-0.0105351,0.140783,-0.115912,0.490576,-0.226712,-0.262092,4.16356e-06,8.40959e-06,-4.61723e-06,0.490019,0.6332567049317439,4.16356866761447e-06,8.409625360750184e-06,-0.20284967147148913,-4.617219340641299e-06,-0.23055976805013445
652,0.6343,918.173,-0.535566,0.263328,0.0226797,-0.176702,0.125705,0.491188,-0.227004,-0.262414,4.69038e-06,3.24596e-06,-1.30821e-06,0.490635,0.6342565639608175,4.690390999817495e-06,3.245965268128259e-06,-0.20308240538661415,-1.3082091443461508e-06,-0.230807487919783
653,0.6353,918.649,0.613916,-0.267005,-0.0136702,0.170258,-0.138304,0.491799,-0.227282,-0.262746,4.13065e-06,8.83052e-06,-4.91819e-06,0.49125,0.635255399834683,4.130658531220632e-06,8.830558989147974e-06,-0.20330391768628042,-4.918177905710586e-06,-0.23106281744674684
654,0.6363,918.772,0.262636,-0.129211,0.000923047,0.0644539,-0.068217,0.492411,-0.227569,-0.263071,4.34235e-06,7.44357e-06,-4.19708e-06,0.491866,0.6362564824394132,4.342359428033404e-06,7.443597703327143e-06,-0.20353253665351334,-4.197071192257873e-06,-0.23131268142598072
655,0.6373,918.956,0.0330702,0.0153451,0.00254279,-0.0060206,-6.10724e-05,0.493022,-0.227854,-0.263395,4.36838e-06,6.38714e-06,-3.34318e-06,0.49248,0.6372565406368511,4.368389541431483e-06,6.38716039791376e-06,-0.20375949753710498,-3.343174411529759e-06,-0.23156169577469576
656,0.6383,919.17,0.0908168,-0.0374608,0.00531024,0.0126971,-0.0223607,0.493632,-0.228139,-0.263722,4.41677e-06,6.69922e-06,-3.66948e-06,0.493095,0.6382555718001661,4.416779753935174e-06,6.699242439900388e-06,-0.2039863937460613,-3.6694732674646957e-06,-0.23181293402048553
657,0.6393,919.365,-0.0420756,0.0442363,0.00586492,-0.0285636,0.0155627,0.494242,-0.228424,-0.264046,4.43401e-06,6.013e-06,-3.15705e-06,0.493709,0.6392552125583983,4.43401983019065e-06,6.01301807812149e-06,-0.20421322529881203,-3.15704501652192e-06,-0.23206178631361452
658,0.6403,919.6,0.0850504,-0.0299232,0.00455253,0.0105638,-0.0193223,0.494852,-0.228707,-0.264372,4.42137e-06,6.62138e-06,-3.63338e-06,0.494322,0.640255463283514,4.421379774299794e-06,6.621401921425019e-06,-0.20443840109217493,-3.6333733992588435e-06,-0.23231209336900938
659,0.6413,919.786,-0.063161,0.0502379,0.00713327,-0.0347382,0.0190004,0.495462,-0.228992,-0.264697,4.47075e-06,5.8583e-06,-3.10816e-06,0.494936,0.6412563243477065,4.47075999376878e-06,5.858317159823656e-06,-0.2046651038411874,-3.1081551696843235e-06,-0.23256155139953882
660,0.6423,920.031,0.0979093,-0.0331777,0.00363053,0.0143549,-0.0213061,0.496071,-0.229275,-0.265022,4.42425e-06,6.62482e-06,-3.65664e-06,0.495548,0.6422561538664211,4.424259786972584e-06,6.6248419441361506e-06,-0.20489015177101633,-3.6566333144749663e-06,-0.23281092836938133
661,0.6433,920.208,-0.0796893,0.0556795,0.00799929,-0.0395761,0.0220021,0.49668,-0.229559,-0.265346,4.50149e-06,5.72051e-06,-3.06241e-06,0.496161,0.6432565924667593,4.501500131759428e-06,5.720526362162914e-06,-0.20511593090575864,-3.0624053107830562e-06,-0.23305945736471823
662,0.6443,920.461,0.114323,-0.039229,0.00280046,0.0192779,-0.0245219,0.497288,-0.229842,-0.265671,4.42851e-06,6.6454e-06,-3.69577e-06,0.496773,0.6442559962629462,4.42851980575476e-06,6.645422080620023e-06,-0.20534085126957968,-3.6957631706080463e-06,-0.23330867254141485
663,0.6453,920.628,-0.097542,0.0626593,0.00874331,-0.0448593,0.0256423,0.497896,-0.230126,-0.265995,4.53028e-06,5.57511e-06,-3.00776e-06,0.497385,0.6452560078814005,4.5302902618171714e-06,5.575125541001924e-06,-0.20556650242383856,-3.0077554766805292e-06,-0.2335570402937629
664,0.6463,920.89,0.133195,-0.0471018,0.00201387,0.0249796,-0.0285538,0.498504,-0.230408,-0.26632,4.43328e-06,6.67881e-06,-3.74599e-06,0.497996,0.6462566276917903,4.433289827021625e-06,6.678832303208537e-06,-0.2057905010848594,-3.7459829838049075e-06,-0.23380609378228334
665,0.6473,921.047,-0.117853,0.071312,0.00946971,-0.0509106,0.0300428,0.499111,-0.230692,-0.266643,4.55869e-06,5.41733e-06,-2.94281e-06,0.498607,0.6472562088069764,4.55870039073325e-06,5.417344673741553e-06,-0.20601602455670243,-2.9428056699254412e-06,-0.23405353445017252
666,0.6483,921.319,0.15489,-0.0566872,0.00120971,0.0315557,-0.0333835,0.499718,-0.230974,-0.266968,4.43761e-06,6.72677e-06,-3.80715e-06,0.499218,0.648256396852084,4.437619846253682e-06,6.7267926247005505e-06,-0.20623989647035412,-3.8071427528318935e-06,-0.23430242660431033
667,0.6493,921.463,-0.141216,0.0816929,0.0102355,-0.0578984,0.0352606,0.500324,-0.231258,-0.26729,4.58759e-06,5.24448e-06,-2.86682e-06,0.499828,0.6492555429392639,4.587600523020541e-06,5.244493752387669e-06,-0.20646529233202915,-2.866815890678609e-06,-0.23454894153191053
668,0.6503,921.746,0.179923,-0.0680586,0.000342511,0.0391539,-0.0390693,0.50093,-0.231539,-0.267614,4.44078e-06,6.79172e-06,-3.88005e-06,0.500438,0.6502552946924709,4.4407898602827345e-06,6.791743063727651e-06,-0.20668824425867116,-3.880042472648171e-06,-0.23479690750219773
669,0.6513,921.878,-0.168174,0.093928,0.0110794,-0.0659798,0.0413746,0.501536,-0.231823,-0.267936,4.61759e-06,5.054e-06,-2.7787e-06,0.501048,0.6512556524788498,4.6176006611720055e-06,5.0540127713993854e-06,-0.20691351280765358,-2.778696139404957e-06,-0.23504326323258085
670,0.6523,922.173,0.208842,-0.0813748,-0.000622059,0.0479358,-0.0457032,0.502142,-0.232103,-0.268261,4.44225e-06,6.87634e-06,-3.96596e-06,0.501657,0.6522566166657682,4.442259866843656e-06,6.87636364204991e-06,-0.20713554593797856,-3.9659521355872585e-06,-0.2352918337771288
671,0.6533,922.291,-0.199289,0.108208,0.0120313,-0.0753209,0.048489,0.502747,-0.232387,-0.268582,4.64914e-06,4.84318e-06,-2.67704e-06,0.502266,0.6532565343634551,4.649150807223279e-06,4.843191728109986e-06,-0.2073606874713212,-2.6770364167649774e-06,-0.23553726570455458
672,0.6543,922.599,0.242236,-0.0968547,-0.00171246,0.0580774,-0.0534011,0.503351,-0.232666,-0.268906,4.44156e-06,6.98353e-06,-4.06645e-06,0.502874,0.6542554029381531,4.441569863677941e-06,6.983554384998314e-06,-0.2075818029924672,-4.066441732009096e-06,-0.2357849115096794
673,0.6553,922.701,-0.235172,0.124775,0.0131165,-0.0861029,0.0567294,0.503956,-0.232951,-0.269226,4.68264e-06,4.60905e-06,-2.56013e-06,0.503482,0.6552565302674114,4.682650963649948e-06,4.609060621607597e-06,-0.20780760999958736,-2.560126722839229e-06,-0.2360294212143571
674,0.6563,923.026,0.280746,-0.114766,-0.00295475,0.0697726,-0.0623003,0.50456,-0.233229,-0.26955,4.4383e-06,7.11652e-06,-4.1834e-06,0.50409,0.6562566072045242,4.438309849197353e-06,7.116545322594092e-06,-0.20802780887494565,-4.183391249634738e-06,-0.23627690758692632
675,0.6573,923.109,-0.276489,0.143919,0.0143587,-0.0985249,0.0662419,0.505163,-0.233514,-0.26987,4.71845e-06,4.34837e-06,-2.42599e-06,0.504697,0.6572556311141062,4.718461131814067e-06,4.348379454066631e-06,-0.20825348878850103,-2.4259870572418407e-06,-0.23652125987804673
676,0.6583,923.452,0.325082,-0.135422,-0.00437475,0.0832361,-0.0725583,0.505766,-0.233791,-0.270194,4.43203e-06,7.27888e-06,-4.31896e-06,0.505304,0.6582552576167691,4.432039821367084e-06,7.278906491103854e-06,-0.20847277219995208,-4.318950673320998e-06,-0.23676858692070168
677,0.6593,923.514,-0.323974,0.165971,0.0157813,-0.112807,0.0771924,0.506369,-0.234076,-0.270513,4.75693e-06,4.05756e-06,-2.27236e-06,0.505911,0.6592554870759861,4.7569413141879124e-06,4.0575682318522155e-06,-0.20869832531702914,-2.2723574182315076e-06,-0.23701201891200707
678,0.6603,923.878,0.376026,-0.159176,-0.00599943,0.0987065,-0.0843533,0.506972,-0.234353,-0.270837,4.42231e-06,7.47459e-06,-4.47554e-06,0.506517,0.6602563198554501,4.422319778374373e-06,7.474617934821737e-06,-0.20891748552582612,-4.4755299848375785e-06,-0.23725918697449122
679,0.6613,923.916,-0.378441,0.191307,0.0174088,-0.129192,0.0897668,0.507574,-0.234638,-0.271155,4.79844e-06,3.73265e-06,-2.09673e-06,0.507123,0.6612560950621467,4.798451512577628e-06,3.7326569664042353e-06,-0.20914291191766454,-2.096727801825793e-06,-0.23750169999142
680,0.6623,924.305,0.434444,-0.18643,-0.00785788,0.116448,-0.0978843,0.508176,-0.234914,-0.27148,4.40866e-06,7.70809e-06,-4.65586e-06,0.507728,0.6622564723147153,4.408669718181102e-06,7.708119707405814e-06,-0.20936115835458158,-4.6558491615389386e-06,-0.23774947167384353
681,0.6633,924.315,-0.440783,0.220345,0.0192666,-0.147947,0.104172,0.508777,-0.235199,-0.271797,4.84335e-06,3.3693e-06,-1.89629e-06,0.508334,0.6632557887190766,4.84336172901223e-06,3.369305676015344e-06,-0.20958645831768075,-1.8962882020190364e-06,-0.23799106679647286
682,0.6643,924.733,0.501296,-0.217628,-0.00998203,0.136755,-0.113373,0.509378,-0.235474,-0.272121,4.39052e-06,7.98432e-06,-4.86296e-06,0.508938,0.6642557058931098,4.390529638298446e-06,7.984351874767981e-06,-0.20980379215687084,-4.862948175810011e-06,-0.23823791769882519
683,0.6653,924.711,-0.51199,0.25355,0.0213822,-0.169368,0.120638,0.509979,-0.235759,-0.272437,4.89207e-06,2.96275e-06,-1.66793e-06,0.509543,0.6652562241979865,4.892081966190176e-06,2.9627543889354513e-06,-0.21002896598731113,-1.6679286090059975e-06,-0.23847859648758096
684,0.6663,925.161,0.57764,-0.253264,-0.0124073,0.159952,-0.131066,0.510579,-0.236033,-0.272762,4.36729e-06,8.30877e-06,-5.10018e-06,0.510147,0.666255677738584,4.3672995366783596e-06,8.308804517964674e-06,-0.2102453883994062,-5.100166994065347e-06,-0.2387260507302299
685,0.6673,925.278,0.237823,-0.117885,0.00139032,0.0574818,-0.0624881,0.511179,-0.236314,-0.273081,4.57051e-06,6.93231e-06,-4.38118e-06,0.51075,0.6672557311312435,4.570520444779902e-06,6.932334028597609e-06,-0.21046727826827927,-4.381170402689705e-06,-0.23896885839016624
686,0.6683,925.457,0.0380463,0.010685,0.00237307,-0.00399051,-0.00204259,0.511779,-0.236595,-0.2734,4.58703e-06,6.00396e-06,-3.62815e-06,0.511354,0.6682563847359839,4.5870405205317155e-06,6.003978023860768e-06,-0.21068910579485878,-3.6281434182550143e-06,-0.2392115886068118
687,0.6693,925.657,0.0756305,-0.0304206,0.00536645,0.00852368,-0.018884,0.512378,-0.236874,-0.27372,4.63916e-06,6.21481e-06,-3.87744e-06,0.511957,0.6692559696562366,4.639170760878386e-06,6.214829312067849e-06,-0.21090929281682413,-3.8774324827572926e-06,-0.2394550019502456
688,0.6703,925.848,-0.0285918,0.0362042,0.00534184,-0.0239911,0.0117873,0.512977,-0.237153,-0.274039,4.64678e-06,5.66559e-06,-3.4651e-06,0.512559,0.6702561535072185,4.646790796369871e-06,5.6656060494209015e-06,-0.2111294184151794,-3.465093996513069e-06,-0.23969757711182804
689,0.6713,926.066,0.0669748,-0.0217968,0.00474863,0.00555051,-0.0152679,0.513575,-0.237432,-0.274358,4.64482e-06,6.12341e-06,-3.83374e-06,0.513162,0.6712552653916954,4.644830787103871e-06,6.123428748061599e-06,-0.21134948260705932,-3.833732651226107e-06,-0.23994007490427516
690,0.6723,926.25,-0.0442413,0.0400521,0.0063817,-0.0285424,0.0141069,0.514174,-0.237711,-0.274677,4.67895e-06,5.53816e-06,-3.43246e-06,0.513764,0.6722566471795692,4.6789609462472015e-06,5.538175335662032e-06,-0.21156948540959386,-3.4324541091645955e-06,-0.24018249535226344
691,0.6733,926.476,0.0745931,-0.0229063,0.00404106,0.00777385,-0.0161445,0.514771,-0.237989,-0.274996,4.64979e-06,6.10364e-06,-3.8429e-06,0.514365,0.6732552824609066,4.649800810385685e-06,6.103658627187869e-06,-0.21178863862894115,-3.842892616123805e-06,-0.24042483848046203
692,0.6743,926.653,-0.0547233,0.0429732,0.00701221,-0.0315726,0.0158169,0.515369,-0.238268,-0.275314,4.70492e-06,5.43133e-06,-3.40558e-06,0.514966,0.6742561883608549,4.704931068078011e-06,5.43134474972895e-06,-0.21200851892403616,-3.4055742009764245e-06,-0.24066634498025663
693,0.6753,926.884,0.0844294,-0.0261436,0.00345897,0.0107225,-0.0179286,0.515966,-0.238546,-0.275633,4.65667e-06,6.09463e-06,-3.86356e-06,0.515567,0.6752560177246758,4.656680842263228e-06,6.094648572263495e-06,-0.21222755010902994,-3.863552536453874e-06,-0.24090853378503974
694,0.6763,927.055,-0.0653,0.0467964,0.00749377,-0.0346733,0.0178585,0.516563,-0.238825,-0.275951,4.7285e-06,5.32304e-06,-3.37403e-06,0.516168,0.6762564441648364,4.7285111792749746e-06,5.3230541674498255e-06,-0.21244730796490308,-3.3740243079449783e-06,-0.24114988649418145
695,0.6773,927.291,0.0952968,-0.0304865,0.00295582,0.0140155,-0.0201803,0.517159,-0.239102,-0.276269,4.66465e-06,6.09142e-06,-3.89055e-06,0.516768,0.6772557907812684,4.664660879560856e-06,6.0914385526800174e-06,-0.21266542984932113,-3.890542431772559e-06,-0.24139116246536363
696,0.6783,927.455,-0.0768066,0.0515315,0.0079193,-0.0380783,0.0202897,0.517755,-0.239381,-0.276586,4.75108e-06,5.20989e-06,-3.33724e-06,0.517367,0.6782557331858108,4.751091286392395e-06,5.209903571445906e-06,-0.21288506555378772,-3.337234431466385e-06,-0.2416316033549677
697,0.6793,927.697,0.107306,-0.0357183,0.00248042,0.0176722,-0.0228262,0.518351,-0.239657,-0.276905,4.67292e-06,6.09445e-06,-3.92294e-06,0.517967,0.6792562717336597,4.672930918214746e-06,6.094468571138378e-06,-0.2131022792988192,-3.922932305333582e-06,-0.24187348429143696
698,0.6803,927.855,-0.0895415,0.0571102,0.00833455,-0.0418679,0.0231037,0.518946,-0.239936,-0.277222,4.77338e-06,5.0906e-06,-3.29533e-06,0.518566,0.6802557265236553,4.7733913925984695e-06,5.090612957170393e-06,-0.21332179313929012,-3.29532457044035e-06,-0.24211377230925357
699,0.6813,928.102,0.120662,-0.0417806,0.00199927,0.0217467,-0.0258576,0.519541,-0.240212,-0.27754,4.68095e-06,6.10464e-06,-3.96063e-06,0.519165,0.6812557761662019,4.680960955738556e-06,6.104658633265814e-06,-0.21353888636414053,-3.960622156684579e-06,-0.24235474181347738
700,0.6823,928.253,-0.103715,0.0635151,0.00876629,-0.0460996,0.0263071,0.520136,-0.24049,-0.277856,4.79582e-06,4.96423e-06,-3.2482e-06,0.519763,0.6822564210153423,4.795831499926351e-06,4.964242321880974e-06,-0.21375749216611695,-3.248194724636555e-06,-0.24259411989133606
701,0.6833,928.506,0.135555,-0.048677,0.00149111,0.0262931,-0.0292876,0.52073,-0.240766,-0.278174,4.6884e-06,6.12289e-06,-4.00381e-06,0.520361,0.6832559781685099,4.6884109905498406e-06,6.1229087449099495e-06,-0.21397446515462937,-4.003801984731048e-06,-0.24283493666931355
702,0.6843,928.649,-0.119513,0.0707693,0.00923147,-0.0508265,0.0299196,0.521324,-0.241044,-0.278489,4.81866e-06,4.8299e-06,-3.1956e-06,0.520959,0.6842561292350013,4.818671609729819e-06,4.829911663950526e-06,-0.214192949882532,-3.195594894034315e-06,-0.24307340610335504
703,0.6853,928.909,0.152169,-0.0564451,0.000941721,0.0313645,-0.0331412,0.521917,-0.241319,-0.278807,4.69505e-06,6.1501e-06,-4.05281e-06,0.521556,0.6852551893116738,4.6950610217422195e-06,6.150118911918412e-06,-0.2144090171107088,-4.0528017873908695e-06,-0.24331407049254816
704,0.6863,929.044,-0.137117,0.078922,0.0097417,-0.0561014,0.0339704,0.522511,-0.241598,-0.279122,4.84209e-06,4.68675e-06,-3.13712e-06,0.522153,0.686256528262351,4.842101722912773e-06,4.686760982863802e-06,-0.2146281664221844,-3.1371150792658398e-06,-0.24355238902320386
705,0.6873,929.311,0.170686,-0.0651437,0.000340717,0.0370152,-0.0374511,0.523104,-0.241872,-0.27944,4.70073e-06,6.18717e-06,-4.10808e-06,0.522749,0.6872567749274354,4.700741048413448e-06,6.187189140582916e-06,-0.21484332882598922,-4.108071561814697e-06,-0.24379290112004426
706,0.6883,929.437,-0.156709,0.0880393,0.0103057,-0.0619779,0.0384945,0.523696,-0.24215,-0.279754,4.86624e-06,4.53388e-06,-3.07229e-06,0.523346,0.6882559266579242,4.866251840152103e-06,4.533890278102248e-06,-0.21506157204336285,-3.0722852805142864e-06,-0.24403031287349664
707,0.6893,929.713,0.191291,-0.0748455,-0.000320302,0.0433009,-0.0422551,0.524288,-0.242424,-0.280071,4.7053e-06,6.23505e-06,-4.17012e-06,0.523941,0.6892556700613552,4.705311069885809e-06,6.235069437865448e-06,-0.21527661571029522,-4.170111305046298e-06,-0.24426991728501002
708,0.6903,929.829,-0.178475,0.0981989,0.0109306,-0.0685116,0.0435316,0.52488,-0.242702,-0.280385,4.89121e-06,4.37038e-06,-3.00057e-06,0.524537,0.6902560054881028,4.891221961900172e-06,4.370389550034659e-06,-0.21549473849065648,-3.0005654982900865e-06,-0.2445071792789001
709,0.6913,930.114,0.214177,-0.0856329,-0.00104877,0.05028,-0.0475951,0.525471,-0.242976,-0.280702,4.70863e-06,6.29473e-06,-4.23952e-06,0.525132,0.6912552420326605,4.708641085704457e-06,6.294749811841527e-06,-0.215709663486241,-4.239511013248709e-06,-0.24474663254772033
710,0.6923,930.218,-0.20261,0.109487,0.0116229,-0.0757607,0.0491251,0.526063,-0.243254,-0.281016,4.91712e-06,4.19529e-06,-2.92138e-06,0.525727,0.6922567615564732,4.917132089055087e-06,4.195298800135916e-06,-0.21592766589605283,-2.921375732767295e-06,-0.24498374487651653
711,0.6933,930.514,0.239543,-0.0975963,-0.00185176,0.0580137,-0.0535166,0.526653,-0.243526,-0.281333,4.71062e-06,6.36725e-06,-4.31689e-06,0.526321,0.6932554876410153,4.710631094972939e-06,6.367270271034897e-06,-0.2161409045691549,-4.316880682253554e-06,-0.2452230470979847
712,0.6943,930.606,-0.229316,0.121997,0.0123887,-0.0837855,0.0553212,0.527244,-0.243804,-0.281645,4.94404e-06,4.00761e-06,-2.83409e-06,0.526915,0.6942564974034597,4.944052221844686e-06,4.007618030543725e-06,-0.2163587871106082,-2.8340859840048083e-06,-0.24545850077460651
713,0.6953,930.914,0.2676,-0.110832,-0.00273628,0.066566,-0.0600677,0.527834,-0.244077,-0.281962,4.71113e-06,6.45371e-06,-4.40287e-06,0.527509,0.6952564036802737,4.711141097457627e-06,6.453730825306536e-06,-0.21657269196238627,-4.402860307339829e-06,-0.24569765252230635
714,0.6963,930.993,-0.258803,0.135829,0.0132337,-0.092649,0.0621687,0.528423,-0.244354,-0.282274,4.97206e-06,3.80631e-06,-2.73804e-06,0.528103,0.6962552038198071,4.972072360720503e-06,3.806317244059443e-06,-0.21678967127369064,-2.7380362516149503e-06,-0.24593295814513338
715,0.6973,931.313,0.298564,-0.125443,-0.00370951,0.076004,-0.0672991,0.529013,-0.244626,-0.282591,4.71004e-06,6.55525e-06,-4.49816e-06,0.528695,0.6972562896813501,4.710051092260414e-06,6.5552714856309535e-06,-0.2170026755132144,-4.498149883347402e-06,-0.2461719595136831
716,0.6983,931.377,-0.291292,0.151085,0.0141639,-0.102416,0.069719,0.529602,-0.244904,-0.282903,5.00127e-06,3.59033e-06,-2.63255e-06,0.529288,0.6982562681007076,5.0012825063561195e-06,3.590336445258302e-06,-0.21722031851564272,-2.632546534875324e-06,-0.24640711717581187
717,0.6993,931.711,0.332664,-0.141535,-0.00477885,0.0863975,-0.0752638,0.53019,-0.245175,-0.283219,4.70721e-06,6.67311e-06,-4.60347e-06,0.529881,0.6992551364248587,4.7072210789256275e-06,6.673132265211379e-06,-0.21743242306786004,-4.603459404006749e-06,-0.24664521490536173
718,0.7003,931.76,-0.327008,0.167875,0.015185,-0.113156,0.0780252,0.530779,-0.245453,-0.28353,5.03175e-06,3.35856e-06,-2.5169e-06,0.530473,0.7002562925117368,5.0317626592022435e-06,3.3585656400436648e-06,-0.21764994661707293,-2.5168968326161334e-06,-0.24687947181468872
719,0.7013,932.109,0.370134,-0.15922,-0.00595201,0.0978194,-0.0840172,0.531367,-0.245723,-0.283846,4.70251e-06,6.80854e-06,-4.71957e-06,0.531064,0.7012563371960578,4.7025210567763764e-06,6.808563178140048e-06,-0.21786115261739314,-4.7195588628312635e-06,-0.24711742030375394
720,0.7023,932.14,-0.366186,0.186311,0.0163029,-0.124936,0.0871424,0.531954,-0.246001,-0.284157,5.06357e-06,3.10988e-06,-2.39034e-06,0.531656,0.7022552678234477,5.063582819930801e-06,3.109884835650334e-06,-0.2180785569963567,-2.3903371431099885e-06,-0.24735153038003566
721,0.7033,932.507,0.411216,-0.178613,-0.00723707,0.110345,-0.0936161,0.532542,-0.24627,-0.284473,4.69577e-06,6.96286e-06,-4.84722e-06,0.532246,0.7032564882508863,4.695781025132462e-06,6.962884240735434e-06,-0.21828886557675242,-4.8472082522232895e-06,-0.24758932972216063
722,0.7043,932.519,-0.409065,0.206509,0.0175231,-0.137828,0.0971274,0.533129,-0.246549,-0.284782,5.0968e-06,2.84314e-06,-2.25213e-06,0.532837,0.7042565933116076,5.096812988769628e-06,2.8431440417531206e-06,-0.21850693256149756,-2.252127463964193e-06,-0.24782178870251448
723,0.7053,932.905,0.456161,-0.199832,-0.00864245,0.124052,-0.104119,0.533715,-0.246817,-0.285099,4.68685e-06,7.13747e-06,-4.98722e-06,0.533427,0.7052555803499034,4.686860983316166e-06,7.137495471765121e-06,-0.21871634464109901,-4.9872075638113245e-06,-0.2480601914066708
724,0.7063,932.896,-0.455893,0.228589,0.0188514,-0.151904,0.108038,0.534301,-0.247096,-0.285408,5.13151e-06,2.5572e-06,-2.10148e-06,0.534018,0.7062551529661607,5.131523166168606e-06,2.5572032695819757e-06,-0.2189342923758214,-2.1014777918937355e-06,-0.24829250491324084
725,0.7073,933.302,0.505223,-0.222997,-0.0101769,0.13902,-0.115587,0.534887,-0.247363,-0.285724,4.67556e-06,7.33378e-06,-5.1404e-06,0.534607,0.7072553115036295,4.675570930423589e-06,7.3338068922179644e-06,-0.21914280908153816,-5.140386788116125e-06,-0.24853000695438943
726,0.7083,933.27,-0.506917,0.252671,0.0202929,-0.167237,0.119934,0.535473,-0.247642,-0.286032,5.16775e-06,2.25091e-06,-1.93761e-06,0.535196,0.70825605630576,5.167763352798005e-06,2.2509125332526025e-06,-0.21936063784927828,-1.9376081228372755e-06,-0.24876142407218194
727,0.7093,933.699,0.558661,-0.248234,-0.0118498,0.155331,-0.128081,0.536058,-0.247909,-0.286348,4.66172e-06,7.5533e-06,-5.30759e-06,0.535785,0.7092556784596711,4.6617308657737055e-06,7.553328526199721e-06,-0.21956904073594907,-5.307575914770268e-06,-0.24899877795828596
728,0.7103,933.643,-0.56239,0.278879,0.0218528,-0.1839,0.132874,0.536643,-0.248188,-0.286656,5.20556e-06,1.92312e-06,-1.75972e-06,0.536374,0.710255885563623,5.20557354888318e-06,1.9231218491011504e-06,-0.2197867506016452,-1.759718451732617e-06,-0.2492300507168418
729,0.7113,934.096,0.616738,-0.275665,-0.0136704,0.173069,-0.141663,0.537228,-0.248454,-0.286972,4.64513e-06,7.79754e-06,-5.48964e-06,0.536962,0.7112566779599125,4.6451407886838325e-06,7.79757040092477e-06,-0.21999425972604814,-5.489624931964698e-06,-0.2494672565403212
730,0.7123,934.194,0.241782,-0.120465,0.000688414,0.0597491,-0.0635838,0.537812,-0.248728,-0.287282,4.85853e-06,6.23331e-06,-4.64961e-06,0.53755,0.712256343733835,4.85854180265477e-06,6.233329427063339e-06,-0.22020795202170174,-4.649599190553744e-06,-0.24969988563142165
731,0.7133,934.359,0.0470391,0.00393759,0.00176401,-0.000174627,-0.0050441,0.538396,-0.249001,-0.287593,4.87542e-06,5.32318e-06,-3.92694e-06,0.538137,0.7132565934830739,4.875431884876491e-06,5.323194168127543e-06,-0.22042080619488325,-3.9269322895663095e-06,-0.24993319268586278
732,0.7143,934.544,0.0671717,-0.0267518,0.00490582,0.00693527,-0.0170754,0.538979,-0.249273,-0.287904,4.92939e-06,5.45038e-06,-4.11107e-06,0.538724,0.7142557132921998,4.929402149356221e-06,5.4503948534456725e-06,-0.22063282290001918,-4.11106154951657e-06,-0.2501664271930918
733,0.7153,934.724,-0.0192713,0.0297988,0.0046451,-0.02013,0.00883993,0.539562,-0.249545,-0.288215,4.93193e-06,4.98718e-06,-3.76566e-06,0.539311,0.7152554157580022,4.93194216200088e-06,4.987192435912391e-06,-0.22084478194445345,-3.765652909937245e-06,-0.2503995891756672
734,0.7163,934.924,0.0542421,-0.0163827,0.00446702,0.00268146,-0.012551,0.540145,-0.249817,-0.288526,4.93535e-06,5.34223e-06,-4.05683e-06,0.539898,0.7162557012202693,4.935362178937197e-06,5.342244269845864e-06,-0.22105668334386785,-4.05682177107014e-06,-0.2506326786561406
735,0.7173,935.1,-0.0313714,0.032329,0.00552375,-0.0236326,0.0104647,0.540728,-0.250089,-0.288836,4.95933e-06,4.88107e-06,-3.74416e-06,0.540484,0.7172565700189868,4.959342297494729e-06,4.881081912433416e-06,-0.22126852711393952,-3.7441529906478976e-06,-0.2508649465223778
736,0.7183,935.307,0.0576892,-0.0158281,0.00394071,0.00365447,-0.0125616,0.54131,-0.25036,-0.289147,4.94066e-06,5.30705e-06,-4.05572e-06,0.54107,0.7182563042371759,4.940672205133723e-06,5.307064082415991e-06,-0.2214795347502655,-4.055711775530213e-06,-0.251097891299219
737,0.7193,935.478,-0.0374091,0.0334522,0.00597443,-0.0253393,0.0112449,0.541892,-0.250632,-0.289456,4.98017e-06,4.80038e-06,-3.73156e-06,0.541655,0.7192566204700299,4.980182401137512e-06,4.8003915218419735e-06,-0.22169126352039537,-3.7315530377890482e-06,-0.25132926630152863
738,0.7203,935.688,0.0626935,-0.0170383,0.00355115,0.00515051,-0.0133083,0.542473,-0.250902,-0.289767,4.94813e-06,5.27937e-06,-4.06375e-06,0.54224,0.7202557987997207,4.948142241945064e-06,5.279383935796744e-06,-0.2219013785124444,-4.06374174299895e-06,-0.251562066697371
739,0.7213,935.855,-0.0427575,0.0350432,0.00626372,-0.0268755,0.0121515,0.543054,-0.251174,-0.290076,4.99839e-06,4.72221e-06,-3.71705e-06,0.542825,0.7212555578206956,4.9984024919069725e-06,4.722221149666694e-06,-0.22211299255667438,-3.7170430917665698e-06,-0.2517932982916403
740,0.7223,936.067,0.0679099,-0.0189103,0.00325529,0.00673968,-0.0143108,0.543635,-0.251444,-0.290386,4.95696e-06,5.25333e-06,-4.07519e-06,0.54341,0.7222558978704343,4.956972285752315e-06,5.25334379886111e-06,-0.22232299369725428,-4.075181696427954e-06,-0.2520252064215526
741,0.7233,936.231,-0.0481542,0.0370767,0.00648006,-0.0284467,0.0132227,0.544216,-0.251715,-0.290695,5.01536e-06,4.64358e-06,-3.70037e-06,0.543994,0.7232568192866125,5.015372577021893e-06,4.643590781450158e-06,-0.2225337156118533,-3.700363153669173e-06,-0.25225629492775536
742,0.7243,936.445,0.0733244,-0.0211801,0.00300764,0.00840408,-0.0154707,0.544796,-0.251985,-0.291005,4.96644e-06,5.22877e-06,-4.0888e-06,0.544578,0.7242565981496416,4.966452332721971e-06,5.228783670041537e-06,-0.22274360317254238,-4.088791640821654e-06,-0.2524880595509551
743,0.7253,936.606,-0.0537723,0.0394394,0.00666309,-0.0300959,0.0144277,0.545375,-0.252256,-0.291314,5.03169e-06,4.56381e-06,-3.68194e-06,0.545161,0.7252552317965126,5.0317026589752345e-06,4.56382041424952e-06,-0.2229542111174171,-3.681933221644229e-06,-0.25271900505763556
744,0.7263,936.823,0.0790079,-0.0237408,0.00278111,0.0101582,-0.0167533,0.545955,-0.252525,-0.291623,4.97613e-06,5.20593e-06,-4.10412e-06,0.545744,0.7262561700749957,4.976142381041271e-06,5.205943550912195e-06,-0.2231632083232421,-4.10411157814039e-06,-0.2529498792131787
745,0.7273,936.98,-0.0596846,0.0420622,0.00683335,-0.0318402,0.0157456,0.546534,-0.252796,-0.291931,5.0477e-06,4.48264e-06,-3.66204e-06,0.546327,0.7272559618092451,5.047712739569832e-06,4.48265004715509e-06,-0.2233737025705278,-3.6620332947157053e-06,-0.2531799352199373
746,0.7283,937.199,0.08501,-0.0265404,0.00256082,0.0120135,-0.0181427,0.547113,-0.253065,-0.292241,4.9858e-06,5.18502e-06,-4.12094e-06,0.546909,0.7282563325905269,4.985812429136871e-06,5.185033442156595e-06,-0.2235825869483279,-4.120931508921899e-06,-0.25341141355902286
747,0.7293,937.353,-0.0659316,0.044909,0.00700182,-0.033689,0.0171657,0.547691,-0.253336,-0.292548,5.06358e-06,4.3999e-06,-3.64083e-06,0.547491,0.7292555534977878,5.063592819931628e-06,4.399909679486669e-06,-0.22379296755940448,-3.640823372230706e-06,-0.2536405810760465
748,0.7303,937.574,0.0913615,-0.0295531,0.00233868,0.0139772,-0.0196312,0.548269,-0.253605,-0.292857,4.99532e-06,5.16616e-06,-4.13915e-06,0.548073,0.730255352121677,4.9953324765539264e-06,5.166173344672842e-06,-0.22400173917009047,-4.13914143371219e-06,-0.25387117050859187
749,0.7313,937.724,-0.0725373,0.0479618,0.00717438,-0.035648,0.0186829,0.548847,-0.253875,-0.293164,5.07942e-06,4.31549e-06,-3.61836e-06,0.548655,0.7312557287962114,5.079432900290115e-06,4.315499311680071e-06,-0.22421123041792346,-3.618353453749279e-06,-0.25410019690189556
750,0.7323,937.948,0.0980814,-0.0327666,0.00211031,0.0160543,-0.0212157,0.549425,-0.254143,-0.293473,5.00463e-06,5.14942e-06,-4.15872e-06,0.549236,0.732256683855601,5.0046425232874725e-06,5.1494332582446845e-06,-0.22441911395053382,-4.1587113525087815e-06,-0.2543306443350908
751,0.7333,938.095,-0.0795169,0.0512124,0.0073542,-0.0377212,0.0202951,0.550002,-0.254413,-0.29378,5.09526e-06,4.22936e-06,-3.59467e-06,0.549817,0.7332564843768974,5.0952729808706465e-06,4.22936894373116e-06,-0.22462849252238803,-3.5946635391637116e-06,-0.25455952969158
752,0.7343,938.321,0.105182,-0.0361754,0.00187332,0.0182477,-0.0228946,0.550578,-0.254681,-0.294088,5.01367e-06,5.13488e-06,-4.17961e-06,0.550397,0.7342551276935634,5.0136825684443664e-06,5.134893183544875e-06,-0.2248362642437377,-4.179601265419386e-06,-0.2547890900023325
753,0.7353,938.464,-0.0868795,0.0546569,0.00754295,-0.0399107,0.0220015,0.551155,-0.254951,-0.294395,5.11113e-06,4.14147e-06,-3.56977e-06,0.550977,0.7352560816496883,5.111143061897749e-06,4.14147857585867e-06,-0.22504553020021656,-3.569763628363809e-06,-0.25501783463760364
754,0.7363,938.693,0.112669,-0.0397769,0.00162641,0.0205596,-0.0246677,0.551731,-0.255219,-0.294703,5.02244e-06,5.12256e-06,-4.20183e-06,0.551557,0.736255877066156,5.0224526124686975e-06,5.1225731203530245e-06,-0.22525319017044387,-4.201821172333808e-06,-0.25524725381216873
755,0.7373,938.833,-0.0946305,0.0582937,0.00774151,-0.042218,0.0238016,0.552307,-0.255488,-0.295009,5.12705e-06,4.05179e-06,-3.54365e-06,0.552136,0.7372562485306697,5.1270631433730784e-06,4.051798208504209e-06,-0.22546156903407444,-3.5436437212377214e-06,-0.25547511328822436
756,0.7383,939.065,0.120549,-0.0435699,0.00136892,0.022991,-0.0265346,0.552882,-0.255755,-0.295316,5.03092e-06,5.1125e-06,-4.22537e-06,0.552715,0.738255458118801,5.030932655136766e-06,5.112513068894486e-06,-0.2256683431895642,-4.225361073140199e-06,-0.25570364734667206
757,0.7393,939.2,-0.102772,0.0621217,0.00795025,-0.0446434,0.0256954,0.553457,-0.256025,-0.295622,5.14302e-06,3.9603e-06,-3.51634e-06,0.553294,0.7392552424176593,5.143033225296634e-06,3.9603078418881665e-06,-0.22587738451505412,-3.5163338176769088e-06,-0.2559313671876714
758,0.7403,939.435,0.12882,-0.0475534,0.0011005,0.025542,-0.0284951,0.554032,-0.256291,-0.295929,5.0391e-06,5.10469e-06,-4.25023e-06,0.553872,0.7402556017577977,5.0391126962257005e-06,5.104703028946389e-06,-0.22608327374629134,-4.250220967838558e-06,-0.25615976119767037
759,0.7413,939.566,-0.111303,0.0661395,0.00816929,-0.0471867,0.0276821,0.554607,-0.256561,-0.296235,5.15905e-06,3.86703e-06,-3.48783e-06,0.554451,0.7412565364699601,5.159063307891287e-06,3.867037476901203e-06,-0.22629220305565378,-3.4878239175695214e-06,-0.2563873414891835
760,0.7423,939.804,0.137482,-0.0517257,0.000821055,0.0282124,-0.0305484,0.555181,-0.256827,-0.296542,5.04698e-06,5.09915e-06,-4.2764e-06,0.555028,0.7422563046279056,5.046992735957545e-06,5.099163000732432e-06,-0.2264979819598335,-4.276390856206014e-06,-0.25661559553655733
761,0.7433,939.931,-0.120221,0.0703453,0.00839853,-0.0498467,0.029761,0.555755,-0.257096,-0.296846,5.17512e-06,3.77199e-06,-3.45813e-06,0.555606,0.7432566468175046,5.17513339093334e-06,3.7719971139882347e-06,-0.22670602601950574,-3.458124020694342e-06,-0.25684155004868825
762,0.7443,940.172,0.146529,-0.0560843,0.000530612,0.0310007,-0.0326934,0.556328,-0.257362,-0.297153,5.05455e-06,5.09585e-06,-4.30386e-06,0.556183,0.7442558191116553,5.0545627743314725e-06,5.095862983806043e-06,-0.22691169486141582,-4.303850738462955e-06,-0.25706966467543646
763,0.7453,940.295,-0.129519,0.0747362,0.00863777,-0.0526216,0.0319305,0.556901,-0.257631,-0.297458,5.19124e-06,3.6752e-06,-3.42727e-06,0.55676,0.7452555640955902,5.191253474423618e-06,3.675206753595006e-06,-0.22711962764728455,-3.4272641269428306e-06,-0.2572962238756761
764,0.7463,940.54,0.155955,-0.060626,0.000229324,0.0339049,-0.0349284,0.557474,-0.257896,-0.297764,5.06183e-06,5.09477e-06,-4.33258e-06,0.557336,0.7462558820975551,5.061842811127093e-06,5.094782978387613e-06,-0.22732441381059298,-4.332570614384856e-06,-0.25752345646281116
765,0.7473,940.657,-0.139189,0.079308,0.00888668,-0.0555085,0.0341886,0.558047,-0.258165,-0.298068,5.2074e-06,3.57672e-06,-3.39528e-06,0.557912,0.7472567734459832,5.20741355858334e-06,3.5767263963926155e-06,-0.22753223558999536,-3.3952742360954247e-06,-0.2577491350271667
766,0.7483,940.906,0.16575,-0.065346,-8.2566e-05,0.0369221,-0.0372512,0.558619,-0.25843,-0.298374,5.06881e-06,5.09588e-06,-4.36254e-06,0.558488,0.7482564902121318,5.068822846343579e-06,5.09589298403057e-06,-0.22773691242668537,-4.362530484081084e-06,-0.25797622904469164
767,0.7493,941.019,-0.14922,0.0840556,0.00914482,-0.058504,0.0365328,0.559191,-0.258699,-0.298678,5.22358e-06,3.47661e-06,-3.36218e-06,0.559063,0.7492567789798474,5.223593642966762e-06,3.47661604349625e-06,-0.2279446232588832,-3.3621743479317345e-06,-0.25820176998710187
768,0.7503,941.272,0.1759,-0.0702385,-0.000404726,0.0400488,-0.0396587,0.559762,-0.258963,-0.298984,5.07549e-06,5.09912e-06,-4.3937e-06,0.559639,0.7502558898196439,5.07550288042502e-06,5.099133000507905e-06,-0.22814841897612448,-4.393690347659351e-06,-0.25842872551951845
769,0.7513,941.379,-0.159597,0.0889725,0.00941167,-0.0616036,0.0389597,0.560333,-0.259231,-0.299287,5.23979e-06,3.37494e-06,-3.32803e-06,0.560213,0.7512555713146363,5.239803727796755e-06,3.3749456951337464e-06,-0.22835524748358094,-3.3280244621236577e-06,-0.25865338757766543
770,0.7523,941.636,0.186392,-0.0752962,-0.000736742,0.0432802,-0.0421476,0.560904,-0.259496,-0.299593,5.08188e-06,5.10442e-06,-4.426e-06,0.560788,0.7522558237907617,5.08189291270611e-06,5.1044330275917815e-06,-0.22855970625101463,-4.425990205225716e-06,-0.25888020493624087
771,0.7533,941.739,-0.170303,0.0940507,0.00968663,-0.0648021,0.0414654,0.561475,-0.259764,-0.299895,5.25601e-06,3.27182e-06,-3.29289e-06,0.561362,0.753256647574144,5.2560238128496195e-06,3.271825352424429e-06,-0.22876642454825025,-3.292884578454114e-06,-0.25910398932120715
772,0.7543,942.0,0.197205,-0.0805107,-0.00107812,0.0466111,-0.0447135,0.562045,-0.260028,-0.300201,5.08798e-06,5.1117e-06,-4.45939e-06,0.561936,0.7542562887339266,5.087992943852981e-06,5.111713064831491e-06,-0.22897000333858675,-4.459380056887063e-06,-0.25933066881674327
773,0.7553,942.097,-0.181318,0.0992809,0.009969,-0.0680931,0.0440453,0.562615,-0.260296,-0.300503,5.27222e-06,3.16734e-06,-3.2568e-06,0.562509,0.7552564998515927,5.272233898123702e-06,3.167345016041878e-06,-0.22917661169093628,-3.256794696593346e-06,-0.2595543171821577
774,0.7563,942.363,0.20832,-0.0858719,-0.00142828,0.0500352,-0.0473515,0.563184,-0.260559,-0.300808,5.09381e-06,5.12088e-06,-4.49381e-06,0.563082,0.7562555249957081,5.093822973423201e-06,5.120893111776326e-06,-0.229379311585857,-4.493799902860474e-06,-0.25978011867893847
775,0.7573,942.454,-0.19262,0.104653,0.010258,-0.0714697,0.046694,0.563753,-0.260827,-0.30111,5.2884e-06,3.06163e-06,-3.21985e-06,0.563655,0.7572551187468837,5.288413983617346e-06,3.0616346868850286e-06,-0.22958581025829383,-3.2198448163267557e-06,-0.26000363133098814
776,0.7583,942.724,0.219711,-0.0913684,-0.00178658,0.0535452,-0.050056,0.564322,-0.26109,-0.301415,5.09936e-06,5.13184e-06,-4.52918e-06,0.564228,0.7582552814287491,5.09937300186003e-06,5.131853167972267e-06,-0.22978840254814203,-4.52916974325035e-06,-0.26022929580785004
777,0.7593,942.811,-0.204183,0.110154,0.0105527,-0.074924,0.0494057,0.564891,-0.261357,-0.301716,5.30455e-06,2.95484e-06,-3.18212e-06,0.5648,0.7592560133651183,5.304564069108508e-06,2.9548443656324253e-06,-0.22999402159329763,-3.182114937105851e-06,-0.2604519332811912
778,0.7603,943.085,0.231352,-0.0969874,-0.00215227,0.0571331,-0.0528207,0.565459,-0.26162,-0.302021,5.10464e-06,5.14445e-06,-4.5654e-06,0.565372,0.7602555546235541,5.1046530287202074e-06,5.1444632327424245e-06,-0.2301965065376813,-4.565389578603529e-06,-0.2606774610468079
779,0.7613,943.166,-0.215978,0.115771,0.0108523,-0.0784469,0.0521736,0.566027,-0.261887,-0.302322,5.32064e-06,2.84711e-06,-3.14369e-06,0.565944,0.761255663782693,5.320654154594706e-06,2.8471140529617855e-06,-0.23040201663361703,-3.1436850586041842e-06,-0.2608999636427122
780,0.7623,943.445,0.243212,-0.102715,-0.00252454,0.0607901,-0.0556386,0.566595,-0.262149,-0.302626,5.10967e-06,5.1586e-06,-4.6024e-06,0.566515,0.7622563411651948,5.1096830544494765e-06,5.158613305633608e-06,-0.2306036248934238,-4.602389409025243e-06,-0.2611246159048909
781,0.7633,943.52,-0.227974,0.121489,0.0111556,-0.0820289,0.0549903,0.567162,-0.262417,-0.302927,5.33666e-06,2.73862e-06,-3.10467e-06,0.567086,0.7632558238371963,5.336674240075112e-06,2.7386237499982258e-06,-0.23080979549385783,-3.10466518049779e-06,-0.26134698392743727
782,0.7643,943.804,0.255259,-0.108535,-0.0029025,0.0645063,-0.058502,0.567729,-0.262678,-0.303231,5.11445e-06,5.17411e-06,-4.64006e-06,0.567656,0.7642558733765641,5.114463078825793e-06,5.174123385742746e-06,-0.23101052794051014,-4.64004923494965e-06,-0.2615715003161031
783,0.7653,943.873,-0.240135,0.127291,0.0114615,-0.0856594,0.0578478,0.568296,-0.262945,-0.303531,5.35257e-06,2.62957e-06,-3.06518e-06,0.568227,0.7652564901048038,5.3525843251023275e-06,2.629573457424428e-06,-0.23121582072174418,-3.0651753023525075e-06,-0.26179299564004854
784,0.7663,944.162,0.267457,-0.114432,-0.00328519,0.0682711,-0.0614026,0.568862,-0.263207,-0.303835,5.11899e-06,5.19084e-06,-4.67827e-06,0.568796,0.7662559080868112,5.119003102072028e-06,5.190853472392121e-06,-0.23141721579280872,-4.678259056922762e-06,-0.26201737646176104
785,0.7673,944.225,-0.252427,0.133162,0.011769,-0.089327,0.0607375,0.569428,-0.263474,-0.304134,5.36836e-06,2.52015e-06,-3.02532e-06,0.569366,0.7672558918995116,5.368374409675525e-06,2.520153175478157e-06,-0.23162240000288103,-3.025315423732522e-06,-0.2622380002812943
786,0.7683,944.519,0.279768,-0.120386,-0.00367157,0.0720732,-0.0643316,0.569994,-0.263734,-0.304438,5.12332e-06,5.20861e-06,-4.71691e-06,0.569935,0.7682564418632554,5.1233331241906654e-06,5.208623564900705e-06,-0.23182215220996805,-4.716898875378739e-06,-0.2624622458421565
787,0.7693,944.577,-0.264808,0.139081,0.0120767,-0.0930196,0.0636502,0.570559,-0.264001,-0.304737,5.384e-06,2.41057e-06,-2.98522e-06,0.570504,0.7692557890419014,5.384014493792222e-06,2.4105729055090563e-06,-0.2320272283164495,-2.9852155442045003e-06,-0.2626827366656289
788,0.7703,944.875,0.292152,-0.126379,-0.00406054,0.0759005,-0.0672794,0.571124,-0.264262,-0.305041,5.12743e-06,5.22722e-06,-4.75586e-06,0.571073,0.7702557010112414,5.127443145180877e-06,5.2272336619196835e-06,-0.23222764305459787,-4.755848690862763e-06,-0.2629068470471786
789,0.7713,944.927,-0.277239,0.145028,0.0123834,-0.0967245,0.0665761,0.571689,-0.264528,-0.305339,5.39946e-06,2.30107e-06,-2.94501e-06,0.571641,0.771256178090473,5.399474577005847e-06,2.3010726475369836e-06,-0.23243184334170308,-2.945005663446132e-06,-0.2631264680815991
790,0.7723,945.23,0.304565,-0.13239,-0.00445094,0.0797401,-0.0702359,0.572253,-0.264788,-0.305642,5.13134e-06,5.24648e-06,-4.79497e-06,0.572209,0.7722554483426385,5.131353165266361e-06,5.2464937627672015e-06,-0.2326313851208789,-4.794958504139579e-06,-0.26334970693937554
791,0.7733,945.276,-0.289674,0.150985,0.0126876,-0.100428,0.0695049,0.572817,-0.265055,-0.305941,5.41472e-06,2.19189e-06,-2.90484e-06,0.572777,0.7732552823421881,5.414734659536791e-06,2.1918924022479302e-06,-0.2328362451910152,-2.9048357809147163e-06,-0.26356993245164584
792,0.7743,945.584,0.316964,-0.138398,-0.00484156,0.0835788,-0.0731908,0.573381,-0.265314,-0.306244,5.13507e-06,5.26618e-06,-4.83412e-06,0.573344,0.7742556804071647,5.135083184448774e-06,5.2661938663156604e-06,-0.2330349148746762,-4.834108315643348e-06,-0.26379303696007306
793,0.7753,945.624,-0.302069,0.156927,0.0129881,-0.104117,0.0724259,0.573945,-0.26558,-0.306541,5.42975e-06,2.08328e-06,-2.86485e-06,0.573911,0.7752566428557914,5.4297647411605254e-06,2.0832821701066706e-06,-0.23323890045603435,-2.86484589628877e-06,-0.26401165796127024
794,0.7763,945.937,0.329301,-0.144381,-0.00523111,0.0874025,-0.076133,0.574508,-0.26584,-0.306844,5.13863e-06,5.28611e-06,-4.87314e-06,0.574478,0.7762563937491882,5.138643202728943e-06,5.286123971437462e-06,-0.23343823242763662,-4.873128126248183e-06,-0.2642346286471432
795,0.7773,945.972,-0.314376,0.162833,0.0132835,-0.107776,0.0753279,0.575071,-0.266106,-0.307141,5.44452e-06,1.97549e-06,-2.82519e-06,0.575045,0.7772567076608128,5.44453482143048e-06,1.9754919513559344e-06,-0.2336421107407931,-2.8251860091366154e-06,-0.26445311851508346
796,0.7783,946.289,0.341528,-0.150316,-0.00561828,0.0911968,-0.0790512,0.575633,-0.266364,-0.307444,5.14204e-06,5.30603e-06,-4.9119e-06,0.57561,0.7782558066510377,5.142053220330567e-06,5.306044077002525e-06,-0.23383980557249207,-4.91188793660946e-06,-0.2646759554586716
797,0.7793,946.318,-0.326547,0.16868,0.0135722,-0.11139,0.0781996,0.576195,-0.26663,-0.307741,5.459e-06,1.86881e-06,-2.78602e-06,0.576176,0.7792554672927046,5.459014900344172e-06,1.8688117462417608e-06,-0.23404357708139756,-2.7860161190274013e-06,-0.2648943142720115
798,0.7803,946.64,0.353597,-0.15618,-0.00600173,0.0949469,-0.0819339,0.576757,-0.266889,-0.308043,5.14531e-06,5.32572e-06,-4.95022e-06,0.576742,0.7802556899015498,5.145323237032429e-06,5.32573418166038e-06,-0.2342419341065899,-4.950207747711488e-06,-0.26511628267018617
799,0.7813,946.664,-0.338533,0.174444,0.0138528,-0.114946,0.0810293,0.577319,-0.267154,-0.308339,5.47315e-06,1.7635e-06,-2.74749e-06,0.577307,0.7812564747934883,5.473164977676248e-06,1.7635015550077071e-06,-0.23444483310874653,-2.747486225640472e-06,-0.26533377605990616
800,0.7823,946.991,0.365457,-0.161948,-0.00638007,0.0986378,-0.0847693,0.57788,-0.267412,-0.308641,5.14845e-06,5.34493e-06,-4.98797e-06,0.577872,0.7822560400276801,5.148463253279445e-06,5.344944284058073e-06,-0.23464232086478842,-4.9879575600986215e-06,-0.2655556117606592
801,0.7833,947.008,-0.350284,0.1801,0.014124,-0.118426,0.083805,0.578441,-0.267678,-0.308937,5.48696e-06,1.65985e-06,-2.70976e-06,0.578436,0.7832561661752901,5.48697505342588e-06,1.6598513774557233e-06,-0.23484587893301512,-2.709756328655999e-06,-0.26577297512821263
802,0.7843,947.34,0.377058,-0.167595,-0.00675191,0.102254,-0.0875455,0.579001,-0.267935,-0.309239,5.15149e-06,5.36343e-06,-5.02496e-06,0.579,0.7842550692951171,5.1515032688520535e-06,5.363444383288396e-06,-0.23504249827546153,-5.024947374865363e-06,-0.2659946782108734
803,0.7853,947.352,-0.361749,0.185625,0.0143842,-0.121816,0.086515,0.579562,-0.268201,-0.309535,5.50039e-06,1.55813e-06,-2.67301e-06,0.579564,0.7852563172127731,5.500405127145669e-06,1.558131213830194e-06,-0.23524594991065328,-2.673006427533764e-06,-0.2662119116339903
804,0.7863,947.688,0.38835,-0.173099,-0.00711583,0.105781,-0.0902503,0.580122,-0.268458,-0.309836,5.15444e-06,5.38098e-06,-5.06106e-06,0.580128,0.7862563407308636,5.154453284195171e-06,5.380994477555134e-06,-0.23544246644806943,-5.061047192889134e-06,-0.2664327486109561
805,0.7873,947.695,-0.372878,0.190994,0.014632,-0.125101,0.0891472,0.580681,-0.268723,-0.310131,5.5134e-06,1.45862e-06,-2.63738e-06,0.580691,0.7872551371629259,5.5134151988323055e-06,1.458621063710197e-06,-0.23564504735130554,-2.637376522063306e-06,-0.2666491190339093
806,0.7883,948.035,0.39928,-0.178434,-0.00747041,0.109202,-0.0928719,0.581241,-0.26898,-0.310433,5.15732e-06,5.39733e-06,-5.09608e-06,0.581254,0.7882562803336619,5.157333299088407e-06,5.397344565505335e-06,-0.23584146133385842,-5.096067015042394e-06,-0.2668705575610605
807,0.7893,948.037,-0.383621,0.196183,0.0148661,-0.128265,0.0916897,0.5818,-0.269245,-0.310727,5.52598e-06,1.36161e-06,-2.60304e-06,0.581817,0.7892561950444921,5.525995268262918e-06,1.3616109268976828e-06,-0.23604393651745825,-2.603036612147669e-06,-0.26708606593585404
808,0.7903,948.381,0.4098,-0.183577,-0.00781426,0.112503,-0.0953984,0.582359,-0.269501,-0.311028,5.16015e-06,5.41225e-06,-5.12988e-06,0.582379,0.7902566688639021,5.160163313533417e-06,5.41226464623179e-06,-0.23623948423853347,-5.129866842201736e-06,-0.26730663983197067
809,0.7913,948.378,-0.393929,0.201168,0.0150852,-0.131293,0.0941309,0.582917,-0.269766,-0.311323,5.53808e-06,1.26736e-06,-2.57015e-06,0.582941,0.7912559108477144,5.538095335211324e-06,1.267360803192119e-06,-0.23644185396003792,-2.570146697133957e-06,-0.2675227524950352
810,0.7923,948.727,0.419861,-0.188503,-0.00814598,0.115669,-0.0978181,0.583475,-0.270022,-0.311624,5.16293e-06,5.42549e-06,-5.1623e-06,0.583502,0.7922557105641463,5.16294332797429e-06,5.425504717937457e-06,-0.23663729982728576,-5.162286675353123e-06,-0.2677431949682776
811,0.7933,948.719,-0.403754,0.205926,0.015288,-0.134171,0.0964594,0.584033,-0.270287,-0.311917,5.54969e-06,1.17615e-06,-2.53886e-06,0.584064,0.7932560683245002,5.549705399454652e-06,1.1761506917284947e-06,-0.2368395641416262,-2.538856777145604e-06,-0.2679577147834643
812,0.7943,949.071,0.429414,-0.193191,-0.00846421,0.118685,-0.10012,0.58459,-0.270542,-0.312218,5.16569e-06,5.43682e-06,-5.19319e-06,0.584625,0.7942551901841635,5.165703342191463e-06,5.436834779493083e-06,-0.23703414524262534,-5.193176515372322e-06,-0.2681780263527599
813,0.7953,949.059,-0.413049,0.210434,0.0154733,-0.136885,0.098664,0.585148,-0.270807,-0.312511,5.56078e-06,1.08824e-06,-2.50932e-06,0.585186,0.7952566639654859,5.560795461212464e-06,1.088240592084233e-06,-0.23723630440686372,-2.509316851639909e-06,-0.26839241878101405
814,0.7963,949.414,0.438415,-0.197616,-0.00876763,0.121537,-0.102292,0.585705,-0.271062,-0.312812,5.16844e-06,5.44602e-06,-5.22239e-06,0.585746,0.7962569004673203,5.1684533564078095e-06,5.446034829548196e-06,-0.23743078435199316,-5.222376363356318e-06,-0.2686125995240968
815,0.7973,949.397,-0.42177,0.21467,0.0156399,-0.139422,0.100734,0.586261,-0.271326,-0.313105,5.57132e-06,1.00388e-06,-2.48167e-06,0.586306,0.7972558969992805,5.571335519816145e-06,1.00388050383593e-06,-0.23763207605325054,-2.481666920628456e-06,-0.26882686464106365
816,0.7983,949.756,0.446818,-0.201759,-0.00905495,0.124212,-0.104325,0.586817,-0.271581,-0.313405,5.1712e-06,5.45288e-06,-5.24978e-06,0.586866,0.798255449127754,5.171213370624983e-06,5.4528948669752e-06,-0.23782645508947653,-5.249766219961316e-06,-0.26904618368217026
817,0.7993,949.736,-0.429875,0.218613,0.0157869,-0.141768,0.10266,0.587373,-0.271845,-0.313697,5.58129e-06,9.23303e-07,-2.45606e-06,0.587426,0.7992555571617384,5.581305575486084e-06,9.233034261590944e-07,-0.23802764234744633,-2.456056983901611e-06,-0.26925959103754493
818,0.8003,950.097,0.454582,-0.205598,-0.00932496,0.126697,-0.106209,0.587929,-0.272099,-0.313997,5.17399e-06,5.45718e-06,-5.27521e-06,0.587985,0.800256221410403,5.174003385066683e-06,5.457194890423622e-06,-0.23822115874866678,-5.275196086063083e-06,-0.26947878028020333
819,0.8013,950.073,-0.437323,0.222244,0.0159133,-0.143911,0.104431,0.588484,-0.272363,-0.314289,5.59067e-06,8.46737e-07,-2.43261e-06,0.588544,0.8012556409265477,5.590685627776537e-06,8.467373584508664e-07,-0.23842224181862404,-2.432607041247259e-06,-0.2696920613358119
820,0.8023,950.437,0.461669,-0.209116,-0.00957651,0.128979,-0.107934,0.589039,-0.272617,-0.314589,5.17681e-06,5.45873e-06,-5.29857e-06,0.589102,0.8022556152744753,5.1768233997329105e-06,5.458744898989565e-06,-0.23861565800430662,-5.298555962651719e-06,-0.2699111208568401
821,0.8033,950.41,-0.444079,0.225545,0.0160183,-0.145842,0.106039,0.589594,-0.272881,-0.314881,5.59945e-06,7.74387e-07,-2.41143e-06,0.589661,0.8032561447622031,5.5994656769087214e-06,7.743872998400292e-07,-0.2388166369402066,-2.411427092452456e-06,-0.27012427568743014
822,0.8043,950.776,0.468042,-0.212294,-0.0098085,0.131048,-0.109491,0.590148,-0.273135,-0.31518,5.17969e-06,5.45735e-06,-5.31973e-06,0.590218,0.8042554254415917,5.179703414626147e-06,5.4573648913258666e-06,-0.2390099529622497,-5.319715850271578e-06,-0.2703424759064412
823,0.8053,950.745,-0.450108,0.228499,0.0161011,-0.147549,0.107476,0.590702,-0.273398,-0.315471,5.60759e-06,7.06442e-07,-2.39264e-06,0.590776,0.8052552598758524,5.607605722657283e-06,7.064422495872691e-07,-0.23921006702846737,-2.392637137638154e-06,-0.2705547753548845
824,0.8063,951.114,0.47367,-0.215117,-0.01002,0.132894,-0.110873,0.591256,-0.273652,-0.31577,5.18264e-06,5.45288e-06,-5.3386e-06,0.591333,0.8062556483718508,5.182653429969264e-06,5.4528948669752e-06,-0.23940328313195824,-5.3385857496923705e-06,-0.2707728468737367
825,0.8073,951.081,-0.45538,0.231091,0.0161613,-0.149023,0.108735,0.59181,-0.273915,-0.316061,5.6151e-06,6.43071e-07,-2.37633e-06,0.591891,0.8072565912366219,5.615115764801004e-06,6.43071206729573e-07,-0.23960329376594336,-2.376327176478732e-06,-0.27098502110244893
826,0.8083,951.451,0.478524,-0.217571,-0.01021,0.134508,-0.112074,0.592363,-0.274168,-0.31636,5.18566e-06,5.44516e-06,-5.35508e-06,0.592447,0.8082562805201865,5.185673445540218e-06,5.445174824814103e-06,-0.2397956497985564,-5.355065661571956e-06,-0.2712029639970528
827,0.8093,951.415,-0.459869,0.233308,0.0161982,-0.150258,0.109809,0.592916,-0.274431,-0.316651,5.62196e-06,5.84422e-07,-2.36259e-06,0.593004,0.8092565227848101,5.6219758033382305e-06,5.844221708795061e-07,-0.23999555725367672,-2.362587209092659e-06,-0.2714150130798918
828,0.8103,951.786,0.482579,-0.219643,-0.0103777,0.135881,-0.113086,0.593468,-0.274683,-0.316949,5.18877e-06,5.43407e-06,-5.36909e-06,0.59356,0.8102555080799625,5.188783461784752e-06,5.434084764610603e-06,-0.24018705424361464,-5.369075586458827e-06,-0.27163209905857666
829,0.8113,951.749,-0.463552,0.235138,0.0162117,-0.151247,0.110693,0.594021,-0.274946,-0.317239,5.62816e-06,5.3062e-07,-2.35149e-06,0.594116,0.8112568562231739,5.62817583804609e-06,5.306201407151434e-07,-0.24038685877290134,-2.351487235263683e-06,-0.2718432951249399
830,0.8123,952.121,0.485814,-0.221324,-0.0105225,0.137007,-0.113905,0.594572,-0.275199,-0.317538,5.19199e-06,5.41948e-06,-5.38056e-06,0.594671,0.8122551337511554,5.1920034784824765e-06,5.419494685465764e-06,-0.2405790165886431,-5.38054552479128e-06,-0.2720609814339725
831,0.8133,952.082,-0.466412,0.236572,0.0162014,-0.151984,0.111382,0.595124,-0.275461,-0.317828,5.63371e-06,4.81767e-07,-2.34309e-06,0.595226,0.8132557747364897,5.633725869369499e-06,4.817671159784709e-07,-0.240777958823726,-2.3430872549967674e-06,-0.2722720531424797
832,0.8143,952.455,0.488214,-0.222604,-0.0106438,0.137881,-0.114526,0.595675,-0.275713,-0.318125,5.19531e-06,5.40131e-06,-5.38944e-06,0.595781,0.8142551539720644,5.1953234956325645e-06,5.401324587150924e-06,-0.24096925867330898,-5.389425477009269e-06,-0.2724881562497964
833,0.8153,952.414,-0.468435,0.237603,0.0161673,-0.152465,0.111873,0.596227,-0.275976,-0.318415,5.63858e-06,4.3794e-07,-2.33743e-06,0.596336,0.8152568992733238,5.6385958968618866e-06,4.379400959653168e-07,-0.24116885750988049,-2.3374272681842e-06,-0.27269910409556797
834,0.8163,952.787,0.489765,-0.223477,-0.0107412,0.138498,-0.114948,0.596777,-0.276227,-0.318712,5.19876e-06,5.37948e-06,-5.39569e-06,0.59689,0.8162555651758727,5.198773513681587e-06,5.379494469437418e-06,-0.2413593002250849,-5.395675443331527e-06,-0.2729150803875846
835,0.8173,952.746,-0.46961,0.238226,0.0161095,-0.152689,0.112163,0.597328,-0.276489,-0.319002,5.6428e-06,3.9919e-07,-2.33455e-06,0.597444,0.817256597751433,5.6428159205257344e-06,3.9919007965849573e-07,-0.24155803805263365,-2.334547274940313e-06,-0.27312590444330664
836,0.8183,953.119,0.490461,-0.223941,-0.0108142,0.138857,-0.115167,0.597878,-0.276741,-0.319299,5.20233e-06,5.35393e-06,-5.39929e-06,0.597997,0.8182563637906546,5.202343532184628e-06,5.353944332320282e-06,-0.24174914134701797,-5.399275423867422e-06,-0.27334175399444194
837,0.8193,953.077,-0.469933,0.238438,0.0160281,-0.152653,0.112252,0.598428,-0.277003,-0.319588,5.64635e-06,3.65543e-07,-2.33446e-06,0.598551,0.8192566798524401,5.646365940581433e-06,3.6554306670488756e-07,-0.2419477770495717,-2.334457275154911e-06,-0.27355172788484894
838,0.8203,953.449,0.4903,-0.223992,-0.0108626,0.138955,-0.115184,0.598977,-0.277254,-0.319885,5.20604e-06,5.32464e-06,-5.40021e-06,0.599104,0.8202557259827492,5.206053551365386e-06,5.324654176019905e-06,-0.24213802428050601,-5.40019541894754e-06,-0.27376745098520106
839,0.8213,953.407,-0.469404,0.238238,0.0159236,-0.152359,0.112138,0.599526,-0.277515,-0.320173,5.64926e-06,3.37001e-07,-2.33715e-06,0.599657,0.821255320739968,5.649275957031463e-06,3.3700105683820425e-07,-0.2423358004452566,-2.3371472688271666e-06,-0.2739765758438921
840,0.8223,953.779,0.489282,-0.223632,-0.0108864,0.138793,-0.114997,0.600075,-0.277766,-0.32047,5.20988e-06,5.29159e-06,-5.39847e-06,0.600209,0.8222554644253754,5.209893571445079e-06,5.291604000534633e-06,-0.2425259502945405,-5.398455428240467e-06,-0.27419217278313623
841,0.8233,953.737,-0.468026,0.237627,0.0157962,-0.151808,0.111823,0.600624,-0.278027,-0.320758,5.65152e-06,3.13537e-07,-2.34263e-06,0.600761,0.8232561573404162,5.651535969874999e-06,3.135370492124423e-07,-0.2427236252238132,-2.34262725606893e-06,-0.274401175339562
842,0.8243,954.107,0.487414,-0.222863,-0.0108857,0.138371,-0.114609,0.601172,-0.278278,-0.321054,5.21387e-06,5.25479e-06,-5.39409e-06,0.601313,0.8242555755302119,5.213883592203317e-06,5.254803806531427e-06,-0.24291367774129324,-5.394075451969904e-06,-0.2746159208077642
843,0.8253,954.066,-0.465809,0.23661,0.0156467,-0.151002,0.111308,0.60172,-0.278539,-0.321342,5.65316e-06,2.951e-07,-2.35086e-06,0.601865,0.8252555415512677,5.653175979114522e-06,2.951000435125195e-07,-0.24311125148690738,-2.3508572367658687e-06,-0.2748248013423309
844,0.8263,954.435,0.484707,-0.221689,-0.0108605,0.137694,-0.114022,0.602268,-0.278789,-0.321638,5.218e-06,5.21428e-06,-5.38708e-06,0.602416,0.8262560557038774,5.2180136138613165e-06,5.214293594457686e-06,-0.2433004500232332,-5.3870654896925885e-06,-0.27503942143579263
845,0.8273,954.394,-0.462764,0.235191,0.0154756,-0.149947,0.110597,0.602815,-0.27905,-0.321926,5.65418e-06,2.81613e-07,-2.36179e-06,0.602967,0.8272552910322948,5.654195984972077e-06,2.816130395544292e-07,-0.24349792283445426,-2.3617872110248683e-06,-0.27524818001974016
846,0.8283,954.761,0.481177,-0.220118,-0.0108112,0.136765,-0.113239,0.603363,-0.2793,-0.322221,5.22228e-06,5.17011e-06,-5.37751e-06,0.603517,0.8282569013479413,5.222293636197861e-06,5.170123364983681e-06,-0.24368702471502568,-5.377495541192268e-06,-0.27546195027397147
847,0.8293,954.722,-0.45891,0.233379,0.0152839,-0.148647,0.109694,0.603909,-0.27956,-0.322509,5.65461e-06,2.72977e-07,-2.37538e-06,0.604068,0.8292554021819993,5.654625987228101e-06,2.7297703719675326e-07,-0.2438836405274365,-2.3753771788426192e-06,-0.275670587187135
848,0.8303,955.087,0.476842,-0.218158,-0.0107382,0.135589,-0.112265,0.604456,-0.27981,-0.322804,5.22671e-06,5.12235e-06,-5.36542e-06,0.604618,0.8302562786017376,5.226723659212951e-06,5.122363119225426e-06,-0.24407264599063738,-5.365405606139184e-06,-0.27588423284963015
849,0.8313,955.049,-0.454268,0.231184,0.0150723,-0.14711,0.108603,0.605002,-0.28007,-0.323091,5.65447e-06,2.69067e-07,-2.39155e-06,0.605168,0.8312558713938536,5.654485986550384e-06,2.690670362071046e-07,-0.24426916155454947,-2.391547140212502e-06,-0.2760920242553093
850,0.8323,955.411,0.471726,-0.21582,-0.0106421,0.134174,-0.111105,0.605548,-0.28032,-0.323386,5.23128e-06,5.07109e-06,-5.3509e-06,0.605717,0.8322560101126584,5.231293683127802e-06,5.071102858078547e-06,-0.24445807064954006,-5.350885683985673e-06,-0.27630554561220544
851,0.8333,955.376,-0.448863,0.228618,0.0148418,-0.145345,0.10733,0.606094,-0.280579,-0.323673,5.65377e-06,2.69736e-07,-2.41023e-06,0.606266,0.8332566950563094,5.653785982495663e-06,2.6973603639568466e-07,-0.24465373067017537,-2.41022709535077e-06,-0.27651321611847157
852,0.8343,955.735,0.465857,-0.213118,-0.0105235,0.132527,-0.109765,0.606639,-0.280829,-0.323967,5.23599e-06,5.01644e-06,-5.33402e-06,0.606815,0.8342560922661177,5.236003707720371e-06,5.016452582440323e-06,-0.24484254363490388,-5.334005774182415e-06,-0.2767258899683449
853,0.8353,955.701,-0.442724,0.225694,0.0145936,-0.143359,0.105882,0.607184,-0.281088,-0.324254,5.65255e-06,2.74817e-07,-2.43131e-06,0.607364,0.835256034295855,5.652565975733381e-06,2.7481703779308475e-07,-0.24503810408993032,-2.431307044359343e-06,-0.27693343985309093
854,0.8363,956.057,0.459266,-0.210065,-0.0103831,0.130657,-0.108253,0.607729,-0.281337,-0.324548,5.24084e-06,4.95855e-06,-5.31489e-06,0.607912,0.8362565214425297,5.2408537332127025e-06,4.958562293655433e-06,-0.24522606619975806,-5.314875875961356e-06,-0.2771459901753458
855,0.8373,956.026,-0.435884,0.222427,0.0143288,-0.141163,0.104267,0.608273,-0.281596,-0.324834,5.65084e-06,2.84123e-07,-2.45469e-06,0.60846,0.8372557167466756,5.650855966043977e-06,2.841230404282413e-07,-0.24542152733530265,-2.454686987229948e-06,-0.2773526968616905
856,0.8383,956.378,0.451988,-0.206678,-0.010222,0.128574,-0.106577,0.608817,-0.281845,-0.325128,5.24583e-06,4.89754e-06,-5.2936e-06,0.609007,0.838255455760943,5.245843759382751e-06,4.897551993066074e-06,-0.24560939398462767,-5.293585988885852e-06,-0.2775651239405025
857,0.8393,956.351,-0.428378,0.218835,0.0140486,-0.138768,0.102492,0.609361,-0.282104,-0.325414,5.64865e-06,2.97449e-07,-2.48027e-06,0.609555,0.8392557387811901,5.6486659536503225e-06,2.974490442841926e-07,-0.24580475585113182,-2.4802669241763553e-06,-0.27777171077173046
858,0.8403,956.699,0.444059,-0.202975,-0.0100409,0.12629,-0.104745,0.609905,-0.282353,-0.325707,5.25095e-06,4.83358e-06,-5.27028e-06,0.610102,0.8402565661034369,5.25096378622969e-06,4.833591681796534e-06,-0.24599252708843566,-5.270266112078481e-06,-0.27798329266221367
859,0.8413,956.674,-0.420244,0.214936,0.0137542,-0.136187,0.100568,0.610448,-0.282611,-0.325993,5.64603e-06,3.14573e-07,-2.50791e-06,0.610649,0.841256096766847,5.646045938778599e-06,3.1457304938697916e-07,-0.24618703592372815,-2.507906855186981e-06,-0.27818975991428785
860,0.8423,957.019,0.43552,-0.198974,-0.00984108,0.123816,-0.102766,0.610991,-0.28286,-0.326286,5.25618e-06,4.76686e-06,-5.24506e-06,0.611195,0.8422561703227891,5.256193813751864e-06,4.766871361416847e-06,-0.24637471198514382,-5.245046244661822e-06,-0.27840121933431516
861,0.8433,956.997,-0.411524,0.210749,0.013447,-0.133432,0.0985035,0.611534,-0.283118,-0.326571,5.643e-06,3.3526e-07,-2.53748e-06,0.611741,0.8432567870661345,5.6430159216525055e-06,3.352600561612462e-07,-0.2465691222294517,-2.537476780584136e-06,-0.27860684568365823
862,0.8443,957.337,0.426413,-0.194696,-0.00962358,0.121165,-0.100652,0.612076,-0.283366,-0.326864,5.26153e-06,4.69755e-06,-5.21805e-06,0.612287,0.8442561030348881,5.2615438419501e-06,4.69756103349539e-06,-0.24675594991954775,-5.2180363859788415e-06,-0.27881818291545657
863,0.8453,957.319,-0.402261,0.206295,0.0131284,-0.130516,0.0963088,0.612618,-0.283624,-0.327149,5.6396e-06,3.59262e-07,-2.56884e-06,0.612833,0.8452559607797052,5.639615902497397e-06,3.592620645420652e-07,-0.24695026181715585,-2.568836700578281e-06,-0.2790236904471114
864,0.8463,957.655,0.416784,-0.190161,-0.00938961,0.11835,-0.0984116,0.61316,-0.283872,-0.327441,5.26699e-06,4.62585e-06,-5.18941e-06,0.613378,0.8462563605943074,5.267003870601528e-06,4.625860699158935e-06,-0.2471369949963539,-5.189396535043578e-06,-0.2792341847958303
865,0.8473,957.641,-0.392499,0.201596,0.0127996,-0.127453,0.0939945,0.613701,-0.284129,-0.327726,5.63585e-06,3.8632e-07,-2.60185e-06,0.613923,0.8472554555161973,5.635865881536972e-06,3.8632007459682427e-07,-0.2473304559278453,-2.6018466151578323e-06,-0.27943957378384243
866,0.8483,957.972,0.406678,-0.185393,-0.00914047,0.115385,-0.0960563,0.614242,-0.284377,-0.328018,5.27253e-06,4.55198e-06,-5.15928e-06,0.614467,0.8482550910946742,5.272543899703663e-06,4.551990360202041e-06,-0.2475170948305947,-5.159266690979436e-06,-0.2796499467123552
867,0.8493,957.962,-0.382287,0.196673,0.0124621,-0.124257,0.0915717,0.614783,-0.284634,-0.328303,5.6318e-06,4.16169e-07,-2.63636e-06,0.615012,0.8492552676223128,5.631815858553324e-06,4.161690865256418e-07,-0.2477104580889803,-2.6363565247544685e-06,-0.27985521722510476
868,0.8503,958.288,0.396143,-0.180413,-0.00887746,0.112285,-0.0935973,0.615324,-0.284882,-0.328594,5.27817e-06,4.47615e-06,-5.12781e-06,0.615556,0.8502559853918457,5.278183929480207e-06,4.476160017974351e-06,-0.24789700276287852,-5.1277968527996265e-06,-0.2800647488685595
869,0.8513,958.282,-0.37167,0.191551,0.0121172,-0.120943,0.0890517,0.615864,-0.285138,-0.328879,5.62748e-06,4.48535e-07,-2.67221e-06,0.6161,0.8512553934398444,5.627495834215068e-06,4.485351006167093e-07,-0.2480895164873631,-2.6722064296880177e-06,-0.280269901179539
870,0.8523,958.603,0.385228,-0.175245,-0.00860194,0.109064,-0.091046,0.616404,-0.285386,-0.32917,5.28387e-06,4.39858e-06,-5.09515e-06,0.616643,0.8522553413139293,5.283883959705804e-06,4.398589673826336e-06,-0.2482759671664344,-5.095137019739404e-06,-0.2804793121675193
871,0.8533,958.601,-0.360697,0.186253,0.0117664,-0.117527,0.0864459,0.616944,-0.285642,-0.329454,5.62291e-06,4.83141e-07,-2.70925e-06,0.617186,0.8532558293056849,5.62292580852386e-06,4.831411166694721e-07,-0.2484683838884485,-2.709246329946069e-06,-0.28068362702878014
872,0.8543,958.917,0.373982,-0.169912,-0.00831531,0.105736,-0.088414,0.617484,-0.28589,-0.329745,5.28964e-06,4.3195e-06,-5.06146e-06,0.617729,0.8542568577068532,5.289653990159238e-06,4.3195093291092945e-06,-0.24865474062005433,-5.061447190812807e-06,-0.28089291764005386
873,0.8553,958.92,-0.349418,0.180801,0.0114109,-0.114021,0.0837659,0.618023,-0.286145,-0.330029,5.61814e-06,5.19708e-07,-2.74732e-06,0.618272,0.8552565715518352,5.61815578170588e-06,5.197081349717081e-07,-0.2488463092351597,-2.7473162260704953e-06,-0.2810971150540389
874,0.8563,959.23,0.362453,-0.164438,-0.00801895,0.102318,-0.085713,0.618562,-0.286393,-0.330319,5.29546e-06,4.23913e-06,-5.02689e-06,0.618814,0.8562568243878246,5.2954740210608975e-06,4.239138985173696e-06,-0.24903257225290054,-5.026877365255089e-06,-0.28130556666372886
875,0.8573,959.238,-0.337882,0.17522,0.0110522,-0.110443,0.0810234,0.6191,-0.286648,-0.330603,5.61319e-06,5.57957e-07,-2.78626e-06,0.619356,0.8572557592487282,5.613205753984829e-06,5.579571555891505e-07,-0.24922404453322278,-2.786256118381125e-06,-0.28150964690203084
876,0.8583,959.543,0.350692,-0.158846,-0.00771428,0.0988234,-0.0829546,0.619638,-0.286895,-0.330893,5.30131e-06,4.15772e-06,-4.9916e-06,0.619898,0.8582552316811809,5.3013240519650395e-06,4.157728643372494e-06,-0.24940946329406344,-4.991587541969267e-06,-0.2817179788948302
877,0.8593,959.555,-0.326136,0.169534,0.0106915,-0.106805,0.0782298,0.620176,-0.28715,-0.331176,5.6081e-06,5.97611e-07,-2.82591e-06,0.62044,0.8592552419744737,5.608115725364016e-06,5.976111785432892e-07,-0.2496008394794228,-2.8259060070867648e-06,-0.2819212239462717
878,0.8603,959.854,0.338746,-0.153161,-0.0074027,0.0952675,-0.0801504,0.620714,-0.287397,-0.331466,5.30719e-06,4.07547e-06,-4.95575e-06,0.620981,0.8602557904180537,5.307204083093708e-06,4.075478304832458e-06,-0.24978616518340468,-4.955737720302444e-06,-0.28212943659903345
879,0.8613,959.872,-0.314229,0.163765,0.0103301,-0.103123,0.0753965,0.621252,-0.287652,-0.331749,5.60291e-06,6.38394e-07,-2.86612e-06,0.621522,0.8612568773015237,5.602925696290839e-06,6.383942037224699e-07,-0.2499774453220288,-2.8661158927301145e-06,-0.28233256522441974
880,0.8623,960.165,0.326664,-0.147405,-0.0070856,0.0916648,-0.0773117,0.621789,-0.287899,-0.332038,5.31308e-06,3.99262e-06,-4.91947e-06,0.622062,0.8622566406570706,5.313094114445249e-06,3.992627970461626e-06,-0.2501626780158548,-4.9194578993772e-06,-0.28253994114580594
881,0.8633,960.188,-0.302207,0.157936,0.00996927,-0.0994116,0.0725349,0.622325,-0.288153,-0.332321,5.59763e-06,6.80039e-07,-2.90675e-06,0.622603,0.863255077773706,5.597645666766127e-06,6.8003923114901e-07,-0.25035311250943426,-2.906745775410613e-06,-0.28274295361484236
882,0.8643,960.475,0.314493,-0.1416,-0.00676434,0.0880297,-0.0744496,0.622862,-0.2884,-0.33261,5.31897e-06,3.9094e-06,-4.88293e-06,0.623142,0.8642559144510675,5.31898414579679e-06,3.9094076416112955e-06,-0.25053825242492356,-4.882918078541465e-06,-0.28295021095112005
883,0.8653,960.502,-0.290118,0.152071,0.00961012,-0.0956836,0.0696557,0.623398,-0.288654,-0.332893,5.59231e-06,7.22284e-07,-2.94763e-06,0.623682,0.8652554234656997,5.59232563701606e-06,7.222842608456403e-07,-0.2507285915347174,-2.947625655780328e-06,-0.283153107330229
884,0.8663,960.785,0.302277,-0.135769,-0.00644026,0.0843761,-0.071575,0.623934,-0.288901,-0.333181,5.32484e-06,3.82602e-06,-4.84626e-06,0.624222,0.8662554683607668,5.324854176924632e-06,3.82602731918702e-06,-0.2509136387183404,-4.846248256917818e-06,-0.2833595295090974
885,0.8673,960.817,-0.278004,0.146189,0.00925377,-0.0919526,0.0667695,0.62447,-0.289154,-0.333464,5.58696e-06,7.64876e-07,-2.98862e-06,0.624761,0.8672560494235777,5.586975607041467e-06,7.648762925249741e-07,-0.25110313359563186,-2.988615534049721e-06,-0.2835623100674439
886,0.8683,961.093,0.290061,-0.129932,-0.00611464,0.0807176,-0.0686983,0.625005,-0.2894,-0.333751,5.3307e-06,3.74268e-06,-4.80961e-06,0.6253,0.8682552986853627,5.33071420827369e-06,3.742687003871481e-06,-0.25128733956650395,-4.8095984338525355e-06,-0.2837678981811491
887,0.8693,961.13,-0.265909,0.140313,0.00890127,-0.0882315,0.0638866,0.62554,-0.289653,-0.334034,5.58162e-06,8.0757e-07,-3.0296e-06,0.625838,0.8692550826885332,5.581635577289745e-06,8.0757032616674e-07,-0.25147673990944,-3.0295954107639744e-06,-0.2839705631875128
888,0.8703,961.401,0.277887,-0.124111,-0.00578873,0.0770669,-0.0658295,0.626075,-0.2899,-0.334321,5.33651e-06,3.65959e-06,-4.77311e-06,0.626377,0.8702554017192528,5.336524239174523e-06,3.6595966963481885e-06,-0.2516616023232344,-4.7730986086902405e-06,-0.28417603414938464
889,0.8713,961.443,-0.253874,0.134461,0.00855361,-0.0845326,0.0610167,0.62661,-0.290152,-0.334604,5.57631e-06,8.50136e-07,-3.07042e-06,0.626915,0.8712562560638373,5.576325547540506e-06,8.501363613078183e-07,-0.251850159840204,-3.070415286243744e-06,-0.28437858366961144
890,0.8723,961.708,0.265794,-0.118324,-0.00546372,0.0734364,-0.0629781,0.627144,-0.290399,-0.334891,5.34228e-06,3.57694e-06,-4.73688e-06,0.627452,0.8722557737520464,5.3422942700720455e-06,3.5769463972989968e-06,-0.25203493003066546,-4.7368687809967724e-06,-0.2845839375464073
891,0.8733,961.755,-0.241937,0.128654,0.0082117,-0.0808673,0.0581689,0.627678,-0.290651,-0.335173,5.57105e-06,8.9235e-07,-3.11097e-06,0.62799,0.8732558253252358,5.571065518239493e-06,8.923503982405379e-07,-0.2522233934809057,-3.1109651609240174e-06,-0.28478565643231957
892,0.8743,962.015,0.253821,-0.11259,-0.00514071,0.0698377,-0.0601531,0.628212,-0.290897,-0.33546,5.34799e-06,3.49492e-06,-4.70105e-06,0.628527,0.874256411068576,5.348004300520515e-06,3.4949261071837157e-06,-0.25240732390174003,-4.701038950116754e-06,-0.28499089349599604
893,0.8753,962.066,-0.230134,0.122908,0.00787637,-0.0772464,0.055352,0.628745,-0.291149,-0.335742,5.56587e-06,9.34007e-07,-3.15112e-06,0.629064,0.8752556560107965,5.5658854893891885e-06,9.340074362818029e-07,-0.252595693520548,-3.151115035238128e-06,-0.28519249763651033
894,0.8763,962.32,0.242001,-0.106926,-0.00482079,0.0662818,-0.0573629,0.629278,-0.291395,-0.336028,5.35363e-06,3.4137e-06,-4.66572e-06,0.6296,0.8762554336925337,5.3536443307411474e-06,3.413705826682545e-06,-0.2527795323668368,-4.665709115503347e-06,-0.28539690335077583
895,0.8773,962.376,-0.218499,0.117241,0.0075484,-0.0736801,0.052574,0.629811,-0.291646,-0.336309,5.56078e-06,9.74912e-07,-3.19077e-06,0.630137,0.8772557443978133,5.560795461212464e-06,9.749124751934346e-07,-0.25296706116836354,-3.190764909510868e-06,-0.2855976786106892
896,0.8783,962.625,0.230368,-0.101348,-0.00450492,0.0627787,-0.0546154,0.630344,-0.291892,-0.336595,5.35919e-06,3.33343e-06,-4.63101e-06,0.630673,0.8782565884108129,5.359204360511072e-06,3.3334355558078954e-06,-0.25315080866944684,-4.630999276944436e-06,-0.2858019684597656
897,0.8793,962.685,-0.207063,0.111667,0.00722848,-0.0701777,0.0498424,0.630876,-0.292143,-0.336877,5.55581e-06,1.01489e-06,-3.22981e-06,0.631208,0.8792560867588344,5.555825433489758e-06,1.0148905149609533e-06,-0.2533382442923161,-3.229804784177226e-06,-0.286003343909387
898,0.8803,962.929,0.218952,-0.0958708,-0.00419402,0.0593378,-0.0519178,0.631408,-0.292389,-0.337162,5.36466e-06,3.25427e-06,-4.597e-06,0.631744,0.8802561169814431,5.36467438982946e-06,3.2542752952391396e-06,-0.25352190049358125,-4.596989433780507e-06,-0.2862068039619382
899,0.8813,962.994,-0.195856,0.106201,0.00691723,-0.0667476,0.0471642,0.63194,-0.29264,-0.337443,5.55097e-06,1.05376e-06,-3.26816e-06,0.632279,0.8812566793616718,5.550985406665987e-06,1.0537605552585205e-06,-0.25370924298409125,-3.268154659563649e-06,-0.286407351671752
900,0.8823,963.233,0.20778,-0.0905074,-0.00388892,0.0559677,-0.0492767,0.632471,-0.292885,-0.337728,5.37004e-06,3.17635e-06,-4.56379e-06,0.632814,0.8822558919258705,5.370054418696313e-06,3.1763550445429445e-06,-0.2538920618233379,-4.5637795859088115e-06,-0.28661069659849714
901,0.8833,963.302,-0.184903,0.100855,0.00661518,-0.0633976,0.0445456,0.633002,-0.293135,-0.33801,5.54628e-06,1.09139e-06,-3.30572e-06,0.633348,0.8832556352128351,5.546295380742805e-06,1.0913905956755343e-06,-0.2540785654939518,-3.3057145361059526e-06,-0.2868118440189371
902,0.8843,963.536,0.196876,-0.0852703,-0.00359038,0.0526761,-0.046698,0.633533,-0.293381,-0.338294,5.37531e-06,3.09979e-06,-4.53145e-06,0.633883,0.8842559095044544,5.375324447109975e-06,3.0997948043953727e-06,-0.25426203959860016,-4.531439733002074e-06,-0.2870143606965063
903,0.8853,963.609,-0.174227,0.0956413,0.00632281,-0.0601345,0.0419921,0.634064,-0.293631,-0.338575,5.54175e-06,1.12764e-06,-3.34243e-06,0.634417,0.8852567150827666,5.541765355498995e-06,1.1276406357563218e-06,-0.25444845078633116,-3.342424414132239e-06,-0.2872146815147575
904,0.8863,963.838,0.186264,-0.0801701,-0.00329907,0.0494699,-0.0441871,0.634594,-0.293876,-0.338859,5.38048e-06,3.02471e-06,-4.50006e-06,0.63495,0.8862561659728507,5.380494474849229e-06,3.024714574362264e-06,-0.2546310885418499,-4.500049874733847e-06,-0.287417083802722
905,0.8873,963.915,-0.163849,0.0905698,0.0060405,-0.0569643,0.0395088,0.635124,-0.294126,-0.33914,5.53739e-06,1.16239e-06,-3.37821e-06,0.635484,0.8872561467123046,5.537405331379475e-06,1.162390675490954e-06,-0.25481740747887693,-3.3782042938579337e-06,-0.2876172914716786
906,0.8883,964.139,0.175961,-0.0752166,-0.0030156,0.046355,-0.0417485,0.635654,-0.294371,-0.339423,5.38553e-06,2.95119e-06,-4.46967e-06,0.636017,0.8882566575820223,5.38554450191242e-06,2.951194354672282e-06,-0.2549999548510784,-4.469660010997245e-06,-0.2878188672538735
907,0.8893,964.221,-0.153787,0.0856493,0.0057686,-0.0538923,0.0370999,0.636183,-0.29462,-0.339704,5.53321e-06,1.19553e-06,-3.41301e-06,0.63655,0.8892558096062932,5.533225308163026e-06,1.1955307146482852e-06,-0.2551854367688633,-3.413004175722989e-06,-0.2880189620375415
908,0.8903,964.44,0.165984,-0.0704178,-0.00274046,0.0433368,-0.0393863,0.636712,-0.294865,-0.339987,5.39046e-06,2.87933e-06,-4.44034e-06,0.637082,0.8902554903218114,5.390474528521594e-06,2.8793341453337007e-06,-0.2553678939849333,-4.440330141686211e-06,-0.2882204241630495
909,0.8913,964.526,-0.144056,0.0808875,0.00550734,-0.0509228,0.0347692,0.637241,-0.295114,-0.340268,5.52923e-06,1.22697e-06,-3.44678e-06,0.637615,0.8912557000083288,5.529245286295392e-06,1.2269707527767792e-06,-0.2555532842972793,-3.44677405983429e-06,-0.28842040612507813
910,0.8923,964.74,0.156347,-0.0657806,-0.00247411,0.0404197,-0.0371038,0.63777,-0.295359,-0.340551,5.39527e-06,2.80919e-06,-4.41211e-06,0.638147,0.8922564389457448,5.3952845544547046e-06,2.809193945685351e-06,-0.25573565140174404,-4.412100266693031e-06,-0.28862175465798356
911,0.8933,964.829,-0.134668,0.0762906,0.00525691,-0.0480596,0.0325197,0.638298,-0.295607,-0.340831,5.52544e-06,1.25664e-06,-3.47948e-06,0.638679,0.8932558141573468,5.525455265331658e-06,1.2566407896485998e-06,-0.2559202060744711,-3.4794739466326163e-06,-0.2888209126832546
912,0.8943,965.04,0.147061,-0.0613109,-0.0022169,0.0376071,-0.0349039,0.638826,-0.295852,-0.341113,5.39995e-06,2.74083e-06,-4.38502e-06,0.63921,0.8942557171783896,5.399964579710925e-06,2.7408337561762863e-06,-0.25610248329411167,-4.385010385798971e-06,-0.289021436910633
913,0.8953,965.132,-0.125634,0.0718637,0.00501746,-0.0453055,0.0303538,0.639354,-0.2961,-0.341393,5.52185e-06,1.28448e-06,-3.51107e-06,0.639741,0.8952561482876307,5.521865245494695e-06,1.2844808250367379e-06,-0.2562869470038093,-3.5110638362256807e-06,-0.2892204830405394
914,0.8963,965.339,0.138135,-0.057013,-0.00196912,0.0349021,-0.0327886,0.639881,-0.296345,-0.341675,5.4045e-06,2.67429e-06,-4.3591e-06,0.640272,0.8962552115078144,5.404514604290256e-06,2.674293575921638e-06,-0.25646913438292807,-4.359090499117535e-06,-0.28942089460496323
915,0.8973,965.435,-0.116961,0.0676106,0.00478903,-0.0426627,0.0282734,0.640409,-0.296592,-0.341955,5.51848e-06,1.31043e-06,-3.54153e-06,0.640803,0.8972566986288237,5.5184952267861576e-06,1.3104308587141844e-06,-0.2566527638275655,-3.541523728833873e-06,-0.2896198289023725
916,0.8983,965.637,0.129575,-0.0528903,-0.001731,0.0323067,-0.0307597,0.640936,-0.296837,-0.342237,5.40893e-06,2.60961e-06,-4.33437e-06,0.641333,0.8982568164168914,5.408944628193524e-06,2.6096134049247155e-06,-0.25683486159254065,-4.334360606650378e-06,-0.2898201278671406
917,0.8993,965.736,-0.108655,0.0635343,0.00457164,-0.0401325,0.0262799,0.641462,-0.297084,-0.342516,5.51531e-06,1.33447e-06,-3.57084e-06,0.641863,0.8992555621494271,5.515325209426436e-06,1.33447089045724e-06,-0.25701840071371274,-3.5708336245665606e-06,-0.29001824041348034
918,0.9003,965.935,0.121385,-0.048945,-0.00150268,0.0298224,-0.0288181,0.641989,-0.297328,-0.342798,5.41322e-06,2.54682e-06,-4.31084e-06,0.642393,0.9002567336161902,5.413234651419074e-06,2.546823243188001e-06,-0.2571996661086611,-4.310830708287305e-06,-0.2902184270420425
919,0.9013,966.037,-0.100718,0.0596363,0.00436524,-0.0377159,0.0243741,0.642515,-0.297575,-0.343077,5.51235e-06,1.35657e-06,-3.59899e-06,0.642923,0.9012565315818855,5.512365192972268e-06,1.3565709200413778e-06,-0.25738311513424483,-3.5989835236449608e-06,-0.290416428478413
920,0.9023,966.232,0.113567,-0.0451782,-0.00128425,0.0274498,-0.0269645,0.643041,-0.297819,-0.343358,5.41738e-06,2.48591e-06,-4.28851e-06,0.643452,0.9022568555796451,5.417394673967735e-06,2.485913089822489e-06,-0.2575642915497306,-4.288500804361384e-06,-0.2906157934499203
921,0.9033,966.337,-0.0931518,0.0559174,0.00416975,-0.035413,0.0225563,0.643566,-0.298066,-0.343637,5.50961e-06,1.37672e-06,-3.62599e-06,0.643981,0.9032558026294806,5.509625177868571e-06,1.376720947687815e-06,-0.2577476505239522,-3.625983426069901e-06,-0.2908136840365272
922,0.9043,966.528,0.106122,-0.0415903,-0.00107573,0.0251892,-0.0251988,0.644091,-0.29831,-0.343918,5.42142e-06,2.4269e-06,-4.2674e-06,0.644509,0.9042552742642085,5.4214346958403326e-06,2.426902944829834e-06,-0.25792873800365346,-4.267390894652223e-06,-0.29101293739490497
923,0.9053,966.636,-0.0859555,0.0523772,0.00398503,-0.0332233,0.0208263,0.644616,-0.298556,-0.344196,5.50709e-06,1.39491e-06,-3.65182e-06,0.645038,0.9052552707593085,5.5071051641153446e-06,1.3949109729516351e-06,-0.2581112650823534,-3.6518133320617707e-06,-0.29121000840416966
924,0.9063,966.824,0.0990468,-0.0381803,-0.000877111,0.0230401,-0.0235207,0.645141,-0.2988,-0.344477,5.42533e-06,2.36977e-06,-4.24748e-06,0.645566,0.9062557923904044,5.42534471703604e-06,2.3697728079863367e-06,-0.2582922638509255,-4.247470979490409e-06,-0.29140915041104576
925,0.9073,966.934,-0.0791261,0.0490146,0.00381089,-0.031146,0.0191835,0.645666,-0.299046,-0.344755,5.50477e-06,1.41116e-06,-3.67649e-06,0.646094,0.9072568394332654,5.504785151266844e-06,1.4111609956124482e-06,-0.2584747015132657,-3.67648324173242e-06,-0.2916061112884011
926,0.9083,967.119,0.092338,-0.0349469,-0.000688305,0.0210014,-0.0219294,0.64619,-0.29929,-0.345035,5.42911e-06,2.31452e-06,-4.22876e-06,0.646621,0.9082565039063468,5.429124737554858e-06,2.3145226784038186e-06,-0.2586556116141666,-4.228751058765745e-06,-0.29180443381079146
927,0.9093,967.232,-0.0726596,0.0458277,0.00364713,-0.0291797,0.017627,0.646714,-0.299535,-0.345314,5.50266e-06,1.42549e-06,-3.70003e-06,0.647149,0.909256692340878,5.502675139767987e-06,1.4254910161159984e-06,-0.25883721874153964,-3.7000231548622864e-06,-0.292001992812996
928,0.9103,967.413,0.0859906,-0.0318877,-0.000509191,0.0190718,-0.0204238,0.647237,-0.299779,-0.345593,5.43277e-06,2.2611e-06,-4.21121e-06,0.647676,0.9102554947550368,5.4327847576196575e-06,2.2611025563001874e-06,-0.2590180403990273,-4.2112011329198396e-06,-0.2921994967039272
929,0.9113,967.529,-0.0665499,0.0428138,0.00349349,-0.0273224,0.0161554,0.647761,-0.300024,-0.345871,5.50076e-06,1.43792e-06,-3.72245e-06,0.648203,0.9112567309352582,5.500775129174684e-06,1.4379210337978066e-06,-0.25919955874222456,-3.722443071674242e-06,-0.2923962378955508
930,0.9123,967.707,0.0799979,-0.0289997,-0.000339607,0.0172494,-0.0190023,0.648284,-0.300267,-0.346151,5.43632e-06,2.2095e-06,-4.19482e-06,0.648729,0.9122565796431836,5.436334776787177e-06,2.209502441008482e-06,-0.2593795513794591,-4.19481120172982e-06,-0.29259433921346123
931,0.9133,967.825,-0.0607901,0.0399696,0.0033497,-0.025572,0.0147671,0.648807,-0.300512,-0.346428,5.49907e-06,1.44848e-06,-3.74377e-06,0.649255,0.9132569514087512,5.499085119931024e-06,1.4484810491044442e-06,-0.25956098116331505,-3.743762992058919e-06,-0.29279026344474035
932,0.9143,968.0,0.0743521,-0.0262792,-0.00017935,0.0155319,-0.0176632,0.649329,-0.300755,-0.346707,5.43974e-06,2.15967e-06,-4.17956e-06,0.649781,0.914255932248702,5.4397547954998515e-06,2.1596723320804756e-06,-0.2597408859855712,-4.1795512656372935e-06,-0.29298754743884237
933,0.9153,968.12,-0.0553717,0.0372911,0.00321546,-0.0239257,0.0134602,0.649851,-0.301,-0.346985,5.49757e-06,1.45722e-06,-3.76401e-06,0.650307,0.9152554346927779,5.497585111591263e-06,1.4572210618180037e-06,-0.2599222272532924,-3.7640029161289945e-06,-0.2931840695828106
934,0.9163,968.293,0.0690442,-0.0237221,-2.81869e-05,0.0139166,-0.0164043,0.650373,-0.301243,-0.347263,5.44306e-06,2.11156e-06,-4.16539e-06,0.650832,0.9162554590133276,5.443074813538118e-06,2.111562229289987e-06,-0.2601020443034133,-4.165381324749973e-06,-0.29338053710121625
935,0.9173,968.414,-0.0502854,0.034774,0.00309045,-0.0223808,0.0122324,0.650895,-0.301487,-0.347541,5.49626e-06,1.46418e-06,-3.78321e-06,0.651357,0.9172560054828418,5.496275104377446e-06,1.4641810719417947e-06,-0.2602825573811123,-3.783202843665734e-06,-0.293576950009243
936,0.9183,968.585,0.0640644,-0.0213237,0.000114143,0.0124007,-0.0152234,0.651416,-0.30173,-0.347819,5.44627e-06,2.06514e-06,-4.1523e-06,0.651882,0.9182551561178378,5.446284830901149e-06,2.0651421324124897e-06,-0.26046228688164996,-4.1522913791780525e-06,-0.29377330832207027
937,0.9193,968.708,-0.0455211,0.0324133,0.00297433,-0.020934,0.0110813,0.651938,-0.301974,-0.348096,5.49515e-06,1.46942e-06,-3.80141e-06,0.652407,0.9192567467017307,5.4951650982904e-06,1.4694210797028262e-06,-0.26064271207088263,-3.8014027746724466e-06,-0.2939689060241327
938,0.9203,968.876,0.0594018,-0.019079,0.000247924,0.0109809,-0.014118,0.652458,-0.302216,-0.348374,5.44938e-06,2.02034e-06,-4.14024e-06,0.652931,0.9202550197385106,5.449394847811817e-06,2.020342040998102e-06,-0.2608216148864476,-4.140231429250463e-06,-0.29416515538833243
939,0.9213,969.001,-0.0410676,0.0302038,0.00286675,-0.0195819,0.0100044,0.652979,-0.30246,-0.348651,5.49422e-06,1.47298e-06,-3.81862e-06,0.653455,0.9212557332670324,5.49423509332847e-06,1.4729810848823632e-06,-0.26100195241034274,-3.818612709038938e-06,-0.2943606445637891
940,0.9223,969.167,0.0550453,-0.0169825,0.000373462,0.0096538,-0.0130853,0.653499,-0.302702,-0.348929,5.4524e-06,1.9771e-06,-4.12918e-06,0.653979,0.9222550460471364,5.452414864270949e-06,1.9771019543757262e-06,-0.26118076830026404,-4.129171474964721e-06,-0.294556785039811
941,0.9233,969.293,-0.0369134,0.0281399,0.00276733,-0.018321,0.00899896,0.65402,-0.302946,-0.349205,5.49346e-06,1.47494e-06,-3.8349e-06,0.654502,0.9232568018608567,5.49347508904674e-06,1.4749410877090696e-06,-0.26136101820141655,-3.834892646770172e-06,-0.29475146050069057
942,0.9243,969.457,0.0509827,-0.0150286,0.000491076,0.00841593,-0.0121227,0.654539,-0.303188,-0.349482,5.45532e-06,1.93538e-06,-4.11908e-06,0.655025,0.924255231211027,5.455334880277718e-06,1.935381872764097e-06,-0.26153974720792983,-4.119071516650585e-06,-0.2949467872921223
943,0.9253,969.585,-0.0330465,0.026216,0.00267572,-0.0171475,0.0080621,0.655059,-0.303431,-0.349759,5.49288e-06,1.47534e-06,-3.85027e-06,0.655548,0.9252561041356642,5.492895085890126e-06,1.4753410884082996e-06,-0.26171917124845445,-3.850262587756781e-06,-0.2951420599855258
944,0.9263,969.747,0.0472018,-0.0132115,0.0006011,0.00726355,-0.0112272,0.655578,-0.303673,-0.350036,5.45816e-06,1.89509e-06,-4.1099e-06,0.656071,0.9262555713930292,5.458174895833778e-06,1.8950917957116786e-06,-0.26189781359241693,-4.109891554415768e-06,-0.2953372785958841
945,0.9273,969.876,-0.0294543,0.0244259,0.00259154,-0.0160577,0.00719088,0.656097,-0.303916,-0.350312,5.49246e-06,1.47427e-06,-3.86479e-06,0.656594,0.9272555575085328,5.492475083634929e-06,1.4742710867654552e-06,-0.262077150633381,-3.864782531670663e-06,-0.29553173867026683
946,0.9283,970.036,0.04369,-0.011525,0.000703872,0.00619286,-0.0103958,0.656616,-0.304157,-0.350588,5.46092e-06,1.85619e-06,-4.10161e-06,0.657116,0.9282560627515322,5.46093491093913e-06,1.8561917227710722e-06,-0.26225496861215125,-4.101601588368808e-06,-0.2957261450810751
947,0.9293,970.166,-0.0261243,0.0227637,0.0025144,-0.0150477,0.00638231,0.657134,-0.3044,-0.350864,5.49221e-06,1.47177e-06,-3.87848e-06,0.657637,0.9292551581354016,5.492225082281976e-06,1.4717710830058905e-06,-0.2624342188749895,-3.878472478735517e-06,-0.2959204978431178
948,0.9303,970.324,0.0404345,-0.009963,0.00079974,0.00520002,-0.00962546,0.657653,-0.304641,-0.35114,5.4636e-06,1.8186e-06,-4.09415e-06,0.658159,0.9302567014404803,5.463614925593774e-06,1.818601653713614e-06,-0.2626119508106821,-4.094141618948832e-06,-0.2961147969712
949,0.9313,970.455,-0.0230436,0.0212231,0.00244394,-0.0141134,0.00563336,0.658171,-0.304883,-0.351416,5.4921e-06,1.46792e-06,-3.89139e-06,0.65868,0.9312568334236466,5.492115081606741e-06,1.4679210773582696e-06,-0.2627903771281308,-3.891382428511392e-06,-0.2963090424801227
950,0.9323,970.612,0.0374224,-0.00851938,0.000889053,0.00428114,-0.00891321,0.658688,-0.305125,-0.351692,5.46622e-06,1.78226e-06,-4.08749e-06,0.659201,0.9322555513528661,5.466234939799364e-06,1.782261588312295e-06,-0.26296876027163474,-4.087481646264379e-06,-0.2965032343846826
951,0.9333,970.743,-0.0201993,0.0197979,0.00237978,-0.0132511,0.00494097,0.659206,-0.305367,-0.351967,5.49214e-06,1.46279e-06,-3.90356e-06,0.659722,0.933256719008503,5.492155081832095e-06,1.4627910698283841e-06,-0.2631471002516411,-3.903552381112618e-06,-0.2966966693966936
952,0.9343,970.899,0.0346407,-0.00718788,0.000972159,0.00343232,-0.00825595,0.659723,-0.305608,-0.352243,5.46877e-06,1.74711e-06,-4.08159e-06,0.660243,0.9342564711458894,5.468784953777117e-06,1.7471115261180614e-06,-0.2633246604036228,-4.08158167031214e-06,-0.2968907543309871
953,0.9353,971.031,-0.0175787,0.0184819,0.00232155,-0.0124567,0.0043021,0.66024,-0.305849,-0.352518,5.49233e-06,1.45644e-06,-3.91503e-06,0.660763,0.9352567402887653,5.492345082958039e-06,1.4564410606432432e-06,-0.2635021777687637,-3.915022336320462e-06,-0.2970840827896647
954,0.9363,971.185,0.0320767,-0.00596236,0.0010494,0.00264971,-0.00765067,0.660756,-0.30609,-0.352793,5.47127e-06,1.71307e-06,-4.07641e-06,0.661283,0.9362555904479328,5.471284967528689e-06,1.7130714673463387e-06,-0.26367965235737456,-4.0764016914218715e-06,-0.2972773580903256
955,0.9373,971.319,-0.015169,0.017269,0.0022689,-0.0117265,0.00371374,0.661273,-0.306332,-0.353068,5.49264e-06,1.44895e-06,-3.92585e-06,0.661803,0.9372568934027052,5.492655084538001e-06,1.448951049809466e-06,-0.26385782032231087,-3.925842293805992e-06,-0.29747058024758644
956,0.9383,971.471,0.0297177,-0.00483671,0.00112113,0.00192947,-0.00709435,0.661789,-0.306572,-0.353343,5.47371e-06,1.68008e-06,-4.0719e-06,0.662322,0.9382567759072016,5.473724980831207e-06,1.6800814113260287e-06,-0.26403447324623464,-4.0718917098114815e-06,-0.29766374927605965
957,0.9393,971.605,-0.0129578,0.0161532,0.00222146,-0.0110565,0.00317291,0.662304,-0.306813,-0.353618,5.49309e-06,1.44036e-06,-3.93604e-06,0.662841,0.939255235228001,5.4931050870177245e-06,1.4403610373303621e-06,-0.2642118195670923,-3.936032253792909e-06,-0.2978568651903535
958,0.9403,971.756,0.0275514,-0.00380494,0.00118767,0.00126787,-0.00658406,0.66282,-0.307054,-0.353892,5.4761e-06,1.64808e-06,-4.06803e-06,0.66336,0.9402561491429604,5.476114993907544e-06,1.648081358052167e-06,-0.2643891231526364,-4.06802172558951e-06,-0.29804922605464945
959,0.9413,971.891,-0.0109327,0.0151285,0.0021789,-0.0104431,0.0026767,0.663335,-0.307295,-0.354167,5.49365e-06,1.43076e-06,-3.94566e-06,0.663879,0.9412556384061634,5.4936650901726836e-06,1.4307610234354229e-06,-0.264566384013165,-3.945652215842088e-06,-0.2982422359774036
960,0.9423,972.041,0.0255656,-0.00286118,0.00124936,0.000661231,-0.00611691,0.66385,-0.307535,-0.354441,5.47846e-06,1.61701e-06,-4.06476e-06,0.664397,0.9422556425389048,5.4784750067593535e-06,1.6170113072977443e-06,-0.26474286690220805,-4.06475173886367e-06,-0.29843449126456867
961,0.9433,972.176,-0.00908197,0.014189,0.00214089,-0.00988263,0.00222228,0.664365,-0.307775,-0.354715,5.49433e-06,1.4202e-06,-3.95473e-06,0.664915,0.9432561618064099,5.494345093781661e-06,1.4202010085728745e-06,-0.26491930744044,-3.954722180066206e-06,-0.29862669388100127
962,0.9443,972.325,0.0237486,-0.00199975,0.0013065,0.000105986,-0.00569011,0.664879,-0.308015,-0.354989,5.48077e-06,1.5868e-06,-4.06204e-06,0.665433,0.944255252217818,5.480785019384982e-06,1.5868012590569691e-06,-0.26509570563802387,-4.062031749962891e-06,-0.2988188438411311
963,0.9453,972.46,-0.0073939,0.0133293,0.0021071,-0.00937154,0.00180689,0.665394,-0.308256,-0.355263,5.49513e-06,1.40875e-06,-3.9633e-06,0.665951,0.9452568015495268,5.495145098288745e-06,1.4087509923044195e-06,-0.2652727962326913,-3.963292146136332e-06,-0.2990109411593843
964,0.9463,972.608,0.0220889,-0.0012151,0.00135942,-0.000401318,-0.00530094,0.665908,-0.308496,-0.355537,5.48306e-06,1.5574e-06,-4.05985e-06,0.666468,0.9462569205540885,5.483075032008955e-06,1.5574012126595704e-06,-0.2654491096031447,-4.059841758774496e-06,-0.29920298585018246
965,0.9473,972.744,-0.00585737,0.0125439,0.00207723,-0.00890644,0.00142786,0.666421,-0.308736,-0.35581,5.49602e-06,1.39646e-06,-3.9714e-06,0.666985,0.9472556064953748,5.496035103247365e-06,1.3964609750782842e-06,-0.26562538066346664,-3.97139211405495e-06,-0.2993942773225713
966,0.9483,972.891,0.0205756,-0.000501922,0.00140839,-0.000864012,-0.00494679,0.666935,-0.308975,-0.356084,5.48531e-06,1.52874e-06,-4.05815e-06,0.667502,0.9482567531497619,5.485325044407574e-06,1.5287411685438457e-06,-0.2658008752250526,-4.058141765739265e-06,-0.2995862169936492
967,0.9493,973.027,-0.00446161,0.0118274,0.00205098,-0.00848406,0.00108262,0.667448,-0.309215,-0.356357,5.49702e-06,1.38339e-06,-3.97907e-06,0.668018,0.9492564652683617,5.497035108659176e-06,1.383390956899433e-06,-0.2659770618717553,-3.979062083492302e-06,-0.2997774038582155
968,0.9503,973.173,0.0191981,0.000144914,0.00145371,-0.00128529,-0.00462514,0.667961,-0.309454,-0.35663,5.48754e-06,1.50078e-06,-4.0569e-06,0.668534,0.9502566903708476,5.487555056582494e-06,1.500781126262396e-06,-0.2661524723915758,-4.056891770742865e-06,-0.29996853853589156
969,0.9513,973.309,-0.00319634,0.0111751,0.00202807,-0.00810126,0.000768727,0.668473,-0.309694,-0.356903,5.49811e-06,1.3696e-06,-3.98633e-06,0.66905,0.9512554774639943,5.4981251147445676e-06,1.3696009379948748e-06,-0.26632857466508375,-3.9863220545610645e-06,-0.30015962104092264
970,0.9523,973.455,0.0179464,0.000730304,0.00149564,-0.00166822,-0.00433359,0.668986,-0.309933,-0.357176,5.48976e-06,1.47347e-06,-4.05607e-06,0.669566,0.9522567283228205,5.489775068756586e-06,1.4734710855890398e-06,-0.2665039011833853,-4.056061774115882e-06,-0.3003506513875497
971,0.9533,973.591,-0.00205171,0.0105819,0.00200824,-0.00775504,0.000483827,0.669498,-0.310172,-0.357448,5.49929e-06,1.35514e-06,-3.99323e-06,0.670081,0.9532565396975925,5.49930512105945e-06,1.3551409181467022e-06,-0.2666791858036559,-3.9932220270433305e-06,-0.3005409301312899
972,0.9543,973.736,0.0168108,0.00125892,0.00153445,-0.0020157,-0.00406985,0.67001,-0.310411,-0.357721,5.49196e-06,1.44674e-06,-4.05563e-06,0.670597,0.954256863106858,5.4919750809290235e-06,1.4467410465179853e-06,-0.26685442853590813,-4.055621775966856e-06,-0.3007318563947433
973,0.9553,973.872,-0.0010184,0.0100435,0.00199124,-0.00744257,0.000225689,0.670521,-0.31065,-0.357994,5.50056e-06,1.34006e-06,-3.99978e-06,0.671112,0.9552557435561249,5.500575128047913e-06,1.3400608978031414e-06,-0.26702962939015207,-3.999772000939927e-06,-0.3009227305424409
974,0.9563,974.016,0.0157823,0.00173519,0.00157038,-0.00233051,-0.00383174,0.671032,-0.310888,-0.358266,5.49414e-06,1.42057e-06,-4.05555e-06,0.671626,0.9562551345637373,5.494155092877762e-06,1.4205710090475776e-06,-0.26720405558081717,-4.055541776293303e-06,-0.3011128537018115
975,0.9573,974.153,-8.75354e-05,0.00955538,0.00197683,-0.00716115,-7.80601e-06,0.671543,-0.311127,-0.358538,5.5019e-06,1.3244e-06,-4.00602e-06,0.672141,0.9572550363906585,5.501915135486257e-06,1.324400876967502e-06,-0.267379172884182,-4.006011975921098e-06,-0.30130292515471524
976,0.9583,974.296,0.0148522,0.00216332,0.00160365,-0.00261526,-0.00361721,0.672054,-0.311366,-0.35881,5.49632e-06,1.39489e-06,-4.05581e-06,0.672655,0.9582554492979829,5.4963351048265e-06,1.3948909729499803e-06,-0.26755424833951236,-4.055801775204593e-06,-0.30149294491521417
977,0.9593,974.432,0.000749242,0.00911359,0.00196478,-0.00690823,-0.000218657,0.672565,-0.311604,-0.359082,5.50333e-06,1.30822e-06,-4.01197e-06,0.673169,0.9592563735469395,5.503345143376137e-06,1.3082208556447483e-06,-0.2677285496857247,-4.011961952099519e-06,-0.3016829129973668
978,0.9603,974.575,0.0140125,0.00254727,0.00163448,-0.00287242,-0.00342431,0.673075,-0.311842,-0.359354,5.49849e-06,1.36967e-06,-4.05637e-06,0.673682,0.9602558491420614,5.49850511677441e-06,1.3696709380006666e-06,-0.2679028095531527,-4.056361772919459e-06,-0.30187282941522786
979,0.9613,974.712,0.00149981,0.00871423,0.00195488,-0.00668141,-0.000408749,0.673585,-0.312081,-0.359625,5.50482e-06,1.29156e-06,-4.01766e-06,0.674196,0.9612558345997411,5.504835151493026e-06,1.2915608340602347e-06,-0.2680777598742733,-4.017651929255628e-06,-0.30206199624519314
980,0.9623,974.853,0.0132554,0.00289077,0.00166307,-0.00310431,-0.00325122,0.674095,-0.312318,-0.359897,5.50066e-06,1.34487e-06,-4.05722e-06,0.674709,0.9622563301800742,5.500675128722321e-06,1.3448709044183715e-06,-0.26825120489113674,-4.057211769548097e-06,-0.3022518095664325
981,0.9633,974.99,0.00217155,0.00835371,0.00194694,-0.00647846,-0.000579851,0.674604,-0.312556,-0.360168,5.50639e-06,1.27444e-06,-4.02312e-06,0.675222,0.9632553728869353,5.506405160282668e-06,1.2744408119935713e-06,-0.2684253403814273,-4.023111907280885e-06,-0.3024408737066919
982,0.9643,975.131,0.0125738,0.00319731,0.00168963,-0.00331311,-0.00309623,0.675114,-0.312794,-0.360439,5.50283e-06,1.32045e-06,-4.05832e-06,0.675734,0.964256888491879,5.502845140670232e-06,1.3204508717556962e-06,-0.26859943443240275,-4.058311764976175e-06,-0.3026298866175112
983,0.9653,975.268,0.00277139,0.00802863,0.00194078,-0.00629726,-0.000733618,0.675623,-0.313032,-0.36071,5.50802e-06,1.25692e-06,-4.02836e-06,0.676246,0.9652569497421182,5.508035169077274e-06,1.2569207898938117e-06,-0.26877348705392423,-4.028351886176118e-06,-0.3028188483127716
984,0.9663,975.408,0.011961,0.00347016,0.00171431,-0.00350085,-0.00295773,0.676131,-0.313269,-0.360981,5.50501e-06,1.29638e-06,-4.05966e-06,0.676758,0.9662555538965671,5.50502515261897e-06,1.296380840232203e-06,-0.2689467672029837,-4.059651759646954e-06,-0.3030077588063509
985,0.9673,975.545,0.00330577,0.00773585,0.00193623,-0.00613586,-0.000871596,0.67664,-0.313507,-0.361252,5.50971e-06,1.23903e-06,-4.0334e-06,0.67727,0.9672566327264494,5.509725178542979e-06,1.2390307675413936e-06,-0.2691207371691422,-4.033391865831959e-06,-0.3031966181121226
986,0.9683,975.685,0.0114109,0.00371236,0.00173729,-0.00366942,-0.00283423,0.677148,-0.313744,-0.361522,5.50719e-06,1.27262e-06,-4.06122e-06,0.677782,0.9682562529779208,5.507205164567708e-06,1.2726208098445824e-06,-0.269293935029676,-4.061211753225713e-06,-0.30338472962903473
987,0.9693,975.822,0.00378068,0.00747243,0.00193312,-0.00599242,-0.000995224,0.677656,-0.313981,-0.361793,5.51146e-06,1.2208e-06,-4.03827e-06,0.678293,0.9692563811654853,5.511475188013648e-06,1.2208007451608438e-06,-0.26946709184718054,-4.03826184625089e-06,-0.30357348678955487
988,0.9703,975.961,0.0109176,0.00392674,0.00175872,-0.00382059,-0.00272434,0.678163,-0.314218,-0.362063,5.50938e-06,1.24915e-06,-4.06297e-06,0.678804,0.9702550472912068,5.509395176739318e-06,1.2491507801470902e-06,-0.2696402076313821,-4.062961746154059e-06,-0.30376149656565976
989,0.9713,976.097,0.00420171,0.00723564,0.00193132,-0.00586527,-0.00110583,0.678671,-0.314455,-0.362333,5.51327e-06,1.20226e-06,-4.04298e-06,0.679315,0.9712561911242346,5.513285198155415e-06,1.2022607227546445e-06,-0.2698132823920042,-4.042971827211694e-06,-0.3039494555859774
990,0.9723,976.237,0.0104757,0.00411592,0.00177875,-0.00395597,-0.0026268,0.679178,-0.314692,-0.362604,5.51157e-06,1.22593e-06,-4.06491e-06,0.679825,0.972255871410673,5.511585188688883e-06,1.2259307513584616e-06,-0.26998631613876833,-4.064901738209947e-06,-0.3041380597264983
991,0.9733,976.373,0.00457398,0.00702296,0.00193068,-0.00575282,-0.00120466,0.679685,-0.314929,-0.362873,5.51513e-06,1.18343e-06,-4.04755e-06,0.680335,0.9732560586635222,5.51514520830132e-06,1.1834307003244504e-06,-0.2701593088813937,-4.0475418087160264e-06,-0.30432522141405627
992,0.9743,976.511,0.0100804,0.00428233,0.00179749,-0.00407708,-0.0025404,0.680192,-0.315165,-0.363143,5.51378e-06,1.20295e-06,-4.06701e-06,0.680845,0.9742567531398789,5.513795200862148e-06,1.2029507234778691e-06,-0.27033153096149287,-4.0670017297239625e-06,-0.3045130282492108
993,0.9753,976.648,0.00490225,0.00683207,0.0019311,-0.00565365,-0.00129285,0.680698,-0.315402,-0.363413,5.51704e-06,1.16436e-06,-4.05199e-06,0.681355,0.9752559798400029,5.51705521889545e-06,1.1643606778743987e-06,-0.2705044418978997,-4.0519817906536915e-06,-0.3047007843833648
994,0.9763,976.786,0.00972701,0.00442819,0.00181508,-0.00418531,-0.00246405,0.681204,-0.315638,-0.363682,5.51601e-06,1.18017e-06,-4.06927e-06,0.681865,0.9762557122767779,5.5160252132591125e-06,1.1801706965020031e-06,-0.2706765825362175,-4.069261720585082e-06,-0.3048877947183479
995,0.9773,976.922,0.00519089,0.00666081,0.00193244,-0.00556641,-0.00137144,0.68171,-0.315875,-0.363952,5.519e-06,1.14505e-06,-4.05632e-06,0.682374,0.9772559507061711,5.519015229715762e-06,1.1450506556265339e-06,-0.270849411705091,-4.0563117731373666e-06,-0.3050754496792143
996,0.9783,977.059,0.00941142,0.00455557,0.00183162,-0.00428191,-0.00239675,0.682216,-0.316111,-0.364221,5.51825e-06,1.15758e-06,-4.07166e-06,0.682883,0.9782566953842797,5.518265225656904e-06,1.157580669985947e-06,-0.2710214709401402,-4.0716517107908246e-06,-0.3052623592427872
997,0.9793,977.195,0.00544391,0.00650723,0.00193461,-0.0054899,-0.0014414,0.682721,-0.316347,-0.36449,5.52101e-06,1.12553e-06,-4.06056e-06,0.683391,0.9792559673103736,5.521025240762256e-06,1.1255306333612936e-06,-0.27119348957400113,-4.060551755946662e-06,-0.3054492185344493
998,0.9803,977.332,0.00912976,0.00466634,0.00184721,-0.00436808,-0.00233758,0.683226,-0.316583,-0.364759,5.5205e-06,1.13515e-06,-4.07417e-06,0.6839,0.9802557439962312,5.520515238055523e-06,1.1351506443713077e-06,-0.2713654676162546,-4.0741617005624065e-06,-0.3056360275677221
999,0.9813,977.468,0.00566496,0.00636952,0.00193752,-0.00542299,-0.00150362,0.683731,-0.316818,-0.365028,5.52306e-06,1.10582e-06,-4.0647e-06,0.684408,0.9812560256968206,5.523075252034104e-06,1.1058206115244218e-06,-0.27153667661351955,-4.06469173908075e-06,-0.30582278635612326
