,Time,S11,S22,S33,S12,S13,S23,LE11,LE22,LE33,LE12,LE13,LE23,SDV_EPBAR,E11,E12,E13,E22,E23,E33
0,1e-05,2.08407,-1.66533e-16,-2.22045e-16,1.69736e-17,-3.59433e-39,0.0,9.99995e-06,-2.99999e-06,-2.99999e-06,0.0,0.0,0.0,0.0,9.999999999621423e-06,0.0,0.0,-2.999985500018454e-06,0.0,-2.999985500018454e-06
1,2e-05,4.16811,3.33067e-16,4.44089e-16,-2.20659e-22,-3.59433e-39,0.0,1.99998e-05,-5.99994e-06,-5.99994e-06,0.0,0.0,0.0,0.0,1.9999999997244444e-05,0.0,0.0,-5.999922000343716e-06,0.0,-5.999922000343716e-06
2,3.5e-05,7.29414,-1.11022e-16,-2.22045e-16,-2.20659e-22,-3.59433e-39,-1.37033e-38,3.49994e-05,-1.04998e-05,-1.04998e-05,0.0,0.0,0.0,0.0,3.5000012486241516e-05,0.0,0.0,-1.0499744877323636e-05,0.0,-1.0499744877323636e-05
3,5.75e-05,11.9831,-4.21885e-15,-4.44089e-15,1.69731e-17,-1.0783e-38,-3.39477e-17,5.74983e-05,-1.72495e-05,-1.72495e-05,0.0,0.0,0.0,0.0,5.749995305892597e-05,0.0,0.0,-1.7249351228265652e-05,0.0,-1.7249351228265652e-05
4,9.125e-05,19.0163,-2.88658e-14,-2.93099e-14,1.69724e-17,-3.39462e-17,0.0,9.12458e-05,-2.73738e-05,-2.73738e-05,0.0,0.0,0.0,0.0,9.124996302456445e-05,0.0,0.0,-2.737342534098186e-05,0.0,-2.737342534098186e-05
5,0.00014188,29.5657,-1.57208e-13,-1.57208e-13,-1.69742e-17,1.48934e-21,-1.35791e-16,0.000141865,-4.25595e-05,-4.25595e-05,0.0,0.0,0.0,0.0,0.00014187506331508892,0.0,0.0,-4.255859435731146e-05,0.0,-4.255859435731146e-05
6,0.00021781,45.3888,-8.01581e-13,-8.01137e-13,-8.48612e-17,-6.78872e-17,-6.78954e-17,0.000217789,-6.53366e-05,-6.53366e-05,0.0,0.0,0.0,0.0,0.0002178127177461242,0.0,0.0,-6.533446561085565e-05,0.0,-6.533446561085565e-05
7,0.00033172,69.1212,-4.04787e-12,-4.05009e-12,1.86693e-16,-6.78772e-17,-4.75268e-16,0.000331664,-9.94991e-05,-9.94991e-05,0.0,0.0,0.0,0.0,0.0003317190065854625,0.0,0.0,-9.949415012866503e-05,0.0,-9.949415012866503e-05
8,0.00050258,104.715,-2.05174e-11,-2.05169e-11,1.86651e-16,2.03659e-16,-3.39477e-16,0.000502452,-0.000150736,-0.000150736,0.0,0.0,0.0,0.0,0.0005025782501502096,0.0,0.0,-0.00015072463989995732,0.0,-0.00015072463989995732
9,0.00075887,158.094,-1.03756e-10,-1.03753e-10,1.86589e-16,2.03591e-16,-6.78954e-17,0.000758579,-0.000227574,-0.000227574,0.0,0.0,0.0,0.0,0.0007588667938165372,0.0,0.0,-0.0002275481070015406,0.0,-0.0002275481070015406
10,0.0011433,238.136,-5.24726e-10,-5.24729e-10,-3.56396e-16,2.0349e-16,-6.11059e-16,0.00114265,-0.000342794,-0.000342794,0.0,0.0,0.0,0.0,0.0011433030732321825,0.0,0.0,-0.00034273525284966855,0.0,-0.00034273525284966855
11,0.00172,357.657,-0.000183202,-0.000123506,1.61383e-05,-2.80532e-05,-4.03194e-05,0.00171847,-0.000516009,-0.000516009,2.01725e-10,-3.5066e-10,-5.5261e-10,2.33288e-06,0.001719947415747436,2.0172508108373677e-10,-3.5065994552496704e-10,-0.0005158758902522598,-5.526099577934929e-10,-0.0005158758902522598
12,0.0019362,361.505,-0.0716297,-0.021966,0.0103363,-0.0180875,-0.00406453,0.00193432,-0.000620497,-0.000620147,1.37854e-07,-2.42313e-07,-4.30261e-08,0.000199614,0.001936192003754611,1.3785400954091642e-07,-2.4231297068855184e-07,-0.0006203045315472666,-4.302609912798516e-08,-0.000619954748592666
13,0.0022606,367.118,0.0435629,-0.00224097,-0.00401673,0.0112243,-0.00545179,0.00225801,-0.000776475,-0.000776784,-7.28151e-08,1.87114e-07,-3.19037e-08,0.00049664,0.0022605612244488427,-7.281509739609504e-08,1.8711401761350999e-07,-0.0007761736212965609,-3.190369946004523e-08,-0.0007764823814112587
14,0.0027471,374.764,-0.131999,-0.0273635,0.013296,-0.0342395,-0.0034176,0.00274334,-0.00101249,-0.0010117,1.36403e-07,-4.0687e-07,9.57622e-08,0.000945172,0.0027471064005626378,1.364030093320423e-07,-4.0686991720217947e-07,-0.0010119776049462015,9.576220461049445e-08,-0.0010111884040967523
15,0.0034769,385.428,0.147659,-0.0408301,-0.00615798,0.0359362,-0.0365557,0.0034709,-0.00136445,-0.00136607,-2.6304e-07,8.92019e-07,-2.15675e-07,0.00162236,0.003476930548530044,-2.6303996536469754e-07,8.920193979022883e-07,-0.0013635195613258544,-2.156749767667776e-07,-0.0013651373511137654
16,0.0044769,397.957,-0.407874,0.0123332,0.0253946,-0.105561,0.0418127,0.00446694,-0.00185327,-0.00184976,1.05074e-07,-1.20052e-06,1.59746e-06,0.00255833,0.004476931648306648,1.0507400549641943e-07,-1.2005192793207442e-06,-0.001851553755538693,1.597461275926193e-06,-0.00184805024834378
17,0.0054769,409.313,-0.375611,0.114789,0.0107338,-0.103775,0.0701376,0.00546199,-0.00234062,-0.00233507,-1.57992e-07,-1.58128e-06,2.83641e-06,0.00349968,0.005476933862734512,-1.579919874927782e-07,-1.5812787498292735e-06,-0.002337882884939635,2.836414022544531e-06,-0.002332345844824446
18,0.0064769,419.591,0.248457,-0.220306,0.0107242,0.0780967,-0.106326,0.00645605,-0.00282356,-0.00282565,-2.0578e-07,1.45712e-06,2.32901e-07,0.00444532,0.006476935211934265,-2.057799788346415e-07,1.457121061587685e-06,-0.0028195775036174986,2.3290102713069416e-07,-0.0028216616085225965
19,0.0074769,428.659,-0.39819,0.131175,0.0120945,-0.112759,0.0765287,0.00744912,-0.00331554,-0.00330969,-2.04685e-07,-1.48131e-06,3.27015e-06,0.00539486,0.00747693371405922,-2.046849790771077e-07,-1.4813089028731241e-06,-0.0033100496667368695,3.270155346957182e-06,-0.0033042190134727756
20,0.0084769,437.38,0.407661,-0.132518,-0.00872897,0.112787,-0.0892427,0.00844121,-0.00379837,-0.003801,-6.00798e-07,2.22751e-06,8.24985e-07,0.00634622,0.008476937470070167,-6.00797819494403e-07,2.2275124809123525e-06,-0.0037911653175747295,8.24985340264206e-07,-0.0037937853433646085
21,0.0094769,444.929,-0.411775,0.132271,0.0148508,-0.118368,0.0772775,0.00943231,-0.00429139,-0.00428552,-2.76808e-07,-1.28896e-06,3.56692e-06,0.00730061,0.009476934429433648,-2.768079616632946e-07,-1.288959169287729e-06,-0.004282195143541334,3.5669263613868907e-06,-0.004276350262872097
22,0.010477,452.485,0.402127,-0.127145,-0.00934612,0.110851,-0.0869554,0.0104224,-0.00477441,-0.00477693,-6.94118e-07,2.38542e-06,1.11103e-06,0.00825554,0.01047690239489718,-6.941177590480407e-07,2.385422845030405e-06,-0.004763030621718123,1.1110306172845696e-06,-0.004765538615720932
23,0.011477,459.307,0.414973,-0.136559,-0.0077476,0.112133,-0.0903666,0.0114116,-0.00526145,-0.00526584,-7.70725e-07,3.19705e-06,6.2664e-07,0.0092122,0.011476960694033034,-7.707247029475894e-07,3.1970551106486056e-06,-0.0052476328153786556,6.266401963994639e-07,-0.005251999768685178
24,0.012477,465.512,-0.315131,0.165591,0.00869446,-0.0994794,0.0829705,0.0123997,-0.0057539,-0.00575037,-5.53432e-07,2.2329e-08,3.40521e-06,0.0101702,0.01247689501508975,-5.534318469058164e-07,2.2329000204379668e-08,-0.005737378021188233,3.4052157977804143e-06,-0.005733868267937869
25,0.013477,471.79,0.426933,-0.138023,-0.00851988,0.114975,-0.0918685,0.0133869,-0.00623689,-0.0062416,-8.56859e-07,3.47245e-06,7.56849e-07,0.0111281,0.013476905729922883,-8.568586329360528e-07,3.4724560289411954e-06,-0.006217480973182199,7.56849286354111e-07,-0.006222161677823745
26,0.014477,477.261,-0.419262,0.149285,0.0176629,-0.127547,0.0832037,0.0143731,-0.00672965,-0.00672557,-4.5563e-07,-2.62377e-07,3.52216e-06,0.0120874,0.014476889665384407,-4.556298961455596e-07,-2.6237696559849866e-07,-0.0067070566157048095,3.522166202918342e-06,-0.00670300397222845
27,0.015477,482.73,-0.389347,0.125848,0.0175936,-0.116038,0.0717879,0.0153584,-0.00721759,-0.0072123,-3.80245e-07,-7.55022e-07,3.87805e-06,0.0130466,0.015476946341787423,-3.8024492765575957e-07,-7.550217149265848e-07,-0.007191605749433894,3.878057519557387e-06,-0.0071863537791369
28,0.016477,488.244,0.383113,-0.0403332,-0.0175228,0.100371,-0.0503828,0.0163427,-0.00770028,-0.00770208,-9.47829e-07,2.58937e-06,2.12107e-06,0.0140055,0.01647697238214807,-9.47828550756924e-07,2.589373352401836e-06,-0.007670708794828007,2.1210722493947287e-06,-0.007672494985944689
29,0.017477,493.193,0.3981,-0.128136,-0.00858049,0.107593,-0.0858978,0.017326,-0.00818615,-0.00819011,-9.09499e-07,3.35336e-06,1.23438e-06,0.0149651,0.0174769657552607,-9.094985864432914e-07,3.3533656225159802e-06,-0.008152734717095877,1.2343807618275804e-06,-0.008156662424489536
30,0.018477,497.813,-0.26321,0.214455,0.0006839,-0.0905305,0.0948422,0.0183083,-0.008677,-0.0086733,-8.10843e-07,3.95552e-07,4.0886e-06,0.015925,0.01847692442801807,-8.10842671228329e-07,3.955520782028543e-07,-0.008639463482080334,4.088608358321366e-06,-0.008635795441309324
31,0.019477,502.293,-0.410742,0.143871,0.0184193,-0.124539,0.0790558,0.0192897,-0.00916462,-0.00915884,-5.02796e-07,-7.06951e-07,4.39073e-06,0.0168847,0.01947694831310809,-5.027958736025795e-07,-7.069507501622496e-07,-0.009122752866536299,4.390739639204e-06,-0.009117025579496008
32,0.020477,507.08,0.506857,-0.020938,-0.0295012,0.131734,-0.0540921,0.0202701,-0.00964537,-0.00964783,-1.28623e-06,3.27556e-06,2.46566e-06,0.0178434,0.020476933625937166,-1.286229172836606e-06,3.2755653647242866e-06,-0.009599002615389707,2.4656630397412727e-06,-0.009601438998846579
33,0.021477,511.244,0.441953,-0.13858,-0.0106711,0.119655,-0.0934757,0.0212496,-0.0101303,-0.0101347,-1.12723e-06,3.83022e-06,1.48756e-06,0.0188027,0.02147698047541291,-1.1272293646280573e-06,3.830227335299696e-06,-0.010079161339956899,1.4875611065168215e-06,-0.010083516982064555
34,0.022477,515.199,-0.23898,0.239671,-0.00317802,-0.0869583,0.101511,0.022228,-0.01062,-0.0106164,-1.06615e-06,7.91627e-07,4.52217e-06,0.0197619,0.022476882625477312,-1.0661494316277498e-06,7.916273132568818e-07,-0.010563806899498429,4.522180224952876e-06,-0.010560244922791617
35,0.023477,519.047,-0.38481,0.141311,0.0183061,-0.119264,0.0752542,0.0232056,-0.0111062,-0.0111008,-7.09884e-07,-2.47681e-07,4.64392e-06,0.0207208,0.023476944776664732,-7.098837480068454e-07,-2.4768096928973193e-07,-0.01104475384890613,4.6439307830326015e-06,-0.011039413476158
36,0.024477,523.246,0.478496,-0.00116393,-0.029794,0.122524,-0.0442741,0.0241822,-0.011586,-0.0115882,-1.48705e-06,3.47038e-06,2.94021e-06,0.0216784,0.024476960589174812,-1.4870488943552473e-06,3.47038602188654e-06,-0.011519140761488522,2.9402143224555033e-06,-0.011521315416986755
37,0.025477,526.565,-0.474483,0.141077,0.026274,-0.143451,0.0830162,0.0251578,-0.0120756,-0.0120693,-6.54844e-07,-6.13969e-07,5.00913e-06,0.0226371,0.025476928016723077,-6.548437856412903e-07,-6.139688115691655e-07,-0.012002982536040152,5.00914254564222e-06,-0.011996758135223384
38,0.026477,530.177,-0.461432,0.130894,0.02577,-0.137687,0.0777951,0.0261325,-0.0125602,-0.0125524,-5.32298e-07,-1.26827e-06,5.39097e-06,0.0235945,0.026476947658861993,-5.322978583466309e-07,-1.2682691957754955e-06,-0.012481649900233482,5.390984531228327e-06,-0.012473947227062299
39,0.027477,534.045,0.440196,-0.0413521,-0.0230435,0.117429,-0.0547914,0.0271062,-0.0130387,-0.0130389,-1.27617e-06,2.57e-06,3.46706e-06,0.0245509,0.02747691501790106,-1.276169185659981e-06,2.570003302393431e-06,-0.012954064396574205,3.4670660102875672e-06,-0.012954261805741552
40,0.028477,537.101,-0.462145,0.150059,0.0234617,-0.13938,0.0841418,0.028079,-0.0135271,-0.0135188,-5.7922e-07,-1.36625e-06,5.67232e-06,0.0255081,0.028476930889687502,-5.79219832208544e-07,-1.3662490666588312e-06,-0.013436019928401821,5.672336087725327e-06,-0.013427831413384883
41,0.029477,540.423,-0.428218,0.128271,0.0228893,-0.127363,0.0732203,0.0290508,-0.0140103,-0.0140009,-4.737e-07,-1.87623e-06,5.94536e-06,0.0264641,0.029476890572839753,-4.736998877596932e-07,-1.8762282398832042e-06,-0.01391261248953668,5.945377673732821e-06,-0.013903343224528575
42,0.030477,543.983,0.398033,-0.0308434,-0.0222441,0.107391,-0.047678,0.0300217,-0.0144881,-0.0144859,-1.16323e-06,1.6392e-06,4.2061e-06,0.027419,0.03047689505952067,-1.1632293234198343e-06,1.639201343550667e-06,-0.01438365250286866,4.206108845661305e-06,-0.014381484144519008
43,0.031477,546.815,-0.400648,0.133408,0.0200602,-0.120439,0.0724194,0.0309917,-0.0149747,-0.014965,-5.37337e-07,-1.82469e-06,6.10228e-06,0.0283746,0.03147694259236977,-5.373368556771396e-07,-1.8246883352057708e-06,-0.014863136749582617,6.102298618859692e-06,-0.01485358087566313
44,0.032477,550.191,0.475259,-0.124062,-0.0191334,0.132927,-0.0921154,0.0319607,-0.015451,-0.01545,-1.13411e-06,2.04785e-06,3.58845e-06,0.0293284,0.03247692816450587,-1.1341093568706384e-06,2.0478520967870395e-06,-0.015332245710381165,3.588456438441412e-06,-0.015331261042134559
45,0.033477,553.123,0.360403,-0.136735,-0.00693671,0.101915,-0.0861813,0.0329288,-0.0159321,-0.0159317,-1.02469e-06,2.20215e-06,3.23352e-06,0.0302823,0.03347695306261045,-1.0246894750487456e-06,2.202152424635173e-06,-0.015805855431016536,3.233525227797074e-06,-0.015805461753280015
46,0.034477,555.962,-0.127252,0.175897,-0.00497075,-0.049546,0.0698297,0.0338959,-0.016416,-0.0164098,-1.03238e-06,6.67415e-08,5.55444e-06,0.0312357,0.03447691207616144,-1.0323794671363018e-06,6.674150232477416e-08,-0.016281991767095993,5.5544554258268874e-06,-0.01627589269653784
47,0.035477,558.945,0.493404,-0.194302,-0.00626033,0.143704,-0.10734,0.0348621,-0.016892,-0.0168937,-1.08684e-06,3.22973e-06,2.81065e-06,0.0321881,0.035476906688211685,-1.0868394093588307e-06,3.229735215493079e-06,-0.01675013011324944,2.810653949802955e-06,-0.01675180163660739
48,0.036477,561.483,-0.408599,0.190066,0.0144789,-0.129213,0.092579,0.0358274,-0.0173775,-0.0173696,-7.59866e-07,-8.28369e-07,5.78938e-06,0.0331405,0.03647693513231376,-7.598657113527807e-07,-8.283686568910653e-07,-0.017227382062794283,5.789396758437704e-06,-0.01721961812844508
49,0.037477,564.202,-0.386971,0.135014,0.0197964,-0.118389,0.0714776,0.0367917,-0.0178575,-0.0178488,-5.98809e-07,-1.28259e-06,5.90057e-06,0.0340919,0.037476891892527675,-5.988088207509179e-07,-1.2825891775314346e-06,-0.017698999722110753,5.900587408458335e-06,-0.01769045366623312
50,0.038477,567.177,0.362823,-0.0158988,-0.0215249,0.0967096,-0.0386599,0.0377552,-0.0183325,-0.0183303,-1.22898e-06,1.90303e-06,4.34499e-06,0.035042,0.03847698259419352,-1.2289792448161307e-06,1.9030318108015365e-06,-0.01816548189895495,4.344999439576114e-06,-0.01816332186063907
51,0.039477,569.773,0.438747,-0.144218,-0.0126712,0.123397,-0.0941482,0.0387176,-0.01881,-0.0188105,-1.18695e-06,2.86513e-06,3.19409e-06,0.035992,0.03947689392239573,-1.1869492956284589e-06,2.865134104412803e-06,-0.0186341959669587,3.1940951010778207e-06,-0.018634686649737997
52,0.040477,572.17,-0.289599,0.237089,0.000909298,-0.0986391,0.103762,0.0396792,-0.0192929,-0.0192851,-1.01757e-06,-3.93234e-07,6.19073e-06,0.0369417,0.04047693564659305,-1.0175694822311954e-06,-3.9323392264645207e-07,-0.019107983108613946,6.190749162637843e-06,-0.01910033212104334
53,0.041477,574.845,0.413459,-0.15457,-0.00899703,0.116975,-0.0962408,0.0406398,-0.0197662,-0.0197667,-1.19066e-06,2.89112e-06,3.23044e-06,0.0378901,0.04147689799599852,-1.1906592911614666e-06,2.891124179393856e-06,-0.019572129451312037,3.230445217772271e-06,-0.019572619665124802
54,0.042477,577.088,-0.373189,0.174856,0.0140636,-0.118981,0.0838619,0.0415995,-0.0202485,-0.0202407,-8.37403e-07,-6.38083e-07,5.90073e-06,0.0388385,0.04247688314112619,-8.374026493340736e-07,-6.380827963781144e-07,-0.020044875801331408,5.900747409359752e-06,-0.020037232121552395
55,0.043477,579.755,0.432258,-0.143084,-0.0124499,0.121349,-0.0938955,0.0425583,-0.0207207,-0.0207212,-1.23422e-06,2.97048e-06,3.23326e-06,0.0397853,0.04347688930302729,-1.2342192383663075e-06,2.970484411779495e-06,-0.020507501376483717,3.233265226887383e-06,-0.02050799112261059
56,0.044477,581.88,-0.388879,0.166475,0.0168034,-0.122792,0.0823337,0.0435162,-0.0212023,-0.0211944,-7.90389e-07,-6.75156e-07,5.84286e-06,0.0407323,0.04447691470098891,-7.903886876103883e-07,-6.751557720674484e-07,-0.020979111391013827,5.842877069506258e-06,-0.02097137709544339
57,0.045477,584.474,0.434334,-0.140085,-0.0132127,0.1218,-0.0929256,0.0444732,-0.0216736,-0.0216741,-1.23381e-06,2.98294e-06,3.21481e-06,0.0416777,0.045476957552538,-1.2338092388874955e-06,2.9829444490037105e-06,-0.021440415221028908,3.214815167407181e-06,-0.02144090450069891
58,0.046477,586.513,-0.384897,0.16292,0.0170802,-0.121588,0.080744,0.0454292,-0.0221543,-0.0221465,-7.76024e-07,-6.42897e-07,5.78024e-06,0.0426233,0.04647691142575194,-7.760236988563207e-07,-6.428967933569396e-07,-0.021910695772445865,5.780256705723019e-06,-0.021903066646119296
59,0.047477,589.022,0.422772,-0.136223,-0.0128699,0.118494,-0.0904964,0.0463844,-0.0226249,-0.0226252,-1.21612e-06,2.93726e-06,3.21741e-06,0.0435672,0.047476983730038835,-1.2161192605164572e-06,2.937264313773724e-06,-0.022370876310042087,3.2174151758379566e-06,-0.022371169598735197
60,0.048477,590.992,-0.368577,0.156903,0.016579,-0.116844,0.0772697,0.0473386,-0.0231046,-0.0230969,-7.7169e-07,-5.60769e-07,5.68831e-06,0.0445113,0.048476963282285235,-7.716897022502778e-07,-5.607688428055368e-07,-0.022839732536519386,5.688326178532321e-06,-0.02283220837349198
61,0.049477,593.413,0.400439,-0.12917,-0.0120003,0.112034,-0.0860621,0.0482919,-0.0235746,-0.0235747,-1.18971e-06,2.84324e-06,3.24847e-06,0.0454538,0.04947695294072196,-1.1897092923041086e-06,2.8432440419834393e-06,-0.02329888995178231,3.2484752763295432e-06,-0.023298987621888423
62,0.050477,595.326,-0.342679,0.147603,0.0156581,-0.109245,0.0718704,0.0492443,-0.0240532,-0.0240457,-7.72447e-07,-4.38774e-07,5.56717e-06,0.0463965,0.050476950914148944,-7.724467017133918e-07,-4.3877390376589887e-07,-0.023766227260312855,5.567185496824223e-06,-0.02375890547956072
63,0.051477,597.347,-0.522038,0.147058,0.0317571,-0.156903,0.0881674,0.0501958,-0.0245285,-0.0245183,-4.23672e-07,-1.77329e-06,6.19401e-06,0.0473381,0.05147695540963615,-4.2367191022130157e-07,-1.7732884277643635e-06,-0.024230120919434772,6.194029182893246e-06,-0.024220168015908428
64,0.052477,599.853,0.546205,-0.0617247,-0.032293,0.150301,-0.0681915,0.0511464,-0.0249959,-0.0249951,-1.37999e-06,2.78392e-06,3.92971e-06,0.048278,0.05247696463252827,-1.3799890478116694e-06,2.7839238752047635e-06,-0.02468608919283055,3.929717721229409e-06,-0.02468530894138976
65,0.053477,601.517,-0.431746,0.150218,0.0231183,-0.132961,0.0800314,0.0520961,-0.0254743,-0.0254646,-5.80976e-07,-1.37992e-06,6.1605e-06,0.0492187,0.05347697678644914,-5.809758312214086e-07,-1.3799190479169e-06,-0.025152567777186552,6.1605189758395795e-06,-0.02514311171123207
66,0.054477,603.826,0.437282,-0.128325,-0.0162894,0.123149,-0.0889252,0.0530448,-0.0259416,-0.0259405,-1.15288e-06,2.40557e-06,3.64448e-06,0.0501574,0.054476884625614286,-1.1528793354420586e-06,2.4055728933269904e-06,-0.02560800756047099,3.6444866411411425e-06,-0.025606935728689884
67,0.055477,605.55,-0.361964,0.149615,0.0168856,-0.11395,0.0738521,0.0539927,-0.0264184,-0.0264093,-6.61728e-07,-1.08769e-06,6.02448e-06,0.0510963,0.05547689714560766,-6.617277810150313e-07,-1.0876894084299593e-06,-0.026072486921786986,6.0244981472390435e-06,-0.026063624141092312
68,0.056477,607.419,-0.535288,0.150218,0.0324582,-0.160202,0.0899329,0.0549397,-0.0268916,-0.0268798,-3.18738e-07,-2.40611e-06,6.64705e-06,0.0520342,0.05647690719722909,-3.187379492564091e-07,-2.4061071053349536e-06,-0.02653324039810545,6.64707209163673e-06,-0.026521753422569128
69,0.057477,609.777,0.543439,-0.0651794,-0.0325412,0.150972,-0.0691476,0.0558858,-0.0273568,-0.0273545,-1.28487e-06,2.19031e-06,4.34974e-06,0.0529703,0.05747691297727009,-1.284869174500436e-06,2.1903123987865314e-06,-0.026985991816527388,4.34974946017519e-06,-0.026983753881734907
70,0.058477,611.304,-0.4164,0.147185,0.0219586,-0.127931,0.0773552,0.056831,-0.027833,-0.027822,-5.04017e-07,-1.88567e-06,6.5382e-06,0.0539072,0.058476912680826,-5.040168730152672e-07,-1.8856682221235488e-06,-0.027449230781272926,6.538221374086106e-06,-0.027438532663971893
71,0.059477,613.454,0.409559,-0.122147,-0.015393,0.116255,-0.0844528,0.0577753,-0.0282986,-0.0282956,-1.04436e-06,1.70825e-06,4.13891e-06,0.0548421,0.05947690450130061,-1.0443594546938328e-06,1.7082514589539244e-06,-0.027901945019368046,4.1389185652107585e-06,-0.027899028720828722
72,0.060477,615.29,0.462604,-0.198054,-0.00877857,0.135266,-0.1143,0.0587187,-0.0287674,-0.0287667,-1.00393e-06,2.56927e-06,3.25106e-06,0.0557768,0.06047688663041173,-1.0039294960906275e-06,2.5692733005566737e-06,-0.028357557783566745,3.251065284759491e-06,-0.02835687763361916
73,0.061477,616.955,-0.281377,0.229073,0.00121179,-0.0955982,0.100514,0.0596613,-0.0292416,-0.0292324,-8.75511e-07,-7.52412e-07,6.39211e-06,0.056711,0.06147696340588693,-8.755106167823712e-07,-7.524117169310784e-07,-0.028818201402431853,6.392130429633269e-06,-0.028809266488784235
74,0.062477,618.882,0.345739,-0.138231,-0.00669697,0.0990005,-0.0842716,0.0606029,-0.0297067,-0.0297048,-1.00697e-06,2.137e-06,3.71072e-06,0.0576438,0.062476920820699666,-1.0069694930114892e-06,2.1370022833533397e-06,-0.02926979303118571,3.710726884653681e-06,-0.029267948642040298
75,0.063477,620.637,0.374486,-0.206584,0.000969101,0.111071,-0.109493,0.0615437,-0.0301745,-0.0301744,-9.08636e-07,2.79452e-06,2.90752e-06,0.0585762,0.06347696945692394,-9.08635587215656e-07,2.7945239047255654e-06,-0.02972379442280082,2.9075242269360757e-06,-0.02972369739517544
76,0.064477,622.309,-0.211472,0.220989,-0.00372903,-0.0767003,0.0921227,0.0624835,-0.0306466,-0.0306393,-9.86212e-07,1.0126e-07,5.84071e-06,0.0595079,0.06447689490419073,-9.862115136760607e-07,1.012600050476209e-07,-0.030181753709658476,5.8407270568938685e-06,-0.030174674010619684
77,0.065477,623.92,-0.40274,0.175572,0.0175791,-0.127282,0.0874669,0.0634225,-0.0311159,-0.0311063,-6.42359e-07,-1.10071e-06,6.17813e-06,0.0604389,0.06547690814124296,-6.423587937121056e-07,-1.1007093941861612e-06,-0.03063678263175451,6.178149084767881e-06,-0.030627476700199385
78,0.066477,625.943,0.45458,-0.0483174,-0.0267646,0.124672,-0.0560157,0.0643606,-0.0315785,-0.0315767,-1.31914e-06,2.6157e-06,4.14289e-06,0.0613683,0.06647690100208625,-1.3191391299294253e-06,2.6157034209717267e-06,-0.031085106350837832,4.142898581749321e-06,-0.03108336230245956
79,0.067477,627.572,0.45868,-0.167326,-0.0125653,0.131222,-0.102742,0.0652979,-0.0320446,-0.032045,-1.19913e-06,3.28669e-06,3.10782e-06,0.0622977,0.06747697841445821,-1.1991292810931142e-06,3.2866954011723237e-06,-0.03153661235112015,3.10782482926264e-06,-0.031536999736397786
80,0.068477,629.082,-0.24746,0.227006,-0.000873545,-0.0875135,0.0965398,0.0662342,-0.0325156,-0.032508,-1.0583e-06,1.60937e-07,6.02517e-06,0.0632264,0.06847692516136616,-1.0582994399710444e-06,1.6093701304953356e-07,-0.031992651201122935,6.025188151292937e-06,-0.031985294317316004
81,0.069477,630.603,-0.446267,0.176613,0.0219634,-0.139739,0.0913315,0.0671697,-0.0329832,-0.0329734,-6.76626e-07,-1.10973e-06,6.36679e-06,0.0641543,0.06947695301495105,-6.766257710788537e-07,-1.1097293842743383e-06,-0.03244518562662713,6.366810268110257e-06,-0.032435703542984085
82,0.070477,632.577,0.480383,-0.0509784,-0.0288297,0.131813,-0.0588938,0.0681043,-0.0334438,-0.0334423,-1.44168e-06,2.87693e-06,4.23777e-06,0.0650805,0.07047695340263038,-1.4416789607674119e-06,2.8769341384737857e-06,-0.03289073875536486,4.237778979288009e-06,-0.03288928809038494
83,0.071477,634.124,0.483606,-0.172022,-0.014161,0.138197,-0.106404,0.069038,-0.0339082,-0.0339089,-1.3218e-06,3.56844e-06,3.18265e-06,0.0660068,0.07147692449788057,-1.3217991263747564e-06,3.5684463668417266e-06,-0.033339760025478005,3.182655064604134e-06,-0.03334043668740916
84,0.072477,635.541,-0.261404,0.229764,0.000288076,-0.0918969,0.0985142,0.0699709,-0.0343777,-0.0343701,-1.14102e-06,2.84839e-07,6.17275e-06,0.0669324,0.07247697172024292,-1.1410193490046794e-06,2.8483904057630127e-07,-0.03379350048423846,6.172769051460136e-06,-0.03378615728693801
85,0.073477,636.988,-0.456763,0.179746,0.0229192,-0.143287,0.093125,0.0709028,-0.0348437,-0.0348338,-7.5872e-07,-9.83425e-07,6.51412e-06,0.0678572,0.07347687884455056,-7.587197121683431e-07,-9.834245164874744e-07,-0.03424364782053746,6.514141216884539e-06,-0.0342340867853238
86,0.074477,638.891,0.480249,-0.0538272,-0.0284517,0.131826,-0.0598105,0.071834,-0.0353026,-0.0353011,-1.5278e-06,3.04138e-06,4.35034e-06,0.0687803,0.07447696608248111,-1.5277988328898928e-06,3.041384625035448e-06,-0.03468673173717218,4.3503494626673245e-06,-0.03468528376618385
87,0.075477,640.366,0.479058,-0.172143,-0.0136751,0.136828,-0.105997,0.0727642,-0.0357653,-0.0357659,-1.40341e-06,3.70159e-06,3.3192e-06,0.0697034,0.07547690955793951,-1.4034090152215128e-06,3.7015968508136154e-06,-0.03513327886975148,3.319205508445222e-06,-0.03513385778961042
88,0.076477,641.717,-0.254218,0.225881,0.000384574,-0.0899726,0.0964887,0.0736936,-0.0362331,-0.0362256,-1.22687e-06,4.71256e-07,6.26428e-06,0.0706259,0.07647692243168214,-1.2268692474171061e-06,4.712561110231661e-07,-0.03558453796416472,6.264299620584168e-06,-0.03557730482107513
89,0.077477,643.099,-0.440755,0.174543,0.0225501,-0.138959,0.0898611,0.0746221,-0.0366974,-0.0366877,-8.52981e-07,-7.40897e-07,6.57062e-06,0.0715476,0.07747689541977887,-8.529806362345127e-07,-7.408967255262411e-07,-0.03603221212758856,6.570641586600701e-06,-0.036022861594696254
90,0.078477,644.921,0.459835,-0.0496606,-0.0271784,0.125781,-0.0566561,0.0755498,-0.0371548,-0.0371531,-1.59457e-06,3.12188e-06,4.50335e-06,0.0724675,0.07847693453208038,-1.5945687287244326e-06,3.1218848730585336e-06,-0.03647303017098946,4.503360140128976e-06,-0.03647139217374851
91,0.079477,646.328,0.44986,-0.163396,-0.0121657,0.128117,-0.100477,0.0764766,-0.037616,-0.0376163,-1.45979e-06,3.70372e-06,3.53073e-06,0.0733875,0.07947693028145553,-1.4597889345102644e-06,3.7037268587614136e-06,-0.03691730635151236,3.530736232937315e-06,-0.03691759527627714
92,0.080477,647.633,-0.228621,0.214922,-0.000271238,-0.0824463,0.0905443,0.0774025,-0.0380818,-0.0380745,-1.31302e-06,7.1252e-07,6.30196e-06,0.0743069,0.08047688082687054,-1.3130191379717715e-06,7.125202539093323e-07,-0.037365805806581553,6.30197985729275e-06,-0.03735877855131442
93,0.081477,648.957,-0.402513,0.16083,0.0212657,-0.127897,0.0818552,0.0783276,-0.0385442,-0.038535,-9.53399e-07,-4.01376e-07,6.54354e-06,0.0752253,0.0814768924733924,-9.533985455556504e-07,-4.0137591950095697e-07,-0.037810824961618694,6.5435614089448535e-06,-0.03780197278048836
94,0.082477,650.693,0.423099,-0.0390032,-0.0252898,0.114793,-0.0499432,0.0792519,-0.0390004,-0.0389985,-1.64592e-06,3.13285e-06,4.69092e-06,0.0761422,0.08247696367681279,-1.6459186454875763e-06,3.132854907272886e-06,-0.03824967555383996,4.690931002304666e-06,-0.038247848226487635
95,0.083477,652.038,0.40142,-0.147031,-0.00993608,0.113609,-0.0907444,0.0801753,-0.0394601,-0.0394599,-1.49658e-06,3.60227e-06,3.80194e-06,0.0770591,0.08347698454364916,-1.4965788801557522e-06,3.6022764882126523e-06,-0.03869169057305166,3.8019472274886112e-06,-0.03869149831137053
96,0.084477,653.311,-0.189317,0.198396,-0.0014611,-0.070715,0.0815886,0.0810978,-0.0399237,-0.0399168,-1.39753e-06,9.92659e-07,6.29743e-06,0.0779752,0.0844769532265306,-1.3975290235057614e-06,9.926594926046306e-07,-0.0391372498166892,6.297449828940316e-06,-0.03913061984083954
97,0.085477,654.843,0.527145,-0.213717,-0.00856308,0.154577,-0.11672,0.0820195,-0.0403785,-0.0403802,-1.52378e-06,4.47319e-06,3.33695e-06,0.0788901,0.08547697642421426,-1.52377883899657e-06,4.473200004628808e-06,-0.039574150836649835,3.336955567645461e-06,-0.039575783559205546
98,0.086477,656.162,0.449155,-0.233261,-0.00114365,0.131415,-0.124081,0.0829403,-0.0408372,-0.0408399,-1.43653e-06,4.73743e-06,2.72908e-06,0.0798045,0.08647694393849559,-1.4365289682238824e-06,4.737441221536187e-06,-0.04001459714957645,2.7290837238957977e-06,-0.04001718910666496
99,0.087477,657.415,-0.195684,0.206579,-0.00162479,-0.0742074,0.0848193,0.0838603,-0.0413,-0.0412951,-1.45038e-06,1.84746e-06,5.69102e-06,0.0807183,0.08747696266499849,-1.4503789481645768e-06,1.8474617065056265e-06,-0.04045877560319344,5.691036193855581e-06,-0.04045407383967459
100,0.088477,658.646,-0.372395,0.163087,0.0189566,-0.121268,0.0801514,0.0847794,-0.0417596,-0.0417527,-1.11379e-06,7.51071e-07,5.96811e-06,0.0816313,0.08847692220239689,-1.113789379725283e-06,7.510712820568699e-07,-0.04089967942246753,5.968127809286017e-06,-0.04089306160742412
101,0.089477,660.257,0.399693,-0.0428098,-0.0221087,0.107397,-0.0490527,0.0856977,-0.0422132,-0.0422133,-1.7223e-06,4.07082e-06,4.15542e-06,0.0825428,0.08947692964319831,-1.722298516804166e-06,4.070828285795969e-06,-0.04133462867393356,4.155428633856317e-06,-0.04133472454046594
102,0.090477,661.507,0.366764,-0.141298,-0.00695709,0.10253,-0.0855593,0.0866152,-0.0426701,-0.0426716,-1.56196e-06,4.43811e-06,3.34876e-06,0.0834541,0.09047698343066668,-1.5619587800941304e-06,4.438119848515498e-06,-0.041772542832984594,3.3487656070363414e-06,-0.04177398017309242
103,0.091477,662.712,-0.159833,0.185425,-0.00176884,-0.0630346,0.074854,0.0875318,-0.0431305,-0.0431259,-1.50506e-06,2.09945e-06,5.66052e-06,0.0843648,0.09147697285882184,-1.505058867423692e-06,2.0994522038630947e-06,-0.042213609212992664,5.660536020801743e-06,-0.042209203385461636
104,0.092477,664.126,0.467281,-0.195146,-0.00529746,0.135688,-0.105372,0.0884475,-0.043583,-0.043586,-1.57214e-06,5.15766e-06,2.98156e-06,0.0852742,0.09247689606783971,-1.5721387641720597e-06,5.157673300670851e-06,-0.04264690951323746,2.981564444892726e-06,-0.04264978156820076
105,0.093477,665.358,0.383315,-0.207852,0.00183851,0.110595,-0.109614,0.0893625,-0.044039,-0.0440428,-1.47581e-06,5.30061e-06,2.48172e-06,0.0861832,0.09347696989174237,-1.4758089109667694e-06,5.300624048354408e-06,-0.043083363003540764,2.4817230794837997e-06,-0.04308699927985238
106,0.094477,666.556,-0.147738,0.182783,-0.00223004,-0.0604987,0.0728383,0.0902766,-0.0444982,-0.0444956,-1.53691e-06,2.90415e-06,5.05746e-06,0.0870914,0.09447697417224488,-1.5369088189887137e-06,2.9041542171093226e-06,-0.04352267824874956,5.057472789005146e-06,-0.04352019140448016
107,0.095477,667.918,0.463129,-0.217113,-0.00136697,0.135028,-0.112774,0.0911898,-0.0449495,-0.0449546,-1.5325e-06,5.91583e-06,2.28458e-06,0.0879985,0.09547690704491885,-1.532498825729256e-06,5.9158474985387954e-06,-0.04395423907503071,2.2845826097572797e-06,-0.043959114895978035
108,0.096477,669.123,0.377785,-0.213388,0.00356524,0.108571,-0.110852,0.0921023,-0.0454043,-0.04541,-1.45675e-06,6.02947e-06,1.86016e-06,0.0889051,0.0964769859391994,-1.4567489389216703e-06,6.0294881771838504e-06,-0.04438894982638142,1.8601617302049789e-06,-0.044394396793843605
109,0.097477,670.293,-0.14294,0.177061,-0.00149283,-0.059718,0.0706345,0.0930138,-0.0458623,-0.0458616,-1.52716e-06,3.67244e-06,4.41238e-06,0.089811,0.09747688034452939,-1.527158833947162e-06,3.6724467433746355e-06,-0.04482651947626226,4.412389734476108e-06,-0.0448258508545919
110,0.098477,671.619,0.451693,-0.213168,-0.000576397,0.130749,-0.110332,0.0939246,-0.0463125,-0.0463193,-1.51875e-06,6.59959e-06,1.7109e-06,0.0907158,0.09847691763499711,-1.518748846685014e-06,6.599611777291514e-06,-0.0452564417944189,1.7109014636140785e-06,-0.04526293402854109
111,0.099477,672.792,0.363472,-0.206736,0.00428446,0.103364,-0.107164,0.0948346,-0.0467662,-0.0467734,-1.44101e-06,6.67674e-06,1.32038e-06,0.0916201,0.09947698659240745,-1.4410089617111765e-06,6.676762289492544e-06,-0.04568951069766736,1.3203808717499044e-06,-0.04569638170845469
112,0.1005,673.936,-0.131571,0.170318,-0.00125467,-0.0569831,0.0675527,0.0957437,-0.0472228,-0.047224,-1.51644e-06,4.43151e-06,3.77335e-06,0.0925236,0.1004769755970496,-1.5164388501576198e-06,4.431519819103613e-06,-0.046125149403197674,3.773357118985743e-06,-0.046126294052331596
113,0.1015,675.222,0.428167,-0.202797,0.000401276,0.122756,-0.1047,0.0966519,-0.047672,-0.0476802,-1.49471e-06,7.18826e-06,1.20655e-06,0.0934261,0.10147688277540712,-1.4947088828876076e-06,7.188285835679764e-06,-0.04655353376375504,1.2065507277725374e-06,-0.04656135199272338
114,0.1025,676.364,0.338424,-0.195512,0.00533556,0.0949506,-0.101034,0.0975594,-0.0481245,-0.0481332,-1.41186e-06,7.22276e-06,8.50039e-07,0.094328,0.10247692674784581,-1.4118590033751488e-06,7.22278608411564e-06,-0.04698487069238699,8.500393613442014e-07,-0.04699316188794522
115,0.1035,677.49,-0.114263,0.16144,-0.00132045,-0.0523872,0.0632475,0.098466,-0.0485796,-0.0485827,-1.50153e-06,5.1604e-06,3.15342e-06,0.0952292,0.10347688554246615,-1.5015288726827336e-06,5.1604133148863696e-06,-0.04741848920035929,3.1534249720355234e-06,-0.04742144219846556
116,0.1045,678.731,0.392753,-0.188026,0.0018371,0.111239,-0.0966356,0.0993719,-0.0490279,-0.0490375,-1.45512e-06,7.66541e-06,7.76141e-07,0.0961294,0.10447697817664348,-1.4551189413403165e-06,7.665439379245242e-06,-0.04784543578442357,7.761413012286056e-07,-0.04785457642436486
117,0.1055,679.712,-0.452154,0.310472,0.00947172,-0.155991,0.143102,0.100277,-0.0494848,-0.0494844,-1.32184e-06,3.68062e-06,4.33649e-06,0.0970293,0.10547709282319939,-1.321839126378066e-06,3.680626773583384e-06,-0.048280375835192624,4.33649940267955e-06,-0.048279995147266774
118,0.1065,681.02,0.324217,-0.140271,-0.00178828,0.0873216,-0.0814794,0.101181,-0.049931,-0.0499392,-1.47123e-06,7.09072e-06,1.21397e-06,0.0979277,0.10647689595804066,-1.4712289176932458e-06,7.090745139270993e-06,-0.04870493840454171,1.213970736824166e-06,-0.0487127389920643
119,0.1075,682.143,0.355604,-0.195934,0.00377729,0.0993546,-0.102855,0.102084,-0.0503809,-0.0503906,-1.3868e-06,7.6389e-06,5.42853e-07,0.0988258,0.10747649584651686,-1.3867990383831241e-06,7.638929176545517e-06,-0.04913282979136857,5.428531473228304e-07,-0.049142053158186205
120,0.1085,683.19,-0.185409,0.186719,0.00199192,-0.074138,0.0782928,0.102987,-0.0508345,-0.0508378,-1.40195e-06,5.16208e-06,3.11257e-06,0.0997231,0.1084769987813563,-1.401949017321158e-06,5.162093323463068e-06,-0.04956404533269676,3.112574844088556e-06,-0.04956718176617203
121,0.1095,684.436,0.476887,-0.217253,-0.00189672,0.136124,-0.113093,0.103889,-0.05128,-0.0512912,-1.45898e-06,8.34847e-06,2.82375e-07,0.100619,0.1094772961005277,-1.45897893566449e-06,8.348504848543215e-06,-0.04998737024787481,2.82375039795113e-07,-0.04999801032974338
122,0.1105,685.501,0.378442,-0.207748,0.00363132,0.105704,-0.108219,0.10479,-0.0517293,-0.051741,-1.37563e-06,8.38465e-06,-7.93616e-08,0.101515,0.11047738561698517,-1.3756290537791926e-06,8.384685151296978e-06,-0.05041411504702431,-7.936159684973632e-08,-0.05042522513688419
123,0.1115,686.532,-0.133585,0.16588,0.000354033,-0.059296,0.0664726,0.10569,-0.0521815,-0.0521871,-1.41605e-06,6.07437e-06,2.36123e-06,0.10241,0.11147726514233502,-1.4160489973935597e-06,6.074388449128776e-06,-0.05084342071087389,2.3612327877398087e-06,-0.050848735972835235
124,0.1125,687.722,0.427447,-0.198486,0.000343896,0.120433,-0.102725,0.106589,-0.0526264,-0.0526389,-1.41537e-06,8.81185e-06,-1.48595e-07,0.103304,0.11247693248684176,-1.415368998336497e-06,8.811888824400427e-06,-0.051265606550795706,-1.485949889801219e-07,-0.0512774656565943
125,0.1135,688.76,0.324513,-0.185913,0.00591655,0.0886417,-0.0960918,0.107487,-0.0530746,-0.0530873,-1.32252e-06,8.76054e-06,-4.38199e-07,0.104198,0.11347638545943606,-1.3225191254351287e-06,8.760578373623318e-06,-0.05169073402775537,-4.3819890394036776e-07,-0.05170277747895713
126,0.1145,689.792,-0.0973149,0.149153,-0.00044995,-0.0488437,0.0579643,0.108385,-0.0535251,-0.0535327,-1.40498e-06,6.83835e-06,1.70997e-06,0.10509,0.11447673634390165,-1.4049790130199469e-06,6.838373381556906e-06,-0.0521178511367234,1.7099714619828177e-06,-0.05212505501368003
127,0.1155,690.926,0.357232,-0.170599,0.00318161,0.098429,-0.0874363,0.109282,-0.0539694,-0.0539828,-1.34733e-06,9.07865e-06,-4.4102e-07,0.105982,0.11547687046949773,-1.3473290924048698e-06,9.078691211028556e-06,-0.052538901632169455,-4.4101990270828395e-07,-0.052551597525824945
128,0.1165,691.835,-0.396543,0.281361,0.00922643,-0.14071,0.128767,0.110178,-0.0544213,-0.0544258,-1.2357e-06,5.51764e-06,2.75485e-06,0.106873,0.11647678564053954,-1.2356992364903618e-06,5.5176552222757635e-06,-0.052966962574867216,2.7548537946398e-06,-0.052971224213946955
129,0.1175,692.819,-0.43874,0.189512,0.0246526,-0.147509,0.0951135,0.111073,-0.0548686,-0.0548722,-9.45941e-07,4.85802e-06,2.70267e-06,0.107764,0.11747647966002983,-9.459405525547027e-07,4.858031800170082e-06,-0.053390475726729836,2.702673652210663e-06,-0.05339388351488317
130,0.1185,694.141,0.348188,-0.0395057,-0.0165432,0.088022,-0.0428303,0.111968,-0.0553105,-0.0553211,-1.52966e-06,8.16799e-06,8.18497e-07,0.108653,0.11847706880617692,-1.5296588300461877e-06,8.168023358123833e-06,-0.053808690064242715,8.184973350200409e-07,-0.05381871963897111
131,0.1195,695.118,0.319097,-0.129571,-0.00237216,0.083775,-0.0761874,0.112862,-0.0557559,-0.0557678,-1.36075e-06,8.4398e-06,1.11455e-07,0.109542,0.11947743440248404,-1.360749074197365e-06,8.439835615270397e-06,-0.054230029834355764,1.1145500611320358e-07,-0.05424128443003573
132,0.1205,696.069,-0.12755,0.161133,0.000630822,-0.0578288,0.0646383,0.113754,-0.0562042,-0.0562108,-1.32093e-06,6.43182e-06,2.11679e-06,0.11043,0.12047645377036864,-1.3209291275240176e-06,6.431840684273382e-06,-0.054653923489119016,2.1167922403808603e-06,-0.05466016275263441
133,0.1215,697.182,0.380394,-0.162164,-0.000586138,0.104647,-0.0861552,0.114647,-0.0566459,-0.0566587,-1.33899e-06,8.88418e-06,-9.19501e-08,0.111317,0.12147748613801523,-1.3389891035942014e-06,8.88421946454443e-06,-0.055071390646704854,-9.195009575968527e-08,-0.05508348565549637
134,0.1225,698.012,-0.430191,0.279455,0.0127453,-0.149916,0.130418,0.115538,-0.0570957,-0.0570993,-1.12229e-06,5.09762e-06,3.10778e-06,0.112204,0.1224771678702401,-1.1222893702145242e-06,5.097632992834278e-06,-0.055496323960525284,3.10778482925933e-06,-0.05549972416763871
135,0.1235,698.962,-0.453972,0.189661,0.0261691,-0.151658,0.0961964,0.116428,-0.0575405,-0.0575434,-8.52976e-07,4.49313e-06,3.0474e-06,0.11309,0.12347661723864167,-8.52975636234099e-07,4.493140094208314e-06,-0.05591634577585092,3.0474046432971136e-06,-0.05591908361447839
136,0.1245,700.244,0.343623,-0.0412946,-0.0161817,0.0871674,-0.0431624,0.117318,-0.05798,-0.05799,-1.44946e-06,7.83951e-06,1.14647e-06,0.113974,0.12447695651293023,-1.4494589495317456e-06,7.839540729026595e-06,-0.056331179375521456,1.1464706572983374e-06,-0.0563406160165445
137,0.1255,701.179,0.314688,-0.128264,-0.00237269,0.0827796,-0.0753944,0.118207,-0.0584231,-0.0584343,-1.28478e-06,8.10141e-06,4.6035e-07,0.114859,0.12547706100785128,-1.2847791747150339e-06,8.101442816599302e-06,-0.05674922640478097,4.603501060351789e-07,-0.05675979075428483
138,0.1265,702.089,-0.124167,0.156935,0.00071958,-0.0563934,0.062774,0.119095,-0.058869,-0.058875,-1.24344e-06,6.13072e-06,2.42201e-06,0.115742,0.12647692851349546,-1.2434392269167205e-06,6.1307387928533075e-06,-0.05716972816689203,2.4220129331009588e-06,-0.05717538513155207
139,0.1275,703.157,0.369799,-0.157229,-0.000593434,0.10168,-0.0837185,0.119982,-0.0593085,-0.0593205,-1.26267e-06,8.51289e-06,2.80436e-07,0.116625,0.12747655681870063,-1.262669202861666e-06,8.512926234827134e-06,-0.05758401102603583,2.804360392794081e-07,-0.05759531995004974
140,0.1285,703.952,-0.413401,0.270018,0.0123845,-0.144465,0.125606,0.120869,-0.0597557,-0.0597589,-1.05223e-06,4.85754e-06,3.36482e-06,0.117507,0.128477072187567,-1.052229446352193e-06,4.85755179790992e-06,-0.05800536523448174,3.364825660989723e-06,-0.05800837961249006
141,0.1295,704.865,-0.429826,0.179909,0.0252232,-0.144183,0.0907387,0.121755,-0.0601982,-0.0602007,-7.94937e-07,4.31418e-06,3.27092e-06,0.118388,0.12947734592935856,-7.949366840342975e-07,4.314189306020566e-06,-0.05842210564974859,3.2709253494633828e-06,-0.05842445959154208
142,0.1305,706.092,0.32108,-0.0351593,-0.0151781,0.0807676,-0.0392912,0.12264,-0.0606357,-0.0606448,-1.3627e-06,7.45976e-06,1.5029e-06,0.119268,0.13047737582846564,-1.3626990714721288e-06,7.459787824126707e-06,-0.058833955879719846,1.5029011293243855e-06,-0.05884252045175242
143,0.1315,706.754,-0.479618,0.183413,0.0314179,-0.156902,0.0993319,0.123524,-0.0610815,-0.061083,-6.56097e-07,3.86616e-06,3.60411e-06,0.120148,0.13147715966804796,-6.560967847901722e-07,3.86616747349855e-06,-0.059253434193525356,3.604116494804188e-06,-0.05925484531231573
144,0.1325,707.704,-0.421678,0.131669,0.0313599,-0.138016,0.073211,0.124407,-0.0615225,-0.0615236,-5.39037e-07,3.5844e-06,3.55173e-06,0.121027,0.13247669523004157,-5.390368547075752e-07,3.5844064238954587e-06,-0.059668211963825435,3.551736307505493e-06,-0.059669246328223347
145,0.1335,708.915,0.276787,-0.0254,-0.012968,0.0686137,-0.0326731,0.12529,-0.0619592,-0.0619662,-1.14797e-06,6.4524e-06,2.11044e-06,0.121905,0.13347711377171456,-1.1479693410310077e-06,6.452420816760451e-06,-0.060078765204836015,2.110442226976872e-06,-0.060085344630451565
146,0.1345,709.588,-0.424684,0.152272,0.0301271,-0.138767,0.0839325,0.126172,-0.0624032,-0.0624037,-4.90867e-07,3.31174e-06,3.87736e-06,0.122783,0.13447728159523353,-4.908668794767479e-07,3.3117454838471616e-06,-0.06049599760063895,3.877367517057806e-06,-0.060496467352522676
147,0.1355,710.9,0.64127,-0.145117,-0.0305993,0.178581,-0.100611,0.127053,-0.0628368,-0.0628472,-1.37291e-06,7.99014e-06,1.20421e-06,0.123659,0.13547719647815026,-1.3729090575509417e-06,7.990171921212763e-06,-0.06090327823125752,1.2042107251364342e-06,-0.06091304478637771
148,0.1365,711.72,0.481526,-0.190468,-0.0103395,0.134197,-0.110336,0.127933,-0.0632761,-0.063287,-1.15594e-06,7.93188e-06,6.76526e-07,0.124535,0.13647685619681593,-1.1559393319204858e-06,7.93191145742611e-06,-0.06131573281884728,6.765262288155327e-07,-0.06132596442159721
149,0.1375,712.499,-0.159735,0.174325,0.00117058,-0.0666663,0.0713134,0.128813,-0.0637189,-0.0637228,-1.00646e-06,5.14476e-06,3.2063e-06,0.125411,0.13747739600321562,-1.0064594935244031e-06,5.144773234322386e-06,-0.06173129020116075,3.2063051402797527e-06,-0.061734949441993425
150,0.1385,713.541,0.481389,-0.201933,-0.00553051,0.136574,-0.10795,0.129691,-0.0641532,-0.0641647,-1.11208e-06,8.22268e-06,5.74195e-07,0.126285,0.1384765397168115,-1.1120793816932206e-06,8.222713806294024e-06,-0.062138691828159454,5.741951647486587e-07,-0.062149477171187684
151,0.1395,714.384,0.336661,-0.181816,0.00332603,0.0925004,-0.0955987,0.130569,-0.0645915,-0.064603,-9.88086e-07,8.00985e-06,3.78551e-07,0.127159,0.13947656106381245,-9.880855118549192e-07,8.009882078940933e-06,-0.06254966636788162,3.785510716003415e-07,-0.06256044698472962
152,0.1405,715.233,-0.0821643,0.135247,-0.000521543,-0.0432733,0.0516164,0.131447,-0.0650319,-0.0650384,-1.03899e-06,6.13268e-06,2.4049e-06,0.128032,0.14047746081511914,-1.0389894602447214e-06,6.132698805005887e-06,-0.0629624285978988,2.404902891717242e-06,-0.06296851932231795
153,0.1415,716.187,0.328215,-0.154184,0.002584,0.089974,-0.0797246,0.132323,-0.0654665,-0.0654782,-9.9047e-07,8.15116e-06,4.76106e-07,0.128904,0.14147695678611272,-9.904695095208638e-07,8.151193220840014e-06,-0.06336957664675069,4.7610611342285836e-07,-0.06338053515859654
154,0.1425,716.94,-0.344544,0.248205,0.00868824,-0.123899,0.112458,0.133199,-0.0659078,-0.0659116,-8.81463e-07,4.9879e-06,3.28443e-06,0.129776,0.14247732869918361,-8.814626114572732e-07,4.987912439524678e-06,-0.06378282046362183,3.2844353936578585e-06,-0.0637863780821446
155,0.1435,717.77,-0.357709,0.155518,0.0217828,-0.122716,0.0764164,0.134074,-0.0663448,-0.0663482,-6.35789e-07,4.54999e-06,3.11352e-06,0.130647,0.14347743384398726,-6.35788797831438e-07,4.550000351155603e-06,-0.06419185798987026,3.113524847053739e-06,-0.06419503973214413
156,0.1445,718.873,0.267976,-0.019041,-0.0127451,0.0649629,-0.0294512,0.134948,-0.0667776,-0.0667865,-1.11983e-06,7.16389e-06,1.68675e-06,0.131516,0.14447726998591515,-1.119829373008585e-06,7.163915660690634e-06,-0.06459678812053116,1.686751422536048e-06,-0.0646051131720704
157,0.1455,719.505,-0.382226,0.150342,0.0268296,-0.127854,0.0801296,0.135821,-0.0672172,-0.06722,-5.20723e-07,4.25367e-06,3.34495e-06,0.132386,0.14547683488920993,-5.207228643833162e-07,4.2536790467728736e-06,-0.06500790100324116,3.3449555942866027e-06,-0.06501051897745325
158,0.1465,720.71,0.582546,-0.136546,-0.0260516,0.160838,-0.0928647,0.136694,-0.0676472,-0.067659,-1.28576e-06,8.49752e-06,8.52174e-07,0.133254,0.14647727279367495,-1.2857591734638518e-06,8.49755610410341e-06,-0.06540986117817871,8.521743630751644e-07,-0.06542088927675083
159,0.1475,721.473,0.42172,-0.172955,-0.00679708,0.115671,-0.0992107,0.137566,-0.0680824,-0.0680945,-1.0672e-06,8.34969e-06,4.15885e-07,0.134122,0.14747743698376214,-1.0671994304933818e-06,8.34972485885821e-06,-0.06581650631419411,4.1588508659096135e-07,-0.06582780986608117
160,0.1485,722.221,-0.122665,0.155072,0.000627938,-0.0559798,0.0617439,0.138437,-0.0685204,-0.0685266,-9.71172e-07,5.97173e-06,2.64693e-06,0.134989,0.14847732521948886,-9.711715284188571e-07,5.971747830901819e-06,-0.06622558908876086,2.646933503047677e-06,-0.06623137847216143
161,0.1495,723.172,0.404724,-0.173294,-0.0021889,0.112554,-0.0920514,0.139307,-0.0689513,-0.0689638,-1.01509e-06,8.51665e-06,3.98416e-07,0.135855,0.1494769352597467,-1.0150894848015568e-06,8.516686266668572e-06,-0.06662786580567948,3.984160794612279e-07,-0.06663953288443758
162,0.1505,723.822,-0.438928,0.27692,0.0139353,-0.15252,0.129427,0.140177,-0.0693906,-0.0693937,-7.60396e-07,4.6035e-06,3.62638e-06,0.136721,0.15047741533915215,-7.603957109525439e-07,4.6035105960573475e-06,-0.06703780613424526,3.6263865752506064e-06,-0.06704069831256332
163,0.1515,724.622,-0.424482,0.180376,0.0249393,-0.143196,0.0901508,0.141045,-0.0698245,-0.0698272,-5.30655e-07,4.20087e-06,3.45967e-06,0.137586,0.15147646325973851,-5.306548591654803e-07,4.200878823690246e-06,-0.06744253061883687,3.4596759845850755e-06,-0.06744504852060507
164,0.1525,725.709,0.289586,-0.0328784,-0.013036,0.0718808,-0.0360003,0.141913,-0.0702538,-0.0702629,-1.05931e-06,7.18671e-06,1.75811e-06,0.13845,0.15247637873038222,-1.0593094389443891e-06,7.186735824449286e-06,-0.06784279161827134,1.7581115454579077e-06,-0.06785127421027182
165,0.1535,726.283,-0.433477,0.1731,0.0286025,-0.143892,0.0916542,0.142781,-0.0706909,-0.070693,-4.28325e-07,3.93078e-06,3.67816e-06,0.139314,0.15347716250444354,-4.283249083192331e-07,3.9307877255367885e-06,-0.06825014849972288,3.6781667644980587e-06,-0.06825210517235658
166,0.1545,727.476,0.639861,-0.16513,-0.0277361,0.17877,-0.10725,0.143647,-0.0711172,-0.0711296,-1.24278e-06,8.66645e-06,8.16309e-07,0.140176,0.15447650638061527,-1.2427792277502903e-06,8.666487553821156e-06,-0.06864726880920935,8.163093332402838e-07,-0.06865881751147407
167,0.1555,728.197,0.461701,-0.191857,-0.00806969,0.128052,-0.108872,0.144513,-0.0715496,-0.0715621,-1.02284e-06,8.4859e-06,4.10258e-07,0.141038,0.15547671606342428,-1.0228394768940774e-06,8.48593600544234e-06,-0.06904989867532596,4.1025808417138876e-07,-0.06906153547886229
168,0.1565,728.891,-0.136922,0.159496,0.00136383,-0.0603721,0.064318,0.145378,-0.0719849,-0.0719909,-8.98559e-07,5.87918e-06,2.79947e-06,0.141899,0.1564766358257692,-8.985585963072751e-07,5.87919728234354e-06,-0.06945505306618183,2.7994739184578066e-06,-0.06946063631911359
169,0.1575,729.816,0.433151,-0.185561,-0.00331191,0.121258,-0.0985152,0.146243,-0.0724126,-0.0724254,-9.69991e-07,8.61855e-06,4.20497e-07,0.14276,0.15747742089289907,-9.699905295645905e-07,8.618587139741507e-06,-0.06985296204108538,4.2049708848246325e-07,-0.06986486784697399
170,0.1585,730.564,0.283742,-0.157978,0.00518615,0.0755024,-0.0829019,0.147106,-0.0728439,-0.0728564,-8.43828e-07,8.30927e-06,3.23381e-07,0.143619,0.158476755057799,-8.438276439814985e-07,8.309304522002847e-06,-0.07025404795816159,3.233810523806113e-07,-0.07026566970992598
171,0.1595,731.337,-0.0480493,0.112713,-0.000409837,-0.0331524,0.0410811,0.147969,-0.0732767,-0.0732851,-9.16515e-07,6.81188e-06,2.01547e-06,0.144479,0.15947695202032697,-9.165145800071883e-07,6.811903200842906e-06,-0.07065635494069444,2.0154720310472385e-06,-0.0706641613945258
172,0.1605,732.172,0.255796,-0.121394,0.00481522,0.0668761,-0.0628064,0.148831,-0.0737049,-0.0737173,-8.33229e-07,8.32025e-06,4.99315e-07,0.145337,0.16047685204796625,-8.332286528522914e-07,8.32028461328349e-06,-0.07105421470165485,4.993151245802352e-07,-0.07106573355797552
173,0.1615,732.876,-0.245405,0.198879,0.00647164,-0.0939204,0.0874436,0.149692,-0.074138,-0.0741445,-7.89326e-07,5.94387e-06,2.68122e-06,0.146195,0.16147645288398738,-7.893256884772271e-07,5.943887664727754e-06,-0.07145645401005785,2.6812235944806417e-06,-0.07146248952349132
174,0.1625,733.816,0.446891,-0.194407,-0.00334643,0.124885,-0.103183,0.150553,-0.0745632,-0.0745775,-9.26085e-07,9.16626e-06,-5.74888e-08,0.147051,0.16247691474694714,-9.260845711400734e-07,9.166302010310545e-06,-0.0718511867996745,-5.748879838840537e-08,-0.07186445923280516
175,0.1635,734.549,0.316908,-0.171551,0.00409033,0.0850822,-0.090164,0.151413,-0.0749926,-0.0750068,-8.17337e-07,8.96366e-06,-2.09591e-07,0.147907,0.1634770749008525,-8.173366660146897e-07,8.963700173669764e-06,-0.07224964834424663,-2.0959097801753757e-07,-0.0722628223057048
176,0.1645,735.282,-0.0758472,0.121784,0.00123345,-0.0421258,0.046457,0.152272,-0.0754239,-0.0754334,-8.49443e-07,7.19841e-06,1.6575e-06,0.148763,0.1644769310849421,-8.494426392280374e-07,7.1984359086840755e-06,-0.0726497007934036,1.6575013737085698e-06,-0.07265851057939954
177,0.1655,736.117,0.297407,-0.137025,0.00318655,0.0789587,-0.0713197,0.15313,-0.0758498,-0.075864,-8.13553e-07,9.01608e-06,-5.94977e-08,0.149618,0.16547648103742318,-8.13552669121087e-07,9.016120644966819e-06,-0.07304457519136376,-5.949769821267381e-08,-0.07305773786494085
178,0.1665,736.77,-0.299506,0.218039,0.00927855,-0.110999,0.098197,0.153988,-0.0762817,-0.076289,-7.0353e-07,6.20957e-06,2.39722e-06,0.150472,0.16647688897178514,-7.035297525659345e-07,6.2095892794378216e-06,-0.0734448407957593,2.3972228733182277e-06,-0.07345160462373346
179,0.1675,737.728,0.518058,-0.221,-0.00631079,0.145962,-0.117792,0.154845,-0.0767043,-0.0767208,-9.2408e-07,9.98997e-06,-7.0515e-07,0.151325,0.16747698814692047,-9.240795730836027e-07,9.990019899985825e-06,-0.07383632028059761,-7.051497513677063e-07,-0.07385160185523965
180,0.1685,738.433,0.367538,-0.191527,0.00222161,0.09989,-0.100959,0.155701,-0.0771319,-0.0771482,-8.08015e-07,9.75681e-06,-8.44132e-07,0.152178,0.16847677629705404,-8.080146735034432e-07,9.756857597853497e-06,-0.07423226321141418,-8.441316436957891e-07,-0.07424735310254083
181,0.1695,739.125,-0.0948993,0.129521,0.00226144,-0.0486416,0.0507088,0.156557,-0.0775618,-0.0775727,-7.99739e-07,7.69716e-06,1.22382e-06,0.15303,0.16947742063223914,-7.997386801683604e-07,7.697189623234735e-06,-0.07463016522629329,1.2238207489634334e-06,-0.07464025170252098
182,0.1705,739.957,0.337943,-0.153386,0.00182181,0.090714,-0.079981,0.157411,-0.0779855,-0.0780018,-7.99117e-07,9.78748e-06,-6.81851e-07,0.153881,0.17047658093018092,-7.991166807164163e-07,9.787527897486825e-06,-0.07502216137503848,-6.818507675143692e-07,-0.07503723839093002
183,0.1715,740.563,-0.348121,0.236721,0.011674,-0.126601,0.108385,0.158265,-0.0784161,-0.0784246,-6.33055e-07,6.57912e-06,2.04191e-06,0.154731,0.17147659487547262,-6.330547995814229e-07,6.579141642371056e-06,-0.07542037109164557,2.0419120847492422e-06,-0.07542822998509091
184,0.1725,741.535,0.582633,-0.246619,-0.00872655,0.165048,-0.131544,0.159119,-0.0788362,-0.078855,-9.23241e-07,1.08663e-05,-1.40258e-06,0.155581,0.17247746319744084,-9.232405737691352e-07,1.0866359038352869e-05,-0.07580870541841334,-1.4025790163740837e-06,-0.07582608005142943
185,0.1735,742.215,0.412008,-0.209689,0.000734164,0.112788,-0.110622,0.159971,-0.0792621,-0.0792806,-8.00513e-07,1.0596e-05,-1.52051e-06,0.15643,0.17347683967000793,-8.005126795884721e-07,1.0596056137845977e-05,-0.07620223468277021,-1.5205088440550796e-06,-0.0762193247833447
186,0.1745,742.869,-0.110389,0.13568,0.00321152,-0.0541386,0.0541389,0.160823,-0.0796905,-0.0797031,-7.57956e-07,8.28253e-06,7.20895e-07,0.157278,0.17447706797415852,-7.579557127490588e-07,8.282564300188255e-06,-0.07659790488682316,7.208952599313534e-07,-0.07660953967992223
187,0.1755,743.696,0.371553,-0.167185,0.000792557,0.100294,-0.0872139,0.161674,-0.0801122,-0.0801306,-7.86151e-07,1.05971e-05,-1.34002e-06,0.158126,0.17547697335840118,-7.861506909900839e-07,1.0597156149483311e-05,-0.07698722145716408,-1.3400191021251118e-06,-0.07700420473604264
188,0.1765,744.261,-0.387466,0.251889,0.0137173,-0.139456,0.116647,0.162524,-0.0805414,-0.0805513,-5.7406e-07,7.05918e-06,1.60183e-06,0.158973,0.17647655354715308,-5.740598352232951e-07,7.059204916171069e-06,-0.07738329353856588,1.6018312829491066e-06,-0.07739242739874719
189,0.1775,744.959,-0.354783,0.154038,0.0233388,-0.125007,0.0757328,0.163374,-0.0809656,-0.0809755,-3.70652e-07,6.80786e-06,1.34979e-06,0.159819,0.17747698374026588,-3.7065193125851437e-07,6.807883173420848e-06,-0.07777458454675645,1.349790911042703e-06,-0.0777837145331759
190,0.1785,745.892,0.228455,-0.0171412,-0.0085796,0.0511314,-0.0253344,0.164223,-0.0813862,-0.0814012,-8.06992e-07,9.22765e-06,3.3596e-09,0.160664,0.1784770861828755,-8.069916743735916e-07,9.227692574942381e-06,-0.07816239099508293,3.3595999315849667e-09,-0.07817621845551181
191,0.1795,746.414,-0.329652,0.137484,0.0248919,-0.115573,0.0713857,0.165071,-0.0818128,-0.0818226,-2.94638e-07,6.70329e-06,1.45279e-06,0.16151,0.17947685859554974,-2.9463795658823955e-07,6.7033124671045385e-06,-0.07855556304952249,1.452791055234215e-06,-0.07856459316075703
192,0.1805,747.411,0.482897,-0.118599,-0.0186975,0.129391,-0.0785245,0.165919,-0.0822313,-0.0822486,-9.14672e-07,1.02708e-05,-6.82696e-07,0.162353,0.18047747917480184,-9.14671581697668e-07,1.0270852744742598e-05,-0.07894110686571565,-6.82695766918151e-07,-0.07895704104673584
193,0.1815,748.036,0.318979,-0.138173,-0.0010452,0.0824166,-0.0782754,0.166765,-0.0826543,-0.0826715,-6.93549e-07,9.9567e-06,-9.43772e-07,0.163197,0.18147658568464786,-6.935487595338685e-07,9.956749568162948e-06,-0.07933063238705562,-9.437715546845027e-07,-0.0793464677639939
194,0.1825,748.687,-0.060654,0.117175,0.000796156,-0.038876,0.043907,0.167611,-0.083079,-0.0830919,-6.67503e-07,8.27637e-06,7.29187e-07,0.16404,0.18247653779624007,-6.675027772740094e-07,8.27640424927445e-06,-0.07972155764862554,7.291872659020981e-07,-0.07973342916396042
195,0.1835,749.444,0.272627,-0.11961,0.00327354,0.0696816,-0.0631251,0.168457,-0.0834987,-0.0835158,-6.24825e-07,9.89954e-06,-8.18243e-07,0.164881,0.1834773362252604,-6.248248047846516e-07,9.899589000550435e-06,-0.08010771746957357,-8.182426652902919e-07,-0.08012344749311273
196,0.1845,750.04,-0.2613,0.194591,0.00944817,-0.100238,0.0870504,0.169301,-0.0839237,-0.0839347,-5.13793e-07,7.38793e-06,1.34853e-06,0.165723,0.18447661273240223,-5.137928680287729e-07,7.387957290827529e-06,-0.08049858862364534,1.3485309091620934e-06,-0.08050870308354086
197,0.1855,750.907,0.452511,-0.190062,-0.00433144,0.124482,-0.101764,0.170145,-0.0843405,-0.0843595,-7.04513e-07,1.06802e-05,-1.34803e-06,0.166563,0.1854767329849265,-7.045127518034988e-07,1.0680257033435225e-05,-0.08088175695407984,-1.348029091352565e-06,-0.08089922003479799
198,0.1865,751.546,0.303241,-0.161105,0.00440417,0.0788747,-0.0850014,0.170988,-0.0847618,-0.0847804,-5.7817e-07,1.03684e-05,-1.42331e-06,0.167403,0.18647651121815056,-5.781698328988227e-07,1.036845375201878e-05,-0.08126889991248465,-1.4233089871140692e-06,-0.08128598815202515
199,0.1875,752.196,-0.0584142,0.108012,0.00210074,-0.0382663,0.0404812,0.171831,-0.0851846,-0.085199,-6.00522e-07,8.74248e-06,2.78024e-07,0.168243,0.18747713261977061,-6.005218197158158e-07,8.74251821558758e-06,-0.08165725731706108,2.78024038680158e-07,-0.08167048135734234
200,0.1885,752.934,0.261618,-0.119482,0.00450311,0.0660175,-0.0623056,0.172673,-0.0856027,-0.0856211,-5.54648e-07,1.02981e-05,-1.21187e-06,0.169081,0.18847740942287383,-5.546478462070681e-07,1.029815302566739e-05,-0.08204113616231212,-1.2118692657159258e-06,-0.08205802645001559
201,0.1895,753.522,-0.248392,0.188775,0.0092068,-0.0967984,0.0840397,0.173514,-0.0860258,-0.0860383,-4.63371e-07,7.88918e-06,8.94495e-07,0.169919,0.18947733933579092,-4.6337089265602316e-07,7.889211119715966e-06,-0.08242944240562344,8.944953999723282e-07,-0.08244091196590841
202,0.1905,754.362,0.43149,-0.18339,-0.00310487,0.117659,-0.0977795,0.174354,-0.0864411,-0.0864612,-6.31242e-07,1.10268e-05,-1.69861e-06,0.170756,0.1904769200659644,-6.312418007192733e-07,1.102686079534898e-05,-0.08281043034057178,-1.6986085573655885e-06,-0.08282886566564629
203,0.1915,754.986,0.285073,-0.153396,0.0052457,0.0728225,-0.0807893,0.175194,-0.0868606,-0.0868803,-5.06944e-07,1.07015e-05,-1.75462e-06,0.171592,0.19147734079670187,-5.069438715477048e-07,1.0701557261239003e-05,-0.08319511067270291,-1.7546184606365145e-06,-0.0832131715511224
204,0.1925,755.626,-0.0495233,0.102207,0.00222193,-0.0359032,0.0378204,0.176033,-0.0872815,-0.0872973,-5.38162e-07,9.19044e-06,-1.49047e-07,0.172428,0.19247740975589456,-5.381618551902889e-07,9.190482232135366e-06,-0.08358091265289846,-1.4904698886208934e-07,-0.08359539196009169
205,0.1935,756.341,0.242167,-0.110746,0.00526257,0.0595185,-0.0577507,0.176871,-0.087698,-0.0877175,-4.81639e-07,1.06104e-05,-1.53209e-06,0.173263,0.19347712464730593,-4.816388839978814e-07,1.0610456290471859e-05,-0.08396252172717222,-1.5320888263614663e-06,-0.08398038428383803
206,0.1945,756.925,-0.223763,0.176589,0.00871569,-0.0896038,0.0779435,0.177708,-0.0881191,-0.0881332,-4.08169e-07,8.40104e-06,4.18817e-07,0.174098,0.1944764831738357,-4.0816891666572985e-07,8.401075288766435e-06,-0.08434818390240295,4.188170876773256e-07,-0.08436109450198992
207,0.1955,757.732,0.394647,-0.167635,-0.00167977,0.105864,-0.0894178,0.178545,-0.088533,-0.088554,-5.46823e-07,1.1256e-05,-1.9636e-06,0.174931,0.19547667851360973,-5.46822850444606e-07,1.1256063348952239e-05,-0.08472709376827958,-1.9635980721410817e-06,-0.08474631429749424
208,0.1965,758.193,-0.450642,0.266833,0.0182091,-0.159393,0.125973,0.179381,-0.0889556,-0.0889674,-2.313e-07,7.32651e-06,1.13901e-06,0.175765,0.19647651489022078,-2.312999732856369e-07,7.326536838991871e-06,-0.08511380638032295,1.1390106486874885e-06,-0.08512460197371352
209,0.1975,758.843,-0.372392,0.160279,0.0246704,-0.131397,0.0792053,0.180217,-0.0893726,-0.0893847,-6.57352e-08,7.24061e-06,8.16374e-07,0.176597,0.1974771874795309,-6.573519784058846e-08,7.240636213268203e-06,-0.08549523438979523,8.163743332456619e-07,-0.08550629983051306
210,0.1985,759.706,0.209652,-0.0175249,-0.00670946,0.0450858,-0.0239254,0.181052,-0.0897862,-0.0898034,-4.89685e-07,9.64829e-06,-5.48339e-07,0.177428,0.19847749850280838,-4.896848800894915e-07,9.64833654482078e-06,-0.08587339535177385,-5.483388496596575e-07,-0.0858891181941569
211,0.1995,760.178,-0.314057,0.135032,0.0239733,-0.112084,0.0691482,0.181886,-0.0902057,-0.0902178,-1.68639e-08,7.26054e-06,8.39876e-07,0.17826,0.1994774456565629,-1.6863899832131324e-08,7.2605663576919e-06,-0.08625679103955575,8.39876352687341e-07,-0.08626784726549386
212,0.2005,761.088,0.446193,-0.114233,-0.0158922,0.118127,-0.0741181,0.182719,-0.0906174,-0.0906367,-5.80252e-07,1.06011e-05,-1.18938e-06,0.179089,0.20047702663647304,-5.802518316944116e-07,1.0601156191780703e-05,-0.08663290169099469,-1.1893792927208935e-06,-0.08665052950588303
213,0.2015,761.652,0.282026,-0.125634,0.000846753,0.0706134,-0.0707569,0.183552,-0.0910335,-0.0910525,-3.63393e-07,1.02293e-05,-1.37819e-06,0.179919,0.201477440614235,-3.6339293396636663e-07,1.0229352319424123e-05,-0.08701287468173802,-1.378189050327272e-06,-0.08703022127232585
214,0.2025,762.254,-0.0401732,0.102141,0.000984881,-0.0329631,0.0371063,0.184384,-0.0914508,-0.0914662,-3.58477e-07,8.79264e-06,8.88319e-08,0.180748,0.20247748580593772,-3.5847693580226547e-07,8.792678655389352e-06,-0.08739378472672477,8.883190405484243e-08,-0.08740783875422375
215,0.2035,762.932,0.226831,-0.100008,0.00483218,0.0548468,-0.0528482,0.185215,-0.091864,-0.0918828,-2.93239e-07,1.00993e-05,-1.20503e-06,0.181576,0.2034771599037022,-2.932389570053928e-07,1.0099350998160617e-05,-0.08777079571904067,-1.2050292739207435e-06,-0.08778794546687296
216,0.2045,763.493,-0.202222,0.164215,0.00813751,-0.082539,0.0718564,0.186045,-0.0922814,-0.0922952,-2.23922e-07,8.06396e-06,5.84641e-07,0.182404,0.2044764605988425,-2.2392197496223787e-07,8.063992513740459e-06,-0.08815148073441781,5.846411708088084e-07,-0.08816406415715783
217,0.2055,764.257,0.360054,-0.151293,-0.0010594,0.0954375,-0.0811378,0.186875,-0.0926922,-0.0927124,-3.45371e-07,1.06604e-05,-1.58683e-06,0.183231,0.2054765910578642,-3.4537094040221206e-07,1.0660456822186859e-05,-0.08852599117642057,-1.5868287409626092e-06,-0.08854440276544107
218,0.2065,764.71,-0.402239,0.242977,0.0166716,-0.144056,0.113842,0.187704,-0.0931109,-0.0931227,-6.29354e-08,7.11235e-06,1.21488e-06,0.184057,0.20647634549280847,-6.293539800417136e-08,7.1123752927171324e-06,-0.0889075454599515,1.2148807380096827e-06,-0.08891829628748515
219,0.2075,765.605,0.613742,-0.251175,-0.0117156,0.173126,-0.135143,0.188533,-0.0935184,-0.093541,-4.6565e-07,1.17504e-05,-2.3277e-06,0.184882,0.20747692906781023,-4.656498915345253e-07,1.1750469036231337e-05,-0.0892787399991527,-2.3276972909158644e-06,-0.08929932206705038
220,0.2085,766.157,0.403047,-0.2007,0.000208976,0.108682,-0.106257,0.189361,-0.0939323,-0.0939542,-3.12287e-07,1.12845e-05,-2.31006e-06,0.185707,0.2084771339927738,-3.1228695118734606e-07,1.1284563670166392e-05,-0.08965560953013729,-2.310057331866844e-06,-0.08967554585398507
221,0.2095,766.702,-0.0845711,0.116587,0.00359513,-0.0470703,0.0455234,0.190188,-0.0943482,-0.0943648,-2.57117e-07,9.13126e-06,-2.6942e-07,0.186532,0.20947695795280907,-2.5711696693964115e-07,9.131301690112892e-06,-0.09003414304063395,-2.6941996367213505e-07,-0.09004924834848504
222,0.2105,767.401,0.322188,-0.144356,0.00209123,0.0838209,-0.075416,0.191014,-0.0947582,-0.0947796,-2.69623e-07,1.10859e-05,-2.02048e-06,0.187355,0.2104763986322542,-2.6962296362231797e-07,1.1085961448831227e-05,-0.09040715256980858,-2.0204779588306465e-06,-0.09042661764846649
223,0.2115,767.885,-0.313807,0.211557,0.0126764,-0.117763,0.0966618,0.19184,-0.0951744,-0.0951888,-9.21523e-08,8.1107e-06,4.37245e-07,0.188178,0.2114766651907416,-9.215229579417894e-08,8.110732891752903e-06,-0.09078564634289121,4.3724509568576764e-07,-0.09079873893531698
224,0.2125,768.703,0.508086,-0.214796,-0.00628152,0.140437,-0.114384,0.192665,-0.0955813,-0.0956046,-3.56153e-07,1.18849e-05,-2.56202e-06,0.189,0.2124765458335771,-3.561529365869731e-07,1.1884970625652969e-05,-0.09115553040537827,-2.5620167179996045e-06,-0.09117670623482055
225,0.2135,769.253,0.324646,-0.168723,0.00360994,0.084093,-0.0889178,0.19349,-0.0959935,-0.0960161,-2.17501e-07,1.14383e-05,-2.52874e-06,0.189822,0.21347725171830856,-2.1750097634054555e-07,1.1438365417504315e-05,-0.09153007889599807,-2.5287368027315793e-06,-0.09155061008421173
226,0.2145,769.814,-0.0541971,0.099816,0.00319671,-0.0380392,0.0373863,0.194313,-0.096407,-0.0964254,-2.12427e-07,9.74498e-06,-8.3316e-07,0.190643,0.2144763545709032,-2.1242697745282868e-07,9.745027482521706e-06,-0.09190565355296287,-8.331596529354002e-07,-0.09192236233521622
227,0.2155,770.474,0.255317,-0.115244,0.00461499,0.06261,-0.0602373,0.195137,-0.0968159,-0.0968381,-1.79207e-07,1.12417e-05,-2.24298e-06,0.191463,0.21547749550048678,-1.7920698391904466e-07,1.124176318811898e-05,-0.0922768974252427,-2.2429774845234007e-06,-0.09229704865444044
228,0.2165,770.985,-0.23407,0.175329,0.0101887,-0.0935239,0.0780982,0.195959,-0.0972296,-0.0972462,-7.43686e-08,8.92921e-06,-2.67919e-07,0.192283,0.21647702875367436,-7.436859728038314e-08,8.929249865508027e-06,-0.09265234480613238,-2.6791896412525773e-07,-0.09266740665219497
229,0.2175,771.737,0.397242,-0.167758,-0.00202888,0.105784,-0.0895355,0.196781,-0.097636,-0.0976596,-2.38034e-07,1.18342e-05,-2.64369e-06,0.193101,0.21747738396097316,-2.3803397164456896e-07,1.1834270024380089e-05,-0.09302101597414769,-2.6436865054879632e-06,-0.09304242042559718
230,0.2185,772.135,-0.447192,0.260257,0.0192216,-0.159195,0.123152,0.197602,-0.098051,-0.0980656,9.76644e-08,7.90852e-06,4.01401e-07,0.19392,0.2184773433203544,9.766440478564675e-08,7.908551272528541e-06,-0.09339733416109364,4.0140108059638635e-07,-0.09341057046338963
231,0.2195,772.732,-0.349303,0.151303,0.0241303,-0.125456,0.074302,0.198422,-0.0984604,-0.0984754,2.39385e-07,7.93099e-06,2.79335e-08,0.194737,0.21947690450595436,2.393850286885879e-07,7.931021450469089e-06,-0.09376842132576246,2.793350040164455e-08,-0.09378201469749203
232,0.2205,773.516,0.180985,-0.0118969,-0.00463088,0.0357456,-0.0196723,0.199242,-0.0988669,-0.0988865,-1.45443e-07,1.01182e-05,-1.2064e-06,0.195554,0.22047728566787095,-1.45442989429867e-07,1.0118251189128458e-05,-0.09413672959876529,-1.206399272257741e-06,-0.09415448434486806
233,0.2215,773.954,-0.271523,0.120515,0.0221448,-0.100317,0.0607765,0.200061,-0.0992784,-0.0992937,2.7071e-07,8.04134e-06,-1.024e-08,0.19637,0.2214772660008837,2.7071003660950055e-07,8.041372331568652e-06,-0.09450941564912163,-1.023999995908298e-08,-0.09452326954907952
234,0.2225,774.767,0.379988,-0.0960157,-0.0120522,0.0974982,-0.0626699,0.200879,-0.0996833,-0.0997048,-2.08261e-07,1.09009e-05,-1.74771e-06,0.197186,0.2224768431758002,-2.0826097835158208e-07,1.0900959414916755e-05,-0.09487597457186348,-1.747708472721321e-06,-0.09489543452921478
235,0.2235,775.099,-0.427954,0.188855,0.0279096,-0.148875,0.0962205,0.201697,-0.100096,-0.10011,3.96179e-07,7.24751e-06,5.38257e-07,0.198001,0.2234772383393575,3.961790784323682e-07,7.247536263355059e-06,-0.09524944218681453,5.382571448553364e-07,-0.09526210860595874
236,0.2245,776.019,0.617183,-0.195545,-0.0211848,0.170594,-0.115287,0.202514,-0.100498,-0.100522,-3.04098e-07,1.19092e-05,-2.46259e-06,0.198815,0.22447722768310419,-3.040979537072275e-07,1.1909270914767234e-05,-0.09561307881519598,-2.4625869677885603e-06,-0.09563478384084312
237,0.2255,776.501,0.380049,-0.171692,-0.00209716,0.100132,-0.0940607,0.20333,-0.100906,-0.100929,-6.54723e-08,1.13265e-05,-2.49307e-06,0.199628,0.2254768088745549,-6.547229780551334e-08,1.1326564145042184e-05,-0.09598199341534341,-2.4930668922618082e-06,-0.09600278559038389
238,0.2265,777.007,-0.0605279,0.107826,0.00240445,-0.0401733,0.040732,0.204146,-0.101316,-0.101335,9.33549e-11,9.38991e-06,-6.83371e-07,0.200442,0.22647720605713695,9.335487938244569e-11,9.38995408539256e-06,-0.09635256482571286,-6.833707665299116e-07,-0.09636973396387383
239,0.2275,777.645,0.280708,-0.124238,0.00309186,0.070493,-0.0652232,0.204961,-0.101721,-0.101743,1.87858e-08,1.10413e-05,-2.20917e-06,0.201254,0.22747719241916475,1.8785800248721785e-08,1.1041360955310608e-05,-0.09671846793657701,-2.2091675597746274e-06,-0.0967383399116899
240,0.2285,778.111,-0.258768,0.184536,0.0111539,-0.101057,0.0829998,0.205775,-0.102131,-0.102147,1.58437e-07,8.50524e-06,-1.00113e-07,0.202066,0.22847676562489605,1.5843701262063803e-07,8.50527616957919e-06,-0.09708873745428503,-1.0011299500511939e-07,-0.09710318391891382
241,0.2295,778.849,0.425202,-0.17963,-0.0034326,0.114568,-0.0957901,0.206589,-0.102533,-0.102557,-4.06021e-08,1.16504e-05,-2.62929e-06,0.202876,0.22947715281446301,-4.060209912726265e-08,1.1650467866219927e-05,-0.09745163483456787,-2.6292865433763524e-06,-0.09747329573539998
242,0.2305,779.363,0.258133,-0.138294,0.00571468,0.0632213,-0.0730083,0.207402,-0.10294,-0.102963,9.54703e-08,1.11917e-05,-2.57243e-06,0.203687,0.23047712417297928,9.54703045508154e-08,1.1191762627316137e-05,-0.09781889727621362,-2.5724266913274008e-06,-0.09783964720295113
243,0.2315,779.906,-0.0260428,0.0823357,0.00281543,-0.0293575,0.0291142,0.208214,-0.103347,-0.103367,6.70228e-08,9.9034e-06,-1.20749e-06,0.204496,0.2314766773614816,6.70228021970587e-08,9.90344903883944e-06,-0.09818601027245977,-1.2074892710156604e-06,-0.09820404637189273
244,0.2325,780.502,0.192599,-0.0868364,0.00648976,0.042846,-0.0456958,0.209026,-0.103751,-0.103773,1.35058e-07,1.09705e-05,-2.28251e-06,0.205305,0.23247704251678658,1.350580092207565e-07,1.0970560176071231e-05,-0.09855026953898349,-2.282507395090505e-06,-0.0985701012149044
245,0.2335,781.009,-0.158643,0.137929,0.00803458,-0.0702452,0.0592866,0.209837,-0.104158,-0.104177,1.80586e-07,9.28625e-06,-7.88532e-07,0.206114,0.23347698682087614,1.805860163628381e-07,9.286293117360955e-06,-0.09891708492728601,-7.885316890554606e-07,-0.09893420534002795
246,0.2345,781.67,0.288296,-0.120465,0.00164771,0.0718834,-0.0648324,0.210647,-0.10456,-0.104583,1.03367e-07,1.1348e-05,-2.53754e-06,0.206922,0.23447650793160202,1.0336700539959054e-07,1.1348064388849721e-05,-0.09927924745959904,-2.537536780478078e-06,-0.09929996379866868
247,0.2355,782.097,-0.304266,0.195095,0.0143635,-0.115083,0.0896911,0.211457,-0.104968,-0.104985,3.13149e-07,8.56732e-06,-3.3195e-07,0.207729,0.23547683898240912,3.131490491359301e-07,8.567356699629158e-06,-0.09964666656804055,-3.319499448650731e-07,-0.09966197244460862
248,0.2365,782.852,0.465742,-0.190164,-0.00602043,0.126365,-0.102412,0.212266,-0.105367,-0.105392,3.08438e-08,1.20845e-05,-3.04448e-06,0.208535,0.23647674415225217,3.084380040263568e-08,1.2084573017823175e-05,-0.10000583588903533,-3.0444753655878287e-06,-0.10002833546189227
249,0.2375,783.344,0.282207,-0.146388,0.00453076,0.0701434,-0.0775693,0.213075,-0.105771,-0.105796,1.81285e-07,1.1582e-05,-2.97357e-06,0.209341,0.23747745857267533,1.8128501633185579e-07,1.1582067071636004e-05,-0.10036936009450226,-2.9735655789897564e-06,-0.10039185057936773
250,0.2385,783.861,-0.0316685,0.0845159,0.00316517,-0.0314913,0.030352,0.213882,-0.106177,-0.106198,1.73596e-07,1.01688e-05,-1.53345e-06,0.210146,0.2384765059431384,1.735960151183491e-07,1.01688517024634e-05,-0.10073453599857918,-1.5334488242535471e-06,-0.10075342037503654
251,0.2395,784.448,0.2061,-0.0923604,0.00601937,0.0466043,-0.0485776,0.214689,-0.106578,-0.106602,2.2944e-07,1.13242e-05,-2.66725e-06,0.210951,0.2394763598702312,2.2944002631142268e-07,1.1324264119094707e-05,-0.10109506915791411,-2.6672464429333687e-06,-0.10111664261737185
252,0.2405,784.931,-0.172982,0.142843,0.00888644,-0.075054,0.0620461,0.215496,-0.106983,-0.107003,2.9455e-07,9.51343e-06,-1.09637e-06,0.211755,0.24047702100510793,2.945500434670123e-07,9.513475252909132e-06,-0.10145905194341598,-1.096369398934094e-06,-0.1014770225826701
253,0.2415,785.586,0.304637,-0.127327,0.00106625,0.0765351,-0.0684026,0.216302,-0.107383,-0.107408,1.96781e-07,1.17132e-05,-2.93319e-06,0.212558,0.24147724852157837,1.9678101925713065e-07,1.1713268599722326e-05,-0.10181839644894619,-2.933185698217322e-06,-0.10184085070835558
254,0.2425,785.987,-0.323737,0.202166,0.0154492,-0.121504,0.0935516,0.217107,-0.107789,-0.107807,4.31418e-07,8.76806e-06,-6.25996e-07,0.213361,0.24247704006874526,4.3141809302760237e-07,8.76809843952664e-06,-0.10218298416367377,-6.2599580408218e-07,-0.1021991447245133
255,0.2435,786.74,0.486756,-0.199179,-0.0067808,0.132488,-0.107064,0.217911,-0.108185,-0.108212,1.22562e-07,1.24685e-05,-3.45563e-06,0.214162,0.24347639329512427,1.2256200743188117e-07,1.2468577732072106e-05,-0.10253844931519973,-3.4556240293692753e-06,-0.10256268044994643
256,0.2445,787.213,0.292078,-0.150437,0.00422384,0.0727907,-0.0796353,0.218715,-0.108587,-0.108613,2.77998e-07,1.19261e-05,-3.35629e-06,0.214964,0.24447655032458293,2.779980385891889e-07,1.1926171116227735e-05,-0.10289915635160307,-3.356284367650453e-06,-0.1029224806703204
257,0.2455,787.712,-0.032071,0.0835495,0.00345923,-0.0319722,0.030082,0.219519,-0.10899,-0.109013,2.78884e-07,1.04695e-05,-1.89558e-06,0.215764,0.24547751180363875,2.7888403897335934e-07,1.0469554805325743e-05,-0.10326061515275287,-1.8955782034035806e-06,-0.10328123992141869
258,0.2465,788.286,0.208448,-0.0932402,0.00598995,0.046909,-0.0490213,0.220321,-0.10939,-0.109415,3.30344e-07,1.16364e-05,-3.03136e-06,0.216564,0.24647678542326545,3.303440545554537e-07,1.1636467703191045e-05,-0.10361923917710525,-3.0313554054695047e-06,-0.1036416484160092
259,0.2475,788.752,-0.17443,0.142091,0.00927497,-0.0758706,0.0618737,0.221123,-0.109792,-0.109813,4.01899e-07,9.80779e-06,-1.45961e-06,0.217364,0.2474768607817892,4.01899080682e-07,9.807838096564936e-06,-0.10397951182330245,-1.4596089347174157e-06,-0.10399832805598297
260,0.2485,789.395,0.303906,-0.126932,0.00113862,0.075905,-0.0681636,0.221924,-0.11019,-0.110216,3.00055e-07,1.20092e-05,-3.28842e-06,0.218163,0.24847649004534866,3.0005504503272107e-07,1.2009272110757863e-05,-0.10433605702039594,-3.2884145931832975e-06,-0.10435934398018165
261,0.2495,789.781,-0.321594,0.199992,0.0157065,-0.121232,0.0926021,0.222725,-0.110593,-0.110613,5.37793e-07,9.07538e-06,-1.0019e-06,0.218961,0.24947692033271518,5.377931446837181e-07,9.075421181448107e-06,-0.10469693686724346,-1.0018994981431106e-06,-0.10471484274944665
262,0.2505,790.518,0.479974,-0.196504,-0.00646472,0.13003,-0.105554,0.223525,-0.110988,-0.111016,2.3036e-07,1.27349e-05,-3.79294e-06,0.219758,0.25047690180823934,2.3036002660958843e-07,1.2734981089224107e-05,-0.105050511741546,-3.792932806834237e-06,-0.10507556997640033
263,0.2515,790.977,0.283866,-0.146489,0.00456489,0.0698568,-0.0775278,0.224324,-0.111388,-0.111415,3.87319e-07,1.21737e-05,-3.6773e-06,0.220555,0.25147643211196535,3.8731907503475327e-07,1.2173774099677459e-05,-0.10540841995043548,-3.6772932386908153e-06,-0.10543257359702118
264,0.2525,791.464,-0.027307,0.0799065,0.0036099,-0.0308101,0.0284792,0.225123,-0.111789,-0.111812,3.86094e-07,1.07721e-05,-2.26866e-06,0.221352,0.25247676135953956,3.860940744893071e-07,1.0772158019367595e-05,-0.10576707925803819,-2.268657426585108e-06,-0.10578764637869242
265,0.2535,792.021,0.198233,-0.0884853,0.00638086,0.0433307,-0.0465787,0.225921,-0.112186,-0.112212,4.41779e-07,1.18669e-05,-3.34511e-06,0.222147,0.2534766367123098,4.4177909752640687e-07,1.1866970411889e-05,-0.10612201926731901,-3.345104405139132e-06,-0.10614525979268996
266,0.2545,792.479,-0.161965,0.135088,0.00915885,-0.0723314,0.058491,0.226719,-0.112586,-0.112608,5.06222e-07,1.01407e-05,-1.85814e-06,0.222942,0.25447731028405873,5.062221282159385e-07,1.0140751417031524e-05,-0.1064794989589074,-1.858138273691523e-06,-0.10649915619369987
267,0.2555,793.1,0.284894,-0.11853,0.00186316,0.0696335,-0.0637713,0.227516,-0.112981,-0.113008,4.17308e-07,1.21968e-05,-3.57468e-06,0.223736,0.25547752723386385,4.173080869751544e-07,1.2196874381364964e-05,-0.1068323698602276,-3.5746736107844512e-06,-0.10685648506068468
268,0.2565,793.485,-0.29674,0.187858,0.0151016,-0.113868,0.0865159,0.228312,-0.113382,-0.113403,6.35837e-07,9.46132e-06,-1.44001e-06,0.224531,0.25647728519642254,6.358372022230441e-07,9.461364758323043e-06,-0.10719045827838736,-1.4400089631827484e-06,-0.1072092070819004
269,0.2575,794.191,0.444439,-0.181454,-0.00508525,0.118705,-0.0975837,0.229107,-0.113775,-0.113804,3.58076e-07,1.28456e-05,-4.02863e-06,0.225323,0.25747658180592436,3.580760641330727e-07,1.2845682505036038e-05,-0.1075412634905446,-4.028621885088235e-06,-0.10756714441862814
270,0.2585,794.64,0.257697,-0.134456,0.00551687,0.0613984,-0.0712369,0.229902,-0.114173,-0.114201,5.12577e-07,1.2292e-05,-3.91277e-06,0.226116,0.25847667317210465,5.125771314062888e-07,1.2292075546982417e-05,-0.10789639139253504,-3.912762345126275e-06,-0.1079213699438748
271,0.2595,795.123,-0.0180358,0.0738681,0.0036228,-0.0281749,0.0256887,0.230696,-0.114571,-0.114596,4.99082e-07,1.10409e-05,-2.62665e-06,0.226908,0.25947630045011594,4.990821245165478e-07,1.1040960951058665e-05,-0.10825137798174367,-2.6266465503743675e-06,-0.10827367141862498
272,0.2605,795.659,0.176379,-0.0784238,0.0071341,0.0361804,-0.0414402,0.23149,-0.114966,-0.114993,5.66601e-07,1.1987e-05,-3.58746e-06,0.227699,0.2604767217473698,5.666011604343879e-07,1.1987071844465902e-05,-0.10860354912906034,-3.587453565101484e-06,-0.10862761650832276
273,0.2615,796.116,-0.137015,0.122383,0.00857947,-0.0648389,0.0521948,0.232283,-0.115364,-0.115388,6.11768e-07,1.04732e-05,-2.26368e-06,0.22849,0.2614766762172611,6.117681872197522e-07,1.0473254844045599e-05,-0.10895825432549067,-2.2636774378304025e-06,-0.10897963907076891
274,0.2625,796.708,0.24971,-0.102913,0.00313417,0.0583915,-0.0556701,0.233076,-0.115757,-0.115785,5.50584e-07,1.22528e-05,-3.77463e-06,0.22928,0.2624774239655403,5.505841516040277e-07,1.2252875065899005e-05,-0.10930836493030072,-3.7746228760404676e-06,-0.10933330394693475
275,0.2635,797.101,-0.252171,0.16694,0.0137427,-0.100299,0.0759228,0.233867,-0.116156,-0.116178,7.30669e-07,9.88e-06,-1.90726e-06,0.230069,0.26347643866612236,7.306692668684889e-07,9.880048807309194e-06,-0.10966368000262272,-1.907258181166327e-06,-0.1096832671862028
276,0.2645,797.766,0.384443,-0.155663,-0.00283731,0.0998455,-0.0840591,0.234659,-0.116547,-0.116576,5.06341e-07,1.27871e-05,-4.15204e-06,0.230858,0.2644775083768236,5.063411281369667e-07,1.2787181755236077e-05,-0.11001173345485749,-4.152031380266763e-06,-0.11003754274035094
277,0.2655,798.064,-0.421402,0.235462,0.0209644,-0.152635,0.112114,0.235449,-0.116947,-0.116967,8.80123e-07,9.03362e-06,-1.37238e-06,0.231646,0.26547684029257423,8.80123387281273e-07,9.033660803181576e-06,-0.11036765757190647,-1.3723790582842454e-06,-0.11038545004082978
278,0.2665,798.838,0.594689,-0.241208,-0.011558,0.164623,-0.129533,0.236239,-0.117335,-0.117366,4.21645e-07,1.36631e-05,-4.76956e-06,0.232433,0.2664769619924623,4.2164508884390273e-07,1.3663193340507362e-05,-0.11071276796502283,-4.769548625715991e-06,-0.11074033544191786
279,0.2675,799.25,0.346007,-0.172485,0.00218868,0.0883079,-0.0911245,0.237028,-0.11773,-0.11776,6.06923e-07,1.29414e-05,-4.55927e-06,0.233221,0.2674766066234229,6.069231841543399e-07,1.2941483740203097e-05,-0.11106396705528998,-4.55925960651804e-06,-0.11109063473626113
280,0.2685,799.688,-0.036893,0.0833724,0.00425029,-0.0345286,0.0305023,0.237817,-0.118126,-0.118152,6.46613e-07,1.12363e-05,-2.95177e-06,0.234007,0.26847704028522923,6.466132089766319e-07,1.1236363127498095e-05,-0.11141591603383905,-2.951765643577353e-06,-0.11143901891968344
281,0.2695,800.226,0.228449,-0.102031,0.00544157,0.0519448,-0.0534487,0.238605,-0.118518,-0.118547,6.78624e-07,1.25193e-05,-4.15625e-06,0.234793,0.26947699412304305,6.786242303657986e-07,1.251937836665995e-05,-0.11176417273198147,-4.1562413628515316e-06,-0.11178993119747271
282,0.2705,800.638,-0.191842,0.146175,0.0107852,-0.0823629,0.0645169,0.239392,-0.118914,-0.118938,7.81037e-07,1.05175e-05,-2.49467e-06,0.235578,0.2704764657579193,7.810373050531894e-07,1.0517555309119686e-05,-0.11211584448397705,-2.4946668882863676e-06,-0.11213715344800079
283,0.2715,801.248,0.318665,-0.133711,0.000761253,0.0793658,-0.0714964,0.240179,-0.119304,-0.119334,6.52716e-07,1.28641e-05,-4.40114e-06,0.236362,0.27147672428657454,6.52716213078719e-07,1.2864182742822194e-05,-0.1124620517898155,-4.401130314968249e-06,-0.1124886775288737
284,0.2725,801.583,-0.335783,0.202999,0.0171244,-0.126801,0.0945694,0.240965,-0.1197,-0.119723,9.17951e-07,9.79029e-06,-2.05185e-06,0.237146,0.2724764978514034,9.179514213197848e-07,9.790337925030812e-06,-0.11281344723641629,-2.0518478949238528e-06,-0.11283385229247078
285,0.2735,802.284,0.48539,-0.200123,-0.00644512,0.130715,-0.107027,0.241751,-0.120088,-0.120119,5.91152e-07,1.35418e-05,-4.87985e-06,0.237929,0.2734770575471632,5.911521747670179e-07,1.3541891690671548e-05,-0.11315760884721837,-4.87983809349668e-06,-0.1131851005352208
286,0.2745,802.699,0.275499,-0.142073,0.00499709,0.066143,-0.075047,0.242536,-0.120481,-0.120511,7.55253e-07,1.29013e-05,-4.70013e-06,0.238712,0.274477129514229,7.552532852450611e-07,1.2901383222185814e-05,-0.113506069429952,-4.700118954370502e-06,-0.11353266384895078
287,0.2755,803.148,-0.0176649,0.0712336,0.00416142,-0.0287387,0.0248089,0.24332,-0.120874,-0.120901,7.56858e-07,1.15758e-05,-3.38176e-06,0.239494,0.27547671136865515,7.568582864880824e-07,1.1575866999846696e-05,-0.11385439309458267,-3.3817542818281865e-06,-0.11387831870297205
288,0.2765,803.658,0.179132,-0.0794364,0.00713317,0.0362105,-0.041935,0.244104,-0.121264,-0.121294,8.1711e-07,1.25311e-05,-4.33649e-06,0.240276,0.2764770772025349,8.171103338394659e-07,1.2531178514629815e-05,-0.11419992249866251,-4.336480597388892e-06,-0.11422649610238145
289,0.2775,804.084,-0.137932,0.119975,0.00924962,-0.0658284,0.0513868,0.244887,-0.121657,-0.121683,8.72638e-07,1.0999e-05,-3.02244e-06,0.241057,0.27747695015316043,8.72638380666757e-07,1.0999060489291779e-05,-0.11454797353261259,-3.022435432487036e-06,-0.11457099498602064
290,0.2785,804.649,0.246008,-0.101217,0.0033557,0.0564503,-0.054727,0.245669,-0.122046,-0.122076,8.05776e-07,1.27635e-05,-4.50517e-06,0.241837,0.27847632783392484,8.057763245528093e-07,1.2763581453745232e-05,-0.11489234738585141,-4.505159851730944e-06,-0.11491890021713536
291,0.2795,805.017,-0.245884,0.161629,0.0141411,-0.0990877,0.0735508,0.246451,-0.122439,-0.122464,9.89176e-07,1.04322e-05,-2.69105e-06,0.242617,0.2794764873336868,9.891764891634125e-07,1.043225441565987e-05,-0.11524012635028613,-2.6910463791773864e-06,-0.1152622450706422
292,0.2805,805.65,0.369339,-0.149547,-0.00215644,0.0944395,-0.0806926,0.247233,-0.122825,-0.122857,7.69806e-07,1.32421e-05,-4.84902e-06,0.243395,0.2804774292640684,7.698062962635532e-07,1.3242187677064976e-05,-0.11558157775715383,-4.849008243490438e-06,-0.11560987869384809
293,0.2815,805.931,-0.399226,0.223957,0.0206918,-0.146553,0.106388,0.248013,-0.12322,-0.123243,1.13046e-06,9.65109e-06,-2.20672e-06,0.244174,0.28147659128142344,1.1304606388762295e-06,9.65113657191985e-06,-0.11593085404733106,-2.206717565234051e-06,-0.11595118740385346
294,0.2825,806.661,0.557153,-0.226481,-0.00994287,0.152396,-0.121442,0.248793,-0.123604,-0.123637,7.00299e-07,1.40131e-05,-5.39978e-06,0.244951,0.2824765329491763,7.002992452598278e-07,1.4013198183837616e-05,-0.11627027142706925,-5.39976542124343e-06,-0.11629943402692655
295,0.2835,807.05,0.313575,-0.157728,0.00344289,0.0775481,-0.0832911,0.249573,-0.123994,-0.124026,8.85276e-07,1.32688e-05,-5.16421e-06,0.245729,0.2834772548756914,8.85276391748846e-07,1.3268888030992798e-05,-0.11661485882230294,-5.1641966655191496e-06,-0.11664312669453225
296,0.2845,807.472,-0.022907,0.0736095,0.00440807,-0.0307394,0.0260845,0.250352,-0.124385,-0.124413,9.10977e-07,1.176e-05,-3.72429e-06,0.246506,0.2844774731916926,9.10977414836367e-07,1.176006914915817e-05,-0.11696019489490161,-3.724283064832079e-06,-0.11698491966329616
297,0.2855,807.974,0.197298,-0.0877327,0.00655471,0.0415016,-0.0461235,0.25113,-0.124772,-0.124803,9.58569e-07,1.28274e-05,-4.75777e-06,0.247282,0.2854771855034992,9.585694593639005e-07,1.2827482271493551e-05,-0.11730186518201247,-4.757758681805946e-06,-0.11732922840005977
298,0.2865,808.376,-0.155721,0.126985,0.0101153,-0.0717249,0.0551182,0.251907,-0.125163,-0.12519,1.03535e-06,1.11299e-05,-3.33602e-06,0.248057,0.2864763894170852,1.035350535971702e-06,1.1129961937639266e-05,-0.11764693268763271,-3.336014435473267e-06,-0.11767075589883536
299,0.2875,808.938,0.266545,-0.110638,0.00268212,0.0624842,-0.0595011,0.252684,-0.125548,-0.12558,9.46037e-07,1.30708e-05,-4.93663e-06,0.248832,0.2874763700138143,9.460374474912214e-07,1.3070885423349665e-05,-0.11798657323354766,-4.9366178148657625e-06,-0.11801479721161812
300,0.2885,809.279,-0.269812,0.171298,0.0152687,-0.106915,0.07863,0.253461,-0.125939,-0.125965,1.15629e-06,1.05325e-05,-2.98762e-06,0.249606,0.2884771278974039,1.1562906685469443e-06,1.0532555466902238e-05,-0.11833137307065233,-2.9876155370756052e-06,-0.11835429615695114
301,0.2895,809.911,0.395221,-0.161443,-0.00302596,0.102152,-0.0867126,0.254237,-0.126323,-0.126356,9.07713e-07,1.35721e-05,-5.29846e-06,0.25038,0.28947737419402175,9.07713411990585e-07,1.3572192101296565e-05,-0.11866986882804842,-5.298445963197729e-06,-0.11869895224249805
302,0.2905,810.163,-0.428906,0.236489,0.0220221,-0.156223,0.112852,0.255012,-0.126715,-0.126739,1.30125e-06,9.72115e-06,-2.48564e-06,0.251153,0.29047710650525405,1.301250846630353e-06,9.721197250511793e-06,-0.11901528253395832,-2.4856369108539056e-06,-0.11903642591345587
303,0.2915,810.896,0.588768,-0.241236,-0.0109912,0.161919,-0.128873,0.255786,-0.127096,-0.12713,8.36109e-07,1.4368e-05,-5.86902e-06,0.251925,0.2914763224323691,8.36109349533487e-07,1.4368103220308015e-05,-0.1193508737771215,-5.869002777325605e-06,-0.11938081533840361
304,0.2925,811.266,0.327431,-0.164083,0.00302583,0.0815013,-0.0864507,0.25656,-0.127483,-0.127517,1.02842e-06,1.35578e-05,-5.5863e-06,0.252697,0.292476312051992,1.028420528736973e-06,1.355789190737866e-05,-0.11969161905050663,-5.586284396619234e-06,-0.11972154902664633
305,0.2935,811.67,-0.0225442,0.0723045,0.0046411,-0.030958,0.0256367,0.257334,-0.127871,-0.127901,1.06321e-06,1.1991e-05,-4.11474e-06,0.253468,0.29347707596319283,1.0632105651442458e-06,1.1991071892314409e-05,-0.12003311244831172,-4.11473153449915e-06,-0.12005951105895707
306,0.2945,812.16,0.200194,-0.0891107,0.00650858,0.0420168,-0.0467844,0.258107,-0.128256,-0.128288,1.10687e-06,1.30707e-05,-5.15117e-06,0.254239,0.29447732028753726,1.1068706124994776e-06,1.3070785422009124e-05,-0.12037183449184174,-5.151156732718931e-06,-0.12039998214277325
307,0.2955,812.547,-0.157222,0.12639,0.0104532,-0.0725446,0.0549977,0.258879,-0.128644,-0.128672,1.1895e-06,1.13515e-05,-3.72493e-06,0.255009,0.29547704262196883,1.1895007074880226e-06,1.1351564428441208e-05,-0.12071306401725013,-3.7249230624425422e-06,-0.1207376837067804
308,0.2965,813.096,0.265914,-0.110533,0.00275991,0.0619185,-0.0593797,0.259651,-0.129027,-0.12906,1.09667e-06,1.32965e-05,-5.32016e-06,0.255779,0.29647753704002855,1.096670601441474e-06,1.3296588398770126e-05,-0.12104976643110343,-5.320145847975688e-06,-0.12107877131022804
309,0.2975,813.424,-0.26792,0.169361,0.0154752,-0.1067,0.0777809,0.260422,-0.129415,-0.129442,1.30918e-06,1.07666e-05,-3.38836e-06,0.256548,0.29747750665983963,1.3091808570564467e-06,1.0766657960070702e-05,-0.12139073296994207,-3.3883542595036786e-06,-0.12141445509990167
310,0.2985,814.041,0.388995,-0.159175,-0.0027195,0.099884,-0.0854056,0.261192,-0.129796,-0.12983,1.06229e-06,1.37707e-05,-5.66566e-06,0.257316,0.29847694907591715,1.0622905641799463e-06,1.3770794816458931e-05,-0.1217254193388786,-5.665643950214516e-06,-0.12175528016698411
311,0.2995,814.284,-0.419334,0.231554,0.0219019,-0.153652,0.110383,0.261962,-0.130185,-0.130211,1.45006e-06,9.98676e-06,-2.9108e-06,0.258084,0.2994771613590157,1.4500610512335754e-06,9.986809867745805e-06,-0.12206700170867746,-2.9107957636442805e-06,-0.12208982766989429
312,0.3005,814.997,0.571772,-0.234807,-0.0102355,0.156371,-0.125292,0.262731,-0.130563,-0.130599,9.97851e-07,1.45164e-05,-6.20424e-06,0.258851,0.3004768436246674,9.97851497874791e-07,1.451650536354876e-05,-0.12239879766864448,-6.204220753702749e-06,-0.12243039074324968
313,0.3015,815.355,0.312499,-0.15728,0.00359811,0.0765254,-0.0828362,0.2635,-0.130948,-0.130983,1.1898e-06,1.3694e-05,-5.908e-06,0.259617,0.301477294941644,1.1898007077348893e-06,1.3694093763172432e-05,-0.12273660909866912,-5.9079825478480785e-06,-0.12276731278003306
314,0.3025,815.751,-0.0162248,0.0676632,0.00473596,-0.0292582,0.023562,0.264268,-0.131334,-0.131365,1.21852e-06,1.2217e-05,-4.51413e-06,0.260383,0.30247721342370815,1.2185207423076605e-06,1.2217074627951519e-05,-0.12307516742159708,-4.514119811283024e-06,-0.1231023516700489
315,0.3035,816.223,0.186023,-0.0825528,0.00700179,0.0372328,-0.0434387,0.265035,-0.131716,-0.131749,1.26873e-06,1.31985e-05,-5.47198e-06,0.261149,0.3034765966608819,1.2687308048597856e-06,1.3198587100582415e-05,-0.1234100887335986,-5.471965028758241e-06,-0.12343901572337246
316,0.3045,816.605,-0.141154,0.117587,0.0101827,-0.0678263,0.0507239,0.265802,-0.132101,-0.132131,1.34034e-06,1.16162e-05,-4.15465e-06,0.261914,0.3044767467190366,1.340340898270398e-06,1.1616267468372854e-05,-0.12374751089150293,-4.154641369491507e-06,-0.1237737980718665
317,0.3055,817.131,0.2428,-0.100201,0.00359751,0.0543838,-0.0540335,0.266568,-0.132481,-0.132515,1.26419e-06,1.33807e-05,-5.61291e-06,0.262678,0.3054763587095384,1.2641907991550738e-06,1.3380789521955094e-05,-0.12408042357994731,-5.61289424760858e-06,-0.12411020433926978
318,0.3065,817.46,-0.239216,0.15523,0.0147036,-0.0980621,0.0707309,0.267334,-0.132866,-0.132895,1.45325e-06,1.1086e-05,-3.85812e-06,0.263442,0.30647673669616404,1.4532510559384093e-06,1.1086061449949725e-05,-0.12441758770860956,-3.85811255743107e-06,-0.12444297923038716
319,0.3075,818.047,0.350083,-0.142292,-0.00126165,0.0874873,-0.0765881,0.268099,-0.133245,-0.13328,1.23941e-06,1.37812e-05,-5.90999e-06,0.264204,0.30747657378866355,1.2394107680169242e-06,1.3781294961212609e-05,-0.12474937056604507,-5.909972536022323e-06,-0.1247800038019905
320,0.3085,818.301,-0.370613,0.208946,0.0203266,-0.138793,0.0989216,0.268864,-0.133631,-0.133659,1.58285e-06,1.03951e-05,-3.44383e-06,0.264967,0.30847717604917846,1.5828512527349403e-06,1.0395154029341214e-05,-0.12508715211297405,-3.4438240700263023e-06,-0.12511164932975227
321,0.3095,818.97,0.507282,-0.207346,-0.00777492,0.136113,-0.110858,0.269628,-0.134008,-0.134044,1.19014e-06,1.44094e-05,-6.36988e-06,0.265729,0.30947723458539667,1.1901407082071103e-06,1.4409503815926428e-05,-0.12541693208919602,-6.369859712362924e-06,-0.12544841651291772
322,0.3105,819.323,0.270801,-0.138061,0.00504522,0.0632769,-0.0728771,0.270391,-0.13439,-0.134425,1.37335e-06,1.36354e-05,-6.099e-06,0.26649,0.3104767469808738,1.373350942968088e-06,1.3635492962515983e-05,-0.12575095901793265,-6.09898140113696e-06,-0.12578155719889572
323,0.3115,819.72,-0.00548607,0.0604103,0.00471374,-0.0260701,0.0202242,0.271154,-0.134772,-0.134805,1.38255e-06,1.23812e-05,-4.88109e-06,0.267251,0.31147702229532515,1.382550955719708e-06,1.2381276647266404e-05,-0.12608485837275074,-4.8810780874930515e-06,-0.12611369709658282
324,0.3125,820.171,0.157376,-0.0691418,0.00791012,0.0279948,-0.0366636,0.271916,-0.135152,-0.135186,1.44754e-06,1.31733e-05,-5.69255e-06,0.268011,0.31247674863367547,1.4475410476944006e-06,1.317338676831703e-05,-0.12641688303788734,-5.6925337974522705e-06,-0.12644658435893874
325,0.3135,820.555,-0.110845,0.102009,0.00940054,-0.0585526,0.0430396,0.272678,-0.135534,-0.135565,1.49441e-06,1.18602e-05,-4.5786e-06,0.268771,0.3134772370538117,1.494411116631511e-06,1.1860270332508804e-05,-0.12675052805831066,-4.5785895181893466e-06,-0.1267775983723488
326,0.3145,821.051,0.20175,-0.0815393,0.00499447,0.0413262,-0.0444738,0.273439,-0.135912,-0.135947,1.45071e-06,1.32949e-05,-5.7935e-06,0.26953,0.31447717365883077,1.450711052175535e-06,1.3294988377543504e-05,-0.12708055397987583,-5.793483217719775e-06,-0.1271111056258296
327,0.3155,821.392,-0.189641,0.13144,0.0131568,-0.0827964,0.0587953,0.274199,-0.136294,-0.136325,1.59642e-06,1.14155e-05,-4.34223e-06,0.270289,0.31547655602800817,1.5964212742858308e-06,1.1415565157157914e-05,-0.12741394552641605,-4.342220572550737e-06,-0.12744099527483144
328,0.3165,821.936,0.286373,-0.114067,0.00101671,0.0674325,-0.0620047,0.274959,-0.136671,-0.136707,1.43911e-06,1.35905e-05,-6.02053e-06,0.271046,0.31647669821648106,1.4391110354505798e-06,1.3590592351286901e-05,-0.1277428484668527,-6.020511876592138e-06,-0.12777424915909208
329,0.3175,822.217,-0.292864,0.173005,0.0176671,-0.114746,0.0807121,0.275718,-0.137054,-0.137083,1.70986e-06,1.0852e-05,-4.01697e-06,0.271804,0.3174762833249891,1.7098614617516716e-06,1.0852058883070725e-05,-0.12807685898879195,-4.0169619319740946e-06,-0.1281021443932412
330,0.3185,822.826,0.4086,-0.164347,-0.00414884,0.10527,-0.0885063,0.276477,-0.137429,-0.137465,1.40981e-06,1.40583e-05,-6.3719e-06,0.27256,0.31847662740658844,1.4098109937243919e-06,1.4058398818406204e-05,-0.12840376886723803,-6.37187969954045e-06,-0.12843514576677117
331,0.3195,823.027,-0.437983,0.234596,0.0235683,-0.1599,0.112605,0.277235,-0.137812,-0.13784,1.84376e-06,1.00926e-05,-3.55249e-06,0.273317,0.3194764115604871,1.8437616997601936e-06,1.0092650930548785e-05,-0.12873752630513258,-3.552483689883701e-06,-0.12876192131286435
332,0.3205,823.724,0.582524,-0.238222,-0.0110533,0.159172,-0.127106,0.277993,-0.138185,-0.138223,1.35453e-06,1.47638e-05,-6.89228e-06,0.274072,0.32047695383806674,1.3545309174300968e-06,1.4763908985360175e-05,-0.1290624466064174,-6.892256248280937e-06,-0.12909554160463743
333,0.3215,824.052,0.307634,-0.15425,0.00361306,0.0744734,-0.0811976,0.27875,-0.138564,-0.138601,1.5583e-06,1.38607e-05,-6.54255e-06,0.274827,0.3214769333366092,1.5583012140663044e-06,1.386079606002788e-05,-0.12939246939588467,-6.542528597552888e-06,-0.12942468127859352
334,0.3225,824.423,-0.00808914,0.0612818,0.00483786,-0.027138,0.0207685,0.279506,-0.138944,-0.138977,1.58821e-06,1.24385e-05,-5.21334e-06,0.275582,0.3224763476292143,1.5882112611720345e-06,1.243857735855336e-05,-0.1297232374076117,-5.213326410569152e-06,-0.1297519560669168
335,0.3235,824.864,0.172011,-0.0761173,0.00741309,0.0323004,-0.0401383,0.280262,-0.13932,-0.139356,1.64341e-06,1.33153e-05,-6.08305e-06,0.276336,0.323476517764697,1.6434113503382974e-06,1.3315388649015603e-05,-0.13005039995993217,-6.083031498294034e-06,-0.13008171758181308
336,0.3245,825.227,-0.124004,0.106983,0.0100218,-0.0629182,0.0457069,0.281018,-0.139699,-0.139731,1.70659e-06,1.18731e-05,-4.88685e-06,0.277089,0.32447744431469094,1.7065914561520401e-06,1.1873170485454665e-05,-0.13038004838602468,-4.886838059325882e-06,-0.13040787577923574
337,0.3255,825.717,0.216122,-0.0884544,0.00449908,0.0455543,-0.047923,0.281772,-0.140074,-0.14011,1.64632e-06,1.34365e-05,-6.18578e-06,0.277842,0.32547647689565684,1.6463213552420086e-06,1.3436590270199389e-05,-0.13070609473036954,-6.185760868082646e-06,-0.1307373887476636
338,0.3265,826.035,-0.20584,0.137772,0.0139092,-0.0881265,0.0621373,0.282526,-0.140453,-0.140485,1.81061e-06,1.14126e-05,-4.64292e-06,0.278594,0.326476263031243,1.8106116390637084e-06,1.1412665124055366e-05,-0.13103549469523046,-4.642909221641567e-06,-0.13106330111449516
339,0.3275,826.574,0.302365,-0.121857,0.000470744,0.0721841,-0.0658668,0.28328,-0.140826,-0.140863,1.63398e-06,1.37389e-05,-6.41926e-06,0.279346,0.3274768032898441,1.6339813349031118e-06,1.3738994379064451e-05,-0.1313595580141429,-6.41923939659339e-06,-0.13139169711591936
340,0.3285,826.833,-0.310522,0.180265,0.0184539,-0.120566,0.0844642,0.284033,-0.141206,-0.141237,1.92476e-06,1.08394e-05,-4.31357e-06,0.280097,0.32847676976284923,1.924761852345469e-06,1.0839458746580988e-05,-0.13168957867420095,-4.313560696522778e-06,-0.1317164958800432
341,0.3295,827.437,0.425269,-0.172764,-0.00468652,0.110264,-0.0926256,0.284786,-0.141578,-0.141616,1.60481e-06,1.42093e-05,-6.77455e-06,0.280847,0.32947748949417477,1.604811287636565e-06,1.42094009525362e-05,-0.13201253007824865,-6.774527052777479e-06,-0.13204551297542666
342,0.3305,827.616,-0.455255,0.242176,0.0242959,-0.165654,0.116414,0.285537,-0.141958,-0.141987,2.05802e-06,1.00783e-05,-3.85011e-06,0.281598,0.3304763020959727,2.058022117834568e-06,1.0078350786146828e-05,-0.13234230265606095,-3.850102588298654e-06,-0.13236746436443736
343,0.3315,828.308,0.597433,-0.246372,-0.0114689,0.163663,-0.130989,0.286289,-0.142328,-0.142367,1.5513e-06,1.49067e-05,-7.29163e-06,0.282347,0.3314771965643013,1.55130120327307e-06,1.4906811105497297e-05,-0.13266327662023303,-7.291603416170744e-06,-0.1326971020928438
344,0.3325,828.619,0.310419,-0.155739,0.00352774,0.0751082,-0.08182,0.28704,-0.142704,-0.142742,1.75968e-06,1.39484e-05,-6.89986e-06,0.283096,0.3324775115101686,1.7596815482523454e-06,1.3948497279425709e-05,-0.13298933392560897,-6.899836196061493e-06,-0.13302227970494607
345,0.3335,828.977,-0.00485241,0.0582705,0.00494044,-0.0263264,0.0194966,0.28779,-0.14308,-0.143115,1.79224e-06,1.25273e-05,-5.58299e-06,0.283844,0.3334772444968086,1.7922416060134339e-06,1.25273784670199e-05,-0.13331526865648358,-5.582974415108133e-06,-0.13334560209124247
346,0.3345,829.404,0.167812,-0.0742363,0.00752312,0.0307099,-0.0391605,0.288539,-0.143454,-0.14349,1.84771e-06,1.33692e-05,-6.42051e-06,0.284592,0.33447639308737354,1.8477117069704008e-06,1.3369289368236892e-05,-0.13363934813936518,-6.420489388592188e-06,-0.13367053656143724
347,0.3355,829.755,-0.118329,0.102937,0.0100435,-0.0613685,0.0438488,0.289288,-0.143829,-0.143863,1.90957e-06,1.19709e-05,-5.26641e-06,0.285339,0.3354762903205646,1.909571823333067e-06,1.1970971651509288e-05,-0.13396417247544345,-5.266396132519446e-06,-0.13399361719301617
348,0.3365,830.229,0.206549,-0.0842736,0.00481042,0.0423061,-0.0457385,0.290037,-0.144201,-0.144239,1.85362e-06,1.34646e-05,-6.50725e-06,0.286086,0.33647693675732504,1.8536217178954928e-06,1.3464690648223865e-05,-0.13428627788796133,-6.50722882789001e-06,-0.13431917438436414
349,0.3375,830.539,-0.193833,0.131083,0.0136798,-0.0846174,0.0588944,0.290785,-0.144577,-0.14461,2.01004e-06,1.15371e-05,-5.04314e-06,0.286832,0.3374769954813541,2.010042020161862e-06,1.1537166552555433e-05,-0.13461172505957297,-5.043127283443916e-06,-0.1346402824014472
350,0.3385,831.058,0.284403,-0.11422,0.00111595,0.0663542,-0.061848,0.291532,-0.144948,-0.144986,1.84622e-06,1.37276e-05,-6.71567e-06,0.287577,0.3384764640520139,1.8462217041825824e-06,1.3727694224030529e-05,-0.13493272456048655,-6.715647449917483e-06,-0.1349655964923826
351,0.3395,831.315,-0.287931,0.169154,0.0177935,-0.113774,0.0789059,0.292279,-0.145324,-0.145356,2.11799e-06,1.10102e-05,-4.74751e-06,0.288323,0.33947667950462157,2.1179922429226394e-06,1.1010260612565048e-05,-0.13525792871383968,-4.747498730583999e-06,-0.13528560001737755
352,0.3405,831.891,0.393767,-0.159539,-0.00350245,0.100267,-0.0856443,0.293025,-0.145693,-0.145732,1.825e-06,1.41354e-05,-7.02996e-06,0.289067,0.34047630192033407,1.8250016653453827e-06,1.4135499905254534e-05,-0.13557695967331218,-7.029935289892819e-06,-0.1356106715144998
353,0.3415,832.077,-0.415771,0.223891,0.022954,-0.153605,0.107132,0.293771,-0.14607,-0.146101,2.24135e-06,1.03244e-05,-4.33759e-06,0.289811,0.3414766703325911,2.2413525118114563e-06,1.0324453296739478e-05,-0.1359027857374432,-4.3375805927059474e-06,-0.13592957233589087
354,0.3425,832.731,0.544478,-0.224228,-0.00944488,0.147066,-0.119284,0.294516,-0.146437,-0.146477,1.78384e-06,1.47345e-05,-7.48123e-06,0.290554,0.3424764428209992,1.78384159110756e-06,1.4734608553279571e-05,-0.1362198512300009,-7.4812020156578285e-06,-0.13625440174493675
355,0.3435,833.036,0.276362,-0.13998,0.00465693,0.0642945,-0.0736567,0.295261,-0.14681,-0.146849,1.98406e-06,1.38162e-05,-7.10885e-06,0.291297,0.3434769604174295,1.9840619682742755e-06,1.3816295444168958e-05,-0.1365419811445282,-7.108824732204866e-06,-0.13657565535061233
356,0.3445,833.391,0.0033517,0.052151,0.00495064,-0.0238595,0.0167425,0.296005,-0.147183,-0.147219,2.00166e-06,1.25748e-05,-5.93626e-06,0.292039,0.34447687919964287,2.0016620032592414e-06,1.257487906314303e-05,-0.13686399092700352,-5.936242380433221e-06,-0.13689506326402467
357,0.3455,833.799,0.144969,-0.0634257,0.00817755,0.0233345,-0.03373,0.296749,-0.147553,-0.147591,2.06741e-06,1.32665e-05,-6.65578e-06,0.292781,0.3454775421982441,2.0674121370412024e-06,1.3266588000382384e-05,-0.1371832921759868,-6.655757850304589e-06,-0.13721607858793827
358,0.3465,834.149,-0.094905,0.090335,0.0094608,-0.0541663,0.0377077,0.297491,-0.147926,-0.147961,2.11095e-06,1.20802e-05,-5.66399e-06,0.293522,0.34647625701192974,2.1109522281292925e-06,1.2080272965953043e-05,-0.13750506279405417,-5.663973959624258e-06,-0.13753524958858443
359,0.3475,834.596,0.174749,-0.0696544,0.00582051,0.0321695,-0.0382913,0.298234,-0.148295,-0.148333,2.07865e-06,1.33178e-05,-6.71388e-06,0.294262,0.34747706062339034,2.0786521603977093e-06,1.33178886823071e-05,-0.1378232647140184,-6.713857461981831e-06,-0.13785602680747555
360,0.3485,834.913,-0.15633,0.112467,0.0125365,-0.0730326,0.0496469,0.298976,-0.148668,-0.148702,2.20314e-06,1.1709e-05,-5.48474e-06,0.295003,0.34847725963031495,2.203142426937532e-06,1.1709068550525004e-05,-0.13814479666684298,-5.484724958870757e-06,-0.13817409924560964
361,0.3495,835.397,0.236482,-0.0927455,0.00275428,0.0512289,-0.0508163,0.299717,-0.149036,-0.149074,2.08036e-06,1.35058e-05,-6.87281e-06,0.295742,0.3494768515827813,2.0803621638698644e-06,1.3505891203635656e-05,-0.13846190103088796,-6.8727863823392354e-06,-0.13849463885662616
362,0.3505,835.67,-0.230663,0.14197,0.0158713,-0.0960241,0.0652448,0.300458,-0.149409,-0.149442,2.29947e-06,1.12717e-05,-5.25177e-06,0.296481,0.35047718450738086,2.2994726438518853e-06,1.1271763525888545e-05,-0.13878319481678725,-5.251756209467828e-06,-0.13881161450243096
363,0.3515,836.199,0.321835,-0.127796,-0.000941816,0.0777131,-0.0692499,0.301198,-0.149775,-0.149814,2.07253e-06,1.3803e-05,-7.11285e-06,0.297219,0.35147690747579396,2.072532147678885e-06,1.3803095261888387e-05,-0.13909834249194175,-7.112824703781051e-06,-0.13913191700187744
364,0.3525,836.416,-0.329761,0.184056,0.0199154,-0.126865,0.086999,0.301938,-0.150148,-0.150181,2.40619e-06,1.07173e-05,-4.93328e-06,0.297957,0.3524773705129951,2.4061928949326017e-06,1.0717357430412022e-05,-0.13941939892944433,-4.93326783135295e-06,-0.1394477976206987
365,0.3535,837.005,0.437437,-0.177397,-0.0055582,0.113659,-0.0950093,0.302677,-0.150513,-0.150553,2.0507e-06,1.42409e-05,-7.45467e-06,0.298694,0.35347722068894094,2.0507021027960093e-06,1.4241001402126585e-05,-0.1397334535303838,-7.4546422139665225e-06,-0.13976786350403847
366,0.3545,837.149,-0.463403,0.242992,0.0250782,-0.168635,0.117085,0.303415,-0.150887,-0.150918,2.52934e-06,1.00005e-05,-4.49948e-06,0.299432,0.354476455550121,2.5293431988870907e-06,1.0000550005218045e-05,-0.14005513306094164,-4.499469877350393e-06,-0.1400817909386175
367,0.3555,837.817,0.594079,-0.246064,-0.0115133,0.162381,-0.130481,0.304153,-0.15125,-0.151292,2.00868e-06,1.48691e-05,-7.93148e-06,0.300167,0.3554764281188092,2.0086820173847997e-06,1.4869210545720435e-05,-0.14036723639745774,-7.93144854593919e-06,-0.14040334021534362
368,0.3565,838.1,0.296717,-0.149242,0.00382017,0.0704968,-0.0783088,0.304891,-0.151619,-0.151659,2.22351e-06,1.38401e-05,-7.48667e-06,0.300903,0.3564771389396344,2.2235124719216515e-06,1.3840195774550423e-05,-0.14068438237019654,-7.486641974918662e-06,-0.1407187543074584
369,0.3575,838.436,0.004852,0.050466,0.00495333,-0.023515,0.0160726,0.305628,-0.151989,-0.152026,2.25214e-06,1.25177e-05,-6.26685e-06,0.301638,0.3574772310797183,2.2521425360189085e-06,1.2517778346765596e-05,-0.14100227033581936,-6.26683036331066e-06,-0.14103405266384028
370,0.3585,838.831,0.149136,-0.065585,0.00795567,0.0244661,-0.0347738,0.306364,-0.152356,-0.152395,2.31412e-06,1.32248e-05,-6.9924e-06,0.302373,0.35847670208200433,2.314122677482544e-06,1.3224887448037848e-05,-0.14131746466090966,-6.992375553238617e-06,-0.14135095262676833
371,0.3595,839.165,-0.0972926,0.0901451,0.00966086,-0.055052,0.0377776,0.3071,-0.152725,-0.152761,2.36357e-06,1.20066e-05,-5.98809e-06,0.303107,0.35947690896571927,2.3635727932624917e-06,1.2006672079456493e-05,-0.1416342600641034,-5.988072071416717e-06,-0.14166516067452672
372,0.3605,839.6,0.17548,-0.0703469,0.00572475,0.032238,-0.0385756,0.307835,-0.153091,-0.15313,2.32662e-06,1.32606e-05,-7.04158e-06,0.303841,0.360476491795499,2.326622706494419e-06,1.3260687922178604e-05,-0.14194836444031267,-7.041555208142647e-06,-0.14198182780155977
373,0.3615,839.902,-0.156614,0.11142,0.0126579,-0.0732747,0.0492569,0.30857,-0.15346,-0.153495,2.45425e-06,1.16438e-05,-5.81682e-06,0.304574,0.36147680958872463,2.4542530117077632e-06,1.1643867789290496e-05,-0.1422649270844344,-5.816803082314692e-06,-0.14229494728662984
374,0.3625,840.372,0.23341,-0.0919278,0.00281544,0.0501322,-0.0502863,0.309304,-0.153824,-0.153864,2.33019e-06,1.34311e-05,-7.18997e-06,0.305306,0.36247650040861124,2.3301927150054524e-06,1.3431190197588094e-05,-0.14257708583463646,-7.1899441522749186e-06,-0.1426113820652739
375,0.3635,840.634,-0.226132,0.139004,0.0157881,-0.0947826,0.0638286,0.310038,-0.154193,-0.154228,2.54728e-06,1.12269e-05,-5.59957e-06,0.306038,0.36347692527092024,2.5472832443362847e-06,1.1226963021915282e-05,-0.14289341652336207,-5.599554322444078e-06,-0.1429234147288122
376,0.3645,841.146,0.312324,-0.124403,-0.00061281,0.07464,-0.0673397,0.310771,-0.154556,-0.154597,2.32586e-06,1.36986e-05,-7.41138e-06,0.30677,0.3644767202372341,2.325862704877224e-06,1.3698693826169617e-05,-0.1432044897499577,-7.41135253579106e-06,-0.14323961764575122
377,0.3655,841.356,-0.316962,0.177703,0.0194864,-0.123064,0.0837968,0.311504,-0.154926,-0.15496,2.64861e-06,1.07086e-05,-5.30746e-06,0.307501,0.3654772483219133,2.648613507627573e-06,1.0708657337321625e-05,-0.14352144544833012,-5.307445915425646e-06,-0.1435505652241459
378,0.3665,841.922,0.417269,-0.169645,-0.00479752,0.107307,-0.0907815,0.312236,-0.155287,-0.155329,2.30993e-06,1.40879e-05,-7.72135e-06,0.308231,0.36647714358470385,2.3099326678099885e-06,1.4087999234968507e-05,-0.1438305784046674,-7.721320190445802e-06,-0.14386653676524352
379,0.3675,842.067,-0.437216,0.230986,0.0241044,-0.16067,0.110941,0.312967,-0.155658,-0.15569,2.76343e-06,1.00515e-05,-4.91624e-06,0.308961,0.36747640356168865,2.7634338182203066e-06,1.0051550516587682e-05,-0.14414815834535766,-4.9162279153192046e-06,-0.1441755451660991
380,0.3685,842.703,0.556884,-0.231227,-0.0100831,0.150786,-0.122505,0.313698,-0.156017,-0.15606,2.2773e-06,1.46385e-05,-8.14621e-06,0.30969,0.3684763942647644,2.2773025929456736e-06,1.463860714334686e-05,-0.14445535401159026,-8.146176819767703e-06,-0.144492141640428
381,0.3695,842.978,0.271603,-0.137646,0.00458337,0.062552,-0.0722773,0.314429,-0.156383,-0.156424,2.48598e-06,1.36291e-05,-7.7069e-06,0.310419,0.3694771162282875,2.4859830900503255e-06,1.3629192876507545e-05,-0.144768426056343,-7.70687030193784e-06,-0.14480348983206237
382,0.3705,843.308,0.011246,0.0452079,0.004954,-0.0215319,0.0137541,0.315159,-0.156749,-0.156787,2.50425e-06,1.24409e-05,-6.59791e-06,0.311147,0.3704771995091196,2.504253135526824e-06,1.244097738828387e-05,-0.14508138353769373,-6.597888233872418e-06,-0.14511386982787589
383,0.3715,843.685,0.13162,-0.0572498,0.00837061,0.0188309,-0.0306035,0.315888,-0.157113,-0.157152,2.5728e-06,1.3032e-05,-7.23034e-06,0.311875,0.3714766416399564,2.5728033097305314e-06,1.3032084916986264e-05,-0.1453925172843088,-7.230313861184001e-06,-0.14542584632621414
384,0.3725,844.015,-0.0796262,0.0801089,0.00921929,-0.0495653,0.0329488,0.316617,-0.157478,-0.157515,2.60928e-06,1.19756e-05,-6.35229e-06,0.312602,0.3724768126297433,2.6092834042312774e-06,1.1975671707853408e-05,-0.14570439209488462,-6.352269824261292e-06,-0.14573600044761892
385,0.3735,844.426,0.151182,-0.0591254,0.00641124,0.0245105,-0.032879,0.317345,-0.157841,-0.15788,2.58893e-06,1.30346e-05,-7.25826e-06,0.313329,0.3734763395329861,2.588933351255207e-06,1.3034684950730124e-05,-0.14601444512252504,-7.258233658880009e-06,-0.1460477499097177
386,0.3745,844.73,-0.128507,0.0969402,0.0117972,-0.0645382,0.0421325,0.318073,-0.158206,-0.158243,2.69336e-06,1.16594e-05,-6.21377e-06,0.314055,0.3744765943567454,2.6933636270154437e-06,1.165946797110351e-05,-0.14632609297086308,-6.213750694539222e-06,-0.1463576783210906
387,0.3755,845.17,0.197296,-0.0756767,0.00396639,0.0387441,-0.0419647,0.318801,-0.158567,-0.158607,2.5988e-06,1.31502e-05,-7.37084e-06,0.31478,0.3754775776311403,2.5988033769408503e-06,1.315028646420302e-05,-0.146634213632175,-7.370812835416629e-06,-0.14666834758094616
388,0.3765,845.44,-0.183696,0.11832,0.0143599,-0.0815762,0.0535077,0.319527,-0.158933,-0.158969,2.77749e-06,1.13077e-05,-6.04207e-06,0.315506,0.3764765369308489,2.777493857131219e-06,1.1307763932322246e-05,-0.1469464883602245,-6.042051746701915e-06,-0.1469771977338714
389,0.3775,845.914,0.259058,-0.100777,0.00119946,0.0579358,-0.0551813,0.320254,-0.159293,-0.159333,2.60366e-06,1.33386e-05,-7.53962e-06,0.31623,0.37747759921524726,2.6036633895554218e-06,1.3338688959585454e-05,-0.14725353235317995,-7.539591577176985e-06,-0.14728764152969775
390,0.3785,846.143,-0.25421,0.148063,0.0172706,-0.103504,0.068896,0.320979,-0.159658,-0.159694,2.86665e-06,1.08827e-05,-5.8148e-06,0.316954,0.37847663258051356,2.866654108757416e-06,1.0882759216901405e-05,-0.14756472801720744,-5.814783094137965e-06,-0.14759541513462737
391,0.3795,846.659,0.339586,-0.135424,-0.00206398,0.0830354,-0.0731205,0.321704,-0.160017,-0.160059,2.60076e-06,1.36154e-05,-7.77373e-06,0.317677,0.3794763905075915,2.6007633819880027e-06,1.3615492689966757e-05,-0.14787069735506697,-7.773699784663357e-06,-0.14790648603421053
392,0.3805,846.837,-0.345775,0.188503,0.0207944,-0.132114,0.0895163,0.322429,-0.160383,-0.160418,2.96471e-06,1.0358e-05,-5.51545e-06,0.318401,0.380476873521979,2.9647143946487375e-06,1.0358053644354825e-05,-0.14818251961288098,-5.5154347898822564e-06,-0.1482123327029624
393,0.3815,847.406,0.444687,-0.181949,-0.00607115,0.115826,-0.0970239,0.323153,-0.16074,-0.160783,2.58642e-06,1.40075e-05,-8.09046e-06,0.319123,0.38147670067216355,2.58642334483028e-06,1.4007598105436614e-05,-0.14848656417819506,-8.090427272344769e-06,-0.14852317846872254
394,0.3825,847.521,-0.465007,0.242554,0.0252095,-0.169495,0.116837,0.323877,-0.161107,-0.16114,3.07586e-06,9.70236e-06,-5.12381e-06,0.319845,0.3824772519593107,3.0758647304729436e-06,9.702407067990748e-06,-0.14879901227140968,-5.123796873340858e-06,-0.1488271014405309
395,0.3835,848.158,0.581976,-0.243547,-0.0111165,0.158647,-0.128582,0.3246,-0.161462,-0.161506,2.55627e-06,1.45498e-05,-8.51318e-06,0.320566,0.3834771444300493,2.556273267284581e-06,1.4549905848815214e-05,-0.14910113499209743,-8.513143762933773e-06,-0.1491385737184998
396,0.3845,848.413,0.278066,-0.14074,0.00419282,0.0645379,-0.0737336,0.325322,-0.161824,-0.161866,2.77324e-06,1.3459e-05,-8.01674e-06,0.321287,0.3844763756073759,2.7732438454552977e-06,1.3459090572709442e-05,-0.14940910463536172,-8.016707865987627e-06,-0.14944482870275644
397,0.3855,848.728,0.0148452,0.0419641,0.00488819,-0.0203963,0.0123684,0.326044,-0.162186,-0.162225,2.79549e-06,1.22579e-05,-6.91101e-06,0.322008,0.3854763284901168,2.795493907470359e-06,1.2257975128271426e-05,-0.14971696281379154,-6.910986119046392e-06,-0.14975012320561
398,0.3865,849.09,0.128561,-0.0559481,0.00829402,0.0177961,-0.0299293,0.326766,-0.162546,-0.162587,2.86356e-06,1.28187e-05,-7.51469e-06,0.322728,0.3864770035995315,2.8635641000640533e-06,1.2818782159973452e-05,-0.150023009615449,-7.51466176474036e-06,-0.1500578579576589
399,0.3875,849.408,-0.0752935,0.0765219,0.00914418,-0.0482212,0.0313374,0.327487,-0.162907,-0.162946,2.89954e-06,1.17954e-05,-6.6707e-06,0.323447,0.38747701397954826,2.899544203627258e-06,1.1795469565978323e-05,-0.15032979593071616,-6.670677750952869e-06,-0.1503629324225091
400,0.3885,849.803,0.143595,-0.055876,0.00650846,0.0220734,-0.0311909,0.328207,-0.163266,-0.163307,2.88132e-06,1.28007e-05,-7.52979e-06,0.324166,0.3884763571499832,2.881324151049469e-06,1.2800781929334093e-05,-0.15063477278735582,-7.529761651192679e-06,-0.15066959604778984
401,0.3895,850.097,-0.119614,0.0914408,0.0115402,-0.0617805,0.0395236,0.328927,-0.163627,-0.163665,2.98015e-06,1.14996e-05,-6.54737e-06,0.324884,0.3894764201065928,2.9801544405572145e-06,1.1499666120684537e-05,-0.1509413382959759,-6.5473485659772734e-06,-0.15097360191210807
402,0.3905,850.518,0.18371,-0.0699288,0.00430553,0.0344531,-0.0389612,0.329647,-0.163985,-0.164026,2.89387e-06,1.28889e-05,-7.625e-06,0.325602,0.3904772033678099,2.8938741871709084e-06,1.2888983062175896e-05,-0.1512452468939811,-7.624970929764885e-06,-0.15128004512548987
403,0.3915,850.782,-0.167565,0.109774,0.0138074,-0.0765697,0.049311,0.330366,-0.164346,-0.164383,3.05915e-06,1.11805e-05,-6.39901e-06,0.326319,0.3914773159744285,3.059154679130316e-06,1.1180562502044467e-05,-0.1515515920612227,-6.398989526368304e-06,-0.15158298407156068
404,0.3925,851.232,0.236576,-0.0912859,0.00189306,0.0508933,-0.050216,0.331084,-0.164703,-0.164744,2.90308e-06,1.30366e-05,-7.76734e-06,0.327036,0.392476755443131,2.903084213912166e-06,1.3036684976874824e-05,-0.15185443408233967,-7.767309834316727e-06,-0.15188920733768574
405,0.3935,851.461,-0.227356,0.134906,0.0162899,-0.0951552,0.0623176,0.331802,-0.165064,-0.165101,3.14119e-06,1.08043e-05,-6.20613e-06,0.327752,0.39347691276705143,3.1411949334980704e-06,1.0804358366645062e-05,-0.15216055937269657,-6.206110741979742e-06,-0.15219192885166077
406,0.3945,851.946,0.304059,-0.120356,-0.000864262,0.0719535,-0.0652462,0.332519,-0.165419,-0.165461,2.90677e-06,1.32537e-05,-7.96179e-06,0.328468,0.39447639398470336,2.9067742246535744e-06,1.3253787830569408e-05,-0.1524614889559578,-7.961758305086164e-06,-0.15249708482590318
407,0.3955,852.134,-0.303355,0.16851,0.0192073,-0.118899,0.0794369,0.333236,-0.165781,-0.165817,3.22949e-06,1.0351e-05,-5.95674e-06,0.329184,0.39547659208736086,3.2294952148070877e-06,1.0351053571833191e-05,-0.15276824237123776,-5.956722258670943e-06,-0.1527987421655128
408,0.3965,852.662,0.390304,-0.158721,-0.00415808,0.0989028,-0.0849061,0.333953,-0.166135,-0.166178,2.90208e-06,1.35594e-05,-8.22024e-06,0.329898,0.3964775075892151,2.9020842109428457e-06,1.3559491929049372e-05,-0.1530681093338544,-8.220206213938042e-06,-0.15310452662217577
409,0.3975,852.797,-0.400306,0.212602,0.0227706,-0.149293,0.101695,0.334668,-0.166497,-0.166532,3.32721e-06,9.79817e-06,-5.63674e-06,0.330613,0.39747634604933824,3.3272155350871913e-06,9.798218002288195e-06,-0.15337464319229976,-5.636724113577962e-06,-0.15340427456123606
410,0.3985,853.38,0.500656,-0.208582,-0.00820503,0.133385,-0.110364,0.335384,-0.166849,-0.166893,2.88579e-06,1.39784e-05,-8.55882e-06,0.331326,0.3984772974109352,2.8857941638538165e-06,1.3978497698241554e-05,-0.1536726028739156,-8.558783373358025e-06,-0.15370984046015623
411,0.3995,853.45,-0.524003,0.269816,0.0272153,-0.188179,0.130403,0.336099,-0.167212,-0.167246,3.43791e-06,9.11813e-06,-5.22813e-06,0.33204,0.399477566232074,3.4379159095099254e-06,9.118171570232647e-06,-0.15397976396596125,-5.228116333300115e-06,-0.15400852816499222
412,0.4005,854.103,0.641817,-0.272792,-0.0132548,0.177459,-0.143125,0.336813,-0.167562,-0.167607,2.8542e-06,1.45415e-05,-8.99832e-06,0.332752,0.40047715002331175,2.8542040733103846e-06,1.4541605728224383e-05,-0.15427581923587874,-8.998279515282093e-06,-0.15431387596773016
413,0.4015,854.335,0.30054,-0.151769,0.00328094,0.0715907,-0.0791458,0.337527,-0.16792,-0.167963,3.08618e-06,1.33015e-05,-8.39796e-06,0.333464,0.40147744777222916,3.0861847621910243e-06,1.330158846535312e-05,-0.1545785343033621,-8.397924737280071e-06,-0.15461488664480605
414,0.4025,854.63,0.0182613,0.0389337,0.00477516,-0.0192943,0.0110836,0.33824,-0.168278,-0.168318,3.11874e-06,1.20174e-05,-7.24455e-06,0.334176,0.40247705751101504,3.118744863250811e-06,1.201747220913596e-05,-0.15488114101824757,-7.2445237583318445e-06,-0.15491494509652082
415,0.4035,854.977,0.131486,-0.0576397,0.0080113,0.018674,-0.0307273,0.338953,-0.168633,-0.168675,3.18363e-06,1.25797e-05,-7.84272e-06,0.334887,0.40347738022569035,3.183635067793844e-06,1.2579779124832768e-05,-0.155181104966435,-7.842689245918244e-06,-0.15521658661490667
416,0.4045,855.279,-0.075939,0.0753225,0.00919634,-0.0484213,0.0309185,0.339665,-0.16899,-0.16903,3.22394e-06,1.15382e-05,-6.99655e-06,0.335598,0.4044770119470742,3.223945196806355e-06,1.153826656530299e-05,-0.15548265148270624,-6.996525524161079e-06,-0.1555164315010421
417,0.4055,855.66,0.142191,-0.0556505,0.00638199,0.0216031,-0.0310094,0.340377,-0.169345,-0.169386,3.20246e-06,1.25429e-05,-7.84622e-06,0.336308,0.40547735565968224,3.202465127971621e-06,1.254297866259968e-05,-0.15578240193257697,-7.84618921845226e-06,-0.15581701414454263
418,0.4065,855.94,-0.117662,0.0891879,0.0114877,-0.0611813,0.0385452,0.341088,-0.169701,-0.16974,3.30204e-06,1.12539e-05,-6.88259e-06,0.337018,0.40647700539292453,3.3020454517362907e-06,1.12539633254638e-05,-0.1560828899074559,-6.8825663149807426e-06,-0.15611580203295894
419,0.4075,856.346,0.178041,-0.0679588,0.00435478,0.0326674,-0.0378546,0.341799,-0.170055,-0.170097,3.21651e-06,1.26119e-05,-7.92963e-06,0.337727,0.40747736612985896,3.2165151728769104e-06,1.2611979530285922e-05,-0.15638158369250954,-7.929598560552087e-06,-0.15641701492193338
420,0.4085,856.598,-0.160583,0.105458,0.0135432,-0.0744119,0.0472458,0.342509,-0.170412,-0.17045,3.37696e-06,1.09574e-05,-6.75067e-06,0.338436,0.4084770298984548,3.37696570196222e-06,1.0957460032434696e-05,-0.15668270171436627,-6.750647214226468e-06,-0.15671474716283373
421,0.4095,857.03,0.224573,-0.0866965,0.00220166,0.0471512,-0.0477286,0.343219,-0.170764,-0.170806,3.22847e-06,1.2731e-05,-8.05368e-06,0.339144,0.40947740368035124,3.228475211614068e-06,1.2731081039607517e-05,-0.15697949716429904,-8.053647569172817e-06,-0.1570149032818845
422,0.4105,857.252,-0.212667,0.127335,0.0157106,-0.0906001,0.0585594,0.343928,-0.171121,-0.171159,3.45339e-06,1.06162e-05,-6.58264e-06,0.339852,0.41047707750205387,3.4533959629712285e-06,1.061625635201402e-05,-0.1572804017691436,-6.582618334527446e-06,-0.15731242450544058
423,0.4115,857.713,0.282619,-0.111772,-0.000182371,0.0652907,-0.0606694,0.344637,-0.171472,-0.171515,3.23661e-06,1.29052e-05,-8.21995e-06,0.340559,0.41147746034381427,3.2366152378227042e-06,1.2905283272468537e-05,-0.1575761444422472,-8.219916216356538e-06,-0.1576123678892265
424,0.4125,857.899,-0.277325,0.156013,0.0181799,-0.110804,0.0731451,0.345345,-0.171829,-0.171866,3.53409e-06,1.02147e-05,-6.36977e-06,0.341266,0.41247714023065885,3.5340962449836866e-06,1.0214752170334407e-05,-0.15787683608203007,-6.3697497130199565e-06,-0.15790799406266887
425,0.4135,858.397,0.355109,-0.144206,-0.0029496,0.0879776,-0.0772439,0.346053,-0.172179,-0.172222,3.23864e-06,1.31482e-05,-8.43635e-06,0.341972,0.4134775281414744,3.2386452444299607e-06,1.3148286438058321e-05,-0.15817152761537467,-8.436314414050905e-06,-0.15820772546142803
426,0.4145,858.54,-0.357952,0.192857,0.0211151,-0.136087,0.091708,0.34676,-0.172536,-0.172573,3.62154e-06,9.73709e-06,-6.10242e-06,0.342678,0.414477210099802,3.6215465577527084e-06,9.737137405707585e-06,-0.15847200674130069,-6.102401380325695e-06,-0.1585031427010325
427,0.4155,859.082,0.445767,-0.185474,-0.00626175,0.116355,-0.0982441,0.347467,-0.172885,-0.172929,3.23215e-06,1.34771e-05,-8.71379e-06,0.343382,0.41547759908317783,3.232155223464872e-06,1.3477190816457707e-05,-0.15876564876743393,-8.71375203503888e-06,-0.15880266226458528
428,0.4165,859.172,-0.458543,0.239632,0.0246865,-0.167714,0.115134,0.348173,-0.173243,-0.173278,3.7183e-06,9.16414e-06,-5.76844e-06,0.344088,0.41647727911365817,3.718306912814384e-06,9.164181990817255e-06,-0.15906675676362803,-5.768423362528807e-06,-0.15909618891207566
429,0.4175,859.77,0.55913,-0.237483,-0.0102946,0.151819,-0.124678,0.348878,-0.173589,-0.173635,3.21452e-06,1.3913e-05,-9.06616e-06,0.344791,0.41747624769048075,3.214525166495008e-06,1.3913096786222212e-05,-0.15935766933501072,-9.066118902500975e-06,-0.15939633799283537
430,0.4185,859.999,0.253635,-0.129622,0.00462003,0.0569642,-0.0678142,0.349584,-0.173943,-0.173986,3.42908e-06,1.27733e-05,-8.52311e-06,0.345495,0.41847733926509423,3.4290858792473955e-06,1.2773381578901066e-05,-0.1596552040533138,-8.523073678379234e-06,-0.1596913381026519
431,0.4195,860.293,0.0248552,0.0328021,0.004743,-0.0170435,0.0084195,0.350288,-0.174296,-0.174337,3.44278e-06,1.17187e-05,-7.55135e-06,0.346198,0.4194762989044716,3.442785926344172e-06,1.1718768664126245e-05,-0.15995179341518084,-7.551321488663554e-06,-0.15998623468559992
432,0.4205,860.621,0.10608,-0.0452833,0.00850804,0.0107013,-0.0246117,0.350993,-0.174648,-0.17469,3.51608e-06,1.21228e-05,-8.02362e-06,0.346901,0.42047738253571576,3.516086181321043e-06,1.2122873481512642e-05,-0.1602474383473379,-8.023587810823685e-06,-0.16028270721427595
433,0.4215,860.921,-0.0526577,0.0621057,0.00849634,-0.0409643,0.0245671,0.351696,-0.175,-0.17504,3.53793e-06,1.13079e-05,-7.34994e-06,0.347604,0.4214763292242587,3.5379362584020413e-06,1.130796393455924e-05,-0.16054297923079264,-7.349912989229601e-06,-0.16057655684006678
434,0.4225,861.275,0.111266,-0.0410341,0.00712394,0.0119353,-0.0236712,0.3524,-0.17535,-0.175393,3.53757e-06,1.20581e-05,-8.0095e-06,0.348305,0.42247740089591534,3.5375762572620317e-06,1.2058172699225267e-05,-0.16083673777731744,-8.009467924008362e-06,-0.16087282102179767
435,0.4235,861.558,-0.0834882,0.0713584,0.0103387,-0.0503283,0.0298179,0.353102,-0.175703,-0.175743,3.60824e-06,1.10736e-05,-7.26935e-06,0.349007,0.4234763306146525,3.60824650980085e-06,1.1073661312588357e-05,-0.1611329101313861,-7.26932357830723e-06,-0.16116646414389613
436,0.4245,861.931,0.13606,-0.0486074,0.00553848,0.0195637,-0.0280599,0.353805,-0.176052,-0.176095,3.55689e-06,1.20761e-05,-8.05974e-06,0.349707,0.42447738630492204,3.5568963256960018e-06,1.2076172916319905e-05,-0.1614256236642676,-8.059707520380321e-06,-0.1614616815871992
437,0.4255,862.194,-0.113261,0.0818882,0.0118726,-0.0594491,0.035576,0.354506,-0.176404,-0.176444,3.67414e-06,1.08386e-05,-7.17914e-06,0.350408,0.42547629502932427,3.674146749732543e-06,1.0838658737855056e-05,-0.16172074989947316,-7.1791142299826305e-06,-0.16175428039886275
438,0.4265,862.585,0.167595,-0.060782,0.00396084,0.0293804,-0.0345524,0.355208,-0.176753,-0.176796,3.5761e-06,1.2126e-05,-8.138e-06,0.351107,0.4264773307108496,3.576106394342915e-06,1.2126073520191127e-05,-0.16201325831207125,-8.137966886589965e-06,-0.16204929096725618
439,0.4275,862.826,-0.148203,0.096091,0.0133855,-0.0702646,0.0429905,0.355909,-0.177105,-0.177144,3.73953e-06,1.05779e-05,-7.06606e-06,0.351807,0.4274776418877826,3.7395369920645294e-06,1.0577955946278195e-05,-0.1623081777362816,-7.066035035419027e-06,-0.1623408470802935
440,0.4285,863.237,0.205896,-0.0770741,0.00230971,0.041369,-0.042987,0.356609,-0.177453,-0.177496,3.59384e-06,1.2209e-05,-8.24293e-06,0.352505,0.4284772260507448,3.593846457761174e-06,1.2209074530034059e-05,-0.16259964377239766,-8.242896027188529e-06,-0.16263565121354984
441,0.4295,863.454,-0.190445,0.114554,0.0150218,-0.0834264,0.0524183,0.357309,-0.177805,-0.177844,3.80651e-06,1.0282e-05,-6.9255e-06,0.353204,0.4294775101675763,3.8065172447421247e-06,1.0282052860022262e-05,-0.16289435682524944,-6.925476018770915e-06,-0.16292700330872267
442,0.4305,863.888,0.252537,-0.0978919,0.0004786,0.0560025,-0.0536154,0.358008,-0.178151,-0.178195,3.6085e-06,1.23323e-05,-8.37809e-06,0.353902,0.4304770642506368,3.6085065107105407e-06,1.2332376043033833e-05,-0.16318394527609692,-8.37805490394583e-06,-0.16322076437247868
443,0.4315,864.076,-0.241863,0.13791,0.0168906,-0.0995151,0.0642075,0.358707,-0.178503,-0.178542,3.87671e-06,9.94219e-06,-6.75272e-06,0.354599,0.43147731726625005,3.876717514339489e-06,9.942239423743615e-06,-0.1634784526910138,-6.752697200407276e-06,-0.16351107639519247
444,0.4325,864.538,0.30949,-0.123933,-0.00163404,0.073884,-0.0668246,0.359405,-0.178849,-0.178893,3.61857e-06,1.25051e-05,-8.5488e-06,0.355296,0.4324768372255867,3.618576547070873e-06,1.250517818918162e-05,-0.16376783907965042,-8.548763459126363e-06,-0.1638046324852701
445,0.4335,864.693,-0.304559,0.167007,0.0190932,-0.11919,0.0787959,0.360103,-0.179201,-0.179239,3.95167e-06,9.54848e-06,-6.54172e-06,0.355992,0.43347705509339685,3.951677807867426e-06,9.548525586877687e-06,-0.16406214100011762,-6.5416986030353286e-06,-0.16409390603522012
446,0.4345,865.189,0.379074,-0.156127,-0.00412849,0.095727,-0.0831092,0.3608,-0.179546,-0.17959,3.62256e-06,1.2738e-05,-8.76186e-06,0.356688,0.43447653687973653,3.6225665613898173e-06,1.2738081128560452e-05,-0.16435048981844136,-8.761821615022036e-06,-0.16438725758799244
447,0.4355,865.304,-0.380975,0.202929,0.0217329,-0.143224,0.0967269,0.361497,-0.179898,-0.179935,4.03295e-06,9.08912e-06,-6.28508e-06,0.357384,0.43547671554771616,4.032958132338393e-06,9.089161306263804e-06,-0.1646445866819407,-6.2850602489117335e-06,-0.1646754942604397
448,0.4365,865.841,0.46402,-0.195636,-0.00710998,0.122374,-0.103079,0.362194,-0.180241,-0.180287,3.61887e-06,1.30439e-05,-9.02564e-06,0.358078,0.43647759158323174,3.618876548205918e-06,1.304398507206983e-05,-0.16493106445496208,-9.025599269074647e-06,-0.16496947674250773
449,0.4375,865.907,-0.473977,0.247023,0.0249211,-0.17253,0.118662,0.362889,-0.180594,-0.18063,4.12227e-06,8.55022e-06,-5.97377e-06,0.358773,0.43747629051706194,4.1222784965544434e-06,8.550256553219171e-06,-0.16522579176677843,-5.973752157051315e-06,-0.16525584309734764
450,0.4385,866.495,0.567565,-0.243874,-0.0106941,0.154821,-0.127474,0.363585,-0.180936,-0.180982,3.6058e-06,1.34379e-05,-9.35029e-06,0.359467,0.43847712226430824,3.6058065009392237e-06,1.3437990288966972e-05,-0.16551123573229387,-9.350246286121688e-06,-0.16554962133257456
451,0.4395,866.707,0.250128,-0.128251,0.00440099,0.0560948,-0.0669621,0.36428,-0.181284,-0.181328,3.82339e-06,1.22316e-05,-8.75602e-06,0.36016,0.4394772113549852,3.82339730919945e-06,1.2231674806351123e-05,-0.1658015872981563,-8.755981666164203e-06,-0.16583829122082294
452,0.4405,866.987,0.0298132,0.0281724,0.00453001,-0.0151923,0.00643132,0.364974,-0.181632,-0.181674,3.83634e-06,1.12129e-05,-7.82492e-06,0.360854,0.4404765552718948,3.836347358676662e-06,1.1212962864881604e-05,-0.1660918378392532,-7.82488938544379e-06,-0.16612686124656728
453,0.4415,867.297,0.0980944,-0.0415644,0.00837023,0.0083573,-0.0227615,0.365668,-0.181979,-0.182021,3.91024e-06,1.15555e-05,-8.24355e-06,0.361546,0.44147659297419817,3.9102476450114665e-06,1.1555566765020231e-05,-0.16638115377230556,-8.24351602202178e-06,-0.16641616502860557
454,0.4425,867.585,-0.044356,0.0561741,0.00814265,-0.0380948,0.0218358,0.366362,-0.182326,-0.182367,3.92776e-06,1.08165e-05,-7.63489e-06,0.362238,0.4424773249435501,3.927767713740593e-06,1.0816558498438766e-05,-0.16667036933014523,-7.634860854310865e-06,-0.16670453514459882
455,0.4435,867.92,0.0988976,-0.0354558,0.00716652,0.00823343,-0.020846,0.367055,-0.182671,-0.182714,3.93244e-06,1.14714e-05,-8.21711e-06,0.36293,0.4434773081839085,3.932447732113431e-06,1.1471465796830671e-05,-0.16695781846489954,-8.217076239658283e-06,-0.16699363850856908
456,0.4445,868.194,-0.0701237,0.0633385,0.00977171,-0.0458868,0.0259998,0.367747,-0.183018,-0.183059,3.99306e-06,1.06064e-05,-7.57057e-06,0.363621,0.44447654017556637,3.993067972274389e-06,1.0606456247952423e-05,-0.16724683395480466,-7.570541343260295e-06,-0.16728097613469306
457,0.4455,868.544,0.117798,-0.0405627,0.00582544,0.0140335,-0.0239451,0.368439,-0.183363,-0.183406,3.95342e-06,1.14635e-05,-8.25069e-06,0.364312,0.44547646387506545,3.95342781467356e-06,1.1463565706248957e-05,-0.1675340842435663,-8.250655963104592e-06,-0.16756987950834012
458,0.4465,868.802,-0.0930756,0.0709741,0.0110244,-0.0528822,0.030259,0.369131,-0.18371,-0.18375,4.05291e-06,1.04042e-05,-7.50233e-06,0.365002,0.44647707976123385,4.0529182130377706e-06,1.0404254123796974e-05,-0.16782289980393605,-7.502301857642557e-06,-0.1678561862222111
459,0.4475,869.165,0.141447,-0.049354,0.00456253,0.0213987,-0.0286845,0.369822,-0.184053,-0.184097,3.97535e-06,1.14783e-05,-8.30586e-06,0.365691,0.44747694083556544,3.975357901753185e-06,1.147836587600537e-05,-0.16810828760249785,-8.305825506482734e-06,-0.16814489003258404
460,0.4485,869.407,-0.118967,0.0812147,0.0121805,-0.0608684,0.0356441,0.370513,-0.1844,-0.184441,4.11109e-06,1.01868e-05,-7.41854e-06,0.366381,0.4484774930526616,4.111098450554351e-06,1.0186851885585213e-05,-0.16839690394886775,-7.418512482648687e-06,-0.16843099897685299
461,0.4495,869.785,0.169311,-0.0610599,0.00331047,0.030137,-0.0347598,0.371203,-0.184743,-0.184787,3.99709e-06,1.15142e-05,-8.37932e-06,0.367069,0.44947728741225523,3.9970979883729996e-06,1.1514266288648045e-05,-0.16868209489776953,-8.379284893611505e-06,-0.1687186720808901
462,0.4505,870.008,-0.149304,0.0943359,0.013365,-0.0702989,0.0423592,0.371892,-0.18509,-0.18513,4.16943e-06,9.94777e-06,-7.31668e-06,0.367758,0.45047632139096616,4.169438692080973e-06,9.947819479272368e-06,-0.16897051216754966,-7.3166532331692125e-06,-0.1690037526822482
463,0.4515,870.403,0.202255,-0.0757535,0.00198548,0.0404998,-0.0422532,0.372582,-0.185432,-0.185476,4.01736e-06,1.15751e-05,-8.4723e-06,0.368445,0.4514774954180436,4.0173680695421154e-06,1.1575166991795172e-05,-0.16925467565766183,-8.472264110159777e-06,-0.16929122764778315
464,0.4525,870.606,-0.185181,0.110594,0.0146599,-0.0815061,0.0505659,0.37327,-0.185778,-0.185818,4.22915e-06,9.68206e-06,-7.19456e-06,0.369133,0.45247645553776805,4.229158942825606e-06,9.682106871355955e-06,-0.16954206381886527,-7.194534119236984e-06,-0.169575281471955
465,0.4535,871.02,0.241356,-0.0937263,0.000516387,0.0528128,-0.0513428,0.373959,-0.186119,-0.186164,4.0351e-06,1.1666e-05,-8.58723e-06,0.36982,0.45347755665536504,4.03510814095398e-06,1.166606804803294e-05,-0.16982520169735116,-8.58719312979428e-06,-0.16986255872273537
466,0.4545,871.199,-0.22773,0.13037,0.0161319,-0.0948404,0.0604732,0.374646,-0.186466,-0.186505,4.29127e-06,9.38436e-06,-7.04933e-06,0.370506,0.45447643881352184,4.291279207535581e-06,9.384404033196958e-06,-0.17011322237788407,-7.049305153494778e-06,-0.17014558733109064
467,0.4555,871.635,0.287821,-0.115407,-0.00115901,0.0674456,-0.0622656,0.375334,-0.186806,-0.186851,4.04939e-06,1.17925e-05,-8.72737e-06,0.371192,0.45547746291623104,4.049398198757714e-06,1.1792569531765551e-05,-0.17039533592025569,-8.727331916591474e-06,-0.17043266729017714
468,0.4565,871.788,-0.278202,0.154171,0.0178416,-0.110695,0.0723423,0.37602,-0.187153,-0.187191,4.35671e-06,9.04866e-06,-6.87742e-06,0.371878,0.45647626300505295,4.356719490505867e-06,9.048700939207066e-06,-0.1706831587985339,-6.877396350635223e-06,-0.17071467223974046
469,0.4575,872.251,0.343012,-0.141346,-0.00309935,0.0848173,-0.0753129,0.376707,-0.187492,-0.187537,4.05933e-06,1.1961e-05,-8.8967e-06,0.372562,0.45747720598228225,4.059338239104093e-06,1.1961071533006518e-05,-0.17096424956012524,-8.896660424473346e-06,-0.1710015553295089
470,0.4585,872.372,-0.338005,0.182625,0.0198479,-0.129515,0.0864878,0.377393,-0.187838,-0.187877,4.42636e-06,8.66814e-06,-6.67456e-06,0.373247,0.4584773783654903,4.426369796250995e-06,8.668177568393887e-06,-0.17125104631107835,-6.674537725182006e-06,-0.17128336689001677
471,0.4595,872.867,0.408475,-0.172206,-0.00536372,0.105406,-0.0908317,0.378078,-0.188177,-0.188222,4.06404e-06,1.21788e-05,-9.09999e-06,0.373931,0.4594767776248385,4.064048258145547e-06,1.2178874161827835e-05,-0.17153194459143029,-9.09994859521479e-06,-0.17156922481511228
472,0.4605,872.951,-0.408735,0.21649,0.0222122,-0.151811,0.10328,0.378763,-0.188524,-0.188561,4.50119e-06,8.23501e-06,-6.4357e-06,0.374615,0.46047686170720437,4.5012001304023386e-06,8.235043907678374e-06,-0.17181937313492068,-6.435679290928142e-06,-0.171850015251232
473,0.4615,873.483,0.485978,-0.208769,-0.00801463,0.129757,-0.109228,0.379448,-0.18886,-0.188907,4.06259e-06,1.24542e-05,-9.34278e-06,0.375297,0.46147763108185247,4.062598252252414e-06,1.2454277553919368e-05,-0.1720975950816428,-9.342736356332537e-06,-0.17213650558027005
474,0.4625,873.523,-0.492203,0.256652,0.025001,-0.178164,0.123147,0.380132,-0.189208,-0.189244,4.58221e-06,7.74034e-06,-6.15502e-06,0.37598,0.4624776237400139,4.582220498372536e-06,7.740369956543702e-06,-0.17238565499322256,-6.155001057939202e-06,-0.17241544857335522
475,0.4635,874.1,0.577548,-0.251942,-0.0111202,0.158494,-0.130974,0.380815,-0.189543,-0.18959,4.05395e-06,1.27966e-05,-9.63154e-06,0.376662,0.4634768371495641,4.053958217342668e-06,1.2796681876814375e-05,-0.17266285936447523,-9.631493616879538e-06,-0.1727017432963056
476,0.4645,874.293,0.24618,-0.126822,0.00410468,0.0552305,-0.0660494,0.381498,-0.189886,-0.189931,4.274e-06,1.15115e-05,-8.97598e-06,0.377344,0.46447673325498706,4.274009133498069e-06,1.1511566257560446e-05,-0.17294658734158352,-8.975939716049375e-06,-0.17298380390777413
477,0.4655,874.557,0.0353653,0.0229159,0.00422931,-0.0130037,0.00417628,0.382181,-0.190228,-0.190271,4.28582e-06,1.05332e-05,-8.09007e-06,0.378025,0.4654773125227236,4.285829184214052e-06,1.0533255474287628e-05,-0.1732293912464884,-8.090037275421125e-06,-0.1732649416183264
478,0.4665,874.849,0.0893623,-0.0374855,0.00813685,0.00590617,-0.0207407,0.382863,-0.190568,-0.190612,4.36e-06,1.08078e-05,-8.44927e-06,0.378706,0.4664771089416906,4.360009504766893e-06,1.0807858404460191e-05,-0.17351044547153882,-8.449234304985787e-06,-0.173546810211908
479,0.4675,875.123,-0.0355132,0.04974,0.00768721,-0.0349104,0.0188826,0.383545,-0.19091,-0.190952,4.37279e-06,1.01513e-05,-7.91088e-06,0.379387,0.46747758745438284,4.37279956067016e-06,1.0151351524712027e-05,-0.17379305656993516,-7.910848709102858e-06,-0.17382775653285498
480,0.4685,875.438,0.0858675,-0.0295682,0.00711493,0.0044504,-0.0178746,0.384226,-0.191249,-0.191293,4.38238e-06,1.07052e-05,-8.41102e-06,0.380066,0.4684772800481325,4.382389602541892e-06,1.0705257300847038e-05,-0.1740730932548581,-8.41098462744938e-06,-0.1741094332392693
481,0.4695,875.701,-0.0564208,0.0549375,0.00910464,-0.0411948,0.0220191,0.384907,-0.19159,-0.191632,4.43252e-06,9.96546e-06,-7.86205e-06,0.380746,0.4694776536644003,4.432529823628073e-06,9.965509655263105e-06,-0.1743546863157126,-7.862019094195816e-06,-0.1743893626906784
482,0.4705,876.027,0.0992261,-0.0323744,0.00600927,0.00853006,-0.0197698,0.385587,-0.191929,-0.191973,4.40431e-06,1.06736e-05,-8.42927e-06,0.381425,0.47047723828914734,4.40431969894739e-06,1.0673656963167133e-05,-0.1746345326404195,-8.429234473750213e-06,-0.17467084792204124
483,0.4715,876.279,-0.0730716,0.0599179,0.0100933,-0.0462269,0.0249018,0.386267,-0.19227,-0.192312,4.48597e-06,9.79452e-06,-7.81411e-06,0.382103,0.4714775028625955,4.4859800620855594e-06,9.794567966459056e-06,-0.17491593428308227,-7.814079469925517e-06,-0.17495058708612843
484,0.4725,876.615,0.11573,-0.0381031,0.00503507,0.013672,-0.0229246,0.386946,-0.192608,-0.192652,4.42801e-06,1.06573e-05,-8.46388e-06,0.382781,0.47247697536955546,4.428019803714989e-06,1.0657356789289807e-05,-0.1751947655721522,-8.463844181516578e-06,-0.1752310562040672
485,0.4735,876.854,-0.0909021,0.0666305,0.0109301,-0.0516924,0.0284817,0.387625,-0.192948,-0.19299,4.53691e-06,9.6168e-06,-7.75651e-06,0.383459,0.4734771267487987,4.5369202918976725e-06,9.61684624156689e-06,-0.17547515168351768,-7.75647991835271e-06,-0.1755097809999262
486,0.4745,877.2,0.134475,-0.0457814,0.00413283,0.0195655,-0.0269346,0.388303,-0.193286,-0.19333,4.45246e-06,1.06526e-05,-8.51014e-06,0.384136,0.47447648298421585,4.452469912319401e-06,1.0652656739162936e-05,-0.17575379398904623,-8.510103788883505e-06,-0.17579006002425202
487,0.4755,877.426,-0.111001,0.0751414,0.0117271,-0.0579123,0.0328595,0.388981,-0.193626,-0.193668,4.58697e-06,9.42783e-06,-7.68815e-06,0.384813,0.4754765170129065,4.586980520082662e-06,9.427874442025086e-06,-0.1760339900630581,-7.688120446269764e-06,-0.17606859590874757
488,0.4765,877.783,0.155854,-0.0552609,0.00323359,0.0263158,-0.0317706,0.389659,-0.193963,-0.194007,4.47661e-06,1.06615e-05,-8.56776e-06,0.385489,0.4764772292945705,4.476620020010813e-06,1.0661556834046237e-05,-0.1763116198251644,-8.567723296826202e-06,-0.17634786131657354
489,0.4775,877.996,-0.133954,0.0854636,0.012549,-0.0650578,0.0380764,0.390336,-0.194303,-0.194344,4.63712e-06,9.22505e-06,-7.60846e-06,0.386165,0.4774771428113376,4.637130751383722e-06,9.225092550968483e-06,-0.17659162627063074,-7.60843105573894e-06,-0.17662538532188843
490,0.4785,878.364,0.180381,-0.0665751,0.00228585,0.0340723,-0.0374786,0.391012,-0.194639,-0.194684,4.49967e-06,1.06861e-05,-8.63737e-06,0.38684,0.4784762550217576,4.499680123615235e-06,1.0686157096539972e-05,-0.17686824500965326,-8.637332698069322e-06,-0.1769052851052194
491,0.4795,878.562,-0.160286,0.097689,0.0134405,-0.0732867,0.0441988,0.391689,-0.194979,-0.19502,4.68804e-06,9.00603e-06,-7.51655e-06,0.387515,0.479477522337151,4.688050988965742e-06,9.006070554429257e-06,-0.17714806223472612,-7.516521750794425e-06,-0.17718179847257687
492,0.4805,878.944,0.208582,-0.0798468,0.00125116,0.0429936,-0.044138,0.392364,-0.195315,-0.195359,4.52109e-06,1.07289e-05,-8.72006e-06,0.388189,0.4804765067840493,4.52110022020058e-06,1.0728957554828611e-05,-0.1774244940426708,-8.720021980379578e-06,-0.17746068656869152
493,0.4815,879.126,-0.190527,0.111979,0.0144358,-0.0827625,0.0513182,0.39304,-0.195654,-0.195695,4.74025e-06,8.76827e-06,-7.41118e-06,0.388863,0.481477647249988,4.740261235092191e-06,8.768308441320372e-06,-0.17770329987893108,-7.4111525373288245e-06,-0.17773701335250514
494,0.4825,879.522,0.241012,-0.09526,9.87055e-05,0.0532488,-0.0518528,0.393714,-0.195989,-0.196034,4.54038e-06,1.07925e-05,-8.81726e-06,0.389536,0.4824764997597175,4.540390307505859e-06,1.0792558239325345e-05,-0.17797872313750007,-8.81722112811012e-06,-0.17801571326267485
495,0.4835,879.685,-0.225235,0.12855,0.0155637,-0.0936601,0.0595476,0.394389,-0.196328,-0.196369,4.79419e-06,8.50906e-06,-7.2908e-06,0.39021,0.4834775091997341,4.794201492241967e-06,8.509096202091726e-06,-0.1782573411219398,-7.2907734222082965e-06,-0.1782910318802885
496,0.4845,880.1,0.278261,-0.113047,-0.00119835,0.0650199,-0.0607469,0.395062,-0.196662,-0.196707,4.55715e-06,1.08796e-05,-8.93064e-06,0.390882,0.48447622559379666,4.557160383722447e-06,1.0879659183116175e-05,-0.17853175733994564,-8.930600121970222e-06,-0.17856872257914125
497,0.4855,880.241,-0.265009,0.147666,0.01685,-0.106169,0.0690188,0.395736,-0.197002,-0.197041,4.85026e-06,8.22548e-06,-7.15364e-06,0.391554,0.48547709982657383,4.8502717624465674e-06,8.225513829396291e-06,-0.17881100906696634,-7.153614412724885e-06,-0.1788430348131066
498,0.4865,880.676,0.320971,-0.133483,-0.00266514,0.0785051,-0.0709632,0.396409,-0.197335,-0.19738,4.57102e-06,1.09934e-05,-9.06216e-06,0.392226,0.48647716239806593,4.5710304470425456e-06,1.0993460427544122e-05,-0.1790844194755875,-9.062118938807373e-06,-0.17912135984554656
499,0.4875,880.794,-0.310497,0.169629,0.0183201,-0.120495,0.0798813,0.397081,-0.197674,-0.197713,4.90886e-06,7.91434e-06,-6.99767e-06,0.392897,0.48747641076104364,4.908872048403623e-06,7.914371318529234e-06,-0.17936266269249534,-6.997645516371165e-06,-0.17939466692456374
500,0.4885,881.252,0.369839,-0.156876,-0.00432661,0.0939207,-0.082662,0.397753,-0.198006,-0.198052,4.58161e-06,1.11372e-05,-9.214e-06,0.393568,0.4884763308445943,4.581620495658356e-06,1.1137262018845462e-05,-0.17963506906652116,-9.213957551268415e-06,-0.17967280498541138
501,0.4895,881.342,-0.362401,0.194784,0.0199995,-0.136864,0.0923016,0.398425,-0.198346,-0.198384,4.97039e-06,7.57216e-06,-6.82063e-06,0.394238,0.48947692310026536,4.970402352366676e-06,7.572188668980573e-06,-0.17991394573131902,-6.82060673951046e-06,-0.17994510840928657
502,0.4905,881.827,0.425628,-0.183573,-0.00620837,0.111502,-0.0960215,0.399096,-0.198677,-0.198723,4.58853e-06,1.13145e-05,-9.38861e-06,0.394908,0.4904766975024659,4.588540527317164e-06,1.1314564009268224e-05,-0.1801853492955141,-9.388565927137549e-06,-0.18022305990209597
503,0.4915,881.886,-0.421484,0.223513,0.0219151,-0.155521,0.106463,0.399767,-0.199017,-0.199055,5.03528e-06,7.19512e-06,-6.62004e-06,0.395578,0.4914771429784104,5.035292677035841e-06,7.1951458848751315e-06,-0.1804640388968367,-6.6200180875997106e-06,-0.18049518067166126
504,0.4925,882.402,0.489171,-0.213954,-0.00833736,0.131507,-0.111238,0.400437,-0.199346,-0.199393,4.59138e-06,1.15293e-05,-9.58865e-06,0.396246,0.49247676750102687,4.591390540431561e-06,1.1529366462648127e-05,-0.18073362187920738,-9.588604028998304e-06,-0.18077212649411356
505,0.4935,882.427,-0.488569,0.256239,0.0240951,-0.176733,0.122567,0.401107,-0.199686,-0.199724,5.10396e-06,6.77909e-06,-6.39321e-06,0.396915,0.4934770619964892,5.103973025333275e-06,6.779112978083646e-06,-0.18101212509953812,-6.39318956352497e-06,-0.18104324604748256
506,0.4945,882.977,0.561374,-0.248435,-0.0107422,0.154214,-0.128526,0.401776,-0.200015,-0.200063,4.58974e-06,1.17859e-05,-9.81706e-06,0.397583,0.4944765324365501,4.589750532968395e-06,1.1785969453947942e-05,-0.18128152779120754,-9.81701181279604e-06,-0.18132082533472493
507,0.4955,883.153,0.229313,-0.119102,0.00404295,0.0505163,-0.0619758,0.402445,-0.200351,-0.200396,4.80539e-06,1.04649e-05,-9.12728e-06,0.398251,0.49547667174604704,4.8054015460152755e-06,1.0464954757205547e-05,-0.18155657098802502,-9.12723834645135e-06,-0.18159340011366898
508,0.4965,883.404,0.0411165,0.0168931,0.003834,-0.0105079,0.00162088,0.403114,-0.200686,-0.200729,4.81122e-06,9.58436e-06,-8.33016e-06,0.398918,0.49647748037260375,4.811231574031183e-06,9.584405930018747e-06,-0.18183070361696496,-8.33012530432331e-06,-0.1818658841403228
509,0.4975,883.673,0.0757542,-0.0309424,0.00785301,0.00211907,-0.0175283,0.403782,-0.201019,-0.201063,4.88626e-06,9.76422e-06,-8.60867e-06,0.399585,0.4974774612859332,4.886271937731834e-06,9.76426767018701e-06,-0.1821031086347079,-8.608632945494854e-06,-0.1821390953062153
510,0.4985,883.935,-0.0232551,0.0412103,0.00699827,-0.0304122,0.0149399,0.404449,-0.201353,-0.201396,4.89106e-06,9.23085e-06,-8.16981e-06,0.400251,0.49847661193230897,4.891071961221627e-06,9.230892604517038e-06,-0.18237624058084978,-8.169776627209302e-06,-0.1824113976466224
511,0.4995,884.225,0.0685642,-0.0215731,0.00700888,-0.000474245,-0.0138744,0.405116,-0.201686,-0.20173,4.90795e-06,9.64623e-06,-8.56056e-06,0.400917,0.49947642923447066,4.907962044109482e-06,9.646276525110409e-06,-0.18264846396502732,-8.560523358513983e-06,-0.18268442664142814
512,0.5005,884.479,-0.0387926,0.0442832,0.00817181,-0.0350313,0.016963,0.405783,-0.20202,-0.202062,4.94388e-06,9.07265e-06,-8.13754e-06,0.401582,0.5004769136372265,4.943892220943269e-06,9.072691156575274e-06,-0.18292141379290427,-8.137506890326662e-06,-0.18295573037287172
513,0.5015,884.777,0.0764151,-0.0221308,0.00614698,0.00189503,-0.0145895,0.406449,-0.202352,-0.202396,4.9301e-06,9.59206e-06,-8.56401e-06,0.402247,0.5014765641083656,4.9301121529676806e-06,9.592106003930567e-06,-0.183192638857673,-8.563973328934438e-06,-0.18322857759090538
514,0.5025,885.022,-0.0492072,0.0466623,0.00889299,-0.0381204,0.0184953,0.407115,-0.202685,-0.202728,4.98997e-06,8.93411e-06,-8.10958e-06,0.402912,0.5024768805684683,4.989982449910002e-06,8.934149909212152e-06,-0.18346459042648422,-8.10954711749634e-06,-0.18349970069421961
515,0.5035,885.327,0.0860883,-0.0249369,0.00545389,0.0049083,-0.0162346,0.40778,-0.203017,-0.203061,4.9546e-06,9.54689e-06,-8.57932e-06,0.403576,0.503476359984119,4.954612274010728e-06,9.546935571647097e-06,-0.1837356351865428,-8.579283197751586e-06,-0.18377155002846224
516,0.5045,885.564,-0.0595046,0.0500778,0.00942933,-0.0412289,0.0203908,0.408445,-0.20335,-0.203392,5.03302e-06,8.79513e-06,-8.07654e-06,0.40424,0.5044765042746278,5.033032665746617e-06,8.795168677355747e-06,-0.18400740596767917,-8.07650738487986e-06,-0.18404167693693319
517,0.5055,885.874,0.0965334,-0.0289285,0.00487127,0.00820796,-0.0183617,0.40911,-0.203681,-0.203725,4.98046e-06,9.50639e-06,-8.60117e-06,0.404903,0.505477313882283,4.980472402493774e-06,9.506435185935302e-06,-0.1842774548207532,-8.601133010044393e-06,-0.1843133458231332
518,0.5065,886.103,-0.0704978,0.0544664,0.0098837,-0.0445909,0.0226844,0.409774,-0.204014,-0.204056,5.07456e-06,8.65253e-06,-8.03818e-06,0.405566,0.506477282771632,5.074572875685135e-06,8.652567433209413e-06,-0.18454904520598903,-8.038147693900655e-06,-0.18458329342687263
519,0.5075,886.419,0.107884,-0.0338385,0.00433942,0.0118178,-0.0208809,0.410437,-0.204344,-0.204388,5.00676e-06,9.47106e-06,-8.62841e-06,0.406228,0.5074764083836512,5.006772533899806e-06,9.471104850611312e-06,-0.18481809962465023,-8.628372775376647e-06,-0.18485396683918232
520,0.5085,886.641,-0.0824804,0.0597098,0.0103091,-0.0482858,0.0253512,0.4111,-0.204677,-0.204719,5.11536e-06,8.50513e-06,-7.99485e-06,0.40689,0.5084761966355922,5.115373083564023e-06,8.50516616868191e-06,-0.18508951000513885,-7.994818041257012e-06,-0.1851237355269777
521,0.5095,886.962,0.120339,-0.0395648,0.00381895,0.0157901,-0.0237684,0.411763,-0.205006,-0.205051,5.03292e-06,9.44169e-06,-8.66075e-06,0.407551,0.5094766479669306,5.0329326650722095e-06,9.441734572845917e-06,-0.18535757145782028,-8.660712495833778e-06,-0.18539422954229157
522,0.5105,887.176,-0.0956469,0.0657511,0.0107372,-0.0523672,0.028383,0.412425,-0.205339,-0.205381,5.15592e-06,8.3521e-06,-7.94668e-06,0.408212,0.5104762523404263,5.155933291867143e-06,8.352134878819584e-06,-0.18562880222409583,-7.946648425183334e-06,-0.1856630050961371
523,0.5115,887.503,0.13407,-0.0460742,0.00328499,0.0201727,-0.027023,0.413087,-0.205668,-0.205712,5.05855e-06,9.41904e-06,-8.69815e-06,0.408873,0.511476518671101,5.058562794424404e-06,9.419084359363339e-06,-0.18589668627882083,-8.69811217119043e-06,-0.18593250603658407
524,0.5125,887.709,-0.110157,0.0725802,0.0111881,-0.0568811,0.0317858,0.413749,-0.206,-0.206042,5.19653e-06,8.19273e-06,-7.89356e-06,0.409533,0.5124774473973155,5.196543501950757e-06,8.192763560455063e-06,-0.18616692371707932,-7.893528845892561e-06,-0.18620110398849243
525,0.5135,888.043,0.149227,-0.0533717,0.00272143,0.0250095,-0.0306564,0.41441,-0.206329,-0.206373,5.08342e-06,9.40378e-06,-8.74079e-06,0.410193,0.5134775254794384,5.083432920605091e-06,9.403824215770129e-06,-0.18643463075895328,-8.740751799352076e-06,-0.18647042684768012
526,0.5145,888.239,-0.126152,0.080216,0.0116749,-0.0618701,0.0355754,0.41507,-0.20666,-0.206702,5.23741e-06,8.02635e-06,-7.8353e-06,0.410852,0.5144767503541916,5.237423715165335e-06,8.026382211312466e-06,-0.18670387633357122,-7.83526930414613e-06,-0.18673803405344802
527,0.5155,888.581,0.165951,-0.0614854,0.00211728,0.0303424,-0.034688,0.41573,-0.206988,-0.207033,5.10735e-06,9.39655e-06,-8.78893e-06,0.411511,0.5154766349350413,5.107363042489155e-06,9.396594147670356e-06,-0.18697059371809155,-8.788891377453645e-06,-0.1870071792181942
528,0.5165,888.767,-0.143767,0.0886958,0.0122071,-0.0673753,0.0397737,0.41639,-0.20732,-0.207361,5.2787e-06,7.85232e-06,-7.77158e-06,0.412169,0.5164771796575369,5.278713932410639e-06,7.852350829562482e-06,-0.18724047467825877,-7.771549801360855e-06,-0.18727379713568193
529,0.5175,889.117,0.184374,-0.0704569,0.00146453,0.0362121,-0.0391418,0.417049,-0.207647,-0.207692,5.13024e-06,9.398e-06,-8.84289e-06,0.412827,0.51747686747989,5.130253159624232e-06,9.39804416133505e-06,-0.1875062035939934,-8.842850901746857e-06,-0.18754276499219402
530,0.5185,889.292,-0.163131,0.0980678,0.0127916,-0.0734373,0.0444058,0.417708,-0.207978,-0.208019,5.3205e-06,7.67001e-06,-7.70209e-06,0.413485,0.5184772143136385,5.320514153916989e-06,7.670039414708896e-06,-0.18777509453669783,-7.702060338954375e-06,-0.18780839507515612
531,0.5195,889.651,0.204631,-0.0803366,0.000756888,0.0426593,-0.0440448,0.418366,-0.208305,-0.20835,5.15197e-06,9.40875e-06,-8.90304e-06,0.414142,0.5194767011157528,5.1519832713342595e-06,9.408794262366627e-06,-0.18804064866031878,-8.903000368043479e-06,-0.18807718600903256
532,0.5205,889.815,-0.184372,0.108387,0.0134343,-0.0800965,0.0494997,0.419024,-0.208636,-0.208677,5.36291e-06,7.47877e-06,-7.62643e-06,0.414799,0.5204768457966014,5.362924380358791e-06,7.478797966031792e-06,-0.1883093627309801,-7.626400918891996e-06,-0.18834264136489154
533,0.5215,890.184,0.22685,-0.0911801,-1.09152e-05,0.0497244,-0.0494261,0.419682,-0.208962,-0.209007,5.17248e-06,9.42943e-06,-8.96976e-06,0.415455,0.5214776487892108,5.172493377392229e-06,9.429474457256504e-06,-0.1885739307517994,-8.969719771823037e-06,-0.18861044410335892
534,0.5225,890.335,-0.207617,0.119713,0.0141401,-0.0873934,0.0550844,0.420339,-0.209293,-0.209334,5.40602e-06,7.27796e-06,-7.54421e-06,0.416111,0.5224775880485435,5.406034612631672e-06,7.277986484366394e-06,-0.1888424683352986,-7.544181542473716e-06,-0.1888757251123283
535,0.5235,890.716,0.251163,-0.103046,-0.000843579,0.0574481,-0.0553156,0.420995,-0.209618,-0.209664,5.19169e-06,9.4607e-06,-9.04348e-06,0.416766,0.5234766610064054,5.191703476903342e-06,9.460744752498584e-06,-0.18910605169847305,-9.043439107903062e-06,-0.18914335196218235
536,0.5245,890.853,-0.232992,0.132109,0.0149136,-0.0953685,0.0611899,0.421651,-0.209949,-0.209989,5.44989e-06,7.06696e-06,-7.45505e-06,0.417421,0.5244763895711433,5.4499048507405945e-06,7.066984970993673e-06,-0.18937441317908565,-7.455022211222406e-06,-0.18940683755406673
537,0.5255,891.246,0.277701,-0.115994,-0.00174543,0.0658708,-0.0617441,0.422307,-0.210274,-0.210319,5.20954e-06,9.50316e-06,-9.12459e-06,0.418076,0.5254767741729762,5.20955356964059e-06,9.50320515524794e-06,-0.1896378236882762,-9.124548371097774e-06,-0.1896742891657308
538,0.5265,891.368,-0.26062,0.145636,0.0157591,-0.104062,0.0678465,0.422962,-0.210604,-0.210644,5.4946e-06,6.8451e-06,-7.35852e-06,0.41873,0.5264762887653538,5.494615095358313e-06,6.845123427856592e-06,-0.1899051990870918,-7.358492926212712e-06,-0.18993760223106115
539,0.5275,891.774,0.306592,-0.130084,-0.00272054,0.0750327,-0.0687423,0.423617,-0.210928,-0.210974,5.22597e-06,9.55747e-06,-9.21353e-06,0.419383,0.5274764582542446,5.2259836553769645e-06,9.557515672664607e-06,-0.1901676272869235,-9.213487555559396e-06,-0.19020487871927882
540,0.5285,891.881,-0.290626,0.16036,0.0166806,-0.113513,0.0750843,0.424272,-0.211258,-0.211298,5.54021e-06,6.61178e-06,-7.25423e-06,0.420037,0.5284772830687463,5.54022534693388e-06,6.611801857792088e-06,-0.19043482787939625,-7.25420368818952e-06,-0.19046720983863752
541,0.5295,892.301,0.337965,-0.145377,-0.00377278,0.0849731,-0.076341,0.424926,-0.211582,-0.211628,5.24091e-06,9.62422e-06,-9.31071e-06,0.42069,0.529477234160239,5.2409237336625836e-06,9.624266313013052e-06,-0.1906970845072954,-9.310666655437672e-06,-0.19073431158517862
542,0.5305,892.391,-0.323127,0.176342,0.0176821,-0.123761,0.0829329,0.425579,-0.211912,-0.211951,5.58679e-06,6.36635e-06,-7.14178e-06,0.421342,0.5304763089565652,5.586805606139222e-06,6.366370265187271e-06,-0.1909641104077111,-7.141754497563824e-06,-0.19099566219214137
543,0.5315,892.827,0.371944,-0.161931,-0.00490583,0.0957305,-0.08457,0.426233,-0.212234,-0.212281,5.25432e-06,9.70404e-06,-9.41652e-06,0.421994,0.5314775678385895,5.254333804050049e-06,9.704087084339008e-06,-0.19122457802662263,-9.416475664769663e-06,-0.191262589578177
544,0.5325,892.898,-0.358238,0.193646,0.0187672,-0.134843,0.091421,0.426885,-0.212565,-0.212604,5.6344e-06,6.10823e-06,-7.0208e-06,0.422646,0.5324764168021978,5.634415873201348e-06,6.108248655323223e-06,-0.19149223839106178,-7.0207753541939866e-06,-0.19152376957890238
545,0.5335,893.352,0.408649,-0.179802,-0.00612313,0.107342,-0.0934585,0.427538,-0.212886,-0.212933,5.26615e-06,9.79749e-06,-9.53138e-06,0.423297,0.5334774507043678,5.266163866091134e-06,9.797537995570593e-06,-0.19175172773227078,-9.531334576595718e-06,-0.19178971450837112
546,0.5345,893.403,-0.396068,0.212332,0.0199394,-0.146796,0.100576,0.42819,-0.213217,-0.213255,5.6831e-06,5.83682e-06,-6.89091e-06,0.423948,0.5344776040167762,5.683116148791356e-06,5.836837034367548e-06,-0.19201921363903163,-6.8908862577155006e-06,-0.19204991632555868
547,0.5355,893.876,0.448196,-0.199042,-0.00742791,0.119842,-0.103034,0.428841,-0.213537,-0.213584,5.27634e-06,9.90514e-06,-9.65565e-06,0.424598,0.5354768741641331,5.276353920002919e-06,9.905189056080843e-06,-0.1922777261264632,-9.655603384395306e-06,-0.19231568818122002
548,0.5365,893.905,-0.436719,0.232455,0.0212019,-0.159651,0.110424,0.429492,-0.213868,-0.213906,5.73296e-06,5.55159e-06,-6.75179e-06,0.425248,0.5364767950481477,5.732976433359127e-06,5.551605410047955e-06,-0.19254503795656697,-6.751767206769621e-06,-0.19257572066214945
549,0.5375,894.398,0.490691,-0.219702,-0.0088231,0.133264,-0.113323,0.430143,-0.214187,-0.214235,5.28486e-06,1.00275e-05,-9.78969e-06,0.425897,0.5374773670925876,5.284873964894743e-06,1.0027550275459873e-05,-0.19280257501011477,-9.789642081092786e-06,-0.19284131955663775
550,0.5385,894.404,-0.480282,0.25407,0.0225577,-0.173442,0.120989,0.430793,-0.214518,-0.214555,5.78402e-06,5.25201e-06,-6.60311e-06,0.426547,0.5384770522436746,5.7840367275741045e-06,5.25202379186851e-06,-0.19306971314398624,-6.603088199552687e-06,-0.193099569012263
551,0.5395,894.919,0.536235,-0.241826,-0.0103113,0.147638,-0.124349,0.431443,-0.214837,-0.214885,5.29167e-06,1.0165e-05,-9.93384e-06,0.427195,0.5394773874013392,5.291684000985342e-06,1.016505166373527e-05,-0.19332708285284228,-9.933790659610864e-06,-0.193365802223593
552,0.5405,894.901,-0.526839,0.277227,0.0240093,-0.188195,0.132292,0.432092,-0.215167,-0.215204,5.83633e-06,4.93764e-06,-6.4446e-06,0.427843,0.54047683251062,5.836347031440425e-06,4.937652190228903e-06,-0.1935932409969917,-6.4445792335998675e-06,-0.19362307749509622
553,0.5415,895.439,0.584916,-0.265454,-0.0118948,0.16299,-0.136133,0.432741,-0.215485,-0.215533,5.29674e-06,1.03182e-05,-1.00884e-05,0.428491,0.5414769264703059,5.296754027828143e-06,1.031825323272173e-05,-0.1938496375771377,-1.0088349112313821e-05,-0.19388833186586363
554,0.5425,895.587,0.225355,-0.117949,0.00316638,0.0503758,-0.0611085,0.43339,-0.215811,-0.215856,5.51707e-06,8.84315e-06,-9.28485e-06,0.429138,0.5424776697016376,5.517085219119977e-06,8.843189100771198e-06,-0.1941123997627242,-9.284806895881736e-06,-0.19414866388878593
555,0.5435,895.815,0.0498222,0.00864594,0.00301151,-0.00655311,-0.00192329,0.434038,-0.216135,-0.216179,5.52114e-06,8.01746e-06,-8.55061e-06,0.429785,0.543477519147838,5.521155241439146e-06,8.01749213996672e-06,-0.1943734650503407,-8.550573443621978e-06,-0.19440891183804343
556,0.5445,896.057,0.0638266,-0.0253837,0.00709012,-0.000659924,-0.0148003,0.434685,-0.216459,-0.216503,5.59534e-06,8.09788e-06,-8.74324e-06,0.430432,0.5444764722292008,5.595355653920109e-06,8.09791278788552e-06,-0.19463444576650535,-8.743201778016463e-06,-0.19466988107130923
557,0.5455,896.3,-0.0119945,0.0324222,0.006003,-0.0257165,0.0109519,0.435333,-0.216783,-0.216826,5.59352e-06,7.67714e-06,-8.39826e-06,0.431078,0.5454776173191827,5.593535643777514e-06,7.677169469255674e-06,-0.1948953419386148,-8.39822473475138e-06,-0.19492996069460278
558,0.5465,896.56,0.0522884,-0.0142935,0.00645512,-0.00459878,-0.0102253,0.435979,-0.217106,-0.21715,5.61465e-06,7.96424e-06,-8.68451e-06,0.431724,0.5464763184056904,5.614665762099236e-06,7.964271714566706e-06,-0.1951553487498081,-8.684472289743894e-06,-0.19519076113538492
559,0.5475,896.797,-0.0231589,0.0338958,0.00695884,-0.028988,0.012118,0.436626,-0.217429,-0.217472,5.63774e-06,7.54478e-06,-8.37959e-06,0.432369,0.5474772123379708,5.637755892129448e-06,7.544808461990016e-06,-0.19541527159236305,-8.379554891302377e-06,-0.1954498679918566
560,0.5485,897.063,0.0553665,-0.0129867,0.00582167,-0.00371014,-0.00994983,0.437272,-0.217751,-0.217795,5.6347e-06,7.89344e-06,-8.67631e-06,0.433014,0.5484772055801823,5.634715875002527e-06,7.893471153375131e-06,-0.19567430616810544,-8.676272360896853e-06,-0.19570969572005814
561,0.5495,897.295,-0.0284383,0.0342259,0.00744497,-0.0304824,0.0125733,0.437917,-0.218074,-0.218117,5.67489e-06,7.43628e-06,-8.36821e-06,0.433658,0.5494762955496595,5.6749061021488245e-06,7.436307649211216e-06,-0.19593406141448255,-8.368174986617127e-06,-0.19596863550649335
562,0.5505,897.564,0.0595367,-0.0135023,0.00536966,-0.00241137,-0.0104044,0.438563,-0.218396,-0.21844,5.65736e-06,7.82814e-06,-8.67722e-06,0.434302,0.5504775806168403,5.65737600299876e-06,7.828170639934129e-06,-0.1961929289667944,-8.677182353089563e-06,-0.196228295699846
563,0.5515,897.791,-0.0328274,0.0351173,0.00773584,-0.0317457,0.0131718,0.439207,-0.218719,-0.218762,5.70882e-06,7.33125e-06,-8.35475e-06,0.434946,0.5514764097672231,5.708836295248432e-06,7.331276873578929e-06,-0.19645251672505837,-8.35471509919028e-06,-0.19648706852397013
564,0.5525,898.063,0.0636535,-0.0147129,0.00504058,-0.00109172,-0.0111096,0.439852,-0.21904,-0.219084,5.68162e-06,7.76343e-06,-8.68149e-06,0.435589,0.5524774348474069,5.68163614045325e-06,7.763460135423728e-06,-0.19671041407245082,-8.681452316028349e-06,-0.19674575803665872
565,0.5535,898.286,-0.037041,0.0364679,0.00793017,-0.0329819,0.0139268,0.440496,-0.219363,-0.219406,5.741e-06,7.22691e-06,-8.33924e-06,0.436232,0.553477552318709,5.741016479543504e-06,7.2269361142129895e-06,-0.19696983471001706,-8.339205228580227e-06,-0.19700436426473378
566,0.5545,898.56,0.067744,-0.0163124,0.00477988,0.000240144,-0.0119547,0.441139,-0.219683,-0.219727,5.70663e-06,7.69926e-06,-8.68771e-06,0.436874,0.5544767595955626,5.706646282854777e-06,7.699289639395701e-06,-0.1972267632521506,-8.68767226192002e-06,-0.19726208449749438
567,0.5555,898.78,-0.0412601,0.0381223,0.00807459,-0.0342355,0.0147927,0.441782,-0.220005,-0.220048,5.77214e-06,7.12262e-06,-8.32231e-06,0.437516,0.5554766095693002,5.772156658867544e-06,7.122645365953417e-06,-0.19748521462147983,-8.322275369621046e-06,-0.19751972201533685
568,0.5565,899.055,0.0718897,-0.0181612,0.00455486,0.00160075,-0.0128941,0.442425,-0.220326,-0.22037,5.7319e-06,7.63591e-06,-8.69527e-06,0.438158,0.5564771026533089,5.731916427276218e-06,7.635939153649574e-06,-0.197742780526047,-8.695232196265223e-06,-0.1977780790671303
569,0.5575,899.272,-0.0455604,0.0399836,0.00819397,-0.0355237,0.0157389,0.443067,-0.220647,-0.22069,5.80261e-06,7.0181e-06,-8.30439e-06,0.438799,0.5574766817837806,5.802626835249569e-06,7.018124627000688e-06,-0.1980002637652274,-8.30435551868458e-06,-0.19803474901244733
570,0.5585,899.548,0.0761398,-0.0201842,0.00434731,0.00300052,-0.0139035,0.443709,-0.220967,-0.221011,5.75715e-06,7.57353e-06,-8.70385e-06,0.43944,0.5584769028500935,5.757166572362138e-06,7.573558679307979e-06,-0.1982568626228156,-8.703812121590992e-06,-0.19829213854478422
571,0.5595,899.761,-0.0499781,0.0419956,0.00830188,-0.0368542,0.0167473,0.44435,-0.221289,-0.221331,5.83263e-06,6.91326e-06,-8.2857e-06,0.44008,0.5594762067875161,5.832647009818004e-06,6.9132838966812216e-06,-0.19851498235354414,-8.28566567367961e-06,-0.19854864401738548
572,0.5605,900.039,0.0805185,-0.0223384,0.00414726,0.00444432,-0.0149689,0.444991,-0.221608,-0.221652,5.78223e-06,7.51221e-06,-8.71325e-06,0.44072,0.5604761514841039,5.782246717211947e-06,7.512238216822453e-06,-0.1987706152985509,-8.713212039768159e-06,-0.1988058686158991
573,0.5615,900.25,-0.0545291,0.0441255,0.00840561,-0.0382297,0.0178069,0.445632,-0.221929,-0.221972,5.86231e-06,6.80802e-06,-8.26639e-06,0.441359,0.5614767373507152,5.8623271834701285e-06,6.808043174544309e-06,-0.19902776865571814,-8.266355833508321e-06,-0.19906220972117772
574,0.5625,900.529,0.0850351,-0.0245984,0.00394937,0.00593352,-0.0160815,0.446272,-0.222248,-0.222292,5.80706e-06,7.45195e-06,-8.72335e-06,0.441998,0.5624764023212885,5.807076860930849e-06,7.451977765748907e-06,-0.19928323804798243,-8.723311951674972e-06,-0.19931846881042592
575,0.5635,900.736,-0.0592174,0.0463532,0.00850904,-0.0396506,0.0189107,0.446912,-0.222569,-0.222611,5.89171e-06,6.7024e-06,-8.24657e-06,0.442637,0.5634767072822178,5.891727356210907e-06,6.702422461035695e-06,-0.1995402268796549,-8.246535997180615e-06,-0.19957384548413026
576,0.5645,901.017,0.0896897,-0.0269478,0.00375089,0.00746731,-0.0172354,0.447552,-0.222887,-0.222931,5.83159e-06,7.39275e-06,-8.73408e-06,0.443275,0.5644776526432285,5.8316070037367496e-06,7.39277732653143e-06,-0.19979473261894987,-8.734041858082797e-06,-0.19982994087612727
577,0.5655,901.221,-0.06404,0.0486651,0.0086141,-0.0411152,0.0200534,0.448191,-0.223207,-0.22325,5.92086e-06,6.59642e-06,-8.2263e-06,0.443913,0.5654776733358513,5.920877528264867e-06,6.596441756379079e-06,-0.20005075733837197,-8.226266164035323e-06,-0.20008515441626396
578,0.5665,901.503,0.0944768,-0.0293748,0.00355049,0.00904346,-0.0184259,0.448829,-0.223526,-0.22357,5.85582e-06,7.33457e-06,-8.74538e-06,0.444551,0.5664767667683548,5.855837145407605e-06,7.334596898056489e-06,-0.2003059004492912,-8.745341759319736e-06,-0.2003410862155789
579,0.5675,901.703,-0.0689891,0.0510507,0.00872165,-0.0426207,0.0212307,0.449467,-0.223845,-0.223888,5.94978e-06,6.49011e-06,-8.20563e-06,0.445188,0.5674764978258493,5.9497977000777524e-06,6.490131060798987e-06,-0.2005609621825385,-8.205596333965559e-06,-0.20059533732209378
580,0.5685,901.987,0.0993869,-0.03187,0.00334765,0.0106588,-0.019649,0.450105,-0.224163,-0.224207,5.87973e-06,7.27736e-06,-8.75718e-06,0.445825,0.5684768669152687,5.879747285719716e-06,7.277386480097903e-06,-0.20081514337961215,-8.75714165604613e-06,-0.20085030673970383
581,0.5695,902.184,-0.0740538,0.0535012,0.00883195,-0.0441635,0.0224388,0.450742,-0.224482,-0.224525,5.97847e-06,6.38353e-06,-8.18463e-06,0.446461,0.5694763049667182,5.978487870983429e-06,6.383550374744473e-06,-0.2010700426902724,-8.184596505977915e-06,-0.20110439593983653
582,0.5705,902.47,0.104408,-0.0344248,0.00314232,0.0123092,-0.0209007,0.451379,-0.2248,-0.224844,5.90333e-06,7.22106e-06,-8.76943e-06,0.447097,0.5704763798630197,5.90334742467391e-06,7.221086071984573e-06,-0.20132406202548192,-8.769391548701932e-06,-0.20135920299364585
583,0.5715,902.664,-0.0792208,0.056008,0.00894489,-0.0457393,0.0236736,0.452016,-0.225119,-0.225161,6.00692e-06,6.27675e-06,-8.16334e-06,0.447732,0.5714770920099732,6.006938041647203e-06,6.276769698887463e-06,-0.2015787990169855,-8.1633066800757e-06,-0.20161233200322914
584,0.5725,902.951,0.109525,-0.0370305,0.00293473,0.0139901,-0.0221772,0.452652,-0.225436,-0.22548,5.92661e-06,7.1656e-06,-8.78208e-06,0.448367,0.5724768693359807,5.9266275624914044e-06,7.165625673044573e-06,-0.20183185842566165,-8.782041437616073e-06,-0.20186697705127554
585,0.5735,903.141,-0.0844745,0.0585626,0.00906015,-0.0473431,0.0249311,0.453288,-0.225754,-0.225797,6.03514e-06,6.16983e-06,-8.14182e-06,0.449002,0.5734772827226133,6.035158211403768e-06,6.169849033454966e-06,-0.20208563554198222,-8.141786855486721e-06,-0.20211994512199272
586,0.5745,903.431,0.114722,-0.0396786,0.00272527,0.0156964,-0.023474,0.453923,-0.226071,-0.226115,5.9496e-06,7.11089e-06,-8.79507e-06,0.449636,0.5744767580969892,5.949617698952636e-06,7.11091528238228e-06,-0.2023385343089431,-8.79503132344972e-06,-0.20237363064130853
587,0.5755,903.617,-0.0897981,0.061156,0.0091773,-0.0489696,0.0262069,0.454558,-0.226389,-0.226431,6.06313e-06,6.06287e-06,-8.12013e-06,0.45027,0.5754768683397771,6.063148380919259e-06,6.062888379343434e-06,-0.20259215032794864,-8.120097031882878e-06,-0.20262564075433098
588,0.5765,903.908,0.119982,-0.0423599,0.00251444,0.0174223,-0.0247868,0.455193,-0.226705,-0.226749,5.97228e-06,7.05685e-06,-8.80834e-06,0.450903,0.5764776138542465,5.972297834055951e-06,7.056874899546983e-06,-0.2028440913996592,-8.808301206642e-06,-0.202879165488002
589,0.5775,904.091,-0.0951729,0.0637789,0.00929577,-0.0506129,0.0274964,0.455827,-0.227023,-0.227065,6.09086e-06,5.95595e-06,-8.09832e-06,0.451536,0.5774774175657169,6.090878549303014e-06,5.955967736781531e-06,-0.20309754667706914,-8.098287208713195e-06,-0.20313101587725058
590,0.5785,904.384,0.125285,-0.0450645,0.0023028,0.0191618,-0.0261109,0.45646,-0.227338,-0.227383,5.99469e-06,7.00338e-06,-8.82183e-06,0.452169,0.5784762768766551,5.994707968248747e-06,7.0034045236422315e-06,-0.20334853141769382,-8.821791087743058e-06,-0.2033843799271825
591,0.5795,904.564,-0.100579,0.0664211,0.00941498,-0.0522666,0.0287947,0.457094,-0.227656,-0.227698,6.11835e-06,5.84917e-06,-8.07647e-06,0.452801,0.5794773481422539,6.118368717222822e-06,5.849187106443665e-06,-0.20360182630868084,-8.07643738542918e-06,-0.20363527432956252
592,0.5805,904.859,0.13061,-0.0477824,0.002091,0.0209084,-0.0274411,0.457727,-0.227971,-0.228015,6.01681e-06,6.95038e-06,-8.83546e-06,0.453433,0.5804774738100069,6.016828101085281e-06,6.950404153993617e-06,-0.2038526522262376,-8.83542096741241e-06,-0.2038876819388803
593,0.5815,905.035,-0.105995,0.0690722,0.00953425,-0.0539241,0.0300966,0.458359,-0.228288,-0.22833,6.14557e-06,5.74263e-06,-8.05465e-06,0.454065,0.5814766512802776,6.145588884010067e-06,5.742646489004244e-06,-0.20410499093768297,-8.054617561370492e-06,-0.204138417826094
594,0.5825,905.331,0.135936,-0.0505028,0.0018797,0.0226552,-0.0287722,0.458991,-0.228603,-0.228647,6.03868e-06,6.89773e-06,-8.84916e-06,0.454696,0.582476460430299,6.038698232790907e-06,6.897753789480987e-06,-0.20435565838334224,-8.849120846310399e-06,-0.20439066596420086
595,0.5835,905.504,-0.1114,0.0717212,0.00965292,-0.0555783,0.0313968,0.459623,-0.22892,-0.228962,6.17251e-06,5.63644e-06,-8.03292e-06,0.455326,0.5834769016594195,6.172529049885966e-06,5.6364558846944135e-06,-0.20460783766710644,-8.032887736209027e-06,-0.20464124343639833
596,0.5845,905.802,0.14124,-0.0532144,0.00166962,0.0243951,-0.0300986,0.460254,-0.229234,-0.229278,6.0603e-06,6.84534e-06,-8.86286e-06,0.455957,0.5844763908900557,6.060318363587669e-06,6.845363429430762e-06,-0.20485755159893992,-8.862820724986342e-06,-0.20489253709698296
597,0.5855,905.972,-0.116769,0.0743566,0.00977024,-0.057222,0.0326896,0.460885,-0.229551,-0.229592,6.19918e-06,5.53071e-06,-8.01137e-06,0.456587,0.5854765109974172,6.1991992148513475e-06,5.530725294411454e-06,-0.20510957180776956,-8.011337909064054e-06,-0.2051421616472291
598,0.5865,906.272,0.146499,-0.0559057,0.00146147,0.0261206,-0.0314147,0.461516,-0.229864,-0.229909,6.08168e-06,6.79307e-06,-8.87649e-06,0.457216,0.5864772623797125,6.081698493476395e-06,6.793093072943179e-06,-0.20535833357854572,-8.876450604100583e-06,-0.20539409164897204
599,0.5875,906.438,-0.12208,0.0769664,0.00988549,-0.0588477,0.0339692,0.462146,-0.230181,-0.230222,6.22555e-06,5.42556e-06,-7.99006e-06,0.457845,0.5874770579575506,6.2255693786816835e-06,5.425574718387338e-06,-0.20561019506464662,-7.99002807960747e-06,-0.20564276437897344
600,0.5885,906.74,0.151689,-0.0585646,0.00125601,0.027824,-0.0327145,0.462776,-0.230494,-0.230538,6.10284e-06,6.74081e-06,-8.88995e-06,0.458474,0.5884774836050537,6.10285862245874e-06,6.740832719343004e-06,-0.20585880016486358,-8.889910484533026e-06,-0.20589374160893892
601,0.5895,906.902,-0.127309,0.0795386,0.0099979,-0.0604475,0.0352297,0.463405,-0.23081,-0.230851,6.25162e-06,5.32111e-06,-7.96909e-06,0.459102,0.589476950241546,6.251639541376974e-06,5.321124157076085e-06,-0.20610970913830573,-7.969058246848348e-06,-0.20614225797297547
602,0.5905,907.206,0.156784,-0.0611789,0.001054,0.0294977,-0.033992,0.464034,-0.231122,-0.231167,6.12379e-06,6.68844e-06,-8.90317e-06,0.45973,0.590477045740309,6.123808750535531e-06,6.688462367732129e-06,-0.20635736427284468,-8.903130366944012e-06,-0.20639307738790125
603,0.5915,907.365,-0.132429,0.0820608,0.0101067,-0.0620137,0.036465,0.464662,-0.231438,-0.23148,6.27737e-06,5.21748e-06,-7.94853e-06,0.460357,0.5914761790200469,6.277389702713521e-06,5.217493611153756e-06,-0.20660811572491844,-7.948498410570437e-06,-0.2066414374842961
604,0.5925,907.67,0.16176,-0.0637364,0.000856208,0.0311337,-0.0352411,0.465291,-0.23175,-0.231795,6.14455e-06,6.63583e-06,-8.91606e-06,0.460984,0.592477532429283,6.144568877708423e-06,6.635852017211619e-06,-0.20685561538085817,-8.916020252103252e-06,-0.2068913060751194
605,0.5935,907.826,-0.137417,0.0845205,0.0102111,-0.0635384,0.037669,0.465918,-0.232066,-0.232107,6.3028e-06,5.11479e-06,-7.92846e-06,0.461611,0.5934763289320986,6.302819862691322e-06,5.114803080630281e-06,-0.20710620941045588,-7.928428569892176e-06,-0.207138717389452
606,0.5945,908.133,0.166592,-0.0662245,0.000663396,0.0327241,-0.0364558,0.466546,-0.232377,-0.232422,6.16512e-06,6.58286e-06,-8.92855e-06,0.462237,0.5944773463532393,6.165139004421505e-06,6.582881667105411e-06,-0.20735276103856382,-8.928510140671087e-06,-0.20738842936177382
607,0.5955,908.286,-0.142248,0.0869051,0.0103104,-0.0650137,0.0388356,0.467173,-0.232692,-0.232734,6.3279e-06,5.01317e-06,-7.90897e-06,0.462863,0.5954773971325598,6.327920021309552e-06,5.013182565960506e-06,-0.20760240559775434,-7.90893872415488e-06,-0.2076356855978344
608,0.5965,908.594,0.171255,-0.068631,0.000476324,0.0342612,-0.0376299,0.467799,-0.233004,-0.233048,6.18552e-06,6.52939e-06,-8.94055e-06,0.463489,0.5964764786630574,6.185539130454387e-06,6.529411316513745e-06,-0.20784959508364287,-8.940510033417226e-06,-0.20788444893466884
609,0.5975,908.744,-0.146897,0.0892023,0.0104038,-0.0664318,0.0399588,0.468425,-0.233318,-0.23336,6.35264e-06,4.91274e-06,-7.89013e-06,0.464114,0.597476185814392,6.3526601781216385e-06,4.912752067598447e-06,-0.20809829126344304,-7.89009887303127e-06,-0.20813155043676246
610,0.5985,909.054,0.175725,-0.0709435,0.000295736,0.035737,-0.0387573,0.469051,-0.233629,-0.233674,6.20576e-06,6.47531e-06,-8.95197e-06,0.464739,0.598476518978325,6.205779255807897e-06,6.475330964761383e-06,-0.20834453440206724,-8.951929931222402e-06,-0.20838015809648003
611,0.5995,909.2,-0.151341,0.0913998,0.0104906,-0.0677851,0.0410326,0.469677,-0.233944,-0.233985,6.37703e-06,4.81362e-06,-7.87203e-06,0.465363,0.5994774785468626,6.3770503333504536e-06,4.813631585554035e-06,-0.20859386660184753,-7.871999015640618e-06,-0.2086263135881491
612,0.6005,909.512,0.179977,-0.07315,0.000122354,0.0371441,-0.0398323,0.470302,-0.234254,-0.234298,6.22586e-06,6.4205e-06,-8.96275e-06,0.465987,0.6004774644339925,6.2258793807057344e-06,6.420520611394309e-06,-0.20883916448006534,-8.962709834636762e-06,-0.2088739747909958
613,0.6015,909.656,-0.155555,0.0934856,0.0105701,-0.0690659,0.0420512,0.470926,-0.234568,-0.234609,6.40106e-06,4.71592e-06,-7.85473e-06,0.466611,0.6014764740303775,6.401080486773125e-06,4.715931120058414e-06,-0.2090875499838537,-7.85469915165482e-06,-0.20911997672955152
614,0.6025,909.968,0.183989,-0.0752391,-4.31234e-05,0.038475,-0.040849,0.471551,-0.234878,-0.234922,6.24582e-06,6.36483e-06,-8.97279e-06,0.467234,0.6024777096801948,6.245839505147899e-06,6.364850255513588e-06,-0.20933269484394224,-8.972749744651232e-06,-0.20936748344001432
615,0.6035,910.109,-0.159517,0.0954483,0.0106415,-0.0702673,0.043009,0.472174,-0.235192,-0.235233,6.4247e-06,4.61977e-06,-7.83833e-06,0.467857,0.6034763643419521,6.424720638387171e-06,4.619780671122342e-06,-0.2095809254035238,-7.838299280416017e-06,-0.2096133319212441
616,0.6045,910.423,0.187737,-0.0771994,-0.000200034,0.0397228,-0.0418021,0.472798,-0.235501,-0.235546,6.26567e-06,6.30819e-06,-8.98203e-06,0.468479,0.6044772458358509,6.265689629358917e-06,6.308209896666028e-06,-0.20982512716645874,-8.981989661704937e-06,-0.20986068423569615
617,0.6055,910.561,-0.163206,0.0972769,0.0107042,-0.0713822,0.0439008,0.473421,-0.235814,-0.235855,6.44796e-06,4.52527e-06,-7.82288e-06,0.469101,0.605477146596753,6.447980788193419e-06,4.525280238976137e-06,-0.21007241319937253,-7.822849401373233e-06,-0.2101047995665064
618,0.6065,910.876,0.191202,-0.0790204,-0.000347754,0.0408807,-0.0426862,0.474044,-0.236124,-0.236168,6.2854e-06,6.25048e-06,-8.9904e-06,0.469723,0.6064776704899144,6.285419753115917e-06,6.2504995343992675e-06,-0.210317252799182,-8.990359586458219e-06,-0.2103519980756572
619,0.6075,911.012,-0.166601,0.0989608,0.0107577,-0.0724043,0.0447215,0.474666,-0.236437,-0.236477,6.47082e-06,4.43252e-06,-7.80846e-06,0.470344,0.6074772104256536,6.470840935746125e-06,4.432529823628073e-06,-0.21056438482087692,-7.808429514089e-06,-0.210595961613944
620,0.6085,911.328,0.194362,-0.0806921,-0.000485705,0.0419426,-0.0434965,0.475288,-0.236745,-0.23679,6.30504e-06,6.19159e-06,-8.99783e-06,0.470965,0.6084773722686261,6.305059876865471e-06,6.19160916803807e-06,-0.21080749354968598,-8.997789519682442e-06,-0.2108430064134308
621,0.6095,911.461,-0.169684,0.10049,0.0108013,-0.0733275,0.0454663,0.475909,-0.237058,-0.237099,6.49328e-06,4.34161e-06,-7.79512e-06,0.471586,0.6094765469284265,6.493301081489378e-06,4.341619424863552e-06,-0.2110544721500376,-7.795089618123363e-06,-0.21108681825357978
622,0.6105,911.778,0.197201,-0.0822053,-0.000613359,0.0429027,-0.0442285,0.47653,-0.237366,-0.237411,6.32459e-06,6.13143e-06,-9.00426e-06,0.472205,0.6104763422683919,6.324610000163489e-06,6.131448797352945e-06,-0.21129742995519274,-9.004219461816731e-06,-0.21133292077229537
623,0.6115,911.909,-0.172437,0.101857,0.0108346,-0.0741464,0.046131,0.477151,-0.237678,-0.237719,6.51533e-06,4.25265e-06,-7.78293e-06,0.472825,0.6114767586740844,6.515351224756216e-06,4.252659042469631e-06,-0.21154346677330726,-7.782899713038027e-06,-0.21157579282848094
624,0.6125,912.226,0.199701,-0.0835517,-0.000730243,0.0437557,-0.0448781,0.477771,-0.237986,-0.238031,6.34405e-06,6.06991e-06,-9.00963e-06,0.473445,0.6124761840543154,6.34407012345406e-06,6.069928421892357e-06,-0.21178627399131,-9.009589413411234e-06,-0.21182174281092603
625,0.6135,912.356,-0.174846,0.103052,0.010857,-0.074856,0.0467118,0.478391,-0.238298,-0.238339,6.53697e-06,4.1657e-06,-7.77193e-06,0.474064,0.6134762292704112,6.53699136599073e-06,4.165708676451274e-06,-0.21203215831387578,-7.771899798614257e-06,-0.212064464333107
626,0.6145,912.673,0.201848,-0.0847239,-0.000835947,0.0444971,-0.0454417,0.479011,-0.238606,-0.23865,6.36345e-06,6.00697e-06,-9.01389e-06,0.474682,0.6144768947067896,6.3634702467396664e-06,6.0069880418733845e-06,-0.21227481503806134,-9.013849375016925e-06,-0.21230947418369284
627,0.6155,912.801,-0.176896,0.104069,0.0108684,-0.0754521,0.0472053,0.47963,-0.238917,-0.238958,6.55818e-06,4.08083e-06,-7.76217e-06,0.4753,0.615476565270733,6.558201504969219e-06,4.080838326592229e-06,-0.21251975947974955,-7.7621398744121e-06,-0.21255204550774276
628,0.6165,913.118,0.203629,-0.0857154,-0.000930121,0.0451228,-0.0459161,0.480249,-0.239224,-0.239269,6.38278e-06,5.94252e-06,-9.01701e-06,0.475918,0.6164768548223123,6.382800370019481e-06,5.942537656844493e-06,-0.21276147880777396,-9.016969346853365e-06,-0.2127969037441605
629,0.6175,913.244,-0.178576,0.104902,0.0108682,-0.075931,0.0476086,0.480867,-0.239535,-0.239576,6.57897e-06,3.99811e-06,-7.75369e-06,0.476536,0.6174761462678449,6.578991641470466e-06,3.998117992454198e-06,-0.21300627192056265,-7.75365994021282e-06,-0.2130385380019547
630,0.6185,913.562,0.205035,-0.0865207,-0.00101249,0.0456297,-0.0462987,0.481486,-0.239842,-0.239886,6.40205e-06,5.87652e-06,-9.01894e-06,0.477153,0.6184776739432214,6.402070493072287e-06,5.876537266802373e-06,-0.21324784191219193,-9.01889932947153e-06,-0.2132824582455829
631,0.6195,913.687,-0.179878,0.105546,0.0108563,-0.0762897,0.0479194,0.482103,-0.240153,-0.240193,6.59933e-06,3.91758e-06,-7.74651e-06,0.477769,0.619476582799737,6.5993517757156894e-06,3.917587673818446e-06,-0.21349248378957353,-7.746479995907052e-06,-0.21352394346102432
632,0.6205,914.004,0.206056,-0.0871357,-0.00108283,0.046015,-0.0465875,0.48272,-0.240459,-0.240504,6.42126e-06,5.80892e-06,-9.01966e-06,0.478386,0.6204761081731931,6.421280616342173e-06,5.808936871742887e-06,-0.2137331182705806,-9.019619322980788e-06,-0.2137684994841752
633,0.6215,914.128,-0.180794,0.105996,0.0108325,-0.0765262,0.0481358,0.483337,-0.240769,-0.24081,6.61926e-06,3.83927e-06,-7.74065e-06,0.479002,0.621476250444098,6.619281907260799e-06,3.839277370021321e-06,-0.21397682322769673,-7.740620041274404e-06,-0.21400904951730093
634,0.6225,914.445,0.206687,-0.087557,-0.00114102,0.0462769,-0.0467808,0.483954,-0.241075,-0.24112,6.44042e-06,5.73969e-06,-9.01915e-06,0.479617,0.6224770099931947,6.440440739607922e-06,5.739706472107642e-06,-0.21421730952350926,-9.019109327601527e-06,-0.21425266894898765
635,0.6235,914.567,-0.181319,0.106251,0.0107968,-0.0766388,0.0482566,0.48457,-0.241385,-0.241426,6.63876e-06,3.76323e-06,-7.73615e-06,0.480232,0.623476763723886,6.638782036549884e-06,3.7632370810669613e-06,-0.2144608644046,-7.736120076096142e-06,-0.21449307084892277
636,0.6245,914.884,0.206925,-0.0877827,-0.00118698,0.0464144,-0.0468778,0.485186,-0.241691,-0.241735,6.45954e-06,5.66881e-06,-9.0174e-06,0.480847,0.6244771334925956,6.4595608628703616e-06,5.6688260676729385e-06,-0.21470120260647185,-9.01735934333292e-06,-0.21473575499339914
637,0.6255,915.005,-0.181453,0.106309,0.0107489,-0.0766268,0.0482813,0.485801,-0.242001,-0.242041,6.65782e-06,3.68945e-06,-7.73299e-06,0.481461,0.6254764942016131,6.657842163360073e-06,3.68945680606636e-06,-0.2149446075039555,-7.732960100481634e-06,-0.2149760090916194
638,0.6265,915.321,0.206768,-0.0878121,-0.00122073,0.046427,-0.0468782,0.486416,-0.242306,-0.24235,6.4786e-06,5.59626e-06,-9.01439e-06,0.482075,0.6264764697064968,6.4786209861278365e-06,5.596275659103256e-06,-0.2151840128874899,-9.01434937050638e-06,-0.2152185440312322
639,0.6275,915.442,-0.181193,0.10617,0.0106891,-0.0764903,0.0482097,0.487031,-0.242615,-0.242656,6.67646e-06,3.61794e-06,-7.73119e-06,0.482689,0.6274770603854627,6.67648228769302e-06,3.6179465447983006e-06,-0.21542648356385896,-7.731160114432534e-06,-0.2154586504186078
640,0.6285,915.757,0.206218,-0.0876455,-0.00124234,0.0463152,-0.046782,0.487645,-0.24292,-0.242964,6.49762e-06,5.52205e-06,-9.01014e-06,0.483302,0.6284766381395068,6.4976411096040465e-06,5.522065246621466e-06,-0.21566574199760602,-9.010099408790495e-06,-0.21570025194573372
641,0.6295,915.878,-0.180544,0.105834,0.0106174,-0.07623,0.0480424,0.488259,-0.243229,-0.243269,6.69467e-06,3.5487e-06,-7.73072e-06,0.483915,0.6294768298227489,6.694692409325853e-06,3.5487062965966487e-06,-0.2159080638426757,-7.730690118057382e-06,-0.21593942689285672
642,0.6305,916.191,0.205279,-0.0872843,-0.00125197,0.0460801,-0.0465903,0.488873,-0.243533,-0.243577,6.51659e-06,5.44619e-06,-9.00466e-06,0.484528,0.6304776358122572,6.5166112330761194e-06,5.446204830450441e-06,-0.21614639156361848,-9.004619458186092e-06,-0.21618088036363048
643,0.6315,916.312,-0.17951,0.105304,0.010534,-0.0758475,0.0477804,0.489486,-0.243842,-0.243882,6.71245e-06,3.48169e-06,-7.73158e-06,0.48514,0.6314774250070907,6.7124725284806175e-06,3.4816960610140057e-06,-0.21638856491091618,-7.7315501114672e-06,-0.21641990874143902
644,0.6325,916.624,0.203956,-0.0867315,-0.00124985,0.0457235,-0.0463043,0.490098,-0.244146,-0.24419,6.5355e-06,5.36871e-06,-8.99795e-06,0.485752,0.6324761947835731,6.535521356321183e-06,5.368724411480841e-06,-0.21662674658173497,-8.997909518582148e-06,-0.21666121424659124
645,0.6335,916.745,-0.178099,0.104583,0.0104392,-0.0753449,0.0474255,0.490711,-0.244454,-0.244494,6.72982e-06,3.41689e-06,-7.73375e-06,0.486363,0.6334772094706311,6.729842645381012e-06,3.4168958376046277e-06,-0.21686798839064214,-7.733720094660335e-06,-0.2168993130446093
646,0.6345,917.056,0.202258,-0.0859907,-0.00123626,0.0452482,-0.045926,0.491323,-0.244757,-0.244802,6.55436e-06,5.28965e-06,-8.99006e-06,0.486974,0.6344772034897852,6.554381479784155e-06,5.289663990160065e-06,-0.21710524144450694,-8.990019589538711e-06,-0.21714047091597288
647,0.6355,917.177,-0.176319,0.103676,0.0103333,-0.0747254,0.0469799,0.491934,-0.245065,-0.245106,6.74677e-06,3.35426e-06,-7.73718e-06,0.487585,0.6354761742155961,6.746792759582121e-06,3.3542656254770264e-06,-0.21734633589969,-7.737150068076737e-06,-0.21737842404210672
648,0.6365,917.486,0.200196,-0.0850671,-0.00121156,0.0446573,-0.045458,0.492546,-0.245368,-0.245413,6.57317e-06,5.20904e-06,-8.98101e-06,0.488195,0.6364773919756006,6.573191603242989e-06,5.2090535671567295e-06,-0.21758344403621566,-8.980969670835393e-06,-0.21761865198904917
649,0.6375,917.607,-0.174181,0.102588,0.0102167,-0.0739924,0.0464462,0.493157,-0.245676,-0.245716,6.76332e-06,3.29372e-06,-7.74185e-06,0.488805,0.6374775851900087,6.763342871307643e-06,3.2937254244025382e-06,-0.21782439122768027,-7.741820031936797e-06,-0.21785567762629898
650,0.6385,917.914,0.197781,-0.0839664,-0.00117618,0.0439549,-0.0449031,0.493767,-0.245979,-0.246023,6.5919e-06,5.12696e-06,-8.97084e-06,0.489414,0.6384767512316349,6.591921726695205e-06,5.126973142921543e-06,-0.21806135453538422,-8.970799762142434e-06,-0.21809575907887913
651,0.6395,918.036,-0.171701,0.101326,0.0100898,-0.0731502,0.0458278,0.494377,-0.246286,-0.246326,6.77947e-06,3.23523e-06,-7.7477e-06,0.490024,0.639476526950479,6.779492980557578e-06,3.2352352332676304e-06,-0.21830137285484474,-7.74766998667964e-06,-0.21833264017457998
652,0.6405,918.341,0.195029,-0.0826958,-0.00113058,0.0431455,-0.044265,0.494987,-0.246588,-0.246632,6.61057e-06,5.04347e-06,-8.9596e-06,0.490632,0.6404769127185577,6.610591849920411e-06,5.043482718347647e-06,-0.21853741019680994,-8.959559862908861e-06,-0.21857179379431657
653,0.6415,918.464,-0.168892,0.0998969,0.00995322,-0.0722038,0.0451283,0.495596,-0.246895,-0.246935,6.79523e-06,3.17871e-06,-7.75469e-06,0.491241,0.6414762674310264,6.795253087554798e-06,3.1787150520656837e-06,-0.21877728238961391,-7.754659932524e-06,-0.2188085306733485
654,0.6425,918.766,0.191956,-0.0812631,-0.00107529,0.0422343,-0.0435474,0.496205,-0.247197,-0.247241,6.62916e-06,4.95865e-06,-8.94734e-06,0.491849,0.6424762309358736,6.629181972916953e-06,4.958662294107796e-06,-0.21901317602859993,-8.947299972694722e-06,-0.21904753869287052
655,0.6435,918.89,-0.165771,0.0983094,0.00980741,-0.0711585,0.0443518,0.496814,-0.247503,-0.247544,6.81062e-06,3.12407e-06,-7.76277e-06,0.492457,0.6434768036039664,6.810643192300958e-06,3.124074879901073e-06,-0.2192521214362233,-7.762739869798807e-06,-0.21928413144303482
656,0.6445,919.19,0.18858,-0.0796769,-0.00101089,0.0412269,-0.0427548,0.497422,-0.247805,-0.247849,6.64767e-06,4.87259e-06,-8.93412e-06,0.493064,0.6444763413292351,6.647692095906876e-06,4.872601871097615e-06,-0.21948787169546868,-8.934080090838847e-06,-0.21952221347358947
657,0.6455,919.315,-0.162358,0.0965727,0.009653,-0.0700201,0.0435028,0.49803,-0.248111,-0.248151,6.82563e-06,3.07121e-06,-7.77186e-06,0.493671,0.6454764869582246,6.825653294573186e-06,3.0712147160993908e-06,-0.21972667186843997,-7.771829799163577e-06,-0.21975788217735492
658,0.6465,919.613,0.18492,-0.0779467,-0.000937999,0.0401293,-0.0418918,0.498638,-0.248413,-0.248457,6.66608e-06,4.78537e-06,-8.92001e-06,0.494277,0.6464772408606532,6.666102218444436e-06,4.785381449989856e-06,-0.21996227883509312,-8.919970216791917e-06,-0.21999659973975894
659,0.6475,919.739,-0.158673,0.0946966,0.00949064,-0.068795,0.0425862,0.499245,-0.248718,-0.248758,6.84028e-06,3.02005e-06,-7.7819e-06,0.494884,0.6474769559286833,6.8403033948172265e-06,3.020054560431973e-06,-0.22020015406223226,-7.781869721057433e-06,-0.2202313454322382
660,0.6485,920.034,0.180997,-0.0760826,-0.000857262,0.0389482,-0.0409635,0.499852,-0.249019,-0.249063,6.68438e-06,4.6971e-06,-8.90507e-06,0.495489,0.6484772780079691,6.6844023405288056e-06,4.697111031459755e-06,-0.22043483849408063,-8.905030350003784e-06,-0.2204691386065789
661,0.6495,920.161,-0.154735,0.0926916,0.00932099,-0.06749,0.0416071,0.500458,-0.249324,-0.249365,6.85459e-06,2.97048e-06,-7.79283e-06,0.496095,0.6494765579896953,6.854613492812689e-06,2.970484411779495e-06,-0.22067256961250148,-7.792799636030523e-06,-0.2207045213821316
662,0.6505,920.454,0.176832,-0.0740953,-0.000769364,0.0376904,-0.0399751,0.501064,-0.249625,-0.249669,6.70258e-06,4.60788e-06,-8.88937e-06,0.4967,0.6504764437186135,6.702602462382856e-06,4.607890616403765e-06,-0.22090711186866774,-8.889330489703084e-06,-0.22094139120159462
663,0.6515,920.583,-0.150567,0.0905689,0.00914475,-0.0661118,0.0405709,0.50167,-0.24993,-0.24997,6.86856e-06,2.92238e-06,-7.80457e-06,0.497305,0.6514769355619174,6.868583588559574e-06,2.922384270132028e-06,-0.22114469896567368,-7.804539544409295e-06,-0.22117585255463912
664,0.6525,920.873,0.172449,-0.0719959,-0.000675008,0.0363629,-0.0389321,0.502275,-0.25023,-0.250274,6.72065e-06,4.51782e-06,-8.87298e-06,0.497909,0.6524763814098162,6.720672583560017e-06,4.517830205275075e-06,-0.22137832051100004,-8.872940635229476e-06,-0.22141257911120282
665,0.6535,921.003,-0.146193,0.0883397,0.00896264,-0.064668,0.0394831,0.50288,-0.250534,-0.250575,6.88221e-06,2.87565e-06,-7.81704e-06,0.498513,0.653476432105401,6.8822336825036246e-06,2.8756541345931197e-06,-0.2216149855266597,-7.817009447075307e-06,-0.22164689865802945
666,0.6545,921.29,0.16787,-0.0697958,-0.000574919,0.0349732,-0.0378402,0.503485,-0.250835,-0.250878,6.73859e-06,4.42705e-06,-8.85599e-06,0.499117,0.6544770880147153,6.738612704282332e-06,4.4270597994167105e-06,-0.2218492441583234,-8.855950785813249e-06,-0.2218827039214345
667,0.6555,921.422,-0.141635,0.0860158,0.00877539,-0.0631657,0.0383495,0.504089,-0.251138,-0.251179,6.89555e-06,2.83016e-06,-7.83017e-06,0.49972,0.6554766940265024,6.8955737744236245e-06,2.8301640049299692e-06,-0.2220849881203295,-7.830139344244813e-06,-0.22211688198198798
668,0.6565,921.705,0.16312,-0.0675069,-0.000469828,0.0335288,-0.0367053,0.504693,-0.251438,-0.251482,6.75639e-06,4.33566e-06,-8.83847e-06,0.500323,0.6564769039826932,6.756412824548974e-06,4.335669399058162e-06,-0.22231832762121828,-8.838430940794062e-06,-0.22235254486201816
669,0.6575,921.839,-0.136917,0.0836092,0.00858373,-0.0616127,0.0371758,0.505297,-0.251742,-0.251782,6.90859e-06,2.78579e-06,-7.84387e-06,0.500926,0.657477718248181,6.908613864320401e-06,2.7857938802444693e-06,-0.22255470691814794,-7.843839236909567e-06,-0.22258580410792317
670,0.6585,922.12,0.158222,-0.0651409,-0.000360475,0.0320372,-0.0355331,0.5059,-0.252041,-0.252085,6.77403e-06,4.24379e-06,-8.8205e-06,0.501528,0.6584774787097705,6.774052943692155e-06,4.243799004877147e-06,-0.2227871283120494,-8.8204610995124e-06,-0.22282132492607265
671,0.6595,922.255,-0.132063,0.0811319,0.00838843,-0.0600164,0.035968,0.506502,-0.252344,-0.252385,6.92135e-06,2.74243e-06,-7.85808e-06,0.50213,0.659476182731703,6.921373952639698e-06,2.7424337605275184e-06,-0.22302258813820575,-7.85804912539767e-06,-0.22305444355905146
672,0.6605,922.533,0.153204,-0.0627068,-0.000248347,0.0305073,-0.0343282,0.507105,-0.252644,-0.252687,6.79151e-06,4.15156e-06,-8.80215e-06,0.502731,0.6604771486307788,6.791533062378008e-06,4.1515686177717726e-06,-0.22325564640127682,-8.802111261196899e-06,-0.22328904569039176
673,0.6615,922.67,-0.127104,0.0785909,0.00819157,-0.0583865,0.0347302,0.507707,-0.252946,-0.252987,6.93388e-06,2.69989e-06,-7.87276e-06,0.503332,0.661477056816421,6.933904039385652e-06,2.699893644653173e-06,-0.22349018777853313,-7.872729009927859e-06,-0.22352202402818666
674,0.6625,922.945,0.148083,-0.0602232,-0.000132954,0.0289442,-0.0331,0.508309,-0.253245,-0.253288,6.80884e-06,4.05902e-06,-8.78356e-06,0.503933,0.6624775671280123,6.8088631801632715e-06,4.059028237746176e-06,-0.22372232950546966,-8.783521424637897e-06,-0.2237557087276426
675,0.6635,923.084,-0.122046,0.0760115,0.00799041,-0.0567256,0.0334731,0.50891,-0.253547,-0.253588,6.94612e-06,2.65815e-06,-7.88774e-06,0.504534,0.6634770164502941,6.946144124331255e-06,2.6581535328418227e-06,-0.22395672996570803,-7.887708891818335e-06,-0.22398854708752403
676,0.6645,923.355,0.142885,-0.0576994,-1.48099e-05,0.0273563,-0.0318518,0.509511,-0.253846,-0.253889,6.82599e-06,3.96636e-06,-8.76475e-06,0.505134,0.664477066622156,6.8260132970454634e-06,3.966367865926301e-06,-0.22418873221738322,-8.764711589726026e-06,-0.22422209138467064
677,0.6655,923.496,-0.116925,0.0733953,0.00778809,-0.0550447,0.0321983,0.510112,-0.254147,-0.254188,6.95812e-06,2.61704e-06,-7.90299e-06,0.505733,0.6654777180048166,6.958144207702688e-06,2.617043424413268e-06,-0.2244222162678734,-7.902958771510704e-06,-0.22445401430514222
678,0.6665,923.764,0.137634,-0.055145,0.000104493,0.0257514,-0.0305895,0.510712,-0.254446,-0.254489,6.84294e-06,3.87368e-06,-8.7458e-06,0.506333,0.666477304481575,6.842963413022929e-06,3.873687502764511e-06,-0.22465407935994963,-8.745761755579728e-06,-0.2246874185177401
679,0.6675,923.907,-0.111762,0.0707548,0.00758517,-0.0533504,0.0309121,0.511312,-0.254747,-0.254788,6.96988e-06,2.57647e-06,-7.91844e-06,0.506932,0.6674774908901808,6.969904289721995e-06,2.5764733191380174e-06,-0.22488742336202816,-7.91840864922122e-06,-0.2249192023261971
680,0.6685,924.172,0.132353,-0.0525718,0.00022438,0.0241365,-0.0293185,0.511911,-0.255045,-0.255088,6.85968e-06,3.7811e-06,-8.72677e-06,0.50753,0.6684766091132581,6.859703527650751e-06,3.781107148270735e-06,-0.22511837249673616,-8.7267319218709e-06,-0.22515169169035099
681,0.6695,924.317,-0.106579,0.0681019,0.00738223,-0.0516498,0.0296202,0.51251,-0.255346,-0.255387,6.98142e-06,2.53631e-06,-7.93399e-06,0.508128,0.6694763259874292,6.981444370168788e-06,2.536313216339181e-06,-0.2253515767676112,-7.93395852594081e-06,-0.2253833367018806
682,0.6705,924.579,0.127064,-0.0499907,0.000344252,0.0225185,-0.0280444,0.513109,-0.255644,-0.255687,6.87621e-06,3.68872e-06,-8.70776e-06,0.508726,0.6704766418713934,6.876233641150975e-06,3.6887268033414244e-06,-0.22558238760521154,-8.707722087608616e-06,-0.2256156868466057
683,0.6715,924.726,-0.101396,0.0654472,0.00717984,-0.0499495,0.0283278,0.513708,-0.255944,-0.255985,6.99276e-06,2.49645e-06,-7.94959e-06,0.509324,0.6714775571240652,6.992784449488809e-06,2.496453116229702e-06,-0.22581467804362199,-7.949558402109425e-06,-0.22584641899112834
684,0.6725,924.984,0.121788,-0.0474125,0.000463518,0.020904,-0.0267724,0.514306,-0.256242,-0.256285,6.89252e-06,3.59665e-06,-8.68881e-06,0.509921,0.6724773996263378,6.892543753522773e-06,3.5966564679856816e-06,-0.2260453508976027,-8.688772252352095e-06,-0.22607863023200325
685,0.6735,925.133,-0.0962354,0.0628014,0.00697861,-0.0482559,0.0270399,0.514903,-0.256542,-0.256583,7.00389e-06,2.45681e-06,-7.96517e-06,0.510518,0.6734761667362328,7.003914527237143e-06,2.456813017914783e-06,-0.22627750246785672,-7.965138278165362e-06,-0.22630922443995072
686,0.6745,925.388,0.116543,-0.0448472,0.000581603,0.0192991,-0.0255072,0.515501,-0.256839,-0.256882,6.90859e-06,3.50499e-06,-8.67001e-06,0.511114,0.6744772047644803,6.908613864320401e-06,3.504996142433825e-06,-0.22650726392835796,-8.669972415553673e-06,-0.22654052340092534
687,0.6755,925.539,-0.0911144,0.060174,0.00677907,-0.0465752,0.0257614,0.516098,-0.257139,-0.257179,7.01483e-06,2.41726e-06,-7.98065e-06,0.51171,0.675477166114488,7.014854604081577e-06,2.4172629216057118e-06,-0.2267392769454868,-7.980618154657115e-06,-0.2267702067558086
688,0.6765,925.791,0.111349,-0.0423042,0.000697964,0.0177098,-0.0242536,0.516695,-0.257436,-0.257478,6.92442e-06,3.41383e-06,-8.6514e-06,0.512306,0.6764777246196549,6.924443973765904e-06,3.4138358271373903e-06,-0.22696890127933256,-8.65136257677257e-06,-0.22700136790367487
689,0.6775,925.944,-0.0860516,0.0575743,0.00658178,-0.044913,0.0244966,0.517291,-0.257735,-0.257776,7.02559e-06,2.37773e-06,-7.99598e-06,0.512902,0.6774772031585468,7.025614679578851e-06,2.3777328268526077e-06,-0.22720000302641707,-7.99594803224668e-06,-0.22723168717676345
690,0.6785,926.192,0.106223,-0.0397924,0.000812089,0.0161416,-0.0230159,0.517887,-0.258031,-0.258074,6.94001e-06,3.32326e-06,-8.63305e-06,0.513497,0.6784772775641987,6.940034081859281e-06,3.3232655221038243e-06,-0.22742871797403907,-8.633012735348444e-06,-0.2274619378249343
691,0.6795,926.347,-0.0810636,0.0550109,0.00638721,-0.0432747,0.0232497,0.518482,-0.25833,-0.258371,7.03617e-06,2.33813e-06,-8.01111e-06,0.514091,0.6794762687147444,7.036194753951008e-06,2.3381327334259794e-06,-0.22765968225648392,-8.011077911151965e-06,-0.22769134756036824
692,0.6805,926.593,0.101181,-0.03732,0.000923509,0.0145997,-0.021798,0.519078,-0.258626,-0.258669,6.95534e-06,3.23336e-06,-8.61502e-06,0.514686,0.6804775349185883,6.9553641883768336e-06,3.233365227339746e-06,-0.22788826115918948,-8.614982890842171e-06,-0.22792146125015256
693,0.6815,926.75,-0.0761658,0.0524916,0.00619582,-0.041665,0.0220245,0.519673,-0.258925,-0.258966,7.0466e-06,2.29837e-06,-8.02598e-06,0.51528,0.6814777165764008,7.046624827422576e-06,2.2983726413183803e-06,-0.2281190880587617,-8.025947791923116e-06,-0.2281507345273942
694,0.6825,926.992,0.0962382,-0.0348944,0.0010318,0.0130886,-0.0206035,0.520267,-0.259221,-0.259263,6.97042e-06,3.1442e-06,-8.59734e-06,0.515873,0.682476811041727,6.9704442935414335e-06,3.1442049430729924e-06,-0.2283475309974734,-8.597303042923166e-06,-0.22837993972058368
695,0.6835,927.151,-0.0713722,0.0500235,0.00600801,-0.0400886,0.0208246,0.520861,-0.259519,-0.25956,7.05687e-06,2.25838e-06,-8.04055e-06,0.516467,0.6834764991454587,7.056894899770683e-06,2.2583825500799293e-06,-0.22857744917372647,-8.040517674889891e-06,-0.2286090768499386
696,0.6845,927.39,0.0914073,-0.0325226,0.00113656,0.0116127,-0.0194359,0.521455,-0.259815,-0.259857,6.98523e-06,3.05586e-06,-8.58007e-06,0.517059,0.6844767812403219,6.985254396685292e-06,3.0558646690881375e-06,-0.22880575645762613,-8.580033191263325e-06,-0.2288381459356711
697,0.6855,927.55,-0.0666954,0.0476132,0.00582415,-0.0385494,0.019653,0.522049,-0.260112,-0.260153,7.06698e-06,2.2181e-06,-8.05477e-06,0.517652,0.6854776576792523,7.067004971217372e-06,2.2181024599277066e-06,-0.2290347671381887,-8.05473756038122e-06,-0.22906637606474867
698,0.6865,927.787,0.0867003,-0.0302107,0.00123746,0.0101757,-0.0182981,0.522642,-0.260407,-0.26045,6.99977e-06,2.96839e-06,-8.56325e-06,0.518244,0.6864774423371094,6.999794498474543e-06,2.968394405611363e-06,-0.22926216833855673,-8.563213335532893e-06,-0.2292953093527813
699,0.6875,927.949,-0.0621468,0.0452665,0.00564456,-0.0370509,0.0185126,0.523234,-0.260705,-0.260745,7.07696e-06,2.17747e-06,-8.06861e-06,0.518836,0.6874761325661136,7.076985041765127e-06,2.1774723706347032e-06,-0.22949181399348983,-8.06857744883871e-06,-0.22952263370453174
700,0.6885,928.183,0.0821279,-0.0279641,0.0013342,0.00878091,-0.0171927,0.523827,-0.261,-0.261042,7.01404e-06,2.88184e-06,-8.5469e-06,0.519428,0.688477102671029,7.014064598465097e-06,2.8818441524247618e-06,-0.22971908038492084,-8.546863475400457e-06,-0.22975143150416644
701,0.6895,928.346,-0.057736,0.0429884,0.00546951,-0.0355963,0.0174058,0.524419,-0.261296,-0.261337,7.0868e-06,2.13643e-06,-8.08203e-06,0.520019,0.6894769770494245,7.08682511141312e-06,2.1364322821959547e-06,-0.22994704979598957,-8.081997340481095e-06,-0.22997862131972735
702,0.6905,928.577,0.0776991,-0.0257875,0.00142651,0.00743129,-0.016122,0.525011,-0.261591,-0.261634,7.02804e-06,2.79627e-06,-8.53106e-06,0.52061,0.6904774435286967,7.028064696656955e-06,2.796273909533298e-06,-0.23017418191266537,-8.531023610647281e-06,-0.2302072837111494
703,0.6915,928.742,-0.0534715,0.0407832,0.00529925,-0.0341883,0.0163348,0.525602,-0.261888,-0.261929,7.09651e-06,2.09494e-06,-8.095e-06,0.5212,0.6914768109818161,7.0965351803842225e-06,2.094942194386107e-06,-0.23040278623121557,-8.094967235527939e-06,-0.23043433907014255
704,0.6925,928.971,0.0734216,-0.023685,0.00151419,0.00612928,-0.0150879,0.526193,-0.262182,-0.262224,7.04175e-06,2.71172e-06,-8.51575e-06,0.52179,0.692476769235665,7.0417747932705055e-06,2.7117236767182362e-06,-0.2306290145548705,-8.515713741052977e-06,-0.23066132745768353
705,0.6935,929.137,-0.0493603,0.0386547,0.00513397,-0.0328291,0.0153013,0.526784,-0.262478,-0.262519,7.10608e-06,2.05297e-06,-8.10751e-06,0.52238,0.6934773186395093,7.1061052482335185e-06,2.052972107424722e-06,-0.23085671466528346,-8.107477134200458e-06,-0.2308882488935261
706,0.6945,929.363,0.0693016,-0.0216598,0.00159707,0.00487689,-0.0140921,0.527374,-0.262772,-0.262814,7.05519e-06,2.6282e-06,-8.501e-06,0.52297,0.6944767650652099,7.055214887863315e-06,2.62820345375836e-06,-0.23108280955359473,-8.500963866620026e-06,-0.23111510339741803
707,0.6955,929.531,-0.0454082,0.0366057,0.0049738,-0.0315205,0.0143067,0.527964,-0.263068,-0.263109,7.11554e-06,2.01047e-06,-8.11952e-06,0.523559,0.6954768013382895,7.115565315407579e-06,2.0104720210856186e-06,-0.23131037536056587,-8.11948703682841e-06,-0.2313418909891013
708,0.6965,929.754,0.0653442,-0.0197148,0.00167501,0.00367573,-0.0131358,0.528554,-0.263362,-0.263404,7.06835e-06,2.54576e-06,-8.48682e-06,0.524147,0.6964774278068608,7.0683749808786445e-06,2.545763240435761e-06,-0.23153633689223707,-8.486783987016189e-06,-0.23156861168831222
709,0.6975,929.923,-0.0416195,0.0346387,0.00481888,-0.0302639,0.0133522,0.529143,-0.263657,-0.263698,7.12487e-06,1.96742e-06,-8.13104e-06,0.524736,0.6974769473414459,7.12489538190475e-06,1.967421935367142e-06,-0.2317630002383666,-8.131006943190577e-06,-0.2317944973096624
710,0.6985,930.144,0.0615531,-0.0178519,0.00174791,0.00252699,-0.01222,0.529732,-0.263951,-0.263993,7.08122e-06,2.46442e-06,-8.47322e-06,0.525324,0.6984770557664479,7.081245071871578e-06,2.4644230367520947e-06,-0.2319888287178834,-8.473184102353315e-06,-0.23202108450970083
711,0.6995,930.315,-0.0379973,0.0327553,0.00466927,-0.0290604,0.0124386,0.530321,-0.264245,-0.264286,7.13409e-06,1.92382e-06,-8.14203e-06,0.525912,0.6994777534288257,7.1341154477266855e-06,1.9238218504913362e-06,-0.23221459081358609,-8.14199685372774e-06,-0.23224606937004788
712,0.7005,930.533,0.0579309,-0.0160725,0.00181571,0.0014315,-0.0113453,0.530909,-0.264539,-0.264581,7.09381e-06,2.38417e-06,-8.46022e-06,0.526499,0.7004773401975517,7.0938351610649875e-06,2.3841728420403996e-06,-0.23244028654498872,-8.460184212411015e-06,-0.23247252337597557
713,0.7015,930.705,-0.0345438,0.0309566,0.00452502,-0.0279104,0.0115665,0.531497,-0.264833,-0.264874,7.14319e-06,1.87963e-06,-8.15251e-06,0.527086,0.7014775148961323,7.143215512650514e-06,1.8796317664548923e-06,-0.23266591593159935,-8.15247676833053e-06,-0.23269737598411067
714,0.7025,930.921,0.0544788,-0.0143776,0.0018784,0.0003897,-0.0105122,0.532084,-0.265126,-0.265168,7.10612e-06,2.30504e-06,-8.44782e-06,0.527673,0.702476575392945,7.106145248458873e-06,2.3050426565252025e-06,-0.23289071188401622,-8.447784317300311e-06,-0.23292292979753615
715,0.7035,931.093,-0.0312597,0.0292432,0.00438612,-0.0268145,0.010736,0.532671,-0.26542,-0.265461,7.15217e-06,1.83487e-06,-8.16246e-06,0.528259,0.7034762225104256,7.152195576898279e-06,1.8348716834815093e-06,-0.2331162088650418,-8.162426687219337e-06,-0.23314765045592134
716,0.7045,931.307,0.0511972,-0.0127674,0.00193598,-0.000598282,-0.00972071,0.533258,-0.265713,-0.265755,7.11815e-06,2.22703e-06,-8.43601e-06,0.528845,0.7044764565930217,7.118175334053234e-06,2.227032479762414e-06,-0.23334087290095584,-8.435974417020375e-06,-0.23337307190811019
717,0.7055,931.481,-0.028145,0.0276151,0.00425257,-0.0257724,0.00994716,0.533845,-0.266006,-0.266047,7.16104e-06,1.78951e-06,-8.17189e-06,0.529431,0.7054772779853828,7.161065640248765e-06,1.789511601124616e-06,-0.23356547111994996,-8.171856610172945e-06,-0.2335968942914547
718,0.7065,931.693,0.0480855,-0.0112417,0.00198848,-0.00153264,-0.00897075,0.534431,-0.266299,-0.266341,7.1299e-06,2.15012e-06,-8.42479e-06,0.530016,0.7064769805545272,7.129925417848071e-06,2.1501223115283352e-06,-0.23379000354130586,-8.424754511571209e-06,-0.23382218368536933
719,0.7075,931.867,-0.0251985,0.0260719,0.00412431,-0.0247838,0.00919979,0.535017,-0.266592,-0.266633,7.16979e-06,1.74358e-06,-8.18079e-06,0.530601,0.7074772691210576,7.169815702923188e-06,1.7435815200528282e-06,-0.2340144701842991,-8.18075653741257e-06,-0.2340458749472195
720,0.7085,932.077,0.0451421,-0.00979985,0.00203596,-0.00241387,-0.00826196,0.535602,-0.266884,-0.266926,7.14138e-06,2.07432e-06,-8.41417e-06,0.531185,0.7084764355511792,7.1414054996221665e-06,2.074322151379704e-06,-0.23423810530668843,-8.414134600953638e-06,-0.23427026663087303
721,0.7095,932.253,-0.0224184,0.0246126,0.00400127,-0.0238482,0.00849342,0.536187,-0.267177,-0.267218,7.17843e-06,1.69707e-06,-8.18918e-06,0.53177,0.7094761866646657,7.178455764922376e-06,1.697071440043274e-06,-0.23446244067509725,-8.189146468717823e-06,-0.23449382707160404
722,0.7105,932.461,0.0423645,-0.00844083,0.00207852,-0.00324271,-0.0075938,0.536772,-0.267469,-0.26751,7.15257e-06,1.99962e-06,-8.40413e-06,0.532354,0.7104765228036569,7.152595579595911e-06,1.9996219993156927e-06,-0.23468594500919926,-8.404094685388053e-06,-0.2347173222422162
723,0.7115,932.637,-0.0198018,0.0232359,0.00388334,-0.0229647,0.00782738,0.537357,-0.267761,-0.267802,7.18695e-06,1.64999e-06,-8.19706e-06,0.532937,0.7114774443104925,7.186975826245501e-06,1.6499913613188255e-06,-0.2349093840895632,-8.197026404199725e-06,-0.2349407521617657
724,0.7125,932.843,0.0397496,-0.00716314,0.00211625,-0.00402014,-0.00696553,0.537941,-0.268053,-0.268094,7.1635e-06,1.92599e-06,-8.39467e-06,0.533521,0.7124772390496183,7.16352565799383e-06,1.9259918546676857e-06,-0.23513275793524047,-8.394634764874453e-06,-0.23516411684930294
725,0.7135,933.02,-0.0173454,0.0219402,0.00377042,-0.0221322,0.00720087,0.538525,-0.268345,-0.268386,7.19536e-06,1.60237e-06,-8.20445e-06,0.534103,0.7134776178393978,7.195385886671346e-06,1.6023712838819648e-06,-0.23535606656527663,-8.204416343637888e-06,-0.23538741632387306
726,0.7145,933.224,0.0372937,-0.00596499,0.00214929,-0.00474736,-0.00637624,0.539108,-0.268636,-0.268678,7.17416e-06,1.85343e-06,-8.38576e-06,0.534686,0.7144768665432926,7.174185734371008e-06,1.8534317176577275e-06,-0.2355785455776399,-8.385724839632402e-06,-0.23561065060451536
727,0.7155,933.402,-0.0150451,0.0207235,0.00366236,-0.0213493,0.00661292,0.539691,-0.268928,-0.268969,7.20365e-06,1.55422e-06,-8.21135e-06,0.535268,0.7154766979790317,7.203675946421129e-06,1.5542212077335193e-06,-0.23580172405668753,-8.211316286921289e-06,-0.23583305554370138
728,0.7165,933.604,0.0349923,-0.00484428,0.00217778,-0.00542572,-0.00582488,0.540274,-0.269218,-0.26926,7.18455e-06,1.7819e-06,-8.3774e-06,0.53585,0.7164771124864464,7.184575808949489e-06,1.7819015876163746e-06,-0.23602330942527971,-8.3773649096619e-06,-0.23605539577246581
729,0.7175,933.782,-0.0128964,0.0195835,0.00355901,-0.0206147,0.00606241,0.540856,-0.26951,-0.269551,7.21183e-06,1.50556e-06,-8.21778e-06,0.536432,0.7174763929283154,7.211856005273631e-06,1.5055611333192331e-06,-0.23624635805224314,-8.217746234162604e-06,-0.23627767130963684
730,0.7185,933.983,0.0328407,-0.00379866,0.00220187,-0.00605677,-0.00531029,0.541438,-0.2698,-0.269842,7.19468e-06,1.71138e-06,-8.36957e-06,0.537013,0.7184762551206745,7.194705881730101e-06,1.7113814643199277e-06,-0.23646781449567167,-8.369534975294357e-06,-0.23649988217403695
731,0.7195,934.162,-0.0108941,0.0185178,0.00346021,-0.0199268,0.00554813,0.54202,-0.270091,-0.270132,7.21988e-06,1.45641e-06,-8.22376e-06,0.537594,0.719476699402201,7.219906063449244e-06,1.456411060640761e-06,-0.23668997003645453,-8.223726185030422e-06,-0.23672126510612967
732,0.7205,934.361,0.0308335,-0.00282557,0.00222173,-0.00664216,-0.00483119,0.542602,-0.270382,-0.270423,7.20455e-06,1.64185e-06,-8.36224e-06,0.538174,0.7204777261117699,7.2045759529348885e-06,1.6418513477667318e-06,-0.23691206093938033,-8.362205036527293e-06,-0.23694334690351515
733,0.7215,934.54,-0.00903302,0.0175237,0.0033658,-0.0192838,0.00506876,0.543183,-0.270672,-0.270713,7.22781e-06,1.40681e-06,-8.2293e-06,0.538755,0.7214776141099772,7.227836120726749e-06,1.4068109894793679e-06,-0.23713332435696166,-8.229266139414548e-06,-0.23716460124948235
734,0.7225,934.738,0.0289652,-0.00192226,0.00223754,-0.00718366,-0.00438624,0.543763,-0.270962,-0.271004,7.21416e-06,1.57327e-06,-8.35542e-06,0.539334,0.722476360734684,7.214186022119762e-06,1.5732712375093882e-06,-0.23735452361745513,-8.355385093583578e-06,-0.23738655405481934
735,0.7235,934.917,-0.0073073,0.0165983,0.00327558,-0.018684,0.00462291,0.544344,-0.271252,-0.271293,7.23562e-06,1.35677e-06,-8.23443e-06,0.539914,0.7234774102770034,7.2356461771061475e-06,1.356770920502015e-06,-0.23757565873946362,-8.234396097206442e-06,-0.23760691749664642
736,0.7245,935.114,0.0272299,-0.00108584,0.00224948,-0.0076831,-0.00397399,0.544924,-0.271542,-0.271583,7.22353e-06,1.50563e-06,-8.34906e-06,0.540493,0.7244773171199177,7.223556089730465e-06,1.5056311335470696e-06,-0.2377967297415845,-8.349025146681122e-06,-0.23782797943504197
737,0.7255,935.294,-0.00571106,0.0157387,0.00318937,-0.0181253,0.00420913,0.545503,-0.271832,-0.271873,7.24331e-06,1.30633e-06,-8.23916e-06,0.541072,0.7254760786000765,7.243336232809483e-06,1.306330853267923e-06,-0.23801773664241,-8.239126058184887e-06,-0.23804897727477026
738,0.7265,935.489,0.0256216,-0.000313325,0.00225775,-0.00814242,-0.00359298,0.546083,-0.272121,-0.272163,7.23264e-06,1.43888e-06,-8.34316e-06,0.541651,0.7264771450068592,7.232666155543299e-06,1.438881035209505e-06,-0.23823791769882519,-8.343125195930945e-06,-0.23826991103441708
739,0.7275,935.669,-0.00423819,0.0149418,0.00310698,-0.0176061,0.00382593,0.546662,-0.272411,-0.272452,7.25086e-06,1.25552e-06,-8.24352e-06,0.542229,0.7274770647226414,7.2508862876130564e-06,1.255520788223663e-06,-0.23845879667369319,-8.243486022241342e-06,-0.23849001922296287
740,0.7285,935.862,0.024134,0.000398356,0.00226252,-0.00856356,-0.0032417,0.547241,-0.2727,-0.272741,7.24152e-06,1.373e-06,-8.33769e-06,0.542807,0.7284775635595784,7.241546219782791e-06,1.3730009424950396e-06,-0.2386788502821764,-8.33765524155261e-06,-0.23871006380943316
741,0.7295,936.043,-0.00288249,0.0142046,0.00302822,-0.0171241,0.00347178,0.547819,-0.272989,-0.27303,7.25829e-06,1.20436e-06,-8.24751e-06,0.543384,0.7294769123753013,7.2583163415185226e-06,1.2043607251488453e-06,-0.2388988403043555,-8.247475989375808e-06,-0.23893004481220625
742,0.7305,936.235,0.0227609,0.00105231,0.002264,-0.00894851,-0.00291862,0.548397,-0.273278,-0.273319,7.25015e-06,1.30795e-06,-8.33263e-06,0.543961,0.7304768389816052,7.250176282447285e-06,1.3079508554003638e-06,-0.23911876675860422,-8.332595283766508e-06,-0.23914996224965512
743,0.7315,936.415,-0.00163771,0.0135238,0.00295289,-0.0166775,0.00314517,0.548975,-0.273566,-0.273607,7.26559e-06,1.15289e-06,-8.25117e-06,0.544538,0.7314773437125495,7.265616394525054e-06,1.1528906644908687e-06,-0.2393378690015403,-8.251135959147504e-06,-0.23936905550958343
744,0.7325,936.607,0.0214961,0.00165167,0.00226238,-0.00929924,-0.0026222,0.549552,-0.273855,-0.273896,7.25854e-06,1.24371e-06,-8.32796e-06,0.545115,0.7324766944248262,7.2585663433155645e-06,1.2437107734797337e-06,-0.23955766859482786,-8.327925322682006e-06,-0.2395888460912724
745,0.7335,936.787,-0.000497601,0.0128964,0.00288081,-0.0162643,0.00284454,0.550129,-0.274143,-0.274184,7.27275e-06,1.10113e-06,-8.25452e-06,0.545691,0.733476621928852,7.272776446409779e-06,1.1011306062513881e-06,-0.23977664445223545,-8.254485931558087e-06,-0.23980781297085396
746,0.7345,936.978,0.0203333,0.00219956,0.00225784,-0.00961774,-0.00235091,0.550706,-0.274431,-0.274473,7.26671e-06,1.18023e-06,-8.32367e-06,0.546267,0.7344771265575323,7.266736402611329e-06,1.1802306965069675e-06,-0.23999555725367672,-8.323635358409298e-06,-0.2400274767699575
747,0.7355,937.158,0.00054404,0.0123192,0.00281178,-0.0158825,0.00256837,0.551282,-0.27472,-0.274761,7.27978e-06,1.04912e-06,-8.25757e-06,0.546843,0.735476473166623,7.2798064976176136e-06,1.0491205504337131e-06,-0.24021516680252208,-8.257535906386337e-06,-0.24024631734209279
748,0.7365,937.347,0.0192663,0.00269906,0.00225059,-0.00990597,-0.00210324,0.551858,-0.275007,-0.275048,7.27464e-06,1.11749e-06,-8.31972e-06,0.547418,0.7364763955651716,7.274666460332924e-06,1.1174906244804106e-06,-0.24043319376128458,-8.319685391278142e-06,-0.24046433536193323
749,0.7375,937.527,0.00149333,0.0117892,0.00274561,-0.0155302,0.00231517,0.552434,-0.275295,-0.275336,7.28667e-06,9.96885e-07,-8.26034e-06,0.547993,0.7374768940849292,7.286696547925686e-06,9.968854968178675e-07,-0.2406519175037507,-8.26030588352289e-06,-0.24068305013690972
750,0.7385,937.716,0.0182891,0.00315322,0.00224079,-0.0101658,-0.00187769,0.553009,-0.275582,-0.275624,7.28236e-06,1.05546e-06,-8.31609e-06,0.548567,0.7384762305807369,7.2823865164828305e-06,1.0554605569534914e-06,-0.2408698191330476,-8.316055421397905e-06,-0.2409017019311005
751,0.7395,937.896,0.00235624,0.0113033,0.00268212,-0.0152054,0.00208345,0.553584,-0.27587,-0.275911,7.29342e-06,9.44457e-07,-8.26285e-06,0.549141,0.7394761418602638,7.293446597111952e-06,9.44457446028224e-07,-0.24108841714551255,-8.262815862747352e-06,-0.24111953188255308
752,0.7405,938.083,0.0173957,0.00356502,0.00222864,-0.0103992,-0.0016728,0.554159,-0.276157,-0.276198,7.28985e-06,9.94101e-07,-8.31278e-06,0.549715,0.7404766282541062,7.289876571059395e-06,9.94101494011801e-07,-0.24130619351738758,-8.312745448990633e-06,-0.24133729932577985
753,0.7415,938.263,0.00313862,0.0108586,0.00262114,-0.0149064,0.00187179,0.554734,-0.276444,-0.276485,7.30003e-06,8.91863e-07,-8.26513e-06,0.550289,0.7414776900930498,7.3000566451764115e-06,8.91863397800563e-07,-0.24152390739641205,-8.265095843951187e-06,-0.24155500427871834
754,0.7425,938.45,0.0165803,0.00393735,0.0022143,-0.010608,-0.00148716,0.555308,-0.276731,-0.276772,7.29713e-06,9.33388e-07,-8.30976e-06,0.550862,0.7424775852296139,7.2971566240642716e-06,9.333884356532707e-07,-0.24174155880051873,-8.309725474053842e-06,-0.24177264675930044
755,0.7435,938.63,0.00384612,0.0104523,0.0025625,-0.0146313,0.00167878,0.555881,-0.277018,-0.277059,7.3065e-06,8.3913e-07,-8.26719e-06,0.551435,0.743476310993556,7.306526692563153e-06,8.391303520927096e-07,-0.2419591477476356,-8.267155826913175e-06,-0.24199022678545323
756,0.7445,938.815,0.0158374,0.00427301,0.00219795,-0.0107938,-0.00131941,0.556455,-0.277304,-0.277345,7.30419e-06,8.73292e-07,-8.30701e-06,0.552008,0.7444773536678289,7.304216675718678e-06,8.732923812981852e-07,-0.24217591643198033,-8.306975496918945e-06,-0.2422069865824642
757,0.7455,938.995,0.00448419,0.0100815,0.00250602,-0.0143784,0.00150308,0.557028,-0.277591,-0.277631,7.31282e-06,7.86287e-07,-8.26905e-06,0.55258,0.7454772256274396,7.312846738827261e-06,7.8628730904029e-07,-0.24239338073634398,-8.26901581152395e-06,-0.24242368439503725
758,0.7465,939.18,0.0151617,0.00457469,0.00217974,-0.0109585,-0.00116821,0.557601,-0.277877,-0.277918,7.31104e-06,8.13784e-07,-8.30451e-06,0.553152,0.7464776706778582,7.311066725801396e-06,8.137843310329629e-07,-0.2426100252478115,-8.304475517695309e-06,-0.24264107760019882
759,0.7475,939.359,0.00505804,0.00974364,0.00245156,-0.014146,0.0013434,0.558173,-0.278163,-0.278204,7.319e-06,7.33357e-07,-8.27072e-06,0.553723,0.7474769416697442,7.319026783969562e-06,7.333572689116608e-07,-0.2428266078078083,-8.270685797673316e-06,-0.24285765128049264
760,0.7485,939.543,0.0145481,0.00484498,0.00215983,-0.0111036,-0.00103231,0.558745,-0.278449,-0.27849,7.31769e-06,7.54837e-07,-8.30224e-06,0.554295,0.7484767844081415,7.317716774313254e-06,7.548372848997786e-07,-0.24304312843404974,-8.302205536492302e-06,-0.2430741630295704
761,0.7495,939.723,0.00557268,0.00943621,0.00239896,-0.0139325,0.0011985,0.559317,-0.278734,-0.278775,7.32502e-06,6.80366e-07,-8.27223e-06,0.554866,0.7494771992201825,7.325046827988402e-06,6.803662313537018e-07,-0.24325883040345542,-8.272195785252734e-06,-0.24328985615537657
762,0.7505,939.906,0.0139916,0.00508635,0.00213837,-0.0112307,-0.000910513,0.559888,-0.27902,-0.279061,7.32414e-06,6.96426e-07,-8.3002e-06,0.555436,0.750476435955876,7.324166821476297e-06,6.964262424524748e-07,-0.2434752274317099,-8.300165553420946e-06,-0.2435062443115349
763,0.7515,940.085,0.00603286,0.00915677,0.00234808,-0.0137365,0.00106722,0.560459,-0.279305,-0.279346,7.3309e-06,6.27338e-07,-8.27358e-06,0.556006,0.7514762434186726,7.330926871107479e-06,6.273381967236702e-07,-0.24369080627044826,-8.273545774040159e-06,-0.2437218143117219
764,0.7525,940.267,0.0134876,0.00530114,0.00211548,-0.0113412,-0.000801662,0.56103,-0.279591,-0.279631,7.33038e-06,6.38527e-07,-8.29836e-06,0.556576,0.7524766219345504,7.330406867289696e-06,6.385272037778833e-07,-0.24390707977127002,-8.298325568700804e-06,-0.2439373228832129
765,0.7535,940.446,0.00644308,0.00890304,0.00229879,-0.0135565,0.000948434,0.561601,-0.279876,-0.279916,7.33663e-06,5.74292e-07,-8.2748e-06,0.557146,0.7534775718296742,7.336656913103923e-06,5.742921649343202e-07,-0.24412253554962848,-8.27476576392705e-06,-0.24415277004351255
766,0.7545,940.628,0.0130318,0.00549157,0.00209131,-0.0114366,-0.00070468,0.562171,-0.280161,-0.280201,7.33643e-06,5.81116e-07,-8.2967e-06,0.557715,0.7544773389521784,7.336456911755107e-06,5.811161687407917e-07,-0.24433792993183934,-8.296665582441243e-06,-0.2443681558101205
767,0.7555,940.806,0.00680758,0.00867287,0.00225095,-0.0133912,0.000841095,0.562741,-0.280445,-0.280486,7.34221e-06,5.21252e-07,-8.27589e-06,0.558284,0.7554776761043855,7.342236954199777e-06,5.212521358988198e-07,-0.2445525074882835,-8.275855754913408e-06,-0.24458348020053156
768,0.7565,940.987,0.01262,0.00565972,0.00206597,-0.0115181,-0.000618546,0.56331,-0.28073,-0.280771,7.34229e-06,5.24171e-07,-8.29522e-06,0.558853,0.7564768271335993,7.342316954650485e-06,5.241711373837887e-07,-0.2447677793459525,-8.295185594753285e-06,-0.24479874323223527
769,0.7575,941.165,0.00713036,0.00846423,0.00220446,-0.0132392,0.000744214,0.563879,-0.281014,-0.281055,7.34763e-06,4.68236e-07,-8.27687e-06,0.559421,0.7574765468415228,7.347656993950125e-06,4.6823610966306717e-07,-0.24498223484249626,-8.276835746778843e-06,-0.24501318993628396
770,0.7585,941.346,0.0122483,0.00580756,0.00203958,-0.011587,-0.000542303,0.564448,-0.281298,-0.281339,7.34796e-06,4.67671e-07,-8.29391e-06,0.559989,0.7584768355518259,7.34798699641992e-06,4.6767110939427425e-07,-0.24519662944232679,-8.293875605636103e-06,-0.2452275757461161
771,0.7595,941.524,0.00741516,0.00827521,0.0021592,-0.0130995,0.000656864,0.565017,-0.281583,-0.281623,7.3529e-06,4.15262e-07,-8.27776e-06,0.560557,0.7594776935883629,7.352927032577838e-06,4.1526208627296057e-07,-0.2454117177513958,-8.277725739413988e-06,-0.24544190067902327
772,0.7605,941.703,0.0119132,0.00593693,0.00201225,-0.0116444,-0.000475056,0.565585,-0.281867,-0.281907,7.35343e-06,4.11598e-07,-8.29274e-06,0.561125,0.760477360796932,7.353457036618494e-06,4.1159808472635007e-07,-0.24562599039539879,-8.29270561530926e-06,-0.2456561647522918
773,0.7615,941.881,0.00766548,0.00810404,0.00211506,-0.0129709,0.000578178,0.566153,-0.28215,-0.282191,7.35802e-06,3.62348e-07,-8.27855e-06,0.561692,0.7614775959777644,7.358047070304963e-06,3.6234806555235366e-07,-0.24583944803443636,-8.278515732929037e-06,-0.24587036798320372
774,0.7625,942.06,0.0116112,0.00604955,0.00198408,-0.0116914,-0.000415969,0.56672,-0.282434,-0.282475,7.35872e-06,3.55933e-07,-8.29171e-06,0.562258,0.7624766369760418,7.358747075469907e-06,3.5593306324521734e-07,-0.2460535992202868,-8.291675623883776e-06,-0.24608451038903545
775,0.7635,942.237,0.00788455,0.00794906,0.00207196,-0.0128523,0.000507351,0.567287,-0.282717,-0.282758,7.36298e-06,3.09508e-07,-8.27927e-06,0.562825,0.7634762445911858,7.363007106908626e-06,3.0950804785767616e-07,-0.24626693586314863,-8.279235726993406e-06,-0.2462978382852743
776,0.7645,942.416,0.0113392,0.00614699,0.00195516,-0.011729,-0.000364266,0.567854,-0.283001,-0.283041,7.36383e-06,3.00659e-07,-8.2908e-06,0.563391,0.7644764191445594,7.363857112974159e-06,3.00659045215923e-07,-0.2464809656596938,-8.290765631358e-06,-0.2465111058182603
777,0.7655,942.592,0.0080754,0.00780873,0.00202979,-0.0127428,0.000443635,0.568421,-0.283284,-0.283324,7.36778e-06,2.56759e-07,-8.27993e-06,0.563957,0.7654771609577078,7.367807142166782e-06,2.5675903292388114e-07,-0.24669418137496546,-8.2798957214969e-06,-0.2467243130050738
778,0.7665,942.77,0.0110944,0.00623075,0.00192557,-0.0117581,-0.000319229,0.568987,-0.283567,-0.283607,7.36876e-06,2.45761e-07,-8.29002e-06,0.564522,0.7664767038747713,7.368787149353295e-06,2.457610301931368e-07,-0.2469073367587269,-8.289985637843778e-06,-0.24693745986279048
779,0.7675,942.946,0.00824081,0.00768164,0.00198849,-0.0126415,0.00038634,0.569553,-0.28385,-0.28389,7.37243e-06,2.04113e-07,-8.28052e-06,0.565087,0.7674768126932607,7.37245717652435e-06,2.0411302092959716e-07,-0.24712043182804966,-8.280485716549713e-06,-0.2471505464084809
780,0.7685,943.124,0.010874,0.00630218,0.00189539,-0.0117796,-0.000280194,0.570119,-0.284132,-0.284173,7.3735e-06,1.91223e-07,-8.28934e-06,0.565652,0.7684774877335674,7.373527184384443e-06,1.9122301830876154e-07,-0.24733271393309053,-8.289305643560674e-06,-0.24736357265921105
781,0.7695,943.3,0.00838333,0.00756648,0.00194797,-0.0125477,0.000334826,0.570684,-0.284415,-0.284455,7.37693e-06,1.51582e-07,-8.28107e-06,0.566217,0.7694769598384184,7.376957209537238e-06,1.5158201138731897e-07,-0.24754568863770532,-8.281035712043305e-06,-0.24757578620820442
782,0.7705,943.477,0.0106757,0.00636253,0.0018647,-0.0117943,-0.000246551,0.571249,-0.284697,-0.284738,7.37807e-06,1.37033e-07,-8.28876e-06,0.566781,0.7704769968045668,7.378097218069257e-06,1.3703300938416874e-07,-0.24775785083723334,-8.288725648286643e-06,-0.24778869213309818
783,0.7715,943.652,0.00850534,0.00746203,0.00190817,-0.0124605,0.00028851,0.571814,-0.284979,-0.28502,7.38126e-06,9.91773e-08,-8.28157e-06,0.567345,0.7714775989512499,7.3812872416478825e-06,9.917730481312503e-08,-0.24796995321545634,-8.281535707865828e-06,-0.24800078581530194
784,0.7725,943.828,0.010497,0.00641296,0.00183356,-0.0118027,-0.000217738,0.572378,-0.285261,-0.285302,7.38247e-06,8.31773e-08,-8.28828e-06,0.567908,0.772476994120004,7.382497250407738e-06,8.31773034892791e-08,-0.2481819957892415,-8.288245652354753e-06,-0.24821281969551978
785,0.7735,944.003,0.00860899,0.00736721,0.00186902,-0.0123793,0.000246854,0.572942,-0.285543,-0.285584,7.38544e-06,4.691e-08,-8.28204e-06,0.568471,0.7734769531066148,7.385467272413848e-06,4.691000099477094e-08,-0.2483939785754512,-8.282005704018935e-06,-0.24842479379061344
786,0.7745,944.179,0.010336,0.00645452,0.00180203,-0.0118057,-0.000193245,0.573506,-0.285825,-0.285865,7.38669e-06,2.96453e-08,-8.28787e-06,0.569034,0.7744774762291657,7.386717281621102e-06,2.9645300436698108e-08,-0.24860590159094342,-8.287835655651499e-06,-0.24863595675377248
787,0.7755,944.354,0.00869624,0.007281,0.00183046,-0.0123034,0.000209367,0.574069,-0.286106,-0.286147,7.38947e-06,-5.21109e-09,-8.28248e-06,0.569597,0.7754767883282427,7.389497302279224e-06,-5.2110900039537e-09,-0.24881701366996012,-8.282445700391605e-06,-0.24884781154103897
788,0.7765,944.529,0.0101908,0.00648818,0.00177017,-0.0118039,-0.000172602,0.574632,-0.286388,-0.286428,7.39074e-06,-2.35739e-08,-8.28755e-06,0.570159,0.7764766631984368,7.390767311488133e-06,-2.35738997211854e-08,-0.24902881740637473,-8.28751565840058e-06,-0.24905885565290953
789,0.7775,944.703,0.00876889,0.00720247,0.00179245,-0.0122323,0.000175604,0.575195,-0.286669,-0.286709,7.39333e-06,-5.71775e-08,-8.28289e-06,0.570721,0.777477101156677,7.393357330798267e-06,-5.717749840261632e-08,-0.2492398106627427,-8.282855696983837e-06,-0.249269840469716
790,0.7785,944.878,0.0100596,0.0065148,0.00173803,-0.0117976,-0.000155385,0.575757,-0.28695,-0.28699,7.39462e-06,-7.649e-08,-8.2873e-06,0.571283,0.7784763240428583,7.3946473402308754e-06,-7.648999711395987e-08,-0.24945074463833483,-8.287265660378296e-06,-0.24948076600811797
791,0.7795,945.052,0.00882858,0.00713081,0.00175493,-0.0121654,0.000145158,0.576319,-0.287231,-0.287271,7.39705e-06,-1.08982e-07,-8.28329e-06,0.571844,0.7794761086501303,7.397077358195503e-06,-1.0898199409581366e-07,-0.24966161934980702,-8.283255693686264e-06,-0.24969163228477032
792,0.7805,945.226,0.00994101,0.00653518,0.00170565,-0.0117876,-0.000141207,0.576881,-0.287512,-0.287552,7.39834e-06,-1.29112e-07,-8.28711e-06,0.572405,0.7804764552942691,7.398367367850156e-06,-1.2911199165355214e-07,-0.24987243481380983,-8.28707566202791e-06,-0.24990243931632317
793,0.7815,945.399,0.00887677,0.00706524,0.00171786,-0.0121024,0.000117661,0.577443,-0.287792,-0.287833,7.4006e-06,-1.60617e-07,-8.28368e-06,0.572966,0.7814773642912285,7.40062738446845e-06,-1.6061698715486017e-07,-0.2500824411298056,-8.283645690387864e-06,-0.2501131871194222
794,0.7825,945.573,0.00983348,0.00655004,0.00167307,-0.0117741,-0.000129721,0.578004,-0.288073,-0.288113,7.40188e-06,-1.81448e-07,-8.28699e-06,0.573526,0.7824770534791945,7.401907393900231e-06,-1.8144798352714986e-07,-0.25029313835950107,-8.286955663017181e-06,-0.25032312603420914
795,0.7835,945.746,0.00891481,0.00700509,0.00168121,-0.0120426,9.27827e-05,0.578565,-0.288353,-0.288393,7.404e-06,-2.12077e-07,-8.28405e-06,0.574086,0.7834773036501359,7.404027409618763e-06,-2.1207697753489185e-07,-0.25050302689499415,-8.284015687309854e-06,-0.2505330061743287
796,0.7845,945.919,0.0097358,0.00656003,0.00164033,-0.0117576,-0.000120611,0.579125,-0.288633,-0.288673,7.40526e-06,-2.33505e-07,-8.28693e-06,0.574646,0.7844763306416298,7.405287419048889e-06,-2.335049726909233e-07,-0.25071285666992404,-8.286895663456306e-06,-0.25074282755623556
797,0.7855,946.091,0.00894388,0.00694975,0.00164493,-0.0119859,7.02226e-05,0.579686,-0.288913,-0.288953,7.40724e-06,-2.63357e-07,-8.28442e-06,0.575206,0.7854777027217255,7.4072674336456146e-06,-2.633569653465173e-07,-0.2509226277007417,-8.284385684342865e-06,-0.25095259019637983
798,0.7865,946.264,0.00964683,0.00656572,0.00160747,-0.0117385,-0.000113594,0.580245,-0.289193,-0.289233,7.40848e-06,-2.8529e-07,-8.28692e-06,0.575765,0.7864760637734634,7.4085074428520414e-06,-2.852899593230873e-07,-0.25113234000389295,-8.286885663566501e-06,-0.2511622941112067
799,0.7875,946.436,0.00896507,0.00689865,0.001609,-0.0119318,4.9712e-05,0.580805,-0.289472,-0.289513,7.41033e-06,-3.14452e-07,-8.28479e-06,0.576324,0.7874767705409198,7.410357456549832e-06,-3.1445195058932285e-07,-0.2513412449374385,-8.284755681264855e-06,-0.25137193931715707
800,0.7885,946.608,0.00956554,0.00656765,0.0015745,-0.0117171,-0.000108415,0.581364,-0.289752,-0.289792,7.41154e-06,-3.36809e-07,-8.28696e-06,0.576882,0.7884762493839621,7.411567465531732e-06,-3.368089432909116e-07,-0.2515508400441717,-8.286925663236744e-06,-0.2515807774118186
801,0.7895,946.78,0.00897934,0.0068513,0.00157339,-0.0118801,3.10099e-05,0.581923,-0.290031,-0.290072,7.41326e-06,-3.65358e-07,-8.28516e-06,0.57744,0.7894762870918661,7.413287478330588e-06,-3.6535793324077304e-07,-0.25175962823249276,-8.285125678186844e-06,-0.25179030545884784
802,0.7905,946.951,0.00949101,0.00656627,0.00154147,-0.0116937,-0.000104849,0.582482,-0.29031,-0.290351,7.41443e-06,-3.88068e-07,-8.28704e-06,0.577998,0.7904768839771243,7.414457486865089e-06,-3.8806792468371043e-07,-0.25196835817703467,-8.28700566257723e-06,-0.25199902684563746
803,0.7915,947.123,0.00898755,0.00680726,0.00153808,-0.0118304,1.39008e-05,0.58304,-0.290589,-0.29063,7.41604e-06,-4.1607e-07,-8.28554e-06,0.578556,0.7914762488752596,7.41606749898871e-06,-4.160699134114765e-07,-0.2521770298940451,-8.285505674998639e-06,-0.25220769000728294
804,0.7925,947.294,0.00942244,0.00656201,0.00150838,-0.0116685,-0.00010269,0.583598,-0.290868,-0.290909,7.41716e-06,-4.39071e-07,-8.28717e-06,0.579113,0.79247617157462,7.4171875072970295e-06,-4.3907090363504153e-07,-0.25238564339976743,-8.287135661477762e-06,-0.2524162949600268
805,0.7935,947.465,0.00899047,0.00676612,0.00150303,-0.0117825,-1.80737e-06,0.584156,-0.291147,-0.291187,7.41866e-06,-4.66587e-07,-8.28592e-06,0.57967,0.7934766523865457,7.418687518301326e-06,-4.665868911235549e-07,-0.2525941987104402,-8.285885671810433e-06,-0.2526240943445751
806,0.7945,947.635,0.0093591,0.00655525,0.00147527,-0.0116418,-0.00010176,0.584714,-0.291425,-0.291466,7.41974e-06,-4.89824e-07,-8.28734e-06,0.580227,0.7944776916225502,7.419767526384291e-06,-4.898238800121746e-07,-0.2528019486446199,-8.287305660048538e-06,-0.2528325831367141
807,0.7955,947.806,0.00898879,0.00672755,0.00146824,-0.0117362,-1.62857e-05,0.585271,-0.291704,-0.291744,7.42113e-06,-5.16904e-07,-8.28631e-06,0.580783,0.7954774941159295,7.421157536713352e-06,-5.169038663765946e-07,-0.25301038782233065,-8.286275668623055e-06,-0.2530402668092341
808,0.7965,947.976,0.00930033,0.0065463,0.00144215,-0.0116137,-0.000101897,0.585827,-0.291982,-0.292022,7.42216e-06,-5.40331e-07,-8.28755e-06,0.581339,0.7964760571774647,7.422187544348091e-06,-5.403308540596896e-07,-0.25321802207201816,-8.28751565840058e-06,-0.2532478927537176
809,0.7975,948.146,0.00898311,0.00669123,0.00143369,-0.0116913,-2.96858e-05,0.586384,-0.29226,-0.2923,7.42344e-06,-5.67021e-07,-8.2867e-06,0.581895,0.7974769730705111,7.423467553779872e-06,-5.670208392816178e-07,-0.2534255986074069,-8.286665665435677e-06,-0.25345546098621097
810,0.7985,948.316,0.00924558,0.00653547,0.00140904,-0.0115845,-0.000102958,0.58694,-0.292538,-0.292578,7.42442e-06,-5.90595e-07,-8.2878e-06,0.58245,0.7984766481514578,7.424447560966385e-06,-5.905948256001992e-07,-0.2536331174445391,-8.28776565631184e-06,-0.25366297152275574
811,0.7995,948.485,0.00897397,0.00665687,0.00139935,-0.0116477,-4.2142e-05,0.587496,-0.292816,-0.292856,7.42561e-06,-6.16935e-07,-8.28711e-06,0.583005,0.7994768792062961,7.42563756994663e-06,-6.169348096829452e-07,-0.25384057859945286,-8.28707566202791e-06,-0.25387042437938934
812,0.8005,948.654,0.00919433,0.006523,0.00137595,-0.0115543,-0.000104819,0.588052,-0.293094,-0.293134,7.42653e-06,-6.4062e-07,-8.28808e-06,0.58356,0.800477666544233,7.42655757668409e-06,-6.406197947672609e-07,-0.2540479820881816,-8.28804565400354e-06,-0.25407781957214437
813,0.8015,948.823,0.00896184,0.00662424,0.00136522,-0.0116051,-5.3773e-05,0.588607,-0.293371,-0.293411,7.42762e-06,-6.66644e-07,-8.28754e-06,0.584115,0.8014772089965385,7.4276475847678824e-06,-6.666437778468648e-07,-0.25425458218170915,-8.287505658399752e-06,-0.25428441140183344
814,0.8025,948.992,0.00914613,0.00650914,0.0013429,-0.0115233,-0.000107369,0.589162,-0.293648,-0.293689,7.42848e-06,-6.90409e-07,-8.28839e-06,0.584669,0.8024773063488757,7.428507591278333e-06,-6.904087617165544e-07,-0.25446112505493623,-8.288355651364654e-06,-0.2544916915221921
815,0.8035,949.161,0.00894714,0.00659312,0.00133129,-0.0115635,-6.46831e-05,0.589716,-0.293925,-0.293966,7.42948e-06,-7.16146e-07,-8.28797e-06,0.585223,0.8034761554322423,7.429507598688545e-06,-7.161457435955754e-07,-0.2546676107237106,-8.287935654882617e-06,-0.25469816872522766
816,0.8045,949.329,0.0091006,0.00649408,0.00130989,-0.0114915,-0.000110509,0.590271,-0.294202,-0.294243,7.43028e-06,-7.39965e-07,-8.28874e-06,0.585776,0.8044773625077708,7.430307604527897e-06,-7.399647262706921e-07,-0.25487403920387575,-8.288705648507033e-06,-0.2549045887419985
817,0.8055,949.497,0.00893023,0.00656331,0.00129754,-0.0115227,-7.49644e-05,0.590825,-0.294479,-0.29452,7.43119e-06,-7.65442e-07,-8.28843e-06,0.58633,0.8054773199292307,7.431217611264529e-06,-7.654417070179775e-07,-0.2550804105112706,-8.288395651034897e-06,-0.2551109515883433
818,0.8065,949.665,0.0090574,0.006478,0.00127693,-0.0114592,-0.000114155,0.591379,-0.294756,-0.294796,7.43193e-06,-7.8929e-07,-8.28912e-06,0.586883,0.8064778314805816,7.431957616876872e-06,-7.892896884964529e-07,-0.25528672466172997,-8.289085645318828e-06,-0.25531651259698085
819,0.8075,949.833,0.00891143,0.00653467,0.00126396,-0.0114826,-8.46972e-05,0.591932,-0.295033,-0.295073,7.43275e-06,-8.1453e-07,-8.2889e-06,0.587435,0.8074770899909034,7.432777622939923e-06,-8.14529668269337e-07,-0.25549298167108403,-8.288865647188004e-06,-0.25552276135621954
820,0.8085,950.001,0.00901621,0.00646105,0.00124404,-0.0114263,-0.000118232,0.592485,-0.295309,-0.295349,7.43342e-06,-8.38387e-07,-8.28952e-06,0.587988,0.8084769012440005,7.433447627880341e-06,-8.383866485495162e-07,-0.2556984372539681,-8.289485642021255e-06,-0.2557282087210446
821,0.8095,950.168,0.00889103,0.00650702,0.00123055,-0.0114432,-9.39522e-05,0.593038,-0.295585,-0.295625,7.43416e-06,-8.63409e-07,-8.28938e-06,0.58854,0.8094772655456244,7.434187633492684e-06,-8.634086272607533e-07,-0.2559038361389361,-8.289345643230916e-06,-0.25593359939022153
822,0.8105,950.335,0.00897678,0.00644337,0.00121123,-0.011393,-0.000122674,0.59359,-0.295861,-0.295901,7.43477e-06,-8.87258e-07,-8.28995e-06,0.589091,0.8104763727244175,7.4347976379840475e-06,-8.872576063856386e-07,-0.25610917834163416,-8.28991563850412e-06,-0.25613893337939586
823,0.8115,950.502,0.00886926,0.00648026,0.0011973,-0.0114043,-0.000102791,0.594142,-0.296137,-0.296177,7.43542e-06,-9.12079e-07,-8.28989e-06,0.589643,0.8114760315626175,7.435447642700765e-06,-9.120785841032486e-07,-0.25631446387770473,-8.289855638943244e-06,-0.2563442107042092
824,0.8125,950.668,0.00893888,0.00642507,0.00117849,-0.0113593,-0.000127424,0.594694,-0.296413,-0.296453,7.43596e-06,-9.35906e-07,-8.29041e-06,0.590194,0.8124762423648242,7.435987646742248e-06,-9.359055620494772e-07,-0.25651969276278563,-8.2903756346564e-06,-0.25654943138029884
825,0.8135,950.835,0.00884635,0.00645428,0.0011642,-0.011366,-0.000111267,0.595246,-0.296689,-0.296729,7.43654e-06,-9.60539e-07,-8.2904e-06,0.590745,0.8134770054358058,7.43656765123113e-06,-9.605385387079224e-07,-0.25672486501251013,-8.290365634766594e-06,-0.2567545954232975
826,0.8145,951.001,0.0089023,0.00640626,0.00114583,-0.0113254,-0.000132433,0.595797,-0.296964,-0.297004,7.43701e-06,-9.84331e-07,-8.2909e-06,0.591295,0.814476506603085,7.437037654600687e-06,-9.84330515541032e-07,-0.25692923757211683,-8.290865630589117e-06,-0.2569589598081653
827,0.8155,951.167,0.00882246,0.00642896,0.00113125,-0.011328,-0.000119427,0.596348,-0.29724,-0.29728,7.43751e-06,-1.00879e-06,-8.29094e-06,0.591846,0.8154765586472601,7.437537658416815e-06,-1.0087894911636752e-06,-0.2571342968030713,-8.29090563025936e-06,-0.25716401083691454
828,0.8165,951.333,0.00886688,0.00638703,0.00111326,-0.0112912,-0.000137658,0.596899,-0.297515,-0.297555,7.43791e-06,-1.03254e-06,-8.29141e-06,0.592395,0.8164771618719477,7.437937661336491e-06,-1.0325394669274957e-06,-0.25733855678441575,-8.291375626301445e-06,-0.25736826264802315
829,0.8175,951.498,0.00879778,0.00640424,0.00109845,-0.0112905,-0.000127311,0.597449,-0.29779,-0.29783,7.43833e-06,-1.05683e-06,-8.2915e-06,0.592945,0.8174764991035244,7.4383576644798666e-06,-1.0568294415147506e-06,-0.2575427606019882,-8.291465625642758e-06,-0.25757245829760633
830,0.8185,951.664,0.00883247,0.00636744,0.00108079,-0.0112568,-0.000143062,0.597999,-0.298065,-0.298105,7.43866e-06,-1.08052e-06,-8.29195e-06,0.593494,0.8184763861217559,7.4386876669496615e-06,-1.0805194162744058e-06,-0.2577469082712317,-8.291915621905233e-06,-0.2577765978011062
831,0.8195,951.829,0.00877242,0.00638003,0.00106578,-0.0112533,-0.000134954,0.598549,-0.298339,-0.298379,7.43901e-06,-1.10466e-06,-8.29208e-06,0.594043,0.8194768232291081,7.439037669421111e-06,-1.104659389850049e-06,-0.25795025775821334,-8.292045620805766e-06,-0.2579799391542712
832,0.8205,951.994,0.00879893,0.00634757,0.00104841,-0.0112223,-0.000148613,0.599099,-0.298614,-0.298654,7.43927e-06,-1.12829e-06,-8.2925e-06,0.594592,0.8204778107282131,7.439297671441025e-06,-1.1282893634945168e-06,-0.2581542933811458,-8.292465617287803e-06,-0.2581839666159419
833,0.8215,952.158,0.00874651,0.00635628,0.00103325,-0.0112164,-0.000142387,0.599648,-0.298888,-0.298928,7.43954e-06,-1.15229e-06,-8.29267e-06,0.595141,0.8214775274434314,7.439567673461767e-06,-1.1522893360593756e-06,-0.25835753125989847,-8.292635615858579e-06,-0.25838719636534213
834,0.8225,952.323,0.00876616,0.00632748,0.00101614,-0.0111876,-0.000154283,0.600197,-0.299163,-0.299203,7.43973e-06,-1.17584e-06,-8.29309e-06,0.595689,0.8224777931538121,7.439757674809755e-06,-1.1758393086980234e-06,-0.25856145489801663,-8.293055612451639e-06,-0.2585911118466778
835,0.8235,952.487,0.00872016,0.00633293,0.00100086,-0.0111798,-0.000149635,0.600745,-0.299437,-0.299477,7.43993e-06,-1.1997e-06,-8.29329e-06,0.596236,0.8234767846831392,7.439957676380615e-06,-1.1996992803631201e-06,-0.2587645812297963,-8.293255610802852e-06,-0.2587942300535667
836,0.8245,952.651,0.00873405,0.00630721,0.000983962,-0.0111529,-0.000160049,0.601293,-0.299711,-0.299751,7.44005e-06,-1.22318e-06,-8.29369e-06,0.596784,0.8244763238098525,7.4400776772787225e-06,-1.2231792518857532e-06,-0.2589676519125853,-8.293655607394257e-06,-0.25899729261369087
837,0.8255,952.815,0.00869344,0.00630994,0.000968596,-0.0111434,-0.000156722,0.601841,-0.299985,-0.300024,7.44017e-06,-1.2469e-06,-8.29392e-06,0.597331,0.8254764108341175,7.44019767817683e-06,-1.2468992226510878e-06,-0.2591706669616295,-8.293885605525908e-06,-0.25919955874222456
838,0.8265,952.979,0.00870253,0.0062868,0.000951892,-0.0111181,-0.00016589,0.602389,-0.300258,-0.300298,7.44023e-06,-1.27031e-06,-8.29432e-06,0.597878,0.8264770460562643,7.440257678625883e-06,-1.2703091931687283e-06,-0.2593728857654263,-8.294285602228335e-06,-0.25940251025750183
839,0.8275,953.142,0.00866645,0.00628726,0.000936461,-0.0111072,-0.000163665,0.602936,-0.300532,-0.300572,7.44027e-06,-1.2939e-06,-8.29457e-06,0.598425,0.8274764022994716,7.440297678851238e-06,-1.293899162924106e-06,-0.259575789795605,-8.294535600139596e-06,-0.2596054061716817
840,0.8285,953.305,0.00867152,0.0062663,0.000919929,-0.0110833,-0.000171789,0.603483,-0.300805,-0.300845,7.44026e-06,-1.31722e-06,-8.29497e-06,0.598971,0.8284763053400792,7.44028767885041e-06,-1.317219132435099e-06,-0.2597778980159634,-8.294935596842024e-06,-0.25980750630787297
841,0.8295,953.468,0.00863923,0.00626487,0.000904453,-0.0110712,-0.000170483,0.60403,-0.301078,-0.301118,7.44023e-06,-1.34069e-06,-8.29525e-06,0.599517,0.8294767554772675,7.440257678625883e-06,-1.3406891012923694e-06,-0.2599799510683085,-8.295215594533722e-06,-0.26000955127825764
842,0.8305,953.631,0.00864096,0.00624572,0.000888074,-0.0110484,-0.000177731,0.604577,-0.301351,-0.301391,7.44015e-06,-1.36392e-06,-8.29564e-06,0.600063,0.83047775301038,7.44017767795313e-06,-1.3639190699077375e-06,-0.2601819489676991,-8.295605591235322e-06,-0.2602115410978938
843,0.8315,953.794,0.00861184,0.00624272,0.000872571,-0.0110355,-0.000177188,0.605123,-0.301624,-0.301664,7.44005e-06,-1.38727e-06,-8.29594e-06,0.600608,0.8314774667605414,7.4400776772787225e-06,-1.3872690377558783e-06,-0.26038389172918974,-8.295905588817654e-06,-0.2604134757818356
844,0.8325,953.956,0.00861081,0.00622511,0.000856328,-0.0110136,-0.000183704,0.605669,-0.301897,-0.301937,7.4399e-06,-1.41041e-06,-8.29634e-06,0.601153,0.8324777265034531,7.439927676156088e-06,-1.410409005364599e-06,-0.2605857793678311,-8.29630558552008e-06,-0.2606153553451329
845,0.8335,954.118,0.00858434,0.00622081,0.000840813,-0.0109998,-0.000183793,0.606214,-0.30217,-0.30221,7.43973e-06,-1.43364e-06,-8.29665e-06,0.601698,0.8334766990596925,7.439757674809755e-06,-1.4336389723146326e-06,-0.2607876118986697,-8.296615582881195e-06,-0.2608171798028317
846,0.8345,954.28,0.00858101,0.00620447,0.000824694,-0.0109787,-0.000189697,0.606759,-0.302442,-0.302482,7.43951e-06,-1.4567e-06,-8.29705e-06,0.602243,0.8344762162043617,7.43953767323724e-06,-1.4566989390285556e-06,-0.2609886503257677,-8.297015579583622e-06,-0.2610182101885534
847,0.8355,954.442,0.00855675,0.0061991,0.000809178,-0.0109644,-0.000190308,0.607304,-0.302715,-0.302754,7.43927e-06,-1.47981e-06,-8.29738e-06,0.602787,0.8354762782343426,7.439297671441025e-06,-1.479808905080482e-06,-0.2611903728878462,-8.297345576835369e-06,-0.2612191859014462
848,0.8365,954.604,0.00855153,0.00618383,0.000793171,-0.0109439,-0.000195701,0.607849,-0.302987,-0.303027,7.43898e-06,-1.50277e-06,-8.29778e-06,0.603331,0.8364768854466786,7.4390076691965845e-06,-1.5027688707869302e-06,-0.2613913017788527,-8.297745573537796e-06,-0.2614208455359025
849,0.8375,954.765,0.00852912,0.00617758,0.000777665,-0.010929,-0.000196742,0.608393,-0.303259,-0.303299,7.43867e-06,-1.52577e-06,-8.29813e-06,0.603875,0.8374762006614556,7.438697666950489e-06,-1.525768836052599e-06,-0.261592176024633,-8.298095570569153e-06,-0.26162171174687365
850,0.8385,954.926,0.00852234,0.0061632,0.000761762,-0.0109092,-0.000201709,0.608938,-0.303531,-0.30357,7.43832e-06,-1.54864e-06,-8.29854e-06,0.604418,0.8384778981285816,7.438347664479039e-06,-1.5486388008634222e-06,-0.26179299564004854,-8.298505567161385e-06,-0.2618217851518194
851,0.8395,955.087,0.00850147,0.00615623,0.000746273,-0.0108938,-0.000203103,0.609481,-0.303802,-0.303842,7.43794e-06,-1.57153e-06,-8.2989e-06,0.604961,0.8394764627130149,7.437967661561018e-06,-1.5715287651207888e-06,-0.2619930226333482,-8.29886556419357e-06,-0.26202254232204525
852,0.8405,955.248,0.00849342,0.0061426,0.000730466,-0.0108744,-0.000207713,0.610025,-0.304074,-0.304114,7.43751e-06,-1.5943e-06,-8.29932e-06,0.605504,0.8404774101417467,7.437537658416815e-06,-1.5942987291461819e-06,-0.26219373323331296,-8.299285560786629e-06,-0.2622232448937465
853,0.8415,955.408,0.00847382,0.00613504,0.000715003,-0.0108587,-0.000209396,0.610568,-0.304345,-0.304385,7.43706e-06,-1.61708e-06,-8.29969e-06,0.606046,0.8414770607560331,7.437087655048913e-06,-1.6170786925062686e-06,-0.2623936516414389,-8.299655557708618e-06,-0.26242315530529603
854,0.8425,955.569,0.00846472,0.00612203,0.000699283,-0.0108397,-0.000213709,0.611111,-0.304617,-0.304657,7.43657e-06,-1.63975e-06,-8.30011e-06,0.606588,0.842477254328003,7.4365976514556564e-06,-1.6397486556352092e-06,-0.2625942532851321,-8.300075554190656e-06,-0.262623748925084
855,0.8435,955.729,0.0084462,0.006114,0.000683852,-0.0108238,-0.000215627,0.611653,-0.304888,-0.304928,7.43605e-06,-1.66243e-06,-8.3005e-06,0.60713,0.8434761476754926,7.4360776474158286e-06,-1.6624286182098658e-06,-0.26279406316703,-8.300465550892255e-06,-0.2628235508147464
856,0.8445,955.889,0.00843625,0.00610151,0.000668216,-0.0108051,-0.000219693,0.612196,-0.305159,-0.305199,7.4355e-06,-1.68501e-06,-8.30092e-06,0.607672,0.8444774270464275,7.4355276433735185e-06,-1.685008580332159e-06,-0.2629938189077864,-8.300885547485315e-06,-0.26302329856543294
857,0.8455,956.048,0.00841862,0.00609309,0.00065282,-0.0107889,-0.000221801,0.612738,-0.30543,-0.305469,7.43491e-06,-1.70757e-06,-8.30133e-06,0.608213,0.8454774047813731,7.434937639105854e-06,-1.7075685421197306e-06,-0.26319352052207134,-8.301295544077547e-06,-0.263222255414437
858,0.8465,956.208,0.00840798,0.00608105,0.000637264,-0.0107706,-0.000225659,0.613279,-0.305701,-0.30574,7.43428e-06,-1.73005e-06,-8.30176e-06,0.608754,0.8464760781741549,7.434307634390791e-06,-1.7300485034565938e-06,-0.2633931680245515,-8.30172554044939e-06,-0.26342189513081626
859,0.8475,956.367,0.00839109,0.00607232,0.000621908,-0.0107542,-0.000227921,0.613821,-0.305971,-0.306011,7.43363e-06,-1.75252e-06,-8.30217e-06,0.609295,0.8474771394716305,7.4336576294520285e-06,-1.7525184643485403e-06,-0.2635920250222821,-8.302135537041622e-06,-0.26362148075216263
860,0.8485,956.526,0.0083799,0.00606065,0.000606427,-0.0107361,-0.000231606,0.614362,-0.306241,-0.306281,7.43294e-06,-1.7749e-06,-8.30261e-06,0.609835,0.8484768950135746,7.432967624287912e-06,-1.7748984248999733e-06,-0.263790828335871,-8.302575533414291e-06,-0.2638202761137781
861,0.8495,956.685,0.00836363,0.00605167,0.000591114,-0.0107196,-0.000233991,0.614903,-0.306512,-0.306551,7.43221e-06,-1.79726e-06,-8.30304e-06,0.610375,0.849477191569598,7.432237618898441e-06,-1.79725838489464e-06,-0.26399031398986506,-8.303005529897156e-06,-0.2640190178078913
862,0.8505,956.844,0.00835199,0.00604031,0.000575705,-0.0107016,-0.000237531,0.615443,-0.306782,-0.306822,7.43146e-06,-1.81954e-06,-8.30348e-06,0.610915,0.8504761789553643,7.43148761328527e-06,-1.8195383446606428e-06,-0.26418900977994897,-8.303445526158804e-06,-0.2642184416309169
863,0.8515,957.003,0.00833624,0.00603114,0.000560439,-0.010685,-0.000240014,0.615984,-0.307052,-0.307092,7.43067e-06,-1.8418e-06,-8.30392e-06,0.611455,0.8514775574166293,7.430697607446746e-06,-1.8417983038698793e-06,-0.2643876519294115,-8.303885522531473e-06,-0.2644170758348523
864,0.8525,957.161,0.00832425,0.00602004,0.0005451,-0.0106673,-0.000243432,0.616524,-0.307322,-0.307361,7.42984e-06,-1.86398e-06,-8.30437e-06,0.611994,0.8524776252916588,7.429867601382867e-06,-1.8639782627394297e-06,-0.2645862404527335,-8.304335518793948e-06,-0.2646149210300809
865,0.8535,957.319,0.00830893,0.00601072,0.000529882,-0.0106506,-0.000245991,0.617063,-0.307591,-0.307631,7.42899e-06,-1.88614e-06,-8.30482e-06,0.612533,0.8534763798718705,7.429017595095289e-06,-1.8861382212742583e-06,-0.26478404014879986,-8.304785515056423e-06,-0.26481344819902897
866,0.8545,957.477,0.00829667,0.00599984,0.000514611,-0.010633,-0.000249307,0.617603,-0.307861,-0.307901,7.4281e-06,-1.90823e-06,-8.30528e-06,0.613072,0.8544775274025067,7.4281275883603115e-06,-1.908228179359206e-06,-0.2649825216617496,-8.305245511208703e-06,-0.265011921772877
867,0.8555,957.635,0.00828172,0.00599041,0.000499443,-0.0106163,-0.000251925,0.618142,-0.30813,-0.30817,7.42718e-06,-1.93028e-06,-8.30574e-06,0.61361,0.855477360220515,7.427207581622852e-06,-1.9302781369967548e-06,-0.2651802147725071,-8.305705507472005e-06,-0.2652096069760682
868,0.8565,957.792,0.00826924,0.00597972,0.000484238,-0.0105988,-0.000255154,0.618681,-0.3084,-0.308439,7.42622e-06,-1.95227e-06,-8.30621e-06,0.614148,0.8564777320936747,7.426247574437994e-06,-1.9522680942962722e-06,-0.2653785893327478,-8.30617550351409e-06,-0.26540723900909147
869,0.8575,957.95,0.0082546,0.00597021,0.000469121,-0.010582,-0.000257818,0.619219,-0.308669,-0.308708,7.42524e-06,-1.97422e-06,-8.30668e-06,0.614686,0.8574767858349,7.425267567251481e-06,-1.974218051259413e-06,-0.26557617591563043,-8.306645499667198e-06,-0.26560481788624757
870,0.8585,958.107,0.00824195,0.00595968,0.000453981,-0.0105647,-0.000260973,0.619757,-0.308938,-0.308977,7.42422e-06,-1.99611e-06,-8.30716e-06,0.615224,0.858476377211649,7.4242475596175694e-06,-1.9961080077735005e-06,-0.2657737093548703,-8.307125495599088e-06,-0.26580234362183375
871,0.8595,958.264,0.00822757,0.00595011,0.000438917,-0.0105479,-0.000263671,0.620295,-0.309206,-0.309246,7.42316e-06,-2.01796e-06,-8.30763e-06,0.615761,0.8594765065132477,7.4231875517583035e-06,-2.0179579639512113e-06,-0.2659704556355841,-8.307595491752195e-06,-0.2659998162301429
872,0.8605,958.421,0.00821481,0.00593972,0.00042384,-0.0105306,-0.000266762,0.620833,-0.309475,-0.309515,7.42208e-06,-2.03976e-06,-8.30812e-06,0.616298,0.860477174029177,7.422107543675338e-06,-2.039757919680696e-06,-0.26616788302784333,-8.308085487684913e-06,-0.2661972357254644
873,0.8615,958.577,0.00820065,0.00593011,0.000408831,-0.0105138,-0.000269484,0.62137,-0.309744,-0.309783,7.42096e-06,-2.06151e-06,-8.3086e-06,0.616834,0.8614765185716253,7.4209875353670185e-06,-2.0615078750729765e-06,-0.2663652573192765,-8.308565483727826e-06,-0.26639386851631897
874,0.8625,958.734,0.0081878,0.00591984,0.000393817,-0.0104966,-0.000272522,0.621907,-0.310012,-0.310052,7.41981e-06,-2.08321e-06,-8.3091e-06,0.617371,0.8624763999062088,7.419837526834172e-06,-2.0832078301280532e-06,-0.2665618450863775,-8.309065479550348e-06,-0.2665911820258313
875,0.8635,958.89,0.00817383,0.0059102,0.000378862,-0.0104799,-0.00027526,0.622444,-0.31028,-0.31032,7.41863e-06,-2.10486e-06,-8.30959e-06,0.617907,0.863476818321262,7.418657518076799e-06,-2.1048577847349037e-06,-0.2667583801750161,-8.309555475483066e-06,-0.2667877092532236
876,0.8645,959.046,0.00816092,0.00590005,0.000363909,-0.0104628,-0.00027825,0.622981,-0.310548,-0.310588,7.41742e-06,-2.12646e-06,-8.3101e-06,0.618443,0.8644777741052749,7.417447509094899e-06,-2.1264577391155726e-06,-0.26695486259930834,-8.310065471195394e-06,-0.2669841838183761
877,0.8655,959.202,0.00814712,0.00589039,0.00034901,-0.010446,-0.000280999,0.623517,-0.310816,-0.310856,7.41618e-06,-2.14801e-06,-8.3106e-06,0.618978,0.865477402068557,7.416207499888472e-06,-2.148007693048015e-06,-0.2671512923733663,-8.310565467017916e-06,-0.26718060573540026
878,0.8665,959.357,0.00813417,0.00588033,0.000334119,-0.010429,-0.000283948,0.624053,-0.311084,-0.311124,7.4149e-06,-2.16952e-06,-8.31112e-06,0.619513,0.8664775659760477,7.414927490456691e-06,-2.1695176466440813e-06,-0.2673476695112984,-8.311085462731072e-06,-0.26737697501840385
879,0.8675,959.513,0.00812051,0.00587068,0.000319276,-0.0104122,-0.000286702,0.624588,-0.311352,-0.311391,7.41359e-06,-2.19097e-06,-8.31163e-06,0.620048,0.8674763986377576,7.413617480800383e-06,-2.190967599791094e-06,-0.2675439940272092,-8.311595458554422e-06,-0.2675725592544165
880,0.8685,959.668,0.00810755,0.0058607,0.000304444,-0.0103952,-0.000289614,0.625124,-0.311619,-0.311659,7.41225e-06,-2.21238e-06,-8.31215e-06,0.620583,0.8684776342946126,7.412277470697504e-06,-2.212377552712752e-06,-0.2677395336750992,-8.312115454156555e-06,-0.2677688235079517
881,0.8695,959.823,0.00809402,0.00585106,0.000289658,-0.0103785,-0.000292369,0.625659,-0.311887,-0.311926,7.41088e-06,-2.23374e-06,-8.31267e-06,0.621117,0.8694775372791588,7.410907460592142e-06,-2.233737505186184e-06,-0.26793575318548546,-8.31263544986971e-06,-0.2679643031343836
882,0.8705,959.978,0.00808105,0.00584116,0.000274887,-0.0103616,-0.000295249,0.626193,-0.312154,-0.312193,7.40948e-06,-2.25505e-06,-8.3132e-06,0.621651,0.8704761048778857,7.409507450262254e-06,-2.255047457322412e-06,-0.26813118824764315,-8.31316544547267e-06,-0.2681597305747224
883,0.8715,960.132,0.00806763,0.00583153,0.000260158,-0.0103449,-0.000298002,0.626728,-0.312421,-0.312461,7.40804e-06,-2.27631e-06,-8.31373e-06,0.622185,0.8714770773302511,7.408067439707011e-06,-2.2763074092324587e-06,-0.26832657113560476,-8.31369544107563e-06,-0.2683558374874284
884,0.8725,960.287,0.00805467,0.0058217,0.000245446,-0.010328,-0.000300853,0.627262,-0.312688,-0.312727,7.40658e-06,-2.29752e-06,-8.31427e-06,0.622719,0.8724767129685065,7.406607428706025e-06,-2.297517360694279e-06,-0.26852190186329894,-8.314235436568396e-06,-0.2685504289528444
885,0.8735,960.441,0.00804136,0.00581209,0.000230774,-0.0103114,-0.0003036,0.627796,-0.312955,-0.312994,7.40508e-06,-2.31869e-06,-8.31481e-06,0.623252,0.8734768825547443,7.405107417701728e-06,-2.3186873118197227e-06,-0.26871718044465076,-8.314775432061161e-06,-0.2687456999184801
886,0.8745,960.595,0.00802841,0.00580232,0.000216122,-0.0102946,-0.000306424,0.62833,-0.313222,-0.313261,7.40356e-06,-2.3398e-06,-8.31535e-06,0.623785,0.8744775863741687,7.403587406473733e-06,-2.3397972627181574e-06,-0.2689124068935813,-8.315315427553926e-06,-0.2689409187537276
887,0.8755,960.749,0.00801519,0.00579273,0.000201507,-0.0102779,-0.000309164,0.628863,-0.313488,-0.313527,7.402e-06,-2.36087e-06,-8.3159e-06,0.624317,0.8754769492342491,7.402027394798338e-06,-2.3608672131691932e-06,-0.26910685033122395,-8.31586542304752e-06,-0.269135354608224
888,0.8765,960.903,0.00800227,0.00578303,0.000186915,-0.0102612,-0.000311964,0.629396,-0.313754,-0.313794,7.40041e-06,-2.38189e-06,-8.31645e-06,0.62485,0.8764768448967135,7.400437383120462e-06,-2.381887163283025e-06,-0.26930124205379047,-8.31641541843009e-06,-0.2693304694195572
889,0.8775,961.056,0.00798914,0.00577347,0.000172357,-0.0102446,-0.000314695,0.629929,-0.314021,-0.31406,7.39879e-06,-2.40287e-06,-8.31701e-06,0.625382,0.8774772736456207,7.398817371218058e-06,-2.4028671130604806e-06,-0.2694963125790881,-8.316975413813488e-06,-0.2695248016673567
890,0.8785,961.21,0.00797625,0.00576382,0.000157824,-0.0102279,-0.000317472,0.630461,-0.314287,-0.314326,7.39714e-06,-2.42379e-06,-8.31757e-06,0.625914,0.8784763572878855,7.397167358869083e-06,-2.423787062610927e-06,-0.26969060071847395,-8.317535409085863e-06,-0.2697190822296529
891,0.8795,961.363,0.0079632,0.00575429,0.000143324,-0.0102113,-0.000320193,0.630993,-0.314553,-0.314592,7.39546e-06,-2.44467e-06,-8.31814e-06,0.626445,0.8794759725840551,7.395487346517626e-06,-2.444667011824997e-06,-0.26988483718408773,-8.318105404359066e-06,-0.2699133111201921
892,0.8805,961.516,0.00795034,0.0057447,0.000128849,-0.0101947,-0.000322948,0.631525,-0.314819,-0.314858,7.39375e-06,-2.4655e-06,-8.3187e-06,0.626976,0.880476119817045,7.393777333941642e-06,-2.465496960701863e-06,-0.2700790219896726,-8.318665399742464e-06,-0.27010748835271736
893,0.8815,961.669,0.00793737,0.0057352,0.000114408,-0.0101781,-0.000325658,0.632057,-0.315084,-0.315124,7.392e-06,-2.48628e-06,-8.31928e-06,0.627507,0.8814767992699206,7.39202732091826e-06,-2.486276909241525e-06,-0.2702724254217588,-8.319245394905472e-06,-0.27030161394096763
894,0.8825,961.821,0.00792455,0.00572566,9.99915e-05,-0.0101615,-0.000328393,0.632588,-0.31535,-0.315389,7.39023e-06,-2.50702e-06,-8.31985e-06,0.628038,0.8824761287488287,7.390257307893222e-06,-2.5070168574448104e-06,-0.27046650714258336,-8.319815390178675e-06,-0.2704949583940017
895,0.8835,961.974,0.00791164,0.0057162,8.56077e-05,-0.010145,-0.00033109,0.63312,-0.315615,-0.315654,7.38843e-06,-2.52771e-06,-8.32043e-06,0.628568,0.8834778724895318,7.388457294421613e-06,-2.527706805310892e-06,-0.27065980790470834,-8.320395385341683e-06,-0.27068825161754406
896,0.8845,962.126,0.00789887,0.0057067,7.12502e-05,-0.0101285,-0.000333806,0.63365,-0.31588,-0.31592,7.3866e-06,-2.54835e-06,-8.32102e-06,0.629099,0.884476380343159,7.386627280947522e-06,-2.548346752950792e-06,-0.2708530574489181,-8.320985380394497e-06,-0.2708822227433103
897,0.8855,962.278,0.00788603,0.00569728,5.69244e-05,-0.010112,-0.000336491,0.634181,-0.316146,-0.316185,7.38474e-06,-2.56894e-06,-8.32161e-06,0.629628,0.8854773030225742,7.384767267248904e-06,-2.568936700253488e-06,-0.27104698474216316,-8.32157537544731e-06,-0.27107541335539664
898,0.8865,962.43,0.00787331,0.00568783,4.26255e-05,-0.0100955,-0.000339188,0.634711,-0.316411,-0.31645,7.38284e-06,-2.58949e-06,-8.3222e-06,0.630158,0.8864768708552535,7.382867253324932e-06,-2.5894866472198075e-06,-0.27124013169810457,-8.322165370611145e-06,-0.2712685527787536
899,0.8875,962.581,0.00786053,0.00567844,2.83576e-05,-0.0100791,-0.000341859,0.635241,-0.316675,-0.316715,7.38092e-06,-2.60999e-06,-8.3228e-06,0.630687,0.8874769685992983,7.3809472389552155e-06,-2.6099865939599454e-06,-0.2714324989097471,-8.322765365553764e-06,-0.2714616410269445
900,0.8885,962.733,0.00784785,0.00566904,1.41172e-05,-0.0100627,-0.000344539,0.635771,-0.31694,-0.316979,7.37897e-06,-2.63044e-06,-8.3234e-06,0.631216,0.888477596535636,7.378997224583017e-06,-2.6304365403628793e-06,-0.2716255437179692,-8.323365360607404e-06,-0.27165394976784263
901,0.8895,962.884,0.00783514,0.00565969,-9.25885e-08,-0.0100463,-0.000347196,0.6363,-0.317205,-0.317244,7.37699e-06,-2.65085e-06,-8.32401e-06,0.631745,0.8894768654675329,7.377017209986292e-06,-2.650846486540459e-06,-0.27181853737609474,-8.32397535555085e-06,-0.2718469358993624
902,0.8905,963.035,0.00782251,0.00565033,-1.42746e-05,-0.0100299,-0.000349858,0.636829,-0.317469,-0.317508,7.37498e-06,-2.67121e-06,-8.32462e-06,0.632273,0.8904766631525376,7.37500719516504e-06,-2.6712064322698126e-06,-0.27201075190879276,-8.324585350494296e-06,-0.27203914293583975
903,0.8915,963.186,0.00780986,0.00564102,-2.84264e-05,-0.0100135,-0.000352501,0.637358,-0.317733,-0.317772,7.37294e-06,-2.69152e-06,-8.32523e-06,0.632801,0.8914769898704344,7.372967180119261e-06,-2.6915163778840068e-06,-0.2722029157035518,-8.325195345326719e-06,-0.2722312992363569
904,0.8925,963.337,0.00779728,0.00563171,-4.25501e-05,-0.00999718,-0.000355147,0.637887,-0.317997,-0.318037,7.37087e-06,-2.71179e-06,-8.32584e-06,0.633329,0.892477845901156,7.370897164848955e-06,-2.711786323050802e-06,-0.2723950287737651,-8.325805340270165e-06,-0.272424132390538
905,0.8935,963.487,0.00778469,0.00562244,-5.66437e-05,-0.00998086,-0.000357775,0.638415,-0.318261,-0.318301,7.36877e-06,-2.73201e-06,-8.32646e-06,0.633857,0.8934773380464978,7.368797149354123e-06,-2.732006268102438e-06,-0.27258709113282187,-8.326425335103416e-06,-0.272616187067254
906,0.8945,963.638,0.00777216,0.00561317,-7.07092e-05,-0.00996456,-0.000360404,0.638943,-0.318525,-0.318564,7.36664e-06,-2.75219e-06,-8.32709e-06,0.634384,0.8944773580630385,7.366667133856808e-06,-2.7521862127066754e-06,-0.27277910279410833,-8.327055329937494e-06,-0.27280746385605514
907,0.8955,963.788,0.00775963,0.00560393,-8.47448e-05,-0.00994829,-0.000363018,0.63947,-0.318789,-0.318828,7.36448e-06,-2.77232e-06,-8.32772e-06,0.634911,0.8954760107526083,7.364507117912922e-06,-2.772316157084731e-06,-0.2729710637710069,-8.32768532466055e-06,-0.2729994173466215
908,0.8965,963.938,0.00774715,0.00559471,-9.87519e-05,-0.00993203,-0.000365631,0.639998,-0.319053,-0.319092,7.3623e-06,-2.7924e-06,-8.32835e-06,0.635438,0.8964770863469855,7.362327101745336e-06,-2.792396101236605e-06,-0.27316297407689627,-8.328315319383606e-06,-0.27319132016815495
909,0.8975,964.088,0.00773467,0.00558551,-0.000112729,-0.0099158,-0.000368231,0.640525,-0.319316,-0.319355,7.36008e-06,-2.81244e-06,-8.32898e-06,0.635965,0.8974767931711014,7.3601070853523964e-06,-2.8124360450521024e-06,-0.2733541070796225,-8.328945314106662e-06,-0.27338244571683945
910,0.8985,964.238,0.00772224,0.00557633,-0.000126678,-0.00989958,-0.000370828,0.641052,-0.319579,-0.319618,7.35784e-06,-2.83243e-06,-8.32962e-06,0.636491,0.8984770269795614,7.357867068957802e-06,-2.8324259886414183e-06,-0.27354518982097864,-8.329585308830545e-06,-0.273573521006114
911,0.8995,964.387,0.00770982,0.00556717,-0.000140598,-0.00988339,-0.000373413,0.641579,-0.319843,-0.319882,7.35557e-06,-2.85237e-06,-8.33027e-06,0.637017,0.8994777880501603,7.3555970523386804e-06,-2.8523659320045525e-06,-0.27373694857759634,-8.330235303444233e-06,-0.27376527228428593
912,0.9005,964.537,0.00769744,0.00555803,-0.000154489,-0.00986722,-0.000375994,0.642105,-0.320106,-0.320145,7.35326e-06,-2.87227e-06,-8.33091e-06,0.637542,0.9004771761827113,7.35328703527216e-06,-2.87226587503131e-06,-0.27392793064487775,-8.330875298057094e-06,-0.2739562469034119
913,0.9015,964.686,0.00768508,0.00554891,-0.00016835,-0.00985107,-0.000378565,0.642631,-0.320368,-0.320407,7.35093e-06,-2.89212e-06,-8.33156e-06,0.638068,0.9014770901316975,7.350957018203985e-06,-2.892115817831886e-06,-0.27411813660897943,-8.331525292670783e-06,-0.27414644544962574
914,0.9025,964.835,0.00767275,0.00553981,-0.000182183,-0.00983494,-0.00038113,0.643157,-0.320631,-0.32067,7.34858e-06,-2.91193e-06,-8.33222e-06,0.638593,0.9024775301737715,7.348607000912111e-06,-2.9119257602960857e-06,-0.2743090184369906,-8.332185287174276e-06,-0.2743373198333908
915,0.9035,964.983,0.00766044,0.00553073,-0.000195986,-0.00981884,-0.000383686,0.643682,-0.320894,-0.320933,7.34619e-06,-2.93169e-06,-8.33287e-06,0.639118,0.9034765931081856,7.346216983394882e-06,-2.931685702645126e-06,-0.274499850069682,-8.332835281787965e-06,-0.27452814402379366
916,0.9045,965.132,0.00764817,0.00552167,-0.000209761,-0.00980275,-0.000386237,0.644207,-0.321156,-0.321195,7.34377e-06,-2.95141e-06,-8.33354e-06,0.639642,0.9044761806883481,7.3437969656531266e-06,-2.9514056445467673e-06,-0.27468990621052214,-8.333505276181263e-06,-0.2747181927525888
917,0.9055,965.281,0.00763591,0.00551263,-0.000223506,-0.00978669,-0.000388778,0.644732,-0.321419,-0.321458,7.34133e-06,-2.97108e-06,-8.3342e-06,0.640167,0.9054762931897697,7.341356947687672e-06,-2.9710755863332494e-06,-0.27488063768290083,-8.334165270684757e-06,-0.274908916786585
918,0.9065,965.429,0.00762369,0.00550361,-0.000237223,-0.00977064,-0.000391313,0.645257,-0.321681,-0.32172,7.33886e-06,-2.99071e-06,-8.33487e-06,0.640691,0.9064769308881067,7.33888692949769e-06,-2.990705527783355e-06,-0.2750705940704544,-8.334835265078055e-06,-0.2750988657659841
919,0.9075,965.577,0.00761149,0.00549461,-0.00025091,-0.00975462,-0.000393839,0.645781,-0.321943,-0.321982,7.33636e-06,-3.01029e-06,-8.33554e-06,0.641214,0.9074761865820198,7.336386911083181e-06,-3.010285469118301e-06,-0.27526050069595376,-8.335505259471354e-06,-0.27528876498526933
920,0.9085,965.725,0.00759932,0.00548563,-0.000264568,-0.00973862,-0.00039636,0.646306,-0.322205,-0.322244,7.33383e-06,-3.02983e-06,-8.33622e-06,0.641738,0.9084778745000464,7.333856892666191e-06,-3.029825410116871e-06,-0.2754503575724345,-8.33618525386548e-06,-0.27547861445747635
921,0.9095,965.873,0.00758717,0.00547667,-0.000278198,-0.00972264,-0.000398872,0.646829,-0.322467,-0.322505,7.33128e-06,-3.04932e-06,-8.33689e-06,0.642261,0.9094762694859411,7.331306873803456e-06,-3.0493153507782367e-06,-0.2756401647129294,-8.336855248258779e-06,-0.27566768986368906
922,0.9105,966.02,0.00757505,0.00546773,-0.000291798,-0.00970669,-0.000401377,0.647353,-0.322728,-0.322767,7.32869e-06,-3.06877e-06,-8.33758e-06,0.642784,0.9104770972451242,7.3287168549374115e-06,-3.0687652913252705e-06,-0.2758291979600275,-8.337545242431688e-06,-0.2758574400705823
923,0.9115,966.168,0.00756295,0.00545881,-0.00030537,-0.00969075,-0.000403875,0.647876,-0.32299,-0.323029,7.32608e-06,-3.08817e-06,-8.33826e-06,0.643306,0.9114765380979852,7.326106835847668e-06,-3.0881652316461228e-06,-0.27601890585734223,-8.338225236825814e-06,-0.27604714056943336
924,0.9125,966.315,0.00755089,0.00544991,-0.000318912,-0.00967483,-0.000406365,0.648399,-0.323251,-0.32329,7.32345e-06,-3.10752e-06,-8.33895e-06,0.643829,0.912476501795124,7.3234768165342246e-06,-3.107515171629771e-06,-0.2762078402659006,-8.338915230998722e-06,-0.27623606760969344
925,0.9135,966.462,0.00753884,0.00544103,-0.000332425,-0.00965894,-0.000408848,0.648922,-0.323512,-0.323551,7.32078e-06,-3.12684e-06,-8.33965e-06,0.644351,0.9134769886100598,7.320806796995427e-06,-3.1268351113888926e-06,-0.27639672536901294,-8.339615225172459e-06,-0.2764249453464305
926,0.9145,966.609,0.00752682,0.00543216,-0.00034591,-0.00964307,-0.000411325,0.649444,-0.323773,-0.323812,7.31809e-06,-3.14611e-06,-8.34034e-06,0.644873,0.9144760843394131,7.31811677723293e-06,-3.1461050510328548e-06,-0.27658556117954636,-8.34030521945639e-06,-0.27661377379251084
927,0.9155,966.755,0.00751483,0.00542332,-0.000359366,-0.00962722,-0.000413793,0.649967,-0.324034,-0.324073,7.31537e-06,-3.16533e-06,-8.34104e-06,0.645394,0.9154776172095391,7.315396757467951e-06,-3.165324990339613e-06,-0.2767743477103646,-8.341005213630126e-06,-0.2768025529607979
928,0.9165,966.902,0.00750287,0.00541449,-0.000372792,-0.00961138,-0.000416255,0.650489,-0.324295,-0.324334,7.31262e-06,-3.18451e-06,-8.34175e-06,0.645916,0.9164777575396383,7.312646737256401e-06,-3.184504929421017e-06,-0.27696308497432787,-8.341715207693667e-06,-0.2769912828641514
929,0.9175,967.048,0.00749093,0.00540569,-0.00038619,-0.00959558,-0.000418709,0.65101,-0.324556,-0.324595,7.30984e-06,-3.20364e-06,-8.34245e-06,0.646437,0.9174765026018137,7.309866717042368e-06,-3.2036348683872617e-06,-0.27715177298429305,-8.342415201867404e-06,-0.27717996351542784
930,0.9185,967.194,0.00747901,0.0053969,-0.000399558,-0.00957979,-0.000421156,0.651532,-0.324816,-0.324855,7.30704e-06,-3.22274e-06,-8.34316e-06,0.646957,0.9184776866224673,7.3070666963825914e-06,-3.2227348070179573e-06,-0.2773396890931644,-8.343125195930945e-06,-0.2773678722957138
931,0.9195,967.34,0.00746712,0.00538814,-0.000412898,-0.00956402,-0.000423596,0.652053,-0.325077,-0.325116,7.30421e-06,-3.24178e-06,-8.34388e-06,0.647478,0.9194774739191731,7.3042366757203325e-06,-3.241774745421644e-06,-0.2775282788222809,-8.343845189884291e-06,-0.27755645466997425
932,0.9205,967.486,0.00745526,0.00537939,-0.000426209,-0.00954828,-0.000426029,0.652574,-0.325337,-0.325376,7.30136e-06,-3.26079e-06,-8.3446e-06,0.647998,0.9204777822407757,7.301386655056419e-06,-3.2607846836008036e-06,-0.2777160970523591,-8.34456518394866e-06,-0.2777442655752843
933,0.9215,967.632,0.00744342,0.00537066,-0.000439491,-0.00953255,-0.000428455,0.653094,-0.325597,-0.325636,7.29847e-06,-3.27974e-06,-8.34531e-06,0.648518,0.9214766903811487,7.298496633945106e-06,-3.2797346216639767e-06,-0.27790386645604526,-8.345275178012201e-06,-0.2779320276561065
934,0.9225,967.778,0.0074316,0.00536195,-0.000452744,-0.00951685,-0.000430874,0.653614,-0.325857,-0.325896,7.29556e-06,-3.29866e-06,-8.34604e-06,0.649037,0.9224761180888306,7.295586612610094e-06,-3.2986545593916006e-06,-0.27809158704603254,-8.346005171855353e-06,-0.2781197409251335
935,0.9235,967.923,0.00741981,0.00535326,-0.000465968,-0.00950117,-0.000433285,0.654134,-0.326117,-0.326156,7.29263e-06,-3.31753e-06,-8.34677e-06,0.649557,0.9234760656340661,7.292656591273428e-06,-3.317524497004065e-06,-0.2782792588350107,-8.346735165809527e-06,-0.2783074053950547
936,0.9245,968.068,0.00740805,0.00534459,-0.000479163,-0.0094855,-0.00043569,0.654654,-0.326377,-0.326416,7.28967e-06,-3.33636e-06,-8.3475e-06,0.650076,0.9244765332872418,7.289696569712234e-06,-3.3363544343911755e-06,-0.2784668818356666,-8.3474651597637e-06,-0.2784950210785563
937,0.9255,968.213,0.00739631,0.00533593,-0.00049233,-0.00946986,-0.000438088,0.655174,-0.326637,-0.326675,7.28668e-06,-3.35514e-06,-8.34823e-06,0.650595,0.9254775213188839,7.286706547926514e-06,-3.3551343715521043e-06,-0.2786544560606834,-8.348195153606852e-06,-0.2786818666705483
938,0.9265,968.358,0.0073846,0.0053273,-0.000505467,-0.00945425,-0.000440478,0.655693,-0.326896,-0.326935,7.28366e-06,-3.37388e-06,-8.34896e-06,0.651113,0.9264771035215926,7.283686525916266e-06,-3.3738743084876788e-06,-0.2788412603643622,-8.348925147561026e-06,-0.27886938500677383
939,0.9275,968.503,0.00737291,0.00531868,-0.000518576,-0.00943865,-0.000442862,0.656212,-0.327155,-0.327194,7.28062e-06,-3.39258e-06,-8.34971e-06,0.651632,0.927477204642112,7.28064650368232e-06,-3.392574245197899e-06,-0.27902801629199114,-8.34967514129481e-06,-0.27905613365106374
940,0.9285,968.647,0.00736124,0.00531009,-0.000531655,-0.00942307,-0.000445239,0.656731,-0.327415,-0.327453,7.27755e-06,-3.41124e-06,-8.35045e-06,0.65215,0.9284778249498304,7.277576481445891e-06,-3.411234181682765e-06,-0.279215444641014,-8.350415135138789e-06,-0.27924283393371785
941,0.9295,968.791,0.00734961,0.00530151,-0.000544706,-0.00940752,-0.000447609,0.657249,-0.327674,-0.327712,7.27446e-06,-3.42985e-06,-8.3512e-06,0.652667,0.929477035236276,7.274486458985763e-06,-3.429844118052472e-06,-0.27940210366746465,-8.351165128872573e-06,-0.27942948586726024
942,0.9305,968.935,0.00733799,0.00529295,-0.000557728,-0.00939198,-0.000449972,0.657767,-0.327933,-0.327971,7.27134e-06,-3.44842e-06,-8.35195e-06,0.653185,0.9304767632477291,7.271366436301108e-06,-3.4484140541968245e-06,-0.2795887143554875,-8.351915122606357e-06,-0.2796160894642117
943,0.9315,969.079,0.0073264,0.00528441,-0.000570721,-0.00937647,-0.000452328,0.658285,-0.328191,-0.32823,7.26819e-06,-3.46694e-06,-8.3527e-06,0.653702,0.9314770092524409,7.268216413391926e-06,-3.4669339901149954e-06,-0.27977455649251726,-8.352665116340141e-06,-0.2798026447370897
944,0.9325,969.223,0.00731483,0.00527588,-0.000583685,-0.00936098,-0.000454677,0.658803,-0.32845,-0.328489,7.26502e-06,-3.48542e-06,-8.35346e-06,0.654219,0.9324777735188012,7.2650463902590445e-06,-3.4854139259188344e-06,-0.27996107072774956,-8.35342510996373e-06,-0.27998915169840866
945,0.9335,969.367,0.00730329,0.00526738,-0.000596621,-0.0093455,-0.000457019,0.65932,-0.328709,-0.328747,7.26182e-06,-3.50386e-06,-8.35422e-06,0.654736,0.9334771228372496,7.261846367123681e-06,-3.503853861497319e-06,-0.2801475366620503,-8.35418510358732e-06,-0.28017489053593025
946,0.9345,969.51,0.00729178,0.00525889,-0.000609527,-0.00933005,-0.000459355,0.659837,-0.328967,-0.329006,7.2586e-06,-3.52226e-06,-8.35498e-06,0.655252,0.9344769889528763,7.258626343764618e-06,-3.5222537968504497e-06,-0.28033323464152204,-8.354945097210909e-06,-0.28036130109807156
947,0.9355,969.654,0.00728029,0.00525042,-0.000622405,-0.00931462,-0.000461684,0.660354,-0.329225,-0.329264,7.25535e-06,-3.54061e-06,-8.35575e-06,0.655768,0.9354773721329344,7.255376320181028e-06,-3.540603732088421e-06,-0.28051888471709496,-8.355715090835325e-06,-0.2805469439334327
948,0.9365,969.797,0.00726882,0.00524197,-0.000635254,-0.00929922,-0.000464006,0.66087,-0.329483,-0.329522,7.25208e-06,-3.55892e-06,-8.35652e-06,0.656284,0.9364763361675108,7.252106296373739e-06,-3.558913667101038e-06,-0.2807044869011267,-8.35648508434872e-06,-0.2807325388791204
949,0.9375,969.94,0.00725737,0.00523354,-0.000648074,-0.00928383,-0.000466321,0.661387,-0.329741,-0.32978,7.24878e-06,-3.57719e-06,-8.35729e-06,0.6568,0.9374777532773266,7.248806272563968e-06,-3.5771836018883008e-06,-0.2808900412059716,-8.357255077973136e-06,-0.28091808594748857
950,0.9385,970.083,0.00724595,0.00522513,-0.000660866,-0.00926846,-0.000468629,0.661903,-0.329999,-0.330038,7.24545e-06,-3.59541e-06,-8.35807e-06,0.657315,0.9384777497749264,7.245476248307625e-06,-3.5954035365604042e-06,-0.2810755476439809,-8.358035071376335e-06,-0.28110358515088785
951,0.9395,970.225,0.00723456,0.00521673,-0.000673628,-0.00925312,-0.000470931,0.662418,-0.330257,-0.330296,7.2421e-06,-3.6136e-06,-8.35884e-06,0.65783,0.9394763229265763,7.242126224049628e-06,-3.613593471007981e-06,-0.28126100622750283,-8.358805065000752e-06,-0.28128903650166603
952,0.9405,970.368,0.00722319,0.00520836,-0.000686362,-0.00923779,-0.000473226,0.662934,-0.330515,-0.330553,7.23873e-06,-3.63174e-06,-8.35962e-06,0.658345,0.9404773509522264,7.238756199567931e-06,-3.631733405229376e-06,-0.28144641696888195,-8.359585058514973e-06,-0.28147372148624805
953,0.9415,970.51,0.00721184,0.0052,-0.000699067,-0.00922249,-0.000475515,0.663449,-0.330772,-0.330811,7.23533e-06,-3.64984e-06,-8.36041e-06,0.65886,0.9414769541637003,7.235356175083751e-06,-3.649833339336439e-06,-0.2816310615118809,-8.360375051919e-06,-0.2816590773541695
954,0.9425,970.653,0.00720051,0.00519165,-0.000711743,-0.00920721,-0.000477796,0.663964,-0.331029,-0.331068,7.2319e-06,-3.66789e-06,-8.36119e-06,0.659374,0.9424770723034108,7.231926150153001e-06,-3.667883273328343e-06,-0.2818156586073296,-8.3611550453222e-06,-0.2818436672504717
955,0.9435,970.795,0.00718922,0.00518333,-0.000724391,-0.00919194,-0.000480071,0.664479,-0.331287,-0.331325,7.22845e-06,-3.68591e-06,-8.36198e-06,0.659888,0.9434777056366144,7.228476125220595e-06,-3.68590320709572e-06,-0.28200092626685314,-8.361945038726226e-06,-0.28202820971326614
956,0.9445,970.936,0.00717794,0.00517503,-0.00073701,-0.0091767,-0.00048234,0.664993,-0.331544,-0.331582,7.22497e-06,-3.70388e-06,-8.36278e-06,0.660402,0.9444769099508215,7.224996100063663e-06,-3.703873140636915e-06,-0.2821854283192733,-8.362745032020058e-06,-0.2822127047547416
957,0.9455,971.078,0.00716669,0.00516674,-0.0007496,-0.00916148,-0.000484602,0.665507,-0.331801,-0.331839,7.22147e-06,-3.72181e-06,-8.36358e-06,0.660915,0.9454766279880615,7.221496074905076e-06,-3.7218030740637786e-06,-0.2823698829607585,-8.36354502531389e-06,-0.2823971523870836
958,0.9465,971.22,0.00715546,0.00515847,-0.000762161,-0.00914628,-0.000486857,0.666021,-0.332058,-0.332096,7.21795e-06,-3.7397e-06,-8.36437e-06,0.661429,0.9464768600124562,7.21797604952279e-06,-3.73969300737631e-06,-0.2825542902034919,-8.364335018717917e-06,-0.282581552622475
959,0.9475,971.361,0.00714425,0.00515022,-0.000774694,-0.00913111,-0.000489106,0.666535,-0.332314,-0.332353,7.2144e-06,-3.75755e-06,-8.36518e-06,0.661942,0.9474776062882628,7.214426023915976e-06,-3.7575429404634875e-06,-0.2827379327979448,-8.365145012012576e-06,-0.282765905473095
960,0.9485,971.502,0.00713307,0.00514198,-0.000787197,-0.00911595,-0.000491348,0.667048,-0.332571,-0.332609,7.21082e-06,-3.77535e-06,-8.36598e-06,0.662454,0.9484769186019815,7.210845998084636e-06,-3.775342873324483e-06,-0.28292224546402367,-8.365945005306408e-06,-0.28294949390097246
961,0.9495,971.643,0.00712191,0.00513376,-0.000799673,-0.00910081,-0.000493584,0.667561,-0.332827,-0.332866,7.20723e-06,-3.79312e-06,-8.36679e-06,0.662967,0.9494767436944336,7.207255972252469e-06,-3.7931128061829966e-06,-0.28310579387398593,-8.366754998490045e-06,-0.283133752202834
962,0.9505,971.784,0.00711078,0.00512557,-0.000812119,-0.0090857,-0.000495813,0.668074,-0.333083,-0.333122,7.2036e-06,-3.81084e-06,-8.3676e-06,0.663479,0.950477081828742,7.203625945972902e-06,-3.810832738704306e-06,-0.2832892953015693,-8.367564991784704e-06,-0.28331724647400114
963,0.9515,971.925,0.00709967,0.00511738,-0.000824537,-0.0090706,-0.000498036,0.668586,-0.33334,-0.333378,7.19996e-06,-3.82852e-06,-8.36842e-06,0.663991,0.9514759817912077,7.199985919692509e-06,-3.828512671222306e-06,-0.2834734662856917,-8.368384984858146e-06,-0.2835006937766472
964,0.9525,972.065,0.00708858,0.00510922,-0.000836926,-0.00905553,-0.000500252,0.669099,-0.333596,-0.333634,7.19628e-06,-3.84616e-06,-8.36924e-06,0.664503,0.9524773457977735,7.196305893186761e-06,-3.846152603514952e-06,-0.2836568736011845,-8.36920497804261e-06,-0.2836840941227945
965,0.9535,972.206,0.00707751,0.00510107,-0.000849286,-0.00904047,-0.000502462,0.669611,-0.333851,-0.33389,7.19259e-06,-3.86376e-06,-8.37005e-06,0.665014,0.9534772701576144,7.192615866680185e-06,-3.863752535693266e-06,-0.2838395178102898,-8.370014971226247e-06,-0.28386744752446236
966,0.9545,972.346,0.00706647,0.00509294,-0.000861618,-0.00902544,-0.000504665,0.670123,-0.334107,-0.334146,7.18887e-06,-3.88131e-06,-8.37088e-06,0.665525,0.954477706609812,7.188895839949083e-06,-3.88130246775642e-06,-0.2840228314285861,-8.370844964300517e-06,-0.28405075399366686
967,0.9555,972.486,0.00705545,0.00508483,-0.000873921,-0.00901043,-0.000506862,0.670634,-0.334363,-0.334401,7.18513e-06,-3.89883e-06,-8.3717e-06,0.666036,0.955476699938947,7.185155813216326e-06,-3.898822399595048e-06,-0.2842060981246025,-8.371664957373959e-06,-0.2842332977760771
968,0.9565,972.626,0.00704446,0.00507674,-0.000886195,-0.00899544,-0.000509053,0.671145,-0.334618,-0.334657,7.18136e-06,-3.91631e-06,-8.37253e-06,0.666547,0.9564762038841246,7.181385786036998e-06,-3.9163023313193435e-06,-0.2843886022993095,-8.372494950448228e-06,-0.2844165105996044
969,0.9575,972.766,0.00703348,0.00506866,-0.000898441,-0.00898047,-0.000511237,0.671656,-0.334874,-0.334912,7.17757e-06,-3.93374e-06,-8.37336e-06,0.667057,0.9574762187063361,7.177595758856015e-06,-3.933732262817458e-06,-0.2845717753699675,-8.373324943522498e-06,-0.2845989611259707
970,0.9585,972.906,0.00702253,0.0050606,-0.000910658,-0.00896552,-0.000513415,0.672167,-0.335129,-0.335167,7.17375e-06,-3.95113e-06,-8.3742e-06,0.667567,0.9584767446667062,7.173775731450505e-06,-3.951122194312262e-06,-0.28475418630886495,-8.374164936486572e-06,-0.28478136513338426
971,0.9595,973.045,0.00701161,0.00505255,-0.000922847,-0.00895059,-0.000515587,0.672678,-0.335384,-0.335422,7.16992e-06,-3.96848e-06,-8.37504e-06,0.668077,0.9594777820264937,7.169945704044167e-06,-3.968472125581712e-06,-0.2849365507389031,-8.375004929450647e-06,-0.28496372263370584
972,0.9605,973.184,0.0070007,0.00504453,-0.000935007,-0.00893568,-0.000517752,0.673188,-0.335639,-0.335677,7.16605e-06,-3.9858e-06,-8.37588e-06,0.668587,0.9604773705687395,7.166075676190431e-06,-3.985792056737658e-06,-0.28511886867194036,-8.375844922414721e-06,-0.2851460336387932
973,0.9615,973.324,0.00698982,0.00503652,-0.000947138,-0.00892079,-0.000519911,0.673698,-0.335894,-0.335932,7.16217e-06,-4.00307e-06,-8.37672e-06,0.669096,0.9614774690311603,7.162195648335867e-06,-4.0030619877784446e-06,-0.28530114011983176,-8.376684915378796e-06,-0.2853282981605011
974,0.9625,973.463,0.00697896,0.00502853,-0.000959241,-0.00890592,-0.000522064,0.674207,-0.336149,-0.336187,7.15826e-06,-4.0203e-06,-8.37756e-06,0.669605,0.9624761151967856,7.1582856204788214e-06,-4.020291918593877e-06,-0.2854833650944294,-8.37752490834287e-06,-0.28551051621068135
975,0.9635,973.601,0.00696813,0.00502055,-0.000971315,-0.00889108,-0.00052421,0.674717,-0.336403,-0.336441,7.15433e-06,-4.03749e-06,-8.37841e-06,0.670114,0.9634772332789476,7.1543555921760316e-06,-4.037481849294977e-06,-0.28566482927276926,-8.37837490119675e-06,-0.2856919734935134
976,0.9645,973.74,0.00695731,0.00501259,-0.00098336,-0.00887625,-0.000526351,0.675226,-0.336658,-0.336696,7.15037e-06,-4.05464e-06,-8.37926e-06,0.670622,0.9644768975836693,7.1503955638707595e-06,-4.054631779992768e-06,-0.28584696151845645,-8.37922489405063e-06,-0.2858740988183067
977,0.9655,973.879,0.00694652,0.00500465,-0.000995377,-0.00886145,-0.000528485,0.675735,-0.336912,-0.33695,7.14639e-06,-4.07175e-06,-8.38012e-06,0.671131,0.965477070847041,7.146415535563833e-06,-4.071741710465204e-06,-0.2860283333550323,-8.380084886905337e-06,-0.2860554637628838
978,0.9665,974.017,0.00693575,0.00499673,-0.00100737,-0.00884666,-0.000530613,0.676244,-0.337166,-0.337204,7.14239e-06,-4.08882e-06,-8.38097e-06,0.671639,0.9664777533281887,7.142415507033206e-06,-4.088811640823309e-06,-0.286209659129012,-8.380934879759216e-06,-0.286236782646615
979,0.9675,974.155,0.00692501,0.00498882,-0.00101933,-0.0088319,-0.000532734,0.676752,-0.33742,-0.337458,7.13837e-06,-4.10584e-06,-8.38183e-06,0.672147,0.9674769778084089,7.1383954782788805e-06,-4.105831571066254e-06,-0.28639093885209377,-8.381794872613924e-06,-0.28641805548119814
980,0.9685,974.293,0.00691428,0.00498093,-0.00103126,-0.00881715,-0.00053485,0.67726,-0.337674,-0.337712,7.13432e-06,-4.12283e-06,-8.38269e-06,0.672654,0.9684767100236187,7.134345449300028e-06,-4.122821501195695e-06,-0.2865721725359731,-8.382654865357608e-06,-0.2865992822783284
981,0.9695,974.431,0.00690358,0.00497305,-0.00104316,-0.00880243,-0.000536959,0.677768,-0.337928,-0.337966,7.13025e-06,-4.13978e-06,-8.38356e-06,0.673161,0.969476950231813,7.130275420319521e-06,-4.139771431099781e-06,-0.28675336019234254,-8.38352485810212e-06,-0.2867804630496976
982,0.9705,974.569,0.0068929,0.0049652,-0.00105503,-0.00878773,-0.000539063,0.678276,-0.338182,-0.33822,7.12616e-06,-4.15669e-06,-8.38442e-06,0.673668,0.9704776986911179,7.126185391115314e-06,-4.156681361000558e-06,-0.2869345018328914,-8.384384850845805e-06,-0.28696159780699504
983,0.9715,974.707,0.00688224,0.00495736,-0.00106688,-0.00877305,-0.00054116,0.678783,-0.338435,-0.338473,7.12204e-06,-4.17356e-06,-8.38529e-06,0.674175,0.9714769841818209,7.12206536168658e-06,-4.173551290675981e-06,-0.2871148845845475,-8.385254843590317e-06,-0.28714197370423666
984,0.9725,974.844,0.00687161,0.00494953,-0.0010787,-0.00875838,-0.000543251,0.67929,-0.338689,-0.338727,7.1179e-06,-4.19039e-06,-8.38617e-06,0.674682,0.9724767764387217,7.117925332256192e-06,-4.190381220348094e-06,-0.2872959344095618,-8.386134836224635e-06,-0.28732301664948845
985,0.9735,974.981,0.00686099,0.00494172,-0.00109049,-0.00874374,-0.000545336,0.679797,-0.338942,-0.33898,7.11374e-06,-4.20718e-06,-8.38704e-06,0.675188,0.9734770757188167,7.113765302602104e-06,-4.207171149794853e-06,-0.2874762257303425,-8.387004828858124e-06,-0.287503301119329
986,0.9745,975.118,0.0068504,0.00493393,-0.00110225,-0.00872912,-0.000547415,0.680304,-0.339195,-0.339233,7.10956e-06,-4.22393e-06,-8.38792e-06,0.675694,0.974477882279231,7.1095852729463616e-06,-4.223921079238302e-06,-0.2876564714431885,-8.387884821492442e-06,-0.28768353998296814
987,0.9755,975.255,0.00683983,0.00492616,-0.00111398,-0.00871452,-0.000549488,0.68081,-0.339448,-0.339486,7.10536e-06,-4.24064e-06,-8.3888e-06,0.6762,0.975477220899013,7.1053852430669195e-06,-4.240631008456397e-06,-0.28783667155963744,-8.388764814126759e-06,-0.2878637332519428
988,0.9765,975.392,0.00682929,0.0049184,-0.00112568,-0.00869994,-0.000551555,0.681316,-0.339701,-0.339739,7.10113e-06,-4.25731e-06,-8.38968e-06,0.676705,0.9764770653120913,7.101155213184995e-06,-4.257300937671182e-06,-0.2880168260912237,-8.389644806761076e-06,-0.2880438809377869
989,0.9775,975.529,0.00681876,0.00491065,-0.00113736,-0.00868538,-0.000553616,0.681822,-0.339954,-0.339992,7.09688e-06,-4.27394e-06,-8.39057e-06,0.67721,0.9774774157744626,7.096905182857327e-06,-4.273930866771636e-06,-0.28819693504947863,-8.390534799285199e-06,-0.28822398305203145
990,0.9785,975.666,0.00680826,0.00490293,-0.001149,-0.00867084,-0.000555671,0.682327,-0.340207,-0.340245,7.09261e-06,-4.29054e-06,-8.39145e-06,0.677715,0.9784762940649687,7.092635152528004e-06,-4.2905307956475625e-06,-0.288376998445931,-8.391414791919516e-06,-0.28840403960620475
991,0.9795,975.802,0.00679777,0.00489522,-0.00116062,-0.00865632,-0.00055772,0.682833,-0.340459,-0.340497,7.08831e-06,-4.30709e-06,-8.39234e-06,0.67822,0.9794776563930692,7.088335122196199e-06,-4.307080724519352e-06,-0.28855630484876704,-8.392304784443638e-06,-0.2885833391955269
992,0.9805,975.938,0.00678731,0.00488753,-0.00117221,-0.00864183,-0.000559763,0.683338,-0.340712,-0.34075,7.084e-06,-4.3236e-06,-8.39324e-06,0.678724,0.9804775450601864,7.0840250916415215e-06,-4.32359065327681e-06,-0.2887362773361606,-8.393204776857566e-06,-0.28876330484409596
993,0.9815,976.074,0.00677687,0.00487985,-0.00118377,-0.00862735,-0.0005618,0.683842,-0.340964,-0.341002,7.07966e-06,-4.34008e-06,-8.39413e-06,0.679229,0.981475957321652,7.079685060862317e-06,-4.340070581920763e-06,-0.28891549321212306,-8.394094769381688e-06,-0.2889425139099846
994,0.9825,976.21,0.00676645,0.00487219,-0.0011953,-0.00861289,-0.000563831,0.684347,-0.341216,-0.341254,7.0753e-06,-4.35651e-06,-8.39503e-06,0.679733,0.9824768553855898,7.0753250300814585e-06,-4.356500510449557e-06,-0.28909466393137484,-8.394994761795616e-06,-0.2891216778208783
995,0.9835,976.346,0.00675606,0.00486454,-0.00120681,-0.00859845,-0.000565857,0.684851,-0.341468,-0.341506,7.07092e-06,-4.37291e-06,-8.39593e-06,0.680236,0.9834762755534305,7.0709449990769e-06,-4.372900438864846e-06,-0.2892737895052939,-8.395894754320565e-06,-0.2893007965881549
996,0.9845,976.482,0.00674568,0.00485691,-0.00121828,-0.00858404,-0.000567876,0.685355,-0.34172,-0.341758,7.06652e-06,-4.38927e-06,-8.39683e-06,0.68074,0.9844761995559919,7.0665449678486425e-06,-4.389260367165804e-06,-0.28945286994525543,-8.396794746734493e-06,-0.289479870223189
997,0.9855,976.617,0.00673533,0.0048493,-0.00122973,-0.00856964,-0.00056989,0.685859,-0.341972,-0.34201,7.06209e-06,-4.40559e-06,-8.39774e-06,0.681243,0.98547662764727,7.0621149366179026e-06,-4.405580295352429e-06,-0.28963190526263183,-8.397704739038225e-06,-0.2896588987373525
998,0.9865,976.752,0.006725,0.0048417,-0.00124115,-0.00855526,-0.000571898,0.686363,-0.342223,-0.342261,7.05765e-06,-4.42187e-06,-8.39865e-06,0.681746,0.9864775600813898,7.057674905164291e-06,-4.421860223535745e-06,-0.2898101852793328,-8.39861473145298e-06,-0.2898371719795416
999,0.9875,976.888,0.00671469,0.00483412,-0.00125254,-0.00854091,-0.0005739,0.686866,-0.342475,-0.342513,7.05318e-06,-4.43811e-06,-8.39956e-06,0.682248,0.9874770096346008,7.0532048737081965e-06,-4.438100151604729e-06,-0.2899891305645894,-8.399524723756713e-06,-0.29001611046500664
