,Time,S11,S22,S33,S12,S13,S23,LE11,LE22,LE33,LE12,LE13,LE23,SDV_EPBAR,E11,E12,E13,E22,E23,E33
0,1e-05,2.08407,-1.66533e-16,-2.22045e-16,1.69736e-17,-3.59433e-39,0.0,9.99995e-06,-2.99999e-06,-2.99999e-06,0.0,0.0,0.0,0.0,9.999999999621423e-06,0.0,0.0,-2.999985500018454e-06,0.0,-2.999985500018454e-06
1,2e-05,4.16811,3.33067e-16,4.44089e-16,-2.20659e-22,-3.59433e-39,0.0,1.99998e-05,-5.99994e-06,-5.99994e-06,0.0,0.0,0.0,0.0,1.9999999997244444e-05,0.0,0.0,-5.999922000343716e-06,0.0,-5.999922000343716e-06
2,3.5e-05,7.29414,-1.11022e-16,-2.22045e-16,-2.20659e-22,-3.59433e-39,-1.37033e-38,3.49994e-05,-1.04998e-05,-1.04998e-05,0.0,0.0,0.0,0.0,3.5000012486241516e-05,0.0,0.0,-1.0499744877323636e-05,0.0,-1.0499744877323636e-05
3,5.75e-05,11.9831,-4.21885e-15,-4.44089e-15,1.69731e-17,-1.0783e-38,-3.39477e-17,5.74983e-05,-1.72495e-05,-1.72495e-05,0.0,0.0,0.0,0.0,5.749995305892597e-05,0.0,0.0,-1.7249351228265652e-05,0.0,-1.7249351228265652e-05
4,9.125e-05,19.0163,-2.88658e-14,-2.93099e-14,1.69724e-17,-3.39462e-17,0.0,9.12458e-05,-2.73738e-05,-2.73738e-05,0.0,0.0,0.0,0.0,9.124996302456445e-05,0.0,0.0,-2.737342534098186e-05,0.0,-2.737342534098186e-05
5,0.00014188,29.5657,-1.57208e-13,-1.57208e-13,-1.69742e-17,1.48934e-21,-1.35791e-16,0.000141865,-4.25595e-05,-4.25595e-05,0.0,0.0,0.0,0.0,0.00014187506331508892,0.0,0.0,-4.255859435731146e-05,0.0,-4.255859435731146e-05
6,0.00021781,45.3888,-8.01581e-13,-8.01137e-13,-8.48612e-17,-6.78872e-17,-6.78954e-17,0.000217789,-6.53366e-05,-6.53366e-05,0.0,0.0,0.0,0.0,0.0002178127177461242,0.0,0.0,-6.533446561085565e-05,0.0,-6.533446561085565e-05
7,0.00033172,69.1212,-4.04787e-12,-4.05009e-12,1.86693e-16,-6.78772e-17,-4.75268e-16,0.000331664,-9.94991e-05,-9.94991e-05,0.0,0.0,0.0,0.0,0.0003317190065854625,0.0,0.0,-9.949415012866503e-05,0.0,-9.949415012866503e-05
8,0.00050258,104.715,-2.05174e-11,-2.05169e-11,1.86651e-16,2.03659e-16,-3.39477e-16,0.000502452,-0.000150736,-0.000150736,0.0,0.0,0.0,0.0,0.0005025782501502096,0.0,0.0,-0.00015072463989995732,0.0,-0.00015072463989995732
9,0.00075887,158.094,-1.03756e-10,-1.03753e-10,1.86589e-16,2.03591e-16,-6.78954e-17,0.000758579,-0.000227574,-0.000227574,0.0,0.0,0.0,0.0,0.0007588667938165372,0.0,0.0,-0.0002275481070015406,0.0,-0.0002275481070015406
10,0.0011433,238.136,-5.24726e-10,-5.24729e-10,-3.56396e-16,2.0349e-16,-6.11059e-16,0.00114265,-0.000342794,-0.000342794,0.0,0.0,0.0,0.0,0.0011433030732321825,0.0,0.0,-0.00034273525284966855,0.0,-0.00034273525284966855
11,0.00172,357.657,-0.000183442,-0.000123396,1.61279e-05,-2.80789e-05,-4.02607e-05,0.00171847,-0.000516009,-0.000516009,2.01595e-10,-3.50982e-10,-4.61734e-10,2.33299e-06,0.001719947415747436,2.015949629452507e-10,-3.509820212244108e-10,-0.0005158758902522598,-4.6173398438043023e-10,-0.0005158758902522598
12,0.0019362,361.506,-0.0718102,-0.0217979,0.0103161,-0.0181097,-0.00395464,0.00193432,-0.000620499,-0.000620144,1.37545e-07,-2.42646e-07,-4.14769e-08,0.000199649,0.001936192003754611,1.3754500938212288e-07,-2.426459705384687e-07,-0.0006203065303066468,-4.1476899137471435e-08,-0.0006199517504524854
13,0.0022606,367.119,0.043701,-0.00241471,-0.00401067,0.0112846,-0.00550744,0.00225801,-0.000776475,-0.000776781,-7.27681e-08,1.88021e-07,-3.25656e-08,0.000496727,0.0022605612244488427,-7.276809732559286e-08,1.8802101764414658e-07,-0.0007761736212965609,-3.256559943931592e-08,-0.0007764793837407025
14,0.0027471,374.766,-0.132563,-0.0272606,0.0133031,-0.0343726,-0.00330031,0.00274334,-0.0010125,-0.00101169,1.36407e-07,-4.08881e-07,9.76155e-08,0.00094534,0.0027471064005626378,1.3640700924355542e-07,-4.0888091645818747e-07,-0.0010119875948263468,9.761550479048253e-08,-0.0010111784142086133
15,0.0034769,385.432,0.148138,-0.0413105,-0.00621678,0.0362056,-0.0366945,0.0034709,-0.00136445,-0.00136606,-2.64012e-07,8.9661e-07,-2.17727e-07,0.00162265,0.003476930548530044,-2.6401196517866765e-07,8.966104019236809e-07,-0.0013635195613258544,-2.177269763370404e-07,-0.0013651273647651285
16,0.0044769,397.962,-0.40911,0.0115796,0.0255527,-0.105889,0.0420278,0.00446694,-0.00185329,-0.00184973,1.07361e-07,-1.20519e-06,1.60041e-06,0.00255879,0.004476931648306648,1.0736100586328234e-07,-1.2051892737119374e-06,-0.0018515737185074155,1.6004112806111692e-06,-0.0018480203037848364
17,0.0054769,409.32,-0.374119,0.112764,0.0108298,-0.103366,0.0697961,0.00546199,-0.00234063,-0.00233505,-1.56152e-07,-1.57373e-06,2.82892e-06,0.00350032,0.005476933862734512,-1.5615198778462513e-07,-1.5737287616390816e-06,-0.0023378928615608308,2.828924001496702e-06,-0.002332325891471143
18,0.0064769,419.598,0.244246,-0.218946,0.0106393,0.0771468,-0.10529,0.00645605,-0.00282361,-0.00282559,-2.06656e-07,1.44148e-06,2.50406e-07,0.00444614,0.006476935211934265,-2.06655978662873e-07,1.4414810389773436e-06,-0.0028196273626374113,2.504060312435996e-07,-0.002821601777820537
19,0.0074769,428.669,-0.392157,0.12678,0.0121177,-0.110919,0.0750385,0.00744912,-0.00331553,-0.00330968,-2.04325e-07,-1.45026e-06,3.24523e-06,0.00539585,0.00747693371405922,-2.0432497915834347e-07,-1.4502589483766926e-06,-0.0033100396998373416,3.2452352658474126e-06,-0.00330420904651485
20,0.0084769,437.387,0.397541,-0.129206,-0.00873863,0.110277,-0.0868784,0.00844121,-0.00379847,-0.0038009,-6.00647e-07,2.18857e-06,8.64213e-07,0.0063474,0.008476937470070167,-6.00646819615136e-07,2.188572394867805e-06,-0.003791264938453276,8.642133735303759e-07,-0.0037936857227381937
21,0.0094769,444.941,-0.401319,0.126072,0.01475,-0.115184,0.0747855,0.00943231,-0.00429136,-0.00428551,-2.7869e-07,-1.23694e-06,3.52863e-06,0.00730195,0.009476934429433648,-2.786899612194915e-07,-1.2369392350386477e-06,-0.004282165272006755,3.5286362256581327e-06,-0.0042763403056355065
22,0.010477,452.492,0.38854,-0.122429,-0.00922541,0.107263,-0.0838364,0.0104224,-0.00477455,-0.0047768,-6.92263e-07,2.33096e-06,1.16314e-06,0.00825707,0.01047690239489718,-6.922627603378473e-07,2.3309627166234748e-06,-0.004763169954884128,1.1631406764411878e-06,-0.004765409235232498
23,0.011477,459.314,0.399297,-0.130903,-0.00763643,0.10801,-0.0867577,0.0114116,-0.00526163,-0.00526566,-7.68117e-07,3.11094e-06,7.08108e-07,0.00921391,0.011476960694033034,-7.68116705018862e-07,3.1109448390687078e-06,-0.005247811870788599,7.081082507021108e-07,-0.005251820714028965
24,0.012477,465.528,-0.300748,0.158613,0.0084111,-0.0951811,0.0796925,0.0123997,-0.0057539,-0.00575032,-5.57629e-07,6.72883e-08,3.37964e-06,0.0101721,0.01247689501508975,-5.576288445441335e-07,6.728830226343518e-08,-0.005737378021188233,3.3796457110657485e-06,-0.005733818554630066
25,0.013477,471.796,0.4076,-0.13139,-0.00823616,0.109802,-0.0875985,0.0133869,-0.00623711,-0.00624139,-8.52094e-07,3.3685e-06,8.52173e-07,0.0111302,0.013476905729922883,-8.52093636982687e-07,3.368505673506661e-06,-0.006217699605312377,8.521733632083084e-07,-0.006221952984455825
26,0.014477,477.279,-0.399475,0.139627,0.0171987,-0.121498,0.0786716,0.0143731,-0.00672963,-0.00672553,-4.63215e-07,-1.90607e-07,3.47954e-06,0.0120897,0.014476889665384407,-4.632148926653201e-07,-1.9060698186468272e-07,-0.006707036749845741,3.479546053508642e-06,-0.006702964240347775
27,0.015477,483.024,0.439332,-0.13638,-0.010444,0.118688,-0.0920434,0.0153584,-0.00721184,-0.00721639,-8.99189e-07,3.5729e-06,8.74579e-07,0.0130485,0.015476946341787423,-8.991885956932677e-07,3.572906382753871e-06,-0.007185897084754589,8.745793824704862e-07,-0.007190414378645982
28,0.016477,487.953,-0.415246,0.143293,0.0185723,-0.126559,0.0811122,0.0163427,-0.00770415,-0.00769994,-4.53115e-07,-1.88075e-07,3.57543e-06,0.0140087,0.01647697238214807,-4.531148973807575e-07,-1.8807498236572684e-07,-0.007674549101754025,3.5754363918449883e-06,-0.007670371402811682
29,0.017477,493.221,0.432612,-0.135464,-0.0104729,0.117112,-0.0909462,0.017326,-0.00818585,-0.0081903,-8.99991e-07,3.58463e-06,9.5689e-07,0.0149679,0.0174769657552607,-8.999905950490827e-07,3.5846364248026674e-06,-0.008152437162871617,9.56890457759485e-07,-0.008156850874705746
30,0.018477,497.727,-0.389243,0.13679,0.017936,-0.119758,0.0762546,0.0183083,-0.00867739,-0.00867346,-4.62544e-07,-2.74154e-08,3.53412e-06,0.0159281,0.01847692442801807,-4.62543893076095e-07,-2.7415399617147784e-08,-0.008639850112614145,3.5341262449861688e-06,-0.008635954059569406
31,0.019477,502.573,0.39067,-0.123369,-0.00912263,0.105377,-0.0829167,0.0192897,-0.00915894,-0.00916295,-8.71698e-07,3.4259e-06,1.1216e-06,0.0168874,0.01947694831310809,-8.716976200862092e-07,3.42590586832614e-06,-0.009117124667788468,1.121600629039321e-06,-0.009121098100151825
32,0.020477,506.981,0.404188,-0.149412,-0.00597071,0.109337,-0.0922611,0.0202701,-0.00964402,-0.00964981,-8.83641e-07,4.1315e-06,5.25162e-07,0.0178469,0.020476933625937166,-8.836406095724669e-07,4.131508534621631e-06,-0.00959766557314079,5.251621379986915e-07,-0.009603399986055972
33,0.021477,511.078,-0.257811,0.196588,0.00386117,-0.0900097,0.0904887,0.0212496,-0.0101339,-0.0101321,-7.5514e-07,1.16432e-06,3.35213e-06,0.0188066,0.02147698047541291,-7.551397148697347e-07,1.164320677871089e-06,-0.010082725048561447,3.3521356184174067e-06,-0.010080943195862835
34,0.022477,515.091,-0.381193,0.131353,0.0190837,-0.118415,0.0734005,0.022228,-0.0106204,-0.0106167,-4.73246e-07,1.74515e-07,3.58335e-06,0.0197659,0.022476882625477312,-4.732458880329915e-07,1.7451501532761426e-07,-0.010564202673896461,3.5833564202558676e-06,-0.010560541754673691
35,0.023477,519.407,0.462744,-0.0117786,-0.0271978,0.118145,-0.0453988,0.0232056,-0.0111006,-0.0111044,-1.21531e-06,3.811e-06,1.88349e-06,0.020724,0.023476944776664732,-1.2153092615596606e-06,3.8110072617669744e-06,-0.011039215684020887,1.8834917736576529e-06,-0.011042973727861005
36,0.024477,522.859,-0.472395,0.139038,0.0259301,-0.143428,0.0841372,0.0241822,-0.0115906,-0.0115859,-4.2181e-07,-2.23325e-07,3.99144e-06,0.0216832,0.024476960589174812,-4.2180991099982634e-07,-2.233249750682731e-07,-0.011523687762982848,3.991447965701056e-06,-0.011519041913397587
37,0.025477,526.58,-0.466022,0.12955,0.025875,-0.139444,0.0797036,0.0251578,-0.0120756,-0.0120693,-2.93112e-07,-9.14394e-07,4.39784e-06,0.0226413,0.025476928016723077,-2.931119570392937e-07,-9.143935819633242e-07,-0.012002982536040152,4.397849670434439e-06,-0.011996758135223384
38,0.026477,530.559,0.447677,-0.0428324,-0.0235705,0.118723,-0.054638,0.0261325,-0.0125544,-0.0125562,-1.0491e-06,2.97565e-06,2.45302e-06,0.0235983,0.026476947658861993,-1.0490994496459294e-06,2.9756544273062957e-06,-0.012475922277192852,2.4530230087194127e-06,-0.012477699818932875
39,0.027477,533.988,0.374333,-0.125074,-0.00845141,0.101867,-0.0818764,0.0271062,-0.0130374,-0.0130406,-9.15847e-07,3.33416e-06,1.69831e-06,0.0245556,0.02747691501790106,-9.158465805736427e-07,3.3341655583107865e-06,-0.012952781236023836,1.6983114421442735e-06,-0.012955939782070214
40,0.028477,537.292,-0.168383,0.206604,-0.00486659,-0.065651,0.0848293,0.028079,-0.0135241,-0.0135207,-9.06581e-07,9.07781e-07,4.25277e-06,0.0255126,0.028476930889687502,-9.065805890440259e-07,9.077814120406202e-07,-0.013433060232022065,4.2527790431456935e-06,-0.013429705898724498
41,0.029477,540.698,0.353926,-0.13396,-0.0052811,0.0966541,-0.0826261,0.0290508,-0.0140032,-0.0140065,-9.4867e-07,3.46667e-06,1.74772e-06,0.0264686,0.029476890572839753,-9.48669550027148e-07,3.466676008923031e-06,-0.013905611244230953,1.747721527278756e-06,-0.013908865350344524
42,0.030477,543.731,-0.338642,0.163573,0.0122457,-0.110306,0.0795889,0.0300217,-0.0144899,-0.0144856,-6.73551e-07,3.13401e-07,4.20996e-06,0.0274247,0.03047689505952067,-6.735507731558954e-07,3.1340104911237177e-07,-0.014385426610697527,4.209968861967894e-06,-0.014381188458919891
43,0.031477,547.116,0.445138,-0.14107,-0.0123259,0.121774,-0.0929685,0.0309917,-0.014967,-0.014971,-1.05291e-06,3.86748e-06,1.5904e-06,0.0283794,0.03147694259236977,-1.0529094457423227e-06,3.867487478714793e-06,-0.014855551166531034,1.590401264683905e-06,-0.014859491736445296
44,0.032477,550.138,0.344445,-0.136855,-0.00371779,0.0933409,-0.0826646,0.0319607,-0.0154484,-0.015453,-9.72141e-07,4.0139e-06,1.30727e-06,0.0293341,0.03247692816450587,-9.721405275220363e-07,4.013908055711113e-06,-0.015329685570891871,1.307270854455922e-06,-0.015334215043920407
45,0.033477,553.052,-0.123742,0.167188,-0.0022565,-0.0524624,0.0685931,0.0329288,-0.0159326,-0.0159316,-9.72586e-07,1.93296e-06,3.56496e-06,0.0302882,0.03347695306261045,-9.725855270037442e-07,1.9329618681229732e-06,-0.015806347527965836,3.5649663545633814e-06,-0.01580536333382121
46,0.034477,556.1,0.478236,-0.186382,-0.00453066,0.134969,-0.101171,0.0338959,-0.0164092,-0.0164158,-1.03093e-06,4.98397e-06,9.43736e-07,0.0312414,0.03447691207616144,-1.0309294685706405e-06,4.983982420103672e-06,-0.016275302461896457,9.437364452136165e-07,-0.01628179502347471
47,0.035477,558.706,-0.399478,0.182297,0.0162694,-0.130324,0.0917634,0.0348621,-0.0168949,-0.0168922,-6.94082e-07,1.01153e-06,3.83386e-06,0.0321946,0.035476906688211685,-6.940817591782888e-07,1.0115305115743212e-06,-0.0167529815337375,3.833867349145592e-06,-0.01675032676320376
48,0.036477,561.485,-0.382613,0.130075,0.0216076,-0.120916,0.0719143,0.0358274,-0.0173754,-0.0173718,-5.23471e-07,5.23071e-07,3.96503e-06,0.0331468,0.03647693513231376,-5.234708629897611e-07,5.230711368486851e-07,-0.01722531823812956,3.965037860709231e-06,-0.01722178024290688
49,0.037477,564.518,0.362524,-0.0146998,-0.0199673,0.0924513,-0.0362122,0.0367917,-0.0178508,-0.0178537,-1.14959e-06,3.66914e-06,2.44679e-06,0.0340977,0.037476891892527675,-1.1495893391666456e-06,3.6691467313332282e-06,-0.0176924182833611,2.4467929933269517e-06,-0.017695266971217483
50,0.038477,567.171,0.438842,-0.142138,-0.0114008,0.119269,-0.091275,0.0377552,-0.0183287,-0.0183343,-1.10527e-06,4.61662e-06,1.31446e-06,0.0350486,0.03847698259419352,-1.1052693892343868e-06,4.616630656650855e-06,-0.018161750920697273,1.3144608639326094e-06,-0.01816724919949697
51,0.039477,569.617,-0.291037,0.234428,0.00300004,-0.10305,0.105385,0.0387176,-0.018812,-0.0188093,-9.15402e-07,1.32987e-06,4.30606e-06,0.0359992,0.03947689392239573,-9.154015809809124e-07,1.3298708843034746e-06,-0.018636158696603955,4.306069271153845e-06,-0.018633509010655414
52,0.040477,572.346,0.416818,-0.154739,-0.00773121,0.113913,-0.094403,0.0396792,-0.0192858,-0.0192913,-1.09288e-06,4.61979e-06,1.35642e-06,0.0369484,0.04047693564659305,-1.0928794027531552e-06,4.6198006713460416e-06,-0.019101018750570575,1.3564209200289667e-06,-0.01910641368013133
53,0.041477,574.632,-0.379838,0.173988,0.0161829,-0.124714,0.0866389,0.0406398,-0.0197686,-0.0197657,-7.18445e-07,1.02543e-06,4.05406e-06,0.0378977,0.04147689799599852,-7.184447419206208e-07,1.025430525825044e-06,-0.01957448247537774,4.054068217795859e-06,-0.019571639237254246
54,0.042477,577.352,0.440416,-0.145038,-0.0114207,0.119796,-0.0930751,0.0415995,-0.0202411,-0.0202467,-1.12419e-06,4.6825e-06,1.36513e-06,0.0388453,0.04247688314112619,-1.124189368151285e-06,4.6825109629722306e-06,-0.020037624106581164,1.3651309318518656e-06,-0.020043111880520326
55,0.043477,579.514,-0.400753,0.167218,0.0191017,-0.129974,0.0861163,0.0425583,-0.0207232,-0.0207202,-6.53165e-07,9.27828e-07,4.03196e-06,0.0397933,0.04347688930302729,-6.531647867014101e-07,9.278284305302975e-07,-0.020509950104669272,4.0319681282596775e-06,-0.020507011630111927
56,0.044477,582.161,0.44733,-0.143777,-0.0124232,0.121745,-0.0931179,0.0435162,-0.0211948,-0.0212004,-1.11195e-06,4.67849e-06,1.35235e-06,0.0407395,0.04447691470098891,-1.1119493817934867e-06,4.6785009442107395e-06,-0.020971768706814276,1.352350914363143e-06,-0.020977251249558404
57,0.045477,584.229,-0.401389,0.165356,0.0195195,-0.130095,0.0854753,0.0444732,-0.0216761,-0.0216731,-6.21613e-07,9.02333e-07,4.00374e-06,0.041686,0.045476957552538,-6.216128067837445e-07,9.023334071045497e-07,-0.021442861616932873,4.003748014902442e-06,-0.021439925941114213
58,0.046477,586.791,0.440024,-0.141503,-0.0122782,0.119755,-0.0916179,0.0454292,-0.0221469,-0.0221524,-1.08226e-06,4.61419e-06,1.36152e-06,0.0426308,0.04647691142575194,-1.0822594143089503e-06,4.614200645347566e-06,-0.021903457884814403,1.3615209268902362e-06,-0.021908837401002357
59,0.047477,588.785,-0.388791,0.160926,0.0191132,-0.12644,0.082807,0.0463844,-0.0226272,-0.0226243,-6.01277e-07,9.31081e-07,3.94353e-06,0.0435759,0.047476983730038835,-6.012768192231732e-07,9.310814335083961e-07,-0.022373124854440762,3.943537775663586e-06,-0.022370289732391857
60,0.048477,591.259,0.421035,-0.135728,-0.0115575,0.114331,-0.0879466,0.0473386,-0.0230974,-0.0231027,-1.0436e-06,4.49798e-06,1.40123e-06,0.0445193,0.048476963282285235,-1.0435994554081063e-06,4.497990115925887e-06,-0.02283269695726564,1.4012309816902047e-06,-0.022837875930247442
61,0.049477,593.192,-0.365505,0.152953,0.0182382,-0.119623,0.078007,0.0482919,-0.0235767,-0.0235739,-5.8724e-07,1.0051e-06,3.85048e-06,0.0454629,0.04947695294072196,-5.872398275430513e-07,1.0051005050470962e-06,-0.023300941021959787,3.850487413137316e-06,-0.023298206260766063
62,0.050477,595.576,0.392564,-0.126457,-0.0104535,0.106067,-0.0822931,0.0492443,-0.0240463,-0.0240512,-9.98888e-07,4.33915e-06,1.46841e-06,0.0464048,0.050476950914148944,-9.988875011579523e-07,4.339159414223914e-06,-0.02375949122404164,1.4684110780649462e-06,-0.023764274790814888
63,0.051477,597.458,-0.333882,0.141869,0.0170357,-0.110304,0.0714335,0.0501958,-0.0245243,-0.0245219,-5.77513e-07,1.11451e-06,3.7303e-06,0.0473469,0.05147695540963615,-5.775128332219381e-07,1.1145106211252198e-06,-0.024226022677336312,3.730306957550056e-06,-0.024223680816980564
64,0.052477,599.448,-0.507655,0.139485,0.0327524,-0.156156,0.0868775,0.0511464,-0.0249992,-0.0249941,-2.29573e-07,-1.92145e-07,4.33775e-06,0.048288,0.05247696463252827,-2.295729736312424e-07,-1.9214498159225712e-07,-0.02468930772342559,4.337759408112873e-06,-0.02468433362621103
65,0.053477,601.912,0.528875,-0.0573509,-0.0303618,0.141881,-0.0629527,0.0520961,-0.0254664,-0.0254703,-1.16423e-06,4.20888e-06,2.18094e-06,0.0492273,0.05347697678644914,-1.1642293222813294e-06,4.208888857437643e-06,-0.025144866452051717,2.1809423782492843e-06,-0.02514866837965879
66,0.054477,603.556,-0.414437,0.141335,0.0240726,-0.131372,0.0779192,0.0530448,-0.0259441,-0.0259396,-3.73439e-07,1.78884e-07,4.3078e-06,0.0501674,0.054476884625614286,-3.7343893022345753e-07,1.7888401604437831e-07,-0.025610443537407157,4.307809278625285e-06,-0.025606058774537366
67,0.055477,605.823,0.416223,-0.121191,-0.0142635,0.113388,-0.0825108,0.0539927,-0.0264113,-0.0264149,-9.22039e-07,3.77533e-06,1.92996e-06,0.0511055,0.05547689714560766,-9.220385749353355e-07,3.7753371264770408e-06,-0.026065572011896188,1.929961862323637e-06,-0.02606907816952586
68,0.056477,607.531,-0.341543,0.139577,0.0177299,-0.111444,0.0709574,0.0549397,-0.0268874,-0.0268834,-4.42076e-07,4.48121e-07,4.17832e-06,0.0520439,0.05647690719722909,-4.420759023293641e-07,4.4812110044922804e-07,-0.026529151829129183,4.1783287292318505e-06,-0.026525257937948687
69,0.057477,609.375,-0.506046,0.137332,0.0327759,-0.154961,0.0855497,0.0558858,-0.0273601,-0.0273536,-1.04931e-07,-8.10203e-07,4.75965e-06,0.0529812,0.05747691297727009,-1.049309944489707e-07,-8.102026717304867e-07,-0.02698920275745631,4.759661327069509e-06,-0.026982878166719293
70,0.058477,611.687,0.514241,-0.0563761,-0.0301749,0.139016,-0.0614436,0.056831,-0.0278253,-0.0278276,-1.03374e-06,3.5143e-06,2.64992e-06,0.0539167,0.058476912680826,-1.0337394656945165e-06,3.514306175178561e-06,-0.027441742111518508,2.649923511066632e-06,-0.027443978992939266
71,0.059477,613.205,-0.38873,0.134498,0.0224587,-0.123205,0.0730131,0.0577753,-0.0283007,-0.0282949,-2.74369e-07,-3.30227e-07,4.66615e-06,0.054853,0.05947690450130061,-2.7436896232746477e-07,-3.3022694545525866e-07,-0.02790398642314007,4.666160886568349e-06,-0.027898348249910665
72,0.060477,614.965,-0.559473,0.129917,0.0384517,-0.168218,0.087205,0.0587187,-0.0287722,-0.0287638,9.9103e-08,-1.66044e-06,5.24491e-06,0.055788,0.06047688663041173,9.910300491355883e-08,-1.6604386214869038e-06,-0.028362221656096143,5.244923754643693e-06,-0.028354059864478587
73,0.061477,617.245,0.545804,-0.0562557,-0.033969,0.148815,-0.0640925,0.0596613,-0.0292357,-0.0292367,-9.63879e-07,2.99059e-06,3.07221e-06,0.0567212,0.06147696340588693,-9.638785354315615e-07,2.990594471841135e-06,-0.02881247141291665,3.0722147192907556e-06,-0.02881344259995966
74,0.062477,618.666,-0.406822,0.137827,0.0232571,-0.127555,0.0754101,0.0606029,-0.0297101,-0.0297027,-1.44158e-07,-1.0458e-06,5.15796e-06,0.0576552,0.062476920820699666,-1.4415798965661253e-07,-1.0457994531476444e-06,-0.029273093508278558,5.157973302249985e-06,-0.02926591010259194
75,0.063477,620.71,0.387987,-0.114719,-0.0140358,0.107374,-0.0780573,0.0615437,-0.0301742,-0.0301744,-6.76391e-07,2.38541e-06,2.89714e-06,0.0585872,0.06347696945692394,-6.763907712814543e-07,2.3854128450295775e-06,-0.029723503339895485,2.897144196767343e-06,-0.02972369739517544
76,0.064477,622.448,0.430692,-0.185167,-0.00736528,0.123295,-0.105093,0.0624835,-0.0306415,-0.0306437,-6.27978e-07,3.14515e-06,2.09343e-06,0.059519,0.06447689490419073,-6.279778028694949e-07,3.1451549460381756e-06,-0.030176807623989887,2.0934321911525444e-06,-0.030178941232666068
77,0.065477,624.036,-0.251314,0.213481,0.0013728,-0.0891652,0.0945928,0.0634225,-0.0311136,-0.031108,-5.1432e-07,8.70027e-08,5.01137e-06,0.0604502,0.06547690814124296,-5.143198676949012e-07,8.700270370809449e-08,-0.030634553093790595,5.011382556929789e-06,-0.030629124632088223
78,0.066477,625.626,-0.445395,0.173274,0.0220124,-0.14056,0.0923231,0.0643606,-0.0315826,-0.0315746,-1.59358e-07,-1.1837e-06,5.39803e-06,0.0613806,0.06647690100208625,-1.5935798725053019e-07,-1.1836992994673778e-06,-0.031089078893758004,5.398044569338012e-06,-0.031081327575383955
79,0.067477,627.66,0.480419,-0.0540157,-0.0284365,0.130672,-0.0583688,0.0652979,-0.0320444,-0.0320447,-9.19452e-07,2.79994e-06,3.26357e-06,0.0623093,0.06747697841445821,-9.19451577319208e-07,2.799943919828962e-06,-0.03153641865842327,3.2635753255405575e-06,-0.031536709197454105
80,0.068477,629.271,0.49063,-0.17406,-0.014639,0.138903,-0.105913,0.0662342,-0.03251,-0.0325126,-8.13344e-07,3.52494e-06,2.20645e-06,0.0632381,0.06847692516136616,-8.133436691926121e-07,3.5249462126962783e-06,-0.03198723034479134,2.20645243431683e-06,-0.031989747174720584
81,0.069477,630.738,-0.271589,0.231245,0.000988051,-0.0963866,0.101782,0.0671697,-0.0329809,-0.032975,-6.14921e-07,1.52825e-07,5.24962e-06,0.0641663,0.06947695301495105,-6.149208109373916e-07,1.5282501175661878e-07,-0.03244296024799487,5.249633779236262e-06,-0.03243725164461997
82,0.070477,632.239,-0.474357,0.182529,0.0237691,-0.149531,0.0977878,0.0681043,-0.0334482,-0.0334399,-2.26407e-07,-1.17165e-06,5.63263e-06,0.0650936,0.07047695340263038,-2.2640697439069157e-07,-1.1716493135693895e-06,-0.032894994026752666,5.632645863284935e-06,-0.03288696702189109
83,0.071477,634.21,0.498173,-0.0583582,-0.0295404,0.135785,-0.0611346,0.069038,-0.0339081,-0.0339085,-1.02553e-06,3.00406e-06,3.38647e-06,0.0660192,0.07147692449788057,-1.0255294741190468e-06,3.0040645122575427e-06,-0.033339663359449156,3.3864757340573703e-06,-0.033340050023506485
84,0.072477,635.741,0.505588,-0.179404,-0.0152623,0.143267,-0.108917,0.0699709,-0.034372,-0.0343747,-9.15017e-07,3.73041e-06,2.31916e-06,0.0669448,0.07247697172024292,-9.150165813931466e-07,3.7304169580032465e-06,-0.03378799309149516,2.3191626892238304e-06,-0.033790601860391956
85,0.073477,637.126,-0.278156,0.232991,0.001571,-0.098627,0.102801,0.0709028,-0.0348414,-0.0348355,-6.9873e-07,2.69812e-07,5.41055e-06,0.0678699,0.07347687884455056,-6.98729755943539e-07,2.698120364907908e-07,-0.034241426578373035,5.410564636987303e-06,-0.034235728585980785
86,0.074477,638.555,-0.475678,0.183748,0.0241147,-0.150396,0.0981391,0.071834,-0.035307,-0.0352987,-3.12744e-07,-1.03327e-06,5.78068e-06,0.068794,0.07447696608248111,-3.127439510697272e-07,-1.03326946621074e-06,-0.03469097910620833,5.780696708201916e-06,-0.03468296700808471
87,0.075477,640.45,0.49096,-0.0590596,-0.0288262,0.133734,-0.0607513,0.0727642,-0.0357652,-0.0357656,-1.10259e-06,3.1121e-06,3.53969e-06,0.0697165,0.07547690955793951,-1.102589392121267e-06,3.1121048424953557e-06,-0.0351331823830745,3.5396962647649133e-06,-0.03513356832972436
88,0.076477,641.91,0.492071,-0.176645,-0.014369,0.139276,-0.106799,0.0736936,-0.0362276,-0.0362301,-9.84892e-07,3.7886e-06,2.50891e-06,0.070639,0.07647692243168214,-9.848915150101334e-07,3.788607176646863e-06,-0.035579233664536636,2.508913147236669e-06,-0.03558164471343872
89,0.077477,643.235,-0.263867,0.226731,0.00132702,-0.0945446,0.099332,0.0746221,-0.0366951,-0.0366893,-7.83755e-07,4.50775e-07,5.50962e-06,0.0715609,0.07747689541977887,-7.837546928124439e-07,4.5077510169022617e-07,-0.036029994999126846,5.509635178091443e-06,-0.03602440395688378
90,0.078477,644.601,-0.45074,0.175559,0.0233419,-0.143395,0.0930293,0.0755498,-0.0371589,-0.0371509,-4.08748e-07,-7.77959e-07,5.83169e-06,0.0724819,0.07847693453208038,-4.087479165137964e-07,-7.779586973510888e-07,-0.03647698062346727,5.831707004411157e-06,-0.036469272408479525
91,0.079477,646.413,0.463789,-0.0522573,-0.0272868,0.125649,-0.0561937,0.0764766,-0.0376158,-0.037616,-1.16161e-06,3.13761e-06,3.73367e-06,0.0734013,0.07947693028145553,-1.1616093252841964e-06,3.1376149223216743e-06,-0.03691711373495443,3.7336769702633887e-06,-0.03691730635151236
92,0.080477,647.806,0.454434,-0.16473,-0.0125046,0.128033,-0.0995661,0.0774025,-0.0380766,-0.0380787,-1.03091e-06,3.71876e-06,2.77241e-06,0.0743207,0.08047688082687054,-1.0309094685689857e-06,3.7187669146288016e-06,-0.03736080009575693,2.772413843166177e-06,-0.03736282163595406
93,0.081477,649.091,-0.231682,0.213556,0.000363791,-0.0850136,0.0920116,0.0783276,-0.0385421,-0.0385365,-8.69184e-07,6.85653e-07,5.55496e-06,0.0752394,0.0814768924733924,-8.691836222984861e-07,6.856532350774103e-07,-0.03780880436222944,5.554975428756492e-06,-0.03780341607644666
94,0.082477,650.402,-0.40447,0.159169,0.0217115,-0.129941,0.0833158,0.0792519,-0.0390041,-0.0389966,-5.10411e-07,-4.29676e-07,5.80098e-06,0.0761573,0.08247696367681279,-5.104108697917553e-07,-4.2967590774267705e-07,-0.03825323402345726,5.800996825788829e-06,-0.0382460208956632
95,0.083477,652.124,0.421343,-0.0392125,-0.0251726,0.112903,-0.048273,0.0801753,-0.0394599,-0.0394597,-1.20614e-06,3.098e-06,3.95888e-06,0.0770736,0.08347698454364916,-1.2061392725692954e-06,3.0980047986961523e-06,-0.03869149831137053,3.958887836441605e-06,-0.038691306049650986
96,0.084477,653.455,0.399014,-0.145661,-0.00996511,0.111402,-0.0884319,0.0810978,-0.0399192,-0.0399206,-1.05855e-06,3.55333e-06,3.08927e-06,0.0779898,0.0844769532265306,-1.0585494397696849e-06,3.553336313188993e-06,-0.039132925924584616,3.0892747717725655e-06,-0.03913427113754664
97,0.085477,654.714,-0.187077,0.195356,-0.00108871,-0.0716681,0.0819581,0.0820195,-0.0403824,-0.0403772,-9.52854e-07,9.55544e-07,5.56047e-06,0.0789054,0.08547697642421426,-9.528535460656684e-07,9.555444564490756e-07,-0.03957789649015753,5.560485459410458e-06,-0.03957290228223431
98,0.086477,656.231,0.52022,-0.211275,-0.00858561,0.151213,-0.113539,0.0829403,-0.0408368,-0.0408401,-1.084e-06,4.39099e-06,2.65044e-06,0.0798196,0.08647694393849559,-1.0839994124545171e-06,4.390999640335735e-06,-0.040014213155338485,2.6504435124419246e-06,-0.04001738110320796
99,0.087477,657.537,0.440837,-0.228974,-0.00113102,0.127429,-0.120121,0.0838603,-0.0412952,-0.0412994,-9.96218e-07,4.62981e-06,2.07097e-06,0.0807334,0.08747696266499849,-9.962175038236154e-07,4.629820717694244e-06,-0.04045416979426242,2.0709721444411855e-06,-0.04045819987828614
100,0.088477,658.779,-0.189073,0.201431,-0.00138938,-0.073785,0.0841367,0.0847794,-0.0417575,-0.0417542,-1.00626e-06,1.79703e-06,4.97055e-06,0.0816466,0.08847692220239689,-1.0062594937298996e-06,1.7970316146254106e-06,-0.04089766530967942,4.970562353268093e-06,-0.040894500266752676
101,0.089477,660.249,0.546101,-0.24984,-0.00505028,0.159834,-0.128994,0.0856977,-0.0422104,-0.0422162,-1.07421e-06,5.39875e-06,1.78054e-06,0.0825585,0.08947692964319831,-1.074209423079786e-06,5.398764573172343e-06,-0.041331944407135834,1.780541585061357e-06,-0.041337504665733604
102,0.090477,661.339,-0.311554,0.152468,0.0149786,-0.106413,0.0722522,0.0866152,-0.042673,-0.0426699,-7.61524e-07,1.6145e-06,4.59152e-06,0.0834703,0.09047698343066668,-7.615237100910832e-07,1.6145013033153077e-06,-0.04177532168858111,4.591530541109279e-06,-0.04177235118747402
103,0.091477,662.57,-0.461522,0.158407,0.0283265,-0.147353,0.0874466,0.0875318,-0.0431314,-0.043126,-4.77595e-07,4.89677e-07,5.14289e-06,0.0843811,0.09147697285882184,-4.775948859725432e-07,4.896771199636163e-07,-0.042214471220356486,5.142903224619744e-06,-0.04220929916453653
104,0.092477,664.198,0.437967,-0.0683545,-0.0223039,0.118284,-0.0589506,0.0884475,-0.043583,-0.0435857,-1.20626e-06,4.31657e-06,3.07703e-06,0.0852903,0.09247689606783971,-1.206259272468202e-06,4.316579316432367e-06,-0.04264690951323746,3.0770347341224635e-06,-0.04264949436309218
105,0.093477,665.423,0.419361,-0.158655,-0.00959078,0.11662,-0.094109,0.0893625,-0.0440386,-0.0440429,-1.087e-06,4.7793e-06,2.25557e-06,0.0861994,0.09347696989174237,-1.0869994092610469e-06,4.779311420843868e-06,-0.04308298023680934,2.2555725438522245e-06,-0.04308709497114771
106,0.094477,666.558,-0.19926,0.19267,0.00107149,-0.076409,0.0820741,0.0902766,-0.0444983,-0.0444956,-9.49557e-07,2.0414e-06,4.79037e-06,0.087108,0.09447697417224488,-9.495565491679514e-07,2.0414020835968216e-06,-0.04352277389647696,4.790381473940286e-06,-0.04352019140448016
107,0.095477,667.978,0.533671,-0.214421,-0.0091526,0.153919,-0.115396,0.0911898,-0.0449489,-0.0449549,-1.1163e-06,5.5686e-06,1.85962e-06,0.0880152,0.09547690704491885,-1.116299376935359e-06,5.568615504714103e-06,-0.04395366544740209,1.859621729050076e-06,-0.04395940170820056
108,0.096477,669.171,0.438417,-0.224902,-0.0010722,0.12526,-0.118145,0.0921023,-0.0454037,-0.0454104,-1.02e-06,5.72371e-06,1.34801e-06,0.088922,0.0964769859391994,-1.0199994797677192e-06,5.7237263804132965e-06,-0.04438837645957938,1.3480109086749792e-06,-0.044394779036008414
109,0.097477,670.307,-0.176343,0.191555,-0.000557436,-0.0710617,0.0798399,0.0930138,-0.0458622,-0.0458617,-1.01662e-06,2.96774e-06,4.14288e-06,0.0898281,0.09747688034452939,-1.016619483262815e-06,2.967744403781225e-06,-0.044826423958909456,4.142888581748494e-06,-0.04482594637200199
110,0.098477,671.664,0.519213,-0.236381,-0.00416666,0.15029,-0.121961,0.0939246,-0.0463118,-0.0463198,-1.07969e-06,6.36342e-06,1.13527e-06,0.090733,0.09847691763499711,-1.0796894170939098e-06,6.36344024651514e-06,-0.04525577347369425,1.1352706443812366e-06,-0.04526341139695467
111,0.099477,672.834,0.422754,-0.228662,0.0014301,0.120224,-0.117946,0.0948346,-0.0467654,-0.046774,-1.00432e-06,6.47611e-06,7.1256e-07,0.0916374,0.09947698659240745,-1.004319495678807e-06,6.476130970156646e-06,-0.04568874724897054,7.125602539126419e-07,-0.04569695429045384
112,0.1005,673.949,-0.165177,0.183606,-6.18084e-05,-0.0684451,0.0763289,0.0957437,-0.0472226,-0.0472242,-1.02408e-06,3.82807e-06,3.44437e-06,0.0925412,0.1004769755970496,-1.0240794756644078e-06,3.828077327128199e-06,-0.046124958628208534,3.4443759318047995e-06,-0.046126484827053726
113,0.1015,675.266,0.495443,-0.228742,-0.0026775,0.142252,-0.117319,0.0966519,-0.0476711,-0.0476809,-1.06849e-06,7.05358e-06,5.60801e-07,0.0934438,0.10147688277540712,-1.068489429156827e-06,7.0536048766278725e-06,-0.0465526756615493,5.608011572899585e-07,-0.04656201939954341
114,0.1025,676.406,0.39747,-0.218155,0.00269523,0.111661,-0.112073,0.0975594,-0.0481236,-0.0481339,-9.90818e-07,7.12113e-06,1.80513e-07,0.0943459,0.10247692674784581,-9.908175091499771e-07,7.121155355394038e-06,-0.046984012978384615,1.8051301631238914e-07,-0.046993828992498377
115,0.1035,677.503,-0.14746,0.174303,-2.80201e-05,-0.063829,0.0718201,0.098466,-0.0485793,-0.048583,-1.02587e-06,4.6584e-06,2.76235e-06,0.0952473,0.10347688554246615,-1.0258694738141116e-06,4.658410850399974e-06,-0.047418203425863115,2.762353815244367e-06,-0.04742172797199007
116,0.1045,678.775,0.459251,-0.213568,-0.00112258,0.130346,-0.109096,0.0993719,-0.049027,-0.0490383,-1.04482e-06,7.62496e-06,7.37907e-08,0.0961476,0.10447697817664348,-1.044819454176782e-06,7.6249890701429734e-06,-0.0478445788449301,7.379070265933763e-08,-0.047855338140398995
117,0.1055,679.886,0.361344,-0.202635,0.00423868,0.099846,-0.103623,0.100277,-0.0494783,-0.04949,-9.61134e-07,7.64268e-06,-2.66847e-07,0.0970474,0.10547709282319939,-9.61133538091019e-07,7.642709205279985e-06,-0.048274189637530385,-2.668469644140359e-07,-0.048285324764371085
118,0.1065,680.971,-0.123943,0.162978,-0.000316455,-0.0573688,0.0661298,0.101181,-0.0499324,-0.0499382,-1.02035e-06,5.43654e-06,2.11379e-06,0.0979465,0.10647689595804066,-1.0203494794636114e-06,5.436554777915603e-06,-0.04870627021669571,2.113792234137435e-06,-0.048711787704327714
119,0.1075,682.195,0.41149,-0.193935,0.000857918,0.11501,-0.0984635,0.102084,-0.0503794,-0.0503919,-1.00281e-06,8.06481e-06,-3.26061e-07,0.0988445,0.10747649584651686,-1.0028094972192036e-06,8.064842520694171e-06,-0.04913140348954359,-3.2606094679810127e-07,-0.04914328927271361
120,0.1085,683.279,0.316105,-0.183508,0.00609591,0.0853633,-0.0932229,0.102987,-0.0508296,-0.0508423,-9.13361e-07,8.03244e-06,-6.257e-07,0.099742,0.1084769987813563,-9.133605828326452e-07,8.032472260222079e-06,-0.049559388185108966,-6.256998043019379e-07,-0.049571458704230964
121,0.1095,684.358,-0.096224,0.149816,-0.000812925,-0.0495028,0.0594482,0.103889,-0.0512821,-0.0512896,-1.00413e-06,6.13948e-06,1.51357e-06,0.100639,0.1094772961005277,-1.004129495885131e-06,6.139498846646774e-06,-0.049989365272302466,1.513571145528303e-06,-0.04999649032534392
122,0.1105,685.531,0.354935,-0.170811,0.00312998,0.0970954,-0.0859743,0.10479,-0.0517284,-0.0517418,-9.42765e-07,8.36987e-06,-6.35481e-07,0.101534,0.11047738561698517,-9.427645556447928e-07,8.369905027505453e-06,-0.05041326041934335,-6.35480798094612e-07,-0.05042598479640015
123,0.1115,686.482,-0.397179,0.281535,0.0087951,-0.141643,0.130764,0.10569,-0.0521822,-0.0521867,-8.37402e-07,4.80546e-06,2.58029e-06,0.10243,0.11147726514233502,-8.374016493561953e-07,4.805471546243112e-06,-0.05084408512024685,2.5802933290020036e-06,-0.050848356312253706
124,0.1125,687.503,-0.44721,0.19058,0.0247152,-0.150507,0.0980701,0.106589,-0.0526316,-0.052635,-5.40453e-07,4.1009e-06,2.5556e-06,0.103324,0.11247693248684176,-5.404528539143527e-07,4.100908408632975e-06,-0.05127053995681485,2.5556032654527883e-06,-0.05127376563149533
125,0.1135,688.874,0.360266,-0.0416047,-0.0176229,0.0908245,-0.0432064,0.107487,-0.0530753,-0.053086,-1.14313e-06,7.49729e-06,6.26785e-07,0.104217,0.11347638545943606,-1.1431293466257486e-06,7.497318104787709e-06,-0.051691397844009224,6.267851964114612e-07,-0.05170154469176658
126,0.1145,689.89,0.334588,-0.133929,-0.00352626,0.0876154,-0.0776673,0.108385,-0.0535227,-0.0535346,-9.79973e-07,7.80155e-06,-1.02704e-07,0.10511,0.11447673634390165,-9.799725197989773e-07,7.801580432120758e-06,-0.05211557621683627,-1.0270399475320602e-07,-0.052126855974364616
127,0.1155,690.871,-0.139224,0.166404,0.000822709,-0.0623112,0.0687545,0.109282,-0.0539731,-0.0539796,-9.22538e-07,5.66985e-06,1.99105e-06,0.106002,0.11547687046949773,-9.225375744437159e-07,5.669866073532148e-06,-0.05254240723174808,1.991051982175307e-06,-0.05254856568608601
128,0.1165,692.033,0.403934,-0.170929,-0.00190761,0.111109,-0.0896073,0.110178,-0.0544165,-0.0544296,-9.64891e-07,8.28901e-06,-3.28701e-07,0.106893,0.11647678564053954,-9.648905344716852e-07,8.289044354015118e-06,-0.05296241680537772,-3.2870094601733513e-07,-0.05297482291645739
129,0.1175,693.034,0.301482,-0.169527,0.00547096,0.0800547,-0.0871216,0.111073,-0.0548632,-0.0548765,-8.51208e-07,8.21055e-06,-6.31544e-07,0.107784,0.11747647966002983,-8.512076377087396e-07,8.210583706702579e-06,-0.05338536402149707,-6.315438005888296e-07,-0.05339795391243263
130,0.1185,694.041,-0.0827469,0.142262,-0.000944121,-0.0456871,0.0557118,0.111968,-0.0553119,-0.0553204,-9.36212e-07,6.44899e-06,1.36541e-06,0.108674,0.11847706880617692,-9.362115617195244e-07,6.449010794717935e-06,-0.053810014731149325,1.3654109320970775e-06,-0.05381805731184308
131,0.1195,695.132,0.325796,-0.156434,0.00378009,0.0877008,-0.0787458,0.112862,-0.0557549,-0.0557687,-8.62567e-07,8.47082e-06,-6.12215e-07,0.109563,0.11947743440248404,-8.625666280126509e-07,8.470855877407146e-06,-0.05422908406391269,-6.122148126230798e-07,-0.0542421356124968
132,0.1205,696.029,-0.352954,0.259426,0.00797874,-0.128436,0.119356,0.113754,-0.0562048,-0.0562105,-7.79345e-07,5.24955e-06,2.31637e-06,0.110451,0.12047645377036864,-7.793446963333395e-07,5.249563779008426e-06,-0.05465449069659478,2.316372682775736e-06,-0.054659879150640744
133,0.1215,696.985,-0.392945,0.168431,0.0231,-0.134649,0.0858302,0.114647,-0.0566504,-0.0566554,-5.00263e-07,4.65118e-06,2.22637e-06,0.111339,0.12147748613801523,-5.002628749029014e-07,4.651190816717943e-06,-0.05507564281587962,2.226372478375538e-06,-0.05508036742585398
134,0.1225,698.255,0.315074,-0.0276165,-0.0153375,0.076923,-0.0347235,0.115538,-0.0570912,-0.0571025,-1.04424e-06,7.61553e-06,5.91622e-07,0.112225,0.1224771678702401,-1.0442394547949263e-06,7.615558998308458e-06,-0.055492073684419996,5.916221750279504e-07,-0.05550274656368548
135,0.1235,698.973,-0.4606,0.170995,0.031197,-0.152159,0.0956806,0.116428,-0.05754,-0.0575439,-3.38261e-07,4.1415e-06,2.58274e-06,0.113111,0.12347661723864167,-3.382609428115302e-07,4.141508576083197e-06,-0.05591587373390583,2.582743335199922e-06,-0.05591955565481854
136,0.1245,699.971,-0.418116,0.124072,0.0319716,-0.137949,0.0722763,0.117318,-0.0579842,-0.0579875,-2.06642e-07,3.7914e-06,2.56537e-06,0.113996,0.12447695651293023,-2.0664197863951017e-07,3.7914071873146327e-06,-0.05633514277624496,2.5653732904640236e-06,-0.056338256865135605
137,0.1255,701.242,0.286001,-0.0238294,-0.0137794,0.069389,-0.0314312,0.118207,-0.0584239,-0.0584332,-8.36743e-07,6.6728e-06,1.15405e-06,0.11488,0.12547706100785128,-8.367426499455988e-07,6.672822263187328e-06,-0.056749981005098094,1.1540506659191152e-06,-0.05675875318948398
138,0.1265,701.953,-0.437022,0.148899,0.0316701,-0.143416,0.0856656,0.119095,-0.0588712,-0.0588737,-1.43131e-07,3.43997e-06,2.93887e-06,0.115764,0.12647692851349546,-1.431309897270694e-07,3.439975916785798e-06,-0.05717180239120834,2.938874318569873e-06,-0.057174159458756035
139,0.1275,703.334,0.664024,-0.14566,-0.0328149,0.183665,-0.100635,0.119982,-0.0593077,-0.0593204,-1.08183e-06,8.26748e-06,2.37814e-07,0.116647,0.12747655681870063,-1.0818294148284835e-06,8.267514175708257e-06,-0.057583257092942985,2.3781402824774034e-07,-0.05759522570957709
140,0.1285,704.204,0.510162,-0.196928,-0.0121582,0.140995,-0.113133,0.120869,-0.05975,-0.0597633,-8.67747e-07,8.2665e-06,-3.41423e-07,0.117529,0.128477072187567,-8.677466235562648e-07,8.266534167633566e-06,-0.0579999958497609,-3.414229416964787e-07,-0.058012524366501284
141,0.1295,705.016,-0.181022,0.183821,0.0021488,-0.0750563,0.0779393,0.121755,-0.0601961,-0.060202,-6.7947e-07,5.25478e-06,2.33506e-06,0.118411,0.12947734592935856,-6.794697691159257e-07,5.254793806308555e-06,-0.05842012833409427,2.3350627262885837e-06,-0.058425683638948955
142,0.1305,706.127,0.523683,-0.217271,-0.00735349,0.147838,-0.114757,0.12264,-0.0606331,-0.0606473,-8.2761e-07,8.62918e-06,-4.96239e-07,0.119291,0.13047737582846564,-8.27609657583217e-07,8.62921723143728e-06,-0.05883150884482391,-4.962388768792181e-07,-0.05884487334251021
143,0.1315,707.016,0.378434,-0.198822,0.00190224,0.10345,-0.103245,0.123524,-0.0610744,-0.0610886,-7.03998e-07,8.46067e-06,-7.36294e-07,0.120171,0.13147715966804796,-7.039977522049767e-07,8.460705791524248e-06,-0.059246754869196505,-7.362937289867588e-07,-0.05926011347043103
144,0.1325,707.894,-0.107504,0.148584,0.000371445,-0.0531382,0.0597772,0.124407,-0.0615183,-0.0615268,-7.22333e-07,6.28297e-06,1.5207e-06,0.12105,0.13247669523004157,-7.223327390670775e-07,6.282989737815825e-06,-0.05966426256202195,1.5207011563322936e-06,-0.05967225538182064
145,0.1335,708.916,0.380551,-0.176276,0.000966206,0.104287,-0.0898453,0.12529,-0.0619554,-0.06197,-7.11591e-07,8.66435e-06,-6.78149e-07,0.121928,0.13347711377171456,-7.115907467714067e-07,8.664387535661788e-06,-0.06007519349735757,-6.781487700280309e-07,-0.060088916299355755
146,0.1345,709.679,-0.41766,0.278026,0.0115039,-0.148031,0.13055,0.126172,-0.0624005,-0.0624059,-5.35748e-07,4.92048e-06,2.5557e-06,0.122806,0.13447728159523353,-5.357478565226614e-07,4.920492105542351e-06,-0.06049346093640795,2.5557032659051515e-06,-0.060498534258020875
147,0.1355,710.554,-0.430011,0.183065,0.024751,-0.146223,0.0936923,0.127053,-0.0628407,-0.0628454,-2.76199e-07,4.39451e-06,2.44285e-06,0.123683,0.13547719647815026,-2.7619896181274584e-07,4.394519655948059e-06,-0.060906940701330625,2.442852983675081e-06,-0.06091135442833706
148,0.1365,711.739,0.314735,-0.0355646,-0.0146404,0.0774152,-0.037445,0.127933,-0.0632759,-0.0632872,-8.28916e-07,7.51034e-06,6.69835e-07,0.124559,0.13647685619681593,-8.289156564478262e-07,7.510368202678919e-06,-0.06131554508197501,6.698352243983408e-07,-0.061326152156385594
149,0.1375,712.371,-0.471323,0.180625,0.0309204,-0.156166,0.0994026,0.128813,-0.0637193,-0.0637232,-1.38266e-07,3.97443e-06,2.74374e-06,0.125435,0.13747739600321562,-1.382659904347605e-07,3.97443789812435e-06,-0.061731665508569566,2.7437437639665774e-06,-0.061735324747938525
150,0.1385,713.287,-0.406713,0.126682,0.0306633,-0.135289,0.0719968,0.129691,-0.0641579,-0.0641615,-2.7886e-08,3.73364e-06,2.6669e-06,0.126309,0.1384765397168115,-2.7885999620558266e-08,3.733646970038862e-06,-0.06214309976594923,2.6669035562143506e-06,-0.062146476044712795
151,0.1395,714.451,0.260859,-0.0218431,-0.0120019,0.0622566,-0.0287738,0.130569,-0.0645925,-0.0646017,-6.12123e-07,6.46293e-06,1.30529e-06,0.127183,0.13947656106381245,-6.121228126598766e-07,6.462950884689178e-06,-0.06255060381774646,1.3052908518496054e-06,-0.06255922831251859
152,0.1405,715.103,-0.39896,0.142634,0.0290152,-0.13277,0.0801586,0.131447,-0.0650341,-0.0650371,1.3626e-08,3.50351e-06,2.95819e-06,0.128056,0.14047746081511914,1.3626000106015113e-08,3.5035161372043433e-06,-0.0629644900782882,2.9581943754575235e-06,-0.06296730118060134
153,0.1415,716.356,0.597642,-0.134666,-0.0285149,0.164519,-0.0917153,0.132323,-0.0654658,-0.065478,-8.1957e-07,7.87314e-06,4.80654e-07,0.128928,0.14147695678611272,-8.195696641344341e-07,7.873170993155654e-06,-0.06336892100522484,4.806541156199273e-07,-0.06338034783468482
154,0.1425,717.145,0.439594,-0.175232,-0.00874533,0.120124,-0.0998989,0.133199,-0.0659029,-0.0659155,-6.02161e-07,7.75679e-06,1.5809e-08,0.1298,0.14247732869918361,-6.021608186523864e-07,7.756820084026117e-06,-0.06377823298820284,1.580900010900166e-08,-0.06379002930815014
155,0.1435,717.909,-0.134658,0.15997,0.000832286,-0.0605844,0.0657894,0.134074,-0.0663429,-0.0663493,-4.78288e-07,5.24702e-06,2.32263e-06,0.130671,0.14347743384398726,-4.78287885630202e-07,5.247033765698461e-06,-0.06419007995271131,2.3226326972825007e-06,-0.06419606911703424
156,0.1445,718.897,0.42825,-0.180991,-0.00385414,0.11897,-0.0950353,0.134948,-0.0667755,-0.0667886,-5.52087e-07,7.95772e-06,-2.72306e-08,0.131541,0.14447726998591515,-5.520868475716867e-07,7.957751662734935e-06,-0.06459482377172365,-2.7230599664029853e-08,-0.0646070774992702
157,0.1455,719.71,0.290259,-0.160947,0.00465652,0.0767323,-0.0831477,0.135821,-0.0672116,-0.0672245,-4.27644e-07,7.70592e-06,-1.78849e-07,0.132411,0.14547683488920993,-4.2764390850713596e-07,7.705949690572922e-06,-0.06500266503282615,-1.78848983956037e-07,-0.06501472642065109
158,0.1465,720.544,-0.0573208,0.120788,-0.000873896,-0.0371061,0.0459661,0.136694,-0.0676493,-0.0676579,-5.01172e-07,6.12882e-06,1.59859e-06,0.133279,0.14647727279367495,-5.011718744452054e-07,6.128838781149781e-06,-0.06541182381540944,1.5985912777960465e-06,-0.06541986123916366
159,0.1475,721.446,0.275092,-0.130759,0.00407182,0.0721568,-0.0661841,0.137566,-0.0680822,-0.0680951,-4.24014e-07,7.77669e-06,-3.81107e-08,0.134147,0.14747743698376214,-4.2401391009416756e-07,7.776720238439339e-06,-0.06581631947747668,-3.811069926307198e-08,-0.06582837036922706
160,0.1485,722.201,-0.274159,0.214342,0.00664063,-0.103685,0.0967595,0.138437,-0.0685204,-0.0685268,-3.67582e-07,5.17069e-06,2.3433e-06,0.135015,0.14847732521948886,-3.6758193244779136e-07,5.170703368140295e-06,-0.06622558908876086,2.343302745622111e-06,-0.06623156522586704
161,0.1495,723.221,0.495647,-0.216455,-0.0052747,0.139333,-0.112977,0.139307,-0.0689499,-0.0689651,-5.37984e-07,8.75716e-06,-6.77622e-07,0.135881,0.1494769352597467,-5.379838552421745e-07,8.757198344033768e-06,-0.0666265590837769,-6.776217703619025e-07,-0.06664074625225613
162,0.1505,724.015,0.367212,-0.194183,0.00211609,0.0997549,-0.100596,0.140177,-0.069384,-0.0693992,-4.36999e-07,8.61984e-06,-8.82562e-07,0.136747,0.15047741533915215,-4.369989045072131e-07,8.619877150950472e-06,-0.06703164856344579,-8.825616105712086e-07,-0.06704582957461158
163,0.1515,724.786,-0.10655,0.138576,0.00163691,-0.0527217,0.056103,0.141045,-0.0698206,-0.0698303,-4.37437e-07,6.49627e-06,1.27353e-06,0.137612,0.15147646325973851,-4.374369043658177e-07,6.496291100832607e-06,-0.06743889363761413,1.2735308110300991e-06,-0.06744793943647365
164,0.1525,725.704,0.360414,-0.164357,0.000786772,0.0975834,-0.0841879,0.141913,-0.0702507,-0.0702661,-4.45663e-07,8.75521e-06,-7.76065e-07,0.138476,0.15247637873038222,-4.4566290069436576e-07,8.755248326997034e-06,-0.0678399019264464,-7.760646988375086e-07,-0.06785425708142168
165,0.1535,726.373,-0.385368,0.255433,0.0117967,-0.138237,0.119705,0.142781,-0.0706883,-0.0706952,-2.63784e-07,5.26506e-06,2.19441e-06,0.13934,0.15347716250444354,-2.6378396522641623e-07,5.2650738604498315e-06,-0.06824772594695971,2.1944124077855065e-06,-0.06825415501547039
166,0.1545,727.157,-0.377174,0.160841,0.0232023,-0.130801,0.0815192,0.143647,-0.0711211,-0.0711277,-3.57988e-08,4.88549e-06,2.00822e-06,0.140203,0.15447650638061527,-3.5798799369324286e-08,4.8855019341154104e-06,-0.06865090107777816,2.0082220164585607e-06,-0.06865704796154626
167,0.1555,728.208,0.262902,-0.0225148,-0.0117875,0.0616961,-0.0288129,0.144513,-0.0715498,-0.0715619,-5.22089e-07,7.54864e-06,5.30385e-07,0.141065,0.15547671606342428,-5.220888636969789e-07,7.548668490953148e-06,-0.0690500848653276,5.303851406956994e-07,-0.06906134929115082
168,0.1565,728.789,-0.383006,0.151384,0.0269062,-0.130456,0.0819871,0.145378,-0.0719852,-0.0719913,6.50049e-08,4.64127e-06,2.20351e-06,0.141927,0.1564766358257692,6.500490212779653e-08,4.641280770600886e-06,-0.06945533222962397,2.20351242763428e-06,-0.06946100853478465
169,0.1575,729.932,0.569165,-0.139909,-0.0248363,0.155704,-0.0911203,0.146243,-0.0724112,-0.0724262,-6.80523e-07,8.83064e-06,-2.76889e-07,0.142787,0.15747742089289907,-6.805227684703041e-07,8.830678990268126e-06,-0.06985165983432073,-2.768889616477921e-07,-0.06986561195478203
170,0.1585,730.644,0.402469,-0.167414,-0.00586478,0.108102,-0.0939195,0.147106,-0.0728424,-0.0728576,-4.61194e-07,8.61558e-06,-6.42142e-07,0.143647,0.158476755057799,-4.611938936305293e-07,8.615617114182683e-06,-0.07025265333818753,-6.421417938495821e-07,-0.07026678539045295
171,0.1595,731.349,-0.107524,0.143881,0.000915548,-0.0533086,0.0580868,0.147969,-0.0732761,-0.0732857,-3.7218e-07,6.3764e-06,1.45918e-06,0.144506,0.15947695202032697,-3.7217993076321676e-07,6.376420329301524e-06,-0.07065579733434013,1.45918106464471e-06,-0.07066471899586169
172,0.1605,732.236,0.371387,-0.159832,-0.0011732,0.100471,-0.0833101,0.148831,-0.0737033,-0.0737186,-4.03144e-07,8.68745e-06,-5.96534e-07,0.145364,0.16047685204796625,-4.0314391869245014e-07,8.687487736080968e-06,-0.07105272838720933,-5.965338221169958e-07,-0.07106694117173695
173,0.1615,732.855,-0.392449,0.251977,0.0130417,-0.140127,0.118852,0.149692,-0.0741379,-0.0741448,-1.76516e-07,5.13248e-06,2.34268e-06,0.146223,0.16147645288398738,-1.765159843847286e-07,5.132493171133845e-06,-0.07145636115569853,2.3426827440165e-06,-0.07146276808470264
174,0.1625,733.608,-0.37317,0.157458,0.0234088,-0.129585,0.0799031,0.150553,-0.0745677,-0.0745743,3.8091e-08,4.80339e-06,2.13678e-06,0.14708,0.16247691474694714,3.809100079799066e-08,4.803401536301877e-06,-0.07185536345993637,2.1367822828910477e-06,-0.07186148919432267
175,0.1635,734.617,0.251311,-0.020917,-0.01105,0.058359,-0.0274005,0.151413,-0.0749935,-0.0750055,-4.3888e-07,7.39729e-06,7.03152e-07,0.147936,0.1634770749008525,-4.388799036414426e-07,7.3973173599917175e-06,-0.07225048331918738,7.031522473166518e-07,-0.07226161624658978
176,0.1645,735.175,-0.366255,0.146103,0.0260778,-0.125576,0.0786492,0.152272,-0.0754259,-0.0754321,1.24807e-07,4.61446e-06,2.30086e-06,0.148792,0.1644769310849421,1.248070078396779e-07,4.6144706467021734e-06,-0.0726515554921473,2.300862647075519e-06,-0.07265730503467971
177,0.1655,736.266,0.539808,-0.132771,-0.0232186,0.147066,-0.0864423,0.15313,-0.0758492,-0.0758639,-5.83666e-07,8.59913e-06,-5.84585e-08,0.149646,0.16547648103742318,-5.836658296676234e-07,8.599166972711458e-06,-0.073044019017942,-5.845849826435767e-08,-0.07305764517071
178,0.1665,736.944,0.37295,-0.156876,-0.00460444,0.0992522,-0.0879205,0.153988,-0.0762775,-0.0762922,-3.63745e-07,8.34368e-06,-3.8145e-07,0.1505,0.16647688897178514,-3.6374493384006e-07,8.343714808622948e-06,-0.07344094925591838,-3.814499272003502e-07,-0.07345456957385477
179,0.1675,737.628,-0.0899884,0.133817,0.000536986,-0.0477426,0.0531134,0.154845,-0.0767081,-0.0767176,-2.9678e-07,6.30681e-06,1.56259e-06,0.151354,0.16747698814692047,-2.967799559439044e-07,6.306829887892107e-06,-0.0738398396958937,1.5625912208605541e-06,-0.0738486381756237
180,0.1685,738.466,0.334645,-0.144812,5.45307e-05,0.0892572,-0.0754079,0.155701,-0.0771326,-0.0771474,-3.02969e-07,8.36301e-06,-3.00844e-07,0.152207,0.16847677629705404,-3.0296895414672065e-07,8.363044970094435e-06,-0.0742329112486031,-3.008439547480535e-07,-0.0742466125001271
181,0.1695,739.077,-0.342949,0.229949,0.0113742,-0.124881,0.107139,0.156557,-0.0775639,-0.077571,-1.19338e-07,5.20026e-06,2.3469e-06,0.153059,0.16947742063223914,-1.1933799293206704e-07,5.200273521355214e-06,-0.07463210850090585,2.3469027539135823e-06,-0.0746386785896117
182,0.1705,740.057,0.574353,-0.24001,-0.0100526,0.162549,-0.126922,0.157411,-0.0779848,-0.078002,-4.27236e-07,9.42639e-06,-1.00949e-06,0.15391,0.17047658093018092,-4.272359087620359e-07,9.426434428583264e-06,-0.07502151389032485,-1.0094894904444374e-06,-0.07503742338346386
183,0.1715,740.745,0.407074,-0.205689,-0.000249313,0.111146,-0.107421,0.158265,-0.0784114,-0.0784284,-3.037e-07,9.16347e-06,-1.13499e-06,0.15476,0.17147659487547262,-3.036999538519325e-07,9.163511984766615e-06,-0.07541602555717764,-1.1349893559442492e-06,-0.07543174335114156
184,0.1725,741.407,-0.10916,0.134724,0.00259939,-0.0539838,0.0548842,0.159119,-0.0788405,-0.0788516,-2.58612e-07,6.87352e-06,1.07876e-06,0.155611,0.17247746319744084,-2.586119665082265e-07,6.873543622720746e-06,-0.07581267943243586,1.0787605817519363e-06,-0.07582293785475991
185,0.1735,742.241,0.368314,-0.165344,-1.15536e-05,0.0992736,-0.0851017,0.159971,-0.0792629,-0.0792798,-2.92097e-07,9.1706e-06,-9.58517e-07,0.15646,0.17347683967000793,-2.9209695728837914e-07,9.170642049971534e-06,-0.07620297372068685,-9.585165405834317e-07,-0.07621858575850893
186,0.1745,742.813,-0.385188,0.248325,0.0131587,-0.138711,0.116801,0.160823,-0.0796928,-0.0797013,-7.88663e-08,5.65685e-06,1.96032e-06,0.157308,0.17447706797415852,-7.886629693754088e-08,5.656866000069982e-06,-0.07660002870919946,1.960321921457009e-06,-0.07660787757559773
187,0.1755,743.519,-0.354519,0.151826,0.0228129,-0.124864,0.0764135,0.161674,-0.0801178,-0.0801261,1.23168e-07,5.39648e-06,1.71776e-06,0.158156,0.17547697335840118,1.2316800757083968e-07,5.396494560994114e-06,-0.07699239031425109,1.7177614752839077e-06,-0.0770000512456186
188,0.1765,744.461,0.22969,-0.0168876,-0.00941506,0.0513582,-0.0242612,0.162524,-0.0805391,-0.0805525,-3.19962e-07,7.81819e-06,3.79703e-07,0.159003,0.17647655354715308,-3.1996194882477624e-07,7.818220562061384e-06,-0.07738117151770074,3.797030720953387e-07,-0.07739353452717002
189,0.1775,744.988,-0.331799,0.135849,0.0245474,-0.116155,0.0722823,0.163374,-0.0809665,-0.0809746,1.97372e-07,5.28071e-06,1.83053e-06,0.15985,0.17747698374026588,1.9737201939484805e-07,5.280723943013044e-06,-0.07777541454925685,1.830531675350855e-06,-0.07778288453814552
190,0.1785,745.995,0.485314,-0.11868,-0.0198824,0.130225,-0.077372,0.164223,-0.0813856,-0.0814014,-4.37411e-07,8.87006e-06,-2.98425e-07,0.160695,0.1784770861828755,-4.3741090438587094e-07,8.870099339031157e-06,-0.07816183789235154,-2.984249555249008e-07,-0.07817640282024962
191,0.1795,746.628,0.322332,-0.13845,-0.00211636,0.0833233,-0.0774214,0.165071,-0.0818093,-0.081825,-2.18699e-07,8.56174e-06,-5.60893e-07,0.16154,0.17947685859554974,-2.1869897603998822e-07,8.561776651871966e-06,-0.07855233798834926,-5.608928427269788e-07,-0.07856680460307963
192,0.1805,747.284,-0.0627431,0.117803,0.000301358,-0.0397423,0.0453851,0.165919,-0.0822347,-0.082246,-1.87082e-07,6.85601e-06,1.12518e-06,0.162384,0.18047747917480184,-1.8708198246120133e-07,6.856033502478098e-06,-0.07894423846062859,1.1251806331102898e-06,-0.07895464633192939
193,0.1815,748.05,0.276697,-0.120737,0.00228814,0.0708324,-0.0627091,0.166765,-0.0826551,-0.0826707,-1.54101e-07,8.50953e-06,-4.34536e-07,0.163228,0.18147658568464786,-1.541009880812183e-07,8.509566206127417e-06,-0.07933136892225501,-4.345359055912823e-07,-0.07934573124087352
194,0.1825,748.649,-0.267099,0.195493,0.00917029,-0.102108,0.0891176,0.167611,-0.0830809,-0.0830903,-3.50425e-08,5.95247e-06,1.76044e-06,0.164071,0.18247653779624007,-3.504249934671577e-08,5.952487716065491e-06,-0.07972330617600487,1.7604415496474957e-06,-0.0797319567362692
195,0.1835,749.527,0.460165,-0.193169,-0.00558918,0.126932,-0.102034,0.168457,-0.0834984,-0.0835158,-2.42581e-07,9.3091e-06,-9.66896e-07,0.164913,0.1834773362252604,-2.425809705330906e-07,9.309143329749858e-06,-0.08010744150184745,-9.668955325281559e-07,-0.08012344749311273
196,0.1845,750.173,0.310388,-0.163514,0.00327732,0.0809527,-0.085177,0.169301,-0.0839203,-0.0839374,-1.18513e-07,9.00137e-06,-1.04218e-06,0.165754,0.18447661273240223,-1.1851299297482853e-07,9.001410512521346e-06,-0.08049546231353188,-1.0421794569559495e-06,-0.08051118570669091
197,0.1855,750.826,-0.0619973,0.109419,0.00164714,-0.0396034,0.0423342,0.170145,-0.0843439,-0.0843567,-1.33866e-07,7.3275e-06,6.90974e-07,0.166595,0.1854767329849265,-1.338659910699036e-07,7.327526846179211e-06,-0.08088488195079369,6.909742387151141e-07,-0.08089664654901119
198,0.1865,751.575,0.268924,-0.122188,0.00344367,0.0681688,-0.0626977,0.170988,-0.0847626,-0.0847795,-9.93846e-08,8.93559e-06,-8.28666e-07,0.167435,0.18647651121815056,-9.938459510916431e-08,8.93562992243524e-06,-0.08126963489707073,-8.286656566491857e-07,-0.0812851613090424
199,0.1875,752.164,-0.258063,0.191563,0.00905457,-0.0998903,0.0870326,0.171831,-0.0851865,-0.0851974,2.91669e-09,6.44878e-06,1.33052e-06,0.168275,0.18747713261977061,2.916690000631661e-09,6.448800793368292e-06,-0.08165900216661459,1.3305208852454342e-06,-0.08166901202893706
200,0.1885,753.017,0.444537,-0.188861,-0.00452145,0.121748,-0.0993126,0.172673,-0.0856024,-0.085621,-1.85921e-07,9.6928e-06,-1.32481e-06,0.169113,0.18847740942287383,-1.8592098272041113e-07,9.692846975273284e-06,-0.0820408607746117,-1.3248091224049574e-06,-0.08205793465581368
201,0.1895,753.648,0.296002,-0.157522,0.00401478,0.0760492,-0.0818821,0.173514,-0.0860226,-0.0860408,-6.35163e-08,9.36904e-06,-1.3795e-06,0.169951,0.18947733933579092,-6.351629799894454e-08,9.369083889598784e-06,-0.08242650617514113,-1.3794990484372605e-06,-0.08244320586076115
202,0.1905,754.289,-0.0544226,0.104307,0.00181153,-0.0376651,0.0400024,0.174354,-0.0864443,-0.0864584,-8.56827e-08,7.78847e-06,2.7444e-07,0.170789,0.1904769200659644,-8.568269638242754e-08,7.788500330230264e-06,-0.08281336534249872,2.7444003758425595e-07,-0.08282629758287485
203,0.1915,755.016,0.252472,-0.114767,0.00412383,0.0625728,-0.0588427,0.175194,-0.0868615,-0.0868794,-4.23656e-08,9.28087e-06,-1.15344e-06,0.171625,0.19147734079670187,-4.236559913994853e-08,9.280913067399865e-06,-0.08319593579673201,-1.1534393348222594e-06,-0.08321234644260556
204,0.1925,755.598,-0.236845,0.181048,0.00868938,-0.093785,0.081733,0.176033,-0.0872834,-0.0872957,4.51954e-08,6.96452e-06,8.71445e-07,0.172461,0.19247740975589456,4.519540097724928e-08,6.964544252419103e-06,-0.08358265384751018,8.714453796354604e-07,-0.08359392571154578
205,0.1935,756.421,0.412466,-0.175032,-0.00323475,0.111371,-0.0920416,0.176871,-0.0876978,-0.0877173,-1.18251e-07,9.96256e-06,-1.60023e-06,0.173296,0.19347712464730593,-1.1825099299755948e-07,9.962609626379404e-06,-0.08396233851965829,-1.600228719644825e-06,-0.08398020107989657
206,0.1945,757.037,0.269481,-0.145499,0.0050576,0.0674044,-0.0755691,0.177708,-0.0881163,-0.0881354,4.58201e-09,9.62893e-06,-1.64372e-06,0.174131,0.1944764831738357,4.582010104670076e-09,9.62897635825577e-06,-0.08434562007372848,-1.6437186490803057e-06,-0.08436310890536625
207,0.1955,757.673,-0.0422558,0.0973219,0.00175599,-0.034257,0.0366579,0.178545,-0.0885361,-0.0885514,-3.18774e-08,8.21326e-06,-1.22443e-07,0.174965,0.19547667851360973,-3.187739949783719e-08,8.213293728909221e-06,-0.08472993110989113,-1.2244299252284208e-07,-0.08474393463481789
208,0.1965,758.374,0.226193,-0.10305,0.00512809,0.0539884,-0.0527722,0.179381,-0.0889517,-0.0889705,2.83011e-08,9.52306e-06,-1.41127e-06,0.175798,0.19647651489022078,2.8301100352123854e-08,9.523105344522165e-06,-0.0851102383172101,-1.411269004103488e-06,-0.08512743808305145
209,0.1975,758.957,-0.204063,0.165672,0.00784758,-0.0840489,0.0738581,0.180217,-0.0893715,-0.0893853,8.92773e-08,7.47396e-06,4.11447e-07,0.176631,0.1974771874795309,8.927730399399536e-08,7.473987930106674e-06,-0.08549422843399979,4.1144708462503843e-07,-0.08550684852656854
210,0.1985,759.742,0.364965,-0.15468,-0.00137759,0.0962817,-0.0813645,0.181052,-0.0897847,-0.0898048,-3.35011e-08,1.01037e-05,-1.79126e-06,0.177462,0.19847749850280838,-3.350109945010615e-08,1.0103751042489506e-05,-0.0858720241608385,-1.7912583957224726e-06,-0.08589039794849562
211,0.1995,760.212,-0.412014,0.246408,0.0166453,-0.147791,0.117537,0.181886,-0.0902058,-0.0902175,2.52665e-07,6.48376e-06,1.0753e-06,0.178294,0.1994774456565629,2.526650320078261e-07,6.483781019639423e-06,-0.08625688241387208,1.0753005781349856e-06,-0.08626757314580691
212,0.2005,760.851,-0.341081,0.144889,0.0232152,-0.122208,0.0728974,0.182719,-0.0906218,-0.0906337,4.14268e-07,6.39957e-06,7.56922e-07,0.179124,0.20047702663647304,4.142680858354453e-07,6.399590477323969e-06,-0.0866369204973858,7.569222864045599e-07,-0.08664778945336149
213,0.2015,761.693,0.194468,-0.0114404,-0.00659086,0.0398308,-0.0195369,0.183552,-0.0910347,-0.0910512,1.06674e-08,8.60592e-06,-4.59552e-07,0.179953,0.201477440614235,1.0667400074382272e-08,8.605957031004863e-06,-0.08701397026563096,-4.5955189442725697e-07,-0.08702903441084209
214,0.2025,762.168,-0.284751,0.121211,0.0225427,-0.103598,0.0633691,0.184384,-0.0914528,-0.0914648,4.58624e-07,6.4224e-06,7.81517e-07,0.180783,0.20247748580593772,4.5862410513741736e-07,6.422420623763969e-06,-0.08739560993733009,7.815173053149493e-07,-0.08740656112430367
215,0.2035,763.05,0.407364,-0.0991373,-0.0149913,0.105849,-0.0646164,0.185215,-0.0918639,-0.0918824,-7.19987e-08,9.45696e-06,-1.02471e-06,0.181611,0.2034771599037022,-7.199869744844989e-08,9.457004717106088e-06,-0.08777070449611568,-1.0247094749393781e-06,-0.08778758058197822
216,0.2045,763.403,-0.468435,0.196612,0.0297644,-0.160134,0.103718,0.186045,-0.0922836,-0.0922937,6.00009e-07,5.51532e-06,1.4125e-06,0.182439,0.2044764605988425,6.000091798963325e-07,5.515335209427263e-06,-0.08815348679895352,1.4125009974996772e-06,-0.08816269640222829
217,0.2055,764.413,0.680269,-0.211821,-0.0261202,0.190115,-0.124021,0.186875,-0.0926913,-0.0927125,-2.02641e-07,1.06341e-05,-1.82974e-06,0.183265,0.2054765910578642,-2.0264097944089343e-07,1.0634156542232986e-05,-0.08852517084944345,-1.8297383260756916e-06,-0.08854449391099628
218,0.2065,764.94,0.438457,-0.192643,-0.00567565,0.118175,-0.10467,0.187704,-0.0931059,-0.0931265,4.01858e-08,1.01059e-05,-1.92657e-06,0.184092,0.20647634549280847,4.01858009091427e-08,1.0105951064875995e-05,-0.0889029899862902,-1.9265681441282823e-06,-0.08892175839138117
219,0.2075,765.469,-0.0901883,0.125357,0.00229296,-0.0494739,0.0502385,0.188533,-0.0935227,-0.0935376,1.49693e-07,7.79267e-06,1.68606e-07,0.184918,0.20747692906781023,1.4969301109779565e-07,7.792700362996285e-06,-0.08928265609215102,1.6860601426138544e-07,-0.08929622567948159
220,0.2085,766.18,0.343412,-0.150442,9.62355e-05,0.090118,-0.0778734,0.189361,-0.0939332,-0.0939533,1.2167e-07,9.88027e-06,-1.6803e-06,0.185743,0.2084771339927738,1.2167000740248568e-07,9.88031880999607e-06,-0.08965642883972003,-1.6802985882691246e-06,-0.08967472656160769
221,0.2095,766.654,-0.338147,0.220219,0.0131231,-0.125412,0.102931,0.190188,-0.0943504,-0.094363,3.31862e-07,6.70064e-06,9.0707e-07,0.186568,0.20947695795280907,3.318620551695517e-07,6.700662449343753e-06,-0.09003614496331713,9.070704114488848e-07,-0.0900476104356579
222,0.2105,767.495,0.540711,-0.228297,-0.0085891,0.150583,-0.119993,0.191014,-0.0947576,-0.0947797,2.4965e-08,1.07372e-05,-2.25904e-06,0.187391,0.2104763986322542,2.4965000289256523e-08,1.0737257643889109e-05,-0.09040660681393631,-2.259037448326673e-06,-0.09042670860580015
223,0.2115,768.048,0.348777,-0.178485,0.001879,0.0913297,-0.0929026,0.19184,-0.0951705,-0.0951919,1.65211e-07,1.02789e-05,-2.2188e-06,0.188214,0.2114766651907416,1.6521101353639267e-07,1.0278952828013388e-05,-0.09078210039999735,-2.218797538477979e-06,-0.09080155745485752
224,0.2125,768.604,-0.0632405,0.10395,0.00296729,-0.0412,0.040591,0.192665,-0.0955849,-0.0956017,1.88755e-07,8.44206e-06,-4.23039e-07,0.189036,0.2124765458335771,1.8875501783810478e-07,8.442095634331181e-06,-0.09115880223957962,-4.230389105686072e-07,-0.09117407064344696
225,0.2135,769.278,0.275215,-0.123507,0.00317598,0.0685528,-0.063508,0.19349,-0.0959943,-0.0960152,2.01687e-07,1.00755e-05,-1.92444e-06,0.189858,0.21347725171830856,2.0168702041800657e-07,1.0075550757937535e-05,-0.09153080567164429,-1.924438148281915e-06,-0.09154979247939288
226,0.2145,769.781,-0.258084,0.184478,0.0106282,-0.10119,0.084345,0.194313,-0.0964089,-0.0964238,3.32038e-07,7.56302e-06,1.8977e-07,0.190679,0.2144763545709032,3.3203805505088724e-07,7.563048599612543e-06,-0.09190737893058198,1.8977001792208625e-07,-0.09192090940983366
227,0.2155,770.555,0.429362,-0.181416,-0.00406716,0.115634,-0.0953863,0.195137,-0.0968156,-0.0968381,1.29902e-07,1.07256e-05,-2.35606e-06,0.191499,0.21547749550048678,1.299020084832847e-07,1.072565751947252e-05,-0.09227662510827106,-2.356057224539576e-06,-0.09229704865444044
228,0.2165,771.105,0.268666,-0.143103,0.00495125,0.0660988,-0.0744092,0.195959,-0.0972267,-0.0972485,2.61711e-07,1.03061e-05,-2.33085e-06,0.192319,0.21647702875367436,2.6171103417738095e-07,1.0306153108041727e-05,-0.09264971349411699,-2.3308472835159577e-06,-0.09266949351475973
229,0.2175,771.677,-0.0340074,0.0884665,0.00242821,-0.0324368,0.0329522,0.196781,-0.0976389,-0.0976571,2.37068e-07,8.93352e-06,-8.86437e-07,0.193138,0.21747738396097316,2.3706802809719818e-07,8.93355990405631e-06,-0.09302364620938752,-8.864366071170693e-07,-0.09304015302881397
230,0.2185,772.313,0.209344,-0.0942966,0.00559565,0.047683,-0.0484456,0.197602,-0.0980472,-0.0980685,2.95836e-07,1.0118e-05,-2.05526e-06,0.193957,0.2184773433203544,2.9583604366223426e-07,1.0118051187113508e-05,-0.09339388906441781,-2.0552578879895478e-06,-0.09341319956892313
231,0.2195,772.843,-0.180112,0.149436,0.00812738,-0.0774199,0.0661984,0.198422,-0.0984592,-0.0984761,3.54685e-07,8.2565e-06,-4.15016e-07,0.194774,0.21947690450595436,3.5468506287550383e-07,8.256534085093747e-06,-0.09376733384721547,-4.150159138571752e-07,-0.09378264904985967
232,0.2205,773.552,0.322095,-0.135138,4.3762e-05,0.0820253,-0.0712872,0.199242,-0.0988654,-0.0988878,2.50765e-07,1.05726e-05,-2.35527e-06,0.195591,0.22047728566787095,2.5076503140653017e-07,1.0572655890106475e-05,-0.09413537080284062,-2.3552672263615904e-06,-0.09415566194327296
233,0.2215,773.989,-0.350779,0.215499,0.0154899,-0.129801,0.101838,0.200061,-0.0992785,-0.0992936,4.99507e-07,7.42524e-06,1.26497e-07,0.196408,0.2214772660008837,4.99507124773757e-07,7.425267567251481e-06,-0.09450950619817555,1.2649700797950914e-07,-0.09452317900140195
234,0.2225,774.809,0.532748,-0.218732,-0.00913407,0.146912,-0.115896,0.200879,-0.0996817,-0.0997062,1.53101e-07,1.14605e-05,-2.95467e-06,0.197223,0.2224768431758002,1.5310101164622836e-07,1.1460565671805867e-05,-0.09487452637226412,-2.954665634935516e-06,-0.09489670167471953
235,0.2235,775.328,0.336039,-0.170082,0.00216046,0.0863583,-0.0887858,0.201697,-0.100091,-0.100114,3.05162e-07,1.09621e-05,-2.89562e-06,0.198038,0.2234772383393575,3.0516204652109025e-07,1.096216008411588e-05,-0.09524491842271599,-2.895615807685381e-06,-0.0952657275502864
236,0.2245,775.858,-0.0540577,0.0976068,0.00326065,-0.0391593,0.0377441,0.202514,-0.100501,-0.10052,3.29692e-07,9.21942e-06,-1.19817e-06,0.198853,0.22447722768310419,3.296920543238713e-07,9.219462498988307e-06,-0.09561579197188974,-1.1981692822349288e-06,-0.09563297510860203
237,0.2255,776.495,0.255658,-0.114198,0.00397267,0.061543,-0.0587347,0.20333,-0.100906,-0.10093,3.51517e-07,1.07138e-05,-2.58575e-06,0.199667,0.2254768088745549,3.51517061680795e-07,1.0713857393040982e-05,-0.09598199341534341,-2.5857466569023657e-06,-0.09600368958714633
238,0.2265,776.98,-0.2324,0.170612,0.0104376,-0.0940626,0.0775157,0.204146,-0.101317,-0.101334,4.68253e-07,8.40544e-06,-6.42795e-07,0.20048,0.22647720605713695,4.6825310962006483e-07,8.405475325767853e-06,-0.09635346847269621,-6.42794793392909e-07,-0.09636883033315602
239,0.2275,777.706,0.388877,-0.163715,-0.00242627,0.102225,-0.0861149,0.204961,-0.10172,-0.101744,2.94666e-07,1.12619e-05,-2.95312e-06,0.201292,0.22747719241916475,2.946660433433834e-07,1.1261963415387655e-05,-0.09671756465459336,-2.9531156395812275e-06,-0.09673924317289839
240,0.2285,778.082,-0.434991,0.249466,0.0191365,-0.156294,0.120017,0.205775,-0.102132,-0.102147,6.33782e-07,7.42698e-06,-6.28043e-09,0.202104,0.22847676562489605,6.337822009427896e-07,7.427007580051992e-06,-0.09708964036509615,-6.280429953875455e-09,-0.09710318391891382
241,0.2295,778.659,-0.331931,0.142375,0.0234093,-0.121207,0.0713103,0.206589,-0.102538,-0.102554,7.63939e-07,7.48643e-06,-3.91307e-07,0.202915,0.22947715281446301,7.639392918257215e-07,7.486458023286957e-06,-0.0974561475651119,-3.913069234195987e-07,-0.09747058815122578
242,0.2305,779.41,0.166413,-0.0082478,-0.00403391,0.0302373,-0.0161816,0.207402,-0.102941,-0.102961,3.97296e-07,9.53375e-06,-1.53289e-06,0.203726,0.23047712417297928,3.972960789244695e-07,9.533795446436955e-06,-0.09781979945686525,-1.532888825095391e-06,-0.09783784288044128
243,0.2315,779.836,-0.248654,0.110635,0.0210068,-0.0945063,0.056771,0.208214,-0.103349,-0.103365,7.87162e-07,7.62116e-06,-4.4597e-07,0.204536,0.2314766773614816,7.871623097788216e-07,7.621189041184806e-06,-0.09818781389863562,-4.4596990056433583e-07,-0.0982022427781819
244,0.2325,780.607,0.346155,-0.0852855,-0.0107783,0.0862831,-0.0551397,0.209026,-0.103751,-0.103773,3.42818e-07,1.02276e-05,-2.01289e-06,0.205344,0.23247704251678658,3.428180588294083e-07,1.022765230218603e-05,-0.09855026953898349,-2.0128879741898587e-06,-0.0985701012149044
245,0.2335,780.94,-0.383649,0.169706,0.0258577,-0.136345,0.0876387,0.209837,-0.10416,-0.104175,8.9768e-07,6.91868e-06,4.03408e-08,0.206153,0.23347698682087614,8.976804029003915e-07,6.918703934211123e-06,-0.09891888709131402,4.034080092196746e-08,-0.09893240320663654
246,0.2345,781.802,0.550903,-0.173436,-0.0187,0.149827,-0.100938,0.210647,-0.104559,-0.104583,2.63245e-07,1.10879e-05,-2.62407e-06,0.206961,0.23447650793160202,2.6324503465957605e-07,1.1087961470979124e-05,-0.09927834673839608,-2.6240665571553023e-06,-0.09929996379866868
247,0.2355,782.269,0.330033,-0.150403,-0.000674865,0.0837841,-0.0813494,0.211457,-0.104964,-0.104988,4.93346e-07,1.05038e-05,-2.6308e-06,0.207768,0.23547683898240912,4.933461217326851e-07,1.0503855164989417e-05,-0.09964306514750398,-2.630796539393465e-06,-0.0996646734546397
248,0.2365,782.77,-0.0409045,0.0948876,0.00201019,-0.0350379,0.0358047,0.212266,-0.105371,-0.10539,5.34195e-07,8.85798e-06,-1.05851e-06,0.208575,0.23647674415225217,5.341951427872971e-07,8.858019232116376e-06,-0.10000943585849187,-1.0585094397663752e-06,-0.10002653551676333
249,0.2375,783.37,0.23583,-0.103856,0.00408308,0.055534,-0.0536862,0.213075,-0.105772,-0.105795,5.73745e-07,1.02031e-05,-2.34004e-06,0.209381,0.23747745857267533,5.73745164489381e-07,1.0203152051690978e-05,-0.10037025972469238,-2.3400372620718812e-06,-0.10039095097076844
250,0.2385,783.838,-0.205667,0.157341,0.00945622,-0.0855224,0.0707091,0.213882,-0.106178,-0.106196,6.72976e-07,8.10865e-06,-5.7038e-07,0.210186,0.2384765059431384,6.729762265234029e-07,8.108682875151985e-06,-0.10073543526359352,-5.703798373613012e-07,-0.1007516218800788
251,0.2395,784.52,0.34861,-0.146348,-0.00129914,0.0900084,-0.0771381,0.214689,-0.106578,-0.106602,5.2981e-07,1.06605e-05,-2.65139e-06,0.210991,0.2394763598702312,5.298101404260791e-07,1.0660556823305356e-05,-0.10109506915791411,-2.6513864850308266e-06,-0.10111664261737185
252,0.2405,784.895,-0.38049,0.224707,0.017126,-0.139228,0.107042,0.215496,-0.106985,-0.107001,8.2188e-07,7.25606e-06,-2.50627e-08,0.211795,0.24047702100510793,8.218803377868511e-07,7.2560863253468e-06,-0.10146084902351493,-2.506269969337893e-08,-0.10147522553491817
253,0.2415,785.689,0.558634,-0.230604,-0.0104238,0.154834,-0.121835,0.216302,-0.107382,-0.107408,4.32853e-07,1.15452e-05,-3.25295e-06,0.212598,0.24147724852157837,4.32853093590424e-07,1.1545266646040275e-05,-0.10181749826689357,-3.2529447091533825e-06,-0.10184085070835558
254,0.2425,786.16,0.340606,-0.171417,0.00169937,0.08755,-0.0894153,0.217107,-0.107785,-0.10781,5.94644e-07,1.09531e-05,-3.12163e-06,0.213401,0.24247704006874526,5.946441767878952e-07,1.0953159985449545e-05,-0.10217939288842781,-3.121625127722183e-06,-0.10220183812303907
255,0.2435,786.646,-0.0469253,0.0907626,0.00341643,-0.0370328,0.0347627,0.217911,-0.108189,-0.108209,6.27432e-07,9.22472e-06,-1.46608e-06,0.214203,0.24347639329512427,6.274321968646746e-07,9.224762547832555e-06,-0.10254203915422277,-1.4660789252607387e-06,-0.10255998813394929
256,0.2445,787.238,0.24364,-0.108491,0.00409677,0.0575289,-0.0558893,0.218715,-0.108588,-0.108612,6.48957e-07,1.06281e-05,-2.76709e-06,0.215005,0.24447655032458293,6.489572106360697e-07,1.0628156478453832e-05,-0.10290005345199815,-2.7670861716400097e-06,-0.1029215835923526
257,0.2455,787.687,-0.214261,0.158877,0.0102854,-0.0885923,0.0718483,0.219519,-0.108992,-0.109011,7.61202e-07,8.45758e-06,-9.54544e-07,0.215806,0.24547751180363875,7.612022896452686e-07,8.457615765511406e-06,-0.10326240862972913,-9.545435444291428e-07,-0.10327944648210508
258,0.2465,788.359,0.356495,-0.149632,-0.00152329,0.0919742,-0.0788059,0.220321,-0.109389,-0.109415,6.03499e-07,1.10821e-05,-3.0732e-06,0.216606,0.24647678542326545,6.034991821834979e-07,1.1082161406772428e-05,-0.10361834279589621,-3.0731952777030003e-06,-0.1036416484160092
259,0.2475,788.715,-0.388944,0.226817,0.0178814,-0.142311,0.108369,0.221123,-0.109794,-0.109812,9.10559e-07,7.60122e-06,-4.08878e-07,0.217406,0.2474768607817892,9.10559414535328e-07,7.60124888943281e-06,-0.10398130386248672,-4.0887791641353033e-07,-0.10399743205386303
260,0.2485,789.499,0.564803,-0.233378,-0.0105858,0.156309,-0.123166,0.221924,-0.110189,-0.110216,5.08812e-07,1.19563e-05,-3.67012e-06,0.218204,0.24847649004534866,5.088121295404591e-07,1.1956371476884442e-05,-0.10433516135600518,-3.670113265075159e-06,-0.10435934398018165
261,0.2495,789.955,0.339988,-0.17087,0.00181627,0.0868858,-0.0890654,0.222725,-0.110589,-0.110616,6.74804e-07,1.13304e-05,-3.51398e-06,0.219002,0.24947692033271518,6.748042276072397e-07,1.1330464189329703e-05,-0.10469335564782845,-3.513973826030359e-06,-0.10471752860088968
262,0.2505,790.426,-0.0436352,0.0880017,0.00364403,-0.0364318,0.0335797,0.223525,-0.110991,-0.111013,7.09681e-07,9.61838e-06,-1.88222e-06,0.2198,0.25047690180823934,7.096812517648488e-07,9.618426256796653e-06,-0.10505319658598355,-1.882218228610455e-06,-0.10507288519908309
263,0.2515,791.002,0.237795,-0.105776,0.00440319,0.0552225,-0.0544768,0.224324,-0.111389,-0.111414,7.33086e-07,1.09774e-05,-3.14486e-06,0.220597,0.25147643211196535,7.330862688004203e-07,1.0977460251915261e-05,-0.10540931454156821,-3.144855054926232e-06,-0.10543167902914741
264,0.2525,791.44,-0.206171,0.154013,0.0103638,-0.086524,0.0695213,0.225123,-0.11179,-0.111811,8.42483e-07,8.86896e-06,-1.38824e-06,0.221394,0.25247676135953956,8.424833548570376e-07,8.868999329392224e-06,-0.10576797349051181,-1.3882390363928465e-06,-0.10578675216589162
265,0.2535,792.094,0.343062,-0.143783,-0.000923599,0.0873405,-0.075729,0.225921,-0.112185,-0.112212,6.93171e-07,1.13938e-05,-3.4278e-06,0.222189,0.2534766367123098,6.931712401847534e-07,1.139386490955907e-05,-0.1061211253888914,-3.427794125099304e-06,-0.10614525979268996
266,0.2545,792.444,-0.370497,0.217852,0.0175473,-0.137072,0.103813,0.226719,-0.112588,-0.112607,9.87054e-07,8.05552e-06,-8.7577e-07,0.222985,0.25447731028405873,9.87054487033845e-07,8.055552445762615e-06,-0.10648128599812245,-8.757696164929385e-07,-0.10649826269240936
267,0.2555,793.202,0.537091,-0.221773,-0.0093986,0.147291,-0.117029,0.227516,-0.11298,-0.113009,6.08337e-07,1.22003e-05,-3.98146e-06,0.223779,0.25547752723386385,6.083371850706953e-07,1.2200374424065075e-05,-0.10683147669215087,-3.981452074031111e-06,-0.10685737820375307
268,0.2565,793.646,0.317872,-0.16081,0.0027168,0.0795888,-0.0837985,0.228312,-0.113379,-0.113406,7.73648e-07,1.15699e-05,-3.81766e-06,0.224573,0.25647728519642254,7.736482992015681e-07,1.1569966931634923e-05,-0.10718777984574457,-3.817652712734265e-06,-0.10721188545026161
269,0.2575,794.112,-0.0346782,0.0823006,0.00369956,-0.0340013,0.0309262,0.229107,-0.113778,-0.113801,7.9768e-07,9.98965e-06,-2.2937e-06,0.225366,0.25747658180592436,7.976803182430103e-07,9.989699896628679e-06,-0.10754394086273811,-2.2936973694820395e-06,-0.10756446711604539
270,0.2585,794.667,0.217684,-0.096624,0.00518332,0.0485162,-0.0497885,0.229902,-0.114173,-0.1142,8.32801e-07,1.12099e-05,-3.44911e-06,0.226159,0.25847667317210465,8.328013467728823e-07,1.1209962831104647e-05,-0.10789639139253504,-3.4491040518114247e-06,-0.10792047786479864
271,0.2595,795.103,-0.182562,0.142214,0.00986323,-0.0795743,0.063609,0.230696,-0.114573,-0.114595,9.23892e-07,9.29913e-06,-1.84449e-06,0.226951,0.25947630045011594,9.238924267851445e-07,9.29917323699847e-06,-0.10825316147720421,-1.8444882988744027e-06,-0.10827277969185056
272,0.2605,795.728,0.309496,-0.128993,0.000389145,0.0764902,-0.0680684,0.23149,-0.114966,-0.114993,8.01929e-07,1.15609e-05,-3.68965e-06,0.227742,0.2604767217473698,8.019293216143808e-07,1.1560966827417474e-05,-0.10860354912906034,-3.689643193194314e-06,-0.10862761650832276
273,0.2615,796.087,-0.327215,0.198107,0.0162578,-0.124068,0.0936354,0.232283,-0.115366,-0.115386,1.05801e-06,8.57096e-06,-1.39359e-06,0.228534,0.2614766762172611,1.05801055960697e-06,8.570996730794533e-06,-0.10896003640719987,-1.393589028952924e-06,-0.10897785702826501
274,0.2625,796.803,0.478525,-0.196599,-0.00706975,0.128721,-0.103931,0.233076,-0.115757,-0.115786,7.33067e-07,1.2251e-05,-4.16656e-06,0.229323,0.2624774239655403,7.330672686656214e-07,1.2251075043767656e-05,-0.10930836493030072,-4.166551319850775e-06,-0.1093341946131855
275,0.2635,797.239,0.276979,-0.142233,0.00425301,0.0665204,-0.0741716,0.233867,-0.116153,-0.116181,8.93032e-07,1.16479e-05,-4.01503e-06,0.230113,0.26347643866612236,8.930323986966471e-07,1.1647967837147277e-05,-0.10966100898965625,-4.015021939807184e-06,-0.10968593813239491
276,0.2645,797.706,-0.021459,0.074336,0.0036052,-0.0301445,0.0271448,0.234659,-0.11655,-0.116574,8.95509e-07,1.02976e-05,-2.67048e-06,0.230902,0.2644775083768236,8.955094010776321e-07,1.0297653020518993e-05,-0.11001440341565227,-2.670476434318836e-06,-0.11003576281365646
277,0.2655,798.237,0.186034,-0.0821753,0.00631266,0.0382855,-0.0424257,0.235449,-0.116943,-0.11697,9.49904e-07,1.13038e-05,-3.66363e-06,0.23169,0.26547684029257423,9.499044510974386e-07,1.1303863888256771e-05,-0.11036409903541977,-3.6636232889630804e-06,-0.1103881188804764
278,0.2665,798.679,-0.146868,0.124908,0.00889538,-0.0687667,0.0548707,0.236239,-0.11734,-0.117363,1.01061e-06,9.69878e-06,-2.28759e-06,0.232478,0.2664769619924623,1.0106105106100216e-06,9.698827033277624e-06,-0.11071721439006699,-2.2875873835204175e-06,-0.11073766765892246
279,0.2675,799.269,0.260508,-0.107234,0.00221033,0.0609104,-0.0568609,0.237028,-0.117731,-0.117759,9.30257e-07,1.15712e-05,-3.8489e-06,0.233265,0.2674766066234229,9.302574326408575e-07,1.1571266946619474e-05,-0.11106485599087845,-3.848892592972497e-06,-0.11108974582645137
280,0.2685,799.645,-0.265378,0.170116,0.0142419,-0.105194,0.0792038,0.237817,-0.118128,-0.118151,1.13021e-06,9.08573e-06,-1.91798e-06,0.234052,0.26847704028522923,1.1302106386334998e-06,9.085771275341159e-06,-0.11141769320022987,-1.9179781606259994e-06,-0.111438130358258
281,0.2695,800.309,0.397431,-0.161349,-0.00395382,0.103206,-0.085692,0.238605,-0.118518,-0.118547,8.81172e-07,1.21127e-05,-4.22677e-06,0.234837,0.26947699412304305,8.811723881674283e-07,1.211277335899652e-05,-0.11176417273198147,-4.226761067260831e-06,-0.11178993119747271
282,0.2705,800.589,-0.437845,0.238602,0.0216291,-0.158351,0.115929,0.239392,-0.118916,-0.118937,1.28007e-06,8.22131e-06,-1.37073e-06,0.235623,0.2704764657579193,1.2800708193427823e-06,8.22134379507844e-06,-0.1121176202505123,-1.3707290605902145e-06,-0.11213626558471035
283,0.2715,801.364,0.609002,-0.248835,-0.0129032,0.16877,-0.131467,0.240179,-0.119303,-0.119334,7.90963e-07,1.29952e-05,-4.84209e-06,0.236407,0.27147672428657454,7.909633128466709e-07,1.2995284437877785e-05,-0.1124611642514235,-4.842078277111916e-06,-0.1124886775288737
284,0.2725,801.767,0.352237,-0.174476,0.00131475,0.0894598,-0.0909061,0.240965,-0.119696,-0.119726,9.79846e-07,1.22356e-05,-4.60207e-06,0.237191,0.2724764978514034,9.798464799537498e-07,1.2235674855309853e-05,-0.11280989848310763,-4.602059410441228e-06,-0.11283651378692161
285,0.2735,802.193,-0.0363321,0.0815488,0.00415941,-0.035227,0.0308522,0.241751,-0.120091,-0.120117,1.02935e-06,1.05027e-05,-2.99267e-06,0.237975,0.2734770575471632,1.0293505297021e-06,1.0502755153574128e-05,-0.11316026937040102,-2.9926655219503218e-06,-0.11318332690364818
286,0.2745,802.724,0.228556,-0.101439,0.00489512,0.0511219,-0.0522011,0.242536,-0.120481,-0.12051,1.05361e-06,1.17824e-05,-4.181e-06,0.238758,0.274477129514229,1.0536105550240649e-06,1.1782469412802143e-05,-0.113506069429952,-4.180991259650213e-06,-0.11353177738117137
287,0.2755,803.126,-0.191051,0.143579,0.0107507,-0.0829335,0.0646555,0.24332,-0.120876,-0.1209,1.1624e-06,9.78094e-06,-2.53444e-06,0.23954,0.27547671136865515,1.1624006754917815e-06,9.780987833440946e-06,-0.11385616538402421,-2.534436788326211e-06,-0.11387743258084759
288,0.2765,803.728,0.31511,-0.13181,0.000303112,0.0775025,-0.0693858,0.244104,-0.121264,-0.121294,1.02693e-06,1.21069e-05,-4.40844e-06,0.240321,0.2764770772025349,1.0269305272814222e-06,1.210697328879462e-05,-0.11419992249866251,-4.4084302828206745e-06,-0.11422649610238145
289,0.2775,804.055,-0.331329,0.197843,0.0169872,-0.126119,0.0937518,0.244887,-0.121659,-0.121682,1.2958e-06,9.06649e-06,-2.10036e-06,0.241103,0.27747695015316043,1.2958008395180798e-06,9.066531100776487e-06,-0.11454974443489463,-2.100357794243557e-06,-0.11457010955657287
290,0.2785,804.745,0.475237,-0.196184,-0.00677449,0.127048,-0.103429,0.245669,-0.122045,-0.122076,9.65169e-07,1.2753e-05,-4.86025e-06,0.241883,0.27847632783392484,9.651694656831467e-07,1.275308131987174e-05,-0.11489146227775626,-4.8602381890194835e-06,-0.11491890021713536
291,0.2795,805.153,0.267164,-0.137417,0.00470366,0.0627291,-0.0715698,0.246451,-0.122436,-0.122466,1.12889e-06,1.21035e-05,-4.67016e-06,0.242663,0.2794764873336868,1.1288906371920149e-06,1.2103573247657096e-05,-0.11523747206668367,-4.670149094776477e-06,-0.11526401454438251
292,0.2805,805.596,-0.0141517,0.0680647,0.00394864,-0.0284758,0.0244355,0.247233,-0.122828,-0.122855,1.13075e-06,1.08256e-05,-3.40151e-06,0.243442,0.2804774292640684,1.1307506393443134e-06,1.0825658597113375e-05,-0.11558423100844062,-3.401504214850526e-06,-0.11560810991183679
293,0.2815,806.095,0.170896,-0.0750455,0.00690404,0.0327835,-0.0388007,0.248013,-0.123217,-0.123246,1.18995e-06,1.17231e-05,-4.30242e-06,0.24422,0.28147659128142344,1.189950707969345e-06,1.1723168715782606e-05,-0.1159282018359149,-4.302410744561058e-06,-0.115953839546313
294,0.2825,806.518,-0.128532,0.113839,0.00886426,-0.0637036,0.0495832,0.248793,-0.123608,-0.123634,1.24207e-06,1.0269e-05,-3.05642e-06,0.244998,0.2824765329491763,1.242070771345638e-06,1.0269052726386008e-05,-0.11627380633891371,-3.056415329161233e-06,-0.116296782921252
295,0.2835,807.069,0.231926,-0.0944411,0.00331892,0.0512705,-0.0502492,0.249573,-0.123995,-0.124025,1.17942e-06,1.1924e-05,-4.44658e-06,0.245776,0.2834772548756914,1.1794206955517694e-06,1.1924071091184985e-05,-0.11661574220700244,-4.446570114002846e-06,-0.11664224333721729
296,0.2845,807.436,-0.228557,0.151529,0.0134783,-0.0944409,0.0698963,0.250352,-0.124387,-0.124412,1.35249e-06,9.73369e-06,-2.7462e-06,0.246553,0.2844774731916926,1.3524909145967712e-06,9.733737372563667e-06,-0.1169619609727458,-2.746196229197473e-06,-0.11698403664777435
297,0.2855,808.051,0.344636,-0.138589,-0.00186361,0.0861029,-0.0738226,0.25113,-0.124772,-0.124803,1.14619e-06,1.23511e-05,-4.75123e-06,0.247329,0.2854771855034992,1.146190656831081e-06,1.2351176275071651e-05,-0.11730186518201247,-4.75121871290618e-06,-0.11732922840005977
298,0.2865,808.338,-0.369062,0.207246,0.0195578,-0.137771,0.099724,0.251907,-0.125165,-0.125188,1.48472e-06,9.00798e-06,-2.29945e-06,0.248105,0.2864763894170852,1.484721102285036e-06,9.00802057191008e-06,-0.11764869739200268,-2.2994473563020534e-06,-0.11766899123858254
299,0.2875,809.041,0.514551,-0.208864,-0.00909812,0.138806,-0.110581,0.252684,-0.125547,-0.12558,1.08256e-06,1.30402e-05,-5.23991e-06,0.248879,0.2874763700138143,1.0825605860631526e-06,1.3040285023802056e-05,-0.11798569121967983,-5.239896271658218e-06,-0.11801479721161812
300,0.2885,809.427,0.285782,-0.144274,0.00378501,0.0681742,-0.0752469,0.253461,-0.125936,-0.125967,1.26211e-06,1.23205e-05,-5.01449e-06,0.249654,0.2884771278974039,1.2621107965404832e-06,1.2320575897728503e-05,-0.11832872806080408,-5.014477427511821e-06,-0.11835605944659555
301,0.2895,809.85,-0.0151132,0.0680063,0.00407482,-0.0290451,0.0245151,0.254237,-0.126325,-0.126353,1.27785e-06,1.09601e-05,-3.69962e-06,0.250427,0.28947737419402175,1.2778508164945634e-06,1.0960160062190027e-05,-0.11867163148654813,-3.699613156382675e-06,-0.11869630833538891
302,0.2905,810.338,0.177154,-0.0778231,0.00666958,0.0344362,-0.0402093,0.255012,-0.126711,-0.126742,1.33151e-06,1.18926e-05,-4.62178e-06,0.251201,0.29047710650525405,1.3315108864375702e-06,1.1892670717328357e-05,-0.11901175858804058,-4.621769319590463e-06,-0.11903906880021387
303,0.2915,810.742,-0.13388,0.115025,0.00927439,-0.0656267,0.0503574,0.255786,-0.1271,-0.127127,1.39307e-06,1.03846e-05,-3.34808e-06,0.251973,0.2914763224323691,1.3930709703569022e-06,1.0384653920114673e-05,-0.11935439636658118,-3.348074395170819e-06,-0.11937817347688684
304,0.2925,811.284,0.236406,-0.096604,0.00316022,0.0523873,-0.0513127,0.25656,-0.127484,-0.127515,1.32221e-06,1.20849e-05,-4.76246e-06,0.252745,0.292476312051992,1.3222108741217653e-06,1.2084973022741252e-05,-0.11969249935844739,-4.7624486595454485e-06,-0.11971978846798392
305,0.2935,811.634,-0.233171,0.15243,0.0138728,-0.0961508,0.0705029,0.257334,-0.127873,-0.127899,1.50363e-06,9.85041e-06,-3.04195e-06,0.253517,0.29347707596319283,1.503631130495009e-06,9.850458515536786e-06,-0.12003487238032684,-3.041945373261079e-06,-0.12005775117621931
306,0.2945,812.237,0.346716,-0.13993,-0.00191705,0.0865021,-0.0744076,0.258107,-0.128256,-0.128288,1.29084e-06,1.24999e-05,-5.06096e-06,0.254287,0.29447732028753726,1.2908408331124832e-06,1.249997812413639e-05,-0.12037183449184174,-5.0609471933249495e-06,-0.12039998214277325
307,0.2955,812.509,-0.369985,0.206874,0.0197851,-0.13837,0.0995948,0.258879,-0.128646,-0.12867,1.63383e-06,9.13857e-06,-2.60731e-06,0.255058,0.29547704262196883,1.6338313346686562e-06,9.138611756887016e-06,-0.12071482258936361,-2.607306600954651e-06,-0.12073592518038934
308,0.2965,813.198,0.510917,-0.208136,-0.00889339,0.137473,-0.110011,0.259651,-0.129026,-0.12906,1.2313e-06,1.31621e-05,-5.53365e-06,0.255827,0.29647753704002855,1.2313007580200264e-06,1.3162186620840899e-05,-0.12104888748043041,-5.533634689358635e-06,-0.12107877131022804
309,0.2975,813.571,0.279278,-0.141263,0.00402027,0.0658896,-0.0736237,0.260422,-0.129412,-0.129444,1.41224e-06,1.24189e-05,-5.28794e-06,0.256596,0.29747750665983963,1.41224099725612e-06,1.241897711490303e-05,-0.12138809713818721,-5.287926018837652e-06,-0.12141621226923438
310,0.2985,813.982,-0.0109593,0.0645445,0.00417488,-0.0279486,0.0229982,0.261192,-0.129799,-0.129828,1.42638e-06,1.11036e-05,-4.01738e-06,0.257365,0.29847694907591715,1.4263810172998603e-06,1.1103661645250895e-05,-0.12172805415866839,-4.017371930342684e-06,-0.12175352367578796
311,0.2995,814.455,0.168511,-0.0737965,0.00694202,0.0314488,-0.0381714,0.261962,-0.130182,-0.130213,1.48298e-06,1.19747e-05,-4.88808e-06,0.258133,0.2994771613590157,1.482981099698577e-06,1.1974771696898756e-05,-0.12206436790573194,-4.888068053321426e-06,-0.12209158348848315
312,0.3005,814.85,-0.123735,0.109001,0.00916093,-0.0626855,0.0474619,0.262731,-0.130568,-0.130596,1.53895e-06,1.05517e-05,-3.68581e-06,0.2589,0.3004768436246674,1.5389511842656134e-06,1.055175566944122e-05,-0.12240318566368613,-3.6858032074205127e-06,-0.12242775803047279
313,0.3015,815.372,0.221022,-0.0897173,0.00369385,0.0473207,-0.0477717,0.2635,-0.13095,-0.130981,1.47785e-06,1.21343e-05,-5.00821e-06,0.259667,0.301477294941644,1.477851091946647e-06,1.213437362101999e-05,-0.12273836362369639,-5.0081974589666345e-06,-0.12276555831290414
314,0.3025,815.719,-0.213815,0.142631,0.0133929,-0.0903682,0.0656002,0.264268,-0.131336,-0.131363,1.64449e-06,1.00571e-05,-3.40921e-06,0.260433,0.30247721342370815,1.6444913522040139e-06,1.0057150572784224e-05,-0.12307692126950831,-3.4092041886202296e-06,-0.12310059787299854
315,0.3035,816.296,0.319576,-0.128154,-0.000908094,0.0778039,-0.0683002,0.265035,-0.131716,-0.131749,1.45374e-06,1.24943e-05,-5.27125e-06,0.261198,0.3034765966608819,1.453741056645086e-06,1.2494378054173083e-05,-0.1234100887335986,-5.271236106940691e-06,-0.12343901572337246
316,0.3045,816.573,-0.335422,0.190906,0.0186867,-0.127899,0.0913875,0.265802,-0.132103,-0.132129,1.76596e-06,9.41207e-06,-3.02255e-06,0.261964,0.3044767467190366,1.7659615592080513e-06,9.41211429372757e-06,-0.12374926339472869,-3.0225454320520484e-06,-0.12377204561771027
317,0.3055,817.227,0.464355,-0.188234,-0.00709277,0.122765,-0.0996662,0.266568,-0.132481,-0.132515,1.40608e-06,1.30667e-05,-5.68487e-06,0.262728,0.3054763587095384,1.406080988530789e-06,1.3066785369719724e-05,-0.12408042357994731,-5.684853841114723e-06,-0.12411020433926978
318,0.3065,817.592,0.248089,-0.126885,0.00510214,0.0559523,-0.0662146,0.267334,-0.132864,-0.132897,1.58107e-06,1.23525e-05,-5.45262e-06,0.263492,0.30647673669616404,1.5810712499231272e-06,1.2352576292506967e-05,-0.12441583654203381,-5.452605134514954e-06,-0.12444473034267767
319,0.3075,818.0,-0.00234637,0.0585968,0.00414769,-0.0253775,0.0202615,0.268099,-0.133248,-0.133278,1.58042e-06,1.12068e-05,-4.31704e-06,0.264255,0.30747657378866355,1.580421248759123e-06,1.1206862796431238e-05,-0.1247519963139948,-4.317030681599832e-06,-0.12477825336024773
320,0.3085,818.453,0.146094,-0.0633381,0.00764011,0.024207,-0.0329027,0.268864,-0.133629,-0.133661,1.64849e-06,1.19286e-05,-5.07193e-06,0.265018,0.30847717604917846,1.6484913587522243e-06,1.1928671145966518e-05,-0.12508540228552845,-5.071917137833282e-06,-0.12511339910470376
321,0.3095,818.848,-0.0997915,0.0965729,0.00854373,-0.0553595,0.0413082,0.269628,-0.134012,-0.134041,1.68515e-06,1.07173e-05,-4.03088e-06,0.26578,0.30947723458539667,1.6851514199611728e-06,1.0717357430412022e-05,-0.12542043041447093,-4.03087187605955e-06,-0.12544579285423174
322,0.3105,819.343,0.188235,-0.0748361,0.00480367,0.036875,-0.0401824,0.270391,-0.134391,-0.134424,1.64972e-06,1.20377e-05,-5.15917e-06,0.266541,0.3104767469808738,1.6497213608523964e-06,1.2037772453510343e-05,-0.1257518332665365,-5.159156691525446e-06,-0.12578068298001577
323,0.3115,819.696,-0.173963,0.12358,0.0121415,-0.0781161,0.0559584,0.271154,-0.134774,-0.134803,1.78156e-06,1.0293e-05,-3.80409e-06,0.267302,0.31147702229532515,1.781561586922109e-06,1.0293052973064931e-05,-0.1260866062012861,-3.8040827644580943e-06,-0.12611194932222924
324,0.3125,820.237,0.267992,-0.105279,0.000951689,0.061528,-0.0565585,0.271916,-0.135152,-0.135186,1.63672e-06,1.23104e-05,-5.36459e-06,0.268062,0.31247674863367547,1.636721339348668e-06,1.231047577321398e-05,-0.12641688303788734,-5.364575610622424e-06,-0.12644658435893874
325,0.3135,820.534,-0.271858,0.161975,0.0164907,-0.108306,0.076519,0.272678,-0.135536,-0.135564,1.88925e-06,9.75447e-06,-3.49208e-06,0.268822,0.3134772370538117,1.8892517845703338e-06,9.754517575011334e-06,-0.12675227455550808,-3.4920739027111125e-06,-0.12677672514951055
326,0.3145,821.135,0.383514,-0.152815,-0.00406801,0.0974036,-0.0814485,0.273439,-0.135912,-0.135947,1.60626e-06,1.27478e-05,-5.68804e-06,0.269581,0.31447717365883077,1.6062612899769846e-06,1.2747881253494242e-05,-0.12708055397987583,-5.6880238231693525e-06,-0.1271111056258296
327,0.3155,821.354,-0.410315,0.219077,0.0221987,-0.15118,0.106641,0.274199,-0.136297,-0.136323,2.01683e-06,9.02802e-06,-3.04643e-06,0.27034,0.31547655602800817,2.0168320338243007e-06,9.028060752758194e-06,-0.12741656328065276,-3.046425359642946e-06,-0.12743925015507684
328,0.3165,822.041,0.548416,-0.223396,-0.0108118,0.148758,-0.117885,0.274959,-0.136671,-0.136707,1.54995e-06,1.34143e-05,-6.17265e-06,0.271098,0.31647669821648106,1.549951201162969e-06,1.341438997215505e-05,-0.1277428484668527,-6.172630949263791e-06,-0.12777424915909208
329,0.3175,822.379,0.290825,-0.145669,0.00338598,0.0690591,-0.0758292,0.275718,-0.137051,-0.137085,1.74665e-06,1.25639e-05,-5.85699e-06,0.271855,0.3174762833249891,1.746651525413867e-06,1.2563978926127817e-05,-0.12807424321544536,-5.856972847828601e-06,-0.12810388818720864
330,0.3185,822.76,-0.00661162,0.0601849,0.00431235,-0.0269142,0.0211672,0.276477,-0.137432,-0.137463,1.77108e-06,1.12181e-05,-4.58847e-06,0.272612,0.31847662740658844,1.7710815682914216e-06,1.1218162923043451e-05,-0.12840638365200918,-4.588459473042761e-06,-0.12843340263531966
331,0.3195,823.204,0.164654,-0.0720222,0.00695935,0.0297898,-0.0372678,0.277235,-0.137809,-0.137843,1.82589e-06,1.20513e-05,-5.41986e-06,0.273369,0.3194764115604871,1.8258916669733338e-06,1.2051372617172262e-05,-0.12873491251379088,-5.419845312548688e-06,-0.12876453502317986
332,0.3205,823.575,-0.117217,0.10333,0.00930952,-0.0609984,0.0449092,0.277993,-0.138189,-0.138219,1.88361e-06,1.06739e-05,-4.27114e-06,0.274125,0.32047695383806674,1.8836117738896263e-06,1.067395696630058e-05,-0.12906593034966352,-4.271130878641394e-06,-0.1290920579798367
333,0.3215,824.066,0.208,-0.0841244,0.00406976,0.0428382,-0.0448536,0.27875,-0.138566,-0.138599,1.82592e-06,1.21674e-05,-5.51389e-06,0.27488,0.3214769333366092,1.825921666975816e-06,1.216747402321694e-05,-0.12939421060920464,-5.513874798523943e-06,-0.1294229401262149
334,0.3225,824.394,-0.196799,0.132668,0.0131311,-0.0854507,0.0607573,0.279506,-0.138946,-0.138975,1.98327e-06,1.02234e-05,-4.02969e-06,0.275635,0.3224763476292143,1.9832719666545984e-06,1.0223452259205956e-05,-0.1297249779593963,-4.02968188084607e-06,-0.1297502155690884
335,0.3235,824.933,0.292018,-0.116627,6.30076e-05,0.0688436,-0.0622373,0.280262,-0.13932,-0.139355,1.81053e-06,1.24594e-05,-5.73426e-06,0.276388,0.323476517764697,1.8105316390570891e-06,1.2459477618742554e-05,-0.13005039995993217,-5.734243559207819e-06,-0.1300808476630957
336,0.3245,825.201,-0.299451,0.173368,0.0176408,-0.117148,0.0824645,0.281018,-0.139701,-0.139729,2.09343e-06,9.66054e-06,-3.70343e-06,0.277142,0.32447744431469094,2.0934321911525444e-06,9.6605866630739e-06,-0.13038178762418873,-3.7034231422650166e-06,-0.13040613659324807
337,0.3255,825.805,0.412117,-0.166558,-0.00510018,0.106186,-0.0882671,0.281772,-0.140074,-0.14011,1.77785e-06,1.29178e-05,-6.07411e-06,0.277895,0.32547647689565684,1.7778515803978934e-06,1.2917883435159538e-05,-0.13070609473036954,-6.074091552621397e-06,-0.1307373887476636
338,0.3265,825.994,-0.442281,0.232801,0.0234681,-0.161427,0.113715,0.282526,-0.140456,-0.140482,2.2229e-06,8.91091e-06,-3.24395e-06,0.278648,0.326476263031243,2.2229024705389122e-06,8.910949702345405e-06,-0.1310381015848361,-3.243944738384741e-06,-0.13106069430048828
339,0.3275,826.684,0.580912,-0.239453,-0.0119377,0.158811,-0.125753,0.28328,-0.140826,-0.140863,1.72002e-06,1.36027e-05,-6.5735e-06,0.279399,0.3274768032898441,1.7200214792456592e-06,1.360279251705343e-05,-0.1313595580141429,-6.573478394611421e-06,-0.13139169711591936
340,0.3285,827.004,0.3038,-0.151826,0.00291624,0.0729086,-0.0788348,0.284033,-0.141203,-0.141239,1.92451e-06,1.26758e-05,-6.20249e-06,0.28015,0.32847676976284923,1.9245118518806947e-06,1.2675880338264278e-05,-0.1316869737390295,-6.202470764549162e-06,-0.1317182324453149
341,0.3295,827.367,-0.00525095,0.0582152,0.00444156,-0.0266669,0.0203886,0.284786,-0.141581,-0.141613,1.95711e-06,1.12797e-05,-4.90912e-06,0.280901,0.32947748949417477,1.957111915196208e-06,1.1279763616034444e-05,-0.13201513403675247,-4.90910795025723e-06,-0.13204290910805982
342,0.3305,827.799,0.166178,-0.0728047,0.00686636,0.0300187,-0.0376462,0.285537,-0.141955,-0.14199,2.00859e-06,1.21148e-05,-5.73514e-06,0.281651,0.3304763020959727,2.0085920171553084e-06,1.211487338448336e-05,-0.13233969967906445,-5.735123554062582e-06,-0.13237006725813993
343,0.3315,828.155,-0.11728,0.101972,0.00951208,-0.0612184,0.0443946,0.286289,-0.142332,-0.142364,2.07058e-06,1.07288e-05,-4.59122e-06,0.282401,0.3314771965643013,2.070582143742783e-06,1.0728857553710114e-05,-0.1326667459601878,-4.59120946039171e-06,-0.1326945001802472
344,0.3325,828.633,0.205688,-0.0832749,0.00412008,0.0418829,-0.0443777,0.28704,-0.142705,-0.14274,2.01064e-06,1.22128e-05,-5.81865e-06,0.28315,0.3324775115101686,2.010642021321729e-06,1.221287457653375e-05,-0.13299020093584157,-5.818633071696944e-06,-0.13302054574777156
345,0.3335,828.948,-0.193322,0.129911,0.0131908,-0.0845867,0.0594855,0.28779,-0.143083,-0.143113,2.16825e-06,1.02925e-05,-4.36198e-06,0.283898,0.3334772444968086,2.1682523505539564e-06,1.0292552967916535e-05,-0.13331786870677753,-4.3619704865882625e-06,-0.13334386878071325
346,0.3345,829.472,0.284324,-0.113623,0.000337985,0.0662344,-0.0606096,0.288539,-0.143454,-0.14349,1.99856e-06,1.24794e-05,-6.02367e-06,0.284646,0.33447639308737354,1.9985619972295865e-06,1.2479477867977096e-05,-0.13363934813936518,-6.023651857756107e-06,-0.13367053656143724
347,0.3355,829.732,-0.288959,0.167857,0.017403,-0.114129,0.0797002,0.289288,-0.143832,-0.143861,2.27417e-06,9.75937e-06,-4.05816e-06,0.285394,0.3354762903205646,2.274172586025358e-06,9.759417622712263e-06,-0.13396677057902884,-4.05815176562907e-06,-0.13399188517851857
348,0.3365,830.314,0.395163,-0.159804,-0.00443553,0.100723,-0.0846542,0.290037,-0.144202,-0.144238,1.9716e-06,1.28949e-05,-6.33631e-06,0.28614,0.33647693675732504,1.9716019437066024e-06,1.2894983139499772e-05,-0.1342871436012505,-6.3362899256347305e-06,-0.13431830870310568
349,0.3375,830.502,-0.419744,0.222488,0.0227275,-0.154699,0.108362,0.290785,-0.14458,-0.144608,2.39639e-06,9.06222e-06,-3.63661e-06,0.286887,0.3374769954813541,2.3963928712511517e-06,9.062261062009469e-06,-0.13461432122050354,-3.6366033875356862e-06,-0.13463855168028127
350,0.3385,831.163,0.54847,-0.226268,-0.0106317,0.148558,-0.118781,0.291532,-0.144948,-0.144985,1.92318e-06,1.35084e-05,-6.78909e-06,0.287632,0.3384764640520139,1.9231818493281594e-06,1.3508491238933829e-05,-0.13493272456048655,-6.789066954171474e-06,-0.1349647314575465
351,0.3395,831.474,0.280755,-0.141253,0.0036965,0.0655309,-0.0733585,0.292279,-0.145322,-0.145358,2.12345e-06,1.25927e-05,-6.41917e-06,0.288377,0.33947667950462157,2.123452254476632e-06,1.2592779288445044e-05,-0.1352561992279676,-6.419149397141055e-06,-0.1352873294444481
352,0.3405,831.831,0.00154642,0.0530745,0.00445196,-0.024644,0.0180735,0.293025,-0.145696,-0.145729,2.14577e-06,1.13236e-05,-5.22996e-06,0.289122,0.34047630192033407,2.145772302064586e-06,1.132366411216168e-05,-0.1355795529385433,-5.229946323792589e-06,-0.13560807834262456
353,0.3415,832.245,0.148855,-0.0646867,0.00736689,0.0243781,-0.0335697,0.293771,-0.146068,-0.146103,2.20504e-06,1.20423e-05,-5.96396e-06,0.289866,0.3414766703325911,2.2050424310915417e-06,1.2042372508735966e-05,-0.13590105754128645,-5.963942215636564e-06,-0.1359313004750181
354,0.3425,832.597,-0.0990497,0.0920118,0.00907997,-0.0556517,0.0395278,0.294516,-0.146441,-0.146474,2.25322e-06,1.08188e-05,-4.94625e-06,0.290609,0.3424764428209992,2.2532225385507587e-06,1.0818858523498065e-05,-0.13622330634368573,-4.946237767367023e-06,-0.13625181050425517
355,0.3435,833.052,0.180462,-0.0717719,0.00493473,0.0337982,-0.0385284,0.295261,-0.146812,-0.146847,2.21177e-06,1.21017e-05,-6.02279e-06,0.291352,0.3434769604174295,2.211772445859239e-06,1.2101773225969836e-05,-0.1365437080588391,-6.022771863012366e-06,-0.13657392850019623
356,0.3445,833.369,-0.163249,0.115008,0.0122842,-0.0753486,0.0520232,0.296005,-0.147185,-0.147217,2.34391e-06,1.04348e-05,-4.75425e-06,0.292095,0.34447687919964287,2.3439127470048504e-06,1.0434854442742392e-05,-0.13686571719729534,-4.754238698612134e-06,-0.136893337052425
357,0.3455,833.862,0.245283,-0.0962274,0.00170475,0.0538607,-0.0517039,0.296749,-0.147554,-0.14759,2.20771e-06,1.23038e-05,-6.18586e-06,0.292836,0.3454775421982441,2.2077124370856183e-06,1.2303875692065702e-05,-0.1371841549922631,-6.185840867645176e-06,-0.13721521580358553
358,0.3465,834.133,-0.241724,0.145751,0.0158116,-0.0995682,0.068446,0.297491,-0.147928,-0.147959,2.43969e-06,9.97872e-06,-4.50469e-06,0.293578,0.34647625701192974,2.4396929760861497e-06,9.978769787588604e-06,-0.1375067877822036,-4.504679853911675e-06,-0.13753352465735869
359,0.3475,834.674,0.335268,-0.133419,-0.00224155,0.0818662,-0.0711157,0.298234,-0.148296,-0.148332,2.19282e-06,1.26227e-05,-6.43457e-06,0.294318,0.34747706062339034,2.1928224043232802e-06,1.2622779666626727e-05,-0.13782412689032264,-6.434549298162118e-06,-0.13785516466307124
360,0.3485,834.886,-0.347054,0.189624,0.0201361,-0.132239,0.0914467,0.298976,-0.14867,-0.1487,2.5471e-06,9.39676e-06,-4.16362e-06,0.295059,0.34847725963031495,2.5471032438773022e-06,9.396804149686133e-06,-0.138146520375526,-4.163611332153039e-06,-0.1381723755920845
361,0.3495,835.49,0.457662,-0.186373,-0.00722563,0.120075,-0.0983318,0.299717,-0.149036,-0.149074,2.16213e-06,1.30933e-05,-6.7916e-06,0.295798,0.3494768515827813,2.162132337391043e-06,1.3093385717644068e-05,-0.13846190103088796,-6.791576937170696e-06,-0.13849463885662616
362,0.3505,835.624,-0.490014,0.251072,0.0256994,-0.176708,0.123402,0.300458,-0.149411,-0.14944,2.67263e-06,8.63956e-06,-3.69834e-06,0.296538,0.35047718450738086,2.6726335715654415e-06,8.639597321113968e-06,-0.13878491724867525,-3.6983331611617487e-06,-0.13880989212393757
363,0.3515,836.313,0.624116,-0.260285,-0.0137159,0.172128,-0.13595,0.301198,-0.149775,-0.149814,2.10867e-06,1.37701e-05,-7.29299e-06,0.297276,0.35147690747579396,2.1086722232777078e-06,1.3770194808193637e-05,-0.13909834249194175,-7.292963406180242e-06,-0.13913191700187744
364,0.3525,836.598,0.315215,-0.157089,0.00235378,0.0761517,-0.081304,0.301938,-0.150145,-0.150183,2.32893e-06,1.27053e-05,-6.82594e-06,0.298014,0.3524773705129951,2.3289327120146197e-06,1.2705380712629832e-05,-0.13941681718376853,-6.825916703312451e-06,-0.1394495187233824
365,0.3535,836.931,0.00125692,0.0524086,0.00450347,-0.0248834,0.017887,0.302677,-0.150516,-0.150551,2.36982e-06,1.12869e-05,-5.54119e-06,0.298752,0.35347722068894094,2.3698228079904737e-06,1.1286963697232366e-05,-0.139736034326152,-5.541174647683e-06,-0.13976614303804502
366,0.3545,837.334,0.159979,-0.070117,0.00692321,0.0276805,-0.0362621,0.303415,-0.150884,-0.15092,2.42112e-06,1.20638e-05,-6.31216e-06,0.299488,0.354476455550121,2.421122930806874e-06,1.206387276786458e-05,-0.140052553222471,-6.31214007840164e-06,-0.1400835107733157
367,0.3555,837.667,-0.107984,0.0948894,0.0095158,-0.058608,0.0411398,0.304153,-0.151254,-0.151288,2.482e-06,1.07462e-05,-5.23815e-06,0.300225,0.3554764281188092,2.4820030801731008e-06,1.0746257740557041e-05,-0.14037067492163513,-5.23813628094949e-06,-0.1403999018218277
368,0.3565,838.113,0.189325,-0.0762602,0.00457253,0.0363997,-0.0407317,0.304891,-0.151621,-0.151658,2.42847e-06,1.21141e-05,-6.36649e-06,0.300961,0.3564771389396344,2.4284729487344947e-06,1.2114173375987747e-05,-0.14068610099971324,-6.366469733953828e-06,-0.14071789502578314
369,0.3575,838.411,-0.172832,0.118232,0.0127476,-0.0785212,0.0537928,0.305628,-0.151991,-0.152024,2.57286e-06,1.03579e-05,-5.04589e-06,0.301696,0.3574772310797183,2.572863309735496e-06,1.0357953643236328e-05,-0.14100398832956074,-5.045877269571619e-06,-0.1410323347302277
370,0.3585,838.895,0.253034,-0.100415,0.00139976,0.0561371,-0.0537093,0.306364,-0.152357,-0.152394,2.4249e-06,1.2311e-05,-6.52774e-06,0.302431,0.35847670208200433,2.4249029400014166e-06,1.2311075780591096e-05,-0.14131832334301575,-6.527718694360196e-06,-0.1413500939772917
371,0.3595,839.148,-0.2497,0.148518,0.0161888,-0.102264,0.0699283,0.3071,-0.152727,-0.152759,2.66723e-06,9.90712e-06,-4.80199e-06,0.303165,0.35947690896571927,2.6672335571298333e-06,9.907169075784594e-06,-0.14163597679386652,-4.801978470414525e-06,-0.14166344400313136
372,0.3605,839.679,0.340226,-0.136679,-0.00240872,0.0833015,-0.0725825,0.307835,-0.153091,-0.153129,2.4117e-06,1.26171e-05,-6.7696e-06,0.303899,0.360476491795499,2.4117029080450436e-06,1.2617179595997285e-05,-0.14194836444031267,-6.769577086340739e-06,-0.1419809697829585
373,0.3615,839.875,-0.350874,0.190937,0.020315,-0.133674,0.092104,0.30857,-0.153462,-0.153493,2.7716e-06,9.34179e-06,-4.47417e-06,0.304632,0.36147680958872463,2.7716038408787114e-06,9.341833634657348e-06,-0.1422666425528648,-4.474159990941473e-06,-0.14229323187480902
374,0.3625,840.466,0.45672,-0.187418,-0.0071245,0.119707,-0.0985871,0.309304,-0.153824,-0.153863,2.38461e-06,1.3061e-05,-7.11021e-06,0.305364,0.36247650040861124,2.3846128431870284e-06,1.3061085295307251e-05,-0.14257708583463646,-7.11018472254743e-06,-0.14261052467622726
375,0.3635,840.589,-0.485707,0.249298,0.0255198,-0.175655,0.122364,0.310038,-0.154196,-0.154226,2.89174e-06,8.61913e-06,-4.03444e-06,0.306097,0.36347692527092024,2.891744180999467e-06,8.619167144896522e-06,-0.1428959878392556,-4.0344318616991615e-06,-0.1429217005739275
376,0.3645,841.259,0.61232,-0.25697,-0.0131486,0.168415,-0.133894,0.310771,-0.154556,-0.154596,2.33765e-06,1.36885e-05,-7.57967e-06,0.306828,0.3644767202372341,2.337652732276041e-06,1.3688593687888329e-05,-0.1432044897499577,-7.579641274402249e-06,-0.14323876088494047
377,0.3655,841.531,0.302782,-0.15157,0.00274023,0.0721364,-0.0783667,0.311504,-0.154923,-0.154962,2.5573e-06,1.26008e-05,-7.0907e-06,0.307559,0.3654772483219133,2.5573032698122944e-06,1.2600879390367581e-05,-0.1435188760088123,-7.090674861043311e-06,-0.14355227812130245
378,0.3665,841.856,0.00682896,0.0478602,0.00451268,-0.0232093,0.015875,0.312236,-0.155291,-0.155326,2.59311e-06,1.12586e-05,-5.87365e-06,0.30829,0.36647714358470385,2.5931133620371583e-06,1.1258663378255207e-05,-0.14383400307550442,-5.873632750175162e-06,-0.14386396836100124
379,0.3675,842.242,0.147893,-0.0644813,0.00721644,0.0237129,-0.0334333,0.312967,-0.155655,-0.155692,2.64889e-06,1.19508e-05,-6.57545e-06,0.30902,0.36747640356168865,2.648893508316874e-06,1.1950871411148256e-05,-0.14414559078598133,-6.575428381783155e-06,-0.14417725681329707
380,0.3685,842.567,-0.094994,0.0872693,0.00923374,-0.0546442,0.0374747,0.313698,-0.156022,-0.156056,2.70108e-06,1.07476e-05,-5.59361e-06,0.309749,0.3684763942647644,2.7010836478602585e-06,1.0747657755549866e-05,-0.1444596317241259,-5.593594355812748e-06,-0.14448871960215048
381,0.3695,842.992,0.170825,-0.0678676,0.00511973,0.0304464,-0.0364629,0.314429,-0.156385,-0.156422,2.65972e-06,1.197e-05,-6.61031e-06,0.310478,0.3694771162282875,2.659723536968528e-06,1.197007164077668e-05,-0.14477013651778037,-6.610288151964738e-06,-0.14480177943733163
382,0.3705,843.288,-0.151024,0.106944,0.012109,-0.0718237,0.0482021,0.315159,-0.156751,-0.156785,2.78646e-06,1.03983e-05,-5.42932e-06,0.311206,0.3704771995091196,2.786463882076262e-06,1.0398354062468584e-05,-0.1450830933732168,-5.429305261261952e-06,-0.1451121600539057
383,0.3715,843.746,0.224128,-0.0875967,0.00236592,0.0469527,-0.0471427,0.315888,-0.157114,-0.157151,2.66198e-06,1.21185e-05,-6.74043e-06,0.311934,0.3714766416399564,2.6619835431507255e-06,1.2118573429420465e-05,-0.14539337189136425,-6.7404072833232576e-06,-0.14542499175163326
384,0.3725,844.003,-0.21513,0.131873,0.0150369,-0.0916062,0.0615222,0.316617,-0.15748,-0.157514,2.87297e-06,1.00048e-05,-5.22594e-06,0.312662,0.3724768126297433,2.8729741270439035e-06,1.0004850048206393e-05,-0.14570610068439183,-5.225926344776255e-06,-0.14573514618319228
385,0.3735,844.5,0.295931,-0.11723,-0.000830285,0.0693315,-0.0625975,0.317345,-0.157841,-0.15788,2.65744e-06,1.23532e-05,-6.93555e-06,0.313388,0.3734763395329861,2.65744353100672e-06,1.235327630100258e-05,-0.14601444512252504,-6.935525949103294e-06,-0.1460477499097177
386,0.3745,844.71,-0.297709,0.166392,0.0184307,-0.117238,0.0795579,0.318073,-0.158208,-0.158241,2.96624e-06,9.52374e-06,-4.95716e-06,0.314115,0.3744765943567454,2.9662443992162224e-06,9.523785351017722e-06,-0.1463278003169698,-4.957147713313681e-06,-0.14635597103473996
387,0.3755,845.255,0.390067,-0.158181,-0.00467159,0.0987706,-0.0835933,0.318801,-0.158567,-0.158607,2.64291e-06,1.26935e-05,-7.20726e-06,0.31484,0.3754775776311403,2.642913492501009e-06,1.269358056288361e-05,-0.146634213632175,-7.207234027806209e-06,-0.14666834758094616
388,0.3765,845.406,-0.405675,0.21324,0.0225978,-0.150864,0.103789,0.319527,-0.158935,-0.158966,3.07076e-06,8.92348e-06,-4.60284e-06,0.315566,0.3764765369308489,3.07076471472989e-06,8.923519814407754e-06,-0.14694819446554164,-4.602829406952225e-06,-0.14697463866162608
389,0.3775,846.015,0.513492,-0.213442,-0.00945533,0.137439,-0.111643,0.320254,-0.159293,-0.159333,2.61391e-06,1.31721e-05,-7.57653e-06,0.31629,0.37747759921524726,2.6139134161606847e-06,1.3172186752452575e-05,-0.14725353235317995,-7.5765012981232616e-06,-0.14728764152969775
390,0.3785,846.287,0.246219,-0.125062,0.0045766,0.0543662,-0.0648953,0.320979,-0.159656,-0.159695,2.81443e-06,1.22051e-05,-7.15953e-06,0.317014,0.37847663258051356,2.81443396055181e-06,1.2205174482637915e-05,-0.14756302314495862,-7.159504370579661e-06,-0.14759626753878607
391,0.3795,846.615,0.0157645,0.0409329,0.00446122,-0.0203389,0.0127479,0.321704,-0.16002,-0.160056,2.82465e-06,1.11435e-05,-6.15818e-06,0.317738,0.3794763905075915,2.8246539893750366e-06,1.1143562089088732e-05,-0.1478732537391404,-6.158161038438692e-06,-0.14790392974983424
392,0.3805,846.98,0.116463,-0.0494599,0.00805429,0.0137565,-0.0259588,0.322429,-0.160381,-0.160419,2.89456e-06,1.16377e-05,-6.70733e-06,0.318461,0.380476873521979,2.8945641892264007e-06,1.163776771839764e-05,-0.14818081597621657,-6.707307505959825e-06,-0.14821318449020382
393,0.3815,847.308,-0.064982,0.0713762,0.00835059,-0.0452046,0.0296725,0.323153,-0.160744,-0.16078,2.92098e-06,1.07187e-05,-5.93746e-06,0.319184,0.38147670067216355,2.9209842660193885e-06,1.0718757445404847e-05,-0.14848997022512633,-5.93744237331606e-06,-0.14852062403442634
394,0.3825,847.703,0.131383,-0.0494486,0.00629313,0.0180165,-0.0271944,0.323877,-0.161104,-0.161142,2.91007e-06,1.16165e-05,-6.71616e-06,0.319906,0.3824772519593107,2.910074234252491e-06,1.1616567471728345e-05,-0.1487964586646161,-6.716137446627357e-06,-0.1488288037846256
395,0.3835,848.009,-0.106012,0.0847193,0.01062,-0.0577175,0.0371065,0.3246,-0.161467,-0.161502,2.99688e-06,1.0437e-05,-5.81936e-06,0.320628,0.3834771444300493,2.9968844905692293e-06,1.043705446557297e-05,-0.14910538947578633,-5.819343067536842e-06,-0.14913517026598777
396,0.3845,848.428,0.168925,-0.0623473,0.00416559,0.0296131,-0.034358,0.325322,-0.161826,-0.161864,2.92093e-06,1.16916e-05,-6.79824e-06,0.321348,0.3844763756073759,2.9209342660152515e-06,1.169166834702473e-05,-0.1494108058154513,-6.798216891978903e-06,-0.14944312759071277
397,0.3855,848.705,-0.151009,0.101432,0.0127954,-0.0715484,0.0461562,0.326044,-0.162189,-0.162223,3.0716e-06,1.01315e-05,-5.67637e-06,0.322069,0.3854763284901168,3.071604717463927e-06,1.0131551323899757e-05,-0.14971951365907687,-5.676353889483288e-06,-0.1497484227041559
398,0.3865,849.152,0.218545,-0.082211,0.001831,0.0450704,-0.0448185,0.326766,-0.162547,-0.162585,2.92846e-06,1.18234e-05,-6.925e-06,0.322789,0.3864770035995315,2.9284642879545686e-06,1.1823469896699024e-05,-0.15002385959201436,-6.924976022282259e-06,-0.15005615807167494
399,0.3875,849.396,-0.207544,0.124601,0.0151902,-0.08906,0.0583114,0.327487,-0.16291,-0.162944,3.14938e-06,9.77073e-06,-5.49042e-06,0.323509,0.38747701397954826,3.1493849592667544e-06,9.770777733786318e-06,-0.1503323449375049,-5.490404927699366e-06,-0.1503612331466747
400,0.3885,849.876,0.282249,-0.109566,-0.000851093,0.065001,-0.0589066,0.328207,-0.163267,-0.163306,2.93041e-06,1.20224e-05,-7.10184e-06,0.324227,0.3884763571499832,2.9304142936670274e-06,1.202247226927966e-05,-0.1506356221521583,-7.101814782028981e-06,-0.15066874671696118
401,0.3895,850.079,-0.279942,0.155824,0.0180185,-0.111588,0.0744527,0.328927,-0.16363,-0.163663,3.23335e-06,9.33513e-06,-5.2496e-06,0.324946,0.3894764201065928,3.2333552273389188e-06,9.335173572377897e-06,-0.1509438854681403,-5.249586220834601e-06,-0.15097190385761383
402,0.3905,850.6,0.364156,-0.146062,-0.00407506,0.0906825,-0.0774767,0.329647,-0.163985,-0.164025,2.92388e-06,1.2308e-05,-7.34062e-06,0.325664,0.3904772033678099,2.923884274474986e-06,1.2308075743705515e-05,-0.1512452468939811,-7.340593057736378e-06,-0.15127919640511056
403,0.3915,850.753,-0.37302,0.197034,0.0214911,-0.140628,0.0956137,0.330366,-0.164349,-0.164381,3.32666e-06,8.80226e-06,-4.93967e-06,0.326382,0.3914773159744285,3.3266655332653272e-06,8.80229873989613e-06,-0.15155413740262857,-4.9396577997962154e-06,-0.15158128723583197
404,0.3925,851.328,0.469585,-0.194009,-0.0080642,0.123776,-0.101697,0.331084,-0.164703,-0.164744,2.90551e-06,1.27049e-05,-7.65742e-06,0.327098,0.392476755443131,2.905514220996608e-06,1.270498070748971e-05,-0.15185443408233967,-7.657390681981013e-06,-0.15188920733768574
405,0.3935,851.417,-0.492746,0.250751,0.0258463,-0.178042,0.123125,0.331802,-0.165067,-0.165098,3.43286e-06,8.1442e-06,-4.54225e-06,0.327815,0.39347691276705143,3.4328658922166966e-06,8.144233164086856e-06,-0.15216310288720314,-4.542239684046656e-06,-0.15218938542363225
406,0.3945,852.059,0.605227,-0.256454,-0.0130805,0.166378,-0.13308,0.332519,-0.165419,-0.165461,2.87138e-06,1.32447e-05,-8.07301e-06,0.32853,0.39447639398470336,2.8713841224714542e-06,1.324478771147497e-05,-0.1524614889559578,-8.072977413342564e-06,-0.15249708482590318
407,0.3955,852.302,0.285651,-0.14374,0.00296957,0.0667902,-0.0741852,0.333236,-0.165778,-0.165818,3.09556e-06,1.20805e-05,-7.52466e-06,0.329246,0.39547659208736086,3.095564791166794e-06,1.2080572969530579e-05,-0.15276570067215234,-7.524631689848071e-06,-0.15279958936634697
408,0.3965,852.605,0.017272,0.039179,0.0043266,-0.0197991,0.0120393,0.333953,-0.166138,-0.166175,3.12505e-06,1.08553e-05,-6.41866e-06,0.329961,0.3964775075892151,3.1250548828687386e-06,1.085535891909295e-05,-0.1530706501257152,-6.418639400429527e-06,-0.15310198593194457
409,0.3975,852.958,0.127481,-0.0549896,0.00747492,0.0172328,-0.0286928,0.334668,-0.166495,-0.166533,3.18729e-06,1.14006e-05,-6.99868e-06,0.330675,0.39747634604933824,3.1872950794209487e-06,1.1400664987171183e-05,-0.15337294993989292,-6.998655509349305e-06,-0.15340512115653815
410,0.3985,853.265,-0.0731097,0.0737574,0.00861816,-0.0477057,0.0310334,0.335384,-0.166853,-0.166889,3.22552e-06,1.03913e-05,-6.17576e-06,0.331389,0.3984772974109352,3.2255252020441105e-06,1.0391353989724905e-05,-0.15367598817673345,-6.175740929981188e-06,-0.15370645529274773
411,0.3995,853.651,0.139235,-0.0535974,0.00582849,0.020503,-0.0292245,0.336099,-0.167209,-0.167248,3.20301e-06,1.13672e-05,-7.00054e-06,0.332103,0.399477566232074,3.2030151295714404e-06,1.1367264606931826e-05,-0.15397722590144602,-7.000515496291548e-06,-0.154010220146244
412,0.4005,853.936,-0.11455,0.0873527,0.0109022,-0.0603597,0.0385769,0.336813,-0.167567,-0.167603,3.30054e-06,1.01079e-05,-6.05819e-06,0.332816,0.40047715002331175,3.300545446727199e-06,1.010795108502549e-05,-0.15428004784621097,-6.058171649225841e-06,-0.1543104932164686
413,0.4015,854.346,0.175368,-0.0660323,0.00377069,0.0316754,-0.0361166,0.337527,-0.167922,-0.167961,3.21368e-06,1.1437e-05,-7.0801e-06,0.333528,0.40147744777222916,3.2136851639830155e-06,1.1437065402741808e-05,-0.15458022514460268,-7.080074936105518e-06,-0.15461319587288858
414,0.4025,854.604,-0.157911,0.103547,0.0129922,-0.0736977,0.0473204,0.33824,-0.16828,-0.168316,3.37298e-06,9.80934e-06,-5.92109e-06,0.33424,0.40247705751101504,3.3729856885322818e-06,9.809388111792217e-06,-0.15488283125427527,-5.92107247032736e-06,-0.15491325492472074
415,0.4035,855.04,0.222457,-0.0850019,0.00155937,0.0463626,-0.0460752,0.338953,-0.168634,-0.168674,3.22184e-06,1.15582e-05,-7.20091e-06,0.334951,0.40347738022569035,3.2218451901933065e-06,1.1558266796329875e-05,-0.15518194978490762,-7.200884073466085e-06,-0.15521574183107079
416,0.4045,855.267,-0.211009,0.125458,0.015225,-0.0901575,0.0587795,0.339665,-0.168993,-0.169028,3.44735e-06,9.46365e-06,-5.74643e-06,0.335662,0.4044770119470742,3.447355942043373e-06,9.463694780498244e-06,-0.15548518503095143,-5.746413489271518e-06,-0.1555147425322161
417,0.4055,855.733,0.28159,-0.110582,-0.000917907,0.064888,-0.0592073,0.340377,-0.169345,-0.169385,3.22563e-06,1.17373e-05,-7.3654e-06,0.336372,0.40547735565968224,3.2256352022752566e-06,1.173736888238075e-05,-0.15578240193257697,-7.365372875489662e-06,-0.15581616996113468
418,0.4065,855.923,-0.277458,0.154333,0.0177949,-0.110852,0.0736591,0.341088,-0.169704,-0.169738,3.5265e-06,9.05459e-06,-5.52482e-06,0.337082,0.40647700539292453,3.5265062181544238e-06,9.054630992988422e-06,-0.15608542165498862,-5.524804738255007e-06,-0.15611411426287525
419,0.4075,856.427,0.355923,-0.143957,-0.00382359,0.0882259,-0.076138,0.341799,-0.170055,-0.170096,3.2226e-06,1.19891e-05,-7.58227e-06,0.337791,0.40747736612985896,3.2226051924766352e-06,1.1989171869508652e-05,-0.15638158369250954,-7.5822412546333595e-06,-0.15641617133852648
420,0.4085,856.572,-0.360982,0.191608,0.0208755,-0.136935,0.0927348,0.342509,-0.170414,-0.170448,3.61301e-06,8.56485e-06,-5.24559e-06,0.3385,0.4084770298984548,3.6130165268488668e-06,8.564886678330552e-06,-0.15668438834727616,-5.245576241930117e-06,-0.1567130605906415
421,0.4095,857.122,0.449475,-0.186825,-0.00733474,0.117629,-0.0977326,0.343219,-0.170764,-0.170806,3.21011e-06,1.23325e-05,-7.86339e-06,0.339208,0.40947740368035124,3.2101151523633575e-06,1.2332576045492871e-05,-0.15697949716429904,-7.863359083648547e-06,-0.1570149032818845
422,0.4105,857.212,-0.466031,0.239131,0.0246512,-0.169794,0.116986,0.343928,-0.171124,-0.171156,3.70965e-06,7.9735e-06,-4.89525e-06,0.339917,0.41047707750205387,3.7096568807903907e-06,7.973531788385557e-06,-0.15728292992414605,-4.895238018276515e-06,-0.15730989643892201
423,0.4115,857.821,0.56717,-0.241405,-0.0116488,0.15464,-0.125094,0.344637,-0.171472,-0.171514,3.18518e-06,1.27906e-05,-8.22388e-06,0.340623,0.41147746034381427,3.1851850725850284e-06,1.2790681800156634e-05,-0.1575761444422472,-8.22384618404115e-06,-0.1576115255011732
424,0.4125,858.055,0.26023,-0.13198,0.00363464,0.0589048,-0.0681352,0.345345,-0.171827,-0.171867,3.40176e-06,1.16477e-05,-7.6813e-06,0.34133,0.41247714023065885,3.4017657859486405e-06,1.1647767834688239e-05,-0.157875151834018,-7.681270498882675e-06,-0.15790883615425377
425,0.4135,858.351,0.0230601,0.0339783,0.00423773,-0.0178097,0.00976208,0.346053,-0.172182,-0.17222,3.42066e-06,1.05562e-05,-6.68537e-06,0.342037,0.4134775281414744,3.4206658505731014e-06,1.0556255716887009e-05,-0.1581740530970036,-6.685347652912732e-06,-0.15820604187519538
426,0.4145,858.685,0.110682,-0.0469711,0.00773773,0.0119833,-0.0247204,0.34676,-0.172534,-0.172574,3.48828e-06,1.09913e-05,-7.17632e-06,0.342743,0.414477210099802,3.48828608398577e-06,1.0991360404499773e-05,-0.15847032368363112,-7.176294250288429e-06,-0.15850398419746903
427,0.4155,858.986,-0.05699,0.0642555,0.00811177,-0.0425098,0.0264739,0.347467,-0.172889,-0.172926,3.51442e-06,1.01348e-05,-6.4725e-06,0.343448,0.41547759908317783,3.514426175632579e-06,1.0134851357257446e-05,-0.15876901369810903,-6.472479053387659e-06,-0.15880013866878673
428,0.4165,859.349,0.117182,-0.0433651,0.00631311,0.0136301,-0.0240835,0.348173,-0.17324,-0.173279,3.5062e-06,1.09326e-05,-7.16229e-06,0.344153,0.41647727911365817,3.5062061467527883e-06,1.0932659761042629e-05,-0.15906423396011404,-7.16226435082401e-06,-0.15909702981546625
429,0.4175,859.633,-0.0899691,0.0743312,0.0100454,-0.052534,0.0321816,0.348878,-0.173594,-0.173631,3.58313e-06,9.89022e-06,-6.38134e-06,0.344857,0.41747624769048075,3.5831364193494863e-06,9.890268908296918e-06,-0.15936187253615597,-6.381319639259253e-06,-0.15939297557146248
430,0.4185,860.014,0.144234,-0.0519217,0.00462566,0.0219759,-0.0289688,0.349584,-0.173945,-0.173984,3.52111e-06,1.09607e-05,-7.21513e-06,0.345561,0.41847733926509423,3.5211161990567064e-06,1.0960760068678965e-05,-0.15965688474122497,-7.215103971058845e-06,-0.1596896574836475
431,0.4195,860.277,-0.122497,0.0859147,0.0116983,-0.0624993,0.0385256,0.350288,-0.174299,-0.174335,3.64788e-06,9.64213e-06,-6.27873e-06,0.346265,0.4194762989044716,3.6478866534128684e-06,9.642176485469278e-06,-0.1599543135560203,-6.27871028879845e-06,-0.15998455465638928
432,0.4205,860.678,0.178844,-0.065447,0.0029077,0.0327714,-0.0361346,0.350993,-0.174649,-0.174688,3.53533e-06,1.10246e-05,-7.29841e-06,0.346967,0.42047738253571576,3.535336249305132e-06,1.1024660771186134e-05,-0.16024827809947972,-7.298383366660666e-06,-0.160281027778011
433,0.4215,860.917,-0.1611,0.101524,0.0133666,-0.0744372,0.0467257,0.351696,-0.175002,-0.175038,3.71266e-06,9.36412e-06,-6.15048e-06,0.34767,0.4214763292242587,3.712666891919625e-06,9.364163843450513e-06,-0.16054465814315522,-6.150461085874248e-06,-0.1605748779915016
434,0.4225,861.34,0.221221,-0.0835723,0.00107365,0.0460611,-0.0454702,0.3524,-0.175351,-0.175391,3.54742e-06,1.11264e-05,-7.41151e-06,0.348372,0.42247740089591534,3.547426292049849e-06,1.1126461898713913e-05,-0.1608375769401601,-7.411482534802616e-06,-0.16087114276576153
435,0.4235,861.552,-0.208184,0.121856,0.015203,-0.0890827,0.0572028,0.353102,-0.175705,-0.175741,3.77968e-06,9.04558e-06,-5.9911e-06,0.349073,0.4234763306146525,3.7796871430462176e-06,9.045620911418695e-06,-0.16113458786388812,-5.9910820533470854e-06,-0.16116478647514676
436,0.4245,862.001,0.273214,-0.106859,-0.000993318,0.0624087,-0.0572939,0.353805,-0.176053,-0.176093,3.55564e-06,1.12747e-05,-7.55887e-06,0.349774,0.42447738630492204,3.555646321373729e-06,1.1274763559665502e-05,-0.16142646223822466,-7.558841431776209e-06,-0.1614600045088853
437,0.4255,862.181,-0.26597,0.147671,0.0173283,-0.107119,0.0703824,0.354506,-0.176407,-0.176442,3.85075e-06,8.6762e-06,-5.79476e-06,0.350475,0.42547629502932427,3.850757414047834e-06,8.67623763833869e-06,-0.16172326473345122,-5.794743210385533e-06,-0.16175260390574697
438,0.4265,862.662,0.337145,-0.136202,-0.00340927,0.0825339,-0.0720757,0.355208,-0.176754,-0.176795,3.55822e-06,1.14804e-05,-7.74695e-06,0.351174,0.4264773307108496,3.558226330468983e-06,1.1480465899937897e-05,-0.16201409629839392,-7.746919992501766e-06,-0.16204845301612825
439,0.4275,862.804,-0.336993,0.179965,0.0198587,-0.129334,0.0867991,0.355909,-0.177108,-0.177142,3.92762e-06,8.24407e-06,-5.55411e-06,0.351874,0.4274776418877826,3.927627713062876e-06,8.244103982368856e-06,-0.16231069080797877,-5.5540945759213756e-06,-0.16233917176031243
440,0.4285,863.324,0.41577,-0.172783,-0.00629318,0.107297,-0.0904144,0.356609,-0.177453,-0.177495,3.55339e-06,1.17565e-05,-7.98392e-06,0.352573,0.4284772260507448,3.5533963131939572e-06,1.1756569108012371e-05,-0.16259964377239766,-7.98388812861539e-06,-0.16263481384878242
441,0.4295,863.42,-0.424248,0.22,0.0229159,-0.156662,0.107118,0.357309,-0.177808,-0.177841,4.01211e-06,7.73502e-06,-5.26001e-06,0.353271,0.4294775101675763,4.01211804845758e-06,7.735049915247316e-06,-0.16289686813841198,-5.259996166184777e-06,-0.16292449208596582
442,0.4305,863.988,0.512361,-0.21809,-0.00977396,0.137723,-0.113049,0.358008,-0.178151,-0.178194,3.53919e-06,1.21185e-05,-8.27991e-06,0.353969,0.4304770642506368,3.5391962629471863e-06,1.2118573429420465e-05,-0.16318394527609692,-8.279875721606267e-06,-0.16321992759282467
443,0.4315,864.028,-0.53129,0.269332,0.0266342,-0.190217,0.132151,0.358707,-0.178507,-0.178539,4.10627e-06,7.13217e-06,-4.90129e-06,0.354667,0.43147731726625005,4.106278430837662e-06,7.132195434023103e-06,-0.16348179877051083,-4.901277988689223e-06,-0.16350856692465743
444,0.4325,864.654,0.630816,-0.273961,-0.0139969,0.175038,-0.140878,0.359405,-0.178849,-0.178893,3.51344e-06,1.2585e-05,-8.64717e-06,0.355363,0.4324768372255867,3.5134461722208243e-06,1.2585079191440585e-05,-0.16376783907965042,-8.647132613281983e-06,-0.1638046324852701
445,0.4335,864.863,0.282518,-0.143115,0.00258517,0.0661267,-0.0735262,0.360103,-0.179199,-0.17924,3.74619e-06,1.12697e-05,-7.98419e-06,0.35606,0.43347705509339685,3.746197017040487e-06,1.126976350329656e-05,-0.16406046912272776,-7.984158126417285e-06,-0.16409474194089613
446,0.4345,865.138,0.0277909,0.0299093,0.00399089,-0.0160786,0.0079881,0.3608,-0.179549,-0.179587,3.77523e-06,1.01013e-05,-6.94795e-06,0.356756,0.43447653687973653,3.775237126246722e-06,1.0101351018310112e-05,-0.16435299676321147,-6.947925863087789e-06,-0.164384750746005
447,0.4355,865.456,0.1122,-0.0479731,0.0073454,0.0126081,-0.0252056,0.361497,-0.179896,-0.179936,3.83975e-06,1.05252e-05,-7.42264e-06,0.357452,0.43547671554771616,3.839757371837393e-06,1.0525255390136934e-05,-0.16464291596944336,-7.422612452234745e-06,-0.16467632958452783
448,0.4365,865.741,-0.0561855,0.0621072,0.00800526,-0.0420484,0.0255903,0.362194,-0.180245,-0.180283,3.86914e-06,9.66436e-06,-6.72737e-06,0.358147,0.43647759158323174,3.869147485069391e-06,9.664406700027328e-06,-0.16493440472402365,-6.727347371282555e-06,-0.16496613661373438
449,0.4375,866.088,0.114027,-0.0423204,0.00610085,0.0127955,-0.0235177,0.362889,-0.180592,-0.180632,3.85841e-06,1.0447e-05,-7.39642e-06,0.358841,0.43747629051706194,3.8584174437694685e-06,1.0447054570095204e-05,-0.16522412221669236,-7.396392646574768e-06,-0.1652575125839919
450,0.4385,866.357,-0.0863968,0.0711047,0.00981805,-0.0512215,0.0307195,0.363585,-0.18094,-0.180978,3.9344e-06,9.43343e-06,-6.64603e-06,0.359536,0.43847712226430824,3.934407739825119e-06,9.433474494890959e-06,-0.16551457368067501,-6.646007915223073e-06,-0.16554628352438427
451,0.4395,866.721,0.136788,-0.0491249,0.0045979,0.0198122,-0.0274799,0.36428,-0.181286,-0.181326,3.87425e-06,1.04567e-05,-7.43787e-06,0.360229,0.4394772113549852,3.874257504810075e-06,1.0456754671483992e-05,-0.16580325569331333,-7.437842339141909e-06,-0.16583662289573708
452,0.4405,866.972,-0.11406,0.0807173,0.0112614,-0.0596796,0.0360198,0.364974,-0.181635,-0.181672,3.99438e-06,9.20851e-06,-6.5594e-06,0.360923,0.4404765552718948,3.994387977490632e-06,9.208552398387582e-06,-0.1660943395599871,-6.559378487147605e-06,-0.16612519349862198
453,0.4415,867.352,0.165524,-0.0601951,0.00312645,0.0287838,-0.0333655,0.365668,-0.18198,-0.18202,3.89036e-06,1.04949e-05,-7.50472e-06,0.361615,0.44147659297419817,3.890367567427333e-06,1.0494955071660428e-05,-0.16638198739073495,-7.504691839632649e-06,-0.16641533144435383
454,0.4425,867.584,-0.145728,0.0934193,0.0126442,-0.069462,0.0426991,0.366362,-0.182328,-0.182365,4.05326e-06,8.96332e-06,-6.45371e-06,0.362307,0.4424773249435501,4.053268214398997e-06,8.963360170755053e-06,-0.16667203598773994,-6.453689174845678e-06,-0.16670286855200245
455,0.4435,867.982,0.199738,-0.0747983,0.00162021,0.0395308,-0.0408857,0.367055,-0.182672,-0.182713,3.90557e-06,1.05602e-05,-7.59394e-06,0.362999,0.4434773081839085,3.905577626639456e-06,1.05602557591844e-05,-0.16695865150666456,-7.593911166114964e-06,-0.16699280550179108
456,0.4445,868.191,-0.183233,0.10962,0.0141031,-0.0811218,0.0510342,0.367747,-0.18302,-0.183057,4.11301e-06,8.68996e-06,-6.32547e-06,0.36369,0.44447654017556637,4.113018458484774e-06,8.689997757826973e-06,-0.1672484994594713,-6.325449994237786e-06,-0.16727931069497992
457,0.4455,868.61,0.240548,-0.0931387,-1.41363e-05,0.0523867,-0.0501832,0.368439,-0.183364,-0.183405,3.91848e-06,1.06579e-05,-7.7076e-06,0.364381,0.44547646387506545,3.918487677223581e-06,1.06579567955567e-05,-0.16753491670906584,-7.707570296555666e-06,-0.1675690470778034
458,0.4465,868.794,-0.227991,0.129707,0.0157318,-0.0950902,0.0612599,0.369131,-0.183712,-0.183748,4.17502e-06,8.38194e-06,-6.17148e-06,0.365071,0.44647707976123385,4.175028715414086e-06,8.381975128646246e-06,-0.16782456415647207,-6.171460956494457e-06,-0.16785452193291928
459,0.4475,869.237,0.289363,-0.115676,-0.00186065,0.0677834,-0.0615132,0.369822,-0.184054,-0.184096,3.92782e-06,1.07945e-05,-7.84918e-06,0.365761,0.44747694083556544,3.927827713967602e-06,1.0794558260807108e-05,-0.16810911949379437,-7.849149195271465e-06,-0.16814405817705813
460,0.4485,869.393,-0.281512,0.154212,0.0176107,-0.111834,0.0736713,0.370513,-0.184403,-0.184438,4.24052e-06,8.03215e-06,-5.9877e-06,0.366451,0.4484774930526616,4.240528991061865e-06,8.032182257755593e-06,-0.16839939875441368,-5.9876820737159164e-06,-0.16842850426610778
461,0.4495,869.864,0.347783,-0.143044,-0.00399709,0.0862186,-0.0752051,0.371203,-0.184744,-0.184786,3.93241e-06,1.09776e-05,-8.02319e-06,0.367139,0.44947728741225523,3.932417731888904e-06,1.0977660254152255e-05,-0.16868292621525893,-8.02315781434082e-06,-0.16871784079914653
462,0.4505,869.986,-0.345503,0.18382,0.0198158,-0.131883,0.0886331,0.371892,-0.185092,-0.185127,4.31066e-06,7.63251e-06,-5.76912e-06,0.367828,0.45047632139096616,4.310669290852331e-06,7.632539127611082e-06,-0.16897217422486333,-5.76910335869929e-06,-0.16900125968976676
463,0.4515,870.491,0.417639,-0.176043,-0.00650055,0.108264,-0.0916612,0.372582,-0.185432,-0.185475,3.93108e-06,1.12159e-05,-8.2351e-06,0.368516,0.4514774954180436,3.931087726671834e-06,1.1215962898436516e-05,-0.16925467565766183,-8.235066091710763e-06,-0.1692903969385955
464,0.4525,870.573,-0.421916,0.219367,0.0224248,-0.15585,0.106583,0.37327,-0.185781,-0.185815,4.3866e-06,7.1737e-06,-5.50975e-06,0.369203,0.45247645553776805,4.386609621098714e-06,7.173725731002278e-06,-0.16954455518893674,-5.5097348213850594e-06,-0.16957279019406257
465,0.4535,871.119,0.501031,-0.215645,-0.00945201,0.13458,-0.11136,0.373959,-0.18612,-0.186163,3.92262e-06,1.15195e-05,-8.49143e-06,0.36989,0.45347755665536504,3.922627693553338e-06,1.1519566349704746e-05,-0.1698260318717344,-8.491393947873682e-06,-0.16986172858487902
466,0.4545,871.153,-0.512991,0.261848,0.0255208,-0.184437,0.12804,0.374646,-0.186469,-0.186502,4.46961e-06,6.64496e-06,-5.20249e-06,0.370577,0.45447643881352184,4.469619988789475e-06,6.644982077697037e-06,-0.1701157120344824,-5.20247646706995e-06,-0.1701430977641183
467,0.4555,871.749,0.600381,-0.263003,-0.0129399,0.165927,-0.134865,0.375334,-0.186806,-0.18685,3.90566e-06,1.18998e-05,-8.79985e-06,0.371262,0.45547746291623104,3.905667627090992e-06,1.1899870802967172e-05,-0.17039533592025569,-8.7998112814347e-06,-0.17043183772242965
468,0.4565,871.945,0.259815,-0.13264,0.00298535,0.0592937,-0.068117,0.37602,-0.187151,-0.187193,4.13196e-06,1.05839e-05,-8.12747e-06,0.371948,0.45647626300505295,4.131968536658093e-06,1.058395600961326e-05,-0.17068150016319295,-8.127436972205082e-06,-0.17071633080873738
469,0.4575,872.21,0.0336252,0.024326,0.00377439,-0.0138556,0.00556752,0.376707,-0.187495,-0.187534,4.15182e-06,9.53815e-06,-7.19507e-06,0.372633,0.45747720598228225,4.151828618903508e-06,9.538195488323353e-06,-0.17096673666364592,-7.195044115504423e-06,-0.17099906833044443
470,0.4585,872.509,0.0964242,-0.0404282,0.00739669,0.00786967,-0.0214889,0.377393,-0.187837,-0.187877,4.22013e-06,9.85628e-06,-7.58304e-06,0.373318,0.4584773783654903,4.220138904775794e-06,9.85632857330998e-06,-0.17125021756171022,-7.5830112488128876e-06,-0.17128336689001677
471,0.4595,872.785,-0.0415109,0.0529323,0.00741749,-0.0370884,0.0212398,0.378078,-0.18818,-0.188219,4.23883e-06,9.13817e-06,-7.00008e-06,0.374002,0.4594767776248385,4.238838983816606e-06,9.138211753301206e-06,-0.1715344299918684,-7.0000554994731345e-06,-0.17156673951905876
472,0.4605,873.108,0.0938495,-0.0329665,0.00634887,0.006698,-0.0188378,0.378763,-0.188522,-0.188562,4.23972e-06,9.75771e-06,-7.54418e-06,0.374686,0.46047686170720437,4.2397289876650035e-06,9.757757606587703e-06,-0.17181771677201052,-7.544151542693278e-06,-0.1718508434008027
473,0.4615,873.373,-0.0647628,0.0590865,0.00893132,-0.0440995,0.0248831,0.379448,-0.188865,-0.188903,4.29765e-06,8.94055e-06,-6.9404e-06,0.375369,0.46147763108185247,4.297659234930862e-06,8.940589966810464e-06,-0.17210173458331857,-6.94037591553176e-06,-0.17213319411966943
474,0.4625,873.709,0.109381,-0.0367223,0.00515037,0.0114639,-0.0212182,0.380132,-0.189205,-0.189246,4.25796e-06,9.7354e-06,-7.56513e-06,0.376052,0.4624776237400139,4.257969065113443e-06,9.735447389136453e-06,-0.17238317214646337,-7.565101384443551e-06,-0.17241710374080288
475,0.4635,873.959,-0.0840099,0.0651382,0.0100272,-0.0499354,0.0283324,0.380815,-0.189548,-0.189586,4.35038e-06,8.75643e-06,-6.88068e-06,0.376734,0.4634768371495641,4.350389462892679e-06,8.756468337534073e-06,-0.1726669960398367,-6.880656328145385e-06,-0.1726984340966604
476,0.4645,874.307,0.128693,-0.0436905,0.00405704,0.0174934,-0.0250001,0.381498,-0.189888,-0.189928,4.27758e-06,9.73126e-06,-7.60434e-06,0.377416,0.46447673325498706,4.277589148893313e-06,9.73130734882588e-06,-0.1729482414467547,-7.604311087039406e-06,-0.1729813228554643
477,0.4655,874.544,-0.105015,0.0731832,0.0109916,-0.056386,0.032615,0.382181,-0.19023,-0.190268,4.40092e-06,8.56277e-06,-6.80943e-06,0.378098,0.4654773125227236,4.400929684011956e-06,8.562806660616928e-06,-0.17323104478605245,-6.80940681585529e-06,-0.1732624614094309
478,0.4665,874.903,0.150909,-0.0529311,0.00301154,0.0244857,-0.029794,0.382863,-0.19057,-0.19061,4.29756e-06,9.74206e-06,-7.65737e-06,0.378778,0.4664771089416906,4.297569234479326e-06,9.74210745408044e-06,-0.17351209844899496,-7.657340682420966e-06,-0.17354515730387554
479,0.4675,875.125,-0.129012,0.0833547,0.0119411,-0.0638173,0.0378661,0.383545,-0.190912,-0.19095,4.45095e-06,8.35446e-06,-6.72507e-06,0.379459,0.46747758745438284,4.450959905533125e-06,8.354494898554776e-06,-0.17379470898216964,-6.725047386746397e-06,-0.17382610418671562
480,0.4685,875.497,0.176543,-0.0643601,0.0019412,0.0325847,-0.0356005,0.384226,-0.19125,-0.191291,4.31682e-06,9.77013e-06,-7.72432e-06,0.380139,0.4684772800481325,4.3168293175632755e-06,9.770177727963514e-06,-0.17407391918135184,-7.72429016748788e-06,-0.17410778145648398
481,0.4695,875.703,-0.156735,0.0957295,0.0129451,-0.0724463,0.0441616,0.384907,-0.191592,-0.19163,4.50152e-06,8.12822e-06,-6.62658e-06,0.380819,0.4694776536644003,4.5015301317619105e-06,8.128253033978794e-06,-0.17435633760468872,-6.626558044287023e-06,-0.17438771146775256
482,0.4705,876.089,0.206259,-0.0780874,0.000788916,0.0419885,-0.0425014,0.385587,-0.19193,-0.191971,4.33447e-06,9.81852e-06,-7.80631e-06,0.381497,0.47047723828914734,4.334479393852675e-06,9.818568201813704e-06,-0.17463535800547414,-7.806279530786497e-06,-0.1746691972620864
483,0.4715,876.277,-0.188879,0.110471,0.0140545,-0.0824835,0.051607,0.386267,-0.192272,-0.192309,4.55339e-06,7.88085e-06,-6.51253e-06,0.382176,0.4714775028625955,4.553400366757998e-06,7.88088105396767e-06,-0.1749175844495635,-6.512508793576899e-06,-0.17494811193417692
484,0.4725,876.68,0.240764,-0.0943255,-0.000490621,0.0529129,-0.050618,0.386946,-0.192609,-0.192651,4.34985e-06,9.89052e-06,-7.90499e-06,0.382854,0.47247697536955546,4.34985946062838e-06,9.890568911430364e-06,-0.1751955903769742,-7.904958755688973e-06,-0.17523023143471106
485,0.4735,876.848,-0.226175,0.127823,0.0153106,-0.0941535,0.0603394,0.387625,-0.192951,-0.192988,4.60719e-06,7.6089e-06,-6.38104e-06,0.383532,0.4734771267487987,4.607200613016005e-06,7.608928947799853e-06,-0.17547762525435218,-6.381019641232832e-06,-0.1755081320178392
486,0.4745,877.27,0.280815,-0.113364,-0.00193616,0.0655932,-0.0601025,0.388303,-0.193287,-0.193329,4.36236e-06,9.98974e-06,-8.02243e-06,0.384209,0.47447648298421585,4.362369515176212e-06,9.989789897524304e-06,-0.17575461823484007,-8.022397820384164e-06,-0.17578923581389994
487,0.4755,877.415,-0.26941,0.148096,0.0167501,-0.107702,0.0705247,0.388981,-0.193629,-0.193665,4.66347e-06,7.30859e-06,-6.22983e-06,0.384886,0.4754765170129065,4.663480873912107e-06,7.308616707835114e-06,-0.1760364619573801,-6.229810594615692e-06,-0.17606612411082767
488,0.4765,877.86,0.327243,-0.135559,-0.00358361,0.0802886,-0.0711352,0.389659,-0.193964,-0.194006,4.37146e-06,1.01201e-05,-8.16108e-06,0.385562,0.4764772292945705,4.371469554786955e-06,1.01201512083815e-05,-0.1763124435131328,-8.16104669842943e-06,-0.17634703766402293
489,0.4775,877.978,-0.319451,0.171661,0.018408,-0.1234,0.0823561,0.390336,-0.194306,-0.194342,4.72279e-06,6.97575e-06,-6.05628e-06,0.386238,0.4774771428113376,4.722801152379219e-06,6.9757743306197995e-06,-0.1765940964920466,-6.0562616607251485e-06,-0.1766237385710122
490,0.4785,878.448,0.38096,-0.16133,-0.00546847,0.0972856,-0.0839235,0.391012,-0.19464,-0.194683,4.3766e-06,1.02861e-05,-8.32375e-06,0.386913,0.4784762550217576,4.376609577416701e-06,1.0286152902105883e-05,-0.17686906814099668,-8.323715357638761e-06,-0.1769044620100929
491,0.4795,878.536,-0.377252,0.198945,0.02032,-0.141548,0.0960537,0.391689,-0.194982,-0.195017,4.78567e-06,6.60577e-06,-5.85737e-06,0.387589,0.479477522337151,4.785681451346946e-06,6.605791818214968e-06,-0.17715053078683662,-5.857352845639596e-06,-0.17717933001426966
492,0.4805,879.037,0.442975,-0.191157,-0.00762744,0.116902,-0.0987021,0.392364,-0.195315,-0.195358,4.37723e-06,1.04925e-05,-8.51364e-06,0.388263,0.4804765067840493,4.377239580133363e-06,1.049255504637081e-05,-0.1774244940426708,-8.513603759086052e-06,-0.17745986402896685
493,0.4815,879.089,-0.443865,0.230427,0.0225232,-0.162477,0.111865,0.39304,-0.195657,-0.195692,4.85269e-06,6.19353e-06,-5.62973e-06,0.388937,0.481477647249988,4.852701774415991e-06,6.193549179966951e-06,-0.17770576676533112,-5.629714153077003e-06,-0.177734546559845
494,0.4825,879.625,0.514403,-0.225581,-0.0100995,0.139488,-0.115734,0.393714,-0.195989,-0.196033,4.37274e-06,1.07448e-05,-8.73429e-06,0.38961,0.4824764997597175,4.372749560443978e-06,1.0744857725564216e-05,-0.17797872313750007,-8.734251856212794e-06,-0.1780148912779771
495,0.4835,879.638,-0.520456,0.266646,0.0250573,-0.186554,0.130066,0.394389,-0.196332,-0.196365,4.92447e-06,5.73336e-06,-5.36959e-06,0.390284,0.4834775091997341,4.924482125190366e-06,5.733376435834714e-06,-0.1782606280860014,-5.3695755837246395e-06,-0.1782877450378424
496,0.4845,880.214,0.596477,-0.265213,-0.0129269,0.165435,-0.135313,0.395062,-0.196662,-0.196707,4.36249e-06,1.10489e-05,-8.98968e-06,0.390956,0.48447622559379666,4.3624995156310575e-06,1.1048961039428207e-05,-0.17853175733994564,-8.989639592948961e-06,-0.17856872257914125
497,0.4855,880.392,0.248179,-0.127557,0.00283622,0.0561658,-0.0653825,0.395736,-0.197,-0.197042,4.58806e-06,9.67092e-06,-8.26672e-06,0.391629,0.48547709982657383,4.58807052505783e-06,9.670966763408728e-06,-0.17880936668734204,-8.266685830760068e-06,-0.17884385596966124
498,0.4865,880.643,0.039875,0.0183264,0.00338519,-0.0112717,0.00296946,0.396409,-0.197338,-0.197377,4.60341e-06,8.7021e-06,-7.40717e-06,0.392301,0.48647716239806593,4.603420595605812e-06,8.70213786341445e-06,-0.1790868822186349,-7.407142566973057e-06,-0.1791188972059321
499,0.4875,880.92,0.0842346,-0.0346646,0.00715038,0.00447353,-0.0186642,0.397081,-0.197673,-0.197714,4.67309e-06,8.931e-06,-7.7196e-06,0.392972,0.48747641076104364,4.673100918894946e-06,8.931039881421299e-06,-0.1793618420547477,-7.71957020395675e-06,-0.17939548752948653
500,0.4885,881.184,-0.0299471,0.0449661,0.00678187,-0.0328808,0.0175236,0.397753,-0.19801,-0.198049,4.68428e-06,8.32533e-06,-7.22815e-06,0.393643,0.4884763308445943,4.684290971335159e-06,8.325364655670242e-06,-0.17963835051968202,-7.228123876990011e-06,-0.17967034400013482
501,0.4895,881.484,0.0774728,-0.025496,0.00629296,0.00200628,-0.0151052,0.398425,-0.198345,-0.198385,4.69253e-06,8.81471e-06,-7.66956e-06,0.394313,0.48947692310026536,4.692541009987394e-06,8.814748849728105e-06,-0.17991312564485473,-7.669530588949591e-06,-0.17994592846376822
502,0.4905,881.738,-0.0477987,0.0489839,0.00805281,-0.0382184,0.0200415,0.399096,-0.198681,-0.19872,4.73657e-06,8.15521e-06,-7.18545e-06,0.394983,0.4904766975024659,4.736581217468228e-06,8.15524325381567e-06,-0.18018862854755846,-7.185424184763534e-06,-0.1802206005675867
503,0.4915,882.047,0.0872339,-0.0268727,0.00534789,0.00497703,-0.0162431,0.399767,-0.199015,-0.199055,4.71151e-06,8.76829e-06,-7.67498e-06,0.395653,0.4914771429784104,4.7115210992654255e-06,8.768328441544071e-06,-0.1804623998232755,-7.674950547431614e-06,-0.18049518067166126
504,0.4925,882.292,-0.060508,0.0523204,0.00886934,-0.0420194,0.0220737,0.400437,-0.199351,-0.19939,4.78216e-06,8.00446e-06,-7.1468e-06,0.396322,0.49247676750102687,4.7821714346252264e-06,8.004492035862398e-06,-0.18073771820085727,-7.146774461674887e-06,-0.18076966880680656
505,0.4935,882.609,0.0993182,-0.0307362,0.00455319,0.00875056,-0.0184268,0.401107,-0.199684,-0.199725,4.73256e-06,8.7332e-06,-7.69381e-06,0.396991,0.4934770619964892,4.732571198484692e-06,8.733238134439603e-06,-0.1810104871221504,-7.693780402773243e-06,-0.18104406500382708
506,0.4945,882.844,-0.0734622,0.0568777,0.00951131,-0.0459551,0.0245606,0.401776,-0.20002,-0.200059,4.82488e-06,7.8515e-06,-7.10182e-06,0.397659,0.4944765324365501,4.824891639776396e-06,7.851530823055342e-06,-0.1812856213733346,-7.101794782138349e-06,-0.18131755061147692
507,0.4955,883.168,0.112617,-0.0360115,0.00385538,0.0129515,-0.0212021,0.402445,-0.200353,-0.200394,4.75475e-06,8.70494e-06,-7.72068e-06,0.398327,0.49547667174604704,4.754761303793487e-06,8.704977888074339e-06,-0.18155820787324617,-7.720650195608414e-06,-0.18159176329883242
508,0.4965,883.394,-0.08757,0.0626357,0.0100847,-0.0502891,0.0275592,0.403114,-0.200688,-0.200727,4.86628e-06,7.69271e-06,-7.04998e-06,0.398994,0.49647748037260375,4.866291840377457e-06,7.692739588893716e-06,-0.18183233995392145,-7.049955148996645e-06,-0.18186424787045474
509,0.4975,883.725,0.127314,-0.0424579,0.00319325,0.0176199,-0.0244917,0.403782,-0.201021,-0.201061,4.77715e-06,8.68426e-06,-7.75462e-06,0.399661,0.4974774612859332,4.777161410673969e-06,8.684297708283495e-06,-0.18210474442685476,-7.754589932962297e-06,-0.18213745958277028
510,0.4985,883.941,-0.103197,0.0695071,0.0106454,-0.0551233,0.0310612,0.404449,-0.201355,-0.201394,4.9072e-06,7.52658e-06,-6.99141e-06,0.400327,0.49847661193230897,4.907212040272668e-06,7.526608324814887e-06,-0.18237787582673337,-6.991385560151109e-06,-0.1824097624677825
511,0.4995,884.28,0.14368,-0.0500056,0.0025246,0.02283,-0.0282874,0.405116,-0.201687,-0.201728,4.79911e-06,8.67232e-06,-7.79555e-06,0.400993,0.49947642923447066,4.799121515741689e-06,8.672357604710967e-06,-0.18264928131615465,-7.795519614828272e-06,-0.1826827920086468
512,0.5005,884.486,-0.120616,0.0774671,0.0112279,-0.0605352,0.0350751,0.405783,-0.202022,-0.20206,4.94815e-06,7.35191e-06,-6.926e-06,0.401659,0.5004769136372265,4.948162242168763e-06,7.351937025390498e-06,-0.1829230479484426,-6.925976015370594e-06,-0.18295409628269843
513,0.5015,884.833,0.161963,-0.058658,0.00182135,0.0286549,-0.0326061,0.406449,-0.202353,-0.202394,4.82022e-06,8.67024e-06,-7.84368e-06,0.402324,0.5014765641083656,4.820231617186366e-06,8.670277586553254e-06,-0.18319345566462575,-7.843649238448158e-06,-0.18322694404642692
514,0.5025,885.028,-0.140069,0.0865411,0.0118557,-0.066597,0.0396261,0.407115,-0.202688,-0.202725,4.98951e-06,7.16759e-06,-6.85339e-06,0.402989,0.5024768805684683,4.9895224476514954e-06,7.167615687198037e-06,-0.18346704002903846,-6.853366515624515e-06,-0.18349725118964744
515,0.5035,885.385,0.182403,-0.068461,0.00106395,0.0351661,-0.0374793,0.40778,-0.203018,-0.203059,4.84017e-06,8.67912e-06,-7.89944e-06,0.403653,0.503476359984119,4.8401817136500824e-06,8.679157663671333e-06,-0.18373645145049944,-7.899408799527663e-06,-0.18376991756992977
516,0.5045,885.567,-0.161791,0.0967878,0.0125455,-0.0733799,0.0447509,0.408445,-0.203352,-0.20339,5.03151e-06,6.97252e-06,-6.7731e-06,0.404317,0.5044765042746278,5.031522658072163e-06,6.9725443081480876e-06,-0.18400903795123535,-6.773077062649513e-06,-0.18404004501865512
517,0.5055,885.934,0.205234,-0.0794882,0.000237807,0.0424352,-0.0429484,0.40911,-0.203682,-0.203724,4.85876e-06,8.70007e-06,-7.9634e-06,0.40498,0.505477313882283,4.858771803784023e-06,8.700107845704963e-06,-0.18427827054289048,-7.963368292229767e-06,-0.18431253013607118
518,0.5065,886.104,-0.186016,0.108288,0.01331,-0.0809561,0.0504944,0.409774,-0.204016,-0.204054,5.07437e-06,6.76556e-06,-6.6845e-06,0.405643,0.506477282771632,5.074382874559191e-06,6.76558288636997e-06,-0.18455067610626774,-6.68447765872493e-06,-0.18458166259182873
519,0.5075,886.483,0.230691,-0.0918323,-0.000668841,0.0505358,-0.0490613,0.410437,-0.204345,-0.204387,4.87579e-06,8.73423e-06,-8.0362e-06,0.406305,0.5074764083836512,4.875801886683462e-06,8.73426814340661e-06,-0.1848189148061431,-8.036167709835063e-06,-0.18485315169274152
520,0.5085,886.638,-0.212982,0.121138,0.0141601,-0.0894,0.0569073,0.4111,-0.204679,-0.204716,5.11824e-06,6.54556e-06,-6.58691e-06,0.406967,0.5084761966355922,5.118253098235215e-06,6.545581422212621e-06,-0.1850911398244891,-6.5868883063480155e-06,-0.18512129089451734
521,0.5095,887.03,0.259017,-0.105599,-0.00166625,0.0595438,-0.0558715,0.411763,-0.205008,-0.205049,4.89111e-06,8.78278e-06,-8.11856e-06,0.407629,0.5094766479669306,4.8911219614478085e-06,8.78281856864227e-06,-0.18535920074104806,-8.118527044631563e-06,-0.18539260032912153
522,0.5105,887.169,-0.242933,0.135444,0.0151056,-0.0987885,0.0640447,0.412425,-0.205341,-0.205378,5.16328e-06,6.31131e-06,-6.47957e-06,0.40829,0.5104762523404263,5.163293329779606e-06,6.3113299164641035e-06,-0.18563043096486265,-6.479549007676333e-06,-0.18566056208148796
523,0.5115,887.576,0.290463,-0.120906,-0.00276389,0.0695378,-0.0634363,0.413087,-0.205669,-0.205711,4.90457e-06,8.84694e-06,-8.21125e-06,0.408951,0.511476518671101,4.9045820273985186e-06,8.846979134391475e-06,-0.18589750038172748,-8.211216287801193e-06,-0.1859316919686831
524,0.5125,887.697,-0.276122,0.151322,0.0161556,-0.109201,0.0719657,0.413749,-0.206003,-0.206039,5.20964e-06,6.06158e-06,-6.36169e-06,0.409611,0.5124774473973155,5.209653570092954e-06,6.061598371465138e-06,-0.18616936521264593,-6.3616697645318965e-06,-0.18619866258814233
525,0.5135,888.12,0.325286,-0.137876,-0.0039709,0.0805992,-0.0718166,0.41441,-0.206329,-0.206372,4.91604e-06,8.92799e-06,-8.3151e-06,0.410271,0.5134775254794384,4.916052083636657e-06,8.928029854526898e-06,-0.18643463075895328,-8.315065429642665e-06,-0.18646961331770018
526,0.5145,888.222,-0.312809,0.168893,0.0173191,-0.12072,0.080732,0.41507,-0.206663,-0.206699,5.25745e-06,5.79507e-06,-6.23244e-06,0.410931,0.5144767503541916,5.257463820518282e-06,5.795086791549053e-06,-0.18670631621828238,-6.232420578400344e-06,-0.18673559426389053
527,0.5155,888.663,0.363753,-0.156642,-0.00529629,0.0928122,-0.0810758,0.41573,-0.206989,-0.207032,4.92538e-06,9.02722e-06,-8.43095e-06,0.411589,0.5154766349350413,4.925392129706552e-06,9.02726074536453e-06,-0.18697140674709123,-8.430914459678363e-06,-0.18700636622496702
528,0.5165,888.743,-0.353262,0.188284,0.0186048,-0.13343,0.090408,0.41639,-0.207323,-0.207358,5.30686e-06,5.51045e-06,-6.09092e-06,0.412248,0.5164771796575369,5.306874081512092e-06,5.51046518260101e-06,-0.1872429129531773,-6.090901450428454e-06,-0.18727135895341607
529,0.5175,889.206,0.406138,-0.17734,-0.0067491,0.106263,-0.0912797,0.417049,-0.207648,-0.207691,4.93244e-06,9.14599e-06,-8.55969e-06,0.412906,0.51747686747989,4.932452164485568e-06,9.146031824780465e-06,-0.18750701608738352,-8.559653365991515e-06,-0.18754195253455275
530,0.5185,889.262,-0.397755,0.209625,0.0200218,-0.147418,0.10106,0.417708,-0.207981,-0.208016,5.358e-06,5.20635e-06,-5.93625e-06,0.413564,0.5184772143136385,5.358014354195362e-06,5.206363553167392e-06,-0.1877775312077592,-5.936232380543416e-06,-0.18780595849668646
531,0.5195,889.747,0.45272,-0.200113,-0.00833842,0.121041,-0.102496,0.418366,-0.208305,-0.208349,4.93708e-06,9.28568e-06,-8.70223e-06,0.414221,0.5194767011157528,4.937092187295988e-06,9.285723111984723e-06,-0.18804064866031878,-8.702192135667808e-06,-0.18807637408581257
532,0.5205,889.778,-0.446567,0.23305,0.0215789,-0.162773,0.112756,0.419024,-0.208639,-0.208674,5.41102e-06,4.88137e-06,-5.76749e-06,0.414878,0.5204768457966014,5.411034639690726e-06,4.88138191401255e-06,-0.18831179779923934,-5.767473368112341e-06,-0.18834020638916316
533,0.5215,890.287,0.503785,-0.225105,-0.0100734,0.137235,-0.114794,0.419682,-0.208962,-0.209006,4.93916e-06,9.44771e-06,-8.85949e-06,0.415534,0.5214776487892108,4.93917219768214e-06,9.447754629743343e-06,-0.1885739307517994,-8.859450754794551e-06,-0.18860963271339737
534,0.5225,890.29,-0.49998,0.258693,0.0232851,-0.179583,0.125564,0.420339,-0.209296,-0.20933,5.46605e-06,4.5341e-06,-5.58372e-06,0.41619,0.5224775880485435,5.466064938897119e-06,4.53411027900863e-06,-0.1888449018042434,-5.583704411060708e-06,-0.18887248060873973
535,0.5235,890.827,0.559622,-0.252465,-0.0119631,0.154937,-0.128243,0.420995,-0.209618,-0.209663,4.93853e-06,9.63348e-06,-9.0324e-06,0.416845,0.5234766610064054,4.938542194521389e-06,9.633526402152981e-06,-0.18910605169847305,-9.032359208016594e-06,-0.18914254110512885
536,0.5245,890.988,0.220686,-0.114672,0.00289567,0.0483929,-0.0587711,0.421651,-0.209948,-0.20999,5.15416e-06,8.25069e-06,-8.29508e-06,0.417501,0.5244763895711433,5.154173282617691e-06,8.25072403709548e-06,-0.18937360255309355,-8.295045595962947e-06,-0.18940764814682387
537,0.5255,891.225,0.0458479,0.0115536,0.00282451,-0.00837377,9.38516e-05,0.422307,-0.210276,-0.210317,5.15912e-06,7.42776e-06,-7.56046e-06,0.418155,0.5254767741729762,5.159133308341168e-06,7.427787585889689e-06,-0.1896394444110081,-7.560431419806335e-06,-0.1896726685126885
538,0.5265,891.478,0.0665253,-0.0261284,0.0067482,-0.000322351,-0.0145078,0.422962,-0.210604,-0.210644,5.23017e-06,7.53906e-06,-7.77447e-06,0.41881,0.5264762887653538,5.230183677262801e-06,7.539088418884177e-06,-0.1899051990870918,-7.774439778840403e-06,-0.18993760223106115
539,0.5275,891.728,-0.0149631,0.0346914,0.00581446,-0.0272013,0.0127308,0.423617,-0.210931,-0.210971,5.23036e-06,7.09053e-06,-7.40667e-06,0.419464,0.5274764582542446,5.2303736783887445e-06,7.090555137923005e-06,-0.19017005678039745,-7.406642570706445e-06,-0.19020244933027086
540,0.5285,891.998,0.0566687,-0.0158736,0.00606521,-0.00373379,-0.010331,0.424272,-0.211258,-0.211298,5.24788e-06,7.41108e-06,-7.717e-06,0.420117,0.5284772830687463,5.24789377021051e-06,7.4111074621630024e-06,-0.19043482787939625,-7.716970224058706e-06,-0.19046720983863752
541,0.5295,892.242,-0.027147,0.0365522,0.00681496,-0.0307852,0.0141044,0.424926,-0.211585,-0.211625,5.27429e-06,6.95102e-06,-7.38121e-06,0.42077,0.529477234160239,5.27430390917516e-06,6.951044158487463e-06,-0.1906995124123999,-7.381182758892102e-06,-0.1907318837844717
542,0.5305,892.519,0.0610878,-0.0151304,0.00537165,-0.00242322,-0.0103499,0.425579,-0.211911,-0.211952,5.26613e-06,7.34424e-06,-7.70891e-06,0.421423,0.5304763089565652,5.266143866089479e-06,7.344266969022684e-06,-0.19096330137141704,-7.708880286450004e-06,-0.19099647119607477
543,0.5315,892.756,-0.0338032,0.0374362,0.0073609,-0.0327043,0.0148502,0.426233,-0.212238,-0.212277,5.31139e-06,6.83361e-06,-7.36201e-06,0.422075,0.5314775678385895,5.311404105423634e-06,6.833633349190293e-06,-0.19122781312184034,-7.361982900522257e-06,-0.19125935462206534
544,0.5325,893.038,0.0667396,-0.0162728,0.00485314,-0.000658087,-0.0111286,0.426885,-0.212564,-0.212604,5.28687e-06,7.28359e-06,-7.71039e-06,0.422726,0.5324764168021978,5.2868839754971475e-06,7.283616525466385e-06,-0.1914914298828959,-7.71036027502614e-06,-0.19152376957890238
545,0.5335,893.269,-0.0397737,0.0389921,0.00771697,-0.0344583,0.0157925,0.427538,-0.21289,-0.21293,5.34537e-06,6.71866e-06,-7.34003e-06,0.423378,0.5334774507043678,5.345384286536969e-06,6.718682570294732e-06,-0.19175496071889386,-7.340003062017431e-06,-0.19178728987387772
546,0.5345,893.554,0.0725283,-0.0182175,0.00445333,0.00118921,-0.0122089,0.42819,-0.213215,-0.213256,5.30912e-06,7.2245e-06,-7.71594e-06,0.424028,0.5344776040167762,5.309134093467449e-06,7.224526096694106e-06,-0.19201759767584303,-7.715910232186651e-06,-0.1920507242752384
547,0.5355,893.781,-0.0457711,0.0411224,0.00798052,-0.0362502,0.0169461,0.428841,-0.213541,-0.213581,5.37765e-06,6.6034e-06,-7.31526e-06,0.424679,0.5354768741641331,5.3776644595160406e-06,6.603421802475751e-06,-0.19228095700909698,-7.31523324359884e-06,-0.19231326512464997
548,0.5365,894.068,0.0784993,-0.0206702,0.0041177,0.00311573,-0.0134853,0.429492,-0.213866,-0.213906,5.33204e-06,7.16702e-06,-7.72423e-06,0.425329,0.5364767950481477,5.332054215267945e-06,7.167045683154072e-06,-0.19254342304502792,-7.724200168257589e-06,-0.19257572066214945
549,0.5375,894.291,-0.0519915,0.0436779,0.00819872,-0.0381293,0.0182689,0.430143,-0.214192,-0.214231,5.40896e-06,6.48713e-06,-7.28831e-06,0.425979,0.5374773670925876,5.408974628418051e-06,6.487151041456585e-06,-0.1928066109871498,-7.288283440320953e-06,-0.19283809091545867
550,0.5385,894.58,0.0847514,-0.0234975,0.00381265,0.00514335,-0.0149158,0.430793,-0.214516,-0.214556,5.35512e-06,7.1115e-06,-7.73467e-06,0.426628,0.5384770522436746,5.355134338635992e-06,7.111525286873643e-06,-0.1930680992817987,-7.734640087520006e-06,-0.19310037591229057
551,0.5395,894.798,-0.0585282,0.0465666,0.00839757,-0.040118,0.0197332,0.431443,-0.214841,-0.21488,5.43969e-06,6.36949e-06,-7.25954e-06,0.427276,0.5394773874013392,5.439704795051625e-06,6.369510285209046e-06,-0.19333030953805752,-7.259513649549021e-06,-0.19336176904252123
552,0.5405,895.091,0.0913518,-0.0266292,0.00351877,0.00728796,-0.0164789,0.432092,-0.215165,-0.215205,5.37808e-06,7.05819e-06,-7.747e-06,0.427925,0.54047683251062,5.3780944619941096e-06,7.058214908983729e-06,-0.19359162818186082,-7.746969992061814e-06,-0.19362388387161544
553,0.5415,895.304,-0.0654355,0.0497376,0.00859173,-0.0422295,0.0213239,0.432741,-0.21549,-0.215529,5.47006e-06,6.25028e-06,-7.22915e-06,0.428573,0.5414769264703059,5.470074960767235e-06,6.250299533050452e-06,-0.19385366831887296,-7.22912386974528e-06,-0.19388510741274223
554,0.5425,895.599,0.0983423,-0.030028,0.00322504,0.00955976,-0.0181638,0.43339,-0.215813,-0.215854,5.40074e-06,7.00724e-06,-7.76106e-06,0.42922,0.5424776697016376,5.400754583995138e-06,7.0072645508290066e-06,-0.1941140115363129,-7.76102988309102e-06,-0.194147052184502
555,0.5435,895.808,-0.072746,0.0531634,0.00878954,-0.0444717,0.0230333,0.434038,-0.216138,-0.216177,5.5002e-06,6.12938e-06,-7.19726e-06,0.429867,0.543477519147838,5.500215126019725e-06,6.12939878474883e-06,-0.19437588192632027,-7.197234099809435e-06,-0.19440730065425593
556,0.5445,896.106,0.105749,-0.0336743,0.0029252,0.0119652,-0.0199647,0.434685,-0.216461,-0.216501,5.42301e-06,6.95875e-06,-7.77677e-06,0.430514,0.5444764722292008,5.423024704631629e-06,6.958774212195706e-06,-0.19463605649600302,-7.776739761045093e-06,-0.19466827040946066
557,0.5455,896.31,-0.08048,0.0568298,0.00899568,-0.0468499,0.0248572,0.435333,-0.216785,-0.216824,5.53019e-06,6.0067e-06,-7.1639e-06,0.43116,0.5454776173191827,5.530205291481849e-06,6.006718040296732e-06,-0.19489695214632075,-7.1638743392998805e-06,-0.19492835055291402
558,0.5465,896.611,0.113586,-0.0375577,0.00261572,0.0145084,-0.021879,0.435979,-0.217107,-0.217148,5.44484e-06,6.91279e-06,-7.7941e-06,0.431806,0.5464763184056904,5.444854823233314e-06,6.9128138933116645e-06,-0.1951561535940569,-7.794069626032574e-06,-0.1951891515152976
559,0.5475,896.81,-0.0886493,0.060729,0.00921278,-0.0493672,0.0267937,0.436626,-0.217431,-0.21747,5.56006e-06,5.88219e-06,-7.12912e-06,0.432451,0.5474772123379708,5.560075457156088e-06,5.882207300134112e-06,-0.1954168807602107,-7.1290945878876855e-06,-0.19544825888998352
560,0.5485,897.114,0.121864,-0.0416728,0.00229466,0.0171915,-0.0239051,0.437272,-0.217753,-0.217793,5.4662e-06,6.86939e-06,-7.81303e-06,0.433096,0.5484772055801823,5.466214939797709e-06,6.869413594401408e-06,-0.1956759148178845,-7.812999478384874e-06,-0.19570808713784105
561,0.5495,897.308,-0.0972596,0.0648565,0.00944227,-0.0520249,0.0288416,0.437917,-0.218077,-0.218115,5.58984e-06,5.75581e-06,-7.09292e-06,0.433741,0.5494762955496595,5.5898556232669705e-06,5.755826564701749e-06,-0.19593647360867994,-7.092894845350806e-06,-0.19596702744215633
562,0.5505,897.616,0.130586,-0.0460159,0.00196098,0.0200155,-0.0260419,0.438563,-0.218398,-0.218438,5.48707e-06,6.82857e-06,-7.83353e-06,0.434385,0.5504775806168403,5.487085054101115e-06,6.828593314800457e-06,-0.19619453657932884,-7.83349931798849e-06,-0.1962266881548299
563,0.5515,897.804,-0.106312,0.0692091,0.00968485,-0.0548233,0.0309996,0.439207,-0.218721,-0.218759,5.61955e-06,5.62757e-06,-7.05532e-06,0.435029,0.5514764097672231,5.619565789594105e-06,5.627585834888649e-06,-0.19645412381841776,-7.0552951112468065e-06,-0.1964846579815599
564,0.5525,898.115,0.13975,-0.0505839,0.00161422,0.0229798,-0.0282881,0.439852,-0.219042,-0.219082,5.50745e-06,6.79033e-06,-7.85558e-06,0.435672,0.5524774348474069,5.507465165921488e-06,6.7903530542867685e-06,-0.19671202065001614,-7.855549145063812e-06,-0.19674415152656832
565,0.5535,898.298,-0.115805,0.0737831,0.00994078,-0.0577615,0.0332665,0.440496,-0.219365,-0.219403,5.64918e-06,5.49748e-06,-7.01634e-06,0.436315,0.553477552318709,5.649195956580755e-06,5.4974951111397274e-06,-0.1969714407687415,-7.016315385577343e-06,-0.19700195527421305
566,0.5545,898.613,0.149353,-0.0553732,0.00125431,0.026083,-0.0306421,0.441139,-0.219685,-0.219726,5.52734e-06,6.75463e-06,-7.87918e-06,0.436957,0.5544767595955626,5.5273552757029165e-06,6.754652812634987e-06,-0.19722836879701855,-7.879148959388793e-06,-0.19726128175917756
567,0.5555,898.79,-0.12573,0.0785745,0.01021,-0.0608373,0.0356401,0.441782,-0.220008,-0.220046,5.67874e-06,5.36555e-06,-6.976e-06,0.4376,0.5554766095693002,5.678756124005702e-06,5.365564394566036e-06,-0.1974876221622247,-6.975975667788958e-06,-0.1975181170531759
568,0.5565,899.11,0.159386,-0.0603793,0.000881376,0.0293224,-0.0331017,0.442425,-0.220327,-0.220368,5.54674e-06,6.72145e-06,-7.90427e-06,0.438241,0.5564771026533089,5.546755383223356e-06,6.7214725889552795e-06,-0.1977435827828654,-7.904238761291538e-06,-0.19777647462168402
569,0.5575,899.28,-0.136078,0.0835777,0.0104923,-0.0640473,0.0381179,0.443067,-0.22065,-0.220688,5.70823e-06,5.23185e-06,-6.93435e-06,0.438883,0.5574766817837806,5.708246291868946e-06,5.231863686061544e-06,-0.19800266976082703,-6.9343259574417004e-06,-0.19803314508034142
570,0.5585,899.604,0.169836,-0.065596,0.000495782,0.0326941,-0.0356637,0.443709,-0.220969,-0.22101,5.56566e-06,6.69073e-06,-7.93083e-06,0.439523,0.5584769028500935,5.56567548826159e-06,6.690752383020637e-06,-0.19825846610748687,-7.930798551103457e-06,-0.1982913368365219
571,0.5595,899.769,-0.146834,0.0887857,0.0107872,-0.0673874,0.0406965,0.44435,-0.221291,-0.221329,5.73764e-06,5.09642e-06,-6.89143e-06,0.440164,0.5594762067875161,5.737656460391705e-06,5.096432986739785e-06,-0.19851658532197647,-6.891406254205812e-06,-0.19854704111307053
572,0.5605,900.097,0.180689,-0.0710159,9.80299e-05,0.0361933,-0.0383245,0.444991,-0.22161,-0.221651,5.5841e-06,6.66238e-06,-7.95879e-06,0.440804,0.5604761514841039,5.584115591039662e-06,6.66240219371339e-06,-0.19877221775571785,-7.958758328929783e-06,-0.19880506742136705
573,0.5615,900.255,-0.157981,0.09419,0.0110941,-0.0708518,0.0433715,0.445632,-0.221932,-0.221969,5.76696e-06,4.95935e-06,-6.84729e-06,0.441444,0.5614767373507152,5.766976628907017e-06,4.9593622974963836e-06,-0.19903017156880776,-6.847266557308274e-06,-0.19905980690420266
574,0.5625,900.589,0.191924,-0.0766295,-0.000311231,0.0398137,-0.0410793,0.446272,-0.22225,-0.222291,5.60208e-06,6.63632e-06,-7.9881e-06,0.442083,0.5624764023212885,5.6020956917812725e-06,6.636342020360786e-06,-0.19928483947990494,-7.988068095210465e-06,-0.19931766812849439
575,0.5635,900.74,-0.169498,0.0997802,0.0114123,-0.0744337,0.046138,0.446912,-0.222571,-0.222609,5.79619e-06,4.82075e-06,-6.802e-06,0.442722,0.5634767072822178,5.7962067978589715e-06,4.820761619894753e-06,-0.1995418277976002,-6.8019768664218105e-06,-0.19957224463022039
576,0.5645,901.078,0.203518,-0.0824257,-0.00073122,0.043548,-0.0439225,0.447552,-0.222889,-0.22293,5.61962e-06,6.61244e-06,-8.01867e-06,0.44336,0.5644776526432285,5.619635790043986e-06,6.612461862287589e-06,-0.19979633302788424,-8.018637850604193e-06,-0.19982914070566804
577,0.5655,901.223,-0.181359,0.105544,0.011741,-0.0781253,0.0489898,0.448191,-0.22321,-0.223247,5.82531e-06,4.68072e-06,-6.75565e-06,0.443998,0.5654776733358513,5.825326967245914e-06,4.680730954609302e-06,-0.20005315718250016,-6.755627180665691e-06,-0.20008275466812753
578,0.5665,901.566,0.215444,-0.0883916,-0.00116103,0.0473876,-0.0468478,0.448829,-0.223527,-0.223568,5.63672e-06,6.5906e-06,-8.05041e-06,0.444636,0.5664767667683548,5.636735886271893e-06,6.590621718149947e-06,-0.2003067001429909,-8.050377595547609e-06,-0.200339486896152
579,0.5675,901.703,-0.193535,0.111468,0.0120792,-0.0819173,0.0519199,0.449467,-0.223848,-0.223885,5.85431e-06,4.53942e-06,-6.70833e-06,0.445273,0.5674764978258493,5.854327136400883e-06,4.539430303207581e-06,-0.2005633604960545,-6.708307499159183e-06,-0.20059293910450848
580,0.5685,902.052,0.227672,-0.0945123,-0.00159962,0.0513227,-0.0498476,0.450105,-0.224164,-0.224206,5.6534e-06,6.57064e-06,-8.08323e-06,0.44591,0.5684768669152687,5.653415980466647e-06,6.5706615866023554e-06,-0.2008159425640691,-8.083197330810421e-06,-0.20084950758961095
581,0.5695,902.183,-0.205993,0.117535,0.0124257,-0.0857994,0.0549206,0.450742,-0.224485,-0.224522,5.88317e-06,4.39699e-06,-6.66015e-06,0.446546,0.5694763049667182,5.883187305988358e-06,4.396999666811396e-06,-0.20107243947654918,-6.660127821245254e-06,-0.2011019992494293
582,0.5705,902.537,0.240166,-0.100771,-0.00204585,0.0553425,-0.0529137,0.451379,-0.224801,-0.224842,5.66968e-06,6.55241e-06,-8.117e-06,0.447182,0.5704763798630197,5.669696072629904e-06,6.552431467188313e-06,-0.20132486070102062,-8.116967057270053e-06,-0.20135760571045458
583,0.5715,902.66,-0.218697,0.123729,0.0127795,-0.0897601,0.057983,0.452016,-0.225122,-0.225158,5.91188e-06,4.25362e-06,-6.61122e-06,0.447818,0.5714770920099732,5.911897475119332e-06,4.253629046546692e-06,-0.2015811942769955,-6.611198145933805e-06,-0.20160993683663242
584,0.5725,903.02,0.252889,-0.107149,-0.00249845,0.0594347,-0.0560368,0.452652,-0.225437,-0.225478,5.68559e-06,6.53572e-06,-8.15161e-06,0.448453,0.5724768693359807,5.68560616298619e-06,6.5357413578936985e-06,-0.2018326565934042,-8.151576775694558e-06,-0.20186538078363336
585,0.5735,903.136,-0.231606,0.130029,0.0131392,-0.0937865,0.0610974,0.453288,-0.225757,-0.225794,5.94041e-06,4.10949e-06,-6.56167e-06,0.449088,0.5734772827226133,5.940427644235413e-06,4.109498443982673e-06,-0.20208802928148506,-6.561648472236392e-06,-0.20211755147823762
586,0.5745,903.501,0.265797,-0.113626,-0.00295605,0.0635861,-0.0592068,0.453923,-0.226072,-0.226113,5.70114e-06,6.52035e-06,-8.18692e-06,0.449722,0.5744767580969892,5.701156251536332e-06,6.520371257590085e-06,-0.20233933197000997,-8.186886487293599e-06,-0.20237203538697457
587,0.5755,903.61,-0.244677,0.136414,0.0135032,-0.0978649,0.0642534,0.454558,-0.226392,-0.226428,5.96876e-06,3.96482e-06,-6.51166e-06,0.450356,0.5754768683397771,5.968777813114556e-06,3.964827859803677e-06,-0.20259454254790932,-6.511638799167052e-06,-0.202623248627665
588,0.5765,903.981,0.278847,-0.12018,-0.00341715,0.0677825,-0.0624128,0.455193,-0.226706,-0.226748,5.71636e-06,6.50608e-06,-8.22277e-06,0.450989,0.5764776138542465,5.716376338504858e-06,6.506101164482914e-06,-0.20284488855516913,-8.22273619316416e-06,-0.20287836836676887
589,0.5775,904.082,-0.257863,0.142862,0.0138702,-0.101981,0.0674395,0.455827,-0.227026,-0.227062,5.99688e-06,3.81984e-06,-6.46132e-06,0.451623,0.5774774175657169,5.9968979813085355e-06,3.819847295583045e-06,-0.20309993738084298,-6.461299125737341e-06,-0.20312862526671227
590,0.5785,904.459,0.291989,-0.126787,-0.0038802,0.0720083,-0.0656431,0.45646,-0.22734,-0.227381,5.73128e-06,6.49268e-06,-8.25901e-06,0.452255,0.5784762768766551,5.73129642389425e-06,6.4927010774429306e-06,-0.20335012471903768,-8.258975894515075e-06,-0.20338278669434917
591,0.5795,904.552,-0.271114,0.149348,0.0142385,-0.106118,0.0706438,0.457094,-0.227659,-0.227695,6.02477e-06,3.67478e-06,-6.41082e-06,0.452888,0.5794773481422539,6.024788149039395e-06,3.674786752005943e-06,-0.20360421549961816,-6.410799450740079e-06,-0.2036328852318019
592,0.5805,904.935,0.305172,-0.133422,-0.00434352,0.0762475,-0.0688853,0.457727,-0.227972,-0.228014,5.74592e-06,6.4799e-06,-8.29546e-06,0.45352,0.5804774738100069,5.7459365079282065e-06,6.479920994673094e-06,-0.2038534483731873,-8.295425592774741e-06,-0.2038868858261642
593,0.5815,905.021,-0.284377,0.155847,0.0146064,-0.110259,0.0738536,0.458359,-0.228292,-0.228327,6.0524e-06,3.52992e-06,-6.36034e-06,0.454151,0.5814766512802776,6.052418315860564e-06,3.52992623020576e-06,-0.2041081745113521,-6.3603197730799366e-06,-0.20413603023776616
594,0.5825,905.41,0.318343,-0.140058,-0.00480538,0.080483,-0.0721264,0.458991,-0.228604,-0.228646,5.76031e-06,6.46745e-06,-8.33196e-06,0.454782,0.582476460430299,5.7603265906092105e-06,6.467470913928963e-06,-0.20435645402728597,-8.331925289262188e-06,-0.2043898703544691
595,0.5835,905.488,-0.297597,0.16233,0.0149722,-0.114389,0.0770553,0.459623,-0.228923,-0.228959,6.07973e-06,3.38551e-06,-6.31005e-06,0.455413,0.5834769016594195,6.079748481546687e-06,3.385515730869315e-06,-0.20461022384001415,-6.3100300916607566e-06,-0.20463885735654952
596,0.5845,905.883,0.331444,-0.146668,-0.00526397,0.0846968,-0.0753525,0.460254,-0.229235,-0.229277,5.77448e-06,6.45507e-06,-8.36831e-06,0.456043,0.5844763908900557,5.774496672383833e-06,6.455090834078803e-06,-0.2048583467409908,-8.368274985737223e-06,-0.20489174198912252
597,0.5855,905.954,-0.310718,0.168772,0.0153339,-0.118487,0.0802352,0.460885,-0.229554,-0.229589,6.10674e-06,3.24184e-06,-6.26014e-06,0.456674,0.5854765109974172,6.106758646096111e-06,3.241845254686737e-06,-0.2051119564754771,-6.260120405388037e-06,-0.2051397770701372
598,0.5865,906.354,0.344418,-0.153222,-0.00571744,0.0888706,-0.0785498,0.461516,-0.229865,-0.229907,5.78846e-06,6.44247e-06,-8.40433e-06,0.457303,0.5864772623797125,5.788476753254557e-06,6.442490752656127e-06,-0.20535912821981483,-8.404294683739266e-06,-0.20539250243556606
599,0.5875,906.418,-0.323679,0.175142,0.0156897,-0.122536,0.0833789,0.462146,-0.230184,-0.230219,6.13341e-06,3.0992e-06,-6.21081e-06,0.457932,0.5874770579575506,6.13342880950718e-06,3.099204802570199e-06,-0.20561257823048662,-6.210790712946057e-06,-0.205640381303692
600,0.5885,906.824,0.357205,-0.159691,-0.00616388,0.0929856,-0.0817035,0.462776,-0.230495,-0.230537,5.80229e-06,6.42934e-06,-8.43981e-06,0.458561,0.5884774836050537,5.802306833224691e-06,6.429360668303019e-06,-0.20585959430566636,-8.439774384916277e-06,-0.20589294750228349
601,0.5895,906.881,-0.336422,0.18141,0.0160378,-0.126516,0.0864719,0.463405,-0.230813,-0.230848,6.1597e-06,2.95789e-06,-6.16224e-06,0.45919,0.589476950241546,6.159718970888406e-06,2.957894374544523e-06,-0.20611209080560589,-6.162221013461533e-06,-0.20613987639617692
602,0.5905,907.292,0.369744,-0.166045,-0.00660138,0.0970224,-0.0847991,0.464034,-0.231123,-0.231165,5.81598e-06,6.41538e-06,-8.47456e-06,0.459817,0.590477045740309,5.815996912739152e-06,6.415400578552166e-06,-0.2063581579150835,-8.47452409102889e-06,-0.20639149017246883
603,0.5915,907.342,-0.348885,0.187548,0.0163762,-0.130409,0.0894993,0.464662,-0.231441,-0.231476,6.18559e-06,2.81821e-06,-6.11464e-06,0.460445,0.5914761790200469,6.185609130904268e-06,2.8182139710786203e-06,-0.20661049589700098,-6.114621305619572e-06,-0.20663826404369923
604,0.5925,907.758,0.381975,-0.172253,-0.007028,0.100962,-0.0878214,0.465291,-0.231751,-0.231793,5.82958e-06,6.4003e-06,-8.50837e-06,0.461072,0.592477532429283,5.829596992024122e-06,6.400320482047306e-06,-0.2068564085248462,-8.50833380394711e-06,-0.20688971985614535
605,0.5935,907.801,-0.361007,0.193525,0.016703,-0.134194,0.0924461,0.465918,-0.232069,-0.232104,6.21104e-06,2.68047e-06,-6.06822e-06,0.461699,0.5934763289320986,6.211059288441234e-06,2.680473592420185e-06,-0.2071085880882596,-6.068201588438349e-06,-0.2071363388020362
606,0.5945,908.223,0.393835,-0.178284,-0.00744181,0.104784,-0.0907557,0.466546,-0.232378,-0.232421,5.84312e-06,6.38377e-06,-8.54105e-06,0.462325,0.5944773463532393,5.843137071082083e-06,6.383790376318643e-06,-0.20735355368540653,-8.541013525320551e-06,-0.20738763674980687
607,0.5955,908.259,-0.372727,0.19931,0.0170162,-0.137853,0.0952974,0.467173,-0.232696,-0.23273,6.23603e-06,2.54496e-06,-6.02316e-06,0.462952,0.5954773971325598,6.236049444163783e-06,2.5449632383711673e-06,-0.2076055751817928,-6.023141860822534e-06,-0.20763251613423783
608,0.5965,908.686,0.405264,-0.184108,-0.00784093,0.10847,-0.093587,0.467799,-0.233004,-0.233047,5.85663e-06,6.3655e-06,-8.57239e-06,0.463577,0.5964764786630574,5.856647150137562e-06,6.365520259787871e-06,-0.20784959508364287,-8.572353257130239e-06,-0.20788365681872167
609,0.5975,908.715,-0.383985,0.204875,0.0173141,-0.141367,0.0980386,0.468425,-0.233322,-0.233356,6.26053e-06,2.41199e-06,-5.97967e-06,0.464203,0.597476185814392,6.260549597181253e-06,2.4119929089572167e-06,-0.2081014588639427,-5.979652121790302e-06,-0.20812838295662917
610,0.5985,909.147,0.416202,-0.189695,-0.00822347,0.112001,-0.0963006,0.469051,-0.23363,-0.233672,5.87013e-06,6.34518e-06,-8.60219e-06,0.464827,0.598476518978325,5.870147229192213e-06,6.345200130652984e-06,-0.20834532605713707,-8.602153001247004e-06,-0.20837857485521305
611,0.5995,909.17,-0.394723,0.210189,0.0175947,-0.144716,0.100655,0.469677,-0.233947,-0.233981,6.28451e-06,2.28186e-06,-5.93795e-06,0.465452,0.5994774785468626,6.284529747491163e-06,2.2818626035370215e-06,-0.20859624081668637,-5.937932370359e-06,-0.20862314808707239
612,0.6005,909.607,0.426591,-0.195015,-0.00858763,0.115359,-0.0988822,0.470302,-0.234255,-0.234297,5.88366e-06,6.32252e-06,-8.63026e-06,0.466076,0.6004774644339925,5.883677308693436e-06,6.322539987113629e-06,-0.20883995564050528,-8.630222759431483e-06,-0.20887318366457508
613,0.6015,909.624,-0.404881,0.215224,0.0178563,-0.147882,0.103133,0.470926,-0.234572,-0.234606,6.30795e-06,2.15485e-06,-5.89817e-06,0.4667,0.6014764740303775,6.307969895091858e-06,2.15485232168966e-06,-0.20909071362732645,-5.898152605876561e-06,-0.20911760408592284
614,0.6025,910.065,0.436373,-0.20004,-0.00893167,0.118524,-0.101318,0.471551,-0.234879,-0.234921,5.89725e-06,6.29723e-06,-8.65642e-06,0.467323,0.6024777096801948,5.897267388865757e-06,6.2972498275915e-06,-0.20933348551085207,-8.656382533334117e-06,-0.20936669280710252
615,0.6035,910.076,-0.414407,0.219953,0.0180973,-0.150849,0.105458,0.472174,-0.235195,-0.235229,6.33082e-06,2.03124e-06,-5.86053e-06,0.467946,0.6034763643419521,6.330840039758812e-06,2.0312420629942096e-06,-0.20958329665719067,-5.860512827138287e-06,-0.2096101703682487
616,0.6045,910.521,0.445495,-0.204741,-0.00925395,0.121481,-0.103595,0.472798,-0.235502,-0.235544,5.91092e-06,6.26903e-06,-8.68049e-06,0.468568,0.6044772458358509,5.910937469488786e-06,6.2690496505091176e-06,-0.20982591734093647,-8.680452324605348e-06,-0.20985910395548435
617,0.6055,910.527,-0.423247,0.224349,0.0183159,-0.153599,0.107619,0.473421,-0.235818,-0.235852,6.35309e-06,1.9113e-06,-5.8252e-06,0.469191,0.605477146596753,6.353110180823407e-06,1.9113018265848325e-06,-0.2100755729034004,-5.825183033603132e-06,-0.2101024298773505
618,0.6065,910.975,0.453906,-0.209093,-0.0095529,0.124212,-0.1057,0.474044,-0.236124,-0.236167,5.92471e-06,6.23767e-06,-8.70229e-06,0.469812,0.6064776704899144,5.9247275512319675e-06,6.237689454291484e-06,-0.210317252799182,-8.702252135228683e-06,-0.2103512084272604
619,0.6075,910.977,-0.431352,0.228389,0.0185108,-0.156117,0.109602,0.474666,-0.23644,-0.236474,6.37474e-06,1.79528e-06,-5.79233e-06,0.470434,0.6074772104256536,6.374760318728079e-06,1.795281611594035e-06,-0.21056675312416995,-5.792313224506351e-06,-0.21059359339827655
620,0.6085,911.428,0.461559,-0.213072,-0.0098271,0.126704,-0.107621,0.475288,-0.236746,-0.236789,5.93863e-06,6.2029e-06,-8.72167e-06,0.471055,0.6084773722686261,5.938647633652039e-06,6.202919238029736e-06,-0.21080828274179786,-8.721631966301935e-06,-0.21084221725604269
621,0.6095,911.425,-0.438677,0.232049,0.0186806,-0.158388,0.111396,0.475909,-0.237062,-0.237095,6.39576e-06,1.68341e-06,-5.76208e-06,0.471676,0.6094765469284265,6.395780452805866e-06,1.6834114169306247e-06,-0.2110576279258375,-5.76206339919505e-06,-0.21108366259454148
622,0.6105,911.879,0.468408,-0.216656,-0.0100753,0.128942,-0.109348,0.47653,-0.237367,-0.23741,5.95271e-06,6.16449e-06,-8.73849e-06,0.472295,0.6104763422683919,5.952727717417616e-06,6.16450900059462e-06,-0.21129821865736842,-8.738451819478854e-06,-0.21133213210482182
623,0.6115,911.872,-0.445181,0.235308,0.0188241,-0.160399,0.112992,0.477151,-0.237682,-0.237716,6.41611e-06,1.5759e-06,-5.73458e-06,0.472916,0.6114767586740844,6.416130583275503e-06,1.5759012417237983e-06,-0.21154662059313256,-5.734563557346917e-06,-0.21157342755231145
624,0.6125,912.328,0.474416,-0.219823,-0.0102962,0.130913,-0.110872,0.477771,-0.237987,-0.23803,5.96697e-06,6.12225e-06,-8.75261e-06,0.473535,0.6124761840543154,5.96698780230831e-06,6.122268741082237e-06,-0.21178706220464194,-8.752571695969102e-06,-0.21182095463227468
625,0.6135,912.318,-0.450827,0.238148,0.0189401,-0.162138,0.114379,0.478391,-0.238302,-0.238335,6.43579e-06,1.47294e-06,-5.70996e-06,0.474154,0.6134762292704112,6.435810709692902e-06,1.4729410848790536e-06,-0.21203531017893884,-5.709943698195552e-06,-0.21206131258466088
626,0.6145,912.775,0.479548,-0.222557,-0.0104889,0.132607,-0.112182,0.479011,-0.238606,-0.238649,5.98142e-06,6.07599e-06,-8.76393e-06,0.474772,0.6144768947067896,5.981437888769037e-06,6.076008458810733e-06,-0.21227481503806134,-8.763891596874629e-06,-0.21230868649277324
627,0.6155,912.762,-0.455583,0.240552,0.0190278,-0.163596,0.115551,0.47963,-0.238921,-0.238954,6.45479e-06,1.3747e-06,-5.68833e-06,0.475391,0.615476565270733,6.4548108322792785e-06,1.3747009448561442e-06,-0.21252290939441176,-5.688313821528013e-06,-0.2125488957096252
628,0.6165,913.221,0.483774,-0.22484,-0.0106526,0.134013,-0.113273,0.480249,-0.239225,-0.239268,5.99608e-06,6.02556e-06,-8.77233e-06,0.476009,0.6164768548223123,5.9960979765794065e-06,6.025578153767697e-06,-0.21276226604590154,-8.772291523184705e-06,-0.21279611654067065
629,0.6175,913.205,-0.459422,0.242507,0.0190864,-0.164764,0.1165,0.480867,-0.239539,-0.239572,6.47308e-06,1.28132e-06,-5.66977e-06,0.476627,0.6174761462678449,6.4731009503660175e-06,1.28132082100052e-06,-0.21300941988917899,-5.669753926906829e-06,-0.213035390149811
630,0.6185,913.665,0.487069,-0.226662,-0.0107865,0.135126,-0.114137,0.481486,-0.239843,-0.239885,6.01097e-06,5.97082e-06,-8.77774e-06,0.477243,0.6184776739432214,6.010988065963119e-06,5.97083782527541e-06,-0.21324862866395666,-8.777701475781718e-06,-0.21328167152764776
631,0.6195,913.647,-0.462324,0.244001,0.0191154,-0.165635,0.117221,0.482103,-0.240157,-0.24019,6.49067e-06,1.19291e-06,-5.65435e-06,0.477861,0.619476582799737,6.490691064398035e-06,1.1929107115449256e-06,-0.21349562981334635,-5.6543340142267695e-06,-0.21352158402931554
632,0.6205,914.108,0.489415,-0.228011,-0.0108902,0.135937,-0.114771,0.48272,-0.24046,-0.240502,6.02608e-06,5.91168e-06,-8.7801e-06,0.478477,0.6204761081731931,6.026098156919346e-06,5.911697473992561e-06,-0.2137339045370692,-8.78006145499377e-06,-0.21376692701960165
633,0.6215,914.088,-0.464272,0.245027,0.0191143,-0.166203,0.11771,0.483337,-0.240773,-0.240807,6.50755e-06,1.10956e-06,-5.64212e-06,0.479093,0.621476250444098,6.50757117415246e-06,1.109560615608629e-06,-0.21397996731411562,-5.642104083269928e-06,-0.21400669154091256
634,0.6225,914.548,0.490799,-0.22888,-0.0109634,0.136445,-0.11517,0.483954,-0.241076,-0.241119,6.04144e-06,5.84806e-06,-8.77937e-06,0.479708,0.6224770099931947,6.041458249450571e-06,5.84807709991253e-06,-0.21421809530580693,-8.779331461483686e-06,-0.21425188320126376
635,0.6235,914.527,-0.465257,0.245577,0.0190829,-0.166466,0.117964,0.48457,-0.241389,-0.241422,6.5237e-06,1.03134e-06,-5.63313e-06,0.480324,0.623476763723886,6.523721279405592e-06,1.0313405318651547e-06,-0.2144640065548581,-5.633114133929418e-06,-0.21448992881492213
636,0.6245,914.987,0.491214,-0.229265,-0.011006,0.136645,-0.115333,0.485186,-0.241691,-0.241734,6.05704e-06,5.77992e-06,-8.77551e-06,0.480938,0.6244771334925956,6.057058344000055e-06,5.779936703698141e-06,-0.21470120260647185,-8.775471495359177e-06,-0.2147349697287615
637,0.6255,914.966,-0.465274,0.245651,0.0190212,-0.166423,0.117981,0.485801,-0.242005,-0.242038,6.53914e-06,9.58257e-07,-5.62739e-06,0.481553,0.6254764942016131,6.5391613801590864e-06,9.582574591604498e-07,-0.21494774771924507,-5.6273741663170895e-06,-0.21497365401611412
638,0.6265,915.425,0.490659,-0.229165,-0.0110179,0.136537,-0.115259,0.486416,-0.242306,-0.242349,6.07289e-06,5.70723e-06,-8.76852e-06,0.482167,0.6264764697064968,6.072908440124536e-06,5.70724628623509e-06,-0.2151840128874899,-8.768481556620245e-06,-0.2152177592493838
639,0.6275,915.403,-0.464325,0.245247,0.0189293,-0.166073,0.117763,0.487031,-0.242619,-0.242652,6.55387e-06,8.90324e-07,-5.62489e-06,0.482781,0.6274770603854627,6.553891476634988e-06,8.903243964297758e-07,-0.21542962185164805,-5.624874180321093e-06,-0.21545551224693316
640,0.6285,915.86,0.489137,-0.228581,-0.0109995,0.136124,-0.114949,0.487645,-0.24292,-0.242963,6.08898e-06,5.63002e-06,-8.75842e-06,0.483394,0.6284766381395068,6.088998537823187e-06,5.6300358486360835e-06,-0.21566574199760602,-8.75838164515752e-06,-0.21569946764559356
641,0.6295,915.839,-0.462418,0.244368,0.0188077,-0.165419,0.117311,0.488259,-0.243233,-0.243266,6.56789e-06,8.2751e-07,-5.6256e-06,0.484008,0.6294768298227489,6.567911568611251e-06,8.275103424715269e-07,-0.21591120020414756,-5.625584176383036e-06,-0.21593707470760914
642,0.6305,916.294,0.486661,-0.227518,-0.0109512,0.135407,-0.114406,0.488873,-0.243534,-0.243576,6.1053e-06,5.54833e-06,-8.74523e-06,0.48462,0.6304776358122572,6.105318637317225e-06,5.548345392014653e-06,-0.21614717541683492,-8.745191760639592e-06,-0.21618009654411896
643,0.6315,916.274,-0.459567,0.243021,0.0186567,-0.164466,0.116627,0.489486,-0.243846,-0.243879,6.5812e-06,7.69756e-07,-5.62949e-06,0.485233,0.6314774250070907,6.581221656087877e-06,7.697562962594162e-07,-0.2163916993503877,-5.629474154500436e-06,-0.21641755799763907
644,0.6325,916.727,0.483245,-0.225984,-0.0108736,0.134393,-0.113633,0.490098,-0.244146,-0.244189,6.12186e-06,5.46222e-06,-8.72902e-06,0.485844,0.6324761947835731,6.121878738607478e-06,5.4622349179300755e-06,-0.21662674658173497,-8.728981902184074e-06,-0.21666043090741383
645,0.6335,916.707,-0.455789,0.241214,0.0184771,-0.163219,0.115717,0.490711,-0.244458,-0.244491,6.59383e-06,7.16975e-07,-5.6365e-06,0.486456,0.6334772094706311,6.593851739289391e-06,7.169752569424759e-07,-0.21687112091242355,-5.6364841150013945e-06,-0.21689696373902445
646,0.6345,917.158,0.478911,-0.223987,-0.0107675,0.133088,-0.112635,0.491323,-0.244758,-0.2448,6.13863e-06,5.37181e-06,-8.70985e-06,0.487067,0.6344772034897852,6.1386488414694185e-06,5.371824428168637e-06,-0.21710602433887405,-8.709812069351841e-06,-0.21713890519534906
647,0.6355,917.14,-0.45111,0.238958,0.0182697,-0.161685,0.114586,0.491934,-0.245069,-0.245102,6.60578e-06,6.69052e-07,-5.64654e-06,0.487678,0.6354761742155961,6.605801818215795e-06,6.690522238450569e-07,-0.21734946650808518,-5.646524058322555e-06,-0.21737529354954188
648,0.6365,917.587,0.473687,-0.221543,-0.0106337,0.131501,-0.111418,0.492546,-0.245369,-0.245411,6.15562e-06,5.2772e-06,-8.6878e-06,0.488288,0.6364773919756006,6.155638945903874e-06,5.277213924514967e-06,-0.2175842264523804,-8.687762261150311e-06,-0.21761708722478834
649,0.6375,917.571,-0.445558,0.236268,0.0180356,-0.159875,0.11324,0.493157,-0.24568,-0.245713,6.61708e-06,6.25849e-07,-5.65952e-06,0.488898,0.6374775851900087,6.61710189286957e-06,6.258491958011092e-07,-0.21782751992385796,-5.65950398490056e-06,-0.2178533311898122
650,0.6385,918.014,0.467605,-0.218665,-0.0104735,0.129641,-0.109991,0.493767,-0.245979,-0.246022,6.17279e-06,5.17857e-06,-8.66299e-06,0.489508,0.6384767512316349,6.1728090516854905e-06,5.178583408760318e-06,-0.21806135453538422,-8.662952476368169e-06,-0.2180949771742473
651,0.6395,918.001,-0.439169,0.233159,0.0177759,-0.157799,0.111689,0.494377,-0.24629,-0.246323,6.62773e-06,5.87198e-07,-5.67533e-06,0.490117,0.639476526950479,6.627751963472761e-06,5.871981723082342e-07,-0.21830449964309973,-5.675313895392442e-06,-0.21833029516898295
652,0.6405,918.44,0.460701,-0.215372,-0.0102879,0.127521,-0.108362,0.494987,-0.246589,-0.246631,6.19014e-06,5.07608e-06,-8.63552e-06,0.490726,0.6404769127185577,6.1901591590363125e-06,5.076092883360417e-06,-0.218538191659009,-8.635482714014486e-06,-0.21857101236571963
653,0.6415,918.43,-0.43198,0.229649,0.0174919,-0.155469,0.109941,0.495596,-0.246899,-0.246932,6.63777e-06,5.52914e-07,-5.69384e-06,0.491335,0.6414762674310264,6.6377920300286775e-06,5.529141529070358e-07,-0.21878040727423465,-5.693823790120511e-06,-0.2188061870954252
654,0.6425,918.864,0.453016,-0.211685,-0.0100785,0.125153,-0.106541,0.496205,-0.247198,-0.24724,6.20764e-06,4.96993e-06,-8.60554e-06,0.491943,0.6424762309358736,6.207659267509769e-06,4.96994235010817e-06,-0.21901395701503346,-8.60550297243634e-06,-0.2190467577400187
655,0.6435,918.857,-0.424036,0.225761,0.0171849,-0.152899,0.108006,0.496814,-0.247507,-0.24754,6.64721e-06,5.22786e-07,-5.71491e-06,0.492551,0.6434768036039664,6.647232092760191e-06,5.227861366030595e-07,-0.21925524442149158,-5.714893669961363e-06,-0.2192810085733149
656,0.6445,919.287,0.444596,-0.207624,-0.00984659,0.122551,-0.104539,0.497422,-0.247806,-0.247848,6.22527e-06,4.86033e-06,-8.57319e-06,0.493158,0.6444763413292351,6.225289377104204e-06,4.860341811463442e-06,-0.2194886522072067,-8.573153250313048e-06,-0.2195214329954126
657,0.6455,919.284,-0.415381,0.221515,0.0168566,-0.150104,0.105897,0.49803,-0.248115,-0.248148,6.65607e-06,4.96585e-07,-5.73839e-06,0.493765,0.6454764869582246,6.6560921516689575e-06,4.96585123244131e-07,-0.21972979295551043,-5.738373535457697e-06,-0.21975554144749043
658,0.6465,919.708,0.435489,-0.203215,-0.00959386,0.119731,-0.102367,0.498638,-0.248413,-0.248455,6.24301e-06,4.74754e-06,-8.53863e-06,0.494372,0.6464772408606532,6.243029487595919e-06,4.747551269668193e-06,-0.21996227883509312,-8.538593545992512e-06,-0.21999503973139845
659,0.6475,919.709,-0.406067,0.216936,0.0165085,-0.147099,0.103625,0.499245,-0.248722,-0.248755,6.6644e-06,4.74067e-07,-5.76411e-06,0.494978,0.6474769559286833,6.664422207203202e-06,4.7406711245479016e-07,-0.22020327325537759,-5.764093387594649e-06,-0.22022900612276552
660,0.6485,920.128,0.425746,-0.198483,-0.00932194,0.11671,-0.100038,0.499852,-0.24902,-0.249062,6.26083e-06,4.63179e-06,-8.50202e-06,0.495584,0.6484772780079691,6.260849598982432e-06,4.631800726739854e-06,-0.22043561805885237,-8.50198385793366e-06,-0.2204683590753277
661,0.6495,920.133,-0.396145,0.21205,0.0161424,-0.1439,0.101202,0.500458,-0.249328,-0.249361,6.6722e-06,4.54972e-07,-5.79191e-06,0.49619,0.6494765579896953,6.672222259140881e-06,4.549721035473908e-07,-0.22067568691598838,-5.791893226914091e-06,-0.22070140419398276
662,0.6505,920.547,0.415422,-0.193454,-0.00903256,0.113503,-0.0975648,0.501064,-0.249626,-0.249668,6.27871e-06,4.51335e-06,-8.46355e-06,0.496795,0.6504764437186135,6.278729711040043e-06,4.513360185143256e-06,-0.22090789096116625,-8.463514184264831e-06,-0.2209406121425963
663,0.6515,920.556,-0.385671,0.206884,0.0157599,-0.140527,0.0986427,0.50167,-0.249933,-0.249967,6.67951e-06,4.39027e-07,-5.82159e-06,0.4974,0.6514769355619174,6.679532307929392e-06,4.3902709645493587e-07,-0.2211470355280719,-5.821573054620721e-06,-0.22117351607869207
664,0.6525,920.963,0.404573,-0.188156,-0.00872753,0.11013,-0.0949614,0.502275,-0.250231,-0.250273,6.29663e-06,4.3925e-06,-8.4234e-06,0.498004,0.6524763814098162,6.296649823767098e-06,4.3925096471220115e-06,-0.22137909913229015,-8.423364523224564e-06,-0.2214118005233926
665,0.6535,920.978,-0.374702,0.201465,0.015363,-0.136995,0.0959602,0.50288,-0.250538,-0.250571,6.68637e-06,4.2595e-07,-5.85298e-06,0.498609,0.653476432105401,6.686392353794091e-06,4.2595009075441226e-07,-0.22161809906049046,-5.852962871366607e-06,-0.2216437852393972
666,0.6545,921.379,0.393256,-0.182619,-0.00840867,0.106608,-0.0922417,0.503485,-0.250836,-0.250877,6.31454e-06,4.26953e-06,-8.38175e-06,0.499212,0.6544770880147153,6.314559936715369e-06,4.269539114476473e-06,-0.22185002230869022,-8.381714873273438e-06,-0.22188192580374944
667,0.6555,921.398,-0.363294,0.195821,0.0149534,-0.133324,0.0931686,0.504089,-0.251142,-0.251176,6.69279e-06,4.15452e-07,-5.88588e-06,0.499816,0.6554766940265024,6.692812396735803e-06,4.1545208628868124e-07,-0.22208809977415378,-5.885862678245424e-06,-0.22211454832913347
668,0.6565,921.793,0.38153,-0.176871,-0.00807785,0.102955,-0.0894198,0.504693,-0.251439,-0.25148,6.33243e-06,4.14472e-06,-8.3388e-06,0.500418,0.6564769039826932,6.332450049884031e-06,4.144728589450253e-06,-0.22231910530250187,-8.338765232318579e-06,-0.22235098956555255
669,0.6575,921.818,-0.351507,0.189982,0.0145329,-0.129533,0.0902824,0.505297,-0.251745,-0.251779,6.69881e-06,4.07239e-07,-5.9201e-06,0.501022,0.657477718248181,6.698832436979885e-06,4.072390829001904e-07,-0.2225570392505286,-5.920082476240651e-06,-0.22258347186183713
670,0.6585,922.205,0.369455,-0.170942,-0.00773693,0.0991911,-0.0865103,0.5059,-0.252042,-0.252083,6.35027e-06,4.01836e-06,-8.29474e-06,0.501624,0.6584774787097705,6.350290163048555e-06,4.018368073621659e-06,-0.22278790552453243,-8.294705598710372e-06,-0.22281977056716817
671,0.6595,922.236,-0.3394,0.183977,0.0141035,-0.125639,0.0873158,0.506502,-0.252348,-0.252381,6.70447e-06,4.01015e-07,-5.95544e-06,0.502226,0.659476182731703,6.704492474973733e-06,4.010150804756307e-07,-0.22302569604163736,-5.955422266445964e-06,-0.2230513357706102
672,0.6605,922.617,0.35706,-0.164892,-0.00738852,0.0953357,-0.0835262,0.507105,-0.252645,-0.252685,6.36802e-06,3.89076e-06,-8.24977e-06,0.502827,0.6604771486307788,6.3680402759835886e-06,3.890767569014741e-06,-0.22325642314524208,-8.24973597068901e-06,-0.22328749226692968
673,0.6615,922.653,-0.327029,0.177836,0.0136665,-0.121662,0.0842847,0.507707,-0.25295,-0.252983,6.7098e-06,3.96461e-07,-5.99173e-06,0.503429,0.661477056816421,6.709822510719832e-06,3.964610786333367e-07,-0.22349329381157002,-5.991712049624454e-06,-0.22351891811007096
674,0.6625,923.026,0.344486,-0.158663,-0.00703115,0.0914021,-0.0804875,0.508309,-0.253246,-0.253287,6.38572e-06,3.76212e-06,-8.20415e-06,0.504029,0.6624775671280123,6.38574038869244e-06,3.762127076756272e-06,-0.22372310578275212,-8.204116346055557e-06,-0.2237549324829632
675,0.6635,923.068,-0.314457,0.171585,0.0132244,-0.11762,0.0811998,0.50891,-0.253551,-0.253584,6.71482e-06,3.93284e-07,-6.02879e-06,0.50463,0.6634770164502941,6.714842544441879e-06,3.932840773046564e-07,-0.2239598341325798,-6.0287718268714485e-06,-0.22398544303550427
676,0.6645,923.435,0.331717,-0.152366,-0.00667156,0.0874164,-0.0774,0.509511,-0.253847,-0.253888,6.40325e-06,3.63288e-06,-8.15795e-06,0.50523,0.664477066622156,6.403270500943137e-06,3.6328865988810577e-06,-0.2241895080282631,-8.15791672403865e-06,-0.22422131560637415
677,0.6655,923.483,-0.301741,0.165253,0.0127794,-0.113532,0.0780779,0.510112,-0.254151,-0.254185,6.71958e-06,3.91216e-07,-6.0664e-06,0.50583,0.6654777180048166,6.719602576366057e-06,3.912160764230066e-07,-0.22442531857280368,-6.066381599389992e-06,-0.22445168766369517
678,0.6665,923.842,0.318831,-0.146006,-0.00630891,0.0833925,-0.0742827,0.510712,-0.254447,-0.254487,6.42061e-06,3.50324e-06,-8.11141e-06,0.506429,0.666477304481575,6.4206306120695444e-06,3.503246136293825e-06,-0.22465485470548252,-8.111377102548722e-06,-0.22468586789102651
679,0.6675,923.896,-0.288934,0.158869,0.0123324,-0.109416,0.0749321,0.511312,-0.254751,-0.254785,6.72408e-06,3.89976e-07,-6.10436e-06,0.507028,0.6674774908901808,6.7241026067144105e-06,3.8997607609836393e-07,-0.22489052380613384,-6.10434136838478e-06,-0.22491687708031627
680,0.6685,924.248,0.305882,-0.13961,-0.00594495,0.0793482,-0.0711483,0.511911,-0.255047,-0.255087,6.43778e-06,3.37351e-06,-8.06472e-06,0.507627,0.6684766091132581,6.437800722514098e-06,3.373515690352491e-06,-0.22511992225844135,-8.064687480269228e-06,-0.22515091684165522
681,0.6695,924.307,-0.27609,0.152461,0.0118853,-0.105287,0.0717758,0.51251,-0.255349,-0.255384,6.72835e-06,3.8929e-07,-6.1425e-06,0.508226,0.6694763259874292,6.728372635489421e-06,3.892900757307416e-07,-0.22535390070939487,-6.142481134840949e-06,-0.22538101284840484
682,0.6705,924.653,0.292924,-0.133204,-0.0055814,0.0753003,-0.0680097,0.513109,-0.255645,-0.255685,6.45474e-06,3.24393e-06,-8.01803e-06,0.508823,0.6704766418713934,6.454760831831052e-06,3.2439352615210026e-06,-0.22558316202243667,-8.017997855658265e-06,-0.2256141380764306
683,0.6715,924.718,-0.263262,0.146053,0.0114395,-0.101163,0.0686215,0.513708,-0.255948,-0.255982,6.73242e-06,3.88895e-07,-6.18066e-06,0.509421,0.6714775571240652,6.732442662693572e-06,3.8889507569805914e-07,-0.22581777477871634,-6.180640899744461e-06,-0.22584409652690163
684,0.6725,925.056,0.280007,-0.126815,-0.00521985,0.071265,-0.0648794,0.514306,-0.256243,-0.256283,6.47146e-06,3.11478e-06,-7.97153e-06,0.510018,0.6724773996263378,6.471480940017926e-06,3.1147848509327503e-06,-0.22604612485186482,-7.971498227399287e-06,-0.22607708238771596
685,0.6735,925.127,-0.250499,0.139671,0.0109967,-0.0970587,0.0654814,0.514903,-0.256545,-0.256579,6.73632e-06,3.88538e-07,-6.21867e-06,0.510615,0.6734761667362328,6.736342688995478e-06,3.8853807549088515e-07,-0.2262798236318676,-6.2186506640804495e-06,-0.22630612967065888
686,0.6745,925.458,0.267181,-0.120465,-0.00486178,0.0672576,-0.061769,0.515501,-0.256841,-0.25688,6.48792e-06,2.98628e-06,-7.92535e-06,0.511212,0.6744772047644803,6.4879410466289755e-06,2.9862844588279813e-06,-0.22650881091228314,-7.92531859450385e-06,-0.2265389764804252
687,0.6755,925.535,-0.237847,0.133337,0.0105582,-0.0929898,0.0623669,0.516098,-0.257142,-0.257176,6.74007e-06,3.8798e-07,-6.25637e-06,0.511808,0.675477166114488,6.740092714396795e-06,3.879800751782625e-07,-0.22674159672417626,-6.2563504289459004e-06,-0.22676788706294937
688,0.6765,925.859,0.25449,-0.114178,-0.00450857,0.0632923,-0.0586899,0.516695,-0.257437,-0.257477,6.5041e-06,2.85868e-06,-7.87966e-06,0.512404,0.6764777246196549,6.504121151662545e-06,2.8586840861155594e-06,-0.22696967431004478,-7.879628955542728e-06,-0.2270005949046563
689,0.6775,925.942,-0.225349,0.127075,0.0101254,-0.0889698,0.0592888,0.517291,-0.257738,-0.257772,6.7437e-06,3.86999e-07,-6.29362e-06,0.513,0.6774772031585468,6.743722738900004e-06,3.8699907478623174e-07,-0.2272023214229304,-6.293600195217408e-06,-0.22722859609733004
690,0.6785,926.259,0.241976,-0.107975,-0.00416148,0.0593825,-0.0556522,0.517887,-0.258033,-0.258072,6.51998e-06,2.73218e-06,-7.83459e-06,0.513595,0.6784772775641987,6.520001255116981e-06,2.732183732367943e-06,-0.22743026311505798,-7.8345593096385e-06,-0.22746039274726493
691,0.6795,926.347,-0.213046,0.120904,0.00969957,-0.0850115,0.056257,0.518482,-0.258333,-0.258368,6.74721e-06,3.85385e-07,-6.33029e-06,0.51419,0.6794762687147444,6.7472327625051065e-06,3.853850742974174e-07,-0.22766199927396158,-6.330269963772395e-06,-0.22768903063093549
692,0.6805,926.658,0.229678,-0.101876,-0.00382169,0.0555405,-0.0526656,0.519078,-0.258628,-0.258667,6.53553e-06,2.60698e-06,-7.79028e-06,0.514784,0.6804775349185883,6.53555135654571e-06,2.6069833982678148e-06,-0.2278898053811229,-7.79024965580355e-06,-0.22791991709153092
693,0.6815,926.751,-0.200976,0.114843,0.00928173,-0.0811267,0.0532807,0.519673,-0.258928,-0.258963,6.75064e-06,3.82946e-07,-6.36625e-06,0.515378,0.6814777165764008,6.7506627856595e-06,3.829460732962531e-07,-0.22812140369802403,-6.366229735488282e-06,-0.22814841897612448
694,0.6825,927.055,0.217632,-0.0958984,-0.00349025,0.0517777,-0.0497389,0.520267,-0.259223,-0.259261,6.55075e-06,2.48327e-06,-7.74682e-06,0.515972,0.682476811041727,6.550771456170779e-06,2.4832730833868055e-06,-0.22834907430086815,-7.74678999349021e-06,-0.22837839647891978
695,0.6835,927.154,-0.189171,0.108909,0.0088729,-0.0773261,0.0503682,0.520861,-0.259522,-0.259557,6.754e-06,3.79507e-07,-6.4014e-06,0.516565,0.6834764991454587,6.754022808364013e-06,3.7950707199030376e-07,-0.22857976343790753,-6.401379511133953e-06,-0.22860676267369784
696,0.6845,927.452,0.205869,-0.090059,-0.00316811,0.0481041,-0.0468801,0.521455,-0.259816,-0.259855,6.56562e-06,2.3612e-06,-7.70434e-06,0.517158,0.6844767812403219,6.5656415537684865e-06,2.3612027877373265e-06,-0.22880652765148402,-7.704310321599017e-06,-0.22883660361042057
697,0.6855,927.556,-0.177663,0.103118,0.00847399,-0.0736194,0.0475271,0.522049,-0.260115,-0.26015,6.7573e-06,3.74911e-07,-6.43562e-06,0.517751,0.6854776576792523,6.757322830619472e-06,3.7491107018894354e-07,-0.2290370800304179,-6.435599291476635e-06,-0.22906406326040762
698,0.6865,927.847,0.194418,-0.0843722,-0.0028561,0.0445288,-0.0440961,0.522642,-0.260409,-0.260448,6.58012e-06,2.24093e-06,-7.66293e-06,0.518343,0.6864774423371094,6.580141649115134e-06,2.240932510888527e-06,-0.22926370981267863,-7.662900639804349e-06,-0.22929376794185863
699,0.6875,927.956,-0.166478,0.0974833,0.00808578,-0.070015,0.0447641,0.523234,-0.260708,-0.260742,6.76057e-06,3.69016e-07,-6.46883e-06,0.518935,0.6874761325661136,6.7605928526504044e-06,3.690160681468768e-07,-0.2294941255145806,-6.468809077175841e-06,-0.22952032226896568
700,0.6885,928.241,0.183303,-0.0788507,-0.00255495,0.0410598,-0.0413932,0.523827,-0.261002,-0.26104,6.59426e-06,2.12258e-06,-7.62266e-06,0.519527,0.688477102671029,6.59428174221155e-06,2.122582252628291e-06,-0.2297206209452195,-7.622630947556885e-06,-0.22974989100548893
701,0.6895,928.355,-0.155638,0.0920174,0.00770894,-0.0665204,0.0420849,0.524419,-0.261299,-0.261334,6.7638e-06,3.617e-07,-6.50096e-06,0.520118,0.6894769770494245,6.7638228744559825e-06,3.61700065454329e-07,-0.229949359951375,-6.500938868780892e-06,-0.22997631125212614
702,0.6905,928.634,0.172548,-0.0735057,-0.00226528,0.037704,-0.0387769,0.525011,-0.261593,-0.261631,6.608e-06,2.00626e-06,-7.58361e-06,0.520709,0.6904774435286967,6.608021832832378e-06,2.0062620125216313e-06,-0.2301757215627619,-7.58358124453018e-06,-0.23020497432953646
703,0.6915,928.753,-0.145165,0.0867302,0.00734404,-0.0631419,0.0394945,0.525602,-0.261891,-0.261926,6.76702e-06,3.52857e-07,-6.53193e-06,0.5213,0.6914768109818161,6.767042896260733e-06,3.528570622357563e-07,-0.23040509501939377,-6.531908666951303e-06,-0.23043203036969673
704,0.6925,929.026,0.162168,-0.0683464,-0.0019876,0.034467,-0.0362516,0.526193,-0.262184,-0.262222,6.62136e-06,1.89208e-06,-7.54584e-06,0.52189,0.692476769235665,6.621381921201319e-06,1.892081789911515e-06,-0.2306305532953027,-7.545811530174085e-06,-0.23065978877879978
705,0.6935,929.149,-0.135074,0.0816306,0.00699153,-0.0598847,0.0369971,0.526784,-0.262481,-0.262516,6.77022e-06,3.42398e-07,-6.56169e-06,0.52248,0.6934773186395093,6.770242918063829e-06,3.4239805857261274e-07,-0.2308590220916783,-6.561668472127025e-06,-0.2308859415548118
706,0.6945,929.417,0.15218,-0.0633804,-0.00172231,0.0313537,-0.0338211,0.527374,-0.262774,-0.262812,6.63432e-06,1.78009e-06,-7.5094e-06,0.523069,0.6944767650652099,6.6343420070946735e-06,1.78009158435799e-06,-0.2310843473864378,-7.509371804492737e-06,-0.23111356562608698
707,0.6955,929.544,-0.125379,0.0767255,0.00665178,-0.0567531,0.0345959,0.527964,-0.263071,-0.263106,6.77342e-06,3.30251e-07,-6.5902e-06,0.523659,0.6954768013382895,6.77344293964488e-06,3.302510545033499e-07,-0.23131268142598072,-6.590178284637815e-06,-0.23133958501131535
708,0.6965,929.806,0.142595,-0.0586139,-0.00146972,0.0283676,-0.0314883,0.528554,-0.263364,-0.263402,6.64688e-06,1.67038e-06,-7.47432e-06,0.524247,0.6964774278068608,6.646902090512441e-06,1.6703813949803248e-06,-0.23153787381802637,-7.474292067377597e-06,-0.23156707482399874
709,0.6975,929.938,-0.116089,0.0720203,0.00632505,-0.0537501,0.0322935,0.529143,-0.26366,-0.263695,6.77663e-06,3.16359e-07,-6.61742e-06,0.524836,0.6974769473414459,6.776652961448804e-06,3.163590500676605e-07,-0.23176530494590875,-6.6173981049244546e-06,-0.23179219268969742
710,0.6985,930.195,0.133421,-0.0540513,-0.00123005,0.0255115,-0.0292553,0.529732,-0.263953,-0.26399,6.65904e-06,1.56298e-06,-7.44064e-06,0.525424,0.6984770557664479,6.659062171454622e-06,1.5629812215589567e-06,-0.23199036473868995,-7.440612318498907e-06,-0.23201878056949843
711,0.6995,930.331,-0.107212,0.0675189,0.00601152,-0.0508782,0.0300918,0.530321,-0.264248,-0.264283,6.77984e-06,3.00683e-07,-6.64332e-06,0.526012,0.6994777534288257,6.779862983252727e-06,3.0068304512909094e-07,-0.2322168941663586,-6.6432979332065045e-06,-0.23224376610480113
712,0.7005,930.583,0.124663,-0.0496956,-0.00100343,0.0227872,-0.0271237,0.530909,-0.264541,-0.264578,6.67079e-06,1.45793e-06,-7.40838e-06,0.526599,0.7004773401975517,6.6708122496983435e-06,1.4579310627649278e-06,-0.23244182166288052,-7.408352557969344e-06,-0.23247022079009183
713,0.7015,930.722,-0.0987518,0.0632238,0.00571125,-0.0481385,0.0279919,0.531497,-0.264836,-0.264871,6.78307e-06,2.83196e-07,-6.6679e-06,0.527187,0.7014775148961323,6.783093005058305e-06,2.831960401739053e-07,-0.2326682179303986,-6.6678777695949876e-06,-0.23269507407278578
714,0.7025,930.969,0.116325,-0.0455485,-0.000789886,0.0201955,-0.0250942,0.532084,-0.265128,-0.265166,6.68214e-06,1.35523e-06,-7.37753e-06,0.527773,0.702476575392945,6.682162325466479e-06,1.3552309183761935e-06,-0.2328922461010582,-7.377502786121148e-06,-0.23292139564186165
715,0.7035,931.112,-0.0907099,0.059136,0.00542427,-0.0455317,0.0259942,0.532671,-0.265423,-0.265458,6.7863e-06,2.63885e-07,-6.69115e-06,0.52836,0.7034762225104256,6.786323027085928e-06,2.638850347125299e-07,-0.2331185095129643,-6.691127614311121e-06,-0.2331453498954219
716,0.7045,931.355,0.108406,-0.0416102,-0.000589388,0.0177366,-0.0231669,0.533258,-0.265715,-0.265752,6.69308e-06,1.2549e-06,-7.3481e-06,0.528946,0.7044764565930217,6.6931023987581995e-06,1.2549007872841855e-06,-0.23334240621767677,-7.348073002733102e-06,-0.23337077202387602
717,0.7055,931.501,-0.0830855,0.0552555,0.0051505,-0.0430574,0.0240985,0.533845,-0.266009,-0.266044,6.78955e-06,2.42749e-07,-6.71307e-06,0.529532,0.7054772779853828,6.789573049115205e-06,2.427490295442425e-07,-0.2335677704200877,-6.7130474673549045e-06,-0.23359459507868874
718,0.7065,931.739,0.100905,-0.0378799,-0.000401828,0.0154097,-0.0213414,0.534431,-0.266301,-0.266338,6.70363e-06,1.15693e-06,-7.3201e-06,0.530117,0.7064769805545272,6.703652469353116e-06,1.156930669266032e-06,-0.23379153595976632,-7.3200732081390996e-06,-0.23381988514847263
719,0.7075,931.888,-0.0758751,0.0515809,0.00488979,-0.0407145,0.0223042,0.535017,-0.266595,-0.26663,6.7928e-06,2.19802e-07,-6.73366e-06,0.530702,0.7074772691210576,6.792823071144483e-06,2.1980202413729444e-07,-0.23401676813744166,-6.733637328948383e-06,-0.23404357708139756
720,0.7085,932.123,0.0938167,-0.0343555,-0.00022703,0.0132135,-0.0196167,0.535602,-0.266886,-0.266923,6.71377e-06,1.06129e-06,-7.29349e-06,0.531287,0.7084764355511792,6.713792537471619e-06,1.0612905632090275e-06,-0.23423963682894633,-7.293463402557876e-06,-0.23426796943822714
721,0.7095,932.275,-0.0690734,0.0481099,0.00464194,-0.0385015,0.02061,0.536187,-0.26718,-0.267215,6.79607e-06,1.95064e-07,-6.75295e-06,0.531871,0.7094761866646657,6.7960930933974595e-06,1.9506401893742975e-07,-0.23446473728433026,-6.752927198871994e-06,-0.23449153054964045
722,0.7105,932.505,0.0871347,-0.0310341,-6.47628e-05,0.011146,-0.0179913,0.536772,-0.267471,-0.267508,6.72352e-06,9.67961e-07,-7.26826e-06,0.532455,0.7104765228036569,6.723542602893318e-06,9.679614685342841e-07,-0.23468747563577863,-7.268233586210648e-06,-0.23471579167533008
723,0.7115,932.66,-0.0626732,0.0448391,0.00440671,-0.036416,0.0190143,0.537357,-0.267764,-0.267799,6.79934e-06,1.6857e-07,-6.77096e-06,0.533039,0.7114774443104925,6.799363115650436e-06,1.6857001416958894e-07,-0.23491167935796808,-6.7709370771273925e-06,-0.23493845698057936
724,0.7125,932.886,0.0808511,-0.0279117,8.52588e-05,0.00920456,-0.0164633,0.537941,-0.268055,-0.268092,6.73288e-06,8.76898e-07,-7.24438e-06,0.533622,0.7124772390496183,6.732902665840257e-06,8.768983845719447e-07,-0.23513428766819477,-7.244353759539024e-06,-0.23516258717600702
725,0.7135,933.044,-0.0566657,0.0417643,0.00418377,-0.0344553,0.0175148,0.538525,-0.268347,-0.268383,6.80261e-06,1.40359e-07,-6.78772e-06,0.534205,0.7134776178393978,6.802633137903413e-06,1.4035900974818105e-07,-0.2353575958516143,-6.787696963495016e-06,-0.23538512248268129
726,0.7145,933.267,0.0749561,-0.0249837,0.000223364,0.0073862,-0.0150303,0.539108,-0.268638,-0.268675,6.74186e-06,7.88055e-07,-7.22183e-06,0.534788,0.7144768665432926,6.741882726313264e-06,7.880553105632515e-07,-0.23558007441901985,-7.22180392265237e-06,-0.23560835743302744
727,0.7155,933.426,-0.0510404,0.0388807,0.00397279,-0.032616,0.0161091,0.539691,-0.26893,-0.268966,6.80588e-06,1.1048e-07,-6.80326e-06,0.53537,0.7154766979790317,6.80590316015639e-06,1.1048000603253172e-07,-0.23580325245171108,-6.803236857866324e-06,-0.23583076303942918
728,0.7165,933.646,0.0694386,-0.0222447,0.000349923,0.0056874,-0.0136897,0.540274,-0.269221,-0.269258,6.75047e-06,7.01379e-07,-7.20056e-06,0.535952,0.7164771124864464,6.750492784535211e-06,7.013792460153212e-07,-0.23602560135191353,-7.200534075990639e-06,-0.23605386788172944
729,0.7175,933.808,-0.0457858,0.0361826,0.00377337,-0.0308944,0.0147944,0.540856,-0.269513,-0.269548,6.80914e-06,7.89876e-08,-6.81762e-06,0.536534,0.7174763929283154,6.809163182186495e-06,7.89876031248582e-08,-0.2362486493097321,-6.817596760133604e-06,-0.236275380139214
730,0.7185,934.024,0.0642865,-0.0196886,0.000465338,0.0041043,-0.0124386,0.541438,-0.269803,-0.269839,6.7587e-06,6.16807e-07,-7.18054e-06,0.537115,0.7184762551206745,6.758722840061182e-06,6.168071902123984e-07,-0.2364701050887923,-7.1805142199954375e-06,-0.23649759167024764
731,0.7195,934.188,-0.0408892,0.0336639,0.00358511,-0.0292867,0.0135677,0.54202,-0.270094,-0.27013,6.81239e-06,4.59435e-08,-6.83083e-06,0.537696,0.719476699402201,6.812413204437817e-06,4.594350100362021e-08,-0.2366922599631095,-6.830806669966272e-06,-0.23671973854713335
732,0.7205,934.402,0.0594865,-0.0173091,0.000570037,0.00263273,-0.0112738,0.542602,-0.270384,-0.270421,6.76658e-06,5.34277e-07,-7.16172e-06,0.538277,0.7204777261117699,6.7666028933377476e-06,5.342771427496729e-07,-0.23691358711373223,-7.161694354995696e-06,-0.23694182078868287
733,0.7215,934.567,-0.0363371,0.0313179,0.00340756,-0.0277884,0.0124257,0.543183,-0.270675,-0.27071,6.81562e-06,1.14128e-08,-6.84295e-06,0.538857,0.7214776141099772,6.81564322646544e-06,1.1412800038357318e-08,-0.23713561295355567,-6.842926587036224e-06,-0.23716231273985333
734,0.7225,934.778,0.0550246,-0.0150992,0.00066447,0.00126828,-0.0101919,0.543763,-0.270965,-0.271001,6.7741e-06,4.53716e-07,-7.14405e-06,0.539437,0.722476360734684,6.7741229443640805e-06,4.5371610291056186e-07,-0.2373568115504524,-7.1440244813203435e-06,-0.2373842662110497
735,0.7235,934.945,-0.0321152,0.0291377,0.00324026,-0.026395,0.0113649,0.544344,-0.271255,-0.271291,6.81883e-06,-2.45354e-08,-6.85402e-06,0.540017,0.7234774102770034,6.818853248269363e-06,-2.4535399711922423e-08,-0.23757794600905646,-6.853996511235749e-06,-0.23760539270895653
736,0.7245,935.153,0.0508863,-0.0130517,0.000749106,6.34633e-06,-0.00918944,0.544924,-0.271545,-0.271581,6.78127e-06,3.75054e-07,-7.12749e-06,0.540596,0.7244773171199177,6.781292992918964e-06,3.7505407024518433e-07,-0.2377990163479653,-7.127464599521183e-06,-0.23782645508947653
737,0.7255,935.322,-0.0282088,0.0271161,0.00308275,-0.025102,0.0103818,0.545503,-0.271835,-0.27187,6.82201e-06,-6.18291e-08,-6.86408e-06,0.541175,0.7254760786000765,6.822033270070804e-06,-6.182909806362602e-08,-0.23802002258577104,-6.864056442235089e-06,-0.23804669141827328
738,0.7265,935.528,0.0470567,-0.0111592,0.00082442,-0.00115783,-0.00826267,0.546083,-0.272124,-0.27216,6.78812e-06,2.98213e-07,-7.11198e-06,0.541754,0.7264771450068592,6.788143039448968e-06,2.98213044480633e-07,-0.23824020298164406,-7.111954709926316e-06,-0.23826762584072236
739,0.7275,935.697,-0.0246027,0.0252455,0.00293454,-0.0239045,0.00947263,0.546662,-0.272414,-0.272449,6.82514e-06,-1.00394e-07,-6.8732e-06,0.542332,0.7274770647226414,6.825163291424019e-06,-1.0039399500616497e-07,-0.23846108129387622,-6.873176379595947e-06,-0.23848773468959372
740,0.7285,935.901,0.0435203,-0.00941409,0.000890898,-0.00222908,-0.00740791,0.547241,-0.272702,-0.272738,6.79463e-06,2.23118e-07,-7.09749e-06,0.54291,0.7284775635595784,6.794653083508351e-06,2.2311802494456856e-07,-0.2386803729229532,-7.097464812866328e-06,-0.23870777993619874
741,0.7295,936.072,-0.0212816,0.0235185,0.00279515,-0.0227975,0.00863367,0.547819,-0.272992,-0.273027,6.82824e-06,-1.40155e-07,-6.88141e-06,0.543488,0.7294769123753013,6.828263312552707e-06,-1.4015499016917232e-07,-0.23890112360440963,-6.881386323098759e-06,-0.23892776159891593
742,0.7305,936.273,0.0402617,-0.0078087,0.000949026,-0.0032123,-0.00662141,0.548397,-0.27328,-0.273316,6.80082e-06,1.49691e-07,-7.08395e-06,0.544065,0.7304768389816052,6.800843125542855e-06,1.496910111420391e-07,-0.23912028851954892,-7.083924908890538e-06,-0.23914767969611805
743,0.7315,936.445,-0.0182301,0.0219273,0.00266409,-0.0217764,0.00786116,0.548975,-0.273569,-0.273605,6.83128e-06,-1.81036e-07,-6.88877e-06,0.544642,0.7314773437125495,6.831303333232341e-06,-1.8103598364849205e-07,-0.23934015098451034,-6.888746272526447e-06,-0.23936753424617319
744,0.7325,936.644,0.0372656,-0.00633534,0.00099929,-0.00411239,-0.00589939,0.549552,-0.273857,-0.273893,6.8067e-06,7.7852e-08,-7.07131e-06,0.545219,0.7324766944248262,6.806723165553308e-06,7.785200306642537e-08,-0.23955918947796973,-7.071284998327876e-06,-0.23958656485438878
745,0.7335,936.817,-0.0154328,0.0204644,0.00254088,-0.020836,0.00715134,0.550129,-0.274146,-0.274182,6.83426e-06,-2.2296e-07,-6.89532e-06,0.545795,0.733476621928852,6.834283353684967e-06,-2.2295997514909516e-07,-0.2397789251188811,-6.895296227327208e-06,-0.23980629258495945
746,0.7345,937.015,0.0345165,-0.00498635,0.00104217,-0.0049342,-0.0052381,0.550706,-0.274434,-0.27447,6.81228e-06,7.52459e-09,-7.05953e-06,0.546371,0.7344771265575323,6.812303203540537e-06,7.524590062146785e-09,-0.23999783726358492,-7.059505081619122e-06,-0.24002519684896795
747,0.7355,937.188,-0.0128744,0.019122,0.00242505,-0.0199717,0.00650049,0.551282,-0.274722,-0.274758,6.83718e-06,-2.65852e-07,-6.90113e-06,0.546947,0.735476473166623,6.837203373466494e-06,-2.658519646647761e-07,-0.24021668637066895,-6.901106187284789e-06,-0.24024403807762584
748,0.7365,937.384,0.0319993,-0.00375416,0.00107813,-0.00568255,-0.00463385,0.551858,-0.27501,-0.275046,6.81757e-06,-6.13687e-08,-7.04855e-06,0.547522,0.7364763955651716,6.817593239727415e-06,-6.136869812323198e-08,-0.24043547245828523,-7.048525158981356e-06,-0.24046281628908495
749,0.7375,937.558,-0.01054,0.0178928,0.00231612,-0.0191787,0.00590493,0.552434,-0.275298,-0.275333,6.84003e-06,-3.09638e-07,-6.90623e-06,0.548097,0.7374768940849292,6.8400533930201846e-06,-3.096379520561854e-07,-0.240654195544581,-6.906206152068606e-06,-0.24068077218264317
750,0.7385,937.752,0.0296992,-0.00263133,0.00110765,-0.00636214,-0.00408298,0.553009,-0.275585,-0.275621,6.82257e-06,-1.28904e-07,-7.03833e-06,0.548672,0.7384762305807369,6.822593273891897e-06,-1.2890399170295552e-07,-0.24087209652017405,-7.03830523096638e-06,-0.24089942463279035
751,0.7395,937.927,-0.00841482,0.0167694,0.00221364,-0.0184523,0.00536106,0.553584,-0.275873,-0.275908,6.8428e-06,-3.54245e-07,-6.91068e-06,0.549246,0.7394761418602638,6.842823411901122e-06,-3.54244937272874e-07,-0.241090693876846,-6.910656121350556e-06,-0.24111725523773375
752,0.7405,938.119,0.0276015,-0.00161061,0.00113116,-0.00697757,-0.00358195,0.554159,-0.27616,-0.276195,6.8273e-06,-1.95154e-07,-7.02881e-06,0.54982,0.7404766282541062,6.8273233060356375e-06,-1.9515398097524894e-07,-0.24130846959539287,-7.028785298013318e-06,-0.24133502333426393
753,0.7415,938.295,-0.00648469,0.0157448,0.00211717,-0.0177879,0.0048654,0.554734,-0.276447,-0.276482,6.84549e-06,-3.99602e-07,-6.91452e-06,0.550394,0.7414776900930498,6.845513430331351e-06,-3.996019201091272e-07,-0.2415261828212767,-6.9144960948008816e-06,-0.2415527289403181
754,0.7425,938.486,0.0256924,-0.000684959,0.0011491,-0.0075333,-0.00312732,0.555308,-0.276734,-0.276769,6.83175e-06,-2.60192e-07,-7.01995e-06,0.550967,0.7424775852296139,6.831773336379854e-06,-2.6019196619486706e-07,-0.24174383357243023,-7.019925360229884e-06,-0.24177037207382868
755,0.7435,938.661,-0.00473577,0.0148119,0.00202629,-0.0171813,0.00441454,0.555881,-0.27702,-0.277056,6.84808e-06,-4.45639e-07,-6.91779e-06,0.55154,0.743476310993556,6.848103448087173e-06,-4.4563890067017553e-07,-0.241960663827824,-6.917766072200848e-06,-0.24198795275272256
756,0.7445,938.851,0.0239581,0.000152438,0.00116189,-0.00803363,-0.00271575,0.556455,-0.277307,-0.277342,6.83594e-06,-3.24088e-07,-7.01171e-06,0.552113,0.7444773536678289,6.8359633651482454e-06,-3.24087947478624e-07,-0.24217818990082085,-7.011685418056857e-06,-0.2422047132000138
757,0.7455,939.027,-0.00315478,0.0139642,0.00194059,-0.0166282,0.00400523,0.557028,-0.277593,-0.277629,6.85059e-06,-4.92291e-07,-6.92055e-06,0.552685,0.7454772256274396,6.850613465392286e-06,-4.922908788396185e-07,-0.2423948959480673,-6.920526053000309e-06,-0.242422169240891
758,0.7465,939.215,0.0223857,0.000908122,0.00116994,-0.0084827,-0.00234405,0.557601,-0.277879,-0.277915,6.83988e-06,-3.86907e-07,-7.00403e-06,0.553257,0.7464776706778582,6.839903392119595e-06,-3.8690692516496483e-07,-0.2426115400262462,-7.004005471822339e-06,-0.24263880552002348
759,0.7475,939.391,-0.00172897,0.0131951,0.00185966,-0.0161245,0.00363434,0.558173,-0.278166,-0.278201,6.85299e-06,-5.39494e-07,-6.92283e-06,0.553829,0.7474769416697442,6.853013481800119e-06,-5.394938544789341e-07,-0.24282887932457753,-6.9228060373127676e-06,-0.24285537985003924
760,0.7485,939.579,0.0209627,0.00158835,0.00117361,-0.00888447,-0.00200915,0.558745,-0.278451,-0.278487,6.84357e-06,-4.48715e-07,-6.99689e-06,0.5544,0.7484767844081415,6.843593417293903e-06,-4.487148993481682e-07,-0.24304464234627898,-6.9968655218577425e-06,-0.24307189224865333
761,0.7495,939.755,-0.000446179,0.0124987,0.00178315,-0.0156663,0.00329887,0.559317,-0.278737,-0.278772,6.85529e-06,-5.87187e-07,-6.92467e-06,0.554971,0.7494771992201825,6.855313497533544e-06,-5.871868276052794e-07,-0.24326110062355888,-6.9246460244754005e-06,-0.24328758602153988
762,0.7505,939.941,0.0196773,0.0021991,0.00117327,-0.00924269,-0.00170814,0.559888,-0.279023,-0.279058,6.84702e-06,-5.09573e-07,-6.99024e-06,0.555542,0.750476435955876,6.847043440894041e-06,-5.095728701220992e-07,-0.24347749700262333,-6.990215568380975e-06,-0.2435039748268636
763,0.7515,940.117,0.000705131,0.0118692,0.00171071,-0.0152501,0.00299599,0.560459,-0.279308,-0.279343,6.85747e-06,-6.35313e-07,-6.92611e-06,0.556113,0.7514762434186726,6.8574935125909064e-06,-6.35312798147325e-07,-0.24369307519462602,-6.926086014602539e-06,-0.24371954547376162
764,0.7525,940.302,0.0185181,0.00274603,0.00116928,-0.00956093,-0.00143826,0.56103,-0.279593,-0.279629,6.85023e-06,-5.69538e-07,-6.98404e-06,0.556683,0.7524766219345504,6.8502534629200085e-06,-5.695378377801319e-07,-0.24390859195559833,-6.984015611610772e-06,-0.24393581075634652
765,0.7535,940.479,0.00173589,0.0113009,0.00164198,-0.0148723,0.002723,0.561601,-0.279878,-0.279914,6.85954e-06,-6.83816e-07,-6.92719e-06,0.557252,0.7534775718296742,6.859563526750989e-06,-6.838157662336641e-07,-0.2441240473030456,-6.92716600703136e-06,-0.24415125834754092
766,0.7545,940.663,0.0174747,0.00323449,0.00116194,-0.00984257,-0.00119688,0.562171,-0.280163,-0.280199,6.85322e-06,-6.28666e-07,-6.97826e-06,0.557822,0.7544773389521784,6.853243483373461e-06,-6.286658024157177e-07,-0.24433944125446816,-6.97823565198874e-06,-0.24436664454492085
767,0.7555,940.839,0.00265641,0.0107888,0.00157667,-0.0145298,0.00247737,0.562741,-0.280448,-0.280483,6.8615e-06,-7.32645e-07,-6.92794e-06,0.558391,0.7554776761043855,6.8615235402358365e-06,-7.326447316602369e-07,-0.24455477382736146,-6.927916001875367e-06,-0.2445812139475727
768,0.7565,941.022,0.0165368,0.00366952,0.00115156,-0.0100908,-0.000981543,0.56331,-0.280733,-0.280768,6.85598e-06,-6.87009e-07,-6.97286e-06,0.55896,0.7564768271335993,6.8560035022535715e-06,-6.870087639887501e-07,-0.24477004503921596,-6.972835689622592e-06,-0.24479647762506662
769,0.7575,941.198,0.00347636,0.0103279,0.00151449,-0.0142193,0.00225671,0.563879,-0.281017,-0.281052,6.86333e-06,-7.81752e-07,-6.92839e-06,0.559528,0.7574765468415228,6.863353552599705e-06,-7.817516943786629e-07,-0.24498449989239424,-6.928365998803976e-06,-0.24501092497245636
770,0.7585,941.38,0.0156953,0.00405586,0.00113844,-0.0103086,-0.000789946,0.564448,-0.281301,-0.281337,6.85852e-06,-7.44615e-07,-6.96782e-06,0.560096,0.7584768355518259,6.858543519783211e-06,-7.446147227696542e-07,-0.24519889384904192,-6.9677957248437394e-06,-0.24522606619975806
771,0.7595,941.557,0.00420481,0.00991372,0.00145514,-0.013938,0.00205878,0.565017,-0.281585,-0.281621,6.86503e-06,-8.3109e-07,-6.92856e-06,0.560664,0.7594776935883629,6.865053564286683e-06,-8.310896546515067e-07,-0.24541322692645118,-6.928535997596796e-06,-0.24544039156131547
772,0.7605,941.738,0.0149414,0.00439792,0.00112282,-0.0104986,-0.000619927,0.565585,-0.281869,-0.281904,6.86086e-06,-8.01531e-07,-6.9631e-06,0.561232,0.760477360796932,6.860883535741991e-06,-8.015306788289323e-07,-0.2456274991419093,-6.963075757648873e-06,-0.24565390171739154
773,0.7615,941.914,0.0048502,0.00954192,0.00139839,-0.0136833,0.00188151,0.566153,-0.282153,-0.282188,6.86661e-06,-8.80619e-07,-6.9285e-06,0.561799,0.7614775959777644,6.866633575297598e-06,-8.806186122534143e-07,-0.24584171051269854,-6.928475998035921e-06,-0.245868105590914
774,0.7625,942.094,0.0142668,0.00469983,0.00110497,-0.0106636,-0.000469476,0.56672,-0.282437,-0.282472,6.86298e-06,-8.57798e-07,-6.95868e-06,0.562366,0.7624766369760418,6.8630035503502995e-06,-8.577976320367497e-07,-0.24605586105609634,-6.958655788480428e-06,-0.24608224863917405
775,0.7635,942.27,0.00542038,0.00920856,0.00134399,-0.0134526,0.00172296,0.567287,-0.28272,-0.282755,6.86805e-06,-9.30299e-07,-6.92823e-06,0.562932,0.7634762445911858,6.868073585186707e-06,-9.302985672920983e-07,-0.24626919705894934,-6.92820599990096e-06,-0.24629557717539752
776,0.7645,942.45,0.013664,0.0049654,0.00108509,-0.010806,-0.000336727,0.567854,-0.283003,-0.283039,6.8649e-06,-9.13457e-07,-6.95453e-06,0.563498,0.7644764191445594,6.864923563387748e-06,-9.134565828183838e-07,-0.24648247269625545,-6.954505817335921e-06,-0.24650959883896495
777,0.7655,942.626,0.00592262,0.00890995,0.00129173,-0.0132436,0.00158132,0.568421,-0.283287,-0.283322,6.86936e-06,-9.80093e-07,-6.92776e-06,0.564064,0.7654771609577078,6.869383594176881e-06,-9.800925196978838e-07,-0.24669644128903145,-6.927736003081719e-06,-0.24672280645219324
778,0.7665,942.805,0.0131261,0.00519819,0.00106342,-0.0109278,-0.000219952,0.568987,-0.283569,-0.283605,6.86663e-06,-9.68544e-07,-6.95062e-06,0.56463,0.7664767038747713,6.866653575299253e-06,-9.68543530932564e-07,-0.24690884294254722,-6.950595844545937e-06,-0.24693595373620403
779,0.7675,942.98,0.00636366,0.0086427,0.0012414,-0.0130543,0.00145494,0.569553,-0.283852,-0.283887,6.87053e-06,-1.02997e-06,-6.92712e-06,0.565195,0.7674768126932607,6.8705536020452485e-06,-1.0299694696014328e-06,-0.24712193758568024,-6.92709600758068e-06,-0.24714828785673226
780,0.7685,943.158,0.0126465,0.00540145,0.00104013,-0.0110313,-0.000117559,0.570119,-0.284135,-0.28417,6.86816e-06,-1.02309e-06,-6.94694e-06,0.56576,0.7684774877335674,6.868183585861942e-06,-1.0230894766927179e-06,-0.24733497193156173,-6.946915870109649e-06,-0.24736131474654222
781,0.7695,943.333,0.00674966,0.00840367,0.00119281,-0.0128826,0.00134229,0.570684,-0.284417,-0.284452,6.87156e-06,-1.07989e-06,-6.92633e-06,0.566325,0.7694769598384184,6.871583609235898e-06,-1.0798894168884132e-06,-0.24754719354482313,-6.92630601306643e-06,-0.2475735289321771
782,0.7705,943.511,0.0122194,0.00557819,0.00101542,-0.0111182,-2.8081e-05,0.571249,-0.2847,-0.284735,6.8695e-06,-1.07714e-06,-6.94347e-06,0.566889,0.7704769968045668,6.869523595076643e-06,-1.077139419880524e-06,-0.24776010756029576,-6.943445894136424e-06,-0.2477864354957896
783,0.7715,943.685,0.00708632,0.00818997,0.0011458,-0.0127267,0.00124197,0.571814,-0.284982,-0.285017,6.87245e-06,-1.12984e-06,-6.92541e-06,0.567453,0.7714775989512499,6.872473615304742e-06,-1.1298393617353852e-06,-0.24797220930221264,-6.925386019429602e-06,-0.2479985298142754
784,0.7725,943.862,0.0118393,0.00573118,0.000989431,-0.0111903,4.9824e-05,0.572378,-0.285264,-0.285299,6.87065e-06,-1.1307e-06,-6.94019e-06,0.568017,0.772476994120004,6.870673602943356e-06,-1.1306993608073412e-06,-0.24818425123987098,-6.940165916957675e-06,-0.24821056433059574
785,0.7735,944.037,0.00737882,0.00799898,0.00110022,-0.012585,0.00115269,0.572942,-0.285546,-0.285581,6.8732e-06,-1.17978e-06,-6.92437e-06,0.56858,0.7734769531066148,6.873223620473823e-06,-1.179779304028017e-06,-0.24839623339013328,-6.924346026560002e-06,-0.2484225390616127
786,0.7745,944.213,0.0115012,0.00586292,0.000962322,-0.0112493,0.000117385,0.573506,-0.285828,-0.285862,6.87161e-06,-1.18382e-06,-6.93708e-06,0.569143,0.7744774762291657,6.87163360946208e-06,-1.183819299255262e-06,-0.2486081557698574,-6.937055938460723e-06,-0.24863370265826157
787,0.7755,944.387,0.0076319,0.00782829,0.00105591,-0.012456,0.00107327,0.574069,-0.286109,-0.286144,6.8738e-06,-1.22969e-06,-6.92324e-06,0.569706,0.7754767883282427,6.87382362452027e-06,-1.229689243986698e-06,-0.2488192672155387,-6.923216034460111e-06,-0.24884555808109343
788,0.7765,944.563,0.0112007,0.00597572,0.000934228,-0.0112964,0.00017572,0.574632,-0.28639,-0.286425,6.8724e-06,-1.23651e-06,-6.93412e-06,0.570268,0.7764766631984368,6.87242361507856e-06,-1.2365092355581808e-06,-0.24903031934723796,-6.934095959088005e-06,-0.2490566028260972
789,0.7775,944.737,0.00784988,0.0076757,0.00101276,-0.0123382,0.00100265,0.575195,-0.286672,-0.286706,6.87426e-06,-1.27956e-06,-6.92202e-06,0.57083,0.777477101156677,6.874283627889e-06,-1.2795591813885565e-06,-0.24924206293993223,-6.921996042907885e-06,-0.24926758827585915
790,0.7785,944.912,0.0109335,0.00607166,0.000905269,-0.011333,0.000225848,0.575757,-0.286953,-0.286988,6.87301e-06,-1.28879e-06,-6.93131e-06,0.571392,0.7784763240428583,6.8730336191258345e-06,-1.2887891694957077e-06,-0.24945299628272355,-6.931285978506452e-06,-0.24947926496814898
791,0.7795,945.085,0.00803668,0.00753922,0.000970635,-0.0122306,0.000939861,0.576319,-0.287234,-0.287268,6.87457e-06,-1.32936e-06,-6.92073e-06,0.571953,0.7794761086501303,6.8745936299130506e-06,-1.3293591164531549e-06,-0.24966387036157234,-6.920706051793957e-06,-0.2496893813562907
792,0.7805,945.26,0.010696,0.00615264,0.000875556,-0.0113604,0.00026869,0.576881,-0.287514,-0.287549,6.87344e-06,-1.34069e-06,-6.92863e-06,0.572514,0.7804764552942691,6.873463622047993e-06,-1.3406891012923694e-06,-0.24987393506743993,-6.928605997047477e-06,-0.24990018902026567
793,0.7815,945.433,0.00819582,0.00741705,0.000929444,-0.0121319,0.000884022,0.577443,-0.287795,-0.28783,6.87473e-06,-1.37907e-06,-6.91938e-06,0.573075,0.7814773642912285,6.874753631036512e-06,-1.379069049067816e-06,-0.2500846908791077,-6.919356061119153e-06,-0.2501109374556091
794,0.7825,945.607,0.0104849,0.00622037,0.00084519,-0.0113795,0.000305081,0.578004,-0.288075,-0.28811,6.8737e-06,-1.39223e-06,-6.92606e-06,0.573636,0.7824770534791945,6.873723623845862e-06,-1.3922290308387986e-06,-0.2502946377717249,-6.926036014931469e-06,-0.25032087700021366
795,0.7835,945.779,0.00833052,0.00730757,0.000889088,-0.012041,0.000834343,0.578565,-0.288356,-0.28839,6.87475e-06,-1.42868e-06,-6.91798e-06,0.574196,0.7834773036501359,6.874773631038167e-06,-1.4286789794537569e-06,-0.25050527538254064,-6.917956070884301e-06,-0.2505307577699746
796,0.7845,945.953,0.010297,0.00627639,0.00081426,-0.0113914,0.000335771,0.579125,-0.288636,-0.28867,6.87379e-06,-1.44341e-06,-6.9236e-06,0.574756,0.7844763306416298,6.8738136245194426e-06,-1.4434089582460174e-06,-0.2507151045279823,-6.923576031936385e-06,-0.25074057978134656
797,0.7855,946.125,0.00844365,0.00720931,0.000849482,-0.0119572,0.000790108,0.579686,-0.288916,-0.28895,6.87461e-06,-1.47817e-06,-6.91654e-06,0.575315,0.7854777027217255,6.874633630138405e-06,-1.4781689074983007e-06,-0.2509248749294878,-6.916516080757162e-06,-0.2509503430507797
798,0.7865,946.298,0.0101296,0.00632209,0.000782847,-0.0113969,0.000361437,0.580245,-0.289196,-0.28923,6.87371e-06,-1.49426e-06,-6.92125e-06,0.575875,0.7864760637734634,6.873733624068734e-06,-1.4942588836275306e-06,-0.2511345866035031,-6.921226048173246e-06,-0.2511600475947192
799,0.7875,946.47,0.00853777,0.00712095,0.000810548,-0.0118796,0.000750679,0.580805,-0.289475,-0.28951,6.87433e-06,-1.52754e-06,-6.91506e-06,0.576434,0.7874767705409198,6.874353628338881e-06,-1.5275388333124695e-06,-0.2513434909103347,-6.915036091070803e-06,-0.25136969342960613
800,0.7885,946.642,0.00998037,0.00635872,0.000751023,-0.0113967,0.000382684,0.581364,-0.289755,-0.289789,6.87346e-06,-1.54479e-06,-6.91898e-06,0.576992,0.7884762493839621,6.873483622271692e-06,-1.5447888067621207e-06,-0.2515530853882836,-6.918956063861614e-06,-0.25157853215078296
801,0.7895,946.814,0.00861522,0.00704132,0.00077222,-0.0118074,0.000715481,0.581923,-0.290034,-0.290069,6.87389e-06,-1.57677e-06,-6.91356e-06,0.577551,0.7894762870918661,6.87391362519385e-06,-1.5767687568946087e-06,-0.251761872950241,-6.913536101382789e-06,-0.25178806082639726
802,0.7905,946.985,0.00984704,0.00638739,0.000718853,-0.0113917,0.000400054,0.582482,-0.290313,-0.290348,6.87305e-06,-1.59501e-06,-6.91679e-06,0.578109,0.7904768839771243,6.873073619573233e-06,-1.5950087279836822e-06,-0.251970602268594,-6.916766079112513e-06,-0.2519967828393519
803,0.7915,947.157,0.00867805,0.00696935,0.000734436,-0.01174,0.000684001,0.58304,-0.290592,-0.290627,6.87331e-06,-1.62585e-06,-6.91204e-06,0.578666,0.7914762488752596,6.873333621149058e-06,-1.625848678354913e-06,-0.25217927335959034,-6.912016111915165e-06,-0.25220544662698785
804,0.7925,947.328,0.00972767,0.00640909,0.000686393,-0.0113823,0.000414031,0.583598,-0.290871,-0.290906,6.87248e-06,-1.64493e-06,-6.91468e-06,0.579224,0.79247617157462,6.8725036155292685e-06,-1.6449286470709978e-06,-0.25238788623947295,-6.914656093703897e-06,-0.2524140522055476
805,0.7935,947.499,0.00872809,0.00690412,0.000697142,-0.0116769,0.000655782,0.584156,-0.29115,-0.291184,6.87258e-06,-1.67477e-06,-6.91051e-06,0.579781,0.7934766523865457,6.872603616203676e-06,-1.674768597581533e-06,-0.25259644092448075,-6.910486122446713e-06,-0.252621852213495
806,0.7945,947.669,0.00962054,0.00642471,0.000653695,-0.0113692,0.000425045,0.584714,-0.291428,-0.291463,6.87174e-06,-1.69457e-06,-6.91264e-06,0.580337,0.7944776916225502,6.871763610361015e-06,-1.694568564247767e-06,-0.25280419023541156,-6.912616107745961e-06,-0.2528303416311013
807,0.7955,947.84,0.00876699,0.00684479,0.000660289,-0.0116174,0.00063042,0.585271,-0.291707,-0.291741,6.87169e-06,-1.72352e-06,-6.90897e-06,0.580894,0.7954774941159295,6.871713610134833e-06,-1.7235185147956855e-06,-0.2530126287878057,-6.908946133088456e-06,-0.2530380259266731
808,0.7965,948.01,0.00952409,0.00643503,0.000620803,-0.0113529,0.000433478,0.585827,-0.291985,-0.292019,6.87085e-06,-1.74393e-06,-6.91067e-06,0.58145,0.7964760571774647,6.870873604292171e-06,-1.7439284794029675e-06,-0.2532202624145914,-6.910646121349728e-06,-0.2532456524940355
809,0.7975,948.18,0.00879618,0.0067906,0.000623836,-0.0115611,0.000607552,0.586384,-0.292263,-0.292298,6.87066e-06,-1.77211e-06,-6.90743e-06,0.582006,0.7974769730705111,6.870683602944183e-06,-1.7721084297761536e-06,-0.25342783832725146,-6.907406143730199e-06,-0.2534539678956399
810,0.7985,948.35,0.00943697,0.00644075,0.000587759,-0.0113337,0.000439668,0.58694,-0.292541,-0.292575,6.86979e-06,-1.79301e-06,-6.90875e-06,0.582561,0.7984766481514578,6.869813597099039e-06,-1.7930083925365992e-06,-0.2536353565418281,-6.908726134624565e-06,-0.2536607325083118
811,0.7995,948.519,0.00881696,0.00674092,0.000587745,-0.0115076,0.000586862,0.587496,-0.292819,-0.292853,6.86948e-06,-1.82052e-06,-6.90589e-06,0.583117,0.7994768792062961,6.869503594852944e-06,-1.8205183428543492e-06,-0.2538428170743594,-6.905866154371942e-06,-0.2538681859873049
812,0.8005,948.688,0.00935798,0.00644248,0.000554596,-0.0113121,0.000443914,0.588052,-0.293096,-0.293131,6.86858e-06,-1.84183e-06,-6.90689e-06,0.583672,0.800477666544233,6.868603588783273e-06,-1.8418283038723615e-06,-0.2540494739907255,-6.906866147460278e-06,-0.25407558180224643
813,0.8015,948.857,0.00883044,0.00669517,0.000551983,-0.0114567,0.000568067,0.588607,-0.293374,-0.293408,6.86815e-06,-1.86874e-06,-6.90435e-06,0.584226,0.8014772089965385,6.868173585861115e-06,-1.8687382539184227e-06,-0.25425681941460676,-6.9043261650136856e-06,-0.25428217425171196
814,0.8025,949.026,0.00928605,0.00644077,0.000521347,-0.0112883,0.000446478,0.589162,-0.293651,-0.293686,6.86721e-06,-1.8904e-06,-6.90509e-06,0.58478,0.8024773063488757,6.867233579344045e-06,-1.8903982131890373e-06,-0.25446336166820616,-6.9050661599678875e-06,-0.25448945499391185
815,0.8035,949.195,0.00883763,0.00665282,0.00051652,-0.0114078,0.000550921,0.589716,-0.293928,-0.293963,6.86667e-06,-1.91678e-06,-6.90282e-06,0.585334,0.8034761554322423,6.866693575524607e-06,-1.9167781629692016e-06,-0.25466984671752446,-6.902796175545234e-06,-0.2546959328163799
816,0.8045,949.363,0.00922024,0.0064361,0.000488037,-0.0112628,0.000447594,0.590271,-0.294205,-0.29424,6.86569e-06,-1.93871e-06,-6.90333e-06,0.585888,0.8044773625077708,6.865713569004228e-06,-1.938708120707844e-06,-0.254876274578405,-6.903306172034718e-06,-0.25490235345241186
817,0.8055,949.531,0.00883939,0.00661344,0.000481332,-0.0113608,0.000535206,0.590825,-0.294482,-0.294517,6.86504e-06,-1.96463e-06,-6.9013e-06,0.586442,0.8054773199292307,6.865063564509555e-06,-1.9646280701168806e-06,-0.2550826452666869,-6.9012761860776095e-06,-0.255108716917846
818,0.8065,949.699,0.00915975,0.00642886,0.000454692,-0.0112357,0.000447463,0.591379,-0.294759,-0.294793,6.86402e-06,-1.98678e-06,-6.90162e-06,0.586995,0.8064778314805816,6.864043557541777e-06,-1.9867780263194135e-06,-0.2552889587982048,-6.90159618388364e-06,-0.25531427854316757
819,0.8075,949.867,0.00883648,0.00657664,0.000446395,-0.0113155,0.000520732,0.591932,-0.295036,-0.29507,6.86327e-06,-2.01228e-06,-6.8998e-06,0.587547,0.8074770899909034,6.863293552372696e-06,-2.0122779753606324e-06,-0.2554952151887887,-6.899776196389595e-06,-0.25552052792115343
820,0.8085,950.035,0.00910386,0.00641945,0.00042133,-0.0112073,0.000446263,0.592485,-0.295312,-0.295346,6.8622e-06,-2.0346e-06,-6.89995e-06,0.5881,0.8084769012440005,6.8622235449566915e-06,-2.0345979302449635e-06,-0.25570067015530706,-6.899926195402806e-06,-0.2557259759023216
821,0.8095,950.202,0.00882958,0.00654206,0.000411691,-0.0112716,0.000507331,0.593038,-0.295588,-0.295622,6.86134e-06,-2.05974e-06,-6.8983e-06,0.588652,0.8094772655456244,6.861363539112375e-06,-2.0597378787012843e-06,-0.25590606842407926,-6.8982762068126036e-06,-0.2559313671876714
822,0.8105,950.369,0.00905194,0.00640816,0.000387972,-0.0111778,0.000444149,0.59359,-0.295864,-0.295898,6.86022e-06,-2.08219e-06,-6.89832e-06,0.589204,0.8104763727244175,6.860243531470189e-06,-2.082187832264104e-06,-0.25611141001075166,-6.898296206592214e-06,-0.25613670179284853
823,0.8115,950.536,0.00881926,0.00650942,0.000377202,-0.0112288,0.00049486,0.594142,-0.29614,-0.296174,6.85927e-06,-2.107e-06,-6.89683e-06,0.589755,0.8114760315626175,6.859293524952292e-06,-2.1069977802490314e-06,-0.25631669493096654,-6.896806216905027e-06,-0.2563419797334948
824,0.8125,950.703,0.00900345,0.00639529,0.000354632,-0.0111473,0.000441256,0.594694,-0.296416,-0.29645,6.85809e-06,-2.12955e-06,-6.89673e-06,0.590307,0.8124762423648242,6.858113516861053e-06,-2.1295477324878576e-06,-0.2565219232003617,-6.896706217562887e-06,-0.2565472010252474
825,0.8135,950.869,0.00880603,0.00647845,0.000342913,-0.0111872,0.00048319,0.595246,-0.296692,-0.296726,6.85706e-06,-2.15406e-06,-6.89537e-06,0.590858,0.8134770054358058,6.857083509670403e-06,-2.1540576800038735e-06,-0.25672709483457046,-6.895346226998278e-06,-0.25675236568373916
826,0.8145,951.035,0.00895792,0.00638107,0.000321324,-0.011116,0.000437702,0.595797,-0.296967,-0.297001,6.85582e-06,-2.17667e-06,-6.89518e-06,0.591408,0.814476506603085,6.85584350113011e-06,-2.176667631026419e-06,-0.25693146678106027,-6.895156228314825e-06,-0.256956730681701
827,0.8155,951.201,0.00879034,0.00644892,0.000308813,-0.0111465,0.000472214,0.596348,-0.297242,-0.297277,6.85469e-06,-2.20092e-06,-6.89393e-06,0.591958,0.8154765586472601,6.854713493487097e-06,-2.2009175779658108e-06,-0.25713578253299196,-6.893906236871139e-06,-0.2571617823256044
828,0.8165,951.367,0.00891493,0.00636572,0.00028806,-0.011084,0.000433587,0.596899,-0.297518,-0.297552,6.8534e-06,-2.22357e-06,-6.89366e-06,0.592508,0.8164771618719477,6.8534234844985775e-06,-2.2235675278814426e-06,-0.25734078476540345,-6.893636238736178e-06,-0.2573660347494693
829,0.8175,951.532,0.00877255,0.00642064,0.000274889,-0.0111066,0.000461835,0.597449,-0.297793,-0.297827,6.85219e-06,-2.24758e-06,-6.89251e-06,0.593058,0.8174764991035244,6.852213476404856e-06,-2.2475774742458654e-06,-0.2575449879703654,-6.892486246745655e-06,-0.2575702310116402
830,0.8185,951.698,0.00887413,0.0063494,0.000254849,-0.0110515,0.000429001,0.597999,-0.298068,-0.298102,6.85083e-06,-2.27024e-06,-6.89218e-06,0.593608,0.8184763861217559,6.850853466966456e-06,-2.2702374230521016e-06,-0.2577491350271667,-6.892156248938797e-06,-0.25777437112755963
831,0.8195,951.863,0.008753,0.00639344,0.000241133,-0.0110674,0.000451971,0.598549,-0.298342,-0.298376,6.84954e-06,-2.29403e-06,-6.89111e-06,0.594157,0.8194768232291081,6.849563458199981e-06,-2.2940273687321877e-06,-0.25795248390410086,-6.891086256399781e-06,-0.25797771309074957
832,0.8205,952.028,0.00883521,0.00633229,0.000221702,-0.0110185,0.000424018,0.599099,-0.298617,-0.298651,6.84811e-06,-2.31668e-06,-6.89073e-06,0.594706,0.8204778107282131,6.8481334483116996e-06,-2.316677316538396e-06,-0.2581565189149274,-6.890706258921853e-06,-0.25818174116450365
833,0.8215,952.193,0.00873197,0.00636718,0.000207536,-0.0110288,0.000442551,0.599648,-0.298891,-0.298925,6.84674e-06,-2.34028e-06,-6.88973e-06,0.595254,0.8214775274434314,6.846763438872472e-06,-2.3402772615366274e-06,-0.25835975618396734,-6.889706265833517e-06,-0.25838497152359385
834,0.8225,952.357,0.00879792,0.00631451,0.000188625,-0.0109852,0.000418705,0.600197,-0.299166,-0.2992,6.84525e-06,-2.36291e-06,-6.88931e-06,0.595802,0.8224777931538121,6.8452734287571815e-06,-2.36290720834198e-06,-0.25856367921031553,-6.8892862687963685e-06,-0.258588887616677
835,0.8235,952.521,0.0087097,0.00634172,0.000174091,-0.0109907,0.000433515,0.600745,-0.29944,-0.299474,6.8438e-06,-2.38632e-06,-6.88838e-06,0.59635,0.8234767846831392,6.843823418867245e-06,-2.3863171527693794e-06,-0.2587668049327171,-6.8883562751587135e-06,-0.25879200643292144
836,0.8245,952.685,0.00876202,0.00629618,0.000155624,-0.0109515,0.000413118,0.601293,-0.299714,-0.299748,6.84225e-06,-2.40892e-06,-6.88792e-06,0.596898,0.8244763238098525,6.842273408302901e-06,-2.408917098573049e-06,-0.258969875006295,-6.8878962783403e-06,-0.2589950696022342
837,0.8255,952.849,0.0086864,0.00631696,0.000140791,-0.0109531,0.000424809,0.601841,-0.299988,-0.300021,6.84072e-06,-2.43216e-06,-6.88704e-06,0.597445,0.8254764108341175,6.840743397740212e-06,-2.4321570423202488e-06,-0.2591728894462948,-6.887016284373715e-06,-0.25919733633756714
838,0.8265,953.013,0.00872733,0.0062774,0.000122706,-0.0109176,0.000407303,0.602389,-0.300261,-0.300295,6.8391e-06,-2.45472e-06,-6.88656e-06,0.597992,0.8264770460562643,6.839123386725987e-06,-2.4547169872324304e-06,-0.2593751076434362,-6.8865362876646685e-06,-0.25940028846169993
839,0.8275,953.176,0.00866226,0.0062928,0.000107632,-0.0109159,0.000416389,0.602936,-0.300535,-0.300569,6.8375e-06,-2.47779e-06,-6.88573e-06,0.598539,0.8274764022994716,6.837523375713417e-06,-2.4777869302994304e-06,-0.25957801106490364,-6.885706293369154e-06,-0.25960318498456836
840,0.8285,953.34,0.00869366,0.00625825,8.98748e-05,-0.0108835,0.000401303,0.603483,-0.300808,-0.300842,6.83581e-06,-2.5003e-06,-6.88524e-06,0.599085,0.8284763053400792,6.835833364249311e-06,-2.5002968742082743e-06,-0.25978011867893847,-6.885216296770302e-06,-0.2598052857270611
841,0.8295,953.503,0.00863741,0.00626918,7.46099e-05,-0.0108791,0.000408217,0.60403,-0.301081,-0.301115,6.83413e-06,-2.52322e-06,-6.88445e-06,0.599631,0.8294767554772675,6.834153352786032e-06,-2.5232168167077518e-06,-0.2599821711251252,-6.8844263022560526e-06,-0.26000733130358156
842,0.8305,953.665,0.00866089,0.00623881,5.71346e-05,-0.0108493,0.000395153,0.604577,-0.301354,-0.301388,6.83238e-06,-2.54566e-06,-6.88393e-06,0.600177,0.83047775301038,6.832403340650828e-06,-2.5456567598336477e-06,-0.260184168418523,-6.883906305765741e-06,-0.2602093217291881
843,0.8315,953.828,0.008612,0.00624601,4.17199e-05,-0.0108425,0.000400258,0.605123,-0.301627,-0.301661,6.83063e-06,-2.56844e-06,-6.88319e-06,0.600723,0.8314774667605414,6.830653328737668e-06,-2.5684367015443854e-06,-0.26038611057418626,-6.883166310922562e-06,-0.26041125701893475
844,0.8325,953.99,0.00862888,0.00621914,2.44888e-05,-0.0108149,0.000388883,0.605669,-0.3019,-0.301934,6.82881e-06,-2.59082e-06,-6.88266e-06,0.601268,0.8324777265034531,6.828833316374627e-06,-2.5908166437771385e-06,-0.26058799760716567,-6.882636314542445e-06,-0.2606131371878717
845,0.8335,954.153,0.00858613,0.00622324,8.95899e-06,-0.0108063,0.000392486,0.606214,-0.302173,-0.302207,6.82698e-06,-2.61346e-06,-6.88195e-06,0.601813,0.8334766990596925,6.8270033037887146e-06,-2.613456584921181e-06,-0.2607898295325076,-6.881926319479703e-06,-0.26081496225104484
846,0.8345,954.315,0.00859755,0.00619928,-8.05984e-06,-0.0107805,0.000382517,0.606759,-0.302445,-0.302479,6.8251e-06,-2.63576e-06,-6.88142e-06,0.602358,0.8344762162043617,6.82512329097662e-06,-2.6357565263701588e-06,-0.26099086735649124,-6.881396323099587e-06,-0.2610159932398586
847,0.8355,954.476,0.0085599,0.00620082,-2.36755e-05,-0.0107703,0.000384877,0.607304,-0.302718,-0.302751,6.8232e-06,-2.65828e-06,-6.88073e-06,0.602902,0.8354762782343426,6.823223278162871e-06,-2.6582764667271164e-06,-0.26119258931340283,-6.880706327816455e-06,-0.2612169695556793
848,0.8365,954.638,0.00856679,0.0061793,-4.05088e-05,-0.010746,0.000376078,0.607849,-0.30299,-0.303023,6.82125e-06,-2.6805e-06,-6.8802e-06,0.603446,0.8364768854466786,6.821273264678851e-06,-2.680496407503341e-06,-0.26139351760162366,-6.8801763314363384e-06,-0.261417891213376
849,0.8375,954.799,0.00853339,0.00617872,-5.61858e-05,-0.0107346,0.000377409,0.608393,-0.303262,-0.303295,6.81928e-06,-2.70289e-06,-6.87954e-06,0.60399,0.8374762006614556,6.819303251415221e-06,-2.7028863471834086e-06,-0.2615943912447821,-6.8795163360446665e-06,-0.26161875822781355
850,0.8385,954.96,0.00853654,0.00615921,-7.2856e-05,-0.0107115,0.000369584,0.608938,-0.303534,-0.303567,6.81726e-06,-2.72503e-06,-6.879e-06,0.604533,0.8384778981285816,6.81728323748132e-06,-2.7250262870648356e-06,-0.26179521025773966,-6.878976339774745e-06,-0.2618195706138531
851,0.8395,955.121,0.00850666,0.00615689,-8.85741e-05,-0.010699,0.000370067,0.609481,-0.303805,-0.303839,6.81522e-06,-2.74729e-06,-6.87837e-06,0.605076,0.8394764627130149,6.8152432237678084e-06,-2.7472862261790354e-06,-0.26199523665095936,-6.878346344052488e-06,-0.26202032838635125
852,0.8405,955.282,0.00850672,0.00613905,-0.0001051,-0.010677,0.000363049,0.610025,-0.304077,-0.304111,6.81313e-06,-2.76935e-06,-6.87784e-06,0.605619,0.8404774101417467,6.813153209384026e-06,-2.7693461653877094e-06,-0.2621959466487931,-6.877816347672372e-06,-0.2622210315601612
853,0.8415,955.443,0.00847976,0.0061353,-0.000120842,-0.0106637,0.000362835,0.610568,-0.304348,-0.304382,6.81102e-06,-2.7915e-06,-6.87722e-06,0.606162,0.8414770607560331,6.8110431949985895e-06,-2.7914961037156516e-06,-0.2623958644571648,-6.877196351950943e-06,-0.2624209425714429
854,0.8425,955.603,0.0084773,0.00611886,-0.000137239,-0.0106426,0.000356487,0.611111,-0.30462,-0.304653,6.80887e-06,-2.81347e-06,-6.8767e-06,0.606704,0.842477254328003,6.808893180387798e-06,-2.813466042250745e-06,-0.2625964654990539,-6.876676355571654e-06,-0.2626207994141807
855,0.8435,955.763,0.00845276,0.00611393,-0.000152991,-0.0106285,0.000355701,0.611653,-0.304891,-0.304925,6.80669e-06,-2.8355e-06,-6.8761e-06,0.607246,0.8434761476754926,6.80671316555248e-06,-2.835495980013647e-06,-0.2627962747815231,-6.876076359629835e-06,-0.2628213392820816
856,0.8445,955.923,0.00844822,0.00609865,-0.000169272,-0.0106081,0.000349908,0.612196,-0.305162,-0.305196,6.80447e-06,-2.85738e-06,-6.87558e-06,0.607788,0.8444774270464275,6.804493150491808e-06,-2.8573759176531155e-06,-0.2629960299230131,-6.875556363250546e-06,-0.26302108763201226
857,0.8455,956.083,0.00842568,0.00609276,-0.000185022,-0.0105935,0.000348656,0.612738,-0.305433,-0.305466,6.80222e-06,-2.8793e-06,-6.87501e-06,0.608329,0.8454774047813731,6.802243135206609e-06,-2.8792958548518044e-06,-0.26319573093819426,-6.8749863672001865e-06,-0.26322004507788777
858,0.8465,956.242,0.00841944,0.00607843,-0.000201198,-0.0105737,0.000343323,0.613279,-0.305704,-0.305737,6.79994e-06,-2.90109e-06,-6.87449e-06,0.60887,0.8464760781741549,6.7999631196968835e-06,-2.9010857918176924e-06,-0.2633953778417326,-6.874466370709875e-06,-0.26341968539318705
859,0.8475,956.402,0.00839856,0.00607177,-0.000216937,-0.0105586,0.000341689,0.613821,-0.305974,-0.306008,6.79762e-06,-2.9229e-06,-6.87394e-06,0.609411,0.8474771394716305,6.7976431039618035e-06,-2.922895728341146e-06,-0.2635942342428932,-6.873916374550149e-06,-0.26361927161329124
860,0.8485,956.561,0.00839095,0.00605824,-0.000233016,-0.0105393,0.000336737,0.614362,-0.306245,-0.306278,6.79527e-06,-2.9446e-06,-6.87343e-06,0.609952,0.8484768950135746,6.795293088002197e-06,-2.9445956646334537e-06,-0.26379377316666797,-6.873406378060665e-06,-0.26381806757129367
861,0.8495,956.72,0.00837142,0.00605094,-0.000248735,-0.0105239,0.000334794,0.614903,-0.306515,-0.306548,6.79289e-06,-2.9663e-06,-6.87289e-06,0.610492,0.849477191569598,6.792913071818063e-06,-2.966295600481672e-06,-0.26399252201561096,-6.872866381790743e-06,-0.2640168098616328
862,0.8505,956.878,0.00836269,0.00603807,-0.000264725,-0.010505,0.000330157,0.615443,-0.306785,-0.306818,6.79047e-06,-2.9879e-06,-6.87239e-06,0.611032,0.8504761789553643,6.7904930551865306e-06,-2.987895536210594e-06,-0.2641912172096085,-6.872366385191064e-06,-0.2642154984987971
863,0.8515,957.037,0.0083443,0.00603026,-0.000280419,-0.0104893,0.000327965,0.615984,-0.307055,-0.307088,6.78802e-06,-3.0095e-06,-6.87186e-06,0.611572,0.8514775574166293,6.788043038552516e-06,-3.009495471495427e-06,-0.26438985876314547,-6.871836388810948e-06,-0.26441413349727094
864,0.8525,957.195,0.00833467,0.00601794,-0.000296326,-0.0104708,0.000323589,0.616524,-0.307325,-0.307358,6.78553e-06,-3.03101e-06,-6.87137e-06,0.612111,0.8524776252916588,6.785553021693147e-06,-3.0310054064397463e-06,-0.2645884466907028,-6.8713463922120965e-06,-0.2646127148715348
865,0.8535,957.353,0.00831721,0.00600973,-0.000311988,-0.0104548,0.000321196,0.617063,-0.307594,-0.307628,6.78302e-06,-3.0525e-06,-6.87086e-06,0.61265,0.8534763798718705,6.783043004832123e-06,-3.052495341160366e-06,-0.26478624579337084,-6.870836395722613e-06,-0.26481124263606526
866,0.8545,957.511,0.00830684,0.00599786,-0.000327817,-0.0104366,0.000317037,0.617603,-0.307864,-0.307897,6.78047e-06,-3.07391e-06,-6.87037e-06,0.613189,0.8544775274025067,6.780492987523701e-06,-3.0739052755413e-06,-0.264984726710877,-6.870346399012739e-06,-0.26500898181468413
867,0.8555,957.669,0.00829016,0.00598932,-0.000343442,-0.0104205,0.000314484,0.618142,-0.308133,-0.308167,6.77788e-06,-3.09531e-06,-6.86988e-06,0.613727,0.855477360220515,6.777902969989924e-06,-3.0953052095883393e-06,-0.2651824192285561,-6.8698564024138875e-06,-0.2652074026015826
868,0.8565,957.827,0.00827921,0.00597784,-0.000359198,-0.0104025,0.000310504,0.618681,-0.308403,-0.308436,6.77527e-06,-3.11662e-06,-6.8694e-06,0.614265,0.8564777320936747,6.775292952232448e-06,-3.1166151432948652e-06,-0.2653807931936739,-6.869376405704841e-06,-0.2654050352275028
869,0.8575,957.984,0.00826317,0.00596904,-0.000374784,-0.0103862,0.000307824,0.619219,-0.308672,-0.308705,6.77262e-06,-3.13791e-06,-6.86892e-06,0.614803,0.8574767858349,6.7726429342496175e-06,-3.1379050767776917e-06,-0.2655783791837978,-6.868896408995795e-06,-0.26560261469739654
870,0.8585,958.141,0.00825176,0.00595787,-0.000390469,-0.0103685,0.000303994,0.619757,-0.308941,-0.308974,6.76994e-06,-3.15913e-06,-6.86846e-06,0.615341,0.858476377211649,6.76996291604226e-06,-3.1591250099216595e-06,-0.26577591203043827,-6.868436412177381e-06,-0.2658001410255607
871,0.8595,958.298,0.00823625,0.00594888,-0.000406012,-0.0103521,0.000301213,0.620295,-0.30921,-0.309243,6.76723e-06,-3.18032e-06,-6.86798e-06,0.615878,0.8594765065132477,6.767252897832421e-06,-3.1803149428411004e-06,-0.26597339174788925,-6.867956415468335e-06,-0.26599761422628854
872,0.8605,958.455,0.00822448,0.00593798,-0.00042163,-0.0103346,0.000297508,0.620833,-0.309478,-0.309512,6.76448e-06,-3.20144e-06,-6.86753e-06,0.616415,0.860477174029177,6.764502879175183e-06,-3.2014348754216826e-06,-0.26617008452089197,-6.867506418539726e-06,-0.26619503431386937
873,0.8615,958.612,0.00820941,0.00592883,-0.000437128,-0.0103181,0.000294649,0.62137,-0.309747,-0.30978,6.7617e-06,-3.22253e-06,-6.86708e-06,0.616952,0.8614765185716253,6.761722860293418e-06,-3.2225248076667157e-06,-0.26636745822020313,-6.867056421611117e-06,-0.2663916676946233
874,0.8625,958.768,0.00819735,0.00591815,-0.00045268,-0.0103007,0.000291049,0.621907,-0.310015,-0.310048,6.75889e-06,-3.24356e-06,-6.86663e-06,0.617489,0.8624763999062088,6.75891284140917e-06,-3.2435547396847397e-06,-0.26656404539754175,-6.866606424793531e-06,-0.2665882483846921
875,0.8635,958.924,0.00818265,0.00590888,-0.000468131,-0.0102842,0.00028813,0.622444,-0.310283,-0.310317,6.75605e-06,-3.26455e-06,-6.86619e-06,0.618025,0.863476818321262,6.756072822078352e-06,-3.2645446713663873e-06,-0.266760579896576,-6.866166427754727e-06,-0.2667855096130519
876,0.8645,959.08,0.00817037,0.0058984,-0.00048362,-0.010267,0.000284617,0.622981,-0.310552,-0.310585,6.75318e-06,-3.28548e-06,-6.86575e-06,0.618561,0.8644777741052749,6.753202802745051e-06,-3.2854746028210258e-06,-0.2669577947739936,-6.865726430826946e-06,-0.2669819847676289
877,0.8655,959.236,0.00815598,0.00588905,-0.000499022,-0.0102504,0.000281653,0.623517,-0.31082,-0.310853,6.75027e-06,-3.30638e-06,-6.86532e-06,0.619096,0.865477402068557,6.750292783186396e-06,-3.306374533940115e-06,-0.267154223762334,-6.86529643378897e-06,-0.2671784072739197
878,0.8665,959.392,0.00814353,0.00587872,-0.000514449,-0.0102333,0.000278215,0.624053,-0.311087,-0.31112,6.74734e-06,-3.32721e-06,-6.8649e-06,0.619632,0.8664775659760477,6.747362763404041e-06,-3.327204464831368e-06,-0.2673498674649929,-6.864876436640799e-06,-0.267374044520443
879,0.8675,959.547,0.0081294,0.00586931,-0.000529801,-0.0102167,0.000275218,0.624588,-0.311355,-0.311388,6.74437e-06,-3.348e-06,-6.86448e-06,0.620167,0.8674763986377576,6.7443927433963324e-06,-3.347994395497267e-06,-0.26754619139193103,-6.864456439492628e-06,-0.26757036196879835
880,0.8685,959.702,0.00811684,0.00585912,-0.000545167,-0.0101997,0.000271844,0.625124,-0.311623,-0.311656,6.74137e-06,-3.36874e-06,-6.86406e-06,0.620701,0.8684776342946126,6.741392723164097e-06,-3.3687343258259617e-06,-0.26774246271110647,-6.864036442344457e-06,-0.2677666268111272
881,0.8695,959.857,0.00810293,0.00584967,-0.000560468,-0.0101831,0.000268823,0.625659,-0.31189,-0.311923,6.73833e-06,-3.38944e-06,-6.86366e-06,0.621236,0.8694775372791588,6.738352702706507e-06,-3.38943425581828e-06,-0.26793794937493165,-6.863636445086918e-06,-0.2679621070239988
882,0.8705,960.012,0.00809027,0.0058396,-0.000575775,-0.0101662,0.000265503,0.626193,-0.312157,-0.31219,6.73527e-06,-3.41009e-06,-6.86325e-06,0.62177,0.8704761048778857,6.735292682025218e-06,-3.410084185695439e-06,-0.268133383850785,-6.863226447939574e-06,-0.2681575350506209
883,0.8715,960.167,0.00807656,0.00583012,-0.000591024,-0.0101497,0.000262467,0.626728,-0.312424,-0.312457,6.73217e-06,-3.43069e-06,-6.86285e-06,0.622304,0.8714770773302511,6.7321926611185745e-06,-3.430684115235394e-06,-0.2683287661525988,-6.862826450682036e-06,-0.2683529109049252
884,0.8725,960.321,0.00806384,0.00582016,-0.000606271,-0.0101328,0.000259194,0.627262,-0.312691,-0.312724,6.72905e-06,-3.45123e-06,-6.86246e-06,0.622837,0.8724767129685065,6.729072640210276e-06,-3.45122404454834e-06,-0.26852409629430174,-6.862436453425325e-06,-0.26854823460083976
885,0.8735,960.476,0.00805028,0.00581067,-0.000621468,-0.0101163,0.000256148,0.627796,-0.312958,-0.312991,6.72589e-06,-3.47174e-06,-6.86208e-06,0.623371,0.8734768825547443,6.725912618854579e-06,-3.471733973525737e-06,-0.2687193742898186,-6.862056455947396e-06,-0.26874350615228915
886,0.8745,960.63,0.00803753,0.0058008,-0.000636657,-0.0100995,0.000252916,0.62833,-0.313225,-0.313258,6.7227e-06,-3.49219e-06,-6.8617e-06,0.623904,0.8744775863741687,6.7227225974964e-06,-3.4921839022761247e-06,-0.26891460015307067,-6.86167645858049e-06,-0.2689387255731941
887,0.8755,960.784,0.00802412,0.00579131,-0.0006518,-0.010083,0.000249867,0.628863,-0.313491,-0.313524,6.71948e-06,-3.5126e-06,-6.86132e-06,0.624437,0.8754769492342491,6.719502575691649e-06,-3.5125938308011584e-06,-0.2691090430073839,-6.861296461213584e-06,-0.2691331620109989
888,0.8765,960.937,0.00801135,0.00578152,-0.000666932,-0.0100663,0.000246671,0.629396,-0.313758,-0.313791,6.71623e-06,-3.53296e-06,-6.86095e-06,0.624969,0.8764768448967135,6.7162525538844164e-06,-3.5329537591000104e-06,-0.2693041648429767,-6.860926463736483e-06,-0.2693282774076774
889,0.8775,961.091,0.00799806,0.00577204,-0.000682022,-0.0100498,0.000243623,0.629929,-0.314024,-0.314057,6.71295e-06,-3.55328e-06,-6.86058e-06,0.625501,0.8774772736456207,6.712972531852657e-06,-3.553273687062486e-06,-0.26949850408686316,-6.860556466259382e-06,-0.26952261023847457
890,0.8785,961.244,0.00798529,0.00576233,-0.000697097,-0.0100332,0.000240459,0.630461,-0.31429,-0.314323,6.70964e-06,-3.57354e-06,-6.86023e-06,0.626033,0.8784763572878855,6.70966250959637e-06,-3.5735336149089747e-06,-0.26969279164338544,-6.860206468672914e-06,-0.2697168913836133
891,0.8795,961.397,0.00797211,0.00575286,-0.000712132,-0.0100167,0.000237414,0.630993,-0.314556,-0.314589,6.7063e-06,-3.59376e-06,-6.85987e-06,0.626565,0.8794759725840551,6.7063224873376015e-06,-3.593753542419087e-06,-0.26988702752629057,-6.85984647119664e-06,-0.2699111208568401
892,0.8805,961.55,0.00795934,0.00574321,-0.000727151,-0.0100002,0.00023428,0.631525,-0.314822,-0.314855,6.70292e-06,-3.61393e-06,-6.85952e-06,0.627096,0.880476119817045,6.702942464631434e-06,-3.61392346981404e-06,-0.270081211749322,-6.859496473499149e-06,-0.2701052986718978
893,0.8815,961.703,0.00794626,0.00573377,-0.000742132,-0.00998376,0.000231241,0.632057,-0.315087,-0.31512,6.69952e-06,-3.63406e-06,-6.85918e-06,0.627627,0.8814767992699206,6.699542441923612e-06,-3.634053396761594e-06,-0.2702746146011987,-6.859156475913508e-06,-0.2702986951415858
894,0.8825,961.856,0.00793352,0.00572418,-0.000757094,-0.00996726,0.000228133,0.632588,-0.315353,-0.315386,6.69608e-06,-3.65413e-06,-6.85884e-06,0.628158,0.8824761287488287,6.69610241876839e-06,-3.6541233237041837e-06,-0.27046869573977894,-6.858816478216845e-06,-0.2704927698755941
895,0.8835,962.008,0.00792053,0.00571476,-0.00077202,-0.00995087,0.000225102,0.63312,-0.315618,-0.315651,6.69262e-06,-3.67416e-06,-6.85851e-06,0.628688,0.8834778724895318,6.692642395611514e-06,-3.674153250310397e-06,-0.2706619959220026,-6.858486480521009e-06,-0.27068606367901704
896,0.8845,962.16,0.00790781,0.00570524,-0.000786926,-0.00993444,0.000222019,0.63365,-0.315884,-0.315916,6.68913e-06,-3.69415e-06,-6.85818e-06,0.629219,0.884476380343159,6.689152372230112e-06,-3.694143176691256e-06,-0.27085597403085515,-6.8581564827141506e-06,-0.27087930626636836
897,0.8855,962.312,0.0078949,0.00569584,-0.000801798,-0.00991809,0.000218998,0.634181,-0.316149,-0.316182,6.6856e-06,-3.71409e-06,-6.85785e-06,0.629749,0.8854773030225742,6.685622348623355e-06,-3.714083102734911e-06,-0.27104917159792874,-6.857826485018315e-06,-0.27107322657835664
898,0.8865,962.464,0.00788221,0.00568637,-0.000816648,-0.00990171,0.000215938,0.634711,-0.316414,-0.316447,6.68205e-06,-3.73398e-06,-6.85753e-06,0.630278,0.8864768708552535,6.682072325014943e-06,-3.7339730286634065e-06,-0.27124231797443,-6.857506487212284e-06,-0.2712663665811327
899,0.8875,962.616,0.00786938,0.00567701,-0.000831466,-0.00988541,0.000212928,0.635241,-0.316679,-0.316711,6.67846e-06,-3.75382e-06,-6.85722e-06,0.630808,0.8874769685992983,6.678482300959132e-06,-3.753812954476743e-06,-0.27143541317392283,-6.857196489296058e-06,-0.27145872686768024
900,0.8885,962.767,0.00785673,0.00566759,-0.00084626,-0.00986908,0.000209889,0.635771,-0.316943,-0.316976,6.67485e-06,-3.77362e-06,-6.85692e-06,0.631337,0.888477596535636,6.674872276901667e-06,-3.7736128799537028e-06,-0.2716277288380603,-6.85689649138066e-06,-0.2716517647264143
901,0.8895,962.919,0.00784397,0.00565826,-0.000861023,-0.00985282,0.000206892,0.6363,-0.317208,-0.317241,6.6712e-06,-3.79337e-06,-6.85661e-06,0.631866,0.8894768654675329,6.671222252396802e-06,-3.793362805204481e-06,-0.27182072191720585,-6.856586493464434e-06,-0.27184475143689335
902,0.8905,963.07,0.00783136,0.00564889,-0.000875761,-0.00983654,0.000203873,0.636829,-0.317472,-0.317505,6.66753e-06,-3.81308e-06,-6.85632e-06,0.632394,0.8904766631525376,6.667552228112328e-06,-3.813072730229905e-06,-0.27201293587326114,-6.8562964954388406e-06,-0.2720369590499927
903,0.8915,963.221,0.00781867,0.00563959,-0.000890469,-0.00982033,0.000200889,0.637358,-0.317737,-0.317769,6.66382e-06,-3.83274e-06,-6.85602e-06,0.632922,0.8914769898704344,6.6638422033804545e-06,-3.832732655029147e-06,-0.27220582688606665,-6.855996497523442e-06,-0.27222911592697974
904,0.8925,963.371,0.0078061,0.00563027,-0.000905152,-0.00980411,0.00019789,0.637887,-0.318001,-0.318033,6.66009e-06,-3.85235e-06,-6.85574e-06,0.63345,0.892477845901156,6.660112178424882e-06,-3.8523425797132305e-06,-0.2723979391878292,-6.855716499498676e-06,-0.27242122208124686
905,0.8935,963.522,0.00779348,0.00562101,-0.000919805,-0.00978794,0.000194919,0.638415,-0.318265,-0.318297,6.65633e-06,-3.87192e-06,-6.85546e-06,0.633978,0.8934773380464978,6.656352153466827e-06,-3.871912504171959e-06,-0.27259000077863815,-6.855436501362888e-06,-0.27261327752618325
906,0.8945,963.672,0.00778096,0.00561173,-0.000934433,-0.00977177,0.000191939,0.638943,-0.318529,-0.318561,6.65254e-06,-3.89144e-06,-6.85518e-06,0.634505,0.8944773580630385,6.652562128284245e-06,-3.8914324284045065e-06,-0.27278201167187943,-6.855156503338122e-06,-0.2728052822751743
907,0.8955,963.823,0.00776839,0.00560251,-0.000949031,-0.00975564,0.000188983,0.63947,-0.318792,-0.318825,6.64872e-06,-3.91092e-06,-6.8549e-06,0.635033,0.8954760107526083,6.6487421028771365e-06,-3.9109123524116995e-06,-0.2729732448545439,-6.854876505202334e-06,-0.272997236341602
908,0.8965,963.973,0.00775592,0.00559328,-0.000963604,-0.00973952,0.00018602,0.639998,-0.319056,-0.319088,6.64487e-06,-3.93035e-06,-6.85464e-06,0.635559,0.8964770863469855,6.644892077245501e-06,-3.930342276192711e-06,-0.27316515458470336,-6.8546165069571785e-06,-0.2731884129276211
909,0.8975,964.123,0.00774342,0.00558409,-0.000978147,-0.00972344,0.000183079,0.640525,-0.319319,-0.319352,6.64099e-06,-3.94974e-06,-6.85437e-06,0.636086,0.8974767931711014,6.641012051389339e-06,-3.949732199748368e-06,-0.27335628701403136,-6.854346508822218e-06,-0.2733802658609068
910,0.8985,964.272,0.00773099,0.0055749,-0.000992664,-0.00970738,0.000180134,0.641052,-0.319583,-0.319615,6.63708e-06,-3.96908e-06,-6.85412e-06,0.636612,0.8984770269795614,6.6371020255306945e-06,-3.969072123188866e-06,-0.27354809563440774,-6.8540965105778895e-06,-0.273571341723408
911,0.8995,964.422,0.00771855,0.00556576,-0.00100715,-0.00969135,0.000177207,0.641579,-0.319846,-0.319878,6.63314e-06,-3.98837e-06,-6.85386e-06,0.637138,0.8994777880501603,6.633161999225479e-06,-3.9883620465142045e-06,-0.2737391273634824,-6.853836512332734e-06,-0.27376236733956516
912,0.9005,964.571,0.00770617,0.00555661,-0.00102162,-0.00967533,0.000174279,0.642105,-0.320109,-0.320141,6.62918e-06,-4.00762e-06,-6.85362e-06,0.637664,0.9004771761827113,6.629201973140653e-06,-4.0076119695031664e-06,-0.27393010885781843,-6.853596513978211e-06,-0.2739533427225912
913,0.9015,964.72,0.00769378,0.0055475,-0.00103605,-0.00965934,0.000171367,0.642631,-0.320372,-0.320404,6.62518e-06,-4.02683e-06,-6.85337e-06,0.63819,0.9014770901316975,6.625201946608428e-06,-4.0268218923777965e-06,-0.274121040130626,-6.8533465157338824e-06,-0.2741442678856957
914,0.9025,964.869,0.00768145,0.0055384,-0.00105046,-0.00964338,0.000168457,0.643157,-0.320634,-0.320667,6.62116e-06,-4.04599e-06,-6.85313e-06,0.638715,0.9024775301737715,6.6211819198525035e-06,-4.045981815026245e-06,-0.2743111955066697,-6.853106517379359e-06,-0.2743351428420848
915,0.9035,965.018,0.00766912,0.00552932,-0.00106484,-0.00962744,0.00016556,0.643682,-0.320897,-0.320929,6.61711e-06,-4.0651e-06,-6.8529e-06,0.63924,0.9034765931081856,6.617131893094097e-06,-4.065091737448512e-06,-0.27450202656686706,-6.852876518914641e-06,-0.27452524213056595
916,0.9045,965.167,0.00765684,0.00552026,-0.00107919,-0.00961152,0.000162666,0.644207,-0.32116,-0.321192,6.61303e-06,-4.08417e-06,-6.85267e-06,0.639764,0.9044761806883481,6.613051866111164e-06,-4.084161659756447e-06,-0.27469280744509483,-6.8526465205609455e-06,-0.27471601690390324
917,0.9055,965.315,0.00764457,0.00551123,-0.00109351,-0.00959563,0.000159784,0.644732,-0.321422,-0.321454,6.60892e-06,-4.1032e-06,-6.85245e-06,0.640289,0.9054762931897697,6.6089418389037036e-06,-4.1031915818390274e-06,-0.27488281303772466,-6.8524265219860325e-06,-0.2749060164164514
918,0.9065,965.463,0.00763234,0.00550221,-0.00110781,-0.00957976,0.000156906,0.645257,-0.321684,-0.321716,6.60478e-06,-4.12218e-06,-6.85223e-06,0.640813,0.9064769308881067,6.604801811693761e-06,-4.122171503806449e-06,-0.2750727688554101,-6.852206523522142e-06,-0.2750959661556479
919,0.9075,965.612,0.00762013,0.00549321,-0.00112208,-0.00956392,0.00015404,0.645781,-0.321946,-0.321978,6.60062e-06,-4.14112e-06,-6.85202e-06,0.641337,0.9074761865820198,6.600641784038075e-06,-4.141111425548516e-06,-0.2752626749111904,-6.851996524948056e-06,-0.27528586613453165
920,0.9085,965.759,0.00760795,0.00548423,-0.00113632,-0.0095481,0.000151178,0.646306,-0.322208,-0.32224,6.59642e-06,-4.16001e-06,-6.8518e-06,0.64186,0.9084778745000464,6.596441756379079e-06,-4.160001347175424e-06,-0.2754525312181013,-6.851776526484166e-06,-0.275475716366138
921,0.9095,965.907,0.00759578,0.00547527,-0.00115054,-0.00953231,0.000148327,0.646829,-0.32247,-0.322502,6.5922e-06,-4.17886e-06,-6.8516e-06,0.642383,0.9094762694859411,6.5922217284963835e-06,-4.178851268576977e-06,-0.2756423377891756,-6.851576527799885e-06,-0.27566551686349927
922,0.9105,966.055,0.00758366,0.00546633,-0.00116472,-0.00951654,0.000145481,0.647353,-0.322731,-0.322764,6.58795e-06,-4.19766e-06,-6.8514e-06,0.642906,0.9104770972451242,6.587971700611206e-06,-4.197651189863372e-06,-0.27583137046917483,-6.851376529226627e-06,-0.27585526763964385
923,0.9115,966.202,0.00757155,0.00545742,-0.00117888,-0.0095008,0.000142645,0.647876,-0.322993,-0.323025,6.58368e-06,-4.21642e-06,-6.8512e-06,0.643429,0.9114765380979852,6.583701672502329e-06,-4.216411110924412e-06,-0.27602107779736673,-6.851176530542347e-06,-0.2760442447522039
924,0.9125,966.349,0.00755947,0.00544851,-0.00119302,-0.00948507,0.000139815,0.648399,-0.323254,-0.323287,6.57937e-06,-4.23514e-06,-6.85101e-06,0.643952,0.912476501795124,6.579391644168098e-06,-4.235131031760098e-06,-0.27621001163912273,-6.850986531858894e-06,-0.27623389631463935
925,0.9135,966.496,0.00754741,0.00543963,-0.00120712,-0.00946938,0.000136994,0.648922,-0.323516,-0.323548,6.57504e-06,-4.25381e-06,-6.85083e-06,0.644474,0.9134769886100598,6.575061615610167e-06,-4.2538009525916465e-06,-0.27639961977632266,-6.850806533065246e-06,-0.27642277461801035
926,0.9145,966.643,0.00753538,0.00543077,-0.0012212,-0.0094537,0.000134179,0.649444,-0.323777,-0.323809,6.57068e-06,-4.27244e-06,-6.85064e-06,0.644996,0.9144760843394131,6.570701587049754e-06,-4.272430873086819e-06,-0.2765884548315144,-6.850616534381793e-06,-0.276611603630577
927,0.9155,966.79,0.00752338,0.00542193,-0.00123525,-0.00943806,0.000131374,0.649967,-0.324038,-0.32407,6.56629e-06,-4.29102e-06,-6.85047e-06,0.645517,0.9154776172095391,6.56631155804277e-06,-4.291010793577854e-06,-0.276777240607188,-6.850446535588972e-06,-0.2768003833652024
928,0.9165,966.937,0.0075114,0.00541311,-0.00124928,-0.00942243,0.000128574,0.650489,-0.324299,-0.324331,6.56187e-06,-4.30956e-06,-6.85029e-06,0.646039,0.9164777575396383,6.5618915290333035e-06,-4.309550713843535e-06,-0.27696597711620363,-6.850266536795324e-06,-0.27698911383474645
929,0.9175,967.083,0.00749945,0.00540431,-0.00126327,-0.00940683,0.000125784,0.65101,-0.324559,-0.324591,6.55743e-06,-4.32806e-06,-6.85013e-06,0.64656,0.9174765026018137,6.557451500022182e-06,-4.328050633994884e-06,-0.27715394152572126,-6.850106537892309e-06,-0.2771770722294993
930,0.9185,967.229,0.00748752,0.00539552,-0.00127724,-0.00939126,0.000123,0.651532,-0.32482,-0.324852,6.55296e-06,-4.34651e-06,-6.84996e-06,0.647081,0.9184776866224673,6.552981470786534e-06,-4.346500553920052e-06,-0.27734257972862675,-6.849936539099488e-06,-0.27736570439607877
931,0.9195,967.375,0.00747562,0.00538676,-0.00129118,-0.0093757,0.000120225,0.652053,-0.32508,-0.325112,6.54846e-06,-4.36492e-06,-6.8498e-06,0.647601,0.9194774739191731,6.548481441104315e-06,-4.3649104737308875e-06,-0.2775304462341933,-6.849776540196473e-06,-0.27755356489001337
932,0.9205,967.521,0.00746375,0.00537801,-0.0013051,-0.00936018,0.000117456,0.652574,-0.32534,-0.325373,6.54394e-06,-4.38329e-06,-6.84965e-06,0.648122,0.9204777822407757,6.543961411642485e-06,-4.383280393427391e-06,-0.2777182639008178,-6.849626541183262e-06,-0.2777420988048309
933,0.9215,967.667,0.0074519,0.00536928,-0.00131899,-0.00934467,0.000114695,0.653094,-0.325601,-0.325633,6.53939e-06,-4.40161e-06,-6.8495e-06,0.648642,0.9214766903811487,6.539411381956128e-06,-4.401600312897713e-06,-0.27790675483480265,-6.849476542281074e-06,-0.27792986144894016
934,0.9225,967.812,0.00744007,0.00536057,-0.00133285,-0.0093292,0.000111942,0.653614,-0.325861,-0.325893,6.53481e-06,-4.4199e-06,-6.84936e-06,0.649161,0.9224761180888306,6.5348313518232e-06,-4.419890232254531e-06,-0.27809447467390913,-6.849336543157669e-06,-0.2781175752811078
935,0.9235,967.958,0.00742827,0.00535189,-0.00134668,-0.00931374,0.000109196,0.654134,-0.326121,-0.326153,6.53021e-06,-4.43813e-06,-6.84921e-06,0.649681,0.9234760656340661,6.530231321910662e-06,-4.438120151495362e-06,-0.27828214571220167,-6.849186544255481e-06,-0.27830524031402326
936,0.9245,968.103,0.0074165,0.00534322,-0.00136049,-0.00929831,0.000106458,0.654654,-0.32638,-0.326412,6.52557e-06,-4.45633e-06,-6.84908e-06,0.6502,0.9244765332872418,6.525591291550725e-06,-4.456320070622688e-06,-0.2784690464317743,-6.849056545132903e-06,-0.2784921350528685
937,0.9255,968.248,0.00740475,0.00533456,-0.00137427,-0.0092829,0.000103727,0.655174,-0.32664,-0.326672,6.52092e-06,-4.47448e-06,-6.84894e-06,0.650719,0.9254775213188839,6.520941261189961e-06,-4.474469989523833e-06,-0.2786566200940692,-6.848916546009498e-06,-0.2786797027129023
938,0.9265,968.393,0.00739302,0.00532593,-0.00138802,-0.00926752,0.000101003,0.655693,-0.326899,-0.326931,6.51623e-06,-4.49259e-06,-6.84882e-06,0.651238,0.9264771035215926,6.516251230603842e-06,-4.4925799083106455e-06,-0.27884342383733585,-6.848796546887748e-06,-0.2788665004785449
939,0.9275,968.537,0.00738132,0.00531732,-0.00140174,-0.00925217,9.8287e-05,0.656212,-0.327159,-0.327191,6.51152e-06,-4.51065e-06,-6.84869e-06,0.651756,0.927477204642112,6.511541200016069e-06,-4.510639826982299e-06,-0.2790309001741582,-6.84866654776517e-06,-0.2790539708162204
940,0.9285,968.682,0.00736965,0.00530872,-0.00141544,-0.00923683,9.55781e-05,0.656731,-0.327418,-0.32745,6.50678e-06,-4.52868e-06,-6.84857e-06,0.652274,0.9284778249498304,6.506801169203769e-06,-4.528669745540448e-06,-0.2792176069914366,-6.848546548643419e-06,-0.27924067165897626
941,0.9295,968.826,0.007358,0.00530015,-0.00142911,-0.00922152,9.28767e-05,0.657249,-0.327677,-0.327709,6.50202e-06,-4.54666e-06,-6.84846e-06,0.652792,0.929477035236276,6.502041138167769e-06,-4.5466496639834375e-06,-0.27940426545791097,-6.848436549300452e-06,-0.2794273241524752
942,0.9305,968.97,0.00734637,0.00529159,-0.00144275,-0.00920624,9.01824e-05,0.657767,-0.327936,-0.327968,6.49722e-06,-4.5646e-06,-6.84835e-06,0.65331,0.9304767632477291,6.497241106906415e-06,-4.564589582201073e-06,-0.2795908755861026,-6.8483265500685064e-06,-0.27961392830923826
943,0.9315,969.114,0.00733477,0.00528305,-0.00145637,-0.00919098,8.74956e-05,0.658285,-0.328195,-0.328227,6.49241e-06,-4.58249e-06,-6.84824e-06,0.653827,0.9314770092524409,6.492431075644234e-06,-4.582479500414571e-06,-0.27977743738852945,-6.848216550836561e-06,-0.27980048414178305
944,0.9325,969.258,0.00732319,0.00527453,-0.00146996,-0.00917574,8.4816e-05,0.658803,-0.328453,-0.328485,6.48756e-06,-4.60035e-06,-6.84814e-06,0.654344,0.9324777735188012,6.487581044156698e-06,-4.600339418403543e-06,-0.27996323084129726,-6.848116551494421e-06,-0.2799862716492554
945,0.9335,969.402,0.00731164,0.00526602,-0.00148352,-0.00916053,8.21437e-05,0.65932,-0.328712,-0.328744,6.48269e-06,-4.61816e-06,-6.84804e-06,0.654861,0.9334771228372496,6.482711012667508e-06,-4.618149336277355e-06,-0.2801496962162009,-6.848016552263303e-06,-0.2801727310573626
946,0.9345,969.545,0.00730011,0.00525754,-0.00149706,-0.00914534,7.94785e-05,0.659837,-0.32897,-0.329002,6.4778e-06,-4.63593e-06,-6.84795e-06,0.655377,0.9344769889528763,6.477820980954618e-06,-4.635919254147858e-06,-0.2803353936385796,-6.847926552810968e-06,-0.28035842253751886
947,0.9355,969.689,0.00728861,0.00524907,-0.00151057,-0.00913017,7.68207e-05,0.660354,-0.329229,-0.32926,6.47288e-06,-4.65366e-06,-6.84786e-06,0.655894,0.9354773721329344,6.472900949239246e-06,-4.653649171793006e-06,-0.2805217626358002,-6.847836553469655e-06,-0.2805440661154528
948,0.9365,969.832,0.00727713,0.00524062,-0.00152405,-0.00911503,7.41699e-05,0.66087,-0.329487,-0.329519,6.46793e-06,-4.67135e-06,-6.84777e-06,0.65641,0.9364763361675108,6.467950917077303e-06,-4.6713390892128e-06,-0.2807073640774247,-6.847746554128342e-06,-0.28073038107350035
949,0.9375,969.975,0.00726568,0.0052322,-0.0015375,-0.00909992,7.15264e-05,0.661387,-0.329745,-0.329777,6.46296e-06,-4.68899e-06,-6.84769e-06,0.656925,0.9374777532773266,6.462980884913705e-06,-4.68897900673948e-06,-0.28089291764005386,-6.8476665546768345e-06,-0.28091592869851045
950,0.9385,970.118,0.00725425,0.00522378,-0.00155093,-0.00908482,6.889e-05,0.661903,-0.330003,-0.330034,6.45796e-06,-4.70659e-06,-6.84762e-06,0.657441,0.9384777497749264,6.4579808527476246e-06,-4.706578924040805e-06,-0.28107842333603894,-6.847596555115132e-06,-0.2811007095594773
951,0.9395,970.26,0.00724284,0.00521539,-0.00156433,-0.00906976,6.62607e-05,0.662418,-0.33026,-0.330292,6.45294e-06,-4.72415e-06,-6.84754e-06,0.657956,0.9394763229265763,6.452960820357845e-06,-4.7241388412277985e-06,-0.2812631624412498,-6.847516555663624e-06,-0.2812861616520623
952,0.9405,970.403,0.00723146,0.00520701,-0.0015777,-0.00905471,6.36385e-05,0.662934,-0.330518,-0.33055,6.44789e-06,-4.74167e-06,-6.84748e-06,0.658471,0.9404773509522264,6.447910787743538e-06,-4.74165875830046e-06,-0.28144857262639755,-6.847456556102749e-06,-0.2814715659041791
953,0.9415,970.545,0.0072201,0.00519866,-0.00159105,-0.00903969,6.10235e-05,0.663449,-0.330775,-0.330807,6.44281e-06,-4.75915e-06,-6.84741e-06,0.658986,0.9414769541637003,6.442830754904705e-06,-4.759138675258789e-06,-0.2816332166154637,-6.847386556541046e-06,-0.2816562039847321
954,0.9425,970.687,0.00720877,0.00519032,-0.00160437,-0.0090247,5.84154e-05,0.663964,-0.331033,-0.331065,6.43771e-06,-4.77659e-06,-6.84735e-06,0.6595,0.9424770723034108,6.437730722064217e-06,-4.776578592102787e-06,-0.28181853133894963,-6.847326556980171e-06,-0.28184151277824177
955,0.9435,970.829,0.00719746,0.005182,-0.00161766,-0.00900973,5.58144e-05,0.664479,-0.33129,-0.331322,6.43259e-06,-4.79399e-06,-6.84729e-06,0.660014,0.9434777056366144,6.4326106892220736e-06,-4.793978508832453e-06,-0.2820030802608433,-6.847266557308274e-06,-0.28202605579466444
956,0.9445,970.971,0.00718617,0.00517369,-0.00163093,-0.00899478,5.32205e-05,0.664993,-0.331547,-0.331579,6.42743e-06,-4.81134e-06,-6.84724e-06,0.660528,0.9444769099508215,6.427450655932532e-06,-4.811328425557981e-06,-0.2821875817597581,-6.847216557748226e-06,-0.2822105513896258
957,0.9455,971.113,0.00717491,0.00516541,-0.00164417,-0.00897985,5.06335e-05,0.665507,-0.331804,-0.331836,6.42226e-06,-4.82865e-06,-6.84719e-06,0.661042,0.9454766279880615,6.422280622864207e-06,-4.828638342058156e-06,-0.2823720358478803,-6.847166558077156e-06,-0.28239499957531156
958,0.9465,971.255,0.00716367,0.00515714,-0.00165738,-0.00896495,4.80535e-05,0.666021,-0.332061,-0.332093,6.41706e-06,-4.84593e-06,-6.84715e-06,0.661555,0.9464768600124562,6.417080589349311e-06,-4.845918258444826e-06,-0.28255644253739276,-6.847126558295891e-06,-0.2825794003639045
959,0.9475,971.396,0.00715245,0.00514889,-0.00167056,-0.00895008,4.54805e-05,0.666535,-0.332318,-0.332349,6.41183e-06,-4.86316e-06,-6.84711e-06,0.662068,0.9474776062882628,6.411850555831933e-06,-4.863148174827359e-06,-0.28274080184047556,-6.847086558625648e-06,-0.282763036530979
960,0.9485,971.537,0.00714126,0.00514066,-0.00168372,-0.00893523,4.29143e-05,0.667048,-0.332574,-0.332606,6.40658e-06,-4.88035e-06,-6.84708e-06,0.662581,0.9484769186019815,6.406600522090855e-06,-4.88033809109556e-06,-0.28292439669406044,-6.84705655884521e-06,-0.28294734274622746
961,0.9495,971.678,0.00713009,0.00513244,-0.00169685,-0.0089204,4.03552e-05,0.667561,-0.332831,-0.332862,6.40131e-06,-4.8975e-06,-6.84704e-06,0.663093,0.9494767436944336,6.4013304883481226e-06,-4.897488007249429e-06,-0.2831086614450753,-6.847016559063945e-06,-0.2831308847321078
962,0.9505,971.819,0.00711894,0.00512424,-0.00170996,-0.0089056,3.78029e-05,0.668074,-0.333087,-0.333118,6.39601e-06,-4.91461e-06,-6.84702e-06,0.663606,0.950477081828742,6.396030454602908e-06,-4.914597923288966e-06,-0.2832921621386545,-6.846996559173313e-06,-0.2833143797372536
963,0.9515,971.96,0.00710782,0.00511606,-0.00172304,-0.00889082,3.52575e-05,0.668586,-0.333343,-0.333375,6.39068e-06,-4.93168e-06,-6.84699e-06,0.664118,0.9514759817912077,6.390700420411122e-06,-4.931667839325193e-06,-0.2834756158620685,-6.846966559392875e-06,-0.28349854427550425
964,0.9525,972.1,0.00709672,0.0051079,-0.00173609,-0.00887606,3.27189e-05,0.669099,-0.333599,-0.333631,6.38533e-06,-4.94871e-06,-6.84697e-06,0.66463,0.9524773457977735,6.385350386217681e-06,-4.948697755136067e-06,-0.2836590226273401,-6.846946559502243e-06,-0.2836819451718534
965,0.9535,972.241,0.00708565,0.00509976,-0.00174911,-0.00886133,3.01872e-05,0.669611,-0.333855,-0.333886,6.37996e-06,-4.9657e-06,-6.84696e-06,0.665141,0.9534772701576144,6.379980352022585e-06,-4.96568767094363e-06,-0.2838423824464893,-6.846936559612438e-06,-0.28386458298852335
966,0.9545,972.381,0.00707459,0.00509163,-0.00176211,-0.00884662,2.76623e-05,0.670123,-0.334111,-0.334142,6.37456e-06,-4.98264e-06,-6.84695e-06,0.665652,0.954477706609812,6.3745803176029625e-06,-4.982627586636035e-06,-0.28402569533153266,-6.8469265597226325e-06,-0.2840478901909552
967,0.9555,972.521,0.00706357,0.00508352,-0.00177508,-0.00883194,2.51441e-05,0.670634,-0.334366,-0.334398,6.36914e-06,-4.99955e-06,-6.84693e-06,0.666163,0.955476699938947,6.3691602829596405e-06,-4.999537502325957e-06,-0.284208245503087,-6.846906559832e-06,-0.2842311504727494
968,0.9565,972.661,0.00705256,0.00507542,-0.00178803,-0.00881728,2.26328e-05,0.671145,-0.334622,-0.334653,6.36369e-06,-5.01642e-06,-6.84693e-06,0.666674,0.9564762038841246,6.363710248313836e-06,-5.016407417790525e-06,-0.2843914647391753,-6.846906559832e-06,-0.2844136482599221
969,0.9575,972.801,0.00704158,0.00506735,-0.00180095,-0.00880264,2.01282e-05,0.671656,-0.334877,-0.334909,6.35822e-06,-5.03325e-06,-6.84693e-06,0.667185,0.9574762187063361,6.358240213444333e-06,-5.033237333251783e-06,-0.2845739216514219,-6.846906559832e-06,-0.28459681491963484
970,0.9585,972.941,0.00703062,0.00505929,-0.00181384,-0.00878803,1.76304e-05,0.672167,-0.335132,-0.335164,6.35272e-06,-5.05004e-06,-6.84694e-06,0.667695,0.9584767446667062,6.352740178572347e-06,-5.05002724859871e-06,-0.28475633204308737,-6.846916559721805e-06,-0.2847792194742612
971,0.9595,973.08,0.00701968,0.00505125,-0.0018267,-0.00877344,1.51392e-05,0.672678,-0.335387,-0.335419,6.34721e-06,-5.06678e-06,-6.84694e-06,0.668205,0.9594777820264937,6.347230143477489e-06,-5.066767163941499e-06,-0.28493869592603316,-6.846916559721805e-06,-0.2849615775216561
972,0.9605,973.219,0.00700876,0.00504322,-0.00183954,-0.00875888,1.26548e-05,0.673188,-0.335642,-0.335674,6.34166e-06,-5.08349e-06,-6.84695e-06,0.668714,0.9604773705687395,6.341680108379322e-06,-5.083477079059762e-06,-0.28512101331211737,-6.8469265597226325e-06,-0.28514388907367727
973,0.9615,973.358,0.00699787,0.00503522,-0.00185235,-0.00874434,1.0177e-05,0.673698,-0.335897,-0.335929,6.3361e-06,-5.10016e-06,-6.84697e-06,0.669224,0.9614774690311603,6.336120073058282e-06,-5.100146994174715e-06,-0.2853032842131952,-6.846946559502243e-06,-0.28532615414217954
974,0.9625,973.497,0.006987,0.00502723,-0.00186514,-0.00872982,7.70592e-06,0.674207,-0.336152,-0.336183,6.33051e-06,-5.11679e-06,-6.84699e-06,0.669733,0.9624761151967856,6.330530037734761e-06,-5.116776909286358e-06,-0.2854855086411189,-6.846966559392875e-06,-0.2855076582470303
975,0.9635,973.636,0.00697616,0.00501925,-0.00187789,-0.00871533,5.24145e-06,0.674717,-0.336407,-0.336438,6.32489e-06,-5.13338e-06,-6.84701e-06,0.670242,0.9634772332789476,6.324910002186712e-06,-5.133366824172647e-06,-0.28566768660773745,-6.846986559283508e-06,-0.28568983056621944
976,0.9645,973.775,0.00696533,0.0050113,-0.00189063,-0.00870086,2.7836e-06,0.675226,-0.336661,-0.336692,6.31925e-06,-5.14993e-06,-6.84704e-06,0.67075,0.9644768975836693,6.319269966414964e-06,-5.149916739166649e-06,-0.28584910397435814,-6.847016559063945e-06,-0.28587124230898897
977,0.9655,973.914,0.00695453,0.00500336,-0.00190333,-0.00868642,3.32342e-07,0.675735,-0.336915,-0.336947,6.31359e-06,-5.16644e-06,-6.84707e-06,0.671259,0.965477070847041,6.313609930641562e-06,-5.1664266539352965e-06,-0.28603047526681946,-6.847046558844383e-06,-0.28605332192606236
978,0.9665,974.052,0.00694375,0.00499543,-0.00191601,-0.008672,-2.11233e-06,0.676244,-0.33717,-0.337201,6.30791e-06,-5.18291e-06,-6.8471e-06,0.671767,0.9664777533281887,6.307929894866504e-06,-5.1828965687006345e-06,-0.2862125142846652,-6.8470765586248206e-06,-0.286234641353751
979,0.9675,974.19,0.00693299,0.00498753,-0.00192866,-0.0086576,-4.55045e-06,0.676752,-0.337424,-0.337455,6.3022e-06,-5.19934e-06,-6.84714e-06,0.672275,0.9674769778084089,6.30221985886692e-06,-5.199326483462663e-06,-0.2863937932826295,-6.8471165584060856e-06,-0.28641591473215355
980,0.9685,974.328,0.00692226,0.00497964,-0.00194129,-0.00864323,-6.98202e-06,0.67726,-0.337678,-0.337709,6.29647e-06,-5.21574e-06,-6.84718e-06,0.672783,0.9684767100236187,6.296489822865681e-06,-5.2157263980001645e-06,-0.2865750262415756,-6.847156558076328e-06,-0.28659714207296494
981,0.9695,974.466,0.00691155,0.00497176,-0.00195389,-0.00862888,-9.40707e-06,0.677768,-0.337931,-0.337963,6.29071e-06,-5.23209e-06,-6.84722e-06,0.67329,0.969476950231813,6.290729786639915e-06,-5.232076312644551e-06,-0.28675549992905236,-6.847196557857593e-06,-0.28677832338787734
982,0.9705,974.604,0.00690086,0.00496391,-0.00196646,-0.00861455,-1.18256e-05,0.678276,-0.338185,-0.338216,6.28493e-06,-5.24841e-06,-6.84727e-06,0.673797,0.9704776986911179,6.2849497501904494e-06,-5.248396227175434e-06,-0.2869366410261771,-6.847246557528663e-06,-0.286958745647682
983,0.9715,974.742,0.00689019,0.00495607,-0.001979,-0.00860025,-1.42377e-05,0.678783,-0.338439,-0.33847,6.27913e-06,-5.26468e-06,-6.84732e-06,0.674304,0.9714769841818209,6.279149713739329e-06,-5.264666141591157e-06,-0.287117736119306,-6.8472965571997335e-06,-0.28713983512694996
984,0.9725,974.879,0.00687954,0.00494825,-0.00199152,-0.00858597,-1.66433e-05,0.67929,-0.338692,-0.338723,6.27331e-06,-5.28092e-06,-6.84738e-06,0.67481,0.9724767764387217,6.273329677286554e-06,-5.2809060560043974e-06,-0.28729807251855144,-6.847356556760609e-06,-0.28732016593585363
985,0.9735,975.016,0.00686892,0.00494044,-0.00200402,-0.00857172,-1.90425e-05,0.679797,-0.338945,-0.338977,6.26746e-06,-5.29712e-06,-6.84744e-06,0.675317,0.9734770757188167,6.2674796406092526e-06,-5.297105970303306e-06,-0.2874783632984589,-6.847416556321484e-06,-0.28750116362602607
986,0.9745,975.153,0.00685832,0.00493265,-0.00201648,-0.00855749,-2.14352e-05,0.680304,-0.339199,-0.33923,6.26159e-06,-5.31328e-06,-6.8475e-06,0.675823,0.974477882279231,6.261609603708251e-06,-5.313265884598906e-06,-0.28765932081160395,-6.847476555882359e-06,-0.2876814030303827
987,0.9755,975.29,0.00684774,0.00492488,-0.00202893,-0.00854328,-2.38215e-05,0.68081,-0.339452,-0.339483,6.2557e-06,-5.3294e-06,-6.84757e-06,0.676329,0.975477220899013,6.25571956702764e-06,-5.329385798780173e-06,-0.2878395202072539,-6.847546555444062e-06,-0.28786159683993795
988,0.9765,975.427,0.00683718,0.00491712,-0.00204134,-0.0085291,-2.62014e-05,0.681316,-0.339705,-0.339736,6.24978e-06,-5.34549e-06,-6.84764e-06,0.676834,0.9764770653120913,6.249799529900457e-06,-5.345475712847936e-06,-0.2880196740182235,-6.847616555005764e-06,-0.2880417450662258
989,0.9775,975.564,0.00682664,0.00490938,-0.00205373,-0.00851494,-2.8575e-05,0.681822,-0.339957,-0.339988,6.24385e-06,-5.36153e-06,-6.84772e-06,0.67734,0.9774774157744626,6.243869492772447e-06,-5.361515627022584e-06,-0.28819907045547044,-6.847696554457272e-06,-0.2882211359422695
990,0.9785,975.701,0.00681613,0.00490166,-0.00206609,-0.0085008,-3.09422e-05,0.682327,-0.34021,-0.340241,6.23789e-06,-5.37754e-06,-6.84779e-06,0.677845,0.9784762940649687,6.2379094556419545e-06,-5.3775255410837275e-06,-0.28837913331173337,-6.847766553907952e-06,-0.28840119321667046
991,0.9795,975.837,0.00680564,0.00489395,-0.00207842,-0.00848669,-3.33031e-05,0.682833,-0.340463,-0.340494,6.2319e-06,-5.39351e-06,-6.84787e-06,0.678349,0.9794776563930692,6.231919418286935e-06,-5.393495455030539e-06,-0.2885591506178561,-6.84784655335946e-06,-0.2885812049423431
992,0.9805,975.973,0.00679517,0.00488626,-0.00209073,-0.0084726,-3.56576e-05,0.683338,-0.340715,-0.340746,6.2259e-06,-5.40944e-06,-6.84796e-06,0.678854,0.9804775450601864,6.225919380931089e-06,-5.409425368974041e-06,-0.2887384111241279,-6.847936552811795e-06,-0.28876045989162535
993,0.9815,976.109,0.00678472,0.00487858,-0.00210301,-0.00845854,-3.80059e-05,0.683842,-0.340967,-0.340998,6.21987e-06,-5.42533e-06,-6.84805e-06,0.679358,0.981475957321652,6.219889343350715e-06,-5.425315282914234e-06,-0.28891762646244357,-6.848026552153108e-06,-0.2889396696743517
994,0.9825,976.245,0.00677429,0.00487092,-0.00211527,-0.0084445,-4.03479e-05,0.684347,-0.341219,-0.34125,6.21382e-06,-5.44119e-06,-6.84814e-06,0.679862,0.9824768553855898,6.213839305768687e-06,-5.441175196740922e-06,-0.289096796644184,-6.848116551494421e-06,-0.28911883430190255
995,0.9835,976.381,0.00676388,0.00486328,-0.0021275,-0.00843048,-4.26836e-05,0.684851,-0.341471,-0.341502,6.20775e-06,-5.457e-06,-6.84823e-06,0.680366,0.9834762755534305,6.207769268185004e-06,-5.4569851105634726e-06,-0.28927592168072713,-6.848206550946756e-06,-0.2892979537856556
996,0.9845,976.517,0.0067535,0.00485565,-0.00213971,-0.00841649,-4.50131e-05,0.685355,-0.341723,-0.341754,6.20165e-06,-5.47278e-06,-6.84833e-06,0.68087,0.9844761995559919,6.201669230376794e-06,-5.472765024383541e-06,-0.28945500158344817,-6.848306550288896e-06,-0.2894770281369857
997,0.9855,976.652,0.00674313,0.00484804,-0.00215188,-0.00840252,-4.73363e-05,0.685859,-0.341975,-0.342006,6.19554e-06,-5.48852e-06,-6.84843e-06,0.681373,0.98547662764727,6.195559192345712e-06,-5.488504938089278e-06,-0.2896340363637193,-6.848406549520014e-06,-0.28965605736726474
998,0.9865,976.788,0.00673279,0.00484044,-0.00216403,-0.00838857,-4.96534e-05,0.686363,-0.342227,-0.342258,6.1894e-06,-5.50423e-06,-6.84854e-06,0.681876,0.9864775600813898,6.189419154312148e-06,-5.504214851792533e-06,-0.28981302603291015,-6.8485165487519595e-06,-0.2898350414878619
999,0.9875,976.923,0.00672247,0.00483286,-0.00217616,-0.00837465,-5.19642e-05,0.686866,-0.342478,-0.342509,6.18324e-06,-5.51989e-06,-6.84865e-06,0.682379,0.9874770096346008,6.183259116276929e-06,-5.519874765380628e-06,-0.2899912605940027,-6.848626548094927e-06,-0.2900132705237687
