,Time,S11,S22,S33,S12,S13,S23,LE11,LE22,LE33,LE12,LE13,LE23,SDV_EPBAR,E11,E12,E13,E22,E23,E33
0,1e-05,2.08407,-1.66533e-16,-2.22045e-16,1.69736e-17,-3.59433e-39,0.0,9.99995e-06,-2.99999e-06,-2.99999e-06,0.0,0.0,0.0,0.0,9.999999999621423e-06,0.0,0.0,-2.999985500018454e-06,0.0,-2.999985500018454e-06
1,2e-05,4.16811,3.33067e-16,4.44089e-16,-2.20659e-22,-3.59433e-39,0.0,1.99998e-05,-5.99994e-06,-5.99994e-06,0.0,0.0,0.0,0.0,1.9999999997244444e-05,0.0,0.0,-5.999922000343716e-06,0.0,-5.999922000343716e-06
2,3.5e-05,7.29414,-1.11022e-16,-2.22045e-16,-2.20659e-22,-3.59433e-39,-1.37033e-38,3.49994e-05,-1.04998e-05,-1.04998e-05,0.0,0.0,0.0,0.0,3.5000012486241516e-05,0.0,0.0,-1.0499744877323636e-05,0.0,-1.0499744877323636e-05
3,5.75e-05,11.9831,-4.21885e-15,-4.44089e-15,1.69731e-17,-1.0783e-38,-3.39477e-17,5.74983e-05,-1.72495e-05,-1.72495e-05,0.0,0.0,0.0,0.0,5.749995305892597e-05,0.0,0.0,-1.7249351228265652e-05,0.0,-1.7249351228265652e-05
4,9.125e-05,19.0163,-2.88658e-14,-2.93099e-14,1.69724e-17,-3.39462e-17,0.0,9.12458e-05,-2.73738e-05,-2.73738e-05,0.0,0.0,0.0,0.0,9.124996302456445e-05,0.0,0.0,-2.737342534098186e-05,0.0,-2.737342534098186e-05
5,0.00014188,29.5657,-1.57208e-13,-1.57208e-13,-1.69742e-17,1.48934e-21,-1.35791e-16,0.000141865,-4.25595e-05,-4.25595e-05,0.0,0.0,0.0,0.0,0.00014187506331508892,0.0,0.0,-4.255859435731146e-05,0.0,-4.255859435731146e-05
6,0.00021781,45.3888,-8.01581e-13,-8.01137e-13,-8.48612e-17,-6.78872e-17,-6.78954e-17,0.000217789,-6.53366e-05,-6.53366e-05,0.0,0.0,0.0,0.0,0.0002178127177461242,0.0,0.0,-6.533446561085565e-05,0.0,-6.533446561085565e-05
7,0.00033172,69.1212,-4.04787e-12,-4.05009e-12,1.86693e-16,-6.78772e-17,-4.75268e-16,0.000331664,-9.94991e-05,-9.94991e-05,0.0,0.0,0.0,0.0,0.0003317190065854625,0.0,0.0,-9.949415012866503e-05,0.0,-9.949415012866503e-05
8,0.00050258,104.715,-2.05174e-11,-2.05169e-11,1.86651e-16,2.03659e-16,-3.39477e-16,0.000502452,-0.000150736,-0.000150736,0.0,0.0,0.0,0.0,0.0005025782501502096,0.0,0.0,-0.00015072463989995732,0.0,-0.00015072463989995732
9,0.00075887,158.094,-1.03756e-10,-1.03753e-10,1.86589e-16,2.03591e-16,-6.78954e-17,0.000758579,-0.000227574,-0.000227574,0.0,0.0,0.0,0.0,0.0007588667938165372,0.0,0.0,-0.0002275481070015406,0.0,-0.0002275481070015406
10,0.0011433,238.136,-5.24726e-10,-5.24729e-10,-3.56396e-16,2.0349e-16,-6.11059e-16,0.00114265,-0.000342794,-0.000342794,0.0,0.0,0.0,0.0,0.0011433030732321825,0.0,0.0,-0.00034273525284966855,0.0,-0.00034273525284966855
11,0.00172,357.657,-0.000187163,-0.000122057,1.60722e-05,-2.9019e-05,-3.93516e-05,0.00171847,-0.000516016,-0.000516002,2.00898e-10,-3.62737e-10,-4.91914e-10,2.33467e-06,0.001719947415747436,2.0089796493039103e-10,-3.627369515868395e-10,-0.0005158828866410614,-4.919139540149331e-10,-0.0005158688938633471
12,0.0019362,361.508,-0.0744831,-0.0210979,0.010469,-0.0189377,-0.00347831,0.00193432,-0.000621158,-0.000619485,1.39652e-07,-2.54285e-07,-3.49306e-08,0.000199818,0.001936192003754611,1.3965200973409253e-07,-2.5428496763790776e-07,-0.000620965121307604,-3.493059941295229e-08,-0.0006192931587837291
13,0.0022606,367.127,0.04337,-0.0013188,-0.004206,0.0108609,-0.00472674,0.00225801,-0.000778139,-0.0007751,-7.55655e-08,1.81512e-07,-2.08129e-08,0.000497143,0.0022605612244488427,-7.556549719289762e-08,1.8151201652827353e-07,-0.0007778363283602596,-2.08128997369883e-08,-0.0007747996875907548
14,0.0027471,374.776,-0.141548,-0.0243692,0.0134416,-0.0379561,-0.00014386,0.00274334,-0.00101587,-0.00100831,1.38011e-07,-4.6673e-07,1.49034e-07,0.000946147,0.0027471064005626378,1.3801100950949774e-07,-4.667298910687734e-07,-0.0010153541787554232,1.4903401113208758e-07,-0.0010078018262851263
15,0.0034769,385.454,0.141211,-0.032847,-0.00726244,0.0315107,-0.0300689,0.0034709,-0.00137061,-0.00135986,-2.82965e-07,8.07536e-07,-9.15331e-08,0.00162404,0.003476930548530044,-2.829649600188944e-07,8.075363260307e-07,-0.0013696711430984942,-9.153309576959145e-08,-0.0013589358093609727
16,0.0044769,398.353,0.374718,-0.0325549,-0.0126916,0.0886166,-0.0516244,0.00446694,-0.00185848,-0.00184236,-6.45437e-07,2.57466e-06,-1.82982e-07,0.00256033,0.004476931648306648,-6.45436791679721e-07,2.574663314547365e-06,-0.001856754095396762,-1.8298198323218884e-07,-0.0018406638965861033
17,0.0054769,409.656,0.395692,-0.0432998,-0.00990522,0.0893966,-0.0566654,0.00546199,-0.00234828,-0.00232556,-8.33486e-07,3.52514e-06,-2.32235e-07,0.0035028,0.005476933862734512,-8.334856526071022e-07,3.52514621337896e-06,-0.0023455249474876316,-2.3223497302993223e-07,-0.0023228579803187266
18,0.0064769,419.798,0.375051,-0.0241114,-0.00893604,0.0781177,-0.0484711,0.00645605,-0.00283906,-0.00280912,-1.00232e-06,4.16536e-06,-1.45002e-07,0.00444972,0.006476935211934265,-1.00231949762275e-06,4.165368675090875e-06,-0.0028350336803805165,-1.4500198952660526e-07,-0.002805178114353324
19,0.0074769,428.676,-0.343699,0.00438818,0.0344219,-0.108382,0.0329627,0.00744912,-0.00333476,-0.00329056,-3.29529e-07,1.30568e-06,1.33598e-06,0.00540066,0.00747693371405922,-3.2952894568616387e-07,1.3056808523259633e-06,-0.003329205863490614,1.3359808923585348e-06,-0.003285152040807482
20,0.0084769,437.457,0.400543,-0.0890846,-0.00336287,0.0901192,-0.0712348,0.00844121,-0.00382241,-0.00377673,-9.02381e-07,4.54013e-06,-2.25682e-07,0.00635294,0.008476937470070167,-9.023805928043416e-07,4.540140306374951e-06,-0.003815113890097477,-2.256819745527494e-07,-0.003769607125133412
21,0.0094769,445.269,0.389081,-0.105609,0.000752093,0.0856926,-0.0746807,0.00943231,-0.00431376,-0.0042614,-9.12422e-07,5.17674e-06,-5.79757e-07,0.00730788,0.009476934429433648,-9.124215837319483e-07,5.1767533992830295e-06,-0.004304469101700792,-5.797568319865221e-07,-0.004252333118794804
22,0.010477,452.329,-0.298772,0.127563,0.0208903,-0.110332,0.0734278,0.0104224,-0.00481016,-0.00474231,-5.85039e-07,2.13418e-06,1.87291e-06,0.0082648,0.01047690239489718,-5.850388288264341e-07,2.134182277346852e-06,-0.004798609707393542,1.8729117539084683e-06,-0.004731083002244563
23,0.011477,459.38,0.401127,-0.114681,0.00031202,0.0898181,-0.0788257,0.0114116,-0.00529786,-0.00522924,-8.88206e-07,5.29851e-06,-3.97223e-07,0.00922206,0.011476960694033034,-8.882056055092846e-07,5.2985240370784226e-06,-0.00528385108971019,-3.9722292111132873e-07,-0.005215591325606228
24,0.012477,465.519,-0.401921,0.125463,0.0277938,-0.1384,0.079908,0.0123997,-0.0057948,-0.00570968,-4.15719e-07,1.6671e-06,2.17904e-06,0.0101812,0.01247689501508975,-4.1571891362668367e-07,1.6671013896019105e-06,-0.00577804253083225,2.1790423740952747e-06,-0.005693410755935213
25,0.013477,471.882,0.447634,-0.125029,-0.00287682,0.10368,-0.0866759,0.0133869,-0.00628147,-0.00619676,-8.52824e-07,5.40309e-06,-3.35226e-07,0.01114,0.013476905729922883,-8.528236363769537e-07,5.403104596624075e-06,-0.006261782810385141,-3.352259437816585e-07,-0.006177599680480816
26,0.014477,477.322,-0.431182,0.13486,0.0290649,-0.14698,0.085426,0.0143731,-0.00677849,-0.00667664,-3.11542e-07,1.43969e-06,2.40549e-06,0.0121005,0.014476889665384407,-3.115419514587714e-07,1.4396910363867477e-06,-0.006755567858405476,2.4054928930983266e-06,-0.006654400761144874
27,0.015477,483.102,0.454933,-0.128913,-0.00395203,0.106796,-0.088517,0.0153584,-0.00726456,-0.00716346,-7.76149e-07,5.31059e-06,-2.19861e-07,0.0130601,0.015476946341787423,-7.76148698755641e-07,5.310604101138594e-06,-0.007238236864571479,-2.19860975869679e-07,-0.007137863576534342
28,0.016477,488.013,-0.415973,0.133327,0.0283201,-0.14294,0.0830294,0.0163427,-0.00776102,-0.00764296,-2.32252e-07,1.38835e-06,2.47234e-06,0.0140212,0.01647697238214807,-2.322519729869299e-07,1.3883509637491187e-06,-0.007730981045489083,2.47234305628119e-06,-0.007613826849635186
29,0.017477,493.292,0.421826,-0.121229,-0.00329975,0.0982701,-0.082636,0.017326,-0.00824688,-0.0081291,-6.69612e-07,5.02782e-06,-1.89818e-08,0.0149812,0.0174769657552607,-6.696117758053788e-07,5.027832639559193e-06,-0.008212967772521229,-1.8981799798645227e-08,-0.008096148216496846
30,0.018477,497.798,-0.365708,0.120565,0.0262036,-0.128653,0.0735849,0.0183083,-0.00874225,-0.00860843,-1.70987e-07,1.48108e-06,2.40606e-06,0.0159424,0.01847692442801807,-1.7098698534834256e-07,1.481081096876835e-06,-0.00870414764674432,2.4060628944777562e-06,-0.008571483559426274
31,0.019477,502.349,-0.443544,0.119698,0.0314653,-0.147289,0.0801711,0.0192897,-0.00923377,-0.00908966,5.54784e-08,4.30436e-07,2.99309e-06,0.016903,0.01947694831310809,5.5478401428388224e-08,4.3043609254667103e-07,-0.009191269659180157,2.9930944793754577e-06,-0.009048473924151201
32,0.020477,507.15,0.488462,-0.040994,-0.0186054,0.114717,-0.0558497,0.0202701,-0.00971848,-0.00957464,-6.92791e-07,4.39706e-06,1.02211e-06,0.0178627,0.020476933625937166,-6.927907599818539e-07,4.397069667039233e-06,-0.009671408185490615,1.0221105224417215e-06,-0.009528949075430448
33,0.021477,511.335,0.432894,-0.128428,-0.0045833,0.10304,-0.0859414,0.0212496,-0.0102074,-0.0100573,-5.59589e-07,4.87127e-06,2.02351e-07,0.0188231,0.02147698047541291,-5.595888434850593e-07,4.871281864549104e-06,-0.010155481294445545,2.0235102038412833e-07,-0.01000689448102643
34,0.022477,515.279,-0.2324,0.214633,0.00627289,-0.0984007,0.0977903,0.022228,-0.010701,-0.0105353,-4.03908e-07,1.82719e-06,3.07539e-06,0.0197834,0.022476882625477312,-4.0390791844480134e-07,1.8271916693013424e-06,-0.010643947985381708,3.075394729101788e-06,-0.010479998104690469
35,0.023477,519.409,0.450027,-0.152005,-0.00290874,0.1093,-0.0949501,0.0232056,-0.0111854,-0.0110199,-5.48391e-07,5.0619e-06,1.78644e-07,0.0207428,0.023476944776664732,-5.483908496195511e-07,5.0619128113549294e-06,-0.011123076002803156,1.7864401602452062e-07,-0.010959403328341333
36,0.024477,523.216,0.375659,-0.146962,0.00302629,0.0878434,-0.0862918,0.0241822,-0.0116736,-0.0115011,-4.70386e-07,5.30845e-06,-1.56657e-07,0.0217022,0.024476960589174812,-4.703858893506663e-07,5.308464089859299e-06,-0.011605727892186057,-1.5665698771538672e-07,-0.01143521517394841
37,0.025477,526.826,-0.171558,0.176697,0.00731392,-0.0809093,0.0804316,0.0251578,-0.0121654,-0.0119784,-3.88826e-07,2.77589e-06,2.38962e-06,0.0226613,0.025476928016723077,-3.8882592445776964e-07,2.775893852779987e-06,-0.012091700684703999,2.389622855147877e-06,-0.011906944558572663
38,0.026477,530.554,0.358476,-0.12352,0.0010822,0.0814231,-0.0762703,0.0261325,-0.0126496,-0.0124612,-4.71836e-07,5.27212e-06,4.83786e-08,0.0236196,0.026476947658861993,-4.718358886934837e-07,5.272133897671338e-06,-0.012569930094548876,4.837860112516523e-08,-0.012383880744080256
39,0.027477,533.848,-0.343344,0.153389,0.0215048,-0.127307,0.0820581,0.0271062,-0.0131414,-0.0129376,-1.11494e-07,1.99003e-06,2.48876e-06,0.0245781,0.02747691501790106,-1.1149399381515934e-07,1.9900319800925104e-06,-0.013055428809009006,2.488763096941682e-06,-0.012854269007912866
40,0.028477,537.517,0.457676,-0.131314,-0.00672902,0.109137,-0.0879108,0.028079,-0.0136236,-0.0134202,-5.09698e-07,5.55323e-06,-7.76378e-08,0.0255352,0.028476930889687502,-5.096978701324417e-07,5.553245419287478e-06,-0.01353121875906127,-7.76377969691211e-08,-0.013330550601697078
41,0.029477,540.784,0.359056,-0.132271,0.0022042,0.08166,-0.0792053,0.0290508,-0.01411,-0.0138995,-3.95476e-07,5.66698e-06,-3.67446e-07,0.0264924,0.029476890572839753,-3.9547592178834634e-07,5.666996057307472e-06,-0.014010920501335566,-3.6744593245874313e-07,-0.01380334795385696
42,0.030477,543.915,-0.136465,0.167954,0.00613294,-0.071879,0.074803,0.0300217,-0.0145995,-0.0143752,-3.22621e-07,3.38083e-06,1.96767e-06,0.0274492,0.03047689505952067,-3.226209479567643e-07,3.380835714938968e-06,-0.0144934440484773,1.967671935831916e-06,-0.014272370135464785
43,0.031477,547.21,0.50512,-0.182711,0.000471393,0.127141,-0.0993574,0.0309917,-0.0150809,-0.0148568,-3.98904e-07,6.55801e-06,-7.05889e-07,0.0284049,0.03147694259236977,-3.989039204510547e-07,6.55803150384493e-06,-0.014967752729252881,-7.058887508959444e-07,-0.014746982266233055
44,0.032477,550.219,0.334956,-0.135139,0.0050686,0.0740435,-0.0774432,0.0319607,-0.0155667,-0.0153346,-3.22676e-07,6.30019e-06,-8.1748e-07,0.0293605,0.03247692816450587,-3.2267594796131505e-07,6.300209846266114e-06,-0.015446165179184068,-8.174796658488859e-07,-0.015217623712911021
45,0.033477,553.151,-0.0736758,0.148115,0.00411027,-0.05522,0.0615273,0.0329288,-0.0160544,-0.0158096,-3.20559e-07,4.4089e-06,1.25086e-06,0.0303155,0.03347695306261045,-3.205589486077187e-07,4.408909719311183e-06,-0.01592621501475877,1.2508607822869777e-06,-0.015685284263473598
46,0.034477,556.166,0.403867,-0.156081,0.00564567,0.0965854,-0.0814227,0.0338959,-0.0165356,-0.0162893,-2.79139e-07,6.82256e-06,-9.34976e-07,0.0312696,0.03447691207616144,-2.791389610568018e-07,6.822583273669025e-06,-0.016399637405531298,-9.34975562860707e-07,-0.016157346799360983
47,0.035477,558.815,-0.318285,0.148685,0.0218131,-0.123623,0.0786795,0.0348621,-0.0170243,-0.0167626,2.79557e-08,3.44145e-06,1.47927e-06,0.0322236,0.035476906688211685,2.7955700421244956e-08,3.441455921793235e-06,-0.016880205466361042,1.4792710940625398e-06,-0.016622889347786107
48,0.036477,561.842,0.413894,-0.124477,-0.0037302,0.0946995,-0.0803947,0.0358274,-0.0175036,-0.0172418,-3.16271e-07,6.6696e-06,-8.99294e-07,0.0331762,0.03647693513231376,-3.1627094998487593e-07,6.669622241828321e-06,-0.017351301876607605,-8.992935955909331e-07,-0.017094010769502566
49,0.037477,564.319,-0.377432,0.150538,0.0265987,-0.13957,0.0844226,0.0367917,-0.0179918,-0.0177142,1.91419e-07,3.03642e-06,1.59687e-06,0.0341291,0.037476891892527675,1.914190184137965e-07,3.036424609970112e-06,-0.017830913888213562,1.5968712749891978e-06,-0.017558225902567726
50,0.038477,567.269,0.442681,-0.128119,-0.00620787,0.103219,-0.0840355,0.0377552,-0.0184699,-0.0181928,-2.55276e-07,6.60761e-06,-9.13958e-07,0.0350802,0.03847698259419352,-2.552759673646321e-07,6.607631830357619e-06,-0.018300376694257436,-9.139575823935431e-07,-0.018028310035544726
51,0.039477,569.609,-0.404906,0.156395,0.0280796,-0.147263,0.0887756,0.0387176,-0.0189575,-0.0186642,3.08459e-07,2.73893e-06,1.69788e-06,0.0360318,0.03947689392239573,3.0845904763765475e-07,2.7389337509120537e-06,-0.01877893674815856,1.6978814414425614e-06,-0.018491102401463233
52,0.040477,572.469,0.460172,-0.134056,-0.00736772,0.108852,-0.0875062,0.0396792,-0.0194345,-0.0191422,-1.7623e-07,6.49897e-06,-9.24562e-07,0.0369817,0.04047693564659305,-1.7622998449429161e-07,6.498991118375486e-06,-0.019246867584952754,-9.245615726349854e-07,-0.0189601515428397
53,0.041477,574.695,-0.416947,0.160417,0.0284801,-0.15065,0.0911118,0.0406398,-0.0199215,-0.0196127,4.0808e-07,2.50685e-06,1.76563e-06,0.0379319,0.04147689799599852,4.080800832806375e-07,2.5068531421812423e-06,-0.019724378077196403,1.7656315587366578e-06,-0.019421622222048462
54,0.042477,577.461,0.464353,-0.136928,-0.0077649,0.110631,-0.0887568,0.0415995,-0.0203975,-0.0200899,-8.77888e-08,6.33438e-06,-9.04365e-07,0.0388804,0.04247688314112619,-8.77887961214796e-08,6.334400062257828e-06,-0.020190878237385412,-9.043645911033238e-07,-0.019889442593105877
55,0.043477,579.593,-0.415467,0.160616,0.0282324,-0.150094,0.0909327,0.0425583,-0.0208836,-0.0205596,4.96253e-07,2.33601e-06,1.7929e-06,0.0398292,0.04347688930302729,4.962531230390255e-07,2.3360127283655885e-06,-0.020667047709107877,1.7929016071782655e-06,-0.020349692423785593
56,0.044477,582.262,0.455569,-0.13562,-0.00757381,0.108558,-0.0874467,0.0435162,-0.0213589,-0.021036,7.4912e-09,6.11474e-06,-8.48805e-07,0.0407763,0.04447691470098891,7.491200104681184e-09,6.114758695163758e-06,-0.021132414058257942,-8.48804639796974e-07,-0.020816286678738583
57,0.045477,584.316,-0.401459,0.15666,0.027457,-0.145829,0.0882219,0.0444732,-0.0218441,-0.0215049,5.74784e-07,2.22263e-06,1.78004e-06,0.0417237,0.045476957552538,5.747841651526642e-07,2.222632470072483e-06,-0.021607245407556097,1.780041584353853e-06,-0.021275318293542345
58,0.046477,586.889,0.435041,-0.130196,-0.00688401,0.102964,-0.0837116,0.0454292,-0.0223187,-0.0219804,1.0829e-07,5.84542e-06,-7.60034e-07,0.0426693,0.04647691142575194,1.082900058513303e-07,5.845437084595062e-06,-0.02207148043719931,-7.600337111890454e-07,-0.021740591252281338
59,0.047477,588.877,-0.376577,0.148892,0.0262403,-0.13832,0.0832524,0.0463844,-0.0228027,-0.0224487,6.45038e-07,2.15944e-06,1.73162e-06,0.0436153,0.047476983730038835,6.450382079581374e-07,2.159442331617356e-06,-0.022544683316333414,1.7316214993012835e-06,-0.02219860288160458
60,0.048477,591.353,0.40477,-0.121214,-0.00578868,0.0944269,-0.0779221,0.0473386,-0.0232768,-0.022923,2.1323e-07,5.5354e-06,-6.43597e-07,0.0445595,0.048476963282285235,2.1323002274975522e-07,5.535415320334636e-06,-0.023007985047619695,-6.435967928597464e-07,-0.02266226411830341
61,0.049477,593.288,-0.343145,0.138004,0.0246826,-0.128243,0.0764742,0.0482919,-0.0237596,-0.0233908,7.08581e-07,2.13606e-06,1.65472e-06,0.045504,0.04947695294072196,7.085812510077005e-07,2.1360622812771624e-06,-0.023479562944374144,1.6547213690376594e-06,-0.023119355789071316
62,0.050477,595.342,-0.521312,0.132511,0.0411118,-0.175152,0.0916145,0.0492443,-0.0242391,-0.0238601,1.10592e-06,7.11214e-07,2.28551e-06,0.0464474,0.050476950914148944,1.1059206115326958e-06,7.112142528242771e-07,-0.02394769225097171,2.2855126118326297e-06,-0.023577698316913143
63,0.051477,597.897,0.54341,-0.0494382,-0.0263952,0.131113,-0.0581687,0.0501958,-0.0247107,-0.0243333,1.33717e-07,5.17635e-06,1.49689e-07,0.0473891,0.05147695540963615,1.3371700902098382e-07,5.176363397252359e-06,-0.024407889996148624,1.4968901118628253e-07,-0.02403963204792925
64,0.052477,599.581,-0.425483,0.135575,0.0318736,-0.149391,0.0825257,0.0511464,-0.0251932,-0.0247997,1.00962e-06,9.5895e-07,2.3001e-06,0.0483316,0.05247696463252827,1.0096205096399302e-06,9.58950459706287e-07,-0.02487849964551747,2.3001026452362794e-06,-0.02449471383022095
65,0.053477,601.931,0.427825,-0.114792,-0.0101858,0.102118,-0.0777912,0.0520961,-0.0256649,-0.0252721,4.32784e-07,4.5963e-06,-5.72215e-08,0.049272,0.05347697678644914,4.3278409367353277e-07,4.5963105630431045e-06,-0.025338355991588957,-5.722149831743906e-08,-0.024955433696807194
66,0.054477,603.68,-0.349654,0.135039,0.0249454,-0.128446,0.0755564,0.0530448,-0.0261456,-0.0257378,9.8592e-07,1.1081e-06,2.21472e-06,0.0502128,0.054476884625614286,9.859204859186121e-07,1.1081006139335159e-06,-0.025806763253158782,2.214722452542617e-06,-0.025409406235624266
67,0.055477,605.578,-0.51779,0.129747,0.0406561,-0.172831,0.0897687,0.0539927,-0.0266229,-0.026205,1.36876e-06,-2.5812e-07,2.81507e-06,0.0511524,0.05547689714560766,1.3687609368151499e-06,-2.5811996673397175e-07,-0.02627163473465355,2.8150739623811205e-06,-0.025864628612803364
68,0.056477,607.969,0.52665,-0.0482676,-0.0265237,0.128219,-0.0564017,0.0549397,-0.0270925,-0.0266762,4.02761e-07,4.11591e-06,7.369e-07,0.0520903,0.05647690719722909,4.0276108115300246e-07,4.1159184702710405e-06,-0.026728790226471566,7.369002714696649e-07,-0.02632353307341917
69,0.057477,609.522,-0.39733,0.128718,0.0296494,-0.139969,0.0772334,0.0558858,-0.0275726,-0.0271406,1.23994e-06,1.08837e-07,2.76585e-06,0.053029,0.05747691297727009,1.2399407687269104e-06,1.0883700585218037e-07,-0.02719594558466698,2.765853824859832e-06,-0.02677560344579466
70,0.058477,611.33,-0.571728,0.120869,0.0463583,-0.185864,0.0909711,0.056831,-0.0280487,-0.0276066,1.65958e-06,-1.32818e-06,3.36024e-06,0.0539664,0.058476912680826,1.6595813772113388e-06,-1.3281791180208558e-06,-0.02765898735913319,3.360245645511739e-06,-0.02722902036024266
71,0.059477,613.687,0.558464,-0.0471252,-0.0307412,0.138373,-0.0588206,0.0577753,-0.0285166,-0.0280766,5.51609e-07,3.3766e-06,1.22834e-06,0.0549019,0.05947690450130061,5.516091521329258e-07,3.3766057008222106e-06,-0.028113839298038346,1.2283407544444458e-06,-0.027686115294949354
72,0.060477,615.135,-0.415187,0.131519,0.0302714,-0.143921,0.079391,0.0587187,-0.0289956,-0.0285398,1.45105e-06,-8.19131e-07,3.31957e-06,0.0558384,0.06047688663041173,1.4510510528698006e-06,-8.191306645199958e-07,-0.028579261291548197,3.3195755098081037e-06,-0.028136386795414636
73,0.061477,617.246,0.396396,-0.10825,-0.0103898,0.0960739,-0.073023,0.0596613,-0.0294641,-0.0290086,8.92582e-07,2.63202e-06,1.09217e-06,0.0567727,0.06147696340588693,8.925823984373693e-07,2.6320234638443907e-06,-0.02903426531461817,1.0921705964062056e-06,-0.028591889679066673
74,0.062477,619.031,0.438259,-0.177333,-0.00388249,0.111963,-0.0998346,0.0606029,-0.0299359,-0.0294751,9.5421e-07,3.34964e-06,3.11446e-07,0.0577069,0.062476920820699666,9.542104553172948e-07,3.349645609995733e-06,-0.029492258899060597,3.1144604850652513e-07,-0.029044945878956563
75,0.063477,620.65,-0.254197,0.208744,0.0075563,-0.103657,0.0982687,0.0615437,-0.0304126,-0.0299366,1.12933e-06,1.79377e-07,3.23019e-06,0.0586406,0.06347696945692394,1.1293306376725099e-06,1.7937701612957824e-07,-0.02995478968627141,3.230195217085452e-06,-0.029492938254241596
76,0.064477,622.283,-0.44974,0.165587,0.0286389,-0.155507,0.0955776,0.0624835,-0.0308861,-0.0304004,1.51994e-06,-1.17576e-06,3.63003e-06,0.0595734,0.06447689490419073,1.519941155159188e-06,-1.1757593088024265e-06,-0.030413997367356838,3.6300365886532404e-06,-0.029942955062514542
77,0.065477,624.376,0.486347,-0.0458448,-0.0249121,0.118906,-0.0527095,0.0634225,-0.0313523,-0.0308677,7.35824e-07,2.80423e-06,1.54911e-06,0.0605045,0.06547690814124296,7.358242706256846e-07,2.8042339319522824e-06,-0.030865913012062318,1.5491111997611995e-06,-0.0303961568207759
78,0.066477,626.03,0.494941,-0.163948,-0.0114013,0.126856,-0.0997578,0.0643606,-0.0318224,-0.0313327,8.52101e-07,3.48229e-06,5.22165e-07,0.0614356,0.06647690100208625,8.521013630247154e-07,3.482296063284096e-06,-0.03132139587671978,5.221651362408153e-07,-0.030846917797804907
79,0.067477,627.525,-0.271601,0.224874,0.00691383,-0.109709,0.104622,0.0652979,-0.0322978,-0.0317924,1.11029e-06,2.76151e-08,3.54061e-06,0.0623662,0.06747697841445821,1.1102906163351633e-06,2.7615100428590722e-08,-0.03178179623928279,3.540616267949659e-06,-0.03129233508268636
80,0.068477,629.063,-0.474851,0.172907,0.0301081,-0.163032,0.100014,0.0662342,-0.0327696,-0.0322545,1.53241e-06,-1.37074e-06,3.9296e-06,0.063296,0.06847692516136616,1.5324111741765734e-06,-1.3707390605910419e-06,-0.03223849384438049,3.929607720998263e-06,-0.03173987148339552
81,0.069477,631.088,0.500907,-0.0487219,-0.0261675,0.123362,-0.0547769,0.0671697,-0.0332339,-0.0327203,7.10118e-07,2.77271e-06,1.76124e-06,0.0642239,0.06947695301495105,7.101182522006866e-07,2.772713843857133e-06,-0.03268772121548413,1.7612415510459556e-06,-0.03219078202604031
82,0.070477,632.657,0.505703,-0.167625,-0.0121125,0.130276,-0.101901,0.0681043,-0.0337023,-0.0331837,8.31031e-07,3.445e-06,7.29584e-07,0.065152,0.07047695340263038,8.310313452941642e-07,3.445005934077372e-06,-0.03314070418997217,7.295842661125818e-07,-0.03263916092023589
83,0.071477,634.068,-0.274793,0.225439,0.007133,-0.110643,0.104898,0.069038,-0.0341761,-0.0336417,1.10171e-06,-6.32688e-08,3.77263e-06,0.0660795,0.07147692449788057,1.1017106069655114e-06,-6.32687979784663e-08,-0.03359869361806378,3.772637116483679e-06,-0.03308211074128253
84,0.072477,635.531,-0.47188,0.17275,0.0300462,-0.162333,0.0994483,0.0699709,-0.0346461,-0.0341022,1.51858e-06,-1.42897e-06,4.14225e-06,0.0670061,0.07247697172024292,1.5185811530482596e-06,-1.4289689790336624e-06,-0.03405279550975948,4.142258579031832e-06,-0.03352727392259691
85,0.073477,637.474,0.49024,-0.0484726,-0.0255042,0.120577,-0.0537865,0.0709028,-0.0351089,-0.0345663,7.0968e-07,2.6523e-06,2.0004e-06,0.0679309,0.07347687884455056,7.096802518979928e-07,2.6523035172587583e-06,-0.03449973244681315,2.000402000712498e-06,-0.03397570984716414
86,0.074477,638.968,0.487879,-0.163866,-0.0111966,0.125302,-0.0990512,0.071834,-0.0355757,-0.035028,8.38667e-07,3.26739e-06,1.0098e-06,0.0688558,0.07447696608248111,8.386673517879473e-07,3.2673953378470344e-06,-0.0349503227957374,1.009800509876868e-06,-0.03442162031557494
87,0.075477,640.319,-0.257249,0.218458,0.00647522,-0.105298,0.100827,0.0727642,-0.0360475,-0.0354845,1.08663e-06,-8.32179e-08,3.9425e-06,0.0697801,0.07547690955793951,1.0866305903967088e-06,-8.321789657372847e-08,-0.035405525842599816,3.94250777158156e-06,-0.03486230625168296
88,0.076477,641.716,-0.442974,0.163822,0.0288016,-0.153862,0.0936313,0.0736936,-0.0365158,-0.0359434,1.48939e-06,-1.36402e-06,4.2593e-06,0.0707036,0.07647692243168214,1.489391109110727e-06,-1.364019069693967e-06,-0.035857139681213956,4.25930907077543e-06,-0.03530510633109518
89,0.077477,643.569,0.459981,-0.0413001,-0.0239588,0.111859,-0.0487976,0.0746221,-0.0369772,-0.0364056,7.23369e-07,2.45814e-06,2.27629e-06,0.0716253,0.07747689541977887,7.233692616015475e-07,2.458143021133452e-06,-0.03630189258457994,2.2762925906416598e-06,-0.035750885283497125
90,0.078477,644.993,0.446577,-0.151681,-0.00925729,0.113252,-0.0913196,0.0755498,-0.0374424,-0.0368656,8.66443e-07,2.97184e-06,1.35811e-06,0.0725471,0.07847693453208038,8.664433752691991e-07,2.9718444158888246e-06,-0.036750100682862885,1.3581109221671994e-06,-0.03619433787435122
91,0.079477,646.304,-0.222465,0.205088,0.0050881,-0.0947073,0.0931188,0.0764766,-0.0379121,-0.0373208,1.06665e-06,-4.46066e-08,4.05946e-06,0.0734683,0.07947693028145553,1.0666505689815864e-06,-4.460659897009833e-08,-0.03720243292202974,4.059468239558939e-06,-0.036632962373240985
92,0.080477,647.643,-0.393694,0.147401,0.0266846,-0.139218,0.0835078,0.0774025,-0.0383785,-0.0377782,1.44997e-06,-1.20346e-06,4.2977e-06,0.0743886,0.08047688082687054,1.4499710512261288e-06,-1.2034592757892426e-06,-0.03765137700541643,4.297709235157043e-06,-0.03707350569631285
93,0.081477,649.401,0.415272,-0.0284916,-0.0218197,0.0987148,-0.0406847,0.0783276,-0.0388388,-0.0382384,7.47498e-07,2.20879e-06,2.57885e-06,0.0753072,0.0814768924733924,7.47498279274339e-07,2.208792439395424e-06,-0.038094244142889755,2.5788533253301438e-06,-0.03751654251839964
94,0.082477,650.759,0.388655,-0.133084,-0.0066347,0.0961414,-0.079991,0.0792519,-0.0393024,-0.0386966,9.08442e-07,2.59293e-06,1.75317e-06,0.0762259,0.08247696367681279,9.084424126282187e-07,2.5929333615781758e-06,-0.03854008029849909,1.75317153683352e-06,-0.03795745141867468
95,0.083477,652.045,-0.176254,0.187236,0.00323233,-0.0806062,0.0829324,0.0801753,-0.0397699,-0.0391505,1.04456e-06,3.20812e-08,4.13802e-06,0.0771438,0.08347698454364916,1.044560545615525e-06,3.208120058495467e-08,-0.03898945776079321,4.138028561584406e-06,-0.03839402344395915
96,0.084477,653.591,0.501794,-0.193539,-0.00521733,0.133676,-0.102817,0.0810978,-0.0402288,-0.0396105,9.15265e-07,3.29449e-06,1.39156e-06,0.0780605,0.0844769532265306,9.152654187882803e-07,3.294495426908739e-06,-0.03943036432487812,1.3915609682335628e-06,-0.03883626047086064
97,0.085477,654.922,0.420364,-0.212566,0.00245058,0.109523,-0.10975,0.0820195,-0.0406916,-0.0400671,1.02051e-06,3.46122e-06,8.47932e-07,0.0789767,0.08547697642421426,1.0205105207550247e-06,3.4612259900423936e-06,-0.03987481309888952,8.479323594379196e-07,-0.03927502765615831
98,0.086477,656.194,-0.173325,0.192347,0.00245937,-0.081102,0.0843414,0.0829403,-0.041158,-0.0405195,1.02969e-06,7.26197e-07,3.62421e-06,0.0798923,0.08647694393849559,1.0296905301743209e-06,7.26197263656303e-07,-0.04032251107477658,3.624216567521543e-06,-0.03970956133471737
99,0.087477,657.685,0.516738,-0.22885,-0.00126946,0.139302,-0.116379,0.0838603,-0.0416156,-0.0409785,9.76372e-07,4.08515e-06,6.38128e-07,0.0808066,0.08747696266499849,9.763724766465032e-07,4.085158344269146e-06,-0.04076155903187484,6.381282036116431e-07,-0.0401502335040651
100,0.088477,658.985,0.433374,-0.228318,0.00382746,0.113368,-0.116038,0.0847794,-0.042077,-0.0414338,1.05511e-06,4.24158e-06,1.62971e-07,0.0817205,0.08847692220239689,1.0551105567024877e-06,4.241588995590462e-06,-0.04120404955812307,1.6297101335105424e-07,-0.04058715363033627
101,0.089477,660.215,-0.180388,0.191566,0.00356936,-0.0839298,0.0848033,0.0856977,-0.0425423,-0.0418848,1.06555e-06,1.41274e-06,3.02215e-06,0.0826337,0.08947692964319831,1.065550567780349e-06,1.412740997963624e-06,-0.041650073538337495,3.022154566600932e-06,-0.04101975126594959
102,0.090477,661.675,0.528348,-0.234771,-0.00128876,0.142094,-0.119166,0.0866152,-0.0429986,-0.0423427,9.98072e-07,4.84986e-06,-1.19627e-08,0.0835456,0.09047698343066668,9.980724979818945e-07,4.8498717606371144e-06,-0.04208726885608449,-1.1962700052770003e-08,-0.04145876780133828
103,0.091477,662.937,0.439423,-0.230035,0.00377443,0.114336,-0.116891,0.0875318,-0.0434588,-0.0427968,1.07613e-06,4.98322e-06,-4.6256e-07,0.0844572,0.09147697285882184,1.0761305790918385e-06,4.983232416266858e-06,-0.0425279988752012,-4.625598930552144e-07,-0.041893942560972564
104,0.092477,664.126,-0.180442,0.189582,0.00420664,-0.0847098,0.0842749,0.0884475,-0.0439229,-0.0432466,1.09781e-06,2.13101e-06,2.39539e-06,0.085368,0.09247689606783971,1.097810602646021e-06,2.1310122706452717e-06,-0.042972258532495755,2.3953928689479653e-06,-0.04232480175811093
105,0.093477,665.552,0.527834,-0.233341,-0.00122384,0.141041,-0.118403,0.0893625,-0.0443779,-0.0437032,1.02349e-06,5.5563e-06,-6.15521e-07,0.0862776,0.09347696989174237,1.0234905236661263e-06,5.556315436194836e-06,-0.04340760710555236,-6.155208105429466e-07,-0.04276197643905322
106,0.094477,666.776,0.433599,-0.226615,0.00410077,0.111683,-0.114986,0.0902766,-0.044837,-0.0441561,1.10613e-06,5.65439e-06,-1.04024e-06,0.0871868,0.09447697417224488,1.106130611772116e-06,5.654405986099675e-06,-0.043846677876722695,-1.040239458904857e-06,-0.043195411381172444
107,0.095477,667.934,-0.173026,0.18521,0.00446137,-0.0832212,0.0822936,0.0911898,-0.0452997,-0.0446047,1.12788e-06,2.86213e-06,1.75816e-06,0.0880953,0.09547690704491885,1.127880635998224e-06,2.8621340959489316e-06,-0.044288987682604364,1.7581615454620447e-06,-0.043624537659406215
108,0.096477,669.319,0.512832,-0.226865,-0.000524034,0.135638,-0.114755,0.0921023,-0.0457536,-0.0450601,1.06208e-06,6.17472e-06,-1.16389e-06,0.0890026,0.0964769859391994,1.0620805639405262e-06,6.1747390636135435e-06,-0.044722686475707984,-1.1638893226972868e-06,-0.04405997188905664
109,0.097477,670.51,0.415094,-0.218643,0.00496627,0.105245,-0.11047,0.0930138,-0.0462115,-0.0455117,1.15028e-06,6.22927e-06,-1.5558e-06,0.0899094,0.09747688034452939,1.1502806616103811e-06,6.229289401860072e-06,-0.04516000782520668,-1.5557987897985015e-06,-0.04449157694199535
110,0.098477,671.643,-0.158537,0.178062,0.0044058,-0.0795192,0.078753,0.0939246,-0.0466728,-0.0459593,1.16014e-06,3.58131e-06,1.12495e-06,0.0908156,0.09847691763499711,1.1601406728622976e-06,3.58131641298165e-06,-0.04560037393534444,1.1249506326471703e-06,-0.044919166810404754
111,0.099477,672.984,0.483566,-0.215295,0.000774296,0.125967,-0.108237,0.0948346,-0.0471258,-0.0464132,1.11666e-06,6.68266e-06,-1.64176e-06,0.0917205,0.09947698659240745,1.1166606235235577e-06,6.682682329062217e-06,-0.046032619055040414,-1.641758652359826e-06,-0.04535257963010886
112,0.1005,674.142,0.384556,-0.206183,0.00630973,0.095228,-0.103429,0.0957437,-0.0475825,-0.0468635,1.21077e-06,6.68819e-06,-1.99542e-06,0.092625,0.1004769755970496,1.210770733006683e-06,6.688212365935087e-06,-0.046468196486240676,-1.9954180091596996e-06,-0.04578236059105589
113,0.1015,675.259,-0.137713,0.16831,0.00406831,-0.0737915,0.0737717,0.0966519,-0.0480423,-0.0473102,1.19805e-06,4.26302e-06,5.12748e-07,0.0935288,0.10147688277540712,1.1980507177433708e-06,4.2630290866263465e-06,-0.04690652962898423,5.127481315092552e-07,-0.04620851442203544
114,0.1025,676.551,0.441383,-0.198939,0.00258013,0.112442,-0.0990676,0.0975594,-0.0484944,-0.0477626,1.18878e-06,7.06417e-06,-2.0375e-06,0.0944315,0.10247692674784581,1.1887807065402711e-06,7.064194951222902e-06,-0.04733732579812733,-2.0374979242676616e-06,-0.04663991210059837
115,0.1035,677.68,0.343532,-0.189697,0.00804184,0.0821115,-0.0941564,0.098466,-0.04895,-0.0482117,1.28879e-06,7.01823e-06,-2.34977e-06,0.0953337,0.10347688554246615,1.2887908305003748e-06,7.018254627899623e-06,-0.04777126005476395,-2.349767239340217e-06,-0.04706796998848062
116,0.1045,678.787,-0.111734,0.156376,0.00348635,-0.0663721,0.0675941,0.0993719,-0.0494082,-0.0486574,1.24455e-06,4.88271e-06,-6.13278e-08,0.0962351,0.10447697817664348,1.244550774437414e-06,4.882721920340671e-06,-0.04820747131977432,-6.13277981731386e-08,-0.04749259715906251
117,0.1055,680.026,0.388564,-0.178535,0.00477653,0.095769,-0.0876884,0.100277,-0.0498596,-0.0491083,1.27895e-06,7.31078e-06,-2.3445e-06,0.0971355,0.10547709282319939,1.2789508179178455e-06,7.310806723781482e-06,-0.048637013512254024,-2.34449725167174e-06,-0.04792198593402919
118,0.1065,680.988,-0.442274,0.293432,0.0150866,-0.167434,0.14358,0.101181,-0.0503193,-0.0495516,1.46786e-06,3.3245e-06,1.11052e-06,0.0980356,0.10647689595804066,1.4678610773533052e-06,3.3245055262032253e-06,-0.049074254569585474,1.1105206165762382e-06,-0.04834394858273339
119,0.1075,682.052,-0.494038,0.201142,0.0312376,-0.176674,0.110829,0.102084,-0.0507741,-0.0499984,1.79429e-06,2.49711e-06,1.14093e-06,0.0989347,0.10747649584651686,1.7942916097357653e-06,2.497113117838623e-06,-0.049506637267328735,1.1409306508447514e-06,-0.04876905353098926
120,0.1085,683.501,0.3947,-0.0472708,-0.0165263,0.0896369,-0.0444474,0.102987,-0.0512228,-0.0504482,1.12699e-06,6.20895e-06,-9.69416e-07,0.0998323,0.1084769987813563,1.1269906350364067e-06,6.208969275611764e-06,-0.04993302797127863,-9.694155300721263e-07,-0.04919682099859535
121,0.1095,684.562,0.37459,-0.1421,-0.00276158,0.088265,-0.0803752,0.103889,-0.0516754,-0.0508955,1.28844e-06,6.54686e-06,-1.73161e-06,0.10073,0.1094772961005277,1.2884408300273265e-06,6.546881430757878e-06,-0.05036293098842737,-1.7316085008101112e-06,-0.04962202015768136
122,0.1105,685.557,-0.165868,0.17498,0.00566262,-0.0821293,0.0784956,0.10479,-0.0521316,-0.0513388,1.41597e-06,4.07469e-06,5.59428e-07,0.101627,0.11047738561698517,1.415971002449723e-06,4.074698301659296e-06,-0.05079605661584308,5.594281564658132e-07,-0.05004322934823058
123,0.1115,686.792,0.455758,-0.182129,-0.00175038,0.115495,-0.0940856,0.10569,-0.0525799,-0.0517877,1.31495e-06,7.0241e-06,-1.9595e-06,0.102522,0.11147726514233502,1.314950864639286e-06,7.024124669019471e-06,-0.05122148937578397,-1.959498080128519e-06,-0.05046956924342727
124,0.1125,687.829,0.346323,-0.181678,0.00624991,0.0824227,-0.0915311,0.106589,-0.0530319,-0.0522332,1.43939e-06,6.93709e-06,-2.28284e-06,0.103418,0.11247693248684176,1.4393910359178363e-06,6.937114061633665e-06,-0.0516502403575646,-2.2828373943406532e-06,-0.05089249083754943
125,0.1135,688.852,-0.106422,0.152465,0.00332852,-0.0646761,0.0656935,0.107487,-0.0534864,-0.0526755,1.41485e-06,4.82889e-06,-6.44864e-08,0.104312,0.11347638545943606,1.4148510008027415e-06,4.828901659204021e-06,-0.05208116738773649,-6.448639788825261e-08,-0.05131218826592365
126,0.1145,690.009,0.376429,-0.170869,0.00442779,0.0919306,-0.084078,0.108385,-0.0539343,-0.0531227,1.4452e-06,7.1662e-06,-2.2575e-06,0.105206,0.11447673634390165,1.4452010443921637e-06,7.166225677313065e-06,-0.05250564516396916,-2.2574974518629887e-06,-0.05173634660645732
127,0.1155,690.9,-0.420105,0.280061,0.0148541,-0.160554,0.136813,0.109282,-0.0543902,-0.0535627,1.63368e-06,3.35187e-06,1.02916e-06,0.106099,0.11547687046949773,1.6336813344342005e-06,3.3518756175077158e-06,-0.052937509389408666,1.0291605296863793e-06,-0.052153490835490146
128,0.1165,691.894,-0.457766,0.18692,0.0299427,-0.165901,0.10263,0.110178,-0.0548413,-0.054006,1.93948e-06,2.6304e-06,1.00025e-06,0.106991,0.11647678564053954,1.9394818808748937e-06,2.6304034594915038e-06,-0.05336463293396465,1.0002505002049134e-06,-0.05257357807378693
129,0.1175,693.244,0.357601,-0.0379786,-0.0147029,0.0786699,-0.038173,0.111073,-0.0552868,-0.054452,1.3192e-06,6.02183e-06,-9.01839e-07,0.107882,0.11747647966002983,1.3192008700979585e-06,6.021848131254615e-06,-0.05378626506446205,-9.018385933590167e-07,-0.0529960360428362
130,0.1185,694.229,0.328505,-0.126584,-0.000835482,0.0744352,-0.071094,0.111968,-0.0557359,-0.0548957,1.48994e-06,6.26186e-06,-1.5843e-06,0.108772,0.11847706880617692,1.4899411100444127e-06,6.261879605506948e-06,-0.054211114245797165,-1.5842987449721235e-06,-0.05341612849724098
131,0.1195,695.176,-0.131704,0.158671,0.00451234,-0.0715809,0.0699151,0.112862,-0.056188,-0.0553358,1.57402e-06,4.14196e-06,4.44182e-07,0.109662,0.11947743440248404,1.5740212386816665e-06,4.1419685778976145e-06,-0.05463860875863058,4.441820986578193e-07,-0.053832628401562777
132,0.1205,696.308,0.387612,-0.157306,0.000785327,0.0948407,-0.0801602,0.113754,-0.0566334,-0.0557808,1.52933e-06,6.6111e-06,-1.73317e-06,0.110551,0.12047645377036864,1.529331169480841e-06,6.611121853294932e-06,-0.055059578965265144,-1.7331684980526063e-06,-0.05425357921342189
133,0.1215,697.127,-0.437793,0.270263,0.0177237,-0.164426,0.134414,0.114647,-0.057087,-0.0562184,1.81035e-06,2.70165e-06,1.45798e-06,0.11144,0.12147748613801523,1.8103516385981067e-06,2.7016536494617327e-06,-0.055488106742798915,1.4579810627690648e-06,-0.05466734730809619
134,0.1225,698.087,-0.458094,0.180684,0.0307074,-0.165133,0.10022,0.115538,-0.0575356,-0.0566595,2.09124e-06,2.05013e-06,1.4141e-06,0.112327,0.1224771678702401,2.0912421867524955e-06,2.0501321014165796e-06,-0.05591171975461151,1.4141009998525078e-06,-0.055084241588405525
135,0.1235,699.389,0.344366,-0.0364611,-0.0142155,0.0754913,-0.0367008,0.116428,-0.0579788,-0.0571031,1.46962e-06,5.37808e-06,-4.32068e-07,0.113213,0.12347661723864167,1.4696210799414189e-06,5.3780944619941096e-06,-0.0563300469722573,-4.320679066749378e-07,-0.055503313261867526
136,0.1245,700.332,0.31377,-0.121383,-0.000635445,0.0706196,-0.0681427,0.117318,-0.0584256,-0.0575444,1.63773e-06,5.59134e-06,-1.08125e-06,0.114099,0.12447695651293023,1.637731340986548e-06,5.5913556316067314e-06,-0.056751584528767385,-1.0812494154466279e-06,-0.05592002769492266
137,0.1255,701.242,-0.121237,0.151805,0.00406244,-0.0676395,0.0664725,0.118207,-0.0588752,-0.0579823,1.71178e-06,3.58642e-06,8.5064e-07,0.114985,0.12547706100785128,1.7117814650191576e-06,3.5864264311680216e-06,-0.057175573696456206,8.506403617047908e-07,-0.05633334981131288
138,0.1265,702.323,0.364301,-0.147872,0.00112101,0.0883194,-0.075205,0.119095,-0.0593184,-0.0584248,1.67824e-06,5.89548e-06,-1.19921e-06,0.115869,0.12647692851349546,1.6782414082872066e-06,5.89549737828321e-06,-0.05759334089814372,-1.1992092809887112e-06,-0.056750829929733126
139,0.1275,703.117,-0.403743,0.255142,0.0163049,-0.153406,0.126109,0.119982,-0.0597693,-0.0588604,1.9311e-06,2.255e-06,1.78815e-06,0.116753,0.12747655681870063,1.931101864638407e-06,2.255002542472795e-06,-0.05801817627439931,1.788151598791643e-06,-0.05716161979168832
140,0.1285,704.038,-0.419154,0.165993,0.0288351,-0.152852,0.0916558,0.120869,-0.0602154,-0.0592992,2.19787e-06,1.67469e-06,1.70361e-06,0.117636,0.128477072187567,2.19787241539926e-06,1.6746914022203185e-06,-0.058438300650254016,1.703611451242537e-06,-0.05757524651658341
141,0.1295,705.276,0.314201,-0.0274989,-0.013079,0.0670231,-0.0312556,0.121755,-0.0606567,-0.0597403,1.6187e-06,4.70735e-06,5.43549e-08,0.118518,0.12947734592935856,1.6187013101021108e-06,4.707361079603345e-06,-0.058853720159120715,5.435490146865618e-08,-0.05799085840540408
142,0.1305,705.94,-0.465351,0.166298,0.035048,-0.164095,0.0985504,0.12264,-0.0611061,-0.0601757,2.35797e-06,1.1619e-06,2.04345e-06,0.1194,0.13047737582846564,2.3579727799205585e-06,1.161900675006322e-06,-0.05927657627439542,2.0434520877632423e-06,-0.05840091990878704
143,0.1315,706.898,-0.408355,0.117064,0.0347149,-0.14565,0.073505,0.123524,-0.0615507,-0.0606134,2.48388e-06,8.38718e-07,2.00621e-06,0.120281,0.13147715966804796,2.4838830847695448e-06,8.387183516589403e-07,-0.059694728946356856,2.0062120125174943e-06,-0.05881296764291799
144,0.1325,708.118,0.269476,-0.0180766,-0.0108595,0.0548211,-0.0246818,0.124407,-0.0619913,-0.0610529,1.86689e-06,3.57963e-06,6.90575e-07,0.12116,0.13247669523004157,1.8668917425301856e-06,3.5796364068474418e-06,-0.060108936192226015,6.905752385488739e-07,-0.059226528456993055
145,0.1335,708.795,-0.40876,0.135833,0.0334297,-0.14534,0.0830612,0.12529,-0.0624388,-0.0614877,2.55109e-06,4.99058e-07,2.34438e-06,0.12204,0.13347711377171456,2.551093253977399e-06,4.990581246033798e-07,-0.06052944334778654,2.3443827481539614e-06,-0.05963548784820549
146,0.1345,710.115,0.617174,-0.124498,-0.0292536,0.160171,-0.0869419,0.126172,-0.0628764,-0.061928,1.64915e-06,4.96648e-06,-9.72861e-08,0.122917,0.13447728159523353,1.649151359917056e-06,4.966492332947325e-06,-0.06094046572512235,-9.728609529080501e-08,-0.06004943920482719
147,0.1355,710.941,0.458087,-0.171343,-0.0087546,0.115876,-0.0971887,0.127053,-0.0633193,-0.0623649,1.87472e-06,4.84708e-06,-5.83463e-07,0.123795,0.13547719647815026,1.8747217573888975e-06,4.84709174708442e-06,-0.061356283103296994,-5.834628298284628e-07,-0.06046001390826372
148,0.1365,711.727,-0.144726,0.163528,0.00375464,-0.0736676,0.0721102,0.127933,-0.0637655,-0.0627981,2.04613e-06,2.17411e-06,1.79576e-06,0.124672,0.13647685619681593,2.046132093314057e-06,2.174112363473313e-06,-0.06177501250429973,1.7957616122998843e-06,-0.06086693448487812
149,0.1375,712.772,0.451312,-0.181354,-0.00359958,0.116373,-0.0937474,0.128813,-0.0642038,-0.0632368,1.93914e-06,5.01553e-06,-6.17395e-07,0.125548,0.13747739600321562,1.939141880180628e-06,5.015542577702092e-06,-0.06218614640974196,-6.173948093879389e-07,-0.0612788418022433
150,0.1385,713.62,0.310259,-0.164537,0.00548705,0.0733633,-0.0827896,0.129691,-0.0646458,-0.0636722,2.07373e-06,4.74909e-06,-7.83847e-07,0.126424,0.1384765397168115,2.073732150220664e-06,4.749101276901868e-06,-0.06260056853899132,-7.838466927756471e-07,-0.06168747202926672
151,0.1395,714.481,-0.0671707,0.12657,0.00162753,-0.050098,0.052888,0.130569,-0.0650896,-0.0641049,2.03033e-06,3.00054e-06,1.10367e-06,0.127299,0.13947656106381245,2.030332061142559e-06,3.0005445015302e-06,-0.06301649410596377,1.103670609126084e-06,-0.06209339203299358
152,0.1405,715.433,0.298062,-0.136569,0.00500869,0.0697915,-0.0665095,0.131447,-0.0655281,-0.0645416,2.09098e-06,4.77881e-06,-6.2816e-07,0.128172,0.14047746081511914,2.090982186064849e-06,4.778821418582879e-06,-0.06342727130381554,-6.281598027291224e-07,-0.06250288642908353
153,0.1415,716.204,-0.303304,0.223904,0.010432,-0.122536,0.106822,0.132323,-0.0659726,-0.0649725,2.19747e-06,1.88809e-06,1.92523e-06,0.129046,0.14147695678611272,2.1974724144779856e-06,1.8880917824759536e-06,-0.06384348537129159,1.9252318532725354e-06,-0.06290676691302177
154,0.1425,717.292,0.542029,-0.226852,-0.00595144,0.144195,-0.117301,0.133199,-0.0664075,-0.0654104,1.96768e-06,5.801e-06,-1.29697e-06,0.129918,0.14247732869918361,1.9676819358327435e-06,5.801016825790484e-06,-0.06425053132094616,-1.2969691589592713e-06,-0.0633170302060867
155,0.1435,718.119,0.408153,-0.205397,0.00190273,0.10299,-0.104795,0.134074,-0.0668474,-0.065844,2.07341e-06,5.66477e-06,-1.52099e-06,0.13079,0.14347743384398726,2.0734121495280533e-06,5.664786044912162e-06,-0.06466207698611248,-1.5209888433176388e-06,-0.063723087902119
156,0.1445,718.903,-0.127918,0.148066,0.00464664,-0.0691552,0.0653053,0.134948,-0.0672902,-0.0662742,2.12458e-06,3.22965e-06,8.38956e-07,0.131661,0.14447726998591515,2.1245822570126194e-06,3.2296552152644153e-06,-0.06507615293524216,8.38956351945086e-07,-0.0641257876027872
157,0.1455,719.882,0.405777,-0.177164,0.000477907,0.102168,-0.0888368,0.135821,-0.0677258,-0.0667098,2.07295e-06,5.77774e-06,-1.40466e-06,0.132531,0.14547683488920993,2.0729521486018143e-06,5.777756691083269e-06,-0.06548331707623545,-1.4046590134375592e-06,-0.06453336563276768
158,0.1465,720.546,-0.443841,0.273968,0.0170972,-0.165992,0.135314,0.136694,-0.0681698,-0.0671378,2.34528e-06,1.76806e-06,1.8817e-06,0.133401,0.14647727279367495,2.345282750226829e-06,1.7680615629345198e-06,-0.06589815038364444,1.8817017704009231e-06,-0.0649336596832395
159,0.1475,721.366,-0.43141,0.176544,0.0283755,-0.15708,0.0959594,0.137566,-0.0686085,-0.0675696,2.59109e-06,1.29933e-06,1.73758e-06,0.13427,0.14747743698376214,2.5910933569850414e-06,1.2993308440290008e-06,-0.06630785099067216,1.7375815095643787e-06,-0.06533733416939458
160,0.1485,722.485,0.29668,-0.0304648,-0.0118505,0.0626509,-0.0308768,0.138437,-0.0690425,-0.0680036,2.03796e-06,4.31312e-06,4.50658e-08,0.135137,0.14847732521948886,2.0379620766508566e-06,4.313129301491969e-06,-0.06671298546280269,4.5065801090871105e-08,-0.06574288975443732
161,0.1495,723.063,-0.444177,0.167154,0.0326658,-0.158413,0.096594,0.139307,-0.0694843,-0.068432,2.72004e-06,9.29387e-07,1.98323e-06,0.136005,0.1494769352597467,2.720043699389052e-06,9.293874319027395e-07,-0.06712522059637893,1.9832319666512888e-06,-0.0661430397822107
162,0.1505,724.299,0.654028,-0.158332,-0.0283363,0.172176,-0.101335,0.140177,-0.0699152,-0.0688668,1.84392e-06,5.75035e-06,-8.48012e-07,0.136871,0.15047741533915215,1.8439216999954766e-06,5.750366533385787e-06,-0.0675271097455884,-8.48011640464108e-07,-0.06654899252799107
163,0.1515,725.036,0.473752,-0.186891,-0.0081182,0.120661,-0.10348,0.141045,-0.0703522,-0.0692976,2.07001e-06,5.54205e-06,-1.24408e-06,0.137737,0.15147646325973851,2.0700121423633533e-06,5.54206535707813e-06,-0.06793451137489015,-1.244079226081496e-06,-0.06695103661549562
164,0.1525,725.735,-0.14215,0.158759,0.00426997,-0.0735448,0.0701834,0.141913,-0.0707924,-0.0697247,2.24183e-06,2.81201e-06,1.17385e-06,0.138602,0.15247637873038222,2.2418325129613947e-06,2.81201395369024e-06,-0.06834471631025263,1.1738506888736566e-06,-0.06734945673908332
165,0.1535,726.692,0.444214,-0.181937,-0.00304691,0.113692,-0.0933142,0.142781,-0.0712246,-0.0701575,2.1375e-06,5.60134e-06,-1.19735e-06,0.139466,0.15347716250444354,2.137502284504933e-06,5.601355687501197e-06,-0.06874729072126651,-1.1973492831662824e-06,-0.06775302055669696
166,0.1545,727.456,0.2917,-0.155993,0.00605893,0.0669005,-0.0781013,0.143647,-0.0716607,-0.0705868,2.27418e-06,5.25337e-06,-1.28444e-06,0.14033,0.15447650638061527,2.2741825860261855e-06,5.253383798864419e-06,-0.06915332148633957,-1.2844391751309914e-06,-0.0681531482914085
167,0.1555,728.241,-0.0503644,0.11345,0.0019081,-0.0453406,0.0469465,0.144513,-0.0720981,-0.0710137,2.22784e-06,3.66538e-06,4.4297e-07,0.141193,0.15547671606342428,2.2278424816057907e-06,3.6653867174774035e-06,-0.06956038479228654,4.429700981578577e-07,-0.06855086881291739
168,0.1565,729.099,0.26255,-0.120159,0.00595095,0.0579921,-0.0580273,0.145378,-0.0725309,-0.0714442,2.29989e-06,5.18705e-06,-1.07131e-06,0.142055,0.1564766358257692,2.2998926447748147e-06,5.187063452760654e-06,-0.06996299192727984,-1.071309426170508e-06,-0.06895177136342778
169,0.1575,729.811,-0.252681,0.197221,0.00952827,-0.107496,0.0932741,0.146243,-0.0729688,-0.0718697,2.37885e-06,2.69776e-06,1.14674e-06,0.142917,0.15747742089289907,2.3788528293877675e-06,2.697763638925821e-06,-0.07037016597585044,1.146740657542722e-06,-0.06934784811340833
170,0.1585,730.784,0.457737,-0.191691,-0.00308029,0.117567,-0.0983867,0.147106,-0.0733985,-0.0723011,2.20731e-06,5.97922e-06,-1.59047e-06,0.143777,0.158476755057799,2.2073124361643437e-06,5.979237875486376e-06,-0.07076954210342445,-1.5904687351575575e-06,-0.06974924486422784
171,0.1595,731.532,0.325454,-0.169543,0.00473477,0.0769069,-0.0854659,0.147969,-0.0738326,-0.0727286,2.3228e-06,5.7425e-06,-1.72942e-06,0.144637,0.15947695202032697,2.3228026977406557e-06,5.742516488105309e-06,-0.07117283350446568,-1.7294185045146904e-06,-0.07014684206959043
172,0.1605,732.274,-0.0789269,0.122015,0.00356791,-0.0543522,0.0522327,0.148831,-0.0742685,-0.0731535,2.32014e-06,3.88068e-06,1.72729e-07,0.145497,0.16047685204796625,2.320142691525362e-06,3.880687529767002e-06,-0.07157762103648901,1.7272901486897752e-07,-0.07054185275043301
173,0.1615,733.134,0.305051,-0.135361,0.00399681,0.0705629,-0.0665205,0.149692,-0.0746991,-0.0735825,2.33924e-06,5.72088e-06,-1.54128e-06,0.146355,0.16147645288398738,2.339242735960312e-06,5.72089636419193e-06,-0.07197731365287463,-1.5412788122448617e-06,-0.07094050477862901
174,0.1625,733.791,-0.308181,0.215455,0.0124561,-0.124783,0.103911,0.150553,-0.0751356,-0.0740057,2.49035e-06,2.79163e-06,9.49469e-07,0.147213,0.16247691474694714,2.4903531008479973e-06,2.79163389649284e-06,-0.07238230715920202,9.494694508394019e-07,-0.07133359957228147
175,0.1635,734.784,0.530289,-0.217553,-0.00652094,0.139337,-0.112883,0.151413,-0.0755628,-0.0744358,2.2257e-06,6.64606e-06,-2.1486e-06,0.14807,0.1634770749008525,2.2257024767657896e-06,6.646082085115523e-06,-0.07277850080459558,-2.1485976917645644e-06,-0.07173293310827256
176,0.1645,735.503,0.377253,-0.188976,0.00248612,0.0923016,-0.0962255,0.152272,-0.075995,-0.0748615,2.34831e-06,6.38074e-06,-2.27563e-06,0.148926,0.1644769310849421,2.3483127573609153e-06,6.380760356972104e-06,-0.07317915934799979,-2.2756274107305074e-06,-0.07212801230007604
177,0.1655,736.201,-0.0986278,0.12958,0.00456145,-0.0608937,0.0564887,0.15313,-0.0764295,-0.0752844,2.39024e-06,4.2169e-06,-1.73118e-07,0.149782,0.16547648103742318,2.3902428565314437e-06,4.2169088911858665e-06,-0.0735817755285636,-1.7311798505836862e-07,-0.07252032640301032
178,0.1665,737.059,0.346592,-0.151381,0.00231085,0.0828367,-0.0751905,0.153988,-0.0768578,-0.0757117,2.36924e-06,6.33925e-06,-2.07632e-06,0.150637,0.16647688897178514,2.3692428066102167e-06,6.339270093080884e-06,-0.07397847549474279,-2.0763178444349606e-06,-0.0729165538075246
179,0.1675,737.666,-0.358262,0.233442,0.0149524,-0.14063,0.114064,0.154845,-0.0772931,-0.0761328,2.58203e-06,2.99745e-06,6.81023e-07,0.151492,0.16747698814692047,2.5820333333648193e-06,2.997454492392748e-06,-0.0743814849429898,6.810232318077425e-07,-0.07330686646061946
180,0.1685,738.674,0.59634,-0.242739,-0.00937541,0.159145,-0.126614,0.155701,-0.0777177,-0.0765616,2.23931e-06,7.37439e-06,-2.7588e-06,0.152345,0.16847677629705404,2.239312507201774e-06,7.3744171908973755e-06,-0.0747744191386499,-2.75879619449082e-06,-0.07370414729318331
181,0.1695,739.367,0.422941,-0.20681,0.000652988,0.105795,-0.105914,0.156557,-0.0781481,-0.0769855,2.36851e-06,7.07344e-06,-2.86578e-06,0.153198,0.16947742063223914,2.368512804995504e-06,7.07346501682693e-06,-0.07517255054462813,-2.8657758937011835e-06,-0.07409672089329267
182,0.1705,740.025,-0.114756,0.135647,0.00547104,-0.0664227,0.0599427,0.157411,-0.0785812,-0.0774063,2.4484e-06,4.64799e-06,-5.89261e-07,0.15405,0.17047658093018092,2.448402997234922e-06,4.648000802021102e-06,-0.07557300658797139,-5.892608263557975e-07,-0.07448625902856909
183,0.1715,740.878,0.381219,-0.16502,0.000995217,0.0929292,-0.0824858,0.158265,-0.0790073,-0.0778321,2.39441e-06,7.00396e-06,-2.64927e-06,0.154901,0.17147659487547262,2.3944128666464337e-06,7.003984527687024e-06,-0.07596682102174068,-2.649266490739599e-06,-0.07488025889095118
184,0.1725,741.441,-0.399053,0.248169,0.0170673,-0.153739,0.122357,0.159119,-0.0794412,-0.0782511,2.65796e-06,3.32193e-06,3.2736e-07,0.155752,0.17247746319744084,2.6579635323820128e-06,3.3219355175528875e-06,-0.07636767204718031,3.2736005350919584e-07,-0.07526780286634316
185,0.1735,742.156,-0.365282,0.151006,0.0264199,-0.138909,0.0815868,0.159971,-0.07987,-0.0786736,2.86859e-06,3.01892e-06,9.91043e-08,0.156602,0.17347683967000793,2.8685941144690474e-06,3.018924557007807e-06,-0.07676364068766284,9.910430498472067e-08,-0.07565841969601628
186,0.1745,743.117,0.235598,-0.0159978,-0.00790072,0.042855,-0.0207624,0.160823,-0.0802951,-0.0790976,2.40382e-06,5.48266e-06,-1.24815e-06,0.157451,0.17447706797415852,2.403822889185392e-06,5.482675029755413e-06,-0.07715602505679986,-1.2481492210891787e-06,-0.07605025745059091
187,0.1755,743.64,-0.341203,0.134197,0.0280746,-0.129482,0.0767781,0.161674,-0.0807264,-0.0795172,2.95881e-06,2.83289e-06,2.31744e-07,0.1583,0.17547697335840118,2.9588143772851794e-06,2.832894012705367e-06,-0.0775539618419564,2.3174402685732787e-07,-0.07643786543672215
188,0.1765,744.673,0.497951,-0.114938,-0.0194759,0.123847,-0.0738425,0.162524,-0.0811492,-0.0799417,2.28537e-06,6.49289e-06,-1.89834e-06,0.159147,0.17647655354715308,2.285372611376957e-06,6.492911078792574e-06,-0.07794388959035503,-1.8983381981918512e-06,-0.07682983436155388
189,0.1775,745.309,0.330414,-0.136107,-0.00118358,0.0756767,-0.0738708,0.163374,-0.0815767,-0.0803629,2.51359e-06,6.14593e-06,-2.14957e-06,0.159995,0.17747698374026588,2.513593159170213e-06,6.1459488862602996e-06,-0.07833798433380179,-2.1495676896243765e-06,-0.07721859175726586
190,0.1785,745.964,-0.0644845,0.117885,0.0026712,-0.0506532,0.0497316,0.164223,-0.082006,-0.0807816,2.57137e-06,4.3597e-06,-4.37968e-07,0.160841,0.1784770861828755,2.571373306059499e-06,4.359709503409803e-06,-0.07873356891882066,-4.379679040544815e-07,-0.0776048794579236
191,0.1795,746.744,0.282124,-0.118629,0.00353575,0.0624595,-0.0587808,0.165071,-0.0824302,-0.0812039,2.59404e-06,6.01901e-06,-1.99045e-06,0.161687,0.17947685859554974,2.5940433645565975e-06,6.019028114367941e-06,-0.07912428726166576,-1.990448019073554e-06,-0.07799432468018219
192,0.1805,747.341,-0.271835,0.193332,0.0121847,-0.11392,0.093086,0.165919,-0.0828598,-0.081621,2.74572e-06,3.37373e-06,2.19974e-07,0.162532,0.18047747917480184,2.745723769459474e-06,3.3737356910368277e-06,-0.07951981050338286,2.1997402410711686e-07,-0.07837881305673289
193,0.1815,748.239,0.467304,-0.18832,-0.0049574,0.119188,-0.0977115,0.166765,-0.083281,-0.0820442,2.50967e-06,6.75966e-06,-2.4898e-06,0.163376,0.18147658568464786,2.509673149297953e-06,6.759682846579906e-06,-0.07990743511972387,-2.489796900428942e-06,-0.07876876062432214
194,0.1825,748.889,0.314146,-0.160177,0.00436886,0.0722322,-0.0809682,0.167611,-0.0837068,-0.0824634,2.643e-06,6.41332e-06,-2.55351e-06,0.16422,0.18247653779624007,2.6430034927305e-06,6.413340565281089e-06,-0.08029912713670151,-2.5535067398330114e-06,-0.07915485982782133
195,0.1835,749.543,-0.0620003,0.108907,0.0038015,-0.0498084,0.0463004,0.168457,-0.0841342,-0.0828803,2.64827e-06,4.68441e-06,-8.09272e-07,0.165063,0.1834773362252604,2.648273506711263e-06,4.684420971790004e-06,-0.08069212330050068,-8.092716725638383e-07,-0.0795386801538529
196,0.1845,750.303,0.270653,-0.119043,0.00478037,0.0588418,-0.0581405,0.169301,-0.0845567,-0.0833008,2.67659e-06,6.27393e-06,-2.30707e-06,0.165905,0.18447661273240223,2.676593582107145e-06,6.273949681112612e-06,-0.08108044883885968,-2.3070673387248775e-06,-0.07992565277215313
197,0.1855,750.892,-0.25838,0.188068,0.0116989,-0.110185,0.0901522,0.170145,-0.0849844,-0.0837163,2.80432e-06,3.73614e-06,-1.53907e-07,0.166747,0.1854767329849265,2.8043239321817737e-06,3.7361469793495417e-06,-0.08147338669514081,-1.5390698815398451e-07,-0.08030786425349234
198,0.1865,751.761,0.445611,-0.182244,-0.00366961,0.112326,-0.0939018,0.170988,-0.085404,-0.0841375,2.5952e-06,6.96287e-06,-2.76393e-06,0.167587,0.18647651121815056,2.595203367539156e-06,6.9628942407362615e-06,-0.0818587196135836,-2.7639261803713566e-06,-0.08069515701148822
199,0.1875,752.396,0.295413,-0.152782,0.00521344,0.0661617,-0.0768303,0.171831,-0.085828,-0.084555,2.72577e-06,6.60298e-06,-2.80734e-06,0.168428,0.18747713261977061,2.7257737149621875e-06,6.6030017997764645e-06,-0.08224792899824707,-2.8073360593960928e-06,-0.08107888667429486
200,0.1885,753.041,-0.0528059,0.103124,0.00377301,-0.0471826,0.0435635,0.172673,-0.0862534,-0.0849703,2.71969e-06,4.99376e-06,-1.1594e-06,0.169267,0.18847740942287383,2.71969369824987e-06,4.993772468875335e-06,-0.08263825770044997,-1.1593993278768977e-06,-0.0814604353785866
201,0.1895,753.776,0.250635,-0.110471,0.00552012,0.0523136,-0.0536129,0.173514,-0.0866743,-0.0853888,2.76022e-06,6.44374e-06,-2.54981e-06,0.170106,0.18947733933579092,2.760223809517015e-06,6.443760760976858e-06,-0.08302429401074318,-2.5498067491858123e-06,-0.08184476376005756
202,0.1905,754.362,-0.232945,0.176181,0.0109808,-0.102591,0.0839927,0.174354,-0.0871,-0.0858028,2.86669e-06,4.11301e-06,-5.53139e-07,0.170944,0.1904769200659644,2.8666941089827702e-06,4.113018458484774e-06,-0.08341456749317833,-5.531388470592091e-07,-0.08222480135465071
203,0.1915,755.196,0.407771,-0.16675,-0.0021807,0.10034,-0.0855664,0.175194,-0.0875182,-0.0862221,2.69068e-06,7.04852e-06,-2.95198e-06,0.171781,0.19147734079670187,2.690683619910317e-06,7.048544840904114e-06,-0.0837978033808432,-2.951975642928595e-06,-0.08260954382854624
204,0.1925,755.817,0.264829,-0.139544,0.00636193,0.0564257,-0.0697354,0.176033,-0.0879404,-0.0866378,2.82078e-06,6.68147e-06,-2.98515e-06,0.172618,0.19247740975589456,2.8207839783966904e-06,6.6814923209701504e-06,-0.08418454230192474,-2.985145544420753e-06,-0.0829908237866468
205,0.1935,756.458,-0.039178,0.0956055,0.00351608,-0.0431278,0.039868,0.176871,-0.0883639,-0.0870515,2.79576e-06,5.26194e-06,-1.48534e-06,0.173454,0.19347712464730593,2.7957639081588326e-06,5.261953843982425e-06,-0.08457230803307081,-1.4853388968782966e-06,-0.08337011202166522
206,0.1945,757.165,0.22113,-0.0978659,0.00658806,0.0429026,-0.0469747,0.177708,-0.0887833,-0.0874681,2.8567e-06,6.50761e-06,-2.72341e-06,0.174289,0.1944764831738357,2.8567040804006183e-06,6.507631174601514e-06,-0.08495615790813638,-2.7234062914827106e-06,-0.08375190050093506
207,0.1955,757.754,-0.196429,0.159771,0.00977585,-0.0914996,0.0754015,0.178545,-0.0892067,-0.0878807,2.92985e-06,4.47728e-06,-9.47493e-07,0.175124,0.19547667851360973,2.9298542920663806e-06,4.477290022952829e-06,-0.08534350546361402,-9.474925510843946e-07,-0.08412986648704335
208,0.1965,758.546,0.355213,-0.145253,-0.000117193,0.0838617,-0.0740351,0.179381,-0.0896238,-0.0882978,2.80244e-06,7.00435e-06,-3.05497e-06,0.175958,0.19647651489022078,2.802443926919196e-06,7.0043745306058725e-06,-0.08572492913604857,-3.0549653335931737e-06,-0.08451179626273975
209,0.1975,759.021,-0.397136,0.234624,0.0187796,-0.15306,0.116612,0.180217,-0.0900485,-0.0887083,3.10665e-06,3.45375e-06,-2.92619e-07,0.176791,0.1974771874795309,3.10665482561312e-06,3.453755964111238e-06,-0.08611313931637754,-2.926189571761384e-07,-0.08488752704635438
210,0.1985,759.951,0.610241,-0.241326,-0.0118335,0.162333,-0.126858,0.181052,-0.0904622,-0.0891266,2.67491e-06,8.03812e-06,-3.74552e-06,0.177623,0.19847749850280838,2.6749135775272492e-06,8.038152305767099e-06,-0.08649113611661308,-3.7455129855423763e-06,-0.08527023854410076
211,0.1995,760.529,0.405782,-0.195383,0.000280067,0.0995075,-0.100122,0.181886,-0.0908821,-0.0895399,2.83022e-06,7.57279e-06,-3.73951e-06,0.178455,0.1994774456565629,2.8302240051569783e-06,7.572818673695636e-06,-0.08687463796670947,-3.7395030080267233e-06,-0.08564821823962598
212,0.2005,761.091,-0.088608,0.117801,0.00530995,-0.0589232,0.0515586,0.182719,-0.0913041,-0.0899505,2.91179e-06,5.34608e-06,-1.6781e-06,0.179287,0.20047702663647304,2.9117942392797858e-06,5.346094290370473e-06,-0.08725989557441505,-1.6780985919728764e-06,-0.0860235740154025
213,0.2015,761.824,0.330081,-0.142576,0.00226473,0.0762053,-0.0707065,0.183552,-0.0917201,-0.0903654,2.87983e-06,7.33278e-06,-3.43373e-06,0.180117,0.201477440614235,2.8798341467073385e-06,7.332806884807752e-06,-0.0876395164912307,-3.4337241047177613e-06,-0.08640270417855245
214,0.2025,762.32,-0.324479,0.210624,0.0152391,-0.13149,0.102957,0.184384,-0.0921426,-0.0907746,3.09622e-06,4.22966e-06,-9.31042e-07,0.180947,0.20247748580593772,3.096224793219804e-06,4.22966894508825e-06,-0.08802490737595592,-9.310415666208272e-07,-0.08677647171394942
215,0.2035,763.182,0.525268,-0.213774,-0.00718196,0.135989,-0.110756,0.185215,-0.0925554,-0.0911906,2.7847e-06,8.11216e-06,-3.95695e-06,0.181776,0.2034771599037022,2.7847038772677024e-06,8.112192903642068e-06,-0.08840129300285293,-3.956942171257083e-06,-0.08715629369326716
216,0.2045,763.754,0.340479,-0.170092,0.00329516,0.0790252,-0.0861127,0.186045,-0.0929736,-0.0916021,2.92926e-06,7.64932e-06,-3.92882e-06,0.182605,0.2044764605988425,2.929264290241207e-06,7.649349256233506e-06,-0.08878244387791612,-3.928812282172345e-06,-0.08753185160207311
217,0.2055,764.329,-0.0616505,0.1036,0.00477152,-0.0508231,0.0444794,0.186875,-0.0933933,-0.0920114,2.96347e-06,5.81505e-06,-2.15489e-06,0.183433,0.2054765910578642,2.963474390993426e-06,5.815066907333133e-06,-0.08916480164283092,-2.154887678185169e-06,-0.08790524839434599
218,0.2065,765.024,0.272148,-0.118503,0.00458481,0.0578615,-0.0579337,0.187704,-0.0938081,-0.0924243,2.97573e-06,7.40135e-06,-3.61964e-06,0.18426,0.20647634549280847,2.9757344275349595e-06,7.4013773900816204e-06,-0.08954253773522791,-3.6196334490812276e-06,-0.08828177457810404
219,0.2075,765.543,-0.254271,0.180502,0.0127477,-0.110115,0.0870029,0.188533,-0.0942281,-0.0928323,3.12201e-06,4.87909e-06,-1.52974e-06,0.185086,0.20747692906781023,3.122014873513379e-06,4.879101902721672e-06,-0.08992484957827207,-1.5297388299417847e-06,-0.08865367974026395
220,0.2085,766.341,0.427453,-0.174051,-0.00314235,0.105384,-0.0894444,0.189361,-0.0946402,-0.0932458,2.9074e-06,7.99342e-06,-4.0191e-06,0.185912,0.2084771339927738,2.9074042264820577e-06,7.99345194746337e-06,-0.09029981428097722,-4.01909192337957e-06,-0.08903044354240697
221,0.2095,766.908,0.268987,-0.139681,0.00609633,0.0565977,-0.0698514,0.190188,-0.0950566,-0.0936557,3.04542e-06,7.55745e-06,-3.9993e-06,0.186737,0.20947695795280907,3.045424637360128e-06,7.557478557629338e-06,-0.09067853458327158,-3.999292002787591e-06,-0.08940377344440831
222,0.2105,767.496,-0.0346645,0.0896939,0.00409892,-0.0425856,0.0374978,0.191014,-0.0954741,-0.0940637,3.03277e-06,6.14315e-06,-2.539e-06,0.187561,0.2104763986322542,3.032774598787924e-06,6.143168869154891e-06,-0.09105809705590362,-2.5389967767130983e-06,-0.08977522092440438
223,0.2115,768.153,0.212046,-0.0929461,0.00683668,0.0389438,-0.0445002,0.19184,-0.0958877,-0.0944745,3.08984e-06,7.31821e-06,-3.70443e-06,0.188385,0.2114766651907416,3.0898447735960843e-06,7.3182367781310376e-06,-0.09143395769362328,-3.7044231385729987e-06,-0.09014906447092685
224,0.2125,768.696,-0.182704,0.149431,0.010159,-0.0881364,0.0706194,0.192665,-0.0963051,-0.0948814,3.16532e-06,5.39394e-06,-2.04138e-06,0.189208,0.2124765458335771,3.1653250096574936e-06,5.3939545472392325e-06,-0.09181311402425096,-2.041377916373044e-06,-0.09051920750588616
225,0.2135,769.431,0.328445,-0.133326,0.000810643,0.0745033,-0.0677174,0.19349,-0.0967165,-0.0952926,3.04747e-06,7.72798e-06,-3.98348e-06,0.190031,0.21347725171830856,3.04747464352495e-06,7.72800986093003e-06,-0.09218666526438268,-3.983472065982596e-06,-0.09089310912831772
226,0.2145,769.875,-0.358258,0.214791,0.0181357,-0.142028,0.106515,0.194313,-0.097135,-0.0956976,3.32878e-06,4.47665e-06,-1.46889e-06,0.190853,0.2144763545709032,3.3287855403241196e-06,4.476660020236167e-06,-0.09256650565782332,-1.4688889211633693e-06,-0.0912612228710562
227,0.2155,770.728,0.546483,-0.215693,-0.00929643,0.141702,-0.11288,0.195137,-0.0975434,-0.0961097,2.94561e-06,8.58805e-06,-4.56549e-06,0.191673,0.21547749550048678,2.945614338223379e-06,8.588086877425738e-06,-0.09293702583154329,-4.565479578166887e-06,-0.09163563696778765
228,0.2165,771.262,0.347608,-0.170161,0.00251799,0.0805658,-0.0865046,0.195959,-0.0979576,-0.0965172,3.10498e-06,8.07019e-06,-4.51164e-06,0.192494,0.21647702875367436,3.1049848203679176e-06,8.070222563993923e-06,-0.09331265351757978,-4.5116298225122975e-06,-0.0920057200361768
229,0.2175,771.801,-0.0589956,0.100575,0.00496369,-0.0504532,0.0432322,0.196781,-0.0983733,-0.0969225,3.15204e-06,6.22034e-06,-2.75518e-06,0.193314,0.21747738396097316,3.152044967702494e-06,6.220359346276183e-06,-0.09368948511763786,-2.755176204516374e-06,-0.09237365555067745
230,0.2185,772.463,0.267551,-0.115884,0.00458271,0.0558595,-0.0566273,0.197602,-0.098784,-0.0973313,3.16152e-06,7.76998e-06,-4.18037e-06,0.194133,0.2184773433203544,3.161524997574716e-06,7.770010186369802e-06,-0.09406163042083115,-4.180361262262622e-06,-0.0927446173705262
231,0.2195,772.952,-0.245893,0.174283,0.0128988,-0.10798,0.0840706,0.198422,-0.0991998,-0.0977354,3.30985e-06,5.30806e-06,-2.15809e-06,0.194952,0.21947690450595436,3.3098554774735334e-06,5.308074087828629e-06,-0.09443824129207601,-2.1580876713445107e-06,-0.09311116520466889
232,0.2205,773.713,0.409939,-0.166644,-0.00259699,0.0994546,-0.0854559,0.199242,-0.099608,-0.0981448,3.10167e-06,8.30084e-06,-4.54301e-06,0.195769,0.22047728566787095,3.1016748101020397e-06,8.300874452027429e-06,-0.09480781616661693,-4.542999680556825e-06,-0.09348236950292954
233,0.2215,774.248,0.250569,-0.130949,0.00666203,0.0503527,-0.0652277,0.200061,-0.10002,-0.0985506,3.24177e-06,7.83528e-06,-4.49643e-06,0.196586,0.2214772660008837,3.2417752544589007e-06,7.835310695814002e-06,-0.09518067853143486,-4.496419891086845e-06,-0.0938501597277015
234,0.2225,774.812,-0.0246261,0.0824049,0.00414367,-0.0398159,0.0341664,0.200879,-0.100434,-0.0989548,3.22225e-06,6.54467e-06,-3.14823e-06,0.197403,0.2224768431758002,3.2222551915594977e-06,6.544691416365822e-06,-0.09555519620001618,-3.1482250443248816e-06,-0.09421635148080065
235,0.2235,775.431,0.19007,-0.0830011,0.00750904,0.0315686,-0.0393706,0.201697,-0.100843,-0.0993614,3.28929e-06,7.56572e-06,-4.18929e-06,0.198219,0.2234772383393575,3.2892954098251437e-06,7.565748620042001e-06,-0.09592503848686718,-4.189281224920016e-06,-0.09458456824874673
236,0.2245,775.956,-0.155449,0.135,0.00956855,-0.0800635,0.0633959,0.202514,-0.101256,-0.0997646,3.34618e-06,5.86677e-06,-2.7074e-06,0.199034,0.22447722768310419,3.3461855983851763e-06,5.866787209596325e-06,-0.09629834435300444,-2.7073963350110475e-06,-0.09494955816391715
237,0.2255,776.642,0.286793,-0.115599,0.00229513,0.0610884,-0.0583397,0.20333,-0.101664,-0.100171,3.25943e-06,7.88214e-06,-4.40891e-06,0.199848,0.2254768088745549,3.259435311875336e-06,7.882171064066412e-06,-0.09666697942184077,-4.408900280750139e-06,-0.0953172959341031
238,0.2265,777.084,-0.302506,0.189443,0.0163363,-0.125209,0.0932736,0.204146,-0.102078,-0.100573,3.49231e-06,5.07467e-06,-2.22452e-06,0.200662,0.22647720605713695,3.492316098085979e-06,5.074682876138326e-06,-0.0970408818892089,-2.2245175257396e-06,-0.09568090529076023
239,0.2275,777.868,0.466393,-0.18324,-0.00613573,0.116491,-0.0954348,0.204961,-0.102483,-0.100981,3.18266e-06,8.56536e-06,-4.87702e-06,0.201475,0.22747719241916475,3.1826650646049615e-06,8.565396682813642e-06,-0.09740650628810532,-4.877008107362357e-06,-0.09604979222335008
240,0.2285,778.379,0.285649,-0.143333,0.00479228,0.0609547,-0.0721931,0.205775,-0.102893,-0.101384,3.33821e-06,8.04895e-06,-4.8124e-06,0.202288,0.22847676562489605,3.3382155717465167e-06,8.048982392816484e-06,-0.09777649376791098,-4.812388420427638e-06,-0.0964140107621192
241,0.2295,778.911,-0.034012,0.0862279,0.00446443,-0.042888,0.0362414,0.206589,-0.103305,-0.101786,3.34775e-06,6.57151e-06,-3.34613e-06,0.2031,0.22947715281446301,3.3477556036221046e-06,6.571531592447499e-06,-0.09814813328948013,-3.3461244016708136e-06,-0.09677717932802032
242,0.2305,779.523,0.211962,-0.0918466,0.00649789,0.0381787,-0.0440856,0.207402,-0.103712,-0.10219,3.39422e-06,7.73929e-06,-4.48526e-06,0.203911,0.23047712417297928,3.3942257604557824e-06,7.739319948463219e-06,-0.09851511231393406,-4.485249941232894e-06,-0.09714200764728909
243,0.2315,780.018,-0.17956,0.143664,0.0106862,-0.087665,0.0681902,0.208214,-0.104123,-0.102591,3.48188e-06,5.83251e-06,-2.872e-06,0.204722,0.2314766773614816,3.4818860616958602e-06,5.832527009141941e-06,-0.0988855464733388,-2.8719958757861264e-06,-0.09750398112169045
244,0.2325,780.704,0.316032,-0.127511,0.000960289,0.0699871,-0.0646867,0.209026,-0.104528,-0.102996,3.35899e-06,8.09052e-06,-4.73026e-06,0.205531,0.23247704251678658,3.3589956414115107e-06,8.09055272843473e-06,-0.0992504239343438,-4.730248812312432e-06,-0.09786941800337257
245,0.2335,781.109,-0.33858,0.202754,0.0180092,-0.136526,0.10057,0.209837,-0.10494,-0.103395,3.63583e-06,4.98544e-06,-2.35616e-06,0.206341,0.23347698682087614,3.6358366095612382e-06,4.985452427330728e-06,-0.09962145632176267,-2.3561572242147832e-06,-0.09822929630509358
246,0.2345,781.902,0.508576,-0.200562,-0.00803016,0.129431,-0.104598,0.210647,-0.105342,-0.1038,3.2738e-06,8.83242e-06,-5.23917e-06,0.207149,0.23447650793160202,3.273805358805504e-06,8.832459005958526e-06,-0.09998333575368212,-5.239156275593793e-06,-0.09859443949360336
247,0.2355,782.391,0.309604,-0.153187,0.00373227,0.0681947,-0.0774084,0.211457,-0.10575,-0.104202,3.43682e-06,8.26289e-06,-5.13904e-06,0.207957,0.23547683898240912,3.4368259058670247e-06,8.26292413780294e-06,-0.10035046765269429,-5.139026795109025e-06,-0.09895673170331376
248,0.2365,782.899,-0.0387267,0.0873497,0.00474023,-0.0445157,0.0369995,0.212266,-0.106159,-0.104601,3.46432e-06,6.66477e-06,-3.59714e-06,0.208765,0.23647674415225217,3.464326000734985e-06,6.664792209676307e-06,-0.10071834907454524,-3.5971335302642515e-06,-0.09931617625340772
249,0.2375,783.5,0.224389,-0.0970095,0.00592421,0.0418248,-0.0468075,0.213075,-0.106564,-0.105003,3.49785e-06,7.91294e-06,-4.78663e-06,0.209571,0.23747745857267533,3.497856117418152e-06,7.912971307311167e-06,-0.10108248440078926,-4.786618544083687e-06,-0.09967817838325066
250,0.2385,783.971,-0.192369,0.1477,0.0113743,-0.0918121,0.0705093,0.213882,-0.106973,-0.105401,3.60375e-06,5.89198e-06,-3.1056e-06,0.210378,0.2384765059431384,3.603756493442134e-06,5.8919973577875595e-06,-0.10145006648900812,-3.1055951775771362e-06,-0.10003643517042438
251,0.2395,784.651,0.330197,-0.133381,0.000287447,0.0741837,-0.0677812,0.214689,-0.107375,-0.105804,3.46091e-06,8.27256e-06,-5.0388e-06,0.211183,0.2394763598702312,3.460915988906521e-06,8.27259421765092e-06,-0.10181121096737589,-5.038787305289283e-06,-0.10039904741577566
252,0.2405,785.031,-0.355166,0.208355,0.0188791,-0.141868,0.103695,0.215496,-0.107785,-0.106201,3.76028e-06,5.0265e-06,-2.58081e-06,0.211988,0.24047702100510793,3.7602870699426916e-06,5.026512632788638e-06,-0.10217939288842781,-2.5808066697052823e-06,-0.10075611811072882
253,0.2415,785.819,0.525501,-0.207818,-0.00881648,0.134522,-0.108347,0.216302,-0.108185,-0.106604,3.374e-06,9.02663e-06,-5.55768e-06,0.212791,0.24147724852157837,3.374005691947346e-06,9.026670740208687e-06,-0.10253844931519973,-5.557664556121722e-06,-0.10111844038228879
254,0.2425,786.29,0.316478,-0.155895,0.0033763,0.0701225,-0.0788051,0.217107,-0.108591,-0.107003,3.5416e-06,8.41907e-06,-5.42999e-06,0.213595,0.24247704006874526,3.541606271362241e-06,8.419105440360397e-06,-0.10290274474780081,-5.429975257653652e-06,-0.1014770225826701
255,0.2435,786.781,-0.0380012,0.0858348,0.00485893,-0.0444501,0.0364093,0.217911,-0.108998,-0.1074,3.57549e-06,6.79581e-06,-3.88104e-06,0.214398,0.24347639329512427,3.5754963920719973e-06,6.79583309159959e-06,-0.10326778903913614,-3.881032468733281e-06,-0.10183366540642003
256,0.2445,787.368,0.224253,-0.0968308,0.00584191,0.0415523,-0.0467299,0.218715,-0.1094,-0.1078,3.606e-06,8.03943e-06,-5.06048e-06,0.2152,0.24447655032458293,3.6060065016219056e-06,8.039462316311585e-06,-0.10362820293989461,-5.060467195838747e-06,-0.10219286009653017
257,0.2455,787.824,-0.190885,0.145722,0.0115091,-0.0915283,0.0696423,0.219519,-0.109807,-0.108196,3.71493e-06,6.02611e-06,-3.39615e-06,0.216002,0.24547751180363875,3.714936900323096e-06,6.026128157143873e-06,-0.10399295202982328,-3.3961442330587843e-06,-0.10254832133796099
258,0.2465,788.488,0.32548,-0.131399,0.000385218,0.0725101,-0.0667158,0.220321,-0.110207,-0.108597,3.57164e-06,8.37763e-06,-5.29986e-06,0.216803,0.24647678542326545,3.571646378208726e-06,8.377665092540454e-06,-0.1043512831780039,-5.299845955764049e-06,-0.10290812731518462
259,0.2475,788.856,-0.347859,0.204201,0.0187726,-0.13981,0.101606,0.221123,-0.110615,-0.108991,3.86793e-06,5.18545e-06,-2.89089e-06,0.217603,0.2474768607817892,3.867937480528383e-06,5.185463444412619e-06,-0.10471663331797065,-2.8908858213938515e-06,-0.10326151189168942
260,0.2485,789.624,0.51198,-0.202584,-0.00832978,0.130163,-0.105463,0.221924,-0.111012,-0.109392,3.49045e-06,9.09114e-06,-5.79357e-06,0.218403,0.24847649004534866,3.490456091714833e-06,9.091181324638598e-06,-0.10507199027152081,-5.7935532172814774e-06,-0.10362103193683414
261,0.2495,790.082,0.30364,-0.150174,0.00379169,0.0659418,-0.0757461,0.222725,-0.111416,-0.109789,3.6586e-06,8.46915e-06,-5.65195e-06,0.219202,0.24947692033271518,3.658606692713562e-06,8.46918586328016e-06,-0.10543346816400023,-5.651934027794958e-06,-0.10397682375780581
262,0.2505,790.562,-0.0317177,0.0815504,0.00480403,-0.0426104,0.0344113,0.223525,-0.11182,-0.110184,3.68611e-06,6.92824e-06,-4.1733e-06,0.22,0.25047690180823934,3.6861167937995987e-06,6.928264000283235e-06,-0.10579480004890662,-4.173291291764691e-06,-0.1043306830206161
263,0.2515,791.131,0.210583,-0.0907881,0.00625601,0.0370867,-0.0436081,0.224324,-0.112221,-0.110582,3.72385e-06,8.07684e-06,-5.278e-06,0.220798,0.25147643211196535,3.7238569334796523e-06,8.076872617834852e-06,-0.10615330444915083,-5.27798607141694e-06,-0.1046870884793829
264,0.2525,791.581,-0.174463,0.137329,0.0110565,-0.0865629,0.0654022,0.225123,-0.112625,-0.110976,3.81994e-06,6.2008e-06,-3.72049e-06,0.221595,0.25247676135953956,3.819947296035409e-06,6.200819224977394e-06,-0.10651434557893447,-3.720483078950565e-06,-0.10503977228325023
265,0.2535,792.219,0.301273,-0.121153,0.00124122,0.0648007,-0.0613131,0.225921,-0.113023,-0.111374,3.696e-06,8.36551e-06,-5.48559e-06,0.222392,0.2534766367123098,3.6960068301450377e-06,8.365544990951435e-06,-0.10686988211293058,-5.485574954167127e-06,-0.10539589558064444
266,0.2545,792.59,-0.316341,0.189957,0.017674,-0.130196,0.0941679,0.226719,-0.113428,-0.111766,3.96343e-06,5.42704e-06,-3.26236e-06,0.223188,0.25447731028405873,3.963437854359597e-06,5.4270547265034e-06,-0.1072315265727285,-3.262354678512658e-06,-0.10574651166433469
267,0.2555,793.322,0.468106,-0.184659,-0.00661893,0.116396,-0.0958975,0.227516,-0.113824,-0.112165,3.62727e-06,8.98898e-06,-5.92099e-06,0.223983,0.25547752723386385,3.6272765786549144e-06,8.98902040091798e-06,-0.10758499289725443,-5.92097247098522e-06,-0.10610324763262213
268,0.2565,793.77,0.271952,-0.13626,0.0049108,0.0559425,-0.06839,0.228312,-0.114225,-0.112559,3.79139e-06,8.38102e-06,-5.78257e-06,0.224777,0.25647728519642254,3.7913971873138053e-06,8.381055120798564e-06,-0.1079427795740795,-5.782553280986313e-06,-0.10645537357968815
269,0.2575,794.249,-0.0207889,0.0748778,0.0045902,-0.0392425,0.0312073,0.229107,-0.114627,-0.112952,3.80084e-06,7.02261e-06,-4.44632e-06,0.225571,0.25747658180592436,3.8008472231787493e-06,7.0226346586821364e-06,-0.10830131450634095,-4.446310115091556e-06,-0.10680646762337287
270,0.2585,794.794,0.184865,-0.079433,0.00708163,0.0289174,-0.0377524,0.229902,-0.115025,-0.113348,3.85447e-06,7.99673e-06,-5.41919e-06,0.226365,0.25847667317210465,3.854477428566483e-06,7.996761973938504e-06,-0.10865613996821666,-5.41917531626801e-06,-0.10716010223791905
271,0.2595,795.246,-0.145179,0.123303,0.0100858,-0.0775151,0.0582212,0.230696,-0.115427,-0.11374,3.92405e-06,6.37185e-06,-4.04777e-06,0.227158,0.25947630045011594,3.924057699000727e-06,6.3718703002813015e-06,-0.10901438818723297,-4.047761807735029e-06,-0.1075100268881295
272,0.2605,795.852,0.260522,-0.10376,0.00270603,0.0519931,-0.0521909,0.23149,-0.115824,-0.114135,3.83597e-06,8.21459e-06,-5.58046e-06,0.22795,0.2604767217473698,3.83597735731378e-06,8.214623739899451e-06,-0.10936803927073768,-5.580444429220677e-06,-0.10786249081130106
273,0.2615,796.236,-0.264692,0.167144,0.0157435,-0.114239,0.0822276,0.232283,-0.116226,-0.114526,4.05327e-06,5.6983e-06,-3.65843e-06,0.228741,0.2614766762172611,4.053278214399825e-06,5.698316235314138e-06,-0.10972600136374944,-3.6584233079617334e-06,-0.10821124839084384
274,0.2625,796.92,0.399494,-0.156185,-0.0039529,0.0949804,-0.0808244,0.233076,-0.11662,-0.114922,3.7846e-06,8.71081e-06,-5.93242e-06,0.229532,0.2624774239655403,3.7846071616609578e-06,8.710847939186195e-06,-0.11007670022699934,-5.932402403208137e-06,-0.10856432682233763
275,0.2635,797.202,-0.439838,0.234053,0.0236987,-0.168258,0.118702,0.233867,-0.117023,-0.115311,4.21627e-06,4.76555e-06,-3.09046e-06,0.230323,0.26347643866612236,4.216278888469205e-06,4.7655613553132525e-06,-0.11043526706073792,-3.0904552245081263e-06,-0.10891102786147966
276,0.2645,798.004,0.615371,-0.24119,-0.0137079,0.161894,-0.126468,0.234659,-0.117415,-0.115708,3.68735e-06,9.55826e-06,-6.52334e-06,0.231112,0.2644775083768236,3.687356798343089e-06,9.558305680279489e-06,-0.11078390809794236,-6.523318723083982e-06,-0.10926471997088949
277,0.2655,798.415,0.35826,-0.171968,0.00115223,0.0825987,-0.0873768,0.235449,-0.117814,-0.116099,3.88335e-06,8.78494e-06,-6.29403e-06,0.231901,0.26547684029257423,3.8833575402019704e-06,8.78497858769478e-06,-0.11113863454597883,-6.294010192586796e-06,-0.10961292938600398
278,0.2665,798.847,-0.0390642,0.0836906,0.00508027,-0.0451616,0.0357261,0.236239,-0.118213,-0.116489,3.94936e-06,6.98312e-06,-4.65238e-06,0.23269,0.2664769619924623,3.949367798794512e-06,6.9831443820778105e-06,-0.11149321948639523,-4.652369177682303e-06,-0.10996011263840866
279,0.2675,799.395,0.235262,-0.101471,0.00508507,0.0444663,-0.0491604,0.237028,-0.118608,-0.116882,3.96435e-06,8.28574e-06,-5.85618e-06,0.233477,0.2674766066234229,3.964357857988432e-06,8.28577432687716e-06,-0.1118441103591884,-5.8561628526465626e-06,-0.1103098295902597
280,0.2685,799.801,-0.198175,0.145173,0.0122073,-0.094209,0.0697879,0.237817,-0.119008,-0.117271,4.09376e-06,6.18896e-06,-4.16626e-06,0.234265,0.26847704028522923,4.093768379398455e-06,6.188979151611207e-06,-0.11219930167204628,-4.166251321158221e-06,-0.11065585176087345
281,0.2695,800.425,0.326654,-0.132338,2.52439e-05,0.0724291,-0.0670932,0.238605,-0.119401,-0.117664,3.93465e-06,8.58022e-06,-6.07104e-06,0.235051,0.26947699412304305,3.934657740733982e-06,8.5802568101645e-06,-0.11254813879550463,-6.071021571241175e-06,-0.11100529534097037
282,0.2705,800.75,-0.344979,0.199952,0.0190637,-0.139421,0.0996256,0.239392,-0.119801,-0.118051,4.24009e-06,5.39091e-06,-3.69798e-06,0.235837,0.2704764657579193,4.24009898924993e-06,5.390924531001318e-06,-0.11290304855330269,-3.69797316246423e-06,-0.11134926972833636
283,0.2715,801.471,0.495433,-0.197236,-0.00789037,0.124704,-0.102247,0.240179,-0.120192,-0.118445,3.86441e-06,9.21317e-06,-6.51608e-06,0.236622,0.27147672428657454,3.86441746691446e-06,9.213212441405716e-06,-0.11324983566002089,-6.516058770444921e-06,-0.11169932914982894
284,0.2725,801.885,0.281042,-0.139886,0.00433902,0.0584691,-0.0702149,0.240965,-0.120588,-0.118835,4.03621e-06,8.53116e-06,-6.322e-06,0.237407,0.2724764978514034,4.036218145486714e-06,8.531196390437756e-06,-0.11360091920596949,-6.321980016155138e-06,-0.11204569886497584
285,0.2735,802.332,-0.0180857,0.0710568,0.00472923,-0.038596,0.0296375,0.241751,-0.120985,-0.119223,4.05502e-06,7.14728e-06,-4.98928e-06,0.238191,0.2734770575471632,4.055028221650048e-06,7.1473055418547204e-06,-0.11395274979805115,-4.989267553545673e-06,-0.11239015830436361
286,0.2745,802.849,0.181718,-0.0778439,0.00695542,0.0275768,-0.0369831,0.242536,-0.121378,-0.119613,4.10451e-06,8.09334e-06,-5.92823e-06,0.238975,0.274477129514229,4.104518423586612e-06,8.093372751094563e-06,-0.11430089795178744,-5.928212428063517e-06,-0.11273625864867098
287,0.2755,803.274,-0.139672,0.11811,0.0101825,-0.0760291,0.0558579,0.24332,-0.121775,-0.12,4.17685e-06,6.50842e-06,-4.6067e-06,0.239758,0.27547671136865515,4.176858723115018e-06,6.508441179775559e-06,-0.11465245070746122,-4.606689389174967e-06,-0.11307956328284252
288,0.2765,803.848,0.248385,-0.0985563,0.00293744,0.0478897,-0.0494644,0.244104,-0.122166,-0.120391,4.09063e-06,8.26972e-06,-6.06452e-06,0.24054,0.2764770772025349,4.0906383667049795e-06,8.269754194323298e-06,-0.11499855393164493,-6.064501610780759e-06,-0.11342628138579258
289,0.2775,804.212,-0.247977,0.15764,0.0153733,-0.109316,0.0774893,0.244887,-0.122563,-0.120777,4.29875e-06,5.88353e-06,-4.25487e-06,0.241322,0.27747695015316043,4.298759239684813e-06,5.883547308016546e-06,-0.1153498297728659,-4.2548609480164146e-06,-0.11376843280170612
290,0.2785,804.856,0.371334,-0.144878,-0.00302053,0.0859616,-0.0747386,0.245669,-0.122953,-0.121168,4.04899e-06,8.69263e-06,-6.37087e-06,0.242103,0.27847632783392484,4.048998197170306e-06,8.692667780918484e-06,-0.11569477607035428,-6.3708497060055436e-06,-0.11411488160932493
291,0.2795,805.13,-0.40135,0.216429,0.0223572,-0.156657,0.10944,0.246451,-0.123351,-0.121552,4.44711e-06,5.0468e-06,-3.75511e-06,0.242884,0.2794764873336868,4.447119888340012e-06,5.046812735054473e-06,-0.1160466595200268,-3.7551029495874744e-06,-0.11445499618860844
292,0.2805,805.876,0.55773,-0.218686,-0.0114538,0.143821,-0.114249,0.247233,-0.123738,-0.121944,3.97054e-06,9.40617e-06,-6.87641e-06,0.243663,0.2804774292640684,3.970547882703457e-06,9.406214238172339e-06,-0.11638868327692686,-6.8763863575460604e-06,-0.11480206180079822
293,0.2815,806.266,0.313397,-0.152414,0.00267542,0.0684079,-0.0769798,0.248013,-0.124132,-0.12233,4.16234e-06,8.63095e-06,-6.63407e-06,0.244443,0.28147659128142344,4.1623486626285455e-06,8.630987246682764e-06,-0.11673675756057911,-6.6340479946136455e-06,-0.11514368226795124
294,0.2825,806.687,-0.0220571,0.0726343,0.00477254,-0.0399218,0.0304954,0.248793,-0.124526,-0.122715,4.20341e-06,7.0941e-06,-5.20486e-06,0.245221,0.2824765329491763,4.203418834336503e-06,7.094125163087384e-06,-0.11708469472997685,-5.204846454720524e-06,-0.11548428637977937
295,0.2835,807.194,0.196272,-0.0842378,0.00625211,0.0320261,-0.0402962,0.249573,-0.124917,-0.123103,4.24086e-06,8.13036e-06,-6.20408e-06,0.245999,0.2834772548756914,4.240868992422264e-06,8.130393051475338e-06,-0.11742984713264537,-6.204060754688712e-06,-0.11582741190600732
296,0.2845,807.596,-0.153682,0.123085,0.0107738,-0.0804697,0.0585731,0.250352,-0.12531,-0.123488,4.33167e-06,6.41479e-06,-4.80153e-06,0.246777,0.2844774731916926,4.331679381630593e-06,6.414810574728591e-06,-0.11777662905561104,-4.801518472707933e-06,-0.11616775283259129
297,0.2855,808.165,0.263916,-0.105498,0.00219467,0.052656,-0.0530495,0.25113,-0.125699,-0.123876,4.22543e-06,8.31333e-06,-6.34652e-06,0.247554,0.2854771855034992,4.225438927196734e-06,8.313364555867508e-06,-0.11811974720610141,-6.346499860865329e-06,-0.11651061322527467
298,0.2865,808.504,-0.265897,0.164227,0.0161494,-0.11499,0.0810373,0.251907,-0.126094,-0.124259,4.45566e-06,5.77173e-06,-4.44044e-06,0.24833,0.2864763894170852,4.4556699265729804e-06,5.77174665639113e-06,-0.11846802111732924,-4.4404301412503955e-06,-0.11684892486959397
299,0.2875,809.145,0.389605,-0.153191,-0.00386662,0.0916093,-0.0789809,0.252684,-0.126481,-0.124647,4.18162e-06,8.74955e-06,-6.66317e-06,0.249106,0.2874763700138143,4.181628743049615e-06,8.749588277456866e-06,-0.11880910798859023,-6.663147801178049e-06,-0.11719152101879371
300,0.2885,809.393,-0.421878,0.224425,0.0232195,-0.163185,0.113654,0.253461,-0.126876,-0.125028,4.6048e-06,4.92163e-06,-3.93369e-06,0.249881,0.2884771278974039,4.604810602160114e-06,4.921642111188618e-06,-0.11915710965608062,-3.933682263035365e-06,-0.11752780698274146
301,0.2895,810.137,0.577794,-0.228238,-0.0123337,0.150077,-0.119023,0.254237,-0.12726,-0.125417,4.10203e-06,9.4724e-06,-7.17677e-06,0.250655,0.28947737419402175,4.102038413389408e-06,9.472444863378726e-06,-0.11949528839150003,-7.176744246994993e-06,-0.11787102190619458
302,0.2905,810.509,0.320474,-0.155592,0.00227842,0.0705413,-0.0785549,0.255012,-0.127651,-0.125801,4.29931e-06,8.64524e-06,-6.89634e-06,0.251429,0.29047710650525405,4.2993192419515935e-06,8.645277370211701e-06,-0.11983949843628983,-6.896316220306176e-06,-0.11820969440450124
303,0.2915,810.914,-0.0203481,0.0705834,0.00478268,-0.0394313,0.0296289,0.255786,-0.128043,-0.126184,4.34564e-06,7.08606e-06,-5.46184e-06,0.252203,0.2914763224323691,4.34564944229443e-06,7.086085106244866e-06,-0.12018445373724662,-5.461825084207561e-06,-0.11854735542533124
304,0.2925,811.408,0.195177,-0.0837835,0.0061451,0.0315708,-0.040071,0.25656,-0.12843,-0.126569,4.38108e-06,8.1099e-06,-6.44542e-06,0.252975,0.292476312051992,4.381089596883214e-06,8.109932885247417e-06,-0.12052487647760124,-6.445399228338644e-06,-0.1188866493752162
305,0.2935,811.796,-0.151104,0.120636,0.0107761,-0.0797314,0.0574473,0.257334,-0.128822,-0.126951,4.47314e-06,6.4109e-06,-5.06497e-06,0.253748,0.29347707596319283,4.473150004402626e-06,6.41092054975978e-06,-0.12086956316301789,-5.06495717300659e-06,-0.11922317039554775
306,0.2945,812.349,0.258039,-0.10311,0.00228016,0.0507273,-0.0517835,0.258107,-0.129208,-0.127336,4.36788e-06,8.27142e-06,-6.5747e-06,0.254519,0.29447732028753726,4.367889539169667e-06,8.271454208230722e-06,-0.12120884202660365,-6.574678386717103e-06,-0.11956220420674901
307,0.2955,812.679,-0.257748,0.159639,0.0159163,-0.112542,0.0787344,0.258879,-0.129599,-0.127716,4.5932e-06,5.79242e-06,-4.7225e-06,0.25529,0.29547704262196883,4.593210548797799e-06,5.792436776008714e-06,-0.12155238220289011,-4.72248884897386e-06,-0.11989670700959276
308,0.2965,813.3,0.375772,-0.147752,-0.00343162,0.0872354,-0.0760431,0.259651,-0.129984,-0.128102,4.32864e-06,8.67171e-06,-6.86882e-06,0.25606,0.29647753704002855,4.328649368501303e-06,8.671747599331425e-06,-0.12189051944014717,-6.868796409764677e-06,-0.12023636132318727
309,0.2975,813.544,-0.40312,0.215837,0.0225135,-0.157476,0.109137,0.260422,-0.130376,-0.128481,4.73496e-06,4.98953e-06,-4.24906e-06,0.25683,0.29747750665983963,4.734971210007544e-06,4.98954244765315e-06,-0.12223467089843376,-4.249050972737756e-06,-0.12056972856516301
310,0.2985,814.261,0.549804,-0.217354,-0.0112671,0.141345,-0.113121,0.261192,-0.130758,-0.128867,4.25776e-06,9.33065e-06,-7.34144e-06,0.257599,0.29847694907591715,4.257769064208716e-06,9.330693530706924e-06,-0.12256991321879074,-7.341413051697998e-06,-0.12090912314256941
311,0.2995,814.623,0.299266,-0.146261,0.00294889,0.0638682,-0.0736192,0.261962,-0.131146,-0.129248,4.45222e-06,8.50577e-06,-7.05646e-06,0.258368,0.2994771613590157,4.4522299111893204e-06,8.505806174063935e-06,-0.12291029005508547,-7.0564351032365025e-06,-0.12124399296989907
312,0.3005,815.022,-0.0129266,0.0654442,0.00463783,-0.037089,0.0272285,0.262731,-0.131535,-0.129628,4.48734e-06,7.06936e-06,-5.72128e-06,0.259136,0.3004768436246674,4.487350068194118e-06,7.06938498806764e-06,-0.12325141159981201,-5.721263633517992e-06,-0.12157785681442257
313,0.3015,815.497,0.177569,-0.075899,0.00661157,0.0259796,-0.036049,0.2635,-0.13192,-0.130011,4.53204e-06,7.97376e-06,-6.61206e-06,0.259903,0.301477294941644,4.532050269734356e-06,7.973791790405471e-06,-0.12358889483665436,-6.61203814034117e-06,-0.12191422807605423
314,0.3025,815.882,-0.131617,0.110612,0.0101382,-0.0736522,0.0524077,0.264268,-0.132308,-0.13039,4.60753e-06,6.44471e-06,-5.3608e-06,0.26067,0.30247721342370815,4.607540614598449e-06,6.444730767274365e-06,-0.12392887638477224,-5.360785630958986e-06,-0.12224695952702058
315,0.3035,816.41,0.230682,-0.0912471,0.00315757,0.0421209,-0.0456231,0.265035,-0.132692,-0.130772,4.52439e-06,8.08955e-06,-6.71177e-06,0.261436,0.3034765966608819,4.524400235128567e-06,8.08958272058291e-06,-0.1242652231135355,-6.711747476129126e-06,-0.12258219715401797
316,0.3045,816.743,-0.224015,0.143936,0.0146707,-0.102051,0.0706451,0.265802,-0.133081,-0.131151,4.71813e-06,5.89045e-06,-5.06271e-06,0.262202,0.3044767467190366,4.718141130455322e-06,5.8904673487791825e-06,-0.12460581769180401,-5.062697184476939e-06,-0.12291467549267154
317,0.3055,817.33,0.331056,-0.128887,-0.00181136,0.0732524,-0.0661459,0.266568,-0.133463,-0.131533,4.49542e-06,8.4107e-06,-6.9544e-06,0.262967,0.3054763587095384,4.495430104389797e-06,8.410735369945854e-06,-0.1249401544070674,-6.954375818213343e-06,-0.12324965810088173
318,0.3065,817.59,-0.347347,0.191352,0.0203205,-0.140156,0.0963131,0.267334,-0.133852,-0.13191,4.84538e-06,5.18778e-06,-4.65767e-06,0.263732,0.30647673669616404,4.8453917389501555e-06,5.187793456595813e-06,-0.12528048648812173,-4.657659153028959e-06,-0.12358013068178209
319,0.3075,818.257,0.477458,-0.187289,-0.00846428,0.1188,-0.097273,0.268099,-0.134232,-0.132293,4.44124e-06,8.94385e-06,-7.34437e-06,0.264495,0.30747657378866355,4.4412498623191965e-06,8.943889996393395e-06,-0.12561281675650615,-7.344343030180056e-06,-0.1239157352193595
320,0.3085,818.615,0.253253,-0.125781,0.00450807,0.0495045,-0.0629251,0.268864,-0.134617,-0.132672,4.62429e-06,8.17939e-06,-7.0914e-06,0.265259,0.30847717604917846,4.624300692146477e-06,8.179423451215584e-06,-0.12594939102735037,-7.091374856105226e-06,-0.1242477082428497
321,0.3095,819.016,-0.00157154,0.0580454,0.00436959,-0.0334038,0.0237177,0.269628,-0.135003,-0.133049,4.63449e-06,6.98892e-06,-5.94413e-06,0.266022,0.30947723458539667,4.6345007391757065e-06,6.9889444225257336e-06,-0.12628670945576892,-5.9441123336778645e-06,-0.12457780462976353
322,0.3105,819.468,0.146811,-0.0619807,0.00749112,0.0163421,-0.0289733,0.270391,-0.135386,-0.133429,4.69673e-06,7.69084e-06,-6.68197e-06,0.266784,0.3104767469808738,4.6967410296527845e-06,7.690869574528136e-06,-0.12662127757216324,-6.681947675724054e-06,-0.12491040186652691
323,0.3115,819.858,-0.0993104,0.0947153,0.00899488,-0.063454,0.0443575,0.271154,-0.135771,-0.133806,4.74206e-06,6.45171e-06,-5.64353e-06,0.267545,0.31147702229532515,4.742071243679646e-06,6.451730812262468e-06,-0.12695746366032346,-5.6435140752819635e-06,-0.1252402484650328
324,0.3125,820.353,0.187304,-0.0721617,0.00457701,0.0285769,-0.0357694,0.271916,-0.136153,-0.134185,4.69646e-06,7.74668e-06,-6.74231e-06,0.268306,0.31247674863367547,4.696471028298177e-06,7.746710005696045e-06,-0.1272909022183859,-6.742287270711245e-06,-0.12557171959311797
325,0.3135,820.701,-0.171732,0.11998,0.0126747,-0.0856502,0.058301,0.272678,-0.136538,-0.134561,4.83936e-06,5.9883e-06,-5.40675e-06,0.269067,0.3134772370538117,4.8393717098083044e-06,5.988317929972453e-06,-0.12762683055067836,-5.406735383517436e-06,-0.12590044282271096
326,0.3145,821.242,0.264541,-0.100323,0.000589433,0.0525232,-0.0512712,0.273439,-0.136918,-0.134941,4.68104e-06,7.96224e-06,-6.91555e-06,0.269827,0.31447717365883077,4.6810509561900915e-06,7.962271698636059e-06,-0.12795826937770372,-6.9155260876696545e-06,-0.12623253755244357
327,0.3155,821.533,-0.266165,0.155656,0.0170983,-0.114775,0.0777008,0.274199,-0.137304,-0.135315,4.94767e-06,5.41832e-06,-5.09127e-06,0.270586,0.31547655602800817,4.947682239686557e-06,5.418334679152537e-06,-0.1282948125287171,-5.091257039513408e-06,-0.12655926548146768
328,0.3165,822.135,0.375578,-0.144133,-0.00457297,0.0870821,-0.0747025,0.274959,-0.137682,-0.135695,4.64784e-06,8.33407e-06,-7.19876e-06,0.271345,0.31647669821648106,4.647850801120512e-06,8.33410472855789e-06,-0.12862425482106532,-7.198734088942338e-06,-0.12689110990615093
329,0.3175,822.349,-0.398497,0.208492,0.0228822,-0.155802,0.105918,0.275718,-0.138069,-0.136068,5.0757e-06,4.67223e-06,-4.6527e-06,0.272103,0.3174762833249891,5.075712881330574e-06,4.672240914826986e-06,-0.1289614119903294,-4.6526891761544675e-06,-0.12721671879232344
330,0.3185,823.036,0.532785,-0.208716,-0.011445,0.136109,-0.108761,0.276477,-0.138445,-0.136449,4.58882e-06,8.92057e-06,-7.63038e-06,0.27286,0.31847662740658844,4.5888305286734266e-06,8.920609788409806e-06,-0.12928886093516156,-7.630350888687687e-06,-0.12754918588346098
331,0.3195,823.37,0.279333,-0.136558,0.00310982,0.0577307,-0.0686009,0.277235,-0.138827,-0.136824,4.78905e-06,8.05608e-06,-7.31808e-06,0.273618,0.3194764115604871,4.78906146761382e-06,8.056112450249842e-06,-0.12962140906954678,-7.318053222959975e-06,-0.12787629360222408
332,0.3205,823.749,-0.0027822,0.0579679,0.00424778,-0.033668,0.0237641,0.277993,-0.13921,-0.137198,4.81556e-06,6.75047e-06,-6.10024e-06,0.274374,0.32047695383806674,4.81557159481838e-06,6.750492784535211e-06,-0.1299547002405398,-6.1002213935790195e-06,-0.12820240688143236
333,0.3215,824.19,0.155975,-0.0661852,0.00688932,0.019292,-0.0311461,0.27875,-0.13959,-0.137575,4.86957e-06,7.50501e-06,-6.87062e-06,0.27513,0.3214769333366092,4.86958185641484e-06,7.505038162713973e-06,-0.13028525464513374,-6.8705963973680895e-06,-0.12853101262796285
334,0.3225,824.56,-0.107285,0.0970154,0.00923839,-0.0658324,0.0456643,0.279506,-0.139972,-0.137949,4.92651e-06,6.18728e-06,-5.78692e-06,0.275885,0.3224763476292143,4.9265221353511635e-06,6.187299141258151e-06,-0.13061742222981143,-5.7869032558111044e-06,-0.1288568810880395
335,0.3235,825.046,0.195078,-0.0758637,0.00403146,0.0311019,-0.0376697,0.280262,-0.14035,-0.138325,4.86855e-06,7.55732e-06,-6.92954e-06,0.27664,0.323476517764697,4.868561851445463e-06,7.557348556508359e-06,-0.13094598674160363,-6.929515990794499e-06,-0.12918436932910282
336,0.3245,825.375,-0.180382,0.122597,0.0129575,-0.0882535,0.0597535,0.281018,-0.140732,-0.138698,5.02311e-06,5.72153e-06,-5.55043e-06,0.277394,0.32447744431469094,5.0231226158548026e-06,5.721546368020469e-06,-0.1312779019748226,-5.5504145963780616e-06,-0.1295091229890203
337,0.3255,825.907,0.271527,-0.10388,8.92981e-05,0.0548233,-0.0530469,0.281772,-0.141109,-0.139074,4.85243e-06,7.7711e-06,-7.1024e-06,0.278148,0.32547647689565684,4.8524417730622105e-06,7.771130195122211e-06,-0.1316053484782339,-7.102374777967491e-06,-0.1298363660332288
338,0.3265,826.18,-0.273415,0.157947,0.0173022,-0.116972,0.0789208,0.282526,-0.141492,-0.139446,5.12909e-06,5.15794e-06,-5.24039e-06,0.278901,0.326476263031243,5.129103153755921e-06,5.15795330224833e-06,-0.13193787994592576,-5.24037626914442e-06,-0.13016000670416739
339,0.3275,826.772,0.379937,-0.146924,-0.00493192,0.0885963,-0.0759993,0.28328,-0.141867,-0.139822,4.81997e-06,8.13292e-06,-7.37998e-06,0.279653,0.3274768032898441,4.819981616055458e-06,8.132953072337301e-06,-0.13226334221295688,-7.379952768005182e-06,-0.13048700506210287
340,0.3285,826.97,-0.401606,0.209479,0.0228736,-0.156751,0.106356,0.284033,-0.14225,-0.140192,5.25286e-06,4.43038e-06,-4.81513e-06,0.280406,0.32847676976284923,5.252873796379731e-06,4.430389814125135e-06,-0.13259562171730244,-4.815118407330843e-06,-0.13080866535940527
341,0.3295,827.643,0.531022,-0.209416,-0.0115005,0.13576,-0.108856,0.284786,-0.142623,-0.14057,4.76405e-06,8.69372e-06,-7.7956e-06,0.281157,0.32947748949417477,4.764061348083715e-06,8.693757790556589e-06,-0.13291910321735168,-7.79556961438832e-06,-0.13113715759495548
342,0.3305,827.963,0.273504,-0.134086,0.00308982,0.0560252,-0.0672426,0.285537,-0.143002,-0.140942,4.96518e-06,7.80119e-06,-7.45891e-06,0.281907,0.3304763020959727,4.965192326622514e-06,7.801220429426436e-06,-0.1332476646109153,-7.458882182453941e-06,-0.13146031446142636
343,0.3315,828.331,0.0012409,0.054459,0.00409501,-0.0322336,0.022187,0.286289,-0.143382,-0.141313,4.98938e-06,6.53848e-06,-6.28287e-06,0.282658,0.3314771965643013,4.989392446974605e-06,6.53850137588563e-06,-0.13357696792677054,-6.28285026282871e-06,-0.131782482918817
344,0.3325,828.756,0.147847,-0.0625213,0.00689987,0.0168188,-0.0293149,0.28704,-0.143759,-0.141687,5.04545e-06,7.23577e-06,-7.00462e-06,0.283408,0.3324775115101686,5.045462728281436e-06,7.235796178228782e-06,-0.13390354784567937,-7.004595467652308e-06,-0.13210713555637799
345,0.3335,829.117,-0.0981005,0.0914106,0.00888267,-0.0628095,0.0429299,0.28779,-0.144137,-0.142057,5.0963e-06,5.998e-06,-5.98699e-06,0.284157,0.3334772444968086,5.096312986063722e-06,5.998017988062543e-06,-0.13423087043672655,-5.9869720779870406e-06,-0.13242819651628168
346,0.3345,829.584,0.18118,-0.0698245,0.00428237,0.0268416,-0.034568,0.288539,-0.144513,-0.142431,5.04671e-06,7.2624e-06,-7.04704e-06,0.284905,0.33447639308737354,5.0467227346029375e-06,7.262426371390518e-06,-0.13455633843762382,-7.047015169625581e-06,-0.1327526077021114
347,0.3355,829.908,-0.163563,0.11395,0.0122763,-0.0828671,0.0553878,0.289288,-0.144892,-0.142801,5.18692e-06,5.56765e-06,-5.77511e-06,0.285653,0.3354762903205646,5.186933452083764e-06,5.567665499306429e-06,-0.13488427943661108,-5.775093324111857e-06,-0.1330734298814984
348,0.3365,830.416,0.248136,-0.0940276,0.000749818,0.047622,-0.0479058,0.290037,-0.145266,-0.143174,5.03533e-06,7.43401e-06,-7.19267e-06,0.286401,0.33647693675732504,5.0353426772620224e-06,7.43403763237005e-06,-0.1352077722191808,-7.19264413284737e-06,-0.1333967331923367
349,0.3375,830.69,-0.244674,0.144553,0.0161044,-0.10789,0.072001,0.290785,-0.145645,-0.143542,5.28411e-06,5.05919e-06,-5.5027e-06,0.287148,0.3374769954813541,5.284123960835885e-06,5.059202797808027e-06,-0.13553546637154523,-5.502684860214657e-06,-0.13371558452227894
350,0.3385,831.25,0.341695,-0.131066,-0.00363163,0.0767899,-0.0676625,0.291532,-0.146017,-0.143916,5.01098e-06,7.72923e-06,-7.42677e-06,0.287894,0.3384764640520139,5.0109925548991185e-06,7.729259870581373e-06,-0.13585698737144136,-7.42674242160124e-06,-0.13403951431502048
351,0.3395,831.461,-0.354447,0.188679,0.0208858,-0.141953,0.0954644,0.292279,-0.146397,-0.144283,5.39505e-06,4.41657e-06,-5.135e-06,0.28864,0.33947667950462157,5.395064553326279e-06,4.416579753030447e-06,-0.13618529933301682,-5.1349868158689915e-06,-0.13435726350272448
352,0.3405,832.09,0.469957,-0.184208,-0.00922914,0.116868,-0.0955753,0.293025,-0.146768,-0.144657,4.96805e-06,8.18696e-06,-7.77436e-06,0.289385,0.34047630192033407,4.968062340848789e-06,8.186993513348284e-06,-0.13650571514615573,-7.77432977971948e-06,-0.1346809533523996
353,0.3415,832.215,-0.504549,0.251085,0.0271261,-0.188699,0.128321,0.293771,-0.147148,-0.145023,5.52719e-06,3.58601e-06,-4.63695e-06,0.29013,0.3414766703325911,5.527205275024372e-06,3.5860164298018304e-06,-0.136833780638009,-4.636939249347272e-06,-0.13499760217320367
354,0.3425,832.937,0.645784,-0.258914,-0.0165821,0.171863,-0.134463,0.294516,-0.147516,-0.145397,4.89854e-06,8.86683e-06,-8.27464e-06,0.290874,0.3424764428209992,4.898551997811751e-06,8.86686931056424e-06,-0.1371513673671919,-8.27460576524608e-06,-0.13532105258099436
355,0.3435,833.225,0.329609,-0.15916,0.000636416,0.0737337,-0.080147,0.295261,-0.147892,-0.145766,5.12823e-06,7.77495e-06,-7.8111e-06,0.291617,0.3434769604174295,5.128243149465916e-06,7.774980224972694e-06,-0.1374757374676615,-7.811069493435241e-06,-0.135640060252057
356,0.3445,833.561,-0.00240011,0.0558242,0.00398634,-0.0332666,0.0229389,0.296005,-0.148268,-0.146133,5.18315e-06,6.25691e-06,-6.46365e-06,0.292361,0.34447687919964287,5.183163432453952e-06,6.256929574455228e-06,-0.1377999856278994,-6.463629110609048e-06,-0.13595722214717687
357,0.3455,833.978,0.17034,-0.0730663,0.00583103,0.0239808,-0.0346659,0.296749,-0.148641,-0.146503,5.22329e-06,7.0856e-06,-7.27455e-06,0.293103,0.3454775421982441,5.223303641388455e-06,7.085625102876136e-06,-0.13812152626220398,-7.2745235405458075e-06,-0.1362768588385479
358,0.3465,834.312,-0.118115,0.0993014,0.00952073,-0.0689782,0.0470765,0.297491,-0.149017,-0.14687,5.29841e-06,5.65102e-06,-6.12923e-06,0.293845,0.34647625701192974,5.298424036626059e-06,5.651035966947049e-06,-0.13844553165149898,-6.1292112163435775e-06,-0.1365937870714662
359,0.3475,834.777,0.203892,-0.0804707,0.00318787,0.0340708,-0.0399914,0.298234,-0.149388,-0.14724,5.22224e-06,7.11797e-06,-7.32163e-06,0.294586,0.34747706062339034,5.222253635972507e-06,7.117995332706073e-06,-0.13876510907397877,-7.3216031969414175e-06,-0.13691318827738286
360,0.3485,835.073,-0.189227,0.124236,0.0131619,-0.0908147,0.0607662,0.298976,-0.149764,-0.147606,5.39127e-06,5.1958e-06,-5.90301e-06,0.295327,0.34847725963031495,5.391284533029506e-06,5.195813498115598e-06,-0.1390888725216245,-5.9029925773002034e-06,-0.13722902024969674
361,0.3495,835.582,0.274837,-0.106556,-0.000495908,0.0561169,-0.0542614,0.299717,-0.150134,-0.147976,5.20711e-06,7.31033e-06,-7.4818e-06,0.296068,0.3494768515827813,5.207123557005033e-06,7.310356720635625e-06,-0.13940735071669208,-7.481772011375121e-06,-0.13754818646281375
362,0.3505,835.825,-0.274851,0.157013,0.0171527,-0.117278,0.0784583,0.300458,-0.15051,-0.148341,5.48962e-06,4.66631e-06,-5.6179e-06,0.296808,0.35047718450738086,5.489635068078869e-06,4.666320887247721e-06,-0.13973087272687312,-5.617884219599745e-06,-0.13786292393167254
363,0.3515,836.388,0.372626,-0.14576,-0.0050138,0.0866382,-0.0750625,0.301198,-0.150878,-0.148711,5.17927e-06,7.6275e-06,-7.73158e-06,0.297546,0.35147690747579396,5.17928341237095e-06,7.62752908944897e-06,-0.14004739352231133,-7.7315501114672e-06,-0.13818185564381258
364,0.3525,836.566,-0.388582,0.203265,0.0220492,-0.152624,0.102941,0.301938,-0.151255,-0.149074,5.60108e-06,4.00459e-06,-5.23845e-06,0.298286,0.3524773705129951,5.601095686147417e-06,4.00459801830344e-06,-0.14037153455053042,-5.238436279308978e-06,-0.13849463885662616
365,0.3535,837.2,0.504375,-0.200923,-0.0106959,0.12785,-0.103909,0.302677,-0.151621,-0.149445,5.13359e-06,8.1042e-06,-8.09305e-06,0.299023,0.35347722068894094,5.133603176998847e-06,8.104232839034609e-06,-0.14068610099971324,-8.093017251353807e-06,-0.1388141980637121
366,0.3545,837.496,0.249373,-0.123456,0.00347771,0.0487282,-0.0616059,0.303415,-0.151994,-0.14981,5.33139e-06,7.18788e-06,-7.72765e-06,0.299761,0.354476455550121,5.331404211883495e-06,7.187905832761743e-06,-0.14100656531373024,-7.727620141784186e-06,-0.13912847352265845
367,0.3555,837.844,0.0106176,0.0464416,0.00375526,-0.0288917,0.0185724,0.304153,-0.152366,-0.150175,5.34468e-06,6.07013e-06,-6.6783e-06,0.300498,0.3554764281188092,5.344694282927165e-06,6.070148423242827e-06,-0.1413260514433291,-6.67827770017837e-06,-0.13944263429199444
368,0.3565,838.236,0.125833,-0.0524736,0.00707598,0.010086,-0.0242967,0.304891,-0.152736,-0.150542,5.40789e-06,6.61759e-06,-7.27689e-06,0.301235,0.3564771389396344,5.407904622556359e-06,6.617611896242437e-06,-0.14164370203531174,-7.276863523530963e-06,-0.13975840089849279
369,0.3575,838.581,-0.0748173,0.0777467,0.00797648,-0.0551659,0.0362415,0.305628,-0.153108,-0.150906,5.44131e-06,5.58965e-06,-6.42624e-06,0.301971,0.3574772310797183,5.441324803845404e-06,5.589665622141027e-06,-0.1419629511941295,-6.426219351762796e-06,-0.14007147185819435
370,0.3585,839.008,0.147541,-0.0549942,0.00495107,0.016507,-0.0269885,0.306364,-0.153477,-0.151273,5.41383e-06,6.59179e-06,-7.28575e-06,0.302706,0.35847670208200433,5.413844654800215e-06,6.591811725797925e-06,-0.14227950845673198,-7.285723458982929e-06,-0.14038700772364954
371,0.3595,839.325,-0.123972,0.0937422,0.0106706,-0.070164,0.045211,0.3071,-0.153849,-0.151636,5.51911e-06,5.23521e-06,-6.26632e-06,0.303441,0.35947690896571927,5.519125230390998e-06,5.235223703659031e-06,-0.14259852113954818,-6.266300366708499e-06,-0.1406989906115259
372,0.3605,839.782,0.19512,-0.0713323,0.00225231,0.0312718,-0.0361435,0.307835,-0.154217,-0.152003,5.41199e-06,6.67702e-06,-7.37574e-06,0.304175,0.360476491795499,5.41200464487801e-06,6.677042291292068e-06,-0.14291398683452083,-7.3757127992957194e-06,-0.14101429621985329
373,0.3615,840.063,-0.181144,0.114682,0.0134679,-0.0877512,0.0566633,0.30857,-0.154589,-0.152365,5.59852e-06,4.83827e-06,-6.06953e-06,0.304909,0.36147680958872463,5.598535671724747e-06,4.838281704389047e-06,-0.14323276353527592,-6.069511580442111e-06,-0.14132519276895128
374,0.3625,840.557,0.259533,-0.0964239,-0.000885593,0.0513822,-0.0495814,0.309304,-0.154956,-0.152732,5.40321e-06,6.84117e-06,-7.52434e-06,0.305642,0.36247650040861124,5.403224597300138e-06,6.84119340088607e-06,-0.1435471394195551,-7.524311692264085e-06,-0.14164026860325296
375,0.3635,840.793,-0.255474,0.14432,0.0167458,-0.110786,0.0724215,0.310038,-0.155328,-0.153093,5.68469e-06,4.36025e-06,-5.81309e-06,0.306375,0.36347692527092024,5.6847061578046976e-06,4.360259505897801e-06,-0.1438656806313523,-5.813073103988486e-06,-0.14195008054186775
376,0.3645,841.333,0.344724,-0.131667,-0.00467399,0.0780599,-0.0680853,0.310771,-0.155693,-0.153459,5.38421e-06,7.10379e-06,-7.74322e-06,0.307107,0.3644767202372341,5.38422449491982e-06,7.1038152320568315e-06,-0.14417811263561242,-7.74319002139201e-06,-0.14226406934893265
377,0.3655,841.513,-0.353531,0.185218,0.0208122,-0.141317,0.0938734,0.311504,-0.156066,-0.15382,5.78217e-06,3.77101e-06,-5.47805e-06,0.307839,0.3654772483219133,5.782186716762894e-06,3.7710171103544354e-06,-0.1444972746721791,-5.478034995509695e-06,-0.1425736561361205
378,0.3665,842.112,0.457501,-0.179844,-0.00941666,0.113421,-0.0931078,0.312236,-0.156429,-0.154186,5.35045e-06,7.49656e-06,-8.05255e-06,0.30857,0.36647714358470385,5.350464313602643e-06,7.4965880991761935e-06,-0.1448077658039233,-8.052517578294172e-06,-0.14288741675627858
379,0.3675,842.22,-0.483236,0.240628,0.0260104,-0.181821,0.122742,0.312967,-0.156802,-0.154545,5.89606e-06,3.03352e-06,-5.04056e-06,0.309301,0.36747640356168865,5.896077381883913e-06,3.0335246010704253e-06,-0.14512669302365422,-5.040547296442099e-06,-0.14319506494750867
380,0.3685,842.897,0.606872,-0.244802,-0.0154905,0.160276,-0.126631,0.313698,-0.157164,-0.154913,5.29633e-06,8.06139e-06,-8.47971e-06,0.310031,0.3684763942647644,5.296344025573774e-06,8.061422493099712e-06,-0.1454361011545291,-8.479674047379149e-06,-0.1435103111547481
381,0.3695,843.161,0.296323,-0.144427,0.00123969,0.0637427,-0.0723827,0.314429,-0.157533,-0.155274,5.52286e-06,6.94761e-06,-7.99039e-06,0.310761,0.3694771162282875,5.522875251129378e-06,6.94763413466859e-06,-0.145751377061221,-7.990358076970239e-06,-0.14381944812984004
382,0.3705,843.481,0.00990747,0.0463015,0.00344043,-0.0288313,0.0185613,0.315159,-0.157901,-0.155635,5.56088e-06,5.62612e-06,-6.80763e-06,0.31149,0.3704771995091196,5.560895461664828e-06,5.626135826553025e-06,-0.14606568271867448,-6.807606828140855e-06,-0.14412847352662506
383,0.3715,843.862,0.141898,-0.0601805,0.00612629,0.0153992,-0.0282032,0.315888,-0.158267,-0.155998,5.61284e-06,6.26091e-06,-7.46381e-06,0.312218,0.3714766416399564,5.6128557519574684e-06,6.2609295994331404e-06,-0.14637816549096383,-7.463782145888942e-06,-0.1444390985088897
384,0.3725,844.185,-0.0881278,0.082575,0.00825332,-0.0590643,0.0388035,0.316617,-0.158635,-0.156358,5.66319e-06,5.09665e-06,-6.52751e-06,0.312946,0.3724768126297433,5.663206035899648e-06,5.096662987869038e-06,-0.14669224053271102,-6.527488695895478e-06,-0.14474704499973234
385,0.3735,844.605,0.161835,-0.0619657,0.00406393,0.021266,-0.030526,0.317345,-0.159,-0.15672,5.61723e-06,6.23203e-06,-7.47102e-06,0.313674,0.3734763395329861,5.617245776745605e-06,6.23204941918587e-06,-0.1470036410308685,-7.4709920919735495e-06,-0.14505659053831954
386,0.3745,844.898,-0.139884,0.0996879,0.0110665,-0.0748881,0.0483381,0.318073,-0.159368,-0.15708,5.74074e-06,4.73231e-06,-6.36246e-06,0.314401,0.3744765943567454,5.7407564781897236e-06,4.732321197353784e-06,-0.14731748593996397,-6.362439759599603e-06,-0.14536431477204026
387,0.3755,845.35,0.210217,-0.0788042,0.0013452,0.0362974,-0.0399019,0.318801,-0.159732,-0.157442,5.61296e-06,6.32411e-06,-7.56581e-06,0.315127,0.3754775776311403,5.612975752633531e-06,6.324129997237193e-06,-0.14762780589342395,-7.565781379281766e-06,-0.14567363689940982
388,0.3765,845.607,-0.197914,0.121211,0.0138792,-0.0927674,0.0600465,0.319527,-0.1601,-0.157801,5.8185e-06,4.33245e-06,-6.16439e-06,0.315853,0.3764765369308489,5.818516927602602e-06,4.3324593850258e-06,-0.1479414211521084,-6.164371000205726e-06,-0.14598028501713245
389,0.3775,846.095,0.274802,-0.104248,-0.00176949,0.0564858,-0.0534615,0.320254,-0.160462,-0.158163,5.60245e-06,6.49224e-06,-7.71753e-06,0.316578,0.37747759921524726,5.602465693810288e-06,6.4922610747419895e-06,-0.1482498105358051,-7.717500219994733e-06,-0.14628938420362803
390,0.3785,846.309,-0.27173,0.150966,0.0171003,-0.115675,0.0757964,0.320979,-0.160831,-0.158521,5.902e-06,3.85747e-06,-5.91039e-06,0.317303,0.37847663258051356,5.9020174167923045e-06,3.857477440138979e-06,-0.14856404837527049,-5.910372533723951e-06,-0.14659495790312727
391,0.3795,846.842,0.358564,-0.139248,-0.00545748,0.0827476,-0.0717601,0.321704,-0.161192,-0.158883,5.58284e-06,6.75167e-06,-7.93482e-06,0.318027,0.3794763905075915,5.582855584052027e-06,6.751692792628106e-06,-0.14887136128049017,-7.934788519348146e-06,-0.1469038346183078
392,0.3805,847.001,-0.367161,0.191162,0.0210144,-0.145424,0.0967949,0.322429,-0.16156,-0.15924,5.99543e-06,3.28071e-06,-5.58409e-06,0.318751,0.380476873521979,5.995447972528822e-06,3.2807153815817003e-06,-0.14918451899498542,-5.584074408981898e-06,-0.1472083355926911
393,0.3815,847.591,0.467247,-0.186108,-0.00998379,0.116866,-0.096005,0.323153,-0.16192,-0.159603,5.55018e-06,7.12922e-06,-8.23443e-06,0.319474,0.38147670067216355,5.5501954023817746e-06,7.129245412906826e-06,-0.1494907574419193,-8.234396097206442e-06,-0.14751784278791646
394,0.3825,847.681,-0.49088,0.244507,0.0259181,-0.184103,0.124481,0.323877,-0.162289,-0.159957,6.1032e-06,2.57087e-06,-5.16563e-06,0.320197,0.3824772519593107,6.103218624486928e-06,2.570873304685861e-06,-0.14980453745645017,-5.165616658198147e-06,-0.14781956806304486
395,0.3835,848.346,0.608337,-0.248002,-0.0156663,0.161174,-0.127833,0.3246,-0.162647,-0.160321,5.49973e-06,7.6598e-06,-8.63893e-06,0.320919,0.3834771444300493,5.4997451235383465e-06,7.65982933637055e-06,-0.15010885295631615,-8.638892684542654e-06,-0.14812970529186997
396,0.3845,848.595,0.290543,-0.142213,0.0011132,0.0622342,-0.0711176,0.325322,-0.163011,-0.160679,5.72754e-06,6.50119e-06,-8.11241e-06,0.321641,0.3844763756073759,5.727556402490563e-06,6.501211132770024e-06,-0.15041815703708217,-8.112377094526835e-06,-0.14843462027433696
397,0.3855,848.903,0.0147387,0.0421021,0.00316064,-0.02696,0.01667,0.326044,-0.163376,-0.161035,5.76269e-06,5.2256e-06,-6.97467e-06,0.322362,0.3854763284901168,5.7627066043508535e-06,5.225613653569994e-06,-0.15072819782387803,-6.974645677004787e-06,-0.14873772359392734
398,0.3865,849.267,0.133065,-0.0562136,0.00602583,0.0128625,-0.0262367,0.326766,-0.163738,-0.161394,5.8167e-06,5.79633e-06,-7.57649e-06,0.323083,0.3864770035995315,5.8167169170175725e-06,5.796346798758734e-06,-0.15103557857699268,-7.576461298453019e-06,-0.1490432719019542
399,0.3875,849.58,-0.0784874,0.0765238,0.00776742,-0.0557187,0.0358672,0.327487,-0.164102,-0.161751,5.86034e-06,4.71793e-06,-6.71053e-06,0.323803,0.38747701397954826,5.8603571717608105e-06,4.717941129550596e-06,-0.15134454539101916,-6.710507484464223e-06,-0.1493470092335456
400,0.3885,849.981,0.147615,-0.0557579,0.00419124,0.0170552,-0.0273686,0.328207,-0.164463,-0.162109,5.82252e-06,5.74428e-06,-7.56868e-06,0.324523,0.3884763571499832,5.822536950805812e-06,5.744296498466639e-06,-0.1516508547179729,-7.568651357647838e-06,-0.14965148849919951
401,0.3895,850.269,-0.123465,0.0909282,0.0102862,-0.0694391,0.043959,0.328927,-0.164827,-0.162465,5.93169e-06,4.38632e-06,-6.56736e-06,0.325242,0.3894764201065928,5.931707592443658e-06,4.3863296199653234e-06,-0.15195959761223987,-6.567338434959602e-06,-0.14995415869080309
402,0.3905,850.696,0.187903,-0.0693056,0.00182372,0.0295708,-0.0349982,0.329647,-0.165187,-0.162823,5.82148e-06,5.80131e-06,-7.64078e-06,0.32596,0.3904772033678099,5.8214969449466025e-06,5.80132682759249e-06,-0.15226483721067519,-7.640750809279062e-06,-0.15025842063585393
403,0.3915,850.954,-0.171732,0.108493,0.0126766,-0.084282,0.0535617,0.330366,-0.165551,-0.163178,6.00134e-06,4.03319e-06,-6.40045e-06,0.326679,0.3914773159744285,6.0013580081008655e-06,4.0331981332464295e-06,-0.15257335665598504,-6.400429517161577e-06,-0.15056002535852242
404,0.3925,851.411,0.240808,-0.089929,-0.000792227,0.0461234,-0.0460181,0.331084,-0.16591,-0.163537,5.81636e-06,5.91786e-06,-7.75875e-06,0.327396,0.392476755443131,5.816376914991039e-06,5.9178775104751224e-06,-0.15287752821888312,-7.758719900996525e-06,-0.15086491957763182
405,0.3935,851.632,-0.231617,0.132493,0.0153088,-0.102847,0.0662698,0.331802,-0.166274,-0.163891,6.07425e-06,3.62431e-06,-6.19064e-06,0.328113,0.39347691276705143,6.074268448230669e-06,3.624316567751862e-06,-0.15318582468525055,-6.190620838064653e-06,-0.15116546019727317
406,0.3945,852.126,0.307972,-0.117956,-0.00378775,0.0672104,-0.0606681,0.332519,-0.166631,-0.164249,5.80504e-06,6.10291e-06,-7.92685e-06,0.32883,0.39447639398470336,5.805056849217394e-06,6.1029286226865764e-06,-0.15348808338944897,-7.926818582637551e-06,-0.1514692885739981
407,0.3955,852.303,-0.307379,0.164435,0.0184095,-0.126455,0.0829276,0.333236,-0.166995,-0.164602,6.15376e-06,3.14034e-06,-5.9266e-06,0.329546,0.39547659208736086,6.153778934425702e-06,3.140344930763206e-06,-0.15379615765417753,-5.926582437698613e-06,-0.15176876705406994
408,0.3965,852.842,0.393311,-0.154862,-0.00735949,0.0940427,-0.0797367,0.333953,-0.167352,-0.16496,5.78456e-06,6.3748e-06,-8.15604e-06,0.330261,0.3964775075892151,5.784576730505364e-06,6.3748203191771324e-06,-0.15409819850839457,-8.156006739645782e-06,-0.1520723794855966
409,0.3975,852.966,-0.40359,0.206106,0.0221945,-0.156532,0.104493,0.334668,-0.167716,-0.165312,6.24309e-06,2.55987e-06,-5.59514e-06,0.330977,0.39747634604933824,6.2431094880466276e-06,2.5598732764642307e-06,-0.15440605073163383,-5.595124347279601e-06,-0.1523707974833688
410,0.3985,853.561,0.501851,-0.202718,-0.0117311,0.128185,-0.104302,0.335384,-0.168071,-0.165671,5.75158e-06,6.75699e-06,-8.46115e-06,0.331691,0.3984772974109352,5.75159654037094e-06,6.757012828595421e-06,-0.15470618330693997,-8.46111420460538e-06,-0.15267504175195845
411,0.3995,853.618,-0.525809,0.259817,0.0269039,-0.194824,0.132183,0.336099,-0.168436,-0.166021,6.34584e-06,1.8566e-06,-5.17948e-06,0.332405,0.399477566232074,6.34586013492644e-06,1.8566017234711296e-06,-0.15501465924974867,-5.17946658651347e-06,-0.1529715535947459
412,0.4005,854.285,0.639832,-0.264223,-0.0171603,0.171586,-0.135745,0.336813,-0.168789,-0.16638,5.70226e-06,7.2787e-06,-8.86117e-06,0.333118,0.40047715002331175,5.7022762578462505e-06,7.278726489756693e-06,-0.15531288643483854,-8.861130739945544e-06,-0.1532755822306
413,0.4015,854.514,0.298824,-0.146407,0.00038248,0.0652314,-0.0731343,0.337527,-0.169149,-0.166733,5.93956e-06,6.01855e-06,-8.26273e-06,0.333831,0.40147744777222916,5.9395776392801025e-06,6.018568111443301e-06,-0.15561691906656472,-8.262695863736624e-06,-0.15357442320153802
414,0.4025,854.806,0.0191308,0.0383381,0.00278655,-0.0251536,0.0149708,0.33824,-0.16951,-0.167086,5.9785e-06,4.72638e-06,-7.12608e-06,0.334544,0.40247705751101504,5.978517871207956e-06,4.726391169329602e-06,-0.15592168634497816,-7.126054609507548e-06,-0.15387315870023033
415,0.4035,855.154,0.129809,-0.0549193,0.00567119,0.0121678,-0.0256128,0.338953,-0.169868,-0.16744,6.03175e-06,5.26385e-06,-7.69612e-06,0.335256,0.40347738022569035,6.031768191139264e-06,5.263863854132467e-06,-0.15622381229749427,-7.69609038497876e-06,-0.15417263459169017
416,0.4045,855.454,-0.073727,0.0727227,0.0073805,-0.0538297,0.03407,0.339665,-0.170227,-0.167792,6.07369e-06,4.22273e-06,-6.86656e-06,0.335968,0.4044770119470742,6.073708444853665e-06,4.22273891564906e-06,-0.1565266735820262,-6.866536425231828e-06,-0.1544703134297648
417,0.4055,855.837,0.139489,-0.0524183,0.00403884,0.0148429,-0.0256693,0.340377,-0.170584,-0.168147,6.03817e-06,5.19225e-06,-7.67557e-06,0.336678,0.40547735565968224,6.038188229862129e-06,5.192263479836257e-06,-0.15682773981603704,-7.675540542928516e-06,-0.15477042319586198
418,0.4065,856.115,-0.114067,0.0852916,0.00969771,-0.0661144,0.041179,0.341088,-0.170943,-0.168498,6.13985e-06,3.91468e-06,-6.73915e-06,0.337389,0.40647700539292453,6.139868848897834e-06,3.914687662476268e-06,-0.15713038432950255,-6.739127291988112e-06,-0.1550670467168469
419,0.4075,856.522,0.173723,-0.0635288,0.00193768,0.0254776,-0.0320002,0.341799,-0.171299,-0.168852,6.03872e-06,5.22424e-06,-7.73139e-06,0.338099,0.40747736612985896,6.038738233016261e-06,5.2242536463520395e-06,-0.1574303925080569,-7.73136011289477e-06,-0.15536610004674678
420,0.4085,856.774,-0.15515,0.099976,0.0117729,-0.0787257,0.0492435,0.342509,-0.171658,-0.169203,6.20263e-06,3.59685e-06,-6.59559e-06,0.338809,0.4084770298984548,6.202649236453084e-06,3.5968564686683635e-06,-0.15773282070803651,-6.59556824911256e-06,-0.15566251452184676
421,0.4095,857.207,0.217971,-0.0806124,-0.000303248,0.0393366,-0.0411484,0.343219,-0.172013,-0.169557,6.03684e-06,5.30368e-06,-7.82505e-06,0.339517,0.40947740368035124,6.036858221758479e-06,5.303694064595632e-06,-0.15803177248960432,-7.825019384344323e-06,-0.15596135709345005
422,0.4105,857.428,-0.204713,0.119741,0.0139639,-0.0940756,0.0597097,0.343928,-0.172372,-0.169907,6.26681e-06,3.23787e-06,-6.41891e-06,0.340226,0.41047707750205387,6.2668296365586684e-06,3.23787524192376e-06,-0.15833398483291916,-6.4188893988958995e-06,-0.15625671892713122
423,0.4115,857.89,0.272846,-0.103503,-0.00278122,0.0565926,-0.0531056,0.344637,-0.172726,-0.17026,6.03088e-06,5.43475e-06,-7.95742e-06,0.340934,0.41147746034381427,6.030898185738209e-06,5.43476476821958e-06,-0.15863188187140154,-7.957388339807636e-06,-0.15655450774253177
424,0.4125,858.075,-0.265929,0.145594,0.0164593,-0.113142,0.0731652,0.345345,-0.173085,-0.17061,6.33515e-06,2.82348e-06,-6.20132e-06,0.341642,0.41247714023065885,6.335170067206519e-06,2.8234839859475613e-06,-0.15893387881411503,-6.20130077189085e-06,-0.1568496620098121
425,0.4135,858.573,0.34097,-0.133082,-0.0056459,0.0780504,-0.0683601,0.346053,-0.173438,-0.170963,6.01859e-06,5.62973e-06,-8.1353e-06,0.342348,0.4134775281414744,6.018608111668655e-06,5.629745847057777e-06,-0.15923072275885497,-8.135266908571026e-06,-0.1571472415532431
426,0.4145,858.716,-0.3419,0.178666,0.01942,-0.136891,0.090229,0.34676,-0.173797,-0.171311,6.41005e-06,2.33919e-06,-5.93433e-06,0.343055,0.414477210099802,6.41007054436038e-06,2.339192735956175e-06,-0.1595325047562749,-5.934312391930874e-06,-0.1574405032826821
427,0.4155,859.258,0.425666,-0.170651,-0.00905659,0.104742,-0.0876004,0.347467,-0.174148,-0.171665,5.99758e-06,5.90416e-06,-8.36816e-06,0.343761,0.41547759908317783,5.997597985585301e-06,5.904177429627566e-06,-0.1598274570799444,-8.36812498705708e-06,-0.15773871655765614
428,0.4165,859.348,-0.436261,0.220421,0.0230116,-0.166458,0.111678,0.348173,-0.174509,-0.172012,6.49401e-06,1.76777e-06,-5.60727e-06,0.344467,0.41647727911365817,6.494031086212715e-06,1.7677715624664359e-06,-0.16013070462846268,-5.607254279338392e-06,-0.15803093052095585
429,0.4175,859.945,0.530944,-0.217903,-0.0131859,0.137917,-0.1117,0.348878,-0.174858,-0.172366,5.96529e-06,6.27687e-06,-8.66796e-06,0.345171,0.41747624769048075,5.965307792399344e-06,6.276889699563526e-06,-0.1604237678700371,-8.667922433369668e-06,-0.1583289348216781
430,0.4185,860.176,0.239472,-0.119142,0.00205661,0.0470136,-0.0591541,0.349584,-0.175214,-0.172715,6.177e-06,5.16735e-06,-8.15743e-06,0.345876,0.41847733926509423,6.177019077791002e-06,5.167363350766507e-06,-0.16072260381272152,-8.157396728214472e-06,-0.1586226267711992
431,0.4195,860.47,0.0260234,0.0319779,0.0024783,-0.0223952,0.0121139,0.350288,-0.17557,-0.173064,6.18816e-06,4.16218e-06,-7.23853e-06,0.34658,0.4194762989044716,6.188179146660033e-06,4.162188661949173e-06,-0.1610213333887447,-7.2385038019096015e-06,-0.15891621624011376
432,0.4205,860.797,0.0997004,-0.0407019,0.00613036,0.00308095,-0.0185637,0.350993,-0.175923,-0.173414,6.25304e-06,4.5164e-06,-7.66657e-06,0.347283,0.42047738253571576,6.25305955037625e-06,4.516410198940335e-06,-0.1613174405920622,-7.666540611905859e-06,-0.15921054405405766
433,0.4215,861.098,-0.0466718,0.0580914,0.00621364,-0.0447726,0.0268464,0.351696,-0.176278,-0.173762,6.26954e-06,3.74371e-06,-7.03431e-06,0.347986,0.4214763292242587,6.26955965365994e-06,3.743717007731462e-06,-0.16161512005942036,-7.034285259277517e-06,-0.1595030878791489
434,0.4225,861.452,0.104003,-0.0361035,0.00476009,0.00409908,-0.0174544,0.3524,-0.176631,-0.174112,6.26121e-06,4.41941e-06,-7.6295e-06,0.348689,0.42247740089591534,6.261229601456364e-06,4.419419765699928e-06,-0.1619110176930344,-7.629470895387236e-06,-0.15979721032396088
435,0.4235,861.737,-0.075019,0.0658053,0.00800235,-0.0533191,0.0314022,0.353102,-0.176986,-0.174459,6.32549e-06,3.49323e-06,-6.94326e-06,0.349391,0.4234763306146525,6.325510006011115e-06,3.4932361012707247e-06,-0.16220848647791997,-6.943235895673361e-06,-0.16008871011384007
436,0.4245,862.107,0.126463,-0.0423266,0.00316788,0.0110589,-0.021222,0.353805,-0.177338,-0.174809,6.2668e-06,4.39932e-06,-7.65138e-06,0.350092,0.42447738630492204,6.266819636335796e-06,4.399329676996189e-06,-0.1625033371939093,-7.651350728221651e-06,-0.16038262762673505
437,0.4255,862.373,-0.102037,0.0746191,0.00947976,-0.0615357,0.0363893,0.354506,-0.177692,-0.175156,6.37685e-06,3.24395e-06,-6.84395e-06,0.350794,0.42547629502932427,6.376870332225337e-06,3.2439552615226575e-06,-0.16279975854286843,-6.843926580235582e-06,-0.16067392431205074
438,0.4265,862.76,0.154869,-0.0526682,0.00158601,0.019964,-0.0268665,0.355208,-0.178043,-0.175505,6.27216e-06,4.40791e-06,-7.69831e-06,0.351494,0.4264773307108496,6.2721796700859755e-06,4.4079197147883775e-06,-0.16309356426169974,-7.698280368062527e-06,-0.16096679800303404
439,0.4275,863.006,-0.133504,0.0866437,0.0109294,-0.0712185,0.0428297,0.355909,-0.178397,-0.175851,6.42744e-06,2.97269e-06,-6.72465e-06,0.352194,0.4274776418877826,6.427460655933359e-06,2.9726944184016446e-06,-0.16338977670725496,-6.724627389598226e-06,-0.16125705327386752
440,0.4285,863.412,0.189135,-0.0666182,-6.0491e-05,0.0307659,-0.0342077,0.356609,-0.178748,-0.1762,6.27604e-06,4.4457e-06,-7.76861e-06,0.352894,0.4284772260507448,6.2760596943878255e-06,4.445709882228144e-06,-0.1636833753660517,-7.7685798244298e-06,-0.16154972348835184
441,0.4295,863.634,-0.171312,0.102324,0.0124904,-0.0829431,0.0510187,0.357309,-0.179102,-0.176546,6.47929e-06,2.67115e-06,-6.58156e-06,0.353593,0.4294775101675763,6.4793109906258195e-06,2.671153567446183e-06,-0.16397937905542803,-6.581538341543514e-06,-0.16183977710185604
442,0.4305,864.062,0.230601,-0.0844763,-0.00187301,0.0438675,-0.0434397,0.358008,-0.179451,-0.176894,6.27691e-06,4.51891e-06,-7.86502e-06,0.354291,0.4304770642506368,6.27692969978888e-06,4.5189202102502435e-06,-0.16427109934398632,-7.864989070793804e-06,-0.16213140611303356
443,0.4315,864.258,-0.217087,0.122137,0.0142663,-0.0972084,0.0612376,0.358707,-0.179805,-0.177239,6.53395e-06,2.33181e-06,-6.41085e-06,0.35499,0.43147731726625005,6.5339713462009286e-06,2.3318127186922055e-06,-0.1645668950158956,-6.4108294505205166e-06,-0.16242042092000375
444,0.4325,864.712,0.280937,-0.106799,-0.00394774,0.0597831,-0.054874,0.359405,-0.180154,-0.177588,6.27333e-06,4.63533e-06,-7.99183e-06,0.355687,0.4324768372255867,6.273349677288209e-06,4.635340743242011e-06,-0.16485841029715953,-7.991798065432043e-06,-0.16271268519002102
445,0.4335,864.876,-0.27263,0.146734,0.0163519,-0.114574,0.0738433,0.360103,-0.180508,-0.177932,6.59285e-06,1.94619e-06,-6.20761e-06,0.356385,0.43347705509339685,6.592871732991057e-06,1.9461918938645795e-06,-0.16515399809778686,-6.207590732776325e-06,-0.1630006624913799
446,0.4345,865.361,0.342087,-0.134345,-0.00637868,0.0791161,-0.0689115,0.3608,-0.180855,-0.17828,6.26388e-06,4.80407e-06,-8.15451e-06,0.357081,0.43447653687973653,6.2638996181085815e-06,4.804081539466765e-06,-0.1654436394047738,-8.15447675206471e-06,-0.16329188758472768
447,0.4355,865.488,-0.340022,0.176955,0.0188428,-0.135693,0.0892802,0.361497,-0.18121,-0.178623,6.65744e-06,1.50438e-06,-5.96575e-06,0.357778,0.43547671554771616,6.657462160886141e-06,1.5043811316672873e-06,-0.16573985433152483,-5.965732204904484e-06,-0.1635788292539766
448,0.4365,866.011,0.416318,-0.168072,-0.00926355,0.102574,-0.0860463,0.362194,-0.181556,-0.178972,6.24711e-06,5.03586e-06,-8.35983e-06,0.358473,0.43647759158323174,6.24712951324824e-06,5.03587267997041e-06,-0.16602845841054115,-8.359795056755992e-06,-0.1638706893100248
449,0.4375,866.093,-0.421692,0.21384,0.0218407,-0.161328,0.108089,0.362889,-0.181911,-0.179313,6.72926e-06,9.94725e-07,-5.67785e-06,0.359169,0.43747629051706194,6.729282641559919e-06,9.947254946407469e-07,-0.16632446576339166,-5.677833881057026e-06,-0.16415576079751915
450,0.4385,866.663,0.506287,-0.209154,-0.0127088,0.130989,-0.106875,0.363585,-0.182255,-0.179662,6.22141e-06,5.34327e-06,-8.61595e-06,0.359863,0.43847712226430824,6.221429353026053e-06,5.343284275260984e-06,-0.16661120082591063,-8.615912882814492e-06,-0.16444741953958986
451,0.4395,866.691,-0.520485,0.258642,0.0254584,-0.19238,0.130917,0.36428,-0.18261,-0.180003,6.81005e-06,4.03539e-07,-5.33504e-06,0.360558,0.4394772113549852,6.810073188479038e-06,4.03539081483828e-07,-0.16690700134191938,-5.3350257687156954e-06,-0.16473229439560355
452,0.4405,867.316,0.615119,-0.259005,-0.0168341,0.16534,-0.132111,0.364974,-0.182953,-0.180352,6.18499e-06,5.7411e-06,-8.93258e-06,0.361251,0.4404765552718948,6.185009127079866e-06,5.7411164802179115e-06,-0.16719270323978253,-8.932540104589215e-06,-0.1650237519625557
453,0.4415,867.517,0.270889,-0.134349,0.000243167,0.0576673,-0.066739,0.365668,-0.183304,-0.180696,6.41851e-06,4.41882e-06,-8.27669e-06,0.361944,0.44147659297419817,6.418530598573113e-06,4.418829762986576e-06,-0.16748496730560125,-8.276655748318262e-06,-0.1653109343936704
454,0.4425,867.787,0.0307582,0.0280546,0.00180818,-0.0201308,0.0103285,0.366362,-0.183654,-0.181039,6.44346e-06,3.29869e-06,-7.29043e-06,0.362637,0.4424773249435501,6.4434807591773335e-06,3.298695440578925e-06,-0.167776296581447,-7.290403424842218e-06,-0.16559718364861975
455,0.4435,868.098,0.104475,-0.0433032,0.00523903,0.0052641,-0.0199077,0.367055,-0.184002,-0.181383,6.503e-06,3.66021e-06,-7.71509e-06,0.36333,0.4434773081839085,6.5030211444661035e-06,3.6602166986199336e-06,-0.16806586004327206,-7.71506023877766e-06,-0.16588416885315937
456,0.4445,868.38,-0.0486138,0.0571995,0.00581029,-0.0446472,0.0265278,0.367747,-0.184351,-0.181726,6.52479e-06,2.85685e-06,-7.07239e-06,0.364022,0.44447654017556637,6.524811286379162e-06,2.8568540808571186e-06,-0.16835615439880536,-7.0723649907566966e-06,-0.16617022152240546
457,0.4455,868.718,0.104185,-0.0367199,0.00405181,0.00484104,-0.0177789,0.368439,-0.184698,-0.18207,6.50999e-06,3.54797e-06,-7.66741e-06,0.364713,0.44547646387506545,6.5100111901195135e-06,3.5479762940937576e-06,-0.1686446847503179,-7.667380605536067e-06,-0.16645700963581822
458,0.4465,868.986,-0.0752843,0.0643205,0.00752081,-0.052684,0.0307498,0.369131,-0.185047,-0.182412,6.57603e-06,2.6186e-06,-6.98868e-06,0.365404,0.44647707976123385,6.576051622131374e-06,2.6186034285391457e-06,-0.16893477713127503,-6.988655579243108e-06,-0.1667420325968183
459,0.4475,869.34,0.123296,-0.0416518,0.00261679,0.010762,-0.0208475,0.369822,-0.185394,-0.182756,6.51423e-06,3.51742e-06,-7.68186e-06,0.366094,0.44747694083556544,6.5142512175597744e-06,3.517426186094852e-06,-0.1692231067355311,-7.68183049459914e-06,-0.16702862404105034
460,0.4485,869.591,-0.0986407,0.0717416,0.0088271,-0.0597694,0.0349804,0.370513,-0.185743,-0.183098,6.62135e-06,2.39041e-06,-6.90216e-06,0.366784,0.4484774930526616,6.621371921200492e-06,2.390412856989599e-06,-0.16951299728243752,-6.902136180153562e-06,-0.1673134515433492
461,0.4495,869.959,0.147196,-0.0502207,0.00124279,0.0182673,-0.0255421,0.371203,-0.186088,-0.183441,6.51905e-06,3.51002e-06,-7.71772e-06,0.367474,0.44947728741225523,6.519071249044828e-06,3.510026160169488e-06,-0.16979946587970063,-7.717690218456141e-06,-0.16759901405269984
462,0.4505,870.193,-0.124786,0.0816485,0.010039,-0.0677996,0.040291,0.371892,-0.186437,-0.183782,6.66492e-06,2.14794e-06,-6.80078e-06,0.368163,0.45047632139096616,6.664942210576896e-06,2.147942306907069e-06,-0.17008915531236224,-6.800756874758562e-06,-0.16788281439819885
463,0.4515,870.576,0.175176,-0.0615963,-0.000128023,0.0271095,-0.0315242,0.372582,-0.186782,-0.184125,6.52344e-06,3.52345e-06,-7.77126e-06,0.368851,0.4514774954180436,6.523461277607723e-06,3.5234562074659692e-06,-0.17037542516938975,-7.771229803887891e-06,-0.16816818164957892
464,0.4525,870.791,-0.155213,0.0942769,0.0112854,-0.0772231,0.0468731,0.37327,-0.18713,-0.184466,6.7086e-06,1.88485e-06,-6.68219e-06,0.369539,0.45247645553776805,6.7086225026269375e-06,1.884851776434715e-06,-0.17066408429183033,-6.682167674187944e-06,-0.16845178794201543
465,0.4535,871.192,0.208017,-0.0758093,-0.00157895,0.0375157,-0.0388539,0.373959,-0.187474,-0.184809,6.52612e-06,3.56129e-06,-7.84339e-06,0.370227,0.45347755665536504,6.526141295148946e-06,3.561296341381137e-06,-0.17094932678231267,-7.84335924064461e-06,-0.16873696006893568
466,0.4545,871.386,-0.190952,0.109827,0.0126491,-0.0883505,0.0548673,0.374646,-0.187822,-0.185148,6.75365e-06,1.59646e-06,-6.54449e-06,0.370914,0.45447643881352184,6.753672805892563e-06,1.5964612742891404e-06,-0.1712377862217388,-6.544468584834817e-06,-0.16901871048007933
467,0.4555,871.807,0.246707,-0.0931031,-0.00318134,0.0497857,-0.047684,0.375334,-0.188166,-0.185491,6.52603e-06,3.62811e-06,-7.93621e-06,0.371601,0.45547746291623104,6.526051294475366e-06,3.628116581610996e-06,-0.1715228313926982,-7.936178508360925e-06,-0.16930368818591424
468,0.4565,871.977,-0.233049,0.128611,0.0141969,-0.101504,0.0644559,0.37602,-0.188514,-0.18583,6.80106e-06,1.27785e-06,-6.38518e-06,0.372287,0.45647626300505295,6.801083127339069e-06,1.2778508164945634e-06,-0.1718110912872428,-6.385159614819003e-06,-0.16958524650878704
469,0.4575,872.42,0.292341,-0.11385,-0.00499726,0.0642566,-0.0582206,0.376707,-0.188856,-0.186172,6.52222e-06,3.72905e-06,-8.05253e-06,0.372973,0.45747720598228225,6.522241269735218e-06,3.7290569530057383e-06,-0.1720942834653998,-8.052497578514561e-06,-0.16986919979570125
470,0.4585,872.562,-0.282649,0.151048,0.0159883,-0.117039,0.0758679,0.377393,-0.189204,-0.18651,6.85176e-06,9.2357e-07,-6.20113e-06,0.373658,0.4584773783654903,6.851783473260653e-06,9.235704265808664e-07,-0.17238234452922163,-6.201110772985352e-06,-0.17014973659278088
471,0.4595,873.033,0.346136,-0.138533,-0.00708472,0.0813069,-0.0707171,0.378078,-0.189545,-0.186853,6.51384e-06,3.86986e-06,-8.1958e-06,0.374343,0.4594767776248385,6.513861215085015e-06,3.869867488015544e-06,-0.1726645140371018,-8.195766414531569e-06,-0.17043432642318346
472,0.4605,873.143,-0.341029,0.177663,0.0180812,-0.135358,0.0893784,0.378763,-0.189894,-0.18719,6.90661e-06,5.27471e-07,-5.98858e-06,0.375027,0.46047686170720437,6.906633850611854e-06,5.274711392111442e-07,-0.17295320374241907,-5.9885620684596574e-06,-0.17071384295399805
473,0.4615,873.647,0.409461,-0.167738,-0.00950168,0.101364,-0.085474,0.379448,-0.190234,-0.187533,6.50001e-06,4.05705e-06,-8.37012e-06,0.375711,0.46147763108185247,6.500031125122874e-06,4.0570582298116165e-06,-0.17323435185525915,-8.370084970676928e-06,-0.1709982393290982
474,0.4625,873.719,-0.409624,0.209079,0.0205348,-0.156914,0.10531,0.380132,-0.190583,-0.187869,6.96655e-06,8.25969e-08,-5.74312e-06,0.376395,0.4624776237400139,6.966574266575876e-06,8.259690331691161e-08,-0.17352284272187724,-5.743103508315528e-06,-0.1712767371304329
475,0.4635,874.26,0.48386,-0.202155,-0.0123089,0.124912,-0.102841,0.380815,-0.190921,-0.188212,6.4798e-06,4.29799e-06,-8.58025e-06,0.377077,0.4634768371495641,6.479820993998686e-06,4.297999236291261e-06,-0.1738021447963276,-8.580213189723906e-06,-0.17156094046593873
476,0.4645,874.289,-0.490054,0.24602,0.0234125,-0.182221,0.124034,0.381498,-0.191271,-0.188546,7.03253e-06,-4.18938e-07,-5.45967e-06,0.37776,0.46447673325498706,7.0325547283367484e-06,-4.1893791224989485e-07,-0.1740912634469336,-5.459655096018423e-06,-0.17183759290829337
477,0.4655,874.875,0.571082,-0.242586,-0.0155719,0.152499,-0.12322,0.382181,-0.191608,-0.18889,6.45224e-06,4.60103e-06,-8.83165e-06,0.378442,0.4654773125227236,6.45226081563699e-06,4.6010405847507485e-06,-0.17436954779760516,-8.831611001069994e-06,-0.17212243178123798
478,0.4665,875.064,0.242196,-0.121346,0.000497176,0.0494767,-0.0600288,0.382863,-0.191952,-0.189227,6.67437e-06,3.30672e-06,-8.18326e-06,0.379123,0.4664771089416906,6.674392273753327e-06,3.3067254672225488e-06,-0.17465351582786126,-8.183226517188835e-06,-0.17240137951639434
479,0.4675,875.326,0.0362028,0.0224166,0.00122375,-0.0174577,0.00782955,0.383545,-0.192297,-0.189564,6.68624e-06,2.33584e-06,-7.31835e-06,0.379804,0.46747758745438284,6.686262352895156e-06,2.335842728129478e-06,-0.17493821125211617,-7.318323220983913e-06,-0.1726802332620021
480,0.4685,875.616,0.0869288,-0.0350529,0.00496328,0.000500287,-0.0158827,0.384226,-0.192639,-0.189903,6.74943e-06,2.58498e-06,-7.65106e-06,0.380485,0.4684772800481325,6.749452777343734e-06,2.58498334115842e-06,-0.17522033413810456,-7.651030730748687e-06,-0.17296064713009007
481,0.4695,875.89,-0.0329789,0.0475501,0.00477165,-0.0388112,0.0218533,0.384907,-0.192982,-0.19024,6.75772e-06,1.93987e-06,-7.12937e-06,0.381165,0.4694776536644003,6.757742833540803e-06,1.9398718815732963e-06,-0.1755031850517904,-7.129344586132014e-06,-0.17323931243426627
482,0.4705,876.203,0.0827847,-0.0269975,0.00397071,-0.00111273,-0.0129366,0.385587,-0.193323,-0.190578,6.7555e-06,2.45806e-06,-7.59336e-06,0.381845,0.47047723828914734,6.755522818480131e-06,2.458063021126833e-06,-0.17578429053447908,-7.5933311705078665e-06,-0.17351871032575983
483,0.4715,876.465,-0.0527436,0.0519705,0.0061635,-0.044702,0.0246436,0.386267,-0.193666,-0.190915,6.80037e-06,1.73821e-06,-7.06724e-06,0.382524,0.4714775028625955,6.800393122619042e-06,1.7382115107267282e-06,-0.17606694804429157,-7.067215027078966e-06,-0.17379718759432472
484,0.4725,876.79,0.095018,-0.0291551,0.00284938,0.00266256,-0.0145379,0.386946,-0.194007,-0.191252,6.76043e-06,2.40038e-06,-7.58967e-06,0.383203,0.47247697536955546,6.760452851750642e-06,2.4003828809071592e-06,-0.17634786131657354,-7.589641198513242e-06,-0.17407557103186155
485,0.4735,877.04,-0.0681095,0.0561333,0.0071164,-0.0492951,0.0271575,0.387625,-0.194349,-0.191589,6.83649e-06,1.5525e-06,-7.00651e-06,0.383881,0.4734771267487987,6.836513368746466e-06,1.5525012051487153e-06,-0.17662950218466955,-7.006485454486011e-06,-0.17435386066998604
486,0.4745,877.375,0.110088,-0.0340241,0.0018564,0.00740583,-0.0173026,0.388303,-0.19469,-0.191926,6.76697e-06,2.35676e-06,-7.60111e-06,0.384559,0.47447648298421585,6.7669928960345516e-06,2.3567627771559074e-06,-0.17691022365869313,-7.60108111164115e-06,-0.17463205654030334
487,0.4755,877.613,-0.0843685,0.0618519,0.00791406,-0.0542312,0.0302892,0.388981,-0.195032,-0.192262,6.86992e-06,1.36165e-06,-6.93727e-06,0.385237,0.4754765170129065,6.869943597997974e-06,1.361650927123037e-06,-0.17719167223175258,-6.937245937144176e-06,-0.17490933358415373
488,0.4765,877.957,0.127053,-0.0406412,0.000938413,0.0127945,-0.020827,0.389659,-0.195371,-0.192599,6.77419e-06,2.32351e-06,-7.62297e-06,0.385913,0.4764772292945705,6.774212944815616e-06,2.3235126993537136e-06,-0.17747055698123015,-7.622940945251067e-06,-0.17518734229163757
489,0.4775,878.184,-0.102532,0.0691453,0.0086675,-0.0598068,0.0341184,0.390336,-0.195713,-0.192934,6.90229e-06,1.16155e-06,-6.8587e-06,0.38659,0.4774771428113376,6.902313820944528e-06,1.1615506745332738e-06,-0.17775181395305895,-6.858676479204462e-06,-0.17546360825483742
490,0.4785,878.537,0.146239,-0.0488285,2.8963e-05,0.0189127,-0.0250662,0.391012,-0.196052,-0.19327,6.78107e-06,2.30206e-06,-7.65472e-06,0.387266,0.4784762550217576,6.781092991570148e-06,2.3020626498393426e-06,-0.17803050884667548,-7.65469070274083e-06,-0.1757406059442459
491,0.4795,878.752,-0.12311,0.0779843,0.00943916,-0.0661691,0.0386676,0.391689,-0.196394,-0.193605,6.93452e-06,9.50005e-07,-6.77049e-06,0.387942,0.479477522337151,6.934544043879498e-06,9.500054511946132e-07,-0.1783115743477096,-6.770467080308151e-06,-0.17601668659516367
492,0.4805,879.116,0.168074,-0.05858,-0.000921366,0.0258841,-0.0300457,0.392364,-0.196732,-0.193941,6.78687e-06,2.2943e-06,-7.69672e-06,0.388617,0.4804765067840493,6.786893030907848e-06,2.294302631877798e-06,-0.17858925810438153,-7.696690380365467e-06,-0.17629349848146658
493,0.4815,879.316,-0.146542,0.0884119,0.0102717,-0.0734485,0.0439811,0.39304,-0.197074,-0.194275,6.96728e-06,7.25004e-07,-6.67205e-06,0.389291,0.481477647249988,6.967304271521257e-06,7.25004262847051e-07,-0.17887013254584272,-6.67202774196074e-06,-0.17656857051338726
494,0.4825,879.693,0.192988,-0.0699721,-0.00194886,0.0338383,-0.0358213,0.393714,-0.197411,-0.194611,6.79104e-06,2.30221e-06,-7.74973e-06,0.389965,0.4824764997597175,6.7910630592304955e-06,2.3022126500737983e-06,-0.1791468066889632,-7.749699970971413e-06,-0.17684519699784285
495,0.4835,879.878,-0.173262,0.100533,0.0111969,-0.0817772,0.0501255,0.394389,-0.197752,-0.194944,7.00103e-06,4.84511e-07,-6.56246e-06,0.390639,0.4834775091997341,7.0010545072385355e-06,4.845111174489602e-07,-0.17942666990849143,-6.562438467083709e-06,-0.17711926191290162
496,0.4845,880.268,0.221425,-0.0831363,-0.00308196,0.0429109,-0.0424691,0.395062,-0.198089,-0.19528,6.79317e-06,2.32787e-06,-7.81479e-06,0.391313,0.48447622559379666,6.793193073617587e-06,2.3278727094844243e-06,-0.1797031565301198,-7.81475946465271e-06,-0.17739570339612898
497,0.4855,880.436,-0.203719,0.114498,0.0122409,-0.0912946,0.057185,0.395736,-0.19843,-0.195613,7.0362e-06,2.26373e-07,-6.44057e-06,0.391986,0.48547709982657383,7.036224754175535e-06,2.2637302565797768e-07,-0.17998283006669502,-6.4405492595787095e-06,-0.17766958502307628
498,0.4865,880.843,0.253849,-0.0982451,-0.00434479,0.0532457,-0.0500817,0.396409,-0.198766,-0.195948,6.79287e-06,2.3735e-06,-7.89314e-06,0.392658,0.48647716239806593,6.792893071594364e-06,2.3735028167326533e-06,-0.1802583095526472,-7.893108849299502e-06,-0.17794501957423037
499,0.4875,880.991,-0.238389,0.130494,0.0134267,-0.10215,0.065259,0.397081,-0.199107,-0.19628,7.07312e-06,-5.17128e-08,-6.30503e-06,0.39333,0.48747641076104364,7.073145014580007e-06,-5.1712798709857566e-08,-0.180537793814315,-6.305010123330845e-06,-0.17821789652765097
500,0.4885,881.416,0.290755,-0.115505,-0.0057594,0.0649973,-0.0587657,0.397753,-0.199442,-0.196616,6.78983e-06,2.44146e-06,-7.98624e-06,0.394001,0.4884763308445943,6.789853050914729e-06,2.4414629804514476e-06,-0.1808122676764483,-7.98620811004458e-06,-0.1784939689316566
501,0.4895,881.542,-0.277778,0.148739,0.0147758,-0.114502,0.0744598,0.398425,-0.199783,-0.196947,7.11214e-06,-3.52228e-07,-6.15431e-06,0.394673,0.48947692310026536,7.112165291367489e-06,-3.522279379275517e-07,-0.1810915630705996,-6.154291062321349e-06,-0.17876584243039395
502,0.4905,881.988,0.332676,-0.13515,-0.00734718,0.0783324,-0.0686404,0.399096,-0.200117,-0.197282,6.78371e-06,2.53431e-06,-8.0957e-06,0.395343,0.4904766975024659,6.783733009330106e-06,2.534313211288719e-06,-0.18136503281654415,-8.09566722992372e-06,-0.1790409097968234
503,0.4915,882.089,-0.322431,0.169476,0.01631,-0.128525,0.0849119,0.399767,-0.200458,-0.197612,7.15359e-06,-6.77855e-07,-5.98672e-06,0.396013,0.4914771429784104,7.153615587007778e-06,-6.778547702035453e-07,-0.181644139749917,-5.986702079630035e-06,-0.17931178160028471
504,0.4925,882.559,0.380182,-0.157444,-0.00912974,0.0934306,-0.0798374,0.400437,-0.200792,-0.197948,6.77419e-06,2.65483e-06,-8.22331e-06,0.396683,0.49247676750102687,6.774212944815616e-06,2.6548335241294296e-06,-0.18191742496606889,-8.223276188656925e-06,-0.1795874865206466
505,0.4935,882.633,-0.372935,0.192974,0.0180512,-0.144404,0.096752,0.401107,-0.201133,-0.198277,7.19783e-06,-1.03149e-06,-5.80039e-06,0.397352,0.4934770619964892,7.1978559044172385e-06,-1.0314894680618636e-06,-0.18219634356583148,-5.8003731777667156e-06,-0.17985735784131474
506,0.4945,883.13,0.433892,-0.182674,-0.0111294,0.110486,-0.0925003,0.401776,-0.201465,-0.198612,6.76093e-06,2.80597e-06,-8.371e-06,0.398021,0.4944765324365501,6.760952855122682e-06,2.8059739367591874e-06,-0.1824678093139599,-8.370964963311245e-06,-0.1801320596113224
507,0.4955,883.173,-0.429917,0.219527,0.0200227,-0.162339,0.110128,0.402445,-0.201806,-0.198941,7.24522e-06,-1.41625e-06,-5.59332e-06,0.39869,0.49547667174604704,7.245246246734283e-06,-1.4162489970770409e-06,-0.18274654026465587,-5.5933043574540875e-06,-0.1804017517969131
508,0.4965,883.7,0.494469,-0.211153,-0.0133696,0.129706,-0.106785,0.403114,-0.202137,-0.199276,6.74358e-06,2.99095e-06,-8.54089e-06,0.399357,0.49647748037260375,6.743602738001897e-06,2.9909544729811444e-06,-0.18301700639521423,-8.540853526750602e-06,-0.18067627122548946
509,0.4975,883.708,-0.494051,0.249449,0.0222488,-0.182546,0.1252,0.403782,-0.202479,-0.199604,7.29614e-06,-1.8355e-06,-5.36332e-06,0.400025,0.4974774612859332,7.296166616876931e-06,-1.835498315450046e-06,-0.18329636680567396,-5.3633056174007265e-06,-0.18094496534028381
510,0.4985,884.27,0.562623,-0.24322,-0.0158751,0.151314,-0.122858,0.404449,-0.202809,-0.199939,6.72176e-06,3.2132e-06,-8.73523e-06,0.400692,0.49847661193230897,6.7217825909793305e-06,3.213205162388988e-06,-0.18356583454000652,-8.735191847963897e-06,-0.18121930282280085
511,0.4995,884.441,0.228332,-0.115388,-9.51339e-05,0.0463602,-0.0568803,0.405116,-0.203146,-0.200269,6.94076e-06,1.86537e-06,-8.04046e-06,0.401358,0.49947642923447066,6.940784087028362e-06,1.865371739739885e-06,-0.18384092649816808,-8.040427675548578e-06,-0.18148945587516407
512,0.5005,884.688,0.0422307,0.0162577,0.000321673,-0.014198,0.00509043,0.405783,-0.203482,-0.200599,6.94598e-06,9.82705e-07,-7.25578e-06,0.402025,0.5004769136372265,6.946004123431493e-06,9.82705482766022e-07,-0.18411510988147683,-7.25575367688247e-06,-0.18175951979172822
513,0.5015,884.955,0.0741016,-0.0291116,0.00420624,-0.00239092,-0.0130373,0.406449,-0.203817,-0.20093,7.00951e-06,1.14151e-06,-7.51122e-06,0.40269,0.5014765641083656,7.009534566781994e-06,1.1415106515588747e-06,-0.1843883855434374,-7.511191790876559e-06,-0.18203031257199964
514,0.5025,885.214,-0.0213523,0.0394246,0.0035919,-0.0338411,0.01797,0.407115,-0.204152,-0.20126,7.00854e-06,6.15277e-07,-7.08387e-06,0.403356,0.5024768805684683,7.008564559818353e-06,6.152771891976272e-07,-0.18466156967338376,-7.08384490943903e-06,-0.18230019803530018
515,0.5035,885.502,0.0662059,-0.0196285,0.00340529,-0.00516644,-0.00930569,0.40778,-0.204487,-0.201591,7.01307e-06,1.0031e-06,-7.44499e-06,0.40402,0.503476359984119,7.013094591723501e-06,1.0031005031052587e-06,-0.18493466230197386,-7.444962286107248e-06,-0.18257081188068836
516,0.5045,885.754,-0.0360413,0.0419522,0.00473647,-0.0381617,0.0197436,0.408445,-0.204822,-0.20192,7.0422e-06,4.44071e-07,-7.03816e-06,0.404685,0.5044765042746278,7.042224796416363e-06,4.440710985598173e-07,-0.18520766345985562,-7.038135232173559e-06,-0.18283970184875442
517,0.5055,886.05,0.0731745,-0.0197329,0.00253805,-0.00303235,-0.00980995,0.40911,-0.205155,-0.20225,7.01635e-06,9.27997e-07,-7.42879e-06,0.405349,0.505477313882283,7.016374614643439e-06,9.279974306775074e-07,-0.1854789441371839,-7.42876240655832e-06,-0.18310932025766014
518,0.5065,886.293,-0.045486,0.043772,0.00541611,-0.0409129,0.0210132,0.409774,-0.20549,-0.202579,7.06886e-06,2.93381e-07,-6.99707e-06,0.406012,0.506477282771632,7.068884984473556e-06,2.9338104301501744e-07,-0.18575176299118845,-6.997045520540368e-06,-0.1833780330856114
519,0.5075,886.595,0.0817893,-0.0219521,0.00183577,-0.0003084,-0.0111847,0.410437,-0.205823,-0.202909,7.02183e-06,8.61294e-07,-7.42373e-06,0.406675,0.5074764083836512,7.021854653066484e-06,8.612943709351839e-07,-0.18602286251353684,-7.423702444220304e-06,-0.18364747387451774
520,0.5085,886.831,-0.0546401,0.046527,0.00590815,-0.0436286,0.0225989,0.4111,-0.206157,-0.203238,7.09234e-06,1.43337e-07,-6.95162e-06,0.407338,0.5084761966355922,7.092365150729307e-06,1.433370102610354e-07,-0.18629468548049488,-6.95159583752325e-06,-0.18391600967905097
521,0.5095,887.138,0.0909775,-0.0252382,0.00124592,0.00263984,-0.0129857,0.411763,-0.20649,-0.203567,7.02861e-06,7.98543e-07,-7.4245e-06,0.408,0.5094766479669306,7.02863470070092e-06,7.985433188029134e-07,-0.18656560423975288,-7.424472438510854e-06,-0.18418445714983622
522,0.5105,887.366,-0.0642808,0.0501313,0.0063151,-0.0465318,0.0245256,0.412425,-0.206824,-0.203895,7.11415e-06,-9.09495e-09,-6.90168e-06,0.408662,0.5104762523404263,7.1141753055226076e-06,-9.094950015331449e-09,-0.18683724596124407,-6.901656183444516e-06,-0.184452000768339
523,0.5115,887.678,0.100841,-0.0293141,0.00071064,0.00582635,-0.0151173,0.413087,-0.207156,-0.204224,7.03578e-06,7.40071e-07,-7.42989e-06,0.409323,0.511476518671101,7.035804751254204e-06,7.400712738192539e-07,-0.18710717118551834,-7.429862398433684e-06,-0.18472027192706075
524,0.5125,887.9,-0.0746677,0.0544503,0.00668872,-0.0496912,0.0267608,0.413749,-0.207489,-0.204552,7.13505e-06,-1.64929e-07,-6.84771e-06,0.409984,0.5124774473973155,7.135075454467454e-06,-1.649289863570047e-07,-0.18737781943207954,-6.847686554456445e-06,-0.18498763982713606
525,0.5135,888.217,0.111543,-0.0340625,0.000191877,0.00929252,-0.0175476,0.41441,-0.207821,-0.20488,7.04279e-06,6.86524e-07,-7.43948e-06,0.410645,0.5134775254794384,7.042814800461983e-06,6.865242356823842e-07,-0.18764756521575032,-7.43945232717369e-06,-0.18525492004492083
526,0.5145,888.431,-0.0859602,0.0594097,0.00705949,-0.0531491,0.0292878,0.41507,-0.208154,-0.205207,7.15552e-06,-3.24821e-07,-6.78994e-06,0.411305,0.5144767503541916,7.155545600712188e-06,-3.248209472506147e-07,-0.18791803354105796,-6.789916948357622e-06,-0.18552129813087537
527,0.5155,888.754,0.123219,-0.0394333,-0.00033402,0.0130748,-0.0202669,0.41573,-0.208485,-0.205536,7.04926e-06,6.38461e-07,-7.45313e-06,0.411964,0.5154766349350413,7.049284846072368e-06,6.384612039056492e-07,-0.18818678819060763,-7.453102225496444e-06,-0.18578921754862943
528,0.5165,888.96,-0.0982804,0.0649804,0.00744618,-0.0569398,0.0321037,0.41639,-0.208818,-0.205862,7.17584e-06,-4.89301e-07,-6.72841e-06,0.412623,0.5164771796575369,7.1758657465004205e-06,-4.893008802575594e-07,-0.18845707698455827,-6.7283873642631775e-06,-0.18605460700287724
529,0.5175,889.289,0.135978,-0.0454128,-0.000881967,0.0172047,-0.0232773,0.417049,-0.209148,-0.20619,7.05499e-06,5.96368e-07,-7.47087e-06,0.413282,0.51747686747989,7.055014886514499e-06,5.963681777299001e-07,-0.18872484196550154,-7.4708420930713615e-06,-0.1863215373128163
530,0.5185,889.487,-0.111731,0.0711604,0.00786081,-0.0610929,0.0352145,0.417708,-0.209481,-0.206516,7.1962e-06,-6.58837e-07,-6.66303e-06,0.41394,0.5184772143136385,7.196225892736052e-06,-6.588367830184794e-07,-0.188994951617374,-6.6630078020546435e-06,-0.18658675325910423
531,0.5195,889.822,0.149918,-0.0520087,-0.00146172,0.0217107,-0.0265879,0.418366,-0.209811,-0.206844,7.05982e-06,5.60686e-07,-7.49282e-06,0.414598,0.5194767011157528,7.059844920664915e-06,5.606861572804434e-07,-0.1892625391289725,-7.4927919289091705e-06,-0.18685350905369336
532,0.5205,890.012,-0.126402,0.0779638,0.00831144,-0.0656359,0.0386312,0.419024,-0.210143,-0.207169,7.21672e-06,-8.33862e-07,-6.59364e-06,0.415256,0.5204768457966014,7.216746040539235e-06,-8.338616522829412e-07,-0.18953165928956306,-6.593618262051848e-06,-0.18711773872360382
533,0.5215,890.353,0.165127,-0.0592408,-0.00208002,0.0266194,-0.0302113,0.419682,-0.210472,-0.207497,7.06365e-06,5.31829e-07,-7.51916e-06,0.415913,0.5214776487892108,7.063674947627163e-06,5.318291413924925e-07,-0.18979825951551488,-7.519131731137385e-06,-0.18738432038352026
534,0.5225,890.534,-0.142379,0.0854142,0.0088038,-0.0705949,0.0423678,0.420339,-0.210805,-0.207821,7.23749e-06,-1.01479e-06,-6.52007e-06,0.416569,0.5224775880485435,7.237516190583548e-06,-1.0147894851098016e-06,-0.19006801177885158,-6.520048744351747e-06,-0.18764756521575032
535,0.5235,890.883,0.181686,-0.0671361,-0.00274179,0.0319563,-0.0341626,0.420995,-0.211133,-0.208148,7.06641e-06,5.10191e-07,-7.55009e-06,0.417225,0.5234766610064054,7.066434967173407e-06,5.10191130231874e-07,-0.19033362590788971,-7.550061498107219e-06,-0.18791316103464173
536,0.5245,891.053,-0.15974,0.0935404,0.00934226,-0.0759945,0.0464401,0.421651,-0.211465,-0.208473,7.2586e-06,-1.20201e-06,-6.4421e-06,0.417881,0.5244763895711433,7.258626343764618e-06,-1.2020092775566482e-06,-0.1906023905266928,-6.442079249713295e-06,-0.1881770463736151
537,0.5255,891.411,0.199676,-0.0757255,-0.0034509,0.0377457,-0.038458,0.422307,-0.211793,-0.2088,7.06804e-06,4.96153e-07,-7.58581e-06,0.418536,0.5254767741729762,7.068064978632549e-06,4.961531230307514e-07,-0.19086782940824376,-7.585781227836819e-06,-0.18844246908047324
538,0.5265,891.571,-0.178563,0.102374,0.00993036,-0.0818589,0.0508641,0.422962,-0.212125,-0.209123,7.28008e-06,-1.39592e-06,-6.3595e-06,0.419191,0.5264762887653538,7.280106499862882e-06,-1.3959190257040177e-06,-0.19113641670092263,-6.3594797784505275e-06,-0.18870455983302514
539,0.5275,891.938,0.21917,-0.0850413,-0.00421055,0.0440114,-0.043114,0.423617,-0.212452,-0.20945,7.06849e-06,4.90084e-07,-7.62656e-06,0.419846,0.5274764582542446,7.0685149817784065e-06,4.900841201749273e-07,-0.1914008718518877,-7.626530917903551e-06,-0.1889698100711822
540,0.5285,892.086,-0.19892,0.111946,0.0105711,-0.0882111,0.0556564,0.424272,-0.212783,-0.209773,7.30201e-06,-1.59688e-06,-6.27206e-06,0.4205,0.5284772830687463,7.302036659773137e-06,-1.5968787250297822e-06,-0.19166847387272712,-6.2720403306570915e-06,-0.18923173052009956
541,0.5295,892.463,0.240241,-0.0951165,-0.00502349,0.0507757,-0.048147,0.424926,-0.21311,-0.210099,7.06772e-06,4.92337e-07,-7.67255e-06,0.421153,0.529477234160239,7.067744976385626e-06,4.923371212939287e-07,-0.19193275506944008,-7.672520566104346e-06,-0.18949599789802696
542,0.5305,892.598,-0.220879,0.12229,0.011267,-0.095073,0.0608331,0.425579,-0.213441,-0.210422,7.3244e-06,-1.80526e-06,-6.17956e-06,0.421806,0.5304763089565652,7.324426823496211e-06,-1.805258370568552e-06,-0.19220018106606807,-6.179540906536829e-06,-0.18975774841572157
543,0.5315,892.986,0.262957,-0.105983,-0.00589214,0.0580602,-0.0535731,0.426233,-0.213767,-0.210748,7.06571e-06,5.03247e-07,-7.72399e-06,0.422459,0.5314775678385895,7.065734962230508e-06,5.032471266375182e-07,-0.19246348088683785,-7.723960170014088e-06,-0.19002184433976355
544,0.5325,893.108,-0.244506,0.133436,0.0120206,-0.102465,0.0664096,0.426885,-0.214098,-0.21107,7.34732e-06,-2.02138e-06,-6.08178e-06,0.423111,0.5324764168021978,7.347346991704029e-06,-2.0213779570177337e-06,-0.19273073124229045,-6.0817615059605146e-06,-0.1902826153195052
545,0.5335,893.508,0.287382,-0.117672,-0.00681863,0.0658848,-0.0594073,0.427538,-0.214423,-0.211395,7.06241e-06,5.23129e-07,-7.78109e-06,0.423763,0.5334774507043678,7.0624349388648255e-06,5.23129136897893e-07,-0.1929930511253467,-7.781059727429707e-06,-0.19054573071095926
546,0.5345,893.616,-0.269859,0.145412,0.0128338,-0.110408,0.0724002,0.42819,-0.214755,-0.211717,7.3708e-06,-2.24556e-06,-5.97855e-06,0.424415,0.5344776040167762,7.370827164399074e-06,-2.2455574787416666e-06,-0.1932609329615277,-5.978532128469993e-06,-0.1908063330264459
547,0.5355,894.029,0.313574,-0.130212,-0.00780485,0.0742678,-0.0656637,0.428841,-0.215079,-0.212042,7.0578e-06,5.5227e-07,-7.84403e-06,0.425066,0.5354768741641331,7.057824906286925e-06,5.522701524984797e-07,-0.1935222740797008,-7.84399923570156e-06,-0.19106927823730113
548,0.5365,894.121,-0.296992,0.158247,0.0137084,-0.118917,0.0788182,0.429492,-0.21541,-0.212363,7.39487e-06,-2.47809e-06,-5.86966e-06,0.425716,0.5364767950481477,7.394897342027917e-06,-2.4780869295470964e-06,-0.19378917403260143,-5.8696427736038e-06,-0.19132890332693064
549,0.5375,894.547,0.341585,-0.14363,-0.00885242,0.0832257,-0.0723549,0.430143,-0.215733,-0.212688,7.05187e-06,5.90929e-07,-7.91297e-06,0.426366,0.5374773670925876,7.051894864495978e-06,5.909291747041578e-07,-0.19404953807833192,-7.912938692511418e-06,-0.19159167873003347
550,0.5385,894.624,-0.325954,0.171963,0.0146462,-0.128008,0.0856753,0.430793,-0.216064,-0.213008,7.41955e-06,-2.71924e-06,-5.75498e-06,0.427016,0.5384770522436746,7.419577525036303e-06,-2.7192363029060473e-06,-0.1943162635357295,-5.754963440129934e-06,-0.1918503280067484
551,0.5395,895.065,0.371461,-0.157947,-0.00996266,0.0927726,-0.079492,0.431443,-0.216387,-0.213334,7.04458e-06,6.3933e-07,-7.98807e-06,0.427665,0.5394773874013392,7.044604813044586e-06,6.39330204332822e-07,-0.19457645735904294,-7.988038095430028e-06,-0.19211374186102714
552,0.5405,895.124,-0.356782,0.18658,0.0156482,-0.137695,0.0929812,0.432092,-0.216718,-0.213653,7.44489e-06,-2.96922e-06,-5.63437e-06,0.428315,0.54047683251062,7.444917713206323e-06,-2.9692155918414898e-06,-0.19484300843502034,-5.6343541269265884e-06,-0.19237141647608724
553,0.5415,895.581,0.403238,-0.173184,-0.0111366,0.10292,-0.0870841,0.432741,-0.21704,-0.213978,7.03593e-06,6.97656e-07,-8.06945e-06,0.428963,0.5414769264703059,7.035954752154794e-06,6.976562434424238e-07,-0.1951022272498354,-8.069417442024829e-06,-0.19263385311746828
554,0.5425,895.622,-0.389508,0.202115,0.0167156,-0.147987,0.100744,0.43339,-0.217371,-0.214297,7.47089e-06,-3.22821e-06,-5.50772e-06,0.429611,0.5424776697016376,7.470917907204111e-06,-3.228204789373912e-06,-0.19536860432477776,-5.507704832541371e-06,-0.1928913618434983
555,0.5435,896.096,0.436945,-0.189355,-0.0123749,0.113677,-0.0951383,0.434038,-0.217692,-0.214622,7.02591e-06,7.66045e-07,-8.15718e-06,0.430259,0.543477519147838,7.025934681825774e-06,7.660452934210582e-07,-0.195626849552213,-8.15714673030321e-06,-0.19315362953009163
556,0.5445,896.118,-0.424152,0.218579,0.0178489,-0.158892,0.108969,0.434685,-0.218023,-0.214939,7.49757e-06,-3.49635e-06,-5.37495e-06,0.430906,0.5444764722292008,7.497598106809278e-06,-3.496343887743336e-06,-0.1958930530059091,-5.374935554969262e-06,-0.19340935929422143
557,0.5455,896.609,0.472601,-0.206471,-0.0136779,0.125048,-0.103659,0.435333,-0.218343,-0.215264,7.01453e-06,8.44585e-07,-8.25134e-06,0.431553,0.5454776173191827,7.014554601836309e-06,8.445853567629058e-07,-0.1961503260630627,-8.251305957829302e-06,-0.19367145865899704
558,0.5465,896.611,-0.460726,0.235979,0.0190483,-0.170413,0.11766,0.435979,-0.218674,-0.215581,7.52495e-06,-3.77373e-06,-5.23604e-06,0.432199,0.5464763184056904,7.524978312467567e-06,-3.773722879518715e-06,-0.19641635627470688,-5.236026291988161e-06,-0.19392702429730835
559,0.5475,897.121,0.510211,-0.224536,-0.0150455,0.137036,-0.112649,0.436626,-0.218994,-0.215906,7.00178e-06,9.33309e-07,-8.35194e-06,0.432845,0.5474772123379708,7.001804512629661e-06,9.333094355135074e-07,-0.19667346190160473,-8.35190512260553e-06,-0.19418895544829406
560,0.5485,897.102,-0.499226,0.254316,0.0203139,-0.182551,0.126816,0.437272,-0.219324,-0.216223,7.55303e-06,-4.06037e-06,-5.09096e-06,0.433491,0.5484772055801823,7.553058524178979e-06,-4.060361756708097e-06,-0.19693851592285838,-5.090947041042071e-06,-0.19444435706612184
561,0.5495,897.632,0.549771,-0.243551,-0.0164771,0.149639,-0.122107,0.437917,-0.219643,-0.216547,6.98768e-06,1.03219e-06,-8.45896e-06,0.434136,0.5494762955496595,6.9877044139854405e-06,1.0321905326016179e-06,-0.19719465168045358,-8.458924223075925e-06,-0.19470531481699394
562,0.5505,897.591,-0.53964,0.273585,0.0216449,-0.195301,0.136436,0.438563,-0.219974,-0.216863,7.58182e-06,-4.35626e-06,-4.93976e-06,0.434781,0.5504775806168403,7.581848742166386e-06,-4.356250511539095e-06,-0.1974603362775208,-4.939747799359573e-06,-0.19495974773499347
563,0.5515,898.141,0.591265,-0.263509,-0.0179719,0.162851,-0.132029,0.439207,-0.220292,-0.217188,6.97225e-06,1.14114e-06,-8.57236e-06,0.435425,0.5514764097672231,6.972274306127346e-06,1.1411406510841715e-06,-0.19771550331687493,-8.572323257460823e-06,-0.19522134330539687
564,0.5525,898.28,0.22493,-0.114746,-0.00175516,0.0474363,-0.0563507,0.439852,-0.220617,-0.217506,7.19742e-06,-3.83333e-07,-7.74917e-06,0.436069,0.5524774348474069,7.197445901496735e-06,-3.833329265123808e-07,-0.19797620341223676,-7.749139975254948e-06,-0.19547722223132025
565,0.5535,898.502,0.0518796,0.00724202,-0.00129765,-0.00888088,0.00103578,0.440496,-0.220942,-0.217825,7.19924e-06,-1.2066e-06,-7.03095e-06,0.436712,0.553477552318709,7.19926591452591e-06,-1.2065992720522445e-06,-0.19823681879383437,-7.030925282980327e-06,-0.1957338240672596
566,0.5545,898.739,0.061356,-0.0233598,0.0027048,-0.00441562,-0.0103408,0.441139,-0.221266,-0.218145,7.26137e-06,-1.15365e-06,-7.19498e-06,0.437356,0.5544767595955626,7.261396363755779e-06,-1.153649334506568e-06,-0.1984965479861439,-7.19495411616311e-06,-0.1959911480695219
567,0.5555,898.977,-0.00941081,0.0301591,0.00178986,-0.0278814,0.0135828,0.441782,-0.22159,-0.218463,7.25115e-06,-1.55646e-06,-6.86738e-06,0.437998,0.5554766095693002,7.2511762896354526e-06,-1.5564587887428871e-06,-0.19875619303982628,-6.867356419637538e-06,-0.19624678223644898
568,0.5565,899.232,0.0489328,-0.0121689,0.00214106,-0.0085992,-0.00567536,0.442425,-0.221913,-0.218783,7.25985e-06,-1.30263e-06,-7.11971e-06,0.43864,0.5564771026533089,7.259876352749828e-06,-1.3026291515449984e-06,-0.1990149529974916,-7.119684654943725e-06,-0.19650394211835776
569,0.5575,899.466,-0.019709,0.0312061,0.00269778,-0.0308554,0.0145373,0.443067,-0.222236,-0.219101,7.27283e-06,-1.69568e-06,-6.83641e-06,0.439282,0.5574766817837806,7.272856447082532e-06,-1.6956785623412074e-06,-0.19927362938918713,-6.836386631792202e-06,-0.19675941324270252
570,0.5585,899.726,0.0511157,-0.0105091,0.00152602,-0.00795604,-0.00522129,0.443709,-0.222559,-0.21942,7.25829e-06,-1.38845e-06,-7.094e-06,0.439924,0.5584769028500935,7.2583163415185226e-06,-1.388449036077155e-06,-0.1995322222419006,-7.093974837668604e-06,-0.19701560612494085
571,0.5595,899.954,-0.0240502,0.0311115,0.00312538,-0.0320267,0.0147754,0.44435,-0.222882,-0.219738,7.2872e-06,-1.81038e-06,-6.81295e-06,0.440565,0.5594762067875161,7.287226551744297e-06,-1.8103783612222202e-06,-0.1997907315826104,-6.812926791943674e-06,-0.19727091456599943
572,0.5605,900.218,0.0543122,-0.0105805,0.00108531,-0.00692771,-0.00545922,0.444991,-0.223204,-0.220056,7.25915e-06,-1.46897e-06,-7.07696e-06,0.441205,0.5604761514841039,7.259176347584884e-06,-1.4689689210589663e-06,-0.2000483574870442,-7.076934958383241e-06,-0.19752614183188144
573,0.5615,900.442,-0.0274233,0.0315202,0.00335836,-0.032941,0.0151307,0.445632,-0.223526,-0.220374,7.29826e-06,-1.92101e-06,-6.78781e-06,0.441846,0.5614767373507152,7.2982866323734186e-06,-1.9210081548814983e-06,-0.2003059004492912,-6.7877869628363285e-06,-0.19778128794839622
574,0.5625,900.708,0.0573679,-0.0112785,0.000766055,-0.00590716,-0.00591738,0.446272,-0.223848,-0.220692,7.26152e-06,-1.54917e-06,-7.06292e-06,0.442485,0.5624764023212885,7.261546364878413e-06,-1.5491688000190962e-06,-0.2005633604960545,-7.0628950575857274e-06,-0.19803635294134536
575,0.5635,900.929,-0.0305309,0.0323244,0.00349517,-0.0337988,0.0156137,0.446912,-0.22417,-0.221009,7.30749e-06,-2.0303e-06,-6.76106e-06,0.443125,0.5634767072822178,7.307516699750494e-06,-2.0302979389930087e-06,-0.20082073765402852,-6.761037144031867e-06,-0.19829053512745787
576,0.5645,901.196,0.0603018,-0.0123017,0.000515468,-0.00490547,-0.00648606,0.447552,-0.224491,-0.221327,7.26457e-06,-1.62912e-06,-7.05048e-06,0.443764,0.5644776526432285,7.264596387113187e-06,-1.6291186729633367e-06,-0.20107723302753155,-7.050455145374279e-06,-0.19854543820554993
577,0.5655,901.414,-0.0335451,0.0333695,0.0035813,-0.0346425,0.0161785,0.448191,-0.224813,-0.221644,7.31558e-06,-2.13887e-06,-6.73334e-06,0.444402,0.5654776733358513,7.315606758817594e-06,-2.1388677126088496e-06,-0.2013344447451878,-6.733317331142352e-06,-0.19879945903720975
578,0.5665,901.682,0.0631877,-0.0135124,0.000301996,-0.00390822,-0.00711995,0.448829,-0.225134,-0.221961,7.26782e-06,-1.70859e-06,-7.03903e-06,0.445041,0.5664767667683548,7.267846410696777e-06,-1.7085885403167467e-06,-0.20159077524517832,-7.0390052261393166e-06,-0.1990533993570277
579,0.5675,901.897,-0.0365349,0.0345596,0.00364072,-0.035487,0.0167947,0.449467,-0.225456,-0.222277,7.32291e-06,-2.24694e-06,-6.70505e-06,0.445678,0.5674764978258493,7.322936812492742e-06,-2.2469374756362015e-06,-0.2018478216288606,-6.705027521203277e-06,-0.19930645849738093
580,0.5685,902.166,0.0660691,-0.0148361,0.000108212,-0.00290666,-0.00779467,0.450105,-0.225776,-0.222594,7.27101e-06,-1.78746e-06,-7.02825e-06,0.446316,0.5684768669152687,7.271036433831313e-06,-1.7874584025134865e-06,-0.20210318946490646,-7.028225301963786e-06,-0.19956023812384127
581,0.5695,902.379,-0.0395315,0.0358391,0.0036863,-0.0363385,0.0174439,0.450742,-0.226097,-0.22291,7.32965e-06,-2.35462e-06,-6.67645e-06,0.446953,0.5694763049667182,7.329676861900225e-06,-2.3546172278621214e-06,-0.20235927323744385,-6.6764277125708205e-06,-0.19981313712844695
582,0.5705,902.648,0.0689658,-0.0162305,-7.52845e-05,-0.0018972,-0.00849597,0.451379,-0.226417,-0.223226,7.27399e-06,-1.86566e-06,-7.01794e-06,0.447589,0.5704763798630197,7.274016455616206e-06,-1.8656582596587867e-06,-0.20261447743515848,-7.0179153742744305e-06,-0.20006595622959267
583,0.5715,902.859,-0.0425471,0.0371753,0.00372489,-0.037199,0.0181149,0.452016,-0.226738,-0.223542,7.33594e-06,-2.46194e-06,-6.64768e-06,0.448225,0.5714770920099732,7.335966908161851e-06,-2.4619369694001136e-06,-0.2028703971105964,-6.647657904257365e-06,-0.20031869545252368
584,0.5725,903.129,0.0718841,-0.01767,-0.000253453,-0.000879386,-0.00921499,0.452652,-0.227057,-0.223858,7.27669e-06,-1.9432e-06,-7.00799e-06,0.448861,0.5724768693359807,7.276716475157485e-06,-1.9431981119755193e-06,-0.2031246408998777,-7.007965444061348e-06,-0.2005713548224778
585,0.5735,903.337,-0.0455832,0.0385482,0.00376006,-0.0380677,0.0188006,0.453288,-0.227377,-0.224173,7.34181e-06,-2.56888e-06,-6.61883e-06,0.449497,0.5734772827226133,7.341836951058056e-06,-2.568876700470568e-06,-0.20337960021912294,-6.618808095604223e-06,-0.20082313518821926
586,0.5745,903.608,0.074822,-0.0191384,-0.000428814,0.000145396,-0.00994565,0.453923,-0.227696,-0.224489,7.27908e-06,-2.0201e-06,-6.99832e-06,0.450131,0.5744767580969892,7.279106492674714e-06,-2.0200979595763613e-06,-0.20363368159851847,-6.998295511762009e-06,-0.20107563518039984
587,0.5755,903.813,-0.0486355,0.0399442,0.00379354,-0.0389427,0.0194957,0.454558,-0.228016,-0.224803,7.34731e-06,-2.67542e-06,-6.58997e-06,0.450766,0.5754768683397771,7.347336991481157e-06,-2.67541642107183e-06,-0.20388847805080024,-6.589948286173097e-06,-0.20132645804970184
588,0.5765,904.085,0.0777731,-0.0206243,-0.000602546,0.00117466,-0.0106834,0.455193,-0.228335,-0.225119,7.28113e-06,-2.0964e-06,-6.98885e-06,0.4514,0.5764776138542465,7.281156507499276e-06,-2.0963978025756447e-06,-0.20414239712405668,-6.988825578035929e-06,-0.2015787990169855
589,0.5775,904.288,-0.051696,0.0413534,0.0038261,-0.0398212,0.0201961,0.455827,-0.228655,-0.225433,7.35243e-06,-2.78152e-06,-6.56117e-06,0.452034,0.5774774175657169,7.352457029208281e-06,-2.7815161315336567e-06,-0.20439703081341376,-6.561148475525691e-06,-0.20182946391764522
590,0.5785,904.56,0.0807281,-0.0221187,-0.000775088,0.00220525,-0.0114243,0.45646,-0.228973,-0.225748,7.28285e-06,-2.17215e-06,-6.97954e-06,0.452667,0.5784762768766551,7.282876520076087e-06,-2.172147640866484e-06,-0.20464999233460157,-6.979515643101841e-06,-0.202080848041433
591,0.5795,904.761,-0.0547543,0.0427676,0.00385794,-0.0406997,0.0208982,0.457094,-0.229292,-0.226062,7.3572e-06,-2.88713e-06,-6.53246e-06,0.4533,0.5794773481422539,7.357227064241911e-06,-2.8871258322960003e-06,-0.20490366852354347,-6.532438663553464e-06,-0.20233135532344648
592,0.5805,905.034,0.0836762,-0.0236139,-0.000946474,0.00323356,-0.0121649,0.457727,-0.229609,-0.226377,7.28423e-06,-2.24741e-06,-6.97034e-06,0.453933,0.5804774738100069,7.284256529960231e-06,-2.2474074745648664e-06,-0.20515567411562485,-6.970315707288677e-06,-0.202582581376339
593,0.5815,905.233,-0.0577991,0.0441793,0.00388896,-0.0415745,0.0215984,0.458359,-0.229928,-0.22669,7.3616e-06,-2.99218e-06,-6.5039e-06,0.454565,0.5814766512802776,7.361627096580392e-06,-2.9921755234640912e-06,-0.20540918901780525,-6.503878849706268e-06,-0.2028321339713497
594,0.5825,905.507,0.0866051,-0.0251027,-0.00111651,0.00425568,-0.0129018,0.458991,-0.230246,-0.227004,7.28528e-06,-2.32225e-06,-6.9612e-06,0.455197,0.582476460430299,7.28530653781867e-06,-2.322247303565561e-06,-0.2056618287238553,-6.961175770925365e-06,-0.20308240538661415
595,0.5835,905.703,-0.0608177,0.0455817,0.0039189,-0.0424415,0.0222935,0.459623,-0.230564,-0.227317,7.36564e-06,-3.09663e-06,-6.47552e-06,0.455828,0.5834769016594195,7.365667126446596e-06,-3.096625205478709e-06,-0.20591438810325147,-6.475499033875565e-06,-0.20333180156119068
596,0.5845,905.977,0.0895022,-0.0265783,-0.00128488,0.00526749,-0.0136317,0.460254,-0.230881,-0.227631,7.286e-06,-2.39673e-06,-6.95208e-06,0.456459,0.5844763908900557,7.286026542985269e-06,-2.3967271278735325e-06,-0.20616607334800385,-6.952055834341664e-06,-0.20358191610546206
597,0.5855,906.171,-0.0637971,0.0469678,0.00394739,-0.0432966,0.0229801,0.460885,-0.231199,-0.227943,7.36931e-06,-3.2004e-06,-6.44738e-06,0.45709,0.5854765109974172,7.369337153395605e-06,-3.200394878777324e-06,-0.2064184724031024,-6.4473592157332504e-06,-0.20383035978840724
598,0.5865,906.446,0.0923539,-0.0280338,-0.00145118,0.00626476,-0.0143513,0.461516,-0.231515,-0.228257,7.28642e-06,-2.47092e-06,-6.94292e-06,0.45772,0.5864772623797125,7.286446546128644e-06,-2.470916947272528e-06,-0.2066692045480577,-6.9428958979766975e-06,-0.2040803178099705
599,0.5875,906.638,-0.0667238,0.0483308,0.00397402,-0.0441354,0.0236549,0.462146,-0.231833,-0.228569,7.37261e-06,-3.30344e-06,-6.41951e-06,0.458349,0.5874770579575506,7.372637177649466e-06,-3.3034345436888657e-06,-0.20692144363287135,-6.419489394948741e-06,-0.20432860601583958
600,0.5885,906.913,0.0951467,-0.0294625,-0.00161501,0.00724313,-0.0150572,0.462776,-0.232149,-0.228882,7.28652e-06,-2.54489e-06,-6.93369e-06,0.458979,0.5884774836050537,7.286546546803052e-06,-2.544886761768339e-06,-0.20717201686402775,-6.9336659620500285e-06,-0.2045776121906574
601,0.5895,907.103,-0.069584,0.049664,0.00399836,-0.0449537,0.0243145,0.463405,-0.232467,-0.229194,7.37553e-06,-3.40567e-06,-6.39196e-06,0.459608,0.589476950241546,7.37555719920735e-06,-3.4056642007618265e-06,-0.20742409607994539,-6.3919395714151506e-06,-0.2048257452648815
602,0.5905,907.379,0.0978667,-0.0308575,-0.00177589,0.00819823,-0.015746,0.464034,-0.232782,-0.229507,7.28633e-06,-2.61871e-06,-6.92434e-06,0.460236,0.590477045740309,7.286356545455064e-06,-2.6187065711447133e-06,-0.20767371817213653,-6.9243160267795645e-06,-0.20507459585946386
603,0.5915,907.566,-0.072364,0.0509606,0.00401995,-0.0457469,0.0249556,0.464662,-0.233099,-0.229818,7.37807e-06,-3.50704e-06,-6.36478e-06,0.460865,0.5914761790200469,7.378097218069257e-06,-3.5070338503251364e-06,-0.20792484579764436,-6.36475974480355e-06,-0.20532177922114647
604,0.5925,907.843,0.1005,-0.0322121,-0.0019334,0.00912566,-0.0164143,0.465291,-0.233414,-0.23013,7.28585e-06,-2.69246e-06,-6.91483e-06,0.461492,0.592477532429283,7.285876541862635e-06,-2.6924563752972475e-06,-0.2081743101785154,-6.914806092606085e-06,-0.20556968015147337
605,0.5935,908.028,-0.07505,0.0522138,0.00403833,-0.0465108,0.0255748,0.465918,-0.233731,-0.230441,7.38022e-06,-3.60746e-06,-6.33801e-06,0.46212,0.5934763289320986,7.380247233790271e-06,-3.6074534931485047e-06,-0.20842527914150655,-6.3379899148952035e-06,-0.20581670956588127
606,0.5945,908.306,0.103033,-0.0335195,-0.00208706,0.0100211,-0.017059,0.466546,-0.234045,-0.230753,7.28509e-06,-2.7662e-06,-6.9051e-06,0.462747,0.5944773463532393,7.285116536248637e-06,-2.7661961741198837e-06,-0.20867379458488966,-6.905076159857693e-06,-0.2060644561020274
607,0.5955,908.488,-0.0776283,0.053417,0.00405306,-0.047241,0.0261689,0.467173,-0.234362,-0.231064,7.38198e-06,-3.70688e-06,-6.31169e-06,0.463373,0.5954773971325598,7.3820072468144815e-06,-3.7068731295608615e-06,-0.20892460523641765,-6.311670081360354e-06,-0.2063113316650398
608,0.5965,908.766,0.105453,-0.0347732,-0.00223643,0.0108801,-0.0176767,0.467799,-0.234676,-0.231375,7.28405e-06,-2.84001e-06,-6.89511e-06,0.464,0.5964764786630574,7.284076528835115e-06,-2.840005967175152e-06,-0.20917296391602014,-6.895086228753122e-06,-0.2065581304616898
609,0.5975,908.947,-0.0800857,0.0545636,0.00406369,-0.0479332,0.0267346,0.468425,-0.234992,-0.231685,7.38334e-06,-3.80524e-06,-6.28587e-06,0.464625,0.597476185814392,7.383367256919016e-06,-3.8052327601123537e-06,-0.20942282577916904,-6.285850243981095e-06,-0.2068040593203041
610,0.5985,909.226,0.107745,-0.0359666,-0.00238109,0.0116987,-0.0182642,0.469051,-0.235306,-0.231997,7.28276e-06,-2.91396e-06,-6.88482e-06,0.465251,0.598476518978325,7.2827865194025065e-06,-2.9139557544688444e-06,-0.20967102804207982,-6.8847962997331535e-06,-0.2070514978513781
611,0.5995,909.404,-0.0824093,0.0556473,0.0040698,-0.0485834,0.0272688,0.469677,-0.235621,-0.232306,7.3843e-06,-3.90246e-06,-6.26058e-06,0.465876,0.5994774785468626,7.384327264103874e-06,-3.902452385462496e-06,-0.20991994246216716,-6.260560402648885e-06,-0.20729648108668297
612,0.6005,909.683,0.109898,-0.0370936,-0.00252061,0.0124728,-0.0188185,0.470302,-0.235935,-0.232617,7.28121e-06,-2.98811e-06,-6.87418e-06,0.4665,0.6004774644339925,7.281236508172029e-06,-2.9881055355618358e-06,-0.2101679886549438,-6.874156372904672e-06,-0.20754297354950024
613,0.6015,909.86,-0.0845868,0.0566621,0.00407098,-0.0491877,0.0277685,0.470926,-0.23625,-0.232927,7.38485e-06,-3.9985e-06,-6.23587e-06,0.467125,0.6014764740303775,7.384877268146184e-06,-3.998492006052068e-06,-0.21041674655709097,-6.235850557034794e-06,-0.20778859715407416
614,0.6025,910.139,0.111899,-0.0381483,-0.00265461,0.0131986,-0.0193366,0.471551,-0.236563,-0.233237,7.27942e-06,-3.06252e-06,-6.86316e-06,0.467749,0.6024777096801948,7.279446495145336e-06,-3.0625153104590908e-06,-0.21066384744211275,-6.8631364485982616e-06,-0.20803414462713166
615,0.6035,910.314,-0.0866064,0.0576021,0.00406684,-0.0497422,0.0282309,0.472174,-0.236878,-0.233546,7.38499e-06,-4.09329e-06,-6.21177e-06,0.468372,0.6034763643419521,7.385017269045946e-06,-4.0932816225414115e-06,-0.21091244917334018,-6.2117507070302835e-06,-0.20827882427148992
616,0.6045,910.594,0.113738,-0.0391249,-0.00278271,0.0138724,-0.0198157,0.472798,-0.23719,-0.233856,7.27739e-06,-3.13726e-06,-6.85172e-06,0.468995,0.6044772458358509,7.2774164803224295e-06,-3.137255078833334e-06,-0.21115860608672277,-6.851696527032658e-06,-0.2085242197976941
617,0.6055,910.767,-0.0884572,0.0584619,0.00405703,-0.0502436,0.0286532,0.473421,-0.237505,-0.234165,7.38471e-06,-4.18677e-06,-6.18832e-06,0.469618,0.605477146596753,7.384737267024377e-06,-4.186761235480674e-06,-0.21140705199352083,-6.188300852416617e-06,-0.20876874803221868
618,0.6065,911.046,0.115402,-0.0400183,-0.00290458,0.0144908,-0.0202534,0.474044,-0.237817,-0.234474,7.27512e-06,-3.21238e-06,-6.83983e-06,0.47024,0.6064776704899144,7.275146463703308e-06,-3.2123748403556363e-06,-0.21165305461489436,-6.839806608427423e-06,-0.2090132007191915
619,0.6075,911.218,-0.090129,0.0592365,0.00404123,-0.0506885,0.029033,0.474666,-0.238131,-0.234782,7.38401e-06,-4.2789e-06,-6.16555e-06,0.470862,0.6074772104256536,7.384037261859433e-06,-4.278890845532679e-06,-0.21190055669588503,-6.165530993085255e-06,-0.20925678713913565
620,0.6085,911.498,0.116884,-0.0408236,-0.0030199,0.0150508,-0.0206472,0.475288,-0.238443,-0.235092,7.27264e-06,-3.28793e-06,-6.82744e-06,0.471484,0.6084773722686261,7.2726664457345436e-06,-3.2879245948080893e-06,-0.2121464053678087,-6.827416693111488e-06,-0.20950187954383703
621,0.6095,911.668,-0.0916128,0.0599213,0.00401914,-0.0510741,0.0293681,0.475909,-0.238756,-0.2354,7.38289e-06,-4.36964e-06,-6.14349e-06,0.472105,0.6094765469284265,7.382917253551113e-06,-4.369630453138207e-06,-0.21239296495434035,-6.1434711288166355e-06,-0.20974531547387987
622,0.6105,911.947,0.118173,-0.0415366,-0.00312841,0.0155497,-0.020995,0.47653,-0.239068,-0.235709,7.26994e-06,-3.36397e-06,-6.81454e-06,0.472726,0.6104763422683919,7.269966425971219e-06,-3.363964341862591e-06,-0.21263866001885146,-6.8145167810840235e-06,-0.20998946644813032
623,0.6115,912.116,-0.0929003,0.0605122,0.00399051,-0.0513978,0.0296564,0.477151,-0.239381,-0.236016,7.38134e-06,-4.45894e-06,-6.12217e-06,0.473346,0.6114767586740844,7.381367242098591e-06,-4.458930058959254e-06,-0.21288506555378772,-6.122151259502218e-06,-0.2102319624568888
624,0.6125,912.396,0.119263,-0.0421532,-0.00322988,0.015985,-0.0212949,0.477771,-0.239692,-0.236325,7.26702e-06,-3.44053e-06,-6.80109e-06,0.473966,0.6124761840543154,7.267046404857425e-06,-3.440524081410601e-06,-0.2131298202370745,-6.801066872674788e-06,-0.2104759630804518
625,0.6135,912.563,-0.0939846,0.0610056,0.00395511,-0.0516573,0.0298963,0.478391,-0.240005,-0.236631,7.37936e-06,-4.54677e-06,-6.1016e-06,0.474586,0.6134762292704112,7.379387227501866e-06,-4.5467596634374274e-06,-0.2133760720629191,-6.101581385253851e-06,-0.2107175204755829
626,0.6145,912.842,0.120147,-0.0426703,-0.0033241,0.0163547,-0.0215454,0.479011,-0.240315,-0.23694,7.2639e-06,-3.51765e-06,-6.78707e-06,0.475205,0.6144768947067896,7.2639263821727695e-06,-3.517643813122362e-06,-0.2136198876872053,-6.787046967882127e-06,-0.21096137108489654
627,0.6155,913.008,-0.0948599,0.0613986,0.00391278,-0.0518507,0.0300862,0.47963,-0.240628,-0.237246,7.37696e-06,-4.6331e-06,-6.08181e-06,0.475824,0.615476565270733,7.376987209761765e-06,-4.633089267236379e-06,-0.2138659861459412,-6.0817915058519745e-06,-0.2112027799679017
628,0.6165,913.287,0.120819,-0.0430852,-0.00341092,0.016657,-0.021745,0.480249,-0.240938,-0.237554,7.26057e-06,-3.59536e-06,-6.77247e-06,0.476442,0.6164768548223123,7.260596357916427e-06,-3.5953535366672895e-06,-0.2141096499203996,-6.772447066927256e-06,-0.21144569210128272
629,0.6175,913.452,-0.0955216,0.0616887,0.00386337,-0.0519767,0.0302251,0.480867,-0.24125,-0.23786,7.37413e-06,-4.71791e-06,-6.06281e-06,0.477061,0.6174761462678449,7.3741571888774615e-06,-4.71789887068752e-06,-0.2143548094627471,-6.062791621186392e-06,-0.2116869528047296
630,0.6185,913.731,0.121276,-0.0433957,-0.00349024,0.0168908,-0.0218929,0.481486,-0.24156,-0.238168,7.25705e-06,-3.67369e-06,-6.75728e-06,0.477678,0.6184776739432214,7.25707633253414e-06,-3.6736832520478657e-06,-0.21459832172546278,-6.757257169587305e-06,-0.21192971583583986
631,0.6195,913.895,-0.0959662,0.0618742,0.0038068,-0.052034,0.030312,0.482103,-0.241872,-0.238474,7.37087e-06,-4.80118e-06,-6.04462e-06,0.478296,0.619476582799737,7.370897164848955e-06,-4.801168474344308e-06,-0.21484332882598922,-6.044601731369781e-06,-0.21217082845068258
632,0.6205,914.173,0.121516,-0.0436004,-0.00356199,0.0170551,-0.0219883,0.48272,-0.242181,-0.238781,7.25333e-06,-3.75264e-06,-6.74147e-06,0.478913,0.6204761081731931,7.253356305358949e-06,-3.7526329588200014e-06,-0.21508590475747047,-6.74144727630388e-06,-0.21241265488409133
633,0.6215,914.336,-0.096192,0.0619539,0.00374302,-0.0520221,0.0303464,0.483337,-0.242493,-0.239086,7.36718e-06,-4.8829e-06,-6.02723e-06,0.479529,0.621476250444098,7.367207137676246e-06,-4.882888078650005e-06,-0.21533075975582017,-6.0272118362902916e-06,-0.21265283239541932
634,0.6225,914.613,0.121536,-0.0436985,-0.00362615,0.0171495,-0.0220309,0.483954,-0.242802,-0.239393,7.24941e-06,-3.83224e-06,-6.72505e-06,0.480145,0.6224770099931947,7.2494362770569865e-06,-3.832232656986179e-06,-0.21557318509441192,-6.725027386855764e-06,-0.21289451087632894
635,0.6235,914.776,-0.096198,0.0619272,0.00367203,-0.0519407,0.030328,0.48457,-0.243113,-0.239698,7.36307e-06,-4.96307e-06,-6.01065e-06,0.480761,0.623476763723886,7.3630971073601614e-06,-4.963057683937677e-06,-0.21581710390250686,-6.010631936059774e-06,-0.21313454144398936
636,0.6245,915.052,0.121337,-0.0436897,-0.00368274,0.017174,-0.0220205,0.485186,-0.243421,-0.240004,7.24531e-06,-3.91249e-06,-6.70802e-06,0.481377,0.6244771334925956,7.245336247407863e-06,-3.912482346213331e-06,-0.2160585950429602,-6.707997501242957e-06,-0.21337528543859785
637,0.6255,915.214,-0.095985,0.0617944,0.00359387,-0.0517901,0.0302571,0.485801,-0.243732,-0.240309,7.35853e-06,-5.04169e-06,-5.99488e-06,0.481992,0.6254764942016131,7.358557074121919e-06,-5.041677290651414e-06,-0.21630236291203342,-5.99486203078925e-06,-0.21361516939237657
638,0.6265,915.49,0.120919,-0.0435745,-0.00373183,0.0171289,-0.0219574,0.486416,-0.24404,-0.240615,7.24101e-06,-3.99338e-06,-6.69037e-06,0.482607,0.6264764697064968,7.241036216187879e-06,-3.99337202650063e-06,-0.21654370461572625,-6.690347619575654e-06,-0.2138557663373325
639,0.6275,915.651,-0.0955549,0.0615561,0.00350863,-0.0515707,0.030134,0.487031,-0.244351,-0.240919,7.35356e-06,-5.11877e-06,-5.9799e-06,0.483221,0.6274770603854627,7.353587037517428e-06,-5.11875689912511e-06,-0.21678732163918002,-5.979882120477065e-06,-0.21409471786189394
640,0.6285,915.926,0.120287,-0.043354,-0.00377354,0.0170152,-0.0218423,0.487645,-0.244658,-0.241225,7.23652e-06,-4.07491e-06,-6.67212e-06,0.483835,0.6284766381395068,7.2365461836199074e-06,-4.07490169751501e-06,-0.21702773102670758,-6.67209774141142e-06,-0.21433516808746744
641,0.6295,916.087,-0.094911,0.0612138,0.00341643,-0.0512836,0.0299594,0.488259,-0.244968,-0.241529,7.34819e-06,-5.19433e-06,-5.96572e-06,0.484448,0.6294768298227489,7.348216997993262e-06,-5.194316509471442e-06,-0.21727041481215914,-5.965702205124046e-06,-0.21457397389604682
642,0.6305,916.36,0.119442,-0.04303,-0.00380801,0.0168339,-0.0216759,0.488873,-0.245276,-0.241834,7.23183e-06,-4.15705e-06,-6.65328e-06,0.485062,0.6304776358122572,7.23185614970312e-06,-4.1570413594760325e-06,-0.21751145840177866,-6.653257866973128e-06,-0.21481349230559432
643,0.6315,916.521,-0.0940577,0.0607695,0.00331746,-0.0509303,0.0297344,0.489486,-0.245585,-0.242138,7.34239e-06,-5.26839e-06,-5.95232e-06,0.485675,0.6314774250070907,7.342416955324893e-06,-5.268376122025131e-06,-0.2177532100085856,-5.9523022849505836e-06,-0.21505215272571154
644,0.6325,916.793,0.118392,-0.0426047,-0.00383544,0.0165868,-0.0214595,0.490098,-0.245892,-0.242443,7.22695e-06,-4.2398e-06,-6.63386e-06,0.486287,0.6324761947835731,7.226976114438344e-06,-4.239791012050631e-06,-0.21799332291389617,-6.63383799603956e-06,-0.21529152531295503
645,0.6335,916.954,-0.0930008,0.0602258,0.00321192,-0.0505124,0.0294602,0.490711,-0.246202,-0.242746,7.33619e-06,-5.34098e-06,-5.93967e-06,0.486899,0.6334772094706311,7.3362169099588925e-06,-5.3409657370107055e-06,-0.2182357074122545,-5.93965236017624e-06,-0.21552925596277295
646,0.6345,917.225,0.117141,-0.042081,-0.00385607,0.0162758,-0.0211946,0.491323,-0.246508,-0.24305,7.22188e-06,-4.32312e-06,-6.61388e-06,0.487511,0.6344772034897852,7.2219060778255795e-06,-4.323110655346518e-06,-0.2184748906888787,-6.613858128390326e-06,-0.21576769882380908
647,0.6355,917.386,-0.091747,0.0595859,0.00310007,-0.0500323,0.0291386,0.491934,-0.246817,-0.243353,7.32958e-06,-5.41213e-06,-5.92775e-06,0.488122,0.6354761742155961,7.329606861450344e-06,-5.412115354430647e-06,-0.21871634464109901,-5.927732430910382e-06,-0.21600528521490947
648,0.6365,917.655,0.115697,-0.0414624,-0.00387017,0.0159033,-0.0208828,0.492546,-0.247123,-0.243657,7.21661e-06,-4.40697e-06,-6.59337e-06,0.488733,0.6364773919756006,7.2166360398639995e-06,-4.406960289360384e-06,-0.21895538086523136,-6.593348263805865e-06,-0.21624358338504712
649,0.6375,917.816,-0.0903044,0.0588534,0.00298218,-0.0494924,0.0287713,0.493157,-0.247432,-0.24396,7.32258e-06,-5.48189e-06,-5.91654e-06,0.489344,0.6374775851900087,7.3226068102449915e-06,-5.481874974511136e-06,-0.21919668636892375,-5.9165224972623776e-06,-0.2164810256049685
650,0.6385,918.084,0.114069,-0.040753,-0.00387803,0.0154719,-0.0205262,0.493767,-0.247738,-0.244263,7.21114e-06,-4.49133e-06,-6.57235e-06,0.489954,0.6384767512316349,7.211166000331559e-06,-4.491319913979552e-06,-0.2194355756309737,-6.572328402176808e-06,-0.21671839589079578
651,0.6395,918.245,-0.0886819,0.0580327,0.00285857,-0.0488955,0.0283604,0.494377,-0.248046,-0.244565,7.31518e-06,-5.55029e-06,-5.90601e-06,0.490564,0.639476526950479,7.315206755897918e-06,-5.550274597143634e-06,-0.21967595245374838,-5.9059925595628116e-06,-0.2169549112196245
652,0.6405,918.511,0.112266,-0.039957,-0.00388001,0.0149846,-0.0201269,0.494987,-0.248351,-0.244869,7.20546e-06,-4.57614e-06,-6.55085e-06,0.491173,0.6404769127185577,7.205485959449476e-06,-4.576129529532125e-06,-0.21991391499711743,-6.550828543283593e-06,-0.21719292074733254
653,0.6415,918.673,-0.0868892,0.0571283,0.0027296,-0.0482447,0.0279084,0.495596,-0.248659,-0.245171,7.3074e-06,-5.6174e-06,-5.89612e-06,0.491782,0.6414762674310264,7.307426699076913e-06,-5.617384222444954e-06,-0.22015414451405357,-5.8961026179193965e-06,-0.21742929279129175
654,0.6425,918.937,0.110299,-0.0390795,-0.00387644,0.0144446,-0.0196876,0.496205,-0.248964,-0.245474,7.19957e-06,-4.66136e-06,-6.5289e-06,0.492391,0.6424762309358736,7.199595916995705e-06,-4.6613491359037695e-06,-0.22039196123108384,-6.528878686795636e-06,-0.21766637579568693
655,0.6435,919.099,-0.0849371,0.0561453,0.00259563,-0.0475434,0.0274176,0.496814,-0.249272,-0.245775,7.29924e-06,-5.68326e-06,-5.88684e-06,0.492999,0.6434768036039664,7.2992666395599315e-06,-5.6832438503073845e-06,-0.22063204353245236,-5.886822672551695e-06,-0.21790182278002368
656,0.6445,919.361,0.108178,-0.0381257,-0.00386773,0.0138555,-0.0192106,0.497422,-0.249577,-0.246078,7.19347e-06,-4.74693e-06,-6.50655e-06,0.493607,0.6444763413292351,7.193495872970246e-06,-4.746918733311567e-06,-0.22086971451250803,-6.506528832495029e-06,-0.21813876262952137
657,0.6455,919.524,-0.0828369,0.0550891,0.00245705,-0.0467953,0.0268909,0.49803,-0.249883,-0.246379,7.29071e-06,-5.74793e-06,-5.87814e-06,0.494215,0.6454764869582246,7.2907365773478006e-06,-5.747913480735889e-06,-0.2211080919062659,-5.878122723790291e-06,-0.2183740674468183
658,0.6465,919.784,0.105915,-0.0371011,-0.00385427,0.013221,-0.018699,0.498638,-0.250188,-0.246681,7.18715e-06,-4.8328e-06,-6.48381e-06,0.494822,0.6464772408606532,7.1871758275943165e-06,-4.832788322084447e-06,-0.22134561771370753,-6.483788980160554e-06,-0.2186100828383315
659,0.6475,919.947,-0.0806006,0.0539655,0.00231428,-0.046004,0.0263311,0.499245,-0.250494,-0.246981,7.28181e-06,-5.81147e-06,-5.86997e-06,0.495429,0.6474769559286833,7.2818365124405204e-06,-5.811453113402365e-06,-0.2215838495033644,-5.869952771742071e-06,-0.21884446465444962
660,0.6485,920.206,0.103523,-0.0360118,-0.00383649,0.012545,-0.0181555,0.499852,-0.250799,-0.247283,7.18061e-06,-4.91892e-06,-6.46075e-06,0.496035,0.6484772780079691,7.180635780645872e-06,-4.91890790210725e-06,-0.2218212302268654,-6.460729129353915e-06,-0.21908033800745497
661,0.6495,920.37,-0.0782406,0.0527805,0.00216774,-0.0451737,0.0257412,0.500458,-0.251105,-0.247584,7.27257e-06,-5.87395e-06,-5.86229e-06,0.496642,0.6494765579896953,7.2725964452846625e-06,-5.873932748423627e-06,-0.22205931650135813,-5.862272816847813e-06,-0.21931535945321268
662,0.6505,920.626,0.101013,-0.0348637,-0.00381483,0.0118314,-0.0175833,0.501064,-0.251408,-0.247885,7.17384e-06,-5.00521e-06,-6.43739e-06,0.497247,0.6504764437186135,7.173865732124085e-06,-5.005197473928469e-06,-0.22229499682108667,-6.437369280076766e-06,-0.21955031016816084
663,0.6515,920.79,-0.0757697,0.0515403,0.00201788,-0.0443083,0.0251242,0.50167,-0.251714,-0.248185,7.26298e-06,-5.93543e-06,-5.85507e-06,0.497853,0.6514769355619174,7.26300637543531e-06,-5.93541238536055e-06,-0.22253293814518016,-5.855052859105037e-06,-0.2197844099583861
664,0.6525,921.045,0.0984,-0.0336632,-0.00378972,0.0110844,-0.0169853,0.502275,-0.252018,-0.248486,7.16683e-06,-5.09163e-06,-6.41377e-06,0.498458,0.6524763814098162,7.1668556818060836e-06,-5.091617037655816e-06,-0.2227692522104262,-6.413749431777305e-06,-0.22001921951037817
665,0.6535,921.21,-0.0732012,0.0502512,0.00186514,-0.043412,0.0244833,0.50288,-0.252323,-0.248786,7.25305e-06,-5.99598e-06,-5.84825e-06,0.499063,0.653476432105401,7.25307630333738e-06,-5.995962024107904e-06,-0.22300627144123197,-5.848232899063888e-06,-0.2202531786488996
666,0.6545,921.463,0.0956961,-0.0324167,-0.00376162,0.0103082,-0.016365,0.503485,-0.252626,-0.249087,7.15959e-06,-5.17809e-06,-6.38994e-06,0.499667,0.6544770880147153,7.1596156299147395e-06,-5.178076593725933e-06,-0.22324166487707875,-6.389919584348647e-06,-0.22048784712274927
667,0.6555,921.628,-0.0705484,0.0489196,0.00170997,-0.042489,0.0238217,0.504089,-0.252931,-0.249386,7.24279e-06,-6.05567e-06,-5.84179e-06,0.500271,0.6554766940265024,7.2428162289917e-06,-6.055651664449435e-06,-0.22347854004399204,-5.841772936832079e-06,-0.22072088641534915
668,0.6565,921.879,0.0929149,-0.0311306,-0.00373098,0.00950708,-0.0157253,0.504693,-0.253234,-0.249686,7.1521e-06,-5.26455e-06,-6.36595e-06,0.500874,0.6564769039826932,7.152125576226354e-06,-5.264536142246534e-06,-0.2237137904041293,-6.3659297373508394e-06,-0.22095463508537083
669,0.6575,922.046,-0.0678244,0.0475521,0.00155282,-0.0415436,0.0231427,0.505297,-0.253538,-0.249985,7.23222e-06,-6.11456e-06,-5.83566e-06,0.501478,0.657477718248181,7.232246152621968e-06,-6.114541306168064e-06,-0.22394974554484792,-5.835642972518151e-06,-0.2211875348292336
670,0.6585,922.294,0.0900697,-0.0298115,-0.00369824,0.00868523,-0.0150696,0.5059,-0.253841,-0.250285,7.14436e-06,-5.35093e-06,-6.34183e-06,0.502081,0.6584774787097705,7.14438552096297e-06,-5.350915683766111e-06,-0.22418485315134662,-6.341809890675343e-06,-0.22142114352572817
671,0.6595,922.461,-0.0650427,0.0461551,0.00139413,-0.04058,0.0224493,0.506502,-0.254145,-0.250584,7.22133e-06,-6.17273e-06,-5.8298e-06,0.502683,0.659476182731703,7.221356073783269e-06,-6.172710948715299e-06,-0.22442066511075476,-5.8297830067832734e-06,-0.2216539038044183
672,0.6605,922.708,0.0871738,-0.0284658,-0.00366385,0.00784688,-0.0144011,0.507105,-0.254447,-0.250883,7.13636e-06,-5.43718e-06,-6.31762e-06,0.503285,0.6604771486307788,7.136385463901718e-06,-5.437165218613593e-06,-0.22465485470548252,-6.317600043881377e-06,-0.22188659449818848
673,0.6615,922.876,-0.0622164,0.0447349,0.00123435,-0.0396024,0.0217448,0.507707,-0.254751,-0.251181,7.21014e-06,-6.23024e-06,-5.82418e-06,0.503887,0.661477056816421,7.2101659931433915e-06,-6.230220592096103e-06,-0.22489052380613384,-5.824163039513941e-06,-0.22211843774666828
674,0.6625,923.12,0.0842402,-0.0270999,-0.00362825,0.00699615,-0.0137228,0.508309,-0.255053,-0.251481,7.1281e-06,-5.52321e-06,-6.29338e-06,0.504488,0.6624775671280123,7.128125405042596e-06,-5.5231947471146015e-06,-0.22512457152496002,-6.293360196751863e-06,-0.22235176721417416
675,0.6635,923.289,-0.0593583,0.043298,0.0010739,-0.0386149,0.0210323,0.50891,-0.255356,-0.251779,7.19865e-06,-6.28717e-06,-5.81874e-06,0.50509,0.6634770164502941,7.198675910258245e-06,-6.287150235761985e-06,-0.22535932321311114,-5.818723071149279e-06,-0.22258347186183713
676,0.6645,923.531,0.0812817,-0.0257199,-0.00359186,0.00613711,-0.0130379,0.509511,-0.255657,-0.252077,7.11957e-06,-5.60899e-06,-6.26913e-06,0.50569,0.664477066622156,7.1195953441627324e-06,-5.60897426959972e-06,-0.2255924549687347,-6.269110349066409e-06,-0.22281510747180222
677,0.6655,923.701,-0.056481,0.0418503,0.0009132,-0.0376214,0.0203148,0.510112,-0.25596,-0.252375,7.18688e-06,-6.34356e-06,-5.81345e-06,0.506291,0.6654777180048166,7.186905825573575e-06,-6.3435398797162534e-06,-0.22582706490967808,-5.813433101908849e-06,-0.22304667406463974
678,0.6665,923.941,0.0783107,-0.024332,-0.00355508,0.00527366,-0.0123493,0.510712,-0.256261,-0.252673,7.11077e-06,-5.69443e-06,-6.24492e-06,0.506891,0.666477304481575,7.110795281484172e-06,-5.694413786727637e-06,-0.2260600558962378,-6.244900500496087e-06,-0.22327817166091335
679,0.6675,924.112,-0.0535966,0.040398,0.000752649,-0.0366258,0.0195953,0.511312,-0.256564,-0.252971,7.17483e-06,-6.3995e-06,-5.80828e-06,0.50749,0.6674774908901808,7.174855739089381e-06,-6.3994795231892e-06,-0.22629452417556295,-5.808263132012215e-06,-0.2235096002811814
680,0.6685,924.349,0.0753389,-0.022942,-0.00351831,0.00440959,-0.01166,0.511911,-0.256865,-0.253269,7.1017e-06,-5.7795e-06,-6.22079e-06,0.508089,0.6684766091132581,7.10172521722896e-06,-5.7794832987179134e-06,-0.2265273744780576,-6.220770650933183e-06,-0.2237409599459954
681,0.6695,924.521,-0.0507167,0.0389466,0.000592629,-0.0356319,0.0188766,0.51251,-0.257167,-0.253566,7.16251e-06,-6.45504e-06,-5.80317e-06,0.508688,0.6694763259874292,7.16253565080649e-06,-6.455019166295983e-06,-0.22676092794261693,-5.803153161676455e-06,-0.2239714746477638
682,0.6705,924.757,0.0723779,-0.0215555,-0.00348192,0.00354852,-0.0109727,0.513109,-0.257467,-0.253863,7.09234e-06,-5.86412e-06,-6.19678e-06,0.509287,0.6704766418713934,7.092365150729307e-06,-5.8641028061190426e-06,-0.22699286487195525,-6.19676080004794e-06,-0.22420192089683144
683,0.6715,924.929,-0.0478525,0.0375017,0.000433503,-0.034643,0.0181613,0.513708,-0.257769,-0.25416,7.14992e-06,-6.51023e-06,-5.7981e-06,0.509885,0.6714775571240652,7.149945560724902e-06,-6.510208808485629e-06,-0.22722627777964088,-5.798083191010939e-06,-0.22443229871352588
684,0.6725,925.163,0.0694382,-0.0201777,-0.00344626,0.00269386,-0.01029,0.514306,-0.258069,-0.254457,7.0827e-06,-5.94825e-06,-6.17291e-06,0.510483,0.6724773996263378,7.08272508243013e-06,-5.948232309149759e-06,-0.22745807512496663,-6.172890947619969e-06,-0.2246626081181684
685,0.6735,925.336,-0.0450143,0.0360684,0.000275611,-0.0336627,0.017452,0.514903,-0.25837,-0.254753,7.13707e-06,-6.56514e-06,-5.79302e-06,0.51108,0.6734761667362328,7.137095468845445e-06,-6.565118449541885e-06,-0.22769057525132963,-5.793003220455617e-06,-0.22489207402353606
686,0.6745,925.567,0.0665301,-0.0188138,-0.00341166,0.00184883,-0.00961431,0.515501,-0.25867,-0.25505,7.07276e-06,-6.03184e-06,-6.14922e-06,0.511678,0.6744772047644803,7.07278501210773e-06,-6.03182180847206e-06,-0.2279222333283053,-6.149201093541556e-06,-0.22512224689518767
687,0.6755,925.741,-0.0422119,0.0346514,0.00011927,-0.0326939,0.0167511,0.516098,-0.258971,-0.255346,7.12398e-06,-6.61982e-06,-5.78791e-06,0.512274,0.675477166114488,7.124005375613862e-06,-6.619798089024798e-06,-0.22815459376407354,-5.787893250119858e-06,-0.2253515767676112
688,0.6765,925.971,0.063663,-0.0174682,-0.00337843,0.00101643,-0.00894801,0.516695,-0.259271,-0.255643,7.06254e-06,-6.11483e-06,-6.12574e-06,0.512871,0.6764777246196549,7.06256493976376e-06,-6.114811304414047e-06,-0.2283861126563741,-6.1257212377041625e-06,-0.22558161318721193
689,0.6775,926.146,-0.0394543,0.0332554,-3.52289e-05,-0.0317395,0.0160607,0.517291,-0.259571,-0.255938,7.11064e-06,-6.6743e-06,-5.78274e-06,0.513467,0.6774772031585468,7.110665280585238e-06,-6.67427772693685e-06,-0.2286175621034242,-5.7827232800011785e-06,-0.22581003291775492
690,0.6785,926.373,0.0608455,-0.0161455,-0.00334684,0.000199423,-0.0082932,0.517887,-0.25987,-0.256235,7.05201e-06,-6.1972e-06,-6.1025e-06,0.514062,0.6784772775641987,7.05203486539574e-06,-6.197180797418156e-06,-0.22884817097461096,-6.102481379777203e-06,-0.22603993319609705
691,0.6795,926.549,-0.0367499,0.0318844,-0.000187618,-0.0308023,0.015383,0.518482,-0.260171,-0.25653,7.09706e-06,-6.72865e-06,-5.77748e-06,0.514658,0.6794762687147444,7.097085184204488e-06,-6.728627362728723e-06,-0.22908025274508892,-5.777463310430164e-06,-0.2262682177421781
692,0.6805,926.774,0.0580856,-0.0148494,-0.00331715,-0.000599673,-0.0076518,0.519078,-0.26047,-0.256826,7.04119e-06,-6.2789e-06,-6.07952e-06,0.515253,0.6804775349185883,7.041214789227368e-06,-6.278880287702293e-06,-0.22931072329245428,-6.0795015197623314e-06,-0.2264972084574286
693,0.6815,926.951,-0.0341062,0.0305422,-0.000337658,-0.0298845,0.0147197,0.519673,-0.260769,-0.257121,7.08325e-06,-6.7829e-06,-5.7721e-06,0.515847,0.6814777165764008,7.083275086250396e-06,-6.782876996180853e-06,-0.22954112493942713,-5.772083341515355e-06,-0.22672535812720285
694,0.6825,927.174,0.0553904,-0.0135836,-0.00328959,-0.00137858,-0.00702558,0.520267,-0.261068,-0.257416,7.03006e-06,-6.35989e-06,-6.05683e-06,0.516442,0.682476811041727,7.030084711034945e-06,-6.359869775929283e-06,-0.22977145770660556,-6.056811657439987e-06,-0.2269534405027508
695,0.6835,927.351,-0.0315299,0.0292322,-0.000485134,-0.0289884,0.0140726,0.520861,-0.261367,-0.257711,7.06921e-06,-6.83708e-06,-5.76659e-06,0.517036,0.6834764991454587,7.0692349869450055e-06,-6.837056627184701e-06,-0.23000172161458154,-5.766573373255923e-06,-0.22718145560392156
696,0.6845,927.573,0.0527663,-0.0123513,-0.00326434,-0.00213526,-0.00641608,0.521455,-0.261665,-0.258006,7.01864e-06,-6.44014e-06,-6.03445e-06,0.517629,0.6844767812403219,7.018664630820126e-06,-6.440119262318689e-06,-0.23023114691547275,-6.034431792700801e-06,-0.22740940345055793
697,0.6855,927.751,-0.0290271,0.0279574,-0.000629859,-0.0281159,0.013443,0.522049,-0.261964,-0.2583,7.05495e-06,-6.89123e-06,-5.76091e-06,0.518223,0.6854776576792523,7.054974886289145e-06,-6.8912062555215314e-06,-0.23046127339692157,-5.760893405981626e-06,-0.22763651169939503
698,0.6865,927.97,0.0502189,-0.0111553,-0.0032416,-0.00286794,-0.0058247,0.522642,-0.262262,-0.258595,7.00691e-06,-6.51963e-06,-6.01239e-06,0.518815,0.6864774423371094,7.006934548359212e-06,-6.519608747312944e-06,-0.2306905617717846,-6.012371925656623e-06,-0.2278643253242819
699,0.6875,928.149,-0.026603,0.0267204,-0.000771673,-0.0272685,0.0128322,0.523234,-0.262561,-0.258889,7.04046e-06,-6.94538e-06,-5.75506e-06,0.519408,0.6874761325661136,7.040484784059942e-06,-6.94535588086076e-06,-0.23092055090872543,-5.755043439692464e-06,-0.22809129984574694
700,0.6885,928.366,0.0477529,-0.00999796,-0.00322151,-0.00357509,-0.0052526,0.523827,-0.262858,-0.259183,6.99487e-06,-6.59834e-06,-5.99067e-06,0.52,0.688477102671029,6.994894464096291e-06,-6.598318231021416e-06,-0.23114893358859878,-5.990652055976042e-06,-0.22831820764651123
701,0.6895,928.546,-0.0242618,0.0255234,-0.000910439,-0.0264478,0.0122415,0.524419,-0.263157,-0.259477,7.02576e-06,-6.99955e-06,-5.74901e-06,0.520592,0.6894769770494245,7.02578468070314e-06,-6.9995255032040404e-06,-0.23137878569285386,-5.748993474496977e-06,-0.22854504874618753
702,0.6905,928.761,0.0453724,-0.00888141,-0.00320418,-0.00425542,-0.0047008,0.525011,-0.263454,-0.259771,6.98252e-06,-6.67624e-06,-5.9693e-06,0.521183,0.6904774435286967,6.982544377809319e-06,-6.676217713996735e-06,-0.23160703229720458,-5.969282183770908e-06,-0.22877182316438327
703,0.6915,928.942,-0.0220074,0.0243684,-0.00104605,-0.0256549,0.0116715,0.525602,-0.263752,-0.260064,7.01084e-06,-7.05377e-06,-5.74276e-06,0.521775,0.6914768109818161,7.010864575995868e-06,-7.053745122220789e-06,-0.23183597928678423,-5.742743510395165e-06,-0.2289977599188452
704,0.6925,929.155,0.0430807,-0.00780732,-0.00318972,-0.00490787,-0.00417012,0.526193,-0.264049,-0.260357,6.96987e-06,-6.75331e-06,-5.94829e-06,0.522365,0.692476769235665,6.969894289499123e-06,-6.75328719645929e-06,-0.23206409012479978,-5.948272308931024e-06,-0.22922363048353533
705,0.6935,929.336,-0.0198427,0.0232567,-0.00117842,-0.0248907,0.0111232,0.526784,-0.264346,-0.26065,6.99572e-06,-7.10806e-06,-5.7363e-06,0.522956,0.6934773186395093,6.995744470161824e-06,-7.108034737801638e-06,-0.23229213322395625,-5.736283547497223e-06,-0.22944943487784442
706,0.6945,929.548,0.0408804,-0.00677703,-0.0031782,-0.00553164,-0.00366119,0.527374,-0.264643,-0.260944,6.95692e-06,-6.82955e-06,-5.92766e-06,0.523546,0.6944767650652099,6.956944199387749e-06,-6.829526678631126e-06,-0.232520108604369,-5.927642431458047e-06,-0.22967594344559938
707,0.6955,929.729,-0.0177697,0.0221897,-0.00130748,-0.024156,0.010597,0.527964,-0.26494,-0.261236,6.98039e-06,-7.16242e-06,-5.72961e-06,0.524136,0.6954768013382895,6.980414362978138e-06,-7.162394349946588e-06,-0.23274801628614739,-5.729593585801496e-06,-0.22990084523285437
708,0.6965,929.94,0.0387732,-0.00579153,-0.00316968,-0.00612613,-0.0031745,0.528554,-0.265236,-0.261529,6.94365e-06,-6.90495e-06,-5.9074e-06,0.524725,0.6964774278068608,6.943674107251496e-06,-6.904926160844482e-06,-0.23297508926486798,-5.907382551351148e-06,-0.23012645123230824
709,0.6975,930.121,-0.0157902,0.0211681,-0.0014332,-0.0234512,0.0100934,0.529143,-0.265533,-0.261821,6.96485e-06,-7.21687e-06,-5.7227e-06,0.525314,0.6974769473414459,6.964874254666853e-06,-7.216843958435248e-06,-0.23320286183745498,-5.722683625419833e-06,-0.23035122149049359
710,0.6985,930.33,0.0367605,-0.00485148,-0.00316417,-0.00669093,-0.00271036,0.529732,-0.265829,-0.262114,6.93008e-06,-6.9795e-06,-5.88753e-06,0.525903,0.6984770557664479,6.93010401309202e-06,-6.979475643320576e-06,-0.23342980020181614,-5.8875126685009604e-06,-0.23057669554903426
711,0.6995,930.512,-0.013905,0.0201924,-0.00155555,-0.0227766,0.00961255,0.530321,-0.266125,-0.262406,6.9491e-06,-7.27141e-06,-5.71555e-06,0.526491,0.6994777534288257,6.949124145005925e-06,-7.271383563378642e-06,-0.23365667140236235,-5.715533666239558e-06,-0.2308013343550721
712,0.7005,930.72,0.0348427,-0.00395727,-0.0031617,-0.00722585,-0.00226895,0.530909,-0.266421,-0.262698,6.91621e-06,-7.05321e-06,-5.86803e-06,0.527079,0.7004773401975517,6.916233917131365e-06,-7.0531851261712575e-06,-0.2338834754589708,-5.868012783127874e-06,-0.2310259075761545
713,0.7015,930.902,-0.0121144,0.019263,-0.00167454,-0.0221324,0.00915459,0.531497,-0.266717,-0.26299,6.93316e-06,-7.32605e-06,-5.70817e-06,0.527667,0.7014775148961323,6.933184034441098e-06,-7.326023164555551e-06,-0.23411021239151353,-5.708153708483543e-06,-0.23125041523142942
714,0.7025,931.108,0.03302,-0.00310895,-0.00316225,-0.00773089,-0.00185027,0.532084,-0.267012,-0.263281,6.90203e-06,-7.12606e-06,-5.84892e-06,0.528254,0.702476575392945,6.9020538191466585e-06,-7.126034609727938e-06,-0.23433611655635544,-5.848902895122521e-06,-0.23147408881451226
715,0.7035,931.291,-0.0104181,0.0183796,-0.00179019,-0.0215184,0.00871947,0.532671,-0.267308,-0.263573,6.91701e-06,-7.3808e-06,-5.70056e-06,0.528841,0.7034762225104256,6.9170339225266275e-06,-7.380772761966803e-06,-0.23456271952696062,-5.700543751818721e-06,-0.23169846561997054
716,0.7045,931.495,0.0312917,-0.00230636,-0.00316579,-0.00820621,-0.00145424,0.533258,-0.267603,-0.263864,6.88755e-06,-7.19807e-06,-5.83018e-06,0.529428,0.7044764565930217,6.887573719138729e-06,-7.198044093992273e-06,-0.2347884902218853,-5.8301630044832464e-06,-0.2319220088393592
717,0.7055,931.678,-0.00881547,0.017542,-0.00190253,-0.0209344,0.00830702,0.533845,-0.267898,-0.264155,6.90066e-06,-7.43564e-06,-5.69271e-06,0.530014,0.7054772779853828,6.900683809707431e-06,-7.435612355721766e-06,-0.23501419432427795,-5.6926937965773305e-06,-0.2321454870171351
718,0.7065,931.881,0.029657,-0.00154905,-0.00317229,-0.00865213,-0.00108062,0.534431,-0.268192,-0.264446,6.87278e-06,-7.26923e-06,-5.81182e-06,0.5306,0.7064769805545272,6.872803617552492e-06,-7.269203579185479e-06,-0.23523906709322984,-5.811803111432923e-06,-0.23236890017222245
719,0.7075,932.064,-0.00730517,0.0167497,-0.0020116,-0.0203801,0.00791697,0.535017,-0.268487,-0.264737,6.88411e-06,-7.49058e-06,-5.68464e-06,0.531186,0.7074772691210576,6.884133695539418e-06,-7.490551945710244e-06,-0.23546463829504916,-5.6846238424279605e-06,-0.2325922483235402
720,0.7085,932.266,0.0281143,-0.000836387,-0.00318168,-0.00906909,-0.000729087,0.535602,-0.268782,-0.265028,6.8577e-06,-7.33957e-06,-5.79383e-06,0.531771,0.7084764355511792,6.857723514164249e-06,-7.339543065421061e-06,-0.23569014296317825,-5.793813215748678e-06,-0.23281553149000167
721,0.7095,932.449,-0.00588559,0.0160018,-0.00211748,-0.0198549,0.00754894,0.536187,-0.269076,-0.265318,6.86736e-06,-7.54561e-06,-5.67634e-06,0.532356,0.7094761866646657,6.867383580466679e-06,-7.545581531931411e-06,-0.23591481703244055,-5.676323889591828e-06,-0.233037982728881
722,0.7105,932.65,0.0266617,-0.00016751,-0.00319391,-0.00945768,-0.000399209,0.536772,-0.26937,-0.265608,6.84233e-06,-7.40909e-06,-5.77621e-06,0.53294,0.7104765228036569,6.84235340875361e-06,-7.409062552810042e-06,-0.2361394250572355,-5.776193317763578e-06,-0.23326036946625406
723,0.7115,932.833,-0.00455469,0.0152976,-0.00222024,-0.0193581,0.00720244,0.537357,-0.269664,-0.265898,6.85041e-06,-7.60072e-06,-5.66783e-06,0.533525,0.7114774443104925,6.850433464045125e-06,-7.600691114606484e-06,-0.23636396705697726,-5.667813937848543e-06,-0.23348269172082392
724,0.7125,933.032,0.0252971,0.000458602,-0.00320888,-0.0098186,-9.04699e-05,0.537941,-0.269958,-0.266189,6.82667e-06,-7.4778e-06,-5.75894e-06,0.534108,0.7124772390496183,6.826693301764664e-06,-7.477772041353248e-06,-0.23658844305107452,-5.758923417364947e-06,-0.2337057158059549
725,0.7135,933.216,-0.00331014,0.0146358,-0.00231995,-0.0188891,0.00687693,0.538525,-0.270252,-0.266478,6.83327e-06,-7.65591e-06,-5.6591e-06,0.534692,0.7134776178393978,6.833293346941716e-06,-7.65588069362444e-06,-0.23681285305892996,-5.6590839873083e-06,-0.23392714285633698
726,0.7145,933.414,0.024018,0.00104313,-0.00322651,-0.0101526,0.00019772,0.539108,-0.270545,-0.266768,6.81072e-06,-7.54572e-06,-5.74202e-06,0.535275,0.7144768665432926,6.810743192975366e-06,-7.5456915311633566e-06,-0.23703643413675624,-5.742003514663807e-06,-0.23414927177465883
727,0.7155,933.598,-0.0021493,0.0140152,-0.00241673,-0.0184469,0.00657179,0.539691,-0.270838,-0.267057,6.81592e-06,-7.71116e-06,-5.65018e-06,0.535858,0.7154766979790317,6.815943228488663e-06,-7.711130269094646e-06,-0.23725994971492292,-5.650164037751537e-06,-0.2343705706558873
728,0.7165,933.794,0.0228216,0.00158737,-0.00324671,-0.0104607,0.000466015,0.540274,-0.271131,-0.267347,6.79448e-06,-7.61286e-06,-5.72544e-06,0.536441,0.7164771124864464,6.794503082607761e-06,-7.6128310222411955e-06,-0.23748339981261857,-5.72542360965933e-06,-0.2345925709987915
729,0.7175,933.978,-0.0010693,0.0134345,-0.00251066,-0.0180308,0.00628632,0.540856,-0.271425,-0.267636,6.79837e-06,-7.76646e-06,-5.64106e-06,0.537023,0.7174763929283154,6.79839310890884e-06,-7.766429841127298e-06,-0.23770754674186056,-5.6410440892884495e-06,-0.23481374178505487
730,0.7185,934.174,0.021705,0.00209276,-0.00326937,-0.0107436,0.000715123,0.541438,-0.271717,-0.267925,6.77796e-06,-7.67923e-06,-5.70919e-06,0.537605,0.7184762551206745,6.7779829704406325e-06,-7.679200514809637e-06,-0.2379301036433229,-5.709173702572734e-06,-0.23503484866219637
731,0.7195,934.357,-6.70796e-05,0.0128921,-0.00260186,-0.0176396,0.0060198,0.54202,-0.27201,-0.268213,6.78062e-06,-7.8218e-06,-5.63175e-06,0.538186,0.719476699402201,6.78064298842429e-06,-7.82176940983259e-06,-0.2381533574146808,-5.6317341416978195e-06,-0.23525512690419226
732,0.7205,934.552,0.0206649,0.00256079,-0.00329437,-0.0110025,0.000945796,0.542602,-0.272302,-0.268502,6.76116e-06,-7.74486e-06,-5.69325e-06,0.538767,0.7204777261117699,6.761182856696024e-06,-7.744830008649117e-06,-0.23837578415843064,-5.693233793513386e-06,-0.2354761062394649
733,0.7215,934.736,0.000860578,0.0123866,-0.00269043,-0.0172725,0.00577145,0.543183,-0.272595,-0.26879,6.76267e-06,-7.87716e-06,-5.62227e-06,0.539348,0.7214776141099772,6.762692866812969e-06,-7.877128975208869e-06,-0.23859890736452627,-5.622254195092324e-06,-0.2356962574175766
734,0.7225,934.929,0.0196981,0.00299305,-0.00332162,-0.0112384,0.00115882,0.543763,-0.272887,-0.269079,6.74408e-06,-7.80977e-06,-5.67763e-06,0.539929,0.722476360734684,6.744102741373936e-06,-7.809739503872315e-06,-0.23882120402668372,-5.677613882260069e-06,-0.235917109284551
735,0.7235,935.113,0.00171701,0.0119163,-0.00277649,-0.0169282,0.00554049,0.544344,-0.273179,-0.269367,6.74452e-06,-7.93253e-06,-5.61263e-06,0.540509,0.7234774102770034,6.744542744296922e-06,-7.932498537588373e-06,-0.23904343578769183,-5.612614249250747e-06,-0.23613713347207332
736,0.7245,935.305,0.0188012,0.00339117,-0.00335099,-0.0114524,0.001355,0.544924,-0.27347,-0.269655,6.72672e-06,-7.87397e-06,-5.6623e-06,0.541089,0.7244773171199177,6.726742624474369e-06,-7.873939000369035e-06,-0.23926484193172115,-5.662283969254389e-06,-0.23635709430175345
737,0.7255,935.489,0.00250563,0.0114796,-0.00286015,-0.0166059,0.00532608,0.545503,-0.273762,-0.269942,6.72617e-06,-7.9879e-06,-5.60284e-06,0.541668,0.7254760786000765,6.726192620654103e-06,-7.987868096859252e-06,-0.23948694416937233,-5.6028243041739145e-06,-0.23657622836844616
738,0.7265,935.68,0.0179708,0.00375683,-0.00338237,-0.0116454,0.00153518,0.546083,-0.274053,-0.27023,6.70909e-06,-7.93747e-06,-5.64725e-06,0.542248,0.7264771450068592,6.709112505998149e-06,-7.937438498362148e-06,-0.23970822127123925,-5.647234054273476e-06,-0.2367960627570046
739,0.7275,935.864,0.00322991,0.0110748,-0.00294155,-0.0163042,0.0051274,0.546662,-0.274345,-0.270517,6.70761e-06,-8.04324e-06,-5.5929e-06,0.542826,0.7274770647226414,6.707632496105731e-06,-8.043207653241069e-06,-0.23993019406102356,-5.592884359750805e-06,-0.23701507085782758
740,0.7285,936.054,0.0172034,0.00409169,-0.00341563,-0.0118188,0.00170017,0.547241,-0.274636,-0.270805,6.6912e-06,-8.00031e-06,-5.63247e-06,0.543405,0.7284775635595784,6.69122238616815e-06,-8.00027799763292e-06,-0.2401513421959376,-5.632454137649567e-06,-0.23723477887794697
741,0.7295,936.238,0.00389333,0.0107002,-0.00302078,-0.0160222,0.00494361,0.547819,-0.274927,-0.271092,6.68885e-06,-8.09854e-06,-5.58283e-06,0.543983,0.7294769123753013,6.6888723704305875e-06,-8.098507206955041e-06,-0.24037242598610686,-5.582814415983073e-06,-0.23745366108530985
742,0.7305,936.427,0.0164954,0.00439746,-0.00345067,-0.0119734,0.00185083,0.548397,-0.275218,-0.271379,6.67303e-06,-8.0625e-06,-5.61796e-06,0.544561,0.7304768389816052,6.6730522647606705e-06,-8.06246749818218e-06,-0.2405934454502533,-5.617944219271642e-06,-0.2376724804824929
743,0.7315,936.61,0.00449937,0.0103541,-0.00309798,-0.0157588,0.00477386,0.548975,-0.275508,-0.271665,6.66989e-06,-8.15379e-06,-5.57264e-06,0.545138,0.7314773437125495,6.6699122438507175e-06,-8.153756757889319e-06,-0.24081364142111372,-5.572624472871546e-06,-0.237890474978376
744,0.7325,936.799,0.0158435,0.00467583,-0.00348737,-0.0121106,0.00198799,0.549552,-0.275798,-0.271952,6.65461e-06,-8.12406e-06,-5.60369e-06,0.545716,0.7324766944248262,6.6546321420002386e-06,-8.124026999900558e-06,-0.24103377354440092,-5.6036742993592625e-06,-0.23810916902795998
745,0.7335,936.982,0.00505146,0.0100348,-0.00317325,-0.0155128,0.00461733,0.550129,-0.276089,-0.272238,6.65072e-06,-8.20897e-06,-5.56234e-06,0.546292,0.733476621928852,6.650742116143249e-06,-8.208936306486336e-06,-0.24125460058440684,-5.562324530195006e-06,-0.23832703864877713
746,0.7345,937.17,0.0152441,0.00492845,-0.00352562,-0.0122313,0.00211247,0.550706,-0.276379,-0.272525,6.63592e-06,-8.185e-06,-5.58966e-06,0.546869,0.7344771265575323,6.6359420176631545e-06,-8.184966503010926e-06,-0.24147460484807726,-5.589644377912428e-06,-0.2385456074225657
747,0.7355,937.353,0.00555299,0.00974075,-0.0032467,-0.0152831,0.00447319,0.551282,-0.276669,-0.272811,6.63135e-06,-8.26407e-06,-5.55194e-06,0.547445,0.735476473166623,6.631371987531054e-06,-8.264035852634244e-06,-0.24169454531976153,-5.551924587954282e-06,-0.23876335223984968
748,0.7365,937.54,0.0146941,0.00515697,-0.00356529,-0.0123366,0.00222508,0.551858,-0.276959,-0.273097,6.61698e-06,-8.24535e-06,-5.57586e-06,0.548021,0.7364763955651716,6.617001892195162e-06,-8.245316007182701e-06,-0.24191442201795665,-5.575844454930312e-06,-0.2389810347910205
749,0.7375,937.722,0.00600728,0.00947023,-0.00331846,-0.0150688,0.00434066,0.552434,-0.277248,-0.273383,6.61178e-06,-8.31907e-06,-5.54145e-06,0.548597,0.7374768940849292,6.611801857792088e-06,-8.319035396664454e-06,-0.2421334770950101,-5.541434646150201e-06,-0.2391986550938836
750,0.7385,937.909,0.01419,0.00536298,-0.00360629,-0.0124275,0.00232661,0.553009,-0.277538,-0.273668,6.59779e-06,-8.30513e-06,-5.56227e-06,0.549172,0.7384762305807369,6.5978117653742174e-06,-8.30509551252856e-06,-0.24235322652144564,-5.562254530633304e-06,-0.2394154525820723
751,0.7395,938.091,0.00641754,0.00922169,-0.00338863,-0.0148687,0.00421895,0.553584,-0.277827,-0.273954,6.59199e-06,-8.37396e-06,-5.53089e-06,0.549747,0.7394761418602638,6.5920117271467404e-06,-8.373924938465116e-06,-0.24257215480232064,-5.530874704673394e-06,-0.23963294865921225
752,0.7405,938.276,0.0137286,0.00554804,-0.00364851,-0.0125051,0.00241783,0.554159,-0.278116,-0.274239,6.57835e-06,-8.36435e-06,-5.54889e-06,0.550321,0.7404766282541062,6.578371637422364e-06,-8.364315018938306e-06,-0.24279101982206408,-5.548874604910381e-06,-0.23984962239137098
753,0.7415,938.458,0.0067869,0.0089936,-0.0034573,-0.0146819,0.0041073,0.554734,-0.278405,-0.274524,6.572e-06,-8.42871e-06,-5.52025e-06,0.550895,0.7414776900930498,6.5720215955966665e-06,-8.428674478477838e-06,-0.2430098215989559,-5.520234763412013e-06,-0.24006623438031482
754,0.7425,938.643,0.0133071,0.00571364,-0.00369184,-0.0125703,0.00249948,0.555308,-0.278694,-0.274809,6.55865e-06,-8.42302e-06,-5.5357e-06,0.551469,0.7424775852296139,6.558671507894687e-06,-8.422984526412769e-06,-0.2432285601512706,-5.535684678092956e-06,-0.24028278464363817
755,0.7435,938.824,0.00711835,0.00878449,-0.00352459,-0.0145075,0.00400499,0.555881,-0.278982,-0.275094,6.55181e-06,-8.48333e-06,-5.50955e-06,0.552043,0.743476310993556,6.551831463141866e-06,-8.483294016703447e-06,-0.24344647894413451,-5.509534822478734e-06,-0.24049927319893016
756,0.7445,939.009,0.0129223,0.00586124,-0.00373621,-0.0126241,0.00257227,0.556455,-0.279271,-0.275378,6.53871e-06,-8.48118e-06,-5.52269e-06,0.552616,0.7444773536678289,6.538731377458973e-06,-8.481144034844235e-06,-0.24366509132070968,-5.522674749958156e-06,-0.24071494077909572
757,0.7455,939.19,0.00741477,0.00859295,-0.00359058,-0.0143445,0.00391131,0.557028,-0.279559,-0.275663,6.5314e-06,-8.53779e-06,-5.4988e-06,0.553189,0.7454772256274396,6.53142132955864e-06,-8.53775355313946e-06,-0.24388288441069905,-5.498784881652341e-06,-0.2409313061874384
758,0.7465,939.373,0.0125715,0.0059922,-0.0037815,-0.0126674,0.00263688,0.557601,-0.279847,-0.275947,6.51853e-06,-8.53882e-06,-5.50985e-06,0.553761,0.7464776706778582,6.518551245671134e-06,-8.538783544342898e-06,-0.24410061478530987,-5.509834820838222e-06,-0.24114685108765666
759,0.7475,939.554,0.00767891,0.00841762,-0.00365536,-0.0141921,0.00382561,0.558173,-0.280135,-0.276231,6.51079e-06,-8.59209e-06,-5.48801e-06,0.554334,0.7474769416697442,6.510811195292732e-06,-8.592053088118945e-06,-0.24431828246260168,-5.48799494093366e-06,-0.2413623347818149
760,0.7485,939.737,0.012252,0.00610786,-0.00382763,-0.012701,0.00269397,0.558745,-0.280423,-0.276515,6.49811e-06,-8.59598e-06,-5.49719e-06,0.554905,0.7484767844081415,6.498131112753214e-06,-8.595943054690025e-06,-0.2445358874606286,-5.4971748905119355e-06,-0.24157775728729314
761,0.7495,939.917,0.00791338,0.00825722,-0.00371903,-0.0140494,0.00374725,0.559317,-0.28071,-0.276799,6.48997e-06,-8.64621e-06,-5.47719e-06,0.555477,0.7494771992201825,6.489991059899225e-06,-8.646172621640247e-06,-0.244752674550492,-5.4771750002124975e-06,-0.24179311862146657
762,0.7505,940.1,0.0119613,0.00620945,-0.00387452,-0.0127257,0.00274414,0.559888,-0.280998,-0.277083,6.47746e-06,-8.65265e-06,-5.48467e-06,0.556048,0.750476435955876,6.4774809787060406e-06,-8.652612565884787e-06,-0.24497015446161097,-5.484654959198032e-06,-0.24200841880170543
763,0.7515,940.28,0.00812064,0.00811054,-0.00378166,-0.0139156,0.00367562,0.560459,-0.281285,-0.277366,6.46895e-06,-8.70014e-06,-5.46634e-06,0.556619,0.7514762434186726,6.468970923600992e-06,-8.700102153924583e-06,-0.24518681693472844,-5.466325059599875e-06,-0.24222290006865377
764,0.7525,940.461,0.0116969,0.00629816,-0.0039221,-0.0127422,0.00278799,0.56103,-0.281572,-0.27765,6.45656e-06,-8.70887e-06,-5.47231e-06,0.55719,0.7524766219345504,6.456580843527959e-06,-8.708832077930495e-06,-0.24540341723463832,-5.472295026898166e-06,-0.2424380782082921
765,0.7535,940.641,0.00830303,0.00797641,-0.00384333,-0.01379,0.00361017,0.561601,-0.281859,-0.277933,6.44771e-06,-8.75387e-06,-5.45546e-06,0.55776,0.7534775718296742,6.447730786618422e-06,-8.753831684971125e-06,-0.2456199553791819,-5.45544511898477e-06,-0.24265243789883228
766,0.7545,940.822,0.0114566,0.00637511,-0.00397029,-0.0127514,0.00282605,0.562171,-0.282146,-0.278216,6.43544e-06,-8.76463e-06,-5.46009e-06,0.55833,0.7544773389521784,6.435460707443497e-06,-8.764591590715298e-06,-0.24583643138619515,-5.460075093721706e-06,-0.24286673693416316
767,0.7555,941.001,0.00846273,0.00785376,-0.00390411,-0.0136719,0.00355035,0.562741,-0.282432,-0.278499,6.42627e-06,-8.80739e-06,-5.44458e-06,0.5589,0.7554776761043855,6.426290648509081e-06,-8.807351215001091e-06,-0.24605209132597738,-5.444565178258642e-06,-0.2430809753314478
768,0.7565,941.182,0.0112382,0.00644135,-0.00401902,-0.0127539,0.00285885,0.56331,-0.282719,-0.278781,6.41408e-06,-8.81996e-06,-5.44799e-06,0.559469,0.7564768271335993,6.414100570228953e-06,-8.81992110424168e-06,-0.24626844332776943,-5.447975159778018e-06,-0.24329439640261896
769,0.7575,941.36,0.00860179,0.00774159,-0.00396406,-0.0135606,0.00349568,0.563879,-0.283005,-0.279064,6.40462e-06,-8.8607e-06,-5.43369e-06,0.560038,0.7574765468415228,6.404640509716231e-06,-8.860660744125504e-06,-0.24648397972980307,-5.433675237531688e-06,-0.24350851378939775
770,0.7585,941.54,0.0110399,0.00649784,-0.00406822,-0.0127502,0.00288687,0.564448,-0.283291,-0.279346,6.3925e-06,-8.87486e-06,-5.43603e-06,0.560607,0.7584768355518259,6.392520432108029e-06,-8.874820618509638e-06,-0.24669945449723985,-5.436015224846713e-06,-0.2437218143117219
771,0.7595,941.719,0.00872212,0.00763893,-0.00402326,-0.0134556,0.00344568,0.565017,-0.283577,-0.279628,6.38277e-06,-8.91378e-06,-5.4228e-06,0.561175,0.7594776935883629,6.382790370018654e-06,-8.913740272342707e-06,-0.24691486764770476,-5.422785296693711e-06,-0.24393505469177923
772,0.7605,941.898,0.0108597,0.0065455,-0.00411785,-0.0127411,0.00291055,0.565585,-0.283863,-0.27991,6.37069e-06,-8.92934e-06,-5.42418e-06,0.561743,0.760477360796932,6.370710292857851e-06,-8.929300133520002e-06,-0.24713021919881784,-5.4241652891473535e-06,-0.2441482349465275
773,0.7615,942.076,0.00882551,0.00754492,-0.00408176,-0.0133563,0.00339992,0.566153,-0.284149,-0.280192,6.3607e-06,-8.96663e-06,-5.41191e-06,0.562311,0.7614775959777644,6.360720229192651e-06,-8.966589799874747e-06,-0.24734550916819387,-5.411895355633689e-06,-0.24436135509291956
774,0.7625,942.255,0.010696,0.00658518,-0.00416783,-0.012727,0.00293032,0.56672,-0.284434,-0.280474,6.34866e-06,-8.98342e-06,-5.41245e-06,0.562878,0.7624766369760418,6.3486801527012915e-06,-8.983379649163403e-06,-0.24755998513380406,-5.412435352680767e-06,-0.24457441514790368
775,0.7635,942.432,0.00891358,0.00745873,-0.00413961,-0.0132621,0.003358,0.567287,-0.284719,-0.280756,6.33843e-06,-9.01924e-06,-5.40103e-06,0.563445,0.7634762445911858,6.338450087906011e-06,-9.019199326831817e-06,-0.24777439998247375,-5.4010154144634726e-06,-0.24478741512842317
776,0.7645,942.61,0.0105471,0.00661765,-0.00421813,-0.0127085,0.00294655,0.567854,-0.285004,-0.281037,6.3264e-06,-9.03711e-06,-5.40082e-06,0.564012,0.7644764191445594,6.3264200116375235e-06,-9.03706916544067e-06,-0.24798875373161855,-5.40080541555632e-06,-0.2449996000513942
777,0.7655,942.787,0.00898787,0.00737961,-0.00419685,-0.0131725,0.00331956,0.568421,-0.285289,-0.281318,6.31596e-06,-9.07161e-06,-5.39017e-06,0.564578,0.7654771609577078,6.315979945714645e-06,-9.071568853102896e-06,-0.24820304639864954,-5.390155473072866e-06,-0.24521172535877833
778,0.7665,942.965,0.0104116,0.00664365,-0.0042687,-0.0126859,0.0029596,0.568987,-0.285574,-0.281599,6.30393e-06,-9.09041e-06,-5.3893e-06,0.565144,0.7664767038747713,6.303949869890246e-06,-9.090368682351802e-06,-0.24841727800097246,-5.389285477774841e-06,-0.24542379106732504
779,0.7675,943.142,0.00904978,0.00730686,-0.00425355,-0.0130872,0.00328424,0.569553,-0.285859,-0.28188,6.29327e-06,-9.12372e-06,-5.37932e-06,0.56571,0.7674768126932607,6.293289802616897e-06,-9.123678379019395e-06,-0.2486314485559884,-5.379305531461043e-06,-0.24563579719377937
780,0.7685,943.319,0.0102881,0.00666385,-0.00431948,-0.0126598,0.0029698,0.570119,-0.286143,-0.282161,6.28123e-06,-9.14333e-06,-5.37788e-06,0.566275,0.7684774877335674,6.281249727013716e-06,-9.143288199897626e-06,-0.24884480692627586,-5.37786553922448e-06,-0.2458477437548814
781,0.7695,943.495,0.00910059,0.00723985,-0.00430974,-0.0130057,0.00325173,0.570684,-0.286428,-0.282442,6.27038e-06,-9.17558e-06,-5.3685e-06,0.566841,0.7694769598384184,6.2703996588364674e-06,-9.17553790447112e-06,-0.24905885565290953,-5.368485589629657e-06,-0.2460596307673668
782,0.7705,943.671,0.0101755,0.00667884,-0.00437045,-0.0126305,0.00297745,0.571249,-0.286712,-0.282722,6.25832e-06,-9.19589e-06,-5.36655e-06,0.567405,0.7704769968045668,6.258339583231631e-06,-9.195847717968775e-06,-0.24927209265681627,-5.366535600126454e-06,-0.24627070451904765
783,0.7715,943.847,0.00914147,0.007178,-0.00436545,-0.0129276,0.00322175,0.571814,-0.286996,-0.283002,6.24729e-06,-9.22718e-06,-5.3577e-06,0.56797,0.7714775989512499,6.247309514373356e-06,-9.227137429679289e-06,-0.24948526911001256,-5.357685647577881e-06,-0.24648171917835138
784,0.7725,944.023,0.0100725,0.00668919,-0.00442158,-0.0125984,0.00298283,0.572378,-0.28728,-0.283283,6.2352e-06,-9.24809e-06,-5.35531e-06,0.568534,0.772476994120004,6.235219438988082e-06,-9.248047236565249e-06,-0.24969838502969233,-5.355295660369741e-06,-0.24669342806877015
785,0.7735,944.199,0.00917351,0.00712075,-0.00442072,-0.0128527,0.00319403,0.572942,-0.287564,-0.283563,6.22399e-06,-9.27852e-06,-5.34693e-06,0.569098,0.7734769531066148,6.2240093690046905e-06,-9.2784769546439e-06,-0.24991144043304458,-5.346915705195521e-06,-0.24690432438204923
786,0.7745,944.374,0.00997817,0.00669541,-0.00447281,-0.0125638,0.00298618,0.573506,-0.287847,-0.283842,6.21186e-06,-9.29993e-06,-5.34415e-06,0.569661,0.7744774762291657,6.211879293616107e-06,-9.29988675579807e-06,-0.250123685461314,-5.344135720064536e-06,-0.24711440876741209
787,0.7755,944.549,0.00919767,0.00706764,-0.00447559,-0.0127804,0.00316833,0.574069,-0.288131,-0.284122,6.20049e-06,-9.32959e-06,-5.33619e-06,0.570225,0.7754767883282427,6.200509223175388e-06,-9.329546479475148e-06,-0.2503366200964936,-5.336175762593598e-06,-0.24732518722259633
788,0.7765,944.724,0.00989158,0.00669796,-0.00452414,-0.0125271,0.00298773,0.574632,-0.288414,-0.284402,6.18831e-06,-9.35142e-06,-5.33308e-06,0.570788,0.7764766631984368,6.188329147560623e-06,-9.351376275557044e-06,-0.2505487448159427,-5.333065779100643e-06,-0.247535906668075
789,0.7775,944.898,0.00921485,0.0070182,-0.00453008,-0.0127107,0.00314444,0.575195,-0.288697,-0.284681,6.17678e-06,-9.38038e-06,-5.32549e-06,0.57135,0.777477101156677,6.176799076440531e-06,-9.380336004394252e-06,-0.25076080951258994,-5.3254758195508956e-06,-0.24774581486655933
790,0.7785,945.073,0.00981186,0.00669726,-0.00457552,-0.0124884,0.00298769,0.575757,-0.28898,-0.28496,6.16455e-06,-9.40257e-06,-5.32209e-06,0.571912,0.7784763240428583,6.164569000821629e-06,-9.40252579595402e-06,-0.2509728142034192,-5.3220758376992805e-06,-0.2479556645088251
791,0.7795,945.247,0.00922586,0.00697206,-0.00458422,-0.0126433,0.00312216,0.576319,-0.289262,-0.285239,6.15287e-06,-9.43091e-06,-5.31482e-06,0.572474,0.7794761086501303,6.152888929022993e-06,-9.430865529069798e-06,-0.2511840100897942,-5.314805876399653e-06,-0.24816545561120762
792,0.7805,945.421,0.00973826,0.00669369,-0.00462694,-0.012448,0.00298624,0.576881,-0.289545,-0.285518,6.14058e-06,-9.45339e-06,-5.31117e-06,0.573036,0.7804764552942691,6.140598853399126e-06,-9.453345316878803e-06,-0.25139589503180537,-5.311155895748598e-06,-0.2483751881900368
793,0.7815,945.595,0.0092314,0.00692883,-0.00463804,-0.0125778,0.00310131,0.577443,-0.289827,-0.285797,6.12876e-06,-9.48116e-06,-5.30419e-06,0.573597,0.7814773642912285,6.128778780922772e-06,-9.481115053944222e-06,-0.2516069716262078,-5.304175932807631e-06,-0.24858486226163867
794,0.7825,945.768,0.00967009,0.0066876,-0.00467837,-0.0124062,0.00298356,0.578004,-0.29011,-0.286075,6.1164e-06,-9.50388e-06,-5.30033e-06,0.574158,0.7824770534791945,6.116418705293114e-06,-9.50383483822037e-06,-0.2518187368870398,-5.300315953249424e-06,-0.24879372663643673
795,0.7835,945.941,0.00923215,0.0068882,-0.00469154,-0.0125141,0.00308173,0.578565,-0.290392,-0.286354,6.10445e-06,-9.53113e-06,-5.2936e-06,0.574719,0.7834773036501359,6.10446863213987e-06,-9.531084578906501e-06,-0.2520296942568505,-5.293585988885852e-06,-0.24900328395210025
796,0.7845,946.114,0.00960671,0.00667929,-0.0047298,-0.0123631,0.00297979,0.579125,-0.290674,-0.286632,6.09202e-06,-9.55404e-06,-5.28956e-06,0.575279,0.7844763306416298,6.092038556282375e-06,-9.55399436031179e-06,-0.2522405921450702,-5.289546010311952e-06,-0.2492120320218355
797,0.7855,946.287,0.00922868,0.00684986,-0.00474476,-0.0124521,0.00306327,0.579686,-0.290956,-0.28691,6.07993e-06,-9.58083e-06,-5.28305e-06,0.57584,0.7854777027217255,6.079948482895503e-06,-9.580784103957463e-06,-0.2524514305684704,-5.283036044745337e-06,-0.24942072206767296
798,0.7865,946.46,0.00954758,0.00666904,-0.00478121,-0.0123189,0.00297507,0.580245,-0.291237,-0.287188,6.06744e-06,-9.60387e-06,-5.27885e-06,0.576399,0.7864760637734634,6.067458407033044e-06,-9.60382388304204e-06,-0.25266146220565366,-5.278836066935355e-06,-0.24962935410574127
799,0.7875,946.632,0.00922151,0.00681357,-0.00479771,-0.0123915,0.00304582,0.580805,-0.291519,-0.287466,6.05522e-06,-9.63025e-06,-5.27255e-06,0.576959,0.7874767705409198,6.055238332969282e-06,-9.630203629318324e-06,-0.2528721819604297,-5.272536100164871e-06,-0.2498379281521641
800,0.7885,946.804,0.0094922,0.0066571,-0.00483259,-0.0122738,0.00296952,0.581364,-0.2918,-0.287744,6.04265e-06,-9.6534e-06,-5.26822e-06,0.577518,0.7884762493839621,6.042668256878159e-06,-9.653353406080534e-06,-0.2530820953830818,-5.268206122899244e-06,-0.250046444223061
801,0.7895,946.976,0.00921113,0.00677908,-0.0048504,-0.0123322,0.00302925,0.581923,-0.292081,-0.288021,6.03031e-06,-9.67938e-06,-5.26209e-06,0.578077,0.7894762870918661,6.030328182360378e-06,-9.679333154988257e-06,-0.2532919498283487,-5.262076155254647e-06,-0.25025415258907446
802,0.7905,947.147,0.00944013,0.00664369,-0.00488391,-0.0122279,0.00296326,0.582482,-0.292362,-0.288298,6.01766e-06,-9.7026e-06,-5.25765e-06,0.578635,0.7904768839771243,6.017678106262636e-06,-9.702552929979902e-06,-0.2535017453128009,-5.25763617853503e-06,-0.2504618034278384
803,0.7915,947.318,0.00919794,0.00674618,-0.00490285,-0.012274,0.00301345,0.58304,-0.292643,-0.288576,6.0052e-06,-9.72824e-06,-5.25167e-06,0.579193,0.7914762488752596,6.005218031290838e-06,-9.728192680857894e-06,-0.25371148185300396,-5.251656210014666e-06,-0.2506701460855142
804,0.7925,947.49,0.00939096,0.006629,-0.00493517,-0.0121814,0.00295636,0.583598,-0.292924,-0.288853,5.99246e-06,-9.7515e-06,-5.24714e-06,0.579751,0.79247617157462,5.99247795474156e-06,-9.751452454298537e-06,-0.2539211594655191,-5.2471262337316915e-06,-0.25087768171003755
805,0.7935,947.661,0.00918231,0.00671469,-0.00495508,-0.0122169,0.00299835,0.584156,-0.293204,-0.289129,5.97989e-06,-9.77682e-06,-5.24131e-06,0.580309,0.7934766523865457,5.979907879538615e-06,-9.776772207037432e-06,-0.2541300322973076,-5.24129626433556e-06,-0.2510844109399395
806,0.7945,947.831,0.00934434,0.0066132,-0.00498636,-0.0121343,0.00294893,0.584714,-0.293485,-0.289406,5.96707e-06,-9.8001e-06,-5.2367e-06,0.580866,0.7944776916225502,5.967087802982718e-06,-9.800051979147462e-06,-0.25433959231367087,-5.2366862884900556e-06,-0.25129183182898973
807,0.7955,948.002,0.00916458,0.00668444,-0.00500708,-0.0121608,0.00298385,0.585271,-0.293765,-0.289683,5.95438e-06,-9.82511e-06,-5.23098e-06,0.581423,0.7954774941159295,5.954397727325755e-06,-9.825061733748086e-06,-0.25454834800066295,-5.2309663184368915e-06,-0.25149919527041065
808,0.7965,948.172,0.00929998,0.00659647,-0.00503746,-0.0120868,0.00294104,0.585827,-0.294045,-0.289959,5.94149e-06,-9.84839e-06,-5.22632e-06,0.58198,0.7964760571774647,5.941507650764066e-06,-9.848341504747893e-06,-0.25475704524424514,-5.226306342809295e-06,-0.25170575298624
809,0.7975,948.342,0.00914503,0.00665528,-0.00505888,-0.0121054,0.00296988,0.586384,-0.294325,-0.290235,5.92869e-06,-9.87312e-06,-5.22071e-06,0.582536,0.7974769730705111,5.928707574653913e-06,-9.873071260879662e-06,-0.25496568406077935,-5.2206963720990984e-06,-0.25191225370000636
810,0.7985,948.512,0.00925758,0.00657892,-0.00508848,-0.0120389,0.00293275,0.58694,-0.294605,-0.290511,5.9157e-06,-9.89637e-06,-5.21599e-06,0.583092,0.7984766481514578,5.915717497861905e-06,-9.89632103109983e-06,-0.25517426446662284,-5.215976396799604e-06,-0.2521186974274403
811,0.7995,948.681,0.00912393,0.00662708,-0.00511048,-0.0120509,0.00295639,0.587496,-0.294884,-0.290787,5.90279e-06,-9.92086e-06,-5.21048e-06,0.583648,0.7994768792062961,5.902807421520606e-06,-9.920810788432988e-06,-0.25538204186054236,-5.210466425431548e-06,-0.2523250841842677
812,0.8005,948.85,0.00921691,0.00656069,-0.00513939,-0.0119907,0.00292412,0.588052,-0.295164,-0.291063,5.88972e-06,-9.94407e-06,-5.20573e-06,0.584203,0.800477666544233,5.889737344499935e-06,-9.94402055787269e-06,-0.2555905057025216,-5.205716450240594e-06,-0.2525314139862104
813,0.8015,949.02,0.0091015,0.00659974,-0.00516188,-0.011997,0.00294331,0.588607,-0.295443,-0.291339,5.8767e-06,-9.96831e-06,-5.2003e-06,0.584758,0.8014772089965385,5.876717267927489e-06,-9.96826031651743e-06,-0.2557981669813352,-5.200286478435068e-06,-0.2527376868489858
814,0.8025,949.188,0.00917776,0.00654187,-0.00519021,-0.0119423,0.0029152,0.589162,-0.295722,-0.291614,5.86354e-06,-9.99147e-06,-5.19552e-06,0.585313,0.8024773063488757,5.8635571906773265e-06,-9.991420085397884e-06,-0.25600577033073346,-5.195506503352654e-06,-0.252943155731836
815,0.8035,949.357,0.00907793,0.00657314,-0.0052131,-0.0119438,0.0029306,0.589716,-0.296001,-0.29189,5.85042e-06,-1.00155e-05,-5.19017e-06,0.585868,0.8034761554322423,5.850437113652518e-06,-1.0015449845024449e-05,-0.25621331576687656,-5.190156531109658e-06,-0.2531493149695705
816,0.8045,949.526,0.00913993,0.00652256,-0.00524091,-0.0118937,0.00290605,0.590271,-0.29628,-0.292165,5.83717e-06,-1.00386e-05,-5.18537e-06,0.586422,0.8044773625077708,5.8371870363949085e-06,-1.003854961345585e-05,-0.25642080330592,-5.185356556025589e-06,-0.25335467067025086
817,0.8055,949.694,0.0090534,0.00654721,-0.00526414,-0.0118911,0.00291821,0.590825,-0.296559,-0.29244,5.82395e-06,-1.00624e-05,-5.18009e-06,0.586976,0.8054773199292307,5.823966959139781e-06,-1.0062349374173607e-05,-0.2566282329640147,-5.180076583344295e-06,-0.2535599699058778
818,0.8065,949.862,0.00910327,0.00650285,-0.00529151,-0.0118451,0.0028967,0.591379,-0.296837,-0.292715,5.81061e-06,-1.00854e-05,-5.17527e-06,0.587529,0.8064778314805816,5.810626881652681e-06,-1.0085349142485711e-05,-0.25683486159254065,-5.175256608258572e-06,-0.25376521269197716
819,0.8075,950.029,0.00902807,0.00652186,-0.00531501,-0.011839,0.00290611,0.591932,-0.297115,-0.292989,5.79729e-06,-1.0109e-05,-5.17006e-06,0.588083,0.8074770899909034,5.7973068043892795e-06,-1.0108948904186121e-05,-0.25704143278629166,-5.170046635250003e-06,-0.25396965301409635
820,0.8085,950.197,0.00906762,0.00648279,-0.00534198,-0.0117964,0.00288718,0.592485,-0.297394,-0.293264,5.78386e-06,-1.01319e-05,-5.16523e-06,0.588636,0.8084769012440005,5.783876726450643e-06,-1.0131848672489951e-05,-0.25724868931291434,-5.165216660274474e-06,-0.2541747831528307
821,0.8095,950.364,0.00900206,0.00649702,-0.00536571,-0.0117873,0.00289425,0.593038,-0.297672,-0.293538,5.77043e-06,-1.01553e-05,-5.16008e-06,0.589188,0.8094772655456244,5.770446648956096e-06,-1.0155248435061992e-05,-0.25745514547854864,-5.160066686826781e-06,-0.2543791112680167
822,0.8105,950.531,0.00903287,0.00646246,-0.00539233,-0.0117476,0.00287753,0.59359,-0.29795,-0.293813,5.75691e-06,-1.01782e-05,-5.15525e-06,0.589741,0.8104763727244175,5.756926571010013e-06,-1.0178148202255599e-05,-0.2576615442573461,-5.15523671174023e-06,-0.2545841288212124
823,0.8115,950.698,0.00897549,0.00647264,-0.00541624,-0.0117361,0.00288263,0.594142,-0.298227,-0.294087,5.74339e-06,-1.02014e-05,-5.15014e-06,0.590293,0.8114760315626175,5.743406493285974e-06,-1.0201347965921315e-05,-0.2578671435327725,-5.150126738073801e-06,-0.25478834479104984
824,0.8125,950.865,0.00899891,0.00644191,-0.00544257,-0.0116989,0.00286777,0.594694,-0.298505,-0.294361,5.72978e-06,-1.02241e-05,-5.14532e-06,0.590844,0.8124762423648242,5.7297964151104e-06,-1.0224047734097574e-05,-0.2580734277920299,-5.1453067628770555e-06,-0.25499250481337676
825,0.8135,951.031,0.00894845,0.00644867,-0.00546661,-0.0116853,0.0028712,0.595246,-0.298782,-0.294635,5.71616e-06,-1.02472e-05,-5.14026e-06,0.591396,0.8134770054358058,5.716176337378087e-06,-1.0247147497643994e-05,-0.2582789129915174,-5.140246788881697e-06,-0.2551966089035206
826,0.8145,951.198,0.00896563,0.00642118,-0.00549267,-0.0116502,0.00285792,0.595797,-0.29906,-0.294908,5.70246e-06,-1.02698e-05,-5.13544e-06,0.591947,0.814476506603085,5.7024762589730216e-06,-1.026974726581198e-05,-0.25848508279477533,-5.135426813684951e-06,-0.2553999124770895
827,0.8155,951.364,0.00892105,0.00642506,-0.00551682,-0.0116349,0.00285994,0.596348,-0.299337,-0.295182,5.68874e-06,-1.02927e-05,-5.13042e-06,0.592498,0.8154765586472601,5.68875618101039e-06,-1.0292647030341051e-05,-0.2586904539816187,-5.130406839470858e-06,-0.25560390495282537
828,0.8165,951.529,0.00893297,0.00640032,-0.00554265,-0.0116016,0.00284801,0.596899,-0.299614,-0.295455,5.67495e-06,-1.03152e-05,-5.12561e-06,0.593048,0.8164771618719477,5.674966102597878e-06,-1.0315146798500763e-05,-0.25889576828852146,-5.125596864052895e-06,-0.25580709734974905
829,0.8175,951.695,0.00889334,0.00640177,-0.00556687,-0.0115848,0.00284885,0.597449,-0.299891,-0.295728,5.66114e-06,-1.03379e-05,-5.12064e-06,0.593599,0.8174764991035244,5.661156024183711e-06,-1.033784656412351e-05,-0.2591010257312373,-5.120626889509872e-06,-0.25601023428271963
830,0.8185,951.86,0.00890085,0.00637935,-0.00559249,-0.0115531,0.00283805,0.597999,-0.300167,-0.296001,5.64726e-06,-1.03603e-05,-5.11583e-06,0.594148,0.8184763861217559,5.647275945763752e-06,-1.0360246332274947e-05,-0.25930548563137135,-5.115816914202931e-06,-0.25621331576687656
831,0.8195,952.026,0.0088654,0.00637878,-0.00561677,-0.0115351,0.00283789,0.598549,-0.300444,-0.296274,5.63335e-06,-1.03829e-05,-5.1109e-06,0.594698,0.8194768232291081,5.633365867341311e-06,-1.038284609788942e-05,-0.25951062959810034,-5.11088693933015e-06,-0.2564163418173553
832,0.8205,952.191,0.0088692,0.00635832,-0.00564221,-0.0115047,0.00282805,0.599099,-0.30072,-0.296547,5.61938e-06,-1.04052e-05,-5.10611e-06,0.595247,0.8204778107282131,5.619395788691861e-06,-1.0405145866143606e-05,-0.25971497646316666,-5.10609696380282e-06,-0.2566193124492874
833,0.8215,952.355,0.00883728,0.00635604,-0.00566652,-0.0114857,0.00282707,0.599648,-0.300996,-0.29682,5.60538e-06,-1.04276e-05,-5.10121e-06,0.595796,0.8214775274434314,5.605395710261973e-06,-1.0427545632740731e-05,-0.25991926693628076,-5.101196988821499e-06,-0.2568222276777997
834,0.8225,952.52,0.00883798,0.00633724,-0.00569179,-0.0114564,0.00281803,0.600197,-0.301273,-0.297092,5.59132e-06,-1.04498e-05,-5.09643e-06,0.596345,0.8224777931538121,5.591335631383032e-06,-1.0449745400986643e-05,-0.26012424090913355,-5.096417013183974e-06,-0.2570243445427316
835,0.8235,952.684,0.00880902,0.00633354,-0.00571613,-0.0114366,0.00281636,0.600745,-0.301548,-0.297365,5.57722e-06,-1.0472e-05,-5.09157e-06,0.596894,0.8234767846831392,5.577235552722826e-06,-1.0471945168788466e-05,-0.26032767876889573,-5.091557037983918e-06,-0.2572271492125745
836,0.8245,952.848,0.00880714,0.00631613,-0.00574124,-0.0114083,0.002808,0.601293,-0.301824,-0.297637,5.56307e-06,-1.04941e-05,-5.08681e-06,0.597442,0.8244763238098525,5.563085473836438e-06,-1.0494044937137126e-05,-0.26053180015950783,-5.086797062237025e-06,-0.2574291559538264
837,0.8255,953.012,0.00878067,0.00631126,-0.00576558,-0.0113878,0.00280575,0.601841,-0.3021,-0.297909,5.54888e-06,-1.05162e-05,-5.08198e-06,0.597989,0.8254764108341175,5.548895395168785e-06,-1.0516144704930674e-05,-0.26073586522038994,-5.081967086706385e-06,-0.2576311077567166
838,0.8265,953.176,0.00877664,0.00629502,-0.00579056,-0.0113603,0.00279796,0.602389,-0.302375,-0.298181,5.53464e-06,-1.05381e-05,-5.07723e-06,0.598537,0.8264770460562643,5.5346553160529055e-06,-1.053804447437301e-05,-0.2609391349065915,-5.077217110849297e-06,-0.2578330046361864
839,0.8275,953.339,0.00875227,0.00628917,-0.00581489,-0.0113393,0.00279524,0.602936,-0.302651,-0.298452,5.52036e-06,-1.05601e-05,-5.07243e-06,0.599084,0.8274764022994716,5.520375237155761e-06,-1.0560044242380329e-05,-0.2611430875585966,-5.072417135210117e-06,-0.25803410464164855
840,0.8285,953.503,0.00874645,0.00627392,-0.00583974,-0.0113125,0.00278794,0.603483,-0.302926,-0.298724,5.50603e-06,-1.05819e-05,-5.06771e-06,0.599631,0.8284763053400792,5.50604515825448e-06,-1.0581844011925412e-05,-0.2613462452740518,-5.067697159133466e-06,-0.25823589192087193
841,0.8295,953.666,0.00872383,0.00626726,-0.00586405,-0.0112911,0.00278481,0.60403,-0.303201,-0.298995,5.49166e-06,-1.06037e-05,-5.06294e-06,0.600178,0.8294767554772675,5.491675079127845e-06,-1.0603643781026406e-05,-0.2615493471288165,-5.062927183385746e-06,-0.2584368827586728
842,0.8305,953.828,0.00871654,0.00625284,-0.00588879,-0.0112648,0.00277792,0.604577,-0.303476,-0.299267,5.47724e-06,-1.06254e-05,-5.05823e-06,0.600724,0.83047775301038,5.477254999997072e-06,-1.0625343550674238e-05,-0.26175239313825016,-5.058217207198901e-06,-0.2586385604971466
843,0.8315,953.991,0.00869539,0.00624552,-0.00591307,-0.0112431,0.00277447,0.605123,-0.30375,-0.299538,5.46278e-06,-1.06471e-05,-5.05349e-06,0.60127,0.8314774667605414,5.462794921085035e-06,-1.064704331987798e-05,-0.2619546452727225,-5.0534772311205955e-06,-0.2588394422265482
844,0.8325,954.153,0.00868688,0.0062318,-0.0059377,-0.0112174,0.00276792,0.605669,-0.304025,-0.299809,5.44827e-06,-1.06686e-05,-5.04881e-06,0.601816,0.8324777265034531,5.4482848419468155e-06,-1.0668543090730509e-05,-0.2621575798404905,-5.04879725482521e-06,-0.25904026952437675
845,0.8335,954.316,0.00866697,0.00622393,-0.00596195,-0.0111954,0.00276421,0.606214,-0.304299,-0.30008,5.43373e-06,-1.06902e-05,-5.04409e-06,0.602361,0.8334766990596925,5.433744762806114e-06,-1.0690142860037e-05,-0.26235972096901494,-5.044077278637538e-06,-0.2592410424053816
846,0.8345,954.478,0.00865745,0.00621081,-0.00598648,-0.0111701,0.00275794,0.606759,-0.304574,-0.30035,5.41913e-06,-1.07116e-05,-5.03943e-06,0.602906,0.8344762162043617,5.419144683438404e-06,-1.0711542630992277e-05,-0.262562544156282,-5.0394173021217625e-06,-0.25944102032569805
847,0.8355,954.639,0.00863858,0.00620249,-0.00601069,-0.0111479,0.00275401,0.607304,-0.304848,-0.300621,5.40449e-06,-1.0733e-05,-5.03474e-06,0.603451,0.8354762782343426,5.4045046042894285e-06,-1.0732942401614487e-05,-0.26276457433978406,-5.0347273257145275e-06,-0.2596416846179501
848,0.8365,954.801,0.00862825,0.00618987,-0.00603512,-0.011123,0.00274799,0.607849,-0.305122,-0.300891,5.3898e-06,-1.07543e-05,-5.03009e-06,0.603996,0.8364768854466786,5.3898145249142715e-06,-1.0754242172672512e-05,-0.26296654917459894,-5.0300773490885575e-06,-0.2598415543794712
849,0.8375,954.962,0.00861024,0.00618119,-0.00605929,-0.0111007,0.00274389,0.608393,-0.305396,-0.301161,5.37508e-06,-1.07756e-05,-5.02543e-06,0.60454,0.8374762006614556,5.375094445758677e-06,-1.077554194339747e-05,-0.26316846867589017,-5.0254173725727824e-06,-0.2600413701834413
850,0.8385,955.124,0.00859924,0.00616898,-0.00608363,-0.0110761,0.00273806,0.608938,-0.305669,-0.301432,5.3603e-06,-1.07968e-05,-5.02081e-06,0.605084,0.8384778981285816,5.360314366376073e-06,-1.0796741714780289e-05,-0.26336959622878153,-5.02079739572725e-06,-0.26024187180292513
851,0.8395,955.285,0.00858196,0.00616002,-0.00610775,-0.0110537,0.00273382,0.609481,-0.305943,-0.301701,5.34549e-06,-1.08179e-05,-5.01618e-06,0.605628,0.8394764627130149,5.345504287213032e-06,-1.0817841486709945e-05,-0.2635714053103081,-5.0161674189919125e-06,-0.26044083997699086
852,0.8405,955.445,0.00857043,0.00614817,-0.00613201,-0.0110295,0.00272817,0.610025,-0.306216,-0.301971,5.33062e-06,-1.0839e-05,-5.01157e-06,0.606171,0.8404774101417467,5.330634207822982e-06,-1.0838941258306534e-05,-0.26377242287651215,-5.0115574421472076e-06,-0.26064049399569167
853,0.8415,955.606,0.00855376,0.00613897,-0.00615607,-0.0110069,0.00272382,0.610568,-0.306489,-0.302241,5.31572e-06,-1.086e-05,-5.00696e-06,0.606714,0.8414770607560331,5.315734128430449e-06,-1.085994103044996e-05,-0.2639733855724107,-5.00694746519148e-06,-0.26084009411508413
854,0.8425,955.766,0.00854179,0.00612742,-0.00618025,-0.010983,0.00271832,0.611111,-0.306762,-0.30251,5.30077e-06,-1.08809e-05,-5.00238e-06,0.607257,0.842477254328003,5.30078404903378e-06,-1.0880840803251246e-05,-0.2641742934129814,-5.002367488127213e-06,-0.26103890138899
855,0.8435,955.926,0.00852563,0.00611804,-0.00620426,-0.0109604,0.00271387,0.611653,-0.307035,-0.30278,5.28578e-06,-1.09018e-05,-4.9978e-06,0.607799,0.8434761476754926,5.285793969855845e-06,-1.0901740575608443e-05,-0.2643751464131977,-4.9977875110629455e-06,-0.26123839395290693
856,0.8445,956.086,0.00851332,0.00610675,-0.00622835,-0.0109367,0.00270849,0.612196,-0.307308,-0.303049,5.27075e-06,-1.09226e-05,-4.99324e-06,0.608342,0.8444774270464275,5.270763890452557e-06,-1.09225403486235e-05,-0.2645759445880289,-4.993227533778288e-06,-0.26143709409856586
857,0.8455,956.246,0.0084976,0.00609723,-0.00625231,-0.0109141,0.00270398,0.612738,-0.307581,-0.303318,5.25567e-06,-1.09434e-05,-4.98868e-06,0.608884,0.8454774047813731,5.255683811045131e-06,-1.0943340121194467e-05,-0.26477668795244036,-4.9886675566046534e-06,-0.261635740801074
858,0.8465,956.406,0.00848501,0.00608615,-0.00627632,-0.0108907,0.00269871,0.613279,-0.307853,-0.303587,5.24055e-06,-1.09641e-05,-4.98414e-06,0.609425,0.8464760781741549,5.240563731634396e-06,-1.0964039894423294e-05,-0.2649766414984023,-4.984127579210629e-06,-0.2618343340748057
859,0.8475,956.565,0.00846965,0.00607652,-0.00630022,-0.0108681,0.00269414,0.613821,-0.308125,-0.303856,5.22539e-06,-1.09847e-05,-4.97961e-06,0.609966,0.8474771394716305,5.225403652442395e-06,-1.0984639668421003e-05,-0.26517654066439567,-4.9795976018174315e-06,-0.2620328739341312
860,0.8485,956.724,0.00845685,0.00606563,-0.00632416,-0.0108448,0.00268896,0.614362,-0.308398,-0.304124,5.21018e-06,-1.10052e-05,-4.97509e-06,0.610507,0.8484768950135746,5.210193573024213e-06,-1.100513944296555e-05,-0.26537712008845715,-4.975077624314039e-06,-0.2622306226244089
861,0.8495,956.883,0.00844181,0.00605592,-0.006348,-0.0108223,0.00268436,0.614903,-0.30867,-0.304393,5.19493e-06,-1.10257e-05,-4.97058e-06,0.611048,0.849477191569598,5.194943493602722e-06,-1.102563921717703e-05,-0.26557691033908726,-4.970567646700452e-06,-0.26242905589645127
862,0.8505,957.042,0.00842884,0.00604519,-0.00637186,-0.0107992,0.00267926,0.615443,-0.308942,-0.304661,5.17964e-06,-1.10462e-05,-4.96609e-06,0.611589,0.8504761789553643,5.179653414399965e-06,-1.104613899094442e-05,-0.2657766462541592,-4.966077668977498e-06,-0.2626266984241893
863,0.8515,957.201,0.00841407,0.00603543,-0.00639564,-0.0107767,0.00267462,0.615984,-0.309213,-0.30493,5.16431e-06,-1.10665e-05,-4.9616e-06,0.612129,0.8514775574166293,5.164323334971854e-06,-1.106643876647162e-05,-0.26597559382441094,-4.961587691254543e-06,-0.26282502516617046
864,0.8525,957.359,0.00840097,0.00602484,-0.00641944,-0.0107537,0.00266959,0.616524,-0.309485,-0.305198,5.14893e-06,-1.10868e-05,-4.95713e-06,0.612669,0.8524776252916588,5.148943255761651e-06,-1.1086738541665753e-05,-0.26617522131232163,-4.957117713422221e-06,-0.263022561588363
865,0.8535,957.517,0.00838643,0.00601503,-0.00644315,-0.0107313,0.00266494,0.617063,-0.309756,-0.305466,5.13351e-06,-1.11071e-05,-4.95266e-06,0.613208,0.8534763798718705,5.133523176548138e-06,-1.1107038316415796e-05,-0.2663740608833671,-4.952647735589899e-06,-0.26322004507788777
866,0.8545,957.675,0.00837325,0.00600457,-0.00646687,-0.0107085,0.00265997,0.617603,-0.310028,-0.305733,5.11805e-06,-1.11273e-05,-4.94821e-06,0.613747,0.8544775274025067,5.118063097331316e-06,-1.1127238091823699e-05,-0.2665735800029765,-4.9481977576482095e-06,-0.263416739066036
867,0.8555,957.833,0.0083589,0.00599474,-0.00649053,-0.0106862,0.0026553,0.618142,-0.310299,-0.306001,5.10255e-06,-1.11474e-05,-4.94377e-06,0.614286,0.855477360220515,5.102563018111184e-06,-1.1147337868000484e-05,-0.2667723116334435,-4.943757779596325e-06,-0.26361411693015113
868,0.8565,957.99,0.00834566,0.00598438,-0.00651418,-0.0106635,0.00265038,0.618681,-0.31057,-0.306268,5.08701e-06,-1.11675e-05,-4.93934e-06,0.614825,0.8564777320936747,5.087022938887742e-06,-1.116743764373318e-05,-0.2669709894149356,-4.939327801434246e-06,-0.2638107057151601
869,0.8575,958.148,0.00833148,0.00597455,-0.00653777,-0.0106413,0.00264571,0.619219,-0.310841,-0.306536,5.07142e-06,-1.11875e-05,-4.93492e-06,0.615363,0.8574767858349,5.071432859660163e-06,-1.1187437420123736e-05,-0.2671696133620436,-4.934907823272994e-06,-0.26400797801036013
870,0.8585,958.305,0.0083182,0.00596429,-0.00656136,-0.0106188,0.00264084,0.619757,-0.311111,-0.306803,5.05579e-06,-1.12074e-05,-4.93051e-06,0.615902,0.858476377211649,5.055802780429275e-06,-1.1207337197283174e-05,-0.2673674508571722,-4.930497845001547e-06,-0.2642044616484984
871,0.8595,958.462,0.00830417,0.00595445,-0.00658489,-0.0105966,0.00263617,0.620295,-0.311382,-0.30707,5.04012e-06,-1.12273e-05,-4.92612e-06,0.616439,0.8594765065132477,5.0401327014171216e-06,-1.1227236974109545e-05,-0.2675659673777864,-4.926107866731755e-06,-0.26440089283250834
872,0.8605,958.619,0.00829087,0.00594427,-0.0066084,-0.0105742,0.00263134,0.620833,-0.311652,-0.307337,5.02441e-06,-1.12471e-05,-4.92173e-06,0.616977,0.860477174029177,5.024422622401659e-06,-1.1247036751593775e-05,-0.26776369787177645,-4.9217178883509405e-06,-0.2645972715763931
873,0.8615,958.775,0.00827698,0.00593444,-0.00663187,-0.0105521,0.00262667,0.62137,-0.311923,-0.307604,5.00866e-06,-1.12669e-05,-4.91736e-06,0.617514,0.8614765185716253,5.008672543382886e-06,-1.1266836528744939e-05,-0.2679621070239988,-4.917347909749736e-06,-0.26479359789415235
874,0.8625,958.932,0.00826367,0.00592435,-0.00665532,-0.0105299,0.00262188,0.621907,-0.312193,-0.30787,4.99286e-06,-1.12866e-05,-4.91299e-06,0.618051,0.8624763999062088,4.9928724643599764e-06,-1.1286536306553963e-05,-0.2681597305747224,-4.9129779312595545e-06,-0.2649891367892865
875,0.8635,959.088,0.00824989,0.00591453,-0.00667872,-0.0105078,0.00261722,0.622444,-0.312463,-0.308137,4.97703e-06,-1.13062e-05,-4.90864e-06,0.618588,0.863476818321262,4.977042385334585e-06,-1.1306136085131868e-05,-0.2683573007742901,-4.908627952660005e-06,-0.2651853584930006
876,0.8645,959.244,0.0082366,0.00590451,-0.0067021,-0.0104857,0.00261246,0.622981,-0.312733,-0.308403,4.96115e-06,-1.13258e-05,-4.9043e-06,0.619124,0.8644777741052749,4.9611623065271004e-06,-1.1325735863376707e-05,-0.26855481763710465,-4.904287973950261e-06,-0.2653807931936739
877,0.8655,959.4,0.00822292,0.00589471,-0.00672544,-0.0104638,0.00260782,0.623517,-0.313002,-0.308669,4.94524e-06,-1.13453e-05,-4.89997e-06,0.61966,0.865477402068557,4.945252227717134e-06,-1.1345235642279405e-05,-0.2687515499294807,-4.899957995130322e-06,-0.26557617591563043
878,0.8665,959.556,0.00820964,0.00588475,-0.00674876,-0.0104418,0.00260309,0.624053,-0.313272,-0.308935,4.92928e-06,-1.13648e-05,-4.89565e-06,0.620196,0.8664775659760477,4.929292148903031e-06,-1.136473542096006e-05,-0.2689489603593924,-4.89563801631121e-06,-0.26577150667269445
879,0.8675,959.711,0.00819607,0.00587498,-0.00677203,-0.01042,0.00259845,0.624588,-0.313541,-0.309201,4.91328e-06,-1.13842e-05,-4.89134e-06,0.620732,0.8674763986377576,4.9132920700856175e-06,-1.138413520018755e-05,-0.269145586641635,-4.8913280373819035e-06,-0.2659667854786869
880,0.8685,959.866,0.00818281,0.00586509,-0.00679528,-0.0103982,0.00259376,0.625124,-0.313811,-0.309467,4.89724e-06,-1.14035e-05,-4.88704e-06,0.621267,0.8684776342946126,4.8972519914869395e-06,-1.1403434980294946e-05,-0.2693428906959958,-4.887028058453424e-06,-0.26616201234742487
881,0.8695,960.021,0.00816933,0.00585534,-0.00681849,-0.0103764,0.00258914,0.625659,-0.31408,-0.309733,4.88116e-06,-1.14228e-05,-4.88275e-06,0.621802,0.8694775372791588,4.881171912884952e-06,-1.1422734760069275e-05,-0.2695394110252294,-4.88273807941475e-06,-0.26635718729272184
882,0.8705,960.176,0.00815611,0.00584551,-0.00684168,-0.0103547,0.00258447,0.626193,-0.314349,-0.309998,4.86504e-06,-1.1442e-05,-4.87847e-06,0.622336,0.8704761048778857,4.8650518342796545e-06,-1.1441934540612486e-05,-0.2697358784976037,-4.878458100265881e-06,-0.2665515768803314
883,0.8715,960.331,0.00814271,0.00583579,-0.00686483,-0.0103331,0.00257986,0.626728,-0.314618,-0.310264,4.84888e-06,-1.14612e-05,-4.87421e-06,0.622871,0.8714770773302511,4.848891755893092e-06,-1.1461134320711608e-05,-0.2699322931273358,-4.874198121007645e-06,-0.2667466482152434
884,0.8725,960.485,0.00812952,0.00582601,-0.00688795,-0.0103114,0.00257522,0.627262,-0.314886,-0.310529,4.83268e-06,-1.14803e-05,-4.86995e-06,0.623405,0.8724767129685065,4.83269167750322e-06,-1.1480234101579612e-05,-0.2701279250569282,-4.86993814186043e-06,-0.2669409346093823
885,0.8735,960.64,0.00811619,0.00581633,-0.00691103,-0.0102899,0.00257063,0.627796,-0.315155,-0.310794,4.81644e-06,-1.14993e-05,-4.86571e-06,0.623939,0.8734768825547443,4.816451599110039e-06,-1.149923388332752e-05,-0.27032423424031904,-4.865698162492826e-06,-0.2671351695244478
886,0.8745,960.794,0.00810305,0.0058066,-0.00693409,-0.0102684,0.00256601,0.62833,-0.315423,-0.311059,4.80015e-06,-1.15183e-05,-4.86147e-06,0.624472,0.8744775863741687,4.80016152071272e-06,-1.1518233664631339e-05,-0.2705197611437672,-4.861458183125222e-06,-0.26732935297408034
887,0.8755,960.948,0.0080898,0.00579696,-0.00695711,-0.010247,0.00256144,0.628863,-0.315692,-0.311323,4.78383e-06,-1.15373e-05,-4.85725e-06,0.625005,0.8754769492342491,4.783841442534964e-06,-1.1537233445602091e-05,-0.2707159649374261,-4.8572382035372286e-06,-0.2675227524950352
888,0.8765,961.102,0.00807669,0.00578728,-0.00698011,-0.0102256,0.00255685,0.629396,-0.31596,-0.311588,4.76747e-06,-1.15561e-05,-4.85303e-06,0.625538,0.8764768448967135,4.767481364353898e-06,-1.1556033228554696e-05,-0.27091138687111416,-4.853018224060257e-06,-0.26771683324878837
889,0.8775,961.255,0.00806351,0.00577768,-0.00700307,-0.0102043,0.00255229,0.629929,-0.316228,-0.311853,4.75107e-06,-1.15749e-05,-4.84883e-06,0.626071,0.8774772736456207,4.7510812863915675e-06,-1.1574833011063212e-05,-0.27110675643874127,-4.848818244473918e-06,-0.2679108625779558
890,0.8785,961.408,0.00805045,0.00576805,-0.007026,-0.010183,0.00254773,0.630461,-0.316495,-0.312117,4.73463e-06,-1.15937e-05,-4.84464e-06,0.626603,0.8784763572878855,4.734641208425927e-06,-1.1593632793349684e-05,-0.2713013449560491,-4.844628264777384e-06,-0.26810410860063794
891,0.8795,961.562,0.00803734,0.00575848,-0.00704889,-0.0101618,0.00254319,0.630993,-0.316763,-0.312381,4.71815e-06,-1.16124e-05,-4.84045e-06,0.627136,0.8794759725840551,4.718161130456977e-06,-1.1612332576294015e-05,-0.27149661002891234,-4.84043828508085e-06,-0.26829730361310367
892,0.8805,961.715,0.00802433,0.00574889,-0.00707176,-0.0101406,0.00253864,0.631525,-0.317031,-0.312645,4.70163e-06,-1.1631e-05,-4.83628e-06,0.627667,0.880476119817045,4.701641052706762e-06,-1.1630932360229274e-05,-0.27169182277774784,-4.836268305163927e-06,-0.2684904476288179
893,0.8815,961.867,0.00801129,0.00573936,-0.00709459,-0.0101195,0.00253413,0.632057,-0.317298,-0.312909,4.68507e-06,-1.16496e-05,-4.83212e-06,0.628199,0.8814767992699206,4.685080974953237e-06,-1.1649532143720442e-05,-0.27188625510319575,-4.832108325358853e-06,-0.2686835406612421
894,0.8825,962.02,0.00799832,0.00572983,-0.0071174,-0.0100985,0.0025296,0.632588,-0.317565,-0.313173,4.66848e-06,-1.16682e-05,-4.82797e-06,0.62873,0.8824761287488287,4.668490897419275e-06,-1.1668131926767522e-05,-0.27208063552214246,-4.827958345332561e-06,-0.2688765827238341
895,0.8835,962.172,0.00798534,0.00572034,-0.00714017,-0.0100775,0.0025251,0.63312,-0.317833,-0.313437,4.65184e-06,-1.16866e-05,-4.82383e-06,0.629261,0.8834778724895318,4.651850819881176e-06,-1.1686531711907477e-05,-0.2722756917731174,-4.823818365307098e-06,-0.26906957383004815
896,0.8845,962.325,0.00797243,0.00571084,-0.00716291,-0.0100566,0.0025206,0.63365,-0.318099,-0.3137,4.63516e-06,-1.17051e-05,-4.81969e-06,0.629792,0.884476380343159,4.635170742339767e-06,-1.1705031495612417e-05,-0.2724692406959578,-4.819678385281634e-06,-0.26926178325548344
897,0.8855,962.477,0.00795951,0.00570139,-0.00718562,-0.0100357,0.00251612,0.634181,-0.318366,-0.313964,4.61845e-06,-1.17234e-05,-4.81557e-06,0.630322,0.8854773030225742,4.6184606650179205e-06,-1.1723331281188187e-05,-0.2726634654785296,-4.8155584051468026e-06,-0.2694546726821794
898,0.8865,962.629,0.00794665,0.00569195,-0.0072083,-0.0100148,0.00251165,0.634711,-0.318633,-0.314227,4.6017e-06,-1.17417e-05,-4.81146e-06,0.630852,0.8864768708552535,4.601710587914809e-06,-1.1741631066541913e-05,-0.272857638410007,-4.811448424901776e-06,-0.2696467808399339
899,0.8875,962.78,0.00793379,0.00568254,-0.00723095,-0.00999408,0.00250719,0.635241,-0.3189,-0.31449,4.5849e-06,-1.176e-05,-4.80736e-06,0.631382,0.8874769685992983,4.584910510585516e-06,-1.175993085145155e-05,-0.2730517595042322,-4.807348444657578e-06,-0.2698388384798863
900,0.8885,962.932,0.00792098,0.00567313,-0.00725356,-0.00997336,0.00250273,0.635771,-0.319166,-0.314753,4.56807e-06,-1.17782e-05,-4.80327e-06,0.631912,0.888477596535636,4.56808043369783e-06,-1.1778130637241091e-05,-0.27324510202050944,-4.803258464303184e-06,-0.270030845615321
901,0.8895,963.083,0.00790818,0.00566376,-0.00727615,-0.00995269,0.00249829,0.6363,-0.319432,-0.315016,4.55121e-06,-1.17963e-05,-4.79919e-06,0.632441,0.8894768654675329,4.5512203568076615e-06,-1.1796230423910536e-05,-0.2734383931145168,-4.799178483949618e-06,-0.270222802259519
902,0.8905,963.234,0.00789542,0.0056544,-0.00729871,-0.00993208,0.00249385,0.636829,-0.319698,-0.315278,4.5343e-06,-1.18144e-05,-4.79512e-06,0.63297,0.8904766631525376,4.534310279913356e-06,-1.1814330210246915e-05,-0.27363163279993075,-4.7951085034858565e-06,-0.27041397884010143
903,0.8915,963.385,0.00788268,0.00564507,-0.00732123,-0.00991153,0.00248943,0.637358,-0.319964,-0.315541,4.51735e-06,-1.18324e-05,-4.79106e-06,0.633499,0.8914769898704344,4.517360203237786e-06,-1.1832329997463198e-05,-0.27382482109042416,-4.7910485229119e-06,-0.27060583473351063
904,0.8925,963.536,0.00786998,0.00563575,-0.00734373,-0.00989103,0.00248501,0.637887,-0.32023,-0.315803,4.50037e-06,-1.18504e-05,-4.78701e-06,0.634027,0.892477845901156,4.500380126781778e-06,-1.1850329784235392e-05,-0.27401795799966644,-4.786998542338772e-06,-0.27079691097273006
905,0.8935,963.687,0.00785729,0.00562646,-0.00736619,-0.00987058,0.00248061,0.638415,-0.320496,-0.316066,4.48335e-06,-1.18683e-05,-4.78297e-06,0.634556,0.8934773380464978,4.48336005032246e-06,-1.1868229571998512e-05,-0.274211043541323,-4.782958561655448e-06,-0.2709886661682307
906,0.8945,963.837,0.00784464,0.00561718,-0.00738862,-0.00985019,0.00247621,0.638943,-0.320762,-0.316328,4.46629e-06,-1.18862e-05,-4.77894e-06,0.635083,0.8944773580630385,4.466299973859833e-06,-1.1886129359428566e-05,-0.27440407772905584,-4.77892858086193e-06,-0.2711796421187527
907,0.8955,963.988,0.00783201,0.00560793,-0.00741103,-0.00982986,0.00247183,0.63947,-0.321027,-0.31659,4.44919e-06,-1.1904e-05,-4.77492e-06,0.635611,0.8954760107526083,4.449199897615941e-06,-1.1903929147627501e-05,-0.27459633517322113,-4.774908600069239e-06,-0.2713705680401297
908,0.8965,964.138,0.00781942,0.0055987,-0.0074334,-0.00980958,0.00246746,0.639998,-0.321292,-0.316852,4.43205e-06,-1.19217e-05,-4.77091e-06,0.636138,0.8964770863469855,4.432059821590784e-06,-1.1921628936817363e-05,-0.2747885416759138,-4.770898619277375e-06,-0.2715614439454678
909,0.8975,964.287,0.00780684,0.00558949,-0.00745574,-0.00978935,0.00246309,0.640525,-0.321557,-0.317113,4.41488e-06,-1.19394e-05,-4.7669e-06,0.636666,0.8974767931711014,4.414889745563144e-06,-1.1939328725674159e-05,-0.27498069725063157,-4.766888638374489e-06,-0.2717515415997749
910,0.8985,964.437,0.0077943,0.0055803,-0.00747806,-0.00976918,0.00245874,0.641052,-0.321822,-0.317375,4.39767e-06,-1.19571e-05,-4.76291e-06,0.637192,0.8984770269795614,4.39767966975424e-06,-1.1957028514197887e-05,-0.27517280191086846,-4.762898657362236e-06,-0.27194231770311494
911,0.8995,964.587,0.00778178,0.00557113,-0.00750034,-0.00974906,0.00245439,0.641579,-0.322087,-0.317636,4.38042e-06,-1.19747e-05,-4.75893e-06,0.637719,0.8994777880501603,4.38042959416407e-06,-1.197462830360152e-05,-0.27536485567011504,-4.7589186763508096e-06,-0.272132315962343
912,0.9005,964.736,0.00776929,0.00556197,-0.00752259,-0.009729,0.00245006,0.642105,-0.322352,-0.317898,4.36313e-06,-1.19922e-05,-4.75496e-06,0.638245,0.9004771761827113,4.363139518570591e-06,-1.1992128093885057e-05,-0.2755568585418584,-4.754948695229189e-06,-0.2723229923158679
913,0.9015,964.885,0.00775682,0.00555284,-0.00754482,-0.009709,0.00244573,0.642631,-0.322617,-0.318159,4.34581e-06,-1.20097e-05,-4.751e-06,0.638771,0.9014770901316975,4.34581944297463e-06,-1.2009627883835527e-05,-0.2757488105395818,-4.750988713997373e-06,-0.27251289123198685
914,0.9025,965.034,0.00774439,0.00554373,-0.00756701,-0.00968904,0.00244142,0.643157,-0.322881,-0.31842,4.32845e-06,-1.20272e-05,-4.74704e-06,0.639297,0.9024775301737715,4.328459367819448e-06,-1.2027127673563953e-05,-0.2759399876171147,-4.747028732876579e-06,-0.2727027405909562
915,0.9035,965.183,0.00773197,0.00553464,-0.00758917,-0.00966915,0.00243711,0.643682,-0.323145,-0.318681,4.31105e-06,-1.20445e-05,-4.7431e-06,0.639822,0.9034765931081856,4.311059292660957e-06,-1.2044427465274232e-05,-0.2761311142305608,-4.743088751535396e-06,-0.27289254040570876
916,0.9045,965.332,0.00771959,0.00552557,-0.00761131,-0.0096493,0.00243282,0.644207,-0.32341,-0.318941,4.29362e-06,-1.20619e-05,-4.73917e-06,0.640347,0.9044761806883481,4.2936292174999835e-06,-1.2061827255549495e-05,-0.27632291407068843,-4.73915877019504e-06,-0.27308156377110093
917,0.9055,965.48,0.00770723,0.00551652,-0.00763341,-0.00962952,0.00242853,0.644732,-0.323674,-0.319202,4.27615e-06,-1.20791e-05,-4.73525e-06,0.640872,0.9054762931897697,4.27615914277979e-06,-1.2079027047917634e-05,-0.2765139396048938,-4.735238788744489e-06,-0.2732712647259051
918,0.9065,965.629,0.00769491,0.00550749,-0.00765548,-0.00960978,0.00242425,0.645257,-0.323938,-0.319463,4.25864e-06,-1.20964e-05,-4.73133e-06,0.641397,0.9064769308881067,4.258649068056286e-06,-1.2096326838850757e-05,-0.27670491471501435,-4.731318807293938e-06,-0.27346091617522095
919,0.9075,965.777,0.0076826,0.00549848,-0.00767753,-0.00959011,0.00241999,0.645781,-0.324201,-0.319723,4.24109e-06,-1.21135e-05,-4.72743e-06,0.641921,0.9074761865820198,4.241098993329473e-06,-1.2113426631876756e-05,-0.2768951163098382,-4.72741882573402e-06,-0.27364979178212245
920,0.9085,965.925,0.00767032,0.00548948,-0.00769955,-0.00957048,0.00241573,0.646306,-0.324465,-0.319983,4.22351e-06,-1.21306e-05,-4.72353e-06,0.642445,0.9084778745000464,4.223518919044267e-06,-1.2130526424569688e-05,-0.2770859908025908,-4.723518844174102e-06,-0.2738386182877497
921,0.9095,966.072,0.00765807,0.00548051,-0.00772153,-0.00955091,0.00241148,0.646829,-0.324728,-0.320243,4.2059e-06,-1.21477e-05,-4.71965e-06,0.642969,0.9094762694859411,4.2059088447565784e-06,-1.2147626217040575e-05,-0.27727609218758187,-4.719638862504816e-06,-0.2740273957048672
922,0.9105,966.22,0.00764585,0.00547156,-0.00774349,-0.0095314,0.00240724,0.647353,-0.324992,-0.320503,4.18824e-06,-1.21647e-05,-4.71577e-06,0.643492,0.9104770972451242,4.188248770686798e-06,-1.2164626010391366e-05,-0.2774668661159777,-4.715758880724508e-06,-0.2742161240462364
923,0.9115,966.367,0.00763365,0.00546263,-0.00776542,-0.00951194,0.00240301,0.647876,-0.325255,-0.320763,4.17055e-06,-1.21817e-05,-4.7119e-06,0.644015,0.9114765380979852,4.170558696836579e-06,-1.218162580340909e-05,-0.2776568673439326,-4.711888899056049e-06,-0.27440480332461525
924,0.9125,966.515,0.00762147,0.00545371,-0.00778732,-0.00949254,0.00239879,0.648399,-0.325518,-0.321023,4.15282e-06,-1.21986e-05,-4.70805e-06,0.644538,0.912476501795124,4.152828622983051e-06,-1.2198525597417742e-05,-0.277846818608135,-4.708038917167201e-06,-0.27459343355275867
925,0.9135,966.662,0.00760933,0.00544482,-0.00780918,-0.00947319,0.00239458,0.648922,-0.325781,-0.321282,4.13506e-06,-1.22154e-05,-4.7042e-06,0.645061,0.9134769886100598,4.135068549349086e-06,-1.2215325392306298e-05,-0.27803671992172374,-4.704188935278353e-06,-0.27478128952506986
926,0.9145,966.809,0.00759721,0.00543594,-0.00783103,-0.00945389,0.00239038,0.649444,-0.326044,-0.321541,4.11726e-06,-1.22323e-05,-4.70036e-06,0.645583,0.9144760843394131,4.117268475933855e-06,-1.2232225185759837e-05,-0.278226571297834,-4.70034895327931e-06,-0.27496909684898463
927,0.9155,966.955,0.00758511,0.00542709,-0.00785284,-0.00943465,0.00238619,0.649967,-0.326306,-0.321801,4.09942e-06,-1.2249e-05,-4.69653e-06,0.646106,0.9154776172095391,4.0994284027373595e-06,-1.2248924981306253e-05,-0.27841565116560973,-4.696518971281094e-06,-0.275157580379883
928,0.9165,967.102,0.00757304,0.00541825,-0.00787462,-0.00941547,0.00238201,0.650489,-0.326569,-0.32206,4.08155e-06,-1.22657e-05,-4.69271e-06,0.646627,0.9164777575396383,4.081558329538382e-06,-1.2265624776630624e-05,-0.27860540289590685,-4.692698989283706e-06,-0.2753452902570863
929,0.9175,967.248,0.007561,0.00540944,-0.00789637,-0.00939634,0.00237784,0.65101,-0.326831,-0.322319,4.06365e-06,-1.22824e-05,-4.6889e-06,0.647149,0.9174765026018137,4.063658256558966e-06,-1.2282324571621928e-05,-0.27879438352280494,-4.6888890071761224e-06,-0.2755329515237266
930,0.9185,967.395,0.00754898,0.00540064,-0.0079181,-0.00937726,0.00237367,0.651532,-0.327094,-0.322578,4.0457e-06,-1.2299e-05,-4.6851e-06,0.64767,0.9184776866224673,4.0457081837974584e-06,-1.2298924367604158e-05,-0.2789840356595893,-4.685089024958344e-06,-0.27572056419239255
931,0.9195,967.541,0.00753699,0.00539186,-0.0079398,-0.00935824,0.00236952,0.652053,-0.327356,-0.322836,4.02772e-06,-1.23155e-05,-4.68131e-06,0.648191,0.9194774739191731,4.027728111255513e-06,-1.2315424164577315e-05,-0.27917291709769765,-4.681299042630371e-06,-0.27590740418343573
932,0.9205,967.687,0.00752502,0.0053831,-0.00796147,-0.00933927,0.00236538,0.652574,-0.327618,-0.323095,4.00971e-06,-1.2332e-05,-4.67752e-06,0.648712,0.9204777822407757,4.00971803893313e-06,-1.2331923961217406e-05,-0.2793617490553515,-4.677509060413421e-06,-0.2760949198814211
933,0.9215,967.832,0.00751308,0.00537436,-0.00798311,-0.00932036,0.00236124,0.653094,-0.32788,-0.323353,3.99166e-06,-1.23485e-05,-4.67375e-06,0.649233,0.9214766903811487,3.991667966607437e-06,-1.2348423757635452e-05,-0.2795505315455128,-4.6737390780871024e-06,-0.27628166330115467
934,0.9225,967.978,0.00750117,0.00536564,-0.00800472,-0.0093015,0.00235711,0.653614,-0.328141,-0.323612,3.97358e-06,-1.23649e-05,-4.66999e-06,0.649753,0.9224761180888306,3.973587894723352e-06,-1.2364823554933402e-05,-0.2797385443200451,-4.669979095650589e-06,-0.27646908207858034
935,0.9235,968.123,0.00748928,0.00535694,-0.0080263,-0.0092827,0.002353,0.654134,-0.328403,-0.32387,3.95546e-06,-1.23812e-05,-4.66623e-06,0.650273,0.9234760656340661,3.955467822835956e-06,-1.2381123353222279e-05,-0.27992722810277837,-4.666219113214076e-06,-0.2766557289769188
936,0.9245,968.268,0.00747741,0.00534826,-0.00804786,-0.00926395,0.00234889,0.654654,-0.328664,-0.324128,3.9373e-06,-1.23975e-05,-4.66248e-06,0.650792,0.9244765332872418,3.937307751167296e-06,-1.2397423151289111e-05,-0.2801151425723385,-4.662469130667368e-06,-0.276842327726569
937,0.9255,968.413,0.00746557,0.00533959,-0.00806938,-0.00924526,0.00234479,0.655174,-0.328926,-0.324386,3.91911e-06,-1.24138e-05,-4.65875e-06,0.651312,0.9254775213188839,3.919117679718198e-06,-1.2413722949133899e-05,-0.28030372769925416,-4.658739148011293e-06,-0.2770288783399516
938,0.9265,968.558,0.00745376,0.00533095,-0.00809088,-0.00922662,0.0023407,0.655693,-0.329187,-0.324644,3.90089e-06,-1.243e-05,-4.65502e-06,0.651831,0.9264771035215926,3.900897608488663e-06,-1.242992274785859e-05,-0.2804915439152422,-4.6550091654662396e-06,-0.27721538082948427
939,0.9275,968.703,0.00744197,0.00532232,-0.00811236,-0.00920804,0.00233662,0.656212,-0.329448,-0.324901,3.88263e-06,-1.24462e-05,-4.6513e-06,0.65235,0.927477204642112,3.882637537477862e-06,-1.2446122546361238e-05,-0.2806793111175946,-4.651289182699969e-06,-0.2774011126090551
940,0.9285,968.847,0.0074302,0.00531371,-0.0081338,-0.00918951,0.00233255,0.656731,-0.329709,-0.325159,3.86433e-06,-1.24623e-05,-4.64759e-06,0.652868,0.9284778249498304,3.864337466463752e-06,-1.2462222345854812e-05,-0.2808670293191019,-4.647579199934526e-06,-0.27758751907453394
941,0.9295,968.992,0.00741846,0.00530512,-0.00815521,-0.00917104,0.00232849,0.657249,-0.329969,-0.325416,3.846e-06,-1.24783e-05,-4.64389e-06,0.653387,0.929477035236276,3.846007395891249e-06,-1.2478222146339313e-05,-0.28105397958689105,-4.643879217169911e-06,-0.2777731552268644
942,0.9305,969.136,0.00740675,0.00529655,-0.0081766,-0.00915262,0.00232443,0.657767,-0.33023,-0.325673,3.82764e-06,-1.24943e-05,-4.64019e-06,0.653905,0.9304767632477291,3.8276473253162635e-06,-1.2494221946601769e-05,-0.28124160001268816,-4.640179234294273e-06,-0.2779587436768338
943,0.9315,969.28,0.00739506,0.005288,-0.00819796,-0.00913425,0.00232039,0.658285,-0.33049,-0.325931,3.80924e-06,-1.25103e-05,-4.63651e-06,0.654423,0.9314770092524409,3.8092472551820578e-06,-1.2510221746531158e-05,-0.2814284529047564,-4.63649925142029e-06,-0.27814500629205463
944,0.9325,969.424,0.00738339,0.00527947,-0.00821929,-0.00911594,0.00231635,0.658803,-0.330751,-0.326188,3.7908e-06,-1.25262e-05,-4.63283e-06,0.65494,0.9324777735188012,3.7908071850445424e-06,-1.2526121547451474e-05,-0.28161597560577123,-4.632819268435284e-06,-0.27833049918857944
945,0.9335,969.568,0.00737175,0.00527095,-0.0082406,-0.00909768,0.00231233,0.65932,-0.331011,-0.326444,3.77234e-06,-1.25421e-05,-4.62917e-06,0.655457,0.9334771228372496,3.7723471153494614e-06,-1.2542021348149746e-05,-0.28180273117283794,-4.629159285451934e-06,-0.27851522293513875
946,0.9345,969.711,0.00736014,0.00526245,-0.00826188,-0.00907948,0.00230831,0.659837,-0.331271,-0.326701,3.75383e-06,-1.25579e-05,-4.62551e-06,0.655975,0.9344769889528763,3.7538370456502435e-06,-1.2557821149949966e-05,-0.28198943818976896,-4.625499302357561e-06,-0.27870062069821144
947,0.9355,969.854,0.00734854,0.00525397,-0.00828313,-0.00906134,0.0023043,0.660354,-0.331531,-0.326958,3.7353e-06,-1.25737e-05,-4.62186e-06,0.656491,0.9354773721329344,3.7353069761714153e-06,-1.257362095141712e-05,-0.28217609666918586,-4.621849319264015e-06,-0.2788859708201811
948,0.9365,969.998,0.00733698,0.00524551,-0.00830435,-0.00904324,0.0023003,0.66087,-0.331791,-0.327214,3.71673e-06,-1.25894e-05,-4.61822e-06,0.657008,0.9364763361675108,3.7167369071333667e-06,-1.25893207538752e-05,-0.28236270662370655,-4.618209336060275e-06,-0.27907055238420286
949,0.9375,970.141,0.00732543,0.00523707,-0.00832554,-0.00902521,0.00229631,0.661387,-0.332051,-0.32747,3.69812e-06,-1.26051e-05,-4.61459e-06,0.657524,0.9374777532773266,3.6981268380920085e-06,-1.2605020556111235e-05,-0.2825492680659458,-4.61457935274634e-06,-0.2792550867013921
950,0.9385,970.284,0.00731392,0.00522865,-0.00834671,-0.00900722,0.00229233,0.661903,-0.33231,-0.327727,3.67949e-06,-1.26207e-05,-4.61097e-06,0.65804,0.9384777497749264,3.67949676927104e-06,-1.2620620359338197e-05,-0.28273506374393786,-4.610959369544254e-06,-0.2794402943439084
951,0.9395,970.426,0.00730242,0.00522024,-0.00836785,-0.0089893,0.00228835,0.662418,-0.332569,-0.327983,3.66081e-06,-1.26363e-05,-4.60736e-06,0.658556,0.9394763229265763,3.6608167006679793e-06,-1.2636220162343115e-05,-0.28292081130708047,-4.607349386120951e-06,-0.2796247340192707
952,0.9405,970.569,0.00729095,0.00521185,-0.00838897,-0.00897142,0.00228439,0.662934,-0.332829,-0.328239,3.64211e-06,-1.26518e-05,-4.60375e-06,0.659071,0.9404773509522264,3.642116632507353e-06,-1.2651719966338959e-05,-0.2831072276609644,-4.603739402808671e-06,-0.27980912648411915
953,0.9415,970.711,0.00727951,0.00520349,-0.00841006,-0.0089536,0.00228043,0.663449,-0.333088,-0.328494,3.62337e-06,-1.26673e-05,-4.60015e-06,0.659586,0.9414769541637003,3.623376564343417e-06,-1.2667219770112759e-05,-0.28329287884613397,-4.600139419275173e-06,-0.2799927517436501
954,0.9425,970.853,0.00726809,0.00519513,-0.00843112,-0.00893584,0.00227648,0.663964,-0.333347,-0.32875,3.60459e-06,-1.26827e-05,-4.59657e-06,0.660101,0.9424770723034108,3.6045964966202604e-06,-1.2682619574877485e-05,-0.2834784819538728,-4.59655943574333e-06,-0.2801770500080194
955,0.9435,970.995,0.00725669,0.0051868,-0.00845215,-0.00891813,0.00227254,0.664479,-0.333606,-0.329006,3.58579e-06,-1.26981e-05,-4.59299e-06,0.660616,0.9434777056366144,3.585796428895449e-06,-1.2698019379420167e-05,-0.28366403699663145,-4.5929794522114875e-06,-0.28036130109807156
956,0.9445,971.137,0.00724531,0.00517848,-0.00847316,-0.00890047,0.00226861,0.664993,-0.333865,-0.329261,3.56695e-06,-1.27135e-05,-4.58942e-06,0.66113,0.9444769099508215,3.5669563616114175e-06,-1.2713419183851826e-05,-0.28384954398685713,-4.589409468680472e-06,-0.280544785571027
957,0.9455,971.279,0.00723397,0.00517019,-0.00849414,-0.00888287,0.00226469,0.665507,-0.334123,-0.329516,3.54807e-06,-1.27288e-05,-4.58586e-06,0.661644,0.9454766279880615,3.5480762943240762e-06,-1.272871898916339e-05,-0.2840342869716387,-4.585849484928239e-06,-0.2807282232614068
958,0.9465,971.421,0.00722264,0.00516191,-0.00851509,-0.00886533,0.00226078,0.666021,-0.334382,-0.329771,3.52917e-06,-1.2744e-05,-4.5823e-06,0.662158,0.9464768600124562,3.5291762274791694e-06,-1.2743918795576903e-05,-0.28421969807953806,-4.582289501287029e-06,-0.2809116141811392
959,0.9475,971.562,0.00721134,0.00515364,-0.00853602,-0.00884784,0.00225688,0.666535,-0.33464,-0.330026,3.51023e-06,-1.27592e-05,-4.57876e-06,0.662671,0.9474776062882628,3.5102361608529975e-06,-1.2759118601768371e-05,-0.2844043455768822,-4.578749517536451e-06,-0.2810949583421489
960,0.9485,971.703,0.00720006,0.0051454,-0.00855692,-0.0088304,0.00225298,0.667048,-0.334898,-0.330281,3.49125e-06,-1.27744e-05,-4.57522e-06,0.663185,0.9484769186019815,3.4912560944455606e-06,-1.2774318407737795e-05,-0.28458894544131685,-4.575209533674851e-06,-0.2812782557563581
961,0.9495,971.844,0.0071888,0.00513717,-0.00857779,-0.00881302,0.00224909,0.667561,-0.335156,-0.330536,3.47225e-06,-1.27895e-05,-4.57169e-06,0.663698,0.9494767436944336,3.4722560282585135e-06,-1.2789418214698145e-05,-0.28477349768512983,-4.571679549814078e-06,-0.2814615064356857
962,0.9505,971.985,0.00717757,0.00512896,-0.00859864,-0.00879569,0.00224521,0.668074,-0.335414,-0.330791,3.45321e-06,-1.28046e-05,-4.56817e-06,0.66421,0.950477081828742,3.4532159622902014e-06,-1.280451802143645e-05,-0.28495800232060564,-4.568159565954133e-06,-0.2816447103920474
963,0.9515,972.126,0.00716637,0.00512077,-0.00861947,-0.00877842,0.00224134,0.668586,-0.335672,-0.331045,3.43414e-06,-1.28196e-05,-4.56466e-06,0.664723,0.9514759817912077,3.4341458967634964e-06,-1.2819517829276705e-05,-0.2851424593600257,-4.564649581983993e-06,-0.28182714946486465
964,0.9525,972.267,0.00715518,0.0051126,-0.00864026,-0.0087612,0.00223748,0.669099,-0.33593,-0.331299,3.41503e-06,-1.28346e-05,-4.56116e-06,0.665235,0.9524773457977735,3.4150358312334816e-06,-1.2834517636894915e-05,-0.28532686881566804,-4.561149597903658e-06,-0.2820095422040422
965,0.9535,972.407,0.00714402,0.00510444,-0.00866103,-0.00874403,0.00223363,0.669611,-0.336187,-0.331554,3.3959e-06,-1.28495e-05,-4.55766e-06,0.665747,0.9534772701576144,3.3959057661459013e-06,-1.2849417445504052e-05,-0.28551051621068135,-4.557649613934345e-06,-0.2821926064290995
966,0.9545,972.547,0.00713288,0.0050963,-0.00868178,-0.00872692,0.00222978,0.670123,-0.336445,-0.331808,3.37673e-06,-1.28644e-05,-4.55418e-06,0.666259,0.954477706609812,3.3767357010550114e-06,-1.2864317254002167e-05,-0.285694830719905,-4.554169629744642e-06,-0.28237490635399587
967,0.9555,972.688,0.00712177,0.00508818,-0.0087025,-0.00870987,0.00222595,0.670634,-0.336702,-0.332062,3.35752e-06,-1.28792e-05,-4.5507e-06,0.66677,0.955476699938947,3.357525636404901e-06,-1.2879117063491208e-05,-0.2858783835608596,-4.5506896455549395e-06,-0.2825571599805916
968,0.9565,972.828,0.00711068,0.00508007,-0.00872319,-0.00869287,0.00222212,0.671145,-0.336959,-0.332316,3.33829e-06,-1.2894e-05,-4.54723e-06,0.667281,0.9564762038841246,3.338295572197225e-06,-1.2893916872758204e-05,-0.28606188923479536,-4.547219661366064e-06,-0.28273936732064464
969,0.9575,972.967,0.00709961,0.00507198,-0.00874386,-0.00867592,0.0022183,0.671656,-0.337216,-0.332569,3.31902e-06,-1.29088e-05,-4.54377e-06,0.667792,0.9574762187063361,3.3190255079862396e-06,-1.2908716681803156e-05,-0.2862453477538325,-4.543759677066994e-06,-0.28292081130708047
970,0.9585,973.107,0.00708857,0.00506391,-0.0087645,-0.00865903,0.00221449,0.672167,-0.337473,-0.332823,3.29972e-06,-1.29235e-05,-4.54031e-06,0.668303,0.9584767446667062,3.2997254439948165e-06,-1.2923416491950057e-05,-0.2864287591300885,-4.540299692767924e-06,-0.2831029262914263
971,0.9595,973.246,0.00707754,0.00505586,-0.00878511,-0.00864219,0.00221069,0.672678,-0.33773,-0.333076,3.28039e-06,-1.29382e-05,-4.53687e-06,0.668813,0.9594777820264937,3.2803953804450003e-06,-1.2938116301874913e-05,-0.2866121233756771,-4.536859708470509e-06,-0.283284278309077
972,0.9605,973.386,0.00706655,0.00504782,-0.00880571,-0.00862541,0.00220689,0.673188,-0.337986,-0.33333,3.26103e-06,-1.29528e-05,-4.53343e-06,0.669324,0.9604773705687395,3.2610353171147466e-06,-1.2952716112901719e-05,-0.28679472729779376,-4.533419724062071e-06,-0.2834663009845281
973,0.9615,973.525,0.00705557,0.00503981,-0.00882627,-0.00860868,0.00220311,0.673698,-0.338243,-0.333583,3.24163e-06,-1.29674e-05,-4.53e-06,0.669834,0.9614774690311603,3.241635254003228e-06,-1.2967315923595457e-05,-0.2869779975016482,-4.5299897395434385e-06,-0.2836475610800101
974,0.9625,973.664,0.00704462,0.0050318,-0.00884681,-0.00859201,0.00219933,0.674207,-0.338499,-0.333836,3.2222e-06,-1.29819e-05,-4.52658e-06,0.670343,0.9624761151967856,3.222205191333316e-06,-1.2981815735502167e-05,-0.28716050777197644,-4.526569755025633e-06,-0.2838287753224886
975,0.9635,973.803,0.00703369,0.00502382,-0.00886733,-0.00857539,0.00219556,0.674717,-0.338755,-0.334089,3.20274e-06,-1.29964e-05,-4.52317e-06,0.670853,0.9634772332789476,3.2027451288829667e-06,-1.2996315547186832e-05,-0.28734297132565545,-4.523159770508656e-06,-0.2840099437235629
976,0.9645,973.942,0.00702278,0.00501585,-0.00888782,-0.00855883,0.0021918,0.675226,-0.339012,-0.334342,3.18325e-06,-1.30109e-05,-4.51976e-06,0.671362,0.9644768975836693,3.1832550666521797e-06,-1.3010815358649452e-05,-0.2875261006488987,-4.519749785880656e-06,-0.2841910662948294
977,0.9655,974.08,0.00701189,0.0050079,-0.00890828,-0.00854232,0.00218804,0.675735,-0.339268,-0.334594,3.16373e-06,-1.30253e-05,-4.51637e-06,0.671871,0.965477070847041,3.163735004640955e-06,-1.3025215171103e-05,-0.28770847062278004,-4.5163598012543105e-06,-0.2843714274196669
978,0.9665,974.219,0.00700103,0.00499997,-0.00892872,-0.00852586,0.0021843,0.676244,-0.339523,-0.334847,3.14417e-06,-1.30396e-05,-4.51298e-06,0.672379,0.9664777533281887,3.1441749428484655e-06,-1.3039514984769518e-05,-0.2878900818063612,-4.512969816516943e-06,-0.2845524585471265
979,0.9675,974.357,0.00699019,0.00499205,-0.00894914,-0.00850946,0.00218056,0.676752,-0.339779,-0.335099,3.12459e-06,-1.3054e-05,-4.5096e-06,0.672887,0.9674769778084089,3.1245948814984104e-06,-1.3053914796889998e-05,-0.2880723586129921,-4.509589831780403e-06,-0.28473272861259036
980,0.9685,974.495,0.00697938,0.00498415,-0.00896953,-0.00849311,0.00217683,0.67726,-0.340035,-0.335351,3.10497e-06,-1.30682e-05,-4.50622e-06,0.673396,0.9684767100236187,3.10497482036709e-06,-1.3068114611436421e-05,-0.2882545887627327,-4.506209847043863e-06,-0.2849129532557212
981,0.9695,974.633,0.00696858,0.00497626,-0.00898989,-0.00847682,0.00217311,0.677768,-0.34029,-0.335604,3.08532e-06,-1.30825e-05,-4.50286e-06,0.673903,0.969476950231813,3.085324759677377e-06,-1.3082414424436806e-05,-0.28843606070394234,-4.502849862086933e-06,-0.2850938473944741
982,0.9705,974.771,0.00695781,0.0049684,-0.00901023,-0.00846058,0.0021694,0.678276,-0.340545,-0.335856,3.06564e-06,-1.30967e-05,-4.4995e-06,0.674411,0.9704776986911179,3.0656446989851815e-06,-1.3096614238650162e-05,-0.2886174863757066,-4.499489877241025e-06,-0.2852739810471372
983,0.9715,974.908,0.00694706,0.00496055,-0.00903055,-0.0084444,0.00216569,0.678783,-0.340801,-0.336108,3.04593e-06,-1.31108e-05,-4.49615e-06,0.674918,0.9714769841818209,3.0459346389566377e-06,-1.3110714053854444e-05,-0.2887995769906013,-4.496139892284923e-06,-0.2854540693118389
984,0.9725,975.046,0.00693633,0.00495271,-0.00905084,-0.00842827,0.00216199,0.67929,-0.341056,-0.336359,3.02618e-06,-1.31249e-05,-4.49281e-06,0.675425,0.9724767764387217,3.0261845789247843e-06,-1.3124813868836682e-05,-0.28898090997753023,-4.492799907329648e-06,-0.2856333978337706
985,0.9735,975.183,0.00692562,0.00494489,-0.00907111,-0.0084122,0.0021583,0.679797,-0.341311,-0.336611,3.00641e-06,-1.3139e-05,-4.48948e-06,0.675932,0.9734770757188167,3.0064145193353653e-06,-1.3138913683707898e-05,-0.28916219673044263,-4.489469922264178e-06,-0.28581339553685337
986,0.9745,975.32,0.00691494,0.00493709,-0.00909135,-0.00839618,0.00215462,0.680304,-0.341565,-0.336863,2.9866e-06,-1.3153e-05,-4.48615e-06,0.676439,0.974477882279231,2.9866044599646813e-06,-1.3152913499681063e-05,-0.28934272660420857,-4.486139937198708e-06,-0.28599334788622977
987,0.9755,975.457,0.00690428,0.00492931,-0.00911157,-0.00838021,0.00215095,0.68081,-0.34182,-0.337114,2.96677e-06,-1.3167e-05,-4.48284e-06,0.676945,0.975477220899013,2.966774400814387e-06,-1.3166913315432183e-05,-0.28952392110564373,-4.4828299521348924e-06,-0.28617254106622547
988,0.9765,975.594,0.00689364,0.00492154,-0.00913177,-0.0083643,0.00214728,0.681316,-0.342075,-0.337365,2.9469e-06,-1.3181e-05,-4.47953e-06,0.677451,0.9764770653120913,2.9469043421048724e-06,-1.3180913130961258e-05,-0.2897050694083716,-4.479519966960055e-06,-0.28635168927437715
989,0.9775,975.731,0.00688302,0.00491379,-0.00915194,-0.00834845,0.00214363,0.681822,-0.342329,-0.337616,2.927e-06,-1.31949e-05,-4.47622e-06,0.677957,0.9774774157744626,2.92700428361492e-06,-1.3194812947703305e-05,-0.2898854614099877,-4.4762099817852175e-06,-0.28653079252197144
990,0.9785,975.867,0.00687243,0.00490605,-0.00917209,-0.00833264,0.00213998,0.682327,-0.342583,-0.337867,2.90707e-06,-1.32087e-05,-4.47293e-06,0.678462,0.9784762940649687,2.907074225566575e-06,-1.32086127655473e-05,-0.29006580759785416,-4.4729199965010125e-06,-0.2867098508202919
991,0.9795,976.004,0.00686185,0.00489833,-0.00919221,-0.0083169,0.00213634,0.682833,-0.342838,-0.338118,2.88711e-06,-1.32225e-05,-4.46964e-06,0.678967,0.9794776563930692,2.887114167737792e-06,-1.3222412583169252e-05,-0.2902468177371431,-4.4696300112168075e-06,-0.28688886418061943
992,0.9805,976.14,0.0068513,0.00489063,-0.00921231,-0.0083012,0.0021327,0.683338,-0.343092,-0.338369,2.86712e-06,-1.32363e-05,-4.46636e-06,0.679473,0.9804775450601864,2.8671241101285716e-06,-1.3236212400569158e-05,-0.29042707215215813,-4.466350025822408e-06,-0.2870678326142321
993,0.9815,976.276,0.00684077,0.00488294,-0.00923238,-0.00828556,0.00212908,0.683842,-0.343345,-0.33862,2.8471e-06,-1.32501e-05,-4.46309e-06,0.679977,0.981475957321652,2.847104052960958e-06,-1.3250012217858043e-05,-0.2906065713952919,-4.463080040428835e-06,-0.287246756132405
994,0.9825,976.412,0.00683026,0.00487527,-0.00925244,-0.00826998,0.00212546,0.684347,-0.343599,-0.33887,2.82705e-06,-1.32638e-05,-4.45983e-06,0.680482,0.9824768553855898,2.827053996012907e-06,-1.3263712036248876e-05,-0.29078673444448155,-4.459820054925068e-06,-0.287424922171689
995,0.9835,976.548,0.00681978,0.00486762,-0.00927246,-0.00825445,0.00212185,0.684851,-0.343853,-0.339121,2.80697e-06,-1.32774e-05,-4.45657e-06,0.680986,0.9834762755534305,2.806973939506463e-06,-1.3277311855741658e-05,-0.290966851738068,-4.456560069532323e-06,-0.2876037560716306
996,0.9845,976.684,0.00680931,0.00485998,-0.00929247,-0.00823898,0.00211825,0.685355,-0.344106,-0.339371,2.78686e-06,-1.3291e-05,-4.45333e-06,0.68149,0.9844761995559919,2.7868638832195813e-06,-1.3290911675012396e-05,-0.2911462144342405,-4.453320083919188e-06,-0.28778183287208514
997,0.9855,976.819,0.00679887,0.00485236,-0.00931245,-0.00822356,0.00211465,0.685859,-0.34436,-0.339621,2.76671e-06,-1.33046e-05,-4.45009e-06,0.681994,0.98547662764727,2.7667138273734793e-06,-1.3304511494172111e-05,-0.2913262404315047,-4.450080098417075e-06,-0.28795986515890404
998,0.9865,976.955,0.00678845,0.00484475,-0.00933241,-0.00820819,0.00211106,0.686363,-0.344613,-0.339871,2.74654e-06,-1.33182e-05,-4.44685e-06,0.682497,0.9864775600813898,2.746543771747767e-06,-1.3318111313220804e-05,-0.2915055122138388,-4.44684011280394e-06,-0.28813785294321426
999,0.9875,977.09,0.00677804,0.00483716,-0.00935235,-0.00819288,0.00210749,0.686866,-0.344866,-0.340121,2.72634e-06,-1.33317e-05,-4.44363e-06,0.683,0.9874770096346008,2.7263437165636617e-06,-1.3331611133260424e-05,-0.29168473864614897,-4.443620127081438e-06,-0.2883157962361401
