,Time,S11,S22,S33,S12,S13,S23,LE11,LE22,LE33,LE12,LE13,LE23,SDV_EPBAR,E11,E12,E13,E22,E23,E33
0,1e-05,1.94446,0.139606,-2.22045e-16,0.521016,1.85918e-17,-3.80464e-18,9.12912e-06,-2.12914e-06,-3e-06,6.49996e-06,1.57076e-22,-1.77139e-22,0.0,9.129161670617947e-06,6.499981124896692e-06,0.0,-2.1291377333421124e-06,0.0,-2.9999955000192813e-06
1,2e-05,3.8889,0.27921,0.0,1.04203,-2.1314e-22,-5.71107e-23,1.82581e-05,-4.25827e-06,-5.99996e-06,1.29999e-05,-1.09614e-22,4.09087e-22,0.0,1.8258266680115653e-05,1.2999984499106887e-05,0.0,-4.258260933531766e-06,0.0,-5.9999420002343484e-06
2,3.5e-05,6.80552,0.488615,-6.66134e-16,1.82353,1.63949e-17,4.39301e-18,3.19515e-05,-7.45192e-06,-1.04998e-05,2.27496e-05,4.09081e-22,1.09613e-22,0.0,3.19520104545834e-05,2.2749858774151477e-05,0.0,-7.451892234500157e-06,0.0,-1.0499744877323636e-05
3,5.75e-05,11.1804,0.802715,-4.21885e-15,2.99577,-4.39369e-18,1.63953e-17,5.24912e-05,-1.22423e-05,-1.72495e-05,3.73739e-05,1.08454e-38,2.90602e-39,0.0,5.249257768724647e-05,3.737459841279822e-05,0.0,-1.2242225063352485e-05,0.0,-1.7249351228265652e-05
4,9.125e-05,17.7425,1.27385,-2.95319e-14,4.75408,4.39262e-18,-1.63956e-17,8.32998e-05,-1.94277e-05,-2.73738e-05,5.93098e-05,8.76935e-22,-3.27277e-21,0.0,8.330326952465938e-05,5.931155886096384e-05,0.0,-1.9427511283476306e-05,0.0,-2.737342534098186e-05
5,0.00014188,27.5852,1.98053,-1.54765e-13,7.39143,3.71814e-17,-7.60989e-18,0.000129511,-3.02053e-05,-4.25596e-05,9.22122e-05,2.51329e-21,-2.83436e-21,0.0,0.0001295193869115252,9.221645167567516e-05,0.0,-3.0204843824543914e-05,0.0,-4.255869435310089e-05
6,0.00021781,42.3484,3.04047,-8.02247e-13,11.3472,3.71782e-17,-7.61076e-18,0.000198823,-4.63708e-05,-6.53367e-05,0.000141563,3.27278e-21,8.76939e-22,0.0,0.0001988427666026471,0.00014157302051431842,0.0,-4.636972489102664e-05,0.0,-6.533456560431361e-05
7,0.00033172,64.491,4.63024,-4.0512e-12,17.2803,3.71733e-17,-7.61206e-18,0.000302781,-7.06166e-05,-9.94992e-05,0.000215581,-1.76382e-25,-4.72615e-26,0.0,0.00030282684279359096,0.00021560423925381933,0.0,-7.061410670661239e-05,0.0,-9.949425011879232e-05
8,0.00050258,97.7002,7.01456,-2.05163e-11,26.1787,9.80103e-17,2.89851e-16,0.000458697,-0.00010698,-0.000150736,0.000326594,-1.33605e-24,-3.57993e-25,0.0,0.00045880221755600914,0.00032664733762688414,0.0,-0.00010697427784389646,0.0,-0.00015072463989995732
9,0.00075887,147.503,10.5903,-1.03753e-10,39.5234,-4.96816e-16,4.1163e-16,0.00069252,-0.000161514,-0.000227574,0.000493077,-3.50401e-21,1.30949e-20,0.0,0.0006927598473382979,0.0004931985824463414,0.0,-0.00016150095731615188,0.0,-0.0002275481070015406
10,0.0011433,222.184,15.9521,-5.24728e-10,59.5341,6.92733e-16,1.68044e-16,0.00104314,-0.000243289,-0.000342794,0.000742721,-1.27611e-23,-3.41933e-24,0.0,0.0010436842597596474,0.0007429968855396929,0.0,-0.00024325940763114673,0.0,-0.00034273525284966855
11,0.00172,333.701,23.9584,-0.000116958,89.4148,-2.91728e-05,-3.73831e-05,0.00156879,-0.000366325,-0.000516007,0.00111724,-3.8951e-10,-3.44781e-10,2.32086e-06,0.0015700211947764497,0.0011178643451015269,-3.8950997982567515e-10,-0.0003662579111894937,-3.4478098154266945e-10,-0.0005158738912839356
12,0.0021524,340.737,24.2689,0.0219433,91.3328,-0.0550447,0.0220902,0.00195757,-0.000533007,-0.000723834,0.00143757,-7.297e-07,5.55206e-07,0.000397671,0.0019594872910255745,0.00143860379907923,-7.296997337480349e-07,-0.0005328649770032223,5.552061541624909e-07,-0.0007235720953658875
13,0.0025849,347.423,25.0846,-0.0648013,93.0793,0.0405123,-0.03802,0.0023461,-0.000697157,-0.00093388,0.0017574,7.04635e-07,-1.43524e-07,0.000795248,0.0023488542460960993,0.0017589451323860583,7.046352481498985e-07,-0.0006969140425218123,-1.4352398969297298e-07,-0.0009334440697855717
14,0.0030174,353.416,25.13,0.0531161,94.7314,-0.0730257,0.0317045,0.00273453,-0.000865784,-0.00114177,0.00207808,-8.48401e-07,9.72044e-07,0.00119546,0.0027382722374698076,0.0020802407046898175,-8.484006400744093e-07,-0.000865409317171939,9.720444724692356e-07,-0.0011411184286387321
15,0.0036661,361.858,25.6718,0.113323,96.993,-0.0925448,0.0606233,0.00331676,-0.00111681,-0.00145541,0.00255869,-1.27146e-06,2.00817e-06,0.00179892,0.003322266534717011,0.0025619662409570587,-1.2714591917095674e-06,-0.0011161865998067233,2.0081720164544237e-06,-0.0014543514044916828
16,0.0046392,373.266,27.0535,-0.218693,100.017,0.0745172,-0.116133,0.00418902,-0.00148883,-0.00193125,0.00327936,1.93949e-06,1.14782e-08,0.00271016,0.004197806208530608,0.0032847429836435627,1.939491880875721e-06,-0.0014877222424379832,1.1478199946068912e-08,-0.001929386336645078
17,0.0056392,383.742,27.9254,-0.0866643,102.779,0.0951341,-0.0737321,0.00508465,-0.00187502,-0.00241826,0.00401984,3.35419e-06,8.507e-07,0.00365217,0.0050975987701635805,0.004027930393876611,3.35419562524919e-06,-0.0018732632481529565,8.507003619317999e-07,-0.00241533836485186
18,0.0063892,390.496,27.6732,-0.0042529,104.702,-0.10839,0.0250467,0.00575579,-0.00217005,-0.00278158,0.00457622,4.40578e-07,2.48961e-06,0.00436219,0.005772386385753725,0.004586706885406855,4.4057809711617324e-07,-0.0021676971437450954,2.4896130990104126e-06,-0.0027777149907930454
19,0.0071392,397.361,28.8723,-0.0875681,106.432,0.0878477,-0.0684217,0.0064263,-0.00245733,-0.00314936,0.00513068,3.47874e-06,1.21695e-06,0.00507299,0.006446992968504706,0.005143864477431981,3.4787460507779144e-06,-0.002454313236202932,1.2169507404014013e-06,-0.0031444059678367164
20,0.0081392,405.482,29.478,-0.0913096,108.607,0.0898962,-0.0746284,0.00731952,-0.00284503,-0.00363792,0.00587071,4.37742e-06,1.10631e-06,0.00602401,0.007346373163956255,0.005887976390071659,4.3774295808152175e-06,-0.002840986737459583,1.1063106120090538e-06,-0.0036313107860631577
21,0.0091392,412.74,29.301,0.092935,110.635,-0.108981,0.057209,0.00821197,-0.00323812,-0.00412315,0.0066111,1.42443e-06,3.49425e-06,0.00697772,0.008245780713124429,0.0066330015594697755,1.4244310144739813e-06,-0.0032328829436967244,3.4942561049078336e-06,-0.004114661487516269
22,0.010139,419.927,30.5264,-0.0976566,112.477,0.0923634,-0.0787112,0.00910325,-0.00362267,-0.00461395,0.00734963,4.72127e-06,1.61309e-06,0.0079322,0.009144810596721342,0.007376704819892943,4.721281145148026e-06,-0.0036161160476929632,1.6130913009781978e-06,-0.004603322084538508
23,0.011139,426.188,30.2406,0.0978671,114.242,-0.118283,0.0591497,0.00999389,-0.00401617,-0.0050991,0.00808907,1.51535e-06,3.96989e-06,0.00888897,0.01004399569650083,0.008121874920841599,1.5153511481180715e-06,-0.004008115974984405,3.96989787998514e-06,-0.00508612165825284
24,0.012139,432.53,31.414,-0.0961543,115.857,0.0873231,-0.076913,0.0108834,-0.00440078,-0.00558979,0.00882657,4.76623e-06,2.02659e-06,0.00984579,0.010942839637183788,0.008865639032900496,4.7662413584781405e-06,-0.004391110756966521,2.026592053505638e-06,-0.005574196192776548
25,0.013139,438.291,31.8315,-0.102266,117.401,0.0874087,-0.0789103,0.011772,-0.00478896,-0.00607832,0.00956414,5.42713e-06,1.71893e-06,0.0108039,0.011841562688000185,0.009610022546009844,5.4271447269549355e-06,-0.004777511214276053,1.7189314773791153e-06,-0.006059884384424841
26,0.014139,443.593,31.5944,0.139778,118.88,-0.0941276,0.0674375,0.01266,-0.00518173,-0.00656323,0.0103017,2.70047e-06,4.12611e-06,0.0117629,0.01274047705457626,0.010354945193043363,2.7004736462554746e-06,-0.005168327995618616,4.126118512415289e-06,-0.006541739048373518
27,0.015139,448.936,32.5989,-0.102145,120.253,0.0877685,-0.0794023,0.0135467,-0.00556645,-0.00705347,0.0110376,5.59288e-06,1.97473e-06,0.0127216,0.01363887228024141,0.011098739042590955,5.592895640171847e-06,-0.005550986023654114,1.9747319497387394e-06,-0.007028652664205048
28,0.016139,453.883,33.001,-0.130865,121.577,0.101305,-0.0931203,0.0144327,-0.00595394,-0.00754166,0.0117734,6.44782e-06,1.39065e-06,0.013681,0.01453735428983638,0.011842979267179476,6.447840787293657e-06,-0.005936250424207978,1.390650967048046e-06,-0.0075132930383434715
29,0.017139,458.438,32.6062,0.178602,122.859,-0.113159,0.0863302,0.015318,-0.00634698,-0.0080253,0.0125092,3.18385e-06,4.25673e-06,0.0146409,0.015435921901854499,0.012587767305241027,3.1838550684781808e-06,-0.006326880468696117,4.256739059904646e-06,-0.007993183252892555
30,0.018139,463.127,33.6493,-0.116248,124.053,0.0959309,-0.0868788,0.0162021,-0.00673065,-0.0085152,0.0132433,6.42029e-06,1.70371e-06,0.0156001,0.01633406576640173,0.013331380895193368,6.420310610044666e-06,-0.006708049908151548,1.7037114512508111e-06,-0.0084790483700391
31,0.019139,467.466,33.9937,-0.141504,125.215,0.105595,-0.0980572,0.0170854,-0.00711762,-0.00900255,0.0139772,7.21118e-06,1.10155e-06,0.0165596,0.0172321902449748,0.014075337757210926,7.211206000556913e-06,-0.0070923497330313,1.1015506067302283e-06,-0.008962148376860046
32,0.020139,471.479,33.5488,0.187736,126.35,-0.113478,0.0894174,0.0179681,-0.00751011,-0.00948523,0.0147111,3.88602e-06,4.03941e-06,0.0175194,0.018130497508887844,0.014819840809569662,3.886027550636939e-06,-0.0074819795887717255,4.039418158408026e-06,-0.009440387099663217
33,0.021139,475.645,34.5201,-0.111485,127.411,0.0869746,-0.0821843,0.0188495,-0.00789335,-0.0099741,0.0154433,6.93219e-06,1.51867e-06,0.0184783,0.019028273321071598,0.015563163994419371,6.9322140276995015e-06,-0.007862279317225607,1.5186711532777508e-06,-0.009924523628067283
34,0.022139,479.515,34.8076,-0.12995,128.45,0.0901169,-0.0889145,0.0197302,-0.00827985,-0.0104603,0.0161753,7.52436e-06,1.01346e-06,0.0194374,0.019926126833145874,0.01630682837842179,7.524388307977858e-06,-0.008245666451933031,1.013460513510367e-06,-0.010405781321453644
35,0.023139,483.142,34.4512,0.1748,129.467,-0.0959708,0.079376,0.0206103,-0.00867089,-0.0109424,0.0169071,4.7111e-06,3.6227e-06,0.0203964,0.02082415893843348,0.017050833913851315,4.7111110972331005e-06,-0.008633406250697417,3.6227065620675347e-06,-0.010882749711810025
36,0.024139,486.912,35.4017,-0.133938,130.422,0.107267,-0.095897,0.0214891,-0.00905319,-0.0114305,0.0176374,7.88086e-06,9.73352e-07,0.0213545,0.02172165351066302,0.017793857419868386,7.880891053968497e-06,-0.009012333262974237,9.73352473732092e-07,-0.011365420036400287
37,0.025139,490.394,35.5992,-0.13551,131.365,0.0923991,-0.091408,0.0223672,-0.00943922,-0.0119154,0.0183675,8.23875e-06,5.89534e-07,0.0223125,0.022619221314081672,0.018537220046676905,8.238783938629979e-06,-0.009394810403389742,5.895341737005566e-07,-0.011844692735167972
38,0.026139,493.693,35.2436,0.170766,132.288,-0.0872506,0.0753145,0.0232447,-0.00982927,-0.0123966,0.0190973,5.55594e-06,3.13272e-06,0.0232704,0.023516963507566713,0.01928081981641916,5.555955434166648e-06,-0.009781120612545657,3.1327249070400853e-06,-0.01232007868199192
39,0.027139,497.113,36.0915,-0.124313,133.161,0.0941147,-0.0881454,0.0241209,-0.0102112,-0.0128832,0.0198257,8.36083e-06,6.70895e-07,0.0242273,0.024414162076284773,0.020023534429397083,8.360864951928448e-06,-0.01015924269646995,6.708952251521794e-07,-0.012800566819460513
40,0.028139,500.1,35.5016,0.157521,134.042,-0.144362,0.0827518,0.0249966,-0.0106019,-0.0133631,0.0205545,4.63855e-06,3.29265e-06,0.0251845,0.025311634458945464,0.02076719853957454,4.638560758163379e-06,-0.010545897942327742,3.2926554207612924e-06,-0.013274210167632305
41,0.029139,503.194,35.7093,0.125142,134.882,-0.145432,0.0728045,0.0258714,-0.0109881,-0.0138454,0.0212821,3.87868e-06,3.5998e-06,0.0261408,0.026208969513897395,0.021510179016751563,3.8786875220520045e-06,-0.010927951337283193,3.599806479348544e-06,-0.013749993271750194
42,0.030139,506.556,36.7904,-0.0250075,135.667,0.0971365,-0.0497305,0.0267451,-0.0113684,-0.0143305,0.022008,7.44823e-06,1.8517e-06,0.0270959,0.027105960083832148,0.022251962453425866,7.448257738129627e-06,-0.011304023922654949,1.8517017144059622e-06,-0.014228307125608963
43,0.031139,509.194,36.1288,0.131313,136.49,-0.149002,0.0758202,0.0276182,-0.0117582,-0.0148097,0.022735,3.61482e-06,3.85407e-06,0.0280517,0.028003117894831675,0.022995409840510295,3.6148265334379204e-06,-0.01168934251065823,3.8540774269790745e-06,-0.01470057575623307
44,0.032139,512.086,36.3698,0.112293,137.264,-0.137829,0.0658632,0.0284904,-0.0121432,-0.0152909,0.0234605,3.0574e-06,4.10981e-06,0.0290063,0.028900133345831858,0.02373786230241426,3.0574046738784943e-06,-0.01206976887701705,4.109818445341418e-06,-0.015174587782739057
45,0.033139,515.201,37.3616,-0.020922,137.992,0.0844127,-0.0441206,0.0293616,-0.012523,-0.0157746,0.0241845,6.29344e-06,2.54508e-06,0.0299597,0.029796901717585644,0.02447931688889371,6.293459803741186e-06,-0.012444913534317648,2.5450832388251854e-06,-0.015650832645523027
46,0.034139,517.932,37.6703,-0.144436,138.729,0.120328,-0.1023,0.0302319,-0.0129053,-0.0162571,0.0249086,7.38382e-06,1.32558e-06,0.0309131,0.03069352406977366,0.02522141100500308,7.383847260511445e-06,-0.012822383685856642,1.3255808786194478e-06,-0.01612566655587866
47,0.035139,520.437,37.0083,0.235217,139.468,-0.133599,0.110349,0.0311018,-0.0132942,-0.0167337,0.0256326,3.54577e-06,4.5735e-06,0.0318664,0.03159051445576555,0.02596394006965763,3.5457762861401676e-06,-0.013206222418561842,4.5735104585720165e-06,-0.016594469338621076
48,0.036139,522.984,37.158,0.129626,140.179,-0.137706,0.0708073,0.0319705,-0.0136781,-0.0172135,0.0263556,2.80965e-06,4.46966e-06,0.0328187,0.03248704648798162,0.02670598021351611,2.809653947055679e-06,-0.013584979842636069,4.469669989015657e-06,-0.017066194136403867
49,0.037139,525.869,38.153,0.00760498,140.839,0.0898183,-0.0368688,0.0328384,-0.0140567,-0.0176956,0.0270768,6.12526e-06,2.96878e-06,0.0337696,0.03338353096879598,0.02744670764065016,6.1252787595389435e-06,-0.01395836588283017,2.968784406753855e-06,-0.017539952315625662
50,0.038139,528.34,38.4161,-0.135628,141.516,0.119538,-0.0992663,0.0337053,-0.0144379,-0.0181764,0.0277983,7.11647e-06,1.71714e-06,0.0347206,0.03427975956595075,0.028188277929525052,7.116495322145866e-06,-0.014334173320307286,1.7171414743444302e-06,-0.018012205567772943
51,0.039139,530.627,37.7623,0.235704,142.195,-0.127596,0.10836,0.0345718,-0.0148253,-0.0186516,0.0285196,3.40409e-06,4.87404e-06,0.0356712,0.03517635136991526,0.028930177668370582,3.4040957939129868e-06,-0.014715946307360728,4.874051878100971e-06,-0.018478735311440952
52,0.040139,533.202,38.7592,-0.156248,142.825,0.118946,-0.106479,0.035437,-0.015202,-0.0191339,0.0292392,7.09288e-06,1.68861e-06,0.0366204,0.036072373512404665,0.029670862290585687,7.092905154548745e-06,-0.015087032911836551,1.6886114257985696e-06,-0.018952008878305504
53,0.041139,535.316,37.9868,0.177242,143.483,-0.157393,0.0920337,0.0363017,-0.0155893,-0.0196081,0.0299594,2.87188e-06,4.6426e-06,0.0375698,0.03696865274426053,0.030412698348706968,2.871884123845092e-06,-0.015468415844417605,4.64261077692818e-06,-0.019417111551136124
54,0.042139,537.634,38.2173,0.123455,144.106,-0.135614,0.0676009,0.0371655,-0.0159709,-0.0200855,0.0306783,2.48671e-06,4.69252e-06,0.038518,0.037864773245225525,0.031153728368875644,2.4867130918870828e-06,-0.015844041423012767,4.692531009986567e-06,-0.01988513009716586
55,0.043139,540.182,39.1149,-0.0108218,144.691,0.0731422,-0.0367531,0.0380283,-0.0163479,-0.0205649,0.0313956,5.4681e-06,3.23227e-06,0.039465,0.0387606293883469,0.03189364027591535,5.4681149501689674e-06,-0.016214998289633353,3.2322752236968455e-06,-0.02035488455665657
56,0.044139,542.381,39.3493,-0.12989,145.291,0.0989785,-0.0901949,0.0388903,-0.0167274,-0.021043,0.0321131,6.28788e-06,2.14502e-06,0.0404118,0.03965642708421835,0.03263428963899795,6.287899768864236e-06,-0.016588273864262204,2.1450223004482183e-06,-0.02082314094074189
57,0.045139,544.45,38.8214,0.212445,145.893,-0.10761,0.0940629,0.0397517,-0.017112,-0.0215162,0.0328302,3.1938e-06,4.91856e-06,0.0413582,0.04055237295899694,0.03337505725858425,3.1938051001656476e-06,-0.016966421291722433,4.918572096057616e-06,-0.021286377819959235
58,0.046139,546.717,39.6327,-0.128287,146.458,0.0909646,-0.087946,0.0406119,-0.0174878,-0.0219954,0.033546,6.12748e-06,2.24179e-06,0.0423033,0.041447841195888735,0.034115011922750016,6.1274987730453034e-06,-0.0173357759045224,2.2417925127360405e-06,-0.021755265033358895
59,0.047139,548.646,39.0574,0.140523,147.043,-0.123612,0.0688811,0.0414717,-0.0178719,-0.0224679,0.034262,2.85944e-06,4.54581e-06,0.0432484,0.04234366310840221,0.034855703407194794,2.8594440881768435e-06,-0.01771314475467034,4.5458203321580015e-06,-0.02221737648820199
60,0.048139,550.632,39.0109,0.139853,147.611,-0.17521,0.0871738,0.0423305,-0.0182529,-0.0229419,0.0349771,1.38212e-06,5.20766e-06,0.0441925,0.04323921234007799,0.035595993379834434,1.3821209550179958e-06,-0.018087324760701295,5.2076735599371204e-06,-0.022680735626955273
61,0.049139,553.093,40.2724,-0.0599367,148.12,0.140698,-0.0730934,0.0431883,-0.0186258,-0.0234201,0.03569,6.01383e-06,2.87797e-06,0.0451349,0.04413448686477017,0.03633453298467826,6.013848083075146e-06,-0.018453411736139236,2.8779741414464155e-06,-0.023147977972629685
62,0.050139,554.726,39.3601,0.152195,148.695,-0.161052,0.0847539,0.0440456,-0.0190104,-0.023891,0.0364045,1.48315e-06,5.26298e-06,0.0460781,0.04503000717029049,0.03707525860120997,1.4831510999346875e-06,-0.018830841969499357,5.262993849397546e-06,-0.023607869299891115
63,0.051139,557.004,40.4838,-0.137915,149.196,0.123671,-0.101509,0.0449017,-0.0193831,-0.0243685,0.0371164,5.63783e-06,2.47615e-06,0.0470192,0.04592504042374834,0.037813815335886014,5.637845892580984e-06,-0.01919645557836913,2.4761530657002595e-06,-0.02407398524826132
64,0.052139,558.679,39.6825,0.158926,149.745,-0.150688,0.0834836,0.0457574,-0.0197666,-0.0248384,0.0378294,1.50445e-06,5.18931e-06,0.0479608,0.046820421515004096,0.038554040445113014,1.504451131673079e-06,-0.019572521622381767,5.189323464493967e-06,-0.024532465154302963
65,0.053139,560.853,40.7222,-0.137273,150.234,0.113269,-0.0977163,0.0466119,-0.020139,-0.0253149,0.0385401,5.34535e-06,2.48628e-06,0.0489005,0.047715311852633446,0.039292403147765054,5.34536428631327e-06,-0.019937564840063815,2.4862830907412814e-06,-0.02499716471119484
66,0.054139,562.5,39.9949,0.149616,150.764,-0.139494,0.0768729,0.0474659,-0.0205214,-0.0257842,0.0392516,1.53937e-06,5.03447e-06,0.0498405,0.04861044289550809,0.04003212281667112,1.5393711847444536e-06,-0.020312269067254585,5.034482672972018e-06,-0.02545462619006389
67,0.055139,564.59,40.9491,-0.125675,151.24,0.101223,-0.0898792,0.0483188,-0.0208936,-0.0262596,0.0399611,5.02895e-06,2.55079e-06,0.0507787,0.04950518425046546,0.04077028744074451,5.028962645203805e-06,-0.02067684098966427,2.550793253286443e-06,-0.025917814952080787
68,0.056139,566.207,40.3041,0.135686,151.753,-0.126601,0.0682389,0.0491712,-0.0212749,-0.0267283,0.0406712,1.5991e-06,4.84971e-06,0.0517171,0.05040016385563839,0.04150960088402811,1.5991012785043779e-06,-0.021050185727497284,4.84972175995857e-06,-0.026374260295890406
69,0.057139,567.93,40.2598,0.137663,152.246,-0.172798,0.0853309,0.0500227,-0.0216528,-0.0271986,0.0413803,2.28142e-07,5.46748e-06,0.0526545,0.05129496050076865,0.04224839725131013,2.2814202593757216e-07,-0.021420060969981947,5.467494946786999e-06,-0.02683204882386303
70,0.058139,570.109,41.4621,-0.0598366,152.685,0.133101,-0.0699513,0.0508732,-0.0220229,-0.0276729,0.0420873,4.67443e-06,3.22316e-06,0.0535901,0.05218946719972806,0.042985527412974456,4.674440925223067e-06,-0.02178216639367514,3.2231651942993267e-06,-0.027293512938240228
71,0.059139,571.52,40.6212,0.138706,153.188,-0.144317,0.0748751,0.0517232,-0.022404,-0.0281403,0.0427958,5.47833e-07,5.38109e-06,0.0545265,0.05308420845801165,0.043724744495875933,5.478331499553235e-07,-0.022154894182271234,5.381104478008325e-06,-0.027748049716772805
72,0.060139,573.504,41.59,-0.118443,153.627,0.101876,-0.087406,0.052572,-0.0227745,-0.0286135,0.0435019,4.09948e-06,2.97093e-06,0.0554609,0.053978445794788055,0.04446197878790059,4.0994884029643686e-06,-0.02251711868774342,2.9709344131489956e-06,-0.02820801050434174
73,0.061139,575.2,41.7755,-0.187439,154.086,0.123575,-0.116212,0.0534202,-0.0231483,-0.0290843,0.0442081,4.9406e-06,2.09418e-06,0.0563951,0.05487280955856311,0.04519983834486485,4.940612204684669e-06,-0.022882433507184552,2.094182192768912e-06,-0.028665422489766
74,0.062139,576.747,41.108,0.214495,154.552,-0.115777,0.0978819,0.0542678,-0.0235279,-0.0295499,0.0449141,1.42732e-06,5.21587e-06,0.0573288,0.05576729878292608,0.04593800997466069,1.427321018709904e-06,-0.023253276944887658,5.215883602582849e-06,-0.02911757060080633
75,0.063139,578.529,41.9034,-0.129744,154.985,0.0889431,-0.0867884,0.0551143,-0.0238981,-0.0300219,0.0456186,4.39599e-06,2.53214e-06,0.0582611,0.05666138416959687,0.046675132923759355,4.395999662287764e-06,-0.0236148016594091,2.532143205780102e-06,-0.029575718975960563
76,0.064139,580.151,42.0612,-0.191916,155.427,0.104127,-0.111252,0.05596,-0.0242711,-0.0304913,0.0463229,5.06114e-06,1.73663e-06,0.0591929,0.057555380675328616,0.04741256587640885,5.0611528075172885e-06,-0.023978925425086173,1.7366315079314631e-06,-0.030031129240322252
77,0.065139,581.695,41.5215,0.205612,155.869,-0.0993337,0.0898018,0.0568053,-0.024649,-0.0309559,0.0470267,2.07551e-06,4.65389e-06,0.0601242,0.0584497101737238,0.04814999431089917,2.0755121539206556e-06,-0.02434769410593718,4.653900829376667e-06,-0.03048167210846464
78,0.066139,583.171,41.4333,0.162016,156.309,-0.152918,0.0865609,0.0576495,-0.0250239,-0.0314227,0.04773,7.24762e-07,5.00713e-06,0.0610547,0.05934363068981274,0.04888741748636183,7.247622626493921e-07,-0.024713397600013676,5.007142535706777e-06,-0.03093413765025088
79,0.067139,585.077,42.4861,-0.0468487,156.701,0.118099,-0.0611205,0.0584928,-0.0253918,-0.0318929,0.0484313,4.64824e-06,2.90473e-06,0.0619835,0.060237351958181806,0.0496232602253428,4.64825080315201e-06,-0.02507213954640919,2.9047342187116243e-06,-0.03138968531107966
80,0.068139,586.574,42.6147,-0.166585,157.125,0.128288,-0.110534,0.0593354,-0.0257634,-0.0323609,0.0491331,5.35097e-06,1.80706e-06,0.0629124,0.06113108442755388,0.05036014437177139,5.350984316532248e-06,-0.025434355435473455,1.8070616327747757e-06,-0.03184288888044695
81,0.069139,587.964,41.9259,0.222798,157.554,-0.113473,0.0990821,0.0601775,-0.0261407,-0.0328236,0.0498345,1.82792e-06,4.86484e-06,0.0638407,0.062025039260604986,0.05109712540606859,1.8279216706940105e-06,-0.025801989694603455,4.864851833374928e-06,-0.032290751554741925
82,0.070139,589.354,41.8196,0.174255,157.974,-0.170039,0.0957114,0.0610185,-0.0265144,-0.0332886,0.0505353,3.72551e-07,5.25019e-06,0.0647681,0.06291857799899736,0.05183399243960429,3.7255106932754245e-07,-0.02616597947532806,5.250203782170004e-06,-0.03274063175001729
83,0.071139,591.219,42.966,-0.0566346,158.343,0.129573,-0.0677848,0.0618587,-0.0268804,-0.0337575,0.0512339,4.69774e-06,2.92475e-06,0.0656937,0.06381201746959442,0.05256906039606446,4.697751034399289e-06,-0.026522337509341853,2.9247542769894608e-06,-0.033194073350098496
84,0.072139,592.382,42.1666,0.128806,158.773,-0.131315,0.0670369,0.0626983,-0.0272567,-0.0342197,0.0519339,8.59349e-07,4.90353e-06,0.06662,0.06470556909994563,0.05330611667794383,8.593493692199417e-07,-0.026888588239340483,4.903542022427487e-06,-0.03364082779649025
85,0.073139,593.776,42.121,0.124616,159.175,-0.171207,0.0796232,0.063537,-0.0276292,-0.0346834,0.0526326,-3.85233e-07,5.41315e-06,0.067545,0.0655989122318259,0.054042318823936286,-3.852329257814091e-07,-0.027251004735958206,5.413164651191238e-06,-0.03408882466853902
86,0.074139,595.618,43.2521,-0.0519994,159.526,0.121625,-0.0632566,0.0643749,-0.0279943,-0.0351507,0.0533292,3.81559e-06,3.36711e-06,0.0684682,0.06649215173081302,0.05477682050046151,3.815597279466232e-06,-0.027606090569265884,3.367115668728715e-06,-0.03454008951452825
87,0.075139,596.999,43.3749,-0.163311,159.915,0.131949,-0.110442,0.065212,-0.0283637,-0.0356157,0.0540264,4.522e-06,2.30761e-06,0.0693916,0.0673852860802544,0.055512467316395364,4.522010224272677e-06,-0.027965226542911337,2.307612662511005e-06,-0.03498892401079612
88,0.076139,598.254,42.6619,0.215414,160.314,-0.113558,0.096398,0.0660485,-0.0287387,-0.0360755,0.0547235,9.60571e-07,5.30718e-06,0.0703144,0.06827852741816431,0.056248521579268074,9.605714612614946e-07,-0.028329671245305277,5.307194083092881e-06,-0.03543253410975877
89,0.077139,599.536,42.5639,0.168141,160.702,-0.165818,0.0920908,0.0668841,-0.02911,-0.0365377,0.0554197,-4.0718e-07,5.65417e-06,0.0712363,0.06917155401022379,0.05698413783829892,-4.071799171168067e-07,-0.028690385467632362,5.654185984749205e-06,-0.035878254178650426
90,0.078139,601.273,43.6611,-0.0535353,161.041,0.122467,-0.0643734,0.0677188,-0.0294739,-0.0370035,0.0561139,3.73425e-06,3.43689e-06,0.0721565,0.07006436406879724,0.05771815097326782,3.7342569723097796e-06,-0.029043780732192492,3.436895906094861e-06,-0.036327237511517785
91,0.079139,602.583,43.7646,-0.168601,161.415,0.129136,-0.111202,0.0685528,-0.0298419,-0.0374668,0.0568085,4.37524e-06,2.3839e-06,0.0730767,0.07095716999675283,0.058453097218215566,4.37524957130897e-06,-0.02940102688355961,2.3839028415739705e-06,-0.03677360369366833
92,0.080139,603.795,43.075,0.215527,161.796,-0.109397,0.0950857,0.0693863,-0.0302155,-0.037925,0.0575029,9.23752e-07,5.36496e-06,0.0739964,0.07185018491021067,0.059188342296470964,9.237524265515162e-07,-0.029763574931723547,5.3649743914085946e-06,-0.037214852930535836
93,0.081139,605.019,42.9802,0.164379,162.168,-0.159487,0.0886337,0.0702188,-0.0305854,-0.0383856,0.0581966,-3.81783e-07,5.6649e-06,0.0749152,0.07274287171847549,0.05992335615960531,-3.8178292716128936e-07,-0.0301223990167504,5.664916045589052e-06,-0.03765820965638378
94,0.082139,606.681,44.0259,-0.0486488,162.493,0.115562,-0.0606226,0.0710504,-0.0309482,-0.0388495,0.0588883,3.55897e-06,3.55632e-06,0.0758323,0.07363533572569803,0.06065675876310994,3.5589763331955737e-06,-0.030474206788598468,3.5563263236504383e-06,-0.038104536479413365
95,0.083139,607.932,44.115,-0.1593,162.853,0.119173,-0.104949,0.0718813,-0.0313151,-0.0393112,0.0595805,4.11237e-06,2.5661e-06,0.0767494,0.07452779004495413,0.061391199532151,4.112378455767285e-06,-0.030829860553454824,2.5661032925228255e-06,-0.03854854110856487
96,0.084139,609.108,43.486,0.204333,163.217,-0.100557,0.088561,0.0727117,-0.031687,-0.039768,0.0602723,9.38121e-07,5.35483e-06,0.0776659,0.07542044850230334,0.06212572400670857,9.381214400860927e-07,-0.031190227913850843,5.354844337057685e-06,-0.038987631839028314
97,0.085139,610.283,43.4011,0.150417,163.575,-0.146813,0.0799067,0.0735411,-0.0320554,-0.040227,0.0609634,-2.58566e-07,5.58562e-06,0.0785815,0.07631277221778321,0.06286001279883568,-2.585659665266249e-07,-0.031547071699226215,5.585635599603123e-06,-0.0394286352979778
98,0.086139,611.867,44.3583,-0.0377472,163.888,0.103678,-0.0533803,0.0743696,-0.0324174,-0.040689,0.0616526,3.31973e-06,3.70898e-06,0.0794955,0.07720486684873773,0.06359278840512506,3.3197355102654313e-06,-0.03189758821195454,3.708986878292464e-06,-0.039872316770158345
99,0.087139,613.063,44.4311,-0.142681,164.234,0.103506,-0.0945159,0.0751975,-0.0327832,-0.0411488,0.0623423,3.75385e-06,2.80667e-06,0.0804095,0.07809705402792466,0.06432660137760293,3.7538570456518983e-06,-0.03225165531136598,2.8066739385934625e-06,-0.04031368200126484
100,0.088139,614.216,43.8955,0.187857,164.582,-0.0876665,0.0790939,0.0760248,-0.0331531,-0.0416043,0.0630315,9.95073e-07,5.30312e-06,0.0813228,0.07898933276092834,0.06506038810513326,9.950734951580387e-07,-0.03260955922565645,5.303134061662718e-06,-0.040750719576249095
101,0.089139,615.594,44.7493,-0.197432,164.903,0.147687,-0.117383,0.0768509,-0.033514,-0.0420661,0.0637193,4.56262e-06,2.37421e-06,0.0822348,0.07988105412351865,0.06579318862128081,4.562630408821988e-06,-0.03295862744258338,2.374212818345711e-06,-0.041193598625305694
102,0.090139,616.779,44.7584,-0.214406,165.235,0.124166,-0.124407,0.0776765,-0.033879,-0.0425243,0.064407,4.7863e-06,1.77676e-06,0.0831464,0.08077297205486289,0.06652638667835142,4.786311454285652e-06,-0.03331153313436008,1.7767615785313495e-06,-0.04163282308440752
103,0.091139,617.908,44.1514,0.189713,165.572,-0.0909971,0.0802806,0.0785016,-0.0342485,-0.0429782,0.0650943,1.71548e-06,4.66217e-06,0.0840573,0.0816650858250294,0.06725966222519175,1.715481471542546e-06,-0.0336686585398851,4.662180868031385e-06,-0.04206772723704533
104,0.092139,619.005,44.0581,0.146968,165.907,-0.138732,0.0759086,0.0793257,-0.0346146,-0.0434343,0.065781,5.44765e-07,4.92228e-06,0.0849675,0.08255685342462771,0.06799280112967487,5.447651483247995e-07,-0.03402236769358247,4.9222921143510234e-06,-0.04250454052381003
105,0.093139,620.48,44.9523,-0.0386745,166.2,0.0963483,-0.0514336,0.0801489,-0.0349747,-0.0438933,0.066466,3.89269e-06,3.1317e-06,0.085876,0.08344838112882402,0.0687246268201318,3.892697576501902e-06,-0.03437015361636242,3.1317049038470657e-06,-0.04294393009208941
106,0.094139,621.595,45.0068,-0.134328,166.525,0.092183,-0.0881683,0.0809714,-0.0353382,-0.0443502,0.0671513,4.22125e-06,2.31715e-06,0.0867845,0.0843398840026004,0.0694572748200557,4.2212589095314e-06,-0.03472109627782993,2.31715268461663e-06,-0.043381109129273954
107,0.095139,622.689,44.5359,0.174026,166.849,-0.0784575,0.0715362,0.0817934,-0.0357055,-0.0448031,0.067836,1.76281e-06,4.60215e-06,0.0876923,0.08523157782320201,0.07018978296166956,1.7628115538403932e-06,-0.0350755781145925,4.602160589950444e-06,-0.043814263729686
108,0.096139,623.962,45.2857,-0.177448,167.152,0.127862,-0.10494,0.0826143,-0.0360647,-0.0452616,0.0685196,4.87491e-06,1.98197e-06,0.0885989,0.08612281018171042,0.07092161480892845,4.874921882391803e-06,-0.035422116724873276,1.9819719641045452e-06,-0.04425257439936636
109,0.097139,625.071,45.2828,-0.188971,167.465,0.102342,-0.109194,0.0834346,-0.0364277,-0.0457169,0.0692029,4.97412e-06,1.4898e-06,0.089505,0.08701412224456528,0.0716536256113367,4.9741323708829555e-06,-0.035772194953459624,1.4898011098107844e-06,-0.0446876271549671
110,0.098139,626.157,44.7955,0.166985,167.778,-0.0755864,0.0679434,0.0842544,-0.0367941,-0.0461684,0.0698858,2.43801e-06,3.9749e-06,0.0904104,0.08790562179771877,0.0723857078132839,2.438012971950343e-06,-0.036125423305842785,3.974907899939595e-06,-0.04511885333467103
111,0.099139,627.391,45.5327,-0.190616,168.074,0.128394,-0.109746,0.085073,-0.0371523,-0.0466256,0.0705675,5.51926e-06,1.32352e-06,0.0913147,0.0887965459452249,0.0731170023837342,5.5192752310695425e-06,-0.0364706213505539,1.3235208757844674e-06,-0.045555325209852726
112,0.1001,628.475,45.5228,-0.190325,168.378,0.100795,-0.109147,0.0858911,-0.0375144,-0.0470796,0.071249,5.58266e-06,8.95349e-07,0.0922184,0.08968765485786268,0.0738485808779159,5.582675583148955e-06,-0.0368194521789299,8.95349400842349e-07,-0.0459885447439321
113,0.1011,629.534,45.0443,0.161422,168.683,-0.0739261,0.0655388,0.0867087,-0.0378798,-0.04753,0.07193,3.09508e-06,3.33767e-06,0.0931215,0.09057894779537712,0.07458012082257337,3.095084789794811e-06,-0.03717133405836914,3.33767556992548e-06,-0.04641813475244727
114,0.1021,630.737,45.7598,-0.185441,168.971,0.124018,-0.106749,0.0875251,-0.0382372,-0.0479859,0.0726099,6.07956e-06,7.68986e-07,0.0940234,0.09146965998760193,0.07531097627287697,6.079578480644443e-06,-0.037515387537557676,7.689862957516169e-07,-0.046852773641350764
115,0.1031,631.792,45.7445,-0.183536,169.268,0.095411,-0.105227,0.0883409,-0.0385983,-0.0484387,0.0732896,6.10527e-06,3.71108e-07,0.0949249,0.09236044423771173,0.07604211359231927,6.105288637092698e-06,-0.03786287798794119,3.7110806894169457e-07,-0.047284261009333584
116,0.1041,632.83,45.2938,0.155171,169.565,-0.0703372,0.0623373,0.0891562,-0.0389626,-0.0488879,0.0739687,3.74616e-06,2.7096e-06,0.0958256,0.09325140886027405,0.07677310197067078,3.74616701681596e-06,-0.038213320704473586,2.7096036709917115e-06,-0.047712124813883094
117,0.1051,633.996,45.9674,-0.175654,169.847,0.115637,-0.10104,0.0899704,-0.0393193,-0.0493425,0.0746468,6.5437e-06,2.77735e-07,0.0967252,0.0941418966257439,0.0775035094277774,6.543721410068315e-06,-0.038556328833841524,2.777350385230193e-07,-0.04814493649639351
118,0.1061,635.024,45.949,-0.172935,170.136,0.0867088,-0.0990298,0.090784,-0.0396795,-0.049794,0.0753246,6.52754e-06,-8.65684e-08,0.0976243,0.09503245270192551,0.07823408887187133,6.527561304370266e-06,-0.038902578480890515,-8.656839622922519e-08,-0.04857460205326691
119,0.1071,636.047,45.5434,0.14677,170.425,-0.0649635,0.0578944,0.0915971,-0.0400426,-0.0502422,0.0760019,4.36786e-06,2.09967e-06,0.0985227,0.09592318566763014,0.07896462418812233,4.367869539168012e-06,-0.03925148960599589,2.099672204325387e-06,-0.04900093536819383
120,0.1081,637.172,46.1573,-0.161811,170.702,0.103707,-0.0929536,0.0924091,-0.0403987,-0.0506954,0.0766782,6.89795e-06,-1.41436e-07,0.09942,0.09681343668739117,0.07969457476842723,6.8979737908314576e-06,-0.03959355124285813,-1.4143599003091367e-07,-0.049431830496073914
121,0.1091,638.176,46.1382,-0.158825,170.984,0.0751458,-0.0908,0.0932206,-0.040758,-0.0511456,0.0773542,6.8378e-06,-4.68928e-07,0.100317,0.09770386203248238,0.08042469505382321,6.83782337773664e-06,-0.03993856329476986,-4.689278900738003e-07,-0.04985967996984164
122,0.1101,639.189,45.7923,0.136423,171.265,-0.0580954,0.0523677,0.0940315,-0.0411197,-0.0515929,0.0780296,4.9379e-06,1.52241e-06,0.101213,0.0985943510941989,0.08115466037440267,4.937912191360638e-06,-0.040285754723071165,1.5224111589162703e-06,-0.050284582698411406
123,0.1111,640.271,46.3318,-0.144381,171.537,0.0888457,-0.0828293,0.0948413,-0.0414753,-0.0520446,0.0787042,7.13407e-06,-4.81736e-07,0.102108,0.0994843531128955,0.08188425337234051,7.134095447502986e-06,-0.04062696843729763,-4.817358839614982e-07,-0.05071347228040213
124,0.1121,641.156,45.6285,0.248933,171.822,-0.150979,0.118572,0.0956508,-0.0418386,-0.0524896,0.0793787,3.53009e-06,2.49014e-06,0.103003,0.10037474603465313,0.08261423045833705,3.5300962308859596e-06,-0.04097544535499942,2.4901431003865326e-06,-0.05113581080794549
125,0.1131,642.098,45.6518,0.16893,172.101,-0.160563,0.0889751,0.0964593,-0.0421974,-0.0529377,0.0800525,2.77972e-06,2.46824e-06,0.103896,0.1012647587559834,0.08334394173894255,2.779723863532979e-06,-0.04131948164140542,2.4682430461719918e-06,-0.051560901602417
126,0.1141,643.38,46.5538,-0.0371009,172.343,0.0825711,-0.0471086,0.097267,-0.0425507,-0.0533883,0.0807245,6.15996e-06,5.96989e-07,0.104789,0.10215460961952516,0.08407219353298845,6.159978972686275e-06,-0.041658123643909195,5.969891780921444e-07,-0.05198817198890748
127,0.1151,644.314,46.6035,-0.126958,172.616,0.0804916,-0.081953,0.098074,-0.0429076,-0.0538367,0.081397,6.44836e-06,-1.5242e-07,0.105681,0.10304440737459242,0.08480147727731313,6.448380790669006e-06,-0.04200009483119238,-1.524199884084254e-07,-0.052413165201988465
128,0.1161,645.235,46.1762,0.15785,172.889,-0.0734091,0.0642159,0.0988805,-0.0432679,-0.0542814,0.0820689,4.23084e-06,1.91789e-06,0.106572,0.10393437151894203,0.08553060031134874,4.230848950070865e-06,-0.04234520002259112,1.9178918391205e-06,-0.05283446338482922
129,0.1171,646.307,46.8274,-0.1565,173.145,0.107371,-0.0920953,0.099686,-0.0436209,-0.0547311,0.0827398,6.92048e-06,-3.79644e-07,0.107463,0.10482394888438562,0.0862591271480988,6.920503946572509e-06,-0.04268319250779984,-3.7964392796130397e-07,-0.053260307968313936
130,0.1181,647.235,46.7948,-0.157549,173.41,0.0767125,-0.0908208,0.100491,-0.0439775,-0.0551778,0.0834104,6.83305e-06,-7.11081e-07,0.108353,0.10571369023608379,0.08698781682110379,6.8330733453692005e-06,-0.043024510820679374,-7.110807471732983e-07,-0.053683122146167106
131,0.1191,648.175,46.4385,0.134498,173.673,-0.0578995,0.0515347,0.101295,-0.0443364,-0.0556215,0.0840804,4.91958e-06,1.26158e-06,0.109242,0.10660304151433997,0.08771634268728623,4.919592101249037e-06,-0.043367907697490216,1.261580795830497e-06,-0.05410290980809107
132,0.1201,649.19,46.9674,-0.141965,173.927,0.0872305,-0.0816237,0.102099,-0.0446892,-0.0560696,0.0847495,7.08099e-06,-7.05596e-07,0.11013,0.10749310811854618,0.08844437722897269,7.0810150702982355e-06,-0.04370534797169012,-7.055957510493371e-07,-0.054526671343343436
133,0.1211,650.011,46.2753,0.242156,174.195,-0.147788,0.115048,0.102902,-0.0450496,-0.0565112,0.0854187,3.55857e-06,2.18279e-06,0.111018,0.10838278224071973,0.08917300797887151,3.5585763316081653e-06,-0.04404993446606509,2.1827923821771122e-06,-0.054944100190205236
134,0.1221,650.893,46.3076,0.160809,174.455,-0.153578,0.0839415,0.103704,-0.0454054,-0.0569558,0.086087,2.89493e-06,2.1151e-06,0.111905,0.10927206178550852,0.0899011455801828,2.8949341903672376e-06,-0.044390000997958534,2.11510223691036e-06,-0.055364178652898666
135,0.1231,652.094,47.1511,-0.031439,174.682,0.0741123,-0.0426932,0.104505,-0.0457562,-0.0574027,0.0867538,6.04494e-06,3.82343e-07,0.11279,0.11016094465706305,0.09062813401506364,6.044958270612355e-06,-0.04472517019349431,3.823430732019517e-07,-0.05578624208436045
136,0.1241,652.742,46.3705,0.175603,174.963,-0.172688,0.098902,0.105306,-0.0461157,-0.0578437,0.0874217,2.27903e-06,2.51785e-06,0.113676,0.11105053980902801,0.09135680785931477,2.2790325970856173e-06,-0.04506852977222753,2.517853169736739e-06,-0.05620254854927875
137,0.1251,653.669,46.4845,0.132988,175.211,-0.157906,0.0761329,0.106105,-0.0464704,-0.0582871,0.0880881,1.86213e-06,2.52293e-06,0.114561,0.11193862393269671,0.09208433041966546,1.8621317336986465e-06,-0.04540718390085707,2.522933182591558e-06,-0.05662093557599346
138,0.1261,654.865,47.3231,-0.0327935,175.43,0.0669885,-0.0411189,0.106905,-0.0468203,-0.0587327,0.088753,4.94922e-06,9.144e-07,0.115444,0.11282853074710686,0.09281069874535142,4.949232247364321e-06,-0.045741137498621076,9.14400418050576e-07,-0.05704121164263898
139,0.1271,655.512,46.5904,0.164097,175.704,-0.165588,0.0928412,0.107703,-0.0471786,-0.0591727,0.0894191,1.3925e-06,2.92928e-06,0.116327,0.1137169223357426,0.09353886243978082,1.3925009694215618e-06,-0.04608298720302351,2.9292842902428617e-06,-0.057456022244491534
140,0.1281,656.424,46.7091,0.124299,175.946,-0.149304,0.0707518,0.108501,-0.0475323,-0.059615,0.0900837,1.03108e-06,2.92067e-06,0.11721,0.11460602314380708,0.09426586992558628,1.0310805316215976e-06,-0.04642032798821505,2.9206742651055606e-06,-0.05787281726483928
141,0.1291,657.586,47.4979,-0.0280042,176.162,0.0614686,-0.0377429,0.109298,-0.0478815,-0.0600592,0.090747,3.91894e-06,1.43481e-06,0.11809,0.11549471824220725,0.09499193725071597,3.9189476790379985e-06,-0.046753259876390785,1.4348110293216365e-06,-0.05829121722589925
142,0.1301,658.233,46.8226,0.153327,176.429,-0.154032,0.0860052,0.110094,-0.0482386,-0.0604983,0.0914112,6.23836e-07,3.29454e-06,0.118972,0.11638300552936554,0.09571947248314183,6.238361944799209e-07,-0.04709360351531544,3.294545426912876e-06,-0.05870463078082688
143,0.1311,659.126,46.937,0.113386,176.666,-0.138586,0.064017,0.11089,-0.0485913,-0.0609394,0.092074,2.95873e-07,3.26023e-06,0.119852,0.11727200017469563,0.09644595607957185,2.9587304384293134e-07,-0.0474296343388364,3.2602353146060636e-06,-0.0591197446081041
144,0.1321,660.253,47.6686,-0.0209996,176.879,0.0556804,-0.0335492,0.111685,-0.04894,-0.0613823,0.0927356,2.95369e-06,1.9269e-06,0.12073,0.11816058458033507,0.09717160474222286,2.9536943622066048e-06,-0.047761737719752895,1.9269018565193363e-06,-0.05953636820511121
145,0.1331,660.901,47.0547,0.139859,177.139,-0.141242,0.0779216,0.112479,-0.0492957,-0.0618206,0.093398,-5.67933e-08,3.60156e-06,0.121609,0.11904875664213899,0.0978986119714158,-5.6793298397472824e-08,-0.04810038863700983,3.601566485711416e-06,-0.05994848309335166
146,0.1341,662.112,48.1507,-0.131259,177.338,0.161506,-0.0989451,0.113273,-0.0496414,-0.0622643,0.0940581,4.36316e-06,1.0416e-06,0.122486,0.11993763419260217,0.09862357409260203,4.3631695185730734e-06,-0.04842940345916935,1.0416005424840336e-06,-0.06036549143126202
147,0.1351,662.882,48.0644,-0.176343,177.58,0.120959,-0.109905,0.114065,-0.0499927,-0.0627047,0.0947188,4.30427e-06,4.99174e-07,0.123363,0.12082497613991072,0.09934967452887089,4.304279263456223e-06,-0.048763631499141535,4.99174124479751e-07,-0.06077921536013964
148,0.1361,663.638,47.4839,0.16234,177.823,-0.0763187,0.066602,0.114858,-0.0503475,-0.0631412,0.0953791,1.53702e-06,2.94241e-06,0.12424,0.12171414285399584,0.10007581482779893,1.5370211812193446e-06,-0.04910107029750299,2.942414328854781e-06,-0.06118909576972764
149,0.1371,664.603,48.2034,-0.181749,178.042,0.127937,-0.106115,0.115649,-0.0506939,-0.0635834,0.0960381,4.58622e-06,4.06012e-07,0.125115,0.12260176975115011,0.10080100371326361,4.5862305166899375e-06,-0.04943040464275017,4.0601208239898767e-07,-0.061604146177169916
150,0.1381,665.398,48.1241,-0.165932,178.275,0.0857156,-0.0957978,0.11644,-0.0510445,-0.0640222,0.096697,4.37273e-06,1.8321e-07,0.12599,0.12349009903893915,0.10152656050304465,4.372739560443151e-06,-0.04976361592753109,1.832100167131756e-07,-0.06201582394911864
151,0.1391,666.205,47.7384,0.126517,178.506,-0.0547729,0.0480892,0.11723,-0.0513973,-0.0644582,0.0973553,2.40207e-06,2.15177e-06,0.126864,0.12437800689460432,0.1022519341683703,2.4020728850437933e-06,-0.0500988001938506,2.151772314995526e-06,-0.06242469590931243
152,0.1401,667.101,48.2464,-0.138012,178.727,0.0863487,-0.0798006,0.118019,-0.0517441,-0.0648985,0.0980128,4.49968e-06,2.71019e-07,0.127737,0.12526549120856623,0.10297690312251229,4.4996901236160625e-06,-0.050428168814123486,2.710190367682941e-07,-0.06283741944794885
153,0.1411,667.805,47.5741,0.22803,178.963,-0.140036,0.107803,0.118808,-0.0520981,-0.0653326,0.0986703,1.13075e-06,2.9984e-06,0.12861,0.1261536760239632,0.10370234890048025,1.1307506393443134e-06,-0.05076425775111171,2.998404495135887e-06,-0.06324415343616718
154,0.1421,668.58,47.623,0.145322,179.191,-0.138889,0.0743877,0.119596,-0.0524476,-0.0657696,0.0993269,6.31991e-07,2.85265e-06,0.129482,0.12704143485171082,0.10442727783089167,6.319911995955607e-07,-0.051095957675089565,2.852654068741245e-06,-0.0636534263084797
155,0.1431,669.632,48.359,-0.0215736,179.389,0.0603046,-0.0349527,0.120383,-0.0527929,-0.0662085,0.0999822,3.36741e-06,1.37105e-06,0.130352,0.12792876557978183,0.10515124620838612,3.3674156696417157e-06,-0.051423557677508835,1.3710509398912052e-06,-0.06406429864714258
156,0.1441,670.214,47.7126,0.150708,179.634,-0.145495,0.0824867,0.12117,-0.0531454,-0.0666424,0.100638,2.37025e-07,3.12826e-06,0.131223,0.1288167949120005,0.10587624209581747,2.3702502804923142e-07,-0.05175787194707582,3.1282648929042978e-06,-0.06447031305676343
157,0.1451,671.363,48.8243,-0.14149,179.817,0.164488,-0.103179,0.121956,-0.0534877,-0.0670821,0.101292,4.75121e-06,4.53228e-07,0.132092,0.12970439369342635,0.10659972171019505,4.751221287069285e-06,-0.05208239968141781,4.5322810260373103e-07,-0.06488157503753988
158,0.1461,672.074,48.7198,-0.177925,180.044,0.119481,-0.10988,0.122741,-0.0538357,-0.0675182,0.101946,4.61975e-06,-2.72844e-08,0.132961,0.13059155980961834,0.10732367463499615,4.619760671120687e-06,-0.052412217614679846,-2.7284399628513256e-08,-0.065289291273679
159,0.1471,672.777,48.1514,0.155425,180.271,-0.0731893,0.06317,0.123526,-0.0541871,-0.0679506,0.1026,1.92463e-06,2.35377e-06,0.133829,0.1314794226246303,0.10804810117986685,1.924631852112668e-06,-0.052745141463264034,2.353772770025131e-06,-0.06569337281540699
160,0.1481,673.678,48.8318,-0.17467,180.477,0.120625,-0.101743,0.124309,-0.0545304,-0.0683885,0.103253,4.80858e-06,-6.03766e-08,0.134696,0.13236571795188445,0.10877189288220879,4.808591561156206e-06,-0.053070278243278146,-6.037659816549024e-08,-0.06610241612088308
161,0.1491,674.418,48.743,-0.154313,180.694,0.076627,-0.089191,0.125092,-0.0548777,-0.0688231,0.103906,4.53175e-06,-2.24183e-07,0.135563,0.13325270752013973,0.10949615737488161,4.531760268378093e-06,-0.05339908983420638,-2.2418297485060634e-07,-0.06650819982765044
162,0.1501,675.18,48.4035,0.114614,180.909,-0.0486189,0.0421415,0.125875,-0.055227,-0.0692552,0.104558,2.7775e-06,1.56212e-06,0.136429,0.13414039187319982,0.11021978474637839,2.777503857354091e-06,-0.05372967979123011,1.5621212201555323e-06,-0.0669114745007372
163,0.1511,676.008,48.8429,-0.121194,181.117,0.0728453,-0.0704484,0.126657,-0.0555709,-0.069691,0.105209,4.57362e-06,-8.81928e-08,0.137294,0.13502763652708993,0.1109427731334347,4.573630459026035e-06,-0.05405504620438839,-8.819279606608887e-08,-0.06731802588616853
164,0.1521,676.683,48.272,0.202044,181.336,-0.121795,0.0935666,0.127438,-0.0559209,-0.0701214,0.10586,1.67799e-06,2.28516e-06,0.138159,0.1359144393626488,0.11166623233916595,1.6779914078224323e-06,-0.054386069005847415,2.285162610915492e-06,-0.06771936583327498
165,0.1531,677.64,49.2043,-0.201145,181.527,0.146658,-0.118845,0.128218,-0.0562614,-0.0705583,0.10651,5.59569e-06,-7.75077e-07,0.139022,0.13680079826038338,0.112389050280568,5.595705655947469e-06,-0.05470799573821439,-7.750766995995306e-07,-0.06812659027768486
166,0.1541,678.354,49.1166,-0.186046,181.739,0.103945,-0.107972,0.128998,-0.0566071,-0.0709912,0.10716,5.43042e-06,-1.02334e-06,0.139885,0.13768784878775864,0.11311233820636057,5.430434744768675e-06,-0.05503472670538612,-1.023339476380336e-06,-0.06852991097169081
167,0.1551,679.053,48.6273,0.135045,181.953,-0.0656099,0.053812,0.129777,-0.0569557,-0.0714209,0.107809,3.05602e-06,1.18044e-06,0.140747,0.13857445290943415,0.11383498258659297,3.056024669545465e-06,-0.055364084189311824,1.1804406967463876e-06,-0.06893007768697024
168,0.1561,679.9,49.22,-0.156572,182.15,0.10231,-0.0907148,0.130556,-0.0572972,-0.0718554,0.108457,5.54309e-06,-9.35167e-07,0.141609,0.13946174796480393,0.11455698155771166,5.5431053629373395e-06,-0.05568662227804788,-9.351665627432837e-07,-0.06933453969248138
169,0.1571,680.491,48.4195,0.247041,182.37,-0.16079,0.119409,0.131334,-0.0576471,-0.0722831,0.109106,1.64499e-06,2.09771e-06,0.14247,0.14034859414315126,0.11528056381578744,1.6449913529115179e-06,-0.056016979729506255,2.097712200166413e-06,-0.06973250019993382
170,0.1581,681.205,48.4949,0.159543,182.576,-0.150417,0.0820884,0.132111,-0.0579918,-0.0727142,0.109753,1.23625e-06,1.9214e-06,0.14333,0.14123498932073164,0.11600238382416905,1.236250764202751e-06,-0.05634231460190686,1.9214018458502125e-06,-0.0701334520877086
171,0.1591,682.186,49.2574,-0.0282649,182.754,0.0592174,-0.037016,0.132887,-0.058332,-0.0731472,0.1104,4.09844e-06,3.16408e-07,0.144189,0.14212093137350323,0.11672467100120865,4.098448398659471e-06,-0.056663292345069505,3.1640804998289696e-07,-0.07053599714566017
172,0.1601,682.701,48.602,0.158301,182.98,-0.148961,0.0853756,0.133663,-0.0586799,-0.0735751,0.111047,9.3529e-07,2.13384e-06,0.145048,0.14300756118412328,0.11744742564926236,9.352904373205462e-07,-0.05699142210418151,2.1338422766525866e-06,-0.0709336297129266
173,0.1611,683.768,49.7069,-0.149628,183.144,0.162157,-0.105279,0.134438,-0.0590174,-0.074009,0.111691,5.44623e-06,-5.9683e-07,0.145905,0.14389373539219186,0.11816729356396949,5.446244830675795e-06,-0.05730963379797749,-5.968298218972379e-07,-0.07133666416634632
174,0.1621,684.408,49.5841,-0.173879,183.352,0.11272,-0.106384,0.135212,-0.0593608,-0.074439,0.112337,5.22019e-06,-9.83704e-07,0.146762,0.14477945187144514,0.11888986300041138,5.220203625144748e-06,-0.05763329809339102,-9.837035161996965e-07,-0.07173590355813397
175,0.1631,685.052,49.0538,0.142568,183.559,-0.067193,0.056848,0.135986,-0.0597072,-0.0748657,0.112982,2.71002e-06,1.24447e-06,0.147619,0.14566585416062772,0.11961177975517212,2.7100236721366855e-06,-0.05795967738677432,1.2444707744307948e-06,-0.07213190935424052
176,0.1641,685.869,49.6628,-0.159368,183.747,0.106624,-0.0927795,0.136759,-0.0600463,-0.0752974,0.113626,5.28384e-06,-9.36175e-07,0.148474,0.14655179623839243,0.12033304196283767,5.283853959481277e-06,-0.058279069104246184,-9.361745617608719e-07,-0.07253238356039537
177,0.1651,686.54,49.5672,-0.1352,183.946,0.0619271,-0.0784451,0.137531,-0.0603889,-0.0757259,0.114269,4.93652e-06,-1.03121e-06,0.14933,0.14743727597628964,0.12105364775875538,4.9365321845851184e-06,-0.058601647434347925,-1.0312094682607409e-06,-0.07292971829899242
178,0.1661,687.249,49.2987,0.0980017,184.142,-0.0402002,0.0339087,0.138303,-0.060733,-0.0761525,0.114912,3.50584e-06,4.84921e-07,0.150184,0.14832343956847827,0.12177471705319864,3.505846145390734e-06,-0.05892552688081132,4.849211174828838e-07,-0.07332512213553122
179,0.1671,687.991,49.6429,-0.0971023,184.334,0.0536991,-0.0571573,0.139074,-0.0610728,-0.076582,0.115555,4.8814e-06,-8.43869e-07,0.151037,0.14920913833338467,0.12249625014429277,4.8814119140150325e-06,-0.05924524966280009,-8.438686439626863e-07,-0.07372304353583625
180,0.1681,688.634,49.2118,0.166221,184.532,-0.0971615,0.0741533,0.139845,-0.0614173,-0.0770071,0.116197,2.63309e-06,1.04439e-06,0.15189,0.15009552023535444,0.12321712411266939,2.633093466597458e-06,-0.05956928385619675,1.0443905453794144e-06,-0.0741167201881282
181,0.1691,689.472,49.9261,-0.153804,184.71,0.107195,-0.0917446,0.140614,-0.0617544,-0.0774373,0.116838,5.59376e-06,-1.33067e-06,0.152742,0.15098028383841955,0.12393733709282562,5.5937756451296394e-06,-0.05988624962302724,-1.3306691146741656e-06,-0.0745149495098344
182,0.1701,690.126,49.847,-0.140612,184.904,0.0684077,-0.0822074,0.141384,-0.0620955,-0.0778641,0.117479,5.34146e-06,-1.4958e-06,0.153594,0.15186687995267412,0.1246580118774947,5.341474265563306e-06,-0.06020686773875261,-1.49579888131246e-06,-0.07490986224901042
183,0.1711,690.803,49.5328,0.104957,185.096,-0.0468144,0.0380842,0.142152,-0.0624384,-0.0782887,0.118119,3.72214e-06,1.31576e-07,0.154445,0.15275185350282272,0.1253780233842019,3.7221469271209173e-06,-0.060529067559488725,1.3157600875501885e-07,-0.07530257214328895
184,0.1721,691.54,49.9273,-0.10718,185.281,0.0624796,-0.0630566,0.14292,-0.0627764,-0.0787166,0.118759,5.32236e-06,-1.3403e-06,0.155294,0.15363750697371392,0.12609849584576338,5.322374163840848e-06,-0.060846555076240705,-1.3402991018152122e-06,-0.07569816552942776
185,0.1731,692.144,49.4252,0.178823,185.477,-0.10922,0.0816038,0.143687,-0.0631198,-0.0791397,0.119398,2.76956e-06,7.36013e-07,0.156144,0.1545226863644642,0.12681830273841843,2.769563835158806e-06,-0.06116900500140665,7.360132707745493e-07,-0.07608915491595492
186,0.1741,692.99,50.2285,-0.171401,185.648,0.122179,-0.101946,0.144453,-0.063455,-0.0795683,0.120037,6.12343e-06,-1.88921e-06,0.156992,0.155407389540277,0.12753856973466515,6.123448748285298e-06,-0.061483648413748204,-1.8892082154220446e-06,-0.0764850582560116
187,0.1751,693.621,50.1325,-0.153445,185.837,0.0787356,-0.0895373,0.145219,-0.0637947,-0.0799934,0.120675,5.84549e-06,-2.04124e-06,0.15784,0.15629277065834102,0.12825816886987096,5.8455070848228985e-06,-0.061802408273954446,-2.041237916694527e-06,-0.07687756102537258
188,0.1761,694.267,49.7691,0.109352,186.026,-0.050891,0.0406512,0.145985,-0.0641364,-0.080416,0.121313,4.02988e-06,-2.83992e-07,0.158687,0.15717883023815937,0.12897822725581043,4.029888119871927e-06,-0.06212293562583049,-2.839919597263929e-07,-0.07726759014912477
189,0.1771,694.997,50.2019,-0.117217,186.205,0.0703383,-0.06869,0.146749,-0.0644727,-0.0808422,0.121949,5.80757e-06,-1.87444e-06,0.159534,0.158063252670811,0.1296964857903482,5.807586863859626e-06,-0.0624382906526596,-1.8744382432878126e-06,-0.07766077490857926
190,0.1781,695.568,49.6396,0.189747,186.397,-0.119127,0.0878845,0.147513,-0.0648151,-0.0812633,0.122586,2.99687e-06,3.67708e-07,0.16038,0.15894835106038396,0.1304163316983773,2.996874490568402e-06,-0.06275925682939487,3.677080675501543e-07,-0.07804909019074435
191,0.1791,696.415,50.515,-0.18666,186.561,0.134373,-0.110575,0.148276,-0.0651484,-0.0816905,0.123222,6.67145e-06,-2.46771e-06,0.161224,0.15983296608996067,0.1311355051582559,6.671472254193844e-06,-0.06307158711635996,-2.4677069552225817e-06,-0.07844286350344665
192,0.1801,697.026,50.4038,-0.163672,186.747,0.0866844,-0.0952978,0.149039,-0.0654867,-0.0821137,0.123857,6.36426e-06,-2.60101e-06,0.162069,0.160718256338368,0.1318540043033669,6.364280251913712e-06,-0.06338849639021238,-2.6010066174197988e-06,-0.07883278397062166
193,0.1811,697.645,50.0031,0.112053,186.932,-0.0537835,0.0422988,0.149801,-0.0658272,-0.0825344,0.124492,4.40148e-06,-7.4804e-07,0.162913,0.1616030607173531,0.13257295984032402,4.401489686500781e-06,-0.06370735831786756,-7.480397201664601e-07,-0.07922023751183827
194,0.1821,698.366,50.4623,-0.124355,187.106,0.0757641,-0.072672,0.150562,-0.066162,-0.0829589,0.125126,6.30229e-06,-2.41927e-06,0.163755,0.16248737708626027,0.13329123876722293,6.3023098595405e-06,-0.06402077662515049,-2.4192670735612154e-06,-0.07961102557038069
195,0.1831,698.909,49.8583,0.196904,187.295,-0.125941,0.092024,0.151323,-0.0665032,-0.0833781,0.125761,3.31447e-06,-6.59023e-08,0.164598,0.16337236667605226,0.13401110723789045,3.314475492954827e-06,-0.06434007826020938,-6.59022978410917e-08,-0.0799967717704092
196,0.1841,699.753,50.7808,-0.196703,187.453,0.142144,-0.116196,0.152082,-0.0668347,-0.0838037,0.126393,7.1992e-06,-3.03706e-06,0.165439,0.1642557014855135,0.13472802878100953,7.1992259143005555e-06,-0.06465019811905948,-3.0370553881775564e-06,-0.08038824183360516
197,0.1851,700.345,50.6575,-0.169553,187.634,0.0911407,-0.0985803,0.152842,-0.0671717,-0.0842251,0.127026,6.86215e-06,-3.14965e-06,0.16628,0.16514087214088535,0.13544653900772308,6.862173544508465e-06,-0.06496535789488844,-3.1496450398904585e-06,-0.08077568458857454
198,0.1861,700.942,50.2363,0.112579,187.816,-0.0551089,0.042761,0.153601,-0.0675109,-0.084644,0.127658,4.82162e-06,-1.25046e-06,0.16712,0.16602554975552453,0.13616436803045384,4.82163162396354e-06,-0.06528246786059988,-1.2504592181716845e-06,-0.08116066701410174
199,0.1871,701.651,50.706,-0.127445,187.985,0.0779192,-0.0743819,0.154359,-0.0678442,-0.0850668,0.12829,6.77298e-06,-2.95183e-06,0.16796,0.166909732185045,0.13688265086451645,6.773002936721895e-06,-0.065593957301463,-2.951825643360273e-06,-0.08154907016987512
200,0.1881,702.173,50.0847,0.199005,188.17,-0.128678,0.093325,0.155116,-0.068184,-0.0854842,0.128921,3.71515e-06,-5.60253e-07,0.168799,0.1677934172849198,0.13760025019599098,3.715156901229477e-06,-0.06591141453573335,-5.602528430070919e-07,-0.08193235159158885
201,0.1891,703.006,51.0219,-0.199857,188.324,0.144219,-0.117888,0.155873,-0.0685141,-0.085908,0.129552,7.66668e-06,-3.56993e-06,0.169636,0.1686777715876766,0.1383183024755339,7.666709389120285e-06,-0.06621970629144136,-3.569923627821936e-06,-0.08232134622719889
202,0.1901,703.58,50.8911,-0.169968,188.501,0.0912943,-0.0987738,0.156629,-0.0688497,-0.0863277,0.130182,7.30263e-06,-3.66187e-06,0.170474,0.16956162603788272,0.13903566895280695,7.302656664265328e-06,-0.06653303037928726,-3.6618632953677732e-06,-0.08270641514582233
203,0.1911,704.162,50.4698,0.110577,188.678,-0.0546342,0.0418577,0.157385,-0.0691875,-0.0867448,0.130811,5.2678e-06,-1.77624e-06,0.171311,0.17044614893469445,0.13975234776043433,5.267813874887395e-06,-0.06684830226920502,-1.7762384224573324e-06,-0.0830889385192698
204,0.1921,704.854,50.9316,-0.125741,188.843,0.0762769,-0.0734237,0.15814,-0.0695194,-0.0871658,0.13144,7.18585e-06,-3.44887e-06,0.172147,0.1713301694528928,0.14046947750083505,7.185875818382925e-06,-0.06715796392648721,-3.4488640526797454e-06,-0.0834748768304383
205,0.1931,705.363,50.321,0.195248,189.025,-0.126753,0.091366,0.158894,-0.0698578,-0.0875815,0.132069,4.1811e-06,-1.10332e-06,0.172982,0.17221368544433147,0.14118705845773527,4.181108740786144e-06,-0.06747358426552119,-1.103319391293489e-06,-0.0838557971443672
206,0.1941,706.176,51.2362,-0.195141,189.174,0.139899,-0.115125,0.159647,-0.0701866,-0.0880035,0.132697,8.03761e-06,-4.04128e-06,0.173816,0.17309669476075573,0.14190394901051961,8.037642301728098e-06,-0.06778014854908454,-4.041271834065441e-06,-0.08424232843413382
207,0.1951,706.736,51.1039,-0.164372,189.348,0.0867899,-0.0955939,0.1604,-0.0705209,-0.0884214,0.133324,7.65297e-06,-4.11496e-06,0.17465,0.17398036923359528,0.14262014729124695,7.65299928406904e-06,-0.06809173756041953,-4.114951533518152e-06,-0.08462494361207151
208,0.1961,707.308,50.7039,0.105986,189.521,-0.0523314,0.0395651,0.161153,-0.0708571,-0.0888369,0.133951,5.71229e-06,-2.30636e-06,0.175484,0.17486470936390153,0.14333679476910488,5.712306315075466e-06,-0.06840499245715292,-2.3063573403314663e-06,-0.08500520294365388
209,0.1971,707.98,51.1389,-0.119032,189.682,0.0707365,-0.0697001,0.161905,-0.0711878,-0.0892561,0.134578,7.51133e-06,-3.88987e-06,0.176316,0.17574853990397554,0.1440538917258285,7.511358210088304e-06,-0.06871301999098745,-3.889862434491853e-06,-0.08538868837841695
210,0.1981,708.484,50.5674,0.185501,189.859,-0.120111,0.0860964,0.162656,-0.0715246,-0.0896701,0.135204,4.68481e-06,-1.67622e-06,0.177148,0.17663185870213605,0.14477029367246308,4.684820973821502e-06,-0.06902662463186848,-1.6762185951479935e-06,-0.08576725909188354
211,0.1991,709.269,51.4241,-0.182466,190.006,0.129219,-0.107893,0.163406,-0.0718524,-0.0900902,0.135829,8.28451e-06,-4.43184e-06,0.177979,0.17751466360662027,0.14548599874054458,8.284544316561337e-06,-0.06933174769191242,-4.431830179396634e-06,-0.08615124760390469
212,0.2001,709.817,51.2966,-0.15292,190.176,0.077816,-0.0891519,0.164156,-0.0721852,-0.0905063,0.136454,7.88867e-06,-4.49182e-06,0.17881,0.17839813086313394,0.14620215126410874,7.888701115676966e-06,-0.06964142255352546,-4.491809911799649e-06,-0.08653142096922284
213,0.2011,710.383,50.9381,0.0990588,190.344,-0.0483901,0.036027,0.164905,-0.0725198,-0.0909202,0.137078,6.12522e-06,-2.81996e-06,0.17964,0.1792810816869559,0.1469176046047247,6.125238759091545e-06,-0.06995266845919512,-2.8199560239139387e-06,-0.08690942738026042
214,0.2021,711.032,51.3293,-0.107703,190.503,0.0616604,-0.0634434,0.165654,-0.0728495,-0.0913375,0.137702,7.72789e-06,-4.25963e-06,0.180469,0.18016469408867497,0.14763350452754453,7.72791986025645e-06,-0.07025925452091464,-4.2596209277601105e-06,-0.08729038058480032
215,0.2031,711.538,50.8226,0.170356,190.674,-0.109256,0.0778609,0.166402,-0.0731845,-0.0917502,0.138325,5.192e-06,-2.25515e-06,0.181298,0.18104778751562045,0.14834870296204494,5.192013478483304e-06,-0.07057066550639768,-2.2551474571086416e-06,-0.08766697812848456
216,0.2041,712.287,51.5886,-0.1627,190.82,0.112972,-0.0967163,0.167149,-0.0735114,-0.0921681,0.138948,8.39228e-06,-4.73069e-06,0.182125,0.1819303598126072,0.14906434710399363,8.392315215211e-06,-0.0708744463001677,-4.730678810349609e-06,-0.08804816244431435
217,0.2051,712.825,51.4718,-0.136465,190.986,0.0650902,-0.0799477,0.167896,-0.0738429,-0.0925825,0.13957,7.99648e-06,-4.78312e-06,0.182952,0.18281359163740296,0.14977928745129043,7.996511971919418e-06,-0.07118240037501111,-4.783108560890703e-06,-0.08842599699307196
218,0.2061,713.391,51.1714,0.090327,191.149,-0.0431878,0.0315331,0.168642,-0.0741758,-0.092995,0.140192,6.47824e-06,-3.29684e-06,0.183779,0.18369629978596702,0.15049467262981153,6.478260983877604e-06,-0.07149155229273452,-3.296834565458262e-06,-0.08880194372496797
219,0.2071,714.014,51.5057,-0.0926827,191.305,0.0498229,-0.0551826,0.169388,-0.0745044,-0.0934103,0.140813,7.82447e-06,-4.55003e-06,0.184605,0.18457966668049175,0.15120935170640037,7.824500611208762e-06,-0.07179661004491744,-4.550019648608128e-06,-0.08918028570958814
220,0.2081,714.527,51.0834,0.151036,191.471,-0.0951722,0.0673476,0.170133,-0.0748375,-0.0938216,0.141434,5.6659e-06,-2.81441e-06,0.18543,0.18546250734948466,0.15192447473652915,5.665916051222908e-06,-0.07210574310514195,-2.8144060395529635e-06,-0.08955482882800336
221,0.2091,715.235,51.7344,-0.137525,191.616,0.0925821,-0.0825685,0.170877,-0.0751638,-0.0942374,0.142054,8.35962e-06,-4.93621e-06,0.186254,0.1863448196344233,0.15263888935651293,8.35965494161428e-06,-0.07240846560930425,-4.936197816940435e-06,-0.08993331323781495
222,0.2101,715.641,50.9532,0.224774,191.791,-0.159743,0.109507,0.171621,-0.0754984,-0.0946466,0.142674,4.62117e-06,-2.20683e-06,0.187078,0.1872277886039584,0.1533537470509001,4.621180677677472e-06,-0.07271878581724533,-2.2068275649100855e-06,-0.09030563634353528
223,0.2111,716.21,51.0808,0.132886,191.949,-0.131009,0.0665166,0.172364,-0.0758277,-0.0950592,0.143293,4.55412e-06,-2.52982e-06,0.187901,0.1881102266360244,0.1540678940260105,4.554130369927023e-06,-0.07302408925010662,-2.5298168000453813e-06,-0.09068089881600816
224,0.2121,716.966,51.6635,-0.0113975,192.086,0.0300487,-0.0235058,0.173106,-0.076154,-0.095473,0.143911,6.70647e-06,-3.71526e-06,0.188723,0.1889921315704568,0.1547813284130377,6.70649248846189e-06,-0.07332651214680552,-3.715253098390825e-06,-0.09105709721926036
225,0.2131,717.389,51.2318,0.115063,192.258,-0.109587,0.0583991,0.173848,-0.0764856,-0.095883,0.14453,4.56603e-06,-2.51822e-06,0.189546,0.18987469112118327,0.15549635933456463,4.566040424425211e-06,-0.07363374613316742,-2.5182168292836593e-06,-0.09142968742318935
226,0.2141,718.172,51.9579,-0.0929781,192.39,0.0944544,-0.0674547,0.174589,-0.0768104,-0.0962969,0.145147,7.47676e-06,-4.28659e-06,0.190366,0.1907567150167988,0.15620952057589266,7.476787950988495e-06,-0.0739345810341907,-4.286580812640217e-06,-0.09180566686125269
227,0.2151,718.495,51.1379,0.18636,192.57,-0.163388,0.0971863,0.17533,-0.0771437,-0.0967048,0.145765,3.65396e-06,-1.94379e-06,0.191187,0.19163939273433228,0.1569242788971812,3.653966675676301e-06,-0.07424318720625656,-1.9437881108030908e-06,-0.09217604378623079
228,0.2161,719.08,51.2904,0.119449,192.721,-0.128933,0.0614804,0.17607,-0.0774716,-0.0971156,0.146381,3.67094e-06,-2.19301e-06,0.192007,0.19252153223631652,0.1576371637989893,3.6709467379214544e-06,-0.07454669310266049,-2.1930075954079697e-06,-0.09254890127727122
229,0.2171,719.822,51.8557,-0.013231,192.855,0.0268193,-0.0232213,0.176809,-0.0777967,-0.0975276,0.146997,5.74645e-06,-3.31048e-06,0.192826,0.19340313135939335,0.15835048797317874,5.746466510858639e-06,-0.07484750907244753,-3.310474520401563e-06,-0.0929226941233312
230,0.2181,720.246,51.4518,0.109792,193.022,-0.104662,0.0552634,0.177548,-0.0781268,-0.0979361,0.147613,3.72724e-06,-2.16735e-06,0.193644,0.19428538222501146,0.15906425169042504,3.72724694619464e-06,-0.07515285151016071,-2.167347651349516e-06,-0.09329315953007089
231,0.2191,721.004,52.1391,-0.0876673,193.152,0.088219,-0.0638445,0.178286,-0.0784504,-0.0983481,0.148228,6.47548e-06,-3.8387e-06,0.194462,0.19516709014729883,0.15977729544369446,6.475500965885672e-06,-0.07545208362904399,-3.8386926322075965e-06,-0.0936666458048887
232,0.2201,721.333,51.3712,0.176818,193.327,-0.153974,0.0914333,0.179024,-0.0787821,-0.0987545,0.148843,2.88394e-06,-1.63293e-06,0.195279,0.19604944901020027,0.16049077785374544,2.883944158593721e-06,-0.07575870531688589,-1.6329286667282616e-06,-0.0940349048447282
233,0.2211,722.186,52.4657,-0.182012,193.445,0.162689,-0.116457,0.179761,-0.0791028,-0.0991675,0.149456,7.45258e-06,-4.5664e-06,0.196095,0.19693126236242664,0.16120237678335858,7.45260777046397e-06,-0.07605506197676037,-4.566389574023333e-06,-0.09440899117488288
234,0.2221,722.643,52.274,-0.162612,193.604,0.0949942,-0.0969945,0.180497,-0.0794299,-0.0995762,0.15007,6.89239e-06,-4.63382e-06,0.196911,0.19781252803751226,0.16191557397183454,6.892413752623838e-06,-0.07635723494290492,-4.6338092638542605e-06,-0.09477903059748294
235,0.2231,723.132,51.8487,0.103332,193.76,-0.0496872,0.0379313,0.181233,-0.0797589,-0.0999825,0.150683,4.88811e-06,-2.84177e-06,0.197726,0.1986944425628825,0.1626280465692198,4.888121946766688e-06,-0.07666106343008205,-2.8417659622137492e-06,-0.09514674717067073
236,0.2241,723.731,52.2618,-0.115906,193.904,0.0684,-0.0679738,0.181968,-0.0800824,-0.100392,0.151296,6.61356e-06,-4.36664e-06,0.198541,0.1995758068398601,0.16334095604619736,6.61358186970773e-06,-0.07695971526652334,-4.366630466212662e-06,-0.09551720872052516
237,0.2251,724.172,51.7129,0.174948,194.062,-0.114221,0.0805171,0.182703,-0.0804117,-0.100798,0.151908,3.91535e-06,-2.27662e-06,0.199355,0.2004578191577071,0.1640531386169357,3.915357664974195e-06,-0.07726362239123175,-2.276617408480952e-06,-0.0958843541982094
238,0.2261,724.875,52.5045,-0.169359,194.193,0.117224,-0.100033,0.183437,-0.0807326,-0.101208,0.152519,7.24598e-06,-4.82231e-06,0.200168,0.20133927865302925,0.16476459241163144,7.246006252126236e-06,-0.0775596809896637,-4.822298372730849e-06,-0.0962549656324525
239,0.2271,725.357,52.3672,-0.134208,194.344,0.0641206,-0.0786299,0.18417,-0.0810583,-0.101615,0.153131,6.77103e-06,-4.80491e-06,0.20098,0.20222018315634083,0.16547764651448693,6.771052923459919e-06,-0.07786007088041613,-4.804898456445272e-06,-0.09662271501936337
240,0.2281,725.872,52.0776,0.081784,194.493,-0.0395538,0.0276112,0.184903,-0.0813852,-0.10202,0.153741,5.32266e-06,-3.40094e-06,0.201792,0.20310173359936123,0.16618880476007392,5.322674165419983e-06,-0.07816146915701294,-3.4009342168017653e-06,-0.09698850874155185
241,0.2291,726.438,52.3779,-0.0845229,194.636,0.0439993,-0.0508307,0.185635,-0.0817081,-0.102428,0.154351,6.52868e-06,-4.53087e-06,0.202603,0.20398272647240923,0.16690039694452863,6.528701311792062e-06,-0.07845908276631908,-4.53085973561862e-06,-0.09735686228075346
242,0.2301,726.909,52.0003,0.135815,194.787,-0.0861225,0.0594973,0.186367,-0.0820351,-0.102832,0.154961,4.5917e-06,-2.98034e-06,0.203414,0.2048643644683268,0.16761242333263437,4.591710541790306e-06,-0.07876037738190012,-2.980335558788738e-06,-0.09772145645540986
243,0.2311,727.548,52.571,-0.119585,194.92,0.0783828,-0.0724933,0.187097,-0.0823559,-0.10324,0.15557,6.94275e-06,-4.83766e-06,0.204224,0.2057442365686315,0.16832371586503636,6.942774100959781e-06,-0.07905586365430373,-4.837648298505748e-06,-0.09808951101294061
244,0.2321,727.931,51.9026,0.19576,195.079,-0.138769,0.0936979,0.187828,-0.082684,-0.103643,0.156179,3.72444e-06,-2.49301e-06,0.205033,0.20662595783542304,0.16903544170651963,3.724446935748915e-06,-0.07935797586122106,-2.4930068924788884e-06,-0.09845290771064963
245,0.2331,728.673,52.8624,-0.19451,195.2,0.142956,-0.115634,0.188558,-0.0830022,-0.104052,0.156787,7.78076e-06,-5.43677e-06,0.205842,0.20750711636837682,0.169746431374034,7.780790270084381e-06,-0.07965087755017197,-5.436755220800116e-06,-0.09882156507582562
246,0.2341,729.128,52.6917,-0.153629,195.349,0.0804029,-0.0898023,0.189287,-0.0833261,-0.104456,0.157395,7.23354e-06,-5.39691e-06,0.20665,0.20838770999358713,0.17045785345470632,7.233566162057059e-06,-0.07994893035867534,-5.39689543666011e-06,-0.09918556763006814
247,0.2351,729.609,52.3312,0.0885444,195.496,-0.0443875,0.0311963,0.190015,-0.0836516,-0.104859,0.158002,5.49927e-06,-3.80104e-06,0.207457,0.2092677365372575,0.1711685370424012,5.499285121057795e-06,-0.08024835824731102,-3.8010327760851226e-06,-0.09954852270595316
248,0.2361,730.173,52.6814,-0.0988425,195.634,0.0547219,-0.0586505,0.190743,-0.0839724,-0.105265,0.158608,6.93818e-06,-5.09385e-06,0.208264,0.21014840397350842,0.17187848026691954,6.938204069273368e-06,-0.08054336725201094,-5.093837026404202e-06,-0.09991403180236724
249,0.2371,730.61,52.227,0.150841,195.782,-0.0984646,0.0677885,0.191471,-0.0842979,-0.105666,0.159215,4.66733e-06,-3.32163e-06,0.20907,0.21102971276907945,0.17259002643685672,4.667340891995053e-06,-0.08084260168292479,-3.3216244833544906e-06,-0.10027489391792466
250,0.2381,731.257,52.8868,-0.139516,195.91,0.0934612,-0.0834511,0.192198,-0.0846165,-0.106072,0.15982,7.4173e-06,-5.44699e-06,0.209875,0.21191045147999277,0.1732996580447672,7.4173275081967915e-06,-0.08113539858500529,-5.44697516513537e-06,-0.1006401081674847
251,0.2391,731.597,52.1045,0.219435,196.068,-0.158027,0.106708,0.192924,-0.0849434,-0.106472,0.160426,3.69895e-06,-2.77089e-06,0.21068,0.2127906179295289,0.17401089312000417,3.698956841047263e-06,-0.08143572633196317,-2.7708861610742375e-06,-0.10099978018501854
252,0.2401,732.361,53.2022,-0.224488,196.181,0.165931,-0.132167,0.19365,-0.0852589,-0.106879,0.16103,8.36886e-06,-6.12461e-06,0.211484,0.21367142361192082,0.17472020989154946,8.36889501898419e-06,-0.08172548764805421,-6.124591244605071e-06,-0.10136559882534013
253,0.2411,732.793,53.0,-0.172084,196.327,0.0941197,-0.0999297,0.194375,-0.0855812,-0.107282,0.161634,7.74268e-06,-6.03381e-06,0.212287,0.21455165443915836,0.17542995521983595,7.742709974722928e-06,-0.0820213998345749,-6.03379179664465e-06,-0.10172767552565809
254,0.2421,733.247,52.5818,0.0925226,196.471,-0.0478902,0.0334368,0.195099,-0.0859051,-0.107682,0.162238,5.77614e-06,-4.28e-06,0.21309,0.21543130823322132,0.17614012936378987,5.7761566818470556e-06,-0.08231868495524408,-4.2799908408497345e-06,-0.10208691260324243
255,0.2431,733.805,52.9692,-0.110014,196.604,0.0628491,-0.0647115,0.195823,-0.0862239,-0.108085,0.162841,7.38946e-06,-5.69137e-06,0.213892,0.21631159912723352,0.1768495557323504,7.389487302056352e-06,-0.08261119512988113,-5.69135380423802e-06,-0.10244869867267392
256,0.2441,734.215,52.457,0.161658,196.751,-0.107647,0.0737741,0.196547,-0.086548,-0.108484,0.163444,4.86821e-06,-3.75533e-06,0.214694,0.2171925275826223,0.17755941001401365,4.868221849863019e-06,-0.08290847266511281,-3.755322948717499e-06,-0.10280675020587249
257,0.2451,734.864,53.1811,-0.153971,196.873,0.10416,-0.0913519,0.197269,-0.0868643,-0.108889,0.164046,7.90692e-06,-6.07238e-06,0.215495,0.2180716579153974,0.17826851419778622,7.906951259739614e-06,-0.08319850284451791,-6.072361563136397e-06,-0.10317003990091012
258,0.2461,735.171,52.3184,0.23591,197.029,-0.171578,0.11572,0.197992,-0.0871899,-0.109286,0.164649,3.83544e-06,-3.16509e-06,0.216296,0.2189526421614989,0.17897922436942926,3.835447355271526e-06,-0.08349696481974533,-3.1650849910969114e-06,-0.10352601073018453
259,0.2471,735.676,52.4826,0.134448,197.164,-0.130312,0.0665565,0.198713,-0.0875095,-0.109687,0.16525,3.9538e-06,-3.57564e-06,0.217095,0.21983182392343625,0.17968800385017492,3.953807816259314e-06,-0.08378983238705884,-3.5756336074221906e-06,-0.10388542473255802
260,0.2481,736.338,53.0243,-0.00864881,197.282,0.0211223,-0.0201782,0.199434,-0.0878266,-0.110088,0.16585,5.96379e-06,-4.70339e-06,0.217894,0.22071163980399633,0.18039602903880092,5.963807783393449e-06,-0.08408031657250725,-4.703378939097114e-06,-0.10424469463880981
261,0.2491,736.71,52.6554,0.105144,197.431,-0.0989986,0.0516334,0.200155,-0.0881484,-0.110487,0.166451,4.11184e-06,-3.66469e-06,0.218692,0.22159209026054327,0.1811056602750798,4.111848453725031e-06,-0.08437501210757947,-3.6646832850539823e-06,-0.10460202971256105
262,0.2501,737.38,53.273,-0.0798668,197.545,0.0752988,-0.0578117,0.200874,-0.0884643,-0.110889,0.167051,6.58372e-06,-5.18602e-06,0.21949,0.2224707308068652,0.18181453631278988,6.583741672727683e-06,-0.08466421235966981,-5.186006552637679e-06,-0.10496190735636368
263,0.2511,737.678,52.6035,0.158566,197.7,-0.136929,0.080002,0.201594,-0.0887873,-0.111285,0.16765,3.43205e-06,-3.24837e-06,0.220287,0.2233512266735207,0.18252265528049927,3.4320558894851416e-06,-0.08495981807618447,-3.2483647240955094e-06,-0.10531627227216644
264,0.2521,738.418,53.5364,-0.156843,197.806,0.133765,-0.0999785,0.202312,-0.0891009,-0.111688,0.168249,7.32264e-06,-5.76551e-06,0.221083,0.22422990826321465,0.18323119853853242,7.322666810694045e-06,-0.08524672968714375,-5.765493379494835e-06,-0.10567675717185465
265,0.2531,738.821,53.3535,-0.132105,197.947,0.0695028,-0.0792612,0.20303,-0.0894201,-0.112086,0.168847,6.70942e-06,-5.75129e-06,0.221879,0.2251092209728347,0.18393898240154138,6.7094425082459e-06,-0.0855386723345023,-5.751273461362949e-06,-0.10603262699970684
266,0.2541,739.275,53.0461,0.079778,198.084,-0.0379601,0.0264077,0.203748,-0.0897403,-0.112483,0.169445,5.2153e-06,-4.36364e-06,0.222675,0.22598916525568802,0.18464718964587878,5.215313599649107e-06,-0.08583143597766019,-4.363630479287117e-06,-0.10638746160745793
267,0.2551,739.786,53.3306,-0.0823742,198.213,0.0419763,-0.0496773,0.204465,-0.0900566,-0.112882,0.170043,6.36857e-06,-5.45376e-06,0.223469,0.22686851469627878,0.18535582052480226,6.368590279359765e-06,-0.08612054176996908,-5.453745128281007e-06,-0.10674394188773129
268,0.2561,740.209,52.9669,0.128328,198.35,-0.0827905,0.0556867,0.205182,-0.0903768,-0.113278,0.17064,4.51174e-06,-3.9856e-06,0.224263,0.2277484948565045,0.1860636892274392,4.5117501779046165e-06,-0.08641311912835947,-3.985592057498266e-06,-0.10709760125756695
269,0.2571,740.79,53.4969,-0.111356,198.471,0.0705659,-0.0676639,0.205897,-0.0906912,-0.113678,0.171236,6.69715e-06,-5.71055e-06,0.225057,0.228626648932998,0.18677079388247475,6.69717242596235e-06,-0.08670030569561149,-5.7105336948026775e-06,-0.10745469079439529
270,0.2581,741.138,52.8873,0.179128,198.615,-0.127849,0.0846668,0.206613,-0.0910123,-0.114072,0.171833,3.75425e-06,-3.579e-06,0.22585,0.22950666062022296,0.18747950757641085,3.7542570472393066e-06,-0.08699351914951337,-3.5789935953767227e-06,-0.10780628437773809
271,0.2591,741.805,53.7434,-0.173482,198.725,0.123905,-0.103255,0.207327,-0.0913244,-0.114472,0.172428,7.36931e-06,-6.20355e-06,0.226641,0.23038484184929664,0.18818626812383066,7.369337153395605e-06,-0.08727842401047059,-6.203530757975528e-06,-0.10816309049800554
272,0.2601,742.215,53.5757,-0.130935,198.861,0.0631409,-0.0770794,0.208041,-0.0916417,-0.114869,0.173023,6.77918e-06,-6.11219e-06,0.227433,0.23126365032366802,0.18889344931890673,6.779202978757226e-06,-0.08756798462531112,-6.1121713206269135e-06,-0.10851707947961564
273,0.2611,742.664,53.2949,0.0720898,198.993,-0.0361889,0.0231696,0.208755,-0.0919601,-0.115263,0.173618,5.39431e-06,-4.80226e-06,0.228224,0.23214308649134985,0.18960105141199834,5.394324549268248e-06,-0.08785845673339288,-4.80224846921562e-06,-0.10886825456426608
274,0.2621,743.162,53.5563,-0.0754138,199.119,0.0366639,-0.0459795,0.209468,-0.0922748,-0.11566,0.174212,6.44055e-06,-5.7938e-06,0.229014,0.23302191777814119,0.19030788434513513,6.440570740284812e-06,-0.08814546251433053,-5.79378321596824e-06,-0.10922196365130465
275,0.2631,743.58,53.2279,0.118305,199.252,-0.0769615,0.0505838,0.210181,-0.092593,-0.116054,0.174806,4.74481e-06,-4.45169e-06,0.229804,0.2339013758950781,0.191015137261757,4.744821256563725e-06,-0.08843556846985312,-4.451680091221988e-06,-0.10957286106629593
276,0.2641,744.138,53.7094,-0.0997302,199.371,0.0617896,-0.0613709,0.210892,-0.0929059,-0.116451,0.175399,6.71633e-06,-6.01476e-06,0.230593,0.23477899172879746,0.19172161868919368,6.716352554558824e-06,-0.08872075236113242,-6.014741911419819e-06,-0.10992629048007208
277,0.2651,744.489,53.1637,0.163245,199.51,-0.116832,0.0762034,0.211604,-0.0932249,-0.116844,0.175992,4.06158e-06,-4.09367e-06,0.231381,0.23565846742710317,0.19242851918435822,4.061588248172043e-06,-0.0890114040797153,-4.093661620907518e-06,-0.11027602072141962
278,0.2661,745.124,53.9323,-0.154028,199.619,0.108547,-0.0924749,0.212314,-0.0935357,-0.117241,0.176584,7.29156e-06,-6.44512e-06,0.232169,0.2365360964604155,0.1931346458605887,7.291586583413334e-06,-0.08929449534066658,-6.4450992303122234e-06,-0.1106291710362175
279,0.2671,745.378,53.0362,0.234401,199.768,-0.176038,0.115998,0.213025,-0.0938562,-0.117632,0.177176,3.09137e-06,-3.53567e-06,0.232956,0.23741558624656767,0.1938411906875721,3.091374778385614e-06,-0.08958632968595792,-3.535663749554274e-06,-0.11097684705525113
280,0.2681,745.857,53.2216,0.131402,199.891,-0.127887,0.0647581,0.213734,-0.0941704,-0.118026,0.177768,3.31843e-06,-3.98252e-06,0.233743,0.23829322498338446,0.1945481539129268,3.3184355059390214e-06,-0.08987233672711148,-3.982512069788946e-06,-0.1113270531823739
281,0.2691,746.472,53.7334,-0.00638638,200.0,0.0157224,-0.0179543,0.214443,-0.0944823,-0.118421,0.178358,5.21769e-06,-5.05051e-06,0.234528,0.2391714861867038,0.1952531452757369,5.21770361205931e-06,-0.09015616128054638,-5.050497246195107e-06,-0.11167800967789587
282,0.2701,746.823,53.4048,0.0977313,200.138,-0.091929,0.0470013,0.215152,-0.0947986,-0.118813,0.178949,3.54937e-06,-4.11615e-06,0.235314,0.24005037029801102,0.1959597486653295,3.5493762990945754e-06,-0.09044389937855413,-4.116141528620609e-06,-0.11202616365546436
283,0.2711,747.437,53.9579,-0.070867,200.245,0.0642177,-0.051761,0.21586,-0.0951097,-0.119208,0.179539,5.75703e-06,-5.48093e-06,0.236098,0.24092863682984733,0.19666557311477995,5.757046571686075e-06,-0.09072681827114193,-5.480914979760776e-06,-0.11237684405688153
284,0.2721,747.726,53.3741,0.141729,200.387,-0.121886,0.070016,0.216567,-0.0954269,-0.119599,0.180129,2.98723e-06,-3.78001e-06,0.236883,0.24180628358765732,0.19737181412352833,2.9872344617931645e-06,-0.09101519398558011,-3.7800028557244403e-06,-0.11272383686933973
285,0.2731,748.394,54.1801,-0.134937,200.488,0.111854,-0.0865059,0.217274,-0.095736,-0.119994,0.180717,6.33902e-06,-5.95671e-06,0.237666,0.2426845510611222,0.19807607578286968,6.339040091729586e-06,-0.0912961177701116,-5.956692258890506e-06,-0.11307424174425762
286,0.2741,748.601,53.2571,0.217125,200.638,-0.177951,0.110452,0.217981,-0.0960547,-0.120382,0.181306,2.06282e-06,-3.21326e-06,0.238449,0.2435634396892432,0.19878195045118874,2.0628221275575953e-06,-0.09158567555389452,-3.2132548374308456e-06,-0.11341830218641868
287,0.2751,749.083,53.4563,0.125655,200.757,-0.126329,0.0624671,0.218686,-0.0963672,-0.120775,0.181894,2.34418e-06,-3.62732e-06,0.239232,0.24444046102792094,0.19948704151451135,2.344182747693324e-06,-0.09186951067873583,-3.6273134212949643e-06,-0.11376666033679927
288,0.2761,749.685,53.9561,-0.00723284,200.863,0.0138394,-0.0176628,0.219391,-0.0966775,-0.121168,0.182482,4.19582e-06,-4.66142e-06,0.240013,0.24531810088464434,0.20019254729329394,4.195828802400214e-06,-0.09215125985392703,-4.661409135575667e-06,-0.11411488160932493
289,0.2771,750.032,53.6446,0.0947273,200.997,-0.0886996,0.0451553,0.220096,-0.0969919,-0.121558,0.183069,2.60375e-06,-3.76035e-06,0.240794,0.24619635969562248,0.2008972671335929,2.603753389784913e-06,-0.0924366426333052,-3.760342929925997e-06,-0.11446030944269148
290,0.2781,750.627,54.1731,-0.067765,201.102,0.0604577,-0.0495925,0.2208,-0.0973014,-0.12195,0.183656,4.71121e-06,-5.06736e-06,0.241574,0.24707399082275772,0.2016024007658741,4.711221097686291e-06,-0.09271749002903384,-5.067347160991886e-06,-0.11480737297249388
291,0.2791,750.917,53.6211,0.135771,201.24,-0.116024,0.0664785,0.221504,-0.0976168,-0.122339,0.184242,2.08301e-06,-3.44964e-06,0.242355,0.24795224001974137,0.2023067461257575,2.083012169418197e-06,-0.09300360181047895,-3.449634049967898e-06,-0.11515164593897431
292,0.2801,751.56,54.3822,-0.127282,201.339,0.104599,-0.0818113,0.222207,-0.0979244,-0.122732,0.184828,5.24528e-06,-5.50807e-06,0.243133,0.24882985889136466,0.2030115043529801,5.245293756450664e-06,-0.09328255099797755,-5.508054830571929e-06,-0.11549932301909915
293,0.2811,751.773,53.5178,0.20532,201.485,-0.167445,0.10369,0.222909,-0.0982411,-0.123118,0.185414,1.22913e-06,-2.92947e-06,0.243912,0.24970684523849918,0.2037166756895532,1.229130755397989e-06,-0.09356966294749958,-2.9294657091227805e-06,-0.11584067439535983
294,0.2821,752.505,54.6593,-0.212907,201.573,0.16944,-0.128537,0.223611,-0.098546,-0.123512,0.185998,6.08684e-06,-6.15382e-06,0.24469,0.2505844474461909,0.20441985153551778,6.0868585247675355e-06,-0.09384599142884908,-6.153801065278408e-06,-0.11618896455198158
295,0.2831,752.849,54.4139,-0.156906,201.702,0.0867154,-0.0920651,0.224312,-0.098858,-0.123901,0.186583,5.27376e-06,-5.97313e-06,0.245468,0.2514614144848859,0.20512464328015168,5.2737739062447275e-06,-0.09412866737978198,-5.973112160884142e-06,-0.11653270018385598
296,0.2841,753.24,54.0468,0.0760524,201.827,-0.0379201,0.0251922,0.225013,-0.0991711,-0.124289,0.187167,3.55447e-06,-4.45199e-06,0.246245,0.2523389964929965,0.20582864161933356,3.554476317058075e-06,-0.09441225129664643,-4.451980089914542e-06,-0.11687541900443388
297,0.2851,753.71,54.3456,-0.0893079,201.943,0.0472228,-0.0533713,0.225713,-0.0994799,-0.124679,0.18775,4.79202e-06,-5.5751e-06,0.247021,0.25321594068520037,0.20653184468117258,4.792031481848369e-06,-0.09469185362062538,-5.575084459197299e-06,-0.11721977043812792
298,0.2861,754.077,53.9522,0.128727,202.068,-0.0855182,0.056369,0.226413,-0.0997928,-0.125065,0.188333,2.82356e-06,-4.06122e-06,0.247796,0.2540934989532402,0.20723545782992536,2.823563986176225e-06,-0.09497508022651413,-4.061211753225713e-06,-0.11756045784983826
299,0.2871,754.615,54.4935,-0.114244,202.176,0.0723976,-0.0690178,0.227112,-0.1001,-0.125456,0.188916,5.07757e-06,-5.80318e-06,0.248571,0.25497041675607535,0.20793948130474238,5.077582890811172e-06,-0.09525306118180776,-5.8031631615662604e-06,-0.11790542426548989
300,0.2881,754.914,53.877,0.176213,202.307,-0.127272,0.0832637,0.227811,-0.100414,-0.125841,0.189498,2.11859e-06,-3.69146e-06,0.249346,0.2558479477387361,0.20864270670160234,2.1185922443045513e-06,-0.09553710712305008,-3.6914531865717137e-06,-0.11824496531130224
301,0.2891,755.53,54.7131,-0.170013,202.405,0.119776,-0.100732,0.228509,-0.100718,-0.126232,0.19008,5.66694e-06,-6.24224e-06,0.25012,0.25672483560452086,0.20934634149476583,5.666956057082118e-06,-0.09581202205329808,-6.242220517260755e-06,-0.11858966413685368
302,0.2901,755.733,53.7451,0.248311,202.546,-0.186443,0.123258,0.229207,-0.101034,-0.126615,0.190662,1.15317e-06,-3.13718e-06,0.250893,0.25760233575169744,0.2100503859225713,1.1531706649581253e-06,-0.0960977003147867,-3.1371750790487596e-06,-0.11892717965714128
303,0.2911,756.186,53.9579,0.135814,202.659,-0.129169,0.0666738,0.229904,-0.101342,-0.127002,0.191242,1.50764e-06,-3.64974e-06,0.251666,0.25847919012796794,0.21075241871623618,1.5076411365999576e-06,-0.09637605935359717,-3.649733339661232e-06,-0.11926808886842677
304,0.2921,756.761,54.4581,-0.00507425,202.76,0.0122109,-0.016408,0.2306,-0.101649,-0.12739,0.191822,3.37541e-06,-4.71426e-06,0.252438,0.25935539652875383,0.2114548588070262,3.3754156967269466e-06,-0.09665342932490661,-4.714248887927042e-06,-0.11960974656406664
305,0.2931,757.088,54.1551,0.0942189,202.887,-0.0874419,0.0445645,0.231296,-0.101959,-0.127776,0.192403,1.82478e-06,-3.84176e-06,0.253209,0.26023221298146804,0.2121589185895547,1.8247816648830906e-06,-0.09693342336049804,-3.841752620470373e-06,-0.11994951162301792
306,0.2941,757.654,54.6665,-0.0660989,202.987,0.0573915,-0.0481596,0.231991,-0.102265,-0.128163,0.192982,3.87039e-06,-5.11516e-06,0.25398,0.2611083788018451,0.2128609618253221,3.8703974900577975e-06,-0.0972097194574909,-5.115146917589186e-06,-0.12029002526837962
307,0.2951,757.929,54.1394,0.130798,203.118,-0.111361,0.0634346,0.232686,-0.102576,-0.128547,0.193561,1.35477e-06,-3.56728e-06,0.254751,0.26198515376912157,0.21356341166182236,1.354770917671999e-06,-0.09749044357987602,-3.5672736372616143e-06,-0.12062776904772066
308,0.2961,758.537,54.858,-0.120815,203.212,0.0972696,-0.0775562,0.23338,-0.10288,-0.128935,0.194139,4.344e-06,-5.51652e-06,0.25552,0.26286127544489446,0.21426505406888463,4.344009435275353e-06,-0.09776476478609175,-5.516504784086607e-06,-0.1209688992897836
309,0.2971,758.746,54.0526,0.193114,203.35,-0.156808,0.0965814,0.234074,-0.103193,-0.129317,0.194718,5.89317e-07,-3.10719e-06,0.256289,0.26373800536014524,0.21496831711019415,5.893171737270109e-07,-0.09804712022378248,-3.10718517271269e-06,-0.12130462504255357
310,0.2981,759.429,55.1051,-0.196784,203.434,0.154072,-0.118754,0.234767,-0.103494,-0.129706,0.195295,5.0704e-06,-6.08481e-06,0.257057,0.26461407932242653,0.21566955611716487,5.070412854468742e-06,-0.09831856718577792,-6.084791487559471e-06,-0.12164637106950038
311,0.2991,759.757,54.8701,-0.141171,203.557,0.0747586,-0.0831794,0.23546,-0.103803,-0.13009,0.195873,4.25803e-06,-5.88529e-06,0.257826,0.26549076061437926,0.2163724162276046,4.258039065341279e-06,-0.09859714370622852,-5.885272681749321e-06,-0.12198359411204174
312,0.3001,760.137,54.557,0.066401,203.675,-0.032879,0.0205427,0.236152,-0.104112,-0.130473,0.19645,2.77063e-06,-4.54685e-06,0.258593,0.26636678328961194,0.21707446563354393,2.770633838133918e-06,-0.09887563415983236,-4.54683966311098e-06,-0.1223198100060432
313,0.3011,760.575,54.804,-0.0750585,203.786,0.0367568,-0.0457179,0.236844,-0.104417,-0.130858,0.197026,3.77768e-06,-5.49292e-06,0.25936,0.2672434123823324,0.21777570246256772,3.7776871353312202e-06,-0.0991504351821274,-5.492904913917407e-06,-0.12265765184046462
314,0.3021,760.936,54.484,0.110176,203.903,-0.0729943,0.046652,0.237535,-0.104726,-0.13124,0.197602,2.14281e-06,-4.22491e-06,0.260126,0.2681193801923121,0.2184773433203544,2.14281229582447e-06,-0.09942875469507684,-4.22490107510054e-06,-0.1229927326129594
315,0.3031,761.43,54.9276,-0.0921466,204.007,0.0555507,-0.0569041,0.238226,-0.105029,-0.131626,0.198177,3.96978e-06,-5.65869e-06,0.260892,0.26899595350522554,0.21917816926091227,3.96978787953195e-06,-0.09970158644630656,-5.658673989605845e-06,-0.12333119209128907
316,0.3041,761.738,54.4363,0.146301,204.13,-0.105453,0.0672371,0.238916,-0.105338,-0.132006,0.198753,1.57415e-06,-3.94497e-06,0.261657,0.2698718628671224,0.21988061817227167,1.5741512389144674e-06,-0.09997973567982499,-3.944962218671577e-06,-0.12366426295082311
317,0.3051,762.293,55.1059,-0.133831,204.226,0.0914288,-0.0806685,0.239605,-0.105641,-0.132392,0.199327,4.39357e-06,-5.98762e-06,0.262421,0.27074710606729546,0.2205810306462519,4.393579651651436e-06,-0.10025240050910622,-5.987602074264409e-06,-0.12400246326846354
318,0.3061,762.526,54.3498,0.200008,204.356,-0.149843,0.0970973,0.240294,-0.105951,-0.132771,0.199902,8.25828e-07,-3.53421e-06,0.263185,0.27162295251782953,0.22128306655485463,8.258283410444989e-07,-0.10053127903654324,-3.5342037546515215e-06,-0.1243344034282512
319,0.3071,763.163,55.3409,-0.19965,204.442,0.144712,-0.117372,0.240982,-0.10625,-0.133157,0.200475,5.06921e-06,-6.49401e-06,0.263948,0.27249813013574076,0.2219830622816139,5.069222848375077e-06,-0.10080017998141677,-6.493988913947035e-06,-0.1246723451215851
320,0.3081,763.49,55.1174,-0.135906,204.56,0.068393,-0.0796057,0.24167,-0.106557,-0.133539,0.201048,4.27347e-06,-6.25453e-06,0.264711,0.2733739100830306,0.22268345922086086,4.2734791312337705e-06,-0.10107619195615658,-6.254510440451e-06,-0.12500665642822373
321,0.3091,763.864,54.8305,0.0602945,204.674,-0.0310441,0.0178623,0.242358,-0.106863,-0.133919,0.201621,2.89621e-06,-5.00186e-06,0.265473,0.2742502927742443,0.22338425760255642,2.896214194025859e-06,-0.10135122055989554,-5.001847490748723e-06,-0.1253390907322629
322,0.3101,764.288,55.0545,-0.0681411,204.782,0.0316029,-0.0420711,0.243045,-0.107167,-0.134302,0.202194,3.79827e-06,-5.85794e-06,0.266235,0.2751260034975713,0.224085457656793,3.7982772134181886e-06,-0.10162436826829002,-5.857922842356089e-06,-0.1256740217171346
323,0.3111,764.644,54.7679,0.100953,204.896,-0.0675381,0.0419469,0.243731,-0.107473,-0.134681,0.202766,2.3163e-06,-4.70798e-06,0.266996,0.27600104003918857,0.22478583482734726,2.3163026825478994e-06,-0.10189922915573946,-4.707968917494476e-06,-0.1260053284763072
324,0.3121,765.118,55.1671,-0.0816258,204.998,0.0475735,-0.0512286,0.244417,-0.107775,-0.135064,0.203337,3.94729e-06,-5.99582e-06,0.267756,0.27687667706181496,0.22548538724224132,3.947297790629634e-06,-0.10217041463746557,-5.995802025093866e-06,-0.12634000434098158
325,0.3131,765.427,54.7324,0.132196,205.116,-0.0958143,0.0597777,0.245102,-0.108082,-0.135442,0.203909,1.80735e-06,-4.46737e-06,0.268516,0.27775163722524554,0.22618656540157955,1.8073516332428596e-06,-0.10244600601473097,-4.467360021354061e-06,-0.12667018541118702
326,0.3141,765.953,55.3269,-0.117151,205.211,0.0783689,-0.0715101,0.245787,-0.108382,-0.135825,0.204479,4.29638e-06,-6.27689e-06,0.269275,0.27862719694171156,0.2268856909757182,4.296389229496711e-06,-0.10271523182703546,-6.276870300414572e-06,-0.1270046066844127
327,0.3151,766.199,54.6656,0.177928,205.335,-0.133726,0.0852253,0.246471,-0.10869,-0.136202,0.20505,1.1526e-06,-4.11912e-06,0.270034,0.2795020771193306,0.22758644275085782,1.1526006642448294e-06,-0.10299155297999074,-4.11911151643185e-06,-0.12733366391650702
328,0.3161,766.794,55.5333,-0.172958,205.421,0.123529,-0.102578,0.247155,-0.108988,-0.136585,0.205619,4.85326e-06,-6.70542e-06,0.270792,0.2803775559196968,0.22828513819678653,4.853271777127688e-06,-0.1032588216721897,-6.705397518680378e-06,-0.12766783112612146
329,0.3171,766.954,54.5454,0.246724,205.554,-0.188063,0.122741,0.247838,-0.109297,-0.13696,0.206189,2.57493e-07,-3.60525e-06,0.27155,0.28125235249941505,0.2289854602983965,2.5749303311783933e-07,-0.10353587188982993,-3.6052435010702766e-06,-0.12799489436125977
330,0.3181,767.381,54.7769,0.130767,205.658,-0.12447,0.0636329,0.248521,-0.109599,-0.13734,0.206758,7.23118e-07,-4.16258e-06,0.272307,0.2821277467692851,0.22968495201182626,7.231182614919618e-07,-0.10380656318007708,-4.162571336507881e-06,-0.1283261933506079
331,0.3191,767.908,55.2382,-0.0013296,205.75,0.00625333,-0.0135167,0.249203,-0.109899,-0.13772,0.207326,2.44491e-06,-5.14233e-06,0.273063,0.2830024561345712,0.23038361146507014,2.4449129887305077e-06,-0.10407538088645096,-5.142316778283806e-06,-0.12865736647025683
332,0.3201,768.217,54.9809,0.0847245,205.866,-0.079171,0.0389794,0.249885,-0.110203,-0.138097,0.207894,1.10322e-06,-4.39538e-06,0.273819,0.28387776225511496,0.23108266786960674,1.1032206086447616e-06,-0.10434770057597142,-4.395370340359861e-06,-0.12898580072934973
333,0.3211,768.727,55.4222,-0.0552667,205.959,0.0455841,-0.0413168,0.250566,-0.110503,-0.138477,0.208462,2.85962e-06,-5.49044e-06,0.274574,0.28475238078501897,0.23178212145096877,2.859624088635826e-06,-0.10461635596547536,-5.4904249275899986e-06,-0.12931672324581234
334,0.3221,768.995,54.9839,0.1122,206.078,-0.0959178,0.0528404,0.251247,-0.110808,-0.138853,0.209029,7.3992e-07,-4.19475e-06,0.275329,0.28562759513299496,0.2324807399534603,7.399202737179422e-07,-0.10488940633460786,-4.194741202057095e-06,-0.12964403861872553
335,0.3231,769.535,55.5773,-0.0980479,206.167,0.0759414,-0.0640356,0.251927,-0.111106,-0.139233,0.209596,3.1967e-06,-5.80016e-06,0.276082,0.2865021192021706,0.23317975468496321,3.1967051095094234e-06,-0.10515610955076726,-5.800143179079953e-06,-0.12997471105230896
336,0.3241,769.755,54.9324,0.158914,206.291,-0.129104,0.077437,0.252607,-0.111412,-0.139608,0.210163,1.54196e-07,-3.85778e-06,0.276836,0.2873772381499491,0.23387916587020285,1.5419601195887367e-07,-0.10542988989071633,-3.857772558735206e-06,-0.13030090936965721
337,0.3251,770.347,55.7672,-0.154087,206.373,0.116917,-0.0940913,0.253285,-0.111708,-0.139988,0.210728,3.69467e-06,-6.21411e-06,0.277589,0.2882503758776571,0.23457650457855395,3.6946768253720563e-06,-0.10569464345784774,-6.21409069245793e-06,-0.1306313322397753
338,0.3261,770.497,54.8299,0.225211,206.503,-0.177866,0.112691,0.253964,-0.112015,-0.140361,0.211294,-6.57124e-07,-3.37639e-06,0.278342,0.289125394918224,0.23527547266945525,-6.571237840535815e-07,-0.10596915306292576,-3.3763843000356175e-06,-0.13095554628317185
339,0.3271,770.917,55.0552,0.119081,206.603,-0.116421,0.0576014,0.254642,-0.112315,-0.140738,0.211859,-1.91111e-07,-3.90169e-06,0.279094,0.28999971829811155,0.23597360051405802,-1.9111098170654373e-07,-0.10623732208964165,-3.901682388396388e-06,-0.13128311429177375
340,0.3281,771.425,55.4804,0.000882797,206.694,0.00355195,-0.0119256,0.25532,-0.112613,-0.141116,0.212424,1.38628e-06,-4.78234e-06,0.279845,0.29087463467025243,0.23667212291234385,1.3862809609133109e-06,-0.10650362368675026,-4.782328564600924e-06,-0.1316114272195189
341,0.3291,771.732,55.2527,0.0770397,206.806,-0.0727647,0.0347494,0.255997,-0.112915,-0.141491,0.212988,1.81665e-07,-4.11979e-06,0.280596,0.2917488526873331,0.23736980271687713,1.8166501658534173e-07,-0.10677341885127645,-4.119781513711729e-06,-0.1319370118833717
342,0.3301,772.221,55.6499,-0.0474167,206.897,0.0388949,-0.0367542,0.256673,-0.113213,-0.141868,0.213552,1.75035e-06,-5.09278e-06,0.281346,0.29262237012737957,0.23806787612380576,1.7503515319372553e-06,-0.10703956071535148,-5.092767031866785e-06,-0.13226420994918087
343,0.3311,772.492,55.2639,0.100785,207.013,-0.0865721,0.0465605,0.25735,-0.113515,-0.142241,0.214115,-1.34561e-07,-3.94935e-06,0.282095,0.293497771761974,0.23876510458945988,-1.3456099090536355e-07,-0.10730919405133243,-3.949342201381434e-06,-0.13258781504276795
344,0.3321,773.005,55.7893,-0.0845308,207.101,0.0649032,-0.0563672,0.258025,-0.113812,-0.142618,0.214678,2.02743e-06,-5.36023e-06,0.282844,0.2943711774991875,0.23946272570526084,2.0274320551294522e-06,-0.10757428385291501,-5.360215634020449e-06,-0.13291476780202927
345,0.3331,773.236,55.2279,0.140733,207.219,-0.114582,0.0674993,0.2587,-0.114115,-0.142991,0.215241,-6.42001e-07,-3.6639e-06,0.283593,0.2952451729842913,0.24016073969233287,-6.420007939711425e-07,-0.10784464788268855,-3.6638932878751973e-06,-0.1332381302827873
346,0.3341,773.791,55.9563,-0.132166,207.302,0.0993801,-0.0817939,0.259374,-0.11441,-0.143368,0.215803,2.4337e-06,-5.71047e-06,0.284341,0.2961184624963886,0.2408579059133984,2.43370296137968e-06,-0.1081077948954704,-5.71045369535117e-06,-0.13356483791941165
347,0.3351,773.964,55.1501,0.196541,207.426,-0.155326,0.0971034,0.260049,-0.114714,-0.143739,0.216365,-1.33374e-06,-3.26143e-06,0.285089,0.2969936377970084,0.24155546405199857,-1.3337391105983087e-06,-0.10837888891744307,-3.2614246815443337e-06,-0.1338862257434159
348,0.3361,774.585,56.1695,-0.197673,207.5,0.147972,-0.117125,0.260722,-0.115007,-0.144117,0.216926,3.04672e-06,-6.19674e-06,0.285835,0.29786680830416445,0.24225217207566008,3.0467246412424487e-06,-0.10864009563433752,-6.196720800266675e-06,-0.1342135548809803
349,0.3371,774.871,55.924,-0.129838,207.611,0.0658566,-0.07637,0.261395,-0.115306,-0.14449,0.217487,2.15521e-06,-5.90592e-06,0.286581,0.2987405666528582,0.24294927106217767,2.15521232238558e-06,-0.1089065724054803,-5.9059025601104764e-06,-0.13453643300449625
350,0.3381,775.215,55.6576,0.0524414,207.715,-0.0264305,0.0141339,0.262068,-0.115606,-0.144862,0.218047,8.79271e-07,-4.75291e-06,0.287327,0.2996149132388404,0.24364551758480357,8.792713865890533e-07,-0.10917386033856402,-4.752898704940556e-06,-0.13485832557568822
351,0.3391,775.599,55.8456,-0.0596926,207.815,0.0257768,-0.0374954,0.262739,-0.115903,-0.145236,0.218607,1.63095e-06,-5.4893e-06,0.288072,0.30048724748103184,0.24434215411467397,1.6309513299894718e-06,-0.10943839641649145,-5.489284933823946e-06,-0.1351818280631869
352,0.3401,775.932,55.6039,0.087393,207.919,-0.0588177,0.0350502,0.263411,-0.116203,-0.145608,0.219167,3.61466e-07,-4.50497e-06,0.288817,0.30136146861674207,0.24503918087025411,3.6146606530174097e-07,-0.10970552482630147,-4.504959852602575e-06,-0.13550348059206774
353,0.3411,776.359,55.9361,-0.0668693,208.013,0.0364975,-0.0430626,0.264082,-0.116499,-0.145982,0.219726,1.70818e-06,-5.57875e-06,0.289561,0.3022349751908655,0.24573535233415633,1.7081814589481326e-06,-0.1099690129927805,-5.578734438849153e-06,-0.1358267418367055
354,0.3421,776.655,55.5862,0.110219,208.121,-0.080261,0.0482096,0.264753,-0.116798,-0.146353,0.220285,-4.3445e-08,-4.33213e-06,0.290305,0.30310906808458826,0.24643191306669743,-4.344499904274102e-08,-0.11023509247703045,-4.332120616346025e-06,-0.13614729065000253
355,0.3431,777.122,56.0624,-0.0917799,208.21,0.0586122,-0.0573653,0.265422,-0.117093,-0.146726,0.220843,1.93643e-06,-5.77821e-06,0.291047,0.3039811397265757,0.2471276161572995,1.936431874849376e-06,-0.11049753441266097,-5.778193306160695e-06,-0.13646944762457924
356,0.3441,777.371,55.551,0.142259,208.322,-0.107132,0.0660852,0.266092,-0.117393,-0.147096,0.221402,-5.32589e-07,-4.09202e-06,0.29179,0.3048550998341353,0.24782495538288618,-5.325888581264593e-07,-0.11076434512872868,-4.0920116276543794e-06,-0.13678889482758116
357,0.3451,777.886,56.2181,-0.130322,208.405,0.0898342,-0.0787515,0.266761,-0.117686,-0.14747,0.221959,2.29619e-06,-6.07352e-06,0.292532,0.30572833996217796,0.24852018748720095,2.296192636253025e-06,-0.11102485300933773,-6.073501556236316e-06,-0.13711167541718294
358,0.3461,778.077,55.4836,0.188914,208.522,-0.143918,0.0914848,0.26743,-0.117987,-0.147838,0.222516,-1.16717e-06,-3.74928e-06,0.293273,0.30660216448332434,0.24921580694366519,-1.16716931886085e-06,-0.11129239426160353,-3.749272971420581e-06,-0.13742915989990168
359,0.3471,778.655,56.4125,-0.185751,208.597,0.13305,-0.109137,0.268097,-0.118278,-0.148213,0.223072,2.83109e-06,-6.49175e-06,0.294014,0.307473958838131,0.24991056405690548,2.8310940074494084e-06,-0.11155097055019869,-6.4917289286370305e-06,-0.13775256332300756
360,0.3481,778.768,55.3707,0.25528,208.723,-0.194729,0.127167,0.268765,-0.118581,-0.148579,0.223629,-2.00702e-06,-3.26689e-06,0.294754,0.3083476432207304,0.2506069581688408,-2.007017985916626e-06,-0.1118201298264323,-3.2668846636774163e-06,-0.1380680881402675
361,0.3491,779.17,55.6294,0.130357,208.816,-0.122092,0.0630057,0.269432,-0.118875,-0.14895,0.224185,-1.39927e-06,-3.89289e-06,0.295494,0.30922060219821335,0.25130248897722973,-1.3992690209851943e-06,-0.11208121632666723,-3.89288242275132e-06,-0.13838780556831742
362,0.3501,779.654,56.063,0.00199489,208.9,0.00142914,-0.0108948,0.270099,-0.119169,-0.149322,0.22474,2.26453e-07,-4.82187e-06,0.296233,0.31009414363356247,0.251997154610494,2.264530256645969e-07,-0.11234222607875355,-4.821858374803867e-06,-0.13870826569536687
363,0.3511,779.942,55.8436,0.0774362,209.006,-0.0721316,0.0346807,0.270765,-0.119466,-0.149691,0.225296,-9.407e-07,-4.17679e-06,0.296972,0.3109669569477944,0.25269345858302406,-9.406995575833577e-07,-0.11260582129178143,-4.176781277176467e-06,-0.139026023715365
364,0.3521,780.403,56.2283,-0.0469192,209.092,0.0365643,-0.0358997,0.27143,-0.119759,-0.150061,0.22585,5.8764e-07,-5.13189e-06,0.29771,0.31183903990961137,0.2533876430304163,5.876401727444858e-07,-0.11286578969891148,-5.131876831820925e-06,-0.13934452516018947
365,0.3531,780.659,55.861,0.0971186,209.2,-0.0829872,0.0443313,0.272095,-0.120056,-0.150429,0.226405,-1.2125e-06,-4.03746e-06,0.298447,0.31271170299946927,0.2540834662453795,-1.2124992648798738e-06,-0.1131292294366334,-4.0374518495145395e-06,-0.13966118810537498
366,0.3541,781.139,56.3542,-0.0801659,209.283,0.059514,-0.0533499,0.27276,-0.120348,-0.1508,0.226958,8.22841e-07,-5.3698e-06,0.299184,0.3135849466032814,0.2547771661925702,8.228413386213163e-07,-0.11338815789624301,-5.369785582631792e-06,-0.13998031460296212
367,0.3551,781.361,55.8358,0.131503,209.394,-0.106715,0.0622383,0.273424,-0.120646,-0.151167,0.227512,-1.65547e-06,-3.79635e-06,0.299921,0.31445745664910385,0.2554725053337987,-1.6554686297354237e-06,-0.11365232886176113,-3.796342793904728e-06,-0.14029588391699177
368,0.3561,781.876,56.4999,-0.120784,209.472,0.0885242,-0.0748935,0.274087,-0.120937,-0.151538,0.228065,1.15254e-06,-5.66684e-06,0.300656,0.31532923090409404,0.2561669736320349,1.152540664239865e-06,-0.11391021850929872,-5.666823943539789e-06,-0.14061477498610753
369,0.3571,782.05,55.7779,0.178188,209.588,-0.140398,0.0868758,0.274751,-0.121235,-0.151903,0.228618,-2.24227e-06,-3.46518e-06,0.301392,0.3162028995393016,0.2568618260774469,-2.2422674861299896e-06,-0.11417423392393233,-3.4651739962976436e-06,-0.14092839335440366
370,0.3581,782.618,56.6802,-0.174789,209.66,0.128117,-0.103842,0.275413,-0.121524,-0.152274,0.229169,1.63777e-06,-6.0651e-06,0.302126,0.31707451433146105,0.25755454777091624,1.6377713412119022e-06,-0.11443020058136477,-6.065081607276035e-06,-0.1412470498060423
371,0.3591,782.725,55.6788,0.241304,209.782,-0.186686,0.120295,0.276075,-0.121824,-0.152638,0.229722,-3.01352e-06,-3.0153e-06,0.302861,0.3179467063236452,0.2582501677570326,-3.0135154593935454e-06,-0.11469583167453423,-3.015295453989708e-06,-0.14155957899614957
372,0.3601,783.118,55.9327,0.121713,209.872,-0.11549,0.0584227,0.276737,-0.122116,-0.153006,0.230273,-2.40018e-06,-3.62641e-06,0.303595,0.3188194758980867,0.258943654637557,-2.4001771196102695e-06,-0.11495430275307128,-3.6264034245503396e-06,-0.1418754269514908
373,0.3611,783.584,56.3364,0.00410944,209.955,-0.000793687,-0.0094531,0.277398,-0.122408,-0.153374,0.230824,-8.92184e-07,-4.47656e-06,0.304328,0.31969150374510824,0.25963752373464355,-8.921836019970542e-07,-0.11521269836907144,-4.476549980259037e-06,-0.1421911586961685
374,0.3621,783.868,56.1413,0.0710794,210.057,-0.0668155,0.0312074,0.278059,-0.122702,-0.15374,0.231375,-1.94583e-06,-3.90228e-06,0.305061,0.3205641081930821,0.26033177525895157,-1.945828106864056e-06,-0.11547278760076041,-3.9022723861137365e-06,-0.14250505928477386
375,0.3631,784.309,56.4898,-0.0405426,210.14,0.0311669,-0.0321839,0.278719,-0.122993,-0.154108,0.231925,-5.70455e-07,-4.75783e-06,0.305793,0.321435968186639,0.26102514839547797,-5.704548372564844e-07,-0.11573014757187672,-4.757818681588866e-06,-0.14282055936738136
376,0.3641,784.566,56.1647,0.0877331,210.245,-0.0753877,0.0392212,0.279378,-0.123288,-0.154473,0.232475,-2.18025e-06,-3.78691e-06,0.306524,0.3223070814899818,0.26171890299212097,-2.1802476232180013e-06,-0.11599096870533432,-3.7869028296499962e-06,-0.14313337277129312
377,0.3651,785.021,56.6033,-0.0693895,210.326,0.050777,-0.0472392,0.280038,-0.123578,-0.154841,0.233024,-3.80577e-07,-4.96343e-06,0.307255,0.3231800922256176,0.2624117768463341,-3.8057692752779815e-07,-0.11624729415542312,-4.963417682191107e-06,-0.14344864167707672
378,0.3661,785.25,56.1507,0.116937,210.433,-0.0952194,0.0543475,0.280696,-0.123873,-0.155205,0.233573,-2.56352e-06,-3.58483e-06,0.307986,0.32405103123381207,0.2631050311927283,-2.5635167142379345e-06,-0.11650796275313868,-3.584823574542817e-06,-0.1437603696335763
379,0.3671,785.734,56.7317,-0.103684,210.511,0.0749789,-0.0653332,0.281355,-0.124162,-0.155572,0.234121,-1.17963e-07,-5.21342e-06,0.308716,0.32492386843166376,0.2637974024422176,-1.1796299304034363e-07,-0.11676325506038776,-5.213406410131682e-06,-0.14407455192194452
380,0.3681,785.923,56.1102,0.155895,210.621,-0.123078,0.0748444,0.282012,-0.124457,-0.155935,0.23467,-3.06261e-06,-3.31125e-06,0.309446,0.3257946294268883,0.2644914177059168,-3.0626053102444928e-06,-0.11702377147208498,-3.3112445178007377e-06,-0.14438519647419945
381,0.3691,786.45,56.8873,-0.148431,210.693,0.107504,-0.0892134,0.282669,-0.124744,-0.156303,0.235217,2.67268e-07,-5.54234e-06,0.310174,0.32666596270005943,0.2651832837195056,2.672680357029833e-07,-0.11727714928821664,-5.542324641227836e-06,-0.14470000479361345
382,0.3701,786.584,56.0374,0.207664,210.809,-0.160819,0.102205,0.283327,-0.125041,-0.156664,0.235765,-3.70635e-06,-2.94519e-06,0.310903,0.32753919616581983,0.2658767941634903,-3.7063431315154105e-06,-0.11753927904668204,-2.9451856629059137e-06,-0.14500871236681345
383,0.3711,787.171,57.0798,-0.207796,210.874,0.151317,-0.121112,0.283983,-0.125326,-0.157033,0.236312,8.17932e-07,-5.98024e-06,0.31163,0.3284103475849294,0.2665694181852978,8.179323345292033e-07,-0.11779074451662219,-5.980222118395773e-06,-0.14532414595087462
384,0.3721,787.422,56.8141,-0.126265,210.975,0.0633865,-0.0739525,0.284638,-0.125618,-0.157396,0.236858,-1.71837e-07,-5.59813e-06,0.312358,0.3292807413854488,0.26726115391429617,-1.7183698519662727e-07,-0.11804831201253885,-5.598114330540582e-06,-0.14563433698281603
385,0.3731,787.735,56.5681,0.0428054,211.07,-0.0218471,0.00982384,0.285294,-0.12591,-0.157759,0.237405,-1.34906e-06,-4.54285e-06,0.313085,0.33015303563302933,0.2679545353880315,-1.3490590899944976e-06,-0.11830580430972615,-4.542839681320743e-06,-0.14594441543584724
386,0.3741,788.081,56.7212,-0.0512083,211.162,0.0201595,-0.0329472,0.285949,-0.1262,-0.158123,0.23795,-7.43822e-07,-5.15343e-06,0.313811,0.3310245712681301,0.2686457589511295,-7.43821723325766e-07,-0.11856145855481914,-5.15341672113756e-06,-0.14625523509601857
387,0.3751,788.389,56.5222,0.0735899,211.256,-0.0504487,0.0282046,0.286603,-0.126492,-0.158486,0.238496,-1.80946e-06,-4.33239e-06,0.314537,0.3318953460500562,0.26933862867173763,-1.8094583629224559e-06,-0.11881880103509046,-4.332380615257314e-06,-0.1465650882039371
388,0.3761,788.77,56.7914,-0.052678,211.343,0.0262054,-0.0352874,0.287257,-0.12678,-0.15885,0.239041,-7.29694e-07,-5.2001e-06,0.315262,0.3327666905049522,0.2700306067712681,-7.296937337697429e-07,-0.11907254467955375,-5.200086479528743e-06,-0.1468756819803343
389,0.3771,789.05,56.5193,0.0892948,211.439,-0.0659551,0.0373871,0.287911,-0.127072,-0.159211,0.239586,-2.12295e-06,-4.217e-06,0.315987,0.33363860500550646,0.2707229621016487,-2.122947746596715e-06,-0.11932973794446311,-4.216991108418888e-06,-0.147183604275821
390,0.3781,789.46,56.8888,-0.0686376,211.522,0.0409865,-0.0445656,0.288563,-0.12736,-0.159575,0.24013,-6.02299e-07,-5.33185e-06,0.316711,0.3345084209051399,0.2714144234534672,-6.022988185971911e-07,-0.11958333446028402,-5.3318357856602105e-06,-0.14749397295333833
391,0.3791,789.708,56.5092,0.110061,211.622,-0.083734,0.0490389,0.289216,-0.127651,-0.159936,0.240674,-2.47433e-06,-4.06529e-06,0.317435,0.3353801394891329,0.27210626106259395,-2.474326938894933e-06,-0.11983949843628983,-4.065281736687076e-06,-0.1478016720860671
392,0.3801,790.149,57.0028,-0.0932078,211.7,0.0610208,-0.0581768,0.289868,-0.127938,-0.1603,0.241217,-3.99358e-07,-5.52144e-06,0.318158,0.3362510912394967,0.27279720233592974,-3.993579202887787e-07,-0.12009206825473606,-5.521424756849136e-06,-0.14811181582784239
393,0.3811,790.36,56.482,0.139237,211.804,-0.106775,0.0649095,0.29052,-0.12823,-0.16066,0.24176,-2.90326e-06,-3.85638e-06,0.318881,0.3371226110355645,0.2734885188922571,-2.9032557855579455e-06,-0.12034896386222171,-3.856372564170485e-06,-0.14841844037841367
394,0.3821,790.839,57.1371,-0.127285,211.877,0.0874197,-0.0767351,0.291171,-0.128515,-0.161024,0.242302,-1.03144e-07,-5.77803e-06,0.319603,0.33799336125379265,0.27417893675583604,-1.0314399467858948e-07,-0.12059962868608687,-5.778013307256025e-06,-0.1487283596573853
395,0.3831,791.003,56.4314,0.179033,211.985,-0.137056,0.0862483,0.291821,-0.128808,-0.161382,0.242845,-3.43837e-06,-3.5738e-06,0.320325,0.33886333965095616,0.2748710037976918,-3.438364088781398e-06,-0.12085725525074698,-3.5737936139312865e-06,-0.1490330603599479
396,0.3841,791.532,57.2985,-0.173165,212.052,0.122168,-0.101559,0.292471,-0.129092,-0.161747,0.243386,3.15586e-07,-6.11951e-06,0.321045,0.3397338837179007,0.2755608956096549,3.155860497372487e-07,-0.1211068963395433,-6.119491275824451e-06,-0.1493436066147773
397,0.3851,791.636,56.3498,0.232358,212.166,-0.176902,0.114613,0.293121,-0.129386,-0.162104,0.243928,-4.1139e-06,-3.19675e-06,0.321766,0.3406049938224309,0.27625243700586455,-4.113891537871339e-06,-0.1213652529317395,-3.196744890354708e-06,-0.14964723674601255
398,0.3861,792.229,57.4954,-0.234095,212.226,0.167872,-0.134476,0.29377,-0.129667,-0.162469,0.244469,8.9501e-07,-6.57064e-06,0.322486,0.3414753288565915,0.2769430763753895,8.950104004590287e-07,-0.12161211460997545,-6.570618413359597e-06,-0.14995755886736795
399,0.3871,792.463,57.197,-0.136223,212.324,0.0700028,-0.0790427,0.294419,-0.129956,-0.162828,0.24501,-2.14878e-07,-6.09774e-06,0.323206,0.3423462289215218,0.27763408948190005,-2.1487797696728705e-07,-0.12186593203046936,-6.097721408804269e-06,-0.15026266933312904
400,0.3881,792.758,56.9309,0.0403003,212.416,-0.0211304,0.00876844,0.295067,-0.130246,-0.163187,0.24555,-1.47116e-06,-4.99746e-06,0.323925,0.3432163511670232,0.2783241982028051,-1.4711589177984763e-06,-0.1221205539882122,-4.997447512700148e-06,-0.15056767028389206
401,0.3891,793.092,57.0847,-0.0530748,212.504,0.0212927,-0.0339041,0.295715,-0.130532,-0.163547,0.24609,-8.56205e-07,-5.60712e-06,0.324643,0.3440870374344629,0.2790146796830557,-8.562046334148476e-07,-0.12237159160968047,-5.607104280103137e-06,-0.1508734108859795
402,0.3901,793.385,56.8793,0.0729919,212.595,-0.0509585,0.0280515,0.296362,-0.130821,-0.163906,0.24663,-1.94643e-06,-4.77903e-06,0.325361,0.34495694313183045,0.2797055341239958,-1.946428105692455e-06,-0.12262518957303448,-4.779018580425287e-06,-0.15117819261987675
403,0.3911,793.754,57.1492,-0.0530879,212.678,0.0261596,-0.0354393,0.297009,-0.131106,-0.164266,0.247169,-8.57982e-07,-5.64447e-06,0.326079,0.3458274118402984,0.28039548133095726,-8.579816319631561e-07,-0.12287520576500655,-5.644454070030669e-06,-0.15148371347348033
404,0.3921,794.022,56.8769,0.0879866,212.772,-0.0657677,0.0368036,0.297656,-0.131395,-0.164624,0.247707,-2.24965e-06,-4.67112e-06,0.326796,0.34669844392425286,0.28108451943454327,-2.2496474695321567e-06,-0.12312865820489882,-4.671109090303993e-06,-0.15178742793592426
405,0.3931,794.418,57.2408,-0.0676843,212.851,0.0397446,-0.0439288,0.298301,-0.131679,-0.164984,0.248246,-7.47637e-07,-5.76612e-06,0.327512,0.34756734461093175,0.2817752101149351,-7.476367205327961e-07,-0.12337765430684855,-5.766103375992593e-06,-0.15209272950428776
406,0.3941,794.657,56.8699,0.10706,212.947,-0.0820889,0.0474917,0.298947,-0.131968,-0.165341,0.248784,-2.57999e-06,-4.53394e-06,0.328228,0.3484381543568149,0.28246499071232,-2.5799866718578812e-06,-0.12363096156009279,-4.533929721661778e-06,-0.15239537837381723
407,0.3951,795.081,57.3468,-0.0900018,213.023,0.0578995,-0.0562657,0.299592,-0.132251,-0.165701,0.249321,-5.71764e-07,-5.93879e-06,0.328944,0.34930817751868215,0.28315385935700954,-5.717638364988176e-07,-0.12387893890752155,-5.938772365432499e-06,-0.1527004611194135
408,0.3961,795.285,56.8487,0.133337,213.122,-0.102768,0.0617543,0.300237,-0.13254,-0.166057,0.249859,-2.97473e-06,-4.34839e-06,0.329659,0.35017876202650333,0.28384438186724337,-2.9747255755330215e-06,-0.12413210131044805,-4.348380545748931e-06,-0.15300204606994872
409,0.3971,795.744,57.4696,-0.120412,213.193,0.0813523,-0.07278,0.300881,-0.132823,-0.166417,0.250395,-3.18127e-07,-6.16782e-06,0.330373,0.3510485571932309,0.2845327069105563,-3.181269494501038e-07,-0.1243799368553935,-6.167800979062221e-06,-0.15330691045448175
410,0.3981,795.907,56.8083,0.168495,213.297,-0.129397,0.0805617,0.301524,-0.133112,-0.166771,0.250932,-3.45684e-06,-4.10183e-06,0.331087,0.3519175607702154,0.2852226862170304,-3.4568340251395213e-06,-0.124632954490833,-4.101821587498833e-06,-0.15360658676234484
411,0.3991,796.409,57.6144,-0.160575,213.363,0.111608,-0.0944413,0.302167,-0.133393,-0.167132,0.251468,3.55453e-08,-6.46636e-06,0.3318,0.3527871232961828,0.285911750229501,3.554530070282169e-08,-0.12487889807392927,-6.4663390931807285e-06,-0.15391207963974163
412,0.4001,796.52,56.7428,0.214686,213.471,-0.163741,0.105076,0.30281,-0.133683,-0.167485,0.252004,-4.05238e-06,-3.7788e-06,0.332514,0.3536572451306528,0.28660118367928256,-4.052371789131648e-06,-0.12513264639820243,-3.7787928603982834e-06,-0.1542106959667462
413,0.4011,797.077,57.7876,-0.212882,213.53,0.150615,-0.1226,0.303452,-0.133962,-0.167846,0.252538,5.17846e-07,-6.85262e-06,0.333225,0.35452657210612704,0.28728841218504764,5.17846133973876e-07,-0.12537670034274906,-6.852596520889875e-06,-0.1545159708000795
414,0.4021,797.123,56.6454,0.27479,213.645,-0.207993,0.136802,0.304094,-0.134254,-0.168197,0.253074,-4.79373e-06,-3.35928e-06,0.333938,0.3553964573687103,0.28797858372342744,-4.793718510143208e-06,-0.12563205306293745,-3.3592743575727724e-06,-0.1548126836181828
415,0.4031,797.492,56.9517,0.131062,213.724,-0.119493,0.0627259,0.304736,-0.134537,-0.168554,0.253608,-3.93969e-06,-4.11386e-06,0.334649,0.3562669012769386,0.2886665479572381,-3.939682239439968e-06,-0.125879464181596,-4.113851538090074e-06,-0.15511436163740067
416,0.4041,797.914,57.3458,0.00790178,213.797,-0.00628837,-0.00662029,0.305376,-0.134819,-0.168912,0.254142,-2.45014e-06,-4.97045e-06,0.33536,0.35713518991648274,0.28935487966205575,-2.450136998399799e-06,-0.12612593141918305,-4.97043764735583e-06,-0.1554167765604333
417,0.4051,798.174,57.1817,0.0665711,213.889,-0.0624392,0.0284573,0.306017,-0.135105,-0.169266,0.254676,-3.36292e-06,-4.47703e-06,0.33607,0.3580053924433333,0.290043579034162,-3.3629143454394494e-06,-0.12637582366650246,-4.477019978077479e-06,-0.15571570610787933
418,0.4061,798.565,57.4876,-0.034886,213.964,0.0237809,-0.0282559,0.306657,-0.135387,-0.169623,0.255209,-2.15314e-06,-5.23461e-06,0.33678,0.3588747940733432,0.29073135553794294,-2.153137682037176e-06,-0.12662215095044904,-5.2345962994193584e-06,-0.15601706180560615
419,0.4071,798.803,57.2163,0.0760439,214.057,-0.0659579,0.0327109,0.307296,-0.135672,-0.169977,0.255743,-3.52103e-06,-4.4152e-06,0.33749,0.3597433925544151,0.2914207901444572,-3.521023801189571e-06,-0.1268710281707397,-4.415190253070911e-06,-0.1563157788896835
420,0.4081,799.202,57.5781,-0.0564107,214.131,0.0379432,-0.039339,0.307935,-0.135954,-0.170333,0.256275,-2.0391e-06,-5.38703e-06,0.338198,0.3606125462472878,0.2921080087887651,-2.039097921069377e-06,-0.12711721582670454,-5.387015490021518e-06,-0.15661607701616076
421,0.4091,799.421,57.22,0.0957545,214.225,-0.0787939,0.0427715,0.308574,-0.136239,-0.170686,0.256807,-3.79959e-06,-4.28557e-06,0.338907,0.36148225550685487,0.2927955931306587,-3.799582781516264e-06,-0.12736595197360934,-4.285560816996714e-06,-0.15691373900054284
422,0.4101,799.837,57.6736,-0.0793149,214.297,0.0536293,-0.0512634,0.309212,-0.13652,-0.171042,0.257339,-1.89694e-06,-5.55394e-06,0.339614,0.3623511583363974,0.2934835433647409,-1.8969382008515723e-06,-0.12761112769230298,-5.5539245769065104e-06,-0.15721382429110764
423,0.4111,800.032,57.2084,0.120729,214.394,-0.0962068,0.0557822,0.30985,-0.136806,-0.171395,0.257871,-4.14366e-06,-4.11764e-06,0.340322,0.3632206157028237,0.29417185968571835,-4.1436514151005355e-06,-0.1278605952342241,-4.1176315225266436e-06,-0.15751127530793962
424,0.4121,800.472,57.7825,-0.107247,214.462,0.0734561,-0.0659941,0.310487,-0.137085,-0.171751,0.258402,-1.69304e-06,-5.7589e-06,0.341029,0.364089263870095,0.29485924742850567,-1.6930385667857095e-06,-0.12810388818720864,-5.758883417583682e-06,-0.1578111479134392
425,0.4131,800.635,57.1807,0.151966,214.562,-0.118546,0.0721672,0.311124,-0.137371,-0.172102,0.258933,-4.56001e-06,-3.90482e-06,0.341735,0.36495846554252176,0.29554700027111,-4.559999603137577e-06,-0.12835321481977913,-3.9048123762208675e-06,-0.15810670432733653
426,0.4141,801.109,57.9088,-0.142144,214.626,0.0986822,-0.0845283,0.31176,-0.13765,-0.172458,0.259463,-1.40943e-06,-6.01502e-06,0.342441,0.3658268552452606,0.29623382217298033,-1.4094290067268034e-06,-0.12859637035107052,-6.015001909775997e-06,-0.1584063649978319
427,0.4151,801.231,57.1331,0.19128,214.729,-0.14695,0.0928272,0.312396,-0.137936,-0.172808,0.259993,-5.06566e-06,-3.63502e-06,0.343147,0.36669579741951774,0.2969210081869398,-5.065647169510967e-06,-0.1288455561538817,-3.635013393288311e-06,-0.15870087122848586
428,0.4161,801.749,58.0571,-0.186008,214.788,0.130675,-0.107926,0.313031,-0.138213,-0.173164,0.260522,-1.02607e-06,-6.33653e-06,0.343851,0.36756392485216804,0.2976072608981093,-1.0260694736086151e-06,-0.1290868325165081,-6.3365099242096434e-06,-0.159000320413211
429,0.4171,801.819,57.061,0.240896,214.897,-0.182919,0.118883,0.313667,-0.138501,-0.173513,0.261052,-5.68284e-06,-3.29334e-06,0.344556,0.36843397215408835,0.29829517502752667,-5.682823852715124e-06,-0.1293376193936997,-3.293334576937035e-06,-0.15929377809004353
430,0.4181,802.392,58.233,-0.2412,214.949,0.171117,-0.137463,0.314301,-0.138776,-0.17387,0.26158,-5.18253e-07,-6.74061e-06,0.345259,0.3693018343756882,0.29898085588375767,-5.182528657332597e-07,-0.1295770186294628,-6.7405872821169055e-06,-0.15959385664405645
431,0.4191,802.598,57.915,-0.132501,215.041,0.0675631,-0.0767168,0.314935,-0.139058,-0.174221,0.262109,-1.72573e-06,-6.19264e-06,0.345963,0.37017024699639456,0.2996681985426244,-1.7257285109817389e-06,-0.12982244330370374,-6.192620825684614e-06,-0.1598887874369923
432,0.4201,802.872,57.6671,0.0325305,215.127,-0.0173457,0.00525139,0.315569,-0.139341,-0.174572,0.262637,-2.89661e-06,-5.17558e-06,0.346666,0.3710392103652711,0.3003546045466934,-2.896605804880714e-06,-0.13006866870971046,-5.175566606729909e-06,-0.16018361472738551
433,0.4211,803.177,57.7919,-0.0461338,215.208,0.0164976,-0.0301757,0.316202,-0.139621,-0.174924,0.263165,-2.40561e-06,-5.68366e-06,0.347368,0.3719073529235639,0.30104137306882883,-2.4056071065148288e-06,-0.13031221538434612,-5.683643848009012e-06,-0.16047917807280088
434,0.4221,803.453,57.6209,0.0622337,215.292,-0.0445508,0.0227404,0.316835,-0.139903,-0.175275,0.263692,-3.33336e-06,-4.98312e-06,0.34807,0.3727760451900606,0.30172720257263763,-3.3333544443570062e-06,-0.13055743276233245,-4.9831075842332595e-06,-0.16077379817244508
435,0.4231,803.789,57.8427,-0.0423869,215.37,0.0182739,-0.0295921,0.317467,-0.140183,-0.175627,0.264219,-2.44977e-06,-5.69335e-06,0.348772,0.3736439138682359,0.3024133936038489,-2.4497669993683857e-06,-0.13080084260219116,-5.693333792966548e-06,-0.16106915380984654
436,0.4241,804.045,57.6275,0.0726492,215.455,-0.0555756,0.0289558,0.318099,-0.140464,-0.175977,0.264746,-3.57841e-06,-4.91138e-06,0.349473,0.37451233121277583,0.3030999463530377,-3.578403597548352e-06,-0.1310450532522166,-4.911367939230971e-06,-0.1613627282274931
437,0.4251,804.401,57.9162,-0.0514499,215.53,0.0273833,-0.0350074,0.31873,-0.140743,-0.176329,0.265272,-2.40114e-06,-5.77428e-06,0.350173,0.37537992218993765,0.30378555722467104,-2.4011371172472096e-06,-0.13128745786534335,-5.774263328928164e-06,-0.16165787659799635
438,0.4261,804.636,57.6345,0.0850079,215.618,-0.0665582,0.0359693,0.319361,-0.141025,-0.176678,0.265798,-3.82748e-06,-4.82585e-06,0.350873,0.3762480607897629,0.3044715288224855,-3.827472675244081e-06,-0.13153240026372393,-4.825838355593248e-06,-0.1619504069495481
439,0.4271,805.011,57.998,-0.0657305,215.69,0.0392241,-0.0429287,0.319992,-0.141302,-0.177029,0.266324,-2.31374e-06,-5.88795e-06,0.351572,0.37711674735791045,0.3051578613362729,-2.313737323289544e-06,-0.13177293247360178,-5.887932666093221e-06,-0.16224451073847435
440,0.4281,805.224,57.6343,0.101618,215.779,-0.079769,0.0450079,0.320622,-0.141584,-0.177378,0.266849,-4.10973e-06,-4.71295e-06,0.352272,0.37798460425496416,0.3058432491120231,-4.109721555067836e-06,-0.13201773798744443,-4.712938894035901e-06,-0.16253683639043315
441,0.4291,805.62,58.0886,-0.0847164,215.848,0.0538791,-0.0532066,0.321252,-0.141861,-0.177729,0.267373,-2.18487e-06,-6.03319e-06,0.35297,0.37885300807412525,0.3065276902824836,-2.1848676131641653e-06,-0.13225813577739087,-6.033171800368109e-06,-0.16283073437874584
442,0.4301,805.807,57.6241,0.123126,215.94,-0.0960457,0.056503,0.321881,-0.142143,-0.178077,0.267898,-4.43708e-06,-4.5673e-06,0.353668,0.3797205794387941,0.3072137974072431,-4.437070156182443e-06,-0.13250280448319274,-4.567289569878952e-06,-0.16312201859678843
443,0.4311,806.228,58.1902,-0.108928,216.006,0.071992,-0.0661847,0.32251,-0.142419,-0.178428,0.268422,-2.00483e-06,-6.21465e-06,0.354365,0.38058869667751094,0.3078989569332029,-2.004827990287339e-06,-0.13274220067096176,-6.214630689060918e-06,-0.1634157112221899
444,0.4321,806.385,57.6014,0.150333,216.101,-0.116165,0.0709158,0.323138,-0.142701,-0.178774,0.268946,-4.82104e-06,-4.38284e-06,0.355063,0.3814559786770686,0.308584475576835,-4.8210283788430175e-06,-0.1329867328897092,-4.3828303953885595e-06,-0.1637051193156196
445,0.4331,806.837,58.3055,-0.139268,216.163,0.0943787,-0.0823888,0.323766,-0.142976,-0.179126,0.269469,-1.76158e-06,-6.43935e-06,0.355759,0.38232380550077916,0.30926904425666746,-1.7615784484448227e-06,-0.13322512875723036,-6.439329267471372e-06,-0.16399944330955862
446,0.4341,806.956,57.5634,0.184338,216.261,-0.141025,0.0888368,0.324394,-0.143259,-0.179471,0.269992,-5.27492e-06,-4.1518e-06,0.356455,0.3831921774908993,0.30995397105956024,-5.274906087593401e-06,-0.13347039133949978,-4.151791381246106e-06,-0.16428781375485468
447,0.4351,807.447,58.4377,-0.176942,216.318,0.122015,-0.102495,0.32502,-0.143532,-0.179823,0.270514,-1.44073e-06,-6.71632e-06,0.357151,0.3840583268704789,0.3106379455342603,-1.4407289621320984e-06,-0.1337069216348098,-6.7162974455303726e-06,-0.16458193267644594
448,0.4361,807.521,57.5065,0.226554,216.421,-0.171691,0.111002,0.325647,-0.143815,-0.180167,0.271037,-5.81459e-06,-3.86446e-06,0.357846,0.3849264035550286,0.31132358845977093,-5.814573095341835e-06,-0.13395204788898618,-3.864452532975626e-06,-0.16486926706725658
449,0.4371,808.059,58.5907,-0.223465,216.473,0.156066,-0.127344,0.326273,-0.144087,-0.180519,0.271558,-1.0251e-06,-7.05681e-06,0.35854,0.3857936388999963,0.3120069660537639,-1.02509947463858e-06,-0.13418758089801897,-7.056785100822971e-06,-0.16516318135329977
450,0.4381,808.079,57.4268,0.27874,216.581,-0.209442,0.138312,0.326899,-0.144371,-0.180862,0.272081,-6.45906e-06,-3.50899e-06,0.359235,0.38666141730424974,0.3126933251642723,-6.459039140316314e-06,-0.13443343671186592,-3.508983843492075e-06,-0.1654494812788514
451,0.4391,808.427,57.7519,0.126596,216.653,-0.114434,0.0600245,0.327524,-0.144647,-0.18121,0.272602,-5.48487e-06,-4.32442e-06,0.359929,0.38752835157880505,0.3133774165770218,-5.484854958104357e-06,-0.13467230011866693,-4.324410649680921e-06,-0.16573985433152483
452,0.4401,808.813,58.1114,0.0122654,216.72,-0.0109625,-0.00374289,0.328149,-0.144923,-0.181558,0.273122,-4.12332e-06,-5.10284e-06,0.360622,0.3883958278566406,0.31406055043305114,-4.123311499126814e-06,-0.1349110976082648,-5.102826980518671e-06,-0.16603012635195646
453,0.4411,809.059,57.9839,0.0581194,216.803,-0.0555439,0.023849,0.328773,-0.145201,-0.181904,0.273643,-4.86499e-06,-4.71541e-06,0.361314,0.389262457213462,0.31474535435575834,-4.864978165985967e-06,-0.13515155889746178,-4.715398882471078e-06,-0.16631863001422686
454,0.4421,809.411,58.2385,-0.0263756,216.874,0.0157563,-0.0231315,0.329397,-0.145476,-0.182252,0.274163,-3.86712e-06,-5.33783e-06,0.362007,0.39012962751575975,0.31542919972440986,-3.867112522648597e-06,-0.13538935951968079,-5.337815753847508e-06,-0.16660870065576294
455,0.4431,809.64,58.026,0.0625511,216.958,-0.055601,0.0254831,0.330021,-0.145754,-0.182597,0.274683,-4.96738e-06,-4.69094e-06,0.362698,0.3909973391011887,0.31611340078512495,-4.967367662533917e-06,-0.13562968787054575,-4.69092899757495e-06,-0.16689617106254018
456,0.4441,809.994,58.3114,-0.0419985,217.028,0.0256162,-0.0310575,0.330644,-0.146029,-0.182944,0.275202,-3.81156e-06,-5.44856e-06,0.36339,0.39186420044271864,0.31679664092561244,-3.8115527359883217e-06,-0.13586735702537478,-5.448545156605533e-06,-0.16718520794038294
457,0.4451,810.212,58.0423,0.0753219,217.113,-0.063441,0.0318837,0.331267,-0.146307,-0.183289,0.275721,-5.16909e-06,-4.61262e-06,0.364081,0.39273160200712653,0.3174802357597677,-5.169076640276771e-06,-0.13610755251140227,-4.6126093619092146e-06,-0.16747247948645239
458,0.4461,810.575,58.384,-0.0568209,217.181,0.0353991,-0.0386616,0.331889,-0.146582,-0.183636,0.276239,-3.75171e-06,-5.55795e-06,0.364771,0.39359815053222835,0.3181628673081984,-3.7517029622957665e-06,-0.13634509027152264,-5.55793455458975e-06,-0.1677613164199644
459,0.4471,810.778,58.0496,0.0908276,217.267,-0.073941,0.0398813,0.332511,-0.146859,-0.18398,0.276758,-5.40837e-06,-4.51422e-06,0.365461,0.3944652382181746,0.3188471713978822,-5.408355374769691e-06,-0.13658428955088775,-4.514209810957404e-06,-0.16804755729086351
460,0.4481,811.155,58.463,-0.073795,217.334,0.0471473,-0.0475108,0.333132,-0.147133,-0.184326,0.277276,-3.66201e-06,-5.68422e-06,0.36615,0.39533147006825975,0.31953051120239606,-3.6620032948242454e-06,-0.13682083304761183,-5.6842038448357e-06,-0.16833536304277452
461,0.4491,811.34,58.0489,0.109235,217.421,-0.086861,0.0494731,0.333753,-0.147411,-0.18467,0.277793,-5.68318e-06,-4.3949e-06,0.366839,0.3961982400153856,0.3202128848550776,-5.6831638507448545e-06,-0.13706076350414587,-4.394890342429569e-06,-0.16862140647559654
462,0.4501,811.735,58.5501,-0.0939316,217.485,0.0614279,-0.0580986,0.334374,-0.147683,-0.185016,0.27831,-3.53456e-06,-5.83369e-06,0.367527,0.39706554839381414,0.32089561138614897,-3.5345537534592353e-06,-0.1372954510575186,-5.8336729840124946e-06,-0.1689090137100352
463,0.4511,811.897,58.0389,0.131276,217.575,-0.102566,0.0610023,0.334994,-0.147962,-0.185358,0.278827,-5.9991e-06,-4.25003e-06,0.368215,0.3979319976053186,0.3215786909780951,-5.99908200538124e-06,-0.13753611205290361,-4.250020968599166e-06,-0.16919319822902368
464,0.4521,812.315,58.6469,-0.11805,217.636,0.0787311,-0.0708379,0.335613,-0.148233,-0.185705,0.279344,-3.36217e-06,-6.01184e-06,0.368903,0.3987975853836154,0.32226212381349595,-3.362164347930907e-06,-0.13776980809929273,-6.011821928941785e-06,-0.16948143817671502
465,0.4531,812.449,58.0182,0.157785,217.728,-0.121568,0.0748798,0.336233,-0.148512,-0.186046,0.27986,-6.36375e-06,-4.07417e-06,0.36959,0.3996651087910199,0.3229445871297767,-6.363729751379665e-06,-0.1380103367675236,-4.0741617005624065e-06,-0.16976459672502042
466,0.4541,812.895,58.7552,-0.147012,217.785,0.0996247,-0.0861781,0.336852,-0.148782,-0.186393,0.280375,-3.13646e-06,-6.22466e-06,0.370276,0.40053176969723947,0.3236260790612586,-3.136455081320655e-06,-0.13824304255990072,-6.2246406268284815e-06,-0.1700526384318305
467,0.4551,812.996,57.9846,0.189698,217.881,-0.144482,0.0915733,0.33747,-0.149061,-0.186733,0.280891,-6.78632e-06,-3.86116e-06,0.370963,0.4013975658343629,0.3243092463600592,-6.786296972927097e-06,-0.13848343921413386,-3.8611525456921925e-06,-0.17033477256924245
468,0.4561,813.476,58.8773,-0.181781,217.934,0.124779,-0.104633,0.338088,-0.14933,-0.18708,0.281406,-2.84754e-06,-6.47899e-06,0.371648,0.40226389719886746,0.3249914412720465,-2.847535945815771e-06,-0.13871515600168005,-6.478969011403102e-06,-0.17062261645935772
469,0.4571,813.537,57.9361,0.228084,218.033,-0.172036,0.11162,0.338706,-0.14961,-0.187419,0.281921,-7.27765e-06,-3.60396e-06,0.372333,0.40313076412162574,0.32567398760489663,-7.277623517931708e-06,-0.13895628199878463,-3.6039535057375005e-06,-0.17090372774132356
470,0.4581,814.058,59.0157,-0.223456,218.081,0.15498,-0.126796,0.339323,-0.149877,-0.187766,0.282435,-2.48378e-06,-6.78279e-06,0.373018,0.40399676293625,0.3263555591834155,-2.4837769154739675e-06,-0.13918614998274947,-6.782766996948908e-06,-0.17119137423824382
471,0.4591,814.072,57.8698,0.274182,218.186,-0.205082,0.135641,0.33994,-0.150158,-0.188104,0.28295,-7.85051e-06,-3.29445e-06,0.373702,0.4048632962370151,0.3270388082179201,-7.850479184834391e-06,-0.13942800469242622,-3.2944445732541183e-06,-0.17147146421587856
472,0.4601,814.407,58.1967,0.120877,218.254,-0.109175,0.0568779,0.340556,-0.15043,-0.188447,0.283463,-6.83914e-06,-4.12427e-06,0.374386,0.40572895862413905,0.3277197537741374,-6.8391166131442915e-06,-0.13966204844375674,-4.124261495208614e-06,-0.17175560077144758
473,0.4611,814.773,58.5305,0.0147235,218.318,-0.0131486,-0.00215511,0.341172,-0.150702,-0.18879,0.283976,-5.57516e-06,-4.83975e-06,0.375069,0.4065951544235673,0.3284010487450424,-5.575144458869197e-06,-0.13989602854384386,-4.839738288464623e-06,-0.17203963988489024
474,0.4621,815.012,58.4245,0.0525034,218.397,-0.0509352,0.0208715,0.341787,-0.150975,-0.189131,0.284489,-6.21433e-06,-4.5164e-06,0.375752,0.40746047650280337,0.32908269330993045,-6.214310691143865e-06,-0.14013080487962337,-4.516389801034748e-06,-0.17232192623513143
475,0.4631,815.343,58.6486,-0.0211412,218.465,0.0113699,-0.0200535,0.342402,-0.151247,-0.189474,0.285002,-5.34406e-06,-5.05604e-06,0.376434,0.4083263309187948,0.32976468764818945,-5.344045720501178e-06,-0.14036465749529858,-5.056027218230952e-06,-0.17260577113225006
476,0.4641,815.569,58.4696,0.0546877,218.545,-0.0494942,0.0213478,0.343017,-0.151521,-0.189814,0.285514,-6.29005e-06,-4.50848e-06,0.377116,0.40919271799902956,0.33044570149293273,-6.290030217681597e-06,-0.1406001653131005,-4.5084698367947595e-06,-0.1728870373520982
477,0.4651,815.899,58.7128,-0.0338728,218.613,0.0191455,-0.0264447,0.343631,-0.151792,-0.190156,0.286026,-5.31514e-06,-5.14663e-06,0.377797,0.410058228012264,0.3311270641060413,-5.315125874649773e-06,-0.1408330311135595,-5.146616756102063e-06,-0.17316986161961734
478,0.4661,816.116,58.4913,0.0642544,218.693,-0.0550654,0.026071,0.344245,-0.152066,-0.190496,0.286538,-6.45489e-06,-4.45336e-06,0.378479,0.4109242696118267,0.331808775666131,-6.454869167282773e-06,-0.1410684106145701,-4.453350083810648e-06,-0.17345093608130047
479,0.4671,816.453,58.775,-0.0450217,218.759,0.0262864,-0.0321017,0.344858,-0.152336,-0.190838,0.287049,-5.29049e-06,-5.23023e-06,0.379159,0.41178943133407486,0.3324895038617375,-5.290476005392897e-06,-0.1413002908384653,-5.230216322371639e-06,-0.1737335675284284
480,0.4681,816.659,58.5065,0.0755821,218.84,-0.0625599,0.0318706,0.345471,-0.15261,-0.191177,0.28756,-6.6466e-06,-4.38507e-06,0.379839,0.41265512356304246,0.33317057999834354,-6.646577911384455e-06,-0.1415355423278497,-4.385060385581063e-06,-0.17401362437671852
481,0.4691,817.005,58.841,-0.0572692,218.905,0.0346042,-0.0384365,0.346083,-0.15288,-0.191518,0.28807,-5.24763e-06,-5.32307e-06,0.380518,0.41351993310338986,0.33385067040245486,-5.247616231218721e-06,-0.14176729644320762,-5.3230558324512955e-06,-0.17429523771300326
482,0.4701,817.199,58.5166,0.0886039,218.987,-0.0715782,0.0386258,0.346696,-0.153154,-0.191857,0.28858,-6.86065e-06,-4.30439e-06,0.381198,0.4143866864551431,0.3345311077411328,-6.860626465821085e-06,-0.14200241999058527,-4.3043807361753395e-06,-0.174575104187371
483,0.4711,817.556,58.9119,-0.071343,219.05,0.0444569,-0.04579,0.347307,-0.153423,-0.192198,0.28909,-5.18169e-06,-5.42945e-06,0.381876,0.41525114078447145,0.3352118921913596,-5.181676575038985e-06,-0.14223319029960968,-5.429435260606574e-06,-0.17485652609168145
484,0.4721,817.734,58.5211,0.103738,219.133,-0.0822667,0.0465194,0.347919,-0.153696,-0.192536,0.2896,-7.09936e-06,-4.20881e-06,0.382555,0.41611753957361897,0.33589302393020715,-7.0993347995873535e-06,-0.14246732867731515,-4.2088011429353145e-06,-0.17513537745732688
485,0.4731,818.107,58.9884,-0.087723,219.195,0.0560896,-0.0543929,0.348529,-0.153965,-0.192877,0.290109,-5.08911e-06,-5.5524e-06,0.383232,0.41698163479500727,0.3365731665610028,-5.089097050547942e-06,-0.14269797394272188,-5.55238458543883e-06,-0.17541660834102313
486,0.4741,818.266,58.5192,0.121436,219.279,-0.0948675,0.055766,0.34914,-0.154239,-0.193214,0.290618,-7.36636e-06,-4.09549e-06,0.38391,0.4178476751222444,0.3372536554725185,-7.366332868463665e-06,-0.1429328425193972,-4.095481613508589e-06,-0.17569444612571594
487,0.4751,818.657,59.0714,-0.106863,219.338,0.0697732,-0.0644737,0.34975,-0.154506,-0.193555,0.291126,-4.96586e-06,-5.69496e-06,0.384586,0.41871282604827464,0.33793315290723425,-4.965847670179713e-06,-0.14316164890343297,-5.694943783773887e-06,-0.17597548639949712
488,0.4761,818.794,58.5101,0.142167,219.425,-0.10967,0.0665971,0.350359,-0.15478,-0.193891,0.291634,-7.66599e-06,-3.96138e-06,0.385263,0.4195770852995686,0.33861299561433844,-7.665960616409784e-06,-0.14339639045057284,-3.961372153749032e-06,-0.1762523121267403
489,0.4771,819.206,59.162,-0.129235,219.481,0.0858199,-0.076279,0.350968,-0.155047,-0.194232,0.292142,-4.80733e-06,-5.86039e-06,0.385938,0.4204418710450477,0.3392931837692743,-4.807318444766118e-06,-0.14362507308383243,-5.860372827903859e-06,-0.17653316220064608
490,0.4781,819.318,58.4927,0.16644,219.57,-0.127009,0.0792663,0.351577,-0.155321,-0.194568,0.292649,-8.00325e-06,-3.80319e-06,0.386614,0.4213071836054447,0.33997237757452603,-8.003217974117405e-06,-0.14385968767014135,-3.8031827679363417e-06,-0.17680980058029627
491,0.4791,819.755,59.2612,-0.155355,219.623,0.104586,-0.090082,0.352186,-0.155586,-0.194908,0.293156,-4.60822e-06,-6.05231e-06,0.387289,0.4221730233016878,0.340651915818345,-4.608209382195305e-06,-0.1440865347943373,-6.052291684821576e-06,-0.17708963767309738
492,0.4801,819.838,58.4657,0.194816,219.715,-0.147264,0.0940551,0.352794,-0.155861,-0.195243,0.293663,-8.38384e-06,-3.61724e-06,0.387964,0.423037967416221,0.3413317986754054,-8.383804855682797e-06,-0.14432187863600743,-3.617233457764435e-06,-0.17736526647407502
493,0.4811,820.305,59.3705,-0.185792,219.764,0.126475,-0.106188,0.353401,-0.156125,-0.195584,0.294169,-4.36255e-06,-6.2748e-06,0.388637,0.4239020136739522,0.3420106843091155,-4.3625404840819115e-06,-0.14454774784400026,-6.274780313453299e-06,-0.17764573709524867
494,0.4821,820.353,58.428,0.227921,219.86,-0.170865,0.111278,0.354008,-0.1564,-0.195917,0.294676,-8.81423e-06,-3.39945e-06,0.389312,0.4247665845669726,0.34269125623646546,-8.814191154837836e-06,-0.1447829648695198,-3.3994442218965304e-06,-0.17791953547483563
495,0.4831,820.854,59.4914,-0.221178,219.904,0.151944,-0.124942,0.354615,-0.156663,-0.196258,0.295181,-4.06355e-06,-6.5324e-06,0.389984,0.42563168041383226,0.34336948655960775,-4.063541743759558e-06,-0.14500785737509825,-6.532378663881566e-06,-0.17819981712250188
496,0.4841,820.864,58.3778,0.266462,220.004,-0.198296,0.131286,0.355222,-0.156939,-0.196591,0.295687,-9.30172e-06,-3.14527e-06,0.390657,0.4264973015332749,0.34404940352429203,-9.301676739181808e-06,-0.14524380264451775,-3.145265053627888e-06,-0.17847343102415703
497,0.4851,821.184,58.7027,0.113374,220.068,-0.102602,0.0528074,0.355827,-0.157206,-0.196928,0.296192,-8.26327e-06,-3.98197e-06,0.39133,0.4273605935201965,0.3447283198850246,-8.26323585922939e-06,-0.14547199208456585,-3.981962071963885e-06,-0.17875023883316632
498,0.4861,821.528,59.0063,0.0172779,220.13,-0.0153995,-0.000504971,0.356433,-0.157474,-0.197265,0.296696,-7.11509e-06,-4.62256e-06,0.392001,0.42822583618191734,0.34540623377819757,-7.115064687757133e-06,-0.14570097490561862,-4.6225493159912645e-06,-0.1790269533736607
499,0.4871,821.759,58.9234,0.0461634,220.204,-0.0458606,0.0175437,0.357038,-0.157743,-0.197601,0.297201,-7.64303e-06,-4.36873e-06,0.392673,0.4290901742487083,0.34608583551125016,-7.643000792145749e-06,-0.1459307504371744,-4.368720457059716e-06,-0.17930275398023043
500,0.4881,822.068,59.1145,-0.01551,220.269,0.00669765,-0.0167612,0.357643,-0.15801,-0.197937,0.297704,-6.91138e-06,-4.81864e-06,0.393344,0.4299550353982464,0.3467630870009828,-6.911356116523493e-06,-0.14615875648664556,-4.818628390412805e-06,-0.17957846193336313
501,0.4891,822.288,58.9707,0.0463053,220.344,-0.0431056,0.0169795,0.358247,-0.158279,-0.198272,0.298208,-7.69425e-06,-4.37581e-06,0.394014,0.4308189891273879,0.34744202667525736,-7.694220399367957e-06,-0.14638840889151739,-4.375800426115184e-06,-0.17985325711785216
502,0.4901,822.595,59.1704,-0.0254708,220.409,0.0125012,-0.021691,0.358851,-0.158546,-0.198608,0.298711,-6.9073e-06,-4.89025e-06,0.394684,0.43168346484220543,0.34811996050073857,-6.907276144607621e-06,-0.14661629276249277,-4.890238042731809e-06,-0.18012878013300193
503,0.4911,822.81,58.9971,0.052919,220.484,-0.0466193,0.0201665,0.359454,-0.158815,-0.198943,0.299214,-7.82501e-06,-4.34186e-06,0.395354,0.4325470303103274,0.34879823541270993,-7.82497938467408e-06,-0.14684582210665886,-4.341850574185457e-06,-0.18040339099177027
504,0.4921,823.119,59.2229,-0.0332738,220.549,0.0172697,-0.0255868,0.360057,-0.159081,-0.199279,0.299717,-6.91385e-06,-4.95073e-06,0.396023,0.4334111166654582,0.3494768515827813,-6.913826099408382e-06,-0.14707273093776596,-4.950717745200173e-06,-0.18067872919298889
505,0.4931,823.327,59.0189,0.0605223,220.624,-0.0514673,0.0240166,0.36066,-0.15935,-0.199612,0.300219,-7.9741e-06,-4.3002e-06,0.396692,0.4342757242217874,0.3501544590275145,-7.974068206961782e-06,-0.1473021375165755,-4.300190754147337e-06,-0.18095151775435137
506,0.4941,823.641,59.2772,-0.041375,220.687,0.0226162,-0.0297304,0.361262,-0.159616,-0.199948,0.300721,-6.91107e-06,-5.01469e-06,0.39736,0.4351394181535584,0.3508324067165791,-6.911046118607267e-06,-0.14752892498392578,-5.014677426418146e-06,-0.1812266718159149
507,0.4951,823.841,59.0377,0.068911,220.763,-0.0571632,0.0283413,0.361864,-0.159884,-0.200281,0.301223,-8.13556e-06,-4.2525e-06,0.398028,0.4360036321856111,0.35151069482082087,-8.135526906372093e-06,-0.14775735662082345,-4.252490958145394e-06,-0.181499277942761
508,0.4961,824.162,59.3341,-0.0503132,220.825,0.0287607,-0.0343619,0.362465,-0.16015,-0.200616,0.301724,-6.89611e-06,-5.0851e-06,0.398695,0.4368669297634913,0.35218797132252333,-6.896086221841458e-06,-0.14798402301599523,-5.085087070866301e-06,-0.18177342976165667
509,0.4971,824.353,59.0536,0.0783062,220.902,-0.0637191,0.0332232,0.363067,-0.160418,-0.200949,0.302225,-8.3097e-06,-4.1976e-06,0.399362,0.43773218407062453,0.3528655872247659,-8.309665474492967e-06,-0.1482123327029624,-4.197591190080452e-06,-0.1820458538484181
510,0.4981,824.682,59.3937,-0.060355,220.963,0.0357982,-0.0395992,0.363667,-0.160683,-0.201284,0.302726,-6.86762e-06,-5.16351e-06,0.400028,0.43859508222462606,0.3535435426976308,-6.867596417992061e-06,-0.14843802652904337,-5.163496669124967e-06,-0.18231982259505164
511,0.4991,824.861,59.0662,0.0889252,221.04,-0.0712162,0.0387578,0.364267,-0.160951,-0.201616,0.303226,-8.49773e-06,-4.13422e-06,0.400694,0.43945849827287287,0.3542204836901248,-8.497693894438108e-06,-0.1486662145593718,-4.134211454176473e-06,-0.1825912473549468
512,0.5001,825.201,59.4564,-0.0717074,221.1,0.0438252,-0.0455394,0.364867,-0.161215,-0.20195,0.303726,-6.82416e-06,-5.25118e-06,0.40136,0.4403224325261945,0.3548977632377468,-6.824136715488649e-06,-0.14889093701405887,-5.251166212527636e-06,-0.1828642162899805
513,0.5011,825.367,59.0754,0.100966,221.178,-0.0797558,0.0450377,0.365467,-0.161483,-0.202282,0.304226,-8.70119e-06,-4.06115e-06,0.402025,0.44118688529560757,0.3555753815098166,-8.701152144796609e-06,-0.1491190036806408,-4.061141753552988e-06,-0.18313546034116834
514,0.5021,825.719,59.5225,-0.0845598,221.236,0.0529504,-0.0522769,0.366066,-0.161747,-0.202616,0.304725,-6.76411e-06,-5.34938e-06,0.40269,0.4420504148411788,0.3562519824230783,-6.7640871234120326e-06,-0.1493436066147773,-5.349365692075558e-06,-0.1834082475394163
515,0.5031,825.87,59.0807,0.114619,221.316,-0.0894527,0.0521566,0.366665,-0.162015,-0.202947,0.305224,-8.9218e-06,-3.97717e-06,0.403354,0.44291446179589666,0.35692892104444685,-8.921760200841788e-06,-0.149571551982161,-3.977162091106656e-06,-0.18367849468111141
516,0.5041,826.235,59.5925,-0.0991004,221.371,0.0632943,-0.0599084,0.367263,-0.162278,-0.203281,0.305723,-6.68567e-06,-5.45937e-06,0.404018,0.44377758269147716,0.3576061975424809,-6.685647650939153e-06,-0.1497951852549252,-5.4593550976589356e-06,-0.18395110053617592
517,0.5051,826.37,59.0817,0.130081,221.453,-0.100433,0.0602118,0.367861,-0.162546,-0.203611,0.306221,-9.16147e-06,-3.88103e-06,0.404681,0.44464121988771144,0.35828245380268964,-9.161428033865882e-06,-0.150023009615449,-3.881022468843476e-06,-0.18422035224402378
518,0.5061,826.75,59.6666,-0.115523,221.506,0.0749885,-0.0685358,0.368458,-0.162808,-0.203945,0.306719,-6.58689e-06,-5.58249e-06,0.405344,0.44550392818878937,0.3589590469223871,-6.586868306457383e-06,-0.1502456744165671,-5.5824744179533425e-06,-0.18449277714888257
519,0.5071,826.867,59.078,0.147557,221.589,-0.112834,0.0693061,0.369055,-0.163076,-0.204274,0.307217,-9.42229e-06,-3.77138e-06,0.406007,0.4463671516804919,0.3596359770693709,-9.422245610402058e-06,-0.1504733780621721,-3.7713728883170816e-06,-0.18476103489438178
520,0.5081,827.265,59.7455,-0.134032,221.641,0.0881755,-0.0782677,0.369652,-0.163337,-0.204608,0.307714,-6.46562e-06,-5.72018e-06,0.406668,0.44723089067047983,0.3603118840989583,-6.46559909789346e-06,-0.15069507557771356,-5.720163639755249e-06,-0.18503327924139024
521,0.5091,827.361,59.0692,0.167266,221.725,-0.126804,0.0795489,0.370248,-0.163606,-0.204937,0.308211,-9.70648e-06,-3.64684e-06,0.40733,0.4480936973721765,0.3609881271378308,-9.706432892220285e-06,-0.15092350787686137,-3.6468333503014705e-06,-0.18530135919095003
522,0.5101,827.779,59.8296,-0.154844,221.774,0.103009,-0.08922,0.370844,-0.163866,-0.205271,0.308707,-6.3196e-06,-5.87395e-06,0.407991,0.44895701845993896,0.36166334468900097,-6.319580031388661e-06,-0.15114423906851504,-5.873932748423627e-06,-0.1855734230997782
523,0.5111,827.852,59.0547,0.189441,221.861,-0.142502,0.0910564,0.371439,-0.164135,-0.205598,0.309204,-1.00165e-05,-3.5059e-06,0.408652,0.44981940442030366,0.3623402595707257,-1.001644983500416e-05,-0.1513725505589334,-3.5058938543386375e-06,-0.18583969705226067
524,0.5121,828.292,59.9195,-0.178188,221.907,0.119652,-0.101517,0.372034,-0.164394,-0.205932,0.3097,-6.14637e-06,-6.04545e-06,0.409312,0.4506823036529981,0.3630161479459333,-6.146351111069315e-06,-0.1515923166074069,-6.0454317263314294e-06,-0.18611158118626736
525,0.5131,828.34,59.0341,0.21433,221.997,-0.160096,0.103952,0.372629,-0.164663,-0.206259,0.310196,-1.03548e-05,-3.347e-06,0.409973,0.4515457164635104,0.3636923716449285,-1.0354746389218406e-05,-0.1518205075811775,-3.346994398856218e-06,-0.18637767918982473
526,0.5141,828.804,60.0157,-0.204306,222.039,0.138279,-0.115289,0.373223,-0.164921,-0.206593,0.310691,-5.94333e-06,-6.23643e-06,0.410632,0.45240819074859306,0.36436756646582413,-5.9433123384966535e-06,-0.1520393096635393,-6.236410553528415e-06,-0.1866493836678016
527,0.5151,828.824,59.0067,0.242199,222.132,-0.179768,0.118367,0.373818,-0.165191,-0.206918,0.311186,-1.07243e-05,-3.16845e-06,0.411291,0.45327263076749125,0.36504309559088965,-1.0724242494930536e-05,-0.15226822814454444,-3.1684449804947334e-06,-0.18691367966768324
528,0.5161,829.316,60.1188,-0.233455,222.171,0.159076,-0.130679,0.374411,-0.165448,-0.207252,0.31168,-5.70775e-06,-6.44873e-06,0.411949,0.4541346770089856,0.3657175934673702,-5.707733710780261e-06,-0.15248606721639157,-6.448709206963166e-06,-0.18718520515139425
529,0.5171,829.304,58.9719,0.273331,222.266,-0.201708,0.134439,0.375004,-0.165717,-0.207577,0.312175,-1.11278e-05,-2.96853e-06,0.412608,0.4549972345954998,0.36639379102122405,-1.1127738086313954e-05,-0.15271401780358185,-2.9685255938938226e-06,-0.18744932703758876
530,0.5181,829.612,59.315,0.111588,222.325,-0.0998184,0.0517095,0.375597,-0.165979,-0.207908,0.312669,-9.98051e-06,-3.85973e-06,0.413265,0.4558603038303517,0.3670689563060836,-9.980460194847218e-06,-0.15293597765290734,-3.859722551236011e-06,-0.1877182368033179
531,0.5191,829.933,59.5987,0.0202187,222.383,-0.0181761,0.0014279,0.376189,-0.16624,-0.208237,0.313163,-8.90351e-06,-4.45733e-06,0.413923,0.45672242829388177,0.3677444552049898,-8.90347036386352e-06,-0.15315703251382573,-4.457320066153514e-06,-0.18798543354713515
532,0.5201,830.154,59.5375,0.0411967,222.453,-0.0417119,0.0149454,0.376781,-0.166503,-0.208566,0.313656,-9.32733e-06,-4.26566e-06,0.414579,0.45758506328619575,0.3684189194631846,-9.327286500604437e-06,-0.15337972292920132,-4.2656509020577715e-06,-0.18825254239768285
533,0.5211,830.439,59.7004,-0.0109831,222.514,0.0026675,-0.0139947,0.377373,-0.166765,-0.208895,0.314149,-8.71124e-06,-4.64244e-06,0.415236,0.4584482091096165,0.3690937163142365,-8.711202057254397e-06,-0.15360150838663034,-4.64242922393332e-06,-0.1885195633838732
534,0.5221,830.651,59.5867,0.0390783,222.584,-0.0375776,0.0132574,0.377964,-0.167028,-0.209223,0.314642,-9.35302e-06,-4.28826e-06,0.415892,0.45931040675550894,0.36976884592215353,-9.352976260590395e-06,-0.153824081920222,-4.288250805450922e-06,-0.18878568532069984
535,0.5231,830.931,59.7488,-0.0186158,222.645,0.00689692,-0.0177156,0.378555,-0.16729,-0.209551,0.315134,-8.72588e-06,-4.69841e-06,0.416547,0.4601731141108143,0.3704429380074026,-8.725841929568823e-06,-0.15404575097084527,-4.698398962443839e-06,-0.18905171998384473
536,0.5241,831.14,59.6163,0.0431153,222.715,-0.0393658,0.0151227,0.379145,-0.167552,-0.209879,0.315627,-9.45402e-06,-4.27249e-06,0.417203,0.461034870441259,0.3711187329456047,-9.453975310935725e-06,-0.1542673619517847,-4.2724808729799335e-06,-0.18931766740192923
537,0.5251,831.421,59.7927,-0.0236159,222.776,0.00974171,-0.0201546,0.379735,-0.167813,-0.210207,0.316118,-8.75664e-06,-4.73997e-06,0.417857,0.46189713535795707,0.37179211754587205,-8.75660166077541e-06,-0.15448806936674475,-4.739958766375452e-06,-0.18958352760356478
538,0.5261,831.626,59.6426,0.0476586,222.846,-0.0420909,0.0173845,0.380325,-0.168076,-0.210534,0.31661,-9.56759e-06,-4.2525e-06,0.418512,0.4627599091610626,0.37246720532568056,-9.567544230759673e-06,-0.15471040976545725,-4.252490958145394e-06,-0.1898484904662493
539,0.5271,831.909,59.8372,-0.0283786,222.906,0.0127462,-0.0225502,0.380914,-0.168336,-0.210862,0.317101,-8.7843e-06,-4.78117e-06,0.419165,0.46362172852844674,0.3731412521884587,-8.784261418148809e-06,-0.15493015649060604,-4.781158570277277e-06,-0.19011417658647067
540,0.5281,832.11,59.6674,0.052397,222.976,-0.0452097,0.019805,0.381503,-0.168599,-0.211188,0.317592,-9.6868e-06,-4.23063e-06,0.419819,0.4644840556569594,0.3738156300895097,-9.686753083104627e-06,-0.15515238063569303,-4.230621050926864e-06,-0.1903781563338668
541,0.5291,832.396,59.8826,-0.0333379,223.036,0.0160623,-0.0250892,0.382091,-0.168859,-0.211516,0.318082,-8.80702e-06,-4.82424e-06,0.420472,0.4653454254996017,0.3744889647017611,-8.806981218301146e-06,-0.15537201246335297,-4.82422836334262e-06,-0.1906436687521723
542,0.5301,832.591,59.6909,0.0574387,223.106,-0.0486655,0.0224112,0.382679,-0.169121,-0.211842,0.318572,-9.8109e-06,-4.20643e-06,0.421124,0.4662073019766473,0.3751626293288197,-9.810851873237603e-06,-0.1555932760092973,-4.206421152952444e-06,-0.19090747591325552
543,0.5311,832.882,59.9289,-0.0386447,223.165,0.0197106,-0.0278301,0.383267,-0.16938,-0.212169,0.319062,-8.82454e-06,-4.86997e-06,0.421776,0.46706968538608495,0.37583662413243224,-8.824501063875445e-06,-0.15581194903143214,-4.869958141751063e-06,-0.19117200591561934
544,0.5321,833.071,59.7132,0.0628784,223.235,-0.0524613,0.0252371,0.383854,-0.169642,-0.212494,0.319552,-9.93996e-06,-4.17944e-06,0.422428,0.4679311080942363,0.37651094927442474,-9.939910598721902e-06,-0.15603309732909387,-4.179431266182476e-06,-0.19143483230209546
545,0.5331,833.365,59.9762,-0.0443804,223.294,0.0237045,-0.0308052,0.384441,-0.169901,-0.212821,0.320041,-8.83667e-06,-4.91876e-06,0.423079,0.4687930366059565,0.3771842277317865,-8.836630956743363e-06,-0.15625165645225736,-4.918747902871168e-06,-0.191699189887112
546,0.5341,833.548,59.7343,0.0687807,223.364,-0.0566106,0.0283088,0.385028,-0.170163,-0.213146,0.32053,-1.00742e-05,-4.14931e-06,0.42373,0.4696554712182388,0.3778578355028246,-1.0074149255467901e-05,-0.15647268956166516,-4.149301391587201e-06,-0.19196184496663626
547,0.5351,833.848,60.0246,-0.0505992,223.422,0.0280601,-0.034038,0.385614,-0.170422,-0.213473,0.321018,-8.84318e-06,-4.97094e-06,0.424381,0.4705169417105748,0.3785303942175293,-8.843140899217339e-06,-0.15669113484518338,-4.97092764484286e-06,-0.19222603024668483
548,0.5361,834.023,59.754,0.0751924,223.493,-0.0611305,0.0316466,0.3862,-0.170683,-0.213797,0.321507,-1.02138e-05,-4.11577e-06,0.425031,0.4713789171725611,0.37920466042495327,-1.0213747839271647e-05,-0.15691120973796602,-4.1157615302545025e-06,-0.19248770661902337
549,0.5371,834.329,60.0741,-0.0573418,223.549,0.0327953,-0.0375471,0.386785,-0.170941,-0.214123,0.321994,-8.84378e-06,-5.02674e-06,0.42568,0.47223992565953443,0.3798764966734287,-8.843740893937913e-06,-0.15712869858858547,-5.026727365908812e-06,-0.19275091272173983
550,0.5381,834.496,59.7723,0.0821511,223.621,-0.0660391,0.0352679,0.38737,-0.171203,-0.214447,0.322482,-1.03592e-05,-4.07861e-06,0.42633,0.473101437983831,0.3805500407351896,-1.035914634361923e-05,-0.15734950194305275,-4.0786016825000715e-06,-0.19301241905970357
551,0.5391,834.808,60.1247,-0.0646423,223.676,0.0379283,-0.0413494,0.387955,-0.17146,-0.214773,0.322969,-8.83822e-06,-5.08639e-06,0.426978,0.4739634544402813,0.38122253234344305,-8.838180942993823e-06,-0.15756603529532576,-5.086377064311698e-06,-0.19327545413404346
552,0.5401,834.967,59.7892,0.0896896,223.749,-0.071355,0.0391883,0.388539,-0.171722,-0.215096,0.323456,-1.05105e-05,-4.03762e-06,0.427627,0.47482450049865155,0.38189535153486975,-1.0510444764855187e-05,-0.15778672408258487,-4.037611848861644e-06,-0.19353598408450612
553,0.5411,835.286,60.1766,-0.0725308,223.803,0.0434776,-0.0454599,0.389123,-0.171978,-0.215422,0.323943,-8.8262e-06,-5.15008e-06,0.428275,0.4756860495547808,0.3825684984690416,-8.826161049246828e-06,-0.15800230308592988,-5.150066738401904e-06,-0.19379884850446616
554,0.5421,835.436,59.8047,0.0978374,223.876,-0.0770963,0.0434221,0.389706,-0.17224,-0.215744,0.32443,-1.06681e-05,-3.99262e-06,0.428922,0.47654662535514203,0.38324197330560805,-1.066804309601821e-05,-0.15822287758600018,-3.992612029546372e-06,-0.1940584034846532
555,0.5431,835.762,60.2297,-0.0810343,223.929,0.0494607,-0.0498929,0.390289,-0.172496,-0.21607,0.324915,-8.80746e-06,-5.218e-06,0.429569,0.47740770301747326,0.383913008375512,-8.807421214451772e-06,-0.15843834494833897,-5.217986386307771e-06,-0.19432109762364602
556,0.5441,835.903,59.8185,0.106622,224.003,-0.0832803,0.0479826,0.390872,-0.172757,-0.216392,0.325401,-1.08322e-05,-3.94345e-06,0.430216,0.4782692828344457,0.3845857535614212,-1.0832141331906797e-05,-0.1586579638787904,-3.943442224652038e-06,-0.1945804844666883
557,0.5451,836.237,60.2842,-0.090178,224.055,0.0558947,-0.0546616,0.391455,-0.173013,-0.216717,0.325886,-8.78175e-06,-5.29031e-06,0.430862,0.47913136509890064,0.3852574405228202,-8.78171144058637e-06,-0.158873319873294,-5.290296006377204e-06,-0.19484220327762625
558,0.5461,836.368,59.8308,0.116067,224.129,-0.0899234,0.052882,0.392037,-0.173274,-0.217038,0.326372,-1.10031e-05,-3.88996e-06,0.431508,0.47999247011064017,0.38593083926155325,-1.1003039466106479e-05,-0.15909282529010405,-3.889952434166233e-06,-0.19510061745268004
559,0.5471,836.711,60.34,-0.0999845,224.18,0.0627949,-0.0597779,0.392618,-0.173529,-0.217363,0.326856,-8.74883e-06,-5.36717e-06,0.432153,0.4808525955780274,0.3866017921452558,-8.748791729074057e-06,-0.15930722928198426,-5.367155596736062e-06,-0.19536216724786404
560,0.5481,836.831,59.8415,0.126198,224.255,-0.0970404,0.0581314,0.3932,-0.17379,-0.217684,0.327341,-1.11811e-05,-3.83201e-06,0.432799,0.4817147026374733,0.3872744571225175,-1.1181037491758694e-05,-0.1595266214632166,-3.832002657855327e-06,-0.19562041454126933
561,0.5491,837.183,60.3973,-0.110474,224.304,0.0701755,-0.065253,0.39378,-0.174045,-0.218009,0.327825,-8.70849e-06,-5.44872e-06,0.433443,0.48257434643760644,0.3879460604746654,-8.708452081229723e-06,-0.15974091485117536,-5.448705155730593e-06,-0.1958817954298484
562,0.5501,837.291,59.8504,0.137033,224.38,-0.104645,0.0637407,0.394361,-0.174306,-0.218329,0.328309,-1.13663e-05,-3.76949e-06,0.434087,0.48343597241099423,0.38861798896151223,-1.1366235403875713e-05,-0.1599601938552444,-3.7694828954881743e-06,-0.19613907208884995
563,0.5511,837.654,60.4561,-0.121665,224.428,0.0780487,-0.0710963,0.394941,-0.17456,-0.218654,0.328792,-8.66054e-06,-5.5351e-06,0.434731,0.4842966148371697,0.38928885345091246,-8.660502497592759e-06,-0.16017353687029523,-5.535084681373981e-06,-0.19640028444111457
564,0.5521,837.75,59.8577,0.148592,224.506,-0.112747,0.069718,0.395521,-0.17482,-0.218973,0.329276,-1.15589e-05,-3.70229e-06,0.435375,0.4851577565807401,0.38996143200686384,-1.1558833196145812e-05,-0.16039186336703448,-3.7022831465005623e-06,-0.19665659186716988
565,0.5531,838.123,60.5163,-0.133571,224.552,0.0864247,-0.0773159,0.3961,-0.175074,-0.219298,0.329758,-8.60483e-06,-5.6264e-06,0.436017,0.486017911912739,0.39063155490373536,-8.604792978594844e-06,-0.1606050967519529,-5.626384171786292e-06,-0.1969176360528352
566,0.5541,838.207,59.8632,0.160887,224.63,-0.121358,0.0760702,0.396679,-0.175335,-0.219617,0.330241,-1.17591e-05,-3.63034e-06,0.43666,0.48687856541888275,0.3913033921803952,-1.1759030862035225e-05,-0.16082415023397778,-3.6303334103315876e-06,-0.1971737784700467
567,0.5551,838.591,60.5781,-0.146203,224.675,0.0953111,-0.0839182,0.397258,-0.175587,-0.219941,0.330723,-8.54125e-06,-5.72271e-06,0.437302,0.4877397173876974,0.3919741620579802,-8.541213523671765e-06,-0.16103559590484529,-5.722693625309638e-06,-0.19743385203163033
568,0.5561,838.661,59.867,0.173932,224.754,-0.130483,0.0828019,0.397836,-0.175848,-0.220259,0.331206,-1.19671e-05,-3.5536e-06,0.437944,0.4885998795072528,0.3926466479705286,-1.1967028394566093e-05,-0.16125453704125292,-3.55359368597874e-06,-0.19768902749163575
569,0.5571,839.058,60.6415,-0.15957,224.797,0.104713,-0.0909076,0.398414,-0.1761,-0.220583,0.331687,-8.46971e-06,-5.82408e-06,0.438585,0.48946053894422437,0.3933166721360961,-8.46967413214994e-06,-0.1614658742683096,-5.8240630400607785e-06,-0.19794893413957781
570,0.5581,839.114,59.869,0.187733,224.878,-0.140126,0.089916,0.398991,-0.176361,-0.220901,0.332169,-1.21827e-05,-3.47203e-06,0.439226,0.4903202056651934,0.393988412648524,-1.2182625791168356e-05,-0.16168470311671856,-3.472023972550531e-06,-0.19820394582951373
571,0.5591,839.523,60.7064,-0.173674,224.919,0.114633,-0.0982865,0.399568,-0.176612,-0.221225,0.332649,-8.39019e-06,-5.93056e-06,0.439866,0.491180368556992,0.3946576876997576,-8.390154802473404e-06,-0.16189509385109457,-5.930542414267492e-06,-0.19846368567093842
572,0.5601,839.565,59.8693,0.202293,225.002,-0.150288,0.097413,0.400145,-0.176873,-0.221541,0.33313,-1.24062e-05,-3.38566e-06,0.440507,0.49204102790599347,0.3953286794081101,-1.240612304342914e-05,-0.1621138106878106,-3.385654268606153e-06,-0.19871693113137634
573,0.5611,839.988,60.7729,-0.188514,225.041,0.125071,-0.106055,0.400722,-0.177124,-0.221865,0.333611,-8.30271e-06,-6.04214e-06,0.441146,0.492902183998736,0.39599999394110763,-8.30267553264541e-06,-0.16232409372970225,-6.042121746263618e-06,-0.19897650479248596
574,0.5621,840.013,59.8678,0.217612,225.125,-0.160967,0.105291,0.401298,-0.177385,-0.222181,0.334091,-1.26375e-05,-3.29451e-06,0.441786,0.4937623433588332,0.396670234783133,-1.2637420147121325e-05,-0.1625426986120606,-3.2945045731480604e-06,-0.19922958822768277
575,0.5631,840.451,60.841,-0.204085,225.162,0.136021,-0.11421,0.401873,-0.177635,-0.222505,0.33457,-8.20731e-06,-6.1588e-06,0.442424,0.4946215036911885,0.3973394000778876,-8.207276320115753e-06,-0.1627520367690477,-6.1587810346042104e-06,-0.19948899581479862
576,0.5641,840.46,59.8645,0.233682,225.247,-0.172157,0.113545,0.402449,-0.177896,-0.222821,0.33505,-1.28766e-05,-3.19867e-06,0.443063,0.4954826536646979,0.3980102839891828,-1.287651709691584e-05,-0.16297052997284756,-3.1986648842963206e-06,-0.19974191732841728
577,0.5651,840.912,60.9106,-0.220374,225.283,0.147476,-0.122748,0.403023,-0.178145,-0.223144,0.335529,-8.10415e-06,-6.28048e-06,0.4437,0.49634130711786706,0.3986800913212629,-8.104117161455981e-06,-0.16317892436470582,-6.280460277841016e-06,-0.20000035894855173
578,0.5661,840.904,59.8596,0.250492,225.37,-0.183849,0.122169,0.403598,-0.178406,-0.223459,0.336008,-1.31232e-05,-3.09824e-06,0.444339,0.4972019507808003,0.39935021956790795,-1.3123113891233551e-05,-0.16339730616538195,-3.098235200504895e-06,-0.2002523191496678
579,0.5671,841.373,60.9817,-0.237366,225.403,0.159425,-0.131659,0.404172,-0.178654,-0.223782,0.336487,-7.99338e-06,-6.40709e-06,0.444975,0.4980615913938018,0.4000206688828727,-7.99334805301477e-06,-0.1636047579083736,-6.407069474634319e-06,-0.2005105959366359
580,0.5681,841.347,59.853,0.268026,225.491,-0.196029,0.131152,0.404746,-0.178916,-0.224096,0.336965,-1.33773e-05,-2.99337e-06,0.445613,0.49892172558215786,0.40069003872924713,-1.3377210524301297e-05,-0.16382386475755095,-2.9933655198988163e-06,-0.200761596200408
581,0.5691,841.634,60.2021,0.10251,225.544,-0.0915923,0.0468174,0.40532,-0.179169,-0.224416,0.337443,-1.21479e-05,-3.91419e-06,0.446249,0.4997823536292618,0.4013597286108903,-1.2147826214614632e-05,-0.16403539056062488,-3.914182339581629e-06,-0.2010173115729822
582,0.5701,841.922,60.4459,0.0238907,225.598,-0.021555,0.00383417,0.405893,-0.179422,-0.224735,0.337921,-1.12223e-05,-4.41617e-06,0.446885,0.5006419751759448,0.4020297386808158,-1.1222237030206195e-05,-0.1642468628544399,-4.416160248710277e-06,-0.2012721464022741
583,0.5711,842.129,60.4156,0.0327872,225.66,-0.0351688,0.0106266,0.406465,-0.179676,-0.225053,0.338398,-1.14939e-05,-4.31628e-06,0.44752,0.5015005879255814,0.4026986663927423,-1.1493833945386278e-05,-0.16445911719383255,-4.316270684867618e-06,-0.20152610147872096
584,0.5721,842.381,60.5364,-0.00414642,225.716,-0.00314957,-0.00993421,0.407038,-0.179929,-0.225371,0.338875,-1.10543e-05,-4.58117e-06,0.448155,0.5023611943026429,0.4033679132593,-1.1054238901464508e-05,-0.16467048229836934,-4.581159506411581e-06,-0.2017799758102926
585,0.5731,842.582,60.4651,0.0286618,225.779,-0.0299382,0.00797,0.40761,-0.180184,-0.225689,0.339352,-1.14957e-05,-4.35273e-06,0.44879,0.5032207907269242,0.40403747943276147,-1.1495633924663018e-05,-0.16488346416904065,-4.352720526901166e-06,-0.20203376942266182
586,0.5741,842.828,60.5762,-0.00919317,225.836,-0.000639005,-0.0123248,0.408181,-0.180437,-0.226007,0.339828,-1.10885e-05,-4.62032e-06,0.449425,0.5040793749008832,0.4047059603588101,-1.1088438522821598e-05,-0.16509472192737262,-4.620309326353045e-06,-0.2022874823414933
587,0.5751,843.028,60.4968,0.030138,225.898,-0.0300697,0.00853826,0.408753,-0.180691,-0.226324,0.340305,-1.15665e-05,-4.35473e-06,0.450059,0.5049399544056008,0.4053761649329848,-1.1566433108289864e-05,-0.16530676093790875,-4.3547205181848625e-06,-0.20254031713315934
588,0.5761,843.273,60.6111,-0.0114353,225.955,0.000361962,-0.0133469,0.409324,-0.180944,-0.226641,0.340781,-1.11414e-05,-4.64381e-06,0.450692,0.5057995205023325,0.40604528322501254,-1.1141337934783557e-05,-0.1655179116157044,-4.643799217496358e-06,-0.2027930717888986
589,0.5771,843.472,60.5262,0.031799,226.017,-0.0308431,0.00931813,0.409894,-0.181198,-0.226958,0.341256,-1.16456e-05,-4.35485e-06,0.451325,0.5066580708926347,0.4067133133791456,-1.1645532190240893e-05,-0.16572984314970984,-4.35484051763968e-06,-0.2030457463341102
590,0.5781,843.717,60.6457,-0.0131446,226.074,0.00127372,-0.0141611,0.410464,-0.18145,-0.227275,0.341731,-1.1195e-05,-4.66476e-06,0.451958,0.5075171107961576,0.4073816609229759,-1.1194937336256316e-05,-0.16594005274171508,-4.664749119975831e-06,-0.20329834079418507
591,0.5791,843.914,60.5551,0.0333177,226.136,-0.031732,0.0100722,0.411034,-0.181703,-0.227591,0.342206,-1.17263e-05,-4.35547e-06,0.452591,0.5083766404920029,0.4080503260072996,-1.1726231247233265e-05,-0.16615104321695084,-4.355460514915421e-06,-0.20355005874496324
592,0.5801,844.159,60.6803,-0.0146968,226.192,0.00221558,-0.0149259,0.411604,-0.181956,-0.227907,0.342681,-1.12479e-05,-4.68507e-06,0.453223,0.5092366602594323,0.4087193087829841,-1.1247836742556139e-05,-0.16636198031834848,-4.6850590250668844e-06,-0.2038016971654355
593,0.5811,844.354,60.5837,0.0347581,226.254,-0.0326639,0.0108079,0.412173,-0.182209,-0.228223,0.343155,-1.18076e-05,-4.35638e-06,0.453854,0.5100956602814501,0.40938720001306383,-1.1807530290619539e-05,-0.16657286405940985,-4.356370510993912e-06,-0.20405325608072933
594,0.5821,844.599,60.7149,-0.0161952,226.31,0.00318584,-0.0156779,0.412742,-0.18246,-0.228539,0.343629,-1.13002e-05,-4.70521e-06,0.454485,0.5109551492135624,0.41005540789862804,-1.1300136153025164e-05,-0.16678202801935582,-4.705198930476939e-06,-0.2043047355159644
595,0.5831,844.793,60.6121,0.0361704,226.372,-0.0336211,0.0115393,0.41331,-0.182713,-0.228855,0.344103,-1.1889e-05,-4.3574e-06,0.455116,0.5118136155196664,0.4107239325898069,-1.1888929326131503e-05,-0.16699280550179108,-4.357390506526393e-06,-0.2045561354962525
596,0.5841,845.039,60.7495,-0.0176786,226.427,0.0041762,-0.0164291,0.413878,-0.182965,-0.229171,0.344577,-1.13519e-05,-4.72534e-06,0.455747,0.5126725695731396,0.4113927742368022,-1.1351835567441348e-05,-0.16720269686738176,-4.7253288355531e-06,-0.20480745604669737
597,0.5851,845.23,60.6403,0.0375777,226.489,-0.034595,0.0122724,0.414446,-0.183217,-0.229486,0.34505,-1.19705e-05,-4.35843e-06,0.456377,0.5135320116511009,0.4120605209286594,-1.197042835388018e-05,-0.16741253534701228,-4.358420502059701e-06,-0.20505790225069465
598,0.5861,845.476,60.784,-0.0191617,226.545,0.00518026,-0.0171832,0.415013,-0.183468,-0.229801,0.345523,-1.14033e-05,-4.74553e-06,0.457006,0.5143904276396423,0.41272858353941055,-1.1403234982609867e-05,-0.16762148857591297,-4.745518739968091e-06,-0.20530826957656156
599,0.5871,845.666,60.6684,0.0389881,226.606,-0.0355801,0.0130091,0.41558,-0.183721,-0.230116,0.345995,-1.20521e-05,-4.35945e-06,0.457635,0.5152493304880608,0.41339554882226537,-1.2052027373754548e-05,-0.16783205370169163,-4.359440497592182e-06,-0.20555855804914103
600,0.5881,845.912,60.8184,-0.0206483,226.661,0.00619293,-0.0179405,0.416146,-0.183971,-0.230431,0.346467,-1.14544e-05,-4.76577e-06,0.458264,0.5161072043645218,0.4140628289870403,-1.1454334398641741e-05,-0.16804006968518492,-4.765758643721085e-06,-0.2058087676932676
601,0.5891,846.1,60.6963,0.0404025,226.723,-0.0365715,0.0137485,0.416713,-0.184223,-0.230745,0.346939,-1.21336e-05,-4.36046e-06,0.458893,0.516967080901358,0.41473042418239414,-1.2133526388180549e-05,-0.1682496971734514,-4.3604504932348576e-06,-0.20605810459227014
602,0.5901,846.347,60.8527,-0.0221371,226.777,0.00720969,-0.0186996,0.417279,-0.184474,-0.23106,0.347411,-1.15053e-05,-4.78604e-06,0.459521,0.517825927299751,0.41539833455705666,-1.1505233814324e-05,-0.16845844030110235,-4.78602854692145e-06,-0.20630815690401694
603,0.5911,846.532,60.7242,0.0418179,226.839,-0.0375648,0.0144885,0.417844,-0.184726,-0.231373,0.347883,-1.22149e-05,-4.36149e-06,0.460148,0.518683741258299,0.41606656025982747,-1.2214825398371154e-05,-0.16866796237325665,-4.361480488768166e-06,-0.20655654357636388
604,0.5921,846.78,60.887,-0.0236244,226.893,0.00822615,-0.0194579,0.418409,-0.184975,-0.231688,0.348354,-1.15559e-05,-4.80632e-06,0.460775,0.519542040018677,0.4167336847051839,-1.1555833230869617e-05,-0.16887493828105582,-4.8063084496785535e-06,-0.20680643890455686
605,0.5931,846.963,60.7519,0.0432299,226.955,-0.0385557,0.0152266,0.418974,-0.185227,-0.232001,0.348824,-1.22961e-05,-4.36258e-06,0.461402,0.5204008238548761,0.4173997060397485,-1.2296024403224415e-05,-0.16908435540894262,-4.3625704839733714e-06,-0.20705466963904318
606,0.5941,847.212,60.9211,-0.025105,227.009,0.00923795,-0.0202127,0.419539,-0.185477,-0.232315,0.349295,-1.16065e-05,-4.82657e-06,0.462029,0.5212600930410407,0.41806745854466354,-1.160643264486172e-05,-0.16929205835614014,-4.826558352100108e-06,-0.20730361538624875
607,0.5951,847.393,60.7795,0.0446329,227.07,-0.0395397,0.0159597,0.420103,-0.185728,-0.232628,0.349765,-1.2377e-05,-4.36375e-06,0.462655,0.5221183257323847,0.41873410690027124,-1.2376923405277296e-05,-0.16950053988396652,-4.3637404788521295e-06,-0.2075516905288477
608,0.5961,847.642,60.9551,-0.026573,227.124,0.0102407,-0.0209608,0.420666,-0.185977,-0.232941,0.350235,-1.1657e-05,-4.84674e-06,0.46328,0.5229755196272114,0.41940106865424887,-1.1656932057402258e-05,-0.16970730850577365,-4.846728254626065e-06,-0.20779968803607762
609,0.5971,847.821,60.8071,0.0460208,227.185,-0.0405125,0.0166846,0.42123,-0.186228,-0.233254,0.350705,-1.24577e-05,-4.36507e-06,0.463906,0.5238347200920366,0.42006834395392834,-1.2457622403205804e-05,-0.16991568581889194,-4.365060473077165e-06,-0.20804760793223454
610,0.5981,848.071,60.9889,-0.0280223,227.238,0.0112298,-0.0216991,0.421793,-0.186477,-0.233567,0.351174,-1.17076e-05,-4.8668e-06,0.464531,0.5246928805889608,0.4207345122114883,-1.1707531466287335e-05,-0.17012235108222995,-4.8667881571429206e-06,-0.208295450241607
611,0.5991,848.247,60.8346,0.0473872,227.3,-0.0414695,0.0173981,0.422356,-0.186728,-0.233879,0.351643,-1.25379e-05,-4.36655e-06,0.465155,0.5255515243662754,0.42140099297523803,-1.2537821400870897e-05,-0.17033062423273448,-4.366540466649305e-06,-0.20854242353129493
612,0.6001,848.498,61.0225,-0.0294463,227.353,0.0122007,-0.022424,0.422918,-0.186976,-0.234192,0.352112,-1.17583e-05,-4.88669e-06,0.465779,0.5264091252862555,0.422067786391777,-1.175823087151695e-05,-0.17053635672604117,-4.886678060200822e-06,-0.20879011098762057
613,0.6011,848.673,60.8621,0.0487255,227.414,-0.042406,0.0180967,0.42348,-0.187227,-0.234504,0.35258,-1.26176e-05,-4.36826e-06,0.466403,0.527267208313412,0.42273346987359317,-1.2617520398383597e-05,-0.17074452597416934,-4.368250459130252e-06,-0.20903692996722945
614,0.6021,848.924,61.056,-0.0308386,227.466,0.0131488,-0.0231323,0.424042,-0.187475,-0.234816,0.353048,-1.18091e-05,-4.90639e-06,0.467026,0.5281257737187652,0.4233994649681905,-1.1809030272869059e-05,-0.17095015583257134,-4.906377963687092e-06,-0.20928367195132858
615,0.6031,849.096,60.8896,0.0500292,227.528,-0.0433175,0.0187771,0.424603,-0.187725,-0.235127,0.353516,-1.26969e-05,-4.37023e-06,0.467649,0.5289832927894309,0.4240657718214378,-1.2696819394752978e-05,-0.17115739238796446,-4.370220450522488e-06,-0.20952954649387856
616,0.6041,849.348,61.0893,-0.0321924,227.58,0.0140695,-0.0238204,0.425164,-0.187973,-0.23544,0.353984,-1.18602e-05,-4.92583e-06,0.468272,0.5298412930632599,0.42473239057927237,-1.1860129668139763e-05,-0.1713629198681913,-4.92581786815105e-06,-0.20977692502906564
617,0.6051,849.519,60.917,0.0512916,227.641,-0.0441993,0.0194357,0.425724,-0.188223,-0.23575,0.354451,-1.27755e-05,-4.3725e-06,0.468894,0.5306982441112738,0.42539789598909117,-1.2775418393617954e-05,-0.17157005324547325,-4.3724904406072795e-06,-0.2100218562160111
618,0.6061,849.771,61.1224,-0.0335011,227.693,0.0149582,-0.024485,0.426285,-0.18847,-0.236062,0.354918,-1.19116e-05,-4.94499e-06,0.469516,0.5315572067427106,0.42606371226251727,-1.191152905721804e-05,-0.17177465017356086,-4.944977773591042e-06,-0.21026829095105404
619,0.6071,849.94,60.9445,0.052506,227.754,-0.0450469,0.0200692,0.426845,-0.18872,-0.236372,0.355385,-1.28535e-05,-4.37513e-06,0.470137,0.5324151189714905,0.42672983954475807,-1.285341739409862e-05,-0.17198168063113195,-4.375120429167545e-06,-0.21051306983817142
620,0.6081,850.192,61.1553,-0.0347583,227.806,0.0158104,-0.0251227,0.427404,-0.188967,-0.236684,0.355851,-1.19633e-05,-4.96381e-06,0.470758,0.5332719784929192,0.42739485058552407,-1.1963228439992868e-05,-0.17218617589981067,-4.963797680335169e-06,-0.21075935133847
621,0.6091,850.359,60.972,0.053666,227.867,-0.0458559,0.0206743,0.427963,-0.189216,-0.236994,0.356317,-1.29307e-05,-4.37814e-06,0.471379,0.5341293171327213,0.42806017159365206,-1.2930616398842965e-05,-0.17239227588149908,-4.378130415982895e-06,-0.21100397802046034
622,0.6101,850.612,61.1879,-0.0359575,227.918,0.0166216,-0.0257301,0.428522,-0.189463,-0.237305,0.356783,-1.20156e-05,-4.98225e-06,0.471999,0.5349871351587991,0.42872580271362026,-1.2015527812936355e-05,-0.172596669745675,-4.9822375886021675e-06,-0.21124931763100907
623,0.6111,850.778,60.9995,0.0547653,227.979,-0.0466218,0.0212476,0.429081,-0.189712,-0.237614,0.357248,-1.30071e-05,-4.38159e-06,0.472619,0.5358454328392044,0.42939031469894484,-1.300701540807303e-05,-0.17280266752712015,-4.381580400836249e-06,-0.21149300394038728
624,0.6121,851.031,61.2203,-0.0370926,228.03,0.0173876,-0.026304,0.429639,-0.189959,-0.237925,0.357714,-1.20683e-05,-5.00026e-06,0.473238,0.5367026737386968,0.4300565658100468,-1.2068227178363422e-05,-0.17300696003707738,-5.000247498720967e-06,-0.21173819148752204
625,0.6131,851.194,61.0271,0.0557976,228.091,-0.0473404,0.0217862,0.430197,-0.190207,-0.238234,0.358179,-1.30827e-05,-4.38551e-06,0.473858,0.5375603931120929,0.4307216967441059,-1.308261442189984e-05,-0.17321202888140041,-4.385500383619068e-06,-0.21198172675821536
626,0.6141,851.448,61.2524,-0.0381575,228.142,0.0181042,-0.0268415,0.430754,-0.190454,-0.238545,0.358643,-1.21217e-05,-5.01783e-06,0.474476,0.5384170528086338,0.4313857056495478,-1.2121626532524132e-05,-0.17341622029158943,-5.017817410690739e-06,-0.2122267623361862
627,0.6151,851.61,61.0548,0.0567572,228.202,-0.0480079,0.0222869,0.431311,-0.190702,-0.238853,0.359108,-1.31573e-05,-4.38994e-06,0.475095,0.539274189797539,0.4320514547773511,-1.3157213443082405e-05,-0.1736211876519539,-4.389930364223638e-06,-0.21246935913156229
628,0.6161,851.864,61.2843,-0.0391468,228.253,0.0187677,-0.0273396,0.431868,-0.190948,-0.239164,0.359572,-1.21756e-05,-5.03489e-06,0.475712,0.5401318043447347,0.43271608083368873,-1.2175525877733406e-05,-0.1738244518372717,-5.0348773249497825e-06,-0.21271424307944475
629,0.6171,852.024,61.0825,0.0576387,228.314,-0.0486204,0.0227471,0.432424,-0.191196,-0.239472,0.360036,-1.3231e-05,-4.39491e-06,0.47633,0.5409883557271689,0.43338101534807305,-1.3230912470740819e-05,-0.17402931796876575,-4.394900342430397e-06,-0.21295668975387172
630,0.6181,852.278,61.3158,-0.040055,228.364,0.0193744,-0.0277955,0.43298,-0.191442,-0.239781,0.360499,-1.22303e-05,-5.05142e-06,0.476947,0.5418453834845915,0.43404482441812053,-1.2230225210241308e-05,-0.17423248176637374,-5.051407241607464e-06,-0.21319984856676644
631,0.6191,852.437,61.1103,0.0584368,228.424,-0.0491745,0.023164,0.433536,-0.191689,-0.240089,0.360962,-1.33036e-05,-4.40046e-06,0.477564,0.5427028878819411,0.43470894090292855,-1.330351150752307e-05,-0.17443642115582603,-4.40045031802061e-06,-0.21344214569773434
632,0.6201,852.691,61.3471,-0.0408774,228.474,0.0199209,-0.0282068,0.434092,-0.191935,-0.240399,0.361425,-1.22858e-05,-5.06739e-06,0.47818,0.5435608691843026,0.435373364944863,-1.2285724529825792e-05,-0.1746394848183671,-5.067377160772324e-06,-0.21368594084236814
633,0.6211,852.848,61.1382,0.0591469,228.535,-0.049667,0.0235353,0.434647,-0.192182,-0.240706,0.361888,-1.33751e-05,-4.40662e-06,0.478797,0.5444177832383541,0.43603809668635574,-1.3375010553762223e-05,-0.17484332369047995,-4.406610290885737e-06,-0.21392730220766432
634,0.6221,853.102,61.3781,-0.0416095,228.584,0.0204042,-0.0285712,0.435201,-0.192427,-0.241015,0.36235,-1.2342e-05,-5.08277e-06,0.479412,0.5452736277373049,0.43670169956748683,-1.2341923837810853e-05,-0.1750454623131834,-5.082757082774947e-06,-0.21417016114764353
635,0.6231,853.258,61.1662,0.0597648,228.645,-0.050095,0.0238589,0.435756,-0.192674,-0.241322,0.362812,-1.34455e-05,-4.41341e-06,0.480027,0.5461314926361882,0.43736560910398103,-1.3445409609680326e-05,-0.17524920092123808,-4.413400260916411e-06,-0.21441137388012232
636,0.6241,853.512,61.4088,-0.0422474,228.694,0.0208217,-0.0288867,0.43631,-0.192919,-0.241631,0.363274,-1.2399e-05,-5.09753e-06,0.480642,0.5469882867931766,0.43802982543754565,-1.2398923132761475e-05,-0.1754512401162004,-5.097517007612851e-06,-0.2146540832650622
637,0.6251,853.667,61.1944,0.0602868,228.754,-0.0504561,0.0241329,0.436864,-0.193166,-0.241937,0.363736,-1.35148e-05,-4.42086e-06,0.481257,0.5478455557456341,0.43869434870995394,-1.351470867549942e-05,-0.17565487850951478,-4.420850228004092e-06,-0.214894362351008
638,0.6261,853.921,61.4391,-0.0427876,228.803,0.0211711,-0.0291515,0.437417,-0.19341,-0.242246,0.364197,-1.2457e-05,-5.11165e-06,0.481871,0.5487017510541448,0.4393577397045847,-1.2456922411918647e-05,-0.17585599418204867,-5.111636935506425e-06,-0.21513692251556615
639,0.6271,854.075,61.2226,0.0607097,228.864,-0.0507482,0.0243557,0.43797,-0.193657,-0.242552,0.364658,-1.35828e-05,-4.42898e-06,0.482485,0.5495584199696015,0.44002143659296733,-1.3582707754200563e-05,-0.17605953261345453,-4.428970192038584e-06,-0.2153770538753046
640,0.6281,854.328,61.4692,-0.0432274,228.913,0.0214506,-0.0293643,0.438523,-0.193901,-0.24286,0.365118,-1.25158e-05,-5.12511e-06,0.483098,0.5504155627539811,0.4406839988314317,-1.2515721677708314e-05,-0.17626054956243176,-5.12509686667606e-06,-0.21561868053029598
641,0.6291,854.481,61.251,0.0610311,228.973,-0.0509696,0.0245261,0.439075,-0.194147,-0.243166,0.365579,-1.36496e-05,-4.43779e-06,0.483711,0.5512716283970014,0.4413483072662223,-1.3649506844681802e-05,-0.1764631645445749,-4.437780153021542e-06,-0.21585866449463464
642,0.6301,854.734,61.4989,-0.0435646,229.021,0.0216585,-0.0295238,0.439627,-0.194391,-0.243473,0.366039,-1.25756e-05,-5.1379e-06,0.484324,0.5521281667187041,0.44201148000560075,-1.2575520927482486e-05,-0.1766640830193752,-5.1378868010099055e-06,-0.2160993589361475
643,0.6311,854.886,61.2796,0.0612488,229.081,-0.051119,0.0246429,0.440179,-0.194637,-0.243779,0.366499,-1.37152e-05,-4.4473e-06,0.484936,0.5529851779800798,0.44267495787461386,-1.3715105947054163e-05,-0.17686659874449695,-4.44729011073175e-06,-0.21633919583539607
644,0.6321,855.138,61.5283,-0.0437974,229.13,0.0217939,-0.0296293,0.44073,-0.194881,-0.244086,0.366958,-1.26364e-05,-5.15001e-06,0.485548,0.5538411086003776,0.44333729767563423,-1.2636320161019121e-05,-0.17706741879336108,-5.149996738729179e-06,-0.21657974277642988
645,0.6331,855.29,61.3082,0.0613617,229.189,-0.0511956,0.0247057,0.441281,-0.195126,-0.244391,0.367418,-1.37795e-05,-4.45753e-06,0.48616,0.5546975109684018,0.4440013855610685,-1.3779405063085726e-05,-0.17726901257950944,-4.457520065281884e-06,-0.21681864951975272
646,0.6341,855.542,61.5573,-0.043925,229.238,0.0218562,-0.0296802,0.441831,-0.195369,-0.244698,0.367876,-1.26981e-05,-5.16143e-06,0.486771,0.5555528297905492,0.44466288966853273,-1.2698019379420167e-05,-0.17746891192069902,-5.161416679833053e-06,-0.2170590492910971
647,0.6351,855.692,61.3371,0.061369,229.297,-0.0511989,0.0247141,0.442382,-0.195615,-0.245003,0.368335,-1.38426e-05,-4.46846e-06,0.487382,0.5564101755768371,0.44532614213968835,-1.3842504191674543e-05,-0.17767122968226157,-4.468450016448244e-06,-0.21729780986822433
648,0.6361,855.943,61.5861,-0.0439468,229.345,0.0218451,-0.0296764,0.442932,-0.195858,-0.245309,0.368794,-1.27607e-05,-5.17215e-06,0.487992,0.5572664366236073,0.4459896991136061,-1.2760618582574601e-05,-0.17787103129656945,-5.172136624431722e-06,-0.217537280097591
649,0.6371,856.093,61.366,0.0612706,229.405,-0.0511291,0.024668,0.443481,-0.196103,-0.245613,0.369252,-1.39043e-05,-4.4801e-06,0.488602,0.5581216106210969,0.4466521140772475,-1.3904203335690646e-05,-0.17807242822177105,-4.480089964342682e-06,-0.2177751126120675
650,0.6381,856.344,61.6144,-0.0438632,229.453,0.0217609,-0.0296181,0.444031,-0.196345,-0.24592,0.36971,-1.28243e-05,-5.18219e-06,0.489212,0.5589788132160434,0.4473148324964282,-1.2824217769047408e-05,-0.17827131062839963,-5.182176572526842e-06,-0.21801521879431085
651,0.6391,856.493,61.3951,0.0610671,229.512,-0.0509866,0.0245678,0.44458,-0.19659,-0.246224,0.370167,-1.39649e-05,-4.49245e-06,0.489821,0.5598349275663854,0.4479764065330325,-1.3964802491273076e-05,-0.17847260949717736,-4.492439908965196e-06,-0.2182529060375059
652,0.6401,856.743,61.6425,-0.043675,229.56,0.0216044,-0.0295057,0.445128,-0.196832,-0.246529,0.370624,-1.28889e-05,-5.19155e-06,0.49043,0.5606899513618144,0.4486382829780664,-1.288881693850552e-05,-0.1786713950716543,-5.191536523896367e-06,-0.2184913025438492
653,0.6411,856.892,61.4243,0.0607597,229.619,-0.0507723,0.0244142,0.445677,-0.197077,-0.246833,0.371082,-1.40241e-05,-4.5055e-06,0.491039,0.561547005384915,0.4493019112709489,-1.4024001662726882e-05,-0.17887259593174998,-4.5054898502039364e-06,-0.218728845079581
654,0.6421,857.141,61.6703,-0.0433837,229.666,0.0213766,-0.0293401,0.446225,-0.197319,-0.247138,0.371538,-1.29544e-05,-5.20024e-06,0.491647,0.5624029676561075,0.44996294364641565,-1.295431609216191e-05,-0.17907128472122136,-5.20022647876317e-06,-0.21896709644665135
655,0.6431,857.29,61.4537,0.0603502,229.725,-0.0504875,0.024208,0.446772,-0.197563,-0.247441,0.371995,-1.40822e-05,-4.51923e-06,0.492255,0.563257835864555,0.45062572814638524,-1.4082100846302126e-05,-0.1792715668923308,-4.519219788279294e-06,-0.21920371356712398
656,0.6441,857.537,61.6977,-0.0429915,229.773,0.0210791,-0.0291224,0.447319,-0.197805,-0.247746,0.372451,-1.30209e-05,-5.20828e-06,0.492862,0.5641131718138281,0.4512873643200026,-1.302081522847054e-05,-0.1794701591425114,-5.208266436906861e-06,-0.21944182012139057
657,0.6451,857.686,61.4832,0.059841,229.831,-0.050134,0.0239507,0.447866,-0.198049,-0.248049,0.372907,-1.4139e-05,-4.53362e-06,0.493469,0.5649689757598508,0.4519493022685148,-1.4138900044757818e-05,-0.17967034400013482,-4.533609723189613e-06,-0.21967829342237954
658,0.6461,857.932,61.7248,-0.0425011,229.879,0.0207138,-0.028854,0.448413,-0.19829,-0.248354,0.373362,-1.30882e-05,-5.21567e-06,0.494076,0.5658252479586874,0.4526100895187466,-1.308811434985735e-05,-0.179868019626361,-5.215656398438462e-06,-0.21991625525186198
659,0.6471,858.081,61.5128,0.0592351,229.937,-0.0497139,0.0236436,0.448959,-0.198534,-0.248656,0.373818,-1.41947e-05,-4.54866e-06,0.494682,0.566680421985337,0.45327263076749125,-1.4194599255668017e-05,-0.18006810741786894,-4.548649654823045e-06,-0.22015180497297782
660,0.6481,858.326,61.7517,-0.0419156,229.984,0.0202831,-0.0285365,0.449505,-0.198775,-0.24896,0.374273,-1.31564e-05,-5.22246e-06,0.495288,0.567536063064499,0.4539340202691917,-1.3156313454998347e-05,-0.18026568719466185,-5.222446363029043e-06,-0.22038884279269189
661,0.6491,858.475,61.5426,0.0585361,230.042,-0.0492298,0.0232887,0.450051,-0.199018,-0.249263,0.374728,-1.42493e-05,-4.56431e-06,0.495894,0.5683921714512534,0.4545957107715879,-1.4249198479254765e-05,-0.18046485843238813,-4.564299583509346e-06,-0.22062502918927962
662,0.6501,858.719,61.7782,-0.0412389,230.09,0.0197896,-0.0281721,0.450596,-0.199259,-0.249566,0.375182,-1.32254e-05,-5.22865e-06,0.496499,0.5692471781528574,0.4552562471546917,-1.3225312544773438e-05,-0.1806623426037074,-5.228636330678604e-06,-0.22086114403223012
663,0.6511,858.868,61.5724,0.0577479,230.147,-0.0486843,0.0228881,0.451141,-0.199502,-0.249868,0.375636,-1.43027e-05,-4.58056e-06,0.497104,0.5701026509601159,0.4559170834893971,-1.4302597716842058e-05,-0.18086141746587936,-4.580549509247689e-06,-0.22109640844001877
664,0.6521,859.11,61.8044,-0.0404751,230.195,0.0192363,-0.0277629,0.451686,-0.199743,-0.250172,0.37609,-1.32951e-05,-5.23428e-06,0.497708,0.5709585901271259,0.4565782199119133,-1.3295011620506614e-05,-0.18105880607798697,-5.234266301168411e-06,-0.2213331591439227
665,0.6531,859.259,61.6023,0.056875,230.252,-0.0480808,0.022444,0.45223,-0.199985,-0.250473,0.376544,-1.43552e-05,-4.59736e-06,0.498312,0.5718134240939128,0.45723965655851107,-1.4355096964568936e-05,-0.18125696586861428,-4.597349432144959e-06,-0.22156750259256208
666,0.6541,859.5,61.8304,-0.039629,230.299,0.0186266,-0.0273113,0.452774,-0.200226,-0.250776,0.376997,-1.33656e-05,-5.23938e-06,0.498916,0.5726687232168886,0.4578999356648583,-1.336551068076286e-05,-0.18145425916504276,-5.239366274500945e-06,-0.22180333190933077
667,0.6551,859.649,61.6324,0.0559224,230.357,-0.0474227,0.021959,0.453318,-0.200468,-0.251077,0.377451,-1.44066e-05,-4.6147e-06,0.49952,0.573524487749167,0.4585619725066419,-1.4406496225416454e-05,-0.18165232326760183,-4.614689352311352e-06,-0.22203753385726455
668,0.6561,859.888,61.8562,-0.0387055,230.404,0.017964,-0.02682,0.453861,-0.200708,-0.25138,0.377904,-1.34368e-05,-5.24399e-06,0.500123,0.574379143564069,0.4592228507578098,-1.3436709726644125e-05,-0.1818487031434899,-5.243976250346449e-06,-0.22227322077613443
669,0.6571,860.038,61.6625,0.0548953,230.461,-0.0467136,0.0214359,0.454404,-0.20095,-0.251681,0.378356,-1.44571e-05,-4.63252e-06,0.500725,0.5752342635830985,0.45988256857134635,-1.4456995496625602e-05,-0.18204667180215528,-4.632509269852925e-06,-0.22250728130880348
670,0.6581,860.276,61.8816,-0.0377103,230.508,0.0172523,-0.0262918,0.454947,-0.20119,-0.251983,0.378808,-1.35086e-05,-5.24814e-06,0.501328,0.5760898480583867,0.4605425846447362,-1.3508508759252358e-05,-0.18224295704575144,-5.248126228485361e-06,-0.22274204865819414
671,0.6591,860.426,61.6926,0.0537993,230.564,-0.0459575,0.0208775,0.455489,-0.201432,-0.252283,0.379261,-1.45067e-05,-4.6508e-06,0.50193,0.5769443202970932,0.46120436031645307,-1.4506594778307402e-05,-0.18244083030651614,-4.65078918510109e-06,-0.22297519107048624
672,0.6601,860.662,61.9069,-0.0366776,230.611,0.0164974,-0.025727,0.456031,-0.201671,-0.252585,0.379712,-1.35809e-05,-5.25187e-06,0.502531,0.5777992557852827,0.4618635121105126,-1.3580807780022575e-05,-0.1826362036000343,-5.251856208920991e-06,-0.22320981713246446
673,0.6611,860.813,61.7229,0.0526418,230.668,-0.0451573,0.0202881,0.456573,-0.201913,-0.252885,0.380164,-1.45556e-05,-4.66955e-06,0.503133,0.5786546547741036,0.4625244237727699,-1.4555494067813868e-05,-0.182833981706647,-4.669539097723607e-06,-0.22344281923526177
674,0.6621,861.047,61.9319,-0.0355303,230.715,0.0156963,-0.0251381,0.457114,-0.202152,-0.253187,0.380615,-1.36538e-05,-5.25536e-06,0.503733,0.5795089380051144,0.46318417104971954,-1.3653706787297715e-05,-0.18302926104820816,-5.25534619066903e-06,-0.22367730409485675
675,0.6631,861.198,61.7531,0.0514258,230.771,-0.0443195,0.0196674,0.457655,-0.202393,-0.253487,0.381066,-1.46037e-05,-4.68871e-06,0.504334,0.5803636835283918,0.46384421593979797,-1.4603593366468992e-05,-0.1832261272729626,-4.68869900804858e-06,-0.22391016597260016
676,0.6641,861.431,61.9568,-0.0343522,230.818,0.0148628,-0.0245163,0.458196,-0.202632,-0.253788,0.381517,-1.37271e-05,-5.25843e-06,0.504934,0.5812188915941039,0.4645045585772587,-1.3727005783836788e-05,-0.1834213129029325,-5.258416174491742e-06,-0.22414373385891206
677,0.6651,861.583,61.7834,0.0501579,230.874,-0.0434474,0.0190216,0.458736,-0.202873,-0.254087,0.381967,-1.46511e-05,-4.70819e-06,0.505534,0.5820729803787823,0.46516373393194965,-1.4650992673170826e-05,-0.1836180846545744,-4.708178916512651e-06,-0.2243756802047815
678,0.6661,861.813,61.9814,-0.0331278,230.921,0.0139965,-0.0238712,0.459276,-0.203111,-0.254388,0.382417,-1.38008e-05,-5.26122e-06,0.506133,0.5829275304959529,0.46582320598230176,-1.3800704769417749e-05,-0.18381236043069227,-5.2612061598455995e-06,-0.22460910799239542
679,0.6671,861.966,61.8137,0.0488465,230.976,-0.0425454,0.0183533,0.459816,-0.203352,-0.254687,0.382867,-1.4698e-05,-4.72795e-06,0.506733,0.5837825421948026,0.4664829748618582,-1.4697891984938316e-05,-0.18400903795123535,-4.727938823223532e-06,-0.2248409152121994
680,0.6681,862.195,62.0059,-0.0318626,231.023,0.0131023,-0.0232052,0.460355,-0.20359,-0.254987,0.383317,-1.38747e-05,-5.26376e-06,0.507331,0.5846364310874295,0.46714304070422186,-1.3874603746799608e-05,-0.18420322069154016,-5.263746146400017e-06,-0.2250734280589649
681,0.6691,862.348,61.844,0.0474975,231.078,-0.0416177,0.0176657,0.460895,-0.203831,-0.255286,0.383766,-1.47443e-05,-4.74796e-06,0.50793,0.5854923658418012,0.46780193584038665,-1.47441913033175e-05,-0.18439980402611023,-4.747948728400786e-06,-0.22530509646782215
682,0.6701,862.575,62.0302,-0.0305626,231.125,0.0121847,-0.0225215,0.461433,-0.204069,-0.255586,0.384215,-1.39489e-05,-5.26608e-06,0.508528,0.5863455902314048,0.46846112688689434,-1.3948802714547348e-05,-0.18459389377515578,-5.266066134268499e-06,-0.22553747008109704
683,0.6711,862.729,61.8742,0.0461172,231.18,-0.0406689,0.0169623,0.461972,-0.204309,-0.255885,0.384664,-1.47901e-05,-4.76818e-06,0.509125,0.5872008609792998,0.46912061397663884,-1.4789990626984384e-05,-0.18478956775883237,-4.768168632263148e-06,-0.2257689997621305
684,0.6721,862.954,62.0543,-0.0292341,231.227,0.0112482,-0.0218235,0.46251,-0.204546,-0.256184,0.385113,-1.40233e-05,-5.26823e-06,0.509723,0.5880550047865887,0.46978039724257314,-1.4023201673984964e-05,-0.18498274973830475,-5.268216122900071e-06,-0.22600046022613784
685,0.6731,863.108,61.9045,0.0447119,231.282,-0.0397034,0.0162461,0.463048,-0.204786,-0.256482,0.385561,-1.48355e-05,-4.78855e-06,0.51032,0.5889096082468814,0.47043900637796865,-1.4835389954503952e-05,-0.18517833040774845,-4.788538534916675e-06,-0.2262310777252765
686,0.6741,863.332,62.0784,-0.0278833,231.328,0.010297,-0.0211143,0.463585,-0.205024,-0.256781,0.386009,-1.40977e-05,-5.27025e-06,0.510916,0.589763081843661,0.47109791063635953,-1.4097600627871465e-05,-0.18537223488956278,-5.2702361122980435e-06,-0.22646240004862594
687,0.6751,863.487,61.9347,0.0432878,231.383,-0.0387256,0.0155205,0.464122,-0.205263,-0.257079,0.386457,-1.48805e-05,-4.80904e-06,0.511512,0.5906170138788418,0.47175711014999044,-1.4880389285876205e-05,-0.1855669076611013,-4.809028436580931e-06,-0.22669287991020637
688,0.6761,863.708,62.1023,-0.0265164,231.43,0.00933559,-0.0203972,0.464659,-0.2055,-0.257378,0.386904,-1.41722e-05,-5.27219e-06,0.512108,0.5914714045986715,0.47241513263529633,-1.4172099574882857e-05,-0.18575990543284626,-5.272176102022463e-06,-0.22692406417534328
689,0.6771,863.864,61.9648,0.041851,231.484,-0.0377397,0.0147885,0.465196,-0.205739,-0.257675,0.387351,-1.49253e-05,-4.82961e-06,0.512704,0.5923262542495296,0.4730734493224025,-1.4925188618231111e-05,-0.18595448556219618,-4.82959833747465e-06,-0.22715363363553087
690,0.6781,864.084,62.1261,-0.0251394,231.53,0.00836804,-0.0196752,0.465732,-0.205976,-0.257974,0.387798,-1.42466e-05,-5.27407e-06,0.513299,0.5931799698971618,0.4737320603428461,-1.4246498517667128e-05,-0.18614739148886272,-5.274056092074986e-06,-0.22738468015589774
691,0.6791,864.241,61.9949,0.0404076,231.584,-0.0367498,0.0140533,0.466268,-0.206215,-0.258271,0.388245,-1.49699e-05,-4.85022e-06,0.513894,0.5940341432590377,0.47439096582822415,-1.496978795156867e-05,-0.18634187902011112,-4.8502082377055444e-06,-0.22761411283345223
692,0.6801,864.458,62.1498,-0.0237583,231.631,0.00739841,-0.0189514,0.466803,-0.206452,-0.258569,0.388691,-1.4321e-05,-5.27594e-06,0.514488,0.5948871796925805,0.4750486908607632,-1.4320897455011306e-05,-0.18653469314540694,-5.275926082237703e-06,-0.22784424953575622
693,0.6811,864.616,62.0248,0.0389631,231.684,-0.0357598,0.0133177,0.467339,-0.20669,-0.258866,0.389138,-1.50143e-05,-4.87083e-06,0.515082,0.5957422683641878,0.47570818501153944,-1.5014187285999903e-05,-0.1867282748513016,-4.87081813749235e-06,-0.22807354574147198
694,0.6821,864.831,62.1735,-0.0223785,231.731,0.00643054,-0.0182287,0.467874,-0.206927,-0.259163,0.389583,-1.43951e-05,-5.27784e-06,0.515676,0.5965962188891596,0.4763650212891022,-1.4394996390998394e-05,-0.18692099741163637,-5.277826072180858e-06,-0.2283027738563267
695,0.6831,864.99,62.0547,0.0375233,231.784,-0.0347735,0.0125847,0.468408,-0.207165,-0.25946,0.390029,-1.50586e-05,-4.89141e-06,0.516269,0.5974490289500671,0.4770236269467416,-1.505848661986775e-05,-0.18711448718805568,-4.891398037054628e-06,-0.22853193390054038
696,0.6841,865.203,62.1971,-0.0210055,231.831,0.00546811,-0.0175098,0.468942,-0.207401,-0.259757,0.390474,-1.44691e-05,-5.2798e-06,0.516862,0.5983022945331611,0.47768104872622996,-1.4468995323091427e-05,-0.18730630553362415,-5.2797860619069326e-06,-0.2287610258943269
697,0.6851,865.362,62.0845,0.0360931,231.884,-0.0337945,0.0118568,0.469476,-0.207639,-0.260053,0.390919,-1.51029e-05,-4.91192e-06,0.517455,0.5991560158817548,0.478338763123513,-1.5102785951737197e-05,-0.18749970361762225,-4.911907936500093e-06,-0.2289892788475585
698,0.6861,865.574,62.2206,-0.0196442,231.931,0.00451459,-0.0167973,0.47001,-0.207875,-0.26035,0.391364,-1.45428e-05,-5.28185e-06,0.518048,0.6000101932392923,0.47899677026883425,-1.4542694254049415e-05,-0.18769143106284014,-5.281836051085342e-06,-0.22921823503006467
699,0.6871,865.734,62.1142,0.0346777,231.983,-0.0328262,0.0111366,0.470543,-0.208112,-0.260646,0.391809,-1.51472e-05,-4.93233e-06,0.51864,0.600863225985321,0.47965507029249577,-1.5147085281719264e-05,-0.18788392538220033,-4.9323178360483055e-06,-0.2294463526694196
700,0.6881,865.944,62.2441,-0.0182994,232.03,0.0035732,-0.0160937,0.471076,-0.208348,-0.260943,0.392253,-1.46162e-05,-5.28403e-06,0.519231,0.6017167135189934,0.48031218301193435,-1.4616093183872358e-05,-0.18807556216178067,-5.284016039497352e-06,-0.2296751731211577
701,0.6891,866.104,62.1437,0.0332814,232.082,-0.0318716,0.0104264,0.471609,-0.208585,-0.261238,0.392697,-1.51915e-05,-4.95261e-06,0.519823,0.6025706560827759,0.48096958755420016,-1.519138460970293e-05,-0.18826796545285784,-4.952597735807807e-06,-0.2299023854296237
702,0.6901,866.312,62.2676,-0.0169756,232.129,0.00264695,-0.0154012,0.472142,-0.208821,-0.261534,0.393141,-1.46892e-05,-5.28636e-06,0.520413,0.6034250539192645,0.48162728404889155,-1.4689092114217317e-05,-0.18845951160967545,-5.2863460272556395e-06,-0.2301303005904286
703,0.6911,866.474,62.1731,0.0319086,232.181,-0.0309336,0.00972838,0.472674,-0.209058,-0.261829,0.393584,-1.5236e-05,-4.97273e-06,0.521004,0.6042783029920786,0.48228379034113233,-1.523588393270714e-05,-0.1886518239155155,-4.972717635998158e-06,-0.23035737865609296
704,0.6921,866.68,62.291,-0.0156767,232.228,0.0017386,-0.0147219,0.473205,-0.209293,-0.262125,0.394028,-1.47619e-05,-5.28887e-06,0.521594,0.6051304009829623,0.48294207047141846,-1.4761791043649275e-05,-0.1888424683352986,-5.288856013918597e-06,-0.23058515915883326
705,0.6931,866.842,62.2024,0.030563,232.28,-0.030015,0.00904453,0.473737,-0.20953,-0.26242,0.394471,-1.52806e-05,-4.99267e-06,0.522184,0.6059845575417846,0.4835991593430762,-1.5280483252277932e-05,-0.18903468989114902,-4.992657536617706e-06,-0.23081210306100997
706,0.6941,867.046,62.3145,-0.0144064,232.326,0.000850637,-0.0140576,0.474268,-0.209765,-0.262715,0.394913,-1.48341e-05,-5.29158e-06,0.522774,0.6068375617944255,0.48425505511379296,-1.4833989975260309e-05,-0.18922524434799903,-5.291565999598902e-06,-0.23103898002460954
707,0.6951,867.209,62.2315,0.0292483,232.378,-0.029118,0.00837662,0.474799,-0.210001,-0.26301,0.395356,-1.53254e-05,-5.0124e-06,0.523363,0.6076910191126028,0.48491272576650246,-1.5325282566647225e-05,-0.18941656461365353,-5.0123874379970346e-06,-0.23126579006937587
708,0.6961,867.412,62.3379,-0.0131681,232.424,-1.46962e-05,-0.01341,0.475329,-0.210236,-0.263305,0.395798,-1.49058e-05,-5.29451e-06,0.523952,0.6085433211928328,0.4855692022619089,-1.4905688909161441e-05,-0.18960702934048745,-5.294495984076164e-06,-0.23149253321504704
709,0.6971,867.575,62.2605,0.0279674,232.476,-0.0282447,0.00772623,0.47586,-0.210472,-0.263599,0.39624,-1.53704e-05,-5.03192e-06,0.52454,0.6093976845097719,0.486225968984062,-1.5370281876037062e-05,-0.18979825951551488,-5.031907339914099e-06,-0.2317184412001808
710,0.6981,867.776,62.3613,-0.0119646,232.522,-0.000855423,-0.0127807,0.476389,-0.210706,-0.263894,0.396682,-1.4977e-05,-5.29768e-06,0.525129,0.6102492811123197,0.48688302606126976,-1.4976887845241649e-05,-0.18998782454281504,-5.297665967352039e-06,-0.2319450508334624
711,0.6991,867.94,62.2893,0.0267232,232.573,-0.0273971,0.00709477,0.476919,-0.210942,-0.264188,0.397123,-1.54157e-05,-5.05118e-06,0.525716,0.611102939430781,0.48753888608226825,-1.541558117867936e-05,-0.19017896486077823,-5.051167242808852e-06,-0.23217082579797133
712,0.7001,868.139,62.3847,-0.0107985,232.62,-0.00166983,-0.0121709,0.477448,-0.211176,-0.264482,0.397564,-1.50477e-05,-5.30111e-06,0.526304,0.611955438351824,0.48819503540132114,-1.5047586783945022e-05,-0.19036844081344984,-5.301095949095114e-06,-0.23239653439439734
713,0.7011,868.304,62.3179,0.0255179,232.67,-0.0265766,0.00648343,0.477977,-0.211411,-0.264775,0.398005,-1.54613e-05,-5.0702e-06,0.526891,0.6128083883640996,0.4888514741460377,-1.5461180474685143e-05,-0.1905586818756584,-5.070187146571925e-06,-0.2326214092640425
714,0.7021,868.502,62.4082,-0.00967194,232.717,-0.00245645,-0.0115818,0.478506,-0.211646,-0.265069,0.398446,-1.51178e-05,-5.30482e-06,0.527478,0.6136617897062977,0.48950820244408244,-1.5117685726595553e-05,-0.1907488782364699,-5.304805929418066e-06,-0.23284698540840087
715,0.7031,868.667,62.3464,0.0243536,232.767,-0.0257847,0.00589323,0.479034,-0.211881,-0.265363,0.398886,-1.55071e-05,-5.08894e-06,0.528064,0.6145140281024002,0.4901637302587012,-1.5506979765600448e-05,-0.190939029906388,-5.088927051422054e-06,-0.2330724952431208
716,0.7041,868.863,62.4317,-0.00858682,232.814,-0.00321408,-0.0110142,0.479562,-0.212114,-0.265656,0.399326,-1.51874e-05,-5.3088e-06,0.52865,0.6153667165991916,0.4908195465690228,-1.5187284671980272e-05,-0.19112751915256987,-5.308785908320068e-06,-0.2332971720852498
717,0.7051,869.029,62.3747,0.0232319,232.864,-0.0250225,0.005325,0.48009,-0.212349,-0.265949,0.399766,-1.55533e-05,-5.1074e-06,0.529236,0.6162198554343885,0.49147565150201333,-1.5553179048111154e-05,-0.19131758185232717,-5.107386957248217e-06,-0.23352178310670724
718,0.7061,869.223,62.4551,-0.00754456,232.911,-0.00394175,-0.0104689,0.480617,-0.212583,-0.266242,0.400206,-1.52564e-05,-5.31308e-06,0.529822,0.6170718277731955,0.49213204518469444,-1.525628362175624e-05,-0.1915067913997932,-5.313065885581558e-06,-0.2337463283267759
719,0.7071,869.389,62.4028,0.022154,232.961,-0.0242907,0.00477937,0.481144,-0.212817,-0.266535,0.400645,-1.55998e-05,-5.12557e-06,0.530407,0.6179242492197548,0.49278723495616306,-1.55996783237633e-05,-0.19169595667740502,-5.12555686427163e-06,-0.23397080776473256
720,0.7081,869.582,62.4786,-0.00654628,233.007,-0.00463874,-0.00994647,0.481671,-0.21305,-0.266828,0.401084,-1.53247e-05,-5.31766e-06,0.530991,0.6187771200108081,0.4934427124190848,-1.532458257735847e-05,-0.1918842695801941,-5.317645861313558e-06,-0.2341952214398486
721,0.7091,869.749,62.4308,0.021121,233.057,-0.02359,0.00425683,0.482198,-0.213284,-0.26712,0.401523,-1.56466e-05,-5.14345e-06,0.531576,0.6196304403832225,0.4940984776997843,-1.5646477592556884e-05,-0.19207334653824548,-5.143436772492294e-06,-0.23441880379057634
722,0.7101,869.94,62.5022,-0.00559277,233.103,-0.00530453,-0.00944727,0.482724,-0.213518,-0.267412,0.401962,-1.53925e-05,-5.32254e-06,0.53216,0.6204825900905897,0.49475453092464106,-1.5392381536027955e-05,-0.1922623792574648,-5.322525835294023e-06,-0.23464232086478842
723,0.7111,870.107,62.4586,0.0201335,233.153,-0.0229209,0.0037577,0.48325,-0.213751,-0.267704,0.4024,-1.56938e-05,-5.16104e-06,0.532744,0.6213351881466083,0.4954093768099659,-1.569367685294587e-05,-0.19245056019916684,-5.161026681910208e-06,-0.23486577268154296
724,0.7121,870.297,62.5257,-0.00468453,233.199,-0.00593884,-0.00897155,0.483775,-0.213984,-0.267996,0.402838,-1.54597e-05,-5.32772e-06,0.533327,0.622186612599748,0.49606450958061177,-1.5459580499421754e-05,-0.19263869729981697,-5.327705807744998e-06,-0.23508915925989227
725,0.7131,870.464,62.4862,0.0191917,233.248,-0.0222834,0.00328212,0.4843,-0.214218,-0.268288,0.403276,-1.57413e-05,-5.17832e-06,0.53391,0.6230384841680832,0.49671992936226217,-1.5741176106365273e-05,-0.19282759774243508,-5.178306592523718e-06,-0.2353124806188832
726,0.7141,870.653,62.5493,-0.00382174,233.295,-0.00654157,-0.00851938,0.484825,-0.21445,-0.26858,0.403713,-1.55263e-05,-5.33321e-06,0.534493,0.6238908030864108,0.49737413890576754,-1.552617946765089e-05,-0.19301484001881497,-5.3331957784452655e-06,-0.23553573677755701
727,0.7151,870.821,62.5136,0.0182957,233.344,-0.0216776,0.00283012,0.48535,-0.214683,-0.268871,0.404151,-1.57892e-05,-5.19531e-06,0.535075,0.6247435695896513,0.4980301324307028,-1.5789075351269055e-05,-0.19320284565758317,-5.195296504445501e-06,-0.2357581635134951
728,0.7161,871.008,62.5729,-0.00300433,233.39,-0.00711281,-0.00809072,0.485874,-0.214916,-0.269163,0.404588,-1.55922e-05,-5.33901e-06,0.535657,0.6255951583168773,0.49868491465807163,-1.5592078442261403e-05,-0.19339080749614035,-5.338995747505848e-06,-0.23598128955176212
729,0.7171,871.176,62.5408,0.0174453,233.439,-0.0211034,0.00240158,0.486398,-0.215149,-0.269453,0.405024,-1.58374e-05,-5.21199e-06,0.536239,0.6264471933935296,0.4993384837485708,-1.5837274589092232e-05,-0.1935787255446909,-5.21197641756288e-06,-0.2362028228539108
730,0.7181,871.362,62.5966,-0.00223198,233.485,-0.00765282,-0.00768539,0.486922,-0.215381,-0.269745,0.405461,-1.56576e-05,-5.34511e-06,0.53682,0.6272996750535569,0.49999383785041074,-1.565747742038326e-05,-0.19376579357963342,-5.345095714925918e-06,-0.23642581907060534
731,0.7191,871.53,62.5679,0.0166401,233.533,-0.0205604,0.00199625,0.487445,-0.215613,-0.270035,0.405897,-1.5886e-05,-5.22839e-06,0.537401,0.6281509753792405,0.5006479777558506,-1.5885873818177743e-05,-0.1939528182198258,-5.2283763319893595e-06,-0.23664722347788414
732,0.7201,871.715,62.6202,-0.00150413,233.58,-0.00816201,-0.00730308,0.487969,-0.215845,-0.270326,0.406333,-1.57223e-05,-5.3515e-06,0.537982,0.6290043500549778,0.5013024029284727,-1.572217640533058e-05,-0.19413979947533455,-5.3514856807046485e-06,-0.23686932681824868
733,0.7211,871.883,62.5948,0.0158794,233.628,-0.0200481,0.00161379,0.488491,-0.216078,-0.270616,0.406769,-1.5935e-05,-5.24449e-06,0.538562,0.6298549123031396,0.501957113492681,-1.5934873038525588e-05,-0.1943275430290834,-5.244476247723284e-06,-0.23709060262692838
734,0.7221,872.067,62.6439,-0.000820033,233.674,-0.00864093,-0.0069434,0.489014,-0.216309,-0.270907,0.407205,-1.57865e-05,-5.35819e-06,0.539142,0.6307075493674315,0.5026121095729335,-1.5786375393900265e-05,-0.19451363187255477,-5.358175644953889e-06,-0.23731257696273167
735,0.7231,872.235,62.6215,0.0151624,233.722,-0.0195659,0.00125375,0.489536,-0.216541,-0.271196,0.40764,-1.59842e-05,-5.26031e-06,0.539722,0.6315590009177219,0.5032658880271021,-1.5984072253338866e-05,-0.19470048303438747,-5.260296164544265e-06,-0.23753296178084926
736,0.7241,872.418,62.6676,-0.000178748,233.768,-0.00909027,-0.00660585,0.490058,-0.216773,-0.271486,0.408075,-1.58501e-05,-5.36516e-06,0.540301,0.6324108970417452,0.5039199509367631,-1.58499743878604e-05,-0.1948872908517788,-5.365145607560962e-06,-0.23775404516329302
737,0.7251,872.586,62.6481,0.0144879,233.816,-0.019113,0.000915598,0.490579,-0.217004,-0.271776,0.40851,-1.60338e-05,-5.27585e-06,0.54088,0.6332616047092083,0.5045742984256811,-1.6033671459303456e-05,-0.19507325040843637,-5.2758360826743456e-06,-0.23797506444085148
738,0.7261,872.768,62.6914,0.000420825,233.862,-0.0095108,-0.00628986,0.491101,-0.217235,-0.272066,0.408944,-1.59131e-05,-5.37242e-06,0.541459,0.6341143898244175,0.5052274253894973,-1.5912973387322005e-05,-0.1952591670133974,-5.372405568526695e-06,-0.23819601963211234
739,0.7271,872.936,62.6745,0.0138549,233.91,-0.0186887,0.000598712,0.491622,-0.217467,-0.272355,0.409378,-1.60838e-05,-5.29113e-06,0.542037,0.6349659852428593,0.5058808358719349,-1.6083670656419358e-05,-0.19544584523113973,-5.291116002004159e-06,-0.238416149172188
740,0.7281,873.117,62.7151,0.000979923,233.956,-0.0099034,-0.00599477,0.492142,-0.217698,-0.272644,0.409812,-1.59755e-05,-5.37994e-06,0.542615,0.6358163886409067,0.5065345299960677,-1.5975372392396103e-05,-0.19563167577663698,-5.379925528181673e-06,-0.23863621510401833
741,0.7291,873.285,62.7007,0.0132619,234.003,-0.0182921,0.000302417,0.492663,-0.217929,-0.272933,0.410246,-1.6134e-05,-5.30614e-06,0.543193,0.6366688710317683,0.5071885078850227,-1.6133869847667626e-05,-0.19581746340023587,-5.306125922421856e-06,-0.23885621744598362
742,0.7301,873.465,62.7389,0.0014999,234.049,-0.010269,-0.00571987,0.493183,-0.21816,-0.273222,0.41068,-1.60375e-05,-5.38772e-06,0.54377,0.6375201601606959,0.5078427696619809,-1.603737139999062e-05,-0.19600320811185024,-5.387705486303851e-06,-0.23907615621645872
743,0.7311,873.633,62.7268,0.0127077,234.096,-0.0179221,2.59817e-05,0.493703,-0.21839,-0.273511,0.411113,-1.61845e-05,-5.32091e-06,0.544347,0.6383718920750847,0.5084958069536152,-1.6184369031724266e-05,-0.19618810610989967,-5.320895843929918e-06,-0.23929603143381284
744,0.7321,873.812,62.7627,0.00198222,234.142,-0.0106087,-0.00546442,0.494222,-0.218621,-0.2738,0.411546,-1.60989e-05,-5.39576e-06,0.544924,0.639222427781996,0.5091491270716242,-1.6098770413419672e-05,-0.19637376521293637,-5.3957454428932294e-06,-0.2395158431164104
745,0.7331,873.98,62.7528,0.0121907,234.189,-0.0175776,-0.000231371,0.494741,-0.218851,-0.274088,0.411979,-1.62352e-05,-5.33543e-06,0.5455,0.6400734050315093,0.509802730138498,-1.623506820980225e-05,-0.19655857799265297,-5.3354157666385404e-06,-0.23973483101782145
746,0.7341,874.158,62.7864,0.00242839,234.235,-0.0109235,-0.00522762,0.49526,-0.219082,-0.274376,0.412411,-1.61598e-05,-5.40403e-06,0.546076,0.6409248240528451,0.5104551058209197,-1.6159669431137225e-05,-0.19674415152656832,-5.404015398280393e-06,-0.23995375585979783
747,0.7351,874.326,62.7785,0.0117093,234.282,-0.0172577,-0.000470453,0.495779,-0.219312,-0.274664,0.412844,-1.62862e-05,-5.34973e-06,0.546652,0.6417766850753426,0.511109274499038,-1.6286067380577585e-05,-0.19692887912722878,-5.349715690217138e-06,-0.24017261766049813
748,0.7361,874.503,62.8102,0.00284003,234.327,-0.0112146,-0.00500864,0.496297,-0.219542,-0.274952,0.413276,-1.62202e-05,-5.41253e-06,0.547227,0.6426273457002922,0.5117622147305572,-1.62200684532543e-05,-0.1971135642454267,-5.412515352243297e-06,-0.2403914164380756
749,0.7371,874.671,62.8042,0.011262,234.374,-0.0169612,-0.0006921,0.496815,-0.219772,-0.27524,0.413707,-1.63375e-05,-5.36381e-06,0.547802,0.643478447081592,0.5124139246785113,-1.6337366543828225e-05,-0.19729820689093214,-5.363795614776734e-06,-0.24061015221067827
750,0.7381,874.847,62.834,0.00321875,234.42,-0.011483,-0.00480664,0.497333,-0.220001,-0.275528,0.414139,-1.62802e-05,-5.42126e-06,0.548377,0.6443299894476122,0.5130674286406649,-1.6280067478224858e-05,-0.19748200455591824,-5.4212453050039855e-06,-0.24082882499644898
751,0.7391,875.015,62.8297,0.010847,234.466,-0.0166868,-0.000897166,0.49785,-0.220231,-0.275815,0.41457,-1.6389e-05,-5.37767e-06,0.548951,0.645180327845692,0.5137197012570607,-1.6388865701100208e-05,-0.19766656246989667,-5.377655540317328e-06,-0.2410466758605807
752,0.7401,875.19,62.8578,0.00356622,234.512,-0.0117299,-0.00462076,0.498367,-0.22046,-0.276102,0.415001,-1.63397e-05,-5.43018e-06,0.549525,0.6460311059823862,0.5143722550635461,-1.6339566507816983e-05,-0.19785027579111292,-5.43016525655915e-06,-0.24126446421048564
753,0.7411,875.358,62.855,0.0104627,234.558,-0.0164336,-0.00108651,0.498884,-0.22069,-0.276389,0.415432,-1.64407e-05,-5.39134e-06,0.550099,0.6468823240850985,0.5150250901813405,-1.6440564852393535e-05,-0.19803474901244733,-5.391325466730379e-06,-0.24148219006410265
754,0.7421,875.532,62.8816,0.00388411,234.604,-0.0119566,-0.00445013,0.4994,-0.220919,-0.276676,0.415862,-1.63987e-05,-5.43931e-06,0.550672,0.6477323346481918,0.5156766910542661,-1.6398565542030674e-05,-0.19821837802859865,-5.439295207021466e-06,-0.24169985343936584
755,0.7431,875.7,62.8802,0.0101074,234.65,-0.0162003,-0.001261,0.499917,-0.221148,-0.276963,0.416293,-1.64925e-05,-5.40483e-06,0.551245,0.6485844325135233,0.5163300885051465,-1.649236399947629e-05,-0.1984019649985197,-5.404815393905693e-06,-0.24191745435420386
756,0.7441,875.873,62.9054,0.00417409,234.695,-0.0121641,-0.00429389,0.500433,-0.221377,-0.27725,0.416723,-1.64574e-05,-5.44862e-06,0.551818,0.6494353215912028,0.5169822506480157,-1.6457264577773856e-05,-0.1985855099318381,-5.448605156277431e-06,-0.24213499282654027
757,0.7451,876.041,62.9053,0.00977943,234.741,-0.0159857,-0.0014215,0.500948,-0.221606,-0.277536,0.417152,-1.65446e-05,-5.41814e-06,0.55239,0.6502849995551183,0.517633175646973,-1.6544463138812304e-05,-0.19876901283817905,-5.418125321954292e-06,-0.24235171122638344
758,0.7461,876.214,62.9291,0.00443781,234.786,-0.0123536,-0.00415118,0.501463,-0.221835,-0.277822,0.417582,-1.65156e-05,-5.4581e-06,0.552962,0.6511351152158826,0.5182858982378007,-1.6515463618249626e-05,-0.1989524737271655,-5.45808510454826e-06,-0.24256836765362677
759,0.7471,876.381,62.9303,0.00947718,234.832,-0.0157888,-0.00156885,0.501979,-0.222063,-0.278108,0.418011,-1.65968e-05,-5.43128e-06,0.553534,0.6519873207854621,0.5189373826215533,-1.6596662273826723e-05,-0.19913509174391075,-5.43126525065496e-06,-0.242784962125992
760,0.7481,876.553,62.9529,0.0046769,234.877,-0.0125262,-0.00402118,0.502493,-0.222292,-0.278394,0.41844,-1.65735e-05,-5.46775e-06,0.554105,0.6528366605299609,0.5195891465520652,-1.6573362660254887e-05,-0.19931846881042592,-5.467735051833955e-06,-0.24300149466119536
761,0.7491,876.72,62.9552,0.00919901,234.923,-0.0156084,-0.00170389,0.503008,-0.22252,-0.27868,0.418869,-1.66491e-05,-5.44428e-06,0.554676,0.6536880906345675,0.5202411901492874,-1.6648961404519547e-05,-0.19950100338980437,-5.444265179899155e-06,-0.24321796527694872
762,0.7501,876.891,62.9766,0.00489297,234.968,-0.0126831,-0.00390304,0.503522,-0.222748,-0.278966,0.419298,-1.6631e-05,-5.47755e-06,0.555247,0.6545383047994753,0.5208935135332229,-1.6630861705668742e-05,-0.19968349635604277,-5.4775349982438826e-06,-0.24343437399095824
763,0.7511,877.058,62.9799,0.00894334,235.013,-0.0154434,-0.00182744,0.504036,-0.222976,-0.279251,0.419726,-1.67016e-05,-5.45712e-06,0.555817,0.6553889560867949,0.5215445952785696,-1.670146052901167e-05,-0.19986594771862787,-5.457105109907268e-06,-0.2436499644712682
764,0.7521,877.229,63.0004,0.00508756,235.058,-0.0128252,-0.00379597,0.504549,-0.223204,-0.279536,0.420154,-1.66882e-05,-5.48749e-06,0.556387,0.6562383884820482,0.5221959557465456,-1.668806075272311e-05,-0.2000483574870442,-5.487474943777215e-06,-0.243865493517046
765,0.7531,877.395,63.0045,0.00870864,235.104,-0.0152928,-0.00194027,0.505062,-0.223432,-0.279821,0.420582,-1.67542e-05,-5.46984e-06,0.556957,0.6570882567479113,0.5228475950564699,-1.6754059649182196e-05,-0.20023072567077416,-5.469825040460563e-06,-0.24408096114579803
766,0.7541,877.565,63.0241,0.00526219,235.149,-0.0129538,-0.0036992,0.505575,-0.22366,-0.280106,0.421009,-1.67451e-05,-5.49757e-06,0.557527,0.6579385611080435,0.5234979898289609,-1.6744959801640036e-05,-0.20041305227929807,-5.497554888433953e-06,-0.2442963673750258
767,0.7551,877.732,63.029,0.00849342,235.194,-0.0151555,-0.00204316,0.506088,-0.223887,-0.280391,0.421437,-1.68068e-05,-5.48243e-06,0.558096,0.6587893017862185,0.5241501865287455,-1.6806658766577165e-05,-0.2005945379170314,-5.482414971558214e-06,-0.24451171222222556
768,0.7561,877.901,63.0477,0.0054183,235.239,-0.0130696,-0.00361197,0.5066,-0.224115,-0.280676,0.421864,-1.68016e-05,-5.50777e-06,0.558665,0.6596388193666758,0.524801137626562,-1.6801458853854534e-05,-0.2007767815858187,-5.5077548322124414e-06,-0.24472699570488876
769,0.7571,878.067,63.0534,0.00829625,235.284,-0.0150306,-0.00213683,0.507113,-0.224342,-0.28096,0.422291,-1.68596e-05,-5.49491e-06,0.559233,0.6604904325011034,0.5254523667398494,-1.6859457877771433e-05,-0.20095818466637005,-5.49489490297983e-06,-0.24494146278234208
770,0.7581,878.235,63.0714,0.00555729,235.328,-0.0131738,-0.00353358,0.507624,-0.224569,-0.281245,0.422717,-1.68579e-05,-5.51808e-06,0.559801,0.6613391599435043,0.5261023478842346,-1.685775790638555e-05,-0.20113954657309563,-5.51806477544492e-06,-0.2451566238035472
771,0.7591,878.401,63.0777,0.00811577,235.373,-0.0149171,-0.002222,0.508136,-0.224796,-0.281529,0.423144,-1.69124e-05,-5.50728e-06,0.560369,0.6621899833856102,0.5267541327329432,-1.6912256986190144e-05,-0.2013208673153406,-5.507264834947456e-06,-0.24537096888394483
772,0.7601,878.569,63.095,0.0056805,235.418,-0.0132672,-0.00346332,0.508647,-0.225023,-0.281813,0.42357,-1.69139e-05,-5.52849e-06,0.560937,0.6630395795204453,0.527404668547778,-1.6913756960779125e-05,-0.2015021469024485,-5.528474717908516e-06,-0.24558525309898305
773,0.7611,878.735,63.1019,0.00795068,235.462,-0.0148142,-0.00229933,0.509158,-0.22525,-0.282097,0.423996,-1.69653e-05,-5.51955e-06,0.561504,0.6638896099098481,0.5280554815499063,-1.6965156090065214e-05,-0.2016833853437603,-5.519534767350898e-06,-0.2457994764659449
774,0.7621,878.902,63.1185,0.00578919,235.507,-0.0133507,-0.00340056,0.509669,-0.225476,-0.28238,0.424421,-1.69696e-05,-5.53901e-06,0.562071,0.6647400747757792,0.5287050431516283,-1.6969456017146278e-05,-0.20186378451279863,-5.53899465971508e-06,-0.2460128850153711
775,0.7631,879.067,63.1261,0.00779974,235.552,-0.0147209,-0.00236945,0.510179,-0.225703,-0.282664,0.424847,-1.70182e-05,-5.53174e-06,0.562637,0.6655893087501712,0.5293564102313482,-1.701805519127575e-05,-0.20204494087168967,-5.5317246999697645e-06,-0.24622698695211265
776,0.7641,879.234,63.1421,0.00588456,235.596,-0.0134252,-0.00334467,0.510689,-0.225929,-0.282947,0.425272,-1.7025e-05,-5.54961e-06,0.563203,0.6664389759443516,0.5300065248452663,-1.702485507548701e-05,-0.20222525833841143,-5.549594600973151e-06,-0.24644027453318895
777,0.7651,879.399,63.1501,0.00766178,235.64,-0.0146366,-0.00243297,0.511199,-0.226155,-0.28323,0.425697,-1.70711e-05,-5.54384e-06,0.563769,0.6672890765793191,0.5306569158166174,-1.7070954289599705e-05,-0.2024055350579903,-5.5438246329142515e-06,-0.24665350176241996
778,0.7661,879.565,63.1656,0.00596774,235.685,-0.0134913,-0.00329508,0.511708,-0.226381,-0.283513,0.426121,-1.70802e-05,-5.56029e-06,0.564335,0.6681379427374083,0.5313060519560602,-1.7080054134255285e-05,-0.20258577103963415,-5.560274541571708e-06,-0.246866668656883
779,0.7671,879.729,63.174,0.00753571,235.729,-0.0145603,-0.00249046,0.512217,-0.226608,-0.283796,0.426546,-1.7124e-05,-5.55587e-06,0.5649,0.6689872410783531,0.5319569953438135,-1.7123853385148102e-05,-0.20276676352618372,-5.555854566186014e-06,-0.2470797752336502
780,0.7681,879.895,63.189,0.00603981,235.773,-0.0135499,-0.00325123,0.512726,-0.226833,-0.284079,0.42697,-1.71352e-05,-5.57105e-06,0.565465,0.6698369718221904,0.5326066828338538,-1.7135053193340077e-05,-0.20294612082593744,-5.571034481732795e-06,-0.24729282150978915
781,0.7691,880.059,63.1978,0.00742048,235.817,-0.0144916,-0.00254243,0.513235,-0.227059,-0.284361,0.427394,-1.7177e-05,-5.56783e-06,0.56603,0.6706871351890697,0.5332566458497976,-1.717685247615286e-05,-0.20312623464900215,-5.567814499674029e-06,-0.24750505500779363
782,0.7701,880.224,63.2124,0.00610175,235.861,-0.0136016,-0.00321262,0.513743,-0.227285,-0.284644,0.427818,-1.719e-05,-5.58187e-06,0.566594,0.6715360598623563,0.533906884508492,-1.718985225274139e-05,-0.20330630777094216,-5.581854421343735e-06,-0.247717980946785
783,0.7711,880.388,63.2216,0.00731513,235.905,-0.0144295,-0.00258939,0.514251,-0.22751,-0.284926,0.428241,-1.72299e-05,-5.57973e-06,0.567158,0.672385415898934,0.5345558643702031,-1.7229751566150142e-05,-0.20348554368689709,-5.579714433379124e-06,-0.24793009456673187
784,0.7721,880.553,63.2358,0.0061545,235.949,-0.0136471,-0.00317876,0.514759,-0.227736,-0.285208,0.428664,-1.72446e-05,-5.59276e-06,0.567722,0.6732352035179909,0.5352051188084646,-1.7244451312792286e-05,-0.2036655356141699,-5.592744360516377e-06,-0.24814214837907134
785,0.7731,880.716,63.2452,0.00721876,235.993,-0.0143737,-0.0026318,0.515266,-0.227961,-0.28549,0.429087,-1.72829e-05,-5.59157e-06,0.568285,0.6740837488542408,0.5358546479394468,-1.7282750651492762e-05,-0.2038446907129523,-5.591554367190277e-06,-0.24835414240066644
786,0.7741,880.88,63.2591,0.00619893,236.037,-0.013687,-0.00314921,0.515774,-0.228186,-0.285772,0.42951,-1.7299e-05,-5.6037e-06,0.568848,0.6749343994456154,0.5365044518793693,-1.7298850373159702e-05,-0.204023805506372,-5.603684299249068e-06,-0.24856607664837604
787,0.7751,881.043,63.2688,0.00713053,236.081,-0.0143234,-0.0026701,0.516281,-0.228411,-0.286053,0.429933,-1.73358e-05,-5.60337e-06,0.569411,0.6757838064926258,0.5371545307445011,-1.733564973593893e-05,-0.20420288000349673,-5.6033543011091425e-06,-0.2487771999166295
788,0.7761,881.207,63.2824,0.00623584,236.125,-0.0137217,-0.00312356,0.516787,-0.228636,-0.286335,0.430355,-1.73532e-05,-5.6147e-06,0.569973,0.6766319676653911,0.5378033468470442,-1.735304943406568e-05,-0.20438191421339202,-5.6146842376536554e-06,-0.24898901487893954
789,0.7771,881.369,63.2923,0.00704967,236.168,-0.0142782,-0.00270467,0.517293,-0.22886,-0.286616,0.430777,-1.73887e-05,-5.61512e-06,0.570535,0.6774805581163081,0.5384524368077628,-1.7388548817387495e-05,-0.2045601127056319,-5.615104235245916e-06,-0.24920001931824642
790,0.7781,881.532,63.3056,0.00626598,236.212,-0.0137519,-0.00310142,0.517799,-0.229085,-0.286897,0.431199,-1.74072e-05,-5.62574e-06,0.571097,0.6783295780626466,0.539101800742249,-1.7407048495621247e-05,-0.20473906654721108,-5.625724175506441e-06,-0.24941096447363564
791,0.7791,881.695,63.3157,0.00697546,236.255,-0.0142375,-0.0027359,0.518305,-0.229309,-0.287178,0.43162,-1.74415e-05,-5.62683e-06,0.571658,0.6791790277217857,0.5397498990154757,-1.7441347897939607e-05,-0.20491718504628775,-5.626814169379379e-06,-0.24962185036176365
792,0.7801,881.857,63.3288,0.00629004,236.299,-0.013778,-0.00308245,0.518811,-0.229534,-0.287459,0.432042,-1.7461e-05,-5.63682e-06,0.572219,0.6800289073112158,0.5403998105945584,-1.7460847557604353e-05,-0.20509605855562796,-5.636804113140492e-06,-0.24983267699928213
793,0.7811,882.019,63.3391,0.00690723,236.342,-0.014201,-0.0027641,0.519316,-0.229758,-0.287739,0.432463,-1.74943e-05,-5.6385e-06,0.57278,0.6808775361701598,0.541048455444979,-1.749414697560514e-05,-0.20527409709745037,-5.638484103731578e-06,-0.25004269444590776
794,0.7821,882.181,63.352,0.00630863,236.386,-0.0138004,-0.00306632,0.519821,-0.229982,-0.28802,0.432884,-1.75147e-05,-5.64794e-06,0.573341,0.6817265936949064,0.5416973734323733,-1.7514546618579985e-05,-0.20545209576310575,-5.647924050444786e-06,-0.25025340284285214
795,0.7831,882.342,63.3624,0.00684439,236.429,-0.0141681,-0.0027896,0.520325,-0.230206,-0.2883,0.433304,-1.75471e-05,-5.65014e-06,0.573901,0.682574397526748,0.542345022325962,-1.7546946050495116e-05,-0.20563005456152528,-5.650124037970272e-06,-0.2504633025027324
796,0.7841,882.504,63.375,0.00632235,236.472,-0.0138195,-0.00305274,0.52083,-0.23043,-0.28858,0.433725,-1.75682e-05,-5.65909e-06,0.574461,0.6834243121828874,0.5429944862829317,-1.756804568009418e-05,-0.20580797350163826,-5.659073987418495e-06,-0.2506731433989352
797,0.7851,882.665,63.3856,0.00678638,236.515,-0.0141386,-0.00281268,0.521334,-0.230654,-0.28886,0.434145,-1.75998e-05,-5.66175e-06,0.57502,0.6842729718805067,0.5436426800783389,-1.7599645124377616e-05,-0.2059858525923719,-5.661733972317506e-06,-0.25088292554791214
798,0.7861,882.826,63.3981,0.00633172,236.559,-0.0138358,-0.00304143,0.521838,-0.230877,-0.28914,0.434565,-1.76216e-05,-5.67027e-06,0.57558,0.6851220594104186,0.5442911461723192,-1.7621444740489878e-05,-0.20616289800594656,-5.670253924061619e-06,-0.25109264896610994
799,0.7871,882.987,63.4087,0.0067327,236.602,-0.0141121,-0.0028336,0.522341,-0.231101,-0.28942,0.434984,-1.76525e-05,-5.67334e-06,0.576139,0.6859698890175727,0.5449383397401493,-1.765234419548456e-05,-0.20634069760249496,-5.673323906663086e-06,-0.25130231366997113
800,0.7881,883.148,63.421,0.00633722,236.645,-0.0138494,-0.00303214,0.522844,-0.231324,-0.289699,0.435404,-1.76749e-05,-5.68148e-06,0.576697,0.686818145190291,0.5455873501254807,-1.76747437998781e-05,-0.2065176638944547,-5.6814638603741585e-06,-0.2515111711874787
801,0.7891,883.308,63.4318,0.00668288,236.688,-0.0140882,-0.00285259,0.523347,-0.231547,-0.289979,0.435823,-1.77051e-05,-5.6849e-06,0.577256,0.6876668281431908,0.5462350869165646,-1.770494326569505e-05,-0.2066945907273311,-5.684883841006183e-06,-0.25172071872152235
802,0.7901,883.468,63.444,0.00633928,236.73,-0.0138607,-0.00302467,0.52385,-0.23177,-0.290258,0.436242,-1.7728e-05,-5.69271e-06,0.577814,0.688515938090996,0.5468830951662305,-1.772784285991591e-05,-0.2068714781099228,-5.6926937965773305e-06,-0.25192945952030354
803,0.7911,883.628,63.4547,0.00663652,236.773,-0.0140668,-0.00286987,0.524352,-0.231993,-0.290537,0.436661,-1.77577e-05,-5.69645e-06,0.578371,0.6893637858839086,0.5475313749882436,-1.775754233301896e-05,-0.20704832605102597,-5.6964337752374306e-06,-0.2521381420885255
804,0.7921,883.788,63.4668,0.00633831,236.816,-0.0138701,-0.0030188,0.524854,-0.232216,-0.290816,0.437079,-1.7781e-05,-5.70397e-06,0.578929,0.6902120594032617,0.5481783783172638,-1.7780841918946244e-05,-0.20722513455943514,-5.703953732338896e-06,-0.25234676644243215
805,0.7931,883.947,63.4777,0.00659322,236.859,-0.0140474,-0.00288563,0.525356,-0.232439,-0.291095,0.437498,-1.78101e-05,-5.70797e-06,0.579486,0.6910607588628235,0.5488272009766335,-1.780994140110348e-05,-0.20740190364394295,-5.707953709577218e-06,-0.252555332598263
806,0.7941,884.106,63.4896,0.00633466,236.902,-0.0138776,-0.00301435,0.525858,-0.232661,-0.291373,0.437916,-1.78338e-05,-5.71524e-06,0.580042,0.6919098844764697,0.5494747460741387,-1.7833640978737186e-05,-0.20757784089157694,-5.715223668101288e-06,-0.2527630933357201
807,0.7951,884.265,63.5005,0.00655265,236.944,-0.01403,-0.00290005,0.526359,-0.232884,-0.291652,0.438334,-1.78625e-05,-5.71948e-06,0.580599,0.6927577436995933,0.5501225619020733,-1.7862340466523463e-05,-0.2077545313313418,-5.719463643805156e-06,-0.25297154335255
808,0.7961,884.424,63.5124,0.00632865,236.987,-0.0138836,-0.00301115,0.52686,-0.233106,-0.29193,0.438751,-1.78865e-05,-5.72653e-06,0.581155,0.6936060278066123,0.5507690978037532,-1.7886340037520654e-05,-0.20793039030431804,-5.726513603421246e-06,-0.25317918839949916
809,0.7971,884.583,63.5233,0.00651451,237.029,-0.0140143,-0.00291328,0.52736,-0.233328,-0.292208,0.439168,-1.79149e-05,-5.73098e-06,0.581711,0.6944530425565569,0.5514159033671246,-1.791473952916789e-05,-0.20810621024093545,-5.730963577921244e-06,-0.25338677572914836
810,0.7981,884.741,63.5351,0.00632057,237.072,-0.0138883,-0.00300906,0.527861,-0.23355,-0.292486,0.439586,-1.79391e-05,-5.73784e-06,0.582266,0.6953021762210996,0.5520645307684147,-1.7938939095296647e-05,-0.20828199114985912,-5.737823538631837e-06,-0.2535943053575407
811,0.7991,884.899,63.546,0.00647852,237.114,-0.0140001,-0.00292546,0.528361,-0.233772,-0.292764,0.440002,-1.79671e-05,-5.74247e-06,0.582822,0.6961500392573055,0.5527103239288784,-1.7966938592572923e-05,-0.20845773303975235,-5.742453512036505e-06,-0.25380177730071507
812,0.8001,885.058,63.5577,0.00631068,237.156,-0.0138918,-0.00300795,0.528861,-0.233994,-0.293042,0.440419,-1.79916e-05,-5.74916e-06,0.583377,0.69699832633103,0.5533579391523464,-1.7991438152176187e-05,-0.2086334359192762,-5.74914347362121e-06,-0.2540091915747056
813,0.8011,885.215,63.5687,0.00644443,237.199,-0.0139872,-0.00293672,0.52936,-0.234216,-0.293319,0.440836,-1.80193e-05,-5.75394e-06,0.583931,0.6978453398081561,0.5540058244876771,-1.8019137653424444e-05,-0.20880909979709028,-5.753923446150111e-06,-0.25421580241171726
814,0.8021,885.373,63.5803,0.00629921,237.241,-0.0138942,-0.0030077,0.52986,-0.234438,-0.293597,0.441252,-1.8044e-05,-5.7605e-06,0.584485,0.6986944747441037,0.5546524253943277,-1.8043837208048252e-05,-0.2089847246818518,-5.7604834083901935e-06,-0.2544231016027242
815,0.8031,885.53,63.5913,0.00641202,237.283,-0.0139755,-0.00294718,0.530359,-0.234659,-0.293874,0.441668,-1.80714e-05,-5.76541e-06,0.585039,0.6995423348104945,0.5552992953429123,-1.807123671326849e-05,-0.20915951974213154,-5.765393380041672e-06,-0.25462959780253624
816,0.8041,885.688,63.6028,0.00628637,237.325,-0.0138958,-0.00300819,0.530858,-0.23488,-0.294151,0.442083,-1.80963e-05,-5.77184e-06,0.585593,0.7003906180646349,0.5559448784997192,-1.8096136262912843e-05,-0.2093342761769712,-5.771823342937132e-06,-0.25483603681082234
817,0.8051,885.844,63.6138,0.00638109,237.367,-0.0139649,-0.00295693,0.531356,-0.235102,-0.294428,0.442499,-1.81235e-05,-5.77687e-06,0.586147,0.7012376234792743,0.5565922862206445,-1.812333577033698e-05,-0.20950978448551683,-5.776853313932406e-06,-0.25504241864342225
818,0.8061,886.001,63.6253,0.00627235,237.409,-0.0138967,-0.00300935,0.531854,-0.235323,-0.294705,0.442914,-1.81485e-05,-5.7832e-06,0.5867,0.7020850508076579,0.5572384060800237,-1.8148335316992004e-05,-0.20968446352040127,-5.783183277374704e-06,-0.25524874331617164
819,0.8071,886.158,63.6363,0.00635148,237.451,-0.0139553,-0.00296606,0.532352,-0.235544,-0.294981,0.443329,-1.81754e-05,-5.78833e-06,0.587252,0.7029329002599514,0.5578847941347913,-1.817523482838812e-05,-0.20985910395548435,-5.788313247601096e-06,-0.25545426629953993
820,0.8081,886.314,63.6477,0.0062573,237.493,-0.0138969,-0.00301108,0.53285,-0.235765,-0.295258,0.443744,-1.82005e-05,-5.79456e-06,0.587805,0.7037811720464244,0.5585314504962715,-1.8200334371942795e-05,-0.2100337057992958,-5.794543211590231e-06,-0.25566047690628746
821,0.8091,886.47,63.6587,0.00632301,237.535,-0.0139465,-0.00297465,0.533347,-0.235985,-0.295534,0.444159,-1.82273e-05,-5.79978e-06,0.588357,0.7046281617484378,0.5591783752758344,-1.8227133883774727e-05,-0.21020747926823746,-5.799763181268958e-06,-0.2558658862668657
822,0.8101,886.626,63.6701,0.00624138,237.577,-0.0138966,-0.00301331,0.533844,-0.236206,-0.29581,0.444573,-1.82525e-05,-5.80593e-06,0.588909,0.7054755725089574,0.5598240087601083,-1.8252333424118028e-05,-0.21038200412961172,-5.80591314558454e-06,-0.25607123894228323
823,0.8111,886.782,63.6811,0.00629557,237.618,-0.0139384,-0.00298278,0.534341,-0.236427,-0.296086,0.444987,-1.82791e-05,-5.81122e-06,0.58946,0.7063234045373017,0.5604699095919818,-1.827893293826488e-05,-0.21055649042525315,-5.811203114935992e-06,-0.25627653494818303
824,0.8121,886.938,63.6924,0.0062247,237.66,-0.0138958,-0.00301597,0.534837,-0.236647,-0.296362,0.445401,-1.83044e-05,-5.81731e-06,0.590012,0.7071699508720879,0.5611160778821596,-1.830423247550783e-05,-0.2107301488942276,-5.817293079468655e-06,-0.2564817743002039
825,0.8131,887.093,63.7034,0.00626903,237.702,-0.013931,-0.0029905,0.535334,-0.236867,-0.296638,0.445815,-1.83308e-05,-5.82267e-06,0.590563,0.7080186252157765,0.5617625137413926,-1.833063199185858e-05,-0.21090376916254117,-5.822653048270787e-06,-0.25668695701398014
826,0.8141,887.248,63.7146,0.00620739,237.743,-0.0138947,-0.00301902,0.53583,-0.237087,-0.296913,0.446228,-1.83561e-05,-5.82869e-06,0.591113,0.7088660125885795,0.5624076548720414,-1.8355931527880287e-05,-0.21107735123859683,-5.8286730132417475e-06,-0.256891339996853
827,0.8151,887.403,63.7256,0.00624327,237.785,-0.0139242,-0.00299788,0.536325,-0.237307,-0.297189,0.446641,-1.83825e-05,-5.83411e-06,0.591664,0.7097121106568065,0.5630530625010051,-1.838233104289877e-05,-0.2112508951307963,-5.834092981604755e-06,-0.25709640968609504
828,0.8161,887.558,63.7368,0.00618953,237.826,-0.0138933,-0.00302239,0.536821,-0.237527,-0.297464,0.447054,-1.84078e-05,-5.84009e-06,0.592214,0.7105603382067347,0.5636987367383701,-1.8407630577477185e-05,-0.21142440084753888,-5.840072946683428e-06,-0.2573006800849642
829,0.8171,887.712,63.7478,0.00621822,237.868,-0.013918,-0.00300495,0.537316,-0.237747,-0.297739,0.447467,-1.8434e-05,-5.84554e-06,0.592763,0.711407275173753,0.5643446776942691,-1.8433830094810588e-05,-0.21159786839722228,-5.845522914826873e-06,-0.2575048943171969
830,0.8181,887.867,63.7589,0.00617123,237.909,-0.0138916,-0.00302605,0.537811,-0.237967,-0.298014,0.447879,-1.84594e-05,-5.85148e-06,0.593313,0.7122546314783476,0.5649893204887761,-1.8459229626288653e-05,-0.21177129778824244,-5.851462880124281e-06,-0.25770905239823694
831,0.8191,888.021,63.7699,0.00619377,237.95,-0.0139122,-0.00301175,0.538306,-0.238186,-0.298289,0.448292,-1.84855e-05,-5.85698e-06,0.593862,0.7131024073281416,0.5656357945658459,-1.8485329144168894e-05,-0.2119439009732882,-5.856962847938796e-06,-0.2579131543435237
832,0.8201,888.175,63.781,0.00615254,237.992,-0.0138898,-0.00302995,0.5388,-0.238406,-0.298563,0.448704,-1.85109e-05,-5.86288e-06,0.594411,0.7139488889811156,0.5662809694100988,-1.851072867431469e-05,-0.21211725424551486,-5.8628628133439165e-06,-0.2581164582853216
833,0.8211,888.328,63.792,0.00616988,238.033,-0.0139069,-0.00301834,0.539294,-0.238625,-0.298838,0.449116,-1.85369e-05,-5.86841e-06,0.594959,0.7147957888993293,0.5669264101211522,-1.853672819274177e-05,-0.21228978167439216,-5.868392780938869e-06,-0.2583204482093929
834,0.8221,888.482,63.803,0.00613355,238.074,-0.0138878,-0.00303406,0.539788,-0.238844,-0.299112,0.449527,-1.85623e-05,-5.87429e-06,0.595507,0.7156431072894567,0.5675705492372329,-1.85621277215553e-05,-0.2124622713238994,-5.874272746342335e-06,-0.2585236405679592
835,0.8231,888.635,63.814,0.00614646,238.115,-0.0139019,-0.00302473,0.540281,-0.239063,-0.299386,0.449939,-1.85882e-05,-5.87985e-06,0.596055,0.7164891278682877,0.5682165213646393,-1.8588027240529215e-05,-0.21263472320230958,-5.879832713717725e-06,-0.25872677725944593
836,0.8241,888.788,63.825,0.00611429,238.156,-0.0138857,-0.00303836,0.540775,-0.239282,-0.29966,0.45035,-1.86136e-05,-5.8857e-06,0.596603,0.7173372829745175,0.5688611908254195,-1.8613426768010477e-05,-0.21280713731789347,-5.8856826793407535e-06,-0.25892985829910387
837,0.8251,888.941,63.8359,0.00612346,238.197,-0.0138974,-0.00303097,0.541268,-0.239501,-0.299934,0.450761,-1.86394e-05,-5.89128e-06,0.59715,0.7181841389878787,0.5695061252998048,-1.8639226287420207e-05,-0.21297951367892043,-5.891262646495754e-06,-0.2591328837021796
838,0.8261,889.094,63.8469,0.00609484,238.238,-0.0138836,-0.00304282,0.54176,-0.23972,-0.300208,0.451172,-1.86648e-05,-5.89711e-06,0.597697,0.7190296935736324,0.5701513248967378,-1.8664625813680225e-05,-0.21315185229365763,-5.8970926121171274e-06,-0.2593358534839152
839,0.8271,889.247,63.8578,0.00610085,238.279,-0.0138931,-0.00303706,0.542253,-0.239938,-0.300481,0.451582,-1.86906e-05,-5.90272e-06,0.598244,0.7198773841511223,0.5707952189292023,-1.869042533186871e-05,-0.21332336649413053,-5.902702578941543e-06,-0.2595380271979465
840,0.8281,889.399,63.8688,0.00607522,238.32,-0.0138814,-0.00304741,0.542745,-0.240157,-0.300755,0.451992,-1.8716e-05,-5.90853e-06,0.59879,0.7207237720184669,0.5714393770123467,-1.871582485679646e-05,-0.21349562981334635,-5.908512544672284e-06,-0.2597408859855712
841,0.8291,889.551,63.8796,0.00607857,238.36,-0.0138892,-0.00304303,0.543237,-0.240375,-0.301028,0.452402,-1.87417e-05,-5.91415e-06,0.599337,0.7215705764110987,0.5720837992544541,-1.874152437542076e-05,-0.2136670690784881,-5.914132511497527e-06,-0.2599429491408215
842,0.8301,889.703,63.8906,0.00605548,238.401,-0.0138792,-0.00305212,0.543729,-0.240593,-0.301301,0.452812,-1.8767e-05,-5.91995e-06,0.599882,0.7224177975339992,0.5727284857638519,-1.876682390100637e-05,-0.2138384709739436,-5.9199324771164186e-06,-0.26014495714035946
843,0.8311,889.855,63.9014,0.00605659,238.442,-0.0138855,-0.00304891,0.54422,-0.240811,-0.301574,0.453222,-1.87926e-05,-5.92559e-06,0.600428,0.7232637123276757,0.5733734366489118,-1.8792423420177506e-05,-0.21400983550785846,-5.925572443721272e-06,-0.2603469099992407
844,0.8321,890.006,63.9123,0.00603565,238.482,-0.013877,-0.00305693,0.544711,-0.241029,-0.301847,0.453631,-1.8818e-05,-5.93137e-06,0.600973,0.7241100425674993,0.5740170780001852,-1.8817822942551743e-05,-0.2141811626883765,-5.931352409449531e-06,-0.2605488077325163
845,0.8331,890.158,63.9231,0.00603488,238.523,-0.0138821,-0.0030547,0.545202,-0.241247,-0.30212,0.45404,-1.88436e-05,-5.93703e-06,0.601518,0.724956788457505,0.574660982654613,-1.8843422460501635e-05,-0.2143524525236401,-5.937012375833994e-06,-0.2607506503552337
846,0.8341,890.309,63.934,0.00601576,238.563,-0.0138749,-0.00306183,0.545693,-0.241465,-0.302392,0.454449,-1.88689e-05,-5.9428e-06,0.602063,0.7258039502018263,0.5753051507199083,-1.886872198342271e-05,-0.2145237050217894,-5.942782341561426e-06,-0.2609516988345044
847,0.8351,890.46,63.9448,0.00601341,238.604,-0.013879,-0.00306043,0.546183,-0.241682,-0.302665,0.454858,-1.88944e-05,-5.94847e-06,0.602607,0.7266498013540335,0.5759495823038281,-1.889422150191944e-05,-0.21469413488549072,-5.948452307835694e-06,-0.2611534314829632
848,0.8361,890.611,63.9556,0.00599582,238.644,-0.0138728,-0.0030668,0.546673,-0.2419,-0.302937,0.455266,-1.89197e-05,-5.95423e-06,0.603151,0.727496067074866,0.5765927009206846,-1.8919521023619268e-05,-0.21486531290500355,-5.954212273562298e-06,-0.26135437042066545
849,0.8371,890.761,63.9664,0.00599217,238.685,-0.0138761,-0.0030661,0.547163,-0.242117,-0.303209,0.455675,-1.89451e-05,-5.9599e-06,0.603695,0.7283427475675128,0.5772376592203428,-1.8944920542773858e-05,-0.21503566864783663,-5.959882239836567e-06,-0.2615552547104091
850,0.8381,890.912,63.9772,0.00597586,238.725,-0.0138708,-0.00307184,0.547652,-0.242335,-0.303481,0.456083,-1.89704e-05,-5.96566e-06,0.604238,0.7291881138462832,0.5778813034798049,-1.897022006314142e-05,-0.2152067722211043,-5.9656422054521485e-06,-0.26175608436705633
851,0.8391,891.062,63.9879,0.00597112,238.765,-0.0138734,-0.00307172,0.548141,-0.242552,-0.303753,0.456491,-1.89958e-05,-5.97135e-06,0.604782,0.7300338936102526,0.5785252103997041,-1.899561958096374e-05,-0.2153770538753046,-5.9713321715060275e-06,-0.2619568594054654
852,0.8401,891.212,63.9987,0.0059559,238.805,-0.0138689,-0.00307694,0.54863,-0.242769,-0.304024,0.456898,-1.90211e-05,-5.9771e-06,0.605324,0.730880087061665,0.579167800918637,-1.9020919099999034e-05,-0.21554729858239485,-5.977082137120782e-06,-0.2621568419977014
853,0.8411,891.362,64.0094,0.00595026,238.846,-0.0138709,-0.0030773,0.549119,-0.242986,-0.304296,0.457305,-1.90464e-05,-5.98279e-06,0.605867,0.7317266944028629,0.5798106530251406,-1.9046218618479216e-05,-0.21571750635039177,-5.9827721031746606e-06,-0.26235750804485847
854,0.8421,891.512,64.0202,0.00593596,238.886,-0.0138671,-0.00308208,0.549608,-0.243202,-0.304567,0.457713,-1.90717e-05,-5.98854e-06,0.606409,0.7325737158362879,0.5804553472802596,-1.9071518136293264e-05,-0.2158868930745953,-5.9885220686783924e-06,-0.26255738207602386
855,0.8431,891.661,64.0309,0.00592957,238.926,-0.0138686,-0.00308285,0.550096,-0.243419,-0.304838,0.45812,-1.9097e-05,-5.99423e-06,0.606951,0.733419418144196,0.5810987235247873,-1.9096817653441178e-05,-0.21605702715858244,-5.994212034621249e-06,-0.2627572019486656
856,0.8441,891.81,64.0416,0.00591603,238.966,-0.0138653,-0.00308727,0.550584,-0.243636,-0.305109,0.458526,-1.91222e-05,-5.99998e-06,0.607493,0.7342655332555461,0.5817407799351701,-1.9122017171913086e-05,-0.2162271243274787,-5.999962000124981e-06,-0.2629569676774587
857,0.8451,891.96,64.0523,0.00590903,239.006,-0.0138665,-0.00308838,0.551071,-0.243852,-0.30538,0.458933,-1.91474e-05,-6.00568e-06,0.608034,0.7351103262606418,0.582384679457268,-1.914721668971886e-05,-0.2163964009860867,-6.005661965957643e-06,-0.2631566792770741
858,0.8461,892.108,64.063,0.00589615,239.046,-0.0138637,-0.0030925,0.551559,-0.244068,-0.305651,0.459339,-1.91726e-05,-6.01142e-06,0.608575,0.7359572667365253,0.5830272580717597,-1.91724162068585e-05,-0.21656564108488496,-6.011401931460547e-06,-0.26335633676217884
859,0.8471,892.257,64.0736,0.00588864,239.085,-0.0138646,-0.00309389,0.552046,-0.244285,-0.305922,0.459745,-1.91978e-05,-6.01713e-06,0.609116,0.7368028838164722,0.5836700976261362,-1.919761572344303e-05,-0.21673562789653344,-6.017111897071992e-06,-0.263555940147436
860,0.8481,892.406,64.0843,0.0058763,239.125,-0.0138622,-0.00309776,0.552533,-0.244501,-0.306192,0.460151,-1.92229e-05,-6.02287e-06,0.609657,0.7376489128122303,0.5843131982263603,-1.922271524124053e-05,-0.21690479473023205,-6.022851862574896e-06,-0.263754753202626
861,0.8491,892.554,64.0949,0.00586839,239.165,-0.0138629,-0.00309939,0.553019,-0.244717,-0.306462,0.460557,-1.92481e-05,-6.02858e-06,0.610197,0.7384936154299668,0.5849565599784385,-1.924791475649279e-05,-0.21707392502784062,-6.028561828186341e-06,-0.2639535125855371
862,0.8501,892.702,64.1055,0.00585651,239.205,-0.0138609,-0.00310305,0.553506,-0.244933,-0.306733,0.460962,-1.92732e-05,-6.03432e-06,0.610737,0.7393404680125477,0.5855985973890296,-1.9273014273069045e-05,-0.21724301879725005,-6.034301793578223e-06,-0.2641529541580727
863,0.8511,892.85,64.1161,0.00584826,239.244,-0.0138613,-0.00310488,0.553992,-0.245148,-0.307003,0.461367,-1.92983e-05,-6.04003e-06,0.611277,0.7401859929259134,0.5862408948774342,-1.9298113788979165e-05,-0.21741129345803445,-6.040011759078645e-06,-0.264351606041239
864,0.8521,892.998,64.1267,0.00583677,239.284,-0.0138596,-0.00310837,0.554478,-0.245364,-0.307273,0.461772,-1.93234e-05,-6.04577e-06,0.611816,0.7410319288642577,0.5868834525490052,-1.9323213304334175e-05,-0.21758031436373249,-6.045751724359505e-06,-0.264550204295637
865,0.8531,893.146,64.1373,0.00582826,239.323,-0.0138599,-0.00311036,0.554963,-0.245579,-0.307542,0.462177,-1.93485e-05,-6.05149e-06,0.612355,0.7418765341499827,0.5875262705091377,-1.934831281902305e-05,-0.21774851651376526,-6.051471689749732e-06,-0.2647480136841259
866,0.8541,893.293,64.1479,0.00581709,239.363,-0.0138585,-0.00311372,0.555448,-0.245795,-0.307812,0.462581,-1.93735e-05,-6.05723e-06,0.612894,0.7427215491686234,0.588167760694716,-1.9373312334924897e-05,-0.21791746458714945,-6.057211655030592e-06,-0.26494650492290817
867,0.8551,893.44,64.1584,0.00580837,239.402,-0.0138588,-0.00311585,0.555933,-0.24601,-0.308081,0.462986,-1.93986e-05,-6.06295e-06,0.613432,0.7435669741189486,0.5888110989049913,-1.9398411848392527e-05,-0.21808559425767604,-6.062931620309797e-06,-0.26514420772086544
868,0.8561,893.587,64.169,0.00579748,239.442,-0.0138576,-0.00311909,0.556418,-0.246225,-0.308351,0.46339,-1.94236e-05,-6.06868e-06,0.61397,0.7444128091998232,0.5894531082661076,-1.942341136307313e-05,-0.21825368778420895,-6.06866158558983e-06,-0.26534259200169763
869,0.8571,893.734,64.1795,0.0057886,239.481,-0.0138577,-0.00312133,0.556903,-0.24644,-0.30862,0.463793,-1.94486e-05,-6.07441e-06,0.614508,0.7452590546102089,0.5900937869568241,-1.944841087719862e-05,-0.2184217451745185,-6.07439155075884e-06,-0.2655401882665601
870,0.8581,893.881,64.19,0.00577794,239.52,-0.0138567,-0.00312448,0.557387,-0.246655,-0.308889,0.464197,-1.94736e-05,-6.08015e-06,0.615046,0.7461039644443264,0.5907363146286051,-1.9473410390657975e-05,-0.21858976643637318,-6.080131515928677e-06,-0.26573773138517576
871,0.8591,894.027,64.2005,0.00576893,239.56,-0.0138569,-0.00312681,0.557871,-0.24687,-0.309158,0.464601,-1.94986e-05,-6.08587e-06,0.615583,0.7469492833137821,0.5913791019340078,-1.949840990356222e-05,-0.21875775157753952,-6.08585148109686e-06,-0.265935221371839
872,0.8601,894.174,64.211,0.00575848,239.599,-0.0138561,-0.00312989,0.558355,-0.247085,-0.309426,0.465004,-1.95235e-05,-6.09161e-06,0.61612,0.7477950114165972,0.5920205569565928,-1.9523309417679435e-05,-0.21892570060578287,-6.091591446155675e-06,-0.2661319243731318
873,0.8611,894.32,64.2215,0.00574936,239.638,-0.0138562,-0.0031323,0.558838,-0.247299,-0.309695,0.465407,-1.95484e-05,-6.09734e-06,0.616657,0.7486394003106136,0.5926622705376479,-1.954820893124154e-05,-0.21909283262208967,-6.097321411213663e-06,-0.2663293083361422
874,0.8621,894.466,64.2319,0.00573909,239.677,-0.0138556,-0.00313532,0.559321,-0.247514,-0.309963,0.46581,-1.95733e-05,-6.10308e-06,0.617194,0.7494841971429751,0.5933042427813933,-1.9573108444248533e-05,-0.21926070961565247,-6.103061376272478e-06,-0.26652590573627977
875,0.8631,894.612,64.2424,0.0057299,239.716,-0.0138557,-0.0031378,0.559804,-0.247728,-0.310232,0.466212,-1.95982e-05,-6.10881e-06,0.61773,0.7503294021107636,0.593944879846414,-1.959800795647837e-05,-0.21942776994770163,-6.108791341219444e-06,-0.26672318373255666
876,0.8641,894.757,64.2528,0.00571977,239.755,-0.0138552,-0.00314077,0.560287,-0.247942,-0.3105,0.466614,-1.96231e-05,-6.11455e-06,0.618266,0.7511750154111558,0.5945857744993064,-1.9622907468264117e-05,-0.21959479453266484,-6.114531306167237e-06,-0.2669196755882316
877,0.8651,894.903,64.2632,0.00571053,239.794,-0.0138553,-0.0031433,0.560769,-0.248157,-0.310768,0.467017,-1.9648e-05,-6.12028e-06,0.618801,0.7520192852212628,0.5952285220713665,-1.964780697927271e-05,-0.21976256361601754,-6.120261271114202e-06,-0.26711611479114494
878,0.8661,895.048,64.2736,0.00570054,239.833,-0.013855,-0.00314624,0.561251,-0.248371,-0.311036,0.467418,-1.96728e-05,-6.12602e-06,0.619337,0.7528639620675064,0.5958683369830333,-1.9672606491716316e-05,-0.21992951656280124,-6.126001235950973e-06,-0.26731250135540585
879,0.8671,895.193,64.284,0.00569126,239.872,-0.0138552,-0.00314882,0.561733,-0.248584,-0.311303,0.46782,-1.96977e-05,-6.13176e-06,0.619872,0.7537090461461247,0.5965100050211349,-1.9697506001614684e-05,-0.22009565388152086,-6.131741200787744e-06,-0.2675081028035887
880,0.8681,895.338,64.2944,0.00568138,239.911,-0.013855,-0.00315172,0.562215,-0.248798,-0.311571,0.468222,-1.97225e-05,-6.1375e-06,0.620406,0.7545545376534513,0.5971519310616427,-1.9722305512726024e-05,-0.22026253555461428,-6.137481165624514e-06,-0.2677043843291381
881,0.8691,895.483,64.3048,0.00567208,239.95,-0.0138552,-0.00315434,0.562696,-0.249012,-0.311838,0.468623,-1.97473e-05,-6.14324e-06,0.620941,0.7553986813863551,0.5977925174149783,-1.9747105023393274e-05,-0.22042938151885072,-6.143221130350263e-06,-0.267899881158534
882,0.8701,895.627,64.3152,0.0056623,239.988,-0.0138551,-0.00315723,0.563178,-0.249225,-0.312106,0.469024,-1.97721e-05,-6.14898e-06,0.621475,0.7562449874941706,0.5984333606949519,-1.977190453328337e-05,-0.220595412377673,-6.148961095076011e-06,-0.26809605770155265
883,0.8711,895.772,64.3255,0.005653,240.027,-0.0138553,-0.00315988,0.563658,-0.249439,-0.312373,0.469425,-1.97969e-05,-6.15472e-06,0.622009,0.7570881874399653,0.5990744610046119,-1.979670404261835e-05,-0.22076218711389095,-6.154701059801759e-06,-0.26829144996811793
884,0.8721,895.916,64.3358,0.00564331,240.066,-0.0138554,-0.00316275,0.564139,-0.249652,-0.31264,0.469825,-1.98216e-05,-6.16047e-06,0.622543,0.7579335501515574,0.5997142187320292,-1.982140355338835e-05,-0.2209281470926705,-6.1604510243062904e-06,-0.2684867900719121
885,0.8731,896.06,64.3462,0.005634,240.104,-0.0138557,-0.00316543,0.564619,-0.249865,-0.312907,0.470226,-1.98463e-05,-6.16621e-06,0.623076,0.7587775608019813,0.6003558327687575,-1.9846103063492215e-05,-0.22109407172573903,-6.1661909889210165e-06,-0.26868207802686084
886,0.8741,896.204,64.3565,0.00562439,240.143,-0.0138558,-0.00316829,0.5651,-0.250078,-0.313173,0.470626,-1.98711e-05,-6.17195e-06,0.623609,0.7596237362976195,0.6009961031474036,-1.987090257105084e-05,-0.22125996102062429,-6.1719309535357425e-06,-0.2688765827238341
887,0.8751,896.347,64.3668,0.0056151,240.181,-0.0138562,-0.003171,0.565579,-0.250291,-0.31344,0.471026,-1.98958e-05,-6.1777e-06,0.624142,0.7604667979644559,0.6016366296854299,-1.989560207993346e-05,-0.2214258149848527,-6.177680918040274e-06,-0.26907176661803744
888,0.8761,896.491,64.3771,0.00560556,240.22,-0.0138564,-0.00317385,0.566059,-0.250504,-0.313706,0.471426,-1.99205e-05,-6.18345e-06,0.624674,0.7613120248657066,0.6022774124853203,-1.9920301588149947e-05,-0.2215916336259487,-6.183430882544805e-06,-0.2692661676716306
889,0.8771,896.634,64.3873,0.00559628,240.258,-0.0138568,-0.00317658,0.566538,-0.250717,-0.313973,0.471825,-1.99451e-05,-6.18919e-06,0.625206,0.7621558954164793,0.6029168487319498,-1.994490109780145e-05,-0.22175741695143547,-6.1891708470485085e-06,-0.26946124756053824
890,0.8781,896.777,64.3976,0.00558681,240.296,-0.0138572,-0.00317942,0.567017,-0.25093,-0.314239,0.472225,-1.99698e-05,-6.19494e-06,0.625738,0.7630001702780707,0.60355814372189,-1.996960060490771e-05,-0.22192316496883424,-6.194920811442017e-06,-0.26965554502597855
891,0.8791,896.92,64.4078,0.00557755,240.335,-0.0138577,-0.00318217,0.567496,-0.251142,-0.314505,0.472624,-1.99944e-05,-6.20069e-06,0.62627,0.7638448496441916,0.6041980910822435,-1.9994200113337968e-05,-0.22208809977415378,-6.200670775724504e-06,-0.26984979081516636
892,0.8801,897.063,64.4181,0.00556814,240.373,-0.0138581,-0.00318502,0.567975,-0.251355,-0.314771,0.473023,-2.00191e-05,-6.20644e-06,0.626801,0.7646899337086466,0.6048382938325405,-2.0018899619111963e-05,-0.22225377736361218,-6.206420740118013e-06,-0.27004398494184567
893,0.8811,897.206,64.4283,0.0055589,240.411,-0.0138587,-0.00318778,0.568453,-0.251567,-0.315036,0.473421,-2.00437e-05,-6.21219e-06,0.627332,0.7655336571307925,0.605477146596753,-2.0043499126431996e-05,-0.22241864208653306,-6.212170704400499e-06,-0.2702373976575193
894,0.8821,897.348,64.4385,0.00554955,240.449,-0.0138592,-0.00319063,0.568931,-0.251779,-0.315302,0.47382,-2.00683e-05,-6.21794e-06,0.627863,0.7663777839491381,0.6061178597920274,-2.0068098632974873e-05,-0.22258347186183713,-6.217920668682986e-06,-0.2704314886944902
895,0.8831,897.49,64.4487,0.00554034,240.487,-0.0138599,-0.00319341,0.569409,-0.251991,-0.315567,0.474218,-2.00929e-05,-6.22369e-06,0.628393,0.7672223143565531,0.6067572219248492,-2.009269813907366e-05,-0.2227482666969327,-6.22367063285445e-06,-0.27062479873527445
896,0.8841,897.632,64.4589,0.00553105,240.525,-0.0138605,-0.00319626,0.569887,-0.252203,-0.315833,0.474616,-2.01175e-05,-6.22945e-06,0.628924,0.768067248545999,0.6073968385744453,-2.0117297644506316e-05,-0.2229130265992263,-6.229430597026742e-06,-0.2708187867372628
897,0.8851,897.774,64.469,0.00552187,240.563,-0.0138613,-0.00319906,0.570364,-0.252415,-0.316098,0.475014,-2.0142e-05,-6.2352e-06,0.629454,0.7689108177988273,0.6080367098421338,-2.0141797151262963e-05,-0.22307775157612275,-6.235180561198206e-06,-0.2710119941576635
898,0.8861,897.916,64.4792,0.00551262,240.601,-0.013862,-0.00320191,0.570841,-0.252627,-0.316363,0.475412,-2.01666e-05,-6.24096e-06,0.629983,0.7697547895301731,0.6086768358292725,-2.0166396655474372e-05,-0.2232424416350255,-6.240940525259475e-06,-0.27120515038488124
899,0.8871,898.057,64.4893,0.00550347,240.639,-0.0138628,-0.00320472,0.571318,-0.252838,-0.316628,0.475809,-2.01911e-05,-6.24672e-06,0.630513,0.7705991639320637,0.6093156073208481,-2.0190896161120797e-05,-0.22340632019004492,-6.2467004893207445e-06,-0.2713982554324804
900,0.8881,898.199,64.4995,0.00549428,240.677,-0.0138636,-0.00320758,0.571794,-0.25305,-0.316893,0.476207,-2.02156e-05,-6.25248e-06,0.631042,0.771442169753564,0.6099562424104881,-2.0215395666101088e-05,-0.22357094059978466,-6.2524604532709915e-06,-0.27159130931402164
901,0.8891,898.34,64.5096,0.00548516,240.715,-0.0138645,-0.00321041,0.572271,-0.253261,-0.317157,0.476604,-2.02401e-05,-6.25823e-06,0.63157,0.7722873492278157,0.6105955219273127,-2.0239895170526268e-05,-0.22373474984883457,-6.2582104173314335e-06,-0.2717835838270104
902,0.8901,898.481,64.5197,0.00547602,240.753,-0.0138654,-0.00321327,0.572747,-0.253473,-0.317422,0.477,-2.02646e-05,-6.26399e-06,0.632099,0.7731311588167982,0.6112334440542406,-2.0264394674396335e-05,-0.22389930063886665,-6.2639703812816805e-06,-0.27197653561005575
903,0.8911,898.622,64.5298,0.00546694,240.791,-0.0138664,-0.00321611,0.573222,-0.253684,-0.317686,0.477397,-2.02891e-05,-6.26976e-06,0.632627,0.7739735961802703,0.6118732307207806,-2.028889417760027e-05,-0.22406304061125726,-6.269740345121733e-06,-0.27216870843672547
904,0.8921,898.763,64.5399,0.00545783,240.828,-0.0138674,-0.00321898,0.573698,-0.253895,-0.31795,0.477793,-2.03135e-05,-6.27552e-06,0.633155,0.774818208613864,0.6125116589205866,-2.031329368223922e-05,-0.2242267460381584,-6.275500308960957e-06,-0.2723608305364652
905,0.8931,898.903,64.55,0.00544879,240.866,-0.0138685,-0.00322183,0.574173,-0.254106,-0.318214,0.47819,-2.0338e-05,-6.28128e-06,0.633683,0.7756614475163404,0.6131519531391707,-2.033779318433293e-05,-0.22439041692685835,-6.281260272800182e-06,-0.272552901922665
906,0.8941,899.044,64.56,0.00543973,240.904,-0.0138696,-0.00322471,0.574648,-0.254317,-0.318478,0.478586,-2.03624e-05,-6.28705e-06,0.63421,0.7765050870524381,0.6137908878133298,-2.0362192687750635e-05,-0.22455405328464395,-6.287030236529212e-06,-0.27274492260871164
907,0.8951,899.184,64.5701,0.00543073,240.941,-0.0138708,-0.00322757,0.575123,-0.254527,-0.318742,0.478981,-2.03868e-05,-6.29281e-06,0.634737,0.777349127412504,0.6144284611264557,-2.038659219061323e-05,-0.2247168798360678,-6.292790200257414e-06,-0.27293689260798804
908,0.8961,899.324,64.5801,0.00542171,240.979,-0.0138719,-0.00323046,0.575598,-0.254738,-0.319005,0.479377,-2.04112e-05,-6.29858e-06,0.635264,0.7781935687869741,0.6150679013978793,-2.041099169292071e-05,-0.22488044731744627,-6.298560163986444e-06,-0.27312808506232233
909,0.8971,899.464,64.5901,0.00541274,241.016,-0.0138732,-0.00323334,0.576072,-0.254949,-0.319269,0.479772,-2.04356e-05,-6.30435e-06,0.635791,0.7790366323288538,0.6157059792310071,-2.0435391194562058e-05,-0.22504398028972705,-6.304330127604452e-06,-0.27331995392006236
910,0.8981,899.604,64.6002,0.00540377,241.054,-0.0138745,-0.00323623,0.576546,-0.255159,-0.319532,0.480167,-2.046e-05,-6.31012e-06,0.636317,0.7798800955775753,0.6163443091546636,-2.0459790695648294e-05,-0.22520670396728204,-6.310100091222459e-06,-0.2735110456425184
911,0.8991,899.743,64.6102,0.00539484,241.091,-0.0138758,-0.00323912,0.57702,-0.255369,-0.319795,0.480562,-2.04844e-05,-6.31589e-06,0.636843,0.7807239587226449,0.6169828912684443,-2.0484190196068397e-05,-0.22536939347645257,-6.315870054840467e-06,-0.27370208711445965
912,0.9001,899.883,64.6202,0.00538591,241.128,-0.0138772,-0.00324203,0.577493,-0.255579,-0.320059,0.480957,-2.05087e-05,-6.32166e-06,0.637369,0.7815664403863269,0.6176217256719838,-2.0508489698034538e-05,-0.22553204882441324,-6.321640018347452e-06,-0.2738938044556589
913,0.9011,900.022,64.6301,0.00537701,241.166,-0.0138786,-0.00324493,0.577967,-0.255789,-0.320322,0.481351,-2.05331e-05,-6.32743e-06,0.637895,0.7824111030483063,0.6182591942049531,-2.0532889197344417e-05,-0.2256946700183371,-6.327409981854437e-06,-0.2740847452752687
914,0.9021,900.161,64.6401,0.00536812,241.203,-0.0138801,-0.00324785,0.57844,-0.255999,-0.320584,0.481746,-2.05574e-05,-6.33321e-06,0.63842,0.7832543829200156,0.6188985328477332,-2.0557188698089313e-05,-0.22585725706539572,-6.3331899452512275e-06,-0.27427491015931893
915,0.9031,900.3,64.6501,0.00535927,241.24,-0.0138816,-0.00325076,0.578912,-0.256209,-0.320847,0.48214,-2.05817e-05,-6.33898e-06,0.638945,0.7840962776602824,0.619536504541846,-2.0581488198279096e-05,-0.2260198099727594,-6.338959908758213e-06,-0.27446575076130786
916,0.9041,900.439,64.66,0.00535042,241.277,-0.0138832,-0.00325369,0.579385,-0.256419,-0.321109,0.482534,-2.06061e-05,-6.34476e-06,0.639469,0.7849403548081242,0.6201747276463307,-2.060588769581262e-05,-0.22618232874759647,-6.344739872043981e-06,-0.27465581583499643
917,0.9051,900.577,64.6699,0.0053416,241.314,-0.0138848,-0.00325661,0.579857,-0.256629,-0.321372,0.482927,-2.06303e-05,-6.35054e-06,0.639994,0.7857830455149555,0.620811581447871,-2.0630087196771285e-05,-0.22634481339707413,-6.350519835329749e-06,-0.27484655627196497
918,0.9061,900.715,64.6798,0.00533279,241.351,-0.0138864,-0.00325955,0.580329,-0.256838,-0.321634,0.483321,-2.06546e-05,-6.35632e-06,0.640518,0.7866261340656844,0.6214503070316386,-2.0654386695184712e-05,-0.22650649043523519,-6.356299798615517e-06,-0.27503652158767866
919,0.9071,900.854,64.6898,0.00532401,241.388,-0.0138881,-0.00326249,0.580801,-0.257048,-0.321896,0.483714,-2.06789e-05,-6.3621e-06,0.641042,0.7874696206481373,0.6220876622343963,-2.0678686193043028e-05,-0.22666890701790576,-6.362079761901285e-06,-0.2752264371389992
920,0.9081,900.992,64.6996,0.00531524,241.425,-0.0138899,-0.00326544,0.581273,-0.257257,-0.322158,0.484107,-2.07032e-05,-6.36788e-06,0.641565,0.7883135054502295,0.6227252679669744,-2.070298569023521e-05,-0.2268305163275779,-6.3678597250760305e-06,-0.2754163029389628
921,0.9091,901.13,64.7095,0.0053065,241.462,-0.0138917,-0.00326839,0.581744,-0.257466,-0.32242,0.4845,-2.07274e-05,-6.37366e-06,0.642088,0.789155999503071,0.6233631243278506,-2.072718518897343e-05,-0.2269920918644336,-6.373639688250776e-06,-0.27560611900060294
922,0.9101,901.267,64.7194,0.00529777,241.499,-0.0138935,-0.00327135,0.582215,-0.257675,-0.322682,0.484893,-2.07517e-05,-6.37945e-06,0.642611,0.789998890464076,0.6240012314155412,-2.0751484684944366e-05,-0.22715363363553087,-6.379429651315327e-06,-0.2757958853369492
923,0.9111,901.405,64.7293,0.00528906,241.536,-0.0138954,-0.00327432,0.582686,-0.257884,-0.322943,0.485285,-2.07759e-05,-6.38523e-06,0.643134,0.7908421785202322,0.6246379646898244,-2.077568418246134e-05,-0.22731514164792588,-6.385209614490073e-06,-0.2759848779462678
924,0.9121,901.542,64.7391,0.00528037,241.573,-0.0138973,-0.00327729,0.583156,-0.258093,-0.323205,0.485677,-2.08001e-05,-6.39102e-06,0.643657,0.7916840721736473,0.6252749476124788,-2.0799883679423203e-05,-0.2274766159086734,-6.390999577443601e-06,-0.276174545060769
925,0.9131,901.68,64.7489,0.0052717,241.61,-0.0138993,-0.00328026,0.583627,-0.258302,-0.323466,0.48607,-2.08243e-05,-6.39681e-06,0.644179,0.7925281541373392,0.6259138061943792,-2.0824083175718933e-05,-0.22763805642482682,-6.396789540508152e-06,-0.2763634388527959
926,0.9141,901.817,64.7588,0.00526305,241.646,-0.0139013,-0.00328325,0.584097,-0.25851,-0.323727,0.486461,-2.08485e-05,-6.4026e-06,0.644701,0.7933708403855397,0.6265496627944658,-2.0848282671570573e-05,-0.22779869100251526,-6.402579503350658e-06,-0.2765522833499765
927,0.9151,901.954,64.7686,0.00525442,241.683,-0.0139034,-0.00328624,0.584566,-0.258719,-0.323988,0.486853,-2.08727e-05,-6.40839e-06,0.645222,0.7942121285763404,0.627187395249676,-2.087248216675608e-05,-0.22796006421200798,-6.408369466304187e-06,-0.2767410785651748
928,0.9161,902.091,64.7784,0.00524581,241.72,-0.0139056,-0.00328924,0.585036,-0.258927,-0.324249,0.487244,-2.08968e-05,-6.41419e-06,0.645744,0.7950556064785512,0.6278237499204495,-2.08965816633766e-05,-0.22812063181904185,-6.41416942914752e-06,-0.2769298245112518
929,0.9171,902.227,64.7882,0.00523722,241.756,-0.0139077,-0.00329224,0.585505,-0.259136,-0.32451,0.487636,-2.0921e-05,-6.41998e-06,0.646265,0.7958976850099699,0.6284619819157167,-2.0920781157451884e-05,-0.22828193774993466,-6.419959391990027e-06,-0.2771185212010653
930,0.9181,902.364,64.798,0.00522864,241.793,-0.01391,-0.00329525,0.585975,-0.259344,-0.32477,0.488027,-2.09452e-05,-6.42578e-06,0.646786,0.7967419553099035,0.6290988350473194,-2.0944980650861034e-05,-0.22844243841423495,-6.425759354722338e-06,-0.27730644595427634
931,0.9191,902.5,64.8077,0.00522009,241.829,-0.0139122,-0.00329827,0.586443,-0.259552,-0.325031,0.488417,-2.09693e-05,-6.43157e-06,0.647306,0.7975830273404925,0.6297343075020618,-2.096908014581622e-05,-0.22860290569786879,-6.431549317453822e-06,-0.27749504435871997
932,0.9201,902.636,64.8175,0.00521155,241.866,-0.0139146,-0.00330129,0.586912,-0.25976,-0.325291,0.488808,-2.09934e-05,-6.43737e-06,0.647826,0.7984262915103058,0.6303716582102388,-2.0993179640105275e-05,-0.22876333960777862,-6.437349280186133e-06,-0.27768287122863544
933,0.9211,902.772,64.8272,0.00520303,241.902,-0.0139169,-0.00330432,0.58738,-0.259968,-0.325551,0.489198,-2.10175e-05,-6.44317e-06,0.648346,0.7992681519947205,0.6310076271628255,-2.1017279133839217e-05,-0.22892374015090533,-6.443149242807422e-06,-0.2778706492699128
934,0.9221,902.908,64.837,0.00519453,241.939,-0.0139193,-0.00330736,0.587848,-0.260176,-0.325811,0.489589,-2.10417e-05,-6.44898e-06,0.648866,0.8001104065620499,0.6316454758363357,-2.104147862502792e-05,-0.2290841073341887,-6.448959205318516e-06,-0.27805837849524584
935,0.9231,903.043,64.8467,0.00518605,241.975,-0.0139218,-0.0033104,0.588316,-0.260383,-0.326071,0.489979,-2.10658e-05,-6.45478e-06,0.649386,0.8009530553967681,0.6322819416746832,-2.1065578117540618e-05,-0.2292436704086226,-6.454759167939805e-06,-0.2782460589173249
936,0.9241,903.179,64.8564,0.00517759,242.011,-0.0139243,-0.00331345,0.588784,-0.260591,-0.326331,0.490368,-2.10899e-05,-6.46059e-06,0.649905,0.8017960986834356,0.6329170228652778,-2.1089677609609225e-05,-0.22940397105333266,-6.460569130450899e-06,-0.27843369054883726
937,0.9251,903.314,64.8661,0.00516914,242.048,-0.0139269,-0.00331651,0.589251,-0.260798,-0.326591,0.490758,-2.11139e-05,-6.46639e-06,0.650424,0.8026377339680639,0.6335539847036802,-2.111367710322387e-05,-0.229563467922829,-6.466369092961166e-06,-0.278621273402467
938,0.9261,903.45,64.8758,0.00516072,242.084,-0.0139295,-0.00331958,0.589718,-0.261006,-0.32685,0.491147,-2.1138e-05,-6.4722e-06,0.650943,0.80347976238816,0.634189560815269,-2.1137776594071234e-05,-0.22972370205657355,-6.472179055361238e-06,-0.2788080862993413
939,0.9271,903.585,64.8855,0.00515231,242.12,-0.0139322,-0.00332265,0.590185,-0.261213,-0.32711,0.491537,-2.11621e-05,-6.47801e-06,0.651461,0.8043221841273611,0.634827019040261,-2.1161876084363485e-05,-0.22988313274860184,-6.47798901776131e-06,-0.27899557182272927
940,0.9281,903.719,64.8951,0.00514392,242.156,-0.0139349,-0.00332573,0.590652,-0.26142,-0.327369,0.491926,-2.11861e-05,-6.48382e-06,0.651979,0.8051649993693901,0.6354630904585374,-2.1185875576201774e-05,-0.2300425304418925,-6.483798980050359e-06,-0.2791822877888658
941,0.9291,903.854,64.9048,0.00513555,242.192,-0.0139377,-0.00332882,0.591118,-0.261627,-0.327628,0.492314,-2.12102e-05,-6.48964e-06,0.652497,0.8060064022907507,0.6360977732581363,-2.120997506527278e-05,-0.23020189514327538,-6.489618942340236e-06,-0.27936895540182904
942,0.9301,903.989,64.9144,0.0051272,242.228,-0.0139405,-0.00333191,0.591585,-0.261834,-0.327887,0.492703,-2.12342e-05,-6.49545e-06,0.653014,0.8068500042463456,0.6367343390959621,-2.1233974556000845e-05,-0.23036122685957916,-6.495428904629286e-06,-0.27955557467414105
943,0.9311,904.123,64.9241,0.00511886,242.264,-0.0139433,-0.00333501,0.592051,-0.262041,-0.328146,0.493091,-2.12582e-05,-6.50127e-06,0.653532,0.8076921925629614,0.6373695152357339,-2.1257974046062778e-05,-0.23052052559763103,-6.50124886680814e-06,-0.2797421456183202
944,0.9321,904.257,64.9337,0.00511054,242.3,-0.0139463,-0.00333812,0.592516,-0.262247,-0.328405,0.49348,-2.12822e-05,-6.50709e-06,0.654049,0.8085329648969213,0.638006575877422,-2.1281973535569598e-05,-0.23067902204366353,-6.507068828986995e-06,-0.279928668246882
945,0.9331,904.391,64.9433,0.00510225,242.336,-0.0139492,-0.00334123,0.592982,-0.262454,-0.328663,0.493868,-2.13062e-05,-6.51291e-06,0.654566,0.8093759376559613,0.6386422457408412,-2.1305973024521307e-05,-0.2308382550049204,-6.512888791054827e-06,-0.28011442268712106
946,0.9341,904.525,64.9529,0.00509397,242.372,-0.0139522,-0.00334436,0.593447,-0.262661,-0.328922,0.494255,-2.13302e-05,-6.51873e-06,0.655082,0.8102174931134514,0.6392765230146793,-2.1329972512917905e-05,-0.23099745500836555,-6.5187087531226595e-06,-0.28030084890840734
947,0.9351,904.659,64.9625,0.0050857,242.408,-0.0139553,-0.00334749,0.593912,-0.262867,-0.32918,0.494643,-2.13542e-05,-6.52456e-06,0.655598,0.811059439985226,0.6399126857131916,-2.135397200064837e-05,-0.23115585321705823,-6.524538715080297e-06,-0.2804865073384216
948,0.9361,904.793,64.9721,0.00507746,242.444,-0.0139584,-0.00335063,0.594377,-0.263073,-0.329438,0.49503,-2.13782e-05,-6.53038e-06,0.656114,0.8119017784533351,0.6405474547424475,-2.1377971487934744e-05,-0.23131421879908043,-6.530358677148129e-06,-0.28067211787473956
949,0.9371,904.926,64.9816,0.00506923,242.479,-0.0139616,-0.00335378,0.594841,-0.263279,-0.329696,0.495417,-2.14022e-05,-6.53621e-06,0.65663,0.8127426959563109,0.6411824694748578,-2.1401970974554985e-05,-0.2314725517611529,-6.536188638994744e-06,-0.28085768052971605
950,0.9381,905.06,64.9912,0.00506102,242.515,-0.0139648,-0.00335693,0.595305,-0.263485,-0.329954,0.495804,-2.14262e-05,-6.54204e-06,0.657146,0.8135840037355453,0.6418177300055288,-2.1425970460620114e-05,-0.23163085210999435,-6.542018600952382e-06,-0.281043195315703
951,0.9391,905.193,65.0007,0.00505283,242.551,-0.0139681,-0.00336009,0.595769,-0.263691,-0.330212,0.496191,-2.14501e-05,-6.54787e-06,0.657661,0.8144257019721683,0.6424532364296025,-2.144986994823128e-05,-0.23178911985232253,-6.547848562798997e-06,-0.28122866224504883
952,0.9401,905.326,65.0103,0.00504466,242.586,-0.0139714,-0.00336326,0.596233,-0.263897,-0.330469,0.496578,-2.14741e-05,-6.55371e-06,0.658176,0.8152677908473942,0.643088988842258,-2.1473869433186188e-05,-0.23194735499485364,-6.553688524535417e-06,-0.2814133627438212
953,0.9411,905.459,65.0198,0.0050365,242.622,-0.0139748,-0.00336644,0.596697,-0.264103,-0.330727,0.496964,-2.1498e-05,-6.55954e-06,0.65869,0.8161102705425216,0.6437233436145458,-2.1497768919687132e-05,-0.23210555754430262,-6.55951848627101e-06,-0.2815987341822894
954,0.9421,905.591,65.0293,0.00502837,242.658,-0.0139782,-0.00336963,0.59716,-0.264309,-0.330984,0.49735,-2.1522e-05,-6.56538e-06,0.659205,0.8169513242866999,0.6443579432950399,-2.1521768403420793e-05,-0.232263727507383,-6.565358447896408e-06,-0.2817833395847943
955,0.9431,905.724,65.0388,0.00502025,242.693,-0.0139817,-0.00337282,0.597623,-0.264514,-0.331242,0.497736,-2.15459e-05,-6.57122e-06,0.659719,0.8177927675289236,0.6449927879782931,-2.1545667888811515e-05,-0.23242109731228788,-6.571198409632828e-06,-0.28196861558155006
956,0.9441,905.856,65.0483,0.00501214,242.729,-0.0139852,-0.00337602,0.598086,-0.26472,-0.331499,0.498122,-2.15698e-05,-6.57706e-06,0.660233,0.8186346004495719,0.6456278777588949,-2.1569567373536103e-05,-0.2325792022808707,-6.577038371147204e-06,-0.28215312593674946
957,0.9451,905.989,65.0578,0.00500406,242.764,-0.0139888,-0.00337923,0.598548,-0.264925,-0.331756,0.498508,-2.15937e-05,-6.5829e-06,0.660746,0.8194750037531946,0.6462632127314711,-2.159346685770558e-05,-0.23273650742007546,-6.5828783327726015e-06,-0.2823375888788804
958,0.9461,906.121,65.0672,0.00499599,242.799,-0.0139925,-0.00338245,0.599011,-0.26513,-0.332013,0.498893,-2.16176e-05,-6.58875e-06,0.66126,0.8203176157295522,0.6468971460927142,-2.1617366341319944e-05,-0.23289378031503183,-6.5887282942878045e-06,-0.2825220044201264
959,0.9471,906.253,65.0767,0.00498794,242.835,-0.0139962,-0.00338568,0.599473,-0.265335,-0.332269,0.499278,-2.16415e-05,-6.59459e-06,0.661773,0.8211587967658767,0.64753132356529,-2.1641265824379197e-05,-0.2330510209723492,-6.594568255691158e-06,-0.28270565527868197
960,0.9481,906.385,65.0861,0.00497991,242.87,-0.0139999,-0.00338891,0.599935,-0.26554,-0.332526,0.499663,-2.16654e-05,-6.60044e-06,0.662286,0.8220003665176261,0.6481657452431993,-2.1665165306883338e-05,-0.2332082293986356,-6.6004182170953385e-06,-0.28288997623901746
961,0.9491,906.516,65.0956,0.00497189,242.905,-0.0140037,-0.00339216,0.600396,-0.265745,-0.332782,0.500048,-2.16893e-05,-6.60629e-06,0.662798,0.8228405023230152,0.648800411220479,-2.168906478883237e-05,-0.2333654056004978,-6.606268178499519e-06,-0.28307353290884407
962,0.9501,906.648,65.105,0.00496389,242.941,-0.0140075,-0.00339541,0.600858,-0.26595,-0.333039,0.500433,-2.17132e-05,-6.61215e-06,0.66331,0.8236828492022346,0.6494353215912028,-2.1712964270226287e-05,-0.233522549584541,-6.612128139793505e-06,-0.28325775933677644
963,0.9511,906.779,65.1144,0.00495591,242.976,-0.0140114,-0.00339867,0.601319,-0.266155,-0.333295,0.500817,-2.17371e-05,-6.618e-06,0.663823,0.8245237608109501,0.6500688263798287,-2.1736863750954072e-05,-0.23367966135736917,-6.617978101086663e-06,-0.2834412218661806
964,0.9521,906.91,65.1238,0.00494795,243.011,-0.0140154,-0.00340194,0.60178,-0.266359,-0.333551,0.501201,-2.17609e-05,-6.62386e-06,0.664334,0.8253650601692863,0.6507025744810067,-2.1760663233338917e-05,-0.23383597476194296,-6.623838062269627e-06,-0.2836246374351883
965,0.9531,907.041,65.1332,0.00494,243.046,-0.0140194,-0.00340522,0.60224,-0.266564,-0.333807,0.501585,-2.17848e-05,-6.62972e-06,0.664846,0.8262049212502034,0.651336565988186,-2.178456271295648e-05,-0.23399302228919516,-6.62969802345259e-06,-0.28380800605582
966,0.9541,907.172,65.1426,0.00493207,243.081,-0.0140235,-0.0034085,0.602701,-0.266768,-0.334063,0.501969,-2.18086e-05,-6.63558e-06,0.665357,0.8270469958021709,0.6519708009948535,-2.18083621942311e-05,-0.23414927177465883,-6.635557984635554e-06,-0.28399132774009295
967,0.9551,907.303,65.1519,0.00492416,243.116,-0.0140276,-0.0034118,0.603161,-0.266972,-0.334318,0.502353,-2.18325e-05,-6.64144e-06,0.665868,0.8278876307514549,0.6526052795945301,-2.183226167273844e-05,-0.2343054893884784,-6.641417945707495e-06,-0.2841738866742659
968,0.9561,907.434,65.1613,0.00491626,243.151,-0.0140318,-0.0034151,0.603621,-0.267177,-0.334574,0.502736,-2.18563e-05,-6.64731e-06,0.666379,0.8287286524817685,0.6532383486415985,-2.1856061152791817e-05,-0.23446244067509725,-6.647287906669241e-06,-0.2843571147050886
969,0.9571,907.564,65.1707,0.00490838,243.186,-0.014036,-0.00341841,0.604081,-0.267381,-0.334829,0.503119,-2.18802e-05,-6.65318e-06,0.666889,0.8295700611710717,0.6538716602005503,-2.1879960630188933e-05,-0.23461859440897703,-6.653157867630988e-06,-0.2845395803754771
970,0.9581,907.694,65.18,0.00490052,243.221,-0.0140403,-0.00342174,0.60454,-0.267585,-0.335084,0.503502,-2.1904e-05,-6.65905e-06,0.667399,0.8304100265864651,0.6545052143642849,-2.1903760109132087e-05,-0.2347747162907443,-6.659027828592734e-06,-0.28472199952305155
971,0.9591,907.825,65.1893,0.00489268,243.256,-0.0140446,-0.00342507,0.605,-0.267788,-0.33534,0.503885,-2.19278e-05,-6.66492e-06,0.667909,0.8312522088857732,0.6551390112257378,-2.192755958752013e-05,-0.23493004125731975,-6.664897789443458e-06,-0.2849050872549441
972,0.9601,907.955,65.1986,0.00488485,243.291,-0.014049,-0.00342841,0.605459,-0.267992,-0.335595,0.504268,-2.19517e-05,-6.6708e-06,0.668419,0.8320929465841929,0.6557730508778801,-2.195145906325191e-05,-0.23508609961041005,-6.670777750295009e-06,-0.28508741321014686
973,0.9611,908.085,65.2079,0.00487704,243.325,-0.0140534,-0.00343176,0.605917,-0.268196,-0.33585,0.50465,-2.19755e-05,-6.67667e-06,0.668928,0.8329322373366399,0.6564056770072131,-2.1975258540418707e-05,-0.23524212613084328,-6.676647711034711e-06,-0.28526969267815827
974,0.9621,908.214,65.2172,0.00486924,243.36,-0.0140579,-0.00343511,0.606376,-0.268399,-0.336104,0.505033,-2.19993e-05,-6.68255e-06,0.669438,0.8337737463451207,0.6570402018852644,-2.1999058017141415e-05,-0.2353973562228514,-6.68252767177524e-06,-0.2854512111223998
975,0.9631,908.344,65.2265,0.00486146,243.395,-0.0140625,-0.00343848,0.606834,-0.268603,-0.336359,0.505415,-2.20231e-05,-6.68843e-06,0.669946,0.8346138070801703,0.6576733121587479,-2.202285749330901e-05,-0.23555331925341194,-6.688407632515769e-06,-0.2856333978337706
976,0.9641,908.473,65.2358,0.0048537,243.43,-0.0140671,-0.00344186,0.607292,-0.268806,-0.336613,0.505796,-2.20469e-05,-6.69432e-06,0.670455,0.8354542526511577,0.6583050060207198,-2.2046656968921496e-05,-0.23570848617962759,-6.694297593035081e-06,-0.2858148239086339
977,0.9651,908.603,65.2451,0.00484595,243.464,-0.0140718,-0.00344524,0.60775,-0.269009,-0.336868,0.506178,-2.20707e-05,-6.70021e-06,0.670964,0.8362950832343774,0.6589385995416777,-2.2070456443867847e-05,-0.23586362161015417,-6.700187553665415e-06,-0.28599691791056525
978,0.9661,908.732,65.2543,0.00483823,243.499,-0.0140765,-0.00344864,0.608208,-0.269212,-0.337122,0.50656,-2.20945e-05,-6.70609e-06,0.671472,0.8371362990062057,0.6595724351415944,-2.209425591837011e-05,-0.2360187255513847,-6.7060675141839e-06,-0.28617825166305444
979,0.9671,908.861,65.2636,0.00483051,243.533,-0.0140813,-0.00345205,0.608665,-0.269415,-0.337376,0.506941,-2.21183e-05,-6.71199e-06,0.67198,0.8379760621661183,0.6602048527072795,-2.2118055392206237e-05,-0.23617379800971072,-6.711967474593017e-06,-0.2863595393626196
980,0.9681,908.99,65.2728,0.00482282,243.568,-0.0140861,-0.00345546,0.609123,-0.269618,-0.33763,0.507322,-2.21421e-05,-6.71788e-06,0.672487,0.8388180480026288,0.660837511269964,-2.2141854865487254e-05,-0.23632883899152268,-6.717857435112329e-06,-0.2865407810209565
981,0.9691,909.118,65.282,0.00481514,243.602,-0.014091,-0.00345888,0.609579,-0.269821,-0.337884,0.507703,-2.21658e-05,-6.72378e-06,0.672994,0.8396567402398152,0.6614704109214855,-2.216555434042533e-05,-0.23648384850320958,-6.7237573954104235e-06,-0.28672197664975807
982,0.9701,909.247,65.2913,0.00480748,243.637,-0.0140959,-0.00346232,0.610036,-0.270024,-0.338138,0.508084,-2.21896e-05,-6.72967e-06,0.673502,0.8404976555046075,0.6621035517537162,-2.2189353812596124e-05,-0.2366388265511593,-6.729647355818713e-06,-0.28690312626071457
983,0.9711,909.376,65.3005,0.00479983,243.671,-0.0141009,-0.00346576,0.610493,-0.270227,-0.338391,0.508464,-2.22134e-05,-6.73557e-06,0.674008,0.8413389551555011,0.662735271122461,-2.2213153284211806e-05,-0.23679377314175842,-6.735547316116808e-06,-0.2870835169493863
984,0.9721,909.504,65.3096,0.0047922,243.706,-0.014106,-0.00346921,0.610949,-0.270429,-0.338645,0.508844,-2.22372e-05,-6.74148e-06,0.674515,0.8421787971884829,0.6633672305901817,-2.2236952755272377e-05,-0.23694792522969876,-6.741457276304708e-06,-0.28726457474076816
985,0.9731,909.632,65.3188,0.00478458,243.74,-0.0141111,-0.00347268,0.611405,-0.270631,-0.338898,0.509225,-2.22609e-05,-6.74738e-06,0.675021,0.8430190222767615,0.6640010942483958,-2.2260652227990008e-05,-0.2371020461820621,-6.74735723649178e-06,-0.28744487399454144
986,0.9741,909.76,65.328,0.00477699,243.774,-0.0141163,-0.00347615,0.611861,-0.270834,-0.339151,0.509604,-2.22847e-05,-6.75329e-06,0.675527,0.8438596305950503,0.6646318701876059,-2.2284451697940355e-05,-0.23725689874861988,-6.7532671965686575e-06,-0.28762512763837333
987,0.9751,909.888,65.3372,0.0047694,243.809,-0.0141215,-0.00347963,0.612316,-0.271036,-0.339404,0.509984,-2.23084e-05,-6.7592e-06,0.676033,0.8446987776184418,0.6652645504999233,-2.2308151169547763e-05,-0.23741095729463568,-6.759177156645535e-06,-0.28780533568380184
988,0.9761,910.016,65.3463,0.00476184,243.843,-0.0141268,-0.00348313,0.612772,-0.271238,-0.339657,0.510364,-2.23322e-05,-6.76512e-06,0.676539,0.8455401520798336,0.6658974712764447,-2.2331950638276865e-05,-0.23756498472396803,-6.7650971166122176e-06,-0.28798549814236185
989,0.9771,910.143,65.3555,0.00475429,243.877,-0.0141322,-0.00348663,0.613227,-0.27144,-0.33991,0.510743,-2.23559e-05,-6.77103e-06,0.677044,0.8463800639144821,0.6665289660787643,-2.235565010877405e-05,-0.2377189810429019,-6.771007076578073e-06,-0.28816561502558535
990,0.9781,910.271,65.3646,0.00474675,243.911,-0.0141376,-0.00349014,0.613681,-0.271642,-0.340163,0.511122,-2.23797e-05,-6.77695e-06,0.677549,0.8472185107765355,0.6671607002629742,-2.237944957639293e-05,-0.23787294625772104,-6.776927036544755e-06,-0.28834568634500146
991,0.9791,910.398,65.3737,0.00473924,243.945,-0.014143,-0.00349366,0.614136,-0.271844,-0.340415,0.511501,-2.24034e-05,-6.78288e-06,0.678054,0.8480591864381486,0.6677926739198172,-2.240314904566887e-05,-0.23802688037470765,-6.782856996290221e-06,-0.28852500063749276
992,0.9801,910.525,65.3828,0.00473173,243.979,-0.0141485,-0.0034972,0.614591,-0.272045,-0.340668,0.51188,-2.24272e-05,-6.7888e-06,0.678559,0.8489002446942211,0.6684248871400704,-2.2426948512177525e-05,-0.23818002158054563,-6.788776956145881e-06,-0.28870498104385
993,0.9811,910.652,65.3919,0.00472425,244.013,-0.0141541,-0.00350074,0.615045,-0.272247,-0.34092,0.512259,-2.24509e-05,-6.79473e-06,0.679063,0.8497398359781125,0.6690573400145456,-2.2450647980454264e-05,-0.2383338936745817,-6.7947069158913465e-06,-0.2888842048054846
994,0.9821,910.779,65.401,0.00471678,244.047,-0.0141597,-0.0035043,0.615499,-0.272449,-0.341172,0.512637,-2.24747e-05,-6.80066e-06,0.679567,0.8505798085229868,0.6696883629448913,-2.2474447445852697e-05,-0.23848773468959372,-6.8006368755257895e-06,-0.2890633834084214
995,0.9831,910.906,65.4101,0.00470932,244.081,-0.0141654,-0.00350786,0.615952,-0.27265,-0.341424,0.513015,-2.24984e-05,-6.80659e-06,0.680071,0.8514183110827385,0.670319624446992,-2.249814691290819e-05,-0.23864078327302318,-6.806566835271255e-06,-0.2892425168640391
996,0.9841,911.032,65.4192,0.00470188,244.115,-0.0141712,-0.00351143,0.616406,-0.272851,-0.341676,0.513393,-2.25221e-05,-6.81253e-06,0.680574,0.8522590458283166,0.6709511246110447,-2.2521846379408572e-05,-0.23879380109677895,-6.812506794795503e-06,-0.2894216051837133
997,0.9851,911.159,65.4282,0.00469446,244.149,-0.014177,-0.00351502,0.616859,-0.273052,-0.341928,0.513771,-2.25459e-05,-6.81846e-06,0.681077,0.8530983092548909,0.6715828635272807,-2.254564584314167e-05,-0.23894678816704285,-6.818436754318924e-06,-0.28960064837881694
998,0.9861,911.285,65.4373,0.00468705,244.183,-0.0141829,-0.00351862,0.617312,-0.273254,-0.34218,0.514149,-2.25696e-05,-6.82441e-06,0.68158,0.8539379529539224,0.6722148412859654,-2.256934530853183e-05,-0.23910050538987082,-6.824386713732977e-06,-0.28977964646071985
999,0.9871,911.411,65.4463,0.00467966,244.217,-0.0141888,-0.00352222,0.617765,-0.273454,-0.342431,0.514526,-2.25933e-05,-6.83035e-06,0.682083,0.8547779770977142,0.6728453851311769,-2.2593044773366877e-05,-0.2392526700718175,-6.830326673257225e-06,-0.28995788939903366
