,Time,S11,S22,S33,S12,S13,S23,LE11,LE22,LE33,LE12,LE13,LE23,SDV_EPBAR,E11,E12,E13,E22,E23,E33
0,1e-05,1.94446,0.139606,-2.22045e-16,0.521016,1.85918e-17,-3.80464e-18,9.12912e-06,-2.12914e-06,-3e-06,6.49996e-06,1.57076e-22,-1.77139e-22,0.0,9.129161670617947e-06,6.499981124896692e-06,0.0,-2.1291377333421124e-06,0.0,-2.9999955000192813e-06
1,2e-05,3.8889,0.27921,0.0,1.04203,-2.1314e-22,-5.71107e-23,1.82581e-05,-4.25827e-06,-5.99996e-06,1.29999e-05,-1.09614e-22,4.09087e-22,0.0,1.8258266680115653e-05,1.2999984499106887e-05,0.0,-4.258260933531766e-06,0.0,-5.9999420002343484e-06
2,3.5e-05,6.80552,0.488615,-6.66134e-16,1.82353,1.63949e-17,4.39301e-18,3.19515e-05,-7.45192e-06,-1.04998e-05,2.27496e-05,4.09081e-22,1.09613e-22,0.0,3.19520104545834e-05,2.2749858774151477e-05,0.0,-7.451892234500157e-06,0.0,-1.0499744877323636e-05
3,5.75e-05,11.1804,0.802715,-4.21885e-15,2.99577,-4.39369e-18,1.63953e-17,5.24912e-05,-1.22423e-05,-1.72495e-05,3.73739e-05,1.08454e-38,2.90602e-39,0.0,5.249257768724647e-05,3.737459841279822e-05,0.0,-1.2242225063352485e-05,0.0,-1.7249351228265652e-05
4,9.125e-05,17.7425,1.27385,-2.95319e-14,4.75408,4.39262e-18,-1.63956e-17,8.32998e-05,-1.94277e-05,-2.73738e-05,5.93098e-05,8.76935e-22,-3.27277e-21,0.0,8.330326952465938e-05,5.931155886096384e-05,0.0,-1.9427511283476306e-05,0.0,-2.737342534098186e-05
5,0.00014188,27.5852,1.98053,-1.54765e-13,7.39143,3.71814e-17,-7.60989e-18,0.000129511,-3.02053e-05,-4.25596e-05,9.22122e-05,2.51329e-21,-2.83436e-21,0.0,0.0001295193869115252,9.221645167567516e-05,0.0,-3.0204843824543914e-05,0.0,-4.255869435310089e-05
6,0.00021781,42.3484,3.04047,-8.02247e-13,11.3472,3.71782e-17,-7.61076e-18,0.000198823,-4.63708e-05,-6.53367e-05,0.000141563,3.27278e-21,8.76939e-22,0.0,0.0001988427666026471,0.00014157302051431842,0.0,-4.636972489102664e-05,0.0,-6.533456560431361e-05
7,0.00033172,64.491,4.63024,-4.0512e-12,17.2803,3.71733e-17,-7.61206e-18,0.000302781,-7.06166e-05,-9.94992e-05,0.000215581,-1.76382e-25,-4.72615e-26,0.0,0.00030282684279359096,0.00021560423925381933,0.0,-7.061410670661239e-05,0.0,-9.949425011879232e-05
8,0.00050258,97.7002,7.01456,-2.05163e-11,26.1787,9.80103e-17,2.89851e-16,0.000458697,-0.00010698,-0.000150736,0.000326594,-1.33605e-24,-3.57993e-25,0.0,0.00045880221755600914,0.00032664733762688414,0.0,-0.00010697427784389646,0.0,-0.00015072463989995732
9,0.00075887,147.503,10.5903,-1.03753e-10,39.5234,-4.96816e-16,4.1163e-16,0.00069252,-0.000161514,-0.000227574,0.000493077,-3.50401e-21,1.30949e-20,0.0,0.0006927598473382979,0.0004931985824463414,0.0,-0.00016150095731615188,0.0,-0.0002275481070015406
10,0.0011433,222.184,15.9521,-5.24728e-10,59.5341,6.92733e-16,1.68044e-16,0.00104314,-0.000243289,-0.000342794,0.000742721,-1.27611e-23,-3.41933e-24,0.0,0.0010436842597596474,0.0007429968855396929,0.0,-0.00024325940763114673,0.0,-0.00034273525284966855
11,0.00172,334.152,23.991,-2.65264e-09,89.5357,1.67954e-16,2.74306e-17,0.00156882,-0.000365891,-0.000515542,0.00111701,-4.02374e-20,4.53698e-20,0.0,0.0015700512418777013,0.001117634088019237,0.0,-0.0003658240700513682,0.0,-0.0005154091310572984
12,0.0025849,349.15,24.7375,-0.0318537,93.6004,-0.0458183,0.0235428,0.00234616,-0.000697905,-0.000930674,0.00175739,-8.26062e-07,4.99475e-07,0.000785728,0.0023489143870292217,0.0017589351147966337,-8.260616588540159e-07,-0.000697661520950521,4.994751248155183e-07,-0.0009302410572727959
13,0.0032337,353.581,25.1845,-0.158802,94.8001,0.0146295,-0.0474095,0.0029281,-0.000951123,-0.00125026,0.0022408,1.8086e-08,-5.90197e-07,0.0014099,0.0029323910720122637,0.0022433124686160877,1.8086000252992562e-08,-0.000950670825888511,-5.901968258559265e-07,-0.0012494787505884508
14,0.0038824,358.292,25.7846,0.153132,95.9484,0.0597486,0.0328442,0.00350995,-0.00120442,-0.00156801,0.00272291,8.89867e-07,5.98926e-07,0.00203337,0.003516117087780213,0.002726620486443343,8.898673959922832e-07,-0.0012036949773382988,5.989261793182266e-07,-0.0015667813146008625
15,0.0048555,364.346,25.9131,-0.303491,97.7179,0.0212833,-0.0817488,0.00438144,-0.00158551,-0.00204737,0.00344802,6.14806e-07,-1.32707e-06,0.00297001,0.004391052542034757,0.0034539712590144767,6.148061890698386e-07,-0.0015842537430436066,-1.3270691194833262e-06,-0.0020452755676446666
16,0.0058555,371.5,27.0333,0.247517,99.4154,0.121199,0.0262705,0.00527671,-0.0019742,-0.00253697,0.00418967,2.79562e-06,3.03958e-07,0.00393033,0.005290656353709622,0.00419845893731674,2.7956239077031597e-06,-0.0019722525489433984,3.039580462882441e-07,-0.0025337546112992326
17,0.0068555,377.761,27.5031,0.0164781,101.138,0.146008,-0.0529153,0.00617066,-0.00236356,-0.00302903,0.00493249,4.1995e-06,-9.69233e-07,0.0048917,0.0061897377429862566,0.004944674754288947,4.199508817803732e-06,-0.002360768991401696,-9.692325303456428e-07,-0.003024447117027318
18,0.0078555,383.818,27.2779,0.201176,102.828,-0.0341356,0.096709,0.00706403,-0.00275809,-0.00351628,0.00567489,1.76269e-06,1.6597e-06,0.00585297,0.007089039113614692,0.005691022690900827,1.7626915536084198e-06,-0.002754289964192358,1.6597013772212676e-06,-0.003510105127128349
19,0.0081055,385.402,27.8076,-0.0652969,103.24,0.0943089,-0.0461605,0.00728706,-0.00285317,-0.00364069,0.0058601,3.53081e-06,-2.01442e-07,0.006093,0.007313675231373606,0.005877303975259318,3.5308162333880233e-06,-0.0028491035787918673,-2.0144197976357248e-07,-0.0036340707235097414
20,0.0084805,387.713,27.9792,-0.0581514,103.855,0.0946947,-0.0468298,0.00762171,-0.00299931,-0.00382442,0.00613798,3.78507e-06,-3.26497e-07,0.00645316,0.00765082916392501,0.006156855999647437,3.7850771634762026e-06,-0.0029948165632878165,-3.264969467009493e-07,-0.0038171162197062625
21,0.009043,391.081,27.9832,0.0415076,104.775,0.024318,0.0122161,0.00812351,-0.00322007,-0.00409878,0.00655484,3.01043e-06,4.7259e-07,0.00699347,0.008156595236094244,0.006576369979863328,3.0104345314363457e-06,-0.0032148911348582887,4.7259011171085774e-07,-0.004090391466087695
22,0.0098867,396.315,28.8193,-0.0304359,106.119,0.148126,-0.0596411,0.00887548,-0.00354605,-0.00451324,0.00717913,5.43343e-06,-7.14487e-07,0.00780321,0.008914983858023584,0.007204961733235482,5.433444761004935e-06,-0.003539770189732061,-7.144867447683723e-07,-0.0045030706370287055
23,0.010887,402.217,29.2604,-0.0151281,107.691,0.14812,-0.0628291,0.00976597,-0.00393475,-0.00500278,0.00791884,6.47012e-06,-1.09414e-06,0.00876298,0.00981381270165227,0.00795027694005035,6.470140931247315e-06,-0.003927019014374533,-1.0941394014141181e-06,-0.004990286938164945
24,0.011887,407.732,28.9964,0.098528,109.25,-0.0268716,0.0596304,0.0106557,-0.00432785,-0.00548908,0.00865861,4.15326e-06,9.00542e-07,0.00972292,0.010712674157932645,0.008696204189704959,4.153268624795814e-06,-0.004318498352894884,9.005424055352762e-07,-0.005474042526921963
25,0.012887,413.636,30.1075,-0.0196799,110.744,0.155454,-0.0673316,0.0115443,-0.00471263,-0.00597965,0.00939639,7.48227e-06,-1.04514e-06,0.0106815,0.01161119259280663,0.009440674669178195,7.482297992300602e-06,-0.004701542982416318,-1.045139453870192e-06,-0.005961807474672232
26,0.013887,419.163,30.5034,-0.0250774,112.224,0.154643,-0.0684654,0.0124321,-0.00510052,-0.00646817,0.0101341,8.50544e-06,-1.42528e-06,0.0116401,0.012509699797922824,0.010185623893750106,8.505476171372095e-06,-0.0050875344349570195,-1.4252789842794655e-06,-0.006447296417300352
27,0.014887,424.328,30.1773,0.111534,113.691,-0.0323198,0.0663707,0.0133192,-0.00549301,-0.0069532,0.0108718,6.00759e-06,7.4338e-07,0.012599,0.013408295665881864,0.010931112768259865,6.007608045699442e-06,-0.0054779510062547,7.4338027622467e-07,-0.006929082435337741
28,0.015887,429.889,31.2807,-0.0265966,115.094,0.156629,-0.0696186,0.0142052,-0.00587686,-0.00744276,0.0116076,9.38349e-06,-1.31898e-06,0.0135563,0.014306573294069258,0.01167522960804801,9.383534025131368e-06,-0.005859625037286209,-1.3189791301382314e-06,-0.007415131249004503
29,0.016887,434.724,30.7969,0.0297077,116.508,-0.0588645,0.0459579,0.0150905,-0.00626934,-0.0079271,0.0123442,6.36793e-06,4.69104e-07,0.0145145,0.015204936505206934,0.012420704106728575,6.367950275310008e-06,-0.006249728692702572,4.6910411000133934e-07,-0.007895763400251554
30,0.017887,440.183,32.0283,-0.0282643,117.847,0.159463,-0.0707694,0.0159748,-0.00665213,-0.0084158,0.0130784,1.01018e-05,-1.35337e-06,0.0154708,0.016103079285860966,0.013164296326984903,1.0101851023458508e-05,-0.006630053562133864,-1.353369084244882e-06,-0.008380486288992905
31,0.018887,445.163,32.3812,-0.036653,119.183,0.158001,-0.0725473,0.0168582,-0.00703864,-0.00890246,0.0138127,1.10712e-05,-1.75014e-06,0.0164275,0.01700110134404431,0.013908536083963696,1.1071261285966472e-05,-0.007013926789931957,-1.750138468481488e-06,-0.008862950434012862
32,0.019887,449.8,32.0024,0.117231,120.508,-0.0351901,0.0685791,0.0177409,-0.0074298,-0.00938554,0.014547,8.4845e-06,4.75459e-07,0.0173841,0.017899204535730462,0.014653322536890778,8.48453599355814e-06,-0.007402267265747109,4.7545911296964505e-07,-0.009341633289551288
33,0.020887,454.839,33.0816,-0.035739,121.771,0.15941,-0.0726969,0.0186225,-0.00781215,-0.00987331,0.0152794,1.18864e-05,-1.65583e-06,0.0183393,0.01879698015579523,0.01539672683173876,1.1886470643540648e-05,-0.007781714463417355,-1.6558286290990765e-06,-0.009824728891732581
34,0.021887,459.16,32.5229,0.0452737,123.05,-0.0691532,0.0540903,0.0195035,-0.00820346,-0.0103556,0.0160126,8.66203e-06,2.94343e-07,0.0192954,0.019694935786688017,0.016141488708191654,8.662067515485816e-06,-0.008169903444662063,2.9434304327224936e-07,-0.010302165382558348
35,0.022887,463.744,32.8514,0.0329125,124.28,-0.067154,0.0495761,0.0203835,-0.00859025,-0.0108394,0.0167444,8.33149e-06,5.75931e-07,0.0202502,0.020592662271900597,0.016885373203767484,8.331524707028137e-06,-0.008553459225156712,5.759311658692923e-07,-0.010780865388077765
36,0.023887,468.677,34.0858,0.0520743,125.457,0.157916,-0.0367961,0.0212626,-0.0089714,-0.0113254,0.0174744,1.20737e-05,-6.57936e-07,0.0212036,0.021490259762474206,0.017627970541256754,1.2073772887477574e-05,-0.008931277066963839,-6.579357835212463e-07,-0.011261509081621046
37,0.024887,473.035,34.4086,-0.0389008,126.638,0.165819,-0.0756975,0.0221408,-0.00935599,-0.0118102,0.0182047,1.31399e-05,-1.51888e-06,0.0221576,0.02238772652857479,0.018371415684094616,1.3139986328791764e-05,-0.009312358902287987,-1.5188788464737257e-06,-0.011740733328674757
38,0.025887,477.099,33.9339,0.154136,127.811,-0.0456667,0.0828713,0.0230184,-0.00974578,-0.0122907,0.018935,1.02725e-05,9.69851e-07,0.0231115,0.02328536782476487,0.01911540396322242,1.0272552762202736e-05,-0.00969844378700957,9.698514702449756e-07,-0.012215477839807476
39,0.026887,481.542,34.9436,-0.0422427,128.929,0.146663,-0.0683173,0.0238948,-0.0101266,-0.0127762,0.0196634,1.35157e-05,-1.24537e-06,0.0240639,0.02418256821691167,0.019857998043400382,1.3515791337459504e-05,-0.010075498626077817,-1.2453692245228964e-06,-0.012694930828685558
40,0.027887,485.672,35.2353,-0.0587649,130.038,0.146101,-0.073019,0.0247704,-0.0105106,-0.0132593,0.0203917,1.43394e-05,-1.6575e-06,0.0250162,0.02507973519602613,0.020601031166043615,1.4339502809601612e-05,-0.010455556658792942,-1.657498626350673e-06,-0.013171782714754943
41,0.028887,489.548,34.9035,0.126161,131.137,-0.0249189,0.0655198,0.0256454,-0.0108986,-0.0137391,0.0211198,1.20948e-05,4.70669e-07,0.0259684,0.025977072492137765,0.021344401367917376,1.2094873142354245e-05,-0.010839425427452531,4.7066911079696183e-07,-0.013645149323677774
42,0.029887,493.736,35.8651,-0.0484178,132.186,0.158201,-0.0745382,0.0265193,-0.0112786,-0.0142234,0.0218462,1.52618e-05,-1.63314e-06,0.0269193,0.02687406573990203,0.02208657546606907,1.526191646195052e-05,-0.011215235037441929,-1.6331386664125702e-06,-0.014122725323497565
43,0.030887,497.274,35.2186,0.0782124,133.251,-0.0840183,0.068899,0.0273925,-0.0116675,-0.0147019,0.0225733,1.18115e-05,5.65344e-07,0.0278708,0.027771123772644346,0.022830004856092545,1.1811569756048357e-05,-0.011599698668737113,5.653441597086584e-07,-0.014594354753090455
44,0.031887,501.427,36.3718,-0.0426413,134.25,0.146698,-0.0678915,0.0282647,-0.0120462,-0.0151854,0.0232981,1.54966e-05,-1.45807e-06,0.0288204,0.02866793679010282,0.023571620772753876,1.5496720072949444e-05,-0.011973934996730051,-1.4580689370324862e-06,-0.015070683220880898
45,0.032887,504.808,35.7317,0.071583,135.274,-0.0904083,0.0695016,0.0291363,-0.0124344,-0.0156632,0.024024,1.2082e-05,6.59892e-07,0.0297708,0.029564914609957693,0.024314901153248858,1.2082072987640302e-05,-0.012357412277408275,6.598922177580846e-07,-0.01554117004018607
46,0.033887,508.453,35.9957,0.0460878,136.255,-0.086744,0.0601427,0.0300069,-0.012818,-0.0161428,0.0247484,1.16971e-05,8.94937e-07,0.03072,0.030461644114331055,0.025057183689919382,1.1697168411428649e-05,-0.012736199318059471,8.949374004085797e-07,-0.01601320329241296
47,0.034887,512.492,37.2362,0.0393558,137.185,0.161175,-0.0404462,0.0308765,-0.0131955,-0.0166248,0.0254709,1.56527e-05,-5.29776e-07,0.0316678,0.031358123292706264,0.025798055112708607,1.5652822504153008e-05,-0.013108821066036835,-5.297758596256585e-07,-0.016487370644914012
48,0.035887,515.546,36.4889,0.0502036,138.156,-0.0912413,0.0631073,0.0317455,-0.0135831,-0.0171018,0.0261949,1.20507e-05,1.12161e-06,0.0326167,0.03225476303539021,0.026541001818864762,1.205077261001719e-05,-0.013491265964382326,1.1216106290401484e-06,-0.016956394298082045
49,0.036887,518.998,36.7703,0.0405002,139.076,-0.0807685,0.0556443,0.0326136,-0.0139656,-0.0175802,0.0269173,1.17896e-05,1.34743e-06,0.0335642,0.03315125246011674,0.02728284295933725,1.178966949755278e-05,-0.013868533398154526,1.3474309077388114e-06,-0.01742656988408242
50,0.037887,522.794,37.9328,0.0340289,139.951,0.151998,-0.0378737,0.0334808,-0.0143426,-0.0180608,0.0276379,1.54901e-05,2.54408e-08,0.0345103,0.03404758982195699,0.028023369755734384,1.5490219972269514e-05,-0.014240234890929626,2.5440800355269744e-08,-0.017898681217155543
51,0.038887,525.688,37.2755,0.0483256,140.861,-0.0749489,0.0554048,0.0343472,-0.0147286,-0.0185369,0.0283598,1.22964e-05,1.50022e-06,0.0354574,0.03494387686926137,0.028765767762680472,1.229647560108127e-05,-0.014620664732578725,1.500221125327883e-06,-0.01836614836564332
52,0.039887,529.333,38.4902,-0.0348194,141.699,0.179418,-0.0773154,0.0352126,-0.0151044,-0.0190174,0.0290791,1.63926e-05,-5.0653e-07,0.0364024,0.03583990495573608,0.029506025181095685,1.6392734359493843e-05,-0.014990900715073918,-5.065298717132904e-07,-0.01883771012956692
53,0.040887,532.074,37.6659,0.0719608,142.576,-0.0945129,0.0708466,0.0360775,-0.0154908,-0.0194918,0.0297998,1.25181e-05,1.7238e-06,0.0373484,0.03673619043231424,0.0302482576047709,1.2518178351683673e-05,-0.015371434707135645,1.7238014857756667e-06,-0.019303063129422426
54,0.041887,535.193,37.947,0.0496469,143.407,-0.0770273,0.0565622,0.0369413,-0.0158716,-0.0199684,0.0305188,1.2374e-05,1.85515e-06,0.038293,0.0376321100455832,0.030989272464907902,1.237407655829692e-05,-0.01574630988403547,1.8551517206866208e-06,-0.01977035192576948
55,0.042887,538.627,39.0309,0.032367,144.195,0.143709,-0.0342027,0.0378043,-0.0162474,-0.020447,0.0312361,1.58567e-05,5.87385e-07,0.0392362,0.03852797306584477,0.03172906636540951,1.5856825718030265e-05,-0.016116122928557797,5.873851725013424e-07,-0.020239377588543883
56,0.043887,541.608,39.3573,-0.0575979,144.992,0.178266,-0.0827846,0.0386665,-0.0166258,-0.0209245,0.0319537,1.71772e-05,-3.91304e-07,0.0401796,0.03942377801023933,0.032469700851304406,1.7177347529040432e-05,-0.016488354157051632,-3.913039234859639e-07,-0.02070710160774869
57,0.044887,544.237,38.6859,0.150124,145.793,-0.0613897,0.0872281,0.039528,-0.0170104,-0.0213973,0.0326714,1.39014e-05,2.17907e-06,0.041123,0.04031962742672435,0.03321097032833875,1.3901496624946219e-05,-0.016866540006242325,2.179072374097757e-06,-0.021170001851867792
58,0.045887,547.37,39.7467,-0.0662827,146.54,0.172586,-0.0836665,0.0403884,-0.0173846,-0.0218758,0.033387,1.76749e-05,-3.25209e-07,0.0420646,0.04121510361277503,0.033950600706892375,1.7675056201982287e-05,-0.01723435972361087,-3.252089471050823e-07,-0.021638259966293427
59,0.046887,549.82,39.0062,0.083714,147.313,-0.0783366,0.067052,0.0412483,-0.0177687,-0.022348,0.0341035,1.41788e-05,1.90139e-06,0.0430068,0.04211082954254142,0.03469169177646991,1.4178900519690174e-05,-0.017611767520233634,1.9013918075572178e-06,-0.022100133323055604
60,0.047887,552.93,40.1617,-0.0565977,148.023,0.176247,-0.0819102,0.042107,-0.0181421,-0.0228255,0.0348176,1.82174e-05,-3.17466e-07,0.043947,0.04300607443025184,0.035430828991100505,1.8217565937783675e-05,-0.017978522808767994,-3.1746594963966146e-07,-0.022566969043495533
61,0.048887,555.243,39.3802,0.0770844,148.768,-0.0818409,0.0663229,0.0429652,-0.0185257,-0.0232969,0.0355329,1.4618e-05,1.86959e-06,0.0448881,0.04390156644398968,0.03617173761745729,1.4618106843444778e-05,-0.018355154004936702,1.869591747638566e-06,-0.02302762238976419
62,0.049887,558.254,40.5426,-0.0557339,149.448,0.17609,-0.0813144,0.0438224,-0.0188984,-0.0237736,0.0362456,1.86882e-05,-3.26936e-07,0.045827,0.04479678250153141,0.03691048043459033,1.8688374625597248e-05,-0.018720944869677236,-3.269359465374322e-07,-0.023493234134794316
63,0.050887,560.461,39.7616,0.0759412,150.164,-0.0800256,0.0651022,0.0446789,-0.0192813,-0.0242442,0.0369596,1.51249e-05,1.82701e-06,0.0467668,0.045692034282589944,0.03765109888694429,1.5125014381833779e-05,-0.01909660469522334,1.8270116690644045e-06,-0.023952670105047646
64,0.051887,563.356,40.8913,-0.0548601,150.816,0.171625,-0.0789931,0.0455344,-0.0196535,-0.02472,0.0376711,1.90867e-05,-3.11789e-07,0.0477045,0.046587006587737845,0.03838965035232955,1.9086882152130613e-05,-0.01946162900371795,-3.1178895143479934e-07,-0.024416962960582267
65,0.052887,565.477,40.144,0.0736939,151.503,-0.0740393,0.0618273,0.0463894,-0.0200355,-0.02519,0.0383837,1.56846e-05,1.7528e-06,0.048643,0.047482221128051005,0.03912987052629524,1.5684723003950296e-05,-0.01983612312850669,1.7528015361367721e-06,-0.024875379251723673
66,0.053887,568.248,41.2112,-0.0521586,152.13,0.163438,-0.0746195,0.0472432,-0.0204074,-0.0256648,0.0390939,1.94232e-05,-2.6802e-07,0.0495794,0.04837694335101461,0.039868122682653384,1.9423388631478744e-05,-0.020200578299675476,-2.6801996411141005e-07,-0.0253382585254196
67,0.054887,570.633,41.4618,-0.102715,152.767,0.187666,-0.100037,0.0480964,-0.0207827,-0.0261377,0.0398043,2.06036e-05,-1.02079e-06,0.0505158,0.04927180025075084,0.04060710745331919,2.0603812255659548e-05,-0.02056822802885261,-1.0207894789449057e-06,-0.025799067096188733
68,0.055887,572.695,40.7355,0.151206,153.408,-0.060426,0.0873637,0.0489489,-0.0211639,-0.026606,0.0405147,1.72375e-05,1.73554e-06,0.0514522,0.05016668585125483,0.041346617385281226,1.723764856653709e-05,-0.020941516267069527,1.7355415060649193e-06,-0.026255178586226502
69,0.056887,575.218,41.689,-0.0687008,154.003,0.158191,-0.0776566,0.0498003,-0.0215351,-0.0270799,0.0412232,2.07048e-05,-6.52494e-07,0.0523869,0.05106117849907532,0.04208467288898743,2.070501434592309e-05,-0.02130487533261638,-6.52493787112185e-07,-0.026716526931969797
70,0.057887,577.449,41.9048,-0.120319,154.603,0.176389,-0.100996,0.050651,-0.0219096,-0.0275515,0.0419316,2.17457e-05,-1.379e-06,0.0533214,0.05195569667298372,0.04282314720798319,2.174593643955447e-05,-0.02167132803425298,-1.3789990491730464e-06,-0.027175419202566276
71,0.058887,579.431,41.2629,0.156872,155.202,-0.0499454,0.0847351,0.0515011,-0.0222894,-0.0280187,0.04264,1.87015e-05,1.33767e-06,0.0542557,0.052850344426875306,0.043562144847524964,1.8701674874055385e-05,-0.022042826711801022,1.337670894718812e-06,-0.02762981669119613
72,0.059887,581.421,41.1664,0.0884854,155.787,-0.108287,0.0817498,0.0523503,-0.022666,-0.0284877,0.0433476,1.74949e-05,1.68526e-06,0.0551892,0.05374480467343057,0.04430083073746549,1.7495053036720165e-05,-0.022411056041326538,1.6852614199702742e-06,-0.028085751382125546
73,0.060887,584.031,42.483,0.0221437,156.316,0.195443,-0.05582,0.0531985,-0.0230346,-0.02896,0.0440528,2.21811e-05,-2.57364e-07,0.0561207,0.05463897017873687,0.045037531413429255,2.21813460024034e-05,-0.022771328923698486,-2.573639669156691e-07,-0.028544678097673026
74,0.061887,585.614,41.5524,0.0665512,156.901,-0.0843795,0.0630125,0.0540462,-0.0234143,-0.0294265,0.0447599,1.8314e-05,1.52094e-06,0.0570535,0.055533366670151185,0.045776738767852265,1.8314167702371265e-05,-0.023142312214471272,1.520941156574196e-06,-0.028997756316629153
75,0.062887,588.001,42.6252,-0.0490237,157.416,0.162023,-0.0726144,0.0548928,-0.0237833,-0.0298977,0.0454642,2.2127e-05,-4.71178e-07,0.0579839,0.056427359592182036,0.046513538758626405,2.2127244803771262e-05,-0.023502706204483692,-4.711778890387208e-07,-0.029455184795239675
76,0.063887,589.978,42.8284,-0.0988202,157.947,0.1815,-0.0959354,0.0557387,-0.0241559,-0.030367,0.0461687,2.31847e-05,-1.16634e-06,0.0589144,0.057321369563869684,0.04725106731061013,2.318496876729803e-05,-0.023866481320639177,-1.1663393197913763e-06,-0.029910554616129126
77,0.064887,591.668,42.1277,0.144947,158.482,-0.0527698,0.081715,0.056584,-0.0245339,-0.0308318,0.0468733,2.00313e-05,1.42356e-06,0.0598448,0.058215501169044614,0.04798922043344356,2.003150062779291e-05,-0.02423539006255515,1.4235610132917742e-06,-0.03036134741798069
78,0.065887,593.422,42.0315,0.0811675,159.001,-0.107126,0.0784023,0.0574284,-0.0249086,-0.0312985,0.047577,1.88894e-05,1.74065e-06,0.0607742,0.05910943570427696,0.048726949987563106,1.8889578405900664e-05,-0.024600940571733787,1.7406515149254176e-06,-0.030813772195606992
79,0.066887,595.78,43.2991,0.0215735,159.465,0.18869,-0.0530185,0.0582718,-0.0252754,-0.0317683,0.0482784,2.34262e-05,-1.09366e-07,0.0617016,0.06000306539301814,0.04946278509749047,2.3426474395460417e-05,-0.024958651338566895,-1.0936599403876812e-07,-0.031268988946642096
80,0.067887,597.155,42.4186,0.0631697,159.984,-0.0744442,0.0575063,0.0591147,-0.025653,-0.0322325,0.0489815,1.9817e-05,1.53195e-06,0.0626303,0.06089691863836588,0.05020092184325731,1.9817196358129507e-05,-0.025326757449014026,1.531951173472379e-06,-0.03171856952624741
81,0.068887,599.271,43.3809,-0.0448764,160.44,0.147899,-0.0654297,0.0599565,-0.0260206,-0.0327011,0.049682,2.32509e-05,-2.65832e-07,0.0635567,0.06179035766020036,0.050936845316111645,2.3251170304217084e-05,-0.025684981487363645,-2.658319646631213e-07,-0.03217219991066744
82,0.069887,601.013,43.5456,-0.0907601,160.91,0.161462,-0.0851088,0.0607977,-0.0263914,-0.0331678,0.0503828,2.41283e-05,-8.61864e-07,0.0644831,0.06268391148511188,0.051673599985992524,2.4128591089800366e-05,-0.026046190523934087,-8.618636285762094e-07,-0.0326237797606147
83,0.070887,602.537,42.9725,0.134586,161.382,-0.0348839,0.0710693,0.0616382,-0.0267668,-0.0336306,0.0510833,2.15292e-05,1.40419e-06,0.0654092,0.06357747277924486,0.05241055543129214,2.1529431754929718e-05,-0.0264117441652999,1.404190985931919e-06,-0.03307137789314463
84,0.071887,604.088,42.8945,0.0694074,161.842,-0.0808125,0.0634847,0.0624778,-0.0271393,-0.0340951,0.0517831,2.06143e-05,1.59442e-06,0.0663345,0.06447082740318222,0.05314729009137431,2.0614512476146984e-05,-0.026774338253256813,1.5944212710117256e-06,-0.03352041194188171
85,0.072887,606.152,43.9478,0.0302881,162.254,0.162976,-0.0400084,0.0633166,-0.0275053,-0.0345619,0.0524809,2.43726e-05,1.50674e-07,0.0672579,0.06536408011102046,0.05388243273183746,2.4372897014179884e-05,-0.027130473668699584,1.506740112677818e-07,-0.03397145933093637
86,0.073887,607.709,44.0623,-0.0682614,162.69,0.169388,-0.0807316,0.0641546,-0.027875,-0.0350272,0.0531792,2.51838e-05,-6.85757e-07,0.0681816,0.06625722938743284,0.0546186158430324,2.518411711460722e-05,-0.02749007705580231,-6.857567648177465e-07,-0.034420847852562164
87,0.074887,609.072,43.4386,0.146093,163.129,-0.0367296,0.074761,0.064992,-0.0282493,-0.0354884,0.0538773,2.24548e-05,1.58147e-06,0.069105,0.06715048714614658,0.055355102139384105,2.2455052110847973e-05,-0.027854019403900865,1.5814712506223572e-06,-0.034866070281348804
88,0.075887,610.484,43.3463,0.0706021,163.554,-0.0831324,0.0644243,0.0658284,-0.0286205,-0.0359513,0.0545746,2.15275e-05,1.73622e-06,0.0700275,0.06804342518822915,0.05609125788297753,2.1527731718373744e-05,-0.028214813024459273,1.7362215072314058e-06,-0.03531272739065194
89,0.076887,612.423,44.3976,0.0317607,163.932,0.162821,-0.0393166,0.0666641,-0.0289853,-0.0364165,0.0552698,2.53034e-05,2.93566e-07,0.0709481,0.06893636214039578,0.056825707790665536,2.5303720133651453e-05,-0.028569255606410326,2.935660430303244e-07,-0.03576139554156643
90,0.077887,613.851,44.4956,-0.0678755,164.335,0.167387,-0.0797722,0.0674989,-0.0293538,-0.0368801,0.0559655,2.60729e-05,-5.32335e-07,0.071869,0.06982908278526367,0.05756119724591802,2.607323990111432e-05,-0.028927161887436936,-5.323348583052834e-07,-0.03620831295513249
91,0.078887,615.098,43.8804,0.144648,164.741,-0.0343157,0.073127,0.0683332,-0.0297267,-0.0373398,0.0566611,2.34097e-05,1.69025e-06,0.0727895,0.07072201362333641,0.05829709272949879,2.3409974009069856e-05,-0.029289207441180354,1.6902514283767545e-06,-0.03665126617306924
92,0.079887,616.393,43.7884,0.0689824,165.133,-0.0785541,0.061722,0.0691666,-0.0300966,-0.0378012,0.0573558,2.2532e-05,1.81572e-06,0.0737092,0.07161472529077217,0.059032547150333015,2.253225384740709e-05,-0.02964820696229309,1.8157216483682959e-06,-0.037095652750989694
93,0.080887,618.197,44.7893,0.0323036,165.481,0.156749,-0.0367911,0.0699991,-0.0304603,-0.0382647,0.0580485,2.61411e-05,4.49764e-07,0.074627,0.07250721599728771,0.05976639313395693,2.614144168155974e-05,-0.03000105973925382,4.497641010736686e-07,-0.03754185550046418
94,0.081887,619.505,44.8693,-0.0650939,165.853,0.158655,-0.075416,0.0708309,-0.0308276,-0.0387266,0.0587418,2.68316e-05,-3.32399e-07,0.0755451,0.07339969863162343,0.060501383929435715,2.6831959970552433e-05,-0.03035727492708762,-3.323989447023834e-07,-0.03798631226221727
95,0.082887,620.664,44.3064,0.139828,166.227,-0.027052,0.0685456,0.0716621,-0.031199,-0.0391849,0.0594347,2.43992e-05,1.75499e-06,0.0764627,0.07429227936628946,0.061236459976046875,2.4399497662974667e-05,-0.030717333368188382,1.7549915400927318e-06,-0.03842710212059619
96,0.083887,622.221,45.2075,-0.0960594,166.567,0.200279,-0.0925918,0.0724922,-0.0315615,-0.0396482,0.060126,2.80821e-05,-6.21217e-07,0.0773787,0.07518441961897482,0.06197034637943677,2.8082494305969874e-05,-0.031068634657636762,-6.212168069952284e-07,-0.03887249566080331
97,0.084887,623.457,45.2101,-0.125481,166.915,0.177648,-0.102143,0.0733217,-0.0319282,-0.0401087,0.0608173,2.85377e-05,-1.14863e-06,0.0782946,0.07607665509855388,0.0627047402938985,2.8538107204045815e-05,-0.03142387665170743,-1.1486293403084602e-06,-0.03931499298372321
98,0.085887,624.547,44.5818,0.143514,167.265,-0.0288357,0.0699706,0.0741506,-0.0322991,-0.0405654,0.0615084,2.58376e-05,1.29219e-06,0.0792101,0.07696898481292358,0.06343942938248848,2.5837933793626533e-05,-0.03178305492212952,1.292190834778495e-06,-0.03975363765429285
99,0.086887,625.656,44.4693,0.0761486,167.607,-0.0757665,0.0622596,0.0749786,-0.0326667,-0.0410239,0.0621987,2.49424e-05,1.45872e-06,0.0801247,0.07786108441061468,0.06417377505083799,2.4942711064346312e-05,-0.03213890606169345,1.4587210639405157e-06,-0.040193809694276994
100,0.087887,627.251,45.4238,0.0251402,167.908,0.15269,-0.037594,0.0758058,-0.0330284,-0.0414846,0.0628871,2.8437e-05,7.43946e-08,0.0810376,0.0787530599698687,0.06490660448853514,2.843740433533526e-05,-0.032488918115875065,7.439460270042275e-08,-0.04063589056500316
101,0.088887,628.377,45.4786,-0.0667345,168.232,0.150982,-0.0729881,0.0766322,-0.0333936,-0.0419437,0.063576,2.9037e-05,-6.53342e-07,0.0819506,0.07964490996028739,0.06564047139980156,2.9037421577671196e-05,-0.032842188651852955,-6.533417865606239e-07,-0.04107623353918077
102,0.089887,629.381,44.9556,0.13509,168.556,-0.0211905,0.0643464,0.077458,-0.0337625,-0.0423993,0.0642645,2.67977e-05,1.32705e-06,0.0828632,0.08053684895785684,0.06637441749631123,2.67980590615835e-05,-0.033198907367646746,1.327050880517433e-06,-0.04151301969973753
103,0.090887,630.734,45.7659,-0.0919682,168.852,0.18549,-0.0858963,0.0782828,-0.0341233,-0.0428596,0.0649515,3.01469e-05,-8.80604e-07,0.0837742,0.081428443393877,0.06710726842660208,3.0147354422416228e-05,-0.03354766628197703,-8.806036122521732e-07,-0.04195410973211078
104,0.091887,631.799,45.7478,-0.116789,169.155,0.160364,-0.0927003,0.0791069,-0.0344879,-0.0433171,0.0656385,3.04864e-05,-1.32967e-06,0.0846851,0.08232001589606885,0.06784062299846316,3.0486864714962536e-05,-0.03389997057387539,-1.3296691160347152e-06,-0.04239231547970024
105,0.092887,632.763,45.2156,0.133033,169.458,-0.0169406,0.0616161,0.0799306,-0.034856,-0.0437714,0.0663251,2.81998e-05,8.48786e-07,0.0855955,0.08321189016115182,0.06857405412830797,2.8200197618177825e-05,-0.03425552655061492,8.487863603079404e-07,-0.04282725784613872
106,0.093887,634.027,45.9931,-0.107248,169.738,0.183727,-0.0905565,0.080753,-0.0352159,-0.0442305,0.0670103,3.14611e-05,-1.39956e-06,0.0865043,0.0841030900307771,0.06930649197474636,3.146159490552414e-05,-0.03460303544863219,-1.3995590205650998e-06,-0.04326659499450247
107,0.094887,635.032,45.9662,-0.119732,170.023,0.156531,-0.0922326,0.0815749,-0.0355797,-0.0446867,0.0676954,3.17539e-05,-1.78066e-06,0.087413,0.08499448062725978,0.07003932485563791,3.175440416036679e-05,-0.03495418298672581,-1.7806584146073945e-06,-0.043702957232071626
108,0.095887,635.943,45.4546,0.128267,170.308,-0.0141955,0.058839,0.0823963,-0.0359467,-0.0451399,0.0683801,2.95604e-05,3.43766e-07,0.0883212,0.08588606121566555,0.0707722316633792,2.9560836912967403e-05,-0.03530828981899148,3.437660591742997e-07,-0.04413625285964862
109,0.096887,637.133,46.1921,-0.103987,170.572,0.176725,-0.0869976,0.0832165,-0.0363059,-0.0455977,0.0690635,3.26664e-05,-1.80936e-06,0.0892279,0.08677707031595627,0.07150424750782225,3.266693355263861e-05,-0.03565474485423903,-1.8093583631362264e-06,-0.044573747133009434
110,0.097887,638.076,46.1586,-0.115015,170.841,0.148873,-0.0878174,0.0840362,-0.0366687,-0.0460527,0.0697467,3.29154e-05,-2.16026e-06,0.0901344,0.08766826668742689,0.07223654933553969,3.291594171761503e-05,-0.036004545855067516,-2.160257666639076e-06,-0.04500836719450185
111,0.098887,638.942,45.6874,0.123665,171.108,-0.00959016,0.0554214,0.0848553,-0.0370345,-0.0465048,0.0704296,3.08935e-05,-1.49225e-07,0.0910403,0.08855954073612571,0.07296902975205288,3.0893977209123236e-05,-0.036357110904114975,-1.4922498892122604e-07,-0.045440021328923885
112,0.099887,640.053,46.3637,-0.0976641,171.358,0.165792,-0.0809824,0.0856733,-0.0373931,-0.0469612,0.0711112,3.37565e-05,-2.15924e-06,0.0919449,0.08945034673042773,0.07370061473857215,3.375706975705661e-05,-0.03670261129222263,-2.159237668886149e-06,-0.04587558310043238
113,0.1009,640.939,46.326,-0.108142,171.611,0.137931,-0.0814421,0.0864907,-0.0377551,-0.047415,0.0717926,3.39575e-05,-2.47874e-06,0.0928492,0.09034122749721174,0.07443248365687793,3.395807656247918e-05,-0.037051261837378835,-2.478736927935543e-06,-0.046308466532141934
114,0.1019,641.77,45.9142,0.117962,171.862,-0.00317718,0.0509725,0.0873076,-0.0381196,-0.0478661,0.0724735,3.21781e-05,-6.22042e-07,0.0937529,0.09123229115135123,0.07516431385831734,3.217861772064623e-05,-0.037402192691405545,-6.220418065083777e-07,-0.04673857976355633
115,0.1029,642.797,46.5099,-0.0892871,172.099,0.151304,-0.0729982,0.0881234,-0.0384777,-0.0483211,0.0731534,3.47175e-05,-2.44435e-06,0.0946554,0.09212288167695504,0.0758955666365222,3.4718102659425654e-05,-0.037746837253910925,-2.444347012575676e-06,-0.04717221505025504
116,0.1039,643.423,45.6773,0.178296,172.349,-0.102788,0.109875,0.0889388,-0.038844,-0.0487701,0.0738335,3.11252e-05,2.682e-07,0.095558,0.09301376183715537,0.07662753208803008,3.112568439411767e-05,-0.03809924603981529,2.68200035957733e-07,-0.04759993869455348
117,0.1049,644.21,45.67,0.0975997,172.588,-0.114442,0.0830323,0.0897533,-0.0392056,-0.0492217,0.0745126,3.05294e-05,2.62724e-07,0.0964594,0.09390438420289282,0.07735891815910345,3.0529866026807184e-05,-0.03844700647357158,2.627240345276505e-07,-0.048029945459403534
118,0.1059,645.478,46.7266,0.0119392,172.787,0.151044,-0.0418184,0.0905669,-0.039561,-0.0496756,0.0751899,3.44595e-05,-1.44455e-06,0.0973591,0.09479474696033563,0.07808886052144937,3.446009373542225e-05,-0.03878868168818883,-1.444548956675007e-06,-0.04846194661707981
119,0.1069,646.256,46.7763,-0.0758692,173.014,0.154323,-0.0773204,0.0913799,-0.0399205,-0.0501276,0.0758677,3.51078e-05,-2.1813e-06,0.098259,0.09568517700038015,0.0788198368510038,3.510841628595607e-05,-0.039134175050968945,-2.1812976209734103e-06,-0.04889194463033708
120,0.1079,646.895,46.1914,0.133285,173.245,-0.0284754,0.0657103,0.0921923,-0.040284,-0.0505761,0.0765452,3.27038e-05,-1.39887e-07,0.0991585,0.09657567330879901,0.07955098493891843,3.270433477520207e-05,-0.03948338630534731,-1.3988699021361128e-07,-0.04931842094870709
121,0.1089,647.916,47.0075,-0.0963461,173.447,0.186986,-0.0880833,0.0930036,-0.040639,-0.0510293,0.0772211,3.61418e-05,-2.38784e-06,0.100056,0.09746568613744055,0.08028090009667821,3.6142453122778306e-05,-0.03982430918581725,-2.3878371491203865e-06,-0.049749172224721305
122,0.1099,648.635,46.9422,-0.11464,173.661,0.155337,-0.090206,0.0938144,-0.0409982,-0.0514797,0.0778971,3.63516e-05,-2.75729e-06,0.100954,0.09835587214840258,0.08101141687199465,3.6352260727401386e-05,-0.04016914235821223,-2.757286198695752e-06,-0.05017706882800266
123,0.1109,649.277,46.4195,0.12412,173.874,-0.0128706,0.0564439,0.0946247,-0.0413604,-0.051927,0.0785727,3.41916e-05,-7.08143e-07,0.101851,0.0992462305916113,0.08174199494671863,3.419218453948325e-05,-0.04051673014290236,-7.081427492172665e-07,-0.05060182962028259
124,0.1119,650.193,47.1025,-0.0992037,174.069,0.168497,-0.0825679,0.0954338,-0.0417152,-0.0523787,0.079247,3.71257e-05,-2.7496e-06,0.102747,0.10013599062066314,0.08247165955268598,3.712638916741895e-05,-0.0408570944228539,-2.74959621981985e-06,-0.05103057593419824
125,0.1129,650.875,47.0359,-0.10692,174.269,0.136562,-0.0806118,0.0962424,-0.0420735,-0.0528278,0.0799212,3.72552e-05,-3.02977e-06,0.103643,0.10102592033277258,0.08320170801724047,3.725589398362317e-05,-0.04120069376642388,-3.0297654102229288e-06,-0.05145666241766489
126,0.1139,651.514,46.6208,0.113268,174.468,-0.0014979,0.0484318,0.0970505,-0.0424343,-0.0532742,0.0805949,3.55174e-05,-1.23207e-06,0.104538,0.10191601897491176,0.08393170688043816,3.551803075030335e-05,-0.0415465661569816,-1.2320692409639733e-06,-0.051879997668103806
127,0.1149,652.341,47.1729,-0.0853285,174.654,0.144752,-0.0694776,0.0978575,-0.0427888,-0.0537244,0.0812675,3.79153e-05,-2.95958e-06,0.105431,0.10280562410961691,0.08466100458180903,3.791601879399309e-05,-0.0418862776818536,-2.9595756204647827e-06,-0.05230674522507073
128,0.1159,652.799,46.3825,0.170077,174.854,-0.0943482,0.103305,0.0986641,-0.0431511,-0.054169,0.0819403,3.45479e-05,-4.10826e-07,0.106325,0.10369550596713006,0.08539101005199479,3.454849678563576e-05,-0.0422333394094212,-4.1082591561991677e-07,-0.05272799599515843
129,0.1169,653.411,46.3788,0.0903687,175.043,-0.101915,0.0751201,0.0994698,-0.0435088,-0.0546159,0.0826122,3.40601e-05,-4.72623e-07,0.107218,0.10458511176585983,0.08612052932620395,3.406068005173957e-05,-0.04257587127843743,-4.7262288827010224e-07,-0.05315123727344051
130,0.1179,654.459,47.3204,0.0153053,175.196,0.136814,-0.0354768,0.100275,-0.043861,-0.0550649,0.0832824,3.75893e-05,-1.97523e-06,0.108109,0.10547488187122478,0.08684869128477501,3.759000648662081e-05,-0.04291301668178249,-1.9752280492335572e-06,-0.05357627693935896
131,0.1189,654.684,46.3575,0.0896976,175.404,-0.131355,0.0893735,0.101079,-0.0442229,-0.0555088,0.083954,3.37124e-05,-8.17956e-08,0.109,0.10636404107034991,0.08757886403040471,3.371296826926162e-05,-0.04325932379299391,-8.179559662924163e-08,-0.05399630119874421
132,0.1199,655.333,46.4435,0.062568,175.576,-0.119111,0.0728392,0.101883,-0.0445794,-0.0559544,0.0846239,3.34102e-05,-8.34131e-09,0.109891,0.10725391544093177,0.08830767720013433,3.3410758127017104e-05,-0.04360034105412314,-8.341309976067635e-09,-0.0544177465419341
133,0.1209,656.389,47.4561,0.00479049,175.715,0.137294,-0.0390855,0.102685,-0.0449304,-0.0564023,0.0852922,3.7162e-05,-1.53986e-06,0.110779,0.10814228927140435,0.08903523630760413,3.716269051556864e-05,-0.04393597842660846,-1.5398588144588388e-06,-0.05484117799870436
134,0.1219,656.568,46.4605,0.0884526,175.914,-0.139484,0.0917632,0.103488,-0.0452915,-0.0568449,0.085962,3.31467e-05,4.3464e-07,0.111669,0.10903248489539852,0.08976491645148332,3.314724935798985e-05,-0.044281150820172255,4.3464009436000595e-07,-0.055259412731148316
135,0.1229,657.191,46.5607,0.0660114,176.075,-0.123191,0.0756465,0.104289,-0.045647,-0.0572894,0.0866302,3.28821e-05,5.22184e-07,0.112557,0.10992117578898708,0.09049334070809745,3.288264062217827e-05,-0.044620848486217946,5.221841363756141e-07,-0.055679256604975635
136,0.1239,658.213,47.5869,0.000672463,176.204,0.138117,-0.0405107,0.10509,-0.045997,-0.0577362,0.0872967,3.66971e-05,-1.06653e-06,0.113444,0.11081057880915024,0.09122039678420224,3.669777334680546e-05,-0.044955172679101096,-1.066529431215102e-06,-0.05610108486967269
137,0.1249,658.757,47.6283,-0.0703036,176.364,0.142633,-0.0705419,0.10589,-0.0463511,-0.0581811,0.0879637,3.72956e-05,-1.70155e-06,0.11433,0.11169958282639092,0.09194848357881003,3.729629548954172e-05,-0.04529329418450989,-1.701548552390797e-06,-0.056520932095073695
138,0.1259,659.173,47.096,0.119103,176.528,-0.0207482,0.0579935,0.106689,-0.0467086,-0.0586228,0.0886304,3.51626e-05,1.18801e-07,0.115217,0.1125881857426605,0.0926767283662373,3.516321821139812e-05,-0.045634540830366555,1.1880100703187679e-07,-0.056937574777057076
139,0.1269,659.927,47.8002,-0.0829108,176.668,0.168302,-0.0765347,0.107487,-0.0470587,-0.0590687,0.0892957,3.81789e-05,-1.83572e-06,0.116101,0.11347638545943606,0.0934039280697776,3.817962882357584e-05,-0.04596860569615491,-1.8357183150241596e-06,-0.05735799257335039
140,0.1279,660.411,47.7107,-0.0989238,176.819,0.13458,-0.0767373,0.108285,-0.0474125,-0.059512,0.0899611,3.8263e-05,-2.12192e-06,0.116986,0.11436529424246533,0.09413172115342117,3.826373203796862e-05,-0.046306082300328066,-2.1219177487319385e-06,-0.05777577316733229
141,0.1289,660.865,47.2999,0.109054,176.969,0.00190221,0.0459799,0.109083,-0.0477685,-0.0599528,0.0906259,3.66019e-05,-4.19379e-07,0.11787,0.11525491265780907,0.09485934175593402,3.660256985771326e-05,-0.04664553690852369,-4.193789120421343e-07,-0.058191014080699266
142,0.1299,661.501,47.8038,-0.0795304,177.107,0.13839,-0.0648807,0.109879,-0.0481187,-0.060397,0.0912896,3.88411e-05,-2.03584e-06,0.118753,0.11614300898372987,0.09558624109592029,3.884185432534437e-05,-0.04697934318860719,-2.0358379276830263e-06,-0.058609272730121176
143,0.1309,661.801,47.0657,0.160072,177.257,-0.0829546,0.095632,0.110675,-0.048476,-0.060836,0.0919536,3.57426e-05,3.18654e-07,0.119635,0.11703181251575656,0.09631395193326897,3.5743238774310626e-05,-0.047319796643654266,3.186540507016389e-07,-0.059022452559784444
144,0.1319,662.248,47.0648,0.0819274,177.399,-0.0868133,0.0664896,0.11147,-0.048829,-0.0612773,0.0926166,3.5366e-05,2.04006e-07,0.120517,0.11792020589628471,0.09704104908947397,3.5366625384281036e-05,-0.04765603340615898,2.0400602074310825e-07,-0.059437614339285516
145,0.1329,663.083,47.8881,0.0188503,177.51,0.123899,-0.0290591,0.112264,-0.0491772,-0.0617203,0.0932781,3.84861e-05,-1.08448e-06,0.121397,0.11880818702162199,0.09776698181922572,3.848684059937213e-05,-0.04798758184939311,-1.084479411939121e-06,-0.059854191197546425
146,0.1339,663.201,47.0562,0.0804789,177.67,-0.10669,0.0769515,0.113058,-0.0495337,-0.0621588,0.0939407,3.51794e-05,5.17439e-07,0.122278,0.1196968734839543,0.09849460325573989,3.518001880231658e-05,-0.048326913786952086,5.17439133762565e-07,-0.06026635476124065
147,0.1349,663.687,47.1356,0.0517377,177.798,-0.0930763,0.0591141,0.113851,-0.0498855,-0.0625988,0.0946019,3.50015e-05,5.15769e-07,0.123157,0.12058514525783637,0.09922116806326753,3.500211255968999e-05,-0.0486616534945149,5.157691329582548e-07,-0.06067974661226905
148,0.1359,664.515,47.969,0.0126765,177.898,0.118795,-0.0292232,0.114643,-0.0502329,-0.0630406,0.0952615,3.81162e-05,-6.82697e-07,0.124035,0.12147300023704233,0.09994645351856946,3.811692643163056e-05,-0.04899209103576674,-6.826967670070516e-07,-0.061094646642050554
149,0.1369,664.62,47.1671,0.0739527,178.049,-0.103491,0.0734591,0.115434,-0.0505883,-0.063478,0.0959224,3.49266e-05,8.63228e-07,0.124914,0.12236043631492777,0.10067364840478077,3.492720994069387e-05,-0.049330019193222,8.632283725606982e-07,-0.06150523404159902
150,0.1379,665.085,47.2519,0.0494038,178.169,-0.0882805,0.0566052,0.116225,-0.0509392,-0.0639169,0.0965818,3.47881e-05,8.63467e-07,0.125791,0.12324857463244987,0.10139967195219568,3.4788705112864804e-05,-0.04966355076795004,8.634673727136999e-07,-0.061917049014971415
151,0.1389,665.873,48.0518,0.0126953,178.263,0.115264,-0.0277383,0.117015,-0.0512858,-0.0643575,0.0972397,3.77838e-05,-2.79454e-07,0.126666,0.1241362916084463,0.1021245212093913,3.77845138168631e-05,-0.049992880305148146,-2.794539609718427e-07,-0.06233027732229435
152,0.1399,665.969,47.2882,0.0720548,178.406,-0.0964939,0.0703498,0.117805,-0.05164,-0.0647938,0.0978988,3.47533e-05,1.19641e-06,0.127543,0.12502471015793892,0.10285117092242779,3.475390390295097e-05,-0.05032931324115375,1.1964107156092751e-06,-0.06273929338895545
153,0.1409,666.408,47.3694,0.0467087,178.52,-0.0817024,0.0533084,0.118594,-0.05199,-0.0652317,0.0985565,3.46351e-05,1.18112e-06,0.128418,0.1259127049221216,0.1035767547196198,3.463569980199921e-05,-0.05066163982097538,1.181120697468785e-06,-0.06314963000262186
154,0.1419,667.155,48.1292,0.0148298,178.608,0.11159,-0.0255009,0.119382,-0.0523359,-0.065671,0.0992128,3.74872e-05,1.15579e-07,0.129291,0.12680027378980663,0.1043012698673822,3.7487902653898786e-05,-0.050989959173655786,1.1557900658765163e-07,-0.06356109798460219
155,0.1429,667.244,47.4073,0.0684199,178.743,-0.0884916,0.0663062,0.120169,-0.0526891,-0.0661064,0.0998701,3.46338e-05,1.49713e-06,0.130165,0.12768741464941846,0.10502736569731841,3.4634399757038636e-05,-0.051325090332428935,1.4971311206313231e-06,-0.06396873473357967
156,0.1439,667.657,47.4838,0.0429763,178.85,-0.0744784,0.0494271,0.120956,-0.0530381,-0.0665431,0.100526,3.45337e-05,1.46869e-06,0.131038,0.12857525396369263,0.10575239089249955,3.453429629507454e-05,-0.05165612010784715,1.4686910785322027e-06,-0.06437741034630673
157,0.1449,668.365,48.2008,0.0172355,178.934,0.107683,-0.0231015,0.121742,-0.0533833,-0.0669812,0.101181,3.72301e-05,4.90306e-07,0.131909,0.12946266281930185,0.10647689595804066,3.7230793048737e-05,-0.05198343191791721,4.903061201488867e-07,-0.06478721682816957
158,0.1459,668.448,47.523,0.0641688,179.061,-0.0800068,0.0618828,0.122527,-0.0537353,-0.0674156,0.101836,3.45645e-05,1.76965e-06,0.132781,0.13034963910225805,0.10720187572984874,3.45650973592182e-05,-0.05231707502525029,1.7696515657306122e-06,-0.06519338503505778
159,0.1469,669.288,48.6343,-0.0282523,179.129,0.210354,-0.073019,0.123312,-0.0540777,-0.0678542,0.102489,3.90039e-05,-1.62413e-07,0.133651,0.13123731193495636,0.10792511466651367,3.900466066197872e-05,-0.05264150611298979,-1.624129868371682e-07,-0.06560330131516989
160,0.1479,669.55,48.4994,-0.0910321,179.238,0.171655,-0.0871475,0.124095,-0.0544254,-0.0682902,0.103143,3.91446e-05,-6.53146e-07,0.134521,0.13212341761530344,0.10864993468181572,3.914536615989839e-05,-0.052970845402360855,-6.531457866776336e-07,-0.0660106094761651
161,0.1489,669.737,47.8697,0.12377,179.348,-0.015639,0.058005,0.124879,-0.0547765,-0.068723,0.103797,3.6724e-05,1.36288e-06,0.135391,0.1330113503988839,0.10937522888445028,3.672467433424309e-05,-0.05330328897465597,1.36288092877912e-06,-0.06641475262149865
162,0.1499,670.277,48.5568,-0.0947898,179.435,0.174489,-0.0819841,0.125661,-0.0551196,-0.0691603,0.104449,3.97619e-05,-6.69147e-07,0.136259,0.13389771179703325,0.11009877738486207,3.976269051486625e-05,-0.0536280449011437,-6.691467760999714e-07,-0.06682292019783209
163,0.1509,670.557,48.4273,-0.0998251,179.534,0.133062,-0.0756928,0.126443,-0.0554667,-0.0695948,0.105101,3.97245e-05,-8.62969e-07,0.137127,0.13478476660088212,0.11082279779272142,3.9725289028291755e-05,-0.053956473604659716,-8.629686276684367e-07,-0.06722829756439563
164,0.1519,670.826,48.0303,0.10049,179.631,0.00796206,0.0412355,0.127224,-0.0558157,-0.070027,0.105753,3.81751e-05,7.41957e-07,0.137994,0.13567137968093856,0.1115472904158119,3.8175828678488344e-05,-0.05428658518754981,7.419572751743431e-07,-0.0676313543873347
165,0.1529,671.254,48.4654,-0.0734865,179.719,0.129118,-0.0590645,0.128005,-0.0561593,-0.0704624,0.106403,4.01745e-05,-7.1447e-07,0.13886,0.1365586854762808,0.11227003101983213,4.0175307006062866e-05,-0.05461147649735587,-7.144697448113746e-07,-0.06803721933242424
166,0.1539,671.4,47.8068,0.146735,179.818,-0.0668612,0.0852335,0.128785,-0.0565092,-0.0708931,0.107054,3.7455e-05,1.38575e-06,0.139726,0.13744554708201462,0.11299435455175488,3.74557014473087e-05,-0.05494221007651545,1.3857509602033247e-06,-0.06843852927375815
167,0.1549,672.027,48.7977,-0.114732,179.888,0.206697,-0.101025,0.129564,-0.0568493,-0.0713294,0.107703,4.16618e-05,-1.28568e-06,0.14059,0.13833196237712286,0.1137169223357426,4.166266786476136e-05,-0.0552635695805872,-1.285679173568255e-06,-0.06884488089138463
168,0.1559,672.276,48.6717,-0.121604,179.978,0.167048,-0.0955848,0.130342,-0.0571948,-0.0717622,0.108352,4.17671e-05,-1.55958e-06,0.141454,0.13921792924027354,0.11443995921842842,4.17679722575226e-05,-0.05558991963707849,-1.5595787838940112e-06,-0.06924779762946331
169,0.1569,672.439,48.0707,0.114506,180.071,-0.0136147,0.0537417,0.13112,-0.0575434,-0.072192,0.109001,3.94354e-05,4.90215e-07,0.142318,0.1401045856538441,0.11516346550435563,3.943617758550566e-05,-0.05591908361447839,4.902151200525395e-07,-0.0696477489703422
170,0.1579,672.917,48.7219,-0.0976676,180.145,0.167698,-0.0808749,0.131897,-0.0578844,-0.0726262,0.109649,4.23332e-05,-1.46779e-06,0.14318,0.14099079116315183,0.1158863256113829,4.233409606246852e-05,-0.05624096032386783,-1.4677889228487118e-06,-0.07005162023094347
171,0.1589,672.909,47.7309,0.176261,180.245,-0.11897,0.113845,0.132674,-0.0582346,-0.0730541,0.110297,3.82771e-05,1.3565e-06,0.144043,0.14187768552172364,0.11660965428355818,3.827783257759343e-05,-0.05657140687499418,1.356500920035586e-06,-0.07044946001875374
172,0.1599,673.167,47.763,0.0995985,180.329,-0.110353,0.0811012,0.13345,-0.0585791,-0.073485,0.110944,3.79822e-05,1.23749e-06,0.144904,0.14276412650030545,0.11733233449171698,3.798292133283532e-05,-0.05689636204858328,1.2374907656376166e-06,-0.07084991706176547
173,0.1609,673.82,48.6682,0.00422358,180.381,0.128845,-0.0351748,0.134225,-0.0589185,-0.0739178,0.11159,4.14728e-05,-3.24466e-07,0.145764,0.1436501119733684,0.11805436437033978,4.1473660008506386e-05,-0.057216397110281814,-3.244659473322642e-07,-0.07125196620795005
174,0.1619,673.724,47.7635,0.0967017,180.487,-0.120219,0.0866855,0.134999,-0.0592671,-0.0743456,0.112236,3.78843e-05,1.49278e-06,0.146625,0.1445356398151023,0.11877686083095407,3.788501761925467e-05,-0.05754499419644943,1.4927811142761982e-06,-0.07164919964251637
175,0.1629,674.026,47.8686,0.0623654,180.56,-0.0956553,0.0633887,0.135773,-0.0596104,-0.0747753,0.112882,3.78463e-05,1.42846e-06,0.147484,0.14542185332070345,0.11949982417506888,3.7847016180148074e-05,-0.05786848346983098,1.4284610203585402e-06,-0.07204802628738871
176,0.1639,674.638,48.6653,0.00732513,180.61,0.112268,-0.0280961,0.136546,-0.0599496,-0.0752067,0.113525,4.08817e-05,2.00095e-07,0.148341,0.14630760671290122,0.12021989403966571,4.088253566814082e-05,-0.05818800028712223,2.0009502010864821e-07,-0.07244825843256741
177,0.1649,674.586,47.9136,0.078208,180.706,-0.0948294,0.0712905,0.137319,-0.0602964,-0.0756338,0.11417,3.79158e-05,1.68287e-06,0.1492,0.14719404505717093,0.12094266894116923,3.7916518813130295e-05,-0.05851456405919164,1.6828714159977665e-06,-0.07284433119403189
178,0.1659,674.869,48.004,0.0485488,180.776,-0.0742125,0.0508439,0.138091,-0.0606389,-0.0760625,0.114814,3.79064e-05,1.60879e-06,0.150057,0.14808002080259053,0.1216647885175135,3.790711845663708e-05,-0.05883696760624224,1.6087912941831206e-06,-0.0732417176433775
179,0.1669,675.422,48.6827,0.0145038,180.824,0.101587,-0.0216582,0.138862,-0.0609778,-0.0764924,0.115456,4.04966e-05,6.38944e-07,0.150912,0.14896553181926087,0.12238512851613992,4.049741999834211e-05,-0.05915587371622788,6.389442042120663e-07,-0.0736400454022762
180,0.1679,675.4,48.0503,0.0652551,180.914,-0.0725146,0.0590485,0.139632,-0.0613231,-0.0769188,0.1161,3.80285e-05,1.84584e-06,0.151768,0.14985057597703388,0.12310817733563462,3.802922309259493e-05,-0.05948069111008325,1.8458417034850072e-06,-0.07403496108490959
181,0.1689,676.065,49.0607,-0.0304392,180.95,0.194833,-0.0679117,0.140402,-0.0616594,-0.0773492,0.116741,4.21123e-05,3.95242e-08,0.152622,0.1507363018812471,0.12382832045851977,4.21131867354152e-05,-0.059796934574343874,3.9524200801110965e-08,-0.07443341068515374
182,0.1699,676.202,48.9133,-0.0843716,181.024,0.154597,-0.0782031,0.141171,-0.0620009,-0.077777,0.117382,4.21536e-05,-3.64486e-07,0.153477,0.1516215584349132,0.12454892534112516,4.215448847544323e-05,-0.06011795910312856,-3.6448593354609926e-07,-0.07482928338885386
183,0.1709,676.299,48.3771,0.111155,181.098,-0.00471292,0.0496707,0.14194,-0.062345,-0.078202,0.118023,4.01195e-05,1.39925e-06,0.15433,0.15250749601268931,0.12526999227953306,4.0120304797941486e-05,-0.06044131687650567,1.3992509788618435e-06,-0.07522239740076886
184,0.1719,676.674,48.9303,-0.0812688,181.155,0.150901,-0.0690051,0.142708,-0.0626824,-0.0786309,0.118663,4.26267e-05,-3.13818e-07,0.155183,0.15339296174494588,0.125990395579058,4.2627608530576566e-05,-0.06075827050310789,-3.138179507367056e-07,-0.07561894946785397
185,0.1729,676.643,48.082,0.157686,181.233,-0.0946371,0.0987755,0.143475,-0.0630278,-0.0790542,0.119304,3.9177e-05,2.11403e-06,0.156035,0.15427795349755535,0.1267123867960882,3.917776742867751e-05,-0.061082628576612175,2.1140322346013818e-06,-0.07601015716159432
186,0.1739,676.833,48.1084,0.0836065,181.298,-0.0865308,0.0669297,0.144242,-0.0633682,-0.07948,0.119943,3.89661e-05,1.95111e-06,0.156887,0.15516362429922115,0.12743258609041952,3.8966859188249714e-05,-0.061402181658824495,1.951111903375491e-06,-0.0764035082862774
187,0.1749,677.366,48.867,0.0123613,181.336,0.114036,-0.0267267,0.145008,-0.0637043,-0.0799074,0.120581,4.19137e-05,7.02247e-07,0.157737,0.15604881862157716,0.1281521175864857,4.19145783914221e-05,-0.061717591377996484,7.02247246575638e-07,-0.07679816908181614
188,0.1759,677.265,48.119,0.0806631,181.419,-0.0911995,0.0708346,0.145773,-0.0640479,-0.0803306,0.12122,3.89831e-05,2.1557e-06,0.158587,0.15693353432843415,0.12887323716279075,3.8983859850905134e-05,-0.06203992983268114,2.155702323536346e-06,-0.07718878543641017
189,0.1769,677.947,49.2802,-0.0480803,181.443,0.21912,-0.082266,0.146537,-0.0643812,-0.0807586,0.121856,4.36963e-05,-2.09465e-08,0.159436,0.1578177692834033,0.12959142890239073,4.369725469732799e-05,-0.062352499831384134,-2.0946499756924197e-08,-0.07758366412617579
190,0.1779,678.042,49.1094,-0.0984628,181.508,0.172969,-0.0894901,0.147301,-0.0647204,-0.0811835,0.122494,4.37223e-05,-4.24037e-07,0.160284,0.15870268005200616,0.13031233817963628,4.3723255833683083e-05,-0.06267049592825424,-4.240369101404795e-07,-0.07797551557255344
191,0.1789,678.073,48.4759,0.116926,181.575,-0.0128006,0.0545084,0.148065,-0.0650626,-0.0816054,0.123131,4.13214e-05,1.55367e-06,0.161132,0.15958826715076158,0.13103257651061107,4.132225374076093e-05,-0.06299119520977103,1.5536712070218783e-06,-0.07836443565407314
192,0.1799,678.444,49.1137,-0.0932093,181.621,0.167067,-0.0786575,0.148827,-0.0653974,-0.0820317,0.123766,4.41912e-05,-3.69523e-07,0.161979,0.1604722101498417,0.13175101027527458,4.419217644535678e-05,-0.06330485324832935,-3.6952293169800754e-07,-0.07875724516185845
193,0.1809,678.333,48.1309,0.170343,181.694,-0.115158,0.110254,0.149589,-0.0657411,-0.0824517,0.124403,4.02016e-05,2.35507e-06,0.162826,0.1613568269701806,0.13247216533232042,4.020240809521347e-05,-0.06362674005085212,2.355072773241318e-06,-0.07914408587665378
194,0.1819,678.499,48.1745,0.0949731,181.749,-0.101802,0.0762978,0.150351,-0.0660792,-0.0828747,0.125038,4.00053e-05,2.19597e-06,0.163672,0.16224211812542544,0.13319151352618652,4.0006100222589325e-05,-0.06394327433690461,2.1959724112452506e-06,-0.07953352555602888
195,0.1829,679.025,49.004,0.00518693,181.777,0.119446,-0.0310705,0.151111,-0.0664127,-0.0832995,0.125671,4.32342e-05,7.63766e-07,0.164516,0.16312575787577321,0.13390905083084625,4.3235134611574466e-05,-0.06425539720553197,7.637662917669985e-07,-0.07992445667472436
196,0.1839,678.874,48.1904,0.0905791,181.854,-0.103892,0.078474,0.151872,-0.0667544,-0.0837196,0.126306,4.00277e-05,2.38853e-06,0.165361,0.16401123345824287,0.13462931173675918,4.002850111906042e-05,-0.0645750865142779,2.3885328526151994e-06,-0.08031089923253265
197,0.1849,679.082,48.293,0.0551666,181.902,-0.0781024,0.054366,0.152631,-0.0670914,-0.0841416,0.126939,4.00749e-05,2.27657e-06,0.166205,0.16489505335165777,0.13534775945580213,4.007570300945673e-05,-0.06489027159845295,2.276572591330961e-06,-0.08069892615361762
198,0.1859,679.553,48.9696,0.0116166,181.929,0.0996512,-0.0217607,0.15339,-0.0674248,-0.0845647,0.127571,4.26824e-05,1.26429e-06,0.167047,0.1657795443190122,0.13606552603012467,4.2683310906621585e-05,-0.06520198521635456,1.2642907991633479e-06,-0.08108780016586359
199,0.1869,679.464,48.346,0.0678651,181.998,-0.0714415,0.0592549,0.154148,-0.0677647,-0.0849844,0.128204,4.02535e-05,2.46877e-06,0.16789,0.16666354020572127,0.13678488316061355,4.0254310182952224e-05,-0.06551966906815032,2.468773047326067e-06,-0.08147338669514081
200,0.1879,680.036,49.3238,-0.0347722,182.015,0.189792,-0.0672989,0.154905,-0.0680958,-0.0854079,0.128835,4.42387e-05,6.76913e-07,0.168731,0.16754703886770983,0.13750242078119923,4.423967854561006e-05,-0.06582902428913895,6.769132290251889e-07,-0.08186230035759468
201,0.1889,680.101,49.1665,-0.0824062,182.069,0.147797,-0.0746623,0.155662,-0.0684319,-0.0858289,0.129466,4.42208e-05,3.26517e-07,0.169572,0.16843120659139355,0.13822041131090135,4.4221777754094305e-05,-0.06614294639651008,3.265170533950368e-07,-0.08224875497473927
202,0.1899,680.141,48.6681,0.103961,182.123,0.000283124,0.0454556,0.156419,-0.0687704,-0.0862473,0.130097,4.23479e-05,1.97383e-06,0.170412,0.16931604388344357,0.13893885503559567,4.2348796684965606e-05,-0.0664590035134699,1.973831948109961e-06,-0.08263266177675432
203,0.1909,680.426,49.1597,-0.0749896,182.162,0.140168,-0.0629904,0.157174,-0.0691028,-0.0866692,0.130727,4.46127e-05,4.14334e-07,0.171251,0.17019921085015333,0.13965661258415607,4.461369516128855e-05,-0.06676926097305558,4.14334085929724e-07,-0.08301961742271735
204,0.1919,680.359,48.4001,0.145916,182.219,-0.0796496,0.0891846,0.157929,-0.0694422,-0.0870861,0.131357,4.15385e-05,2.60565e-06,0.172091,0.17108304485969983,0.14037482246244104,4.153936273554315e-05,-0.06708594574143611,2.6056533946050564e-06,-0.08340182686711928
205,0.1929,680.859,49.4693,-0.120052,182.241,0.218746,-0.106358,0.158683,-0.0697711,-0.0875089,0.131985,4.60932e-05,-1.77374e-07,0.172928,0.17196637444893015,0.1410912027708202,4.609426230794966e-05,-0.06739273072032648,-1.7737398427808415e-07,-0.08378928266079333
206,0.1939,680.93,49.2961,-0.121169,182.288,0.169237,-0.0953574,0.159437,-0.0701059,-0.087928,0.132614,4.60528e-05,-3.68475e-07,0.173765,0.17285037031982742,0.14180917491593092,4.60538604465377e-05,-0.06770491537145462,-3.684749321219982e-07,-0.08417318611984115
207,0.1949,680.93,48.6913,0.10599,182.339,-0.00914294,0.0493578,0.16019,-0.0704435,-0.0883443,0.133243,4.37531e-05,1.59573e-06,0.174602,0.17373385924051155,0.14252759880758048,4.3754057180933614e-05,-0.06801960506941529,1.595731273118517e-06,-0.0845543654744717
208,0.1959,681.237,49.2842,-0.0923979,182.371,0.159183,-0.0756418,0.160943,-0.070774,-0.0887648,0.13387,4.6445e-05,-2.10009e-07,0.175438,0.17461801367888863,0.14324418823934382,4.644607858561578e-05,-0.06832757369532116,-2.1000897798550966e-07,-0.08493922944046983
209,0.1969,681.103,48.3682,0.16231,182.428,-0.104125,0.103272,0.161695,-0.0711129,-0.0891794,0.134497,4.27308e-05,2.35756e-06,0.176274,0.17550165863403633,0.14396122711356618,4.2731712973642644e-05,-0.0686432639838549,2.3575627789984566e-06,-0.08531853500046793
210,0.1979,681.221,48.4128,0.0881211,182.47,-0.0897008,0.0693628,0.162446,-0.0714465,-0.0895968,0.135124,4.2595e-05,2.17045e-06,0.177109,0.176384791954725,0.14467871571213653,4.25959071799209e-05,-0.06895391277189111,2.170452355398922e-06,-0.08570024337587889
211,0.1989,681.665,49.159,0.00824235,182.487,0.110171,-0.0266028,0.163196,-0.0717759,-0.0900158,0.135749,4.55206e-05,8.9785e-07,0.177942,0.17726741148964398,0.1453943635261028,4.5521636078182937e-05,-0.06926054884728983,8.97850403136502e-07,-0.08608325472742284
212,0.1999,681.503,48.4368,0.0825801,182.547,-0.0877037,0.0697459,0.163946,-0.0721126,-0.0904306,0.136375,4.26915e-05,2.32277e-06,0.178776,0.17815069323751276,0.14611160487078845,4.26924112950644e-05,-0.06957387606889509,2.3227726977381735e-06,-0.08646226878041285
213,0.2009,682.078,49.5376,-0.0517907,182.552,0.209254,-0.0797727,0.164696,-0.0724394,-0.09085,0.136999,4.71982e-05,2.09781e-07,0.179608,0.1790346376951777,0.14682700169282303,4.719931385266385e-05,-0.06987788964767128,2.0978102210911231e-07,-0.08684532617213647
214,0.2019,682.099,49.3566,-0.0940034,182.597,0.161227,-0.0833166,0.165444,-0.072772,-0.0912665,0.137624,4.71424e-05,-1.1966e-07,0.18044,0.1799168855237263,0.14754399260520157,4.714351122037108e-05,-0.07018719682094021,-1.1965999280327821e-07,-0.08722557590128277
215,0.2029,682.08,48.7885,0.106655,182.643,-0.00512274,0.0481715,0.166192,-0.0731073,-0.0916802,0.138248,4.50064e-05,1.67388e-06,0.181271,0.180799793520523,0.14826028351610931,4.5007412803110824e-05,-0.07049891079207848,1.6738814010430758e-06,-0.08760311258168552
216,0.2039,682.349,49.3326,-0.0831834,182.671,0.150175,-0.0692962,0.16694,-0.0734358,-0.0920978,0.138871,4.74998e-05,-1.45657e-08,0.182102,0.18168336217955816,0.14897587255558054,4.750092813332607e-05,-0.07080420175309754,-1.4565699979485203e-08,-0.08798404997660736
217,0.2049,682.218,48.4891,0.153077,182.721,-0.092394,0.0958413,0.167687,-0.0737721,-0.0925099,0.139494,4.4088e-05,2.35308e-06,0.182932,0.18256640942819136,0.14969190754592265,4.408897189023264e-05,-0.07111663776098864,2.353082768413728e-06,-0.08835981431805162
218,0.2059,682.315,48.5294,0.0803018,182.757,-0.0788675,0.0626745,0.168433,-0.0741034,-0.0929246,0.140117,4.39803e-05,2.15047e-06,0.183761,0.18344893311002974,0.15040838876504958,4.398126714755257e-05,-0.07142432584755254,2.150472312223428e-06,-0.08873779312373165
219,0.2069,682.717,49.2107,0.0119365,182.77,0.103539,-0.0229545,0.169178,-0.074431,-0.0933407,0.140738,4.66613e-05,1.01948e-06,0.184589,0.18433093106864207,0.1511230142427178,4.666238865547179e-05,-0.0717284774156578,1.019480519559579e-06,-0.08911689045134408
220,0.2079,682.562,48.556,0.0750422,182.824,-0.0754794,0.0627521,0.169923,-0.0747652,-0.0937529,0.14136,4.41129e-05,2.28631e-06,0.185418,0.18521358636055996,0.15183923547929012,4.411387298830505e-05,-0.07203865392512387,2.286312613675179e-06,-0.08949227909618518
221,0.2089,683.077,49.548,-0.0426846,182.827,0.192128,-0.0706521,0.170668,-0.0750904,-0.0941693,0.141979,4.81866e-05,4.0638e-07,0.186244,0.18609689947567887,0.15255244468152718,4.818776099280164e-05,-0.0723403778918913,4.0638008247384505e-07,-0.08987133558613125
222,0.2099,683.084,49.3752,-0.0842913,182.866,0.146587,-0.0746608,0.171411,-0.0754208,-0.094583,0.1426,4.81068e-05,1.02293e-07,0.187071,0.186978496944892,0.153268402031423,4.8107957150600456e-05,-0.07264682600302008,1.0229300517750062e-07,-0.09024777794212901
223,0.2109,683.074,48.8841,0.0992896,182.905,0.00203742,0.04307,0.172155,-0.0757534,-0.0949942,0.14322,4.62704e-05,1.70642e-06,0.187897,0.18786193754577107,0.15398365014468562,4.627147049141023e-05,-0.07295521238119396,1.7064214559159296e-06,-0.09062179115345304
224,0.2119,683.297,49.3468,-0.0727851,182.93,0.134934,-0.0604919,0.172897,-0.0760803,-0.0954088,0.143839,4.84246e-05,2.21758e-07,0.188722,0.1887436581813322,0.1546981871505133,4.8425772489757435e-05,-0.07325821379398734,2.2175802460999705e-07,-0.09099874121169405
225,0.2129,683.193,48.6271,0.139093,182.972,-0.0729677,0.084079,0.173639,-0.0764137,-0.0958186,0.144458,4.55195e-05,2.29208e-06,0.189547,0.18962603329638683,0.15541316659166715,4.5520536028131886e-05,-0.07356713800498083,2.2920826268091332e-06,-0.09137117361093483
226,0.2139,683.615,49.6189,-0.113395,182.982,0.205386,-0.0993638,0.17438,-0.0767372,-0.096234,0.145076,4.9772e-05,-3.06798e-07,0.19037,0.19050787286827076,0.1561274326140889,4.977323864663319e-05,-0.07386679056442147,-3.0679795293142575e-07,-0.091748539641066
227,0.2149,683.637,49.4411,-0.111566,183.016,0.155408,-0.0869405,0.175121,-0.0770663,-0.0966458,0.145693,4.96641e-05,-4.4602e-07,0.191193,0.19139036612543792,0.1568409833477764,4.966533328176759e-05,-0.07417153085588135,-4.4601990056847285e-07,-0.09212248059271544
228,0.2159,683.613,48.9101,0.0960788,183.052,-0.00134866,0.0430326,0.175861,-0.0773978,-0.0970552,0.146311,4.76589e-05,1.30858e-06,0.192016,0.1922723212795312,0.15755613203366825,4.76600357033341e-05,-0.07447839212833651,1.308580856118624e-06,-0.09249408957561156
229,0.2169,683.841,49.409,-0.0806569,183.073,0.141676,-0.0656307,0.1766,-0.0777231,-0.0974681,0.146927,4.99649e-05,-2.54681e-07,0.192838,0.19315373616764475,0.15826940627691322,4.996614826646706e-05,-0.0747794153432968,-2.546809675374462e-07,-0.09286872141795954
230,0.2179,683.709,48.6343,0.144465,183.114,-0.0816084,0.0887918,0.177339,-0.0780555,-0.0978761,0.147544,4.68322e-05,1.95086e-06,0.193659,0.1940358026620994,0.1589842790161473,4.683329664456615e-05,-0.07508690755759939,1.9508619029107166e-06,-0.09323875548753768
231,0.2189,684.146,49.6954,-0.122251,183.119,0.216331,-0.106193,0.178077,-0.0783773,-0.09829,0.148159,5.13724e-05,-8.10625e-07,0.194479,0.19491732632668657,0.1596972735710953,5.137371958441328e-05,-0.07538449670608527,-8.106246714989496e-07,-0.09361398630726647
232,0.2199,684.155,49.505,-0.117458,183.15,0.162933,-0.0916426,0.178815,-0.0787051,-0.0987001,0.148774,5.12437e-05,-9.37948e-07,0.195299,0.1957995007958555,0.1604107067525582,5.1245012980816185e-05,-0.07568753599721167,-9.379475601756226e-07,-0.09398561900298907
233,0.2209,684.108,48.9356,0.0977814,183.185,-0.00434517,0.0445853,0.179552,-0.0790355,-0.0991077,0.149389,4.90919e-05,8.97728e-07,0.196118,0.19668112986834907,0.16112457883037457,4.909310502698716e-05,-0.07599287838997726,8.97728402948772e-07,-0.09435483521330801
234,0.2219,684.339,49.4651,-0.085036,183.203,0.147395,-0.0691534,0.180289,-0.0793592,-0.0995191,0.150003,5.15283e-05,-7.38338e-07,0.196937,0.1975634089409648,0.16183772823623954,5.1529627605573225e-05,-0.07629193109095145,-7.383377274017278e-07,-0.09472734100440616
235,0.2229,684.182,48.6429,0.148748,183.243,-0.0889305,0.0926796,0.181025,-0.0796905,-0.0999252,0.150617,4.82021e-05,1.56917e-06,0.197755,0.19844514004718983,0.16255131565029446,4.8203261739931946e-05,-0.07659790488682316,1.5691712311749484e-06,-0.0950948975938074
236,0.2239,684.249,48.6885,0.0773321,183.269,-0.0734576,0.0593913,0.18176,-0.080017,-0.100334,0.15123,4.81412e-05,1.35015e-06,0.198572,0.19932632101946224,0.16326417807679916,4.814235880612472e-05,-0.07689934645786323,1.3501509115165788e-06,-0.0954647471972615
237,0.2249,684.597,49.3234,0.0122758,183.275,0.097357,-0.0207422,0.182494,-0.08034,-0.100744,0.151842,5.06548e-05,2.97281e-07,0.199388,0.20020694969027564,0.16397631364503895,5.065608297605273e-05,-0.07719745982105741,2.972810442258833e-07,-0.09583553063511174
238,0.2259,684.432,48.7227,0.0710493,183.318,-0.0667361,0.057891,0.183228,-0.080669,-0.10115,0.152455,4.83223e-05,1.45478e-06,0.200205,0.2010882249798136,0.1646900498631041,4.8323467541244725e-05,-0.07750101191971792,1.4547810582854481e-06,-0.09620254690033059
239,0.2269,684.876,49.6233,-0.0386327,183.314,0.177136,-0.0640977,0.183962,-0.0809899,-0.10156,0.153066,5.20427e-05,-2.56048e-07,0.201019,0.2019701473628681,0.16540189292948182,5.2044054244859694e-05,-0.07779699435207166,-2.5604796727307644e-07,-0.09657302790230626
240,0.2279,684.499,48.4529,0.119656,183.37,-0.144657,0.102184,0.184695,-0.0813214,-0.101964,0.153678,4.74261e-05,2.12663e-06,0.201834,0.20285151446246474,0.16611533717962712,4.742722463535465e-05,-0.07810265398256111,2.12663226117904e-06,-0.09693793868209288
241,0.2289,684.621,48.5857,0.082827,183.389,-0.108721,0.0743381,0.185427,-0.0816464,-0.102371,0.154289,4.75092e-05,2.02544e-06,0.202648,0.20373232410805175,0.1668280513626541,4.7510328579969396e-05,-0.07840222193758728,2.0254420511900406e-06,-0.09730541015553185
242,0.2299,685.026,49.3865,-0.00632484,183.388,0.107625,-0.0306523,0.186159,-0.0819671,-0.10278,0.154898,5.06411e-05,6.34667e-07,0.203461,0.20461377874233633,0.1675388660670425,5.064238228214002e-05,-0.07869773095760779,6.34667201460104e-07,-0.09767453675124382
243,0.2309,684.814,48.6566,0.0891313,183.431,-0.0931475,0.0731796,0.18689,-0.0822956,-0.103184,0.155509,4.77483e-05,2.15204e-06,0.204274,0.20549467334234683,0.16825245029199065,4.774943996821435e-05,-0.0790003290485306,2.1520423156839996e-06,-0.09803900261133536
244,0.2319,685.323,49.7632,-0.0641622,183.42,0.208587,-0.0834868,0.18762,-0.082614,-0.103593,0.156117,5.23167e-05,-4.79234e-08,0.205085,0.20637500573611645,0.16896296375597353,5.231806854233412e-05,-0.07929352866390582,-4.792339880488328e-08,-0.09840782922908242
245,0.2329,685.288,49.5675,-0.0949644,183.449,0.156859,-0.0816223,0.18835,-0.0829384,-0.103999,0.156726,5.218e-05,-2.97367e-07,0.205897,0.20725598100715503,0.16967507901798906,5.218136139983898e-05,-0.07959215740300685,-2.9736695583704176e-07,-0.09877380135304714
246,0.2339,685.221,49.0256,0.0981088,183.479,-0.00123137,0.0437732,0.189079,-0.0832652,-0.104403,0.157334,5.01508e-05,1.3979e-06,0.206707,0.20813639148793905,0.17038645770323813,5.015205757241681e-05,-0.07989289754235229,1.3979009769737871e-06,-0.09913782319993625
247,0.2349,685.418,49.517,-0.0777166,183.493,0.140393,-0.0640011,0.189808,-0.0835857,-0.10481,0.157942,5.24333e-05,-1.43757e-07,0.207517,0.20901744402196343,0.17109826903823988,5.243467464954854e-05,-0.08018774461692235,-1.437569896456381e-07,-0.09950439950255607
248,0.2359,685.26,48.7524,0.140676,183.526,-0.0793436,0.086556,0.190536,-0.0839133,-0.105212,0.158549,4.93473e-05,1.9985e-06,0.208327,0.20989792917892158,0.17180934147619809,4.934851759808012e-05,-0.08048902575924022,1.9985019970025775e-06,-0.09986632598185963
249,0.2369,685.66,49.7825,-0.118693,183.524,0.210659,-0.10279,0.191263,-0.0842305,-0.10562,0.159155,5.37688e-05,-6.72699e-07,0.209135,0.21077784478400208,0.17251967314589045,5.377024556785237e-05,-0.08078064838647558,-6.72698773684921e-07,-0.10023350561112121
250,0.2379,685.641,49.5859,-0.112097,183.549,0.15599,-0.087033,0.19199,-0.0845537,-0.106024,0.159762,5.35897e-05,-7.65579e-07,0.209943,0.21165840032031413,0.17323160863805254,5.359113595360121e-05,-0.08107769207607107,-7.65578706984904e-07,-0.10059693785659751
251,0.2389,685.58,49.0557,0.091631,183.575,0.000255635,0.0408929,0.192717,-0.0848791,-0.106425,0.160368,5.15941e-05,9.50884e-07,0.210751,0.21253959625325725,0.17394280246285132,5.1595430998530034e-05,-0.0813766607502282,9.508844520667026e-07,-0.10095752618172593
252,0.2399,685.768,49.5324,-0.0783579,183.588,0.137691,-0.0634195,0.193442,-0.0851984,-0.106831,0.160973,5.38135e-05,-5.44703e-07,0.211557,0.2134190062081296,0.17465325274788235,5.3814947972297134e-05,-0.0816699303594659,-5.44702851601464e-07,-0.10132246333884032
253,0.2409,685.613,48.7898,0.137902,183.618,-0.0760244,0.0842896,0.194168,-0.0855246,-0.107231,0.161578,5.0814e-05,1.55306e-06,0.212364,0.21430026826605597,0.17536413298538345,5.0815291053218914e-05,-0.08196944077537804,1.5530612060832283e-06,-0.10168186246888689
254,0.2419,685.995,49.787,-0.116124,183.616,0.205086,-0.100039,0.194892,-0.0858406,-0.107637,0.162181,5.51035e-05,-1.04497e-06,0.213169,0.21517973999062834,0.17607309128701965,5.510501822580949e-05,-0.08225949260149079,-1.0449694539671484e-06,-0.10204650560515893
255,0.2429,685.972,49.5929,-0.108804,183.639,0.151155,-0.0842108,0.195616,-0.0861625,-0.10804,0.162785,5.49147e-05,-1.12665e-06,0.213974,0.2160598486832841,0.17678365400249496,5.491620783981688e-05,-0.08255486572796722,-1.126649365357224e-06,-0.10240830795532985
256,0.2439,685.913,49.087,0.0888299,183.663,0.00235712,0.0391041,0.196339,-0.0864865,-0.10844,0.163389,5.3013e-05,5.25936e-07,0.214778,0.21693937786536854,0.17749464602748888,5.301440521399137e-05,-0.08285206980181137,5.259361381959593e-07,-0.10276727283438569
257,0.2449,686.087,49.5377,-0.0747933,183.674,0.132597,-0.0605274,0.197062,-0.0868047,-0.108844,0.163991,5.51227e-05,-9.01222e-07,0.215581,0.2178195431769845,0.17820371121160394,5.512421928388633e-05,-0.08314385984694228,-9.012215939074864e-07,-0.10312968164465164
258,0.2459,685.94,48.8346,0.13291,183.703,-0.0699775,0.0803337,0.197785,-0.0871293,-0.109243,0.164594,5.22847e-05,1.09729e-06,0.216385,0.21870034507822034,0.17891438229526235,5.2286066868800773e-05,-0.08344142305291491,1.0972906019368622e-06,-0.10348746151984378
259,0.2469,686.297,49.7759,-0.109938,183.7,0.195706,-0.0947474,0.198506,-0.0874444,-0.109647,0.165195,5.63454e-05,-1.3674e-06,0.217186,0.21957934486836783,0.17962312279420867,5.634698743195443e-05,-0.08373018516365116,-1.367399065088648e-06,-0.10384957943264606
260,0.2479,686.271,49.5881,-0.103193,183.721,0.143588,-0.0796317,0.199227,-0.087765,-0.110048,0.165797,5.61517e-05,-1.44198e-06,0.217988,0.22045897864588881,0.18033346970709885,5.615327653618607e-05,-0.08402389418221634,-1.4419789603481448e-06,-0.10420886370998161
261,0.2489,686.219,49.1199,0.0852073,183.743,0.00549355,0.0366766,0.199948,-0.0880875,-0.110447,0.166398,5.43959e-05,1.15245e-07,0.218789,0.22133924686805329,0.18104306333391884,5.4397379483761554e-05,-0.08431924884784281,1.1524500664883419e-07,-0.10456621307742164
262,0.2499,686.376,49.533,-0.069543,183.754,0.125271,-0.0562953,0.200668,-0.0884047,-0.110849,0.166998,5.63465e-05,-1.21496e-06,0.219589,0.22221892777292207,0.18175190180219447,5.6348087493773846e-05,-0.08460965672098464,-1.2149592619747906e-06,-0.10492610511661793
263,0.2509,686.243,48.8872,0.126013,183.78,-0.0612327,0.0747984,0.201387,-0.0887277,-0.111246,0.167599,5.37423e-05,6.43498e-07,0.220389,0.2230980191774794,0.1824623481629244,5.374374414324201e-05,-0.08490528005612497,6.434982069425388e-07,-0.10528137892636924
264,0.2519,686.567,49.7499,-0.101161,183.778,0.182695,-0.087326,0.202106,-0.089042,-0.111649,0.168197,5.74809e-05,-1.63565e-06,0.221188,0.223977742876039,0.1831696721159093,5.748255205850761e-05,-0.0851928491327556,-1.6356486622903788e-06,-0.10564187788524271
265,0.2529,686.54,49.5723,-0.0956143,183.797,0.133482,-0.0734805,0.202824,-0.0893613,-0.112048,0.168796,5.7288e-05,-1.70509e-06,0.221987,0.22485687446589697,0.18387860305312542,5.728964098872247e-05,-0.08548490042755708,-1.7050885463554266e-06,-0.10599865559408028
266,0.2539,686.5,49.1542,0.0807196,183.816,0.00954559,0.0336403,0.203542,-0.0896822,-0.112445,0.169395,5.57257e-05,-2.71884e-07,0.222785,0.22573663749889739,0.18458795876718082,5.572725270575063e-05,-0.08577832124112239,-2.7188396301003337e-07,-0.10635350368580254
267,0.2549,686.636,49.5194,-0.0627382,183.827,0.115945,-0.0508471,0.204259,-0.0899984,-0.112845,0.169993,5.7473e-05,-1.47898e-06,0.223581,0.22661580581216012,0.1852965542154461,5.7474651604438876e-05,-0.08606735243770558,-1.478978906344075e-06,-0.1067108908021398
268,0.2559,686.524,48.9464,0.11734,183.85,-0.0500921,0.0678404,0.204975,-0.0903197,-0.113242,0.170591,5.51673e-05,2.02701e-07,0.224378,0.22749437722015187,0.18600557353051328,5.5168821743389884e-05,-0.08636095182809944,2.0270102063513207e-07,-0.10706545619260444
269,0.2569,686.81,49.7107,-0.0900382,183.849,0.1665,-0.0780085,0.205691,-0.0906333,-0.113642,0.171187,5.85011e-05,-1.84442e-06,0.225174,0.22837357791052826,0.18671264353826955,5.8502811222771456e-05,-0.08664742411240423,-1.8444182990906555e-06,-0.10742255858488758
270,0.2579,686.519,48.6738,0.16154,183.884,-0.127158,0.109575,0.206407,-0.0909566,-0.114037,0.171785,5.42943e-05,8.1577e-07,0.22597,0.22925340833401608,0.18742250992800158,5.429577396220964e-05,-0.0869426632722069,8.157703328404153e-07,-0.10777505705121626
271,0.2589,686.577,48.7855,0.0909621,183.897,-0.0935207,0.0710227,0.207121,-0.0912738,-0.114434,0.172381,5.4406e-05,5.63237e-07,0.226764,0.23013140867638882,0.18813042468156005,5.440748003326945e-05,-0.0872322391302579,5.632371586905549e-07,-0.10812920005153004
272,0.2599,686.901,49.4844,0.00207096,183.89,0.0970349,-0.0240641,0.207835,-0.0915874,-0.114833,0.172976,5.71783e-05,-6.78697e-07,0.227558,0.2310100361348597,0.18883757263990075,5.717993471021643e-05,-0.08751843822170358,-6.786967696736923e-07,-0.10848498551678909
273,0.2609,686.696,48.8571,0.080785,183.921,-0.0751519,0.0635512,0.208549,-0.0919076,-0.115228,0.173572,5.47031e-05,5.97274e-07,0.228352,0.23188929115734958,0.18954633102221208,5.470459624179469e-05,-0.0878105680453043,5.9727417833777e-07,-0.1088370644073513
274,0.2619,687.104,49.7916,-0.0525263,183.907,0.180765,-0.0698955,0.209262,-0.0922192,-0.115627,0.174165,5.85964e-05,-1.26107e-06,0.229144,0.2327679414235415,0.19025194118924538,5.859811680264393e-05,-0.08809476199258492,-1.261069204838705e-06,-0.1091925674910712
275,0.2629,687.045,49.6076,-0.0796271,183.927,0.132464,-0.0675815,0.209975,-0.092536,-0.116023,0.17476,5.8406e-05,-1.4539e-06,0.229936,0.2336472183907654,0.19096035182551763,5.840770566356568e-05,-0.08838360781639143,-1.4538989431267524e-06,-0.10954525739713439
276,0.2639,686.989,49.1902,0.0838469,183.945,0.00980275,0.0347355,0.210687,-0.0928544,-0.116417,0.175354,5.6857e-05,-7.89242e-08,0.230728,0.23452588797951357,0.19166799242295274,5.685861638982104e-05,-0.08867382027138804,-7.892419684463192e-08,-0.1098960274594799
277,0.2649,687.113,49.5484,-0.0602382,183.954,0.114592,-0.0493886,0.211398,-0.0931681,-0.116814,0.175947,5.85788e-05,-1.27486e-06,0.231519,0.23540394799921427,0.1923748611083107,5.858051577134482e-05,-0.08895965845790532,-1.274859187327948e-06,-0.11024932860166148
278,0.2659,686.996,48.9859,0.115272,183.974,-0.0482292,0.0664904,0.212109,-0.0934869,-0.117207,0.17654,5.63172e-05,3.646e-07,0.232309,0.23628263254158033,0.19308214909110832,5.6318785843334496e-05,-0.08925005182762635,3.6460006636040987e-07,-0.11059893191397052
279,0.2669,687.266,49.7305,-0.0876897,183.971,0.163047,-0.07589,0.212819,-0.093798,-0.117605,0.177132,5.95727e-05,-1.62934e-06,0.233098,0.23716070488948215,0.1937886628308032,5.957447448845521e-05,-0.089533342068421,-1.6293386726484727e-06,-0.11095284310606979
280,0.2679,686.978,48.7242,0.157435,184.004,-0.122025,0.106319,0.213529,-0.0941187,-0.117996,0.177724,5.54883e-05,9.49017e-07,0.233888,0.2380394008901212,0.19449559495046032,5.548983950420805e-05,-0.08982528191056383,9.49017450402323e-07,-0.11130039259406255
281,0.2689,687.029,48.8363,0.0875824,184.014,-0.088162,0.0679696,0.214238,-0.0944334,-0.11839,0.178316,5.56232e-05,6.874e-07,0.234677,0.23891748206834706,0.19520294569783392,5.5624746998939045e-05,-0.09011166882900135,6.874002362877718e-07,-0.11165047126935279
282,0.2699,687.333,49.5016,0.00338788,184.006,0.0934358,-0.0222359,0.214947,-0.0947446,-0.118786,0.178906,5.82708e-05,-4.86822e-07,0.235464,0.23979618602687802,0.19590832350178577,5.8272497776012955e-05,-0.09039478202296392,-4.868218814735314e-07,-0.1120021880382136
283,0.2709,687.135,48.9109,0.0770761,184.035,-0.0686961,0.0600259,0.215655,-0.0950622,-0.119178,0.179497,5.59434e-05,7.09168e-07,0.236251,0.2406742725325286,0.1966153142161533,5.59449648611654e-05,-0.09068362676921982,7.091682514559494e-07,-0.11235021496276887
284,0.2719,687.513,49.7879,-0.0483955,184.02,0.171707,-0.065237,0.216362,-0.0953716,-0.119573,0.180086,5.96094e-05,-1.03033e-06,0.237037,0.24155173939119345,0.19732032824247536,5.9611176675522515e-05,-0.0909649257359032,-1.03032946918713e-06,-0.11270076738919643
285,0.2729,687.124,48.6704,0.123351,184.061,-0.137096,0.0999992,0.217069,-0.0956915,-0.119963,0.180677,5.51614e-05,1.30914e-06,0.237824,0.24242982683827963,0.1980281536982864,5.516292141805046e-05,-0.0912556795476086,1.3091408568310925e-06,-0.11304674661957947
286,0.2739,687.206,48.8198,0.0804479,184.068,-0.0953738,0.0683368,0.217775,-0.0960048,-0.120356,0.181266,5.53765e-05,1.13226e-06,0.238609,0.24330729200478451,0.19873400013218334,5.537803330657454e-05,-0.09154034454810545,1.1322606410235636e-06,-0.11339525076260837
287,0.2749,687.52,49.5139,-0.00343682,184.058,0.0938352,-0.0246284,0.218481,-0.0963147,-0.12075,0.181854,5.81254e-05,-8.20527e-08,0.239394,0.24418537688042874,0.19943906299242764,5.812708931385302e-05,-0.09182183257650722,-8.20526966371915e-08,-0.1137445042263574
288,0.2759,687.319,48.9119,0.0795843,184.085,-0.0719471,0.0620165,0.219187,-0.0966311,-0.12114,0.182443,5.57388e-05,1.17302e-06,0.240178,0.24506408190288087,0.200145740696684,5.5740353435806966e-05,-0.09210913469508808,1.1730206879168037e-06,-0.11409007647873981
289,0.2769,687.7,49.8109,-0.0532117,184.069,0.174943,-0.0678306,0.219891,-0.0969392,-0.121535,0.183029,5.95006e-05,-6.2921e-07,0.240961,0.24594091562579656,0.2008492322036124,5.950237019591853e-05,-0.09238881278406652,-6.292098020388437e-07,-0.1144399417955817
290,0.2779,687.301,48.6688,0.127667,184.11,-0.141062,0.102927,0.220595,-0.0972579,-0.121923,0.183618,5.49437e-05,1.78491e-06,0.241745,0.24681836685699077,0.201556740742191,5.494520943272185e-05,-0.09267802238143497,1.784911592972449e-06,-0.11478347244890852
291,0.2789,687.383,48.8251,0.0830763,184.115,-0.0973078,0.0700425,0.221299,-0.09757,-0.122314,0.184204,5.51801e-05,1.59752e-06,0.242527,0.24769643603134206,0.2022610593374592,5.5181622449662626e-05,-0.09296115338575828,1.5975212759311574e-06,-0.11512952445360536
292,0.2799,687.695,49.5258,-0.00436861,184.104,0.0939983,-0.024841,0.222002,-0.0978786,-0.122706,0.18479,5.79582e-05,3.59921e-07,0.243308,0.24857387500953632,0.20296579078437804,5.795987960888205e-05,-0.09324102238781529,3.599210647298179e-07,-0.11547632570253386
293,0.2809,687.492,48.9217,0.0807714,184.131,-0.0724771,0.0626931,0.222705,-0.0981938,-0.123095,0.185377,5.55593e-05,1.62662e-06,0.24409,0.24945193104420227,0.20367213899648662,5.556084344648937e-05,-0.09352678777856716,1.6266213229698678e-06,-0.11582033849700901
294,0.2819,687.869,49.823,-0.0547037,184.114,0.17535,-0.0683001,0.223406,-0.0985007,-0.123488,0.185961,5.93361e-05,-1.89357e-07,0.244869,0.2503281039105745,0.20437528882542622,5.933786042122691e-05,-0.09380494172249199,-1.8935698209432417e-07,-0.11616775283259129
295,0.2829,687.469,48.6805,0.128672,184.154,-0.140984,0.103313,0.224108,-0.0988182,-0.123875,0.186547,5.47722e-05,2.23397e-06,0.24565,0.2512061423949694,0.20508125957390488,5.4773700024268734e-05,-0.09409261298326588,2.233972495213621e-06,-0.11650972973544615
296,0.2839,687.548,48.8396,0.0832914,184.159,-0.0963866,0.0699036,0.224809,-0.0991291,-0.124264,0.187131,5.50241e-05,2.03884e-06,0.246429,0.25208354539461,0.20578523256960302,5.5025613853620925e-05,-0.0943742158124613,2.038842078500025e-06,-0.11685334061393027
297,0.2849,687.855,49.5331,-0.00428725,184.147,0.0931493,-0.024352,0.225509,-0.0994365,-0.124655,0.187715,5.77782e-05,8.11462e-07,0.247207,0.2529603107084448,0.20648961680560096,5.777986919230926e-05,-0.09465256239445907,8.114623293309364e-07,-0.11719858345837575
298,0.2859,687.653,48.9386,0.0801666,184.173,-0.0707231,0.0619779,0.226209,-0.0997504,-0.125043,0.188299,5.5417e-05,2.05972e-06,0.247986,0.25383768997285694,0.20719441252213344,5.5418535550355585e-05,-0.0949367063563955,2.059722121305896e-06,-0.117541043966359
299,0.2869,688.021,49.8245,-0.0540697,184.156,0.173056,-0.0671223,0.226908,-0.100056,-0.125434,0.188881,5.91356e-05,2.72425e-07,0.248763,0.2547144289027059,0.20789720416275093,5.913734854412489e-05,-0.09521325144069182,2.724250371954895e-07,-0.11788601797135523
300,0.2879,687.628,48.7043,0.127047,184.194,-0.137245,0.101527,0.227607,-0.100372,-0.125819,0.189465,5.4659e-05,2.65133e-06,0.24954,0.2555917808873047,0.20860282215037995,5.4660493830294143e-05,-0.0954991188838018,2.6513335147360095e-06,-0.11822556648715277
301,0.2889,687.704,48.8621,0.0815056,184.198,-0.0929225,0.0681725,0.228305,-0.100682,-0.126207,0.190047,5.49201e-05,2.45065e-06,0.250316,0.25646848988620996,0.2093064337239785,5.4921608136249134e-05,-0.09577947070017112,2.4506530027501583e-06,-0.11856762860301406
302,0.2899,688.0,49.5364,-0.00331421,184.186,0.0914328,-0.0232556,0.229003,-0.100988,-0.126597,0.190628,5.76032e-05,1.26238e-06,0.251092,0.25734581104161425,0.2100092449088511,5.7604859096116456e-05,-0.09605611985265783,1.2623807967848677e-06,-0.11891132020364048
303,0.2909,687.803,48.9617,0.0780287,184.211,-0.0669921,0.0600654,0.2297,-0.101301,-0.126983,0.19121,5.53232e-05,2.46639e-06,0.251867,0.2582224865578362,0.21071367525873597,5.5324730356520746e-05,-0.09633901001252443,2.46639304157803e-06,-0.1192513548031422
304,0.2919,688.158,49.8169,-0.0516117,184.194,0.168444,-0.0645359,0.230396,-0.101606,-0.127372,0.19179,5.89203e-05,7.44007e-07,0.252641,0.25909851423074715,0.21141609287180274,5.8922035834907405e-05,-0.09661458458721162,7.440072766762285e-07,-0.11959389939688081
305,0.2929,687.777,48.7384,0.123174,184.231,-0.130397,0.0978918,0.231092,-0.10192,-0.127756,0.192372,5.46115e-05,3.03295e-06,0.253415,0.2599751518311486,0.21212134224551482,5.4612991235103436e-05,-0.09689820307721808,3.032954599468951e-06,-0.11993191043723916
306,0.2939,687.849,48.8913,0.078034,184.234,-0.087342,0.0651109,0.231788,-0.102229,-0.128143,0.192951,5.48759e-05,2.82901e-06,0.254189,0.2608523997836978,0.21282336371827903,5.487740570964128e-05,-0.09717721842237625,2.8290140017261933e-06,-0.12027243089294182
307,0.2949,688.133,49.5365,-0.0016164,184.222,0.0890282,-0.0216736,0.232483,-0.102534,-0.128531,0.19353,5.74494e-05,1.70356e-06,0.254961,0.2617289967837202,0.21352579177917197,5.74510502484582e-05,-0.09745253738248172,1.7035614510163555e-06,-0.12061369897946517
308,0.2959,687.944,48.9895,0.0746313,184.245,-0.0616702,0.0571816,0.233177,-0.102845,-0.128915,0.19411,5.52852e-05,2.84254e-06,0.255733,0.26260494062484363,0.2142298408929102,5.528672825483305e-05,-0.09773318600023373,2.8425440399271196e-06,-0.12095131849196206
309,0.2969,688.28,49.802,-0.0476776,184.229,0.161992,-0.060824,0.233871,-0.103149,-0.129303,0.194688,5.87103e-05,1.21411e-06,0.256504,0.26348149258198483,0.2149318686074111,5.871202348339821e-05,-0.09800743342396911,1.2141107370577942e-06,-0.12129232322119166
310,0.2979,687.919,48.7804,0.117484,184.264,-0.1211,0.0927889,0.234564,-0.103463,-0.129685,0.195267,5.46332e-05,3.37697e-06,0.257276,0.2643573887193018,0.21563551784613155,5.463469242039665e-05,-0.0982906146280983,3.3769757019630475e-06,-0.12162792544961454
311,0.2989,687.985,48.9254,0.0732405,184.267,-0.0801377,0.0610206,0.235257,-0.10377,-0.130071,0.195845,5.48951e-05,3.17207e-06,0.258046,0.2652338920630146,0.21633835827676395,5.489660676349928e-05,-0.09856739692115157,3.172075031088184e-06,-0.12196691164184692
312,0.2999,688.254,49.5341,0.000617402,184.256,0.086128,-0.0197396,0.235949,-0.104074,-0.130457,0.196421,5.73298e-05,2.12737e-06,0.258815,0.2661097369236931,0.2170391709858155,5.733144338448959e-05,-0.09884139078331033,2.12737226279458e-06,-0.12230576701065965
313,0.3009,688.075,49.0208,0.0702824,184.277,-0.0551806,0.0535765,0.236641,-0.104384,-0.13084,0.196999,5.5307e-05,3.18609e-06,0.259585,0.2669861880787687,0.2177428229624765,5.5308529460340594e-05,-0.0991207066559705,3.186095075546902e-06,-0.12264185953606754
314,0.3019,688.39,49.7816,-0.0426524,184.262,0.154209,-0.056294,0.237332,-0.104687,-0.131226,0.197574,5.85231e-05,1.67278e-06,0.260353,0.26786197808533063,0.2184432264323799,5.852481251000796e-05,-0.09939363173161664,1.6727813991757046e-06,-0.12298045442526884
315,0.3029,688.052,48.8278,0.110453,184.294,-0.110061,0.0866287,0.238023,-0.104999,-0.131608,0.198151,5.47233e-05,3.68362e-06,0.261121,0.268738373471922,0.21914647104059015,5.472479734702773e-05,-0.0996745770887616,3.6836267844897463e-06,-0.12331541191072548
316,0.3039,688.113,48.9628,0.067511,184.297,-0.0718214,0.0562174,0.238713,-0.105305,-0.131991,0.198727,5.49782e-05,3.47988e-06,0.261888,0.2696141050422647,0.21984890168851523,5.497971132895074e-05,-0.0999500345210359,3.4798860548690413e-06,-0.1236511178161791
317,0.3049,688.364,49.53,0.00319758,184.286,0.0829226,-0.0175859,0.239402,-0.105608,-0.132376,0.199301,5.72544e-05,2.52793e-06,0.262655,0.270489170586101,0.2205492959520079,5.725603906436838e-05,-0.10022270834840508,2.527933195217713e-06,-0.12398844719574753
318,0.3059,688.196,49.0539,0.0652972,184.306,-0.0479472,0.0495025,0.240091,-0.105917,-0.132758,0.199876,5.5389e-05,3.49667e-06,0.263421,0.2713648392578507,0.22125131360791417,5.539053399905569e-05,-0.10050069658013172,3.4966761133237156e-06,-0.12432301970150161
319,0.3069,688.49,49.7577,-0.0369226,184.292,0.145603,-0.0512515,0.24078,-0.106219,-0.133142,0.20045,5.83729e-05,2.11184e-06,0.264186,0.27224111147321217,0.22195251308692332,5.8374603730815267e-05,-0.10077230435492623,2.1118422299792883e-06,-0.12465921510828704
320,0.3079,688.177,48.8783,0.102559,184.322,-0.097973,0.0798165,0.241468,-0.106529,-0.133522,0.201024,5.48786e-05,3.95473e-06,0.264952,0.2731167145308191,0.2226541151699697,5.488010585796843e-05,-0.10105102173714986,3.954737819888976e-06,-0.12499178141494571
321,0.3089,688.231,49.0018,0.0612222,184.325,-0.0628836,0.0510055,0.242155,-0.106834,-0.133905,0.201598,5.51225e-05,3.75399e-06,0.265716,0.2739916462183247,0.22335612008821415,5.51240192729896e-05,-0.10132515936740627,3.7539970463296157e-06,-0.125326845393816
322,0.3099,688.465,49.5247,0.00594799,184.314,0.079586,-0.0153343,0.242842,-0.107136,-0.134288,0.20217,5.72298e-05,2.90116e-06,0.26648,0.27486717919041714,0.22405607995834287,5.723143765634653e-05,-0.10159651819203241,2.901164208424234e-06,-0.12566178106775427
323,0.3109,688.309,49.0877,0.0599738,184.333,-0.0403632,0.0451953,0.243529,-0.107443,-0.134668,0.202743,5.55295e-05,3.77535e-06,0.267243,0.27574331386032114,0.2247576650770997,5.553104179112367e-05,-0.10187228572846474,3.77535712670074e-06,-0.12599396647172456
324,0.3119,688.58,49.7319,-0.0308472,184.319,0.136638,-0.0459775,0.244215,-0.107744,-0.135051,0.203314,5.82706e-05,2.52514e-06,0.268006,0.2766187740221324,0.22545720140247316,5.827229776445009e-05,-0.10214258148890776,2.5251431881034847e-06,-0.12632864668721344
325,0.3129,688.293,48.9297,0.0942458,184.347,-0.0854641,0.0727232,0.2449,-0.108053,-0.13543,0.203886,5.50935e-05,4.19328e-06,0.268768,0.27749355746145987,0.22615836343489915,5.509501767475555e-05,-0.10241997657148028,4.193288791753957e-06,-0.12665970539053184
326,0.3139,688.705,49.9791,-0.0793669,184.323,0.20514,-0.0856682,0.245585,-0.108351,-0.135814,0.204457,5.95352e-05,2.00165e-06,0.269529,0.27836894033272497,0.2268586997874209,5.953697225513643e-05,-0.10268741556807237,2.001652003258414e-06,-0.1269950036822698
327,0.3149,688.606,49.7448,-0.0893697,184.337,0.14258,-0.072596,0.246269,-0.108656,-0.136194,0.205028,5.91692e-05,1.93344e-06,0.27029,0.2792436438023962,0.227559436146191,5.9170950531539646e-05,-0.10296105417431534,1.933441869050867e-06,-0.12732668255789292
328,0.3159,688.514,49.302,0.077085,184.349,0.013249,0.0324547,0.246953,-0.108962,-0.136573,0.205598,5.75258e-05,3.3252e-06,0.271051,0.28011894577390506,0.2282593444797194,5.75274546406046e-05,-0.10323550609845211,3.3252055284815896e-06,-0.1276573630772868
329,0.3169,688.611,49.6471,-0.060753,184.35,0.114752,-0.0483077,0.247636,-0.109263,-0.136954,0.206168,5.92073e-05,2.18515e-06,0.27181,0.2809935656625606,0.22895965187471945,5.920905278666844e-05,-0.10350539159131211,2.1851523874794054e-06,-0.1279896623149298
330,0.3179,688.473,49.1019,0.108158,184.364,-0.0428237,0.0630298,0.248319,-0.109569,-0.137332,0.206737,5.70121e-05,3.74239e-06,0.27257,0.2818687831206468,0.22965912889897777,5.7013725220711464e-05,-0.1037796769736814,3.7423970027372633e-06,-0.12831921993226114
331,0.3189,688.703,49.797,-0.0836678,184.355,0.155444,-0.0704471,0.249001,-0.109869,-0.137714,0.207306,6.00869e-05,1.89333e-06,0.273328,0.2827433158124857,0.23035900403891585,6.0088705253980024e-05,-0.10404850274470745,1.8933317924574311e-06,-0.12865213839877143
332,0.3199,688.421,48.8757,0.14523,184.379,-0.106066,0.0972262,0.249683,-0.110176,-0.138089,0.207875,5.63308e-05,4.23981e-06,0.274087,0.28361844513905,0.2310592775211262,5.633238660940343e-05,-0.10432351763741876,4.239818988116539e-06,-0.128978832587883
333,0.3209,688.455,48.9979,0.0773878,184.383,-0.0691995,0.0587788,0.250364,-0.110478,-0.138468,0.208443,5.65783e-05,3.94099e-06,0.274844,0.28449288701385367,0.2317587178129965,5.6579900582276466e-05,-0.1045939710945647,3.940997765683463e-06,-0.1293088870610588
334,0.3219,688.689,49.5476,0.00662459,184.371,0.0816877,-0.0156385,0.251045,-0.110778,-0.138848,0.20901,5.88049e-05,2.98959e-06,0.275601,0.28536792458638627,0.23245732304186273,5.880662904211853e-05,-0.10486255261399413,2.9895944688718146e-06,-0.12963968682803917
335,0.3229,688.521,49.0872,0.0644832,184.39,-0.0447302,0.0482754,0.251725,-0.111082,-0.139225,0.209578,5.70021e-05,3.91159e-06,0.276357,0.2862422720195408,0.2331575576491529,5.7003724650561693e-05,-0.10513463303967929,3.911597650230192e-06,-0.1299677508221565
336,0.3239,688.796,49.7611,-0.0353839,184.375,0.140969,-0.0488272,0.252405,-0.111381,-0.139605,0.210144,5.98737e-05,2.58338e-06,0.277113,0.28711721421114467,0.23385572238876517,5.987549246566637e-05,-0.10540215778745765,2.5833833370292325e-06,-0.13029830026847167
337,0.3249,688.496,48.9252,0.0988592,184.402,-0.090793,0.0761275,0.253084,-0.111687,-0.13998,0.210711,5.65468e-05,4.33374e-06,0.277868,0.2879914635736638,0.23455551695637156,5.6548398800426725e-05,-0.10567586284816466,4.33374939068365e-06,-0.13062437726261344
338,0.3259,688.915,50.0126,-0.0858347,184.377,0.210918,-0.0896048,0.253763,-0.111982,-0.14036,0.211276,6.11578e-05,2.04604e-06,0.278622,0.28886630675307834,0.23525323791106056,6.115967017628066e-05,-0.1059396495581717,2.0460420930845657e-06,-0.13095467723828358
339,0.3269,688.811,49.7676,-0.0920686,184.389,0.145284,-0.0742034,0.254441,-0.112284,-0.140737,0.211842,6.07544e-05,2.00319e-06,0.279377,0.2897404544116271,0.23595258914144646,6.075624558588011e-05,-0.10620961501716897,2.0031920064944586e-06,-0.13128224557445367
340,0.3279,688.712,49.3153,0.0759556,184.401,0.013321,0.0321593,0.255118,-0.112587,-0.141113,0.212408,5.90718e-05,3.40781e-06,0.28013,0.29061390432870016,0.23665233631667038,5.90735447731916e-05,-0.10648039247896168,3.407815806655279e-06,-0.13160882204989277
341,0.3289,688.807,49.6618,-0.0613907,184.401,0.115247,-0.0485548,0.255796,-0.112886,-0.14149,0.212972,6.07612e-05,2.27013e-06,0.280883,0.2914892372601674,0.23735000495841607,6.076304599900162e-05,-0.10674751490481771,2.270132576809303e-06,-0.13193614381994945
342,0.3299,688.664,49.1147,0.107266,184.414,-0.0427926,0.0627497,0.256472,-0.113189,-0.141865,0.213537,5.8555e-05,3.82253e-06,0.281636,0.29236257914085284,0.23804930524494572,5.855671437737797e-05,-0.107018129407634,3.822537305797624e-06,-0.13226160673790588
343,0.3309,688.89,49.8068,-0.083622,184.405,0.154724,-0.0700163,0.257148,-0.113486,-0.142243,0.2141,6.16211e-05,1.98761e-06,0.282387,0.2932365116002429,0.23874652325225143,6.162299861900422e-05,-0.10728330564257982,1.987611975229342e-06,-0.13258954986540306
344,0.3319,688.609,48.894,0.143642,184.428,-0.104459,0.0961222,0.257824,-0.113791,-0.142615,0.214664,5.7893e-05,4.3064e-06,0.283139,0.2941110350377034,0.23944537334856775,5.789467583205976e-05,-0.10755554271609469,4.3064092725142444e-06,-0.13291216654243077
345,0.3329,688.641,49.0197,0.0760363,184.43,-0.0666001,0.0574835,0.258499,-0.11409,-0.142991,0.215227,5.8164e-05,3.99991e-06,0.28389,0.2949848548673686,0.24014337756351223,5.8165691558142996e-05,-0.10782234372008481,3.999917999708558e-06,-0.1332381302827873
346,0.3339,688.865,49.5513,0.00690063,184.419,0.0794858,-0.0146344,0.259174,-0.114387,-0.143367,0.215789,6.03243e-05,3.08138e-06,0.284639,0.2958592647245306,0.24084053402431915,6.032611954709388e-05,-0.10808728113884569,3.0813847473609712e-06,-0.13356397148381638
347,0.3349,688.703,49.1124,0.0625067,184.436,-0.0410729,0.0463855,0.259848,-0.114689,-0.143741,0.216352,5.86058e-05,3.95981e-06,0.285389,0.2967329682739759,0.24153932393587696,5.8607517353426175e-05,-0.10835659811103215,3.959817840071267e-06,-0.13388795796923214
348,0.3359,688.962,49.7533,-0.0335301,184.421,0.135756,-0.0462631,0.260521,-0.114984,-0.144117,0.216913,6.13482e-05,2.69666e-06,0.286138,0.29760596329149736,0.242236022902393,6.135008183938417e-05,-0.1086195941207706,2.6966636359482266e-06,-0.1342135548809803
349,0.3369,688.677,48.9632,0.0948492,184.446,-0.0835058,0.0722482,0.261194,-0.115287,-0.144489,0.217475,5.82012e-05,4.35247e-06,0.286887,0.2984795460324121,0.2429343557604169,5.820289372260312e-05,-0.10888964146951263,4.35247947194739e-06,-0.13453556754049656
350,0.3379,689.068,49.9855,-0.0808638,184.422,0.200493,-0.0841892,0.261867,-0.115581,-0.144866,0.218035,6.25535e-05,2.19956e-06,0.287634,0.29935371689239165,0.2436305939281347,6.255545651101535e-05,-0.10915158940668701,2.199562419091805e-06,-0.13486178613546485
351,0.3389,688.966,49.7493,-0.0862862,184.433,0.137174,-0.0691607,0.262539,-0.11588,-0.145239,0.218596,6.21487e-05,2.169e-06,0.288381,0.30022717603954674,0.24432846642626105,6.215063127057441e-05,-0.10941791326405359,2.1690023523923685e-06,-0.13518442251381102
352,0.3399,688.878,49.3377,0.071374,184.443,0.0167479,0.029512,0.263211,-0.11618,-0.145611,0.219156,6.06228e-05,3.46947e-06,0.289128,0.301101222348513,0.24502548551458903,6.062463759914927e-05,-0.10968504781788779,3.469476018702622e-06,-0.13550607407773574
353,0.3409,688.958,49.6459,-0.0557055,184.444,0.107855,-0.0439949,0.263881,-0.116476,-0.145986,0.219715,6.21478e-05,2.43585e-06,0.289874,0.30197325226488725,0.24572164932064733,6.21497312145447e-05,-0.10994854204466431,2.435852966664598e-06,-0.13583019852282485
354,0.3419,688.832,49.157,0.0993919,184.454,-0.0337647,0.0570087,0.264552,-0.116777,-0.146357,0.220275,6.01803e-05,3.84202e-06,0.29062,0.3028471694835946,0.2464194488098881,6.0182110870554695e-05,-0.11021640721777792,3.842027380462909e-06,-0.13615074605392907
355,0.3429,689.029,49.7717,-0.074454,184.446,0.142091,-0.0624421,0.265222,-0.117071,-0.146731,0.220833,6.29261e-05,2.19597e-06,0.291365,0.3037203695765147,0.24711514494349407,6.292807988850235e-05,-0.11047796514315689,2.1959724112452506e-06,-0.13647376526654698
356,0.3439,688.782,48.964,0.131089,184.466,-0.0876653,0.0860581,0.265892,-0.117373,-0.147101,0.221392,5.96295e-05,4.26443e-06,0.29211,0.30459415490953057,0.2478124771957233,5.963127787400602e-05,-0.11074656023778295,4.264439092738215e-06,-0.136793210872317
357,0.3449,689.138,50.0084,-0.116573,184.446,0.207701,-0.098852,0.266561,-0.117664,-0.147476,0.221949,6.41525e-05,1.71618e-06,0.292853,0.30546722040701146,0.24850770234775177,6.415455781572099e-05,-0.11100529534097037,1.7161814727106872e-06,-0.13711685273159857
358,0.3459,689.048,49.7698,-0.098584,184.455,0.142022,-0.0749162,0.267229,-0.117962,-0.147848,0.222507,6.373e-05,1.78027e-06,0.293597,0.30633956384051175,0.24920456405199598,6.373203079967915e-05,-0.11127017629373659,1.780271584594928e-06,-0.1374377855651744
359,0.3469,688.954,49.3368,0.0686966,184.465,0.0152143,0.0291033,0.267897,-0.118261,-0.148218,0.223064,6.21128e-05,3.14387e-06,0.29434,0.30721249019409935,0.2499005648123902,6.211472903983051e-05,-0.1115358667883164,3.143874941935465e-06,-0.13775687454941288
360,0.3479,689.041,49.6621,-0.0585358,184.464,0.1109,-0.0459898,0.268565,-0.118555,-0.14859,0.223621,6.3708e-05,2.08664e-06,0.295082,0.3080859998572947,0.2505969533531949,6.371002939764558e-05,-0.1117970368496004,2.0866421770460164e-06,-0.13807756933915127
361,0.3489,688.906,49.15,0.100648,184.475,-0.037194,0.0585712,0.269232,-0.118854,-0.148959,0.224177,6.16417e-05,3.5387e-06,0.295824,0.30895878426044043,0.25129247859735937,6.164359988858337e-05,-0.1120625698364226,3.5387062611302866e-06,-0.1383955600431721
362,0.3499,689.112,49.791,-0.0773345,184.466,0.146016,-0.0647107,0.269899,-0.119146,-0.149332,0.224733,6.44983e-05,1.84158e-06,0.296565,0.30983215100497197,0.2519883906610856,6.450038006011738e-05,-0.11232180971516614,1.8415816958050613e-06,-0.13871687856964543
363,0.3509,688.852,48.9518,0.133746,184.486,-0.0925198,0.0885912,0.270565,-0.119447,-0.1497,0.225289,6.10666e-05,3.97282e-06,0.297307,0.31070478977399607,0.252684689759505,6.106846460274262e-05,-0.11258896064221036,3.9728278915518445e-06,-0.13903377244628223
364,0.3519,689.22,50.0326,-0.120773,184.465,0.213103,-0.102027,0.27123,-0.119736,-0.150073,0.225843,6.57452e-05,1.34941e-06,0.298046,0.31157669833666124,0.2533788693476231,6.57473612630799e-05,-0.11284538537742572,1.349410910345128e-06,-0.13935485296392058
365,0.3529,689.125,49.7846,-0.100811,184.474,0.1448,-0.0765536,0.271895,-0.120033,-0.150443,0.226398,6.52936e-05,1.42827e-06,0.298786,0.31244918691135326,0.2540746876918407,6.529573167357583e-05,-0.11310883117433124,1.4282710198987303e-06,-0.13967323276442867
366,0.3539,689.026,49.3404,0.0685495,184.484,0.0148467,0.0291948,0.27256,-0.12033,-0.150811,0.226953,6.36308e-05,2.81191e-06,0.299525,0.31332225588390816,0.2547708923224239,6.36328244822959e-05,-0.11337219873945314,2.8119139534599213e-06,-0.13998977476747054
367,0.3549,689.114,49.6708,-0.0595769,184.482,0.111974,-0.0466791,0.273224,-0.120623,-0.151181,0.227506,6.52488e-05,1.7445e-06,0.300263,0.3141945914451707,0.25546497252136535,6.525092874931637e-05,-0.11363194263088416,1.7445015216832616e-06,-0.14030791969036638
368,0.3559,688.974,49.151,0.100965,184.493,-0.0382578,0.0590135,0.273888,-0.120921,-0.151548,0.22806,6.31479e-05,3.20966e-06,0.301002,0.31506750642959314,0.256160692812869,6.314989387057324e-05,-0.11389604095937478,3.2096651509938567e-06,-0.14062336879538861
369,0.3569,689.181,49.7985,-0.0783298,184.483,0.146862,-0.0652961,0.274551,-0.121211,-0.151919,0.228613,6.60344e-05,1.50054e-06,0.301739,0.3159396852816967,0.25685554178402725,6.603658031889559e-05,-0.11415297385042666,1.5005411257984491e-06,-0.14094213839014935
370,0.3579,688.918,48.9533,0.134123,184.504,-0.0934487,0.0889867,0.275214,-0.12151,-0.152285,0.229166,6.25719e-05,3.64185e-06,0.302476,0.3168124425801133,0.257550775112932,6.257385766206269e-05,-0.11441780251738676,3.641856631597662e-06,-0.1412564960365401
371,0.3589,689.286,50.0382,-0.121682,184.482,0.213467,-0.102391,0.275876,-0.121798,-0.152656,0.229717,6.72728e-05,1.01172e-06,0.303212,0.31768446102335957,0.25824387652192193,6.72750628656349e-05,-0.11467281346692237,1.0117205118120864e-06,-0.14157503078466116
372,0.3599,689.19,49.7872,-0.100525,184.491,0.144285,-0.0761927,0.276537,-0.122093,-0.153024,0.230269,6.68044e-05,1.10139e-06,0.303948,0.31855573837753814,0.25893861887301006,6.680663146352295e-05,-0.1149339464679382,1.1013906064949452e-06,-0.1418908730547903
373,0.3609,689.091,49.3468,0.0673551,184.5,0.0154447,0.0285913,0.277199,-0.122389,-0.15339,0.230821,6.51549e-05,2.47016e-06,0.304683,0.3194289112646813,0.2596337448277408,6.515702262666068e-05,-0.11519588725063534,2.4701630507717454e-06,-0.14220488352783034
374,0.3619,689.176,49.6706,-0.0587364,184.499,0.11072,-0.0459463,0.277859,-0.12268,-0.153759,0.231372,6.67451e-05,1.42255e-06,0.305418,0.32030002178096506,0.2603279942692973,6.674732750377999e-05,-0.11545332778803052,1.4225510118759388e-06,-0.14252135153387058
375,0.3629,689.038,49.1607,0.0992152,184.509,-0.0366975,0.0578548,0.27852,-0.122976,-0.154124,0.231922,6.4683e-05,2.85933e-06,0.306152,0.3211730285923271,0.2610213653257072,6.468509199031303e-05,-0.11571511485660768,2.8593340879456974e-06,-0.14283427412871308
376,0.3639,689.239,49.7933,-0.0766436,184.5,0.144253,-0.0637995,0.279179,-0.123266,-0.154493,0.232472,6.75085e-05,1.1891e-06,0.306885,0.32204396856136985,0.2617151178410899,6.751077875000178e-05,-0.11597152029271407,1.1891007070108373e-06,-0.14315050993246559
377,0.3649,688.983,48.9698,0.131286,184.519,-0.090001,0.0867902,0.279839,-0.123563,-0.154857,0.233023,6.41321e-05,3.27607e-06,0.307619,0.32291680558515434,0.26241051443518826,6.413415650707854e-05,-0.11623403776541275,3.2760753663207964e-06,-0.14346234638917188
378,0.3659,689.339,50.0235,-0.118384,184.498,0.208256,-0.0994522,0.280497,-0.12385,-0.155227,0.233571,6.87067e-05,7.20451e-07,0.308351,0.3237875712937299,0.2631025049851923,6.870906035927327e-05,-0.11648764220259655,7.204512595393453e-07,-0.14377920669823596
379,0.3669,689.244,49.7766,-0.0973271,184.506,0.14019,-0.0735997,0.281155,-0.124143,-0.155592,0.23412,6.82367e-05,8.14372e-07,0.309083,0.3246589101546882,0.26379613864544704,6.823902817654215e-05,-0.11674647340280864,8.143723315701124e-07,-0.14409167025972214
380,0.3679,689.15,49.3562,0.0651121,184.515,0.0170434,0.0272836,0.281813,-0.124437,-0.155957,0.234669,6.66639e-05,2.1305e-06,0.309815,0.32553082254528753,0.26449015321513136,6.666612208716671e-05,-0.11700611177091802,2.130502269492851e-06,-0.1444040197928198
381,0.3689,689.228,49.6613,-0.0558788,184.514,0.107012,-0.0437032,0.282471,-0.124727,-0.156323,0.235217,6.81732e-05,1.13398e-06,0.310546,0.3264033088430349,0.2651832837195056,6.817552384541514e-05,-0.11726214287220038,1.1339806429422339e-06,-0.14471711062245873
382,0.3699,689.099,49.1797,0.0952926,184.523,-0.0324048,0.0550284,0.283128,-0.125022,-0.156687,0.235765,6.62269e-05,2.49897e-06,0.311276,0.32727504214997905,0.2658767941634903,6.622909304954128e-05,-0.1175225121336988,2.498973122433412e-06,-0.14502837694028547
383,0.3709,689.287,49.775,-0.0721542,184.514,0.13808,-0.0601438,0.283784,-0.12531,-0.157054,0.236312,6.88971e-05,9.20267e-07,0.312006,0.3281460202272044,0.2665694181852978,6.889947345967151e-05,-0.11777662905561104,9.202674233765862e-07,-0.14534209395535502
384,0.3719,689.047,49.0017,0.125111,184.532,-0.0820724,0.0819323,0.28444,-0.125605,-0.157416,0.23686,6.57272e-05,2.88682e-06,0.312736,0.32901756985349606,0.2672636884391384,6.572936007964714e-05,-0.11803684656606972,2.886824166825619e-06,-0.14565142412520438
385,0.3729,689.379,49.9882,-0.110764,184.512,0.1974,-0.0931495,0.285095,-0.125891,-0.157783,0.237405,7.00239e-05,4.88342e-07,0.313464,0.32988836151488643,0.2679545353880315,7.002635173058991e-05,-0.11828905196086126,4.883421191870241e-07,-0.14596491252391064
386,0.3739,689.287,49.7528,-0.0912036,184.521,0.132548,-0.0687823,0.28575,-0.126183,-0.158147,0.237952,6.9569e-05,5.79037e-07,0.314192,0.33075972373165174,0.2686482962451848,6.957141997898653e-05,-0.11854647397224594,5.790371675473693e-07,-0.14627572472449968
387,0.3749,689.203,49.3683,0.0618713,184.528,0.0195738,0.0253166,0.286405,-0.126475,-0.15851,0.238498,6.81353e-05,1.80562e-06,0.31492,0.33163165687762786,0.2693411673515338,6.813762126234302e-05,-0.11880382082737673,1.805621630213139e-06,-0.14658557039603304
388,0.3759,689.271,49.6432,-0.0510659,184.527,0.100964,-0.0400081,0.287059,-0.126764,-0.158874,0.239043,6.95129e-05,8.89909e-07,0.315648,0.3325028288234009,0.27003314683502166,6.951531607768402e-05,-0.11905844972750923,8.899093959513493e-07,-0.14689615671826883
389,0.3769,689.157,49.2072,0.0892899,184.536,-0.0255375,0.0506264,0.287712,-0.127057,-0.159236,0.239588,6.77557e-05,2.14199e-06,0.316374,0.3333732373280702,0.2707255035501144,6.775799546931971e-05,-0.1193165277914564,2.141992293980266e-06,-0.14720492441921118
390,0.3779,689.324,49.7444,-0.0650103,184.528,0.128586,-0.0544608,0.288365,-0.127344,-0.159601,0.240132,7.01822e-05,7.04145e-07,0.3171,0.3342442143951083,0.2714169662848571,7.018466282815439e-05,-0.11956924768094146,7.041452478873111e-07,-0.147516137821897
391,0.3789,689.11,49.0479,0.115786,184.543,-0.0699975,0.0746026,0.289018,-0.127637,-0.159962,0.240677,6.73307e-05,2.48889e-06,0.317826,0.33511576039590807,0.2721100773871017,6.73329667624234e-05,-0.11982717610301186,2.4888930973965273e-06,-0.14782382895455237
392,0.3799,689.406,49.9342,-0.0991364,184.526,0.181385,-0.0837513,0.28967,-0.127922,-0.160327,0.24122,7.121e-05,3.23541e-07,0.318551,0.33598653971489645,0.2728010207332643,7.121253549224882e-05,-0.12007798961519933,3.235410523938498e-07,-0.14813481649830462
393,0.3809,689.034,48.8071,0.159213,184.553,-0.137341,0.112474,0.290322,-0.128217,-0.160686,0.241764,6.65562e-05,3.02906e-06,0.319276,0.33685788696712726,0.27349361285652063,6.655841491309822e-05,-0.12033752832442102,3.0290645876007716e-06,-0.1484405812111318
394,0.3819,689.089,48.9993,0.0887376,184.552,-0.0813798,0.0671662,0.290973,-0.128506,-0.161048,0.242307,6.70301e-05,2.66492e-06,0.32,0.3377284647938794,0.2741853076664471,6.703234656724177e-05,-0.1205917140471292,2.6649235509434988e-06,-0.14874878993158924
395,0.3829,689.313,49.5714,6.42796e-05,184.537,0.0773021,-0.0159014,0.291623,-0.128792,-0.161411,0.24285,6.9365e-05,1.61636e-06,0.320723,0.3385982709523725,0.27487737816864666,6.936740580720802e-05,-0.12084318885430012,1.6163613063557847e-06,-0.1490577380433693
396,0.3839,689.151,49.1325,0.0682256,184.552,-0.0443051,0.0493285,0.292274,-0.129083,-0.161771,0.243392,6.76052e-05,2.54458e-06,0.321447,0.3394699821379674,0.27556854899798866,6.760748528300553e-05,-0.12109898626601501,2.5445832374515476e-06,-0.1493640221232314
397,0.3849,689.396,49.7753,-0.0415427,184.536,0.13454,-0.0481618,0.292923,-0.129368,-0.162134,0.243933,7.03856e-05,1.22885e-06,0.322169,0.34033958031045897,0.27625881828400267,7.038807712445028e-05,-0.12134943736395254,1.2288507549307326e-06,-0.14967274694625532
398,0.3859,689.119,49.0016,0.0980871,184.558,-0.0814864,0.0725133,0.293573,-0.129661,-0.162493,0.244475,6.72582e-05,2.89488e-06,0.322891,0.3412110842457554,0.2769507380568328,6.726046188343382e-05,-0.12160684426685209,2.894884190141056e-06,-0.1499779596411448
399,0.3869,689.479,49.9838,-0.085876,184.533,0.193162,-0.08282,0.294221,-0.129943,-0.162857,0.245016,7.14907e-05,7.79612e-07,0.323612,0.3420804706791296,0.27764175530943436,7.149325552102681e-05,-0.12185451621338306,7.796123038250613e-07,-0.15028731135840723
400,0.3879,689.374,49.7438,-0.0816139,184.543,0.128204,-0.0636905,0.29487,-0.130232,-0.163217,0.245557,7.10133e-05,8.207e-07,0.324333,0.3429517636085735,0.2783331465035117,7.101582150403907e-05,-0.12210826358993543,8.20700336801039e-07,-0.15059315287154273
401,0.3889,689.294,49.3825,0.0611948,184.55,0.0221403,0.0244436,0.295517,-0.130522,-0.163576,0.246097,6.96731e-05,1.96967e-06,0.325054,0.3438209345461063,0.27902363281714937,6.967552722669801e-05,-0.122362815281715,1.969671939772155e-06,-0.15089803520000944
402,0.3899,689.351,49.6317,-0.0473354,184.549,0.0964253,-0.0369722,0.296165,-0.130808,-0.163937,0.246637,7.09433e-05,1.11212e-06,0.325774,0.3446920127105366,0.2797144920940875,7.094581653532828e-05,-0.12261378362636044,1.1121206184849797e-06,-0.15120450568805088
403,0.3909,689.248,49.2327,0.0844912,184.557,-0.0196354,0.0471358,0.296812,-0.131097,-0.164295,0.247176,6.93373e-05,2.27187e-06,0.326493,0.34556230995355897,0.2804044441306963,6.933970388622868e-05,-0.1228673116063348,2.2718725807280293e-06,-0.15150832008899195
404,0.3919,689.397,49.7205,-0.0594909,184.549,0.120677,-0.0496659,0.297458,-0.131381,-0.164656,0.247715,7.156e-05,9.51743e-07,0.327212,0.3464318240285966,0.28109476815169354,7.156256047791132e-05,-0.12311638192017993,9.517434529371371e-07,-0.15181457030395018
405,0.3929,689.205,49.0906,0.107679,184.563,-0.0592569,0.0683006,0.298104,-0.131672,-0.165013,0.248254,6.89813e-05,2.57925e-06,0.327931,0.347301899991197,0.28178546435763296,6.898367926466697e-05,-0.12337151792895151,2.5792533262514183e-06,-0.15211731845859056
406,0.3939,689.468,49.8876,-0.0894009,184.547,0.167201,-0.075394,0.29875,-0.131954,-0.165375,0.248792,7.24933e-05,6.20942e-07,0.328648,0.3481725382044567,0.2824752504732848,7.24959277027537e-05,-0.12361869230767009,6.209421927749759e-07,-0.15242419644104255
407,0.3949,689.137,48.8795,0.14582,184.572,-0.118318,0.101467,0.299395,-0.132246,-0.16573,0.249331,6.83272e-05,3.05316e-06,0.329366,0.34904238998864234,0.283166690959761,6.832953435620404e-05,-0.12387455829126459,3.0531646608711327e-06,-0.152725032449755
408,0.3959,689.184,49.0527,0.0786056,184.57,-0.0675868,0.0590558,0.30004,-0.132532,-0.166089,0.249868,6.8778e-05,2.69951e-06,0.330083,0.3499128030082075,0.2838559365186759,6.87803652608121e-05,-0.12412509433923069,2.699513643733553e-06,-0.15302914957081615
409,0.3969,689.383,49.5578,0.00384869,184.557,0.0723801,-0.0126525,0.300684,-0.132815,-0.166448,0.250405,7.08548e-05,1.8004e-06,0.330799,0.350782426842164,0.2845455523018523,7.085731026057474e-05,-0.12437293186686849,1.8004016206774054e-06,-0.1533331575334258
410,0.3979,689.24,49.1761,0.0600719,184.57,-0.0332012,0.0429614,0.301327,-0.133103,-0.166805,0.250942,6.9337e-05,2.59097e-06,0.331515,0.35165125924230534,0.285235538508154,6.933940386533166e-05,-0.12462507615197094,2.5909733565310233e-06,-0.15363536364918506
411,0.3989,689.453,49.7329,-0.0328125,184.556,0.121656,-0.0405889,0.301971,-0.133386,-0.167164,0.251478,7.1764e-05,1.4691e-06,0.33223,0.3525220030026541,0.28592460941129905,7.17665750975538e-05,-0.12487277220477533,1.46910107923226e-06,-0.1539391540200007
412,0.3999,689.214,49.068,0.0857873,184.575,-0.0639767,0.0624622,0.302613,-0.133675,-0.16752,0.252015,6.9086e-05,2.88849e-06,0.332945,0.35339060091867913,0.2866153363701427,6.908838649266613e-05,-0.12512564743137788,2.888494171626732e-06,-0.15424029807434747
413,0.4009,689.522,49.9069,-0.0706231,184.554,0.170638,-0.0698057,0.303256,-0.133955,-0.167879,0.25255,7.27252e-05,1.09486e-06,0.333659,0.3542611109140408,0.287303859738679,7.272784454137593e-05,-0.12537057795822304,1.0948605992933125e-06,-0.1545438713126821
414,0.4019,689.152,48.8637,0.129252,184.582,-0.121608,0.0969637,0.303898,-0.134246,-0.168233,0.253086,6.84497e-05,3.38195e-06,0.334373,0.35513082569582055,0.2879940395591669,6.845204273409067e-05,-0.12562505809138202,3.3819557188063953e-06,-0.1548431098138977
415,0.4029,689.213,49.0514,0.0746141,184.579,-0.0679858,0.058017,0.304539,-0.13453,-0.16859,0.25362,6.89408e-05,3.0688e-06,0.335086,0.3559997430133399,0.288682012048598,6.894317647154757e-05,-0.12587334531642935,3.068804708794559e-06,-0.1551447769729023
416,0.4039,689.412,49.5551,0.00144463,184.566,0.0715186,-0.013023,0.30518,-0.134812,-0.168947,0.254154,7.10113e-05,2.17799e-06,0.335799,0.3568692174854089,0.28937035201344563,7.101382136198708e-05,-0.12611981427929297,2.1779923717879512e-06,-0.15544633645595252
417,0.4049,689.274,49.1813,0.0598363,184.578,-0.0321277,0.0426412,0.30582,-0.135099,-0.169302,0.254689,6.95206e-05,2.96745e-06,0.336511,0.35773789173070725,0.2900603497096985,6.952301661300453e-05,-0.12637058190571915,2.967454402869052e-06,-0.1557460997953698
418,0.4059,689.482,49.7287,-0.0332532,184.564,0.120294,-0.0400945,0.30646,-0.13538,-0.16966,0.255222,7.19133e-05,1.85821e-06,0.337223,0.3586071221054652,0.2907481351546324,7.191588582333708e-05,-0.12661603728410786,1.8582117264909215e-06,-0.15604828859662012
419,0.4069,689.248,49.0776,0.0851125,184.582,-0.061685,0.0615886,0.3071,-0.135667,-0.170013,0.255756,6.92873e-05,3.2568e-06,0.337934,0.35947690896571927,0.29143757872385456,6.928970042041627e-05,-0.12686666251496637,3.2568053034420785e-06,-0.15634615097494275
420,0.4079,689.548,49.8972,-0.0698226,184.562,0.167772,-0.0683636,0.307739,-0.135947,-0.170371,0.256288,7.28526e-05,1.49755e-06,0.338644,0.36034589232116176,0.29212480630206294,7.285525381517388e-05,-0.1271111056258296,1.497551121332208e-06,-0.15664812499631864
421,0.4089,689.188,48.8808,0.127214,184.589,-0.117221,0.0948871,0.308378,-0.136236,-0.170723,0.256822,6.86815e-05,3.73322e-06,0.339355,0.36121543113441823,0.29281498520999594,6.868385862812687e-05,-0.12736333406753841,3.7332269684497987e-06,-0.15694493261511444
422,0.4099,689.247,49.0653,0.0725589,184.586,-0.064421,0.0562371,0.309016,-0.136519,-0.171078,0.257354,6.91743e-05,3.41802e-06,0.340065,0.36208416367569485,0.2935029457634091,6.917669259709491e-05,-0.12761025530299452,3.4180258414728826e-06,-0.15724416404731434
423,0.4109,689.439,49.5513,0.00236488,184.573,0.0702076,-0.0120607,0.309654,-0.136799,-0.171434,0.257885,7.11785e-05,2.56415e-06,0.340774,0.3629534506451768,0.2941899782185833,7.118103324943448e-05,-0.12785449023702322,2.5641532874765005e-06,-0.15754413172749826
424,0.4119,689.306,49.1937,0.0577277,184.585,-0.0289273,0.0409966,0.310291,-0.137084,-0.171787,0.258417,6.97554e-05,3.31622e-06,0.341483,0.36382192857409135,0.2948786704628896,6.97578329644788e-05,-0.1281030162906609,3.316225498650738e-06,-0.1578414661663825
425,0.4129,689.505,49.7169,-0.0310747,184.571,0.116781,-0.037974,0.310928,-0.137364,-0.172143,0.258948,7.20501e-05,2.25997e-06,0.342191,0.3646909598996848,0.29556643362186397,7.205269567078787e-05,-0.12834711327092752,2.2599725537642e-06,-0.1581412212448574
426,0.4139,689.282,49.097,0.0816994,184.589,-0.0565291,0.0588098,0.311564,-0.13765,-0.172495,0.259479,6.95518e-05,3.58959e-06,0.342899,0.3655591794147208,0.29625456208005385,6.955421878251933e-05,-0.12859637035107052,3.589596442532539e-06,-0.15843750338626317
427,0.4149,689.566,49.875,-0.0657207,184.569,0.161392,-0.0646248,0.3122,-0.137928,-0.172851,0.260009,7.29473e-05,1.92193e-06,0.343605,0.3664279512930013,0.2969417590890775,7.294996071904869e-05,-0.1288385868904539,1.921931847004288e-06,-0.15873704631325314
428,0.4159,689.226,48.9131,0.121439,184.595,-0.108454,0.0900461,0.312836,-0.138216,-0.173201,0.260539,6.89997e-05,4.03734e-06,0.344313,0.36729727588594097,0.2976293204090499,6.900208053406409e-05,-0.12908944525209154,4.037348150021103e-06,-0.15903143682569854
429,0.4169,689.281,49.0883,0.0681633,184.592,-0.0582028,0.0527366,0.313471,-0.138497,-0.173555,0.261069,6.94792e-05,3.72799e-06,0.345019,0.3681657853787088,0.29831724623310696,6.948161373543371e-05,-0.12933413673721195,3.7279969489212306e-06,-0.15932908700987125
430,0.4179,689.463,49.5452,0.00396355,184.58,0.0683113,-0.0106629,0.314106,-0.138777,-0.173908,0.261598,7.13717e-05,2.93834e-06,0.345724,0.36903484655014385,0.2990042377495996,7.137424702041706e-05,-0.12957788905200895,2.9383443169717083e-06,-0.1596257914707384
431,0.4189,689.338,49.2116,0.0542224,184.591,-0.0240988,0.038336,0.31474,-0.13906,-0.17426,0.262127,7.00511e-05,3.63271e-06,0.34643,0.3699030898468989,0.29969159278074575,7.005355363554067e-05,-0.12982418365707682,3.632716598200858e-06,-0.15992155113538598
432,0.4199,689.523,49.6989,-0.0274172,184.578,0.111564,-0.0347798,0.315373,-0.139339,-0.174614,0.262655,7.21979e-05,2.65755e-06,0.347134,0.37077051301324015,0.3003780111402341,7.220050633116593e-05,-0.13006692884530802,2.657553531237866e-06,-0.16021888627485925
433,0.4209,689.316,49.1238,0.0765051,184.594,-0.0491833,0.054685,0.316007,-0.139623,-0.174964,0.263183,6.98862e-05,3.88542e-06,0.347839,0.3716398570714372,0.30106479202431413,6.98886420973377e-05,-0.13031395475817598,3.885427548144804e-06,-0.1605127582340703
434,0.4219,689.579,49.8433,-0.0594419,184.576,0.152358,-0.0592642,0.316639,-0.1399,-0.175318,0.26371,7.30387e-05,2.34943e-06,0.348542,0.37250700745176313,0.30175063387316503,7.304136739083589e-05,-0.1305548244307182,2.349432759896075e-06,-0.16080988412327013
435,0.4229,689.265,48.9566,0.113113,184.6,-0.0964347,0.0832368,0.317272,-0.140186,-0.175667,0.264238,6.94039e-05,4.29612e-06,0.349246,0.37337607941973894,0.3024381396934144,6.940630850649221e-05,-0.1308034501957519,4.2961292283649755e-06,-0.1611027103725584
436,0.4239,689.314,49.1178,0.0621315,184.597,-0.0500868,0.048022,0.317904,-0.140466,-0.176019,0.264765,6.98576e-05,3.99843e-06,0.349948,0.3742443274394065,0.3031247054872295,6.986004009901237e-05,-0.1310467911603722,3.998437993812942e-06,-0.16139795025323977
437,0.4249,689.483,49.5378,0.00603918,184.586,0.0660548,-0.0089774,0.318535,-0.140744,-0.176371,0.265291,7.1607e-05,3.29185e-06,0.35065,0.37511174925282176,0.30381032938559316,7.160956384244521e-05,-0.13128832657745115,3.2918554182526094e-06,-0.1616930862277718
438,0.4259,689.367,49.2332,0.0497551,184.596,-0.0181815,0.0349885,0.319166,-0.141026,-0.176721,0.265818,7.04115e-05,3.915e-06,0.351352,0.37597971858212453,0.30449761851395807,7.04139789478031e-05,-0.13153326873088944,3.915007663612968e-06,-0.16198644230728343
439,0.4269,689.538,49.6768,-0.0227634,184.584,0.105244,-0.03088,0.319797,-0.141304,-0.177072,0.266343,7.23774e-05,3.03948e-06,0.352053,0.37684823577290594,0.3051826595712208,7.23800193072055e-05,-0.13177466892600043,3.0394846193271263e-06,-0.1622805334500187
440,0.4279,689.349,49.1555,0.0701254,184.599,-0.0404403,0.0496884,0.320427,-0.141586,-0.177421,0.266869,7.02906e-05,4.14441e-06,0.352754,0.3777159234543639,0.30586936623817573,7.029307044215116e-05,-0.1320194739502325,4.144418588092336e-06,-0.1625728465322448
441,0.4289,689.587,49.8057,-0.0517537,184.583,0.141664,-0.0528766,0.321057,-0.141863,-0.177773,0.267394,7.31536e-05,2.76548e-06,0.353454,0.37858415795128963,0.3065551276520708,7.315627578985406e-05,-0.13225987125938388,2.7654838239410395e-06,-0.16286756901606514
442,0.4299,689.304,49.007,0.103148,184.604,-0.0824259,0.0752045,0.321686,-0.142146,-0.178121,0.267919,6.98872e-05,4.51341e-06,0.354155,0.3794515601560362,0.30724124918523144,6.988964216736449e-05,-0.13250540697087554,4.513420185370265e-06,-0.1631588404178842
443,0.4309,689.656,49.9934,-0.0936118,184.58,0.194728,-0.0847251,0.322315,-0.14242,-0.178473,0.268443,7.41862e-05,2.35586e-06,0.354853,0.3803195081283952,0.3079264230996923,7.418895186428465e-05,-0.13274306792832746,2.3558627750830397e-06,-0.16345335666815608
444,0.4319,689.548,49.7414,-0.0804159,184.588,0.12591,-0.0611184,0.322943,-0.1427,-0.178823,0.268967,7.36309e-05,2.46275e-06,0.355552,0.3811866210244512,0.308611956139367,7.363361082135533e-05,-0.13298586587600858,2.4627530326171154e-06,-0.16374609676081764
445,0.4329,689.472,49.4042,0.0541462,184.594,0.0267652,0.0214398,0.323571,-0.142981,-0.17917,0.269491,7.23801e-05,3.52927e-06,0.356251,0.38205427863842956,0.3092978484924864,7.238271950260611e-05,-0.13322946262075197,3.5292762279315326e-06,-0.1640362265248163
446,0.4339,689.517,49.6191,-0.0426489,184.593,0.0911852,-0.0326152,0.324199,-0.143258,-0.17952,0.270014,7.3506e-05,2.77985e-06,0.356948,0.3829224813125205,0.3099827903639347,7.350870163214118e-05,-0.13346952480945784,2.77985386376578e-06,-0.16432876264872465
447,0.4349,689.427,49.2712,0.0749656,184.599,-0.010305,0.0415302,0.324826,-0.143539,-0.179868,0.270537,7.2107e-05,3.7944e-06,0.357646,0.38378984559859153,0.31066809055367384,7.210959977221876e-05,-0.13371298566513423,3.794407198665084e-06,-0.16461952564362736
448,0.4359,689.55,49.6859,-0.0507798,184.592,0.109428,-0.0418361,0.325453,-0.143814,-0.180217,0.27106,7.4032e-05,2.66892e-06,0.358343,0.3846577538925988,0.3113537492491534,7.403474043621294e-05,-0.13395118184060106,2.668923561488512e-06,-0.16491102256000711
449,0.4369,689.389,49.1585,0.0931538,184.604,-0.0416778,0.0581304,0.326079,-0.144095,-0.180564,0.271582,7.18695e-05,4.03737e-06,0.359039,0.385524821010228,0.3120384545988102,7.187208267445122e-05,-0.13419450736966587,4.03737815024563e-06,-0.16520074816487929
450,0.4379,689.602,49.8131,-0.0735902,184.59,0.144996,-0.0614068,0.326705,-0.14437,-0.180914,0.272104,7.4803e-05,2.42538e-06,0.359735,0.3863924310817999,0.31272351745796123,7.480579781415919e-05,-0.13443257114486984,2.425382941151355e-06,-0.16549287677753222
451,0.4389,689.336,48.9996,0.122328,184.609,-0.0861878,0.0831489,0.32733,-0.144652,-0.181259,0.272626,7.14275e-05,4.39681e-06,0.360431,0.3872591971874191,0.3134089380132754,7.143005100451738e-05,-0.13467662674634984,4.396819665908325e-06,-0.1657807320771496
452,0.4399,689.675,50.007,-0.112079,184.586,0.199477,-0.0925223,0.327955,-0.144924,-0.18161,0.273146,7.58578e-05,2.02655e-06,0.361125,0.3881265051911795,0.314092088264714,7.586067727571866e-05,-0.13491196269673467,2.0265520535023285e-06,-0.16607349165787844
453,0.4409,689.572,49.7506,-0.0861644,184.594,0.128537,-0.0637856,0.328579,-0.145202,-0.181957,0.273667,7.52789e-05,2.19039e-06,0.36182,0.388992966438213,0.3147769086229124,7.52817335274436e-05,-0.13515242374547054,2.1903923990151952e-06,-0.16636281395595132
454,0.4419,689.493,49.4037,0.0520951,184.6,0.0265341,0.020912,0.329203,-0.145481,-0.182302,0.274187,7.39855e-05,3.28017e-06,0.362514,0.3898599685257893,0.31546077040404974,7.398823699467094e-05,-0.13539368256207562,3.2801753797606636e-06,-0.16665036917900833
455,0.4429,689.542,49.6238,-0.0435072,184.599,0.0922485,-0.0331527,0.329827,-0.145757,-0.18265,0.274707,7.51327e-05,2.53072e-06,0.363207,0.39072751179149834,0.3161449878857874,7.513552253191058e-05,-0.1356322809775925,2.5307232023319415e-06,-0.16694032439540019
456,0.4439,689.448,49.2693,0.074616,184.605,-0.0110534,0.0417352,0.33045,-0.146035,-0.182995,0.275227,7.37036e-05,3.55288e-06,0.3639,0.3915942049782397,0.316829561253138,7.370631617709122e-05,-0.13587254180567832,3.5528863113754028e-06,-0.16722768041172076
457,0.4449,689.573,49.6896,-0.0512856,184.598,0.110225,-0.0421435,0.331073,-0.146309,-0.183343,0.275746,7.5654e-05,2.42245e-06,0.364593,0.3924614382830658,0.3175131731773777,7.5656861836082e-05,-0.13610928029456948,2.422452934025543e-06,-0.1675174347587569
458,0.4459,689.41,49.1572,0.0930048,184.609,-0.0422541,0.0583382,0.331695,-0.146589,-0.183687,0.276266,7.34666e-05,3.79504e-06,0.365285,0.3933278187140594,0.3181984581860906,7.346929873675023e-05,-0.13635113583473124,3.7950472011605285e-06,-0.16780375951051896
459,0.4469,689.623,49.8152,-0.0740045,184.596,0.145369,-0.061524,0.332317,-0.146861,-0.184035,0.276784,7.64179e-05,2.18176e-06,0.365976,0.39419473820131024,0.3188814618701128,7.642081992220717e-05,-0.13658601638058177,2.1817623800934882e-06,-0.16809331341690747
460,0.4479,689.358,49.0007,0.122006,184.614,-0.086107,0.0830577,0.332939,-0.147142,-0.184378,0.277303,7.3032e-05,4.14951e-06,0.366668,0.3950621970802157,0.3195661390071718,7.303466690133931e-05,-0.13682860162515575,4.14951860916446e-06,-0.16837860847950514
461,0.4489,689.695,50.0053,-0.112066,184.592,0.198843,-0.0921365,0.33356,-0.147412,-0.184726,0.27782,7.74573e-05,1.79035e-06,0.367358,0.3959287997568839,0.3202485310841907,7.74602998940832e-05,-0.13706162644295095,1.79035160274843e-06,-0.16866796237325665
462,0.4499,689.592,49.7475,-0.0852415,184.599,0.127463,-0.062916,0.33418,-0.147688,-0.185071,0.278337,7.6865e-05,1.96307e-06,0.368048,0.39679454396570524,0.3209312760491272,7.686795418981873e-05,-0.13729976456947957,1.963071926791571e-06,-0.16895472245727905
463,0.4509,689.514,49.4073,0.0507203,184.605,0.027404,0.0202618,0.3348,-0.147966,-0.185414,0.278855,7.55965e-05,3.03139e-06,0.368738,0.39766082510236633,0.3216156956995062,7.559935748746582e-05,-0.1375395619015557,3.0313945946769394e-06,-0.16923972210724214
464,0.4519,689.56,49.6195,-0.0423375,184.604,0.0908311,-0.0321616,0.33542,-0.14824,-0.18576,0.279371,7.67093e-05,2.30566e-06,0.369427,0.3985276434998659,0.3222978253728077,7.671224223360085e-05,-0.13777584368951146,2.3056626581308137e-06,-0.16952711544147903
465,0.4529,689.47,49.2767,0.072577,184.609,-0.00912173,0.0404722,0.33604,-0.148516,-0.186103,0.279888,7.53277e-05,3.29547e-06,0.370116,0.399394999491409,0.3229816300968156,7.533053720232274e-05,-0.1380137847192806,3.295475430098449e-06,-0.16981191879431534
466,0.4539,689.589,49.681,-0.0493383,184.603,0.107639,-0.0404818,0.336658,-0.148789,-0.186449,0.280404,7.72116e-05,2.20664e-06,0.370804,0.4002600928874207,0.32366446477414157,7.721458089227085e-05,-0.13824907483748983,2.2066424345545954e-06,-0.17009911418274515
467,0.4549,689.434,49.1704,0.0899424,184.613,-0.0387042,0.0561714,0.337277,-0.149066,-0.186791,0.28092,7.51129e-05,3.52481e-06,0.371492,0.4011271222028068,0.32434765188508097,7.511572104457187e-05,-0.13848774678616882,3.524816212241433e-06,-0.17038289175696353
468,0.4559,689.636,49.7991,-0.0706634,184.6,0.140704,-0.0586834,0.337895,-0.149337,-0.187136,0.281435,7.79434e-05,1.98221e-06,0.372179,0.4019932863814919,0.32502986658100763,7.794643766567688e-05,-0.1387211849744866,1.982211964568492e-06,-0.1706690602923966
469,0.4569,689.384,49.0236,0.117199,184.618,-0.0798509,0.0793601,0.338513,-0.149616,-0.187477,0.28195,7.4717e-05,3.85778e-06,0.372866,0.4028599860150781,0.32571243270798833,7.471979138462537e-05,-0.13896144824559387,3.857787441274851e-06,-0.17095181393060166
470,0.4579,689.703,49.9767,-0.106298,184.597,0.190677,-0.087297,0.33913,-0.149885,-0.187823,0.282464,7.89296e-05,1.61838e-06,0.373552,0.40372581770805893,0.3263940240523697,7.893271502279475e-05,-0.13919303646600367,1.6183813096315447e-06,-0.1712386149835382
471,0.4589,689.603,49.7286,-0.0806239,184.604,0.121997,-0.0592849,0.339746,-0.15016,-0.188166,0.282979,7.8353e-05,1.7871e-06,0.374238,0.40459077919255315,0.32707729290138365,7.835606967643294e-05,-0.1394297258346956,1.7871015969284088e-06,-0.1715228313926982
472,0.4599,689.533,49.4137,0.0482782,184.609,0.0291494,0.0189481,0.340363,-0.150435,-0.188508,0.283493,7.71834e-05,2.79091e-06,0.374923,0.4054576791144393,0.3277595859642306,7.71863787152327e-05,-0.1396663501227603,2.79091389465691e-06,-0.17180612213888313
473,0.4609,689.573,49.606,-0.0389439,184.608,0.0868634,-0.0295652,0.340979,-0.150707,-0.188851,0.284007,7.82078e-05,2.1205e-06,0.375608,0.4063237077542097,0.3284422298158567,7.821085830972407e-05,-0.1399003290529498,2.1205022482373437e-06,-0.17209014392646838
474,0.4619,689.492,49.2932,0.068283,184.613,-0.00454448,0.0375601,0.341594,-0.150982,-0.189192,0.28452,7.69519e-05,3.0345e-06,0.376293,0.40718886284239963,0.3291238955120539,7.695486087344605e-05,-0.14013682394292248,3.0345046040380907e-06,-0.1723724130577673
475,0.4629,689.599,49.6604,-0.0445889,184.607,0.10171,-0.0367437,0.342209,-0.151253,-0.189535,0.285033,7.86783e-05,2.03748e-06,0.376977,0.4080545501646138,0.32980591099246515,7.868139521871598e-05,-0.1403698152918802,2.037482075722963e-06,-0.17265624064087537
476,0.4639,689.459,49.1977,0.0836417,184.617,-0.031108,0.0515541,0.342824,-0.151529,-0.189875,0.285546,7.67806e-05,3.24047e-06,0.377661,0.4089207700482773,0.33048827643657597,7.678354770579432e-05,-0.1406070404842772,3.2404752503545353e-06,-0.17293748970400735
477,0.4649,689.641,49.7656,-0.0633504,184.605,0.131155,-0.0528611,0.343438,-0.151799,-0.190219,0.286057,7.93545e-05,1.84151e-06,0.378343,0.40978611303419754,0.33116832968464194,7.93576486515235e-05,-0.1408390452612921,1.8415116955772248e-06,-0.1732219502775253
478,0.4659,689.415,49.0673,0.107759,184.621,-0.0676488,0.0720952,0.344052,-0.152075,-0.190558,0.28657,7.64523e-05,3.53707e-06,0.379026,0.4106519875038601,0.33185139422884546,7.645522255161907e-05,-0.14107614096408794,3.5370762554443047e-06,-0.17350218053466904
479,0.4669,689.7,49.9226,-0.0947737,184.602,0.17535,-0.0781251,0.344665,-0.152343,-0.190901,0.287081,8.02528e-05,1.52335e-06,0.379708,0.4115169822660081,0.33253214420810306,8.025602034211765e-05,-0.14130630171539138,1.523351160326314e-06,-0.17378562067398284
480,0.4679,689.351,48.8768,0.145601,184.627,-0.121218,0.103107,0.345279,-0.152621,-0.191239,0.287592,7.58643e-05,3.97477e-06,0.38039,0.4123839198157113,0.3332132421394942,7.58671777687514e-05,-0.1415449853849472,3.974777899484749e-06,-0.17406483394449412
481,0.4689,689.41,49.086,0.0770178,184.623,-0.0606063,0.0573818,0.345891,-0.152892,-0.19158,0.288103,7.64875e-05,3.57191e-06,0.381071,0.4132485633285661,0.33389468820086776,7.64904252434917e-05,-0.1417775951738579,3.571916379341289e-06,-0.17434642982129334
482,0.4699,689.582,49.5369,0.00387929,184.611,0.0652056,-0.00868818,0.346503,-0.153161,-0.191921,0.288613,7.83781e-05,2.76147e-06,0.381752,0.4141137361652074,0.3345751479943486,7.838117164360447e-05,-0.14200842595262442,2.7614738129511096e-06,-0.17462792969026886
483,0.4709,689.468,49.2308,0.0535908,184.62,-0.0199653,0.0373892,0.347115,-0.153435,-0.192261,0.289124,7.71508e-05,3.41e-06,0.382432,0.41497943864968057,0.3352572901674553,7.715377619943453e-05,-0.14224348343956705,3.410005814163952e-06,-0.17490850849307482
484,0.4719,689.634,49.6793,-0.0274227,184.609,0.105606,-0.0318206,0.347726,-0.153704,-0.192602,0.289633,7.91589e-05,2.49923e-06,0.383112,0.4158442552612658,0.3359371091273986,7.916203314839443e-05,-0.14247418891124475,2.4992331231210585e-06,-0.17518981672589906
485,0.4729,689.45,49.1638,0.0716096,184.623,-0.039144,0.0502424,0.348337,-0.153978,-0.19294,0.290143,7.70663e-05,3.61341e-06,0.383792,0.4167096004372608,0.3366186108212139,7.706926968364947e-05,-0.14270911879661896,3.613416528436275e-06,-0.17546855545834628
486,0.4739,689.676,49.7968,-0.0547067,184.607,0.138999,-0.0521373,0.348948,-0.154245,-0.193281,0.290651,7.98869e-05,2.25059e-06,0.38447,0.41757547450071675,0.33729778557129175,7.989009104347744e-05,-0.1429379849069149,2.250592532559992e-06,-0.17574967274771303
487,0.4749,689.409,49.033,0.101634,184.626,-0.0762347,0.0730053,0.349558,-0.15452,-0.193618,0.291161,7.67266e-05,3.94159e-06,0.385149,0.41844045933371454,0.33797998138707963,7.672954356086059e-05,-0.1431736445563785,3.941597768175598e-06,-0.1760273983086117
488,0.4759,689.733,49.9599,-0.0922309,184.603,0.185318,-0.0801765,0.350167,-0.154786,-0.19396,0.291668,8.08175e-05,1.89589e-06,0.385826,0.41930455266316136,0.33865850922991636,8.082076582205389e-05,-0.14340153005681133,1.8958917971101386e-06,-0.1763091487563173
489,0.4769,689.344,48.8364,0.144902,184.632,-0.131822,0.106571,0.350777,-0.155063,-0.194295,0.292177,7.61069e-05,4.41367e-06,0.386505,0.4201705925555985,0.33934005985103277,7.610979620364944e-05,-0.14363877497304767,4.413679740356002e-06,-0.17658503897729183
490,0.4779,689.417,49.0683,0.0796292,184.627,-0.0653695,0.0601578,0.351386,-0.155332,-0.194634,0.292685,7.67985e-05,4.01091e-06,0.387181,0.4210357398570794,0.34002061744843126,7.680144908039921e-05,-0.14386910516178064,4.010918043695355e-06,-0.17686412934058915
491,0.4789,689.594,49.5364,0.00153328,184.615,0.065413,-0.00933548,0.351994,-0.1556,-0.194973,0.293192,7.87604e-05,3.15877e-06,0.387858,0.4218999922930293,0.3407001801560672,7.87635016816779e-05,-0.14409851749897096,3.158774988909485e-06,-0.17714312510828822
492,0.4799,689.479,49.2252,0.0556484,184.624,-0.0214835,0.0387897,0.352602,-0.155872,-0.19531,0.293699,7.75028e-05,3.83471e-06,0.388534,0.42276477035423454,0.3413800874893511,7.750580341969737e-05,-0.14433129104357412,3.8347173525465905e-06,-0.17742038115485892
493,0.4809,689.647,49.6837,-0.029915,184.612,0.107158,-0.0329336,0.35321,-0.156139,-0.19565,0.294205,7.95598e-05,2.89227e-06,0.389209,0.4236300743603718,0.3420589975633841,7.956296496480775e-05,-0.14455972409169648,2.8922741825976317e-06,-0.1777000106855522
494,0.4819,689.462,49.1591,0.0735657,184.626,-0.0404019,0.0515415,0.353817,-0.156412,-0.195986,0.294712,7.74209e-05,4.03702e-06,0.389885,0.42449448013612057,0.34273959399176435,7.742389707532382e-05,-0.1447932274123659,4.037028148884403e-06,-0.17797625706997033
495,0.4829,689.689,49.8018,-0.0571845,184.61,0.140709,-0.0532727,0.354424,-0.156678,-0.196325,0.295218,8.02911e-05,2.64431e-06,0.390559,0.42535941076545236,0.34341919215015815,8.029432341660758e-05,-0.14502068216105157,2.644313496169559e-06,-0.17825487589026534
496,0.4839,689.42,49.0288,0.103488,184.629,-0.0773458,0.0742079,0.35503,-0.156951,-0.19666,0.295724,7.70829e-05,4.3636e-06,0.391234,0.42622344034289616,0.3440991342722355,7.70858709631117e-05,-0.14525405965734384,4.363609520607881e-06,-0.17853011440181732
497,0.4849,689.746,49.9638,-0.0945309,184.606,0.186751,-0.0811378,0.355636,-0.157215,-0.196999,0.296228,8.12189e-05,2.29302e-06,0.391907,0.4270879936809475,0.34477673097593486,8.122219834416633e-05,-0.14547968280202883,2.2930226288853106e-06,-0.1788085454962982
498,0.4859,689.641,49.7134,-0.0742597,184.614,0.117794,-0.0548541,0.356241,-0.157485,-0.197336,0.296734,8.06136e-05,2.45319e-06,0.392581,0.4279516431447441,0.34545736018647677,8.061684936366831e-05,-0.1457103721432098,2.4531930091775678e-06,-0.17908524039075757
499,0.4869,689.577,49.4242,0.0452536,184.619,0.0324213,0.017454,0.356847,-0.157755,-0.197671,0.297238,7.95447e-05,3.37809e-06,0.393254,0.4288172440910867,0.34613564160857124,7.954786376362932e-05,-0.14594099920667647,3.378095705830475e-06,-0.1793602007767905
500,0.4879,689.608,49.5898,-0.0349498,184.618,0.0825393,-0.0261265,0.357451,-0.158023,-0.198008,0.297743,8.04548e-05,2.77918e-06,0.393927,0.4296805103866945,0.3468156117856025,8.045803657430461e-05,-0.14616985635066204,2.779183861933987e-06,-0.17963670979474233
501,0.4889,689.538,49.3155,0.0622016,184.622,0.00210968,0.0338075,0.358056,-0.158293,-0.198343,0.298247,7.93588e-05,3.59255e-06,0.394599,0.43054572879765685,0.3474945779390406,7.93619489929398e-05,-0.1464003593701394,3.5925564532135468e-06,-0.17991148546946578
502,0.4899,689.628,49.6326,-0.0385547,184.617,0.0941843,-0.0315091,0.35866,-0.158559,-0.19868,0.29875,8.08762e-05,2.72201e-06,0.39527,0.4314100394133804,0.3481725382044567,8.087947056800715e-05,-0.14662738667857633,2.7220137046590764e-06,-0.1801878087357771
503,0.4909,689.51,49.2361,0.0744638,184.625,-0.0199331,0.0452088,0.359263,-0.158829,-0.199014,0.299254,7.92537e-05,3.76333e-06,0.395942,0.4322734399562487,0.3488521884211795,7.925684065734906e-05,-0.14685776618154056,3.76333708129728e-06,-0.1804615802852655
504,0.4919,689.662,49.7176,-0.0533941,184.615,0.117999,-0.0443929,0.359866,-0.159094,-0.199351,0.299756,8.14682e-05,2.57119e-06,0.396612,0.4331373612866458,0.34952948220628355,8.147151862392121e-05,-0.14708381892019173,2.5711933056005165e-06,-0.18073771820085727
505,0.4929,689.474,49.1314,0.093702,184.628,-0.0492602,0.0616144,0.360469,-0.159365,-0.199684,0.300259,7.90326e-05,4.00345e-06,0.397283,0.4340018037187017,0.35020846628601365,7.903572315814955e-05,-0.1473149278885848,4.003458013768224e-06,-0.1810104871221504
506,0.4939,689.708,49.8419,-0.0782703,184.613,0.153047,-0.0643727,0.361071,-0.159629,-0.200021,0.300761,8.223e-05,2.32623e-06,0.397952,0.43486533270068506,0.3508864410935282,8.223338097912425e-05,-0.14754000703586745,2.3262327055739718e-06,-0.18128644008730388
507,0.4949,689.423,48.9821,0.123652,184.633,-0.091271,0.0859572,0.361673,-0.159901,-0.200353,0.301263,7.86169e-05,4.35e-06,0.398622,0.4357293816836203,0.3515647563298365,7.861999038949463e-05,-0.1477718446226125,4.350009461306925e-06,-0.18155820787324617
508,0.4959,689.772,50.0209,-0.116501,184.609,0.203698,-0.0939942,0.362275,-0.160162,-0.200691,0.301764,8.32298e-05,1.95257e-06,0.39929,0.4365939509806418,0.35224205992314084,8.323326369596984e-05,-0.1479942471463742,1.952571906160827e-06,-0.18183479445321982
509,0.4969,689.663,49.7448,-0.083909,184.617,0.126972,-0.0609713,0.362876,-0.16043,-0.201025,0.302266,8.25414e-05,2.17903e-06,0.399959,0.4374576034467512,0.352921055850941,8.254480663505426e-05,-0.1482225540936415,2.1790323740944473e-06,-0.18210801600133397
510,0.4979,689.588,49.4205,0.0451253,184.622,0.0315201,0.0179288,0.363477,-0.160699,-0.201358,0.302767,8.13285e-05,3.18303e-06,0.400627,0.4383217751240003,0.35359903912055035,8.13318072521163e-05,-0.14845165141161965,3.1830350657457984e-06,-0.18238032868942655
511,0.4989,689.625,49.6052,-0.0387302,184.621,0.0870202,-0.0286815,0.364077,-0.160964,-0.201692,0.303267,8.23258e-05,2.54251e-06,0.401295,0.4391850271387814,0.3542760078681939,8.232918886164065e-05,-0.14867728182664508,2.542513232173249e-06,-0.18265336805953125
512,0.4999,689.545,49.3017,0.0648739,184.625,-0.00170499,0.0361652,0.364677,-0.161232,-0.202025,0.303768,8.11016e-05,3.41904e-06,0.401962,0.4400487972601881,0.3549546701388393,8.110488882362432e-05,-0.1489054057451451,3.419045844887947e-06,-0.18292549917562184
513,0.5009,689.646,49.65,-0.0426857,184.62,0.0992274,-0.0343734,0.365276,-0.161496,-0.202359,0.304267,8.2757e-05,2.48046e-06,0.402628,0.4409116448868118,0.3556309612398352,8.276042445509724e-05,-0.1491300650616938,2.4804630762709223e-06,-0.18319835648918925
514,0.5019,689.515,49.2169,0.0784287,184.628,-0.0252692,0.048505,0.365876,-0.161765,-0.202691,0.304767,8.09722e-05,3.60159e-06,0.403295,0.44177645128972065,0.35630894620257103,8.09754783370753e-05,-0.14935891829205272,3.6015964857138982e-06,-0.18346948962424403
515,0.5029,689.681,49.7399,-0.0587791,184.617,0.124459,-0.0481352,0.366474,-0.162028,-0.203025,0.305266,8.33707e-05,2.31828e-06,0.40396,0.44263889145149937,0.35698591325595896,8.337417543335945e-05,-0.1495826074801243,2.3182826871526174e-06,-0.18374216527534093
516,0.5039,689.477,49.1064,0.0991155,184.632,-0.0562588,0.0659526,0.367073,-0.162297,-0.203356,0.305766,8.07237e-05,3.85501e-06,0.404626,0.44350329100930064,0.35766457586410016,8.072695824545839e-05,-0.1498113389929444,3.855017430609564e-06,-0.18401230190855555
517,0.5049,689.729,49.8704,-0.0853365,184.614,0.161331,-0.0692626,0.36767,-0.162558,-0.203691,0.306264,8.41605e-05,2.05868e-06,0.40529,0.4443653197640136,0.35834086120395314,8.416404159428126e-05,-0.15003320927813557,2.0586821189994e-06,-0.18428561200541893
518,0.5059,689.424,48.9502,0.130838,184.636,-0.100266,0.0915605,0.368268,-0.162829,-0.20402,0.306762,8.02752e-05,4.21761e-06,0.405956,0.44522930853212683,0.3590174834177804,8.027842214008984e-05,-0.15026351907003477,4.217618894131192e-06,-0.18455393789703967
519,0.5069,689.477,49.1416,0.0660206,184.633,-0.0445956,0.0489248,0.368865,-0.163093,-0.204352,0.30726,8.0888e-05,3.8276e-06,0.406619,0.4460923680269464,0.35969444267338635,8.089127152244302e-05,-0.15048781989198912,3.827607325312954e-06,-0.1848246210537675
520,0.5079,689.62,49.5173,0.00720619,184.622,0.0602633,-0.00495339,0.369462,-0.163356,-0.204685,0.307758,8.24915e-05,3.17779e-06,0.407283,0.4469559429221157,0.36037173913865983,8.249490251732716e-05,-0.150711212217979,3.1777950491029827e-06,-0.18509602926298174
521,0.5089,689.528,49.2752,0.0444359,184.63,-0.00700101,0.0307036,0.370058,-0.163622,-0.205016,0.308255,8.15353e-05,3.67879e-06,0.407946,0.44781858570611166,0.3610480119328807,8.15386240928806e-05,-0.15093709299205416,3.678796766770631e-06,-0.1853657178413738
522,0.5099,689.66,49.6298,-0.018699,184.62,0.0923331,-0.0235245,0.370654,-0.163885,-0.205348,0.308752,8.31571e-05,2.97511e-06,0.408608,0.4486817427784495,0.3617246209182168,8.316055764745478e-05,-0.15116036717475523,2.9751144257073037e-06,-0.18563613153189396
523,0.5109,689.517,49.2308,0.0578989,184.631,-0.0198236,0.0397965,0.37125,-0.164152,-0.205678,0.309249,8.15481e-05,3.82993e-06,0.409271,0.4495454144457365,0.36240156626179676,8.155142513666114e-05,-0.1513869771029479,3.8299373341654785e-06,-0.18590482727125301
524,0.5119,689.689,49.7137,-0.0392264,184.619,0.116322,-0.0384041,0.371845,-0.164413,-0.206011,0.309744,8.37445e-05,2.80116e-06,0.409933,0.4504081506058868,0.36307612197586203,8.374800666843818e-05,-0.15160843620025477,2.8011639232605745e-06,-0.18617587583168171
525,0.5129,689.489,49.1402,0.0798591,184.634,-0.0455814,0.0559445,0.37244,-0.16468,-0.206339,0.310241,8.13775e-05,4.06795e-06,0.410594,0.4512714002467977,0.3637537391824117,8.138081123854057e-05,-0.15183492650998742,4.0679582740121845e-06,-0.18644276637196755
526,0.5139,689.727,49.8256,-0.066003,184.617,0.148244,-0.0579998,0.373034,-0.164941,-0.206672,0.310736,8.44587e-05,2.56244e-06,0.411255,0.45213371153964377,0.36442896438775807,8.44622667364181e-05,-0.15205626870775502,2.562443283116167e-06,-0.1867136358284981
527,0.5149,689.446,49.0074,0.110376,184.637,-0.0832478,0.079015,0.373628,-0.165209,-0.207,0.311232,8.10258e-05,4.39719e-06,0.411916,0.4529965351975551,0.3651058890175247,8.102908267870745e-05,-0.15228348717910611,4.397199667716123e-06,-0.18698035001242896
528,0.5159,689.782,49.9847,-0.103305,184.613,0.193556,-0.0855389,0.374221,-0.165467,-0.207333,0.311726,8.53787e-05,2.21809e-06,0.412575,0.45385841766582247,0.3657804179216211,8.538234486499263e-05,-0.15250216982813913,2.218092459926879e-06,-0.18725104048341001
529,0.5169,689.673,49.7186,-0.0761144,184.621,0.119874,-0.0553004,0.374815,-0.165731,-0.207662,0.312221,8.47012e-05,2.42622e-06,0.413235,0.4547222661035022,0.36645664658127797,8.4704787247869e-05,-0.15272587972429896,2.4262229432192584e-06,-0.18751839090953437
530,0.5179,689.608,49.4294,0.0420296,184.626,0.0345161,0.0163303,0.375407,-0.165996,-0.207991,0.312715,8.36272e-05,3.33623e-06,0.413895,0.455583716649238,0.3671318429244548,8.363069685168867e-05,-0.1529503776188872,3.3362355651433973e-06,-0.18778565339183606
531,0.5189,689.636,49.5854,-0.033961,184.625,0.0818223,-0.0248683,0.376,-0.166258,-0.208321,0.313209,8.44984e-05,2.77256e-06,0.414553,0.45644713377108603,0.3678073728970248,8.450197009035598e-05,-0.15317227555005275,2.7725638436226774e-06,-0.18805363990600998
532,0.5199,689.57,49.324,0.0587014,184.629,0.00512737,0.032195,0.376592,-0.166523,-0.208649,0.313703,8.34522e-05,3.54269e-06,0.415212,0.4573096057407928,0.36848323666384175,8.345568223178113e-05,-0.1533966551654199,3.5426962752271862e-06,-0.1883199146406771
533,0.5209,689.653,49.6207,-0.0361443,184.624,0.0913798,-0.0290436,0.377183,-0.166784,-0.208979,0.314196,8.48878e-05,2.73228e-06,0.415869,0.45817113027320877,0.36915806523109085,8.489140307132992e-05,-0.15361758980519702,2.732283732598262e-06,-0.18858772487772613
534,0.5219,689.544,49.2536,0.0694444,184.631,-0.0144086,0.0422239,0.377775,-0.167048,-0.209306,0.314689,8.33825e-05,3.69444e-06,0.416527,0.45903462315100385,0.3698332265708453,8.338597641732726e-05,-0.15384100526934952,3.6944468244648476e-06,-0.18885301331466775
535,0.5229,689.682,49.6936,-0.0488015,184.622,0.111858,-0.0400476,0.378365,-0.167308,-0.209636,0.315182,8.54296e-05,2.60806e-06,0.417184,0.4598957075735888,0.37050872084720243,8.543324921217454e-05,-0.15406097801028407,2.6080634010217096e-06,-0.1891206476581785
536,0.5239,689.513,49.1643,0.0859266,184.634,-0.0394262,0.0562122,0.378956,-0.167573,-0.209963,0.315675,8.32237e-05,3.90132e-06,0.417841,0.4607587609439152,0.3711845482243401,8.32271631880932e-05,-0.154285122150701,3.901327610078553e-06,-0.18938576185786027
537,0.5249,689.72,49.798,-0.0698849,184.62,0.141364,-0.0568699,0.379546,-0.167832,-0.210293,0.316166,8.61084e-05,2.40728e-06,0.418497,0.46162086290794324,0.37185796514784397,8.611210743469933e-05,-0.15450413394081286,2.4072828974652793e-06,-0.18965322042335664
538,0.5259,689.471,49.0404,0.111166,184.637,-0.0743457,0.0765139,0.380136,-0.168098,-0.210618,0.316658,8.29121e-05,4.1924e-06,0.419153,0.46248347366220854,0.37253308533264384,8.291553730321866e-05,-0.15472900593188388,4.192408788128432e-06,-0.18991654033491567
539,0.5269,689.772,49.9447,-0.101651,184.616,0.182972,-0.0812766,0.380725,-0.168355,-0.210949,0.317149,8.69728e-05,2.10595e-06,0.419808,0.463345130161124,0.3732071645504478,8.697658224354754e-05,-0.15494621266509867,2.105952217501539e-06,-0.19018463358818372
540,0.5279,689.412,48.8664,0.148111,184.642,-0.123485,0.105616,0.381314,-0.168622,-0.211273,0.317641,8.23817e-05,4.6003e-06,0.420463,0.46420729432521,0.37388294870467664,8.238509346547573e-05,-0.15517181190747797,4.600310581359679e-06,-0.19044697126590238
541,0.5289,689.482,49.103,0.0763494,184.637,-0.0551743,0.0566045,0.381903,-0.168882,-0.2116,0.318132,8.3143e-05,4.15379e-06,0.421118,0.46506996645356935,0.37455769086813606,8.314645647500285e-05,-0.1553914386836639,4.153798627060112e-06,-0.1907116518286679
542,0.5299,689.635,49.5166,0.00450636,184.626,0.060805,-0.00553874,0.382491,-0.169141,-0.211929,0.318622,8.49075e-05,3.40572e-06,0.421771,0.4659316809130676,0.37523138917926824,8.491110474384556e-05,-0.1556101639748969,3.405725799376924e-06,-0.1909778639009292
543,0.5309,689.541,49.2618,0.0487535,184.634,-0.0104028,0.0337504,0.383078,-0.169404,-0.212255,0.319112,8.38814e-05,3.95572e-06,0.422425,0.4667924354164943,0.3759054176834633,8.388491814304011e-05,-0.1558322093015312,3.955727823967692e-06,-0.19124156213215038
544,0.5319,689.678,49.6393,-0.0233699,184.624,0.095796,-0.0257084,0.383666,-0.169663,-0.212582,0.319601,8.5613e-05,3.1869e-06,0.423078,0.46765516298556764,0.37657839996346776,8.561666489748099e-05,-0.1560508204479566,3.186905078278457e-06,-0.19150598290618037
545,0.5329,689.53,49.2192,0.0616722,184.635,-0.0226802,0.0425091,0.384253,-0.169926,-0.212907,0.320091,8.38994e-05,4.10337e-06,0.423731,0.4685169294699585,0.3772530886646821,8.390291965310048e-05,-0.156272749897177,4.103378418829351e-06,-0.19176870076777097
546,0.5339,689.707,49.7246,-0.0441359,184.622,0.120214,-0.0407679,0.384839,-0.170183,-0.213235,0.32058,8.62079e-05,3.01242e-06,0.424383,0.46937773258130644,0.37792673011695066,8.621161600785854e-05,-0.15648955993916958,3.0124245373741587e-06,-0.1920337571622941
547,0.5349,689.502,49.1292,0.0835258,184.637,-0.048286,0.0585524,0.385426,-0.170447,-0.213559,0.321069,8.37293e-05,4.33957e-06,0.425035,0.4702405105108802,0.3786007010604435,8.373280539575312e-05,-0.15671221730328044,4.339579416035022e-06,-0.19229549582102112
548,0.5359,689.745,49.8353,-0.070749,184.62,0.151832,-0.0601717,0.386011,-0.170703,-0.213887,0.321557,8.69195e-05,2.77811e-06,0.425686,0.47110085283512304,0.37927362238200923,8.692327760928542e-05,-0.15692807134515463,2.778113858958875e-06,-0.19256037945510107
549,0.5369,689.46,48.9991,0.113628,184.64,-0.0852026,0.0812016,0.386597,-0.170968,-0.21421,0.322046,8.33867e-05,4.66227e-06,0.426338,0.47196317056930415,0.3799482521168809,8.339017676761706e-05,-0.1571514558064997,4.662280868483748e-06,-0.1928211403373875
550,0.5379,689.797,49.9898,-0.107321,184.616,0.195896,-0.0870056,0.387182,-0.171222,-0.214538,0.322533,8.78235e-05,2.44544e-06,0.426988,0.47282452094450744,0.3806204505827029,8.782735659651486e-05,-0.15736551215041839,2.4454429901066277e-06,-0.19308585158833846
551,0.5389,689.687,49.7167,-0.0761131,184.624,0.12001,-0.0546341,0.387767,-0.171483,-0.214863,0.323021,8.71061e-05,2.68188e-06,0.427638,0.47368637535709657,0.38129435778257026,8.710989384641543e-05,-0.15758541105369195,2.6818835963116072e-06,-0.193348056076035
552,0.5399,689.623,49.4334,0.0395176,184.629,0.0363802,0.0154137,0.388351,-0.171744,-0.215187,0.323508,8.60531e-05,3.56799e-06,0.428288,0.474547259554023,0.3819672119615045,8.605680267415039e-05,-0.15780525257084088,3.567996365250181e-06,-0.19360936897089143
553,0.5409,689.649,49.5793,-0.0325771,184.628,0.0807158,-0.0234639,0.388935,-0.172002,-0.215512,0.323995,8.68813e-05,3.03797e-06,0.428938,0.47540864665415405,0.38264039390022697,8.688507428944447e-05,-0.15802251078816243,3.0379746145392517e-06,-0.19387140334308395
554,0.5419,689.586,49.3322,0.0556586,184.632,0.00811628,0.0306709,0.389519,-0.172263,-0.215836,0.324482,8.58934e-05,3.76617e-06,0.429587,0.47627053695127075,0.38331390375839547,8.58970889436872e-05,-0.15824223823716732,3.766177091968359e-06,-0.19413254670089242
555,0.5429,689.664,49.609,-0.0336915,184.627,0.0887277,-0.0267411,0.390102,-0.17252,-0.216161,0.324968,8.72478e-05,3.01056e-06,0.430235,0.47713145360713405,0.38398635770869616,8.725160620004502e-05,-0.15845854218569244,3.0105645316691465e-06,-0.19439441106794997
556,0.5439,689.563,49.2688,0.0651583,184.634,-0.0094506,0.0396124,0.390685,-0.172781,-0.216484,0.325454,8.58529e-05,3.90347e-06,0.430883,0.4779928723237439,0.38465913855104494,8.585658546578223e-05,-0.15867815584535272,3.903477618472095e-06,-0.1946545796536865
557,0.5449,689.688,49.673,-0.0446556,184.626,0.106715,-0.0363275,0.391267,-0.173037,-0.216809,0.32594,8.77529e-05,2.90644e-06,0.431531,0.4788533145398335,0.38533224644435005,8.775675039829345e-05,-0.15889350667137447,2.9064442237380916e-06,-0.1949162743876014
558,0.5459,689.535,49.1907,0.0795373,184.636,-0.0313118,0.0518113,0.391849,-0.173298,-0.217131,0.326425,8.57415e-05,4.0864e-06,0.432179,0.4797142576790474,0.3860042955426084,8.574517590753672e-05,-0.15911300682011775,4.086408349257553e-06,-0.19517546961457743
559,0.5469,689.721,49.7633,-0.0629298,184.624,0.132261,-0.0508686,0.392431,-0.173553,-0.217456,0.32691,8.83729e-05,2.73751e-06,0.432825,0.4805757020330075,0.38667667066373346,8.837680499973466e-05,-0.15932740566636394,2.737513747019804e-06,-0.1954369950867615
560,0.5479,689.499,49.0845,0.10135,184.639,-0.061268,0.0692547,0.393012,-0.173815,-0.217777,0.327395,8.55047e-05,4.33904e-06,0.433472,0.4814361664565987,0.3873493719658847,8.550835563103654e-05,-0.15954763303503428,4.339049413548679e-06,-0.19569521836428538
561,0.5489,689.765,49.8879,-0.0901253,184.621,0.167668,-0.0716627,0.393593,-0.174069,-0.218103,0.327879,8.9145e-05,2.48609e-06,0.434117,0.48229713095527793,0.3880210115855929,8.914897353351492e-05,-0.1597610808272263,2.4860930902814715e-06,-0.195957378988595
562,0.5499,689.449,48.9379,0.13287,184.643,-0.102706,0.0938737,0.394174,-0.174332,-0.218422,0.328364,8.50904e-05,4.68651e-06,0.434764,0.48315859581967313,0.38869436505122823,8.509402029077684e-05,-0.15998203460627314,4.686520981733722e-06,-0.1962138276789569
563,0.5509,689.51,49.1489,0.0660987,184.639,-0.041569,0.0490135,0.394754,-0.174589,-0.218745,0.328847,8.57981e-05,4.26936e-06,0.435409,0.48401907732076155,0.3893652664391902,8.580178076234013e-05,-0.1601978914845824,4.269369113796273e-06,-0.19647340868802676
564,0.5519,689.644,49.5044,0.00720483,184.629,0.0580315,-0.00305163,0.395333,-0.174844,-0.219069,0.329331,8.73359e-05,3.65028e-06,0.436053,0.48487857316656613,0.3900378819879793,8.733971389074391e-05,-0.1604120137205084,3.650286662271185e-06,-0.19673370913266275
565,0.5529,689.564,49.2918,0.0417669,184.636,-0.00123431,0.0288821,0.395913,-0.175103,-0.21939,0.329814,8.64953e-05,4.09779e-06,0.436698,0.485740052543872,0.3907094324513609,8.649904082624893e-05,-0.16062943885118497,4.097798395941155e-06,-0.19699151623177802
566,0.5539,689.679,49.6066,-0.0167974,184.627,0.087274,-0.0200432,0.396492,-0.175358,-0.219713,0.330296,8.79634e-05,3.47155e-06,0.437341,0.4866005451228572,0.39137991597135,8.796726889337414e-05,-0.16084345105656206,3.4715560257581046e-06,-0.1972508460880087
567,0.5549,689.556,49.2607,0.0522789,184.636,-0.0102608,0.0356885,0.397071,-0.175617,-0.220034,0.330779,8.65659e-05,4.21865e-06,0.437985,0.4874615360713097,0.3920521147937117,8.65696469356525e-05,-0.16106076445943796,4.2186588984360895e-06,-0.19750848721280168
568,0.5559,689.701,49.6734,-0.0336989,184.626,0.106468,-0.0320637,0.397649,-0.175872,-0.220356,0.331261,8.84806e-05,3.33831e-06,0.438628,0.48832153735558714,0.39272324564258354,8.848451452370121e-05,-0.16127466669080726,3.33831557219888e-06,-0.19776684788161913
569,0.5569,689.535,49.1917,0.0697148,184.638,-0.0299212,0.0482238,0.398227,-0.176131,-0.220676,0.331743,8.64869e-05,4.40816e-06,0.439271,0.4891820358642913,0.39339470005449706,8.64906400996901e-05,-0.16149186842329577,4.408169715919286e-06,-0.19802352142034052
570,0.5579,689.729,49.7579,-0.0546018,184.624,0.130701,-0.0470854,0.398804,-0.176384,-0.220999,0.332225,8.90808e-05,3.16358e-06,0.439913,0.4900415418426134,0.39406647818544704,8.908476781233077e-05,-0.1617039841468142,3.163585004184455e-06,-0.19828251799272356
571,0.5589,689.503,49.0932,0.0931509,184.64,-0.0579184,0.065584,0.399382,-0.176644,-0.221318,0.332706,8.62804e-05,4.66041e-06,0.440555,0.4909030348012793,0.394737185453621,8.628412226086013e-05,-0.16192191277898615,4.660420859670111e-06,-0.19853822508203467
572,0.5599,689.768,49.874,-0.082593,184.622,0.16389,-0.067431,0.399958,-0.176896,-0.221641,0.333187,8.98203e-05,2.91874e-06,0.441196,0.4917620423197404,0.39540821540959104,8.98243339639837e-05,-0.16213308184854558,2.918744259616801e-06,-0.19879705543198145
573,0.5609,689.458,48.9569,0.124728,184.644,-0.0966183,0.0893046,0.400535,-0.177157,-0.221959,0.333668,8.59083e-05,4.99623e-06,0.441838,0.4926230373913494,0.39607956820860757,8.59119902236749e-05,-0.16235173657849966,4.996242481070112e-06,-0.19905179746222457
574,0.5619,689.519,49.163,0.062171,184.64,-0.0370879,0.046484,0.401111,-0.177412,-0.222279,0.334148,8.661e-05,4.59747e-06,0.442478,0.49348303591668485,0.3967498472554494,8.661375075424971e-05,-0.16256530965394766,4.597480568468981e-06,-0.1993080598828626
575,0.5629,689.646,49.4994,0.00751623,184.63,0.0571268,-0.00228725,0.401687,-0.177666,-0.2226,0.334628,8.80739e-05,4.02064e-06,0.443118,0.4943435299438619,0.39742044811346244,8.8077778619855e-05,-0.16277799105361435,4.020648082692091e-06,-0.19956504074800463
576,0.5639,689.572,49.302,0.0394989,184.636,0.00209348,0.0273328,0.402262,-0.177923,-0.222919,0.335108,8.72991e-05,4.43589e-06,0.443758,0.4952030245545993,0.39809137093715297,8.730291067737816e-05,-0.1629931294634438,4.435899838561852e-06,-0.19982033877780536
577,0.5649,689.679,49.595,-0.0148503,184.628,0.0844885,-0.0181091,0.402837,-0.178176,-0.22324,0.335587,8.86767e-05,3.85705e-06,0.444397,0.49606301351685045,0.398761217119185,8.868063189471087e-05,-0.16320486541596213,3.857057438327871e-06,-0.20007715522781222
578,0.5659,689.566,49.2751,0.0491322,184.637,-0.00574468,0.0334331,0.403412,-0.178433,-0.223558,0.336067,8.73896e-05,4.54736e-06,0.445037,0.49692349711494876,0.3994327836664793,8.739341858232663e-05,-0.1634198941331766,4.547370339169632e-06,-0.2003314902510378
579,0.5669,689.699,49.6553,-0.0303085,184.627,0.101859,-0.0290334,0.403986,-0.178686,-0.223879,0.336545,8.91676e-05,3.73898e-06,0.445675,0.49778297784966563,0.4001018724365484,8.917157554866328e-05,-0.16363152212789067,3.7389869900206207e-06,-0.2005881426477537
580,0.5679,689.547,49.2135,0.0649516,184.638,-0.0233066,0.0447127,0.40456,-0.178943,-0.224197,0.337024,8.73435e-05,4.72044e-06,0.446314,0.49864295206794007,0.400772681879481,8.734731455461997e-05,-0.16384644120841896,4.7204511413045935e-06,-0.2008423152028136
581,0.5689,689.724,49.7307,-0.0491521,184.626,0.123498,-0.0424951,0.405133,-0.179195,-0.224517,0.337502,8.97296e-05,3.58574e-06,0.446951,0.4995019205504434,0.40144241127399294,8.973362582098687e-05,-0.16405712535791672,3.5857464286692675e-06,-0.20109800474943929
582,0.5699,689.519,49.1261,0.0859868,184.641,-0.048167,0.0601973,0.405707,-0.179453,-0.224834,0.33798,8.71858e-05,4.94802e-06,0.447589,0.5003628817250574,0.40211246087567876,8.718960079234783e-05,-0.16427277080011615,4.948032241491873e-06,-0.20135121654574362
583,0.5709,689.759,49.8333,-0.0741003,184.624,0.152874,-0.0605501,0.406279,-0.179704,-0.225154,0.338457,9.04122e-05,3.37218e-06,0.448225,0.501221334787574,0.40278142805550465,9.04162873061054e-05,-0.16448251201102215,3.372185685801554e-06,-0.20160674326999262
584,0.5719,689.48,49.0061,0.114062,184.643,-0.0822606,0.081165,0.406852,-0.179962,-0.22547,0.338935,8.68849e-05,5.24745e-06,0.448862,0.5020817811067353,0.4034521178602084,8.68886746021591e-05,-0.16469804771762164,5.2474637679544855e-06,-0.2018589956811393
585,0.5729,689.805,49.9735,-0.107779,184.62,0.192961,-0.0850377,0.407424,-0.180211,-0.225791,0.339412,9.12611e-05,3.07435e-06,0.449498,0.5029412176609502,0.4041217242088455,9.126526442093663e-05,-0.16490601201111088,3.0743547259071136e-06,-0.2021151578273016
586,0.5739,689.698,49.7006,-0.0728276,184.628,0.11682,-0.0512085,0.407995,-0.180466,-0.226109,0.339889,9.05153e-05,3.33834e-06,0.450134,0.5037996421531035,0.40479165003590056,9.051939663340391e-05,-0.1651189338293625,3.338345572201362e-06,-0.20236884486873508
587,0.5749,689.64,49.4406,0.0350815,184.632,0.0399085,0.0137273,0.408567,-0.180721,-0.226425,0.340365,8.95528e-05,4.15536e-06,0.450769,0.5046600616049188,0.4054604900326084,8.955680997169146e-05,-0.16533180135947245,4.155368633629308e-06,-0.20262085649382267
588,0.5759,689.659,49.5637,-0.0288592,184.632,0.077552,-0.0201464,0.409138,-0.180974,-0.226743,0.340841,9.02809e-05,3.69665e-06,0.451404,0.5055194678372243,0.406129648472938,9.028497544316672e-05,-0.16554294570284278,3.6966568326413096e-06,-0.20287438274864666
589,0.5769,689.606,49.3496,0.0495983,184.635,0.0144924,0.0274226,0.409708,-0.181228,-0.22706,0.341317,8.94333e-05,4.33425e-06,0.452039,0.5063778585520045,0.40679912550850506,8.943729927679556e-05,-0.16575487087899754,4.334259392946294e-06,-0.203127031522369
590,0.5779,689.67,49.5844,-0.0282425,184.631,0.0830751,-0.0219722,0.410279,-0.18148,-0.227378,0.341792,9.06107e-05,3.69051e-06,0.452673,0.5072382459264562,0.407467513822779,9.061480527350341e-05,-0.16596507416480955,3.6905168099288232e-06,-0.20338039683912446
591,0.5789,689.587,49.2986,0.0568262,184.636,0.000401352,0.0344326,0.410849,-0.181735,-0.227693,0.342268,8.94466e-05,4.44676e-06,0.453307,0.5080976166240156,0.40813762783384067,8.945060046650077e-05,-0.16617772595664182,4.446769886756741e-06,-0.20363129249597955
592,0.5799,689.69,49.6336,-0.0362918,184.63,0.0969146,-0.0291771,0.411418,-0.181986,-0.228011,0.342742,9.10553e-05,3.62007e-06,0.45394,0.5089559683457812,0.40880524328179546,9.105944565956925e-05,-0.16638698908380556,3.620076552524054e-06,-0.2038844974832391
593,0.5809,689.565,49.2389,0.0676294,184.638,-0.0162917,0.043673,0.411987,-0.182241,-0.228326,0.343217,8.94152e-05,4.59106e-06,0.454573,0.5098148086086529,0.40947458472836273,8.94191976581471e-05,-0.1665995333010497,4.591070538850772e-06,-0.20413523437339842
594,0.5819,689.714,49.7013,-0.0499349,184.628,0.116144,-0.0400419,0.412556,-0.182491,-0.228644,0.343691,9.15822e-05,3.50222e-06,0.455205,0.5106741376906905,0.41014283404410024,9.158639377759847e-05,-0.16680785737613013,3.5022261328787607e-06,-0.2043882791326186
595,0.5829,689.538,49.1601,0.0838868,184.64,-0.0384973,0.0566077,0.413125,-0.182746,-0.228958,0.344166,8.92977e-05,4.78425e-06,0.455838,0.5115339558701106,0.4108128109972007,8.930168715837183e-05,-0.16702029428564202,4.784261444568116e-06,-0.20463806199500922
596,0.5839,689.746,49.7924,-0.0699416,184.626,0.142078,-0.0552602,0.413693,-0.182995,-0.229276,0.344639,9.22132e-05,3.32737e-06,0.456469,0.5123927510317816,0.41148028330155784,9.221745176790641e-05,-0.16722768041172076,3.3273755357665635e-06,-0.20489094688046694
597,0.5849,689.503,49.0545,0.106978,184.643,-0.0683944,0.0744432,0.41426,-0.183251,-0.22959,0.345113,8.90606e-05,5.0418e-06,0.457101,0.5132505208763873,0.4121494835437707,8.906456601298629e-05,-0.16744084283958038,5.04181270999382e-06,-0.2051405719299627
598,0.5859,689.788,49.9148,-0.0980359,184.623,0.177013,-0.0761467,0.414828,-0.183498,-0.229908,0.345585,9.29842e-05,3.07835e-06,0.457731,0.514110291323937,0.4128161754269104,9.298852316463879e-05,-0.1676464595566891,3.0783547382284837e-06,-0.2053932970426664
599,0.5869,689.455,48.9124,0.138812,184.646,-0.108687,0.0987467,0.415395,-0.183756,-0.23022,0.346059,8.86617e-05,5.38411e-06,0.458363,0.5149690352900256,0.413486009032086,8.866563056475485e-05,-0.16786117907011522,5.3841244942454125e-06,-0.2056411756629135
600,0.5879,689.524,49.1464,0.0682474,184.642,-0.0410361,0.0506552,0.415962,-0.184006,-0.230535,0.346531,8.94718e-05,4.93245e-06,0.458993,0.5158282663020075,0.4141533319041577,8.947580272078426e-05,-0.16806918777317637,4.932462164486395e-06,-0.2058913592865902
601,0.5889,689.653,49.4946,0.00705446,184.632,0.0568898,-0.00160106,0.416528,-0.184256,-0.230851,0.347003,9.09942e-05,4.31807e-06,0.459622,0.5166864679488898,0.41482096982697136,9.099834009784757e-05,-0.16827714448056164,4.318079322773727e-06,-0.20614225797297547
602,0.5899,689.581,49.3003,0.0405538,184.638,0.00252912,0.0282406,0.417094,-0.184509,-0.231165,0.347475,9.02239e-05,4.73591e-06,0.460252,0.5175451554753949,0.41548892294926576,9.0227970298562e-05,-0.16848754374637864,4.735921214527039e-06,-0.20639149017246883
603,0.5909,689.686,49.5921,-0.0161075,184.63,0.0848676,-0.0178857,0.417659,-0.184758,-0.23148,0.347946,9.16072e-05,4.15229e-06,0.46088,0.5184028107530392,0.4161557752633669,9.161139606761459e-05,-0.16869456457282328,4.152298620718753e-06,-0.2066414374842961
604,0.5919,689.576,49.278,0.0489681,184.639,-0.00398833,0.0335,0.418225,-0.185011,-0.231794,0.348418,9.03349e-05,4.83749e-06,0.461509,0.5192624700045438,0.4168243585625375,9.033898031995946e-05,-0.16890485824471513,4.837501700771796e-06,-0.2068905129660289
605,0.5929,689.704,49.6487,-0.0307191,184.629,0.101178,-0.0281463,0.418789,-0.18526,-0.232109,0.348889,9.20843e-05,4.04494e-06,0.462137,0.5201195757187176,0.417491840014963,9.208853988940113e-05,-0.16911177517278553,4.044948180847996e-06,-0.2071403031104314
606,0.5939,689.559,49.2221,0.0635168,184.64,-0.0199278,0.0437972,0.419354,-0.185513,-0.232421,0.34936,9.03141e-05,4.99799e-06,0.462765,0.5209786859547862,0.41815963592520133,9.031817844107337e-05,-0.16932196330374705,4.998002489875475e-06,-0.20738763674980687
607,0.5949,689.727,49.7169,-0.0479819,184.628,0.120805,-0.040387,0.419918,-0.18576,-0.232736,0.34983,9.26183e-05,3.90977e-06,0.463392,0.521836759887768,0.41882632761436045,9.262258920705868e-05,-0.16952711544147903,3.909777643196222e-06,-0.20763727032487844
608,0.5959,689.534,49.1439,0.0825928,184.642,-0.0421769,0.057727,0.420482,-0.186014,-0.233048,0.3503,9.01966e-05,5.20515e-06,0.464019,0.5226953179109486,0.4194933327222612,9.020066783560488e-05,-0.1697380287670306,5.205163546850855e-06,-0.20788444893466884
609,0.5969,689.757,49.8078,-0.0703805,184.626,0.14689,-0.0564702,0.421045,-0.186261,-0.233363,0.35077,9.32538e-05,3.72441e-06,0.464646,0.5235528367438333,0.4201606513962448,9.325814827088053e-05,-0.169943078149284,3.7244169355243884e-06,-0.20813392603854775
610,0.5979,689.499,49.0386,0.107595,184.644,-0.0721177,0.0762343,0.421609,-0.186515,-0.233674,0.35124,8.99593e-05,5.47195e-06,0.465272,0.5244123629073507,0.42082828378372206,8.99633464592764e-05,-0.1701538858337247,5.471964971137666e-06,-0.20838015809648003
611,0.5989,689.797,49.9297,-0.100025,184.623,0.181787,-0.0778624,0.422171,-0.18676,-0.23399,0.351709,9.4027e-05,3.46993e-06,0.465898,0.5252693234386583,0.4214948085366539,9.403142067698766e-05,-0.17035717322797284,3.4699360202949947e-06,-0.20863027044668891
612,0.5999,689.453,48.8977,0.140581,184.648,-0.112199,0.100856,0.422734,-0.187015,-0.234299,0.352178,8.95637e-05,5.81849e-06,0.466524,0.5261282918446717,0.42216164596301087,8.956771094781324e-05,-0.17056870517732992,5.81850692737973e-06,-0.20887476591662546
613,0.6009,689.527,49.1429,0.0692926,184.642,-0.0414667,0.0515912,0.423296,-0.187264,-0.234612,0.352647,9.04199e-05,5.35563e-06,0.467149,0.526986216999076,0.4228287962094712,9.042398800240825e-05,-0.17077520785908995,5.355644341342725e-06,-0.20912234936606244
614,0.6019,689.655,49.4912,0.00674714,184.633,0.0566212,-0.00117952,0.423857,-0.187511,-0.234925,0.353115,9.19479e-05,4.73738e-06,0.467773,0.527843096599067,0.4234948359272348,9.19521273377022e-05,-0.17098000108974354,4.7373912213100056e-06,-0.2093698553340062
615,0.6029,689.585,49.3021,0.0404301,184.639,0.00361051,0.028249,0.424419,-0.187762,-0.235237,0.353583,9.11966e-05,5.14939e-06,0.468397,0.5287019857445994,0.4241611874245368,9.120075853630283e-05,-0.17118805899711032,5.149403258242202e-06,-0.2096164934615934
616,0.6039,689.687,49.5882,-0.0161586,184.631,0.0844402,-0.017318,0.42498,-0.188009,-0.23555,0.35405,9.25604e-05,4.57512e-06,0.469021,0.5295598281609015,0.42482642602018594,9.256468384588601e-05,-0.17139275026612566,4.575130465811483e-06,-0.2098638447866381
617,0.6049,689.581,49.2824,0.0481755,184.639,-0.00213355,0.033029,0.42554,-0.18826,-0.23586,0.354518,9.13208e-05,5.24533e-06,0.469645,0.5304166215444281,0.42549340084749954,9.132496987129812e-05,-0.17160070458644994,5.245343756676846e-06,-0.21010874903263488
618,0.6059,689.705,49.6419,-0.030081,184.63,0.0999577,-0.0270721,0.426101,-0.188507,-0.236173,0.354985,9.30273e-05,4.47553e-06,0.470267,0.5312754261412802,0.4261592617321104,9.303162717344549e-05,-0.1718052939445912,4.475540015258517e-06,-0.21035594630579624
619,0.6069,689.565,49.2303,0.0618655,184.64,-0.0170171,0.042679,0.426661,-0.188758,-0.236483,0.355452,9.13174e-05,5.39775e-06,0.47089,0.5321331805287319,0.42682543364637415,9.132156956059845e-05,-0.1720131447294463,5.397764567982577e-06,-0.21060069802396508
620,0.6079,689.726,49.7056,-0.0462856,184.629,0.118295,-0.0385205,0.42722,-0.189004,-0.236796,0.355919,9.35437e-05,4.35189e-06,0.471512,0.5329898824025125,0.42749191673557574,9.354807534833753e-05,-0.1722168044446709,4.35189946945691e-06,-0.21084774134118756
621,0.6089,689.542,49.1578,0.0796847,184.642,-0.0376587,0.055639,0.42778,-0.189255,-0.237105,0.356385,9.12257e-05,5.59249e-06,0.472135,0.5338485971543474,0.42815728298707034,9.122986119081133e-05,-0.17242455195335227,5.592505637919132e-06,-0.21109155171846994
622,0.6099,689.753,49.7895,-0.0670985,184.627,0.142409,-0.0534089,0.428338,-0.1895,-0.237418,0.356851,9.41511e-05,4.18346e-06,0.472756,0.5347047235085984,0.4288229593714936,9.415553235392338e-05,-0.17262728310254383,4.1834687507513735e-06,-0.21133844142252767
623,0.6109,689.51,49.061,0.10283,184.644,-0.065179,0.0726959,0.428897,-0.189752,-0.237726,0.357317,9.10266e-05,5.84047e-06,0.473377,0.5355628632767588,0.42948894603340104,9.103074304661618e-05,-0.17283575475867008,5.840487055541743e-06,-0.21158131177861472
624,0.6119,689.79,49.9009,-0.094373,184.624,0.174351,-0.0730207,0.429455,-0.189995,-0.238039,0.357782,9.48813e-05,3.95372e-06,0.473998,0.5364199464584363,0.43015381296288746,9.488580137295699e-05,-0.1730367312506309,3.95372781603065e-06,-0.21182804821176182
625,0.6129,689.468,48.9328,0.133086,184.647,-0.10167,0.0951707,0.430013,-0.190248,-0.238346,0.358248,9.06871e-05,6.15889e-06,0.474619,0.5372775080259864,0.4308204199470924,9.06912121994008e-05,-0.1732459264933105,6.158908965936405e-06,-0.21206997986255227
626,0.6139,689.537,49.1643,0.0643856,184.642,-0.0347579,0.0480905,0.430571,-0.190495,-0.238656,0.358713,9.15124e-05,5.71317e-06,0.475239,0.5381355482464227,0.4314859061559202,9.151658738737467e-05,-0.17345010953182327,5.7131863202553035e-06,-0.21231420031266934
627,0.6149,689.656,49.4861,0.00786365,184.634,0.0558312,-5.53675e-05,0.431128,-0.19074,-0.238967,0.359177,9.29367e-05,5.15361e-06,0.475858,0.5389925283936106,0.4321502697368078,9.294101874890437e-05,-0.17365258945018514,5.153623279907649e-06,-0.21255913250744163
628,0.6159,689.592,49.3149,0.0372742,184.639,0.00790295,0.0262032,0.431685,-0.190989,-0.239276,0.359641,9.22662e-05,5.52214e-06,0.476477,0.5398499860117036,0.4328149416539253,9.227045665682887e-05,-0.1738583243403553,5.522155247073002e-06,-0.21280241414654788
629,0.6169,689.685,49.5744,-0.013364,184.632,0.0812012,-0.0148387,0.432241,-0.191234,-0.239586,0.360105,9.35176e-05,5.00857e-06,0.477096,0.5407063806595764,0.433479922050374,9.352197290701803e-05,-0.17406070425833964,5.00858254293135e-06,-0.2130464075772267
630,0.6179,689.589,49.2992,0.0441363,184.639,0.00328545,0.0302911,0.432797,-0.191483,-0.239894,0.360569,9.24107e-05,5.60914e-06,0.477715,0.5415632515952691,0.4341452110693216,9.241497000034293e-05,-0.1742663375405732,5.609155731223225e-06,-0.21328875196074204
631,0.6189,689.7,49.6213,-0.025813,184.631,0.0947873,-0.0234574,0.433353,-0.191728,-0.240204,0.361032,9.39571e-05,4.92466e-06,0.478332,0.5424205990836715,0.43480937404391073,9.396151410645537e-05,-0.17446861750756804,4.924672126094265e-06,-0.21353259465006458
632,0.6199,689.576,49.2544,0.0561925,184.64,-0.00949716,0.0386862,0.433909,-0.191976,-0.240512,0.361496,9.24415e-05,5.74563e-06,0.47895,0.5432784233898205,0.4354752800717183,9.244577284706068e-05,-0.1746733239057835,5.745646506127855e-06,-0.21377478931102
633,0.6209,689.718,49.6759,-0.0399724,184.63,0.110569,-0.0333684,0.434464,-0.192221,-0.240822,0.361958,9.4436e-05,4.82217e-06,0.479567,0.5441351806429477,0.4361386228714992,9.444045921935817e-05,-0.17487550417333253,4.822181626673583e-06,-0.21401848135211565
634,0.6219,689.556,49.1925,0.0716538,184.642,-0.0271281,0.0498389,0.435019,-0.19247,-0.241129,0.362421,9.23979e-05,5.91721e-06,0.480185,0.544992413528326,0.43680370900944854,9.240216881734042e-05,-0.17508093459564433,5.917227506646583e-06,-0.21425974064314446
635,0.6229,689.741,49.7473,-0.0578774,184.628,0.131112,-0.0460964,0.435573,-0.192713,-0.241439,0.362883,9.49903e-05,4.68314e-06,0.480801,0.5458485764606555,0.43746766568519324,9.499481172148272e-05,-0.17528136557518736,4.683150965911764e-06,-0.2145032823726266
636,0.6239,689.529,49.1107,0.091485,184.644,-0.0504288,0.0643549,0.436127,-0.192962,-0.241745,0.363346,9.22656e-05,6.13235e-06,0.481417,0.5467052138386588,0.4381333673124401,9.226985660149012e-05,-0.175486694950591,6.1323688029801815e-06,-0.21474360759658606
637,0.6249,689.772,49.8412,-0.0810431,184.626,0.158061,-0.0626817,0.436681,-0.193204,-0.242055,0.363807,9.56455e-05,4.49422e-06,0.482033,0.5475623259252516,0.4387964996350273,9.565007417666749e-05,-0.17568620302896176,4.494230098961438e-06,-0.2149869993505602
638,0.6259,689.494,49.0031,0.117133,184.646,-0.0810413,0.0832838,0.437234,-0.193455,-0.24236,0.364269,9.20186e-05,6.40472e-06,0.482649,0.5484183645643566,0.43946137719274825,9.202283384124321e-05,-0.17589307982787716,6.404740510168594e-06,-0.2152263918065529
639,0.6269,689.813,49.9643,-0.111279,184.624,0.19338,-0.0843608,0.437787,-0.193695,-0.242671,0.364729,9.64321e-05,4.23941e-06,0.483263,0.5492748767237452,0.44012368174462524,9.643674972448224e-05,-0.17609084175633782,4.239418986307086e-06,-0.215470418450591
640,0.6279,689.706,49.6851,-0.0698788,184.631,0.115031,-0.0475084,0.43834,-0.193941,-0.242977,0.365191,9.56262e-05,4.54985e-06,0.483878,0.5501318626653469,0.44078917260214223,9.563077233076811e-05,-0.17629349848146658,4.549860350477886e-06,-0.21571044777618542
641,0.6289,689.654,49.4492,0.0293592,184.635,0.0450887,0.0118424,0.438892,-0.194188,-0.243284,0.365651,9.47576e-05,5.29066e-06,0.484492,0.5509877716626883,0.4414520880804098,9.476208964320776e-05,-0.17649692886265533,5.290673995572703e-06,-0.21595118771324695
642,0.6299,689.667,49.5458,-0.0247132,184.635,0.0749833,-0.0161086,0.439444,-0.194433,-0.243591,0.366111,9.53716e-05,4.9164e-06,0.485106,0.5518441532522196,0.44211530856994474,9.537614801558014e-05,-0.17669866240171628,4.916412085442801e-06,-0.21619185375449146
643,0.6309,689.624,49.3688,0.0422984,184.637,0.0226139,0.0239425,0.439996,-0.194679,-0.243897,0.366572,9.46829e-05,5.45097e-06,0.48572,0.5527010076948837,0.4427802769906397,9.468738256734888e-05,-0.17690116962135627,5.450984856603114e-06,-0.2164316623546555
644,0.6319,689.674,49.5565,-0.0221516,184.634,0.0777002,-0.0163024,0.440547,-0.194922,-0.244204,0.367031,9.56632e-05,4.93514e-06,0.486333,0.5535567816942093,0.44344266514423025,9.566777586988984e-05,-0.17710115833752516,4.935152177809599e-06,-0.21667218091282492
645,0.6329,689.609,49.3311,0.0470861,184.638,0.01228,0.0288826,0.441099,-0.195168,-0.24451,0.367491,9.47582e-05,5.53851e-06,0.486946,0.5544145817687438,0.44410680150984994,9.476268970010082e-05,-0.17730356655534263,5.538525337467348e-06,-0.21691184255536422
646,0.6339,689.687,49.5898,-0.0270812,184.633,0.0871082,-0.0209625,0.441649,-0.195411,-0.244817,0.36795,9.60466e-05,4.90178e-06,0.487558,0.5552697449370305,0.44476979867795285,9.605121262246108e-05,-0.1775034575009361,4.901792013844997e-06,-0.21715221372083793
647,0.6349,689.594,49.2907,0.0540886,184.639,0.0010342,0.035011,0.4422,-0.195657,-0.245122,0.368409,9.48152e-05,5.64397e-06,0.48817,0.5561269347005837,0.4454331002316072,9.481969510316546e-05,-0.17770576676533112,5.643985927283879e-06,-0.21739094588714702
648,0.6359,689.703,49.6343,-0.0358838,184.632,0.0997972,-0.0280078,0.44275,-0.1959,-0.245429,0.368867,9.64802e-05,4.83803e-06,0.488782,0.5569830399220239,0.44609526021457446,9.648485436408727e-05,-0.1779055599881474,4.838041703258966e-06,-0.21763116999047305
649,0.6369,689.577,49.24,0.0645621,184.641,-0.0132482,0.043327,0.443299,-0.196146,-0.245733,0.369326,9.48245e-05,5.7783e-06,0.489393,0.5578380582920084,0.44675917029472023,9.482899598500794e-05,-0.17810777034749636,5.778316694460273e-06,-0.2178689739667602
650,0.6379,689.723,49.6917,-0.0485767,184.631,0.116219,-0.0375953,0.443849,-0.196387,-0.24604,0.369784,9.69725e-05,4.74138e-06,0.490004,0.5586951048902788,0.44742193775687866,9.697720198476034e-05,-0.17830582250859872,4.741391240292714e-06,-0.2181090513379903
651,0.6389,689.555,49.1747,0.0790831,184.642,-0.0317057,0.0544073,0.444398,-0.196634,-0.246344,0.370242,9.47682e-05,5.94866e-06,0.490615,0.5595510634419871,0.44808500883605795,9.477269064772642e-05,-0.17850875590713255,5.948677693323745e-06,-0.2183467100604275
652,0.6399,689.748,49.7658,-0.0658397,184.629,0.137443,-0.0502939,0.444946,-0.196874,-0.246651,0.370699,9.75405e-05,4.60452e-06,0.491224,0.5604059316372456,0.4487469349236868,9.754525722915908e-05,-0.17870589014865967,4.604530600804679e-06,-0.21858664078918766
653,0.6409,689.527,49.0905,0.0984772,184.645,-0.0556053,0.068954,0.445495,-0.197122,-0.246953,0.371157,9.46265e-05,6.164e-06,0.491835,0.5612628296907074,0.44941061299055773,9.463097722850478e-05,-0.178909545833554,6.164018997445453e-06,-0.21882259199324416
654,0.6419,689.78,49.8614,-0.0887522,184.627,0.164882,-0.066919,0.446043,-0.197361,-0.24726,0.371613,9.82066e-05,4.41695e-06,0.492444,0.5621186361909423,0.4500716949453121,9.821142242594227e-05,-0.179105763003214,4.4169597548382455e-06,-0.21906237664867434
655,0.6429,689.491,48.9818,0.123906,184.647,-0.08654,0.0878976,0.446591,-0.197609,-0.247562,0.37207,9.43741e-05,6.43629e-06,0.493053,0.5629749118016636,0.450734529155983,9.437855337557366e-05,-0.1793093195319364,6.436310713064941e-06,-0.2192981842021936
656,0.6439,689.821,49.9851,-0.118823,184.624,0.200345,-0.0885531,0.447138,-0.197846,-0.24787,0.372526,9.89992e-05,4.16476e-06,0.493661,0.5638300929491398,0.4513962149541746,9.900410058261144e-05,-0.1795038001763406,4.16476867259874e-06,-0.2195386033350123
657,0.6449,689.71,49.6923,-0.0722088,184.632,0.117946,-0.0486106,0.447685,-0.19809,-0.248173,0.372982,9.81363e-05,4.50937e-06,0.49427,0.564685742008666,0.4520582025498945,9.814111552430838e-05,-0.17970397682655315,4.509380167272425e-06,-0.21977504731512987
658,0.6459,689.656,49.4509,0.0280295,184.635,0.0464543,0.0115186,0.448231,-0.198335,-0.248476,0.373438,9.72437e-05,5.25694e-06,0.494878,0.5655402936951834,0.4527204920807941,9.72484283219277e-05,-0.17990492473510666,5.256953817811549e-06,-0.22001141966357418
659,0.6469,689.669,49.5458,-0.0248629,184.635,0.0757953,-0.0158485,0.448778,-0.198577,-0.24878,0.373894,9.78524e-05,4.89145e-06,0.495485,0.5663968784904181,0.45338308368458735,9.785718770216612e-05,-0.1801033637312338,4.891461963252297e-06,-0.22024850015393604
660,0.6479,689.626,49.3697,0.0413866,184.638,0.0237276,0.0238118,0.449324,-0.19882,-0.249083,0.374349,9.71667e-05,5.41942e-06,0.496093,0.5672523647125596,0.4540445234538,9.717142083665031e-05,-0.1803025744087695,5.419434685016711e-06,-0.22048472906790162
661,0.6489,689.675,49.5543,-0.0218597,184.635,0.0779053,-0.015687,0.449869,-0.199061,-0.249387,0.374804,9.81368e-05,4.91552e-06,0.496699,0.5681067500501846,0.45470626424658556,9.814161557319956e-05,-0.1805000976858261,4.915532081151142e-06,-0.22072166569407303
662,0.6499,689.612,49.3338,0.045909,184.639,0.013878,0.0285018,0.450415,-0.199305,-0.24969,0.375259,9.72508e-05,5.50428e-06,0.497306,0.5689631701171143,0.4553683061999405,9.725552901240775e-05,-0.18070003126910172,5.504295148561766e-06,-0.22095775126059825
663,0.6509,689.687,49.5852,-0.0263418,184.634,0.0866315,-0.0199631,0.45096,-0.199545,-0.249994,0.375713,9.85117e-05,4.88823e-06,0.497912,0.569818488097807,0.4560291934210028,9.851655243675594e-05,-0.18089663966764558,4.888241947442751e-06,-0.22119454410987827
664,0.6519,689.598,49.2964,0.052374,184.64,0.00345913,0.0341726,0.451505,-0.199789,-0.250296,0.376168,9.73221e-05,5.60441e-06,0.498518,0.5706742723538476,0.4566918374440927,9.732683594920744e-05,-0.18109647650648086,5.6044257046306e-06,-0.22142970784604565
665,0.6529,689.702,49.6261,-0.034432,184.633,0.0983121,-0.0264271,0.452049,-0.200029,-0.250599,0.376621,9.8932e-05,4.83321e-06,0.499123,0.5715289516096882,0.4573518683321638,9.893689393170035e-05,-0.1812929897695844,4.833221679989563e-06,-0.22166557890829774
666,0.6539,689.582,49.25,0.0619743,184.641,-0.00958301,0.041779,0.452593,-0.200272,-0.250901,0.377075,9.73518e-05,5.73009e-06,0.499728,0.5723840959375321,0.4580136562948871,9.735653884024309e-05,-0.18149191140311316,5.730106416912406e-06,-0.22190060041343385
667,0.6549,689.72,49.6782,-0.046007,184.632,0.113242,-0.035137,0.453137,-0.200511,-0.251204,0.377528,9.94035e-05,4.74925e-06,0.500333,0.5732397055904472,0.4586742861025428,9.940844069156185e-05,-0.1816875114611498,4.749261277803285e-06,-0.22213632881685197
668,0.6559,689.562,49.1911,0.0751567,184.643,-0.0262264,0.0517987,0.45368,-0.200755,-0.251505,0.377982,9.73249e-05,5.88715e-06,0.500937,0.5740942067266455,0.4593366745792402,9.73296362216658e-05,-0.18188715535080824,5.887167329410303e-06,-0.22237043054780015
669,0.6569,689.743,49.7445,-0.0615787,184.63,0.132294,-0.0465416,0.454223,-0.200993,-0.251808,0.378434,9.99403e-05,4.63059e-06,0.501541,0.574949171982958,0.45999644385277305,9.99452941981005e-05,-0.18208184303908082,4.630600721089451e-06,-0.2226060166142526
670,0.6579,689.537,49.1162,0.0925704,184.644,-0.0475128,0.0647974,0.454766,-0.201238,-0.252108,0.378887,9.7225e-05,6.08277e-06,0.502145,0.5758046016114704,0.46065797206666614,9.722972650338946e-05,-0.18228220844177212,6.082788500005876e-06,-0.2228391998300372
671,0.6589,689.771,49.8292,-0.0819994,184.628,0.156615,-0.0612947,0.455308,-0.201475,-0.252412,0.379339,0.000100561,4.46888e-06,0.502747,0.5766589192046976,0.46131833870165684,0.00010056605642683181,-0.18247598459499026,4.4688899853984054e-06,-0.22307542080588127
672,0.6599,689.506,49.0205,0.115142,184.647,-0.0747292,0.0815206,0.45585,-0.20172,-0.252711,0.379791,9.70315e-05,6.32648e-06,0.503351,0.5775136999635668,0.4619790038898346,9.703620770817878e-05,-0.18267625344482863,6.326500012310277e-06,-0.2233076865296042
673,0.6609,689.806,49.9372,-0.108465,184.626,0.187657,-0.0802597,0.456392,-0.201956,-0.253015,0.380243,0.000101288,4.25304e-06,0.503952,0.5783689441391822,0.46263996776617566,0.00010129312980255989,-0.18286911908997439,4.2530490442782565e-06,-0.22354376510713736
674,0.6619,689.465,48.8985,0.144104,184.65,-0.109491,0.102933,0.456934,-0.202202,-0.253313,0.380695,9.67187e-05,6.63062e-06,0.504555,0.5792246519827831,0.4633012304657178,9.672337740429526e-05,-0.18307010856395933,6.630641982585672e-06,-0.22377511459235
675,0.6629,689.544,49.1599,0.0677871,184.644,-0.0338993,0.0506561,0.457475,-0.202441,-0.253614,0.381146,9.76839e-05,6.12998e-06,0.505157,0.5800792436657125,0.4639613281614996,9.768867122761371e-05,-0.1832653314779451,6.1299987883511875e-06,-0.22400872312301012
676,0.6639,689.658,49.4746,0.00831651,184.636,0.055116,0.0020549,0.458015,-0.202679,-0.253915,0.381596,9.90978e-05,5.57392e-06,0.505758,0.5809327168743188,0.46462025900749304,9.910271034918594e-05,-0.18345969119932903,5.573935534242125e-06,-0.224242261348084
677,0.6649,689.602,49.3237,0.0357816,184.64,0.0127361,0.0257252,0.458556,-0.20292,-0.254215,0.382047,9.85092e-05,5.90747e-06,0.506359,0.5817882328703587,0.4652809517193133,9.851405219052367e-05,-0.18365645370291594,5.9074874492193175e-06,-0.224474953764072
678,0.6659,689.685,49.5591,-0.0123935,184.634,0.0794709,-0.0122153,0.459096,-0.203159,-0.254516,0.382497,9.96714e-05,5.44084e-06,0.506959,0.582642629182351,0.4659404765295396,9.967636735908059e-05,-0.18385153649715846,5.440854801364026e-06,-0.22470835167484127
679,0.6669,689.602,49.3166,0.0403685,184.64,0.0105905,0.0282341,0.459636,-0.2034,-0.254816,0.382947,9.86976e-05,5.97652e-06,0.50756,0.5834974869929455,0.46660029819271776,9.87024707683748e-05,-0.18404820457740712,5.97653785949781e-06,-0.22494090428470315
680,0.6679,689.697,49.5966,-0.0226337,184.634,0.09043,-0.0191904,0.460175,-0.203638,-0.255116,0.383397,0.000100077,5.3821e-06,0.50816,0.5843512221994036,0.4672604168424612,0.00010008200787003929,-0.18424237799716414,5.382114483420963e-06,-0.22517338713924595
681,0.6689,689.592,49.2835,0.0496614,184.641,0.00114988,0.03458,0.460714,-0.203879,-0.255415,0.383847,9.87851e-05,6.0883e-06,0.508759,0.5852054176931747,0.467920832612444,9.878997940870882e-05,-0.1844389518959606,6.088318533770121e-06,-0.22540502566480602
682,0.6699,689.71,49.6372,-0.0334744,184.633,0.102233,-0.026644,0.461253,-0.204116,-0.255716,0.384296,0.000100502,5.31542e-06,0.509358,0.5860600737224197,0.46858007705558924,0.00010050705049513553,-0.1846322169615463,5.315434126851315e-06,-0.2256381436660616
683,0.6709,689.578,49.2386,0.0612347,184.642,-0.0116362,0.0427956,0.461792,-0.204358,-0.256014,0.384745,9.88213e-05,6.2234e-06,0.509957,0.5869151905354348,0.46923961756595123,9.882618298551193e-05,-0.1848295120913681,6.22341936540316e-06,-0.22586886911944914
684,0.6719,689.726,49.6882,-0.0466113,184.632,0.116989,-0.0358325,0.46233,-0.204594,-0.256315,0.385194,0.000100974,5.22649e-06,0.510556,0.5877691806106746,0.4698994542764947,0.00010097909804596128,-0.1850218696274325,5.226503658084525e-06,-0.2261018475248352
685,0.6729,689.559,49.1812,0.0755497,184.643,-0.0279789,0.0531107,0.462868,-0.204836,-0.256612,0.385642,9.88015e-05,6.38541e-06,0.511154,0.5886236302561882,0.4705581167613908,9.880638102899297e-05,-0.1852190704727179,6.385430386668389e-06,-0.22633166114710812
686,0.6739,689.747,49.7529,-0.0629656,184.63,0.135655,-0.0473735,0.463405,-0.205071,-0.256913,0.38609,0.000101509,5.10756e-06,0.511751,0.589476950241546,0.47121707439318805,0.0001015141522129337,-0.18541052149478066,5.107573043616753e-06,-0.2265645002730564
687,0.6749,689.536,49.1084,0.0934158,184.645,-0.0487141,0.0660827,0.463943,-0.205313,-0.257209,0.386539,9.87122e-05,6.58154e-06,0.512349,0.590332318914317,0.4718777991812053,9.871707220954207e-05,-0.18560762829769384,6.5815616583364545e-06,-0.2267934033016561
688,0.6759,689.774,49.8347,-0.083519,184.628,0.159248,-0.0619243,0.464479,-0.205548,-0.25751,0.386986,0.000102122,4.95021e-06,0.512946,0.5911849655261336,0.4725358756265674,0.00010212721462887764,-0.18579898801939598,4.950222252331216e-06,-0.22702610346413088
689,0.6769,689.506,49.0164,0.115812,184.647,-0.0749515,0.0824176,0.465016,-0.205791,-0.257806,0.387434,9.85358e-05,6.82087e-06,0.513543,0.5920396613179022,0.473195719492838,9.854065481129659e-05,-0.1859968148283765,6.820893262204919e-06,-0.22725486987840593
690,0.6779,689.807,49.9382,-0.109455,184.626,0.189029,-0.0802841,0.465552,-0.206024,-0.258107,0.38788,0.000102834,4.74418e-06,0.514139,0.5928932233105473,0.473852911326617,0.00010283928759702299,-0.186186455476528,4.744191253625019e-06,-0.22748743116034376
691,0.6789,689.468,48.9002,0.143918,184.65,-0.108085,0.102988,0.466088,-0.206267,-0.258402,0.388328,9.82501e-05,7.11452e-06,0.514736,0.5937472429350548,0.47451334535706824,9.825492669923719e-05,-0.18638418814235536,7.114545308217757e-06,-0.22771528875750346
692,0.6799,689.547,49.1651,0.0669845,184.645,-0.031469,0.0502491,0.466624,-0.206504,-0.2587,0.388774,9.92422e-05,6.6079e-06,0.515331,0.5946017204367811,0.47517112498305036,9.924712467013208e-05,-0.1865769922415773,6.60792183215797e-06,-0.22794539531387392
693,0.6809,689.657,49.4704,0.00868928,184.637,0.0549613,0.00293004,0.467159,-0.20674,-0.258998,0.38922,0.000100624,6.0703e-06,0.515926,0.5954550606053559,0.4758291980441771,0.00010062906276453454,-0.18676893742098633,6.070318424367116e-06,-0.22817543330870682
694,0.6819,689.606,49.3295,0.0344948,184.641,0.0153524,0.025096,0.467694,-0.206978,-0.259295,0.389667,0.000100079,6.38377e-06,0.516521,0.5963088574330664,0.47648904115965207,0.00010008400807026696,-0.18696246338337708,6.383790376318643e-06,-0.22840463116744725
695,0.6829,689.684,49.5517,-0.0113817,184.635,0.0784406,-0.0108399,0.468229,-0.207215,-0.259593,0.390112,0.000101189,5.94518e-06,0.517115,0.5971631111642903,0.47714622499552695,0.00010119411977949078,-0.18715513044760623,5.945197672607705e-06,-0.22863453233038478
696,0.6839,689.606,49.3251,0.03835,184.641,0.0140105,0.0270911,0.468763,-0.207453,-0.25989,0.390558,0.000100283,6.44727e-06,0.51771,0.5980162240265139,0.4778051791477278,0.00010028802850814422,-0.18734856450699355,6.447290783695436e-06,-0.2288635938569622
697,0.6849,689.694,49.5857,-0.0207512,184.634,0.0883678,-0.0171741,0.469297,-0.207689,-0.260187,0.391003,0.000101583,5.89622e-06,0.518304,0.5988697925726625,0.47846294879534046,0.00010158815972771684,-0.18754032761683292,5.89623738278533e-06,-0.22909258736236782
698,0.6859,689.598,49.2962,0.0466371,184.641,0.00576964,0.0327,0.469831,-0.207927,-0.260483,0.391448,0.000100393,6.55059e-06,0.518897,0.5997238170461365,0.4791210112155835,0.00010039803954597915,-0.1877336700102027,6.550611455269362e-06,-0.22932074218792853
699,0.6869,689.706,49.6213,-0.0303929,184.634,0.0987571,-0.0237514,0.470364,-0.208163,-0.260781,0.391893,0.000101989,5.84242e-06,0.51949,0.6005766971129687,0.4797793665387695,0.00010199420105494461,-0.18792534224586688,5.842437067027362e-06,-0.229550370390455
700,0.6879,689.585,49.2571,0.0568378,184.642,-0.00534563,0.0398968,0.470897,-0.208401,-0.261076,0.392338,0.000100458,6.67355e-06,0.520083,0.601430031886045,0.4804380148952696,0.00010046304607391754,-0.18811859301665845,6.6735722681343645e-06,-0.22977761951029663
701,0.6889,689.72,49.6654,-0.0418866,184.633,0.111564,-0.0317384,0.47143,-0.208636,-0.261373,0.392782,0.000102434,5.77063e-06,0.520675,0.6022838216077886,0.48109547531929664,0.00010243924654140812,-0.1883093627309801,5.770646650082867e-06,-0.2300063415903919
702,0.6899,689.569,49.2078,0.0692856,184.643,-0.0193963,0.0488177,0.471963,-0.208875,-0.261668,0.393226,0.000100477,6.81854e-06,0.521268,0.6031380665207513,0.48175322772056584,0.00010048204798285276,-0.18850333361284377,6.818563246246967e-06,-0.23023345621856806
703,0.6909,689.738,49.7207,-0.055996,184.631,0.127563,-0.0416413,0.472495,-0.209108,-0.261965,0.393669,0.000102931,5.67455e-06,0.521859,0.6039911628756502,0.48240978981821314,0.00010293629757707201,-0.1886923903101514,5.674566100344336e-06,-0.2304620429352634
704,0.6919,689.549,49.1459,0.0846239,184.645,-0.0370149,0.059895,0.473026,-0.209347,-0.262259,0.394113,0.000100439,6.99115e-06,0.522451,0.6048431083546439,0.4830681259046885,0.00010044404416520436,-0.18888626965936217,6.991174438253367e-06,-0.23068825384000813
705,0.6929,689.76,49.7898,-0.0734934,184.63,0.147536,-0.0539716,0.473558,-0.20958,-0.262557,0.394556,0.000103492,5.54764e-06,0.523042,0.6056971120331249,0.48372527063127424,0.00010349735548187411,-0.1890752371429648,5.547655388182804e-06,-0.2309174745847764
706,0.6939,689.524,49.0686,0.103619,184.647,-0.0590448,0.0736714,0.474089,-0.20982,-0.26285,0.394999,0.000100332,7.19832e-06,0.523633,0.6065499636116694,0.4843827065374653,0.00010033703342338107,-0.1892698357332856,7.198345908010495e-06,-0.23114278275546418
707,0.6949,689.788,49.8762,-0.0952855,184.628,0.172435,-0.0693387,0.47462,-0.210051,-0.263147,0.395441,0.000104131,5.38211e-06,0.524223,0.6074032681746588,0.4850389487125917,0.00010413642182083294,-0.18945709277221046,5.382124483643835e-06,-0.23137109944227963
708,0.6959,689.493,48.9723,0.127175,184.649,-0.0865344,0.0908072,0.475151,-0.210292,-0.26344,0.395884,0.000100138,7.44846e-06,0.524813,0.6082570259626918,0.48569696670709606,0.0001001430139768722,-0.18965241007617195,7.448487739925014e-06,-0.23159627472035382
709,0.6969,689.561,49.2034,0.0574458,184.644,-0.0194838,0.0436924,0.475681,-0.210526,-0.263735,0.396326,0.00010103,6.99252e-06,0.525403,0.609109628106062,0.4863537899136159,0.00010103510370229607,-0.18984200922824812,6.992544447692595e-06,-0.2318229203874318
710,0.6979,689.657,49.4659,0.0101001,184.637,0.0547085,0.00426245,0.476211,-0.21076,-0.26403,0.396768,0.00010224,6.5518e-06,0.525992,0.6099626822483373,0.4870109035001622,0.00010224522668700331,-0.1900315640193132,6.551821463141039e-06,-0.23204949920389883
711,0.6989,689.613,49.3477,0.0296568,184.641,0.0216531,0.0221154,0.47674,-0.210996,-0.264324,0.39721,0.000101803,6.80698e-06,0.526581,0.6108145778137575,0.4876683075951116,0.0001018081821011485,-0.19022269401597802,6.8070031675748766e-06,-0.23227524346510053
712,0.6999,689.679,49.5344,-0.00737135,184.636,0.0745558,-0.00747463,0.47727,-0.21123,-0.264619,0.397651,0.000102759,6.45142e-06,0.527169,0.6116685358188805,0.48832451400163857,0.00010276427988697989,-0.19041215973722436,6.451440810462117e-06,-0.23250168886593947
713,0.7009,689.614,49.3461,0.0329179,184.641,0.0210986,0.0236224,0.477799,-0.211466,-0.264913,0.398092,0.000102026,6.86457e-06,0.527758,0.6125213340195654,0.48898100985901016,0.00010203120482943362,-0.19060319992389763,6.864593561139998e-06,-0.23272730020292132
714,0.7019,689.687,49.5613,-0.0152066,184.635,0.0824829,-0.0126391,0.478327,-0.211699,-0.265207,0.398533,0.000103125,6.41868e-06,0.528346,0.6133729700960666,0.48963779529490226,0.00010313031756559177,-0.19079176740935022,6.418700599697402e-06,-0.23295284521991955
715,0.7029,689.608,49.324,0.0396626,184.641,0.0147874,0.0280756,0.478856,-0.211935,-0.2655,0.398973,0.00010217,6.95417e-06,0.528933,0.6142266701810117,0.4902933801429219,0.00010217521953226338,-0.19098271801918343,6.9541941802864216e-06,-0.23317755711436994
716,0.7039,689.696,49.5887,-0.0229461,184.635,0.0905591,-0.0178122,0.479384,-0.212168,-0.265795,0.399414,0.000103499,6.38443e-06,0.52952,0.6150792069127582,0.49095074446174336,0.0001035043562063187,-0.19117119708722075,6.384450380592099e-06,-0.23340373637194045
717,0.7049,689.598,49.294,0.0477305,184.642,0.00628461,0.0336898,0.479912,-0.212404,-0.266087,0.399854,0.00010228,7.058e-06,0.530107,0.6159321939027569,0.4916069071345086,0.00010228523077748797,-0.19136205816221552,7.05802490763574e-06,-0.23362754980256872
718,0.7059,689.706,49.6224,-0.0319239,184.634,0.100384,-0.0239697,0.480439,-0.212637,-0.266381,0.400293,0.000103901,6.33773e-06,0.530694,0.6167840146039838,0.4922618663197631,0.00010390639789581435,-0.19155044885429573,6.337750083407201e-06,-0.23385283018508785
719,0.7069,689.586,49.2566,0.0573673,184.643,-0.00435909,0.0405339,0.480966,-0.212873,-0.266673,0.400733,0.000102356,7.17749e-06,0.53128,0.6176362843330288,0.4929186060130808,0.00010236123855400514,-0.19174122043643405,7.177515758183262e-06,-0.23407651249946648
720,0.7079,689.72,49.6641,-0.0427283,184.633,0.112507,-0.0314871,0.481493,-0.213105,-0.266967,0.401172,0.000104341,6.27393e-06,0.531866,0.6184890033265917,0.4935741411605574,0.00010434644371137836,-0.19192871472311457,6.273949681112612e-06,-0.23430166090635418
721,0.7089,689.571,49.2102,0.0690465,184.644,-0.0175595,0.0489096,0.48202,-0.213341,-0.267259,0.401611,0.000102392,7.31656e-06,0.532452,0.6193421718214973,0.49422996415114095,0.00010239724223981561,-0.19211939704504088,7.316586766004107e-06,-0.23452521218129496
722,0.7099,689.736,49.7157,-0.0559106,184.632,0.127457,-0.0407204,0.482546,-0.213572,-0.267553,0.40205,0.000104826,6.18849e-06,0.533036,0.6201941698597155,0.49488607511122185,0.00010483149443718531,-0.1923059959113247,6.188509148685739e-06,-0.23475022868986606
723,0.7109,689.553,49.1529,0.0833105,184.645,-0.033878,0.0591881,0.483072,-0.213808,-0.267843,0.402489,0.000102378,7.47995e-06,0.533622,0.6210466161667862,0.4955424741672465,0.0001023832408062475,-0.19249658920539625,7.479977974789165e-06,-0.23497211894790349
724,0.7119,689.757,49.7793,-0.0720898,184.631,0.145864,-0.0520808,0.483597,-0.214038,-0.268138,0.402927,0.000105367,6.07618e-06,0.534206,0.6218978890798608,0.4961976652473039,0.0001053725512973891,-0.19268229363305123,6.076198459936677e-06,-0.2351977688878113
725,0.7129,689.53,49.0823,0.100781,184.647,-0.0540063,0.0718115,0.484123,-0.214275,-0.268427,0.403365,0.000102303,7.67326e-06,0.53479,0.6227512317789718,0.4968531433639105,0.00010230823313039927,-0.19287360525813713,7.673289439624753e-06,-0.23541876479715573
726,0.7139,689.782,49.8577,-0.0919963,184.629,0.168498,-0.0660592,0.484647,-0.214504,-0.268722,0.403802,0.000105976,5.93075e-06,0.535374,0.6236017762476131,0.49750741113465646,0.0001059816156545601,-0.1930584160408908,5.9307675870368115e-06,-0.23564428299597073
727,0.7149,689.502,48.9954,0.122186,184.649,-0.0787866,0.0873096,0.485172,-0.214742,-0.269011,0.40424,0.000102155,7.90322e-06,0.535958,0.6244543909719247,0.49816346304561354,0.00010216021799980268,-0.19325044528548652,7.903251230567676e-06,-0.23586514988138274
728,0.7159,689.813,49.954,-0.116509,184.627,0.196294,-0.0832474,0.485696,-0.21497,-0.269305,0.404677,0.000106669,5.74467e-06,0.53654,0.6253058281298474,0.49881830355119394,0.00010667468934011382,-0.19343436321652052,5.744686500719354e-06,-0.2360897725061738
729,0.7169,689.706,49.6641,-0.0656196,184.635,0.1143,-0.0418517,0.486221,-0.215204,-0.269596,0.405114,0.000105768,6.12257e-06,0.537123,0.626159337716278,0.4994734302846111,0.00010577359363206362,-0.19362307749509622,6.122588742885071e-06,-0.23631203804117062
730,0.7179,689.662,49.461,0.0213994,184.637,0.0538928,0.00975507,0.486744,-0.215437,-0.269887,0.405551,0.000105032,6.75982e-06,0.537706,0.6270100414895494,0.5001288433709747,0.00010503751605361877,-0.19381094143104138,6.759842847703368e-06,-0.23653423890630676
731,0.7189,689.667,49.5225,-0.0191309,184.638,0.0734285,-0.0101918,0.487268,-0.215669,-0.270178,0.405987,0.000105494,6.49906e-06,0.538288,0.6278628181592645,0.5007830421516553,0.00010549956468763888,-0.19399795559814714,6.4990811188270214e-06,-0.23675637512039827
732,0.7199,689.637,49.3932,0.0325597,184.639,0.0349212,0.0199951,0.487791,-0.215902,-0.270468,0.406424,0.000105018,6.90171e-06,0.53887,0.6287144130858238,0.5014390276634704,0.00010502351458319126,-0.19418573219766944,6.9017338168997355e-06,-0.23697768368032124
733,0.7209,689.669,49.5221,-0.0144567,184.638,0.073052,-0.0085929,0.488314,-0.216134,-0.270759,0.40686,0.000105751,6.54776e-06,0.539451,0.6295664535130181,0.502093797809051,0.00010575659183409414,-0.19437265942340298,6.547781436605504e-06,-0.23719969087075743
734,0.7219,689.627,49.3701,0.0347032,184.64,0.0287111,0.0227031,0.488836,-0.216367,-0.271049,0.407295,0.000105171,6.96612e-06,0.540032,0.6304173092557803,0.5027473507485565,0.00010517653066344224,-0.19456034872710426,6.966144263431673e-06,-0.23742087088775232
735,0.7229,689.677,49.5388,-0.0160896,184.637,0.0778103,-0.0105781,0.489359,-0.216598,-0.27134,0.407731,0.000106079,6.55604e-06,0.540613,0.6312702405306077,0.5034026914473737,0.0001060846265761306,-0.19474638379867037,6.556061490803344e-06,-0.23764274912947414
736,0.7239,689.619,49.3495,0.0377486,184.641,0.0230654,0.0256477,0.489881,-0.21683,-0.27163,0.408166,0.00010533,7.03602e-06,0.541193,0.6321219858823608,0.5040568138794677,0.00010533554739922124,-0.19493318096831946,7.036044752828374e-06,-0.23786380067820279
737,0.7249,689.685,49.5604,-0.0199971,184.637,0.0840201,-0.0138098,0.490402,-0.217061,-0.271921,0.408601,0.000106428,6.54891e-06,0.541773,0.6329725429878919,0.5047112209167166,0.0001064336636604768,-0.19511912992558433,6.548931444250172e-06,-0.23808555004610754
738,0.7259,689.611,49.3257,0.0424635,184.642,0.0164572,0.02948,0.490924,-0.217294,-0.27221,0.409036,0.000105473,7.11782e-06,0.542353,0.6338251771734933,0.5053659126829511,0.00010547856247233867,-0.19530664532191966,7.1178453318054835e-06,-0.23830571150728075
739,0.7269,689.693,49.5863,-0.0256607,184.636,0.0915389,-0.0180684,0.491445,-0.217524,-0.2725,0.40947,0.000106799,6.52877e-06,0.542932,0.634676621872885,0.5060193832819182,0.00010680470321622337,-0.1954917035109881,6.528791312465643e-06,-0.23852657082479478
740,0.7279,689.601,49.2972,0.0488549,184.642,0.00846575,0.0343402,0.491965,-0.217756,-0.272789,0.409904,0.000105595,7.21301e-06,0.543512,0.6355268747628513,0.5066731375486768,0.00010560057534836353,-0.1956783277865205,7.21303601380896e-06,-0.23874660484937837
741,0.7289,689.704,49.6175,-0.0330651,184.635,0.100621,-0.0234261,0.492486,-0.217986,-0.273079,0.410338,0.000107195,6.49476e-06,0.54409,0.6363792062776825,0.5073271756063655,0.000107200745589342,-0.19586330049845235,6.494781090937707e-06,-0.2389673363263609
742,0.7299,689.59,49.2628,0.0570147,184.643,-0.00124343,0.0403667,0.493006,-0.218219,-0.273367,0.410772,0.00010569,7.32324e-06,0.544669,0.6372303447417687,0.5079814975781762,0.00010569558538486845,-0.19605064252324278,7.323266814962537e-06,-0.23918648217498195
743,0.7309,689.716,49.6554,-0.0423686,184.634,0.111606,-0.0300441,0.493526,-0.218447,-0.273657,0.411205,0.000107623,6.44488e-06,0.545247,0.63808192591295,0.5086345949520048,0.00010762879156289706,-0.1962339220820838,6.444900768176609e-06,-0.23940708610603512
744,0.7319,689.576,49.2212,0.067151,184.644,-0.0130439,0.0477516,0.494045,-0.21868,-0.273945,0.411639,0.000105752,7.45089e-06,0.545825,0.6389323110883633,0.5092894844669593,0.00010575759193987011,-0.19642117776210477,7.450917757889641e-06,-0.2396261053249552
745,0.7329,689.731,49.7012,-0.0538509,184.633,0.1249,-0.0381449,0.494564,-0.218908,-0.274235,0.412071,0.000108088,6.37636e-06,0.546402,0.639783137728233,0.509941638379352,0.00010809384171839298,-0.1966043728485416,6.37638032907617e-06,-0.23984658178377927
746,0.7339,689.56,49.1708,0.0795743,184.646,-0.0273744,0.0567446,0.495083,-0.219142,-0.274522,0.412504,0.000105774,7.59908e-06,0.546979,0.6406344060617382,0.5105955846779264,0.00010577959426671946,-0.19679234543164503,7.5991088730464895e-06,-0.24006471451126365
747,0.7349,689.749,49.7567,-0.0678979,184.632,0.140982,-0.0480112,0.495602,-0.219369,-0.274812,0.412937,0.000108598,6.28565e-06,0.547556,0.6414861163181778,0.5112498141965611,0.00010860389697620043,-0.19697465287655425,6.285669754690915e-06,-0.24028506379186543
748,0.7359,689.54,49.1098,0.0946901,184.647,-0.0447552,0.0676556,0.49612,-0.219602,-0.275098,0.413369,0.000105747,7.77171e-06,0.548132,0.6423366263895214,0.5119028151543454,0.00010575259141099025,-0.1971617359864053,7.77174019983562e-06,-0.24050231119576138
749,0.7369,689.771,49.8238,-0.085004,184.631,0.160422,-0.0599905,0.496638,-0.219829,-0.275388,0.413801,0.000109162,6.16836e-06,0.548708,0.6431875771392077,0.512556098269485,0.0001091679583880012,-0.19734395958917506,6.1683790244515535e-06,-0.2407225335917238
750,0.7379,689.516,49.036,0.113001,184.649,-0.0658046,0.0808611,0.497156,-0.220063,-0.275674,0.414233,0.000105661,7.97351e-06,0.549284,0.6440389687955674,0.5132096636638985,0.00010566658232002979,-0.19753175912922805,7.97354178860843e-06,-0.24093965589714694
751,0.7389,689.797,49.905,-0.105782,184.629,0.1839,-0.0745034,0.497673,-0.220288,-0.275964,0.414664,0.000109792,6.01919e-06,0.549859,0.64488915669707,0.513861997596802,0.00010979802736210686,-0.19771229417246994,6.019208115271013e-06,-0.24115975148153446
752,0.7399,689.487,48.9469,0.135111,184.651,-0.0912583,0.0968134,0.498191,-0.220523,-0.276249,0.415095,0.000105505,8.21016e-06,0.550435,0.6457414299999675,0.5145146127462283,0.000105510565848288,-0.19790080963190537,8.210193703561686e-06,-0.24137599013689026
753,0.7409,689.563,49.2012,0.0596156,184.646,-0.0174705,0.0457416,0.498708,-0.220751,-0.276537,0.415526,0.000106513,7.71397e-06,0.551009,0.6465924983014766,0.515167509233408,0.0001065186727109424,-0.19808366740073158,7.713999752745337e-06,-0.2415944423930959
754,0.7419,689.655,49.4576,0.01057,184.639,0.0552792,0.00621289,0.499224,-0.220979,-0.276824,0.415957,0.000107714,7.27925e-06,0.551584,0.6474423592758749,0.5158206871796238,0.00010771980136126125,-0.1982664834827389,7.279276493799003e-06,-0.2418120735565633
755,0.7429,689.616,49.3545,0.0283592,184.642,0.0263947,0.0220474,0.49974,-0.221209,-0.277111,0.416387,0.000107344,7.50898e-06,0.552158,0.6482926588916957,0.5164726302328222,0.00010734976157333875,-0.19845086098731202,7.50900819235234e-06,-0.24202964226884893
756,0.7439,689.676,49.5241,-0.00658284,184.638,0.0746152,-0.00524515,0.500256,-0.221437,-0.277398,0.416817,0.000108237,7.18782e-06,0.552732,0.6491433973753364,0.517124853681814,0.00010824285783539445,-0.198633593358725,7.187845832534734e-06,-0.24224714854787377
757,0.7449,689.619,49.3578,0.0301467,184.642,0.0272963,0.0225928,0.500772,-0.221667,-0.277685,0.417247,0.000107599,7.55801e-06,0.553305,0.6499945749533114,0.5177773576471958,0.00010760478898008685,-0.1988178864377359,7.55803856189452e-06,-0.2424645924115536
758,0.7459,689.682,49.5459,-0.0130959,184.637,0.0811148,-0.00947207,0.501287,-0.221895,-0.277972,0.417677,0.000108591,7.17134e-06,0.553878,0.650844541006885,0.5184301422496154,0.00010859689621600666,-0.1990005351368852,7.171365714153666e-06,-0.24268197387779888
759,0.7469,689.615,49.3419,0.0352923,184.642,0.0227711,0.0259237,0.501802,-0.222125,-0.278257,0.418107,0.000107781,7.63663e-06,0.554451,0.6516949449057117,0.5190832076097724,0.00010778680858058998,-0.1991847438289921,7.636659159038217e-06,-0.24289777876158702
760,0.7479,689.688,49.5663,-0.0190199,184.637,0.0871719,-0.0133524,0.502317,-0.222352,-0.278544,0.418536,0.000108944,7.15784e-06,0.555023,0.6525457868753402,0.519735034112625,0.00010894993461318947,-0.19936650826109936,7.157865617335446e-06,-0.24311503592118888
761,0.7489,689.608,49.3203,0.041305,184.643,0.0166663,0.0300576,0.502832,-0.222582,-0.27883,0.418965,0.000107938,7.72485e-06,0.555596,0.6533970671414342,0.5203871403090372,0.00010794382551559956,-0.19955063278906693,7.724879836690235e-06,-0.24333147406878497
762,0.7499,689.696,49.5903,-0.0256049,184.637,0.0942622,-0.0177888,0.503346,-0.222809,-0.279116,0.419393,0.000109314,7.13746e-06,0.556167,0.6542471316818166,0.5210380052802577,0.00010931997499308288,-0.19973231417380644,7.137485471764293e-06,-0.2435478503239219
763,0.7509,689.6,49.294,0.0482478,184.643,0.00922652,0.0349383,0.50386,-0.223039,-0.279401,0.419822,0.000108074,7.82251e-06,0.556739,0.6550976332676837,0.5216906705712181,0.00010807984020511086,-0.19991635457608892,7.822540595947558e-06,-0.24376340846808497
764,0.7519,689.705,49.6192,-0.033255,184.636,0.102734,-0.023029,0.504373,-0.223265,-0.279688,0.42025,0.000109707,7.10718e-06,0.55731,0.6559469161759905,0.5223420935728007,0.00010971301803297528,-0.2000971530489577,7.107205256096094e-06,-0.2439804172276081
765,0.7529,689.59,49.2624,0.0563911,184.644,0.000267803,0.0407211,0.504887,-0.223495,-0.279972,0.420678,0.000108187,7.93166e-06,0.557881,0.6567982916756643,0.5229937954431017,0.0001081928524244713,-0.2002811095479481,7.931691455631551e-06,-0.24419509630324376
766,0.7539,689.716,49.6539,-0.0422831,184.635,0.112853,-0.0292651,0.5054,-0.22372,-0.280258,0.421106,0.000110127,7.06458e-06,0.558451,0.657648447245553,0.5236457763015023,0.00011013306420060154,-0.2004610260569336,7.064604954143405e-06,-0.24441122559773876
767,0.7549,689.577,49.2245,0.0660283,184.645,-0.0104803,0.0475952,0.505912,-0.22395,-0.280542,0.421534,0.000108271,8.05471e-06,0.559021,0.6584973805589258,0.5242980362674352,0.00010827686151615445,-0.2006448988747559,8.054742439256302e-06,-0.24462578234116927
768,0.7559,689.729,49.6953,-0.0530083,184.634,0.124923,-0.0367023,0.506425,-0.224175,-0.280828,0.421961,0.00011058,7.00707e-06,0.559591,0.6593484079850236,0.5249490505105707,0.0001105861141934561,-0.20082473354035046,7.007094549482673e-06,-0.24484178847706994
769,0.7569,689.563,49.1793,0.0774748,184.646,-0.0233443,0.055776,0.506937,-0.224406,-0.281111,0.422388,0.000108321,8.19437e-06,0.560161,0.6601982119011502,0.5256003427961458,0.00010832686693129645,-0.2010093217061487,8.194403573913434e-06,-0.24505546801385036
770,0.7579,689.745,49.7447,-0.0657839,184.633,0.139302,-0.0455738,0.507449,-0.22463,-0.281398,0.422815,0.00011107,6.9317e-06,0.56073,0.6610484510282864,0.5262519132429102,0.00011107616850081214,-0.20118827557450503,6.93172402432829e-06,-0.24527210600549154
771,0.7589,689.545,49.1253,0.091082,184.647,-0.0387099,0.0655107,0.50796,-0.22486,-0.28168,0.423241,0.000108331,8.35375e-06,0.561299,0.6618974636910224,0.5269022350666652,0.0001083368680145913,-0.20137198114417254,8.35378489272287e-06,-0.24548490926492816
772,0.7599,689.764,49.8036,-0.0810132,184.632,0.156411,-0.0561494,0.508471,-0.225084,-0.281967,0.423667,0.000111605,6.83507e-06,0.561867,0.6627469103100958,0.5275528339865347,0.00011161122806968571,-0.20155085378591242,6.835093359081057e-06,-0.24570142402461492
773,0.7609,689.525,49.0611,0.107249,184.649,-0.0570307,0.0770857,0.508983,-0.225315,-0.282248,0.424094,0.000108294,8.53643e-06,0.562436,0.6635984547049374,0.5282052383250606,0.00010829986400695546,-0.20173527423730564,8.536466435504764e-06,-0.24591335214716825
774,0.7619,689.786,49.8738,-0.0991662,184.631,0.176742,-0.0687435,0.509493,-0.225537,-0.282535,0.424519,0.000112193,6.71324e-06,0.563003,0.6644471063046002,0.5288548635869386,0.00011219929386996341,-0.2019124693370411,6.713262533875053e-06,-0.24612974396139142
775,0.7629,689.5,48.9848,0.126435,184.651,-0.0788381,0.0908342,0.510004,-0.225768,-0.282816,0.424945,0.000108201,8.74659e-06,0.563571,0.6652978561239884,0.5295062945037603,0.00010820685393930773,-0.20209680626488946,8.74662825145478e-06,-0.24634155174295125
776,0.7639,689.812,49.9571,-0.120794,184.629,0.200876,-0.0837237,0.510514,-0.22599,-0.283102,0.42537,0.000112842,6.56157e-06,0.564138,0.6661473746394198,0.5301564728320327,0.00011284836689795519,-0.20227392111342302,6.561591527232125e-06,-0.24655706723896775
777,0.7649,689.705,49.6579,-0.0643618,184.637,0.115908,-0.0394414,0.511023,-0.226217,-0.283385,0.425795,0.00011188,6.9782e-06,0.564705,0.6669956595232998,0.530806927544822,0.00011188625880054204,-0.20245498438187182,6.978224347697903e-06,-0.2467702614205396
778,0.7659,689.664,49.4669,0.0177536,184.639,0.0590704,0.00912949,0.511533,-0.226445,-0.283668,0.42622,0.000111196,7.57514e-06,0.565272,0.6678460441393015,0.5314576587596169,0.00011120218250426639,-0.20263680391721806,7.5751686914316e-06,-0.24698339527669444
779,0.7669,689.665,49.5137,-0.0169022,184.64,0.0742387,-0.00739965,0.512042,-0.22667,-0.283951,0.426645,0.000111596,7.36286e-06,0.565838,0.6686951938660406,0.5321086665939554,0.00011160222706529943,-0.20281619045459442,7.362887106010518e-06,-0.24719646882450208
780,0.7679,689.64,49.4032,0.0284534,184.641,0.0412476,0.0187945,0.512551,-0.226897,-0.284234,0.427069,0.000111208,7.71357e-06,0.566404,0.6695447759200086,0.5327584184062413,0.00011121418383885917,-0.20299713064187308,7.713599749603617e-06,-0.2474094820810272
781,0.7689,689.666,49.5092,-0.0114744,184.64,0.0727402,-0.0051521,0.51306,-0.227122,-0.284517,0.427493,0.000111847,7.42425e-06,0.56697,0.6703947905213161,0.5334084457717088,0.00011185325510898458,-0.20317643611485647,7.424277559842096e-06,-0.24762243506333004
782,0.7699,689.632,49.3852,0.0297269,184.642,0.0364556,0.0207609,0.513568,-0.227349,-0.284799,0.427917,0.000111395,7.77281e-06,0.567535,0.6712435666457834,0.534058748807217,0.00011140120465347181,-0.203357294535651,7.772840208364329e-06,-0.24783457562341737
783,0.7709,689.671,49.5204,-0.0120216,184.639,0.075959,-0.00625123,0.514076,-0.227574,-0.285082,0.428341,0.000112163,7.44845e-06,0.5681,0.6720927740580596,0.5347093276296753,0.00011216929050439362,-0.20353651898087433,7.448477739702142e-06,-0.2480474083212687
784,0.7719,689.626,49.3709,0.0314931,184.642,0.0326336,0.0226855,0.514584,-0.2278,-0.285364,0.428764,0.000111595,7.83401e-06,0.568665,0.672942412977295,0.5353586469966267,0.0001116012269537503,-0.20371649938903247,7.834040685938959e-06,-0.24825942905579357
785,0.7729,689.676,49.5348,-0.014382,184.639,0.0801476,-0.00828397,0.515092,-0.228024,-0.285646,0.429187,0.000112493,7.46132e-06,0.569229,0.6737924836227502,0.5360082410837699,0.00011249932757473324,-0.20389484691750037,7.461347835802101e-06,-0.24847139000890073
786,0.7739,689.62,49.3554,0.0344184,184.643,0.0283799,0.0251507,0.515599,-0.228251,-0.285928,0.42961,0.000111788,7.90267e-06,0.569793,0.6746413115716494,0.5366581100073355,0.00011179424851137654,-0.20407554227755087,7.902701226081277e-06,-0.24868329119744637
787,0.7749,689.682,49.5514,-0.0179254,184.639,0.0850427,-0.0109532,0.516106,-0.228475,-0.28621,0.430033,0.000112835,7.46625e-06,0.570357,0.6754905699854323,0.5373082538836045,0.00011284136610800743,-0.20425380938941873,7.466277872403282e-06,-0.24889513263828167
788,0.7759,689.614,49.3374,0.0383983,184.643,0.0234172,0.0282109,0.516613,-0.228701,-0.286491,0.430456,0.000111971,7.97919e-06,0.57092,0.6763402590824001,0.5379586728289059,0.00011197726898637406,-0.20443362770826135,7.979221833931405e-06,-0.24910616345479197
789,0.7769,689.688,49.5708,-0.0225067,184.638,0.0907425,-0.014237,0.517119,-0.228924,-0.286774,0.430878,0.000113191,7.46357e-06,0.571483,0.6771887018914238,0.5386078283510212,0.00011319740634285758,-0.20461101922939262,7.463597852419568e-06,-0.24931863634420237
790,0.7779,689.607,49.3165,0.0433881,184.644,0.0175855,0.0319001,0.517625,-0.229151,-0.287054,0.4313,0.00011214,8.0639e-06,0.572046,0.6780375741211433,0.5392572578745771,0.00011214628792477477,-0.20479155203677868,8.063932513291405e-06,-0.24952879770206282
791,0.7789,689.696,49.5934,-0.0281231,184.638,0.0973938,-0.0181797,0.518131,-0.229374,-0.287336,0.431721,0.000113563,7.45277e-06,0.572609,0.6788868759889002,0.5399054216090349,0.00011356944852147777,-0.2049688637496837,7.452797772034003e-06,-0.24974040074367965
792,0.7799,689.599,49.2921,0.0494253,184.645,0.0107256,0.0362814,0.518636,-0.2296,-0.287616,0.432143,0.000112293,8.15753e-06,0.573171,0.6797349279763785,0.5405553988325023,0.00011229930509482067,-0.2051485204845006,8.157563272659374e-06,-0.24995044402403988
793,0.7809,689.704,49.6198,-0.0348492,184.637,0.105163,-0.0228586,0.519141,-0.229822,-0.287898,0.432564,0.000113954,7.43292e-06,0.573732,0.6805834083382658,0.5412041091993613,0.00011396049300360644,-0.20532495792767225,7.432947624286257e-06,-0.25016192817815786
794,0.7819,689.59,49.2635,0.056607,184.645,0.0026609,0.041445,0.519646,-0.230048,-0.288178,0.432985,0.000112426,8.26119e-06,0.574294,0.6814323172909462,0.5418530927307821,0.00011243232003965709,-0.20550453419429804,8.261224123673472e-06,-0.2503718534473588
795,0.7829,689.714,49.6508,-0.0428137,184.637,0.114237,-0.0283768,0.520151,-0.23027,-0.28846,0.433406,0.000114366,7.40275e-06,0.574855,0.6822816550509123,0.5425023495417909,0.00011437254004031949,-0.20568089261119837,7.402777400411509e-06,-0.25058321878077394
796,0.7839,689.579,49.2301,0.0650761,184.646,-0.00680822,0.0475044,0.520656,-0.230497,-0.288739,0.433827,0.000112538,8.37628e-06,0.575416,0.6831314218347666,0.5431518797474628,0.00011254433263818697,-0.2058611825848894,8.37631508110448e-06,-0.2507922768977707
797,0.7849,689.726,49.687,-0.0521905,184.636,0.124831,-0.0348607,0.521159,-0.230718,-0.28902,0.434247,0.000114804,7.3607e-06,0.575977,0.6839782498993532,0.5438001396620094,0.000114810590231329,-0.20603666787169972,7.360727090066632e-06,-0.25100277469163723
798,0.7859,689.567,49.191,0.0750145,184.647,-0.0179097,0.0545958,0.521663,-0.230944,-0.289299,0.434667,0.000112624,8.50449e-06,0.576537,0.6848271888519482,0.5444486719029045,0.00011263034232067426,-0.2062160833100526,8.504526163299886e-06,-0.2512117157688627
799,0.7869,689.739,49.7294,-0.0631929,184.635,0.13719,-0.0424598,0.522167,-0.231165,-0.289581,0.435087,0.000115271,7.30491e-06,0.577097,0.6856765557776154,0.5450974765845493,0.00011527764395702356,-0.20639149017246883,7.304936680885277e-06,-0.2514228442944946
800,0.7879,689.552,49.1453,0.0866393,184.648,-0.030904,0.0628788,0.52267,-0.231392,-0.289859,0.435507,0.000112679,8.64779e-06,0.577657,0.6865246643666001,0.5457465538213933,0.00011268534851693879,-0.20657161885882025,8.64782739218306e-06,-0.25163091981994257
801,0.7889,689.755,49.7788,-0.0760757,184.634,0.151592,-0.0513487,0.523173,-0.231612,-0.29014,0.435926,0.000115772,7.23319e-06,0.578216,0.6873731996615127,0.5463943573328025,0.00011577870183665517,-0.20674615390311246,7.233216159585609e-06,-0.251841181988255
802,0.7899,689.535,49.092,0.100204,184.65,-0.0460893,0.072538,0.523676,-0.231839,-0.290417,0.436345,0.000112699,8.80848e-06,0.578775,0.6882221618770399,0.5470424323307557,0.00011270535077079202,-0.20692620208993417,8.808518794811704e-06,-0.25204839328075535
803,0.7909,689.773,49.8364,-0.0911368,184.633,0.16836,-0.0617288,0.524178,-0.232058,-0.290699,0.436764,0.000116313,7.14304e-06,0.579333,0.6890698621572706,0.5476907789290293,0.00011631976461923266,-0.2070998662347585,7.14306551152788e-06,-0.25225928589659374
804,0.7919,689.515,49.03,0.115999,184.651,-0.0638068,0.0837855,0.52468,-0.232285,-0.290976,0.437183,0.000112679,8.98919e-06,0.579892,0.6899179880898718,0.5483393972414476,0.00011268534851693879,-0.20727983413799345,8.989230402933757e-06,-0.25246638139035027
805,0.7929,689.794,49.9035,-0.108722,184.632,0.187859,-0.073832,0.525182,-0.232503,-0.291257,0.437601,0.000116898,7.03156e-06,0.58045,0.6907665398885745,0.5489867383943701,0.00011690483283754993,-0.20745262829890343,7.0315847213731075e-06,-0.25267640882694276
806,0.7939,689.492,48.9578,0.134358,184.653,-0.0844461,0.0968642,0.525684,-0.232731,-0.291533,0.43802,0.000112611,9.19293e-06,0.581008,0.6916155177672172,0.5496358998275803,0.00011261734085676878,-0.20763330850132555,9.192972255211984e-06,-0.2528826416766641
807,0.7949,689.568,49.2174,0.0570267,184.647,-0.00897464,0.0448446,0.526185,-0.232952,-0.291813,0.438437,0.000113684,8.68579e-06,0.581566,0.6924632294756701,0.5502822327488566,0.00011369046227072133,-0.20780840219158125,8.68582772151072e-06,-0.25309180525272745
808,0.7959,689.651,49.4489,0.0116045,184.642,0.05691,0.00885441,0.526686,-0.233174,-0.292092,0.438855,0.0001148,8.30115e-06,0.582123,0.693311365994095,0.5509303861767747,0.00011480658977225389,-0.2079842492065539,8.301184454717614e-06,-0.2533001635717249
809,0.7969,689.621,49.3689,0.0249902,184.644,0.0345138,0.0210234,0.527187,-0.233397,-0.29237,0.439273,0.00011454,8.48453e-06,0.582679,0.6941599275353749,0.5515788105894577,0.00011454655995635221,-0.20816084902736898,8.484565993782667e-06,-0.2535077172749505
810,0.7979,689.67,49.5087,-0.00418987,184.64,0.0743684,-0.00154115,0.527687,-0.233618,-0.292649,0.43969,0.000115314,8.22893e-06,0.583236,0.6950072193044332,0.5522259538734706,0.00011532064891484062,-0.20833582614405033,8.228963857659366e-06,-0.2537159595706797
811,0.7989,689.625,49.3767,0.025408,184.644,0.0367534,0.0206761,0.528187,-0.233841,-0.292926,0.440107,0.000114834,8.52745e-06,0.583792,0.6958549348253047,0.5528733670725063,0.00011484059367616872,-0.20851234757194947,8.5274863588225e-06,-0.253922651621708
812,0.7999,689.674,49.5243,-0.00910974,184.64,0.0791024,-0.00463164,0.528687,-0.234062,-0.293205,0.440524,0.000115658,8.23267e-06,0.584348,0.696703074309919,0.5535210502991428,0.00011566468864443458,-0.2086872470160357,8.23270388861097e-06,-0.2541307781669023
813,0.8009,689.622,49.3675,0.0287995,184.644,0.0341827,0.0227874,0.529187,-0.234285,-0.293482,0.44094,0.000115062,8.59586e-06,0.584904,0.6975516379703106,0.5541674494977786,0.00011506861988586081,-0.20886369008581762,8.595896944463277e-06,-0.2543373553290923
814,0.8019,689.678,49.537,-0.0130439,184.64,0.0829712,-0.00710508,0.529686,-0.234506,-0.29376,0.441357,0.000115992,8.2429e-06,0.585459,0.6983989276188438,0.5548156724693156,0.00011599872733203398,-0.20903851189178757,8.242933972724131e-06,-0.2545446207330848
815,0.8029,689.619,49.3546,0.0326167,184.644,0.0305986,0.0253654,0.530185,-0.234728,-0.294037,0.441773,0.000115276,8.66962e-06,0.586014,0.6992466401704172,0.5554626103428109,0.00011528264453342096,-0.20921408585271684,8.669657581172885e-06,-0.2547510832767593
816,0.8039,689.682,49.5512,-0.017135,184.64,0.0872779,-0.00977086,0.530684,-0.234949,-0.294315,0.442189,0.000116334,8.25092e-06,0.586568,0.700094775836112,0.5561098173984473,0.00011634076706212859,-0.2093888302297785,8.250954038890868e-06,-0.2549582336803682
817,0.8049,689.614,49.3393,0.0368111,184.645,0.0263518,0.0282823,0.531183,-0.235171,-0.294591,0.442605,0.000115479,8.74769e-06,0.587123,0.7009433348271146,0.5567572937482284,0.00011548566795638315,-0.20956432642866862,8.747728261093712e-06,-0.2551638368333321
818,0.8059,689.687,49.5677,-0.0216579,184.64,0.092223,-0.0127856,0.531681,-0.235391,-0.294869,0.44302,0.000116688,8.25488e-06,0.587677,0.7017906155632512,0.5574034820999427,0.0001166948083095587,-0.2097382031497137,8.254914071637032e-06,-0.2553708725074003
819,0.8069,689.608,49.3216,0.0415167,184.645,0.0214089,0.0315973,0.532179,-0.235614,-0.295145,0.443435,0.000115671,8.83088e-06,0.588231,0.702638318350276,0.5580499386754756,0.00011567769014808604,-0.20991441188240745,8.830918992286385e-06,-0.2555763617877632
820,0.8079,689.693,49.5868,-0.0267671,184.639,0.0979044,-0.0162337,0.532677,-0.235833,-0.295423,0.44385,0.000117054,8.25371e-06,0.588784,0.7034864433984234,0.5586966635861632,0.00011706085108675879,-0.21008742168094074,8.253744061992307e-06,-0.2557832827958334
821,0.8089,689.602,49.3012,0.0468634,184.646,0.0156834,0.0353834,0.533174,-0.236056,-0.295698,0.444265,0.000115852,8.92014e-06,0.589337,0.7043332865838925,0.5593436569433874,0.00011585871110209034,-0.21026355254658446,8.920179784599469e-06,-0.2559879142549494
822,0.8099,689.7,49.6088,-0.0325932,184.639,0.104422,-0.0201918,0.533671,-0.236275,-0.295976,0.444679,0.000117435,8.24645e-06,0.58989,0.705180550755031,0.5599893588684377,0.00011744189575946251,-0.2104364858916844,8.246484002105703e-06,-0.2561947208673354
823,0.8109,689.594,49.2777,0.0529736,184.647,0.00907022,0.0397169,0.534168,-0.236497,-0.296251,0.445094,0.000116018,9.01641e-06,0.590443,0.706028236121121,0.5606368888055366,0.00011602473034844074,-0.21061174953683193,9.016450647880703e-06,-0.25639923919653773
824,0.8119,689.708,49.6341,-0.0392625,184.639,0.111889,-0.0247389,0.534664,-0.236716,-0.296528,0.445508,0.000117832,8.23212e-06,0.590995,0.7068746360160587,0.5612831262394209,0.00011783894246275572,-0.21078460663514031,8.232153883902527e-06,-0.2566051880820428
825,0.8129,689.585,49.2506,0.0599701,184.647,0.00144912,0.0446788,0.535161,-0.236938,-0.296803,0.445922,0.000116169,9.12072e-06,0.591547,0.7077231635517851,0.5619296312709914,0.00011617574787958773,-0.2109597930060606,9.120761593983673e-06,-0.2568095935482805
826,0.8139,689.717,49.6631,-0.0469067,184.638,0.120435,-0.0299606,0.535657,-0.237156,-0.29708,0.446335,0.000118248,8.20964e-06,0.592098,0.7085704043392527,0.5625748414354341,0.00011825499157036568,-0.21113178502337426,8.209673699077769e-06,-0.25701542878137174
827,0.8149,689.576,49.2197,0.067982,184.648,-0.007316,0.0503578,0.536153,-0.237379,-0.297354,0.446749,0.000116302,9.23415e-06,0.59265,0.7094180654623852,0.5632218813478087,0.00011630876333978968,-0.21130768302195824,9.234192634988148e-06,-0.25721897866627785
828,0.8159,689.727,49.6963,-0.0556681,184.637,0.130203,-0.035951,0.536648,-0.237596,-0.297631,0.447162,0.000118684,8.17785e-06,0.593201,0.7102644368644291,0.5638676253217574,0.00011869104322448365,-0.21147881068671937,8.177883438653666e-06,-0.2574247005153958
829,0.8169,689.564,49.1842,0.07715,184.649,-0.0173783,0.0568517,0.537143,-0.237819,-0.297905,0.447575,0.000116414,9.35792e-06,0.593752,0.7111112273240254,0.5645136360430467,0.00011642077637263881,-0.2116546313072084,9.35796378542797e-06,-0.2576281382752087
830,0.8179,689.739,49.7344,-0.0657038,184.637,0.141357,-0.0428147,0.537638,-0.238036,-0.298181,0.447987,0.000119144,8.13545e-06,0.594302,0.7119584370486587,0.5651583484627352,0.0001191510979281496,-0.21182568369235977,8.135483092752693e-06,-0.2578330046361864
831,0.8189,689.551,49.1436,0.0876283,184.65,-0.0289096,0.0642694,0.538133,-0.238258,-0.298455,0.4484,0.000116502,9.49338e-06,0.594852,0.7128060662459166,0.5658048923627756,0.00011650878662150532,-0.21200063896982568,9.493425062290228e-06,-0.25803633053599584
832,0.8199,689.753,49.7779,-0.0771893,184.636,0.154079,-0.0506686,0.538627,-0.238475,-0.298731,0.448812,0.00011963,8.081e-06,0.595401,0.713652401470231,0.5664501368896744,0.00011963715595375568,-0.21217161627946024,8.081032651263698e-06,-0.2582410842514554
833,0.8209,689.536,49.0973,0.0995865,184.651,-0.0421022,0.0727322,0.539122,-0.238698,-0.299004,0.449224,0.000116564,9.64202e-06,0.595951,0.7145008693874437,0.5670956473120892,0.00011657079384708169,-0.21234728242152712,9.642066484349954e-06,-0.25844355679669473
834,0.8219,689.768,49.8275,-0.0903203,184.635,0.168574,-0.059643,0.539615,-0.238913,-0.299281,0.449636,0.000120146,8.01286e-06,0.5965,0.7153463267041562,0.567741423739591,0.00012015321781966293,-0.21251660955248763,8.012892102948754e-06,-0.2586489394846466
835,0.8229,689.519,49.0444,0.113213,184.652,-0.0571709,0.0823751,0.540109,-0.239136,-0.299553,0.450048,0.000116596,9.8055e-06,0.59705,0.7161939171271456,0.5683874662817969,0.0001166027975778583,-0.21269219876963208,9.805548074171e-06,-0.2588505595515346
836,0.8239,689.786,49.884,-0.105318,184.634,0.18507,-0.0698837,0.540602,-0.239351,-0.29983,0.450459,0.000120695,7.92925e-06,0.597598,0.7170402093221746,0.5690322060153781,0.00012070228393445959,-0.21286145175154902,7.929281436558355e-06,-0.25905582951533634
837,0.8249,689.5,48.9843,0.128718,184.654,-0.0743554,0.0933484,0.541095,-0.239575,-0.300101,0.45087,0.000116594,9.98566e-06,0.598146,0.7178869188421177,0.5696772107914523,0.00011660079734454598,-0.21303775104009925,9.985709856774605e-06,-0.2592565981801549
838,0.8259,689.574,49.2349,0.0531898,184.649,-0.00137377,0.0428626,0.541588,-0.239792,-0.300376,0.451281,0.000117659,9.49323e-06,0.598694,0.7187340458927671,0.5703224807189744,0.0001176659220916143,-0.21320850332083097,9.49327506094555e-06,-0.2594602746088628
839,0.8269,689.649,49.4454,0.0121939,184.643,0.0585743,0.0103671,0.542081,-0.24001,-0.30065,0.451691,0.000118698,9.15391e-06,0.599242,0.7195815906800163,0.5709664449397136,0.00011870504488631362,-0.21338000517272604,9.153951897156176e-06,-0.25966315469777845
840,0.8279,689.623,49.3791,0.022455,184.646,0.0400733,0.0201817,0.542573,-0.240229,-0.300923,0.452102,0.000118506,9.30773e-06,0.599789,0.7204278329811664,0.571612244851375,0.00011851302211329795,-0.2135522560894293,9.307773316979961e-06,-0.25986523907077397
841,0.8289,689.666,49.4996,-0.00243192,184.642,0.074463,0.000864787,0.543065,-0.240447,-0.301197,0.452512,0.000119203,9.09597e-06,0.600336,0.7212744917359681,0.5722567379838279,0.00011921010495985485,-0.21372368301138844,9.096011368558976e-06,-0.2600680082146273
842,0.8299,689.628,49.3884,0.0223789,184.645,0.0427816,0.0195153,0.543556,-0.240666,-0.30147,0.452922,0.000118821,9.35005e-06,0.600883,0.7221198450286606,0.5729014954126421,0.00011882805949459119,-0.21389585867088612,9.350093711946172e-06,-0.260269982077698
843,0.8309,689.669,49.5119,-0.00653876,184.642,0.0782777,-0.00164162,0.544048,-0.240883,-0.301744,0.453332,0.000119543,9.11081e-06,0.60143,0.7229673364582105,0.5735465172462015,0.0001195501455490966,-0.2140664247624643,9.110851503457695e-06,-0.2604726403371592
844,0.8319,689.626,49.3823,0.0249545,184.645,0.0411201,0.0210645,0.544539,-0.241102,-0.302016,0.453741,0.000119075,9.41504e-06,0.601976,0.7238135211417516,0.5741902294019177,0.00011908208970923262,-0.21423852536973698,9.415084321728884e-06,-0.26067376442487167
845,0.8329,689.671,49.521,-0.0095399,184.642,0.0811319,-0.00345814,0.54503,-0.241319,-0.30229,0.454151,0.000119873,9.13318e-06,0.602522,0.7246601214039883,0.5748357797247456,0.00011988018505526554,-0.2144090171107088,9.133221707591233e-06,-0.26087631206312556
846,0.8339,689.624,49.3733,0.0277644,184.646,0.0386799,0.0229387,0.545521,-0.241538,-0.302562,0.45456,0.000119318,9.48366e-06,0.603067,0.7255071374490201,0.5754800192966647,0.00011932511867573936,-0.2145810426984721,9.483704970003615e-06,-0.2610773263670597
847,0.8349,689.674,49.531,-0.0125092,184.642,0.0842117,-0.00533421,0.546011,-0.241755,-0.302835,0.454969,0.000120207,9.15504e-06,0.603612,0.72635284312734,0.5761245224164606,0.00012021422515084978,-0.21475146012124746,9.155081907463725e-06,-0.2612790247238831
848,0.8359,689.62,49.3628,0.030743,184.646,0.0358226,0.0250012,0.546501,-0.241974,-0.303107,0.455377,0.000119556,9.55471e-06,0.604158,0.7271989633029861,0.5767677124234456,0.00011956314710337423,-0.2149234107222029,9.554755646457025e-06,-0.2614799295048694
849,0.8369,689.677,49.5423,-0.01568,184.642,0.0876679,-0.00739682,0.546991,-0.24219,-0.30338,0.455786,0.000120548,9.17491e-06,0.604702,0.7280454981791114,0.5774127423174484,0.00012055526620202706,-0.2150929689525387,9.17495208963004e-06,-0.26168151796603756
850,0.8379,689.617,49.3509,0.0339868,184.647,0.0325556,0.0272849,0.54748,-0.242408,-0.303652,0.456194,0.000119787,9.6287e-06,0.605247,0.7288907190673857,0.5780564580253886,0.00011979417474905496,-0.21526406003570142,9.628746356016293e-06,-0.26188231328374956
851,0.8389,689.681,49.555,-0.0191635,184.642,0.0915499,-0.00969997,0.54797,-0.242625,-0.303924,0.456602,0.000120897,9.19209e-06,0.605791,0.729738083106964,0.5787004364229229,0.00012090430833677779,-0.21543432925979478,9.192132247370921e-06,-0.2620830539925625
852,0.8399,689.612,49.3374,0.0375795,184.647,0.0288425,0.0298311,0.548459,-0.242843,-0.304195,0.45701,0.000120012,9.70617e-06,0.606335,0.7305841318716675,0.5793446776172502,0.00012001920172810543,-0.2156053459345213,9.706217104943349e-06,-0.2622830023906988
853,0.8409,689.686,49.5695,-0.0230377,184.642,0.0959035,-0.0122854,0.548947,-0.243059,-0.304468,0.457417,0.000121255,9.20608e-06,0.606878,0.7314288630256582,0.5799876017272219,0.00012126235168463673,-0.21577475688275838,9.206122375982062e-06,-0.2624843716428925
854,0.8419,689.607,49.3222,0.0415908,184.647,0.0246363,0.0326789,0.549436,-0.243277,-0.304739,0.457825,0.000120229,9.7876e-06,0.607421,0.7322757387839254,0.580632368192141,0.00012023622779588905,-0.21594569935235175,9.787647898606977e-06,-0.2626842112986809
855,0.8429,689.691,49.5857,-0.0273704,184.642,0.100779,-0.015192,0.549924,-0.243492,-0.305011,0.458232,0.000121622,9.21638e-06,0.607964,0.7331212956435451,0.5812758164988434,0.00012162939625537383,-0.21611425290683461,9.2164224709812e-06,-0.26288473392089473
856,0.8439,689.602,49.3051,0.0460833,184.648,0.0198839,0.0358671,0.550412,-0.243711,-0.305281,0.458639,0.000120438,9.87348e-06,0.608507,0.7339672652356113,0.5819195267423072,0.00012044525294707675,-0.21628590508884804,9.873528743042925e-06,-0.26308372817730263
857,0.8449,689.696,49.6039,-0.032225,184.641,0.106233,-0.0184597,0.5509,-0.243925,-0.305553,0.459045,0.000122,9.22249e-06,0.609049,0.7348136477615856,0.5825619164664546,0.00012200744230272953,-0.21645360196095365,9.22253252721994e-06,-0.26328414214570306
858,0.8459,689.596,49.2859,0.0511184,184.648,0.014526,0.0394358,0.551387,-0.244144,-0.305823,0.459452,0.000120638,9.96431e-06,0.609591,0.7356587077634542,0.5832061502591401,0.0001206452770561306,-0.21662517983366147,9.964359643843679e-06,-0.26348302857644734
859,0.8469,689.703,49.6243,-0.037666,184.641,0.112327,-0.0221299,0.551874,-0.244358,-0.306095,0.459858,0.000122389,9.2239e-06,0.610133,0.7365041794097709,0.5838490624584904,0.0001223964898391383,-0.2167928041087399,9.223942540215191e-06,-0.26368333394990884
860,0.8479,689.589,49.2644,0.0567595,184.649,0.00849768,0.0434277,0.552361,-0.244576,-0.306365,0.460264,0.000120827,1.00606e-05,0.610675,0.7373500629010556,0.5844922357331885,0.0001208342998759715,-0.2169635246682271,1.0060650607934818e-05,-0.2638821126134152
861,0.8489,689.71,49.6472,-0.0437609,184.641,0.119131,-0.0262472,0.552848,-0.24479,-0.306637,0.46067,0.000122791,9.22008e-06,0.611216,0.7381963584379254,0.5851356701892525,0.00012279853912344763,-0.21713107654525776,9.22012250503812e-06,-0.26408230945078015
862,0.8499,689.581,49.2403,0.0630728,184.65,0.00172776,0.0478883,0.553334,-0.245009,-0.306906,0.461075,0.000121005,1.01629e-05,0.611757,0.7390413271788987,0.5857777801541701,0.0001210123214003822,-0.21730250606727652,1.0162951642467277e-05,-0.26428024468605527
863,0.8509,689.718,49.6728,-0.0505823,184.64,0.126717,-0.0308597,0.55382,-0.245222,-0.307177,0.461481,0.000123206,9.21042e-06,0.612297,0.7398867066744854,0.5864217366472353,0.00012321359017097855,-0.21746920287964344,9.21046241608714e-06,-0.26447959772618823
864,0.8519,689.572,49.2134,0.0701287,184.65,-0.00586135,0.0528671,0.554306,-0.24544,-0.307446,0.461886,0.000121171,1.02719e-05,0.612838,0.7407324971243607,0.5870643675745562,0.00012117834150204843,-0.21763977600027007,1.0271952756157887e-05,-0.26467742610529
865,0.8529,689.727,49.7014,-0.0582091,184.64,0.135168,-0.0360196,0.554792,-0.245653,-0.307718,0.462291,0.000123637,9.19428e-06,0.613377,0.7415786987282973,0.5877072588201135,0.000123644643368781,-0.2178064009817915,9.194322267536137e-06,-0.2648774066468028
866,0.8539,689.563,49.1833,0.0780042,184.651,-0.014354,0.0584177,0.555277,-0.245872,-0.307986,0.462695,0.000121322,1.03882e-05,0.613917,0.7424235692617238,0.5883488221397415,0.00012132935981146176,-0.21797768262395212,1.0388253957493987e-05,-0.26507439310445713
867,0.8549,689.737,49.7332,-0.0667257,184.639,0.144572,-0.0417835,0.555762,-0.246084,-0.308257,0.4631,0.000124084,9.17098e-06,0.614456,0.7432688496567421,0.5889922336947533,0.00012409169873794923,-0.21814345378287214,9.171022053555689e-06,-0.26527353095952766
868,0.8559,689.552,49.1498,0.0867808,184.652,-0.0238417,0.0645977,0.556247,-0.246302,-0.308525,0.463504,0.000121458,1.05124e-05,0.614996,0.7441145401121838,0.5896343162491087,0.00012146537632151677,-0.21831387993282214,1.0512455255407005e-05,-0.2654704112700905
869,0.8569,689.747,49.7687,-0.0762258,184.639,0.155024,-0.0482125,0.556732,-0.246514,-0.308796,0.463908,0.00012455,9.13976e-06,0.615534,0.7449606408269762,0.5902766582572223,0.0001245577566733047,-0.21847957982546717,9.139801767643618e-06,-0.26566944181877894
870,0.8579,689.54,49.1125,0.096547,184.653,-0.0344238,0.07147,0.557216,-0.246733,-0.309063,0.464312,0.000121576,1.06454e-05,0.616073,0.7458054061938644,0.5909192598239343,0.0001215833906613728,-0.21865071405760295,1.0645456662405905e-05,-0.26586548190529713
871,0.8589,689.76,49.8082,-0.0868099,184.638,0.166627,-0.0553733,0.5577,-0.246944,-0.309335,0.464715,0.000125035,9.0998e-06,0.616611,0.7466505805261516,0.5915605294928028,0.0001250428172014928,-0.2188155613649343,9.099841403292785e-06,-0.2660651393395769
872,0.8599,689.527,49.0711,0.107398,184.654,-0.0462073,0.0791019,0.558184,-0.247163,-0.309601,0.465119,0.000121675,1.0788e-05,0.61715,0.7474961640218254,0.5922036498482823,0.00012168240270304942,-0.2189866220251694,1.0788058190769334e-05,-0.26626034004966714
873,0.8609,689.773,49.852,-0.0985868,184.637,0.179495,-0.0633376,0.558667,-0.247373,-0.309873,0.465522,0.000125542,9.05022e-06,0.617687,0.7483404085376857,0.5928454372306426,0.00012554988072666085,-0.21915061761440457,9.050260953324951e-06,-0.2664598900971369
874,0.8619,689.512,49.0251,0.119437,184.655,-0.0593082,0.0875663,0.559151,-0.247592,-0.310139,0.465925,0.000121753,1.09411e-05,0.618225,0.749186810108075,0.5934874833054413,0.00012176041219724709,-0.21932160490535524,1.0941159854116478e-05,-0.2666549858174899
875,0.8629,689.788,49.9007,-0.111676,184.636,0.193746,-0.0721832,0.559633,-0.247802,-0.31041,0.466328,0.000126073,8.99006e-06,0.618761,0.7500301213722351,0.5941297881769521,0.00012608094753474575,-0.21948553015557148,8.990100410777302e-06,-0.26685369538997017
876,0.8639,689.496,48.9742,0.13277,184.657,-0.073851,0.0969418,0.560116,-0.248021,-0.310675,0.46673,0.000121807,1.11056e-05,0.619299,0.7508755900851154,0.5947707571779364,0.00012181441877379129,-0.21965644410870644,1.1105661667398792e-05,-0.2670479534203659
877,0.8649,689.574,49.2381,0.0535973,184.651,0.00306682,0.0441005,0.560599,-0.248234,-0.310944,0.467133,0.000122956,1.05909e-05,0.619835,0.7517214672580192,0.5954135793130393,0.00012296355939889203,-0.21982263958566461,1.0590956083689207e-05,-0.26724509100470206
878,0.8659,689.645,49.4407,0.0127769,184.646,0.0609187,0.0123534,0.561081,-0.248448,-0.311213,0.467535,0.000123977,1.02663e-05,0.620371,0.7525660005214039,0.5960550645018072,0.00012398468546592767,-0.21998957967756638,1.0266352698629078e-05,-0.2674421755661598
879,0.8669,689.624,49.3857,0.0210981,184.648,0.0456127,0.0204547,0.561563,-0.248662,-0.31148,0.467937,0.000123843,1.04007e-05,0.620907,0.7534109409479395,0.5966968076194612,0.00012385066886100304,-0.22015648404811072,1.0400754087536157e-05,-0.26763774239595006
880,0.8679,689.661,49.4935,-0.00158413,184.645,0.0764481,0.00306354,0.562045,-0.248875,-0.311749,0.468338,0.000124494,1.02171e-05,0.621443,0.7542562887339266,0.5973372114316995,0.00012450174969957928,-0.22032257302790426,1.0217152194735846e-05,-0.2678347213483886
881,0.8689,689.629,49.3972,0.0202629,184.648,0.0489802,0.0193345,0.562526,-0.24909,-0.312016,0.46874,0.000124186,1.04427e-05,0.621978,0.755100288974593,0.5979794700760332,0.00012419371140048874,-0.2204901856557,1.0442754525108455e-05,-0.2680301833824459
882,0.8699,689.664,49.5036,-0.00503801,184.645,0.0796388,0.00100021,0.563007,-0.249303,-0.312284,0.469141,0.000124841,1.0243e-05,0.622513,0.7559446952770255,0.5986203883390571,0.00012484879296192908,-0.22065620356462046,1.0243052459779634e-05,-0.26822632500914745
883,0.8709,689.628,49.3935,0.0221034,184.648,0.048072,0.0204048,0.563488,-0.249517,-0.312551,0.469542,0.000124469,1.05069e-05,0.623048,0.7567895078365863,0.5992615636618415,0.000124476746587332,-0.22082296529291623,1.0506955197664425e-05,-0.26842168249898457
884,0.8719,689.666,49.51,-0.00726179,184.645,0.0817221,-0.000286438,0.563969,-0.24973,-0.312818,0.469943,0.000125175,1.02774e-05,0.623582,0.7576347268487322,0.599902996147488,0.00012518283471729674,-0.22098891232732232,1.02774528125682e-05,-0.2686169878353346
885,0.8729,689.626,49.3876,0.024085,184.648,0.0465342,0.0217195,0.564449,-0.249944,-0.313085,0.470343,0.000124743,1.05738e-05,0.624117,0.7584785940295407,0.600543085355254,0.0001247507807315973,-0.22115560286356073,1.0573855902862306e-05,-0.26881224103212087
886,0.8739,689.667,49.5166,-0.00933073,184.645,0.0838705,-0.00153943,0.564929,-0.250156,-0.313352,0.470744,0.000125511,1.03125e-05,0.624651,0.759322866363825,0.6011850318341483,0.00012551887683520668,-0.22132070037479912,1.0312553174074424e-05,-0.26900744210326266
887,0.8749,689.624,49.3808,0.0261028,184.649,0.0447519,0.0231221,0.565409,-0.25037,-0.313619,0.471144,0.000125014,1.06419e-05,0.625184,0.7601675440461058,0.6018256339587655,0.0001250218145756321,-0.22148731991599213,1.064195662525691e-05,-0.26920259106267563
888,0.8759,689.669,49.524,-0.0114512,184.645,0.0862106,-0.00286864,0.565889,-0.250582,-0.313886,0.471544,0.000125851,1.0347e-05,0.625718,0.7610126272709961,0.6024664923754877,0.00012585891956939932,-0.22165234711066917,1.0347053530423977e-05,-0.2693976879242719
889,0.8769,689.622,49.3732,0.0282234,184.649,0.0427579,0.0246267,0.566368,-0.250796,-0.314152,0.471943,0.000125283,1.07115e-05,0.626251,0.7618563543759684,0.6031060040800464,0.00012529084824275394,-0.22181889568705426,1.0711557368425773e-05,-0.2695920022943271
890,0.8779,689.672,49.532,-0.0137026,184.645,0.0887648,-0.0043089,0.566847,-0.251008,-0.314419,0.472343,0.000126196,1.03805e-05,0.626783,0.7627004857230322,0.6037473747472601,0.00012620396305007553,-0.22198385259511855,1.0380553877586962e-05,-0.26978699519700355
891,0.8789,689.619,49.3649,0.030498,184.649,0.0405445,0.0262546,0.567326,-0.251221,-0.314685,0.472742,0.000125549,1.07829e-05,0.627316,0.7635450215058659,0.6043873976258576,0.00012555688160564848,-0.22214955238686152,1.0782958135724385e-05,-0.2699812060250959
892,0.8799,689.674,49.5409,-0.0161315,184.645,0.091548,-0.00588086,0.567805,-0.251433,-0.314951,0.473141,0.000126545,1.04127e-05,0.627848,0.7643899619182408,0.6050276759245365,0.0001265530071563603,-0.22231443920313543,1.0412754212429931e-05,-0.2701753651999782
893,0.8809,689.616,49.3557,0.0329648,184.65,0.0380975,0.0280232,0.568283,-0.251646,-0.315217,0.47354,0.000125812,1.08563e-05,0.62838,0.7652335419195959,0.6056682097452297,0.0001258199146616512,-0.2224800685874294,1.0856358929833831e-05,-0.27036947273538825
894,0.8819,689.677,49.5507,-0.0187692,184.645,0.0945763,-0.00760089,0.568761,-0.251857,-0.315483,0.473939,0.0001269,1.04434e-05,0.628912,0.7660775252485794,0.6063089991899111,0.0001269080521455468,-0.22264410798619239,1.0443454532493845e-05,-0.2705635286450604
895,0.8829,689.613,49.3456,0.0356515,184.65,0.0353998,0.0299475,0.569239,-0.252071,-0.315748,0.474337,0.000126072,1.09319e-05,0.629443,0.766921912098028,0.6069484374113541,0.00012607994740854167,-0.22281044434845776,1.0931959753435194e-05,-0.27075680369989363
896,0.8839,689.68,49.5613,-0.0216419,184.645,0.0978672,-0.00948337,0.569717,-0.252282,-0.316014,0.474736,0.00012726,1.04725e-05,0.629974,0.7677667026608701,0.6075897377687944,0.00012726809789720406,-0.22297441404528884,1.0472554836882253e-05,-0.2709507565932311
897,0.8849,689.609,49.3347,0.0385811,184.65,0.0324334,0.0320415,0.570194,-0.252495,-0.316279,0.475134,0.000126328,1.10098e-05,0.630505,0.7686101285191145,0.6082296858256422,0.00012633597971789534,-0.2231399028699117,1.100986060809106e-05,-0.2711439290462534
898,0.8859,689.684,49.5729,-0.0247728,184.645,0.10144,-0.0115422,0.570671,-0.252705,-0.316545,0.475531,0.000127625,1.04996e-05,0.631036,0.7694539567874605,0.6088682797634244,0.00012763314441688323,-0.22330302636174293,1.049965512089912e-05,-0.2713377789779432
899,0.8869,689.605,49.3227,0.0417755,184.651,0.0291785,0.0343188,0.571148,-0.252919,-0.316809,0.475929,0.000126581,1.10903e-05,0.631566,0.7702981876579036,0.6095087367812624,0.00012658901171280768,-0.22346922173056283,1.1090361497601009e-05,-0.2715301204141063
900,0.8879,689.688,49.5855,-0.0281827,184.645,0.105314,-0.013791,0.571624,-0.253129,-0.317075,0.476326,0.000127997,1.05248e-05,0.632096,0.7711410501805949,0.6101478386030823,0.00012800519196543014,-0.2236322760726942,1.052485538588499e-05,-0.27172386763255363
901,0.8889,689.601,49.3096,0.0452548,184.651,0.0256146,0.0367931,0.572101,-0.253342,-0.317339,0.476724,0.000126829,1.11735e-05,0.632626,0.7719860859865479,0.6107888049866956,0.0001268370431377619,-0.22379762478762744,1.1173562423749672e-05,-0.2719161071547652
902,0.8899,689.692,49.5993,-0.0318947,184.645,0.109512,-0.0162439,0.572577,-0.253552,-0.317604,0.477121,0.000128375,1.05478e-05,0.633155,0.7728297521400926,0.6114284150964815,0.00012838324042285798,-0.2239606101723577,1.0547855628262326e-05,-0.27210902382378155
903,0.8909,689.596,49.2954,0.0490409,184.652,0.02172,0.0394787,0.573053,-0.253765,-0.317868,0.477517,0.000127073,1.12595e-05,0.633684,0.7736738199743189,0.6120666671144186,0.0001270810741156314,-0.2241258889595753,1.125956338832168e-05,-0.2723011616781794
904,0.8919,689.696,49.6142,-0.0359296,184.645,0.114055,-0.0189155,0.573528,-0.253974,-0.318133,0.477914,0.00012876,1.05684e-05,0.634213,0.7745165151630695,0.6127067846361838,0.0001287682899246967,-0.2242880297044847,1.0568455845794134e-05,-0.27249397632126615
905,0.8929,689.591,49.28,0.0531544,184.652,0.0174721,0.0423899,0.574004,-0.254187,-0.318397,0.47831,0.000127311,1.13486e-05,0.634742,0.7753613860876147,0.6133455429887062,0.00012731910438934513,-0.22445323875876866,1.1348664395560704e-05,-0.2726860125616182
906,0.8939,689.701,49.6305,-0.0403115,184.645,0.118966,-0.0218207,0.574479,-0.254396,-0.318662,0.478706,0.000129152,1.05865e-05,0.63527,0.776204883060678,0.6139845543396265,0.00012916034047871783,-0.2246153110947191,1.0586556037139871e-05,-0.2728787252327327
907,0.8949,689.586,49.2633,0.0576161,184.653,0.0128472,0.0455419,0.574954,-0.254609,-0.318925,0.479102,0.000127545,1.1441e-05,0.635798,0.7770487807899755,0.6146238187891522,0.0001275531342093128,-0.22478045044549066,1.1441065448591914e-05,-0.27306993298307514
908,0.8959,689.707,49.648,-0.0450625,184.644,0.124269,-0.024975,0.575428,-0.254817,-0.31919,0.479498,0.000129552,1.06019e-05,0.636326,0.7778913015737214,0.6152633364375297,0.0001295603922226718,-0.22494167934341136,1.060195620028459e-05,-0.27326254392875715
909,0.8969,689.58,49.2452,0.0624516,184.653,0.00782105,0.0489501,0.575902,-0.25503,-0.319452,0.479894,0.000127772,1.15368e-05,0.636853,0.7787342218069806,0.6159031073850461,0.00012778016318959473,-0.22510674918514895,1.1536866549199942e-05,-0.27345292420134315
910,0.8979,689.712,49.667,-0.0502078,184.644,0.12999,-0.0283945,0.576376,-0.255238,-0.319717,0.480289,0.000129959,1.06143e-05,0.63738,0.7795775416791373,0.616541515189704,0.00012996744503657176,-0.22526791021998982,1.0614356331872798e-05,-0.2736454336677988
911,0.8989,689.574,49.2256,0.0676808,184.654,0.00236839,0.0526308,0.57685,-0.255451,-0.319979,0.480684,0.000127994,1.16362e-05,0.637908,0.780421261379665,0.617180175215255,0.00012800219158148884,-0.22543291058195059,1.1636267700732006e-05,-0.27383571363641357
912,0.8999,689.719,49.6875,-0.0557726,184.644,0.136153,-0.0320957,0.577324,-0.255659,-0.320244,0.481079,0.000130375,1.06237e-05,0.638434,0.7812653810981278,0.6178190875613463,0.00013038349918970127,-0.2255940037822759,1.0623756431682452e-05,-0.27402812167710855
913,0.9009,689.567,49.2045,0.0733292,184.655,-0.00353685,0.0566003,0.577797,-0.255872,-0.320505,0.481474,0.000128209,1.17394e-05,0.638961,0.7821081189151691,0.6184582523276638,0.00012821721912503747,-0.22575893469370467,1.1739468906979411e-05,-0.2742175756125367
914,0.9019,689.725,49.7097,-0.0617836,184.644,0.142786,-0.0360958,0.57827,-0.256079,-0.32077,0.481868,0.0001308,1.06297e-05,0.639486,0.7829512554414848,0.6190960505170735,0.0001308085546929405,-0.22591918600763983,1.0629756495461606e-05,-0.27440988247321496
915,0.9029,689.56,49.1817,0.0794211,184.655,-0.00992135,0.0608757,0.578743,-0.256292,-0.321031,0.482263,0.000128417,1.18466e-05,0.640013,0.7837947908657097,0.6197357197833908,0.00012842524581579973,-0.22608404766263068,1.1846670171289375e-05,-0.2745992367820772
916,0.9039,689.733,49.7335,-0.0682671,184.643,0.149915,-0.0404124,0.579216,-0.256499,-0.321296,0.482656,0.000131235,1.06322e-05,0.640538,0.7846387253765665,0.6203724010209344,0.00013124361168936893,-0.22624423168514618,1.0632256522091765e-05,-0.27479144251594545
917,0.9049,689.552,49.1571,0.085981,184.656,-0.0168124,0.0654742,0.579688,-0.256712,-0.321556,0.48305,0.000128617,1.19581e-05,0.641063,0.7854812736807018,0.6210109535335211,0.0001286252715209102,-0.22640902411278063,1.1958171498349657e-05,-0.27497997223096626
918,0.9059,689.741,49.7592,-0.0752506,184.643,0.157568,-0.0450633,0.58016,-0.256918,-0.321821,0.483444,0.000131679,1.06309e-05,0.641588,0.7863242197615046,0.6216497576853672,0.00013168767006010995,-0.22656836744088715,1.0630956508217437e-05,-0.27517207708330793
919,0.9069,689.544,49.1307,0.0930335,184.657,-0.0242381,0.0704134,0.580632,-0.257131,-0.322081,0.483838,0.000128809,1.20739e-05,0.642113,0.7871675638067699,0.6222888135756388,0.00012881729623548388,-0.22673309083495796,1.2073972889714568e-05,-0.2753605078462056
920,0.9079,689.749,49.7867,-0.0827635,184.643,0.165773,-0.050067,0.581103,-0.257337,-0.322345,0.484231,0.000132133,1.06257e-05,0.642637,0.788009517993969,0.6229264983762299,0.00013214172994935325,-0.2268923674121952,1.062575645294217e-05,-0.2755517874221193
921,0.9089,689.535,49.1024,0.100605,184.658,-0.0322268,0.0757116,0.581575,-0.25755,-0.322605,0.484624,0.000128993,1.21945e-05,0.643162,0.7888536576877578,0.6235644338361988,0.00012900131995485786,-0.22705702180162146,1.219457435319704e-05,-0.2757401194731619
922,0.9099,689.758,49.8163,-0.0908342,184.642,0.174558,-0.0554421,0.582046,-0.257755,-0.322869,0.485016,0.000132598,1.06163e-05,0.643685,0.7896964062122267,0.6242009958522663,0.00013260679150328691,-0.22721545887179762,1.0616356353132517e-05,-0.2759312988448336
923,0.9109,689.525,49.072,0.108721,184.658,-0.0408075,0.0813867,0.582517,-0.257968,-0.323129,0.485409,0.000129168,1.23199e-05,0.644209,0.7905395517647433,0.6248394322881787,0.00012917634254527854,-0.22738004445007154,1.2319975890351387e-05,-0.2761195322357327
924,0.9119,689.768,49.8479,-0.0994925,184.642,0.183954,-0.0612076,0.582987,-0.258173,-0.323393,0.485802,0.000133075,1.06024e-05,0.644732,0.7913813031501531,0.6254781196789201,0.00013308385487054153,-0.22753841530739183,1.0602456205655031e-05,-0.2763106114556556
925,0.9129,689.514,49.0395,0.117407,184.659,-0.0500091,0.0874572,0.583458,-0.258386,-0.323652,0.486194,0.000129333,1.24504e-05,0.645256,0.7922252424760463,0.6261154320068893,0.00012934136387299233,-0.22770293210327053,1.2450477506531499e-05,-0.27649802273648016
926,0.9139,689.778,49.8818,-0.108769,184.641,0.193988,-0.0673826,0.583928,-0.25859,-0.323916,0.486586,0.000133563,1.05839e-05,0.645778,0.7930677863223041,0.6267529942102639,0.00013357191993468298,-0.22786046463625675,1.058395600961326e-05,-0.2766890020480993
927,0.9149,689.503,49.0048,0.126689,184.66,-0.0598612,0.0939414,0.584398,-0.258804,-0.324174,0.486978,0.000129488,1.25862e-05,0.646301,0.7939107262572431,0.6273908063870135,0.0001294963839328922,-0.22802568481763463,1.2586279206638906e-05,-0.2768755922144045
928,0.9159,689.789,49.918,-0.118694,184.64,0.204691,-0.0739866,0.584867,-0.259007,-0.324438,0.487369,0.000134064,1.05605e-05,0.646822,0.7947522677139041,0.6280272406070926,0.00013407298697964976,-0.22818237969854815,1.0560555762317847e-05,-0.2770664718608379
929,0.9169,689.492,48.9677,0.136595,184.661,-0.070393,0.100858,0.585337,-0.259221,-0.324696,0.487761,0.000129633,1.27275e-05,0.647345,0.7955959995411772,0.6286655523863454,0.00012964140272053726,-0.2283475309974734,1.2727580994909005e-05,-0.2772529646524933
930,0.9179,689.574,49.2456,0.0533264,184.656,0.0107084,0.0454813,0.585806,-0.259428,-0.324958,0.488152,0.000130882,1.21902e-05,0.647867,0.7964383315763843,0.6293024851295652,0.00013089056542270328,-0.22850724652742926,1.219027430088282e-05,-0.2774422995717968
931,0.9189,689.64,49.4356,0.0136213,184.651,0.0651731,0.0152279,0.586275,-0.259635,-0.325219,0.488543,0.000131872,1.18912e-05,0.648388,0.7972810587579704,0.6299396669621815,0.00013188069549441295,-0.2286669289996921,1.1891270700559176e-05,-0.277630862523073
932,0.9199,689.624,49.3954,0.0191196,184.652,0.0540555,0.0210007,0.586743,-0.259844,-0.325479,0.488934,0.00013182,1.2e-05,0.648909,0.7981223831480206,0.630577097981607,0.00013182868863803598,-0.2288281207664048,1.2000072000306616e-05,-0.27781865408485606
933,0.9209,689.655,49.4864,-0.000340956,184.65,0.0801685,0.00625723,0.587212,-0.260051,-0.32574,0.489324,0.000132411,1.1855e-05,0.64943,0.7989659003350356,0.6312131470713305,0.00013241976672340172,-0.22898773682457418,1.1855070270794243e-05,-0.27800711882042206
934,0.9219,689.629,49.409,0.0174729,184.652,0.0580931,0.0194148,0.58768,-0.260259,-0.326,0.489715,0.000132201,1.20447e-05,0.649951,0.7998080134154828,0.631851076118837,0.00013220973893735,-0.22914809069793374,1.2044772537800341e-05,-0.27819481256828416
935,0.9229,689.657,49.4941,-0.00307777,184.65,0.0826996,0.00467818,0.588148,-0.260467,-0.32626,0.490105,0.000132775,1.18954e-05,0.650471,0.8006505206970878,0.6324876221569324,0.0001327838149904892,-0.22930841122115608,1.1895470750644677e-05,-0.2783824575221153
936,0.9239,689.629,49.408,0.0185375,184.652,0.0579686,0.0199925,0.588615,-0.260675,-0.32652,0.490495,0.000132524,1.21111e-05,0.650991,0.8014916208718579,0.6331244164963985,0.00013253278169322869,-0.22946869840117745,1.21111733397683e-05,-0.2785700536946004
937,0.9249,689.658,49.4978,-0.00449479,184.65,0.0840195,0.00393675,0.589083,-0.260882,-0.32678,0.490884,0.000133123,1.19451e-05,0.651511,0.8023349162661564,0.6337598254734489,0.00013313186125984977,-0.22962818187349954,1.1945171342953032e-05,-0.27875760109842085
938,0.9259,689.628,49.405,0.0196786,184.653,0.0573369,0.0207534,0.58955,-0.26109,-0.32704,0.491274,0.00013284,1.21795e-05,0.65203,0.8031768032373601,0.6343971160689721,0.00013284882362341044,-0.22978840254814203,1.2179574170323448e-05,-0.2789450997462547
939,0.9269,689.659,49.5012,-0.00567208,184.651,0.0852832,0.00329704,0.590017,-0.261297,-0.3273,0.491663,0.000133471,1.19963e-05,0.652549,0.8040190834615966,0.6350330202224621,0.00013347990765022466,-0.22994781984855484,1.19963719558136e-05,-0.27913254965077716
940,0.9279,689.627,49.4017,0.0207632,184.653,0.0565912,0.021529,0.590484,-0.261505,-0.327559,0.492053,0.000133155,1.22482e-05,0.653068,0.804861757122558,0.6356708074607762,0.0001331638655204248,-0.2301079740454124,1.2248275009563159e-05,-0.2793192301442501
941,0.9289,689.659,49.5049,-0.00679316,184.651,0.0866036,0.00266025,0.59095,-0.261711,-0.327818,0.492442,0.000133822,1.20479e-05,0.653587,0.8057030187001009,0.6363072071765983,0.00013383095456331873,-0.23026655546831176,1.2047972576256782e-05,-0.2795058622937361
942,0.9299,689.626,49.3981,0.0218356,184.653,0.0557762,0.0223221,0.591416,-0.261919,-0.328077,0.49283,0.000133471,1.23175e-05,0.654106,0.8065446723968959,0.6369422175570301,0.00013347990765022466,-0.2304266433750548,1.2317575860620877e-05,-0.2796924461117546
943,0.9309,689.66,49.5089,-0.00792126,184.651,0.0879894,0.00200269,0.591882,-0.262125,-0.328337,0.493219,0.000134175,1.20997e-05,0.654624,0.8073867183957126,0.6375791119475875,0.00013418400186782087,-0.23058515915883326,1.2099773201601494e-05,-0.27987970173148013
944,0.9319,689.625,49.3942,0.02293,184.654,0.0548983,0.0231433,0.592348,-0.262332,-0.328595,0.493607,0.000133786,1.23875e-05,0.655142,0.8082291568794064,0.6382146159228217,0.00013379494974596895,-0.23074441154769654,1.238757672550328e-05,-0.2800654688034506
945,0.9329,689.662,49.513,-0.00908151,184.651,0.0894407,0.00131452,0.592813,-0.262538,-0.328854,0.493995,0.000134531,1.21515e-05,0.655659,0.8090701789598351,0.6388503665214402,0.00013454004970081535,-0.23090286187797326,1.2151573829832785e-05,-0.2802519077021509
946,0.9339,689.623,49.3901,0.0240643,184.654,0.0539584,0.0239988,0.593279,-0.262746,-0.329113,0.494383,0.000134102,1.24582e-05,0.656177,0.8099134021189671,0.6394863638391515,0.00013411099207516486,-0.23106281744674684,1.2458277603766277e-05,-0.28043829831942924
947,0.9349,689.663,49.5174,-0.0102884,184.651,0.0909578,0.000590905,0.593744,-0.262951,-0.329372,0.494771,0.000134888,1.22033e-05,0.656694,0.8107552075555482,0.6401226079717008,0.00013489709779523906,-0.2312204334129817,1.2203374460506566e-05,-0.2806246406677887
948,0.9359,689.622,49.3858,0.0252506,184.654,0.052956,0.0248923,0.594209,-0.263159,-0.32963,0.495159,0.000134418,1.25297e-05,0.657211,0.811597404522681,0.6407590990148713,0.0001344270345040588,-0.23138032293374522,1.2529778496972455e-05,-0.2808102155703046
949,0.9369,689.664,49.522,-0.0115503,184.651,0.0925412,-0.00017113,0.594673,-0.263364,-0.329888,0.495546,0.000135248,1.22549e-05,0.657727,0.8124381807633827,0.641394195669466,0.0001352571464230401,-0.23153787381802637,1.225497509160789e-05,-0.2809957426006715
950,0.9379,689.62,49.3813,0.0264927,184.654,0.0518906,0.0258262,0.595137,-0.263571,-0.330146,0.495933,0.000134734,1.2602e-05,0.658244,0.8132793472147821,0.6420295381540313,0.00013474307703309485,-0.2316969290153652,1.2602079405565902e-05,-0.2811812217712386
951,0.9389,689.665,49.5268,-0.0128718,184.651,0.0941918,-0.000973442,0.595601,-0.263776,-0.330404,0.49632,0.000135611,1.23064e-05,0.65876,0.8141209040579787,0.6426651265637215,0.00013562019558732707,-0.23185441500205184,1.2306475724033206e-05,-0.2813666530943524
952,0.9399,689.618,49.3766,0.0277954,184.655,0.0507613,0.0268018,0.596065,-0.263983,-0.330662,0.496707,0.00013505,1.26753e-05,0.659275,0.8149628514741565,0.6433009609937284,0.00013505911966182893,-0.23201340468214693,1.2675380332005659e-05,-0.2815520365823557
953,0.9409,689.667,49.5319,-0.0142539,184.652,0.0959103,-0.0018171,0.596529,-0.264188,-0.33092,0.497093,0.000135976,1.23578e-05,0.659791,0.8158051896445833,0.6439353976030602,0.00013598524515523458,-0.23217082579797133,1.235787635800456e-05,-0.28173737224758866
954,0.9419,689.617,49.3716,0.02916,184.655,0.0495673,0.02782,0.596992,-0.264395,-0.331177,0.49748,0.000135366,1.27494e-05,0.660306,0.8166461021036009,0.6445717237230948,0.00013537516239048308,-0.23232974998780997,1.274948127405473e-05,-0.2819219420246888
955,0.9429,689.668,49.5372,-0.0157004,184.652,0.0976974,-0.00270291,0.597455,-0.264599,-0.331435,0.497866,0.000136343,1.24091e-05,0.660821,0.8174874039952336,0.6452066509415217,0.0001363522951292051,-0.23248633874621605,1.2409176993299909e-05,-0.2821071822666277
956,0.9439,689.615,49.3664,0.0305878,184.655,0.0483081,0.0288816,0.597918,-0.264806,-0.331692,0.498252,0.000135682,1.28243e-05,0.661336,0.8183290954998306,0.6458418232891616,0.00013569120521883526,-0.23264519763163372,1.2824382231713116e-05,-0.28229165701476466
957,0.9449,689.67,49.5427,-0.0172105,184.652,0.0995537,-0.00363147,0.598381,-0.26501,-0.33195,0.498638,0.000136712,1.24602e-05,0.66185,0.8191711767978247,0.6464772408606532,0.0001367213455114591,-0.23280172204528393,1.2460277628578709e-05,-0.2824768018825399
958,0.9459,689.613,49.3609,0.032079,184.656,0.0469833,0.0299869,0.598843,-0.265217,-0.332206,0.499023,0.000135998,1.29002e-05,0.662365,0.8200118280569935,0.6471112566385904,0.00013600724814732956,-0.23296051565311504,1.2900283207883945e-05,-0.28266046431146397
959,0.9469,689.671,49.5485,-0.018786,184.652,0.10148,-0.00460287,0.599305,-0.265421,-0.332464,0.499409,0.000137084,1.25111e-05,0.662878,0.8208528677867737,0.6477471643059369,0.00013709339644085716,-0.23311697574844958,1.2511178264063005e-05,-0.2828455140392303
960,0.9479,689.611,49.3553,0.0336348,184.656,0.0455925,0.0311361,0.599767,-0.265627,-0.33272,0.499794,0.000136315,1.2977e-05,0.663392,0.8216942961666807,0.6483816690985298,0.00013632429131171797,-0.2332749373808386,1.2977084201670763e-05,-0.2830290820899233
961,0.9489,689.673,49.5544,-0.0204263,184.652,0.103475,-0.0056175,0.600229,-0.265831,-0.332977,0.500179,0.000137459,1.2562e-05,0.663905,0.8225361133763116,0.6490164182224987,0.00013746844792117408,-0.23343133334068267,1.2562078902211837e-05,-0.28321331994024834
962,0.9499,689.609,49.3494,0.0352564,184.657,0.0441356,0.0323293,0.60069,-0.266037,-0.333233,0.500564,0.000136631,1.30546e-05,0.664419,0.8233764962179397,0.6496514117719292,0.00013664033444027446,-0.23358923022207734,1.305468521173303e-05,-0.28339679384468186
963,0.9509,689.675,49.5607,-0.0221335,184.652,0.105541,-0.00667542,0.601151,-0.266241,-0.33349,0.500948,0.000137835,1.26127e-05,0.664931,0.8242172665653713,0.6502849995551183,0.00013784449968001766,-0.233745562072721,1.2612779540344121e-05,-0.28358093720522837
964,0.9519,689.607,49.3432,0.0369416,184.657,0.0426131,0.0335666,0.601612,-0.266446,-0.333746,0.501333,0.000136948,1.31332e-05,0.665444,0.8250584245972874,0.6509204816023917,0.0001369573778053912,-0.23390262813267493,1.313328624075183e-05,-0.28376431701168714
965,0.9529,689.676,49.5671,-0.0239053,184.652,0.107675,-0.00777614,0.602073,-0.26665,-0.334002,0.501717,0.000138215,1.26632e-05,0.665956,0.8258999704924515,0.6515545568019738,0.0001382245521330816,-0.23405889605666574,1.2663280178681902e-05,-0.28394764987892385
966,0.9539,689.605,49.3369,0.0386909,184.657,0.0410254,0.0348473,0.602533,-0.266855,-0.334258,0.502101,0.000137265,1.32127e-05,0.666469,0.8267400776887193,0.6521888755331877,0.00013727442127109413,-0.2342158978897364,1.3212787288052752e-05,-0.28413093581895355
967,0.9549,689.678,49.5738,-0.0257417,184.652,0.109878,-0.0089195,0.602994,-0.267059,-0.334514,0.502485,0.000138596,1.27137e-05,0.66698,0.8275823990046798,0.6528234378895672,0.00013860560486933515,-0.23437210191321478,1.2713780819462173e-05,-0.28431417484378796
968,0.9559,689.603,49.3303,0.0405031,184.658,0.0393732,0.0361712,0.603454,-0.267264,-0.334769,0.502868,0.000137582,1.3293e-05,0.667492,0.8284232802960914,0.6534565905072656,0.00013759146483738327,-0.23452903954566562,1.3293088352295257e-05,-0.2844966514624452
969,0.9569,689.68,49.5807,-0.0276421,184.652,0.112149,-0.0101049,0.603913,-0.267467,-0.335026,0.503252,0.000138981,1.2764e-05,0.668003,0.829262719218242,0.6540916397596734,0.00013899065830669244,-0.23468441437955867,1.2764081460225896e-05,-0.28468051219590307
970,0.9579,689.6,49.3235,0.0423794,184.658,0.0376575,0.0375376,0.604373,-0.267672,-0.33528,0.503635,0.000137899,1.33742e-05,0.668514,0.8301043736347571,0.6547252781917154,0.00013790850850425862,-0.23484128799451587,1.337428943504193e-05,-0.2848621802729828
971,0.9589,689.682,49.5879,-0.0296071,184.652,0.114486,-0.0113316,0.604832,-0.267875,-0.335536,0.504018,0.000139367,1.28142e-05,0.669025,0.8309445843558645,0.6553591593537567,0.00013937671203145818,-0.23499659944840712,1.2814282102313612e-05,-0.28504523212319643
972,0.9599,689.598,49.3165,0.0443173,184.658,0.0358799,0.0389458,0.605291,-0.26808,-0.335791,0.504401,0.000138216,1.34564e-05,0.669536,0.8317851808222148,0.6559932833387807,0.00013822555227149813,-0.23515340907198456,1.3456490537855359e-05,-0.2852275223460138
973,0.9609,689.684,49.5952,-0.0316339,184.653,0.116889,-0.0125989,0.60575,-0.268282,-0.336047,0.504783,0.000139756,1.28643e-05,0.670046,0.8326261632109053,0.6566259936129846,0.0001397657663246843,-0.2353078924800025,1.2864382745503278e-05,-0.28541048068062713
974,0.9619,689.595,49.3092,0.0463135,184.659,0.0340419,0.0403947,0.606209,-0.268488,-0.336301,0.505166,0.000138534,1.35393e-05,0.670556,0.8334675316991156,0.6572606028884571,0.00013854359627774038,-0.2354654028300286,1.3539391656713917e-05,-0.2855919633692572
975,0.9629,689.686,49.6028,-0.0337204,184.653,0.119355,-0.0139053,0.606667,-0.26869,-0.336557,0.505548,0.000140148,1.29144e-05,0.671065,0.8343074521557361,0.6578937973712069,0.00014015782118970144,-0.2356198232216723,1.2914483391135434e-05,-0.28577482841890955
976,0.9639,689.593,49.3018,0.0483688,184.659,0.0321453,0.0418828,0.607125,-0.268895,-0.33681,0.50593,0.000138852,1.36232e-05,0.671575,0.835147757384032,0.658527233780454,0.00013886164038523496,-0.23577650509747083,1.3623292796305364e-05,-0.28595550453082763
977,0.9649,689.689,49.6106,-0.0358651,184.653,0.121881,-0.0152497,0.607583,-0.269096,-0.337066,0.506312,0.000140541,1.29643e-05,0.672084,0.8359884475602686,0.6591609122086322,0.00014055087634901042,-0.23593009858328384,1.2964384036973087e-05,-0.2861382765258542
978,0.9659,689.59,49.2941,0.0504803,184.66,0.0301926,0.0434089,0.608041,-0.269301,-0.337319,0.506693,0.00013917,1.37078e-05,0.672593,0.8368295228607929,0.6597931729542073,0.00013917968459375984,-0.2360867168591525,1.370789395238603e-05,-0.2863188606970323
979,0.9669,689.691,49.6186,-0.0380668,184.653,0.124467,-0.0166305,0.608498,-0.269503,-0.337575,0.507075,0.000140938,1.30143e-05,0.673102,0.8376691457919672,0.6604273350635272,0.00014094793222652058,-0.23624101175803747,1.3014384686371727e-05,-0.28650153968478576
980,0.9679,689.588,49.2863,0.052644,184.66,0.0281862,0.0449714,0.608955,-0.269707,-0.337828,0.507456,0.000139488,1.37933e-05,0.67361,0.8385091525185115,0.6610600784081393,0.00013949772890331502,-0.2363968027004224,1.3793395128081087e-05,-0.2866820319620097
981,0.9689,689.693,49.6267,-0.0403204,184.653,0.127109,-0.0180458,0.609412,-0.269908,-0.338083,0.507837,0.000141336,1.30643e-05,0.674118,0.8393495432158606,0.6616930628738964,0.0001413459884029855,-0.2365502715189467,1.3064385338434903e-05,-0.2868639048540801
982,0.9699,689.585,49.2783,0.0548588,184.66,0.0261291,0.046568,0.609869,-0.270113,-0.338336,0.508218,0.000139807,1.38796e-05,0.674626,0.8401903180595292,0.6623262885526833,0.00013981677345409338,-0.2367067626723941,1.3879696322049995e-05,-0.28704430546451254
983,0.9709,689.696,49.6351,-0.0426279,184.653,0.129803,-0.0194939,0.610326,-0.270314,-0.338591,0.508599,0.000141737,1.31142e-05,0.675134,0.8410314772251122,0.6629597555364195,0.0001417470451632319,-0.2368601691952249,1.3114285991600028e-05,-0.2872260859886172
984,0.9719,689.582,49.2701,0.0571222,184.661,0.0240248,0.0481973,0.610782,-0.270519,-0.338843,0.508979,0.000140127,1.39667e-05,0.675641,0.8418711790161848,0.6635918003244272,0.00014013681824676105,-0.23701659682615983,1.3966797534736841e-05,-0.28740568238485176
985,0.9729,689.698,49.6436,-0.0449813,184.653,0.132547,-0.0209725,0.611238,-0.270719,-0.339098,0.50936,0.00014214,1.31642e-05,0.676148,0.8427112637985894,0.6642257495600117,0.0001421501023683991,-0.23716917824814387,1.3164286648548185e-05,-0.28758737076959007
986,0.9739,689.58,49.2618,0.0594305,184.661,0.0218767,0.0498565,0.611694,-0.270923,-0.33935,0.50974,0.000140447,1.40545e-05,0.676655,0.8435517317470103,0.6648582755171648,0.00014045686314156924,-0.2373247798638768,1.405459876502313e-05,-0.28776687613353025
987,0.9749,689.7,49.6522,-0.0473807,184.653,0.135336,-0.0224793,0.612149,-0.271124,-0.339605,0.51012,0.000142545,1.32143e-05,0.677162,0.8443907386445499,0.6654910418798561,0.00014255516002115165,-0.23747806217773548,1.3214387309279374e-05,-0.28794847242560495
988,0.9759,689.577,49.2533,0.0617795,184.662,0.0196891,0.0515434,0.612605,-0.271328,-0.339857,0.510499,0.000140767,1.4143e-05,0.677669,0.8452319726081383,0.666122382616241,0.00014077690813896204,-0.23763360078757367,1.4143100012686816e-05,-0.28812788680339263
989,0.9769,689.703,49.661,-0.0498191,184.653,0.138166,-0.0240116,0.61306,-0.271528,-0.340111,0.510879,0.000142952,1.32645e-05,0.678174,0.846071744189222,0.6667556294309096,0.0001429622181241541,-0.2377860588211046,1.3264587973793596e-05,-0.2883086793585181
990,0.9779,689.574,49.2447,0.0641645,184.662,0.0174656,0.0532551,0.613515,-0.271732,-0.340362,0.511258,0.000141089,1.42322e-05,0.67868,0.8469118979533152,0.6673874495368111,0.00014109895352110158,-0.23794153460603584,1.4232301278171988e-05,-0.28848729146324226
991,0.9789,689.705,49.6699,-0.0522946,184.653,0.141034,-0.0255665,0.613969,-0.271932,-0.340617,0.511637,0.000143361,1.33148e-05,0.679186,0.8477505863228401,0.6680195091479162,0.0001433712766791828,-0.23809393105896137,1.3314888642312894e-05,-0.2886687040728284
992,0.9799,689.571,49.236,0.0665827,184.663,0.0152112,0.0549887,0.614424,-0.272136,-0.340868,0.512016,0.000141411,1.43221e-05,0.679691,0.8485915041339114,0.6686518083550144,0.0001414209990067139,-0.23824934404436182,1.4322202561700692e-05,-0.2888472258226892
993,0.9809,689.708,49.6789,-0.0548013,184.653,0.143934,-0.0271411,0.614878,-0.272335,-0.341122,0.512395,0.000143772,1.33654e-05,0.680196,0.8494309552177657,0.6692843472489298,0.0001437823356893464,-0.23840091734285362,1.3365489317296309e-05,-0.2890278356889062
994,0.9819,689.568,49.2272,0.0690282,184.663,0.0129307,0.056741,0.615332,-0.272539,-0.341373,0.512774,0.000141734,1.44126e-05,0.680701,0.850270787498937,0.6699171259205208,0.0001417440447379903,-0.2385562677094395,1.4412703861932386e-05,-0.28920626730804333
995,0.9829,689.711,49.688,-0.0573367,184.653,0.146861,-0.0287321,0.615786,-0.272738,-0.341626,0.513152,0.000144185,1.34161e-05,0.681206,0.8511110011505285,0.6705484739113716,0.00014419539515664326,-0.23870777993619874,1.34161899962848e-05,-0.2893860753757347
996,0.9839,689.565,49.2184,0.0714967,184.664,0.0106293,0.0585089,0.616239,-0.272942,-0.341877,0.51353,0.000142058,1.45037e-05,0.68171,0.8519497443950517,0.6711800605968734,0.0001420680907155969,-0.2388630677092004,1.4503805179089113e-05,-0.2895644170879942
997,0.9849,689.713,49.6972,-0.0598937,184.654,0.14981,-0.0303363,0.616692,-0.273141,-0.342131,0.513908,0.0001446,1.34671e-05,0.682214,0.8527888676763362,0.6718118860672697,0.00014461045508395998,-0.23901451888883418,1.3467190681737407e-05,-0.289744844810763
998,0.9859,689.562,49.2094,0.0739843,184.664,0.00831237,0.0602888,0.617146,-0.273345,-0.342381,0.514286,0.000142383,1.45953e-05,0.682718,0.8536302247958758,0.6724439504128386,0.00014239313694042188,-0.23916974409347158,1.4595406511830333e-05,-0.28992238640593626
999,0.9869,689.716,49.7064,-0.0624671,184.654,0.152775,-0.03195,0.617598,-0.273543,-0.342634,0.514664,0.000145016,1.35185e-05,0.683221,0.8544682550380507,0.6730762537238915,0.00014502651532843913,-0.23932037357133062,1.351859137543876e-05,-0.290102013318413
