,Time,S11,S22,S33,S12,S13,S23,LE11,LE22,LE33,LE12,LE13,LE23,SDV_EPBAR,E11,E12,E13,E22,E23,E33
0,1e-05,1.94446,0.139606,-2.22045e-16,0.521016,1.85918e-17,-3.80464e-18,9.12912e-06,-2.12914e-06,-3e-06,6.49996e-06,1.57076e-22,-1.77139e-22,0.0,9.129161670617947e-06,6.499981124896692e-06,0.0,-2.1291377333421124e-06,0.0,-2.9999955000192813e-06
1,2e-05,3.8889,0.27921,0.0,1.04203,-2.1314e-22,-5.71107e-23,1.82581e-05,-4.25827e-06,-5.99996e-06,1.29999e-05,-1.09614e-22,4.09087e-22,0.0,1.8258266680115653e-05,1.2999984499106887e-05,0.0,-4.258260933531766e-06,0.0,-5.9999420002343484e-06
2,3.5e-05,6.80552,0.488615,-6.66134e-16,1.82353,1.63949e-17,4.39301e-18,3.19515e-05,-7.45192e-06,-1.04998e-05,2.27496e-05,4.09081e-22,1.09613e-22,0.0,3.19520104545834e-05,2.2749858774151477e-05,0.0,-7.451892234500157e-06,0.0,-1.0499744877323636e-05
3,5.75e-05,11.1804,0.802715,-4.21885e-15,2.99577,-4.39369e-18,1.63953e-17,5.24912e-05,-1.22423e-05,-1.72495e-05,3.73739e-05,1.08454e-38,2.90602e-39,0.0,5.249257768724647e-05,3.737459841279822e-05,0.0,-1.2242225063352485e-05,0.0,-1.7249351228265652e-05
4,9.125e-05,17.7425,1.27385,-2.95319e-14,4.75408,4.39262e-18,-1.63956e-17,8.32998e-05,-1.94277e-05,-2.73738e-05,5.93098e-05,8.76935e-22,-3.27277e-21,0.0,8.330326952465938e-05,5.931155886096384e-05,0.0,-1.9427511283476306e-05,0.0,-2.737342534098186e-05
5,0.00014188,27.5852,1.98053,-1.54765e-13,7.39143,3.71814e-17,-7.60989e-18,0.000129511,-3.02053e-05,-4.25596e-05,9.22122e-05,2.51329e-21,-2.83436e-21,0.0,0.0001295193869115252,9.221645167567516e-05,0.0,-3.0204843824543914e-05,0.0,-4.255869435310089e-05
6,0.00021781,42.3484,3.04047,-8.02247e-13,11.3472,3.71782e-17,-7.61076e-18,0.000198823,-4.63708e-05,-6.53367e-05,0.000141563,3.27278e-21,8.76939e-22,0.0,0.0001988427666026471,0.00014157302051431842,0.0,-4.636972489102664e-05,0.0,-6.533456560431361e-05
7,0.00033172,64.491,4.63024,-4.0512e-12,17.2803,3.71733e-17,-7.61206e-18,0.000302781,-7.06166e-05,-9.94992e-05,0.000215581,-1.76382e-25,-4.72615e-26,0.0,0.00030282684279359096,0.00021560423925381933,0.0,-7.061410670661239e-05,0.0,-9.949425011879232e-05
8,0.00050258,97.7002,7.01456,-2.05163e-11,26.1787,9.80103e-17,2.89851e-16,0.000458697,-0.00010698,-0.000150736,0.000326594,-1.33605e-24,-3.57993e-25,0.0,0.00045880221755600914,0.00032664733762688414,0.0,-0.00010697427784389646,0.0,-0.00015072463989995732
9,0.00075887,147.503,10.5903,-1.03753e-10,39.5234,-4.96816e-16,4.1163e-16,0.00069252,-0.000161514,-0.000227574,0.000493077,-3.50401e-21,1.30949e-20,0.0,0.0006927598473382979,0.0004931985824463414,0.0,-0.00016150095731615188,0.0,-0.0002275481070015406
10,0.0011433,222.184,15.9521,-5.24728e-10,59.5341,6.92733e-16,1.68044e-16,0.00104314,-0.000243289,-0.000342794,0.000742721,-1.27611e-23,-3.41933e-24,0.0,0.0010436842597596474,0.0007429968855396929,0.0,-0.00024325940763114673,0.0,-0.00034273525284966855
11,0.00172,333.764,23.9631,-8.74785e-05,89.4319,-2.97572e-05,-2.82645e-05,0.0015688,-0.000366268,-0.000515936,0.00111721,-3.71898e-10,-3.53172e-10,1.99651e-06,0.001570031210476719,0.0011178343115660905,-3.71897956874534e-10,-0.0003662009320646309,-3.531720471627864e-10,-0.0005158029279085374
12,0.0021524,340.774,24.2093,0.0128258,91.3566,-0.0709626,0.0265815,0.00195757,-0.000534405,-0.000722493,0.00143793,-9.81632e-07,6.25918e-07,0.000397899,0.0019594872910255745,0.0014389643170416022,-9.816315181820912e-07,-0.0005342622310812173,6.25918195940045e-07,-0.000722232064777506
13,0.0025849,347.533,25.152,-0.0599344,93.1034,0.0537341,-0.0432672,0.0023461,-0.000699093,-0.000931581,0.00175792,8.5999e-07,-2.08859e-07,0.000795839,0.0023488542460960993,0.0017594660471729195,8.599903698058853e-07,-0.0006988486914234482,-2.0885897822342514e-07,-0.0009311472131332543
14,0.0030174,353.456,25.0508,0.042868,94.7638,-0.0961594,0.0375133,0.00273453,-0.000869562,-0.00113807,0.00207909,-1.22251e-06,1.06229e-06,0.0011967,0.0027382722374698076,0.0020812528062439384,-1.2225092527184955e-06,-0.0008691840405250506,1.0622905641799463e-06,-0.0011374226439396784
15,0.0036661,362.141,26.3055,-0.0657387,97.0095,0.0770702,-0.0569592,0.00331662,-0.00111797,-0.00145265,0.00255954,1.55164e-06,1.88049e-08,0.00180045,0.0033221260696096877,0.002562818418990531,1.551641203745291e-06,-0.0011173453043582526,1.8804900081548226e-08,-0.0014515954146983034
16,0.0046392,373.204,26.3925,0.0359745,100.076,-0.119472,0.0513767,0.00418914,-0.00150148,-0.00191957,0.00328229,-1.10492e-06,2.72089e-06,0.00271366,0.004197926712274702,0.0032876826122469893,-1.1049193895384946e-06,-0.001500353342859695,2.7208937016798274e-06,-0.0019177288037975915
17,0.0053691,381.154,27.694,-0.0722056,102.111,0.0772002,-0.0668647,0.00484278,-0.00178225,-0.0022747,0.00382287,1.95293e-06,1.24934e-06,0.00340104,0.004854525211234861,0.0038301864878749203,1.952931907078792e-06,-0.0017806627355760885,1.2493407803848555e-06,-0.00227211483048817
18,0.0060989,387.98,27.4993,0.0601528,104.031,-0.115704,0.048042,0.0054961,-0.00207147,-0.00262565,0.00436481,-8.60168e-07,3.19636e-06,0.00409196,0.005511231265887373,0.004374349657715992,-8.601676300123984e-07,-0.0020693259866948477,3.1963651083710687e-06,-0.0026222059959478683
19,0.0070989,396.851,28.08,0.0439845,106.424,-0.1283,0.0508381,0.00639033,-0.00246408,-0.00310888,0.00510647,-1.53079e-06,4.13685e-06,0.00504136,0.00641079172125103,0.005119530239040104,-1.5307888283633275e-06,-0.0024610466468631964,4.136858556824663e-06,-0.003104052436640359
20,0.0080989,405.022,28.7214,0.0432854,108.609,-0.114859,0.0425896,0.00728361,-0.00285644,-0.00359265,0.00584765,-1.84064e-06,4.76996e-06,0.00599351,0.007310200005188783,0.00586478088078124,-1.8406383059943465e-06,-0.0028523642568919483,4.769971376328286e-06,-0.0035862041545214884
21,0.0090989,412.819,29.9704,-0.0380058,110.605,0.0691485,-0.0624653,0.00817586,-0.00324458,-0.00407936,0.00658765,1.14108e-06,3.44166e-06,0.00694735,0.008209373615316817,0.006609396292356129,1.141080651079207e-06,-0.003239322038474657,3.4416659224767443e-06,-0.004071050713691848
22,0.010099,419.831,30.5537,-0.0483948,112.476,0.0868762,-0.0759402,0.00906723,-0.00363565,-0.00456493,0.00732776,2.11697e-06,3.11478e-06,0.00790343,0.009108461855288352,0.00735467373226939,2.116972240839843e-06,-0.0036290490265714626,3.1147848509327503e-06,-0.004554526543418147
23,0.011099,426.068,30.2555,0.0774055,114.248,-0.118938,0.0518705,0.00995784,-0.00403234,-0.00504707,0.0080683,-1.04036e-06,5.3002e-06,0.0088615,0.010007584266775948,0.008100936446946205,-1.0403594588037635e-06,-0.004024221033539277,5.300214046100038e-06,-0.005034354942463293
24,0.012099,432.472,31.447,-0.0504055,115.871,0.0803084,-0.0755356,0.0108473,-0.00442026,-0.00553418,0.00880679,2.09209e-06,3.48052e-06,0.00981945,0.010906345259400263,0.00884568386791762,2.092092188377137e-06,-0.004410505029228129,3.4805260569203966e-06,-0.005518894636181382
25,0.013099,438.248,31.8621,-0.0555429,117.422,0.078286,-0.0769935,0.011736,-0.00481173,-0.00601938,0.00954542,2.67488e-06,3.19769e-06,0.0107788,0.01180513704740882,0.009591122823289888,2.674883577524767e-06,-0.004800172172349737,3.197695112699961e-06,-0.006001299827540496
26,0.014099,443.509,31.6115,0.101672,118.907,-0.0994299,0.0499261,0.0126239,-0.0052076,-0.00650141,0.0102841,-4.21826e-08,5.25567e-06,0.0117391,0.012703917783253527,0.010337163102490665,-4.218259908039812e-08,-0.0051940639580772,5.255683811045131e-06,-0.0064803215602865505
27,0.015099,448.919,32.6295,-0.0540935,120.285,0.0759932,-0.076838,0.0135107,-0.00559568,-0.00698798,0.011021,2.70255e-06,3.37545e-06,0.012699,0.013602381937669383,0.011081954942831374,2.7025536519786897e-06,-0.005580053343511637,3.3754556967302562e-06,-0.006963620841224261
28,0.016099,453.879,33.026,-0.0753483,121.614,0.0863001,-0.0880407,0.0143966,-0.00598648,-0.00747283,0.0117579,3.43222e-06,2.85818e-06,0.0136596,0.014500730152416264,0.011827295822547823,3.4322258901653413e-06,-0.0059685967323418465,2.858184084519877e-06,-0.007444977827262278
29,0.017099,458.39,32.6421,0.130622,122.9,-0.116387,0.0642128,0.0152819,-0.00638242,-0.00795377,0.0124948,2.89641e-07,5.25314e-06,0.0146208,0.015399265326728973,0.01257318614637648,2.8964104203943464e-07,-0.006362095620036201,5.253153797735166e-06,-0.007922222467408369
30,0.018099,463.139,33.6704,-0.0626705,124.1,0.0779911,-0.0816372,0.016166,-0.0067696,-0.00843991,0.0132299,3.2416e-06,3.07636e-06,0.0155812,0.01629737676886789,0.01331780234566593,3.2416052540007456e-06,-0.0067467378761545405,3.076364732068626e-06,-0.008404393947260447
31,0.019099,467.486,34.0052,-0.0818738,125.267,0.0837941,-0.0902047,0.0170493,-0.0071599,-0.00892391,0.0139649,3.86223e-06,2.5564e-06,0.016542,0.01719546882573253,0.014062864707266032,3.862237458518436e-06,-0.0071343289810370525,2.556403267517382e-06,-0.008884210095715384
32,0.020099,471.466,33.6079,0.138632,126.403,-0.113736,0.0644544,0.0179319,-0.00755505,-0.00940404,0.0146999,7.98308e-07,4.94017e-06,0.0175031,0.01809364185196949,0.01480847489100201,7.983083185614248e-07,-0.007526582346377597,4.940182202650689e-06,-0.00935996029981001
33,0.021099,475.379,33.7424,0.0701174,127.491,-0.148884,0.0504986,0.0188135,-0.00794709,-0.00988591,0.015434,-4.39906e-07,5.12899e-06,0.0184639,0.018991588963554573,0.015553719300912316,-4.3990590326004053e-07,-0.007915595365719952,5.129003153303557e-06,-0.009837205021548723
34,0.022099,479.226,34.0346,-0.00127236,128.538,-0.138467,0.0256243,0.0196942,-0.00833798,-0.0103679,0.0161674,-1.04817e-06,5.03341e-06,0.0194242,0.01988941015348411,0.016298799586191404,-1.0481694506792039e-06,-0.008303315455757687,5.033422667555243e-06,-0.01031433859105868
35,0.023099,483.416,35.1361,0.0768157,129.511,0.0692551,-0.0280936,0.0205741,-0.0087241,-0.0108513,0.0168987,1.97909e-06,4.28185e-06,0.0203834,0.020787205772736295,0.017042290722727893,1.979091958315138e-06,-0.008686155463745515,4.281859167232227e-06,-0.010792637025738294
36,0.024099,486.625,34.5479,0.0437144,130.516,-0.148429,0.0409915,0.0214531,-0.00911849,-0.0113309,0.0176316,-1.52807e-06,5.42854e-06,0.0213439,0.021684872193204363,0.017787954232614478,-1.5280688324681435e-06,-0.009077042644827893,5.428554734621116e-06,-0.011266947128366511
37,0.025099,490.14,34.7911,0.0512788,131.46,-0.151175,0.0441704,0.0223312,-0.00950892,-0.0118114,0.0183629,-2.36244e-06,5.76409e-06,0.0223032,0.022582407684763828,0.01853253478624084,-2.362437209413315e-06,-0.009463853178935944,5.764106612460296e-06,-0.011741919239083298
38,0.026099,493.954,35.9412,0.0147051,132.345,0.0865653,-0.0549234,0.0232084,-0.00989351,-0.0122945,0.0190924,1.11621e-06,4.29035e-06,0.0232612,0.023479810516122246,0.019275825352638387,1.1162106230422353e-06,-0.00984473023019472,4.290359203462657e-06,-0.012219231413859832
39,0.027099,496.85,35.229,0.0760322,133.263,-0.166062,0.0569997,0.0240849,-0.0102878,-0.0127723,0.0198234,-2.91356e-06,6.03903e-06,0.0242205,0.024377283830262275,0.02002118837796596,-2.9135557555459712e-06,-0.010235061594578543,6.039048235040312e-06,-0.012691080331407312
40,0.028099,500.064,35.4662,0.0683289,134.126,-0.163357,0.0532908,0.0249605,-0.0106773,-0.0132517,0.0205527,-3.73534e-06,6.32026e-06,0.0251785,0.025274621377031625,0.020765361160270945,-3.7353330236689075e-06,-0.01062049996909109,6.320279972937826e-06,-0.013164282791803927
41,0.029099,503.611,36.6544,0.0100044,134.934,0.0920784,-0.0585524,0.0258351,-0.0110607,-0.013734,0.0212801,-2.21562e-08,4.66396e-06,0.0261352,0.026171718804408606,0.021508135998436595,-2.215619976375649e-08,-0.010999755361498442,4.663970876173096e-06,-0.01364011890111183
42,0.030099,506.236,35.8946,0.0825229,135.782,-0.169521,0.0594596,0.026709,-0.0114542,-0.0142106,0.0220091,-4.17057e-06,6.48576e-06,0.027093,0.027068882227932578,0.02225308693120298,-4.170561303196152e-06,-0.011388850398294514,6.485781032683491e-06,-0.014110106013618284
43,0.031099,509.208,36.137,0.0703736,136.577,-0.160452,0.0518868,0.027582,-0.0118427,-0.014689,0.0227364,-4.88557e-06,6.69745e-06,0.0280494,0.02796590485552386,0.022996842035086562,-4.885558065659268e-06,-0.01177285123292282,6.6974724279855735e-06,-0.014581642938275685
44,0.032099,512.5,37.2665,0.0111252,137.324,0.0848618,-0.0554763,0.028454,-0.0122254,-0.0151699,0.0234619,-1.3508e-06,5.11076e-06,0.0290045,0.02886268206259568,0.023739295536424843,-1.3507990876959752e-06,-0.012150973404463472,5.110773059868734e-06,-0.015055416698155577
45,0.033099,514.934,36.5658,0.0786937,138.109,-0.157364,0.0527017,0.0293253,-0.0126175,-0.0156456,0.0241889,-5.18139e-06,6.76233e-06,0.0299606,0.02975952076852173,0.024483824607805182,-5.181376576568475e-06,-0.01253823308057056,6.7623528645643916e-06,-0.015523843412304839
46,0.034099,517.699,36.8055,0.0633699,138.848,-0.144901,0.042836,0.0301958,-0.0130049,-0.0161229,0.0249141,-5.76157e-06,6.88799e-06,0.0309152,0.030656316705151676,0.02522704973827028,-5.761553402150454e-06,-0.012920701680124047,6.888013722283759e-06,-0.01599362176032293
47,0.035099,520.745,37.8047,0.0188416,139.544,0.0695778,-0.0472129,0.0310653,-0.0133872,-0.0166024,0.0256378,-2.70236e-06,5.55802e-06,0.0318686,0.03155286208914787,0.025969275096016986,-2.702356348582846e-06,-0.01329798997261955,5.558035445885068e-06,-0.016465339715270977
48,0.036099,523.368,38.0993,-0.0819018,140.25,0.102854,-0.0984316,0.0319339,-0.0137721,-0.0170808,0.0263616,-1.73944e-06,4.45137e-06,0.0328221,0.03244925815361088,0.026712140467878065,-1.7394384871360913e-06,-0.013677698496685875,4.451379907344233e-06,-0.016935750165599672
49,0.037099,525.697,37.4443,0.178296,140.96,-0.136534,0.0815181,0.032802,-0.014163,-0.0175542,0.0270855,-5.41173e-06,7.13202e-06,0.0337754,0.03334591649285623,0.027455646465890382,-5.4117153566179965e-06,-0.014063176537751798,7.132045432900469e-06,-0.017401022642786756
50,0.038099,528.455,38.4736,-0.0972164,141.617,0.105327,-0.105085,0.0336688,-0.0145435,-0.0180338,0.0278073,-1.83866e-06,4.30654e-06,0.034727,0.03424200904367791,0.028197531665668185,-1.8386583097163012e-06,-0.014438254136040829,4.306549273191962e-06,-0.01787216412356929
51,0.039099,530.589,37.6753,0.120268,142.304,-0.167295,0.0679097,0.0345352,-0.0149344,-0.0185063,0.0285301,-6.07816e-06,6.82359e-06,0.0356793,0.03513846460878711,0.02894098149195612,-6.078141527976477e-06,-0.014823434934007396,6.82361328063763e-06,-0.018336109910197296
52,0.040099,533.004,37.901,0.0779294,142.953,-0.149819,0.0477313,0.0354006,-0.0153197,-0.0189813,0.0292514,-6.60157e-06,6.82873e-06,0.0366301,0.03603466116437781,0.0296834243517341,-6.6015482096393185e-06,-0.015202950346188016,6.828753315923919e-06,-0.01880228953156471
53,0.041099,535.719,38.8734,0.0209192,143.563,0.0656327,-0.0454113,0.036265,-0.0157001,-0.0194584,0.029971,-3.56599e-06,5.46832e-06,0.0375795,0.036930596693037776,0.030424651205334108,-3.565983641817816e-06,-0.01557749590079538,5.468334951297393e-06,-0.019270307304711687
54,0.042099,538.023,39.1279,-0.08327,144.187,0.0946446,-0.096129,0.0371286,-0.0160831,-0.0199343,0.0306909,-2.71869e-06,4.38672e-06,0.038529,0.037826476741667614,0.031166720987706453,-2.7186863044148524e-06,-0.015954457527105892,4.3867296217747764e-06,-0.019736925524853177
55,0.043099,540.087,38.517,0.176663,144.815,-0.128165,0.0767259,0.0379917,-0.0164717,-0.0204054,0.0314107,-6.12603e-06,6.93566e-06,0.0394783,0.03872261144504385,0.031909221987524994,-6.1260112359518e-06,-0.016336783334195304,6.935684051745383e-06,-0.020198618698872517
56,0.044099,542.52,39.4234,-0.0896269,145.401,0.0867472,-0.0960355,0.0388535,-0.0168508,-0.0208823,0.0321286,-3.00103e-06,4.3355e-06,0.0404259,0.03961816843166521,0.03265029559453336,-3.001025496884857e-06,-0.016709619384094765,4.3355093983787896e-06,-0.020665774575442275
57,0.045099,544.441,38.7557,0.106418,146.01,-0.145528,0.0539266,0.0397149,-0.0172388,-0.0213528,0.0328472,-6.60894e-06,6.48164e-06,0.0413739,0.04051408133624235,0.033392624783881164,-6.608918160955213e-06,-0.01709106204711175,6.4816610059192925e-06,-0.021126442947771773
58,0.046099,546.887,39.7501,-0.0781709,146.568,0.0889732,-0.0933315,0.0405751,-0.017617,-0.0218286,0.0335637,-3.23273e-06,4.21585e-06,0.0423199,0.04140951662050907,0.0341333159204511,-3.2327247747598875e-06,-0.017462727920998677,4.215858886658097e-06,-0.021592080202329944
59,0.047099,548.707,39.0521,0.0986851,147.159,-0.148357,0.0522626,0.0414348,-0.0180044,-0.0222984,0.034281,-6.91246e-06,6.29527e-06,0.0432664,0.04230520133685767,0.03487536585235218,-6.912436108952313e-06,-0.01784328914073441,6.295289815216876e-06,-0.022051628286753555
60,0.048099,551.09,40.0512,-0.0761789,147.695,0.0881128,-0.0923937,0.0422934,-0.0183819,-0.0227733,0.0349961,-3.52037e-06,4.06912e-06,0.044211,0.043200508883253885,0.035615669890634916,-3.520363803466431e-06,-0.018213983326154093,4.069128278771927e-06,-0.022515945707582086
61,0.049099,552.841,39.3566,0.0965806,148.267,-0.146784,0.0507222,0.0431514,-0.0187686,-0.0232423,0.0357121,-7.15682e-06,6.10661e-06,0.0451561,0.04409595901304808,0.036357436230937124,-7.156794390006382e-06,-0.018593566581649235,6.106628645419221e-06,-0.02297427824166476
62,0.050099,555.148,40.3294,-0.0742524,148.786,0.083939,-0.0902377,0.0440084,-0.0191455,-0.0237163,0.0364259,-3.86087e-06,3.93928e-06,0.0460992,0.04499113277709199,0.037097452249215124,-3.860862546889443e-06,-0.018963388968997852,3.9392877588806385e-06,-0.02343727869400225
63,0.051099,557.129,40.5466,-0.134347,149.319,0.108,-0.118036,0.0448646,-0.0195255,-0.0241884,0.0371397,-3.03527e-06,3.05257e-06,0.0470422,0.04588623732455055,0.037837996679494834,-3.0352653935805662e-06,-0.01933611205931729,3.052574659045959e-06,-0.023898205144481266
64,0.052099,558.869,39.8503,0.180745,149.858,-0.136102,0.080421,0.0457202,-0.0199115,-0.0246555,0.0378535,-6.72649e-06,5.91597e-06,0.0479849,0.046781480519630714,0.03857906989909132,-6.726467377204948e-06,-0.019714575271963297,5.9159874994385575e-06,-0.024354035825314924
65,0.053099,560.986,40.7465,-0.0956905,150.358,0.0834953,-0.0970836,0.0465747,-0.0202875,-0.0251287,0.0385655,-3.57796e-06,3.26419e-06,0.048926,0.04767633756795875,0.03931880151006295,-3.577953599065431e-06,-0.020083093305929056,3.2641953273682134e-06,-0.02481560228032642
66,0.054099,562.867,40.9406,-0.15711,150.867,0.103419,-0.123785,0.0474284,-0.0206666,-0.0255995,0.0392774,-2.83347e-06,2.36945e-06,0.0498667,0.04857112074119452,0.040058955991586265,-2.833465985729866e-06,-0.020454509398888043,2.3694528070716814e-06,-0.025274611035633443
67,0.055099,564.559,40.281,0.189683,151.379,-0.132185,0.0814055,0.0482817,-0.0210513,-0.0260653,0.0399891,-6.39317e-06,5.31531e-06,0.0508071,0.04946624833039559,0.04079942941677861,-6.393149563743705e-06,-0.02083126807494451,5.31532412617608e-06,-0.025728532395321135
68,0.056099,566.563,41.1241,-0.0957813,151.859,0.0759935,-0.0945204,0.0491337,-0.0214266,-0.0265371,0.0406992,-3.42796e-06,2.69893e-06,0.0517459,0.05036077458804722,0.04153876356112862,-3.4279541245574308e-06,-0.021198681150659815,2.6989336421312515e-06,-0.026188085256692473
69,0.057099,568.358,41.301,-0.154109,152.346,0.092782,-0.119013,0.049985,-0.0218048,-0.0270066,0.0414091,-2.77907e-06,1.85898e-06,0.0526844,0.051255327427845776,0.04227841443739644,-2.77906613843637e-06,-0.021568793816731824,1.8589817278868992e-06,-0.02664518263865756
70,0.058099,569.997,40.7052,0.183417,152.834,-0.123912,0.0759569,0.0508358,-0.0221881,-0.0274713,0.0421188,-6.05772e-06,4.64675e-06,0.0536225,0.05215011604952591,0.04301838197454466,-6.057701652073533e-06,-0.02194375463223086,4.646760796145344e-06,-0.027097395542479363
71,0.059099,571.604,40.5919,0.121784,153.317,-0.183306,0.0726497,0.0516856,-0.0225684,-0.0279381,0.0428278,-7.64519e-06,4.94283e-06,0.0545597,0.0530446132361686,0.043758144222092676,-7.6451607755601e-06,-0.02231563870410591,4.942842215749366e-06,-0.02755144049590319
72,0.060099,573.781,41.8062,-0.00366013,153.749,0.115064,-0.0714925,0.0525344,-0.0229408,-0.0284083,0.0435346,-3.3752e-06,2.83596e-06,0.0554949,0.05393881695025304,0.04449613325302937,-3.3751943040449817e-06,-0.02267966057517312,2.835964021397075e-06,-0.02800857832705561
73,0.061099,575.066,40.9163,0.0921537,154.24,-0.16128,0.0528357,0.0533827,-0.0233241,-0.0288723,0.044243,-7.56967e-06,4.63001e-06,0.0564312,0.05483325256990268,0.045236316455762315,-7.569641350069212e-06,-0.023054195677036926,4.6300207185989706e-06,-0.028459477729960603
74,0.062099,577.07,41.9094,-0.0718797,154.668,0.0813429,-0.0890527,0.05423,-0.0236968,-0.0293414,0.0449487,-4.15689e-06,2.47175e-06,0.0573652,0.055727391533283877,0.0459742000558907,-4.156881360128928e-06,-0.023418235535266563,2.471753054678061e-06,-0.028915120509588
75,0.063099,578.726,42.0845,-0.12919,155.116,0.100217,-0.114082,0.0550765,-0.0240729,-0.0298084,0.0456547,-3.45857e-06,1.65789e-06,0.058299,0.056621443124165616,0.046712918578084794,-3.4585640191764355e-06,-0.023785458876203758,1.6578913744069723e-06,-0.029368511273326736
76,0.064099,580.172,41.417,0.170645,155.571,-0.129806,0.0732354,0.0559224,-0.0244545,-0.0302707,0.0463606,-6.92071e-06,4.3275e-06,0.0592326,0.057515617340570646,0.04745205407449027,-6.920686051903324e-06,-0.024157911276659005,4.327509363744042e-06,-0.02981713050423984
77,0.065099,581.653,41.3075,0.113796,156.017,-0.186112,0.0702705,0.0567674,-0.0248327,-0.030735,0.0470657,-8.46537e-06,4.60776e-06,0.0601651,0.058409595689882465,0.048190872957805775,-8.465334168872296e-06,-0.024526904973507846,4.607770615727702e-06,-0.030267481853390676
78,0.066099,583.7,42.5079,-0.00403512,156.413,0.110975,-0.0703075,0.0576115,-0.0252031,-0.0312026,0.0477685,-4.24098e-06,2.5561e-06,0.0610957,0.05930337639668304,0.04892780042930167,-4.240971007041239e-06,-0.024888153300585247,2.556103266826426e-06,-0.030720822779507273
79,0.067099,584.872,41.648,0.088328,156.868,-0.155177,0.0485979,0.058455,-0.0255841,-0.0316643,0.048473,-8.2671e-06,4.2566e-06,0.0620273,0.06019727574372302,0.04966703042789655,-8.267065827571862e-06,-0.025259600149059813,4.256609059227756e-06,-0.03116823568241356
80,0.068099,586.335,41.58,0.0688183,157.297,-0.200495,0.0606067,0.0592976,-0.0259612,-0.0321272,0.0491761,-9.73099e-06,4.6763e-06,0.0629575,0.06109097443064626,0.05040531082905142,-9.730942654107011e-06,-0.02562710545636282,4.676310933815486e-06,-0.031616604123234304
81,0.069099,588.39,42.8559,-0.0036737,157.669,0.114104,-0.0707466,0.0601393,-0.0263303,-0.0325935,0.0498768,-5.278e-06,2.7409e-06,0.0638856,0.06198447067897006,0.05114158775484534,-5.27798607141694e-06,-0.025986680128150974,2.740903756182078e-06,-0.03206805603653795
82,0.070099,589.496,41.9739,0.0864234,158.111,-0.156903,0.0484229,0.0609804,-0.0267104,-0.0330539,0.0505793,-9.36672e-06,4.44067e-06,0.0648149,0.06287808157263752,0.05188027415346186,-9.366676132382956e-06,-0.02635683223916907,4.440679859829544e-06,-0.03251358933390369
83,0.071099,590.908,41.9097,0.0693048,158.524,-0.200399,0.0604455,0.0618207,-0.0270864,-0.0335156,0.0512805,-1.07988e-05,4.85641e-06,0.0657427,0.06377159338099325,0.0526181112571551,-1.0798741693185399e-05,-0.026722853253984158,4.856421792487353e-06,-0.032960174707541645
84,0.072099,592.903,43.1723,-0.00556124,158.882,0.112142,-0.0705873,0.06266,-0.0274546,-0.0339807,0.0519793,-6.38487e-06,2.92833e-06,0.0666685,0.06466479165754202,0.053353937861173595,-6.3848496167917546e-06,-0.02708114793331773,2.928334287499723e-06,-0.03340984035243355
85,0.073099,593.967,42.309,0.0850083,159.309,-0.153141,0.046433,0.0634988,-0.0278336,-0.0344399,0.0526798,-1.03795e-05,4.58984e-06,0.0675954,0.06555820713085114,0.05409207079552214,-1.037944613313524e-05,-0.02744981431155935,4.5898505334207584e-06,-0.03385359665949794
86,0.074099,595.332,42.2502,0.0677616,159.708,-0.194313,0.0574466,0.0643367,-0.0282085,-0.0349004,0.053379,-1.17475e-05,4.97694e-06,0.0685209,0.06645141250874098,0.05482934969408859,-1.1747430998410024e-05,-0.027814355038744965,4.976952384883049e-06,-0.03429840465333511
87,0.075099,597.257,43.4624,-0.00416418,160.055,0.105895,-0.0678374,0.0651737,-0.0285759,-0.0353641,0.054076,-7.51952e-06,3.13478e-06,0.0694444,0.06734440600665592,0.0555648220331606,-7.519491728502636e-06,-0.028171470438587698,3.1347849134277794e-06,-0.034746096677679694
88,0.076099,598.629,43.586,-0.107095,160.44,0.117443,-0.112943,0.0660099,-0.0289477,-0.0358259,0.0547736,-6.85872e-06,2.09514e-06,0.0703682,0.06823729266284184,0.05630144095581846,-6.858696478984072e-06,-0.028532729123727507,2.095142194846744e-06,-0.03519174802141878
89,0.077099,599.787,42.8113,0.177937,160.837,-0.135787,0.0761143,0.0668456,-0.0293253,-0.0362828,0.0554712,-1.06169e-05,4.78058e-06,0.0712916,0.06913039169777413,0.05703857392311473,-1.061684364089821e-05,-0.028899485917170065,4.78059142694498e-06,-0.035632468221551084
90,0.078099,601.039,42.6997,0.114313,161.222,-0.18794,0.0697958,0.0676804,-0.029699,-0.0367417,0.0561679,-1.20846e-05,5.00056e-06,0.072214,0.07002327438614397,0.05777526929560106,-1.208452698153728e-05,-0.029262318379814634,5.00057250274466e-06,-0.03607491495471671
91,0.079099,602.852,43.8628,-0.00566478,161.557,0.104711,-0.0684199,0.0685143,-0.0300652,-0.0372039,0.0568624,-7.96146e-06,2.9977e-06,0.0731345,0.07091593893941095,0.05851014937769761,-7.961428307612373e-06,-0.029617737437622638,2.997704493079567e-06,-0.03652033818378686
92,0.080099,604.152,43.9642,-0.113359,161.927,0.112026,-0.113117,0.0693474,-0.0304357,-0.037664,0.0575575,-7.3839e-06,1.96758e-06,0.0740552,0.07180849074897422,0.05924617555879408,-7.383872739130659e-06,-0.029977197471818706,1.967581935602425e-06,-0.03696353321135404
93,0.081099,605.277,43.2292,0.179271,162.307,-0.130358,0.0742672,0.0701801,-0.0308117,-0.0381194,0.0582525,-1.09769e-05,4.61968e-06,0.0749755,0.0727013573726476,0.059982607531275045,-1.0976839754039958e-05,-0.030341857485190582,4.619690670670806e-06,-0.03740200017182482
94,0.082099,606.474,43.1227,0.112242,162.676,-0.179906,0.065639,0.0710117,-0.031184,-0.0385768,0.0589467,-1.23681e-05,4.78918e-06,0.0758947,0.07359378684218165,0.060718702926573664,-1.2368023515341164e-05,-0.030702794019143997,4.789191468068665e-06,-0.03784219181744242
95,0.083099,608.203,44.2176,-0.00233573,162.998,0.0956034,-0.0643221,0.0718425,-0.0315492,-0.0390372,0.0596387,-8.50327e-06,2.90933e-06,0.0768121,0.0744860991755083,0.061452974297592,-8.503233847267921e-06,-0.03105671672854793,2.9093342321928617e-06,-0.03828506731456727
96,0.084099,609.444,44.3028,-0.106669,163.354,0.0994122,-0.106536,0.0726726,-0.0319186,-0.0394955,0.0603313,-8.02955e-06,1.94267e-06,0.0777296,0.07537840038481303,0.06218839127309095,-8.029517763241678e-06,-0.03141457827629113,1.9426718869119952e-06,-0.038725720284875975
97,0.085099,610.544,43.6451,0.170594,163.716,-0.120365,0.0675075,0.0735021,-0.0322928,-0.0399495,0.0610237,-1.12914e-05,4.39601e-06,0.0786467,0.07627079683819193,0.0629241051899736,-1.1291336252328144e-05,-0.03177695513616119,4.396019662511463e-06,-0.03916203975585231
98,0.086099,611.696,43.5504,0.10204,164.071,-0.165776,0.0567116,0.0743307,-0.0326636,-0.0404053,0.0617153,-1.25624e-05,4.49773e-06,0.0795628,0.07716296439442538,0.06365947776364766,-1.2562321093367856e-05,-0.03213590568765168,4.497740114794979e-06,-0.03959988990450236
99,0.087099,613.336,44.5408,0.00523483,164.382,0.0818204,-0.0572246,0.0751585,-0.033028,-0.0408638,0.0624049,-9.10944e-06,2.84951e-06,0.0804771,0.07805500906269969,0.06439323030831301,-9.109398509177247e-06,-0.03248853111136496,2.8495140598217006e-06,-0.040040132421671704
100,0.088099,614.522,44.6078,-0.0948404,164.724,0.0815191,-0.0964115,0.0759855,-0.0333962,-0.0413204,0.063095,-8.76789e-06,1.96684e-06,0.0813916,0.07894692931338398,0.06512802158711817,-8.767851562119233e-06,-0.03284470325889344,1.9668419342089294e-06,-0.04047835004451117
101,0.089099,615.612,44.0589,0.158278,165.071,-0.106672,0.0583147,0.076812,-0.0337685,-0.0417731,0.0637847,-1.15716e-05,4.13795e-06,0.0823054,0.07983904756754612,0.0658628937751502,-1.1571533049314908e-05,-0.0332047081568001,4.1379585613565695e-06,-0.0409126271893977
102,0.090099,617.037,44.9196,-0.133251,165.389,0.121619,-0.114037,0.0776373,-0.0341319,-0.0422312,0.0644729,-8.19825e-06,1.52841e-06,0.0832177,0.08073060658472708,0.0665966730831451,-8.198216394417202e-06,-0.033555977736307696,1.5284111680724521e-06,-0.04135188449531457
103,0.091099,618.202,44.915,-0.15646,165.72,0.0964054,-0.121724,0.078462,-0.0344994,-0.0426863,0.0651611,-8.11008e-06,9.37466e-07,0.0841297,0.08162225273573154,0.06733095755186569,-8.110047113429886e-06,-0.03391108066033066,9.374664393657639e-07,-0.04178806599205287
104,0.092099,619.278,44.329,0.158405,166.053,-0.105973,0.0575219,0.0792863,-0.0348709,-0.0431374,0.0658489,-1.10855e-05,3.40855e-06,0.0850412,0.08251420152485078,0.0680653203028696,-1.1085438556102112e-05,-0.03426991603606733,3.4085558091589974e-06,-0.04222021791628905
105,0.093099,620.659,45.1952,-0.15559,166.364,0.126305,-0.123407,0.0801094,-0.0352332,-0.0435945,0.0665353,-7.64667e-06,6.57594e-07,0.0859512,0.0834055857629834,0.0687986920030994,-7.646640764247259e-06,-0.034619736671652857,6.575942161912707e-07,-0.04265791901047333
106,0.094099,621.797,45.1823,-0.164356,166.685,0.098401,-0.125162,0.0809318,-0.0355998,-0.0440482,0.0672216,-7.58751e-06,1.30472e-07,0.0868609,0.08429694499339191,0.06953246030921445,-7.5874812148768456e-06,-0.034973580212705024,1.3047200853044671e-07,-0.043092166596104486
107,0.095099,622.839,44.5842,0.155753,167.01,-0.107057,0.0567281,0.0817538,-0.0359704,-0.0444981,0.0679075,-1.06034e-05,2.62879e-06,0.08777,0.08518860350361757,0.07026630426675551,-1.0603343784110209e-05,-0.03533115274159604,2.628793455361489e-06,-0.043522582601012605
108,0.096099,624.191,45.4515,-0.156548,167.312,0.126091,-0.123834,0.0825746,-0.0363317,-0.044954,0.068592,-7.15808e-06,-1.15227e-07,0.0886776,0.08607969196204834,0.07099915234066523,-7.1580543810068065e-06,-0.035679624640871266,-1.1522699339128195e-07,-0.043958541271274965
109,0.097099,625.296,45.4305,-0.16305,167.624,0.0964702,-0.124212,0.0833949,-0.0366973,-0.0454065,0.0692764,-7.13194e-06,-6.17539e-07,0.0895849,0.0869709686405169,0.07173239504756035,-7.131914567803932e-06,-0.036032115730805,-6.175388093110357e-07,-0.04439105216837924
110,0.098099,626.31,44.8406,0.152876,167.941,-0.10598,0.0551243,0.0842146,-0.0370669,-0.0458553,0.0699605,-1.01031e-05,1.84019e-06,0.0904917,0.0878623240156029,0.07246581801773644,-1.0103048963872041e-05,-0.03638833242793016,1.8401916932475615e-06,-0.04481983323849681
111,0.099099,627.626,45.6857,-0.153239,168.235,0.121455,-0.121349,0.0850332,-0.0374273,-0.0463099,0.0706432,-6.75185e-06,-8.39049e-07,0.091397,0.08875321270503345,0.07319824041563527,-6.751827206330496e-06,-0.03673555549956731,-8.390486480047699e-07,-0.04525395945794053
112,0.1001,628.699,45.6583,-0.158483,168.539,0.0906317,-0.120813,0.0858512,-0.037792,-0.0467611,0.0713258,-6.768e-06,-1.31274e-06,0.092302,0.08964417718781914,0.07393105561591673,-6.76797709708854e-06,-0.03708679399024484,-1.3127391383926934e-06,-0.04568464370176106
113,0.1011,629.694,45.0984,0.148178,168.847,-0.102609,0.0521373,0.0866686,-0.0381604,-0.0472088,0.072008,-9.60738e-06,1.05139e-06,0.0932064,0.09053521645638973,0.07466394134095511,-9.607333849248612e-06,-0.037441465880765246,1.0513905526199352e-06,-0.04611179506180918
114,0.1021,630.967,45.8976,-0.146511,169.135,0.11231,-0.116233,0.087485,-0.0385201,-0.047662,0.0726888,-6.45349e-06,-1.503e-06,0.0941094,0.09142589293177172,0.07539582165601111,-6.453469176270765e-06,-0.03778763592307344,-1.5029988704728936e-06,-0.046543999251420276
115,0.1031,632.012,45.8662,-0.15071,169.432,0.0809451,-0.115008,0.0883008,-0.0388839,-0.048112,0.0733696,-6.51881e-06,-1.94171e-06,0.0950121,0.09231664146214946,0.07612820040483315,-6.518788752574167e-06,-0.03813762511423069,-1.9417081148498383e-06,-0.04697295792881595
116,0.1041,632.995,45.3575,0.141435,169.731,-0.0970592,0.0477409,0.089116,-0.039251,-0.0485587,0.0740499,-9.1422e-06,2.7609e-07,0.0959142,0.09320746103699507,0.07686053949646632,-9.142158210240225e-06,-0.0384906599885354,2.7609003816486677e-07,-0.04739858003873354
117,0.1051,634.22,46.0883,-0.136265,170.013,0.0989027,-0.108539,0.0899301,-0.0396102,-0.0490105,0.074729,-6.28309e-06,-2.09418e-06,0.0968148,0.09409780359579023,0.07759208385661154,-6.283070261403623e-06,-0.03883597212169554,-2.09417780716592e-06,-0.047828868150868176
118,0.1061,635.239,46.0557,-0.139825,170.303,0.067745,-0.10695,0.0907437,-0.0399731,-0.0494593,0.0754079,-6.40163e-06,-2.49355e-06,0.0977152,0.09498832378328514,0.07832390951245216,-6.401609509598671e-06,-0.03918471526414202,-2.4935468910802783e-06,-0.04825610667534597
119,0.1071,636.218,45.6171,0.132855,170.593,-0.0896012,0.0421051,0.0915567,-0.0403388,-0.049905,0.0760863,-8.7336e-06,-4.70028e-07,0.0986149,0.09587891126527825,0.07905569264543866,-8.73356186226193e-06,-0.03953602117356925,-4.700278894986809e-07,-0.04868020441139975
120,0.1081,637.389,46.2602,-0.122816,170.87,0.0817949,-0.0985615,0.0923687,-0.0406975,-0.0503552,0.0767636,-6.25377e-06,-2.60404e-06,0.0995133,0.09676912631962442,0.07978678462241717,-6.2537504452730985e-06,-0.0398804778207813,-2.6040366094548517e-06,-0.049108392191072436
121,0.1091,638.384,46.2293,-0.126249,171.153,0.0516324,-0.0969903,0.09318,-0.0410595,-0.0508028,0.0774407,-6.42641e-06,-2.96199e-06,0.100411,0.09765929616037705,0.08051815583206579,-6.426389350666639e-06,-0.04022797818644919,-2.961985613336715e-06,-0.04953391603538704
122,0.1101,639.366,45.8761,0.122802,171.435,-0.0806506,0.0354995,0.0939908,-0.0414238,-0.0512476,0.0781173,-8.40603e-06,-1.1718e-06,0.101309,0.09854963921400217,0.08124948179597613,-8.405994669447026e-06,-0.040577559453901735,-1.1717993134707783e-06,-0.04995658934002278
123,0.1111,640.48,46.4165,-0.106767,171.708,0.0618291,-0.0867809,0.0948006,-0.0417821,-0.0516963,0.0787928,-6.37059e-06,-3.02879e-06,0.102205,0.09943960501035387,0.08198011256368876,-6.370569707869755e-06,-0.04092125893691001,-3.0287854132504677e-06,-0.05038277819576564
124,0.1121,641.313,45.709,0.199528,171.993,-0.170896,0.0928555,0.09561,-0.0421479,-0.0521391,0.0794685,-9.96956e-06,-4.32609e-07,0.103101,0.10032985166086639,0.08271145358148524,-9.969510304075335e-06,-0.0412720257812238,-4.3260890647545125e-07,-0.05080317561872216
125,0.1131,642.252,45.7263,0.117516,172.272,-0.180429,0.0638511,0.0964185,-0.0425093,-0.0525845,0.0801434,-1.08037e-05,-5.49135e-07,0.103996,0.1012198280704184,0.0834424221791148,-1.0803641640189099e-05,-0.04161844746893695,-5.491348492592252e-07,-0.05122585374689481
126,0.1141,643.592,46.6458,-0.000981114,172.516,0.0562528,-0.0521612,0.0972261,-0.0428652,-0.0530321,0.0808165,-7.60496e-06,-2.18816e-06,0.104889,0.10210953241782694,0.08417193276272772,-7.604931082316746e-06,-0.041959474774074135,-2.188157605997887e-06,-0.051650430027497585
127,0.1151,644.207,45.7626,0.123277,172.816,-0.20848,0.0789576,0.0980332,-0.0432305,-0.0534742,0.0814909,-1.17542e-05,-2.56751e-07,0.105783,0.10299940408084485,0.08490334491864027,-1.1754130919694461e-05,-0.04230938306329901,-2.5675096704258493e-07,-0.052069602707434215
128,0.1161,645.197,45.8699,0.0913676,173.082,-0.197239,0.0612354,0.0988395,-0.0435907,-0.0539183,0.0821638,-1.23881e-05,-2.4453e-07,0.106676,0.10388911113755395,0.08563362205362268,-1.2388023267750903e-05,-0.042654281103653546,-2.445299700504222e-07,-0.0524904851330118
129,0.1171,646.557,46.8551,-0.0112059,173.315,0.0560705,-0.0555594,0.099645,-0.0439454,-0.0543647,0.082835,-8.98139e-06,-1.90432e-06,0.107567,0.1047786520310734,0.08636254393956455,-8.981349667425143e-06,-0.042993791414432936,-1.9043181868072523e-06,-0.05291335898798177
130,0.1181,647.145,45.9482,0.122696,173.61,-0.215386,0.0807228,0.10045,-0.0443099,-0.0548055,0.0835077,-1.32378e-05,9.52781e-08,0.108459,0.10566835690412368,0.08709358588126181,-1.3237712380709254e-05,-0.043342556611143834,9.527810451714913e-08,-0.05333074278119354
131,0.1191,648.124,46.0708,0.094789,173.869,-0.199863,0.0632652,0.101254,-0.0446691,-0.0552484,0.0841787,-1.38228e-05,1.16834e-07,0.109349,0.10655767171972497,0.08782327045918614,-1.3822704465593638e-05,-0.04368612625600676,1.168340069135354e-07,-0.05374992975940707
132,0.1201,649.462,47.0609,-0.0148172,174.096,0.0558405,-0.0565265,0.102057,-0.0450228,-0.0556938,0.0848481,-1.03872e-05,-1.5823e-06,0.110238,0.10744659438480042,0.08855170313564775,-1.0387146053170149e-05,-0.04402431466100487,-1.5822987481373119e-06,-0.05417129569553236
133,0.1211,650.035,46.157,0.126206,174.385,-0.215075,0.0817371,0.10286,-0.0453864,-0.0561334,0.085519,-1.46311e-05,4.43304e-07,0.111127,0.10833623114144553,0.08928225751034424,-1.4630992965947165e-05,-0.04437184423548879,4.4330409831871975e-07,-0.05458699061750638
134,0.1221,650.994,46.2838,0.0959977,174.638,-0.197847,0.0629665,0.103662,-0.0457446,-0.0565752,0.0861882,-1.51815e-05,4.4565e-07,0.112015,0.10922547333727772,0.09001144915738246,-1.5181384761642214e-05,-0.04471408894119744,4.456500992677803e-07,-0.0550045818323599
135,0.1231,652.304,47.2571,-0.0143992,174.861,0.0539391,-0.0555788,0.104463,-0.0460974,-0.0570193,0.0868559,-1.18029e-05,-1.23281e-06,0.112902,0.11011431887653567,0.09073949283231753,-1.1802830346074877e-05,-0.04505105436642287,-1.2328092401370228e-06,-0.055424161123090676
136,0.1241,652.868,46.3758,0.125191,175.143,-0.210573,0.0798867,0.105264,-0.0464599,-0.0574578,0.0875249,-1.59444e-05,7.48591e-07,0.113789,0.11100387666628886,0.09146944169369164,-1.5944272888757105e-05,-0.04539716062366583,7.485912802973615e-07,-0.05583826682912674
137,0.1251,653.808,46.5039,0.093605,175.391,-0.192481,0.0603286,0.106064,-0.0468171,-0.0578985,0.0881924,-1.64582e-05,7.29579e-07,0.114674,0.11189303538368711,0.0921982407556492,-1.6458064564517372e-05,-0.045738083865375256,7.295792661121681e-07,-0.056254267232513366
138,0.1261,655.086,47.4434,-0.0121475,175.609,0.0503642,-0.0534655,0.106863,-0.0471692,-0.0583414,0.0888583,-1.3206e-05,-8.80348e-07,0.115559,0.11278179293031654,0.09292577777073352,-1.3205912801184105e-05,-0.04607402034095909,-8.803476124752407e-07,-0.056672159668444966
139,0.1271,655.646,46.6022,0.12091,175.885,-0.202655,0.0758353,0.107661,-0.0475305,-0.0587789,0.0895256,-1.71684e-05,1.00695e-06,0.116444,0.11367014720728918,0.09365533053044639,-1.716825262387811e-05,-0.04641861154326066,1.0069505069765228e-06,-0.05708477533233214
140,0.1281,656.567,46.7293,0.0886145,176.128,-0.184445,0.0559175,0.108459,-0.0478867,-0.0592184,0.0901913,-1.76451e-05,9.65497e-07,0.117327,0.11455921067390373,0.09438361926799144,-1.7644944326100642e-05,-0.04675821674655156,9.654974661987836e-07,-0.057499095520043175
141,0.1291,657.809,47.6213,-0.00854237,176.343,0.0455069,-0.0504816,0.109256,-0.0482381,-0.05966,0.0908555,-1.45737e-05,-5.39959e-07,0.118209,0.11544786844789345,0.09511075032140015,-1.457359380419021e-05,-0.047093127061998086,-5.399588541843414e-07,-0.057915212034172936
142,0.1301,658.37,46.8336,0.114224,176.612,-0.192147,0.0701442,0.110052,-0.0485982,-0.0600965,0.0915209,-1.82988e-05,1.21626e-06,0.119091,0.11633611842776936,0.0958396795025076,-1.829863257796216e-05,-0.04743620705168361,1.2162607396781766e-06,-0.05832634230840983
143,0.1311,659.272,46.9574,0.081725,176.85,-0.174492,0.0502251,0.110848,-0.0489534,-0.060535,0.0921849,-1.874e-05,1.15236e-06,0.119973,0.11722507573610841,0.09656755867884059,-1.8739824407254524e-05,-0.04777449762697594,1.1523606640029271e-06,-0.05873917568697429
144,0.1321,660.476,47.7925,-0.00398633,177.061,0.0397994,-0.04691,0.111643,-0.0493042,-0.0609753,0.0928474,-1.58875e-05,-2.23435e-07,0.120852,0.11811362282198656,0.09729427538479407,-1.5887373794321036e-05,-0.04810847974931909,-2.2343497507737453e-07,-0.05915352160297205
145,0.1331,661.043,47.0671,0.105845,177.325,-0.179933,0.0633406,0.112437,-0.0496629,-0.0614109,0.093511,-1.93369e-05,1.37686e-06,0.121733,0.11900175758134734,0.09802268152436633,-1.9336713043327514e-05,-0.0484498620070648,1.3768609479214433e-06,-0.05956326508035337
146,0.1341,661.925,47.1857,0.0735894,177.558,-0.163382,0.0437297,0.113231,-0.0500172,-0.0618482,0.0941732,-1.97459e-05,1.29171e-06,0.122611,0.1198905977997371,0.09875003294354734,-1.9745705051033013e-05,-0.048786936504682354,1.2917108342946904e-06,-0.0599744281571748
147,0.1351,663.091,47.9587,0.00110968,177.766,0.0336501,-0.0430269,0.114023,-0.0503674,-0.0622872,0.094834,-1.71338e-05,6.03497e-08,0.123489,0.12077790247946663,0.09947632690641339,-1.713365321731608e-05,-0.04911999299792258,6.034970190249567e-08,-0.06038700881513326
148,0.1361,663.664,47.2999,0.0964657,178.023,-0.166852,0.0559297,0.114816,-0.0507248,-0.0627219,0.0954958,-2.02885e-05,1.49149e-06,0.124367,0.12166703184933403,0.10020420116658668,-2.028829418976308e-05,-0.0494597767894448,1.4914911121710617e-06,-0.0607953698187067
149,0.1371,664.951,48.4636,-0.0705216,178.217,0.141639,-0.100227,0.115607,-0.051072,-0.0631615,0.0961551,-1.58661e-05,-8.08182e-07,0.125243,0.12255462146694152,0.10092980496542436,-1.5865974134054994e-05,-0.04978974706878825,-8.08181673472852e-07,-0.06120815343764752
150,0.1381,665.691,48.3608,-0.126683,178.454,0.0996995,-0.112713,0.116397,-0.0514249,-0.0635981,0.0968152,-1.60214e-05,-1.37523e-06,0.126119,0.12344179000333222,0.10165676863764528,-1.6021271658006597e-05,-0.050125017105170255,-1.3752290544122303e-06,-0.0616179404948326
151,0.1391,666.378,47.7547,0.141109,178.694,-0.0983412,0.0479432,0.117188,-0.0517813,-0.0640313,0.0974749,-1.88819e-05,7.97783e-07,0.126994,0.12433078401000208,0.10238377138340504,-1.8881721738028823e-05,-0.05046349222922408,7.977833182959415e-07,-0.062024359566283604
152,0.1401,667.376,48.4864,-0.130215,178.91,0.10255,-0.10703,0.117977,-0.0521294,-0.0644695,0.0981332,-1.5967e-05,-1.51548e-06,0.127868,0.12521823105040575,0.10310970953643395,-1.596687252813922e-05,-0.0507939683648706,-1.5154788516325013e-06,-0.062435290450389314
153,0.1411,668.142,48.3919,-0.126144,179.139,0.0587255,-0.0985893,0.118765,-0.0524816,-0.0649045,0.0987914,-1.6301e-05,-1.76855e-06,0.128742,0.12610525245700832,0.10383601534827203,-1.6300867139440456e-05,-0.051128219864068236,-1.768548436142936e-06,-0.06284304240656324
154,0.1421,668.909,48.02,0.110948,179.366,-0.0739737,0.0293405,0.119553,-0.0528359,-0.0653372,0.0994491,-1.82455e-05,-6.99905e-08,0.129615,0.12699297311194702,0.10456224709069639,-1.8245333551880627e-05,-0.051464345587582394,-6.999049750877617e-08,-0.06324846250315042
155,0.1431,669.809,48.5003,-0.0974721,179.584,0.0550076,-0.0810736,0.12034,-0.0531845,-0.0657733,0.100106,-1.64152e-05,-1.73449e-06,0.130487,0.12788026568561728,0.1052880724020333,-1.641506527139125e-05,-0.051794947489451126,-1.734488495719333e-06,-0.06365689078439307
156,0.1441,670.464,47.8664,0.176568,179.815,-0.152273,0.0782459,0.121127,-0.0535397,-0.0662043,0.100763,-1.95906e-05,5.27357e-07,0.131359,0.12876825683339566,0.10601448526609758,-1.9590408105396584e-05,-0.052131690115072016,5.27357139068485e-07,-0.06406036770894197
157,0.1451,671.546,48.9016,-0.157242,180.015,0.135357,-0.127833,0.121913,-0.0538846,-0.0666415,0.101418,-1.54625e-05,-2.49004e-06,0.132229,0.1296558174488942,0.10673916205968803,-1.5462380456132685e-05,-0.052458553524316276,-2.4900368998936884e-06,-0.06446947107966627
158,0.1461,672.286,48.8076,-0.155025,180.237,0.0923899,-0.119822,0.122698,-0.0542352,-0.0670749,0.102073,-1.5664e-05,-2.82065e-06,0.133099,0.13054294541776357,0.10746431367206455,-1.566387732021557e-05,-0.05279070332618796,-2.820646021972628e-06,-0.06487484216064188
159,0.1471,672.964,48.2423,0.128751,180.463,-0.0953273,0.0421401,0.123482,-0.0545889,-0.067505,0.102728,-1.83798e-05,-6.55581e-07,0.133969,0.13142963862529067,0.10818994041433516,-1.8379631092524384e-05,-0.05312567201171736,-6.555807851027495e-07,-0.06527695301089143
160,0.1481,673.907,48.9233,-0.128765,180.669,0.091809,-0.10359,0.124266,-0.0549349,-0.0679401,0.103382,-1.56814e-05,-2.83509e-06,0.134837,0.13231702727286954,0.10891493368232386,-1.5681277047541187e-05,-0.05345323385773404,-2.8350859810899465e-06,-0.06568356254431773
161,0.1491,674.639,48.828,-0.117909,180.886,0.0480878,-0.0925619,0.125049,-0.0552847,-0.0683721,0.104036,-1.60572e-05,-3.02898e-06,0.135705,0.13320397870139344,0.10964040125098928,-1.6057071083874774e-05,-0.05378427801353225,-3.0289754126000545e-06,-0.06608710007491614
162,0.1501,675.38,48.5051,0.101361,181.102,-0.0694356,0.0241535,0.125832,-0.0556362,-0.0688019,0.104689,-1.77912e-05,-1.49063e-06,0.136572,0.13409162488484694,0.11036523306483703,-1.7791041737491575e-05,-0.054116814393117996,-1.4906288889893204e-06,-0.0664884095917111
163,0.1511,676.226,48.9219,-0.0855889,181.311,0.0416589,-0.0731945,0.126613,-0.0559828,-0.0692349,0.105341,-1.6237e-05,-2.96001e-06,0.137438,0.13497769640977353,0.11108942725844773,-1.6236868180641295e-05,-0.05444460069660151,-2.9600056191680935e-06,-0.06689253261141004
164,0.1521,676.872,48.3839,0.159062,181.529,-0.136944,0.0667602,0.127395,-0.056335,-0.0696632,0.105993,-1.89887e-05,-9.84764e-07,0.138304,0.13586559609189397,0.1118140937806349,-1.8988519715823493e-05,-0.05477756666948641,-9.84763515066156e-07,-0.06729209696687777
165,0.1531,677.87,49.27,-0.134829,181.723,0.108482,-0.111893,0.128175,-0.0566784,-0.070097,0.106644,-1.54951e-05,-3.59749e-06,0.139168,0.1367519168770155,0.1125381204007807,-1.549497995156912e-05,-0.05510210032747387,-3.5974835290719653e-06,-0.06769661790827775
166,0.1541,678.576,49.1808,-0.133141,181.934,0.0676642,-0.104435,0.128954,-0.0570265,-0.0705273,0.107295,-1.57652e-05,-3.87433e-06,0.140033,0.13763779162367773,0.11326261851571107,-1.576507572986774e-05,-0.05543096204464715,-3.874322494823446e-06,-0.0680977017542137
167,0.1551,679.255,48.7403,0.113397,182.147,-0.083129,0.0324942,0.129734,-0.0573772,-0.0709549,0.107945,-1.79677e-05,-2.05723e-06,0.140896,0.1385254952605559,0.11398647444543775,-1.7967538581853404e-05,-0.05576216432654346,-2.057227883933699e-06,-0.06849609799375733
168,0.1561,680.12,49.2792,-0.104782,182.347,0.0636151,-0.0868474,0.130512,-0.0577216,-0.0713865,0.108595,-1.58842e-05,-3.84438e-06,0.141759,0.1394116127508762,0.1147108010344664,-1.5884073846783586e-05,-0.05608730384491056,-3.844372610362079e-06,-0.06889804833074087
169,0.1571,680.682,48.5587,0.182747,182.564,-0.167026,0.0841146,0.13129,-0.0580733,-0.0718124,0.109244,-1.93994e-05,-1.42696e-06,0.142621,0.14029841990885017,0.11543448315378413,-1.9399211832804575e-05,-0.05641921956934681,-1.4269589818649564e-06,-0.06929452021727556
170,0.1581,681.394,48.621,0.102579,182.771,-0.159768,0.0503978,0.132067,-0.0584204,-0.0722409,0.109893,-1.98853e-05,-1.67344e-06,0.143482,0.14118477608590085,0.11615863509523816,-1.9885102288785816e-05,-0.05674667962425417,-1.6734385998029566e-06,-0.0696932420831019
171,0.1591,682.405,49.3397,0.00405523,182.952,0.0276204,-0.0407828,0.132843,-0.0587635,-0.072671,0.11054,-1.74146e-05,-2.94346e-06,0.144342,0.1420706791580797,0.11688102339956141,-1.741444836678152e-05,-0.05707025432606083,-2.943455667980821e-06,-0.07009328098514922
172,0.1601,682.886,48.7213,0.0995775,183.176,-0.160468,0.0532015,0.133619,-0.0591134,-0.0730969,0.111188,-2.03699e-05,-1.59608e-06,0.145203,0.1429572699578463,0.1176049968447872,-2.036969253504939e-05,-0.057400127729354655,-1.5960787262958576e-06,-0.07048924393048317
173,0.1611,684.006,49.7707,-0.0712051,183.344,0.120603,-0.0941721,0.134394,-0.0594539,-0.0735274,0.111834,-1.63808e-05,-3.74631e-06,0.146061,0.1438434051751074,0.1183272029201956,-1.6380665835424857e-05,-0.057721028349431824,-3.746302982610139e-06,-0.07088931219009942
174,0.1621,684.636,49.6472,-0.113708,183.551,0.074279,-0.100287,0.135168,-0.0597997,-0.073955,0.112481,-1.67015e-05,-4.17272e-06,0.146919,0.1447290826836931,0.11905099474189051,-1.6701360530779752e-05,-0.05804681208657403,-4.172711294270215e-06,-0.07128651499219574
175,0.1631,685.257,49.1703,0.11958,183.757,-0.0846617,0.0349266,0.135942,-0.0601481,-0.0743797,0.113127,-1.90105e-05,-2.37149e-06,0.147777,0.1456154459720329,0.11977413523372449,-1.9010319301626666e-05,-0.05837493141553696,-2.371487188068677e-06,-0.071680855865067
176,0.1641,686.091,49.7207,-0.103971,183.948,0.066295,-0.0874878,0.136715,-0.0604901,-0.0748084,0.113772,-1.68654e-05,-4.19374e-06,0.148634,0.14650134906920376,0.12049662252805482,-1.6865257779885567e-05,-0.05869691212715278,-4.193731206303397e-06,-0.07207874098938749
177,0.1651,686.61,48.9772,0.183118,184.158,-0.170055,0.084806,0.137487,-0.0608395,-0.0752313,0.114417,-2.04584e-05,-1.76332e-06,0.14949,0.1473867898468495,0.12121957597700894,-2.045819072837851e-05,-0.05902574597543697,-1.7633184453691442e-06,-0.07247107592475377
178,0.1661,687.295,49.0481,0.102456,184.356,-0.159808,0.0500151,0.138259,-0.0611842,-0.075657,0.115061,-2.08985e-05,-2.02731e-06,0.150346,0.14827291444869806,0.1219418739389182,-2.08982816278791e-05,-0.05935004390484,-2.027307944962864e-06,-0.07286584095603399
179,0.1671,688.268,49.7524,0.00371179,184.528,0.0244748,-0.040036,0.13903,-0.061525,-0.0760841,0.115704,-1.84768e-05,-3.27805e-06,0.1512,0.14915857424371626,0.12266351454645275,-1.8476629304986503e-05,-0.059670562790356985,-3.278044627186283e-06,-0.07326173540608383
180,0.1681,688.729,49.1564,0.0979955,184.743,-0.157015,0.051115,0.1398,-0.0618724,-0.0765072,0.116348,-2.1331e-05,-1.97661e-06,0.152054,0.1500437671013981,0.12338674270429184,-2.1330772495886663e-05,-0.05999717650075731,-1.976608046461159e-06,-0.07365375542814978
181,0.1691,689.799,50.1624,-0.0694539,184.903,0.112945,-0.0912131,0.14057,-0.0622108,-0.0769347,0.116989,-1.75114e-05,-4.04842e-06,0.152907,0.1509296418200634,0.12410706444481923,-1.7511246676371606e-05,-0.06031521964029518,-4.0484118051242746e-06,-0.07404968381198229
182,0.1701,690.4,50.0358,-0.108273,185.102,0.0661401,-0.0957954,0.141339,-0.0625544,-0.0773593,0.117631,-1.78715e-05,-4.43551e-06,0.15376,0.1518150471093238,0.12482897288800765,-1.7871340305730676e-05,-0.060638039867135785,-4.435500163157968e-06,-0.07444275886049745
183,0.1711,691.004,49.601,0.112631,185.299,-0.0800628,0.0308262,0.142107,-0.0629001,-0.0777813,0.118273,-2.0001e-05,-2.75739e-06,0.154612,0.15269998083655878,0.1255513449452208,-2.0000799981323425e-05,-0.06096272117235657,-2.757386198370959e-06,-0.07483326161438209
184,0.1721,691.792,50.0972,-0.0953076,185.483,0.0557608,-0.0814089,0.142875,-0.06324,-0.0782069,0.118913,-1.80856e-05,-4.42782e-06,0.155463,0.1535855944539406,0.1262719283680851,-1.8085436456538595e-05,-0.06128184570514328,-4.4278101972716755e-06,-0.07522692879991966
185,0.1731,692.308,49.4347,0.169667,185.682,-0.156602,0.0755529,0.143642,-0.0635867,-0.0786273,0.119554,-2.13227e-05,-2.2243e-06,0.156314,0.15447073401251443,0.12699410010548373,-2.1322472672835602e-05,-0.06160724287837793,-2.2242975262765086e-06,-0.07561562169008196
186,0.1741,693.271,50.4503,-0.151767,185.849,0.127897,-0.124165,0.144408,-0.0639232,-0.0790538,0.120193,-1.72709e-05,-5.12107e-06,0.157163,0.15535539737758008,0.12771447947214654,-1.727075085888874e-05,-0.06192295891894639,-5.121056887325004e-06,-0.0760097875655833
187,0.1751,693.882,50.3184,-0.141322,186.039,0.0764309,-0.110347,0.145174,-0.0642653,-0.0794765,0.120832,-1.7656e-05,-5.32522e-06,0.158012,0.15624073865439025,0.1284353193083292,-1.7655844133712684e-05,-0.06224382018825092,-5.325205821082868e-06,-0.07640027569289942
188,0.1761,694.464,49.8357,0.109838,186.231,-0.084676,0.0310539,0.145939,-0.0646099,-0.0798964,0.121471,-1.99892e-05,-3.46422e-06,0.15886,0.15712560123624497,0.12915661990836536,-1.9989000217268682e-05,-0.06256691529532976,-3.464213999548882e-06,-0.07678801380582212
189,0.1771,695.251,50.3738,-0.106001,186.409,0.0634356,-0.0877127,0.146704,-0.0649481,-0.0803204,0.122109,-1.78917e-05,-5.23383e-06,0.159708,0.15801114099696245,0.1298772516889608,-1.7891539944470125e-05,-0.06288390155917833,-5.2338163035736684e-06,-0.07717937271401676
190,0.1781,695.73,49.6483,0.177718,186.605,-0.167054,0.0812562,0.147468,-0.0652937,-0.0807388,0.122747,-2.13924e-05,-2.86543e-06,0.160555,0.15889619955800405,0.13059834337932785,-2.1392171184242414e-05,-0.0632077129249724,-2.865425894671425e-06,-0.07756540010191226
191,0.1791,696.701,50.7396,-0.164234,186.765,0.139882,-0.132325,0.14823,-0.0656283,-0.0811638,0.123383,-1.70156e-05,-5.95663e-06,0.161401,0.159779615000605,0.13131763263545482,-1.7015455235469545e-05,-0.0635211111897741,-5.956612259327976e-06,-0.07795735151129479
192,0.1801,697.29,50.5912,-0.149109,186.951,0.0838921,-0.115548,0.148993,-0.0659691,-0.0815847,0.12402,-1.74348e-05,-6.13827e-06,0.162246,0.16066486452659756,0.13203851154299984,-1.743464801473582e-05,-0.06384020881775643,-6.138251160914265e-06,-0.07834535760043404
193,0.1811,697.843,50.0714,0.111411,187.14,-0.0876498,0.0323096,0.149755,-0.0663124,-0.0820028,0.124656,-1.99097e-05,-4.19459e-06,0.163091,0.16154962820551733,0.1327587170374116,-1.990950180319473e-05,-0.06416153731487684,-4.1945812027099905e-06,-0.07873062086152427
194,0.1821,698.622,50.6344,-0.110988,187.312,0.0680638,-0.091034,0.150516,-0.066649,-0.0824251,0.125291,-1.77003e-05,-6.02892e-06,0.163935,0.16243390389680723,0.13347824724939517,-1.7700143350563025e-05,-0.06447648753232149,-6.028901826105049e-06,-0.0791195907835548
195,0.1831,699.072,49.8696,0.182173,187.505,-0.173507,0.0844796,0.151277,-0.0669933,-0.0828416,0.125927,-2.13614e-05,-3.57202e-06,0.164779,0.16331885277801428,0.13419936870696159,-2.13611718469231e-05,-0.06479853283438397,-3.5720136203343245e-06,-0.07950305761148313
196,0.1841,699.702,49.9562,0.101026,187.685,-0.157742,0.0479406,0.152037,-0.0673327,-0.0832609,0.126561,-2.17072e-05,-3.87044e-06,0.165622,0.1642033111577379,0.13491867910402333,-2.1706964400403095e-05,-0.06511588635440124,-3.870432509822663e-06,-0.07988894107330524
197,0.1851,700.595,50.6161,0.0038702,187.842,0.0159631,-0.0377397,0.152796,-0.0676685,-0.0836815,0.127194,-1.9445e-05,-5.05378e-06,0.166463,0.16508727689346703,0.1356373100505952,-1.944481094717787e-05,-0.06542976773612996,-5.0537672297013e-06,-0.08027585841026996
198,0.1861,701.02,50.0795,0.0929652,188.037,-0.148248,0.0455723,0.153555,-0.0680104,-0.0840984,0.127828,-2.20399e-05,-3.87528e-06,0.167305,0.16597191381387177,0.13635753239152448,-2.2039657123218426e-05,-0.06574924268118698,-3.875272491127291e-06,-0.08065921148939692
199,0.1871,701.986,50.9783,-0.0634478,188.185,0.0936349,-0.0834227,0.154313,-0.0683442,-0.0845193,0.12846,-1.8645e-05,-5.74443e-06,0.168145,0.16685605557193606,0.13707593734404866,-1.86448261830785e-05,-0.06606104354152131,-5.744413500763379e-06,-0.08104608060496432
200,0.1881,702.233,49.9172,0.157311,188.393,-0.222397,0.0909626,0.15507,-0.0686883,-0.0849337,0.129093,-2.34213e-05,-3.29021e-06,0.168986,0.16773970002323124,0.13779593426737247,-2.3421025723502353e-05,-0.06638235665134773,-3.290204587225176e-06,-0.08142681621529457
201,0.1891,702.907,50.0863,0.107779,188.563,-0.186159,0.0596326,0.155827,-0.069026,-0.0853512,0.129725,-2.35989e-05,-3.48564e-06,0.169825,0.16862401364662571,0.13851524857720876,-2.3598621548104326e-05,-0.06669758610001841,-3.485633925159881e-06,-0.0818102404741412
202,0.1901,703.829,50.8679,-0.0134126,188.711,0.0225093,-0.0457368,0.156583,-0.0693598,-0.0857705,0.130355,-2.08688e-05,-4.93728e-06,0.170663,0.16950782744046222,0.13923273916961798,-2.0868582248145806e-05,-0.06700907045614701,-4.937267811699897e-06,-0.08219515673697653
203,0.1911,704.22,50.2464,0.110605,188.904,-0.16699,0.0572364,0.157338,-0.0697008,-0.0861852,0.130987,-2.38462e-05,-3.47869e-06,0.171501,0.17039113925843208,0.13995296182716,-2.384591568160843e-05,-0.06732716612472756,-3.478683949342809e-06,-0.08257569149614175
204,0.1921,705.212,51.2809,-0.0872471,189.044,0.115087,-0.098155,0.158093,-0.0700324,-0.0866048,0.131616,-1.98677e-05,-5.71964e-06,0.172337,0.1712751182286425,0.14067021779350286,-1.986750263860415e-05,-0.06763638916442716,-5.719623642930216e-06,-0.08296056198451474
205,0.1931,705.737,51.1327,-0.111036,189.222,0.0627873,-0.095686,0.158847,-0.0703695,-0.0870212,0.132246,-2.03199e-05,-6.00631e-06,0.173174,0.17215859269580513,0.14138906644426186,-2.031969355220653e-05,-0.06795063596836515,-6.0062919621239885e-06,-0.08334233771528088
206,0.1941,706.272,50.7153,0.102719,189.399,-0.0769797,0.0258581,0.159601,-0.0707086,-0.0874352,0.132875,-2.23531e-05,-4.41378e-06,0.17401,0.17304273355391397,0.14210722600455927,-2.2352850171269978e-05,-0.06826664032614138,-4.413770259281691e-06,-0.08372175544257798
207,0.1951,706.975,51.1615,-0.0881824,189.563,0.0456825,-0.0762821,0.160354,-0.0710422,-0.0878525,0.133503,-2.06401e-05,-5.92982e-06,0.174845,0.17392636737866285,0.14282469460405034,-2.0639886994633372e-05,-0.068577414734875,-5.9298024186471565e-06,-0.08410403858510662
208,0.1961,707.44,50.5704,0.15379,189.741,-0.144522,0.0653597,0.161106,-0.0713818,-0.0882652,0.134131,-2.35441e-05,-3.96263e-06,0.17568,0.17480949202017926,0.14354261391533085,-2.3543822839866557e-05,-0.06889367214128406,-3.962622148745432e-06,-0.08448195086082055
209,0.1971,708.29,51.4545,-0.133385,189.891,0.103783,-0.110528,0.161858,-0.0717125,-0.0886832,0.134758,-2.00369e-05,-6.50003e-06,0.176513,0.17569328102119397,0.14425983996112435,-2.0036699262648838e-05,-0.06920153809546559,-6.50000887481017e-06,-0.08486455743501586
210,0.1981,708.83,51.3184,-0.119378,190.062,0.0523897,-0.0951593,0.162609,-0.0720482,-0.0890977,0.135385,-2.05143e-05,-6.62161e-06,0.177346,0.1765765583043466,0.14497751584865903,-2.051408958314571e-05,-0.06951395469706645,-6.621588077182494e-06,-0.08524380247199526
211,0.1991,709.376,50.9551,0.0908985,190.232,-0.072297,0.0200668,0.163359,-0.0723856,-0.0895101,0.136012,-2.23391e-05,-5.12687e-06,0.178178,0.1774593217179754,0.14569564186007433,-2.2338850484193706e-05,-0.06982784773201889,-5.126856857606832e-06,-0.08562097015053494
212,0.2001,710.051,51.3479,-0.0803354,190.393,0.0347968,-0.0704755,0.164109,-0.0727181,-0.0899255,0.136638,-2.08606e-05,-6.47818e-06,0.17901,0.17834274745250367,0.1464130718640413,-2.0860382419218837e-05,-0.07013707856017382,-6.478159016665153e-06,-0.08600072431913286
213,0.2011,710.528,50.8368,0.140443,190.566,-0.131923,0.056584,0.164858,-0.0730559,-0.0903367,0.137263,-2.34216e-05,-4.72205e-06,0.179841,0.17922565677861213,0.14712980398941444,-2.3421325716421748e-05,-0.07045113320821983,-4.722038851157073e-06,-0.08637648355989835
214,0.2021,711.329,51.6103,-0.117049,190.714,0.0845943,-0.0990961,0.165607,-0.0733858,-0.0907526,0.137888,-2.03833e-05,-6.96916e-06,0.180671,0.18010922765152437,0.14784698421238174,-2.0383092261933022e-05,-0.07075774080167108,-6.9691357154066935e-06,-0.08675638057532542
215,0.2031,711.648,50.6618,0.200415,190.898,-0.207527,0.100258,0.166355,-0.0737254,-0.0911617,0.138513,-2.4794e-05,-4.18087e-06,0.181501,0.18099227957405395,0.14856461281309197,-2.4793692631308595e-05,-0.07107325789506003,-4.180861260194568e-06,-0.08712991212894317
216,0.2041,712.247,50.8078,0.115364,191.06,-0.174123,0.0576166,0.167102,-0.0740589,-0.0915742,0.139137,-2.49526e-05,-4.52898e-06,0.18233,0.18187481039111764,0.1492815407897532,-2.4952288686486135e-05,-0.07138300331063308,-4.528969744233002e-06,-0.08750639338559241
217,0.2051,713.091,51.5106,-0.00365438,191.2,0.0141941,-0.0398869,0.167849,-0.0743889,-0.0919881,0.139759,-2.25043e-05,-5.85969e-06,0.183158,0.18275800070499315,0.14999661627354555,-2.2504046780169595e-05,-0.07168939636190663,-5.859672832064788e-06,-0.0878839963390482
218,0.2061,713.466,50.9645,0.101127,191.38,-0.152932,0.0490808,0.168595,-0.0747252,-0.0923981,0.140383,-2.51431e-05,-4.60695e-06,0.183986,0.18364066736724927,0.15071443809921803,-2.514278391485547e-05,-0.07200153472890192,-4.606939387974407e-06,-0.08825788724767525
219,0.2071,714.369,51.8678,-0.0733774,191.513,0.0930657,-0.086641,0.16934,-0.0750533,-0.0928121,0.141004,-2.16969e-05,-6.55803e-06,0.184812,0.184522808221105,0.15142925369254745,-2.1696664623926942e-05,-0.07230596108148324,-6.558008496138079e-06,-0.08863527035866059
220,0.2081,714.575,50.8154,0.163498,191.704,-0.221225,0.0918473,0.170085,-0.0753919,-0.0932197,0.141627,-2.64372e-05,-4.06379e-06,0.185639,0.1854056065147629,0.15214681761555093,-2.6436850540267898e-05,-0.07262002510902055,-4.063781742780215e-06,-0.0890066669266999
221,0.2091,715.198,51.0002,0.10666,191.858,-0.179035,0.0563558,0.170829,-0.0757239,-0.0936305,0.142248,-2.64945e-05,-4.32763e-06,0.186465,0.18628787644972822,0.15286252299280956,-2.6494149023781333e-05,-0.07292786415657482,-4.327620635846685e-06,-0.08938082613036424
222,0.2101,716.037,51.7164,-0.00983534,191.994,0.0130067,-0.0415951,0.171573,-0.0760524,-0.0940427,0.142868,-2.40007e-05,-5.66752e-06,0.187289,0.1871708030377699,0.1535775193830422,-2.400041198546976e-05,-0.07323235733745626,-5.66750393959925e-06,-0.08975610600333783
223,0.2111,716.406,51.1751,0.102053,192.169,-0.153125,0.04937,0.172316,-0.0763874,-0.0944509,0.143489,-2.66252e-05,-4.39069e-06,0.188114,0.18805319871382697,0.15429411350202415,-2.6624845552492005e-05,-0.07354277250030539,-4.390680360955024e-06,-0.09012759173547102
224,0.2121,717.293,52.0743,-0.0760235,192.299,0.0923722,-0.0872012,0.173058,-0.0767142,-0.0948633,0.144108,-2.31871e-05,-6.35118e-06,0.188937,0.18893506131783844,0.15500884274416094,-2.3186831181298828e-05,-0.07384548925564038,-6.351159831274877e-06,-0.09050274575456363
225,0.2131,717.493,51.0319,0.164414,192.486,-0.219343,0.0915273,0.1738,-0.0770513,-0.0952692,0.144728,-2.78863e-05,-3.85812e-06,0.18976,0.18981757850672332,0.15572517026524757,-2.7885911180747236e-05,-0.07415764332468788,-3.85811255743107e-06,-0.09087183577817404
226,0.2141,718.104,51.219,0.105758,192.638,-0.176134,0.0551365,0.174541,-0.0773819,-0.0956783,0.145347,-2.79161e-05,-4.13833e-06,0.190582,0.1906995600662078,0.15644078560573993,-2.7915710349324385e-05,-0.07446367621778016,-4.138321437086034e-06,-0.09124368404340844
227,0.2151,718.924,51.9165,-0.00861672,192.771,0.0109897,-0.0404147,0.175282,-0.0777092,-0.0960888,0.145964,-2.54896e-05,-5.44327e-06,0.191403,0.19158219541622756,0.15715452973788047,-2.5489275142898116e-05,-0.0747665546877887,-5.4432551854777245e-06,-0.09161665195420754
228,0.2161,719.289,51.3964,0.0994501,192.942,-0.148945,0.0471974,0.176022,-0.0780426,-0.0964954,0.146582,-2.80194e-05,-4.21642e-06,0.192225,0.19246429257653186,0.1578698722553291,-2.8019007460300394e-05,-0.07507497610174918,-4.216411110924412e-06,-0.09198592554511442
229,0.2171,720.151,52.2607,-0.072729,193.069,0.0870032,-0.0842613,0.176761,-0.0783682,-0.096906,0.147199,-2.472e-05,-6.10168e-06,0.193044,0.19334584938386645,0.1585844984060074,-2.4719694463271047e-05,-0.07537608266672147,-6.1016613848163814e-06,-0.0923586795924427
230,0.2181,720.357,51.266,0.158638,193.252,-0.210988,0.0869226,0.1775,-0.0787038,-0.0973104,0.147816,-2.92149e-05,-3.71942e-06,0.193865,0.19422805790245956,0.1592995656170737,-2.9214473248995176e-05,-0.07568633439022743,-3.719413082969858e-06,-0.09272565553487877
231,0.2191,720.954,51.4485,0.100166,193.4,-0.168822,0.0509135,0.178238,-0.079033,-0.0977179,0.148433,-2.92293e-05,-4.00943e-06,0.194683,0.1951097235037822,0.16001507416074623,-2.9228872828190866e-05,-0.07599056836928564,-4.009421962214432e-06,-0.0930952945111918
232,0.2201,721.749,52.1073,-0.00563314,193.531,0.00750976,-0.0381722,0.178975,-0.0793591,-0.0981266,0.149048,-2.69498e-05,-5.22594e-06,0.195501,0.19599084402303268,0.1607287028496842,-2.6949436857437448e-05,-0.07629183872014,-5.225926344776255e-06,-0.09346587073191603
233,0.2211,722.116,51.6246,0.093454,193.698,-0.141471,0.0428656,0.179712,-0.079691,-0.0985317,0.149663,-2.93136e-05,-4.09544e-06,0.196319,0.1968726141674635,0.1614427705552497,-2.931317036058978e-05,-0.0765983665877552,-4.095431613726497e-06,-0.09383303333387638
234,0.2221,722.945,52.43,-0.0655697,193.824,0.0778202,-0.0788322,0.180448,-0.0800156,-0.0989405,0.150277,-2.62559e-05,-5.84056e-06,0.197135,0.19775383666158897,0.16215611539082442,-2.625555531687862e-05,-0.07689805411604367,-5.840542943946758e-06,-0.09420339868201444
235,0.2231,723.167,51.5131,0.147955,194.001,-0.197626,0.0791022,0.181184,-0.0803493,-0.0993435,0.150892,-3.04176e-05,-3.64918e-06,0.197952,0.19863570797420604,0.16287106122509964,-3.0417137389493476e-05,-0.07720604184477453,-3.649173341724321e-06,-0.09456836116746536
236,0.2241,723.749,51.6849,0.0911766,194.147,-0.15825,0.0444965,0.181919,-0.0806772,-0.0997493,0.151506,-3.04289e-05,-3.94291e-06,0.198768,0.19951702906539204,0.16358528330043076,-3.0428437045704193e-05,-0.07750857638040587,-3.942902226716782e-06,-0.09493571078622487
237,0.2251,724.516,52.2909,-0.00142717,194.276,0.00305713,-0.0352136,0.182654,-0.0810023,-0.100156,0.152118,-2.83537e-05,-5.03302e-06,0.199582,0.2003989981656944,0.1642976154452136,-2.835329803763109e-05,-0.07780842959844303,-5.033007334342976e-06,-0.09530372559176481
238,0.2261,724.887,51.8564,0.0850876,194.439,-0.131753,0.0370452,0.183387,-0.0813326,-0.10056,0.152732,-3.05032e-05,-4.03038e-06,0.200397,0.2012792131907457,0.16501271369379356,-3.050273478211185e-05,-0.07811297917501525,-4.030371878016581e-06,-0.09566914906611368
239,0.2271,725.68,52.5866,-0.0557757,194.564,0.0661003,-0.0717384,0.184121,-0.0816562,-0.100967,0.153343,-2.77565e-05,-5.59172e-06,0.20121,0.20216127581060794,0.16572475396801267,-2.775611479188811e-05,-0.07841125355155731,-5.591704366314509e-06,-0.09603713683185378
240,0.2281,725.924,51.7671,0.133976,194.735,-0.181041,0.0691721,0.184853,-0.0819881,-0.101368,0.153955,-3.15013e-05,-3.64374e-06,0.202024,0.20304158001653327,0.16643839586958875,-3.150080383929055e-05,-0.07871707810211193,-3.643733361591295e-06,-0.09639955327063177
241,0.2291,726.846,52.9205,-0.124628,194.848,0.140496,-0.118159,0.185585,-0.0823088,-0.101776,0.154566,-2.69329e-05,-6.3157e-06,0.202835,0.2039225288410389,0.16715130750179008,-2.6932537312673865e-05,-0.07901248616395007,-6.315680056045991e-06,-0.09676814705465231
242,0.2301,727.264,52.7062,-0.122973,195.002,0.0700624,-0.101363,0.186317,-0.0826361,-0.10218,0.155177,-2.76089e-05,-6.42527e-06,0.203647,0.20480412275615856,0.16786465485609803,-2.760851887784188e-05,-0.07931387605208284,-6.4252493580108094e-06,-0.09713297902222251
243,0.2311,727.705,52.2769,0.0916688,195.154,-0.0715087,0.0203146,0.187048,-0.0829651,-0.102581,0.155787,-2.96439e-05,-4.85645e-06,0.204458,0.20568515654851205,0.16857726962096664,-2.9643460623951512e-05,-0.07961673196433239,-4.856438207467839e-06,-0.09749495611637671
244,0.2321,728.306,52.6768,-0.0839614,195.294,0.0394781,-0.0728106,0.187778,-0.0832889,-0.102986,0.156396,-2.80978e-05,-6.23313e-06,0.205268,0.2065656280457886,0.1692891499237159,-2.8097405260552044e-05,-0.07991470382227506,-6.233110574127565e-06,-0.09786039665244595
245,0.2331,728.698,52.1428,0.138265,195.447,-0.13239,0.0557304,0.188508,-0.0836181,-0.103387,0.157006,-3.07175e-05,-4.4744e-06,0.206078,0.20744674252191708,0.17000263389565684,-3.0717028222437825e-05,-0.0802175460512109,-4.47438998985028e-06,-0.09822208211060734
246,0.2341,729.422,52.9052,-0.117003,195.575,0.0828809,-0.0980882,0.189237,-0.0839394,-0.103792,0.157614,-2.76969e-05,-6.67483e-06,0.206887,0.20832729211854684,0.17071421179482638,-2.7696516444408736e-05,-0.08051302468248056,-6.674807723316967e-06,-0.09858722822027421
247,0.2351,729.677,51.9864,0.192317,195.738,-0.199705,0.0945366,0.189966,-0.0842702,-0.104191,0.158223,-3.19501e-05,-4.00957e-06,0.207696,0.20920848386986934,0.1714273938917159,-3.194958960095473e-05,-0.08081714067035795,-4.009561961670904e-06,-0.09894682017284917
248,0.2361,730.212,52.151,0.105477,195.879,-0.159606,0.0494545,0.190693,-0.0845949,-0.104593,0.158831,-3.19478e-05,-4.42139e-06,0.208504,0.21008789806597017,0.17213983830835766,-3.194728967448324e-05,-0.08111555089526046,-4.421380225716476e-06,-0.0993089707539958
249,0.2371,730.945,52.7521,0.00168831,196.002,0.00185909,-0.0338126,0.191421,-0.0849168,-0.104996,0.159437,-2.98698e-05,-5.54836e-06,0.20931,0.210969162797203,0.17285037031982742,-2.9869353901923468e-05,-0.08141129219731102,-5.548344607864131e-06,-0.09967187610844142
250,0.2381,731.293,52.3232,0.0858675,196.158,-0.130899,0.0367606,0.192148,-0.0852438,-0.105395,0.160045,-3.19873e-05,-4.57077e-06,0.210117,0.21184985747228158,0.17356368016920243,-3.1986788411764167e-05,-0.08171162159822931,-4.570759554067827e-06,-0.10003103537283609
251,0.2391,732.053,53.0344,-0.0554062,196.277,0.0625064,-0.0705585,0.192874,-0.0855644,-0.105798,0.16065,-2.93065e-05,-6.10507e-06,0.210923,0.2127299799145954,0.1742739010158476,-2.9306070568724252e-05,-0.0820059776645462,-6.105051364113656e-06,-0.10039364979386733
252,0.2401,732.284,52.2435,0.131198,196.441,-0.176355,0.0663848,0.193599,-0.0858929,-0.106196,0.161257,-3.29279e-05,-4.22029e-06,0.211728,0.2136095279476693,0.17498690164756403,-3.292735788262835e-05,-0.08230748917490638,-4.220281094591272e-06,-0.1007516218800788
253,0.2411,733.161,53.345,-0.120837,196.548,0.131338,-0.114025,0.194324,-0.0862108,-0.1066,0.161861,-2.85636e-05,-6.78554e-06,0.212532,0.2144897138842794,0.1756968081063277,-2.8563192064234855e-05,-0.0825991772578204,-6.7855169783026525e-06,-0.10111484484885924
254,0.2421,733.558,53.1311,-0.115887,196.696,0.0612817,-0.0960992,0.195049,-0.086535,-0.107,0.162466,-2.92683e-05,-6.86e-06,0.213336,0.2153705381870734,0.1764083198858426,-2.9267871687443936e-05,-0.08289655039776289,-6.8599764702081956e-06,-0.1014743270096945
255,0.2431,733.987,52.7445,0.0844549,196.84,-0.0673077,0.0163608,0.195773,-0.0868606,-0.107398,0.163071,-3.11237e-05,-5.4192e-06,0.21414,0.2162507850676414,0.17712026226022615,-3.1123215662676174e-05,-0.08319511067270291,-5.419185316157815e-06,-0.10183186907195452
256,0.2441,734.551,53.0959,-0.0751191,196.975,0.0298588,-0.0669884,0.196496,-0.0871815,-0.107798,0.163674,-2.97839e-05,-6.65287e-06,0.214942,0.21713045234664752,0.17783027982715138,-2.9783456464094193e-05,-0.08348926616191554,-6.652847869714762e-06,-0.10219106448045479
257,0.2451,734.94,52.6317,0.125317,197.119,-0.121058,0.0475265,0.197219,-0.0875072,-0.108195,0.164278,-3.20971e-05,-5.09632e-06,0.215744,0.2180107558550659,0.17854190420509486,-3.209658489355949e-05,-0.08378772510124988,-5.096307013729984e-06,-0.1025474238858336
258,0.2461,735.611,53.2944,-0.101525,197.243,0.0656478,-0.0875627,0.19794,-0.0878259,-0.108596,0.16488,-2.94949e-05,-7.02727e-06,0.216545,0.21888925827210182,0.1792516000284361,-2.9494465029755723e-05,-0.08407967542850436,-7.0272453087660836e-06,-0.10290723022286341
259,0.2471,735.885,52.5101,0.170254,197.397,-0.177338,0.0797765,0.198662,-0.0881528,-0.108992,0.165483,-3.31676e-05,-4.7254e-06,0.217347,0.21976961408678042,0.17996290317960018,-3.3167049961257966e-05,-0.08437904084866299,-4.72538883533602e-06,-0.10326240862972913
260,0.2481,736.696,53.6006,-0.158569,197.507,0.133236,-0.127739,0.199383,-0.0884687,-0.109393,0.166084,-2.87621e-05,-7.66585e-06,0.218146,0.2206493850978748,0.1806722740289992,-2.8761686374778606e-05,-0.0846682398282751,-7.6658206173974e-06,-0.103621928315354
261,0.2491,737.098,53.3885,-0.126796,197.649,0.0620543,-0.10011,0.200103,-0.0887911,-0.109791,0.166686,-2.9481e-05,-7.62854e-06,0.218946,0.22152856912341368,0.18138325272107925,-2.9480565439610196e-05,-0.0849632952222692,-7.628510902746299e-06,-0.10397861580236623
262,0.2501,737.515,52.9979,0.0792894,197.789,-0.0678309,0.0145145,0.200823,-0.0891149,-0.110187,0.167287,-3.13547e-05,-6.16758e-06,0.219745,0.2224083863893902,0.1820934774571199,-3.135420844657677e-05,-0.08525953614328274,-6.1675609804856535e-06,-0.10433337002453658
263,0.2511,738.07,53.3488,-0.0752193,197.92,0.0291106,-0.0669998,0.201542,-0.0894341,-0.110585,0.167887,-3.00191e-05,-7.37586e-06,0.220543,0.22328761406367592,0.1828029463629819,-3.0018649431307054e-05,-0.08555147470347291,-7.37583279841747e-06,-0.10468977441408867
264,0.2521,738.446,52.8864,0.12273,198.061,-0.1209,0.0463177,0.202261,-0.0897579,-0.11098,0.168488,-3.23194e-05,-5.8401e-06,0.221341,0.22416747412997706,0.18351402459135024,-3.2318877733805706e-05,-0.08584752520280137,-5.840082946684255e-06,-0.10504335211700144
265,0.2531,739.102,53.5401,-0.099645,198.181,0.0633655,-0.0863616,0.202979,-0.0900749,-0.111379,0.169087,-2.97542e-05,-7.73405e-06,0.222137,0.22504674199579267,0.18422316185748833,-2.975375734814989e-05,-0.08613726561103108,-7.734020092353688e-06,-0.10540036858998403
266,0.2541,739.367,52.7706,0.166482,198.331,-0.17505,0.0774863,0.203696,-0.0903999,-0.111772,0.169686,-3.33602e-05,-5.48586e-06,0.222934,0.22592541547660328,0.1849327240240939,-3.3359643554664586e-05,-0.08643422274155999,-5.485844952746177e-06,-0.10575187716916812
267,0.2551,740.158,53.8335,-0.154315,198.439,0.12783,-0.124723,0.204413,-0.0907142,-0.112171,0.170284,-2.90686e-05,-8.34657e-06,0.223729,0.22680471919221223,0.18564152570364012,-2.9068177512359128e-05,-0.08672131134701455,-8.346535167458313e-06,-0.10610861099704627
268,0.2561,740.548,53.6217,-0.12212,198.577,0.05693,-0.096976,0.20513,-0.0910348,-0.112567,0.170882,-2.98028e-05,-8.29581e-06,0.224524,0.22768465359465928,0.1863507513733509,-2.9802355900998556e-05,-0.08701406156422942,-8.29577558991712e-06,-0.10646252190810612
269,0.2571,740.959,53.2538,0.0755929,198.714,-0.0659606,0.012476,0.205845,-0.0913567,-0.11296,0.17148,-3.15811e-05,-6.9058e-06,0.225319,0.22856276200832792,0.18706040128684842,-3.1580601322356294e-05,-0.08730790444126346,-6.90577615503063e-06,-0.10681361314304982
270,0.2581,741.494,53.5794,-0.0704093,198.841,0.0237266,-0.0638939,0.20656,-0.0916742,-0.113356,0.172077,-3.03546e-05,-8.03907e-06,0.226113,0.22944149849402162,0.1877692879280246,-3.035413930374542e-05,-0.08759763818393784,-8.039037686757844e-06,-0.10716724492853036
271,0.2591,741.868,53.1531,0.115911,198.978,-0.115415,0.0420572,0.207275,-0.091996,-0.113749,0.172674,-3.24974e-05,-6.60882e-06,0.226906,0.23032086350097192,0.18847859790087762,-3.2496871965270735e-05,-0.08789120202701461,-6.608798161833462e-06,-0.10751805926174174
272,0.2601,742.497,53.7561,-0.091625,199.097,0.0542793,-0.0809825,0.207989,-0.0923116,-0.114145,0.17327,-3.01461e-05,-8.36484e-06,0.227698,0.23119962627849078,0.18918714227047473,-3.0145645610879512e-05,-0.08817901814388263,-8.364805014871024e-06,-0.1078714121417862
273,0.2611,742.771,53.0539,0.155164,199.241,-0.164235,0.0700392,0.208703,-0.0926344,-0.114537,0.173866,-3.34621e-05,-6.29997e-06,0.228491,0.23207901671668085,0.1898961090583844,-3.346154015015923e-05,-0.08847330645613682,-6.299950155219669e-06,-0.10822105801315851
274,0.2621,743.521,54.0236,-0.140313,199.348,0.111802,-0.115143,0.209416,-0.0929474,-0.114934,0.17446,-2.95634e-05,-8.918e-06,0.229281,0.23295780230543328,0.19060311730782709,-2.9562963007045973e-05,-0.08875856966519491,-8.917960234722244e-06,-0.10857502398623264
275,0.2631,743.904,53.8261,-0.110814,199.483,0.0452472,-0.0895122,0.210128,-0.0932663,-0.115327,0.175055,-3.02806e-05,-8.86891e-06,0.230072,0.23383598085513957,0.19131173695606463,-3.0280141547267547e-05,-0.0890491182268982,-8.868870671308038e-06,-0.1089252851709751
276,0.2641,744.318,53.509,0.0697238,199.615,-0.0624178,0.00918084,0.21084,-0.0935861,-0.115718,0.17565,-3.18523e-05,-7.62216e-06,0.230862,0.2347147848906197,0.19202077835845266,-3.1851792720916094e-05,-0.08934039374145197,-7.622130951401296e-06,-0.10927362727915324
277,0.2651,744.829,53.7894,-0.061202,199.74,0.0141562,-0.0580214,0.211551,-0.0939021,-0.116112,0.176243,-3.08231e-05,-8.62313e-06,0.231652,0.2355929792637812,0.1927278563079109,-3.082262497311472e-05,-0.08962811671440574,-8.623092820903011e-06,-0.10962450434268467
278,0.2661,745.211,53.429,0.104414,199.873,-0.105354,0.034827,0.212262,-0.0942218,-0.116503,0.176837,-3.26815e-05,-7.37722e-06,0.232441,0.2364717982551674,0.19343654711488978,-3.268096596564796e-05,-0.08991911608676395,-7.377192788426967e-06,-0.10997257310960828
279,0.2671,745.803,53.9462,-0.0777222,199.99,0.039416,-0.0718288,0.212972,-0.0945361,-0.116897,0.177429,-3.06952e-05,-8.90192e-06,0.233229,0.23735000495841607,0.194143270720329,-3.0694728907154634e-05,-0.09020510956234884,-8.901880378053839e-06,-0.11032317484272613
280,0.2681,746.1,53.3553,0.136803,200.128,-0.146264,0.0580461,0.213681,-0.0948565,-0.117286,0.178022,-3.35324e-05,-7.13517e-06,0.234017,0.23822759718161235,0.19485160768101784,-3.353183779530866e-05,-0.09049656115220706,-7.1351445447565e-06,-0.11066919182304635
281,0.2691,746.792,54.178,-0.117638,200.236,0.0870733,-0.0999573,0.21439,-0.0951686,-0.11768,0.178614,-3.02576e-05,-9.37043e-06,0.234803,0.23910581183832136,0.1955591692503249,-3.0257142243472757e-05,-0.09078037288434693,-9.370386097606875e-06,-0.11101951914245423
282,0.2701,746.961,53.215,0.188623,200.384,-0.206664,0.0940541,0.215099,-0.0954905,-0.118068,0.179206,-3.46735e-05,-6.71297e-06,0.23559,0.2399846493700053,0.19626714982009297,-3.467289888114955e-05,-0.091073003580878,-6.712947468012764e-06,-0.11136437666234178
283,0.2711,747.452,53.4134,0.101454,200.506,-0.155961,0.0460024,0.215807,-0.0958061,-0.118459,0.179797,-3.44973e-05,-7.17789e-06,0.236376,0.24086286935494883,0.1969743526634924,-3.449670497501778e-05,-0.09135981567961804,-7.177864238983034e-06,-0.11171176527216775
284,0.2721,748.099,53.9547,0.00327946,200.615,-0.00964626,-0.0302546,0.216514,-0.0961193,-0.118851,0.180387,-3.26351e-05,-8.2001e-06,0.237161,0.24174046959871331,0.19768077590592825,-3.263456748092697e-05,-0.09164435722381536,-8.200066379249193e-06,-0.11205990602013638
285,0.2731,748.417,53.604,0.0767666,200.751,-0.119435,0.0290874,0.217221,-0.0964371,-0.11924,0.180977,-3.44148e-05,-7.39129e-06,0.237945,0.24261869052523566,0.19838761606105426,-3.441420781757909e-05,-0.09193298678142381,-7.391262684453004e-06,-0.11240524754341352
286,0.2741,749.068,54.1898,-0.0454118,200.857,0.0400702,-0.0607442,0.217927,-0.0967494,-0.119632,0.181566,-3.22305e-05,-8.66804e-06,0.238729,0.24349628907658283,0.19909367428064773,-3.2229980603037944e-05,-0.0922165318317878,-8.668002432599131e-06,-0.11275311649960651
287,0.2751,749.303,53.567,0.110291,200.999,-0.150005,0.0499998,0.218633,-0.0970681,-0.120019,0.182156,-3.51389e-05,-7.16769e-06,0.239513,0.2443745074312722,0.1998013482917782,-3.513828263612684e-05,-0.09250579632634737,-7.167664312190958e-06,-0.11309641461105202
288,0.2761,750.03,54.4204,-0.0940475,201.098,0.0884707,-0.0920573,0.219338,-0.0973784,-0.120411,0.182744,-3.17881e-05,-9.17538e-06,0.240295,0.2452521007743158,0.20050703893729116,-3.17875947637436e-05,-0.09278734809273159,-9.175337906341952e-06,-0.11344401268285131
289,0.2771,750.152,53.4397,0.166702,201.248,-0.20677,0.0864567,0.220042,-0.0976987,-0.120797,0.183333,-3.62265e-05,-6.73853e-06,0.241078,0.2461290669091205,0.2012143458646669,-3.622584382823035e-05,-0.0930778817736847,-6.73850729615566e-06,-0.11378615725580488
290,0.2781,750.647,53.6507,0.0942077,201.365,-0.153422,0.0427924,0.220746,-0.0980124,-0.121186,0.183921,-3.60027e-05,-7.15858e-06,0.241859,0.24700665064545446,0.2019208675970685,-3.600205191056638e-05,-0.09336233862278276,-7.158554377384441e-06,-0.11413082739794345
291,0.2791,751.279,54.1746,0.00187499,201.471,-0.0120128,-0.0299422,0.22145,-0.0983241,-0.121576,0.184508,-3.42076e-05,-8.13496e-06,0.24264,0.24788485241826197,0.2026266022592067,-3.4207014926734836e-05,-0.09364489354336192,-8.134926911318452e-06,-0.11447624901366493
292,0.2801,751.597,53.8456,0.073911,201.603,-0.11561,0.0269494,0.222153,-0.0986399,-0.121963,0.185095,-3.58944e-05,-7.36341e-06,0.24342,0.24876242389974568,0.2033327513092027,-3.589375580370646e-05,-0.09393107529550393,-7.363382890201997e-06,-0.11481888040184673
293,0.2811,752.226,54.4002,-0.0428954,201.708,0.0352697,-0.0583278,0.222855,-0.0989507,-0.122352,0.185681,-3.3834e-05,-8.57503e-06,0.2442,0.24963936289089594,0.20403811095166025,-3.383342763663144e-05,-0.09421263776022859,-8.574993234589101e-06,-0.11516314889280777
294,0.2821,752.464,53.8174,0.105233,201.845,-0.143205,0.0462046,0.223557,-0.0992675,-0.122737,0.186267,-3.65714e-05,-7.16389e-06,0.244979,0.25051691770934803,0.20474388405600097,-3.6570731274498947e-05,-0.09449954574796127,-7.163864339410075e-06,-0.11550374551142784
295,0.2831,753.162,54.6154,-0.0877091,201.943,0.0796496,-0.0870855,0.224258,-0.0995764,-0.123127,0.186852,-3.34466e-05,-9.04628e-06,0.245757,0.2513938373931015,0.2054488654151161,-3.3446040668683175e-05,-0.0947792116416587,-9.046239082488583e-06,-0.11584863179348193
296,0.2841,753.299,53.7066,0.156981,202.088,-0.194732,0.0794494,0.224959,-0.0998945,-0.123511,0.187438,-3.75792e-05,-6.78006e-06,0.246536,0.2522713720130634,0.20615546546384333,-3.7578493910728206e-05,-0.0950671165807272,-6.780037015485796e-06,-0.11618808074050424
297,0.2851,754.114,54.8999,-0.152153,202.175,0.144389,-0.12868,0.225659,-0.100201,-0.123901,0.188022,-3.27559e-05,-9.69776e-06,0.247312,0.2531482688515594,0.20686006597899875,-3.275536353131159e-05,-0.09534443600812192,-9.69771297687494e-06,-0.11653270018385598
298,0.2861,754.432,54.6365,-0.121161,202.303,0.0603231,-0.0974806,0.226358,-0.100514,-0.124287,0.188606,-3.36627e-05,-9.59649e-06,0.248089,0.2540245257075795,0.20756507810103275,-3.366213341771118e-05,-0.095627548890174,-9.596443953818756e-06,-0.1168736527535057
299,0.2871,754.791,54.2639,0.0707512,202.428,-0.0626797,0.00964331,0.227058,-0.100829,-0.124672,0.18919,-3.54341e-05,-8.24771e-06,0.248865,0.2549026501832845,0.20827050207039388,-3.5433472219681406e-05,-0.0959123813488062,-8.247675987727021e-06,-0.11721359095489281
300,0.2881,755.271,54.5579,-0.0666753,202.543,0.0187789,-0.0612477,0.227756,-0.101139,-0.125059,0.189773,-3.43241e-05,-9.29652e-06,0.249641,0.2557788780010457,0.20897512915193728,-3.432351093479724e-05,-0.09619260507366656,-9.296476787490349e-06,-0.11755516319670145
301,0.2891,755.609,54.1676,0.106331,202.667,-0.108828,0.0363206,0.228454,-0.101453,-0.125443,0.190356,-3.62956e-05,-7.9939e-06,0.250416,0.25665571763932427,0.20968016715083992,-3.629494132273425e-05,-0.0964763560444396,-7.993868048838948e-06,-0.11789395696146798
302,0.2901,756.172,54.7021,-0.0819034,202.774,0.0419426,-0.0739702,0.229151,-0.101761,-0.12583,0.190938,-3.42181e-05,-9.56009e-06,0.25119,0.25753191199277903,0.21038440592172547,-3.421751456744726e-05,-0.09675459847524404,-9.560044302525661e-06,-0.11823526595257428
303,0.2911,756.43,54.0944,0.137547,202.904,-0.148201,0.0585813,0.229848,-0.102076,-0.126212,0.19152,-3.71179e-05,-7.76772e-06,0.251964,0.2584087172665792,0.21108905467887018,-3.711721113930366e-05,-0.09703907596916672,-7.767689831350566e-06,-0.11857203575385311
304,0.2921,757.087,54.9171,-0.119537,203.002,0.086271,-0.100209,0.230545,-0.102383,-0.126599,0.192101,-3.38228e-05,-1.00001e-05,0.252736,0.25928613388668476,0.2117929018674476,-3.3822228015512046e-05,-0.0973162424256162,-1.000004999918147e-05,-0.11891308237923792
305,0.2931,757.229,53.9668,0.185855,203.141,-0.203613,0.0917569,0.231241,-0.102699,-0.12698,0.192683,-3.81807e-05,-7.38799e-06,0.25351,0.26016290211582027,0.2124983706078245,-3.817997112631755e-05,-0.09760144542856197,-7.387962708826912e-06,-0.11924871255324321
306,0.2941,757.69,54.1751,0.0967258,203.253,-0.149328,0.0421567,0.231936,-0.103009,-0.127364,0.193263,-3.79223e-05,-7.88608e-06,0.254281,0.2610390197484025,0.21320182364443752,-3.792158095872189e-05,-0.09788114562470884,-7.886048905003662e-06,-0.11958685611990283
307,0.2951,758.286,54.6683,0.00589781,203.354,-0.015817,-0.0274265,0.232631,-0.103317,-0.127749,0.193843,-3.62337e-05,-8.81363e-06,0.255052,0.26191574649438176,0.21390568480215544,-3.623304356736856e-05,-0.09815895544694764,-8.813591160117262e-06,-0.11992574993905047
308,0.2961,758.591,54.3694,0.0692497,203.48,-0.110224,0.0235107,0.233325,-0.103629,-0.128132,0.194423,-3.77835e-05,-8.12779e-06,0.255823,0.2627918199847876,0.2146099543177573,-3.778278621258124e-05,-0.09844028596300547,-8.127756969567024e-06,-0.1202627538364579
309,0.2971,759.18,54.8741,-0.0373726,203.579,0.026884,-0.0539467,0.234018,-0.103936,-0.128516,0.195002,-3.59213e-05,-9.22612e-06,0.256593,0.2636672380133491,0.21531341711413443,-3.59206548378177e-05,-0.09871702231401147,-9.226077439472569e-06,-0.12060050808601841
310,0.2981,759.419,54.3552,0.0958139,203.709,-0.132789,0.0395533,0.234712,-0.104248,-0.128897,0.195581,-3.83839e-05,-7.97368e-06,0.257363,0.2645445274607574,0.21601728733340808,-3.83831633475884e-05,-0.0989981787403662,-7.9736482102577e-06,-0.12093549547328819
311,0.2991,760.063,55.062,-0.076433,203.803,0.0642885,-0.0785894,0.235404,-0.104554,-0.129282,0.196158,-3.5633e-05,-9.63906e-06,0.258132,0.26541989511603714,0.21671913177084767,-3.5632365152249434e-05,-0.09927384311887077,-9.639013544449071e-06,-0.12127387016622293
312,0.3001,760.219,54.2722,0.139707,203.939,-0.175303,0.0673361,0.236096,-0.104867,-0.129661,0.196737,-3.92579e-05,-7.66709e-06,0.258901,0.2662958687353738,0.21742381613457962,-3.9257129418768244e-05,-0.09955572628895715,-7.667060607952081e-06,-0.12160684426685209
313,0.3011,760.958,55.3025,-0.130378,204.024,0.117217,-0.112962,0.236788,-0.105171,-0.130046,0.197314,-3.51119e-05,-1.01887e-05,0.259668,0.2671724487382394,0.2181264723733196,-3.51112835844658e-05,-0.0998294197446522,-1.0188648095321717e-05,-0.12194496054025028
314,0.3021,760.99,54.115,0.20367,204.169,-0.239492,0.108484,0.237479,-0.105486,-0.130424,0.197891,-4.04467e-05,-7.17799e-06,0.260436,0.2680483674953953,0.21882953416169926,-4.044588204321631e-05,-0.10011292882240863,-7.177964238325174e-06,-0.12227680262306118
315,0.3031,761.468,54.3848,0.113057,204.276,-0.16791,0.0535446,0.238169,-0.105794,-0.130806,0.198468,-4.00118e-05,-7.71014e-06,0.261202,0.2689236227973206,0.21953300173378798,-4.001099953865328e-05,-0.10039005136126966,-7.710110276892834e-06,-0.12261202885217293
316,0.3041,762.071,54.9462,-0.00120692,204.372,-0.0137958,-0.0304511,0.238859,-0.106099,-0.131188,0.199043,-3.80457e-05,-8.82126e-06,0.261968,0.26979948223380656,0.2202344348524805,-3.8044976271578435e-05,-0.10066439055675036,-8.821221092802922e-06,-0.12294712704932087
317,0.3051,762.358,54.6119,0.0797428,204.494,-0.118964,0.0296715,0.239549,-0.106409,-0.131568,0.199619,-3.97596e-05,-8.00681e-06,0.262734,0.27067594622185,0.22093749234807625,-3.975880959761202e-05,-0.10094314138706684,-8.006777945546162e-06,-0.12328034382584485
318,0.3061,762.95,55.172,-0.0486557,204.59,0.0351472,-0.0601985,0.240238,-0.106714,-0.13195,0.200194,-3.76495e-05,-9.27201e-06,0.263498,0.27155174362635615,0.22163973328109643,-3.7648791266442494e-05,-0.10121731191581274,-9.271967015056504e-06,-0.12361518677542827
319,0.3071,763.162,54.5918,0.1077,204.718,-0.142776,0.0466269,0.240926,-0.107024,-0.132328,0.200769,-4.03782e-05,-7.83893e-06,0.264263,0.27242687223569284,0.22234237811876456,-4.037738481144082e-05,-0.10149589136707293,-7.838899275691702e-06,-0.12394639763203152
320,0.3081,763.813,55.3693,-0.0905665,204.807,0.0758323,-0.0867458,0.241614,-0.107327,-0.13271,0.201343,-3.73104e-05,-9.70953e-06,0.265026,0.2733026031406789,0.22304420404857694,-3.730970397564093e-05,-0.10176809687077226,-9.709482862718666e-06,-0.12428098619765127
321,0.3091,763.935,54.497,0.154489,204.942,-0.188284,0.0762673,0.242301,-0.107639,-0.133087,0.201918,-4.12929e-05,-7.50739e-06,0.26579,0.2741776625775363,0.22374765668915741,-4.1292047459950965e-05,-0.10204830151035182,-7.507361819647507e-06,-0.1246110700411408
322,0.3101,764.688,55.62,-0.147967,205.022,0.132248,-0.123308,0.242988,-0.10794,-0.13347,0.20249,-3.67345e-05,-1.02878e-05,0.266552,0.2750533233867747,0.2244478405822865,-3.6733825296564326e-05,-0.10231854429801734,-1.0287747080783838e-05,-0.12494627980454764
323,0.3111,764.978,55.3582,-0.110988,205.141,0.0488171,-0.0900857,0.243674,-0.108247,-0.133848,0.203064,-3.76771e-05,-1.01334e-05,0.267314,0.2759283100527308,0.22515087539446887,-3.7676390227003864e-05,-0.10259409020645671,-1.0133348657292984e-05,-0.12527698760306993
324,0.3121,765.319,55.0411,0.0604299,205.255,-0.0570804,0.00437325,0.24436,-0.108556,-0.134225,0.203636,-3.92123e-05,-8.95777e-06,0.268075,0.27680389716546916,0.22585186215829633,-3.921153120778342e-05,-0.1028713457943885,-8.95772987929977e-06,-0.125606696024801
325,0.3131,765.752,55.2752,-0.0549776,205.363,0.00717666,-0.053765,0.245045,-0.10886,-0.134605,0.204208,-3.83552e-05,-9.82236e-06,0.268836,0.27767880745759177,0.22655325000125037,-3.835446444877544e-05,-0.10314403145494655,-9.822311760832036e-06,-0.1259389023571108
326,0.3141,766.081,54.9679,0.0894359,205.476,-0.0951788,0.0262482,0.24573,-0.109168,-0.134982,0.20478,-3.99579e-05,-8.76838e-06,0.269597,0.27855431726857627,0.2272550391528141,-3.99571016937994e-05,-0.10342022055795319,-8.768341557829906e-06,-0.1262683612840123
327,0.3151,766.579,55.3883,-0.0632588,205.577,0.022705,-0.0617045,0.246414,-0.109471,-0.135361,0.205351,-3.83564e-05,-1.00177e-05,0.270356,0.27942914757944637,0.22795600188598542,-3.835566440268945e-05,-0.1036918430782342,-1.0017649823002017e-05,-0.12659944283116942
328,0.3161,766.849,54.9272,0.11128,205.694,-0.12374,0.0420165,0.247098,-0.109779,-0.135737,0.205922,-4.06171e-05,-8.63265e-06,0.271116,0.28030457647894313,0.22865736498317046,-4.061627513674004e-05,-0.1039678634812421,-8.63261273875704e-06,-0.12692777970946356
329,0.3171,767.415,55.5521,-0.0888185,205.788,0.0534962,-0.0796638,0.247781,-0.110081,-0.136116,0.206492,-3.8152e-05,-1.03413e-05,0.271874,0.2811793231966775,0.2293578993145282,-3.8151272221731425e-05,-0.10423842432972619,-1.0341246528988712e-05,-0.1272586113843912
330,0.3181,767.604,54.8546,0.144209,205.912,-0.161756,0.064617,0.248463,-0.11039,-0.13649,0.207063,-4.142e-05,-8.40048e-06,0.272632,0.2820533855164695,0.23006006312372662,-4.141914220368026e-05,-0.10451517189690718,-8.400444716061273e-06,-0.12758495563355488
331,0.3191,768.259,55.7638,-0.130051,205.998,0.0986026,-0.107249,0.249145,-0.11069,-0.13687,0.207632,-3.77401e-05,-1.07957e-05,0.273389,0.2829280441500839,0.2307601664601544,-3.773938785134323e-05,-0.10478377705255026,-1.0795641726679683e-05,-0.12791641037002566
332,0.3201,768.338,54.7272,0.194417,206.13,-0.21597,0.0979552,0.249827,-0.111,-0.137243,0.208202,-4.24603e-05,-8.02122e-06,0.274147,0.2838032995043449,0.23146189973001907,-4.245939857416836e-05,-0.10506125107096898,-8.02118783005401e-06,-0.12824163689044088
333,0.3211,768.779,54.9698,0.100052,206.232,-0.151126,0.0437447,0.250508,-0.111303,-0.137619,0.20877,-4.20518e-05,-8.57429e-06,0.274903,0.28467786730784517,0.23216156877626415,-4.20509158354232e-05,-0.10533237643432758,-8.574253240856144e-06,-0.12856935641983758
334,0.3221,769.333,55.4487,0.00579569,206.324,-0.0204358,-0.0260014,0.251189,-0.111605,-0.137997,0.209338,-4.04008e-05,-9.49506e-06,0.275658,0.28555303089486106,0.23286163534741378,-4.0399983898709024e-05,-0.10560252526211822,-9.495014922089595e-06,-0.12889869495420647
335,0.3231,769.618,55.18,0.0667857,206.44,-0.105908,0.0211807,0.251869,-0.11191,-0.138371,0.209906,-4.18188e-05,-8.86533e-06,0.276413,0.2864275042431115,0.23356209966932617,-4.1817925606202344e-05,-0.10587527489547988,-8.865290703097273e-06,-0.12922442592680483
336,0.3241,770.156,55.6386,-0.0348717,206.532,0.0190877,-0.0506615,0.252548,-0.112211,-0.138748,0.210473,-4.01281e-05,-9.87856e-06,0.277168,0.28730128513353415,0.23426172770564335,-4.012729487856692e-05,-0.10614436593750287,-9.878511207150886e-06,-0.12955264644477538
337,0.3251,770.386,55.1809,0.0880675,206.651,-0.122652,0.0336426,0.253227,-0.112517,-0.139121,0.21104,-4.23279e-05,-8.7612e-06,0.277922,0.28817565952265145,0.2349617525435399,-4.232700418704827e-05,-0.10641784391726106,-8.76116162085161e-06,-0.12987726276294453
338,0.3261,770.965,55.7968,-0.0673943,206.739,0.0492868,-0.0708309,0.253906,-0.112817,-0.139498,0.211606,-3.99376e-05,-1.02275e-05,0.278675,0.2890506278135858,0.23566093874650917,-3.9936802504692004e-05,-0.10668587835690968,-1.0227447699295844e-05,-0.13020523720781552
339,0.3271,771.13,55.1261,0.123239,206.862,-0.155557,0.0554907,0.254584,-0.113124,-0.13987,0.212173,-4.30554e-05,-8.53796e-06,0.279428,0.28992490048418795,0.236361757162024,-4.3054473129577886e-05,-0.10696008369958043,-8.537923551710236e-06,-0.13052874068419684
340,0.3281,771.78,55.9896,-0.109829,206.943,0.0897313,-0.0974332,0.255261,-0.113422,-0.140247,0.212738,-3.95912e-05,-1.06671e-05,0.28018,0.29079847531353,0.23706049893078207,-3.959041627876747e-05,-0.10722616994581813,-1.0667043106704632e-05,-0.13085646956818264
341,0.3291,771.854,55.0195,0.172478,207.073,-0.203578,0.0866464,0.255938,-0.113729,-0.140617,0.213304,-4.40021e-05,-8.18886e-06,0.280933,0.2916726417532691,0.23776087336044305,-4.4001131921822534e-05,-0.1075002094444294,-8.188826471355881e-06,-0.13117799318890455
342,0.3301,772.288,55.2522,0.0890578,207.172,-0.141995,0.0372335,0.256615,-0.114031,-0.140991,0.213869,-4.36035e-05,-8.70072e-06,0.281684,0.2925474002040611,0.23846040585321204,-4.360254938118313e-05,-0.10776970368549854,-8.700682148865546e-06,-0.13150287186335297
343,0.3311,772.819,55.6889,0.00726788,207.263,-0.0235143,-0.0244621,0.25729,-0.11433,-0.141366,0.214433,-4.21164e-05,-9.51713e-06,0.282434,0.2934201642239178,0.23915909453380024,-4.2115513116836034e-05,-0.1080364406649309,-9.517084712307167e-06,-0.1318284972278324
344,0.3321,773.106,55.4539,0.0603147,207.374,-0.0990403,0.0169582,0.257966,-0.114634,-0.141738,0.214997,-4.33839e-05,-8.97012e-06,0.283184,0.29429481185252393,0.23985817738595028,-4.338295893224764e-05,-0.10830755637529288,-8.970079768633177e-06,-0.13215139696378908
345,0.3331,773.618,55.8623,-0.0285961,207.465,0.0115569,-0.0461608,0.258641,-0.114933,-0.142112,0.21556,-4.18998e-05,-9.86248e-06,0.283934,0.29516875577341506,0.2405564140750034,-4.189892221562186e-05,-0.10857413256081083,-9.862431365914581e-06,-0.13247591165329498
346,0.3341,773.857,55.4639,0.0788191,207.579,-0.112706,0.0275231,0.259315,-0.115236,-0.142483,0.216124,-4.38429e-05,-8.89299e-06,0.284683,0.29604199376295126,0.2412562852376574,-4.384193891415755e-05,-0.1088441936823189,-8.89295045747307e-06,-0.13279770339401276
347,0.3351,774.401,56.0032,-0.0566233,207.667,0.0371239,-0.0633978,0.259989,-0.115535,-0.142857,0.216686,-4.17728e-05,-1.01708e-05,0.285431,0.29691582051328247,0.24195406732836244,-4.177192752874426e-05,-0.10911060943726769,-1.0170748277582575e-05,-0.1331219764101096
348,0.3361,774.587,55.4262,0.108767,207.785,-0.140164,0.0459428,0.260663,-0.115839,-0.143227,0.217249,-4.44875e-05,-8.71695e-06,0.286179,0.29779023642136715,0.24265348433568157,-4.448651044586249e-05,-0.109381398649953,-8.716912007544764e-06,-0.13344266194835475
349,0.3371,775.189,56.1713,-0.0924332,207.867,0.070748,-0.0856767,0.261335,-0.116135,-0.143601,0.21781,-4.15224e-05,-1.05503e-05,0.286926,0.29866264455654545,0.24335080852153945,-4.152153795711211e-05,-0.10964498274358225,-1.0550244345819415e-05,-0.13376669379505368
350,0.3381,775.3,55.3466,0.149973,207.99,-0.179829,0.0718354,0.262008,-0.11644,-0.143969,0.218372,-4.53088e-05,-8.44019e-06,0.287673,0.2995369386833062,0.24404976806516343,-4.530777357181215e-05,-0.1099164996154176,-8.440154381728071e-06,-0.1340854090045418
351,0.3391,775.987,56.3852,-0.141356,208.064,0.117871,-0.116458,0.26268,-0.116735,-0.144344,0.218933,-4.10736e-05,-1.10458e-05,0.288419,0.30041052099688415,0.24474787578595447,-4.1072756491233875e-05,-0.11017903552208097,-1.1045738995352217e-05,-0.1344100660991553
352,0.3401,775.992,55.212,0.20683,208.196,-0.235659,0.107869,0.263351,-0.117041,-0.14471,0.219494,-4.63666e-05,-8.02578e-06,0.289165,0.30128338927102893,0.2454463752550522,-4.636552508585634e-05,-0.11045127908182228,-8.02574779346088e-06,-0.13472681404655273
353,0.3411,776.43,55.4987,0.107513,208.29,-0.157807,0.0484333,0.264022,-0.11734,-0.145081,0.220054,-4.5793e-05,-8.63168e-06,0.28991,0.30215684343633,0.24614402054764506,-4.579195151654947e-05,-0.11071721439006699,-8.631642747114476e-06,-0.13504777085737163
354,0.3421,776.964,55.9897,0.00406572,208.376,-0.0226064,-0.0257749,0.264693,-0.117637,-0.145453,0.220614,-4.40795e-05,-9.60295e-06,0.290654,0.3030308838860527,0.24684205663101322,-4.407852851306959e-05,-0.11098129215990316,-9.602903891847703e-06,-0.13536947324625848
355,0.3431,777.234,55.7301,0.0682026,208.485,-0.105461,0.0215482,0.265362,-0.117937,-0.145822,0.221173,-4.54602e-05,-8.97286e-06,0.291398,0.3039029032053113,0.24753923618420037,-4.5459166700734244e-05,-0.11124795777041352,-8.97281974399089e-06,-0.13568846305339177
356,0.3441,777.744,56.1769,-0.036279,208.572,0.0170458,-0.0503292,0.266032,-0.118234,-0.146193,0.221732,-4.38009e-05,-9.98063e-06,0.292142,0.3047768108768374,0.24823680556970573,-4.3799940754540856e-05,-0.11151187793287165,-9.980580193635902e-06,-0.13600906315860206
357,0.3451,777.962,55.7383,0.0865618,208.684,-0.119154,0.0321094,0.266701,-0.118535,-0.146561,0.222291,-4.59189e-05,-8.89414e-06,0.292885,0.3056499986120442,0.2489347650055067,-4.591784574348168e-05,-0.1117792726126956,-8.894100447243147e-06,-0.13632695332798106
358,0.3461,778.506,56.3214,-0.0657609,208.768,0.0441667,-0.0684878,0.267369,-0.118831,-0.146932,0.222848,-4.3648e-05,-1.02999e-05,0.293627,0.30652246418217466,0.24963061544597176,-4.364704743986536e-05,-0.11204214704066762,-1.0299846956218772e-05,-0.1366473165972354
359,0.3471,778.668,55.6954,0.117541,208.884,-0.14765,0.0511691,0.268037,-0.119133,-0.147299,0.223407,-4.65754e-05,-8.70955e-06,0.294369,0.3073955127540067,0.2503293542393037,-4.6574315382907905e-05,-0.1123102698236833,-8.709512071991554e-06,-0.13696410889710142
360,0.3481,779.272,56.4917,-0.10277,208.961,0.0789349,-0.0914907,0.268704,-0.119426,-0.14767,0.223963,-4.33766e-05,-1.06879e-05,0.29511,0.3082678364486253,0.25102473065699105,-4.337565924883435e-05,-0.1125703248147083,-1.068784288460467e-05,-0.13728423582548355
361,0.3491,779.357,55.6111,0.159849,209.083,-0.188275,0.0776912,0.269371,-0.119729,-0.148035,0.224521,-4.74074e-05,-8.42483e-06,0.295851,0.30914074217723475,0.2517229972549606,-4.7406276286965365e-05,-0.11283917527338805,-8.424794511241451e-06,-0.13759906961874468
362,0.3501,780.048,56.7064,-0.152711,209.153,0.126845,-0.122819,0.270038,-0.120021,-0.148407,0.225077,-4.29119e-05,-1.11892e-05,0.29659,0.31001423032818165,0.25241914875361715,-4.2910979297539065e-05,-0.11309818841644892,-1.1189137401168558e-05,-0.13791982310099982
363,0.3511,780.296,56.4321,-0.103499,209.26,0.039958,-0.0842106,0.270704,-0.12032,-0.148774,0.225633,-4.39395e-05,-1.09433e-05,0.29733,0.31088699040242496,0.2531156874201297,-4.393853467432596e-05,-0.11336333241710894,-1.0943240122296416e-05,-0.13823614847666488
364,0.3521,780.606,56.1618,0.0484004,209.361,-0.0510925,-0.0014568,0.271369,-0.120618,-0.14914,0.226189,-4.52676e-05,-9.93011e-06,0.298069,0.31175902016880386,0.2538126134698233,-4.526657543768575e-05,-0.11362751077951772,-9.930060696605736e-06,-0.1385514963341442
365,0.3531,780.982,56.3371,-0.0437319,209.458,-0.00364963,-0.0465861,0.272034,-0.120914,-0.149509,0.226744,-4.46537e-05,-1.06074e-05,0.298808,0.31263163002783667,0.25450867260884324,-4.4652703038328134e-05,-0.11388983820995191,-1.0607343741697584e-05,-0.1388693121913651
366,0.3541,781.288,56.107,0.0717626,209.557,-0.0820629,0.0161785,0.272699,-0.121213,-0.149874,0.227299,-4.59054e-05,-9.79735e-06,0.299546,0.3135048203654136,0.2552051181679069,-4.59043463632014e-05,-0.11415474554270733,-9.79730200612039e-06,-0.13918356753732575
367,0.3551,781.714,56.4187,-0.0452772,209.649,0.00453103,-0.0499218,0.273362,-0.121507,-0.150242,0.227853,-4.47531e-05,-1.07371e-05,0.300283,0.31437596281312663,0.25590069446021446,-4.475209859500229e-05,-0.11441514576680911,-1.0737042357544802e-05,-0.13950028970401906
368,0.3561,781.981,56.0943,0.0849526,209.752,-0.100671,0.025987,0.274026,-0.121806,-0.150607,0.228407,-4.64098e-05,-9.74341e-06,0.30102,0.31524899826812924,0.25659665620854955,-4.640872308192545e-05,-0.1146798960560842,-9.743362533121136e-06,-0.13981431478521344
369,0.3571,782.45,56.534,-0.059784,209.839,0.0230194,-0.0603535,0.274689,-0.122099,-0.150975,0.228961,-4.4717e-05,-1.09548e-05,0.301756,0.3161212974892198,0.25729300362651397,-4.471600020983235e-05,-0.11493925684832818,-1.0954739996349439e-05,-0.14013080487962337
370,0.3581,782.668,56.0687,0.103986,209.946,-0.123178,0.0391341,0.275351,-0.122398,-0.151339,0.229514,-4.69762e-05,-9.64145e-06,0.302492,0.3169928582429373,0.2579884789387197,-4.697509663564858e-05,-0.11520385045181558,-9.641403521332137e-06,-0.1404437403089438
371,0.3591,783.189,56.6732,-0.0832288,210.027,0.0487777,-0.0759898,0.276013,-0.12269,-0.151707,0.230067,-4.45758e-05,-1.12422e-05,0.303227,0.31786499616089436,0.2586843389551339,-4.457480651376411e-05,-0.11546217321052543,-1.1242136806699499e-05,-0.14075999881737555
372,0.3601,783.344,56.0174,0.132092,210.139,-0.153309,0.0576354,0.276675,-0.12299,-0.15207,0.230619,-4.76546e-05,-9.46667e-06,0.303962,0.3187377116252996,0.2593793245086029,-4.7653464537611434e-05,-0.11572749475834021,-9.466625191190126e-06,-0.14107184633405623
373,0.3611,783.932,56.8432,-0.117158,210.214,0.0837537,-0.0979506,0.277336,-0.12328,-0.152438,0.231171,-4.42994e-05,-1.16151e-05,0.304696,0.3196096854082706,0.26007469379999915,-4.4298418796051564e-05,-0.11598389660479558,-1.161503254498708e-05,-0.14138787374199568
374,0.3621,784.005,55.9303,0.171877,210.332,-0.194064,0.0832716,0.277997,-0.123581,-0.152799,0.231723,-4.84888e-05,-9.1954e-06,0.30543,0.32048223575644585,0.2607704470412049,-4.8487624437099086e-05,-0.11624994540956368,-9.195357722480146e-06,-0.1416977767787112
375,0.3631,784.684,57.0548,-0.16458,210.398,0.131151,-0.128209,0.278656,-0.123869,-0.153168,0.232273,-4.38408e-05,-1.21003e-05,0.306163,0.3213527203429778,0.2614640615135726,-4.383983900613231e-05,-0.11650442877792178,-1.21002267916559e-05,-0.14201443187262197
376,0.3641,784.919,56.7681,-0.105905,210.502,0.0404535,-0.0851762,0.279316,-0.124165,-0.153532,0.232824,-4.49217e-05,-1.17997e-05,0.306896,0.32222510099235113,0.26215931973751716,-4.492069103556595e-05,-0.11676590476664805,-1.1799630383779736e-05,-0.14232668178648844
377,0.3651,785.217,56.4975,0.045176,210.6,-0.0504048,-0.00289627,0.279975,-0.124461,-0.153894,0.233375,-4.62469e-05,-1.0797e-05,0.307628,0.32309673450560306,0.26285496115430296,-4.6245830628621754e-05,-0.11702730336993528,-1.0796941712576391e-05,-0.14263710333799096
378,0.3661,785.58,56.6646,-0.0424816,210.693,-0.00530162,-0.0457951,0.280634,-0.124754,-0.154259,0.233925,-4.56661e-05,-1.14426e-05,0.308359,0.32396894261464904,0.2635497224247736,-4.566505731951054e-05,-0.11728597647258776,-1.1442534533667725e-05,-0.14294998369113454
379,0.3671,785.876,56.4435,0.0685718,210.79,-0.0807209,0.0145022,0.281292,-0.12505,-0.154621,0.234474,-4.68749e-05,-1.06686e-05,0.30909,0.3248404008572088,0.26424360167481087,-4.6873801389013536e-05,-0.1175472211574311,-1.0668543090730509e-05,-0.14326017964818272
380,0.3681,786.285,56.7394,-0.0426384,210.878,0.0014059,-0.0481988,0.28195,-0.125342,-0.154986,0.235024,-4.57865e-05,-1.15595e-05,0.309821,0.32571243270798833,0.264939126907638,-4.578545181421756e-05,-0.11780485975178778,-1.1559433189201052e-05,-0.14357283261997267
381,0.3691,786.546,56.4349,0.0804139,210.977,-0.097645,0.0233433,0.282607,-0.125637,-0.155347,0.235572,-4.73545e-05,-1.06281e-05,0.310551,0.32658371196017133,0.2656325035170224,-4.735337879335777e-05,-0.11806506893541935,-1.0628043521920816e-05,-0.143881947028889
382,0.3701,786.995,56.8454,-0.0552587,211.062,0.0177266,-0.0573256,0.283263,-0.125928,-0.155712,0.236121,-4.57813e-05,-1.17589e-05,0.31128,0.32745423637600735,0.2663275265278129,-4.5780252052263215e-05,-0.11832167466241506,-1.1758830864461167e-05,-0.14419437309699745
383,0.3711,787.212,56.4167,0.0970952,211.164,-0.117458,0.0348724,0.28392,-0.126224,-0.156072,0.236669,-4.78812e-05,-1.05484e-05,0.312009,0.32832666036920655,0.2670216641886982,-4.788005371358928e-05,-0.1185826128259615,-1.0548344365868267e-05,-0.14450240767313205
384,0.3721,787.706,56.9715,-0.0756707,211.244,0.0401416,-0.0709137,0.284575,-0.126514,-0.156437,0.237216,-4.56882e-05,-1.20177e-05,0.312737,0.3291969993366437,0.2677149146257185,-4.568715631003695e-05,-0.11883818680822344,-1.2017627787686003e-05,-0.14481460731443074
385,0.3731,787.868,56.3778,0.121425,211.351,-0.143456,0.0508392,0.285231,-0.12681,-0.156796,0.237764,-4.8499e-05,-1.04085e-05,0.313465,0.3300692386314177,0.2684098127836385,-4.8497823942561524e-05,-0.11909897210679998,-1.040844583177769e-05,-0.14512156376842467
386,0.3741,788.42,57.1223,-0.104823,211.424,0.0700348,-0.0897088,0.285885,-0.127098,-0.15716,0.23831,-4.54853e-05,-1.23467e-05,0.314192,0.3309393884214491,0.26910255364246316,-4.5484265559392334e-05,-0.1193526350736126,-1.2346623779802002e-05,-0.1454326828920972
387,0.3751,788.513,56.3102,0.155354,211.537,-0.177984,0.0726044,0.28654,-0.127395,-0.157519,0.238857,-4.92419e-05,-1.01904e-05,0.31492,0.3318114392863458,0.26979694263738163,-4.924068763756395e-05,-0.11961414850432905,-1.0190348078031874e-05,-0.1457394174967831
388,0.3761,789.14,57.3062,-0.144915,211.603,0.10982,-0.115171,0.287193,-0.127682,-0.157883,0.239402,-4.51369e-05,-1.27656e-05,0.315645,0.33268139616620784,0.270489170586101,-4.513588134547053e-05,-0.11986678298892561,-1.2765518520030383e-05,-0.14605031176262517
389,0.3771,789.144,56.2042,0.201509,211.723,-0.223868,0.101891,0.287847,-0.12798,-0.15824,0.239948,-5.01515e-05,-9.87108e-06,0.316372,0.33355325486601983,0.2711830470842871,-5.015024243459898e-05,-0.12012902361180144,-9.871031281027953e-06,-0.14635511739028417
390,0.3781,789.545,56.4891,0.0975862,211.808,-0.145345,0.0409503,0.2885,-0.12827,-0.158602,0.240494,-4.95103e-05,-1.05179e-05,0.317097,0.33442434952289934,0.2718773025424879,-4.950907438527885e-05,-0.12038414919995577,-1.051784468708572e-05,-0.14666408091201744
391,0.3791,790.018,56.9058,0.0094667,211.886,-0.0307562,-0.0215509,0.289152,-0.128559,-0.158963,0.241038,-4.80724e-05,-1.13295e-05,0.317821,0.3352946778950059,0.27256939202634256,-4.807124454064837e-05,-0.12063832145117759,-1.1329435821494371e-05,-0.14697207958170344
392,0.3801,790.277,56.7128,0.0562111,211.984,-0.0935667,0.0136093,0.289804,-0.128852,-0.159322,0.241583,-4.91544e-05,-1.08723e-05,0.318545,0.33616557390624124,0.27326313137179703,-4.9153191942319374e-05,-0.12089593668051823,-1.0872240896797614e-05,-0.1472782616421653
393,0.3811,790.719,57.0598,-0.0243582,212.064,0.000740241,-0.0415031,0.290456,-0.129141,-0.159683,0.242126,-4.7899e-05,-1.1645e-05,0.319269,0.33703703792682704,0.2739547009962926,-4.789785286118953e-05,-0.12114996104652864,-1.1644932197296676e-05,-0.1475860386326232
394,0.3821,790.942,56.7397,0.0675491,212.164,-0.100272,0.019635,0.291107,-0.129434,-0.160042,0.24267,-4.95037e-05,-1.08563e-05,0.319992,0.33790773241882444,0.2746479208923507,-4.950247471202651e-05,-0.12140742638742763,-1.0856241070555939e-05,-0.14789200032134497
395,0.3831,791.402,57.1664,-0.0446324,212.242,0.0182213,-0.0536129,0.291757,-0.129722,-0.160402,0.243213,-4.78808e-05,-1.18802e-05,0.320714,0.33877765513915215,0.27534024266174484,-4.787965373276304e-05,-0.1216604246151346,-1.188012943065253e-05,-0.14819870399125623
396,0.3841,791.592,56.7309,0.0873395,212.344,-0.1173,0.0314299,0.292407,-0.130015,-0.16076,0.243756,-4.99882e-05,-1.07712e-05,0.321437,0.33964814349305916,0.2760329404639432,-4.998695061075864e-05,-0.12191774041211723,-1.0771141990884026e-05,-0.14850359427660997
397,0.3851,792.085,57.2836,-0.0677352,212.419,0.0388441,-0.0676054,0.293057,-0.130302,-0.16112,0.244298,-4.78107e-05,-1.21432e-05,0.322158,0.34051919784832685,0.27672473777781126,-4.7809557086719856e-05,-0.12216971386069952,-1.2143126271624283e-05,-0.14881007781232403
398,0.3861,792.232,56.7,0.112836,212.524,-0.140724,0.0470484,0.293706,-0.130595,-0.161477,0.244841,-5.05646e-05,-1.06357e-05,0.322879,0.34138947718282764,0.27741818756500325,-5.05633216321133e-05,-0.12242688045779204,-1.0635643441170295e-05,-0.14911389837934697
399,0.3871,792.772,57.4221,-0.0969366,212.594,0.0658061,-0.0855511,0.294354,-0.130881,-0.161838,0.245382,-4.76465e-05,-1.24596e-05,0.323599,0.34225897925228677,0.278109457776208,-4.7645364923520894e-05,-0.1226778304824171,-1.2459522379493215e-05,-0.14942101282453935
400,0.3881,792.86,56.6436,0.145635,212.703,-0.171653,0.0673587,0.295003,-0.131175,-0.162193,0.245924,-5.12511e-05,-1.04373e-05,0.32432,0.34313038807139695,0.2788023808675175,-5.1249786684803844e-05,-0.12293572528786123,-1.0437245531624839e-05,-0.14972291477421995
401,0.3891,793.464,57.589,-0.134633,212.768,0.101221,-0.10889,0.29565,-0.131459,-0.162554,0.246464,-4.73576e-05,-1.28484e-05,0.325039,0.34399967461635206,0.2794931206361384,-4.7356478646509714e-05,-0.12318477617497958,-1.2848317459623892e-05,-0.15002980940417288
402,0.3901,793.476,56.5545,0.188141,212.883,-0.212208,0.0938053,0.296298,-0.131754,-0.162908,0.247005,-5.20792e-05,-1.01567e-05,0.325758,0.3448708686418829,0.28018551368983613,-5.2077843902043064e-05,-0.12344339851733688,-1.0156648420855952e-05,-0.15033064560049547
403,0.3911,793.863,56.8272,0.0893115,212.965,-0.13717,0.035714,0.296944,-0.132042,-0.163266,0.247545,-5.14536e-05,-1.07822e-05,0.326477,0.3457399359015274,0.28087700055187814,-5.145227628622351e-05,-0.12369581046949807,-1.0782141872334172e-05,-0.15063477278735582
404,0.3921,794.314,57.2069,0.0112327,213.042,-0.0331865,-0.0200941,0.297591,-0.132329,-0.163624,0.248084,-5.01566e-05,-1.15068e-05,0.327194,0.3466109113702367,0.28156757934944276,-5.015534217878148e-05,-0.12394727368519587,-1.150673379701761e-05,-0.15093879111617003
405,0.3931,794.571,57.0408,0.0506231,213.135,-0.0879217,0.0100942,0.298236,-0.132618,-0.16398,0.248624,-5.11155e-05,-1.11197e-05,0.327912,0.3474797555802065,0.28225981272848255,-5.1114193625134696e-05,-0.124200416342225,-1.1119638176348978e-05,-0.1512410031096061
406,0.3941,794.99,57.3473,-0.0192283,213.214,-0.00521212,-0.0378813,0.298882,-0.132905,-0.164337,0.249163,-5.00256e-05,-1.17944e-05,0.328629,0.3483505087252956,0.28295113706271424,-5.002434874057382e-05,-0.12445173475681715,-1.1794330446290857e-05,-0.15154395599118908
407,0.3951,795.217,57.0729,0.0599318,213.309,-0.092625,0.0148116,0.299527,-0.133194,-0.164692,0.249701,-5.14301e-05,-1.11218e-05,0.329345,0.34922047533749523,0.28364155047900996,-5.142877749508834e-05,-0.1247047316456612,-1.1121738152986005e-05,-0.1518451044298016
408,0.3961,795.648,57.4418,-0.0363912,213.387,0.00914672,-0.0479999,0.300171,-0.13348,-0.165049,0.250239,-5.00486e-05,-1.2002e-05,0.330061,0.3500896531688342,0.28433233543765946,-5.004734758973228e-05,-0.12495503029799704,-1.2001927976235116e-05,-0.15214784168570472
409,0.3971,795.849,57.0743,0.0762136,213.483,-0.106183,0.0243759,0.300815,-0.13377,-0.165404,0.250777,-5.18598e-05,-1.10667e-05,0.330777,0.35095939093097517,0.28502349213860656,-5.18584553038659e-05,-0.12520875654712638,-1.1066638764267722e-05,-0.15244877578294358
410,0.3981,796.306,57.5432,-0.0552237,213.558,0.025564,-0.0592787,0.301459,-0.134055,-0.165761,0.251314,-5.0036e-05,-1.22274e-05,0.331491,0.3518296889846293,0.2857137350675243,-5.003474822018461e-05,-0.12545803652742593,-1.222732524563952e-05,-0.15275129756663763
411,0.3991,796.473,57.0587,0.0966977,213.657,-0.12465,0.0368088,0.302102,-0.134345,-0.166114,0.251852,-5.23598e-05,-1.09739e-05,0.332206,0.3526991949908693,0.28640563516142703,-5.2358429249554916e-05,-0.12571161692589805,-1.0973839786987405e-05,-0.15305032357740067
412,0.4001,796.966,57.6603,-0.0784317,213.728,0.0466472,-0.0734245,0.302744,-0.134629,-0.166471,0.252388,-4.99538e-05,-1.24914e-05,0.332919,0.35356790670067473,0.28709533340449056,-4.995255232975726e-05,-0.12595987957172672,-1.2491321982777137e-05,-0.1533526306468609
413,0.4011,797.088,57.0242,0.122484,213.831,-0.148643,0.0526651,0.303387,-0.134919,-0.166824,0.252925,-5.2941e-05,-1.08354e-05,0.333633,0.3544385307403155,0.28778668921094885,-5.2939598649937025e-05,-0.12621331445681638,-1.0835341297310563e-05,-0.15365144442450784
414,0.4021,797.629,57.7979,-0.107765,213.897,0.0738754,-0.091468,0.304028,-0.135202,-0.167181,0.25346,-4.97807e-05,-1.28076e-05,0.334345,0.35530700415451255,0.28847583942092037,-4.977946096151875e-05,-0.12646056110177473,-1.280751798304891e-05,-0.15395353693212732
415,0.4031,797.692,56.9661,0.155259,214.004,-0.179577,0.0729369,0.30467,-0.135493,-0.167532,0.253996,-5.36242e-05,-1.0638e-05,0.335058,0.3561773906153385,0.2891666475909005,-5.362276224829543e-05,-0.12671472409598483,-1.0637943416713647e-05,-0.15425044712987612
416,0.4041,798.297,57.9618,-0.145159,214.064,0.108931,-0.114567,0.30531,-0.135773,-0.167889,0.254531,-4.94921e-05,-1.31913e-05,0.33577,0.3570456219497238,0.28985653627612984,-4.949087528627327e-05,-0.12695920974365005,-1.319121299514503e-05,-0.1545523258316963
417,0.4051,798.285,56.8782,0.197092,214.177,-0.219312,0.0988718,0.305951,-0.136066,-0.168239,0.255066,-5.4437e-05,-1.03649e-05,0.336482,0.35791576704510275,0.29054679415055484,-5.443551833339555e-05,-0.12721497322401554,-1.0364846284582896e-05,-0.15484818074002604
418,0.4061,798.667,57.1693,0.0920889,214.256,-0.138469,0.0371259,0.30659,-0.13635,-0.168593,0.2556,-5.37289e-05,-1.1032e-05,0.337192,0.3587837525120665,0.2912361301749691,-5.372745662846068e-05,-0.12746280897727713,-1.1031939147754244e-05,-0.15514731153476957
419,0.4071,799.103,57.5459,0.0118293,214.329,-0.0349046,-0.0192759,0.30723,-0.136634,-0.168948,0.256134,-5.24352e-05,-1.17599e-05,0.337902,0.35965365245196246,0.2919258344031219,-5.243382529895868e-05,-0.12771057435517863,-1.1759830852664521e-05,-0.15544718100919375
420,0.4081,799.353,57.3901,0.0497051,214.42,-0.0864952,0.00939945,0.307869,-0.13692,-0.1693,0.256668,-5.33477e-05,-1.13938e-05,0.338612,0.3605227487825844,0.2926159070316867,-5.334627703679207e-05,-0.12796001345942087,-1.1393735090958756e-05,-0.1557444112858808
421,0.4091,799.755,57.6829,-0.0183334,214.495,-0.00742217,-0.0368199,0.308507,-0.137204,-0.169653,0.257201,-5.23074e-05,-1.20421e-05,0.339321,0.3613910392515145,0.2933050549517404,-5.230603199180006e-05,-0.12820763765129872,-1.2042027494163499e-05,-0.15604238091396339
422,0.4101,799.977,57.4256,0.0573286,214.587,-0.0896997,0.0131014,0.309145,-0.13749,-0.170005,0.257734,-5.36364e-05,-1.14088e-05,0.34003,0.36225988386651764,0.29399457028554266,-5.3634961594051234e-05,-0.12845693461576524,-1.1408734919893249e-05,-0.15633940171715355
423,0.4111,800.389,57.7705,-0.0338709,214.662,0.00538172,-0.0459104,0.309783,-0.137773,-0.170358,0.258266,-5.23489e-05,-1.22347e-05,0.340739,0.3631292829812518,0.294683158545171,-5.234752982019586e-05,-0.12870354640605486,-1.223462515631546e-05,-0.15663716135068007
424,0.4121,800.589,57.432,0.0715368,214.755,-0.10128,0.021367,0.31042,-0.13806,-0.170709,0.258798,-5.40331e-05,-1.13708e-05,0.341447,0.3639978729510456,0.29537211323121415,-5.403164023831675e-05,-0.12895357260776008,-1.1370735352733696e-05,-0.15693312976155127
425,0.4131,801.022,57.8622,-0.0502425,214.827,0.0194342,-0.0556392,0.311057,-0.138342,-0.171062,0.25933,-5.23665e-05,-1.24382e-05,0.342154,0.36486701638891117,0.2960614345386632,-5.236512889872369e-05,-0.1291991730689921,-1.2438122645952454e-05,-0.15723067984606576
426,0.4141,801.193,57.4244,0.0890902,214.922,-0.116889,0.0319462,0.311693,-0.138629,-0.171412,0.259861,-5.44874e-05,-1.13027e-05,0.342861,0.3657353479114891,0.29674982591213794,-5.448591558854243e-05,-0.1294490570462553,-1.1302636124699283e-05,-0.15752559749452055
427,0.4151,801.656,57.966,-0.0699318,214.992,0.0370963,-0.0675596,0.312329,-0.13891,-0.171765,0.260392,-5.233e-05,-1.2671e-05,0.343567,0.3666042318685707,0.2974385829184989,-5.2328630809395094e-05,-0.12969364749465795,-1.267091972323442e-05,-0.1578229384748343
428,0.4161,801.789,57.4021,0.110725,215.089,-0.136797,0.0451682,0.312964,-0.139197,-0.172114,0.260923,-5.50047e-05,-1.11995e-05,0.344273,0.3674723011386316,0.2981277057519487,-5.500318726925357e-05,-0.12994338957812368,-1.1199437285780434e-05,-0.1581168069862685
429,0.4171,802.291,58.0855,-0.09429,215.155,0.0594633,-0.0824524,0.313599,-0.139477,-0.172467,0.261452,-5.22237e-05,-1.29434e-05,0.344978,0.3683409218077296,0.29881459697500157,-5.222233636636986e-05,-0.13018697132600576,-1.2943316234581559e-05,-0.15841393930646241
430,0.4181,802.377,57.3618,0.137666,215.256,-0.161971,0.0617364,0.314234,-0.139764,-0.172815,0.261983,-5.55996e-05,-1.10517e-05,0.345683,0.3692100942261143,0.299504450665941,-5.559805437083121e-05,-0.13043657184584734,-1.1051638930226204e-05,-0.15870676030177544
431,0.4191,802.93,58.2247,-0.12471,215.317,0.0877029,-0.101137,0.314867,-0.140043,-0.173168,0.262512,-5.20304e-05,-1.32664e-05,0.346387,0.3700770785873606,0.3001920703797223,-5.202904644219242e-05,-0.13067914620160614,-1.326631200171402e-05,-0.1590036844052014
432,0.4201,802.956,57.2994,0.171374,215.422,-0.193683,0.082519,0.315501,-0.140331,-0.173515,0.263041,-5.62908e-05,-1.08479e-05,0.347091,0.3709459828687369,0.30088005394056117,-5.6289215702665096e-05,-0.13092947455848647,-1.0847841161787386e-05,-0.15929545950080604
433,0.4211,803.573,58.3884,-0.162821,215.477,0.123243,-0.124592,0.316134,-0.140608,-0.173868,0.263569,-5.17291e-05,-1.36529e-05,0.347794,0.3718140663953431,0.30156709997323294,-5.172776207318375e-05,-0.13117017375565587,-1.3652806799546724e-05,-0.159592175830089
434,0.4221,803.524,57.2096,0.213589,215.589,-0.233509,0.108566,0.316767,-0.140897,-0.174213,0.264098,-5.7102e-05,-1.05741e-05,0.348498,0.3726826995927741,0.3022558111171554,-5.710036971184884e-05,-0.1314212292961675,-1.0574044094435742e-05,-0.15988206652040815
435,0.4231,803.903,57.5326,0.0983703,215.663,-0.142834,0.0406599,0.317399,-0.141178,-0.174563,0.264626,-5.62636e-05,-1.13079e-05,0.3492,0.37355050925788547,0.30294358374141983,-5.626201723329949e-05,-0.13166526564202297,-1.1307836065954646e-05,-0.16017605634590537
436,0.4241,804.327,57.9157,0.0122849,215.734,-0.0367615,-0.0184701,0.318031,-0.141458,-0.174913,0.265154,-5.49337e-05,-1.20649e-05,0.349902,0.3744188675520539,0.3036317196055167,-5.4932191171919165e-05,-0.13190836533209827,-1.2064827219382401e-05,-0.1604699432929685
437,0.4251,804.568,57.7674,0.0499551,215.82,-0.0860825,0.00940166,0.318662,-0.141741,-0.175262,0.265681,-5.58139e-05,-1.17095e-05,0.350603,0.37528639953503506,0.30431891458172045,-5.581234243323685e-05,-0.13215400050569281,-1.1709431444018037e-05,-0.16076288816090634
438,0.4261,804.955,58.0522,-0.018401,215.893,-0.00887633,-0.0363058,0.319293,-0.142021,-0.175611,0.266208,-5.47971e-05,-1.23478e-05,0.351304,0.3761544791034426,0.3050064718051204,-5.479559866639061e-05,-0.13239696336916307,-1.2347723766237273e-05,-0.16105573080892377
439,0.4271,805.17,57.8061,0.0557891,215.981,-0.0877676,0.0120567,0.319923,-0.142304,-0.175958,0.266734,-5.60765e-05,-1.17374e-05,0.352004,0.3770217295804936,0.30569308577293275,-5.6074927742510994e-05,-0.1326424602890769,-1.1737331117034344e-05,-0.16134679396795437
440,0.4281,805.563,58.1339,-0.0325753,216.053,0.00270088,-0.0445526,0.320553,-0.142584,-0.176307,0.26726,-5.48521e-05,-1.25277e-05,0.352704,0.3778895265974873,0.3063800609946934,-5.485059565102368e-05,-0.1328852864029536,-1.2527621528701793e-05,-0.1616394328684012
441,0.4291,805.759,57.8165,0.0681524,216.143,-0.0976514,0.0191864,0.321183,-0.142867,-0.176654,0.267786,-5.64441e-05,-1.17141e-05,0.353404,0.37875787049885234,0.3070673976604723,-5.644250706171583e-05,-0.13313064514700168,-1.1714031390219759e-05,-0.16193029351795463
442,0.4301,806.17,58.2172,-0.0468198,216.213,0.0147674,-0.0529592,0.321812,-0.143146,-0.177003,0.268311,-5.48941e-05,-1.27122e-05,0.354103,0.3796253820031621,0.30775378820599686,-5.489259334645613e-05,-0.13337246796115443,-1.2712119200286587e-05,-0.1622227288125897
443,0.4311,806.341,57.8153,0.0831825,216.303,-0.110851,0.0281855,0.322441,-0.143429,-0.177349,0.268837,-5.68588e-05,-1.16668e-05,0.354801,0.38049343934385593,0.3084418476423607,-5.68571835690701e-05,-0.13361768885232872,-1.1666731943194009e-05,-0.16251254960653183
444,0.4321,806.777,58.3095,-0.0635084,216.371,0.0295591,-0.0629968,0.323069,-0.143707,-0.177697,0.269361,-5.4895e-05,-1.29185e-05,0.355499,0.3813606615030203,0.30912765083526983,-5.489349329701465e-05,-0.13385850965918467,-1.2918416556484402e-05,-0.1628039445336107
445,0.4331,806.917,57.8028,0.101298,216.464,-0.127341,0.0391899,0.323697,-0.14399,-0.178042,0.269885,-5.73218e-05,-1.1593e-05,0.356197,0.3822284284487456,0.3098138134832209,-5.732015713699745e-05,-0.13410359302001984,-1.1592932801396394e-05,-0.1630927273548456
446,0.4341,807.385,58.4137,-0.0836821,216.528,0.0478818,-0.0752549,0.324324,-0.144267,-0.178391,0.270409,-5.48432e-05,-1.31542e-05,0.356893,0.38309535742721645,0.3105003357746179,-5.484169613922951e-05,-0.1343434131081377,-1.3154113483904162e-05,-0.1633847570308561
447,0.4351,807.487,57.777,0.123358,216.624,-0.147748,0.0526776,0.324951,-0.144551,-0.178735,0.270933,-5.78425e-05,-1.14862e-05,0.35759,0.38396283014059995,0.31118721789796333,-5.784082715487582e-05,-0.1345892246719207,-1.1486134033900086e-05,-0.1636725031792624
448,0.4361,807.995,58.5322,-0.108315,216.684,0.070515,-0.0902955,0.325578,-0.144827,-0.179084,0.271456,-5.47273e-05,-1.34268e-05,0.358286,0.38483084692992464,0.31187314816805456,-5.472580248866432e-05,-0.13482804508717794,-1.3426709860930863e-05,-0.16396433054881476
449,0.4371,808.049,57.735,0.150357,216.783,-0.172898,0.0692289,0.326204,-0.145111,-0.179427,0.271979,-5.84333e-05,-1.13389e-05,0.358982,0.385698022437718,0.3125594372735041,-5.84315928079393e-05,-0.1350737190350213,-1.1338835714913564e-05,-0.16425104160967874
450,0.4381,808.607,58.6682,-0.138495,216.839,0.0983836,-0.108762,0.326829,-0.145385,-0.179776,0.272501,-5.45336e-05,-1.37448e-05,0.359677,0.38656435440227965,0.3132447721566034,-5.453211307027139e-05,-0.13531067637136818,-1.374470554071916e-05,-0.164542667104548
451,0.4391,808.603,57.6736,0.183442,216.943,-0.203803,0.0895259,0.327455,-0.14567,-0.180117,0.273024,-5.91091e-05,-1.11419e-05,0.360372,0.38743261542548146,0.31393177880902123,-5.910735309155868e-05,-0.13555707771474312,-1.1141837929273812e-05,-0.16482750948667912
452,0.4401,809.223,58.8254,-0.175487,216.993,0.1326,-0.131414,0.328079,-0.145943,-0.180467,0.273545,-5.42458e-05,-1.41183e-05,0.361065,0.38829864355018096,0.31461651562423243,-5.424432872314089e-05,-0.13579303842242485,-1.4118200337254194e-05,-0.16511976871001122
453,0.4411,809.395,58.5026,-0.0973364,217.08,0.0316831,-0.0785611,0.328703,-0.146223,-0.180811,0.274066,-5.55154e-05,-1.36699e-05,0.361759,0.38916521224507084,0.3153016092802732,-5.5513859048672565e-05,-0.13603498249791535,-1.3669806567362386e-05,-0.16540691811704522
454,0.4421,809.645,58.2833,0.0290123,217.161,-0.0424403,-0.0104763,0.329327,-0.146503,-0.181154,0.274587,-5.66068e-05,-1.28631e-05,0.362452,0.39003232184757164,0.31598705996310605,-5.660519786532259e-05,-0.1362768588385479,-1.2863017270658972e-05,-0.16569313445522305
455,0.4431,809.935,58.3792,-0.0292085,217.24,-0.0177558,-0.0373157,0.329951,-0.146781,-0.181499,0.275108,-5.6318e-05,-1.32807e-05,0.363145,0.3908999726953155,0.3166728678587907,-5.631641417125355e-05,-0.13651694049889385,-1.3280611811938847e-05,-0.16598092067785808
456,0.4441,810.194,58.2438,0.0470889,217.319,-0.0661068,0.00289551,0.330574,-0.14706,-0.181843,0.275628,-5.71284e-05,-1.27857e-05,0.363837,0.3917667733586754,0.31735771579510863,-5.712676820401885e-05,-0.1367578186684275,-1.2785618263233545e-05,-0.16626777389956204
457,0.4451,810.515,58.4216,-0.0230429,217.394,-0.0180175,-0.0354111,0.331196,-0.147337,-0.182187,0.276148,-5.65243e-05,-1.33353e-05,0.364529,0.3926327215736809,0.31804291994496126,-5.6522702531869307e-05,-0.13699690363785932,-1.3335211085263587e-05,-0.16655452846072827
458,0.4461,810.758,58.2571,0.0511739,217.475,-0.0741843,0.00647483,0.331819,-0.147616,-0.18253,0.276668,-5.74618e-05,-1.28138e-05,0.36522,0.3935006020759271,0.31872848049362723,-5.7460149102350755e-05,-0.13723764791635584,-1.2813717903625843e-05,-0.166840351236058
459,0.4471,811.097,58.4837,-0.0261676,217.547,-0.0120828,-0.0381824,0.33244,-0.147892,-0.182875,0.277187,-5.66527e-05,-1.34447e-05,0.365911,0.3943662347009276,0.31941307821274467,-5.665109526609147e-05,-0.1374757374676615,-1.3444609620383297e-05,-0.1671277417371696
460,0.4481,811.321,58.273,0.0563744,217.629,-0.0815396,0.0103719,0.333062,-0.148171,-0.183217,0.277706,-5.77886e-05,-1.28349e-05,0.366601,0.39523380028383737,0.32009803133029613,-5.778693027103099e-05,-0.1377163481701542,-1.2834817633033957e-05,-0.16741253534701228
461,0.4491,811.677,58.5511,-0.032558,217.7,-0.00442199,-0.0425776,0.333682,-0.148447,-0.183561,0.278224,-5.67568e-05,-1.35749e-05,0.367291,0.39609911345937876,0.3207820192481017,-5.6755189363322245e-05,-0.1379543056184208,-1.3574807861460592e-05,-0.16769889617796618
462,0.4501,811.881,58.2853,0.0639428,217.783,-0.0900347,0.0154137,0.334303,-0.148726,-0.183903,0.278743,-5.81324e-05,-1.28405e-05,0.367981,0.39696636026109844,0.32146768303045214,-5.8130710344772574e-05,-0.13819478281902386,-1.2840417561110762e-05,-0.1679834944863885
463,0.4511,812.255,58.6233,-0.0414562,217.852,0.0047905,-0.048291,0.334923,-0.149001,-0.184246,0.27926,-5.68377e-05,-1.37226e-05,0.368669,0.39783274795689283,0.32215105845990566,-5.683608476858559e-05,-0.1384317466697258,-1.3722505845525923e-05,-0.16826882721042014
464,0.4521,812.438,58.292,0.0739262,217.937,-0.100167,0.0217626,0.335543,-0.14928,-0.184587,0.279778,-5.85001e-05,-1.28286e-05,0.369358,0.3986996729796126,0.32283611012125024,-5.849838890248371e-05,-0.13867209068285613,-1.282851771389204e-05,-0.16855239918857123
465,0.4531,812.832,58.7015,-0.0528372,218.003,0.0158423,-0.0553929,0.336162,-0.149554,-0.184931,0.280295,-5.68911e-05,-1.38885e-05,0.370046,0.39956573609606805,0.32352019321042413,-5.6889481732103064e-05,-0.13890806220043472,-1.3888403555206708e-05,-0.16883836797379925
466,0.4541,812.991,58.292,0.0864612,218.089,-0.112312,0.0295704,0.33678,-0.149833,-0.185271,0.280812,-5.88974e-05,-1.27973e-05,0.370733,0.40043093503991245,0.32420463006199496,-5.8895665582148204e-05,-0.13914827334006863,-1.2797218114868336e-05,-0.16912091489299008
467,0.4551,813.409,58.7867,-0.0669071,218.153,0.029107,-0.0640608,0.337399,-0.150106,-0.185614,0.281328,-5.69113e-05,-1.40751e-05,0.37142,0.4012980701393276,0.32488809597014656,-5.690968058269519e-05,-0.1393832537851567,-1.4075000946189853e-05,-0.16940585754872273
468,0.4561,813.539,58.2837,0.101832,218.242,-0.126874,0.039049,0.338017,-0.150385,-0.185954,0.281844,-5.93303e-05,-1.27439e-05,0.372107,0.40216433999648893,0.32557191463771074,-5.932853999257581e-05,-0.13962333236483138,-1.2743818796900896e-05,-0.16968821155425517
469,0.4571,813.986,58.8807,-0.0840201,218.303,0.0450141,-0.0745398,0.338634,-0.150657,-0.186297,0.282359,-5.6892e-05,-1.42856e-05,0.372793,0.4030297423434366,0.32625475999133546,-5.689038168088523e-05,-0.13985732299426,-1.4285497961341598e-05,-0.1699729596606001
470,0.4581,814.082,58.2656,0.120448,218.393,-0.144313,0.0504699,0.339251,-0.150937,-0.186636,0.282875,-5.98056e-05,-1.26648e-05,0.373479,0.40389567880839095,0.3269392840395071,-5.9803811680803065e-05,-0.14009812922937537,-1.2664719801769309e-05,-0.17025429113889534
471,0.4591,814.563,58.985,-0.104652,218.451,0.0640574,-0.0871361,0.339868,-0.151208,-0.186979,0.283389,-5.68258e-05,-1.4524e-05,0.374163,0.4047621497210043,0.32762150614756513,-5.682418544483703e-05,-0.14033113106317974,-1.4523894527274095e-05,-0.17053884511323836
472,0.4601,814.619,58.2361,0.142836,218.545,-0.165158,0.0641635,0.340484,-0.151488,-0.187317,0.283904,-6.03313e-05,-1.25557e-05,0.374848,0.4056277497826799,0.32830540731266544,-6.032948010370465e-05,-0.14057180465060748,-1.2555621177523513e-05,-0.17081915560844774
473,0.4611,815.141,59.1016,-0.129395,218.599,0.0868072,-0.102218,0.341099,-0.151758,-0.18766,0.284418,-5.67043e-05,-1.47952e-05,0.375532,0.40649247672507594,0.3289883317885791,-5.670269234159253e-05,-0.14080381894001326,-1.4795090551578127e-05,-0.17110351586750172
474,0.4621,815.15,58.1929,0.169629,218.696,-0.190019,0.0805214,0.341715,-0.152038,-0.187996,0.284933,-6.09166e-05,-1.24116e-05,0.376216,0.4073591429965451,0.32967293705017386,-6.091474462155411e-05,-0.14104436019336297,-1.2411522976374378e-05,-0.17138197830186153
475,0.4631,815.721,59.2327,-0.158955,218.745,0.113922,-0.12022,0.34233,-0.152307,-0.18834,0.285446,-5.65176e-05,-1.51048e-05,0.376899,0.40822493507326296,0.33035523426115176,-5.651600291056713e-05,-0.14127538818581287,-1.5104685923028605e-05,-0.17166697387927587
476,0.4641,815.674,58.1339,0.201581,218.847,-0.219602,0.100001,0.342944,-0.152587,-0.188675,0.285959,-6.15719e-05,-1.22263e-05,0.377583,0.40908985068531845,0.33103788158039427,-6.157000448947514e-05,-0.1415157974182576,-1.2226225259093226e-05,-0.1719444189683792
477,0.4651,816.024,58.4483,0.0870906,218.915,-0.130691,0.0331509,0.343558,-0.15286,-0.189015,0.286472,-6.07003e-05,-1.29655e-05,0.378265,0.4099552975186278,0.33172087918755255,-6.069845777401106e-05,-0.14175013161748884,-1.2965415948307246e-05,-0.1722259100097413
478,0.4661,816.401,58.7686,0.0159309,218.98,-0.0423121,-0.0154955,0.344172,-0.153133,-0.189355,0.286984,-5.96035e-05,-1.35838e-05,0.378946,0.41082127589946116,0.3324028948588096,-5.960172374663841e-05,-0.14198440185221528,-1.358370774062756e-05,-0.17250730536041758
479,0.4671,816.631,58.6685,0.0401323,219.058,-0.0769807,0.00333465,0.344785,-0.153407,-0.189694,0.287497,-6.02615e-05,-1.33538e-05,0.379628,0.4116863744672088,0.33308659289742515,-6.025968431233597e-05,-0.14221946592085966,-1.3353710838437394e-05,-0.17278777784112886
480,0.4681,816.969,58.883,-0.00994126,219.125,-0.0197639,-0.0301821,0.345398,-0.15368,-0.190033,0.288008,-5.95294e-05,-1.38249e-05,0.380309,0.4125520035029504,0.3337679742244979,-5.9527628160416235e-05,-0.14245360804480922,-1.3824804436457505e-05,-0.17306815525778352
481,0.4691,817.183,58.7137,0.0423896,219.204,-0.0755454,0.00382612,0.346011,-0.153955,-0.190371,0.28852,-6.04685e-05,-1.34101e-05,0.380989,0.41341816333196224,0.33445103827677647,-6.046667181713872e-05,-0.14268940087959614,-1.3410010085035395e-05,-0.173347610990627
482,0.4701,817.52,58.9453,-0.0192881,219.272,-0.012806,-0.0354169,0.346623,-0.154227,-0.190709,0.289031,-5.96443e-05,-1.39628e-05,0.381669,0.4142834399955735,0.3351331170136109,-5.964252131407388e-05,-0.1429225576517984,-1.3962702520520232e-05,-0.17362697228339408
483,0.4711,817.724,58.737,0.0494208,219.351,-0.0804619,0.00767535,0.347234,-0.154501,-0.191046,0.289542,-6.07559e-05,-1.34294e-05,0.382349,0.41514783122203913,0.3358155443817479,-6.075405439764925e-05,-0.14315736470096696,-1.342930982606294e-05,-0.17390541307382623
484,0.4721,818.069,59.0052,-0.0273264,219.417,-0.0065526,-0.0399865,0.347845,-0.154773,-0.191385,0.290052,-5.97646e-05,-1.4094e-05,0.383028,0.41601275075292476,0.3364969840617307,-5.976281413189177e-05,-0.1433903942043192,-1.4093900680078875e-05,-0.1741854116763496
485,0.4731,818.26,58.7543,0.0574207,219.497,-0.0870364,0.0123264,0.348456,-0.155047,-0.191721,0.290562,-6.10664e-05,-1.34389e-05,0.383707,0.416878198911123,0.3371787713645866,-6.106453548537782e-05,-0.14362507308383243,-1.343880969839617e-05,-0.174462838767665
486,0.4741,818.617,59.0683,-0.0359446,219.562,0.000660832,-0.0450311,0.349066,-0.155318,-0.19206,0.291072,-5.98699e-05,-1.42315e-05,0.384385,0.4177427582762565,0.33786090646764855,-5.986810783331631e-05,-0.14385711924535172,-1.4231398732689193e-05,-0.1747426484349045
487,0.4751,818.793,58.7671,0.0664064,219.643,-0.0948816,0.0176752,0.349676,-0.155592,-0.192396,0.291581,-6.13953e-05,-1.34393e-05,0.385062,0.4186078451834869,0.3385420510056196,-6.139341534716625e-05,-0.14409167025972214,-1.3439209692989174e-05,-0.17501988832612037
488,0.4761,819.163,59.1355,-0.0456718,219.706,0.00914382,-0.05082,0.350286,-0.155862,-0.192733,0.29209,-5.99558e-05,-1.43786e-05,0.38574,0.41947345995471275,0.3392235423344112,-5.995400268699047e-05,-0.1443227343137009,-1.437849662844215e-05,-0.17529785978293322
489,0.4771,819.322,58.7751,0.0766845,219.788,-0.104105,0.023861,0.350895,-0.156137,-0.193069,0.292599,-6.17445e-05,-1.34287e-05,0.386417,0.4203381825731367,0.33990538063058473,-6.174259384761349e-05,-0.14455801320943373,-1.3428609835441918e-05,-0.17557491315447316
490,0.4781,819.709,59.2075,-0.0568493,219.85,0.019091,-0.0575273,0.351503,-0.156406,-0.193406,0.293107,-6.00195e-05,-1.45378e-05,0.387093,0.42120201076530117,0.34058622548389605,-6.001769886587738e-05,-0.1447880961563367,-1.4537694326688388e-05,-0.17585269759943223
491,0.4791,819.848,58.7777,0.0885612,219.932,-0.114895,0.031043,0.352112,-0.15668,-0.193741,0.293615,-6.21168e-05,-1.3405e-05,0.387769,0.422067786391777,0.3412674162942586,-6.211487079155198e-05,-0.1450223921179773,-1.3404910153336225e-05,-0.17612874070593443
492,0.4801,820.255,59.285,-0.0697838,219.992,0.0307126,-0.0653195,0.35272,-0.156949,-0.194078,0.294123,-6.0058e-05,-1.4711e-05,0.388444,0.42293266650281414,0.3419489532374629,-6.005619655446992e-05,-0.1452523501637537,-1.4710891793723313e-05,-0.1764063385424539
493,0.4811,820.369,58.7742,0.102337,220.077,-0.127472,0.0393884,0.353327,-0.157223,-0.194412,0.29463,-6.25154e-05,-1.3366e-05,0.389119,0.4237966488234879,0.34262949385922425,-6.251344595309405e-05,-0.14548651893722186,-1.3365910675466885e-05,-0.17668137289208752
494,0.4821,820.8,59.3687,-0.0847833,220.134,0.0442478,-0.074372,0.353934,-0.157491,-0.19475,0.295137,-6.00675e-05,-1.49008e-05,0.389793,0.42466115574062924,0.3433103796025616,-6.006569598382416e-05,-0.14571549786559967,-1.4900688983576771e-05,-0.17695960756374163
495,0.4831,820.886,58.7636,0.118325,220.221,-0.142092,0.0490765,0.354541,-0.157765,-0.195083,0.295644,-6.29443e-05,-1.33094e-05,0.390468,0.4255261875727647,0.3439916106424963,-6.294231904913072e-05,-0.14594953975398162,-1.3309311430287352e-05,-0.1772336343864247
496,0.4841,821.345,59.4597,-0.102174,220.275,0.0599675,-0.0848751,0.355147,-0.158032,-0.19542,0.29615,-6.00442e-05,-1.51095e-05,0.391141,0.42639031824758344,0.3446718424816231,-6.004239738310879e-05,-0.14617754078737488,-1.5109385852030144e-05,-0.17751085993650761
497,0.4851,821.399,58.7452,0.136858,220.364,-0.159041,0.0603031,0.355753,-0.158307,-0.195752,0.296656,-6.34077e-05,-1.32325e-05,0.391815,0.4272549727442929,0.3453524186051571,-6.340568977425409e-05,-0.1464123096814558,-1.3232412450880915e-05,-0.17778388100700315
498,0.4861,821.89,59.5588,-0.122309,220.415,0.0781758,-0.0970389,0.356358,-0.158573,-0.196089,0.297161,-5.99835e-05,-1.53399e-05,0.392487,0.42811872326098843,0.346031993154684,-5.998170102583522e-05,-0.1466393338115326,-1.5339782344359065e-05,-0.17806092115521688
499,0.4871,821.907,58.7177,0.1583,220.507,-0.17864,0.073284,0.356963,-0.158848,-0.196421,0.297667,-6.39105e-05,-1.31327e-05,0.39316,0.4289829965048553,0.34671325768861183,-6.390845776749199e-05,-0.14687397572999195,-1.313261376645336e-05,-0.17833375963569953
500,0.4881,822.436,59.6673,-0.145579,220.555,0.099213,-0.111096,0.357568,-0.159113,-0.196758,0.298171,-5.98803e-05,-1.55951e-05,0.393831,0.4298477927922397,0.34739217224258323,-5.987850721067556e-05,-0.14710002417368184,-1.559497839709323e-05,-0.17861061450603644
501,0.4891,822.41,58.6801,0.183055,220.65,-0.201247,0.0882577,0.358172,-0.159388,-0.197088,0.298676,-6.4458e-05,-1.30069e-05,0.394503,0.43071168172728114,0.3480727771278349,-6.445592262771527e-05,-0.14733453941970986,-1.3006815410609995e-05,-0.17888162828351672
502,0.4901,822.983,59.7864,-0.172416,220.694,0.123457,-0.127304,0.358776,-0.159652,-0.197426,0.29918,-5.97289e-05,-1.58785e-05,0.395173,0.43157609260885144,0.34875237705230244,-5.9727116264784996e-05,-0.14755961339023171,-1.5878373937239232e-05,-0.17915911939451734
503,0.4911,822.908,58.6311,0.211563,220.792,-0.22726,0.105488,0.359379,-0.159928,-0.197755,0.299685,-6.50564e-05,-1.28516e-05,0.395845,0.4324395933119918,0.3494336690144555,-6.505428387826306e-05,-0.14779485447217333,-1.2851517418588365e-05,-0.17942913162478913
504,0.4921,823.249,58.9694,0.0887156,220.855,-0.130732,0.033823,0.359982,-0.160196,-0.198089,0.300188,-6.40654e-05,-1.3647e-05,0.396514,0.4333036148630762,0.3501126048880272,-6.406334785613588e-05,-0.14802321484951741,-1.3646906880104837e-05,-0.1797031565301198
505,0.4931,823.606,59.2784,0.0174758,220.917,-0.0451402,-0.0140107,0.360585,-0.160463,-0.198422,0.300691,-6.30022e-05,-1.42495e-05,0.397184,0.43416815757627036,0.35079188235224623,-6.3000215403064e-05,-0.1482506622855687,-1.4249398476384734e-05,-0.1799762699030949
506,0.4941,823.829,59.1959,0.0376613,220.99,-0.0743745,0.00180051,0.361187,-0.160733,-0.198755,0.301194,-6.35785e-05,-1.406e-05,0.397853,0.4350317867334257,0.3514715015789758,-6.357647892996088e-05,-0.1484806035632822,-1.4059901158658406e-05,-0.18024929234445775
507,0.4951,824.144,59.3882,-0.00781925,221.055,-0.0232902,-0.02831,0.361788,-0.161001,-0.199088,0.301697,-6.29314e-05,-1.4483e-05,0.398522,0.4358945000566383,0.3521514627401656,-6.292941986096867e-05,-0.1487087801844943,-1.448289512184786e-05,-0.18052222388448358
508,0.4961,824.352,59.2439,0.0380509,221.129,-0.0714753,0.00123233,0.36239,-0.16127,-0.19942,0.302199,-6.37578e-05,-1.41289e-05,0.39919,0.4367591687848462,0.35283041317676256,-6.375576751471712e-05,-0.1489377467252443,-1.4128800187585e-05,-0.1807942453480923
509,0.4971,824.665,59.4434,-0.0154665,221.193,-0.0178041,-0.0325257,0.362991,-0.161537,-0.199752,0.302701,-6.30621e-05,-1.46058e-05,0.399858,0.4376229205767004,0.3535097045320421,-6.306011162759972e-05,-0.14916495001387986,-1.4605693335778547e-05,-0.18106617651556522
510,0.4981,824.865,59.2707,0.0430884,221.267,-0.0746701,0.00389735,0.363591,-0.161807,-0.200083,0.303202,-6.40142e-05,-1.41627e-05,0.400525,0.4384857531529345,0.3541879827885286,-6.401215113482905e-05,-0.1493946444672295,-1.416259970943301e-05,-0.18133719875448362
511,0.4991,825.182,59.4947,-0.0213167,221.331,-0.0134786,-0.0357808,0.364191,-0.162074,-0.200416,0.303703,-6.32051e-05,-1.47181e-05,0.401192,0.4393491035840549,0.35486660094756006,-6.320310259977369e-05,-0.1496217257804524,-1.4717991689283672e-05,-0.1816097680819866
512,0.5001,825.374,59.2932,0.0486629,221.405,-0.0790664,0.00708275,0.364791,-0.162343,-0.200746,0.304204,-6.42869e-05,-1.41905e-05,0.401858,0.4402129721808683,0.3555455591794703,-6.428483364151472e-05,-0.14985044677186488,-1.4190399315383573e-05,-0.18187979230207274
513,0.5011,825.698,59.5475,-0.0272293,221.468,-0.00870693,-0.0391844,0.365391,-0.162609,-0.201078,0.304705,-6.33407e-05,-1.48323e-05,0.402524,0.4410773592543673,0.3562248576546785,-6.333869402019854e-05,-0.15007655647909934,-1.4832190001978773e-05,-0.1821513631277769
514,0.5021,825.881,59.3131,0.0546585,221.543,-0.0841733,0.0106104,0.36599,-0.162878,-0.201408,0.305205,-6.45698e-05,-1.42139e-05,0.40319,0.44194082317418704,0.3569031396398712,-6.456771541529793e-05,-0.15030515513750842,-1.4213798983031545e-05,-0.18242120865098455
515,0.5031,826.213,59.6023,-0.033617,221.605,-0.00328064,-0.0429366,0.366588,-0.163144,-0.20174,0.305705,-6.3466e-05,-1.4951e-05,0.403855,0.44280336165974843,0.357581760850856,-6.346398607603998e-05,-0.15053114390840283,-1.4950888234332993e-05,-0.18269259975629615
516,0.5041,826.384,59.3305,0.0612486,221.68,-0.0899868,0.014542,0.367186,-0.163413,-0.202069,0.306205,-6.48629e-05,-1.42319e-05,0.40452,0.4436664160975785,0.35826072145728793,-6.486079644762999e-05,-0.15075962029923917,-1.423179872694913e-05,-0.18296144966274164
517,0.5051,826.727,59.6595,-0.0406797,221.741,0.00287481,-0.0471282,0.367784,-0.163678,-0.202401,0.306704,-6.35801e-05,-1.50753e-05,0.405184,0.44452998679630906,0.3589386626895652,-6.357807882828581e-05,-0.15098463918354088,-1.5075186368229687e-05,-0.1832326614378078
518,0.5061,826.885,59.3451,0.0685885,221.817,-0.0965646,0.018948,0.368381,-0.163946,-0.20273,0.307203,-6.51673e-05,-1.42438e-05,0.405848,0.44539262867140517,0.3596169422989355,-6.516517665766663e-05,-0.15121214481312362,-1.4243698557514506e-05,-0.18350133369318522
519,0.5071,827.239,59.7193,-0.0485619,221.876,0.00983002,-0.0518296,0.368978,-0.164211,-0.203061,0.307701,-6.36819e-05,-1.52062e-05,0.406511,0.44625578569745783,0.3602942001594107,-6.36798723508969e-05,-0.151437043794317,-1.5206084386321095e-05,-0.18377155002846224
520,0.5081,827.383,59.3568,0.0768085,221.953,-0.103979,0.0238939,0.369575,-0.16448,-0.203389,0.308199,-6.54839e-05,-1.42485e-05,0.407174,0.4471194581821041,0.3609717953782958,-6.548175597620443e-05,-0.15166527653085693,-1.424839849062387e-05,-0.18403922905829218
521,0.5091,827.751,59.7818,-0.057387,222.011,0.0176627,-0.0571059,0.370171,-0.164744,-0.20372,0.308697,-6.37702e-05,-1.53445e-05,0.407837,0.44798219845024234,0.36164972812363705,-6.376816672404306e-05,-0.15188920733768574,-1.534438227379642e-05,-0.18430926737966624
522,0.5101,827.879,59.3653,0.0860258,222.089,-0.112313,0.0294434,0.370767,-0.165012,-0.204048,0.309195,-6.5814e-05,-1.42454e-05,0.408499,0.44884545306484047,0.36232799856356435,-6.581183430620641e-05,-0.15211647057548516,-1.4245298534776296e-05,-0.1845767700671267
523,0.5111,828.261,59.8474,-0.0672706,222.145,0.0264578,-0.0630214,0.371362,-0.165275,-0.204378,0.309692,-6.38437e-05,-1.5491e-05,0.40916,0.4497077726240426,0.36300524386036614,-6.384166203432518e-05,-0.15233943462266641,-1.549088001506771e-05,-0.1848458153380933
524,0.5121,828.371,59.3703,0.0963537,222.224,-0.121652,0.0356601,0.371957,-0.165544,-0.204705,0.310189,-6.6159e-05,-1.42335e-05,0.409822,0.4505706054160541,0.3636828258317373,-6.61568115416511e-05,-0.15256742464871953,-1.423339870421092e-05,-0.18511232717941684
525,0.5131,828.77,59.9164,-0.078327,222.278,0.0363067,-0.0696417,0.372552,-0.165806,-0.205035,0.310685,-6.39011e-05,-1.56466e-05,0.410482,0.4514339517463395,0.3643593802849838,-6.389905836823306e-05,-0.15278942290042075,-1.5646477592556884e-05,-0.18538119574569423
526,0.5141,828.86,59.3715,0.107906,222.359,-0.132093,0.0426097,0.373146,-0.166075,-0.205362,0.311182,-6.65202e-05,-1.4212e-05,0.411143,0.4522963596234588,0.3650376354294278,-6.651798758050553e-05,-0.15301729189590652,-1.421189900996378e-05,-0.18564753254624522
527,0.5151,829.279,59.9892,-0.090673,222.411,0.0473066,-0.077035,0.37374,-0.166337,-0.205692,0.311678,-6.39409e-05,-1.58121e-05,0.411802,0.45315927992303173,0.3657148620349149,-6.393885582423042e-05,-0.15323917229782802,-1.5811974989454747e-05,-0.18591622452389023
528,0.5161,829.346,59.3685,0.1208,222.494,-0.143734,0.0503604,0.374333,-0.166605,-0.206018,0.312173,-6.68991e-05,-1.41801e-05,0.412462,0.4540212589275414,0.36639105823637474,-6.689686230509917e-05,-0.15346607379349364,-1.4179999462848869e-05,-0.1861815725806122
529,0.5171,829.787,60.066,-0.104429,222.544,0.0595605,-0.0852726,0.374926,-0.166866,-0.206348,0.312668,-6.39616e-05,-1.59886e-05,0.413121,0.4548837492371878,0.3670675892378108,-6.395955450044788e-05,-0.1536869903173731,-1.5988472182981717e-05,-0.18645008835412125
530,0.5181,829.829,59.3611,0.135157,222.628,-0.156681,0.0589832,0.375519,-0.167135,-0.206673,0.313164,-6.72975e-05,-1.41368e-05,0.41378,0.45574675115526464,0.3677458229501287,-6.72952355740275e-05,-0.1539146178996953,-1.4136700075884079e-05,-0.18671444911445567
531,0.5191,830.294,60.1472,-0.119722,222.675,0.0731765,-0.094429,0.376111,-0.167395,-0.207003,0.313658,-6.39615e-05,-1.6177e-05,0.414438,0.45660880837570916,0.36842165630376034,-6.39594545068789e-05,-0.1541345715038337,-1.61768691530062e-05,-0.18698278906772037
532,0.5201,830.309,59.3489,0.151104,222.761,-0.171045,0.0685522,0.376703,-0.167664,-0.207327,0.314153,-6.7717e-05,-1.40812e-05,0.415096,0.4574713760851181,0.3690991927000544,-6.771470725575046e-05,-0.154362078703009,-1.4081100860319218e-05,-0.18724616397502347
533,0.5211,830.8,60.2332,-0.136683,222.806,0.0882674,-0.104582,0.377294,-0.167923,-0.207657,0.314646,-6.3939e-05,-1.63783e-05,0.415753,0.4583329962520648,0.3697743250084955,-6.393695594575366e-05,-0.15458107056395476,-1.637816587640728e-05,-0.18751432849133287
534,0.5221,830.786,59.3314,0.16877,222.895,-0.18694,0.0791441,0.377885,-0.168193,-0.20798,0.31514,-6.81593e-05,-1.40124e-05,0.41641,0.4591951257870335,0.3704511606896985,-6.815697720763403e-05,-0.15480930286215577,-1.401230182673796e-05,-0.18777671898488424
535,0.5231,831.306,60.3244,-0.155447,222.937,0.104951,-0.115812,0.378476,-0.168451,-0.20831,0.315633,-6.38924e-05,-1.65935e-05,0.417066,0.4600577649911497,0.3711269596826827,-6.389035892406802e-05,-0.1550273339347995,-1.6593362328620742e-05,-0.188044708446926
536,0.5241,831.259,59.3083,0.188293,223.027,-0.204487,0.0908384,0.379066,-0.16872,-0.208632,0.316127,-6.86263e-05,-1.39293e-05,0.417723,0.4609194532455334,0.3718044637304878,-6.862394526929716e-05,-0.15525460101317856,-1.3929202987705835e-05,-0.18830611596193758
537,0.5251,831.812,60.4213,-0.176156,223.066,0.123348,-0.128204,0.379656,-0.168978,-0.208962,0.316619,-6.38197e-05,-1.68238e-05,0.418377,0.4617816500459935,0.3724795575861135,-6.381766356622354e-05,-0.15547251721371846,-1.6823658480658032e-05,-0.1885739307517994
538,0.5261,831.728,59.2793,0.209811,223.16,-0.223807,0.103717,0.380246,-0.169247,-0.209284,0.317112,-6.91199e-05,-1.38308e-05,0.419033,0.4626443556926607,0.373156356825308,-6.911751127469667e-05,-0.15569966455390105,-1.3830704354900192e-05,-0.1888351678846617
539,0.5271,832.054,59.6227,0.0840894,223.218,-0.125201,0.0307256,0.380835,-0.169509,-0.20961,0.317604,-6.8066e-05,-1.46481e-05,0.419688,0.4635061069790043,0.37383211597598587,-6.806368356238046e-05,-0.15592084226624237,-1.4647992717109481e-05,-0.189099564520938
540,0.5281,832.383,59.9005,0.0195065,223.276,-0.0482859,-0.0122443,0.381424,-0.169771,-0.209936,0.318095,-6.71148e-05,-1.51851e-05,0.420342,0.46436836598636466,0.3745068331744472,-6.711254785218834e-05,-0.15614196203761377,-1.518498470698404e-05,-0.1893638749779588
541,0.5291,832.597,59.8435,0.0325902,223.344,-0.0696907,-0.00120165,0.382012,-0.170034,-0.210261,0.318587,-6.75705e-05,-1.50598e-05,0.420996,0.4652296677834773,0.3751832569229663,-6.756821716513706e-05,-0.15636386751974785,-1.5059686601759381e-05,-0.18962728891150826
542,0.5301,832.884,60.0007,-0.00385475,223.405,-0.0285287,-0.02531,0.3826,-0.170296,-0.210586,0.319078,-6.70636e-05,-1.54011e-05,0.421649,0.4660914761749706,0.3758586376945263,-6.70613512870899e-05,-0.1565848712337069,-1.540098140362378e-05,-0.18989061724943923
543,0.5311,833.086,59.8929,0.0313463,223.473,-0.0655788,-0.00268632,0.383188,-0.170559,-0.210911,0.319568,-6.77236e-05,-1.51395e-05,0.422302,0.4669537914588098,0.3765329736258076,-6.772130680876565e-05,-0.15680666024603895,-1.5139385398321714e-05,-0.1901538600195659
544,0.5321,833.369,60.0477,-0.00954716,223.534,-0.0247613,-0.028355,0.383775,-0.17082,-0.211236,0.320059,-6.72126e-05,-1.55068e-05,0.422955,0.4678151461172553,0.377209017270991,-6.721034128376324e-05,-0.15702670499062643,-1.5506679770238563e-05,-0.1904170172496934
545,0.5331,833.567,59.9231,0.0343238,223.602,-0.0670198,-0.00123377,0.384362,-0.171083,-0.211559,0.320549,-6.79473e-05,-1.51878e-05,0.423607,0.46867700653931244,0.37788401505040414,-6.794499163453871e-05,-0.15724837781595957,-1.5187684665907142e-05,-0.1906784703261768
546,0.5341,833.851,60.09,-0.0131355,223.663,-0.0224053,-0.0302632,0.384948,-0.171344,-0.211884,0.321039,-6.73783e-05,-1.55996e-05,0.424259,0.4695379034833136,0.37855934365977584,-6.737603013329263e-05,-0.1574683072873051,-1.5599478326855376e-05,-0.19094145708565746
547,0.5351,834.045,59.9504,0.0374695,223.731,-0.0692733,0.000499573,0.385534,-0.171607,-0.212207,0.321528,-6.81816e-05,-1.52331e-05,0.42491,0.47039930506076666,0.37923362402693894,-6.817927568758542e-05,-0.15768986398650553,-1.5232983976876113e-05,-0.1912027407954281
548,0.5361,834.331,60.1325,-0.0164017,223.791,-0.0199778,-0.03208,0.38612,-0.171868,-0.212531,0.322017,-6.75421e-05,-1.56912e-05,0.425561,0.47126121156747414,0.37990823419783215,-6.753981908369511e-05,-0.15790967824499658,-1.5691076893808997e-05,-0.1914647486598443
549,0.5371,834.52,59.9764,0.0406155,223.86,-0.0718223,0.00231192,0.386705,-0.17213,-0.212854,0.322506,-6.842e-05,-1.52774e-05,0.426212,0.4721221511765239,0.38058317433376887,-6.84176594051289e-05,-0.15813027700959625,-1.527728330108502e-05,-0.19172586337373065
550,0.5381,834.81,60.1756,-0.0196875,223.919,-0.0173343,-0.0339628,0.38729,-0.17239,-0.213178,0.322995,-6.77022e-05,-1.57835e-05,0.426862,0.4729835945825911,0.38125844459614133,-6.769990825772343e-05,-0.15834913468484313,-1.578337544116959e-05,-0.19198770177388624
551,0.5391,834.994,60.0015,0.0438643,223.988,-0.0746088,0.00422511,0.387875,-0.172652,-0.2135,0.323483,-6.86616e-05,-1.53204e-05,0.427511,0.47384554208048346,0.3819326632130666,-6.865924284626956e-05,-0.15856961832693728,-1.5320282643283e-05,-0.19224783984943716
552,0.5401,835.288,60.2194,-0.0231163,224.046,-0.0144612,-0.0359588,0.388459,-0.172912,-0.213824,0.323971,-6.78585e-05,-1.58772e-05,0.42816,0.47470651925792406,0.38260721092897065,-6.785619766402906e-05,-0.15878836178829014,-1.587707395789284e-05,-0.19250950915660914
553,0.5411,835.465,60.0256,0.0472932,224.115,-0.0776281,0.00626517,0.389043,-0.173174,-0.214146,0.324458,-6.89065e-05,-1.53617e-05,0.428809,0.47556799939288585,0.3832807046230966,-6.890412600168982e-05,-0.15900873036795704,-1.5361582009654207e-05,-0.19276947923723153
554,0.5421,835.763,60.2639,-0.0267512,224.173,-0.0113539,-0.0380916,0.389626,-0.173433,-0.214469,0.324945,-6.8011e-05,-1.59726e-05,0.429458,0.4764285063499367,0.38395452638853045,-6.800868730438836e-05,-0.15922651890195916,-1.59724724386745e-05,-0.1930301725911947
555,0.5431,835.934,60.0489,0.0509488,224.242,-0.0808844,0.00844962,0.390209,-0.173695,-0.21479,0.325432,-6.91547e-05,-1.54011e-05,0.430106,0.47728951512881057,0.3846286763850819,-6.915230886883617e-05,-0.15944677269949936,-1.540098140362378e-05,-0.19328916833475218
556,0.5441,836.238,60.309,-0.030629,224.3,-0.00800671,-0.0403755,0.390792,-0.173954,-0.215113,0.325919,-6.81595e-05,-1.60698e-05,0.430753,0.4781510260221544,0.38530315477263843,-6.815717719410586e-05,-0.15966444779522848,-1.6069670881413423e-05,-0.19354969385624332
557,0.5451,836.401,60.0711,0.0548599,224.369,-0.0843836,0.0107902,0.391374,-0.174215,-0.215434,0.326405,-6.94063e-05,-1.54384e-05,0.4314,0.479011560310487,0.38597657573389643,-6.940389143850201e-05,-0.15988374675459482,-1.5438280828505846e-05,-0.19380852286023775
558,0.5461,836.711,60.3549,-0.0347728,224.425,-0.00441307,-0.0428208,0.391956,-0.174474,-0.215756,0.326891,-6.8304e-05,-1.6169e-05,0.432047,0.4798725955755454,0.3866503240572843,-6.83016673349579e-05,-0.16010130868869876,-1.6168869282462417e-05,-0.1940680747257838
559,0.5471,836.867,60.0925,0.0590454,224.495,-0.0881324,0.0132953,0.392537,-0.174735,-0.216077,0.327377,-6.96614e-05,-1.54735e-05,0.432693,0.4807326513755914,0.38732439990193845,-6.965897370103669e-05,-0.16032049364225032,-1.5473380286068483e-05,-0.19432673735622363
560,0.5481,837.182,60.4015,-0.0391984,224.551,-0.000566556,-0.0454346,0.393118,-0.174993,-0.216399,0.327862,-6.84443e-05,-1.62702e-05,0.433339,0.4815932070132458,0.3879974154289638,-6.844195774236006e-05,-0.16053710301108048,-1.6270067641044328e-05,-0.19458612238356432
561,0.5491,837.33,60.1128,0.0635184,224.621,-0.092137,0.0159713,0.393699,-0.175254,-0.216719,0.328347,-6.992e-05,-1.55063e-05,0.433985,0.4824542627789987,0.38867075744768753,-6.991755565377566e-05,-0.16075617423715605,-1.5506179777968754e-05,-0.1948438135916093
562,0.5501,837.652,60.4488,-0.0439172,224.676,0.00353878,-0.0482226,0.394279,-0.175511,-0.21704,0.328832,-6.85804e-05,-1.63737e-05,0.434629,0.48331433564843196,0.38934442611649644,-6.857804841808868e-05,-0.1609718321871435,-1.6373565951743885e-05,-0.1951022272498354
563,0.5511,837.791,60.1322,0.0682888,224.746,-0.096403,0.0188229,0.39486,-0.175772,-0.21736,0.329317,-7.01824e-05,-1.55368e-05,0.435274,0.48417639168047133,0.3900184215938547,-7.0179937272985e-05,-0.16119078996370984,-1.5536679304539724e-05,-0.19535975333074485
564,0.5521,838.121,60.4968,-0.0489377,224.8,0.00790798,-0.0511891,0.395439,-0.176029,-0.217681,0.329801,-6.87122e-05,-1.64793e-05,0.435918,0.48503597863766434,0.3906913533462535,-6.870983937090624e-05,-0.16140633623180733,-1.6479164217098052e-05,-0.1956180013988933
565,0.5531,838.251,60.1505,0.0733636,224.871,-0.100935,0.0218539,0.396018,-0.17629,-0.218,0.330285,-7.04485e-05,-1.5565e-05,0.436562,0.4858960634398177,0.3913646108764526,-7.04460185626532e-05,-0.1616251806176161,-1.556487886600344e-05,-0.19587455833344036
566,0.5541,838.588,60.5457,-0.0542659,224.924,0.012545,-0.0543375,0.396597,-0.176546,-0.218321,0.330768,-6.88396e-05,-1.65872e-05,0.437205,0.4867566463752675,0.39203680230466786,-6.883723060913116e-05,-0.16183977710185604,-1.6587062433126576e-05,-0.19613264117570306
567,0.5551,838.708,60.1679,0.0787479,224.996,-0.105736,0.0250667,0.397176,-0.176807,-0.21864,0.331251,-7.07184e-05,-1.55907e-05,0.437849,0.48761772773251577,0.3927093184797632,-7.071589951290758e-05,-0.16205850837435976,-1.559057846567402e-05,-0.19638903396634366
568,0.5561,839.053,60.5953,-0.0599061,225.048,0.0174523,-0.0576698,0.397754,-0.177063,-0.21896,0.331734,-6.89627e-05,-1.66974e-05,0.438491,0.4884778193216692,0.3933821595586289,-6.896032212766467e-05,-0.162272993940892,-1.669726059916332e-05,-0.1966461483349814
569,0.5571,839.164,60.1842,0.0844446,225.12,-0.110809,0.0284628,0.398332,-0.177323,-0.219278,0.332217,-7.09921e-05,-1.5614e-05,0.439133,0.4893384081874603,0.39405532569823154,-7.098958012052847e-05,-0.16249077464974837,-1.5613878102116452e-05,-0.1969015742449387
570,0.5581,839.518,60.6457,-0.0658604,225.171,0.0226311,-0.0611872,0.398909,-0.177578,-0.219599,0.332699,-6.90813e-05,-1.68098e-05,0.439775,0.49019800441864847,0.3947274223274937,-6.907891394192234e-05,-0.16270431227500837,-1.6809658716088194e-05,-0.19715932746800047
571,0.5591,839.617,60.1995,0.090455,225.243,-0.116152,0.0320427,0.399486,-0.177839,-0.219916,0.333181,-7.12698e-05,-1.56349e-05,0.440417,0.4910580967799818,0.39539984298541575,-7.126726036810194e-05,-0.1629228179332758,-1.5634777775552777e-05,-0.19741378762712702
572,0.5601,839.98,60.6969,-0.0721291,225.293,0.0280806,-0.0648895,0.400063,-0.178094,-0.220236,0.333662,-6.91954e-05,-1.69246e-05,0.441057,0.49191868555780993,0.39607119175632755,-6.919300605356948e-05,-0.16313624540154414,-1.6924456779809915e-05,-0.19767057412705513
573,0.5611,840.069,60.2138,0.096778,225.366,-0.121766,0.0358054,0.400639,-0.178354,-0.220553,0.334144,-7.15512e-05,-1.56534e-05,0.441698,0.4927782782596235,0.3967442602672344,-7.154864027392183e-05,-0.1633538016941961,-1.565327748620504e-05,-0.19792487224667543
574,0.5621,840.442,60.7488,-0.0787103,225.415,0.0337987,-0.0687754,0.401215,-0.178608,-0.220873,0.334624,-6.93053e-05,-1.70416e-05,0.442338,0.49363836622945656,0.3974148584428494,-6.930289844320203e-05,-0.16356628284231756,-1.704145479275443e-05,-0.19818149522568995
575,0.5631,840.519,60.2271,0.103411,225.489,-0.127647,0.0397489,0.401791,-0.178868,-0.221189,0.335105,-7.18365e-05,-1.56696e-05,0.442978,0.49449894975266595,0.39808717666933147,-7.183391982046317e-05,-0.16378372733976898,-1.5669477232416185e-05,-0.1984348298442209
576,0.5641,840.902,60.8016,-0.0856,225.537,0.039781,-0.0728424,0.402366,-0.179122,-0.221509,0.335586,-6.94108e-05,-1.71608e-05,0.443617,0.4953585337554913,0.39875981835866714,-6.940839112612451e-05,-0.16399609930064385,-1.7160652754366623e-05,-0.19869128966291127
577,0.5651,840.967,60.2395,0.110348,225.611,-0.133789,0.0438696,0.402941,-0.179382,-0.221825,0.336066,-7.21256e-05,-1.56834e-05,0.444256,0.4962186121612453,0.3994313842343953,-7.212299901149244e-05,-0.16421343206034267,-1.5683277016176334e-05,-0.19894446321185033
578,0.5661,841.36,60.855,-0.0927917,225.658,0.0460212,-0.0770866,0.403515,-0.179635,-0.222144,0.336545,-6.9512e-05,-1.72823e-05,0.444894,0.49707768817585496,0.4001018724365484,-6.950958409690511e-05,-0.16442485931535578,-1.7282150661879214e-05,-0.1991999591743131
579,0.5671,841.413,60.2508,0.117581,225.733,-0.140186,0.0481629,0.404089,-0.179895,-0.222459,0.337025,-7.24183e-05,-1.5695e-05,0.445533,0.4979372574416465,0.4007740826528634,-7.241567785820635e-05,-0.16464208061194163,-1.5694876834171367e-05,-0.1994521714616524
580,0.5681,841.817,60.9092,-0.100277,225.779,0.0525109,-0.0815024,0.404663,-0.180148,-0.222779,0.337504,-6.96092e-05,-1.74058e-05,0.44617,0.49879732024182766,0.40144521416161827,-6.960677733580667e-05,-0.1648533994325888,-1.7405648519930317e-05,-0.1997083057831076
581,0.5691,841.857,60.2613,0.125101,225.855,-0.146828,0.0526225,0.405236,-0.180407,-0.223093,0.337983,-7.27145e-05,-1.57044e-05,0.446807,0.499656377202641,0.4021166672193708,-7.271185636481547e-05,-0.16506967439331932,-1.570427668651231e-05,-0.19995955792644082
582,0.5701,842.273,60.9641,-0.108044,225.899,0.0592396,-0.0860832,0.405809,-0.180659,-0.223412,0.338461,-6.97025e-05,-1.75314e-05,0.447444,0.5005159265441466,0.4027870391924391,-6.970007083717533e-05,-0.1652800503268913,-1.753124632586367e-05,-0.20021473012533264
583,0.5711,842.3,60.2708,0.132896,225.976,-0.153703,0.0572405,0.406382,-0.180919,-0.223726,0.33894,-7.3014e-05,-1.57117e-05,0.448081,0.5013759685485593,0.40345913513834075,-7.301133454273856e-05,-0.16549704930271703,-1.5711576571875163e-05,-0.2004658232763855
584,0.5721,842.728,61.0196,-0.116079,226.019,0.0661945,-0.0908204,0.406954,-0.181171,-0.224045,0.339418,-6.9792e-05,-1.76589e-05,0.448716,0.5022350012625034,0.4041301489644651,-6.978956459502417e-05,-0.16570731755138068,-1.7658744082549305e-05,-0.20072083400238705
585,0.5731,842.741,60.2796,0.140948,226.097,-0.160799,0.0620077,0.407526,-0.18143,-0.224358,0.339896,-7.33167e-05,-1.57172e-05,0.449352,0.5030945254837176,0.4048014836118683,-7.331401239640822e-05,-0.1659233713759568,-1.5717076485510795e-05,-0.20097096923313862
586,0.5741,843.181,61.0757,-0.124366,226.138,0.0733606,-0.0957044,0.408097,-0.181681,-0.224677,0.340373,-6.9878e-05,-1.77882e-05,0.449987,0.5039530375396348,0.40547173376150347,-6.987555858939398e-05,-0.16613269833810873,-1.7788041790867126e-05,-0.20122581884327928
587,0.5751,843.18,60.2875,0.149242,226.217,-0.168098,0.0669134,0.408669,-0.181941,-0.22499,0.34085,-7.36224e-05,-1.57208e-05,0.450622,0.5048135447587103,0.40614230369672266,-7.361968993757628e-05,-0.1663494756542685,-1.572067642885422e-05,-0.2014757960385094
588,0.5761,843.632,61.1323,-0.132886,226.257,0.0807205,-0.100723,0.409239,-0.182191,-0.225308,0.341326,-6.99608e-05,-1.79191e-05,0.451256,0.5056715329826365,0.4068117867576102,-6.995835280032559e-05,-0.16655786223594682,-1.791893945390921e-05,-0.20172968636466782
589,0.5771,843.617,60.2947,0.157757,226.337,-0.175582,0.0719452,0.40981,-0.182451,-0.22562,0.341803,-7.39307e-05,-1.57228e-05,0.451891,0.5065315169300206,0.40748299605058325,-7.392796719318806e-05,-0.16677452902386258,-1.5722676397378343e-05,-0.20197870785314975
590,0.5781,844.082,61.1894,-0.141617,226.375,0.0882545,-0.105865,0.41038,-0.1827,-0.225938,0.342279,-7.00407e-05,-1.80515e-05,0.452524,0.5073904846772221,0.4081531174329396,-7.00382472074157e-05,-0.16698197633787315,-1.8051337072666485e-05,-0.20223243827877657
591,0.5791,844.052,60.3013,0.166468,226.456,-0.183231,0.0770893,0.41095,-0.18296,-0.22625,0.342755,-7.42414e-05,-1.57234e-05,0.453158,0.5082499421756055,0.4088235578690025,-7.423864417543946e-05,-0.16719853287045616,-1.5723276387991092e-05,-0.20248130293312872
592,0.5801,844.531,61.2469,-0.150535,226.493,0.095941,-0.111114,0.411519,-0.183209,-0.226568,0.34323,-7.0118e-05,-1.81852e-05,0.45379,0.509108380595273,0.4094929080170653,-7.011554179048307e-05,-0.16740587462065226,-1.8185034650231025e-05,-0.2027348735589296
593,0.5811,844.486,60.3073,0.175352,226.575,-0.191022,0.0823303,0.412088,-0.183468,-0.226879,0.343706,-7.45541e-05,-1.57227e-05,0.454423,0.5099673076053921,0.41016398634525286,-7.455132091216399e-05,-0.16762148857591297,-1.5722576399035404e-05,-0.2029827844611094
594,0.5821,844.978,61.3047,-0.159612,226.611,0.103756,-0.116454,0.412657,-0.183717,-0.227197,0.344181,-7.0193e-05,-1.832e-05,0.455055,0.51082672348405,0.4108339733480828,-7.019053652901341e-05,-0.16782872502324908,-1.831983218980593e-05,-0.2032361956411376
595,0.5831,844.918,60.3129,0.18438,226.694,-0.198931,0.0876515,0.413225,-0.183976,-0.227507,0.344656,-7.48684e-05,-1.5721e-05,0.455687,0.5116851168236192,0.411504278670334,-7.486559743130616e-05,-0.16804422947443698,-1.5720876425762143e-05,-0.20348315413994378
596,0.5841,845.424,61.3628,-0.16882,226.728,0.111673,-0.121869,0.413793,-0.184224,-0.227825,0.345129,-7.02662e-05,-1.84557e-05,0.456317,0.5125439978691007,0.41217207811626366,-7.026373138840913e-05,-0.16825052892333836,-1.8455529694594297e-05,-0.20373640622771116
597,0.5851,845.349,60.318,0.193521,226.812,-0.20693,0.0930346,0.414361,-0.184483,-0.228134,0.345604,-7.51841e-05,-1.57186e-05,0.456949,0.5134033668975899,0.4128430191892585,-7.518127374639416e-05,-0.16846592414146233,-1.571847646342217e-05,-0.2039824136680799
598,0.5861,845.869,61.421,-0.178127,226.845,0.119664,-0.127339,0.414928,-0.184731,-0.228452,0.346077,-7.0338e-05,-1.85919e-05,0.457579,0.5142617099238733,0.41351145200923467,-7.033552634083673e-05,-0.16867211902305312,-1.859172717166846e-05,-0.20423550701655824
599,0.5871,845.778,60.3228,0.202742,226.93,-0.214991,0.0984604,0.415495,-0.18499,-0.228761,0.346551,-7.55006e-05,-1.57156e-05,0.458209,0.5151205397686522,0.4141816152536284,-7.549774990145419e-05,-0.16888740506348043,-1.5715476510580473e-05,-0.20448136025860797
600,0.5881,846.311,61.4793,-0.187498,226.961,0.1277,-0.132844,0.416061,-0.185237,-0.229078,0.347024,-7.04089e-05,-1.87286e-05,0.458838,0.5159783407289331,0.41485068137930803,-7.040642135158759e-05,-0.16909266452384286,-1.8728424620917394e-05,-0.20473349970119292
601,0.5891,846.206,60.3275,0.21201,227.047,-0.223083,0.103908,0.416627,-0.185496,-0.229387,0.347497,-7.58175e-05,-1.57124e-05,0.459468,0.516836627341984,0.4155200640481216,-7.581462592598509e-05,-0.16930784165708956,-1.5712276560941874e-05,-0.20497919908727513
602,0.5901,846.509,60.6876,0.0787647,227.098,-0.118616,0.0271134,0.417193,-0.185747,-0.229701,0.34797,-7.46293e-05,-1.65797e-05,0.460097,0.5176953998827625,0.4161897634098295,-7.462651530310005e-05,-0.1695163192238045,-1.6579562557517136e-05,-0.2052287964299282
603,0.5911,846.798,60.9236,0.022559,227.15,-0.0532217,-0.00961108,0.417759,-0.185999,-0.230014,0.348442,-7.38259e-05,-1.70317e-05,0.460725,0.5185546586263816,0.4168583627551916,-7.382317493531687e-05,-0.16972557474405714,-1.7031554961466355e-05,-0.2054775208892371
604,0.5921,846.998,60.9019,0.0256342,227.21,-0.0637081,-0.00522005,0.418324,-0.186251,-0.230326,0.348914,-7.41119e-05,-1.69942e-05,0.461353,0.5194128844344656,0.41752727775393317,-7.410915378103233e-05,-0.16993477753856245,-1.6994055599406366e-05,-0.20572537323574303
605,0.5931,847.245,61.0127,0.0011917,227.265,-0.0356233,-0.0214223,0.418888,-0.186503,-0.230638,0.349385,-7.37903e-05,-1.72288e-05,0.461981,0.5202700750063054,0.41819509035927815,-7.378757756282273e-05,-0.1701439276206056,-1.722865158504394e-05,-0.20597314826437907
606,0.5941,847.436,60.9514,0.0224874,227.325,-0.0583898,-0.00770694,0.419453,-0.186755,-0.23095,0.349857,-7.42347e-05,-1.70845e-05,0.462608,0.5211292702984978,0.41886463644237293,-7.423194467282013e-05,-0.17035302500346838,-1.7084354060781237e-05,-0.2062208459992646
607,0.5951,847.676,61.0504,-0.00243422,227.38,-0.033545,-0.0232692,0.420017,-0.187007,-0.231262,0.350328,-7.3954e-05,-1.7316e-05,0.463235,0.521987429185004,0.419533079092024,-7.395126547038444e-05,-0.17056206970042942,-1.7315850078913897e-05,-0.20646846646451156
608,0.5961,847.867,60.9833,0.0233673,227.44,-0.0581871,-0.00744481,0.42058,-0.187259,-0.231573,0.350799,-7.44238e-05,-1.71455e-05,0.463862,0.5228445493643257,0.4202018366523186,-7.442103061772176e-05,-0.17077106172476386,-1.7145353016778664e-05,-0.20671521639983736
609,0.5971,848.105,61.083,-0.00382139,227.495,-0.0329875,-0.0239061,0.421144,-0.18751,-0.231884,0.351269,-7.41368e-05,-1.73894e-05,0.464488,0.523703675941088,0.4208694884014159,-7.413405193534839e-05,-0.1709791720693301,-1.738924880523296e-05,-0.20696188960786488
610,0.5981,848.295,61.0131,0.0242515,227.555,-0.0585543,-0.00702884,0.421707,-0.187762,-0.232195,0.351739,-7.46201e-05,-1.72052e-05,0.465114,0.5245617626393828,0.42153745402058895,-7.461731598956689e-05,-0.17118805899711032,-1.7205051991431297e-05,-0.2072084861124528
611,0.5991,848.533,61.1151,-0.00471722,227.61,-0.03256,-0.0243362,0.422269,-0.188013,-0.232506,0.352209,-7.43208e-05,-1.74601e-05,0.465739,0.5254188071569379,0.42220573365739145,-7.431803827773198e-05,-0.17139606468849578,-1.7459947573295054e-05,-0.20745500593745214
612,0.6001,848.721,61.0425,0.0249469,227.67,-0.0589935,-0.00666187,0.422831,-0.188264,-0.232817,0.352679,-7.48171e-05,-1.72656e-05,0.466364,0.5262763334688834,0.4228743274594462,-7.481430127054267e-05,-0.17160401817700432,-1.7265450950376682e-05,-0.2077014491067064
613,0.6011,848.959,61.1472,-0.00542875,227.725,-0.0321396,-0.024699,0.423393,-0.188515,-0.233128,0.353148,-7.45046e-05,-1.75298e-05,0.466988,0.5271343418460639,0.42354181203192187,-7.450182460122523e-05,-0.17181191947573748,-1.752964635393095e-05,-0.20794781564405196
614,0.6021,849.146,61.0717,0.0255254,227.784,-0.0594401,-0.00633455,0.423955,-0.188766,-0.233438,0.353617,-7.5014e-05,-1.73265e-05,0.467613,0.527992832559476,0.42420960972808386,-7.501118652020189e-05,-0.172019768597793,-1.732634989703996e-05,-0.2081933137670272
615,0.6031,849.384,61.1792,-0.00604908,227.839,-0.0317244,-0.0250281,0.424516,-0.189016,-0.233748,0.354086,-7.46881e-05,-1.7599e-05,0.468236,0.5288502770292276,0.4248777206948213,-7.468531091325836e-05,-0.17222673778341735,-1.759884513852228e-05,-0.20843873579737926
616,0.6041,849.57,61.1008,0.0260371,227.898,-0.0598798,-0.00603304,0.425077,-0.189267,-0.234058,0.354554,-7.52106e-05,-1.73876e-05,0.46886,0.52970820266028,0.4255447195336608,-7.520777175373805e-05,-0.17243448279914353,-1.738744883661436e-05,-0.20868408175869324
617,0.6051,849.807,61.211,-0.0066162,227.952,-0.0313203,-0.0253353,0.425637,-0.189517,-0.234368,0.355022,-7.48716e-05,-1.76678e-05,0.469483,0.5305650791567957,0.4262120306010124,-7.486879719176276e-05,-0.17264134831917632,-1.7667643925300958e-05,-0.20892935167454685
618,0.6061,849.992,61.1298,0.0265059,228.011,-0.0603063,-0.00575042,0.426197,-0.189768,-0.234677,0.35549,-7.54066e-05,-1.74489e-05,0.470105,0.5314224356385329,0.42687965404303374,-7.540375699377488e-05,-0.17284898928071746,-1.7448747768877837e-05,-0.20917375474266076
619,0.6071,850.229,61.2427,-0.00714645,228.065,-0.0309317,-0.0256251,0.426757,-0.190017,-0.234987,0.355958,-7.5055e-05,-1.77363e-05,0.470728,0.5322802723743583,0.42754759000595,-7.50521834439466e-05,-0.17305492424241975,-1.7736142712720948e-05,-0.20941887288341576
620,0.6081,850.412,61.1588,0.0269423,228.124,-0.0607156,-0.00548405,0.427317,-0.190267,-0.235295,0.356425,-7.56022e-05,-1.75103e-05,0.471349,0.5331385896332896,0.4282144104209309,-7.5599342225674e-05,-0.17326163467147893,-1.7510146695598472e-05,-0.20966233437557324
621,0.6091,850.65,61.2742,-0.00764627,228.178,-0.0305618,-0.0258991,0.427876,-0.190517,-0.235605,0.356892,-7.52384e-05,-1.78045e-05,0.471971,0.5339958536878748,0.42888154231376996,-7.52355696626017e-05,-0.17346829342938996,-1.780434150078225e-05,-0.2099073010801158
622,0.6101,850.831,61.1878,0.0273501,228.237,-0.0611048,-0.00523342,0.428435,-0.190767,-0.235913,0.357359,-7.57972e-05,-1.75718e-05,0.472592,0.5348535970870307,0.42954898582996126,-7.579432746485093e-05,-0.1736749005290691,-1.7571645616776266e-05,-0.21015061215955344
623,0.6111,851.069,61.3056,-0.0081175,228.291,-0.0302135,-0.0261572,0.428993,-0.191015,-0.236222,0.357825,-7.54218e-05,-1.78724e-05,0.473213,0.5357102843877337,0.4302153108990412,-7.541895584750602e-05,-0.17387980374468892,-1.7872240289595887e-05,-0.21039463791647506
624,0.6121,851.249,61.2167,0.0277297,228.349,-0.0614716,-0.00499895,0.429551,-0.191265,-0.23653,0.358291,-7.59915e-05,-1.76335e-05,0.473833,0.5365674498533461,0.43088194654796275,-7.598861271906898e-05,-0.17408630797964786,-1.7633344530754158e-05,-0.21063779891928003
625,0.6131,851.487,61.3368,-0.00855982,228.403,-0.0298888,-0.0263986,0.430109,-0.191514,-0.236839,0.358757,-7.56054e-05,-1.79401e-05,0.474453,0.5374250937507583,0.4315488929214897,-7.560254198379912e-05,-0.1742919348873485,-1.7939939077393774e-05,-0.21088167415874903
626,0.6141,851.666,61.2457,0.0280802,228.461,-0.0618138,-0.00478154,0.430666,-0.191763,-0.237146,0.359222,-7.61853e-05,-1.76953e-05,0.475072,0.5382816780645627,0.43221471794901967,-7.618239797368975e-05,-0.17449751060032315,-1.7695143439078187e-05,-0.21112389630178097
627,0.6151,851.903,61.3678,-0.00897199,228.515,-0.0295898,-0.0266224,0.431223,-0.192011,-0.237455,0.359688,-7.5789e-05,-1.80074e-05,0.475692,0.5391387396287317,0.43288228553875197,-7.578612808634144e-05,-0.17470220983394014,-1.8007237867712078e-05,-0.2113676213603629
628,0.6161,852.081,61.2746,0.0284002,228.573,-0.0621295,-0.0045822,0.43178,-0.192261,-0.237762,0.360153,-7.63784e-05,-1.77573e-05,0.47631,0.5399962787091679,0.4335487307380277,-7.637548324423982e-05,-0.17490850849307482,-1.7757142340091292e-05,-0.2116096943405016
629,0.6171,852.318,61.3986,-0.00935238,228.626,-0.0293183,-0.0268276,0.432336,-0.192509,-0.23807,0.360617,-7.59728e-05,-1.80744e-05,0.476929,0.5408527547183968,0.43421405169161464,-7.596991413993948e-05,-0.17511310581185235,-1.807423665900476e-05,-0.2118524811635546
630,0.6181,852.494,61.3035,0.028688,228.684,-0.0624171,-0.00440199,0.432892,-0.192757,-0.238377,0.361082,-7.65707e-05,-1.78194e-05,0.477547,0.5417097070606951,0.43488111630615456,-7.656776853881553e-05,-0.1753176523967861,-1.7819241235450534e-05,-0.21209440531458013
631,0.6191,852.731,61.4292,-0.0096993,228.737,-0.0290759,-0.027013,0.433448,-0.193005,-0.238684,0.361546,-7.61568e-05,-1.8141e-05,0.478164,0.5425671360009778,0.43554705563009577,-7.61539001444822e-05,-0.17552214826045653,-1.8140835453039905e-05,-0.21233625520629062
632,0.6201,852.907,61.3324,0.028942,228.795,-0.062675,-0.00424193,0.434003,-0.193254,-0.23899,0.362009,-7.67624e-05,-1.78818e-05,0.478782,0.5434234983800368,0.4362118678089959,-7.67594538423344e-05,-0.17572741768843525,-1.7881640121619746e-05,-0.21257724343911744
633,0.6211,853.143,61.4596,-0.0100111,228.847,-0.0288642,-0.0271778,0.434558,-0.193501,-0.239298,0.362473,-7.6341e-05,-1.82073e-05,0.479398,0.5442803361721311,0.43687842474490934,-7.633808609996962e-05,-0.17593098787431327,-1.820713424816045e-05,-0.21281973230293627
634,0.6221,853.318,61.3613,0.0291604,228.905,-0.0629018,-0.00410293,0.435113,-0.193749,-0.239604,0.362936,-7.69533e-05,-1.79443e-05,0.480015,0.5451376496411882,0.43754385349043345,-7.69503391707671e-05,-0.176135331649645,-1.7944139002024073e-05,-0.2130605726144046
635,0.6231,853.554,61.4898,-0.0102863,228.958,-0.0286843,-0.027321,0.435667,-0.193996,-0.23991,0.363399,-7.65254e-05,-1.82733e-05,0.480631,0.5459938930566159,0.43820959040080165,-7.65224720062907e-05,-0.17633880109321687,-1.8273133044255374e-05,-0.21330133924001216
636,0.6241,853.727,61.3902,0.029342,229.015,-0.0630963,-0.00398581,0.436221,-0.194244,-0.240216,0.363862,-7.71435e-05,-1.8007e-05,0.481247,0.5468506109623175,0.4388756356187269,-7.71405245166834e-05,-0.17654304374341023,-1.800683787489543e-05,-0.2135420322023034
637,0.6251,853.963,61.5198,-0.0105236,229.068,-0.0285374,-0.0274419,0.436774,-0.194491,-0.240522,0.364324,-7.671e-05,-1.83389e-05,0.481862,0.5477062559142034,0.4395405497457192,-7.67070578632234e-05,-0.17674641249453094,-1.8338731843425826e-05,-0.2137826515238157
638,0.6261,854.136,61.4191,0.0294855,229.125,-0.0632576,-0.00389128,0.437328,-0.194738,-0.240828,0.364786,-7.73329e-05,-1.80699e-05,0.482477,0.5485639227317523,0.44020577113401016,-7.732990988840172e-05,-0.17694973101977318,-1.8069736740344844e-05,-0.21402319722707985
639,0.6271,854.371,61.5495,-0.0107218,229.177,-0.0284245,-0.0275399,0.437881,-0.194985,-0.241134,0.365248,-7.68949e-05,-1.84041e-05,0.483092,0.5494205154070684,0.44087129992558705,-7.689194366300445e-05,-0.17715299933154138,-1.8403930645560784e-05,-0.2142636693346195
640,0.6281,854.543,61.4481,0.0295898,229.234,-0.0633847,-0.0038199,0.438433,-0.195232,-0.241439,0.36571,-7.75216e-05,-1.8133e-05,0.483706,0.5502760316323279,0.44153713626250335,-7.751859527838079e-05,-0.17735621744223662,-1.8132835598150265e-05,-0.2145032823726266
641,0.6291,854.778,61.5791,-0.0108801,229.286,-0.0283462,-0.0276145,0.438985,-0.195478,-0.241744,0.366171,-7.70801e-05,-1.84689e-05,0.48432,0.5511320202329073,0.44220183808431845,-7.707712940541178e-05,-0.17755856292323136,-1.8468729450882293e-05,-0.21474282233980113
642,0.6301,854.949,61.4771,0.0296543,229.343,-0.0634771,-0.00377209,0.439537,-0.195725,-0.242049,0.366632,-7.77094e-05,-1.81964e-05,0.484933,0.5519884814696301,0.44286684640431573,-7.770638070281333e-05,-0.17776168087208988,-1.8196234446543613e-05,-0.214982289258426
643,0.6311,855.183,61.6085,-0.0109978,229.395,-0.028303,-0.0276652,0.440089,-0.195971,-0.242354,0.367092,-7.72655e-05,-1.85334e-05,0.485546,0.552845415603463,0.44353071783238374,-7.726251509809767e-05,-0.1779639266213483,-1.853322825762227e-05,-0.21522168315077783
644,0.6321,855.353,61.506,0.0296784,229.452,-0.0635345,-0.00374817,0.44064,-0.196218,-0.242658,0.367553,-7.78965e-05,-1.826e-05,0.486159,0.5537012691934713,0.44419633890717414,-7.789346614639481e-05,-0.17816694445773784,-1.8259833287181948e-05,-0.21546021949973793
645,0.6331,855.587,61.6376,-0.0110745,229.504,-0.0282953,-0.027692,0.441191,-0.196463,-0.242963,0.368013,-7.74513e-05,-1.85975e-05,0.486771,0.5545575944887506,0.44486082204247546,-7.744830072553555e-05,-0.17836826889309532,-1.8597327067548797e-05,-0.21569946764559356
646,0.6341,855.756,61.5351,0.0296617,229.56,-0.0635565,-0.00374826,0.441741,-0.19671,-0.243267,0.368473,-7.80827e-05,-1.83238e-05,0.487383,0.5554128363356681,0.44552561091033205,-7.807965162531794e-05,-0.17857118686927698,-1.8323632120176292e-05,-0.21593785877014238
647,0.6351,855.989,61.6666,-0.01111,229.612,-0.0283231,-0.0276946,0.442292,-0.196955,-0.243571,0.368932,-7.76373e-05,-1.86612e-05,0.487995,0.5562701049643073,0.44618925946143095,-7.763428630280789e-05,-0.17877241227737506,-1.866102588088392e-05,-0.21617617743480388
648,0.6361,856.158,61.5641,0.0296043,229.668,-0.0635433,-0.00377238,0.442842,-0.197201,-0.243875,0.369392,-7.82682e-05,-1.83878e-05,0.488606,0.5571262889510511,0.4468546595510705,-7.82651371243892e-05,-0.17897440941728793,-1.8387630945415623e-05,-0.21641442366160246
649,0.6371,856.391,61.6953,-0.0111044,229.719,-0.0283863,-0.0276733,0.443391,-0.197446,-0.244179,0.369851,-7.78236e-05,-1.87245e-05,0.489217,0.5579813859863441,0.4475189182755195,-7.782057182215141e-05,-0.17917553604796232,-1.8724324697627637e-05,-0.21665259747255583
650,0.6381,856.559,61.5932,0.0295063,229.776,-0.0634951,-0.00382038,0.44394,-0.197692,-0.244482,0.370309,-7.84529e-05,-1.84521e-05,0.489828,0.5588369525987966,0.4481820337819493,-7.844982265170497e-05,-0.17937743403162443,-1.8451929761020835e-05,-0.2168899157799824
651,0.6391,856.791,61.7238,-0.0110581,229.827,-0.0284845,-0.0276281,0.444489,-0.197936,-0.244786,0.370768,-7.80102e-05,-1.87874e-05,0.490438,0.5596929890462774,0.44884690191101795,-7.800715728345509e-05,-0.17957764151141486,-1.8787223517890972e-05,-0.21712794506330102
652,0.6401,856.958,61.6222,0.0293682,229.883,-0.0634124,-0.00389198,0.445038,-0.198182,-0.245089,0.371226,-7.86368e-05,-1.85166e-05,0.491048,0.5605494955867965,0.4495106257732555,-7.863370820793136e-05,-0.17977944058929884,-1.8516428568871035e-05,-0.21736511936222602
653,0.6411,857.189,61.7521,-0.0109715,229.934,-0.0286173,-0.0275596,0.445586,-0.198426,-0.245392,0.371684,-7.8197e-05,-1.88499e-05,0.491657,0.5614049110728141,0.45017465369064524,-7.819394269426017e-05,-0.17997954999145516,-1.8849722341784947e-05,-0.21760222180822464
654,0.6421,857.357,61.6513,0.0291906,229.99,-0.0632957,-0.00398675,0.446134,-0.198671,-0.245694,0.372141,-7.88199e-05,-1.85813e-05,0.492266,0.5622607954549841,0.45083753496421597,-7.881679379329043e-05,-0.18018043039285325,-1.8581127368744177e-05,-0.2178384702619265
655,0.6431,857.586,61.7802,-0.0108455,230.041,-0.0287838,-0.027468,0.446681,-0.198915,-0.245997,0.372599,-7.83842e-05,-1.89121e-05,0.492874,0.563115585873964,0.4515021707452054,-7.838112803881803e-05,-0.18038044196543324,-1.8911921167319434e-05,-0.21807542930432933
656,0.6441,857.753,61.6804,0.0289745,230.097,-0.063146,-0.00410415,0.447228,-0.19916,-0.246299,0.373056,-7.90023e-05,-1.86462e-05,0.493483,0.5639708439912072,0.45216565883271653,-7.899917940046297e-05,-0.1805812241603285,-1.864602616064026e-05,-0.21831153487094435
657,0.6451,857.982,61.8081,-0.0106812,230.147,-0.0289831,-0.0273542,0.447775,-0.199404,-0.246602,0.373512,-7.85716e-05,-1.89739e-05,0.494091,0.564826570062614,0.452827997374855,-7.856851333265524e-05,-0.18078113795115902,-1.8973719996706606e-05,-0.21854835059648425
658,0.6461,858.149,61.7096,0.028721,230.203,-0.0629642,-0.00424348,0.448322,-0.199648,-0.246904,0.373969,-7.9184e-05,-1.87113e-05,0.494698,0.5656827643442259,0.4534920915036058,-7.918086502978205e-05,-0.18098100296897512,-1.871112494467031e-05,-0.21878431336243298
659,0.6471,858.377,61.8358,-0.0104797,230.253,-0.0292142,-0.0272187,0.448868,-0.199892,-0.247206,0.374425,-7.87592e-05,-1.90354e-05,0.495305,0.5665378605535798,0.4541550350369694,-7.87560985756608e-05,-0.18118081922567608,-1.9035218827956335e-05,-0.2190202048783858
660,0.6481,858.544,61.7387,0.0284315,230.309,-0.0627517,-0.00440394,0.449414,-0.200136,-0.247507,0.374881,-7.93649e-05,-1.87767e-05,0.495912,0.5673934237729463,0.45481828094151977,-7.93617506896771e-05,-0.18138058673315793,-1.8776523718844196e-05,-0.21925524442149158
661,0.6491,858.77,61.8633,-0.0102426,230.359,-0.0294756,-0.0270626,0.449959,-0.200379,-0.247809,0.375337,-7.89471e-05,-1.90965e-05,0.496518,0.5682478860087121,0.45548182935516945,-7.894398375973832e-05,-0.1815794870832106,-1.909631766305875e-05,-0.21949099373773784
662,0.6501,858.937,61.7679,0.0281074,230.414,-0.0625097,-0.0045846,0.450504,-0.200623,-0.24811,0.375792,-7.95451e-05,-1.88421e-05,0.497125,0.5691028140533179,0.4561442242709417,-7.954193637238482e-05,-0.18177915732760175,-1.8841922488799234e-05,-0.21972589159472178
663,0.6511,859.162,61.8907,-0.00997133,230.464,-0.029766,-0.0268868,0.451049,-0.200866,-0.248411,0.376247,-7.91351e-05,-1.91573e-05,0.49773,0.5699582081606982,0.4568069206449772,-7.913196890052543e-05,-0.18197796083676654,-1.915711650013474e-05,-0.21996071875809065
664,0.6521,859.329,61.797,0.0277505,230.519,-0.0622399,-0.00478444,0.451594,-0.20111,-0.248712,0.376702,-7.97247e-05,-1.89078e-05,0.498336,0.5708140685849272,0.4574699186144706,-7.972152207058603e-05,-0.1821775338654228,-1.8907621248676065e-05,-0.2201954752491202
665,0.6531,859.553,61.9178,-0.00966785,230.569,-0.0300837,-0.0266923,0.452138,-0.201352,-0.249013,0.377156,-7.93234e-05,-1.92178e-05,0.49894,0.5716688239106065,0.4581317601841899,-7.932025398227349e-05,-0.18237542295668152,-1.9217615339295335e-05,-0.22043016108907942
666,0.6541,859.72,61.8262,0.0273627,230.624,-0.0619438,-0.00500233,0.452682,-0.201596,-0.249313,0.377611,-7.99036e-05,-1.89736e-05,0.499545,0.5725240443496824,0.4587953610928319,-7.990040779237706e-05,-0.1825748990164111,-1.897342000234392e-05,-0.22066399696361771
667,0.6551,859.943,61.9448,-0.00933409,230.674,-0.0304271,-0.0264804,0.453225,-0.201838,-0.249614,0.378065,-7.95118e-05,-1.9278e-05,0.500149,0.5733781567763019,0.4594578045500546,-7.950863902062011e-05,-0.18277269195693802,-1.927781418054053e-05,-0.22089854179976298
668,0.6561,860.109,61.8553,0.026946,230.729,-0.0616234,-0.00523709,0.453769,-0.202081,-0.249914,0.378519,-8.00819e-05,-1.90395e-05,0.500753,0.5742343073454292,0.4601205488248872,-8.007869353021668e-05,-0.18297125406651915,-1.9039318749913825e-05,-0.22113223718116315
669,0.6571,860.331,61.9716,-0.00897214,230.778,-0.0307942,-0.0262522,0.454312,-0.202323,-0.250214,0.378972,-7.97003e-05,-1.93379e-05,0.501357,0.5750893486970357,0.4607821332710682,-7.969712401545426e-05,-0.18316895110072906,-1.933771302398135e-05,-0.2213658624644641
670,0.6581,860.498,61.8845,0.0265025,230.833,-0.0612804,-0.00548737,0.454854,-0.202566,-0.250514,0.379425,-8.02596e-05,-1.91056e-05,0.50196,0.5759432785181064,0.4614440174828953,-8.025637928443796e-05,-0.18336741693103664,-1.9105417489173604e-05,-0.22159941767069213
671,0.6591,860.718,61.9982,-0.00858713,230.882,-0.0311832,-0.0260087,0.455396,-0.202807,-0.250814,0.379878,-7.9889e-05,-1.93975e-05,0.502563,0.5767976712945901,0.462106201596193,-7.98858089587906e-05,-0.18356420167004273,-1.9397311869728817e-05,-0.22183290282086732
672,0.6601,860.885,61.9136,0.0260262,230.937,-0.0609161,-0.00575218,0.455938,-0.20305,-0.251113,0.380331,-8.04368e-05,-1.91718e-05,0.503165,0.577652527277476,0.46276868574684715,-8.043356504738863e-05,-0.1837625714661305,-1.9171616222224408e-05,-0.22206554000193213
673,0.6611,861.104,62.0247,-0.00817161,230.986,-0.0315914,-0.0257519,0.45648,-0.203291,-0.251413,0.380783,-8.00777e-05,-1.94569e-05,0.503767,0.5785078467178901,0.4634300066400674,-8.007449386659982e-05,-0.18395926098436832,-1.9456710715792802e-05,-0.2222988853363813
674,0.6621,861.271,61.9427,0.025543,231.04,-0.0605351,-0.00603027,0.457021,-0.203534,-0.251711,0.381235,-8.06134e-05,-1.9238e-05,0.504369,0.5793620505042547,0.4640916265178967,-8.061015082716505e-05,-0.1841575347927057,-1.923781495083432e-05,-0.222530605740496
675,0.6631,861.489,62.0511,-0.00773885,231.09,-0.0320183,-0.0254837,0.457562,-0.203775,-0.252011,0.381687,-8.02665e-05,-1.95161e-05,0.50497,0.5802167165398948,0.46475354551550696,-8.026327873067451e-05,-0.1843541291362507,-1.9515909562173306e-05,-0.22276381157614944
676,0.6641,861.656,61.9717,0.0250342,231.143,-0.0601366,-0.00631865,0.458103,-0.204017,-0.252309,0.382138,-8.07896e-05,-1.93044e-05,0.505571,0.5810718450749548,0.46541429835309955,-8.078633660812962e-05,-0.1845514915551839,-1.930421367124513e-05,-0.22299539345288633
677,0.6651,861.872,62.0773,-0.00728769,231.193,-0.0324606,-0.0252042,0.458643,-0.204257,-0.252608,0.38259,-8.04552e-05,-1.95751e-05,0.506172,0.5819258544330697,0.4660768153335131,-8.045196356720741e-05,-0.1847471757141722,-1.957490840898135e-05,-0.223227683101211
678,0.6661,862.039,62.0007,0.0245076,231.246,-0.059724,-0.00661735,0.459183,-0.204499,-0.252906,0.383041,-8.09653e-05,-1.93707e-05,0.506772,0.5827803250807746,0.466738165100391,-8.096202239860073e-05,-0.1849444430273418,-1.9370512389205174e-05,-0.22345912676482815
679,0.6671,862.255,62.1034,-0.00681987,231.296,-0.0329163,-0.0249156,0.459723,-0.20474,-0.253205,0.383491,-8.0644e-05,-1.96339e-05,0.507372,0.5836352572672339,0.46739834580420414,-8.064074836000579e-05,-0.18514084774885264,-1.9633707256216937e-05,-0.22369127777761955
680,0.6681,862.422,62.0297,0.023966,231.349,-0.0592992,-0.00692467,0.460262,-0.204981,-0.253502,0.383942,-8.11406e-05,-1.94371e-05,0.507971,0.584489066751886,0.4680602917157448,-8.113730819059306e-05,-0.18533720514252883,-1.9436911100845222e-05,-0.22392180723280086
681,0.6691,862.636,62.1294,-0.00633805,231.398,-0.0333834,-0.0246191,0.460801,-0.205221,-0.253801,0.384392,-8.08327e-05,-1.96925e-05,0.50857,0.5853433365638978,0.4687210675104201,-8.082943312537338e-05,-0.18553270075288297,-1.9692306103991086e-05,-0.22415381992481231
682,0.6701,862.803,62.0586,0.023412,231.451,-0.0588646,-0.00723911,0.46134,-0.205462,-0.254098,0.384842,-8.13154e-05,-1.95035e-05,0.509169,0.5861980669514522,0.4693821407211165,-8.1312093992425e-05,-0.18572896372136394,-1.9503309807933356e-05,-0.22438421202537417
683,0.6711,863.015,62.1552,-0.00584477,231.5,-0.0338597,-0.0243162,0.461878,-0.205702,-0.254396,0.385292,-8.10214e-05,-1.9751e-05,0.509768,0.5870516711104015,0.4700435114817014,-8.10181178549918e-05,-0.18592436532094092,-1.9750804950313672e-05,-0.2246153110947191
684,0.6721,863.183,62.0875,0.0228481,231.553,-0.0584221,-0.0075592,0.462416,-0.205943,-0.254693,0.385741,-8.149e-05,-1.95699e-05,0.510366,0.5879057346319458,0.47070370922165794,-8.148667978014057e-05,-0.18612053390963423,-1.956970851080264e-05,-0.2248455661527553
685,0.6731,863.394,62.1809,-0.00534254,231.602,-0.0343431,-0.0240085,0.462954,-0.206183,-0.25499,0.38619,-8.12099e-05,-1.98093e-05,0.510964,0.5887602577632889,0.47136420345695806,-8.120660256538681e-05,-0.18631584154364234,-1.98091037970638e-05,-0.22507575283519354
686,0.6741,863.562,62.1163,0.0222769,231.655,-0.0579739,-0.00788351,0.463491,-0.206423,-0.255287,0.386639,-8.16642e-05,-1.96363e-05,0.511561,0.5896136511373209,0.47202499432075773,-8.166086556993246e-05,-0.18651110230944268,-1.9636107209120013e-05,-0.22530587116233836
687,0.6751,863.772,62.2066,-0.00483378,231.704,-0.0348316,-0.0236973,0.464028,-0.206662,-0.255584,0.387088,-8.13983e-05,-1.98675e-05,0.512158,0.590467502906663,0.4726860819462735,-8.139498724824001e-05,-0.18670550292419197,-1.9867302642473383e-05,-0.22553592115448817
688,0.6761,863.94,62.145,0.0217006,231.756,-0.057522,-0.00821065,0.464565,-0.206903,-0.255881,0.387536,-8.18382e-05,-1.97027e-05,0.512755,0.5913218133175395,0.473345993120051,-8.183485134583002e-05,-0.18690148328140554,-1.9702505903107514e-05,-0.22576590283193576
689,0.6771,864.148,62.2321,-0.00432084,231.805,-0.0353231,-0.023384,0.465101,-0.207142,-0.256177,0.387984,-8.15865e-05,-1.99257e-05,0.513351,0.5921749904405205,0.47400620000026783,-8.158317191198083e-05,-0.18709579060625114,-1.99255014845523e-05,-0.22599504221039646
690,0.6781,864.316,62.1736,0.0211216,231.857,-0.0570685,-0.00853925,0.465637,-0.207382,-0.256473,0.388432,-8.20118e-05,-1.9769e-05,0.513947,0.5930286249890184,0.4746667027194298,-8.200843712424799e-05,-0.18729086420673724,-1.976880459464425e-05,-0.22622411377363827
691,0.6791,864.523,62.2576,-0.00380602,231.906,-0.0358157,-0.02307,0.466173,-0.20762,-0.25677,0.388879,-8.17745e-05,-1.99837e-05,0.514543,0.5938827172082792,0.47532602608333896,-8.177115655672029e-05,-0.18748426596533374,-1.998350032716978e-05,-0.22645389108822722
692,0.6801,864.692,62.2022,0.0205422,231.958,-0.0566152,-0.00886803,0.466709,-0.20786,-0.257065,0.389326,-8.21853e-05,-1.98352e-05,0.515138,0.5947372673436802,0.47598564423067113,-8.21819228807863e-05,-0.18767924634292088,-1.9835003283730224e-05,-0.2266820535347407
693,0.6811,864.897,62.283,-0.00329149,232.006,-0.0363076,-0.0227565,0.467244,-0.208099,-0.257361,0.389773,-8.19623e-05,-2.00417e-05,0.515733,0.5955906800492521,0.47664555729322355,-8.195894118245839e-05,-0.18787336780460628,-2.004149916645659e-05,-0.2269109217727242
694,0.6821,865.066,62.2307,0.0199644,232.058,-0.0561639,-0.00919574,0.467779,-0.208338,-0.257657,0.39022,-8.23586e-05,-1.99013e-05,0.516327,0.5964445494527773,0.4773057654028532,-8.235520862365231e-05,-0.188067442876806,-1.9901101970476454e-05,-0.22713972227573442
695,0.6831,865.27,62.3083,-0.00277935,232.106,-0.0367969,-0.0224446,0.468313,-0.208576,-0.257952,0.390667,-8.21498e-05,-2.00997e-05,0.516922,0.5972972785005775,0.4779662686914754,-8.214642579762454e-05,-0.18826065983167162,-2.009949800241273e-05,-0.22736768243188687
696,0.6841,865.44,62.259,0.0193903,232.158,-0.0557164,-0.0095212,0.468847,-0.208815,-0.258247,0.391113,-8.25317e-05,-1.99673e-05,0.517515,0.5981504630272911,0.4786255886647368,-8.252829435295705e-05,-0.18845464235213727,-1.996710065477192e-05,-0.22759557534971142
697,0.6851,865.642,62.3335,-0.00227155,232.206,-0.0372821,-0.0221357,0.469381,-0.209053,-0.258543,0.391559,-8.23371e-05,-2.01576e-05,0.518109,0.5990041032762092,0.4792852027602905,-8.233371039401138e-05,-0.18864776716449316,-2.0157396836917307e-05,-0.22782417322525328
698,0.6861,865.812,62.2873,0.0188219,232.258,-0.0552743,-0.00984331,0.469915,-0.209292,-0.258837,0.392004,-8.27047e-05,-2.00333e-05,0.518702,0.5998581994907521,0.4799436311649736,-8.270128006060418e-05,-0.18884165717736145,-2.0033099334737514e-05,-0.22805115954970034
699,0.6871,866.013,62.3587,-0.00176996,232.306,-0.0377615,-0.0218307,0.470448,-0.20953,-0.259132,0.39245,-8.25241e-05,-2.02155e-05,0.519295,0.600711151202519,0.4806038332385918,-8.252069498015935e-05,-0.18903468989114902,-2.0215295668202238e-05,-0.2282788508715119
700,0.6881,866.182,62.3155,0.0182608,232.357,-0.054839,-0.010161,0.470981,-0.209768,-0.259427,0.392895,-8.28775e-05,-2.0099e-05,0.519887,0.6015645576587267,0.4812628485644179,-8.287406575491207e-05,-0.1892276766686175,-2.0098798016454644e-05,-0.2285064750342901
701,0.6891,866.382,62.3838,-0.00127629,232.406,-0.0382338,-0.0215306,0.471513,-0.210005,-0.259721,0.39334,-8.27108e-05,-2.02734e-05,0.520479,0.6024168166842012,0.48192215721732423,-8.270737955606844e-05,-0.18941980694091043,-2.0273194496045477e-05,-0.22873326079149015
702,0.6901,866.552,62.3436,0.0177088,232.456,-0.0544121,-0.0104734,0.472046,-0.210243,-0.260015,0.393784,-8.30503e-05,-2.01647e-05,0.521071,0.6032711325024345,0.4825802767468528,-8.304685141935497e-05,-0.18961270207142744,-2.0164496693841905e-05,-0.22895997988347794
703,0.6911,866.751,62.4089,-0.000792101,232.505,-0.0386975,-0.0212364,0.472578,-0.210481,-0.260309,0.394229,-8.28971e-05,-2.03313e-05,0.521662,0.6041242996672693,0.48324017178576173,-8.289366413039012e-05,-0.18980555129836618,-2.0331093320558047e-05,-0.22918663232984993
704,0.6921,866.921,62.3715,0.0171673,232.555,-0.0539947,-0.0107796,0.473109,-0.210718,-0.260603,0.394673,-8.3223e-05,-2.02302e-05,0.522254,0.6049763158606722,0.4838988766436918,-8.321953706225127e-05,-0.18999754463059992,-2.022999537087955e-05,-0.22941321815019733
705,0.6931,867.118,62.4339,-0.000318846,232.603,-0.0391516,-0.0209488,0.473641,-0.210955,-0.260897,0.395117,-8.30831e-05,-2.03892e-05,0.522844,0.6058303904244005,0.48455787403151573,-8.3079648694806e-05,-0.19018949246580552,-2.0388992141628925e-05,-0.22963973736410503
706,0.6941,867.289,62.3993,0.0166377,232.654,-0.0535881,-0.0110788,0.474172,-0.211193,-0.26119,0.39556,-8.33957e-05,-2.02955e-05,0.523435,0.6066833127925637,0.485215678862724,-8.339222267528257e-05,-0.19038220443296483,-2.0295294047678603e-05,-0.22986541985695763
707,0.6951,867.484,62.4589,0.000142189,232.702,-0.0395948,-0.0206687,0.474702,-0.21143,-0.261484,0.396003,-8.32687e-05,-2.04471e-05,0.524025,0.6075350806468867,0.4858737751660287,-8.326523325807855e-05,-0.1905740611145995,-2.0446890959480157e-05,-0.23009180614310498
708,0.6961,867.655,62.4271,0.0161212,232.752,-0.0531931,-0.0113703,0.475233,-0.211667,-0.261777,0.396446,-8.35683e-05,-2.03607e-05,0.524614,0.6083889084459286,0.4865321630705808,-8.356480826687829e-05,-0.19076587233158826,-2.0360492722359957e-05,-0.23031735619920823
709,0.6971,867.849,62.4838,0.000589859,232.8,-0.0400264,-0.0203967,0.475763,-0.211903,-0.26207,0.396889,-8.34539e-05,-2.05051e-05,0.525204,0.6092415805055411,0.4871908427055882,-8.345041782020779e-05,-0.19095682905193878,-2.050488977189957e-05,-0.23054284017882576
710,0.6981,868.02,62.4547,0.015619,232.85,-0.0528108,-0.0116535,0.476293,-0.21214,-0.262362,0.397332,-8.3741e-05,-2.04257e-05,0.525792,0.6100947046011242,0.48784981420031603,-8.373749382029061e-05,-0.19114854956367533,-2.042549139680272e-05,-0.23076748886918852
711,0.6991,868.214,62.5087,0.00102316,232.898,-0.0404454,-0.0201333,0.476822,-0.212376,-0.262655,0.397774,-8.36388e-05,-2.05632e-05,0.526381,0.6109466700248449,0.4885075891757533,-8.363530237309735e-05,-0.19133941598285498,-2.0562988578887165e-05,-0.23099284097925354
712,0.7001,868.385,62.4822,0.0151318,232.948,-0.0524419,-0.0119278,0.477351,-0.212613,-0.262948,0.398216,-8.39136e-05,-2.04905e-05,0.526969,0.6117990862575031,0.48916565495199205,-8.391007935237838e-05,-0.1915310458322329,-2.049029007111791e-05,-0.23121812707082245
713,0.7011,868.577,62.5336,0.00144125,232.995,-0.0408512,-0.0198791,0.47788,-0.212849,-0.26324,0.398658,-8.38232e-05,-2.06212e-05,0.527557,0.61265195353764,0.4898240116575945,-8.381968693371711e-05,-0.19172182199294419,-2.0620987384534217e-05,-0.23144257860619877
714,0.7021,868.748,62.5095,0.0146605,233.045,-0.052087,-0.0121929,0.478409,-0.213085,-0.263532,0.399099,-8.40862e-05,-2.05551e-05,0.528145,0.6135052721039227,0.49048116893926563,-8.408266485460114e-05,-0.1919125531357937,-2.0554888745416555e-05,-0.23166696461129466
715,0.7031,868.939,62.5585,0.0018434,233.093,-0.0412431,-0.0196344,0.478937,-0.213321,-0.263824,0.39954,-8.40073e-05,-2.06794e-05,0.528732,0.6143574278369099,0.4911386160912097,-8.400377148554128e-05,-0.1921032392714046,-2.06791861826483e-05,-0.23189128510524226
716,0.7041,869.11,62.5367,0.0142058,233.142,-0.0517466,-0.0124484,0.479465,-0.213557,-0.264116,0.399981,-8.42589e-05,-2.06196e-05,0.529319,0.6152100336269286,0.4917963532412877,-8.425535031852949e-05,-0.1922938804103973,-2.061938741748648e-05,-0.23211554010716784
717,0.7051,869.299,62.5833,0.00222905,233.19,-0.0416208,-0.0193995,0.479992,-0.213792,-0.264407,0.400422,-8.41909e-05,-2.07376e-05,0.529906,0.6160614736493901,0.4924543805174171,-8.418735604565075e-05,-0.1924836690474626,-2.0737384977431716e-05,-0.23233896197553816
718,0.7061,869.471,62.5638,0.0137681,233.239,-0.0514212,-0.0126939,0.48052,-0.214028,-0.264699,0.400862,-8.44316e-05,-2.06838e-05,0.530492,0.6169149794131699,0.4931112049356199,-8.442803575281488e-05,-0.19267422041562154,-2.0683586091641004e-05,-0.23256308627490108
719,0.7071,869.659,62.6081,0.00259775,233.287,-0.0419839,-0.0191748,0.481047,-0.214263,-0.26499,0.401302,-8.43741e-05,-2.07958e-05,0.531078,0.6177673181788588,0.4937683184201569,-8.437054060572713e-05,-0.19286391968328687,-2.0795583768884462e-05,-0.2327863779262841
720,0.7081,869.831,62.5908,0.0133478,233.335,-0.0511111,-0.0129293,0.481573,-0.214498,-0.265281,0.401742,-8.46044e-05,-2.07478e-05,0.531663,0.6186184876261607,0.4944257210982448,-8.460082114869483e-05,-0.193053574376862,-2.0747584765890004e-05,-0.2330096046092499
721,0.7091,870.018,62.6328,0.00294919,233.383,-0.0423321,-0.0189604,0.4821,-0.214733,-0.265572,0.402182,-8.45569e-05,-2.08542e-05,0.532248,0.6194717243772763,0.4950834130971571,-8.455332516610348e-05,-0.19324318450682065,-2.0853982552693218e-05,-0.23323276634270163
722,0.7101,870.19,62.6177,0.0129452,233.432,-0.0508164,-0.0131545,0.482626,-0.214968,-0.265863,0.402621,-8.47771e-05,-2.08117e-05,0.532833,0.6203237905780641,0.49573989880357594,-8.477350652325022e-05,-0.1934327500836338,-2.0811483438021305e-05,-0.2334558631455368
723,0.7111,870.376,62.6576,0.00328316,233.479,-0.0426654,-0.0187564,0.483152,-0.215203,-0.266153,0.403061,-8.47393e-05,-2.09126e-05,0.533418,0.6211763050835672,0.4963981691679096,-8.473570972689082e-05,-0.19362227111777053,-2.091238133306028e-05,-0.23367812871515925
724,0.7121,870.548,62.6444,0.0125604,233.528,-0.0505373,-0.0133693,0.483677,-0.215438,-0.266444,0.403499,-8.495e-05,-2.08753e-05,0.534002,0.6220276461011989,0.49705373512446904,-8.494639185097075e-05,-0.19381174761969677,-2.0875082112459253e-05,-0.23390109593639907
725,0.7131,870.733,62.6823,0.0035996,233.575,-0.0429836,-0.0185629,0.484202,-0.215672,-0.266734,0.403938,-8.49212e-05,-2.0971e-05,0.534586,0.6228794341902109,0.4977110859921472,-8.491759429696266e-05,-0.19400037360065336,-2.0970780110096676e-05,-0.23412323240723243
726,0.7141,870.904,62.671,0.0121935,233.623,-0.0502737,-0.0135738,0.484727,-0.215907,-0.267024,0.404376,-8.51228e-05,-2.09388e-05,0.535169,0.6237316695853772,0.4983672271322317,-8.51191771572557e-05,-0.19418976125893572,-2.0938580784890526e-05,-0.23434530446782909
727,0.7151,871.088,62.7069,0.00389852,233.671,-0.0432869,-0.0183797,0.485251,-0.216141,-0.267314,0.404815,-8.51028e-05,-2.10296e-05,0.535752,0.6245827279380549,0.49902515474948816,-8.509917885946017e-05,-0.1943782987950492,-2.102937887948908e-05,-0.23456731213686555
728,0.7161,871.26,62.6975,0.0118443,233.719,-0.0500255,-0.0137679,0.485776,-0.216375,-0.267604,0.405252,-8.52958e-05,-2.10021e-05,0.536335,0.6254358577972152,0.4996803718966334,-8.529216241670579e-05,-0.19456679221854045,-2.1001879457416273e-05,-0.23478925543301243
729,0.7171,871.443,62.7316,0.00418004,233.766,-0.0435753,-0.0182069,0.4863,-0.216609,-0.267893,0.40569,-8.52839e-05,-2.10882e-05,0.536918,0.6262878093785214,0.5003373757728693,-8.528026343157524e-05,-0.1947552415397309,-2.1087977645439793e-05,-0.2350103693856872
730,0.7181,871.615,62.7238,0.0115127,233.814,-0.0497927,-0.013952,0.486823,-0.216843,-0.268183,0.406127,-8.54688e-05,-2.10651e-05,0.5375,0.6271385803600455,0.5009931664859166,-8.546514764617985e-05,-0.19494364676893905,-2.1064878132359688e-05,-0.23523218421386072
731,0.7191,871.797,62.7562,0.00444438,233.861,-0.0438491,-0.0180443,0.487347,-0.217077,-0.268472,0.406565,-8.54646e-05,-2.11468e-05,0.538081,0.6279914244017788,0.5016507454921271,-8.546094800510051e-05,-0.19513200791648133,-2.1146576407948814e-05,-0.2354531701786129
732,0.7201,871.968,62.75,0.0111984,233.909,-0.049575,-0.014126,0.48787,-0.21731,-0.268761,0.407001,-8.56418e-05,-2.1128e-05,0.538663,0.628843086606995,0.5023056079668073,-8.563813284578892e-05,-0.19531952031259436,-2.112777680540745e-05,-0.2356740922876489
733,0.7211,872.149,62.7808,0.00469182,233.956,-0.0441085,-0.0178917,0.488392,-0.217544,-0.26905,0.407438,-8.56449e-05,-2.12056e-05,0.539244,0.6296935646536621,0.5029622589852862,-8.564123258025802e-05,-0.19550779351601733,-2.1205375162813844e-05,-0.23589495055942034
734,0.7221,872.321,62.7761,0.0109011,234.003,-0.049372,-0.0142901,0.488915,-0.217777,-0.269339,0.407874,-8.58149e-05,-2.11907e-05,0.539825,0.6305461173110627,0.5036176934045244,-8.58112180067705e-05,-0.19569521836428538,-2.119047547866071e-05,-0.23611574501237342
735,0.7231,872.501,62.8054,0.00492273,234.05,-0.044354,-0.0177489,0.489437,-0.21801,-0.269627,0.40831,-8.58249e-05,-2.12644e-05,0.540405,0.6313974845718222,0.5042734136554758,-8.582121714861835e-05,-0.19588259954765086,-2.1264173914237183e-05,-0.23633571200104309
736,0.7241,872.672,62.8021,0.0106205,234.098,-0.0491835,-0.0144447,0.489958,-0.218243,-0.269916,0.408746,-8.5988e-05,-2.12532e-05,0.540985,0.6322476641138235,0.5049294198627909,-8.598430313788707e-05,-0.19606993707628662,-2.125297415234151e-05,-0.23655637909234428
737,0.7251,872.852,62.83,0.00513752,234.144,-0.0445858,-0.0176157,0.49048,-0.218476,-0.270204,0.409182,-8.60044e-05,-2.13232e-05,0.541565,0.6330999198138767,0.5055857121511733,-8.600070172759544e-05,-0.19625723096036307,-2.132297266221883e-05,-0.23677621919667113
738,0.7261,873.023,62.828,0.010356,234.192,-0.049009,-0.01459,0.491001,-0.218709,-0.270492,0.409617,-8.61612e-05,-2.13156e-05,0.542144,0.6339509865557347,0.5062407844038443,-8.615748823037617e-05,-0.1964444812100481,-2.1315372824237677e-05,-0.23699599599616428
739,0.7271,873.201,62.8545,0.00533667,234.238,-0.0448044,-0.0174917,0.491522,-0.218941,-0.27078,0.410052,-8.61836e-05,-2.13821e-05,0.542724,0.6348024968188926,0.5068961416749325,-8.617988630021944e-05,-0.19663088446679344,-2.1381871404546615e-05,-0.2372157095090528
740,0.7281,873.372,62.8537,0.0101072,234.285,-0.048848,-0.0147263,0.492043,-0.219174,-0.271067,0.410487,-8.63344e-05,-2.13777e-05,0.543302,0.635654450834485,0.5075517840884474,-8.633067329288924e-05,-0.19681804766535338,-2.1377471498551515e-05,-0.2374345971885392
741,0.7291,873.55,62.879,0.00552072,234.332,-0.0450102,-0.0173767,0.492563,-0.219406,-0.271355,0.410922,-8.63624e-05,-2.14411e-05,0.543881,0.6365052123277366,0.5082077117684529,-8.635867087525284e-05,-0.19700436426473378,-2.1440870141220536e-05,-0.23765418440247232
742,0.7301,873.721,62.8794,0.00987349,234.379,-0.0487002,-0.0148539,0.493083,-0.219639,-0.271642,0.411356,-8.65076e-05,-2.14397e-05,0.544459,0.6373564163320076,0.508862415975897,-8.650385832542629e-05,-0.1971914404526378,-2.1439470171302766e-05,-0.23787294625772104
743,0.7311,873.898,62.9035,0.00569022,234.425,-0.0452038,-0.0172704,0.493603,-0.219871,-0.27193,0.41179,-8.65408e-05,-2.15001e-05,0.545037,0.6382080630774638,0.5095174043866348,-8.65370554530287e-05,-0.1973776704349396,-2.1499868874452766e-05,-0.23809240724529968
744,0.7321,874.068,62.9049,0.00965432,234.472,-0.048565,-0.0149732,0.494122,-0.220103,-0.272217,0.412224,-8.66809e-05,-2.15015e-05,0.545614,0.6390585137350566,0.5101726771240371,-8.667714331933585e-05,-0.19756385721689684,-2.1501268844370536e-05,-0.23831104334863873
745,0.7331,874.244,62.9279,0.00584576,234.518,-0.0453857,-0.0171723,0.494641,-0.220334,-0.272504,0.412657,-8.67189e-05,-2.15592e-05,0.546191,0.6399094058910999,0.51082672348405,-8.671514002489555e-05,-0.19774919855813067,-2.1558967602142154e-05,-0.23852961671241968
746,0.7341,874.415,62.9303,0.00944908,234.565,-0.0484418,-0.0150845,0.49516,-0.220566,-0.27279,0.413091,-8.68541e-05,-2.15632e-05,0.546768,0.6407607397747905,0.5114825645892676,-8.685032829180983e-05,-0.19793529915556118,-2.156296751587572e-05,-0.2387473661023929
747,0.7351,874.59,62.9523,0.00598795,234.611,-0.0455565,-0.0170821,0.495678,-0.220798,-0.273077,0.413524,-8.68967e-05,-2.16183e-05,0.547344,0.6416108740037498,0.5121371782533652,-8.689292459107545e-05,-0.19812135658266095,-2.161806632627883e-05,-0.23896581425951147
748,0.7361,874.76,62.9556,0.00925714,234.658,-0.0483303,-0.0151882,0.496196,-0.221029,-0.273363,0.413957,-8.70274e-05,-2.16247e-05,0.54792,0.6424614487163154,0.5127920754265549,-8.702361322565633e-05,-0.19830656915641454,-2.1624466187808444e-05,-0.2391834389148242
749,0.7371,874.935,62.9767,0.00611745,234.704,-0.0457166,-0.0169995,0.496714,-0.22126,-0.27365,0.414389,-8.70741e-05,-2.16774e-05,0.548496,0.6433124641407162,0.5134457427851227,-8.707030916055292e-05,-0.1984917389510047,-2.167716504686279e-05,-0.23940176193700335
750,0.7381,875.105,62.9808,0.00907787,234.75,-0.0482296,-0.0152846,0.497232,-0.221492,-0.273936,0.414821,-8.72007e-05,-2.16861e-05,0.549072,0.6441639205053007,0.5140996925889934,-8.719689812941578e-05,-0.1986776672990458,-2.1685864858178583e-05,-0.23961926192910799
751,0.7391,875.279,63.001,0.00623487,234.796,-0.0458667,-0.016924,0.497749,-0.221723,-0.274222,0.415254,-8.72512e-05,-2.17366e-05,0.549647,0.6450141730235393,0.5147554397148917,-8.724739372478751e-05,-0.1988627513798653,-2.1736363761792887e-05,-0.23983669972510924
752,0.7401,875.448,63.0059,0.0089106,234.842,-0.0481395,-0.0153742,0.498266,-0.221953,-0.274507,0.415685,-8.7374e-05,-2.17473e-05,0.550221,0.6458648652359811,0.5154084400208663,-8.737018300319921e-05,-0.1990469917585922,-2.1747063529198307e-05,-0.24005331539648822
753,0.7411,875.621,63.0253,0.00634088,234.888,-0.0460072,-0.0168553,0.498783,-0.222184,-0.274793,0.416117,-8.7428e-05,-2.17958e-05,0.550796,0.6467159973700065,0.5160632378931123,-8.742417828377924e-05,-0.1992319905353146,-2.1795562473281294e-05,-0.2402706290709481
754,0.7421,875.791,63.0308,0.0087547,234.934,-0.0480592,-0.0154573,0.499299,-0.222415,-0.275078,0.416548,-8.75473e-05,-2.18084e-05,0.55137,0.6475659220863681,0.516716801981588,-8.754346784700662e-05,-0.19941694658225506,-2.1808162198544423e-05,-0.24048712109008474
755,0.7431,875.963,63.0495,0.00643612,234.98,-0.0461389,-0.0167931,0.499815,-0.222645,-0.275364,0.416979,-8.76045e-05,-2.1855e-05,0.551944,0.6484162854770517,0.517370647816898,-8.760066283786117e-05,-0.1996010595107428,-2.1854761181216986e-05,-0.24070431071385634
756,0.7441,876.132,63.0557,0.00860952,235.026,-0.0479882,-0.0155344,0.500331,-0.222876,-0.275649,0.41741,-8.77206e-05,-2.18693e-05,0.552517,0.6492670877684712,0.5180247755205012,-8.771675266061596e-05,-0.19978593031259606,-2.1869060868651147e-05,-0.24092067915133597
757,0.7451,876.304,63.0737,0.00652123,235.071,-0.0462622,-0.0167368,0.500847,-0.223106,-0.275934,0.417841,-8.77808e-05,-2.19143e-05,0.55309,0.6501183291871586,0.5186791852139092,-8.77769473782708e-05,-0.19996995838458465,-2.1914059883498815e-05,-0.24113698593259747
758,0.7461,876.473,63.0805,0.00847442,235.117,-0.0479261,-0.0156057,0.501362,-0.223336,-0.276218,0.418271,-8.78939e-05,-2.19301e-05,0.553663,0.6509683589905768,0.5193323576855684,-8.78900374443603e-05,-0.20015394413498389,-2.1929859537084262e-05,-0.2413524724280619
759,0.7471,876.644,63.0979,0.00659685,235.163,-0.0463777,-0.0166863,0.501877,-0.223566,-0.276503,0.418701,-8.79567e-05,-2.19736e-05,0.554236,0.6518188266720879,0.5199858110817845,-8.795283192286618e-05,-0.20033788757352644,-2.197335858222793e-05,-0.24156865616577394
760,0.7481,876.813,63.1052,0.00834876,235.208,-0.0478721,-0.0156717,0.502391,-0.223796,-0.276787,0.419131,-8.80671e-05,-2.19908e-05,0.554808,0.6526680797883508,0.5206395455233817,-8.806322220678009e-05,-0.2005217887099432,-2.1990558204176835e-05,-0.2417840200842989
761,0.7491,876.983,63.122,0.00666359,235.254,-0.0464859,-0.016641,0.502906,-0.224025,-0.277072,0.419561,-8.81324e-05,-2.20328e-05,0.55538,0.6535194230515156,0.5212935611312353,-8.812851645412234e-05,-0.2007048482592102,-2.2032557279616505e-05,-0.24200008084845348
762,0.7501,877.151,63.1298,0.00823193,235.299,-0.0478259,-0.0157327,0.50342,-0.224255,-0.277356,0.41999,-8.82403e-05,-2.20514e-05,0.555951,0.6543695504990015,0.5219463360791754,-8.823640693922385e-05,-0.20088866500437463,-2.2051156869706823e-05,-0.2422153222597654
763,0.7511,877.321,63.1461,0.00672206,235.345,-0.0465873,-0.0166007,0.503933,-0.224484,-0.27764,0.420419,-8.83079e-05,-2.20921e-05,0.556522,0.655218459805027,0.5225993911276456,-8.83040009721503e-05,-0.20107164054858917,-2.2091855971351215e-05,-0.24243050255119603
764,0.7521,877.489,63.1543,0.00812335,235.39,-0.0477869,-0.0157891,0.504447,-0.224714,-0.277924,0.420848,-8.84135e-05,-2.21119e-05,0.557093,0.656069460781882,0.5232527263968345,-8.84095916416916e-05,-0.20125537294122786,-2.2111655533785246e-05,-0.24264562174010074
765,0.7531,877.658,63.1701,0.00677285,235.435,-0.0466825,-0.016565,0.50496,-0.224943,-0.278207,0.421277,-8.8483e-05,-2.21514e-05,0.557664,0.656919242365603,0.5239063420069827,-8.84790854948081e-05,-0.20143826451893942,-2.2151154659533212e-05,-0.2428599227041316
766,0.7541,877.826,63.1787,0.00802242,235.48,-0.0477547,-0.0158412,0.505473,-0.225172,-0.278491,0.421705,-8.85866e-05,-2.21722e-05,0.558234,0.6577694599991137,0.5245587135189067,-8.858267632305683e-05,-0.20162111421927487,-2.2171954198624277e-05,-0.24307491995502895
767,0.7551,877.995,63.1941,0.00681652,235.525,-0.0467719,-0.0165335,0.505986,-0.225401,-0.278774,0.422133,-8.8658e-05,-2.22107e-05,0.558804,0.6586201139061649,0.5252113643055982,-8.865406999569725e-05,-0.20180392205182285,-2.2210453344273517e-05,-0.24328909944485444
768,0.7561,878.161,63.2031,0.0079286,235.57,-0.0477287,-0.0158893,0.506498,-0.22563,-0.279057,0.422561,-8.87597e-05,-2.22325e-05,0.559373,0.6594695448402479,0.5258642944866125,-8.875576097433502e-05,-0.20198668802617026,-2.2232252859799573e-05,-0.24350321833046018
769,0.7571,878.33,63.2181,0.0068536,235.615,-0.046856,-0.0165061,0.50701,-0.225858,-0.27934,0.422989,-8.88327e-05,-2.227e-05,0.559942,0.6603194107943247,0.526517504181556,-8.882875449256478e-05,-0.2021686143209146,-2.2269752025350087e-05,-0.24371727662899478
770,0.7581,878.496,63.2273,0.00784136,235.66,-0.0477086,-0.0159337,0.507521,-0.226087,-0.279623,0.423416,-8.89328e-05,-2.22926e-05,0.560511,0.6611680508223012,0.5271694663398565,-8.892884559574821e-05,-0.20235129679029407,-2.22923515218465e-05,-0.24393127435760187
771,0.7591,878.664,63.2419,0.00688463,235.705,-0.0469353,-0.0164823,0.508033,-0.226315,-0.279906,0.423843,-8.90073e-05,-2.23292e-05,0.56108,0.6620187866341054,0.5278217069454427,-8.900333896777468e-05,-0.20253313996371636,-2.232895070530816e-05,-0.2441452115334205
772,0.7601,878.83,63.2515,0.00776019,235.75,-0.0476938,-0.0159748,0.508544,-0.226544,-0.280188,0.42427,-8.91057e-05,-2.23527e-05,0.561648,0.6628682952650453,0.528474226117237,-8.910173020504342e-05,-0.2027157389662808,-2.2352450180229688e-05,-0.2443583325322949
773,0.7611,878.998,63.2658,0.00691009,235.795,-0.0470101,-0.0164618,0.509055,-0.226772,-0.28047,0.424697,-8.91816e-05,-2.23885e-05,0.562216,0.6637182381058269,0.529127023974213,-8.917762343929603e-05,-0.2028974990563589,-2.2388249379390324e-05,-0.24457139343952095
774,0.7621,879.163,63.2756,0.0076846,235.839,-0.047684,-0.0160128,0.509565,-0.227,-0.280753,0.425123,-8.92787e-05,-2.24127e-05,0.562784,0.6645669508106047,0.5297785708560583,-8.92747147754891e-05,-0.20307921770986037,-2.2412448837272336e-05,-0.24478514948727015
775,0.7631,879.33,63.2896,0.00693044,235.884,-0.047081,-0.0164445,0.510076,-0.227228,-0.281035,0.425549,-8.93557e-05,-2.24478e-05,0.563351,0.665417761886185,0.5304303953560041,-8.935170789836633e-05,-0.20326089493623167,-2.2447548050030797e-05,-0.24499809004908435
776,0.7641,879.495,63.2996,0.00761415,235.928,-0.0476789,-0.016048,0.510586,-0.227455,-0.281316,0.425975,-8.94515e-05,-2.24726e-05,0.563918,0.6662673415691514,0.5310824975923403,-8.94474993338168e-05,-0.20344173418704958,-2.2472347492974443e-05,-0.24521021578071944
777,0.7651,879.662,63.3133,0.00694613,235.973,-0.0471482,-0.0164301,0.511095,-0.227683,-0.281598,0.426401,-8.95296e-05,-2.2507e-05,0.564485,0.6671156875317417,0.5317348776834081,-8.952559234498558e-05,-0.20362332876908595,-2.2506746719330728e-05,-0.24542303649073882
778,0.7661,879.827,63.3235,0.0075484,236.017,-0.0476779,-0.0160806,0.511605,-0.22791,-0.28188,0.426827,-8.96243e-05,-2.25324e-05,0.565051,0.6679661333776403,0.5323875357475987,-8.962028386239052e-05,-0.20380408575676112,-2.2532146147336007e-05,-0.24563579719377937
779,0.7671,879.992,63.337,0.00695757,236.062,-0.047212,-0.0164182,0.512114,-0.228138,-0.282161,0.427252,-8.97034e-05,-2.25662e-05,0.565617,0.6688153442453608,0.5330389388636487,-8.969937677028028e-05,-0.20398559773205704,-2.2565945385188968e-05,-0.2458477437548814
780,0.7681,880.157,63.3473,0.00748695,236.106,-0.0476809,-0.0161109,0.512622,-0.228365,-0.282442,0.427677,-8.9797e-05,-2.25921e-05,0.566183,0.6696633178072862,0.5336906188848611,-8.979296837008377e-05,-0.20416627249401054,-2.2591844800468053e-05,-0.2460596307673668
781,0.7691,880.322,63.3606,0.00696514,236.15,-0.047273,-0.0164087,0.513131,-0.228592,-0.282723,0.428102,-8.98769e-05,-2.26254e-05,0.566748,0.6705133927617728,0.5343425759289457,-8.987286119244153e-05,-0.20434690624744778,-2.2625144047605517e-05,-0.24627145824796637
782,0.7701,880.486,63.3711,0.00742943,236.194,-0.0476875,-0.0161391,0.513639,-0.228819,-0.283004,0.428526,-8.99697e-05,-2.26517e-05,0.567313,0.6713622291514842,0.5349932751196196,-8.996565284791203e-05,-0.20452749900167655,-2.2651443452148534e-05,-0.24648322621340601
783,0.7711,880.651,63.3842,0.00696922,236.238,-0.0473313,-0.0164015,0.514147,-0.229046,-0.283285,0.42895,-9.00503e-05,-2.26846e-05,0.567878,0.6722114968596273,0.5356442502652488,-9.004624559338925e-05,-0.20470805076600262,-2.268434270635833e-05,-0.24669493468040737
784,0.7721,880.815,63.3948,0.00737548,236.282,-0.0476974,-0.0161653,0.514655,-0.229273,-0.283566,0.429374,-9.01423e-05,-2.27113e-05,0.568442,0.6730611961053674,0.5362955014828628,-9.013823730497084e-05,-0.20488856154972956,-2.2711042100387324e-05,-0.24690658366568707
785,0.7731,880.979,63.4077,0.00697014,236.326,-0.0473872,-0.0163962,0.515162,-0.229499,-0.283846,0.429798,-9.02236e-05,-2.27438e-05,0.569006,0.6739096531974911,0.536947028889541,-9.02195299734565e-05,-0.20506823643079308,-2.2743541361780473e-05,-0.24711742030375394
786,0.7741,881.142,63.4184,0.00732478,236.37,-0.0477103,-0.0161899,0.515669,-0.229726,-0.284126,0.430222,-9.03148e-05,-2.27708e-05,0.56957,0.6747585405664265,0.5375988326024124,-9.03107217412602e-05,-0.20524866546165355,-2.2770540747285573e-05,-0.24732819791582605
787,0.7751,881.306,63.4311,0.00696821,236.414,-0.0474411,-0.0163927,0.516176,-0.229952,-0.284407,0.430645,-9.03967e-05,-2.28029e-05,0.570134,0.6756078584303791,0.538249374488512,-9.039261434140577e-05,-0.20542825896842842,-2.2802640015862075e-05,-0.24753966897913582
788,0.7761,881.469,63.442,0.00727702,236.458,-0.0477261,-0.0162129,0.516683,-0.230178,-0.284687,0.431068,-9.04872e-05,-2.28303e-05,0.570697,0.6764576070076653,0.5389001916120382,-9.048310615678012e-05,-0.205607811891657,-2.2830039390631107e-05,-0.2477503283781295
789,0.7771,881.632,63.4545,0.00696372,236.502,-0.0474931,-0.0163908,0.517189,-0.230404,-0.284966,0.431491,-9.05696e-05,-2.2862e-05,0.57126,0.6773061092097645,0.5395512840894408,-9.056549869757013e-05,-0.20578732424051005,-2.2861738666501985e-05,-0.24796017676130133
790,0.7781,881.795,63.4654,0.00723193,236.545,-0.0477443,-0.0162345,0.517695,-0.23063,-0.285246,0.431913,-9.06596e-05,-2.28896e-05,0.571822,0.6781550408626198,0.5402011118353371,-9.065549054265709e-05,-0.20596679602415624,-2.2889338035070317e-05,-0.24817071843459837
791,0.7791,881.958,63.4778,0.00695694,236.589,-0.0475435,-0.0163905,0.5182,-0.230856,-0.285525,0.432336,-9.07424e-05,-2.29211e-05,0.572384,0.6790027231800255,0.5408527547183968,-9.073828303296505e-05,-0.20614622725176235,-2.2920837313589182e-05,-0.2483804495453047
792,0.7801,882.12,63.4888,0.00718925,236.633,-0.047765,-0.0162549,0.518706,-0.231082,-0.285805,0.432758,-9.08318e-05,-2.2949e-05,0.572946,0.6798525135367834,0.5415031318008006,-9.082767491697119e-05,-0.20632561793249304,-2.294873667374464e-05,-0.24859087355869536
793,0.7811,882.282,63.5011,0.00694811,236.676,-0.0475926,-0.0163914,0.519211,-0.231307,-0.286084,0.43318,-9.09151e-05,-2.29802e-05,0.573508,0.6807010532943749,0.5421537834002521,-9.091096734759052e-05,-0.20650417458008208,-2.2979935957234687e-05,-0.24880048746247319
794,0.7821,882.444,63.5122,0.00714875,236.72,-0.0477877,-0.0162742,0.519716,-0.231533,-0.286363,0.433601,-9.1004e-05,-2.30082e-05,0.574069,0.6815500216727617,0.5428031668286839,-9.099985926164234e-05,-0.20668348437385708,-2.3007935313401617e-05,-0.24901004289212936
795,0.7831,882.606,63.5244,0.00693745,236.763,-0.0476404,-0.0163936,0.52022,-0.231758,-0.286642,0.434023,-9.10876e-05,-2.30392e-05,0.57463,0.6823977364898746,0.5434543671586911,-9.10834516505421e-05,-0.2068619605105546,-2.3038934599650673e-05,-0.24921953986397594
796,0.7841,882.767,63.5355,0.0071102,236.806,-0.0478125,-0.0162925,0.520724,-0.231983,-0.286921,0.434444,-9.11762e-05,-2.30674e-05,0.575191,0.6832458786629394,0.5441042982481596,-9.11720435765595e-05,-0.20704039649463868,-2.3067133949616903e-05,-0.24942897839432032
797,0.7851,882.928,63.5475,0.00692518,236.85,-0.0476873,-0.0163969,0.521228,-0.232208,-0.287199,0.434865,-9.126e-05,-2.30982e-05,0.575751,0.6840944484073987,0.5447545030162224,-9.125583593283526e-05,-0.20721879233514273,-2.3097933238624968e-05,-0.24963760813744884
798,0.7861,883.089,63.5587,0.00707341,236.893,-0.047839,-0.01631,0.521732,-0.232433,-0.287477,0.435286,-9.13482e-05,-2.31266e-05,0.576311,0.6849434459388022,0.5454049815781219,-9.134402788024687e-05,-0.207397148041098,-2.3126332582279474e-05,-0.2498461798895698
799,0.7871,883.25,63.5706,0.00691148,236.936,-0.0477332,-0.0164012,0.522235,-0.232658,-0.287756,0.435706,-9.14323e-05,-2.31571e-05,0.576871,0.6857911856807808,0.5460541879941887,-9.142812019469204e-05,-0.20757546362153367,-2.3156831876480766e-05,-0.25005544361173393
800,0.7881,883.411,63.5818,0.00703819,236.979,-0.0478672,-0.0163267,0.522738,-0.232883,-0.288034,0.436126,-9.15201e-05,-2.31856e-05,0.57743,0.6866393519431104,0.5467036671342183,-9.151591216338684e-05,-0.20775373908547712,-2.318533121603572e-05,-0.25026389922173753
801,0.7891,883.571,63.5937,0.00689651,237.022,-0.0477785,-0.0164064,0.523241,-0.233107,-0.288312,0.436546,-9.16045e-05,-2.32161e-05,0.577989,0.6874879449403848,0.5473534191127787,-9.16003044358904e-05,-0.2079311823735317,-2.3215830508460655e-05,-0.25047229688913597
802,0.7901,883.731,63.6049,0.0070044,237.065,-0.047897,-0.0163428,0.523744,-0.233332,-0.28859,0.436966,-9.1692e-05,-2.32447e-05,0.578548,0.6883369648873057,0.5480034440444865,-9.168779641699487e-05,-0.20810937780975935,-2.324442984402708e-05,-0.25068063663003504
803,0.7911,883.891,63.6167,0.00688043,237.108,-0.0478232,-0.0164124,0.524246,-0.233556,-0.288867,0.437386,-9.17765e-05,-2.3275e-05,0.579106,0.6891847228131154,0.5486537420440056,-9.177228866585896e-05,-0.20828674144366133,-2.3274729139322048e-05,-0.25088816934908
804,0.7921,884.051,63.6279,0.00697188,237.151,-0.0479282,-0.0163583,0.524748,-0.23378,-0.289145,0.437805,-9.18638e-05,-2.33037e-05,0.579664,0.6900329064202406,0.5493027639225103,-9.185958065027755e-05,-0.20846406535255868,-2.3303428470899945e-05,-0.25109639349350377
805,0.7931,884.211,63.6396,0.00686338,237.194,-0.0478674,-0.0164191,0.52525,-0.234004,-0.289422,0.438224,-9.19485e-05,-2.33338e-05,0.580222,0.6908815159224277,0.5499520577981616,-9.194427286618456e-05,-0.20864134954534885,-2.333352776895392e-05,-0.25130381106384636
806,0.7941,884.37,63.6508,0.00694049,237.236,-0.0479607,-0.0163734,0.525751,-0.234228,-0.289699,0.438643,-9.20355e-05,-2.33626e-05,0.58078,0.6917288598038234,0.55060162378495,-9.20312648633459e-05,-0.20881859403092717,-2.336232709654329e-05,-0.2515111711874787
807,0.7951,884.529,63.6625,0.00684549,237.279,-0.0479113,-0.0164264,0.526252,-0.234452,-0.289976,0.439062,-9.21203e-05,-2.33926e-05,0.581337,0.6925766283108636,0.5512514619969142,-9.211605705550241e-05,-0.20899579881818708,-2.3392326395255125e-05,-0.2517184738803113
808,0.7961,884.688,63.6737,0.00691012,237.322,-0.0479944,-0.016388,0.526753,-0.234676,-0.290253,0.43948,-9.22072e-05,-2.34215e-05,0.581894,0.693424821656339,0.5519000206473437,-9.220294904677129e-05,-0.20917296391602014,-2.3421225718855965e-05,-0.25192571915825024
809,0.7971,884.847,63.6853,0.00682687,237.364,-0.047955,-0.0164344,0.527254,-0.234899,-0.29053,0.439898,-9.22921e-05,-2.34514e-05,0.58245,0.6942734400531467,0.5525488504519562,-9.22878412151773e-05,-0.20934929868300955,-2.3451125018114638e-05,-0.2521329070371975
810,0.7981,885.005,63.6965,0.00688066,237.407,-0.0480292,-0.0164023,0.527754,-0.235123,-0.290806,0.440316,-9.23788e-05,-2.34804e-05,0.583007,0.6951207885926551,0.5531979515241181,-9.237453321009337e-05,-0.2095263846057408,-2.3480124337615926e-05,-0.2523392898727138
811,0.7991,885.163,63.708,0.00680761,237.449,-0.0479985,-0.0164429,0.528254,-0.235346,-0.291083,0.440734,-9.24637e-05,-2.35102e-05,0.583563,0.6959685609123696,0.5538473239772428,-9.245942536384444e-05,-0.20970264056870336,-2.3509923637421437e-05,-0.25254636320843793
812,0.8001,885.322,63.7192,0.00685202,237.492,-0.0480651,-0.0164162,0.528754,-0.235569,-0.291359,0.441151,-9.25503e-05,-2.35392e-05,0.584118,0.6968167572242328,0.5544954134286006,-9.254601735309009e-05,-0.20987885723096844,-2.353892295525739e-05,-0.2527526319457972
813,0.8011,885.479,63.7307,0.00678781,237.534,-0.0480419,-0.0164519,0.529253,-0.235792,-0.291635,0.441568,-9.26353e-05,-2.35689e-05,0.584674,0.6976636800757654,0.5551437731896154,-9.263100948309066e-05,-0.21005503460129915,-2.356862225560974e-05,-0.25295884376084077
814,0.8021,885.637,63.7419,0.0068241,237.576,-0.048102,-0.01643,0.529752,-0.236015,-0.291911,0.441985,-9.27217e-05,-2.3598e-05,0.585229,0.6985110256472609,0.5557924033730295,-9.271740147598351e-05,-0.21023117268845637,-2.3597721569346142e-05,-0.25316499866927666
815,0.8031,885.794,63.7534,0.00676755,237.619,-0.0480854,-0.0164613,0.530251,-0.236238,-0.292187,0.442402,-9.28068e-05,-2.36276e-05,0.585783,0.699358794149709,0.5564413040916327,-9.280249358212256e-05,-0.21040727150119942,-2.3627320870467372e-05,-0.25337109668680924
816,0.8041,885.952,63.7645,0.00679683,237.661,-0.0481398,-0.0164435,0.53075,-0.236461,-0.292462,0.442818,-9.2893e-05,-2.36567e-05,0.586338,0.700206985794205,0.557088918368565,-9.288868557888463e-05,-0.21058333104828553,-2.3656420182427418e-05,-0.2535763914059027
817,0.8051,886.109,63.7759,0.00674689,237.703,-0.0481289,-0.0164711,0.531248,-0.236683,-0.292738,0.443235,-9.29782e-05,-2.36863e-05,0.586892,0.7010538997371991,0.5577383598466621,-9.297387766116216e-05,-0.21075856209742672,-2.368601948177229e-05,-0.25378237589470765
818,0.8061,886.266,63.7871,0.00677014,237.745,-0.0481785,-0.0164568,0.531746,-0.236906,-0.293013,0.443651,-9.30643e-05,-2.37154e-05,0.587446,0.7019012355483734,0.5583865138110355,-9.305996965236485e-05,-0.21093454331544392,-2.3715118792178025e-05,-0.2539875575275691
819,0.8071,886.422,63.7985,0.00672591,237.787,-0.0481725,-0.0164813,0.532244,-0.237128,-0.293288,0.444067,-9.31495e-05,-2.37449e-05,0.587999,0.7027489934378703,0.5590349374635495,-9.314516171998743e-05,-0.2111096964041157,-2.3744618092069736e-05,-0.25419268274323903
820,0.8081,886.579,63.8096,0.00674397,237.829,-0.0482181,-0.0164701,0.532742,-0.23735,-0.293563,0.444482,-9.32355e-05,-2.3774e-05,0.588552,0.7035971736159374,0.5596820712335664,-9.323115370585278e-05,-0.21128481061311755,-2.3773717400699113e-05,-0.25439775155723043
821,0.8091,886.735,63.8209,0.00670466,237.871,-0.0482163,-0.0164918,0.533239,-0.237572,-0.293838,0.444898,-9.33208e-05,-2.38035e-05,0.589105,0.7044440718480025,0.5603310339500858,-9.331644574961384e-05,-0.2114598859510799,-2.380321669892549e-05,-0.25460276398505133
822,0.8101,886.891,63.8321,0.00671826,237.913,-0.0482584,-0.0164832,0.533736,-0.237794,-0.294113,0.445313,-9.34067e-05,-2.38326e-05,0.589658,0.705291391093102,0.5609787057117701,-9.340233773003082e-05,-0.21163492242663107,-2.383231600588953e-05,-0.254807720042206
823,0.8111,887.047,63.8433,0.00668319,237.954,-0.0482604,-0.0165026,0.534233,-0.238016,-0.294387,0.445727,-9.34919e-05,-2.38621e-05,0.59021,0.7061391315605314,0.5616250846871504,-9.348752976856556e-05,-0.21180992004839772,-2.386181530233955e-05,-0.25501187475644127
824,0.8121,887.202,63.8544,0.00669298,237.996,-0.0482995,-0.0164963,0.534729,-0.238238,-0.294662,0.446142,-9.35777e-05,-2.38912e-05,0.590762,0.7069855864732504,0.5622732935913402,-9.357332174364519e-05,-0.21198487882500416,-2.3890914607527236e-05,-0.2552167183236018
825,0.8131,887.358,63.8657,0.00666153,238.038,-0.0483047,-0.0165137,0.535225,-0.238459,-0.294936,0.446557,-9.3663e-05,-2.39206e-05,0.591314,0.7078324613317439,0.5629217715580517,-9.365861375820739e-05,-0.2121590109244781,-2.3920313904746138e-05,-0.25542076098765953
826,0.8141,887.513,63.8768,0.00666807,238.08,-0.0483413,-0.0165094,0.535721,-0.238681,-0.29521,0.446971,-9.37488e-05,-2.39498e-05,0.591865,0.708679756344357,0.5635689551292322,-9.374440571852105e-05,-0.21233389221151178,-2.3949513205834272e-05,-0.2556247477516861
827,0.8151,887.668,63.8879,0.00663974,238.121,-0.0483493,-0.0165251,0.536217,-0.238902,-0.295484,0.447385,-9.38341e-05,-2.39791e-05,0.592416,0.7095274717195377,0.5642164066898812,-9.382969771853933e-05,-0.21250794718754973,-2.3978812503711033e-05,-0.2558286786309958
828,0.8161,887.823,63.899,0.00664351,238.163,-0.0483838,-0.0165224,0.536712,-0.239123,-0.295758,0.447799,-9.39197e-05,-2.40083e-05,0.592967,0.7103738972910847,0.5648641263509693,-9.391528968305529e-05,-0.21268196370168824,-2.400801180302281e-05,-0.25603255364089905
829,0.8171,887.977,63.9102,0.00661783,238.204,-0.0483942,-0.0165367,0.537207,-0.239345,-0.296032,0.448212,-9.4005e-05,-2.40376e-05,0.593517,0.7112207419470047,0.5655105487121814,-9.400058166841863e-05,-0.21285672890609098,-2.4037311099234238e-05,-0.25623637279670197
830,0.8181,888.131,63.9212,0.00661925,238.246,-0.0484271,-0.0165355,0.537702,-0.239566,-0.296305,0.448625,-9.40906e-05,-2.40668e-05,0.594068,0.7120680058947955,0.5661572381009663,-9.408617361827964e-05,-0.21303066834798645,-2.406651039688068e-05,-0.2564393925534707
831,0.8191,888.286,63.9323,0.00659585,238.287,-0.0484395,-0.0165485,0.538197,-0.239786,-0.296578,0.449038,-9.41759e-05,-2.40961e-05,0.594617,0.7129156893420581,0.566804194627629,-9.417146558909906e-05,-0.21320378255768868,-2.409580969131575e-05,-0.25664235689341064
832,0.8201,888.44,63.9434,0.00659527,238.328,-0.0484709,-0.0165485,0.538691,-0.240007,-0.296852,0.449451,-9.42615e-05,-2.41252e-05,0.595167,0.7137620787335601,0.5674514184025199,-9.425705752441615e-05,-0.21337764530920167,-2.4124908989731075e-05,-0.25684600898601107
833,0.8211,888.593,63.9544,0.00657381,238.369,-0.0484852,-0.0165606,0.539185,-0.240228,-0.297125,0.449864,-9.43468e-05,-2.41545e-05,0.595716,0.7146088863447135,0.5680989095360358,-9.434234948058062e-05,-0.21355146964129224,-2.415420828238979e-05,-0.25704886233481594
834,0.8221,888.747,63.9655,0.00657155,238.411,-0.0485155,-0.0165616,0.539679,-0.240448,-0.297398,0.450276,-9.44323e-05,-2.41836e-05,0.596265,0.7154561123821697,0.5687450993927345,-9.44278414106714e-05,-0.21372446928731226,-2.418330757913978e-05,-0.257251660312215
835,0.8231,888.9,63.9765,0.00655175,238.452,-0.0485314,-0.0165728,0.540172,-0.240669,-0.29767,0.450688,-9.45176e-05,-2.42129e-05,0.596814,0.7163020407497831,0.569391555534505,-9.451313335240297e-05,-0.21389821697977263,-2.4212606870133158e-05,-0.2574536603873545
836,0.8241,889.054,63.9875,0.00654805,238.493,-0.0485606,-0.0165748,0.540665,-0.240889,-0.297943,0.4511,-9.46031e-05,-2.4242e-05,0.597362,0.7171483862628998,0.5700382780710798,-9.45986252678388e-05,-0.21407114034976893,-2.424170616510679e-05,-0.2576563478699686
837,0.8251,889.207,63.9985,0.00652967,238.534,-0.0485779,-0.0165852,0.541158,-0.241109,-0.298215,0.451512,-9.46883e-05,-2.42712e-05,0.59791,0.7179951491272232,0.5706852671122358,-9.468381720445507e-05,-0.21424402568080825,-2.427090545675803e-05,-0.2578582378850611
838,0.8261,889.359,64.0095,0.00652478,238.575,-0.0486064,-0.016588,0.541651,-0.241329,-0.298488,0.451924,-9.47738e-05,-2.43003e-05,0.598458,0.7188423295485578,0.5713325227677954,-9.476930910523595e-05,-0.21441687298125822,-2.430000475006633e-05,-0.2580608149330933
839,0.8271,889.512,64.0204,0.00650759,238.616,-0.0486249,-0.0165979,0.542143,-0.241549,-0.29876,0.452335,-9.4859e-05,-2.43295e-05,0.599005,0.7196882080437426,0.5719784731683673,-9.48545010273083e-05,-0.21458968225948483,-2.4329204040163255e-05,-0.25826259494810544
840,0.8281,889.664,64.0314,0.0065017,238.657,-0.0486529,-0.0166013,0.542635,-0.241769,-0.299032,0.452746,-9.49444e-05,-2.43587e-05,0.599553,0.7205345028135419,0.5726246891091187,-9.493989292308491e-05,-0.21476245352385182,-2.435840332926098e-05,-0.25846432008641707
841,0.8291,889.817,64.0423,0.00648553,238.698,-0.0486724,-0.0166107,0.543127,-0.241988,-0.299304,0.453157,-9.50297e-05,-2.43878e-05,0.6001,0.7213812140628135,0.5732711706992091,-9.50251848210737e-05,-0.21493440171751566,-2.4387502620015766e-05,-0.25866599036295257
842,0.8301,889.969,64.0532,0.0064788,238.738,-0.0486999,-0.0166147,0.543619,-0.242208,-0.299575,0.453567,-9.51151e-05,-2.44169e-05,0.600646,0.7222283419965159,0.5739163441307114,-9.511057670230638e-05,-0.21510709715194343,-2.4416601909882374e-05,-0.25886686465986763
843,0.8311,890.12,64.0641,0.0064635,238.779,-0.0487204,-0.0166236,0.54411,-0.242427,-0.299847,0.453978,-9.52003e-05,-2.44461e-05,0.601192,0.7230741637446827,0.5745633567001243,-9.519576859529089e-05,-0.21527896987691686,-2.444580119653761e-05,-0.25906842545916875
844,0.8321,890.272,64.075,0.00645607,238.82,-0.0487475,-0.0166282,0.544601,-0.242647,-0.300118,0.454388,-9.52856e-05,-2.44752e-05,0.601738,0.7239204008933005,0.5752090600365101,-9.528106047140827e-05,-0.21545158951468757,-2.4474900484738882e-05,-0.259269190710949
845,0.8331,890.424,64.0859,0.00644152,238.86,-0.0487689,-0.0166368,0.545092,-0.242866,-0.30039,0.454798,-9.53709e-05,-2.45044e-05,0.602284,0.7247670536463806,0.5758550281655426,-9.536635234030921e-05,-0.21562338680409399,-2.450409976961776e-05,-0.25947064209244575
846,0.8341,890.575,64.0968,0.00643351,238.901,-0.0487958,-0.0166417,0.545582,-0.243085,-0.300661,0.455207,-9.54562e-05,-2.45335e-05,0.602829,0.7256123965947758,0.5764996846953359,-9.545164420188268e-05,-0.21579514647401354,-2.45331990561537e-05,-0.2596712983582866
847,0.8351,890.726,64.1076,0.00641958,238.941,-0.0488179,-0.0166501,0.546072,-0.243304,-0.300932,0.455617,-9.55414e-05,-2.45626e-05,0.603374,0.7264581538627157,0.5771461820889705,-9.553683606577934e-05,-0.215966868532684,-2.456229834180146e-05,-0.2598719002536469
848,0.8361,890.877,64.1185,0.00641109,238.982,-0.0488446,-0.0166554,0.546562,-0.243522,-0.301203,0.456026,-9.56267e-05,-2.45917e-05,0.603919,0.7273043256532665,0.577791366808726,-9.562212791280889e-05,-0.2161377691265023,-2.4591397626672062e-05,-0.2600724477932592
849,0.8371,891.027,64.1293,0.0063977,239.022,-0.0488674,-0.0166636,0.547052,-0.243741,-0.301473,0.456435,-9.57119e-05,-2.46208e-05,0.604464,0.7281509121695944,0.5784368154630031,-9.570731976227265e-05,-0.21630941615902755,-2.4620496910543466e-05,-0.26027220126442296
850,0.8381,891.178,64.1401,0.00638882,239.063,-0.0488941,-0.0166692,0.547541,-0.24396,-0.301744,0.456844,-9.57972e-05,-2.46499e-05,0.605008,0.7289961846179156,0.5790825281597725,-9.579261159475827e-05,-0.2164810256049685,-2.4649596193748735e-05,-0.2604726403371592
851,0.8391,891.328,64.1509,0.00637588,239.103,-0.0489175,-0.0166772,0.54803,-0.244178,-0.302014,0.457253,-9.58824e-05,-2.4679e-05,0.605552,0.7298418705055414,0.5797285050070502,-9.587780342956709e-05,-0.21665181412476153,-2.4678695475954804e-05,-0.26067228577092183
852,0.8401,891.478,64.1617,0.00636668,239.143,-0.0489442,-0.0166831,0.548519,-0.244397,-0.302284,0.457661,-9.59676e-05,-2.4708e-05,0.606095,0.7306879700346933,0.5803731657389397,-9.596299525715946e-05,-0.2168233485937583,-2.4707694759928955e-05,-0.2608718773076937
853,0.8411,891.628,64.1724,0.00635413,239.184,-0.0489682,-0.016691,0.549008,-0.244615,-0.302555,0.458069,-9.60528e-05,-2.47371e-05,0.606639,0.7315344834076918,0.5810180895460715,-9.604818707753537e-05,-0.21699406249527353,-2.473679404046969e-05,-0.26107215389024063
854,0.8421,891.778,64.1832,0.00634467,239.224,-0.0489948,-0.0166971,0.549496,-0.244833,-0.302824,0.458477,-9.61381e-05,-2.47662e-05,0.607182,0.7323796784464109,0.5816632765358021,-9.613347888093315e-05,-0.2171647391852144,-2.4765893320233268e-05,-0.2612708987484623
855,0.8431,891.927,64.1939,0.00633245,239.264,-0.0490193,-0.0167049,0.549984,-0.245051,-0.303094,0.458885,-9.62232e-05,-2.47952e-05,0.607724,0.7332252860409647,0.582308726815532,-9.621857069641582e-05,-0.21733537867169217,-2.4794892601542884e-05,-0.26147032868154774
856,0.8441,892.077,64.2047,0.00632279,239.304,-0.0490461,-0.0167113,0.550472,-0.245269,-0.303364,0.459292,-9.63085e-05,-2.48243e-05,0.608267,0.7340713063927287,0.5829528575390566,-9.630386248526968e-05,-0.21750598096281637,-2.4823991879641127e-05,-0.26166970477581974
857,0.8451,892.226,64.2154,0.00631085,239.344,-0.0490711,-0.016719,0.55096,-0.245486,-0.303633,0.459699,-9.63936e-05,-2.48533e-05,0.608809,0.7349177397031785,0.5835972504771427,-9.638895428620842e-05,-0.21767576374284958,-2.485299115928541e-05,-0.2618682889144709
858,0.8461,892.375,64.2261,0.00630102,239.384,-0.049098,-0.0167255,0.551447,-0.245704,-0.303903,0.460106,-9.64788e-05,-2.48824e-05,0.609351,0.7357628504101683,0.5842419057365333,-9.647414607028004e-05,-0.217846291838116,-2.4882090435607296e-05,-0.26206755757398437
859,0.8471,892.524,64.2368,0.00628933,239.424,-0.0491234,-0.0167332,0.551934,-0.245922,-0.304172,0.460513,-9.6564e-05,-2.49114e-05,0.609892,0.7366083727863058,0.584886823424015,-9.65593378470242e-05,-0.2180167827623093,-2.4911089713697265e-05,-0.26226603470462617
860,0.8481,892.672,64.2474,0.00627937,239.464,-0.0491505,-0.0167399,0.552421,-0.246139,-0.304441,0.46092,-9.66492e-05,-2.49405e-05,0.610433,0.7374543070321224,0.5855320036464178,-9.66445296165519e-05,-0.21818645471037768,-2.4940188988353817e-05,-0.2624644584521001
861,0.8491,892.821,64.2581,0.00626789,239.503,-0.0491764,-0.0167476,0.552907,-0.246356,-0.30471,0.461326,-9.67344e-05,-2.49695e-05,0.610974,0.7382989150484636,0.5861758603339615,-9.672972137875213e-05,-0.21835608984362787,-2.496918826466743e-05,-0.2626628288307643
862,0.8501,892.969,64.2687,0.00625784,239.543,-0.0492036,-0.0167545,0.553394,-0.246573,-0.304979,0.461732,-9.68196e-05,-2.49985e-05,0.611515,0.7391456727888666,0.5868199784803929,-9.681491313373591e-05,-0.21852568817004792,-2.4998187540092864e-05,-0.2628611458549732
863,0.8511,893.117,64.2794,0.00624653,239.583,-0.0492299,-0.0167622,0.55388,-0.24679,-0.305247,0.462138,-9.69047e-05,-2.50275e-05,0.612055,0.7399911030087447,0.5874643581918859,-9.690000489126493e-05,-0.21869524969762388,-2.5027186814741142e-05,-0.2630586725981182
864,0.8521,893.265,64.29,0.00623641,239.622,-0.0492573,-0.0167692,0.554365,-0.247007,-0.305516,0.462544,-9.69899e-05,-2.50565e-05,0.612595,0.7408352033714958,0.5881089995746576,-9.69851966317048e-05,-0.21886477443434038,-2.5056186088501242e-05,-0.2632568831546742
865,0.8531,893.412,64.3006,0.00622527,239.662,-0.049284,-0.0167768,0.554851,-0.247224,-0.305784,0.462949,-9.70751e-05,-2.50856e-05,0.613135,0.7416814549027997,0.5887523139818596,-9.70703883649282e-05,-0.21903426238818002,-2.5085285358938947e-05,-0.26345430385443336
866,0.8541,893.56,64.3112,0.00621509,239.702,-0.0493116,-0.016784,0.555336,-0.247441,-0.306052,0.463355,-9.71603e-05,-2.51146e-05,0.613675,0.7425263752850582,0.5893974783808469,-9.715558009093517e-05,-0.21920371356712398,-2.5114284631033712e-05,-0.2636516716525341
867,0.8551,893.707,64.3218,0.00620408,239.741,-0.0493387,-0.0167917,0.555821,-0.247657,-0.306321,0.46376,-9.72454e-05,-2.51436e-05,0.614214,0.7433717055530911,0.5900413147276509,-9.724067181937635e-05,-0.21937234735188904,-2.514328390235132e-05,-0.2638497227137976
868,0.8561,893.854,64.3323,0.00619387,239.781,-0.0493666,-0.016799,0.556306,-0.247874,-0.306588,0.464165,-9.73306e-05,-2.51726e-05,0.614753,0.7442174459057413,0.5906854118809852,-9.732586353083938e-05,-0.21954172517435533,-2.517228317278075e-05,-0.26404624860045967
869,0.8571,894.001,64.3429,0.00618299,239.82,-0.0493941,-0.0168067,0.55679,-0.24809,-0.306856,0.464569,-9.74158e-05,-2.52016e-05,0.615292,0.7450618514792247,0.5913281786175235,-9.741105523497495e-05,-0.21971028595649778,-2.5201282442322004e-05,-0.26424345777862446
870,0.8581,894.148,64.3534,0.00617276,239.859,-0.0494222,-0.0168141,0.557274,-0.248306,-0.307124,0.464974,-9.75009e-05,-2.52306e-05,0.61583,0.7459066658439251,0.5919727970562862,-9.749614694176678e-05,-0.21987881033344325,-2.52302817110861e-05,-0.2644406141118111
871,0.8591,894.295,64.3639,0.00616199,239.899,-0.04945,-0.0168219,0.557758,-0.248522,-0.307391,0.465378,-9.75861e-05,-2.52595e-05,0.616368,0.7467518891977452,0.5926160840015104,-9.758133863146945e-05,-0.22004729831305436,-2.5259180981507257e-05,-0.2646369822515301
872,0.8601,894.441,64.3745,0.00615175,239.938,-0.0494784,-0.0168294,0.558242,-0.248738,-0.307659,0.465782,-9.76713e-05,-2.52885e-05,0.616906,0.7475975217386841,0.5932596308871647,-9.766653031384465e-05,-0.22021574990319204,-2.5288180248606018e-05,-0.264834033134289
873,0.8611,894.587,64.3849,0.00614107,239.977,-0.0495066,-0.0168372,0.558725,-0.248954,-0.307926,0.466186,-9.77564e-05,-2.53175e-05,0.617443,0.7484418152221464,0.5939034378182866,-9.77516219988761e-05,-0.22038416511171566,-2.53171795148166e-05,-0.26503029624515084
874,0.8621,894.733,64.3954,0.00613083,240.016,-0.0495353,-0.0168448,0.559208,-0.24917,-0.308193,0.466589,-9.78416e-05,-2.53465e-05,0.61798,0.7492865165978593,0.594545910353248,-9.783681366670738e-05,-0.22055254394648272,-2.5346178780139006e-05,-0.2652265069607572
875,0.8631,894.879,64.4059,0.00612024,240.055,-0.0495638,-0.0168527,0.559691,-0.249386,-0.30846,0.466992,-9.79268e-05,-2.53754e-05,0.618517,0.7501316260628823,0.5951886418568195,-9.792200532743323e-05,-0.22072088641534915,-2.5375078047229493e-05,-0.2654226652950957
876,0.8641,895.025,64.4164,0.00611002,240.094,-0.0495928,-0.0168604,0.560174,-0.249601,-0.308727,0.467396,-9.8012e-05,-2.54044e-05,0.619054,0.75097714381437,0.595833228265817,-9.80071969808316e-05,-0.220888413414972,-2.5404077310997586e-05,-0.2656187712621503
877,0.8651,895.17,64.4268,0.00609951,240.133,-0.0496217,-0.0168683,0.560656,-0.249817,-0.308993,0.467798,-9.80971e-05,-2.54334e-05,0.61959,0.7518213182273787,0.5964748821873769,-9.809228863677522e-05,-0.22105668334386785,-2.54330765738775e-05,-0.265814090690359
878,0.8661,895.315,64.4372,0.0060893,240.172,-0.049651,-0.0168761,0.561138,-0.250032,-0.30926,0.468201,-9.81823e-05,-2.54623e-05,0.620126,0.7526658996305311,0.5971183912232598,-9.817748027574069e-05,-0.2212241381549116,-2.5461975838414475e-05,-0.26601009216078386
879,0.8671,895.461,64.4477,0.00607886,240.211,-0.0496802,-0.0168841,0.56162,-0.250247,-0.309526,0.468604,-9.82675e-05,-2.54913e-05,0.620662,0.7535108882200439,0.5977621596455471,-9.82626719073787e-05,-0.22139155696704116,-2.5490975099518032e-05,-0.26620530751147653
880,0.8681,895.606,64.4581,0.00606867,240.25,-0.0497098,-0.016892,0.562101,-0.250462,-0.309792,0.469006,-9.83527e-05,-2.55203e-05,0.621197,0.7543545298368208,0.598404589153404,-9.834786353180025e-05,-0.22155893978799523,-2.5519974359955455e-05,-0.2664004709417914
881,0.8691,895.75,64.4685,0.00605831,240.289,-0.0497393,-0.0169,0.562583,-0.250677,-0.310058,0.469408,-9.84379e-05,-2.55492e-05,0.621733,0.7552003325422794,0.5990472769698398,-9.843305514889433e-05,-0.22172628662551108,-2.5548873621938917e-05,-0.26659558246553783
882,0.8701,895.895,64.4788,0.00604815,240.328,-0.0497692,-0.016908,0.563064,-0.250892,-0.310324,0.46981,-9.85231e-05,-2.55782e-05,0.622267,0.7560447869772426,0.5996902231987151,-9.851824675877197e-05,-0.2218935974873245,-2.5577872880599983e-05,-0.2667906420965209
883,0.8711,896.039,64.4892,0.00603784,240.367,-0.0497992,-0.0169162,0.563544,-0.251107,-0.31059,0.470211,-9.86083e-05,-2.56071e-05,0.622802,0.7568878908037224,0.600331827611305,-9.860343836143315e-05,-0.22206087238116934,-2.5606772141029133e-05,-0.26698564984854234
884,0.8721,896.184,64.4996,0.00602771,240.405,-0.0498294,-0.0169242,0.564025,-0.251321,-0.310856,0.470613,-9.86935e-05,-2.56361e-05,0.623336,0.7577331571494583,0.6009752903333463,-9.868862995676686e-05,-0.22222733354250024,-2.5635771398024865e-05,-0.26718060573540026
885,0.8731,896.328,64.5099,0.00601747,240.444,-0.0498596,-0.0169324,0.564505,-0.251536,-0.311121,0.471014,-9.87787e-05,-2.5665e-05,0.62387,0.7585770715881524,0.6016174101611911,-9.877382154488412e-05,-0.222394536690806,-2.5664670656677657e-05,-0.2673747771460321
886,0.8741,896.471,64.5202,0.00600737,240.482,-0.0498902,-0.0169406,0.564985,-0.25175,-0.311386,0.471415,-9.88639e-05,-2.56939e-05,0.624404,0.759421391203011,0.6022597875307203,-9.885901312567391e-05,-0.22256092645561432,-2.5693569914553294e-05,-0.2675688971080574
887,0.8751,896.615,64.5306,0.00599718,240.521,-0.0499208,-0.0169489,0.565465,-0.251964,-0.311652,0.471815,-9.89492e-05,-2.57229e-05,0.624938,0.7602661161885664,0.6029008196436081,-9.894430468937454e-05,-0.2227272806168228,-2.5722569168995513e-05,-0.26776369787177645
888,0.8761,896.759,64.5409,0.00598712,240.559,-0.0499516,-0.0169571,0.565944,-0.252179,-0.311917,0.472216,-9.90344e-05,-2.57518e-05,0.625471,0.7611094856290765,0.6035437117635405,-9.902949625573143e-05,-0.22289437628806175,-2.5751468425205815e-05,-0.2679577147834643
889,0.8771,896.902,64.5512,0.00597699,240.598,-0.0499826,-0.0169655,0.566424,-0.252393,-0.312182,0.472616,-9.91196e-05,-2.57807e-05,0.626004,0.7619550210944559,0.6041852575488489,-9.911468781476085e-05,-0.2230606590986408,-2.578036768063896e-05,-0.26815168028748226
890,0.8781,897.045,64.5614,0.00596696,240.636,-0.0500138,-0.0169738,0.566903,-0.252606,-0.312446,0.473016,-9.92049e-05,-2.58097e-05,0.626536,0.7627991997141987,0.6048270600038022,-9.919997935659008e-05,-0.22322612955502363,-2.5809366932527666e-05,-0.2683448627426803
891,0.8791,897.188,64.5717,0.00595688,240.675,-0.0500451,-0.0169823,0.567381,-0.25282,-0.312711,0.473416,-9.92901e-05,-2.58386e-05,0.627069,0.7636420191494597,0.6054691192310884,-9.92851709011866e-05,-0.22339234137799946,-2.5838266186295478e-05,-0.2685387256660816
892,0.8801,897.331,64.5819,0.00594689,240.713,-0.0500766,-0.0169907,0.56786,-0.253034,-0.312975,0.473816,-9.93754e-05,-2.58675e-05,0.627601,0.764487006034835,0.6061114353334371,-9.937046242847192e-05,-0.22355851763545076,-2.5867165439064088e-05,-0.2687318059547863
893,0.8811,897.474,64.5922,0.00593686,240.751,-0.0501083,-0.0169992,0.568338,-0.253248,-0.31324,0.474215,-9.94607e-05,-2.58965e-05,0.628132,0.7653306324343663,0.6067524016604138,-9.945575394854078e-05,-0.2237246583349879,-2.5896164688510304e-05,-0.26892556635182174
894,0.8821,897.616,64.6024,0.00592691,240.789,-0.0501401,-0.0170077,0.568816,-0.253461,-0.313504,0.474615,-9.9546e-05,-2.59254e-05,0.628664,0.7661746621837093,0.6073952311784105,-9.95410454613932e-05,-0.22388998737459476,-2.5925063939724602e-05,-0.26911854452806483
895,0.8831,897.759,64.6126,0.00591693,240.828,-0.0501722,-0.0170163,0.569294,-0.253674,-0.313768,0.475014,-9.96313e-05,-2.59543e-05,0.629195,0.7670190954757117,0.6080367098421338,-9.962633696680712e-05,-0.22405528120286633,-2.5953963190050722e-05,-0.26931147176479364
896,0.8841,897.901,64.6228,0.00590702,240.866,-0.0502044,-0.017025,0.569771,-0.253888,-0.314032,0.475412,-9.97166e-05,-2.59832e-05,0.629726,0.7678621646402641,0.6086768358292725,-9.971162846511561e-05,-0.22422131560637415,-2.5982862439599685e-05,-0.2695043480754544
897,0.8851,898.043,64.633,0.00589709,240.904,-0.0502367,-0.0170336,0.570248,-0.254101,-0.314296,0.475811,-9.98019e-05,-2.60121e-05,0.630257,0.7687056360447346,0.6093188259552813,-9.979691995609663e-05,-0.22438653886924786,-2.601176168826047e-05,-0.2696971734734901
898,0.8861,898.185,64.6432,0.00588722,240.942,-0.0502693,-0.0170423,0.570725,-0.254314,-0.314559,0.476209,-9.98872e-05,-2.60411e-05,0.630787,0.7695495098810374,0.6099594623261928,-9.988221143975018e-05,-0.22455172694331427,-2.604076093348784e-05,-0.26988921786192255
899,0.8871,898.326,64.6534,0.00587734,240.98,-0.050302,-0.0170511,0.571202,-0.254527,-0.314823,0.476608,-9.99725e-05,-2.607e-05,0.631317,0.7703937863411783,0.6106019643222853,-9.996750291618728e-05,-0.2247168798360678,-2.606966018048329e-05,-0.27008194166774524
900,0.8881,898.468,64.6635,0.0058675,241.018,-0.0503349,-0.0170599,0.571679,-0.254739,-0.315086,0.477006,-0.000100058,-2.60989e-05,0.631847,0.7712384656172546,0.6112431114839072,-0.00010005299436521842,-0.22488122243661146,-2.6098559426701584e-05,-0.27027388487544846
901,0.8891,898.609,64.6737,0.00585767,241.056,-0.050368,-0.0170687,0.572155,-0.254952,-0.31535,0.477403,-0.000100143,-2.61278e-05,0.632376,0.7720817758187934,0.6118829019891787,-0.00010013798585717382,-0.2250463051542989,-2.61274586720317e-05,-0.27046650714258336
902,0.8901,898.75,64.6838,0.00584788,241.093,-0.0504013,-0.0170776,0.572631,-0.255165,-0.315613,0.477801,-0.000100229,-2.61567e-05,0.632906,0.7729254875315406,0.6125245590654584,-0.00010022397724163135,-0.225211352713112,-2.6156357916473638e-05,-0.27065834922286547
903,0.8911,898.891,64.6939,0.00583809,241.131,-0.0504347,-0.0170866,0.573106,-0.255377,-0.315876,0.478198,-0.000100314,-2.61856e-05,0.633435,0.7737678271779462,0.6131648584064169,-0.0001003089687189318,-0.22537559049651668,-2.618525716013842e-05,-0.27085014085531467
904,0.8921,899.032,64.704,0.00582834,241.169,-0.0504683,-0.0170955,0.573582,-0.255589,-0.316139,0.478595,-0.000100399,-2.62146e-05,0.633963,0.77461234164218,0.6138054119966787,-0.00010039396018901581,-0.2255397934652017,-2.6214256400369784e-05,-0.271041882053197
905,0.8931,899.172,64.7141,0.00581859,241.207,-0.0505021,-0.0171046,0.574057,-0.255802,-0.316401,0.478992,-0.000100485,-2.62435e-05,0.634492,0.7754554827346167,0.6144462199372012,-0.00010047995155149092,-0.2257047359221983,-2.624315564236923e-05,-0.2712328440629834
906,0.8941,899.313,64.7242,0.00580888,241.244,-0.0505361,-0.0171136,0.574532,-0.256014,-0.316664,0.479389,-0.00010057,-2.62724e-05,0.63502,0.7762990244142043,0.6150872823289812,-0.000100564943007031,-0.22586886911944914,-2.62720548834805e-05,-0.2714244846231566
907,0.8951,899.453,64.7342,0.00579918,241.282,-0.0505703,-0.0171227,0.575007,-0.256226,-0.316926,0.479786,-0.000100656,-2.63013e-05,0.635548,0.7771429668712666,0.6157285992730561,-0.00010065093435485117,-0.22603296752415036,-2.6300954123814613e-05,-0.27161534640420015
908,0.8961,899.593,64.7443,0.00578952,241.319,-0.0506046,-0.0171319,0.575481,-0.256438,-0.317188,0.480182,-0.000100741,-2.63302e-05,0.636075,0.7779855323097971,0.6163685545011406,-0.00010073592579584734,-0.22619703114367706,-2.632985336337157e-05,-0.2718061581860074
909,0.8971,899.733,64.7543,0.00577986,241.357,-0.0506392,-0.0171411,0.575955,-0.256649,-0.317451,0.480578,-0.000100827,-2.63591e-05,0.636602,0.7788284972190127,0.6170087632016794,-0.00010082191712890154,-0.2263602863460762,-2.6358752601929325e-05,-0.2719976479843922
910,0.8981,899.873,64.7644,0.00577023,241.394,-0.0506739,-0.0171504,0.576429,-0.256861,-0.317713,0.480974,-0.000100912,-2.63881e-05,0.637129,0.7796718617883069,0.6176492254750678,-0.00010090690855535378,-0.22652428058136775,-2.6387751837164686e-05,-0.2721883596163056
911,0.8991,900.013,64.7744,0.00576062,241.432,-0.0507088,-0.0171597,0.576903,-0.257073,-0.317974,0.481369,-0.000100998,-2.6417e-05,0.637656,0.7805156262071642,0.6182883231326084,-0.00010099289987375304,-0.22668824005356636,-2.641665107416813e-05,-0.27237829366697386
912,0.9001,900.152,64.7844,0.00575104,241.469,-0.0507439,-0.017169,0.577376,-0.257284,-0.318236,0.481765,-0.000101083,-2.64459e-05,0.638183,0.7813580093062575,0.6189292922120704,-0.00010107789128566136,-0.22685139162181922,-2.6445550310283394e-05,-0.2725689055827818
913,0.9011,900.291,64.7944,0.00574147,241.507,-0.0507792,-0.0171784,0.57785,-0.257495,-0.318498,0.48216,-0.000101169,-2.64748e-05,0.638709,0.7822025731484865,0.6195688955958463,-0.00010116388258929465,-0.22701450876872287,-2.6474449545621503e-05,-0.2727594675648094
914,0.9021,900.43,64.8044,0.00573192,241.544,-0.0508146,-0.0171878,0.578322,-0.257707,-0.318759,0.482555,-0.000101254,-2.65037e-05,0.639235,0.7830439713173598,0.6202087516728625,-0.00010124887398677007,-0.22717836432356142,-2.6503348780071434e-05,-0.27294925257575364
915,0.9031,900.569,64.8143,0.0057224,241.581,-0.0508503,-0.0171973,0.578795,-0.257918,-0.31902,0.48295,-0.00010134,-2.65326e-05,0.63976,0.7838875506065668,0.6208488605429523,-0.0001013348652756374,-0.22734141248650297,-2.6532248013633186e-05,-0.2731389880592737
916,0.9041,900.708,64.8243,0.00571289,241.618,-0.0508861,-0.0172069,0.579268,-0.258129,-0.319282,0.483345,-0.000101425,-2.65616e-05,0.640286,0.7847315290031596,0.6214892223059889,-0.0001014198566585689,-0.22750442624991152,-2.6561247243872543e-05,-0.27332940069925715
917,0.9051,900.847,64.8342,0.00570341,241.655,-0.0509221,-0.0172164,0.57974,-0.25834,-0.319543,0.483739,-0.000101511,-2.65905e-05,0.640811,0.7855741211209457,0.6221282149328586,-0.00010150584793278128,-0.22766740562104448,-2.659014647576896e-05,-0.2735190369770639
918,0.9061,900.985,64.8442,0.00569395,241.693,-0.0509584,-0.0172261,0.580212,-0.25855,-0.319804,0.484133,-0.000101597,-2.66194e-05,0.641336,0.7864171110360842,0.6227674593724273,-0.00010159183919955517,-0.22782957843712237,-2.6619045706888222e-05,-0.2737086237662606
919,0.9071,901.124,64.8541,0.00568451,241.73,-0.0509948,-0.0172357,0.580683,-0.258761,-0.320064,0.484527,-0.000101682,-2.66483e-05,0.64186,0.7872587116767749,0.6234069557239286,-0.00010167683056061527,-0.22799248920838133,-2.6647944937230328e-05,-0.27389743497756025
920,0.9081,901.262,64.864,0.00567509,241.767,-0.0510314,-0.0172455,0.581155,-0.258972,-0.320325,0.484921,-0.000101768,-2.66772e-05,0.642384,0.7881024969063353,0.6240467040866353,-0.00010176282181273422,-0.22815536560909377,-2.6676844166684255e-05,-0.27408692301776627
921,0.9091,901.4,64.8739,0.00566568,241.804,-0.0510682,-0.0172552,0.581626,-0.259182,-0.320585,0.485315,-0.000101854,-2.67062e-05,0.642908,0.7889448915507438,0.6246867045598594,-0.00010184881305741467,-0.22831743596433307,-2.6705843392593742e-05,-0.2742756358840459
922,0.9101,901.537,64.8838,0.00565631,241.841,-0.0511052,-0.0172651,0.582097,-0.259392,-0.320846,0.485708,-0.000101939,-2.67351e-05,0.643432,0.7897876830564834,0.6253253319168075,-0.0001019338043967144,-0.22847947228837107,-2.6734742620382335e-05,-0.2744650252266958
923,0.9111,901.675,64.8937,0.00564695,241.877,-0.0511424,-0.0172749,0.582568,-0.259602,-0.321106,0.486101,-0.000102025,-2.6764e-05,0.643955,0.7906308716105195,0.6259642103036309,-0.00010201979562662888,-0.2286414745883536,-2.676364184739377e-05,-0.2746536397991799
924,0.9121,901.813,64.9035,0.00563761,241.914,-0.0511797,-0.0172848,0.583038,-0.259813,-0.321366,0.486494,-0.000102111,-2.6793e-05,0.644479,0.7914726659263447,0.6266033398190038,-0.00010210578684932692,-0.22880421406759666,-2.6792641070749745e-05,-0.27484220533824977
925,0.9131,901.95,64.9134,0.00562829,241.951,-0.0512173,-0.0172948,0.583508,-0.260023,-0.321626,0.486887,-0.000102197,-2.68219e-05,0.645001,0.7923148559784892,0.6272427205616395,-0.00010219177806447544,-0.22896614817896566,-2.6821540296095847e-05,-0.27503072185665256
926,0.9141,902.087,64.9232,0.00561899,241.988,-0.0512551,-0.0173048,0.583978,-0.260233,-0.321886,0.48728,-0.000102283,-2.68508e-05,0.645524,0.7931574419529923,0.627882352630289,-0.00010227776927229648,-0.22912804828774158,-2.6850439520442748e-05,-0.27521918936713174
927,0.9151,902.224,64.9331,0.00560971,242.025,-0.0512931,-0.0173149,0.584448,-0.260442,-0.322145,0.487672,-0.000102368,-2.68798e-05,0.646046,0.7940004240359817,0.6285206076023215,-0.00010236276057506988,-0.2292891436905935,-2.6879438741467254e-05,-0.27540688328967344
928,0.9161,902.361,64.9429,0.00560045,242.061,-0.0513312,-0.017325,0.584918,-0.260652,-0.322405,0.488064,-0.000102454,-2.69087e-05,0.646568,0.7948438024136724,0.6291591128193481,-0.00010244875176812496,-0.22945097597743358,-2.690833796414882e-05,-0.27559525301089316
929,0.9171,902.498,64.9527,0.00559122,242.098,-0.0513696,-0.0173352,0.585387,-0.260862,-0.322664,0.488456,-0.00010254,-2.69376e-05,0.64709,0.7956857815856866,0.6297978683794836,-0.00010253474295385256,-0.2296127742830616,-2.6937237186164253e-05,-0.2757828495455634
930,0.9181,902.634,64.9625,0.005582,242.134,-0.0514082,-0.0173454,0.585856,-0.261071,-0.322924,0.488848,-0.000102626,-2.69666e-05,0.647612,0.7965281557385484,0.6304368743808819,-0.0001026207341322527,-0.2297737683887664,-2.6966236404524224e-05,-0.2759711215282633
931,0.9191,902.77,64.9722,0.0055728,242.171,-0.0514469,-0.0173557,0.586325,-0.26128,-0.323183,0.489239,-0.000102712,-2.69955e-05,0.648133,0.7973709250575469,0.63107449984642,-0.00010270672530310332,-0.22993472885021904,-2.69951356247633e-05,-0.2761586207255933
932,0.9201,902.907,64.982,0.00556362,242.208,-0.0514859,-0.017366,0.586793,-0.26149,-0.323442,0.489631,-0.000102798,-2.70245e-05,0.648654,0.7982122915148684,0.6317140063854523,-0.00010279271646662647,-0.2300964255784098,-2.7024134841457936e-05,-0.27634607136691947
933,0.9211,903.043,64.9918,0.00555446,242.244,-0.0515251,-0.0173764,0.587261,-0.261699,-0.323701,0.490022,-0.000102884,-2.70534e-05,0.649175,0.7990540518238458,0.6323521313072413,-0.00010287870762282214,-0.2302573186115563,-2.7053034060031678e-05,-0.27653347346481616
934,0.9221,903.179,65.0015,0.00554533,242.28,-0.0515645,-0.0173868,0.587729,-0.261908,-0.323959,0.490413,-0.00010297,-2.70824e-05,0.649695,0.799896206168845,0.6329905057846599,-0.0001029646987714683,-0.2304181780215726,-2.708203327506098e-05,-0.2767201037523198
935,0.9231,903.314,65.0112,0.00553621,242.317,-0.051604,-0.0173972,0.588197,-0.262117,-0.324218,0.490803,-0.000103056,-2.71114e-05,0.650215,0.8007387547343181,0.6336274962869901,-0.00010305068991289801,-0.23057900381548513,-2.7111032489313125e-05,-0.27690740898837285
936,0.9241,903.45,65.021,0.00552711,242.353,-0.0516438,-0.0174078,0.588665,-0.262325,-0.324476,0.491194,-0.000103142,-2.71403e-05,0.650735,0.8015816977048036,0.634266369529618,-0.0001031366810467782,-0.23073902673973046,-2.7139931705444376e-05,-0.27709394281295585
937,0.9251,903.585,65.0307,0.00551803,242.389,-0.0516838,-0.0174183,0.589132,-0.262534,-0.324735,0.491584,-0.000103228,-2.71693e-05,0.651255,0.8024232328407919,0.6349038577158506,-0.00010322267217333092,-0.23089978548326806,-2.7168930917920164e-05,-0.27728115123722985
938,0.9261,903.72,65.0404,0.00550897,242.426,-0.051724,-0.017429,0.589599,-0.262743,-0.324993,0.491974,-0.000103314,-2.71982e-05,0.651774,0.8032651610654677,0.6355415945709633,-0.00010330866329244515,-0.23106051063173894,-2.7197830132275058e-05,-0.2774675886487503
939,0.9271,903.856,65.0501,0.00549993,242.462,-0.0517644,-0.0174397,0.590066,-0.262951,-0.325251,0.492364,-0.0001034,-2.72272e-05,0.652293,0.8041074825624464,0.6361795801919556,-0.0001033946544042319,-0.2312204334129817,-2.7226829343196535e-05,-0.2776539779656232
940,0.9281,903.991,65.0597,0.00549091,242.498,-0.051805,-0.0174504,0.590532,-0.26316,-0.325509,0.492754,-0.000103486,-2.72562e-05,0.652812,0.8049483925661338,0.6368178146758652,-0.00010348064550858016,-0.231381091553038,-2.725582855311881e-05,-0.2778403192002552
941,0.9291,904.125,65.0694,0.00548191,242.534,-0.0518458,-0.0174612,0.590999,-0.263368,-0.325767,0.493144,-0.000103573,-2.72852e-05,0.653331,0.8057915003157994,0.6374562981197676,-0.00010356763650198886,-0.23154094766038347,-2.728482776226393e-05,-0.2780266123650499
942,0.9301,904.26,65.0791,0.00547293,242.57,-0.0518869,-0.017472,0.591465,-0.263576,-0.326024,0.493533,-0.000103659,-2.73142e-05,0.653849,0.8066331952546355,0.6380933925265644,-0.00010365362759146013,-0.23170077052111637,-2.7313826970631894e-05,-0.2782121356849043
943,0.9311,904.394,65.0887,0.00546397,242.606,-0.0519281,-0.0174829,0.591931,-0.263784,-0.326282,0.493922,-0.000103745,-2.73432e-05,0.654367,0.8074752825147171,0.6387307348112947,-0.00010373961867360393,-0.23186056014215128,-2.734282617811168e-05,-0.27839833293341976
944,0.9321,904.529,65.0983,0.00545502,242.642,-0.0519695,-0.0174938,0.592396,-0.263992,-0.326539,0.494311,-0.000103831,-2.73721e-05,0.654885,0.8083159539620501,0.6393683250704016,-0.00010382560974830923,-0.23202031653040134,-2.737172538747057e-05,-0.278583760733363
945,0.9331,904.663,65.108,0.0054461,242.678,-0.0520112,-0.0175048,0.592862,-0.2642,-0.326796,0.4947,-0.000103918,-2.74011e-05,0.655402,0.8091588255704283,0.640006163400366,-0.00010391260071163089,-0.23218003969277823,-2.740072459328502e-05,-0.2787691408844847
946,0.9341,904.797,65.1176,0.0054372,242.714,-0.0520531,-0.0175159,0.593327,-0.264407,-0.327054,0.495088,-0.000104004,-2.74302e-05,0.655919,0.8100002800473225,0.6406426092542765,-0.0001039985917714592,-0.23233896197553816,-2.742982379555503e-05,-0.27895519444419525
947,0.9351,904.931,65.1272,0.00542831,242.75,-0.0520951,-0.017527,0.593792,-0.264615,-0.327311,0.495476,-0.000104091,-2.74592e-05,0.656436,0.8108421258915341,0.6412793020970913,-0.00010408558271979285,-0.23249861886655498,-2.7458822999593124e-05,-0.27914047914911866
948,0.9361,905.064,65.1368,0.00541945,242.786,-0.0521374,-0.0175382,0.594256,-0.264823,-0.327567,0.495865,-0.000104177,-2.74882e-05,0.656953,0.8116825516016344,0.6419178839417232,-0.00010417157376474417,-0.23265824255239187,-2.7487822202854062e-05,-0.27932499556734725
949,0.9371,905.198,65.1463,0.0054106,242.822,-0.0521799,-0.0175494,0.594721,-0.26503,-0.327824,0.496252,-0.000104263,-2.75172e-05,0.657469,0.8125251798840216,0.642553429132871,-0.00010425756480236803,-0.23281706585740436,-2.7516821405337843e-05,-0.27951018524559346
950,0.9381,905.331,65.1559,0.00540177,242.857,-0.0522227,-0.0175607,0.595185,-0.265237,-0.328081,0.49664,-0.00010435,-2.75462e-05,0.657986,0.8133663867123795,0.6431908635176484,-0.00010434455572816415,-0.2329758562893952,-2.7545820606933447e-05,-0.2796953273362077
951,0.9391,905.465,65.1654,0.00539296,242.893,-0.0522656,-0.017572,0.595649,-0.265444,-0.328337,0.497028,-0.000104436,-2.75752e-05,0.658501,0.8142079839512741,0.6438285452749541,-0.00010443054675079999,-0.23313461385516832,-2.757481980764087e-05,-0.27987970173148013
952,0.9401,905.598,65.175,0.00538417,242.929,-0.0523088,-0.0175834,0.596112,-0.265651,-0.328594,0.497415,-0.000104523,-2.76043e-05,0.659017,0.8150481567328336,0.6444648300351354,-0.00010451753766149707,-0.23329333856152645,-2.7603919004803856e-05,-0.2800647488685595
953,0.9411,905.731,65.1845,0.0053754,242.964,-0.0523521,-0.0175948,0.596576,-0.265858,-0.32885,0.497802,-0.00010461,-2.76333e-05,0.659532,0.8158905344940848,0.6451013610851728,-0.00010460452856475566,-0.23345203041527063,-2.7632918203845946e-05,-0.2802490287040238
954,0.9421,905.863,65.194,0.00536665,243.0,-0.0523957,-0.0176063,0.597039,-0.266065,-0.329106,0.498189,-0.000104696,-2.76624e-05,0.660048,0.8167314864769168,0.6457381385203991,-0.00010469051956507602,-0.23361068942320085,-2.7662017399343597e-05,-0.2804332613698882
955,0.9431,905.996,65.2035,0.00535791,243.035,-0.0524395,-0.0176178,0.597502,-0.266272,-0.329362,0.498576,-0.000104783,-2.76914e-05,0.660562,0.8175728279106678,0.6463751624361835,-0.00010477751045323558,-0.23376931559211533,-2.7691016596720353e-05,-0.28061744687822654
956,0.9441,906.128,65.213,0.0053492,243.071,-0.0524836,-0.0176294,0.597965,-0.266479,-0.329618,0.498962,-0.00010487,-2.77205e-05,0.661077,0.818414558975695,0.6470107859163234,-0.0001048645013337346,-0.2339279089288112,-2.7720115790441646e-05,-0.28080158524110965
957,0.9451,906.261,65.2225,0.0053405,243.106,-0.0525278,-0.0176411,0.598427,-0.266685,-0.329873,0.499348,-0.000104956,-2.77495e-05,0.661591,0.8192548605966701,0.6476466547944855,-0.00010495049231173947,-0.2340857035261703,-2.7749114986153067e-05,-0.2809849574559221
958,0.9461,906.393,65.232,0.00533182,243.142,-0.0525723,-0.0176528,0.59889,-0.266892,-0.330129,0.499735,-0.000105043,-2.77786e-05,0.662105,0.8200973706231467,0.6482844174490048,-0.00010503748317725048,-0.23424423137734174,-2.7778214178209026e-05,-0.28116900174813886
959,0.9471,906.525,65.2415,0.00532317,243.177,-0.052617,-0.0176646,0.599352,-0.267098,-0.330384,0.50012,-0.00010513,-2.78077e-05,0.662619,0.8209384498827232,0.6489191291238803,-0.00010512447403521197,-0.23440196081898768,-2.780731336948783e-05,-0.28135228028368664
960,0.9481,906.657,65.2509,0.00531452,243.212,-0.0526619,-0.0176764,0.599813,-0.267304,-0.330639,0.500506,-0.000105217,-2.78367e-05,0.663132,0.8217780960316865,0.6495557347647063,-0.00010521146488562394,-0.23455965777171517,-2.7836312562645738e-05,-0.2815355120891663
961,0.9491,906.789,65.2604,0.0053059,243.248,-0.0527071,-0.0176883,0.600275,-0.26751,-0.330895,0.500892,-0.000105304,-2.78658e-05,0.663646,0.8226199519657997,0.6501925861827418,-0.00010529845572837537,-0.2347173222422162,-2.7865411752148184e-05,-0.28171941545743584
962,0.9501,906.92,65.2698,0.0052973,243.283,-0.0527524,-0.0177003,0.600736,-0.267716,-0.33115,0.501277,-0.000105391,-2.78949e-05,0.664159,0.8234603734659278,0.6508280326440168,-0.00010538544656368831,-0.2348749542371814,-2.7894510940873474e-05,-0.28190255365538164
963,0.9511,907.052,65.2792,0.00528871,243.318,-0.052798,-0.0177123,0.601197,-0.267922,-0.331404,0.501662,-0.000105478,-2.7924e-05,0.664671,0.8243011824896846,0.6514637237992802,-0.00010547243739134071,-0.2350325537633,-2.7923610128710585e-05,-0.2820849272443269
964,0.9521,907.183,65.2886,0.00528014,243.353,-0.0528439,-0.0177243,0.601658,-0.268128,-0.331659,0.502047,-0.000105565,-2.79531e-05,0.665184,0.8251423792157602,0.6520996597427569,-0.0001055594282114436,-0.23519012082725999,-2.795270931577054e-05,-0.28226797224864963
965,0.9531,907.314,65.298,0.00527159,243.389,-0.0528899,-0.0177364,0.602119,-0.268334,-0.331914,0.502432,-0.000105652,-2.79822e-05,0.665696,0.825983963822926,0.6527358405687087,-0.00010564641902399696,-0.23534765543574776,-2.7981808501942318e-05,-0.28245097058244706
966,0.9541,907.445,65.3074,0.00526533,243.424,-0.0529351,-0.0177475,0.602579,-0.268539,-0.332168,0.502816,-0.000105739,-2.80114e-05,0.666208,0.8268241096650137,0.6533706129999939,-0.00010573340982900081,-0.23550439310022397,-2.801100768434761e-05,-0.28263320489118215
967,0.9551,907.576,65.3168,0.00525087,243.459,-0.0529843,-0.0177621,0.603039,-0.268745,-0.332423,0.503201,-0.000105826,-2.80406e-05,0.66672,0.8276646420630898,0.6540072832371553,-0.00010582040062634412,-0.23566186297529124,-2.804020686608677e-05,-0.2828161101025294
968,0.9561,907.707,65.3262,0.00524742,243.494,-0.0530285,-0.017773,0.603499,-0.26895,-0.332677,0.503585,-0.000105913,-2.80697e-05,0.667231,0.828505561195011,0.6546425439961778,-0.00010590739141624894,-0.23581853623382365,-2.8069306049705034e-05,-0.28299825167760395
969,0.9571,907.837,65.3355,0.00523689,243.529,-0.053077,-0.0177855,0.603959,-0.269156,-0.332931,0.503969,-0.000106001,-2.80989e-05,0.667742,0.8293468672387156,0.6552780487421745,-0.00010599538209254966,-0.23597594140207057,-2.8098505229556814e-05,-0.2831803469945936
970,0.9581,907.968,65.3449,0.00522929,243.564,-0.0531229,-0.017798,0.604418,-0.269361,-0.333185,0.504352,-0.000106088,-2.81281e-05,0.668253,0.8301867301845791,0.6559121416558846,-0.0001060823728671334,-0.23613255028112456,-2.812770440874246e-05,-0.28336239606524627
971,0.9591,908.098,65.3542,0.00522076,243.599,-0.0531713,-0.0178102,0.604877,-0.269566,-0.333439,0.504736,-0.000106175,-2.81573e-05,0.668764,0.8310269787160196,0.6565481340209995,-0.00010616936363416762,-0.2362891270586488,-2.8156903586928905e-05,-0.283544398901307
972,0.9601,908.228,65.3635,0.00521208,243.633,-0.0532181,-0.017823,0.605336,-0.269771,-0.333693,0.505119,-0.000106263,-2.81865e-05,0.669274,0.831867613010062,0.657182713470537,-0.0001062573542873757,-0.23644567174122366,-2.8186102764338195e-05,-0.28372635551451797
973,0.9611,908.358,65.3728,0.0052041,243.668,-0.0532667,-0.0178353,0.605795,-0.269976,-0.333946,0.505503,-0.00010635,-2.82157e-05,0.669784,0.8327086332438116,0.6578191938289175,-0.00010634434503919987,-0.23660218433542768,-2.8215301940859305e-05,-0.28390754982452604
974,0.9621,908.488,65.3821,0.00519523,243.703,-0.0533142,-0.0178482,0.606253,-0.27018,-0.3342,0.505885,-0.000106437,-2.82449e-05,0.670294,0.833548206045333,0.6584526017341676,-0.00010643133578347452,-0.23675790160612165,-2.824450111660326e-05,-0.28408941420911604
975,0.9631,908.617,65.3914,0.00518734,243.738,-0.053363,-0.0178606,0.606712,-0.270385,-0.334453,0.506268,-0.000106525,-2.82741e-05,0.670804,0.8343899978483473,0.6590879107345393,-0.00010651932641370099,-0.2369143501997636,-2.8273700291348014e-05,-0.28427051667689296
976,0.9641,908.747,65.4007,0.00517854,243.772,-0.0534112,-0.0178737,0.60717,-0.27059,-0.334706,0.506651,-0.000106613,-2.83034e-05,0.671313,0.8352303408912292,0.6597234631048603,-0.00010660731703604487,-0.23707076672473104,-2.830299946254833e-05,-0.28445157333154103
977,0.9651,908.876,65.41,0.00517062,243.807,-0.0534604,-0.0178863,0.607627,-0.270794,-0.334959,0.507033,-0.0001067,-2.83326e-05,0.671822,0.8360692328292243,0.6603575985799308,-0.00010669430775744893,-0.23722638841436716,-2.8332198635627748e-05,-0.28463258418464976
978,0.9661,909.005,65.4192,0.00516193,243.842,-0.0535091,-0.0178994,0.608085,-0.270998,-0.335212,0.507415,-0.000106788,-2.83619e-05,0.672331,0.8369103451378757,0.6609919763410264,-0.00010678229836447173,-0.23738197836041663,-2.8361497805162728e-05,-0.2848135492478052
979,0.9671,909.135,65.4285,0.00515396,243.876,-0.0535587,-0.0179121,0.608542,-0.271203,-0.335465,0.507797,-0.000106876,-2.83911e-05,0.672839,0.8377500050132718,0.6616265964807184,-0.00010687028896372297,-0.23753829903143653,-2.8390696976576812e-05,-0.284994468532591
980,0.9681,909.263,65.4377,0.00514539,243.911,-0.053608,-0.0179253,0.608999,-0.271407,-0.335718,0.508179,-0.000106963,-2.84204e-05,0.673348,0.8385900487009252,0.6622614590916125,-0.00010695727966225643,-0.2376938253542098,-2.8419996144224413e-05,-0.2851753420505875
981,0.9691,909.392,65.4469,0.00513737,243.945,-0.0536579,-0.0179382,0.609456,-0.271611,-0.33597,0.508561,-0.000107051,-2.84497e-05,0.673856,0.8394304763762785,0.6628965642663509,-0.0001070452702461866,-0.2378493199528492,-2.8449295311094858e-05,-0.2853554551691846
982,0.9701,909.521,65.4562,0.00512891,243.98,-0.0537078,-0.0179515,0.609913,-0.271815,-0.336223,0.508942,-0.000107139,-2.84789e-05,0.674363,0.8402712882148542,0.66353024856653,-0.0001071332608223452,-0.23800478283382576,-2.847849447995543e-05,-0.28553623736911415
983,0.9711,909.649,65.4654,0.00512087,244.014,-0.0537582,-0.0179646,0.610369,-0.272018,-0.336475,0.509323,-0.000107227,-2.85082e-05,0.674871,0.8411106432806907,0.6641641743464264,-0.00010722125139073224,-0.23815945216344236,-2.850779364516054e-05,-0.2857162595535493
984,0.9721,909.778,65.4746,0.00511249,244.049,-0.0538086,-0.0179779,0.610825,-0.272222,-0.336727,0.509704,-0.000107315,-2.85375e-05,0.675378,0.8419503811797167,0.6647983416980616,-0.00010730924195134772,-0.23831485178390088,-2.853709280936645e-05,-0.28589623637810946
985,0.9731,909.906,65.4838,0.00510443,244.083,-0.0538594,-0.0179912,0.611281,-0.272426,-0.336979,0.510085,-0.000107403,-2.85669e-05,0.675885,0.8427905020865438,0.6654327507134916,-0.00010739723250430266,-0.23847021970607007,-2.856649197002792e-05,-0.28607616785422396
986,0.9741,910.034,65.4929,0.00509614,244.117,-0.0539103,-0.0180046,0.611737,-0.272629,-0.337231,0.510466,-0.000107491,-2.85962e-05,0.676392,0.8436310061758634,0.666067401484808,-0.00010748522304948604,-0.23862479456159114,-2.8595791132568493e-05,-0.2862560539933192
987,0.9751,910.162,65.5021,0.00508808,244.151,-0.0539616,-0.018018,0.612192,-0.272833,-0.337483,0.510846,-0.000107579,-2.86255e-05,0.676898,0.8444700491514749,0.666700627402677,-0.00010757321358689786,-0.23878009926188248,-2.8625090294331912e-05,-0.28643589480681864
988,0.9761,910.29,65.5113,0.00507984,244.186,-0.054013,-0.0180316,0.612648,-0.273036,-0.337734,0.511226,-0.000107667,-2.86549e-05,0.677405,0.8453113192889019,0.6673340939921193,-0.00010766120411653812,-0.2389346112182381,-2.8654489452328846e-05,-0.2866149769214765
989,0.9771,910.417,65.5204,0.00507179,244.22,-0.0540648,-0.0180451,0.613103,-0.273239,-0.337986,0.511607,-0.000107755,-2.86842e-05,0.677911,0.8461511269809399,0.667969469313243,-0.00010774919463851784,-0.23908909181185012,-2.8683788612315908e-05,-0.28679472729779376
990,0.9781,910.545,65.5295,0.00506362,244.254,-0.0541168,-0.0180588,0.613557,-0.273442,-0.338237,0.511986,-0.000107844,-2.87136e-05,0.678416,0.8469894698820282,0.6686017495516494,-0.00010783818504489506,-0.2392435410490843,-2.8713187768536486e-05,-0.28697371935679883
991,0.9791,910.672,65.5387,0.00505558,244.288,-0.054169,-0.0180725,0.614012,-0.273645,-0.338489,0.512366,-0.000107932,-2.8743e-05,0.678922,0.847830041306322,0.6692359387047868,-0.00010792617555122064,-0.23939795893630555,-2.8742586923979907e-05,-0.28715337934141205
992,0.9801,910.8,65.5478,0.00504746,244.322,-0.0542215,-0.0180863,0.614466,-0.273848,-0.33874,0.512745,-0.00010802,-2.87723e-05,0.679427,0.8486691466075655,0.6698686990260625,-0.00010801416604988567,-0.23955234547987714,-2.8771886081302434e-05,-0.28733228139005107
993,0.9811,910.927,65.5569,0.00503944,244.356,-0.0542742,-0.0181001,0.61492,-0.274051,-0.338991,0.513125,-0.000108109,-2.88017e-05,0.679932,0.8495086329491057,0.6705033697114855,-0.00010810315643261514,-0.23970670068616118,-2.8801285234969498e-05,-0.28751113853991084
994,0.9821,911.054,65.566,0.00503136,244.39,-0.0543272,-0.018114,0.615374,-0.274254,-0.339242,0.513504,-0.000108197,-2.88311e-05,0.680437,0.8503485005039737,0.6711366104801517,-0.00010819114691573706,-0.2398610245615186,-2.8830684387859407e-05,-0.28768995080225956
995,0.9831,911.18,65.575,0.00502337,244.424,-0.0543805,-0.018128,0.615828,-0.274456,-0.339493,0.513883,-0.000108286,-2.88606e-05,0.680941,0.8511887494452799,0.6717700912925548,-0.00010828013728270136,-0.24001455712724595,-2.886018353687181e-05,-0.2878687181883627
996,0.9841,911.307,65.5841,0.00501533,244.458,-0.0544339,-0.018142,0.616281,-0.274659,-0.339743,0.514261,-0.000108374,-2.889e-05,0.681445,0.8520275279177587,0.6724021398367126,-0.00010836812775016913,-0.24016881851408856,-2.888958268798536e-05,-0.28804672875656745
997,0.9851,911.434,65.5932,0.00500736,244.492,-0.0544877,-0.0181561,0.616734,-0.274861,-0.339994,0.51464,-0.000108463,-2.89194e-05,0.681949,0.8528666864429613,0.6730361003756442,-0.00010845711810147929,-0.2403222889117168,-2.8918981838210733e-05,-0.28822540660264184
998,0.9861,911.56,65.6022,0.00499937,244.526,-0.0545417,-0.0181703,0.617187,-0.275063,-0.340244,0.515018,-0.000108552,-2.89489e-05,0.682453,0.85370622519309,0.6736686275616928,-0.00010854610844479584,-0.24047572831145547,-2.8948480984669622e-05,-0.28840332800988855
999,0.9871,911.686,65.6113,0.00499142,244.56,-0.0545959,-0.0181845,0.61764,-0.275266,-0.340494,0.515396,-0.000108641,-2.89784e-05,0.682956,0.8545461443404261,0.6743013938882125,-0.00010863509878022981,-0.24062989609004926,-2.8977980130240333e-05,-0.2885812049423431
