,Time,S11,S22,S33,S12,S13,S23,LE11,LE22,LE33,LE12,LE13,LE23,SDV_EPBAR,E11,E12,E13,E22,E23,E33
0,1e-05,1.94446,0.139606,-2.22045e-16,0.521016,1.85918e-17,-3.80464e-18,9.12912e-06,-2.12914e-06,-3e-06,6.49996e-06,1.57076e-22,-1.77139e-22,0.0,9.129161670617947e-06,6.499981124896692e-06,0.0,-2.1291377333421124e-06,0.0,-2.9999955000192813e-06
1,2e-05,3.8889,0.27921,0.0,1.04203,-2.1314e-22,-5.71107e-23,1.82581e-05,-4.25827e-06,-5.99996e-06,1.29999e-05,-1.09614e-22,4.09087e-22,0.0,1.8258266680115653e-05,1.2999984499106887e-05,0.0,-4.258260933531766e-06,0.0,-5.9999420002343484e-06
2,3.5e-05,6.80552,0.488615,-6.66134e-16,1.82353,1.63949e-17,4.39301e-18,3.19515e-05,-7.45192e-06,-1.04998e-05,2.27496e-05,4.09081e-22,1.09613e-22,0.0,3.19520104545834e-05,2.2749858774151477e-05,0.0,-7.451892234500157e-06,0.0,-1.0499744877323636e-05
3,5.75e-05,11.1804,0.802715,-4.21885e-15,2.99577,-4.39369e-18,1.63953e-17,5.24912e-05,-1.22423e-05,-1.72495e-05,3.73739e-05,1.08454e-38,2.90602e-39,0.0,5.249257768724647e-05,3.737459841279822e-05,0.0,-1.2242225063352485e-05,0.0,-1.7249351228265652e-05
4,9.125e-05,17.7425,1.27385,-2.95319e-14,4.75408,4.39262e-18,-1.63956e-17,8.32998e-05,-1.94277e-05,-2.73738e-05,5.93098e-05,8.76935e-22,-3.27277e-21,0.0,8.330326952465938e-05,5.931155886096384e-05,0.0,-1.9427511283476306e-05,0.0,-2.737342534098186e-05
5,0.00014188,27.5852,1.98053,-1.54765e-13,7.39143,3.71814e-17,-7.60989e-18,0.000129511,-3.02053e-05,-4.25596e-05,9.22122e-05,2.51329e-21,-2.83436e-21,0.0,0.0001295193869115252,9.221645167567516e-05,0.0,-3.0204843824543914e-05,0.0,-4.255869435310089e-05
6,0.00021781,42.3484,3.04047,-8.02247e-13,11.3472,3.71782e-17,-7.61076e-18,0.000198823,-4.63708e-05,-6.53367e-05,0.000141563,3.27278e-21,8.76939e-22,0.0,0.0001988427666026471,0.00014157302051431842,0.0,-4.636972489102664e-05,0.0,-6.533456560431361e-05
7,0.00033172,64.491,4.63024,-4.0512e-12,17.2803,3.71733e-17,-7.61206e-18,0.000302781,-7.06166e-05,-9.94992e-05,0.000215581,-1.76382e-25,-4.72615e-26,0.0,0.00030282684279359096,0.00021560423925381933,0.0,-7.061410670661239e-05,0.0,-9.949425011879232e-05
8,0.00050258,97.7002,7.01456,-2.05163e-11,26.1787,9.80103e-17,2.89851e-16,0.000458697,-0.00010698,-0.000150736,0.000326594,-1.33605e-24,-3.57993e-25,0.0,0.00045880221755600914,0.00032664733762688414,0.0,-0.00010697427784389646,0.0,-0.00015072463989995732
9,0.00075887,147.503,10.5903,-1.03753e-10,39.5234,-4.96816e-16,4.1163e-16,0.00069252,-0.000161514,-0.000227574,0.000493077,-3.50401e-21,1.30949e-20,0.0,0.0006927598473382979,0.0004931985824463414,0.0,-0.00016150095731615188,0.0,-0.0002275481070015406
10,0.0011433,222.184,15.9521,-5.24728e-10,59.5341,6.92733e-16,1.68044e-16,0.00104314,-0.000243289,-0.000342794,0.000742721,-1.27611e-23,-3.41933e-24,0.0,0.0010436842597596474,0.0007429968855396929,0.0,-0.00024325940763114673,0.0,-0.00034273525284966855
11,0.00172,334.152,23.991,-2.65264e-09,89.5357,1.67954e-16,2.74306e-17,0.00156882,-0.000365891,-0.000515542,0.00111701,-4.02374e-20,4.53698e-20,0.0,0.0015700512418777013,0.001117634088019237,0.0,-0.0003658240700513682,0.0,-0.0005154091310572984
12,0.0019362,340.128,24.8833,0.105331,91.5896,-0.0424487,-0.0134944,0.00176563,-0.000440356,-0.000624428,0.00126586,-5.96113e-07,-1.68064e-07,0.000187431,0.0017671896424305,0.0012666615389460567,-5.961128223264112e-07,-0.00044025905752687056,-1.6806398583923965e-07,-0.0006242330854085987
13,0.0022606,345.329,25.3089,0.048136,93.1385,-0.114858,-0.041417,0.00206305,-0.000557808,-0.000793518,0.00148211,-1.79809e-06,-5.47838e-07,0.000488826,0.0020651795518566995,0.0014832088678400357,-1.7980883834090022e-06,-0.0005576524540404915,-5.47837849973476e-07,-0.0007932032478511486
14,0.0027471,352.472,25.7036,-0.0657195,95.3107,-0.232062,-0.0846844,0.00250962,-0.000734482,-0.00104878,0.00180415,-4.1797e-06,-1.20671e-06,0.000943835,0.0025127717322708243,0.001805778457791396,-4.179691265093766e-06,-0.0007342123341214091,-1.2067092719503236e-06,-0.001048230222471136
15,0.0034769,362.542,26.9734,-0.0832705,98.2723,-0.224137,-0.172168,0.00318028,-0.000994691,-0.00143671,0.00228119,-5.30999e-06,-2.75434e-06,0.00163071,0.0031853424556922416,0.0022837938935236224,-5.309975901979236e-06,-0.0009941964588927599,-2.7543362067783406e-06,-0.0014356784262712363
16,0.0037269,365.641,27.0145,-0.036554,99.2002,-0.374254,-0.126971,0.00340893,-0.00108703,-0.00156684,0.00244901,-7.98009e-06,-2.43109e-06,0.00186739,0.0034147470099208377,0.002452011274540311,-7.980058159162695e-06,-0.0010864393969099995,-2.431087044896252e-06,-0.0015656131470516144
17,0.0041019,370.194,27.4551,-0.0572403,100.538,-0.40597,-0.146609,0.00375206,-0.00122319,-0.00176412,0.00269907,-9.66014e-06,-3.06217e-06,0.00222314,0.00375910778894073,0.0027027157687562475,-9.660093341024023e-06,-0.001222442208040242,-3.0621653115403547e-06,-0.0017625648549347561
18,0.0046644,376.508,27.7767,-0.0386158,102.45,-0.511452,-0.146703,0.00426735,-0.00142833,-0.00206119,0.00307113,-1.33853e-05,-3.54329e-06,0.00275883,0.004276468103443953,0.0030758507511816635,-1.3385210417271587e-05,-0.001427310422194461,-3.5432837225402025e-06,-0.002059067206635956
19,0.0048754,378.869,28.0516,0.0175965,103.119,-0.555718,-0.13993,0.00445987,-0.00150536,-0.00217148,0.00321303,-1.4913e-05,-3.68604e-06,0.00296005,0.004469830021504251,0.003218197313652915,-1.4912888801732471e-05,-0.0015042275139728334,-3.6860332065513646e-06,-0.0021691240429179137
20,0.0051918,382.184,28.3563,-0.0373447,104.098,-0.571171,-0.167685,0.00474879,-0.00162077,-0.00233807,0.00342497,-1.66067e-05,-4.42773e-06,0.00326258,0.004760083372774115,0.003430841911543636,-1.660656210955569e-05,-0.0016194572616149427,-4.427720197597296e-06,-0.0023353388432973965
21,0.0056664,386.99,28.7802,-0.00183154,105.518,-0.604297,-0.171877,0.0051826,-0.00179358,-0.00258878,0.0037405,-1.93911e-05,-5.04018e-06,0.00371721,0.005196052901675463,0.003747504400722468,-1.9390911993877324e-05,-0.0017919724965974604,-5.040167298298037e-06,-0.0025854319987584917
22,0.0063783,393.683,29.4683,-0.143238,107.534,-0.611504,-0.249034,0.00583407,-0.00205036,-0.0029692,0.00420861,-2.30512e-05,-7.15429e-06,0.00440119,0.005851121329805586,0.004217478636244998,-2.30509343230878e-05,-0.0020482594478098415,-7.154264408115729e-06,-0.002964796285261473
23,0.0073783,402.409,30.1113,0.00357827,110.173,-0.71438,-0.229396,0.00675052,-0.00241094,-0.00350611,0.00485773,-3.01695e-05,-8.10719e-06,0.00536501,0.006773356116436036,0.004869547898681104,-3.016904490515948e-05,-0.0024080360184021155,-8.107157136838516e-06,-0.0034999707733643914
24,0.0083783,410.339,30.8441,-0.0853075,112.585,-0.880102,-0.29057,0.0076656,-0.00277039,-0.0040447,0.00550768,-3.93863e-05,-1.06192e-05,0.00633186,0.007695055929366479,0.00552287515336336,-3.938552436988374e-05,-0.002766556010989407,-1.0619143616441562e-05,-0.004036531218090222
25,0.0093783,417.861,31.5181,0.143485,114.791,-1.02161,-0.234661,0.00857969,-0.00313089,-0.00458159,0.00615772,-4.93672e-05,-1.12619e-05,0.00730059,0.008616601026452564,0.006176717732019554,-4.936598145988125e-05,-0.0031259938749798044,-1.1261836585063634e-05,-0.004571110526860878
26,0.010378,424.546,32.2038,-0.20688,116.859,-1.05736,-0.36142,0.00949228,-0.00348936,-0.00512175,0.00680889,-5.82113e-05,-1.51939e-05,0.00827167,0.009537474576469585,0.006832123192332951,-5.820960575519951e-05,-0.0034832792580838934,-1.5193784573264146e-05,-0.005108656202392536
27,0.011378,431.228,32.5945,0.388878,118.798,-1.2249,-0.184057,0.0104041,-0.0038519,-0.00565589,0.00746008,-6.99243e-05,-1.3977e-05,0.00924324,0.010458410836781562,0.007487975721762741,-6.992185535314999e-05,-0.0038444909492220125,-1.3976902322188067e-05,-0.0056399255660285474
28,0.011628,432.587,32.8696,-0.0471777,119.244,-1.18676,-0.340096,0.0106302,-0.00394193,-0.00578965,0.00762899,-7.16659e-05,-1.65302e-05,0.00948679,0.01068690131334682,0.0076581648886633324,-7.166333206076736e-05,-0.0039341707927031955,-1.6530063376984927e-05,-0.005772922274566605
29,0.012003,434.934,32.9282,0.173013,119.917,-1.22604,-0.247534,0.01097,-0.00407998,-0.00598627,0.00788054,-7.56001e-05,-1.60234e-05,0.00985153,0.011030391078018953,0.00791167318371011,-7.559724238448418e-05,-0.00407166818944904,-1.602327162597561e-05,-0.005968387985725188
30,0.012566,438.229,33.5121,-0.0757575,120.903,-1.1684,-0.370088,0.0114798,-0.00428233,-0.00628668,0.00825472,-7.98303e-05,-1.89995e-05,0.0103991,0.011545945775117028,0.008288884141579134,-7.982711364640238e-05,-0.004273173899363103,-1.8999319510659696e-05,-0.00626696017300965
31,0.01341,442.955,33.5447,0.128705,122.351,-1.26454,-0.280526,0.0122461,-0.00458939,-0.00673611,0.00880904,-8.91333e-05,-1.94119e-05,0.011221,0.012321390507067376,0.008847953773259976,-8.91293277454075e-05,-0.00457887484191799,-1.9411711590255898e-05,-0.006713473267393244
32,0.01366,444.357,33.9075,-0.00862038,122.752,-1.28691,-0.354846,0.0124717,-0.00467943,-0.00686858,0.00897773,-9.17524e-05,-2.09559e-05,0.0114645,0.012549795975933975,0.009018150689437343,-9.174819087731656e-05,-0.004668498525108422,-2.095568042670415e-05,-0.006845045218728862
33,0.014035,446.38,33.9614,0.0575504,123.348,-1.32871,-0.32065,0.0128106,-0.00481688,-0.00706586,0.00922936,-9.5916e-05,-2.13576e-05,0.01183,0.012893007255656563,0.009272081873707538,-9.591140020748234e-05,-0.00480529743826541,-2.1357371928099056e-05,-0.007040955502982338
34,0.014597,449.394,34.5805,-0.120349,124.236,-1.22529,-0.418089,0.0133192,-0.00501875,-0.00736587,0.00960359,-9.96907e-05,-2.4184e-05,0.0123782,0.013408295665881864,0.009649852447038976,-9.968573104723877e-05,-0.005006177116399058,-2.4183707569402912e-05,-0.007338808464254387
35,0.015441,453.726,35.0101,-0.0867021,125.536,-1.2789,-0.430105,0.0140835,-0.0053223,-0.00781712,0.0101579,-0.000108363,-2.67556e-05,0.0132007,0.014183139695186142,0.010209666597705835,-0.00010835712894219363,-0.005308161655313226,-2.6755242072074026e-05,-0.007786645776042156
36,0.016441,458.499,35.0395,0.037351,127.018,-1.40456,-0.360483,0.0149895,-0.00568364,-0.00835208,0.0108107,-0.000120355,-2.81914e-05,0.0141762,0.015102405984498413,0.01086934676424045,-0.00012034775762759242,-0.005667518675237848,-2.819100262618779e-05,-0.008317298280430596
37,0.017441,463.377,36.0423,0.00334859,128.428,-1.35439,-0.443482,0.0158942,-0.00603911,-0.00888978,0.0114631,-0.000129663,-3.21064e-05,0.0151513,0.016021184678067568,0.011529053098876751,-0.0001296545941165128,-0.006020911228427739,-3.2105884595012846e-05,-0.00885038273654537
38,0.017691,464.339,35.7456,-0.0323419,128.753,-1.46104,-0.417385,0.016119,-0.00613191,-0.00902052,0.0116319,-0.000133542,-3.24784e-05,0.0153955,0.016249611914642692,0.011699813614821863,-0.00013353308366403915,-0.0061131482080036825,-3.247787258242596e-05,-0.008979957167041253
39,0.018066,466.076,36.012,-0.0241179,129.253,-1.43504,-0.424089,0.0164562,-0.00626754,-0.0092182,0.0118834,-0.000136983,-3.36204e-05,0.0157612,0.016592349066016476,0.011954288116773348,-0.0001369736182572634,-0.006247939940604352,-3.361983484073683e-05,-0.009175842647149768
40,0.018628,468.415,35.9102,-0.0154291,130.001,-1.52118,-0.402735,0.0169626,-0.00647261,-0.00951514,0.012258,-0.000144099,-3.48472e-05,0.0163101,0.01710728180154808,0.012333437203292164,-0.00014408861823778096,-0.006451707781511051,-3.484659284336278e-05,-0.009470014294608142
41,0.019472,472.195,36.7335,-0.0699771,131.081,-1.46194,-0.476741,0.0177231,-0.00677308,-0.0099663,0.0128121,-0.000152148,-3.83884e-05,0.0171328,0.01788108609114447,0.012894526596306966,-0.00015213642608002953,-0.006750194391492381,-3.838766317476594e-05,-0.009916801009233422
42,0.020316,475.675,37.0454,-0.0798528,132.133,-1.49597,-0.488252,0.018483,-0.00707568,-0.0104161,0.0133666,-0.000161502,-4.12007e-05,0.0179557,0.01865486788962456,0.013456332357557166,-0.0001614889592540525,-0.0070507063129227054,-4.119985126282977e-05,-0.010362040290318397
43,0.02116,478.906,36.7274,0.126192,133.166,-1.69137,-0.372359,0.0192423,-0.00738222,-0.0108628,0.0139214,-0.000173976,-4.17426e-05,0.0187788,0.019428626250999947,0.01401875393206753,-0.00017396086705334657,-0.007355038342056419,-4.174172878979032e-05,-0.01080401284500132
44,0.02141,479.945,37.1367,-0.0187768,133.448,-1.62339,-0.451024,0.019466,-0.00747129,-0.0109949,0.0140897,-0.000175858,-4.34515e-05,0.0190225,0.019656697943560175,0.014189427650144859,-0.0001758425378882711,-0.007443449291351212,-4.345055599719316e-05,-0.010934677004346804
45,0.021785,481.351,37.0146,0.0718895,133.885,-1.68624,-0.403135,0.0198019,-0.00760856,-0.0111908,0.0143413,-0.000180926,-4.3827e-05,0.0193882,0.0199992581581665,0.014444629813227472,-0.00018090963387829007,-0.007579688178097066,-4.382603961106124e-05,-0.011128415923774893
46,0.022347,483.472,37.1345,0.0812353,134.535,-1.72117,-0.40133,0.0203061,-0.00781205,-0.0114872,0.0147154,-0.000187972,-4.52464e-05,0.0199366,0.02051367145682459,0.01482420454426725,-0.00018795433437046594,-0.007781615241583828,-4.524537639705173e-05,-0.011421474027938583
47,0.023191,486.797,38.09,-0.0917367,135.479,-1.57858,-0.524025,0.0210634,-0.00811059,-0.0119378,0.0152693,-0.000195382,-4.95893e-05,0.0207587,0.021286799168077408,0.015386471376588107,-0.0001953629141800972,-0.008077787906276224,-4.9588070470951706e-05,-0.011866827166144178
48,0.024191,490.441,38.4786,-0.0744069,136.579,-1.61049,-0.53423,0.0219612,-0.00846666,-0.0124716,0.0159217,-0.000206919,-5.30758e-05,0.0217331,0.022204122181054275,0.01604912564483274,-0.00020689759374015182,-0.008430918774951168,-5.307439150459281e-05,-0.01239415189831039
49,0.025191,493.867,38.6979,-0.122546,137.647,-1.66453,-0.546295,0.022858,-0.00882309,-0.0130048,0.0165742,-0.000219022,-5.66435e-05,0.0227073,0.02312124601468679,0.016712314041000598,-0.00021899801643276984,-0.00878428076442428,-5.66418957872461e-05,-0.012920602972189332
50,0.026191,497.218,38.4544,0.218555,138.695,-1.85553,-0.394347,0.023754,-0.00918317,-0.0135339,0.0172268,-0.000234061,-5.71421e-05,0.023681,0.024038373462855533,0.017376037046404447,-0.00023403360986118393,-0.009141133468990037,-5.714046742133494e-05,-0.013442728540656979
51,0.027191,500.613,39.402,-0.0779846,139.685,-1.71455,-0.561485,0.0246485,-0.00953513,-0.0140685,0.0178786,-0.000243893,-6.26973e-05,0.024654,0.024954785592138817,0.018039378906979042,-0.0002438632605200608,-0.00948981479111577,-6.26953345653769e-05,-0.013970001105464869
52,0.028191,503.812,39.7041,-0.0807545,140.662,-1.74464,-0.571243,0.0255423,-0.00989017,-0.0146003,0.0185307,-0.000255983,-6.63313e-05,0.0256268,0.025871299708644546,0.0187034588857089,-0.00025595023914737336,-0.009841423106070835,-6.632910012793758e-05,-0.014494232453406641
53,0.029191,506.727,39.1921,0.172171,141.63,-1.9799,-0.42066,0.0264353,-0.0102503,-0.0151278,0.0191831,-0.000272143,-6.69742e-05,0.0265994,0.026787811941090034,0.019368277862655825,-0.0002721059724527519,-0.010197944713451146,-6.697195727833893e-05,-0.015013949658323478
54,0.030191,509.64,39.3184,0.0813671,142.555,-2.03521,-0.447807,0.0273271,-0.0106068,-0.0156574,0.019835,-0.000286331,-6.99923e-05,0.0275714,0.02770390973907233,0.020033020692378445,-0.0002862900111914035,-0.010550746255549415,-6.99898505961416e-05,-0.015535460162413695
55,0.031191,512.942,40.5728,-0.0237904,143.444,-1.82959,-0.580431,0.0282177,-0.0109563,-0.0161897,0.020486,-0.000295792,-7.51497e-05,0.0285419,0.028619590533219608,0.020697278381267337,-0.0002957482578593851,-0.010896498346035788,-7.514687633203287e-05,-0.01605935119100188
56,0.032191,515.763,40.7922,-0.0807911,144.327,-1.86321,-0.600859,0.0291075,-0.0113103,-0.0167196,0.0211375,-0.000308393,-7.90189e-05,0.0295127,0.029535263567394,0.021362479323810968,-0.0003083454517667228,-0.011246579017686553,-7.901577808899773e-05,-0.016580603222882906
57,0.033191,518.422,40.3344,0.198305,145.204,-2.07932,-0.448144,0.0299966,-0.0116688,-0.0172452,0.0217892,-0.000324615,-7.975e-05,0.030483,0.0304510304140575,0.022028318191615437,-0.00032456231825150894,-0.011600983588293645,-7.97468200532947e-05,-0.01709735264418477
58,0.034191,521.016,40.4026,0.0812429,146.043,-2.13697,-0.480265,0.0308845,-0.0120239,-0.0177729,0.0224405,-0.00033915,-8.29721e-05,0.0314527,0.03136637419069621,0.02269418205028151,-0.00033909249513985884,-0.011951901769810869,-8.296865791046493e-05,-0.017615893542145433
59,0.035191,523.591,40.5616,-0.0206796,146.868,-2.17173,-0.507686,0.0317714,-0.0123783,-0.0183002,0.0230916,-0.000353537,-8.62893e-05,0.0324218,0.03228149877997932,0.023360275055260837,-0.0003534745131588135,-0.01230200397404868,-8.628557718548535e-05,-0.01813376813184575
60,0.036191,526.199,40.8266,-0.0470023,147.674,-2.18786,-0.524009,0.0326573,-0.0127319,-0.0188269,0.0237423,-0.000367709,-8.95518e-05,0.03339,0.03319640215636288,0.024026392283976072,-0.0003676414033312314,-0.012651192245318743,-8.954779035730276e-05,-0.018650780908903708
61,0.037191,529.29,42.1292,0.102692,148.45,-1.98087,-0.580049,0.0335422,-0.0130798,-0.019355,0.0243919,-0.000377673,-9.36325e-05,0.0343566,0.03411108229317117,0.0246918159346059,-0.00037760169053002723,-0.012994631150874958,-9.362811661428605e-05,-0.019168894611541143
62,0.038191,531.359,41.365,0.0791804,149.232,-2.23188,-0.506863,0.0344264,-0.0134374,-0.0198789,0.0250428,-0.000394911,-9.56451e-05,0.0353243,0.03502584767031025,0.02535900495070731,-0.00039483303291476535,-0.013347521170279375,-9.564052615329555e-05,-0.019682617446207362
63,0.039191,533.813,41.6044,0.0807843,149.989,-2.25141,-0.513509,0.0353095,-0.0137902,-0.0204039,0.0256928,-0.000409287,-9.86753e-05,0.0362905,0.03594028270574978,0.0260257049579542,-0.00040920325350168874,-0.013695550768779485,-9.867043175271206e-05,-0.020197148995698244
64,0.040191,536.577,42.7876,0.0168777,150.723,-2.04592,-0.62225,0.0361914,-0.014137,-0.0209313,0.026342,-0.000419472,-0.000103615,0.0372555,0.03685428140955804,0.026692017107134536,-0.00041938403392083323,-0.014037541847092272,-0.00010360963215128027,-0.020713760776816637
65,0.041191,538.862,42.9966,-0.095084,151.446,-2.0612,-0.667722,0.0370725,-0.0144876,-0.021457,0.0269915,-0.000432452,-0.000108024,0.0382205,0.03776825630942082,0.02735907017427941,-0.0004323585061115631,-0.014383159694571712,-0.00010801816561778477,-0.021228436258472816
66,0.042191,541.011,42.4033,0.231196,152.177,-2.29872,-0.490687,0.0379529,-0.0148437,-0.0219777,0.0276412,-0.000449624,-0.000108585,0.039185,0.038682309789576985,0.02802676223845202,-0.0004495229342770246,-0.01473407536716076,-0.00010857910486228306,-0.021737949948311908
67,0.043191,543.412,43.3832,-0.0911596,152.863,-2.11282,-0.673452,0.038832,-0.0151898,-0.0225045,0.0282897,-0.00046027,-0.0001147,0.0401483,0.039595816881323964,0.02869365380998401,-0.00046016409201288244,-0.015075016900340632,-0.00011469342220649104,-0.02225316267733124
68,0.044191,545.629,43.5982,-0.0998917,153.552,-2.13128,-0.681653,0.0397103,-0.0155396,-0.0230282,0.0289384,-0.000473521,-0.000118668,0.0411111,0.040509294982476796,0.029361183873177765,-0.00047340890662483925,-0.015419483408724122,-0.00011866095923140918,-0.022765074640189842
69,0.045191,547.654,43.0679,0.177873,154.245,-2.34594,-0.525541,0.0405879,-0.0158941,-0.0235478,0.0295872,-0.000490479,-0.000119655,0.0420734,0.04142284674763452,0.030029250106526018,-0.0004903587348386029,-0.015768455342925813,-0.00011964784162599162,-0.023272714011277063
70,0.046191,549.965,44.0508,-0.100424,154.895,-2.15945,-0.695978,0.0414642,-0.0162392,-0.024073,0.030235,-0.000501206,-0.000125693,0.0430345,0.04233584556024472,0.03069671922465078,-0.0005010804172546068,-0.01610805504768753,-0.00012568510096577779,-0.023785556497653015
71,0.047191,552.046,44.1985,-0.0982843,155.551,-2.19084,-0.695185,0.0423397,-0.0165883,-0.024595,0.0308828,-0.000514788,-0.000129573,0.0439952,0.0432488101849815,0.031364620869350324,-0.0005146555193916713,-0.016451471778792248,-0.00012956460578139595,-0.024295007458892237
72,0.048191,553.98,43.7215,0.169783,156.21,-2.38885,-0.547483,0.0432145,-0.0169414,-0.0251132,0.0315308,-0.00053159,-0.000130752,0.0449553,0.044161843546697055,0.032033161727518245,-0.0005314487310694727,-0.01679870145709972,-0.00013074345232977347,-0.02480048680501712
73,0.049191,555.862,43.6541,0.0986494,156.843,-2.46105,-0.556874,0.0440883,-0.0172919,-0.025633,0.0321783,-0.000547187,-0.000133931,0.0459147,0.045074630904306634,0.03270161958961504,-0.000547037320495658,-0.01714325312603171,-0.00013392203164397376,-0.025307263789227097
74,0.050191,557.782,43.7799,0.0148448,157.469,-2.48433,-0.579697,0.0449611,-0.0176412,-0.0261526,0.0328254,-0.000562241,-0.000137393,0.0468733,0.0459871702163861,0.03337009707021377,-0.0005620829721468823,-0.01748650503527882,-0.00013738356201398183,-0.025813582581948324
75,0.051191,560.276,45.1367,0.0797453,158.071,-2.23455,-0.665899,0.0458328,-0.0179836,-0.0266743,0.0334713,-0.000572307,-0.000142118,0.04783,0.04689935475053186,0.034037766416515014,-0.0005721432635862334,-0.01782286006868683,-0.00014210790171542698,-0.026321683086374503
76,0.052191,562.047,45.1638,-0.0896757,158.674,-2.27434,-0.716541,0.0467037,-0.0183311,-0.0271944,0.0341178,-0.00058619,-0.000146677,0.0487872,0.04781149653307093,0.03470648797345488,-0.000586018224208007,-0.018164107329667445,-0.00014666624345471835,-0.026827961509884757
77,0.053191,563.879,44.7252,0.244294,159.284,-2.46474,-0.552604,0.047574,-0.0186824,-0.0277099,0.0347642,-0.000603019,-0.000147618,0.0497435,0.048723803811432376,0.03537553846110253,-0.0006028372205835186,-0.01850896570084304,-0.00014760710499917007,-0.027329502412452134
78,0.054191,565.557,44.6307,0.103821,159.871,-2.53248,-0.582147,0.0484432,-0.0190311,-0.0282275,0.0354102,-0.000618655,-0.000151125,0.0506993,0.04963575081645821,0.03604460714486546,-0.0006184636724527737,-0.0188511519608614,-0.00015111358119246354,-0.02783282639052087
79,0.055191,567.314,44.7489,-0.00250068,160.453,-2.55089,-0.612001,0.0493114,-0.0193785,-0.0287448,0.0360558,-0.000633714,-0.00015479,0.0516541,0.05054744028244729,0.03671369350107456,-0.0006335132456922743,-0.019191943871687878,-0.00015477802064600699,-0.028335598416232788
80,0.056191,569.636,45.9841,0.0986148,161.013,-2.32712,-0.675627,0.0501786,-0.0197198,-0.0292635,0.0367002,-0.000644357,-0.000159212,0.052607,0.05145887016153661,0.03738196709979502,-0.000644149446610176,-0.019526636542691267,-0.00015919932644214985,-0.028839470050928573
81,0.057191,571.309,46.1299,-0.089529,161.572,-2.3332,-0.744058,0.051045,-0.0200649,-0.0297814,0.037345,-0.000657873,-0.000164065,0.0535603,0.05237024887889463,0.03805108669315471,-0.0006576566490044122,-0.019864939522883707,-0.00016405154207388417,-0.029342303869332786
82,0.058191,572.918,45.4684,0.251923,162.145,-2.57278,-0.558026,0.0519108,-0.0204157,-0.0302939,0.0379899,-0.000675641,-0.000164701,0.0545129,0.05328178558767371,0.03872074174602602,-0.0006754128060149078,-0.0202087106011265,-0.0001646874375348384,-0.029839638485718578
83,0.059191,574.781,46.4176,-0.106976,162.678,-2.37264,-0.752412,0.0527752,-0.0207562,-0.0308129,0.0386337,-0.000686687,-0.000171136,0.0554643,0.0541926359759588,0.03938968546944133,-0.0006864512844393378,-0.020542272742989365,-0.00017112135707009202,-0.030343021074263454
84,0.060191,576.247,45.704,0.102033,163.232,-2.61172,-0.60995,0.0536392,-0.0211062,-0.0313249,0.039278,-0.000704555,-0.000172578,0.0564155,0.05510385200208057,0.040059580027147046,-0.0007043068594055901,-0.020885022962741973,-0.00017256310927360463,-0.030839358374281978
85,0.061191,578.189,46.7327,-0.0940245,163.755,-2.40513,-0.754029,0.0545018,-0.021446,-0.0318423,0.0399211,-0.000715593,-0.000178362,0.0573651,0.056014377237893154,0.04072865746185217,-0.0007153370243909718,-0.021217669712055853,-0.0001783460944441151,-0.031340672389139956
86,0.062191,579.858,46.9294,-0.119659,164.282,-2.4089,-0.768389,0.0553638,-0.0217895,-0.032357,0.0405642,-0.000729237,-0.000182595,0.0583143,0.05692505407640014,0.0413981653186426,-0.000728971171320203,-0.021553823704756225,-0.0001825783305475781,-0.0318391130603507
87,0.063191,581.345,46.2994,0.186024,164.819,-2.63452,-0.596783,0.0562251,-0.0221382,-0.0328673,0.0412074,-0.000746889,-0.000183565,0.0592631,0.057835775771473585,0.04206820808122802,-0.0007466101478390552,-0.021894948407881865,-0.00018354815297627614,-0.03233303952490019
88,0.064191,582.852,46.2814,0.106759,165.333,-2.68203,-0.615866,0.0570854,-0.0224832,-0.0333798,0.0418501,-0.000762524,-0.000187005,0.0602109,0.05874622346229086,0.04273816058473767,-0.0007622333524546221,-0.022232336447897794,-0.000186987515654935,-0.0328288417819631
89,0.065191,584.871,47.5422,0.0251802,165.83,-2.42668,-0.738967,0.0579445,-0.0228208,-0.033895,0.0424916,-0.000772858,-0.000192385,0.061157,0.05965618316008903,0.0434072917156163,-0.0007725594221802412,-0.02256237509745429,-0.0001923664951926085,-0.033327000026094455
90,0.066191,586.052,46.6426,0.0947087,166.344,-2.69489,-0.630833,0.0588032,-0.0231692,-0.0344045,0.043134,-0.000791223,-0.000194298,0.0621039,0.06056650071347369,0.0440777919014157,-0.0007909100656211532,-0.02290285505091838,-0.00019427912536607028,-0.03381939447144455
91,0.067191,587.882,47.6831,-0.0916417,166.828,-2.48162,-0.773342,0.0596606,-0.023507,-0.0349188,0.043775,-0.000802292,-0.000200078,0.0630487,0.061476220372272516,0.04474726030772591,-0.0008019702498249792,-0.023232862725047987,-0.0002000579857317497,-0.034316173399216554
92,0.068191,589.417,47.8471,-0.114779,167.319,-2.48927,-0.784552,0.0605173,-0.0238486,-0.0354305,0.0444161,-0.000816127,-0.000204269,0.0639933,0.062385976688741795,0.04541726252257128,-0.0008157940589401669,-0.0235664693958777,-0.0002042481385082784,-0.03481018740902453
93,0.069191,590.803,47.2739,0.176583,167.82,-2.69676,-0.623182,0.0613733,-0.0241948,-0.0359381,0.0450572,-0.000833569,-0.000205441,0.0649372,0.06329576842009543,0.0460876944135542,-0.0008332216778734747,-0.02390445217597781,-0.00020541989844280462,-0.035299993434609545
94,0.070191,592.201,47.2751,0.0938689,168.298,-2.73604,-0.645808,0.0622284,-0.0245375,-0.0364477,0.0456977,-0.00084907,-0.000209015,0.0658804,0.06420538148131016,0.04675792820128355,-0.0008487096420645157,-0.0242389028088279,-0.00020899315788669437,-0.035791479316716224
95,0.071191,594.053,48.3719,0.0347038,168.764,-2.5169,-0.747079,0.0630823,-0.0248739,-0.0369596,0.0463372,-0.000860059,-0.000214086,0.0668218,0.06511449454714091,0.047427543983194154,-0.0008596892552665825,-0.02456709363713072,-0.0002140630852275338,-0.03628493134863109
96,0.072191,595.412,48.4285,-0.0970381,169.23,-2.53915,-0.789778,0.0639355,-0.0252145,-0.0374696,0.046977,-0.000874158,-0.000218642,0.0677634,0.06602363801934286,0.04809790255067292,-0.0008737760352027779,-0.02489926951227517,-0.0002186180995797926,-0.03677630072380211
97,0.073191,596.775,47.9366,0.212564,169.709,-2.72711,-0.630585,0.0647881,-0.025559,-0.0379753,0.0476167,-0.000891312,-0.000219837,0.0687042,0.06693291734381268,0.048768585273932574,-0.0008909148994482585,-0.025235133857972936,-0.00021981283761729475,-0.03726327980548727
98,0.074191,598.301,48.7404,-0.117383,170.155,-2.55311,-0.803628,0.0656394,-0.0258951,-0.0384866,0.0482554,-0.000902929,-0.000226061,0.0696438,0.06784158405545648,0.04943864773101403,-0.0009025214822728778,-0.025562697279366775,-0.00022603545013744064,-0.037755401268949385
99,0.075191,599.48,47.9447,0.147417,170.624,-2.80891,-0.637926,0.0664904,-0.0262404,-0.0389908,0.0488945,-0.000921282,-0.000227193,0.0705832,0.06875070401916661,0.05010955833742714,-0.0009208577500328108,-0.025899112394583867,-0.00022716719362469995,-0.038240442706407696
100,0.076191,600.848,48.0496,0.110124,171.075,-2.82331,-0.649529,0.0673402,-0.0265808,-0.0394974,0.0495329,-0.000936632,-0.000230583,0.0715215,0.0696593143813049,0.050780162313483146,-0.0009361934971642283,-0.02623063990754082,-0.00023055641778324532,-0.038727546704272364
101,0.077191,602.607,49.2316,-0.00466992,171.51,-2.57517,-0.775572,0.068189,-0.0269147,-0.0400068,0.0501702,-0.00094729,-0.000236033,0.0724582,0.07056762664054084,0.05145003794412273,-0.0009468414624708155,-0.026555727220528458,-0.00023600514640298442,-0.039217094193649604
102,0.078191,603.893,49.296,-0.107011,171.948,-2.59503,-0.810857,0.0690371,-0.0272532,-0.0405138,0.0508078,-0.00096138,-0.000240527,0.0733949,0.07147596016908242,0.052120656258715536,-0.000960918022305024,-0.02688518234343895,-0.00024049807570025727,-0.039704087663616994
103,0.079191,605.147,48.7621,0.201957,172.4,-2.79014,-0.6488,0.0698846,-0.0275958,-0.0410166,0.0514453,-0.000978667,-0.000241718,0.0743309,0.07238442095120656,0.05279159701672409,-0.0009781882616394233,-0.027218514376930347,-0.00024168878855790332,-0.040186803083513745
104,0.080191,606.593,49.5743,-0.116607,172.818,-2.61179,-0.81911,0.0707308,-0.0279299,-0.0415248,0.0520818,-0.000990267,-0.000247908,0.0752658,0.0732922566993488,0.05346191217339347,-0.0009897768474417257,-0.027543466385021476,-0.00024787727335096044,-0.04067445622702748
105,0.081191,607.687,48.7906,0.1414,173.26,-2.86182,-0.657147,0.0715766,-0.0282731,-0.0420263,0.0527187,-0.00100853,-0.000249125,0.0762004,0.0742004313029645,0.05413307577461768,-0.0010080216045446067,-0.02787715620290998,-0.0002490939709439699,-0.041155437371127146
106,0.082191,608.975,48.9127,0.102877,173.685,-2.86921,-0.67112,0.0724214,-0.0286113,-0.0425301,0.0533549,-0.00102375,-0.000252593,0.0771339,0.07510829925675844,0.05480392861308614,-0.001023226146748879,-0.028205872559613043,-0.00025256110107407803,-0.04163838159791389
107,0.083191,610.614,49.9889,4.27251e-05,174.096,-2.64377,-0.783976,0.0732651,-0.0289437,-0.0430363,0.0539901,-0.00103478,-0.000257849,0.0780659,0.07601575088348067,0.055474152909242624,-0.0010342447997965243,-0.028528843246872326,-0.000257815759803659,-0.04212338148532124
108,0.084191,611.564,49.1626,0.107511,174.523,-2.89041,-0.672823,0.0741084,-0.0292857,-0.0435369,0.054626,-0.00105302,-0.00025975,0.0789984,0.07692353768070581,0.05614554236873204,-0.0010524657689956474,-0.028861029575381836,-0.0002597162678894538,-0.04260277451846217
109,0.085191,612.846,49.329,0.0902884,174.935,-2.8879,-0.684257,0.0749506,-0.0296227,-0.0440393,0.055261,-0.00106806,-0.000263222,0.0799294,0.07783090472276877,0.056816407765357235,-0.0010674898269292799,-0.029188248268968264,-0.0002631873601287582,-0.0430836500784888
110,0.086191,614.422,50.3313,-0.00168812,175.336,-2.67952,-0.787348,0.0757919,-0.0299545,-0.0445439,0.0558951,-0.00107938,-0.000268338,0.080859,0.07873806540654749,0.05748674755829164,-0.001078797678941923,-0.029510310175167698,-0.00026830200057892384,-0.043566388263572176
111,0.087191,615.373,49.6047,0.0975499,175.749,-2.9006,-0.687775,0.0766326,-0.030295,-0.0450433,0.0565299,-0.00109721,-0.000270429,0.0817891,0.0796453418183376,0.05815825325900126,-0.001096608285197198,-0.0298407056615293,-0.00027039243737392304,-0.04404391196168134
112,0.088191,616.903,50.6901,-0.0977748,176.137,-2.66304,-0.837857,0.0774721,-0.0306254,-0.0455477,0.0571632,-0.00110798,-0.000276359,0.0827172,0.08055208463483843,0.05882859712277,-0.0011073664167933206,-0.030161193344897974,-0.00027632081636908,-0.04452597462606345
113,0.089191,618.076,50.708,-0.111713,176.537,-2.69598,-0.834876,0.078311,-0.0309606,-0.046049,0.0577968,-0.00112229,-0.00028036,0.0836452,0.08145894010598242,0.05949968349962065,-0.0011216604681058007,-0.0304862288338974,-0.0002803207028077015,-0.04500483371892361
114,0.090191,619.199,50.254,0.154605,176.945,-2.86386,-0.693505,0.0791493,-0.031299,-0.0465469,0.0584302,-0.00113912,-0.000281926,0.0845724,0.08236590723763237,0.06017098317731362,-0.0011384714490952907,-0.030814256788599725,-0.0002818862625997287,-0.045480207458101884
115,0.091191,620.249,50.079,0.105085,177.337,-2.9384,-0.689604,0.0799866,-0.0316355,-0.0470461,0.0590632,-0.00115512,-0.000285178,0.0854989,0.08327255172550885,0.06084228385391377,-0.0011544531056985052,-0.031140332925803427,-0.0002851373406193014,-0.04595658482485532
116,0.092191,621.832,51.2835,-0.00309056,177.713,-2.67728,-0.81738,0.0808228,-0.0319641,-0.0475484,0.0596949,-0.00116551,-0.000290681,0.0864237,0.08417876306741956,0.061512629631046645,-0.001164831057017146,-0.03145864791038777,-0.00029063875637136416,-0.046435680497346477
117,0.093191,622.877,51.2172,-0.106616,178.096,-2.72271,-0.842566,0.0816584,-0.0322983,-0.048048,0.060327,-0.00117995,-0.000295026,0.0873487,0.08508508144892368,0.0621838238728285,-0.0011792541327219075,-0.03178228034826358,-0.00029498248410919636,-0.04691196224628247
118,0.094191,623.98,50.7765,0.188963,178.49,-2.8888,-0.693687,0.0824933,-0.0326353,-0.048544,0.0609589,-0.00119671,-0.000296462,0.0882727,0.08599139727231964,0.06285522993953951,-0.001195994228140207,-0.03210851474620269,-0.00029641805948366073,-0.04738457669493579
119,0.095191,624.967,50.5859,0.11609,178.87,-2.96361,-0.695815,0.0833274,-0.0329705,-0.0490414,0.0615904,-0.00121268,-0.000299782,0.0891961,0.08689760057633356,0.0635266349910788,-0.0012119450007451738,-0.03243289760245571,-0.0002997370698660795,-0.047858289784275754
120,0.096191,626.489,51.7537,0.000180091,179.234,-2.70864,-0.822487,0.0841603,-0.033298,-0.0495417,0.0622207,-0.00122314,-0.000305252,0.0901177,0.08780325469515549,0.06419718713142109,-0.0012223922691610989,-0.03274972394534548,-0.0003052054153483974,-0.048334527141188355
121,0.097191,627.218,50.7324,0.118539,179.618,-2.99983,-0.692034,0.0849929,-0.0336367,-0.0500359,0.0628519,-0.00124193,-0.000306888,0.09104,0.08870933683466609,0.0648691204357803,-0.0012411591240951703,-0.033077276139749756,-0.00030684091469446173,-0.0488047240226559
122,0.098191,628.366,50.9247,0.0967197,179.987,-2.9857,-0.707811,0.0858245,-0.0339692,-0.0505322,0.063482,-0.00125675,-0.000310407,0.0919608,0.08961508407668295,0.06554030590334192,-0.0012559606204376461,-0.033398724501681576,-0.0003103588287315384,-0.049276685111291796
123,0.099191,629.779,51.891,-0.00793984,180.345,-2.77886,-0.811951,0.086655,-0.0342969,-0.0510306,0.0641113,-0.00126806,-0.000315515,0.0928801,0.09052038527829831,0.06621106144894351,-0.0012672563516454849,-0.03371542784498549,-0.0003154652303768435,-0.04975040754999438
124,0.1002,630.873,52.1333,-0.128466,180.703,-2.74586,-0.868015,0.0874848,-0.0346272,-0.0515277,0.0647405,-0.00128136,-0.000320288,0.0937994,0.09142567464661489,0.0668821325456348,-0.0012805394088035715,-0.03403453893507047,-0.00032023671327419123,-0.050222659234520406
125,0.1012,631.791,51.3536,0.210786,181.08,-2.99529,-0.676887,0.0883142,-0.0349638,-0.0520194,0.06537,-0.00129942,-0.000321057,0.0947181,0.09233127860321355,0.06755394627926004,-0.0012985761193897716,-0.03435962819367333,-0.0003210054667165396,-0.050689549958483626
126,0.1022,633.062,52.3741,-0.137684,181.421,-2.75388,-0.876607,0.0891423,-0.0352895,-0.0525179,0.0659981,-0.00131006,-0.000327636,0.0956353,0.093236212771304,0.06822468753715882,-0.0013092022460088337,-0.03467408605052891,-0.00032758233318697094,-0.05116266328453534
127,0.1032,633.875,51.4563,0.148285,181.792,-3.0319,-0.695269,0.08997,-0.0356261,-0.0530086,0.0666269,-0.00132859,-0.0003286,0.0965526,0.09414145896907278,0.06889659844733353,-0.0013277078150365496,-0.03499896007379888,-0.0003285460169331067,-0.05162814355073819
128,0.1042,634.95,51.6433,0.0998198,182.143,-3.01476,-0.719252,0.0907967,-0.0359566,-0.0535024,0.0672547,-0.00134328,-0.000332223,0.0974686,0.09504635970238406,0.06956786241955237,-0.0013423782032545573,-0.03531784021964768,-0.0003321678200499667,-0.05209633396772528
129,0.1052,636.286,52.5474,0.00126152,182.486,-2.82094,-0.815796,0.0916225,-0.0362826,-0.0539978,0.0678818,-0.00135474,-0.000337194,0.0983834,0.09595102247007214,0.070238798776183,-0.0013538227540228487,-0.03563227534802549,-0.0003371371564924175,-0.052565809145274645
130,0.1062,637.316,52.7613,-0.118525,182.828,-2.79276,-0.869545,0.0924475,-0.0366112,-0.054492,0.0685088,-0.00136811,-0.000341882,0.0992979,0.09685555513202893,0.07091004891794439,-0.0013671745641555821,-0.03594911452281868,-0.0003418235650085588,-0.05303391544380143
131,0.1072,638.212,52.0836,0.198305,183.188,-3.01424,-0.694889,0.093272,-0.0369453,-0.0549813,0.0691359,-0.00138568,-0.000342892,0.100212,0.09776028546106041,0.07158182722369366,-0.0013847203887580317,-0.036271150124613794,-0.00034283321925687726,-0.0534971526087602
132,0.1082,639.392,52.9706,-0.121711,183.515,-2.80517,-0.873839,0.0940953,-0.0372698,-0.0554766,0.0697618,-0.00139676,-0.000349136,0.101124,0.09866444364972726,0.07225274022967554,-0.0013957849847581194,-0.03658382940144189,-0.000349075059119186,-0.05396583938921029
133,0.1092,640.199,52.2093,0.126923,183.868,-3.04104,-0.718607,0.0949183,-0.0376036,-0.0559652,0.0703882,-0.00141457,-0.000350485,0.102037,0.09956901666759022,0.0729246097537215,-0.0014135699674517888,-0.03690536405206901,-0.0003504235873073025,-0.054427958775125296
134,0.1102,641.456,53.2151,-0.114577,184.192,-2.80908,-0.876582,0.09574,-0.037927,-0.0564594,0.0710132,-0.00142531,-0.000356458,0.102948,0.10047290383977248,0.07359539723406971,-0.001424294728118336,-0.03721677849890437,-0.00035639447639512767,-0.05489514502666726
135,0.1112,642.218,52.399,0.124038,184.541,-3.0568,-0.719774,0.0965613,-0.0382604,-0.056947,0.0716389,-0.00144327,-0.000357778,0.103859,0.10137709349035062,0.07426735607451951,-0.0014422289867348503,-0.03753771692154495,-0.00035771400508355367,-0.05535586582109442
136,0.1122,643.478,53.4466,-0.117323,184.86,-2.8141,-0.881394,0.0973815,-0.038583,-0.0574404,0.0722632,-0.00145382,-0.000363798,0.104768,0.10228081354736362,0.07493823057660332,-0.0014527637156482864,-0.03784815717736045,-0.00036373183353155536,-0.05582183827204146
137,0.1132,644.215,52.5991,0.126516,185.204,-3.06939,-0.720263,0.0982013,-0.0389159,-0.057927,0.0728881,-0.00147187,-0.00036505,0.105678,0.10318483386560762,0.07561016940231058,-0.0014707873305995767,-0.03816840421775869,-0.0003649833773559097,-0.05628116360262214
138,0.1142,645.465,53.667,-0.120181,185.518,-2.82065,-0.885387,0.0990198,-0.0392378,-0.0584195,0.0735115,-0.00148231,-0.000371112,0.106585,0.1040881602880337,0.07628091383123214,-0.00148121192116335,-0.03847796798148018,-0.0003710431464594155,-0.05674583069588379
139,0.1152,646.183,52.805,0.12788,185.858,-3.07941,-0.721722,0.0998381,-0.0395701,-0.0589052,0.0741357,-0.00150037,-0.000372324,0.107493,0.10499200538738407,0.07695293809459836,-0.0014992450076368735,-0.03879742867138658,-0.0003722546960209794,-0.057203858004978514
140,0.1162,647.42,53.8768,-0.121297,186.168,-2.82881,-0.888002,0.100655,-0.0398913,-0.0593968,0.0747584,-0.00151076,-0.000378392,0.108399,0.10589504215173307,0.07762376552959527,-0.0015096193765862242,-0.03910611735924019,-0.00037832041877605693,-0.057667222684013364
141,0.1172,648.125,53.0162,0.127344,186.504,-3.0869,-0.724366,0.101472,-0.0402229,-0.0598816,0.0753818,-0.00152878,-0.000379601,0.109306,0.10679892758809406,0.07829576562569329,-0.001527612011130941,-0.03942469694730899,-0.00037952896065607256,-0.0581239548936231
142,0.1182,649.343,54.0764,-0.120413,186.809,-2.83855,-0.889176,0.102287,-0.0405436,-0.0603723,0.0760037,-0.00153917,-0.000385637,0.11021,0.10770133639571733,0.07896656632619381,-0.0015379860853487193,-0.03973270405541829,-0.00038556265160960557,-0.058586020091988766
143,0.1192,650.039,53.2324,0.124855,187.14,-3.09194,-0.728187,0.103102,-0.0408745,-0.0608562,0.0766263,-0.00155709,-0.000386881,0.111115,0.10860448096630138,0.07963854007410975,-0.0015558783643228047,-0.04005040393730208,-0.00038680617119613014,-0.0590414601142657
144,0.1202,651.235,54.2662,-0.117578,187.441,-2.84979,-0.888965,0.103916,-0.0411947,-0.061346,0.0772475,-0.00156755,-0.000392847,0.112018,0.10950725239193049,0.0803094198889005,-0.0015663220352146734,-0.04035773059233805,-0.00039276984572089724,-0.05950222875564981
145,0.1212,651.927,53.4533,0.120524,187.768,-3.09469,-0.733096,0.10473,-0.0415248,-0.0618291,0.0778693,-0.00158529,-0.000394162,0.112921,0.1104107589726675,0.08098136517232613,-0.0015840340915552753,-0.04067445622702748,-0.00039408432836429697,-0.059956473497286056
146,0.1222,653.098,54.447,-0.112963,188.066,-2.86233,-0.887494,0.105542,-0.0418446,-0.0623179,0.0784898,-0.00159587,-0.000400023,0.113823,0.11131277867939238,0.081652322252322,-0.0015945972765952776,-0.040981199485064845,-0.00039994300146717343,-0.060415854491179255
147,0.1232,653.789,53.6778,0.114557,188.388,-3.09539,-0.738949,0.106354,-0.0421739,-0.0628002,0.0791107,-0.0016134,-0.000401441,0.114725,0.11221553112357041,0.08232412871994366,-0.0016120991699004605,-0.04129695238450626,-0.0004013604333430454,-0.06086890666224487
148,0.1242,654.933,54.62,-0.106812,188.683,-2.87593,-0.88493,0.107165,-0.0424933,-0.0632879,0.0797305,-0.00162414,-0.000407167,0.115625,0.1131179037819654,0.08299516114639172,-0.0016228217983748072,-0.04160311324142296,-0.0004070841187662211,-0.061326809227849055
149,0.1252,655.844,54.8102,-0.172769,188.987,-2.8522,-0.913868,0.107975,-0.0428159,-0.0637734,0.0803502,-0.00163721,-0.000411562,0.116524,0.11401989454097006,0.08366650124099784,-0.0016358705028204357,-0.04191224221190737,-0.0004114773199774824,-0.06178242445242377
150,0.1262,656.59,54.026,0.194456,189.307,-3.09958,-0.713353,0.108785,-0.0431446,-0.0642537,0.08097,-0.00165484,-0.000412193,0.117424,0.11492261620846711,0.0843383659278254,-0.0016534715072701323,-0.0422271139058944,-0.0004121080601363625,-0.062232942153472526
151,0.1272,657.642,54.9279,-0.127306,189.593,-2.88096,-0.894963,0.109593,-0.043463,-0.0647405,0.0815886,-0.00166552,-0.000418383,0.118322,0.1158238377268257,0.08500934515346614,-0.001664133791257738,-0.04253202024916103,-0.000418295490037357,-0.06268933606194216
152,0.1282,658.327,54.1942,0.117076,189.905,-3.106,-0.744302,0.110401,-0.0437906,-0.0652207,0.0822076,-0.00168283,-0.000419761,0.119219,0.11672578772643805,0.08568117384764529,-0.0016814148355339675,-0.0428456353863631,-0.0004196729126770826,-0.06313932459187221
153,0.1292,659.128,54.0948,0.113691,190.206,-3.15445,-0.727949,0.111209,-0.0441147,-0.0657024,0.082826,-0.00169811,-0.000422728,0.120116,0.11762846679615446,0.08635276672066672,-0.0016966690269729634,-0.04315579885123,-0.0004226386631078771,-0.06359050170448466
154,0.1302,660.405,55.3641,-0.0493412,190.489,-2.85835,-0.87779,0.112015,-0.0444308,-0.0661878,0.0834432,-0.0017076,-0.000428413,0.121011,0.11852963846378817,0.08702347060621451,-0.0017061428806303125,-0.04345820950469126,-0.00042832124425429274,-0.06404492457760369
155,0.1312,660.926,54.3845,0.117704,190.795,-3.13731,-0.73769,0.112821,-0.0447585,-0.0666666,0.0840612,-0.00172565,-0.000429875,0.121907,0.11943153676858143,0.08769545873399309,-0.0017241619221289861,-0.043771616894831,-0.00042978261698034537,-0.06449295260124788
156,0.1322,662.066,55.4464,-0.114693,191.072,-2.88557,-0.89771,0.113626,-0.0450748,-0.067151,0.0846778,-0.00173577,-0.00043576,0.122801,0.12033304196283767,0.08836633856484499,-0.0017342644224915826,-0.044074024104185816,-0.00043566507040049274,-0.06494600247746907
157,0.1332,662.685,54.6441,0.114352,191.377,-3.12505,-0.746189,0.11443,-0.0454011,-0.067629,0.0852949,-0.00175319,-0.000437101,0.123695,0.1212341519262401,0.08903817670671166,-0.0017516540601412167,-0.04438589186612818,-0.00043700548527492167,-0.06539285148286433
158,0.1342,663.764,55.572,-0.106534,191.653,-2.9062,-0.890778,0.115233,-0.0457175,-0.0681122,0.0859108,-0.00176377,-0.000442748,0.124587,0.12213486453795142,0.08970912191611324,-0.0017622154717712446,-0.044688200342218876,-0.0004426500015676238,-0.06584434456751398
159,0.1352,664.612,55.7445,-0.167437,191.939,-2.88482,-0.916817,0.116036,-0.0460372,-0.0685932,0.0865266,-0.00177671,-0.000447029,0.125479,0.1230363007123616,0.09038037144990851,-0.00177513258512918,-0.044993564709474465,-0.00044692909742360953,-0.06629356539150777
160,0.1362,665.312,55.0118,0.182801,192.241,-3.11651,-0.726572,0.116838,-0.0463624,-0.0690694,0.0871425,-0.00179389,-0.000447778,0.126371,0.12393733709282562,0.09105214357167402,-0.0017922819410379764,-0.04530408230933258,-0.0004476777623932948,-0.0667380905458288
161,0.1372,666.285,55.8288,-0.116417,192.511,-2.91771,-0.893524,0.117639,-0.0466783,-0.0695515,0.0877573,-0.00180468,-0.000453692,0.127261,0.12483797155578547,0.09172312866922616,-0.0018030525442083167,-0.04560562311885252,-0.00045358909734716235,-0.0671879076752454
162,0.1382,667.11,55.9813,-0.176146,192.792,-2.90053,-0.917621,0.118439,-0.0469972,-0.0700312,0.088372,-0.00181766,-0.000457928,0.128151,0.12573820197718621,0.09239441717580399,-0.0018160090564983689,-0.04590993096117557,-0.00045782316697595693,-0.06763527032742289
163,0.1392,667.831,55.3255,0.181524,193.088,-3.11371,-0.731616,0.119239,-0.0473212,-0.0705062,0.0889867,-0.0018345,-0.000458731,0.12904,0.12663915287107486,0.09306611845027812,-0.0018328183333713444,-0.04621900607067264,-0.00045862579902178346,-0.0680780384082732
164,0.1402,668.535,55.1909,0.136063,193.367,-3.16586,-0.732512,0.120038,-0.0476419,-0.0709833,0.0896009,-0.00184952,-0.000461859,0.129929,0.12753969727379877,0.09373768587747522,-0.0018478106918470294,-0.046524834593201,-0.0004617523595502604,-0.0685225523289209
165,0.1412,669.699,56.3519,-0.0410534,193.632,-2.89152,-0.878308,0.120836,-0.0479552,-0.0714638,0.0902139,-0.00185912,-0.000467404,0.130816,0.12843983305863382,0.09440835261727254,-0.0018573929068697037,-0.04682351157233111,-0.00046729478376705824,-0.06897001972987449
166,0.1422,670.19,55.4669,0.105411,193.919,-3.14412,-0.752878,0.121634,-0.0482789,-0.0719381,0.0908276,-0.00187651,-0.00046904,0.131703,0.12934068743850657,0.09508019715768468,-0.001874750455882701,-0.04713200486930125,-0.0004689300179352429,-0.06941150254359107
167,0.1432,670.917,55.3736,0.100925,194.197,-3.18813,-0.73788,0.122431,-0.0485987,-0.0724138,0.0914406,-0.00189144,-0.000471972,0.132589,0.1302411307453888,0.09575168710918547,-0.0018896523546154675,-0.04743668333346096,-0.00047186063873605466,-0.06985407821686129
168,0.1442,672.131,56.65,-0.0488514,194.456,-2.8874,-0.883788,0.123226,-0.0489106,-0.0728931,0.0920523,-0.00190059,-0.000477516,0.133474,0.1311400297093257,0.09642216346047583,-0.0018987850225143932,-0.047733741503299565,-0.00047740200738000116,-0.07029979033373035
169,0.1452,672.591,55.7082,0.109648,194.739,-3.15447,-0.750268,0.124022,-0.0492337,-0.0733659,0.0926649,-0.00191813,-0.000479021,0.134359,0.132040775622287,0.09709403745180367,-0.001916291564292294,-0.04804136903151646,-0.0004789062877580408,-0.07073924869671722
170,0.1462,673.628,56.6736,-0.105752,194.996,-2.92383,-0.896324,0.124816,-0.0495463,-0.073844,0.0932761,-0.00192828,-0.00048461,0.135242,0.13293997293222248,0.09776478628745755,-0.001926422062520583,-0.04833890479229486,-0.0004844925955398427,-0.07118342207380879
171,0.1472,674.411,56.8323,-0.164992,195.263,-2.90349,-0.920914,0.12561,-0.0498625,-0.0743198,0.0938874,-0.00194098,-0.000488791,0.136125,0.1338398844883406,0.09843605505370978,-0.0019390975164710333,-0.04863977246091433,-0.000488671561140186,-0.07162524788289082
172,0.1482,675.048,56.1052,0.175013,195.547,-3.131,-0.734768,0.126403,-0.050184,-0.074791,0.0944986,-0.00195781,-0.000489549,0.137008,0.134739376118034,0.09910762438123877,-0.0019558947401108195,-0.048945585611970044,-0.0004894291904399273,-0.07206259501901113
173,0.1492,675.714,55.9772,0.134358,195.813,-3.18026,-0.734801,0.127196,-0.050502,-0.0752643,0.0951093,-0.00197259,-0.000492618,0.13789,0.13563958132748666,0.09977905440773926,-0.0019706457229765606,-0.04924797283362892,-0.0004924966836746814,-0.0725016838742143
174,0.1502,676.837,57.145,-0.0457254,196.064,-2.90167,-0.882091,0.127987,-0.0508126,-0.0757409,0.0957188,-0.00198192,-0.000498127,0.13877,0.13653822760406364,0.10044957406150767,-0.0019799572934133813,-0.049543230557368645,-0.0004980029553434129,-0.07294362424892309
175,0.1512,677.294,56.2771,0.102267,196.338,-3.14902,-0.757912,0.128778,-0.0511335,-0.0762115,0.0963291,-0.00199901,-0.000499741,0.13965,0.1374375849910523,0.10112138341833043,-0.0019970133101991916,-0.04984818320241391,-0.0004996161502648366,-0.07337979434047925
176,0.1522,677.985,56.1965,0.0973257,196.602,-3.18839,-0.744382,0.129568,-0.0514505,-0.0766834,0.0969386,-0.0020136,-0.000502663,0.14053,0.138336515714079,0.10179272147101259,-0.002011574067554034,-0.05014933359347995,-0.0005025366861195479,-0.07381696325741127
177,0.1532,679.129,57.3969,-0.046878,196.849,-2.90422,-0.88179,0.130357,-0.0517601,-0.0771587,0.0975469,-0.00202279,-0.000508023,0.141408,0.1392350176373749,0.10246314587239191,-0.002020745539045299,-0.05044336184187792,-0.000507893978165308,-0.07425707345430133
178,0.1542,679.575,56.5383,0.0990655,197.119,-3.14877,-0.759765,0.131146,-0.0520801,-0.077628,0.098156,-0.00203976,-0.000509654,0.142286,0.14013422875842974,0.1031348607245337,-0.0020376811032948305,-0.05074717135397411,-0.0005095241484608382,-0.07469142268171114
179,0.1552,680.257,56.4643,0.0951101,197.379,-3.1861,-0.746565,0.131934,-0.0523961,-0.0780987,0.0987643,-0.00205423,-0.00051257,0.143163,0.1410330086034426,0.10380610179758665,-0.0020521215135727022,-0.051047087858522855,-0.000512438658439085,-0.07512686294015047
180,0.1562,681.378,57.637,-0.0460107,197.622,-2.90823,-0.880539,0.132721,-0.0527049,-0.0785726,0.0993715,-0.00206344,-0.00051786,0.144039,0.14193135503416676,0.10447653638594057,-0.0020613125712086733,-0.05134007927758877,-0.0005177259336537343,-0.07556505648164258
181,0.1572,682.081,57.7686,-0.15401,197.873,-2.8901,-0.925125,0.133508,-0.0530181,-0.0790444,0.0999789,-0.00207584,-0.00052223,0.144915,0.14283040874180886,0.10514759921529104,-0.002073686934211616,-0.05163715304057925,-0.0005220936616479044,-0.07600110201676435
182,0.1582,682.629,56.9268,0.190178,198.144,-3.14468,-0.728872,0.134294,-0.0533372,-0.0795112,0.100586,-0.00209279,-0.000522779,0.14579,0.1437290265536164,0.10581873802634734,-0.002090601641865475,-0.05193972734674601,-0.0005226423748678766,-0.07643232404729061
183,0.1592,683.497,57.7473,-0.116912,198.382,-2.93907,-0.898074,0.135079,-0.0536465,-0.079984,0.101193,-0.00210298,-0.000528566,0.146664,0.14462720632889936,0.10649017376045866,-0.0021007702868254263,-0.052232917044953475,-0.0005284263336005068,-0.07686888363366251
184,0.1602,684.215,57.874,-0.16908,198.632,-2.92455,-0.917911,0.135863,-0.053959,-0.0804542,0.101799,-0.0021155,-0.000532575,0.147537,0.14552494592660015,0.10716091001831729,-0.0021132639069711967,-0.052529047985507504,-0.0005324332071076077,-0.07730283785394565
185,0.1612,684.845,57.2721,0.162693,198.896,-3.11901,-0.745389,0.136647,-0.054276,-0.0809202,0.102405,-0.00213149,-0.000533468,0.14841,0.14642338962811796,0.1078320528655321,-0.00212921998831217,-0.052829348677121746,-0.0005333257312462036,-0.07773271456245334
186,0.1622,685.464,57.1705,0.115883,199.145,-3.15944,-0.749963,0.13743,-0.05459,-0.0813882,0.103011,-0.0021457,-0.000536578,0.149282,0.14732139066372274,0.10850360254857105,-0.002143399631349463,-0.053126713572905326,-0.0005364340677697088,-0.07816423466845723
187,0.1632,686.472,58.1485,-0.0312768,199.382,-2.92686,-0.870046,0.138212,-0.0548977,-0.0818589,0.103615,-0.00215538,-0.000541603,0.150153,0.1482189468899664,0.10917334096515119,-0.002153058836490418,-0.05341802166309084,-0.0005414563595700361,-0.07859804065894949
188,0.1642,687.132,58.2421,-0.135836,199.624,-2.91676,-0.909767,0.138993,-0.0552091,-0.0823277,0.10422,-0.00216782,-0.000545798,0.151024,0.14911605616305845,0.10984459386996415,-0.00216547197522865,-0.05371274140090021,-0.0005456490793663837,-0.0790298926634696
189,0.1652,687.712,57.5935,0.169132,199.884,-3.1199,-0.742862,0.139774,-0.0555251,-0.0827921,0.104825,-0.00218382,-0.000546728,0.151894,0.15001386635216507,0.11051625300565715,-0.0021814371999548943,-0.05401172093336348,-0.0005465785714805493,-0.07945749188509243
190,0.1662,688.309,57.4865,0.114276,200.128,-3.16016,-0.74922,0.140554,-0.0558379,-0.0832585,0.105429,-0.00219792,-0.000549834,0.152763,0.15091122709311255,0.11118720743031085,-0.002195506342502651,-0.054307579792317595,-0.0005496828689864897,-0.07988673280411396
191,0.1672,689.308,58.4764,-0.0297608,200.36,-2.92406,-0.869138,0.141333,-0.0561444,-0.0837275,0.106032,-0.00220744,-0.000554825,0.153631,0.15180813623977385,0.11185745537583802,-0.002205005396066717,-0.05459739010341236,-0.0005546711130710591,-0.08031816474772979
192,0.1682,689.951,58.5649,-0.135119,200.598,-2.91452,-0.908846,0.142112,-0.0564547,-0.0841946,0.106635,-0.00221978,-0.000558987,0.154498,0.1527057443508717,0.11252810760275467,-0.002217318110330546,-0.05489070302341015,-0.0005588307958735994,-0.08074764781939592
193,0.1692,690.515,57.9184,0.167231,200.853,-3.11639,-0.743052,0.14289,-0.0567696,-0.0846574,0.107238,-0.00223565,-0.000559909,0.155366,0.15360289836763652,0.11319916435491639,-0.0022331527958435737,-0.055188271086477614,-0.0005597522802068822,-0.08117297937867074
194,0.1702,691.099,57.8153,0.1121,201.092,-3.1551,-0.749888,0.143668,-0.0570812,-0.0851222,0.107841,-0.00224961,-0.000563001,0.156232,0.15450075064181323,0.11387062587632535,-0.0022470815238078146,-0.05548262855793129,-0.0005628425446752017,-0.08159995094197736
195,0.1712,692.076,58.7835,-0.0290436,201.32,-2.9237,-0.866968,0.144444,-0.0573866,-0.0855896,0.108442,-0.00225909,-0.000567922,0.157097,0.1553969909205648,0.11454026332837519,-0.0022565401766408977,-0.05577104012048251,-0.0005677607628258308,-0.08202911082243003
196,0.1722,692.704,58.8654,-0.131832,201.553,-2.91529,-0.90532,0.14522,-0.0576958,-0.086055,0.109044,-0.00227135,-0.000572024,0.157962,0.15629392695168987,0.1152114185643558,-0.0022687724364743866,-0.05606295058319399,-0.0005718604254627557,-0.08245623507473032
197,0.1732,693.262,58.2495,0.161785,201.804,-3.10843,-0.745049,0.145995,-0.0580093,-0.0865163,0.109646,-0.00228697,-0.000573001,0.158826,0.1571904020843209,0.11588297795742752,-0.002284356876534166,-0.056358828466904654,-0.0005728368662780703,-0.08287940040290331
198,0.1742,693.834,58.1535,0.106008,202.038,-3.14481,-0.75276,0.14677,-0.0583197,-0.0869795,0.110247,-0.00230075,-0.000576093,0.159689,0.1580875722544719,0.11655382519658275,-0.002298105303369491,-0.056651689232206315,-0.0005759270902889746,-0.0833041122937691
199,0.1752,694.783,59.0741,-0.0253151,202.262,-2.92511,-0.862521,0.147543,-0.0586243,-0.0874451,0.110847,-0.00231028,-0.000580878,0.160551,0.15898312003244786,0.11722395851159129,-0.002307613357120042,-0.05693898936963393,-0.0005807093230363325,-0.08373082655229702
200,0.1762,695.395,59.1471,-0.124759,202.492,-2.91846,-0.899053,0.148316,-0.0589324,-0.0879088,0.111447,-0.00232249,-0.000584906,0.161413,0.15987936033648298,0.11789449402723684,-0.002319795106791145,-0.057229501711284825,-0.0005847349758315579,-0.08415560207620831
201,0.1772,695.954,58.5855,0.153466,202.737,-3.09646,-0.748508,0.149089,-0.0592445,-0.0883687,0.112047,-0.00233777,-0.000585996,0.162275,0.1607762937021069,0.11856543198491232,-0.002335039543854167,-0.05752369447263228,-0.0005858243378766836,-0.08457670207544654
202,0.1782,696.761,59.4616,-0.170826,202.956,-2.86956,-0.921156,0.14986,-0.0595478,-0.0888341,0.112646,-0.00234691,-0.000591783,0.163135,0.16167159731974534,0.11923565338994235,-0.0023441581599206174,-0.05780950419086406,-0.0005916079309764566,-0.08500264095463528
203,0.1792,697.383,59.4705,-0.192463,203.182,-2.8863,-0.92765,0.150631,-0.0598554,-0.0892963,0.113245,-0.0023592,-0.000595532,0.163994,0.1625675914826441,0.11990627637785622,-0.002356419274872068,-0.05809927741796772,-0.0005953547060150166,-0.08542545501412979
204,0.1802,697.924,58.7882,0.157922,203.426,-3.09978,-0.743733,0.151402,-0.0601673,-0.0897544,0.113844,-0.00237488,-0.000596172,0.164854,0.16346427672341868,0.1205773011892739,-0.0023720622035769967,-0.05839301044329459,-0.0005959943247832999,-0.08584432566354039
205,0.1812,698.473,58.6734,0.115964,203.654,-3.14096,-0.745014,0.152172,-0.0604759,-0.0902147,0.114442,-0.00238853,-0.000599115,0.165712,0.16436048921402424,0.12124760681679225,-0.0023856797319881107,-0.05868354552840238,-0.00059893556644397,-0.08626501469142989
206,0.1822,699.4,59.628,-0.0382721,203.87,-2.90958,-0.865057,0.15294,-0.0607783,-0.0906776,0.11504,-0.00239768,-0.000603992,0.166569,0.16525506154154423,0.12191831340695192,-0.002394807861257231,-0.058968156588873444,-0.0006038096335497789,-0.08668788473530664
207,0.1832,699.99,59.6964,-0.132677,204.092,-2.9035,-0.89958,0.153709,-0.0610844,-0.0911386,0.115637,-0.00240967,-0.000607951,0.167426,0.16615148731540397,0.12258829861074028,-0.0024067690758033944,-0.05925616235461029,-0.0006077662352352853,-0.08710882458635316
208,0.1842,700.521,59.1103,0.153083,204.33,-3.08729,-0.744597,0.154476,-0.0613947,-0.0915956,0.116235,-0.00242482,-0.000608933,0.168282,0.16704626861093574,0.1232598071743587,-0.0024218824987674026,-0.059548029881842934,-0.0006087476379270651,-0.08752592053983266
209,0.1852,701.31,60.002,-0.17528,204.542,-2.85491,-0.919939,0.155243,-0.0616959,-0.0920582,0.116831,-0.00243367,-0.000614702,0.169138,0.16794173646698374,0.1239294695590023,-0.002430711026040977,-0.05983125135994671,-0.0006145131094313916,-0.0879479334298836
210,0.1862,701.907,59.9995,-0.193028,204.762,-2.87378,-0.924191,0.156009,-0.0620015,-0.0925176,0.117427,-0.00244578,-0.000618362,0.169992,0.1688367225730345,0.12459953118138833,-0.0024427915169829006,-0.0601185230321839,-0.0006181708536197039,-0.08836683392045586
211,0.1872,702.426,59.3201,0.153618,204.998,-3.08542,-0.741808,0.156775,-0.0623115,-0.092973,0.118024,-0.00246121,-0.000618978,0.170847,0.1697323945010789,0.12527111755008802,-0.0024581837059588496,-0.060409841133405195,-0.0006187864726369119,-0.0887818971472184
212,0.1882,702.956,59.2108,0.112182,205.219,-3.12439,-0.743456,0.15754,-0.062618,-0.0934305,0.118619,-0.00247459,-0.000621882,0.1717,0.17062758214849016,0.1259408530915953,-0.0024715307261690134,-0.06069778138799964,-0.0006216886714669467,-0.08919868408199261
213,0.1892,703.851,60.1317,-0.0373168,205.429,-2.90035,-0.859034,0.158304,-0.0629186,-0.0938906,0.119214,-0.00248365,-0.000626637,0.172552,0.17152228335359232,0.12661098724432485,-0.0024805682931604567,-0.06098009320132314,-0.0006264407040393882,-0.0896176473775494
214,0.1902,704.418,60.1909,-0.127569,205.645,-2.89583,-0.89145,0.159067,-0.0632229,-0.0943487,0.119809,-0.00249546,-0.000630493,0.173404,0.17241649595451647,0.12728152024552108,-0.0024923489280841427,-0.06126579348745875,-0.0006302942810543222,-0.0900345980234486
215,0.1912,704.939,59.6493,0.144662,205.875,-3.06671,-0.744764,0.15983,-0.063531,-0.0948031,0.120404,-0.00251021,-0.000631543,0.174256,0.1733113911000128,0.12795245233256902,-0.002507062057427789,-0.06155497294610213,-0.0006313436186944354,-0.09044799237179768
216,0.1922,705.69,60.4727,-0.164473,206.082,-2.85166,-0.908068,0.160592,-0.0638307,-0.0952627,0.120998,-0.00251911,-0.00063707,0.175106,0.17420579510467937,0.12862265511977644,-0.002515939705069914,-0.0618361827793118,-0.0006368671139940218,-0.0908659264259013
217,0.1932,706.266,60.463,-0.179042,206.295,-2.87139,-0.910655,0.161354,-0.0641345,-0.0957193,0.121591,-0.00253107,-0.000640612,0.175956,0.17510088090492837,0.12929212683300717,-0.0025278695430904774,-0.06212115365771531,-0.0006404068519418882,-0.09128094228856343
218,0.1942,706.783,59.8687,0.140143,206.524,-3.05897,-0.744547,0.162115,-0.064442,-0.0961722,0.122185,-0.00254593,-0.000641405,0.176805,0.17599547302442553,0.1299631256232574,-0.002542691868818947,-0.06240950706635684,-0.0006411993437849262,-0.09169240796636491
219,0.1952,707.529,60.7159,-0.180595,206.727,-2.8365,-0.913616,0.162875,-0.0647407,-0.0966308,0.122777,-0.00255461,-0.000647006,0.177653,0.1768895692974719,0.1306322618384037,-0.0025513497606781677,-0.06268952352405621,-0.0006467967367519423,-0.09210886232778759
220,0.1962,708.098,60.6966,-0.185911,206.938,-2.85911,-0.912009,0.163634,-0.0650437,-0.0970861,0.12337,-0.00256649,-0.000650483,0.178501,0.17778316755821,0.13130292560182655,-0.002563199380256176,-0.06297348557600502,-0.0006502714817988586,-0.09252213107500029
221,0.1972,708.601,60.0781,0.139446,207.164,-3.05285,-0.741837,0.164393,-0.0653506,-0.0975378,0.123963,-0.00258134,-0.000651199,0.179348,0.17867744431748545,0.13197398718680353,-0.002578011206767261,-0.06326101488965175,-0.0006509870159483455,-0.09293194626466517
222,0.1982,709.344,60.9434,-0.183929,207.364,-2.82517,-0.9133,0.165151,-0.0656484,-0.0979953,0.124554,-0.00258984,-0.00065681,0.180194,0.17957122051866414,0.13264318154068433,-0.0025864892576402676,-0.06353993422626703,-0.0006565943475287384,-0.09334683498621743
223,0.1992,709.903,60.9177,-0.187766,207.572,-2.84913,-0.910682,0.165908,-0.0659506,-0.0984495,0.125145,-0.00260164,-0.000660251,0.18104,0.1804644939939497,0.13331277150531995,-0.0025982586676273067,-0.06382288970141814,-0.0006600330822712497,-0.09375854334771994
224,0.2002,710.395,60.2896,0.138901,207.797,-3.04502,-0.739289,0.166665,-0.0662567,-0.0989,0.125737,-0.00261642,-0.000660928,0.181885,0.1813584439332654,0.13398389129790944,-0.0026130001564244054,-0.06410940966076362,-0.0006607096351998187,-0.0941667131767846
225,0.2012,711.132,61.1581,-0.184779,207.994,-2.81602,-0.911124,0.167421,-0.0665536,-0.0993563,0.126327,-0.00262481,-0.000666516,0.182729,0.18225188859640862,0.13465313920249322,-0.0026213681982490966,-0.06438723433192206,-0.0006662939275519086,-0.09457995061826985
226,0.2022,711.681,61.1276,-0.187332,208.2,-2.84091,-0.907681,0.168177,-0.0668551,-0.0998093,0.126917,-0.00263652,-0.000669917,0.183573,0.18314600895909927,0.13532278207984638,-0.0026330474336454524,-0.06466927906039166,-0.0006696926557067107,-0.09499001301449461
227,0.2032,712.166,60.5036,0.136911,208.421,-3.03523,-0.737465,0.168932,-0.0671603,-0.100259,0.127508,-0.00265117,-0.000670588,0.184416,0.18403962149214625,0.13599395615645937,-0.002647658752472304,-0.06495469843920965,-0.0006703632061179077,-0.09539690450923222
228,0.2042,712.892,61.3601,-0.182889,208.617,-2.80907,-0.907016,0.169686,-0.0674565,-0.100714,0.128097,-0.00265951,-0.000676114,0.185258,0.1849327240240939,0.13666325368540844,-0.0026559766363126736,-0.06523161784374354,-0.0006758854864328256,-0.09580840529415269
229,0.2052,713.433,61.326,-0.184306,208.82,-2.83453,-0.902898,0.170439,-0.0677572,-0.101166,0.128686,-0.00267115,-0.00067947,0.1861,0.1858253143833788,0.13733294554672137,-0.002667585653180038,-0.06551266043938608,-0.0006792392125335445,-0.09621700754389473
230,0.2062,713.914,60.7205,0.133335,209.038,-3.02341,-0.736431,0.171192,-0.0680615,-0.101614,0.129275,-0.00268562,-0.00068017,0.186941,0.18671857711632112,0.13800303197272856,-0.0026820169488049883,-0.06579698167514436,-0.0006799387368212617,-0.09662181164162675
231,0.2072,714.625,61.5493,-0.178034,209.232,-2.80438,-0.900884,0.171944,-0.0683571,-0.102068,0.129863,-0.00269397,-0.000685591,0.187781,0.18761132511749,0.13867237452295322,-0.0026903445191958086,-0.06607309127635164,-0.0006853560361897992,-0.09703185225287969
232,0.2082,715.159,61.513,-0.1786,209.432,-2.82998,-0.896303,0.172696,-0.0686569,-0.102518,0.130451,-0.00270553,-0.000688899,0.18862,0.18850474471764533,0.13934211076233072,-0.0027018733521764204,-0.06635304059708691,-0.0006886617635643022,-0.0974380965075532
233,0.2092,715.639,60.9402,0.128197,209.648,-3.00958,-0.736171,0.173447,-0.0689602,-0.102966,0.131039,-0.00271976,-0.000689662,0.189459,0.1893976470237777,0.14001224092241826,-0.0027160648035461366,-0.06663617278070777,-0.0006894242378244764,-0.09784235367994987
234,0.2102,716.333,61.7259,-0.170232,209.84,-2.80189,-0.892757,0.174197,-0.0692553,-0.103418,0.131626,-0.00272819,-0.000694937,0.190297,0.19029002986077903,0.1406816245527145,-0.002724471871684009,-0.06691156780958507,-0.0006946955872084715,-0.09825003679276212
235,0.2112,716.859,61.689,-0.170296,210.038,-2.82716,-0.887961,0.174946,-0.0695544,-0.103868,0.132213,-0.00273968,-0.000698194,0.191134,0.19118189105346683,0.14135140122654866,-0.0027359305016723123,-0.06719061282639072,-0.000697950319284657,-0.09865573298771535
236,0.2122,717.343,61.1623,0.121602,210.251,-2.99383,-0.73662,0.175695,-0.0698566,-0.104314,0.1328,-0.00275362,-0.000699054,0.191971,0.1920744205004179,0.14202157117470504,-0.0027498322659055274,-0.06747246523315087,-0.0006988097186777509,-0.0990576428982306
237,0.2132,718.016,61.8907,-0.159662,210.441,-2.80138,-0.882761,0.176444,-0.0701512,-0.104765,0.133386,-0.00276218,-0.000704145,0.192807,0.19296761870234214,0.14269099193654022,-0.0027583686908053684,-0.06774714738222598,-0.0007038971480874956,-0.09946387628876818
238,0.2142,718.535,61.855,-0.159617,210.637,-2.82584,-0.87802,0.177191,-0.0704495,-0.105214,0.133972,-0.0027736,-0.000707348,0.193643,0.19385909843974036,0.1433608050939026,-0.0027697571252068842,-0.0680251969350093,-0.0007070978883788603,-0.09986812624740748
239,0.2152,719.026,61.3861,0.11373,210.847,-2.97633,-0.737667,0.177938,-0.0707507,-0.105659,0.134558,-0.00278721,-0.000708334,0.194478,0.1947512443612911,0.14403101087680326,-0.0027833293364533107,-0.06830586547488848,-0.0007080831906945972,-0.1002685958201388
240,0.2162,719.675,62.0451,-0.146656,211.035,-2.80251,-0.871115,0.178684,-0.0710448,-0.106109,0.135143,-0.00279595,-0.000713208,0.195311,0.19564286132136077,0.14470046481435084,-0.002792044972067531,-0.06857983643044852,-0.0007129537276276965,-0.10067338386787816
241,0.2172,720.188,62.0122,-0.146918,211.229,-2.82566,-0.866707,0.17943,-0.0713424,-0.106556,0.135727,-0.0028073,-0.000716356,0.196145,0.19653514367584402,0.1453691651272886,-0.0028033632181259094,-0.06885698582925082,-0.0007160994782978714,-0.101075293031899
242,0.2182,720.688,61.611,0.104833,211.436,-2.95729,-0.739159,0.180175,-0.0716424,-0.107,0.136312,-0.00282053,-0.000717492,0.196978,0.1974268944938169,0.14603940211409228,-0.0028165560423598635,-0.06913628683625617,-0.0007172346641640681,-0.1014743270096945
243,0.2192,721.311,62.1908,-0.131678,211.623,-2.80479,-0.858118,0.18092,-0.0719362,-0.107449,0.136896,-0.0028295,-0.000722122,0.19781,0.1983193099136824,0.1467088845947837,-0.0028255007377351316,-0.06940973442376619,-0.0007218613326568368,-0.10187767447858409
244,0.2202,721.689,61.3957,0.198721,211.831,-3.0428,-0.674641,0.181664,-0.0722379,-0.107891,0.137479,-0.00284441,-0.000722321,0.198641,0.19921119121896314,0.14737761078924705,-0.002840368498679635,-0.0696904511586417,-0.000722060188986684,-0.10227455682900377
245,0.2212,722.179,61.4275,0.130862,212.022,-3.04014,-0.698952,0.182407,-0.0725349,-0.108337,0.138063,-0.00285621,-0.000725181,0.199472,0.20010253622770402,0.1480478750120513,-0.0028521349129093654,-0.06996671206787186,-0.0007249181198076826,-0.10267485310395319
246,0.2222,722.983,62.3653,-0.0423508,212.204,-2.80449,-0.823857,0.183149,-0.0728265,-0.108784,0.138645,-0.00286405,-0.000729733,0.200301,0.20099334275793734,0.14871623334871842,-0.0028599525215265986,-0.07023787023785033,-0.0007294668096275991,-0.10307586781115152
247,0.2232,723.474,62.428,-0.123833,212.393,-2.7953,-0.853496,0.183891,-0.0731219,-0.109229,0.139228,-0.00287474,-0.000733222,0.201131,0.20188481051189955,0.1493861301687096,-0.0028706118916597134,-0.0705124814089152,-0.0007329532584358089,-0.1034749102564464
248,0.2242,723.923,61.9414,0.125787,212.596,-2.94724,-0.719162,0.184632,-0.0734208,-0.109672,0.13981,-0.00288809,-0.000734175,0.20196,0.2027757372040624,0.15005526759657162,-0.002883923480135886,-0.07079026371158881,-0.000733905559477499,-0.10387198291311561
249,0.2252,724.569,62.6593,-0.147798,212.777,-2.75639,-0.862012,0.185373,-0.0737123,-0.110118,0.140392,-0.00289626,-0.000739082,0.202788,0.20366732431755996,0.15072479457576504,-0.0028920698852029636,-0.0710610888750316,-0.0007388089461725089,-0.10427156689488482
250,0.2262,725.058,62.6203,-0.151258,212.965,-2.7798,-0.858429,0.186112,-0.0740075,-0.110562,0.140973,-0.00290726,-0.000742163,0.203615,0.20455716322521034,0.1513935599389391,-0.002903038012109449,-0.07133527117029781,-0.0007418876651593687,-0.10466918204208875
251,0.2272,725.529,62.1888,0.10605,213.165,-2.9185,-0.726556,0.186852,-0.0743053,-0.111003,0.141554,-0.00292027,-0.000743159,0.204442,0.2054488654151161,0.15206271396768556,-0.0029160101592008436,-0.0716117863513892,-0.0007428829257436487,-0.10506393588318852
252,0.2282,726.138,62.7906,-0.136467,213.346,-2.7588,-0.849368,0.18759,-0.0745966,-0.111448,0.142135,-0.0029288,-0.000747757,0.205268,0.2063388150288077,0.15273225688788483,-0.0029245152493599935,-0.07188218645233835,-0.0007474774994049582,-0.10546209383500582
253,0.2292,726.487,61.9615,0.201404,213.548,-3.00517,-0.660674,0.188329,-0.0748961,-0.111887,0.142715,-0.00294349,-0.000747805,0.206093,0.2072306288977519,0.15340103552393614,-0.0029391621806489354,-0.07216011611545126,-0.0007475254635249673,-0.10585470979030465
254,0.2302,726.963,62.0042,0.132727,213.733,-2.99869,-0.686127,0.189066,-0.0751907,-0.112329,0.143295,-0.00295491,-0.000750594,0.206918,0.20812068581693688,0.15407020216410672,-0.0029505485504005557,-0.0724334174859751,-0.0007503123747900631,-0.10624983467954408
255,0.2312,727.743,62.9356,-0.0442131,213.908,-2.76297,-0.811661,0.189803,-0.07548,-0.112773,0.143874,-0.00296242,-0.000755063,0.207742,0.2090113989498561,0.15473860229432446,-0.002958036363664207,-0.0727017236859333,-0.0007547780116655689,-0.1066465716708167
256,0.2322,727.975,62.0447,0.151133,214.109,-3.01214,-0.665349,0.190539,-0.0757789,-0.113212,0.144454,-0.00297713,-0.000755648,0.208566,0.20990155887815365,0.15540854494824408,-0.0029727027430778152,-0.07297885172187535,-0.0007553625699494582,-0.10703866775446569
257,0.2332,728.498,62.1703,0.114422,214.291,-2.98643,-0.685996,0.191275,-0.0760724,-0.113653,0.145033,-0.00298819,-0.000758363,0.209388,0.21079237420531594,0.156077720203311,-0.0029837298040057414,-0.0732508925049572,-0.0007580755154572572,-0.10743237688274243
258,0.2342,729.279,63.0967,-0.0470465,214.464,-2.75285,-0.806183,0.192009,-0.076361,-0.114096,0.145611,-0.00299563,-0.00076273,0.21021,0.21168142204862606,0.156746126276335,-0.0029911475774617724,-0.07351831370664474,-0.0007624391954134113,-0.10782769676996329
259,0.2352,729.523,62.2544,0.144454,214.662,-2.98936,-0.665206,0.192744,-0.0766588,-0.114533,0.14619,-0.00301004,-0.000763369,0.211032,0.21257233526433073,0.1574160762152399,-0.003005514371512197,-0.07379417887446071,-0.000763077708010762,-0.10821749089025634
260,0.2362,730.042,62.3843,0.108399,214.843,-2.96236,-0.685824,0.193478,-0.0769515,-0.114973,0.146767,-0.00302093,-0.00076607,0.211852,0.21346269007865804,0.15808409799696665,-0.003016371582343136,-0.07406523964662493,-0.0007657766432929147,-0.10860978888237727
261,0.2372,730.804,63.2651,-0.0433404,215.015,-2.74049,-0.798939,0.19421,-0.0772396,-0.115415,0.147344,-0.00302843,-0.000770309,0.212672,0.21435126994835096,0.1587525053384844,-0.003023848931516082,-0.07433196302773482,-0.0007700123881880794,-0.10900369629573992
262,0.2382,731.059,62.4769,0.136181,215.21,-2.96226,-0.666465,0.194943,-0.0775363,-0.115851,0.147922,-0.00304248,-0.000771046,0.213492,0.21524171573773598,0.15942245788420406,-0.0030378563480363274,-0.07460656799464316,-0.0007707488204176105,-0.10939208600904493
263,0.2392,731.57,62.6034,0.0998317,215.389,-2.93592,-0.686923,0.195675,-0.0778282,-0.11629,0.148498,-0.00305323,-0.000773737,0.214311,0.2161315983309502,0.16009047759115158,-0.0030485736334751046,-0.0748766509169253,-0.0007734377427145445,-0.10978297707641993
264,0.2402,732.312,63.431,-0.0380873,215.559,-2.72797,-0.790991,0.196406,-0.0781158,-0.11673,0.149074,-0.0030608,-0.000777822,0.215129,0.21702091553516678,0.16075888218828815,-0.0030561205272076064,-0.07514267813557385,-0.0007775195748842556,-0.11017458640613575
265,0.2412,732.576,62.7019,0.125683,215.752,-2.93346,-0.668688,0.197137,-0.0784114,-0.117166,0.14965,-0.00307449,-0.000778681,0.215946,0.21791088306792594,0.16142767189737395,-0.003069768595496347,-0.07541602555717764,-0.0007783779066262708,-0.11056246572262718
266,0.2422,733.081,62.8237,0.089955,215.929,-2.90819,-0.688561,0.197867,-0.0787026,-0.117603,0.150226,-0.00308508,-0.000781359,0.216763,0.2188002826038995,0.1620968469402979,-0.003080326030745262,-0.07568522521316323,-0.000781053818547206,-0.11095106500997787
267,0.2432,733.802,63.5943,-0.0324923,216.099,-2.71531,-0.782707,0.198596,-0.0789897,-0.118043,0.150801,-0.00309275,-0.000785277,0.217579,0.21968911194885044,0.16276524477324972,-0.003087972375320769,-0.07595055789467553,-0.000784968750708992,-0.11134216049405732
268,0.2442,734.077,62.9276,0.114328,216.288,-2.90356,-0.671248,0.199325,-0.0792842,-0.118478,0.151376,-0.00310605,-0.000786268,0.218395,0.22057858948663167,0.16343402704547128,-0.0031012312171166956,-0.07622265038778941,-0.0007859589723142602,-0.11172864258829263
269,0.2452,734.896,64.1208,-0.137534,216.45,-2.59286,-0.845659,0.200052,-0.0795684,-0.118918,0.15195,-0.00311169,-0.000791391,0.219209,0.22146627275495923,0.16410202987546674,-0.003106853710317159,-0.07648515060750116,-0.0007910779327342521,-0.11211939601349608
270,0.2462,735.307,64.0421,-0.178854,216.625,-2.62117,-0.852197,0.20078,-0.0798584,-0.119355,0.152524,-0.0031218,-0.000794476,0.220024,0.22235582395887588,0.164770416249153,-0.003116932249079052,-0.07675293108377923,-0.0007941604875039143,-0.11250731507095069
271,0.2472,735.661,63.3484,0.134149,216.817,-2.82778,-0.680054,0.201507,-0.0801525,-0.119788,0.153098,-0.00313498,-0.000794729,0.220838,0.22324479974643863,0.1654391863867477,-0.0031300710813269017,-0.07702441812262151,-0.0007944132865493891,-0.11289151621797389
272,0.2482,736.293,64.1993,-0.183181,216.981,-2.5971,-0.84834,0.202233,-0.0804373,-0.120226,0.153671,-0.00314163,-0.000799781,0.22165,0.22413319792057051,0.16610717440083667,-0.0031367002443122294,-0.07728724414013877,-0.0007994612604222961,-0.11327998465307265
273,0.2492,736.726,64.1108,-0.170637,217.154,-2.63237,-0.8352,0.202959,-0.0807268,-0.120662,0.154244,-0.00315183,-0.000802546,0.222463,0.22502224130596038,0.16677554528173855,-0.003146868198113162,-0.07755433082029795,-0.0008022240460923147,-0.11366651031104746
274,0.2502,737.13,63.6016,0.10401,217.341,-2.78974,-0.691224,0.203684,-0.0810191,-0.121094,0.154817,-0.00316418,-0.000803173,0.223275,0.22591070445988404,0.16744429924889892,-0.0031591792582699174,-0.07782392228668689,-0.0008028505429014121,-0.1140493236849508
275,0.2512,737.707,64.241,-0.146533,217.507,-2.61722,-0.819864,0.204408,-0.0813044,-0.121531,0.155389,-0.00317161,-0.000807622,0.224086,0.22679858518395113,0.1681122684090368,-0.0031665857580528423,-0.07808698159446392,-0.0008072959611304942,-0.11443639954826434
276,0.2522,737.994,63.3493,0.204067,217.695,-2.87862,-0.622011,0.205132,-0.0815985,-0.121962,0.155962,-0.00318562,-0.000807337,0.224896,0.22768710896642186,0.16878178853803338,-0.0031805512963575255,-0.07835807634673964,-0.0008070111911693267,-0.11481799522028457
277,0.2532,738.436,63.4179,0.13353,217.866,-2.86316,-0.650091,0.205856,-0.0818871,-0.122396,0.156533,-0.00319598,-0.00080994,0.225706,0.22857627627303834,0.1694493535109507,-0.003190878292352206,-0.07862402382783851,-0.0008096120871340373,-0.11520208085774697
278,0.2542,739.157,64.3144,-0.0460595,218.027,-2.63281,-0.773432,0.206578,-0.0821708,-0.122831,0.157104,-0.00320267,-0.000814136,0.226515,0.22946362864016523,0.17011729977231482,-0.0031975469230698383,-0.07888538111699417,-0.000813804681205732,-0.11558688425176777
279,0.2552,739.373,63.49,0.144627,218.212,-2.86338,-0.634597,0.2073,-0.0824634,-0.123262,0.157675,-0.00321618,-0.000814621,0.227324,0.23035162190703806,0.170785627539904,-0.003211013633243054,-0.07915485982782133,-0.000814289286392933,-0.11596798417172305
280,0.2562,739.857,63.6313,0.102071,218.381,-2.83108,-0.65837,0.208022,-0.0827509,-0.123694,0.158246,-0.00322616,-0.000817186,0.228132,0.23124025653655367,0.17145433703162039,-0.003220961537686917,-0.07941956475246459,-0.000816852194453932,-0.11634980352364277
281,0.2572,740.556,64.4327,-0.0382879,218.542,-2.62728,-0.760942,0.208742,-0.0830344,-0.124129,0.158815,-0.00323312,-0.000821068,0.228938,0.23212706873534117,0.17212108422097772,-0.0032278990956517983,-0.07968051231479256,-0.000820731015904963,-0.1167341077668771
282,0.2582,740.807,63.7482,0.120981,218.724,-2.82001,-0.644069,0.209463,-0.0833256,-0.124559,0.159386,-0.00324593,-0.000821846,0.229745,0.2330157526839649,0.1727905564762071,-0.0032406676644816113,-0.07994847033302555,-0.0008215083770738429,-0.11711383045430868
283,0.2592,741.598,64.9567,-0.147107,218.876,-2.50214,-0.82495,0.210182,-0.0836061,-0.124994,0.159955,-0.00325091,-0.000826907,0.230551,0.23390260979707111,0.17345806419077747,-0.0032456315135965808,-0.0802065085955389,-0.0008265652066236084,-0.11749780241810415
284,0.2602,741.984,64.863,-0.17993,219.044,-2.53358,-0.827376,0.210901,-0.0838928,-0.125426,0.160524,-0.00326052,-0.000829788,0.231356,0.2347901047897316,0.17412595182531443,-0.003255210277051779,-0.08047017559105474,-0.0008294438211425836,-0.11787896103127127
285,0.2612,742.319,64.188,0.126473,219.227,-2.73393,-0.659093,0.21162,-0.0841832,-0.125854,0.161093,-0.00327305,-0.000829964,0.232161,0.23567823812074717,0.1747942195960539,-0.00326769941102234,-0.08073716828284783,-0.0008296196751450546,-0.11825642805224523
286,0.2622,742.916,64.9944,-0.176745,219.384,-2.51394,-0.81902,0.212337,-0.0844649,-0.126288,0.161661,-0.00327931,-0.000834743,0.232965,0.2365645371177003,0.17546169225707486,-0.003273938935694387,-0.0809960881519668,-0.0008343946989826101,-0.11863902173363639
287,0.2632,743.324,64.8969,-0.160128,219.55,-2.55034,-0.803739,0.213054,-0.0847511,-0.126718,0.162229,-0.003289,-0.000837308,0.233769,0.23745147181890713,0.17612954415025928,-0.0032835971644318285,-0.08125906943712069,-0.0008369575554734165,-0.11901792548414625
288,0.2642,743.717,64.4459,0.0921783,219.728,-2.69025,-0.672042,0.213771,-0.0850396,-0.127146,0.162797,-0.00330053,-0.000837968,0.234572,0.2383390426803309,0.17679777549107167,-0.0032950892383045716,-0.08152408796482735,-0.0008376170028637775,-0.11939490513263962
289,0.2652,744.252,65.004,-0.131323,219.887,-2.53882,-0.78501,0.214487,-0.0853219,-0.127578,0.163364,-0.00330772,-0.000842038,0.235374,0.23922601093163154,0.1774652090293023,-0.0033022555208501725,-0.08178333712005492,-0.0008416835854870852,-0.11977524437443099
290,0.2662,744.547,64.2404,0.178816,220.066,-2.76377,-0.611316,0.215203,-0.0856117,-0.128004,0.163931,-0.00332061,-0.000841967,0.236176,0.24011361447960922,0.17813302110965545,-0.0033151028719751174,-0.08204939775490949,-0.000841612645244072,-0.1201501402618339
291,0.2672,744.967,64.3103,0.109922,220.228,-2.7471,-0.638894,0.215918,-0.0858968,-0.128433,0.164498,-0.0033303,-0.000844475,0.236977,0.24100061277806573,0.17880121194682563,-0.0033247607018360714,-0.08231106816871958,-0.0008441185313372568,-0.12052751489901425
292,0.2682,745.628,65.0679,-0.0335908,220.384,-2.55261,-0.738635,0.216632,-0.0861778,-0.128863,0.165063,-0.00333694,-0.000848199,0.237777,0.24188700361946314,0.1794674228184241,-0.003331378603453561,-0.08256890253113969,-0.0008478393809115969,-0.12090560677202922
293,0.2692,745.865,64.4023,0.116616,220.56,-2.73908,-0.626559,0.217346,-0.0864661,-0.129289,0.16563,-0.0033492,-0.000848938,0.238577,0.2427740275699144,0.18013637047590159,-0.003343597685848687,-0.08283335979319395,-0.0008485777540854222,-0.12128002122760295
294,0.2702,746.62,65.5528,-0.140997,220.707,-2.43524,-0.799118,0.218058,-0.0867443,-0.129721,0.166195,-0.00335395,-0.000853757,0.239375,0.24365919776073786,0.18080333592521725,-0.003348331792516257,-0.08308848006362446,-0.0008533926531877345,-0.12165954627511999
295,0.2712,746.988,65.4514,-0.170052,220.869,-2.46787,-0.799673,0.218771,-0.0870284,-0.130148,0.16676,-0.00336317,-0.00085647,0.240174,0.24454624296277694,0.18147067831648767,-0.0033575208785353583,-0.0833489376266896,-0.0008561033342564528,-0.12203451758678818
296,0.2722,747.321,64.8407,0.115513,221.046,-2.64969,-0.643691,0.219483,-0.0873158,-0.130573,0.167325,-0.00337499,-0.000856707,0.240972,0.24543267542027358,0.18213839786274577,-0.0033693011230171432,-0.08361234528852168,-0.0008563401313318453,-0.12240757363678789
297,0.2732,747.88,65.5623,-0.16164,221.197,-2.45196,-0.787982,0.220194,-0.0875953,-0.131003,0.167889,-0.00338114,-0.000861137,0.241769,0.2463184929233031,0.18280531197124028,-0.0033754303829677257,-0.08386843984713177,-0.000860766327941076,-0.1227848572583321
298,0.2742,748.274,65.4673,-0.144355,221.358,-2.48657,-0.772633,0.220905,-0.0878788,-0.131429,0.168453,-0.00339042,-0.000863547,0.242566,0.24720494046652997,0.18347260232538343,-0.0033846790160600992,-0.08412812633213651,-0.0008631742505926798,-0.12315847132369395
299,0.2752,748.666,65.0946,0.0799271,221.529,-2.60377,-0.656748,0.221615,-0.0881643,-0.131854,0.169017,-0.00340118,-0.000864311,0.243362,0.2480907704066777,0.18414026913743742,-0.003395402539221215,-0.08438957042914796,-0.000863937590835917,-0.12353104979484819
300,0.2762,749.164,65.5605,-0.11312,221.683,-2.47692,-0.752011,0.222325,-0.0884445,-0.132281,0.16958,-0.0034083,-0.000868003,0.244157,0.24897722950940926,0.1848071278120642,-0.0034024983386941043,-0.08464608853164923,-0.0008676263943687701,-0.1239052221451038
301,0.2772,749.476,64.9412,0.1517,221.855,-2.66107,-0.605364,0.223034,-0.0887308,-0.132704,0.170144,-0.00342012,-0.00086821,0.244952,0.2498630683578955,0.18547554750878614,-0.003414278051545483,-0.0849081168453597,-0.0008678332147487033,-0.1242757318678055
302,0.2782,750.111,65.9381,-0.181617,221.999,-2.38927,-0.792407,0.223742,-0.0890077,-0.133133,0.170706,-0.00342501,-0.000873157,0.245746,0.25074828473991473,0.18614197201423166,-0.0034191513438105448,-0.08516147070934399,-0.0008727759093520859,-0.12465133700577158
303,0.2792,750.493,65.8455,-0.172418,222.157,-2.42199,-0.779951,0.22445,-0.0892899,-0.133558,0.171268,-0.00343396,-0.000875607,0.246539,0.25163412807704866,0.18680877115551198,-0.0034280707024918478,-0.08541960171831142,-0.000875223768052491,-0.12502328114381622
304,0.2802,750.837,65.3093,0.0989421,222.329,-2.5835,-0.634928,0.225157,-0.089575,-0.13398,0.171831,-0.00344516,-0.000875922,0.247332,0.2525193462933655,0.18747713261977061,-0.0034392322455952806,-0.08568031142392707,-0.0008755384923073706,-0.12539244342045475
305,0.2812,751.369,65.9465,-0.146197,222.478,-2.40878,-0.761598,0.225864,-0.0898531,-0.134407,0.172392,-0.00345134,-0.000880012,0.248124,0.25340519058025124,0.1881434941881137,-0.0034453909721094966,-0.08593454837603332,-0.0008796249029983105,-0.1257658211253011
306,0.2822,751.61,65.0688,0.19336,222.651,-2.66388,-0.56891,0.22657,-0.0901397,-0.134827,0.172954,-0.00346403,-0.000879514,0.248916,0.25429040708946005,0.18881141850099947,-0.0034580371698577084,-0.08619648199758789,-0.0008791273409275435,-0.12613292238376772
307,0.2832,752.015,65.163,0.121394,222.805,-2.63928,-0.599383,0.227276,-0.0904209,-0.13525,0.173515,-0.00347298,-0.000881869,0.249708,0.25517624878218825,0.18947852881372507,-0.003466956180512404,-0.08645340742144259,-0.0008814802678120959,-0.12650248998854052
308,0.2842,752.656,65.954,-0.0402115,222.952,-2.43322,-0.707843,0.22798,-0.0906978,-0.135676,0.174075,-0.0034788,-0.000885532,0.250498,0.256060203977051,0.19014482333491411,-0.0034727559859499824,-0.08670633345370227,-0.0008851400322470449,-0.1268745206796419
309,0.2852,752.871,65.2717,0.123339,223.12,-2.62398,-0.59014,0.228685,-0.0909825,-0.136096,0.174635,-0.00349047,-0.000886028,0.251288,0.2569460386408835,0.19081149108552964,-0.0034843853910299094,-0.08696631115098685,-0.0008856355930946247,-0.12724115638206945
310,0.2862,753.599,66.4361,-0.150295,223.259,-2.31334,-0.769002,0.229389,-0.0912567,-0.136522,0.175195,-0.00349446,-0.000890752,0.252077,0.25783124020647774,0.1914785322746384,-0.003488361480399993,-0.08721663066809504,-0.0008903553982039236,-0.12761287246830288
311,0.2872,753.943,66.32,-0.170389,223.413,-2.34909,-0.765295,0.230092,-0.0915371,-0.136944,0.175754,-0.00350308,-0.000893231,0.252865,0.2587158064569499,0.19214475496607375,-0.00349695137370154,-0.08747253924479659,-0.0008928321879428935,-0.1279809421679523
312,0.2882,754.257,65.7289,0.107554,223.582,-2.52429,-0.613579,0.230795,-0.0918206,-0.137364,0.176314,-0.00351414,-0.000893366,0.253654,0.25960099477612775,0.19281254299205042,-0.0035079726364716235,-0.08773120411244317,-0.0008929670674014956,-0.12834711327092752
313,0.2892,754.785,66.4068,-0.154805,223.726,-2.33717,-0.74937,0.231497,-0.0920966,-0.137788,0.176872,-0.00351979,-0.000897494,0.254441,0.26048554511530386,0.19347831812502725,-0.003513602800520932,-0.08798295555681068,-0.0008970913727208707,-0.1287166157548384
314,0.2902,754.999,65.4656,0.203313,223.897,-2.60937,-0.545406,0.232198,-0.0923816,-0.138205,0.177431,-0.00353239,-0.000896757,0.255228,0.26136945525673805,0.19414565900925873,-0.0035261584500249077,-0.08824284337870325,-0.0008963550336058557,-0.12907986518329895
315,0.2912,755.398,65.5725,0.128223,224.047,-2.58059,-0.577942,0.232899,-0.0926609,-0.138626,0.17799,-0.00354097,-0.00089904,0.256014,0.2622539852364092,0.1948133730413295,-0.003534708158907107,-0.08849746159345873,-0.0008986359846235858,-0.129446445389509
316,0.2922,756.03,66.3832,-0.0433644,224.189,-2.36793,-0.691336,0.2336,-0.0929359,-0.139049,0.178547,-0.00354636,-0.000902678,0.2568,0.2631391354889765,0.19547906946935778,-0.0035400790923554304,-0.08874809032848996,-0.0009022707087743553,-0.12981461167045116
317,0.2932,756.233,65.69,0.127125,224.354,-2.56157,-0.57051,0.2343,-0.0932187,-0.139466,0.179105,-0.00355774,-0.000903046,0.257585,0.2640236424251292,0.19614633293931627,-0.0035514187417327037,-0.08900575593291138,-0.0009026383766710389,-0.13017740333006644
318,0.2942,756.951,66.8654,-0.155227,224.489,-2.24649,-0.753107,0.234999,-0.0934911,-0.13989,0.179661,-0.00356133,-0.00090773,0.258369,0.2649075038247555,0.19681157522064718,-0.00355499598571829,-0.08925387696937581,-0.0009073181377529105,-0.13054612993549009
319,0.2952,757.284,66.7417,-0.170949,224.64,-2.28391,-0.747287,0.235697,-0.0937696,-0.14031,0.180218,-0.00356964,-0.000910091,0.259153,0.265790717468128,0.19747838495731695,-0.003563276409296434,-0.08950748444815926,-0.0009096769927900983,-0.13091122388582077
320,0.2962,757.589,66.1576,0.10404,224.805,-2.45665,-0.597174,0.236396,-0.0940512,-0.140726,0.180775,-0.00358031,-0.000910167,0.259936,0.2666758144850072,0.19814556621046786,-0.003573908332415665,-0.08976384304355434,-0.0009097529236518076,-0.13127268962659733
321,0.2972,758.102,66.8172,-0.152,224.946,-2.2739,-0.729376,0.237093,-0.0943254,-0.141148,0.181331,-0.00358569,-0.000914153,0.260719,0.2675589952804558,0.1988119203745724,-0.003579269090368431,-0.09001339558257515,-0.0009137352894398321,-0.1316392152092376
322,0.2982,758.313,65.905,0.196795,225.113,-2.53763,-0.53096,0.23779,-0.0946085,-0.141563,0.181887,-0.00359783,-0.000913415,0.261501,0.2684427918674972,0.19947864513460822,-0.0035913655646159226,-0.09027097632801084,-0.0009129979635043028,-0.13199951016855072
323,0.2992,758.702,66.0147,0.12185,225.259,-2.50758,-0.563637,0.238487,-0.0948858,-0.141981,0.182442,-0.00360602,-0.000915628,0.262283,0.26932720467548776,0.2001445405515434,-0.0035995261179143645,-0.0905232092125694,-0.0009152089405933816,-0.13236225855360606
324,0.3002,759.313,66.7841,-0.0400809,225.399,-2.30526,-0.670378,0.239182,-0.0951592,-0.142401,0.182997,-0.00361122,-0.000919085,0.263063,0.2702096937121554,0.20081080564301024,-0.0036047073869073243,-0.0907718261796826,-0.0009186627707461481,-0.13272658989007724
325,0.3012,759.519,66.1391,0.118823,225.559,-2.48536,-0.557449,0.239878,-0.0954399,-0.142816,0.183552,-0.00362204,-0.000919484,0.263844,0.27109406738531705,0.201477440614235,-0.003615488325648397,-0.09102701071124941,-0.000919061404120125,-0.1330864336825215
326,0.3022,760.205,67.2348,-0.144592,225.692,-2.19109,-0.72717,0.240572,-0.0957108,-0.143237,0.184106,-0.00362561,-0.000923892,0.264623,0.27197651284123747,0.2021432435267132,-0.0036190454120056392,-0.09127321814374534,-0.0009234653431912099,-0.1334513274784076
327,0.3032,760.53,67.1142,-0.158785,225.839,-2.22715,-0.721042,0.241267,-0.0959876,-0.143654,0.18466,-0.0036336,-0.000926133,0.265402,0.27286084378706965,0.20280941539619657,-0.0036270064640283595,-0.09152471890765157,-0.0009257042711966479,-0.13381260294367936
328,0.3042,760.839,66.5946,0.0945967,226.0,-2.38145,-0.583467,0.241961,-0.096267,-0.144068,0.185214,-0.00364367,-0.000926294,0.266181,0.2737445158113829,0.203475956427144,-0.0036370398895548828,-0.09177851144472038,-0.0009258651221453196,-0.13417113030577588
329,0.3052,761.326,67.1815,-0.137661,226.138,-2.21832,-0.7018,0.242653,-0.0965398,-0.144486,0.185767,-0.00364901,-0.000929988,0.266959,0.2746262520618812,0.20414166268186262,-0.003642360453555926,-0.09202624047502217,-0.0009295556951830486,-0.13453297114330454
330,0.3062,761.554,66.3817,0.176225,226.3,-2.45035,-0.524293,0.243346,-0.0968204,-0.144899,0.18632,-0.00366033,-0.000929464,0.267736,0.27550987419426565,0.2048077371739485,-0.003653639158198052,-0.09228098217001357,-0.0009290321821331382,-0.1348903352254598
331,0.3072,761.932,66.4838,0.104115,226.443,-2.42208,-0.555364,0.244038,-0.0970959,-0.145315,0.186873,-0.00366814,-0.000931607,0.268513,0.2763928324955456,0.20547418010709317,-0.0036614205928896526,-0.09253102431453886,-0.0009311731889229957,-0.13525014600017593
332,0.3082,762.509,67.1613,-0.0314571,226.58,-2.2442,-0.645723,0.24473,-0.0973679,-0.145732,0.187425,-0.00367334,-0.000934754,0.269289,0.27727640201542725,0.20613978554471202,-0.003666601540032066,-0.0927778223098763,-0.0009343172535738464,-0.1356106715144998
333,0.3092,762.73,66.6111,0.100582,226.736,-2.39771,-0.549594,0.245421,-0.0976463,-0.146145,0.187977,-0.00368341,-0.000935311,0.270065,0.2781593050170761,0.20680575849795724,-0.0036766345668381994,-0.09303035780957258,-0.0009348737330041601,-0.13596759059830021
334,0.3102,763.367,67.5563,-0.121536,226.868,-2.1441,-0.693228,0.246111,-0.0979162,-0.146562,0.188528,-0.00368724,-0.000939258,0.270839,0.2790415392733536,0.2074708916982584,-0.0036804504780203473,-0.09327511588441184,-0.0009388170352754299,-0.13632781700059593
335,0.3112,763.687,67.4484,-0.137035,227.012,-2.17603,-0.688518,0.246801,-0.0981912,-0.146977,0.18908,-0.00369491,-0.000941382,0.271614,0.2799243824813322,0.2081375996249346,-0.003688092219659045,-0.0935244309451515,-0.0009409390389744088,-0.13668616659385702
336,0.3122,764.011,67.0343,0.081167,227.167,-2.30052,-0.571344,0.24749,-0.0984682,-0.147389,0.189631,-0.00370421,-0.00094173,0.272387,0.2808065542541389,0.20880346687190787,-0.0036973578773160654,-0.09377548990450857,-0.0009412867114672041,-0.1370417786321102
337,0.3132,764.464,67.512,-0.11534,227.304,-2.16723,-0.66885,0.248178,-0.0987398,-0.147804,0.190181,-0.00370967,-0.000945033,0.273161,0.2816880523640446,0.2094684916437355,-0.003702797674891345,-0.09402158705994401,-0.0009445865969474054,-0.13739983199276673
338,0.3142,764.721,66.8798,0.146251,227.459,-2.35217,-0.522535,0.248867,-0.0990176,-0.148215,0.190732,-0.00371993,-0.000944865,0.273933,0.2825714397241219,0.21013509241427863,-0.0037130196317485265,-0.09427323290783207,-0.0009444187556238992,-0.1377542878161564
339,0.3152,765.303,67.8505,-0.178841,227.587,-2.08384,-0.70441,0.249554,-0.0992861,-0.148631,0.191281,-0.0037233,-0.000949306,0.274705,0.28345286903951505,0.21079963898135534,-0.0037163771132150414,-0.0945163878997779,-0.0009488555516082853,-0.13811290743437254
340,0.3162,765.632,67.73,-0.159244,227.729,-2.12162,-0.686122,0.250241,-0.09956,-0.149044,0.191831,-0.0037308,-0.000951236,0.275477,0.28433490410489903,0.2114657619498197,-0.003723849212366237,-0.09476436589899484,-0.0009507837184563606,-0.13846879330811057
341,0.3172,765.944,67.2725,0.0790129,227.884,-2.25839,-0.558768,0.250928,-0.0998362,-0.149454,0.19238,-0.00374006,-0.000951405,0.276248,0.2852175453365673,0.21213103925504062,-0.003733074686808502,-0.0950143574557103,-0.0009509525577596767,-0.13882194870105158
342,0.3182,766.402,67.784,-0.123259,228.018,-2.11565,-0.660911,0.251614,-0.100106,-0.149868,0.192929,-0.00374516,-0.000954721,0.277018,0.2860995070509489,0.21279668189777845,-0.003738155635171214,-0.09525848964715522,-0.000954265398908305,-0.13917840262323622
343,0.3192,766.641,67.0998,0.152833,228.172,-2.31469,-0.505526,0.252299,-0.100383,-0.150277,0.193478,-0.00375542,-0.000954374,0.277788,0.2869807870172074,0.21346269007865804,-0.0037483772292574713,-0.09550906833877193,-0.000953918729978187,-0.13953040666682948
344,0.3202,767.232,68.133,-0.189622,228.297,-2.02867,-0.698182,0.252984,-0.10065,-0.150692,0.194026,-0.00375831,-0.000958909,0.278557,0.2878626708670491,0.21412784986995814,-0.0037512563922869058,-0.09575053518026766,-0.0009584493936835026,-0.13988742746112393
345,0.3212,767.553,67.9991,-0.166397,228.438,-2.06992,-0.677603,0.253668,-0.100923,-0.151103,0.194574,-0.00376562,-0.000960766,0.279325,0.2887438702697618,0.21479337426871714,-0.0037585389439849237,-0.09599736159082539,-0.0009603046121203773,-0.14024086109285083
346,0.3222,767.852,67.5117,0.0805546,228.59,-2.21461,-0.544945,0.254352,-0.101199,-0.151512,0.195121,-0.00377477,-0.000960812,0.280093,0.28962567261905003,0.215458048016139,-0.0037676545116498428,-0.0962468318905414,-0.0009603505679453006,-0.14059243067978244
347,0.3232,768.309,68.0439,-0.12816,228.722,-2.06574,-0.650932,0.255035,-0.101468,-0.151924,0.195668,-0.00377956,-0.000964126,0.280861,0.29050678782003736,0.21612308543955705,-0.003772426453155897,-0.09648990879745312,-0.0009636613798574833,-0.14094643366871917
348,0.3242,768.535,67.3275,0.157365,228.875,-2.27346,-0.489808,0.255718,-0.101744,-0.152332,0.196215,-0.00378974,-0.000963646,0.281628,0.2913885050282692,0.21678848673795637,-0.0037825679982340654,-0.09673924317289839,-0.0009631818422999316,-0.141296856032759
349,0.3252,769.129,68.3971,-0.196448,228.997,-1.97685,-0.689171,0.2564,-0.102009,-0.152745,0.196762,-0.00379225,-0.000968216,0.282394,0.2922695323848783,0.21745425211043123,-0.0037850685008502527,-0.09697857556051559,-0.0009677474301265088,-0.14165142720723
350,0.3262,769.443,68.2536,-0.170165,229.136,-2.02052,-0.666792,0.257082,-0.102281,-0.153155,0.197308,-0.00379937,-0.00097,0.283159,0.2931511608070845,0.2181191636364117,-0.0037921615259113306,-0.09722416398642308,-0.0009695297020753113,-0.14200327798773626
351,0.3272,769.732,67.7524,0.0804635,229.287,-2.16871,-0.531808,0.257763,-0.102555,-0.153562,0.197854,-0.00380837,-0.000969962,0.283925,0.29403209667221075,0.2187844383032138,-0.003801127356111267,-0.09747149068018646,-0.0009694917389166946,-0.14235241160008572
352,0.3282,770.186,68.2906,-0.129937,229.417,-2.01781,-0.638858,0.258444,-0.102823,-0.153972,0.198399,-0.00381291,-0.000973234,0.284689,0.29491363265897963,0.21944885685969995,-0.0038056500887264644,-0.09771333591197551,-0.0009727605613919499,-0.1427039750359005
353,0.3292,770.404,67.5645,0.158097,229.568,-2.22795,-0.476149,0.259124,-0.103098,-0.154378,0.198945,-0.0038229,-0.000972679,0.285453,0.29579447338109155,0.22011485773723938,-0.003815602020572073,-0.0979614306300125,-0.0009722061011201433,-0.14305196657497332
354,0.3302,770.994,68.6405,-0.197946,229.688,-1.92907,-0.67674,0.259803,-0.103363,-0.15479,0.199489,-0.00382517,-0.000977206,0.286216,0.29667461660332606,0.2207787807905457,-0.0038178633565889575,-0.09820043918086385,-0.0009767286897062188,-0.14340495644383833
355,0.3312,771.301,68.492,-0.169795,229.825,-1.97387,-0.653318,0.260482,-0.103634,-0.155198,0.200034,-0.0038321,-0.000978918,0.286979,0.2975553576457455,0.22144428655992598,-0.0038247668748750963,-0.09844479375030624,-0.0009784390160827439,-0.1437543759351858
356,0.3322,771.586,67.9949,0.0786079,229.975,-2.12057,-0.519449,0.261161,-0.103907,-0.155603,0.200578,-0.00384085,-0.000978842,0.287742,0.29843669691440744,0.2221089330192605,-0.0038334833700303106,-0.09869088472866538,-0.0009783630904411922,-0.144101085199567
357,0.3332,772.033,68.523,-0.128189,230.103,-1.97218,-0.624477,0.261839,-0.104173,-0.156013,0.201122,-0.00384522,-0.000982027,0.288503,0.2993173354976606,0.22277394114463323,-0.0038378366081961435,-0.0989306010696408,-0.0009815449692875955,-0.1444519318261619
358,0.3342,772.249,67.8121,0.154627,230.252,-2.17781,-0.464783,0.262516,-0.104447,-0.156417,0.201666,-0.00385493,-0.000981462,0.289265,0.30019727115840533,0.22343931113284365,-0.0038475092958416557,-0.09917746026369367,-0.0009809805237011027,-0.14479750343553877
359,0.3352,772.828,68.8621,-0.193608,230.37,-1.88573,-0.660619,0.263193,-0.104711,-0.156827,0.202208,-0.00385709,-0.000985862,0.290025,0.3010778027372878,0.22410259497316098,-0.00384966098289774,-0.09941524602508256,-0.0009853761977162145,-0.14514806458918295
360,0.3362,773.13,68.7136,-0.165024,230.506,-1.93018,-0.637053,0.263869,-0.104981,-0.157234,0.202751,-0.00386381,-0.000987505,0.290785,0.30195762867960196,0.22476746317761265,-0.0038563550906837163,-0.09965837108529563,-0.000987017577394722,-0.1454959185338156
361,0.3372,773.415,68.2395,0.0749805,230.653,-2.0702,-0.507877,0.264545,-0.105252,-0.157638,0.203294,-0.00387226,-0.000987437,0.291545,0.3028380495853278,0.22543269250353482,-0.003864772468919697,-0.099902330608723,-0.000986949644509627,-0.1458410684577488
362,0.3382,773.85,68.7411,-0.122839,230.779,-1.92887,-0.607766,0.26522,-0.105518,-0.158045,0.203836,-0.00387651,-0.000990491,0.292304,0.30371776213838286,0.22609705704939986,-0.0038690060346403543,-0.10014172474794902,-0.000990000625706644,-0.14618864040719692
363,0.3392,774.07,68.0701,0.146934,230.926,-2.12307,-0.455719,0.265895,-0.105791,-0.158448,0.204378,-0.00388584,-0.000989979,0.293062,0.304598068697866,0.22676178177844952,-0.003878299893458226,-0.1003873525273754,-0.0009894891324560007,-0.14653265706110108
364,0.3402,774.631,69.062,-0.183459,231.044,-1.84675,-0.640853,0.266569,-0.106054,-0.158857,0.204919,-0.00388802,-0.000994169,0.29382,0.30547766418654976,0.22742563945970296,-0.00388047143639747,-0.10062391954373451,-0.000993674977727177,-0.1468816538296589
365,0.3412,774.93,68.9193,-0.155994,231.177,-1.88928,-0.618101,0.267243,-0.106322,-0.159261,0.205461,-0.00389453,-0.000995748,0.294577,0.30635785272242755,0.228091084475599,-0.0038869561534206065,-0.10086492003778813,-0.000995252407469005,-0.1472262440296045
366,0.3422,775.218,68.4855,0.0697412,231.322,-2.01773,-0.497003,0.267916,-0.106593,-0.159664,0.206002,-0.0039026,-0.000995731,0.295334,0.3072373274673663,0.22875566150417748,-0.003894994753248615,-0.10110855263075047,-0.0009952354243881745,-0.1475698426134956
367,0.3432,775.64,68.9459,-0.114149,231.447,-1.88764,-0.588898,0.268589,-0.106858,-0.16007,0.206542,-0.00390682,-0.000998613,0.29609,0.3081173942980231,0.22941936874621693,-0.003899198307501295,-0.10134672730476524,-0.0009981145519708523,-0.14791585901131277
368,0.3442,775.869,68.3374,0.13539,231.591,-2.06411,-0.448728,0.269261,-0.107129,-0.160471,0.207082,-0.00391567,-0.000998214,0.296845,0.30899674461560633,0.23008343448695312,-0.003908013760587803,-0.10159022934564887,-0.0009977159501389776,-0.14825747625301455
369,0.3452,776.404,69.2426,-0.168074,231.708,-1.81158,-0.617809,0.269933,-0.107392,-0.160878,0.207622,-0.00391799,-0.00100212,0.2976,0.3098766860551978,0.23074785892002758,-0.003910324691315248,-0.1018264800470019,-0.001001618045439745,-0.14860406492460054
370,0.3462,776.701,69.1108,-0.143247,231.84,-1.85069,-0.596798,0.270604,-0.107659,-0.161281,0.208162,-0.00392428,-0.00100364,0.298355,0.31075590825760124,0.23141264223918623,-0.003916590075668247,-0.10206626036473243,-0.0010031365218262644,-0.1489471083585412
371,0.3472,776.997,68.7321,0.0631998,231.982,-1.96343,-0.486658,0.271275,-0.107928,-0.161683,0.208701,-0.00393191,-0.00100371,0.299109,0.3116357206160778,0.2320765525611117,-0.003924190163091645,-0.10230777205591557,-0.0010032064516042327,-0.1492891628634192
372,0.3482,777.402,69.1394,-0.102691,232.106,-1.84796,-0.568229,0.271944,-0.108193,-0.162087,0.20924,-0.00393614,-0.00100639,0.299862,0.31251349849713295,0.23274082082715775,-0.003928403554855908,-0.10254562897888653,-0.0010058837594233427,-0.1496327806261606
373,0.3492,777.645,68.6115,0.120722,232.247,-2.0016,-0.443374,0.272614,-0.108462,-0.162487,0.209778,-0.00394442,-0.00100615,0.300615,0.31339317720058424,0.23340421382547816,-0.003936650993530022,-0.10278701173725457,-0.0010056440008067158,-0.14997285949360228
374,0.3502,778.15,69.4072,-0.148508,232.365,-1.77925,-0.592131,0.273283,-0.108724,-0.162892,0.210316,-0.00394699,-0.00100971,0.301367,0.31427213121346664,0.2340679638252563,-0.003939210873047494,-0.1030220507487245,-0.0010092004143835709,-0.1503170507820668
375,0.3512,778.276,68.4351,0.194883,232.512,-2.05507,-0.391575,0.273952,-0.108996,-0.16329,0.210855,-0.00395706,-0.00100838,0.302119,0.3151516734433202,0.23473330575129925,-0.00394924115469153,-0.10326599557292071,-0.001007871755736578,-0.15065515730819368
376,0.3522,778.633,68.6086,0.115317,232.638,-2.00478,-0.430268,0.27462,-0.109261,-0.163692,0.211392,-0.00396265,-0.0010101,0.30287,0.3160304882526477,0.2353965355977634,-0.003954809062871156,-0.10350359860030223,-0.0010095900207194308,-0.1509965253153892
377,0.3532,779.153,69.2806,-0.0350426,232.758,-1.82347,-0.525129,0.275287,-0.109523,-0.164095,0.211929,-0.00396587,-0.00101278,0.30362,0.3169085733971537,0.2360601216942999,-0.003958016323222235,-0.10373844989060654,-0.0010122673114306702,-0.15133860478204475
378,0.3542,779.35,68.7819,0.0984287,232.896,-1.96189,-0.433052,0.275954,-0.109792,-0.164494,0.212466,-0.00397378,-0.00101291,0.30437,0.31778724441981976,0.2367240642322661,-0.003965894984153007,-0.10397951182330245,-0.0010123971798274845,-0.1516771531338491
379,0.3552,779.904,69.6327,-0.117836,233.012,-1.72884,-0.566925,0.276621,-0.110052,-0.164897,0.213003,-0.00397598,-0.00101619,0.305119,0.31866650171155686,0.23738836340312264,-0.003968086256773584,-0.10421244686736042,-0.001015673853790977,-0.15201895836275658
380,0.3562,779.989,68.65,0.17068,233.158,-2.00281,-0.385205,0.277287,-0.110323,-0.165294,0.213539,-0.00398581,-0.00101507,0.305869,0.3195450261178512,0.23805178134603233,-0.003977877202363089,-0.10445517240346369,-0.0010145549907191187,-0.15235554002040674
381,0.3572,780.358,68.8414,0.106832,233.282,-1.9489,-0.419614,0.277952,-0.110587,-0.165694,0.214075,-0.00399112,-0.00101669,0.306617,0.32042281539280504,0.23871555497627517,-0.003983166065793187,-0.10469156503274912,-0.0010161733458291522,-0.1526945300018825
382,0.3582,780.869,69.4922,-0.035591,233.4,-1.77328,-0.510141,0.278617,-0.110848,-0.166096,0.214611,-0.0039942,-0.00101926,0.307365,0.32130118859176005,0.23937968448455038,-0.003986233792917404,-0.10492521004227551,-0.001018740730964529,-0.15303507834601837
383,0.3592,781.072,69.0225,0.0940833,233.537,-1.90382,-0.421641,0.279282,-0.111115,-0.166493,0.215146,-0.00400177,-0.00101938,0.308112,0.3221801461031548,0.24004293001811017,-0.003993773588589433,-0.10516416310954024,-0.0010188606087084828,-0.15337125668409946
384,0.3602,781.61,69.8318,-0.112745,233.651,-1.68175,-0.549009,0.279945,-0.111375,-0.166895,0.215681,-0.00400392,-0.00102251,0.308858,0.3230570421989556,0.24070653048296586,-0.003995914999674222,-0.10539679018430159,-0.0010219874147813224,-0.1537115330387827
385,0.3612,781.706,68.9056,0.16214,233.794,-1.94014,-0.376403,0.280609,-0.111644,-0.167291,0.216216,-0.00401329,-0.00102147,0.309605,0.32393584380482054,0.24137048606905687,-0.0040052475142278166,-0.10563740608345262,-0.0010209484771079858,-0.15404659692467126
386,0.3622,782.068,69.0899,0.0992645,233.917,-1.88794,-0.409924,0.281272,-0.111908,-0.167689,0.21675,-0.00401836,-0.00102304,0.310351,0.3248139043141578,0.24203355493224765,-0.004010297194821932,-0.10587348664424134,-0.001022516872987711,-0.1543832193867818
387,0.3632,782.565,69.7016,-0.0319506,234.034,-1.7228,-0.493508,0.281934,-0.112168,-0.168089,0.217284,-0.00402137,-0.00102546,0.311096,0.3256912214787555,0.24269697796876732,-0.004013295119315474,-0.10610592931885676,-0.0010249343955716084,-0.1547213984587037
388,0.3642,782.772,69.2685,0.086666,234.169,-1.84295,-0.411724,0.282596,-0.112434,-0.168485,0.217818,-0.00402856,-0.00102562,0.31184,0.3265691196195979,0.24336075536779478,-0.0040204562379793085,-0.1063436735202773,-0.001025094231569379,-0.15505606251705706
389,0.3652,783.292,70.0202,-0.103659,234.282,-1.63655,-0.52892,0.283257,-0.112693,-0.168885,0.218351,-0.00403071,-0.00102855,0.312584,0.32744627167448326,0.244023643294345,-0.004022597591696431,-0.1065751005377431,-0.0010280212237552266,-0.1553939725055471
390,0.3662,783.403,69.17,0.149085,234.423,-1.87369,-0.369915,0.283919,-0.112961,-0.16928,0.218884,-0.00403954,-0.00102764,0.313328,0.32832533204321024,0.2446868846343364,-0.004031392033332248,-0.10681450632899003,-0.0010271121588408816,-0.1557275260052543
391,0.3672,783.757,69.3434,0.0889056,234.544,-1.82439,-0.401645,0.284579,-0.113223,-0.169677,0.219417,-0.0040444,-0.00102915,0.314071,0.32920231613527484,0.2453504795761885,-0.004036232429004749,-0.10704849027509644,-0.0010286206067626757,-0.15606263565376366
392,0.3682,784.238,69.9061,-0.0275345,234.661,-1.6725,-0.476295,0.285239,-0.113483,-0.170075,0.219949,-0.00404737,-0.0010314,0.314813,0.33007987922788895,0.2460131822946161,-0.004039190437001849,-0.10728062748847944,-0.001030868289837672,-0.1563984558921131
393,0.3692,784.452,69.5172,0.0774604,234.793,-1.78015,-0.402689,0.285898,-0.113747,-0.17047,0.220481,-0.00405414,-0.00103162,0.315555,0.33095669074596357,0.24667623766468694,-0.004045933068858698,-0.10751627429607524,-0.001031088063022434,-0.15673161269923452
394,0.3702,784.95,70.2001,-0.0925822,234.906,-1.59261,-0.507548,0.286557,-0.114006,-0.170868,0.221013,-0.00405636,-0.00103432,0.316296,0.33183408027326156,0.24733964587406154,-0.004048144084433103,-0.10774739764926633,-0.0010337852754435106,-0.15706716673769716
395,0.3712,785.078,69.4396,0.1335,235.043,-1.80466,-0.364751,0.287216,-0.114272,-0.171261,0.221544,-0.00406458,-0.00103359,0.317037,0.3327120481908168,0.24800215910771728,-0.004056330775041417,-0.10798470527817772,-0.0010330560298404956,-0.15739837425462933
396,0.3722,785.668,70.5384,-0.173507,235.148,-1.5003,-0.549163,0.287873,-0.114528,-0.171661,0.222075,-0.00406493,-0.00103737,0.317777,0.33358792770139134,0.24866502422931802,-0.0040566793552645475,-0.10821303196656351,-0.0010368321177519624,-0.15773534750578422
397,0.3732,785.918,70.3562,-0.152078,235.272,-1.55108,-0.525718,0.28853,-0.11479,-0.172056,0.222606,-0.00407015,-0.00103857,0.318517,0.334464382853882,0.24932824142576604,-0.00406187816582948,-0.10844664954694883,-0.0010380308728341614,-0.1580679763449988
398,0.3742,786.175,69.9259,0.0647228,235.406,-1.6766,-0.408077,0.289188,-0.115054,-0.172449,0.223136,-0.00407676,-0.00103825,0.319256,0.33534274936869135,0.24999056089287675,-0.004068461295057557,-0.10868198856535116,-0.0010377112049528847,-0.15839879062103213
399,0.3752,786.558,70.3476,-0.108233,235.522,-1.55542,-0.493377,0.289844,-0.115312,-0.172845,0.223666,-0.0040797,-0.00104067,0.319995,0.3362190215981442,0.2506532314823442,-0.004071389329477038,-0.10891191895000629,-0.0010401286907666396,-0.15873199872038823
400,0.3762,786.771,69.7924,0.1225,235.655,-1.71563,-0.364051,0.2905,-0.115576,-0.173237,0.224196,-0.0040869,-0.00104008,0.320733,0.3370958688507666,0.2513162533803124,-0.004078559989659558,-0.1091471351534985,-0.0010395393042686996,-0.15906171114903178
401,0.3772,787.254,70.5981,-0.151892,235.763,-1.4886,-0.515294,0.291155,-0.115833,-0.173634,0.224726,-0.0040882,-0.00104335,0.32147,0.33797195353127485,0.25197962677302455,-0.004079854686689921,-0.10937605492231373,-0.001042805899634236,-0.15939549738875303
402,0.3782,787.358,69.6248,0.193447,235.902,-1.76414,-0.314256,0.29181,-0.116099,-0.174024,0.225255,-0.00409707,-0.00104174,0.322208,0.338848612235221,0.25264209920409675,-0.004088688459201073,-0.10961292938600398,-0.0010411975772570692,-0.15972326922510882
403,0.3792,787.696,69.8149,0.110394,236.019,-1.70809,-0.355356,0.292465,-0.116358,-0.174418,0.225784,-0.00410136,-0.0010432,0.322944,0.33972584533871353,0.2533049221757946,-0.004092960909563126,-0.10984350977584356,-0.0010426560560439224,-0.16005427304499964
404,0.3802,788.175,70.4324,-0.0307046,236.131,-1.53966,-0.442739,0.293118,-0.116615,-0.174813,0.226312,-0.00410358,-0.00104547,0.32368,0.34060097201348216,0.2539668419061345,-0.004095171820735821,-0.11007225059937642,-0.0010449236866408862,-0.1603859860895076
405,0.3812,788.37,70.0014,0.0877048,236.26,-1.65868,-0.361401,0.293772,-0.116878,-0.175204,0.226841,-0.00411001,-0.00104545,0.324416,0.3414780118099321,0.2546303658521132,-0.00410157546819323,-0.11030627082246047,-0.0010449037075391798,-0.16071421099679561
406,0.3822,788.869,70.7409,-0.103568,236.369,-1.45428,-0.47793,0.294425,-0.117133,-0.175599,0.227368,-0.00411145,-0.00104817,0.32515,0.3423542830230577,0.25529173030914487,-0.004103009560892046,-0.110533113799692,-0.0010476208617057337,-0.1610456634172892
407,0.3832,788.974,69.9137,0.146086,236.504,-1.68488,-0.321966,0.295077,-0.117398,-0.175989,0.227896,-0.00411944,-0.00104713,0.325885,0.34322978339769583,0.2559546993511732,-0.00411096674605671,-0.11076879129588757,-0.0010465819506911833,-0.1613727918143727
408,0.3842,789.569,71.089,-0.189245,236.604,-1.35794,-0.521973,0.295729,-0.11765,-0.176385,0.228423,-0.00411891,-0.00105099,0.326618,0.34410585478470823,0.2566167619158941,-0.004110438924729176,-0.11099284932798326,-0.0010504379034428357,-0.1617048224424109
409,0.3852,789.806,70.8854,-0.159469,236.724,-1.41449,-0.49403,0.296381,-0.11791,-0.176776,0.22895,-0.00412368,-0.001052,0.327352,0.3449824975565161,0.2572791734795399,-0.004115189306605815,-0.11122396114132038,-0.0010514468419910994,-0.16203253178548427
410,0.3862,790.047,70.4319,0.0639181,236.855,-1.54599,-0.372407,0.297032,-0.118172,-0.177166,0.229477,-0.00412986,-0.00105151,0.328085,0.3458583662267447,0.25794193422608136,-0.004121343855718385,-0.11145678996159403,-0.0010509573570801622,-0.1623592753789458
411,0.3872,790.423,70.8601,-0.110565,236.967,-1.42248,-0.458793,0.297682,-0.118428,-0.177559,0.230003,-0.00413224,-0.0010538,0.328817,0.34673345853898296,0.2586037857351713,-0.004123714044099391,-0.11168422791006427,-0.0010532449477684835,-0.16268840350580882
412,0.3882,790.623,70.2933,0.122946,237.097,-1.58549,-0.327692,0.298332,-0.11869,-0.177947,0.230529,-0.00413896,-0.00105306,0.329549,0.3476091198461275,0.25926598546973034,-0.004130406310254964,-0.11191693615624043,-0.0010525057268961913,-0.16301321738728058
413,0.3892,791.097,71.1025,-0.152907,237.201,-1.35676,-0.479684,0.298981,-0.118944,-0.178341,0.231055,-0.00413971,-0.0010562,0.33028,0.3484840020334692,0.2599285336129731,-0.004131153212170169,-0.1121424806090986,-0.0010556424171036527,-0.16334292522292115
414,0.3902,791.193,70.1301,0.192527,237.337,-1.63184,-0.278804,0.299631,-0.119207,-0.178727,0.23158,-0.00414806,-0.00105447,0.331011,0.3493608015637675,0.2605901697574109,-0.0041394686823237326,-0.1123759564332818,-0.0010539142418701797,-0.16366581253252532
415,0.3912,791.523,70.3266,0.108188,237.451,-1.57351,-0.320828,0.300279,-0.119464,-0.179118,0.232105,-0.00415179,-0.00105581,0.331741,0.35023547072538275,0.26125215335202223,-0.004143183235177927,-0.11260404650164924,-0.0010552528287282037,-0.163992755278353
416,0.3922,791.987,70.9211,-0.0287668,237.559,-1.41061,-0.404996,0.300927,-0.119719,-0.179509,0.23263,-0.00415356,-0.0010579,0.332471,0.3511107068562931,0.26191448457926625,-0.004144945900183661,-0.11283030362078261,-0.0010573406210679925,-0.16431957021455545
417,0.3932,792.18,70.5177,0.083281,237.685,-1.5217,-0.328112,0.301575,-0.119979,-0.179897,0.233154,-0.00415936,-0.00105781,0.3332,0.3519865103240134,0.2625759010451658,-0.004150721842747118,-0.11306093775810411,-0.0010572507162246447,-0.16464375132610964
418,0.3942,792.657,71.2124,-0.0976143,237.79,-1.32891,-0.437576,0.302222,-0.120232,-0.180288,0.233678,-0.00416045,-0.0010603,0.333928,0.35286152863409215,0.2632376641841139,-0.004151807317868794,-0.11328530495720379,-0.00105973808057358,-0.16497031177261345
419,0.3952,792.77,70.4466,0.136244,237.921,-1.54233,-0.291923,0.302869,-0.120494,-0.180675,0.234202,-0.00416767,-0.00105927,0.334657,0.3537371132642022,0.26389977417781463,-0.004158997315863999,-0.11351759377614101,-0.0010587091715739128,-0.16529340573924245
420,0.3962,793.332,71.5313,-0.175403,238.019,-1.23967,-0.47671,0.303515,-0.120745,-0.181067,0.234725,-0.00416699,-0.00106278,0.335384,0.35461190996828407,0.264560966646469,-0.004158320143751948,-0.11374007293780031,-0.0010622154493512559,-0.1656205466003947
421,0.3972,793.563,71.3376,-0.146082,238.136,-1.29306,-0.449692,0.30416,-0.121002,-0.181455,0.235249,-0.00417124,-0.00106365,0.336111,0.3554859164870152,0.26522377023236543,-0.004162552461897673,-0.11396781247327148,-0.0010630845248457144,-0.16594422303102563
422,0.3982,793.808,70.9422,0.0561344,238.262,-1.40778,-0.33995,0.304806,-0.121261,-0.181841,0.235772,-0.00417667,-0.00106317,0.336838,0.3563618432829594,0.26588565533206343,-0.004167959844556757,-0.11419726509444383,-0.0010626050350112104,-0.1662661064334423
423,0.3992,794.163,71.313,-0.0978715,238.372,-1.30003,-0.414887,0.30545,-0.121515,-0.182231,0.236294,-0.00417878,-0.00106517,0.337564,0.3572356216364645,0.2665466201409534,-0.0041700610479447064,-0.11442223041730437,-0.0010646029078033026,-0.16659119925471266
424,0.4002,794.373,70.8314,0.106717,238.497,-1.4386,-0.300448,0.306095,-0.121774,-0.182616,0.236816,-0.00418462,-0.00106453,0.33829,0.3581113209951037,0.2672079300635404,-0.0041758766778065,-0.1146515653594693,-0.0010639635889445609,-0.16691199988491567
425,0.4012,794.811,71.5245,-0.131681,238.599,-1.2419,-0.430525,0.306738,-0.122026,-0.183006,0.237338,-0.00418534,-0.00106723,0.339015,0.35898486738957214,0.2678695852800208,-0.004176593670917161,-0.11487464505577638,-0.0010666607126017524,-0.16723684085685364
426,0.4022,794.934,70.7084,0.164072,238.73,-1.47285,-0.259017,0.307382,-0.122287,-0.18339,0.23786,-0.00419252,-0.00106578,0.33974,0.3598603355146499,0.26853158597068516,-0.004183743657306116,-0.11510563262822737,-0.001065212258209658,-0.16755656051986068
427,0.4032,795.481,71.85,-0.20468,238.824,-1.15087,-0.468302,0.308024,-0.122536,-0.18378,0.238381,-0.00419125,-0.00106954,0.340463,0.3607336461527697,0.26919266312262047,-0.004182478969857462,-0.11532594389581186,-0.0010689682459502636,-0.16788115016216343
428,0.4042,795.713,71.6424,-0.15747,238.94,-1.20905,-0.433859,0.308666,-0.122792,-0.184166,0.238902,-0.00419525,-0.00107026,0.341187,0.36160751763633114,0.2698540847854891,-0.004186462231975052,-0.11555239146764862,-0.001069687476034198,-0.16820228605498622
429,0.4052,795.946,71.2186,0.0551243,239.065,-1.33161,-0.318432,0.309308,-0.12305,-0.184551,0.239423,-0.0042005,-0.00106964,0.34191,0.3624819503255128,0.27051585113882815,-0.004191690239324863,-0.11578054951699601,-0.0010690681390485013,-0.16852246653615754
430,0.4062,796.302,71.6059,-0.101749,239.172,-1.21911,-0.395649,0.30995,-0.123302,-0.184938,0.239943,-0.00420224,-0.00107159,0.342632,0.3633569445807241,0.27117669118494137,-0.0041934229442763815,-0.11600334474513996,-0.0010710160524664003,-0.16884418608486007
431,0.4072,796.5,71.0991,0.109651,239.295,-1.3645,-0.276954,0.310591,-0.12356,-0.185321,0.240463,-0.00420789,-0.00107082,0.343354,0.364231136530788,0.27183787495723966,-0.004199049235542485,-0.11623138646354914,-0.001070246876852643,-0.1691624578086639
432,0.4082,796.94,71.8175,-0.136079,239.396,-1.16039,-0.411492,0.311231,-0.123811,-0.185709,0.240983,-0.0042082,-0.0010735,0.344076,0.36510452391231807,0.2724994026345071,-0.004199357933789338,-0.11645318454872255,-0.0010729240050036948,-0.16948476024431824
433,0.4092,797.051,70.9713,0.168659,239.525,-1.3996,-0.234638,0.311871,-0.12407,-0.186091,0.241502,-0.00421521,-0.0010719,0.344797,0.36597847044068055,0.27316000123498285,-0.00420633847182339,-0.1166819935418808,-0.001071325720403471,-0.16980195647756713
434,0.4102,797.6,72.1441,-0.210395,239.617,-1.06844,-0.449842,0.31251,-0.124318,-0.18648,0.242021,-0.00421351,-0.00107567,0.345517,0.36685160962155017,0.2738209427751175,-0.004204645621159853,-0.11690102924593249,-0.0010750916744066696,-0.1701248407114423
435,0.4112,797.824,71.9259,-0.159523,239.731,-1.12944,-0.413351,0.313149,-0.124572,-0.186864,0.24254,-0.00421725,-0.00107628,0.346237,0.36772530691665506,0.2744822274329428,-0.004208369888820895,-0.11712530789990916,-0.0010757010184148097,-0.1704434515954042
436,0.4122,798.052,71.4966,0.0541518,239.854,-1.2533,-0.29718,0.313788,-0.124829,-0.187246,0.243059,-0.00422222,-0.00107558,0.346957,0.3685995626827441,0.27514385538658304,-0.0042133189609240285,-0.11735217754178118,-0.0010750017711608217,-0.17076028167849622
437,0.4132,798.401,71.8811,-0.101579,239.959,-1.14132,-0.373832,0.314426,-0.12508,-0.187631,0.243577,-0.00422368,-0.00107745,0.347675,0.36947300780310144,0.2758045510090663,-0.004214772808417089,-0.11757369434369658,-0.0010768697591609921,-0.17107947752090757
438,0.4142,798.596,71.377,0.108477,240.081,-1.28574,-0.255859,0.315064,-0.125337,-0.188013,0.244095,-0.00422902,-0.00107661,0.348394,0.3703470103592488,0.2764655889605374,-0.004220090287332612,-0.11780044876505902,-0.001076030663379135,-0.17139606468849578
439,0.4152,799.029,72.0865,-0.134571,240.179,-1.08381,-0.388781,0.315701,-0.125586,-0.188399,0.244612,-0.00422907,-0.00107919,0.349112,0.37122019948605844,0.277125692292038,-0.004220140076326873,-0.11802008910695916,-0.001078607883895355,-0.17171584408613172
440,0.4162,799.138,71.2543,0.165847,240.307,-1.31898,-0.21457,0.316338,-0.125844,-0.188779,0.245129,-0.00423574,-0.00107755,0.349829,0.3720939450115359,0.2777861369851953,-0.004226781905842025,-0.11824761057243849,-0.001076969651468973,-0.1720305322708372
441,0.4172,799.676,72.4024,-0.206291,240.397,-0.994311,-0.42546,0.316973,-0.12609,-0.189166,0.245646,-0.00423384,-0.00108118,0.350546,0.37296550135647166,0.27844692321653897,-0.004224889934930309,-0.11846449498236145,-0.0010805957354877993,-0.17235089446076624
442,0.4182,799.897,72.185,-0.15491,240.509,-1.05491,-0.388868,0.317609,-0.126344,-0.189548,0.246163,-0.0042373,-0.00108171,0.351263,0.3738389851537385,0.27910805116269,-0.0042283353108505395,-0.11868837656647113,-0.001081125162631813,-0.1726669960398367
443,0.4192,800.123,71.7753,0.0511467,240.63,-1.17299,-0.276897,0.318245,-0.126598,-0.189928,0.246679,-0.0042419,-0.00108099,0.351979,0.3747130246633983,0.2797682412314795,-0.004232915849972874,-0.11891220129187974,-0.001080405940782958,-0.1729813228554643
444,0.4202,800.464,72.1385,-0.0968716,240.734,-1.06684,-0.349276,0.318879,-0.126849,-0.190312,0.247195,-0.00424316,-0.00108272,0.352694,0.3755848690665071,0.2804287720462493,-0.004234170515708513,-0.11913332657697129,-0.0010821340701858695,-0.1732988370608587
445,0.4212,800.66,71.6654,0.102403,240.853,-1.2023,-0.237471,0.319514,-0.127104,-0.190691,0.247711,-0.00424808,-0.00108189,0.353409,0.3764586428521808,0.2810896437828698,-0.004239069671537643,-0.11935791894195058,-0.0010813049680130637,-0.17361209743502193
446,0.4222,801.079,72.3316,-0.126617,240.951,-1.01225,-0.362222,0.320148,-0.127352,-0.191075,0.248226,-0.00424802,-0.00108428,0.354123,0.37733159432812613,0.2817495748670862,-0.00423900992588,-0.11957629109878631,-0.0010836923808412724,-0.17392936946947768
447,0.4232,801.197,71.5574,0.155184,241.075,-1.231,-0.198978,0.320781,-0.127608,-0.191453,0.248742,-0.00425415,-0.00108272,0.354837,0.37820372122637824,0.2824111283138284,-0.004245113922040411,-0.11980165072100257,-0.0010821340701858695,-0.1742415651591156
448,0.4242,801.712,72.6256,-0.192103,241.165,-0.928408,-0.395129,0.321414,-0.127854,-0.191838,0.249256,-0.0042523,-0.00108607,0.35555,0.37907640035571943,0.28307045706675527,-0.00424327177379713,-0.12001815288406736,-0.0010854804394315742,-0.17455942096536037
449,0.4252,801.931,72.4207,-0.143799,241.275,-0.985245,-0.360562,0.322046,-0.128106,-0.192218,0.249771,-0.00425546,-0.00108652,0.356263,0.3799482521168809,0.28373140853253864,-0.004246418360086768,-0.12023988037070388,-0.0010859299508642062,-0.17487302879613198
450,0.4262,802.161,72.0542,0.0463981,241.394,-1.09092,-0.257448,0.322679,-0.128359,-0.192597,0.250285,-0.00425959,-0.00108584,0.356976,0.380822035883857,0.28439141608393403,-0.00425053081388671,-0.12046243152706171,-0.00108525068906562,-0.17518569266467254
451,0.4272,802.49,72.3793,-0.0880216,241.496,-0.995327,-0.322242,0.32331,-0.128608,-0.192978,0.250799,-0.00426073,-0.00108739,0.357688,0.3816936095410697,0.28505176296641155,-0.004251665967634488,-0.12068140911777003,-0.0010867990057271681,-0.17549988705793462
452,0.4282,802.694,71.9624,0.0919746,241.613,-1.1147,-0.221484,0.323941,-0.128861,-0.193356,0.251312,-0.00426512,-0.00108664,0.358399,0.3825657333348098,0.2857111636426257,-0.004256037293225878,-0.12090384858148451,-0.0010860498205453872,-0.17581148920411083
453,0.4292,803.092,72.5555,-0.112995,241.71,-0.945012,-0.332304,0.324572,-0.129109,-0.193738,0.251826,-0.00426508,-0.00108876,0.35911,0.3834384076123232,0.2863721890497142,-0.00425599746346661,-0.12112183739530613,-0.0010881675158750381,-0.1761262690884492
454,0.4302,803.227,71.877,0.137715,241.831,-1.13667,-0.187242,0.325202,-0.129363,-0.194114,0.252339,-0.00427051,-0.00108738,0.359821,0.38431024841013417,0.28703226727828635,-0.004261404338720687,-0.12134504410015623,-0.001086789016595091,-0.17643598738058408
455,0.4312,803.709,72.8186,-0.169325,241.921,-0.869387,-0.359763,0.325832,-0.129608,-0.194497,0.252851,-0.00426891,-0.00109032,0.36053,0.3851826386407009,0.2876913965218202,-0.004259811155693072,-0.12156028819587328,-0.0010897258171181923,-0.17675135200123748
456,0.4322,803.741,71.7129,0.21028,242.05,-1.18065,-0.137433,0.326461,-0.129864,-0.194871,0.253364,-0.00427608,-0.00108786,0.36124,0.3860541925953893,0.28835215167744255,-0.004266950587252127,-0.12178513997983875,-0.0010872684948212141,-0.1770591894264022
457,0.4332,804.059,71.9616,0.116113,242.151,-1.10659,-0.186738,0.32709,-0.130113,-0.19525,0.253876,-0.00427783,-0.00108884,0.361949,0.3869262949299628,0.2890119568748182,-0.0042686931185639265,-0.12200378825714364,-0.0010882474288184119,-0.17737102489705525
458,0.4342,804.483,72.5396,-0.026886,242.248,-0.945558,-0.271872,0.327718,-0.13036,-0.19563,0.254387,-0.00427788,-0.00109046,0.362657,0.38779755819120854,0.28967081030749653,-0.00426874290512802,-0.12222062654081356,-0.0010898656645468296,-0.17768356452130485
459,0.4352,804.664,72.1815,0.0797364,242.362,-1.04358,-0.200748,0.328346,-0.130611,-0.196007,0.254899,-0.00428173,-0.00109001,0.363366,0.38866936877762437,0.29033129083095965,-0.004272576463088207,-0.122440921515376,-0.0010894161548852255,-0.1779935193873169
460,0.4362,805.089,72.8018,-0.0897442,242.457,-0.868904,-0.300557,0.328974,-0.130857,-0.196386,0.25541,-0.00428135,-0.00109189,0.364073,0.3895417270330386,0.29099081861557186,-0.004272198086595402,-0.12265677449767787,-0.0010912941050176261,-0.17830500081401035
461,0.4372,805.205,72.1435,0.120703,242.576,-1.05217,-0.171647,0.329601,-0.13111,-0.196761,0.255921,-0.00428637,-0.00109065,0.36478,0.3904132428875571,0.291650683505005,-0.004277196627614721,-0.12287871425716645,-0.0010900554574543309,-0.1786130786704967
462,0.4382,805.692,73.0587,-0.151376,242.665,-0.793997,-0.329678,0.330227,-0.131354,-0.197141,0.256431,-0.00428461,-0.00109332,0.365486,0.39128391406925167,0.292309593361324,-0.004275444153938546,-0.1230927057428648,-0.0010927225434457233,-0.1789251464039774
463,0.4392,805.719,72.002,0.192155,242.791,-1.08994,-0.124003,0.330854,-0.131609,-0.197514,0.256942,-0.00429126,-0.00109102,0.366193,0.39215652261756584,0.2929701323168614,-0.004282065700218274,-0.1233162885948752,-0.0010904250540654248,-0.17923135021380798
464,0.4402,806.036,72.2463,0.106622,242.89,-1.01755,-0.169848,0.331479,-0.131857,-0.197891,0.257452,-0.00429272,-0.00109189,0.366898,0.3930268924064284,0.29362971526369797,-0.0042835194473410665,-0.12353367919775471,-0.0010912941050176261,-0.17954072167459278
465,0.4412,806.448,72.7872,-0.0246265,242.987,-0.866687,-0.248087,0.332105,-0.132102,-0.198269,0.257961,-0.00429262,-0.00109335,0.367603,0.39389920024494196,0.29428834039464324,-0.004283419875688033,-0.12374838714355396,-0.0010927525106635416,-0.1798507966739329
466,0.4422,806.633,72.462,0.0732345,243.098,-0.955483,-0.182572,0.332729,-0.132352,-0.198644,0.258471,-0.00429604,-0.0010929,0.368308,0.39476926477779717,0.29494859579906163,-0.004286825220569002,-0.12396742266618688,-0.0010923030023011204,-0.18015829496564695
467,0.4432,807.042,73.0328,-0.0820268,243.193,-0.794415,-0.273694,0.333354,-0.132597,-0.199022,0.25898,-0.00429557,-0.00109459,0.369012,0.39564126804091737,0.29560789241107677,-0.0042863572352668244,-0.12418202435785297,-0.001093991154882512,-0.18046813656639804
468,0.4442,807.168,72.4362,0.110112,243.309,-0.960352,-0.155908,0.333978,-0.132848,-0.199395,0.259489,-0.00430004,-0.00109344,0.369716,0.39651241996330766,0.2962675246904878,-0.004290808065302354,-0.12440182708334313,-0.0010928424123117786,-0.18077376494822206
469,0.4452,807.631,73.2689,-0.137334,243.398,-0.725045,-0.299118,0.334601,-0.133092,-0.199773,0.259997,-0.00429834,-0.00109582,0.370418,0.3973827182707186,0.29692619588134805,-0.004289115358237283,-0.12461544697484817,-0.0010952198085177889,-0.18108337394528473
470,0.4462,807.679,72.3183,0.173878,243.52,-0.991212,-0.112841,0.335224,-0.133344,-0.200144,0.260505,-0.00430425,-0.00109371,0.371121,0.39825355894290415,0.2975852017621772,-0.004294999992176418,-0.12483601608933492,-0.0010931121172079727,-0.18138713566226838
471,0.4472,807.987,72.5426,0.0937674,243.618,-0.924368,-0.155299,0.335847,-0.133591,-0.20052,0.261013,-0.00430545,-0.00109449,0.371823,0.39912494231786266,0.29824454250304133,-0.004296194837459466,-0.12505215489911892,-0.001093891264276614,-0.18169487624040503
472,0.4482,808.382,73.0293,-0.0201437,243.714,-0.788459,-0.22337,0.336469,-0.133835,-0.200895,0.26152,-0.00430528,-0.00109575,0.372525,0.3999954687376348,0.29890291937052327,-0.0042960255677982895,-0.12526561612999432,-0.0010951498851806685,-0.18200168313192733
473,0.4492,808.573,72.7463,0.063768,243.823,-0.865241,-0.166001,0.33709,-0.134084,-0.201269,0.262028,-0.00430823,-0.00109534,0.373226,0.4008651359274351,0.29956292968198883,-0.004298962890190272,-0.12548339787662532,-0.0010947403341081685,-0.18230755730040116
474,0.4502,808.962,73.252,-0.0711121,243.917,-0.722295,-0.245117,0.337711,-0.134328,-0.201644,0.262535,-0.00430775,-0.00109679,0.373927,0.40173534334828465,0.3002219751412445,-0.004298484953577764,-0.12569675389705037,-0.001096188745684623,-0.18261413447959973
475,0.4512,809.103,72.7349,0.0958133,244.03,-0.865803,-0.142218,0.338332,-0.134578,-0.202016,0.263041,-0.00431159,-0.00109577,0.374627,0.40260609133577097,0.30088005394056117,-0.004302308440054414,-0.12591530238887638,-0.001095169863277512,-0.1829181454720228
476,0.4522,809.538,73.4631,-0.118916,244.119,-0.659675,-0.266129,0.338952,-0.13482,-0.202392,0.263548,-0.00431005,-0.00109781,0.375327,0.4034759767490119,0.3015397673511271,-0.004300775064428719,-0.12612680529281461,-0.0010972076270524544,-0.18322531049868152
477,0.4532,809.613,72.645,0.150519,244.238,-0.888524,-0.104544,0.339573,-0.135071,-0.202762,0.264054,-0.00431511,-0.00109598,0.376026,0.40434780600553943,0.3021985131220315,-0.0043058132897602075,-0.1263461199395466,-0.0010953796332697774,-0.18352746123246422
478,0.4542,810.125,73.7388,-0.187678,244.319,-0.578806,-0.299122,0.340192,-0.135311,-0.203138,0.264559,-0.0043119,-0.00109896,0.376725,0.40521736639863337,0.30285628944570075,-0.004302617106290985,-0.1265557717115421,-0.0010983563646032035,-0.18383439719946293
479,0.4552,810.319,73.5121,-0.137241,244.423,-0.640891,-0.262439,0.340811,-0.135558,-0.203511,0.265065,-0.00431393,-0.00109906,0.377423,0.40608746521623584,0.303515701545352,-0.004304638369926672,-0.12677148579414343,-0.0010984562547625698,-0.18413877020021396
480,0.4562,810.535,73.1701,0.0405468,244.534,-0.738853,-0.165748,0.341429,-0.135805,-0.203882,0.26557,-0.00431674,-0.00109815,0.378121,0.4069566958343356,0.3041741432171612,-0.004307436269961773,-0.1269871466019461,-0.0010975472539441755,-0.18444139857543485
481,0.4572,810.837,73.4526,-0.079202,244.63,-0.654616,-0.222445,0.342048,-0.136049,-0.204255,0.266075,-0.00431682,-0.00109927,0.378818,0.4078278716301491,0.3048329174859885,-0.004307515925363714,-0.12720013575244216,-0.0010986660240647206,-0.18474554520689312
482,0.4582,811.035,73.0926,0.0800931,244.739,-0.757288,-0.133463,0.342665,-0.136296,-0.204625,0.26658,-0.00431974,-0.00109837,0.379515,0.4086967694543586,0.3054920245198376,-0.0043104233431723316,-0.12741569069677983,-0.0010977670124595607,-0.18504713355788105
483,0.4592,811.395,73.5986,-0.0968869,244.83,-0.611245,-0.228025,0.343282,-0.136539,-0.204998,0.267084,-0.00431883,-0.00109995,0.380212,0.40956620355394957,0.3061501583359858,-0.004309517265245311,-0.12762770292341163,-0.0010993452767408263,-0.18535105429232335
484,0.4602,811.539,73.0366,0.115886,244.943,-0.769697,-0.105321,0.343899,-0.136787,-0.205368,0.267588,-0.00432255,-0.00109857,0.380908,0.4104361742599063,0.3068086239351797,-0.004313221226951769,-0.12784402442811138,-0.001097966792886207,-0.1856524186463916
485,0.4612,811.964,73.8111,-0.139586,245.028,-0.548343,-0.24725,0.344516,-0.137028,-0.205741,0.268092,-0.00432042,-0.00110076,0.381603,0.41130668190341657,0.3074674214846802,-0.0043111004118543406,-0.12805418869241314,-0.0011001543859434637,-0.18595611365159692
486,0.4622,812.031,72.9285,0.170593,245.146,-0.79678,-0.0664262,0.345132,-0.137277,-0.206109,0.268595,-0.00432543,-0.00109858,0.382298,0.4121763146388526,0.3081252430259349,-0.004316088800745299,-0.12827127617091605,-0.0010979767819064845,-0.18625562668799434
487,0.4632,812.546,74.0979,-0.208761,245.224,-0.464168,-0.28126,0.345747,-0.137515,-0.206484,0.269098,-0.00432152,-0.00110174,0.382992,0.41304507018730474,0.3087833955346564,-0.0043121956690413965,-0.12847872292004492,-0.0011011333073125407,-0.18656072361873655
488,0.4642,812.734,73.8508,-0.145872,245.326,-0.532416,-0.238676,0.346362,-0.13776,-0.206853,0.269601,-0.00432327,-0.00110168,0.383687,0.41391436018474503,0.309441879177363,-0.004313938121174421,-0.12869221947853315,-0.0011010733733787248,-0.18686082733917964
489,0.4652,812.939,73.4843,0.0400731,245.436,-0.637148,-0.13739,0.346977,-0.138006,-0.207222,0.270104,-0.00432582,-0.00110063,0.38438,0.41478418495996117,0.310100694120657,-0.004316477117394912,-0.12890653483067238,-0.0011000245289550792,-0.1871608203417785
490,0.4662,813.239,73.7768,-0.0819216,245.53,-0.549992,-0.195686,0.347591,-0.138249,-0.207593,0.270606,-0.0043255,-0.00110167,0.385073,0.4156531291881056,0.3107585297720392,-0.004316158498616662,-0.12911818482619264,-0.0011010633843894224,-0.18746232774435023
491,0.4672,813.428,73.3998,0.0821624,245.637,-0.657285,-0.103826,0.348205,-0.138495,-0.207961,0.271108,-0.00432815,-0.00110065,0.385766,0.416522607111834,0.311416695739821,-0.0043187970573005385,-0.12933239540374408,-0.0011000445069544451,-0.18776128659593772
492,0.4682,813.787,73.9203,-0.099426,245.726,-0.506945,-0.201112,0.348818,-0.138735,-0.208332,0.271609,-0.00432683,-0.00110217,0.386458,0.4173912016670256,0.31207388011532666,-0.004317482757245195,-0.129541330555626,-0.001101562833732861,-0.18806257126684844
493,0.4692,813.923,73.342,0.118495,245.837,-0.669923,-0.075468,0.349431,-0.138982,-0.208699,0.272111,-0.00433027,-0.00110066,0.38715,0.41826032883390796,0.31273270655474517,-0.004320907899213244,-0.1297563072962583,-0.0011000544959539615,-0.1883604976303619
494,0.4702,814.345,74.1304,-0.142182,245.92,-0.444309,-0.220282,0.350043,-0.139221,-0.20907,0.272612,-0.00432773,-0.0011028,0.387841,0.4191285698097935,0.3133905504168566,-0.004318378871107531,-0.12996427068619953,-0.0011021921395499845,-0.18866156003521173
495,0.4712,814.405,73.2344,0.173026,246.037,-0.696573,-0.0367969,0.350656,-0.139469,-0.209435,0.273113,-0.00433246,-0.0011005,0.388532,0.4199987623098389,0.31404872394131655,-0.004323088434037281,-0.1301800127939423,-0.0010998946719498193,-0.18895764452709185
496,0.4722,814.916,74.4123,-0.210668,246.112,-0.361126,-0.253782,0.351267,-0.139705,-0.209808,0.273613,-0.00432815,-0.00110359,0.389222,0.42086664666528084,0.31470591258675706,-0.0043187970573005385,-0.13038526609008128,-0.0011029812685064977,-0.1892601069129416
497,0.4732,815.098,74.1588,-0.144825,246.213,-0.431156,-0.209733,0.351878,-0.139949,-0.210175,0.274113,-0.00432959,-0.00110342,0.389912,0.42173506146009676,0.3153634299086827,-0.004320230837200456,-0.13059742620056924,-0.0011028114559988866,-0.1895575938615104
498,0.4742,815.3,73.798,0.0382437,246.32,-0.534097,-0.109971,0.352489,-0.140193,-0.210541,0.274613,-0.00433177,-0.0011023,0.390602,0.422604007018484,0.3160212760714727,-0.004322401416731347,-0.1308095345503053,-0.0011016926905212943,-0.18985416150696743
499,0.4752,815.593,74.0795,-0.0795391,246.413,-0.449937,-0.166039,0.353099,-0.140434,-0.21091,0.275113,-0.00433116,-0.00110323,0.39129,0.4234720601920663,0.3166794512395883,-0.00432179405321087,-0.13101898421278058,-0.0011026216655151133,-0.19015305017302098
500,0.4762,815.78,73.7168,0.0790953,246.518,-0.553007,-0.0772464,0.353709,-0.140678,-0.211276,0.275612,-0.0043334,-0.00110216,0.391979,0.4243406430396186,0.3173366382402769,-0.004324024369894319,-0.13123098971490954,-0.0011015528447484435,-0.19044939992134557
501,0.4772,816.129,74.2152,-0.0951859,246.605,-0.408716,-0.170351,0.354319,-0.140918,-0.211645,0.276111,-0.00433183,-0.00110353,0.392667,0.4252097558843406,0.3179941532591126,-0.004322461157385438,-0.131439469258832,-0.001102921334683593,-0.19074806898494345
502,0.4782,816.267,73.666,0.113023,246.713,-0.563383,-0.0503871,0.354928,-0.141163,-0.212009,0.27661,-0.00433481,-0.00110201,0.393354,0.4260779729709434,0.3186519964598171,-0.004325428272030196,-0.13165224052331947,-0.0011014030099700811,-0.19104258308301525
503,0.4792,816.675,74.413,-0.134651,246.795,-0.349215,-0.187562,0.355536,-0.1414,-0.212378,0.277108,-0.00433209,-0.00110395,0.394041,0.42694529201678155,0.31930884869668597,-0.004322720033511862,-0.1318580145571292,-0.001103340871368541,-0.1913410333024057
504,0.4802,816.743,73.5714,0.163298,246.909,-0.58612,-0.0143195,0.356145,-0.141646,-0.212741,0.277606,-0.00433626,-0.0011017,0.394728,0.42781456636679294,0.31996602812743324,-0.004326871999112525,-0.1320715512194618,-0.0011010933513571075,-0.19163452323567132
505,0.4812,817.232,74.675,-0.197384,246.984,-0.271314,-0.217687,0.356752,-0.141881,-0.213111,0.278104,-0.00433192,-0.00110451,0.395414,0.4286815129002317,0.32062353491504214,-0.004322550768359856,-0.13227549044112819,-0.0011039002533410613,-0.19193356313628096
506,0.4822,817.413,74.4343,-0.134667,247.082,-0.337578,-0.175726,0.357359,-0.142124,-0.213476,0.278602,-0.004333,-0.00110427,0.3961,0.42954898582996126,0.3212813692225769,-0.0043236260994243825,-0.13248632187989373,-0.001103660518248284,-0.1922284535649591
507,0.4832,817.617,74.11,0.034513,247.187,-0.430027,-0.0836485,0.357966,-0.142366,-0.213841,0.279099,-0.0043347,-0.00110316,0.396785,0.4304169854756015,0.3219382092743128,-0.004325318747821272,-0.1326962347895122,-0.001102551742696134,-0.19252323637827173
508,0.4842,817.9,74.3613,-0.0720239,247.278,-0.354371,-0.133582,0.358573,-0.142606,-0.214207,0.279596,-0.00433388,-0.00110391,0.39747,0.43128551215696564,0.32259537585669085,-0.004324502294247856,-0.1329043627168125,-0.0011033009155013707,-0.19281871879717616
509,0.4852,818.092,74.0426,0.0709326,247.381,-0.444816,-0.0536611,0.359179,-0.142848,-0.21457,0.280093,-0.0043356,-0.00110287,0.398154,0.4321531340402116,0.32325286913203666,-0.0043262148546311385,-0.13311417447278862,-0.001102262062394166,-0.19311167242795202
510,0.4862,818.424,74.4851,-0.0844533,247.467,-0.316178,-0.136002,0.359785,-0.143086,-0.214937,0.280589,-0.00433393,-0.00110401,0.398838,0.4330212818616619,0.32390936535272963,-0.004324552078021515,-0.1333204687492714,-0.0011034008051663546,-0.19340774611132683
511,0.4872,818.573,74.0065,0.099987,247.572,-0.450775,-0.0297533,0.36039,-0.143329,-0.215299,0.281085,-0.00433627,-0.00110259,0.399521,0.4338885220508928,0.3245661872763159,-0.004326881955843742,-0.13353104628915802,-0.0011019823709883525,-0.19369967966407353
512,0.4882,818.957,74.6624,-0.117864,247.654,-0.2622,-0.149685,0.360995,-0.143566,-0.215666,0.281581,-0.00433361,-0.00110421,0.400204,0.4347562870791859,0.32522333506438406,-0.004324233461827198,-0.13373637509876246,-0.0011036005844661245,-0.19399553758838695
513,0.4892,819.046,73.935,0.142659,247.764,-0.466753,0.00176276,0.361599,-0.14381,-0.216027,0.282077,-0.00433695,-0.00110217,0.400887,0.4356231416403058,0.32588080887860293,-0.004327559013333815,-0.13394771763839997,-0.001101562833732861,-0.194286452685983
514,0.4902,819.497,74.8925,-0.170773,247.839,-0.193026,-0.174136,0.362203,-0.144044,-0.216394,0.282572,-0.00433291,-0.00110452,0.401569,0.43649051993973353,0.3265372823427759,-0.004323536488546664,-0.1341503501635426,-0.001103910242301942,-0.19458209530410853
515,0.4912,819.503,73.8021,0.206701,247.956,-0.500157,0.0454013,0.362807,-0.14429,-0.216754,0.283067,-0.00433775,-0.00110154,0.402251,0.43735842229390265,0.32719408084175305,-0.004328355550967888,-0.13436332298067177,-0.0011009335275191656,-0.1948719935649812
516,0.4922,819.796,74.0753,0.106553,248.043,-0.418248,-0.00788554,0.36341,-0.144528,-0.217118,0.283562,-0.00433702,-0.00110199,0.402932,0.4382254107933079,0.3278512045364663,-0.004327628710402154,-0.1345693199951853,-0.0011013830319980267,-0.19516500682767446
517,0.4932,820.16,74.557,-0.016306,248.129,-0.281876,-0.0789928,0.364013,-0.144765,-0.217482,0.284056,-0.00433512,-0.00110282,0.403612,0.43909292224443264,0.32850732507993863,-0.004325736931099611,-0.1347744027630785,-0.0011022121175059407,-0.19545791345294938
518,0.4942,820.337,74.3036,0.0628996,248.228,-0.350182,-0.0259806,0.364615,-0.145005,-0.217844,0.28455,-0.00433623,-0.00110203,0.404292,0.4399595170024746,0.3291637698270309,-0.004326842128918207,-0.13498203198991154,-0.0011014229879419135,-0.1957491049794332
519,0.4952,820.688,74.7617,-0.0649285,248.313,-0.219055,-0.0992393,0.365217,-0.145242,-0.218208,0.285044,-0.0043342,-0.00110294,0.404972,0.440826633607621,0.3298205389379396,-0.004324820910356131,-0.13518701695665192,-0.0011023319852333513,-0.1960417990316714
520,0.4962,820.825,74.3112,0.0865237,248.415,-0.343876,-0.00719047,0.365818,-0.145483,-0.218568,0.285538,-0.00433607,-0.00110163,0.405651,0.441692830680567,0.33047763257293994,-0.0043266828212001895,-0.1353954117729813,-0.0011010234284311027,-0.19633117189377958
521,0.4972,821.207,74.9341,-0.102844,248.496,-0.165741,-0.114472,0.366419,-0.145718,-0.218932,0.286031,-0.00433323,-0.00110298,0.40633,0.4425595484944207,0.3311337197580011,-0.004323855104964025,-0.1355985699791904,-0.0011023719411392685,-0.19662365411221716
522,0.4982,821.295,74.2583,0.127681,248.603,-0.354776,0.0222862,0.36702,-0.145961,-0.219292,0.286524,-0.004336,-0.00110106,0.407009,0.4434267873622417,0.33179013047378825,-0.00432661312406557,-0.1358085940077326,-0.0011004540558522402,-0.19691281754419598
523,0.4992,821.732,75.1449,-0.153321,248.678,-0.10161,-0.136818,0.36762,-0.146194,-0.219656,0.287016,-0.00433194,-0.00110309,0.407686,0.44429310330345184,0.3324455324336426,-0.004322570681908666,-0.13600992714910698,-0.0011024818198722697,-0.19720508808214499
524,0.5002,821.751,74.1479,0.186839,248.791,-0.381882,0.0624009,0.36822,-0.146438,-0.220014,0.287509,-0.00433604,-0.00110031,0.408364,0.44515993919019503,0.3331025900325224,-0.004326652951000209,-0.13622071500971777,-0.0010997048809118226,-0.19749243722204646
525,0.5012,822.037,74.4029,0.094758,248.877,-0.305333,0.0133192,0.36882,-0.146674,-0.220376,0.288001,-0.00433502,-0.00110064,0.409041,0.44602729533453167,0.3337586378813555,-0.004325637363668311,-0.13642454286834216,-0.0011000345179548177,-0.19778289238421587
526,0.5022,822.386,74.8382,-0.0130592,248.962,-0.181887,-0.0490721,0.369418,-0.14691,-0.220738,0.288493,-0.00433296,-0.00110127,0.409718,0.4468922782612601,0.33441500858514583,-0.004323586272368618,-0.1366283226292676,-0.0011006638247348377,-0.1980732424206455
527,0.5032,822.567,74.6187,0.0553412,249.059,-0.240597,-0.00248988,0.370017,-0.147149,-0.221097,0.288985,-0.00433359,-0.00110049,0.410394,0.44775922636097265,0.3350717023027776,-0.004324213548311695,-0.13683464380379673,-0.0010998846829487485,-0.19836108245623874
528,0.5042,822.901,75.0248,-0.0562364,249.143,-0.124045,-0.0662235,0.370615,-0.147384,-0.221459,0.289476,-0.00433146,-0.00110119,0.411069,0.4486252452921893,0.33572738346516084,-0.004322092756627871,-0.1370374638302163,-0.0011005839127847805,-0.1986512232257418
529,0.5052,823.048,74.6354,0.0755998,249.243,-0.231603,0.0142839,0.371213,-0.147623,-0.221817,0.289967,-0.00433273,-0.00109995,0.411745,0.44949178225760344,0.33638338664604395,-0.004323357266767136,-0.1372436872316828,-0.0010993452767408263,-0.19893805474192217
530,0.5062,823.408,75.1795,-0.0887794,249.323,-0.0755984,-0.0784029,0.37181,-0.147857,-0.222179,0.290457,-0.00432991,-0.00110102,0.412419,0.4503573872089801,0.33703837496453337,-0.004320549454675637,-0.13744554859017055,-0.0011004140998696066,-0.19922798668525765
531,0.5072,823.514,74.6005,0.11054,249.426,-0.237314,0.0400802,0.372407,-0.148098,-0.222537,0.290948,-0.00433193,-0.00109926,0.413094,0.4512235090807981,0.3376950220002961,-0.004322560725134372,-0.13765339916595998,-0.0010986560350513264,-0.1995146117570753
532,0.5082,823.92,75.365,-0.131279,249.502,-0.0185119,-0.0962209,0.373004,-0.14833,-0.222898,0.291438,-0.00432807,-0.00110089,0.413768,0.4520901481817512,0.3383506531775966,-0.004318717402801098,-0.13785344037167635,-0.0011002842429149728,-0.1998035348284788
533,0.5092,823.968,74.5185,0.160101,249.611,-0.25627,0.0745234,0.3736,-0.148571,-0.223255,0.291928,-0.0043312,-0.00109842,0.414441,0.452955851864139,0.33900660569289554,-0.004321833880338355,-0.1380611926573908,-0.0010978169575699415,-0.20008915398049298
534,0.5102,824.441,75.6023,-0.191032,249.679,0.0533321,-0.123938,0.374195,-0.148802,-0.223617,0.292417,-0.00432586,-0.00110086,0.415114,0.453820617838363,0.33966154004147664,-0.004316516944735116,-0.13826027752669923,-0.0011002542759230849,-0.2003786693013173
535,0.5112,824.606,75.3535,-0.12559,249.773,-0.0150632,-0.0806575,0.374791,-0.149039,-0.223975,0.292907,-0.00432594,-0.00110031,0.415787,0.4546873531880724,0.34031813504873654,-0.004316596599410527,-0.13846448564130798,-0.0010997048809118226,-0.2006648825024876
536,0.5122,824.802,75.062,0.029041,249.872,-0.0978635,0.0035629,0.375386,-0.149277,-0.224332,0.293396,-0.00432645,-0.00109904,0.416459,0.45555314971214234,0.34097371089200545,-0.00431710439781674,-0.13866950669525213,-0.0010984362767314515,-0.20095019420826454
537,0.5132,825.063,75.2728,-0.0624276,249.957,-0.0335231,-0.0383496,0.37598,-0.149512,-0.224691,0.293885,-0.00432475,-0.00109939,0.417131,0.456418005119698,0.3416296073902556,-0.0043154117354554655,-0.13887189557955348,-0.0010987858922175686,-0.20123700160353597
538,0.5142,825.253,75.0078,0.0603712,250.053,-0.108443,0.0302079,0.376574,-0.149749,-0.225048,0.294373,-0.00432518,-0.00109824,0.417802,0.45728337440397215,0.34228448241517184,-0.004315839879736383,-0.13907595875785927,-0.0010976371551608688,-0.2015221090992474
539,0.5152,825.555,75.375,-0.0696304,250.135,-0.000842668,-0.0377746,0.377168,-0.149982,-0.225407,0.294861,-0.00432278,-0.0010989,0.418473,0.45814925787029814,0.3429396770970903,-0.004313450234884497,-0.13927653069193102,-0.0010982964305027432,-0.20180871121392308
540,0.5162,825.711,74.9918,0.0822645,250.233,-0.108289,0.0496228,0.377761,-0.15022,-0.225763,0.295349,-0.00432366,-0.00109748,0.419143,0.45901419680926425,0.34359519159204166,-0.004314326438662808,-0.13948135850215004,-0.001096877989076539,-0.20209281673894697
541,0.5172,826.052,75.5182,-0.0937941,250.312,0.0440725,-0.0461353,0.378354,-0.150452,-0.226122,0.295837,-0.00432051,-0.00109849,0.419813,0.459879648809129,0.34425102605613245,-0.004311190023851275,-0.13968097567049065,-0.0010978868807203224,-0.20237921400635228
542,0.5182,826.165,74.9545,0.113223,250.413,-0.114212,0.0739716,0.378947,-0.150691,-0.226477,0.296324,-0.0043221,-0.00109661,0.420483,0.4607456141742272,0.344905835739038,-0.004312773167800432,-0.13988656734812133,-0.0010960089429824516,-0.2026623191312471
543,0.5192,826.554,75.6962,-0.13144,250.487,0.0990418,-0.0618299,0.379539,-0.150921,-0.226836,0.296811,-0.00431794,-0.00109814,0.421152,0.46161063159771265,0.34556096439192174,-0.004308631100321425,-0.14008437068937507,-0.001097537264919568,-0.20294851198398822
544,0.5202,826.609,74.8781,0.158345,250.593,-0.131277,0.106204,0.380131,-0.151161,-0.227189,0.297298,-0.00432058,-0.0010956,0.421821,0.4624761612631212,0.3462164121701603,-0.004311259722065475,-0.14029072567682055,-0.0010950000494419632,-0.2032298215052062
545,0.5212,827.064,75.9213,-0.186146,250.66,0.167495,-0.0870166,0.380722,-0.15139,-0.227549,0.297784,-0.00431503,-0.00109787,0.422488,0.46334074013231863,0.34687083235769967,-0.004305733634222042,-0.14048757656035415,-0.001097267561218196,-0.2035166071449519
546,0.5222,827.227,75.6785,-0.119785,250.751,0.100674,-0.0438886,0.381313,-0.151625,-0.227905,0.298271,-0.00431473,-0.00109721,0.423156,0.4642058301186478,0.3475269181969929,-0.0043054349258973,-0.14068953824843466,-0.001096608285197198,-0.20380010476723742
547,0.5232,827.423,75.4079,0.0263349,250.848,0.0239309,0.0356571,0.381903,-0.151861,-0.228259,0.298757,-0.00431477,-0.0010959,0.423824,0.46506996645356935,0.3481819754452544,-0.0043054747536791504,-0.14089231158921267,-0.0010952997208969473,-0.2040819096477431
548,0.5242,827.676,75.6,-0.057474,250.932,0.0829018,-0.002263,0.382493,-0.152094,-0.228616,0.299242,-0.00431278,-0.0010961,0.424491,0.4659346127793611,0.3488360022920354,-0.004303493319602336,-0.14109246036237488,-0.0010954995018170877,-0.2043660016925516
549,0.5252,827.865,75.3612,0.0552937,251.025,0.0155776,0.060702,0.383083,-0.152329,-0.22897,0.299728,-0.00431273,-0.00109493,0.425157,0.4667997693970065,0.34949169590979245,-0.004303443534775853,-0.14129427991946297,-0.0010943307828678028,-0.20464760628099943
550,0.5262,828.156,75.6942,-0.0627326,251.106,0.113504,-0.000589832,0.383672,-0.152561,-0.229326,0.300213,-0.0043101,-0.0010954,0.425823,0.46766396894296336,0.35014635812506323,-0.004300824849388762,-0.14149347653882038,-0.0010948002684220137,-0.20493070133925317
551,0.5272,828.317,75.3534,0.0743417,251.201,0.0181517,0.0783254,0.384261,-0.152797,-0.22968,0.300698,-0.00431043,-0.00109399,0.426489,0.4685286776523869,0.3508013379285171,-0.004301153430062321,-0.1416960601725481,-0.001093391811097355,-0.20521210605940488
552,0.5282,828.641,75.8246,-0.0833632,251.278,0.154945,-0.00694143,0.384849,-0.153028,-0.230036,0.301182,-0.00430714,-0.00109476,0.427154,0.46939242643210144,0.3514552840182623,-0.00429787757546829,-0.14189430548443316,-0.0010941609688895904,-0.20549500019150446
553,0.5292,828.764,75.3288,0.100882,251.376,0.0159328,0.0999806,0.385438,-0.153264,-0.230388,0.301667,-0.00430807,-0.00109296,0.427819,0.47025815350286404,0.35211089880474544,-0.004298803578011601,-0.14209679453369128,-0.001092362936761071,-0.20577461673603814
554,0.5302,829.129,75.9837,-0.1154,251.45,0.20471,-0.0194557,0.386025,-0.153493,-0.230745,0.30215,-0.00430391,-0.00109417,0.428483,0.4711214483912314,0.3527641261105634,-0.0042946614524188576,-0.14229323187480902,-0.0010935716142707053,-0.20605810459227014
555,0.5312,829.203,75.2724,0.13917,251.551,0.00461705,0.128119,0.386613,-0.15373,-0.231096,0.302634,-0.00430572,-0.00109181,0.429147,0.4719867221684455,0.35341902241972334,-0.004296463677450624,-0.14249648429249184,-0.0010912141923179464,-0.20633672929606217
556,0.5322,829.623,76.181,-0.161448,251.619,0.265417,-0.039742,0.387199,-0.153958,-0.231453,0.303118,-0.00430038,-0.00109365,0.42981,0.4728495591741877,0.35407423577541586,-0.004291146606370089,-0.14269197280753554,-0.0010930521827928752,-0.20662001651392636
557,0.5332,829.63,75.1706,0.193208,251.727,-0.0195884,0.165174,0.387786,-0.154196,-0.231802,0.303601,-0.00430344,-0.00109051,0.430473,0.47371437566423036,0.3547284116020397,-0.004294193470799734,-0.1428959878392556,-0.0010899156100523388,-0.20689685781654577
558,0.5342,829.904,75.4398,0.0942538,251.807,0.0613363,0.11247,0.388372,-0.154428,-0.232156,0.304084,-0.0043012,-0.00109059,0.431136,0.47457822537161376,0.35538290347190626,-0.00429196308729507,-0.14309481290547743,-0.0010899955228558245,-0.20717756664048548
559,0.5352,830.229,75.8428,-0.00820919,251.886,0.176392,0.0541112,0.388958,-0.154658,-0.23251,0.304567,-0.00429813,-0.00109087,0.431798,0.4754425814432759,0.35603771153770114,-0.004288906258929526,-0.1432918784351045,-0.001090275217617953,-0.20745817611108797
560,0.5362,830.404,75.6589,0.0504048,251.976,0.127686,0.0942191,0.389543,-0.154891,-0.232862,0.305049,-0.00429748,-0.00108988,0.432459,0.4763059678693269,0.3566914792600262,-0.004288259046508314,-0.14349146817432157,-0.0010892862965009575,-0.20773710173930637
561,0.5372,830.711,76.0105,-0.0472661,252.055,0.22933,0.0392032,0.390128,-0.155122,-0.233216,0.305531,-0.00429444,-0.00109016,0.433121,0.47716985952420243,0.35734556217434865,-0.00428523207821474,-0.14368929879485692,-0.001089565991461594,-0.2080175131695391
562,0.5382,830.859,75.6879,0.064964,252.147,0.1405,0.107519,0.390713,-0.155355,-0.233567,0.306013,-0.00429431,-0.0010888,0.433782,0.4780342567035476,0.3579999604326276,-0.004285102635286586,-0.14388879594591708,-0.0010882074723475021,-0.208295450241607
563,0.5392,831.183,76.1389,-0.0726398,252.223,0.270693,0.0309498,0.391297,-0.155584,-0.23392,0.306494,-0.00429075,-0.00108935,0.434442,0.47889768080476025,0.3586533155329006,-0.004281557883942244,-0.14408482296569503,-0.0010887568736823727,-0.20857487262671914
564,0.5402,831.303,75.676,0.0909421,252.318,0.141634,0.127867,0.391881,-0.155819,-0.23427,0.306976,-0.00429117,-0.0010876,0.435102,0.4797616092929149,0.35930834428023406,-0.004281976085600103,-0.14428593940019152,-0.0010870087774772497,-0.20885182295216564
565,0.5412,831.657,76.2852,-0.103698,252.391,0.317054,0.0194882,0.392464,-0.156047,-0.234624,0.307456,-0.00428684,-0.00108856,0.435761,0.480624561837357,0.35996096890286755,-0.004277664617222232,-0.14448101996597862,-0.0010879677334886262,-0.2091318398409271
566,0.5422,831.737,75.6332,0.126437,252.49,0.134034,0.15384,0.393047,-0.156282,-0.234973,0.307937,-0.00428803,-0.00108629,0.436421,0.4814880176298151,0.36061526747510153,-0.004278849526096362,-0.14468204330511913,-0.0010857002006017247,-0.20940780467015885
567,0.5432,832.137,76.4637,-0.145474,252.557,0.372561,0.00186415,0.393629,-0.156508,-0.235327,0.308418,-0.00428267,-0.00108781,0.437079,0.48235049461253254,0.3612698808406505,-0.004273512446426486,-0.1448753233218677,-0.0010872185491834774,-0.2096876247762246
568,0.5442,832.161,75.5512,0.17469,252.661,0.115362,0.187179,0.394212,-0.156744,-0.235674,0.308898,-0.00428494,-0.00108485,0.437738,0.4832149569171682,0.3619234472268382,-0.004275772742987738,-0.1450771089339249,-0.0010842617629742701,-0.20996181559556892
569,0.5452,832.625,76.6868,-0.202586,252.722,0.440788,-0.0244367,0.394793,-0.156969,-0.236029,0.309378,-0.00427817,-0.00108714,0.438395,0.48407695519338834,0.3625773274001942,-0.004269031667150758,-0.14526944494580207,-0.0010865492773955987,-0.21024222937464176
570,0.5462,832.773,76.4115,-0.124266,252.81,0.364503,0.0250621,0.395375,-0.1572,-0.236379,0.309857,-0.0042772,-0.0010862,0.439053,0.48494093937632043,0.3632301582805324,-0.004268065807643051,-0.1454668649011368,-0.0010856102983106686,-0.21051859622734015
571,0.5472,832.955,76.1291,0.0242784,252.902,0.28448,0.106064,0.395956,-0.157432,-0.236728,0.310337,-0.00427651,-0.00108467,0.43971,0.48580394073971767,0.3638846658257515,-0.004267378752371376,-0.14566509359306234,-0.0010840819581252603,-0.21079407716303733
572,0.5482,833.197,76.3127,-0.0560499,252.982,0.34102,0.0697362,0.396537,-0.157662,-0.237078,0.310816,-0.00427376,-0.00108464,0.440367,0.4866674436525933,0.36453812307119815,-0.0042646404838978524,-0.14586156802611006,-0.0010840519906472057,-0.21107025090280662
573,0.5492,833.377,76.0794,0.0536123,253.071,0.275293,0.130962,0.397117,-0.157893,-0.237427,0.311295,-0.0042729,-0.00108329,0.441023,0.4875299608757273,0.36519189339764235,-0.004263784151120387,-0.14605885121681028,-0.0010827034532071567,-0.2113455393446142
574,0.5502,833.655,76.3964,-0.0591639,253.148,0.368772,0.072521,0.397697,-0.158121,-0.237778,0.311773,-0.00426956,-0.00108352,0.441678,0.48839297850395424,0.3658446111097917,-0.004260458386605492,-0.14625352760478127,-0.0010829332041589756,-0.2116223084844786
575,0.5512,833.81,76.0758,0.0706333,253.238,0.279131,0.147116,0.398276,-0.158353,-0.238125,0.312252,-0.00426902,-0.00108197,0.442334,0.4892550075718409,0.36649900739391117,-0.004259920687107788,-0.1464515738121286,-0.0010813848815054428,-0.21189582808503937
576,0.5522,834.117,76.5135,-0.0767831,253.312,0.406576,0.0677873,0.398855,-0.15858,-0.238476,0.312729,-0.00426509,-0.00108245,0.442989,0.49011753589907947,0.3671509829042352,-0.0042560074209065935,-0.1466453073152887,-0.001081864362325602,-0.21217240410744997
577,0.5532,834.24,76.061,0.0933527,253.405,0.27971,0.166257,0.399434,-0.158812,-0.238823,0.313207,-0.00426507,-0.00108057,0.443643,0.4909805637748248,0.3678046372850148,-0.004255987506026515,-0.1468432626402859,-0.001079986394465382,-0.21244573285794388
578,0.5542,834.581,76.6533,-0.10375,253.476,0.450959,0.058058,0.400012,-0.159039,-0.239174,0.313685,-0.0042604,-0.00108141,0.444297,0.4918425996450537,0.36845860418727483,-0.004251337370630104,-0.14703690724017304,-0.0010808254869243417,-0.21272211589764978
579,0.5552,834.664,76.0221,0.125259,253.572,0.273371,0.190394,0.400591,-0.159271,-0.23952,0.314162,-0.0042611,-0.00107907,0.444951,0.49270662662192,0.3691115146482373,-0.004252034394449988,-0.1472347717245256,-0.0010784880133211106,-0.21299446692610424
580,0.5562,835.05,76.8217,-0.141521,253.638,0.503584,0.042375,0.401168,-0.159496,-0.239871,0.314639,-0.00425545,-0.00108042,0.445604,0.4935681668759415,0.3697647366217798,-0.004246408402550861,-0.14742662231688652,-0.0010798365564520518,-0.21327065739395046
581,0.5572,835.079,75.9495,0.169097,253.739,0.257421,0.22122,0.401745,-0.15973,-0.240215,0.315116,-0.00425716,-0.00107745,0.446257,0.49443020438213314,0.37041827025652885,-0.0042481111397366655,-0.147626101147331,-0.0010768697591609921,-0.2135412457439424
582,0.5582,835.524,77.0289,-0.193306,253.798,0.567289,0.0188996,0.402322,-0.159953,-0.240567,0.315592,-0.00425021,-0.0010795,0.446909,0.49529273942749197,0.3710707446297521,-0.004241190640060344,-0.14781615933449965,-0.0010789175494789749,-0.21381803050846404
583,0.5592,835.67,76.7635,-0.116326,253.884,0.493696,0.0671308,0.402898,-0.160182,-0.240913,0.316068,-0.00424883,-0.00107846,0.447561,0.49615427614415664,0.37172352965470634,-0.004239816491955262,-0.14801128709103129,-0.001077878671013055,-0.2140900024160548
584,0.5602,835.852,76.5071,0.0216413,253.974,0.421129,0.142329,0.403475,-0.160412,-0.24126,0.316544,-0.00424764,-0.0010769,0.448213,0.497017806265974,0.37237662547929684,-0.004238631536631843,-0.1482072219616264,-0.0010763203512882402,-0.21436266587537034
585,0.5612,836.086,76.6695,-0.0502667,254.052,0.471566,0.110399,0.40405,-0.160639,-0.241607,0.317019,-0.00424459,-0.00107671,0.448864,0.49787883902777286,0.3730286592221539,-0.004235594459826575,-0.14840055697788657,-0.0010761305557710488,-0.21463523473687907
586,0.5622,836.267,76.4657,0.0481568,254.138,0.414289,0.165349,0.404626,-0.160869,-0.241953,0.317495,-0.0042432,-0.00107533,0.449515,0.4987418657668927,0.37368237643629754,-0.004234210346340861,-0.14859640232670324,-0.0010747520398800559,-0.21490692394071742
587,0.5632,836.532,76.7457,-0.0516076,254.213,0.497225,0.114128,0.4052,-0.161095,-0.242301,0.31797,-0.00423962,-0.00107536,0.450165,0.49960239054482747,0.3743350305581874,-0.004230645498432883,-0.14878879779827014,-0.0010747820076371095,-0.2151800887977442
588,0.5642,836.692,76.4697,0.0623903,254.301,0.42027,0.179718,0.405775,-0.161325,-0.242646,0.318445,-0.0042385,-0.00107382,0.450815,0.5004649098699325,0.37498799476442457,-0.0042295302361312626,-0.1489845538619663,-0.001073243661616874,-0.21545080496588476
589,0.5652,836.981,76.8508,-0.065931,254.374,0.531638,0.1112,0.406349,-0.16155,-0.242993,0.318919,-0.00423442,-0.00107405,0.451465,0.5013264239590873,0.3756398935617524,-0.004225467484326617,-0.14917601079763443,-0.001073473414744397,-0.21572299630863245
590,0.5662,837.114,76.466,0.0810496,254.463,0.423987,0.196357,0.406923,-0.16178,-0.243338,0.319393,-0.00423371,-0.00107225,0.452114,0.5021884326992807,0.3762921014323546,-0.0042247604841575415,-0.14937167781258165,-0.0010716753453782202,-0.2159935252059879
591,0.5672,837.432,76.9738,-0.0878951,254.533,0.571241,0.104229,0.407496,-0.162005,-0.243685,0.319867,-0.00422901,-0.00107277,0.452762,0.5030494333243389,0.37694461852276695,-0.004220080329533471,-0.14956304765515926,-0.0010721947879720473,-0.2162655282574827
592,0.5682,837.532,76.4439,0.106976,254.625,0.422364,0.216897,0.40807,-0.162235,-0.244028,0.320341,-0.00422889,-0.00107059,0.453411,0.5039124313558072,0.377597444979594,-0.004219960835935899,-0.1497586256618656,-0.0010700171229829358,-0.21653430308377253
593,0.5692,837.886,77.1187,-0.118312,254.691,0.617163,0.0926193,0.408642,-0.162458,-0.244376,0.320814,-0.00422339,-0.00107152,0.454058,0.5047729153415013,0.3782492026996189,-0.004214484030659271,-0.14994820834908773,-0.0010709461274350796,-0.21680690171138717
594,0.5702,837.944,76.396,0.142142,254.787,0.413389,0.242574,0.409214,-0.162689,-0.244718,0.321288,-0.00422406,-0.00106883,0.454706,0.5056338916648304,0.3789026476759234,-0.004215151206731549,-0.15014454763489848,-0.0010682590046660057,-0.21707470795352413
595,0.5712,838.344,77.2929,-0.159436,254.848,0.671455,0.0750667,0.409786,-0.162911,-0.245066,0.32176,-0.00421752,-0.00107032,0.455353,0.506495360607492,0.37955364334851915,-0.0042086387525247515,-0.15033319460473515,-0.001069747411851174,-0.21734711855296285
596,0.5722,838.346,76.314,0.189212,254.95,0.394654,0.274963,0.410358,-0.163143,-0.245407,0.322233,-0.00421927,-0.00106696,0.456,0.507357322451345,0.38020632656923614,-0.004210381385882034,-0.15053029443912203,-0.0010663910005637156,-0.2176139576868782
597,0.5732,838.606,76.5867,0.0885216,255.022,0.476554,0.2212,0.410929,-0.163368,-0.245752,0.322706,-0.00421576,-0.00106675,0.456646,0.5082182692593866,0.38085931858213984,-0.004206886158186651,-0.1507214036222838,-0.0010661812244838753,-0.21788383431508107
598,0.5742,838.902,76.9404,-0.00232595,255.095,0.578138,0.170237,0.4115,-0.163593,-0.246097,0.323178,-0.00421167,-0.00106661,0.457292,0.5090797078084339,0.3815112380213954,-0.004202813356022128,-0.1509124698107165,-0.0010660413737394459,-0.21815361785190635
599,0.5752,839.074,76.8006,0.0433145,255.178,0.541674,0.202055,0.41207,-0.16382,-0.24644,0.323649,-0.00420963,-0.00106542,0.457937,0.5099401284384686,0.3821620830764818,-0.0042007819276893565,-0.15110519080540907,-0.0010648526416213722,-0.2184217451745185
600,0.5762,839.349,77.0852,-0.0357806,255.252,0.624584,0.158206,0.41264,-0.164044,-0.246785,0.324121,-0.00420568,-0.00106523,0.458582,0.510801039648064,0.3828146175657188,-0.004196848513009499,-0.15129532194718576,-0.001064662843925368,-0.2186913431641061
601,0.5772,839.501,76.8404,0.0522959,255.336,0.557526,0.211856,0.41321,-0.164271,-0.247127,0.324592,-0.00420402,-0.00106376,0.459227,0.5116624417169306,0.3834660766571649,-0.004195195478405966,-0.15148795604430654,-0.0010631944079003697,-0.21895850503745962
602,0.5782,839.785,77.1872,-0.0538392,255.408,0.65837,0.153765,0.413779,-0.164495,-0.247472,0.325063,-0.00419972,-0.00106374,0.459871,0.5125228224013592,0.38411784265811466,-0.004190913508540284,-0.15167800145627186,-0.0010631744291640377,-0.2192279178768346
603,0.5792,839.92,76.8496,0.06958,255.494,0.564545,0.226845,0.414348,-0.164723,-0.247813,0.325534,-0.00419841,-0.001062,0.460515,0.5133836927817024,0.38476991571315633,-0.004189608997782535,-0.15187139682403006,-0.0010614362775753783,-0.21949411576751876
604,0.5802,840.223,77.2969,-0.0741246,255.564,0.694257,0.148064,0.414917,-0.164946,-0.248158,0.326005,-0.0041936,-0.00106224,0.461158,0.5142450531366765,0.38542229596694666,-0.00418481913828217,-0.1520605084158122,-0.0010616760228019384,-0.21976334385306384
605,0.5812,840.332,76.8407,0.0921865,255.652,0.566475,0.245,0.415485,-0.165174,-0.248498,0.326475,-0.00419277,-0.00106017,0.461801,0.5151053886390105,0.38607359748991965,-0.00418399261133906,-0.15225381658192494,-0.0010596082183310651,-0.22002857922358565
606,0.5822,840.662,77.4235,-0.0999862,255.718,0.73493,0.139124,0.416053,-0.165395,-0.248843,0.326945,-0.0041873,-0.00106076,0.462443,0.5159662129507183,0.38672520519655595,-0.004178545482880769,-0.15244114778759965,-0.0010601975929883656,-0.22029762295104205
607,0.5832,840.739,76.8112,0.121523,255.81,0.562523,0.267009,0.41662,-0.165624,-0.249183,0.327415,-0.00418711,-0.00105827,0.463086,0.516826009522755,0.38737711923079576,-0.004178356276786421,-0.1526352165430358,-0.001057710229783626,-0.22056267669754837
608,0.5842,841.105,77.5728,-0.133701,255.871,0.782052,0.125732,0.417187,-0.165844,-0.249527,0.327884,-0.00418078,-0.0010593,0.463727,0.5176862937376816,0.3880279517080012,-0.004172052705830875,-0.15282161629067226,-0.001058739139812248,-0.22083075702430455
609,0.5852,841.138,76.7553,0.159757,255.967,0.551038,0.294078,0.417754,-0.166074,-0.249866,0.328353,-0.00418145,-0.00105626,0.464369,0.5185470658720703,0.3886790894972283,-0.004172719910332079,-0.153016444912775,-0.0010557023537632881,-0.22109485063127776
610,0.5862,841.553,77.7516,-0.177858,256.023,0.837603,0.10648,0.41832,-0.166293,-0.250211,0.328822,-0.00417402,-0.00105789,0.46501,0.5194068067950832,0.38933053274170226,-0.004165320886153734,-0.15320191400173255,-0.0010573306316413733,-0.22136352655854763
611,0.5872,841.529,76.6652,0.209629,256.125,0.529812,0.327759,0.418887,-0.166523,-0.250548,0.329291,-0.00417583,-0.00105415,0.46565,0.5202685547369907,0.3899822815847154,-0.004167123345291679,-0.1533966551654199,-0.001053594579071504,-0.22162588284058093
612,0.5882,841.79,76.9709,0.0979982,256.195,0.621105,0.267638,0.419452,-0.166746,-0.25089,0.329759,-0.00417177,-0.00105389,0.46629,0.5211277491699879,0.3906329455359856,-0.004163080255604967,-0.15358542666251374,-0.0010533348529724318,-0.22189204127296325
613,0.5892,842.084,77.3409,-0.00135448,256.265,0.727474,0.212281,0.420017,-0.166968,-0.251231,0.330227,-0.00416719,-0.00105369,0.46693,0.521987429185004,0.39128391406925167,-0.00415851931206801,-0.1537733098419901,-0.0010531350636193704,-0.22215733085244516
614,0.5902,842.251,77.2004,0.045958,256.345,0.690613,0.244567,0.420582,-0.167193,-0.251571,0.330695,-0.00416473,-0.00105238,0.46757,0.5228475950564699,0.39193518732709154,-0.004156069539012264,-0.15396368942876903,-0.0010518264423691193,-0.22242175240574402
615,0.5912,842.52,77.4883,-0.0362137,256.417,0.774536,0.199253,0.421147,-0.167415,-0.251913,0.331163,-0.00416033,-0.0010521,0.468208,0.5237082470589725,0.3925867654521491,-0.004151687816078442,-0.1541514886432317,-0.00105154673684138,-0.22268763869727382
616,0.5922,842.668,77.2419,0.0535721,256.499,0.706803,0.25347,0.421711,-0.16764,-0.252252,0.33163,-0.00415826,-0.0010505,0.468847,0.52456786089863,0.3932372553491843,-0.0041496264079387,-0.1543417831493522,-0.0010499484180375163,-0.2229511029280452
617,0.5932,842.946,77.5869,-0.0536103,256.568,0.80719,0.195003,0.422275,-0.167862,-0.252593,0.332097,-0.00415354,-0.00105038,0.469485,0.5254279596972384,0.39388804909594466,-0.004144925983082359,-0.15452949843632524,-0.001049828544024134,-0.2232160314290702
618,0.5942,843.077,77.2525,0.069716,256.652,0.714065,0.267645,0.422838,-0.168087,-0.252931,0.332564,-0.00415181,-0.00104854,0.470123,0.5262870174406116,0.3945391468343613,-0.00414320315231409,-0.15471970789981004,-0.0010479904740176016,-0.22347854004399204
619,0.5952,843.372,77.691,-0.0725656,256.719,0.841323,0.189882,0.423401,-0.168308,-0.253272,0.333031,-0.00414661,-0.00104866,0.47076,0.5271465589696671,0.39519054870643133,-0.004138024683506436,-0.15490649420371738,-0.0010481103482515852,-0.22374328871962235
620,0.5962,843.48,77.2469,0.0906424,256.805,0.71675,0.284657,0.423964,-0.168533,-0.25361,0.333497,-0.00414532,-0.00104651,0.471397,0.5280065845568529,0.39584085901266164,-0.004136740020729612,-0.15509661885269643,-0.001045962599380057,-0.2240056191516947
621,0.5972,843.799,77.8096,-0.0963165,256.869,0.879542,0.181975,0.424526,-0.168753,-0.253951,0.333963,-0.00413951,-0.00104694,0.472034,0.5288655656084407,0.3964914724341151,-0.0041309540383809296,-0.15528247715138632,-0.0010463921495237338,-0.22427018812399047
622,0.5982,843.877,77.2236,0.117384,256.958,0.714359,0.304986,0.425088,-0.168979,-0.254288,0.334429,-0.0041388,-0.00104441,0.47267,0.5297250295430569,0.397142389112076,-0.00413024697110731,-0.15547336174077908,-0.0010438647936987788,-0.22453156502611105
623,0.5992,844.23,77.9475,-0.126773,257.018,0.923224,0.170272,0.42565,-0.169198,-0.254629,0.334895,-0.00413222,-0.00104524,0.473305,0.530584976632158,0.3977936091878953,-0.0041236941265735405,-0.15565829282386512,-0.001044693926946949,-0.22479595468143887
624,0.6002,844.269,77.178,0.151675,257.111,0.7056,0.329589,0.426211,-0.169425,-0.254964,0.33536,-0.00413227,-0.00104222,0.473941,0.5314438757027118,0.3984437343585554,-0.0041237439203876125,-0.15584993663899815,-0.0010416770773671313,-0.22505560454284057
625,0.6012,844.664,78.1099,-0.166003,257.166,0.973932,0.153654,0.426772,-0.169642,-0.255306,0.335825,-0.00412471,-0.00104358,0.474576,0.5323032567508263,0.3990941619077175,-0.004116215067432538,-0.15603309732909387,-0.0010430356597624924,-0.22532059021095485
626,0.6022,844.653,77.1041,0.195676,257.264,0.68875,0.359683,0.427333,-0.16987,-0.25564,0.33629,-0.00412577,-0.00103994,0.475211,0.5331631200469666,0.39974489197602003,-0.004117270703685061,-0.15622549984818213,-0.0010393994497943648,-0.22557928992856657
627,0.6032,844.906,77.392,0.0894348,257.332,0.774828,0.302675,0.427893,-0.17009,-0.255979,0.336754,-0.00412134,-0.00103955,0.475845,0.5340219318390511,0.40039452430894285,-0.004112858933422281,-0.15641110982037,-0.0010390098550842053,-0.2258417740557075
628,0.6042,845.186,77.726,0.00138542,257.4,0.871003,0.253828,0.428453,-0.170311,-0.256317,0.337218,-0.0041165,-0.00103916,0.476478,0.534881224700426,0.4010444581412107,-0.00410803882799482,-0.15659752236575475,-0.0010386202602220562,-0.22610339531959234
629,0.6052,845.354,77.6085,0.0408783,257.478,0.840514,0.281483,0.429012,-0.170533,-0.256654,0.337683,-0.00411353,-0.00103781,0.477112,0.5357394631603345,0.4016960953081459,-0.004105081024477819,-0.15678473693420347,-0.0010372716614490685,-0.22636415453497405
630,0.6062,845.61,77.8605,-0.0299037,257.548,0.914173,0.242679,0.429571,-0.170753,-0.256992,0.338146,-0.00410889,-0.00103733,0.477745,0.5365981815096585,0.40234523086355845,-0.004100460061333133,-0.15697022388776494,-0.0010367921592243645,-0.22662559926409298
631,0.6072,845.761,77.6532,0.0467255,257.627,0.857395,0.289219,0.43013,-0.170976,-0.257328,0.33861,-0.00410625,-0.00103574,0.478377,0.5374573800167317,0.40299607003368987,-0.004097830883077247,-0.15715819856788216,-0.0010352038064611602,-0.22688540941219104
632,0.6082,846.023,77.9488,-0.0443778,257.695,0.94369,0.23991,0.430688,-0.171196,-0.257666,0.339073,-0.00410134,-0.00103539,0.47901,0.5383155206337471,0.40364580761675883,-0.0040929409914222115,-0.15734360336892128,-0.0010348541687213997,-0.22714667798693322
633,0.6092,846.161,77.6712,0.0597111,257.776,0.866577,0.301422,0.431247,-0.171418,-0.258001,0.339536,-0.00409897,-0.00103359,0.479641,0.5391756794017584,0.4042958460979815,-0.00409058068889534,-0.15753065232577101,-0.0010330560298404956,-0.22740554048791772
634,0.6102,846.437,78.0403,-0.0595022,257.842,0.973979,0.236768,0.431804,-0.171637,-0.258339,0.339999,-0.00409368,-0.00103343,0.480273,0.5400332390633795,0.4049461856167058,-0.004085312314132339,-0.15771513291155026,-0.001032896195116706,-0.2276666332880639
635,0.6112,846.557,77.6769,0.0762227,257.924,0.872237,0.31574,0.432362,-0.17186,-0.258673,0.340461,-0.00409164,-0.00103139,0.480904,0.5408928174108323,0.4055954207162207,-0.004083280646097198,-0.15790294149547557,-0.0010308583001462646,-0.2279245495581309
636,0.6122,846.851,78.1421,-0.0780136,257.988,1.0072,0.231632,0.432918,-0.172079,-0.259011,0.340923,-0.00408586,-0.00103147,0.481534,0.5417497920341812,0.4062449558316499,-0.004077524230823304,-0.15808734055885354,-0.0010309382176744153,-0.2281854669628549
637,0.6132,846.949,77.6696,0.0969262,258.072,0.87418,0.332445,0.433475,-0.172302,-0.259345,0.341385,-0.00408426,-0.00102913,0.482165,0.5426087858759205,0.40689479110163296,-0.0040759307535872535,-0.15827506614972764,-0.0010286006273348969,-0.22844320997141077
638,0.6142,847.267,78.2577,-0.101311,258.133,1.0443,0.223774,0.434031,-0.172519,-0.259682,0.341847,-0.00407789,-0.00102952,0.482795,0.543466714843019,0.40754492666487296,-0.004069586697060368,-0.15845770064381381,-0.001028990226104698,-0.22870318080210505
639,0.6152,847.335,77.6464,0.123015,258.22,0.871559,0.352185,0.434588,-0.172743,-0.260015,0.342308,-0.00407686,-0.0010268,0.483424,0.5443266652771492,0.4081939544654791,-0.004068560888206396,-0.15864618500783279,-0.0010262730212626803,-0.22895997988347794
640,0.6162,847.685,78.3905,-0.130797,258.277,1.08634,0.212441,0.435143,-0.172959,-0.260353,0.342769,-0.00406974,-0.00102758,0.484053,0.5451840044659961,0.4088432815368781,-0.0040614698311157715,-0.15882789780618234,-0.0010270522204658405,-0.22922054737189101
641,0.6172,847.717,77.6033,0.155937,258.368,0.863252,0.375765,0.435698,-0.173183,-0.260685,0.343231,-0.00406945,-0.0010244,0.484682,0.5460418196101582,0.4094943175106782,-0.004061181008900183,-0.15901629925532368,-0.0010238754814408946,-0.22947640367566702
642,0.6182,848.107,78.5451,-0.168136,258.42,1.13457,0.196728,0.436253,-0.173398,-0.261023,0.343691,-0.00406139,-0.00102568,0.48531,0.546900110973864,0.41014283404410024,-0.004053153709669077,-0.15919709131514093,-0.0010251541700618816,-0.22973679664233426
643,0.6192,848.092,77.5355,0.197447,258.516,0.847851,0.404176,0.436808,-0.173623,-0.261353,0.344152,-0.00406205,-0.00102191,0.485938,0.5477588788214889,0.4107930597561056,-0.004053811034370747,-0.15938625068836754,-0.0010213880277939458,-0.22999094156322397
644,0.6202,848.34,77.8286,0.0889302,258.581,0.935313,0.345875,0.437362,-0.173842,-0.261688,0.344612,-0.00405716,-0.00102143,0.486566,0.5486165748002052,0.41144217384838866,-0.004048940845599147,-0.15957032494260026,-0.0010209085179451183,-0.23024885139549134
645,0.6212,848.611,78.1492,0.00354626,258.648,1.02771,0.298774,0.437916,-0.174059,-0.262023,0.345071,-0.00405194,-0.0010209,0.487193,0.5494747460741387,0.4120901745109604,-0.004043741967501235,-0.15975267839602236,-0.0010203790588863004,-0.23050667484243537
646,0.6222,848.776,78.0445,0.0391997,258.723,1.00067,0.323928,0.438469,-0.174279,-0.262356,0.345531,-0.00404849,-0.00101947,0.48782,0.5503318425740575,0.4127398854132862,-0.0040403059124838325,-0.15993751247428123,-0.0010189505170069557,-0.23076287346027546
647,0.6232,849.023,78.2777,-0.0264186,258.79,1.06889,0.288169,0.439022,-0.174497,-0.262691,0.345991,-0.0040435,-0.00101884,0.488446,0.551189413179419,0.41338989525137726,-0.004035336061210648,-0.1601206261364474,-0.0010183211587475594,-0.23102052473866763
648,0.6242,849.174,78.0914,0.0435012,258.867,1.0179,0.330616,0.439575,-0.174717,-0.263023,0.34645,-0.00404034,-0.00101719,0.489072,0.5520474581524757,0.41403879012327827,-0.004032188807899906,-0.16030537927510702,-0.0010166728376176382,-0.23127578354914724
649,0.6252,849.424,78.359,-0.0390683,258.933,1.09613,0.286216,0.440127,-0.174935,-0.263357,0.346909,-0.00403513,-0.00101667,0.489698,0.5529044248504245,0.41468798290629105,-0.004026999802086206,-0.1604884127510513,-0.0010161533661524613,-0.2315324945643158
650,0.6262,849.565,78.1136,0.0543664,259.011,1.02799,0.341417,0.440679,-0.175155,-0.263689,0.347367,-0.0040322,-0.00101484,0.490323,0.553761864724575,0.41533605840042154,-0.00402408159692047,-0.16067308498555544,-0.0010143252240403244,-0.23178758342902583
651,0.6272,849.825,78.4415,-0.0516885,259.075,1.12359,0.284268,0.441231,-0.175372,-0.264023,0.347826,-0.00402667,-0.00101447,0.490948,0.5546197780361928,0.41598584676624917,-0.004018573834862815,-0.16085519916601032,-0.0010139555992723093,-0.23204412353157844
652,0.6282,849.951,78.1258,0.0679712,259.154,1.03524,0.353874,0.441783,-0.175592,-0.264354,0.348284,-0.004024,-0.00101244,0.491572,0.5554781650466876,0.4166345168181711,-0.004015914560904776,-0.16103979071637875,-0.0010119276555438095,-0.2322982748623239
653,0.6292,850.227,78.5316,-0.0667641,259.217,1.15318,0.280855,0.442333,-0.175808,-0.264688,0.348742,-0.00401807,-0.00101226,0.492196,0.5563339133466738,0.41728348402902093,-0.004010008357766215,-0.16122098655172923,-0.0010117478376745481,-0.23255464442242002
654,0.6302,850.334,78.1283,0.0846991,259.297,1.03968,0.368106,0.442884,-0.176029,-0.265019,0.349199,-0.00401576,-0.00100999,0.49282,0.5571916896285916,0.4179313306028891,-0.004007707618228218,-0.16140633623180733,-0.001009480131768381,-0.23280862679871406
655,0.6312,850.629,78.6318,-0.0853608,259.357,1.18563,0.27543,0.443434,-0.176244,-0.265352,0.349657,-0.00400934,-0.00101006,0.493443,0.5580483806263159,0.4185808918904854,-0.004001313327185452,-0.16158661448891043,-0.00100955006110226,-0.23306405899416915
656,0.6322,850.714,78.119,0.10538,259.44,1.04074,0.384553,0.443985,-0.176465,-0.265682,0.350114,-0.00400747,-0.00100749,0.494067,0.5589071018400098,0.4192293315152482,-0.003999450807899874,-0.1617718833741425,-0.0010069826523467773,-0.2333171060996323
657,0.6332,851.033,78.7445,-0.108451,259.497,1.22161,0.267477,0.444534,-0.176679,-0.266016,0.35057,-0.00400046,-0.00100786,0.494689,0.5597631768099973,0.41987664766728505,-0.003992468819578265,-0.16195124499872204,-0.0010073522796948398,-0.23357313542691716
658,0.6342,851.089,78.0955,0.130996,259.583,1.0377,0.403755,0.445084,-0.1769,-0.266345,0.351027,-0.00399915,-0.00100493,0.495311,0.5606212825146801,0.420525679587767,-0.003991164048857798,-0.16213643330951533,-0.0010044252269488796,-0.2338252483905051
659,0.6352,851.439,78.8726,-0.137142,259.636,1.26196,0.256397,0.445632,-0.177114,-0.266679,0.351483,-0.00399141,-0.00100568,0.495933,0.5614767373507152,0.4211735870093243,-0.003983454910633233,-0.16231571692875557,-0.0010051744733490242,-0.23408110802660498
660,0.6362,851.46,78.0545,0.162705,259.725,1.02964,0.42636,0.446181,-0.177336,-0.267006,0.35194,-0.00399083,-0.0010023,0.496555,0.5623342234379145,0.42182321176653836,-0.003982877220869541,-0.16250166219890871,-0.0010017978651323256,-0.2343315225592728
661,0.6372,851.847,79.0195,-0.172757,259.774,1.3077,0.241472,0.446729,-0.177547,-0.26734,0.352395,-0.00398219,-0.00100353,0.497175,0.563190617222824,0.4224702885266918,-0.003974271595752477,-0.16267835570636413,-0.001003026632165227,-0.234587213128036
662,0.6382,851.824,77.9922,0.201889,259.868,1.01545,0.45315,0.447277,-0.17777,-0.267667,0.352851,-0.0039825,-0.000999596,0.497797,0.5640474804401403,0.42311908289213296,-0.003974580363680369,-0.16286505761500514,-0.0009990965703415844,-0.23483746219139134
663,0.6392,852.069,78.2947,0.089605,259.93,1.10546,0.392711,0.447825,-0.177986,-0.267998,0.353306,-0.00397712,-0.00099902,0.498417,0.564904813347183,0.4237667494078077,-0.0039692217325080215,-0.16304585923528236,-0.0009985211456554621,-0.23509068908004394
664,0.6402,852.331,78.6044,0.00582944,259.994,1.19474,0.346773,0.448372,-0.178201,-0.268329,0.353762,-0.00397149,-0.00099836,0.499037,0.5657610504395794,0.4244161350942215,-0.003963614063440812,-0.16322578503283047,-0.0009978618044618193,-0.23534383216446675
665,0.6412,852.494,78.5118,0.0379228,260.066,1.17092,0.369557,0.448919,-0.178418,-0.268659,0.354216,-0.00396754,-0.000996846,0.499656,0.5666177560217853,0.42506296683925027,-0.003959679711945996,-0.1634073453374728,-0.0009963493140796587,-0.23559612706890365
666,0.6422,852.73,78.7276,-0.0231244,260.131,1.23411,0.336498,0.449466,-0.178634,-0.268989,0.354671,-0.00396218,-0.00099606,0.500275,0.5674749303501352,0.4257115180233677,-0.00395434092152136,-0.16358802983625154,-0.0009955640969016022,-0.23584833872975808
667,0.6432,852.881,78.5605,0.0406917,260.205,1.18834,0.375184,0.450012,-0.178851,-0.269318,0.355125,-0.00395851,-0.000994344,0.500894,0.5683310053493136,0.42635893800576596,-0.003950685427244749,-0.1637695115422998,-0.0009938498038187804,-0.23609970327458107
668,0.6442,853.119,78.8023,-0.034116,260.269,1.25912,0.335229,0.450558,-0.179066,-0.269648,0.355579,-0.00395297,-0.000993641,0.501512,0.5691875478930697,0.427006651983568,-0.003945167298756713,-0.16394928177132606,-0.000993147502248326,-0.23635174878270426
669,0.6452,853.261,78.5861,0.0496141,260.344,1.19906,0.384659,0.451103,-0.179283,-0.269976,0.356033,-0.00394947,-0.000991776,0.502131,0.5700429881929792,0.4276546600902784,-0.003941681100741445,-0.16413068509420936,-0.0009912843527309922,-0.23660218433542768
670,0.6462,853.508,78.8765,-0.0444845,260.406,1.28385,0.334298,0.451648,-0.179498,-0.270306,0.356487,-0.00394367,-0.000991197,0.502748,0.5708988948349187,0.42830296245946187,-0.003935903945738173,-0.16431037767926904,-0.000990705926517177,-0.23685406405215792
671,0.6472,853.637,78.6038,0.0606251,260.482,1.20751,0.395411,0.452193,-0.179715,-0.270633,0.35694,-0.00394039,-0.000989169,0.503366,0.5717552680731144,0.4289501302738987,-0.003932636850144999,-0.1644917026528414,-0.0009886799336144003,-0.23710357197644394
672,0.6482,853.896,78.9561,-0.0565325,260.543,1.31007,0.33234,0.452738,-0.179929,-0.270963,0.357393,-0.00393426,-0.000988744,0.503982,0.5726121081619298,0.4295975913217682,-0.003926530938494377,-0.16467048229836934,-0.0009882553537131633,-0.2373552862625502
673,0.6492,854.011,78.6143,0.0738766,260.62,1.21388,0.407431,0.453282,-0.180147,-0.27129,0.357846,-0.00393124,-0.000986524,0.504599,0.5734678418872396,0.43024534573593476,-0.003923522792075418,-0.1648525642855706,-0.000986037545178342,-0.23760463031396806
674,0.6502,854.285,79.0428,-0.0710681,260.679,1.33828,0.328952,0.453826,-0.18036,-0.271619,0.358299,-0.00392473,-0.000986286,0.505215,0.5743240412583401,0.43089339364932333,-0.003917038313101862,-0.16503043174582077,-0.0009857997798269347,-0.2378554171339008
675,0.6512,854.382,78.6166,0.0899164,260.757,1.21786,0.421003,0.454369,-0.180577,-0.271946,0.358751,-0.00392206,-0.000983835,0.505831,0.5751791313486927,0.43154030365390006,-0.00391437876804368,-0.16521160048461292,-0.0009833511930215089,-0.23810459766926007
676,0.6522,854.674,79.1381,-0.0887382,260.814,1.36892,0.323794,0.454912,-0.18079,-0.272275,0.359203,-0.00391508,-0.000983828,0.506446,0.5760346858790484,0.4321875061278919,-0.003907426066142583,-0.16538939147829668,-0.0009833441999048675,-0.2383552200269884
677,0.6532,854.75,78.6089,0.109378,260.894,1.21897,0.43647,0.455455,-0.181008,-0.272601,0.359655,-0.00391283,-0.000981099,0.507062,0.5768907051016667,0.4328350012035249,-0.0039051848553298685,-0.16557131676037817,-0.0009806178797311382,-0.23860347575737695
678,0.6542,855.064,79.2437,-0.11024,260.948,1.40251,0.316492,0.455998,-0.181219,-0.27293,0.360107,-0.00390529,-0.000981375,0.507676,0.5777471892689439,0.433482789013085,-0.003897674272108853,-0.16574736263904832,-0.0009808936090426323,-0.2388539340112109
679,0.6552,855.115,78.5894,0.13298,261.031,1.21667,0.45423,0.45654,-0.181438,-0.273255,0.360558,-0.00390357,-0.000978312,0.508291,0.5786025600300642,0.43412943555876526,-0.003895960974635182,-0.16593004396229538,-0.0009778336088333006,-0.2391012662889851
680,0.6562,855.456,79.3619,-0.136379,261.082,1.43966,0.306611,0.457082,-0.181648,-0.273584,0.361009,-0.00389537,-0.000978933,0.508905,0.5794583945277982,0.43477637380781187,-0.003887792888025987,-0.16610518026310805,-0.0009784540014060594,-0.23935156079667175
681,0.6572,855.475,78.5558,0.161561,261.168,1.2103,0.474753,0.457624,-0.181867,-0.273908,0.36146,-0.00389429,-0.000975466,0.509518,0.5803146930135594,0.43542360389181245,-0.0038867170862614264,-0.16628778323287552,-0.0009749903877018795,-0.23959797097036994
682,0.6582,855.849,79.4951,-0.168103,261.214,1.48109,0.293635,0.458164,-0.182076,-0.274238,0.361911,-0.00388529,-0.000976508,0.510131,0.5811682933991484,0.4360711259424146,-0.0038777520263724163,-0.16646201087875656,-0.0009760313712194879,-0.2398488622406132
683,0.6592,855.831,78.5054,0.196098,261.305,1.19906,0.49859,0.458706,-0.182296,-0.27456,0.362361,-0.003885,-0.000972556,0.510745,0.5820255189012966,0.436717503373103,-0.0038774631508786683,-0.16664536906622307,-0.0009720832206939756,-0.2400935915034459
684,0.6602,856.245,79.6463,-0.206538,261.346,1.52767,0.276957,0.459246,-0.182504,-0.27489,0.362811,-0.00387505,-0.00097411,0.511357,0.5828800433823482,0.4373641717390906,-0.0038675516823275524,-0.16681868880357975,-0.000973635708870324,-0.24034431924589694
685,0.6612,856.355,79.3325,-0.103907,261.419,1.43852,0.336875,0.459786,-0.182719,-0.275215,0.363261,-0.00387135,-0.000972226,0.511969,0.5837350294312318,0.43801113117132817,-0.0038638659854501878,-0.16699780352996396,-0.0009717535414270895,-0.24059116722717222
686,0.6622,856.51,79.1201,0.0110532,261.493,1.37799,0.399451,0.460326,-0.182934,-0.27554,0.363711,-0.00386739,-0.000970154,0.512581,0.5845904772972612,0.4386583818008245,-0.003859921278549061,-0.16717687975082152,-0.0009696835527558401,-0.240837934995889
687,0.6632,856.7,79.2109,-0.03157,261.558,1.4068,0.381974,0.460865,-0.183147,-0.275866,0.36416,-0.00386208,-0.000969078,0.513192,0.5854448017842904,0.43930448445344394,-0.0038546317606873437,-0.16735425218459976,-0.00096860859555703,-0.24108538149310976
688,0.6642,856.864,79.0884,0.0327675,261.628,1.37225,0.417793,0.461405,-0.183362,-0.27619,0.36461,-0.00385777,-0.000967288,0.513803,0.58630117317672,0.43995231722288897,-0.0038503383648980094,-0.16753325177723433,-0.0009668203277659604,-0.2413312299998972
689,0.6652,857.074,79.2526,-0.0260415,261.691,1.42129,0.388631,0.461943,-0.183574,-0.276516,0.365058,-0.00385213,-0.000966332,0.514414,0.5871548328217431,0.44059756038468123,-0.0038447200649627256,-0.1677097160219867,-0.0009658652515895927,-0.24157851570915656
690,0.6662,857.229,79.1101,0.0385999,261.761,1.38165,0.425861,0.462482,-0.183788,-0.27684,0.365507,-0.00384787,-0.00096451,0.515024,0.5880105398689663,0.44124453392398433,-0.003840476434431306,-0.16788780708633444,-0.0009640450097379016,-0.2418242044663389
691,0.6672,857.449,79.313,-0.0299003,261.823,1.44157,0.390627,0.46302,-0.184,-0.277166,0.365956,-0.00384203,-0.000963618,0.515634,0.5888651194006971,0.4418917980196315,-0.003834658845826344,-0.16806419617332824,-0.0009631538692685959,-0.24207132949211507
692,0.6682,857.595,79.1353,0.044591,261.893,1.39199,0.43384,0.463558,-0.184214,-0.277489,0.366404,-0.00383789,-0.000961708,0.516244,0.5897201588199148,0.44253791026348055,-0.003830534712777056,-0.16824221138703999,-0.0009612457070702352,-0.24231610091997546
693,0.6692,857.824,79.3779,-0.0364224,261.954,1.46316,0.391309,0.464095,-0.184426,-0.277814,0.366852,-0.00383182,-0.000960899,0.516853,0.5905740677992419,0.44318431203046305,-0.003824487945770838,-0.1684185253482856,-0.000960437484391008,-0.24256230817633018
694,0.6702,857.96,79.1577,0.0521933,262.025,1.40145,0.442558,0.464633,-0.18464,-0.278138,0.367299,-0.00382784,-0.000958876,0.517462,0.5914300268800645,0.443829559620033,-0.0038205231593428923,-0.16859646474366674,-0.0009584164253118033,-0.24280767823638483
695,0.6712,858.198,79.4465,-0.0447713,262.085,1.48577,0.391028,0.465169,-0.184851,-0.278462,0.367747,-0.00382153,-0.000958172,0.51807,0.5922832620210625,0.44447654017556637,-0.00381423724701202,-0.16877187238344904,-0.0009577130997893146,-0.2430529688094175
696,0.6722,858.323,79.176,0.0615268,262.157,1.40967,0.45216,0.465706,-0.185065,-0.278785,0.368194,-0.00381773,-0.000956011,0.518678,0.5931385477564346,0.4451223655202359,-0.0038104517339211386,-0.168949736170655,-0.0009555541670746015,-0.24329742321897974
697,0.6732,858.571,79.5193,-0.0549489,262.215,1.50959,0.389746,0.466242,-0.185276,-0.27911,0.368641,-0.00381113,-0.000955437,0.519286,0.5939926989100917,0.44576847961336497,-0.003803876861205424,-0.16912506927802962,-0.0009549807153981238,-0.24354331159740772
698,0.6742,858.684,79.1892,0.0727538,262.289,1.41638,0.462767,0.466778,-0.18549,-0.279432,0.369088,-0.00380757,-0.000953113,0.519893,0.5948473080114862,0.44641488258405304,-0.0038003303966943625,-0.16930285748918705,-0.000952658932075412,-0.24378685143905454
699,0.6752,858.945,79.5972,-0.0671624,262.345,1.53485,0.387331,0.467314,-0.1857,-0.279756,0.369534,-0.00380064,-0.000952695,0.5205,0.5957023753061439,0.44706012750060586,-0.003793426709062797,-0.16947728557352448,-0.0009522413301995547,-0.244031824811359
700,0.6762,859.042,79.1965,0.086135,262.42,1.42133,0.474534,0.467849,-0.185914,-0.280078,0.369981,-0.00379736,-0.000950179,0.521107,0.5965563044826194,0.44770710796696034,-0.003790159146143557,-0.1696549984184591,-0.0009497277228766032,-0.24427520737707376
701,0.6772,859.319,79.6813,-0.0817206,262.474,1.56182,0.383606,0.468384,-0.186123,-0.280402,0.370426,-0.00379004,-0.00094995,0.521713,0.597410690633434,0.4483514809923703,-0.0037828668634187768,-0.16982852238990298,-0.0009494989403381338,-0.24452002254768423
702,0.6782,859.399,79.1967,0.102009,262.55,1.42424,0.487657,0.468918,-0.186338,-0.280723,0.370872,-0.0037871,-0.000947207,0.522319,0.5982639357383996,0.44899758982445226,-0.003779937980741943,-0.1700069900716259,-0.0009467585410551926,-0.24476249270190464
703,0.6792,859.693,79.7724,-0.0990088,262.602,1.59081,0.37836,0.469452,-0.186546,-0.281047,0.371318,-0.00377933,-0.000947205,0.522925,0.5991176365979269,0.4496439868853437,-0.003772197320787596,-0.17017961066452691,-0.0009467565429487346,-0.24500715001764384
704,0.6802,859.752,79.1888,0.120783,262.681,1.42477,0.502365,0.469987,-0.186761,-0.281367,0.371763,-0.00377681,-0.000944195,0.52353,0.5999733934280473,0.45028922201367605,-0.003769686823561713,-0.17035800287038483,-0.0009437493881602199,-0.24524870907812724
705,0.6812,860.067,79.872,-0.119484,262.73,1.62218,0.371341,0.47052,-0.186968,-0.281691,0.372208,-0.00376851,-0.000944461,0.524135,0.6008264065545483,0.45093474433553626,-0.003761418077647072,-0.17052972099035202,-0.0009440151370875283,-0.24549320888527826
706,0.6822,860.103,79.1714,0.142931,262.811,1.42254,0.518925,0.471054,-0.187183,-0.28201,0.372653,-0.00376649,-0.00094114,0.52474,0.6016814761389084,0.4515805539787541,-0.0037594056736790504,-0.1707080379305811,-0.0009406972666524682,-0.24573385816604287
707,0.6832,860.443,79.9814,-0.143678,262.856,1.65633,0.362261,0.471586,-0.18739,-0.282335,0.373097,-0.00375757,-0.000941725,0.525344,0.6025337973815628,0.4522251988452908,-0.0037505191679438887,-0.17087968360078976,-0.0009412817161735809,-0.24597895483177334
708,0.6842,860.45,79.143,0.169,262.941,1.41712,0.537642,0.472119,-0.187606,-0.282653,0.373542,-0.00375614,-0.000938037,0.525948,0.6033881755671269,0.4528715828685552,-0.003749094530167696,-0.1710587542488058,-0.0009375971808263106,-0.2462186954033656
709,0.6852,860.82,80.1023,-0.172208,262.983,1.69375,0.350787,0.472651,-0.187811,-0.282977,0.373986,-0.00374651,-0.000938999,0.526551,0.6042414050154381,0.4535168010791921,-0.003739500587753297,-0.17122866978724705,-0.0009385582783955071,-0.24646288098585445
710,0.6862,860.794,79.1019,0.199613,263.071,1.40801,0.55887,0.473183,-0.188027,-0.283295,0.37443,-0.00374578,-0.000934882,0.527154,0.6050950885025796,0.4541623058303217,-0.0037387733173231963,-0.17140766506238736,-0.0009344451339730053,-0.24670246769339543
711,0.6872,861.198,80.2365,-0.205782,263.108,1.73496,0.336539,0.473715,-0.188232,-0.28362,0.374873,-0.00373531,-0.00093629,0.527757,0.605949226270164,0.45480664244182645,-0.003728342407674168,-0.17157750908144276,-0.0009358518172839503,-0.24694724961217873
712,0.6882,861.301,79.9174,-0.0990066,263.177,1.64384,0.398085,0.474246,-0.188444,-0.283939,0.375316,-0.00373114,-0.000934243,0.528359,0.6068022117569178,0.4554512645576845,-0.003724187946199886,-0.1717531160345227,-0.000933806730879505,-0.24718743512792585
713,0.6892,861.452,79.72,0.00875565,263.248,1.58741,0.456691,0.474777,-0.188655,-0.284259,0.37576,-0.00372661,-0.000932086,0.528961,0.6076556502992407,0.45609762840130297,-0.0037196748065491114,-0.17192785769114638,-0.0009316517427764293,-0.24742829660879262
714,0.6902,861.632,79.7938,-0.0267688,263.31,1.61097,0.442681,0.475308,-0.188865,-0.284579,0.376202,-0.00372087,-0.000930826,0.529563,0.6085095421377691,0.4567413658085431,-0.0037139561410699518,-0.17210173458331857,-0.0009303929158646085,-0.24766908102631635
715,0.6912,861.792,79.6909,0.029279,263.376,1.58182,0.47386,0.475838,-0.189075,-0.284899,0.376645,-0.00371597,-0.000928962,0.530164,0.6093622781501842,0.45738684519672446,-0.003709074327494566,-0.1722755749651771,-0.0009285306483813871,-0.24790978840515332
716,0.6922,861.991,79.8294,-0.020247,263.436,1.62322,0.449609,0.476368,-0.189285,-0.285219,0.377087,-0.00370995,-0.000927805,0.530765,0.6102154662324739,0.45803115256374016,-0.003703076638069014,-0.17244937884438838,-0.0009273747220226447,-0.24815041876995192
717,0.6932,862.145,79.7148,0.0337213,263.503,1.5913,0.480753,0.476898,-0.189495,-0.285538,0.37753,-0.00370507,-0.000925928,0.531366,0.6110691066242986,0.4586772034540325,-0.0036982146972198704,-0.17262314622861707,-0.0009254994609450007,-0.24839022053594906
718,0.6942,862.351,79.8823,-0.0225169,263.562,1.64082,0.452192,0.477427,-0.189704,-0.285858,0.377972,-0.00369888,-0.000924814,0.531966,0.6119215876430524,0.45932208128546104,-0.003692047570081569,-0.17279604992199005,-0.0009243864913315303,-0.24863069718706132
719,0.6952,862.498,79.7432,0.0378329,263.628,1.60201,0.487305,0.477957,-0.189914,-0.286177,0.378413,-0.00369407,-0.000922877,0.532566,0.6127761325188918,0.4599657842493792,-0.0036872553173050715,-0.172969744512936,-0.0009224512799939077,-0.24887034576867761
720,0.6962,862.71,79.9382,-0.0268697,263.687,1.65931,0.453768,0.478485,-0.190123,-0.286496,0.378855,-0.00368773,-0.000921816,0.533165,0.613627903164524,0.4606112317594089,-0.00368093867448005,-0.17314257577483683,-0.000921391258152382,-0.24910991791458847
721,0.6972,862.85,79.7703,0.0429566,263.754,1.61228,0.494277,0.479014,-0.190333,-0.286815,0.379296,-0.00368302,-0.000919801,0.533765,0.6144817381447387,0.4612555033640622,-0.003676246000649974,-0.1733161976029941,-0.0009193781127274647,-0.24934941364917318
722,0.6982,863.068,79.9961,-0.0323923,263.811,1.67834,0.454735,0.479542,-0.190541,-0.287134,0.379737,-0.0036765,-0.000918808,0.534363,0.615334409587931,0.4619000591551514,-0.003669749948596812,-0.17348812995230845,-0.0009183860251774645,-0.2495888329968029
723,0.6992,863.2,79.7952,0.0491073,263.879,1.62184,0.501747,0.48007,-0.190751,-0.287452,0.380178,-0.00367191,-0.000916701,0.534962,0.6161875313605216,0.4625448992580308,-0.003665176782253643,-0.1736616792217074,-0.000916280957999116,-0.249827425809642
724,0.7002,863.425,80.0562,-0.0389676,263.935,1.69799,0.455126,0.480597,-0.190958,-0.287771,0.380618,-0.00366519,-0.000915789,0.53556,0.6170394866600521,0.4631885606088171,-0.0036584813897451163,-0.1738327135514447,-0.0009153697932318128,-0.25006669269571136
725,0.7012,863.55,79.8173,0.0563122,264.004,1.63054,0.509755,0.481125,-0.191168,-0.288088,0.381058,-0.00366074,-0.000913576,0.536158,0.6178935089510529,0.4638325052329133,-0.0036540476601222283,-0.17400619046588528,-0.0009131588164987825,-0.25030438387808396
726,0.7022,863.782,80.1189,-0.0466461,264.059,1.71834,0.454896,0.481651,-0.191375,-0.288407,0.381498,-0.0036538,-0.00091276,0.536755,0.618744744792161,0.46447673325498706,-0.0036471329952191267,-0.1741771534891755,-0.0009123435613036524,-0.2505434986387949
727,0.7032,863.898,79.8362,0.0646617,264.128,1.63829,0.518363,0.482178,-0.191586,-0.288723,0.381938,-0.00364952,-0.000910425,0.537352,0.6195980480983387,0.465121244799761,-0.0036428685958225238,-0.17435138372785264,-0.0009100106889022852,-0.2507802894783019
728,0.7042,864.139,80.1847,-0.055543,264.182,1.73953,0.453978,0.482704,-0.191792,-0.289042,0.382378,-0.00364234,-0.000909721,0.537949,0.6204501807628822,0.4657660399920125,-0.0036357147259367117,-0.1745214498253953,-0.000909307329302278,-0.2510192524493381
729,0.7052,864.244,79.8515,0.0742877,264.252,1.64496,0.527646,0.48323,-0.192002,-0.289358,0.382817,-0.00363825,-0.000907247,0.538546,0.6213027617671101,0.46640965254618827,-0.0036316395876763163,-0.174694782120404,-0.0009068355758710123,-0.251255892974392
730,0.7062,864.495,80.2539,-0.0658088,264.304,1.76166,0.452286,0.483756,-0.192208,-0.289677,0.383256,-0.00363079,-0.000906675,0.539141,0.6221557913469116,0.4670535477083031,-0.0036242066519828198,-0.1748647774851635,-0.0009062640944175193,-0.2514947042521092
731,0.7072,864.588,79.8628,0.0853502,264.375,1.65042,0.537696,0.484281,-0.192418,-0.289992,0.383695,-0.00362694,-0.000904042,0.539737,0.6230076467298407,0.46769772560244927,-0.003620370597793965,-0.17503803768893345,-0.000903633477147614,-0.2517304462889497
732,0.7082,864.851,80.3271,-0.0776199,264.426,1.78489,0.449725,0.484806,-0.192624,-0.290311,0.384133,-0.00361916,-0.000903622,0.540332,0.6238599494542625,0.46834071801132104,-0.0036126187341225524,-0.17520796235032843,-0.0009032138565856496,-0.2519691062083025
733,0.7092,864.93,79.8695,0.0980321,264.499,1.65453,0.548614,0.485331,-0.192834,-0.290626,0.384572,-0.00361558,-0.000900808,0.540928,0.6247126997550934,0.4689854610972808,-0.003609051660912521,-0.17538115049284353,-0.0009004023942736916,-0.25220469883206054
734,0.7102,865.207,80.4047,-0.0911762,264.547,1.80936,0.446184,0.485855,-0.193039,-0.290944,0.38501,-0.00360744,-0.000900564,0.541522,0.6255642723022872,0.4696290176578397,-0.003600941005582725,-0.17555018003087286,-0.0009001586139421036,-0.25244245993181347
735,0.7112,865.271,79.8711,0.112538,264.622,1.65713,0.560514,0.486379,-0.193249,-0.291258,0.385448,-0.00360418,-0.000897544,0.542117,0.6264162911904272,0.47027285615791237,-0.003597692739355729,-0.17572329631522032,-0.0008971413278650031,-0.2526771561501603
736,0.7122,865.563,80.4874,-0.106701,264.668,1.83525,0.441545,0.486903,-0.193453,-0.291576,0.385885,-0.00359563,-0.000897502,0.54271,0.6272687566534565,0.4709155058047738,-0.003589173463208861,-0.17589143161238863,-0.0008970993655440518,-0.2529147670323719
737,0.7132,865.609,79.8669,0.129093,264.744,1.65803,0.573521,0.487426,-0.193664,-0.29189,0.386323,-0.00359274,-0.00089425,0.543304,0.6281200408045877,0.4715599079100754,-0.003586293831759124,-0.17606530017653976,-0.0008938502776282276,-0.2531493149695705
738,0.7142,865.92,80.5758,-0.124442,264.788,1.86274,0.435673,0.487949,-0.193867,-0.292208,0.38676,-0.00358374,-0.000894439,0.543897,0.6289717702937756,0.47220312012146426,-0.003577326068048725,-0.17623254194499016,-0.0008940391086726951,-0.25338677572914836
739,0.7152,865.946,79.8563,0.147948,264.866,1.65705,0.587776,0.488472,-0.194078,-0.292521,0.387197,-0.00358127,-0.000890922,0.54449,0.6298239453539929,0.47284661347801515,-0.0035748649010045597,-0.1764063385424539,-0.0008905252468290881,-0.2536204290996851
740,0.7162,866.276,80.6706,-0.144672,264.908,1.89204,0.428422,0.488995,-0.194281,-0.292839,0.387633,-0.00357175,-0.000891377,0.545083,0.6306765662183342,0.47348891461296394,-0.0035653788885650073,-0.17657351108714248,-0.0008909798415366321,-0.2538577400687875
741,0.7172,866.279,79.8386,0.169374,264.988,1.65397,0.603429,0.489517,-0.194492,-0.293151,0.38807,-0.00356977,-0.00088756,0.545675,0.631528001591199,0.47413296998449894,-0.0035634059460620815,-0.1767472357477068,-0.0008871662351284115,-0.25409050014142653
742,0.7182,866.633,80.7727,-0.167693,265.027,1.92337,0.41963,0.490039,-0.194694,-0.293469,0.388506,-0.00355967,-0.000888318,0.546267,0.6323798815293498,0.4747758320931681,-0.0035533418856387167,-0.17691351601121375,-0.0008879235623694415,-0.25432766165170284
743,0.7192,866.611,79.8129,0.193669,265.11,1.64857,0.620648,0.490561,-0.194905,-0.29378,0.388942,-0.00355824,-0.000884161,0.546859,0.6332322062649105,0.4754189745508284,-0.003551916965898738,-0.17708716893830734,-0.0008837702448349916,-0.25455952969158
744,0.7202,866.991,80.8827,-0.193837,265.145,1.95699,0.409121,0.491082,-0.195106,-0.294099,0.389378,-0.00354749,-0.000885263,0.54745,0.6340833419459666,0.4760623974797382,-0.0035412050914298554,-0.17725255779521376,-0.0008848712703135586,-0.25479728727725737
745,0.7212,866.939,79.7784,0.221157,265.232,1.64057,0.639614,0.491603,-0.195318,-0.294409,0.389814,-0.0035467,-0.000880724,0.548041,0.6349349211842492,0.4767061010022102,-0.003540417888670988,-0.1774269617654871,-0.0008803362764521205,-0.25502826431491077
746,0.7222,867.17,80.1206,0.0921053,265.283,1.74127,0.569839,0.492123,-0.195523,-0.294724,0.390249,-0.00353955,-0.000879845,0.548631,0.6357853084247855,0.477348607891263,-0.0035332931771880904,-0.17759557195519027,-0.000879458049881654,-0.2552628934556218
747,0.7232,867.398,80.3871,0.0152434,265.337,1.81805,0.528591,0.492644,-0.195728,-0.295039,0.390684,-0.00353255,-0.000878704,0.549221,0.6366377746186356,0.47799139433161053,-0.003526317885826802,-0.17776414758334724,-0.0008783180526928946,-0.25549744869979285
748,0.7242,867.552,80.3406,0.0329905,265.398,1.8063,0.542044,0.493164,-0.195934,-0.295352,0.391119,-0.00352688,-0.000876903,0.549811,0.6374890475732233,0.478634460444884,-0.0035206678640314903,-0.1779335107239426,-0.0008765186329233732,-0.25573044153306934
749,0.7252,867.752,80.4926,-0.0105859,265.455,1.85067,0.519014,0.493683,-0.196139,-0.295666,0.391553,-0.00352027,-0.000875573,0.550401,0.6383391249649155,0.479276327075701,-0.0035140811138768546,-0.17810201708175244,-0.0008751897978095391,-0.2559641054872672
750,0.7262,867.897,80.393,0.0308254,265.517,1.82313,0.544043,0.494203,-0.196345,-0.295979,0.391988,-0.00351479,-0.000873632,0.55099,0.6391912828517459,0.4799199522563067,-0.0035086203560789064,-0.17827131062839963,-0.0008732504946707964,-0.25619695227982564
751,0.7272,868.095,80.5461,-0.0165576,265.573,1.86789,0.519466,0.494722,-0.19655,-0.296293,0.392422,-0.00350814,-0.000872319,0.551579,0.6400422439328453,0.4805623769116525,-0.0035019936663704954,-0.17843974774432658,-0.0008719386403874818,-0.25643046977264483
752,0.7282,868.236,80.4261,0.034024,265.635,1.83431,0.549324,0.495241,-0.196756,-0.296606,0.392856,-0.00350272,-0.00087031,0.552167,0.6408936467773731,0.4812050804398096,-0.0034965926325394303,-0.17860897172562262,-0.000869931390095946,-0.25666317061602417
753,0.7292,868.436,80.5951,-0.0205488,265.69,1.8837,0.521004,0.495759,-0.19696,-0.296919,0.393289,-0.00349596,-0.000869038,0.552755,0.6417438498699941,0.4818465811145132,-0.0034898562467367,-0.17877651840504827,-0.0008686604958403343,-0.2568957986354371
754,0.7302,868.574,80.4558,0.0378911,265.753,1.8445,0.555042,0.496277,-0.197166,-0.297231,0.393723,-0.00349061,-0.000866968,0.553343,0.6425944934819017,0.48248984210825574,-0.0034845249032062764,-0.17894567301873343,-0.0008665922918269509,-0.2571276109816565
755,0.7312,868.777,80.6447,-0.0245478,265.808,1.89959,0.522467,0.496795,-0.19737,-0.297544,0.394156,-0.00348373,-0.000865742,0.553931,0.6434455778413437,0.4831318992052185,-0.0034776688531528155,-0.17911315101810088,-0.000865367353518276,-0.25736009365398294
756,0.7322,868.91,80.484,0.0421302,265.871,1.85419,0.560965,0.497313,-0.197576,-0.297856,0.394589,-0.00347844,-0.000863608,0.554518,0.6442971031766871,0.4837742343731024,-0.003472397236077618,-0.17928223629260998,-0.0008632351979371844,-0.2575917611627523
757,0.7332,869.117,80.6953,-0.0289053,265.924,1.91574,0.523692,0.49783,-0.19778,-0.298169,0.395022,-0.00347143,-0.000862434,0.555104,0.645147424568169,0.48441684773233784,-0.0034654115530974305,-0.17944964564007226,-0.0008620622106867426,-0.25782409857880584
758,0.7342,869.246,80.5106,0.0468036,265.988,1.86341,0.567113,0.498347,-0.197985,-0.29848,0.395454,-0.00346623,-0.000860229,0.555691,0.6459981856894705,0.4850582543444113,-0.0034602295597643273,-0.1796178412220798,-0.0008598591091050212,-0.2580548793958707
759,0.7352,869.457,80.7471,-0.0337339,266.041,1.93218,0.52463,0.498864,-0.198189,-0.298793,0.395887,-0.00345907,-0.000859114,0.556277,0.6468493867679912,0.48570142380468173,-0.0034530943094638333,-0.17978518211311934,-0.0008587450672268293,-0.25828707187860056
760,0.7362,869.58,80.5356,0.0519819,266.105,1.87213,0.573518,0.49938,-0.198394,-0.299103,0.396319,-0.00345397,-0.000856833,0.556863,0.6476993803310431,0.486343385473502,-0.0034480119072847204,-0.17995330891719985,-0.0008564660234250399,-0.2585169672506945
761,0.7372,869.796,80.8002,-0.0391023,266.157,1.94896,0.525246,0.499896,-0.198597,-0.299416,0.39675,-0.00344666,-0.000855783,0.557448,0.6485498126039508,0.48698413754479364,-0.0034407270856257055,-0.180119761499981,-0.000855416922163621,-0.25874901512255866
762,0.7382,869.912,80.559,0.0577246,266.221,1.88033,0.580209,0.500412,-0.198803,-0.299726,0.397182,-0.00344166,-0.000853417,0.558033,0.6494006838131472,0.4876266534656595,-0.0034357442768041535,-0.18028863943408757,-0.0008530529432835277,-0.2589787673144409
763,0.7392,870.134,80.8547,-0.0450684,266.272,1.9661,0.52551,0.500927,-0.199005,-0.300038,0.397613,-0.00343417,-0.000852442,0.558618,0.650250343934013,0.4882679587446632,-0.003428279982575,-0.18045420440629667,-0.0008520787745351921,-0.25920992987580405
764,0.7402,870.244,80.5805,0.0640865,266.337,1.88795,0.587215,0.501443,-0.199211,-0.300348,0.398045,-0.0034293,-0.000849983,0.559203,0.6511020928438029,0.48891102939610054,-0.0034234266664807667,-0.18062301345226028,-0.0008496218667761735,-0.2594395392062575
765,0.7412,870.472,80.9108,-0.0516878,266.387,1.98365,0.525395,0.501957,-0.199413,-0.30066,0.398475,-0.00342163,-0.00084909,0.559787,0.651950977464183,0.48955139880829757,-0.0034157828948494506,-0.18078851088773917,-0.0008487296250900833,-0.2596705580292148
766,0.7422,870.574,80.6,0.0711223,266.453,1.89497,0.594567,0.502472,-0.199618,-0.300969,0.398906,-0.0034169,-0.00084653,0.56037,0.6528019513245378,0.490193533831341,-0.0034110690403542643,-0.18095643203050205,-0.0008461717945639213,-0.25989928448672617
767,0.7432,870.809,80.9686,-0.0590172,266.502,2.00165,0.524869,0.502986,-0.19982,-0.301281,0.399337,-0.00340903,-0.000845729,0.560954,0.6536517098967631,0.49083594567422995,-0.00340322585460473,-0.18112186212223003,-0.0008453714720270122,-0.2601301598915303
768,0.7442,870.903,80.6175,0.0788881,266.568,1.90133,0.602294,0.5035,-0.200025,-0.30159,0.399767,-0.00340446,-0.000843057,0.561537,0.654501905357165,0.4914771429784104,-0.003398671396939945,-0.1812897149349939,-0.0008427017272927273,-0.26035874435400563
769,0.7452,871.146,81.0282,-0.067115,266.616,2.02014,0.523901,0.504014,-0.200226,-0.301901,0.400197,-0.00339636,-0.00084236,0.56212,0.6553525379303622,0.492118616056719,-0.0033905988934846976,-0.18145425916504276,-0.0008420053144131412,-0.26058873701879837
770,0.7462,871.231,80.6327,0.0874418,266.683,1.90701,0.610429,0.504527,-0.200432,-0.302209,0.400627,-0.00339197,-0.000839566,0.562702,0.6562019516383082,0.4927603650277639,-0.003386223768610419,-0.18162286222094381,-0.0008392136630760438,-0.26081644061964193
771,0.7472,871.483,81.0899,-0.0760422,266.73,2.03917,0.522459,0.50504,-0.200633,-0.302521,0.401056,-0.00338363,-0.000838982,0.563284,0.6570518012072755,0.49340089660856123,-0.0033779119750565467,-0.1817873394951176,-0.0008386301530064477,-0.26104702991636775
772,0.7482,871.557,80.6454,0.0968431,266.798,1.91194,0.619004,0.505553,-0.200838,-0.302828,0.401485,-0.00337945,-0.000836054,0.563866,0.6579020868609173,0.4940417030363571,-0.0033737460860219226,-0.1819550558990024,-0.0008357046042325456,-0.2612738536589575
773,0.7492,871.819,81.1537,-0.0858618,266.843,2.05878,0.520509,0.506065,-0.201038,-0.303139,0.401914,-0.00337084,-0.000835596,0.564447,0.6587511500710239,0.4946827844290864,-0.0033651650970345504,-0.1821186485280144,-0.0008352469868805334,-0.2615035617690069
774,0.7502,871.882,80.6556,0.107154,266.912,1.9161,0.628055,0.506578,-0.201244,-0.303447,0.402343,-0.00336688,-0.000832522,0.565029,0.6596023077142792,0.4953241409047342,-0.0033612184152739255,-0.18228711473380266,-0.0008321755497089356,-0.26173098364721503
775,0.7512,872.154,81.2199,-0.0966391,266.955,2.07903,0.518016,0.507089,-0.201443,-0.303757,0.402772,-0.00335799,-0.000832203,0.565609,0.6604505812089407,0.49596577258133645,-0.003352358257122323,-0.1824498234079206,-0.0008318568151221006,-0.26195981157212345
776,0.7522,872.206,80.6631,0.118437,267.026,1.91942,0.637614,0.507601,-0.201649,-0.304064,0.4032,-0.00335428,-0.00082897,0.56619,0.6613009495822466,0.4966061829700483,-0.0033486606875124947,-0.18261822139870998,-0.0008286264992933834,-0.2621863551337549
777,0.7532,872.489,81.2885,-0.108441,267.068,2.09995,0.514946,0.508112,-0.201848,-0.304375,0.403628,-0.00334508,-0.000828804,0.56677,0.6621500913047158,0.49724686751307146,-0.0033394914530123776,-0.1827808641891573,-0.0008284606368316183,-0.2624157794999701
778,0.7542,872.528,80.6676,0.130758,267.14,1.92186,0.647719,0.508624,-0.202054,-0.304681,0.404057,-0.00334163,-0.000825397,0.56735,0.6630013300499871,0.49788932421634424,-0.0033360529683265083,-0.18294919399256926,-0.0008250564535979832,-0.26264144574274706
779,0.7552,872.824,81.3599,-0.121337,267.179,2.12161,0.51126,0.509134,-0.202252,-0.304992,0.404484,-0.0033321,-0.000825398,0.567929,0.6638496770384066,0.49852905953155413,-0.0033265547156522413,-0.18311095403738586,-0.0008250574527729482,-0.26287072859778915
780,0.7562,872.849,80.6691,0.144183,267.253,1.92337,0.658406,0.509645,-0.202458,-0.305297,0.404912,-0.00332896,-0.000821804,0.568508,0.6647001214934258,0.4991705672418909,-0.0033234251561206074,-0.18327921584929252,-0.0008214664115763215,-0.26309551874332704
781,0.7572,873.159,81.4341,-0.135397,267.291,2.14405,0.506923,0.510154,-0.202656,-0.305608,0.405339,-0.00331906,-0.000821987,0.569087,0.6655476695379448,0.49981084976469337,-0.003313558009187312,-0.18344091055625011,-0.0008216492612311832,-0.2633246604036228
782,0.7582,873.169,80.6672,0.158776,267.366,1.9239,0.669711,0.510665,-0.202862,-0.305912,0.405766,-0.00331625,-0.000818189,0.569666,0.6663989818888596,0.5004514057465124,-0.0033107573163503323,-0.18360910440411438,-0.0008178543746486522,-0.2635485756700151
783,0.7592,873.493,81.5113,-0.150693,267.401,2.16733,0.501896,0.511174,-0.203059,-0.306223,0.406193,-0.00330596,-0.000818572,0.570244,0.6672473948734283,0.5010922353041398,-0.00330050133127624,-0.18376991756992977,-0.0008182370613371015,-0.26377757645151445
784,0.7602,873.487,80.662,0.174606,267.479,1.9234,0.681672,0.511683,-0.203265,-0.306527,0.406619,-0.0033035,-0.000814553,0.570822,0.6680962398101287,0.50173183682183,-0.0032980494474936783,-0.18393804364932975,-0.0008142213417622335,-0.2640013540523545
785,0.7612,873.827,81.5918,-0.167296,267.512,2.1915,0.496143,0.512192,-0.203461,-0.306837,0.407046,-0.00329279,-0.000815152,0.571399,0.6689455169188803,0.502373213240273,-0.0032873747124401165,-0.18409797611888046,-0.0008148198538644458,-0.26422947827151744
786,0.7622,873.803,80.6531,0.191737,267.591,1.92182,0.694325,0.512701,-0.203668,-0.307141,0.407472,-0.00329073,-0.000810895,0.571976,0.6697952264197145,0.5030133605708138,-0.003285321482317194,-0.18426685035873702,-0.0008105663134988506,-0.26445311851508346
787,0.7632,874.161,81.6757,-0.185277,267.622,2.21661,0.489626,0.513209,-0.203864,-0.307451,0.407898,-0.00327956,-0.000811729,0.572553,0.6706436978882422,0.5036537806622114,-0.0032741881171785003,-0.1844267183884879,-0.0008113996371390542,-0.26468110270896794
788,0.7642,874.118,80.6404,0.210236,267.703,1.9191,0.707708,0.513717,-0.20407,-0.307754,0.408324,-0.00327792,-0.000807215,0.57313,0.6714926004897741,0.5042944736306867,-0.0032725534855065908,-0.1845947091808543,-0.0008068892896172519,-0.2649038705838098
789,0.7652,874.494,81.7631,-0.20471,267.731,2.2427,0.482309,0.514224,-0.204265,-0.308065,0.408749,-0.00326627,-0.000808304,0.573705,0.6723402621022838,0.5049339346578225,-0.003260941543115292,-0.1847536977106785,-0.0008079774103223469,-0.2651324499341269
790,0.7662,874.431,80.6238,0.230165,267.815,1.91522,0.721855,0.514732,-0.204473,-0.308367,0.409174,-0.00326509,-0.000803513,0.574282,0.6731900267773847,0.5055736675136548,-0.0032597653903323476,-0.1849232513073693,-0.0008031902698745208,-0.26535434642619005
791,0.7672,874.655,80.9846,0.0925835,267.86,2.02083,0.647442,0.515239,-0.204672,-0.308674,0.409599,-0.00325724,-0.000802526,0.574857,0.6740385492032199,0.5062136723137347,-0.0032519409487797857,-0.18508543544250255,-0.0008022040621366022,-0.26557984802557055
792,0.7682,874.867,81.2294,0.0198713,267.91,2.09112,0.608776,0.515746,-0.204871,-0.30898,0.410024,-0.00324973,-0.000801188,0.575432,0.6748875019389993,0.5068539491736632,-0.003244455342747865,-0.18524758730620394,-0.0008008671345912655,-0.26580454621149896
793,0.7692,875.016,81.204,0.0304901,267.966,2.08485,0.617726,0.516253,-0.205072,-0.309286,0.410449,-0.00324337,-0.000799285,0.576007,0.6757368852029451,0.5074944982090905,-0.0032381159573245943,-0.18541133608385196,-0.0007989656568321291,-0.26602917565030126
794,0.7702,875.2,81.3276,-0.00485247,268.019,2.12065,0.599259,0.516759,-0.205271,-0.309592,0.410873,-0.0032363,-0.000797734,0.576582,0.6765850226275301,0.50813381140115,-0.0032310688258928577,-0.1855734230997782,-0.0007974158948260701,-0.266253736363011
795,0.7712,875.342,81.2563,0.0266245,268.076,2.10064,0.618321,0.517265,-0.205472,-0.309897,0.411297,-0.00323011,-0.000795713,0.577156,0.677433589318247,0.508773395719478,-0.0032248988071127416,-0.18573710639101337,-0.0007953965043629996,-0.2664774948485167
796,0.7722,875.523,81.3734,-0.00920909,268.128,2.13462,0.600038,0.517771,-0.205672,-0.310202,0.411721,-0.00322303,-0.000794159,0.57773,0.6782825854923598,0.5094132512790557,-0.003217841614413852,-0.18589994268556287,-0.0007938437392026598,-0.2667011850980907
797,0.7732,875.663,81.2902,0.0280643,268.185,2.11103,0.622105,0.518276,-0.205872,-0.310507,0.412145,-0.00321688,-0.000792095,0.578303,0.6791303322360698,0.5100533781949141,-0.0032117113852893064,-0.1860627464161101,-0.0007917813755676795,-0.2669248071325421
798,0.7742,875.844,81.4141,-0.0113512,268.236,2.147,0.602029,0.518781,-0.206072,-0.310812,0.412568,-0.00320975,-0.000790559,0.578877,0.679978507200002,0.5106922658891118,-0.0032046042594545687,-0.18622551758916694,-0.0007902465905652578,-0.267148360972673
799,0.7752,875.982,81.3216,0.0299446,268.293,2.1207,0.626186,0.519286,-0.206272,-0.311117,0.412991,-0.00320361,-0.000788462,0.57945,0.680827110600462,0.5113314238899695,-0.003198483916935335,-0.18638825621124444,-0.000788151245515345,-0.2673718466392797
800,0.7762,876.164,81.4544,-0.0132315,268.345,2.15923,0.604102,0.519791,-0.206471,-0.311422,0.413414,-0.00319641,-0.000786945,0.580022,0.6816761426538649,0.511970852311852,-0.003191306920182435,-0.18655014883940768,-0.0007866354399910236,-0.2675952641531518
801,0.7772,876.3,81.3523,0.0318992,268.402,2.13012,0.630304,0.520295,-0.206671,-0.311725,0.413837,-0.0031903,-0.000784817,0.580595,0.6825239210519731,0.512610551269171,-0.0031852164004610994,-0.18671282254172727,-0.0007845091116888137,-0.26781714917083566
802,0.7782,876.484,81.4949,-0.0151429,268.453,2.17145,0.606125,0.520799,-0.20687,-0.31203,0.414259,-0.00318304,-0.00078332,0.581167,0.6833721268380866,0.513249007626623,-0.0031779794988623378,-0.18687465058761688,-0.000783013284979317,-0.2680404308881458
803,0.7792,876.617,81.3825,0.0339368,268.51,2.13936,0.634452,0.521303,-0.20707,-0.312334,0.414682,-0.00317695,-0.000781159,0.581738,0.6842207602276631,0.5138892473580059,-0.003171908834272319,-0.18703725939607652,-0.0007808539747379273,-0.26826291277819514
804,0.7802,876.802,81.5355,-0.0171461,268.56,2.18367,0.60807,0.521806,-0.207268,-0.312638,0.415104,-0.00316962,-0.000779685,0.58231,0.6850681363672908,0.514528243439081,-0.003164602057584731,-0.18719821008407211,-0.0007793811246311622,-0.2684853270440293
805,0.7812,876.934,81.4122,0.0360778,268.618,2.14844,0.638637,0.522309,-0.207468,-0.312941,0.415526,-0.00316357,-0.00077749,0.582881,0.6859159388443314,0.515167509233408,-0.0031585711851838116,-0.18736075418710318,-0.0007771878329656534,-0.2687069424135109
806,0.7822,877.121,81.5762,-0.0192597,268.667,2.1959,0.609932,0.522812,-0.207666,-0.313245,0.415947,-0.00315616,-0.000776039,0.583451,0.6867641678732868,0.5158055290485428,-0.0031511845628289237,-0.18752164082947087,-0.0007757379596132763,-0.26892922171485156
807,0.7832,877.249,81.4415,0.0383324,268.725,2.15734,0.642861,0.523314,-0.207866,-0.313548,0.416369,-0.00315014,-0.000773808,0.584022,0.6876111360567865,0.516445333971145,-0.0031451835148967877,-0.1876841202528211,-0.000773508687797908,-0.2691507026046227
808,0.7842,877.438,81.6172,-0.0214908,268.774,2.20814,0.611707,0.523817,-0.208064,-0.313852,0.41679,-0.00314266,-0.000772382,0.584592,0.6884602179844257,0.5170838918637517,-0.0031377270129822055,-0.18784494287504605,-0.0007720837898054222,-0.2693728470233684
809,0.7852,877.564,81.4704,0.0407048,268.832,2.16606,0.647128,0.524319,-0.208264,-0.314154,0.417211,-0.00313667,-0.000770115,0.585162,0.6893080377988228,0.5177227186458284,-0.0031317557900832904,-0.18800735764445264,-0.0007698185375516475,-0.2695934631088617
810,0.7862,877.755,81.6583,-0.0238423,268.881,2.22039,0.613395,0.52482,-0.208461,-0.314457,0.417632,-0.00312911,-0.000768716,0.585731,0.6901545931701734,0.5183618144306017,-0.0031242194376696064,-0.18816730443972007,-0.0007684206135499805,-0.269814742763979
811,0.7872,877.878,81.4987,0.0431968,268.938,2.17462,0.651437,0.525322,-0.20866,-0.314759,0.418053,-0.00312317,-0.00076641,0.5863,0.6910032637744441,0.5190011793313449,-0.0031182979779463826,-0.18832884307250952,-0.0007661163828711626,-0.2700352254171079
812,0.7882,878.07,81.6996,-0.0263152,268.987,2.23264,0.614995,0.525823,-0.208858,-0.315062,0.418473,-0.00311553,-0.000765039,0.586869,0.6918506686667958,0.5196392938213268,-0.00311068177264906,-0.1884895380522532,-0.0007647464322775299,-0.27025637123852264
813,0.7892,878.191,81.5266,0.0458086,269.045,2.18301,0.655789,0.526324,-0.209057,-0.315364,0.418893,-0.00310962,-0.000762693,0.587437,0.6926984982153659,0.520277676375684,-0.003104790139368596,-0.18865101256693373,-0.0007624022236228933,-0.2704767205399894
814,0.7902,878.386,81.741,-0.0289093,269.092,2.2449,0.616508,0.526824,-0.209254,-0.315667,0.419313,-0.0031019,-0.000761352,0.588005,0.6935450590870547,0.5209163271070272,-0.003097094078641671,-0.18881083257467046,-0.0007610622451058591,-0.2706977326086464
815,0.7912,878.503,81.5541,0.0485396,269.15,2.19122,0.660183,0.527324,-0.209453,-0.315968,0.419733,-0.00309604,-0.000758965,0.588573,0.6943920433450173,0.5215552461280144,-0.0030912522104963314,-0.18897224315810235,-0.0007586770589147473,-0.27091721955668846
816,0.7922,878.7,81.7826,-0.0316236,269.198,2.25717,0.617934,0.527824,-0.20965,-0.316271,0.420152,-0.00308823,-0.000757655,0.589141,0.6952394512009994,0.5221929113576786,-0.0030834663227722325,-0.18913199988964546,-0.0007573680519242787,-0.2711380981743623
817,0.7932,878.814,81.5811,0.0513883,269.256,2.19927,0.664618,0.528324,-0.209849,-0.316571,0.420571,-0.00308242,-0.000755225,0.589708,0.6960872828668534,0.5228308438250564,-0.0030776742208855623,-0.18929334656714059,-0.0007549398893784698,-0.271356723949404
818,0.7942,879.014,81.8243,-0.0344564,269.303,2.26945,0.619275,0.528823,-0.210045,-0.316874,0.42099,-0.00307453,-0.000753949,0.590275,0.6969338416198465,0.5234690436421439,-0.0030698084727047714,-0.18945222950017737,-0.0007536648518682298,-0.2715774694174201
819,0.7952,879.125,81.6077,0.0543524,269.361,2.20715,0.669094,0.529323,-0.210244,-0.317174,0.421409,-0.00306877,-0.000751474,0.590842,0.6977825206927439,0.5241075109209838,-0.00306406613826371,-0.18961351245832014,-0.0007511917141282964,-0.27179596340085865
820,0.7962,879.327,81.8662,-0.037405,269.407,2.28173,0.620532,0.529821,-0.21044,-0.317476,0.421828,-0.00306078,-0.000750233,0.591408,0.698628226951429,0.5247462457736667,-0.0030561005883298353,-0.1897723326449916,-0.0007499516455876654,-0.27201584781569377
821,0.7972,879.434,81.6339,0.0574289,269.466,2.21487,0.673609,0.53032,-0.210639,-0.317776,0.422246,-0.00305508,-0.000747713,0.591974,0.699476053951922,0.5253837229278435,-0.003050417991907861,-0.18993355190894645,-0.000747433532293007,-0.2722342103053379
822,0.7982,879.639,81.9083,-0.0404659,269.511,2.29401,0.621707,0.530818,-0.210834,-0.318078,0.422664,-0.00304699,-0.000746508,0.592539,0.7003226038002066,0.5260214666031697,-0.0030423526371650134,-0.19009149946593695,-0.0007462294322250207,-0.27245396238959074
823,0.7992,879.743,81.6596,0.0606136,269.57,2.22243,0.67816,0.531316,-0.211033,-0.318377,0.423082,-0.00304135,-0.00074394,0.593105,0.7011695753353071,0.5266594769110746,-0.0030367297801774384,-0.19025265522201362,-0.0007436633452473362,-0.2726714661364057
824,0.8002,879.95,81.9504,-0.0436348,269.615,2.30628,0.622803,0.531814,-0.211228,-0.318679,0.4235,-0.00303317,-0.000742773,0.59367,0.7020169687672755,0.5272977539630337,-0.003028574587272348,-0.19041054055992457,-0.000742497212422033,-0.27289108618933533
825,0.8012,880.051,81.685,0.0639019,269.674,2.22984,0.682745,0.532311,-0.211427,-0.318978,0.423917,-0.00302759,-0.000740157,0.594234,0.702863081442336,0.5279347699350356,-0.0030230114711975453,-0.19057163283314038,-0.00073988315137552,-0.27310845925567184
826,0.8022,880.261,81.9927,-0.0469064,269.719,2.31856,0.623823,0.532808,-0.211622,-0.319279,0.424335,-0.00301931,-0.000739029,0.594799,0.7037096147399122,0.5285735801709064,-0.0030147564675567784,-0.1907294559764814,-0.0007387559853280212,-0.27332722068418924
827,0.8032,880.358,81.7099,0.0672879,269.778,2.23709,0.687362,0.533305,-0.21182,-0.319578,0.424752,-0.00301379,-0.000736363,0.595363,0.7045565688691053,0.5292111282733785,-0.003009253093823272,-0.19088967568192372,-0.0007360919513003106,-0.2735444633658053
828,0.8042,880.571,82.0351,-0.0502747,269.822,2.33082,0.624769,0.533802,-0.212015,-0.319879,0.425168,-0.00300541,-0.000735276,0.595927,0.7054039440391207,0.5298474124406709,-0.003000898276357522,-0.19104743681295555,-0.0007350057508418439,-0.2737630935768347
829,0.8052,880.665,81.7345,0.0707651,269.881,2.24421,0.692006,0.534298,-0.212213,-0.320177,0.425585,-0.00299996,-0.000732558,0.59649,0.7062500342083802,0.5304854918419677,-0.002995464616446397,-0.19120759356442496,-0.0007322897448964749,-0.2739794799317806
830,0.8062,880.881,82.0775,-0.0537327,269.924,2.34307,0.625647,0.534794,-0.212407,-0.320478,0.426001,-0.00299148,-0.000731514,0.597053,0.7070965441424564,0.5311223062547881,-0.002987009982138744,-0.19136448407240214,-0.0007312465088623599,-0.2741979792225282
831,0.8072,880.97,81.7587,0.0743259,269.984,2.25118,0.696673,0.53529,-0.212605,-0.320776,0.426418,-0.00298609,-0.000728744,0.597616,0.7079434740496049,0.5317609173976656,-0.0029816360676399034,-0.19152457805472856,-0.0007284785305815555,-0.27441423600085957
832,0.8082,881.189,82.12,-0.0572723,270.027,2.35529,0.62646,0.535785,-0.2128,-0.321076,0.426834,-0.00297751,-0.000727742,0.598179,0.7087891153482138,0.5323982624978925,-0.0029730816133787252,-0.19168221539186803,-0.00072747726001543,-0.27463187908196474
833,0.8092,881.275,81.7826,0.0779621,270.087,2.25802,0.701359,0.536281,-0.212997,-0.321374,0.427249,-0.00297219,-0.000724919,0.598741,0.7096368849789145,0.5330343397537307,-0.0029677774160637993,-0.19184143831146327,-0.0007246563097019765,-0.27484800657740216
834,0.8102,881.497,82.1626,-0.0608849,270.129,2.36749,0.627214,0.536776,-0.213191,-0.321674,0.427665,-0.0029635,-0.000723962,0.599303,0.7104833647234319,0.5336722147078599,-0.002959113168403471,-0.19199820586548644,-0.0007237000027404683,-0.2750655195468522
835,0.8112,881.579,81.8062,0.0816642,270.189,2.26474,0.70606,0.53727,-0.213389,-0.321971,0.42808,-0.00295826,-0.000721085,0.599864,0.7113285522497363,0.5343088207635835,-0.0029538886604683068,-0.19215817438331917,-0.0007208250806898242,-0.27528079311783904
836,0.8122,881.804,82.2052,-0.0645608,270.23,2.37966,0.627914,0.537765,-0.213583,-0.322271,0.428495,-0.00294946,-0.000720172,0.600426,0.7121758695768372,0.5349456910656476,-0.0029451146160827113,-0.19231488049650436,-0.0007199127383865633,-0.2754981762708003
837,0.8132,881.882,81.8296,0.0854223,270.291,2.27134,0.710769,0.538259,-0.21378,-0.322568,0.42891,-0.00294429,-0.000717241,0.600987,0.7130218934070893,0.5355828257237372,-0.002939959829000194,-0.1924739787933497,-0.0007169838441585252,-0.2757133213618205
838,0.8142,882.111,82.2477,-0.0682893,270.332,2.39179,0.628566,0.538753,-0.213973,-0.322867,0.429325,-0.00293539,-0.000716374,0.601547,0.7138683352763604,0.5362202248475827,-0.0029310859551540114,-0.19262981627664177,-0.000716117465408006,-0.2759298507059832
839,0.8152,882.185,81.8527,0.0892254,270.393,2.27783,0.715481,0.539246,-0.214171,-0.323163,0.429739,-0.00293029,-0.000713388,0.602108,0.7147134806768753,0.5368563516898401,-0.0029260008907254775,-0.19278965974799311,-0.0007131335992798249,-0.2761441437532385
840,0.8162,882.417,82.2902,-0.0720592,270.433,2.40386,0.629175,0.539739,-0.214364,-0.323463,0.430154,-0.00292128,-0.000712567,0.602668,0.7155590428367953,0.5374942794366433,-0.0029170172135221106,-0.1929454363107399,-0.0007123131844256614,-0.27636126793985616
841,0.8172,882.486,81.8756,0.0930617,270.494,2.28422,0.720189,0.540233,-0.214561,-0.323759,0.430568,-0.00291626,-0.000709526,0.603227,0.7164067383675137,0.5381309338466997,-0.002912011844385054,-0.19310441040032478,-0.0007092743459495843,-0.276575433306508
842,0.8182,882.721,82.3327,-0.0758583,270.533,2.41588,0.629749,0.540725,-0.214754,-0.324058,0.430981,-0.00290714,-0.000708752,0.603787,0.7172514182570044,0.5387663131191667,-0.002902918360466855,-0.19326012622205735,-0.0007085008946285942,-0.2767917049177322
843,0.8192,882.787,81.8983,0.0969189,270.595,2.29053,0.724887,0.541218,-0.214951,-0.324353,0.431395,-0.0029022,-0.000705654,0.604346,0.7180982319286238,0.5394034942601933,-0.0028979926887171548,-0.19341903832383567,-0.0007054050847689064,-0.27700501989927473
844,0.8202,883.026,82.375,-0.0796737,270.634,2.42783,0.630295,0.54171,-0.215143,-0.324652,0.431808,-0.00289297,-0.000704927,0.604905,0.7189437442377051,0.5400393992086561,-0.0028887893947164844,-0.19357388700252864,-0.0007046785973343628,-0.2772211630833086
845,0.8212,883.087,81.9208,0.100784,270.696,2.29676,0.729568,0.542202,-0.215341,-0.324947,0.432222,-0.00288811,-0.000701774,0.605463,0.7197896726411932,0.5406771075164396,-0.002883943422457236,-0.19373354356638073,-0.0007015278142187276,-0.27743435139337713
846,0.8222,883.329,82.4172,-0.0834921,270.734,2.4397,0.63082,0.542693,-0.215532,-0.325246,0.432635,-0.00287877,-0.000701094,0.606021,0.7206342967087,0.5413135385758114,-0.0028746303149966845,-0.19388752575379253,-0.0007008482910266789,-0.27765036622648365
847,0.8232,883.387,81.9433,0.104643,270.796,2.30292,0.734224,0.543185,-0.21573,-0.325541,0.433047,-0.00287398,-0.000697885,0.606579,0.7214810570686485,0.5419486905860342,-0.0028698540730367483,-0.19404712022331938,-0.0006976415349035925,-0.27786342794029895
848,0.8242,883.632,82.4592,-0.0872992,270.833,2.45148,0.631333,0.543676,-0.215921,-0.325839,0.43346,-0.00286453,-0.000697252,0.607137,0.722326511809823,0.5425856469176751,-0.0028604311486345457,-0.19420104252330916,-0.0006970089763104204,-0.27807859257764944
849,0.8252,883.686,81.9657,0.108482,270.896,2.30903,0.738848,0.544167,-0.216118,-0.326133,0.433872,-0.00285982,-0.000693988,0.607694,0.7231723817712032,0.543221323144516,-0.002855734610204941,-0.19435976928283283,-0.0006937472460245564,-0.27829080627448965
850,0.8262,883.934,82.501,-0.0910806,270.932,2.46317,0.63184,0.544657,-0.216309,-0.326431,0.434284,-0.00285027,-0.000693402,0.608251,0.7240169431389081,0.543857261323921,-0.0028462118369992906,-0.19451363187255477,-0.0006931616523888628,-0.2785058435720712
851,0.8272,883.984,81.9881,0.112286,270.996,2.31509,0.743432,0.545147,-0.216506,-0.326725,0.434696,-0.00284564,-0.000690083,0.608808,0.7248619184430891,0.5444934615638366,-0.0028415950042720572,-0.194672297058042,-0.0006898449474883606,-0.2787179316755821
852,0.8282,884.235,82.5425,-0.0948211,271.031,2.47474,0.63235,0.545637,-0.216697,-0.327023,0.435108,-0.00283598,-0.000689543,0.609364,0.7257073078866252,0.545129923972254,-0.002831962407554456,-0.19482609996065914,-0.0006893053198588905,-0.27893284170875743
853,0.8292,884.281,82.0105,0.11604,271.095,2.32112,0.747968,0.546127,-0.216894,-0.327316,0.435519,-0.00283142,-0.00068617,0.609921,0.7265531116724939,0.5457651028913333,-0.002827415310935666,-0.19498470359599585,-0.0006859346392010801,-0.27914408343771224
854,0.8302,884.536,82.5837,-0.0985056,271.13,2.4862,0.632871,0.546616,-0.217085,-0.327614,0.435931,-0.00282165,-0.000685675,0.610476,0.7273976026053068,0.5464020893239192,-0.0028176728871915913,-0.1951384468346623,-0.0006854399786163645,-0.2793588664965826
855,0.8312,884.578,82.0329,0.119729,271.194,2.32712,0.752448,0.547106,-0.217281,-0.327907,0.436342,-0.00281717,-0.000682249,0.611032,0.728244234838541,0.5470377912104205,-0.0028132055003592393,-0.19529618424031203,-0.0006820163210690122,-0.27956998341855965
856,0.8322,884.836,82.6246,-0.102118,271.228,2.49752,0.633413,0.547594,-0.217471,-0.328204,0.436752,-0.0028073,-0.000681798,0.611587,0.7290878238441183,0.5476722067511155,-0.0028033632181259094,-0.1954490634413223,-0.0006815656285567018,-0.2797839193624241
857,0.8332,884.874,82.0554,0.123337,271.292,2.33312,0.756863,0.548083,-0.217668,-0.328497,0.437163,-0.00280289,-0.000678321,0.612142,0.729933554554284,0.5483084307631687,-0.002798965571260914,-0.19560754436494088,-0.0006780909923197465,-0.27999491176215485
858,0.8342,885.135,82.6652,-0.105644,271.326,2.50871,0.633983,0.548571,-0.217858,-0.328794,0.437573,-0.00279292,-0.000677913,0.612696,0.730777968149066,0.5489433673728921,-0.0027890234273861836,-0.19576036441314726,-0.0006776832688977219,-0.2802087215210406
859,0.8352,885.169,82.0781,0.12685,271.391,2.33912,0.761206,0.54906,-0.218055,-0.329087,0.437984,-0.00278858,-0.000674385,0.613251,0.7316245255419043,0.5495801139393384,-0.002784695522356273,-0.19591878401651452,-0.00067415765354506,-0.28041958947197154
860,0.8362,885.433,82.7053,-0.109066,271.424,2.51974,0.63459,0.549547,-0.218244,-0.329383,0.438394,-0.00277851,-0.00067402,0.613804,0.7324680320630099,0.5502155720460638,-0.002774653513678782,-0.19607074100594757,-0.0006737928995460551,-0.28063255375321927
861,0.8372,885.464,82.1009,0.130251,271.489,2.34514,0.765467,0.550035,-0.218441,-0.329675,0.438803,-0.00277425,-0.000670443,0.614358,0.7333136827846505,0.550849739893515,-0.0027704053246541127,-0.19622909947114842,-0.000670218303310155,-0.2808425783824352
862,0.8382,885.73,82.745,-0.11237,271.521,2.53061,0.635242,0.550522,-0.21863,-0.329972,0.439213,-0.00276408,-0.000670118,0.614911,0.7341580121256737,0.5514857186536082,-0.0027602634481048716,-0.19638099781650264,-0.0006698935210782686,-0.281056136421717
863,0.8392,885.758,82.1239,0.133525,271.586,2.35118,0.769639,0.551009,-0.218826,-0.330263,0.439622,-0.00275988,-0.000666493,0.615465,0.7350027527552268,0.5521204060972722,-0.0027560750324157057,-0.19653849170602522,-0.0006662709428764124,-0.2812653186485281
864,0.8402,886.027,82.7842,-0.11554,271.618,2.5413,0.635949,0.551496,-0.219015,-0.33056,0.440031,-0.00274962,-0.000666207,0.616017,0.7358479048736557,0.5527553531811935,-0.002745843257256575,-0.19669033158177252,-0.0006659851333890021,-0.2814787511525938
865,0.8412,886.052,82.1472,0.136658,271.684,2.35726,0.773714,0.551983,-0.219211,-0.330851,0.44044,-0.00274548,-0.000662538,0.61657,0.7366934686814046,0.5533905600115865,-0.0027417146165014117,-0.1968477648478184,-0.0006623185701621903,-0.2816878104164102
866,0.8422,886.323,82.8229,-0.118561,271.715,2.55181,0.636717,0.552469,-0.2194,-0.331147,0.440849,-0.00273514,-0.000662288,0.617122,0.7375377068404392,0.5540260266947095,-0.0027314029125191652,-0.19699954627646543,-0.0006620687357106192,-0.28190039935981115
867,0.8432,886.344,82.1708,0.139635,271.78,2.36338,0.777685,0.552955,-0.219596,-0.331438,0.441257,-0.00273106,-0.000658575,0.617674,0.7383823553989382,0.5546601986758879,-0.002727334048342578,-0.1971569189423702,-0.0006583581870831523,-0.2821093359418504
868,0.8442,886.618,82.861,-0.121419,271.811,2.56212,0.637554,0.55344,-0.219784,-0.331733,0.441666,-0.00272063,-0.00065836,0.618225,0.7392256753298592,0.5552961847474323,-0.0027169324401923323,-0.19730783925465512,-0.0006581433286070304,-0.28232108245360144
869,0.8452,886.637,82.1947,0.142442,271.877,2.36957,0.781543,0.553926,-0.21998,-0.332024,0.442074,-0.00271661,-0.000654607,0.618777,0.740071144440422,0.5559308750588283,-0.002712923354202479,-0.19746515150105748,-0.0006543927915810821,-0.28252989663467054
870,0.8462,886.913,82.8986,-0.124099,271.907,2.57223,0.638469,0.554411,-0.220168,-0.332319,0.442482,-0.0027061,-0.000654424,0.619328,0.7409152836326827,0.5565658243767051,-0.0027024418119465654,-0.19761601387106809,-0.0006542099113182598,-0.282741519099315
871,0.8472,886.928,82.219,0.145065,271.973,2.37583,0.785281,0.554896,-0.220364,-0.332609,0.442889,-0.00270212,-0.000650632,0.619878,0.7417598323317491,0.5571994756065046,-0.002698472559766185,-0.19777326572116471,-0.0006504203848972656,-0.28294949390097246
872,0.8482,887.206,82.9355,-0.126588,272.003,2.58212,0.639469,0.55538,-0.220552,-0.332904,0.443297,-0.00269154,-0.000650479,0.620429,0.7426030481323607,0.5578349426190075,-0.0026879210537884557,-0.19792407017114666,-0.0006502674843998912,-0.28316099260267935
873,0.8492,887.219,82.2437,0.147493,272.069,2.38216,0.788894,0.555865,-0.220747,-0.333194,0.443704,-0.00268761,-0.000646652,0.620979,0.7434484155957439,0.5584691104850601,-0.002684001609616571,-0.1980804597289858,-0.0006464429656554138,-0.28336884577465793
874,0.8502,887.499,82.9718,-0.128875,272.098,2.59179,0.640559,0.556349,-0.220935,-0.333489,0.444111,-0.00267696,-0.000646526,0.621529,0.7442924488684675,0.5591035365099659,-0.002673380137674375,-0.1982312064319227,-0.0006463170470992763,-0.28358022078580736
875,0.8512,887.51,82.2688,0.149712,272.165,2.38858,0.792374,0.556833,-0.22113,-0.333778,0.444518,-0.00267308,-0.000642666,0.622078,0.7451368907521712,0.5597382207988171,-0.002669510502882222,-0.19838753610403004,-0.000642459534438089,-0.283787236186834
876,0.8522,887.791,83.0073,-0.130947,272.194,2.60123,0.641747,0.557316,-0.221318,-0.334073,0.444925,-0.00266236,-0.000642564,0.622627,0.7459799954638018,0.5603731634567481,-0.002658819062728801,-0.19853822508203467,-0.0006423575999637832,-0.2839984877910152
877,0.8532,887.8,82.2943,0.151713,272.26,2.3951,0.795716,0.5578,-0.221513,-0.334362,0.445331,-0.00265851,-0.000638675,0.623176,0.7468252543177483,0.5610068035813531,-0.0026549792917907045,-0.19869449489134217,-0.0006384710905351643,-0.28420538233034265
878,0.8542,888.082,83.0422,-0.132793,272.288,2.61043,0.643038,0.558282,-0.2217,-0.334656,0.445737,-0.00264774,-0.000638594,0.623725,0.74766742703765,0.5616407010160789,-0.002644237828074991,-0.1988443250112446,-0.0006383901422479799,-0.2844157950157572
879,0.8552,888.089,82.3203,0.153486,272.355,2.40173,0.798916,0.558765,-0.221895,-0.334945,0.446143,-0.00264392,-0.000634679,0.624273,0.7485117542935271,0.5622748558654149,-0.0026404279217865367,-0.1990005351368852,-0.0006344776338866875,-0.284622568970722
880,0.8562,888.372,83.0764,-0.134405,272.383,2.61939,0.644437,0.559248,-0.222082,-0.335239,0.446549,-0.0026331,-0.000634616,0.624821,0.749356489457971,0.5629092682338925,-0.00262963643283487,-0.19915030803261236,-0.0006344146738568313,-0.2848328590212924
881,0.8572,888.378,82.3469,0.155021,272.45,2.40846,0.801967,0.55973,-0.222277,-0.335527,0.446954,-0.0026293,-0.000630677,0.625369,0.7501998825272911,0.5635423746829296,-0.0026258464182522534,-0.19930645849738093,-0.0006304781650632307,-0.28503879750132977
882,0.8582,888.662,83.1098,-0.135774,272.477,2.6281,0.645949,0.560212,-0.222463,-0.335821,0.44736,-0.00261843,-0.000630629,0.625916,0.7510436822100566,0.5641773017685274,-0.002615004902279283,-0.19945537364656218,-0.0006304301953250491,-0.285248965198699
883,0.8592,888.666,82.3739,0.156311,272.544,2.41531,0.804867,0.560694,-0.222658,-0.336109,0.447765,-0.00261466,-0.000626671,0.626463,0.7518878887023024,0.5648109218751547,-0.002611244753759845,-0.19961146462933566,-0.0006264746827397971,-0.2854547838574123
884,0.8602,888.951,83.1424,-0.136893,272.571,2.63656,0.647577,0.561175,-0.222845,-0.336402,0.44817,-0.00260374,-0.000626635,0.62701,0.752730749468532,0.5654447986498967,-0.0026003532090849157,-0.19976112329192897,-0.0006264387052922205,-0.2856641149372413
885,0.8612,888.954,82.4015,0.157351,272.638,2.42228,0.807612,0.561657,-0.223039,-0.33669,0.448575,-0.00259998,-0.000622659,0.627557,0.7535757693232008,0.5660789321967252,-0.0025966029793624834,-0.19991635457608892,-0.0006224651881131527,-0.2858698140500453
886,0.8622,889.239,83.1743,-0.137756,272.665,2.64476,0.649325,0.562137,-0.223225,-0.336983,0.448979,-0.00258904,-0.000622632,0.628103,0.7544176877367303,0.5667117559071149,-0.0025856913265124293,-0.20006515629514887,-0.0006224382049193622,-0.2860790235438412
887,0.8632,889.241,82.4296,0.158135,272.732,2.42938,0.8102,0.562618,-0.22342,-0.33727,0.449384,-0.00258529,-0.000618643,0.628649,0.7552617656289908,0.567346402675553,-0.00258195101584191,-0.20022112838189865,-0.0006184516798742878,-0.2862838894644183
888,0.8642,889.526,83.2053,-0.138358,272.758,2.6527,0.651194,0.563098,-0.223605,-0.337563,0.449788,-0.00257431,-0.000618621,0.629194,0.7561044935150052,0.5679797385474661,-0.002570999305539279,-0.20036907378777602,-0.000618429693479916,-0.28649297765188986
889,0.8652,889.527,82.4582,0.158659,272.825,2.4366,0.812628,0.563579,-0.2238,-0.33785,0.450192,-0.00257056,-0.000614623,0.62974,0.756949382956007,0.5686133303387633,-0.002567258939773498,-0.2005249866163925,-0.000614434157974797,-0.2866977247846848
890,0.8662,889.813,83.2356,-0.138698,272.851,2.66038,0.653187,0.564058,-0.223985,-0.338143,0.450595,-0.00255957,-0.000614602,0.630285,0.7577911633007404,0.5692456089064639,-0.002556297093713966,-0.20067287581369597,-0.0006144131708777367,-0.28690669173616956
891,0.8672,889.813,82.4875,0.158921,272.918,2.44395,0.814897,0.564538,-0.224179,-0.338429,0.450999,-0.00255581,-0.000610598,0.63083,0.7586351055890703,0.5698797122127053,-0.0025525466983402634,-0.20082793023502288,-0.0006104116229769252,-0.287110607261023
892,0.8682,890.098,83.2651,-0.138772,272.944,2.6678,0.655305,0.565017,-0.224365,-0.338722,0.451402,-0.00254481,-0.000610575,0.631374,0.7594776935883629,0.5705125012351508,-0.0025415747160082436,-0.20097656241677775,-0.0006103886370161238,-0.2873194532556632
893,0.8692,890.099,82.5173,0.15892,273.011,2.45143,0.817005,0.565497,-0.224559,-0.339008,0.451805,-0.00254104,-0.000606569,0.631919,0.7603224456055504,0.5711455453229646,-0.0025378142906564705,-0.20113155792861814,-0.0006063850742138444,-0.28752325074760154
894,0.8702,890.383,83.2938,-0.138581,273.037,2.67496,0.657547,0.565975,-0.224744,-0.3393,0.452208,-0.00253003,-0.00060654,0.632462,0.7611640808693527,0.5717788445789587,-0.002526832171535376,-0.20127933492060812,-0.0006063560917985988,-0.2877312635870307
895,0.8712,890.384,82.5476,0.158657,273.103,2.45904,0.818954,0.566454,-0.224937,-0.339586,0.452611,-0.00252624,-0.000602536,0.633006,0.7620078805379764,0.5724123991059866,-0.002523051741065374,-0.20143347313415239,-0.0006023545116372597,-0.2879349433180549
896,0.8722,890.667,83.3217,-0.138126,273.129,2.68186,0.659913,0.566932,-0.225122,-0.339877,0.453013,-0.00251523,-0.000602498,0.633549,0.7628503216322546,0.5730446359615209,-0.0025120694594077397,-0.2015811942769955,-0.0006023165345260262,-0.2881421241032831
897,0.8732,890.668,82.5785,0.158133,273.195,2.46678,0.820743,0.567411,-0.225316,-0.340163,0.453415,-0.00251142,-0.000598498,0.634093,0.763694929203681,0.573677127027364,-0.0025082690231524873,-0.20173607250163228,-0.000598318935796982,-0.28834568634500146
898,0.8742,890.951,83.3489,-0.137409,273.221,2.68851,0.662401,0.567888,-0.225501,-0.340454,0.453818,-0.00250041,-0.000598448,0.634635,0.7645364123626892,0.5743114467163883,-0.0024972865787362686,-0.20188373766877032,-0.0005982689657116902,-0.28855274762139815
899,0.8752,890.952,82.6099,0.157353,273.287,2.47465,0.822377,0.568366,-0.225694,-0.34074,0.454219,-0.00249658,-0.000594456,0.635178,0.7653800623840905,0.5749428721988696,-0.0024934661360276333,-0.20203775924384015,-0.0005942793460380624,-0.28875619244158246
900,0.8762,891.233,83.3752,-0.136435,273.313,2.6949,0.66501,0.568843,-0.225879,-0.341031,0.454621,-0.00248558,-0.000594391,0.63572,0.7662223495433647,0.575576126509082,-0.002482493503805805,-0.2021853686040933,-0.0005942143846641157,-0.2889631342780844
901,0.8772,891.236,82.6419,0.156319,273.378,2.48263,0.823856,0.56932,-0.226072,-0.341316,0.455022,-0.00248171,-0.000590411,0.636262,0.7670650385694517,0.5762080592298546,-0.002478633103585759,-0.20233933197000997,-0.0005902367417218723,-0.2891657509105735
902,0.8782,891.515,83.4009,-0.135209,273.404,2.70105,0.667737,0.569797,-0.226256,-0.341607,0.455424,-0.00247073,-0.000590326,0.636803,0.7679081296540873,0.5768418222474967,-0.00246768025884625,-0.2024860880309558,-0.0005901517918883714,-0.28937257358290025
903,0.8792,891.519,82.6744,0.155039,273.469,2.49074,0.825184,0.570274,-0.226449,-0.341892,0.455825,-0.00246682,-0.000586361,0.637345,0.7687516229890994,0.5774742626140366,-0.0024637798998509153,-0.20263999336362348,-0.0005861891239842265,-0.2895750735418142
904,0.8802,891.796,83.4258,-0.133738,273.495,2.70695,0.670578,0.57075,-0.226633,-0.342182,0.456226,-0.00245586,-0.000586254,0.637886,0.7695937491717733,0.578106956640019,-0.0024528468429655392,-0.20278669410796224,-0.0005860821867007537,-0.2897810669000065
905,0.8812,891.801,82.7074,0.153518,273.56,2.49896,0.826366,0.571226,-0.226825,-0.342466,0.456626,-0.0024519,-0.000582308,0.638427,0.7704362763019279,0.5787383256880663,-0.002448896548417512,-0.2029397443693982,-0.0005821384916001593,-0.2899827404380091
906,0.8822,892.076,83.45,-0.132028,273.586,2.71262,0.673528,0.571701,-0.22701,-0.342756,0.457027,-0.00244098,-0.000582175,0.638967,0.771277433292141,0.5793715267049862,-0.0024380032308903843,-0.20308718687783733,-0.0005820055690157755,-0.29018861558994213
907,0.8832,892.083,82.7409,0.151767,273.651,2.50728,0.827406,0.572177,-0.227202,-0.343041,0.457427,-0.00243697,-0.000578251,0.639507,0.7721207620467085,0.5800034016822386,-0.0024340029992628853,-0.2032401794501999,-0.0005780838451112658,-0.2903908830100226
908,0.8842,892.356,83.4735,-0.130091,273.677,2.71806,0.676584,0.572652,-0.227386,-0.34333,0.457827,-0.00242608,-0.00057809,0.640047,0.7729627193577115,0.5806355294600387,-0.0024231394464035994,-0.203386769770458,-0.0005779229381697171,-0.2905959304140556
909,0.8852,892.364,82.7748,0.149793,273.741,2.51571,0.82831,0.573127,-0.227578,-0.343614,0.458227,-0.00242201,-0.00057419,0.640587,0.7738050766934357,0.5812679101395268,-0.002419079300318705,-0.20353970482842665,-0.0005740251844685851,-0.29079737256367877
910,0.8862,892.635,83.4963,-0.127934,273.767,2.72328,0.679739,0.573602,-0.227762,-0.343903,0.458626,-0.00241117,-0.000573998,0.641126,0.7746478342439376,0.5818989619221311,-0.002408265464527437,-0.20368624004108526,-0.0005738332946629843,-0.29100230250920445
911,0.8872,892.645,82.8091,0.147607,273.831,2.52422,0.829083,0.574077,-0.227953,-0.344187,0.459026,-0.00240703,-0.000570125,0.641665,0.7754909921993647,0.5825318480756922,-0.002404135426197329,-0.20383832144500103,-0.0005699625096236005,-0.29120362926553933
912,0.8882,892.913,83.5185,-0.12557,273.857,2.72829,0.682989,0.574551,-0.228137,-0.344476,0.459425,-0.00239624,-0.000569899,0.642204,0.776332774416292,0.5831634042701566,-0.002393371308746284,-0.20398480171725675,-0.0005697366384096458,-0.29140844181984193
913,0.8892,892.925,82.8439,0.145221,273.921,2.53282,0.829731,0.575025,-0.228329,-0.34476,0.459824,-0.00239204,-0.000566056,0.642742,0.7771749557325691,0.5837952125058214,-0.0023891813521068617,-0.2041376219641139,-0.0005658958205273512,-0.2916096532489898
914,0.8902,893.19,83.5401,-0.123011,273.947,2.7331,0.686326,0.575498,-0.228512,-0.345048,0.460223,-0.00238129,-0.000565794,0.64328,0.7780157583207667,0.5844272728832711,-0.0023784569781629683,-0.20428325145378978,-0.0005656339687577505,-0.2918136402933097
915,0.8912,893.205,82.879,0.142647,274.01,2.5415,0.830262,0.575972,-0.228703,-0.345331,0.460621,-0.00237702,-0.000561984,0.643818,0.7788587375605076,0.5850580004443375,-0.002374197125079469,-0.20443521883941473,-0.0005618261165692973,-0.29201402867681303
916,0.8922,893.467,83.5612,-0.120269,274.037,2.73771,0.689743,0.576445,-0.228887,-0.34562,0.46102,-0.00236633,-0.000561682,0.644356,0.7797003367658948,0.5856905647747066,-0.0023635324482441655,-0.2045815892926537,-0.0005615242861951586,-0.2922186070595252
917,0.8932,893.484,82.9144,0.139897,274.099,2.55024,0.830683,0.576918,-0.229078,-0.345903,0.461418,-0.00236198,-0.000557908,0.644893,0.7805423341418662,0.5863217952260142,-0.002359192720171377,-0.20473349970119292,-0.0005577523982702726,-0.29241888085364887
918,0.8942,893.743,83.5817,-0.117358,274.126,2.74215,0.693235,0.577391,-0.229261,-0.34619,0.461816,-0.00235135,-0.000557565,0.64543,0.7813847298768011,0.5869532769570429,-0.0023485877420246215,-0.20487902015521997,-0.0005574095895205522,-0.29262192749625693
919,0.8952,893.762,82.9501,0.136985,274.188,2.55904,0.831,0.577863,-0.229452,-0.346473,0.462214,-0.00234692,-0.000553827,0.645967,0.7822257419325345,0.5875850100678219,-0.0023441681364789746,-0.20503087375988938,-0.0005536736661351238,-0.2928220871668462
920,0.8962,894.018,83.6018,-0.114291,274.215,2.74641,0.696792,0.578335,-0.229635,-0.346761,0.462611,-0.00233636,-0.000553442,0.646503,0.7830671510396547,0.5882154064422194,-0.002333632835268218,-0.20517633979944283,-0.0005532888792254553,-0.2930257250804751
921,0.8972,894.04,82.9861,0.133925,274.276,2.56789,0.831223,0.578808,-0.229825,-0.347043,0.463009,-0.00233185,-0.000549744,0.64704,0.783910741295464,0.5888476419805098,-0.0023291333498058897,-0.20532734194922242,-0.0005495929184539117,-0.29322506371793344
922,0.8982,894.293,83.6214,-0.111084,274.304,2.75052,0.700408,0.579279,-0.230008,-0.34733,0.463406,-0.00232135,-0.000549313,0.647575,0.7847511611579552,0.589478539719291,-0.0023186577507092743,-0.20547275374006102,-0.0005491621552355941,-0.2934278790192586
923,0.8992,894.318,83.0223,0.130731,274.364,2.57677,0.831358,0.579751,-0.230198,-0.347613,0.463803,-0.00231676,-0.000545656,0.648111,0.7855937625443057,0.5901096879741985,-0.0023140783828387024,-0.2056236995765418,-0.0005455071568384318,-0.2936278106378377
924,0.9002,894.567,83.6406,-0.107751,274.392,2.75447,0.704075,0.580222,-0.230381,-0.347899,0.4642,-0.00230633,-0.000545179,0.648646,0.7864349752965161,0.5907410868447072,-0.002303672464409545,-0.2057690571388967,-0.0005450304169316578,-0.29382980419753935
925,0.9012,894.594,83.0587,0.127419,274.452,2.58567,0.831414,0.580693,-0.230571,-0.348181,0.464596,-0.00230165,-0.000541565,0.649182,0.787276584353255,0.5913711450583905,-0.0022990032346706935,-0.20591994668307967,-0.0005414183801446537,-0.2940289161166556
926,0.9022,894.84,83.6594,-0.104307,274.48,2.7583,0.707784,0.581163,-0.230754,-0.348468,0.464993,-0.0022913,-0.00054104,0.649716,0.78811680178353,0.5920030448267832,-0.0022886769759158376,-0.20606525003717424,-0.0005408936642515849,-0.29423150074544524
927,0.9032,894.871,83.0952,0.124003,274.54,2.59459,0.831399,0.581634,-0.230943,-0.348749,0.465389,-0.00228652,-0.00053747,0.650251,0.7889592031671226,0.5926336028747881,-0.0022839079043937005,-0.20621528952573898,-0.0005373255888728723,-0.2944297938322523
928,0.9042,895.112,83.6778,-0.100767,274.568,2.76199,0.711528,0.582104,-0.231126,-0.349035,0.465785,-0.00227625,-0.000536896,0.650785,0.7898002116141145,0.5932644106732272,-0.0022736613075117207,-0.20636053883703842,-0.000536751897133203,-0.2946315580575568
929,0.9052,895.146,83.1318,0.120498,274.627,2.60352,0.831322,0.582574,-0.231315,-0.349317,0.466181,-0.00227138,-0.000533371,0.651319,0.7906416154279807,0.5938954683210214,-0.0022688023684107606,-0.20651052252129354,-0.0005332287829741267,-0.29483044391396085
930,0.9062,895.384,83.696,-0.0971475,274.656,2.76558,0.715298,0.583044,-0.231498,-0.349603,0.466576,-0.00226118,-0.000532747,0.651853,0.7914834147945868,0.5945251813911518,-0.0022586254582928067,-0.2066557178098981,-0.0005326051155143396,-0.29503209356972615
931,0.9072,895.422,83.1685,0.11692,274.714,2.61243,0.83119,0.583513,-0.231687,-0.349884,0.466972,-0.00225622,-0.000529268,0.652386,0.7923238175751728,0.5951567384030179,-0.00225367664880205,-0.20680564571059912,-0.0005291279623990119,-0.29523016172155436
932,0.9082,895.656,83.7139,-0.0934624,274.743,2.76906,0.719087,0.583982,-0.23187,-0.350169,0.467367,-0.00224611,-0.000528593,0.652919,0.7931646145971054,0.5957869497732386,-0.0022435893824819253,-0.2069507869966013,-0.0005284533193327112,-0.2954309925057177
933,0.9092,895.696,83.2053,0.113282,274.801,2.62133,0.831012,0.584452,-0.232058,-0.35045,0.467762,-0.00224104,-0.000525161,0.653452,0.79400760005203,0.5964174101261215,-0.0022385307446564084,-0.2070998662347585,-0.0005250231270982342,-0.2956289485826922
934,0.9102,895.926,83.7316,-0.0897269,274.831,2.77245,0.722887,0.58492,-0.232241,-0.350735,0.468157,-0.00223102,-0.000524434,0.653985,0.7948473921048669,0.5970481195600339,-0.002228533124646437,-0.20724495368333107,-0.0005242965085259232,-0.2958296657287942
935,0.9112,895.97,83.242,0.109601,274.887,2.6302,0.830796,0.585389,-0.232429,-0.351016,0.468551,-0.00222585,-0.00052105,0.654517,0.7956893729608412,0.5976774804951033,-0.002223374632828068,-0.20739397762334932,-0.0005209142770226105,-0.29602750979433134
936,0.9122,896.196,83.7492,-0.0859559,274.917,2.77577,0.72669,0.585857,-0.232611,-0.351301,0.468946,-0.00221591,-0.000520272,0.655049,0.7965299522676024,0.5983086877551256,-0.002213456683879733,-0.20753821879307732,-0.0005201366819914677,-0.296228113366673
937,0.9132,896.243,83.2787,0.105889,274.974,2.63904,0.83055,0.586325,-0.232799,-0.351581,0.46934,-0.00221065,-0.000516936,0.655581,0.7973709250575469,0.5989385454519194,-0.002208208312858728,-0.20768718760443716,-0.0005168024116057879,-0.2964251419096471
938,0.9142,896.466,83.7665,-0.0821635,275.004,2.77901,0.730488,0.586793,-0.232982,-0.351865,0.469734,-0.00220079,-0.000516105,0.656112,0.7982122915148684,0.5995686513615404,-0.002198370037290065,-0.2078321675830329,-0.0005159718407234948,-0.29662492879826374
939,0.9152,896.516,83.3153,0.102161,275.06,2.64782,0.830281,0.58726,-0.233169,-0.352146,0.470128,-0.00219543,-0.000512817,0.656643,0.7990522527706936,0.6001990055818038,-0.0021930218062201634,-0.20798028911789967,-0.0005126855318362544,-0.29682254942627284
940,0.9162,896.735,83.7838,-0.0783636,275.09,2.7822,0.734274,0.587727,-0.233352,-0.35243,0.470521,-0.00218566,-0.000511934,0.657174,0.7998926063800325,0.6008280073817553,-0.0021832731844213527,-0.208125215463826,-0.00051180298414788,-0.2970222234671799
941,0.9172,896.788,83.3518,0.0984309,275.145,2.65655,0.829997,0.588194,-0.233539,-0.35271,0.470915,-0.0021802,-0.000508695,0.657705,0.8007333525261573,0.6014588578860522,-0.002177825090219576,-0.20827328220386265,-0.0005085656366349278,-0.297219029690452
942,0.9182,897.003,83.801,-0.0745694,275.177,2.78535,0.738041,0.588661,-0.233721,-0.352993,0.471308,-0.00217051,-0.00050776,0.658235,0.8015744913924254,0.6020883549052636,-0.0021681561464987897,-0.20841736335471917,-0.0005076311117069299,-0.2974178885651917
943,0.9192,897.06,83.3882,0.094711,275.231,2.66521,0.829704,0.589128,-0.233908,-0.353273,0.471701,-0.00216496,-0.000504569,0.658765,0.8024160231622799,0.6027180993654224,-0.002162618164397556,-0.20856537546820786,-0.0005044417264691292,-0.297614584017745
944,0.9202,897.271,83.8182,-0.0707937,275.262,2.78845,0.741783,0.589594,-0.23409,-0.353556,0.472094,-0.00215535,-0.000503582,0.659295,0.8032561447622031,0.6033480913637923,-0.0021530289010817105,-0.20870940346292755,-0.0005034552238663004,-0.29781333096644824
945,0.9212,897.331,83.4244,0.0910137,275.316,2.6738,0.82941,0.59006,-0.234277,-0.353836,0.472487,-0.0021497,-0.000500439,0.659824,0.804096657950025,0.6039783309976747,-0.0021473910497681326,-0.20885736097002194,-0.0005003138012892316,-0.29800991571062907
946,0.9222,897.538,83.8353,-0.0670483,275.348,2.79152,0.745493,0.590526,-0.234459,-0.354119,0.472879,-0.00214018,-0.0004994,0.660354,0.8049375629082676,0.6046072137563934,-0.002137891447712925,-0.2090013358282159,-0.0004992753205758094,-0.2982085507962927
947,0.9232,897.601,83.4604,0.0873507,275.401,2.6823,0.829121,0.590991,-0.234645,-0.354398,0.473271,-0.00213443,-0.000496305,0.660883,0.8057770540415818,0.6052363430854784,-0.0021321537240928112,-0.2091484478979052,-0.0004961818610458302,-0.2984043232990864
948,0.9242,897.804,83.8525,-0.0633447,275.433,2.79458,0.749165,0.591456,-0.234827,-0.35468,0.473663,-0.002125,-0.000495215,0.661411,0.8066169356290467,0.6058657190816037,-0.0021227437859345777,-0.20929236978309895,-0.0004950924012903091,-0.29860214538569096
949,0.9252,897.871,83.4962,0.0837328,275.486,2.69072,0.828843,0.591922,-0.235014,-0.35496,0.474055,-0.00211915,-0.000492167,0.66194,0.8074590153103769,0.606495341841482,-0.0021169061869107386,-0.2094402182856837,-0.0004920459056890758,-0.298798509292753
950,0.9262,898.07,83.8697,-0.0596933,275.518,2.79762,0.752795,0.592386,-0.235195,-0.355242,0.474447,-0.0021098,-0.000491027,0.662468,0.8082978708929258,0.6071252114618637,-0.0021075759363647917,-0.20958329665719067,-0.0004909064659719409,-0.2989962202345794
951,0.9272,898.14,83.5317,0.0801702,275.57,2.69904,0.828581,0.592851,-0.235381,-0.355521,0.474838,-0.00210386,-0.000488025,0.662996,0.8091389249328007,0.607753720285013,-0.002101648437761172,-0.20973030049223207,-0.00048790593516934155,-0.2991917730082535
952,0.9282,898.336,83.8869,-0.056104,275.603,2.80066,0.756375,0.593315,-0.235563,-0.355802,0.475229,-0.00209459,-0.000486836,0.663523,0.8099785601742815,0.6083824749031619,-0.0020923978771659746,-0.20987411648988963,-0.0004867175145829572,-0.2993886724543705
953,0.9292,898.409,83.5669,0.0766723,275.654,2.70725,0.82834,0.593779,-0.235749,-0.356081,0.47562,-0.00208856,-0.000483879,0.664051,0.810818585096913,0.6090114754124352,-0.002086380476182703,-0.2100210662374723,-0.00048376194943688944,-0.2995841157491482
954,0.9302,898.601,83.9043,-0.0525856,275.688,2.8037,0.759903,0.594243,-0.23593,-0.356362,0.476011,-0.00207937,-0.000482642,0.664578,0.81165899988155,0.6096407219089948,-0.00207720960787916,-0.21016403948501416,-0.0004825255470857215,-0.29978090496244336
955,0.9312,898.676,83.6019,0.0732475,275.738,2.71536,0.828125,0.594707,-0.236115,-0.356641,0.476402,-0.00207325,-0.00047973,0.665104,0.8124998047091299,0.6102702144890408,-0.00207110230171359,-0.21031014562247496,-0.0004796149479622258,-0.2999762388396159
956,0.9322,898.865,83.9218,-0.0491462,275.772,2.80675,0.763374,0.59517,-0.236297,-0.356922,0.476792,-0.00206413,-0.000478445,0.665631,0.8133391864205815,0.6108983423496628,-0.0020620011486653933,-0.21045385609792178,-0.0004783305634422641,-0.30017291788180245
957,0.9332,898.944,83.6365,0.0699203,275.822,2.72335,0.82794,0.595633,-0.236482,-0.3572,0.477183,-0.00205793,-0.000475576,0.666157,0.8141789568557483,0.611528326755447,-0.0020558139138922016,-0.21059990862426836,-0.00047546293165900977,-0.30036744277041894
958,0.9342,899.129,83.9394,-0.0457942,275.856,2.80982,0.766783,0.596096,-0.236664,-0.357481,0.477573,-0.00204888,-0.000474246,0.666683,0.8150191161946507,0.6121569453755447,-0.0020467824781408295,-0.21074356636764757,-0.00047413356314063293,-0.30056401189974435
959,0.9352,899.21,83.6708,0.0666466,275.905,2.73123,0.82779,0.596559,-0.236848,-0.357759,0.477963,-0.00204259,-0.000471419,0.667209,0.815859664617393,0.6127858092047169,-0.002040505332661091,-0.21088877619172242,-0.00047130789952221086,-0.30075842807933517
960,0.9362,899.392,83.9572,-0.0425323,275.94,2.8129,0.77013,0.597021,-0.23703,-0.358039,0.478352,-0.00203363,-0.000470044,0.667734,0.816698785604469,0.6134133049245023,-0.0020315635755298045,-0.21103238136598823,-0.0004699335466257226,-0.30095418831176146
961,0.9372,899.476,83.7048,0.0634846,275.989,2.73898,0.827678,0.597483,-0.237214,-0.358317,0.478742,-0.00202725,-0.000467258,0.668259,0.8175382943550074,0.6140426588294574,-0.0020251965165946073,-0.21117753805299222,-0.0004671488519815137,-0.30114849603738547
962,0.9382,899.655,83.9751,-0.0393702,276.023,2.81601,0.773408,0.597945,-0.237395,-0.358597,0.479131,-0.00201835,-0.00046584,0.668784,0.818378191048196,0.6146706435588529,-0.0020163145013186723,-0.21132030199807783,-0.0004657315133936857,-0.3013441470660727
963,0.9392,899.742,83.7384,0.0604213,276.072,2.74661,0.827605,0.598407,-0.237579,-0.358874,0.47952,-0.0020119,-0.000463094,0.669309,0.8192184758633065,0.615298872621828,-0.0020098774857878476,-0.21146540571255912,-0.0004629867885238559,-0.3015376479362277
964,0.9402,899.917,83.9932,-0.036311,276.106,2.81914,0.776618,0.598868,-0.237761,-0.359154,0.479909,-0.00200307,-0.000461633,0.669833,0.8200573289214532,0.6159273461134469,-0.002001065194099816,-0.21160890594980164,-0.00046152646388086804,-0.30173319001763654
965,0.9412,900.006,83.7717,0.0574613,276.154,2.75411,0.827575,0.599329,-0.237944,-0.359431,0.480298,-0.00199654,-0.000458925,0.670357,0.8208965687800105,0.6165560641288108,-0.001994548239777738,-0.21175316831960345,-0.0004588197100295899,-0.30192658313781795
966,0.9422,900.179,84.0114,-0.0333587,276.189,2.82231,0.779756,0.59979,-0.238126,-0.35971,0.480687,-0.00198778,-0.000457424,0.670881,0.8217361956173344,0.6171850267630581,-0.0019858056737278584,-0.21189661618881717,-0.00045731939759197093,-0.3021213184542827
967,0.9432,900.27,83.8045,0.0546082,276.237,2.76148,0.82759,0.600251,-0.238309,-0.359988,0.481075,-0.00198117,-0.000454753,0.671405,0.8225762096118627,0.6178126162979385,-0.0019792087781006495,-0.21204082591246243,-0.0004546496155265478,-0.3023153017628232
968,0.9442,900.44,84.0299,-0.0305164,276.272,2.8255,0.782821,0.600711,-0.23849,-0.360266,0.481463,-0.00197248,-0.000453213,0.671928,0.8234147875264177,0.6184404493848046,-0.0019705359397415023,-0.21218343361658576,-0.00045311031450168127,-0.3025092311514991
969,0.9452,900.534,83.837,0.051865,276.319,2.76872,0.82765,0.601171,-0.238673,-0.360543,0.481851,-0.0019658,-0.000450578,0.672451,0.8242537512755486,0.6190685261181728,-0.001963869080654379,-0.21232759085744413,-0.0004504765049773152,-0.30270240933805614
970,0.9462,900.701,84.0485,-0.0277866,276.355,2.82873,0.785812,0.601631,-0.238854,-0.360822,0.482239,-0.00195716,-0.000449001,0.672974,0.8250931010367797,0.619696846592596,-0.0019552460112315373,-0.2124701466618094,-0.00044890021413590553,-0.30289692822920367
971,0.9472,900.797,83.8692,0.0492336,276.401,2.77583,0.827758,0.602091,-0.239037,-0.361099,0.482626,-0.00195041,-0.000446399,0.673496,0.8259328369877181,0.6203237905780641,-0.0019485091864054338,-0.21261425143898105,-0.00044629937879059334,-0.3030899990385426
972,0.9482,900.961,84.0674,-0.025171,276.437,2.832,0.788728,0.602551,-0.239218,-0.361377,0.483014,-0.00194184,-0.000444786,0.674018,0.8267729593060513,0.6209525981895962,-0.0019399558484781698,-0.2127567553624764,-0.00044468709737111034,-0.30328371309130897
973,0.9492,901.059,83.9009,0.0467156,276.483,2.7828,0.827914,0.60301,-0.239401,-0.361653,0.483401,-0.00193502,-0.000442216,0.67454,0.8276116405569955,0.6215800282449806,-0.0019331490557659148,-0.2129008076950547,-0.0004421182369159782,-0.3034759802524071
974,0.9502,901.221,84.0865,-0.0226704,276.519,2.83531,0.791569,0.603469,-0.239581,-0.361931,0.483788,-0.0019265,-0.000440569,0.675062,0.8284507068509943,0.6222077011627871,-0.0019246454899707333,-0.21304247279942767,-0.00044047196372898334,-0.3036695870173096
975,0.9512,901.321,83.9322,0.0443116,276.564,2.78965,0.828119,0.603928,-0.239764,-0.362207,0.484175,-0.00191962,-0.000438031,0.675583,0.8292901583648233,0.622835617037022,-0.0019177787079099895,-0.21318647285049885,-0.00043793507842759816,-0.3038617476919
976,0.9522,901.48,84.1057,-0.0202853,276.601,2.83865,0.794335,0.604386,-0.239945,-0.362485,0.484561,-0.00191116,-0.00043635,0.676104,0.8301281651462586,0.6234621524987631,-0.0019093348966005008,-0.21332887321129146,-0.00043625481318421144,-0.30405524722835986
977,0.9532,901.582,83.9632,0.0420217,276.646,2.79636,0.828372,0.604845,-0.240127,-0.362761,0.484948,-0.00190422,-0.000433841,0.676625,0.8309683867901765,0.624090553939616,-0.0019024081233488532,-0.2134720343283102,-0.0004337469046012954,-0.30424730147541956
978,0.9542,901.738,84.1252,-0.0180154,276.682,2.84203,0.797026,0.605303,-0.240307,-0.363038,0.485334,-0.0018958,-0.00043213,0.677146,0.8318071623762737,0.6247175739005038,-0.0018940041062444068,-0.21361359662114254,-0.00043203664527913244,-0.3044399982831709
979,0.9552,901.842,83.9938,0.0398456,276.727,2.80294,0.828674,0.60576,-0.240489,-0.363314,0.48572,-0.00188881,-0.000429649,0.677666,0.8326444895641691,0.6253448359378144,-0.0018870273209492527,-0.21375670592321594,-0.0004295567140857326,-0.3046319463535925
980,0.9562,901.997,84.1449,-0.01586,276.763,2.84545,0.799642,0.606218,-0.240669,-0.36359,0.486106,-0.00188044,-0.000427908,0.678186,0.8334840329811566,0.625972340145007,-0.0018786730804054574,-0.21389821697977263,-0.00042781646042910904,-0.30482384145365693
981,0.9572,902.102,84.024,0.0377821,276.808,2.80939,0.829024,0.606675,-0.240851,-0.363866,0.486491,-0.00187339,-0.000425453,0.678706,0.8343221266740515,0.6265984600163041,-0.0018716363002461156,-0.21404127448565435,-0.0004253625077063061,-0.30501568359798203
982,0.9582,902.254,84.1647,-0.0138176,276.844,2.8489,0.802185,0.607132,-0.241031,-0.364142,0.486877,-0.00186506,-0.000423684,0.679225,0.835160603463295,0.6272264482157957,-0.0018633218563468557,-0.21418273432447954,-0.0004235942586084951,-0.30520747280118143
983,0.9592,902.361,84.0539,0.0358298,276.888,2.81571,0.829421,0.607589,-0.241213,-0.364418,0.487262,-0.00185796,-0.000421255,0.679745,0.835999463524002,0.6278530510116571,-0.0018562350607739253,-0.2143257400529165,-0.0004211662845702291,-0.305399209077865
984,0.9602,902.511,84.1848,-0.0118865,276.925,2.85239,0.804656,0.608046,-0.241393,-0.364694,0.487647,-0.00184968,-0.000419459,0.680264,0.8368387070313674,0.62847989509604,-0.0018479703961845617,-0.21446714869254757,-0.000419371039372729,-0.3055908924426384
985,0.9612,902.62,84.0833,0.0339868,276.969,2.82191,0.829864,0.608503,-0.241574,-0.364969,0.488032,-0.00184253,-0.000417053,0.680782,0.8376783341606671,0.6291069805618583,-0.0018408335836588297,-0.21460931727198962,-0.0004169660454862445,-0.305781828692279
986,0.9622,902.768,84.2051,-0.0100645,277.006,2.85592,0.807055,0.608959,-0.241754,-0.365245,0.488417,-0.00183429,-0.000415232,0.681301,0.8385165065698297,0.6297343075020618,-0.001832608718241202,-0.21475067487231492,-0.0004151458031240729,-0.3059734064686107
987,0.9632,902.878,84.1124,0.0322508,277.049,2.82799,0.830352,0.609415,-0.241935,-0.365519,0.488801,-0.00182709,-0.000412848,0.681819,0.8393550612727674,0.6303602456485753,-0.0018254218871514016,-0.21489279213816248,-0.000412762789991139,-0.30616354370524723
988,0.9642,903.024,84.2255,-0.00834902,277.086,2.85947,0.809385,0.60987,-0.242115,-0.365795,0.489186,-0.00181889,-0.000411004,0.682337,0.8401921582507674,0.6309880551887317,-0.0018172368220521484,-0.21503409871760393,-0.0004109195494261808,-0.30635501614277283
989,0.9652,903.135,84.1412,0.0306189,277.129,2.83394,0.830885,0.610326,-0.242296,-0.366069,0.48957,-0.00181165,-0.000408641,0.682855,0.8410314772251122,0.6316144748668049,-0.0018100099526855429,-0.21517616468837786,-0.0004085575176383527,-0.3065450488326822
990,0.9662,903.28,84.2461,-0.00673723,277.166,2.86306,0.811646,0.610781,-0.242475,-0.366345,0.489954,-0.00180348,-0.000406774,0.683372,0.8418693371459267,0.6322411351362252,-0.0018018547071526614,-0.21531663558237857,-0.0004066912786730992,-0.306736415989322
991,0.9672,903.392,84.1696,0.0290884,277.209,2.83977,0.831459,0.611236,-0.242656,-0.366619,0.490337,-0.0017962,-0.000404431,0.683889,0.8427075783797473,0.6328664032221774,-0.0017945877982034064,-0.2154586504186078,-0.00040434922880705493,-0.3069263441899892
992,0.9682,903.535,84.2669,-0.00522594,277.246,2.86668,0.813842,0.611691,-0.242835,-0.366894,0.490721,-0.00178807,-0.000402543,0.684406,0.8435462011001109,0.6334935443244001,-0.001786472355213009,-0.2155990707521881,-0.00040246199043691977,-0.3071169132408915
993,0.9692,903.648,84.1977,0.0276559,277.288,2.84549,0.832074,0.612145,-0.243016,-0.367168,0.491104,-0.00178075,-0.000400218,0.684923,0.8443833610963503,0.6341192921749403,-0.0017791654054472028,-0.21574103447227766,-0.0004001379234592761,-0.30730673719959356
994,0.9702,903.79,84.2878,-0.00381176,277.326,2.87033,0.815973,0.6126,-0.243195,-0.367442,0.491488,-0.00177265,-0.00039831,0.685439,0.8452227464713409,0.6347469144789057,-0.0017710797839403103,-0.215881404263636,-0.00039823068510291826,-0.3074965091536559
995,0.9712,903.904,84.2255,0.026318,277.367,2.8511,0.832728,0.613054,-0.243375,-0.367716,0.491871,-0.00176529,-0.000396002,0.685955,0.8460606677919862,0.6353731424621549,-0.0017637327920505541,-0.2160225329089095,-0.0003959236015569356,-0.3076862291173258
996,0.9722,904.044,84.3089,-0.00249109,277.405,2.874,0.818042,0.613508,-0.243555,-0.36799,0.492253,-0.00175722,-0.000394076,0.686471,0.8468989696152787,0.6359979743378656,-0.0017556769928691596,-0.2161636361533128,-0.00039399836225184615,-0.30787589710484675
997,0.9732,904.159,84.2529,0.0250711,277.446,2.8566,0.833418,0.613961,-0.243734,-0.368264,0.492636,-0.00174982,-0.000391784,0.686987,0.8477358043772774,0.6366246815688108,-0.0017482899575468336,-0.21630393030574013,-0.00039170726267045985,-0.30806551313045816
998,0.9742,904.298,84.3302,-0.00126021,277.484,2.87769,0.820051,0.614415,-0.243913,-0.368538,0.493018,-0.00174178,-0.000389841,0.687502,0.8485748668852422,0.6372499916237866,-0.0017402639815337073,-0.2164441993477616,-0.00038976502187082485,-0.30825507720839573
999,0.9752,904.413,84.2801,0.0239114,277.525,2.86199,0.834144,0.614868,-0.244093,-0.368811,0.493401,-0.00173435,-0.000387564,0.688017,0.8494124610006846,0.6378771784691926,-0.0017328468841406597,-0.21658522669903668,-0.0003874889067744247,-0.30844389779713477
