,Time,S11,S22,S33,S12,S13,S23,LE11,LE22,LE33,LE12,LE13,LE23,SDV_EPBAR,E11,E12,E13,E22,E23,E33
0,1e-05,1.56305,0.521016,-2.22045e-16,0.902427,-2.51557e-17,-2.43235e-17,6.74997e-06,2.49999e-07,-2.99999e-06,1.12583e-05,-2.75078e-22,-1.58816e-22,0.0,6.749992781163172e-06,1.1258363374899716e-05,0.0,2.499990312543332e-07,0.0,-2.999985500018454e-06
1,2e-05,3.12608,1.04203,3.33067e-16,1.80484,-4.09921e-17,-1.38669e-17,1.34999e-05,5.00011e-07,-5.99996e-06,2.25164e-05,-6.35266e-22,1.10034e-21,0.0,1.3499991124099608e-05,2.2516653495952e-05,0.0,5.000111249486849e-07,0.0,-5.9999420002343484e-06
2,3.5e-05,5.4706,1.82353,-9.99201e-16,3.15845,-6.58417e-17,-1.06613e-16,2.36246e-05,8.75006e-07,-1.04998e-05,3.94034e-05,-1.94732e-21,8.31865e-22,0.0,2.3624879063044446e-05,3.9404176324087103e-05,0.0,8.750063829054966e-07,0.0,-1.0499744877323636e-05
3,5.75e-05,8.98732,2.99577,-4.10783e-15,5.18883,-7.43258e-17,-9.19113e-17,3.88114e-05,1.43749e-06,-1.72495e-05,6.47335e-05,-6.19998e-22,-2.31412e-21,0.0,3.8812153172029795e-05,6.473559525832506e-05,0.0,1.4374910330960944e-06,0.0,-1.7249351228265652e-05
4,9.125e-05,14.2622,4.75408,-2.89768e-14,8.23431,-2.08889e-16,-1.30402e-16,6.1591e-05,2.28117e-06,-2.73738e-05,0.000102728,-4.5146e-21,-6.50321e-22,0.0,6.159289676466173e-05,0.00010273327670162757,0.0,2.2811726019256184e-06,0.0,-2.737342534098186e-05
5,0.00014188,22.1743,7.39143,-1.57763e-13,12.8023,-5.36799e-16,-2.41322e-16,9.57588e-05,3.54668e-06,-4.25596e-05,0.000159716,-6.09447e-21,3.93795e-22,0.0,9.576338502026438e-05,0.00015972875527947572,0.0,3.5466862895461304e-06,0.0,-4.255869435310089e-05
6,0.00021781,34.0416,11.3472,-8.00804e-13,19.6539,-5.36749e-16,-2.41293e-16,0.000147007,5.4448e-06,-6.53367e-05,0.000245194,-1.55781e-20,6.65609e-21,0.0,0.00014701780605852477,0.00024522406250571116,0.0,5.44481482300796e-06,0.0,-6.533456560431361e-05
7,0.00033172,51.8409,17.2803,-4.05331e-12,29.9304,-7.0394e-16,-4.94619e-16,0.000223873,8.29167e-06,-9.94992e-05,0.000373398,-1.2188e-20,7.88597e-22,0.0,0.00022389806143019442,0.00037346772171087395,0.0,8.291704375995579e-06,0.0,-9.949425011879232e-05
8,0.00050258,78.5361,26.1787,-2.05113e-11,45.3428,-9.3892e-16,-6.30284e-16,0.000339155,1.25613e-05,-0.000150736,0.000565677,-4.95336e-21,-1.85113e-20,0.0,0.0003392125195595952,0.0005658370254069123,0.0,1.256137889349418e-05,0.0,-0.00015072463989995732
9,0.00075887,118.57,39.5234,-1.03755e-10,68.4566,-2.11419e-15,-1.30882e-15,0.000512041,1.89646e-05,-0.000227574,0.000854034,-1.84908e-20,4.97698e-21,0.0,0.0005121721153706904,0.00085439879087712,0.0,1.896477982921141e-05,0.0,-0.0002275481070015406
10,0.0011433,178.602,59.5341,-5.24723e-10,103.116,-2.78185e-15,-2.32149e-15,0.000771287,2.85663e-05,-0.000342794,0.00128643,-5.05387e-20,3.34393e-20,0.0,0.0007715845183038361,0.0012872578060059148,0.0,2.8566708020649756e-05,0.0,-0.00034273525284966855
11,0.00172,268.252,89.4169,-0.000137367,154.875,-9.03691e-06,-2.12905e-05,0.00115985,4.26161e-05,-0.000515991,0.00193512,-1.12961e-10,-2.66138e-10,2.27748e-06,0.001160522886135107,0.0019369935530288984,-1.129609739081161e-10,4.261700807894897e-05,-2.661380005264391e-10,-0.000515857899537786
12,0.0021524,274.086,91.5856,0.0200404,158.161,0.0655483,-0.0215444,0.00143062,-5.15639e-06,-0.000723467,0.00249057,1.12157e-06,-9.23224e-09,0.000397654,0.0014316438249688535,0.002493674045875416,1.1215706290368388e-06,-5.1563767058393495e-06,-9.23223997251199e-09,-0.000723205360849577
13,0.0025849,279.145,92.763,-0.053163,161.247,-0.0706764,0.0117006,0.00170145,-5.73417e-05,-0.00093018,0.00304805,-7.32146e-07,7.13834e-07,0.000796406,0.001702898287330834,0.003052700027706523,-7.321457319298119e-07,-5.734005599611347e-05,7.138342548174137e-07,-0.0009297475166899494
14,0.0030174,284.13,94.5124,-0.00690289,164.079,-0.0448833,0.0195782,0.00197187,-0.000106984,-0.00113787,0.00360432,-4.9053e-07,1.10172e-06,0.00119667,0.001973815414139546,0.0036108233723954886,-4.905298797153179e-07,-0.00010697827741590338,1.1017206069663388e-06,-0.0011372228714042754
15,0.0036661,290.941,96.9292,-0.0673655,167.979,0.00280972,-0.0248965,0.00237681,-0.000181532,-0.00145047,0.00443917,2.85595e-07,1.05607e-06,0.0018007,0.0023796368520745403,0.004449037711223847,2.8559504072767083e-07,-0.00018151552406342475,1.0560705576700968e-06,-0.001449418576803585
16,0.0046392,299.979,99.642,-0.0384709,173.262,-0.0791433,0.0156403,0.00298349,-0.000297859,-0.00191779,0.0056935,-8.6011e-07,3.26581e-06,0.00271334,0.0029879450357064297,0.0057097387749858175,-8.601096300742128e-07,-0.0002978146444120311,3.2658153328313233e-06,-0.0019159522157737863
17,0.0056392,308.256,102.345,-0.0888783,178.059,-0.0760407,0.0199899,0.0036059,-0.000417031,-0.00239971,0.00698186,-1.00407e-06,4.76039e-06,0.00365671,0.003612409078749268,0.007006290007064209,-1.0040694958801666e-06,-0.00041694405465919626,4.76040133068345e-06,-0.002396832997741738
18,0.0066392,316.08,105.605,0.0334093,182.332,0.097849,-0.0388717,0.00422709,-0.000532359,-0.00288379,0.00826782,2.09714e-06,4.78675e-06,0.00460347,0.004236036746726679,0.008302092812477957,2.0971421990090278e-06,-0.0005322173220898563,4.786761456543331e-06,-0.0028796358717885218
19,0.0068892,317.65,105.682,-0.0107472,183.377,-0.0205828,0.00577666,0.00438268,-0.000564339,-0.00300432,0.00859027,5.88553e-07,5.36776e-06,0.00484129,0.004392297987712235,0.00862727224654214,5.885531730864813e-07,-0.0005641797906973389,5.367774406517256e-06,-0.0029998115467443354
20,0.0072642,320.223,106.537,-0.00267462,184.86,-0.0212146,0.0116742,0.00461569,-0.000609174,-0.00318588,0.00907252,5.39652e-07,5.51518e-06,0.00519767,0.004626358705251077,0.009113800053171195,5.39652145636893e-07,-0.0006089884911898436,5.515195208527501e-06,-0.0031808104693805683
21,0.0078267,324.005,108.006,0.00260441,186.978,0.0385943,-0.0111789,0.00496476,-0.000675295,-0.00345869,0.00979539,1.46752e-06,5.32495e-06,0.00573281,0.00497710484219982,0.009843521861041538,1.4675210768810842e-06,-0.0006750670396479252,5.324964177599867e-06,-0.0034527156215676813
22,0.0086705,329.094,109.333,-0.0233536,190.024,-0.0609696,0.0306413,0.0054881,-0.000778813,-0.00386614,0.0108813,-7.97578e-09,6.40288e-06,0.00653765,0.0055031872082136335,0.010940716659449734,-7.975780036417746e-09,-0.0007785098038716187,6.402900498470032e-06,-0.0038586761026724314
23,0.0096705,335.192,111.993,0.0744805,193.319,0.113333,-0.0295467,0.00610698,-0.000895571,-0.00435112,0.0121652,3.04521e-06,6.01635e-06,0.00749219,0.006125665620564824,0.012239497019211676,3.0452146366766186e-06,-0.00089517009598028,6.0163680981606404e-06,-0.004341667591863052
24,0.01067,340.228,112.953,-0.0731392,196.472,-0.0685724,0.0270269,0.00672578,-0.00102026,-0.00483388,0.0134516,4.59449e-07,7.35033e-06,0.00844979,0.006748448851709776,0.013542479807022278,4.594491056497674e-07,-0.00101973971172431,7.350357013713449e-06,-0.004822215604404212
25,0.01142,344.388,115.028,0.0441785,198.634,0.115762,-0.0313993,0.00718904,-0.00110705,-0.0051981,0.0144124,3.35412e-06,6.65025e-06,0.00916731,0.007214943183864175,0.014516759390583278,3.3541256250213536e-06,-0.001106437446212194,6.6502721129957365e-06,-0.005184613256794091
26,0.01217,347.737,115.463,-0.0381166,200.781,-0.0656983,0.0330014,0.00765254,-0.00120144,-0.00556005,0.015376,8.22995e-07,7.75772e-06,0.00988689,0.0076818955178736825,0.01549481889332105,8.22995338767285e-07,-0.0012007185599144377,7.757750091208493e-06,-0.005544621529598337
27,0.01317,352.704,117.824,0.0692437,203.406,0.124735,-0.0305611,0.00826895,-0.00131855,-0.006045,0.0166564,4.05506e-06,7.10338e-06,0.0108453,0.008303232194486476,0.01679589122819003,4.055068221875402e-06,-0.001317681094888945,7.103405229136328e-06,-0.006026765748019081
28,0.01392,355.71,118.173,-0.0288431,205.353,-0.046207,0.0286359,0.00873153,-0.00141287,-0.00640696,0.0176186,1.74253e-06,8.09116e-06,0.0115657,0.008769760998763143,0.01777472307521233,1.742531518189594e-06,-0.0014118723690778046,8.09119273359471e-06,-0.006386479195021999
29,0.01467,359.155,119.905,0.0371609,207.152,0.114121,-0.0274567,0.00919314,-0.0015005,-0.00677085,0.0185773,4.29279e-06,7.38221e-06,0.0122851,0.009235526700920094,0.018750931572997898,4.29279921410064e-06,-0.0014993748127265505,7.382237248609869e-06,-0.006747979441956264
30,0.01567,362.891,120.437,-0.0684751,209.538,-0.0725487,0.037044,0.00980863,-0.00162598,-0.00725281,0.0198585,1.58906e-06,8.63526e-06,0.0132462,0.009856892277782858,0.020056991750023512,1.5890612625746314e-06,-0.0016246588106926252,8.63529728389878e-06,-0.007226571845322827
31,0.01667,366.78,121.745,-0.0655324,211.773,-0.0664374,0.0359356,0.0104232,-0.001748,-0.00773535,0.0211371,1.32619e-06,9.03647e-06,0.0142067,0.010477710776742422,0.021362070778901066,1.3261908793360533e-06,-0.0017464731377813125,9.036510828952515e-06,-0.007705509172842406
32,0.01767,370.913,123.906,0.124193,213.871,0.138858,-0.00793266,0.0110367,-0.00186521,-0.00821914,0.0224126,4.75731e-06,8.63711e-06,0.0151664,0.011097829054135477,0.022665649280636302,4.757321315995711e-06,-0.0018634715768373056,8.63714730003906e-06,-0.008185455218649884
33,0.01867,374.433,125.072,0.0665831,215.917,0.142111,-0.0319707,0.0116497,-0.00198603,-0.0087024,0.0236888,5.67234e-06,8.32821e-06,0.0161271,0.011717822031778624,0.023971608337472583,5.672356087726982e-06,-0.0019840591473596625,8.328244679667307e-06,-0.008664643719917486
34,0.01967,377.594,125.449,0.0450876,217.933,-0.0384786,0.0633409,0.0122627,-0.00211145,-0.00918315,0.0249655,3.23909e-06,1.003e-05,0.0170884,0.012338195181628153,0.025279747762954496,3.2390952457994615e-06,-0.0021092224575061103,1.003005030053572e-05,-0.009141113651812471
35,0.02067,380.776,126.402,-0.0572745,219.83,-0.0595975,0.0384598,0.0128747,-0.002234,-0.00966484,0.0262399,2.67179e-06,1.00733e-05,0.018049,0.012957935778358687,0.026587197203335133,2.6717935692754935e-06,-0.0022315064791874617,1.007335073577309e-05,-0.009618285535088922
36,0.02167,383.895,127.41,-0.118258,221.656,-0.061774,0.0246019,0.0134861,-0.00235619,-0.0101462,0.027513,2.32767e-06,1.01625e-05,0.0190093,0.013577447625766847,0.027894977655105402,2.327672709023787e-06,-0.002353416363174765,1.0162551638437378e-05,-0.010094900956161279
37,0.02267,387.475,129.44,0.182382,223.383,0.15082,0.0110412,0.0140965,-0.00247333,-0.0106281,0.0287827,5.86492e-06,1.018e-05,0.0199681,0.014196324161700913,0.029200924813340245,5.864937198785114e-06,-0.002470273839505932,1.0180051816410796e-05,-0.010571821300204176
38,0.02367,389.949,129.398,-0.0670117,225.132,-0.0693549,0.0433466,0.0147069,-0.00259951,-0.0111081,0.0300554,2.75766e-06,1.09262e-05,0.0209289,0.014815578575189114,0.03051162271604202,2.757663802421817e-06,-0.002596134199655764,1.0926259691235174e-05,-0.011046632862088845
39,0.02467,392.82,130.358,-0.0628095,226.784,-0.0667487,0.0441456,0.0153165,-0.00272163,-0.0115882,0.031325,2.44754e-06,1.12745e-05,0.0218882,0.01543439874911412,0.03182079115651604,2.4475429951653638e-06,-0.002717929722761303,1.1274563557428507e-05,-0.011521315416986755
40,0.02567,396.039,132.274,0.126671,228.34,0.155543,-0.00500529,0.015925,-0.00283849,-0.0120695,0.0325912,6.10529e-06,1.07348e-05,0.022846,0.016052478612479826,0.033128110131256605,6.105308637316398e-06,-0.0028344652961876937,1.0734857618155402e-05,-0.01199695573585191
41,0.02667,398.308,132.199,-0.055366,229.937,-0.0604148,0.0445526,0.0165336,-0.00296443,-0.0125483,0.0338603,3.10244e-06,1.16759e-05,0.0238055,0.016671036358993252,0.034440085353611094,3.1024448126082405e-06,-0.0029600404159970672,1.167596816364913e-05,-0.012469898361945786
42,0.02767,401.313,134.028,0.0653841,231.398,0.161377,-0.0319082,0.0171408,-0.00308113,-0.0130293,0.0351243,6.76899e-06,1.06392e-05,0.0247626,0.017288546469367283,0.035748444330174545,6.769012909746408e-06,-0.0030763881902557966,1.0639256596389757e-05,-0.01294478612117167
43,0.02867,403.483,133.928,-0.0482282,232.912,-0.0559959,0.0459734,0.0177482,-0.003207,-0.0135071,0.036391,3.77408e-06,1.19271e-05,0.0257211,0.01790663522704561,0.037061258179721834,3.7740871219327232e-06,-0.0032018630683472438,1.192717112807884e-05,-0.013416288451486236
44,0.02967,406.324,135.667,0.058205,234.294,0.156851,-0.0297058,0.0183542,-0.00332381,-0.0139872,0.0376528,7.29053e-06,1.09037e-05,0.0266772,0.018523673591734457,0.038370647995600304,7.29055657600064e-06,-0.0033182922585429653,1.090375944556854e-05,-0.013889833607790059
45,0.03067,408.733,136.472,0.0494007,235.682,0.159614,-0.0327556,0.0189599,-0.00344435,-0.0144662,0.038915,8.19282e-06,1.07659e-05,0.0276337,0.019140780252714595,0.03968210691511209,8.192853561350688e-06,-0.0034384250310464104,1.0765957952463268e-05,-0.014362067268501089
46,0.03167,410.835,136.492,0.041565,237.082,-0.0247696,0.0670656,0.0195655,-0.00356935,-0.0149428,0.0401778,5.77895e-06,1.2422e-05,0.0285903,0.019758158832601014,0.04099584680050694,5.7789666980667675e-06,-0.003562987442604637,1.2422077153351196e-05,-0.014831710382396945
47,0.03267,413.016,137.083,-0.0510906,238.407,-0.055942,0.0478569,0.0201703,-0.00369159,-0.0154201,0.0414384,5.11213e-06,1.24862e-05,0.0295459,0.020375095109787855,0.042308953642336444,5.112143066865471e-06,-0.0036847844586344047,1.248627795291668e-05,-0.015301819006683481
48,0.03367,415.22,137.819,-0.100753,239.694,-0.0506308,0.0326949,0.0207744,-0.00381307,-0.0158971,0.0426975,4.92903e-06,1.25181e-05,0.0305007,0.020991689928457014,0.043622151396025544,4.9290421477721225e-06,-0.0038058094798096853,1.2518178351683673e-05,-0.015771408033130707
49,0.03467,417.872,139.481,0.157396,240.919,0.149956,0.0163911,0.0213775,-0.00392997,-0.0163746,0.0439533,8.22899e-06,1.24588e-05,0.0314539,0.021607635736441422,0.04493355535194854,8.229023858330464e-06,-0.003922257774146121,1.2458877611143393e-05,-0.016241264998516858
50,0.03567,419.547,139.197,-0.0701273,242.192,-0.067517,0.0499508,0.0219807,-0.00405543,-0.0168501,0.045212,5.17807e-06,1.31771e-05,0.0324085,0.022224055355784422,0.0462496413230169,5.178083406276457e-06,-0.004047217848776374,1.3177186818369435e-05,-0.016708931080587464
51,0.03667,422.017,140.837,0.0492448,243.349,0.151643,-0.0239474,0.0225826,-0.00417176,-0.0173275,0.0464655,8.70633e-06,1.21879e-05,0.0333605,0.022839517219370054,0.047561937558250555,8.706367900179757e-06,-0.004163070297235727,1.2187974272714897e-05,-0.01717824220341113
52,0.03767,424.052,141.5,0.037949,244.528,0.149757,-0.0256025,0.0231841,-0.00429201,-0.0178036,0.0477196,9.46031e-06,1.20883e-05,0.0343128,0.02345494025890149,0.04887650911394359,9.460354748913602e-06,-0.00428281248838891,1.2088373063878777e-05,-0.017646052271274804
53,0.03867,425.864,141.546,0.0527092,245.719,-0.00308929,0.0641807,0.0237856,-0.00441584,-0.0182776,0.0489739,7.54998e-06,1.35718e-05,0.0352649,0.024070733586744275,0.05019294034658106,7.5500085012780715e-06,-0.004406104513935194,1.357189209727494e-05,-0.018111577704254644
54,0.03967,428.023,142.82,0.045488,246.812,0.150677,-0.0222052,0.0243857,-0.00453312,-0.0187539,0.0502245,1.02427e-05,1.24303e-05,0.0362154,0.024685462865041696,0.05150713323130618,1.0242752456646187e-05,-0.0045228609192683455,1.2430377256400504e-05,-0.018579139801041422
55,0.04067,429.642,142.646,-0.0218486,247.962,-0.0408351,0.0535169,0.024986,-0.00465762,-0.019227,0.0514768,7.65716e-06,1.36758e-05,0.0371664,0.02530076621322186,0.05282476047435192,7.6571893161681e-06,-0.0046467901083318,1.3675893514086823e-05,-0.019043340194740188
56,0.04167,431.499,143.235,-0.0470327,249.048,-0.0460174,0.049161,0.0255854,-0.0047787,-0.0197007,0.0527266,7.37311e-06,1.38985e-05,0.0381161,0.025915515714510118,0.0541414034588108,7.373137181465594e-06,-0.004767300179158607,1.3898596584516199e-05,-0.01950790932260482
57,0.04267,433.742,144.748,0.120821,250.074,0.157248,0.00732266,0.0261838,-0.00489494,-0.0201754,0.0539732,1.07057e-05,1.34556e-05,0.039064,0.0265296072769845,0.05545631554678443,1.0705757306217478e-05,-0.0048829793047847625,1.3455690526908981e-05,-0.01997323846343968
58,0.04367,435.148,144.411,-0.0486481,251.161,-0.0548594,0.05402,0.0267824,-0.0050196,-0.0206475,0.0552223,7.79421e-06,1.43315e-05,0.0400132,0.02714427185065338,0.05677550976175816,7.79424037489207e-06,-0.005007022860789134,1.4331602696371348e-05,-0.020435799901342477
59,0.04467,436.93,145.012,-0.0518568,252.186,-0.0512558,0.0517311,0.0273801,-0.0051403,-0.0211199,0.0564684,7.59625e-06,1.45842e-05,0.0409607,0.02775837948972426,0.058093178527494294,7.596278851496052e-06,-0.005127111265648798,1.4584306349929577e-05,-0.020898436746042748
60,0.04567,439.076,146.511,0.110845,253.153,0.157649,0.00565199,0.0279767,-0.00525619,-0.0215934,0.0577114,1.09891e-05,1.40756e-05,0.0419065,0.028371723081128675,0.05940920609009015,1.0989160380336926e-05,-0.005242400404166014,1.4075699061644187e-05,-0.021361931595178296
61,0.04667,440.402,146.163,-0.0447581,254.184,-0.051262,0.0547423,0.0285736,-0.00538052,-0.0220643,0.058957,8.13758e-06,1.49771e-05,0.0428535,0.028985741398171783,0.060729628385479906,8.13761311024841e-06,-0.005366070928386368,1.4977212157374353e-05,-0.021822663773684803
62,0.04767,442.097,146.75,-0.0468924,255.156,-0.0437692,0.050829,0.0291695,-0.00550085,-0.0225355,0.0601996,8.02709e-06,1.51983e-05,0.0437988,0.029599096732542796,0.06204851027332636,8.027122217146854e-06,-0.005485748028554394,1.5198415494799278e-05,-0.0222834723594858
63,0.04867,444.128,148.158,0.104732,256.074,0.151376,0.00855163,0.0297645,-0.00561678,-0.0230077,0.0614393,1.12066e-05,1.47468e-05,0.0447426,0.030211890483160753,0.06336594825672015,1.1206662794194244e-05,-0.0056010353830248105,1.4746908734597497e-05,-0.022745041118877096
64,0.04967,445.404,147.867,-0.0379377,257.052,-0.0383767,0.0517043,0.0303596,-0.00574043,-0.0234775,0.0626812,8.65872e-06,1.55534e-05,0.0456873,0.030825152037064152,0.06468736279037834,8.658757486790236e-06,-0.00572398521346984,1.5553520954725286e-05,-0.023204047669478367
65,0.05067,447.368,149.312,0.0640221,257.932,0.175328,-0.0222242,0.0309533,-0.00585567,-0.0239492,0.0639184,1.21768e-05,1.45597e-05,0.0466296,0.031437334638251935,0.06600540917098985,1.2176874137459492e-05,-0.00583855897954666,1.4559805992853114e-05,-0.023664693668292713
66,0.05167,448.574,148.863,-0.033875,258.891,-0.0532979,0.0610379,0.0315473,-0.00597994,-0.0244177,0.0651582,9.07322e-06,1.59058e-05,0.0475729,0.032050190415172874,0.06732786229657695,9.073261161729462e-06,-0.005962095745706275,1.5905926497916667e-05,-0.02412199962702366
67,0.05267,450.137,149.419,-0.0413357,259.785,-0.0417705,0.0535674,0.0321404,-0.00609975,-0.0248869,0.066395,9.02595e-06,1.60855e-05,0.0485145,0.03266248093991475,0.06864875006528415,9.025990733935174e-06,-0.006081184292873076,1.6085629372275534e-05,-0.02457977418248969
68,0.05367,452.027,150.765,0.100406,260.63,0.149962,0.010542,0.0327326,-0.00621532,-0.025357,0.0676289,1.21398e-05,1.56285e-05,0.0494545,0.03327420477467702,0.06996816960647334,1.2139873687644354e-05,-0.006196044853059024,1.562862212556304e-05,-0.0250382114665203
69,0.05467,453.535,151.363,0.0474449,261.489,0.179462,-0.0266361,0.0333242,-0.00633346,-0.0258266,0.068863,1.33612e-05,1.50689e-05,0.0503946,0.03388567064799308,0.07128943244212693,1.3361289261215603e-05,-0.006313445917302762,1.5069013536539444e-05,-0.025495946037926487
70,0.05567,454.758,151.023,0.0553241,262.394,-0.0262471,0.0832563,0.033916,-0.0064569,-0.0262932,0.0700979,1.06759e-05,1.68441e-05,0.0513347,0.034497705271065104,0.07261318494500801,1.0675956987560298e-05,-0.006436099015233787,1.6844241862656872e-05,-0.02595054356365467
71,0.05667,456.472,152.313,0.0403584,263.19,0.173828,-0.0256213,0.0345063,-0.00657184,-0.0267629,0.0713285,1.39947e-05,1.53961e-05,0.0522727,0.035108549539434764,0.07393395523368151,1.3994797926297764e-05,-0.006550292687176884,1.5396218520535854e-05,-0.026407947163697987
72,0.05767,457.592,151.9,-0.0179045,264.068,-0.039716,0.0612698,0.035097,-0.00669522,-0.0272289,0.0725612,1.11474e-05,1.67773e-05,0.0532114,0.03572016878360729,0.07525860990346378,1.1147462132488073e-05,-0.006672856950920236,1.677744073957932e-05,-0.026861535366060285
73,0.05867,459.353,153.289,0.05097,264.84,0.179474,-0.0242336,0.0356862,-0.00680964,-0.0276975,0.0737892,1.47252e-05,1.56277e-05,0.0541476,0.036330594920935155,0.07657983854477846,1.4725308416396743e-05,-0.006786506940588022,1.562782211306235e-05,-0.02731744122350288
74,0.05967,460.404,152.81,-0.0257454,265.697,-0.0451137,0.0622663,0.0362757,-0.00693305,-0.0281626,0.0750197,1.17156e-05,1.70046e-05,0.0550848,0.03694169190978158,0.07790538541156344,1.1715668627898523e-05,-0.0069090718547428764,1.7004744579107722e-05,-0.02776973069352029
75,0.06067,462.146,154.23,0.0524854,266.444,0.183991,-0.0250181,0.0368638,-0.00704709,-0.0286304,0.0762453,1.54318e-05,1.58294e-05,0.0560195,0.03755169667311309,0.0792272761410957,1.5431919070829636e-05,-0.007022317486799934,1.5829525285671053e-05,-0.02822443365018823
76,0.06167,463.149,153.71,-0.0265815,267.281,-0.0473342,0.0637784,0.0374522,-0.00717045,-0.0290947,0.0774736,1.23287e-05,1.72382e-05,0.0569552,0.03816237173441972,0.08055370546418095,1.2328775998771135e-05,-0.007144803658612364,1.7238348578585416e-05,-0.028675524316842504
77,0.06267,464.859,155.133,0.0517146,268.006,0.185781,-0.0252009,0.0380392,-0.00728423,-0.0295617,0.0786969,1.60968e-05,1.6041e-05,0.0578883,0.03877195194091487,0.08187635564611773,1.6096929554176853e-05,-0.00725776429639946,1.6041128657606762e-05,-0.02912902694588071
78,0.06367,465.826,154.599,-0.0258277,268.822,-0.0466368,0.0643264,0.0386265,-0.00740741,-0.0300252,0.0799229,1.29843e-05,1.74581e-05,0.0588224,0.039382201890646895,0.08320354946170938,1.298438429642168e-05,-0.007380042753708627,1.7458252393520723e-05,-0.02957892137080398
79,0.06467,467.497,156.002,0.0498793,269.528,0.184677,-0.0243372,0.0392123,-0.00752104,-0.0304913,0.081144,1.67188e-05,1.62686e-05,0.059754,0.03999125035739359,0.08452705721916298,1.6718939759963192e-05,-0.007492827751449549,1.6268732334401292e-05,-0.030031129240322252
80,0.06567,468.439,155.476,-0.0241206,270.324,-0.043138,0.0637847,0.0397985,-0.00764393,-0.030954,0.0823677,1.36806e-05,1.76628e-05,0.0606866,0.040601071949599055,0.08585500531841639,1.368069357976509e-05,-0.007614789463756266,1.7662955988262397e-05,-0.030479830021891696
81,0.06667,470.064,156.836,0.0472528,271.012,0.180848,-0.022433,0.0403833,-0.00775753,-0.0314193,0.0835865,1.73004e-05,1.65121e-05,0.0616166,0.041209793429287656,0.08717925223103906,1.730054965287664e-05,-0.007727518020569923,1.6512236325372243e-05,-0.030930842820717674
82,0.06767,470.991,156.343,-0.021675,271.787,-0.0371165,0.0622325,0.0409684,-0.00788002,-0.0318812,0.0848078,1.44133e-05,1.78535e-05,0.0625476,0.041819183539114846,0.08850783538595253,1.4413403872204356e-05,-0.007849054033262526,1.7853659374678088e-05,-0.031378352504100926
83,0.06867,472.564,157.64,0.0440241,272.46,0.174658,-0.0196112,0.0415521,-0.00799369,-0.0323456,0.0860245,1.78472e-05,1.67694e-05,0.0634762,0.04242747090794463,0.08983302888725286,1.7847359262246343e-05,-0.007961825421807234,1.676954060725322e-05,-0.03182807596332826
84,0.06967,473.484,157.198,-0.0186916,273.214,-0.0290053,0.0598264,0.0421361,-0.00811568,-0.0328068,0.0872435,1.51757e-05,1.80327e-05,0.0644055,0.04303642634863625,0.09116234540327373,1.5175815151424743e-05,-0.008082836777486335,1.8032862590056098e-05,-0.032274493902804235
85,0.07067,475.001,158.417,0.0403908,273.873,0.166602,-0.0160544,0.0427187,-0.00822949,-0.0332702,0.088458,1.83665e-05,1.7038e-05,0.0653326,0.043644276420159445,0.09248836713547148,1.8366668665281694e-05,-0.008195720446065757,1.7038145147640904e-05,-0.03272283401390286
86,0.07167,476.207,158.871,0.0162901,274.562,0.183365,-0.0307866,0.043301,-0.00834631,-0.0337326,0.0896728,1.93924e-05,1.67389e-05,0.0662596,0.0442521674526164,0.09381632844425636,1.93925880338508e-05,-0.008311576254733666,1.6739040096247493e-05,-0.03316999958280775
87,0.07267,477.179,158.504,0.0567334,275.294,-0.00936705,0.0817446,0.0438834,-0.00846779,-0.0341922,0.0908882,1.69472e-05,1.85085e-05,0.0671864,0.04486051704914784,0.09514656102843744,1.6947343604689635e-05,-0.008432039247379897,1.85086712833904e-05,-0.03361425255384676
88,0.07367,478.209,158.636,-0.0438213,275.979,-0.0626517,0.0711225,0.0444649,-0.00858683,-0.0346527,0.0921016,1.60083e-05,1.8693e-05,0.0681122,0.045468280129801864,0.09647621840557785,1.600842813354042e-05,-0.008550068472189087,1.8693174715256333e-05,-0.03405917074027087
89,0.07467,479.858,160.182,0.137626,276.596,0.205848,0.00479431,0.0450453,-0.00869887,-0.0351145,0.093311,2.02754e-05,1.79115e-05,0.0690357,0.04607524604405877,0.09780309894705108,2.027560554740404e-05,-0.008661144299933365,1.7911660411984442e-05,-0.03450513923317233
90,0.07567,480.546,159.463,-0.0352334,277.308,-0.048355,0.0656092,0.045626,-0.00882123,-0.0355733,0.0945237,1.68869e-05,1.89575e-05,0.0699607,0.04668287834840101,0.09913521232883804,1.6887042584512457e-05,-0.008782437101471974,1.895767969450901e-05,-0.03494800667373277
91,0.07667,482.05,160.815,0.0488078,277.914,0.18443,-0.0200304,0.0462053,-0.00893373,-0.0360345,0.0957312,2.06064e-05,1.78254e-05,0.0708828,0.047289397401109934,0.10046321972082906,2.0606612313400774e-05,-0.008893942804984567,1.7825558873418856e-05,-0.035392986032927176
92,0.07767,482.845,160.291,-0.0189112,278.608,-0.0303472,0.0624207,0.046785,-0.00905515,-0.0364923,0.0969413,1.77914e-05,1.9127e-05,0.071806,0.047896687070687394,0.10179569631537655,1.7791558267976626e-05,-0.009014275596897603,1.912718292218507e-05,-0.03583448205777051
93,0.07867,484.255,161.479,0.0367262,279.206,0.16676,-0.0145679,0.0473633,-0.00916818,-0.0369525,0.0981469,2.09832e-05,1.81248e-05,0.0727267,0.048502860983113516,0.10312482224297637,2.0983420148779075e-05,-0.009126280383257135,1.8124964255239462e-05,-0.03627808894735307
94,0.07967,485.356,161.888,0.0127325,279.836,0.18076,-0.0279791,0.0479413,-0.0092843,-0.0374115,0.0993528,2.19422e-05,1.7855e-05,0.0736475,0.04910907081452609,0.10445588286782104,2.194244073172591e-05,-0.009241333959439046,1.785515940144755e-05,-0.036720335801108894
95,0.08067,486.244,161.533,0.0577179,280.508,-0.0016417,0.0802879,0.0485193,-0.00940478,-0.0378679,0.100559,1.96588e-05,1.95539e-05,0.074568,0.04971563113650301,0.10578888132348796,1.9658993235527333e-05,-0.009360693373168139,1.9554091178708433e-05,-0.03715987632907114
96,0.08167,487.188,161.658,-0.0370347,281.135,-0.0492941,0.0684552,0.0490966,-0.00952287,-0.0383252,0.101764,1.88535e-05,1.97024e-05,0.0754875,0.050321806926164614,0.10712216006459463,1.8853677728358775e-05,-0.009477671061804194,1.9702594093562453e-05,-0.037600082456823225
97,0.08267,488.693,163.058,0.126102,281.703,0.193533,0.00952909,0.0496727,-0.00963467,-0.0387836,0.102964,2.27257e-05,1.90304e-05,0.0764048,0.05092707164889787,0.10845150410357429,2.272595823060719e-05,-0.00958840526802196,1.9030581079215736e-05,-0.03804114547965676
98,0.08367,489.345,162.446,-0.0268937,282.355,-0.0290791,0.0607182,0.0502491,-0.00975559,-0.0392393,0.104168,1.98178e-05,1.99272e-05,0.0773234,0.05153300062495125,0.10978688345156695,1.9817996373960867e-05,-0.00970815859762475,1.992739854794756e-05,-0.03847941026344648
99,0.08467,490.693,163.605,0.0390911,282.915,0.165525,-0.0115028,0.0508242,-0.00986811,-0.039697,0.105367,2.29607e-05,1.89975e-05,0.0782394,0.052137911178968155,0.11111831595910782,2.2960963598883666e-05,-0.00981957996693561,1.899768045365846e-05,-0.038919397538599965
100,0.08567,491.723,163.981,0.0124881,283.508,0.176983,-0.0245281,0.051399,-0.00998372,-0.0401535,0.106566,2.38577e-05,1.87475e-05,0.0791555,0.05274285389419431,0.11245134581164229,2.385798459725308e-05,-0.009934048108337201,1.8747675735397706e-05,-0.03935803070798538
101,0.08667,492.561,163.648,0.0584753,284.141,0.00520813,0.0785412,0.0519738,-0.0101034,-0.0406076,0.107766,2.17352e-05,2.03668e-05,0.0800712,0.05334814443044733,0.11378708871206733,2.1735436211089976e-05,-0.010052532111235468,2.036700740459807e-05,-0.03979415919577334
102,0.08767,493.451,163.771,-0.0325637,284.73,-0.0383979,0.0657185,0.0525479,-0.0102208,-0.0410625,0.108963,2.10294e-05,2.04855e-05,0.080986,0.053953045220322515,0.11512109009780436,2.102962111938389e-05,-0.010168745122128398,2.0485709829376475e-05,-0.04023085749819566
103,0.08867,494.858,165.062,0.118518,285.267,0.183889,0.0133059,0.0531208,-0.0103324,-0.0415184,0.110158,2.45905e-05,1.99083e-05,0.0818987,0.05455702791425221,0.11645445632812046,2.459080234884503e-05,-0.010279204126445673,1.9908498171572475e-05,-0.04066831652390035
104,0.08967,495.806,165.394,0.0390298,285.834,0.192586,-0.0226916,0.0536935,-0.0104476,-0.0419735,0.111353,2.55092e-05,1.938e-05,0.0828116,0.05516114569675401,0.11778941688350142,2.5509525362510388e-05,-0.010393213395070267,1.9380187793460735e-05,-0.04110480904164415
105,0.09067,496.562,164.946,0.0673337,286.449,-0.00264876,0.0852314,0.0542663,-0.0105673,-0.0424259,0.112548,2.3059e-05,2.10817e-05,0.0837244,0.05576571513316564,0.11912597367030431,2.3059265860769784e-05,-0.010511662238122277,2.108192222061156e-05,-0.04153851511432305
106,0.09167,497.401,165.041,-0.0347412,287.017,-0.0487514,0.0705969,0.0548382,-0.0106844,-0.0428792,0.113742,2.228e-05,2.11933e-05,0.084636,0.056369680233009145,0.12046300813359756,2.2280248201056452e-05,-0.01062752453860405,2.1193524579521394e-05,-0.04197288724753978
107,0.09267,498.8,166.397,0.121639,287.528,0.192297,0.0113372,0.055409,-0.0107953,-0.0433335,0.114931,2.6103e-05,2.05227e-05,0.0855455,0.05697282816853089,0.12179603097530411,2.6103340686312038e-05,-0.01073723986230557,2.052291059206901e-05,-0.042408020116948
108,0.09367,499.711,166.719,0.0407339,288.073,0.201649,-0.0255605,0.0559796,-0.0109101,-0.0437871,0.116122,2.70584e-05,1.99721e-05,0.0864554,0.0575761089639264,0.12313288598733019,2.705876608177782e-05,-0.010850800708652075,1.9972299443615782e-05,-0.042842285340224384
109,0.09467,500.411,166.202,0.066025,288.671,-0.00759737,0.0877477,0.0565503,-0.0110297,-0.0442378,0.117313,2.44115e-05,2.17458e-05,0.087365,0.05817983990755082,0.12447133414220368,2.4411797963086457e-05,-0.010969095878695212,2.1746036441561145e-05,-0.04327357912286689
110,0.09567,501.216,166.286,-0.035115,289.219,-0.0538279,0.0734469,0.0571201,-0.0111464,-0.0446894,0.118502,2.36116e-05,2.1869e-05,0.0882735,0.05878296259366533,0.1258091257179852,2.3611878755991356e-05,-0.011084509050716562,2.1869239128280427e-05,-0.0437055392306015
111,0.09667,502.589,167.662,0.11954,289.708,0.195605,0.0099819,0.0576889,-0.0112567,-0.0451423,0.119688,2.75453e-05,2.11401e-05,0.0891799,0.059385369651114184,0.12714512743350292,2.754567937524044e-05,-0.011193580413972004,2.1140323453572307e-05,-0.044138546929888944
112,0.09767,503.466,167.972,0.0394576,290.234,0.204422,-0.0263767,0.0582574,-0.0113711,-0.0455942,0.120874,2.84961e-05,2.05935e-05,0.0900866,0.05998780145877691,0.12848271458703397,2.8496506017772205e-05,-0.011306693398186574,2.0593712047656254e-05,-0.044570403135272496
113,0.09867,504.13,167.433,0.0655554,290.813,-0.0076908,0.0882088,0.058826,-0.0114904,-0.0460433,0.122061,2.58123e-05,2.23801e-05,0.0909932,0.06059068190535455,0.1298230188824776,2.5812633140276375e-05,-0.011424637474160115,2.2380350436224106e-05,-0.04499939023096189
114,0.09967,504.906,167.513,-0.0336251,291.342,-0.0525878,0.0738179,0.0593938,-0.0116066,-0.0464933,0.123246,2.50361e-05,2.24998e-05,0.0918985,0.0611930562924452,0.13116265273614935,2.5036413405787883e-05,-0.011539503257454342,2.250005312243175e-05,-0.04542904382604862
115,0.1007,506.24,168.863,0.116029,291.814,0.193813,0.0105146,0.0599605,-0.0117167,-0.0469446,0.124427,2.89169e-05,2.17745e-05,0.0928018,0.061794604830125444,0.13249934499044302,2.8917318097620992e-05,-0.011648326767301653,2.1774737066104777e-05,-0.045859744503651934
116,0.1017,507.084,169.155,0.0364361,292.323,0.200817,-0.0247403,0.0605269,-0.0118307,-0.0473949,0.125609,2.98214e-05,2.12486e-05,0.0937054,0.06239617564307287,0.13383875064902284,2.9821844662381025e-05,-0.01176099243598494,2.1248825753161782e-05,-0.04628929713966756
117,0.1027,507.731,168.642,0.0662814,292.882,-0.00290838,0.0867426,0.0610934,-0.0119494,-0.0478424,0.126791,2.72615e-05,2.29864e-05,0.0946088,0.06299819358205583,0.1351797404211179,2.7261871597961118e-05,-0.011878289444467671,2.2986664189206252e-05,-0.04671598720017589
118,0.1037,508.482,168.723,-0.0305627,293.393,-0.0452869,0.0717725,0.0616591,-0.0120652,-0.0482909,0.127972,2.65481e-05,2.30873e-05,0.095511,0.06359970178071817,0.13652117965850952,2.6548452404018263e-05,-0.01199270731362756,2.308756651370203e-05,-0.04714343921663666
119,0.1047,509.762,170.005,0.111576,293.85,0.18737,0.0128628,0.0622238,-0.0121751,-0.0487405,0.129149,3.02235e-05,2.24251e-05,0.0964113,0.0642004861478147,0.13785965262378874,3.0223956734687363e-05,-0.012101283348731284,2.2425351444477215e-05,-0.04757174723550739
120,0.1057,510.573,170.276,0.0321259,294.343,0.191567,-0.0208793,0.0627882,-0.0122889,-0.0491892,0.130327,3.10472e-05,2.19334e-05,0.0973118,0.06480129043321714,0.13920084109949626,3.104768196937613e-05,-0.012213699826067348,2.1933640538707166e-05,-0.04799900592986628
121,0.1067,511.22,169.829,0.0678778,294.882,0.00600725,0.0836126,0.0633526,-0.0124069,-0.0496352,0.131505,2.875e-05,2.35682e-05,0.098212,0.06540243390826861,0.1405436104261666,2.8750413285205667e-05,-0.01233025173279012,2.3568477732105464e-05,-0.04842350370318149
122,0.1077,511.949,169.916,-0.0264179,295.376,-0.0330297,0.0677094,0.0639163,-0.0125222,-0.0500822,0.132681,2.81289e-05,2.36384e-05,0.0991111,0.06600317056198124,0.14188567869349833,2.812929562123756e-05,-0.012444123489932402,2.3638679389259565e-05,-0.04884876334441546
123,0.1087,513.165,171.094,0.106571,295.822,0.17731,0.0166586,0.0644789,-0.0126321,-0.05053,0.133854,3.14778e-05,2.30877e-05,0.100008,0.06660307268238252,0.14322589647866635,3.1478295431153214e-05,-0.012552649917124459,2.3087966523061e-05,-0.04927459351769825
124,0.1097,513.944,171.342,0.0270615,296.3,0.1781,-0.0153214,0.0650413,-0.0127456,-0.0509771,0.135027,3.21974e-05,2.26395e-05,0.100906,0.06720309896203336,0.14456768726167946,3.219791834174757e-05,-0.012664718831327693,2.263975627547765e-05,-0.049699567836848146
125,0.1107,514.602,170.992,0.069927,296.818,0.0178213,0.0792755,0.0656037,-0.0128627,-0.0514217,0.136201,3.02631e-05,2.4131e-05,0.101803,0.06780346279137417,0.1459121988003722,3.0263557932119767e-05,-0.012780329023643677,2.413129115486079e-05,-0.050121977500361625
126,0.1117,515.646,172.017,0.0360941,297.248,0.210184,-0.0174264,0.0661647,-0.0129725,-0.0518691,0.137371,3.35089e-05,2.28762e-05,0.102698,0.06840266859551303,0.14725370069854726,3.350946142943734e-05,-0.012888719792754744,2.2876461662324488e-05,-0.050546857874800954
127,0.1127,516.406,172.177,-0.00304202,297.722,0.185549,-0.0274265,0.0667257,-0.0130861,-0.0523147,0.138542,3.39339e-05,2.26547e-05,0.103593,0.06900221064841694,0.14859792166983965,3.393447576138797e-05,-0.013000849265111691,2.2654956619572175e-05,-0.05096983994752713
128,0.1137,517.071,171.839,0.0710389,298.23,0.0261888,0.0759724,0.0672866,-0.0132028,-0.0527581,0.139712,3.20435e-05,2.4241e-05,0.104488,0.06960198217857072,0.14994256770273218,3.204401339851337e-05,-0.013116025345347393,2.4241293815396858e-05,-0.051390546642927415
129,0.1147,518.067,172.792,0.0244232,298.652,0.203579,-0.0177358,0.0678461,-0.0133126,-0.0532042,0.140879,3.50699e-05,2.30218e-05,0.105381,0.07020059193306283,0.15128533403100208,3.507051495610369e-05,-0.013224379257025909,2.3022065003708292e-05,-0.051813626944992364
130,0.1157,518.811,172.941,-0.00774278,299.117,0.176728,-0.0242068,0.0684055,-0.013426,-0.0536486,0.142046,3.54271e-05,2.28569e-05,0.106274,0.07079942962347596,0.15262966828228253,3.5427727547165944e-05,-0.013336273267907872,2.2857161220857236e-05,-0.052234907353737814
131,0.1167,519.482,172.662,0.070318,299.611,0.0334466,0.0727562,0.0689649,-0.0135421,-0.0540909,0.143214,3.37656e-05,2.43487e-05,0.107166,0.07139860239740736,0.15397672626355652,3.3766170064231105e-05,-0.013450818277115029,2.4348996431999836e-05,-0.05265401116257562
132,0.1177,520.43,173.525,0.0202376,300.027,0.189915,-0.0124569,0.069523,-0.0136521,-0.0545357,0.144378,3.64709e-05,2.32549e-05,0.108057,0.0719967168457174,0.1553207372355634,3.6471565071360956e-05,-0.0135593327187008,2.325517039736269e-05,-0.05307529695750379
133,0.1187,521.157,173.668,-0.0107987,300.482,0.163151,-0.0182856,0.0700809,-0.0137652,-0.0549788,0.145542,3.67712e-05,2.31206e-05,0.108947,0.07259495067585564,0.15666631354719263,3.677187606876409e-05,-0.013670892849325988,2.3120867283177304e-05,-0.053494786348683876
134,0.1197,521.843,173.477,0.0706931,300.961,0.0425918,0.0690037,0.0706388,-0.0138806,-0.0554201,0.146706,3.54289e-05,2.44761e-05,0.109837,0.07319351835376597,0.15801345702156033,3.542952761081963e-05,-0.013784708660992573,2.4476399542283644e-05,-0.053912386949118596
135,0.1207,522.735,174.222,0.0150978,301.374,0.171756,-0.00550245,0.0711954,-0.0139909,-0.0558635,0.147867,3.77164e-05,2.3541e-05,0.110726,0.07379102413651539,0.15935869140261483,3.771711127242838e-05,-0.013893482208655827,2.3541277091476687e-05,-0.0543317892083931
136,0.1217,523.251,173.638,0.0422653,301.864,-0.0417033,0.0997707,0.0717524,-0.014108,-0.0563035,0.14903,3.48792e-05,2.52288e-05,0.111615,0.07438929233918623,0.16070780992106992,3.487980828631443e-05,-0.0140089485212046,2.522911824875962e-05,-0.05474779169388311
137,0.1227,523.94,173.808,-0.0294342,302.301,-0.0542822,0.0782216,0.0723085,-0.0142215,-0.0567446,0.15019,3.45111e-05,2.52575e-05,0.112502,0.07498692638140003,0.16205501220683782,3.451169551493827e-05,-0.014120852154896113,2.5257818973445367e-05,-0.05516465049799868
138,0.1237,525.082,175.029,0.0917199,302.69,0.175918,0.0145714,0.0728637,-0.0143297,-0.0571867,0.151347,3.80822e-05,2.45408e-05,0.113388,0.07558392483436216,0.1634002879479064,3.80829251360737e-05,-0.01422751850793924,2.45411011279284e-05,-0.055582269884446034
139,0.1247,525.784,175.264,0.0214253,303.117,0.179509,-0.0151933,0.0734185,-0.0144417,-0.0576279,0.152505,3.88172e-05,2.41217e-05,0.114274,0.07618082436047824,0.16474828582148415,3.881795339721883e-05,-0.014337918843332131,2.4121990930492387e-05,-0.055998855081521026
140,0.1257,526.356,174.883,0.0656795,303.585,0.018395,0.0793585,0.0739735,-0.0145574,-0.0580668,0.153663,3.68692e-05,2.55995e-05,0.115159,0.0767782704939648,0.1660978455807567,3.686987967732591e-05,-0.014451953349098545,2.559982766991986e-05,-0.05641308627434083
141,0.1267,527.311,175.87,0.0325728,303.967,0.208305,-0.0154514,0.074527,-0.0146658,-0.0585082,0.154818,4.00513e-05,2.43784e-05,0.116043,0.07737443223922602,0.1674454666937819,4.005210206403653e-05,-0.014558780967194096,2.4378697155658102e-05,-0.05682949363019507
142,0.1277,527.982,175.984,-0.00539138,304.393,0.179109,-0.0227089,0.0750805,-0.0147781,-0.058948,0.155973,4.03686e-05,2.42106e-05,0.116927,0.07797092405135087,0.16879464520841903,4.036941482299383e-05,-0.014669439802481476,2.421089307902413e-05,-0.0572442088163424
143,0.1287,528.585,175.682,0.0691465,304.85,0.0354135,0.0728505,0.0756339,-0.0148931,-0.0593857,0.157127,3.87037e-05,2.56757e-05,0.11781,0.07856763825631274,0.17014421277970815,3.8704448997783913e-05,-0.014782746301655658,2.5676029623555863e-05,-0.057656762732132605
144,0.1297,529.463,176.507,0.0187006,305.231,0.187956,-0.0104003,0.0761861,-0.015002,-0.0598258,0.158279,4.13341e-05,2.46155e-05,0.118691,0.07916338777746246,0.17149299566260634,4.1334954265614954e-05,-0.014890030618846306,2.4615802963978695e-05,-0.058071396743947346
145,0.1307,530.124,176.617,-0.0119475,305.649,0.158216,-0.0145743,0.0767382,-0.0151141,-0.0602643,0.159431,4.15607e-05,2.4516e-05,0.119573,0.07975935838640247,0.17284333323871692,4.1561563657754874e-05,-0.015000455256997336,2.4516300519694667e-05,-0.05848434189163476
146,0.1317,530.762,176.451,0.0688699,306.09,0.0491502,0.066743,0.07729,-0.0152281,-0.0607011,0.160583,4.03814e-05,2.57807e-05,0.120454,0.0803553340149139,0.17419522730007864,4.038221533964048e-05,-0.01511273880481423,2.578103232520057e-05,-0.05889550612629024
147,0.1327,531.569,177.106,0.0118286,306.471,0.161067,-0.000237928,0.0778408,-0.0153375,-0.0611398,0.161732,4.23957e-05,2.49584e-05,0.121333,0.08095055764242809,0.17554515300004647,4.239659871041468e-05,-0.015220479577661261,2.4958711463352046e-05,-0.059308278119595825
148,0.1337,532.069,176.624,0.0458116,306.92,-0.0229602,0.0933497,0.0783919,-0.0154529,-0.0615754,0.162882,4e-05,2.64662e-05,0.122213,0.08154643367330405,0.176897807553291,4.000080001076434e-05,-0.015334116577336965,2.6466550232973063e-05,-0.059717954199718815
149,0.1347,532.706,176.791,-0.0224305,307.322,-0.0319448,0.0710117,0.0789421,-0.0155651,-0.062012,0.16403,3.97654e-05,2.64504e-05,0.123091,0.08214166425402802,0.1782496620523768,3.976619065393372e-05,-0.015444589891788207,2.645074981488804e-05,-0.06012839173588125
150,0.1357,533.726,177.827,0.083319,307.686,0.158944,0.021307,0.0794915,-0.015673,-0.0624493,0.165175,4.27645e-05,2.59295e-05,0.123968,0.08273635623129705,0.17959953056767564,4.276541441416981e-05,-0.015550817689446106,2.592983617244471e-05,-0.06053930773684324
151,0.1367,534.044,177.127,-0.0384431,308.128,-0.0602679,0.0827008,0.0800411,-0.0157888,-0.062884,0.166323,3.97819e-05,2.6988e-05,0.124846,0.08333159168840232,0.18095448842576922,3.978269131033052e-05,-0.015664810304457877,2.698836417924788e-05,-0.06094760255046283
152,0.1377,534.728,177.371,-0.0511912,308.522,-0.055368,0.0733603,0.0805899,-0.0159006,-0.0633193,0.167467,3.96357e-05,2.71414e-05,0.125722,0.08392628723545292,0.18230627343412564,3.9636485504646046e-05,-0.01577485282717417,2.7141768331073735e-05,-0.061356283103296994
153,0.1387,535.79,178.534,0.0732633,308.872,0.166281,0.0150241,0.0811377,-0.0160076,-0.0637557,0.168609,4.30458e-05,2.64917e-05,0.126596,0.08452022472022502,0.18365723845258963,4.3046726483808584e-05,-0.015880159283925832,2.649205090810014e-05,-0.06176581785436863
154,0.1397,536.43,178.748,0.0160608,309.259,0.169248,-0.00983049,0.0816853,-0.0161182,-0.0641911,0.169752,4.37125e-05,2.61541e-05,0.127471,0.08511427063020749,0.18501093216471975,4.371345540521432e-05,-0.01598899691947675,2.6154442021475433e-05,-0.062174236098171076
155,0.1407,536.959,178.426,0.0611279,309.682,0.0283078,0.0748637,0.0822329,-0.016232,-0.0646244,0.170895,4.20496e-05,2.74818e-05,0.128345,0.08570864192881356,0.18636617403336575,4.205048409677836e-05,-0.016100971000181263,2.74821776280465e-05,-0.06258050797651082
156,0.1417,537.809,179.279,0.0274302,310.03,0.190636,-0.00724562,0.0827793,-0.0163396,-0.0650599,0.172034,4.47974e-05,2.64497e-05,0.129218,0.08630203523105018,0.1877182149467207,4.479840341842234e-05,-0.01620683284023261,2.645004979640042e-05,-0.06298866528258273
157,0.1427,538.411,179.365,-0.00904161,310.418,0.159883,-0.0127714,0.0833255,-0.0164507,-0.0654939,0.173174,4.50016e-05,2.63404e-05,0.13009,0.08689553547285445,0.18907298578441578,4.500261258710836e-05,-0.016316126189745983,2.6340746911435176e-05,-0.0633952399687614
158,0.1437,538.992,179.181,0.0673513,310.828,0.0509764,0.0667237,0.0838716,-0.0165635,-0.0659262,0.174314,4.38247e-05,2.75746e-05,0.130962,0.087489251224107,0.19042930194153063,4.382566031613244e-05,-0.016427079472829065,2.757498018279847e-05,-0.0638000467012434
159,0.1447,539.745,179.807,0.0113791,311.18,0.160031,0.00152212,0.0844167,-0.0166719,-0.0663603,0.175451,4.57854e-05,2.67809e-05,0.131833,0.08808220320933047,0.1917835898246012,4.5786448167328686e-05,-0.016533692998856653,2.6781258611441316e-05,-0.06420636290365811
160,0.1457,540.201,179.334,0.0452014,311.598,-0.0175607,0.0916826,0.084962,-0.0167861,-0.0667914,0.176589,4.34896e-05,2.82297e-05,0.132703,0.08867569623590787,0.1931406115487324,4.3490545686308835e-05,-0.01664599843835357,2.8230098461756725e-05,-0.06460969659578641
161,0.1467,540.795,179.5,-0.0192028,311.97,-0.0230895,0.0689906,0.0855064,-0.016897,-0.0672236,0.177725,4.33332e-05,2.81952e-05,0.133573,0.08926853264036638,0.1944967894466525,4.33341388965669e-05,-0.016755046350308223,2.8195597488345214e-05,-0.06501388493352622
162,0.1477,541.737,180.449,0.0769864,312.308,0.151631,0.0241261,0.08605,-0.0170041,-0.0676563,0.178858,4.60903e-05,2.77428e-05,0.134441,0.08986081998382445,0.1958509212799222,4.609136217426091e-05,-0.01686034624593402,2.7743184835005152e-05,-0.06541836590974537
163,0.1487,542.047,179.836,-0.0299994,312.717,-0.0438155,0.0788385,0.0865938,-0.0171183,-0.0680867,0.179993,4.34686e-05,2.8696e-05,0.13531,0.09045364747291695,0.19720898262959996,4.346954477330023e-05,-0.016972614383760076,2.8696411734197014e-05,-0.06582052329458044
164,0.1497,542.686,180.074,-0.0429096,313.082,-0.0363695,0.0680886,0.0871369,-0.0172288,-0.0685176,0.181126,4.34283e-05,2.88064e-05,0.136177,0.09104603369677777,0.19856618911920987,4.3429243022252706e-05,-0.017081232908586652,2.880681490835535e-05,-0.06622297451674997
165,0.1507,543.647,181.084,0.0667867,313.411,0.153065,0.0204531,0.0876791,-0.0173353,-0.0689493,0.182256,4.63734e-05,2.83072e-05,0.137042,0.09163775925855155,0.19992133442581395,4.637447526278926e-05,-0.01718590818322463,2.8307600652643927e-05,-0.06662599905954436
166,0.1517,543.941,180.436,-0.0318165,313.816,-0.0511315,0.0815946,0.0882215,-0.0174495,-0.0693785,0.183389,4.36151e-05,2.93473e-05,0.137909,0.09223002418690185,0.20128161575157466,4.3616051152328694e-05,-0.017298139144000246,2.9347730636120062e-05,-0.0670265172234017
167,0.1527,544.576,180.685,-0.041782,314.174,-0.0402996,0.0705602,0.0887631,-0.0175597,-0.0698082,0.184519,4.36039e-05,2.94615e-05,0.138774,0.09282173618914769,0.20263983122459073,4.360485066379205e-05,-0.017406426922300433,2.94619339942237e-05,-0.06742732980819965
168,0.1537,545.529,181.71,0.0643663,314.496,0.154098,0.0196247,0.0893039,-0.0176658,-0.0702389,0.185646,4.66126e-05,2.89184e-05,0.139637,0.0934128940187482,0.20399597035524164,4.661368638414487e-05,-0.017510674569968465,2.89188181410438e-05,-0.06782890237239192
169,0.1547,545.812,181.049,-0.0301549,314.895,-0.0530087,0.0832039,0.089845,-0.0177797,-0.0706669,0.186776,4.38111e-05,2.99921e-05,0.140502,0.09400469983432558,0.2053572547825926,4.3812059720149676e-05,-0.017622573731356672,2.9992549767543508e-05,-0.06822778623494086
170,0.1557,546.438,181.3,-0.0403844,315.246,-0.0404589,0.0713785,0.0903852,-0.0178896,-0.0710956,0.187903,4.38217e-05,3.00978e-05,0.141364,0.0945958408259826,0.20671645817598105,4.382266018465586e-05,-0.01773053107813871,3.0098252943311365e-05,-0.06862715137294817
171,0.1567,547.378,182.319,0.0630579,315.562,0.15366,0.0198198,0.0909245,-0.0179955,-0.0715251,0.189027,4.68229e-05,2.95476e-05,0.142226,0.09518631557014334,0.20807357002895377,4.6823996209033325e-05,-0.017834547907109255,2.9548036534654543e-05,-0.06902709011843977
172,0.1577,547.655,181.664,-0.0285749,315.954,-0.0513898,0.0832441,0.0914642,-0.0181091,-0.071952,0.190154,4.40534e-05,3.06173e-05,0.143088,0.09577754715414866,0.2094358364353086,4.405437036525406e-05,-0.01794611556530401,3.061776871438049e-05,-0.06942443763380657
173,0.1587,548.272,181.916,-0.0389083,316.3,-0.0378869,0.0709603,0.092003,-0.0182186,-0.0723796,0.191278,4.4086e-05,3.07144e-05,0.143948,0.09636811118021682,0.2107960065878871,4.408697180191545e-05,-0.01805364457832881,3.0714871692039125e-05,-0.06982226668236213
174,0.1597,549.194,182.913,0.06178,316.61,0.151943,0.0205972,0.092541,-0.0183243,-0.072808,0.192399,4.70247e-05,3.01814e-05,0.144808,0.09695811592107595,0.21215406996357755,4.702580567861325e-05,-0.018157430822897225,3.0181855463107254e-05,-0.07022066947934313
175,0.1607,549.472,182.281,-0.0266042,316.996,-0.0470598,0.0822134,0.0930792,-0.0184375,-0.0732339,0.193523,4.4347e-05,3.12233e-05,0.145668,0.0975486576795972,0.21351729712836098,4.4347983342740704e-05,-0.018268569111182242,3.122378745223919e-05,-0.07061657818146927
176,0.1617,550.078,182.531,-0.037222,317.335,-0.0332309,0.0696471,0.0936166,-0.0185468,-0.0736605,0.194644,4.44011e-05,3.13109e-05,0.146526,0.09813863884197382,0.2148784127812291,4.4402085743522335e-05,-0.018375866492669646,3.1311390191302024e-05,-0.07101296859313078
177,0.1627,550.979,183.494,0.0605813,317.641,0.149285,0.0218167,0.0941532,-0.0186524,-0.0740877,0.195763,4.72359e-05,3.08131e-05,0.147383,0.09872805816263708,0.216238622620603,4.723701563258409e-05,-0.018479520528138615,3.081357472844992e-05,-0.07140974709502546
178,0.1637,551.261,182.896,-0.0243629,318.019,-0.0407405,0.0803949,0.0946901,-0.0187651,-0.0745126,0.196883,4.46939e-05,3.18094e-05,0.148241,0.09931812364596904,0.2176015729876699,4.4694898787334125e-05,-0.018590131653121178,3.1809905924218285e-05,-0.07180422128150898
179,0.1647,551.858,183.141,-0.0354271,318.354,-0.02711,0.0676938,0.0952261,-0.0188741,-0.0749381,0.198001,4.47678e-05,3.18872e-05,0.149097,0.09990751610331117,0.21896361278464616,4.476880209280942e-05,-0.018697099498917402,3.188770840223398e-05,-0.07219908457223112
180,0.1657,552.734,184.062,0.0594805,318.656,0.146012,0.023333,0.0957614,-0.0189795,-0.0753642,0.199117,4.74705e-05,3.14372e-05,0.149952,0.1004964542119029,0.22032473554174392,4.7471626742012774e-05,-0.018800523374096323,3.1437694153924056e-05,-0.07259433632792811
181,0.1667,553.024,183.506,-0.0220057,319.026,-0.0331175,0.0780423,0.0962968,-0.0190918,-0.0757881,0.200235,4.50928e-05,3.2376e-05,0.150807,0.1010858177720344,0.22168982153696315,4.509381669559609e-05,-0.018910705888457446,3.237652410836844e-05,-0.07298738027720808
182,0.1677,553.61,183.746,-0.0336159,319.355,-0.0200951,0.0653347,0.0968315,-0.0192005,-0.0762125,0.20135,4.51843e-05,3.24444e-05,0.151662,0.10167472578932446,0.22305276538796992,4.518532082586901e-05,-0.01901734449881387,3.244492632514806e-05,-0.07338072096022163
183,0.1687,554.461,184.62,0.0584761,319.655,0.142414,0.0250131,0.0973653,-0.0193059,-0.0766375,0.202463,4.77384e-05,3.20495e-05,0.152514,0.1022629567428246,0.22441478093689793,4.773953949555043e-05,-0.01912073462194852,3.205001359063431e-05,-0.07377445048036402
184,0.1697,554.759,184.11,-0.0196531,320.017,-0.0247976,0.0753842,0.0978994,-0.0194176,-0.0770603,0.203578,4.55402e-05,3.29242e-05,0.153368,0.10285183263332898,0.22578076481213416,4.55412369706476e-05,-0.019230292716957642,3.292474200744522e-05,-0.07416597586840146
185,0.1707,555.74,185.376,0.0875285,320.292,0.234479,-0.00437766,0.0984321,-0.0195208,-0.0774854,0.204689,4.9637e-05,3.19479e-05,0.154219,0.10343947831010247,0.22714336402554647,4.963823193637751e-05,-0.01933150292821262,3.1948410339488476e-05,-0.07455946427017446
186,0.1717,556.204,185.387,0.0133426,320.621,0.197649,-0.0191421,0.0989648,-0.0196291,-0.0779089,0.2058,4.98626e-05,3.17029e-05,0.15507,0.10402743710912055,0.2285074779279388,4.9863843160080634e-05,-0.019437703575576615,3.170340254232684e-05,-0.07495130535884909
187,0.1727,556.604,184.961,0.0663817,320.984,0.0384218,0.0752914,0.0994975,-0.0197403,-0.0783304,0.206912,4.79926e-05,3.31318e-05,0.155921,0.10461570919722818,0.22987433807678892,4.79937516633111e-05,-0.019546736040621626,3.313234886404004e-05,-0.0753411312220682
188,0.1737,557.323,185.741,0.0179503,321.269,0.193918,-0.00774567,0.100029,-0.0198451,-0.0787543,0.208021,5.06297e-05,3.20904e-05,0.156771,0.10520296849700062,0.23123902529691276,5.063098170499103e-05,-0.019649482158693887,3.20909149023052e-05,-0.07573301105174512
189,0.1747,557.583,184.962,0.0342389,321.645,-0.0512033,0.105417,0.100561,-0.0199579,-0.0791745,0.209131,4.73598e-05,3.38427e-05,0.157621,0.105791092903462,0.23260645940051838,4.736092149304483e-05,-0.019760059460429358,3.3843272670530666e-05,-0.07612130645392379
190,0.1757,558.107,185.157,-0.0187155,321.959,-0.0427866,0.0807714,0.101092,-0.0200661,-0.0795961,0.210239,4.73135e-05,3.38091e-05,0.158469,0.10637842389637209,0.23397294425034243,4.731461930118641e-05,-0.019866115684250563,3.380967153399084e-05,-0.0765107316145307
191,0.1767,558.976,186.17,0.0646655,322.236,0.158011,0.0207076,0.101622,-0.02017,-0.0800185,0.211344,5.03995e-05,3.31567e-05,0.159316,0.10696495987934274,0.23533723798720896,5.040077007611998e-05,-0.019967946304638606,3.315724968944167e-05,-0.07690073110780504
192,0.1777,559.192,185.485,-0.0222364,322.594,-0.0506099,0.0862208,0.102153,-0.0202819,-0.0804382,0.212452,4.75874e-05,3.42471e-05,0.160164,0.10755291436113867,0.2367067502165654,4.7588532298359354e-05,-0.020077605755886352,3.424768643855991e-05,-0.07728807458124543
193,0.1787,559.756,185.743,-0.032493,322.903,-0.0305259,0.0711293,0.102682,-0.0203895,-0.0808587,0.213557,4.7733e-05,3.43006e-05,0.16101,0.10813896484952301,0.23807406647866225,4.7734139237753936e-05,-0.02018303973305735,3.430118827241202e-05,-0.07767599338024056
194,0.1797,560.589,186.656,0.0547161,323.181,0.145091,0.0235382,0.103211,-0.0204937,-0.0812799,0.214659,5.04547e-05,3.38109e-05,0.161855,0.10872532544063085,0.2394391761371939,5.0455972859797527e-05,-0.020285131341251983,3.381147159497999e-05,-0.07806439444882152
195,0.1807,560.85,186.107,-0.0176264,323.528,-0.0301663,0.0788729,0.10374,-0.0206046,-0.0816988,0.215764,4.81348e-05,3.47512e-05,0.162701,0.1093119962985496,0.2408095133987278,4.81359584980634e-05,-0.02039377569574552,3.475180382994658e-05,-0.0784505123959367
196,0.1817,561.808,187.402,0.0823097,323.782,0.240204,-0.00748749,0.104268,-0.0207066,-0.08212,0.216864,5.23798e-05,3.3686e-05,0.163544,0.10989786768903143,0.24217515482855068,5.238117184558355e-05,-0.020493690434886136,3.368656737956499e-05,-0.07883858730580218
197,0.1827,562.239,187.39,0.0109154,324.094,0.199678,-0.0196484,0.104796,-0.020814,-0.0825397,0.217965,5.25516e-05,3.34721e-05,0.164388,0.11048404850128746,0.24354354283338342,5.255298085948823e-05,-0.02059888376355057,3.3472660196931514e-05,-0.07922511763164708
198,0.1837,562.61,186.956,0.0648789,324.44,0.0407292,0.0745311,0.105324,-0.0209242,-0.0829573,0.219066,5.0688e-05,3.48887e-05,0.165231,0.11107053889873586,0.24491343826309464,5.06892846583451e-05,-0.020706807819835138,3.488930861772488e-05,-0.07960955294684358
199,0.1847,563.293,187.708,0.0160641,324.709,0.191837,-0.00649036,0.10585,-0.0210281,-0.0833772,0.220165,5.3252e-05,3.38779e-05,0.166073,0.11165511573242548,0.24628235021108025,5.3253417912957346e-05,-0.02080855109684787,3.387847386249199e-05,-0.07999594376713115
200,0.1857,563.536,186.954,0.0351358,325.065,-0.0450703,0.10347,0.106377,-0.0211398,-0.0837936,0.221265,5.01059e-05,3.5575e-05,0.166915,0.11224111237496959,0.24765401507367724,5.0107155321610364e-05,-0.020917920673285795,3.5575632797879564e-05,-0.08037895370794268
201,0.1867,564.035,187.149,-0.0158821,325.362,-0.0342439,0.0783924,0.106903,-0.0212469,-0.0842114,0.222362,5.01216e-05,3.55228e-05,0.167756,0.1128263050922711,0.24902344252183672,5.0122856108281155e-05,-0.02102277474894576,3.55234309421526e-05,-0.08076309112918845
202,0.1877,564.851,188.09,0.060654,325.626,0.151622,0.0232203,0.107429,-0.0213502,-0.0846299,0.223457,5.29902e-05,3.49386e-05,0.168595,0.11341180570191045,0.2503918722699534,5.29916040055145e-05,-0.021123897873214892,3.493921036001879e-05,-0.081147711288169
203,0.1887,565.071,187.479,-0.016992,325.963,-0.0370918,0.0824424,0.107954,-0.0214606,-0.0850459,0.224555,5.04752e-05,3.59322e-05,0.169435,0.11399650036882414,0.25176555656037136,5.0476473894445206e-05,-0.021231959829759894,3.5932845569242033e-05,-0.08152987434484604
204,0.1897,565.606,187.728,-0.0280469,326.255,-0.0168218,0.0669096,0.108479,-0.0215672,-0.0854626,0.225649,5.06715e-05,3.59618e-05,0.170274,0.11458150208103057,0.25313573743152795,5.067278382209217e-05,-0.02133629094189493,3.5962446633286405e-05,-0.08191252111621483
205,0.1907,566.376,188.541,0.0515395,326.522,0.136992,0.0270373,0.109003,-0.0216708,-0.0858798,0.226742,5.30837e-05,3.55776e-05,0.171111,0.11516569583351699,0.2545061635940069,5.308510896462337e-05,-0.02143767525035556,3.55782328902432e-05,-0.08229546732427173
206,0.1917,566.649,188.088,-0.0122008,326.847,-0.0127905,0.0735187,0.109527,-0.0217803,-0.086295,0.227836,5.11436e-05,3.63857e-05,0.171949,0.11575019578374657,0.25587934432988524,5.114490785618209e-05,-0.02154482195852625,3.6386361967677416e-05,-0.08267641915516577
207,0.1927,567.516,189.204,0.0727896,327.094,0.21668,0.000781353,0.11005,-0.0218821,-0.0867121,0.228926,5.47811e-05,3.55157e-05,0.172784,0.11633388575776515,0.2572489991414699,5.478260051194894e-05,-0.02164442362584007,3.551633068998861e-05,-0.08305895503733207
208,0.1937,567.925,189.193,0.00622752,327.39,0.178186,-0.0103283,0.110573,-0.0219887,-0.0871279,0.230017,5.48924e-05,3.53457e-05,0.173621,0.11691788108148193,0.2586214063115153,5.489390661539417e-05,-0.021748710771677948,3.5346324666507556e-05,-0.08344013987000898
209,0.1947,568.315,188.888,0.0628796,327.712,0.0535764,0.0687722,0.111096,-0.0220972,-0.0875419,0.231108,5.35011e-05,3.65526e-05,0.174456,0.11750218191463668,0.25999531159485545,5.3502531209392856e-05,-0.021854845278657997,3.655326805440673e-05,-0.08381951711559432
210,0.1957,568.921,189.483,0.0115269,327.974,0.167526,0.00341734,0.111618,-0.0222009,-0.0879577,0.232197,5.55035e-05,3.57667e-05,0.17529,0.11808567033082351,0.2613681938879133,5.550504034768089e-05,-0.021956273672049553,3.576733963606138e-05,-0.0842003857722965
211,0.1967,569.219,188.955,0.0400533,328.303,-0.0111729,0.0905793,0.11214,-0.0223105,-0.0883707,0.233286,5.32067e-05,3.71353e-05,0.176125,0.1186694634074732,0.26274257206414897,5.3208115501579556e-05,-0.02206346139046078,3.713598952370667e-05,-0.08457853292021156
212,0.1977,570.013,190.064,0.0312613,328.536,0.228631,-0.0175578,0.11266,-0.0224116,-0.0887866,0.234372,5.70062e-05,3.57634e-05,0.176957,0.11925132279877548,0.2641146554038116,5.700782488426981e-05,-0.0221623257768353,3.5764039518104696e-05,-0.08495917754783289
213,0.1987,570.426,190.039,-0.00646051,328.828,0.184046,-0.0166141,0.113181,-0.0225178,-0.0892005,0.235459,5.70556e-05,3.57233e-05,0.17779,0.1198346046696872,0.26548949512425124,5.705722770166233e-05,-0.022266166623791217,3.5723938084597506e-05,-0.08533783457576816
214,0.1997,570.803,189.709,0.0584071,329.146,0.0531269,0.0677068,0.113702,-0.0226261,-0.0896128,0.236545,5.55808e-05,3.69889e-05,0.178622,0.12041819050963065,0.26686456324279884,5.558234464131395e-05,-0.022372049464286614,3.698958409770192e-05,-0.0857148720549552
215,0.2007,571.405,190.313,0.0103734,329.4,0.170113,0.00216144,0.114222,-0.0227293,-0.0900269,0.237629,5.76265e-05,3.61972e-05,0.179453,0.12100095947549505,0.2682385890167771,5.762816043874963e-05,-0.022472935462974797,3.6197855126651746e-05,-0.08609339914699365
216,0.2017,571.685,189.762,0.038969,329.724,-0.0135546,0.0913877,0.114742,-0.0228385,-0.0904381,0.238714,5.52576e-05,3.75901e-05,0.180284,0.12158403156002562,0.26961537465700447,5.525912672932343e-05,-0.02257967559030527,3.759080651666302e-05,-0.08646912028770382
217,0.2027,572.475,190.888,0.0308605,329.949,0.231347,-0.0185538,0.11526,-0.0229391,-0.0908524,0.239795,5.91263e-05,3.61947e-05,0.181113,0.12216516258831578,0.27098857095588635,5.912804799401705e-05,-0.02267799912918389,3.619535503607274e-05,-0.08684751774072375
218,0.2037,572.874,190.852,-0.0066215,330.236,0.18496,-0.0167348,0.115779,-0.0230449,-0.0912645,0.240877,5.91505e-05,3.61651e-05,0.181942,0.12274771746761393,0.272364524846477,5.915224942532049e-05,-0.022781394327173632,3.616575396514499e-05,-0.08722375035060903
219,0.2047,573.24,190.516,0.0577993,330.547,0.0536204,0.0674935,0.116297,-0.0231527,-0.0916751,0.241959,5.76694e-05,3.74263e-05,0.182771,0.12332945144135343,0.2737419683248987,5.767106291187929e-05,-0.02288673281501863,3.742700037268065e-05,-0.08759845934569399
220,0.2057,573.829,191.112,0.00999898,330.795,0.169439,0.00258797,0.116815,-0.0232556,-0.0920875,0.243038,5.96944e-05,3.66442e-05,0.183598,0.12391148683135156,0.2751170776467873,5.969618174606062e-05,-0.02298727259735145,3.6644871406865676e-05,-0.08797465616394406
221,0.2067,574.102,190.567,0.0388413,331.112,-0.0121314,0.0908295,0.117332,-0.0233643,-0.0924971,0.244119,5.73554e-05,3.80198e-05,0.184426,0.12449269930052065,0.2764962245022975,5.735704485232418e-05,-0.02309346810898949,3.8020522761694764e-05,-0.08834814524899293
222,0.2077,574.874,191.671,0.0296441,331.333,0.228582,-0.0174404,0.117849,-0.0234646,-0.0929096,0.245196,6.11578e-05,3.66498e-05,0.185251,0.12507421233422567,0.27787175152442845,6.115967017628066e-05,-0.023191446920418635,3.665047161205415e-05,-0.08872412408811092
223,0.2087,575.263,191.63,-0.00717551,331.614,0.181745,-0.0151401,0.118365,-0.02357,-0.0933201,0.246273,6.11602e-05,3.66313e-05,0.186077,0.1256549004324352,0.2792487607872054,6.116207032325072e-05,-0.023294397116342624,3.6631970934175584e-05,-0.08909812606601486
224,0.2097,575.625,191.313,0.0570469,331.917,0.0557726,0.0664706,0.118882,-0.0236773,-0.093729,0.247351,5.97517e-05,3.78547e-05,0.186902,0.12623701447947377,0.280628534515756,5.9753485168290155e-05,-0.0233991920051857,3.7855416498144834e-05,-0.08947051770160797
225,0.2107,576.196,191.88,0.00924669,332.161,0.165131,0.00443567,0.119397,-0.0237798,-0.0941397,0.248426,6.1677e-05,3.71138e-05,0.187726,0.1268171759206791,0.2820059504187602,6.167890206532078e-05,-0.023499288457974332,3.71144887256758e-05,-0.08984439537895161
226,0.2117,576.472,191.372,0.0392659,332.47,-0.00626482,0.0884975,0.119913,-0.0238879,-0.0945476,0.249502,5.9485e-05,3.84278e-05,0.188551,0.12739876362017633,0.28338613122552325,5.9486769267591555e-05,-0.02360484247959438,3.842853835744897e-05,-0.0902155721434289
227,0.2127,577.214,192.413,0.0275311,332.688,0.21962,-0.0139428,0.120427,-0.0239881,-0.0949583,0.250574,6.30659e-05,3.71411e-05,0.189373,0.12797839553731838,0.2847626588451775,6.306788869570035e-05,-0.023702672373018374,3.714178973912574e-05,-0.09058914388974049
228,0.2137,577.595,192.374,-0.00805022,332.962,0.173999,-0.0116336,0.120941,-0.0240931,-0.0953671,0.251647,6.30532e-05,3.71338e-05,0.190195,0.12855832546184742,0.28614194903497037,6.305518789484488e-05,-0.02380517821076855,3.713448946807141e-05,-0.09096083506886499
229,0.2147,577.961,192.099,0.0560487,333.258,0.0596403,0.0645854,0.121456,-0.0241997,-0.0957744,0.25272,6.18021e-05,3.8283e-05,0.191017,0.1291396826860962,0.2875227199974295,6.180400978905709e-05,-0.02390923503244413,3.828373280345687e-05,-0.0913310113292286
230,0.2157,578.507,192.615,0.00821056,333.499,0.157019,0.00780149,0.121969,-0.0243021,-0.0961834,0.253791,6.35455e-05,3.76168e-05,0.191838,0.12971907994600462,0.2889023955149077,6.354751905801592e-05,-0.02400918160942478,3.761750752073745e-05,-0.09170258095442685
231,0.2167,578.798,192.178,0.0401172,333.798,0.00417809,0.084307,0.122482,-0.0244094,-0.0965898,0.254862,6.16215e-05,3.88227e-05,0.192659,0.13029877451296024,0.29028354945641976,6.162339864368427e-05,-0.02411389980600631,3.882345361083672e-05,-0.09207163802805018
232,0.2177,579.495,193.113,0.0246747,334.015,0.204372,-0.00798459,0.122995,-0.0245096,-0.0969986,0.25593,6.48232e-05,3.7679e-05,0.193478,0.13087876653952057,0.29166230841346863,6.482530106910467e-05,-0.02421167869444163,3.7679709862459276e-05,-0.09244272328742931
233,0.2187,579.872,193.083,-0.00913726,334.284,0.161814,-0.00623035,0.123507,-0.0246142,-0.0974057,0.256999,6.48047e-05,3.76817e-05,0.194297,0.1314579247198311,0.2930438337148733,6.480679986986537e-05,-0.024313740814908225,3.768240996415706e-05,-0.09281211466006356
234,0.2197,580.25,192.875,0.054768,334.57,0.065067,0.0619016,0.124019,-0.0247201,-0.0978115,0.258068,6.37921e-05,3.87216e-05,0.195116,0.13203737950505423,0.2944268366564835,6.37941347592097e-05,-0.02441706051888104,3.872234969093391e-05,-0.09318017681907154
235,0.2207,580.765,193.321,0.00699678,334.809,0.145385,0.0125938,0.12453,-0.0248224,-0.0982186,0.259134,6.52781e-05,3.81613e-05,0.195933,0.13261599843052596,0.29580743139061516,6.528023066154631e-05,-0.024516857548884885,3.816202815176695e-05,-0.09354926803547392
236,0.2217,581.082,192.985,0.0412386,335.097,0.0187777,0.0784036,0.125041,-0.0249288,-0.0986236,0.260201,6.37328e-05,3.92161e-05,0.196751,0.13319491310582632,0.2971907958135833,6.37348309779906e-05,-0.024620643433734712,3.92168689613559e-05,-0.0939163062516638
237,0.2227,581.721,193.775,0.0212998,335.317,0.183519,0.000202211,0.125552,-0.0250293,-0.0990305,0.261265,6.64136e-05,3.82695e-05,0.197566,0.13377412368212194,0.29857174135307574,6.641580543198522e-05,-0.02471866413344692,3.8270232286752304e-05,-0.09428491670776695
238,0.2237,581.886,193.039,0.0243374,335.622,-0.0403609,0.0983348,0.126062,-0.0251374,-0.0994342,0.262331,6.34399e-05,3.97731e-05,0.198383,0.1343524959575939,0.2999567569114947,6.344191235307939e-05,-0.02482408634768074,3.977389096032624e-05,-0.09465048009295796
239,0.2247,582.33,193.26,-0.0119343,335.871,-0.0179414,0.0735726,0.126572,-0.025241,-0.0998392,0.263394,6.36609e-05,3.96946e-05,0.199198,0.13493116327815646,0.30133934565982123,6.366292639814475e-05,-0.024925109339253848,3.9695387840987806e-05,-0.0950170724085655
240,0.2257,583.01,194.032,0.0477544,336.095,0.134187,0.0288772,0.127081,-0.0253417,-0.100245,0.264455,6.60259e-05,3.92553e-05,0.200012,0.13550899028476282,0.302720799437201,6.602807975775171e-05,-0.025023294437040766,3.925607049937163e-05,-0.09538423997724388
241,0.2267,583.23,193.597,-0.00488247,336.376,-0.00662351,0.0739575,0.12759,-0.025448,-0.100648,0.265518,6.42113e-05,4.00286e-05,0.200826,0.13608711148018027,0.30410632792492676,6.421336158957125e-05,-0.02512692895256996,4.0029401155106115e-05,-0.0957487266795295
242,0.2277,583.983,194.6,0.0584163,336.585,0.20344,0.0039268,0.128099,-0.0255473,-0.101053,0.266577,6.75339e-05,3.92064e-05,0.201638,0.136665527014189,0.3054881080496388,6.753618046517751e-05,-0.025223729042320953,3.9207168580857044e-05,-0.09611487429532739
243,0.2287,584.324,194.558,0.000264807,336.842,0.161825,-0.00268387,0.128607,-0.025651,-0.101457,0.267638,6.75174e-05,3.91149e-05,0.202451,0.13724309979297722,0.30687396599991446,6.751967935092473e-05,-0.025324808100579577,3.9115664997702027e-05,-0.09647997013178733
244,0.2297,584.679,194.342,0.057158,337.117,0.065267,0.0629845,0.129115,-0.025756,-0.10186,0.268697,6.65028e-05,4.01233e-05,0.203263,0.13782096605327498,0.30825867860582257,6.650501136018505e-05,-0.02542714362302001,4.0124104950356454e-05,-0.09684401534378695
245,0.2307,585.173,194.777,0.00703234,337.346,0.144777,0.0132978,0.129622,-0.0258575,-0.102264,0.269755,6.79705e-05,3.95603e-05,0.204074,0.13839798754565202,0.3096435487549152,6.797281004677913e-05,-0.02552605774796557,3.9561082519012913e-05,-0.09720881666675896
246,0.2317,585.475,194.445,0.0411638,337.623,0.0204269,0.0778951,0.130129,-0.025963,-0.102665,0.270813,6.64559e-05,4.05934e-05,0.204885,0.13897530166209981,0.3110298848719859,6.645810824212894e-05,-0.02562885932599457,4.059422392321821e-05,-0.09757076335611437
247,0.2327,586.089,195.209,0.0197425,337.834,0.180665,0.00139049,0.130635,-0.0260628,-0.103069,0.271868,6.90642e-05,3.96725e-05,0.205694,0.13955176899867716,0.31241375126169,6.906658498673224e-05,-0.025726096713607483,3.9673286964081456e-05,-0.09793527113218992
248,0.2337,586.249,194.501,0.0253197,338.128,-0.035175,0.0965365,0.131142,-0.02617,-0.10347,0.272926,6.62069e-05,4.11273e-05,0.206504,0.14012966823063588,0.3138030198039923,6.620909172516676e-05,-0.02583053327813989,4.112814573908885e-05,-0.09829692657170408
249,0.2347,586.678,194.721,-0.0102869,338.366,-0.0118497,0.0716315,0.131647,-0.0262727,-0.103871,0.27398,6.64594e-05,4.10377e-05,0.207313,0.14070557911835202,0.3151884982057209,6.646160847489924e-05,-0.025930575345124107,4.1038542057947325e-05,-0.09865843701646038
250,0.2357,587.324,195.443,0.0456649,338.582,0.130005,0.0304598,0.132152,-0.0263728,-0.104273,0.275033,6.86769e-05,4.06457e-05,0.20812,0.14128178091451482,0.3165741210967512,6.867925831222088e-05,-0.02602807481460223,4.064652604762742e-05,-0.099020703504337
251,0.2367,587.547,195.054,-0.00263682,338.851,0.0014353,0.0713896,0.132657,-0.026478,-0.104674,0.276087,6.7041e-05,4.13562e-05,0.208928,0.14185827376607008,0.31796252177901363,6.704324729800426e-05,-0.02613053127182763,4.135705517938071e-05,-0.09938192377272759
252,0.2377,588.252,195.972,0.0539157,339.054,0.192327,0.0077414,0.133161,-0.0265768,-0.105076,0.277138,7.00787e-05,4.06239e-05,0.209734,0.14243391538555117,0.31934842855584167,7.008115556939032e-05,-0.026226744822310355,4.0624725161864106e-05,-0.0997438994773796
253,0.2387,588.314,195.112,-0.0077034,339.347,-0.0540333,0.0940085,0.133666,-0.0266841,-0.105475,0.278191,6.67674e-05,4.19487e-05,0.21054,0.14301099021195052,0.3207384341606243,6.676962899243577e-05,-0.026331225087124377,4.1949579858924224e-05,-0.10010303001018228
254,0.2397,588.763,195.37,-0.017979,339.58,-0.0228439,0.0742693,0.134169,-0.0267863,-0.105875,0.279242,6.70868e-05,4.19313e-05,0.211346,0.14358606936030793,0.32212725995504066,6.708905036978408e-05,-0.026430728951186477,4.193217912917824e-05,-0.1004629168160186
255,0.2407,589.419,196.143,0.0396898,339.788,0.132285,0.0276677,0.134672,-0.0268858,-0.106275,0.28029,6.94786e-05,4.1465e-05,0.21215,0.14416143784623925,0.32351357562600214,6.948101369386173e-05,-0.026527594274526112,4.1465859685008155e-05,-0.10082265969591964
256,0.2417,589.628,195.72,-0.00200392,340.055,-0.00508317,0.074451,0.135175,-0.0269907,-0.106674,0.28134,6.77092e-05,4.2254e-05,0.212954,0.1447370958153178,0.3249039947226904,6.771149231954432e-05,-0.026629706174023937,4.225489271281191e-05,-0.10118135988925359
257,0.2427,590.341,196.687,0.051433,340.25,0.199478,0.00410696,0.135677,-0.0270889,-0.107074,0.282386,7.09405e-05,4.14303e-05,0.213757,0.14531189810071976,0.3262905693532794,7.094301633681077e-05,-0.02672528644380956,4.143115824684074e-05,-0.10154081544939308
258,0.2437,590.377,195.763,-0.00670464,340.542,-0.0628833,0.0982405,0.13618,-0.0271961,-0.107472,0.283435,6.73966e-05,4.28598e-05,0.214561,0.14588813489686925,0.32768257814149293,6.73988712018847e-05,-0.026829615900944015,4.286071849435302e-05,-0.10189833105451951
259,0.2447,590.823,196.035,-0.0169226,340.77,-0.027718,0.0769359,0.136682,-0.0272979,-0.10787,0.284482,6.77519e-05,4.28296e-05,0.215363,0.1464635151489475,0.32907338976363976,6.775419521187764e-05,-0.026928679603617223,4.283051720044284e-05,-0.10225570439674725
260,0.2457,591.477,196.826,0.0383575,340.972,0.133112,0.027103,0.137182,-0.0273968,-0.108269,0.285526,7.02173e-05,4.23223e-05,0.216163,0.14703689023834898,0.33046166693714296,7.021976529220098e-05,-0.027024911598453882,4.232319560126818e-05,-0.10261383291930148
261,0.2467,591.676,196.39,-0.00126582,341.236,-0.00729378,0.0757492,0.137684,-0.0275014,-0.108666,0.286572,6.8401e-05,4.31354e-05,0.216965,0.14761284731037838,0.3318540579342977,6.840333940183463e-05,-0.02712667947014813,4.313633034480624e-05,-0.10297002451892179
262,0.2477,592.384,197.37,0.0498622,341.425,0.201676,0.00292188,0.138184,-0.0275991,-0.109065,0.287614,7.16929e-05,4.22789e-05,0.217764,0.1481867972095512,0.3332425731534612,7.169546999730159e-05,-0.027221724550536175,4.227979376536517e-05,-0.10332786808459993
263,0.2487,592.409,196.429,-0.00566493,341.714,-0.0648925,0.099526,0.138684,-0.027706,-0.109461,0.288659,6.80879e-05,4.37387e-05,0.218565,0.14876103415542907,0.33463653986315833,6.809021803366733e-05,-0.02732570899011444,4.373965655091183e-05,-0.10368287995184944
264,0.2497,592.851,196.705,-0.0159091,341.937,-0.0277819,0.0774436,0.139184,-0.0278073,-0.109858,0.289701,6.84685e-05,4.36989e-05,0.219364,0.14933555829157164,0.3360279559395758,6.847084402128445e-05,-0.02742423590532117,4.3699854810785865e-05,-0.10403864722403233
265,0.2507,593.494,197.49,0.0373168,342.135,0.132272,0.0273682,0.139683,-0.0279059,-0.110255,0.290741,7.09199e-05,4.31894e-05,0.220161,0.14990921985181482,0.33741814778821166,7.092241487560713e-05,-0.027520127148145,4.3190332675635545e-05,-0.10439427328464057
266,0.2517,593.69,197.062,-0.000378487,342.393,-0.00572511,0.0754855,0.140182,-0.02801,-0.110651,0.291782,6.91379e-05,4.39931e-05,0.22096,0.15048316774060977,0.3388111249989021,6.914029007965006e-05,-0.027621357033801863,4.3994067710606544e-05,-0.10474886293903451
267,0.2527,594.384,198.024,0.0480771,342.579,0.199413,0.0035817,0.14068,-0.0281074,-0.111048,0.29282,7.23715e-05,4.31505e-05,0.221756,0.1510562510440432,0.3402015324432741,7.237411888016965e-05,-0.027716062101415084,4.315143099620222e-05,-0.1051042070999646
268,0.2537,594.413,197.106,-0.00406341,342.862,-0.0609028,0.0984086,0.141178,-0.0282138,-0.111442,0.293861,6.88574e-05,4.45821e-05,0.222553,0.151629619814037,0.3415974086660645,6.885977072523808e-05,-0.027819507609008975,4.458309379651304e-05,-0.1054567265914671
269,0.2547,594.847,197.38,-0.0148199,343.081,-0.0237568,0.0761577,0.141676,-0.0283147,-0.111837,0.294899,6.92516e-05,4.45349e-05,0.223349,0.152203274192789,0.3429907097744349,6.925399794743825e-05,-0.0279175956720652,4.4535891693398e-05,-0.10581000140809393
270,0.2557,595.474,198.137,0.036616,343.276,0.130118,0.0283188,0.142173,-0.0284129,-0.112233,0.295935,7.16163e-05,4.40554e-05,0.224144,0.1527760615459297,0.3443827691119903,7.161886450846033e-05,-0.028013049477311647,4.40563704533492e-05,-0.10616403054514068
271,0.2567,595.672,197.734,0.000575317,343.529,-0.00110628,0.0739483,0.14267,-0.0285166,-0.112627,0.296972,6.99337e-05,4.48222e-05,0.224939,0.1533491336451387,0.34577761714726774,6.993614541817017e-05,-0.028113839298038346,4.4823204529809146e-05,-0.10651613254845638
272,0.2577,596.344,198.651,0.0462179,343.714,0.193617,0.00572165,0.143166,-0.0286137,-0.113023,0.298006,7.30143e-05,4.40309e-05,0.225732,0.1539213367100558,0.34716987087453033,7.301696560890747e-05,-0.028208204862720132,4.403186937440573e-05,-0.10686988211293058
273,0.2587,596.386,197.79,-0.00213907,343.989,-0.0522348,0.0953877,0.143662,-0.0287194,-0.113415,0.299042,6.97101e-05,4.53883e-05,0.226526,0.1544938236580904,0.34856626206649866,6.971252980547682e-05,-0.028310917826990356,4.5389330064482536e-05,-0.10721992050713469
274,0.2597,596.811,198.055,-0.0137466,344.204,-0.0166631,0.0735071,0.144158,-0.0288199,-0.113809,0.300076,7.01067e-05,4.53363e-05,0.227319,0.15506659463008332,0.34996140074386983,7.010915753213887e-05,-0.028408567672761786,4.5337327705619046e-05,-0.10757160657175069
275,0.2607,597.416,198.769,0.0361979,344.398,0.127072,0.029746,0.144653,-0.028918,-0.114203,0.301108,7.23315e-05,4.49104e-05,0.22811,0.15563849412787345,0.3513552800274382,7.233411598606132e-05,-0.028503876117317528,4.4911408487058324e-05,-0.10792315409935072
276,0.2617,597.622,198.402,0.00151054,344.644,0.0056535,0.0714987,0.145148,-0.0290211,-0.114596,0.302141,7.07933e-05,4.56211e-05,0.228902,0.1562106767859912,0.3527519512882151,7.079580590474421e-05,-0.028604032204554763,4.5622140658174715e-05,-0.10827367141862498
277,0.2627,598.265,199.257,0.0443928,344.828,0.185405,0.00889016,0.145642,-0.0291181,-0.11499,0.303171,7.36555e-05,4.49073e-05,0.229692,0.15678198596207182,0.35414600361174275,7.365821263283223e-05,-0.02869825304364637,4.4908308347801906e-05,-0.10862494238716114
278,0.2637,598.329,198.474,-0.000110249,345.095,-0.0404333,0.0910619,0.146137,-0.029223,-0.115381,0.304203,7.06417e-05,4.61589e-05,0.230483,0.15735473478876272,0.35554420363458883,7.064419518365561e-05,-0.028800137252981917,4.61599653385214e-05,-0.10897340190641236
279,0.2647,598.742,198.726,-0.0127544,345.307,-0.00762874,0.0699734,0.14663,-0.0293231,-0.115773,0.305233,7.10309e-05,4.61048e-05,0.231273,0.157925451343085,0.35694113345969214,7.103342275405211e-05,-0.02889734949368905,4.610586284270468e-05,-0.10932261588245384
280,0.2657,599.324,199.387,0.0359867,345.499,0.123551,0.0314373,0.147123,-0.0294211,-0.116166,0.306261,7.30835e-05,4.5747e-05,0.232061,0.15849644933003582,0.3583367861874822,7.308617066414946e-05,-0.028992512890356092,4.574804640999908e-05,-0.10967258332130603
281,0.2667,599.538,199.065,0.00236737,345.74,0.0136228,0.0685128,0.147616,-0.0295235,-0.116557,0.30729,7.1715e-05,4.63907e-05,0.23285,0.15906772888839593,0.35973523411853514,7.171757158208614e-05,-0.029091938966334108,4.639177606513556e-05,-0.1100206332930237
282,0.2677,600.151,199.846,0.0426777,345.923,0.175888,0.0126298,0.148109,-0.0296205,-0.116949,0.308316,7.43228e-05,4.5769e-05,0.233637,0.15963929015701406,0.36113103839388994,7.432556200770435e-05,-0.02918611248076508,4.57700474165712e-05,-0.11036943683481215
283,0.2687,600.24,199.154,0.00185162,346.182,-0.0270149,0.0860287,0.148601,-0.0297246,-0.117339,0.309344,7.16415e-05,4.68979e-05,0.234425,0.16020997306425477,0.3625310005586233,7.164406631354758e-05,-0.029287168946375508,4.6898999723765655e-05,-0.11071632510683671
284,0.2697,600.983,200.339,0.0480152,346.341,0.237491,-0.0118476,0.149092,-0.0298194,-0.117731,0.310367,7.5742e-05,4.57024e-05,0.23521,0.16077977603621152,0.3639255829794805,7.574486849759587e-05,-0.02937918816097973,4.570344437060392e-05,-0.11106485599087845
285,0.2707,601.242,200.206,-0.00386273,346.566,0.177143,-0.00843263,0.149584,-0.0299201,-0.118122,0.311393,7.54988e-05,4.57148e-05,0.235996,0.16135102020056258,0.3653256887590608,7.550165010616894e-05,-0.02947692475561181,4.571584493739955e-05,-0.11141236169039459
286,0.2717,601.52,199.922,0.0526724,346.808,0.0683259,0.0617199,0.150075,-0.030022,-0.118511,0.312417,7.43178e-05,4.67576e-05,0.236782,0.16192138356422814,0.3667244983326219,7.432056163603207e-05,-0.02957581601838377,4.6758693153625686e-05,-0.11175795505942876
287,0.2727,601.953,200.335,0.00489552,347.001,0.147587,0.013087,0.150565,-0.0301202,-0.118902,0.31344,7.57699e-05,4.62079e-05,0.237566,0.16249086455362272,0.368123372896759,7.577277061132648e-05,-0.029671106994387242,4.620896760143545e-05,-0.11210518981018291
288,0.2737,602.194,199.985,0.0383166,347.243,0.0235815,0.0766026,0.151056,-0.0302223,-0.11929,0.314463,7.4255e-05,4.72033e-05,0.238351,0.1630617877182856,0.36952367924180596,7.425775697078585e-05,-0.02977017251698222,4.720441409333809e-05,-0.1124496261715614
289,0.2747,602.735,200.697,0.0153345,347.42,0.176215,0.00371139,0.151545,-0.0303189,-0.119681,0.315484,7.67324e-05,4.63395e-05,0.239134,0.1636306640113976,0.3709226769851288,7.673534400587378e-05,-0.02986389219158392,4.634057369123923e-05,-0.1127965905317756
290,0.2757,602.862,200.041,0.026438,347.675,-0.0226573,0.0921871,0.152035,-0.0304224,-0.120068,0.316506,7.41179e-05,4.76736e-05,0.239917,0.16420098275344386,0.37232447615837216,7.412064679934716e-05,-0.029964296082751085,4.7674736404212936e-05,-0.11313987182202567
291,0.2767,603.547,201.165,0.0264333,347.829,0.232342,-0.0165535,0.152523,-0.0305169,-0.120459,0.317524,7.80745e-05,4.63271e-05,0.240699,0.1647692514793193,0.3737222138028533,7.807754789301846e-05,-0.030055960125576986,4.6328173116672033e-05,-0.11348656634894638
292,0.2777,603.811,201.038,-0.00913206,348.05,0.172525,-0.00786556,0.153012,-0.030617,-0.120847,0.318544,7.78193e-05,4.64071e-05,0.241481,0.16533896292638905,0.3751241253142572,7.782232800024325e-05,-0.030153046664706085,4.6408176826107095e-05,-0.11383046684019327
293,0.2787,604.09,200.778,0.0489743,348.285,0.0703622,0.0596686,0.153501,-0.0307183,-0.121234,0.319563,7.67262e-05,4.741e-05,0.242262,0.16590895303048225,0.37652609097814604,7.672914353018534e-05,-0.030251287185112608,4.74111238717434e-05,-0.11417334809772339
294,0.2797,604.509,201.164,0.00470253,348.475,0.142925,0.0150808,0.153988,-0.030816,-0.121623,0.32058,7.80756e-05,4.69153e-05,0.243042,0.16647688897178514,0.37792673011695066,7.807864797904074e-05,-0.030346027006239007,4.691640053988699e-05,-0.11451786765191563
295,0.2807,604.753,200.851,0.0372631,348.709,0.0290679,0.0739191,0.154476,-0.0309174,-0.122009,0.321598,7.67044e-05,4.78435e-05,0.243822,0.16704626861093574,0.37933017375982225,7.670734185771799e-05,-0.030444344934297374,4.784464451845771e-05,-0.11485959779684107
296,0.2817,605.269,201.506,0.014734,348.885,0.168115,0.00710376,0.154963,-0.0310138,-0.122397,0.322613,7.89808e-05,4.70634e-05,0.244601,0.16761475855981622,0.3807309046368528,7.898391906557833e-05,-0.030537805594569423,4.7064507499250396e-05,-0.1152029656552237
297,0.2827,605.411,200.921,0.0267768,349.131,-0.0121488,0.0877911,0.15545,-0.0311163,-0.122783,0.32363,7.66336e-05,4.82873e-05,0.24538,0.16818352543072668,0.382135822246382,7.663653642930868e-05,-0.030637170376963896,4.8288465850365725e-05,-0.11554443140335158
298,0.2837,606.055,201.942,0.0244903,349.286,0.217617,-0.0107384,0.155936,-0.0312108,-0.123171,0.324642,8.02203e-05,4.70818e-05,0.246157,0.16875140060657623,0.3835352516903592,8.022351773440128e-05,-0.030728770836173425,4.708290836541451e-05,-0.11588753359783699
299,0.2847,606.317,201.829,-0.00941985,349.501,0.161878,-0.00309058,0.156422,-0.0313104,-0.123557,0.325656,7.998e-05,4.71624e-05,0.246935,0.1693195518368371,0.3849388679487502,7.998319848545599e-05,-0.03082530544309492,4.7163512163495014e-05,-0.11622873515373155
300,0.2857,606.604,201.622,0.0473508,349.728,0.0739528,0.0576161,0.156908,-0.0314108,-0.123942,0.32667,7.90764e-05,4.80746e-05,0.247712,0.1698879792557042,0.3863439081958675,7.907952662100648e-05,-0.03092260569787386,4.8075755602061676e-05,-0.11656892160060428
301,0.2867,607.0,201.958,0.004436,349.916,0.134296,0.0187049,0.157393,-0.0315083,-0.124329,0.327682,8.02406e-05,4.76582e-05,0.248488,0.17045551254134028,0.38774759837839556,8.024381936300173e-05,-0.03101708613782206,4.7659335669969494e-05,-0.11691074328118345
302,0.2877,607.259,201.714,0.0369102,350.141,0.0388552,0.0696317,0.157878,-0.0316088,-0.124713,0.328694,7.91319e-05,4.84766e-05,0.249264,0.1710233211473795,0.3891527098144216,7.91350310114236e-05,-0.031114464027344302,4.847777500938122e-05,-0.1172497844556919
303,0.2887,607.737,202.274,0.0135772,350.317,0.154411,0.0126645,0.158362,-0.0317051,-0.125099,0.329703,8.1064e-05,4.78306e-05,0.250039,0.17159023361656556,0.39055507227150743,8.106728577472744e-05,-0.03120776321203067,4.783174390143863e-05,-0.11759046028422715
304,0.2897,607.911,201.81,0.027812,350.552,0.00527151,0.0806955,0.158847,-0.0318065,-0.125483,0.330714,7.91649e-05,4.88796e-05,0.250813,0.17215859269580513,0.39196163434689657,7.916803362340019e-05,-0.03130599376446774,4.888079462705974e-05,-0.11792924049751408
305,0.2907,608.493,202.666,0.0218473,350.711,0.194251,-0.00152623,0.15933,-0.0319012,-0.125868,0.331722,8.2157e-05,4.78962e-05,0.251587,0.17272488204394576,0.3933654390730372,8.216037497876805e-05,-0.031397724743327915,4.789734704124804e-05,-0.11826877237584199
306,0.2917,608.538,201.836,0.0187367,350.964,-0.0459378,0.099456,0.159814,-0.0320043,-0.126251,0.332732,7.89365e-05,4.93866e-05,0.252361,0.1732926182679384,0.39477344909186796,7.893961556759699e-05,-0.031497582490151554,4.938781953822691e-05,-0.11860641077414147
307,0.2927,608.915,202.095,-0.00546576,351.154,-0.00682658,0.0721492,0.160297,-0.0321021,-0.126635,0.333739,7.94092e-05,4.92541e-05,0.253133,0.1738594554827293,0.3961786933768521,7.94123529939128e-05,-0.03159229739494962,4.9255313003149226e-05,-0.11894480093733473
308,0.2937,609.448,202.718,0.0336632,351.327,0.118629,0.0333285,0.160779,-0.032198,-0.127019,0.334744,8.13672e-05,4.88971e-05,0.253905,0.17442539212004493,0.397582558287652,8.137051040035814e-05,-0.03168516324064097,4.8898295482713294e-05,-0.11928306118365095
309,0.2947,609.647,202.431,0.00517596,351.546,0.0199122,0.0668125,0.161262,-0.0322981,-0.127402,0.335751,8.01521e-05,4.94818e-05,0.254677,0.1749927765967596,0.3989906327703616,8.015531226535089e-05,-0.031782086704700285,4.948302424456763e-05,-0.11962031118372007
310,0.2957,610.197,203.128,0.0363678,351.713,0.164673,0.0159275,0.161743,-0.0323933,-0.127785,0.336755,8.24921e-05,4.89314e-05,0.255447,0.17555808406785034,0.4003959247041675,8.249550256689275e-05,-0.031874256662686395,4.8932597160433744e-05,-0.11995743204177134
311,0.2967,610.295,202.536,0.00655075,351.948,-0.0114249,0.0808099,0.162225,-0.0324947,-0.128167,0.337761,8.0191e-05,4.99288e-05,0.256218,0.17612483964149162,0.4018054318676503,8.019421538407734e-05,-0.03197241963611397,4.993004646336452e-05,-0.12029354410124082
312,0.2977,610.943,203.546,0.0383815,352.096,0.213213,-0.00392218,0.162706,-0.0325882,-0.128551,0.338762,8.36979e-05,4.89198e-05,0.256987,0.17669069176588548,0.4032093416445668,8.370140276703353e-05,-0.032062925983640245,4.892099659303817e-05,-0.12063128652960953
313,0.2987,610.902,202.533,0.00369581,352.352,-0.0693135,0.104396,0.163187,-0.0326916,-0.128931,0.339767,7.98594e-05,5.04987e-05,0.257757,0.1772568161306196,0.4046202759086306,7.986258884673525e-05,-0.032163005502893305,5.049997508077553e-05,-0.12096538315834848
314,0.2997,611.295,202.836,-0.00767184,352.536,-0.0199445,0.0772428,0.163668,-0.0327888,-0.129313,0.340769,8.04267e-05,5.03826e-05,0.258525,0.17782321286667324,0.4060284107828487,8.042993431378598e-05,-0.03225707468692196,5.038386922451288e-05,-0.12130111025402424
315,0.3007,611.838,203.515,0.0295265,352.702,0.120618,0.0311812,0.164147,-0.0328839,-0.129695,0.341769,8.25831e-05,4.99326e-05,0.259293,0.1783875253276812,0.40743514244223356,8.258651007797546e-05,-0.03234910266311963,4.993384665308298e-05,-0.12163670912644153
316,0.3017,612.022,203.193,0.00618807,352.919,0.0129854,0.0700435,0.164627,-0.0329836,-0.130076,0.34277,8.12315e-05,5.05887e-05,0.26006,0.17895328711180403,0.408844690380864,8.123479936772426e-05,-0.032445572648475474,5.058997962992251e-05,-0.12197130179631333
317,0.3027,612.579,203.939,0.0341063,353.079,0.171449,0.0124588,0.165106,-0.033078,-0.130458,0.343769,8.3765e-05,4.9949e-05,0.260826,0.17951814100803865,0.4102528294749217,8.376850838565097e-05,-0.03253690547544019,4.995024747200816e-05,-0.12230664470445374
318,0.3037,612.654,203.287,0.00755238,353.312,-0.0198261,0.0847025,0.165586,-0.0331792,-0.130837,0.344769,8.1242e-05,5.10417e-05,0.261593,0.18008444561795578,0.41166378766591216,8.124530022057819e-05,-0.0326348077866655,5.104300264968664e-05,-0.12263922745769795
319,0.3047,613.315,204.364,0.0365548,353.452,0.223025,-0.00847111,0.166064,-0.0332719,-0.131219,0.345765,8.50092e-05,4.99213e-05,0.262358,0.18064866081965159,0.41307050522748257,8.501281338446631e-05,-0.032724478383687305,4.992254608882085e-05,-0.12297431526696279
320,0.3057,613.54,204.22,-0.0068606,353.654,0.162515,-0.00194291,0.166542,-0.03337,-0.131599,0.346763,8.46931e-05,4.99883e-05,0.263123,0.18121314578068115,0.4144814535377974,8.469668656174711e-05,-0.03281936345816894,4.9989549435913716e-05,-0.12330752171392678
321,0.3067,613.804,204.01,0.0470032,353.868,0.0759486,0.0569308,0.16702,-0.0334688,-0.131978,0.34776,8.38032e-05,5.08694e-05,0.263888,0.1817779006300202,0.41589239478431184,8.380671158625397e-05,-0.03291491618467679,5.087069386977561e-05,-0.12363972520665889
322,0.3077,614.171,204.32,0.00365508,354.044,0.131643,0.0198825,0.167497,-0.0335648,-0.132358,0.348756,8.48916e-05,5.04781e-05,0.264652,0.1823417431543719,0.41730332613669163,8.489520339383105e-05,-0.033007751896537596,5.04793740407905e-05,-0.12397267884588237
323,0.3087,614.416,204.096,0.0359677,354.255,0.042968,0.0676735,0.167974,-0.0336636,-0.132736,0.349751,8.38743e-05,5.12455e-05,0.265415,0.18290585469576315,0.41871424476180996,8.387781754737311e-05,-0.03310328601118728,5.124681307311363e-05,-0.12430375459601972
324,0.3097,614.857,204.606,0.0117806,354.42,0.147964,0.0151585,0.168451,-0.0337586,-0.133116,0.350745,8.56448e-05,5.0661e-05,0.266178,0.1834702353825457,0.42012514782375643,8.564846762060263e-05,-0.033195136836032924,5.06622832900927e-05,-0.12463645595201212
325,0.3107,615.031,204.197,0.0279276,354.638,0.0144027,0.0768745,0.168928,-0.0338581,-0.133494,0.351739,8.39651e-05,5.16142e-05,0.26694,0.18403488534313261,0.42153745402058895,8.396862516768522e-05,-0.033291329134271574,5.161553203580915e-05,-0.12496728084181896
326,0.3117,615.559,204.954,0.0185223,354.79,0.180769,0.00352648,0.169403,-0.0339518,-0.133873,0.352731,8.66207e-05,5.07545e-05,0.267701,0.18459743550875785,0.4229483188482335,8.662445168106103e-05,-0.033381905493163,5.0755788031375815e-05,-0.12529885540503116
327,0.3127,615.626,204.247,0.0209155,355.023,-0.0272838,0.0921504,0.169879,-0.0340526,-0.13425,0.353725,8.38599e-05,5.20645e-05,0.268463,0.18516143811002994,0.4243634326722239,8.386341633981331e-05,-0.03347933568652506,5.206585537953501e-05,-0.12562855558415476
328,0.3137,616.28,205.375,0.0248679,355.153,0.232326,-0.0161087,0.170354,-0.0341443,-0.134629,0.354714,8.78645e-05,5.07408e-05,0.269222,0.18572452351532887,0.42577282493673163,8.786836019814004e-05,-0.033567961567883775,5.074208733613084e-05,-0.12595987957172672
329,0.3147,616.497,205.213,-0.0097844,355.351,0.16681,-0.00459151,0.170829,-0.0342418,-0.135007,0.355705,8.74905e-05,5.08615e-05,0.269982,0.18628787644972822,0.4271864661497726,8.749432740540186e-05,-0.03366218409820798,5.08627934681094e-05,-0.12629020430194138
330,0.3157,616.746,204.983,0.0450349,355.561,0.0756969,0.0564168,0.171304,-0.0343401,-0.135383,0.356695,8.65374e-05,5.1764e-05,0.270742,0.186851497040335,0.4286000803748453,8.654114446882133e-05,-0.03375717043685611,5.1765339778908626e-05,-0.1266186574320658
331,0.3167,617.108,205.296,0.00346031,355.731,0.132909,0.0193267,0.171778,-0.0344354,-0.135761,0.357684,8.76458e-05,5.1371e-05,0.2715,0.18741419799952386,0.43001366475659153,8.764964100538286e-05,-0.03384924899090069,5.137231951235499e-05,-0.12694873319130773
332,0.3177,617.34,205.059,0.0349973,355.937,0.0417239,0.067831,0.172252,-0.0345336,-0.136136,0.358673,8.65892e-05,5.21437e-05,0.272259,0.18797716574219026,0.43142864786484747,8.659294895307923e-05,-0.03394412033639038,5.2145059506347735e-05,-0.12727606603761643
333,0.3187,617.776,205.574,0.0115181,356.097,0.148704,0.014812,0.172725,-0.0346278,-0.136514,0.35966,8.83847e-05,5.15532e-05,0.273016,0.1885392118550131,0.4328421653964414,8.838860604276633e-05,-0.03403511851417329,5.1554528889052875e-05,-0.12760589334336614
334,0.3197,617.938,205.156,0.0274082,356.311,0.0134664,0.0770151,0.173199,-0.0347268,-0.136889,0.360647,8.66772e-05,5.25082e-05,0.273773,0.18910271298064885,0.4342570787585682,8.668095657693442e-05,-0.03413074430388574,5.250957857971805e-05,-0.12793297980081852
335,0.3207,618.458,205.913,0.017793,356.457,0.180712,0.00339171,0.173671,-0.0348197,-0.137266,0.361632,8.93415e-05,5.16467e-05,0.274529,0.18966410193854744,0.43567051798568524,8.934549107064704e-05,-0.03422046938994505,5.164803371382476e-05,-0.12826168710221408
336,0.3217,618.518,205.205,0.021008,356.685,-0.0270149,0.0919344,0.174144,-0.0349199,-0.137639,0.362619,8.6582e-05,5.29496e-05,0.275285,0.19022694616092917,0.4370882243099177,8.658574832964838e-05,-0.03431723565084155,5.295100185476187e-05,-0.12858678485842423
337,0.3227,619.159,206.32,0.0234192,356.811,0.230391,-0.0156431,0.174615,-0.035011,-0.138016,0.363602,9.05507e-05,5.16385e-05,0.27604,0.19078767509386862,0.43850157658324784,9.055479983843817e-05,-0.03440520534359348,5.163983329037336e-05,-0.1289152457217696
338,0.3237,619.367,206.153,-0.0100957,357.005,0.164307,-0.00347293,0.175087,-0.0351079,-0.138391,0.364586,9.01556e-05,5.17694e-05,0.276795,0.19134985954160544,0.4399177587819785,9.015966413827847e-05,-0.0344987669460628,5.177074005846549e-05,-0.1292418412641324
339,0.3247,619.613,205.935,0.0438886,357.208,0.0769142,0.0555051,0.175559,-0.0352054,-0.138765,0.365569,8.92498e-05,5.26422e-05,0.277549,0.1919123094030344,0.4413338938552167,8.925378288182628e-05,-0.03459289872728666,5.26435856249563e-05,-0.12956744392400688
340,0.3257,619.962,206.229,0.00328406,357.375,0.129976,0.0205,0.176029,-0.0353002,-0.13914,0.366551,9.02931e-05,5.22772e-05,0.278303,0.19247263985579544,0.44274997892295387,9.029717654462921e-05,-0.03468441498254826,5.227856647671558e-05,-0.12989379493789588
341,0.3267,620.192,206.013,0.0343248,357.575,0.0448586,0.0662148,0.1765,-0.0353976,-0.139513,0.367533,8.93203e-05,5.3009e-05,0.279056,0.1930344267595976,0.4441674552692332,8.932428917685087e-05,-0.03477843214181897,5.301040500182985e-05,-0.1302182840314059
342,0.3277,620.61,206.494,0.0109804,357.731,0.14373,0.0167543,0.17697,-0.0354914,-0.139888,0.368513,9.09945e-05,5.24665e-05,0.279808,0.1935952847314737,0.4455834330912045,9.099864012518388e-05,-0.03486896567879483,5.246787639090478e-05,-0.13054439102601112
343,0.3287,620.778,206.116,0.0272901,357.938,0.0194464,0.0743592,0.177441,-0.0355895,-0.140261,0.369494,8.94419e-05,5.33559e-05,0.28056,0.1941576005255563,0.44700224625313867,8.94459000460035e-05,-0.03496364038939126,5.335732345135291e-05,-0.13086863749243305
344,0.3297,621.271,206.813,0.0166509,358.082,0.172056,0.00670925,0.17791,-0.0356821,-0.140635,0.370473,9.18906e-05,5.25755e-05,0.281311,0.1947177917947871,0.44841955511170606,9.189482207050403e-05,-0.03505299861894129,5.25768821157957e-05,-0.1311936318442789
345,0.3307,621.348,206.179,0.0216713,358.302,-0.0162481,0.0874793,0.178379,-0.0357812,-0.141006,0.371453,8.94086e-05,5.37695e-05,0.282062,0.1952782458553428,0.44983970203404855,8.941259706807259e-05,-0.03514862012865416,5.377094560543583e-05,-0.13151589922256957
346,0.3317,621.946,207.189,0.0214164,358.428,0.215493,-0.00994672,0.178848,-0.0358722,-0.141381,0.372429,9.3002e-05,5.25963e-05,0.282812,0.19583896283050173,0.45125543634919674,9.300632482012183e-05,-0.03523641760937646,5.2597683209532065e-05,-0.1318415197027052
347,0.3327,621.893,206.172,0.0165314,358.667,-0.069478,0.108095,0.179317,-0.0359731,-0.141751,0.373408,8.91195e-05,5.42815e-05,0.283562,0.1963999428435994,0.4526769111197495,8.912347126055487e-05,-0.03533375734396749,5.428297326726117e-05,-0.1321626789222956
348,0.3337,622.256,206.485,-0.00192419,358.83,-0.0138018,0.0762621,0.179785,-0.0360676,-0.142123,0.374384,8.97889e-05,5.40976e-05,0.284311,0.19695998905744228,0.4540954159027335,8.979293114386167e-05,-0.0354249139966788,5.4099063301560335e-05,-0.13248545436578185
349,0.3347,622.741,207.093,0.0268449,358.98,0.11264,0.0339172,0.180253,-0.0361606,-0.142496,0.375359,9.17361e-05,5.36991e-05,0.285059,0.1975202974342547,0.4555138503076446,9.174030788461351e-05,-0.03551461530850142,5.370054182241013e-05,-0.13280897695059035
350,0.3357,622.92,206.837,0.00861343,359.174,0.0237752,0.0660512,0.18072,-0.0362575,-0.142867,0.376334,9.06465e-05,5.42523e-05,0.285808,0.19807967001648819,0.45693366836051896,9.06506085180947e-05,-0.03560806941435346,5.4253771682555296e-05,-0.13313064514700168
351,0.3367,623.403,207.459,0.0281222,359.321,0.154568,0.0178802,0.181187,-0.03635,-0.143239,0.377308,9.27664e-05,5.37415e-05,0.286554,0.1986393038867238,0.45835341305692956,9.277070293545187e-05,-0.03569727154227065,5.374294410032121e-05,-0.1334530605740195
352,0.3377,623.502,206.953,0.011424,359.528,0.00182502,0.0764405,0.181654,-0.036448,-0.143609,0.378282,9.07892e-05,5.46337e-05,0.287302,0.19919919916701123,0.45977454125833184,9.079332146422203e-05,-0.035791768579229055,5.46351924477495e-05,-0.13377362363378398
353,0.3387,624.054,207.803,0.0280434,359.661,0.191165,0.00255417,0.18212,-0.0365393,-0.143981,0.379254,9.37675e-05,5.37787e-05,0.288047,0.1997581562207016,0.4611941319217301,9.377189630943583e-05,-0.03587979677220965,5.3780146100246284e-05,-0.13409579991728815
354,0.3397,624.054,206.991,0.0114508,359.884,-0.0394661,0.0937308,0.182587,-0.0366386,-0.14435,0.380227,9.06667e-05,5.51001e-05,0.288794,0.20031857412705278,0.4626165657139083,9.06708103494136e-05,-0.03597552915519864,5.510161803834457e-05,-0.13441525962317813
355,0.3407,624.721,208.204,0.0285451,359.996,0.242668,-0.0188445,0.183052,-0.0367279,-0.144722,0.381196,9.49883e-05,5.37337e-05,0.289538,0.2008768520535802,0.4640345280578897,9.49928115314691e-05,-0.03606161269675778,5.3735143681121755e-05,-0.1347371972624848
356,0.3417,624.901,208.0,-0.0094951,360.182,0.168859,-0.00500025,0.183517,-0.0368237,-0.145092,0.382168,9.44927e-05,5.38779e-05,0.290283,0.20143538963970986,0.46545826144149305,9.449716457576862e-05,-0.03615395357106288,5.387935144018918e-05,-0.13505728527956284
357,0.3427,625.125,207.761,0.0435282,360.377,0.0776179,0.0550998,0.183983,-0.03692,-0.145461,0.383138,9.35312e-05,5.47574e-05,0.291027,0.20199538900099911,0.46688044560289854,9.353557417912661e-05,-0.036246767476272757,5.475889921369159e-05,-0.13537639026280446
358,0.3437,625.457,208.047,0.0025655,360.535,0.12996,0.020296,0.184447,-0.0370135,-0.14583,0.384107,9.4559e-05,5.43938e-05,0.291771,0.2025532442739102,0.4683025416489477,9.456347084313421e-05,-0.03633687419095921,5.439527936945687e-05,-0.1356953775180294
359,0.3447,625.672,207.828,0.0335545,360.726,0.0452907,0.0656416,0.184912,-0.0371097,-0.146199,0.385076,9.35869e-05,5.51136e-05,0.292514,0.2031125615636893,0.4697260163739274,9.359127939045919e-05,-0.036429574124723696,5.511511878242281e-05,-0.13601424708867138
360,0.3457,626.071,208.293,0.00982858,360.874,0.141806,0.0172157,0.185375,-0.0372023,-0.146568,0.386043,9.52204e-05,5.45856e-05,0.293256,0.2036697316546161,0.4711479288156255,9.52249336061417e-05,-0.03651879661509472,5.458708982097882e-05,-0.13633299901814788
361,0.3467,626.23,207.929,0.0269628,361.071,0.0218604,0.073044,0.185839,-0.037299,-0.146936,0.38701,9.37241e-05,5.5443e-05,0.293998,0.204228364002786,0.47257121691167625,9.372849224065227e-05,-0.03661196074290385,5.544453699157792e-05,-0.13665077000106218
362,0.3477,626.697,208.59,0.0148231,361.208,0.16711,0.00825965,0.186302,-0.0373905,-0.147305,0.387976,9.60598e-05,5.47032e-05,0.294739,0.20478605082985712,0.47399440799783576,9.606441389031772e-05,-0.036700106715756076,5.470469624735408e-05,-0.13696928709691347
363,0.3487,626.775,207.997,0.022221,361.416,-0.00979374,0.0846842,0.186766,-0.0374881,-0.147672,0.388942,9.3736e-05,5.58291e-05,0.295481,0.2053452012703123,0.4754189745508284,9.374039335607876e-05,-0.03679412019740813,5.583065847325486e-05,-0.13728596125528647
364,0.3497,627.334,208.934,0.0185539,361.538,0.20502,-0.00635469,0.187228,-0.0375781,-0.148041,0.389906,9.70781e-05,5.47459e-05,0.29622,0.20590219940996235,0.4768419642131143,9.708281223130832e-05,-0.036880804825723534,5.47473985841318e-05,-0.13760424400880378
365,0.3507,627.3,208.01,0.0184193,361.763,-0.0556883,0.102564,0.187691,-0.0376773,-0.148407,0.390872,9.35398e-05,5.62966e-05,0.296961,0.20646066140226393,0.4782692828344457,9.35441749834176e-05,-0.036976341511186894,5.629818468322334e-05,-0.13791982310099982
366,0.3517,627.643,208.306,-0.000797284,361.918,-0.00284064,0.0717431,0.188153,-0.0377707,-0.148774,0.391835,9.42048e-05,5.61095e-05,0.2977,0.20701817500355713,0.47969354182445123,9.420923741143561e-05,-0.03706628372052323,5.6111074167475294e-05,-0.13823614847666488
367,0.3527,628.092,208.844,0.0258878,362.062,0.107446,0.0358243,0.188614,-0.0378626,-0.149142,0.392797,9.5927e-05,5.57924e-05,0.298438,0.20757473866029974,0.4811176919180504,9.593160114174104e-05,-0.037154773262892515,5.579395642496543e-05,-0.13855321922942865
368,0.3537,628.276,208.642,0.00921622,362.245,0.0331383,0.0621612,0.189076,-0.037958,-0.149508,0.393759,9.50462e-05,5.62614e-05,0.299176,0.20813276708420125,0.4825432127032365,9.505071703319601e-05,-0.03724662431615833,5.626298270233754e-05,-0.1388684510602467
369,0.3547,628.715,209.173,0.0258217,362.388,0.142453,0.0222098,0.189536,-0.0380497,-0.149875,0.39472,9.68508e-05,5.58597e-05,0.299913,0.20868863599710807,0.48396862152988596,9.685549019011752e-05,-0.03733490475298862,5.58612601821995e-05,-0.13918442835332778
370,0.3557,628.836,208.771,0.0126213,362.58,0.0169269,0.0702513,0.189997,-0.0381459,-0.15024,0.395681,9.5261e-05,5.66046e-05,0.300651,0.2092459699139002,0.4853954008328263,9.526553747307709e-05,-0.03742750868083111,5.660620207059708e-05,-0.13949856870287747
371,0.3567,629.325,209.474,0.0247869,362.713,0.170642,0.0101189,0.190457,-0.0382366,-0.150607,0.39664,9.77178e-05,5.59339e-05,0.301387,0.20980235101790345,0.4868205782855879,9.77225745397714e-05,-0.03751481004661694,5.593546432969276e-05,-0.13981431478521344
372,0.3577,629.372,208.84,0.0136709,362.918,-0.0141032,0.0835154,0.190917,-0.0383338,-0.150971,0.3976,9.52741e-05,5.70102e-05,0.302123,0.210358988116089,0.48824861138695774,9.527863872116349e-05,-0.03760835906052473,5.7011825112418535e-05,-0.14012736539596393
373,0.3587,629.946,209.813,0.0241578,363.034,0.208934,-0.00606222,0.191376,-0.0384231,-0.151338,0.398557,9.87345e-05,5.59526e-05,0.302858,0.210914670410965,0.4896735470310085,9.873937441118308e-05,-0.03769429679688352,5.5954165375959874e-05,-0.14044288075225442
374,0.3597,629.887,208.851,0.0135962,363.256,-0.05975,0.102482,0.191836,-0.0385218,-0.151701,0.399516,9.50756e-05,5.74887e-05,0.303594,0.2114718192937728,0.49110282919386794,9.508011982806153e-05,-0.037789271682701964,5.749035250701695e-05,-0.14075484336190203
375,0.3607,630.23,209.159,-0.00105855,363.407,-0.00368435,0.0719483,0.192295,-0.0386144,-0.152066,0.400473,9.57813e-05,5.73052e-05,0.304328,0.21202801249540326,0.49253049763179346,9.578588717507053e-05,-0.0378783682709084,5.730684197424729e-05,-0.1410684106145701
376,0.3617,630.67,209.693,0.0241372,363.547,0.10613,0.0357729,0.192753,-0.0387058,-0.152431,0.401429,9.7493e-05,5.69848e-05,0.305061,0.21258324846445742,0.4939580390436007,9.749775259693116e-05,-0.037966302169408106,5.698642366458451e-05,-0.14138186343607595
377,0.3627,630.852,209.498,0.00977531,363.725,0.034139,0.0618195,0.193212,-0.0388005,-0.152795,0.402385,9.66425e-05,5.74473e-05,0.305795,0.2131399519291739,0.4953869458375466,9.66471700367677e-05,-0.03805740244692646,5.744895012771423e-05,-0.14169434356295185
378,0.3637,631.279,210.014,0.0243518,363.865,0.140383,0.0225805,0.193669,-0.0388917,-0.15316,0.403339,9.83998e-05,5.7055e-05,0.306527,0.21369448358803855,0.4968142256881152,9.840464141919192e-05,-0.03814512761149502,5.7056627667417814e-05,-0.14200756796062142
379,0.3647,631.4,209.629,0.0132778,364.053,0.0194685,0.0692884,0.194127,-0.0389872,-0.153522,0.404294,9.68736e-05,5.77788e-05,0.307259,0.2142504829756624,0.49824436605697975,9.687829239868329e-05,-0.03823698036576928,5.7780469226997866e-05,-0.1423181050104224
380,0.3657,631.873,210.302,0.0232438,364.182,0.166705,0.0112667,0.194584,-0.0390774,-0.153887,0.405246,9.9234e-05,5.71367e-05,0.307991,0.2148055222631997,0.49967137384139604,9.923892385632627e-05,-0.03832372747778667,5.7138332332229425e-05,-0.1426311017767089
381,0.3667,631.926,209.703,0.0145093,364.381,-0.00908992,0.0815535,0.195041,-0.0391738,-0.154249,0.4062,9.69167e-05,5.81675e-05,0.308722,0.21536081526165973,0.5011027429865638,9.692139657513366e-05,-0.038416428602191854,5.8169191761825445e-05,-0.1429414131481188
382,0.3677,632.475,210.624,0.0223866,364.496,0.201794,-0.00362743,0.195497,-0.0392627,-0.154613,0.407151,0.000100199,5.71697e-05,0.309452,0.21591514617126095,0.5025309707097854,0.00010020402008747986,-0.03850190958200328,5.7171334218342196e-05,-0.14325332570220406
383,0.3687,632.433,209.726,0.0147917,364.711,-0.0506393,0.0988899,0.195954,-0.0393605,-0.154974,0.408104,9.67715e-05,5.86206e-05,0.310183,0.21647094638373665,0.5039635652477445,9.677618251258124e-05,-0.03859593949710838,5.8622318220846736e-05,-0.143562555432301
384,0.3697,633.094,211.003,0.0219248,364.805,0.251525,-0.024478,0.196409,-0.0394474,-0.155338,0.409053,0.000101374,5.71244e-05,0.310911,0.2170245666033901,0.5053915041209931,0.00010137913851759883,-0.038679481879996924,5.7126031629550766e-05,-0.14387424193173937
385,0.3707,633.244,210.762,-0.0113474,364.98,0.169613,-0.00568585,0.196865,-0.0395413,-0.1557,0.410003,0.000100755,5.73237e-05,0.311641,0.21757965635660637,0.5068223055729897,0.00010076007595549719,-0.038769745638698616,5.732534303470871e-05,-0.14418410336785636
386,0.3717,633.447,210.522,0.0405522,365.162,0.0799252,0.0529753,0.197321,-0.0396357,-0.156061,0.410953,9.98075e-05,5.8172e-05,0.312369,0.21813499928847047,0.5082544669322191,9.981248093415829e-05,-0.03886048149191068,5.817369202354428e-05,-0.14449299714785868
387,0.3727,633.751,210.778,0.00194586,365.308,0.126169,0.0215289,0.197775,-0.0397273,-0.156424,0.411901,0.000100737,5.78513e-05,0.313097,0.21868815813570452,0.5096849701182478,0.00010074207414190184,-0.038948517839679675,5.785297341875939e-05,-0.14480348983206237
388,0.3737,633.954,210.582,0.0315909,365.485,0.0495587,0.0628589,0.19823,-0.0398214,-0.156784,0.41285,9.98711e-05,5.8507e-05,0.313825,0.21924278741624903,0.5111183411818851,9.987608728434516e-05,-0.03903894852932033,5.850871156787285e-05,-0.14511130516563842
389,0.3747,634.316,210.994,0.00862982,365.623,0.134174,0.0199006,0.198684,-0.0399122,-0.157146,0.413796,0.000101323,5.8052e-05,0.314551,0.21979644931347675,0.5125485355079007,0.00010132813334862156,-0.039126199831524766,5.805368504985253e-05,-0.1454207188659098
390,0.3757,634.474,210.688,0.0259733,365.804,0.0307722,0.0685835,0.199138,-0.0400066,-0.157506,0.414744,0.000100055,5.88028e-05,0.315278,0.22035036263027385,0.5139831114010973,0.0001000600056684231,-0.039216902037049195,5.8804528918487975e-05,-0.1457283120370252
391,0.3767,634.889,211.251,0.0126022,365.933,0.153285,0.0132434,0.199591,-0.0400966,-0.157867,0.415689,0.000102053,5.81904e-05,0.316003,0.2209033065768935,0.5154145016667495,0.00010205820758457662,-0.0393033686248111,5.819209309421147e-05,-0.14603664845830722
392,0.3777,634.986,210.774,0.0224893,366.122,0.00703614,0.0772462,0.200045,-0.0401917,-0.158227,0.416635,0.000100161,5.9138e-05,0.316729,0.22145772252097595,0.5168487620835416,0.0001001660162804896,-0.039394726530317614,5.9139748685987925e-05,-0.14634401993467694
393,0.3787,635.469,211.541,0.0150097,366.24,0.18096,0.00253549,0.200497,-0.0402805,-0.158588,0.417578,0.000102903,5.82756e-05,0.317453,0.22200994620470604,0.5182798251063541,0.00010290829469528084,-0.03948002449131616,5.827729805574222e-05,-0.14665213412552291
394,0.3797,635.486,210.824,0.020315,366.441,-0.0258746,0.0901327,0.200951,-0.0403767,-0.158946,0.418523,0.000100132,5.95277e-05,0.318178,0.2225648646772449,0.5197152776855987,0.00010013701337596714,-0.03957242206856537,5.9529471808650314e-05,-0.14695757798379305
395,0.3807,636.06,211.872,0.016358,366.542,0.219836,-0.0131656,0.201402,-0.040464,-0.159307,0.419465,0.000103914,5.82951e-05,0.318901,0.2231163657853661,0.5211475239592631,0.00010391939924669913,-0.03965626373637676,5.829679919244768e-05,-0.14726547072015828
396,0.3817,635.967,210.822,0.0189045,366.761,-0.0718068,0.108657,0.201855,-0.0405617,-0.159664,0.420409,9.99134e-05,5.99896e-05,0.319625,0.22367056301526222,0.522584165209864,9.991839151002324e-05,-0.03975008473617925,5.9991399411929436e-05,-0.1475698426134956
397,0.3827,636.303,211.158,0.00173476,366.9,-0.0071764,0.0740095,0.202306,-0.0406527,-0.160024,0.421351,0.000100723,5.97586e-05,0.320348,0.224222562905801,0.5240191152488498,0.00010072807273164841,-0.03983746350267414,5.9760385580753805e-05,-0.1478766622393084
398,0.3837,636.724,211.684,0.0222857,367.032,0.102925,0.0362976,0.202757,-0.0407426,-0.160383,0.422291,0.000102428,5.94208e-05,0.32107,0.22477481180443748,0.5254523667398494,0.0001024332459267363,-0.03992377823479987,5.9422565450661935e-05,-0.14818251961288098
399,0.3847,636.898,211.504,0.0106891,367.2,0.0354889,0.0611637,0.203209,-0.0408358,-0.160741,0.423232,0.000101634,5.98619e-05,0.321792,0.22532853515142226,0.526888493008389,0.00010163916491001679,-0.04001325316907167,5.986369175925432e-05,-0.14848741569120516
400,0.3857,637.299,211.99,0.0217241,367.332,0.135932,0.0233881,0.203659,-0.0409256,-0.1611,0.424171,0.0001033,5.94893e-05,0.322512,0.2258800570753663,0.5283229146588924,0.000103305335628745,-0.04009945610836718,5.949106952352068e-05,-0.14879305384364105
401,0.3867,637.419,211.637,0.0142143,367.509,0.0240891,0.0672513,0.20411,-0.0410195,-0.161457,0.425111,0.000101896,6.01672e-05,0.323233,0.22643305367246658,0.5297602136233517,0.00010190119157371669,-0.040189586537748734,6.016901008232267e-05,-0.1490968804871362
402,0.3877,637.857,212.253,0.0202677,367.632,0.158471,0.0135739,0.204559,-0.0411085,-0.161816,0.426048,0.000104064,5.95839e-05,0.323953,0.22698384575713515,0.5311942706943331,0.00010406941484597532,-0.04027500586333055,5.958567515573776e-05,-0.14940229988097986
403,0.3887,637.921,211.721,0.0158343,367.819,0.00054511,0.0775011,0.205009,-0.0412031,-0.162172,0.426987,0.000101996,6.05206e-05,0.324673,0.22753611273847718,0.532632737368925,0.00010200120176895311,-0.04036579155354503,6.052243140852731e-05,-0.14970505876794282
404,0.3897,638.421,212.54,0.018936,367.93,0.187131,0.00124659,0.205458,-0.041291,-0.16253,0.427922,0.00010492,5.9644e-05,0.325391,0.2280874002078721,0.534066419120137,0.00010492550429574976,-0.04045013969331235,5.964577873873722e-05,-0.15000940987480527
405,0.3907,638.408,211.766,0.0167817,368.129,-0.0328462,0.0915862,0.205908,-0.0413867,-0.162886,0.42886,0.000101953,6.0922e-05,0.326111,0.22864016390046848,0.5355060485018976,0.00010195819738378908,-0.04054196422107004,6.092385578271298e-05,-0.15031195266907715
406,0.3917,638.995,212.867,0.0177707,368.224,0.22645,-0.0154365,0.206356,-0.041473,-0.163244,0.429794,0.00010593,5.96471e-05,0.326828,0.22919071800880797,0.5369408811137211,0.00010593561078064972,-0.04062476187678743,5.964887892373483e-05,-0.15061608654680925
407,0.3927,639.145,212.657,-0.0111611,368.388,0.153123,0.00141616,0.206804,-0.0415654,-0.1636,0.43073,0.000105364,5.98397e-05,0.327546,0.22974151882064553,0.5383801312424268,0.0001053695509811714,-0.04071340405345847,5.984149043047893e-05,-0.15091841340262524
408,0.3937,639.355,212.488,0.0368797,368.557,0.0833324,0.049982,0.207252,-0.0416579,-0.163956,0.431664,0.000104675,6.0555e-05,0.328263,0.23029256644652896,0.5398176495015319,0.0001046804786188904,-0.040802133959762066,6.055683349104335e-05,-0.15122063264923624
409,0.3947,639.629,212.684,0.00244289,368.698,0.11504,0.0259742,0.2077,-0.0417484,-0.164312,0.432598,0.00010538,6.03325e-05,0.328979,0.23084386099705556,0.5412565110299001,0.00010538555266714766,-0.04088893743872202,6.03343200418216e-05,-0.15152274432494406
410,0.3957,639.841,212.567,0.029272,368.861,0.0600083,0.0573538,0.208148,-0.0418406,-0.164667,0.433531,0.000104815,6.08516e-05,0.329695,0.23139540258287283,0.5426951743867854,0.00010482049328408571,-0.0409773634021906,6.0853451496090116e-05,-0.1518239002923618
411,0.3967,640.158,212.875,0.00854126,368.996,0.11909,0.0258789,0.208594,-0.0419305,-0.165023,0.434463,0.000105889,6.05463e-05,0.330411,0.2319447274227584,0.544133636508539,0.0001058946064380617,-0.04106357566192165,6.054813296429984e-05,-0.152125797243012
412,0.3977,640.341,212.688,0.0245428,369.162,0.0475966,0.0607184,0.209041,-0.0420228,-0.165378,0.435395,0.000105075,6.11089e-05,0.331126,0.23249552981107868,0.5455734399019256,0.00010508052057112138,-0.041152081409284946,6.111076718684494e-05,-0.1524267391646391
413,0.3987,640.693,213.093,0.011824,369.291,0.130929,0.022032,0.209488,-0.0421121,-0.165733,0.436325,0.000106498,6.0714e-05,0.33184,0.23304657846310262,0.5470114917915156,0.00010650367111342263,-0.04123770270536731,6.071584313227518e-05,-0.15272757427084493
414,0.3997,640.836,212.8,0.0218365,369.461,0.0328406,0.0658734,0.209934,-0.0422049,-0.166087,0.437256,0.000105295,6.13904e-05,0.332554,0.23359663989167778,0.5484524301430971,0.00010530054371304942,-0.041326671718330266,6.139228442925138e-05,-0.15302745562742137
415,0.4007,641.23,213.33,0.0135644,369.584,0.147714,0.0156473,0.21038,-0.0422934,-0.166442,0.438185,0.000107176,6.08484e-05,0.333267,0.23414694670236624,0.5498916108466307,0.00010718174355273113,-0.041411510553709285,6.085025130153632e-05,-0.15332807751713096
416,0.4017,641.324,212.892,0.0204222,369.761,0.0130801,0.0735117,0.210825,-0.0423868,-0.166796,0.439115,0.000105441,6.17035e-05,0.333981,0.23469626430775103,0.5513336805031712,0.0001054465590977216,-0.041501038537601675,6.170540370020738e-05,-0.15362774633318
417,0.4027,641.771,213.589,0.0142816,369.873,0.170594,0.00640834,0.21127,-0.0424744,-0.167151,0.440042,0.00010794,6.09451e-05,0.334693,0.2352458264138677,0.5527724335840205,0.00010794582573137035,-0.04158499936908766,6.094695719038867e-05,-0.15392815515751057
418,0.4037,641.801,212.956,0.0198312,370.06,-0.0136483,0.0842905,0.211715,-0.0425685,-0.167503,0.440971,0.000105485,6.20563e-05,0.335405,0.23579563312954321,0.5542156294354983,0.00010549056373831966,-0.04167518197748876,6.205822553195794e-05,-0.1542259200372017
419,0.4047,642.319,213.879,0.0142493,370.159,0.201625,-0.00643799,0.212159,-0.0426549,-0.167858,0.441897,0.000108821,6.09946e-05,0.336116,0.23634444821858658,0.5556554996653842,0.00010882692121971793,-0.041757977664940715,6.099646020851779e-05,-0.15452611654755521
420,0.4057,642.264,212.984,0.0198311,370.36,-0.0497625,0.0991234,0.212604,-0.0427502,-0.168209,0.442825,0.000105392,6.24604e-05,0.336828,0.2368947439297584,0.5570998180291424,0.00010539755393201844,-0.04184929377838731,6.246235069129469e-05,-0.15482282580512607
421,0.4067,642.879,214.211,0.0135668,370.442,0.243599,-0.0240101,0.213047,-0.0428349,-0.168564,0.443748,0.000109859,6.09825e-05,0.337537,0.23744280968892184,0.5585376846345416,0.0001098650347208796,-0.04193044570637161,6.0984359470550586e-05,-0.15512281045154008
422,0.4077,643.008,213.959,-0.0126962,370.603,0.160205,-0.00219284,0.213491,-0.0429265,-0.168916,0.444674,0.000109171,6.12234e-05,0.338247,0.23799235628674054,0.5599815589411432,0.00010917695937040506,-0.04201820085829755,6.122527419050172e-05,-0.15542015488657046
423,0.4087,643.201,213.761,0.0360084,370.768,0.0832841,0.0494846,0.213935,-0.0430182,-0.169268,0.445599,0.000108382,6.19704e-05,0.338957,0.23854214693742426,0.5614252094685974,0.00010838787354106039,-0.04210604376162019,6.197232020488386e-05,-0.15571739467477852
424,0.4097,643.468,213.96,0.0019032,370.904,0.116595,0.0249139,0.214377,-0.0431077,-0.169621,0.446522,0.000109108,6.17384e-05,0.339666,0.2390897035674715,0.5628670702533256,0.00010911395249424416,-0.04219177143433295,6.174030585426316e-05,-0.15601537383804176
425,0.4107,643.667,213.826,0.0286035,371.062,0.0581462,0.0575738,0.21482,-0.043199,-0.169972,0.447446,0.000108489,6.22688e-05,0.340374,0.23963874190916568,0.564311826800973,0.00010849488514441674,-0.04227921533372625,6.227073874187639e-05,-0.15631156045803196
426,0.4117,643.978,214.141,0.00793986,371.191,0.119926,0.0250771,0.215262,-0.0432878,-0.170324,0.448368,0.000109598,6.19499e-05,0.341082,0.2401867833413236,0.5657547874079036,0.00010960400608017729,-0.04236425716349157,6.195181893464685e-05,-0.1566084865266968
427,0.4127,644.148,213.941,0.0240477,371.352,0.0457848,0.0609478,0.215705,-0.0433793,-0.170675,0.44929,0.000108739,6.25205e-05,0.34179,0.24073630779702393,0.567199079038021,0.00010874491229939665,-0.04245187682530038,6.25224544472669e-05,-0.1569044650006649
428,0.4137,644.493,214.352,0.0110092,371.476,0.131279,0.0213705,0.216146,-0.0434676,-0.171027,0.45021,0.000110189,6.21145e-05,0.342496,0.24128359317631864,0.5686415656328263,0.00011019507103093851,-0.0425364245917379,6.211642914544235e-05,-0.1572011824036581
429,0.4147,644.626,214.05,0.0215901,371.641,0.0316332,0.0659087,0.216588,-0.0435594,-0.171377,0.451131,0.000108957,6.27938e-05,0.343203,0.24183236179343304,0.5700869500121113,0.0001089629360295774,-0.04262431571369618,6.279577157197735e-05,-0.15749611037441125
430,0.4157,645.011,214.579,0.0124858,371.758,0.147151,0.0152903,0.217029,-0.043647,-0.171728,0.45205,0.000110843,6.2248e-05,0.343909,0.24238013063913666,0.5715305231394257,0.00011084914331238593,-0.04270817815041128,6.224993744696761e-05,-0.1577917773470805
431,0.4167,645.097,214.141,0.0204694,371.93,0.0131028,0.0731047,0.21747,-0.0437394,-0.172078,0.45297,0.00010911,6.30955e-05,0.344615,0.2429281411041746,0.5729769964964335,0.00010911595271245744,-0.04279662782831217,6.309749056288005e-05,-0.15808649864577318
432,0.4177,645.531,214.826,0.0129048,372.037,0.168363,0.0066632,0.21791,-0.0438261,-0.172429,0.453888,0.000111572,6.2348e-05,0.345319,0.2434751498193528,0.5744216523748116,0.00011157822438701004,-0.04287961376318716,6.234994367693147e-05,-0.1583819584285232
433,0.4187,645.559,214.208,0.0202129,372.218,-0.0114499,0.0830573,0.21835,-0.0439192,-0.172778,0.454807,0.000109174,6.34317e-05,0.346024,0.24402239927132374,0.5758692109246184,0.00010917995969794703,-0.04296871752330145,6.343371183281654e-05,-0.15867563187603428
434,0.4197,646.058,215.098,0.0125408,372.314,0.196553,-0.00509066,0.21879,-0.0440047,-0.173129,0.455723,0.000112401,6.24072e-05,0.346727,0.2445698895660351,0.5773133684449923,0.00011240731722916841,-0.04305054019998389,6.240914736976855e-05,-0.15897088490930722
435,0.4207,646.01,214.244,0.0206002,372.508,-0.0439554,0.0964813,0.21923,-0.0440989,-0.173476,0.456641,0.000109122,6.38115e-05,0.347431,0.24511762080948096,0.5787620069405606,0.00010912795402195918,-0.04314068059341791,6.381353599715922e-05,-0.15926267138436234
436,0.4217,646.594,215.406,0.0114901,372.587,0.233919,-0.0208424,0.219668,-0.044183,-0.173828,0.457555,0.000113362,6.24146e-05,0.348133,0.2456631017790074,0.5802056550615942,0.00011336842571441075,-0.043221149078432775,6.241654783156747e-05,-0.15955855884478698
437,0.4227,646.72,215.164,-0.0126074,372.743,0.153306,0.000610945,0.220107,-0.0442736,-0.174176,0.45847,0.000112683,6.26566e-05,0.348836,0.24621006793097444,0.5816522049316171,0.00011268934896779825,-0.043307829315652246,6.265856296572281e-05,-0.15985098158180155
438,0.4237,646.912,214.993,0.0340934,372.901,0.0844599,0.0480198,0.220546,-0.0443642,-0.174524,0.459385,0.000111997,6.33461e-05,0.349538,0.2467572742537958,0.5831000790004996,0.00011200327189819781,-0.04339450169999792,6.334810640651334e-05,-0.16014330257340847
439,0.4247,647.164,215.166,0.00212858,373.033,0.111665,0.0266787,0.220985,-0.0444529,-0.174873,0.460299,0.000112627,6.31555e-05,0.35024,0.24730472085292954,0.584547693931952,0.00011263334265865232,-0.04347934884467064,6.315749435059637e-05,-0.16043636141906725
440,0.4257,647.364,215.064,0.0272586,373.184,0.0620767,0.0551282,0.221423,-0.0445431,-0.175221,0.461213,0.000112129,6.36273e-05,0.350941,0.2478511599820965,0.5859966325883021,0.00011213528669129502,-0.043565623116376684,6.362932425951762e-05,-0.16072847873393248
441,0.4267,647.655,215.336,0.00791915,373.311,0.113453,0.0274287,0.22186,-0.0446312,-0.175569,0.462125,0.000113082,6.33697e-05,0.351641,0.24839659010681103,0.5874437212893697,0.0001130883940103633,-0.043649881273353786,6.337170790193802e-05,-0.1610204944096585
442,0.4277,647.832,215.183,0.023055,373.464,0.0521561,0.057607,0.222298,-0.0447215,-0.175916,0.463038,0.000112403,6.38623e-05,0.352341,0.2489435075794606,0.5888937192302441,0.00011240931745382099,-0.04373623579010977,6.386433924010504e-05,-0.16131156979359862
443,0.4287,648.15,215.53,0.0107357,373.586,0.122072,0.0247711,0.222735,-0.0448091,-0.176264,0.463949,0.000113623,6.35428e-05,0.353041,0.2494894151643925,0.5903418609368567,0.00011362945533766045,-0.0438200008268923,6.354481888637409e-05,-0.16160338258893903
444,0.4297,648.297,215.299,0.0208583,373.742,0.0413203,0.0612699,0.223172,-0.0448997,-0.176611,0.46486,0.000112659,6.41136e-05,0.35374,0.2500355613630725,0.591791322501668,0.00011266534626352964,-0.04390662681060109,6.411565532071783e-05,-0.16189425574576932
445,0.4307,648.645,215.736,0.0120176,373.859,0.133998,0.0202601,0.223608,-0.0449868,-0.176959,0.465769,0.000114209,6.36916e-05,0.354438,0.2505806956984762,0.5932389186465932,0.00011421552209611718,-0.04398989891685301,6.369362835312309e-05,-0.16218586580167715
446,0.4317,648.757,215.403,0.0199282,374.02,0.0274678,0.0665824,0.224044,-0.0450777,-0.177305,0.466679,0.000112869,6.43857e-05,0.355137,0.2511260677642717,0.5946894259432844,0.00011287536994530889,-0.04407679628549621,6.4387772803709e-05,-0.16247569934801476
447,0.4327,649.142,215.955,0.0123146,374.13,0.149631,0.0139015,0.22448,-0.0451641,-0.177652,0.467588,0.000114847,6.38159e-05,0.355834,0.2516716776641319,0.5961396576619247,0.00011485359516916205,-0.044159384482435726,6.381793627796561e-05,-0.162766269863441
448,0.4337,649.211,215.491,0.0198045,374.298,0.00949156,0.0738489,0.224916,-0.0452555,-0.177997,0.468497,0.000113018,6.4682e-05,0.356531,0.2522175255017751,0.5975912082405284,0.00011302438677485149,-0.04424674432228848,6.46840919256153e-05,-0.16305506568019523
449,0.4347,649.642,216.192,0.0119089,374.399,0.169996,0.00537143,0.225351,-0.045341,-0.178344,0.469403,0.000115552,6.39119e-05,0.357228,0.2527623586179797,0.5990392817534431,0.00011555867638946005,-0.044328457732350834,6.391394240901072e-05,-0.16334543519038058
450,0.4357,649.657,215.557,0.0202724,374.576,-0.0138291,0.0834942,0.225786,-0.0454332,-0.178689,0.470311,0.000113088,6.50078e-05,0.357924,0.2533074287881456,0.6004918687959919,0.00011309439468898397,-0.04441656658666737,6.500991305280479e-05,-0.16363403122956066
451,0.4367,650.148,216.451,0.0109162,374.665,0.196458,-0.00585006,0.22622,-0.0455176,-0.179036,0.471216,0.000116345,6.39729e-05,0.358619,0.253851482263304,0.6019409695564424,0.00011635176834201566,-0.04449721442506083,6.397494630960843e-05,-0.16392419987355267
452,0.4377,650.092,215.596,0.0212533,374.854,-0.0440224,0.0961136,0.226655,-0.0456108,-0.179379,0.472123,0.000113056,6.53704e-05,0.359315,0.25439702630531524,0.6033945891326564,0.00011306239107033988,-0.04458626313494207,6.537253669125498e-05,-0.1642109246968778
453,0.4387,650.66,216.74,0.00933463,374.928,0.230756,-0.0204752,0.227088,-0.0456939,-0.179726,0.473027,0.000117249,6.399e-05,0.360009,0.2549402978275017,0.6048447131985546,0.00011725587393263126,-0.04466565471770956,6.399204740370479e-05,-0.1645008931935642
454,0.4397,650.778,216.494,-0.0127862,375.079,0.149657,0.0018588,0.227522,-0.0457834,-0.180071,0.473932,0.000116545,6.42433e-05,0.360703,0.2554850601216261,0.6062977550662714,0.00011655179163239104,-0.044751153315493064,6.424536364502131e-05,-0.16478909066848946
455,0.4407,650.966,216.337,0.0324043,375.231,0.0852423,0.0467193,0.227956,-0.0458729,-0.180415,0.474836,0.000115912,6.48959e-05,0.361397,0.25603005889389796,0.6077505047807881,0.00011591871805549658,-0.04483664426149436,6.489800578446392e-05,-0.1650763538092065
456,0.4417,651.204,216.491,0.00218007,375.358,0.108198,0.0276958,0.228389,-0.0459606,-0.18076,0.475739,0.000116473,6.4734e-05,0.362091,0.25657403767230536,0.609202959171067,0.00011647978324313968,-0.04492040841468081,6.47360952905629e-05,-0.1653643527844625
457,0.4427,651.402,216.408,0.0259974,375.503,0.0644251,0.053275,0.228822,-0.0460497,-0.181103,0.476642,0.000116053,6.51642e-05,0.362783,0.2571182520445261,0.6106567257200106,0.00011605973440986794,-0.04500550221530597,6.516632323250171e-05,-0.1656505837200457
458,0.4437,651.675,216.65,0.0077791,375.626,0.108757,0.0289047,0.229254,-0.0461369,-0.181447,0.477543,0.000116898,6.49483e-05,0.363476,0.2576614444505214,0.6121085813926468,0.00011690483283754993,-0.04508877410480572,6.495040918652606e-05,-0.16593755055811998
459,0.4447,651.853,216.528,0.0220686,375.772,0.0562004,0.055139,0.229687,-0.046226,-0.181791,0.478445,0.000116339,6.53854e-05,0.364168,0.25820612977183033,0.6135633593392824,0.00011634576764385507,-0.045173852904716094,6.538753767193484e-05,-0.16622441869657933
460,0.4457,652.149,216.831,0.0103903,375.892,0.115418,0.0269876,0.230119,-0.0463128,-0.182134,0.479345,0.000117399,6.51253e-05,0.364859,0.25874979224253036,0.6150162200519405,0.0001174058915323073,-0.04525672821744342,6.51274206984187e-05,-0.16651035468014186
461,0.4467,652.304,216.648,0.0200784,376.04,0.0477107,0.0578894,0.23055,-0.046402,-0.182477,0.480246,0.000116617,6.56191e-05,0.36555,0.25929243033309524,0.616472005399022,0.00011662380002674944,-0.045341887519125046,6.562125298015253e-05,-0.1667961926044802
462,0.4477,652.623,217.02,0.0115198,376.155,0.124552,0.0235781,0.230982,-0.0464884,-0.182821,0.481144,0.000117932,6.52825e-05,0.36624,0.25983656218701734,0.6179242492197548,0.00011793895425160628,-0.04542436641690373,6.5284630948792e-05,-0.16708276542087386
463,0.4487,652.75,216.759,0.0192889,376.307,0.0371509,0.0618782,0.231413,-0.0465779,-0.183163,0.482044,0.000116863,6.58683e-05,0.36693,0.26037966877638263,0.6193810364999954,0.00011686982874636875,-0.045509797113028716,6.587046936412655e-05,-0.16736757440998673
464,0.4497,653.097,217.218,0.011732,376.417,0.136273,0.0188057,0.231843,-0.0466637,-0.183506,0.482941,0.000118502,6.54217e-05,0.367619,0.2609217485727602,0.6208342729688516,0.00011850902163934585,-0.04559168885923026,6.542384004615265e-05,-0.16765311835837737
465,0.4507,653.192,216.858,0.0192436,376.573,0.0237639,0.0672665,0.232274,-0.0467536,-0.183847,0.48384,0.000117066,6.61346e-05,0.368309,0.26146532297826486,0.6222920581565106,0.00011707285249151766,-0.04567748630974866,6.613678694078473e-05,-0.16793690025745356
466,0.4517,653.573,217.427,0.0113161,376.676,0.151208,0.0125128,0.232704,-0.0468387,-0.18419,0.484736,0.000119117,6.55408e-05,0.368997,0.26200786970633216,0.6237462832361649,0.0001191240947115979,-0.045758695700155116,6.554294784510972e-05,-0.16822224896056504
467,0.4527,653.628,216.944,0.0197278,376.839,0.00678666,0.0742917,0.233134,-0.0469291,-0.184531,0.485633,0.000117216,6.64208e-05,0.369685,0.26255064977965836,0.6252034370880268,0.00011722287006366017,-0.045844955215075034,6.64230059101989e-05,-0.16850583681919162
468,0.4537,654.052,217.652,0.0104013,376.934,0.170189,0.00440325,0.233563,-0.0470134,-0.184873,0.486528,0.000119789,6.56363e-05,0.370372,0.26309240020557145,0.6266586452727452,0.00011979617498880657,-0.04592538709509897,6.563845410911817e-05,-0.16879015920110085
469,0.4547,654.056,217.011,0.020657,377.105,-0.0147054,0.0833001,0.233993,-0.0471045,-0.185213,0.487424,0.000117299,6.67313e-05,0.37106,0.26363564672729156,0.6281167845677624,0.00011730587979674745,-0.0460122993334221,6.673352658270737e-05,-0.16907272250848826
470,0.4557,654.534,217.895,0.00901293,377.189,0.194252,-0.00593667,0.234422,-0.0471878,-0.185556,0.488317,0.000120534,6.5703e-05,0.371746,0.2641778627167515,0.6295713422197116,0.00012054126451443992,-0.04609176319917163,6.570515848935976e-05,-0.16935768169137422
471,0.4567,654.476,217.056,0.0220248,377.371,-0.0418523,0.0947512,0.234851,-0.0472797,-0.185895,0.489212,0.000117298,6.70716e-05,0.372433,0.2647203113667731,0.6310304614294453,0.00011730487967942516,-0.046179423338088554,6.707384935000782e-05,-0.16963922171355084
472,0.4577,655.022,218.163,0.00710487,377.442,0.224678,-0.0190452,0.235279,-0.0473618,-0.186237,0.490104,0.00012137,6.5734e-05,0.373117,0.2652617275148288,0.6324859896701265,0.00012137736563633261,-0.04625772879294954,6.573616052674147e-05,-0.16992315654410128
473,0.4587,654.886,217.073,0.0238768,377.638,-0.0760598,0.109228,0.235707,-0.0474549,-0.186576,0.490998,0.000117194,6.7449e-05,0.373804,0.26580337543859245,0.6339460847101277,0.00011720086748501224,-0.04634651806519419,6.745127473495316e-05,-0.1702045049027916
474,0.4597,655.192,217.437,0.00592331,377.75,0.000158989,0.070297,0.236135,-0.0475408,-0.186916,0.49189,0.000118184,6.7151e-05,0.374488,0.26634525523728514,0.6354042148470485,0.0001181909840040074,-0.04642843338097924,6.715325467876454e-05,-0.17048658741438028
475,0.4607,655.536,217.864,0.0177737,377.86,0.0896382,0.0387501,0.236562,-0.0476263,-0.187256,0.492781,0.000119583,6.689e-05,0.375172,0.26688610012343683,0.6368620093534869,0.00011959015033191633,-0.04650996026460119,6.689223718603365e-05,-0.17076857403421752
476,0.4617,655.702,217.77,0.0116088,377.997,0.0472712,0.0545773,0.23699,-0.0477142,-0.187596,0.493672,0.000119127,6.71934e-05,0.375856,0.26742844342747785,0.63832110333366,0.00011913409590280644,-0.046593768355674414,6.719565752710821e-05,-0.17105046479490105
477,0.4627,656.011,218.106,0.0158221,378.111,0.11387,0.0289638,0.237417,-0.0477999,-0.187936,0.494562,0.000120282,6.69748e-05,0.376539,0.2679697509337491,0.639779858165237,0.00012028923416984583,-0.04667547176868503,6.697704286207085e-05,-0.17133225972901733
478,0.4637,656.148,217.911,0.0147537,378.254,0.0452391,0.056572,0.237843,-0.0478881,-0.188274,0.495452,0.000119473,6.74182e-05,0.377222,0.2685100211170255,0.6412399118665255,0.00011948013718310335,-0.04675955128411391,6.742047265784201e-05,-0.1716123020954029
479,0.4647,656.468,218.293,0.0140812,378.365,0.124319,0.0240914,0.23827,-0.0479735,-0.188614,0.49634,0.000120818,6.71086e-05,0.377904,0.2690517905555858,0.6426979801947881,0.00012082529878854054,-0.04684095454246562,6.711085183241927e-05,-0.1718939060373076
480,0.4657,656.581,218.024,0.0165211,378.511,0.0361311,0.0608121,0.238696,-0.048062,-0.188952,0.497229,0.000119728,6.76659e-05,0.378587,0.2695925217859372,0.644158988020938,0.00011973516768315484,-0.04692530538540873,6.766818938874763e-05,-0.17217375859931972
481,0.4667,656.923,218.481,0.0125541,378.617,0.135246,0.0190783,0.239121,-0.0481468,-0.189291,0.498116,0.000121365,6.72388e-05,0.379268,0.27013221328401604,0.6456180040212496,0.0001213723650295151,-0.04700612269280979,6.724106057887091e-05,-0.17245434413321947
482,0.4677,657.01,218.124,0.0178419,378.768,0.0240558,0.0661022,0.239547,-0.0482356,-0.189628,0.499004,0.00011994,6.79253e-05,0.379949,0.270673404872499,0.6470799618220158,0.00011994719308927593,-0.047090744791837946,6.792760697549305e-05,-0.1727331800327585
483,0.4687,657.38,218.679,0.011144,378.867,0.148656,0.01309,0.239972,-0.0483198,-0.189967,0.49989,0.000121946,6.73562e-05,0.380629,0.2712135558435207,0.6485399213347491,0.00012195343571574924,-0.047170976373329454,6.735846847982785e-05,-0.17301357595493339
484,0.4697,657.432,218.211,0.0190941,379.025,0.00897311,0.0725855,0.240397,-0.0484091,-0.190304,0.500776,0.000120106,6.81988e-05,0.38131,0.27175393642749435,0.6500011749448111,0.00012011321301441669,-0.047256060206089634,6.820112559102753e-05,-0.17329222342510064
485,0.4707,657.839,218.889,0.00966778,379.116,0.165323,0.00575552,0.240821,-0.0484926,-0.190643,0.501661,0.000122575,6.74561e-05,0.381989,0.2722932744281159,0.6514620723363822,0.00012258251262231568,-0.04733561100377037,6.74583752138247e-05,-0.1735724298636847
486,0.4717,657.848,218.284,0.0204653,379.281,-0.00972711,0.080573,0.241246,-0.0485824,-0.190979,0.502547,0.000120219,6.84902e-05,0.382669,0.2728341139900139,0.6529259161195087,0.00012022622659357829,-0.04742115642485534,6.849254550722605e-05,-0.17385006288229143
487,0.4727,658.3,219.114,0.00797292,379.363,0.186001,-0.00328235,0.24167,-0.048665,-0.191317,0.503429,0.00012326,6.75341e-05,0.383347,0.2733739100830306,0.654384439891958,0.0001232675968259045,-0.047499836187815725,6.753638047873878e-05,-0.17412925437501692
488,0.4737,658.257,218.34,0.0220856,379.537,-0.0328437,0.0904303,0.242094,-0.0487555,-0.191653,0.504314,0.000120266,6.8804e-05,0.384026,0.27391393509811857,0.6558492181900553,0.00012027323224539366,-0.047586033552151186,6.880636704953424e-05,-0.174406700332016
489,0.4747,658.766,219.357,0.005928,379.608,0.211588,-0.0144322,0.242517,-0.0488371,-0.191991,0.505196,0.000124015,6.75851e-05,0.384703,0.27445291467880994,0.6573103214523184,0.00012402269017797174,-0.04766374736104684,6.758738392442787e-05,-0.17468570371307612
490,0.4757,658.658,218.374,0.0240651,379.793,-0.061347,0.102585,0.242941,-0.0489286,-0.192326,0.50608,0.000120233,6.91456e-05,0.385381,0.27499339728884986,0.6587760315248854,0.00012024022827672454,-0.04775088214168621,6.914799061208399e-05,-0.1749621376970547
491,0.4767,659.237,219.622,0.00340204,379.85,0.243166,-0.0281776,0.243363,-0.0490088,-0.192664,0.506959,0.000124857,6.76029e-05,0.386057,0.27553155804643903,0.660234736663583,0.00012486479495965597,-0.0478272494585682,6.760518512760605e-05,-0.17524095337200962
492,0.4777,659.327,219.329,-0.0142815,379.993,0.151045,7.35756e-05,0.243786,-0.0490964,-0.192999,0.507841,0.000123988,6.79162e-05,0.386734,0.2760712220263777,0.6616997096594415,0.0001239956868297476,-0.04791065613824963,6.791850635723407e-05,-0.17551720137850546
493,0.4787,659.495,219.166,0.0296121,380.134,0.0864231,0.0442647,0.244208,-0.0491836,-0.193335,0.508722,0.000123341,6.85469e-05,0.38741,0.27660983772199144,0.6631643121663253,0.00012334860681395554,-0.0479936747093721,6.854924939236895e-05,-0.1757941810636493
494,0.4797,659.711,219.296,0.00178934,380.252,0.104663,0.0279346,0.24463,-0.0492692,-0.19367,0.509602,0.000123823,6.8415e-05,0.388085,0.27714868076139476,0.6646285409271948,0.00012383066638399498,-0.04807516296307002,6.841734035956115e-05,-0.17607024376990799
495,0.4807,659.895,219.226,0.0238467,380.385,0.0658196,0.0508049,0.245052,-0.0493558,-0.194005,0.510481,0.00012346,6.88004e-05,0.38876,0.2776877512405471,0.6660923926832638,0.00012346762149939572,-0.048157596084551724,6.880276680187869e-05,-0.17634621401064876
496,0.4817,660.143,219.435,0.00717106,380.499,0.103199,0.0298987,0.245473,-0.049441,-0.194341,0.51136,0.000124194,6.86258e-05,0.389435,0.27822577102903834,0.6675575317307085,0.00012420171239413413,-0.048238689602732365,6.862815480412898e-05,-0.17662291519433915
497,0.4827,660.313,219.341,0.0202997,380.633,0.0594708,0.0520049,0.245895,-0.0495276,-0.194675,0.512238,0.000123749,6.90001e-05,0.390109,0.2787652961362035,0.66902229017843,0.00012375665722341722,-0.0483211085634202,6.900248056163072e-05,-0.17689787721944994
498,0.4837,660.577,219.594,0.00948334,380.744,0.107435,0.0288783,0.246315,-0.0496124,-0.19501,0.513116,0.000124634,6.88016e-05,0.390783,0.27930249036347177,0.6704883352488133,0.00012464176713966602,-0.04840180751173029,6.880396688435653e-05,-0.1771735702494206
499,0.4847,660.731,219.46,0.0186055,380.879,0.0537871,0.053677,0.246736,-0.0496992,-0.195344,0.513993,0.000124042,6.92071e-05,0.391456,0.27984119010025266,0.671953996117177,0.00012404969352708406,-0.04848440265015741,6.920949486666217e-05,-0.17744834838645396
500,0.4857,661.011,219.758,0.0103976,380.988,0.113212,0.0267756,0.247156,-0.0497837,-0.195679,0.514869,0.000125095,6.89631e-05,0.392129,0.28037883629789295,0.6734192695138221,0.0001251028247057917,-0.04856480232119953,6.896547800927522e-05,-0.17772385703946858
501,0.4867,661.147,219.575,0.0180024,381.125,0.0471498,0.0560946,0.247577,-0.0498705,-0.196012,0.515745,0.00012432,6.94233e-05,0.392801,0.28091798927171197,0.6748858270523346,0.0001243277280513766,-0.04864738331229124,6.942570985302154e-05,-0.17799762940944497
502,0.4877,661.444,219.926,0.0105099,381.23,0.120298,0.0238741,0.247996,-0.0499546,-0.196347,0.51662,0.000125572,6.91138e-05,0.393473,0.2814548063645441,0.6763519935052842,0.0001255798844936873,-0.0487273887030808,6.911618841365375e-05,-0.1782729540841349
503,0.4887,661.56,219.684,0.018029,381.37,0.0391562,0.0592709,0.248416,-0.0500417,-0.196679,0.517495,0.000124577,6.96485e-05,0.394145,0.28199313042335605,0.6778194434153106,0.00012458476003662788,-0.048810240939257454,6.965092551314278e-05,-0.17854572218136933
504,0.4897,661.877,220.1,0.0101203,381.471,0.128902,0.0201902,0.248835,-0.0501253,-0.197013,0.518368,0.000126071,6.92539e-05,0.394815,0.28253039809472047,0.679284819332933,0.00012607894728255964,-0.048889757079293994,6.925629810661249e-05,-0.17882004209618485
505,0.4907,661.97,219.786,0.0184663,381.614,0.0295101,0.063251,0.249254,-0.0502126,-0.197346,0.519243,0.000124808,6.98831e-05,0.395486,0.28306789092840723,0.6807548365886085,0.00012481578884249167,-0.04897278537926297,6.988554188080975e-05,-0.179093449497308
506,0.4917,662.31,220.279,0.0093729,381.71,0.139322,0.0156518,0.249672,-0.0502958,-0.197679,0.520115,0.000126594,6.93827e-05,0.396156,0.2836043254138121,0.6822210940014359,0.0001266020133585677,-0.0490519075519914,6.938510703524692e-05,-0.17936676586892386
507,0.4927,662.376,219.88,0.0192175,381.858,0.0178852,0.0681339,0.250091,-0.0503834,-0.198011,0.520988,0.000125009,7.01282e-05,0.396826,0.2841422683173287,0.683690314237821,0.00012501681395060693,-0.049135206956322675,7.013065903960225e-05,-0.1796391708809213
508,0.4937,662.743,220.466,0.00832271,381.948,0.151909,0.0101348,0.250509,-0.0504659,-0.198344,0.521859,0.000127148,6.94986e-05,0.397495,0.28467915198635474,0.6851574473452382,0.0001271560836495489,-0.04921365006592604,6.95010150837394e-05,-0.17991230555757032
509,0.4947,662.777,219.965,0.0202521,382.101,0.00390279,0.0740612,0.250927,-0.0505539,-0.198675,0.522731,0.000125175,7.03855e-05,0.398164,0.2852162601196646,0.6866275455089692,0.00012518283471729674,-0.04929731558338346,7.038797711733658e-05,-0.1801837096645731
510,0.4957,663.178,220.663,0.00697383,382.185,0.167077,0.00347416,0.251344,-0.0506358,-0.199008,0.5236,0.000127739,6.95997e-05,0.398832,0.28575230705815335,0.6880938618681993,0.00012774715897356792,-0.04937517494485277,6.960212211537531e-05,-0.18045666303999552
511,0.4967,663.174,220.038,0.0215776,382.344,-0.0128783,0.0812124,0.251762,-0.0507243,-0.199339,0.524471,0.000125298,7.06572e-05,0.3995,0.2862898638640492,0.6895648321364436,0.00012530585012227036,-0.049459301519214294,7.065969627872981e-05,-0.1807278869944885
512,0.4977,663.615,220.871,0.00529869,382.42,0.185306,-0.00453396,0.252178,-0.0508055,-0.199672,0.525339,0.000128372,6.96834e-05,0.400167,0.28682507176294103,0.6910320110742796,0.00012838024003780646,-0.04953648229034924,6.968582794453226e-05,-0.1810006591890283
513,0.4987,663.565,220.098,0.0232253,382.587,-0.032972,0.0898037,0.252596,-0.0508946,-0.200002,0.526209,0.000125372,7.09459e-05,0.400835,0.2873630770782154,0.692503849080611,0.00012537985939764518,-0.04962116481711465,7.094841671984042e-05,-0.18127088438188688
514,0.4997,664.055,221.092,0.00324729,382.653,0.207157,-0.0141333,0.253011,-0.0509748,-0.200334,0.527076,0.000129058,6.97468e-05,0.401501,0.2878974436285928,0.6939718862199047,0.00012906632834197573,-0.04969738214334063,6.974923236469088e-05,-0.18154265733146613
515,0.5007,663.95,220.143,0.0252431,382.83,-0.0569753,0.10009,0.253428,-0.0510647,-0.200663,0.527945,0.000125387,7.12547e-05,0.402167,0.2884346088537515,0.6954445875850956,0.00012539486127849386,-0.04978281050862343,7.125723867651423e-05,-0.18181188550674077
516,0.5017,664.497,221.329,0.000750838,382.884,0.233284,-0.0256111,0.253843,-0.0511438,-0.200996,0.52881,0.000129804,6.97863e-05,0.402832,0.2889694201821007,0.6969117816232957,0.00012981242490384126,-0.049857969715726314,6.978873512042405e-05,-0.18208429678987104
517,0.5027,664.327,220.169,0.0276923,383.072,-0.08558,0.112367,0.25426,-0.0512346,-0.201324,0.529679,0.000125334,7.15871e-05,0.403498,0.28950703251469756,0.6983870388679612,0.0001253418546338647,-0.04994423869540521,7.158966241749276e-05,-0.18235252914801248
518,0.5037,664.624,220.562,0.00817462,383.171,5.75623e-05,0.069532,0.254675,-0.0513179,-0.201655,0.530544,0.000126456,7.124e-05,0.404163,0.29004228899122797,0.6998567792276462,0.0001264639958971081,-0.05002337504424714,7.124253762902377e-05,-0.18262312567466876
519,0.5047,664.937,220.955,0.015894,383.271,0.0829936,0.039455,0.25509,-0.051401,-0.201985,0.531409,0.000127752,7.09965e-05,0.404827,0.29057776764529475,0.7013277914627492,0.00012776016063420492,-0.05010231482178784,7.099902031115768e-05,-0.1828928155419206
520,0.5057,665.098,220.894,0.0116441,383.395,0.0505161,0.0517075,0.255505,-0.0514862,-0.202314,0.532274,0.000127425,7.12452e-05,0.405491,0.2911134685691208,0.7028000766739182,0.0001274331189100586,-0.05018324265699026,7.124773799960238e-05,-0.1831615995882072
521,0.5067,665.371,221.175,0.0135813,383.501,0.104948,0.0304652,0.255919,-0.0515696,-0.202644,0.533138,0.000128392,7.10788e-05,0.406154,0.29164810020622123,0.7042719316899702,0.00012840024260563077,-0.05026245407139074,7.108132615774032e-05,-0.18343111178838423
522,0.5077,665.508,221.035,0.0142561,383.629,0.0515279,0.0522667,0.256333,-0.051655,-0.202973,0.534002,0.000127788,7.14374e-05,0.406817,0.29218295322664245,0.7057450589382812,0.00012779616523417303,-0.05034355819461778,7.143995171188244e-05,-0.18369971876433544
523,0.5087,665.785,221.336,0.0120518,383.733,0.111896,0.0270998,0.256747,-0.0517382,-0.203303,0.534864,0.000128849,7.12177e-05,0.40748,0.29271802772205646,0.7072160450830305,0.00012885730138889606,-0.05042256632379216,7.122023604066996e-05,-0.18396905341448178
524,0.5097,665.909,221.15,0.0157189,383.864,0.0464707,0.0547292,0.257161,-0.0518237,-0.203631,0.535727,0.000128073,7.16478e-05,0.408142,0.29325332378417257,0.7086900084536514,0.00012808120169682802,-0.050503751723646184,7.16503667648194e-05,-0.18423666767382407
525,0.5107,666.196,221.493,0.0108148,383.964,0.118091,0.0241177,0.257574,-0.0519066,-0.20396,0.536589,0.000129299,7.13596e-05,0.408804,0.29378754771654414,0.7101635342393109,0.00012930735947591643,-0.05058246170005476,7.136214615677261e-05,-0.18450500966548122
526,0.5117,666.305,221.259,0.0167567,384.098,0.03983,0.0576815,0.257987,-0.0519923,-0.204288,0.53745,0.000128335,7.18629e-05,0.409465,0.29432199232896683,0.7116366191143271,0.0001283432352883196,-0.050663823296692834,7.186548220006195e-05,-0.18477244816000016
527,0.5127,666.607,221.654,0.00973884,384.194,0.125199,0.0208177,0.2584,-0.0520747,-0.204617,0.53831,0.000129761,7.1497e-05,0.410126,0.2948566577126006,0.7131092597514757,0.000129769419322745,-0.05074204537485927,7.149955597141044e-05,-0.18504061390887094
528,0.5137,666.699,221.362,0.0176836,384.331,0.0319547,0.06109,0.258813,-0.0521606,-0.204944,0.539171,0.000128578,7.20828e-05,0.410786,0.29539154395864275,0.7145848819883356,0.0001285862665052484,-0.05082358313106483,7.208539802738834e-05,-0.1853070620614755
529,0.5147,667.019,221.819,0.00867981,384.423,0.133552,0.0170211,0.259225,-0.0522426,-0.205273,0.54003,0.000130241,7.16278e-05,0.411446,0.2959253552323251,0.7160583431629348,0.00013024948172724038,-0.05090141240620416,7.163036533208711e-05,-0.1855750519513032
530,0.5157,667.089,221.459,0.0186393,384.563,0.0227181,0.0650541,0.259637,-0.0523287,-0.2056,0.54089,0.0001288,7.23087e-05,0.412106,0.2964593864815641,0.7175347881183876,0.00012880829507611047,-0.05098312627676338,7.231131433704796e-05,-0.1858413253712382
531,0.5167,667.43,221.99,0.0075401,384.651,0.143362,0.0126109,0.260049,-0.0524103,-0.205928,0.541748,0.00013074,7.17504e-05,0.412765,0.2969936377970084,0.7190090653410792,0.00013074854684624881,-0.051060562894202244,7.175297412143067e-05,-0.18610832562608093
532,0.5177,667.476,221.55,0.0197042,384.795,0.0119202,0.0696804,0.260461,-0.0524967,-0.206254,0.542606,0.000128997,7.2542e-05,0.413424,0.2975281092693438,0.720484608036438,0.0001290053204707764,-0.05114254771977267,7.25446312344058e-05,-0.1863736110680504
533,0.5187,667.842,222.166,0.00625353,384.878,0.15485,0.00747529,0.260871,-0.0525777,-0.206582,0.543463,0.000131263,7.18635e-05,0.414082,0.2980602048662879,0.7219596953301493,0.00013127161536452547,-0.051219402060764585,7.186608224318825e-05,-0.18664043676181408
534,0.5197,667.859,221.634,0.0209327,385.027,-0.000671908,0.0750801,0.261283,-0.0526645,-0.206908,0.54432,0.000129167,7.2784e-05,0.41474,0.2985951158547899,0.7234360473155141,0.0001291753424161879,-0.05130175264259873,7.278664881948949e-05,-0.18690554876382548
535,0.5207,668.255,222.349,0.00476873,385.103,0.168269,0.00149615,0.261693,-0.0527449,-0.207235,0.545175,0.000131813,7.19657e-05,0.415397,0.29912764901412814,0.7249102152529576,0.00013182168771530556,-0.05137802491549981,7.196828959310508e-05,-0.18717138718242943
536,0.5217,668.238,221.709,0.0223693,385.258,-0.0153214,0.0813729,0.262104,-0.0528321,-0.20756,0.546032,0.000129306,7.30362e-05,0.416054,0.29966170021787764,0.7263890969177091,0.00012931436038110533,-0.051460741145247124,7.303886720810837e-05,-0.1874355135587341
537,0.5227,668.668,222.54,0.00303942,385.327,0.1839,-0.00545561,0.262513,-0.0529118,-0.207888,0.546886,0.000132394,7.20552e-05,0.41671,0.30019337057244266,0.7278640629273201,0.00013240276447246124,-0.051536336711654585,7.205779603824958e-05,-0.18770199100559648
538,0.5237,668.613,221.774,0.0240551,385.488,-0.032324,0.08869,0.262924,-0.0529995,-0.208212,0.547742,0.000129409,7.33002e-05,0.417367,0.3007278598777763,0.7293437477799511,0.0001294173737058646,-0.05161951332757697,7.330288652540595e-05,-0.18796513292921713
539,0.5247,669.083,222.741,0.00101883,385.549,0.20206,-0.0135234,0.263333,-0.0530784,-0.208539,0.548594,0.000133011,7.21305e-05,0.418022,0.30125996638082864,0.7308177765001276,0.00013301984635538666,-0.0516943375961193,7.213310146703122e-05,-0.18823062492044296
540,0.5257,668.984,221.829,0.0260316,385.719,-0.0520108,0.0971767,0.263743,-0.0531667,-0.208863,0.549449,0.000129471,7.35776e-05,0.418678,0.3017935923528938,0.7322982585149074,0.0001294793817316897,-0.05177806928930084,7.358030689808004e-05,-0.18849359559441914
541,0.5267,669.5,222.951,-0.00134343,385.77,0.223105,-0.0228672,0.264151,-0.0532447,-0.20919,0.5503,0.000133669,7.21895e-05,0.419332,0.3023248325041954,0.7337730717769415,0.00013367793409879702,-0.05185202771548014,7.219210572473322e-05,-0.18875891480660434
542,0.5277,669.349,221.872,0.0283436,385.949,-0.0747509,0.106994,0.264561,-0.0533338,-0.209513,0.551154,0.000129487,7.38704e-05,0.419987,0.30285889516088527,0.7352543463944743,0.00012949538380335746,-0.051936503936339196,7.387312848528005e-05,-0.18902090336369204
543,0.5287,669.631,222.246,0.00810298,386.043,0.00697517,0.0656618,0.264969,-0.0534158,-0.209838,0.552006,0.000130578,7.35311e-05,0.420641,0.3033905700444117,0.7367334130905432,0.00013058652567821127,-0.052014241955714136,7.353380347763228e-05,-0.1892844287449048
544,0.5297,669.921,222.596,0.0155839,386.139,0.0797395,0.0397967,0.265377,-0.0534976,-0.210163,0.552856,0.000131731,7.33362e-05,0.421294,0.30392246189554917,0.7382102640644153,0.00013173967690915944,-0.05209178401920844,7.333888916494224e-05,-0.18954786849428462
545,0.5307,670.08,222.559,0.0110507,386.257,0.0542093,0.0490541,0.265785,-0.0535813,-0.210487,0.553707,0.0001315,7.35413e-05,0.421947,0.3044545708028381,0.7396901105845195,0.00013150864650390837,-0.05217112061660312,7.354400422765472e-05,-0.18981041245047492
546,0.5317,670.332,222.797,0.0129962,386.359,0.0988006,0.0318487,0.266193,-0.0536635,-0.210812,0.554557,0.000132318,7.34227e-05,0.4226,0.3049868968548559,0.7411694758196712,0.0001323267544126594,-0.0522490289484121,7.342539551236094e-05,-0.1900736812829259
547,0.5327,670.473,222.697,0.0134808,386.479,0.0562473,0.0491082,0.2666,-0.0537474,-0.211135,0.555407,0.000131864,7.37189e-05,0.423252,0.3055181346214282,0.7426500990498448,0.00013187269443948324,-0.05232854191926761,7.372161730478943e-05,-0.19033524523901857
548,0.5337,670.724,222.945,0.0115283,386.58,0.103837,0.0292726,0.267008,-0.0538294,-0.211459,0.556255,0.000132733,7.35634e-05,0.423904,0.30605089469601854,0.7441284930843166,0.00013274180941436065,-0.05240624779284586,7.356610585329548e-05,-0.19059753412646685
549,0.5347,670.857,222.813,0.0147869,386.702,0.0530645,0.0507513,0.267415,-0.0539134,-0.211783,0.557104,0.000132162,7.3911e-05,0.424555,0.3065825655978489,0.7456098869376535,0.0001321707337818001,-0.052485842325014076,7.39137314853533e-05,-0.19085973804608114
550,0.5357,671.114,223.088,0.0104549,386.801,0.107838,0.0272326,0.267821,-0.0539952,-0.212106,0.557951,0.000133136,7.37092e-05,0.425206,0.3071131458199785,0.7470890448468339,0.00013314486299065287,-0.05256334581317601,7.37119165898914e-05,-0.19112104814683906
551,0.5367,671.237,222.925,0.0156403,386.925,0.0488311,0.0526589,0.268228,-0.0540791,-0.212429,0.558799,0.000132444,7.41051e-05,0.425857,0.3076452491460091,0.7485712047038247,0.00013245277109374953,-0.052642832413952845,7.410784585082375e-05,-0.19138227385806417
552,0.5377,671.503,223.232,0.00959637,387.021,0.11224,0.0250997,0.268634,-0.0541607,-0.212752,0.559645,0.000133543,7.38533e-05,0.426507,0.3081762609052552,0.7500511218596941,0.0001335519172633859,-0.05272013360489636,7.385602722220774e-05,-0.19164341520700978
553,0.5387,671.615,223.033,0.0163391,387.146,0.0439474,0.0547724,0.26904,-0.0542447,-0.213074,0.560492,0.000132715,7.43008e-05,0.427157,0.3087074882990466,0.7515340430883946,0.00013272380702522568,-0.05279970177176374,7.430356037274599e-05,-0.19190366412498872
554,0.5397,671.892,223.378,0.0088089,387.24,0.117255,0.0227448,0.269445,-0.0543259,-0.213397,0.561337,0.000133959,7.39942e-05,0.427806,0.3092376221766717,0.7530147148505206,0.00013396797290754492,-0.05287661131341026,7.399693763843196e-05,-0.1921646370920732
555,0.5407,671.991,223.139,0.0170114,387.367,0.0383954,0.0571434,0.269851,-0.05441,-0.213719,0.562183,0.000132975,7.44989e-05,0.428455,0.30976928057062625,0.7544983928065687,0.00013298384156712473,-0.052956261041080754,7.450167511202643e-05,-0.1924247182036234
556,0.5417,672.28,223.526,0.00800764,387.458,0.122967,0.0201057,0.270256,-0.054491,-0.214042,0.563027,0.000134384,7.4131e-05,0.429103,0.3102998445612133,0.7559798145221224,0.0001343930299342322,-0.05303296847724337,7.413374777054393e-05,-0.19268552289741814
557,0.5427,672.365,223.241,0.0177228,387.588,0.032107,0.0598209,0.270661,-0.0545752,-0.214363,0.563871,0.000133223,7.47001e-05,0.429751,0.31083062347373525,0.7574624870853872,0.00013323187457792152,-0.05311269974456412,7.47028901220137e-05,-0.19294462925577271
558,0.5437,672.667,223.677,0.00714375,387.675,0.129456,0.0171346,0.271065,-0.0546558,-0.214685,0.564714,0.000134819,7.42632e-05,0.430398,0.31136030603429155,0.7589446526069927,0.00013482808848985783,-0.05318901578538693,7.426595757964449e-05,-0.19320445925027818
559,0.5447,672.736,223.339,0.0185111,387.807,0.0250024,0.0628494,0.27147,-0.0547402,-0.215006,0.565557,0.000133458,7.49048e-05,0.431046,0.3118915145206931,0.7604280681209303,0.00013346690591498067,-0.05326892326031174,7.490760543449326e-05,-0.19346339905679644
560,0.5457,673.054,223.831,0.00618633,387.891,0.136805,0.0137874,0.271873,-0.0548203,-0.215328,0.566399,0.000135265,7.43903e-05,0.431692,0.3124203133468515,0.7619109727695348,0.00013527414872260834,-0.05334475338252165,7.43930670270565e-05,-0.19372306203431722
561,0.5467,673.105,223.434,0.0194014,388.027,0.0169945,0.0662716,0.272277,-0.054905,-0.215648,0.567242,0.000133678,7.51137e-05,0.432339,0.3129506382718654,0.7633968899456722,0.00013368693530191322,-0.05342493168631102,7.51165211045901e-05,-0.19398102937749007
562,0.5477,673.441,223.988,0.00511279,388.106,0.145106,0.0100199,0.272681,-0.0549847,-0.21597,0.568082,0.000135724,7.45116e-05,0.432985,0.31348117749143345,0.7648787656338811,0.0001357332109188647,-0.053500370712970535,7.451437605832112e-05,-0.1942405257048796
563,0.5487,673.471,223.524,0.0204131,388.245,0.00798963,0.0701311,0.273084,-0.0550695,-0.21629,0.568923,0.000133883,7.53271e-05,0.433631,0.3140106170808743,0.7663636529833904,0.00013389196272872717,-0.05358063047847195,7.532993715719805e-05,-0.19449832748616913
564,0.5497,673.828,224.148,0.003904,388.32,0.154457,0.00578682,0.273487,-0.0551488,-0.216611,0.569763,0.000136197,7.46267e-05,0.434275,0.31454027007746843,0.7678480217995185,0.00013620627523258655,-0.053655678558779285,7.462948464143082e-05,-0.19475685202763726
565,0.5507,673.835,223.61,0.0215634,388.463,-0.00211252,0.0744732,0.27389,-0.0552339,-0.21693,0.570603,0.00013407,7.55457e-05,0.43492,0.31507013656723615,0.7693336380092839,0.0001340789877841697,-0.05373620903391363,7.554855364833024e-05,-0.1950136836250228
566,0.5517,674.214,224.313,0.00254174,388.533,0.164962,0.00104008,0.274292,-0.0553127,-0.217251,0.571441,0.000136687,7.47349e-05,0.435564,0.31559890103667354,0.7708169610234741,0.00013669634209367842,-0.05381077168283477,7.473769272214881e-05,-0.1952720427637189
567,0.5527,674.196,223.691,0.0228687,388.68,-0.0134188,0.0793455,0.274695,-0.0553981,-0.21757,0.572281,0.000134238,7.57699e-05,0.436209,0.31612919424069497,0.7723050721899227,0.00013424701032338504,-0.053891572792676534,7.577277061132648e-05,-0.19552871004146988
568,0.5537,674.601,224.481,0.00100758,388.745,0.176733,-0.00427102,0.275096,-0.0554764,-0.217891,0.573118,0.000137193,7.48357e-05,0.436851,0.31665706787917647,0.7737891125195844,0.00013720241138992506,-0.053965650182359215,7.483850026090977e-05,-0.19578690388321796
569,0.5547,674.554,223.766,0.024346,388.897,-0.0260425,0.0847983,0.275498,-0.0555622,-0.218209,0.573956,0.000134386,7.60005e-05,0.437495,0.31718647042324566,0.7752761707862663,0.00013439503020307164,-0.054046816447490986,7.600338811108998e-05,-0.1960426029894704
570,0.5557,674.988,224.655,-0.000717823,388.956,0.189888,-0.0102002,0.275899,-0.0556398,-0.218529,0.574792,0.000137719,7.49284e-05,0.438137,0.3177147681144934,0.7767609222046625,0.00013772848369675295,-0.05412021956645685,7.493120720258872e-05,-0.1962998281982854
571,0.5567,674.909,223.835,0.0260128,389.114,-0.0401031,0.0908842,0.276301,-0.055726,-0.218847,0.57563,0.000134511,7.62379e-05,0.43878,0.318244595939533,0.7782504718916199,0.00013452004701020037,-0.05420175088947965,7.624080618251483e-05,-0.19655536422053743
572,0.5577,675.375,224.834,-0.00265504,389.166,0.20455,-0.0168041,0.276701,-0.055803,-0.219167,0.576464,0.000138265,7.50124e-05,0.439421,0.3187719992515392,0.7797341513935314,0.0001382745590456924,-0.05427457455091422,7.501521350050666e-05,-0.19681242537200894
573,0.5587,675.261,223.898,0.0278874,389.33,-0.0557262,0.0976585,0.277103,-0.0558897,-0.219484,0.577301,0.000134612,7.64829e-05,0.440063,0.3193022521689337,0.7812244124655037,0.0001346210606019138,-0.054356565390946465,7.648582489161448e-05,-0.19706699548167195
574,0.5597,675.763,225.019,-0.00482606,389.374,0.220852,-0.0241425,0.277502,-0.0559659,-0.219804,0.578134,0.000138835,7.50868e-05,0.440703,0.3198287587986368,0.7827087905587307,0.00013884463802460445,-0.05442862067532239,7.508961908442302e-05,-0.19732389293733266
575,0.5607,675.609,223.954,0.0299891,389.545,-0.0730431,0.105179,0.277903,-0.0560532,-0.22012,0.57897,0.000134687,7.67361e-05,0.441345,0.32035811625999266,0.7841997582452946,0.00013469607070115686,-0.05451116545360546,7.673904428973088e-05,-0.19757749851537276
576,0.5617,676.151,225.21,-0.00725437,389.581,0.238928,-0.0322782,0.278302,-0.0561286,-0.22044,0.579802,0.000139429,7.51509e-05,0.441984,0.32088504426352626,0.7856848301483996,0.00013943872067478935,-0.054582452624170164,7.515372389965691e-05,-0.1978342326361977
577,0.5627,676.206,224.882,-0.0152209,389.708,0.139318,0.00219343,0.278702,-0.0562117,-0.220758,0.580635,0.000138384,7.55284e-05,0.442624,0.3214135039661261,0.7871729253175035,0.00013839357550748943,-0.054661013558105154,7.55312523414986e-05,-0.19808928079541288
578,0.5637,676.354,224.756,0.022966,389.827,0.0876503,0.0384413,0.279102,-0.056294,-0.221075,0.581468,0.000137884,7.60386e-05,0.443264,0.3219421750948894,0.788662260586313,0.0001378935064355602,-0.05473881175524953,7.604149100770563e-05,-0.1983434462060547
579,0.5647,676.526,224.826,0.00211353,389.93,0.0922889,0.0298551,0.279501,-0.0563752,-0.221392,0.5823,0.000138138,7.59949e-05,0.443903,0.32246973526400713,0.7901510468363198,0.00013814754149277242,-0.054815563847557924,7.599778768563326e-05,-0.19859753105903044
580,0.5657,676.694,224.809,0.0188071,390.04,0.0703513,0.0439874,0.2799,-0.0564569,-0.221709,0.583132,0.000137991,7.62518e-05,0.444541,0.3229975059716317,0.791641072271916,0.00013800052119594675,-0.054892782261576345,7.62547072423736e-05,-0.19885153537987277
581,0.5667,676.889,224.934,0.00694876,390.14,0.0882358,0.0327194,0.280298,-0.0565378,-0.222026,0.583963,0.000138417,7.61894e-05,0.445179,0.3235241637769597,0.7931305447930923,0.00013842658007501285,-0.05496923834280121,7.619230248612219e-05,-0.1991054591941065
582,0.5677,677.052,224.917,0.0160241,390.25,0.0673536,0.0440707,0.280697,-0.0566194,-0.222343,0.584794,0.000138275,7.64107e-05,0.445817,0.32405235528550524,0.794621255580362,0.00013828456042852544,-0.05504634970676603,7.6413619371829e-05,-0.19935930252724798
583,0.5687,677.255,225.057,0.00880783,390.349,0.0888406,0.0330113,0.281095,-0.0567001,-0.222659,0.585623,0.000138752,7.63545e-05,0.446454,0.3245794330044174,0.7961096134403325,0.0001387616265040581,-0.055122604389426844,7.635741507905358e-05,-0.19961226501747087
584,0.5697,677.412,225.03,0.0147099,390.458,0.0657758,0.0441745,0.281493,-0.0567817,-0.222976,0.586453,0.000138576,7.65714e-05,0.447091,0.3251067205420126,0.7976010032606453,0.00013858560209745185,-0.055199703239232845,7.657433166441407e-05,-0.19986594771862787
585,0.5707,677.619,225.182,0.0095523,390.557,0.0900076,0.0327108,0.28189,-0.0568622,-0.223292,0.587282,0.000139093,7.65116e-05,0.447728,0.32563289234826054,0.7990918323556282,0.00013910267387973185,-0.05527575660193318,7.65145270871237e-05,-0.2001187501342634
586,0.5717,677.771,225.144,0.014175,390.666,0.0642664,0.0445097,0.282288,-0.0569437,-0.223608,0.58811,0.000138876,7.67348e-05,0.448364,0.32616059924612206,0.8005820972773545,0.00013888564371811185,-0.055352748490308024,7.673774419014734e-05,-0.20037147267695632
587,0.5727,677.981,225.307,0.00976764,390.764,0.0913301,0.0321701,0.282685,-0.0570241,-0.223924,0.588938,0.000139434,7.6665e-05,0.448999,0.32668718952527676,0.8020735966494279,0.00013944372137197902,-0.05542869507623571,7.666793883620571e-05,-0.20062411537194225
588,0.5737,678.129,225.257,0.0140141,390.874,0.062661,0.0450088,0.283082,-0.0571056,-0.224239,0.589765,0.000139174,7.68998e-05,0.449635,0.3272139889022756,0.8035645279289667,0.00013918368515053459,-0.05550567450063293,7.690275686544901e-05,-0.2008758791207279
589,0.5747,678.342,225.432,0.0097219,390.97,0.0927771,0.0314922,0.283478,-0.0571858,-0.224554,0.590592,0.000139777,7.68159e-05,0.45027,0.32773966971981316,0.80505669271866,0.00013978676926007516,-0.0555814199081065,7.681885041677106e-05,-0.20112756357642192
590,0.5757,678.485,225.37,0.0140397,391.08,0.0609317,0.0456195,0.283875,-0.0572672,-0.224869,0.591418,0.000139469,7.70656e-05,0.450904,0.32826688701440054,0.8065482854898536,0.0001394787262531949,-0.05565829245177101,7.706856962963471e-05,-0.20137916876399786
591,0.5767,678.702,225.557,0.00954221,391.176,0.0943552,0.0307169,0.284271,-0.0573473,-0.225184,0.592244,0.00014012,7.6965e-05,0.451538,0.3287929848621569,0.8080411108256553,0.0001401298172656329,-0.0557339311931736,7.696796188150223e-05,-0.2016306947084211
592,0.5777,678.841,225.481,0.0141644,391.286,0.0590672,0.0463168,0.284667,-0.0574286,-0.225499,0.593069,0.00013976,7.72319e-05,0.452172,0.32931929108591684,0.8095333602103192,0.00013976976688390153,-0.05581069690399909,7.723488246003107e-05,-0.20188214143464944
593,0.5787,679.061,225.682,0.00928774,391.38,0.0960727,0.0298609,0.285062,-0.0575085,-0.225814,0.593894,0.000140463,7.71124e-05,0.452805,0.32984447592307276,0.8110268412086963,0.0001404728653890963,-0.05588613461553982,7.711537323751294e-05,-0.2021335089676326
594,0.5797,679.194,225.591,0.014348,391.491,0.0570592,0.0470903,0.285458,-0.0575899,-0.226128,0.594718,0.000140049,7.73985e-05,0.453438,0.33037119861974906,0.8125197423166381,0.0001400588073190434,-0.0559629823564366,7.740149534107843e-05,-0.20238399971671106
595,0.5807,679.419,225.807,0.00898561,391.584,0.097937,0.0289304,0.285853,-0.0576696,-0.226442,0.595542,0.000140808,7.72584e-05,0.454071,0.3308967990424534,0.8140138740820546,0.00014081791391173937,-0.05603821910851836,7.726138450703246e-05,-0.20263441182404174
596,0.5817,679.547,225.701,0.0145723,391.696,0.0549005,0.0479368,0.286248,-0.0577509,-0.226756,0.596365,0.000140334,7.75654e-05,0.454703,0.3314226071183335,0.8155074220110949,0.00014034384727645843,-0.056114960081742105,7.756840827344291e-05,-0.2028847453143141
597,0.5827,679.775,225.932,0.00864783,391.788,0.0999551,0.0279267,0.286642,-0.0578305,-0.22707,0.597187,0.000141154,7.74029e-05,0.455334,0.3319472909814718,0.8170003826347403,0.00014116396269470144,-0.05619009034069555,7.740589568183687e-05,-0.20313500021221031
598,0.5837,679.898,225.809,0.0148295,391.9,0.0525846,0.0488562,0.287037,-0.0579118,-0.227383,0.59801,0.000140615,7.77325e-05,0.455966,0.33247351408363013,0.8184963894720216,0.00014062488675259388,-0.05626681896728991,7.773552124912264e-05,-0.2033843799271825
599,0.5847,680.131,226.057,0.00827935,391.99,0.102133,0.0268491,0.287431,-0.0579911,-0.227697,0.598831,0.000141502,7.75459e-05,0.456597,0.3329986120856925,0.819989988046097,0.00014151201188017382,-0.056341654041295874,7.754890676103798e-05,-0.20363447796443868
600,0.5857,680.248,225.917,0.0151164,392.103,0.0501057,0.0498496,0.287825,-0.0580724,-0.228009,0.599652,0.000140893,7.78999e-05,0.457227,0.33352391701713024,0.8214848133681132,0.0001409029258849781,-0.05641837034626229,7.790293427589745e-05,-0.2038829052506419
601,0.5867,680.485,226.183,0.00788183,392.192,0.104477,0.0256959,0.288218,-0.0581516,-0.228323,0.600473,0.00014185,7.76875e-05,0.457857,0.3340480949107276,0.8229808664456433,0.00014186006118688255,-0.056493099052035034,7.769051775197156e-05,-0.20413284677552013
602,0.5877,680.596,226.023,0.0154323,392.305,0.0474584,0.050919,0.288612,-0.0582329,-0.228635,0.601293,0.000141168,7.80676e-05,0.458487,0.3345738134198679,0.8244763238098525,0.00014117796467094657,-0.05656980304502257,7.807064735443348e-05,-0.20438111859490837
603,0.5887,680.839,226.309,0.00745546,392.393,0.106991,0.0244653,0.289004,-0.0583118,-0.228948,0.602112,0.0001422,7.78275e-05,0.459116,0.33509706890610325,0.8259711819799158,0.0001422101108992102,-0.05664423675111396,7.783052863841178e-05,-0.20463010833586093
604,0.5897,680.943,226.129,0.0157773,392.507,0.0446382,0.052066,0.289398,-0.0583931,-0.22926,0.602931,0.000141438,7.82356e-05,0.459745,0.3356232007924276,0.8274672649403034,0.00014144800282545056,-0.05672092845710608,7.823866048428663e-05,-0.20487822503384256
605,0.5907,681.191,226.435,0.00699977,392.593,0.10968,0.0231555,0.28979,-0.0584719,-0.229573,0.603749,0.000142551,7.79659e-05,0.460374,0.33614686771915014,0.8289627447308705,0.00014256116087651982,-0.056795255919403154,7.796893941969252e-05,-0.20512705920482766
606,0.5917,681.288,226.233,0.016152,392.709,0.0416412,0.0532924,0.290183,-0.0585532,-0.229884,0.604568,0.000141705,7.84039e-05,0.461002,0.336672076634956,0.830461278784737,0.00014171504062776563,-0.05687193534803592,7.840697366612304e-05,-0.20537422625294688
607,0.5927,681.542,226.561,0.00651403,392.793,0.112547,0.0217647,0.290574,-0.0586317,-0.230196,0.605385,0.000142904,7.81028e-05,0.461629,0.33719481760612036,0.8319573767222923,0.00014291421126300108,-0.056945967995291724,7.810585010314952e-05,-0.20562211082235227
608,0.5937,681.632,226.336,0.0165571,392.909,0.0384641,0.0545995,0.290967,-0.058713,-0.230507,0.606202,0.000141968,7.85725e-05,0.462257,0.3377204384471697,0.8334546974713135,0.00014197807793348005,-0.05702263517153072,7.857558689972066e-05,-0.20586912393335677
609,0.5947,681.893,226.688,0.00599747,392.992,0.115596,0.0202918,0.291358,-0.0587913,-0.230819,0.607018,0.000143259,7.82382e-05,0.462884,0.3382435894079503,0.8349514070789206,0.00014326926206065238,-0.05709646740862695,7.824126068789461e-05,-0.206116854118771
610,0.5957,681.975,226.438,0.0169933,393.109,0.0351049,0.0559884,0.29175,-0.0588727,-0.23113,0.607834,0.000142227,7.87415e-05,0.463511,0.3387682837283661,0.8364493384999996,0.00014223711473926315,-0.057173216632444124,7.874460019330343e-05,-0.206363713388534
611,0.5967,682.242,226.815,0.00544937,393.19,0.118827,0.0187359,0.29214,-0.0589508,-0.231441,0.608649,0.000143615,7.8372e-05,0.464136,0.33929050518558523,0.8379466547843835,0.00014362531312772653,-0.05724684852886219,7.837507116548181e-05,-0.20661049589700098
612,0.5977,682.316,226.539,0.0174612,393.308,0.0315624,0.0574598,0.292532,-0.0590321,-0.231752,0.609465,0.000142483,7.89109e-05,0.464763,0.339815609977433,0.8394470313250633,0.00014249315118486372,-0.057323491244508196,7.891401354687133e-05,-0.2068572016680411
613,0.5987,682.591,226.943,0.00486912,393.387,0.122242,0.0170965,0.292922,-0.05911,-0.232063,0.610279,0.000143972,7.85042e-05,0.465388,0.3403382399715489,0.8409449507790698,0.00014398236446577783,-0.05739692288434073,7.8507281535245e-05,-0.20710383072551608
614,0.5997,682.656,226.639,0.0179613,393.507,0.0278363,0.0590136,0.293313,-0.0591914,-0.232373,0.611093,0.000142734,7.90806e-05,0.466013,0.3408624146928576,0.8424440900359047,0.00014274418698212443,-0.05747364765207752,7.908372695308863e-05,-0.20734959044326684
615,0.6007,682.938,227.07,0.00425625,393.584,0.12584,0.0153737,0.293703,-0.059269,-0.232683,0.611906,0.000144331,7.86349e-05,0.466637,0.3413854530204321,0.8439426061453628,0.00014434141621988417,-0.05754678485925935,7.863799180474196e-05,-0.2075952739873126
616,0.6017,682.994,226.738,0.0184938,393.705,0.0239278,0.0606495,0.294093,-0.0593505,-0.232993,0.612719,0.000142982,7.92506e-05,0.467262,0.3419086953727368,0.8454423410437888,0.00014299222241342946,-0.05762359166637343,7.925374041173328e-05,-0.20784088138126355
617,0.6027,683.285,227.198,0.00361046,393.78,0.129619,0.013568,0.294482,-0.0594279,-0.233303,0.613531,0.000144692,7.87639e-05,0.467885,0.3424307993978859,0.8469414487800884,0.00014470246839226597,-0.05769652877767584,7.87670019573028e-05,-0.20808641264872263
618,0.6037,683.331,226.836,0.0190591,393.902,0.0198393,0.0623666,0.294872,-0.0595094,-0.233612,0.614343,0.000143225,7.9421e-05,0.468509,0.3429544495147867,0.8484417742862174,0.00014323525718995533,-0.057773323381157815,7.94241539310292e-05,-0.2083310761447572
619,0.6047,683.63,227.326,0.00293165,393.975,0.133577,0.0116808,0.295261,-0.0595865,-0.233922,0.615154,0.000145054,7.88915e-05,0.469132,0.3434769604174295,0.849941468609013,0.00014506452084006582,-0.057845966257506265,7.889461201626702e-05,-0.20857645547539105
620,0.6057,683.667,226.933,0.0196569,394.099,0.0155742,0.0641633,0.29565,-0.0596681,-0.234231,0.615965,0.000143465,7.95917e-05,0.469755,0.34399967461635206,0.8514423796772279,0.00014347529159519645,-0.05792284289005045,7.95948675034186e-05,-0.20882096757158475
621,0.6067,683.975,227.455,0.00221992,394.169,0.137709,0.00971365,0.296038,-0.0597449,-0.234541,0.616775,0.000145418,7.90175e-05,0.470377,0.34452124766873204,0.852942655534461,0.0001454285737099159,-0.05799519163748901,7.902062196496473e-05,-0.20906619505941315
622,0.6077,684.002,227.029,0.020287,394.295,0.0111378,0.0660373,0.296427,-0.0598266,-0.234849,0.617586,0.000143702,7.97627e-05,0.470999,0.3450443681744171,0.8544460015525113,0.00014371232562693237,-0.05807215028652857,7.976588112867944e-05,-0.20930976515961386
623,0.6087,684.318,227.584,0.00147561,394.363,0.142009,0.00766914,0.296815,-0.0599032,-0.235158,0.618394,0.000145783,7.9142e-05,0.47162,0.34556634664654395,0.855944999435357,0.00014579362685784858,-0.05814429919647812,7.914513181073168e-05,-0.20955405069812016
624,0.6097,684.335,227.123,0.0209489,394.491,0.00653636,0.0679859,0.297204,-0.0599849,-0.235466,0.619204,0.000143934,7.9934e-05,0.472242,0.34608987377481415,0.8574489238920775,0.0001439443589952294,-0.05822124566392772,7.993719480725581e-05,-0.20979747056192177
625,0.6107,684.661,227.713,0.000699276,394.556,0.14647,0.00555033,0.297591,-0.0600612,-0.235775,0.620011,0.000146149,7.92651e-05,0.472862,0.3466109113702367,0.8589484901672679,0.00014615968028541815,-0.05829310064158133,7.926824156112566e-05,-0.21004160542273964
626,0.6117,684.666,227.217,0.0216419,394.686,0.001778,0.0700056,0.297979,-0.060143,-0.236082,0.62082,0.000144164,8.01054e-05,0.473483,0.34713349777905567,0.8604529879831244,0.00014417439212888183,-0.05837012911544137,8.010860852314394e-05,-0.2102840854272897
627,0.6127,685.003,227.842,-0.00010824,394.749,0.151084,0.003361,0.298366,-0.060219,-0.236391,0.621626,0.000146516,7.93868e-05,0.474102,0.34765493933512936,0.8619531175624477,0.00014652673399329075,-0.05844169026627033,7.938995121548054e-05,-0.21052806994734297
628,0.6137,684.997,227.31,0.0223649,394.88,-0.00312783,0.0720922,0.298753,-0.0603009,-0.236698,0.622434,0.000144389,8.0277e-05,0.474722,0.348176582728138,0.8634581836462525,0.00014439942459332222,-0.05851880073412086,8.028022228456777e-05,-0.21077040063020602
629,0.6147,685.343,227.971,-0.000945848,394.941,0.15584,0.00110563,0.299139,-0.0603767,-0.237006,0.623239,0.000146885,7.95071e-05,0.475341,0.3486970793384543,0.8649588714298801,0.00014689578812987492,-0.058590162304387516,7.951026077335221e-05,-0.21101344591591653
630,0.6157,685.326,227.402,0.0231167,395.074,-0.0081701,0.0742407,0.299527,-0.0604586,-0.237313,0.624046,0.000144612,8.04487e-05,0.47596,0.34922047533749523,0.8664645006788145,0.00014462245681934327,-0.05866726061287597,8.045193608352541e-05,-0.21125562761122807
631,0.6167,685.683,228.101,-0.00181217,395.132,0.160726,-0.00121058,0.299912,-0.0605341,-0.237621,0.62485,0.000147254,7.96262e-05,0.476578,0.3497400252274365,0.8679657415553237,0.00014726484240235038,-0.05873832855185124,7.962937025007832e-05,-0.2114985234700414
632,0.6177,685.654,227.493,0.0238957,395.267,-0.0133363,0.0764457,0.300299,-0.0606162,-0.237927,0.625656,0.000144832,8.06205e-05,0.477197,0.35026247570484625,0.8694719288549597,0.00014484248866053484,-0.0588156029629191,8.062374991979482e-05,-0.2117397680095625
633,0.6187,686.022,228.23,-0.00270557,395.322,0.165728,-0.00358175,0.300684,-0.0606913,-0.238235,0.626459,0.000147624,7.9744e-05,0.477814,0.350782426842164,0.8709737177013548,0.00014763489695890364,-0.05888628325705836,7.97471796372129e-05,-0.21198251477609453
634,0.6197,685.981,227.583,0.0247002,395.459,-0.0186122,0.0787009,0.30107,-0.0607735,-0.23854,0.627264,0.000145049,8.07921e-05,0.478432,0.35130392950246336,0.8724804579256775,0.00014505952011489853,-0.05896363962518436,8.07953637695924e-05,-0.21222282346015064
635,0.6207,686.36,228.36,-0.00362409,395.512,0.170833,-0.0060013,0.301455,-0.0608484,-0.238848,0.628066,0.000147994,7.98607e-05,0.479048,0.3518242816766879,0.8739827896074128,0.00014800495165223637,-0.05903412060903057,7.986388895053764e-05,-0.21246542146851377
636,0.6217,686.307,227.673,0.025528,395.651,-0.0239824,0.0809993,0.301841,-0.0609307,-0.239152,0.62887,0.000145263,8.09637e-05,0.479665,0.3523461865705795,0.8754900776188432,0.00014527355118043594,-0.05911155891427455,8.096697764892191e-05,-0.21270479559367683
637,0.6227,686.697,228.49,-0.0045655,395.701,0.176023,-0.00846197,0.302225,-0.0610052,-0.23946,0.629671,0.000148365,7.99763e-05,0.480281,0.3528655872247659,0.8769929469898454,0.00014837600663097916,-0.059181652492117154,7.997949818960848e-05,-0.21294724517748143
638,0.6237,686.631,227.762,0.0263769,395.842,-0.0294299,0.0833333,0.30261,-0.0610876,-0.239764,0.630474,0.000145475,8.1135e-05,0.480897,0.3533865407529666,0.8785007776392622,0.00014548558200089268,-0.059259172730074194,8.113829153311158e-05,-0.21318647285049885
639,0.6247,687.032,228.619,-0.0055273,395.889,0.18128,-0.0109558,0.302994,-0.0611619,-0.240071,0.631274,0.000148735,8.0091e-05,0.481512,0.35390634097987217,0.8800041795419531,0.00014874606159853698,-0.05932906717692943,8.009420736976303e-05,-0.21342798752893377
640,0.6257,686.955,227.851,0.0272442,396.033,-0.0349362,0.0856948,0.303379,-0.0612444,-0.240375,0.632077,0.000145685,8.1306e-05,0.482128,0.3544276952754115,0.8815144291822041,0.00014569561257493646,-0.059406669327754624,8.130930542238346e-05,-0.2136670690784881
641,0.6267,687.367,228.748,-0.00650667,396.077,0.186586,-0.0134743,0.303762,-0.0613184,-0.240682,0.632876,0.000149105,8.02049e-05,0.482742,0.3549465404352077,0.8830183599514536,0.00014911611670309632,-0.05947627065894334,8.020811649900317e-05,-0.21390843623652656
642,0.6277,687.277,227.939,0.0281269,396.223,-0.0404819,0.088075,0.304147,-0.061401,-0.240986,0.633677,0.000145893,8.14766e-05,0.483357,0.35546829528463886,0.8845272618923261,0.00014590364290123503,-0.05955395471059144,8.147991930829157e-05,-0.21414737175187226
643,0.6287,687.701,228.878,-0.00750057,396.265,0.19192,-0.0160084,0.304529,-0.0614746,-0.241292,0.634475,0.000149474,8.0318e-05,0.48397,0.35598618308370966,0.8860317148442072,0.00014948517179491638,-0.05962316899240794,8.032122557688481e-05,-0.21438780586782025
644,0.6297,687.598,228.026,0.0290221,396.412,-0.0460459,0.0904645,0.304913,-0.0615574,-0.241595,0.635275,0.0001461,8.16466e-05,0.484584,0.3565069817649609,0.887541143907205,0.00014611067312486625,-0.05970102897056773,8.164993317438807e-05,-0.21462581030314953
645,0.6307,688.033,229.006,-0.00850564,396.451,0.19726,-0.0185483,0.305296,-0.0616307,-0.241901,0.636072,0.000149843,8.04304e-05,0.485197,0.35702662344400626,0.8890461138497567,0.00014985422702307183,-0.05976995035914445,8.043363461140984e-05,-0.21486609803929813
646,0.6317,687.918,228.113,0.0299263,396.601,-0.0516065,0.0928536,0.305679,-0.0617136,-0.242204,0.636871,0.000146306,8.18159e-05,0.48581,0.35754646418393254,0.8905560648398136,0.0001463167032447199,-0.0598478921995258,8.181924701200494e-05,-0.21510395757405287
647,0.6327,688.365,229.135,-0.00951831,396.637,0.202584,-0.021084,0.306061,-0.0617866,-0.24251,0.637667,0.00015021,8.05424e-05,0.486422,0.35806514599516936,0.8920615465696633,0.00015022128208697083,-0.059916520798420914,8.05456436261398e-05,-0.21534409901952023
648,0.6337,688.237,228.2,0.0308359,396.789,-0.0571409,0.0952321,0.306444,-0.0618696,-0.242812,0.638466,0.00014651,8.19845e-05,0.487035,0.35858538456541234,0.8935739078532474,0.0001465207331141638,-0.059994544489166635,8.198786082092013e-05,-0.21558102932333978
649,0.6347,688.695,229.262,-0.0105348,396.822,0.207868,-0.0236048,0.306825,-0.0619423,-0.243118,0.63926,0.000150575,8.06539e-05,0.487645,0.35910310421626246,0.895078002582671,0.00015058633698439294,-0.06006288040174179,8.065715261329487e-05,-0.21582102480718512
650,0.6357,688.555,228.287,0.0317472,396.976,-0.0626256,0.0975893,0.307208,-0.0620254,-0.243419,0.640058,0.000146715,8.21522e-05,0.488257,0.3596237404006424,0.8965908783858936,0.00014672576317198427,-0.06014098593105066,8.215557458446376e-05,-0.21605702715858244
651,0.6367,689.025,229.389,-0.011551,397.007,0.213089,-0.0261,0.307589,-0.0620978,-0.243725,0.640852,0.000150938,8.07652e-05,0.488868,0.36014185574043966,0.8980973695411751,0.00015094939171311772,-0.060209029260471,8.076846159665863e-05,-0.21629687700937317
652,0.6377,688.872,228.374,0.0326562,397.163,-0.0680362,0.0999144,0.307971,-0.0621811,-0.244026,0.641648,0.000146919,8.23189e-05,0.489479,0.3606615291806401,0.8996088565393465,0.00014692979312491694,-0.06028731058787107,8.232228829352373e-05,-0.2165327361508118
653,0.6387,689.353,229.516,-0.0125628,397.191,0.218221,-0.0285583,0.308351,-0.0622532,-0.244331,0.642441,0.000151299,8.08764e-05,0.490088,0.36117867881393617,0.9011158438040605,0.00015131044627092471,-0.06035506143033054,8.087967058423295e-05,-0.21677165722896918
654,0.6397,689.189,228.461,0.0335588,397.349,-0.0733484,0.102196,0.308733,-0.0623365,-0.244632,0.643237,0.000147124,8.24844e-05,0.490699,0.3616987483962091,0.9026297344642757,0.00014713482326644822,-0.06043333059375744,8.248780193165217e-05,-0.21700737348306742
655,0.6407,689.68,229.642,-0.0135659,397.375,0.223239,-0.0309685,0.309113,-0.0624083,-0.244937,0.644028,0.000151657,8.09876e-05,0.491307,0.3622162922477037,0.9041353099608451,0.00015166850050429836,-0.06050078905883294,8.099087958424178e-05,-0.21724614981891277
656,0.6417,689.504,228.548,0.0344507,397.535,-0.0785371,0.104424,0.309494,-0.0624917,-0.245237,0.644823,0.000147329,8.26487e-05,0.491917,0.3627353955379473,0.905649699422314,0.00014733985345016798,-0.060579140025744715,8.265211549796092e-05,-0.21748094075356605
657,0.6427,690.006,229.767,-0.0145558,397.558,0.228119,-0.0333189,0.309873,-0.0625633,-0.245541,0.645614,0.000152012,8.10989e-05,0.492525,0.3632519701375594,0.9071576646561816,0.0001520235544094639,-0.060646400151377566,8.110218860468699e-05,-0.2177187903926
658,0.6437,689.818,228.635,0.0353278,397.72,-0.0835776,0.106586,0.310254,-0.0626468,-0.245841,0.646408,0.000147535,8.28115e-05,0.493134,0.3637714680962587,0.9086725491714847,0.00014754588382337452,-0.06072483290235209,8.281492896689002e-05,-0.21795343955634783
659,0.6447,690.33,229.89,-0.0155278,397.741,0.232835,-0.0355984,0.310633,-0.0627181,-0.246145,0.647198,0.000152363,8.12105e-05,0.493741,0.364288435441791,0.9101809962434719,0.00015237460783135148,-0.060791800834331,8.121379766201642e-05,-0.2181911455775768
660,0.6457,690.132,228.722,0.0361855,397.905,-0.0884452,0.108672,0.311014,-0.0628017,-0.246445,0.647991,0.000147742,8.29727e-05,0.49435,0.364808328369008,0.9116963705399896,0.000147752914386734,-0.060870315357828386,8.297614232977146e-05,-0.21842565305602302
661,0.6467,690.392,229.14,0.0110672,397.974,0.0084152,0.0606709,0.311393,-0.0628774,-0.246747,0.648781,0.000149064,8.25495e-05,0.494957,0.3653256887590608,0.91320720737469,0.00014907511059014666,-0.06094140478418708,8.255290730363463e-05,-0.21866165287103434
662,0.6477,690.621,229.411,0.0131551,398.053,0.0647773,0.0398498,0.311772,-0.0629536,-0.247049,0.64957,0.000149963,8.24077e-05,0.495563,0.3658432452658633,0.9147173235237893,0.0001499742450128405,-0.06101295832291809,8.241109560769289e-05,-0.2188975814248625
663,0.6487,690.768,229.434,0.00957006,398.146,0.0576524,0.0418243,0.31215,-0.063031,-0.24735,0.65036,0.00014997,8.25043e-05,0.49617,0.366359631603443,0.9162305478542834,0.00014998124606258045,-0.061085633107393456,8.250770357332016e-05,-0.21913265787207348
664,0.6497,690.956,229.576,0.0101136,398.232,0.0806689,0.0329714,0.312529,-0.0631078,-0.247651,0.651149,0.000150443,8.24746e-05,0.496776,0.3668775800488513,0.9177430503603152,0.0001504543171155781,-0.0611577389618706,8.247800112326509e-05,-0.21936766357192183
665,0.6507,691.091,229.558,0.0107891,398.327,0.0624274,0.0403616,0.312907,-0.0631852,-0.247952,0.651938,0.000150308,8.26286e-05,0.497382,0.36739435743888316,0.9192567467017307,0.00015031929681352807,-0.06123040254075807,8.263201383673646e-05,-0.2196025985456993
666,0.6517,691.273,229.687,0.00920497,398.413,0.0823909,0.0319057,0.313285,-0.0632619,-0.248252,0.652726,0.000150742,8.25992e-05,0.497987,0.36791133020769284,0.9207697170501599,0.00015075336214609436,-0.061302403407614725,8.260261140780045e-05,-0.21983668265176404
667,0.6527,691.408,229.664,0.0113804,398.508,0.0626374,0.0403869,0.313663,-0.0633394,-0.248553,0.653514,0.000150587,8.27658e-05,0.498592,0.36842849842914727,0.9222838800890818,0.00015059833879149664,-0.06137514965239721,8.276922518324348e-05,-0.22007147647204328
668,0.6537,691.588,229.792,0.00876431,398.594,0.0826442,0.0315656,0.314041,-0.063416,-0.248853,0.654301,0.000151021,8.27309e-05,0.499197,0.36894586217714154,0.9237973129604322,0.0001510324042452993,-0.06144704556228531,8.273432229533029e-05,-0.22030541993582753
669,0.6547,691.722,229.767,0.0116283,398.689,0.0623774,0.0404774,0.314419,-0.0634933,-0.249153,0.655088,0.000150858,8.29026e-05,0.499801,0.36946342152559897,0.9253119373722622,0.00015086937964037261,-0.061519592901672526,8.290603651550654e-05,-0.22053929322709898
670,0.6557,691.901,229.897,0.00852803,398.774,0.0827371,0.0313549,0.314796,-0.0635698,-0.249453,0.655874,0.000151298,8.28637e-05,0.500405,0.36997980656797846,0.9268258274358923,0.0001513094461196296,-0.061591383906774655,8.28671332913089e-05,-0.22077309636690634
671,0.6567,692.035,229.87,0.0117331,398.869,0.0620811,0.0405326,0.315173,-0.0636471,-0.249753,0.65666,0.000151128,8.30383e-05,0.501009,0.3704963863242201,0.9283409078848726,0.00015113942041145023,-0.061663920089239044,8.304174777507001e-05,-0.2210068293762919
672,0.6577,692.214,230.001,0.00838323,398.954,0.0828001,0.0311863,0.315549,-0.0637235,-0.250053,0.657445,0.000151572,8.29964e-05,0.501612,0.37101178985526984,0.9298552497989987,0.0001515834876160138,-0.0617356062272989,8.299984429638307e-05,-0.2212404922762916
673,0.6587,692.347,229.973,0.0117759,399.049,0.0617957,0.0405623,0.315926,-0.0638006,-0.250352,0.65823,0.000151397,8.3173e-05,0.502215,0.3715287587425573,0.9313707809382374,0.0001514084611042854,-0.06180794362341635,8.317645896993575e-05,-0.22147330656163078
674,0.6597,692.526,230.105,0.00827973,399.134,0.0828445,0.0310391,0.316302,-0.0638769,-0.250651,0.659014,0.000151846,8.31289e-05,0.502817,0.37204455051862184,0.9328855693499609,0.0001518575291874491,-0.061879524946455655,8.313235530277296e-05,-0.2217060512459046
675,0.6607,692.658,230.076,0.0117908,399.228,0.0615277,0.0405756,0.316678,-0.063954,-0.25095,0.659798,0.000151666,8.3307e-05,0.503419,0.3725605362688589,0.9344015458214578,0.00015167750186928508,-0.06195185124686764,8.33104701245535e-05,-0.22193872634992062
676,0.6617,692.837,230.208,0.00819584,399.312,0.0828698,0.0309058,0.317054,-0.0640302,-0.251249,0.660582,0.000152118,8.3261e-05,0.504021,0.3730767160662165,0.935918711284532,0.00015212957052956888,-0.06202332779251163,8.326446629336459e-05,-0.22217133189448013
677,0.6627,692.968,230.178,0.0117921,399.406,0.061279,0.0405766,0.31743,-0.0641072,-0.251547,0.661365,0.000151933,8.34403e-05,0.504622,0.37359308998367036,0.9374351292356207,0.0001519445424027488,-0.06209554921571114,8.344378123870122e-05,-0.22240309030385752
678,0.6637,693.147,230.311,0.00812233,399.491,0.0828752,0.0307839,0.317805,-0.0641833,-0.251846,0.662147,0.000152389,8.33926e-05,0.505223,0.3741082839852521,0.9389507960551706,0.00015240061179344622,-0.06216692102868382,8.339607725948994e-05,-0.22263555702435
679,0.6647,693.277,230.28,0.0117857,399.584,0.0610506,0.040567,0.318181,-0.0642603,-0.252144,0.662929,0.0001522,8.3573e-05,0.505824,0.3746250458451721,0.9404676485897274,0.00015221158300771087,-0.062239131395629865,8.357649232038078e-05,-0.22286717711524906
680,0.6657,693.456,230.414,0.00805535,399.668,0.0828598,0.0306724,0.318555,-0.0643363,-0.252443,0.663711,0.000152658,8.35239e-05,0.506424,0.3751392517628309,0.9419856877668833,0.0001526696528253435,-0.06231039851345899,8.352738821804095e-05,-0.22309950509452792
681,0.6667,693.586,230.381,0.0117741,399.762,0.0608433,0.0405472,0.31893,-0.0644131,-0.25274,0.664492,0.000152466,8.37049e-05,0.507024,0.37565502568380804,0.9435029710110121,0.00015247762353132188,-0.06238241030956482,8.370840335292229e-05,-0.22333021028009892
682,0.6677,693.764,230.516,0.00799335,399.845,0.082823,0.0305708,0.319305,-0.064489,-0.253038,0.665273,0.000152927,8.36547e-05,0.507624,0.3761709930562753,0.9450214397162173,0.00015293869392984938,-0.06245357278397223,8.365819915190364e-05,-0.22356162339516872
683,0.6687,693.893,230.483,0.0117584,399.939,0.0606577,0.0405173,0.319679,-0.0645657,-0.253336,0.666053,0.000152731,8.38362e-05,0.508223,0.37668577726632524,0.9465391482685837,0.0001527426639729157,-0.06252547983726897,8.383971435232951e-05,-0.22379296755940448
684,0.6697,694.071,230.618,0.00793574,400.022,0.0827644,0.0304794,0.320053,-0.0646416,-0.253633,0.666832,0.000153193,8.37851e-05,0.508822,0.3772007540416771,0.9480560930383606,0.00015320473464686124,-0.06259663145311134,8.378861006952398e-05,-0.2240234668172052
685,0.6707,694.199,230.584,0.0117387,400.115,0.060494,0.0404775,0.320427,-0.0647182,-0.25393,0.667612,0.000152996,8.39668e-05,0.50942,0.3777159234543639,0.9495761695436997,0.00015300770448489764,-0.062668433801077,8.397032531037851e-05,-0.2242538976268914
686,0.6717,694.377,230.719,0.00788231,400.198,0.0826836,0.030398,0.320801,-0.064794,-0.254228,0.66839,0.000153459,8.3915e-05,0.510018,0.37823128557644536,0.9510935299802785,0.00015347077543470533,-0.06273948084107805,8.391852096201191e-05,-0.22448503552414145
687,0.6727,694.505,230.685,0.0117153,400.291,0.0603526,0.0404275,0.321174,-0.0648705,-0.254524,0.669169,0.00015326,8.40968e-05,0.510616,0.37874546173385726,0.9526140239956606,0.00015327174491375217,-0.06281117852832219,8.410033623507118e-05,-0.2247145539832186
688,0.6737,694.682,230.82,0.00783303,400.374,0.0825804,0.0303267,0.321547,-0.0649461,-0.254821,0.669947,0.000153723,8.40445e-05,0.511214,0.3792598297147489,0.9541337488026236,0.00015373481598590644,-0.06288202732510717,8.404803183803544e-05,-0.22494477957049352
689,0.6747,694.809,230.786,0.0116882,400.466,0.0602335,0.0403675,0.32192,-0.0650226,-0.255118,0.670724,0.000153523,8.42261e-05,0.511811,0.3797743895906833,0.9556527007618598,0.00015353478525881314,-0.06295371410796236,8.422964711751746e-05,-0.22517493679092204
690,0.6757,694.986,230.92,0.00778791,400.549,0.0824549,0.0302656,0.322293,-0.0650982,-0.255414,0.671501,0.000153985,8.41736e-05,0.512407,0.3802891414332512,0.9571728334054048,0.0001539968562986882,-0.0630245521294649,8.417714269692844e-05,-0.2254042510694444
691,0.6767,695.113,230.886,0.0116572,400.641,0.0601369,0.0402973,0.322665,-0.0651745,-0.25571,0.672277,0.000153785,8.43547e-05,0.513004,0.38080270451067455,0.9586921889578384,0.00015379682551919238,-0.06309604062881646,8.435825795771734e-05,-0.22563349748098516
692,0.6777,695.289,231.021,0.00774695,400.723,0.082307,0.0302146,0.323038,-0.06525,-0.256006,0.673053,0.000154247,8.43023e-05,0.5136,0.3813178399862507,0.9602127239877589,0.00015425889668008175,-0.06316677420752281,8.430585353869091e-05,-0.22586267604562993
693,0.6787,695.416,230.987,0.0116225,400.815,0.0600624,0.040217,0.32341,-0.0653263,-0.256302,0.673829,0.000154047,8.44827e-05,0.514195,0.3818317858107221,0.9617344394107958,0.00015405886584840545,-0.06323825185574383,8.448626876389476e-05,-0.22609178678345832
694,0.6797,695.591,231.12,0.00771017,400.897,0.0821371,0.0301737,0.323781,-0.0654017,-0.256598,0.674604,0.000154507,8.44306e-05,0.514791,0.38234454051337385,0.9632553728869353,0.0001545189368212796,-0.06330888102880061,8.443416436332285e-05,-0.22632082971454437
695,0.6807,695.718,231.087,0.011584,400.989,0.0600099,0.0401269,0.324153,-0.0654779,-0.256893,0.675379,0.000154308,8.461e-05,0.515386,0.3828588683414895,0.9647774855433919,0.00015431990609182655,-0.06338025417271487,8.46135795269376e-05,-0.2265490314083738
696,0.6817,695.892,231.22,0.00767755,401.07,0.0819455,0.0301426,0.324524,-0.0655531,-0.257188,0.676152,0.000154765,8.45584e-05,0.51598,0.3833720041624533,0.9662968456967613,0.0001547769767205054,-0.06345068532935638,8.456197516237829e-05,-0.22677716579263218
697,0.6827,696.018,231.187,0.0115417,401.162,0.0599789,0.040027,0.324896,-0.0656292,-0.257483,0.676926,0.000154568,8.47367e-05,0.516575,0.3838867142781477,0.9678193485879416,0.00015457994624878957,-0.06352195402039473,8.474029025551388e-05,-0.2270052328871729
698,0.6837,696.193,231.319,0.00764907,401.243,0.0817326,0.0301212,0.325267,-0.0657044,-0.257778,0.677699,0.000155022,8.46858e-05,0.517168,0.3844002315006996,0.9693410610104791,0.0001550340165312747,-0.06359237452160837,8.468938594363706e-05,-0.2272332327118436
699,0.6847,696.319,231.286,0.0114957,401.334,0.0599689,0.0399177,0.325637,-0.0657805,-0.258073,0.678472,0.000154828,8.48627e-05,0.517762,0.3849125543602392,0.97086395017147,0.0001548399864734762,-0.06366363243050954,8.486630094073355e-05,-0.22746116528648586
700,0.6857,696.492,231.417,0.00762465,401.416,0.0814992,0.0301093,0.326008,-0.0658556,-0.258368,0.679244,0.000155278,8.48128e-05,0.518355,0.385426452240069,0.9723860445938539,0.00015529005625269932,-0.06373394865130688,8.481639670709917e-05,-0.22768903063093549
701,0.6867,696.618,231.386,0.011446,401.506,0.0599791,0.0397991,0.326378,-0.0659315,-0.258662,0.680016,0.000155087,8.49881e-05,0.518948,0.38593915487153563,0.973909314526821,0.0001550990266105945,-0.06380500854784699,8.499171159082053e-05,-0.2279160566814653
702,0.6877,696.79,231.516,0.00760423,401.587,0.0812459,0.0301064,0.326748,-0.0660065,-0.258957,0.680788,0.000155533,8.49393e-05,0.51954,0.3864520472380746,0.9754337608782151,0.00015554509588411314,-0.06387522053922334,8.49429074445407e-05,-0.22814378785274503
703,0.6887,696.916,231.485,0.0113927,401.678,0.060009,0.0396716,0.327118,-0.0660823,-0.25925,0.681559,0.000155345,8.51128e-05,0.520133,0.386965129409901,0.9769574075981864,0.0001553570666592563,-0.06394617610825637,8.51164221971068e-05,-0.22836990859459783
704,0.6897,697.088,231.614,0.00758769,401.759,0.0809735,0.0301123,0.327488,-0.0661573,-0.259544,0.682329,0.000155786,8.50654e-05,0.520724,0.38747840145725587,0.9784802510215136,0.000155798135269114,-0.0640163775124627,8.506901816374146e-05,-0.2285967344964296
705,0.6907,697.213,231.584,0.011336,401.849,0.0600574,0.0395357,0.327857,-0.066233,-0.259838,0.683099,0.000155603,8.52369e-05,0.521316,0.3879904754592367,0.98000426748584,0.00015561510677475354,-0.06408722879093032,8.524053276781629e-05,-0.22882349372124822
706,0.6917,697.384,231.711,0.00757492,401.929,0.080683,0.0301265,0.328226,-0.0663079,-0.260132,0.683868,0.000156038,8.51911e-05,0.521907,0.3885027384513906,0.9815274763662873,0.00015605017456188364,-0.06415732603231938,8.519472886470147e-05,-0.22905018628865392
707,0.6927,697.51,231.683,0.0112759,402.019,0.0601236,0.0393918,0.328595,-0.0663835,-0.260425,0.684638,0.000155859,8.53604e-05,0.522498,0.3890151905034682,0.9830538400977107,0.00015587114664494806,-0.06422807306419986,8.536404330250491e-05,-0.22927604149466785
708,0.6937,697.68,231.808,0.00756577,402.1,0.0803755,0.0301486,0.328964,-0.0664583,-0.260718,0.685406,0.000156289,8.53163e-05,0.523088,0.3895278316852451,0.9845774104230243,0.00015630121376197792,-0.0642980661865592,8.531993953897477e-05,-0.22950183053480022
709,0.6947,697.806,231.781,0.0112127,402.189,0.0602065,0.0392403,0.329333,-0.0665338,-0.261011,0.686175,0.000156115,8.54833e-05,0.523678,0.3900406620665233,0.986104137402926,0.00015612718658086777,-0.06436870901576186,8.54869538013947e-05,-0.22972755342843476
710,0.6957,697.975,231.905,0.00756007,402.27,0.0800519,0.030178,0.329701,-0.0666085,-0.261304,0.686942,0.000156538,8.54411e-05,0.524268,0.3905522911641439,0.9876280636273123,0.00015655025271210654,-0.06443859806280994,8.544475019478526e-05,-0.22995321019494963
711,0.6967,698.1,231.879,0.0111464,402.359,0.0603048,0.0390817,0.330069,-0.066684,-0.261597,0.68771,0.000156371,8.56056e-05,0.524857,0.3910641085759201,0.9891551483056351,0.0001563832265820686,-0.0645092302822563,8.560926426404158e-05,-0.2301788008537171
712,0.6977,698.269,232.002,0.00755766,402.439,0.0797136,0.0302144,0.330437,-0.0667586,-0.261889,0.688476,0.000156787,8.55654e-05,0.525446,0.39157611437116424,0.9906794248726307,0.00015679929172396356,-0.06457901529066412,8.556906082324289e-05,-0.23040355582804461
713,0.6987,698.394,231.977,0.0110773,402.528,0.0604175,0.0389167,0.330805,-0.0668339,-0.262182,0.689243,0.000156625,8.57273e-05,0.526035,0.3920883086192142,0.9922068616886459,0.00015663726633574626,-0.06464944983891874,8.573097469000146e-05,-0.2306290145548705
714,0.6997,698.562,232.098,0.00755834,402.608,0.0793616,0.030257,0.331172,-0.0669085,-0.262474,0.690009,0.000157034,8.56893e-05,0.526623,0.3925992987894382,0.9937334767636272,0.00015704633048407857,-0.06471922438733768,8.569297143301569e-05,-0.2308536380859889
715,0.7007,698.687,232.075,0.0110056,402.696,0.0605433,0.0387457,0.331539,-0.0669837,-0.262766,0.690774,0.000156879,8.58484e-05,0.527211,0.39311047652747133,0.9952592664134816,0.00015689130615381686,-0.06478955485720495,8.585208507927433e-05,-0.2310781960366115
716,0.7017,698.854,232.194,0.00756189,402.776,0.0789974,0.0303055,0.331906,-0.0670582,-0.263058,0.691539,0.00015728,8.58128e-05,0.527799,0.39362184190216354,0.9967862237389973,0.00015729236914774347,-0.0648592254401067,8.581648202365955e-05,-0.23130268842588486
717,0.7027,698.979,232.173,0.0109314,402.864,0.0606808,0.0385693,0.332273,-0.0671333,-0.263349,0.692304,0.000157132,8.59689e-05,0.528386,0.3941333949823902,0.9983143496337874,0.00015714434587943416,-0.06492945187524046,8.59725954318602e-05,-0.2315263467996812
718,0.7037,699.145,232.289,0.0075681,402.944,0.0786223,0.030359,0.33264,-0.0672077,-0.263641,0.693068,0.000157525,8.59357e-05,0.528973,0.39464513583705174,0.9998416451495049,0.00015753740771429214,-0.06499901853610912,8.593939257806049e-05,-0.23175070834803557
719,0.7047,699.271,232.27,0.0108551,403.031,0.0608288,0.0383882,0.333006,-0.0672828,-0.263932,0.693831,0.000157384,8.60888e-05,0.52956,0.39515566937870705,1.001368106595741,0.00015739638551148794,-0.06506923447317559,8.609250574709293e-05,-0.2319742363670021
720,0.7057,699.435,232.384,0.00757675,403.111,0.0782375,0.0304171,0.333372,-0.0673571,-0.264223,0.694595,0.000157768,8.60582e-05,0.530146,0.39566638980983737,1.002897736073237,0.00015778044602532404,-0.0651386972484802,8.606190311311046e-05,-0.23219769934877854
721,0.7067,699.561,232.367,0.0107768,403.198,0.0609859,0.0382029,0.333738,-0.067432,-0.264514,0.695357,0.000157635,8.62082e-05,0.530732,0.39617729719885686,1.0044245257811268,0.0001576474250495341,-0.06520871573783105,8.621191603364053e-05,-0.23242109731228788
722,0.7077,699.725,232.479,0.00758759,403.278,0.0778444,0.0304792,0.334104,-0.0675063,-0.264805,0.69612,0.000158011,8.61803e-05,0.531317,0.3966883916142043,1.0059544852996298,0.00015802348439564184,-0.06527816815006271,8.618401362880945e-05,-0.23264443027644777
723,0.7087,699.851,232.464,0.0106967,403.365,0.0611507,0.0380142,0.33447,-0.0675811,-0.265096,0.696882,0.000157885,8.6327e-05,0.531902,0.3971996731243439,1.007483605138097,0.0001578974644926845,-0.06534808272824721,8.633072628261296e-05,-0.23286769826017006
724,0.7097,700.013,232.574,0.00760039,403.444,0.0774445,0.0305446,0.334835,-0.0676553,-0.265386,0.697643,0.000158252,8.63018e-05,0.532487,0.3977097440873223,1.0090118815970448,0.00015826452250822243,-0.065417431327644,8.630552410737735e-05,-0.2330901343728794
725,0.7107,700.14,232.561,0.0106151,403.531,0.061322,0.0378225,0.3352,-0.06773,-0.265676,0.698404,0.000158135,8.64453e-05,0.533072,0.3982200012601833,1.0105413215170191,0.0001581475039982294,-0.06548724203806133,8.644903650267821e-05,-0.23331250598846853
726,0.7117,700.301,232.668,0.0076149,403.61,0.077039,0.0306127,0.335565,-0.0678041,-0.265967,0.699165,0.000158493,8.64229e-05,0.533656,0.3987304447109059,1.0120719257837498,0.00015850556067920074,-0.06555648686787363,8.642663456637223e-05,-0.2335355795904427
727,0.7127,700.428,232.657,0.0105323,403.696,0.0614983,0.0376285,0.33593,-0.0678788,-0.266257,0.699925,0.000158383,8.65631e-05,0.53424,0.39924107450749435,1.0136016816809543,0.00015839554324958982,-0.06562628719123009,8.656684669317016e-05,-0.23375782204564788
728,0.7137,700.588,232.762,0.00763088,403.775,0.0766294,0.030683,0.336294,-0.0679528,-0.266546,0.700684,0.000158732,8.65434e-05,0.534823,0.39975049096678594,1.0151305855029529,0.00015874459859044343,-0.06569542828772579,8.654714498801397e-05,-0.2339792340395025
729,0.7147,700.715,232.753,0.0104484,403.861,0.0616784,0.0374328,0.336658,-0.0680273,-0.266836,0.701444,0.000158631,8.66803e-05,0.535407,0.4002600928874207,1.0166626668651082,0.0001586435825624566,-0.06576503138557077,8.668405684564284e-05,-0.23420134785357138
730,0.7157,700.874,232.856,0.00764809,403.94,0.0762168,0.0307548,0.337022,-0.0681013,-0.267126,0.702202,0.00015897,8.66635e-05,0.535989,0.40076988033691885,1.0181918766638867,0.000158982636400129,-0.06583416221537597,8.66672553896386e-05,-0.2344233972639731
731,0.7167,701.001,232.849,0.0103638,404.026,0.0618609,0.037236,0.337386,-0.0681757,-0.267415,0.702961,0.000158877,8.6797e-05,0.536572,0.401279853382825,1.0197242657663739,0.0001588896216189184,-0.06590366156829919,8.680076696854222e-05,-0.23464461693438177
732,0.7177,701.159,232.949,0.00766629,404.105,0.0758027,0.0308275,0.33775,-0.0682496,-0.267704,0.703718,0.000159207,8.67831e-05,0.537154,0.4017900120927087,1.0212537758820974,0.00015921967410692517,-0.06597268873712403,8.678686576213401e-05,-0.23486577268154296
733,0.7187,701.287,232.944,0.0102787,404.19,0.0620446,0.0370386,0.338113,-0.068324,-0.267993,0.704476,0.000159123,8.69131e-05,0.537736,0.40229895423450857,1.0227864670607874,0.00015913566073599839,-0.0660421777840573,8.691687705297824e-05,-0.23508686452392802
734,0.7197,701.443,233.042,0.00768523,404.269,0.0753881,0.0309006,0.338476,-0.0683978,-0.268282,0.705233,0.000159444,8.69021e-05,0.538317,0.40280808115584144,1.0243182961405077,0.00015945671187012067,-0.06611110132802678,8.69058760968322e-05,-0.2353078924800025
735,0.7207,701.571,233.04,0.0101932,404.353,0.0622284,0.0368413,0.33884,-0.068472,-0.26857,0.70599,0.000159368,8.70288e-05,0.538899,0.4033187962418887,1.025851285253859,0.00015938069975440783,-0.06618039331354386,8.703258711584283e-05,-0.23552809209670145
736,0.7217,701.727,233.135,0.00770469,404.432,0.0749744,0.0309736,0.339202,-0.0685457,-0.268859,0.706746,0.000159679,8.70207e-05,0.539479,0.40382688960547863,1.0273834078948973,0.00015969174937002784,-0.06624921328250966,8.702448641084715e-05,-0.23574899255643167
737,0.7227,701.855,233.134,0.0101076,404.516,0.0624111,0.0366445,0.339565,-0.0686199,-0.269147,0.707501,0.000159612,8.7144e-05,0.54006,0.40433657126803046,1.0289146603429198,0.0001596247386730365,-0.0663184950204998,8.714779714869003e-05,-0.23596906515460014
738,0.7237,702.01,233.227,0.00772446,404.595,0.0745626,0.0310459,0.339927,-0.0686935,-0.269435,0.708257,0.000159914,8.71387e-05,0.54064,0.40484503313287434,1.0304490997711606,0.0001599267869252241,-0.06638721145047066,8.714249668684282e-05,-0.23618907438098624
739,0.7247,702.138,233.229,0.0100222,404.679,0.0625915,0.0364488,0.340289,-0.0687676,-0.269723,0.709011,0.000159854,8.72587e-05,0.54122,0.4053536790942329,1.0319806357088779,0.00015986677733148547,-0.0664563895950202,8.726250715107575e-05,-0.2364090202538386
740,0.7257,702.292,233.32,0.0077443,404.758,0.0741538,0.0311171,0.340651,-0.0688412,-0.270011,0.709766,0.000160147,8.72563e-05,0.541799,0.4058625092187609,1.0335153603744969,0.00016015982421535568,-0.06652509587632394,8.726010694171116e-05,-0.23662890279140025
741,0.7267,702.42,233.324,0.00993712,404.841,0.0627688,0.0362546,0.341013,-0.0689152,-0.270298,0.71052,0.000160096,8.73729e-05,0.542378,0.40637152357313777,1.0350492091445371,0.0001601088160485542,-0.06659417046343785,8.737671712299999e-05,-0.23684795886024956
742,0.7277,702.573,233.412,0.00776403,404.92,0.073749,0.0311868,0.341374,-0.0689886,-0.270586,0.711273,0.00016038,8.73733e-05,0.542957,0.40687931534404753,1.0365821782894722,0.00016039286155966614,-0.06666267993699737,8.737711715789409e-05,-0.23706771500169455
743,0.7287,702.702,233.418,0.00985256,405.003,0.0629419,0.0360623,0.341736,-0.0690625,-0.270873,0.712026,0.000160337,8.74866e-05,0.543536,0.407388697848873,1.038116302194886,0.00016034985466384377,-0.06673165101643719,8.74904270642407e-05,-0.23728664514951003
744,0.7297,702.853,233.504,0.00778346,405.081,0.073349,0.0312544,0.342097,-0.0691359,-0.27116,0.712779,0.000160612,8.74898e-05,0.544114,0.407896856885984,1.039651581730641,0.00016062489879775654,-0.06680015039929454,8.749362734405963e-05,-0.2375055124733889
745,0.7307,702.982,233.512,0.00976871,405.164,0.0631099,0.0358724,0.342458,-0.0692097,-0.271447,0.713531,0.000160577,8.75999e-05,0.544692,0.4084051994016231,1.0411859765802571,0.000160589893176466,-0.06686901800694911,8.760373698324386e-05,-0.23772431699135876
746,0.7317,703.133,233.595,0.00780239,405.242,0.0729548,0.0313197,0.342818,-0.0692831,-0.271734,0.714283,0.000160843,8.76057e-05,0.545269,0.4089123165490174,1.0427215257287616,0.00016085593592896075,-0.0669375073074393,8.760953749131772e-05,-0.2379430587214425
747,0.7327,703.262,233.605,0.00968574,405.325,0.0632722,0.0356851,0.343179,-0.0693568,-0.272021,0.715034,0.000160816,8.77127e-05,0.545846,0.40942102571177097,1.0442561857873067,0.00016082893158619882,-0.06700627147915983,8.771654687134145e-05,-0.23816173768165771
748,0.7337,703.411,233.687,0.00782067,405.403,0.072567,0.0313823,0.343539,-0.06943,-0.272307,0.715785,0.000161073,8.77211e-05,0.546423,0.4099285086224702,1.0457919988084394,0.00016108597295216853,-0.06707456412054646,8.772494760811433e-05,-0.23837959226998962
749,0.7347,703.541,233.698,0.00960382,405.485,0.063428,0.035501,0.343899,-0.0695036,-0.272593,0.716535,0.000161053,8.7825e-05,0.546999,0.4104361742599063,1.047326918330417,0.0001610659697306449,-0.06714322490587932,8.782885672831142e-05,-0.23859738456081825
750,0.7357,703.689,233.778,0.00783814,405.563,0.0721864,0.0314419,0.344259,-0.0695768,-0.27288,0.717285,0.000161302,8.78361e-05,0.547576,0.4109440226898724,1.0488629894738404,0.00016131500986715785,-0.06721150752264193,8.783995770311748e-05,-0.23881587575646301
751,0.7367,703.819,233.791,0.00952308,405.645,0.0635766,0.0353202,0.344619,-0.0696503,-0.273165,0.718035,0.00016129,8.79369e-05,0.548151,0.41145205397818607,1.050400213102749,0.00016130300793149033,-0.06728006495732242,8.794076656259975e-05,-0.23903278232121872
752,0.7377,703.966,233.868,0.00785467,405.723,0.0718136,0.0314981,0.344978,-0.0697234,-0.273451,0.718784,0.00016153,8.79504e-05,0.548727,0.4119588562311254,1.0519365381442678,0.0001615430466728185,-0.0673482442925889,8.795426774987902e-05,-0.2392503878264043
753,0.7387,704.096,233.884,0.00944365,405.804,0.0637175,0.035143,0.345337,-0.0697968,-0.273737,0.719533,0.000161526,8.80484e-05,0.549302,0.41246584045873624,1.0534740143242902,0.00016153904602678182,-0.06741669841916065,8.805227637420643e-05,-0.23946793110531428
754,0.7397,704.243,233.959,0.00787013,405.882,0.0714491,0.0315509,0.345696,-0.0698699,-0.274022,0.720281,0.000161758,8.80643e-05,0.549877,0.41297300672635884,1.0550105874937268,0.0001617710835306596,-0.06748486776688623,8.806817777440301e-05,-0.2396846518607747
755,0.7407,704.373,233.976,0.00936565,405.963,0.0638502,0.0349696,0.346055,-0.0699432,-0.274308,0.721029,0.00016176,8.81594e-05,0.550451,0.41348035509935777,1.0565483104498612,0.00016177308385434408,-0.06755321862098951,8.816328615401936e-05,-0.2399020709579296
756,0.7417,704.518,234.05,0.00788442,406.041,0.0710933,0.0315999,0.346414,-0.0700162,-0.274593,0.721776,0.000161985,8.81776e-05,0.551025,0.41398788564312006,1.0580851259668993,0.0001619981202785059,-0.06762128475158624,8.818148775890933e-05,-0.24011866800116177
757,0.7427,704.648,234.068,0.00928918,406.122,0.0639744,0.0348002,0.346772,-0.0700894,-0.274878,0.722524,0.000161994,8.82699e-05,0.551599,0.41449418392816595,1.0596251495381344,0.00016200712173652931,-0.0676895323756489,8.827379590226059e-05,-0.2403352033230325
758,0.7437,704.793,234.14,0.00789743,406.199,0.0707466,0.031645,0.34713,-0.0701623,-0.275163,0.72327,0.000162211,8.82903e-05,0.552173,0.4150006635004462,1.061162203149404,0.00016222415691569125,-0.0677574953314588,8.829419770317593e-05,-0.24055167694112956
759,0.7447,704.923,234.16,0.00921433,406.28,0.0640896,0.0346351,0.347488,-0.0702354,-0.275447,0.724016,0.000162226,8.83801e-05,0.552746,0.4155073244248735,1.0627004038304713,0.00016223915934920896,-0.06782563976784062,8.83840056360441e-05,-0.24076732964074543
760,0.7457,705.067,234.23,0.00790909,406.357,0.0704093,0.031686,0.347846,-0.0703082,-0.275732,0.724762,0.000162436,8.84026e-05,0.553319,0.4160141667663835,1.06423975243737,0.00016244919344132747,-0.067893499591138,8.840650762498292e-05,-0.24098368012039006
761,0.7467,705.198,234.252,0.00914116,406.438,0.0641958,0.0344742,0.348204,-0.0703813,-0.276016,0.725507,0.000162457,8.84898e-05,0.553891,0.4165211905899351,1.0657781840475549,0.000162470196853004,-0.06796163408597178,8.849371533781181e-05,-0.2411992101485232
762,0.7477,705.341,234.319,0.00791933,406.515,0.0700815,0.0317229,0.348561,-0.070454,-0.2763,0.726252,0.00016266,8.85143e-05,0.554463,0.41702697893282314,1.0673177622163292,0.0001626732298551925,-0.06802939081218684,8.851821750632816e-05,-0.2414146789748195
763,0.7487,705.471,234.343,0.00906974,406.595,0.0642926,0.0343178,0.348918,-0.070527,-0.276584,0.726997,0.000162688,8.8599e-05,0.555035,0.41753294787438433,1.068858487798198,0.0001627012344103118,-0.06809742218348225,8.860292500734168e-05,-0.24163008661665764
764,0.7497,705.613,234.409,0.00792809,406.672,0.0697636,0.0317557,0.349275,-0.0705996,-0.276868,0.72774,0.000162884,8.86254e-05,0.555607,0.4180390974791044,1.0703962208517197,0.00016289726631901758,-0.06816507585477383,8.862932734676754e-05,-0.2418454330914117
765,0.7507,705.744,234.434,0.00900012,406.751,0.06438,0.0341658,0.349632,-0.0706725,-0.277152,0.728484,0.000162917,8.87078e-05,0.556178,0.41854542781149107,1.0719371688015897,0.00016293027169522745,-0.06823300414472777,8.871173465330173e-05,-0.2420607184164506
766,0.7517,705.885,234.498,0.00793533,406.829,0.0694555,0.0317842,0.349989,-0.0707451,-0.277435,0.729227,0.000163107,8.87361e-05,0.556749,0.41905193893607606,1.0734771901650983,0.00016312030266996125,-0.06830064797312618,8.874003716408119e-05,-0.24227518488470212
767,0.7527,706.015,234.525,0.00893232,406.908,0.0644579,0.0340182,0.350345,-0.0708179,-0.277719,0.72997,0.000163145,8.88162e-05,0.55732,0.4195572113594923,1.0750183561896693,0.00016315830886926008,-0.06836847321708484,8.882014427546991e-05,-0.2424903481775611
768,0.7537,706.156,234.587,0.00794104,406.985,0.0691573,0.0318084,0.350701,-0.0708904,-0.278002,0.730712,0.000163329,8.88462e-05,0.55789,0.42006266369191314,1.0765585911664721,0.0001633423389073574,-0.0684360140543917,8.885014694048898e-05,-0.24270469307779297
769,0.7547,706.286,234.615,0.00886636,407.064,0.0645264,0.0338752,0.351057,-0.0709631,-0.278285,0.731454,0.000163372,8.89242e-05,0.55846,0.42056829599739776,1.0780999694217313,0.00016338534593196563,-0.06850373629443662,8.892815387384623e-05,-0.24291897732700052
770,0.7557,706.426,234.676,0.00794518,407.14,0.0688689,0.0318284,0.351413,-0.0710355,-0.278568,0.732196,0.00016355,8.89558e-05,0.559029,0.4210741083400278,1.0796424918040746,0.00016356337503031781,-0.06857117418264791,8.89597566844369e-05,-0.24313320094234558
771,0.7567,706.557,234.705,0.00880226,407.219,0.0645855,0.0337367,0.351769,-0.0711081,-0.27885,0.732937,0.000163599,8.90318e-05,0.559599,0.42158010078390773,1.0811840779776407,0.00016361238304618553,-0.06863879346079282,8.903576344843067e-05,-0.24334660728797086
772,0.7577,706.696,234.765,0.00794775,407.296,0.0685903,0.0318442,0.352124,-0.0711805,-0.279133,0.733677,0.000163771,8.90649e-05,0.560167,0.4220848513076032,1.0827247241641285,0.0001637844112023501,-0.0687062215712192,8.906886639592493e-05,-0.24356070990115974
773,0.7587,706.826,234.795,0.00874002,407.374,0.0646354,0.0336025,0.352479,-0.071253,-0.279415,0.734418,0.000163824,8.91389e-05,0.560736,0.4225897810495436,1.0842685951182802,0.0001638374198842385,-0.06877373792265795,8.91428729898891e-05,-0.24377399570625558
774,0.7597,706.965,234.854,0.00794877,407.451,0.0683213,0.0318558,0.352834,-0.0713253,-0.279698,0.735157,0.000163991,8.91734e-05,0.561304,0.4230948900733633,1.0858094388817188,0.0001640044472590585,-0.06884106314756988,8.917737606584097e-05,-0.24398797738563494
775,0.7607,707.095,234.884,0.00867962,407.529,0.0646761,0.0334728,0.353189,-0.0713977,-0.27998,0.735897,0.000164048,8.92456e-05,0.561872,0.42360017844271836,1.087353509102012,0.00016406145660896598,-0.06890847661420108,8.924958250711157e-05,-0.24420114271828763
776,0.7617,707.233,234.942,0.00794823,407.605,0.0680619,0.0318634,0.353543,-0.0714699,-0.280262,0.736636,0.00016421,8.92815e-05,0.56244,0.42410422211635357,1.0888966334594605,0.0001642234831999989,-0.06897569899543243,8.92854857117431e-05,-0.24441424794679167
777,0.7627,707.363,234.974,0.00862105,407.683,0.0647078,0.0333473,0.353898,-0.0715422,-0.280543,0.737374,0.000164271,8.93519e-05,0.563007,0.424609868862192,1.090438808167426,0.0001642844932194798,-0.06904300961908671,8.935589199987604e-05,-0.2446265377150093
778,0.7637,707.5,235.03,0.00794616,407.759,0.0678116,0.031867,0.354252,-0.0716143,-0.280825,0.738112,0.000164428,8.9389e-05,0.563574,0.4251142700295083,1.091982121420398,0.0001644415190245052,-0.0691101291984032,8.939299531562916e-05,-0.2448395229990371
779,0.7647,707.63,235.063,0.00856427,407.837,0.0647309,0.033226,0.354606,-0.0716866,-0.281106,0.73885,0.000164493,8.94578e-05,0.564141,0.4256188497864464,1.0935265740589317,0.00016450652971533586,-0.06917743010310518,8.946180146840454e-05,-0.24505169328175358
780,0.7657,707.767,235.118,0.0079426,407.913,0.0675704,0.0318667,0.354959,-0.0717587,-0.281388,0.739587,0.000164646,8.9496e-05,0.564707,0.42612218207334296,1.0950700718530855,0.00016465955489652906,-0.06924453999105418,8.95000048863892e-05,-0.24526455868881514
781,0.7667,707.897,235.151,0.00850926,407.99,0.0647456,0.0331088,0.355313,-0.0718308,-0.281669,0.740324,0.000164714,8.95632e-05,0.565273,0.4266271186943058,1.0966147076244064,0.00016472756609564598,-0.06931164504055476,8.95672109031409e-05,-0.24547660955328177
782,0.7677,708.033,235.205,0.00793757,408.066,0.067338,0.0318628,0.355666,-0.0719028,-0.28195,0.74106,0.000164863,8.96025e-05,0.565839,0.427130806962954,1.0981583840524598,0.00016487659065123061,-0.06937865218982553,8.960651442380119e-05,-0.24568860083982658
783,0.7687,708.163,235.24,0.00845598,408.143,0.0647521,0.0329956,0.356019,-0.0719748,-0.28223,0.741796,0.000164934,8.96683e-05,0.566405,0.42763467306494674,1.0997031970445685,0.00016494760235996608,-0.06944565451475515,8.967232032208727e-05,-0.24589977846534417
784,0.7697,708.298,235.293,0.00793112,408.219,0.067114,0.0318552,0.356372,-0.0720468,-0.282511,0.742532,0.000165079,8.97085e-05,0.56697,0.4281387170630704,1.1012491474375516,0.00016509262628794374,-0.06951265201569112,8.97125239278651e-05,-0.24611165085813014
785,0.7707,708.428,235.328,0.00840436,408.295,0.0647509,0.0328861,0.356725,-0.0721187,-0.282792,0.743267,0.000165153,8.97729e-05,0.567534,0.4286429390201332,1.1027941332736595,0.00016516663850740798,-0.06957955165094054,8.977692970746354e-05,-0.24632346372313763
786,0.7717,708.562,235.38,0.0079233,408.371,0.0668982,0.0318441,0.357078,-0.0721906,-0.283072,0.744002,0.000165294,8.9814e-05,0.568099,0.42914733899896573,1.1043402550917798,0.00016530766180600232,-0.06964644647627904,8.981803339813688e-05,-0.2465344636119322
787,0.7727,708.692,235.416,0.00835438,408.447,0.0647421,0.0327804,0.35743,-0.0722625,-0.283352,0.744736,0.000165371,8.98771e-05,0.568663,0.4296504874112188,1.105885407840704,0.0001653846745375276,-0.06971333649205247,8.988113906749362e-05,-0.24674540442902837
788,0.7737,708.826,235.467,0.00791416,408.523,0.0666903,0.0318298,0.357782,-0.0723342,-0.283632,0.74547,0.000165509,8.9919e-05,0.569227,0.43015381296288746,1.1074316951480783,0.00016552269737024616,-0.06978003565463242,8.992304283439445e-05,-0.24695628619096377
789,0.7747,708.956,235.503,0.00830596,408.599,0.0647261,0.0326782,0.358134,-0.072406,-0.283912,0.746204,0.000165588,8.99809e-05,0.56979,0.43065731571633625,1.1089791178469737,0.00016560171044965877,-0.06984682305037626,8.998494840262161e-05,-0.24716710891427174
790,0.7757,709.089,235.554,0.00790375,408.674,0.0664898,0.0318122,0.358486,-0.0724777,-0.284192,0.746937,0.000165723,9.00235e-05,0.570353,0.43116099573395084,1.1105255662444526,0.00016573673281494727,-0.06991351264231305,9.002755223685988e-05,-0.2473778726154805
791,0.7767,709.219,235.591,0.00825906,408.75,0.0647034,0.0325793,0.358837,-0.0725494,-0.284471,0.74767,0.000165804,9.00842e-05,0.570916,0.43166342141400205,1.112073148604153,0.00016581774624291334,-0.06998019745277761,9.008825770329132e-05,-0.2475878248993153
792,0.7777,709.351,235.64,0.00789214,408.825,0.0662966,0.0317917,0.359189,-0.0726211,-0.28475,0.748402,0.000165936,9.01275e-05,0.571479,0.43216745564315984,1.1136197521367652,0.00016594976813966156,-0.07004687748211258,9.013156160508906e-05,-0.24779771861463362
793,0.7787,709.481,235.678,0.00821361,408.901,0.0646742,0.0324837,0.35954,-0.0726927,-0.28503,0.749134,0.000166019,9.01872e-05,0.572041,0.43267023465264476,1.115167488197618,0.00016603278191684723,-0.07011345974201155,9.019126698772695e-05,-0.2480083057698439
794,0.7797,709.613,235.727,0.00787937,408.976,0.0661101,0.0317684,0.359891,-0.0727642,-0.285309,0.749865,0.000166148,9.0231e-05,0.572603,0.43317319016853717,1.1167142409007265,0.00016616180334350084,-0.0701799442527904,9.023507093908201e-05,-0.24821808218736308
795,0.7807,709.742,235.765,0.00816954,409.052,0.0646389,0.0323912,0.360242,-0.0728358,-0.285588,0.750596,0.000166233,9.02897e-05,0.573165,0.4336763222528017,1.1182621246934237,0.00016624681747079428,-0.0702465169854497,9.029377623770429e-05,-0.24842780008542564
796,0.7817,709.874,235.813,0.00786552,409.126,0.0659301,0.0317424,0.360592,-0.0729072,-0.285866,0.751327,0.000166359,9.03341e-05,0.573726,0.43417819678851055,1.1198111404028386,0.00016637283842579897,-0.07031289901427029,9.033818024772877e-05,-0.2486367081174401
797,0.7827,710.003,235.851,0.00812681,409.202,0.0645979,0.0323015,0.360943,-0.0729787,-0.286145,0.752057,0.000166446,9.03918e-05,0.574287,0.4346816816920147,1.1213591674964767,0.00016645985290408838,-0.07037936926565092,9.039588546189137e-05,-0.2488463092351597
798,0.7837,710.134,235.899,0.00785064,409.276,0.0657562,0.0317139,0.361293,-0.0730501,-0.286423,0.752787,0.00016657,9.04366e-05,0.574848,0.43518390816511276,1.1229083250624652,0.00016658387355272808,-0.07044574180915741,9.04406895125831e-05,-0.24905510093780103
799,0.7847,710.263,235.938,0.00808533,409.351,0.0645515,0.0322146,0.361643,-0.0731215,-0.286702,0.753516,0.000166658,9.04935e-05,0.575408,0.4356863104482416,1.1244564894687987,0.00016667188821606338,-0.07051210961383336,9.049759466028817e-05,-0.24926458534020635
800,0.7857,710.394,235.985,0.0078348,409.426,0.065588,0.0316831,0.361993,-0.0731928,-0.28698,0.754245,0.00016678,9.05387e-05,0.575968,0.436188888602945,1.1260057828984635,0.0001667939085574499,-0.07057837973785996,9.054279875186921e-05,-0.24947326077825194
801,0.7867,710.522,236.024,0.00804506,409.5,0.0645,0.0321303,0.362342,-0.0732641,-0.287258,0.754974,0.00016687,9.05948e-05,0.576528,0.43669020599986474,1.1275562061748174,0.0001668839235728914,-0.07064464513699509,9.05989038328947e-05,-0.2496818782125887
802,0.7877,710.653,236.07,0.00781806,409.575,0.0654253,0.0316501,0.362691,-0.0733353,-0.287536,0.755702,0.000166989,9.06404e-05,0.577087,0.43719169838709004,1.1291056310151237,0.0001670029434390763,-0.07071081288266157,9.0644507965143e-05,-0.24989043765933927
803,0.7887,710.781,236.11,0.00800592,409.649,0.064444,0.0320485,0.363041,-0.0734065,-0.287813,0.75643,0.00016708,9.06956e-05,0.577646,0.43769480351978785,1.1306561842473988,0.0001670939586406739,-0.07077697591735232,9.069971297037682e-05,-0.2500981892331863
804,0.7897,710.911,236.156,0.00780047,409.723,0.0652677,0.0316151,0.36339,-0.0734777,-0.288091,0.757157,0.000167198,9.07415e-05,0.578205,0.4381966465727354,1.1322057344866097,0.0001672119783646675,-0.07084313424140276,9.074561713440232e-05,-0.25030663296155875
805,0.7907,711.039,236.195,0.00796785,409.798,0.0643835,0.031969,0.363738,-0.0735488,-0.288368,0.757884,0.00016729,9.0796e-05,0.578763,0.4386972261015287,1.1337564116584353,0.00016730399375242122,-0.07090919494607228,9.080012208162458e-05,-0.25051426926527265
806,0.7917,711.168,236.241,0.00778211,409.872,0.0651149,0.0315781,0.364087,-0.0736199,-0.288645,0.758611,0.000167405,9.08422e-05,0.579322,0.43919941906101223,1.135308216582453,0.00016741901299899276,-0.07097525095399271,9.084632627764933e-05,-0.2507218480616956
807,0.7927,711.296,236.281,0.00793079,409.946,0.0643191,0.0318916,0.364436,-0.0736909,-0.288922,0.759337,0.000167498,9.08961e-05,0.579879,0.4397017873164262,1.1368590132187553,0.00016751202857334668,-0.07104120936962355,9.090023117575008e-05,-0.2509293693667549
808,0.7937,711.425,236.326,0.00776303,410.02,0.0649666,0.0315395,0.364784,-0.0737619,-0.289199,0.760063,0.000167612,9.09424e-05,0.580437,0.44020289072534835,1.1384109361422081,0.00016762604767617262,-0.07110716310237308,9.094653538532782e-05,-0.25113683319637337
809,0.7947,711.552,236.366,0.00789469,410.093,0.064251,0.0318162,0.365132,-0.0738329,-0.289476,0.760788,0.000167706,9.09957e-05,0.580994,0.44070416854860306,1.139961846207877,0.0001677200634373488,-0.07117311215257383,9.099984023430707e-05,-0.25134423956646956
810,0.7957,711.681,236.41,0.00774329,410.167,0.0648224,0.0314993,0.36548,-0.0739038,-0.289753,0.761513,0.000167818,9.10422e-05,0.581551,0.4412056208468973,1.1415138810910403,0.00016783208222825863,-0.07123896364445925,9.104634446677196e-05,-0.25155158849295745
811,0.7967,711.808,236.45,0.00785948,410.241,0.0641794,0.0317427,0.365827,-0.0739747,-0.290029,0.762237,0.000167913,9.10948e-05,0.582108,0.4417058059744319,1.143064898541517,0.0001679270981769232,-0.07130481046763937,9.109894925729556e-05,-0.25175813175025274
812,0.7977,711.936,236.495,0.00772294,410.314,0.0646821,0.0314576,0.366175,-0.0740456,-0.290305,0.762962,0.000168024,9.11415e-05,0.582664,0.4422076069032084,1.1446191839533406,0.0001680381168229772,-0.07137065262244524,9.114565351264758e-05,-0.2519646180094751
813,0.7987,712.063,236.535,0.0078251,410.388,0.0641048,0.031671,0.366522,-0.0741164,-0.290581,0.763685,0.000168119,9.11936e-05,0.58322,0.4427081397802355,1.146170304285771,0.00016813313279095965,-0.07143639725285222,9.11977582627177e-05,-0.25217104728635387
814,0.7997,712.191,236.579,0.00770203,410.461,0.0645454,0.0314146,0.366869,-0.0741872,-0.290857,0.764409,0.000168228,9.12404e-05,0.583776,0.44320884637230895,1.1477246942073274,0.00016824215112354324,-0.07150213722870413,9.124456253184476e-05,-0.25237741959661397
815,0.8007,712.318,236.62,0.00779151,410.534,0.0640274,0.0316009,0.367216,-0.0742579,-0.291133,0.765132,0.000168324,9.1292e-05,0.584331,0.44370972673971787,1.1492780606355377,0.00016833816727945816,-0.07156777970711303,9.129616724146139e-05,-0.2525837349559761
816,0.8017,712.445,236.663,0.00768063,410.607,0.064412,0.0313705,0.367563,-0.0743286,-0.291409,0.765854,0.000168432,9.13388e-05,0.584886,0.4442107809427731,1.1508303997222926,0.00016844618546563161,-0.07163341754476293,9.134297151525139e-05,-0.2527899933801563
817,0.8027,712.572,236.704,0.00775865,410.68,0.0639474,0.0315323,0.367909,-0.0743992,-0.291684,0.766576,0.000168528,9.13899e-05,0.585441,0.44471056433051936,1.1523838600025704,0.00016854220164108646,-0.07169895791188208,9.139407618419249e-05,-0.2529954478806882
818,0.8037,712.699,236.747,0.00765877,410.753,0.0642818,0.0313252,0.368255,-0.0744698,-0.29196,0.767298,0.000168635,9.14368e-05,0.585995,0.4452105206732373,1.1539384422861652,0.00016864921968084978,-0.07176449365201465,9.144098047153548e-05,-0.2532015926877811
819,0.8047,712.825,236.788,0.00772647,410.826,0.063865,0.0314652,0.368601,-0.0745404,-0.292235,0.768019,0.000168731,9.14874e-05,0.58655,0.4457106500307797,1.1554919918903859,0.00016874523587584456,-0.07183002476548728,9.149158509980104e-05,-0.25340693401406555
820,0.8057,712.951,236.831,0.0076365,410.899,0.0641544,0.031279,0.368947,-0.074611,-0.29251,0.76874,0.000168837,9.15343e-05,0.587103,0.44621095246302,1.1570466620077675,0.0001688512537685316,-0.07189555125262659,9.153848939180698e-05,-0.253612218879249
821,0.8067,713.077,236.871,0.00769493,410.971,0.0637806,0.0313993,0.369293,-0.0746815,-0.292785,0.769461,0.000168933,9.15845e-05,0.587657,0.4467114280298523,1.1586024534464916,0.00016894726998284426,-0.07196098030986198,9.158869398828706e-05,-0.25381744729885614
822,0.8077,713.203,236.914,0.00761387,411.044,0.0640297,0.0312319,0.369639,-0.0747519,-0.29306,0.770181,0.000169039,9.16314e-05,0.58821,0.4472120767911918,1.1601572068570358,0.0001690532878968476,-0.07202631195714715,9.163559828495593e-05,-0.2540226192884074
823,0.8087,713.329,236.955,0.00766398,411.116,0.0636944,0.0313347,0.369984,-0.0748223,-0.293334,0.7709,0.000169135,9.16812e-05,0.588763,0.4477114510947988,1.1617109183811247,0.00016914930413047813,-0.07209163900524629,9.168540284965054e-05,-0.2542269890907808
824,0.8097,713.455,236.997,0.00759091,411.189,0.0639075,0.0311841,0.370329,-0.0748927,-0.293609,0.77162,0.00016924,9.17281e-05,0.589316,0.44821099771226325,1.1632679106923294,0.00016925432189673906,-0.07215696145448314,9.17323071507603e-05,-0.25443204847182366
825,0.8107,713.58,237.038,0.00763358,411.261,0.0636065,0.0312712,0.370674,-0.0749631,-0.293883,0.772339,0.000169336,9.17775e-05,0.589868,0.4487107167030433,1.164823859616725,0.00016935033814968747,-0.07222227930518144,9.178171168366944e-05,-0.25463630610596866
826,0.8117,713.706,237.08,0.00756767,411.333,0.0637875,0.0311356,0.371019,-0.0750334,-0.294157,0.773057,0.000169439,9.18244e-05,0.59042,0.44921060812661806,1.1663787612908316,0.00016945335559825914,-0.07228749978641946,9.18286159892201e-05,-0.2548405077811885
827,0.8127,713.831,237.121,0.0076037,411.405,0.0635171,0.0312087,0.371363,-0.0751036,-0.294431,0.773775,0.000169536,9.18734e-05,0.590972,0.44970922233254007,1.1679347797852309,0.00016955037203980616,-0.07235262291808586,9.187762049012171e-05,-0.255044653512814
828,0.8137,713.956,237.163,0.00754419,411.477,0.0636696,0.0310865,0.371708,-0.0751738,-0.294705,0.774493,0.000169639,9.19202e-05,0.591523,0.4502094582999874,1.1694919159020873,0.00016965338950880593,-0.07241774147826874,9.192442479100116e-05,-0.25524874331617164
829,0.8147,714.08,237.204,0.00757429,411.549,0.0634265,0.0311473,0.372052,-0.075244,-0.294979,0.77521,0.000169735,9.19689e-05,0.592074,0.4507084161694759,1.1710479993950575,0.00016974940580016806,-0.07248285546728928,9.197312926900736e-05,-0.25545277720658344
830,0.8157,714.205,237.246,0.00752049,411.621,0.0635537,0.0310369,0.372396,-0.0753142,-0.295252,0.775927,0.000169837,9.20156e-05,0.592625,0.4512075457099971,1.172605198999971,0.00016985142311987111,-0.07254796488546811,9.201983356521559e-05,-0.25565601085575074
831,0.8167,714.33,237.287,0.00754532,411.692,0.0633347,0.0310867,0.37274,-0.0753843,-0.295526,0.776644,0.000169933,9.20639e-05,0.593175,0.45170684698061603,1.1741635155173658,0.00016994743943010704,-0.07261297699442859,9.206813801099223e-05,-0.25585993317014344
832,0.8177,714.454,237.328,0.0074966,411.764,0.0634395,0.0309868,0.373083,-0.0754544,-0.295799,0.77736,0.000170034,9.21105e-05,0.593726,0.4522048678348243,1.1757207740264946,0.00017004845659984724,-0.0726779845462,9.21147423023072e-05,-0.2560630556809037
833,0.8187,714.578,237.369,0.00751676,411.835,0.063242,0.0310269,0.373427,-0.0755244,-0.296072,0.778076,0.000170131,9.21586e-05,0.594276,0.45270451224327046,1.1772791479319795,0.0001701454730993479,-0.07274289481539586,9.216284673430053e-05,-0.25626612274678706
834,0.8197,714.702,237.411,0.00747256,411.907,0.063327,0.0309364,0.37377,-0.0755944,-0.296345,0.778791,0.000170231,9.22051e-05,0.594825,0.45320287535535764,1.1788364591951828,0.00017024549011890322,-0.07280780054103186,9.22093510209443e-05,-0.25646913438292807
835,0.8207,714.826,237.451,0.00748859,411.978,0.0631484,0.030968,0.374113,-0.0756644,-0.296618,0.779506,0.000170327,9.22528e-05,0.595374,0.45370140943531156,1.1803948843341026,0.00017034150646710877,-0.07287270172342608,9.225705542048601e-05,-0.2566720906044567
836,0.8217,714.95,237.493,0.0074484,412.049,0.063216,0.0308857,0.374456,-0.0757343,-0.29689,0.780221,0.000170427,9.22992e-05,0.595923,0.45420011454178444,1.1819544241454443,0.000170441523506204,-0.0729375056566518,9.230345970223652e-05,-0.25687424830111927
837,0.8227,715.073,237.533,0.00746077,412.12,0.0630542,0.0309097,0.374799,-0.0758042,-0.297163,0.780935,0.000170523,9.23467e-05,0.596472,0.454698990733448,1.1835128959124965,0.00017053753987328335,-0.07300230506024086,9.235096408777288e-05,-0.25707709394164324
838,0.8237,715.197,237.574,0.00742413,412.191,0.0631064,0.0308348,0.375141,-0.075874,-0.297435,0.781649,0.000170623,9.23929e-05,0.597021,0.4551965828716844,1.185072480825736,0.0001706375569319185,-0.07306700724121518,9.239716835551803e-05,-0.2572791414923785
839,0.8247,715.32,237.615,0.00743328,412.262,0.0629594,0.0308521,0.375484,-0.0759438,-0.297707,0.782362,0.000170718,9.24401e-05,0.597569,0.4556958009106087,1.1866309930481473,0.0001707325731470366,-0.07313170490613508,9.244437271771488e-05,-0.2574811340936535
840,0.8257,715.443,237.656,0.00739978,412.333,0.0629981,0.0307836,0.375826,-0.0760136,-0.297979,0.783075,0.000170817,9.24862e-05,0.598116,0.45619373401622787,1.1881906168860166,0.00017083159005437665,-0.07319639805531541,9.249047698034474e-05,-0.2576830717604124
841,0.8267,715.566,237.696,0.0074061,412.404,0.0628641,0.0307952,0.376168,-0.0760833,-0.298251,0.783788,0.000170913,9.25331e-05,0.598664,0.4566918374440927,1.189751353132209,0.00017092760645898153,-0.0732609940151756,9.253738131942413e-05,-0.2578849545075952
842,0.8277,715.689,237.737,0.00737536,412.475,0.062891,0.0307323,0.376509,-0.076153,-0.298523,0.7845,0.000171011,9.25791e-05,0.599211,0.4571886540630803,1.1913110112680472,0.00017102562321458237,-0.07332558547285428,9.258338557716073e-05,-0.25808678235013827
843,0.8287,715.811,237.778,0.0073792,412.545,0.0627685,0.0307388,0.376851,-0.0762226,-0.298795,0.785212,0.000171106,9.26258e-05,0.599758,0.4576870978117926,1.192871780275902,0.00017112063946655987,-0.07339007976767786,9.263008990179067e-05,-0.25828855530297334
844,0.8297,715.934,237.818,0.00735091,412.616,0.0627851,0.0306809,0.377192,-0.0762923,-0.299066,0.785923,0.000171204,9.26716e-05,0.600304,0.45818425387243744,1.1944314665144313,0.00017121865624125654,-0.07345466222839314,9.267589414529986e-05,-0.2584895318709314
845,0.8307,716.056,237.859,0.00735258,412.686,0.0626726,0.030683,0.377533,-0.0763618,-0.299337,0.786634,0.000171299,9.2718e-05,0.600851,0.4586815794922068,1.195992262084197,0.0001713136725114417,-0.0735190548916973,9.27222984465903e-05,-0.2586904539816187
846,0.8317,716.178,237.899,0.00732643,412.757,0.0626802,0.0306295,0.377874,-0.0764314,-0.299608,0.787345,0.000171396,9.27637e-05,0.601397,0.4591790747289308,1.1975541677742134,0.00017141068913351099,-0.07358353572151799,9.27680026849842e-05,-0.25889132164979123
847,0.8327,716.3,237.94,0.0073262,412.827,0.0625765,0.0306277,0.378215,-0.0765009,-0.299879,0.788055,0.000171491,9.28098e-05,0.601942,0.4596767396404584,1.1991149852579723,0.00017150570542212584,-0.07364791942842552,9.281410696271308e-05,-0.2590921348902011
848,0.8337,716.422,237.98,0.00730194,412.897,0.0625763,0.0305781,0.378556,-0.0765703,-0.30015,0.788765,0.000171587,9.28554e-05,0.602488,0.4601745742846586,1.2006769113156421,0.0001716017218913457,-0.07371220603204631,9.285971119599168e-05,-0.2592928937175961
849,0.8347,716.543,238.02,0.00730006,412.967,0.0624803,0.0305729,0.378896,-0.0766398,-0.300421,0.789475,0.000171682,9.29013e-05,0.603033,0.46067111804757155,1.2022399467345894,0.00017169673819794617,-0.07377658079667804,9.290561545949316e-05,-0.25949359814672013
850,0.8357,716.665,238.061,0.00727745,413.037,0.0624733,0.0305266,0.379237,-0.0767091,-0.300692,0.790184,0.000171778,9.29467e-05,0.603578,0.4611692918326289,1.2038018884997501,0.0001717927546853737,-0.07384076585559085,9.295101967832231e-05,-0.25969424819231324
851,0.8367,716.786,238.101,0.00727413,413.107,0.062384,0.0305186,0.379577,-0.0767785,-0.300962,0.790893,0.000171873,9.29923e-05,0.604122,0.46166617385700937,1.2053649380742946,0.00017188777101040387,-0.073905039076134,9.29966239180402e-05,-0.259894103763585
852,0.8377,716.907,238.141,0.00725298,413.177,0.0623712,0.0304752,0.379917,-0.0768478,-0.301232,0.791601,0.000171968,9.30375e-05,0.604666,0.4621632248500014,1.2069268893159446,0.00017198278734409378,-0.07396921523319644,9.30418281224199e-05,-0.26009390538113675
853,0.8387,717.028,238.181,0.00724842,413.246,0.0622878,0.0304647,0.380256,-0.0769171,-0.301502,0.792309,0.000172062,9.3083e-05,0.60521,0.4626589822093503,1.2084899468106416,0.00017207680351494226,-0.07403338694300543,9.308733235680045e-05,-0.2602936530595338
854,0.8397,717.149,238.221,0.00722853,413.316,0.0622699,0.0304239,0.380596,-0.0769863,-0.301772,0.793017,0.000172157,9.3128e-05,0.605754,0.4631563708145727,1.210054111341889,0.00017217181986683983,-0.0740974616156197,9.31323365467307e-05,-0.2604933468133378
855,0.8407,717.27,238.261,0.0072229,413.385,0.0621916,0.0304112,0.380935,-0.0770555,-0.302042,0.793724,0.000172251,9.31733e-05,0.606297,0.4636524649074767,1.2116171720754694,0.00017226583605522983,-0.07416153185442009,9.31776407666618e-05,-0.2606929866571065
856,0.8417,717.39,238.301,0.00720412,413.455,0.0621694,0.0303726,0.381274,-0.0771247,-0.302312,0.794431,0.000172346,9.32182e-05,0.60684,0.46414872720478706,1.2131813382837273,0.000172360852425113,-0.07422559765971326,9.322254495147675e-05,-0.26089257260539356
857,0.8427,717.511,238.341,0.00719757,413.524,0.0620956,0.0303582,0.381613,-0.0771938,-0.302581,0.795137,0.000172439,9.32632e-05,0.607383,0.4646451577635351,1.2147443960030069,0.00017245386845887722,-0.07428956646076745,9.32675491474022e-05,-0.261091365764484
858,0.8437,717.631,238.381,0.00717975,413.593,0.0620697,0.0303215,0.381952,-0.0772629,-0.302851,0.795843,0.000172534,9.33079e-05,0.607926,0.46514175664077073,1.2163085576306703,0.00017254888484652398,-0.07435353084173024,9.331225331754567e-05,-0.26129084416493176
859,0.8447,717.751,238.421,0.00717241,413.663,0.0619997,0.0303055,0.382291,-0.0773319,-0.30312,0.796549,0.000172627,9.33527e-05,0.608468,0.46563852389356386,1.2178738239463511,0.00017264190089805176,-0.07441739824465143,9.335705749879963e-05,-0.26148953020338117
860,0.8457,717.871,238.461,0.00715544,413.732,0.0619706,0.0302706,0.382629,-0.0774009,-0.303389,0.797254,0.000172721,9.33972e-05,0.60901,0.466133993444277,1.2194379762911498,0.00017273591713085068,-0.07448126124087384,9.34015616542716e-05,-0.2616881628024741
861,0.8467,717.991,238.5,0.00714742,413.801,0.061904,0.0302532,0.382967,-0.0774699,-0.303658,0.797959,0.000172814,9.34418e-05,0.609551,0.4666296304920037,1.2210032317521544,0.0001728289331994759,-0.07454511983070156,9.344616582107612e-05,-0.2618867419765838
862,0.8477,718.111,238.54,0.00713118,413.87,0.0618723,0.0302197,0.383305,-0.0775389,-0.303927,0.798663,0.000172907,9.34861e-05,0.610092,0.46712543509336735,1.2225673685388556,0.0001729219492769829,-0.07460897401443856,9.349046996165455e-05,-0.2620852677400798
863,0.8487,718.23,238.579,0.00712259,413.938,0.0618086,0.0302012,0.383643,-0.0776078,-0.304195,0.799368,0.000172999,9.35305e-05,0.610633,0.4676214073050109,1.2241348309992706,0.0001730139651898721,-0.07467273125966667,9.353487411356554e-05,-0.2622830023906988
864,0.8497,718.349,238.619,0.007107,414.007,0.0617746,0.0301691,0.383981,-0.0776766,-0.304464,0.800071,0.000173092,9.35747e-05,0.611174,0.4681175471835961,1.2256989475079991,0.0001731069812846986,-0.07473639158581558,9.357907824880662e-05,-0.26248142157447896
865,0.8507,718.469,238.659,0.00709791,414.076,0.0617135,0.0301497,0.384318,-0.0777454,-0.304732,0.800775,0.000173185,9.36189e-05,0.611714,0.4686123861726834,1.2272663912425021,0.00017319999738796277,-0.07480004753228486,9.362328238604611e-05,-0.26267905007009573
866,0.8517,718.588,238.698,0.00708288,414.144,0.0616775,0.0301186,0.384656,-0.0778142,-0.305001,0.801478,0.000173277,9.36629e-05,0.612255,0.46910886105873884,1.2288327100120857,0.00017329201332660915,-0.07486369909937562,9.366728650639367e-05,-0.2628773627313781
867,0.8527,718.707,238.737,0.00707337,414.213,0.0616186,0.0300984,0.384993,-0.077883,-0.305269,0.80218,0.000173369,9.37069e-05,0.612794,0.46960403417689967,1.230397899891884,0.00017338402927369323,-0.07492734628738917,9.371129062873962e-05,-0.2630748851289826
868,0.8537,718.825,238.777,0.00705883,414.281,0.0615811,0.0300684,0.38533,-0.0779517,-0.305537,0.802883,0.000173461,9.37507e-05,0.613334,0.4700993741965227,1.2319664208860397,0.000173476045229215,-0.07499089659572111,9.375509473419363e-05,-0.2632723545976773
869,0.8547,718.944,238.816,0.00704898,414.35,0.0615241,0.0300475,0.385667,-0.0780204,-0.305804,0.803584,0.000173553,9.37945e-05,0.613873,0.47059488117386294,1.2335315778705103,0.00017356806119317447,-0.07505444253829696,9.379889884164605e-05,-0.2634690346210482
870,0.8557,719.062,238.855,0.00703487,414.418,0.0614852,0.0300184,0.386003,-0.078089,-0.306072,0.804286,0.000173645,9.38381e-05,0.614412,0.4710890840753754,1.2351000675136268,0.00017366007716579368,-0.07511789162721016,9.384250293220653e-05,-0.2636663984718324
871,0.8567,719.181,238.895,0.00702473,414.486,0.06143,0.029997,0.38634,-0.0781576,-0.30634,0.804987,0.000173736,9.38817e-05,0.614951,0.47158492464115165,1.2366674219545022,0.00017375109297290692,-0.0751813363636652,9.388610702476541e-05,-0.26386370943619175
872,0.8577,719.299,238.934,0.00701098,414.554,0.06139,0.0299686,0.386676,-0.0782262,-0.306607,0.805688,0.000173827,9.39252e-05,0.615489,0.4720794602531613,1.2382358754960303,0.00017384210878845785,-0.0752447767479606,9.39296111097665e-05,-0.26406023158889746
873,0.8587,719.417,238.973,0.00700061,414.622,0.0613363,0.0299467,0.387012,-0.0782947,-0.306874,0.806388,0.000173918,9.39686e-05,0.616027,0.47257416205705516,1.239803189104642,0.00017393312461222443,-0.07530812031121148,9.39730151872098e-05,-0.2642567012771926
874,0.8597,719.535,239.012,0.00698719,414.69,0.0612954,0.029919,0.387348,-0.0783632,-0.307141,0.807088,0.000174009,9.40118e-05,0.616565,0.4730690301086833,1.241371600216861,0.00017402414044420667,-0.075371459535577,9.401621924776116e-05,-0.26445311851508346
875,0.8607,719.653,239.051,0.00697661,414.758,0.0612429,0.0298968,0.387683,-0.0784317,-0.307408,0.807788,0.0001741,9.40551e-05,0.617102,0.4735625909005865,1.242941109601209,0.0001741151562846266,-0.07543479442135426,9.405952331964507e-05,-0.26464948331657245
876,0.8617,719.77,239.09,0.00696348,414.825,0.0612013,0.0298697,0.388019,-0.0785001,-0.307675,0.808487,0.000174191,9.40982e-05,0.61764,0.47405779112010715,1.2445094735161497,0.00017420617213326217,-0.07549803251864828,9.4102627374415e-05,-0.264845795695658
877,0.8627,719.888,239.129,0.00695274,414.893,0.06115,0.0298472,0.388354,-0.0785685,-0.307942,0.809186,0.000174281,9.41412e-05,0.618177,0.47455168320243724,1.2460789341007086,0.00017429618781572565,-0.07556126629060433,9.414563142184917e-05,-0.2650420556663353
878,0.8637,720.005,239.168,0.00693985,414.961,0.0611078,0.0298206,0.388689,-0.0786368,-0.308208,0.809884,0.000174371,9.41841e-05,0.618713,0.47504574076633155,1.2476472444733573,0.00017438620350640477,-0.07562440329996323,9.418853546150352e-05,-0.2652375284804912
879,0.8647,720.122,239.207,0.00692899,415.028,0.0610575,0.029798,0.389024,-0.0787051,-0.308474,0.810582,0.000174461,9.4227e-05,0.61925,0.4755399638672355,1.249216649908778,0.00017447621920529954,-0.07568753599721167,9.423143950315627e-05,-0.2654329493057933
880,0.8657,720.239,239.245,0.00691633,415.095,0.0610149,0.0297718,0.389359,-0.0787734,-0.308741,0.81128,0.000174551,9.42697e-05,0.619786,0.47603435256061366,1.2507871511715924,0.00017456623491218792,-0.07575066438264422,9.427414352769503e-05,-0.26562905252738356
881,0.8667,720.356,239.284,0.00690536,415.163,0.0609655,0.029749,0.389694,-0.0788416,-0.309007,0.811977,0.000174641,9.43124e-05,0.620321,0.4765289069019485,1.2523564966693312,0.00017465625062729195,-0.07581369603792942,9.43168475542322e-05,-0.2658243692211394
882,0.8677,720.473,239.323,0.00689289,415.23,0.0609225,0.0297233,0.390028,-0.0789098,-0.309273,0.812674,0.00017473,9.43549e-05,0.620857,0.47702214992385317,1.2539269363821721,0.00017474526617555775,-0.07587672339460239,9.435935156365538e-05,-0.266019633967564
883,0.8687,720.589,239.362,0.00688184,415.297,0.0608739,0.0297004,0.390362,-0.078978,-0.309538,0.813371,0.000174819,9.43974e-05,0.621392,0.4775155577164423,1.255498471073048,0.00017483428173181714,-0.07593974645295609,9.440185557485492e-05,-0.26621411299495334
884,0.8697,720.706,239.4,0.00686954,415.364,0.0608307,0.0296751,0.390697,-0.0790461,-0.309804,0.814067,0.000174908,9.44398e-05,0.621927,0.4780106083446276,1.257068844435452,0.00017492329729607015,-0.07600267281355577,9.444425957827463e-05,-0.26640927408332116
885,0.8707,720.822,239.439,0.00685844,415.431,0.0607828,0.0296521,0.39103,-0.0791142,-0.31007,0.814763,0.000174997,9.44821e-05,0.622462,0.47850286783386253,1.2586403111581617,0.00017501231286831676,-0.07606559488901621,9.448656357413654e-05,-0.2666043832657433
886,0.8717,720.938,239.477,0.0068463,415.498,0.0607395,0.0296271,0.391364,-0.0791823,-0.310335,0.815458,0.000175086,9.45243e-05,0.622996,0.47899677026883425,1.2602106117906784,0.00017510132844833493,-0.07612851267962917,9.452876756244066e-05,-0.2667987073550989
887,0.8727,721.054,239.516,0.00683515,415.565,0.0606922,0.0296041,0.391698,-0.0792503,-0.3106,0.816153,0.000175175,9.45664e-05,0.62353,0.4794908376947711,1.26178200416147,0.0001751903440363467,-0.07619133380482446,9.457087154296495e-05,-0.2669929799553933
888,0.8737,721.17,239.554,0.00682314,415.632,0.0606488,0.0295794,0.392031,-0.0793183,-0.310865,0.816848,0.000175263,9.46084e-05,0.624064,0.4799835901824594,1.2633544890295583,0.0001752783594568541,-0.07625415065832852,9.46128755157094e-05,-0.2671872010802695
889,0.8747,721.285,239.592,0.00681198,415.698,0.0606021,0.0295564,0.392364,-0.0793862,-0.31113,0.817543,0.000175352,9.46504e-05,0.624597,0.4804765067840493,1.2649280671544925,0.00017536737506063105,-0.07631687087212347,9.465487949045226e-05,-0.26738137074336654
890,0.8757,721.401,239.631,0.00680009,415.765,0.0605587,0.0295321,0.392697,-0.0794541,-0.311395,0.818237,0.00017544,9.46922e-05,0.62513,0.48096958755420016,1.266500472794744,0.00017545539049690362,-0.07637958682736046,9.469668344785909e-05,-0.26757548895832006
891,0.8767,721.516,239.669,0.0067889,415.831,0.0605126,0.0295091,0.39303,-0.079522,-0.31166,0.81893,0.000175528,9.4734e-05,0.625663,0.48146283254758915,1.2680717019904257,0.0001755434059407257,-0.07644229852432871,9.473848740704227e-05,-0.26776955573876204
892,0.8777,721.632,239.707,0.00677713,415.898,0.0604691,0.029485,0.393363,-0.0795899,-0.311924,0.819623,0.000175615,9.47757e-05,0.626196,0.48195624181891183,1.269644020425317,0.00017563042121682138,-0.07650500596331722,9.478019135844562e-05,-0.26796283906152585
893,0.8787,721.747,239.745,0.00676594,415.964,0.0604235,0.0294621,0.393695,-0.0796577,-0.312189,0.820316,0.000175703,9.48173e-05,0.626728,0.4824483329738074,1.2712174288545235,0.00017571843667618658,-0.07656761680138147,9.482179530229118e-05,-0.26815680320779
894,0.8797,721.862,239.784,0.00675426,416.03,0.0603801,0.0294382,0.394027,-0.0797254,-0.312453,0.821009,0.00017579,9.48588e-05,0.627261,0.4829405875300894,1.2727919280336728,0.0001758054519673813,-0.07663013105759264,9.486329923813486e-05,-0.26834998431071555
895,0.8807,721.977,239.822,0.00674308,416.096,0.060335,0.0294154,0.39436,-0.0797931,-0.312717,0.821701,0.000175878,9.49002e-05,0.627792,0.4834344889757636,1.2743652443525346,0.00017589346744228962,-0.0766926410817318,9.490470316642075e-05,-0.26854311442056134
896,0.8817,722.091,239.86,0.0067315,416.162,0.0602917,0.0293918,0.394692,-0.0798608,-0.312981,0.822393,0.000175965,9.49415e-05,0.628324,0.4839270709901935,1.2759396497830786,0.0001759804827488054,-0.07675514687408569,9.49460070869268e-05,-0.2687361935507877
897,0.8827,722.206,239.898,0.00672033,416.228,0.060247,0.029369,0.395023,-0.0799285,-0.313245,0.823084,0.000176052,9.49828e-05,0.628855,0.4844183321499278,1.2775128675652239,0.0001760674980628707,-0.07681764843494054,9.498731100898716e-05,-0.26892922171485156
898,0.8837,722.32,239.936,0.00670883,416.294,0.0602039,0.0293456,0.395355,-0.0799961,-0.313508,0.823775,0.000176139,9.50239e-05,0.629386,0.4849112408545191,1.279087172816534,0.0001761545133844855,-0.07688005345259297,9.50284149137115e-05,-0.2691214680480396
899,0.8847,722.435,239.974,0.00669767,416.36,0.0601596,0.029323,0.395686,-0.0800637,-0.313772,0.824466,0.000176225,9.5065e-05,0.629917,0.48540282782839794,1.2806625662887097,0.00017624052853748573,-0.07694245425180879,9.50695188202122e-05,-0.26931439451306105
900,0.8857,722.549,240.011,0.00668625,416.426,0.0601166,0.0292998,0.396018,-0.0801313,-0.314035,0.825156,0.000176312,9.5106e-05,0.630447,0.4858960634398177,1.282236766496064,0.00017632754387419958,-0.07700485083287323,9.511052271893305e-05,-0.26950653955912307
901,0.8867,722.663,240.049,0.00667512,416.492,0.0600727,0.0292773,0.396349,-0.0801988,-0.314299,0.825846,0.000176398,9.51469e-05,0.630977,0.4863879764439274,1.2838120532763861,0.00017641355904207678,-0.07706715090279093,9.515142660987408e-05,-0.26969936437868325
902,0.8877,722.777,240.087,0.00666378,416.557,0.0600299,0.0292543,0.39668,-0.0802663,-0.314562,0.826536,0.000176484,9.51877e-05,0.631507,0.48688005229819153,1.28538842737967,0.00017649957421728146,-0.07712944676759592,9.519223049281322e-05,-0.26989140819098345
903,0.8887,722.891,240.125,0.00665267,416.623,0.0599864,0.0292319,0.39701,-0.0803337,-0.314825,0.827225,0.00017657,9.52284e-05,0.632036,0.4873708036849751,1.2869636025916806,0.00017658558940003566,-0.07719164614674123,9.523293436797253e-05,-0.27008340150240207
904,0.8897,723.004,240.162,0.0066414,416.688,0.0599438,0.0292092,0.397341,-0.0804011,-0.315088,0.827914,0.000176656,9.52691e-05,0.632566,0.4878632049089018,1.2885398634733836,0.00017667160459011733,-0.07725384133378954,9.52736382449082e-05,-0.27027534432621925
905,0.8907,723.118,240.2,0.00663033,416.754,0.0599006,0.0291869,0.397671,-0.0804685,-0.31535,0.828602,0.000176741,9.53097e-05,0.633095,0.48835428078958554,1.2901149206569955,0.00017675661961069622,-0.07731603232902351,9.531424211384198e-05,-0.27046650714258336
906,0.8917,723.231,240.238,0.00661912,416.819,0.0598583,0.0291643,0.398001,-0.0805358,-0.315613,0.82929,0.000176827,9.53501e-05,0.633623,0.48884551875205196,1.2916910618528075,0.00017684263481543283,-0.07737812687054302,9.53546459652177e-05,-0.27065834922286547
907,0.8927,723.344,240.275,0.00660808,416.884,0.0598155,0.0291422,0.398331,-0.0806031,-0.315875,0.829978,0.000176912,9.53905e-05,0.634152,0.4893369188497967,1.293268287806876,0.00017692764985066667,-0.07744021723324057,9.539504981836977e-05,-0.270849411705091
908,0.8937,723.457,240.313,0.00659693,416.949,0.0597734,0.0291198,0.398661,-0.0806704,-0.316138,0.830666,0.000176997,9.54308e-05,0.63468,0.4898284811363336,1.2948465992657723,0.00017701266489322798,-0.07750230341739717,9.5435353663742e-05,-0.27104115309471455
909,0.8947,723.57,240.35,0.00658593,417.014,0.0597309,0.0290978,0.398991,-0.0807376,-0.3164,0.831353,0.000177082,9.54711e-05,0.635208,0.4903202056651934,1.2964237005517307,0.00017709767994289471,-0.07756429317972824,9.547565751044651e-05,-0.2712321152954631
910,0.8957,723.683,240.388,0.00657484,417.079,0.059689,0.0290757,0.39932,-0.0808048,-0.316662,0.832039,0.000177167,9.55112e-05,0.635735,0.49081060167857804,1.297999587677793,0.00017718269499988892,-0.0776262787764872,9.551576133981499e-05,-0.2714230274706686
911,0.8967,723.796,240.425,0.00656387,417.144,0.0596469,0.0290538,0.39965,-0.080872,-0.316924,0.832726,0.000177252,9.55513e-05,0.636263,0.4913026503606992,1.2995788558110175,0.00017726771006398856,-0.07768826020795394,9.555586517095982e-05,-0.27161388963343625
912,0.8977,723.908,240.462,0.00655284,417.209,0.0596053,0.0290318,0.399979,-0.0809391,-0.317185,0.833412,0.000177336,9.55913e-05,0.63679,0.49179336965156484,1.3011569081161594,0.0001773517249579193,-0.0777501452494277,9.559586899388073e-05,-0.271803973601205
913,0.8987,724.021,240.5,0.00654192,417.274,0.0595635,0.0290101,0.400308,-0.0810062,-0.317447,0.834097,0.000177421,9.56312e-05,0.637317,0.49228425041563817,1.3027337406016875,0.00017743674003645182,-0.07781202613855431,9.56357728090218e-05,-0.27199473596916013
914,0.8997,724.133,240.537,0.00653094,417.338,0.0595222,0.0289884,0.400637,-0.0810732,-0.317708,0.834782,0.000177505,9.5671e-05,0.637843,0.49277529270605247,1.3043116535874977,0.0001775207549445934,-0.07787381066299837,9.5675576616161e-05,-0.272184720549006
915,0.9007,724.245,240.574,0.00652006,417.403,0.0594807,0.0289668,0.400965,-0.0811403,-0.31797,0.835467,0.000177589,9.57108e-05,0.638369,0.4932650033102086,1.3058906478139858,0.00017760476986006246,-0.07793568325445421,9.57153804248545e-05,-0.2723753831743275
916,0.9017,724.357,240.611,0.00650913,417.467,0.0594397,0.0289452,0.401294,-0.0812072,-0.318231,0.836152,0.000177673,9.57505e-05,0.638895,0.4937563683214099,1.3074707240220556,0.00017768878478219285,-0.0779973672938904,9.575508422554613e-05,-0.2725652684182168
917,0.9027,724.469,240.648,0.00649829,417.532,0.0593986,0.0289239,0.401622,-0.0812742,-0.318492,0.836836,0.000177757,9.579e-05,0.639421,0.4942464007711478,1.3090495739023895,0.00017777279971165072,-0.07805913940089304,9.579458800845764e-05,-0.27275510410852444
918,0.9037,724.581,240.685,0.00648742,417.596,0.0593578,0.0289025,0.40195,-0.0813411,-0.318753,0.83752,0.00017784,9.58295e-05,0.639946,0.4947365939778918,1.3106295040854632,0.00017785581447027354,-0.07812081518138925,9.58340917931455e-05,-0.27294489025818225
919,0.9047,724.692,240.722,0.00647662,417.661,0.059317,0.0288813,0.402278,-0.081408,-0.319014,0.838203,0.000177924,9.5869e-05,0.640471,0.49522694799437916,1.3122082031010969,0.00017793982941372022,-0.07818248683591378,9.587359557938768e-05,-0.2731346268801186
920,0.9057,724.804,240.759,0.0064658,417.725,0.0592765,0.0288601,0.402606,-0.0814748,-0.319274,0.838886,0.000178007,9.59083e-05,0.640996,0.4957174628733638,1.313787980736465,0.0001780228441861098,-0.07824406218915347,9.591289934807179e-05,-0.2733235873112092
921,0.9067,724.915,240.796,0.00645505,417.789,0.059236,0.028839,0.402933,-0.0815416,-0.319535,0.839569,0.00017809,9.59476e-05,0.641521,0.49620664246022694,1.3153688377285162,0.00017810585896538278,-0.07830563342929686,9.595220311808816e-05,-0.2735132251061122
922,0.9077,725.026,240.833,0.00644428,417.853,0.0591959,0.028818,0.403261,-0.0816084,-0.319795,0.840251,0.000178173,9.59868e-05,0.642045,0.4966974787317018,1.3169484578650867,0.00017818887375176118,-0.07836720055661883,9.59914068803247e-05,-0.27370208711445965
923,0.9087,725.137,240.87,0.00643356,417.917,0.0591557,0.0287971,0.403588,-0.0816751,-0.320055,0.840933,0.000178256,9.60259e-05,0.642569,0.4971869788361525,1.318529155670034,0.00017827188854480092,-0.0784286714142658,9.603051063433732e-05,-0.2738909000250678
924,0.9097,725.248,240.907,0.00642285,417.981,0.0591159,0.0287763,0.403915,-0.0817419,-0.320315,0.841615,0.000178338,9.60649e-05,0.643093,0.49767663903331094,1.320110931878578,0.00017835390316656152,-0.0784902303229249,9.606951438034805e-05,-0.2740796638507006
925,0.9107,725.359,240.944,0.00641218,418.045,0.0590761,0.0287556,0.404242,-0.0818085,-0.320575,0.842296,0.000178421,9.61039e-05,0.643616,0.49816645937553594,1.3216914655338146,0.00017843691797336803,-0.07855160082992485,9.610851812769106e-05,-0.27426837860411846
926,0.9117,725.47,240.98,0.00640151,418.109,0.0590365,0.028735,0.404569,-0.0818752,-0.320835,0.842977,0.000178503,9.61427e-05,0.644139,0.49865643991520403,1.3232730758990483,0.0001785189326084513,-0.07861305938848373,9.614732185747599e-05,-0.27445704429807827
927,0.9127,725.58,241.017,0.00639088,418.172,0.058997,0.0287145,0.404895,-0.0819418,-0.321095,0.843657,0.000178585,9.61815e-05,0.644662,0.4991450815588767,1.3248534388531672,0.00017860094725041797,-0.07867442171534034,9.618612558881523e-05,-0.27464566094533416
928,0.9137,725.69,241.054,0.00638026,418.236,0.0589578,0.028694,0.405222,-0.0820083,-0.321354,0.844338,0.000178668,9.62203e-05,0.645185,0.4996353821603259,1.326437203255598,0.00017868396207765258,-0.0787356878291754,9.622492932148674e-05,-0.27483350339250234
929,0.9147,725.801,241.09,0.00636968,418.299,0.0589186,0.0286737,0.405548,-0.0820749,-0.321614,0.845017,0.000178749,9.62589e-05,0.645707,0.5001243429911952,1.3280173905294772,0.00017876497655433532,-0.07879704198924975,9.626353303660018e-05,-0.2750220221731168
930,0.9157,725.911,241.127,0.0063591,418.363,0.0588797,0.0286535,0.405874,-0.0821413,-0.321873,0.845697,0.000178831,9.62975e-05,0.646229,0.5006134632492805,1.3296009807146794,0.00017884699121650804,-0.07885820783493314,9.630213675304589e-05,-0.2752097671553493
931,0.9167,726.021,241.163,0.00634856,418.426,0.0588409,0.0286333,0.4062,-0.0822078,-0.322132,0.846376,0.000178913,9.6336e-05,0.646751,0.5011027429865638,1.3311833169229335,0.0001789290058853421,-0.07891946172739761,9.634064046148971e-05,-0.2753974635179278
932,0.9177,726.131,241.2,0.00633804,418.49,0.0588023,0.0286133,0.406526,-0.0822742,-0.322391,0.847055,0.000178994,9.63744e-05,0.647273,0.5015921822550435,1.332766727902317,0.00017901002038178682,-0.07898061944468027,9.637904416170961e-05,-0.2755851112734433
933,0.9187,726.241,241.236,0.00632754,418.553,0.0587638,0.0285933,0.406851,-0.0823406,-0.32265,0.847733,0.000179076,9.64127e-05,0.647794,0.5020802790257053,1.3343488800327994,0.00017909203506394356,-0.07904177310122529,9.641734785370559e-05,-0.2757727104344835
934,0.9197,726.35,241.272,0.00631706,418.616,0.0587255,0.0285734,0.407177,-0.082407,-0.322909,0.848411,0.000179157,9.6451e-05,0.648315,0.5025700370228838,1.3359321052261537,0.00017917304957371094,-0.07910292269730224,9.645565154725588e-05,-0.2759602610136326
935,0.9207,726.46,241.309,0.00630661,418.679,0.0586874,0.0285537,0.407502,-0.0824733,-0.323167,0.849089,0.000179238,9.64892e-05,0.648836,0.5030584516479937,1.3375164042101626,0.00017925406409013966,-0.07916397614958315,9.649385523258225e-05,-0.2761470391708727
936,0.9217,726.569,241.345,0.00629618,418.742,0.0586495,0.028534,0.407827,-0.0825396,-0.323426,0.849766,0.000179319,9.65273e-05,0.649356,0.503547025033654,1.3390994386124957,0.00017933507861300768,-0.07922502555415423,9.653195890968469e-05,-0.2763344928114331
937,0.9227,726.678,241.381,0.00628577,418.805,0.0586117,0.0285144,0.408152,-0.0826058,-0.323684,0.850444,0.000179399,9.65654e-05,0.649876,0.5040357572314702,1.3406858857766917,0.00017941509296304226,-0.07928597883988653,9.657006258834144e-05,-0.27652117442932356
938,0.9237,726.787,241.418,0.00627538,418.868,0.058574,0.028495,0.408476,-0.0826721,-0.323942,0.85112,0.00017948,9.66033e-05,0.650396,0.5045231437691686,1.3422687243746463,0.00017949610749878886,-0.07934702015594752,9.660796624899604e-05,-0.27670780788956917
939,0.9247,726.896,241.454,0.00626502,418.931,0.0585366,0.0284756,0.408801,-0.0827382,-0.324201,0.851797,0.00017956,9.66412e-05,0.650916,0.5050121932571308,1.3438549771870396,0.00017957612186170202,-0.07940787330669641,9.664586991120494e-05,-0.2768951163098382
940,0.9257,727.005,241.49,0.00625467,418.993,0.0584993,0.0284563,0.409125,-0.0828044,-0.324459,0.852472,0.000179641,9.6679e-05,0.651435,0.5054998962113584,1.345437613376264,0.0001796571364107713,-0.07946881448830811,9.668367356518992e-05,-0.27708165330552315
941,0.9267,727.114,241.526,0.00624435,419.056,0.0584622,0.0284371,0.409449,-0.0828705,-0.324716,0.853148,0.000179721,9.67168e-05,0.651954,0.5059877572069442,1.3470236652280332,0.000179737150786341,-0.07952965958871772,9.672147722050717e-05,-0.27726741944865174
942,0.9277,727.223,241.562,0.00623405,419.119,0.0584253,0.028418,0.409773,-0.0829366,-0.324974,0.853823,0.000179801,9.67545e-05,0.652473,0.5064757762951024,1.3486084410037145,0.00017981716516857205,-0.07959050066739914,9.675918086760049e-05,-0.27745386040251674
943,0.9287,727.331,241.598,0.00622378,419.181,0.0583885,0.0283991,0.410097,-0.0830026,-0.325231,0.854498,0.000179881,9.67921e-05,0.652992,0.5069639535270629,1.350194286864157,0.00017989717955724238,-0.07965124568974724,9.679678450646989e-05,-0.27763953090071236
944,0.9297,727.439,241.634,0.00621352,419.244,0.0583519,0.0283802,0.410421,-0.0830686,-0.325489,0.855173,0.00017996,9.68296e-05,0.65351,0.5074522889540729,1.3517812035319126,0.0001799761937721911,-0.07971198670305624,9.683428813711537e-05,-0.2778258758622063
945,0.9307,727.548,241.67,0.00620329,419.306,0.0583155,0.0283614,0.410745,-0.0831346,-0.325746,0.855847,0.00018004,9.68671e-05,0.654028,0.5079407826273958,1.3533668383620046,0.00018005620817351797,-0.0797727237075907,9.687179176909311e-05,-0.27801145076471323
946,0.9317,727.656,241.706,0.00619308,419.368,0.0582793,0.0283427,0.411068,-0.0832006,-0.326003,0.856521,0.00018012,9.69044e-05,0.654546,0.5084279261696312,1.3549535422702106,0.00018013622258128414,-0.07983345670361508,9.690909538306869e-05,-0.2781969779805984
947,0.9327,727.764,241.742,0.00618289,419.43,0.0582432,0.0283241,0.411391,-0.0832665,-0.32626,0.857194,0.000180199,9.69418e-05,0.655063,0.5089152270846453,1.356538959437195,0.00018021523681510665,-0.07989409368080791,9.694649900815477e-05,-0.2783824575221153
948,0.9337,727.872,241.777,0.00617272,419.493,0.0582073,0.0283056,0.411714,-0.0833324,-0.326517,0.857868,0.000180278,9.6979e-05,0.655581,0.5094026854232774,1.358127802075677,0.0001802942510551464,-0.07995472666215575,9.69837026152387e-05,-0.278567889401515
949,0.9347,727.979,241.813,0.00616258,419.555,0.0581716,0.0282873,0.412037,-0.0833982,-0.326774,0.85854,0.000180357,9.70162e-05,0.656097,0.5098903012363833,1.3597129965243528,0.00018037326530162545,-0.08001526364945266,9.702090622365489e-05,-0.27875327363104496
950,0.9357,728.087,241.849,0.00615246,419.617,0.0581361,0.028269,0.41236,-0.083464,-0.327031,0.859213,0.000180436,9.70533e-05,0.656614,0.5103780745748363,1.3613016178821398,0.0001804522795540997,-0.0800757966535468,9.705800982384716e-05,-0.27893861022294963
951,0.9367,728.194,241.884,0.00614235,419.679,0.0581007,0.0282508,0.412682,-0.0835298,-0.327287,0.859885,0.000180515,9.70903e-05,0.657131,0.5108644946242744,1.3628889458518199,0.00018053129381301325,-0.0801363256747003,9.70950134158155e-05,-0.27912317831300903
952,0.9377,728.302,241.92,0.00613227,419.74,0.0580655,0.0282327,0.413005,-0.0835955,-0.327543,0.860557,0.000180593,9.71273e-05,0.657647,0.5113525826780152,1.364477340864382,0.00018060930789753904,-0.08019675873285581,9.713201700889407e-05,-0.2793076991596848
953,0.9387,728.409,241.956,0.00612221,419.802,0.0580305,0.0282148,0.413327,-0.0836612,-0.3278,0.861228,0.000180672,9.71642e-05,0.658163,0.5118393165695885,1.3660644375714992,0.00018068832216866504,-0.0802571878206898,9.716892059374871e-05,-0.2794928932825367
954,0.9397,728.516,241.991,0.00611218,419.864,0.0579957,0.0281969,0.413649,-0.0837269,-0.328056,0.861899,0.00018075,9.7201e-05,0.658678,0.512326207214711,1.367652599577875,0.00018076633626540328,-0.08031761293846318,9.720572417015738e-05,-0.2796773194942941
955,0.9407,728.623,242.027,0.00610216,419.926,0.0579611,0.0281792,0.413971,-0.0837925,-0.328312,0.86257,0.000180828,9.72378e-05,0.659194,0.5128132546638651,1.3692418275985645,0.00018084435036835877,-0.08037794212423544,9.724252774812037e-05,-0.2798616984989839
956,0.9417,728.73,242.062,0.00609216,419.987,0.0579266,0.0281615,0.414292,-0.0838582,-0.328567,0.86324,0.000180906,9.72745e-05,0.659709,0.5132989456678478,1.3708297515181673,0.00018092236447730947,-0.08043835930871168,9.727923131763738e-05,-0.2800453103543602
957,0.9427,728.837,242.098,0.00608219,420.049,0.0578924,0.0281439,0.414614,-0.0839237,-0.328823,0.86391,0.000180984,9.73111e-05,0.660224,0.5137863063892181,1.372418739703285,0.00018100037859225537,-0.08049858862364534,9.731583487870843e-05,-0.2802295951654472
958,0.9437,728.943,242.133,0.00607223,420.11,0.0578583,0.0281265,0.414935,-0.0839893,-0.329079,0.86458,0.000181062,9.73476e-05,0.660738,0.5142723097929423,1.374008792867215,0.00018107839271319648,-0.08055890593780213,9.735233843133351e-05,-0.2804138328056607
959,0.9447,729.05,242.168,0.0060623,420.172,0.0578244,0.0281092,0.415256,-0.0840548,-0.329334,0.865249,0.00018114,9.73841e-05,0.661253,0.5147584692288008,1.375597536125008,0.00018115640684035483,-0.08061912735719012,9.738884198529085e-05,-0.2805973038847386
960,0.9457,729.156,242.204,0.00605239,420.233,0.0577907,0.0280919,0.415577,-0.0841202,-0.329589,0.865918,0.000181217,9.74205e-05,0.661767,0.5152447847468877,1.377187342607649,0.0001812334207924593,-0.08067925290013434,9.742524553102427e-05,-0.2807807281846557
961,0.9467,729.263,242.239,0.0060425,420.294,0.0577571,0.0280748,0.415898,-0.0841857,-0.329844,0.866587,0.000181295,9.74569e-05,0.66228,0.5157312563973142,1.3787782130266746,0.00018131143493160806,-0.08073946643705443,9.746164907786792e-05,-0.28096410571733954
962,0.9477,729.369,242.274,0.00603263,420.355,0.0577238,0.0280578,0.416219,-0.0842511,-0.330099,0.867255,0.000181372,9.74932e-05,0.662794,0.5162178842302065,1.3803677677251378,0.00018138844889570294,-0.08079958411008015,9.749795261648764e-05,-0.2811474364947141
963,0.9487,729.475,242.309,0.00602278,420.416,0.0576906,0.0280409,0.416539,-0.0843164,-0.330354,0.867923,0.000181449,9.75294e-05,0.663307,0.516703151591797,1.3819583846008667,0.00018146546286557097,-0.08085960593750374,9.753415614666139e-05,-0.28133072052870045
964,0.9497,729.581,242.345,0.00601296,420.477,0.0576577,0.0280241,0.41686,-0.0843818,-0.330609,0.868591,0.000181526,9.75655e-05,0.66382,0.5171900914531244,1.383550064363634,0.00018154247684121216,-0.08091971575366308,9.757025966816713e-05,-0.2815139578312166
965,0.9507,729.686,242.38,0.00600315,420.538,0.0576249,0.0280074,0.41718,-0.0844471,-0.330864,0.869258,0.000181603,9.76016e-05,0.664333,0.5176756699708087,1.3851404225820692,0.0001816194908230706,-0.0809797297367465,9.760636319122717e-05,-0.2816971484141777
966,0.9517,729.792,242.415,0.00599336,420.599,0.0575923,0.0279908,0.4175,-0.0845124,-0.331118,0.869925,0.00018168,9.76376e-05,0.664845,0.5181614038984828,1.386731841923281,0.0001816965048107022,-0.08103973980104473,9.764236670561921e-05,-0.28187957416942877
967,0.9527,729.898,242.45,0.0059836,420.66,0.0575599,0.0279743,0.41782,-0.0845776,-0.331373,0.870592,0.000181757,9.76736e-05,0.665358,0.5186472932858861,1.3883243230952753,0.00018177351880432902,-0.08109965405678377,9.767837022134351e-05,-0.2820626715321096
968,0.9537,730.003,242.485,0.00597385,420.721,0.0575277,0.027958,0.41814,-0.0846428,-0.331627,0.871258,0.000181833,9.77095e-05,0.66587,0.5191333381827736,1.3899154768898563,0.00018184953262201375,-0.08115956440624061,9.771427372862185e-05,-0.28224500445627887
969,0.9547,730.108,242.52,0.00596413,420.782,0.0574957,0.0279417,0.418459,-0.084708,-0.331881,0.871924,0.00018191,9.77453e-05,0.666381,0.5196180190201374,1.3915076907458261,0.00018192654662740892,-0.08121947084967007,9.775007722745421e-05,-0.2824272910737665
970,0.9557,730.213,242.555,0.00595442,420.842,0.0574638,0.0279256,0.418779,-0.0847731,-0.332135,0.87259,0.000181986,9.77811e-05,0.666893,0.5201043745989662,1.3931009653694204,0.00018200256045663998,-0.08127928151525943,9.778588072761885e-05,-0.28260953139633305
971,0.9567,730.318,242.59,0.00594474,420.903,0.0574322,0.0279095,0.419098,-0.0848382,-0.332389,0.873255,0.000182062,9.78168e-05,0.667404,0.5205893652463587,1.3946929067732414,0.00018207857429186625,-0.0813390882873013,9.782158421911546e-05,-0.28279172543573583
972,0.9577,730.423,242.624,0.00593507,420.963,0.0574008,0.0278936,0.419417,-0.0849033,-0.332643,0.87392,0.000182138,9.78524e-05,0.667915,0.5210745106304469,1.396285907170172,0.00018215458813264362,-0.08139889116604893,9.785718770216612e-05,-0.28297387320372935
973,0.9587,730.528,242.659,0.00592543,421.024,0.0573695,0.0278778,0.419736,-0.0849683,-0.332896,0.874584,0.000182214,9.7888e-05,0.668425,0.5215598108005999,1.397877569385909,0.00018223060197919416,-0.08145859829762037,9.789279118654903e-05,-0.28315525786768125
974,0.9597,730.633,242.694,0.00591581,421.084,0.0573385,0.0278621,0.420055,-0.0850333,-0.33315,0.875249,0.00018229,9.79235e-05,0.668936,0.5220452658062018,1.3994726882878021,0.0001823066158317399,-0.08151830154835438,9.792829466248598e-05,-0.2833373133101629
975,0.9607,730.737,242.729,0.0059062,421.144,0.0573076,0.0278465,0.420373,-0.0850983,-0.333403,0.875913,0.000182365,9.7959e-05,0.669446,0.5225293531665391,1.4010664672288762,0.0001823816295074554,-0.08157800091850309,9.796379813953315e-05,-0.2835186060353987
976,0.9617,730.842,242.763,0.00589662,421.204,0.057277,0.0278311,0.420692,-0.0851632,-0.333656,0.876576,0.000182441,9.79943e-05,0.669956,0.523015117505492,1.4026589021304865,0.00018245764337132542,-0.08163760457208402,9.799910159835612e-05,-0.2836998528993766
977,0.9627,730.946,242.798,0.00588706,421.265,0.0572465,0.0278157,0.42101,-0.0852281,-0.333909,0.877239,0.000182516,9.80297e-05,0.670465,0.5234995133277125,1.4042523931665065,0.00018253265705858723,-0.08169720435751338,9.803450506806755e-05,-0.2838810539136982
978,0.9637,731.05,242.833,0.00587751,421.325,0.0572163,0.0278005,0.421328,-0.085293,-0.334162,0.877902,0.000182591,9.80649e-05,0.670975,0.523984063212299,1.4058469410373857,0.00018260767075117812,-0.08175680027504206,9.806970851955477e-05,-0.28406220908996194
979,0.9647,731.155,242.867,0.00586799,421.385,0.0571862,0.0277853,0.421646,-0.0853578,-0.334415,0.878565,0.000182667,9.81001e-05,0.671484,0.5244687672082513,1.4074425464440377,0.00018268368463236762,-0.08181630050655597,9.810491197215221e-05,-0.28424331843976336
980,0.9657,731.259,242.902,0.00585849,421.445,0.0571564,0.0277703,0.421964,-0.0854226,-0.334668,0.879227,0.000182742,9.81353e-05,0.671993,0.5249536253645846,1.4090368010498353,0.00018275869833650482,-0.08187579688257973,9.814011542608192e-05,-0.2844243819746952
981,0.9667,731.362,242.936,0.005849,421.504,0.0571267,0.0277554,0.422281,-0.0854874,-0.33492,0.879889,0.000182817,9.81703e-05,0.672501,0.5254371122924544,1.4106321114015956,0.00018283371204619314,-0.08193528940336325,9.817511886156538e-05,-0.28460468431138897
982,0.9677,731.466,242.971,0.00583954,421.564,0.0570973,0.0277406,0.422599,-0.0855522,-0.335173,0.88055,0.000182891,9.82054e-05,0.673009,0.525922278431491,1.4122260659711814,0.00018290772557860713,-0.08199477806915634,9.821022230815935e-05,-0.28478565643231957
983,0.9687,731.57,243.005,0.0058301,421.624,0.057068,0.027726,0.422916,-0.0856169,-0.335425,0.881211,0.000182966,9.82403e-05,0.673517,0.5264060724710578,1.4138210744930304,0.00018298273929939768,-0.0820541710856304,9.824512573630706e-05,-0.2849658677393202
984,0.9697,731.673,243.039,0.00582067,421.684,0.0570389,0.0277114,0.423233,-0.0856815,-0.335677,0.881872,0.000183041,9.82752e-05,0.674025,0.5268900198976456,1.4154171376640354,0.0001830577530259614,-0.0821134684708521,9.8280029165565e-05,-0.2851460336387932
985,0.9707,731.777,243.074,0.00581127,421.743,0.0570101,0.027697,0.42355,-0.0857462,-0.335929,0.882533,0.000183115,9.83101e-05,0.674533,0.5273741207598859,1.4170142561815502,0.00018313176657502872,-0.08217285380830575,9.83149325961552e-05,-0.28532615414217954
986,0.9717,731.88,243.108,0.00580188,421.803,0.0569815,0.0276827,0.423867,-0.0858108,-0.336181,0.883193,0.000183189,9.83448e-05,0.67504,0.5278583751064254,1.4186100121321679,0.00018320578012942512,-0.08223214352687114,9.834963600829916e-05,-0.28550622926091784
987,0.9727,731.983,243.142,0.00579252,421.862,0.056953,0.0276685,0.424183,-0.0858754,-0.336433,0.883853,0.000183264,9.83796e-05,0.675547,0.5283412546439077,1.4202068216293449,0.00018328079387264218,-0.08229142941544454,9.838443943155362e-05,-0.2856862590064434
988,0.9737,732.086,243.177,0.00578317,421.922,0.0569248,0.0276544,0.4245,-0.0859399,-0.336685,0.884512,0.000183338,9.84142e-05,0.676054,0.528825815620487,1.4218022635651772,0.00018335480743836285,-0.08235061970933977,9.841904283613978e-05,-0.28586624339018896
989,0.9747,732.189,243.211,0.00577384,421.981,0.0568968,0.0276404,0.424816,-0.0860044,-0.336936,0.885172,0.000183412,9.84488e-05,0.67656,0.5293090009174792,1.4234011806437254,0.00018342882100919056,-0.08240980618558413,9.845364624205821e-05,-0.2860454684694096
990,0.9757,732.292,243.245,0.00576454,422.04,0.056869,0.0276266,0.425132,-0.0860689,-0.337188,0.88583,0.000183485,9.84834e-05,0.677067,0.5297923389251524,1.4249963033584097,0.00018350183440229983,-0.08246898884442388,9.848824964930891e-05,-0.28622536234377516
991,0.9767,732.395,243.279,0.00575525,422.099,0.0568413,0.0276129,0.425448,-0.0861333,-0.337439,0.886489,0.000183559,9.85179e-05,0.677573,0.5302758296917705,1.4265949026029205,0.00018357584798400772,-0.08252807593891742,9.852275304766955e-05,-0.2864044972954499
992,0.9777,732.497,243.313,0.00574598,422.159,0.0568139,0.0275993,0.425764,-0.0861977,-0.33769,0.887147,0.000183633,9.85523e-05,0.678078,0.5307594732656131,1.428192127478189,0.00018364986157148877,-0.0825871592283246,9.855715643736218e-05,-0.2865835872898943
993,0.9787,732.6,243.347,0.00573673,422.218,0.0567868,0.0275858,0.42608,-0.0862621,-0.337941,0.887805,0.000183706,9.85867e-05,0.678584,0.5312432696949752,1.4297904036732714,0.00018372287498058526,-0.08264623871289045,9.859155982838708e-05,-0.28676263233839094
994,0.9797,732.702,243.381,0.0057275,422.277,0.0567598,0.0275724,0.426395,-0.0863265,-0.338192,0.888462,0.00018378,9.8621e-05,0.679089,0.5317256873017131,1.431387300491648,0.00018379688857872445,-0.08270531439286,9.862586321074396e-05,-0.28694163245221993
995,0.9807,732.805,243.415,0.00571829,422.336,0.056733,0.0275592,0.426711,-0.0863908,-0.338443,0.88912,0.000183853,9.86553e-05,0.679594,0.5322097891029567,1.4329876798024226,0.00018386990199870112,-0.08276429454491241,9.866016659421106e-05,-0.28712058764265846
996,0.9817,732.907,243.449,0.00570909,422.395,0.0567065,0.0275461,0.427026,-0.0864551,-0.338693,0.889776,0.000183926,9.86895e-05,0.680099,0.5326925112112648,1.4345842433359568,0.00018394291542378483,-0.0828232709046629,9.869436996901015e-05,-0.28729878522012253
997,0.9827,733.009,243.483,0.00569992,422.453,0.0566801,0.0275331,0.427341,-0.0865193,-0.338944,0.890433,0.000183999,9.87236e-05,0.680603,0.5331753854009884,1.4361842907418465,0.0001840159288541976,-0.08288215176057512,9.872847333491919e-05,-0.2874776507764659
998,0.9837,733.111,243.517,0.00569077,422.512,0.056654,0.0275202,0.427656,-0.0865835,-0.339194,0.891089,0.000184072,9.87577e-05,0.681107,0.5336584117200409,1.4377829519401164,0.00018408894229016148,-0.08294102883645771,9.876257670216049e-05,-0.28765575909930374
999,0.9847,733.213,243.551,0.00568163,422.571,0.0566281,0.0275075,0.427971,-0.0866477,-0.339445,0.891745,0.000184145,9.87918e-05,0.681611,0.5341415902163507,1.4393826622041876,0.0001841619557312324,-0.08299990213255337,9.879668007051201e-05,-0.2878345350664474
