,Time,S11,S22,S33,S12,S13,S23,LE11,LE22,LE33,LE12,LE13,LE23,SDV_EPBAR,E11,E12,E13,E22,E23,E33
0,1e-05,1.56305,0.521016,-2.22045e-16,0.902427,-2.51557e-17,-2.43235e-17,6.74997e-06,2.49999e-07,-2.99999e-06,1.12583e-05,-2.75078e-22,-1.58816e-22,0.0,6.749992781163172e-06,1.1258363374899716e-05,0.0,2.499990312543332e-07,0.0,-2.999985500018454e-06
1,2e-05,3.12608,1.04203,3.33067e-16,1.80484,-4.09921e-17,-1.38669e-17,1.34999e-05,5.00011e-07,-5.99996e-06,2.25164e-05,-6.35266e-22,1.10034e-21,0.0,1.3499991124099608e-05,2.2516653495952e-05,0.0,5.000111249486849e-07,0.0,-5.9999420002343484e-06
2,3.5e-05,5.4706,1.82353,-9.99201e-16,3.15845,-6.58417e-17,-1.06613e-16,2.36246e-05,8.75006e-07,-1.04998e-05,3.94034e-05,-1.94732e-21,8.31865e-22,0.0,2.3624879063044446e-05,3.9404176324087103e-05,0.0,8.750063829054966e-07,0.0,-1.0499744877323636e-05
3,5.75e-05,8.98732,2.99577,-4.10783e-15,5.18883,-7.43258e-17,-9.19113e-17,3.88114e-05,1.43749e-06,-1.72495e-05,6.47335e-05,-6.19998e-22,-2.31412e-21,0.0,3.8812153172029795e-05,6.473559525832506e-05,0.0,1.4374910330960944e-06,0.0,-1.7249351228265652e-05
4,9.125e-05,14.2622,4.75408,-2.89768e-14,8.23431,-2.08889e-16,-1.30402e-16,6.1591e-05,2.28117e-06,-2.73738e-05,0.000102728,-4.5146e-21,-6.50321e-22,0.0,6.159289676466173e-05,0.00010273327670162757,0.0,2.2811726019256184e-06,0.0,-2.737342534098186e-05
5,0.00014188,22.1743,7.39143,-1.57763e-13,12.8023,-5.36799e-16,-2.41322e-16,9.57588e-05,3.54668e-06,-4.25596e-05,0.000159716,-6.09447e-21,3.93795e-22,0.0,9.576338502026438e-05,0.00015972875527947572,0.0,3.5466862895461304e-06,0.0,-4.255869435310089e-05
6,0.00021781,34.0416,11.3472,-8.00804e-13,19.6539,-5.36749e-16,-2.41293e-16,0.000147007,5.4448e-06,-6.53367e-05,0.000245194,-1.55781e-20,6.65609e-21,0.0,0.00014701780605852477,0.00024522406250571116,0.0,5.44481482300796e-06,0.0,-6.533456560431361e-05
7,0.00033172,51.8409,17.2803,-4.05331e-12,29.9304,-7.0394e-16,-4.94619e-16,0.000223873,8.29167e-06,-9.94992e-05,0.000373398,-1.2188e-20,7.88597e-22,0.0,0.00022389806143019442,0.00037346772171087395,0.0,8.291704375995579e-06,0.0,-9.949425011879232e-05
8,0.00050258,78.5361,26.1787,-2.05113e-11,45.3428,-9.3892e-16,-6.30284e-16,0.000339155,1.25613e-05,-0.000150736,0.000565677,-4.95336e-21,-1.85113e-20,0.0,0.0003392125195595952,0.0005658370254069123,0.0,1.256137889349418e-05,0.0,-0.00015072463989995732
9,0.00075887,118.57,39.5234,-1.03755e-10,68.4566,-2.11419e-15,-1.30882e-15,0.000512041,1.89646e-05,-0.000227574,0.000854034,-1.84908e-20,4.97698e-21,0.0,0.0005121721153706904,0.00085439879087712,0.0,1.896477982921141e-05,0.0,-0.0002275481070015406
10,0.0011433,178.602,59.5341,-5.24723e-10,103.116,-2.78185e-15,-2.32149e-15,0.000771287,2.85663e-05,-0.000342794,0.00128643,-5.05387e-20,3.34393e-20,0.0,0.0007715845183038361,0.0012872578060059148,0.0,2.8566708020649756e-05,0.0,-0.00034273525284966855
11,0.00172,268.607,89.5357,-2.65262e-09,155.08,-4.26277e-15,-1.92212e-15,0.00115997,4.29618e-05,-0.000515542,0.00193471,1.1246e-22,6.4929e-23,0.0,0.0011606430254049727,0.001936582758945704,0.0,4.29627228712981e-05,0.0,-0.0005154091310572984
12,0.0019362,277.322,92.6863,0.141555,159.968,0.0434825,0.00534664,0.00129765,2.52282e-05,-0.000612445,0.00220496,5.99486e-07,7.45897e-08,0.000161053,0.0012984923120640257,0.002207392711983003,5.994861795866058e-07,2.522851823361094e-05,7.458970285867395e-08,-0.0006122574938419723
13,0.0022606,279.017,93.1092,0.0322008,161.019,0.00472626,-0.0148524,0.00150044,-1.40701e-05,-0.000772081,0.00262393,1.29308e-07,-2.08641e-07,0.000473384,0.001501566223303108,0.0026273755172621094,1.2930800830091016e-07,-1.407000101660838e-05,-2.0864097827200112e-07,-0.0007717830221573019
14,0.0027471,281.716,93.9237,0.0628383,162.587,-0.0219289,0.00993904,0.00180461,-7.27407e-05,-0.00101077,0.0032518,-2.80065e-07,1.57712e-07,0.000941484,0.001806239288555389,0.0032570928371475905,-2.80064960778148e-07,-7.273805445939807e-05,1.5771201233860666e-07,-0.0010102593440699525
15,0.0034769,285.698,95.2964,0.00474756,164.894,-0.00489593,-0.0151894,0.00226032,-0.000159623,-0.00136941,0.00419288,-7.89501e-08,-1.74735e-07,0.0016435,0.0022628764490193465,0.004201682419543662,-7.89500969045065e-08,-0.0001596102609268124,-1.7473498470366167e-07,-0.0013684727859848422
16,0.0044769,291.124,96.9761,0.1121,168.022,-0.0481865,0.0439267,0.00288447,-0.000280307,-0.00185899,0.00548175,-9.38876e-07,1.04751e-06,0.00260513,0.002888634086355202,0.005496802283246893,-9.388755592976139e-07,-0.00028026771766331837,1.0475105487461889e-06,-0.0018572631483223523
17,0.0054769,296.461,99.0697,0.0321615,171.046,0.0416783,-0.0321845,0.0035074,-0.000397706,-0.00235038,0.00676854,5.21293e-07,1.77181e-08,0.00356629,0.0035135581249443604,0.006791498335774193,5.212931357689854e-07,-0.0003976269254519771,1.77181000982074e-08,-0.00234762001968547
18,0.0057269,297.604,99.0464,-0.00526466,171.82,-0.0587302,0.00823838,0.00366337,-0.000429633,-0.00247235,0.00709097,-8.37462e-07,5.39397e-07,0.00380698,0.0036700883412965624,0.0071161704577860085,-8.374616493611597e-07,-0.00042954072095846563,5.393971453937496e-07,-0.002469296259895226
19,0.0061019,299.517,99.6368,-0.025726,172.944,-0.0688265,0.00806343,0.00389695,-0.000474819,-0.00265598,0.0075734,-1.14723e-06,5.67134e-07,0.00416743,0.0039045529825909586,0.007602150728205359,-1.1472293419689805e-06,-0.00047470629129808817,5.67134160744942e-07,-0.002652456005696302
20,0.0066644,302.577,101.001,0.0579547,174.596,0.0158196,-0.0120047,0.00424692,-0.000540305,-0.0029318,0.00829585,-2.09839e-08,2.95311e-07,0.00470752,0.004255950944783926,0.008330355916245091,-2.0983899728932442e-08,-0.000540159061538481,2.9531104361879557e-07,-0.0029275064713273347
21,0.0075082,306.538,101.785,-0.123314,177.08,-0.106864,0.0109353,0.00477197,-0.000644186,-0.00334419,0.00938126,-2.16555e-06,7.3174e-07,0.00551881,0.004783373981443795,0.009425401947308787,-2.1655476551973862e-06,-0.0006439785567451395,7.317402677120555e-07,-0.0033386044247650792
22,0.0083519,310.733,103.183,-0.121867,179.502,-0.106238,0.0112925,0.00529642,-0.000745598,-0.00375646,0.0104647,-2.75879e-06,8.85179e-07,0.00632915,0.005310470827817326,0.010519646471899291,-2.7587861944899927e-06,-0.0007453201108800211,8.851793917852291e-07,-0.003749413330406459
23,0.0089847,314.218,105.01,0.109378,181.266,0.047949,-0.0129259,0.00568912,-0.000817896,-0.00406622,0.0112751,-6.18207e-07,5.61864e-07,0.00693587,0.0057053337759769285,0.011338903511515452,-6.182068088556036e-07,-0.0008175616142370723,5.618641578664096e-07,-0.004057964121319535
24,0.0096176,316.926,105.277,-0.0878399,183.056,-0.102069,0.0140112,0.00608211,-0.000896826,-0.00437493,0.0120879,-2.92135e-06,9.91736e-07,0.00754414,0.0061006435864110475,0.012161253930226268,-2.921345732875835e-06,-0.0008964239717549338,9.917364918177185e-07,-0.004365373934532513
25,0.0098549,318.313,106.239,0.0329973,183.692,0.021048,-0.0164516,0.00622911,-0.000922766,-0.00449126,0.012391,-1.35096e-06,5.8729e-07,0.0077713,0.00624855125196544,0.012468086504420217,-1.350959087487169e-06,-0.000922340382379816,5.87290172493482e-07,-0.004481189374047068
26,0.010211,320.002,106.794,0.0274206,184.67,0.0189026,-0.0199174,0.00644983,-0.000965221,-0.00466522,0.0128471,-1.3309e-06,5.0233e-07,0.00811292,0.006470674944866639,0.012929978525143104,-1.330899114360129e-06,-0.0009647553240493822,5.02330126161965e-07,-0.004654354763981239
27,0.010745,322.42,107.352,-9.36245e-05,186.136,-0.0447773,0.00726145,0.00678092,-0.00103031,-0.00492555,0.0135315,-2.28037e-06,8.86856e-07,0.00862549,0.006803962491676474,0.013623465086477715,-2.2803673999094443e-06,-0.001029779412890619,8.868563932118434e-07,-0.004913439370594519
28,0.011546,325.977,108.278,-0.115288,188.295,-0.101695,0.0112719,0.00727712,-0.00112761,-0.00531605,0.0145575,-3.51297e-06,1.05989e-06,0.00939417,0.007303662583204806,0.014663976452710337,-3.5129638294995047e-06,-0.0011269744867367093,1.0598905617609233e-06,-0.005301944811895942
29,0.011796,327.389,109.226,0.0300096,188.941,0.0126587,-0.0122173,0.00743173,-0.0011552,-0.00543826,0.0148763,-2.0648e-06,7.4895e-07,0.00963333,0.007459413842517693,0.014987502895778437,-2.0647978683507873e-06,-0.0011545330133390097,7.489502804602921e-07,-0.005423499433474088
30,0.012171,329.111,109.821,0.0290167,189.93,0.0180487,-0.0181658,0.00766377,-0.00119978,-0.00562128,0.0153559,-1.9516e-06,6.36751e-07,0.00999292,0.007693211849101322,0.015474407652595001,-1.951598095684126e-06,-0.0011990605517311348,6.367512026539401e-07,-0.005605510168297356
31,0.012733,331.551,110.377,-0.00419869,191.413,-0.0476732,0.00881094,0.00801186,-0.00126831,-0.00589514,0.0160756,-2.9405e-06,1.02678e-06,0.0105325,0.008044040835702537,0.016205507638555217,-2.940495676728716e-06,-0.001267506034800192,1.0267805270469665e-06,-0.005877797757241288
32,0.013577,335.13,111.285,-0.133986,193.596,-0.109499,0.0125449,0.00853352,-0.00137084,-0.00630589,0.0171545,-4.28814e-06,1.21034e-06,0.0113417,0.008570034272984861,0.017302483417921843,-4.288130805996104e-06,-0.0013699008280476654,1.2103407325270155e-06,-0.006286049601350152
33,0.013827,336.527,112.282,0.032564,194.213,0.0168375,-0.0123343,0.0086878,-0.00139818,-0.00642791,0.0174727,-2.68436e-06,8.82348e-07,0.0115806,0.008725648461642477,0.017626240575177254,-2.6843563970535556e-06,-0.0013972030017366244,8.823483892417272e-07,-0.00640729518023464
34,0.014202,338.177,112.851,0.0304375,195.161,0.0217662,-0.0186398,0.00891935,-0.00144273,-0.00661066,0.0179514,-2.56938e-06,7.65361e-07,0.0119399,0.008959245929246684,0.018113494871551783,-2.5693766991796707e-06,-0.0014416897653929395,7.653612927871478e-07,-0.006588857656263825
35,0.014764,340.508,113.361,-0.00393471,196.584,-0.0466313,0.00919154,0.00926671,-0.00151127,-0.00688409,0.0186698,-3.58362e-06,1.16511e-06,0.012479,0.009309778889952769,0.01884517039264666,-3.5836135788835932e-06,-0.0015101286065505315,1.1651106788246324e-06,-0.006860448932621499
36,0.015608,343.938,114.225,-0.129031,198.678,-0.107511,0.0131892,0.00978729,-0.0016137,-0.00729422,0.0197467,-4.89441e-06,1.34905e-06,0.0132875,0.009835342161642169,0.019942955753076808,-4.894398022425861e-06,-0.0016123986862257578,1.3490509098712522e-06,-0.007267681741796483
37,0.015858,345.282,115.195,0.0306522,199.269,0.0170145,-0.0122043,0.00994124,-0.00164106,-0.00741606,0.0200642,-3.31365e-06,1.01525e-06,0.0135262,0.00999081828003523,0.020266839055281816,-3.3136445098946865e-06,-0.001639714197319897,1.015250515434829e-06,-0.0073886288792037735
38,0.016233,346.862,115.735,0.0276054,200.178,0.0206201,-0.0179346,0.0101723,-0.00168562,-0.00759851,0.0205421,-3.21928e-06,9.07835e-07,0.0138852,0.010224213721643949,0.020754541104788915,-3.219274818166973e-06,-0.0016842001405010798,9.07835412178315e-07,-0.007569714303844566
39,0.016796,349.104,116.238,-0.00107897,201.542,-0.0421222,0.00839001,0.0105189,-0.00175399,-0.00787154,0.0212591,-4.14344e-06,1.2839e-06,0.0144239,0.010574418121036322,0.021486684552821655,-4.143431415970511e-06,-0.001752452658498549,1.28390082410057e-06,-0.007840640557567613
40,0.017639,352.826,117.963,0.136094,203.523,0.071906,-0.016032,0.011038,-0.00185189,-0.00828195,0.0223322,-2.33622e-06,9.58097e-07,0.0152307,0.01109914348216745,0.022583430267682614,-2.3362172710816864e-06,-0.0018501763097324986,9.580974589251667e-07,-0.008247749133846738
41,0.017889,353.546,117.659,-0.0284227,204.128,-0.0564865,0.00399388,0.011192,-0.00188426,-0.00840309,0.0226514,-4.02401e-06,1.21541e-06,0.0154705,0.011254864740492865,0.022909890998984883,-4.024001903690788e-06,-0.0018824858965917901,1.2154107387196689e-06,-0.008367882724878095
42,0.018264,355.053,118.149,-0.0296019,205.002,-0.0589897,0.00667397,0.0114226,-0.00192912,-0.00858506,0.0231285,-4.18761e-06,1.26936e-06,0.0158292,0.011488087001795266,0.023398037746127587,-4.187601231997462e-06,-0.001927260443973955,1.2693608055780459e-06,-0.00854831360425723
43,0.018827,357.439,119.229,0.0352279,206.287,0.0119646,-0.00992153,0.0117683,-0.00199473,-0.0088583,0.0238431,-3.25724e-06,1.04658e-06,0.0163668,0.011837818881144102,0.024129619346874964,-3.2572346951864617e-06,-0.001992741848275248,1.0465805475590173e-06,-0.008819180855478836
44,0.019671,360.525,119.791,-0.0784422,208.225,-0.100362,0.0257223,0.0122868,-0.00209793,-0.00926682,0.0249163,-5.14934e-06,1.6769e-06,0.017174,0.01236259282612262,0.02522930524026079,-5.149326742226457e-06,-0.002095730882990865,1.6769014059558884e-06,-0.009224015346592451
45,0.020671,364.317,120.981,-0.140748,210.455,-0.111733,0.0156469,0.0129005,-0.00221798,-0.00975106,0.0261863,-5.92653e-06,1.73443e-06,0.0181298,0.012984070430237304,0.026532173604210563,-5.9265124381369105e-06,-0.0022155220998867353,1.7344315041967207e-06,-0.009703672565422372
46,0.021421,367.651,122.914,0.16008,212.069,0.077591,-0.00829059,0.0133601,-0.00230316,-0.0101147,0.0271359,-3.21483e-06,1.43834e-06,0.018845,0.013449744912805928,0.027507431535445104,-3.214824832453722e-06,-0.0023005097620383275,1.4383410344986913e-06,-0.010063718454419557
47,0.022171,370.366,123.726,0.081336,213.686,0.0592707,-0.0260665,0.0138194,-0.00239248,-0.0104781,0.0280869,-3.17707e-06,1.14049e-06,0.0195613,0.013915329293912704,0.028485055889535316,-3.177064953119313e-06,-0.002389620300770501,1.1404906503642565e-06,-0.010423395941775548
48,0.023171,373.891,124.49,0.0734284,215.827,-0.0480997,0.0424025,0.0144318,-0.00251381,-0.0109609,0.0293546,-4.77238e-06,2.322e-06,0.0205162,0.014536441206628448,0.02978969316450364,-4.772368612182554e-06,-0.0025106530255406545,2.3220026958981066e-06,-0.010901048211678699
49,0.024171,377.232,125.283,-0.133262,217.906,-0.111712,0.017645,0.0150434,-0.00263473,-0.011444,0.0306211,-6.18077e-06,2.19484e-06,0.0214707,0.015157121478750257,0.031094748062465927,-6.180750899087428e-06,-0.0026312621452024842,2.1948424087092633e-06,-0.011378766513140848
50,0.025171,381.234,127.469,0.142403,219.906,0.0855305,-0.0285351,0.0156538,-0.00274917,-0.0119276,0.0318836,-3.21927e-06,1.5395e-06,0.0224231,0.015776962541947936,0.03239732726199862,-3.2192648181661454e-06,-0.0027453944927851026,1.5395011849772544e-06,-0.011856748156378383
51,0.026171,384.665,128.582,0.129649,221.897,0.0791015,-0.0277304,0.0162639,-0.00286764,-0.0124105,0.0331469,-2.84082e-06,1.47293e-06,0.0233761,0.01639687715251803,0.03370237896787498,-2.8408159649107034e-06,-0.002863532247871392,1.4729310846561816e-06,-0.012333807337483793
52,0.027171,387.728,128.96,-0.0104166,223.875,-0.0753045,0.0373948,0.0168738,-0.00298991,-0.0128918,0.0344105,-5.16555e-06,2.56603e-06,0.0243293,0.017016966684974655,0.03500939089016408,-5.165536658524594e-06,-0.0029854446705156468,2.566033292294989e-06,-0.012809056698079413
53,0.028171,391.358,130.825,0.131761,225.756,0.0828998,-0.0288285,0.0174824,-0.00310504,-0.0133744,0.0356701,-2.72036e-06,1.65644e-06,0.0252806,0.01763611159758538,0.036313910132669935,-2.7203562997790698e-06,-0.003100224348851821,1.6564413718445081e-06,-0.013285360106060184
54,0.029171,394.603,131.913,0.13083,227.626,0.0849704,-0.0300149,0.0180907,-0.00322317,-0.0138562,0.0369298,-2.21728e-06,1.55029e-06,0.026232,0.018255327959832757,0.03762017734493073,-2.217277541793905e-06,-0.0032179811639062583,1.55029120163519e-06,-0.013760644714304937
55,0.030171,397.432,132.15,-0.0230989,229.49,-0.0847901,0.0395564,0.0186988,-0.00334562,-0.0143363,0.03819,-4.77556e-06,2.69863e-06,0.0271838,0.018874717331016644,0.038928610563030874,-4.775548597013568e-06,-0.0033400296495417203,2.698633641218251e-06,-0.014234024584847016
56,0.031171,400.875,133.977,0.122889,231.255,0.0797033,-0.0283992,0.0193056,-0.00346051,-0.0148178,0.0394461,-2.28159e-06,1.76774e-06,0.0281334,0.019493158125454046,0.04023442873817218,-2.2815873971238076e-06,-0.0034545293359747875,1.7677415624639536e-06,-0.014708556649246862
57,0.032171,403.461,133.995,-0.12904,233.046,-0.117462,0.0222692,0.0199126,-0.00358357,-0.0152971,0.0407043,-5.34877e-06,2.58119e-06,0.0290844,0.020112178326060492,0.04154407542236793,-5.348755695355756e-06,-0.003577156676179749,2.581193331296916e-06,-0.01518069368136643
58,0.033171,406.46,135.024,-0.122359,234.768,-0.109836,0.0196349,0.0205186,-0.00370249,-0.0157765,0.0419596,-5.81362e-06,2.71413e-06,0.0300337,0.02073055365492671,0.04285234666489557,-5.813603100923714e-06,-0.00369564423529789,2.714133683356934e-06,-0.01565270290716425
59,0.034171,409.89,137.021,0.189082,236.428,0.0854579,-0.00441944,0.0211236,-0.00381656,-0.0162564,0.0432117,-2.91585e-06,2.45412e-06,0.0309813,0.021348282484016767,0.04415891989762821,-2.9158457489630862e-06,-0.003809286191467809,2.4541230112529178e-06,-0.016124977843604227
60,0.035171,412.697,137.923,0.121068,238.078,0.082922,-0.0294982,0.0217282,-0.0039345,-0.016736,0.0444647,-2.50521e-06,2.04894e-06,0.0319297,0.021965976365650786,0.04546807103616657,-2.505206861957987e-06,-0.0039267699960982005,2.0489420990976726e-06,-0.016596731168740497
61,0.036171,415.221,138.131,0.0215387,239.727,-0.0727303,0.044935,0.0223327,-0.00405625,-0.0172137,0.0457178,-4.80733e-06,3.26489e-06,0.032878,0.0225839415595257,0.04677896824709227,-4.807318444766118e-06,-0.00404803452972291,3.2648953298686223e-06,-0.01706639072314542
62,0.037171,417.781,138.749,-0.13357,241.318,-0.120592,0.0229864,0.0229364,-0.0041761,-0.0176918,0.0469691,-6.00517e-06,3.16368e-06,0.0338256,0.023201461864794437,0.048089622609948535,-6.0051519690240696e-06,-0.004167392220132071,3.1636850044147735e-06,-0.01753621896035107
63,0.038171,420.986,140.735,0.155885,242.839,0.0939112,-0.0251962,0.0235389,-0.00428952,-0.0181703,0.0482165,-2.83895e-06,2.49238e-06,0.0347709,0.023818126497134218,0.04939782536161741,-2.8389459701960718e-06,-0.0042803331495052666,2.4923831059009416e-06,-0.018006215423957084
64,0.039171,423.111,140.518,-0.1316,244.395,-0.122249,0.0245943,0.0241417,-0.00441253,-0.018647,0.0494669,-6.13971e-06,3.28855e-06,0.0357181,0.024435470112458724,0.05071081311131942,-6.139691152040605e-06,-0.004402809092687199,3.288555407321425e-06,-0.018474220303238864
65,0.040171,425.697,141.385,-0.130977,245.887,-0.120336,0.0237662,0.0247436,-0.00453117,-0.0191236,0.0507141,-6.7027e-06,3.44831e-06,0.0366634,0.025052263427246313,0.052022077171726355,-6.702677536996049e-06,-0.004520919736954454,3.448315945453473e-06,-0.018941904031957058
66,0.041171,428.773,143.351,0.192908,247.316,0.0975004,-0.00829925,0.0253444,-0.00464434,-0.0196009,0.0519581,-3.48699e-06,3.06015e-06,0.037607,0.025668299865929223,0.05333160699439898,-3.4869839204976216e-06,-0.004633571729934616,3.0601546823216808e-06,-0.019410051328922595
67,0.042171,430.72,143.075,-0.123939,248.779,-0.116366,0.0233594,0.0259454,-0.00476708,-0.0200765,0.0532051,-6.71973e-06,3.6172e-06,0.0385524,0.026284911787470833,0.05464593081891023,-6.719707422719878e-06,-0.004755735507996017,3.6172065420725374e-06,-0.019876309023642014
68,0.043171,433.166,143.922,-0.11515,250.181,-0.108582,0.0212945,0.0265454,-0.00488533,-0.020552,0.0544488,-7.14153e-06,3.74323e-06,0.039496,0.026900867502779313,0.05595840995904555,-7.141504499319495e-06,-0.004873416184265178,3.7432370059153897e-06,-0.020342247053155682
69,0.044171,436.026,145.705,0.170501,251.527,0.0838817,-0.0057717,0.0271445,-0.00499889,-0.021028,0.0556896,-4.31831e-06,3.42649e-06,0.0404379,0.02751626813735375,0.05726945635910363,-4.318300676153797e-06,-0.004986416342852795,3.4264958703733583e-06,-0.020808453177698083
70,0.045171,438.328,146.485,0.119962,252.869,0.0917512,-0.0322094,0.0277431,-0.00511598,-0.0215037,0.056931,-3.76582e-06,2.98695e-06,0.0413803,0.02813152350301995,0.05858276566465492,-3.7658129092843495e-06,-0.00510291566277743,2.986954460881819e-06,-0.021274143823219682
71,0.046171,440.302,146.45,0.0078175,254.219,-0.079206,0.0456905,0.0283417,-0.00523737,-0.0219774,0.0581728,-6.27086e-06,4.221e-06,0.0423228,0.028747147270799855,0.05989813028391766,-6.270840338218342e-06,-0.0052236788899727715,4.221008908400492e-06,-0.021737656469652977
72,0.047171,442.404,146.997,-0.112763,255.512,-0.108888,0.0221994,0.0289395,-0.00535611,-0.0224515,0.0594125,-7.15157e-06,4.07623e-06,0.0432643,0.029362316171102743,0.06121290078814323,-7.151544427541623e-06,-0.005341791617849978,4.076238307781921e-06,-0.02220134072168345
73,0.048171,444.558,147.701,-0.159733,256.776,-0.108589,0.00996693,0.0295366,-0.00547415,-0.0229252,0.0606506,-7.65337e-06,4.01254e-06,0.0442049,0.029977131945071234,0.06252760217856368,-7.653340713065226e-06,-0.0054591941435340186,4.0125480502695154e-06,-0.022664414258957155
74,0.049171,447.261,149.48,0.210328,257.991,0.089856,0.00416164,0.0301328,-0.00558722,-0.023399,0.0618856,-4.73919e-06,4.00351e-06,0.0451435,0.030591387402493675,0.06384063439776044,-4.7391787700856725e-06,-0.005571640515176779,4.003518013995233e-06,-0.02312736617751121
75,0.050171,449.291,150.127,0.116942,259.201,0.0903921,-0.0311117,0.0307284,-0.00570414,-0.0238728,0.0631214,-4.29832e-06,3.45744e-06,0.046083,0.03120539046479176,0.06515614133806724,-4.298310762207436e-06,-0.005687902282172419,3.457445976851048e-06,-0.023590098801401282
76,0.051171,451.08,150.084,0.0322665,260.421,-0.0690946,0.0473266,0.0313241,-0.0058249,-0.0243445,0.0643574,-6.60409e-06,4.69442e-06,0.0470223,0.031819862518221775,0.06647348828146327,-6.604068193083457e-06,-0.0058079681613690815,4.694431018803513e-06,-0.024050562742838344
77,0.052171,453.377,151.501,0.115635,261.557,0.0939036,-0.032955,0.0319184,-0.00593848,-0.0248179,0.0655896,-4.12205e-06,3.57975e-06,0.0479596,0.03243325531413199,0.06778840686869336,-4.122041504350804e-06,-0.005920882079842538,3.57975640730146e-06,-0.02451246786486705
78,0.053171,454.919,151.153,-0.0980697,262.733,-0.112891,0.0289528,0.032513,-0.00606021,-0.0252889,0.0668238,-7.21991e-06,4.52026e-06,0.048898,0.03304732267187527,0.06910708490927986,-7.219883936482319e-06,-0.006041883965937744,4.520270216357147e-06,-0.024971814307923612
79,0.054171,456.818,151.734,-0.129407,263.853,-0.123472,0.0264023,0.0331067,-0.0061781,-0.02576,0.0680553,-7.91186e-06,4.64527e-06,0.0498348,0.03366082496748146,0.07042450131700018,-7.91182870130136e-06,-0.006159054781467499,4.64528078936155e-06,-0.02543104190664902
80,0.055171,459.274,153.537,0.194839,264.917,0.106627,-0.00932386,0.0336993,-0.00629008,-0.0262318,0.0692833,-4.53896e-06,4.19565e-06,0.0507696,0.03427355390601039,0.07173979002659903,-4.538949698984496e-06,-0.0062703388596012655,4.195658801720015e-06,-0.025890735090928096
81,0.056171,461.058,154.065,0.11443,265.99,0.0961018,-0.0340859,0.0342916,-0.00640674,-0.0267031,0.0705124,-4.22404e-06,3.76572e-06,0.0517052,0.03488633558936982,0.07305787526586993,-4.224031078803314e-06,-0.006386260600023341,3.7657270903768136e-06,-0.0263497246181017
82,0.057171,462.609,153.938,0.0308404,267.072,-0.0647589,0.0448252,0.0348838,-0.00652704,-0.0271725,0.0717416,-6.51982e-06,4.98502e-06,0.0526406,0.03549937678088644,0.07437768899748698,-6.519798745996397e-06,-0.006505785143327669,4.985032425297575e-06,-0.026806648808868627
83,0.058171,464.649,155.223,0.103862,268.075,0.0869252,-0.0311301,0.0354747,-0.00664044,-0.0276434,0.0729672,-4.22372e-06,3.93169e-06,0.0535741,0.036111434177175106,0.07569525353174322,-4.223711080109105e-06,-0.0066184409995846405,3.931697729164796e-06,-0.02726481767361888
84,0.059171,466.413,155.877,0.0905956,269.081,0.105582,-0.0456452,0.0360652,-0.00675624,-0.0281135,0.0741926,-3.50777e-06,3.57788e-06,0.0545075,0.036723438655595464,0.07701421846018563,-3.507763847832024e-06,-0.0067334679239294815,3.577886400707442e-06,-0.027721993015346946
85,0.060171,467.803,155.559,-0.00441026,270.108,-0.0903776,0.0499285,0.0366559,-0.00687709,-0.0285814,0.0754187,-6.35409e-06,5.02208e-06,0.0554411,0.03733601209656334,0.07833555547356297,-6.354069812863905e-06,-0.0068534969314320016,5.022092610662554e-06,-0.02817681548080142
86,0.061171,469.84,157.038,0.123765,271.043,0.10817,-0.0374148,0.0372449,-0.00698926,-0.0290513,0.0766405,-3.38293e-06,3.79918e-06,0.0563723,0.03794718297984434,0.07965387105022836,-3.38292427792819e-06,-0.006964891926976136,3.7991872168241514e-06,-0.028633367919810637
87,0.062171,471.008,156.472,-0.1057,272.03,-0.122297,0.0324634,0.0378345,-0.00711079,-0.0295186,0.0778648,-6.80075e-06,4.84067e-06,0.0573049,0.03855933708422565,0.0809765007671277,-6.800726874978125e-06,-0.007085568150621002,4.840681716133943e-06,-0.029087181505179305
88,0.063171,472.615,157.013,-0.118675,272.961,-0.119394,0.0270957,0.038423,-0.00722769,-0.0299862,0.0790861,-7.28564e-06,4.92158e-06,0.0582357,0.03917070913268028,0.08229750387386403,-7.285613459750984e-06,-0.007201633063577795,4.921592110962436e-06,-0.029541074210722607
89,0.064171,474.696,158.606,0.166917,273.844,0.0924378,-0.00789211,0.0390105,-0.00733942,-0.0304543,0.0803042,-4.22261e-06,4.48256e-06,0.0591646,0.0397814012975537,0.0836166537284424,-4.222601084791222e-06,-0.007312552228501024,4.482570046704382e-06,-0.029995239728152212
90,0.065171,475.747,158.058,-0.11659,274.768,-0.119128,0.0276245,0.0395983,-0.00746034,-0.0309207,0.0815251,-7.3852e-06,5.06999e-06,0.0600952,0.04039276446726947,0.08494044924751698,-7.385172729468259e-06,-0.007432580737615657,5.070002852436417e-06,-0.030447544462679832
91,0.066171,477.282,158.606,-0.109985,275.643,-0.109961,0.0241782,0.0401852,-0.00757682,-0.0313871,0.0827429,-7.7447e-06,5.15881e-06,0.0610238,0.04100355019827573,0.08626249455661239,-7.744670009857124e-06,-0.0075481882574987,5.158823306761207e-06,-0.030899638291466247
92,0.067171,479.221,160.063,0.147926,276.475,0.0812025,-0.00651071,0.040771,-0.00768878,-0.031854,0.0839579,-4.99368e-06,4.77773e-06,0.0619508,0.04161354872910761,0.08758310559624549,-4.993667531594248e-06,-0.007659296942361116,4.777741413386494e-06,-0.03135200563697338
93,0.068171,480.245,159.621,-0.0982246,277.343,-0.10334,0.0237971,0.041357,-0.00780884,-0.0323193,0.0851752,-7.74462e-06,5.2805e-06,0.0628792,0.042224113146565045,0.088907826638567,-7.744590010516639e-06,-0.007778430215456766,5.280513941885445e-06,-0.03180261270688578
94,0.069171,482.127,161.123,0.132023,278.135,0.106866,-0.0326993,0.0419417,-0.00792015,-0.0327857,0.0863878,-4.64775e-06,4.46389e-06,0.0638048,0.04283367977495933,0.09022903715719433,-4.647739199281631e-06,-0.007888868251846537,4.46389996322516e-06,-0.03225407467920349
95,0.070171,483.049,160.497,-0.105935,278.978,-0.117723,0.0301205,0.0425267,-0.00804088,-0.0332498,0.0876032,-7.95854e-06,5.39681e-06,0.0647319,0.043443915954306966,0.09155490709690328,-7.958508330907499e-06,-0.008008638598700046,5.396824562797775e-06,-0.03270310135844434
96,0.071171,484.439,161.006,-0.102122,279.767,-0.105879,0.0243379,0.0431108,-0.00815687,-0.0337143,0.0888155,-8.25904e-06,5.45219e-06,0.0656571,0.04405356957762363,0.09287900154846329,-8.25900589418449e-06,-0.008123693003999732,5.452204863143351e-06,-0.03315230643190836
97,0.072171,486.21,162.368,0.140101,280.518,0.0765289,-0.00525931,0.0436939,-0.00826863,-0.0341791,0.0900251,-5.64375e-06,5.0879e-06,0.0665807,0.04466253474058335,0.0942017478244046,-5.643734074078921e-06,-0.008234538905885214,5.087912943402273e-06,-0.033601592817634085
98,0.073171,487.552,162.932,0.120133,281.27,0.108442,-0.0360889,0.0442765,-0.00838308,-0.0346437,0.0912349,-4.77699e-06,4.57326e-06,0.0675045,0.04527133245887849,0.09552631416754886,-4.776978590248504e-06,-0.008348039967685295,4.573270457441936e-06,-0.034050477233686816
99,0.074171,488.476,162.421,-0.0162683,282.05,-0.0941871,0.0487398,0.0448594,-0.00850294,-0.0351061,0.0924456,-7.70623e-06,5.85635e-06,0.0684286,0.045880798730256966,0.0968534711084541,-7.706200307100453e-06,-0.008466892248655267,5.856367148560082e-06,-0.03449702904227914
100,0.075171,490.092,163.75,0.110765,282.747,0.102173,-0.0352447,0.0454407,-0.00861408,-0.0355704,0.0936518,-4.81241e-06,4.68549e-06,0.0693502,0.04648894597943176,0.09817729400238795,-4.812398420428465e-06,-0.008577085114719774,4.68550097698639e-06,-0.034945208018894114
101,0.076171,490.913,163.173,-0.0842145,283.495,-0.104212,0.0286578,0.0460223,-0.00873388,-0.0360322,0.0948604,-7.82972e-06,5.61971e-06,0.070273,0.04709776097665319,0.09950535346459266,-7.829689347871316e-06,-0.00869585046573651,5.619725790495522e-06,-0.03539076743424363
102,0.077171,492.562,164.593,0.121603,284.163,0.107024,-0.0346102,0.0466026,-0.00884453,-0.0364954,0.0960643,-4.73153e-06,4.71087e-06,0.071193,0.04770556814554161,0.10082984507738124,-4.731518806311286e-06,-0.008805532201628496,4.710881096103847e-06,-0.035837470966243234
103,0.078171,493.303,163.943,-0.0941346,284.884,-0.110183,0.0293727,0.0471832,-0.00896439,-0.0369564,0.0972708,-7.90726e-06,5.64681e-06,0.0721144,0.048314042621454334,0.10215879781499937,-7.907228737669136e-06,-0.008924329650865426,5.6468259432840284e-06,-0.036281847455477134
104,0.079171,494.928,165.399,0.125646,285.523,0.111541,-0.0357388,0.0477623,-0.00907465,-0.0374189,0.0984724,-4.6616e-06,4.71074e-06,0.073033,0.04892129709709936,0.10348394781713277,-4.661589134813404e-06,-0.00903359963011352,4.710751095649002e-06,-0.036727464044249425
105,0.080171,495.607,164.696,-0.0973617,286.218,-0.113635,0.0305479,0.0483418,-0.00919451,-0.0378791,0.0996768,-7.94929e-06,5.67821e-06,0.0739531,0.04952932314729952,0.10481378455081192,-7.949258404527093e-06,-0.009152369744826694,5.678226121075269e-06,-0.03717066007806713
106,0.081171,497.196,166.163,0.126753,286.83,0.113908,-0.036484,0.0489198,-0.00930448,-0.0383408,0.100876,-4.62362e-06,4.71549e-06,0.0748702,0.05013612644533816,0.1061394719645481,-4.623609311082966e-06,-0.009261327267586661,4.715501118024434e-06,-0.037615095778432694
107,0.082171,497.825,165.43,-0.0978277,287.499,-0.114666,0.0311049,0.0494983,-0.00942424,-0.0388002,0.102078,-7.95591e-06,5.69955e-06,0.0757888,0.050743805948835874,0.1074698510074763,-7.95587835178413e-06,-0.009379971026503009,5.699566242522991e-06,-0.03805711386410393
108,0.083171,499.37,166.886,0.12548,288.085,0.113878,-0.036545,0.0500752,-0.00953402,-0.0392611,0.103276,-4.62041e-06,4.72918e-06,0.0767045,0.05135015493503614,0.10879739492901752,-4.620399325916402e-06,-0.009488715324199926,4.729191182661907e-06,-0.038500371183827875
109,0.084171,499.959,166.146,-0.0959264,288.729,-0.11331,0.0309551,0.0506526,-0.00965357,-0.0397197,0.104476,-7.92762e-06,5.70972e-06,0.0776217,0.051957379803444725,0.11012875045648607,-7.927588576484013e-06,-0.009607123870271073,5.709736300429924e-06,-0.03894121382066007
110,0.085171,501.453,167.569,0.122016,289.291,0.111517,-0.0359095,0.0512285,-0.00976327,-0.0401798,0.105671,-4.65079e-06,4.75194e-06,0.078536,0.05256337653848475,0.1114561472749176,-4.650779185100262e-06,-0.009715764009761929,4.7519512904603545e-06,-0.039383295259547424
111,0.086171,502.015,166.845,-0.0918892,289.91,-0.109722,0.0301275,0.0518048,-0.00988251,-0.0406376,0.106868,-7.86678e-06,5.70925e-06,0.0794517,0.05317014363552941,0.11278735685319097,-7.866749056950617e-06,-0.009833838462322664,5.709266297726501e-06,-0.03982296493890913
112,0.087171,503.45,168.214,0.116621,290.45,0.10704,-0.0346312,0.0523796,-0.00999222,-0.0410969,0.108061,-4.71147e-06,4.78299e-06,0.0803646,0.05377567984852649,0.11411570437166407,-4.711458901018872e-06,-0.009942463633162202,4.783001438468659e-06,-0.04026387298882794
113,0.088171,503.994,167.527,-0.0860323,291.044,-0.104177,0.0286955,0.0529548,-0.0101111,-0.0415539,0.109257,-7.77747e-06,5.69929e-06,0.0812789,0.054381985976501346,0.11544898389631975,-7.777439755551896e-06,-0.010060154677391298,5.699306240947166e-06,-0.04070237219417194
114,0.089171,505.364,168.825,0.109639,291.564,0.100772,-0.0327996,0.0535286,-0.0102209,-0.0420124,0.110448,-4.79762e-06,4.82106e-06,0.0821904,0.05498716396901626,0.11677827507190419,-4.797608491480254e-06,-0.010168844105248875,4.8210716212526705e-06,-0.041142109339076915
115,0.090171,505.898,168.19,-0.0787451,292.134,-0.0970378,0.026762,0.0541027,-0.0103392,-0.0424687,0.111641,-7.66504e-06,5.6814e-06,0.0831031,0.055593005990163036,0.11811138659697717,-7.665010623658652e-06,-0.010285934204975256,5.6814161391027795e-06,-0.04157953638801459
116,0.091171,507.2,169.404,0.101471,292.634,0.0931092,-0.0305288,0.0546754,-0.0104492,-0.0429263,0.11283,-4.9034e-06,4.86452e-06,0.0840132,0.0561977172472341,0.11944161169774947,-4.903387978316687e-06,-0.01039479676466215,4.864531831794139e-06,-0.042018009261918565
117,0.092171,508.116,169.773,0.0958843,293.149,0.110277,-0.0419345,0.0552479,-0.0105623,-0.0433831,0.114019,-4.23983e-06,4.56923e-06,0.0849235,0.05680256356109514,0.12077341937682284,-4.239821011942091e-06,-0.010506714784064841,4.5692404389008345e-06,-0.042455515501254926
118,0.093171,508.673,169.195,-0.00677447,293.69,-0.0815006,0.045631,0.0558204,-0.0106802,-0.043838,0.115209,-6.96559e-06,5.85354e-06,0.085834,0.05740775624861105,0.12210793362437489,-6.965565740313373e-06,-0.01062336916548079,5.853557131896281e-06,-0.04289100342801477
119,0.094171,509.374,169.196,-0.128422,294.193,-0.133218,0.0347997,0.0563921,-0.0107956,-0.0442933,0.116397,-8.1462e-06,5.86833e-06,0.0867432,0.058012449097839536,0.12344179000333222,-8.146166819766876e-06,-0.010737536641089118,5.868347218607184e-06,-0.04332667596577455
120,0.095171,510.261,169.607,-0.123593,294.676,-0.102951,0.0181563,0.0569632,-0.0109091,-0.0447483,0.117583,-8.1764e-06,5.74647e-06,0.0876512,0.058616852578505796,0.12477498239309126,-8.176366573353633e-06,-0.010849811558958256,5.746486511082338e-06,-0.043761863315580185
121,0.096171,511.501,170.725,0.128265,295.135,0.0621796,0.00211614,0.0575335,-0.0110193,-0.0452034,0.118767,-5.85423e-06,5.57446e-06,0.0885577,0.05922075395564108,0.1261075046697655,-5.854212864031538e-06,-0.010958809903805267,5.574475537395429e-06,-0.04419694828049203
122,0.097171,512.314,171.071,0.0916721,295.598,0.0846214,-0.0275571,0.0581033,-0.011132,-0.0456583,0.119951,-5.23303e-06,5.10863e-06,0.0894644,0.05982446992359014,0.1274416055871861,-5.233016307726324e-06,-0.011070268565115615,5.108643049034356e-06,-0.04463164420963406
123,0.098171,512.859,170.657,0.0128412,296.084,-0.0648092,0.0414936,0.0586731,-0.0112486,-0.0461114,0.121135,-7.35913e-06,6.14265e-06,0.090371,0.060428529986921165,0.128777287015571,-7.359102921711269e-06,-0.011185571049535437,6.142668866004897e-06,-0.04506442355807716
124,0.099171,513.497,170.681,-0.101431,296.537,-0.105811,0.0267782,0.0592422,-0.0113631,-0.0465649,0.122318,-8.29112e-06,6.0744e-06,0.0912766,0.06103219161896156,0.13011342071336718,-8.29108562871994e-06,-0.011298783820095526,6.074418449131258e-06,-0.045497388659736404
125,0.1002,514.76,171.991,0.18537,296.952,0.105384,-0.00425237,0.0598102,-0.0114719,-0.0470187,0.123497,-5.22248e-06,5.69148e-06,0.0921799,0.06163502909343643,0.13144661019715653,-5.2224663629196755e-06,-0.011406348660782384,5.691496196558177e-06,-0.04593044367714738
126,0.1012,515.488,172.284,0.128613,297.379,0.12279,-0.0384742,0.0603779,-0.0115842,-0.0474722,0.124676,-4.51697e-06,5.12594e-06,0.0930837,0.06223789040544525,0.1327813724383058,-4.516959798528397e-06,-0.011517361494340572,5.1259531377301215e-06,-0.04636301612772298
127,0.1022,515.854,171.562,-0.00242081,297.839,-0.0875675,0.0502443,0.0609457,-0.0117017,-0.0479235,0.125857,-7.49519e-06,6.43461e-06,0.0939877,0.06284120034310003,0.1341199775298758,-7.495161911119652e-06,-0.011633501381012934,6.434630702045752e-06,-0.04679329539872412
128,0.1032,516.865,172.591,0.0843541,298.225,0.0867485,-0.030908,0.0615121,-0.0118109,-0.0483766,0.127033,-4.96711e-06,5.31859e-06,0.0948893,0.06344336411565643,0.13545448716131459,-4.967097663954867e-06,-0.011741425109919379,5.318604143766947e-06,-0.04722509552487297
129,0.1042,517.569,172.853,0.0671697,298.631,0.0954396,-0.0408571,0.0620783,-0.0119232,-0.0488286,0.12821,-4.48082e-06,5.04669e-06,0.0957909,0.06404565624122904,0.13679170389037476,-4.480809961182608e-06,-0.01185240031650503,5.046702734601283e-06,-0.047655652468496124
130,0.1052,518.022,172.381,0.0153527,299.06,-0.0636982,0.042238,0.0626446,-0.0120394,-0.0492789,0.129387,-6.72129e-06,6.25377e-06,0.0966924,0.0646483959459978,0.138130495450131,-6.721267412190812e-06,-0.011967216396644775,6.253789554877542e-06,-0.04808439658920605
131,0.1062,518.56,172.368,-0.0954212,299.456,-0.105965,0.0286131,0.06321,-0.0121533,-0.0497295,0.130562,-7.66439e-06,6.20246e-06,0.0975928,0.06525051835302986,0.13946858475580215,-7.664360628600875e-06,-0.01207974692196212,6.202479235328795e-06,-0.04851323313597311
132,0.1072,519.712,173.635,0.178693,299.813,0.104898,-0.00562791,0.0637744,-0.0122615,-0.0501806,0.131734,-4.60678e-06,5.77363e-06,0.098491,0.0658519154438828,0.14080482482086087,-4.6067693888485195e-06,-0.012186634110644023,5.7736466674285225e-06,-0.04894235202146402
133,0.1082,520.338,173.882,0.121125,300.184,0.119384,-0.0382443,0.0643385,-0.0123732,-0.0506314,0.132906,-3.95861e-06,5.22953e-06,0.0993897,0.06645333212301097,0.14214263187735354,-3.958602164733094e-06,-0.012296966701423884,5.2295436741012225e-06,-0.04937099218642049
134,0.1092,520.63,173.172,0.00252662,300.588,-0.0825755,0.0488644,0.0649027,-0.0124899,-0.0510799,0.134079,-6.8089e-06,6.50768e-06,0.100289,0.06705519486250822,0.1434831512454502,-6.808876819475174e-06,-0.012412224919961967,6.507701175051395e-06,-0.0497972537001351
135,0.1102,521.098,173.11,-0.121297,300.954,-0.130745,0.0353546,0.0654661,-0.0126038,-0.051529,0.13525,-7.91957e-06,6.48127e-06,0.101186,0.06765654314319769,0.14482295431715753,-7.91953864032191e-06,-0.012524704761694982,6.481291003446188e-06,-0.050223893944260745
136,0.1112,522.292,174.575,0.198541,301.275,0.124731,-0.010674,0.0660284,-0.0127106,-0.0519787,0.136417,-4.22802e-06,5.88795e-06,0.102081,0.06825705523555947,0.1461597425690777,-4.228011061924164e-06,-0.012630161491736902,5.887967333917388e-06,-0.05065091223689466
137,0.1122,522.369,173.626,-0.0932328,301.655,-0.108053,0.0291682,0.0665911,-0.0128277,-0.0524265,0.137588,-7.56583e-06,6.49515e-06,0.102978,0.06885833263407126,0.14750268176506753,-7.565801379172399e-06,-0.012745775730480413,6.495171093634511e-06,-0.05107593558856416
138,0.1132,523.375,174.8,0.101141,301.967,0.0968411,-0.0310837,0.0671523,-0.0129354,-0.0528755,0.138753,-4.61938e-06,5.64278e-06,0.103872,0.06945834427786512,0.1488403014014743,-4.619369330716161e-06,-0.012852097284915764,5.64279592052408e-06,-0.051501906855779045
139,0.1142,523.965,175.045,0.0916377,302.299,0.110286,-0.0415292,0.0677134,-0.0130467,-0.0533237,0.13992,-4.02396e-06,5.36373e-06,0.104766,0.07005858573683277,0.1501817806340966,-4.023951903908696e-06,-0.012961960732473687,5.36374438486753e-06,-0.05192692844667279
140,0.1152,524.227,174.396,-0.00226523,302.659,-0.0753708,0.0437066,0.0682746,-0.0131625,-0.05377,0.141086,-6.63968e-06,6.59538e-06,0.105661,0.07065927115171045,0.15152367476256123,-6.639657957330236e-06,-0.013076253119763903,6.595401749631691e-06,-0.05234995905220574
141,0.1162,524.645,174.341,-0.108659,302.984,-0.118586,0.0320374,0.0688349,-0.0132756,-0.0542167,0.142251,-7.63642e-06,6.57655e-06,0.106554,0.07125932963202164,0.1528659815855664,-7.636390842669094e-06,-0.013187867883602156,6.576571625505068e-06,-0.05277317979210738
142,0.1172,525.714,175.662,0.180456,303.27,0.112578,-0.00893092,0.0693942,-0.0133824,-0.054664,0.143412,-4.30029e-06,6.05222e-06,0.107445,0.07185865256011859,0.1542052362771016,-4.300280753821717e-06,-0.013293253791604509,6.0522383147354475e-06,-0.05319677960362579
143,0.1182,525.782,174.816,-0.0798953,303.607,-0.0949593,0.0256392,0.0699538,-0.0134985,-0.0551095,0.144576,-7.26834e-06,6.57802e-06,0.108337,0.07245863252082718,0.15554951338962786,-7.268313585662156e-06,-0.013407803795082995,6.578041635174614e-06,-0.05361848649612733
144,0.1192,526.197,174.775,-0.151887,303.916,-0.136729,0.0295502,0.0705127,-0.0136114,-0.0555549,0.145738,-8.3134e-06,6.74299e-06,0.109228,0.07305819718328088,0.1568930423633461,-8.313365443823884e-06,-0.01351918376651684,6.743012733956277e-06,-0.054039910964046145
145,0.1202,527.312,176.237,0.185621,304.179,0.123668,-0.0131691,0.0710703,-0.0137173,-0.0560011,0.146895,-4.56922e-06,6.18271e-06,0.110116,0.07365670128146551,0.15823234224894,-4.569209561156029e-06,-0.013623646553553748,6.1827291129024076e-06,-0.05446190420208119
146,0.1212,527.311,175.285,-0.0889905,304.502,-0.104705,0.0286693,0.0716285,-0.0138335,-0.0564454,0.148057,-7.83502e-06,6.80809e-06,0.111007,0.07425618375211251,0.15957899048173108,-7.83498930634341e-06,-0.01373825682683838,6.80811317499419e-06,-0.05488191346607696
147,0.1222,528.199,176.381,0.0929377,304.76,0.091133,-0.0296013,0.0721853,-0.0139406,-0.0568909,0.149213,-5.02811e-06,5.98724e-06,0.111894,0.07485449614993955,0.16092023888694307,-5.028097359027761e-06,-0.013843879803320913,5.9872579236674994e-06,-0.05530286979864241
148,0.1232,528.69,176.581,0.0815324,305.038,0.101729,-0.0389486,0.0727418,-0.0140512,-0.0573356,0.15037,-4.50777e-06,5.73262e-06,0.112782,0.07545281914497903,0.1622642009354558,-4.507759840066683e-06,-0.013952942638928656,5.7326364315546385e-06,-0.05572288321553798
149,0.1242,528.895,175.985,0.00493637,305.342,-0.0665935,0.0410196,0.0732984,-0.0141658,-0.0577785,0.151527,-6.87011e-06,6.88405e-06,0.113669,0.07605158280458335,0.1636097188479524,-6.8700864008786056e-06,-0.01406593715699267,6.884073695090365e-06,-0.05614101094934021
150,0.1252,529.235,175.924,-0.0944022,305.615,-0.105076,0.0285452,0.0738543,-0.014278,-0.0582218,0.152683,-7.75039e-06,6.83849e-06,0.114556,0.07664992617359534,0.16495562946939746,-7.750359965807974e-06,-0.014176552753192628,6.838513382456668e-06,-0.056559330911716166
151,0.1262,530.158,177.086,0.16424,305.853,0.0998798,-0.00605802,0.074409,-0.0143845,-0.0586655,0.153835,-4.79546e-06,6.4036e-06,0.11544,0.07724730955660752,0.16629843166010505,-4.795448501848654e-06,-0.014281537359794871,6.403620503192542e-06,-0.05697784268288819
152,0.1272,530.572,177.242,0.10479,306.108,0.108843,-0.0357175,0.0749636,-0.0144947,-0.0591089,0.154988,-4.27256e-06,5.90749e-06,0.116325,0.07784491661560744,0.16764394929366278,-4.2725508726526584e-06,-0.014390157549295512,5.907507449220972e-06,-0.05739588602038559
153,0.1282,530.717,176.582,0.0129804,306.393,-0.0695222,0.0447984,0.0755182,-0.0146092,-0.0595502,0.156141,-6.77149e-06,7.07721e-06,0.11721,0.07844285519940541,0.1689910192037678,-6.771467073507509e-06,-0.014503003415706983,7.077235043562169e-06,-0.0578117654453405
154,0.1292,531.012,176.499,-0.096963,306.645,-0.109157,0.0301065,0.0760721,-0.0147211,-0.059992,0.157292,-7.67968e-06,7.00808e-06,0.118093,0.07904037016339305,0.17033730250428092,-7.679650511294156e-06,-0.014613274359850381,7.008104556671668e-06,-0.05822793226934608
155,0.1302,531.915,177.683,0.168207,306.862,0.10283,-0.00630018,0.0766249,-0.0148271,-0.0604342,0.158441,-4.6267e-06,6.55053e-06,0.118975,0.07963702858121158,0.17168279290106492,-4.626689296793884e-06,-0.014717719817061159,6.550551454820308e-06,-0.058644291813816696
156,0.1312,532.293,177.826,0.107031,307.098,0.111737,-0.0365319,0.0771774,-0.014937,-0.0608761,0.159589,-4.09643e-06,6.04463e-06,0.119857,0.08023369285282977,0.17302865712557014,-4.096421609589562e-06,-0.014825996389746687,6.044648268810349e-06,-0.059060185002896226
157,0.1322,532.397,177.135,0.0118936,307.364,-0.0709805,0.0452957,0.0777301,-0.0150511,-0.0613159,0.160739,-6.65484e-06,7.23019e-06,0.120739,0.08083090303870155,0.17437841604388793,-6.654817856555084e-06,-0.014938398330905933,7.2302161377990615e-06,-0.05947391934668089
158,0.1332,532.661,177.043,-0.0972653,307.598,-0.110284,0.0306338,0.078282,-0.0151626,-0.0617561,0.161886,-7.56103e-06,7.16191e-06,0.121619,0.0814275782514684,0.17572620089393864,-7.561001415523627e-06,-0.01504822657645355,7.161935646537998e-06,-0.059887847815044526
159,0.1342,533.532,178.221,0.166603,307.796,0.102874,-0.0066814,0.0788328,-0.0152683,-0.0621969,0.16303,-4.49446e-06,6.69205e-06,0.122498,0.082023392633787,0.1770720013188294,-4.494449899916653e-06,-0.015152330476916331,6.692072391789594e-06,-0.06030215793106952
160,0.1352,533.879,178.35,0.1054,308.014,0.111113,-0.0364918,0.0793834,-0.0153778,-0.0626372,0.164175,-3.97753e-06,6.19191e-06,0.123377,0.08261931875717776,0.17842052064032243,-3.977522089693153e-06,-0.01526016539265973,6.191929169840904e-06,-0.06071581581746599
161,0.1362,533.956,177.658,0.0126129,308.262,-0.0698358,0.0448475,0.0799342,-0.0154916,-0.0630755,0.16532,-6.50885e-06,7.36778e-06,0.124256,0.08321578973097554,0.17977058490074738,-6.508828817475276e-06,-0.015372222409672842,7.367807142166782e-06,-0.06112741386709142
162,0.1372,534.193,177.563,-0.0945618,308.478,-0.108054,0.0301165,0.0804841,-0.0156027,-0.0635142,0.166464,-7.39115e-06,7.2954e-06,0.125133,0.08381161390058978,0.1811210147484672,-7.391122685551643e-06,-0.015481608479254394,7.295426611486633e-06,-0.0615392069372136
163,0.1382,535.023,178.706,0.162622,308.661,0.100291,-0.00630779,0.081033,-0.0157081,-0.0639534,0.167604,-4.39579e-06,6.83814e-06,0.126009,0.08440668139679341,0.1824682604894461,-4.395780338506405e-06,-0.015585371249326685,6.838163380207263e-06,-0.0619512884178095
164,0.1392,535.339,178.82,0.100853,308.862,0.10722,-0.0354566,0.0815817,-0.0158173,-0.0643922,0.168745,-3.91226e-06,6.35033e-06,0.126885,0.08500185861481313,0.18381822678397763,-3.912252347082479e-06,-0.0156928634576049,6.350350163497609e-06,-0.062362813897158476
165,0.1402,535.404,178.155,0.0154738,309.093,-0.0662217,0.043642,0.0821305,-0.0159306,-0.064829,0.169886,-6.33525e-06,7.49235e-06,0.127761,0.08559747105592574,0.1851697342691332,-6.335229932319386e-06,-0.01580437913869248,7.492378067741612e-06,-0.06277228438518323
166,0.1412,535.618,178.058,-0.0891425,309.293,-0.102758,0.0286452,0.0826785,-0.0160413,-0.0652663,0.171025,-7.17501e-06,7.4101e-06,0.128636,0.08619254150447553,0.1865204116612187,-7.174984259727957e-06,-0.015913323563736648,7.410127454754445e-06,-0.06318204446465026
167,0.1422,536.399,179.143,0.156732,309.462,0.0954027,-0.00521985,0.0832254,-0.0161465,-0.065704,0.172161,-4.32675e-06,6.9885e-06,0.129509,0.08678674267492403,0.18786906473877796,-4.326740639659654e-06,-0.01601684403682535,6.988524419604403e-06,-0.0635919999584833
168,0.1432,536.685,179.24,0.0938825,309.648,0.100505,-0.033542,0.0837722,-0.0162554,-0.0661412,0.173298,-3.89325e-06,6.51816e-06,0.130382,0.08738116016474984,0.18922043997662397,-3.893242421337817e-06,-0.016123993968090167,6.518181243198029e-06,-0.06400130805483184
169,0.1442,536.749,178.625,0.0201027,309.862,-0.0605301,0.0417952,0.084319,-0.0163681,-0.0665766,0.174436,-6.13875e-06,7.60552e-06,0.131255,0.08797590277093792,0.1905745431759025,-6.138731157956379e-06,-0.016234870545957403,7.605548921985061e-06,-0.06440875317806471
170,0.1452,537.397,179.614,0.129526,310.014,0.133837,-0.0326172,0.0848644,-0.016473,-0.0670137,0.175569,-3.2013e-06,6.57709e-06,0.132126,0.08856944667301825,0.1919242285857241,-3.201294875854188e-06,-0.01633806209554578,6.577111629102461e-06,-0.06481761074971881
171,0.1462,537.644,179.603,0.0809885,310.195,0.113006,-0.0443914,0.0854098,-0.0165821,-0.0674497,0.176703,-3.04944e-06,6.27282e-06,0.132997,0.08916331438223701,0.19327663733177114,-3.0494353504550986e-06,-0.01644537375901345,6.272839674137387e-06,-0.06522526139713303
172,0.1472,537.696,178.963,0.025342,310.401,-0.0549274,0.0401139,0.0859552,-0.0166945,-0.0678838,0.177837,-5.36048e-06,7.4671e-06,0.133867,0.08975750607524668,0.1946305805792341,-5.360465632597844e-06,-0.0165559190862391,7.467127878912905e-06,-0.06563095904811445
173,0.1482,538.307,179.912,0.121656,310.543,0.133135,-0.0346245,0.0864992,-0.0167993,-0.0683199,0.178968,-2.50644e-06,6.42748e-06,0.134736,0.09035049543703422,0.19598247211642628,-2.506436858840111e-06,-0.016658978625504695,6.427500656380758e-06,-0.06603834854913637
174,0.1492,538.536,179.885,0.0760235,310.715,0.109584,-0.0438689,0.0870432,-0.0169082,-0.0687547,0.180099,-2.40304e-06,6.15685e-06,0.135605,0.09094380747279374,0.19733589350791658,-2.4030371127414796e-06,-0.016766058632120218,6.156868953333117e-06,-0.06644434680477018
175,0.1502,538.586,179.273,0.0273726,310.91,-0.0513169,0.0386272,0.0875871,-0.0170202,-0.0691878,0.18123,-4.61226e-06,7.31997e-06,0.136474,0.09153733320436919,0.19869084648494884,-4.6122493635447626e-06,-0.016876174666940358,7.319996791155248e-06,-0.06684858221467227
176,0.1512,539.16,180.168,0.114895,311.043,0.126375,-0.0329251,0.0881297,-0.017125,-0.0696226,0.182358,-1.91461e-06,6.32612e-06,0.13734,0.09212976207278278,0.20004373264412845,-1.9146081671195248e-06,-0.01697920064517977,6.326140009837999e-06,-0.06725422825728511
177,0.1522,539.373,180.134,0.0695686,311.206,0.102389,-0.0416472,0.0886723,-0.0172336,-0.0700563,0.183486,-1.84461e-06,6.07022e-06,0.138207,0.09272251248032615,0.20139814571991477,-1.844608298662287e-06,-0.01708595090734555,6.0702384239164076e-06,-0.06765867238844048
178,0.1532,539.429,179.573,0.0309316,311.39,-0.0464163,0.0368617,0.0892148,-0.0173451,-0.0704883,0.184614,-3.88362e-06,7.17696e-06,0.139073,0.09331547526996076,0.20275408743564127,-3.883612458732699e-06,-0.017195539714129793,7.176985754364651e-06,-0.06806135685586123
179,0.1542,539.958,180.391,0.105007,311.517,0.116106,-0.0302568,0.089756,-0.01745,-0.070922,0.185739,-1.41542e-06,6.24741e-06,0.139938,0.0939073377487174,0.2041079471873266,-1.415418998340634e-06,-0.017298630494807843,6.2474295150494186e-06,-0.06846545101124124
180,0.1552,540.155,180.353,0.0604691,311.67,0.0921503,-0.0384868,0.0902972,-0.0175584,-0.0713545,0.186865,-1.38373e-06,6.00916e-06,0.140802,0.09449952063014067,0.20546453635222717,-1.3837290426810256e-06,-0.017405149549825083,6.009178054933173e-06,-0.06886825259155827
181,0.1562,540.229,179.865,0.035733,311.843,-0.0398237,0.0345161,0.0908383,-0.0176693,-0.0717855,0.18799,-3.1868e-06,7.03898e-06,0.141667,0.09509191457848254,0.20682144707479333,-3.1867949221719982e-06,-0.017514113276589693,7.039004773723434e-06,-0.06926948390313248
182,0.1572,540.703,180.582,0.0918504,311.964,0.102258,-0.0266213,0.0913781,-0.0177743,-0.072218,0.189112,-1.0272e-06,6.1959e-06,0.142529,0.09568320476883652,0.2081762606466957,-1.0271994724808664e-06,-0.01761726887893178,6.195919194595945e-06,-0.06967193781441261
183,0.1582,540.888,180.542,0.048679,312.109,0.078738,-0.0343271,0.0919179,-0.0178824,-0.0726494,0.190234,-1.03988e-06,5.97913e-06,0.143391,0.09627481422379724,0.20953259517252132,-1.0398794593191596e-06,-0.017723458712502027,5.97914787503484e-06,-0.07007319478308838
184,0.1592,540.988,180.152,0.0417876,312.27,-0.0314338,0.0315393,0.0924575,-0.0179926,-0.0730794,0.191357,-2.5379e-06,6.91004e-06,0.144253,0.09686652374242333,0.210891663250796,-2.5378967795086638e-06,-0.017831699623168218,6.910063874432382e-06,-0.07047297734991975
185,0.1602,541.398,180.742,0.075356,312.388,0.084676,-0.0219528,0.092996,-0.0180979,-0.0735106,0.192476,-7.69877e-07,6.17715e-06,0.145114,0.09745734542992057,0.2122474094204878,-7.698767036101728e-07,-0.01793511650020374,6.177169078691591e-06,-0.07087370299942741
186,0.1612,541.299,179.935,-0.0397944,312.554,-0.110018,0.0515871,0.0935349,-0.0182099,-0.0739395,0.193597,-3.61871e-06,7.2657e-06,0.145975,0.09804892458005798,0.21360710073104072,-3.6187034524459705e-06,-0.01804510160787476,7.265726395200289e-06,-0.07127211982161585
187,0.1622,541.457,179.918,-0.106551,312.686,-0.123255,0.0347182,0.094073,-0.0183183,-0.074369,0.194716,-4.23038e-06,7.17719e-06,0.146834,0.09863994370580942,0.21496588717598986,-4.2303710519053794e-06,-0.018151539749808876,7.177215756160038e-06,-0.07167092279708287
188,0.1632,542.151,181.042,0.141937,312.787,0.0932898,-0.00871161,0.09461,-0.0184214,-0.074799,0.195831,-1.16144e-06,6.62787e-06,0.147692,0.09923007179078902,0.21632132965894857,-1.161439325492175e-06,-0.01825276310790691,6.627891964372523e-06,-0.0720700184885571
189,0.1642,542.341,181.123,0.0901674,312.91,0.101474,-0.0347573,0.0951469,-0.0185284,-0.0752284,0.196948,-6.95705e-07,6.18383e-06,0.14855,0.09982040687760652,0.21768071966215308,-6.957047580247178e-07,-0.018357804442442727,6.1838491198784595e-06,-0.07246838608697359
190,0.1652,542.294,180.461,0.0149038,313.063,-0.0623176,0.0409132,0.0956838,-0.0186392,-0.0756561,0.198065,-2.98166e-06,7.26335e-06,0.149408,0.10041105900043301,0.2190416289523549,-2.9816555549011525e-06,-0.01846656437229921,7.2633763781304594e-06,-0.07286500653491534
191,0.1662,542.839,181.42,0.12632,313.154,0.133141,-0.0329298,0.0962194,-0.0187423,-0.0760855,0.199178,-4.01341e-08,6.24632e-06,0.150263,0.10100059702782405,0.2203991776210723,-4.0134099155153535e-08,-0.01856775525303289,6.246339508297893e-06,-0.07326303283874602
192,0.1672,542.978,181.357,0.0758805,313.277,0.108436,-0.042846,0.0967549,-0.0188495,-0.0765137,0.200292,3.47138e-08,5.97288e-06,0.151119,0.10159034073731776,0.2217594598414636,3.471380050079631e-08,-0.018672959150640045,5.972897837658309e-06,-0.07365977665917045
193,0.1682,542.948,180.731,0.0278238,313.423,-0.0493972,0.0375131,0.0972905,-0.0189599,-0.0769402,0.201405,-2.12917e-06,7.09886e-06,0.151975,0.10218051055718602,0.2231200351399676,-2.1291677333445946e-06,-0.018781291675884382,7.098885197009963e-06,-0.07405477652471637
194,0.1692,543.425,181.563,0.108144,313.511,0.12101,-0.0317891,0.0978247,-0.0190633,-0.0773684,0.202516,4.51852e-07,6.14071e-06,0.152829,0.1027694526783609,0.22447967664000856,4.5185210217901783e-07,-0.018882744445126498,6.140728854298061e-06,-0.07445118139306928
195,0.1702,543.553,181.49,0.0616912,313.627,0.0942399,-0.0390006,0.0983589,-0.0191704,-0.0777955,0.203627,4.48677e-07,5.91451e-06,0.153683,0.10335870949646475,0.22584082954118379,4.486771005840495e-07,-0.018987816476488728,5.914527490658017e-06,-0.0748463988887923
196,0.1712,543.559,180.974,0.0346343,313.763,-0.0393799,0.0338483,0.0988931,-0.01928,-0.078221,0.204738,-1.37398e-06,6.9351e-06,0.154536,0.10394828117965371,0.2272034955235933,-1.3739790560851617e-06,-0.019095329519980497,6.93512404792429e-06,-0.07523996800829691
197,0.1722,543.968,181.662,0.0896976,313.849,0.101202,-0.0265406,0.099426,-0.0193837,-0.0786481,0.205846,7.59379e-07,6.10425e-06,0.155388,0.10453673199748903,0.2285639905717043,7.59379288339801e-07,-0.0191970440603193,6.104268631013099e-06,-0.07563484868518944
198,0.1732,544.088,181.593,0.0458015,313.959,0.0756685,-0.0331865,0.0999588,-0.0194906,-0.079074,0.206954,7.04575e-07,5.90553e-06,0.15624,0.10512538597179066,0.22992599388375234,7.045752481449341e-07,-0.019301886292392045,5.905547437734526e-06,-0.07602845197936325
199,0.1742,544.139,181.211,0.0423979,314.084,-0.0282892,0.0298663,0.100492,-0.0195994,-0.0794986,0.208061,-7.04328e-07,6.79181e-06,0.157091,0.10571479595032685,0.23128827584292888,-7.043277520102365e-07,-0.019408580442896395,6.7918330644012315e-06,-0.07642068702126059
200,0.1752,544.472,181.736,0.0685642,314.169,0.077975,-0.0202448,0.101023,-0.0197036,-0.0799243,0.209167,9.12702e-07,6.10817e-06,0.157941,0.10630208641879646,0.23265083403179543,9.127024165334063e-07,-0.019510752745544813,6.108188654874169e-06,-0.07681377106092147
201,0.1762,544.35,180.992,-0.0304988,314.299,-0.0994758,0.0481872,0.101555,-0.0198138,-0.0803479,0.210273,-1.67902e-06,7.1159e-06,0.158791,0.10689079571155835,0.2340149000436913,-1.6790185904946853e-06,-0.019618796707260633,7.115925318101901e-06,-0.07720474993232884
202,0.1772,544.459,180.971,-0.092763,314.398,-0.109824,0.0309312,0.102086,-0.0199208,-0.080772,0.211378,-2.20051e-06,7.00605e-06,0.15964,0.10747871080172344,0.23537924016733336,-2.200507578931088e-06,-0.0197236918840209,7.006074542514895e-06,-0.07759602442226232
203,0.1782,545.044,181.954,0.128132,314.471,0.081462,-0.00609332,0.102617,-0.0200231,-0.0811965,0.212479,5.07176e-07,6.54615e-06,0.160487,0.10806693815770085,0.2367401417496049,5.071761286501442e-07,-0.01982396902107819,6.546171426036196e-06,-0.07798750181294023
204,0.1792,545.173,181.998,0.0744617,314.564,0.0855157,-0.0300974,0.103147,-0.0201289,-0.0816205,0.213582,8.58146e-07,6.14462e-06,0.161335,0.10865436929042382,0.23810501871722556,8.581463681878176e-07,-0.019927666159480384,6.144638878158304e-06,-0.0783783522460243
205,0.1802,545.128,181.454,0.0241799,314.681,-0.0496131,0.0363946,0.103677,-0.0202378,-0.0820429,0.214684,-1.0209e-06,7.09129e-06,0.162182,0.10924211184416621,0.23947016250392528,-1.0208994788429848e-06,-0.020034390225404763,7.091315143314958e-06,-0.07876756302293253
206,0.1812,545.546,182.215,0.100888,314.748,0.10782,-0.0266361,0.104205,-0.0203404,-0.0824668,0.215784,1.34742e-06,6.23087e-06,0.163027,0.10982794632591308,0.24083432983715936,1.347420907737984e-06,-0.020134929539212698,6.230889411984464e-06,-0.0791579906959754
207,0.1822,545.635,182.136,0.0532434,314.841,0.082899,-0.034864,0.104734,-0.0204465,-0.0828895,0.216883,1.32256e-06,6.00733e-06,0.163873,0.11041520062458665,0.24219875638070643,1.3225608745948136e-06,-0.02023888770811011,6.007348044123617e-06,-0.07954714835904175
208,0.1832,545.634,181.689,0.0384071,314.952,-0.032896,0.0312558,0.105263,-0.0205547,-0.0833109,0.217983,-2.52658e-07,6.9332e-06,0.164718,0.11100276566296774,0.24356592681860967,-2.526579681028096e-07,-0.02034489212551771,6.933224034666452e-06,-0.07993494547613189
209,0.1842,545.964,182.266,0.0758954,315.019,0.0865429,-0.022612,0.10579,-0.0206578,-0.0837335,0.21908,1.55978e-06,6.19724e-06,0.165561,0.11158841842642087,0.24493086717323242,1.5597812164092062e-06,-0.020445889360642622,6.197259202922467e-06,-0.08032368282218716
210,0.1852,545.774,181.418,-0.0419949,315.136,-0.111152,0.0510443,0.106318,-0.0207677,-0.0841538,0.220178,-1.32853e-06,7.27402e-06,0.166405,0.11217549208515698,0.24629855198694428,-1.3285291174947034e-06,-0.020553536442086462,7.2740464558407325e-06,-0.08071014155830447
211,0.1862,545.863,181.399,-0.0999986,315.219,-0.119305,0.0340962,0.106846,-0.0208739,-0.0845747,0.221274,-1.85247e-06,7.17708e-06,0.167248,0.11276287580063271,0.24766524401034307,-1.8524682842135931e-06,-0.020657548133397707,7.177105755262758e-06,-0.08109698924191655
212,0.1872,546.444,182.434,0.128253,315.275,0.085436,-0.00819045,0.107372,-0.0209752,-0.0849961,0.222367,1.03949e-06,6.64738e-06,0.168089,0.11334834303768848,0.24902968765466205,1.03949054031105e-06,-0.020756750499087206,6.64740209388448e-06,-0.08148413339364824
213,0.1882,546.55,182.474,0.0771611,315.353,0.0902326,-0.0317561,0.107898,-0.0210802,-0.0854169,0.223461,1.41347e-06,6.24654e-06,0.16893,0.11393411831151745,0.2503968738474456,1.413470998912203e-06,-0.020859565642395328,6.246559509648364e-06,-0.08187056355970701
214,0.1892,546.466,181.886,0.0205446,315.457,-0.0526542,0.0369552,0.108424,-0.0211884,-0.0858361,0.224555,-5.74704e-07,7.21924e-06,0.169771,0.11452020178418976,0.25176555656037136,-5.747038348546951e-07,-0.020965502906083455,7.2192660587333535e-06,-0.0822553627599154
215,0.1902,546.874,182.677,0.104674,315.508,0.112975,-0.0281827,0.108949,-0.0212901,-0.0862568,0.225646,1.91412e-06,6.33023e-06,0.17061,0.1151054785118244,0.2531319780299548,1.9141218319251863e-06,-0.0210650656515865,6.3302500359352365e-06,-0.08264137672507144
216,0.1912,546.936,182.582,0.0559638,315.587,0.0864256,-0.0358511,0.109473,-0.0213954,-0.0866764,0.226738,1.87776e-06,6.11085e-06,0.171449,0.11568994689990886,0.25450114557938863,1.8777617629694987e-06,-0.02116814207310458,6.11086867130517e-06,-0.08302621965770385
217,0.1922,546.902,182.106,0.0365974,315.685,-0.0340516,0.0313567,0.109998,-0.0215029,-0.0870946,0.227829,2.38697e-07,7.04782e-06,0.172288,0.11627583790496288,0.2558705532052439,2.386970285872536e-07,-0.021273360842221534,7.0478448359612145e-06,-0.0834096179184789
218,0.1932,547.216,182.691,0.0776302,315.738,0.0890629,-0.0233628,0.110522,-0.0216052,-0.087514,0.228918,2.10536e-06,6.30064e-06,0.173125,0.1168609197220738,0.2572389411897087,2.105362216342499e-06,-0.021373479456252897,6.300659848967882e-06,-0.0837939553235365
219,0.1942,546.993,181.812,-0.0450422,315.842,-0.113949,0.0515199,0.111046,-0.0217144,-0.0879312,0.230008,-8.59722e-07,7.38978e-06,0.173963,0.11744630820239554,0.25861007876983266,-8.597216304417898e-07,-0.02148033963762419,7.38980730452532e-06,-0.08417611676095649
220,0.1952,547.065,181.795,-0.0998078,315.913,-0.120251,0.0346129,0.111569,-0.0218198,-0.0883489,0.231096,-1.3604e-06,7.29343e-06,0.174799,0.11803088547521723,0.2599801917418356,-1.360399074612495e-06,-0.021583470174751596,7.29345659711278e-06,-0.08455857651470511
221,0.1962,547.62,182.819,0.124711,315.955,0.0842412,-0.00849652,0.112091,-0.0219203,-0.0887672,0.232181,1.52484e-06,6.75431e-06,0.175634,0.1186146499467069,0.2613480121582654,1.524841162670043e-06,-0.02168179609503884,6.754332810388064e-06,-0.0849414255836839
222,0.1972,547.704,182.85,0.0745087,316.021,0.088398,-0.0313181,0.112613,-0.0220246,-0.0891849,0.233266,1.8815e-06,6.36496e-06,0.176469,0.11919871922279768,0.2627173174652546,1.8815017699402858e-06,-0.02178382936257872,6.364980256412522e-06,-0.08532356573469091
223,0.1982,547.606,182.271,0.0209768,316.112,-0.0508894,0.0360477,0.113135,-0.022132,-0.0896009,0.234352,-5.54667e-08,7.31548e-06,0.177304,0.11978309346263916,0.2640893733635248,-5.546669845646335e-08,-0.0218888841377628,7.3155067581431865e-06,-0.08570399199719636
224,0.1992,547.983,183.029,0.100281,316.152,0.109129,-0.0273121,0.113656,-0.022233,-0.0900185,0.235435,2.34797e-06,6.45309e-06,0.178137,0.1203666524582514,0.26545912374082636,2.347972756444605e-06,-0.021987668371777014,6.453110821258434e-06,-0.08608572229930378
225,0.2002,548.024,182.925,0.0519766,316.22,0.08196,-0.0343439,0.114177,-0.0223376,-0.0904349,0.236518,2.28518e-06,6.2473e-06,0.17897,0.12095051556731495,0.26683035836135915,2.285182610917147e-06,-0.022089963111557198,6.247319514374183e-06,-0.08646619698421143
226,0.2012,547.984,182.477,0.0378956,316.305,-0.0307887,0.0298994,0.114698,-0.0224442,-0.09085,0.237601,7.54617e-07,7.141e-06,0.179802,0.12153468294831438,0.26820307883342953,7.546172846595312e-07,-0.02219420276541728,7.14102549692619e-06,-0.08684532617213647
227,0.2022,548.259,183.01,0.071268,316.348,0.0823406,-0.0215513,0.115217,-0.0225459,-0.0912664,0.238682,2.47063e-06,6.44104e-06,0.180633,0.1221169105237514,0.2695747476150516,2.4706330519208564e-06,-0.022293640558498473,6.4410607434339795e-06,-0.08722548462383584
228,0.2032,548.05,182.203,-0.0362893,316.439,-0.103913,0.0484742,0.115737,-0.022654,-0.0916805,0.239764,-2.47155e-07,7.45758e-06,0.181465,0.1227005630537299,0.27094917092089044,-2.4715496949045956e-07,-0.022399324903612405,7.457607807737077e-06,-0.08760338630071074
229,0.2042,548.105,182.185,-0.0895929,316.498,-0.109243,0.0313567,0.116257,-0.0227586,-0.0920952,0.240843,-6.94586e-07,7.34617e-06,0.182295,0.12328451916194738,0.27232126518805044,-6.945857587981052e-07,-0.022501576586371197,7.346196983171183e-06,-0.08798167873205476
230,0.2052,548.603,183.112,0.116518,316.533,0.0761799,-0.00636747,0.116775,-0.0228587,-0.0925102,0.241921,1.92206e-06,6.88107e-06,0.183124,0.12386653127099567,0.27369356704973247,1.9220618472370887e-06,-0.022599419281446376,6.881093674637739e-06,-0.08836008781006632
231,0.2062,548.247,182.111,-0.121284,316.62,-0.138593,0.0404861,0.117294,-0.0229672,-0.0929235,0.243,-1.28242e-06,7.57277e-06,0.183954,0.12444996938982067,0.27506862411845967,-1.2824191777394134e-06,-0.022705461491560386,7.572798673471937e-06,-0.08873679073475271
232,0.2072,548.352,182.17,-0.124171,316.676,-0.13224,0.0340451,0.117812,-0.0230714,-0.093337,0.244077,-1.65799e-06,7.60491e-06,0.184782,0.12503258535847306,0.27644261278672233,-1.6579886255030374e-06,-0.022807290277101044,7.604938917493698e-06,-0.08911352017760377
233,0.2082,548.907,183.24,0.112625,316.704,0.0835038,-0.0117404,0.118329,-0.0231706,-0.0937512,0.245151,1.36884e-06,7.02569e-06,0.185608,0.12561437758543526,0.2778142485894355,1.368840936821769e-06,-0.02290422298596373,7.025714680253259e-06,-0.089490731231744
234,0.2092,548.981,183.28,0.0745149,316.756,0.0902852,-0.0320426,0.118845,-0.0232738,-0.0941647,0.246226,1.7622e-06,6.66705e-06,0.186435,0.1261953444808379,0.27918863750835654,1.7622015526796986e-06,-0.023005054067178343,6.667072224741943e-06,-0.08986714898464587
235,0.2102,548.85,182.675,0.0153045,316.834,-0.0529313,0.0354429,0.119362,-0.0233803,-0.0945767,0.247301,-2.32612e-07,7.61296e-06,0.187262,0.12677773800968928,0.2805645046897891,-2.3261197290569413e-07,-0.023109098488456437,7.61298897855589e-06,-0.09024204648507606
236,0.2112,549.216,183.448,0.102809,316.861,0.111601,-0.0276565,0.119878,-0.0234802,-0.0949901,0.248373,2.23602e-06,6.75639e-06,0.188086,0.12735930535397344,0.2819380059039336,2.2360224998241307e-06,-0.023206685014989237,6.756412824548974e-06,-0.09061806269515338
237,0.2122,549.232,183.33,0.0530429,316.916,0.0830254,-0.0342891,0.120394,-0.0235838,-0.0954025,0.249446,2.15518e-06,6.55647e-06,0.188911,0.1279411728644433,0.28331426361448653,2.155182322383098e-06,-0.02330787556066094,6.5564914937255026e-06,-0.09099301448572461
238,0.2132,549.168,182.872,0.0369395,316.988,-0.0303203,0.0294413,0.120909,-0.0236894,-0.0958135,0.250518,6.17637e-07,7.4394e-06,0.189736,0.12852221217324833,0.2846907141507524,6.176371907251621e-07,-0.02341100880347069,7.43942767233996e-06,-0.0913665395921035
239,0.2142,549.42,183.393,0.0702135,317.019,0.0817575,-0.0213486,0.121424,-0.0237901,-0.0962257,0.251588,2.31755e-06,6.75031e-06,0.190559,0.12910355079436364,0.2860660688984633,2.3175526855379047e-06,-0.02350934636350488,6.75033278341175e-06,-0.09174100112266015
240,0.2152,549.195,182.59,-0.0354176,317.097,-0.102041,0.0476294,0.121939,-0.0238972,-0.0966358,0.252659,-3.62919e-07,7.74657e-06,0.191382,0.12968518888197478,0.28744418350689704,-3.6291893412698784e-07,-0.023613922912335217,7.746600004798765e-06,-0.09211340177212735
241,0.2162,549.234,182.575,-0.0855817,317.144,-0.105578,0.0305135,0.122453,-0.0240007,-0.0970464,0.253728,-7.7165e-07,7.63066e-06,0.192205,0.13026599632378555,0.28882119722176336,-7.716497022469682e-07,-0.02371497364184838,7.630689113469202e-06,-0.0924861034884612
242,0.2172,549.694,183.458,0.110631,317.168,0.0722875,-0.00577107,0.122966,-0.0241,-0.0974574,0.254795,1.73721e-06,7.18701e-06,0.193025,0.130845971530821,0.29019710335458293,1.737211508867631e-06,-0.0238119139318006,7.1870358266945544e-06,-0.09285901506134975
243,0.2182,549.345,182.507,-0.112435,317.242,-0.131021,0.0388969,0.12348,-0.0242072,-0.0978667,0.255864,-1.29578e-06,7.84285e-06,0.193847,0.13142737576827646,0.29157706151429186,-1.2957791605261448e-06,-0.023916555685728924,7.842880755282167e-06,-0.09323023189177848
244,0.2192,549.433,182.566,-0.114423,317.287,-0.123151,0.0318061,0.123993,-0.0243103,-0.0982762,0.25693,-1.61662e-06,7.85792e-06,0.194667,0.1320079469158124,0.292954616768367,-1.6166186932453641e-06,-0.024017184701322858,7.85795087354657e-06,-0.09360147809397101
245,0.2202,549.934,183.551,0.104705,317.306,0.0763986,-0.00996467,0.124504,-0.0244089,-0.0986862,0.257994,1.18226e-06,7.33557e-06,0.195485,0.1325865507973878,0.2943310526146241,1.1822606988953765e-06,-0.024113411862834222,7.335596905466701e-06,-0.09397302531556728
246,0.2212,549.986,183.576,0.0657774,317.347,0.0810689,-0.0291523,0.125016,-0.0245111,-0.0990957,0.259058,1.51423e-06,7.00111e-06,0.196304,0.1331665835871192,0.29570895376802664,1.51423114647109e-06,-0.024213142375825836,7.0011345079112886e-06,-0.09434396740612394
247,0.2222,549.868,183.041,0.0198539,317.412,-0.0457271,0.0328364,0.125528,-0.0246163,-0.0995037,0.260123,-2.48458e-07,7.86878e-06,0.197123,0.13374691342967804,0.29708961887746166,-2.484579690875677e-07,-0.02431578975390114,7.868810958822081e-06,-0.09471339969810988
248,0.2232,550.175,183.709,0.0894859,317.432,0.0978475,-0.024037,0.126039,-0.0247156,-0.099913,0.261185,1.9067e-06,7.10171e-06,0.19794,0.13432640615022073,0.2984678597690862,1.9067018177665318e-06,-0.02441267038577566,7.101735217229788e-06,-0.09508385768421479
249,0.2242,549.848,182.703,-0.0639831,317.508,-0.12731,0.0527617,0.12655,-0.0248228,-0.10032,0.262248,-1.38684e-06,8.20219e-06,0.198757,0.13490619506721568,0.29984886497824825,-1.3868390383864337e-06,-0.024517247742063875,8.20222363806522e-06,-0.0954520836150774
250,0.2252,549.889,182.708,-0.103505,317.547,-0.126271,0.0368968,0.12706,-0.0249256,-0.100727,0.263309,-1.8048e-06,8.12187e-06,0.199574,0.13548514484634477,0.30122873651639526,-1.8047983713076476e-06,-0.024617522214799736,8.121902982383133e-06,-0.09582015970848001
251,0.2262,550.391,183.726,0.114023,317.56,0.0820111,-0.0100095,0.12757,-0.0250235,-0.101136,0.264368,1.12493e-06,7.53811e-06,0.200388,0.13606438996516657,0.3026074676576538,1.1249306326455155e-06,-0.024713007485294702,7.538138411700146e-06,-0.0961898936474147
252,0.2272,550.427,183.738,0.0683522,317.597,0.0850965,-0.030478,0.128079,-0.0251253,-0.101543,0.265427,1.44864e-06,7.18352e-06,0.201203,0.13664279393098044,0.3039876596485742,1.4486410493397273e-06,-0.024812286647737603,7.183545801536795e-06,-0.09655766951323463
253,0.2282,550.293,183.177,0.0202569,317.658,-0.0470692,0.0337739,0.128588,-0.02523,-0.101949,0.266487,-3.8729e-07,8.08031e-06,0.202018,0.13722149237935222,0.3053706194069825,-3.872899250190187e-07,-0.02491438345646435,8.080342645877536e-06,-0.0969243926495782
254,0.2292,550.599,183.862,0.0904362,317.673,0.100996,-0.025351,0.129096,-0.0253288,-0.102356,0.267543,1.8354e-06,7.28284e-06,0.202831,0.13779934766029522,0.30674981887022645,1.8354016844135401e-06,-0.025010717156415674,7.282866519853215e-06,-0.09729186963513059
255,0.2302,550.253,182.823,-0.065988,317.746,-0.130898,0.0540846,0.129605,-0.0254356,-0.102761,0.268602,-1.55637e-06,8.41687e-06,0.203644,0.13837863494436142,0.3081343999346853,-1.5563687888464628e-06,-0.025114840451540443,8.41690542197071e-06,-0.09765739240457127
256,0.2312,550.289,182.833,-0.104257,317.781,-0.12842,0.0378797,0.130113,-0.0255378,-0.103167,0.269658,-1.96139e-06,8.33466e-06,0.204457,0.13895707820306114,0.3095165194917049,-1.96138807651014e-06,-0.025214468623759978,8.334694733269643e-06,-0.09802366914404559
257,0.2322,550.787,183.858,0.112738,317.789,0.082196,-0.0104121,0.13062,-0.0256352,-0.103573,0.270711,9.99752e-07,7.73425e-06,0.205267,0.13953467585034107,0.31089616664347464,9.997524996752105e-07,-0.025309408110888,7.734279909410446e-06,-0.09838979720534746
258,0.2332,550.817,183.867,0.0677947,317.822,0.0852041,-0.0305538,0.131127,-0.0257365,-0.103979,0.271765,1.3214e-06,7.38402e-06,0.206078,0.14011256641387626,0.31227857960676975,1.3214008729445226e-06,-0.025408139267028784,7.38404726186026e-06,-0.09875577664882784
259,0.2342,550.676,183.304,0.0197818,317.879,-0.0468692,0.033532,0.131634,-0.0258408,-0.104383,0.272819,-5.13304e-07,8.27641e-06,0.206889,0.14069075004221276,0.31366245040147045,-5.133038682991753e-07,-0.025509783897243676,8.276444249499804e-06,-0.0991198057762267
260,0.2352,550.973,183.983,0.0894257,317.89,0.10044,-0.0252627,0.132139,-0.0259391,-0.104788,0.273871,1.69792e-06,7.48467e-06,0.207698,0.14126694434780096,0.31504515047201,1.697921441445871e-06,-0.02560557157744492,7.484698010262747e-06,-0.0994845883814236
261,0.2362,550.625,182.951,-0.0649489,317.959,-0.129618,0.0536358,0.132646,-0.0260454,-0.105191,0.274924,-1.66676e-06,8.60808e-06,0.208508,0.14184571339414087,0.31643062233837593,-1.6667586109075927e-06,-0.02570914420020387,8.608117049613284e-06,-0.0998474229762244
262,0.2372,550.657,182.964,-0.101836,317.99,-0.126195,0.0373466,0.133151,-0.0261471,-0.105595,0.275975,-2.05036e-06,8.52229e-06,0.209316,0.1424224911035188,0.3178149182425267,-2.0503578980202164e-06,-0.02580822454191789,8.522326314874817e-06,-0.10021101116758213
263,0.2382,551.138,183.965,0.109774,317.995,0.0799967,-0.00999722,0.133655,-0.0262441,-0.105999,0.277023,8.48282e-07,7.93599e-06,0.210123,0.1429984171602101,0.3191967122104149,8.482823596889233e-07,-0.025902716561200356,7.936021489962641e-06,-0.10057445249897812
264,0.2392,551.161,183.969,0.0650172,318.024,0.0823976,-0.0296667,0.13416,-0.0263449,-0.106402,0.278072,1.15137e-06,7.59491e-06,0.21093,0.14357577713199876,0.3205812756380768,1.1513706628107911e-06,-0.02600090061881133,7.594938841393173e-06,-0.10093684796702951
265,0.2402,551.024,183.428,0.020852,318.077,-0.044663,0.0326446,0.134664,-0.0264486,-0.106804,0.279121,-6.12728e-07,8.46157e-06,0.211737,0.14415228459134943,0.32196729223482823,-6.127278122658453e-07,-0.02610189908855598,8.46160579914823e-06,-0.10129819871777956
266,0.2412,551.303,184.075,0.0852877,318.085,0.0961806,-0.0241284,0.135167,-0.0265465,-0.107208,0.280168,1.50191e-06,7.69905e-06,0.212542,0.1447279379551829,0.32335211681896325,1.5019111279102049e-06,-0.026197239045668175,7.699079637824013e-06,-0.10166120091411668
267,0.2422,550.97,183.091,-0.0593765,318.149,-0.123248,0.0517728,0.135671,-0.0266521,-0.107609,0.281216,-1.70651e-06,8.77815e-06,0.213348,0.14530502624994668,0.3247397168127857,-1.706508543919405e-06,-0.026300067187803533,8.778188528069109e-06,-0.1020213625553148
268,0.2432,550.996,183.103,-0.0958731,318.177,-0.119529,0.0353821,0.136174,-0.0267533,-0.108011,0.282262,-2.06227e-06,8.68399e-06,0.214152,0.1458812595886858,0.3261261195187801,-2.0622678734705246e-06,-0.026398600635127556,8.684027706040709e-06,-0.10238227741881956
269,0.2442,551.449,184.049,0.105415,318.18,0.0755017,-0.00872769,0.136676,-0.02685,-0.108413,0.283305,6.80402e-07,8.14191e-06,0.214955,0.14645663638849293,0.32750999062476627,6.804022314454983e-07,-0.0264927433385731,8.141943145467678e-06,-0.10274304722370797
270,0.2452,551.058,183.044,-0.114851,318.238,-0.138907,0.0421946,0.137179,-0.0269553,-0.108813,0.284351,-2.52204e-06,8.87386e-06,0.215759,0.14703344913284,0.32889929255319683,-2.5220368196077203e-06,-0.026595248255720905,8.873899372874305e-06,-0.10310187823383199
271,0.2462,551.129,183.126,-0.110299,318.263,-0.123942,0.0335334,0.13768,-0.0270561,-0.109214,0.285394,-2.74611e-06,8.87246e-06,0.216562,0.14760825686817003,0.33028605758757945,-2.746106229412071e-06,-0.02669336250965526,8.872499360323971e-06,-0.10346146227924069
272,0.2472,551.584,184.077,0.0949371,318.265,0.0718197,-0.00994546,0.138181,-0.0271526,-0.109615,0.286435,-5.60422e-09,8.33513e-06,0.217363,0.14818335265432636,0.33167160642657434,-5.604219976973468e-09,-0.026787282068481466,8.335164737305334e-06,-0.103820902160354
273,0.2482,551.208,183.103,-0.111839,318.321,-0.136819,0.0419166,0.138682,-0.0272575,-0.110014,0.287478,-3.12718e-06,9.07799e-06,0.218165,0.14875873663565842,0.3330612644927806,-3.1271751104178236e-06,-0.026889366728158448,9.078031204978743e-06,-0.10417840629357455
274,0.2492,551.279,183.189,-0.106564,318.345,-0.12078,0.0329379,0.139183,-0.027358,-0.110414,0.288518,-3.32599e-06,9.07065e-06,0.218966,0.149334408956588,0.33444836937736877,-3.3259844689492724e-06,-0.02698715943263663,9.07069113842418e-06,-0.10453666327488409
275,0.2502,551.718,184.111,0.0922339,318.346,0.0693449,-0.00929262,0.139683,-0.0274544,-0.110814,0.289557,-6.64956e-07,8.55079e-06,0.219765,0.14990921985181482,0.33583558176519346,-6.649557788840355e-07,-0.02708095334952787,8.550826558151314e-06,-0.10489477698205785
276,0.2512,551.355,183.171,-0.106993,318.4,-0.132109,0.0408691,0.140183,-0.0275589,-0.111213,0.290597,-3.67926e-06,9.26925e-06,0.220565,0.1504843182243527,0.337225573440616,-3.6792532315255144e-06,-0.02718261807782829,9.269292959634967e-06,-0.10525185272469417
277,0.2522,551.422,183.254,-0.102593,318.423,-0.116358,0.0317078,0.140682,-0.0276591,-0.111612,0.291635,-3.86612e-06,9.25542e-06,0.221363,0.1510585531588473,0.33861433422800324,-3.8661125265626595e-06,-0.02728008949609728,9.255462831481154e-06,-0.10560878602252877
278,0.2532,551.846,184.143,0.0900805,318.423,0.0668222,-0.00843859,0.14118,-0.0277554,-0.112011,0.292671,-1.30137e-06,8.76387e-06,0.222161,0.15163192307558004,0.3400018572911083,-1.3013691532171023e-06,-0.027373757913272123,8.763908402764642e-06,-0.10596557693238573
279,0.2542,551.496,183.239,-0.102129,318.475,-0.12675,0.0394766,0.141679,-0.0278596,-0.112408,0.293709,-4.19744e-06,9.4502e-06,0.222959,0.15220673080779656,0.3413935013572953,-4.197431190733347e-06,-0.027475100287668086,9.45024465326405e-06,-0.10632043815373038
280,0.2552,551.56,183.319,-0.0985022,318.496,-0.111553,0.0302992,0.142177,-0.0279596,-0.112806,0.294745,-4.37454e-06,9.43137e-06,0.223756,0.15278067265939832,0.34278390512949586,-4.374530431672241e-06,-0.02757234791517693,9.431414475402633e-06,-0.10667605184752593
281,0.2562,551.967,184.173,0.0878743,318.497,0.0642091,-0.00755423,0.142675,-0.0280557,-0.113205,0.295779,-1.91242e-06,8.97071e-06,0.224551,0.1533549004052237,0.34417306175760776,-1.9124181713792154e-06,-0.0276657937223993,8.970750236869662e-06,-0.10703241700326238
282,0.2572,551.631,183.306,-0.0971052,318.545,-0.121129,0.0379921,0.143172,-0.0281595,-0.113601,0.296814,-4.68487e-06,9.62323e-06,0.225347,0.15392826025884676,0.34556500108086996,-4.684859026049537e-06,-0.027766716775013967,9.623276303383221e-06,-0.10738596215956797
283,0.2582,551.691,183.382,-0.0943263,318.566,-0.106595,0.0288309,0.143669,-0.0282592,-0.113998,0.297847,-4.85319e-06,9.59964e-06,0.226142,0.1545019051431411,0.34695568789305953,-4.853178223296339e-06,-0.027863643601468868,9.599686076722236e-06,-0.10774025959989542
284,0.2592,552.082,184.2,0.0856798,318.566,0.0615679,-0.00665465,0.144165,-0.0283553,-0.114395,0.298878,-2.49616e-06,9.17075e-06,0.226936,0.15507468012454484,0.34834511533404755,-2.4961568846348925e-06,-0.02795706141652088,9.170792051538257e-06,-0.10809441641205553
285,0.2602,551.759,183.372,-0.0920546,318.612,-0.115428,0.036474,0.144662,-0.0284586,-0.114791,0.299911,-5.14335e-06,9.78886e-06,0.22773,0.1556488949211241,0.349738675488086,-5.143336773039131e-06,-0.02805746826597344,9.788907911145728e-06,-0.10844754109985355
286,0.2612,551.816,183.443,-0.090169,318.632,-0.10162,0.027349,0.145158,-0.0285581,-0.115187,0.300942,-5.30373e-06,9.76071e-06,0.228523,0.15622223895056986,0.35113097366889656,-5.303715935212061e-06,-0.028154171736803568,9.760757635923767e-06,-0.1088005259779593
287,0.2622,552.19,184.225,0.0835333,318.632,0.0589572,-0.00576167,0.145652,-0.0286542,-0.115583,0.301971,-3.05156e-06,9.3636e-06,0.229315,0.15679355383977067,0.3525220030026541,-3.05155534396917e-06,-0.02824756163344322,9.363643838744551e-06,-0.10915337110172652
288,0.2632,551.882,183.435,-0.0870871,318.676,-0.109779,0.0349608,0.146148,-0.0287571,-0.115978,0.303001,-5.57472e-06,9.94754e-06,0.230107,0.1573674657608657,0.3539158183574298,-5.574704461275282e-06,-0.028347549814870976,9.947589477032892e-06,-0.10950518603211823
289,0.2642,551.934,183.502,-0.0861079,318.694,-0.0967318,0.0258874,0.146642,-0.0288563,-0.116373,0.30403,-5.72797e-06,9.91513e-06,0.230899,0.15793934653187192,0.35530971477123163,-5.7279535952137195e-06,-0.028443932957246454,9.915179155051135e-06,-0.10985686202305489
290,0.2652,552.293,184.248,0.0814587,318.694,0.0564217,-0.00489287,0.147136,-0.0289523,-0.116769,0.305056,-3.57837e-06,9.54912e-06,0.231688,0.15851150988177043,0.3567009761336202,-3.5783635976560646e-06,-0.028537197862895436,9.549165592925846e-06,-0.11020928892056248
291,0.2662,551.998,183.496,-0.0822811,318.736,-0.104281,0.0334818,0.14763,-0.0290548,-0.117163,0.306084,-5.9809e-06,1.00998e-05,0.232479,0.15908395595018954,0.3580963818527383,-5.9808821144535784e-06,-0.02863676769707335,1.0099851003086968e-05,-0.11055979740602184
292,0.2672,552.047,183.559,-0.0821977,318.753,-0.0920045,0.0244716,0.148124,-0.0291538,-0.117557,0.30711,-6.12776e-06,1.00634e-05,0.233268,0.1596566848768266,0.3594905038027829,-6.127741225325778e-06,-0.028732927897062943,1.0063450636144111e-05,-0.11091016781834018
293,0.2682,552.39,184.271,0.0794721,318.754,0.0539928,-0.00406077,0.148616,-0.0292497,-0.117951,0.308134,-4.07702e-06,9.72734e-06,0.234056,0.1602273763443749,0.360883335086587,-4.07701168891883e-06,-0.02882606794314102,9.727387310753954e-06,-0.11126040021190753
294,0.2692,552.108,183.553,-0.0776911,318.793,-0.0990049,0.0320581,0.149109,-0.0293517,-0.118344,0.309159,-6.36383e-06,1.0246e-05,0.234845,0.16079950946013777,0.3622789556383941,-6.363809750831173e-06,-0.02892512263233571,1.0246052490447966e-05,-0.11160960625114291
295,0.2702,552.628,184.704,0.161297,318.779,0.141239,-0.0247362,0.149601,-0.0294453,-0.118738,0.310181,-2.81941e-06,9.51415e-06,0.235631,0.1613707633357222,0.3636719164127682,-2.8194060254227438e-06,-0.029016010987215957,9.514195259630043e-06,-0.11195956312024957
296,0.2712,552.561,184.543,0.0841552,318.799,0.110582,-0.0383037,0.150092,-0.0295442,-0.119132,0.311204,-2.85483e-06,9.21883e-06,0.236418,0.16194113639564733,0.3650676665877486,-2.854825924991644e-06,-0.029112036555186793,9.21887249361042e-06,-0.11230938213350927
297,0.2722,552.356,183.876,0.0256241,318.843,-0.0427555,0.0338265,0.150584,-0.0296458,-0.119524,0.312227,-4.95229e-06,1.01996e-05,0.237205,0.16251295208988026,0.3664648453457535,-4.952277737446664e-06,-0.029210673761417838,1.0199652016096294e-05,-0.11265728866157831
298,0.2732,552.621,184.551,0.0884393,318.836,0.107043,-0.0280011,0.151075,-0.029741,-0.119917,0.313246,-2.68617e-06,9.37148e-06,0.23799,0.16308388610218616,0.3678579827060977,-2.686166392207312e-06,-0.029303088506264063,9.37152391244922e-06,-0.11300594583151302
299,0.2742,552.239,183.481,-0.0630394,318.889,-0.130616,0.0549294,0.151566,-0.0298445,-0.120308,0.314269,-6.15656e-06,1.05308e-05,0.238776,0.16365510051192422,0.3692580174180633,-6.156541048407682e-06,-0.029403550437609005,1.0530855448998011e-05,-0.11335269271325987
300,0.2752,552.254,183.512,-0.0938963,318.903,-0.121375,0.0374424,0.152056,-0.0299431,-0.1207,0.315288,-6.43873e-06,1.04261e-05,0.239561,0.1642254312307898,0.37065400247140223,-6.438709271416876e-06,-0.029499246529641088,1.0426154351872441e-05,-0.11370019034373091
301,0.2762,552.675,184.44,0.0968466,318.894,0.072784,-0.00898832,0.152545,-0.0300373,-0.121092,0.316305,-3.70828e-06,9.8629e-06,0.240343,0.16479487668472803,0.3720486666584475,-3.7082731243476275e-06,-0.029590663394815975,9.862948638472702e-06,-0.11404755178182624
302,0.2772,552.288,183.475,-0.105789,318.938,-0.133195,0.0419385,0.153035,-0.03014,-0.121482,0.317325,-6.78774e-06,1.05828e-05,0.241128,0.1653657660307708,0.3734488702808889,-6.787716963385648e-06,-0.0296903193162662,1.0582855997975926e-05,-0.11439300586870571
303,0.2782,552.347,183.572,-0.0977611,318.951,-0.113386,0.031798,0.153525,-0.0302381,-0.121873,0.318342,-6.90505e-06,1.05553e-05,0.24191,0.1659369351811395,0.3748463782943372,-6.9050261601866225e-06,-0.02978550202715291,1.0555355707264624e-05,-0.1147392105159919
304,0.2792,552.735,184.416,0.0821899,318.944,0.0622934,-0.00773123,0.154013,-0.0303325,-0.122264,0.319357,-4.44467e-06,1.00789e-05,0.242691,0.16650605125853657,0.3762425558085296,-4.444660122504551e-06,-0.02987708595293226,1.0078950792191677e-05,-0.11508527982372152
305,0.2802,552.401,183.575,-0.0917028,318.984,-0.117736,0.0378311,0.154502,-0.0304343,-0.122654,0.320373,-7.14054e-06,1.0724e-05,0.243473,0.16707661220838466,0.3776415288031709,-7.140514506454032e-06,-0.02997583943894455,1.0724057502242701e-05,-0.11543032927557362
306,0.2812,552.453,183.661,-0.0865873,318.996,-0.100096,0.0277863,0.15499,-0.0305322,-0.123043,0.321388,-7.24164e-06,1.06849e-05,0.244254,0.16764628458389663,0.37904054483543415,-7.241613779407352e-06,-0.0300708001558605,1.0684957083784141e-05,-0.11577435995917917
307,0.2822,552.803,184.412,0.0775048,318.991,0.0556143,-0.0053571,0.155477,-0.0306268,-0.123434,0.322401,-5.05825e-06,1.02921e-05,0.245033,0.16821506681172016,0.38043822071066224,-5.058237207089533e-06,-0.030162551118276815,1.0292152963886636e-05,-0.11612002460259363
308,0.2832,552.506,183.666,-0.0797516,319.027,-0.103682,0.0339332,0.155964,-0.0307279,-0.123822,0.323415,-7.4426e-06,1.08505e-05,0.245813,0.16878412610394822,0.38183869498692413,-7.442572303895112e-06,-0.03026059672806969,1.0850558866959403e-05,-0.11646290351023814
309,0.2842,552.551,183.738,-0.0779124,319.039,-0.0889449,0.0242248,0.156451,-0.0308256,-0.124211,0.324427,-7.54408e-06,1.0804e-05,0.246592,0.16935346259554396,0.38323782358591285,-7.54405154346216e-06,-0.030355335639698167,1.0804058363511615e-05,-0.11680653260058138
310,0.2852,552.87,184.414,0.0742532,319.036,0.0505551,-0.00344599,0.156937,-0.0309203,-0.1246,0.325438,-5.58428e-06,1.04827e-05,0.24737,0.16992190649904537,0.3846369841820636,-5.584264407887396e-06,-0.03044715664162001,1.0482754943641481e-05,-0.11715002804520436
311,0.2862,552.602,183.743,-0.0706128,319.069,-0.092489,0.0307225,0.157424,-0.0310209,-0.124988,0.32645,-7.72393e-06,1.097e-05,0.248148,0.1704917972246387,0.38603894608312683,-7.723900170564235e-06,-0.030544688751714455,1.097006017070079e-05,-0.1174925073890336
312,0.2872,553.077,184.809,0.148434,319.052,0.131128,-0.0227844,0.157909,-0.0311135,-0.125377,0.327458,-4.42199e-06,1.02881e-05,0.248924,0.1710596234330175,0.3874367777295713,-4.4219802229905625e-06,-0.03063445615724103,1.0288152922699467e-05,-0.11783573604135822
313,0.2882,553.003,184.647,0.0743424,319.068,0.100208,-0.0349703,0.158394,-0.0312111,-0.125765,0.328467,-4.49983e-06,1.00213e-05,0.249701,0.17162772510390178,0.3888374079374106,-4.49981987582504e-06,-0.030729061617498554,1.0021350213440527e-05,-0.1181779493820928
314,0.2892,552.822,184.056,0.0283785,319.104,-0.0359089,0.0310287,0.158879,-0.0313112,-0.126152,0.329477,-6.35736e-06,1.09161e-05,0.250477,0.1721961023709231,0.3902408423344943,-6.357339792040229e-06,-0.030826080782540455,1.0916159580931506e-05,-0.11851914848939626
315,0.2902,553.043,184.636,0.0763987,319.096,0.0936871,-0.0241657,0.159363,-0.0314055,-0.12654,0.330483,-4.39255e-06,1.01825e-05,0.251252,0.1727635826036089,0.39164012834473527,-4.392540352782248e-06,-0.030917469574073375,1.0182551841930731e-05,-0.11886109671753631
316,0.2912,552.715,183.716,-0.0473656,319.14,-0.111359,0.049182,0.159848,-0.031507,-0.126926,0.331492,-7.38489e-06,1.12044e-05,0.252028,0.17333251089513024,0.39304500187374103,-7.384862731774078e-06,-0.0310158264592153,1.1204462769587309e-05,-0.11920115069956261
317,0.2922,552.723,183.742,-0.078384,319.15,-0.102695,0.0318179,0.160332,-0.0316042,-0.127313,0.332498,-7.60962e-06,1.10821e-05,0.252802,0.17390054128266863,0.3944471102879097,-7.609591046953135e-06,-0.031110007143627993,1.1082161406772428e-05,-0.11954195390456823
318,0.2932,553.078,184.527,0.0866877,319.14,0.0616291,-0.00556571,0.160815,-0.0316978,-0.1277,0.333502,-5.29359e-06,1.06405e-05,0.253575,0.1744676721951981,0.39584783823440484,-5.2935759889960465e-06,-0.03120069100288858,1.0640556610264085e-05,-0.11988262524425108
319,0.2942,552.75,183.719,-0.0854465,319.176,-0.110484,0.0358834,0.161298,-0.0317984,-0.128085,0.334507,-7.86691e-06,1.12248e-05,0.254348,0.1750350770981215,0.39725137046864445,-7.866879055962173e-06,-0.031298147311239144,1.1224862998204799e-05,-0.12022140521420321
320,0.2952,552.796,183.8,-0.0808817,319.185,-0.0934065,0.0258748,0.161781,-0.0318952,-0.128471,0.335511,-7.95027e-06,1.11792e-05,0.255121,0.1756027561238085,0.3986549153062038,-7.950238396725595e-06,-0.03139191311224143,1.1179262487504005e-05,-0.12056093421847702
321,0.2962,553.118,184.499,0.0731505,319.178,0.0516145,-0.00424241,0.162263,-0.031989,-0.128857,0.336513,-5.91371e-06,1.08284e-05,0.255891,0.17616953323457096,0.4000570698934749,-5.913692514014635e-06,-0.03148276428980468,1.082845862732107e-05,-0.12090033218984608
322,0.2972,552.842,183.811,-0.0718932,319.21,-0.0951022,0.0316967,0.162745,-0.0320888,-0.129241,0.337516,-8.11043e-06,1.13367e-05,0.256663,0.17673658359774924,0.40146203160509275,-8.110397110572265e-06,-0.03157941748685378,1.1336764260683196e-05,-0.12123784165632034
323,0.2982,553.319,184.897,0.147852,319.19,0.133572,-0.0240794,0.163226,-0.0321805,-0.129627,0.338516,-4.73292e-06,1.0628e-05,0.257433,0.17730273004176422,0.4028641946013489,-4.732908799764957e-06,-0.031668217582723646,1.0628056477335335e-05,-0.12157697839184012
324,0.2992,553.24,184.727,0.0740083,319.203,0.101136,-0.0353048,0.163707,-0.0322773,-0.130012,0.339517,-4.83056e-06,1.03725e-05,0.258203,0.17786914886772132,0.4042691647303793,-4.8305483328903165e-06,-0.03176194756265738,1.037255379454649e-05,-0.12191510616138712
325,0.3002,553.054,184.134,0.0278085,319.237,-0.0353723,0.0306283,0.164188,-0.0323765,-0.130395,0.340518,-6.69354e-06,1.12624e-05,0.258973,0.17843584020666792,0.40567554193863464,-6.693517598299614e-06,-0.03185799201357564,1.126246342098014e-05,-0.12225134828125106
326,0.3012,553.269,184.706,0.0750844,319.227,0.0930194,-0.0240393,0.164668,-0.0324701,-0.13078,0.341516,-4.74548e-06,1.05381e-05,0.259741,0.1790016251874993,0.407079106391655,-4.7454687401859985e-06,-0.03194860586472881,1.053815552598536e-05,-0.1225892164683634
327,0.3022,552.942,183.797,-0.0461628,319.269,-0.109571,0.0485291,0.165149,-0.0325707,-0.131163,0.342516,-7.70281e-06,1.15443e-05,0.26051,0.1795688613785822,0.4084868892721718,-7.702780333462833e-06,-0.032045986936628745,1.1544366635751757e-05,-0.12292520045341582
328,0.3032,552.949,183.828,-0.0754765,319.276,-0.0998022,0.031131,0.165629,-0.0326671,-0.131546,0.343513,-7.90166e-06,1.14187e-05,0.261278,0.18013519034012115,0.4098918509577978,-7.901628781947778e-06,-0.03213929320605369,1.1418765193615954e-05,-0.12326105578124136
329,0.3042,553.289,184.585,0.0830921,319.265,0.0590051,-0.0050675,0.166108,-0.03276,-0.13193,0.344509,-5.66225e-06,1.09947e-05,0.262044,0.1807006105036124,0.4112968027912203,-5.662233969472297e-06,-0.03222920328932677,1.0994760441862539e-05,-0.12359765890388563
330,0.3052,552.973,183.812,-0.0803186,319.298,-0.105473,0.0347067,0.166587,-0.0328596,-0.132312,0.345506,-8.12293e-06,1.15527e-05,0.262811,0.18126630156823742,0.4127045673576284,-8.122897009132934e-06,-0.03232558846061795,1.155276673259209e-05,-0.1239323806622582
331,0.3062,553.016,183.894,-0.0758219,319.305,-0.0881238,0.0245155,0.167066,-0.0329556,-0.132694,0.346501,-8.18345e-06,1.15001e-05,0.263577,0.18183226366378924,0.4141109079405634,-8.183416515650244e-06,-0.03241848074522469,1.1500166126499067e-05,-0.12426697458133784
332,0.3072,553.316,184.549,0.0693789,319.297,0.0481231,-0.00332494,0.167543,-0.0330487,-0.133077,0.347495,-6.26846e-06,1.11807e-05,0.264341,0.18239613212549366,0.41551723301082455,-6.2684403532298205e-06,-0.03250855839148781,1.118076250428146e-05,-0.1246023161080716
333,0.3082,553.058,183.91,-0.0653771,319.325,-0.0881257,0.0299107,0.168022,-0.0331475,-0.133458,0.348489,-8.30945e-06,1.16494e-05,0.265107,0.18296263553951775,0.41692495666318563,-8.309415476581705e-06,-0.032604141824019495,1.1649467854590867e-05,-0.12493577909690123
334,0.3092,553.497,184.914,0.137331,319.305,0.123557,-0.0217009,0.168499,-0.0332388,-0.133841,0.349481,-5.18017e-06,1.09996e-05,0.26587,0.18352704331722358,0.41833124362320473,-5.180156582906825e-06,-0.03269246103403767,1.0999660495780716e-05,-0.12527086452055236
335,0.3102,553.417,184.748,0.0661333,319.317,0.0918639,-0.0322904,0.168976,-0.0333348,-0.134223,0.350473,-5.30106e-06,1.07618e-05,0.266633,0.184091720381659,0.419738926312055,-5.301045949424044e-06,-0.03278531810056784,1.0761857908381245e-05,-0.12560494723644422
336,0.3112,553.255,184.22,0.0300037,319.347,-0.0301373,0.0284499,0.169453,-0.0334329,-0.134603,0.351466,-6.96261e-06,1.15811e-05,0.267397,0.18465666686130477,0.4211494272637035,-6.962585761050022e-06,-0.03288019720696589,1.1581167061125441e-05,-0.12593715423316743
337,0.3122,553.437,184.719,0.0661626,319.337,0.0824154,-0.0209515,0.169929,-0.033526,-0.134984,0.352455,-5.2516e-06,1.09303e-05,0.268159,0.18522069766341187,0.42255563930450113,-5.251586210341941e-06,-0.03297023186942738,1.093035973598333e-05,-0.12627010874554234
338,0.3132,553.155,183.925,-0.0347524,319.373,-0.0950635,0.0440879,0.170405,-0.0336253,-0.135364,0.353447,-7.84099e-06,1.18314e-05,0.268921,0.18578499700808893,0.4239675146730928,-7.840959259541869e-06,-0.03306625315786682,1.1831469991285815e-05,-0.12660206302891064
339,0.3142,553.595,185.029,0.127198,319.346,0.146161,-0.037086,0.17088,-0.0337155,-0.135745,0.354434,-4.26394e-06,1.0772e-05,0.269681,0.18634837867422083,0.42537366443082814,-4.263930909464975e-06,-0.03315346664844443,1.0772058018249098e-05,-0.12693476425928762
340,0.3152,553.514,184.834,0.0683377,319.359,0.106142,-0.03947,0.171356,-0.0338113,-0.136126,0.355423,-4.44673e-06,1.06141e-05,0.270442,0.18691321492283208,0.4267840563087728,-4.446720113349123e-06,-0.03324608610979651,1.0614156329857849e-05,-0.12726733875464047
341,0.3162,553.322,184.225,0.0250486,319.391,-0.0343471,0.0292523,0.171831,-0.0339094,-0.136504,0.356412,-6.36069e-06,1.15299e-05,0.271203,0.18747713261977061,0.428195843754279,-6.36066977088845e-06,-0.0333409200170699,1.1529966469581154e-05,-0.1275971693586797
342,0.3172,553.532,184.793,0.0736144,319.378,0.0934566,-0.0245372,0.172305,-0.0340018,-0.136885,0.357398,-4.41725e-06,1.08189e-05,0.271962,0.18804013020051813,0.4296047393275948,-4.417240243914655e-06,-0.03343023518963584,1.0818958524616562e-05,-0.12792949152576127
343,0.3182,553.204,183.887,-0.0457645,319.418,-0.108473,0.0479472,0.17278,-0.0341012,-0.137263,0.358385,-7.36634e-06,1.18159e-05,0.272721,0.1886045833093637,0.4310164557727727,-7.366312868573033e-06,-0.03352630744938756,1.1815969807926763e-05,-0.12825907188335262
344,0.3192,553.21,183.924,-0.0723606,319.422,-0.0970465,0.0305682,0.173254,-0.0341964,-0.137641,0.359371,-7.53179e-06,1.16877e-05,0.27348,0.1891681154284135,0.43242813384108336,-7.531761636148104e-06,-0.03361831136546256,1.1687768301404944e-05,-0.1285885276831117
345,0.3202,553.532,184.652,0.0785011,319.41,0.0559809,-0.00464494,0.173727,-0.0342883,-0.13802,0.360354,-5.37252e-06,1.12795e-05,0.274237,0.18973072499368393,0.4338369029932476,-5.3725055680908795e-06,-0.03370711776193158,1.127956361379745e-05,-0.12891873005381804
346,0.3212,553.232,183.92,-0.0743657,319.439,-0.0999208,0.0334448,0.1742,-0.0343865,-0.138398,0.361339,-7.70757e-06,1.18097e-05,0.274994,0.1902936007362248,0.4352499281433364,-7.707540296775228e-06,-0.03380200306402281,1.1809769734805187e-05,-0.12924793654991007
347,0.3222,553.717,185.046,0.148699,319.413,0.138818,-0.026222,0.174673,-0.0344763,-0.138777,0.362321,-4.17661e-06,1.10586e-05,0.27575,0.19085674278196763,0.4366600358223267,-4.17660127793873e-06,-0.03388876374853467,1.1058661146590154e-05,-0.12957788905200895
348,0.3232,553.626,184.859,0.0734802,319.424,0.102755,-0.0358347,0.175145,-0.0345714,-0.139155,0.363304,-4.32335e-06,1.0822e-05,0.276506,0.19141895983734813,0.43807296697942877,-4.323340654366348e-06,-0.033980636558480826,1.0822058557957703e-05,-0.12990684643308537
349,0.3242,553.434,184.263,0.0272525,319.454,-0.0339449,0.0297551,0.175617,-0.0346689,-0.139531,0.364286,-6.18941e-06,1.16989e-05,0.277262,0.1919814423218149,0.4394858482441639,-6.1893908456234215e-06,-0.03407481885495478,1.1698968432449774e-05,-0.13023393996138954
350,0.3252,553.635,184.817,0.0718413,319.441,0.0910172,-0.0236738,0.176089,-0.0347608,-0.139909,0.365266,-4.2898e-06,1.09959e-05,0.278016,0.19254419036068038,0.44089723584240836,-4.289790798805981e-06,-0.034163583300313216,1.0995960455062459e-05,-0.13056264940208595
351,0.3262,553.316,183.937,-0.0429529,319.478,-0.105192,0.0469736,0.176561,-0.0348595,-0.140285,0.366248,-7.15657e-06,1.19654e-05,0.278772,0.1931072040793158,0.4423128919013679,-7.156544391762054e-06,-0.0342589066503568,1.1965471585773102e-05,-0.1308894963948254
352,0.3272,553.321,183.975,-0.069169,319.482,-0.0933856,0.0295101,0.177032,-0.0349541,-0.140661,0.367227,-7.30403e-06,1.18325e-05,0.279525,0.1936692899332646,0.4437256076340568,-7.3040033256033254e-06,-0.03435026143663822,1.1832570004255416e-05,-0.13121622051619686
353,0.3282,553.629,184.673,0.075808,319.469,0.0534232,-0.00398655,0.177502,-0.0350455,-0.141038,0.368205,-5.23113e-06,1.14478e-05,0.280278,0.19423044636096365,0.4451382619536868,-5.2311163176721465e-06,-0.03443851778936613,1.1447865526204026e-05,-0.13154369026913526
354,0.3292,553.343,183.976,-0.0698911,319.496,-0.0950123,0.0321327,0.177973,-0.0351431,-0.141413,0.369184,-7.45554e-06,1.19492e-05,0.281031,0.19479306138663732,0.4465537450780741,-7.455512207488191e-06,-0.034532751991325994,1.1949271391920036e-05,-0.13186930032958233
355,0.3302,553.802,185.045,0.141451,319.471,0.131732,-0.0245183,0.178442,-0.0352325,-0.14179,0.37016,-4.09973e-06,1.12405e-05,0.281782,0.1953535507569113,0.447966270733662,-4.09972159609584e-06,-0.034619060905232035,1.1240563174697016e-05,-0.13219652391783598
356,0.3312,553.711,184.86,0.0681409,319.48,0.096313,-0.033739,0.178911,-0.0353271,-0.142165,0.371137,-4.26084e-06,1.10154e-05,0.282534,0.19591430305835233,0.44938162506817814,-4.260830922642178e-06,-0.03471038162253237,1.1015460669838717e-05,-0.13252188921156138
357,0.3322,553.535,184.31,0.0286426,319.508,-0.0304612,0.0282653,0.179381,-0.0354238,-0.14254,0.372113,-5.98937e-06,1.18439e-05,0.283285,0.19647651489022078,0.45079691208196015,-5.989352063751063e-06,-0.03480372061561643,1.1843970139313598e-05,-0.13284713251617597
358,0.3332,553.716,184.814,0.0659528,319.496,0.0838548,-0.0215827,0.17985,-0.0355154,-0.142915,0.373088,-4.24927e-06,1.11905e-05,0.284035,0.1970377939853638,0.452212128877316,-4.249260971866953e-06,-0.03489212854566304,1.1190562613894173e-05,-0.13317225387741716
359,0.3342,553.427,184.011,-0.0355515,319.53,-0.0955727,0.0439734,0.180319,-0.0356131,-0.143289,0.374063,-6.87034e-06,1.20893e-05,0.284786,0.197599336382142,0.4536287261819363,-6.870316399232301e-06,-0.03498641497873689,1.2089373075951926e-05,-0.13349638683782517
360,0.3352,553.86,185.111,0.124221,319.499,0.145528,-0.0373361,0.180786,-0.0357019,-0.143664,0.375035,-3.29101e-06,1.10368e-05,0.285534,0.19815874588418425,0.45504234020890566,-3.291004584626833e-06,-0.035072104380420965,1.1036860905644374e-05,-0.13382126477434075
361,0.3362,553.772,184.906,0.0652732,319.51,0.103359,-0.038445,0.181254,-0.0357962,-0.144038,0.376008,-3.5171e-06,1.08983e-05,0.286283,0.1987196154104902,0.4564587853947626,-3.517093814964234e-06,-0.03516309279080698,1.089835938672401e-05,-0.1341451550500582
362,0.3372,553.586,184.322,0.025507,319.539,-0.0313062,0.0277521,0.181722,-0.0358928,-0.144411,0.376982,-5.35113e-06,1.17745e-05,0.287031,0.1992807474851661,0.4578780673298364,-5.351115682783458e-06,-0.03525629153447152,1.1774569319777939e-05,-0.13446805868195344
363,0.3382,553.776,184.849,0.0681096,319.525,0.0877961,-0.022992,0.182188,-0.0359839,-0.144785,0.377952,-3.536e-06,1.11084e-05,0.287778,0.1998397425492282,0.4592928951356978,-3.535993748360333e-06,-0.035344175683128976,1.1108461698494665e-05,-0.1347917071019793
364,0.3392,553.471,184.008,-0.0393211,319.56,-0.0998355,0.0450781,0.182656,-0.0360815,-0.145158,0.378924,-6.27816e-06,1.20374e-05,0.288526,0.20040139896609155,0.4607120174114654,-6.278140292415024e-06,-0.03543832149719184,1.2037472449710762e-05,-0.13511436961493062
365,0.3402,553.475,184.048,-0.0643637,319.562,-0.087784,0.0278644,0.183122,-0.0361751,-0.14553,0.379894,-6.40253e-06,1.19019e-05,0.289273,0.2009609163754409,0.46212959548256904,-6.402509503899978e-06,-0.035528600245188446,1.1901970827787878e-05,-0.13543604723368718
366,0.3412,553.762,184.7,0.0716199,319.549,0.0496592,-0.00309949,0.183588,-0.0362658,-0.145903,0.380863,-4.45948e-06,1.15515e-05,0.290018,0.2015206945806638,0.4635470857236994,-4.459470056561443e-06,-0.03561607383415899,1.1551566718726036e-05,-0.13575846945258696
367,0.3422,553.495,184.054,-0.0632056,319.573,-0.0877356,0.0302004,0.184054,-0.0363622,-0.146275,0.381832,-6.52032e-06,1.20114e-05,0.290764,0.20208073370331925,0.46496595017857256,-6.520298742707098e-06,-0.03570903596379471,1.2011472137141155e-05,-0.13607990751076493
368,0.3432,553.916,185.038,0.130648,319.55,0.121256,-0.0220464,0.184519,-0.0364511,-0.146648,0.382798,-3.42372e-06,1.13646e-05,0.291507,0.20263983122459073,0.46638179102747523,-3.4237141390836e-06,-0.035794757620113415,1.1364664577406813e-05,-0.13640208961456568
369,0.3442,553.827,184.859,0.0603855,319.558,0.0868869,-0.0306678,0.184984,-0.0365448,-0.14702,0.383766,-3.60441e-06,1.11564e-05,0.292252,0.20319918878666443,0.46780193584038665,-3.604403504109399e-06,-0.03588509941874507,1.1156462232930764e-05,-0.13672328829057123
370,0.3452,553.674,184.374,0.0304349,319.582,-0.0254895,0.0260756,0.185449,-0.0366403,-0.147391,0.384733,-5.13366e-06,1.1914e-05,0.292996,0.2037588065104874,0.46922198679632543,-5.1336468227525245e-06,-0.03597716799540607,1.1914070972007806e-05,-0.137043504546827
371,0.3462,553.826,184.808,0.0575868,319.571,0.0735496,-0.0185597,0.185913,-0.0367313,-0.147763,0.385698,-3.62272e-06,1.13324e-05,0.293739,0.20431748019898066,0.47064047032180767,-3.622713438011793e-06,-0.036064890081702994,1.1332464211921689e-05,-0.13736446466085306
372,0.3472,553.579,184.115,-0.025277,319.6,-0.0818721,0.0396232,0.186377,-0.0368277,-0.148133,0.386664,-5.89246e-06,1.21291e-05,0.294482,0.20487641317221472,0.4720617954056274,-5.89244263948796e-06,-0.03615780894753784,1.2129173557751116e-05,-0.13768358076880804
373,0.3482,553.947,185.056,0.106806,319.574,0.125257,-0.0316511,0.186841,-0.0369163,-0.148504,0.387627,-2.8137e-06,1.12132e-05,0.295223,0.20543560555052576,0.473480073705999,-2.8136960416036416e-06,-0.036243201582715545,1.1213262868237095e-05,-0.13800344082263394
374,0.3492,553.865,184.868,0.0526915,319.583,0.0865932,-0.0327969,0.187304,-0.0370097,-0.148875,0.388591,-3.05053e-06,1.10917e-05,0.295965,0.20599385145985116,0.4749011933666747,-3.0505253471035942e-06,-0.03633321226412345,1.1091761513037923e-05,-0.1383231822303902
375,0.3502,553.719,184.396,0.0288344,319.607,-0.0234171,0.0244163,0.187767,-0.0371048,-0.149244,0.389554,-4.54325e-06,1.185e-05,0.296706,0.20655235589687715,0.4763222073242903,-4.54323967946646e-06,-0.03642485261806927,1.1850070211538721e-05,-0.13864108231997352
376,0.3512,553.864,184.809,0.055068,319.596,0.0709952,-0.0179545,0.188229,-0.0371956,-0.149615,0.390516,-3.09971e-06,1.1298e-05,0.297446,0.20710991187081418,0.47774311263360936,-3.0997051958525645e-06,-0.03651234126940661,1.1298063822717808e-05,-0.13896058720661153
377,0.3522,553.628,184.146,-0.0229105,319.623,-0.0780593,0.038253,0.188692,-0.0372915,-0.149983,0.391478,-5.27597e-06,1.20664e-05,0.298186,0.20766893316345314,0.479165385511531,-5.275956082129163e-06,-0.036604735305514,1.2066472799387995e-05,-0.13927739141496998
378,0.3532,553.977,185.044,0.102123,319.598,0.119719,-0.0300659,0.189154,-0.0373799,-0.150354,0.392437,-2.33461e-06,1.11909e-05,0.298925,0.20822700511526926,0.4805845855138702,-2.334607274834255e-06,-0.036689895682768925,1.1190962618368161e-05,-0.1395966602747195
379,0.3542,553.897,184.859,0.0492802,319.607,0.0819576,-0.0312024,0.189615,-0.037473,-0.150723,0.393397,-2.57549e-06,1.10744e-05,0.299664,0.20878412617116404,0.4820066291877141,-2.5754866834759582e-06,-0.03677957567881229,1.1074461321314288e-05,-0.13991409053759285
380,0.3552,553.763,184.418,0.0296546,319.629,-0.0212173,0.0234555,0.190077,-0.0375676,-0.151091,0.394357,-3.97365e-06,1.17991e-05,0.300402,0.2093427134611836,0.4834300386789723,-3.973642105026265e-06,-0.03687069202108206,1.179916960958316e-05,-0.1402305439212811
381,0.3562,553.895,184.8,0.0514522,319.619,0.0663157,-0.0165455,0.190537,-0.0376582,-0.15146,0.395315,-2.63366e-06,1.12794e-05,0.30114,0.20989913907745583,0.48485184559279815,-2.6336565319695637e-06,-0.03695794758364834,1.1279463612678953e-05,-0.14054774032423867
382,0.3572,553.678,184.186,-0.0184813,319.645,-0.072004,0.0363146,0.190998,-0.0377535,-0.151827,0.396274,-4.65257e-06,1.20024e-05,0.301877,0.2104570311648164,0.4862765015260557,-4.652559176809845e-06,-0.03704972111816518,1.2002472029148947e-05,-0.14086310143123681
383,0.3582,553.999,185.015,0.0948061,319.621,0.110898,-0.0275397,0.191458,-0.0378419,-0.152196,0.39723,-1.93087e-06,1.11867e-05,0.302613,0.21101396948514517,0.4876980612587991,-1.9308681358243263e-06,-0.03713484216041285,1.1186762571391284e-05,-0.14118006446353282
384,0.3592,553.922,184.839,0.0441592,319.629,0.074931,-0.0288162,0.191918,-0.0379346,-0.152564,0.398187,-2.17145e-06,1.10758e-05,0.303349,0.2115711640560345,0.4891224697741865,-2.171447642362878e-06,-0.03722409562358264,1.1075861336973247e-05,-0.14149605205452742
385,0.3602,553.805,184.443,0.0308812,319.65,-0.0181323,0.0221299,0.192378,-0.0380287,-0.152931,0.399143,-3.42962e-06,1.17525e-05,0.304085,0.2121286149953865,0.4905467515535058,-3.4296141188105977e-06,-0.037314688573719335,1.1752569060829998e-05,-0.14181106519497644
386,0.3612,553.919,184.781,0.0464021,319.64,0.0596268,-0.0145146,0.192837,-0.0381192,-0.153298,0.400098,-2.23714e-06,1.12781e-05,0.30482,0.21268510973544208,0.49197090362561546,-2.237137497584918e-06,-0.03740180765220569,1.1278163597916446e-05,-0.14212596274681466
387,0.3622,553.729,184.236,-0.0122589,319.664,-0.0635039,0.0336163,0.193296,-0.0382138,-0.153664,0.401053,-4.03294e-06,1.19379e-05,0.305555,0.2132418599652135,0.4933964164125917,-4.0329318676812775e-06,-0.03749286513411498,1.1937971257092173e-05,-0.14243988719277134
388,0.3632,554.012,184.969,0.0849029,319.643,0.0986739,-0.0239937,0.193754,-0.0383024,-0.154032,0.402005,-1.61781e-06,1.12049e-05,0.306288,0.213797652003739,0.4948188067513912,-1.6178086913454237e-06,-0.037578139488554374,1.1204962775179794e-05,-0.14275541125429636
389,0.3642,553.622,183.953,-0.0689174,319.68,-0.124669,0.0488112,0.194213,-0.0383991,-0.154397,0.40296,-4.91211e-06,1.21794e-05,0.307022,0.21435491300762544,0.4962470405849455,-4.912097935627635e-06,-0.03767120118286038,1.2179474169204951e-05,-0.1430682484329303
390,0.3652,553.651,184.047,-0.0752121,319.679,-0.101847,0.0323607,0.194671,-0.0384908,-0.154763,0.403912,-4.93437e-06,1.20677e-05,0.307755,0.21491121494120136,0.4976721460101332,-4.934357826003044e-06,-0.03775944268777709,1.206777281503868e-05,-0.14338182806543054
391,0.3662,553.959,184.767,0.0665706,319.662,0.0512744,-0.00542061,0.195128,-0.0385795,-0.155129,0.404862,-2.77618e-06,1.16356e-05,0.308486,0.21546655625225375,0.49909561058746066,-2.776176146412901e-06,-0.03784478964001736,1.1635667693798979e-05,-0.1436952929487858
392,0.3672,553.68,184.086,-0.0660934,319.686,-0.0947525,0.0328902,0.195586,-0.0386744,-0.155494,0.405814,-4.97572e-06,1.21555e-05,0.309219,0.2160233674350449,0.5005234291425358,-4.975707621146519e-06,-0.037936093837027896,1.2155573878347425e-05,-0.1440077871332015
393,0.3682,554.115,185.124,0.129439,319.658,0.127349,-0.0253877,0.196042,-0.0387613,-0.15586,0.406763,-1.68207e-06,1.14376e-05,0.309949,0.21657800053733212,0.5019481017770353,-1.6820685853069506e-06,-0.038019693558012935,1.1437665409674835e-05,-0.1443210229574582
394,0.3692,554.02,184.931,0.0604134,319.665,0.0896889,-0.0317404,0.196498,-0.0388534,-0.156225,0.407712,-1.9036e-06,1.12543e-05,0.31068,0.21713288660998664,0.5033741270675989,-1.9035981881909692e-06,-0.0381082878644059,1.1254363329937789e-05,-0.14463328879209714
395,0.3702,553.86,184.434,0.0287042,319.688,-0.0250862,0.0254076,0.196955,-0.0389472,-0.156589,0.408662,-3.46816e-06,1.20088e-05,0.31141,0.2176892434570239,0.5048030111007649,-3.468153985886069e-06,-0.038198509075563214,1.2008872105839785e-05,-0.14494458561551782
396,0.3712,554.008,184.864,0.0563271,319.675,0.0734352,-0.0186528,0.197411,-0.0390365,-0.156954,0.409609,-1.96191e-06,1.14387e-05,0.312139,0.2182446363720012,0.5062287345257688,-1.961908075442942e-06,-0.03828439411387874,1.1438765422200348e-05,-0.14525662389131855
397,0.3722,553.762,184.179,-0.0250037,319.702,-0.0803925,0.0388058,0.197867,-0.0391312,-0.157318,0.410558,-4.21235e-06,1.22162e-05,0.312869,0.2188002826038995,0.5076588240649917,-4.21234112801816e-06,-0.03837546426951621,1.2216274618115364e-05,-0.14556769386205282
398,0.3732,554.116,185.095,0.101968,319.675,0.121914,-0.0310027,0.198321,-0.0392182,-0.157683,0.411503,-1.19961e-06,1.13286e-05,0.313597,0.2193537435583317,0.5090842350543483,-1.1996092804666958e-06,-0.03845912196496226,1.1328664168752667e-05,-0.14587950474484523
399,0.3742,554.03,184.901,0.0486539,319.683,0.0820324,-0.0310669,0.198776,-0.03931,-0.158046,0.412449,-1.47313e-06,1.12257e-05,0.314325,0.21990867574915063,0.5105125042055032,-1.4731289149638727e-06,-0.038547387366121955,1.1225763008493317e-05,-0.14618949421812955
400,0.3752,553.896,184.464,0.0290837,319.704,-0.0199511,0.0226771,0.199231,-0.0394032,-0.158409,0.413395,-2.85586e-06,1.19333e-05,0.315053,0.2204638604915672,0.511942125138567,-2.8558559220792645e-06,-0.03863699057404513,1.1933371202088594e-05,-0.14649937118565615
401,0.3762,554.02,184.831,0.049223,319.693,0.0643646,-0.0160056,0.199685,-0.0394925,-0.158773,0.414339,-1.56214e-06,1.14337e-05,0.315779,0.2210180768818315,0.5133700723897592,-1.562138779886979e-06,-0.03872283645771102,1.1433765364943227e-05,-0.14680998887869479
402,0.3772,553.811,184.242,-0.0166454,319.716,-0.068585,0.0349902,0.200139,-0.0395864,-0.159135,0.415284,-3.50481e-06,1.21257e-05,0.316506,0.22157254494346224,0.5148008830597299,-3.504803858134231e-06,-0.038813096145609016,1.2125773516613592e-05,-0.1471187877667498
403,0.3782,554.113,185.027,0.0888554,319.693,0.105276,-0.0261013,0.200592,-0.0396737,-0.159498,0.416226,-9.13274e-07,1.13522e-05,0.317231,0.22212604266409008,0.5162284977925435,-9.13273582980878e-07,-0.03889700409968,1.1352264436492732e-05,-0.1474283274619368
404,0.3792,553.696,183.945,-0.0751488,319.731,-0.13261,0.051075,0.201046,-0.0397697,-0.159859,0.417171,-4.42756e-06,1.23752e-05,0.317958,0.22268101385638772,0.5176620109512446,-4.427550198360386e-06,-0.03898926555866555,1.2375276573051153e-05,-0.14773605028841097
405,0.3802,553.732,184.057,-0.0770838,319.729,-0.105908,0.0340585,0.201499,-0.0398604,-0.160221,0.418112,-4.40819e-06,1.22614e-05,0.318682,0.22323501382718436,0.5190908030447992,-4.4081802839102124e-06,-0.03907642527952626,1.2261475171193581e-05,-0.14804451400290575
406,0.3812,554.042,184.792,0.064171,319.711,0.0511669,-0.00598125,0.201951,-0.039948,-0.160584,0.419052,-2.1943e-06,1.18045e-05,0.319406,0.22378804102816607,0.5205194197443161,-2.1942975925171027e-06,-0.039160598497831045,1.180456967331267e-05,-0.14835371772045258
407,0.3822,553.764,184.109,-0.0655678,319.734,-0.0956878,0.0334825,0.202404,-0.0400419,-0.160945,0.419994,-4.41068e-06,1.23355e-05,0.32013,0.22434254259587472,0.5219524238766953,-4.410670273014006e-06,-0.039250817081803224,1.2335576082600497e-05,-0.14866110654133513
408,0.3832,554.195,185.147,0.126321,319.705,0.127141,-0.0260245,0.202855,-0.0401278,-0.161307,0.420932,-1.10296e-06,1.16069e-05,0.320853,0.22489484561755524,0.523380685000038,-1.1029593917077918e-06,-0.03933334189212456,1.1606967360355824e-05,-0.14896923544607055
409,0.3842,554.098,184.949,0.0584389,319.712,0.0883472,-0.0313165,0.203307,-0.0402189,-0.161668,0.421872,-1.34742e-06,1.14379e-05,0.321576,0.22544862323208692,0.5248133360844569,-1.3474190921902718e-06,-0.03942085463841216,1.1437965413030327e-05,-0.1492764021051567
410,0.3852,553.942,184.465,0.0284553,319.734,-0.0235596,0.0245614,0.203758,-0.0403117,-0.162028,0.422811,-2.87323e-06,1.21719e-05,0.322298,0.2260014252086402,0.5262458082474673,-2.873225872224161e-06,-0.03950999224705265,1.2171974077768155e-05,-0.1495826074801243
411,0.3862,554.082,184.876,0.0536547,319.72,0.0706942,-0.0178674,0.204209,-0.0404001,-0.162389,0.423748,-1.42951e-06,1.16257e-05,0.32302,0.22655447655511374,0.5276765707773599,-1.429508978301186e-06,-0.03959489581094522,1.1625767578626878e-05,-0.149889552751869
412,0.3872,553.847,184.222,-0.0223497,319.746,-0.0762005,0.0373319,0.20466,-0.0404937,-0.162749,0.424686,-3.5802e-06,1.23686e-05,0.323741,0.22710777738399845,0.529110203669461,-3.5801935911461413e-06,-0.03968478552179322,1.2368676491458785e-05,-0.15019553743233116
413,0.3882,554.18,185.088,0.0956869,319.719,0.115398,-0.0292427,0.20511,-0.0405799,-0.163109,0.425621,-7.22935e-07,1.1528e-05,0.324461,0.22766010014712257,0.5305405903114404,-7.229347386283891e-07,-0.039767561125601425,1.1528066447663576e-05,-0.15050141197813383
414,0.3892,554.095,184.897,0.044109,319.727,0.0761316,-0.0289403,0.20556,-0.0406707,-0.163469,0.426557,-1.01022e-06,1.14359e-05,0.325181,0.228212671511421,0.5319738469634459,-1.0102194897276817e-06,-0.039854746272785624,1.1435965390216296e-05,-0.15080717642891828
415,0.3902,553.974,184.501,0.0296925,319.745,-0.0168042,0.0212073,0.20601,-0.0407628,-0.163828,0.427493,-2.26816e-06,1.20949e-05,0.325901,0.22876549158878978,0.5334084457717088,-2.268157427764983e-06,-0.03994317157860605,1.2094973143694787e-05,-0.15111198193671804
416,0.3912,554.082,184.824,0.0441158,319.735,0.0579617,-0.0140438,0.206459,-0.0408513,-0.164188,0.428427,-1.11753e-06,1.16425e-05,0.32662,0.22931733117322906,0.534841318307369,-1.1175293755938398e-06,-0.040028132848329734,1.16425677740839e-05,-0.15141752662187757
417,0.3922,553.898,184.303,-0.0109533,319.756,-0.0600633,0.0321466,0.206908,-0.0409439,-0.164546,0.429361,-2.84205e-06,1.22679e-05,0.327339,0.22986941858927556,0.5362755297711599,-2.842045961348738e-06,-0.04011702212759083,1.2267975251001317e-05,-0.1517212647749736
418,0.3932,554.16,184.991,0.0783231,319.735,0.0928588,-0.0225266,0.207356,-0.0410307,-0.164906,0.430293,-5.58701e-07,1.15813e-05,0.328057,0.2304205235270922,0.5377080059951367,-5.587008439222885e-07,-0.04020033635418041,1.158136706358448e-05,-0.1520265901577882
419,0.3942,553.799,184.048,-0.0610487,319.768,-0.11504,0.0458927,0.207805,-0.041125,-0.165263,0.431227,-3.63212e-06,1.24849e-05,0.328775,0.2309731063877245,0.5391448961960035,-3.6321134038175273e-06,-0.040290841195091964,1.2484977936599861e-05,-0.15232926263485003
420,0.3952,553.828,184.146,-0.065894,319.766,-0.0912138,0.0294144,0.208253,-0.0412148,-0.165621,0.432159,-3.60253e-06,1.23632e-05,0.329492,0.23152470588844887,0.5405800479160756,-3.6025235109482523e-06,-0.04037701920810188,1.236327642462065e-05,-0.15263267444487227
421,0.3962,554.097,184.78,0.0588494,319.75,0.0441399,-0.00359734,0.208701,-0.0413018,-0.165979,0.433089,-1.68944e-06,1.19966e-05,0.330208,0.2320765525611117,0.5420134537910568,-1.6894385729271377e-06,-0.0404605027758429,1.1996671959391136e-05,-0.15293597765290734
422,0.3972,553.858,184.198,-0.0539694,319.769,-0.0809818,0.0292115,0.209149,-0.0413943,-0.166336,0.43402,-3.57968e-06,1.24364e-05,0.330925,0.23262864651647108,0.5434497368025353,-3.5796735929904955e-06,-0.04054925607443283,1.2436477332400386e-05,-0.1532383255365769
423,0.3982,554.224,185.078,0.109896,319.745,0.107987,-0.0206457,0.209595,-0.04148,-0.166695,0.434949,-7.68592e-07,1.1836e-05,0.331639,0.23317852150582508,0.544884267844522,-7.685917046140744e-07,-0.04063147747994966,1.183607004562326e-05,-0.15354225841849267
424,0.3992,553.757,183.928,-0.0995474,319.782,-0.140098,0.0472749,0.210043,-0.0415749,-0.167051,0.43588,-4.45387e-06,1.27145e-05,0.332355,0.2337311092538732,0.5463232248284253,-4.453860081521377e-06,-0.04072251723283227,1.2714580829520372e-05,-0.15384354374252607
425,0.4002,553.814,184.073,-0.0817752,319.779,-0.10816,0.0339052,0.210489,-0.0416642,-0.167407,0.436808,-4.3659e-06,1.26473e-05,0.33307,0.23428147605127303,0.5477588788214889,-4.365890469482103e-06,-0.04080817688728289,1.2647379977526185e-05,-0.1541447218280736
426,0.4012,554.122,184.807,0.0575608,319.76,0.0492047,-0.00682114,0.210935,-0.0417505,-0.167765,0.437735,-2.1476e-06,1.21847e-05,0.333783,0.2348320883670112,0.549194316524739,-2.14759769390227e-06,-0.040890951569838574,1.2184774233814366e-05,-0.15444748382002904
427,0.4022,553.855,184.146,-0.0622881,319.782,-0.0936127,0.0333137,0.211381,-0.0418431,-0.16812,0.438663,-4.30869e-06,1.27192e-05,0.334497,0.23538294631061318,0.5506326361275482,-4.308680717657332e-06,-0.04097976095578515,1.2719280889417206e-05,-0.1547476016891992
428,0.4032,554.267,185.149,0.118546,319.754,0.122713,-0.0257738,0.211826,-0.0419279,-0.168477,0.439588,-1.09246e-06,1.20021e-05,0.335209,0.2359328140582213,0.5520676349005802,-1.0924594032735158e-06,-0.0410610824239771,1.2002172025571411e-05,-0.15504930293851893
429,0.4042,554.171,184.952,0.0537509,319.759,0.0835842,-0.0297456,0.212271,-0.0420177,-0.168833,0.440514,-1.36082e-06,1.18542e-05,0.335922,0.23648292655142877,0.5535055151663157,-1.3608190740921344e-06,-0.04114719127243027,1.1854270261402178e-05,-0.15535005185019024
430,0.4052,554.028,184.503,0.0285003,319.779,-0.0204737,0.0229935,0.212716,-0.042109,-0.169188,0.441439,-2.7789e-06,1.25434e-05,0.336634,0.237033283899172,0.5549431725818912,-2.7788961388663935e-06,-0.04123473053763882,1.2543478668858299e-05,-0.15564984936457615
431,0.4062,554.151,184.873,0.0486085,319.767,0.0647345,-0.016052,0.21316,-0.0421964,-0.169544,0.442363,-1.46953e-06,1.20445e-05,0.337345,0.23758264862716794,0.5563806040644315,-1.4695289202171224e-06,-0.04131852296040761,1.2044572535341302e-05,-0.1559503845197706
432,0.4072,553.941,184.284,-0.0170054,319.789,-0.0678974,0.0345106,0.213605,-0.0422883,-0.169899,0.443288,-3.41276e-06,1.27212e-05,0.338056,0.2381334954601373,0.557820922167616,-3.4127541765904823e-06,-0.04140662173994669,1.2721280914895772e-05,-0.15624996895388277
433,0.4082,554.234,185.055,0.0849261,319.765,0.103153,-0.0257464,0.214048,-0.0423737,-0.170254,0.44421,-8.56281e-07,1.19682e-05,0.338766,0.2386821101077985,0.5592578954007195,-8.562806333989315e-07,-0.04148848211896217,1.1968271619089421e-05,-0.15654944705439622
434,0.4092,553.831,184.006,-0.0708684,319.801,-0.127808,0.0496668,0.214493,-0.0424676,-0.170608,0.445134,-4.27713e-06,1.29531e-05,0.339477,0.2392334463100032,0.5606993155296149,-4.2771208530467675e-06,-0.041578482124924765,1.2953183891717401e-05,-0.1568479757074498
435,0.4102,553.87,184.129,-0.0702084,319.798,-0.098752,0.032309,0.214936,-0.0425563,-0.170962,0.446056,-4.1983e-06,1.28295e-05,0.340186,0.23978254834383894,0.5621389438652125,-4.198291187140768e-06,-0.04166349034339012,1.2829582298312658e-05,-0.1571463987000633
436,0.4112,554.151,184.801,0.0572461,319.78,0.0453847,-0.00464425,0.215379,-0.0426423,-0.171317,0.446976,-2.16188e-06,1.24176e-05,0.340895,0.24033189368376418,0.5635767729935526,-2.1618776631093795e-06,-0.041745903739393686,1.2417677098808255e-05,-0.15744555862449638
437,0.4122,553.904,184.196,-0.0557657,319.8,-0.0849106,0.0307214,0.215822,-0.0427339,-0.17167,0.447897,-4.13485e-06,1.28872e-05,0.341604,0.2408814824375869,0.5650174905500747,-4.134841451564064e-06,-0.04183367579458963,1.2887283040274866e-05,-0.15774292785354505
438,0.4132,554.28,185.108,0.109873,319.774,0.111622,-0.0223775,0.216263,-0.0428185,-0.172024,0.448816,-1.20836e-06,1.22501e-05,0.34231,0.24142883185301733,0.5664564027027537,-1.2083592699774215e-06,-0.04191473323683936,1.2250175032813004e-05,-0.15804103408916803
439,0.4142,554.188,184.921,0.0474218,319.779,0.0747194,-0.0266524,0.216705,-0.0429076,-0.172378,0.449735,-1.47669e-06,1.21076e-05,0.343018,0.24197766467981596,0.5678966378235115,-1.4766889097073133e-06,-0.04200009483119238,1.2107673297290233e-05,-0.15833903481386025
440,0.4152,554.066,184.53,0.0298675,319.797,-0.0165906,0.0213316,0.217147,-0.0429981,-0.17273,0.450654,-2.71779e-06,1.27359e-05,0.343725,0.24252674014434294,0.569338197128715,-2.7177863067828767e-06,-0.04208678989959913,1.273598110196339e-05,-0.15863524733714318
441,0.4162,554.168,184.844,0.0424578,319.786,0.0564954,-0.0135063,0.217589,-0.0430851,-0.173084,0.451572,-1.59153e-06,1.22932e-05,0.344431,0.2430760583538678,0.5707795110555525,-1.5915287334689054e-06,-0.04217012472376047,1.229327556173665e-05,-0.15893303774757328
442,0.4172,553.99,184.341,-0.00985152,319.805,-0.0575302,0.0311613,0.21803,-0.043176,-0.173436,0.45249,-3.26093e-06,1.28921e-05,0.345138,0.2436243757907104,0.5722221487160755,-3.260924683168298e-06,-0.04225718750235985,1.2892183103518917e-05,-0.15922904121861892
443,0.4182,554.237,184.996,0.0733359,319.785,0.0885348,-0.0214223,0.21847,-0.0432613,-0.173789,0.453406,-1.07455e-06,1.22392e-05,0.345843,0.24417169091655588,0.5736629639969544,-1.0745494226638286e-06,-0.04233887948005355,1.2239274899350505e-05,-0.15952578098941783
444,0.4192,553.898,184.107,-0.0552981,319.815,-0.107863,0.043752,0.218911,-0.0433539,-0.17414,0.454323,-3.98393e-06,1.30904e-05,0.346548,0.24472049163391407,0.5751066747751648,-3.98392206413245e-06,-0.04242755479408333,1.3090485679656538e-05,-0.15982073567271537
445,0.4202,553.927,184.208,-0.0592322,319.812,-0.0834269,0.0272936,0.219352,-0.043442,-0.174492,0.455238,-3.91801e-06,1.29624e-05,0.347253,0.24526953442576205,0.5765485569430775,-3.918002324576619e-06,-0.042511913210463104,1.2962484012168929e-05,-0.16011642672907966
446,0.4212,554.169,184.781,0.0533668,319.797,0.0391477,-0.0022954,0.219791,-0.0435277,-0.174844,0.456152,-2.18066e-06,1.26426e-05,0.347956,0.24581632776373108,0.577990181045978,-2.1806576223637464e-06,-0.042593966423470575,1.264267991807344e-05,-0.1604120137205084
447,0.4222,553.958,184.268,-0.0456704,319.814,-0.0712224,0.0265989,0.220231,-0.0436183,-0.175194,0.457067,-3.85231e-06,1.3026e-05,0.34866,0.24636460756065692,0.5794347028295685,-3.852302579820943e-06,-0.04268070348086461,1.302608483877421e-05,-0.16070581809694118
448,0.4232,554.277,185.038,0.0964465,319.792,0.0945874,-0.0173109,0.22067,-0.0437029,-0.175546,0.457979,-1.37823e-06,1.25077e-05,0.349362,0.2469118817412692,0.5808758043209434,-1.3782290502195593e-06,-0.04276168926760304,1.2507778221593213e-05,-0.16100119765911813
449,0.4242,553.875,184.045,-0.0820646,319.824,-0.120317,0.0419608,0.221109,-0.0437956,-0.175896,0.458893,-4.57737e-06,1.32656e-05,0.350066,0.2474593962279905,0.5823213853359805,-4.577359523860736e-06,-0.04285042114622184,1.3265687988539554e-05,-0.1612947958572557
450,0.4252,553.924,184.175,-0.0681274,319.821,-0.0911038,0.0287949,0.221548,-0.0438833,-0.176247,0.459805,-4.46828e-06,1.31854e-05,0.350767,0.24800715112633775,0.5837651206826571,-4.468270017210507e-06,-0.04293435948353741,1.3185486927858037e-05,-0.16158912972529405
451,0.4262,554.182,184.791,0.0508324,319.804,0.0407898,-0.00400693,0.221986,-0.0439686,-0.176597,0.460716,-2.60186e-06,1.28255e-05,0.351468,0.24855389798735272,0.5852085881071805,-2.6018566151586597e-06,-0.04301599370092457,1.2825582247133482e-05,-0.16188252218321508
452,0.4272,553.963,184.25,-0.0484712,319.822,-0.0761193,0.0282999,0.222424,-0.044059,-0.176947,0.461628,-4.37475e-06,1.32524e-05,0.35217,0.24910088437594569,0.586654957783856,-4.374740430801438e-06,-0.043102501144898664,1.325248781336441e-05,-0.1621758119717439
453,0.4282,554.297,185.065,0.0985451,319.799,0.0999181,-0.0194495,0.222861,-0.044143,-0.177298,0.462536,-1.74846e-06,1.26864e-05,0.352869,0.24964686074956677,0.5880962947534805,-1.7484584714511087e-06,-0.04318287715896263,1.2686480472812178e-05,-0.1624698366573908
454,0.4292,553.875,184.017,-0.0864046,319.832,-0.12738,0.0443908,0.223299,-0.0442356,-0.177646,0.463448,-5.13408e-06,1.35002e-05,0.35357,0.250194325960704,0.5895452992198988,-5.134066820677852e-06,-0.04327147432242573,1.3500291128121233e-05,-0.16276124644598988
455,0.4302,553.929,184.159,-0.0704885,319.828,-0.0954474,0.0304771,0.223736,-0.044323,-0.177995,0.464356,-5.00092e-06,1.3416e-05,0.35427,0.25074078027271973,0.590989261811399,-5.000907495444906e-06,-0.04335508874156657,1.3416089994944258e-05,-0.16305339178865264
456,0.4312,554.195,184.798,0.0506221,319.811,0.0417383,-0.00455345,0.224173,-0.0444079,-0.178345,0.465264,-3.06047e-06,1.30302e-05,0.354968,0.2512874734374553,0.5924345361163603,-3.0604653167287665e-06,-0.04343630444687696,1.3030284893522648e-05,-0.1633462718445271
457,0.4322,553.97,184.241,-0.0499915,319.829,-0.0787793,0.0292322,0.22461,-0.0444981,-0.178693,0.466172,-4.88983e-06,1.34751e-05,0.355667,0.25183440555931225,0.593881123326359,-4.889818044806482e-06,-0.043522582601012605,1.3475190789646874e-05,-0.16363737668674483
458,0.4332,554.313,185.081,0.0996981,319.805,0.102721,-0.0205178,0.225045,-0.0445817,-0.179043,0.467078,-2.18135e-06,1.28855e-05,0.356364,0.25237907198208864,0.5953258339791958,-2.181347620866525e-06,-0.04360254077080905,1.2885583018373836e-05,-0.16393005238366976
459,0.4342,553.88,184.004,-0.0885938,319.839,-0.130932,0.0455977,0.225482,-0.0446741,-0.17939,0.467986,-5.66365e-06,1.37257e-05,0.357063,0.25292648123675554,0.5967750476799005,-5.6636339615945275e-06,-0.043690907813421664,1.3725794197894103e-05,-0.16422011832614103
460,0.4352,553.937,184.155,-0.0713395,319.835,-0.0973324,0.0312695,0.225917,-0.0447612,-0.179738,0.468892,-5.51286e-06,1.3639e-05,0.35776,0.2534716228157907,0.598222381416279,-5.5128448042118805e-06,-0.04377419870797994,1.3639093011663661e-05,-0.16451091912269022
461,0.4362,554.206,184.801,0.0500415,319.817,0.0418634,-0.00476008,0.226352,-0.0448457,-0.180087,0.469796,-3.54394e-06,1.32421e-05,0.358456,0.25401700158299767,0.5996678276923593,-3.5439337202625154e-06,-0.04385499637443968,1.3242187677064976e-05,-0.16480245393613235
462,0.4372,553.98,184.241,-0.0501911,319.835,-0.079508,0.0295516,0.226788,-0.0449356,-0.180434,0.470701,-5.3877e-06,1.36928e-05,0.359152,0.25456387220482024,0.6011161823580538,-5.3876854864132184e-06,-0.04394094994659459,1.3692893746863888e-05,-0.16509221720778133
463,0.4382,554.324,185.086,0.099276,319.811,0.103232,-0.0208534,0.227222,-0.0450189,-0.180782,0.471604,-2.65958e-06,1.30964e-05,0.359847,0.255108471094768,0.6025626432495277,-2.659576463281965e-06,-0.044020586348561874,1.3096485758312681e-05,-0.16538271456672082
464,0.4392,553.89,184.006,-0.0884467,319.845,-0.131358,0.0458518,0.227657,-0.0451111,-0.181128,0.472509,-6.15766e-06,1.39419e-05,0.360543,0.2556545620458648,0.6040136189091223,-6.157641041615314e-06,-0.04410872358731144,1.3941997188737787e-05,-0.16567144219472074
465,0.4402,553.948,184.159,-0.0707547,319.841,-0.0970445,0.0313091,0.228091,-0.0451978,-0.181475,0.473411,-5.99536e-06,1.38528e-05,0.361238,0.2561996343979376,0.6054610919055605,-5.995342027831363e-06,-0.04419159576841547,1.3852895950572375e-05,-0.16596090397975494
466,0.4412,554.215,184.802,0.0492032,319.823,0.0412822,-0.00465616,0.228524,-0.045282,-0.181822,0.474312,-4.03802e-06,1.34578e-05,0.361931,0.2567436866184374,0.606908264202586,-4.038011847229406e-06,-0.04427207144797807,1.3457890556622942e-05,-0.1662502653389747
467,0.4422,553.992,184.249,-0.0492593,319.841,-0.0785633,0.0293383,0.228958,-0.0453716,-0.182168,0.475214,-5.85977e-06,1.39034e-05,0.362625,0.25728923175316076,0.6083583493469806,-5.859752831627318e-06,-0.04435770083412249,1.390349665264523e-05,-0.16653869284633116
468,0.4432,554.331,185.082,0.0975354,319.817,0.101775,-0.0205527,0.229391,-0.0454547,-0.182515,0.476114,-3.16595e-06,1.33148e-05,0.363318,0.25783375587147384,0.6098065234419838,-3.1659449883925106e-06,-0.04443711140962814,1.3314888642312894e-05,-0.16682785374759568
469,0.4442,553.905,184.019,-0.0863392,319.85,-0.129117,0.0452859,0.229824,-0.0455464,-0.18286,0.477016,-6.61057e-06,1.41473e-05,0.364012,0.25837851581978377,0.6112592239955845,-6.610548150209894e-06,-0.044524732509023,1.4147400073438732e-05,-0.16711524855959703
470,0.4452,553.962,184.172,-0.0689846,319.846,-0.0949327,0.030713,0.230257,-0.0456329,-0.183206,0.477915,-6.44254e-06,1.40561e-05,0.364704,0.25892351170022665,0.6127083973437746,-6.442519246863121e-06,-0.04460737754521171,1.4056198787359975e-05,-0.16740337683452944
471,0.4462,554.222,184.799,0.0481717,319.829,0.0401344,-0.00429904,0.230688,-0.0457168,-0.183552,0.478813,-4.53004e-06,1.36737e-05,0.365395,0.25946622468001546,0.614157259926525,-4.530029739435726e-06,-0.04468753162372496,1.3673793485491359e-05,-0.16769140543432348
472,0.4472,554.006,184.262,-0.0474197,319.846,-0.0762512,0.0286863,0.231121,-0.045806,-0.183896,0.479712,-6.30013e-06,1.41054e-05,0.366087,0.2600116916403763,0.6156090397804659,-6.300110154233707e-06,-0.04477274169547851,1.4105499481553707e-05,-0.1679776703504655
473,0.4482,554.334,185.07,0.0947515,319.822,0.0987324,-0.0197341,0.231552,-0.0458889,-0.184242,0.480608,-3.68447e-06,1.35366e-05,0.366777,0.2605548737268044,0.6170572741922367,-3.6844632123056442e-06,-0.04485192675292593,1.3536691620075203e-05,-0.16826550027907505
474,0.4492,553.922,184.042,-0.0826869,319.855,-0.124735,0.0440563,0.231984,-0.0459802,-0.184586,0.481507,-7.01981e-06,1.43414e-05,0.367468,0.26109955107409055,0.618511662331251,-7.019785361217501e-06,-0.04493912779122544,1.4341502838410847e-05,-0.1685515677405547
475,0.4502,553.978,184.191,-0.0662988,319.851,-0.091385,0.0296133,0.232415,-0.0460664,-0.184931,0.482403,-6.85121e-06,1.42485e-05,0.368158,0.26164320212899006,0.6199624986583114,-6.851186530543174e-06,-0.045021450490250525,1.4248601510447045e-05,-0.16883836797379925
476,0.4512,554.228,184.794,0.0470099,319.834,0.0385648,-0.00374951,0.232845,-0.0461501,-0.185275,0.483298,-5.00942e-06,1.38871e-05,0.368846,0.26218582536153967,0.6214130141034473,-5.009407452849501e-06,-0.045101378849795926,1.3887196426143333e-05,-0.16912423840268342
477,0.4522,554.021,184.28,-0.0449043,319.85,-0.0728969,0.0276969,0.233276,-0.0462389,-0.185619,0.484194,-6.70533e-06,1.4298e-05,0.369536,0.2627299447015652,0.6228664512066693,-6.7053075193390654e-06,-0.045186170082567645,1.4298102216869779e-05,-0.16941001050905258
478,0.4532,554.335,185.053,0.0912049,319.828,0.0944993,-0.0185227,0.233706,-0.0463217,-0.185963,0.485087,-4.20103e-06,1.37579e-05,0.370223,0.2632730353339048,0.6243163182168674,-4.2010211757093074e-06,-0.04526522539474975,1.3757994640428706e-05,-0.16969568432672366
479,0.4542,553.942,184.072,-0.0779121,319.859,-0.11876,0.042327,0.234136,-0.0464125,-0.186306,0.485983,-7.38532e-06,1.45242e-05,0.370912,0.26381635954543214,0.6257723578463328,-7.385292728590009e-06,-0.04535191137668071,1.4524305476770749e-05,-0.16998042987034723
480,0.4552,553.994,184.214,-0.0629651,319.855,-0.086794,0.0281449,0.234566,-0.0464983,-0.186649,0.486876,-7.22049e-06,1.44301e-05,0.3716,0.264359917436608,0.627224820990161,-7.2204639323114606e-06,-0.04543381666889734,1.4430204114290746e-05,-0.17026507776299737
481,0.4562,554.233,184.788,0.0457744,319.839,0.0367125,-0.00306695,0.234995,-0.0465819,-0.186993,0.487768,-5.46789e-06,1.40955e-05,0.372286,0.26490244420485953,0.6286769530851146,-5.467875051068383e-06,-0.04551361506620433,1.40955993419567e-05,-0.17055045748811992
482,0.4572,554.036,184.301,-0.0419357,319.854,-0.0688188,0.0264702,0.235424,-0.0466703,-0.187335,0.48866,-7.07407e-06,1.4481e-05,0.372973,0.2654452037670252,0.6301303810597731,-7.074044978794269e-06,-0.045597987933296835,1.4481104850139204e-05,-0.17083408072932027
483,0.4582,554.333,185.032,0.0871608,319.833,0.0894594,-0.0170404,0.235852,-0.046753,-0.187679,0.489551,-4.70396e-06,1.39759e-05,0.373658,0.2659869302354321,0.6315834744862869,-4.703948936368718e-06,-0.045676913716068634,1.3975997663395745e-05,-0.1711192647510854
484,0.4592,553.963,184.107,-0.0724126,319.862,-0.111714,0.0402566,0.236281,-0.0468432,-0.18802,0.490443,-7.70893e-06,1.46961e-05,0.374345,0.26653015514191414,0.6330394962346866,-7.708900286229614e-06,-0.04576298977636273,1.4696207988107446e-05,-0.17140186489574216
485,0.4602,554.011,184.241,-0.0592312,319.858,-0.0815295,0.0264354,0.236709,-0.0469288,-0.188362,0.491333,-7.55128e-06,1.46012e-05,0.37503,0.2670723460688966,0.6344935483435443,-7.551251489101851e-06,-0.045844668968518576,1.4601306598027719e-05,-0.17168519700539542
486,0.4612,554.237,184.781,0.0445136,319.843,0.0347024,-0.00230549,0.237137,-0.0470122,-0.188705,0.492222,-5.8995e-06,1.42972e-05,0.375714,0.2676147691032631,0.6359472591867501,-5.899482597993e-06,-0.045924242204876564,1.4297302205479312e-05,-0.17196926026318893
487,0.4622,554.051,184.324,-0.0387139,319.858,-0.064308,0.0250982,0.237565,-0.0471002,-0.189046,0.493112,-7.40675e-06,1.46546e-05,0.376399,0.26815742434437717,0.6374039003565963,-7.406722570046931e-06,-0.04600819717748961,1.4654707379158083e-05,-0.1722515706087896
488,0.4632,554.331,185.009,0.0828547,319.838,0.0839586,-0.0153981,0.237991,-0.0471827,-0.189388,0.493999,-5.18423e-06,1.41879e-05,0.377082,0.2686977744935579,0.6388569219360172,-5.184216561926469e-06,-0.04608689825475831,1.4188000648784893e-05,-0.17253461216877586
489,0.4642,553.984,184.144,-0.0665395,319.865,-0.104068,0.0379889,0.238419,-0.0472724,-0.189729,0.494888,-7.9938e-06,1.4858e-05,0.377766,0.26924089336018775,0.6403145135430905,-7.993768049718852e-06,-0.046172460422464257,1.4858110380711054e-05,-0.17281672976224283
490,0.4652,554.028,184.268,-0.055312,319.862,-0.0759178,0.0245979,0.238846,-0.0473577,-0.19007,0.495775,-7.84581e-06,1.47628e-05,0.378448,0.2697829749478351,0.6417701179817363,-7.845779221749005e-06,-0.046253818441621464,1.476290897062249e-05,-0.17309875117001106
491,0.4662,554.241,184.774,0.0432659,319.848,0.0326399,-0.00151137,0.239272,-0.047441,-0.190411,0.496661,-6.30046e-06,1.44912e-05,0.37913,0.2703240177290931,0.6432253708881084,-6.300440152151587e-06,-0.04633326218966716,1.4491304997976684e-05,-0.1733806764248743
492,0.4672,554.067,184.347,-0.0354072,319.861,-0.0596144,0.0236605,0.239698,-0.0475285,-0.190751,0.497548,-7.70504e-06,1.48193e-05,0.379812,0.27086529104367596,0.644683558402644,-7.705010316216843e-06,-0.04641670437857659,1.4819409806410277e-05,-0.1736616792217074
493,0.4682,554.327,184.985,0.0784829,319.843,0.0782898,-0.0136907,0.240123,-0.047611,-0.191092,0.498432,-5.63544e-06,1.43925e-05,0.380493,0.2714055235836528,0.6461381014815912,-5.635424120908894e-06,-0.046495371755391424,1.4392603572499496e-05,-0.17394341255083012
494,0.4692,554.005,184.182,-0.0605833,319.868,-0.0962194,0.0356459,0.240549,-0.0477001,-0.191431,0.499318,-8.24384e-06,1.50108e-05,0.381175,0.2719472577178772,0.6475972261362752,-8.243806019603284e-06,-0.04658032523303446,1.5010912662649645e-05,-0.17422339827371403
495,0.4702,554.43,185.24,0.11939,319.836,0.134121,-0.0303688,0.240974,-0.0477805,-0.191772,0.500201,-4.7792e-06,1.42318e-05,0.381854,0.27248795019141947,0.6490526969827644,-4.779188579662197e-06,-0.04665697709343963,1.4231901272587777e-05,-0.17450494008929496
496,0.4712,554.316,184.996,0.0509204,319.842,0.0843367,-0.0297603,0.241399,-0.0478665,-0.192112,0.501085,-5.20384e-06,1.41366e-05,0.382535,0.27302887250810115,0.6505111040878642,-5.203826460076222e-06,-0.04673896106804809,1.4136699922229212e-05,-0.17478556070145723
497,0.4722,554.179,184.569,0.0284592,319.86,-0.0148672,0.0204014,0.241824,-0.0479537,-0.192451,0.501968,-6.55561e-06,1.47764e-05,0.383214,0.2735700247656263,0.6519691490248782,-6.555588512036081e-06,-0.04682208180652614,1.4776509171587904e-05,-0.1750652609845028
498,0.4732,554.278,184.881,0.0408875,319.848,0.0578002,-0.0140711,0.242248,-0.0480372,-0.19279,0.50285,-5.42485e-06,1.43453e-05,0.383893,0.27411013295097075,0.6534268285564948,-5.424835285539054e-06,-0.04690166883989044,1.4345402894244685e-05,-0.1753448664652224
499,0.4742,554.101,184.379,-0.0102686,319.867,-0.0559243,0.0302732,0.242672,-0.0481247,-0.193129,0.503733,-7.09762e-06,1.4924e-05,0.384572,0.27465047019074174,0.6548874492152286,-7.097594811988905e-06,-0.046985061295393815,1.4924111363390224e-05,-0.17562437717574841
500,0.4752,554.335,185.009,0.0670914,319.846,0.0852232,-0.020874,0.243095,-0.0482067,-0.193468,0.504613,-4.97074e-06,1.43048e-05,0.38525,0.2751897613916803,0.6563443911309594,-4.970727645936535e-06,-0.04706320531641894,1.4304902314243861e-05,-0.1759037931482027
501,0.4762,554.018,184.173,-0.0492567,319.874,-0.100333,0.0414935,0.243519,-0.0482956,-0.193806,0.505495,-7.73485e-06,1.50968e-05,0.385928,0.27573055649096956,0.6578059313284168,-7.73482008609161e-06,-0.04714791763194803,1.5096913957179936e-05,-0.17618229059739832
502,0.4772,554.44,185.264,0.111848,319.839,0.140404,-0.0360106,0.243942,-0.0483754,-0.194145,0.506373,-4.11528e-06,1.41651e-05,0.386605,0.27627030466505587,0.6592621241112084,-4.115271532212361e-06,-0.047223952194301644,1.416520032559987e-05,-0.17646151746925687
503,0.4782,554.328,185.011,0.0501346,319.846,0.087628,-0.0316522,0.244365,-0.048461,-0.194483,0.507253,-4.57071e-06,1.41111e-05,0.387282,0.2768102812009152,0.6607229174352189,-4.570699554284907e-06,-0.047305506333426894,1.4111199561961385e-05,-0.1767398264394867
504,0.4792,554.186,184.569,0.0266998,319.864,-0.015182,0.0200795,0.244788,-0.0485479,-0.19482,0.508133,-5.97292e-06,1.47665e-05,0.387958,0.27735048619516456,0.6621849968231399,-5.972902162199034e-06,-0.04738829188784199,1.4766609025329558e-05,-0.17701721837481021
505,0.4802,554.289,184.89,0.0417599,319.852,0.0594056,-0.014556,0.24521,-0.048631,-0.195158,0.50901,-4.81091e-06,1.43343e-05,0.388634,0.27788964185418163,0.6636433724696014,-4.810898427631827e-06,-0.047467450631694774,1.433440273657105e-05,-0.1772953395498732
506,0.4812,554.106,184.374,-0.011803,319.871,-0.0573474,0.0305786,0.245632,-0.0487181,-0.195495,0.509889,-6.53008e-06,1.49202e-05,0.38931,0.2784290250849013,0.6651063578818943,-6.5300586791217086e-06,-0.04755041260369841,1.4920311306676481e-05,-0.17757254430881952
507,0.4822,554.346,185.019,0.0681511,319.85,0.0870482,-0.021403,0.246053,-0.0487997,-0.195833,0.510765,-4.35252e-06,1.42931e-05,0.389984,0.2789673570153821,0.6665656301193212,-4.352510527771969e-06,-0.04762812931914484,1.4293202146742345e-05,-0.1778504778154345
508,0.4832,554.022,184.166,-0.0508519,319.878,-0.102277,0.0420359,0.246475,-0.0488883,-0.196169,0.511642,-7.17555e-06,1.50948e-05,0.390659,0.27950719513787514,0.6680278492663123,-7.175524255775834e-06,-0.04771250572895702,1.5094913927038434e-05,-0.17812667365138957
509,0.4842,554.059,184.286,-0.0499937,319.874,-0.073725,0.0251665,0.246897,-0.0489724,-0.196506,0.512518,-7.0145e-06,1.49566e-05,0.391333,0.2800472611201308,0.6694896818514604,-7.01447539841471e-06,-0.0477925897396454,1.4956711850588889e-05,-0.17840359829794528
510,0.4852,554.261,184.773,0.0428528,319.86,0.0311701,-0.000607666,0.247317,-0.0490548,-0.196842,0.513393,-5.51744e-06,1.46931e-05,0.392006,0.2805849938857774,0.6709511246110447,-5.5174247789446795e-06,-0.047871048397709726,1.4693207944116438e-05,-0.17867960831663732
511,0.4862,554.095,184.367,-0.0329545,319.873,-0.0565052,0.022846,0.247738,-0.0491411,-0.197178,0.514268,-6.85571e-06,1.49959e-05,0.39268,0.28112423367021333,0.6724138466926652,-6.855686499718239e-06,-0.04795321358075433,1.4996012439150164e-05,-0.1789555256115416
512,0.4872,554.34,184.969,0.0740509,319.855,0.0739836,-0.0125458,0.248158,-0.0492226,-0.197515,0.515141,-4.89224e-06,1.45977e-05,0.393352,0.2816624188593331,0.6738745014638683,-4.892228033015478e-06,-0.048030802232067016,1.4597806546889913e-05,-0.17923217098204736
513,0.4882,554.039,184.218,-0.0552273,319.879,-0.0896366,0.0338081,0.248578,-0.0493104,-0.19785,0.516016,-7.34305e-06,1.51728e-05,0.394025,0.2822008301337071,0.675339782619667,-7.343023039840801e-06,-0.04811438145844937,1.5172915107442009e-05,-0.179507082154576
514,0.4892,554.433,185.2,0.110244,319.849,0.124647,-0.0279082,0.248998,-0.0493901,-0.198186,0.516887,-4.11164e-06,1.44537e-05,0.394696,0.2827394675883106,0.676799639245597,-4.111631547232264e-06,-0.04819024371909586,1.445380445530553e-05,-0.17978272146497465
515,0.4902,554.324,184.966,0.0451896,319.855,0.0766924,-0.0270332,0.249417,-0.0494749,-0.198522,0.51776,-4.53915e-06,1.43692e-05,0.395367,0.28327704804047005,0.678264124485455,-4.539139698112038e-06,-0.04827095376427415,1.4369303237504738e-05,-0.1800582681761227
516,0.4912,554.204,184.589,0.0287811,319.87,-0.0114772,0.0187821,0.249837,-0.0495608,-0.198856,0.518632,-5.73851e-06,1.49525e-05,0.396039,0.28381613760153024,0.6797282090501044,-5.738493534801492e-06,-0.0483527037781325,1.4952611789187387e-05,-0.1803320829849333
517,0.4922,554.286,184.853,0.0357034,319.86,0.0507575,-0.0117959,0.250255,-0.0496435,-0.199192,0.519503,-4.76538e-06,1.4573e-05,0.396709,0.2843528849194219,0.6811918896605589,-4.765368645576196e-06,-0.04843140175532379,1.4573106186688278e-05,-0.18060744514161742
518,0.4932,554.136,184.424,-0.00498213,319.876,-0.0470528,0.0272493,0.250674,-0.0497296,-0.199526,0.520374,-6.20422e-06,1.50816e-05,0.397379,0.28489114153508943,0.6826568456921904,-6.204200753812117e-06,-0.04851332828464494,1.5081713727882473e-05,-0.1808810765559501
519,0.4942,554.333,184.957,0.057524,319.858,0.0729444,-0.017122,0.251092,-0.0498109,-0.199861,0.521243,-4.39062e-06,1.45503e-05,0.398048,0.28542833829855296,0.6841197100135863,-4.390610361282299e-06,-0.04859068100662467,1.4550405856184057e-05,-0.18115543543762536
520,0.4952,554.068,184.254,-0.0372517,319.882,-0.0836579,0.0363709,0.251511,-0.0498982,-0.200194,0.522114,-6.72616e-06,1.52269e-05,0.398718,0.2859670456236032,0.68558721728765,-6.726137379398089e-06,-0.04867373541479514,1.5227015929930587e-05,-0.1814280652822362
521,0.4962,554.418,185.164,0.093892,319.853,0.117773,-0.0293649,0.251928,-0.0499777,-0.200529,0.522981,-3.68909e-06,1.44461e-05,0.399386,0.28650340570493293,0.6870492551068501,-3.6890831953684255e-06,-0.048749362846599475,1.4446204345430758e-05,-0.18170224095337761
522,0.4972,553.961,183.985,-0.0842936,319.891,-0.142174,0.0527807,0.252346,-0.050067,-0.200862,0.523851,-7.58211e-06,1.54613e-05,0.400055,0.2870412765356898,0.6885176266077782,-7.582081255841366e-06,-0.04883430573574077,1.5461419526463516e-05,-0.1819746887420658
523,0.4982,554.029,184.177,-0.0660591,319.885,-0.098521,0.0337668,0.252763,-0.0501502,-0.201195,0.524719,-7.28664e-06,1.53254e-05,0.400722,0.28757808466472135,0.6899838961766065,-7.286613452506252e-06,-0.04891343942949622,1.5325517434439107e-05,-0.18224704582074425
524,0.4992,554.281,184.799,0.0421913,319.866,0.0368037,-0.00386253,0.25318,-0.0502311,-0.201529,0.525585,-5.3634e-06,1.49238e-05,0.401389,0.2881151166894216,0.6914480561204464,-5.3633856169632566e-06,-0.048990379219989943,1.4923911360487097e-05,-0.18252012969989362
525,0.5002,554.082,184.3,-0.0423229,319.882,-0.0722275,0.0281599,0.253597,-0.0503171,-0.201861,0.526452,-7.03487e-06,1.53324e-05,0.402056,0.2886523727031747,0.6929151774903153,-7.034845255327049e-06,-0.04907216253064428,1.5332517541821744e-05,-0.18279148796886813
526,0.5012,554.381,185.047,0.0829082,319.859,0.0908847,-0.0185927,0.254013,-0.0503972,-0.202195,0.527317,-4.58196e-06,1.47989e-05,0.402722,0.2891885636101952,0.6943801826422265,-4.5819495028132096e-06,-0.0491483287999257,1.4799009504296023e-05,-0.18306439003470454
527,0.5022,554.014,184.121,-0.0695977,319.889,-0.111688,0.0410303,0.25443,-0.050485,-0.202527,0.528184,-7.62346e-06,1.55308e-05,0.403389,0.2897262673446577,0.6958498472681316,-7.623430941516851e-06,-0.049231809911782665,1.553092060357919e-05,-0.18333556763923975
528,0.5032,554.068,184.273,-0.0540873,319.884,-0.0774692,0.0260143,0.254845,-0.050568,-0.202859,0.529048,-7.39178e-06,1.54214e-05,0.404054,0.2902616148225239,0.6973156946910706,-7.391752680829811e-06,-0.04931072039672957,1.5421518910319065e-05,-0.18360665522775377
529,0.5042,554.274,184.771,0.0385083,319.869,0.030195,-0.00134881,0.255261,-0.0506492,-0.203192,0.529912,-5.85559e-06,1.5141e-05,0.404719,0.29079847531353,0.6987828091534651,-5.855572856039437e-06,-0.04938791323216185,1.5141114625416563e-05,-0.18387846895206617
530,0.5052,554.113,184.372,-0.0319578,319.882,-0.056576,0.0231879,0.255676,-0.0507344,-0.203523,0.530776,-7.18461e-06,1.54552e-05,0.405384,0.2913342678500468,0.7002511917505105,-7.184584190800258e-06,-0.04946890193178677,1.5455319432255976e-05,-0.18414856047622974
531,0.5062,554.353,184.967,0.0705488,319.864,0.0729188,-0.0128976,0.256091,-0.0508149,-0.203855,0.531638,-5.23255e-06,1.50515e-05,0.406048,0.29187028278661087,0.701717440140065,-5.232536310240121e-06,-0.04954541660542433,1.5051613274419395e-05,-0.1844193781959227
532,0.5072,554.061,184.232,-0.0523864,319.887,-0.0876412,0.0336141,0.256506,-0.0509016,-0.204186,0.532502,-7.6428e-06,1.56233e-05,0.406712,0.2924065202155377,0.7031883593539434,-7.642770793903075e-06,-0.04962781744567668,1.5623422044308555e-05,-0.18468929070875462
533,0.5082,554.44,185.186,0.104748,319.858,0.121081,-0.0274857,0.25692,-0.0509803,-0.204519,0.533362,-4.48795e-06,1.49179e-05,0.407374,0.2929416872868469,0.7046537313626355,-4.48793992913199e-06,-0.04970260879336552,1.4918011272513354e-05,-0.18496074397547124
534,0.5092,554.333,184.953,0.0420442,319.864,0.0731432,-0.0257811,0.257334,-0.0510641,-0.20485,0.534224,-4.93007e-06,1.48465e-05,0.408038,0.29347707596319283,0.7061237763774459,-4.930057847185587e-06,-0.04978224037813861,1.4846610209895417e-05,-0.18523047732588316
535,0.5102,554.222,184.6,0.0284998,319.878,-0.00946959,0.0177089,0.257748,-0.0511488,-0.20518,0.535085,-6.0533e-06,1.53978e-05,0.4087,0.2940126863363386,0.7075933815231348,-6.053281678797262e-06,-0.04986272041400097,1.539791854665573e-05,-0.18549930690904481
536,0.5112,554.295,184.839,0.0327217,319.869,0.0469171,-0.0105562,0.258162,-0.0512306,-0.205511,0.535945,-5.16762e-06,1.50495e-05,0.409362,0.29454851849808605,0.7090625434803368,-5.1676066479267035e-06,-0.049940438464759485,1.5049613244277893e-05,-0.18576886202462517
537,0.5122,554.16,184.45,-0.00234239,319.883,-0.0420089,0.0254268,0.258575,-0.0513154,-0.205841,0.536805,-6.47669e-06,1.55163e-05,0.410024,0.29508327745634944,0.710532969460274,-6.476669026311832e-06,-0.050021000099716106,1.551642037833645e-05,-0.186037513970148
538,0.5132,554.334,184.928,0.0518167,319.867,0.0658889,-0.0149842,0.258988,-0.051396,-0.206172,0.537663,-4.84113e-06,1.50374e-05,0.410685,0.2956182573156756,0.7120012365445763,-4.841118281695422e-06,-0.050097565321488124,1.5037513062310381e-05,-0.18630689096867126
539,0.5142,554.1,184.302,-0.0304963,319.889,-0.0739178,0.0333042,0.259402,-0.0514818,-0.206501,0.538523,-6.92931e-06,1.56447e-05,0.411346,0.2961547543214218,0.713474190887589,-6.9292859924408035e-06,-0.050179063454063755,1.564482237892406e-05,-0.18657455196889372
540,0.5152,554.407,185.106,0.082978,319.862,0.104407,-0.0254827,0.259814,-0.0515608,-0.206832,0.539379,-4.23305e-06,1.49545e-05,0.412005,0.2966888801025578,0.714941552736261,-4.233041040690999e-06,-0.05025409634421263,1.4954611819106844e-05,-0.18684375123725527
541,0.5162,554.009,184.072,-0.0703214,319.896,-0.123914,0.047353,0.260227,-0.0516484,-0.20716,0.540238,-7.65876e-06,1.58481e-05,0.412666,0.29722452321272863,0.7164153204226607,-7.658730671766811e-06,-0.050337290441418214,1.584822558187149e-05,-0.18711042275033052
542,0.5172,554.068,184.243,-0.0564035,319.89,-0.0847433,0.02932,0.260638,-0.0517306,-0.20749,0.541095,-7.3796e-06,1.57111e-05,0.413325,0.29775779207101283,0.7178869188421177,-7.379572770860321e-06,-0.05041534950787241,1.571122342003406e-05,-0.18737863205385386
543,0.5182,554.286,184.779,0.038687,319.874,0.0315381,-0.00190433,0.26105,-0.0518108,-0.207819,0.54195,-5.72032e-06,1.53884e-05,0.413984,0.2982925784397732,0.7193563402458627,-5.720303638989677e-06,-0.050491503143040295,1.5388518401993068e-05,-0.18764594050925598
544,0.5192,554.116,184.356,-0.0341267,319.888,-0.0604947,0.0245851,0.261462,-0.0518954,-0.208148,0.542807,-7.13389e-06,1.57245e-05,0.414643,0.29882758518591235,0.7208304601996314,-7.133864553865443e-06,-0.050571828164078014,1.5724623630530843e-05,-0.18791316103464173
545,0.5202,554.368,184.985,0.071791,319.869,0.0767269,-0.0143677,0.261872,-0.051975,-0.208477,0.543661,-5.06301e-06,1.52895e-05,0.4153,0.299360213677218,0.7223006771059064,-5.0629971829474485e-06,-0.05064739963877163,1.5289616885016954e-05,-0.18818029365893507
546,0.5212,554.063,184.214,-0.0550005,319.893,-0.092156,0.0351862,0.262284,-0.052061,-0.208805,0.544517,-7.60326e-06,1.58933e-05,0.415959,0.2998956603796996,0.7237755976614464,-7.603231095276719e-06,-0.05072904045179738,1.5893426299262714e-05,-0.18844652685798335
547,0.5222,554.457,185.21,0.106555,319.862,0.126169,-0.0293878,0.262694,-0.0521388,-0.209134,0.545369,-4.29817e-06,1.51516e-05,0.416615,0.3004287268716188,0.7252448802961764,-4.2981607628611584e-06,-0.05080289085963208,1.5151714786165726e-05,-0.18871348403378374
548,0.5232,554.346,184.965,0.0429532,319.868,0.0755351,-0.0265562,0.263104,-0.0522219,-0.209462,0.546223,-4.7733e-06,1.50906e-05,0.417272,0.30096201196561,0.7267188687274257,-4.773288607817783e-06,-0.050881765862099915,1.5090713863630256e-05,-0.18897954237506742
549,0.5242,554.231,184.603,0.0279812,319.883,-0.00931599,0.0175744,0.263515,-0.0523059,-0.209789,0.547076,-5.92905e-06,1.56461e-05,0.417928,0.301496817247485,0.7281923882891979,-5.929032423246383e-06,-0.05096148844537218,1.564622240080027e-05,-0.18924470270863347
550,0.5252,554.305,184.843,0.0327123,319.874,0.0475755,-0.010767,0.263924,-0.0523869,-0.210117,0.547928,-5.03342e-06,1.52983e-05,0.418584,0.3020292383184262,0.7296654356330812,-5.033407332377671e-06,-0.05103835745157126,1.5298417019637967e-05,-0.18951058683876387
551,0.5262,554.168,184.451,-0.00287029,319.888,-0.0421643,0.0253904,0.264334,-0.052471,-0.210444,0.54878,-6.35672e-06,1.57638e-05,0.41924,0.3025631797566519,0.7311397385480989,-6.3566997960951e-06,-0.051118161769891035,1.5763924249290184e-05,-0.1897755735491793
552,0.5272,554.343,184.93,0.0511868,319.872,0.0659363,-0.0150517,0.264743,-0.0525508,-0.210772,0.549631,-4.71511e-06,1.52876e-05,0.419895,0.30309603705906274,0.7326135654900214,-4.715098883889546e-06,-0.05119387951940335,1.528771685599395e-05,-0.1900412835822275
553,0.5282,554.11,184.306,-0.030245,319.893,-0.0734033,0.0331252,0.265153,-0.0526358,-0.211098,0.550482,-6.79994e-06,1.5889e-05,0.42055,0.30363041597444895,0.7340886471924966,-6.79991688046222e-06,-0.051274524612179184,1.5889126230739237e-05,-0.19030528708887007
554,0.5292,554.413,185.101,0.0811303,319.867,0.103273,-0.0252715,0.265561,-0.0527141,-0.211426,0.551331,-4.1237e-06,1.52084e-05,0.421203,0.30416240570269126,0.7355615135972815,-4.123691497603943e-06,-0.05134880690871224,1.5208515648401644e-05,-0.19057082340436848
555,0.5302,554.022,184.085,-0.0683013,319.9,-0.12164,0.0467442,0.26597,-0.0528008,-0.211751,0.552182,-7.50414e-06,1.60853e-05,0.421858,0.30469591722229206,0.7370391050713523,-7.504111844025552e-06,-0.05143105140180293,1.608542936915036e-05,-0.1908338451434144
556,0.5312,554.082,184.258,-0.0540569,319.894,-0.081998,0.0286199,0.266378,-0.0528822,-0.212078,0.553031,-7.20777e-06,1.59458e-05,0.422511,0.3052283417637396,0.738514477478524,-7.207744024073648e-06,-0.05150826177171419,1.5945927134941584e-05,-0.19109839921910365
557,0.5322,554.29,184.772,0.0367864,319.879,0.029782,-0.00142225,0.266786,-0.0529618,-0.212404,0.553879,-5.60992e-06,1.56392e-05,0.423164,0.3057609835787207,0.7399893630185117,-5.6099042644586206e-06,-0.05158375870925913,1.5639322292981817e-05,-0.19136205816221552
558,0.5332,554.131,184.373,-0.0315507,319.891,-0.0571538,0.023667,0.267194,-0.0530455,-0.21273,0.554727,-6.94789e-06,1.59557e-05,0.423816,0.306293842755901,0.7414654997918853,-6.947865863415892e-06,-0.05166313782659282,1.5955827292968294e-05,-0.19162563116652065
559,0.5342,554.368,184.966,0.0675795,319.873,0.0723592,-0.0132253,0.267601,-0.0531245,-0.213056,0.555573,-4.98924e-06,1.55483e-05,0.424468,0.3068256125577167,0.7429394029778489,-4.989227553764408e-06,-0.051738053479497226,1.5548420875477476e-05,-0.19188911826003052
560,0.5352,554.082,184.244,-0.0500528,319.896,-0.0858976,0.0334181,0.268009,-0.0532096,-0.213381,0.556421,-7.37342e-06,1.6113e-05,0.42512,0.3073589061921438,0.7444180424461007,-7.373392816423241e-06,-0.05181874713758228,1.611312981508739e-05,-0.19215171162286326
561,0.5362,554.448,185.171,0.0989501,319.867,0.117582,-0.0270571,0.268415,-0.0532869,-0.213707,0.557266,-4.28656e-06,1.5425e-05,0.425771,0.307889801672548,0.7458926986464671,-4.286550812748757e-06,-0.051892038715672606,1.5425118965906037e-05,-0.19241502724209625
562,0.5372,554.342,184.938,0.0385577,319.873,0.0692476,-0.024303,0.268822,-0.0533693,-0.214032,0.558112,-4.75195e-06,1.53693e-05,0.426422,0.30842222116184503,0.7473703488274173,-4.751938709524062e-06,-0.05197015959305806,1.5369418108202026e-05,-0.1926774497122813
563,0.5382,554.242,184.614,0.0280205,319.887,-0.00702106,0.0164208,0.269228,-0.0534523,-0.214356,0.558958,-5.78865e-06,1.58821e-05,0.427072,0.30895354843577505,0.7488492496293582,-5.788633245851216e-06,-0.05204884280441335,1.5882226121144427e-05,-0.19293897984840458
564,0.5392,554.303,184.821,0.0292133,319.878,0.0424858,-0.00908625,0.269634,-0.0535327,-0.214681,0.559802,-5.00567e-06,1.55709e-05,0.427722,0.3094850914723748,0.75032590145546,-5.005657471635061e-06,-0.05212505501368003,1.557102122706766e-05,-0.19320123206166084
565,0.5402,554.186,184.479,0.000502623,319.891,-0.0360727,0.0232606,0.27004,-0.0536158,-0.215005,0.560646,-6.16353e-06,1.59878e-05,0.428372,0.3100168503592622,0.751803800101787,-6.16351100546364e-06,-0.052203820148871705,1.5987927805660718e-05,-0.19346259251979225
566,0.5412,554.335,184.893,0.0451398,319.877,0.0577073,-0.0124675,0.270446,-0.0536952,-0.21533,0.561489,-4.73555e-06,1.55708e-05,0.429021,0.3105488251840902,0.7532811933390302,-4.735538787326021e-06,-0.05227907217800676,1.5570921225505074e-05,-0.1937246745865806
567,0.5422,554.136,184.356,-0.0229458,319.895,-0.0625632,0.0296977,0.270851,-0.0537791,-0.215653,0.562333,-6.53612e-06,1.60966e-05,0.42967,0.3110797049541867,0.7547615873045834,-6.5360986396534315e-06,-0.05235858262834103,1.609672955105168e-05,-0.19398505946226796
568,0.5432,554.394,185.037,0.0703728,319.873,0.0889887,-0.0209571,0.271256,-0.0538572,-0.215978,0.563174,-4.23478e-06,1.5512e-05,0.430317,0.31161079977413486,0.7562379625282705,-4.234771033284623e-06,-0.05243259053299143,1.5512120311589328e-05,-0.1942469717548897
569,0.5442,554.063,184.172,-0.0546541,319.901,-0.102843,0.0410385,0.271661,-0.0539425,-0.216301,0.564017,-7.12115e-06,1.62646e-05,0.430966,0.3121421097310473,0.7577190953404485,-7.121124644626775e-06,-0.05251341458582415,1.6264732269233306e-05,-0.1945071879558341
570,0.5452,554.111,184.318,-0.0455236,319.896,-0.0689861,0.024293,0.272066,-0.0540232,-0.216624,0.564858,-6.8636e-06,1.61286e-05,0.431613,0.31267363491207223,0.7591979588745814,-6.863576445526043e-06,-0.05258987366810164,1.612873006662241e-05,-0.19476732012051823
571,0.5462,554.29,184.754,0.0345418,319.883,0.0257137,0.0002444,0.27247,-0.0541024,-0.216947,0.565698,-5.50358e-06,1.58935e-05,0.43226,0.3132040621996741,0.7606763059788932,-5.503564855291465e-06,-0.05266490557880421,1.5893626302387887e-05,-0.19502736827608125
572,0.5472,554.155,184.419,-0.0251207,319.893,-0.047311,0.020587,0.272874,-0.0541851,-0.21727,0.566539,-6.62832e-06,1.61494e-05,0.432907,0.31373470382319346,0.7621576575732558,-6.62829803277365e-06,-0.052743246951652445,1.6149530402298495e-05,-0.1952873324496539
573,0.5482,554.354,184.915,0.0593198,319.878,0.0610619,-0.00969697,0.273277,-0.0542638,-0.217593,0.567378,-4.98361e-06,1.5823e-05,0.433552,0.3142642456043361,0.7636367282313385,-4.983597581831312e-06,-0.05281779312468693,1.5823125184333264e-05,-0.19554721266835795
574,0.5492,554.116,184.315,-0.039247,319.897,-0.0705621,0.02871,0.273681,-0.0543475,-0.217915,0.568218,-6.96872e-06,1.62859e-05,0.434199,0.31479531562848195,0.7651188054683462,-6.968695718478912e-06,-0.05289706895766244,1.6286032616052992e-05,-0.19580620476591326
575,0.5502,554.419,185.081,0.0841184,319.873,0.0977551,-0.0211114,0.274084,-0.0544249,-0.218238,0.569055,-4.40791e-06,1.5728e-05,0.434843,0.31532528492232026,0.7665968283748215,-4.407900285219313e-06,-0.05297037188766518,1.572812368566545e-05,-0.19606591741592283
576,0.5512,554.04,184.118,-0.0691484,319.904,-0.114097,0.0423619,0.274488,-0.0545102,-0.21856,0.569895,-7.60478e-06,1.64833e-05,0.435489,0.31585678369295156,0.7680813931405657,-7.604751083745143e-06,-0.05305115006970473,1.6483435850256356e-05,-0.19632474251743726
577,0.5522,554.102,184.289,-0.0505379,319.898,-0.0754311,0.0262305,0.27489,-0.0545905,-0.218881,0.570732,-7.29745e-06,1.63631e-05,0.436134,0.3163858644581048,0.7695618967709608,-7.297423373686662e-06,-0.05312718700943009,1.6363233876326433e-05,-0.19658268087376818
578,0.5532,554.293,184.758,0.0330838,319.884,0.0266595,-0.000736531,0.275293,-0.0546692,-0.219203,0.571568,-5.83315e-06,1.60947e-05,0.436777,0.31691647487229857,0.7710418690588818,-5.8331329871874615e-06,-0.053201702967571096,1.6094829520474363e-05,-0.19684133960423633
579,0.5542,554.152,184.404,-0.0268459,319.895,-0.0507586,0.0218239,0.275695,-0.0547516,-0.219525,0.572405,-7.02775e-06,1.63774e-05,0.437421,0.31744598171894256,0.772524851644919,-7.02772530547513e-06,-0.05327971593306824,1.637753411043441e-05,-0.19709991506000113
580,0.5552,554.362,184.93,0.0603842,319.879,0.0644199,-0.0110974,0.276097,-0.0548298,-0.219846,0.57324,-5.27973e-06,1.60206e-05,0.438064,0.31797570147012966,0.774005527992387,-5.279716062234208e-06,-0.053353746564646864,1.6020728330401468e-05,-0.19735760462587892
581,0.5562,554.112,184.296,-0.0415931,319.899,-0.074832,0.0302125,0.276499,-0.0549134,-0.220167,0.574076,-7.38226e-06,1.65165e-05,0.438707,0.31850563421146516,0.7754892167092604,-7.382232751207418e-06,-0.053432882883489796,1.651663639812284e-05,-0.19761521148668082
582,0.5572,554.43,185.104,0.0865028,319.874,0.102779,-0.0229351,0.2769,-0.0549901,-0.220489,0.57491,-4.6786e-06,1.59213e-05,0.439349,0.31903446099346744,0.7769705923637789,-4.678589055395754e-06,-0.05350548179716874,1.592142674455843e-05,-0.1978735377958143
583,0.5582,554.033,184.091,-0.072726,319.906,-0.120078,0.0443653,0.277302,-0.0550754,-0.220808,0.575746,-8.04511e-06,1.67185e-05,0.439992,0.31956481944169246,0.7784567609108912,-8.045077638185738e-06,-0.053586214336279636,1.6718639754831344e-05,-0.19812937532900132
584,0.5592,554.1,184.276,-0.0520131,319.9,-0.0785419,0.0274577,0.277702,-0.0551553,-0.221129,0.576579,-7.70602e-06,1.65933e-05,0.440633,0.32009275094873146,0.7799388325898848,-7.705990308748412e-06,-0.05366182977687717,1.6593437669465416e-05,-0.19838673449116528
585,0.5602,554.296,184.759,0.0324729,319.886,0.0268428,-0.00101445,0.278103,-0.0552335,-0.221449,0.577412,-6.19476e-06,1.63088e-05,0.441274,0.32062221429216753,0.7814221393489265,-6.194740812537347e-06,-0.05373583052832154,1.6308932989206326e-05,-0.1986432096979065
586,0.5612,554.153,184.399,-0.0274067,319.897,-0.0520648,0.022311,0.278503,-0.0553156,-0.221769,0.578245,-7.41426e-06,1.66e-05,0.441915,0.32115056884174953,0.7829066822172666,-7.414232514491026e-06,-0.05381351562761816,1.6600137780820035e-05,-0.19889960284571162
587,0.5622,554.365,184.935,0.0603653,319.88,0.0654647,-0.011615,0.278903,-0.0553934,-0.222089,0.579076,-5.62954e-06,1.62326e-05,0.442555,0.3216791347754253,0.7843888934436571,-5.629524154171506e-06,-0.05388712607261892,1.623273174944373e-05,-0.19915591396083543
588,0.5632,554.113,184.291,-0.0421073,319.901,-0.0760602,0.0306761,0.279303,-0.0554766,-0.222408,0.579909,-7.76859e-06,1.67381e-05,0.443196,0.3222079121777657,0.7858759086477429,-7.768559824539167e-06,-0.05396583938921029,1.6738240082858624e-05,-0.1994113424812668
589,0.5642,554.433,185.109,0.0865348,319.875,0.103983,-0.0234952,0.279703,-0.055553,-0.222729,0.580738,-5.02562e-06,1.61331e-05,0.443834,0.3227369011333747,0.7873570136091954,-5.025607371589302e-06,-0.05403811363816946,1.6133230139159238e-05,-0.19966829019801546
590,0.5652,554.034,184.087,-0.0730915,319.908,-0.121253,0.044827,0.280103,-0.0556379,-0.223047,0.58157,-8.43139e-06,1.69392e-05,0.444475,0.32326610172689074,0.7888447134418302,-8.43135445594001e-06,-0.054118422393166665,1.6939343469024593e-05,-0.19992275521964964
591,0.5662,554.103,184.276,-0.0517242,319.901,-0.078671,0.0276168,0.280502,-0.0557174,-0.223366,0.5824,-8.07687e-06,1.68114e-05,0.445113,0.32379419024813383,0.7903300708920569,-8.076837382131608e-06,-0.0541936169895616,1.6811541312389267e-05,-0.20017793915673265
592,0.5672,554.297,184.757,0.0317349,319.887,0.0263473,-0.000957096,0.2809,-0.0557953,-0.223685,0.583229,-6.56999e-06,1.65267e-05,0.445751,0.3243211651969111,0.7918148698849743,-6.569968417635685e-06,-0.054267292437102155,1.652683656661047e-05,-0.20043304170312226
593,0.5682,554.156,184.402,-0.026837,319.898,-0.0514808,0.0221681,0.281299,-0.055877,-0.224003,0.584058,-7.7743e-06,1.68146e-05,0.446389,0.3248496747724734,0.7933009002866054,-7.774269780158605e-06,-0.05434455564306517,1.6814741366166785e-05,-0.20068726357244104
594,0.5692,554.365,184.931,0.0591489,319.882,0.0644801,-0.0114412,0.281697,-0.0559545,-0.224322,0.584886,-6.01173e-06,1.64521e-05,0.447026,0.325377069887699,0.7947863683309453,-6.0117119295988175e-06,-0.054417841100154685,1.6452235336528176e-05,-0.20094220367025395
595,0.5702,554.118,184.298,-0.0408922,319.902,-0.0746371,0.0302813,0.282096,-0.0560373,-0.22464,0.585715,-8.11628e-06,1.69492e-05,0.447664,0.3259060008532946,0.796274863126138,-8.116247063094661e-06,-0.05449613206162107,1.6949343638605896e-05,-0.20119626365180876
596,0.5712,554.432,185.1,0.0844278,319.876,0.101883,-0.0230007,0.282493,-0.0561134,-0.224959,0.586541,-5.42419e-06,1.63565e-05,0.4483,0.3264324900368214,0.7977591991094475,-5.424175289148181e-06,-0.05456808216823483,1.6356633768310758e-05,-0.20145104140449177
597,0.5722,554.042,184.101,-0.070639,319.908,-0.118303,0.0439917,0.282891,-0.0561979,-0.225275,0.587369,-8.75657e-06,1.71442e-05,0.448937,0.32696051523790093,0.7992483601539038,-8.756531661324729e-06,-0.054647967790076635,1.7144346962538748e-05,-0.20170334300965487
598,0.5732,554.109,184.287,-0.0499564,319.902,-0.0762898,0.0268795,0.283289,-0.056277,-0.225593,0.588195,-8.40163e-06,1.70156e-05,0.449573,0.32748875063483673,0.8007351532604103,-8.401594706386462e-06,-0.054722742178458406,1.7015744766091245e-05,-0.20195716098738037
599,0.5742,554.297,184.753,0.0309367,319.888,0.025325,-0.000625835,0.283685,-0.0563546,-0.225911,0.58902,-6.94179e-06,1.67442e-05,0.450208,0.32801454027956667,0.8022213727430902,-6.941765905876807e-06,-0.054796092847622546,1.6744340184837725e-05,-0.20221089826382121
600,0.5752,554.162,184.412,-0.0253722,319.899,-0.0493611,0.0215096,0.284082,-0.0564359,-0.226228,0.589846,-8.09858e-06,1.70191e-05,0.450843,0.32854186671943,0.8037106225724822,-8.098547206625284e-06,-0.054872934801606266,1.7019244825666746e-05,-0.2024637573287923
601,0.5762,554.363,184.919,0.0570075,319.883,0.0618788,-0.0107086,0.284479,-0.0565131,-0.226545,0.59067,-6.40563e-06,1.66741e-05,0.451478,0.32906940254945116,0.8051974926318173,-6.405609483950414e-06,-0.05494589579470899,1.6674239013525494e-05,-0.2027165362501433
602,0.5772,554.126,184.315,-0.03834,319.902,-0.0711119,0.0291996,0.284875,-0.0565955,-0.226861,0.591495,-8.41906e-06,1.71481e-05,0.452112,0.3295958182562915,0.8066873950634863,-8.419024559835897e-06,-0.05502376504463835,1.7148247029474817e-05,-0.20296843802211206
603,0.5782,554.425,185.078,0.0806836,319.878,0.0971956,-0.0216703,0.285271,-0.0566714,-0.227179,0.592317,-5.84912e-06,1.65855e-05,0.452746,0.3301224424650324,0.8081731026443884,-5.8491028939178236e-06,-0.05509548601902603,1.6585637540256215e-05,-0.2032218537635826
604,0.5792,554.055,184.129,-0.0660478,319.908,-0.112147,0.0421391,0.285668,-0.0567553,-0.227494,0.593142,-9.01994e-06,1.73334e-05,0.45338,0.3306506059081975,0.8096654609672334,-9.019899320450442e-06,-0.055174760182151394,1.7333550224263305e-05,-0.2034727993536417
605,0.5802,554.119,184.307,-0.0470934,319.902,-0.0720031,0.0254582,0.286063,-0.0568341,-0.22781,0.593964,-8.67713e-06,1.72059e-05,0.454013,0.33117631671858105,0.8111536175247,-8.677092353859273e-06,-0.05524920947770828,1.7206048022355702e-05,-0.20372446218422446
606,0.5812,554.297,184.747,0.0301218,319.889,0.023944,-9.88988e-05,0.286458,-0.0569114,-0.228127,0.594786,-7.2962e-06,1.69576e-05,0.454645,0.33170223522575193,0.8126429978497565,-7.296173382798088e-06,-0.05532223589130847,1.6957743780965373e-05,-0.20397684152547302
607,0.5822,554.17,184.427,-0.0232779,319.899,-0.0461261,0.0204737,0.286853,-0.0569923,-0.228442,0.595608,-8.38224e-06,1.72126e-05,0.455278,0.33222836151176693,0.8141336029487531,-8.382204869095133e-06,-0.055398657231140014,1.7212748137707123e-05,-0.20422754933184006
608,0.5832,554.358,184.902,0.0542346,319.885,0.0581338,-0.00957452,0.287248,-0.0570693,-0.228758,0.596428,-6.79302e-06,1.6894e-05,0.455909,0.3327546956587146,0.8156218025816317,-6.7929969275182245e-06,-0.055471388734334326,1.6894142704337867e-05,-0.20447897369910895
609,0.5842,554.137,184.338,-0.0348781,319.902,-0.0661079,0.0276297,0.287643,-0.0571511,-0.229073,0.59725,-8.67526e-06,1.73348e-05,0.456541,0.33328123774871643,0.8171148572647591,-8.675222370024827e-06,-0.055548648014788204,1.7334950248582004e-05,-0.2047295233587506
610,0.5852,554.415,185.049,0.0758404,319.88,0.0907172,-0.0197533,0.288037,-0.0572269,-0.229389,0.598069,-6.27733e-06,1.68143e-05,0.457171,0.33380665405660515,0.8186036839241555,-6.277310297564398e-06,-0.05562023471409849,1.6814441361034937e-05,-0.2049807891272869
611,0.5862,554.072,184.168,-0.0600422,319.908,-0.103797,0.0395817,0.288431,-0.0573101,-0.229703,0.598889,-9.2257e-06,1.75079e-05,0.457803,0.33433227741930627,0.820095550526686,-9.225657443323598e-06,-0.05569880384204928,1.7508053264281287e-05,-0.20523038597074572
612,0.5872,554.13,184.332,-0.0435323,319.902,-0.0664557,0.0235809,0.288825,-0.0573886,-0.230018,0.599708,-8.90446e-06,1.73829e-05,0.458433,0.3348581079184154,0.8215868193738034,-8.904420355393405e-06,-0.055772928576513836,1.7383051083452727e-05,-0.20548069897279742
613,0.5882,554.296,184.74,0.0293243,319.89,0.0223658,0.000545668,0.289219,-0.0574658,-0.230333,0.600526,-7.62303e-06,1.71641e-05,0.459063,0.3353841456355606,0.8230774869919868,-7.623000944811942e-06,-0.05584582009277894,1.7164247303913527e-05,-0.20573093313867075
614,0.5892,554.178,184.445,-0.0208156,319.9,-0.042202,0.0192018,0.289612,-0.0575461,-0.230647,0.601344,-8.62421e-06,1.7395e-05,0.459692,0.33590905474267907,0.8245693744751386,-8.624172811555475e-06,-0.05592163262951144,1.739515129384195e-05,-0.20598029447388666
615,0.5902,554.352,184.882,0.0511128,319.886,0.0537132,-0.00819644,0.290005,-0.057623,-0.230962,0.602161,-7.15947e-06,1.71082e-05,0.460321,0.33643417017961763,0.8260606567599469,-7.159444371018786e-06,-0.055994229464578105,1.710834634605085e-05,-0.20623037129196076
616,0.5912,554.149,184.365,-0.0309157,319.902,-0.0602386,0.0257688,0.290398,-0.0577042,-0.231275,0.602979,-8.88677e-06,1.75098e-05,0.46095,0.3369594920274801,0.8275549854742967,-8.886730512802643e-06,-0.05607087962110713,1.750995329752314e-05,-0.20647878230739436
617,0.5922,554.403,185.015,0.0704086,319.882,0.0832223,-0.0174942,0.29079,-0.0577799,-0.23159,0.603794,-6.68979e-06,1.70385e-05,0.461578,0.3374836828830501,0.8290450499062361,-6.689767623413445e-06,-0.05614233235099986,1.703864515611997e-05,-0.2067287021265295
618,0.5932,554.09,184.211,-0.053302,319.908,-0.0942252,0.0366231,0.291183,-0.0578624,-0.231902,0.604611,-9.3812e-06,1.76697e-05,0.462207,0.33800941727046374,0.8305399903120105,-9.381155996690538e-06,-0.056220197396603555,1.766985611006966e-05,-0.20697616416538056
619,0.5942,554.478,185.209,0.0986514,319.876,0.126367,-0.0310954,0.291575,-0.0579364,-0.232217,0.605425,-6.00819e-06,1.69193e-05,0.462833,0.33853401977740716,0.8320306564829467,-6.008171950844243e-06,-0.05629003451799086,1.6919443132090706e-05,-0.20722592733390421
620,0.5952,554.363,184.947,0.0376618,319.883,0.0710419,-0.0248275,0.291966,-0.0580159,-0.23253,0.606241,-6.57797e-06,1.68997e-05,0.463461,0.33905748891068677,0.8335262035988753,-6.577948365227293e-06,-0.05636505647808432,1.6899842800732756e-05,-0.20747402678905846
621,0.5962,554.263,184.626,0.0267291,319.896,-0.00452325,0.0149171,0.292358,-0.058096,-0.232843,0.607055,-7.60955e-06,1.73888e-05,0.464088,0.3395825023422494,0.8350193015370222,-7.609521047502454e-06,-0.05644063860995563,1.7388951186081414e-05,-0.207722048601235
622,0.5972,554.317,184.812,0.0263001,319.888,0.0399599,-0.0083525,0.29275,-0.0581736,-0.233156,0.607869,-6.89684e-06,1.71099e-05,0.464714,0.34010772161942016,0.8365136153516854,-6.8968162169058544e-06,-0.05651385597552894,1.7110046375279353e-05,-0.20796999279473227
623,0.5982,554.211,184.501,0.00165307,319.9,-0.031565,0.021282,0.293141,-0.0582536,-0.233468,0.608683,-7.9567e-06,1.7483e-05,0.46534,0.3406318061904301,0.8380091460329913,-7.956668345521223e-06,-0.056589331847975766,1.7483152828567938e-05,-0.20821706761130465
624,0.5992,554.341,184.864,0.0387201,319.887,0.0510921,-0.0106227,0.293532,-0.0583302,-0.233781,0.609495,-6.68677e-06,1.71213e-05,0.465965,0.34115609571857397,0.8395022155637624,-6.686747643591673e-06,-0.056661594337467536,1.7121446570289578e-05,-0.20846485688809757
625,0.6002,554.171,184.403,-0.0170323,319.903,-0.052785,0.026354,0.293923,-0.0584108,-0.234093,0.610308,-8.25213e-06,1.7571e-05,0.466591,0.3416805902840052,0.8409983389567672,-8.25209595123333e-06,-0.056737624348913274,1.7571154370843445e-05,-0.2087117773311563
626,0.6012,554.385,184.974,0.0576791,319.884,0.0749657,-0.0171011,0.294312,-0.0584865,-0.234405,0.611119,-6.29501e-06,1.7086e-05,0.467215,0.34220260555901416,0.8424919942049971,-6.294990186450633e-06,-0.05680902660814047,1.7086145966516142e-05,-0.20895862074705374
627,0.6022,554.117,184.265,-0.0402187,319.907,-0.0830585,0.0349475,0.294703,-0.0585681,-0.234717,0.611931,-8.68938e-06,1.7701e-05,0.46784,0.34272750938979923,0.8439887052867534,-8.689342247403253e-06,-0.05688598785150778,1.7701156663552098e-05,-0.2092053871598185
628,0.6032,554.452,185.143,0.0843217,319.878,0.112243,-0.0281174,0.295092,-0.0586422,-0.235029,0.612741,-5.70045e-06,1.69987e-05,0.468463,0.3432499319955611,0.845482941221892,-5.700433752475753e-06,-0.05695587001064206,1.6998844478699482e-05,-0.20945207659347187
629,0.6042,554.035,184.056,-0.0730957,319.914,-0.128935,0.0487202,0.295483,-0.0587255,-0.235339,0.613553,-9.36524e-06,1.78902e-05,0.469088,0.3437752454110514,0.8469820819389247,-9.36519614624931e-06,-0.057034422314921285,1.7890360030525798e-05,-0.20969710846782508
630,0.6052,554.113,184.272,-0.0500603,319.906,-0.080043,0.0289385,0.295872,-0.0588029,-0.235651,0.614362,-8.91989e-06,1.7738e-05,0.469711,0.34429807566540793,0.8484768950135746,-8.919850217892211e-06,-0.057107405026166735,1.7738157319202585e-05,-0.2099436445083609
631,0.6062,554.301,184.745,0.0282664,319.892,0.0238747,-0.000528536,0.296261,-0.0588789,-0.235962,0.615171,-7.42391e-06,1.74495e-05,0.470333,0.344821109340296,0.8499729178812974,-7.423882442902929e-06,-0.05717906214037993,1.7449652243373137e-05,-0.21018931383135897
632,0.6072,554.172,184.416,-0.0241986,319.902,-0.0487374,0.0215524,0.29665,-0.0589586,-0.236273,0.61598,-8.55571e-06,1.77199e-05,0.470956,0.3453443465148618,0.8514701515212113,-8.5556733999681e-06,-0.05725420197476516,1.7720056998404843e-05,-0.21043490676307697
633,0.6082,554.365,184.908,0.0532374,319.887,0.0598036,-0.0105743,0.297039,-0.0590342,-0.236584,0.616788,-6.89703e-06,1.73814e-05,0.471578,0.3458677872682818,0.8529667439455575,-6.8970062155893075e-06,-0.057325470863097916,1.7381551057349398e-05,-0.2106804233272691
634,0.6092,554.141,184.331,-0.0351653,319.905,-0.0677346,0.0283917,0.297428,-0.0591149,-0.236894,0.617596,-8.83641e-06,1.78366e-05,0.4722,0.34639143167976405,0.8544645461052496,-8.836370959053319e-06,-0.057401541628102626,1.783675907307547e-05,-0.2109250744731508
635,0.6102,554.421,185.052,0.074239,319.882,0.0918218,-0.0205813,0.297815,-0.0591894,-0.237205,0.618403,-6.38863e-06,1.73046e-05,0.47282,0.346912586000681,0.855961703015518,-6.388609592788974e-06,-0.05747176259748776,1.7304749725388646e-05,-0.2111704386188873
636,0.6112,554.078,184.168,-0.059038,319.911,-0.104037,0.0399605,0.298204,-0.0592715,-0.237514,0.619211,-9.36794e-06,1.80024e-05,0.473442,0.34743663691793025,0.8574619260800522,-9.36789612093758e-06,-0.05754914098935204,1.8002562044205916e-05,-0.21141414929811497
637,0.6122,554.14,184.34,-0.0415714,319.905,-0.0648192,0.0233951,0.298591,-0.0593487,-0.237824,0.620017,-9.01179e-06,1.78717e-05,0.474062,0.34795819581155385,0.8589596438916702,-9.011749393939006e-06,-0.05762189538731177,1.7871859699702952e-05,-0.21165857302419755
638,0.6132,554.297,184.731,0.0270481,319.893,0.02057,0.000938756,0.298979,-0.0594247,-0.238134,0.620822,-7.77626e-06,1.76624e-05,0.474682,0.3484813050681621,0.8604567088928212,-7.776229764999698e-06,-0.057693513401743335,1.7662555981123873e-05,-0.21190292099066843
639,0.6142,554.189,184.458,-0.0186064,319.901,-0.0393057,0.0184211,0.299366,-0.0595037,-0.238443,0.621628,-8.70863e-06,1.78768e-05,0.475302,0.34900326832659934,0.8619568414724066,-8.708592080020061e-06,-0.05776795267379464,1.787695979094117e-05,-0.2121464053678087
640,0.6152,554.349,184.863,0.0469509,319.889,0.0497842,-0.00726872,0.299753,-0.0595795,-0.238753,0.622432,-7.34273e-06,1.76129e-05,0.475921,0.34952543362390975,0.863454456733612,-7.342703042256815e-06,-0.057839371156187314,1.761305510794564e-05,-0.21239060212969096
641,0.6162,554.164,184.39,-0.0267611,319.904,-0.0546835,0.0241663,0.30014,-0.0596593,-0.239062,0.623237,-8.93124e-06,1.79802e-05,0.476541,0.35004780103829747,0.8649551415158674,-8.931200116579774e-06,-0.05791455257459055,1.7980361644687193e-05,-0.21263393583663903
642,0.6172,554.394,184.98,0.0634895,319.885,0.0756625,-0.0155002,0.300526,-0.0597341,-0.239371,0.62404,-6.92683e-06,1.75556e-05,0.477159,0.3505690200783014,0.8664533019254068,-6.9268060095550865e-06,-0.05798501793062072,1.7555754100451182e-05,-0.21287719436508734
643,0.6182,554.114,184.258,-0.0455239,319.908,-0.0839308,0.0336147,0.300913,-0.059815,-0.239679,0.624844,-9.35502e-06,1.81217e-05,0.477778,0.3510917914388052,0.8679545337944976,-9.354976241882085e-06,-0.05806122386009871,1.8121864199027726e-05,-0.21311959085824672
644,0.6192,554.457,185.145,0.0870891,319.88,0.112512,-0.0272294,0.301298,-0.0598883,-0.239989,0.625645,-6.33909e-06,1.74586e-05,0.478394,0.3516120619241512,0.8694513647768449,-6.339069907990158e-06,-0.05813026544198496,1.7458752402221833e-05,-0.2133634859793837
645,0.6202,554.037,184.057,-0.0751636,319.915,-0.128585,0.0477359,0.301685,-0.0599709,-0.240296,0.626449,-1.00135e-05,1.83145e-05,0.479013,0.3521352370199673,0.8709550080577262,-1.0013449865065027e-05,-0.05820806066907236,1.8314667711516464e-05,-0.21360494632312887
646,0.6212,554.119,184.279,-0.0490837,319.907,-0.0785516,0.0284161,0.30207,-0.0600475,-0.240604,0.627251,-9.54384e-06,1.81686e-05,0.47963,0.3526559093092043,0.8724561158379485,-9.543794457722576e-06,-0.05828019916868521,1.8168765050008417e-05,-0.21384711870320028
647,0.6222,554.301,184.738,0.0262968,319.893,0.0224294,-0.000348406,0.302455,-0.0601228,-0.240913,0.628051,-8.08745e-06,1.78901e-05,0.480246,0.3531767820958658,0.8739546800763907,-8.08741729663165e-06,-0.05835110799993681,1.7890260028741167e-05,-0.2140900024160548
648,0.6232,554.179,184.426,-0.0224147,319.903,-0.046476,0.0208905,0.302841,-0.0602015,-0.24122,0.628853,-9.16444e-06,1.81488e-05,0.480863,0.35369920915569075,0.8754581945585305,-9.164398006689112e-06,-0.058425212851673125,1.8148964690434255e-05,-0.2143312397534871
649,0.6242,554.361,184.894,0.0501179,319.888,0.0566844,-0.00986745,0.303225,-0.0602766,-0.241528,0.629652,-7.58415e-06,1.78282e-05,0.481478,0.3542191294703183,0.8769572844626476,-7.584121240356012e-06,-0.05849592246300883,1.782835892338852e-05,-0.21457318846962803
650,0.6252,554.151,184.351,-0.0319373,319.906,-0.0635104,0.0271282,0.30361,-0.0603563,-0.241835,0.630453,-9.41562e-06,1.82573e-05,0.482094,0.3547406042126109,0.8784613295371382,-9.415575673243914e-06,-0.058570957347808594,1.8257466665616562e-05,-0.21481427749170945
651,0.6262,554.412,185.025,0.0691606,319.884,0.0860102,-0.0190619,0.303994,-0.0604303,-0.242143,0.631251,-7.11584e-06,1.77608e-05,0.482709,0.35526092449973,0.879960939943081,-7.115814682490118e-06,-0.05864062051939578,1.776095772387798e-05,-0.2150560774551361
652,0.6272,554.095,184.203,-0.0532101,319.911,-0.0963448,0.0376556,0.304379,-0.0605113,-0.242449,0.632051,-9.89547e-06,1.84096e-05,0.483324,0.35578280041032895,0.8814655104429918,-9.89542104001817e-06,-0.058716867541087625,1.8409769457772285e-05,-0.21529623354967842
653,0.6282,554.484,185.211,0.0956614,319.878,0.127333,-0.0321681,0.304762,-0.0605835,-0.242757,0.632848,-6.45903e-06,1.76489e-05,0.483938,0.3563021646747939,0.8829656361755114,-6.459009140535876e-06,-0.058784825729930934,1.7649055742641195e-05,-0.21553788509349703
654,0.6292,554.366,184.94,0.0357741,319.886,0.0696532,-0.0242782,0.305146,-0.0606614,-0.243064,0.633646,-7.07374e-06,1.76474e-05,0.484552,0.3568230847162759,0.8844688424527134,-7.073714981209456e-06,-0.05885814353624097,1.764755571631582e-05,-0.21577867799917116
655,0.6302,554.271,184.633,0.0260493,319.898,-0.00269328,0.0138526,0.30553,-0.0607398,-0.24337,0.634444,-8.06315e-06,1.81113e-05,0.485166,0.3573442048294653,0.8859732487672758,-8.06311749290689e-06,-0.05893192616547094,1.8111464010539535e-05,-0.21601861301177427
656,0.6312,554.318,184.799,0.0240081,319.891,0.0372123,-0.00747191,0.305913,-0.0608158,-0.243677,0.635241,-7.41799e-06,1.78584e-05,0.485779,0.35786416722635783,0.8874769685992983,-7.417962486822027e-06,-0.059003444621346546,1.7858559462125e-05,-0.21625925835662918
657,0.6322,554.223,184.518,0.00298194,319.902,-0.0277752,0.0197411,0.306296,-0.0608941,-0.243983,0.636038,-8.38351e-06,1.81974e-05,0.486392,0.35838432880698967,0.8889818873737421,-8.38347485843105e-06,-0.059077121767134866,1.8197565573752073e-05,-0.2164990463341404
658,0.6332,554.337,184.84,0.0343918,319.89,0.0458511,-0.00904139,0.306678,-0.0609693,-0.244289,0.636833,-7.2457e-06,1.78768e-05,0.487004,0.35890333074365266,0.8904842250743139,-7.245673749989301e-06,-0.05914787650716635,1.787695979094117e-05,-0.2167387609477558
659,0.6342,554.189,184.435,-0.0128585,319.904,-0.0456439,0.023918,0.307061,-0.061048,-0.244594,0.637629,-8.62946e-06,1.82728e-05,0.487617,0.35942389040013834,0.8919896495969448,-8.629422766359696e-06,-0.05922191865568849,1.827296694867364e-05,-0.2169776191979319
660,0.6352,554.373,184.929,0.0498487,319.887,0.065312,-0.0142781,0.307443,-0.0611223,-0.2449,0.638423,-6.91991e-06,1.78554e-05,0.488228,0.35994328952518795,0.8934924859257936,-6.919886057499269e-06,-0.05929181587041865,1.7855559408586075e-05,-0.21721718739065454
661,0.6362,554.145,184.323,-0.0314437,319.908,-0.0701513,0.0308719,0.307826,-0.0612019,-0.245205,0.639219,-8.98072e-06,1.83815e-05,0.48884,0.360464247562172,0.8950003059773561,-8.980679673475933e-06,-0.05936669326171573,1.8381668940747886e-05,-0.21745589974301616
662,0.6372,554.426,185.063,0.0707734,319.883,0.095023,-0.0230962,0.308207,-0.061275,-0.245511,0.640012,-6.43862e-06,1.77935e-05,0.489451,0.3609826831962102,0.8965036372120503,-6.4385992721849306e-06,-0.059435451043310716,1.779365830523183e-05,-0.21769532160428173
663,0.6382,554.082,184.159,-0.0567776,319.913,-0.106271,0.0417945,0.308589,-0.0613559,-0.245815,0.640806,-9.51048e-06,1.85349e-05,0.490062,0.36150267789385504,0.8980100590703324,-9.510434775483745e-06,-0.059511539637496225,1.853507177229652e-05,-0.21793310608144223
664,0.6392,554.146,184.343,-0.0397779,319.906,-0.0643062,0.0237613,0.30897,-0.0614317,-0.24612,0.641599,-9.11043e-06,1.83891e-05,0.490672,0.3620215092452288,0.8995157779858194,-9.110388500155331e-06,-0.059582825961005836,1.838926908059868e-05,-0.21817160011189896
665,0.6402,554.298,184.723,0.0251631,319.895,0.018982,0.00133877,0.309351,-0.0615065,-0.246425,0.642391,-7.90183e-06,1.81835e-05,0.491282,0.36254053830900923,0.9010207903882255,-7.901798780629576e-06,-0.05965316653485375,1.81836653208034e-05,-0.21841002141276822
666,0.6412,554.197,184.468,-0.0169034,319.903,-0.0370884,0.0178373,0.309732,-0.0615842,-0.246729,0.643183,-8.77938e-06,1.83835e-05,0.491892,0.3630597651605394,0.9025269952325989,-8.779341461373491e-06,-0.05972622864531418,1.8383668977550727e-05,-0.2186475886542084
667,0.6422,554.346,184.848,0.0433898,319.891,0.0465951,-0.00654795,0.310113,-0.0616588,-0.247034,0.643974,-7.49096e-06,1.81379e-05,0.4925,0.36357918987519033,0.9040324894302867,-7.490931942855106e-06,-0.05979637045233532,1.8138064492800865e-05,-0.21888586480070937
668,0.6432,554.177,184.41,-0.0234359,319.905,-0.0501461,0.0228474,0.310493,-0.0617372,-0.247337,0.644766,-8.96726e-06,1.84769e-05,0.49311,0.36409744843023195,0.9055410804851158,-8.967219794264736e-06,-0.059870079527458375,1.8477070699018938e-05,-0.21912250653064225
669,0.6442,554.386,184.95,0.0576107,319.888,0.0694276,-0.0138863,0.310873,-0.0618109,-0.247642,0.645556,-7.12024e-06,1.80909e-05,0.493717,0.36461590396094756,0.9070470527194088,-7.120214651101797e-06,-0.059939364549412844,1.809106364136781e-05,-0.21936063784927828
670,0.6452,554.134,184.297,-0.0391822,319.909,-0.0753951,0.031102,0.311254,-0.0618903,-0.247945,0.646347,-9.33148e-06,1.86026e-05,0.494326,0.365135921677441,0.9085561236969983,-9.331436461867959e-06,-0.060014002400705646,1.8602773029341435e-05,-0.21959713574476936
671,0.6462,554.44,185.091,0.0773574,319.883,0.101007,-0.0240398,0.311633,-0.0619627,-0.248249,0.647135,-6.61119e-06,1.80122e-05,0.494933,0.36565340624888876,0.9100606586313831,-6.611168146153368e-06,-0.060082054923400796,1.8012362220654055e-05,-0.21983434215830133
672,0.6472,554.069,184.127,-0.0636783,319.914,-0.113235,0.0431902,0.312013,-0.0620434,-0.248552,0.647926,-9.88812e-06,1.87696e-05,0.495541,0.36617245315592983,0.9115721143142756,-9.888071112684749e-06,-0.06015790324104775,1.876977615000719e-05,-0.22007069654312972
673,0.6482,554.142,184.328,-0.041842,319.907,-0.0676798,0.0249119,0.312392,-0.0621188,-0.248855,0.648714,-9.44488e-06,1.86266e-05,0.496148,0.36669033064726153,0.9130790267858935,-9.444835397220963e-06,-0.06022876466363414,1.8626773476082548e-05,-0.22030697932342824
674,0.6492,554.299,184.722,0.0240127,319.895,0.018947,0.00098061,0.312771,-0.0621931,-0.249158,0.649502,-8.18825e-06,1.84052e-05,0.496754,0.36720840445136127,0.9145871271725159,-8.188216476412435e-06,-0.06029858707248503,1.8405369376806036e-05,-0.22054319052088966
675,0.6502,554.197,184.463,-0.0173086,319.903,-0.0382882,0.0182976,0.31315,-0.0622704,-0.249461,0.65029,-9.08604e-06,1.86144e-05,0.497361,0.36772667464264575,0.9160964164105889,-9.085998722069277e-06,-0.06037122318428245,1.8614573249031707e-05,-0.2207793301572002
676,0.6512,554.348,184.851,0.0431119,319.891,0.0474058,-0.00704171,0.313528,-0.0623445,-0.249764,0.651077,-7.7658e-06,1.83589e-05,0.497966,0.3682437730511028,0.9176049778313602,-7.765769846290738e-06,-0.06044084709704667,1.8359068525652944e-05,-0.22101539825403982
677,0.6522,554.176,184.406,-0.0237444,319.905,-0.0511277,0.0232331,0.313907,-0.0624226,-0.250065,0.651864,-9.27164e-06,1.87064e-05,0.498572,0.36876243572145695,0.9191147269572701,-9.271597018467581e-06,-0.06051422380149074,1.8706574965721146e-05,-0.2212498373343138
678,0.6532,554.388,184.953,0.0574298,319.888,0.070294,-0.0143589,0.314285,-0.0624958,-0.250368,0.65265,-7.39402e-06,1.83123e-05,0.499177,0.3692799257216077,0.9206237440987062,-7.393992664250781e-06,-0.06058299164337477,1.831246767114436e-05,-0.22148576288907484
679,0.6542,554.134,184.294,-0.0393741,319.909,-0.0762254,0.0314313,0.314663,-0.0625748,-0.25067,0.653436,-9.63429e-06,1.88305e-05,0.499782,0.36979761136995415,0.9221339477938704,-9.6342435903507e-06,-0.060657202655661324,1.883067729502308e-05,-0.22172083869044978
680,0.6552,554.441,185.093,0.0769602,319.883,0.101627,-0.0244344,0.31504,-0.0626468,-0.250972,0.65422,-6.88822e-06,1.82348e-05,0.500386,0.370314122425657,0.9236414916889293,-6.888196276255698e-06,-0.06072483290235209,1.8234966254970786e-05,-0.22195584350965136
681,0.6562,554.07,184.125,-0.0634698,319.914,-0.113622,0.043392,0.315418,-0.0627271,-0.251273,0.655007,-1.01851e-05,1.8995e-05,0.500991,0.3708321990742516,0.9251559934211504,-1.0185048131994279e-05,-0.06080025367008568,1.899518040615611e-05,-0.22218999955850183
682,0.6572,554.144,184.33,-0.0412613,319.907,-0.067283,0.0248663,0.315795,-0.0628021,-0.251575,0.655791,-9.72794e-06,1.88497e-05,0.501594,0.3713491002430507,0.9266659075289829,-9.727892683719652e-06,-0.060870691009627165,1.8849877656768044e-05,-0.22242486271251383
683,0.6582,554.298,184.719,0.0232986,319.896,0.0183253,0.00109382,0.316172,-0.062876,-0.251876,0.656574,-8.48485e-06,1.86311e-05,0.502197,0.37186619632032847,0.9281750776975946,-8.48481400372858e-06,-0.06094009010123347,1.863127355994365e-05,-0.22265887760782876
684,0.6592,554.199,184.467,-0.0166615,319.904,-0.0374371,0.0180337,0.316549,-0.0629528,-0.252177,0.657358,-9.36107e-06,1.8835e-05,0.5028,0.37238348737957905,0.9296873596955917,-9.3610261853172e-06,-0.061012207132984275,1.883517737977236e-05,-0.22289282207526018
685,0.6602,554.347,184.845,0.0418743,319.892,0.0461786,-0.00677423,0.316925,-0.0630266,-0.252478,0.65814,-8.07103e-06,1.85865e-05,0.503402,0.3728996005940377,0.9311969653897698,-8.070997429276972e-06,-0.06108150187509043,1.8586672730025455e-05,-0.22312669613600356
686,0.6612,554.18,184.414,-0.0225705,319.905,-0.0495047,0.0227223,0.317302,-0.0631042,-0.252779,0.658923,-9.53511e-06,1.89236e-05,0.504005,0.37341728132014684,0.9327096847660201,-9.535064540933114e-06,-0.061154359123647084,1.8923779052437695e-05,-0.22336049981124828
687,0.6622,554.384,184.943,0.0554533,319.888,0.0680464,-0.0137839,0.317678,-0.0631771,-0.25308,0.659705,-7.71458e-06,1.85433e-05,0.504606,0.3739337833142131,0.9342216548427564,-7.714550242732265e-06,-0.06122279847622225,1.8543471927978672e-05,-0.22359423312217708
688,0.6632,554.14,184.307,-0.0372513,319.909,-0.073296,0.0305227,0.318054,-0.0632556,-0.25338,0.660487,-9.8783e-06,1.90426e-05,0.505208,0.37445047954954425,0.9357348077425167,-9.878251209793909e-06,-0.0612964895941277,1.9042781311373602e-05,-0.2238271199174745
689,0.6642,554.435,185.075,0.0737874,319.884,0.0976835,-0.0233435,0.318429,-0.0633273,-0.253681,0.661267,-7.23435e-06,1.84716e-05,0.505809,0.37496599513250595,0.9372452698962153,-7.234323832205902e-06,-0.061363792222995706,1.8471770601102833e-05,-0.22406071279688733
690,0.6652,554.08,184.149,-0.0597739,319.914,-0.108537,0.0418296,0.318805,-0.063407,-0.25398,0.662049,-1.03968e-05,1.91988e-05,0.50641,0.37548307955245463,0.9387607881876947,-1.0396745953489273e-05,-0.061438598547683854,1.9198984298141042e-05,-0.2242926839623436
691,0.6662,554.151,184.345,-0.0390198,319.907,-0.0638371,0.0237114,0.31918,-0.0634816,-0.25428,0.662829,-9.95135e-06,1.90553e-05,0.507011,0.3759989824330312,0.9402736115268833,-9.951300485533388e-06,-0.06150861261667495,1.90554815533428e-05,-0.22452536125381617
692,0.6672,554.297,184.714,0.0226621,319.896,0.0172903,0.0014664,0.319555,-0.0635552,-0.25458,0.663608,-8.77086e-06,1.88543e-05,0.50761,0.3765150788134668,0.9417856735419525,-8.770821536163709e-06,-0.06157768304096356,1.8854477743524e-05,-0.2247579687525706
693,0.6682,554.204,184.477,-0.0151781,319.903,-0.0349993,0.0172212,0.31993,-0.0636315,-0.254879,0.664388,-9.59349e-06,1.90435e-05,0.50821,0.3770313687663378,0.9433008572121269,-9.593443982658378e-06,-0.06164928193221508,1.9043681328545503e-05,-0.22498973146966073
694,0.6692,554.343,184.832,0.0398536,319.892,0.0434168,-0.00595389,0.320304,-0.063705,-0.255179,0.665166,-8.38123e-06,1.88142e-05,0.508809,0.3775464748170836,0.9448133335560458,-8.381194877560283e-06,-0.061718248175452683,1.8814376988141035e-05,-0.22522219967824508
695,0.6702,554.187,184.43,-0.0202669,319.905,-0.0459267,0.0215506,0.320678,-0.063782,-0.255477,0.665945,-9.74964e-06,1.91275e-05,0.509408,0.37806177355352255,0.9463289333923783,-9.74959247246332e-06,-0.061790493088878296,1.912768293177436e-05,-0.22545304906447405
696,0.6712,554.377,184.922,0.0521446,319.889,0.0634987,-0.0124393,0.321052,-0.0638547,-0.255777,0.666722,-8.05177e-06,1.87766e-05,0.510007,0.37857726504773215,0.9478418186534336,-8.051737584557905e-06,-0.061858698440736104,1.8776776281370644e-05,-0.22568537829862712
697,0.6722,554.151,184.332,-0.0334531,319.908,-0.0676147,0.0287108,0.321426,-0.0639326,-0.256075,0.6675,-1.00609e-05,1.92387e-05,0.510605,0.3790929493718176,0.949357829239996,-1.0060849389370574e-05,-0.06193177680168849,1.923888506505378e-05,-0.2259160896781912
698,0.6732,554.423,185.042,0.0686424,319.885,0.0904498,-0.0211759,0.321799,-0.0640041,-0.256375,0.668276,-7.61244e-06,1.87139e-05,0.511203,0.3796074469897739,0.9508711179955847,-7.612411025426091e-06,-0.06199884628188468,1.87140751062298e-05,-0.22614828002099496
699,0.6742,554.097,184.189,-0.0536477,319.913,-0.0995478,0.0390022,0.322174,-0.0640831,-0.256672,0.669053,-1.05292e-05,1.9383e-05,0.511801,0.3801248967981703,0.9523875339055563,-1.05291445681166e-05,-0.06207294544607289,1.9383187851662598e-05,-0.22637807985486413
700,0.6752,554.488,185.215,0.0924526,319.88,0.129073,-0.0336181,0.322546,-0.0641531,-0.256971,0.669828,-6.99252e-06,1.86111e-05,0.512397,0.38063839876522354,0.9539012207222113,-6.992495552360367e-06,-0.06213859804202393,1.8611273187696398e-05,-0.22660935823114725
701,0.6762,554.368,184.93,0.0335594,319.888,0.0680162,-0.0236246,0.322919,-0.064229,-0.25727,0.670604,-7.67089e-06,1.86318e-05,0.512994,0.38115347294332524,0.9554180365179046,-7.670860578845584e-06,-0.06220977902108027,1.86319735731022e-05,-0.22684056746553305
702,0.6772,554.279,184.641,0.0252145,319.9,-0.000378246,0.0124929,0.323292,-0.0643051,-0.257567,0.671379,-8.60889e-06,1.90642e-05,0.513591,0.38166873927993095,0.9569340728844171,-8.608852943625678e-06,-0.062281142141495605,1.9064381723055135e-05,-0.22707016172056116
703,0.6782,554.317,184.782,0.0212427,319.893,0.033824,-0.00640475,0.323664,-0.0643791,-0.257865,0.672153,-8.04837e-06,1.88431e-05,0.514187,0.3821828156632221,0.9584493261842109,-8.048337611921141e-06,-0.062350530769566204,1.8843277532321068e-05,-0.2273004604961466
704,0.6792,554.236,184.537,0.00443504,319.903,-0.0232175,0.0178316,0.324037,-0.064455,-0.258162,0.672928,-8.89896e-06,1.91406e-05,0.514783,0.38269846601627666,0.9599677127107842,-8.898920404343258e-06,-0.062421695663538945,1.9140783182436394e-05,-0.2275299181832261
705,0.6802,554.331,184.81,0.0293435,319.893,0.0396054,-0.00716521,0.324408,-0.0645283,-0.25846,0.673701,-7.91989e-06,1.88691e-05,0.515378,0.38321154231693755,0.9614833534723941,-7.919858637794874e-06,-0.06249041763455576,1.886927802252636e-05,-0.2277600799717977
706,0.6812,554.208,184.471,-0.00828451,319.904,-0.03733,0.0209968,0.32478,-0.0646046,-0.258757,0.674475,-9.08939e-06,1.9202e-05,0.515973,0.3837261927297213,0.9630021292783968,-9.08934869159328e-06,-0.0625619468868146,1.9202184359690122e-05,-0.22798940117216215
707,0.6822,554.358,184.877,0.0410375,319.891,0.0542065,-0.0110193,0.325152,-0.0646772,-0.259054,0.675247,-7.66736e-06,1.88624e-05,0.516568,0.3842410346280727,0.9645181520316888,-7.667330605864997e-06,-0.06263000241902483,1.8862577896294752e-05,-0.22821865427424315
708,0.6832,554.176,184.388,-0.0220316,319.907,-0.0555951,0.0261519,0.325524,-0.0647541,-0.259351,0.67602,-9.34726e-06,1.92875e-05,0.517162,0.3847560680832376,0.9660373116427536,-9.347216314514739e-06,-0.0627020834002896,1.928768600500952e-05,-0.22844783929826296
709,0.6842,554.396,184.974,0.0560488,319.888,0.075875,-0.0174688,0.325894,-0.0648257,-0.259648,0.676791,-7.30734e-06,1.88268e-05,0.517756,0.38526852262667277,0.9675537109068291,-7.3073133014522895e-06,-0.06276919152861848,1.882697722521698e-05,-0.22867695626443774
710,0.6852,554.13,184.271,-0.0397398,319.911,-0.0815086,0.0340472,0.326266,-0.0649035,-0.259944,0.677563,-9.72357e-06,1.94033e-05,0.51835,0.3857839383784758,0.9690732488378222,-9.723522726212686e-06,-0.06284210524913703,1.9403488245250955e-05,-0.2289052340985973
711,0.6862,554.45,185.114,0.0761957,319.883,0.106978,-0.0271633,0.326636,-0.0649739,-0.260241,0.678333,-6.80187e-06,1.87555e-05,0.518943,0.3862967733042866,0.9705900191210453,-6.801846867299233e-06,-0.06290807884262972,1.875567588549565e-05,-0.2291342152386875
712,0.6872,554.067,184.104,-0.0640359,319.916,-0.118485,0.0456457,0.327007,-0.0650531,-0.260536,0.679105,-1.02709e-05,1.95593e-05,0.519536,0.3868111848246192,0.9721119019870081,-1.0270847254467697e-05,-0.06298229358384289,1.9559491284404373e-05,-0.2293615871061927
713,0.6882,554.147,184.327,-0.0402331,319.908,-0.067847,0.0255478,0.327377,-0.0651266,-0.260832,0.679874,-9.74889e-06,1.94005e-05,0.520129,0.38732439990193845,0.97362903930417,-9.748842479728737e-06,-0.06305116185432458,1.94006881908404e-05,-0.22958966231961242
714,0.6892,554.297,184.71,0.0210647,319.897,0.01661,0.00142461,0.327747,-0.0651991,-0.261128,0.680643,-8.51896e-06,1.91818e-05,0.520721,0.3878378049039706,0.9751473437486315,-8.518923713785043e-06,-0.06311908818273093,1.91819839718832e-05,-0.22981767003275955
715,0.6902,554.206,184.474,-0.0151434,319.904,-0.03556,0.0175586,0.328117,-0.0652745,-0.261423,0.681413,-9.34403e-06,1.93738e-05,0.521313,0.3883513999010002,0.9766687928860638,-9.343986344667599e-06,-0.06318972634039,1.9373987673265702e-05,-0.23004484031083638
716,0.6912,554.344,184.83,0.0384464,319.893,0.0432557,-0.00616986,0.328486,-0.0653469,-0.261719,0.682181,-8.12235e-06,1.91409e-05,0.521904,0.38886379609884814,0.9781874576116094,-8.122317013858904e-06,-0.06325754894899482,1.9141083188234376e-05,-0.23027271331123655
717,0.6922,554.191,184.431,-0.0196209,319.906,-0.0454197,0.0215262,0.328856,-0.065423,-0.262014,0.682949,-9.4851e-06,1.94527e-05,0.522495,0.3893777707828576,0.9797072891196514,-9.485055016633659e-06,-0.06332883233715247,1.945288920501831e-05,-0.23049974937134443
718,0.6932,554.376,184.915,0.0500847,319.89,0.0624167,-0.0123528,0.329225,-0.0654947,-0.26231,0.683716,-7.80632e-06,1.91069e-05,0.523086,0.38989054578144544,0.9812263070793252,-7.806289530787325e-06,-0.06339598925226975,1.9107082537939135e-05,-0.2307274877385893
719,0.6942,554.157,184.341,-0.0317589,319.909,-0.0656667,0.0282383,0.329594,-0.0655715,-0.262604,0.684484,-9.7754e-06,1.95574e-05,0.523677,0.39040351002892204,0.982748473320181,-9.77535222090875e-06,-0.06346791767820825,1.9557591247165718e-05,-0.23095362061403268
720,0.6952,554.418,185.027,0.0652095,319.886,0.0874759,-0.0205113,0.329963,-0.0656422,-0.2629,0.68525,-7.39487e-06,1.9051e-05,0.524266,0.3909166635951331,0.9842678404940806,-7.3948426579928395e-06,-0.06353412815586046,1.9051181471496648e-05,-0.23118122465527102
721,0.6962,554.107,184.209,-0.0500629,319.913,-0.0950762,0.037768,0.330332,-0.0657201,-0.263193,0.686018,-1.02064e-05,1.96913e-05,0.524857,0.3914300065499501,0.9857923435298133,-1.020634791493169e-05,-0.06360707600592153,1.9691493874818278e-05,-0.23140645555850836
722,0.6972,554.478,185.184,0.0866138,319.881,0.122758,-0.0319437,0.330699,-0.0657893,-0.263489,0.686782,-6.82462e-06,1.896e-05,0.525445,0.3919407550789762,0.9873100685774141,-6.824596712307063e-06,-0.06367187215428927,1.8960179742011363e-05,-0.23163392558043894
723,0.6982,554.362,184.909,0.0305132,319.889,0.0634569,-0.021904,0.331067,-0.0658642,-0.263783,0.687548,-7.49631e-06,1.89849e-05,0.526035,0.39245308353950037,0.9888329312718942,-7.496281902774626e-06,-0.06374200050472545,1.898508021436207e-05,-0.23185979200232731
724,0.6992,554.282,184.646,0.0247112,319.9,0.00112073,0.0116309,0.331436,-0.0659393,-0.264077,0.688313,-8.35033e-06,1.93854e-05,0.526624,0.3929669935378899,0.9903549705701205,-8.35029513612806e-06,-0.06381231084030137,1.9385587898046452e-05,-0.23208559202924828
725,0.7002,554.313,184.766,0.0190827,319.894,0.030479,-0.00524228,0.331803,-0.0660124,-0.264371,0.689078,-7.86484e-06,1.91893e-05,0.527212,0.39347830624466096,0.9918781746738916,-7.8648090722222e-06,-0.06388074365912888,1.918948411572252e-05,-0.232311325680719
726,0.7012,554.243,184.552,0.00592719,319.902,-0.0194236,0.0163851,0.332171,-0.0660872,-0.264664,0.689842,-8.60887e-06,1.94547e-05,0.5278,0.3939912006281374,0.9934005510730766,-8.608832943735045e-06,-0.06395076276075617,1.945488924381955e-05,-0.23253622551286013
727,0.7022,554.324,184.787,0.0259696,319.894,0.0347214,-0.00555684,0.332538,-0.0661597,-0.264958,0.690605,-7.76087e-06,1.92197e-05,0.528388,0.3945028892878937,0.9949220960891527,-7.760839884518589e-06,-0.06401862387046109,1.9219884699550605e-05,-0.23276182669756018
728,0.7032,554.22,184.497,-0.0049308,319.904,-0.0311705,0.0189019,0.332905,-0.0662348,-0.265251,0.691369,-8.76373e-06,1.95082e-05,0.528975,0.3950147657718519,0.9964467989328876,-8.763691598634438e-06,-0.0640889134324023,1.9508390286082644e-05,-0.23298659455223913
729,0.7042,554.346,184.841,0.0356226,319.892,0.0465243,-0.00859187,0.333271,-0.0663067,-0.265545,0.692131,-7.55108e-06,1.92215e-05,0.529562,0.3955254346228234,0.9979686711533515,-7.551051490639615e-06,-0.06415620302043679,1.922168473411645e-05,-0.23321206334790368
730,0.7052,554.194,184.43,-0.0161191,319.906,-0.0459239,0.0230162,0.333638,-0.0663823,-0.265837,0.692894,-8.96819e-06,1.95813e-05,0.530149,0.39603768644979076,0.9994937029750961,-8.96814978590399e-06,-0.0642269501372138,1.9581491714992794e-05,-0.2334359327388844
731,0.7062,554.377,184.919,0.0476233,319.89,0.0638424,-0.0137231,0.334004,-0.0664534,-0.266131,0.693655,-7.2574e-06,1.92e-05,0.530735,0.39654872975825195,1.001015896804351,-7.2573736651371235e-06,-0.06429348123585044,1.9200184321110925e-05,-0.2336612694485397
732,0.7072,554.158,184.338,-0.0300713,319.909,-0.0664864,0.0292795,0.334371,-0.0665297,-0.266423,0.694417,-9.26292e-06,1.96781e-05,0.531321,0.3970613572034556,1.0025412520042396,-9.262877099236455e-06,-0.0643648729196048,1.967829361504414e-05,-0.2338850076904877
733,0.7082,554.419,185.028,0.0633305,319.886,0.0883006,-0.0213631,0.334736,-0.0665998,-0.266716,0.695177,-6.85332e-06,1.91512e-05,0.531906,0.3975713776719081,1.0040637618362154,-6.853296516062812e-06,-0.06443045864320662,1.9151383385374032e-05,-0.2341094465013429
734,0.7092,554.109,184.208,-0.0487584,319.913,-0.0953468,0.03837,0.335103,-0.0666771,-0.267007,0.695939,-9.68636e-06,1.98053e-05,0.532492,0.3980843804977743,1.0055914403943453,-9.68631308739809e-06,-0.06450277537367588,1.9805496126235056e-05,-0.2343322882273674
735,0.7102,554.477,185.182,0.0846171,319.881,0.122672,-0.0323317,0.335467,-0.0667458,-0.2673,0.696698,-6.29558e-06,1.90666e-05,0.533076,0.3985933758438085,1.00711426213535,-6.295560182834059e-06,-0.06456704182542983,1.9066781768772856e-05,-0.23455659600422274
736,0.7112,554.361,184.905,0.0296695,319.889,0.0628061,-0.0216164,0.335833,-0.0668201,-0.267592,0.697458,-6.98007e-06,1.90991e-05,0.533661,0.3991053547057839,1.0086402487760453,-6.980045639370935e-06,-0.06463654191226198,1.9099282388967964e-05,-0.23478007284898228
737,0.7122,554.284,184.648,0.0243433,319.9,0.00178135,0.0112885,0.336198,-0.0668946,-0.267884,0.698217,-7.81648e-06,1.94906e-05,0.534246,0.3996161213694971,1.010165385441014,-7.816449451358842e-06,-0.06470622389420344,1.9490789942899767e-05,-0.23500348444802954
738,0.7132,554.313,184.761,0.0184051,319.894,0.0296199,-0.0048809,0.336563,-0.0669672,-0.268176,0.698976,-7.35381e-06,1.93035e-05,0.534829,0.40012707449706997,1.0116916801241236,-7.35378296079503e-06,-0.06477412375755387,1.9303686313865143e-05,-0.2352268308204134
739,0.7142,554.246,184.557,0.00621778,319.902,-0.0181761,0.0159264,0.336928,-0.0670414,-0.268467,0.699734,-8.06685e-06,1.95581e-05,0.535413,0.4006382141565745,1.0132171204865164,-8.066817463014964e-06,-0.06484351494312623,1.95582912609904e-05,-0.23544934743490697
740,0.7152,554.322,184.779,0.0248112,319.894,0.0332521,-0.00502147,0.337292,-0.0671134,-0.268759,0.700492,-7.25915e-06,1.93355e-05,0.535996,0.40114813926726756,1.0147437175710459,-7.259123652403332e-06,-0.06491084378618295,1.933568693202048e-05,-0.2356725636343049
741,0.7162,554.224,184.506,-0.00395929,319.904,-0.0291041,0.0182283,0.337656,-0.0671879,-0.269049,0.70125,-8.20925e-06,1.96089e-05,0.536579,0.4016582500244863,1.0162714722548407,-8.209216304178035e-06,-0.06498050533339594,1.9609092255734595e-05,-0.23589418645398885
742,0.7172,554.342,184.829,0.0336965,319.893,0.0440407,-0.0077669,0.33802,-0.0672593,-0.269341,0.702006,-7.06458e-06,1.93404e-05,0.537162,0.4021685464958187,1.017796349818958,-7.064555045954712e-06,-0.06504726334202593,1.9340587026794864e-05,-0.23611727277935568
743,0.7182,554.2,184.444,-0.0141936,319.906,-0.0425845,0.0219724,0.338384,-0.0673342,-0.269631,0.702763,-8.39423e-06,1.96775e-05,0.537744,0.40267902874887684,1.0193243999497748,-8.394194768501784e-06,-0.06511728867951994,1.9677693603226132e-05,-0.23633876665208575
744,0.7192,554.37,184.899,0.0445679,319.89,0.059767,-0.0124225,0.338748,-0.067405,-0.269922,0.703519,-6.7949e-06,1.93241e-05,0.538326,0.4031896968512976,1.020851586399878,-6.794876914684167e-06,-0.06518347603242158,1.932428671169717e-05,-0.23656095974032776
745,0.7202,554.168,184.361,-0.0267414,319.908,-0.0611764,0.0276406,0.339111,-0.0674805,-0.270212,0.704275,-8.6588e-06,1.97673e-05,0.538908,0.4036991471708935,1.0223799278394683,-8.658762512658846e-06,-0.06525405201570422,1.9767495374356514e-05,-0.2367823249624944
746,0.7212,554.408,184.998,0.0586058,319.887,0.0817676,-0.0193083,0.339474,-0.0675503,-0.270503,0.705029,-6.42804e-06,1.92835e-05,0.539488,0.4042087824545242,1.0239053773272464,-6.428019340143365e-06,-0.06531929500586664,1.9283685927851124e-05,-0.23700438899404674
747,0.7222,554.124,184.245,-0.0433294,319.912,-0.0870184,0.0358026,0.339838,-0.0676267,-0.270792,0.705785,-9.03605e-06,1.98837e-05,0.54007,0.4047200074886492,1.0254360283056734,-9.036009175011905e-06,-0.06539070188395069,1.9883897682149154e-05,-0.2372248628656184
748,0.7232,554.46,185.135,0.0774169,319.883,0.112384,-0.0291078,0.3402,-0.0676953,-0.271083,0.706538,-5.92736e-06,1.92118e-05,0.54065,0.4052286081825316,1.0269617559993724,-5.9273424332095814e-06,-0.06545481388273477,1.9211984547906624e-05,-0.23744679813737635
749,0.7242,554.063,184.084,-0.0659213,319.917,-0.122886,0.0472874,0.340563,-0.0677731,-0.271372,0.707294,-9.5693e-06,2.00352e-05,0.541231,0.4057387987612897,1.0284947184737114,-9.569254214358835e-06,-0.06552751866996176,2.0035400706053252e-05,-0.23766714417117918
750,0.7252,554.151,184.327,-0.0390546,319.909,-0.0676847,0.0259904,0.340925,-0.0678449,-0.271662,0.708047,-8.97397e-06,1.98683e-05,0.54181,0.40624776832437415,1.0300227502284773,-8.973929734090724e-06,-0.06559461138546396,1.986849737600771e-05,-0.2378881886463715
751,0.7262,554.295,184.698,0.0183324,319.897,0.0145931,0.00186409,0.341287,-0.0679159,-0.271952,0.708799,-7.7711e-06,1.96538e-05,0.54239,0.40675692216779313,1.0315499014735496,-7.771069805095898e-06,-0.06566095181294263,1.965399313719196e-05,-0.23810916902795998
752,0.7272,554.213,184.485,-0.0132567,319.904,-0.0329643,0.0169381,0.341649,-0.0679895,-0.272241,0.709552,-8.52897e-06,1.98313e-05,0.542969,0.4072662603582682,1.0330802346474899,-8.528933628459967e-06,-0.06572971663631255,1.9831496641531388e-05,-0.23832932366423365
753,0.7282,554.339,184.811,0.0344766,319.894,0.0397189,-0.00530969,0.342011,-0.0680606,-0.27253,0.710304,-7.39566e-06,1.96183e-05,0.543547,0.407775782962545,1.034609685985572,-7.395632652174022e-06,-0.06579614089204944,1.9618492440143243e-05,-0.23854941468501034
754,0.7292,554.202,184.452,-0.0162227,319.905,-0.0403952,0.0200998,0.342373,-0.0681348,-0.272819,0.711056,-8.63307e-06,1.98998e-05,0.544126,0.40828549004739356,1.0361402879036241,-8.633032735128054e-06,-0.06586545624676388,1.9899998002337327e-05,-0.23876944210867224
755,0.7302,554.366,184.883,0.0440882,319.891,0.0558996,-0.0105576,0.342733,-0.0682053,-0.273108,0.711807,-7.12413e-06,1.95947e-05,0.544704,0.4087925640916623,1.0376700035961854,-7.124104623446037e-06,-0.06593131041071187,1.9594891977448015e-05,-0.2389894059535963
756,0.7312,554.175,184.379,-0.0257506,319.908,-0.0568383,0.0256192,0.343095,-0.0682802,-0.273396,0.712558,-8.86596e-06,1.99893e-05,0.545282,0.4093026393179091,1.039200868536721,-8.865920697487262e-06,-0.06600126953556018,1.9989499787431697e-05,-0.23920854544707992
757,0.7322,554.4,184.973,0.0559608,319.888,0.0761327,-0.0172111,0.343455,-0.0683497,-0.273685,0.713308,-6.78543e-06,1.95554e-05,0.545859,0.40981007960183446,1.0407308428567759,-6.785406979070707e-06,-0.066066180191656,1.955559120814243e-05,-0.23942838240947462
758,0.7332,554.135,184.275,-0.0398556,319.911,-0.0802104,0.033276,0.343817,-0.0684254,-0.273973,0.714059,-9.20559e-06,2.01004e-05,0.546437,0.4103205232353737,1.04226400735097,-9.205547628732269e-06,-0.0661368763059339,2.0100602014405666e-05,-0.23964739549594238
759,0.7342,554.446,185.096,0.0722769,319.884,0.103789,-0.0262674,0.344176,-0.0684938,-0.274262,0.714807,-6.33058e-06,1.9491e-05,0.547013,0.41082691919585135,1.0437921922983864,-6.33055996190901e-06,-0.06620075035907702,1.9491189950704424e-05,-0.2398671056489977
760,0.7352,554.081,184.131,-0.0595565,319.916,-0.112452,0.0437683,0.344537,-0.0685708,-0.274548,0.715557,-9.68346e-06,2.02407e-05,0.547591,0.4113363196549318,1.0453256114028955,-9.68341311546883e-06,-0.06627265013312256,2.024090484442631e-05,-0.24008447257183052
761,0.7362,554.162,184.354,-0.0355486,319.908,-0.0615068,0.0237739,0.344897,-0.0686422,-0.274836,0.716306,-9.12949e-06,2.00825e-05,0.548167,0.4118444921955766,1.0468581341439576,-9.129448326317124e-06,-0.06633931588590736,2.0082701654766666e-05,-0.24030329673153827
762,0.7372,554.294,184.693,0.0178337,319.897,0.0133829,0.00236238,0.345257,-0.0687129,-0.275124,0.717054,-8.03093e-06,1.98977e-05,0.548742,0.4123528477112697,1.048389756783752,-8.030897752142607e-06,-0.0664053233628824,1.989789796064123e-05,-0.2405220578789623
763,0.7382,554.22,184.5,-0.0112883,319.904,-0.029403,0.0156982,0.345617,-0.068786,-0.275411,0.717802,-8.71353e-06,2.00544e-05,0.549318,0.4128613862678938,1.0499225255058624,-8.713492037348836e-06,-0.06647356663942239,2.0054601090890856e-05,-0.2407399967726238
764,0.7392,554.333,184.794,0.0320921,319.894,0.0359993,-0.0041392,0.345976,-0.0688567,-0.275699,0.718549,-7.69064e-06,1.98683e-05,0.549893,0.41336869456195413,1.0514543897124637,-7.690610427157907e-06,-0.06653956462520472,1.986849737600771e-05,-0.24095863216854518
765,0.7402,554.21,184.473,-0.013458,319.905,-0.0357223,0.0185039,0.346335,-0.0689303,-0.275986,0.719296,-8.79953e-06,2.01184e-05,0.550468,0.4138761850123873,1.0529873986491305,-8.799491284294803e-06,-0.06660826478505144,2.0118602376273387e-05,-0.24117644578336395
766,0.7412,554.356,184.857,0.0403116,319.892,0.0501803,-0.00879828,0.346694,-0.0690005,-0.276273,0.720042,-7.44976e-06,1.98505e-05,0.551042,0.41438385768459884,1.05451949865077,-7.449732250641716e-06,-0.06667378658502143,1.9850697022372188e-05,-0.24139419689464492
767,0.7422,554.187,184.41,-0.0215141,319.907,-0.0499793,0.0233454,0.347053,-0.0690747,-0.27656,0.720789,-8.99889e-06,2.02e-05,0.551617,0.4148917126440186,1.0560547980792063,-8.998849510111206e-06,-0.06674303682084126,2.0200204021270096e-05,-0.2416118855203242
768,0.7432,554.385,184.935,0.0504147,319.889,0.0676851,-0.0145993,0.347411,-0.0691441,-0.276847,0.721534,-7.15328e-06,1.982e-05,0.55219,0.41539833455705666,1.0575871296264032,-7.153254415359633e-06,-0.06680780260668717,1.9820196417441593e-05,-0.24182951167833233
769,0.7442,554.153,184.32,-0.0334822,319.91,-0.0701108,0.0299827,0.34777,-0.069219,-0.277133,0.72228,-9.28885e-06,2.02996e-05,0.552764,0.4159065537790547,1.059122662307582,-9.288806858798182e-06,-0.06687769608472849,2.0299806038348578e-05,-0.24204631743329164
770,0.7452,554.425,185.04,0.0642541,319.886,0.0914035,-0.0224047,0.348128,-0.0692874,-0.27742,0.723023,-6.75937e-06,1.97688e-05,0.553337,0.4164135390702599,1.0606531589547719,-6.759347155549378e-06,-0.06694151946753168,1.9768995404012557e-05,-0.24226381892723092
771,0.7462,554.107,184.197,-0.0501127,319.914,-0.097662,0.0389893,0.348486,-0.0693633,-0.277705,0.723769,-9.69467e-06,2.04234e-05,0.55391,0.416920705894692,1.0621909797471893,-9.694623006817338e-06,-0.06701233591868583,2.042360855902814e-05,-0.2424797429681993
772,0.7472,554.479,185.184,0.0831888,319.881,0.123776,-0.0330231,0.348843,-0.0694303,-0.277992,0.724512,-6.2303e-06,1.96883e-05,0.554482,0.4174266368900057,1.0637237570013776,-6.230280591768e-06,-0.06707484399813524,1.968849381595028e-05,-0.24269712008685884
773,0.7482,554.361,184.898,0.0283807,319.889,0.0616294,-0.0210847,0.349201,-0.0695032,-0.278278,0.725255,-6.95989e-06,1.97322e-05,0.555054,0.4179341664683862,1.0652576735322543,-6.9598657800318264e-06,-0.06714285176309465,1.973239468111565e-05,-0.24291367774129324
774,0.7492,554.287,184.653,0.0237839,319.9,0.00326255,0.0104257,0.349559,-0.069576,-0.278563,0.725999,-7.76178e-06,2.01026e-05,0.555627,0.4184418777748833,1.0667947969803806,-7.761749877488455e-06,-0.06721076129154946,2.0102802058552527e-05,-0.24312941659888943
775,0.7502,554.311,184.75,0.0167437,319.895,0.0274925,-0.00419932,0.349916,-0.0696472,-0.278849,0.726741,-7.35366e-06,1.99348e-05,0.556198,0.4189483519255055,1.068328927811892,-7.353632961892842e-06,-0.06727717352104201,1.9934998699344675e-05,-0.2433458506341999
776,0.7512,554.252,184.567,0.00686769,319.902,-0.0154618,0.0147458,0.350273,-0.0697197,-0.279134,0.727484,-7.99604e-06,2.01644e-05,0.556769,0.4194550069196783,1.069866267256136,-7.996008031807555e-06,-0.06734479347470879,2.0164603302896822e-05,-0.2435614663400716
777,0.7522,554.318,184.761,0.0220013,319.895,0.0296497,-0.00392174,0.350629,-0.0697903,-0.279419,0.728226,-7.28235e-06,1.997e-05,0.55734,0.41996042286084156,1.0714026779643215,-7.282323483792652e-06,-0.06741063660799951,1.997019940169764e-05,-0.2437770206042229
778,0.7532,554.234,184.525,-0.00179711,319.903,-0.0245034,0.016535,0.350986,-0.069863,-0.279704,0.728967,-8.11052e-06,2.02081e-05,0.557911,0.42046743922883967,1.072938156173111,-8.110487109802555e-06,-0.06747843339027526,2.0208304184921033e-05,-0.2439925134441625
779,0.7542,554.334,184.8,0.0291457,319.894,0.0380924,-0.00598971,0.351342,-0.0699332,-0.279989,0.729708,-7.12388e-06,1.99812e-05,0.558481,0.42097321566006807,1.0744747725929082,-7.123854625201709e-06,-0.06754389410655326,1.9981399625557117e-05,-0.2442079448773934
780,0.7552,554.215,184.477,-0.00988712,319.905,-0.035069,0.0194216,0.351699,-0.0700062,-0.280273,0.730449,-8.25162e-06,2.02657e-05,0.559051,0.42148059365964285,1.0760125280674404,-8.251585955521001e-06,-0.06761196091781463,2.0265905350758118e-05,-0.24442255934435142
781,0.7562,554.355,184.855,0.0374873,319.892,0.0501974,-0.00955517,0.352054,-0.0700758,-0.280558,0.731188,-6.90975e-06,1.9976e-05,0.55962,0.4219853088520382,1.0775472683423675,-6.909726127712901e-06,-0.0676768528670687,1.997619952165408e-05,-0.24463786823196443
782,0.7572,554.19,184.413,-0.0193162,319.907,-0.0492099,0.0237348,0.35241,-0.0701493,-0.280842,0.731929,-8.44875e-06,2.03391e-05,0.56019,0.4224916257410485,1.079087301379983,-8.448714309383654e-06,-0.06774537610012332,2.03393068409774e-05,-0.24485236061802607
783,0.7582,554.383,184.928,0.0478358,319.889,0.0666905,-0.0147404,0.352766,-0.0702182,-0.281127,0.732667,-6.62736e-06,1.99533e-05,0.560759,0.4229981229109592,1.0806222341289193,-6.627338039133512e-06,-0.06780960623095655,1.9953499068359193e-05,-0.24506754702972977
784,0.7592,554.158,184.327,-0.0313158,319.909,-0.0683347,0.0298152,0.353121,-0.0702924,-0.28141,0.733407,-8.72375e-06,2.0431e-05,0.561328,0.42350337692187323,1.0821624643970886,-8.723711948155355e-06,-0.06787877219208538,2.043120871420001e-05,-0.2452811626858793
785,0.7602,554.42,185.028,0.0612546,319.886,0.0890226,-0.0219445,0.353476,-0.0703603,-0.281695,0.734145,-6.25376e-06,1.99093e-05,0.561895,0.4240088103298023,1.0836996674539723,-6.253740445272271e-06,-0.06794206107477163,1.9909498191417185e-05,-0.2454962269064066
786,0.7612,554.115,184.212,-0.0471337,319.913,-0.094169,0.0381624,0.353832,-0.0704355,-0.281978,0.734884,-9.10377e-06,2.05464e-05,0.562464,0.4245158477135791,1.0852400906244775,-9.103728560777569e-06,-0.06801214919643239,2.054661107875333e-05,-0.2457097212633158
787,0.7622,554.471,185.162,0.0790037,319.882,0.119202,-0.0317874,0.354185,-0.070502,-0.282262,0.73562,-5.75745e-06,1.98379e-05,0.563031,0.42501879057201397,1.086775392252871,-5.757433425901404e-06,-0.0680741243278149,1.9838096772417657e-05,-0.24592390928633812
788,0.7632,554.357,184.883,0.026441,319.89,0.0586425,-0.0199085,0.35454,-0.0705742,-0.282546,0.736358,-6.476e-06,1.98838e-05,0.563599,0.42552476204728995,1.0883160009070232,-6.475979030806656e-06,-0.06814140694710669,1.988399768415583e-05,-0.2461380364885989
789,0.7642,554.288,184.655,0.0233246,319.899,0.00409327,0.00995688,0.354895,-0.0706464,-0.282828,0.737095,-7.22451e-06,2.02346e-05,0.564166,0.4260309131743263,1.0898556570933051,-7.224483903334189e-06,-0.06820868470876862,2.0234804720908883e-05,-0.2463505955900671
790,0.7652,554.308,184.741,0.0155732,319.895,0.0256046,-0.00347502,0.355249,-0.070717,-0.283112,0.737831,-6.85909e-06,2.00812e-05,0.564732,0.4265358174803793,1.0913943570290434,-6.859066476461173e-06,-0.06827446685349114,2.0081401628679885e-05,-0.24656460163062333
791,0.7662,554.255,184.575,0.00755004,319.902,-0.0133292,0.0139579,0.355603,-0.0707889,-0.283394,0.738567,-7.44077e-06,2.02929e-05,0.565299,0.42704090055419686,1.0929341898647902,-7.4407423175104626e-06,-0.0683414555110533,2.029310590234701e-05,-0.24677704045768112
792,0.7672,554.314,184.749,0.0202929,319.895,0.0270946,-0.00300673,0.355956,-0.070859,-0.283677,0.739302,-6.79861e-06,2.01181e-05,0.565865,0.4275447349136252,1.0944730619605578,-6.798586889456004e-06,-0.06840676248598576,2.011830237025336e-05,-0.24699017239563992
793,0.7682,554.24,184.538,-0.000242985,319.903,-0.0212574,0.0154478,0.35631,-0.070931,-0.28396,0.740038,-7.53818e-06,2.03332e-05,0.566431,0.4280501752074384,1.0960151615572,-7.5381515879380245e-06,-0.06847383478445501,2.033340672080719e-05,-0.2472032440257942
794,0.7692,554.328,184.782,0.0265507,319.894,0.034294,-0.00471018,0.356663,-0.0710007,-0.284242,0.740772,-6.65922e-06,2.0133e-05,0.566996,0.42855436590370877,1.097554201444324,-6.659197827496577e-06,-0.06853875989550418,2.0133202670136185e-05,-0.24741550278108781
795,0.7702,554.223,184.497,-0.00725771,319.904,-0.0302937,0.0178773,0.357016,-0.0710729,-0.284524,0.741507,-7.65558e-06,2.03857e-05,0.567561,0.4290587346107122,1.0990964704968316,-7.655550696150648e-06,-0.0686060089693189,2.038590778985494e-05,-0.24762770168785142
796,0.7712,554.346,184.828,0.0336722,319.893,0.0445664,-0.00771264,0.357369,-0.0711421,-0.284807,0.74224,-6.47319e-06,2.01334e-05,0.568126,0.4295632813912973,1.1006356722582349,-6.473169049003857e-06,-0.06867045920349446,2.0133602678162887e-05,-0.24784059292274319
797,0.7722,554.203,184.443,-0.0152243,319.906,-0.0422399,0.0215089,0.357722,-0.0712148,-0.285088,0.742974,-7.81868e-06,2.04514e-05,0.568691,0.4300680063083351,1.1021781048451826,-7.818649434221392e-06,-0.06873816439999658,2.045160913133337e-05,-0.2480519200232837
798,0.7732,554.369,184.89,0.0423339,319.891,0.0584182,-0.0120657,0.358074,-0.0712833,-0.285371,0.743707,-6.2314e-06,2.01194e-05,0.569255,0.430571478852525,1.1037195662726296,-6.23138058486461e-06,-0.06880195365092845,2.0119602396562186e-05,-0.2482646912213725
799,0.7742,554.176,184.372,-0.0251804,319.908,-0.0582209,0.0265961,0.358427,-0.0713566,-0.285652,0.74444,-8.04497e-06,2.05324e-05,0.569819,0.43107655972608927,1.1052621580055093,-8.044937639284377e-06,-0.0688702079661746,2.0532610791157424e-05,-0.24847589916703317
800,0.7752,554.4,184.972,0.0533998,319.888,0.0769697,-0.0180634,0.358779,-0.0714243,-0.285934,0.745171,-5.91604e-06,2.00882e-05,0.570382,0.4315803873435713,1.1068016672650915,-5.9160225002186095e-06,-0.06893324331932449,2.008840176914717e-05,-0.2486877990841755
801,0.7762,554.14,184.276,-0.038117,319.911,-0.0795765,0.0335171,0.359131,-0.0714983,-0.286214,0.745904,-8.35555e-06,2.06322e-05,0.570946,0.4320843923395916,1.1083465190061905,-8.355515092484112e-06,-0.06900213971012104,2.0632412845333903e-05,-0.24889813705174224
802,0.7772,554.442,185.083,0.0678592,319.884,0.101765,-0.0261754,0.359482,-0.071565,-0.286496,0.746634,-5.5028e-06,2.00351e-05,0.571508,0.4325871421887397,1.1098861738707169,-5.50278485966782e-06,-0.06906423519649485,2.0035300704046577e-05,-0.24910991791458847
803,0.7782,554.092,184.15,-0.0551986,319.915,-0.108063,0.0428148,0.359835,-0.0716401,-0.286776,0.747366,-8.77811e-06,2.07562e-05,0.572071,0.43309293471706134,1.1114311759517643,-8.778071472481663e-06,-0.06913414584725375,2.075641541132711e-05,-0.24932013770542827
804,0.7792,554.172,184.374,-0.0318902,319.907,-0.0567114,0.0225563,0.360186,-0.0717097,-0.287057,0.748097,-8.19684e-06,2.05951e-05,0.572633,0.4335960386267179,1.1129751964121084,-8.19680640595788e-06,-0.06919893185612358,2.0595312080429196e-05,-0.24953104911229262
805,0.7802,554.291,184.68,0.0155501,319.898,0.0110419,0.0031334,0.360537,-0.0717788,-0.287338,0.748827,-7.19629e-06,2.04351e-05,0.573195,0.43409931915684186,1.1145182314447526,-7.196264106723582e-06,-0.06926324798778438,2.0435308798028018e-05,-0.24974190126137763
806,0.7812,554.229,184.519,-0.00862908,319.903,-0.0248333,0.0143392,0.360888,-0.07185,-0.287619,0.749556,-7.77331e-06,2.05654e-05,0.573757,0.434602776369438,1.1160602772428767,-7.773279787959275e-06,-0.06932951408542654,2.0565611469347544e-05,-0.24995269416933263
807,0.7822,554.325,184.768,0.0275739,319.895,0.0308431,-0.00263259,0.361238,-0.0719192,-0.287899,0.750286,-6.89515e-06,2.04132e-05,0.574318,0.4351049752208396,1.1176055652067474,-6.895126228534387e-06,-0.06939391425478025,2.0413408350794526e-05,-0.2501626780158548
808,0.7832,554.224,184.502,-0.00936147,319.903,-0.0287917,0.0163447,0.361589,-0.0719908,-0.288179,0.751015,-7.82204e-06,2.06193e-05,0.574879,0.4356087854806703,1.1191498624917515,-7.82200940796507e-06,-0.06946054326517259,2.0619512579145294e-05,-0.25037260307513054
809,0.7842,554.343,184.816,0.0335932,319.893,0.0417233,-0.00627006,0.361939,-0.0720596,-0.288459,0.751743,-6.70425e-06,2.04057e-05,0.575439,0.43611133649688605,1.1206931652857022,-6.704227526577178e-06,-0.06952456217752012,2.040590819762933e-05,-0.25058246936361805
810,0.7852,554.207,184.456,-0.014882,319.905,-0.0391653,0.0199517,0.36229,-0.0721316,-0.288739,0.752471,-7.96189e-06,2.0686e-05,0.576,0.43661550005152416,1.1222375920131484,-7.96185830420626e-06,-0.06959155399730887,2.068621395667769e-05,-0.2507922768977707
811,0.7862,554.363,184.872,0.0406089,319.891,0.0544166,-0.0105463,0.362639,-0.0721998,-0.289019,0.753199,-6.4814e-06,2.03911e-05,0.57656,0.4371169663618235,1.1237831434926129,-6.481378995726317e-06,-0.06965500568959893,2.0391307899991773e-05,-0.2510020256940375
812,0.7872,554.184,184.392,-0.0230468,319.907,-0.0534898,0.0247483,0.362989,-0.0722724,-0.289298,0.753927,-8.16287e-06,2.07641e-05,0.57712,0.43762004533373466,1.1253298205432123,-8.162836683922592e-06,-0.06972254628443264,2.076431557540559e-05,-0.25121096698020406
813,0.7882,554.391,184.946,0.0499583,319.889,0.0710368,-0.0160917,0.363339,-0.0723398,-0.289578,0.754653,-6.19638e-06,2.03637e-05,0.577679,0.43812330041410297,1.126873370233667,-6.196360802457335e-06,-0.06978524487184701,2.036390734150295e-05,-0.2514205985596589
814,0.7892,554.152,184.308,-0.0340955,319.91,-0.0725056,0.0310469,0.363688,-0.072413,-0.289857,0.75538,-8.43761e-06,2.08571e-05,0.578238,0.43862529303856523,1.128420169367185,-8.437574403497017e-06,-0.06985333409982619,2.0857317510891704e-05,-0.25162942308028546
815,0.7902,554.427,185.043,0.0624009,319.886,0.0930091,-0.0233876,0.364037,-0.0724795,-0.290137,0.756105,-5.82714e-06,2.03187e-05,0.578797,0.43912746088902854,1.1299638335006086,-5.827123022217329e-06,-0.06991518679648356,2.031890642628653e-05,-0.2518389375084342
816,0.7912,554.11,184.196,-0.0488148,319.913,-0.0976349,0.0393381,0.364387,-0.0725537,-0.290415,0.756832,-8.80862e-06,2.09699e-05,0.579356,0.4396312436571814,1.131512880217819,-8.808581204222676e-06,-0.06998419652933052,2.0970119869900827e-05,-0.252046897376046
817,0.7922,554.475,185.172,0.0788361,319.881,0.12205,-0.0330166,0.364735,-0.0726189,-0.290695,0.757556,-5.34674e-06,2.025e-05,0.579913,0.4401323225126379,1.133056654321888,-5.346725706179001e-06,-0.07004483158299257,2.0250205032601443e-05,-0.25225629492775536
818,0.7932,554.357,184.882,0.0259744,319.89,0.0587896,-0.0198635,0.365083,-0.07269,-0.290973,0.758281,-6.11133e-06,2.03067e-05,0.580471,0.4406335757738813,1.134603681125725,-6.111311325884827e-06,-0.0701109490449634,2.030690618237685e-05,-0.2524641387861306
819,0.7942,554.291,184.658,0.0229001,319.899,0.00513838,0.00938982,0.365432,-0.072761,-0.291251,0.759006,-6.84948e-06,2.06464e-05,0.581029,0.4411364446373389,1.1361518299306708,-6.849456542390442e-06,-0.07017696882385138,2.0646613138275427e-05,-0.2526719248719439
820,0.7952,554.307,184.735,0.0146468,319.895,0.0245725,-0.00312008,0.36578,-0.0728304,-0.29153,0.75973,-6.51518e-06,2.05043e-05,0.581586,0.4416380473938901,1.1376989638504384,-6.515158776254637e-06,-0.07024149630308552,2.050451021462507e-05,-0.25288040032122716
821,0.7962,554.258,184.58,0.00770706,319.901,-0.0118107,0.0132833,0.366128,-0.072901,-0.291808,0.760454,-7.05993e-06,2.07018e-05,0.582143,0.44213982473857727,1.1392472183007474,-7.059905078765638e-06,-0.07030713493637553,2.0702014283724424e-05,-0.25308807070241734
822,0.7972,554.311,184.739,0.0187052,319.895,0.0251935,-0.00240674,0.366476,-0.07297,-0.292086,0.761177,-6.46847e-06,2.05428e-05,0.5827,0.44264177673216754,1.1407944532976315,-6.468449079477523e-06,-0.07037128153098193,2.0543011004736655e-05,-0.25329568335926567
823,0.7982,554.245,184.548,0.000716685,319.902,-0.0187481,0.0145083,0.366824,-0.0730407,-0.292364,0.7619,-7.14262e-06,2.07383e-05,0.583256,0.4431439034354492,1.1423428073499085,-7.142594491527099e-06,-0.07043700395806252,2.0738515039919747e-05,-0.2535032383078173
824,0.7992,554.323,184.766,0.0240424,319.894,0.0311459,-0.00375208,0.367171,-0.0731094,-0.292642,0.762622,-6.34837e-06,2.05607e-05,0.583812,0.44364476126374885,1.1438901373757377,-6.348349849139012e-06,-0.07050086274231626,2.0560911372591306e-05,-0.2537107355641127
825,0.8002,554.231,184.514,-0.00519595,319.903,-0.0262683,0.0164915,0.367518,-0.0731803,-0.292919,0.763344,-7.23708e-06,2.0785e-05,0.584368,0.4441457929198722,1.1454385849772422,-7.237053812447769e-06,-0.07056676189499522,2.0785216009677754e-05,-0.25391742906199033
826,0.8012,554.338,184.804,0.0298872,319.893,0.0395612,-0.00619362,0.367865,-0.0732485,-0.293197,0.764066,-6.19103e-06,2.05665e-05,0.584923,0.44464699846414835,1.1469881509616022,-6.191010835654431e-06,-0.07063014708037463,2.0566711491865064e-05,-0.2541248111892598
827,0.8022,554.214,184.47,-0.0116265,319.904,-0.0359671,0.0194334,0.368212,-0.0733198,-0.293473,0.764787,-7.36594e-06,2.08423e-05,0.585478,0.4451483779569263,1.1485366875988205,-7.365912871537539e-06,-0.07069640878862982,2.084251720213537e-05,-0.2543306443350908
828,0.8032,554.356,184.854,0.0367588,319.892,0.0506787,-0.00969504,0.368559,-0.0733875,-0.293751,0.765507,-5.99146e-06,2.05609e-05,0.586033,0.44564993145857734,1.1500841910482813,-5.991442051267448e-06,-0.07075932051216893,2.0561111376826702e-05,-0.25453791160448036
829,0.8042,554.193,184.413,-0.0194108,319.906,-0.0486621,0.0234904,0.368906,-0.0734591,-0.294027,0.766228,-7.54192e-06,2.09112e-05,0.586588,0.4461516590294927,1.1516349607353198,-7.541891559825764e-06,-0.07082585176297307,2.0911418640690016e-05,-0.25474363075032946
830,0.8052,554.381,184.918,0.0452993,319.89,0.0652504,-0.0144323,0.369251,-0.0735262,-0.294305,0.766948,-5.73757e-06,2.05425e-05,0.587141,0.4466506674258566,1.153184695744704,-5.737553540163809e-06,-0.07088819725660511,2.0542710998494584e-05,-0.2549507832254527
831,0.8062,554.165,184.339,-0.0292614,319.909,-0.0652653,0.028905,0.369598,-0.0735984,-0.294581,0.767668,-7.7795e-06,2.09939e-05,0.587696,0.4471527423124084,1.154735546965083,-7.779469739732647e-06,-0.07095527670716584,2.099412037348536e-05,-0.2551563884344584
832,0.8072,554.412,185.003,0.0561976,319.887,0.0843078,-0.0207095,0.369943,-0.0736646,-0.294858,0.768387,-5.41303e-06,2.05085e-05,0.588249,0.4476520961420889,1.1562853589139803,-5.413015349620132e-06,-0.0710167774321514,2.05087103006818e-05,-0.25536268154194774
833,0.8082,554.129,184.243,-0.0419578,319.912,-0.0869422,0.0360315,0.37029,-0.0737377,-0.295133,0.769106,-8.09714e-06,2.10936e-05,0.588802,0.4481545185847027,1.157836285578361,-8.097107218274502e-06,-0.07108468362371956,2.1093822471618395e-05,-0.25556742865050586
834,0.8092,554.453,185.113,0.0702442,319.883,0.109195,-0.0289548,0.370634,-0.0738028,-0.295411,0.769824,-4.99658e-06,2.04545e-05,0.589355,0.4486527694333282,1.159386168372746,-4.996567517068229e-06,-0.07114515404248223,2.0454709194650533e-05,-0.2557743521416431
835,0.8102,554.082,184.117,-0.0584438,319.916,-0.115195,0.0453496,0.370981,-0.0738769,-0.295686,0.770543,-8.51866e-06,2.12151e-05,0.589908,0.4491555391698261,1.1609393253208191,-8.518623716313733e-06,-0.07121397963654785,2.1215325041845645e-05,-0.2559789860563513
836,0.8112,554.171,184.366,-0.0319684,319.907,-0.0585046,0.0235183,0.371326,-0.0739452,-0.295962,0.77126,-7.85817e-06,2.10439e-05,0.59046,0.4496555840836274,1.1624892744074202,-7.85813912462796e-06,-0.0712774135554457,2.1044121424340645e-05,-0.25618430752053434
837,0.8122,554.289,184.672,0.0136393,319.898,0.00963703,0.00333692,0.37167,-0.074013,-0.296237,0.771977,-6.84942e-06,2.08787e-05,0.591012,0.45015435138761006,1.1640403352060185,-6.849396542829567e-06,-0.0713403788122603,2.0878917961653087e-05,-0.2563888287130133
838,0.8132,554.232,184.521,-0.00790614,319.902,-0.0239599,0.0141368,0.372015,-0.074083,-0.296513,0.772694,-7.39421e-06,2.10034e-05,0.591564,0.45065474095107527,1.1655925085139955,-7.3941826629342344e-06,-0.0714053827105805,2.1003620573001314e-05,-0.25659403707623174
839,0.8142,554.322,184.759,0.0254543,319.895,0.0292116,-0.00235701,0.372359,-0.074151,-0.296789,0.77341,-6.55161e-06,2.08582e-05,0.592115,0.45115385202414515,1.1671436279845966,-6.55158853823945e-06,-0.07146852499769407,2.0858417533853313e-05,-0.25679918880975716
840,0.8152,554.229,184.51,-0.0080108,319.903,-0.0266524,0.0156885,0.372704,-0.0742213,-0.297064,0.774127,-7.42402e-06,2.10515e-05,0.592666,0.4516545864748194,1.168698027151371,-7.423992442023852e-06,-0.0715337984659975,2.1051721584397498e-05,-0.2570035409331296
841,0.8162,554.338,184.801,0.0307253,319.893,0.0388251,-0.00556345,0.373048,-0.0742889,-0.297339,0.774842,-6.3802e-06,2.0855e-05,0.593217,0.45215404155391514,1.1702492007192515,-6.380179646603423e-06,-0.0715965606598351,2.0855217466975162e-05,-0.25720783686739457
842,0.8172,554.215,184.472,-0.0125283,319.904,-0.0353786,0.0187479,0.373392,-0.0743596,-0.297614,0.775558,-7.53916e-06,2.1111e-05,0.593768,0.45265366847511324,1.1718036555753963,-7.539131580580616e-06,-0.07166219646274352,2.1111222838765542e-05,-0.2574120766280018
843,0.8182,554.355,184.848,0.0365131,319.892,0.0495206,-0.00918791,0.373736,-0.0744267,-0.297889,0.776272,-6.18817e-06,2.08469e-05,0.594317,0.45315346729753725,1.173354877105663,-6.1881508532923846e-06,-0.07172448583952884,2.08471172982172e-05,-0.2576162602303971
844,0.8192,554.195,184.419,-0.0191455,319.906,-0.0472683,0.0227577,0.37408,-0.0744978,-0.298163,0.776987,-7.70327e-06,2.11794e-05,0.594868,0.4536534380803321,1.1749093815118936,-7.703240329837158e-06,-0.07179048388232745,2.117962428505038e-05,-0.2578196455100381
845,0.8202,554.378,184.909,0.0440143,319.89,0.0631703,-0.0137766,0.374423,-0.0745643,-0.298438,0.777701,-5.94901e-06,2.08292e-05,0.595417,0.45415212672980765,1.176462821322311,-5.948992304660727e-06,-0.07185220776280754,2.0829416929268874e-05,-0.2580237170464005
846,0.8212,554.17,184.351,-0.0278997,319.908,-0.0627085,0.0279105,0.374766,-0.0746359,-0.298712,0.778415,-7.92348e-06,2.12587e-05,0.595967,0.4546509864588286,1.1780173706848154,-7.923448609337136e-06,-0.07191866076568576,2.1258925967826414e-05,-0.2582269906981678
847,0.8222,554.407,184.987,0.053769,319.887,0.080801,-0.0196771,0.375109,-0.0747017,-0.298987,0.779128,-5.64686e-06,2.07985e-05,0.596515,0.4551500173260854,1.17957085081997,-5.646844056461653e-06,-0.07197972650872242,2.0798716290348906e-05,-0.25843095023000484
848,0.8232,554.137,184.262,-0.0392909,319.911,-0.0826545,0.0345432,0.375452,-0.074774,-0.29926,0.779842,-8.21504e-06,2.13526e-05,0.597064,0.4556492193902879,1.1811276201079552,-8.215006256695467e-06,-0.07204681994903872,2.1352827968446064e-05,-0.2586333709489067
849,0.8242,554.444,185.087,0.0663685,319.884,0.103572,-0.0272871,0.375794,-0.0748387,-0.299535,0.780553,-5.26341e-06,2.07508e-05,0.597612,0.45614713656230266,1.1826789532794417,-5.263396148258437e-06,-0.0721068565775822,2.0751015299413922e-05,-0.25883721874153964
850,0.8252,554.095,184.148,-0.0540396,319.915,-0.108374,0.0430837,0.376138,-0.074912,-0.299807,0.781266,-8.59807e-06,2.1465e-05,0.598161,0.45664813734447396,1.1842357583081702,-8.598033036655295e-06,-0.07217486865232203,2.1465230374717592e-05,-0.2590387876034339
851,0.8262,554.179,184.384,-0.0295716,319.907,-0.0544043,0.0220494,0.37648,-0.0749798,-0.300081,0.781978,-7.96302e-06,2.12991e-05,0.598708,0.4571463962048543,1.185791487942113,-7.962988295195927e-06,-0.0722377730637438,2.1299326827373122e-05,-0.25924178316396873
852,0.8272,554.288,184.667,0.0131895,319.898,0.00875888,0.00363087,0.376822,-0.0750472,-0.300355,0.782689,-7.02478e-06,2.11529e-05,0.599256,0.4576448254989076,1.1873461383027504,-7.0247553263236284e-06,-0.07230030213058602,2.1153123724193534e-05,-0.25944472311133937
853,0.8282,554.236,184.532,-0.00667655,319.902,-0.0216287,0.0132738,0.377164,-0.0751165,-0.300628,0.7834,-7.51882e-06,2.12639e-05,0.599803,0.4581434252849317,1.188901894412842,-7.518791733773789e-06,-0.07236458949206559,2.1264126078390788e-05,-0.259646867108019
854,0.8292,554.318,184.747,0.0238034,319.895,0.0267236,-0.00163667,0.377505,-0.075184,-0.300901,0.78411,-6.74981e-06,2.11359e-05,0.60035,0.4586407369797789,1.1904565666011928,-6.749787220039494e-06,-0.07242720276905301,2.1136123364629e-05,-0.2598489559269196
855,0.8302,554.234,184.523,-0.00636969,319.902,-0.023676,0.0146047,0.377847,-0.0752536,-0.301174,0.784821,-7.53817e-06,2.1309e-05,0.600896,0.459139677425779,1.1920145350121842,-7.5381415880482194e-06,-0.0724917595891369,2.1309227038246448e-05,-0.2600509895831027
856,0.8312,554.332,184.785,0.0282848,319.894,0.035148,-0.00448516,0.378188,-0.0753209,-0.301447,0.78553,-6.59708e-06,2.11356e-05,0.601442,0.45963732890053555,1.193569224389766,-6.597058239354858e-06,-0.07255417879328674,2.113582335838693e-05,-0.2602529680916257
857,0.8322,554.222,184.49,-0.0101001,319.904,-0.0311504,0.0172641,0.37853,-0.0753908,-0.30172,0.78624,-7.63423e-06,2.13637e-05,0.601989,0.4601366102392619,1.1951272115590799,-7.634200859363283e-06,-0.07261900499048712,2.1363928205397897e-05,-0.26045489146754175
858,0.8332,554.347,184.825,0.0331333,319.892,0.0443152,-0.00762102,0.37887,-0.0754576,-0.301993,0.786949,-6.42929e-06,2.1132e-05,0.602534,0.4606331410922049,1.1966841086068598,-6.429269332142162e-06,-0.0726809519719015,2.1132223282371854e-05,-0.2606567597259001
859,0.8342,554.206,184.446,-0.0156241,319.905,-0.0412712,0.0207029,0.379211,-0.0755278,-0.302265,0.787658,-7.77129e-06,2.14255e-05,0.60308,0.46113130192491214,1.198242109886051,-7.771259803557307e-06,-0.07274604748419389,2.142572952767985e-05,-0.2608578337399491
860,0.8352,554.366,184.876,0.0393855,319.891,0.0558747,-0.0115314,0.379552,-0.0755941,-0.302537,0.788365,-6.22318e-06,2.11208e-05,0.603624,0.46162963265943,1.1997968165817974,-6.223160636031899e-06,-0.07280752238333021,2.112102304563379e-05,-0.26105885306930365
861,0.8362,554.185,184.388,-0.0228907,319.907,-0.0542802,0.0250666,0.379893,-0.0756648,-0.302809,0.789074,-7.9541e-06,2.1496e-05,0.60417,0.4621281333537046,1.201357025553477,-7.95406836617829e-06,-0.07287307257427122,2.1496231040751823e-05,-0.2612598177288361
862,0.8372,554.39,184.941,0.0474551,319.888,0.0706444,-0.0164978,0.380232,-0.0757303,-0.303081,0.789781,-5.96613e-06,2.10992e-05,0.604714,0.46262387881501965,1.2029139352732776,-5.966112202715479e-06,-0.07293379739925787,2.1099422589765382e-05,-0.26146072773341456
863,0.8382,554.157,184.314,-0.0322597,319.909,-0.0709094,0.03062,0.380573,-0.0758016,-0.303353,0.790489,-8.1944e-06,2.1578e-05,0.605258,0.46312271860504595,1.2044741505905,-8.194366425962052e-06,-0.07299989486310077,2.157823280679594e-05,-0.2616615830979031
864,0.8392,554.421,185.024,0.0577867,319.886,0.0895168,-0.02283,0.380912,-0.0758664,-0.303625,0.791194,-5.64402e-06,2.10642e-05,0.605802,0.463618801287917,1.2060288528348138,-5.644004072546949e-06,-0.0730599625237004,2.1064421851901827e-05,-0.261862383837162
865,0.8402,554.122,184.22,-0.0442645,319.912,-0.0921277,0.0376939,0.381253,-0.0759385,-0.303896,0.791902,-8.50758e-06,2.16748e-05,0.606346,0.4641179804043585,1.2075912742945518,-8.507543810654106e-06,-0.07312679249115317,2.1675034900248136e-05,-0.2620623920288081
866,0.8412,554.46,185.131,0.0709433,319.882,0.113605,-0.0309099,0.381591,-0.0760022,-0.304168,0.792607,-5.23921e-06,2.1012e-05,0.606888,0.4646129359245059,1.209148174885903,-5.239196275375058e-06,-0.07318583243402932,2.101222075356901e-05,-0.2622630837628631
867,0.8422,554.078,184.1,-0.0596067,319.916,-0.11916,0.0466993,0.381932,-0.0760753,-0.304438,0.793313,-8.91316e-06,2.17901e-05,0.607432,0.4651124540986644,1.2107083841864505,-8.913120277953546e-06,-0.07325358007347194,2.179033740601355e-05,-0.2624622458421565
868,0.8432,554.173,184.365,-0.031215,319.907,-0.0587657,0.0237312,0.38227,-0.0761423,-0.304709,0.794018,-8.19209e-06,2.16116e-05,0.607975,0.46560774580773323,1.2122674831150984,-8.19205644497778e-06,-0.0733156700035712,2.1611833532331204e-05,-0.2626620914932245
869,0.8442,554.287,184.663,0.0119682,319.898,0.00798679,0.00354996,0.382609,-0.076209,-0.304981,0.794723,-7.20107e-06,2.14489e-05,0.608517,0.46610467105763287,1.2138276815960376,-7.2010440723691005e-06,-0.07337747778706949,2.1449130029216334e-05,-0.2628626201312072
870,0.8452,554.235,184.527,-0.00692411,319.902,-0.0225966,0.0135795,0.382948,-0.0762776,-0.305251,0.795427,-7.7014e-06,2.15639e-05,0.609059,0.46660176479374926,1.215386765016853,-7.701370344337377e-06,-0.07344104191181888,2.1564132502538413e-05,-0.26306162035753233
871,0.8462,554.319,184.748,0.0232495,319.895,0.0268909,-0.00195842,0.383286,-0.0763445,-0.305522,0.796131,-6.91344e-06,2.14302e-05,0.609601,0.467097559974915,1.2169469464188407,-6.9134161022610385e-06,-0.07350302663270292,2.143042962843289e-05,-0.263261303600114
872,0.8472,554.234,184.521,-0.00643795,319.902,-0.0240976,0.0147009,0.383625,-0.0764135,-0.305792,0.796835,-7.71368e-06,2.1606e-05,0.610143,0.46759499035743257,1.2185082265752518,-7.713650249652204e-06,-0.07356695271838998,2.1606233411297637e-05,-0.2634601961964331
873,0.8482,554.332,184.784,0.0277248,319.894,0.0351674,-0.00472066,0.383963,-0.0764801,-0.306063,0.797538,-6.76351e-06,2.14306e-05,0.610684,0.4680911213055803,1.220068386190385,-6.7634871274702135e-06,-0.0736286511047598,2.143082963690368e-05,-0.26365977143959707
874,0.8492,554.223,184.49,-0.0099857,319.903,-0.0311958,0.0172178,0.384301,-0.0765494,-0.306333,0.798241,-7.80487e-06,2.16583e-05,0.611225,0.4685874199743316,1.2216296429833409,-7.804839542102648e-06,-0.07369284641484508,2.1658534542723373e-05,-0.2638585564641225
875,0.8502,554.346,184.822,0.0323439,319.892,0.0439106,-0.00770552,0.384639,-0.0766156,-0.306603,0.798943,-6.60266e-06,2.14282e-05,0.611765,0.4690838864203859,1.2231897745348195,-6.602638202513056e-06,-0.07375416591871442,2.14284295854128e-05,-0.2640572878239362
876,0.8512,554.207,184.448,-0.0151745,319.905,-0.0407644,0.0204698,0.384977,-0.0766852,-0.306873,0.799646,-7.93428e-06,2.17171e-05,0.612306,0.4695805207004611,1.2247532264352712,-7.934248523633336e-06,-0.07381863038537706,2.1717335817905692e-05,-0.26425596553352604
877,0.8522,554.364,184.87,0.0381745,319.891,0.0547828,-0.0113902,0.385314,-0.0767508,-0.307143,0.800347,-6.40757e-06,2.14189e-05,0.612846,0.4700758527947073,1.2263133251977325,-6.40754947156541e-06,-0.07387938589042142,2.1419129386357483e-05,-0.26445458960737533
878,0.8532,554.188,184.394,-0.0218998,319.906,-0.052926,0.0245585,0.385652,-0.0768208,-0.307412,0.801049,-8.10488e-06,2.17838e-05,0.613386,0.47057282241608656,1.227876745848465,-8.104847155521178e-06,-0.07394421206446655,2.1784037268712808e-05,-0.2646524247127564
879,0.8542,554.386,184.931,0.0455902,319.889,0.0685071,-0.0160202,0.385988,-0.0768859,-0.307682,0.801749,-6.16708e-06,2.14004e-05,0.613925,0.47106701790461103,1.2294368055277443,-6.167060983552908e-06,-0.07400449633398687,2.1400628990253523e-05,-0.2648509417570769
880,0.8552,554.162,184.326,-0.0304542,319.909,-0.0682889,0.0297055,0.386326,-0.0769565,-0.307951,0.802451,-8.32646e-06,2.18606e-05,0.614465,0.4715643225964212,1.23100241963148,-8.326425335103416e-06,-0.07406986930885251,2.1860838944620653e-05,-0.26504867025806855
881,0.8562,554.415,185.007,0.0549638,319.886,0.085835,-0.0218563,0.386662,-0.0770207,-0.308221,0.80315,-5.86929e-06,2.13702e-05,0.615003,0.4720588512849808,1.2325624354848244,-5.8692727757936325e-06,-0.07412931211510843,2.13704283442695e-05,-0.2652470803305338
882,0.8572,554.131,184.24,-0.0412767,319.912,-0.0876596,0.0361868,0.386999,-0.077092,-0.308489,0.803851,-8.6119e-06,2.19501e-05,0.615542,0.47255501871738037,1.2341280104220043,-8.611862917673463e-06,-0.07419532434179077,2.195034090513026e-05,-0.26544396772891543
883,0.8582,554.45,185.104,0.0667572,319.883,0.107689,-0.0292156,0.387335,-0.0771553,-0.308759,0.804549,-5.49953e-06,2.13251e-05,0.61608,0.47304988033576567,1.2356879761379784,-5.499514877604916e-06,-0.07425392592300029,2.132532738152726e-05,-0.2656422710854708
884,0.8592,554.091,184.132,-0.0549366,319.915,-0.112047,0.044342,0.387672,-0.0772275,-0.309026,0.80525,-8.97729e-06,2.20556e-05,0.616619,0.47354638180123687,1.2372557428472826,-8.977249704278378e-06,-0.07432076237672358,2.205584322645393e-05,-0.26583831842560635
885,0.8602,554.181,184.384,-0.0287478,319.906,-0.0545404,0.0221984,0.388008,-0.0772939,-0.309295,0.805948,-8.28359e-06,2.18825e-05,0.617156,0.47404157657358503,1.2388178924825888,-8.283555691157574e-06,-0.07438222543750561,2.1882739423606523e-05,-0.26603578135799477
886,0.8612,554.286,184.659,0.0115487,319.898,0.00710093,0.00383152,0.388344,-0.0773601,-0.309564,0.806646,-7.36515e-06,2.17391e-05,0.617694,0.4745369377593325,1.240381132878972,-7.365122877356356e-06,-0.07444349930599425,2.1739336296011658e-05,-0.266233191179998
887,0.8622,554.24,184.537,-0.00572639,319.902,-0.0202728,0.0126889,0.388679,-0.0774281,-0.309832,0.807344,-7.81452e-06,2.18404e-05,0.618231,0.47503099038267593,1.2419454647980488,-7.814489466739793e-06,-0.07450643500820331,2.184063850330098e-05,-0.2664298143360819
888,0.8632,554.315,184.736,0.0216333,319.895,0.0243994,-0.00125452,0.389015,-0.0774944,-0.3101,0.808042,-7.10043e-06,2.17236e-05,0.618768,0.47552668406732,1.2435108890019686,-7.100404792015347e-06,-0.07456779319751583,2.172383595899774e-05,-0.26662638480422063
889,0.8642,554.239,184.534,-0.00488365,319.902,-0.0211977,0.0136085,0.38935,-0.0775627,-0.310368,0.808739,-7.81749e-06,2.18797e-05,0.619304,0.4760210683112198,1.2450751611771276,-7.817459443559827e-06,-0.07463099805876983,2.1879939362312584e-05,-0.26682290259853236
890,0.8652,554.327,184.768,0.025378,319.894,0.0315625,-0.0036814,0.389685,-0.0776288,-0.310636,0.809436,-6.96824e-06,2.17267e-05,0.61984,0.4765156182015857,1.2466405240300502,-6.968215721880888e-06,-0.07469216292827696,2.172693602653375e-05,-0.26701936773313206
891,0.8662,554.23,184.508,-0.00772836,319.903,-0.027153,0.0157571,0.39002,-0.0776973,-0.310904,0.810133,-7.89134e-06,2.19275e-05,0.620377,0.4770103337939182,1.2482069783212029,-7.891308863472446e-06,-0.074755544344278,2.1927740409433127e-05,-0.26721578022213044
892,0.8672,554.338,184.8,0.0291623,319.893,0.0389202,-0.00622054,0.390355,-0.0777631,-0.311172,0.810828,-6.82968e-06,2.17281e-05,0.620912,0.47750521514373734,1.249770025267034,-6.829656677753704e-06,-0.0748164234265164,2.1728336056847652e-05,-0.26741214007963476
893,0.8682,554.217,184.473,-0.0119626,319.904,-0.0351386,0.0184938,0.39069,-0.0778318,-0.311439,0.811524,-7.99662e-06,2.19803e-05,0.621448,0.47800026230658044,1.25133641024336,-7.996588027081586e-06,-0.07487998135498719,2.198054156865581e-05,-0.2676077149278294
894,0.8692,554.353,184.84,0.0339121,319.892,0.0479434,-0.0093007,0.391024,-0.0778971,-0.311706,0.812219,-6.66418e-06,2.17243e-05,0.621983,0.47849399684326843,1.252901632900349,-6.664157794378234e-06,-0.07494038971985018,2.1724535974376735e-05,-0.2678032375645101
895,0.8702,554.201,184.428,-0.0174196,319.905,-0.0451741,0.0218864,0.391358,-0.0779662,-0.311973,0.812915,-8.13456e-06,2.20391e-05,0.622518,0.4789878963148344,1.254470198234264,-8.134526914505003e-06,-0.0750043091304794,2.203934286271192e-05,-0.2679987080036156
896,0.8712,554.371,184.889,0.0399045,319.89,0.0591963,-0.0131175,0.391692,-0.078031,-0.312241,0.813609,-6.46308e-06,2.17134e-05,0.623052,0.4794819607763756,1.2560353435944593,-6.4630591143366445e-06,-0.07506424690924274,2.1713635737663495e-05,-0.2681948580645883
897,0.8722,554.181,184.373,-0.0242927,319.907,-0.0577028,0.0261025,0.392026,-0.0781005,-0.312507,0.814304,-8.31233e-06,2.21057e-05,0.623587,0.4799761902830082,1.2576038331452413,-8.312295452728158e-06,-0.07512852771029888,2.2105944332828642e-05,-0.2683894923448362
898,0.8732,554.394,184.951,0.0474037,319.888,0.0732349,-0.0178671,0.39236,-0.0781647,-0.312774,0.814997,-6.21755e-06,2.16935e-05,0.62412,0.4804705848898658,1.2591688948328508,-6.217530671093208e-06,-0.075187902552867,2.1693735305694517e-05,-0.2685848062748103
899,0.8742,554.155,184.304,-0.0328887,319.909,-0.073315,0.0313479,0.392694,-0.0782348,-0.31304,0.815691,-8.53938e-06,2.2182e-05,0.624655,0.48096514465210194,1.2607373022202784,-8.539343539615274e-06,-0.07525272960868323,2.2182246022461882e-05,-0.26877933684262856
900,0.8752,554.422,185.028,0.0567393,319.885,0.0907295,-0.0237826,0.393026,-0.0782981,-0.313308,0.816383,-5.91691e-06,2.16624e-05,0.625188,0.4814569067081107,1.262302273851148,-5.9168924950725454e-06,-0.07531126425825774,2.166263463143636e-05,-0.26897527772310403
901,0.8762,554.124,184.218,-0.0436078,319.912,-0.0927405,0.0378706,0.39336,-0.0783689,-0.313573,0.817077,-8.82741e-06,2.22704e-05,0.625722,0.4819517959568551,1.263872856558363,-8.82737103857778e-06,-0.07537672990323707,2.2270647987099323e-05,-0.2691689736086691
902,0.8772,554.458,185.124,0.0683201,319.882,0.112504,-0.0311475,0.393692,-0.0784313,-0.31384,0.817769,-5.54799e-06,2.16173e-05,0.626254,0.48244388563547935,1.26543999874376,-5.5479746099429406e-06,-0.075434424595198,2.161753365559349e-05,-0.26936407944492735
903,0.8782,554.084,184.111,-0.0569538,319.916,-0.116875,0.045972,0.394026,-0.0785031,-0.314105,0.818462,-9.19076e-06,2.23736e-05,0.626787,0.48293910459024336,1.2670104927762194,-9.190717765061862e-06,-0.07550080602039044,2.237385029091321e-05,-0.2695576723116867
904,0.8792,554.179,184.378,-0.0289036,319.906,-0.0559123,0.0227504,0.394359,-0.0785688,-0.314371,0.819153,-8.44552e-06,2.21937e-05,0.627319,0.4834330055420164,1.2685775383786302,-8.445484336649933e-06,-0.07556154362218281,2.2193946281889865e-05,-0.26975194413155423
905,0.8802,554.285,184.655,0.0105562,319.898,0.00616669,0.00389857,0.394691,-0.0786342,-0.314637,0.819844,-7.51962e-06,2.20467e-05,0.627851,0.48392558706386435,1.270145667183756,-7.519591727733754e-06,-0.0756219999202874,2.204694303031829e-05,-0.26994616428199003
906,0.8812,554.241,184.538,-0.00543175,319.901,-0.020024,0.0125309,0.395023,-0.0787015,-0.314902,0.820535,-7.9523e-06,2.21451e-05,0.628383,0.4844183321499278,1.2717148799403484,-7.95226838057328e-06,-0.07568420846635171,2.2145345204505062e-05,-0.27013960291670425
907,0.8822,554.314,184.732,0.0206483,319.895,0.0235095,-0.00119574,0.395355,-0.0787672,-0.315168,0.821226,-7.2548e-06,2.20312e-05,0.628914,0.4849112408545191,1.2732851773976765,-7.2547736840178345e-06,-0.07574493401899929,2.2031442688641434e-05,-0.27033371996361655
908,0.8832,554.241,184.538,-0.00435215,319.901,-0.0203719,0.0132331,0.395687,-0.0788348,-0.315433,0.821916,-7.94714e-06,2.21814e-05,0.629445,0.48540431323196853,1.2748542854501044,-7.947108421557658e-06,-0.07580741154969528,2.2181646009089562e-05,-0.27052705590968196
909,0.8842,554.324,184.761,0.0241369,319.894,0.0301769,-0.00344427,0.396019,-0.0789002,-0.315699,0.822605,-7.13097e-06,2.20356e-05,0.629976,0.4858975493366242,1.2764222001373629,-7.130944574718079e-06,-0.07586785176856314,2.2035842785594895e-05,-0.2707210699078042
910,0.8852,554.233,184.514,-0.00684371,319.902,-0.02568,0.0151566,0.396351,-0.078968,-0.315963,0.823295,-8.01178e-06,2.22259e-05,0.630507,0.4863909492228531,1.2779934734824212,-8.011747905767308e-06,-0.07593050580421745,2.2226146997095242e-05,-0.2709135741336727
911,0.8862,554.335,184.79,0.0274992,319.893,0.0367826,-0.00572957,0.396682,-0.0790332,-0.316229,0.823984,-7.00481e-06,2.20389e-05,0.631037,0.48688302606126976,1.279563551815524,-7.004785466335761e-06,-0.07599075317115356,2.203914285825448e-05,-0.27110748533162043
912,0.8872,554.222,184.483,-0.0105572,319.903,-0.0327763,0.017596,0.397013,-0.0791011,-0.316493,0.824673,-8.10407e-06,2.22747e-05,0.631567,0.4873752658040795,1.2811347123053585,-8.104037162115496e-06,-0.07605349126903072,2.2274948082934287e-05,-0.2712998875572816
913,0.8882,554.348,184.825,0.0316409,319.892,0.0447555,-0.00846227,0.397344,-0.0791659,-0.316758,0.825361,-6.85641e-06,2.20379e-05,0.632097,0.4878676685052119,1.282704672991973,-6.856386494891176e-06,-0.07611336106299416,2.2038142836411367e-05,-0.27149296750285623
914,0.8892,554.208,184.444,-0.0152829,319.905,-0.0415856,0.0205841,0.397675,-0.0792342,-0.317022,0.82605,-8.22372e-06,2.23285e-05,0.632627,0.4883602342186155,1.284277998460047,-8.22368618536018e-06,-0.07617646036556791,2.2328749282873872e-05,-0.2716852679746563
915,0.8902,554.364,184.868,0.0367941,319.89,0.0545657,-0.0118045,0.398006,-0.0792984,-0.317287,0.826737,-6.67856e-06,2.20312e-05,0.633156,0.4888529629982563,1.2858478366226556,-6.678537698423526e-06,-0.07623576793301912,2.2031442688641434e-05,-0.2718782458079507
916,0.8912,554.19,184.396,-0.0211546,319.906,-0.0524409,0.0242507,0.398337,-0.0793671,-0.317551,0.827425,-8.37618e-06,2.23886e-05,0.633685,0.489345854898118,1.2874210410545208,-8.37614491988603e-06,-0.07629922835587166,2.238885062655349e-05,-0.2720704445797033
917,0.8922,554.383,184.921,0.0431592,319.889,0.0666441,-0.0159093,0.398666,-0.0794308,-0.317815,0.828111,-6.46443e-06,2.20172e-05,0.634213,0.4898359302973623,1.2889907502373759,-6.46440910556656e-06,-0.07635806622101948,2.201744238039538e-05,-0.27226259261767727
918,0.8932,554.168,184.337,-0.0283995,319.908,-0.0657916,0.0287537,0.398997,-0.0794999,-0.318079,0.828798,-8.56867e-06,2.24564e-05,0.634742,0.4903291476132532,1.290563827172846,-8.568633289018912e-06,-0.07642188767358704,2.245665214672954e-05,-0.27245468993526456
919,0.8942,554.407,184.987,0.0509815,319.886,0.0814985,-0.0209541,0.399327,-0.079563,-0.318343,0.829483,-6.20588e-06,2.19942e-05,0.63527,0.4908210373893147,1.2921334009120913,-6.2058607435133695e-06,-0.07648016361384957,2.1994441874229054e-05,-0.2726467365458537
920,0.8952,554.142,184.265,-0.0373119,319.91,-0.0821875,0.0342813,0.399657,-0.0796327,-0.318606,0.83017,-8.81003e-06,2.25338e-05,0.635798,0.49131308951578867,1.2937086375903615,-8.80999119179382e-06,-0.07654453070322653,2.2534053887968142e-05,-0.2728380053011983
921,0.8962,554.437,185.067,0.0605626,319.884,0.0997444,-0.0271521,0.399986,-0.0796949,-0.31887,0.830855,-5.89306e-06,2.19603e-05,0.636325,0.49180381224170144,1.2952803662627232,-5.893042635984891e-06,-0.07660196784710305,2.196054112912904e-05,-0.27302995072988734
922,0.8972,554.109,184.176,-0.0482586,319.913,-0.102294,0.0410588,0.400316,-0.0797654,-0.319133,0.831541,-9.11094e-06,2.26228e-05,0.636853,0.49229618873739467,1.2968554687923772,-9.110898495534592e-06,-0.07666706511366428,2.2623055897508237e-05,-0.2732211187131537
923,0.8982,554.473,185.165,0.0722688,319.88,0.122128,-0.0347606,0.400645,-0.0798266,-0.319397,0.832224,-5.51403e-06,2.19128e-05,0.637379,0.49278723495616306,1.2984247569284566,-5.514014797758371e-06,-0.0767235713601705,2.1913040087140345e-05,-0.2734129630132516
924,0.8992,554.352,184.859,0.0222044,319.889,0.054308,-0.0184161,0.400974,-0.0798939,-0.31966,0.832909,-6.38392e-06,2.19967e-05,0.637906,0.493278442755716,1.2999997172492783,-6.383899622819378e-06,-0.0767857057729715,2.1996941929280922e-05,-0.27360403027753255
925,0.9002,554.296,184.667,0.0210643,319.898,0.00811992,0.00704417,0.401303,-0.0799609,-0.319923,0.833593,-7.02403e-06,2.22825e-05,0.638433,0.4937698121892222,1.3015734552129032,-7.024005331590644e-06,-0.07684755905857654,2.2282748256774454e-05,-0.2737950472977303
926,0.9012,554.301,184.708,0.0111356,319.895,0.0191287,-0.00165737,0.401632,-0.0800266,-0.320186,0.834277,-6.82219e-06,2.21841e-05,0.638959,0.49426134330986815,1.303148269981521,-6.822166728870371e-06,-0.07690820818160093,2.218434606904296e-05,-0.2739860140870575
927,0.9022,554.269,184.601,0.00852152,319.899,-0.00635345,0.0103892,0.401961,-0.0800931,-0.320448,0.83496,-7.20547e-06,2.23266e-05,0.639485,0.49475303617085764,1.3047218575689077,-7.205444040647713e-06,-0.07696959174473073,2.2326849240306146e-05,-0.2741762048352907
928,0.9032,554.301,184.702,0.0133779,319.896,0.0174106,-0.000294791,0.402289,-0.0801585,-0.320711,0.835643,-6.81679e-06,2.22246e-05,0.64001,0.49524339558126873,1.3062965202837309,-6.816766765727067e-06,-0.07702995595949924,2.2224846968343925e-05,-0.27436707139336647
929,0.9042,554.261,184.583,0.00395771,319.9,-0.0102762,0.010826,0.402617,-0.080225,-0.320973,0.836326,-7.24529e-06,2.2351e-05,0.640536,0.4957339158559466,1.3078722588605531,-7.2452637529529795e-06,-0.07709133142667113,2.2351249785446115e-05,-0.2745571623176629
930,0.9052,554.306,184.713,0.016207,319.895,0.0198647,-0.000635068,0.402945,-0.0802902,-0.321235,0.837008,-6.75439e-06,2.22486e-05,0.641061,0.49622459704766375,1.3094467645865202,-6.754367189110155e-06,-0.07715150311024388,2.224884750190448e-05,-0.27474720344466097
931,0.9062,554.254,184.567,0.000957736,319.9,-0.0136403,0.011573,0.403273,-0.0803567,-0.321497,0.83769,-7.27843e-06,2.2381e-05,0.641586,0.49671543920920924,1.3110223444916458,-7.2784035123341084e-06,-0.07721287049479886,2.238125045650463e-05,-0.27493719478740575
932,0.9072,554.313,184.729,0.0188277,319.895,0.0233744,-0.00157531,0.403601,-0.0804217,-0.321759,0.838371,-6.67652e-06,2.22659e-05,0.64211,0.4972064423933902,1.3125966867109269,-6.676497712132523e-06,-0.07727284970887116,2.2266147887028964e-05,-0.27512713635893904
933,0.9082,554.247,184.549,-0.00173834,319.901,-0.0175888,0.0127168,0.403929,-0.0804883,-0.322021,0.839053,-7.321e-06,2.24157e-05,0.642634,0.4976976066530303,1.3141744155956605,-7.320973201552228e-06,-0.07733430129072016,2.241595123364526e-05,-0.2753170281722992
934,0.9092,554.32,184.748,0.0214858,319.894,0.0277147,-0.00292814,0.404256,-0.080553,-0.322283,0.839733,-6.58569e-06,2.22786e-05,0.643158,0.4981874338527883,1.3157485893566858,-6.5856683143517e-06,-0.07739399583028739,2.227884816985437e-05,-0.2755068702405211
935,0.9102,554.239,184.528,-0.00459025,319.901,-0.0223814,0.0142429,0.404583,-0.0806198,-0.322544,0.840414,-7.37704e-06,2.24544e-05,0.643682,0.4986774212522318,1.317326151244893,-7.377012789744342e-06,-0.07745562385296711,2.2454652101933092e-05,-0.2756959382729369
936,0.9112,554.329,184.772,0.0244378,319.893,0.0330021,-0.0046687,0.40491,-0.0806842,-0.322806,0.841094,-6.47979e-06,2.22873e-05,0.644205,0.4991675689037547,1.3189024689150068,-6.479769006251246e-06,-0.07751503379777025,2.2287548363753018e-05,-0.2758856810797162
937,0.9122,554.23,184.502,-0.0078466,319.902,-0.028203,0.0161647,0.405237,-0.0807511,-0.323067,0.841774,-7.44957e-06,2.2497e-05,0.644728,0.49965787685976815,1.3204798588456632,-7.4495422520692856e-06,-0.07757674597771369,2.2497253059361455e-05,-0.27607465025540434
938,0.9132,554.339,184.8,0.0278806,319.892,0.0394234,-0.00682804,0.405564,-0.0808152,-0.323329,0.842453,-6.35576e-06,2.22919e-05,0.645251,0.5001483451726998,1.3220559997090873,-6.355739802232918e-06,-0.07763587141330608,2.2292148466274142e-05,-0.2762642938526413
939,0.9142,554.219,184.471,-0.0116895,319.903,-0.0352633,0.0185297,0.405891,-0.0808824,-0.323589,0.843132,-7.54201e-06,2.25437e-05,0.645774,0.5006389738949957,1.3236332111355722,-7.541981559167077e-06,-0.07769785220016934,2.254395411105392e-05,-0.27645244067609276
940,0.9152,554.352,184.834,0.0319789,319.891,0.0472084,-0.00946853,0.406217,-0.0809461,-0.323851,0.84381,-6.20988e-06,2.22918e-05,0.646296,0.501128261950105,1.3252091686419467,-6.209860718753291e-06,-0.07775660097581583,2.2292048464045422e-05,-0.2766419853052049
941,0.9162,554.205,184.434,-0.0162886,319.905,-0.0438125,0.0214115,0.406543,-0.0810135,-0.324111,0.844489,-7.65842e-06,2.25952e-05,0.646818,0.501617709539123,1.3267885217971722,-7.658390674403215e-06,-0.07781875808619187,2.259545527349971e-05,-0.2768300339416435
942,0.9172,554.367,184.876,0.0368983,319.89,0.0566327,-0.0126767,0.406869,-0.0810768,-0.324372,0.845167,-6.03768e-06,2.22864e-05,0.64734,0.5021073167140662,1.3283666193295618,-6.037661773206082e-06,-0.07787713031130461,2.2286648343694537e-05,-0.2770187566733969
943,0.9182,554.188,184.388,-0.021821,319.906,-0.0541492,0.0249055,0.407195,-0.0811446,-0.324632,0.845845,-7.80362e-06,2.26524e-05,0.647862,0.502597083526968,1.3299457871748737,-7.803589551880208e-06,-0.07793964812249177,2.265265656764548e-05,-0.27720670736201347
944,0.9192,554.385,184.926,0.042815,319.888,0.0680262,-0.0165618,0.407521,-0.0812073,-0.324893,0.846521,-5.83386e-06,2.22745e-05,0.648382,0.5030870100298788,1.3315213630116367,-5.83384298302736e-06,-0.07799745949414905,2.2274748078476847e-05,-0.2773953317948328
945,0.9202,554.168,184.333,-0.0284868,319.908,-0.0666291,0.0291296,0.407847,-0.0812756,-0.325152,0.847199,-7.98338e-06,2.27162e-05,0.648904,0.5035770962748662,1.3331026704984215,-7.98334813290058e-06,-0.07806043011719432,2.271645801488198e-05,-0.27758246216946825
946,0.9212,554.407,184.986,0.0499298,319.886,0.0817819,-0.0212572,0.408171,-0.0813376,-0.325413,0.847875,-5.59209e-06,2.2255e-05,0.649424,0.5040643341823379,1.3346803811097838,-5.592074364346722e-06,-0.07811758859859586,2.225524764432052e-05,-0.27777098854308013
947,0.9222,554.144,184.267,-0.0365191,319.91,-0.0816751,0.0342256,0.408497,-0.0814065,-0.325672,0.848552,-8.20451e-06,2.2788e-05,0.649945,0.5045547390869376,1.3362614948744151,-8.204476343087741e-06,-0.07818110410860701,2.2788259648409692e-05,-0.27795802163521643
948,0.9232,554.434,185.059,0.0584735,319.883,0.0983682,-0.0269237,0.408822,-0.0814678,-0.325933,0.849227,-5.30482e-06,2.22264e-05,0.650464,0.5050437988450467,1.3378390037327987,-5.304805929418066e-06,-0.07823760987500572,2.2226647008238842e-05,-0.27814645000059834
949,0.9242,554.115,184.187,-0.0461936,319.913,-0.0997888,0.0403625,0.409147,-0.0815373,-0.326192,0.849903,-8.47515e-06,2.28693e-05,0.650985,0.5055330175734085,1.339419917187867,-8.47511408597068e-06,-0.07830167013499956,2.2869561504323954e-05,-0.27833338586080925
950,0.9252,554.466,185.146,0.0687171,319.88,0.118342,-0.0337536,0.409471,-0.0815977,-0.326452,0.850577,-4.9631e-06,2.21868e-05,0.651504,0.5060208893020546,1.3409972177026144,-4.963087683829137e-06,-0.07835733903290576,2.2187046128774313e-05,-0.2785209947902678
951,0.9262,554.348,184.846,0.0205711,319.89,0.0516223,-0.0173452,0.409796,-0.081664,-0.326712,0.851252,-5.83054e-06,2.2272e-05,0.652023,0.506510425636423,1.342577924253007,-5.830523002403609e-06,-0.07841844191574487,2.2272248022758845e-05,-0.27870855494774527
952,0.9272,554.297,184.669,0.0204328,319.897,0.00881839,0.00655198,0.41012,-0.08173,-0.326971,0.851927,-6.42354e-06,2.25391e-05,0.652543,0.5069986140965892,1.3441596981405066,-6.423519369080921e-06,-0.07847926429141805,2.2539354007422574e-05,-0.2788953452416266
953,0.9282,554.299,184.7,0.0101636,319.895,0.0174822,-0.00105908,0.410444,-0.0817948,-0.32723,0.852601,-6.25971e-06,2.24529e-05,0.653061,0.5074869607554431,1.3457401943444425,-6.2596904080169935e-06,-0.07853897690038247,2.2453152068280247e-05,-0.27908208716308625
954,0.9292,554.272,184.608,0.00877039,319.899,-0.00468827,0.00966795,0.410769,-0.0818603,-0.327489,0.853275,-6.59239e-06,2.25803e-05,0.65358,0.5079769736404693,1.3473217561618909,-6.592368270275095e-06,-0.07859933062078961,2.2580554936979524e-05,-0.2792687807246511
955,0.9302,554.298,184.692,0.0120848,319.896,0.0154118,0.000391201,0.411092,-0.0819249,-0.327748,0.853948,-6.26094e-06,2.24933e-05,0.654098,0.5084641288742902,1.3489020354081078,-6.260920400347203e-06,-0.07865885118149663,2.2493552976232678e-05,-0.27945542593884487
956,0.9312,554.265,184.592,0.00474328,319.899,-0.00795238,0.00994111,0.411416,-0.0819904,-0.328006,0.854621,-6.62232e-06,2.26026e-05,0.654616,0.5089529504368624,1.3504833785402148,-6.622298072467281e-06,-0.07871919705039554,2.2602855440645442e-05,-0.2796413024598504
957,0.9322,554.302,184.7,0.0144375,319.895,0.0171991,0.000239243,0.411739,-0.0820547,-0.328265,0.855294,-6.20944e-06,2.25185e-05,0.655134,0.5094404209621051,1.3520657862744487,-6.209420721492442e-06,-0.07877843350155289,2.2518753543421255e-05,-0.27982785120340814
958,0.9332,554.26,184.58,0.00228265,319.9,-0.0105294,0.0104549,0.412063,-0.0821202,-0.328523,0.855966,-6.64331e-06,2.26298e-05,0.655651,0.5099295588945629,1.3536469056794447,-6.643287933316699e-06,-0.07883877153806629,2.2630056055961134e-05,-0.2800136316510894
959,0.9342,554.307,184.712,0.0164964,319.895,0.0198212,-0.000427554,0.412386,-0.0821844,-0.328782,0.856638,-6.14592e-06,2.25378e-05,0.656168,0.5104173449152873,1.3552290879537647,-6.1459011139186615e-06,-0.07889790819062659,2.2538053978227168e-05,-0.28020008397387375
960,0.9352,554.254,184.567,0.000208386,319.9,-0.0134711,0.0112797,0.412709,-0.08225,-0.32904,0.85731,-6.67022e-06,2.26608e-05,0.656685,0.5109052885163443,1.3568123338118974,-6.670197754132801e-06,-0.07895833050597567,2.266105675796659e-05,-0.28038576839788776
961,0.9362,554.312,184.727,0.0184812,319.895,0.0230176,-0.00141187,0.413032,-0.082314,-0.329298,0.857981,-6.07348e-06,2.25534e-05,0.657202,0.5113933897486405,1.358394285573346,-6.073461556455051e-06,-0.07901727528657021,2.2553654329904305e-05,-0.2805714049214998
962,0.9372,554.249,184.551,-0.00188793,319.9,-0.0169743,0.0123844,0.413355,-0.0823796,-0.329556,0.858652,-6.70611e-06,2.26948e-05,0.657719,0.511881648663099,1.359977299180636,-6.706087514074532e-06,-0.0790776897716946,2.2695057528832052e-05,-0.2807569935570666
963,0.9382,554.319,184.743,0.020604,319.894,0.0268426,-0.00267112,0.413677,-0.0824434,-0.329814,0.859323,-5.99105e-06,2.25662e-05,0.658234,0.5123685529413504,1.361561375346505,-5.991032053676015e-06,-0.07913644274084763,2.2566454618511145e-05,-0.2809425343169417
964,0.9392,554.242,184.533,-0.0042057,319.901,-0.0211521,0.0137618,0.414,-0.0825091,-0.330071,0.859993,-6.75287e-06,2.27314e-05,0.65875,0.5128571268843944,1.3631441516388363,-6.752847199420486e-06,-0.0791969414891539,2.273165836030877e-05,-0.2811273083411431
965,0.9402,554.326,184.763,0.0230145,319.893,0.0314038,-0.00421177,0.414322,-0.0825726,-0.330329,0.860663,-5.89681e-06,2.25762e-05,0.659266,0.5133443453172093,1.3647279887466168,-5.896792613868662e-06,-0.07925541062695451,2.2576454844269733e-05,-0.2813127535721276
966,0.9412,554.234,184.511,-0.00687418,319.902,-0.0261268,0.0154315,0.414644,-0.0826385,-0.330586,0.861333,-6.8125e-06,2.27707e-05,0.659781,0.5138317206596204,1.3663128873808312,-6.8124767950150655e-06,-0.07931608569612869,2.2770959254403422e-05,-0.2814974324622057
967,0.9422,554.335,184.787,0.0258226,319.892,0.0368331,-0.00606416,0.414965,-0.0827017,-0.330844,0.862002,-5.78862e-06,2.25832e-05,0.660296,0.5143177386436653,1.367896480355276,-5.788603245959756e-06,-0.07937427108083517,2.258345500227854e-05,-0.2816827822134844
968,0.9432,554.224,184.485,-0.00999965,319.903,-0.0320412,0.017432,0.415287,-0.0827678,-0.3311,0.862671,-6.88733e-06,2.2813e-05,0.660811,0.5148054274691958,1.3694811331078767,-6.887306282399308e-06,-0.07943512243035755,2.28132602184683e-05,-0.2818666478854276
969,0.9442,554.345,184.815,0.0291283,319.891,0.0432858,-0.00827473,0.415609,-0.0828306,-0.331358,0.863339,-5.66395e-06,2.25868e-05,0.661325,0.5152932733558133,1.371064475282202,-5.663933959842993e-06,-0.07949293208942654,2.2587055083622687e-05,-0.2820519023914143
970,0.9452,554.213,184.454,-0.013686,319.904,-0.0390622,0.0198152,0.41593,-0.0828969,-0.331614,0.864008,-6.9801e-06,2.28588e-05,0.66184,0.5157797605735817,1.3726512481325028,-6.980075639151373e-06,-0.07955395968494194,2.285906126431314e-05,-0.28223567358068624
971,0.9462,554.357,184.849,0.0330326,319.89,0.0509442,-0.0109027,0.416251,-0.0829594,-0.331871,0.864675,-5.51983e-06,2.25865e-05,0.662354,0.5162664039788136,1.3742343344155912,-5.519814765819753e-06,-0.07961148576475285,2.2586755076936527e-05,-0.28242011531079847
972,0.9472,554.2,184.417,-0.0180414,319.905,-0.0473853,0.0226455,0.416573,-0.083026,-0.332128,0.865343,-7.09398e-06,2.29086e-05,0.662868,0.5167547203756155,1.375820852789122,-7.0939548377779715e-06,-0.07967278159862701,2.290886240396972e-05,-0.2826045096454767
973,0.9482,554.372,184.889,0.0376449,319.889,0.0600215,-0.0140202,0.416893,-0.083088,-0.332384,0.86601,-5.35281e-06,2.25816e-05,0.663381,0.5172401595522615,1.3774060539037345,-5.352795673707611e-06,-0.07972984011733553,2.258185496617493e-05,-0.28278813938539793
974,0.9492,554.184,184.374,-0.0231877,319.906,-0.0572383,0.0259993,0.417214,-0.083155,-0.33264,0.866677,-7.23266e-06,2.2963e-05,0.663895,0.5177272718208141,1.3789923127001877,-7.232633844389547e-06,-0.07979149615254744,2.296326365169854e-05,-0.2829717221221223
975,0.9502,554.389,184.936,0.0430878,319.887,0.0707662,-0.0177127,0.417534,-0.0832165,-0.332897,0.867343,-5.15888e-06,2.25715e-05,0.664407,0.5182130222637227,1.3805772493057518,-5.158866693055764e-06,-0.07984808723534043,2.257175473818762e-05,-0.283155974712065
976,0.9512,554.165,184.323,-0.0292676,319.908,-0.0688861,0.0299666,0.417855,-0.0832838,-0.333152,0.86801,-7.40046e-06,2.3023e-05,0.66492,0.5187004468713334,1.38216562399511,-7.400432616710972e-06,-0.07991001137529885,2.302326503134111e-05,-0.28333874663410297
977,0.9522,554.409,184.991,0.0495009,319.885,0.083468,-0.0220801,0.418175,-0.0833448,-0.333409,0.868675,-4.93334e-06,2.2555e-05,0.665432,0.51918650878009,1.3837502909784405,-4.93332783113587e-06,-0.07996613515281226,2.2555254366007915e-05,-0.28352290491086585
978,0.9532,554.143,184.262,-0.0364455,319.91,-0.0826364,0.0346517,0.418495,-0.0834126,-0.333664,0.869341,-7.60239e-06,2.30893e-05,0.665945,0.5196727262535463,1.385338397452987,-7.602361101866073e-06,-0.08002851133427247,2.3089566559830743e-05,-0.28370558327763185
979,0.9542,554.433,185.057,0.0570457,319.883,0.098464,-0.0272398,0.418814,-0.0834729,-0.333921,0.870005,-4.67075e-06,2.25312e-05,0.666456,0.5201575791831519,1.386922788108381,-4.670739092049736e-06,-0.08008398394252314,2.2531453829355286e-05,-0.28388964728949095
980,0.9552,554.117,184.191,-0.044911,319.912,-0.0988461,0.0401759,0.419135,-0.0835413,-0.334175,0.870671,-7.84425e-06,2.31631e-05,0.666968,0.520645628093729,1.3885130081697619,-7.844219233943406e-06,-0.08014690404612934,2.316336826657661e-05,-0.28407151622074733
981,0.9562,554.461,185.135,0.0659078,319.88,0.116146,-0.0333282,0.419454,-0.0836008,-0.334432,0.871334,-4.36476e-06,2.24989e-05,0.667479,0.5211307914285286,1.390097117368351,-4.364750474494805e-06,-0.08020163367711597,2.2499153102151226e-05,-0.2842554861999237
982,0.9572,554.345,184.836,0.0192419,319.89,0.0495854,-0.016532,0.419773,-0.0836661,-0.334687,0.871999,-5.24286e-06,2.25873e-05,0.66799,0.5216161095551199,1.3916870605489153,-5.242846256248157e-06,-0.080261694549428,2.2587555094988332e-05,-0.2844379777822771
983,0.9582,554.298,184.67,0.0198109,319.897,0.00953516,0.00603682,0.420093,-0.083731,-0.334942,0.872663,-5.79799e-06,2.2838e-05,0.668501,0.5221031046252331,1.3932756681164649,-5.797973191667971e-06,-0.08032138362852015,2.2838260789193043e-05,-0.2846204228352097
984,0.9592,554.297,184.692,0.00928825,319.895,0.016038,-0.000557082,0.420412,-0.0837948,-0.335197,0.873326,-5.66928e-06,2.27629e-05,0.669012,0.5225887329692114,1.3948629360055889,-5.6692639296418434e-06,-0.08038005725253616,2.2763159076788497e-05,-0.2848028213705851
985,0.9602,554.274,184.613,0.00888499,319.898,-0.00323089,0.00898863,0.420731,-0.0838592,-0.335452,0.873989,-5.95769e-06,2.28767e-05,0.669522,0.5230745162533428,1.3964512566022567,-5.957672252976387e-06,-0.08043927886989255,2.2876961673690133e-05,-0.28498517340026364
986,0.9612,554.296,184.683,0.0109099,319.896,0.013638,0.000972896,0.421049,-0.0839228,-0.335707,0.874652,-5.67689e-06,2.2803e-05,0.670032,0.5235589309673687,1.3980406306046458,-5.6768738865287105e-06,-0.08049776107200268,2.2803259990489266e-05,-0.28516747893610295
987,0.9622,554.268,184.599,0.00532037,319.899,-0.00594498,0.00913019,0.421368,-0.0839872,-0.335961,0.875314,-5.97956e-06,2.2897e-05,0.670542,0.5240450237940311,1.3996286590815368,-5.979542122447334e-06,-0.08055697510947712,2.2897262138332763e-05,-0.28534902333933787
988,0.9632,554.299,184.689,0.0128531,319.895,0.0148618,0.000976543,0.421686,-0.0840506,-0.336216,0.875976,-5.63488e-06,2.28288e-05,0.671051,0.5245297471785308,1.401217739181328,-5.634864124082206e-06,-0.08061526594941604,2.282906057904377e-05,-0.2855312361052713
989,0.9642,554.264,184.59,0.0033138,319.899,-0.00786685,0.00945198,0.422005,-0.084115,-0.33647,0.876638,-5.99061e-06,2.29217e-05,0.671561,0.5250161497449655,1.4028078716004244,-5.990592056304145e-06,-0.08067447241982018,2.2921962704147703e-05,-0.28571268812591843
990,0.9652,554.302,184.698,0.0144468,319.895,0.0167503,0.000533819,0.422323,-0.0841783,-0.336724,0.877299,-5.58348e-06,2.28494e-05,0.67207,0.5255011819966251,1.4043966526378378,-5.583464412373118e-06,-0.08073266388393674,2.2849661049484382e-05,-0.2858940940636051
991,0.9662,554.26,184.581,0.00174868,319.899,-0.00998492,0.0100162,0.422641,-0.0842427,-0.336978,0.877961,-6.00488e-06,2.29495e-05,0.672579,0.5259863685130675,1.405988890194366,-6.004861970776432e-06,-0.08079186279415718,2.29497633417175e-05,-0.28607545393003486
992,0.9672,554.306,184.708,0.0158893,319.895,0.0190186,-0.000152023,0.422958,-0.0843058,-0.337233,0.878621,-5.52626e-06,2.28671e-05,0.673087,0.5264701828724105,1.4075773670015788,-5.526244730269525e-06,-0.08084986299768926,2.286736145418189e-05,-0.2862574814797837
993,0.9682,554.256,184.57,0.000252259,319.9,-0.0124522,0.0107816,0.423276,-0.0843702,-0.337486,0.879282,-6.02474e-06,2.29794e-05,0.673595,0.5269556775801312,1.409169301717628,-6.0247218512943235e-06,-0.08090905436052986,2.297966402853291e-05,-0.28643803549592317
994,0.9692,554.31,184.719,0.0173611,319.894,0.0216792,-0.00102713,0.423593,-0.0844332,-0.33774,0.879942,-5.46283e-06,2.28828e-05,0.674103,0.5274397992591562,1.4107598782892925,-5.462815078738359e-06,-0.08096695526620745,2.288306181319477e-05,-0.2866192572187741
995,0.9702,554.252,184.557,-0.00133836,319.9,-0.0153336,0.0117271,0.423911,-0.0844977,-0.337994,0.880601,-6.05131e-06,2.30111e-05,0.674611,0.5279256023539187,1.4123490926376991,-6.051291690845062e-06,-0.0810262309859302,2.301136475746368e-05,-0.28680043291715285
996,0.9712,554.315,184.733,0.0189787,319.894,0.0247868,-0.00208223,0.424228,-0.0845604,-0.338247,0.881261,-5.39223e-06,2.28967e-05,0.675118,0.5284100315478355,1.4139417685640816,-5.3922154619190366e-06,-0.08108384883490893,2.289696213142456e-05,-0.2869808495839541
997,0.9722,554.246,184.542,-0.00311623,319.9,-0.0186935,0.0128549,0.424545,-0.084625,-0.3385,0.88192,-6.08566e-06,2.30444e-05,0.675626,0.5288946143301492,1.4155330804692485,-6.085641482411752e-06,-0.08114320890092352,2.304466552427442e-05,-0.28716122061111227
998,0.9732,554.321,184.749,0.0208134,319.893,0.0284094,-0.00332732,0.424861,-0.0846876,-0.338754,0.882578,-5.31334e-06,2.29087e-05,0.676133,0.529377821370969,1.4171230242703419,-5.313325884270803e-06,-0.08120072753569418,2.290896240619844e-05,-0.28734225866827046
999,0.9742,554.24,184.525,-0.00514527,319.901,-0.0226052,0.014181,0.425178,-0.0847522,-0.339007,0.883237,-6.12901e-06,2.30796e-05,0.676639,0.5298627109912881,1.4187164333139508,-6.128991217657642e-06,-0.08126008005158847,2.3079866336095378e-05,-0.2875225382704961
