,Time,S11,S22,S33,S12,S13,S23,LE11,LE22,LE33,LE12,LE13,LE23,SDV_EPBAR,E11,E12,E13,E22,E23,E33
0,1e-05,1.56305,0.521016,-2.22045e-16,0.902427,-2.51557e-17,-2.43235e-17,6.74997e-06,2.49999e-07,-2.99999e-06,1.12583e-05,-2.75078e-22,-1.58816e-22,0.0,6.749992781163172e-06,1.1258363374899716e-05,0.0,2.499990312543332e-07,0.0,-2.999985500018454e-06
1,2e-05,3.12608,1.04203,3.33067e-16,1.80484,-4.09921e-17,-1.38669e-17,1.34999e-05,5.00011e-07,-5.99996e-06,2.25164e-05,-6.35266e-22,1.10034e-21,0.0,1.3499991124099608e-05,2.2516653495952e-05,0.0,5.000111249486849e-07,0.0,-5.9999420002343484e-06
2,3.5e-05,5.4706,1.82353,-9.99201e-16,3.15845,-6.58417e-17,-1.06613e-16,2.36246e-05,8.75006e-07,-1.04998e-05,3.94034e-05,-1.94732e-21,8.31865e-22,0.0,2.3624879063044446e-05,3.9404176324087103e-05,0.0,8.750063829054966e-07,0.0,-1.0499744877323636e-05
3,5.75e-05,8.98732,2.99577,-4.10783e-15,5.18883,-7.43258e-17,-9.19113e-17,3.88114e-05,1.43749e-06,-1.72495e-05,6.47335e-05,-6.19998e-22,-2.31412e-21,0.0,3.8812153172029795e-05,6.473559525832506e-05,0.0,1.4374910330960944e-06,0.0,-1.7249351228265652e-05
4,9.125e-05,14.2622,4.75408,-2.89768e-14,8.23431,-2.08889e-16,-1.30402e-16,6.1591e-05,2.28117e-06,-2.73738e-05,0.000102728,-4.5146e-21,-6.50321e-22,0.0,6.159289676466173e-05,0.00010273327670162757,0.0,2.2811726019256184e-06,0.0,-2.737342534098186e-05
5,0.00014188,22.1743,7.39143,-1.57763e-13,12.8023,-5.36799e-16,-2.41322e-16,9.57588e-05,3.54668e-06,-4.25596e-05,0.000159716,-6.09447e-21,3.93795e-22,0.0,9.576338502026438e-05,0.00015972875527947572,0.0,3.5466862895461304e-06,0.0,-4.255869435310089e-05
6,0.00021781,34.0416,11.3472,-8.00804e-13,19.6539,-5.36749e-16,-2.41293e-16,0.000147007,5.4448e-06,-6.53367e-05,0.000245194,-1.55781e-20,6.65609e-21,0.0,0.00014701780605852477,0.00024522406250571116,0.0,5.44481482300796e-06,0.0,-6.533456560431361e-05
7,0.00033172,51.8409,17.2803,-4.05331e-12,29.9304,-7.0394e-16,-4.94619e-16,0.000223873,8.29167e-06,-9.94992e-05,0.000373398,-1.2188e-20,7.88597e-22,0.0,0.00022389806143019442,0.00037346772171087395,0.0,8.291704375995579e-06,0.0,-9.949425011879232e-05
8,0.00050258,78.5361,26.1787,-2.05113e-11,45.3428,-9.3892e-16,-6.30284e-16,0.000339155,1.25613e-05,-0.000150736,0.000565677,-4.95336e-21,-1.85113e-20,0.0,0.0003392125195595952,0.0005658370254069123,0.0,1.256137889349418e-05,0.0,-0.00015072463989995732
9,0.00075887,118.57,39.5234,-1.03755e-10,68.4566,-2.11419e-15,-1.30882e-15,0.000512041,1.89646e-05,-0.000227574,0.000854034,-1.84908e-20,4.97698e-21,0.0,0.0005121721153706904,0.00085439879087712,0.0,1.896477982921141e-05,0.0,-0.0002275481070015406
10,0.0011433,178.602,59.5341,-5.24723e-10,103.116,-2.78185e-15,-2.32149e-15,0.000771287,2.85663e-05,-0.000342794,0.00128643,-5.05387e-20,3.34393e-20,0.0,0.0007715845183038361,0.0012872578060059148,0.0,2.8566708020649756e-05,0.0,-0.00034273525284966855
11,0.00172,268.607,89.5357,-2.65262e-09,155.08,-4.26277e-15,-1.92212e-15,0.00115997,4.29618e-05,-0.000515542,0.00193471,1.1246e-22,6.4929e-23,0.0,0.0011606430254049727,0.001936582758945704,0.0,4.29627228712981e-05,0.0,-0.0005154091310572984
12,0.0021524,281.477,95.7884,0.310358,163.776,-0.138635,-0.071571,0.00144813,1.03305e-05,-0.000733093,0.0024513,-2.32486e-06,-9.21828e-07,0.000356096,0.0014491790465727128,0.0024543068922746603,-2.3248572975642645e-06,1.0330553359860772e-05,-9.218275751621263e-07,-0.0007328243529783895
13,0.0028012,288.676,98.6054,-0.0939592,169.06,-0.514029,-0.280996,0.0018923,-6.11012e-05,-0.00108572,0.00321771,-1.08376e-05,-4.2234e-06,0.000973276,0.0018940915295038163,0.003222892385802867,-1.0837541273400753e-05,-6.10993333597376e-05,-4.223391081414896e-06,-0.0010851308192885156
14,0.0032877,294.018,101.052,-0.0575003,172.605,-0.639518,-0.366408,0.0022225,-0.000112819,-0.0013484,0.00379587,-1.56519e-05,-6.55781e-06,0.00143927,0.0022249715838174033,0.0038030834387325907,-1.565177750961766e-05,-0.00011281263617590742,-6.557788497563166e-06,-0.0013474913171884761
15,0.0037743,298.949,103.509,-0.0712366,175.909,-0.708865,-0.478726,0.00255152,-0.000163211,-0.00161217,0.00437477,-2.00524e-05,-9.73589e-06,0.00190778,0.0025547778974295277,0.004384353276056352,-2.0052198951958644e-05,-0.00016319768180927952,-9.73584260632876e-06,-0.0016108711520271823
16,0.0045041,305.284,106.257,-0.24792,180.586,-0.898858,-0.616443,0.00304816,-0.000241381,-0.00201219,0.00523823,-2.94383e-05,-1.45737e-05,0.00261484,0.0030528103635096837,0.005251973513515917,-2.9437866697512582e-05,-0.00024135186995033475,-1.457359380419021e-05,-0.0020101669028813607
17,0.0047541,307.843,107.639,0.0795015,182.02,-0.986663,-0.580501,0.0032152,-0.000266634,-0.00214563,0.00553818,-3.28572e-05,-1.53215e-05,0.00285736,0.0032203742995031703,0.00555354406875419,-3.2856660208135935e-05,-0.0002665984563141599,-1.5321382626387603e-05,-0.002143329781384984
18,0.0051291,310.669,108.829,-0.237161,184.147,-1.08143,-0.698923,0.00346589,-0.000306187,-0.00234935,0.00598858,-3.79352e-05,-1.89366e-05,0.00322337,0.003471903141701649,0.00600654739369344,-3.793448046940373e-05,-0.00030614012954433,-1.8936420703719037e-05,-0.0023465924372048086
19,0.0056916,315.503,111.465,0.289942,187.241,-1.09553,-0.677333,0.00384402,-0.000363197,-0.00265448,0.00665861,-4.41691e-05,-2.16193e-05,0.00377192,0.0038514177208386347,0.006680827829477876,-4.416812455965147e-05,-0.00036313105195384665,-2.1619066304601198e-05,-0.002650959983258372
20,0.0065353,321.619,114.656,0.344166,191.54,-1.28889,-0.803815,0.00441551,-0.000448929,-0.00312099,0.00765501,-5.77727e-05,-2.80815e-05,0.00459863,0.004425272728132423,0.007684384495229457,-5.777103118975724e-05,-0.0004488282464540916,-2.808110571839162e-05,-0.0031161247734672326
21,0.0073791,326.549,116.366,-0.205109,195.511,-1.57853,-0.935911,0.00498561,-0.000538961,-0.00358822,0.00865467,-7.47915e-05,-3.55944e-05,0.00542984,0.004998058833280528,0.008692229934489815,-7.478870318544661e-05,-0.0005388157866095256,-3.559376652684243e-05,-0.0035817900316286178
22,0.0082228,332.169,119.776,0.129739,199.165,-1.55176,-1.01245,0.00555324,-0.000620927,-0.00405486,0.00965234,-8.73674e-05,-4.29279e-05,0.00626103,0.00556868781916009,0.009699074077113234,-8.736358357985807e-05,-0.0006207342647238656,-4.29269786108577e-05,-0.0040466501555287415
23,0.0088557,335.74,121.36,0.0261408,201.739,-1.63818,-1.06213,0.00597479,-0.000684952,-0.00440214,0.0104082,-9.81281e-05,-4.87253e-05,0.00688684,0.0059926746590577284,0.010462553724758905,-9.81232855954417e-05,-0.0006847174739282869,-4.872411294187806e-05,-0.0043924647841351305
24,0.0094885,339.137,122.73,0.04163,204.231,-1.77747,-1.07448,0.00639554,-0.000749773,-0.00474835,0.011165,-0.000110252,-5.40818e-05,0.00751353,0.006416035135135001,0.011227561227743932,-0.0001102459224715524,-0.0007494919904597053,-5.4080337605788564e-05,-0.0047370944083487965
25,0.0097258,340.43,123.405,0.00656876,205.103,-1.77353,-1.09112,0.00655067,-0.0007729,-0.00487656,0.0114525,-0.000113816,-5.62721e-05,0.00774878,0.00657217256515219,0.011518330947741351,-0.00011380952320483306,-0.0007726013897318973,-5.627051675505257e-05,-0.0048646888858558945
26,0.010082,342.273,124.219,-0.00258975,206.418,-1.78916,-1.09876,0.00678426,-0.000808492,-0.00506932,0.0118825,-0.000119558,-5.93598e-05,0.00810187,0.0068073252225269165,0.011953377358323802,-0.00011955085322712389,-0.0008081652584048804,-5.93580382419745e-05,-0.005056492681782543
27,0.010616,344.948,125.698,-0.0448298,208.345,-1.75844,-1.14719,0.00713606,-0.00086017,-0.00536119,0.0125235,-0.000127535,-6.46188e-05,0.00863163,0.007161582349715312,0.01260224741384608,-0.00012752686775763244,-0.0008598001598350002,-6.461671225033161e-05,-0.005346844468714251
28,0.011417,348.569,127.353,-0.0856407,211.196,-1.83791,-1.17638,0.00766789,-0.000939912,-0.00580249,0.0134778,-0.000142136,-7.19877e-05,0.00942715,0.007697363553686776,0.013569034967864324,-0.00014212589915729712,-0.0009394704210754501,-7.198510894768084e-05,-0.005785688068288053
29,0.011667,349.984,128.145,0.0452306,211.973,-1.91246,-1.16319,0.00783079,-0.000963576,-0.00593716,0.0137801,-0.000147061,-7.39901e-05,0.00967539,0.007861530825270746,0.01387548320445231,-0.00014705018706118178,-0.0009631119097202046,-7.398736280006535e-05,-0.005919569894540788
30,0.012042,351.615,128.881,-0.0927218,213.177,-1.92157,-1.20018,0.00807554,-0.00100011,-0.00614094,0.0142332,-0.0001533,-7.78139e-05,0.0100485,0.008108235124147267,0.01433497427573327,-0.00015328825015537006,-0.0009996100566739274,-7.781087257696662e-05,-0.0061221229657543175
31,0.012604,354.255,130.345,0.0880358,214.996,-1.8781,-1.18432,0.00844447,-0.00105381,-0.00644759,0.0149084,-0.000161943,-8.25586e-05,0.0106077,0.008480225110245154,0.015020084517553656,-0.00016192988794017094,-0.001053254937235959,-8.255519213251628e-05,-0.006426848892256309
32,0.013448,357.242,131.724,-0.416203,217.651,-1.90384,-1.30382,0.00900175,-0.0011356,-0.00691493,0.015914,-0.000176818,-9.21031e-05,0.0114483,0.009042387596501111,0.016041302096686083,-0.00017680236861872256,-0.0011349554503266024,-9.20988586396998e-05,-0.006891076884090963
33,0.013698,358.843,132.574,0.126157,218.361,-2.00891,-1.18653,0.00916409,-0.00115923,-0.00704783,0.0162161,-0.00018221,-9.27904e-05,0.0116964,0.00920620883471357,0.016348294542923636,-0.00018219340076619517,-0.0011585583524599263,-9.27860951039916e-05,-0.007023052290013099
34,0.014073,360.104,133.216,-0.293846,219.406,-1.97511,-1.30669,0.00940719,-0.00119434,-0.00725282,0.0166694,-0.00018793,-9.78696e-05,0.0120706,0.009451576687335317,0.01680910966069571,-0.00018791234226367415,-0.0011936270598413845,-9.786481092688426e-05,-0.007226581773057017
35,0.014635,362.81,134.543,0.389488,221.083,-1.98506,-1.14301,0.00977453,-0.0012485,-0.00755664,0.0173451,-0.000197506,-0.000100482,0.01263,0.009822456744885466,0.017496399750900782,-0.00019748649697404197,-0.001247720948124198,-0.0001004769518528903,-0.007528160377857085
36,0.015479,365.986,136.184,0.440494,223.466,-2.07399,-1.1674,0.0103293,-0.0013288,-0.00802111,0.0183503,-0.000214036,-0.000107803,0.0134706,0.010382831374358137,0.018519701357153417,-0.00021401309592949946,-0.0013279175361958773,-0.0001077971894654084,-0.007989026735622518
37,0.016479,369.398,137.831,0.355748,226.188,-2.15838,-1.20662,0.0109888,-0.00142426,-0.00857464,0.0195363,-0.000234429,-0.000116731,0.0144674,0.011049398628041773,0.019728382329102123,-0.00023440152366915878,-0.0014232462230773235,-0.0001167241872018776,-0.00853798262386063
38,0.017479,372.414,139.373,-0.148082,228.73,-2.19904,-1.32612,0.0116462,-0.00151771,-0.00912994,0.0207225,-0.000254422,-0.000127498,0.0154651,0.01171428102559835,0.02093870183480262,-0.00025438963746760024,-0.0015165588606168567,-0.0001274898724754614,-0.009088388647733536
39,0.018229,374.867,140.72,-0.326553,230.522,-2.17024,-1.3822,0.0121341,-0.00158613,-0.00954196,0.0216187,-0.000267748,-0.000135491,0.0162131,0.012208016860373316,0.02185407721782906,-0.00026771215870313725,-0.0015848727606144752,-0.00013548182150902033,-0.009496579952577688
40,0.018979,377.97,142.766,0.351658,232.312,-2.0661,-1.28404,0.0126212,-0.00165256,-0.00995095,0.0225138,-0.000279352,-0.000140964,0.0169597,0.01270118348636684,0.022769148281304608,-0.000279312984863167,-0.0016511952745902336,-0.0001409540650422203,-0.00990160311548538
41,0.019979,380.245,143.466,-0.396514,234.651,-2.18988,-1.39461,0.0132742,-0.00174617,-0.0105053,0.0237021,-0.000299814,-0.00015195,0.0179583,0.013362693318637486,0.023985227250429064,-0.0002997690602739578,-0.0017446463321556527,-0.00015193845618344248,-0.010450312059345102
42,0.020229,381.577,144.566,0.0970451,235.187,-2.08569,-1.31072,0.0134333,-0.00176642,-0.0106384,0.0240043,-0.000302473,-0.000153126,0.0182066,0.013523932149353435,0.024294722348457976,-0.0003024272596540145,-0.001764860798395218,-0.00015311427681241607,-0.010582012357960746
43,0.020479,382.214,144.614,-0.0587193,235.71,-2.10119,-1.34372,0.0135924,-0.00178996,-0.0107729,0.0243081,-0.000306672,-0.000155826,0.0184565,0.013685196635208063,0.02460595035824853,-0.00030662498094879975,-0.0017883589769973618,-0.00015581385975949047,-0.010715080128290366
44,0.020854,383.552,145.508,0.0607894,236.499,-1.97623,-1.31024,0.0138316,-0.00182222,-0.0109752,0.024761,-0.000310833,-0.000158757,0.0188302,0.013927699136385918,0.025070099491803166,-0.00031078469642797923,-0.0018205607651191613,-0.00015874439877427982,-0.010915192225559367
45,0.021417,384.916,145.762,-0.145076,237.726,-2.04408,-1.30599,0.0141925,-0.00187485,-0.0112805,0.0254384,-0.000320789,-0.000163727,0.0193919,0.014293691682386811,0.02576471721766116,-0.0003207375527101153,-0.0018730935665932646,-0.00016371359746625291,-0.011217113726710637
46,0.02226,387.674,147.847,0.0833257,239.486,-1.91484,-1.31351,0.0147375,-0.00194654,-0.0117436,0.0264427,-0.000332443,-0.000171323,0.0202322,0.01484663240701467,0.026795410199011993,-0.0003323877469488812,-0.001944646719662102,-0.00017130832505285465,-0.011674913069724235
47,0.023104,390.0,149.045,0.0699165,241.213,-1.91278,-1.31271,0.015282,-0.00202106,-0.0122062,0.0274481,-0.000345587,-0.00017877,0.0210732,0.015399366866660769,0.027828269435760777,-0.0003455272916910168,-0.0020190190334417046,-0.0001787540215957284,-0.012132006521071381
48,0.023948,392.096,149.628,0.0454607,242.929,-2.03816,-1.26344,0.0158259,-0.00209843,-0.0126671,0.0284545,-0.000361087,-0.000185279,0.0219144,0.015951792800913633,0.028863196494065324,-0.0003610218159351142,-0.0020962298350006847,-0.0001852618369060366,-0.012587209969572966
49,0.024948,394.89,151.739,0.11773,244.855,-1.88965,-1.31193,0.0164714,-0.00218244,-0.0132183,0.0296394,-0.000374815,-0.000194543,0.0229099,0.01660780138715956,0.03008301903673849,-0.0003747447656331504,-0.0021800602093881016,-0.00019452407773767888,-0.013131321928405715
50,0.025948,396.973,152.093,-0.103112,246.792,-2.075,-1.27626,0.0171165,-0.00227397,-0.0137669,0.030827,-0.000394112,-0.000202464,0.0239066,0.017263826658034942,0.03130707232912511,-0.00039403434806728477,-0.002271386488866156,-0.00020244350554754487,-0.013672569607382945
51,0.026948,399.862,154.457,0.164997,248.584,-1.86659,-1.30361,0.0177592,-0.00235562,-0.0143166,0.0320109,-0.000406648,-0.000211287,0.0249009,0.017917832261616695,0.03252875980726322,-0.00040656532990834826,-0.0023528477044599816,-0.00021126468047383273,-0.014214604803847064
52,0.027698,401.529,155.09,-0.000284086,249.886,-1.8694,-1.30115,0.018237,-0.00242054,-0.014725,0.0329068,-0.00041755,-0.000217625,0.0256478,0.018404309612055414,0.0334542168197427,-0.00041746283813060003,-0.002417612855287521,-0.00021760132139736488,-0.014617117360586462
53,0.028448,403.352,155.704,0.159671,251.203,-1.92209,-1.21826,0.0187144,-0.00248636,-0.0151312,0.0338027,-0.000429312,-0.000222507,0.0263939,0.018890611900584275,0.03438050332067366,-0.0004292198587895202,-0.0024832715671574412,-0.00022248224715337717,-0.015017298605201401
54,0.029448,405.333,157.3,-0.277546,252.892,-1.68434,-1.34317,0.0193532,-0.00256763,-0.0156819,0.0349877,-0.000439784,-0.000232695,0.0273886,0.019541687154762455,0.0356069707555442,-0.00043968730919152765,-0.002564336457560712,-0.0002326679286183131,-0.015559579248179634
55,0.030448,407.652,157.771,0.0818285,254.6,-1.96092,-1.19176,0.0199931,-0.00265682,-0.016226,0.0361731,-0.000458738,-0.000238357,0.0283823,0.020194300661795506,0.036835307149823304,-0.0004586327958113756,-0.002653293777281407,-0.0002383285952270997,-0.01609506758829715
56,0.031448,409.653,158.76,-0.0698071,256.216,-1.9496,-1.20416,0.0206307,-0.00274175,-0.0167725,0.037358,-0.000473906,-0.000246103,0.0293758,0.02084498396369039,0.03806458144499736,-0.00047379372428835165,-0.002737994836159552,-0.00024607271914078854,-0.01663262473299132
57,0.032448,412.252,160.979,0.235737,257.749,-1.72057,-1.21612,0.0212665,-0.00282045,-0.017319,0.0385402,-0.000484461,-0.000253867,0.0303675,0.021494243582255823,0.03929250707701071,-0.0004843436677181012,-0.0028164762676811117,-0.0002538347784998285,-0.017169888182965276
58,0.033448,413.745,160.93,-0.14376,259.324,-1.89486,-1.19354,0.021902,-0.00290818,-0.0178641,0.0397259,-0.000501337,-0.000261028,0.0313608,0.022143609488214366,0.040525527054088295,-0.0005012113516045247,-0.0029039553408924945,-0.00026099393515566227,-0.017705482887318214
59,0.034448,415.711,161.946,-0.179098,260.823,-1.86559,-1.18242,0.022536,-0.00299133,-0.0184086,0.0409094,-0.000515332,-0.000268206,0.0323525,0.02279185400842909,0.04175771802053663,-0.0005151992392711247,-0.002986860430179039,-0.000268170035986115,-0.018240196662849595
60,0.035448,418.248,164.126,0.220995,262.248,-1.63229,-1.17064,0.0231683,-0.00306866,-0.0189531,0.0420903,-0.000524901,-0.000275249,0.0333422,0.023438769798592496,0.04298865637425009,-0.0005247632635705379,-0.0030639564753049964,-0.0002752111224693099,-0.018774619365982015
61,0.036448,420.128,165.125,0.155892,263.668,-1.59647,-1.16892,0.0237997,-0.00314959,-0.0194976,0.0432727,-0.000536609,-0.000282378,0.0343328,0.024085173085886202,0.04422261553443918,-0.0005364650511398006,-0.0031446352445969605,-0.0002823381350849363,-0.019308751155160953
62,0.037448,421.733,165.29,0.0677886,265.109,-1.73834,-1.09836,0.0244308,-0.00323466,-0.0200397,0.044456,-0.000551532,-0.00028816,0.0353232,0.02473167722154268,0.04545897550351419,-0.000551379934184193,-0.0032294341235052926,-0.00028811848589482825,-0.019840239808144533
63,0.038448,423.397,166.033,-0.111614,266.472,-1.72051,-1.10633,0.0250603,-0.00331648,-0.0205824,0.0456379,-0.000564244,-0.000294935,0.0363127,0.025376948890303064,0.046695333948763906,-0.000564084844289825,-0.0033109865548498485,-0.00029489151094852506,-0.020372028196169567
64,0.039448,425.721,168.02,0.239031,267.77,-1.49704,-1.0942,0.0256882,-0.00339251,-0.0211248,0.046817,-0.000572639,-0.000301337,0.0373,0.02602098525056684,0.04793022030120242,-0.0005724750735796036,-0.0033867619399042814,-0.0003012916025663115,-0.020903234331948628
65,0.040448,426.937,167.828,-0.154862,269.112,-1.65563,-1.07266,0.026316,-0.00347707,-0.0216661,0.0479993,-0.00058694,-0.000307471,0.0382891,0.02666532346170869,0.04916992090526873,-0.0005867677844132446,-0.0034710319923266786,-0.000307423735636303,-0.02143307599662103
66,0.041448,429.176,169.797,0.15718,270.348,-1.41936,-1.07044,0.0269419,-0.00355212,-0.0222076,0.0491772,-0.00059448,-0.000313782,0.0392752,0.027308114428111763,0.050406466275528805,-0.0005943033317751256,-0.003545818684969837,-0.0003137327755770025,-0.021962826543063807
67,0.042448,430.42,169.621,-0.123167,271.644,-1.58103,-1.02551,0.0275677,-0.00363599,-0.0227474,0.0503582,-0.000608137,-0.000319265,0.0402627,0.027951205048188266,0.05164772913364568,-0.0006079521221735718,-0.0036293877926372176,-0.0003192140403532884,-0.022490628542720104
68,0.043448,432.06,170.438,-0.164336,272.872,-1.54262,-1.01044,0.0281921,-0.00371554,-0.023287,0.0515369,-0.000618938,-0.00032499,0.0412486,0.028593258208757133,0.052888037143901334,-0.0006187464973875789,-0.0037086459223044654,-0.0003249371964703096,-0.023017950315349256
69,0.044448,433.656,171.273,-0.244133,274.069,-1.49153,-1.00647,0.0288155,-0.00379442,-0.0238264,0.0527149,-0.000629154,-0.000330801,0.0422337,0.02923468315730804,0.054129070076540664,-0.0006289561241225039,-0.003787230284906018,-0.000330746291381967,-0.02354479233088369
70,0.045448,436.039,173.35,0.387474,275.225,-1.26072,-0.938792,0.0294376,-0.00386814,-0.0243645,0.05389,-0.000635396,-0.00033536,0.0432165,0.029875169256245115,0.05536850523429071,-0.0006351941787093862,-0.003860668383327881,-0.0003353037731207431,-0.024070081536394894
71,0.046448,436.897,172.894,-0.217147,276.41,-1.42288,-0.959051,0.0300594,-0.00395086,-0.0249033,0.0550688,-0.000647693,-0.00034114,0.0442018,0.030515744770776898,0.05661330717037716,-0.000647483292166795,-0.003943065620842456,-0.000341081818366451,-0.024595770943019346
72,0.047448,438.481,173.694,-0.201572,277.548,-1.38132,-0.93393,0.03068,-0.00402901,-0.0254406,0.0562448,-0.000657077,-0.000346164,0.0451847,0.031155481331704094,0.05785661534152542,-0.0006568611721824436,-0.0040209044286732,-0.00034610409215540816,-0.025119714865152187
73,0.048448,440.688,175.689,0.293169,278.628,-1.1392,-0.895686,0.0312993,-0.00410161,-0.0259776,0.0574179,-0.000662184,-0.000350758,0.0461655,0.03179427370293397,0.05909831511358532,-0.0006619648045602666,-0.004093209886291804,-0.00035069649160446303,-0.025643085040800373
74,0.049448,441.591,175.257,-0.162632,279.761,-1.30836,-0.885856,0.0319184,-0.0041835,-0.0265142,0.0585945,-0.000673607,-0.000355644,0.0471484,0.03243325531413199,0.060345183580021056,-0.0006733801777373261,-0.004174761354163836,-0.00035558076616915013,-0.026165784708504503
75,0.050448,443.654,177.173,0.20636,280.793,-1.05773,-0.876751,0.0325358,-0.00425542,-0.0270508,0.0597663,-0.000677962,-0.000360446,0.0481279,0.03307087641934392,0.06158842433864109,-0.0006777322356900095,-0.004246378529942696,-0.0003603810471447533,-0.0266882039708064
76,0.051448,444.61,176.758,-0.119481,281.898,-1.23888,-0.836158,0.0331533,-0.0043369,-0.0275857,0.0609413,-0.000688958,-0.000364607,0.0491091,0.03370899468427058,0.0628365238521067,-0.0006887207229315795,-0.00432750922971048,-0.0003645405389454126,-0.027208689234308747
77,0.052448,446.558,178.577,0.168323,282.889,-0.992998,-0.84098,0.0337689,-0.00440845,-0.0281215,0.0621117,-0.000692854,-0.000369329,0.0500873,0.03434554185051364,0.06408119595965744,-0.0006926140320914209,-0.004398747047861806,-0.0003692608064403968,-0.02772977120829001
78,0.053448,447.539,178.223,-0.092265,283.96,-1.16463,-0.792614,0.0343847,-0.00448918,-0.0286552,0.0632851,-0.000703135,-0.000373095,0.0510668,0.03498268799234783,0.06533052167104514,-0.000702887858513912,-0.004479118692767514,-0.00037302540871542167,-0.02824853338539568
79,0.054448,449.382,179.909,0.142249,284.919,-0.936497,-0.80134,0.0349986,-0.00456067,-0.0291899,0.0644542,-0.000706802,-0.000377594,0.0520437,0.03561825893304582,0.06657672791184632,-0.0007065522743053831,-0.00455028593666873,-0.00037752272035740386,-0.028767990005490907
80,0.055448,450.738,180.551,0.0864736,285.904,-0.908124,-0.791983,0.0356121,-0.00463586,-0.0297239,0.0656241,-0.00071275,-0.000381803,0.0530208,0.03625380566892855,0.06782524620420527,-0.0007124960540556557,-0.004625130986834147,-0.00038173012250986016,-0.02928648944715595
81,0.056448,451.943,180.51,0.111099,286.931,-1.0434,-0.701245,0.0362254,-0.00471492,-0.0302553,0.0667946,-0.000721636,-0.000384448,0.0539974,0.036889535054434486,0.06907586743817795,-0.000721375683363501,-0.0047038222132732566,-0.00038437410933700455,-0.029802189573004734
82,0.057448,453.48,181.902,0.0723083,287.833,-0.836896,-0.759601,0.0368369,-0.00478622,-0.0307893,0.0679617,-0.000724814,-0.000389275,0.0549725,0.03752378690786062,0.07032431427250363,-0.0007245513857853103,-0.004774784300920931,-0.0003891992423177282,-0.030320136899528616
83,0.058448,454.749,182.416,0.00422512,288.777,-0.82931,-0.745572,0.037448,-0.00486121,-0.0313216,0.0691294,-0.000730407,-0.000393106,0.0559474,0.03815801146161513,0.07157486196445362,-0.0007301403177399912,-0.004849413441591621,-0.0003930287439599667,-0.03083616013888757
84,0.059448,456.063,182.571,0.181749,289.761,-0.935164,-0.637631,0.0380589,-0.00493891,-0.0318511,0.0702971,-0.000738101,-0.000395123,0.0569213,0.038792415949937986,0.07282687077385108,-0.0007378286704632364,-0.0049267336382385896,-0.00039504494918762845,-0.031349196553716485
85,0.060448,457.166,182.832,0.0209853,290.688,-0.96245,-0.631991,0.0386687,-0.00501537,-0.0323815,0.0714638,-0.000744971,-0.000398374,0.0578949,0.03942606474506638,0.07407926832803358,-0.0007446935779993336,-0.005002814031594194,-0.00039829465961416233,-0.0318628327115138
86,0.061448,458.276,183.288,-0.187466,291.583,-0.935328,-0.651196,0.0392776,-0.00509055,-0.0329121,0.0726294,-0.000750951,-0.000402032,0.0588676,0.04005916400339826,0.07533194504135898,-0.0007506691068648319,-0.005077615108227573,-0.00040195119596442286,-0.032376390033670766
87,0.062448,459.494,183.921,-0.287302,292.462,-0.881054,-0.658849,0.0398857,-0.00516482,-0.033442,0.0737937,-0.000756204,-0.000405577,0.0598393,0.04069181631947005,0.07658468316495237,-0.0007559181498134615,-0.0051515052498091185,-0.0004054947647664786,-0.03288899795712785
88,0.063448,461.517,185.669,0.393103,293.327,-0.68429,-0.569621,0.0404929,-0.00523506,-0.0339698,0.0749552,-0.000758339,-0.000407382,0.0608084,0.04132391627646537,0.07783586275633403,-0.0007580515336508276,-0.005221380954016919,-0.0004072990312200542,-0.033399304462272905
89,0.064448,461.984,185.041,-0.294397,294.208,-0.838019,-0.622869,0.0410997,-0.00531323,-0.0344995,0.07612,-0.000765873,-0.000411276,0.0617801,0.04195598337862627,0.07909205743502401,-0.000765579794131499,-0.005299139759425198,-0.00041119143761914057,-0.033911177269217774
90,0.065448,463.224,185.602,-0.273483,295.066,-0.812518,-0.597786,0.0417056,-0.00538755,-0.0350271,0.0772819,-0.000770961,-0.00041403,0.0627493,0.042587495806325704,0.08034658317214949,-0.0007706638859276138,-0.005373063180329929,-0.0004139443014071764,-0.03442075129464217
91,0.066448,465.184,187.472,0.314771,295.876,-0.570051,-0.544098,0.0423104,-0.00545624,-0.0355542,0.0784406,-0.000771724,-0.000416104,0.0637161,0.04321824344264824,0.08159910626719125,-0.0007714262976201702,-0.0054413817581916435,-0.0004160174407369377,-0.034929574004628816
92,0.067448,466.269,187.918,0.17078,296.697,-0.554727,-0.559478,0.0429147,-0.0055294,-0.0360821,0.0796008,-0.000775224,-0.000419128,0.064684,0.043848850745966894,0.08285470578271825,-0.0007749235915078811,-0.005514141005136475,-0.00041904017812977035,-0.035438900234025406
93,0.068448,467.215,187.725,0.106817,297.565,-0.693934,-0.491668,0.0435187,-0.00560619,-0.0366075,0.0807614,-0.000781544,-0.000420727,0.0656514,0.044479525896539585,0.0841121965349807,-0.0007812386740351229,-0.005590504642229321,-0.0004206385068066254,-0.035945547527943544
94,0.069448,468.56,188.93,0.0804671,298.321,-0.513897,-0.544708,0.0441212,-0.00567584,-0.0371349,0.0819185,-0.000782687,-0.000424114,0.0666171,0.045109014425269045,0.08536734878588437,-0.0007823807804265837,-0.005659762851635941,-0.00042402407637054385,-0.03645385579350546
95,0.070448,469.442,188.598,0.00682311,299.175,-0.680938,-0.473298,0.044724,-0.005753,-0.0376591,0.0830775,-0.000789235,-0.000425552,0.0675829,0.04573919605682608,0.08662601880150578,-0.0007889236359759355,-0.005736483184425767,-0.0004254614655904154,-0.03695881432110548
96,0.071448,470.938,190.115,0.11733,299.902,-0.444582,-0.516272,0.0453249,-0.00582111,-0.0381854,0.0842324,-0.0007892,-0.000428636,0.0685466,0.04636776957573652,0.08788168813731057,-0.0007888886635876169,-0.00580420016642802,-0.0004285441487138497,-0.03746552954332116
97,0.072448,471.987,190.471,0.0382072,300.682,-0.453143,-0.507173,0.0459257,-0.00589391,-0.0387103,0.0853882,-0.000792277,-0.00043102,0.0695105,0.0469966162183133,0.08913978870872463,-0.0007919632314469238,-0.005876574986180549,-0.00043092712422410084,-0.037970631311307734
98,0.073448,473.051,190.463,0.15718,301.503,-0.56969,-0.414033,0.0465263,-0.00596936,-0.0392326,0.086544,-0.000797432,-0.000431835,0.0704735,0.04762563126032293,0.09039934423343454,-0.0007971141356000189,-0.005951578769044508,-0.00043174177268645586,-0.03847296805391387
99,0.074448,473.968,190.631,-0.00746268,302.27,-0.601015,-0.416795,0.0471259,-0.00604341,-0.0397559,0.0876986,-0.000801707,-0.000433857,0.071436,0.048253975947738725,0.09165904640240607,-0.0008013857188066131,-0.006025185329320171,-0.00043376289766128284,-0.03897600351902242
100,0.075448,475.548,192.247,0.254664,302.967,-0.358346,-0.430081,0.0477242,-0.00611081,-0.0402796,0.0888496,-0.000801001,-0.000436066,0.0723962,0.048881333956982465,0.0929162693578287,-0.0008006802843358862,-0.006092176974185182,-0.00043597093704028644,-0.03947916002294927
101,0.076448,476.478,192.512,0.0851007,303.703,-0.37197,-0.445471,0.0483222,-0.00618319,-0.0408027,0.090002,-0.000803585,-0.000438389,0.073357,0.04950875257415799,0.09417647205596613,-0.0008032622120421884,-0.006164113419004469,-0.00043829292158270583,-0.039981477081860284
102,0.077448,477.476,192.461,0.180417,304.487,-0.490808,-0.358377,0.04892,-0.00625814,-0.0413231,0.0911542,-0.000808218,-0.000438954,0.0743169,0.05013633647258442,0.09543790876120162,-0.0008078914798046455,-0.0062385986273356675,-0.000438857673787707,-0.04048094074946862
103,0.078448,478.333,192.596,-0.00481149,305.218,-0.523324,-0.366871,0.0495169,-0.00633167,-0.0418444,0.0923053,-0.000811965,-0.000440754,0.0752761,0.05076334996538523,0.09669959336123402,-0.0008116354456210173,-0.0063116672167790044,-0.0004406568822246104,-0.04098100768128554
104,0.079448,479.865,194.161,0.259559,305.882,-0.288405,-0.377895,0.0501125,-0.00639873,-0.042366,0.0934528,-0.000810884,-0.000442629,0.0762331,0.051389371027190656,0.09795877846389867,-0.0008105553224150297,-0.006378301722095525,-0.00044253105423597283,-0.041481101551859356
105,0.080448,480.326,193.358,-0.119082,306.642,-0.51279,-0.357144,0.0507085,-0.0064758,-0.0428857,0.0946035,-0.000816947,-0.000444009,0.0771916,0.05201618586459,0.09922292681854361,-0.0008166133896531091,-0.006454877195507969,-0.00044391044259128876,-0.04197911440353441
106,0.081448,481.359,193.858,-0.142778,307.339,-0.477467,-0.353573,0.0513033,-0.00654764,-0.0434053,0.0957512,-0.000819521,-0.00044557,0.078148,0.052642111223690335,0.10048522920531755,-0.0008191852843801861,-0.006526250913355569,-0.00044547074842926637,-0.04247677275285444
107,0.082448,482.93,195.393,0.230037,307.992,-0.261845,-0.336293,0.0518971,-0.00661481,-0.0439248,0.096896,-0.000818494,-0.000446854,0.0791025,0.0532673557260559,0.10174578610080842,-0.0008181591251565923,-0.006592980303950058,-0.00044675417562090036,-0.0429740768834771
108,0.083448,483.439,194.814,-0.127953,308.714,-0.433939,-0.331305,0.052491,-0.0066904,-0.0444433,0.0980436,-0.000823382,-0.000448278,0.0800584,0.05389307699816159,0.10301087533429776,-0.0008230431140582306,-0.006668069102552021,-0.00044817753842951724,-0.0434701662023429
109,0.084448,484.971,196.375,0.195725,309.342,-0.203158,-0.334539,0.0530834,-0.00675696,-0.0449621,0.0991864,-0.000821793,-0.000449801,0.0810113,0.05451758821893504,0.10427211669868108,-0.0008214554206124047,-0.006734183075575162,-0.00044969985469589524,-0.04396628517572776
110,0.085448,485.458,195.65,-0.10725,310.067,-0.416351,-0.300103,0.0536761,-0.00683314,-0.0454792,0.100332,-0.000827068,-0.000450685,0.0819656,0.05514278605254819,0.10553789573536942,-0.0008267260735336235,-0.006809847183425921,-0.0004505834567706257,-0.044460522413612646
111,0.086448,486.462,196.15,-0.116702,310.726,-0.379833,-0.296738,0.0542677,-0.00690431,-0.0459963,0.101475,-0.000828979,-0.000451926,0.0829179,0.055767193206201604,0.10680224798985738,-0.0008286354918356498,-0.0068805300113236045,-0.00045182389682685287,-0.04495450414748803
112,0.087448,487.91,197.519,0.198749,311.347,-0.190506,-0.282867,0.0548583,-0.00697151,-0.0465132,0.102616,-0.000827816,-0.000452953,0.0838685,0.05639091347697511,0.10806583009131665,-0.0008274734548630036,-0.006947265397372782,-0.00045285043227660804,-0.045448039599067847
113,0.088448,488.892,198.059,0.147655,311.979,-0.146383,-0.300307,0.0554485,-0.00704128,-0.0470302,0.103757,-0.000828204,-0.000454465,0.0848193,0.05701457941982513,0.10933085476278315,-0.000827861133728125,-0.007016548269704881,-0.00045436174642421445,-0.045941415413957576
114,0.089448,489.54,197.555,0.0471002,312.681,-0.334011,-0.233606,0.0560387,-0.00711639,-0.0475447,0.104899,-0.000832623,-0.000454583,0.08577,0.05763861355895883,0.11059843424904803,-0.0008322764656540915,-0.007091128455870455,-0.0004544796928025452,-0.04643215230283715
115,0.090448,490.765,198.834,0.0838352,313.255,-0.123737,-0.293045,0.0566272,-0.00718283,-0.0480615,0.106036,-0.000830785,-0.000456569,0.0867185,0.05826121706615117,0.11186190281455421,-0.0008304399936904794,-0.007157095129858626,-0.0004564647882346895,-0.04692482884794236
116,0.091448,491.402,198.312,-0.0078599,313.945,-0.315681,-0.227319,0.0572162,-0.00725783,-0.0485749,0.107176,-0.000835134,-0.000456663,0.0876676,0.05888471652556859,0.113130148146251,-0.0008347853726579091,-0.007231555555423097,-0.00045655874532257723,-0.04741401205673723
117,0.092448,492.674,199.666,0.093703,314.508,-0.0951943,-0.27324,0.0578036,-0.00732386,-0.0490905,0.108312,-0.000832989,-0.00045837,0.0886144,0.05950688812196425,0.11439538251159975,-0.0008326421609740065,-0.007297105891641564,-0.000458264964520505,-0.04790503879454977
118,0.093448,493.266,199.093,-0.0248469,315.186,-0.294141,-0.211125,0.0583913,-0.00739882,-0.049603,0.109451,-0.000837284,-0.000458421,0.0895619,0.060129743328188434,0.11566540199107211,-0.0008369335755601393,-0.007371516111653986,-0.00045831594114775775,-0.048392862446679175
119,0.094448,494.549,200.477,0.101254,315.737,-0.0685645,-0.254483,0.0589774,-0.00746455,-0.0501176,0.110584,-0.00083491,-0.000459994,0.0905071,0.06075126749061699,0.11693016724574767,-0.0008345615596248024,-0.00743675943765465,-0.0004598882189801312,-0.04888243350222776
120,0.095448,495.109,199.872,-0.0312109,316.403,-0.271793,-0.194473,0.059564,-0.00753941,-0.0506291,0.111721,-0.000839114,-0.000459983,0.091453,0.06137368672183974,0.1182008390859568,-0.000838762042298602,-0.007511059940740639,-0.00045987722403884046,-0.04936880573718805
121,0.096448,496.385,201.259,0.103106,316.942,-0.0450974,-0.237058,0.0601489,-0.00760495,-0.0511426,0.112853,-0.000836583,-0.000461451,0.0923965,0.061994665778825064,0.119467359150913,-0.0008362331620049845,-0.007576105534304656,-0.0004613445478620637,-0.04985682954460591
122,0.097448,496.929,200.647,-0.0322269,317.597,-0.248647,-0.178348,0.0607343,-0.00767963,-0.0516532,0.113987,-0.000840643,-0.00046137,0.0933408,0.06261653946083934,0.12073755520123264,-0.0008402897586634595,-0.0076502169833874145,-0.0004612635852276892,-0.05034184881148407
123,0.098448,498.187,202.015,0.101008,318.125,-0.0249678,-0.220501,0.061318,-0.00774506,-0.0521658,0.115117,-0.000838027,-0.000462744,0.0942828,0.0632369697898989,0.12200470444309652,-0.0008376759534426403,-0.007715144305569743,-0.0004626369505080774,-0.05082851883559969
124,0.099448,498.725,201.418,-0.02999,318.769,-0.224633,-0.163122,0.0619022,-0.00781947,-0.0526754,0.11625,-0.000841887,-0.0004626,0.0952255,0.06385829429886813,0.12327665619783379,-0.0008415327125699257,-0.007788977474684766,-0.00046249301711742685,-0.051312093397137715
125,0.1004,499.955,202.745,0.0964101,319.288,-0.00805722,-0.204503,0.0624847,-0.0078849,-0.0531869,0.117378,-0.000839258,-0.00046388,0.0961658,0.06447817227723118,0.12454442715442005,-0.0008389059215064831,-0.007853895718065163,-0.000463772424307507,-0.051797223178846274
126,0.1014,500.496,202.182,-0.0257385,319.918,-0.199828,-0.148946,0.0630677,-0.00795896,-0.0536956,0.118509,-0.000842865,-0.000463685,0.0971069,0.06509894398903993,0.1258170064094477,-0.0008425098890730842,-0.007927371337712485,-0.000463577514724145,-0.05227945126630207
127,0.1024,501.692,203.451,0.090302,320.43,0.00591441,-0.188908,0.0636491,-0.00802446,-0.0542061,0.119636,-0.000840287,-0.000464864,0.0980457,0.06571837256551372,0.12708651741075006,-0.0008399340577432968,-0.007992349966816525,-0.0004647559674715307,-0.052763139134597736
128,0.1034,502.537,203.872,0.0297261,320.979,0.0332286,-0.201326,0.0642303,-0.00809314,-0.0547158,0.120762,-0.00083979,-0.000465769,0.0989845,0.06633794811486271,0.12835633160057958,-0.0008394374750672062,-0.008060478712652919,-0.00046566054645802435,-0.053245822740214055
129,0.1044,503.216,203.378,0.120608,321.613,-0.170714,-0.0951364,0.0648116,-0.00816714,-0.0552221,0.12189,-0.000843366,-0.000464669,0.0999228,0.06695799056197926,0.12962983566388453,-0.0008430104668502025,-0.008133879521364684,-0.0004645610580799042,-0.053725043055301014
130,0.1054,504.204,204.468,0.0152547,322.097,0.0258367,-0.182635,0.0653912,-0.00823266,-0.0557319,0.123014,-0.000840787,-0.000466407,0.10086,0.06757657866282352,0.13090025344020972,-0.0008404336376514054,-0.008198864460648658,-0.0004662982491632217,-0.054207331082687826
131,0.1064,505.002,204.838,-0.0712731,322.632,0.0476694,-0.197933,0.0659706,-0.00830124,-0.0562402,0.124138,-0.000840274,-0.000467326,0.101796,0.06819531176217031,0.13217209996892398,-0.0008399210686623748,-0.008266879850249542,-0.00046721682021300115,-0.05468795533529658
132,0.1074,505.826,204.516,0.194366,323.257,-0.139024,-0.0633312,0.0665503,-0.0083746,-0.0567446,0.125263,-0.000843439,-0.000465712,0.102732,0.0688147241037198,0.1334465103027913,-0.0008430834053078096,-0.008339630723409042,-0.00046560357299907373,-0.05516465049799868
133,0.1084,506.667,205.429,-0.0356465,323.726,0.0355667,-0.168952,0.0671282,-0.00844041,-0.0572533,0.126385,-0.000841079,-0.000467606,0.103666,0.06943257064234154,0.1347189509930904,-0.0008407253922021463,-0.008404889744939581,-0.0004674966893531973,-0.05564516601080749
134,0.1094,507.433,205.763,-0.130912,324.249,0.0526503,-0.184162,0.0677059,-0.00850895,-0.0577601,0.127506,-0.000840596,-0.000468452,0.1046,0.07005056032753498,0.13599168417081908,-0.0008402427981559768,-0.008472851344725751,-0.0004683422934932402,-0.056123643784164234
135,0.1104,508.356,205.628,0.233273,324.856,-0.102533,-0.0415764,0.0682838,-0.00858139,-0.0582629,0.128627,-0.000843148,-0.000466629,0.105533,0.07066912126231539,0.13726584488242333,-0.0008427926506028305,-0.008544674969891308,-0.0004665201456203194,-0.056598105526391884
136,0.1114,509.024,205.736,0.109081,325.387,-0.128436,-0.0541122,0.0688607,-0.00865168,-0.0587677,0.129748,-0.000844228,-0.000466802,0.106466,0.07128696847926586,0.13854143472906566,-0.0008438717398040474,-0.008614361915511237,-0.0004666930648974388,-0.05707421462267592
137,0.1124,510.079,206.948,0.120284,325.844,0.0855606,-0.115975,0.0694363,-0.00871635,-0.0592738,0.130865,-0.000841085,-0.000467881,0.107397,0.0719037787592911,0.13981389604900207,-0.0008407313871577893,-0.008678472751679878,-0.00046777156075372694,-0.05755130862383495
138,0.1134,510.817,207.289,0.00568237,326.344,0.106515,-0.144484,0.0700117,-0.00878443,-0.0597789,0.131983,-0.000840248,-0.000468693,0.108328,0.07252072967334522,0.14108892059069666,-0.0008398950904999758,-0.00874595962397573,-0.00046858318059372905,-0.05802721925650067
139,0.1144,511.493,206.823,0.161704,326.936,-0.0955527,-0.0289171,0.0705874,-0.00885763,-0.0602802,0.133101,-0.000843342,-0.000467151,0.109258,0.07313835762456566,0.14236537140696792,-0.0008429864870822534,-0.008818516764107609,-0.0004670419019606742,-0.05849931187158697
140,0.1154,512.352,207.786,-0.00987837,327.376,0.0867431,-0.126179,0.0711614,-0.00892279,-0.0607854,0.134216,-0.000840592,-0.000468723,0.110187,0.07375451586233894,0.1436398191686783,-0.0008402388015169571,-0.008883100045409043,-0.00046861316653579177,-0.058974837891242915
141,0.1164,513.081,208.102,-0.0999403,327.869,0.102508,-0.141635,0.0717352,-0.00899088,-0.0612889,0.13533,-0.000839844,-0.000469355,0.111115,0.07437081300228066,0.14491454381703406,-0.0008394914297360501,-0.008950582897647164,-0.00046924487017263594,-0.05944852479967844
142,0.1174,513.912,207.895,0.207811,328.446,-0.0585668,-0.00963434,0.0723092,-0.00906297,-0.0617885,0.136446,-0.000842208,-0.000467514,0.112043,0.0749876788725119,0.14619298168357697,-0.0008418534423864088,-0.009022025074961859,-0.0004674047323586228,-0.05991830695533451
143,0.1184,514.54,207.988,0.0821688,328.948,-0.0842718,-0.0235201,0.0728822,-0.00913276,-0.0622901,0.137559,-0.00084302,-0.000467558,0.11297,0.0756038233210321,0.1474694046698164,-0.0008426647584720559,-0.009091183014537596,-0.0004674487117918291,-0.060389733688856584
144,0.1194,515.587,209.195,0.131448,329.379,0.127249,-0.0775573,0.073454,-0.00919703,-0.0627928,0.13867,-0.000839675,-0.00046835,0.113895,0.0762190294578795,0.14874495161352908,-0.000839322571595913,-0.009154866677708706,-0.0004682403412590297,-0.06086195706644071
145,0.1204,516.285,209.508,0.0186066,329.853,0.144908,-0.105944,0.0740256,-0.00926475,-0.0632945,0.139781,-0.00083867,-0.000468968,0.114821,0.07683437210329158,0.15002191647740482,-0.0008383184146104616,-0.009221964438181574,-0.0004688580516956087,-0.06133300445046386
146,0.1214,516.914,209.05,0.150597,330.414,-0.0488382,0.000405475,0.0745974,-0.0093373,-0.0637927,0.140893,-0.000841386,-0.000467405,0.115745,0.07745028206913829,0.151301452138505,-0.0008410321340523996,-0.009293842777243322,-0.0004672957832998481,-0.061800531876894604
147,0.1224,517.502,209.104,0.0082058,330.902,-0.0784544,-0.0146777,0.0751682,-0.00940699,-0.0642924,0.142003,-0.000842207,-0.000467426,0.116669,0.07806546624700483,0.15258010627213725,-0.0008418524432283192,-0.009362882683616625,-0.00046731677348632594,-0.0622692330363781
148,0.1234,518.668,210.516,0.17965,331.315,0.166051,-0.0557634,0.0757377,-0.0094703,-0.0647929,0.143109,-0.000838234,-0.000467948,0.117591,0.07867959938784597,0.15385556506837283,-0.000837882780022281,-0.009425597934241692,-0.0004678385294107912,-0.06273844985393995
149,0.1244,518.985,209.788,-0.0399768,331.844,-0.0419949,-0.026351,0.0763078,-0.00954302,-0.065291,0.144219,-0.000841094,-0.000467479,0.118514,0.07929472995376408,0.1551370558414007,-0.0008407403795912538,-0.009497629885646508,-0.0004673697487171946,-0.0632051835823827
150,0.1254,519.579,209.858,-0.156608,332.323,-0.0682142,-0.0309493,0.0768769,-0.00961246,-0.0657892,0.145326,-0.00084181,-0.000467448,0.119436,0.07990913139592881,0.1564165006042355,-0.0008414557773649411,-0.009566407982224079,-0.00046733876320514955,-0.06367177852147177
151,0.1264,520.949,211.488,0.254175,332.735,0.19497,-0.029373,0.077445,-0.00967514,-0.0662876,0.146429,-0.000837444,-0.00046731,0.120355,0.08052280207012519,0.1576927317164709,-0.0008370934416379594,-0.009628486414213322,-0.00046720082768836324,-0.06413832823321086
152,0.1274,521.134,210.623,-0.0907787,333.25,-0.0271163,-0.0219948,0.0780134,-0.00974799,-0.0667847,0.147536,-0.000840398,-0.000467099,0.121275,0.08113714581077303,0.1589750071790026,-0.000840044964504516,-0.009700632351030358,-0.00046698992624549795,-0.06460342945975872
153,0.1284,522.256,211.866,0.111763,333.66,0.175197,-0.0459799,0.0785804,-0.00981185,-0.0672825,0.148638,-0.00083691,-0.000467364,0.122193,0.08175032439214802,0.16025290162743167,-0.0008365598885033965,-0.009763870849421763,-0.000467254802458128,-0.06506895399390389
154,0.1294,522.948,212.184,0.0517569,334.107,0.191225,-0.0595126,0.0791472,-0.0098791,-0.0677798,0.149741,-0.000835681,-0.000467573,0.123112,0.08236363427161386,0.16153336662455398,-0.0008353319158809214,-0.009830461989954964,-0.0004674637047800134,-0.06553377961461249
155,0.1304,523.483,211.724,0.0999434,334.628,0.0119673,0.0234646,0.0797141,-0.00995078,-0.0682743,0.150844,-0.000837875,-0.000466202,0.124029,0.08297740017138922,0.16281524475376696,-0.0008375240807578788,-0.009901434798743614,-0.00046609334473335373,-0.06599575892679421
156,0.1314,524.049,211.789,-0.0260801,335.084,-0.0142651,0.0090299,0.08028,-0.0100198,-0.0687699,0.151946,-0.000838289,-0.000466108,0.124946,0.08359043052272419,0.16409737347665998,-0.0008379377339372551,-0.00996976904347191,-0.00046599938854174905,-0.06645853674285496
157,0.1324,525.172,213.089,0.182432,335.478,0.20247,-0.0154897,0.0808449,-0.0100831,-0.0692659,0.153044,-0.000834476,-0.000466236,0.125861,0.08420272368284709,0.16537625436986247,-0.000834127921730432,-0.010032435973662213,-0.0004661273288856238,-0.06692145849454556
158,0.1334,525.811,213.367,0.0754844,335.908,0.21577,-0.0439753,0.0814095,-0.0101501,-0.0697615,0.154143,-0.000833156,-0.000466561,0.126776,0.08481503738052965,0.1666577069026034,-0.0008328090219088535,-0.01009876157851941,-0.0004664521773414254,-0.06738377764756665
159,0.1344,526.304,212.843,0.111199,336.419,0.0244594,0.0394549,0.0819743,-0.0102218,-0.0702542,0.155243,-0.000835433,-0.000465114,0.127691,0.08542791397369975,0.16794173646698374,-0.000835084123012475,-0.01016973495288831,-0.00046500585125131,-0.06784316448108019
160,0.1354,526.843,212.892,-0.0250473,336.863,-0.00250068,0.0230706,0.0825382,-0.0102906,-0.0707479,0.156341,-0.000835789,-0.000464984,0.128605,0.08604015938075826,0.16922484078898758,-0.0008354398256592566,-0.010237832932526225,-0.00046487591169364073,-0.06830325672765958
161,0.1364,527.957,214.212,0.183884,337.242,0.220894,-0.00372332,0.0831009,-0.0103536,-0.0712422,0.157436,-0.000831799,-0.000465086,0.129516,0.08665144614784448,0.17050584321048112,-0.0008314531511106615,-0.010300185984909671,-0.0004649778642711322,-0.06876368062471816
162,0.1374,528.576,214.478,0.0742112,337.661,0.23323,-0.0329322,0.0836635,-0.0104204,-0.071736,0.158531,-0.000830405,-0.00046537,0.130428,0.0872629682564865,0.17178824909788348,-0.0008300603091855319,-0.010366295724395957,-0.0004652617321770913,-0.06922341160230572
163,0.1384,529.051,213.938,0.112096,338.161,0.0389628,0.0514587,0.0842262,-0.010492,-0.0722268,0.159627,-0.00083264,-0.000463861,0.13134,0.08787494329175316,0.17307323306147837,-0.0008322934515052616,-0.010437150960974417,-0.0004637534331189963,-0.06968012466533768
164,0.1394,529.576,213.984,-0.0222489,338.593,0.0126785,0.0348155,0.0847879,-0.0105605,-0.0727188,0.160721,-0.000832903,-0.000463683,0.132251,0.08848617429555694,0.17435727742264717,-0.0008325562325774971,-0.010504933694548413,-0.0004635755156512378,-0.070137729463991
165,0.1404,530.665,215.281,0.17822,338.961,0.23362,0.00706946,0.0853487,-0.0106233,-0.0732113,0.161812,-0.000828882,-0.00046375,0.133159,0.08909676853672455,0.1756392003741314,-0.0008285385722086591,-0.01056707203354812,-0.0004636424845895215,-0.07059557387878845
166,0.1414,531.265,215.533,0.067824,339.369,0.24431,-0.0219535,0.0859092,-0.01069,-0.0737033,0.162904,-0.000827458,-0.000463982,0.134068,0.08970737838291298,0.17692369958986842,-0.0008271157510345573,-0.010633065008953335,-0.00046387437699757506,-0.07105272838720933
167,0.1424,531.739,215.019,0.114754,339.857,0.0563648,0.0616018,0.0864698,-0.0107612,-0.0741923,0.163997,-0.000829521,-0.000462442,0.134977,0.09031843960369135,0.17821078045507877,-0.000829177042568463,-0.010703505427016036,-0.00046233509017878927,-0.07150687255572918
168,0.1434,532.253,215.069,-0.0166598,340.277,0.0315891,0.0445511,0.0870295,-0.0108294,-0.0746825,0.165087,-0.000829663,-0.000462229,0.135884,0.09092886164501057,0.1794957303762612,-0.0008293189248153032,-0.01077097314727049,-0.00046212218863350696,-0.07196190834841765
169,0.1444,533.303,216.303,0.170685,340.637,0.241188,0.0179975,0.0875882,-0.0108923,-0.0751731,0.166175,-0.000825751,-0.000462234,0.13679,0.09153853389609612,0.1807797200946577,-0.000825410161465423,-0.010833193696202725,-0.0004621271863228804,-0.07241709217046055
170,0.1454,533.884,216.537,0.0594306,341.035,0.249594,-0.0105299,0.0881466,-0.0109588,-0.0756633,0.167263,-0.000824335,-0.00046241,0.137696,0.09214821922172445,0.18206510755410132,-0.0008239953292444868,-0.010898971101699018,-0.000462303104973083,-0.0728716818828371
171,0.1464,534.37,216.088,0.11848,341.508,0.0762952,0.069966,0.0887052,-0.0110295,-0.0761506,0.168351,-0.000826109,-0.000460875,0.138601,0.09275846364238016,0.1833518942761614,-0.000825767865904492,-0.01096889807249457,-0.00046076881343071197,-0.07332336145159057
172,0.1474,534.875,216.144,-0.009843,341.917,0.0535923,0.0522978,0.0892628,-0.0110975,-0.076639,0.169438,-0.000826109,-0.000460639,0.139506,0.09336795567229328,0.18463889714457493,-0.000825767865904492,-0.011036149900837566,-0.00046053292214431885,-0.07377583981764635
173,0.1484,535.876,217.284,0.162668,342.272,0.244461,0.0291432,0.0898195,-0.0111605,-0.0771278,0.170522,-0.000822422,-0.000460555,0.140408,0.0939768030701651,0.18592374196916084,-0.0008220839037192951,-0.0110984526608362,-0.00046044896082553244,-0.07422846755591217
174,0.1494,536.437,217.499,0.0505318,342.661,0.250201,0.00132161,0.090376,-0.011227,-0.0776161,0.171607,-0.000821045,-0.000460671,0.141311,0.09458577059057016,0.18721116753126577,-0.0008207080347815143,-0.011164212427197784,-0.0004605649074067575,-0.0746804114441243
175,0.1504,536.944,217.14,0.122323,343.118,0.0978943,0.076738,0.0909324,-0.0112969,-0.0781018,0.172692,-0.000822443,-0.000459172,0.142213,0.09519496757621182,0.18849999070817436,-0.0008221048864552882,-0.011233329633074662,-0.0004590665966706098,-0.07512973004243129
176,0.1514,537.702,218.1,0.00869983,343.445,0.287984,-0.00853089,0.0914874,-0.0113598,-0.0785905,0.173773,-0.000818551,-0.000460037,0.143114,0.0958029694881406,0.18978545386578816,-0.00081821607851984,-0.011295521100698647,-0.00045993119920406667,-0.07558160371903333
177,0.1524,538.255,218.225,-0.0690488,343.836,0.267135,-0.0200832,0.0920425,-0.0114264,-0.0790773,0.174855,-0.000817427,-0.000460049,0.144015,0.09641141857592395,0.19107349843332,-0.0008170929975636065,-0.01136136662631293,-0.0004599431936848086,-0.07603150108044066
178,0.1534,538.877,217.92,0.171548,344.3,0.104288,0.0936085,0.0925976,-0.0114964,-0.0795609,0.175937,-0.000818924,-0.000458001,0.144915,0.09702020550755597,0.1923629374193181,-0.0008185887732558017,-0.011430568908540994,-0.00045789613355229353,-0.07647822422015682
179,0.1544,539.494,218.768,-0.0987272,344.611,0.291195,-0.0234756,0.093151,-0.0115592,-0.0800489,0.177016,-0.000815065,-0.000459331,0.145813,0.09762746450234983,0.19365019137741446,-0.0008147329247499835,-0.011492649119474452,-0.0004592255236663956,-0.07692879289903798
180,0.1554,540.063,218.896,-0.138434,344.999,0.267584,-0.0244944,0.0937046,-0.0116258,-0.0805342,0.178095,-0.000813979,-0.000459233,0.146712,0.09823527929430953,0.19493883503213816,-0.0008136478089607602,-0.011558481516799946,-0.0004591275686656182,-0.07737665067436506
181,0.1564,540.751,218.664,0.187908,345.46,0.11066,0.104769,0.0942582,-0.0116954,-0.0810163,0.179174,-0.000815368,-0.000456945,0.147609,0.09884343066569445,0.19622886988378085,-0.0008150356778400258,-0.011627274652457498,-0.0004568406165332828,-0.07782134019005427
182,0.1574,541.292,219.425,-0.149833,345.763,0.287726,-0.0232902,0.0948102,-0.0117583,-0.0815031,0.180251,-0.000811658,-0.000458414,0.148506,0.09945015968122428,0.1975179023960547,-0.000811328694745983,-0.011689441341719009,-0.00045830894435594516,-0.07827014751308436
183,0.1584,541.866,219.559,-0.168276,346.146,0.263979,-0.0190575,0.0953623,-0.0118248,-0.0819871,0.181327,-0.000810598,-0.000458227,0.149402,0.10005733370935177,0.19880712513648136,-0.0008102695541930549,-0.011755161808640002,-0.0004581220300422517,-0.07871615681872934
184,0.1594,542.587,219.396,0.191238,346.598,0.119545,0.11257,0.0959145,-0.011894,-0.0824678,0.182403,-0.000811785,-0.000455878,0.150297,0.10066495311730472,0.20009773582716006,-0.0008114555916991506,-0.011823545985323092,-0.0004557741034132423,-0.0791589115375243
185,0.1604,543.08,220.072,-0.169035,346.898,0.280763,-0.014998,0.096465,-0.0119571,-0.0829533,0.183477,-0.000808317,-0.000457307,0.151191,0.10127103598299847,0.2013873331852596,-0.0008079903998184923,-0.01188589795234618,-0.0004572024510914874,-0.07960587137769215
186,0.1614,543.653,220.208,-0.177638,347.276,0.257677,-0.00866065,0.0970157,-0.0120235,-0.0834358,0.184551,-0.000807286,-0.000457049,0.152085,0.10187767296467598,0.20267831631494815,-0.0008069602323255154,-0.011951506550492597,-0.00045694456901645975,-0.08004985442522872
187,0.1624,544.39,220.119,0.189261,347.717,0.130749,0.11824,0.0975663,-0.0120923,-0.0839154,0.185625,-0.000808197,-0.000454737,0.152977,0.10248453386488476,0.20397068670534346,-0.0008078704967701134,-0.012019481948461364,-0.0004546336228008485,-0.08049095673025863
188,0.1634,544.847,220.702,-0.173451,348.017,0.270908,-0.00283904,0.0981154,-0.0121557,-0.0843994,0.186696,-0.00080505,-0.000456035,0.15387,0.10309007435835782,0.20526083005925044,-0.0008047260341907947,-0.01208211792772429,-0.000455931031844381,-0.08093589142431945
189,0.1644,545.583,220.316,0.331542,348.494,0.0518644,0.182544,0.0986654,-0.0122263,-0.0848767,0.187768,-0.000807517,-0.000452724,0.154761,0.10369694077222058,0.20655356244983625,-0.0008071910458911091,-0.012151862468187336,-0.00045262153595315713,-0.08137445605156834
190,0.1654,546.067,221.136,-0.0888363,348.763,0.258149,0.0195804,0.0992134,-0.0122885,-0.0853604,0.188837,-0.000803604,-0.000454443,0.155652,0.10430193244834274,0.20784405785499516,-0.0008032811967800813,-0.012213304711468309,-0.0004543397564199525,-0.08181868778107115
191,0.1664,546.602,221.361,-0.165896,349.117,0.269534,0.00371113,0.0997615,-0.0123541,-0.0858413,0.189907,-0.000802089,-0.000454408,0.156542,0.1049073662414921,0.20913714267390704,-0.0008017674126044039,-0.012278101393324747,-0.00045430477232122346,-0.08226013501962115
192,0.1674,547.309,221.204,0.207759,349.554,0.126591,0.138023,0.10031,-0.0124229,-0.0863185,0.190976,-0.000803225,-0.000451927,0.15743,0.10551357416920149,0.21043040140305913,-0.000802902501151892,-0.012346054322341371,-0.00045182489637507484,-0.08269797600602169
193,0.1684,547.767,221.902,-0.185228,349.831,0.300335,-0.00183826,0.100856,-0.0124854,-0.0868007,0.192042,-0.000799517,-0.000453453,0.158319,0.10611734939633521,0.21172140819532137,-0.0007991974714451899,-0.01240778076497484,-0.0004533502057264549,-0.08314019241504678
194,0.1694,548.322,222.033,-0.18448,350.193,0.276693,0.0060441,0.101403,-0.0125514,-0.0872798,0.193109,-0.000798412,-0.000453116,0.159207,0.10672256109676481,0.21301500494900516,-0.0007980933539484258,-0.012472959700515762,-0.00045301335844871726,-0.0835793547391257
195,0.1704,549.03,221.913,0.184357,350.62,0.144017,0.134819,0.10195,-0.0126199,-0.0877559,0.194175,-0.000799335,-0.000450722,0.160093,0.10732810393855319,0.2143087683976843,-0.0007990156168825591,-0.012540602985967375,-0.00045062044009835933,-0.08401555876172728
196,0.1714,549.475,222.508,-0.170913,350.904,0.288449,0.0132626,0.102495,-0.0126828,-0.0882365,0.19524,-0.00079606,-0.000451958,0.16098,0.10793176223714429,0.21560269613024485,-0.0007957432283002275,-0.012602712228683366,-0.0004518558823679575,-0.08445567511575514
197,0.1724,550.169,222.082,0.321012,351.366,0.0631936,0.197623,0.103041,-0.0127532,-0.0887104,0.196305,-0.00079855,-0.000448614,0.161865,0.10853685815547909,0.2168980026299041,-0.0007982312438019612,-0.012672222550950352,-0.0004485133877853986,-0.08488944878052973
198,0.1734,550.59,222.202,0.154287,351.708,0.0700222,0.156918,0.103586,-0.0128196,-0.0891878,0.197368,-0.000798091,-0.000448242,0.16275,0.10914117540466606,0.21819225297888822,-0.0007977726100848459,-0.012737778938876843,-0.00044814155456318616,-0.08532621829250409
199,0.1744,551.34,223.273,0.077894,351.98,0.289587,0.0712519,0.10413,-0.012881,-0.0896664,0.198429,-0.000793859,-0.000448772,0.163634,0.10974471235125183,0.2194854408741631,-0.0007935439773107955,-0.012798394978318584,-0.0004486713169078449,-0.08576387642448424
200,0.1754,551.817,223.453,-0.037155,352.314,0.295938,0.0421113,0.104674,-0.0129462,-0.0901436,0.199491,-0.000792294,-0.000448743,0.164517,0.1103485777112565,0.22078122235054876,-0.0007919802179834345,-0.012862758424694754,-0.0004486423299189246,-0.08620004582435858
201,0.1764,552.342,223.14,0.158386,352.726,0.143271,0.141371,0.105218,-0.0130149,-0.0906176,0.200552,-0.000793482,-0.000446704,0.1654,0.11095277166338624,0.22207715860007138,-0.0007931672764058817,-0.012930572423753506,-0.0004466042426227723,-0.0866330843643961
202,0.1774,552.913,223.954,-0.0763661,352.994,0.324436,0.032369,0.10576,-0.0130767,-0.0910955,0.201611,-0.000789574,-0.000447699,0.166281,0.11155507127407782,0.2233720238211494,-0.0007892623684733202,-0.012991571429489035,-0.00044759879775668754,-0.08706947812878274
203,0.1784,553.408,224.039,-0.115435,353.337,0.296755,0.0311469,0.106302,-0.0131424,-0.0915709,0.20267,-0.00078844,-0.000447373,0.167162,0.11215769741964143,0.22466826103083637,-0.0007881292628544312,-0.013056415753086692,-0.0004472729436207912,-0.08750338215172204
204,0.1794,554.014,223.845,0.164774,353.743,0.161095,0.142077,0.106845,-0.0132105,-0.0920435,0.203728,-0.000789326,-0.000445187,0.168043,0.11276176303831331,0.22596464571757924,-0.0007890145641796797,-0.013123624322696203,-0.0004450879189712431,-0.08793452616596187
205,0.1804,554.493,224.471,-0.119768,354.014,0.305152,0.0352888,0.107386,-0.013273,-0.09252,0.204784,-0.000785989,-0.000446148,0.168922,0.11336393002359957,0.2272599481827886,-0.0007856801915578915,-0.013185302168723267,-0.00044604849078022646,-0.0883690218374289
206,0.1814,554.997,224.566,-0.136418,354.355,0.278699,0.0394588,0.107927,-0.0133386,-0.092994,0.205841,-0.000784933,-0.000445722,0.169801,0.11396642286936243,0.2285578477671084,-0.0007846250206791083,-0.013250035089637957,-0.000445622680706137,-0.0888010325264561
207,0.1824,555.65,224.519,0.162252,354.746,0.176292,0.142814,0.108468,-0.0134059,-0.0934656,0.206896,-0.000785326,-0.000443629,0.170679,0.11456924175193972,0.2298546602448026,-0.0007850177122442625,-0.01331644112768815,-0.0004435306112050563,-0.0892306526471297
208,0.1834,556.07,224.98,-0.129953,355.024,0.282498,0.0472165,0.109008,-0.0134691,-0.0939406,0.20795,-0.000782584,-0.000444407,0.171557,0.11517127167593588,0.23115161042938115,-0.0007822778610064862,-0.013378797558124988,-0.0004443082658357467,-0.08966316535722152
209,0.1844,556.726,224.737,0.267556,355.439,0.117814,0.190358,0.109548,-0.0135377,-0.0944103,0.209005,-0.000784047,-0.000441627,0.172433,0.1157736267838827,0.2324511607706532,-0.0007837397154646375,-0.013446477451165562,-0.00044152949715026146,-0.09009065016578666
210,0.1854,557.13,224.854,0.116291,355.76,0.123432,0.153032,0.110087,-0.0136033,-0.0948827,0.210058,-0.000783345,-0.000441249,0.173309,0.11637519087567805,0.23374961535930727,-0.0007830382654037127,-0.01351119323954375,-0.0004411516639769575,-0.09052038983014787
211,0.1864,557.814,225.681,0.0866801,356.036,0.280999,0.0983535,0.110625,-0.0136654,-0.0953557,0.211109,-0.000779956,-0.000441294,0.174184,0.11697596232139729,0.2350469678443594,-0.000779651913382251,-0.013572452292330284,-0.00044119664412411996,-0.09095047196331518
212,0.1874,558.086,225.132,0.0330613,356.418,0.109236,0.148329,0.111164,-0.0137342,-0.0958259,0.212161,-0.000781565,-0.000439867,0.175059,0.1175781746467306,0.23634692090995557,-0.0007812596576288744,-0.013640316173068268,-0.00043977027269404,-0.0913778065771571
213,0.1884,558.558,225.331,-0.0391196,356.736,0.126174,0.126891,0.111702,-0.0137995,-0.0962969,0.213211,-0.000780706,-0.000439402,0.175933,0.11817959347184814,0.23764576695175155,-0.0007804013283622124,-0.013704723357504722,-0.0004393054770791549,-0.09180566686125269
214,0.1894,559.404,226.314,0.123468,357.016,0.293814,0.109023,0.112239,-0.0138612,-0.096768,0.214259,-0.000777127,-0.000438942,0.176805,0.11878021716657106,0.2389434996086539,-0.0007768251150189753,-0.01376557589875338,-0.0004388456790539452,-0.09223341644726823
215,0.1904,559.546,225.649,-0.0724015,357.386,0.115414,0.130613,0.112776,-0.01393,-0.0972374,0.215309,-0.000778798,-0.000437951,0.177678,0.11938116348283412,0.2402450734899484,-0.0007784948155491467,-0.01383342649304431,-0.0004378551134591735,-0.09265942209024147
216,0.1914,560.055,225.887,-0.0935665,357.702,0.135223,0.120553,0.113312,-0.013995,-0.097707,0.216357,-0.000777859,-0.000437373,0.17855,0.11998131261205924,0.24154553164801595,-0.0007775565461153322,-0.013897525237090536,-0.0004372773663724461,-0.09308540919602715
217,0.1924,560.944,226.915,0.124681,357.979,0.306082,0.113126,0.113848,-0.0140565,-0.0981767,0.217402,-0.000774183,-0.000436768,0.17942,0.1205817835074432,0.24284362486416433,-0.0007738833976619341,-0.013958168674483629,-0.00043667263074231855,-0.0935112869541066
218,0.1934,561.055,226.223,-0.0976919,358.344,0.12542,0.129397,0.114384,-0.0141252,-0.0986449,0.21845,-0.000775838,-0.000435853,0.180291,0.12118257634149887,0.24414680773157027,-0.0007755371155164781,-0.014025907421443162,-0.00043575802987938506,-0.09393560562880154
219,0.1944,561.572,226.474,-0.103129,358.656,0.146438,0.12242,0.114919,-0.01419,-0.0991132,0.219495,-0.000774831,-0.000435232,0.181161,0.12178256950370137,0.24544762070205017,-0.000774530895975678,-0.014089796472614546,-0.0004351373002923209,-0.09435981624801648
220,0.1954,562.458,227.498,0.120633,358.929,0.316018,0.116382,0.115453,-0.0142514,-0.0995817,0.220537,-0.000771129,-0.000434598,0.182029,0.12238176136580514,0.24674605348882106,-0.000770831756441992,-0.014150329500728143,-0.0004345035759685256,-0.09478400929912312
221,0.1964,562.568,226.817,-0.0974952,359.288,0.137524,0.132397,0.115987,-0.0143199,-0.100049,0.221582,-0.000772701,-0.000433678,0.182897,0.12298127328180986,0.24804958409083233,-0.0007724025434597825,-0.014217857890283625,-0.0004335839752888093,-0.09520691791128466
222,0.1974,563.082,227.07,-0.100158,359.596,0.158827,0.125623,0.116521,-0.0143846,-0.100516,0.222625,-0.000771633,-0.000433045,0.183765,0.12358110542267009,0.2493519788878582,-0.0007713353678158175,-0.014281635931636227,-0.00043295124954723097,-0.09562935763326752
223,0.1984,563.95,228.068,0.11673,359.865,0.32349,0.119634,0.117054,-0.0144459,-0.100983,0.223665,-0.000767963,-0.0004324,0.184631,0.12418013377873582,0.25065198082973805,-0.0007676681918873385,-0.014342058615379516,-0.0004323065285928296,-0.09605160012195779
224,0.1994,564.07,227.416,-0.0916192,360.219,0.150865,0.135368,0.117587,-0.0145141,-0.101449,0.224707,-0.000769399,-0.000431475,0.185497,0.12477948150201912,0.2519558393860968,-0.0007691030884856564,-0.014409278194768227,-0.0004313819280487019,-0.09647274194263566
225,0.2004,564.577,227.667,-0.0949437,360.522,0.171791,0.128203,0.118119,-0.0145787,-0.101915,0.225747,-0.000768278,-0.000430839,0.186362,0.1253780233842019,0.2532585507515508,-0.000767982950022339,-0.014472945298927176,-0.00043074620220551196,-0.09689368755694461
226,0.2014,565.423,228.626,0.11355,360.789,0.328773,0.122922,0.118651,-0.01464,-0.102381,0.226785,-0.000764685,-0.000430177,0.187226,0.12597688377538208,0.25456010851884914,-0.0007643927029351572,-0.014533356255765684,-0.00043008448714043634,-0.09731443705629572
227,0.2024,565.554,228.015,-0.0853005,361.136,0.164808,0.13743,0.119182,-0.0147079,-0.102846,0.227825,-0.000765948,-0.000429261,0.188091,0.12657493626955185,0.2558655297330781,-0.0007656547367101973,-0.01460026716922469,-0.0004291688806784544,-0.09773408826659657
228,0.2034,566.589,229.451,0.207383,361.37,0.425192,0.113057,0.119713,-0.0147668,-0.103311,0.22886,-0.000760593,-0.00042886,0.188953,0.12717330641392444,0.2571660234457547,-0.0007603038224642811,-0.01465830550424263,-0.0004287680526948723,-0.09815354438444712
229,0.2044,566.936,229.437,0.0643919,361.666,0.390637,0.0861661,0.120243,-0.0148313,-0.103776,0.229897,-0.000759159,-0.000428647,0.189815,0.12777086660578685,0.2584703808044697,-0.0007588709117125614,-0.014721857993947762,-0.0004285551439997537,-0.09857280550054426
230,0.2054,567.243,228.902,0.117488,362.033,0.208634,0.163134,0.120774,-0.0148992,-0.104239,0.230934,-0.000760441,-0.000426847,0.190677,0.1283698719578008,0.2597760914833409,-0.000760151938018927,-0.014788756108573331,-0.00042675591377971944,-0.09899006968748425
231,0.2064,567.852,229.777,0.00329733,362.26,0.392865,0.0776697,0.121303,-0.0149596,-0.104705,0.231967,-0.000756223,-0.000427373,0.191538,0.12896693752998667,0.2610781125639503,-0.000755937135450746,-0.014848261070636415,-0.0004272816891678355,-0.09940984250034812
232,0.2074,568.243,229.771,-0.0649023,362.561,0.35221,0.0718968,0.121832,-0.0150242,-0.105168,0.233001,-0.000755051,-0.000426958,0.192399,0.1295643190334166,0.2623827417093718,-0.0007547660207228857,-0.014911899817417584,-0.00042686686640369675,-0.09982671922886066
233,0.2084,568.736,229.556,0.142682,362.915,0.226245,0.162836,0.122361,-0.0150908,-0.105629,0.234035,-0.000755539,-0.00042498,0.193258,0.1301620166352626,0.2636887205389964,-0.0007552536522780207,-0.0149775045002295,-0.0004248897087909542,-0.10024160347313027
234,0.2094,569.174,230.093,-0.0794895,363.153,0.345807,0.0764203,0.122889,-0.0151525,-0.106094,0.235067,-0.000752371,-0.000425537,0.194117,0.13075889974331978,0.26499352045954794,-0.0007520880399073393,-0.015038278513304304,-0.0004254464719722906,-0.10065989386746144
235,0.2104,569.647,229.663,0.199212,363.53,0.156861,0.201256,0.123417,-0.0152203,-0.106553,0.2361,-0.00075398,-0.000422995,0.194975,0.1313560980888735,0.26630093392897924,-0.0007536958285041528,-0.015105056654216575,-0.0004229055502277257,-0.101072596253733
236,0.2114,570.023,229.801,0.0732509,363.812,0.169197,0.167248,0.123944,-0.0152846,-0.107015,0.237131,-0.00075299,-0.000422555,0.195833,0.13195247988536685,0.2676071634374657,-0.0007527065741733674,-0.015168383363098226,-0.00042246573620940975,-0.10148780479370567
237,0.2124,570.686,230.627,0.0853628,364.052,0.325723,0.121258,0.124471,-0.0153456,-0.107477,0.23816,-0.000749442,-0.000422421,0.196689,0.13254917605789807,0.2689122025361066,-0.0007491612384868951,-0.015228456259471002,-0.000422331792810815,-0.10190282155163799
238,0.2134,570.898,230.086,0.0144313,364.393,0.162599,0.163069,0.124998,-0.015413,-0.107937,0.23919,-0.000750712,-0.000421076,0.197546,0.13314618677218637,0.2702198554303519,-0.0007504302862462175,-0.015294827624779073,-0.0004209873599430036,-0.10231585124961062
239,0.2144,571.734,231.357,0.0974445,364.6,0.417199,0.0960103,0.125523,-0.0154717,-0.108399,0.240216,-0.000745498,-0.00042129,0.198401,0.13374124470928273,0.2715237697957096,-0.000745220185407014,-0.015352628121936274,-0.0004212012698288081,-0.10273048553843744
240,0.2154,572.086,231.345,-0.00588399,364.886,0.381025,0.0799756,0.126049,-0.0155357,-0.10886,0.241244,-0.000744156,-0.000420976,0.199255,0.13433774947099875,0.27283156832433164,-0.0007438791845927328,-0.01541564353722169,-0.00042088740203671815,-0.10314403145494655
241,0.2164,572.454,230.909,0.129181,365.239,0.21375,0.16951,0.126574,-0.0156028,-0.109318,0.242271,-0.000745239,-0.000419009,0.20011,0.13493343314275275,0.27413943782103334,-0.0007449613783855336,-0.015481706931088635,-0.000418921227988478,-0.10355469743885137
242,0.2174,572.974,231.659,-0.0411586,365.455,0.379113,0.0788305,0.127098,-0.0156632,-0.109779,0.243296,-0.000741349,-0.000419607,0.200963,0.13552829410167955,0.2754461002949167,-0.0007410742687248284,-0.01554117004018607,-0.00041951897729486376,-0.1039678634812421
243,0.2184,573.364,231.662,-0.0834287,365.744,0.34018,0.0792555,0.127623,-0.0157274,-0.110239,0.244321,-0.000740234,-0.000419094,0.201816,0.1361246029734653,0.27675410278447643,-0.0007399600944015816,-0.0156043702683204,-0.00041900619237655867,-0.10437994347837498
244,0.2194,573.868,231.53,0.134971,366.078,0.235087,0.165639,0.128147,-0.0157931,-0.110696,0.245346,-0.00074043,-0.000417175,0.202668,0.13672008826894544,0.2780634466639331,-0.0007401559493501741,-0.015669042936673372,-0.0004170879946089334,-0.10478914833377406
245,0.2204,574.261,231.965,-0.0824919,366.311,0.331843,0.0881104,0.12867,-0.0158548,-0.111155,0.246369,-0.000737636,-0.000417587,0.203519,0.13731474836517044,0.27937157456320794,-0.0007373640134455961,-0.015729774283142928,-0.0004174998226837978,-0.10519995582715669
246,0.2214,574.755,231.681,0.19539,366.662,0.180638,0.2003,0.129193,-0.0159214,-0.111611,0.247392,-0.000738667,-0.00041522,0.204369,0.13790971954996856,0.2806810413620542,-0.0007383942526921761,-0.015795324497329233,-0.00041513380810576095,-0.10560789163086759
247,0.2224,575.185,232.5,-0.137,366.846,0.388237,0.059384,0.129715,-0.0159809,-0.112071,0.248412,-0.000734215,-0.000416522,0.205219,0.13850386348164845,0.28198800246109035,-0.0007339455301205167,-0.01585388293339096,-0.0004164352667542781,-0.10601921738854003
248,0.2234,575.606,232.542,-0.134864,367.131,0.353953,0.0690586,0.130237,-0.0160446,-0.112528,0.249433,-0.000732987,-0.000415936,0.206069,0.1390983176374223,0.2832975806374991,-0.0007327184306522572,-0.015916571044410577,-0.00041584951061368614,-0.10642767326691649
249,0.2244,576.116,232.342,0.138289,367.471,0.225209,0.175046,0.130759,-0.0161106,-0.112983,0.250454,-0.000733533,-0.000413746,0.206917,0.13969308217926923,0.28460849657603715,-0.0007332640304389404,-0.015981518407435114,-0.0004136604189270976,-0.10683415619370151
250,0.2254,576.51,232.866,-0.106596,367.687,0.348793,0.0825199,0.13128,-0.0161716,-0.113441,0.251472,-0.000730331,-0.000414366,0.207765,0.14028701698166568,0.2859168938867891,-0.0007300643732277567,-0.016041541704083007,-0.00041428016226552344,-0.10724313248744444
251,0.2264,576.985,232.448,0.215404,368.049,0.159023,0.217334,0.131801,-0.0162388,-0.113894,0.252492,-0.000731953,-0.000411665,0.208612,0.14088126130471745,0.2872291982800175,-0.0007316851877489094,-0.01610766149083087,-0.000411580277590029,-0.10764745976138579
252,0.2274,577.332,232.587,0.08466,368.31,0.175644,0.180865,0.132322,-0.0163023,-0.11435,0.25351,-0.000730892,-0.000411224,0.209459,0.14147581530972664,0.2885402648235129,-0.0007306249635044004,-0.016170136670718205,-0.0004111394589997319,-0.10805427975772608
253,0.2284,577.939,233.349,0.0768644,368.532,0.323179,0.133933,0.132841,-0.0163628,-0.114806,0.254525,-0.000727494,-0.000411069,0.210304,0.1420683950190056,0.28984879716012935,-0.0007272294403990465,-0.0162296565769543,-0.0004109845227143749,-0.10846091428643789
254,0.2294,578.155,232.874,0.026743,368.852,0.175802,0.174603,0.133361,-0.0164292,-0.11526,0.255542,-0.00072852,-0.000409716,0.21115,0.14266242501882997,0.29116124065123605,-0.0007282546937357193,-0.01629497675910352,-0.00040963207786148814,-0.10886558116501965
255,0.2304,578.904,234.003,0.0752486,369.046,0.404349,0.109321,0.13388,-0.0164878,-0.115716,0.256556,-0.000723727,-0.00040987,0.211994,0.1432556207383886,0.2924711421570836,-0.0007234651727823227,-0.01635262018449657,-0.00040978601476626686,-0.10927184582462623
256,0.2314,579.233,233.98,-0.0180867,369.315,0.368197,0.0959499,0.134398,-0.0165513,-0.11617,0.25757,-0.000722479,-0.000409475,0.212838,0.14384798055787895,0.2937823725767035,-0.000722218074888703,-0.016415079810000788,-0.0004093911765538083,-0.10967614462385011
257,0.2324,579.612,233.661,0.124153,369.641,0.230562,0.176789,0.134917,-0.0166171,-0.116622,0.258585,-0.000723129,-0.000407607,0.213681,0.14444179174046123,0.2950962283538785,-0.0007228676052358773,-0.0164797975685117,-0.0004075239395524566,-0.11007848007181897
258,0.2334,580.063,234.255,-0.0458579,369.85,0.361297,0.097837,0.135434,-0.0166776,-0.117077,0.259597,-0.000719791,-0.000408001,0.214523,0.14503362112150353,0.29640752914325863,-0.0007195320126007765,-0.016539298740830155,-0.00040791777891047154,-0.11048330225935465
259,0.2344,580.41,233.712,0.153697,370.199,0.160277,0.209438,0.135952,-0.0167447,-0.117527,0.26061,-0.000721563,-0.000405639,0.215365,0.14562690218377372,0.29772145536155104,-0.0007213027360212232,-0.016605286739962533,-0.00040555673962383576,-0.1108834947232803
260,0.2354,580.769,233.873,0.0496717,370.453,0.180152,0.1784,0.136469,-0.0168078,-0.11798,0.261621,-0.000720446,-0.00040515,0.216206,0.14621934442532614,0.29903411519065703,-0.0007201865410929598,-0.016667336988663295,-0.00040506793782157935,-0.11128617328658996
261,0.2364,581.396,234.661,0.0783903,370.667,0.330086,0.138484,0.136985,-0.0168679,-0.118433,0.26263,-0.000716997,-0.000404896,0.217046,0.14681094622718782,0.30034550209632016,-0.0007167400190728479,-0.01672643350584213,-0.0004048140406766043,-0.11168866947782086
262,0.2374,581.585,234.172,0.0105403,370.977,0.183096,0.174993,0.137501,-0.0169339,-0.118884,0.263641,-0.000717994,-0.000403605,0.217886,0.14740285337435188,0.30166081617817375,-0.000717736303986416,-0.016791327419708013,-0.00040352356245854093,-0.11208920755975971
263,0.2384,582.342,235.305,0.0865886,371.165,0.410135,0.116435,0.138017,-0.0169922,-0.119336,0.264648,-0.000713208,-0.000403652,0.218725,0.1479950660244167,0.30297224881557683,-0.0007129537276276965,-0.01684864681444287,-0.00040357054349182686,-0.11249045254974366
264,0.2394,582.652,235.269,-0.0113965,371.426,0.372507,0.102356,0.138532,-0.0170554,-0.119788,0.265656,-0.000711976,-0.000403249,0.219563,0.14858643574805264,0.3042863070164521,-0.0007117226052282266,-0.016910780016534344,-0.00040316770604964525,-0.11289151621797389
265,0.2404,583.016,234.962,0.12054,371.741,0.240398,0.178961,0.139047,-0.0171208,-0.120237,0.266664,-0.000712523,-0.000401436,0.220401,0.14917811010553272,0.3056016904558021,-0.0007122692157665034,-0.016975071949152154,-0.0004013554353498039,-0.11328973851959512
266,0.2414,583.451,235.523,-0.0413168,371.945,0.363116,0.104365,0.139561,-0.0171811,-0.120689,0.26767,-0.000709292,-0.000401757,0.221238,0.1497689394842694,0.3069157866359531,-0.000709040511892356,-0.017034346565166003,-0.00040167630646326113,-0.11369044099220338
267,0.2424,583.791,235.021,0.146413,372.281,0.174745,0.209025,0.140075,-0.0172476,-0.121136,0.268676,-0.000710848,-0.000399495,0.222075,0.1503600726273675,0.30823120546204086,-0.0007105954074156928,-0.017099711607707624,-0.0003994152124977557,-0.11408653283195846
268,0.2434,584.14,235.179,0.0457687,372.526,0.194383,0.178716,0.140589,-0.0173104,-0.121586,0.269681,-0.000709677,-0.000399006,0.222911,0.15095150969100213,0.309546638718023,-0.0007094252388377686,-0.0171614358076585,-0.000398926407692235,-0.11448510420689884
269,0.2444,584.741,235.909,0.076976,372.737,0.331104,0.14378,0.141102,-0.0173704,-0.122036,0.270684,-0.000706402,-0.000398679,0.223745,0.15154209928875328,0.31086077292479253,-0.0007061525568463622,-0.017220404352435992,-0.0003985995380877405,-0.11488349626506977
270,0.2454,584.937,235.479,0.0104403,373.034,0.199229,0.175288,0.141615,-0.0174358,-0.122483,0.271688,-0.000707144,-0.000397458,0.22458,0.15213299193669383,0.3121775380462901,-0.0007068940326060424,-0.017284676036284474,-0.00039737902403269576,-0.11527905492829171
271,0.2464,585.65,236.505,0.0828898,373.221,0.4019,0.12421,0.142127,-0.0174943,-0.122933,0.272689,-0.000702719,-0.000397392,0.225413,0.15272303506671703,0.3134916853828851,-0.0007024721508287479,-0.017342163201220284,-0.0003973130502574751,-0.11567708978901348
272,0.2474,585.951,236.472,-0.0120131,373.475,0.366251,0.110352,0.142638,-0.0175571,-0.123381,0.273691,-0.000701506,-0.000396962,0.226247,0.15331222706337044,0.31480846364737824,-0.0007012600021922832,-0.017403872175689172,-0.00039688322100972506,-0.11607317772246617
273,0.2484,586.323,236.239,0.116022,373.775,0.253851,0.179384,0.14315,-0.0176218,-0.123828,0.274692,-0.000701753,-0.00039525,0.227079,0.1539028741163695,0.3161252458590347,-0.0007015068289506488,-0.017467444088585915,-0.0003951718990088393,-0.11646820471691344
274,0.2494,586.727,236.713,-0.0393027,373.979,0.355616,0.113137,0.143661,-0.0176822,-0.124276,0.275692,-0.000698836,-0.000395443,0.227911,0.15449266916484405,0.3174420293869258,-0.0006985918709945249,-0.017526787262781007,-0.0003953648227220663,-0.11686393831025665
275,0.2504,587.087,236.335,0.140947,374.296,0.199718,0.205232,0.144172,-0.0177477,-0.124721,0.276692,-0.000699876,-0.000393358,0.228742,0.15508276567560508,0.31876013035695605,-0.0006996311439185776,-0.01759113715073346,-0.0003932806448849746,-0.11725684642916834
276,0.2514,587.568,237.204,-0.0743569,374.456,0.407658,0.0894862,0.144681,-0.0178059,-0.12517,0.277689,-0.000695381,-0.00039424,0.229572,0.15567085245872336,0.32007558985451645,-0.0006951392786651578,-0.017648311682756268,-0.00039416229762267996,-0.11765310913748628
277,0.2524,587.917,237.193,-0.0931093,374.712,0.367487,0.0956207,0.145191,-0.0178687,-0.125616,0.278687,-0.000694228,-0.000393619,0.230402,0.1562603949140251,0.32139368291222503,-0.0006939870794965275,-0.017710001431704203,-0.0003935415422047228,-0.1180465481073989
278,0.2534,588.347,237.0,0.119026,375.014,0.252864,0.183484,0.145701,-0.0179331,-0.12606,0.279684,-0.000694511,-0.000391663,0.231231,0.1568502381126622,0.32271176937100576,-0.0006942698830580962,-0.01777325887070058,-0.00039158631005975497,-0.11843804852051598
279,0.2544,588.712,237.445,-0.0747882,375.211,0.354525,0.108986,0.14621,-0.0179933,-0.126507,0.28068,-0.00069161,-0.000391979,0.23206,0.157439224768249,0.3240298465867899,-0.0006913708929300322,-0.01783238714073787,-0.0003919021862686112,-0.11883201865394255
280,0.2554,589.118,237.108,0.170634,375.527,0.199382,0.215315,0.146719,-0.0180586,-0.12695,0.281676,-0.000692644,-0.000389685,0.232888,0.15802851129435425,0.3253492372614748,-0.0006924041775183687,-0.01789652059187752,-0.0003896090826619458,-0.11922228961827774
281,0.2564,589.533,237.921,-0.113997,375.679,0.405183,0.0852021,0.147226,-0.0181167,-0.127397,0.282669,-0.0006882,-0.000390767,0.233715,0.1586157806097721,0.32666596270005943,-0.0006879632446947781,-0.017953579146464116,-0.00039069066051977686,-0.11961590927427124
282,0.2574,589.892,237.919,-0.111205,375.932,0.364893,0.0965497,0.147734,-0.0181793,-0.127842,0.283663,-0.000687068,-0.000390081,0.234542,0.15920450695015176,0.32798532428105776,-0.0006868320228289315,-0.0180150533282476,-0.00039000492829843747,-0.12000759303854303
283,0.2584,590.331,237.747,0.116442,376.23,0.253931,0.18649,0.148242,-0.0182434,-0.128284,0.284657,-0.000687305,-0.000388093,0.235367,0.15979353243948946,0.3293059979594719,-0.0006870688600216779,-0.018077996545977526,-0.0003880177016528652,-0.12039646373566493
284,0.2594,590.682,238.17,-0.0801981,376.423,0.351319,0.112778,0.148748,-0.0183036,-0.128729,0.285648,-0.000684481,-0.00038839,0.236193,0.16038053646639816,0.3306239931622077,-0.0006842467963193988,-0.01813710647135891,-0.00038831458636756633,-0.12078780023047464
285,0.2604,591.095,237.864,0.172561,376.734,0.203325,0.218373,0.149255,-0.0183685,-0.12917,0.286641,-0.000685411,-0.0003861,0.237017,0.16096899856092217,0.3319459590348466,-0.0006851761595376704,-0.018200827305385525,-0.00038602547298693946,-0.12117544732810548
286,0.2614,591.486,238.628,-0.117919,376.884,0.398804,0.0903963,0.149761,-0.0184266,-0.129615,0.28763,-0.000681135,-0.000387141,0.237841,0.1615565975241946,0.3332639052052875,-0.0006809030802150673,-0.018257868180265535,-0.00038706607059280085,-0.12156643725233418
287,0.2624,591.841,238.629,-0.11084,377.133,0.359643,0.102426,0.150267,-0.0184889,-0.130058,0.28862,-0.00068002,-0.000386429,0.238665,0.1621444938877783,0.33458449005308166,-0.0006797888388008211,-0.018319028809904547,-0.0003863543459304841,-0.12195549713750409
288,0.2634,592.28,238.487,0.112604,377.423,0.257151,0.188594,0.150772,-0.0185527,-0.130498,0.28961,-0.000680142,-0.000384485,0.239487,0.16273152507008937,0.3359063829272413,-0.0006799107558591588,-0.018381658057972206,-0.00038441109511444527,-0.12234175173652029
289,0.2644,592.619,238.875,-0.0772411,377.616,0.345923,0.119177,0.151277,-0.0186129,-0.130941,0.290598,-0.000677459,-0.000384711,0.240309,0.16331885277801428,0.33722691066685817,-0.0006772295764628788,-0.018440749703480752,-0.00038463700821200764,-0.1227304682334398
290,0.2654,593.034,238.617,0.166964,377.917,0.211434,0.218389,0.151782,-0.0186773,-0.131381,0.291586,-0.000678187,-0.000382505,0.241131,0.16390647716133566,0.33854874373260646,-0.0006779570831749737,-0.018503960083803728,-0.0003824318542889893,-0.12311638192017993
291,0.2664,593.405,239.309,-0.112109,378.071,0.388331,0.0990403,0.152285,-0.0187356,-0.131824,0.292572,-0.000674201,-0.000383412,0.241951,0.16449206938344507,0.339869203673699,-0.0006739737775731669,-0.01856117963496473,-0.0003833385070121098,-0.12350475533192706
292,0.2674,593.756,239.316,-0.10514,378.315,0.351819,0.110255,0.152789,-0.0187977,-0.132265,0.293558,-0.000673095,-0.000382686,0.242772,0.16507912131107316,0.34119096623037737,-0.0006728685223770237,-0.018622125093333386,-0.00038261278505247187,-0.12389120451651747
293,0.2684,594.195,239.219,0.107948,378.596,0.262315,0.189823,0.153293,-0.0188611,-0.132704,0.294544,-0.000673035,-0.000380824,0.243591,0.16566646918744588,0.3425140326876539,-0.0006728085627473179,-0.018684342478290428,-0.000380751495744569,-0.1242757318678055
294,0.2694,594.521,239.56,-0.0715604,378.79,0.338644,0.126738,0.153795,-0.0189213,-0.133145,0.295528,-0.000670549,-0.000380949,0.24441,0.16625178065586477,0.34383571665768775,-0.0006703242322613212,-0.01874341590274542,-0.0003808764481428861,-0.12466184112670264
295,0.2704,594.941,239.369,0.158747,379.079,0.223344,0.216492,0.154298,-0.0189851,-0.133583,0.296512,-0.000670987,-0.000378872,0.245228,0.16683855286237304,0.34515870180482233,-0.0006707619385635244,-0.018806018075780195,-0.00037880023706704513,-0.1250451552883597
296,0.2714,595.289,239.963,-0.102956,379.239,0.374408,0.109467,0.1548,-0.0190438,-0.134024,0.297494,-0.000667398,-0.000379595,0.246046,0.16742445286450658,0.34648029644675993,-0.0006671753394918989,-0.018863612472107105,-0.00037952296293319865,-0.12543092530633648
297,0.2724,595.663,239.468,0.203857,379.563,0.173465,0.244429,0.155302,-0.0191093,-0.13446,0.298478,-0.000669144,-0.000376873,0.246862,0.16801064706227775,0.3478058851411423,-0.0006689201730805117,-0.018927874800875988,-0.0003768019922915089,-0.12581215430894122
298,0.2734,595.962,239.638,0.0780419,379.776,0.204036,0.204563,0.155803,-0.0191706,-0.134899,0.299459,-0.000667816,-0.000376445,0.247679,0.16859596700685908,0.3491287314644993,-0.0006675930605253289,-0.01898801267890582,-0.00037637415347124836,-0.12619583854834704
299,0.2744,596.478,240.294,0.0648533,379.96,0.33361,0.162426,0.156304,-0.0192296,-0.135338,0.300439,-0.000664663,-0.000376166,0.248494,0.16918158027020302,0.3504515256846348,-0.0006644421604788953,-0.019045890678739963,-0.000376095258440734,-0.12657935438733836
300,0.2754,596.678,239.94,0.031763,380.227,0.218864,0.194842,0.156805,-0.0192934,-0.135775,0.30142,-0.000665134,-0.000374899,0.249309,0.16976748699929867,0.351776968654812,-0.0006649128474157662,-0.01910847355449974,-0.000374828734151067,-0.12696095582348443
301,0.2764,597.275,240.8,0.0504319,380.394,0.393621,0.141488,0.157304,-0.0193513,-0.136214,0.302398,-0.00066115,-0.000374824,0.250123,0.17035134663617568,0.3530996532174804,-0.0006609314884976625,-0.019165265529737407,-0.0003747537622603714,-0.12734413584970827
302,0.2774,597.349,240.004,0.0297274,380.7,0.168792,0.211893,0.157804,-0.0194172,-0.136649,0.303378,-0.000663248,-0.00037305,0.250938,0.17093666862779733,0.3544263408483934,-0.0006630280996641202,-0.019229900408996303,-0.00037298042550060195,-0.12772365859843116
303,0.2784,597.726,240.255,-0.00248984,380.914,0.206756,0.192036,0.158304,-0.0194782,-0.137086,0.304356,-0.000661812,-0.000372419,0.251751,0.17152228335359232,0.35575161776452124,-0.0006615930507420931,-0.019289725560385662,-0.00037234966065224917,-0.12810476008288452
304,0.2794,598.309,240.993,0.0594126,381.094,0.345752,0.162784,0.158802,-0.0195367,-0.137523,0.305332,-0.000658489,-0.000371977,0.252563,0.17210584674592666,0.3570754772818141,-0.0006582722436982991,-0.01934709543335522,-0.00037190782513318865,-0.12848569506237295
305,0.2804,598.479,240.601,0.00479778,381.359,0.225113,0.192245,0.159301,-0.0196004,-0.137958,0.306309,-0.000659017,-0.000370765,0.253375,0.17269087351549262,0.3584019879180482,-0.0006587998959912689,-0.01940956103382563,-0.00037069627515129433,-0.1288647213408285
306,0.2814,599.118,241.523,0.0682457,381.521,0.408647,0.145842,0.159799,-0.0196579,-0.138395,0.307283,-0.000654862,-0.000370586,0.254186,0.17327501901065911,0.35972571600520964,-0.0006546476246784838,-0.019465943363058735,-0.00037051734148985105,-0.1292453242898013
307,0.2824,599.139,240.657,0.00528788,381.824,0.173051,0.210221,0.160297,-0.0197238,-0.138829,0.308259,-0.000657088,-0.000368905,0.254997,0.1738594554827293,0.36105345613581674,-0.000656872164956912,-0.019530558428301314,-0.00036883696291711843,-0.1296231498249879
308,0.2834,599.526,240.928,-0.0112547,382.034,0.213908,0.192973,0.160794,-0.0197845,-0.139264,0.309233,-0.000655588,-0.000368242,0.255807,0.17444300863305018,0.3623797680111229,-0.000655373149140881,-0.019590071117176366,-0.0003681742072363381,-0.13000168141822355
309,0.2844,600.111,241.677,0.055449,382.21,0.355196,0.163777,0.161291,-0.0198429,-0.139699,0.310205,-0.000652202,-0.000367799,0.256616,0.17502685188137024,0.3637046449315029,-0.0006519893625056561,-0.019647325385182213,-0.000367731370239488,-0.13038004838602468
310,0.2854,600.277,241.283,0.00448183,382.471,0.233753,0.194026,0.161788,-0.0199064,-0.140133,0.311179,-0.00065271,-0.000366576,0.257425,0.17561098537190367,0.3650335403226641,-0.0006524970311660994,-0.019709575803548485,-0.00036650881922728473,-0.13075738155780414
311,0.2864,600.91,242.202,0.0653668,382.629,0.417462,0.146859,0.162283,-0.0199636,-0.140568,0.312149,-0.000648523,-0.000366406,0.258233,0.17619305686047104,0.3663582652444948,-0.0006483127544113509,-0.019765646812166415,-0.0003663388815193791,-0.13113541986753297
312,0.2874,600.929,241.34,0.00765316,382.929,0.1822,0.211992,0.16278,-0.0200293,-0.141,0.313122,-0.000650713,-0.000364716,0.259041,0.1767777700989348,0.36768837883189964,-0.0006505013322100073,-0.01983004609363126,-0.00036464949920456124,-0.13151068830233215
313,0.2884,601.313,241.613,-0.00885819,383.134,0.223655,0.194345,0.163275,-0.0200898,-0.141433,0.314092,-0.000649168,-0.000364058,0.259847,0.17736041928891133,0.36901568019645703,-0.0006489573360417555,-0.019889344582045276,-0.0003639917389275382,-0.13188666276995076
314,0.2894,601.885,242.343,0.0535268,383.307,0.361419,0.165222,0.16377,-0.020148,-0.141867,0.315061,-0.000645808,-0.000363613,0.260653,0.17794335696163044,0.37034289932438424,-0.0006455995108972656,-0.019946385362287766,-0.0003635469008048675,-0.13226334221295688
315,0.2904,602.054,241.967,0.00681025,383.564,0.244014,0.194833,0.164264,-0.0202112,-0.142299,0.31603,-0.000646227,-0.0003624,0.261459,0.1785254047339324,0.3716714051509513,-0.0006460182403034143,-0.02000832279348952,-0.0003623343410518176,-0.13263812349053639
316,0.2914,602.668,242.853,0.0614711,383.72,0.420634,0.148526,0.164758,-0.0202684,-0.142732,0.316997,-0.000642126,-0.000362218,0.262264,0.1791077401088661,0.3729984529239214,-0.0006419198812205318,-0.020064376714268306,-0.00036215240698012074,-0.13301360988439404
317,0.2924,602.7,242.035,0.0116045,384.013,0.195091,0.211946,0.165253,-0.0203336,-0.143162,0.317966,-0.000644142,-0.000360554,0.263069,0.17969154291949518,0.37432953322905993,-0.0006439345850791645,-0.020128266434078945,-0.0003604890082178347,-0.1333863338907394
318,0.2934,603.076,242.3,-0.00675308,384.215,0.235281,0.194061,0.165746,-0.0203939,-0.143594,0.318932,-0.00064257,-0.000359905,0.263872,0.18027327423514117,0.37565777699661074,-0.0006423635961095853,-0.0201873509181979,-0.0003598402419646707,-0.1337606301406875
319,0.2944,603.631,242.994,0.0529016,384.387,0.364828,0.166972,0.166239,-0.0204521,-0.144026,0.319897,-0.000639308,-0.000359433,0.264675,0.18085529241503218,0.37698592748095394,-0.000639103686182696,-0.02024437435497639,-0.00035936841169792455,-0.13413476472957697
320,0.2954,603.806,242.65,0.00796509,384.637,0.255321,0.194181,0.166732,-0.0205149,-0.144456,0.320863,-0.000639585,-0.000358257,0.265478,0.18143759760062705,0.37831673856516623,-0.0006393805091126081,-0.020305901076307586,-0.00035819283362392706,-0.13450700674297478
321,0.2964,604.397,243.48,0.0592964,384.793,0.419206,0.151285,0.167223,-0.0205722,-0.144887,0.321826,-0.000635661,-0.000358028,0.26628,0.18201782589543858,0.37964469689371416,-0.0006354590103477831,-0.020362035939896717,-0.0003579639156238157,-0.1348799538471943
322,0.2974,604.448,242.732,0.0134989,385.077,0.210569,0.209846,0.167716,-0.0206369,-0.145316,0.322792,-0.000637403,-0.000356435,0.267081,0.18260070435133868,0.38097807759010216,-0.0006371999018618402,-0.020425416465789326,-0.00035637148459199963,-0.13525101074959756
323,0.2984,605.165,244.007,0.0540822,385.191,0.485256,0.127921,0.168207,-0.0206918,-0.145748,0.323752,-0.000631784,-0.000356746,0.267881,0.18318150387178922,0.3823044531029691,-0.00063158446651157,-0.020479193634228565,-0.00035668237371211386,-0.13562450163311435
324,0.2994,605.379,243.855,-0.0317746,385.412,0.423314,0.123439,0.168698,-0.020753,-0.146178,0.324715,-0.000630772,-0.000356198,0.268682,0.18376258863482553,0.383636253450252,-0.0006305731051633456,-0.020539138473247398,-0.000356134569023947,-0.13599610319735
325,0.3004,605.674,243.541,0.109298,385.679,0.293099,0.199901,0.169189,-0.0208158,-0.146605,0.325677,-0.000631155,-0.000354388,0.269481,0.18434395878053622,0.3849679519703584,-0.000630955863580529,-0.02060064668397321,-0.0003543252119900808,-0.13636495410601146
326,0.3014,606.015,243.981,-0.0467606,385.84,0.393035,0.133066,0.169679,-0.0208742,-0.147035,0.326637,-0.000628184,-0.00035455,0.27028,0.18492442952405663,0.38629815960175296,-0.0006279867337397604,-0.020657841936089216,-0.0003544871545761996,-0.13673623734412876
327,0.3024,606.309,243.592,0.132597,386.117,0.238686,0.223793,0.170169,-0.0209375,-0.147462,0.327598,-0.000629101,-0.00035249,0.271079,0.1855051847679381,0.3876310324759684,-0.0006289031574556736,-0.020719832332677934,-0.00035242788269873593,-0.1371047722829738
328,0.3034,606.719,244.374,-0.0757969,386.239,0.431129,0.114187,0.170658,-0.020994,-0.147892,0.328556,-0.000624789,-0.000353231,0.271876,0.18608503856598868,0.38896101996737076,-0.0006245938599952483,-0.020775160099127055,-0.00035316862127521276,-0.1374757374676615
329,0.3044,606.937,243.62,0.165416,386.556,0.178483,0.251368,0.171148,-0.0210592,-0.148317,0.329517,-0.000627218,-0.000350523,0.272673,0.1866663626476548,0.3902964530803952,-0.0006270213399086622,-0.020839003477371776,-0.0003504615739905459,-0.13784223239354942
330,0.3054,607.241,243.852,0.0651986,386.742,0.224359,0.21264,0.171637,-0.021119,-0.148745,0.330474,-0.000625631,-0.000350085,0.27347,0.1872467844005421,0.39162760363994154,-0.0006254353337330487,-0.020897555554239333,-0.00035002372739678655,-0.13821115696259545
331,0.3064,607.735,244.531,0.0516964,386.897,0.363022,0.167038,0.172125,-0.0211766,-0.149173,0.33143,-0.000622278,-0.000349854,0.274265,0.18782630222217733,0.392958635761002,-0.0006220844251998425,-0.02095395023085711,-0.00034979280822555747,-0.1385799236657117
332,0.3074,607.914,244.181,0.035051,387.144,0.249278,0.20207,0.172613,-0.021239,-0.149599,0.332388,-0.000622648,-0.000348568,0.275061,0.18840610291752502,0.3942937295418736,-0.0006224541949602092,-0.021015040798317175,-0.0003485072572325665,-0.13894681046579327
333,0.3084,608.458,244.997,0.0344197,387.286,0.41939,0.14592,0.173101,-0.0212958,-0.150027,0.333342,-0.000618664,-0.000348531,0.275855,0.18898618662466138,0.3956245204461868,-0.000618472666886527,-0.02107064556480953,-0.0003484702701266329,-0.13931526237658043
334,0.3094,608.533,244.259,0.0428615,387.568,0.206546,0.21805,0.173588,-0.0213601,-0.150451,0.334299,-0.000620488,-0.000346757,0.27665,0.18956536391577106,0.39696077240683314,-0.0006202955371299446,-0.021133588698656225,-0.0003466968867399389,-0.1396801153510362
335,0.3104,609.192,245.5,0.0181738,387.668,0.484616,0.121,0.174075,-0.0214145,-0.150879,0.335251,-0.00061485,-0.000347286,0.277443,0.19014482333491411,0.39829131229866355,-0.0006146610184725176,-0.02118683758304829,-0.00034722570319734025,-0.1400482534744878
336,0.3114,609.405,245.345,-0.0475939,387.883,0.420503,0.122277,0.174561,-0.0214753,-0.151305,0.336205,-0.000613901,-0.00034668,0.278236,0.19072337429555075,0.39962591871663733,-0.000613712601335803,-0.021246347614199967,-0.0003466199134326553,-0.14041451489928525
337,0.3124,609.702,245.051,0.104986,388.142,0.294842,0.199896,0.175048,-0.0215376,-0.151729,0.337158,-0.000614235,-0.000344869,0.279028,0.19130339780309313,0.40096039799555183,-0.0006140463963000276,-0.021307322067369627,-0.0003448095395219841,-0.14077890188946696
338,0.3134,610.023,245.46,-0.050166,388.297,0.388512,0.13551,0.175533,-0.0215956,-0.152155,0.33811,-0.000611382,-0.000345002,0.27982,0.19188132008585268,0.4022947473439562,-0.0006111951441071239,-0.021364084596560473,-0.0003449424936534662,-0.1411448521243278
339,0.3144,610.318,245.109,0.130797,388.564,0.244569,0.223427,0.176019,-0.0216583,-0.152577,0.339062,-0.000612155,-0.000342992,0.280611,0.1924607151890203,0.40363036759779525,-0.0006119676713546296,-0.021425443144845624,-0.0003429331849684747,-0.14150721253330745
340,0.3154,610.7,245.825,-0.0761244,388.684,0.422238,0.119196,0.176504,-0.0217146,-0.153004,0.340011,-0.000608087,-0.000343658,0.281401,0.19303919890684895,0.4049630450720896,-0.0006079021525698947,-0.02148053534153671,-0.00034359895635327486,-0.14187371070062837
341,0.3164,610.93,245.155,0.162009,388.985,0.191789,0.248542,0.176989,-0.0217789,-0.153425,0.340963,-0.000610189,-0.000341071,0.282191,0.19361796325732894,0.4063012067548941,-0.0006100028725517515,-0.021543452120318163,-0.0003410128418986913,-0.14223490583151355
342,0.3174,611.22,245.375,0.0620172,389.164,0.235448,0.210618,0.177473,-0.0218383,-0.153849,0.341912,-0.000608596,-0.000340642,0.282981,0.19419581418018828,0.40763642005860934,-0.0006084108430182145,-0.021601570713122964,-0.00034058398810121737,-0.14259852113954818
343,0.3184,611.685,245.983,0.0517881,389.318,0.357545,0.171352,0.177957,-0.0218957,-0.154272,0.34286,-0.000605494,-0.000340331,0.283769,0.19477394485058785,0.40897149210899064,-0.0006053107255004075,-0.02165772917120079,-0.0003402730939744414,-0.14296112526892613
344,0.3194,611.87,245.694,0.032829,389.551,0.260543,0.200368,0.178441,-0.0219574,-0.154695,0.343808,-0.000605617,-0.000339136,0.284557,0.195352355403958,0.4103078304077825,-0.0006054336510395997,-0.021718091027128517,-0.00033907849988701333,-0.14332357604919288
345,0.3204,612.374,246.404,0.0344875,389.695,0.405542,0.153192,0.178924,-0.0220141,-0.155118,0.344754,-0.000602029,-0.000338976,0.285344,0.19592985004534724,0.4116426128679087,-0.0006018478169025343,-0.021773558038862717,-0.00033891855412682137,-0.14368587354520157
346,0.3214,612.477,245.799,0.0405333,389.958,0.226772,0.213575,0.179407,-0.0220773,-0.155539,0.345702,-0.000603347,-0.000337371,0.286132,0.19650762368402042,0.41298148458983297,-0.0006031650227991125,-0.021835379996400173,-0.0003373140968034871,-0.14404630591610135
347,0.3224,613.069,246.847,0.0187938,390.067,0.458286,0.132726,0.179889,-0.0221322,-0.155962,0.346646,-0.000598433,-0.000337676,0.286918,0.19708447936968843,0.4143159688887741,-0.000598253974685603,-0.021889079759966346,-0.00033761899387618755,-0.1444082977620259
348,0.3234,613.282,246.719,-0.0423716,390.273,0.402523,0.132838,0.180371,-0.0221925,-0.156384,0.347591,-0.00059747,-0.000337056,0.287703,0.19766161316681607,0.4156531291881056,-0.0005972915503407172,-0.021948058070242915,-0.00033699920300789277,-0.14476928128748934
349,0.3244,613.589,246.525,0.0962705,390.514,0.304545,0.198347,0.180853,-0.0222538,-0.156804,0.348536,-0.000597424,-0.000335408,0.288489,0.1982390252094859,0.41699155370116703,-0.0005972455778151531,-0.022008010816712775,-0.0003353517570250375,-0.14512840276855843
350,0.3254,613.883,246.842,-0.042033,390.673,0.374402,0.145571,0.181334,-0.0223118,-0.157226,0.349479,-0.000594952,-0.000335377,0.289273,0.19881551681572818,0.4183284069635542,-0.000594775051152574,-0.022064732707134715,-0.00033532076742048833,-0.14548908247381975
351,0.3264,614.194,246.622,0.117534,390.918,0.266737,0.216866,0.181816,-0.0223733,-0.157645,0.350423,-0.000595183,-0.000333601,0.290057,0.199393485174018,0.41966794114038364,-0.00059500591373296,-0.022124873876713247,-0.0003335453613736439,-0.14584704754934275
352,0.3274,614.529,247.16,-0.0619893,391.049,0.39797,0.134011,0.182296,-0.0224302,-0.158067,0.351364,-0.000591828,-0.000333969,0.290841,0.19996933223914093,0.4210044774146906,-0.000591652904353035,-0.022180513388430523,-0.00033391323856124533,-0.14620742405048714
353,0.3284,614.797,246.718,0.141928,391.319,0.229592,0.23533,0.182777,-0.0224928,-0.158485,0.352307,-0.000592992,-0.000331776,0.291623,0.2005466563232594,0.4223451166489447,-0.0005928162149920757,-0.022241722972412448,-0.00033172096842915,-0.1465642347685986
354,0.3294,615.191,247.559,-0.0917254,391.415,0.443949,0.113171,0.183256,-0.0225479,-0.158907,0.353246,-0.000588384,-0.000332681,0.292405,0.201121855920944,0.42368132596557206,-0.000588210936078637,-0.022295595969262005,-0.00033262566781222525,-0.14692430868058726
355,0.3304,615.455,247.482,-0.085338,391.621,0.391897,0.12853,0.183736,-0.0226078,-0.159326,0.354186,-0.000587422,-0.000331889,0.293187,0.20169853280316552,0.42502021559151704,-0.0005872495014750401,-0.022354158709091854,-0.0003318339309382745,-0.14728167252229696
356,0.3314,615.793,247.345,0.0859888,391.858,0.303763,0.198068,0.184215,-0.0226686,-0.159743,0.355126,-0.00058726,-0.000330195,0.293968,0.20227428428184901,0.426360364365417,-0.0005870875965964251,-0.02241359776927665,-0.0003301404916306039,-0.14763718193599085
357,0.3324,616.073,247.628,-0.0498729,392.015,0.365882,0.148559,0.184694,-0.0227266,-0.160163,0.356064,-0.00058493,-0.00033012,0.294749,0.20285031161155187,0.42769891807073646,-0.0005847589617976601,-0.022470296136337442,-0.000330065516388367,-0.14799509915170106
358,0.3334,616.399,247.461,0.11766,392.252,0.270884,0.217693,0.185172,-0.0227876,-0.16058,0.357003,-0.000584989,-0.000328373,0.295528,0.20342541149842508,0.4290401569679172,-0.0005848179272951448,-0.022529923629616144,-0.00032831909148733907,-0.14835031112851027
359,0.3344,616.706,247.93,-0.064527,392.385,0.38636,0.13951,0.18565,-0.0228445,-0.160999,0.357939,-0.000581893,-0.000328673,0.296308,0.20400078634875518,0.4303783647383759,-0.0005817237331016134,-0.022585540094658185,-0.00032861899294656105,-0.14870707760035207
360,0.3354,616.995,247.575,0.14148,392.644,0.239539,0.234292,0.186128,-0.0229064,-0.161415,0.358877,-0.000582746,-0.000326568,0.297087,0.20457643629400613,0.43172068909620465,-0.0005825762365276876,-0.022646040177229376,-0.00032651468247479887,-0.1490611418056096
361,0.3364,617.348,248.299,-0.0912278,392.746,0.425792,0.121604,0.186605,-0.0229619,-0.161834,0.359812,-0.000578584,-0.000327339,0.297865,0.2051511563139461,0.4330599739586132,-0.0005784166525538703,-0.022700281816780188,-0.0003272854304348094,-0.14941761050178604
362,0.3374,617.572,247.624,0.173007,393.041,0.191535,0.258171,0.187083,-0.0230254,-0.162249,0.360748,-0.000580758,-0.000324662,0.298642,0.20572735626748195,0.43440194603919746,-0.0005805893927143257,-0.022762338378568114,-0.0003246093029959374,-0.1497705289577831
363,0.3384,617.844,247.852,0.0672574,393.206,0.240052,0.217411,0.18756,-0.0230839,-0.162666,0.361683,-0.000579101,-0.000324266,0.299419,0.2063026254072038,0.4357437390492238,-0.0005789333533788854,-0.022819505109629823,-0.00032421343146282755,-0.15012500073470558
364,0.3394,618.276,248.416,0.0484337,393.349,0.354906,0.178662,0.188036,-0.0231407,-0.163083,0.362616,-0.000576126,-0.000323941,0.300195,0.2068769621381954,0.4370839130517117,-0.0005759600712829105,-0.02287500738546,-0.0003238885367794486,-0.1504793247277123
365,0.3404,618.459,248.171,0.0354508,393.567,0.269216,0.205176,0.188512,-0.0232013,-0.163498,0.36355,-0.000576094,-0.000322781,0.300972,0.20745157231854683,0.43842677644608585,-0.0005759280897130736,-0.022934219365871256,-0.00032272891181750474,-0.15083180266371976
366,0.3414,618.918,248.798,0.027876,393.704,0.397497,0.161534,0.188987,-0.0232577,-0.163915,0.364481,-0.000572781,-0.000322568,0.301746,0.2080252480525986,0.4397665753545752,-0.0005726169922780633,-0.022989324321924687,-0.00032251598053611996,-0.15118583198176605
367,0.3424,619.039,248.293,0.0444034,393.948,0.243244,0.216099,0.189463,-0.0233195,-0.164329,0.365414,-0.000573742,-0.000321046,0.302521,0.20860040494715282,0.44111050441479804,-0.0005735774415316364,-0.02304970171600096,-0.000320994470247582,-0.1515371683156863
368,0.3434,619.561,249.183,0.010537,394.057,0.43989,0.14413,0.189937,-0.0233744,-0.164746,0.366344,-0.00056938,-0.000321221,0.303295,0.20917341733230455,0.44245136058538104,-0.0005692179339683578,-0.023103334815134713,-0.0003211694140582422,-0.15189090355757484
369,0.3444,619.594,248.328,0.0647618,394.337,0.193955,0.237382,0.190412,-0.023438,-0.165158,0.367276,-0.000571724,-0.000319178,0.304069,0.2097479111370142,0.4437963519220518,-0.0005715605969758286,-0.023165463467328284,-0.0003191270681210945,-0.15224025253447826
370,0.3454,619.921,248.612,0.0260009,394.501,0.246873,0.211066,0.190886,-0.0234961,-0.165573,0.368206,-0.000569983,-0.000318626,0.304842,0.2103214675690288,0.44513970709267126,-0.0005698205905482201,-0.02322221590522655,-0.0003185752441269285,-0.15259199983706284
371,0.3464,620.373,249.197,0.0388759,394.643,0.362231,0.178864,0.19136,-0.0235526,-0.165988,0.369134,-0.000566978,-0.00031822,0.305614,0.21089529593123468,0.4464814191989823,-0.0005668172983466224,-0.02327740229099784,-0.0003181693733860236,-0.15294360119480244
372,0.3474,620.555,248.958,0.0275299,394.857,0.2782,0.205014,0.191833,-0.0236129,-0.166401,0.370063,-0.000566898,-0.000317072,0.306386,0.2114681848837665,0.44782582481713784,-0.000566737343688839,-0.023336296887949803,-0.0003170217379857565,-0.15329336325667176
373,0.3484,621.013,249.579,0.0291008,394.992,0.403754,0.164189,0.192306,-0.0236691,-0.166815,0.370989,-0.000563603,-0.000316818,0.307157,0.21204134487686876,0.44916713246051265,-0.0005634442056628997,-0.023391183845726693,-0.00031676781847700397,-0.15364382725323045
374,0.3494,621.128,249.085,0.0402096,395.23,0.253361,0.216058,0.192779,-0.0237306,-0.167227,0.371918,-0.000564484,-0.000315337,0.307928,0.2126147760387742,0.45051403426558756,-0.0005643247088806813,-0.023451243441068748,-0.0003152872865138656,-0.15399245417432494
375,0.3504,621.643,249.951,0.0129086,395.337,0.443342,0.147552,0.193251,-0.0237853,-0.167641,0.372843,-0.000560203,-0.000315462,0.308698,0.21318726530990406,0.4518563804866984,-0.0005600461155964576,-0.023504659197118194,-0.00031541224709508153,-0.15434262880714622
376,0.3514,621.677,249.129,0.0609492,395.61,0.206508,0.236204,0.193724,-0.0238485,-0.168052,0.37377,-0.00056239,-0.000313487,0.309468,0.21376123862038243,0.45320287535535764,-0.0005622318883854449,-0.023566371752519744,-0.0003134378680845762,-0.15469012257184633
377,0.3524,621.999,249.408,0.0243027,395.772,0.258054,0.210599,0.194195,-0.0239063,-0.168464,0.374695,-0.000560629,-0.000312933,0.310237,0.2143330548159157,0.45454770990515114,-0.0005604718769260941,-0.02362280798520955,-0.0003128840415758116,-0.1550383185080585
378,0.3534,622.438,249.962,0.0382924,395.912,0.366168,0.180844,0.194666,-0.0239627,-0.168877,0.375618,-0.00055771,-0.000312497,0.311005,0.21490514040031305,0.45589087721775146,-0.0005575545086856648,-0.023677874105960006,-0.0003124481778982169,-0.15538721563029967
379,0.3544,622.622,249.748,0.0267182,396.12,0.288509,0.204656,0.195137,-0.0240226,-0.169288,0.376543,-0.000557515,-0.000311384,0.311773,0.21547749550048678,0.4572381993195831,-0.0005573596173897855,-0.023736354049809227,-0.0003113355250338179,-0.1557342801580296
380,0.3554,623.063,250.327,0.0288302,396.255,0.403921,0.167151,0.195608,-0.0240787,-0.1697,0.377465,-0.000554361,-0.000311086,0.31254,0.21605012024340842,0.4585823925171968,-0.0005542073703309613,-0.023791120904122387,-0.0003110376177674068,-0.15608204598992392
381,0.3564,623.188,249.883,0.0390989,396.485,0.266205,0.21452,0.196078,-0.0241397,-0.17011,0.378388,-0.000555036,-0.000309669,0.313307,0.2166217981337033,0.4599292855610084,-0.0005548819960132789,-0.02385066782954759,-0.00030962105750409474,-0.1564279814294569
382,0.3574,623.678,250.677,0.0133096,396.595,0.438716,0.151981,0.196548,-0.0241945,-0.170522,0.379308,-0.000551009,-0.000309714,0.314073,0.2171937447757586,0.4612730385353132,-0.0005508572224192099,-0.023904159347269527,-0.00030966604357018923,-0.1567754615152951
383,0.3584,623.732,249.944,0.0588327,396.856,0.224488,0.23251,0.197018,-0.0242569,-0.170931,0.380231,-0.000552841,-0.000307854,0.314839,0.21776596029591677,0.46262241619187217,-0.0005526882115715059,-0.023965065827424303,-0.00030780661781970586,-0.15712026983342764
384,0.3594,624.302,251.085,-0.0126722,396.926,0.489777,0.12935,0.197487,-0.0243099,-0.171343,0.381149,-0.000547415,-0.000308447,0.315604,0.218337226482745,0.46396572005207193,-0.0005472651957452168,-0.02401679430811865,-0.00030839943511462575,-0.15746746475519113
385,0.3604,624.482,250.905,-0.0557869,397.12,0.420666,0.137554,0.197956,-0.024369,-0.171753,0.382069,-0.00054662,-0.000307741,0.316368,0.21890876065625298,0.4653131882548516,-0.0005464706305051692,-0.02407447321114664,-0.00030769365259553094,-0.15781283228945897
386,0.3614,624.759,250.698,0.0877016,397.343,0.320894,0.204307,0.198424,-0.0244289,-0.172161,0.382989,-0.000546584,-0.000306096,0.317132,0.21947934346220221,0.4666618966988014,-0.000546434650177452,-0.02413292939942102,-0.00030604915739895766,-0.15815637456649478
387,0.3624,625.022,250.979,-0.0425683,397.485,0.383637,0.155221,0.198892,-0.0244857,-0.172571,0.383907,-0.000544216,-0.000306013,0.317896,0.22005019336340048,0.46800891050471116,-0.0005440679413325489,-0.024188357074870215,-0.00030596618279754573,-0.1585014597056349
388,0.3634,625.304,250.781,0.107522,397.707,0.285339,0.22131,0.19936,-0.0245456,-0.172978,0.384825,-0.000544299,-0.000304326,0.318659,0.22062131048487688,0.46935716143704864,-0.0005441508961714359,-0.024246806441705404,-0.0003042796975399886,-0.15884387992429339
389,0.3644,625.604,251.249,-0.0563029,397.826,0.399933,0.147114,0.199828,-0.0246014,-0.173388,0.385741,-0.000541198,-0.000304566,0.319421,0.22119269495172,0.47070370922165794,-0.0005410515787779291,-0.02430125195086219,-0.00030451962448407865,-0.1591886832440138
390,0.3654,625.852,250.886,0.126277,398.067,0.256474,0.235479,0.200295,-0.0246621,-0.173795,0.386658,-0.000541979,-0.000302574,0.320183,0.22176312512534113,0.47205296306135214,-0.0005418321559117478,-0.024360475067429,-0.0003025282291037046,-0.15953082381960337
391,0.3664,626.196,251.579,-0.0786129,398.158,0.433095,0.131807,0.200761,-0.0247167,-0.174205,0.387573,-0.000537949,-0.00030321,0.320944,0.22233259941885453,0.4734005079303143,-0.000537804331379288,-0.024413743531248033,-0.00030316403649355284,-0.15987534555005645
392,0.3674,626.387,250.945,0.152423,398.431,0.215594,0.255414,0.201228,-0.0247788,-0.17461,0.388489,-0.00053985,-0.000300743,0.321704,0.2229035620521811,0.47475076111712644,-0.0005397043072074004,-0.024474325556683274,-0.00030069778135710656,-0.16021552714368614
393,0.3684,626.799,251.972,-0.111269,398.481,0.483823,0.10848,0.201694,-0.0248314,-0.17502,0.389401,-0.000534438,-0.000301962,0.322464,0.2234735679131481,0.4760963473053017,-0.0005342952134500534,-0.02452563685765996,-0.00030191641406385195,-0.16055976820331774
394,0.3694,627.021,251.823,-0.0916348,398.676,0.414165,0.132118,0.20216,-0.0248902,-0.175427,0.390315,-0.000533685,-0.000301085,0.323224,0.22404383945874584,0.47744611611711996,-0.0005335426154909895,-0.024582993063923753,-0.00030103967846006885,-0.16090135086087298
395,0.3704,627.312,251.636,0.077446,398.897,0.316118,0.204156,0.202625,-0.0249497,-0.175832,0.391229,-0.000533655,-0.000299383,0.323983,0.22461315219904798,0.4787971191815996,-0.000533512631496813,-0.024641028649260655,-0.00029933818938165935,-0.16124111700648558
396,0.3714,627.57,251.909,-0.0478066,399.035,0.377122,0.157008,0.20309,-0.0250063,-0.176239,0.392141,-0.000531346,-0.000299276,0.324741,0.2251827297313338,0.48014639733160847,-0.0005312048607132303,-0.024696232404758156,-0.00029923122140507186,-0.16158242241150267
397,0.3724,627.852,251.725,0.105952,399.253,0.282561,0.223017,0.203555,-0.0250658,-0.176644,0.393053,-0.0005314,-0.000297593,0.325499,0.2257525721787601,0.48149690658458777,-0.0005312588320266487,-0.024754261252554755,-0.00029754872359544215,-0.16192191277898615
398,0.3734,628.14,252.171,-0.0571495,399.369,0.392553,0.150651,0.20402,-0.0251214,-0.177051,0.393963,-0.000528398,-0.000297806,0.326256,0.226322679664541,0.4828456823694851,-0.0005282584223620379,-0.024808483408239157,-0.0002977616601947952,-0.16226294115650275
399,0.3744,628.389,251.834,0.124349,399.604,0.256467,0.236558,0.204484,-0.0251817,-0.177455,0.394875,-0.000529094,-0.000295849,0.327013,0.22689182541950936,0.4841986544933172,-0.0005289540544520799,-0.02486728568378327,-0.0002958052410000356,-0.16260131857143534
400,0.3754,628.717,252.486,-0.0773688,399.695,0.423432,0.13685,0.204947,-0.0252361,-0.177862,0.395783,-0.000525236,-0.000296428,0.327769,0.2274600078587632,0.4855469188910009,-0.0005250980877187228,-0.02492033146058381,-0.00029638406956122854,-0.1629420704870581
401,0.3764,628.913,251.903,0.148574,399.958,0.219905,0.254907,0.205411,-0.0252976,-0.178265,0.396694,-0.00052695,-0.000294039,0.328525,0.22802968145646352,0.48690086876463856,-0.0005268111862324343,-0.024980297016239272,-0.00029399577476996175,-0.16327933686891127
402,0.3774,629.303,252.856,-0.107352,400.012,0.469661,0.115821,0.205874,-0.0253503,-0.178672,0.3976,-0.000521843,-0.000295145,0.32928,0.22859839084504197,0.48824861138695774,-0.0005217068636232947,-0.025031679200654078,-0.0002951014489992465,-0.16361981288723593
403,0.3784,629.522,252.718,-0.0867696,400.202,0.403797,0.138716,0.206336,-0.0254087,-0.179076,0.398508,-0.000521093,-0.000294263,0.330035,0.22916613444028422,0.4896005548155278,-0.0005209572546223118,-0.025088615688027116,-0.0002942197088898757,-0.16395764223670606
404,0.3794,629.812,252.565,0.0729167,400.415,0.316255,0.205338,0.206799,-0.0254677,-0.179479,0.399416,-0.000520937,-0.00029263,0.330789,0.22973537012842304,0.49095372636621426,-0.0005208013358795061,-0.025146133762901646,-0.0002925871880177233,-0.16429449942560204
405,0.3804,630.06,252.807,-0.0429895,400.553,0.369096,0.163004,0.207261,-0.0255242,-0.179883,0.400322,-0.000518775,-0.000292452,0.331542,0.23030363912945395,0.49230514254138846,-0.0005186404595161065,-0.025201211450384675,-0.0002924092400823364,-0.16463205625676292
406,0.3814,630.341,252.664,0.098713,400.762,0.28715,0.222272,0.207723,-0.0255831,-0.180285,0.401228,-0.000518659,-0.000290861,0.332295,0.2308721707314192,0.49365778365443047,-0.0005185245196717148,-0.025258625408172586,-0.000290818704040241,-0.16496780667979116
407,0.3824,630.615,253.054,-0.0498857,400.881,0.38193,0.158169,0.208184,-0.0256387,-0.18069,0.402133,-0.000515905,-0.000290958,0.333048,0.23143973361531955,0.4950101558047335,-0.000515771943897958,-0.025312819521989605,-0.0002909156758260645,-0.16530592624425233
408,0.3834,630.868,252.785,0.114089,401.104,0.265837,0.23367,0.208645,-0.0256982,-0.181091,0.403038,-0.000516315,-0.000289144,0.3338,0.23200755820602814,0.4963637524058131,-0.0005161817323473539,-0.02537081168394406,-0.0002891022019022582,-0.16564057146697697
409,0.3844,631.175,253.345,-0.066457,401.201,0.407675,0.146953,0.209106,-0.0257528,-0.181495,0.403941,-0.000512854,-0.000289541,0.334551,0.23257564462421976,0.4977155791321448,-0.0005127225128661594,-0.025424024984889826,-0.0002894990870498937,-0.16597758459486867
410,0.3854,631.385,252.875,0.134057,401.447,0.236422,0.248787,0.209566,-0.0258134,-0.181895,0.404845,-0.000514095,-0.000287374,0.335302,0.23314275984724797,0.49907012617869895,-0.0005139628758079606,-0.02548308249951503,-0.0002873327120471725,-0.16631112684813276
411,0.3864,631.742,253.679,-0.0910688,401.515,0.44549,0.129935,0.210026,-0.0258666,-0.182299,0.405747,-0.000509618,-0.000288201,0.336052,0.23371013600328894,0.5004228974406328,-0.0005094881668030737,-0.02553492542049207,-0.00028815947408111775,-0.16664786912636576
412,0.3874,631.889,252.913,0.162772,401.795,0.193123,0.270407,0.210486,-0.0259287,-0.182698,0.40665,-0.000512082,-0.000285517,0.336802,0.2342777732123993,0.501778391230361,-0.0005119509083901796,-0.02559543782269391,-0.0002854762439002956,-0.1669803103001598
413,0.3884,632.146,253.178,0.0650924,401.932,0.253631,0.227847,0.210945,-0.0259851,-0.1831,0.407551,-0.000510252,-0.000285152,0.337551,0.23484443674963673,0.5031321033165757,-0.000510121843586675,-0.025650392690258927,-0.0002851113480325518,-0.16731511691478074
414,0.3894,632.522,253.672,0.0396591,402.056,0.355851,0.191565,0.211404,-0.0260403,-0.183502,0.408451,-0.000507489,-0.000284791,0.3383,0.23541136044513955,0.5044855311607341,-0.0005073602492382534,-0.025704175304168575,-0.0002847504508926013,-0.16764978896419203
415,0.3904,632.7,253.502,0.0365391,402.244,0.290723,0.213294,0.211863,-0.0260987,-0.183902,0.409352,-0.000507164,-0.000283708,0.339048,0.23597854441834776,0.5058416834791855,-0.0005070354140774835,-0.025761072518916017,-0.0002836677586910419,-0.16798266246946703
416,0.3914,633.078,253.987,0.0179234,402.367,0.389227,0.176907,0.212321,-0.0261538,-0.184303,0.41025,-0.000504329,-0.000283395,0.339795,0.2365447522433859,0.5071945366511119,-0.0005042018475063248,-0.02581475160494784,-0.0002833548474301395,-0.16831623453614752
417,0.3924,633.221,253.648,0.0463011,402.575,0.277221,0.220136,0.212779,-0.026213,-0.184702,0.41115,-0.000504669,-0.000282041,0.340542,0.2371112194510019,0.5085516223310504,-0.0005045416760199872,-0.02587242166460213,-0.0002820012301761876,-0.16864801016492803
418,0.3934,633.628,254.275,0.00116057,402.68,0.414773,0.164956,0.213237,-0.0262673,-0.185103,0.412047,-0.000501231,-0.000281985,0.341289,0.23767794616002025,0.5099054002148906,-0.0005011054047272534,-0.025925315356029044,-0.0002819452459666971,-0.16898131548066975
419,0.3944,633.729,253.744,0.0647269,402.91,0.249952,0.233551,0.213694,-0.0263275,-0.185501,0.412946,-0.000502365,-0.000280296,0.342035,0.23824369424500635,0.5112634155060947,-0.0005022388358311147,-0.025983952887037254,-0.0002802567207461637,-0.16931199510749761
420,0.3954,634.181,254.594,-0.0221887,402.987,0.448947,0.148813,0.214151,-0.0263805,-0.185902,0.413841,-0.000498001,-0.000280635,0.34278,0.23880970093595444,0.512616601723477,-0.0004978770180839032,-0.02603557436955284,-0.00028059562568172325,-0.16964503421865507
421,0.3964,634.225,253.793,0.0918754,403.249,0.20983,0.253215,0.214608,-0.026442,-0.186299,0.414739,-0.000500255,-0.00027847,0.343525,0.23937596635107417,0.5139755415044651,-0.0005001298933301479,-0.02609547133987844,-0.0002784312308282688,-0.16997461971302075
422,0.3974,634.741,254.964,-0.0560362,403.286,0.497726,0.125569,0.215064,-0.0264932,-0.1867,0.415632,-0.000494552,-0.000279382,0.344269,0.2399412506667591,0.5153281255018987,-0.0004944297293169031,-0.026145333975251428,-0.00027934297648324335,-0.17030739316497956
423,0.3984,634.903,254.751,-0.0703925,403.469,0.418843,0.143838,0.21552,-0.0265512,-0.187098,0.416528,-0.000493954,-0.00027856,0.345013,0.24050679281087217,0.5166864679488898,-0.0004938320248071282,-0.02620181590788906,-0.00027852120576543626,-0.17063754511790308
424,0.3994,635.16,254.557,0.076085,403.676,0.324012,0.209692,0.215976,-0.0266096,-0.187495,0.417423,-0.000493891,-0.000276944,0.345757,0.24107259290101024,0.5180445099708566,-0.0004937690559165819,-0.02625868406127374,-0.00027690565455040783,-0.17096673666364592
425,0.4004,635.395,254.793,-0.0407988,403.806,0.376557,0.166898,0.216431,-0.0266653,-0.187894,0.418316,-0.000491729,-0.000276773,0.3465,0.24163740941679346,0.5194007291800113,-0.000491608121109266,-0.026312919942088286,-0.0002767347018866051,-0.17129745495303084
426,0.4014,635.656,254.637,0.0952008,404.006,0.293264,0.225253,0.216887,-0.0267236,-0.18829,0.419209,-0.00049163,-0.000275204,0.347242,0.24220372518566968,0.5207581600338385,-0.0004915091697735852,-0.026369684244160085,-0.00027516613485278896,-0.1716255561925364
427,0.4024,635.922,255.021,-0.0477315,404.117,0.387031,0.162537,0.217341,-0.0267784,-0.188688,0.420101,-0.000488892,-0.00027528,0.347984,0.2427678137153111,0.5221152814987775,-0.0004887725117792563,-0.026423037723564913,-0.0002752421139372574,-0.1719551836209623
428,0.4034,636.157,254.753,0.108218,404.331,0.273383,0.235452,0.217796,-0.0268372,-0.189084,0.420994,-0.000489266,-0.000273514,0.348725,0.24333340173206786,0.523475137530506,-0.0004891463289083964,-0.02648028236593769,-0.0002734765984558907,-0.1722830244514797
429,0.4044,636.455,255.292,-0.062416,404.423,0.409729,0.152552,0.21825,-0.0268912,-0.189482,0.421884,-0.000485889,-0.000273856,0.349465,0.2438980032513014,0.5248316339542767,-0.00048577097505630995,-0.026532851011323744,-0.0002738185048685171,-0.1726123902596045
430,0.4054,636.651,254.846,0.12576,404.658,0.24742,0.248732,0.218704,-0.0269509,-0.189876,0.422776,-0.000486997,-0.00027178,0.350206,0.24446286115782012,0.5261923905789931,-0.00048687843620853766,-0.02659096526539062,-0.00027174307116140106,-0.17293831676610405
431,0.4064,636.992,255.597,-0.084115,404.722,0.442286,0.13773,0.219157,-0.0270037,-0.190275,0.423664,-0.000482738,-0.000272495,0.350945,0.245026730540697,0.5275482513349066,-0.00048262150075861765,-0.02664235990559416,-0.00027245787660956644,-0.173268248551946
432,0.4074,637.135,254.899,0.151006,404.987,0.210563,0.267313,0.21961,-0.0270646,-0.190668,0.424555,-0.000484892,-0.000269976,0.351685,0.24559085541426895,0.5289099033527376,-0.0004847744588731828,-0.02670163558091332,-0.00026993955975906925,-0.17359309029468173
433,0.4084,637.536,255.948,-0.115488,405.014,0.487927,0.116419,0.220062,-0.0271158,-0.191066,0.425442,-0.000479388,-0.00027122,0.352423,0.24615398973968627,0.5302666480643372,-0.000479273111932077,-0.0267514671814717,-0.0002711832231807598,-0.1739219348003469
434,0.4094,637.727,255.766,-0.0878523,405.197,0.411388,0.14421,0.220515,-0.0271733,-0.191461,0.42633,-0.000478799,-0.000270284,0.353161,0.24671862537735456,0.531626128367739,-0.00047868439405063246,-0.026807427363238157,-0.00027024747657034,-0.1742481712001701
435,0.4104,637.99,255.601,0.0661074,405.398,0.323474,0.209578,0.220967,-0.0272312,-0.191855,0.427218,-0.00047866,-0.000268682,0.353899,0.2472822695700163,0.5329868164258138,-0.0004785454605781281,-0.02686377358195502,-0.0002686459082239523,-0.17457345333592855
436,0.4114,638.221,255.819,-0.0398135,405.526,0.370691,0.171101,0.221419,-0.0272866,-0.19225,0.428104,-0.000476601,-0.000268452,0.354636,0.24784616858743935,0.5343456446171662,-0.00047648744378447905,-0.026917683835570805,-0.00026841596998605777,-0.17489943243675
437,0.4124,638.479,255.69,0.0890295,405.719,0.295892,0.225243,0.221871,-0.0273443,-0.192643,0.428991,-0.000476394,-0.000266944,0.355372,0.24841032254483042,0.5357072129702363,-0.00047628054239590156,-0.026973829065408017,-0.00026690837362053355,-0.17522363325016976
438,0.4134,638.734,256.037,-0.0429874,405.831,0.37953,0.168348,0.222322,-0.0273991,-0.193038,0.429876,-0.000473827,-0.00026694,0.356108,0.24897348258334118,0.5370669154333088,-0.0004737147617148718,-0.027027149438583642,-0.00026690437468823713,-0.17554935558064066
439,0.4144,638.969,255.813,0.100421,406.035,0.279326,0.234144,0.222773,-0.0274572,-0.193431,0.430761,-0.000474015,-0.000265272,0.356844,0.24953689666431167,0.5384278217656946,-0.00047390267263891506,-0.027083677519044613,-0.00026523681849399683,-0.17587330102444831
440,0.4154,639.251,256.29,-0.0548217,406.129,0.398926,0.1602,0.223223,-0.0275112,-0.193826,0.431645,-0.000470908,-0.000265491,0.357579,0.2500993148024009,0.5397883932441268,-0.00047079714023001706,-0.027136213581972157,-0.00026545576038317087,-0.1761987667868239
441,0.4164,639.453,255.918,0.11497,406.351,0.258136,0.245286,0.223673,-0.02757,-0.194217,0.43253,-0.000471708,-0.000263568,0.358313,0.25066198608560564,0.5411517091504545,-0.0004715967632724638,-0.02719341629083738,-0.00026353326900607765,-0.17652081010543863
442,0.4174,639.771,256.57,-0.0727265,406.423,0.426136,0.148061,0.224123,-0.027623,-0.194612,0.433411,-0.00046787,-0.000264094,0.359047,0.2512249106278668,0.5425100620728198,-0.0004677605658991446,-0.027244973673491324,-0.0002640591302492945,-0.17684602015223427
443,0.4184,639.928,255.991,0.13584,406.67,0.228412,0.260611,0.224573,-0.0276829,-0.195002,0.434295,-0.000469527,-0.000261809,0.359781,0.2517880885431767,0.5438742438471993,-0.0004694167894477852,-0.0273032399544757,-0.0002617747310145191,-0.17716698761165206
444,0.4194,640.296,256.886,-0.0985425,406.711,0.463449,0.130772,0.225022,-0.0277344,-0.195397,0.435175,-0.000464676,-0.000262766,0.360513,0.25235026759468493,0.5452334511452817,-0.00046456805482797403,-0.027353332547722653,-0.0002627314800381919,-0.17749194246873612
445,0.4204,640.393,256.022,0.165618,406.992,0.18679,0.281846,0.225471,-0.0277958,-0.195786,0.436059,-0.000467521,-0.000259972,0.361246,0.2529126991212638,0.5466000414600192,-0.0004674117290867086,-0.027413051219722262,-0.0002599382102077552,-0.17781183587981342
446,0.4214,640.645,256.322,0.0683087,407.112,0.258133,0.23599,0.22592,-0.0278509,-0.196178,0.436939,-0.000465554,-0.000259646,0.361978,0.2534753832362999,0.5479616485157395,-0.0004654456465520429,-0.027466639284235317,-0.0002596122948945734,-0.17813407047804097
447,0.4224,640.992,256.788,0.0346524,407.222,0.356914,0.198781,0.226368,-0.027905,-0.19657,0.437818,-0.000462862,-0.000259297,0.362709,0.254037066015538,0.549322904989358,-0.000462754895909967,-0.027519251915865572,-0.0002592633854383575,-0.1784561787850607
448,0.4234,641.166,256.653,0.0380946,407.396,0.301097,0.218825,0.226816,-0.0279621,-0.196961,0.438698,-0.000462413,-0.000258244,0.36344,0.2545990004850356,0.5506869092195863,-0.0004623061035861076,-0.027574778981268366,-0.0002582106578884469,-0.17877733962811926
449,0.4244,641.504,257.075,0.0121422,407.51,0.387085,0.184754,0.227263,-0.0280163,-0.197353,0.439576,-0.000459784,-0.000257901,0.36417,0.2551599315970159,0.5520490102007101,-0.00045967831553461735,-0.027627482999955766,-0.00025786774639591226,-0.17909919582304934
450,0.4254,641.653,256.805,0.0470208,407.7,0.29288,0.223596,0.227711,-0.028074,-0.197742,0.440455,-0.000459871,-0.000256617,0.3649,0.25572236922299263,0.5534138610447439,-0.00045976527553881485,-0.02768358727556275,-0.0002565840766739491,-0.17941846413416174
451,0.4264,642.006,257.322,-0.00326654,407.8,0.405943,0.175115,0.228158,-0.0281277,-0.198134,0.441332,-0.000456823,-0.000256472,0.365629,0.2562838025930452,0.5547768025633797,-0.0004567186722603811,-0.027735799265021566,-0.00025643911386807883,-0.17974006905753792
452,0.4274,642.13,256.92,0.0630385,408.007,0.273994,0.233571,0.228605,-0.028186,-0.198523,0.442209,-0.000457475,-0.000254931,0.366358,0.2568454869799124,0.5561409399060193,-0.0004573703742672963,-0.027792480615646986,-0.00025489850785376245,-0.18005908811744453
453,0.4284,642.51,257.584,-0.022776,408.087,0.429208,0.163211,0.229051,-0.0282388,-0.198914,0.443085,-0.000453792,-0.000255077,0.367086,0.2574061650890298,0.5575047166163654,-0.0004536890519832859,-0.02784381181751483,-0.0002550444706279631,-0.18037962234546534
454,0.4294,642.6,257.005,0.0849401,408.316,0.24739,0.247469,0.229497,-0.028298,-0.199302,0.443962,-0.000455196,-0.000253196,0.367815,0.25796709331635603,0.5588712473889952,-0.000455092414018643,-0.027901361760360066,-0.00025316394859797864,-0.18069757336550862
455,0.4304,643.016,257.874,-0.0489467,408.368,0.460676,0.147143,0.229942,-0.0283496,-0.199693,0.444835,-0.00045064,-0.00025374,0.368542,0.25852701324582616,0.5602327361913588,-0.0004505384770459031,-0.027951520755980064,-0.00025370781072886484,-0.18101785799459724
456,0.4314,643.061,257.055,0.114471,408.628,0.211083,0.266353,0.230388,-0.0284101,-0.200079,0.445712,-0.000453067,-0.000251399,0.369269,0.2590884414829244,0.5616016604865621,-0.0004529643806451267,-0.02801032791003999,-0.0002513674019193335,-0.18133392409672922
457,0.4324,643.528,258.203,-0.0843328,408.643,0.503422,0.125347,0.230833,-0.0284601,-0.200471,0.446583,-0.000447322,-0.00025248,0.369995,0.25964886052337266,0.5629624080523843,-0.0004472219664304333,-0.028058926178677668,-0.00025244812960711904,-0.18165477830694954
458,0.4334,643.678,257.975,-0.0764206,408.819,0.419486,0.150554,0.231278,-0.0285169,-0.200859,0.447457,-0.000446841,-0.000251577,0.370721,0.26020952900579064,0.564329034325709,-0.0004467411814286226,-0.028114130863842735,-0.00025154535716009896,-0.18197223466245083
459,0.4344,643.921,257.809,0.0646866,409.01,0.333938,0.212097,0.231723,-0.0285739,-0.201246,0.44833,-0.000446664,-0.000250035,0.371446,0.2607704470412049,0.5656952898564427,-0.0004465642604861708,-0.028169526779584952,-0.00025000374385453217,-0.18228875015793777
460,0.4354,644.134,257.999,-0.0358782,409.132,0.374756,0.176602,0.232167,-0.0286287,-0.201634,0.449202,-0.0004447,-0.000249768,0.372171,0.2613303534097069,0.5670611715870826,-0.00044460113561051173,-0.028222781630321214,-0.0002497368105698339,-0.18260596058007506
461,0.4364,644.38,257.89,0.0819934,409.313,0.30761,0.225701,0.232611,-0.0286854,-0.202021,0.450074,-0.000444377,-0.00024834,0.372895,0.2618905084318335,0.5684282448860398,-0.0004442782791646005,-0.028277879836553832,-0.00024830916617468723,-0.18292223087108195
462,0.4374,644.619,258.195,-0.0373077,409.421,0.380212,0.175048,0.233054,-0.0287395,-0.202409,0.450944,-0.000441977,-0.000248254,0.373619,0.26244964976773044,0.569793371202933,-0.000441879342553686,-0.028330448581257328,-0.000248223187525598,-0.18323919555037982
463,0.4384,644.845,258.015,0.0900453,409.611,0.294213,0.232566,0.233498,-0.0287966,-0.202795,0.451815,-0.000441952,-0.000246711,0.374342,0.26301030186778296,0.5711612568569755,-0.000441854353600335,-0.028385929328652915,-0.00024668056934384897,-0.18355440438167914
464,0.4394,645.106,258.422,-0.0457294,409.705,0.394721,0.169032,0.23394,-0.0288501,-0.203183,0.452684,-0.000439135,-0.000246792,0.375065,0.26356867581276,0.5725271894009161,-0.00043903859433813697,-0.028437909290957464,-0.00024676154935943106,-0.18387112382523363
465,0.4404,645.306,258.129,0.100552,409.908,0.278318,0.240848,0.234383,-0.0289076,-0.203568,0.453554,-0.000439569,-0.000245063,0.375787,0.26412856074150026,0.5738958833512331,-0.0004394724037012354,-0.028493772505090442,-0.00024503297451572426,-0.18418527296497111
466,0.4414,645.595,258.666,-0.0587697,409.985,0.414585,0.160176,0.234825,-0.0289604,-0.203956,0.454422,-0.000436212,-0.000245368,0.376509,0.26468742906614917,0.5752626180550324,-0.00043611687337785643,-0.028545066679724007,-0.0002453378997342437,-0.18450174767899596
467,0.4424,645.762,258.224,0.11575,410.206,0.256968,0.251955,0.235268,-0.0290187,-0.20434,0.455291,-0.000437268,-0.000243378,0.37723,0.26524780971237405,0.5766321162308969,-0.0004371724122810283,-0.02860170085143443,-0.0002433483859770602,-0.1848148388905273
468,0.4434,646.086,258.932,-0.0774851,410.261,0.440877,0.147882,0.235709,-0.0290704,-0.204728,0.456157,-0.000433191,-0.00024399,0.377951,0.2658059070478749,0.5779980710166079,-0.0004330971863256705,-0.028651920845302437,-0.00024396023686068524,-0.1851310693803555
469,0.4444,646.211,258.293,0.137241,410.507,0.22821,0.266911,0.236151,-0.0291297,-0.205111,0.457025,-0.000435077,-0.000241643,0.378671,0.2663655169234618,0.5793683679650916,-0.0004349823677266551,-0.02870952007856209,-0.0002416138066817508,-0.18544310442225798
470,0.4454,646.58,259.227,-0.10368,410.532,0.475612,0.131096,0.236591,-0.0291802,-0.205498,0.457889,-0.000430042,-0.000242671,0.379391,0.26692284035307123,0.5807335319009095,-0.00042994954519270934,-0.028758569009302182,-0.00024264155777453666,-0.18575827695102864
471,0.4464,646.651,258.326,0.166988,410.81,0.189693,0.286963,0.237033,-0.0292408,-0.20588,0.458757,-0.000433032,-0.000239843,0.380111,0.26748294402229944,0.5821062042602199,-0.00043293825517543016,-0.028817424456682228,-0.00023981423996699558,-0.1860692578880928
472,0.4474,646.898,258.643,0.0691575,410.919,0.266689,0.239111,0.237473,-0.0292949,-0.206265,0.459621,-0.000430975,-0.000239549,0.380829,0.2680407592280152,0.583473734708783,-0.0004308821436147525,-0.028869964012811278,-0.00023952031042917543,-0.18638256090910443
473,0.4484,647.222,259.078,0.0323697,411.022,0.359461,0.202933,0.237913,-0.0293483,-0.20665,0.460485,-0.000428376,-0.000239192,0.381547,0.26859881992642576,0.5848424472142288,-0.0004282842601015524,-0.02892182097213991,-0.0002391633958742645,-0.1866957433316696
474,0.4494,647.394,258.974,0.0374512,411.183,0.312057,0.220484,0.238353,-0.0294043,-0.207034,0.461349,-0.000427804,-0.000238183,0.382265,0.26915712622557186,0.5862123427982959,-0.00042771250491657753,-0.028976199827543292,-0.00023815463668119818,-0.1870079922106086
475,0.4504,647.703,259.343,0.0101711,411.293,0.386464,0.189761,0.238792,-0.0294579,-0.207418,0.462212,-0.000425356,-0.000237803,0.382983,0.26971440851849815,0.5875818349009769,-0.0004252655489617174,-0.0290282453084012,-0.0002377747271077313,-0.18732012120899655
476,0.4514,647.858,259.129,0.044925,411.468,0.307175,0.22367,0.239232,-0.0295144,-0.207801,0.463075,-0.000425225,-0.000236596,0.3837,0.27027320578462954,0.5889525093854668,-0.00042513460466298003,-0.02908310366277811,-0.00023656801337357258,-0.1876313180045831
477,0.4524,648.175,259.562,-0.00333256,411.567,0.400548,0.181941,0.239671,-0.0295676,-0.208185,0.463936,-0.000422481,-0.000236368,0.384416,0.2708309781440441,0.5903211866270477,-0.00042239176746916574,-0.029134755067723672,-0.00023634006728512347,-0.18794320769181683
478,0.4534,648.312,259.253,0.0582409,411.756,0.293574,0.231158,0.24011,-0.0296246,-0.208567,0.464799,-0.000422763,-0.000234963,0.385132,0.2713889954192794,0.5916942261924629,-0.0004226736483149418,-0.02919009280954421,-0.00023493539835617305,-0.18825335414473454
479,0.4544,648.645,259.788,-0.0191474,411.84,0.416766,0.173012,0.240548,-0.0296771,-0.208951,0.465658,-0.000419572,-0.000234953,0.385847,0.2719459857712556,0.5930620789414085,-0.0004194839919774429,-0.02924105899179774,-0.00023492540070546575,-0.1885650050159462
480,0.4554,648.762,259.359,0.0754681,412.045,0.275056,0.241215,0.240986,-0.0297347,-0.209332,0.46652,-0.00042038,-0.0002333,0.386562,0.2725032201384412,0.5944358904811629,-0.00042029165270807134,-0.02929697309645818,-0.00023327278767126813,-0.18887410286215633
481,0.4564,649.117,260.031,-0.0391312,412.109,0.437873,0.161571,0.241423,-0.0297863,-0.209715,0.467378,-0.000416594,-0.000233574,0.387276,0.2730594255676766,0.5958045035262316,-0.00041650723676833756,-0.02934706008039112,-0.00023354672371700413,-0.1891847045967311
482,0.4574,649.206,259.444,0.0974924,412.335,0.250833,0.254304,0.241861,-0.0298447,-0.210095,0.468239,-0.000418086,-0.0002316,0.38799,0.273617147728312,0.5971790828752606,-0.0004179986142269776,-0.029403744556879552,-0.00023157318279032335,-0.1894927558755345
483,0.4584,649.59,260.294,-0.0647409,412.374,0.465498,0.146759,0.242298,-0.0298954,-0.210479,0.469095,-0.000413523,-0.000232241,0.388703,0.27417384005028245,0.598546853492508,-0.0004134375111485289,-0.029452952539597566,-0.0002322140341465273,-0.1898039309078483
484,0.4594,649.642,259.502,0.125748,412.627,0.219296,0.271293,0.242735,-0.0299548,-0.210858,0.469955,-0.000415908,-0.000229852,0.389417,0.27473077569996085,0.5999221950986353,-0.00041582152225716484,-0.029510601322030983,-0.00022982558605288972,-0.190110937036698
485,0.4604,650.067,260.587,-0.097755,412.633,0.501532,0.127556,0.243171,-0.0300041,-0.211242,0.47081,-0.000410329,-0.000230968,0.390129,0.2752866794963873,0.6012907135337071,-0.00041024482656926153,-0.029558445270022826,-0.00023094132894496688,-0.19042187473301742
486,0.4614,650.213,260.361,-0.0761731,412.802,0.417693,0.156146,0.243607,-0.03006,-0.211622,0.471668,-0.000409894,-0.000230024,0.390841,0.2758428257197143,0.6026652105408139,-0.0004098100049311215,-0.029612691436737726,-0.00022999754650809834,-0.1907294559764814
487,0.4624,650.446,260.227,0.0555808,412.98,0.342642,0.212151,0.244044,-0.0301159,-0.212002,0.472524,-0.000409581,-0.000228569,0.391552,0.27640049087551555,0.6040376792938584,-0.0004094971331527475,-0.02966693457117664,-0.00022854288009621637,-0.1910369203612774
488,0.4634,650.645,260.381,-0.0302621,413.098,0.373596,0.183074,0.244479,-0.0301699,-0.212382,0.47338,-0.00040778,-0.000228224,0.392263,0.27695584587000055,0.6054113233831275,-0.0004076968690358562,-0.029719331141989658,-0.0002281979588840688,-0.19134426793180326
489,0.4644,650.88,260.312,0.0708439,413.264,0.320088,0.223983,0.244915,-0.0302255,-0.212762,0.474235,-0.000407264,-0.00022692,0.392974,0.2775127200085403,0.6067845370297997,-0.00040718107927439906,-0.029773277247462593,-0.00022689425560418197,-0.19165149873244003
490,0.4654,651.099,260.557,-0.0281466,413.371,0.375901,0.183293,0.24535,-0.030279,-0.213142,0.475089,-0.000405127,-0.000226708,0.393684,0.27806855892794413,0.6081573171180883,-0.0004050449471378892,-0.0298251829886389,-0.0002266823036832788,-0.1919586128075519
491,0.4664,651.319,260.441,0.0754796,413.542,0.310807,0.22865,0.245784,-0.0303347,-0.213521,0.475943,-0.0004048,-0.000225344,0.394393,0.2786233610658746,0.60953127006131,-0.00040471807953412764,-0.02987922022099554,-0.00022531861194785563,-0.1922648024666922
492,0.4674,651.556,260.755,-0.0324697,413.639,0.385295,0.179791,0.246219,-0.0303877,-0.213901,0.476796,-0.000402384,-0.000225235,0.395102,0.2791796832192339,0.6109047859559196,-0.0004023030544156869,-0.02993063525981321,-0.00022520963650163317,-0.19257168353066
493,0.4684,651.757,260.566,0.0814187,413.819,0.300789,0.233887,0.246653,-0.0304438,-0.214279,0.477649,-0.000402351,-0.000223759,0.395811,0.27973496768976536,0.6122794739594204,-0.00040227006769111284,-0.029985054624697693,-0.00022373396782204846,-0.19287683375725906
494,0.4694,652.012,260.963,-0.0400509,413.906,0.39778,0.174498,0.247087,-0.0304963,-0.214658,0.478501,-0.000399596,-0.000223786,0.396519,0.2802904932060599,0.61365372141752,-0.00039951617215172597,-0.0300359790725514,-0.00022376096178089444,-0.1931826754765983
495,0.4704,652.192,260.682,0.0903566,414.096,0.28794,0.240705,0.24752,-0.0305528,-0.215036,0.479353,-0.000399945,-0.000222154,0.397227,0.28084497902713523,0.6150291402333814,-0.000399865032659652,-0.030090780491579205,-0.00022212932562737375,-0.19348759479188693
496,0.4714,652.469,261.181,-0.051155,414.169,0.413594,0.167265,0.247953,-0.0306048,-0.215415,0.480203,-0.000396757,-0.000222363,0.397934,0.2813997049925583,0.6164024985971968,-0.0003966783023497955,-0.030141214459699084,-0.00022233827918050064,-0.19379320507665365
497,0.4724,652.622,260.784,0.103077,414.374,0.27133,0.249599,0.248387,-0.0306618,-0.215791,0.481055,-0.000397595,-0.000220522,0.398641,0.2819559531616467,0.6177802603691729,-0.0003975159695823738,-0.030196494834969223,-0.00022049768681098314,-0.19409628184954086
498,0.4734,652.925,261.413,-0.0665497,414.429,0.433568,0.157653,0.248819,-0.030713,-0.216171,0.481903,-0.000393856,-0.000220972,0.399347,0.2825098777725139,0.6191527198705495,-0.0003937784489073115,-0.030246147503314447,-0.00022094758748580912,-0.19440246708355913
499,0.4744,653.048,260.869,0.120445,414.653,0.249971,0.261105,0.249252,-0.0307707,-0.216546,0.482754,-0.000395318,-0.000218858,0.400053,0.28306532479519153,0.6205312052975169,-0.000395239872134856,-0.03030210068633865,-0.00021883405233502629,-0.1947045095219061
500,0.4754,653.383,261.663,-0.0872515,414.685,0.458795,0.145079,0.249683,-0.0308209,-0.216925,0.483601,-0.000390876,-0.000219621,0.400758,0.28361844513905,0.6219043766843924,-0.0003907996179286499,-0.03035077829906596,-0.00021959688507355857,-0.1950096586833785
501,0.4764,653.469,260.933,0.14354,414.934,0.222659,0.27588,0.250116,-0.0308796,-0.2173,0.484451,-0.00039313,-0.000217152,0.401463,0.28417437227533426,0.6232835814835742,-0.00039305273452705514,-0.03040769503785712,-0.00021712842421095502,-0.19531147346756328
502,0.4774,653.842,261.934,-0.114556,414.937,0.490635,0.128813,0.250547,-0.0309286,-0.217679,0.485296,-0.000387797,-0.000218318,0.402167,0.28472797072168055,0.6246558358057268,-0.0003877218164624052,-0.030455203896823768,-0.00021829417035956755,-0.19561639263328734
503,0.4784,653.883,260.971,0.173702,415.218,0.187901,0.294744,0.250978,-0.0309885,-0.218052,0.486145,-0.000391055,-0.000215395,0.402871,0.2852818078203827,0.6260357543028408,-0.00039097854795944187,-0.030513277890776846,-0.00021537180416242308,-0.19591637176924825
504,0.4794,654.125,261.314,0.0720575,415.312,0.273322,0.243249,0.251409,-0.0310414,-0.218429,0.486991,-0.000388882,-0.000215153,0.403574,0.28583588367432267,0.6274119626050116,-0.0003888063951957843,-0.03056456238188965,-0.00021512985625316006,-0.19621945416247044
505,0.4804,654.424,261.719,0.0302542,415.406,0.360821,0.207417,0.25184,-0.0310939,-0.218805,0.487837,-0.000386374,-0.000214798,0.404277,0.2863901983864261,0.6287893356720322,-0.00038629936717837765,-0.030615456406384856,-0.0002147749325612791,-0.19652161883718655
506,0.4814,654.594,261.645,0.0368308,415.556,0.322134,0.222386,0.25227,-0.0311487,-0.21918,0.488682,-0.000385684,-0.000213837,0.404979,0.286943465115554,0.630166244322651,-0.00038560963348699406,-0.03066857722385008,-0.00021381413849830277,-0.19682286674261007
507,0.4824,654.873,261.962,0.00818353,415.659,0.385269,0.194901,0.2527,-0.0312014,-0.219556,0.489527,-0.000383421,-0.000213424,0.405681,0.2874969698005323,0.6315443169527917,-0.00038334750356205927,-0.03071965964379675,-0.00021340122671831274,-0.19712480457684478
508,0.4834,655.029,261.801,0.0423121,415.82,0.320442,0.223959,0.25313,-0.0312566,-0.219931,0.490371,-0.000383086,-0.000212296,0.406382,0.2880507125437042,0.6329219216236945,-0.0003830126319274152,-0.030773162441893653,-0.00021227346679875136,-0.19742582633002215
509,0.4844,655.311,262.155,-0.00312329,415.917,0.395201,0.188815,0.253559,-0.0313091,-0.220306,0.491214,-0.000380638,-0.000211992,0.407083,0.2886034048434072,0.6342990551838639,-0.0003805655665470864,-0.030824045515173037,-0.00021196953128377327,-0.19772673522120499
510,0.4854,655.458,261.931,0.0526073,416.087,0.311466,0.229147,0.253988,-0.0313646,-0.22068,0.492058,-0.000380586,-0.000210719,0.407784,0.28915633429897314,0.6356789858352594,-0.00038051358633517385,-0.030877833288022405,-0.00021069680031082783,-0.198026729319839
511,0.4864,655.747,262.349,-0.0150714,416.173,0.405508,0.18258,0.254417,-0.0314166,-0.221055,0.4929,-0.00037785,-0.000210566,0.408484,0.28970950101216353,0.6370568075228611,-0.0003777786236788261,-0.030928226330460995,-0.00021054383253571451,-0.1983274129146464
512,0.4874,655.883,262.05,0.0651039,416.354,0.299647,0.235842,0.254846,-0.0314725,-0.221428,0.493742,-0.000378133,-0.000209126,0.409184,0.29026290508478403,0.6384357898248738,-0.00037806151672747923,-0.030982395928554785,-0.00020910413468233635,-0.19862638102860974
513,0.4884,656.183,262.55,-0.0291034,416.428,0.418297,0.1751,0.255274,-0.031524,-0.221803,0.494583,-0.00037503,-0.000209159,0.409882,0.2908152558027821,0.6398142939038325,-0.0003749596850398662,-0.031032299050148038,-0.00020913712778125593,-0.19892683979618409
514,0.4894,656.304,262.159,0.0800807,416.622,0.284956,0.244115,0.255702,-0.0315803,-0.222175,0.495425,-0.000375729,-0.000207515,0.410581,0.2913678429774855,0.6411955989871316,-0.0003756584226988213,-0.031086850396076726,-0.00020749347025161846,-0.1992247835907982
515,0.4904,656.62,262.762,-0.0459648,416.679,0.434316,0.165959,0.256129,-0.0316311,-0.22255,0.496264,-0.000372166,-0.000207777,0.411279,0.291919374790099,0.6425731398922849,-0.0003720967548247467,-0.031136069933889732,-0.00020775541585404955,-0.19952501799948164
516,0.4914,656.721,262.254,0.0981854,416.89,0.266785,0.254314,0.256557,-0.031688,-0.222921,0.497105,-0.000373382,-0.000205882,0.411977,0.29247243462887185,0.6439551249461952,-0.00037331230161596896,-0.031191196723138526,-0.00020586080775542026,-0.19982193913552748
517,0.4924,657.057,262.987,-0.0664391,416.928,0.454296,0.154733,0.256984,-0.0317381,-0.223296,0.497942,-0.000369247,-0.000206423,0.412674,0.2930244382028344,0.6453316913984704,-0.0003691788367164994,-0.031239732828343025,-0.00020640169623842297,-0.2001219496528639
518,0.4934,657.134,262.334,0.12022,417.159,0.244342,0.266883,0.257411,-0.0317957,-0.223666,0.498782,-0.000371104,-0.000204221,0.413371,0.29357667753265315,0.6467143506548325,-0.000371035149427712,-0.031295531812705946,-0.00020420014831101785,-0.20041784978659183
519,0.4944,657.495,263.227,-0.0914585,417.173,0.4791,0.140921,0.257837,-0.0318448,-0.22404,0.499619,-0.000366261,-0.000205106,0.414067,0.2941278585905118,0.6480932275458096,-0.00036619393462800076,-0.03134309403443192,-0.00020508496720239577,-0.2007168375965661
520,0.4954,657.541,262.394,0.147135,417.43,0.216673,0.282359,0.258264,-0.0319034,-0.22441,0.500458,-0.00036891,-0.000202525,0.414763,0.29468056918144314,0.6494765579896953,-0.0003688419610730076,-0.03139985566598946,-0.00020250449319658692,-0.20101251766246997
521,0.4964,657.935,263.487,-0.122145,417.414,0.509767,0.123923,0.258689,-0.0319514,-0.224784,0.501293,-0.00036319,-0.000203831,0.415458,0.2952309253657506,0.6508544461038464,-0.0003631240544957892,-0.03144634735710794,-0.00020381022787308023,-0.2013112831082433
522,0.4974,658.07,263.243,-0.0801535,417.578,0.419738,0.159492,0.259115,-0.0320062,-0.225155,0.50213,-0.000362881,-0.000202815,0.416153,0.2957828112833105,0.6522367897053301,-0.0003628151666533741,-0.031499422642996655,-0.00020279443442827727,-0.2016075416628501
523,0.4984,658.289,263.123,0.0458359,417.744,0.350295,0.212387,0.259541,-0.0320609,-0.225526,0.502966,-0.000362509,-0.000201424,0.416848,0.2963349323543556,0.6536186371932933,-0.00036244330155144056,-0.031552398175684004,-0.00020140371554810965,-0.20190369032591937
524,0.4994,658.473,263.248,-0.0260676,417.856,0.373391,0.188927,0.259966,-0.0321139,-0.225897,0.503801,-0.000360848,-0.000201015,0.417542,0.29688599179244224,0.6549999853879618,-0.00036078290219077047,-0.031603724538420086,-0.00020099479783852736,-0.20219972913821316
525,0.5004,658.692,263.204,0.0604171,418.008,0.329843,0.223388,0.260391,-0.0321681,-0.226267,0.504636,-0.000360205,-0.000199817,0.418235,0.2974372854805647,0.6563824874900619,-0.00036014013396756805,-0.03165621019417597,-0.0001997970379128411,-0.20249486063573807
526,0.5014,658.895,263.403,-0.0207685,418.111,0.373136,0.190739,0.260815,-0.0322207,-0.226638,0.50547,-0.000358277,-0.000199509,0.418928,0.2979875155301357,0.6577644866981935,-0.0003582128264598694,-0.0317071437379558,-0.00019948909940292747,-0.2027906801645265
527,0.5024,659.102,263.331,0.0625057,418.265,0.323606,0.226485,0.261239,-0.0322749,-0.227007,0.506304,-0.000357737,-0.000198291,0.419621,0.29853797892671396,0.6591476389744275,-0.000357673019748983,-0.03175962378854302,-0.000198271341639078,-0.20308479613581187
528,0.5034,659.318,263.576,-0.0219751,418.361,0.378862,0.189139,0.261663,-0.0323272,-0.227378,0.507136,-0.000355631,-0.00019804,0.420313,0.29908867576925924,0.6605286242202539,-0.0003555677707915983,-0.03181026143603283,-0.00019802039137362115,-0.20338039683912446
529,0.5044,659.511,263.46,0.0650899,418.52,0.317837,0.229555,0.262087,-0.0323817,-0.227747,0.507969,-0.000355266,-0.000196764,0.421005,0.2996396061567739,0.661912420835503,-0.00035520290050716774,-0.0318630263389279,-0.000196744643233715,-0.20367429524510017
530,0.5054,659.739,263.754,-0.0256115,418.61,0.386247,0.186395,0.26251,-0.0324336,-0.228117,0.508801,-0.000352961,-0.000196586,0.421696,0.30018946999818175,0.6632957073370271,-0.0003528987165942743,-0.0319132713439918,-0.000196566678238419,-0.20396888125408708
531,0.5064,659.918,263.585,0.0695566,418.775,0.310865,0.23341,0.262934,-0.0324883,-0.228485,0.509632,-0.000352814,-0.000195228,0.422387,0.3007408672214118,0.664678480532513,-0.00035275176845961376,-0.031966224239774355,-0.0001952089442540661,-0.20426176681153763
532,0.5074,660.159,263.936,-0.0313843,418.858,0.395077,0.182638,0.263356,-0.0325399,-0.228855,0.510463,-0.00035027,-0.000195147,0.423077,0.30128989570424114,0.666062403290101,-0.00035020866262525097,-0.032016173493901734,-0.00019512796006271316,-0.2045561354962525
533,0.5084,660.324,263.704,0.0761671,419.031,0.302284,0.238252,0.263779,-0.0325948,-0.229223,0.511294,-0.000350386,-0.000193679,0.423767,0.30184045776579094,0.6674474765654745,-0.0003503246219943579,-0.032069314347247135,-0.00019366024543332472,-0.20484880498390123
534,0.5094,660.578,264.123,-0.0394377,419.103,0.405589,0.177763,0.264201,-0.032646,-0.229593,0.512123,-0.000347554,-0.000193722,0.424456,0.3023899503737537,0.6688303636510462,-0.0003474936101049986,-0.03211887112968814,-0.00019370323710499182,-0.20514295650467007
535,0.5104,660.727,263.817,0.085139,419.286,0.291779,0.244244,0.264623,-0.0327012,-0.229959,0.512953,-0.000347988,-0.000192116,0.425145,0.30293967491653184,0.6702160678405642,-0.0003479274591986492,-0.03217229669344268,-0.00019209754690296954,-0.2054338209511487
536,0.5114,660.996,264.316,-0.0500218,419.346,0.418116,0.171609,0.265045,-0.0327519,-0.230329,0.51378,-0.000344808,-0.000192316,0.425834,0.30348963149202257,0.6715979078407519,-0.00034474856055344283,-0.03222136431412559,-0.00019229750846350147,-0.2057277560560491
537,0.5124,661.127,263.921,0.0967507,419.541,0.279,0.251574,0.265467,-0.0328076,-0.230695,0.51461,-0.000345624,-0.000190537,0.426522,0.3040398201981642,0.6729859100454918,-0.0003455642789058633,-0.03227526808289938,-0.00019051884897869353,-0.20601840650505587
538,0.5134,661.414,264.517,-0.0634685,419.587,0.433047,0.163977,0.265887,-0.0328577,-0.231064,0.515436,-0.000342027,-0.000190929,0.427209,0.30458763195506355,0.6743683672834271,-0.000341968515433555,-0.032323749877489316,-0.0001909107742184002,-0.2063113316650398
539,0.5144,661.524,264.016,0.111355,419.796,0.263537,0.260466,0.266309,-0.0329139,-0.231429,0.516264,-0.000343302,-0.000188939,0.427897,0.3051382841151824,0.6757553184100649,-0.0003432430786112217,-0.032378131754601136,-0.0001889211521511891,-0.20660097516582743
540,0.5154,661.831,264.726,-0.0801958,419.825,0.450834,0.154627,0.266729,-0.0329633,-0.231798,0.517089,-0.000339204,-0.000189566,0.428583,0.305686557323825,0.6771383869850944,-0.00033914647682742327,-0.03242593109423908,-0.00018954803350113014,-0.2068936853976322
541,0.5164,661.919,264.1,0.129385,420.053,0.244917,0.271185,0.26715,-0.0330201,-0.232163,0.517917,-0.000341028,-0.000187319,0.42927,0.30623636709129376,0.678527632637848,-0.00034096985656129064,-0.03248088774056945,-0.00018730145689149769,-0.20718311637809483
542,0.5174,662.249,264.946,-0.100716,420.061,0.471997,0.143274,0.267569,-0.0330686,-0.232532,0.518741,-0.000336331,-0.000188231,0.429955,0.3067837948072025,0.6799113094036788,-0.0003362744470695178,-0.03252781127960902,-0.00018821328565676865,-0.20747561183941987
543,0.5184,662.309,264.171,0.15136,420.31,0.222591,0.284042,0.267989,-0.0331262,-0.232895,0.519567,-0.000338812,-0.000185673,0.430641,0.30733275927549,0.6812994893846516,-0.00033875460969601257,-0.032583536072789854,-0.0001856557638353351,-0.20776324598356655
544,0.5194,662.667,265.179,-0.125646,420.294,0.497135,0.129585,0.268408,-0.0331738,-0.233264,0.52039,-0.000333399,-0.000186926,0.431325,0.30788064647597935,0.6826837684171028,-0.0003333434287293713,-0.032629584000523404,-0.00018690853042380162,-0.20805552741655775
545,0.5204,662.696,264.226,0.177895,420.569,0.195925,0.2994,0.268828,-0.0332324,-0.233626,0.521215,-0.000336662,-0.000183996,0.43201,0.30843007171872383,0.6840725553218747,-0.00033660533570800677,-0.0326862702459777,-0.00018397907377409872,-0.208342159432108
546,0.5214,662.924,264.575,0.0712026,420.648,0.285103,0.245296,0.269247,-0.0332838,-0.233992,0.522038,-0.000334423,-0.000183804,0.432694,0.30897841878946286,0.6854591175269888,-0.0003343670868616311,-0.03273598889390694,-0.00018378710907973606,-0.20863185318456534
547,0.5224,663.193,264.925,0.0299125,420.736,0.360627,0.213186,0.269665,-0.0333352,-0.234358,0.52286,-0.000332109,-0.000183416,0.433378,0.30952568613942444,0.6868451344965281,-0.00033205385791057473,-0.03278570498636324,-0.00018339918031384794,-0.20892144092850995
548,0.5234,663.358,264.892,0.0329753,420.869,0.334034,0.223318,0.270084,-0.0333884,-0.234723,0.523683,-0.000331258,-0.000182535,0.434061,0.31007449236879303,0.6882339794735346,-0.0003312031401264681,-0.0328371594181579,-0.00018251834150051494,-0.20921013191326132
549,0.5244,663.604,265.141,0.00900972,420.969,0.381142,0.202031,0.270502,-0.0334402,-0.235088,0.524504,-0.000329262,-0.000182057,0.434743,0.3106222179732794,0.6896205886958822,-0.00032920779921663534,-0.032887257155757466,-0.0001820404286300148,-0.20949871754503124
550,0.5254,663.761,265.046,0.0358154,421.111,0.335323,0.223242,0.27092,-0.0334937,-0.235452,0.525326,-0.000328666,-0.000181049,0.435426,0.31117017257492563,0.6910100278010272,-0.0003286119952469191,-0.032938996303465085,-0.00018103261161883655,-0.20978640764906942
551,0.5264,664.004,265.306,0.000664592,421.207,0.386915,0.197922,0.271337,-0.0335453,-0.235817,0.526146,-0.000326593,-0.00018063,0.436107,0.31171704455177185,0.6923972246968222,-0.0003265396743116211,-0.03298889536384897,-0.00018061368738375716,-0.2100747829785783
552,0.5274,664.159,265.179,0.0424039,421.355,0.330806,0.22607,0.271755,-0.0335989,-0.23618,0.526966,-0.000326151,-0.000179535,0.436789,0.31226545688658747,0.6937855595605746,-0.0003260978185445351,-0.033040725769990176,-0.00017951888455636222,-0.21036147379482584
553,0.5284,664.403,265.469,-0.00682718,421.445,0.391862,0.1944,0.272171,-0.0336503,-0.236545,0.527785,-0.000323939,-0.000179202,0.437469,0.3128114728801046,0.6951733381516154,-0.0003238865374272093,-0.033090426199373635,-0.0001791859442806798,-0.21064963926349345
554,0.5294,664.554,265.307,0.0497169,421.598,0.324986,0.229563,0.272588,-0.0337041,-0.236907,0.528605,-0.000323661,-0.000178017,0.43815,0.31335902942189997,0.6965639503619854,-0.0003236086274289729,-0.03314244453513837,-0.00017800115591404264,-0.2109353323805061
555,0.5304,664.801,265.633,-0.0147066,421.682,0.397612,0.190575,0.273005,-0.0337552,-0.237272,0.529423,-0.000321277,-0.00017778,0.43883,0.3139068143423871,0.6979523074340086,-0.0003212253960711564,-0.03319184969391009,-0.00017776419807224997,-0.2112232884290114
556,0.5314,664.946,265.43,0.057687,421.841,0.318214,0.233582,0.273421,-0.0338091,-0.237634,0.530241,-0.00032119,-0.000176494,0.439509,0.31445351328264914,0.6993418006467351,-0.0003211384240140447,-0.03324395924884638,-0.00017647842585022389,-0.21150877392260814
557,0.5324,665.198,265.8,-0.023333,421.917,0.404439,0.186273,0.273837,-0.0338599,-0.237997,0.531058,-0.000318605,-0.000176366,0.440188,0.31500043969698144,0.7007307301983274,-0.00031855425081672717,-0.0332930692083131,-0.0001763504484313394,-0.21179494429460932
558,0.5334,665.336,265.549,0.0665269,422.084,0.31039,0.238204,0.274252,-0.0339141,-0.238359,0.531876,-0.000318741,-0.000174967,0.440867,0.3155462781330971,0.7021224970906832,-0.00031869020748420684,-0.03334546330406918,-0.00017495169416714695,-0.2120802228862343
559,0.5344,665.595,265.972,-0.0329659,422.151,0.412499,0.181373,0.274668,-0.0339645,-0.238722,0.532691,-0.000315919,-0.000174963,0.441545,0.31609365923217525,0.7035102923755734,-0.0003158691028473104,-0.03339418146501061,-0.00017494769486692263,-0.21236618585990674
560,0.5354,665.724,265.663,0.0764787,422.326,0.301352,0.243531,0.275083,-0.0340189,-0.239083,0.533508,-0.000316315,-0.000173433,0.442223,0.31663995144855095,0.7049026289764981,-0.000316264977684777,-0.033446763391297596,-0.0001734179613667175,-0.21265047035037343
561,0.5364,665.991,266.147,-0.0438596,422.383,0.421951,0.175757,0.275497,-0.0340689,-0.239446,0.534322,-0.000313217,-0.00017357,0.4429,0.3171851532374339,0.7062909847006049,-0.0003131679526764408,-0.03349508984495664,-0.00017355493759907414,-0.21293622636178244
562,0.5374,666.109,265.772,0.0877916,422.568,0.290918,0.249677,0.275912,-0.0341237,-0.239806,0.535138,-0.000313915,-0.000171891,0.443577,0.31773189851782613,0.7076838863707127,-0.00031386573384162286,-0.03354805286283313,-0.00017187622758851884,-0.21321951832467934
563,0.5384,666.387,266.326,-0.056277,422.613,0.432974,0.1693,0.276326,-0.0341732,-0.240169,0.535951,-0.000310496,-0.000172191,0.444254,0.31827755246638634,0.7090727978863609,-0.00031044780110567327,-0.033595891050211546,-0.00017217617598064283,-0.21350506780916045
564,0.5394,666.492,265.874,0.100724,422.81,0.278888,0.256764,0.27674,-0.0342284,-0.240529,0.536766,-0.000311544,-0.000170339,0.44493,0.31882343236244903,0.7104662599753084,-0.0003114954752073684,-0.03364923508471662,-0.00017032449313625353,-0.2137881550259928
565,0.5404,666.782,266.512,-0.0704947,422.842,0.445767,0.161866,0.277154,-0.0342774,-0.240891,0.537578,-0.000307753,-0.000170826,0.445605,0.31936953829957604,0.7118557226238993,-0.0003077056489031449,-0.033696585112112376,-0.00017081141006969336,-0.2140727122059164
566,0.5414,666.872,265.969,0.115546,423.052,0.265041,0.264925,0.277568,-0.0343329,-0.24125,0.538392,-0.000309204,-0.000168775,0.446281,0.3199158703713678,0.7132497404704061,-0.00030915620136984234,-0.033750213463438095,-0.0001687607583009676,-0.2143548094627471
567,0.5424,667.177,266.703,-0.0868078,423.068,0.46055,0.15331,0.27798,-0.0343813,-0.241613,0.539203,-0.000304983,-0.000169477,0.446955,0.32045978774924677,0.7146397495824359,-0.00030493649741247797,-0.03379697882137567,-0.00016946263958450558,-0.21463994691133415
568,0.5434,667.25,266.057,0.132546,423.295,0.249134,0.274307,0.278394,-0.0344374,-0.24197,0.540016,-0.000306899,-0.000167197,0.44763,0.32100657127775545,0.7160343185143037,-0.00030685191131918366,-0.03385118129047038,-0.00016718302336060642,-0.21492027040956518
569,0.5444,667.571,266.901,-0.105534,423.293,0.47757,0.143477,0.278806,-0.0344852,-0.242333,0.540825,-0.000302183,-0.000168146,0.448303,0.32155093811699054,0.7174231519853735,-0.0003021373473158784,-0.0338973621002745,-0.00016813186425368443,-0.21520520263307907
570,0.5454,667.625,266.137,0.15203,423.537,0.230906,0.285067,0.279219,-0.0345419,-0.24269,0.541638,-0.000304633,-0.000165604,0.448977,0.32209685137776156,0.718819984743515,-0.00030458660407906013,-0.033952138566915924,-0.00016559028841445222,-0.21548532437103374
571,0.5464,667.965,267.107,-0.127016,423.516,0.497093,0.132194,0.27963,-0.0345888,-0.243052,0.542446,-0.00029935,-0.000166835,0.44965,0.3226403448639388,0.7202093525201807,-0.0002993051992592477,-0.03399744514916947,-0.00016682108381527172,-0.21576926728684298
572,0.5474,667.997,266.207,0.174324,423.781,0.210069,0.297379,0.280043,-0.0346462,-0.243408,0.543257,-0.00030241,-0.000163993,0.450322,0.3231867081426185,0.7216050081669434,-0.0003023642787048919,-0.03405289210447504,-0.00016397955388303131,-0.21604840373845247
573,0.5484,668.36,267.321,-0.151628,423.736,0.519413,0.11928,0.280454,-0.0346923,-0.24377,0.544064,-0.000296478,-0.000165546,0.450994,0.3237306496519883,0.722994904156135,-0.00029643405474077955,-0.034097421239744574,-0.00016553229801707925,-0.21633214285642022
574,0.5494,668.48,267.051,-0.0834897,423.895,0.420635,0.164232,0.280865,-0.0347457,-0.244128,0.544873,-0.000296352,-0.000164437,0.451666,0.3242748147672665,0.7243893710193892,-0.0002963080920835859,-0.034148999060310326,-0.0001644234809775602,-0.21661264573626626
575,0.5504,668.679,266.948,0.0333023,424.046,0.358518,0.212743,0.281276,-0.0347987,-0.244486,0.545682,-0.000295912,-0.000163131,0.452337,0.32481920358037364,0.7257849664627849,-0.0002958682223623832,-0.034200187806846416,-0.00016311769486188066,-0.2168930482140543
576,0.5514,668.845,267.037,-0.0203982,424.151,0.371864,0.196538,0.281687,-0.0348502,-0.244845,0.546489,-0.000294435,-0.000162645,0.453008,0.3253638161832688,0.7271782370397843,-0.0002943916582692774,-0.034249925216425,-0.00016263177401909523,-0.2171741331519803
577,0.5524,669.045,267.022,0.0474247,424.285,0.340226,0.22301,0.282098,-0.0349026,-0.245202,0.547296,-0.000293649,-0.000161576,0.453679,0.3259086526679482,0.7285726324399444,-0.0002936058893523441,-0.03430052919450788,-0.0001615629473010749,-0.21745355210719386
578,0.5534,669.227,267.169,-0.0120403,424.383,0.369284,0.199909,0.282508,-0.0349539,-0.24556,0.548102,-0.000291969,-0.000161159,0.454349,0.32645238667339616,0.7299664236040755,-0.0002919263811994588,-0.03435006830667109,-0.00016114601458594446,-0.21773365359438168
579,0.5544,669.417,267.145,0.0472531,424.516,0.336858,0.2247,0.282918,-0.0350063,-0.245917,0.548909,-0.000291208,-0.000160111,0.455018,0.3269963436554937,0.7313630699789391,-0.00029116560306585715,-0.03440066703739353,-0.00016009818291795597,-0.21801287283644832
580,0.5554,669.608,267.317,-0.0105166,424.611,0.371876,0.200002,0.283328,-0.0350574,-0.246275,0.549714,-0.00028944,-0.000159709,0.455687,0.3275405237056799,0.7327573783841097,-0.00028939811628425627,-0.03445000790263808,-0.00015969624719658349,-0.21829277412265313
581,0.5564,669.79,267.272,0.0469825,424.746,0.334747,0.225939,0.283737,-0.0351098,-0.246632,0.550519,-0.000288752,-0.000158648,0.456356,0.3280835988311681,0.734152809659441,-0.00028871031515353973,-0.03450060139666289,-0.00015863541607152865,-0.21857179379431657
582,0.5574,669.988,267.466,-0.0108637,424.838,0.375186,0.199373,0.284146,-0.0351607,-0.246989,0.551323,-0.000286901,-0.000158269,0.457024,0.328626896119812,0.7355476291607106,-0.0002868598478437123,-0.034549744065360266,-0.00015825647612255356,-0.21885071387373545
583,0.5584,670.162,267.398,0.0477935,424.976,0.332433,0.227436,0.284555,-0.0352131,-0.247345,0.552127,-0.000286299,-0.000157183,0.457692,0.3291704156624946,0.7369435705477969,-0.0002862580203522036,-0.03460033233334703,-0.00015717064739950715,-0.21912875352560202
584,0.5594,670.366,267.615,-0.0123847,425.064,0.378804,0.198315,0.284964,-0.0352639,-0.247702,0.55293,-0.000284358,-0.000156835,0.458359,0.3297141575501368,0.7383388963832933,-0.00028431757409586034,-0.03464937339081109,-0.00015682270203432047,-0.21940747480588452
585,0.5604,670.533,267.524,0.0496233,425.204,0.32974,0.229245,0.285372,-0.0353164,-0.248058,0.553733,-0.000283852,-0.000155713,0.459026,0.33025679161623933,0.7397353431154152,-0.00028381171783253833,-0.03470005296835754,-0.00015570087736005433,-0.21968531628613586
586,0.5614,670.742,267.765,-0.0148707,425.289,0.382724,0.196886,0.28578,-0.0353669,-0.248414,0.554535,-0.00028181,-0.000155406,0.459693,0.33079964712221144,0.7411311705125632,-0.00028177029529175,-0.034748799384825224,-0.0001553939251131009,-0.2199630588724243
587,0.5624,670.903,267.648,0.0523478,425.432,0.326629,0.23136,0.286188,-0.0354195,-0.248769,0.555338,-0.000281411,-0.000154241,0.460359,0.33134272415841926,0.7425298603412935,-0.00028137140763850876,-0.03479957026269176,-0.00015422910546847302,-0.22023992284026261
588,0.5634,671.117,267.915,-0.018207,425.513,0.386984,0.195108,0.286596,-0.0354699,-0.249125,0.556139,-0.000279257,-0.000153983,0.461024,0.33188602281526514,0.7439261859131616,-0.0002792180113933007,-0.03484821513848946,-0.00015397114522630595,-0.22051746802175787
589,0.5644,671.271,267.77,0.0558797,425.66,0.323068,0.233777,0.287003,-0.0355226,-0.24948,0.55694,-0.000278977,-0.000152766,0.46169,0.33242821075431217,0.745323630389874,-0.0002789380895351634,-0.034899077297322,-0.0001527543318687874,-0.22079413520927882
590,0.5654,671.49,268.065,-0.0223252,425.736,0.391626,0.192987,0.28741,-0.0355727,-0.249836,0.55774,-0.0002767,-0.000152565,0.462355,0.33297061940876294,0.7467204479467118,-0.0002766617220856249,-0.03494742764236314,-0.0001525533625522657,-0.22107148312628588
591,0.5664,671.638,267.891,0.0601666,425.887,0.319028,0.236499,0.287817,-0.0356255,-0.25019,0.55854,-0.000276551,-0.000151287,0.463019,0.3335132488684669,0.7481183834046958,-0.00027651276329709873,-0.03499838107300113,-0.00015127555669891546,-0.22134717502091483
592,0.5674,671.863,268.217,-0.0271886,425.958,0.396692,0.190523,0.288224,-0.0356754,-0.250545,0.559339,-0.000274137,-0.000151153,0.463683,0.3340560992233099,0.749515688141942,-0.00027409942788603203,-0.03504653345237374,-0.00015114157696083375,-0.2216235477147268
593,0.5684,672.004,268.01,0.065183,426.113,0.314479,0.239536,0.28863,-0.0357283,-0.250898,0.560138,-0.000274134,-0.000149806,0.464347,0.3345978359647117,0.7509141097718124,-0.00027409642870823703,-0.03509757814061021,-0.0001497947796414989,-0.2218982661117337
594,0.5694,672.234,268.369,-0.0327839,426.178,0.402222,0.187709,0.289036,-0.035778,-0.251253,0.560936,-0.000271568,-0.000149746,0.46501,0.33513979269588523,0.7523118968742877,-0.00027153112874844787,-0.035145532599298424,-0.00014973478862734257,-0.2221744432029299
595,0.5704,672.369,268.126,0.0709234,426.339,0.309388,0.242903,0.289442,-0.035831,-0.251606,0.561734,-0.000271726,-0.000148322,0.465672,0.3356819695061648,0.7537107998560475,-0.00027168908583408147,-0.0351966685309566,-0.00014831100083601,-0.22244896716814877
596,0.5714,672.604,268.523,-0.0391151,426.398,0.408258,0.184534,0.289847,-0.0358804,-0.251961,0.562531,-0.000268993,-0.000148346,0.466335,0.33622303026122213,0.7551090644979768,-0.00026895682462668713,-0.035244328638316835,-0.00014833499727617827,-0.2227249487951668
597,0.5724,672.731,268.241,0.0773965,426.564,0.303722,0.246615,0.290253,-0.0359336,-0.252313,0.563328,-0.000269328,-0.000146835,0.466997,0.33676564695524336,0.7565084440010388,-0.0002692917344701007,-0.03529565227481235,-0.0001468242202690151,-0.22299850146509648
598,0.5734,672.973,268.678,-0.0461989,426.616,0.414838,0.180984,0.290658,-0.0359827,-0.252667,0.564124,-0.000266411,-0.000146951,0.467658,0.33730714668855466,0.7579071813460716,-0.0002663755157407133,-0.03534301809544527,-0.00014694020323069434,-0.2232735113159623
599,0.5744,673.093,268.353,0.0846216,426.789,0.29745,0.250692,0.291063,-0.0360361,-0.253019,0.56492,-0.000266941,-0.000145344,0.468319,0.33784886577367357,0.7593070325292801,-0.00026690537442131124,-0.035394529402914876,-0.00014533343807254795,-0.22354687092586523
600,0.5754,673.34,268.835,-0.0540608,426.833,0.422003,0.177042,0.291467,-0.0360849,-0.253373,0.565715,-0.000263822,-0.000145563,0.46898,0.33838946590932073,0.760706237730514,-0.0002637872020363474,-0.03544160100132365,-0.00014555240622049492,-0.22382168668829772
601,0.5764,673.453,268.462,0.0926248,427.014,0.290537,0.255153,0.291871,-0.0361385,-0.253724,0.56651,-0.000264566,-0.00014385,0.46964,0.33893028449154583,0.7621065557421662,-0.00026453100550205555,-0.03549329994596584,-0.0001438396540848208,-0.22409407746889154
602,0.5774,673.707,268.993,-0.0627326,427.049,0.429789,0.172691,0.292275,-0.036187,-0.254078,0.567304,-0.000261225,-0.000144181,0.4703,0.33947132160861915,0.7635062239421677,-0.0002611908837204524,-0.0355400773865564,-0.00014417060641913615,-0.22436869955449046
603,0.5784,673.811,268.569,0.101437,427.238,0.282951,0.26002,0.292679,-0.0362408,-0.254428,0.568099,-0.000262202,-0.000142352,0.470959,0.34001257734884693,0.7649087688279235,-0.0002621676280597507,-0.035591963934632376,-0.00014234186843475882,-0.22464012300777125
604,0.5794,674.073,269.152,-0.0722501,427.264,0.438232,0.16791,0.293082,-0.0362889,-0.254782,0.568891,-0.00025862,-0.000142806,0.471618,0.34055271124718867,0.7663071302508635,-0.00025858656073052266,-0.03563835084555289,-0.00014279580370857303,-0.22491455182745956
605,0.5804,674.167,268.673,0.111092,427.461,0.274661,0.265313,0.293486,-0.036343,-0.255131,0.569685,-0.000259851,-0.000140851,0.472277,0.34109440395709223,0.7677101350314719,-0.00025981724165302644,-0.03569052139954598,-0.00014084108096357184,-0.2251850094512713
606,0.5814,674.438,269.314,-0.0826512,427.478,0.447367,0.162683,0.293888,-0.0363907,-0.255485,0.570476,-0.000256007,-0.000141438,0.472935,0.341633632285115,0.7691089469054437,-0.0002559742330042747,-0.03573651786465082,-0.00014142799811767137,-0.22545924541529605
607,0.5824,674.522,268.774,0.121624,427.685,0.265637,0.271052,0.294291,-0.0364451,-0.255834,0.571269,-0.000257513,-0.000139345,0.473592,0.34217441960025097,0.7705124066986009,-0.00025747984637325416,-0.03578897237130341,-0.00013933529193643768,-0.22572951297421384
608,0.5834,674.802,269.478,-0.0939744,427.691,0.457226,0.15699,0.294693,-0.0364924,-0.256187,0.572059,-0.000253385,-0.000140078,0.47425,0.3427140821818415,0.7719116641338064,-0.00025335290073214,-0.03583457847431748,-0.00014006818953504752,-0.22600278222127423
609,0.5844,674.876,268.872,0.133066,427.908,0.25585,0.277257,0.295096,-0.0365471,-0.256535,0.572851,-0.000255188,-0.000137835,0.474907,0.34325530500603496,0.7733155740467408,-0.0002551554423118052,-0.03588731688046631,-0.0001378255011927898,-0.22627208639141783
610,0.5854,675.166,269.643,-0.106258,427.902,0.467836,0.150814,0.295497,-0.0365939,-0.256888,0.57364,-0.000250753,-0.000138725,0.475563,0.3437940583961778,0.7747152721429509,-0.00025072156409411406,-0.03593243629823373,-0.00013871537813214818,-0.2265451641438626
611,0.5864,675.228,268.967,0.145451,428.13,0.245276,0.283946,0.2959,-0.036649,-0.257236,0.574431,-0.000252878,-0.00013632,0.476219,0.34433571653849615,0.7761196272724464,-0.0002528460290535106,-0.03598555495756117,-0.00013631070885100627,-0.22681427959793565
612,0.5874,675.528,269.81,-0.119537,428.112,0.479225,0.144138,0.2963,-0.0366953,-0.257588,0.575219,-0.000248112,-0.00013738,0.476875,0.34487355838631006,0.7775197611190223,-0.0002480812227632079,-0.036030187793108515,-0.00013737056379992119,-0.22708639307673528
613,0.5884,675.578,269.059,0.158809,428.353,0.233893,0.291135,0.296702,-0.0367507,-0.257935,0.576009,-0.000250582,-0.0001348,0.47753,0.3454143062398176,0.7789245565514411,-0.0002505506069528929,-0.036083590241443364,-0.00013479091488821648,-0.22735454757084228
614,0.5894,675.89,269.98,-0.133846,428.321,0.491412,0.13695,0.297102,-0.0367966,-0.258288,0.576796,-0.000245461,-0.000136042,0.478185,0.3459525796098104,0.7803251212273581,-0.0002454308769134217,-0.03612783298927236,-0.00013603274670670462,-0.22762724328192507
615,0.5904,675.926,269.148,0.173163,428.575,0.221681,0.298836,0.297504,-0.0368524,-0.258634,0.577586,-0.000248301,-0.000133276,0.478839,0.3464937613170487,0.7817321337699057,-0.0002482701758579342,-0.03618161555564403,-0.00013326711914840583,-0.2278944380283927
616,0.5914,676.25,270.152,-0.149215,428.529,0.504416,0.129237,0.297903,-0.0368978,-0.258986,0.578371,-0.0002428,-0.000134713,0.479493,0.3470311195236475,0.7831313426125335,-0.00024277052646548558,-0.03622537191702091,-0.00013470392661130148,-0.22816617135833483
617,0.5924,676.273,269.234,0.188536,428.796,0.208628,0.307063,0.298304,-0.036954,-0.259332,0.57916,-0.000246035,-0.000131746,0.480147,0.3475713873190298,0.7845387884062067,-0.0002460047358714412,-0.03627953452913546,-0.00013173732187687914,-0.22843317966794363
618,0.5934,676.61,270.326,-0.165666,428.735,0.518248,0.120989,0.298703,-0.0369988,-0.259684,0.579944,-0.000240129,-0.000133392,0.4808,0.3481091755841943,0.7859384153984075,-0.00024010017133924144,-0.03632270823889028,-0.000133383103682716,-0.2287047233942009
619,0.5944,676.618,269.316,0.204942,429.018,0.194724,0.315823,0.299104,-0.0370555,-0.260028,0.580732,-0.000243784,-0.000130212,0.481453,0.34864987576674467,0.7873462894992862,-0.0002437542870952214,-0.03637734719230412,-0.00013020352278547698,-0.22897000333858675
620,0.5954,676.827,269.694,0.0762581,429.072,0.296909,0.251793,0.299503,-0.0371045,-0.260378,0.581517,-0.000241369,-0.00013016,0.482105,0.3491880944346595,0.7887499071844057,-0.00024133987284646885,-0.036424563545481625,-0.00013015152955475617,-0.22923981661734016
621,0.5964,677.055,269.984,0.031253,429.147,0.360153,0.222309,0.299902,-0.0371539,-0.260726,0.582301,-0.000239276,-0.000129759,0.482757,0.34972652789467085,0.7901528369882616,-0.0002392473757809599,-0.036472162996326385,-0.00012975058166508902,-0.22950799449550008
622,0.5974,677.21,269.998,0.0278632,429.259,0.348496,0.225906,0.300301,-0.0372047,-0.261074,0.583086,-0.000238244,-0.00012899,0.483409,0.3502651762324982,0.7915586586781187,-0.00023821562215187164,-0.03652110896720795,-0.00012898168114761077,-0.22977607906399522
623,0.5984,677.413,270.169,0.0100907,429.35,0.377708,0.211735,0.300699,-0.0372546,-0.261422,0.58387,-0.000236563,-0.000128446,0.48406,0.35080268873053044,0.7929637914065792,-0.00023653502117981784,-0.036569185364354384,-0.0001284377511657775,-0.23004407035529173
624,0.5994,677.565,270.142,0.0269071,429.469,0.352536,0.223904,0.301098,-0.0373056,-0.261769,0.584653,-0.000235703,-0.000127584,0.484711,0.3513417665422056,0.7943682318219192,-0.00023567522423018072,-0.03661831908298041,-0.00012757586150757838,-0.23031119871342787
625,0.6004,677.762,270.305,0.0049205,429.56,0.379994,0.209391,0.301496,-0.0373554,-0.262116,0.585436,-0.000234042,-0.000127053,0.485361,0.35187970760846055,0.7957737723447402,-0.0002340146143076094,-0.03666629429609736,-0.0001270449291094211,-0.2305782343941043
626,0.6014,677.915,270.269,0.0295155,429.68,0.351534,0.224555,0.301894,-0.0374064,-0.262462,0.586219,-0.000233231,-0.000126154,0.486011,0.3524178628178716,0.7971804138367642,-0.00023320380376468108,-0.03671542306229403,-0.00012614604291871778,-0.23084440827426722
627,0.6024,678.11,270.435,0.00181126,429.77,0.380804,0.208141,0.302291,-0.0374562,-0.262809,0.587,-0.000231545,-0.00012565,0.48666,0.3529548793001287,0.7985845599876695,-0.0002315181955253598,-0.03676339343975321,-0.00012564210636933915,-0.23111125896332396
628,0.6034,678.263,270.393,0.032004,429.891,0.350038,0.225416,0.302689,-0.0375071,-0.263156,0.587782,-0.000230771,-0.000124725,0.48731,0.35349346251304015,0.799991603195771,-0.00023074437442094364,-0.03681242093526682,-0.00012471722216056413,-0.23137801707125527
629,0.6044,678.456,270.564,-0.000708492,429.979,0.381596,0.207096,0.303086,-0.0375568,-0.263502,0.588563,-0.000229054,-0.000124248,0.487958,0.3540309060931497,0.801397945743147,-0.00022902776913535927,-0.03686029016838599,-0.00012424028153690259,-0.23164391427447972
630,0.6054,678.61,270.516,0.0341854,430.101,0.348508,0.226282,0.303483,-0.0376077,-0.263848,0.589344,-0.000228317,-0.0001233,0.488607,0.35456856308071893,0.8028053870730714,-0.00022829093765730502,-0.036909312731981614,-0.00012329239886743615,-0.23190971949318617
631,0.6064,678.802,270.694,-0.00293932,430.187,0.382498,0.206141,0.303879,-0.0376573,-0.264194,0.590124,-0.000226567,-0.000122847,0.489254,0.3551050784547318,0.8042121238310025,-0.0002265413356354884,-0.03695708084541105,-0.00012283945461621926,-0.2321754327591956
632,0.6074,678.955,270.638,0.036158,430.311,0.346983,0.227154,0.304276,-0.0377082,-0.264539,0.590903,-0.000225869,-0.000121876,0.489902,0.3556431619733895,0.8056181526525898,-0.00022584349351784105,-0.037006098482486594,-0.00012186857342200152,-0.23244028654498872
633,0.6084,679.147,270.824,-0.00500601,430.395,0.38351,0.205237,0.304672,-0.0377577,-0.264885,0.591682,-0.000224083,-0.000121447,0.490549,0.3561801029728322,0.8070252771973581,-0.00022405789527979447,-0.03705376550084327,-0.00012143962561161903,-0.2327058162665533
634,0.6094,679.299,270.76,0.0380094,430.52,0.345464,0.228043,0.305068,-0.0378086,-0.265229,0.592461,-0.000223426,-0.000120455,0.491196,0.35671725664301657,0.8084334983192079,-0.00022340104227003277,-0.037102778216795085,-0.0001204477455877262,-0.23296972007170058
635,0.6104,679.491,270.953,-0.00698334,430.602,0.384617,0.204363,0.305464,-0.037858,-0.265575,0.593239,-0.000221603,-0.00012005,0.491842,0.357254623068177,0.8098410070307938,-0.00022157844786885317,-0.03715034416466256,-0.00012004279428712294,-0.23323506664095217
636,0.6114,679.641,270.881,0.0397984,430.728,0.343947,0.228956,0.305859,-0.0379089,-0.265919,0.594017,-0.000220988,-0.000119036,0.492488,0.35779084454105803,0.8112496112102392,-0.00022096358395051752,-0.03719935196488555,-0.00011902891549642192,-0.23349878841528182
637,0.6124,679.834,271.082,-0.00891841,430.808,0.385809,0.203505,0.306254,-0.0379582,-0.266264,0.594794,-0.000219126,-0.000118654,0.493134,0.358327277863258,0.8126574990517441,-0.00021910199365160477,-0.03724681686681419,-0.00011864696089258775,-0.23376318572212063
638,0.6134,679.982,271.001,0.0415618,430.935,0.342432,0.229896,0.306649,-0.0380091,-0.266608,0.595571,-0.000218554,-0.000117619,0.493779,0.3588639231184745,0.8140664812472032,-0.0002185301188143418,-0.0372958197567016,-0.0001176120831566374,-0.2340267258547306
639,0.6144,680.176,271.211,-0.0108402,431.013,0.387073,0.202655,0.307044,-0.0380583,-0.266952,0.596347,-0.000216652,-0.00011726,0.494423,0.3594007803904371,0.8154747431716092,-0.00021662853265025372,-0.037343183637208566,-0.00011725312531496446,-0.2342901753451262
640,0.6154,680.322,271.121,0.0433219,431.142,0.340916,0.230863,0.307438,-0.0381091,-0.267295,0.597123,-0.000216124,-0.000116203,0.495068,0.35993648982573956,0.816884098331389,-0.00021610064689070452,-0.0373920853613654,-0.00011619624869285694,-0.23455276877763465
641,0.6164,680.516,271.34,-0.0127653,431.218,0.388398,0.201808,0.307832,-0.0381582,-0.267639,0.597898,-0.000214181,-0.000115868,0.495712,0.3604724103721457,0.8182927292815843,-0.00021415806488711553,-0.037439348249660775,-0.00011586128756257974,-0.23481603734038625
642,0.6174,680.661,271.24,0.0450907,431.348,0.3394,0.231856,0.308226,-0.0382091,-0.267982,0.598673,-0.000213698,-0.000114788,0.496355,0.3610085421128497,0.8197024523439045,-0.0002136751682088045,-0.03748834133995016,-0.00011478141210963244,-0.23507845043316034
643,0.6184,680.856,271.468,-0.0147022,431.422,0.389774,0.200961,0.30862,-0.038258,-0.268326,0.599447,-0.000211714,-0.000114477,0.496998,0.3615448851310785,0.821111447252707,-0.00021169159017264683,-0.0375354070092937,-0.00011447044775825255,-0.23534153819252235
644,0.6194,680.999,271.359,0.0468736,431.554,0.337886,0.232871,0.309013,-0.0383089,-0.268668,0.600221,-0.000211276,-0.000113375,0.497641,0.36208007742933335,0.8225215331457256,-0.00021125368279761858,-0.037584395210316535,-0.00011336857329757866,-0.23560300667280187
645,0.6204,681.194,271.596,-0.0166535,431.626,0.391191,0.200113,0.309406,-0.0383578,-0.269012,0.600994,-0.000209249,-0.000113089,0.498283,0.36261548009949673,0.8239308869359097,-0.00020922710895487917,-0.037631456182740664,-0.00011308260568010375,-0.23586591401585077
646,0.6214,681.335,271.477,0.0486708,431.758,0.336378,0.233905,0.3098,-0.0384087,-0.269353,0.601767,-0.000208857,-0.000111964,0.498925,0.36315245637603577,0.8253413305777471,-0.00020883519089509583,-0.03768043949498512,-0.0001119577322652443,-0.236126439317083
647,0.6224,681.532,271.723,-0.0186176,431.829,0.392639,0.199266,0.310192,-0.0384574,-0.269696,0.602539,-0.000206788,-0.000111702,0.499567,0.36368691688635124,0.8267510381620671,-0.00020676662083518593,-0.037727303316438365,-0.00011169576156389027,-0.23638840301905395
648,0.6234,681.671,271.595,0.0504795,431.963,0.334878,0.234952,0.310585,-0.0385083,-0.270038,0.603312,-0.000206442,-0.000110554,0.500208,0.3642229511685249,0.8281636626235802,-0.0002064206923165779,-0.03777628175018788,-0.0001105478891317846,-0.23664951353277863
649,0.6244,681.868,271.851,-0.0205906,432.031,0.394108,0.198421,0.310977,-0.0385569,-0.27038,0.604083,-0.000204329,-0.000110316,0.500849,0.36475783139505813,0.8295737203148534,-0.00020430812625160666,-0.03782304468654618,-0.00011030991541383095,-0.236910534761976
650,0.6254,682.005,271.712,0.0522945,432.166,0.333392,0.236008,0.311369,-0.0386078,-0.270721,0.604854,-0.00020403,-0.000109146,0.501489,0.3652929213357414,0.8309848655798122,-0.00020400918729501782,-0.037872018247184,-0.00010914004379203313,-0.23717070390826167
651,0.6264,682.203,271.978,-0.0225661,432.232,0.395589,0.197581,0.311761,-0.0386563,-0.271063,0.605624,-0.000201874,-0.000108932,0.502129,0.3658282210727988,0.8323952668611163,-0.00020185362481517366,-0.03791868032273449,-0.00010892606712509245,-0.23743154692082746
652,0.6274,682.338,271.829,0.0541088,432.369,0.331924,0.237068,0.312152,-0.0387072,-0.271404,0.606395,-0.000201622,-0.000107739,0.502769,0.366362364325439,0.8338085883772994,-0.00020160167565053122,-0.03796764901564231,-0.00010773319636236955,-0.23769153843225543
653,0.6284,682.537,272.104,-0.0245366,432.433,0.397072,0.19675,0.312543,-0.0387556,-0.271746,0.607164,-0.000199422,-0.00010755,0.503408,0.36689671646892674,0.8352193295422181,-0.00019940211675473218,-0.0380142102546388,-0.00010754421670611247,-0.23795220334987
654,0.6294,682.67,271.946,0.0559144,432.571,0.330481,0.238126,0.312934,-0.0388065,-0.272086,0.607933,-0.000199216,-0.000106334,0.504047,0.36743127758495375,0.836631155984328,-0.00019919615781027744,-0.03806317408519688,-0.00010632834674062508,-0.23821125555935985
655,0.6304,682.87,272.23,-0.0264935,432.633,0.398547,0.19593,0.313325,-0.0388548,-0.272427,0.608701,-0.000196974,-0.000106169,0.504685,0.3679660477552449,0.8380422304953792,-0.0001969546018952828,-0.038109634511860224,-0.00010616336427116124,-0.23847098123546961
656,0.6314,683.001,272.062,0.0577022,432.773,0.329069,0.239176,0.313716,-0.0389057,-0.272767,0.60947,-0.000196812,-0.00010493,0.505323,0.36850102706155585,0.8394562285832128,-0.0001967926337888004,-0.038158593485447034,-0.00010492449504007073,-0.23872985709046035
657,0.6324,683.202,272.355,-0.0284274,432.833,0.400006,0.195127,0.314106,-0.0389539,-0.273108,0.610237,-0.000194528,-0.000104789,0.505961,0.36903484655014385,0.8408676327148279,-0.00019450908065543615,-0.03820495312396477,-0.00010478350982445761,-0.2389894059535963
658,0.6334,683.331,272.178,0.0594627,432.973,0.327695,0.240214,0.314496,-0.0390047,-0.273447,0.611005,-0.000194412,-0.000103528,0.506598,0.3695688742689349,0.8422819620897157,-0.00019439310321178738,-0.038253811071343735,-0.00010352264116153531,-0.2392473448218696
659,0.6344,683.533,272.48,-0.0303283,433.032,0.401438,0.194345,0.314886,-0.0390528,-0.273787,0.611771,-0.000192087,-0.00010341,0.507235,0.3701031102991541,0.843693690695704,-0.00019206855247344556,-0.038300069950496285,-0.00010340465337022042,-0.2395059567581097
660,0.6354,683.66,272.294,0.0611858,433.174,0.326366,0.241233,0.315275,-0.0391037,-0.274126,0.612538,-0.000192013,-0.000102128,0.507871,0.37063618408518995,0.8451083462075044,-0.0001919945666837286,-0.03834901923116596,-0.0001021227851133455,-0.23976372054533823
661,0.6364,683.862,272.605,-0.032186,433.23,0.402834,0.193589,0.315665,-0.0391517,-0.274466,0.613304,-0.000189648,-0.000102033,0.508507,0.3711708364474169,0.8465222406531376,-0.0001896300179548005,-0.03839517737043874,-0.00010202779481049973,-0.24002215694367557
662,0.6374,683.988,272.41,0.0628612,433.373,0.32509,0.242227,0.316054,-0.0392025,-0.274804,0.61407,-0.000189617,-0.000100729,0.509143,0.37170432565971945,0.8479372185568279,-0.00018959902383286487,-0.03844402565467142,-0.00010072392700466448,-0.24027898604806486
663,0.6384,684.191,272.729,-0.0339901,433.427,0.404186,0.192862,0.316443,-0.0392504,-0.275144,0.614834,-0.000187214,-0.000100656,0.509778,0.37223802243969484,0.8493495820459589,-0.00018719647655263127,-0.03849008308275825,-0.00010065093435485117,-0.2405372472859102
664,0.6394,684.315,272.525,0.0644787,433.572,0.323873,0.243191,0.316831,-0.0393013,-0.275482,0.615599,-0.000187223,-9.93326e-05,0.510413,0.372770554096862,0.8507648757570465,-0.00018720547486783534,-0.03853902269200571,-9.932766668063753e-05,-0.2407939023191834
665,0.6404,684.518,272.852,-0.0357302,433.624,0.405483,0.192171,0.31722,-0.0393491,-0.275821,0.616362,-0.000184783,-9.9281e-05,0.511048,0.37330466572038135,0.8521775482232603,-0.000184765928673003,-0.03858497942834638,-9.92760718045993e-05,-0.24105122956686442
666,0.6414,684.641,272.641,0.0660278,433.77,0.322723,0.244119,0.317608,-0.0393999,-0.276159,0.617126,-0.000184831,-9.79378e-05,0.511682,0.37383761131544047,0.8535931525621034,-0.00018481391980307293,-0.0386338180708794,-9.793300425020579e-05,-0.24130771090348313
667,0.6424,684.845,272.975,-0.0373957,433.821,0.406719,0.19152,0.317996,-0.0394476,-0.276498,0.617889,-0.000182356,-9.79065e-05,0.512316,0.3743707637335112,0.8550079838269968,-0.00018233937415523815,-0.038679674144081355,-9.790170731505121e-05,-0.24156486399957433
668,0.6434,684.966,272.756,0.0674985,433.968,0.321648,0.245007,0.318383,-0.0394984,-0.276834,0.618652,-0.00018244,-9.65449e-05,0.512949,0.37490274815142155,0.8564238950200853,-0.00018242335883522642,-0.03872850797624494,-9.654023969107861e-05,-0.2418196553979185
669,0.6444,685.17,273.097,-0.0389767,434.017,0.407884,0.190914,0.318771,-0.039546,-0.277173,0.619414,-0.000179933,-9.65328e-05,0.513582,0.3754363139227701,0.8578390291257108,-0.0001799168130286466,-0.03877426341027734,-9.65281408591423e-05,-0.24207663497423937
670,0.6454,685.289,272.871,0.0688807,434.164,0.320653,0.245848,0.319158,-0.0395968,-0.277509,0.620176,-0.000180051,-9.51541e-05,0.514215,0.3759687107884071,0.8592552419744737,-0.00018003479179151682,-0.03882309243742832,-9.51495729921703e-05,-0.24233125444642123
671,0.6464,685.494,273.218,-0.0404633,434.212,0.408971,0.190357,0.319545,-0.0396443,-0.277848,0.620937,-0.000177514,-9.516e-05,0.514847,0.3765013137315043,0.8606706737170853,-0.00017749824532209413,-0.03886874725622702,-9.51554724307746e-05,-0.2425880606200581
672,0.6474,685.612,272.986,0.070165,434.361,0.319746,0.246638,0.319932,-0.0396951,-0.278184,0.621698,-0.000177664,-9.37653e-05,0.515479,0.37703412283182947,0.8620871830132104,-0.000177648218686155,-0.03891757148372055,-9.376090417168026e-05,-0.24284250828208875
673,0.6484,685.817,273.339,-0.041846,434.407,0.409973,0.189854,0.320318,-0.0397425,-0.278522,0.622458,-0.000175099,-9.37878e-05,0.51611,0.3775657606027314,0.8635029071793401,-0.00017508367106477962,-0.03896312571118843,-9.37834020617867e-05,-0.24309838426881158
674,0.6494,685.934,273.1,0.0713424,434.556,0.318934,0.247372,0.320704,-0.0397933,-0.278857,0.623218,-0.000175278,-9.23786e-05,0.516741,0.3780976036254238,0.8649197077048008,-0.0001752626397087953,-0.039011945144378224,-9.237433322850652e-05,-0.24335190384318195
675,0.6504,686.139,273.459,-0.043116,434.601,0.410882,0.189408,0.32109,-0.0398407,-0.279195,0.623977,-0.000172689,-9.24163e-05,0.517372,0.37862965197914944,0.8663357190712841,-0.0001726740901129009,-0.03905749489864063,-9.241202974530349e-05,-0.2436076076832996
676,0.6514,686.255,273.215,0.0724046,434.751,0.31822,0.248047,0.321476,-0.0398914,-0.27953,0.624737,-0.000172894,-9.0994e-05,0.518002,0.3791619057431812,0.867754673352106,-0.0001728790546937642,-0.03910621344862364,-9.098986017153088e-05,-0.24386095669639662
677,0.6524,686.46,273.578,-0.0442653,434.794,0.411694,0.189024,0.321862,-0.0399387,-0.279867,0.625494,-0.000170282,-9.10454e-05,0.518632,0.37969436499682274,0.869169098932371,-0.00017026750284310221,-0.03915166264984549,-9.10412554933071e-05,-0.24411573262183528
678,0.6534,686.575,273.33,0.0733437,434.945,0.317612,0.248658,0.322247,-0.0399894,-0.280201,0.626253,-0.00017051,-8.96117e-05,0.519262,0.3802256495930689,0.8705883368111027,-0.00017049546399616755,-0.039200376425644445,-8.960768499155503e-05,-0.2443681558101205
679,0.6544,686.78,273.697,-0.0452863,434.987,0.412402,0.188706,0.322632,-0.0400366,-0.280538,0.62701,-0.00016788,-8.96751e-05,0.519891,0.38075713877326445,0.8720049082867252,-0.0001678659089413559,-0.039245725097640016,-8.967107930835105e-05,-0.24462276083825563
680,0.6554,686.894,273.445,0.0741529,435.139,0.317113,0.249202,0.323017,-0.0400873,-0.280872,0.627768,-0.000168128,-8.82316e-05,0.52052,0.3812888326161894,0.8734244259364288,-0.0001681138672798843,-0.03929443410459388,-8.822770770688937e-05,-0.24487501470739448
681,0.6564,687.099,273.815,-0.0461726,435.18,0.413002,0.188455,0.323401,-0.0401344,-0.281208,0.628524,-0.000165482,-8.83053e-05,0.521148,0.3818193493806137,0.8748412703021256,-0.00016546830860908468,-0.039339682271144816,-8.830140120175134e-05,-0.24512869408193128
682,0.6574,687.212,273.559,0.0748261,435.331,0.316726,0.249675,0.323786,-0.040185,-0.281542,0.629281,-0.000165746,-8.68537e-05,0.521776,0.38235145225335576,0.876261062467278,-0.00016573226489058346,-0.03938829045342451,-8.684992832663774e-05,-0.2453807789975836
683,0.6584,687.417,273.932,-0.0469183,435.372,0.41349,0.188274,0.32417,-0.040232,-0.281878,0.630036,-0.000163089,-8.6936e-05,0.522404,0.38288237714207574,0.8776781744619029,-0.00016307570171203434,-0.03943343814279421,-8.693222117550636e-05,-0.24563428846386504
684,0.6594,687.529,273.674,0.0753583,435.523,0.316456,0.250076,0.324554,-0.0402827,-0.282211,0.630792,-0.000163366,-8.54782e-05,0.523031,0.3834135059451018,0.8790982358773765,-0.00016335265650169184,-0.03948213763293784,-8.547454684271205e-05,-0.24588545042501908
685,0.6604,687.734,274.048,-0.047519,435.563,0.413863,0.188167,0.324937,-0.0403296,-0.282547,0.631546,-0.0001607,-8.55672e-05,0.523658,0.38394345479660563,0.8805156102302092,-0.0001606870884466316,-0.039527184864317055,-8.55635392315035e-05,-0.24613879035018538
686,0.6614,687.845,273.789,0.0757453,435.715,0.316303,0.250403,0.325321,-0.0403802,-0.28288,0.632301,-0.000160986,-8.41049e-05,0.524285,0.3844749911316925,0.8819359356212995,-0.0001609730424492195,-0.039575783559205546,-8.410136328207418e-05,-0.2463897843401801
687,0.6624,688.049,274.164,-0.0479708,435.754,0.41412,0.188133,0.325704,-0.0404271,-0.283215,0.633054,-0.000158315,-8.41989e-05,0.524911,0.38500534660988683,0.883353567052072,-0.00015830246884163124,-0.0396208263986938,-8.419535537207423e-05,-0.24664220148019456
688,0.6634,688.16,273.904,0.0759841,435.906,0.316271,0.250654,0.326087,-0.0404776,-0.283548,0.633809,-0.000158608,-8.2734e-05,0.525536,0.3855359052531331,0.8847760359096197,-0.00015859542241614122,-0.0396693243223778,-8.273057763696912e-05,-0.24689302786219125
689,0.6644,688.364,274.279,-0.0482714,435.944,0.414258,0.188174,0.32647,-0.0405245,-0.283882,0.634561,-0.000155935,-8.28309e-05,0.526162,0.3860666671392581,0.8861939205464291,-0.00015592284276977342,-0.03971436277490714,-8.282746961574272e-05,-0.24714452358876093
690,0.6654,688.474,274.018,0.0760726,436.096,0.316358,0.250828,0.326853,-0.040575,-0.284214,0.635314,-0.00015623,-8.13654e-05,0.526787,0.3865976323461191,0.8876147594473109,-0.00015621779672903013,-0.0397628559751233,-8.136208992559624e-05,-0.24739443012014983
691,0.6664,688.678,274.393,-0.0484191,436.134,0.414279,0.188291,0.327235,-0.0406218,-0.284549,0.636066,-0.00015356,-8.14634e-05,0.527411,0.387127413823495,0.8890347796070763,-0.0001535482102666963,-0.03980779402190526,-8.146008194731547e-05,-0.24764651076019484
692,0.6674,688.787,274.133,0.07601,436.285,0.316565,0.250926,0.327617,-0.0406722,-0.28488,0.636818,-0.000153853,-7.99991e-05,0.528036,0.38765739771605445,0.8904558680236163,-0.00015384116523409208,-0.03985618648958611,-7.999590015728142e-05,-0.24789549855537985
693,0.6684,688.99,274.507,-0.0484137,436.323,0.414181,0.188484,0.327999,-0.0407189,-0.285214,0.637569,-0.000151188,-8.00964e-05,0.52866,0.3881875841011342,0.8918761336234822,-0.0001511765716702973,-0.03990102415870933,-8.009319236901291e-05,-0.24814665951264758
694,0.6694,689.1,274.248,0.0757965,436.474,0.316891,0.250947,0.32838,-0.0407693,-0.285545,0.63832,-0.000151477,-7.86352e-05,0.529283,0.38871658433882295,0.8932974662434294,-0.0001514655279385435,-0.03994941192770973,-7.863210833369827e-05,-0.2483954817859909
695,0.6704,689.302,274.619,-0.048256,436.512,0.413967,0.188751,0.328762,-0.040816,-0.285879,0.63907,-0.000148822,-7.87298e-05,0.529906,0.3892471754104827,0.894717971966172,-0.0001488109265554982,-0.039994245243306636,-7.872670089059675e-05,-0.2486464757767446
696,0.6714,689.411,274.363,0.0754335,436.662,0.317333,0.250892,0.329143,-0.0408663,-0.28621,0.639821,-0.000149102,-7.72736e-05,0.530529,0.3897765794293757,0.8961414396083149,-0.0001490908848492678,-0.04004253231834076,-7.727061447226902e-05,-0.24889513263828167
697,0.6724,689.612,274.731,-0.0479479,436.7,0.413639,0.189092,0.329524,-0.040913,-0.286543,0.640569,-0.000146459,-7.73636e-05,0.531152,0.390306185189629,0.8975602839867856,-0.00014644827540422067,-0.04008736128531698,-7.736060751384333e-05,-0.2491452089191014
698,0.6734,689.722,274.478,0.0749232,436.85,0.317889,0.250763,0.329904,-0.0409632,-0.286873,0.641319,-0.000146727,-7.59142e-05,0.531774,0.3908346019328237,0.8989839880220525,-0.00014671623612017015,-0.040135547690291484,-7.591131859008282e-05,-0.2493929501206117
699,0.6744,689.922,274.843,-0.0474923,436.888,0.4132,0.189505,0.330285,-0.0410098,-0.287206,0.642067,-0.000144101,-7.59979e-05,0.532395,0.3913646108764526,0.9004049594221435,-0.00014409061794962152,-0.04018027633158372,-7.599501223276572e-05,-0.24964286065580799
700,0.6754,690.032,274.592,0.0742692,437.037,0.318555,0.250561,0.330665,-0.04106,-0.287536,0.642816,-0.000144354,-7.45572e-05,0.533017,0.39189342989783627,0.9018288959344054,-0.00014434358146264703,-0.0402284580723401,-7.455442068105e-05,-0.24989043765933927
701,0.6764,690.231,274.953,-0.0468933,437.075,0.412654,0.189987,0.331045,-0.0411066,-0.287868,0.643563,-0.000141747,-7.46327e-05,0.533638,0.3924224499086335,0.9032500928706373,-0.0001417369543686986,-0.040273182384109374,-7.462991504936234e-05,-0.25013943269857275
702,0.6774,690.341,274.707,0.0734759,437.223,0.319326,0.250289,0.331425,-0.0411567,-0.288198,0.644311,-0.000141981,-7.32024e-05,0.534258,0.3929516709852352,0.9046742565109038,-0.00014197092117484988,-0.040321263493230064,-7.319972076968995e-05,-0.2503868458603653
703,0.6784,690.538,275.063,-0.0461559,437.261,0.412005,0.190537,0.331804,-0.0412032,-0.28853,0.645057,-0.000139398,-7.32681e-05,0.534878,0.3934796997236638,0.9060956736289258,-0.0001393882845502903,-0.04036588751696102,-7.326541595831237e-05,-0.25063567611943105
704,0.6794,690.649,274.822,0.0725487,437.408,0.320199,0.24995,0.332184,-0.0412532,-0.288859,0.645804,-0.00013961,-7.18498e-05,0.535498,0.3940093226315382,0.9075200590388424,-0.00013960025497750106,-0.04041386802306257,-7.184721886488443e-05,-0.25088217643046307
705,0.6804,690.845,275.172,-0.0452861,437.448,0.411259,0.19115,0.332563,-0.0412998,-0.289191,0.646549,-0.000137052,-7.1904e-05,0.536118,0.3945377522959117,0.9089416909749692,-0.00013704260880365027,-0.040458583694929384,-7.190141496937752e-05,-0.25113084226707516
706,0.6814,690.956,274.937,0.071494,437.593,0.321166,0.249548,0.332942,-0.0413497,-0.28952,0.647295,-0.00013724,-7.04993e-05,0.536737,0.39506638227308466,0.9103662927868443,-0.00013723058302195223,-0.040506463616989064,-7.049681498272342e-05,-0.2513771796952404
707,0.6824,691.15,275.281,-0.0442906,437.633,0.410422,0.191824,0.33332,-0.0413962,-0.289851,0.64804,-0.00013471,-7.05406e-05,0.537355,0.3955938170444757,0.9117900459571748,-0.0001347009270153965,-0.04055107902911448,-7.053811207036187e-05,-0.2516249328433533
708,0.6834,691.262,275.052,0.0703187,437.778,0.322223,0.249085,0.333699,-0.0414461,-0.290179,0.648785,-0.000134871,-6.9151e-05,0.537974,0.3961228473460452,0.9132148602188248,-0.00013486190531553088,-0.0405989543357721,-6.914860912465848e-05,-0.25187035961319015
709,0.6844,691.455,275.389,-0.0431771,437.818,0.4095,0.192555,0.334077,-0.0414926,-0.29051,0.649529,-0.000132373,-6.91778e-05,0.538592,0.396650681536719,0.9146388217228227,-0.00013236423908102868,-0.040643565447179064,-6.917540727113813e-05,-0.2521179495457637
710,0.6854,691.567,275.166,0.0690307,437.961,0.323362,0.248567,0.334455,-0.0415423,-0.290838,0.650273,-0.000132503,-6.78047e-05,0.539209,0.3971787152864312,0.9160638430483843,-0.0001324942218652314,-0.04069124427714765,-6.78024013133216e-05,-0.25236321463263967
711,0.6864,691.759,275.497,-0.0419537,438.003,0.408499,0.193337,0.334832,-0.0415888,-0.291168,0.651016,-0.000130039,-6.78158e-05,0.539827,0.39770555096437965,0.917488007495344,-0.00013003054529570068,-0.04073585109717215,-6.781350056062063e-05,-0.2526098940674655
712,0.6874,691.871,275.281,0.0676384,438.145,0.324575,0.247996,0.33521,-0.0416385,-0.291496,0.651759,-0.000130137,-6.64604e-05,0.540444,0.39823398353010697,0.9189132304896892,-0.0001301285325479018,-0.04078352534065788,-6.645819155659538e-05,-0.25285499782299803
713,0.6884,692.062,275.603,-0.0406295,438.187,0.407428,0.194168,0.335587,-0.041685,-0.291826,0.652501,-0.000127708,-6.64545e-05,0.54106,0.398761217119185,0.9203375924796606,-0.00012769984568050674,-0.04082812786971268,-6.645229194868207e-05,-0.25310151499614575
714,0.6894,692.175,275.395,0.066151,438.327,0.325857,0.247379,0.335964,-0.0417345,-0.292153,0.653244,-0.000127773,-6.51181e-05,0.541676,0.3992886495127981,0.9217649335023996,-0.00012776483737786393,-0.04087560570229709,-6.511597986258444e-05,-0.2533457108725402
715,0.6904,692.363,275.71,-0.0392136,438.371,0.406293,0.195041,0.336341,-0.041781,-0.292482,0.653985,-0.000125381,-6.50941e-05,0.542292,0.39981628078591,0.9231894890507726,-0.00012537314013094658,-0.04092020394971463,-6.509198142501393e-05,-0.2535913197287909
716,0.6914,692.477,275.51,0.0645777,438.509,0.327198,0.246719,0.336718,-0.0418305,-0.29281,0.654726,-0.000125409,-6.37776e-05,0.542908,0.40034411101351264,0.9246151005860015,-0.00012540113662007357,-0.04096767722464589,-6.377556625214442e-05,-0.25383610162949355
717,0.6924,692.664,275.816,-0.0377159,438.554,0.405103,0.195953,0.337094,-0.041877,-0.293138,0.655466,-0.000123058,-6.37346e-05,0.543523,0.4008707393991857,0.9260398428500571,-0.0001230504286748868,-0.04101227119083717,-6.373256899350199e-05,-0.2540808032548987
718,0.6934,692.779,275.624,0.0629283,438.69,0.328591,0.246023,0.33747,-0.0419263,-0.293465,0.656207,-0.000123048,-6.2439e-05,0.544137,0.4013975658343629,0.9274675672801822,-0.00012304042990529673,-0.041059548120481626,-6.243705072617178e-05,-0.254324678956384
719,0.6944,692.964,275.921,-0.0361463,438.736,0.403865,0.196897,0.337846,-0.0419728,-0.293794,0.656946,-0.000120737,-6.2376e-05,0.544752,0.4019245903935247,0.928892492257333,-0.00012072971158172408,-0.04110413781477551,-6.237405465780999e-05,-0.2545699657851116
720,0.6954,693.08,275.738,0.0612129,438.871,0.330028,0.245294,0.338222,-0.042022,-0.29412,0.657686,-0.000120689,-6.11022e-05,0.545366,0.40245181315117984,0.9303204009626642,-0.00012068171737567024,-0.04115131433064323,-6.110033329864706e-05,-0.2548129363699084
721,0.6964,693.263,276.026,-0.0345151,438.918,0.402587,0.19787,0.338597,-0.0420685,-0.294448,0.658425,-0.00011842,-6.10185e-05,0.545979,0.40297783120333186,0.9317474349630943,-0.00011841298862858007,-0.04119589975790772,-6.10166384091837e-05,-0.2550573176460589
722,0.6974,693.38,275.851,0.0594416,439.051,0.331501,0.244537,0.338973,-0.0421177,-0.294774,0.659164,-0.000118331,-5.9767e-05,0.546593,0.4035054500539923,0.9331755239314132,-0.00011832399916333891,-0.041243071759198835,-5.976521398842749e-05,-0.2553001293800432
723,0.6984,693.562,276.13,-0.0328324,439.1,0.401278,0.198865,0.339348,-0.0421642,-0.295102,0.659901,-0.000116106,-5.96621e-05,0.547206,0.40403186329407603,0.9346007994420626,-0.00011609925995925696,-0.041287652919842044,-5.966032025228607e-05,-0.25554435088309047
724,0.6994,693.679,275.965,0.0576245,439.231,0.333002,0.243759,0.339723,-0.0422132,-0.295427,0.66064,-0.000115976,-5.84334e-05,0.547818,0.404558473976143,0.9360309978260648,-0.00011596927504364807,-0.04133462867393356,-5.843169280217442e-05,-0.2557862596567485
725,0.7004,693.859,276.234,-0.0311086,439.281,0.399944,0.199878,0.340097,-0.0422597,-0.295754,0.661376,-0.000113795,-5.83068e-05,0.54843,0.4050838770896681,0.9374564411392576,-0.00011378852559462693,-0.04137920557727914,-5.830510019155799e-05,-0.2560295777651619
726,0.7014,693.977,276.078,0.0557717,439.41,0.334524,0.242964,0.340472,-0.0423086,-0.29608,0.662114,-0.000113623,-5.71015e-05,0.549042,0.40561088235088727,0.9388868117346478,-0.00011361654515140707,-0.04142608098801337,-5.70998697403402e-05,-0.25627207259400575
727,0.7024,694.155,276.338,-0.0293537,439.461,0.398594,0.200904,0.340846,-0.0423551,-0.296406,0.66285,-0.000111487,-5.69527e-05,0.549654,0.40613667913875706,0.9403143577005588,-0.00011148078555534013,-0.041470653638925215,-5.695107822578649e-05,-0.25651448838241964
728,0.7034,694.275,276.191,0.0538932,439.589,0.336057,0.242157,0.34122,-0.042404,-0.296731,0.663586,-0.000111272,-5.5771e-05,0.550265,0.4066626726114033,0.9417429547270433,-0.00011126580950060472,-0.04151752457795843,-5.57694448266588e-05,-0.2567560819126202
729,0.7044,694.451,276.441,-0.0275776,439.641,0.397236,0.201938,0.341593,-0.0424505,-0.297058,0.664321,-0.000109181,-5.55999e-05,0.550875,0.4071874556542403,0.943170660416335,-0.00010917503997154299,-0.041562092976842324,-5.5598354354202684e-05,-0.25699908294100127
730,0.7054,694.571,276.303,0.0519986,439.767,0.337596,0.241343,0.341967,-0.0424992,-0.297382,0.665057,-0.000108923,-5.4442e-05,0.551486,0.40771384219080176,0.944601360455432,-0.00010891706810545188,-0.04160876776637401,-5.44405180612495e-05,-0.25723977624370775
731,0.7064,694.746,276.544,-0.0257899,439.821,0.395875,0.202975,0.34234,-0.0425457,-0.297708,0.665791,-0.000106878,-5.42485e-05,0.552096,0.40823901739302504,0.9460292218150197,-0.0001068722887500595,-0.041653331922548165,-5.4247028576703826e-05,-0.25748187661214816
732,0.7074,694.867,276.416,0.0500972,439.944,0.339134,0.240526,0.342713,-0.0425943,-0.298032,0.666525,-0.000106578,-5.31144e-05,0.552706,0.40876438852213703,0.9474581316095736,-0.00010657232076671797,-0.0416999064388468,-5.311298945520626e-05,-0.2577224135150433
733,0.7084,695.039,276.647,-0.0239999,440.0,0.39452,0.204011,0.343086,-0.0426408,-0.298358,0.667259,-0.000104577,-5.28984e-05,0.553315,0.40928995565123194,0.9488880906089279,-0.0001045715320161511,-0.04174446635717133,-5.289700090427285e-05,-0.2579643565693769
734,0.7094,695.161,276.528,0.0481982,440.121,0.340662,0.239712,0.343459,-0.0426893,-0.298682,0.667993,-0.000104234,-5.17881e-05,0.553924,0.40981571885343127,0.9503190995834814,-0.0001042285678253263,-0.04179094062354294,-5.178675901951202e-05,-0.25820473717408754
735,0.7104,695.332,276.749,-0.0222162,440.178,0.393176,0.205042,0.343831,-0.0427358,-0.299007,0.668725,-0.000102278,-5.15498e-05,0.554533,0.41034026786091116,0.9517472558057838,-0.0001022727697836956,-0.041835496308876174,-5.15484713319303e-05,-0.2584457814626874
736,0.7114,695.455,276.639,0.046312,440.298,0.342177,0.238902,0.344203,-0.0427843,-0.29933,0.669458,-0.000101894,-5.04631e-05,0.555141,0.41086501203692083,0.953178410998589,-0.00010188880898265307,-0.041881966160402184,-5.0461826759162776e-05,-0.25868526479663445
737,0.7124,695.624,276.852,-0.0204492,440.356,0.39185,0.206064,0.344575,-0.0428308,-0.299655,0.67019,-9.99818e-05,-5.02026e-05,0.555749,0.4113899514540764,0.954608661003078,-9.997680198636782e-05,-0.041926517613146475,-5.020133987054809e-05,-0.258926152939132
738,0.7134,695.748,276.75,0.0444361,440.473,0.34367,0.238105,0.344947,-0.0428791,-0.299978,0.670922,-9.95559e-05,-4.91393e-05,0.556356,0.4119150861850216,0.9560399583338453,-9.955094447589019e-05,-0.04197279144482369,-4.913809268436431e-05,-0.25916548113814786
739,0.7144,695.916,276.953,-0.0186988,440.533,0.390551,0.207072,0.345319,-0.0429256,-0.300302,0.671653,-9.76876e-05,-4.88571e-05,0.556963,0.412440416302426,0.9574703462864884,-9.768282872180123e-05,-0.04201733867429036,-4.8855906511380276e-05,-0.259405472641536
740,0.7154,696.041,276.861,0.0425954,440.649,0.345139,0.237322,0.34569,-0.0429738,-0.300625,0.672384,-9.72209e-05,-4.78167e-05,0.55757,0.412964528913752,0.9589017802349902,-9.721617420144213e-05,-0.04206351232577232,-4.781555679977956e-05,-0.2596446460452887
741,0.7164,696.206,277.055,-0.0169829,440.71,0.389277,0.208064,0.346061,-0.0430203,-0.300949,0.673114,-9.53954e-05,-4.75131e-05,0.558177,0.4134888360069311,0.9603323006109721,-9.539085000354053e-05,-0.042108055336816164,-4.7511971270508546e-05,-0.25988448232439476
742,0.7174,696.332,276.971,0.040786,440.824,0.346576,0.236555,0.346432,-0.0430684,-0.301272,0.673844,-9.48889e-05,-4.64953e-05,0.558783,0.41401333765412907,0.9617638656480831,-9.488439819071992e-05,-0.042154128831278004,-4.64942191102935e-05,-0.2601235010330045
743,0.7184,696.496,277.157,-0.0153027,440.886,0.388035,0.209035,0.346803,-0.0431149,-0.301595,0.674574,-9.31052e-05,-4.61707e-05,0.559389,0.4145380339275391,0.9631964761092047,-9.310086584535249e-05,-0.04219866762875235,-4.616963414960651e-05,-0.26036244255103824
744,0.7194,696.622,277.081,0.0390152,440.998,0.347978,0.235807,0.347173,-0.0431629,-0.301917,0.675303,-9.25598e-05,-4.5175e-05,0.559994,0.4150615098371637,0.9646281681286244,-9.255551647391336e-05,-0.04224464098933667,-4.517397962500169e-05,-0.2606005675043619
745,0.7204,696.784,277.258,-0.0136641,441.062,0.38683,0.209983,0.347543,-0.0432094,-0.30224,0.676031,-9.08169e-05,-4.483e-05,0.560599,0.4155851794687109,0.9660589381721276,-9.081277627021045e-05,-0.04228917557809342,-4.482899515056982e-05,-0.2608393549548087
746,0.7214,696.912,277.191,0.0372889,441.172,0.34934,0.235082,0.347913,-0.0432574,-0.302562,0.67676,-9.02338e-05,-4.38557e-05,0.561204,0.41610904289387163,0.9674927176871908,-9.022972905314841e-05,-0.042335144594400465,-4.385473835288867e-05,-0.2610773263670597
747,0.7224,697.072,277.359,-0.0120724,441.237,0.385665,0.210906,0.348283,-0.0433039,-0.302884,0.677488,-8.85305e-05,-4.34909e-05,0.561808,0.4166331001843626,0.9689255738820393,-8.852658129088198e-05,-0.04237967497483752,-4.348995428449243e-05,-0.2613152211648516
748,0.7234,697.2,277.3,0.035612,441.346,0.350659,0.234381,0.348653,-0.0433517,-0.303206,0.678215,-8.7911e-05,-4.25375e-05,0.562413,0.4171573514119269,0.9703575032174971,-8.790713594131194e-05,-0.04242544813238647,-4.2536595293407586e-05,-0.26155303937285024
749,0.7244,697.36,277.46,-0.0105323,441.412,0.384543,0.211802,0.349022,-0.0433982,-0.303528,0.678942,-8.62458e-05,-4.21536e-05,0.563016,0.4176803789672472,0.9717904739440815,-8.624208093788166e-05,-0.04246997431380661,-4.215271154950351e-05,-0.2617907810157135
750,0.7254,697.488,277.408,0.0339888,441.519,0.351933,0.233708,0.349391,-0.0434459,-0.303849,0.679669,-8.55912e-05,-4.12203e-05,0.56362,0.4182035995553479,0.9732244868191591,-8.55875371776893e-05,-0.04251564740671987,-4.1219450455098894e-05,-0.2620277081461686
751,0.7264,697.646,277.561,-0.00904759,441.586,0.383467,0.212668,0.34976,-0.0434924,-0.304171,0.680395,-8.3963e-05,-4.0818e-05,0.564223,0.41872701324747097,0.9746575679420921,-8.3959475206008e-05,-0.042560169393971226,-4.081716695680804e-05,-0.262265296970292
752,0.7274,697.775,277.516,0.032423,441.691,0.35316,0.233063,0.350129,-0.04354,-0.304492,0.681121,-8.32747e-05,-3.99042e-05,0.564825,0.4192506201148851,0.9760916898596832,-8.327123275841952e-05,-0.04260574244526094,-3.990340383797086e-05,-0.2625020718055703
753,0.7284,697.931,277.662,-0.00762163,441.76,0.382438,0.213504,0.350497,-0.0435865,-0.304813,0.681846,-8.16819e-05,-3.94841e-05,0.565427,0.41977300045517474,0.977524875801959,-8.16785641244433e-05,-0.04265026024319041,-3.948332051317838e-05,-0.26273877064832396
754,0.7294,698.061,277.624,0.0309173,441.863,0.354337,0.232447,0.350866,-0.0436341,-0.305133,0.682571,-8.09613e-05,-3.8589e-05,0.566029,0.4202969933630887,0.9789591011807934,-8.095802272234387e-05,-0.04269582900625757,-3.858825545410838e-05,-0.2629746564979677
755,0.7304,698.216,277.762,-0.00625699,441.933,0.381459,0.214308,0.351234,-0.0436805,-0.305454,0.683296,-7.94024e-05,-3.8152e-05,0.566631,0.4208197588395943,0.9803943667500505,-7.939924771283025e-05,-0.0427402468892889,-3.8151272221731425e-05,-0.2632112036653803
756,0.7314,698.347,277.731,0.0294743,442.035,0.355464,0.231863,0.351602,-0.043728,-0.305774,0.68402,-7.86511e-05,-3.72748e-05,0.567232,0.4213427167291972,0.98182869143446,-7.86480070833484e-05,-0.042785715647670086,-3.7274105303297667e-05,-0.2634469383606445
757,0.7324,698.5,277.863,-0.00495562,442.105,0.380531,0.215079,0.351969,-0.0437745,-0.306095,0.684743,-7.71247e-05,-3.68216e-05,0.567833,0.42186444523756217,0.9832620716828879,-7.712172596674449e-05,-0.04283022507704015,-3.682092209322807e-05,-0.26368333394990884
758,0.7334,698.631,277.838,0.0280955,442.206,0.356539,0.23131,0.352337,-0.0438218,-0.306415,0.685467,-7.63442e-05,-3.59615e-05,0.568434,0.42238778764250595,0.9846984733374415,-7.634128585576327e-05,-0.04287549813667779,-3.596085339296895e-05,-0.2639189175876525
759,0.7344,698.783,277.963,-0.00371892,442.277,0.379653,0.215816,0.352704,-0.0438683,-0.306735,0.68619,-7.48486e-05,-3.54931e-05,0.569034,0.42290989976228466,0.986133929188425,-7.484579891336995e-05,-0.04292000339125923,-3.5492470127351794e-05,-0.2641544258506927
760,0.7354,698.915,277.944,0.0267821,442.376,0.357562,0.23079,0.353071,-0.0439155,-0.307054,0.686912,-7.40405e-05,-3.46492e-05,0.569634,0.42343220353237676,0.9875684356798269,-7.403775906977828e-05,-0.0429651765010054,-3.464859972335255e-05,-0.2643891231526364
761,0.7364,699.066,278.063,-0.00254773,442.449,0.378827,0.21652,0.353438,-0.043962,-0.307374,0.687634,-7.25742e-05,-3.41663e-05,0.570233,0.4239546990231311,0.9890039782588984,-7.257156655648966e-05,-0.04300967758563978,-3.416571633862997e-05,-0.26462448097396774
762,0.7374,699.198,278.05,0.0255348,442.547,0.358533,0.230302,0.353804,-0.0440092,-0.307693,0.688356,-7.174e-05,-3.33379e-05,0.570833,0.4244759618282481,0.9904405576739646,-7.173742674770889e-05,-0.04305484646286395,-3.333734429833424e-05,-0.2648590283522413
763,0.7384,699.347,278.163,-0.00144235,442.62,0.378052,0.217191,0.354171,-0.0440556,-0.308012,0.689077,-7.03014e-05,-3.28413e-05,0.571431,0.42499884044859715,0.9918761827967131,-7.029892891452505e-05,-0.043099247687871656,-3.284076073040154e-05,-0.2650935009218337
764,0.7394,699.48,278.155,0.0243535,442.716,0.359452,0.229846,0.354537,-0.0441027,-0.308331,0.689798,-6.94427e-05,-3.20275e-05,0.57203,0.4255204854794188,0.9933128433784129,-6.944028891153753e-05,-0.04314431665192309,-3.20269871251222e-05,-0.2653278987066052
765,0.7404,699.628,278.263,-0.000402624,442.79,0.377328,0.217827,0.354903,-0.0441491,-0.30865,0.690518,-6.80303e-05,-3.15181e-05,0.572628,0.42604232146726484,0.9947485454163565,-6.802798599159221e-05,-0.043188713725610395,-3.151760330988296e-05,-0.26556222173040844
766,0.7414,699.761,278.26,0.0232379,442.885,0.36032,0.229422,0.355269,-0.0441962,-0.308968,0.691238,-6.71487e-05,-3.0718e-05,0.573226,0.42656434848203806,0.9961852815319912,-6.714644557648253e-05,-0.0432337784759107,-3.0717528207047096e-05,-0.26579573581319127
767,0.7424,699.908,278.363,0.000572043,442.96,0.376654,0.218431,0.355634,-0.0442425,-0.309287,0.691958,-6.57609e-05,-3.01966e-05,0.573823,0.42708513950781435,0.99762305247012,-6.575873779945951e-05,-0.043278075726478016,-3.0196144087279997e-05,-0.2660299096207587
768,0.7434,700.041,278.364,0.0221873,443.054,0.361138,0.229031,0.356,-0.0442895,-0.309605,0.692677,-6.48578e-05,-2.94095e-05,0.574421,0.42760754826384484,0.9990598599152247,-6.485569677838754e-05,-0.04332304060023606,-2.9409067544894363e-05,-0.26626327500243707
769,0.7444,700.188,278.462,0.00148264,443.13,0.376029,0.219002,0.356365,-0.0443359,-0.309923,0.693396,-6.34931e-05,-2.88769e-05,0.575017,0.42812872012704006,1.0004977007963585,-6.349108435577122e-05,-0.04336742938132454,-2.887648306637569e-05,-0.26649656618572215
770,0.7454,700.321,278.468,0.0212005,443.223,0.361907,0.22867,0.35673,-0.0443828,-0.31024,0.694114,-6.25701e-05,-2.8102e-05,0.575614,0.4286500822526862,1.0019345739212535,-6.256814253213783e-05,-0.04341229439679373,-2.810160514254978e-05,-0.266729049923622
771,0.7464,700.466,278.562,0.00233051,443.298,0.375451,0.219541,0.357094,-0.0444291,-0.310558,0.694832,-6.12271e-05,-2.75589e-05,0.57621,0.4291702055393216,1.003372479091512,-6.122522565932265e-05,-0.04345658338226521,-2.755852025704275e-05,-0.26696219301403024
772,0.7474,700.6,278.572,0.020276,443.391,0.362628,0.22834,0.357459,-0.0444759,-0.310875,0.69555,-6.02855e-05,-2.67955e-05,0.576806,0.42969194787652754,1.0048114170484093,-6.028368286581376e-05,-0.043501348566649445,-2.6795141003788103e-05,-0.26719452917161823
773,0.7484,700.744,278.661,0.0031173,443.467,0.37492,0.220049,0.357823,-0.0445222,-0.311193,0.696267,-5.89627e-05,-2.62427e-05,0.577401,0.4302124504712799,1.0062493822833658,-5.896096173418908e-05,-0.0435456334290083,-2.6242355663397277e-05,-0.26742752426315863
774,0.7494,700.878,278.675,0.0194122,443.558,0.363303,0.228039,0.358187,-0.044569,-0.31151,0.696983,-5.80041e-05,-2.54899e-05,0.577996,0.43073314256346285,1.0076863712217308,-5.800241779474469e-05,-0.04359039444594792,-2.54895751352624e-05,-0.2676597129341185
775,0.7504,701.021,278.76,0.00384491,443.635,0.374434,0.220527,0.358551,-0.0446153,-0.311827,0.6977,-5.67001e-05,-2.49282e-05,0.578591,0.4312540242220666,1.009126398537998,-5.669849257972093e-05,-0.043634675185577954,-2.492788929497891e-05,-0.26789182801293465
776,0.7514,701.155,278.777,0.0186069,443.725,0.363933,0.227766,0.358915,-0.0446619,-0.312143,0.698416,-5.57257e-05,-2.41854e-05,0.579185,0.4317750955161057,1.010565448157637,-5.572414735199871e-05,-0.04367924077132812,-2.4185107535545924e-05,-0.2681231376464356
777,0.7524,701.297,278.859,0.00451546,443.802,0.373991,0.220976,0.359278,-0.0447082,-0.31246,0.699131,-5.44393e-05,-2.36155e-05,0.579779,0.4322949242189795,1.0120035165012373,-5.443781820824167e-05,-0.0437235173974686,-2.361522115623682e-05,-0.2683551058429
778,0.7534,701.431,278.879,0.0178579,443.892,0.364521,0.227521,0.359641,-0.0447548,-0.312776,0.699846,-5.34504e-05,-2.28819e-05,0.580373,0.4328149416539253,1.0134426134313799,-5.3448971552794156e-05,-0.043768078843268166,-2.2881638211291744e-05,-0.26858626910373484
779,0.7544,701.573,278.958,0.00513127,443.969,0.373588,0.221398,0.360004,-0.044801,-0.313092,0.700561,-5.21802e-05,-2.23044e-05,0.580966,0.43333514788946514,1.0148827396837663,-5.217883863706252e-05,-0.04381225573753145,-2.2304151258700777e-05,-0.2688173593285196
780,0.7554,701.707,278.981,0.0171629,444.058,0.365069,0.227301,0.360367,-0.0448475,-0.313408,0.701275,-5.11781e-05,-2.15793e-05,0.58156,0.4338555429941462,1.0163218796717373,-5.117679042343504e-05,-0.043856717433897185,-2.157906716859781e-05,-0.26904837654033
781,0.7564,701.848,279.057,0.00569478,444.136,0.373224,0.221793,0.36073,-0.0448937,-0.313724,0.701989,-4.99229e-05,-2.09949e-05,0.582152,0.43437612703654027,1.0177620475725808,-4.9921653872742056e-05,-0.043900890233152245,-2.099467960858803e-05,-0.2692793207622344
782,0.7574,701.981,279.083,0.0165195,444.223,0.365578,0.227107,0.361092,-0.0449402,-0.314039,0.702703,-4.89088e-05,-2.02779e-05,0.582745,0.43489546518906197,1.0192032441204888,-4.890760398412741e-05,-0.04394534780810977,-2.027769440482441e-05,-0.26950946152712085
783,0.7584,702.122,279.156,0.00620855,444.302,0.372898,0.222163,0.361454,-0.0449864,-0.314355,0.703416,-4.76675e-05,-1.96872e-05,0.583337,0.4354149913760268,1.0206434494057182,-4.766636392272705e-05,-0.04398951651273608,-1.9687006208357616e-05,-0.26974026006918805
784,0.7594,702.255,279.184,0.0159249,444.389,0.36605,0.226935,0.361816,-0.0450328,-0.31467,0.704128,-4.66424e-05,-1.89775e-05,0.583928,0.43593470566551584,1.0220826598398092,-4.664131226017609e-05,-0.04403387437005968,-1.897731992839269e-05,-0.2699702556610588
785,0.7604,702.395,279.254,0.0066752,444.467,0.372606,0.222509,0.362178,-0.0450789,-0.314985,0.70484,-4.5414e-05,-1.83811e-05,0.58452,0.4364546081256344,1.0235228953566162,-4.541296879989609e-05,-0.044077943392652474,-1.838093106865113e-05,-0.27020017881572755
786,0.7614,702.529,279.284,0.0153767,444.554,0.366488,0.226786,0.36254,-0.0451253,-0.3153,0.705552,-4.4379e-05,-1.76781e-05,0.585111,0.4369746988245129,1.0249641566862566,-4.437801526679941e-05,-0.04412229714706395,-1.767794374329945e-05,-0.27043002955600837
787,0.7624,702.668,279.352,0.0070974,444.632,0.372346,0.222833,0.362901,-0.0451714,-0.315615,0.706264,-4.31623e-05,-1.70766e-05,0.585702,0.4374935403360467,1.0264064445593704,-4.316136852133834e-05,-0.0441663620934607,-1.707645419568582e-05,-0.27065980790470834
788,0.7634,702.801,279.385,0.014872,444.718,0.366894,0.226658,0.363262,-0.0452177,-0.315929,0.706975,-4.21184e-05,-1.63798e-05,0.586292,0.4380125691831782,1.0278477318583703,-4.2117513032624565e-05,-0.04421061616640609,-1.6379665851773417e-05,-0.2708887847737764
789,0.7644,702.939,279.45,0.00747783,444.797,0.372118,0.223136,0.363623,-0.0452637,-0.316243,0.707686,-4.09126e-05,-1.57737e-05,0.586882,0.43853178543354776,1.0292900442770265,-4.091176309095612e-05,-0.04425458146685268,-1.577357559590098e-05,-0.27111768975539463
790,0.7654,703.073,279.484,0.0144083,444.882,0.36727,0.22655,0.363984,-0.0453099,-0.316558,0.708396,-3.98607e-05,-1.50827e-05,0.587472,0.43905118915482033,1.0307313518120909,-3.985990557286989e-05,-0.04429873588521405,-1.5082586256598418e-05,-0.27134725152524475
791,0.7664,703.211,279.548,0.00781916,444.961,0.371918,0.223418,0.364345,-0.045356,-0.316872,0.709106,-3.86648e-05,-1.44724e-05,0.588061,0.43957078041468467,1.0321736830388732,-3.866405252628269e-05,-0.044342792697972366,-1.4472295275291813e-05,-0.271576012570902
792,0.7674,703.344,279.584,0.0139828,445.045,0.367617,0.226459,0.364705,-0.0454021,-0.317185,0.709815,-3.76058e-05,-1.37866e-05,0.58865,0.4400891191910157,1.0336150050684298,-3.7605092910730775e-05,-0.04438684747975852,-1.3786504965307422e-05,-0.271803973601205
793,0.7684,703.481,279.646,0.00812402,445.124,0.371744,0.223683,0.365065,-0.0454481,-0.317499,0.710524,-3.6419e-05,-1.31726e-05,0.589239,0.4406076446028986,1.0350573493576545,-3.641833683631912e-05,-0.044430804673751156,-1.317251324173263e-05,-0.27203259125864365
794,0.7694,703.614,279.683,0.013593,445.208,0.367939,0.226385,0.365425,-0.0454942,-0.317812,0.711233,-3.53536e-05,-1.24917e-05,0.589827,0.4411263567175341,1.0365007166315845,-3.535297506884749e-05,-0.04447485539827878,-1.2491621979027201e-05,-0.2722604094021803
795,0.7704,703.751,279.744,0.008395,445.288,0.371596,0.22393,0.365785,-0.0455402,-0.318126,0.711941,-3.41752e-05,-1.18744e-05,0.590415,0.4416452556021475,1.037943069671686,-3.417461603449912e-05,-0.044518808544000366,-1.1874329499561576e-05,-0.27248888376127645
796,0.7714,703.884,279.782,0.0132363,445.371,0.368236,0.226328,0.366144,-0.0455862,-0.318439,0.712649,-3.31042e-05,-1.1198e-05,0.591003,0.4421628991603679,1.0393864442593248,-3.310365206199428e-05,-0.04456275966792367,-1.1197937302642735e-05,-0.2727165591076087
797,0.7724,704.019,279.841,0.0086346,445.45,0.371469,0.224161,0.366504,-0.0456322,-0.318751,0.713356,-3.19335e-05,-1.05778e-05,0.59159,0.4426821712674367,1.0408288002881925,-3.193299013126705e-05,-0.044606708770141834,-1.0577744055217941e-05,-0.2729434361465086
798,0.7734,704.152,279.88,0.0129103,445.533,0.368511,0.226284,0.366863,-0.0456782,-0.319064,0.714064,-3.08576e-05,-9.90534e-06,0.592177,0.44320018714520826,1.042274218696535,-3.085712390915596e-05,-0.0446506558507479,-9.905290942247014e-06,-0.273170969240208
799,0.7744,704.288,279.938,0.00884524,445.612,0.371364,0.224378,0.367222,-0.045724,-0.319377,0.71477,-2.96938e-05,-9.28263e-06,0.592764,0.44371838902406524,1.0437165733862304,-2.9693359143490028e-05,-0.04469440984873563,-9.282586916570246e-06,-0.27339843112719353
800,0.7754,704.42,279.978,0.0126126,445.695,0.368765,0.226254,0.36758,-0.04577,-0.319689,0.715477,-2.86136e-05,-8.6139e-06,0.59335,0.4442353327347388,1.0451619918988508,-2.8613190634851904e-05,-0.044738352895184796,-8.613862900519464e-06,-0.27362509545520797
801,0.7764,704.555,280.035,0.00902927,445.774,0.371278,0.224581,0.367939,-0.0458158,-0.320001,0.716182,-2.74561e-05,-7.98899e-06,0.593937,0.4447539062975756,1.0466043394709184,-2.745572308471278e-05,-0.044782102876740004,-7.988958088067655e-06,-0.27385168907498303
802,0.7774,704.688,280.076,0.0123409,445.856,0.369,0.226235,0.368297,-0.0458617,-0.320313,0.716888,-2.63722e-05,-7.32365e-06,0.594522,0.4452712207897991,1.0480497523052783,-2.637185225662364e-05,-0.04482594637200199,-7.323623182120542e-06,-0.2740782120085765
803,0.7784,704.822,280.132,0.00918889,445.936,0.371209,0.224771,0.368655,-0.0459075,-0.320625,0.717593,-2.52206e-05,-6.69684e-06,0.595108,0.4457887205137654,1.0494941364662456,-2.5220281963389546e-05,-0.044869692341867884,-6.696817576257175e-06,-0.2743046642780388
804,0.7794,704.954,280.174,0.012093,446.017,0.369218,0.226228,0.369013,-0.0459533,-0.320936,0.718298,-2.41335e-05,-6.03458e-06,0.595693,0.44630640553579926,1.0509395392770782,-2.4133208789467453e-05,-0.044913436308214094,-6.034561791934401e-06,-0.27453032043609693
805,0.7804,705.088,280.228,0.00932623,446.096,0.371156,0.224951,0.369371,-0.0459991,-0.321248,0.719002,-2.29872e-05,-5.40615e-06,0.596277,0.44682427592224916,1.0523839090712426,-2.2986935796387442e-05,-0.04495717827113255,-5.406135386798461e-06,-0.2747566316697325
806,0.7814,705.22,280.271,0.0118669,446.178,0.369421,0.226231,0.369728,-0.0460448,-0.321559,0.719706,-2.18974e-05,-4.74673e-06,0.596862,0.44734088439787967,1.0538292960597522,-2.189716025369215e-05,-0.04500082273080208,-4.74671873429422e-06,-0.274982147287787
807,0.7824,705.353,280.324,0.00944329,446.257,0.371118,0.225119,0.370086,-0.0460906,-0.32187,0.72041,-2.07559e-05,-4.11693e-06,0.597446,0.44785912519406157,1.0552757009589646,-2.07556845978063e-05,-0.04504456069151408,-4.1169215254655e-06,-0.2752075927813892
808,0.7834,705.485,280.368,0.0116606,446.338,0.369609,0.226243,0.370443,-0.0461363,-0.322181,0.721113,-1.96638e-05,-3.46009e-06,0.59803,0.4483761031768352,1.0567210677636445,-1.966360666871836e-05,-0.045088201157898244,-3.460084013862108e-06,-0.2754329681723443
809,0.7844,705.618,280.42,0.00954194,446.417,0.371093,0.225279,0.3708,-0.0461819,-0.322492,0.721815,-1.85267e-05,-2.82914e-06,0.598613,0.4488932657536966,1.0581653928520063,-1.8526528381745955e-05,-0.04513174414313781,-2.8291359980281428e-06,-0.275658273482451
810,0.7854,705.75,280.464,0.0114723,446.497,0.369785,0.226264,0.371156,-0.0462276,-0.322802,0.722518,-1.74328e-05,-2.17467e-06,0.599196,0.4494091635806694,1.0596127918243101,-1.7432648049653388e-05,-0.04517538062532933,-2.1746676354128525e-06,-0.2758827846166476
811,0.7864,705.882,280.516,0.00962394,446.576,0.371079,0.225429,0.371513,-0.0462733,-0.323113,0.72322,-1.62998e-05,-1.54279e-06,0.599779,0.4499266950259342,1.0610591476156563,-1.6299667158992115e-05,-0.045219015113379,-1.542788809927309e-06,-0.2761079500555913
812,0.7874,706.013,280.561,0.0113004,446.657,0.369948,0.226291,0.371869,-0.0463189,-0.323423,0.723921,-1.52043e-05,-8.9049e-07,0.600362,0.4504429608192222,1.0625044565997483,-1.5204184415251731e-05,-0.04526255213363828,-8.90489603500022e-07,-0.276332321811655
813,0.7884,706.145,280.612,0.00969093,446.736,0.371076,0.225572,0.372225,-0.0463645,-0.323733,0.724623,-1.4075e-05,-2.57861e-07,0.600944,0.4509594104358512,1.0639528430524452,-1.4074900947624869e-05,-0.045306087168654696,-2.5786096680135984e-07,-0.2765566240232543
814,0.7894,706.276,280.656,0.0111432,446.816,0.370101,0.226326,0.372581,-0.04641,-0.324043,0.725323,-1.29783e-05,3.9245e-07,0.601525,0.45147604394127394,1.0653981158290384,-1.2978215782277758e-05,-0.04534952475347587,3.924500771024242e-07,-0.27678085671194463
815,0.7904,706.408,280.707,0.00974444,446.894,0.371083,0.225708,0.372937,-0.0464556,-0.324353,0.726024,-1.18524e-05,1.02566e-06,0.602107,0.45199286140096673,1.066846467496184,-1.1852329760531077e-05,-0.0453930558226312,1.025660526066119e-06,-0.27700501989927473
816,0.7914,706.538,280.752,0.0109992,446.974,0.370245,0.226366,0.373292,-0.0465011,-0.324662,0.726724,-1.07548e-05,1.67414e-06,0.602688,0.45250841037129197,1.068293766518991,-1.0754742167384812e-05,-0.04543648945046874,1.674141401286633e-06,-0.27722839083553885
817,0.7924,706.67,280.802,0.00978586,447.052,0.371098,0.225837,0.373648,-0.0465466,-0.324971,0.727423,-9.63201e-06,2.30778e-06,0.603269,0.4530255954188602,1.0697400092647413,-9.631963612366512e-06,-0.04547992110212118,2.30778266296916e-06,-0.27745169276084647
818,0.7934,706.8,280.848,0.0108671,447.132,0.37038,0.226411,0.374003,-0.0465921,-0.325281,0.728123,-8.53375e-06,2.95457e-06,0.603849,0.45354151107484464,1.0711893344758696,-8.533713587666192e-06,-0.04552335077767844,2.954574364721907e-06,-0.2776756480212318
819,0.7944,706.931,280.897,0.00981651,447.21,0.37112,0.225961,0.374358,-0.0466375,-0.32559,0.728821,-7.41385e-06,3.58852e-06,0.60443,0.45405760991340016,1.0726355292946095,-7.4138225174547046e-06,-0.04556668303390354,3.5885264386692484e-06,-0.2778988117654191
820,0.7954,707.061,280.943,0.0107458,447.289,0.370508,0.226462,0.374712,-0.046683,-0.325898,0.72952,-6.31515e-06,4.23375e-06,0.60501,0.45457243742640285,1.0740848079934815,-6.3151300594421755e-06,-0.04561010876188265,4.233758962302048e-06,-0.2781211846842079
821,0.7964,707.191,280.992,0.00983755,447.368,0.371149,0.22608,0.375067,-0.0467284,-0.326207,0.730218,-5.19792e-06,4.86787e-06,0.605589,0.45508890230878185,1.0755330245582444,-5.197906490783666e-06,-0.04565343707938463,4.867881848058531e-06,-0.2783442107788343
822,0.7974,707.321,281.038,0.0106339,447.447,0.370629,0.226516,0.375421,-0.0467738,-0.326515,0.730916,-4.09899e-06,5.51166e-06,0.606168,0.45560409496391907,1.0769822523310397,-4.0989815991432366e-06,-0.04569676342982565,5.511675189140419e-06,-0.27856644653585094
823,0.7984,707.451,281.086,0.00985008,447.525,0.371184,0.226194,0.375775,-0.0468191,-0.326824,0.731613,-2.98423e-06,6.14585e-06,0.606747,0.4561194700295408,1.0784304135864842,-2.984225547231212e-06,-0.04573999238729898,6.145868885809591e-06,-0.27878933506582004
824,0.7994,707.58,281.132,0.0105305,447.603,0.370743,0.226574,0.376129,-0.0468644,-0.327132,0.73231,-1.88524e-06,6.78829e-06,0.607326,0.456635027570232,1.0798795845621707,-1.8852382229761488e-06,-0.04578321938654484,6.788313040573257e-06,-0.2790114337456673
825,0.8004,707.71,281.181,0.00985508,447.681,0.371224,0.226303,0.376483,-0.0469097,-0.32744,0.733006,-7.72776e-07,7.42246e-06,0.607904,0.45715076765060014,1.081327684633394,-7.727757014297509e-07,-0.04582644442765216,7.422487546593359e-06,-0.27923346402965477
826,0.8014,707.839,281.226,0.0104347,447.76,0.370853,0.226635,0.376837,-0.046955,-0.327748,0.733703,3.2611e-07,8.06366e-06,0.608482,0.45766669033527596,1.0827788757109236,3.2611005318372577e-07,-0.04586966751070931,8.06369251149519e-06,-0.27945542593884487
827,0.8024,707.969,281.275,0.00985344,447.837,0.371269,0.226409,0.37719,-0.0470003,-0.328055,0.734398,1.43643e-06,8.69772e-06,0.60906,0.458181337506846,1.0842269101632285,1.436431031676122e-06,-0.04591288863580523,8.697757825304464e-06,-0.2796765991712533
828,0.8034,708.097,281.32,0.0103456,447.915,0.370958,0.226699,0.377543,-0.0470456,-0.328363,0.735094,2.53507e-06,9.33774e-06,0.609637,0.45869616638093613,1.0856780370262715,2.535073213350003e-06,-0.0459561078030285,9.337783596796712e-06,-0.2798984246158366
829,0.8044,708.226,281.368,0.00984598,447.993,0.371318,0.226512,0.377896,-0.0470908,-0.32867,0.735789,3.64337e-06,9.97163e-06,0.610214,0.45921117702169867,1.0871280870960365,3.643376637052498e-06,-0.045999229612395554,9.97167971683588e-06,-0.2801194618685252
830,0.8054,708.355,281.414,0.0102624,448.071,0.371058,0.226765,0.378249,-0.047136,-0.328977,0.736483,4.74165e-06,1.06105e-05,0.610791,0.4597263694933089,1.088577056722785,4.741661241647321e-06,-0.046042349472700916,1.0610556291590356e-05,-0.2803404312731924
831,0.8064,708.483,281.462,0.00983342,448.148,0.37137,0.226612,0.378601,-0.0471811,-0.329284,0.737178,5.84806e-06,1.12442e-05,0.611367,0.4602402836189503,1.090029122311551,5.84807709991253e-06,-0.046085371992574564,1.1244263216303452e-05,-0.2805613328506644
832,0.8074,708.612,281.508,0.0101845,448.226,0.371155,0.226833,0.378954,-0.0472263,-0.32959,0.737872,6.94586e-06,1.18821e-05,0.611943,0.46075583942931475,1.0914801059555224,6.945884122533386e-06,-0.04612848795933233,1.188217059233665e-05,-0.2807814474035679
833,0.8084,708.74,281.555,0.00981642,448.303,0.371425,0.226709,0.379306,-0.0472714,-0.329897,0.738565,8.05049e-06,1.25154e-05,0.612519,0.46127011599215884,1.0929300040005963,8.050522405378402e-06,-0.0461715065944478,1.2515478317931539e-05,-0.28100221360986843
834,0.8094,708.868,281.601,0.0101112,448.381,0.371249,0.226903,0.379658,-0.0473165,-0.330203,0.739258,9.14772e-06,1.31523e-05,0.613094,0.46178457361221725,1.0943809071732518,9.147761840466728e-06,-0.046214523289466625,1.3152386491910306e-05,-0.28122219327389875
835,0.8104,708.996,281.648,0.00979556,448.458,0.371483,0.226804,0.380009,-0.0473616,-0.33051,0.739951,1.02506e-05,1.37853e-05,0.613669,0.46229775005475204,1.095832816170284,1.0250652537679983e-05,-0.0462575380444763,1.378539501772913e-05,-0.28144282419198485
836,0.8114,709.123,281.694,0.0100419,448.535,0.371339,0.226975,0.380361,-0.0474067,-0.330816,0.740643,1.13472e-05,1.44212e-05,0.614244,0.46281256946567195,1.0972836344042873,1.13472643796797e-05,-0.046300550859564193,1.4421303986100753e-05,-0.2816626690498034
837,0.8124,709.251,281.741,0.00977135,448.612,0.371543,0.226897,0.380712,-0.0474517,-0.331121,0.741335,1.24485e-05,1.50539e-05,0.614818,0.46332610679808406,1.0987354569519612,1.2448577482837564e-05,-0.046343466369169306,1.5054013310589198e-05,-0.28188172852747473
838,0.8134,709.378,281.787,0.00997619,448.689,0.371427,0.227047,0.381064,-0.0474967,-0.331427,0.742027,1.35444e-05,1.56889e-05,0.615393,0.4638412882542937,1.1001882845085307,1.3544491725747676e-05,-0.04638637994761996,1.568902307136355e-05,-0.2821014391011132
839,0.8144,709.505,281.833,0.00974426,448.765,0.371605,0.226988,0.381414,-0.0475417,-0.331733,0.742718,1.46442e-05,1.63211e-05,0.615966,0.4643537223759229,1.1016400161286364,1.4644307226863162e-05,-0.046429291595002975,1.6321233189842133e-05,-0.28232108245360144
840,0.8154,709.632,281.879,0.00991362,448.842,0.371513,0.227121,0.381765,-0.0475867,-0.332038,0.743409,1.57393e-05,1.69553e-05,0.61654,0.4648678007479534,1.1030927512419586,1.5739423863347923e-05,-0.04647220131140539,1.6955443741917264e-05,-0.28253994114580594
841,0.8164,709.759,281.926,0.0097147,448.919,0.371668,0.227078,0.382116,-0.0476316,-0.332343,0.744099,1.68375e-05,1.7587e-05,0.617113,0.4653820595931635,1.1045443859967121,1.6837641751532573e-05,-0.04651501374842004,1.7587154652165538e-05,-0.28275873309628785
842,0.8174,709.885,281.972,0.00985379,448.995,0.371597,0.227196,0.382466,-0.0476766,-0.332648,0.744789,1.79318e-05,1.82204e-05,0.617686,0.4658950330791445,1.105997022725088,1.7931960775596778e-05,-0.04655791960741229,1.8220565992432824e-05,-0.28297745832540044
843,0.8184,710.012,282.018,0.00968304,449.072,0.371733,0.227166,0.382816,-0.0477215,-0.332953,0.745479,1.90286e-05,1.88516e-05,0.618258,0.46640818613726887,1.1074506621186857,1.9028781044871934e-05,-0.04660072819576189,1.8851777692452387e-05,-0.28319611685349066
844,0.8194,710.138,282.064,0.00979636,449.148,0.37168,0.227271,0.383166,-0.0477663,-0.333258,0.746168,2.0122e-05,1.94842e-05,0.618831,0.4669215188303979,1.1089031959653335,2.012220244873575e-05,-0.04664343952639782,1.9484389818247294e-05,-0.283414708700899
845,0.8204,710.264,282.11,0.00964958,449.224,0.3718,0.227253,0.383516,-0.0478112,-0.333562,0.746857,2.12174e-05,2.01149e-05,0.619403,0.46743503122141505,1.1103567309526547,2.1217625090663716e-05,-0.04668624427498924,2.0115102306039745e-05,-0.28363251752083596
846,0.8214,710.39,282.155,0.00974104,449.3,0.371761,0.227347,0.383866,-0.047856,-0.333867,0.747546,2.23099e-05,2.07467e-05,0.619974,0.4679487233732249,1.1118112677706735,2.2310148867665802e-05,-0.04672895177459069,2.0746915214253647e-05,-0.2838509762863368
847,0.8224,710.516,282.201,0.00961461,449.376,0.371867,0.227338,0.384215,-0.0479008,-0.334171,0.748234,2.3404e-05,2.13769e-05,0.620546,0.46846112688689434,1.1132646938441377,2.3404273875815562e-05,-0.0467716573609388,2.137712848759854e-05,-0.2840686525010847
848,0.8234,710.642,282.247,0.00968755,449.452,0.37184,0.227424,0.384565,-0.0479456,-0.334475,0.748922,2.44955e-05,2.20079e-05,0.621116,0.4689751782350433,1.1147191202188051,2.4495800017287905e-05,-0.04681436103411962,2.2008142175566903e-05,-0.2842862625523208
849,0.8244,710.767,282.293,0.00957836,449.528,0.371935,0.227423,0.384914,-0.0479904,-0.334779,0.749609,2.55883e-05,2.26375e-05,0.621687,0.4694879400439782,1.11617243140963,2.5588627383443807e-05,-0.04685706279421875,2.2637756230237116e-05,-0.2845038064601555
850,0.8254,710.893,282.338,0.00963567,449.604,0.371918,0.227501,0.385262,-0.0480351,-0.335082,0.750296,2.66788e-05,2.32678e-05,0.622257,0.46999941083787,1.1176267413682797,2.667915588228098e-05,-0.04689966733129336,2.326807069730208e-05,-0.28472056896562004
851,0.8264,711.018,282.384,0.00954107,449.679,0.372003,0.227506,0.385611,-0.0480799,-0.335386,0.750983,2.77703e-05,2.38969e-05,0.622828,0.47051253016636707,1.1190820507811448,2.777068559844942e-05,-0.046942365269755926,2.3897185533083842e-05,-0.2849379808643716
852,0.8274,711.143,282.429,0.00958519,449.755,0.371996,0.227578,0.38596,-0.0481246,-0.335689,0.751669,2.88598e-05,2.45265e-05,0.623397,0.4710258286047626,1.1205362397977856,2.8860216447990084e-05,-0.04698496599389512,2.452680077702496e-05,-0.2851546118349202
853,0.8284,711.268,282.475,0.0095029,449.83,0.372072,0.227589,0.386308,-0.0481692,-0.335992,0.752355,2.99501e-05,2.5155e-05,0.623967,0.4715378346770065,1.1219914267303377,2.9950548508628216e-05,-0.047027469516576215,2.515531638969115e-05,-0.2853711771762282
854,0.8294,711.392,282.52,0.00953595,449.905,0.372072,0.227655,0.386656,-0.0482139,-0.336295,0.753041,3.10386e-05,2.57838e-05,0.624536,0.47205001895837007,1.1234476122636061,3.103908170243308e-05,-0.04707006643664058,2.5784132404949034e-05,-0.285587676908178
855,0.8304,711.517,282.565,0.00946402,449.981,0.372142,0.227671,0.387004,-0.0482585,-0.336598,0.753726,3.21276e-05,2.64117e-05,0.625105,0.47256238151088104,1.124902672179132,3.212811609687449e-05,-0.04711256616392656,2.6412048792057163e-05,-0.2858041110506463
856,0.8314,711.641,282.611,0.00948779,450.056,0.372148,0.227732,0.387352,-0.0483031,-0.336901,0.754411,3.3215e-05,2.70399e-05,0.625673,0.4730749223965882,1.126358729152153,3.321555162427714e-05,-0.047155063995766855,2.7040265581312894e-05,-0.28602047962350385
857,0.8324,711.765,282.656,0.00942456,450.131,0.372211,0.227752,0.387699,-0.0483477,-0.337203,0.755095,3.43028e-05,2.76672e-05,0.626241,0.4735861680906579,1.1278136560511678,3.430338834786717e-05,-0.04719755993224628,2.766758274042047e-05,-0.28623606888304076
858,0.8334,711.889,282.701,0.00944057,450.206,0.372223,0.227809,0.388046,-0.0483923,-0.337505,0.755779,3.53892e-05,2.82947e-05,0.626809,0.4740975912177663,1.1292695784606073,3.5389826205101116e-05,-0.0472400539734491,2.8295100298780795e-05,-0.28645159304445167
859,0.8344,712.013,282.746,0.00938465,450.28,0.372281,0.227833,0.388394,-0.0484368,-0.337807,0.756463,3.64758e-05,2.89214e-05,0.627377,0.4746106664494225,1.1307264970616338,3.64764652500682e-05,-0.04728245084770988,2.8921818227667373e-05,-0.2866670521273932
860,0.8354,712.137,282.791,0.00939419,450.355,0.372297,0.227887,0.38874,-0.0484813,-0.338109,0.757146,3.75611e-05,2.95482e-05,0.627944,0.47512097001744014,1.1321822803525285,3.756180542691112e-05,-0.04732484583535168,2.9548636552467755e-05,-0.2868824461515159
861,0.8364,712.261,282.836,0.00934439,450.43,0.372352,0.227913,0.389087,-0.0485258,-0.338411,0.757829,3.86465e-05,3.01743e-05,0.628511,0.4756329258132299,1.1336390582830416,3.864724678570575e-05,-0.047367238936458445,3.0174755248690843e-05,-0.28709777513646495
862,0.8374,712.384,282.881,0.00934856,450.504,0.372371,0.227964,0.389434,-0.0485703,-0.338713,0.758512,3.97308e-05,3.08004e-05,0.629078,0.47614505928850615,1.1350968315327439,3.97315892786132e-05,-0.047409630151114324,3.080087433726675e-05,-0.2873130391018789
863,0.8384,712.507,282.926,0.00930387,450.579,0.372422,0.227992,0.38978,-0.0486147,-0.339014,0.759194,4.0815e-05,3.14259e-05,0.629644,0.47665589384830254,1.1365534642271387,4.0815832943463803e-05,-0.047451924224600206,3.1426393798827945e-05,-0.2875275255952725
864,0.8394,712.631,282.971,0.00930357,450.653,0.372444,0.228041,0.390126,-0.0486592,-0.339316,0.759876,4.18982e-05,3.20513e-05,0.63021,0.47716690518743765,1.138011090683865,4.1899077741769375e-05,-0.0474943116708445,3.205181364829279e-05,-0.2877426597956434
865,0.8404,712.753,283.015,0.00926315,450.727,0.372493,0.228071,0.390472,-0.0487036,-0.339617,0.760557,4.29812e-05,3.26762e-05,0.630776,0.4776780933670879,1.1394675721122591,4.2982123704904396e-05,-0.04753660198455445,3.267673387274961e-05,-0.2879570169926684
866,0.8414,712.876,283.06,0.00925918,450.802,0.372517,0.228118,0.390818,-0.048748,-0.339918,0.761239,4.40633e-05,3.3301e-05,0.631341,0.4781894584484505,1.1409271866684279,4.406427080150266e-05,-0.04757889042061614,3.330155448444394e-05,-0.2881713096778865
867,0.8424,712.999,283.105,0.00922231,450.876,0.372563,0.22815,0.391164,-0.0487923,-0.340219,0.761919,4.51452e-05,3.39253e-05,0.631906,0.4787010004927439,1.142383512249943,4.5146219059821746e-05,-0.04762108174122581,3.392587546957593e-05,-0.28838553787071297
868,0.8434,713.121,283.149,0.0092153,450.95,0.372589,0.228195,0.391509,-0.0488367,-0.340519,0.7626,4.62262e-05,3.45494e-05,0.632471,0.47921124034922835,1.1438429723115329,4.6227268447163183e-05,-0.04766336642646951,3.4549996837496266e-05,-0.2885989901899031
869,0.8444,713.244,283.194,0.00918139,451.024,0.372633,0.228228,0.391854,-0.048881,-0.34082,0.76328,4.73069e-05,3.5173e-05,0.633036,0.47972165626883223,1.1453012813015677,4.7308018989111744e-05,-0.047705554004875084,3.517361857729995e-05,-0.28881308967026764
870,0.8454,713.366,283.238,0.0091719,451.097,0.372661,0.228272,0.3922,-0.0489253,-0.34112,0.763959,4.83869e-05,3.57965e-05,0.6336,0.48023372854529645,1.1467584355194447,4.8388070664984184e-05,-0.04774773971441226,3.5797140702342745e-05,-0.28902641374315563
871,0.8464,713.488,283.283,0.00914045,451.171,0.372704,0.228306,0.392544,-0.0489696,-0.34142,0.764639,4.94664e-05,3.64195e-05,0.634164,0.48074301654042895,1.1482187276986688,4.946762348256861e-05,-0.04778992355516398,3.642016319793662e-05,-0.2892396738284204
872,0.8474,713.61,283.327,0.00912892,451.245,0.372733,0.228349,0.392889,-0.0490138,-0.34172,0.765318,5.05453e-05,3.70423e-05,0.634727,0.4812539610139892,1.1496778635353326,5.054657743519542e-05,-0.04783201031041873,3.704298607454248e-05,-0.28945286994525543
873,0.8484,713.732,283.371,0.00909952,451.318,0.372774,0.228383,0.393234,-0.049058,-0.34202,0.765996,5.16237e-05,3.76647e-05,0.63529,0.48176508179380373,1.1511358393247515,5.162503252620354e-05,-0.047874095205479916,3.76654093237061e-05,-0.2896660021128482
874,0.8494,713.853,283.415,0.00908633,451.392,0.372805,0.228425,0.393578,-0.0491023,-0.34232,0.766674,5.27014e-05,3.82869e-05,0.635853,0.4822748966650712,1.1525948039569354,5.270278874314194e-05,-0.047916273448807334,3.828763295277149e-05,-0.28987907035038074
875,0.8504,713.975,283.46,0.00905863,451.465,0.372844,0.22846,0.393922,-0.0491464,-0.342619,0.767352,5.37787e-05,3.89086e-05,0.636416,0.4827848869428226,1.1540547581025473,5.3780146100246284e-05,-0.04795825941535092,3.890935694950137e-05,-0.29009136476874886
876,0.8514,714.096,283.504,0.0090441,451.538,0.372876,0.228501,0.394266,-0.0491906,-0.342918,0.76803,5.48554e-05,3.95302e-05,0.636978,0.483295052687408,1.1555157024327043,5.4856904585065536e-05,-0.048000338730325054,3.953098132858379e-05,-0.2903035957205745
877,0.8524,714.217,283.548,0.00901781,451.611,0.372915,0.228537,0.39461,-0.0492347,-0.343218,0.768707,5.59315e-05,4.01513e-05,0.637541,0.48380539395919864,1.1569754806424202,5.593306419560129e-05,-0.04804232098967143,4.0152106074220484e-05,-0.2905164727087136
878,0.8534,714.338,283.592,0.00900221,451.684,0.372947,0.228577,0.394953,-0.0492789,-0.343517,0.769383,5.70071e-05,4.07722e-05,0.638102,0.4843144265034174,1.158434089021421,5.700872493563658e-05,-0.04808439658920605,4.07730311975385e-05,-0.2907285765722659
879,0.8544,714.459,283.636,0.00897708,451.757,0.372985,0.228613,0.395297,-0.049323,-0.343815,0.77006,5.80821e-05,4.13927e-05,0.638664,0.484825118500122,1.1598958436477989,5.808378679783566e-05,-0.04812637514168261,4.139355668963951e-05,-0.2909399079665057
880,0.8554,714.58,283.68,0.00896061,451.83,0.373017,0.228653,0.39564,-0.049367,-0.344114,0.770736,5.91565e-05,4.20129e-05,0.639225,0.48533450086984975,1.1613564268596095,5.915824978020012e-05,-0.0481682566597762,4.2013782554306545e-05,-0.29115188524184177
881,0.8564,714.7,283.723,0.00893647,451.903,0.373055,0.228689,0.395983,-0.0494111,-0.344413,0.771412,6.02305e-05,4.26328e-05,0.639786,0.48584405798769814,1.1628179977594724,6.0232313892960576e-05,-0.048210231514105195,4.2633708790651426e-05,-0.2913637991454471
882,0.8574,714.82,283.767,0.00891931,451.976,0.373088,0.228729,0.396326,-0.0494551,-0.344711,0.772087,6.13038e-05,4.32524e-05,0.640346,0.4863537899136159,1.164278392735815,6.130567911633023e-05,-0.0482521093425996,4.325333539845211e-05,-0.29157494127156247
883,0.8584,714.941,283.811,0.00889598,452.048,0.373124,0.228765,0.396668,-0.0494991,-0.345009,0.772762,6.23766e-05,4.38717e-05,0.640907,0.4868622098446189,1.1657397738115378,6.237854546053967e-05,-0.048293985328510036,4.387266237704246e-05,-0.29178602048669844
884,0.8594,715.061,283.855,0.00887828,452.121,0.373158,0.228804,0.397011,-0.0495431,-0.345307,0.773436,6.34488e-05,4.44906e-05,0.641466,0.4873722910565226,1.167199974451425,6.345081291758703e-05,-0.04833585947191765,4.449158972152922e-05,-0.29199703680959965
885,0.8604,715.181,283.898,0.00885563,452.193,0.373194,0.22884,0.397353,-0.0495871,-0.345605,0.774111,6.45205e-05,4.51093e-05,0.642026,0.48788105937448734,1.1686633282605285,6.452258149214352e-05,-0.0483777317729035,4.511031743970051e-05,-0.29220799025900535
886,0.8614,715.3,283.942,0.00883751,452.265,0.373228,0.228879,0.397695,-0.049631,-0.345903,0.774784,6.55916e-05,4.57276e-05,0.642586,0.4883900017209739,1.1701233299158984,6.55937511759852e-05,-0.048419507073504175,4.5728645522657985e-05,-0.29241888085364887
887,0.8624,715.42,283.985,0.00881542,452.338,0.373264,0.228915,0.398037,-0.049675,-0.3462,0.775458,6.66622e-05,4.63456e-05,0.643145,0.48889911815551046,1.1715864860684952,6.66644219737833e-05,-0.04846137569407649,4.634667397396264e-05,-0.2926290012416132
888,0.8634,715.54,284.029,0.00879699,452.41,0.373297,0.228954,0.398379,-0.0497189,-0.346498,0.776131,6.77322e-05,4.69633e-05,0.643703,0.48940840873764513,1.1730484556712102,6.77344938773139e-05,-0.0485031473227896,4.6964402792948334e-05,-0.2928397663936758
889,0.8644,715.659,284.072,0.00877538,452.482,0.373333,0.22899,0.39872,-0.0497627,-0.346795,0.776804,6.88017e-05,4.75807e-05,0.644262,0.48991638360981815,1.1745114095106262,6.880406689124818e-05,-0.0485448219722554,4.758183197939303e-05,-0.2930497617971959
890,0.8654,715.778,284.115,0.0087567,452.554,0.373367,0.229028,0.399062,-0.0498066,-0.347092,0.777476,6.98706e-05,4.81977e-05,0.64482,0.49042602215623665,1.1759731722750968,6.98730410071402e-05,-0.04858658993775722,4.8198861527737336e-05,-0.29325969484134184
891,0.8664,715.897,284.159,0.0087355,452.626,0.373402,0.229065,0.399403,-0.0498504,-0.347389,0.778148,7.0939e-05,4.88145e-05,0.645378,0.4909343440937566,1.1774359176742735,7.09415162303273e-05,-0.04862826093251649,4.881569144710163e-05,-0.29346956554463177
892,0.8674,716.016,284.202,0.00871664,452.698,0.373436,0.229102,0.399744,-0.0498943,-0.347686,0.77882,7.20068e-05,4.94309e-05,0.645935,0.49144283939861455,1.1788996463687091,7.20093925519194e-05,-0.04867002523512842,4.943212172703326e-05,-0.2936793739255782
893,0.8684,716.135,284.245,0.00869578,452.769,0.373471,0.229139,0.400084,-0.049938,-0.347982,0.779491,7.30741e-05,5.0047e-05,0.646493,0.491950016179177,1.180362178656131,7.307676997703183e-05,-0.0487115974466662,5.0048252371981405e-05,-0.29388841389145504
894,0.8694,716.253,284.288,0.00867681,452.841,0.373505,0.229177,0.400425,-0.0499818,-0.348279,0.780162,7.41408e-05,5.06629e-05,0.64705,0.4924588578872746,1.181825692632037,7.414354849699656e-05,-0.048753262966216515,5.066418338639522e-05,-0.29409809789291375
895,0.8704,716.372,284.331,0.00865625,452.912,0.37354,0.229213,0.400766,-0.0500256,-0.348575,0.780833,7.5207e-05,5.12783e-05,0.647606,0.49296787313998247,1.183290188955361,7.520982811737298e-05,-0.04879492666085705,5.1279614754484726e-05,-0.2943070139348378
896,0.8714,716.49,284.374,0.00863719,452.984,0.373574,0.22925,0.401106,-0.0500693,-0.348871,0.781503,7.62726e-05,5.18935e-05,0.648163,0.49347556852017394,1.1847534835309048,7.62755088286049e-05,-0.048836493414321724,5.189484649092968e-05,-0.2945158681467649
897,0.8724,716.608,284.417,0.00861688,453.055,0.373609,0.229287,0.401446,-0.050113,-0.349167,0.782173,7.73377e-05,5.25084e-05,0.648719,0.49398343654614263,1.1862177588423237,7.734069063691784e-05,-0.048878058351359055,5.25097785901707e-05,-0.29472466054699376
898,0.8734,716.726,284.46,0.00859778,453.126,0.373643,0.229324,0.401786,-0.0501567,-0.349463,0.782843,7.84022e-05,5.3123e-05,0.649274,0.4944914772765985,1.1876830155469311,7.840527353275561e-05,-0.048919621472048314,5.312441105154164e-05,-0.294933391153818
899,0.8744,716.844,284.503,0.0085777,453.198,0.373678,0.22936,0.402125,-0.0502004,-0.349758,0.783512,7.94662e-05,5.37372e-05,0.64983,0.4949981957713274,1.1891470651543217,7.94693575221217e-05,-0.04896118277646888,5.373864386926108e-05,-0.2951413551272334
900,0.8754,716.962,284.546,0.00855858,453.269,0.373711,0.229397,0.402465,-0.050244,-0.350054,0.784181,8.05296e-05,5.43511e-05,0.650385,0.4955065815785793,1.190612094538598,8.053284259523785e-05,-0.049002647164969604,5.435257704777818e-05,-0.29534996241071465
901,0.8764,717.08,284.589,0.0085387,453.34,0.373746,0.229434,0.402804,-0.0502876,-0.350349,0.784849,8.15925e-05,5.49647e-05,0.65094,0.49601364425200156,1.1920759122784426,8.159582875855165e-05,-0.04904410974566231,5.49662105868709e-05,-0.2955578035137335
902,0.8774,717.197,284.632,0.00851958,453.411,0.37378,0.22947,0.403143,-0.0503312,-0.350644,0.785517,8.26548e-05,5.55781e-05,0.651495,0.4965208788488096,1.1935407081752052,8.26582160020628e-05,-0.049085570518626054,5.5579644491210445e-05,-0.2957655833126698
903,0.8784,717.314,284.674,0.00849987,453.481,0.373814,0.229507,0.403482,-0.0503748,-0.350939,0.786185,8.37166e-05,5.61911e-05,0.652049,0.49702828542729516,1.1950064828825129,8.372010433244093e-05,-0.04912702948393943,5.619267874945599e-05,-0.29597330182560544
904,0.8794,717.432,284.717,0.00848078,453.552,0.373848,0.229543,0.403821,-0.0504184,-0.351234,0.786853,8.47779e-05,5.68037e-05,0.652603,0.49753586404576966,1.19647323705443,8.478149374768762e-05,-0.049168486641681275,5.680531336071937e-05,-0.29618095907061737
905,0.8804,717.549,284.759,0.00846123,453.623,0.373882,0.229579,0.40416,-0.0504619,-0.351528,0.78752,8.58386e-05,5.74161e-05,0.653157,0.4980436147625653,1.197938773405585,8.584228423802465e-05,-0.04920984691291996,5.74177483358973e-05,-0.29638785145397994
906,0.8814,717.665,284.802,0.00844218,453.693,0.373916,0.229616,0.404498,-0.0505054,-0.351823,0.788186,8.68988e-05,5.80282e-05,0.65371,0.4985500390852442,1.1994030881913713,8.690257581012162e-05,-0.04925120538502592,5.8029883668542226e-05,-0.2965953864248878
907,0.8824,717.782,284.844,0.00842278,453.764,0.37395,0.229652,0.404836,-0.0505489,-0.352117,0.788853,8.79584e-05,5.86399e-05,0.654263,0.49905663460827543,1.2008705794051089,8.796226845353416e-05,-0.04929256205807753,5.8641619352650665e-05,-0.2968021569845173
908,0.8834,717.899,284.887,0.00840378,453.834,0.373984,0.229688,0.405175,-0.0505924,-0.352411,0.789519,8.90174e-05,5.92514e-05,0.654816,0.49956490095368555,1.2023368474240455,8.902136216626388e-05,-0.049333916932152944,5.9253155398897306e-05,-0.29700886676253746
909,0.8844,718.015,284.929,0.00838451,453.905,0.374018,0.229724,0.405512,-0.0506358,-0.352705,0.790184,9.0076e-05,5.98625e-05,0.655368,0.5000703394869164,1.2038018884997501,9.008005696475863e-05,-0.04937517494485277,5.986429179527519e-05,-0.2972155157768157
910,0.8854,718.132,284.971,0.00836556,453.975,0.374052,0.22976,0.40585,-0.0506792,-0.352999,0.79085,9.1134e-05,6.04733e-05,0.655921,0.5005774489583357,1.205270109420788,9.113815282923987e-05,-0.04941643116699368,6.0475128546899626e-05,-0.29742210404521385
911,0.8864,718.248,285.014,0.00834642,454.045,0.374086,0.229796,0.406188,-0.0507227,-0.353293,0.791515,9.21914e-05,6.10838e-05,0.656473,0.5010847298617269,1.2067371017644453,9.219564975770922e-05,-0.04945778065288009,6.108566565332652e-05,-0.2976286315855885
912,0.8874,718.364,285.056,0.00832754,454.115,0.374119,0.229832,0.406525,-0.050766,-0.353587,0.792179,9.32483e-05,6.16941e-05,0.657024,0.5015906806636121,1.2082028617784877,9.32526477579465e-05,-0.049498938239909585,6.169600312011525e-05,-0.29783509841579103
913,0.8884,718.48,285.098,0.00830851,454.185,0.374153,0.229868,0.406862,-0.0508094,-0.35388,0.792844,9.43047e-05,6.23039e-05,0.657576,0.5020968019996508,1.2096718050510749,9.430914682795333e-05,-0.049540189090840014,6.230584092836722e-05,-0.29804080259482135
914,0.8894,718.595,285.14,0.0082897,454.255,0.374187,0.229904,0.407199,-0.0508527,-0.354173,0.793507,9.53605e-05,6.29135e-05,0.658127,0.5026030939273229,1.2111373032167831,9.536504695706327e-05,-0.04958134310966145,6.291547909564876e-05,-0.2982464465113561
915,0.8904,718.711,285.182,0.00827079,454.325,0.37422,0.229939,0.407536,-0.0508961,-0.354466,0.794171,9.64158e-05,6.35228e-05,0.658678,0.5031095565041275,1.21260598593482,9.642044815261208e-05,-0.04962259038429817,6.352481761573436e-05,-0.29845203018304967
916,0.8914,718.826,285.224,0.00825205,454.394,0.374254,0.229975,0.407873,-0.0509394,-0.354759,0.794834,9.74705e-05,6.41318e-05,0.659228,0.5036161897875826,1.2140734301074847,9.747525040348926e-05,-0.04966374083522085,6.413385648795789e-05,-0.2986575536275511
917,0.8924,718.942,285.266,0.00823324,454.464,0.374287,0.230011,0.408209,-0.0509827,-0.355052,0.795497,9.85247e-05,6.47404e-05,0.659778,0.5041214897129849,1.2155418475182285,9.852955371769667e-05,-0.04970488950436758,6.474249570498358e-05,-0.2988630168625044
918,0.8934,719.057,285.308,0.00821459,454.533,0.374321,0.230046,0.408545,-0.0510259,-0.355345,0.79616,9.95784e-05,6.53488e-05,0.660328,0.5046269594476884,1.217011238812522,9.958335809345797e-05,-0.049745941366414415,6.53509352792625e-05,-0.29906841990554844
919,0.8944,719.172,285.35,0.00819588,454.603,0.374354,0.230082,0.408881,-0.0510691,-0.355637,0.796822,0.000100631,6.59568e-05,0.660878,0.5051325990487587,1.2184793861557695,0.00010063606346899512,-0.04978699145505905,6.595897519745542e-05,-0.2992730620477292
920,0.8954,719.287,285.391,0.00817731,454.672,0.374388,0.230117,0.409217,-0.0511124,-0.355929,0.797484,0.000101684,6.65646e-05,0.661427,0.5056384085732806,1.2199485057343322,0.0001016891699932021,-0.049828134787569534,6.656681547223542e-05,-0.29947764444312786
921,0.8964,719.402,285.433,0.0081587,454.742,0.374421,0.230153,0.409553,-0.0511556,-0.356221,0.798145,0.000102736,6.7172e-05,0.661976,0.5061443880783578,1.221416376774556,0.00010274127752363249,-0.049869181325535084,6.71742560893751e-05,-0.29968216710918805
922,0.8974,719.517,285.475,0.00814021,454.811,0.374455,0.230188,0.409889,-0.0511987,-0.356513,0.798806,0.000103788,6.77791e-05,0.662525,0.5066505376211137,1.2228852183982801,0.00010379338616073319,-0.04991013108134634,6.77813970551e-05,-0.29988663006334804
923,0.8984,719.631,285.517,0.0081217,454.88,0.374488,0.230223,0.410224,-0.0512419,-0.356805,0.799467,0.000104839,6.8386e-05,0.663073,0.5071553501025863,1.224355031247272,0.0001048444958000605,-0.04995117407714855,6.838833837585767e-05,-0.3000910333230413
924,0.8994,719.745,285.558,0.00810329,454.949,0.374521,0.230258,0.410559,-0.051285,-0.357097,0.800128,0.000105889,6.89925e-05,0.663622,0.5076603317245696,1.2258258159637236,0.0001058946064380617,-0.049992120299148346,6.899488003719867e-05,-0.30029537690569597
925,0.9004,719.86,285.6,0.00808488,455.018,0.374555,0.230294,0.410894,-0.0513281,-0.357388,0.800788,0.000106939,6.95987e-05,0.664169,0.5081654825437354,1.227295345893793,0.00010694471817873641,-0.05003306475640412,6.960112204579261e-05,-0.3004989613280463
926,0.9014,719.974,285.641,0.00806655,455.087,0.374588,0.230329,0.411229,-0.0513712,-0.35768,0.801447,0.000107988,7.02046e-05,0.664717,0.5086708026167739,1.2287636172690184,0.00010799383091386616,-0.05007400744899171,7.020706440052926e-05,-0.3007031858131126
927,0.9024,720.088,285.683,0.00804824,455.156,0.374621,0.230364,0.411564,-0.0514143,-0.357971,0.802107,0.000109037,7.08102e-05,0.665264,0.509176292000395,1.2302350867879426,0.00010904294474967102,-0.05011494837698738,7.081270710140863e-05,-0.300906651580336
928,0.9034,720.202,285.724,0.00803,455.224,0.374654,0.230399,0.411898,-0.0514573,-0.358262,0.802766,0.000110085,7.14155e-05,0.665811,0.509680441070131,1.2317052960908943,0.00011009105957593412,-0.05015579255605096,7.141805014754254e-05,-0.30111005814763525
929,0.9044,720.315,285.765,0.00801177,455.293,0.374687,0.230434,0.412233,-0.0515004,-0.358553,0.803425,0.000111133,7.20204e-05,0.666358,0.5101862687392935,1.2331764745810885,0.00011113917550065189,-0.05019672995918445,7.20229935313732e-05,-0.30131340553223485
930,0.9054,720.429,285.807,0.00799362,455.362,0.37472,0.230469,0.412567,-0.0515434,-0.358844,0.804083,0.00011218,7.26251e-05,0.666905,0.5106907551976012,1.2346463882499248,0.000112186292411387,-0.05023757062171563,7.262773726646188e-05,-0.3015166937513546
931,0.9064,720.542,285.848,0.00797549,455.43,0.374753,0.230503,0.412901,-0.0515864,-0.359134,0.804741,0.000113227,7.32295e-05,0.667451,0.5111954101825282,1.2361172694402351,0.00011323341041880042,-0.050278409528136114,7.323218134525078e-05,-0.3017192245417827
932,0.9074,720.656,285.889,0.00795741,455.499,0.374786,0.230538,0.413235,-0.0516293,-0.359425,0.805399,0.000114273,7.38336e-05,0.667997,0.511700233750372,1.2375891187888577,0.00011427952940801234,-0.05031915171044132,7.383632576729582e-05,-0.30192239468475146
933,0.9084,720.769,285.93,0.00793937,455.567,0.374819,0.230573,0.413568,-0.0516723,-0.359715,0.806056,0.000115319,7.44373e-05,0.668542,0.5122037137529787,1.239059697872233,0.00011532564949146007,-0.0503599871089504,7.444007052459511e-05,-0.302124807838967
934,0.9094,720.882,285.971,0.00792138,455.635,0.374852,0.230608,0.413902,-0.0517152,-0.360005,0.806713,0.000116364,7.50408e-05,0.669088,0.5127088741504624,1.2405312434435225,0.00011637077055293155,-0.050400725791652445,7.504361563115403e-05,-0.3023271623018784
935,0.9104,720.995,286.012,0.00790343,455.703,0.374885,0.230642,0.414235,-0.0517581,-0.360295,0.80737,0.000117409,7.5644e-05,0.669633,0.5132126900862524,1.242003756137918,0.00011741589270641839,-0.05044146272670247,7.564686107941476e-05,-0.3025294580905037
936,0.9114,721.107,286.053,0.00788553,455.771,0.374918,0.230677,0.414568,-0.051801,-0.360585,0.808026,0.000118453,7.62468e-05,0.670177,0.5137166738206855,1.243474993114912,0.00011846001583371013,-0.05048219791417552,7.62497068611534e-05,-0.30273169522185606
937,0.9124,721.22,286.094,0.00786767,455.839,0.374951,0.230711,0.414901,-0.0518438,-0.360874,0.808682,0.000119496,7.68494e-05,0.670722,0.5142208254096488,1.244947195539996,0.0001195031399314761,-0.050522836406434846,7.685235299081938e-05,-0.3029331766464688
938,0.9134,721.333,286.135,0.00784985,455.907,0.374983,0.230746,0.415234,-0.0518867,-0.361164,0.809338,0.000120539,7.74516e-05,0.671266,0.5147251449090464,1.2464203640467106,0.00012054626511726063,-0.05056356810305185,7.7454599452631e-05,-0.3031352967164146
939,0.9144,721.445,286.176,0.00783207,455.975,0.375016,0.23078,0.415566,-0.0519295,-0.361453,0.809993,0.000121582,7.80536e-05,0.67181,0.5152281171459276,1.2478922513756383,0.00012158939139084168,-0.05060420311274161,7.805664626148179e-05,-0.3033366615170484
940,0.9154,721.557,286.217,0.00781434,456.043,0.375049,0.230814,0.415899,-0.0519723,-0.361742,0.810648,0.000122623,7.86552e-05,0.672353,0.5157327721293286,1.249365103106574,0.00012263051850736062,-0.050644836383290204,7.865829340136798e-05,-0.303537968131663
941,0.9164,721.669,286.258,0.00779665,456.11,0.375081,0.230849,0.416231,-0.0520151,-0.362031,0.811302,0.000123665,7.92565e-05,0.672897,0.5162360789539853,1.2508366690336126,0.0001236726468312188,-0.05068546791477202,7.925964087940329e-05,-0.3037392165770719
942,0.9174,721.781,286.298,0.00777901,456.178,0.375114,0.230883,0.416563,-0.0520578,-0.36232,0.811957,0.000124706,7.98576e-05,0.67344,0.5167395529042493,1.2523114499898664,0.0001247137761164474,-0.05072600277986661,7.986078870292346e-05,-0.3039404068700835
943,0.9184,721.893,286.339,0.0077614,456.246,0.375147,0.230917,0.416895,-0.0521006,-0.362609,0.812611,0.000125746,8.04583e-05,0.673983,0.5172431940356153,1.2537849434580037,0.00012575390635971573,-0.05076663083750099,8.046153685592472e-05,-0.3041415390275014
944,0.9194,722.005,286.38,0.00774384,456.313,0.375179,0.230951,0.417227,-0.0521433,-0.362898,0.813264,0.000126786,8.10587e-05,0.674525,0.5177470024035964,1.2552571456477835,0.00012679403768456332,-0.05080716223701265,8.106198534529874e-05,-0.3043426130661244
945,0.9204,722.117,286.42,0.00772632,456.38,0.375212,0.230985,0.417558,-0.052186,-0.363186,0.813918,0.000127825,8.16589e-05,0.675067,0.5182494598135059,1.2567325662309798,0.00012783316996345384,-0.05084769190587057,8.166223417882534e-05,-0.30454293354602757
946,0.9214,722.228,286.461,0.00770884,456.448,0.375244,0.231019,0.41789,-0.0522287,-0.363474,0.81457,0.000128864,8.22587e-05,0.675609,0.5187536023171888,1.2582044356414483,0.00012887230332192523,-0.050888219844148486,8.22620833396126e-05,-0.3047431963419396
947,0.9224,722.339,286.501,0.00769141,456.515,0.375277,0.231053,0.418221,-0.0522713,-0.363762,0.815223,0.000129902,8.28582e-05,0.676151,0.5192563929668179,1.2596795247020847,0.0001299104376302207,-0.05092865114479039,8.286163283544035e-05,-0.3049434014704707
948,0.9234,722.451,286.542,0.00767401,456.582,0.375309,0.231087,0.418552,-0.052314,-0.36405,0.815875,0.00013094,8.34575e-05,0.676692,0.519759350067698,1.261153316155995,0.0001309485730158766,-0.05096917562618264,8.346098267408841e-05,-0.30514354894822704
949,0.9244,722.562,286.582,0.00765666,456.649,0.375342,0.231121,0.418883,-0.0523566,-0.364338,0.816527,0.000131977,8.40564e-05,0.677233,0.5202624736749337,1.2626280688352587,0.00013198570934735976,-0.05100960347818162,8.405993283822077e-05,-0.30534363879180937
950,0.9254,722.673,286.622,0.00763935,456.716,0.375374,0.231155,0.419213,-0.0523992,-0.364626,0.817179,0.000133014,8.4655e-05,0.677774,0.5207642430786446,1.2641037833667985,0.000133022846754427,-0.051050029607990766,8.465858333561727e-05,-0.3055436710178142
951,0.9264,722.783,286.662,0.00762208,456.783,0.375406,0.231189,0.419544,-0.0524417,-0.364913,0.81783,0.00013405,8.52534e-05,0.678315,0.5212676993605216,1.26557819479862,0.00013405898510265857,-0.05109035912472415,8.525703417427977e-05,-0.3057429513861314
952,0.9274,722.894,286.703,0.00760486,456.85,0.375438,0.231223,0.419874,-0.0524843,-0.365201,0.818481,0.000135085,8.58514e-05,0.678855,0.5217698005434492,1.2670535663847802,0.00013509412438938995,-0.05113078181441599,8.585508533687225e-05,-0.30594286862666764
953,0.9284,723.005,286.743,0.00758767,456.916,0.375471,0.231256,0.420204,-0.0525268,-0.365488,0.819131,0.00013612,8.64491e-05,0.679395,0.5222720674471097,1.268527630221778,0.00013612926474748654,-0.0511711078992535,8.645283683117455e-05,-0.3061420344417103
954,0.9294,723.115,286.783,0.00757053,456.983,0.375503,0.23129,0.420534,-0.0525693,-0.365775,0.819782,0.000137155,8.70465e-05,0.679934,0.5227745001261996,1.2700049225155206,0.00013716440617694836,-0.05121143227026881,8.705028865652054e-05,-0.3063411431043658
955,0.9304,723.225,286.823,0.00755343,457.05,0.375535,0.231323,0.420864,-0.0526118,-0.366062,0.820432,0.000138189,8.76437e-05,0.680474,0.5232770986354343,1.2714809053576124,0.0001381985485395809,-0.051251754927534754,8.764754082135617e-05,-0.30654019463103443
956,0.9314,723.336,286.863,0.00753636,457.116,0.375567,0.231357,0.421194,-0.0526543,-0.366349,0.821081,0.000139222,8.82405e-05,0.681013,0.5237798630295465,1.2729555749437091,0.00013923169183249762,-0.051292075871124276,8.824439330745726e-05,-0.3067391890381119
957,0.9324,723.446,286.903,0.00751934,457.183,0.375599,0.231391,0.421523,-0.0526967,-0.366635,0.82173,0.000140255,8.8837e-05,0.681552,0.5242812690812559,1.2744312019010007,0.00014026483619233865,-0.05133230023434476,8.884094612304771e-05,-0.3069374332797692
958,0.9334,723.555,286.943,0.00750236,457.249,0.375631,0.231424,0.421852,-0.0527392,-0.366922,0.822379,0.000141288,8.94333e-05,0.68209,0.5247828401226957,1.2759077868510222,0.0001412979816195481,-0.051372617754831484,8.943729927679556e-05,-0.30713631369571315
959,0.9344,723.665,286.983,0.00748542,457.315,0.375664,0.231457,0.422182,-0.0527816,-0.367208,0.823028,0.00014232,9.00292e-05,0.682629,0.5252861014934953,1.2773853304157137,0.00014233012797171263,-0.0514128387031485,9.003325275003249e-05,-0.30733444437595825
960,0.9354,723.775,287.023,0.00746853,457.381,0.375696,0.231491,0.422511,-0.052824,-0.367494,0.823676,0.000143351,9.06248e-05,0.683167,0.5257880031791868,1.278861554354723,0.00014336127524550157,-0.05145305794613353,9.062890655120448e-05,-0.30753251839893136
961,0.9364,723.884,287.063,0.00745167,457.447,0.375728,0.231524,0.422839,-0.0528663,-0.36778,0.824324,0.000144382,9.12202e-05,0.683704,0.5262885437283922,1.2803387351968483,0.00014439242358266213,-0.051493180633181646,9.122436068897954e-05,-0.30773053578083387
962,0.9374,723.994,287.102,0.00743485,457.513,0.37576,0.231557,0.423168,-0.0529087,-0.368066,0.824971,0.000145413,9.18152e-05,0.684242,0.5267907752718375,1.2818145917466306,0.00014542357298275022,-0.05153339646974098,9.181941514446734e-05,-0.30792849653786303
963,0.9384,724.103,287.142,0.00741807,457.579,0.375791,0.23159,0.423496,-0.052951,-0.368352,0.825619,0.000146442,9.241e-05,0.684779,0.5272916447842362,1.283293686777116,0.0001464527231531676,-0.05157351575854141,9.241426993567003e-05,-0.308126400686211
964,0.9394,724.212,287.182,0.00740133,457.645,0.375823,0.231624,0.423825,-0.0529933,-0.368637,0.826266,0.000147472,9.30044e-05,0.685316,0.5277942064022232,1.2847714557991887,0.00014748287453003606,-0.051613633350331756,9.300872504325319e-05,-0.308323556565968
965,0.9404,724.321,287.221,0.00738464,457.711,0.375855,0.231657,0.424153,-0.0530356,-0.368923,0.826912,0.000148501,9.35986e-05,0.685852,0.5282954050940152,1.286247894998151,0.0001485120268194251,-0.051653749245183844,9.360298048566307e-05,-0.30852134774330353
966,0.9414,724.43,287.261,0.00736798,457.777,0.375887,0.23169,0.424481,-0.0530779,-0.369208,0.827558,0.000149529,9.41924e-05,0.686389,0.5287967682059416,1.2877252882849732,0.0001495401800182261,-0.05169386344316951,9.419683624334318e-05,-0.30871839107918764
967,0.9424,724.539,287.301,0.00735136,457.843,0.375919,0.231723,0.424808,-0.0531201,-0.369493,0.828204,0.000150557,9.4786e-05,0.686925,0.5292967664944097,1.289203636276195,0.00015056833427395944,-0.051733881117753344,9.47904923347398e-05,-0.3089153782657227
968,0.9434,724.648,287.34,0.00733478,457.908,0.375951,0.231756,0.425136,-0.0531624,-0.369778,0.82885,0.000151584,9.53793e-05,0.687461,0.5297984581067465,1.2906829395887547,0.00015159548943510792,-0.05177399192623244,9.538384875007466e-05,-0.3091123093189089
969,0.9444,724.756,287.38,0.00731824,457.974,0.375982,0.231789,0.425463,-0.0532046,-0.370063,0.829495,0.000152611,9.59722e-05,0.687996,0.5302987840013729,1.2921609066779363,0.00015262264565096828,-0.051814006219465636,9.597680547890342e-05,-0.30930918425474196
970,0.9454,724.865,287.419,0.00730175,458.039,0.376014,0.231821,0.425791,-0.0532468,-0.370348,0.83014,0.000153637,9.65649e-05,0.688531,0.5308008043293582,1.2936398273633922,0.000153648802768247,-0.05185401882413132,9.65695625401164e-05,-0.3095060030892133
971,0.9464,724.973,287.458,0.00728529,458.104,0.376046,0.231854,0.426118,-0.0532889,-0.370632,0.830785,0.000154663,9.71573e-05,0.689066,0.5313014580447952,1.2951197022603904,0.00015467496093846123,-0.05189393492969896,9.716201992326923e-05,-0.3097020755407299
972,0.9474,725.081,287.498,0.00726886,458.17,0.376077,0.231887,0.426445,-0.0533311,-0.370917,0.831429,0.000155688,9.77494e-05,0.689601,0.5318022755007672,1.2965982353852126,0.00015570012000565292,-0.051933944161444145,9.775417762836192e-05,-0.30989878241713953
973,0.9484,725.189,287.537,0.00725248,458.235,0.376109,0.23192,0.426771,-0.0533732,-0.371201,0.832073,0.000156712,9.83412e-05,0.690135,0.5323017244483357,1.298077720992033,0.0001567242799669355,-0.05197385690222589,9.834603565428424e-05,-0.3100947433351655
974,0.9494,725.297,287.576,0.00723614,458.3,0.376141,0.231952,0.427098,-0.0534153,-0.371485,0.832716,0.000157737,9.89326e-05,0.69067,0.5328028690449063,1.299555860137438,0.00015774944113466915,-0.05201376796271662,9.893749399103591e-05,-0.3102906486081929
975,0.9504,725.405,287.615,0.00721984,458.365,0.376172,0.231985,0.427424,-0.0534574,-0.371769,0.83336,0.00015876,9.95238e-05,0.691203,0.5333026442391455,1.3010372510680472,0.00015877260303565066,-0.05205367734298694,9.952875265772931e-05,-0.31048649825202235
976,0.9514,725.513,287.654,0.00720357,458.43,0.376204,0.232018,0.427751,-0.0534995,-0.372053,0.834003,0.000159783,0.000100115,0.691737,0.5338041161900071,1.3025172938032301,0.00015979576598357248,-0.052093585043107904,0.00010012001167392093,-0.3106822922824505
977,0.9524,725.62,287.694,0.00718735,458.495,0.376235,0.23205,0.428077,-0.0535415,-0.372336,0.834645,0.000160806,0.000100705,0.69227,0.5343042178440256,1.3039959845147813,0.00016081892997799052,-0.05213339627649427,0.0001007100709187192,-0.3108773415929553
978,0.9534,725.728,287.733,0.00717116,458.56,0.376267,0.232083,0.428403,-0.0535835,-0.37262,0.835287,0.000161828,0.000101296,0.692803,0.5348044825577605,1.3054756248505668,0.00016184109485717357,-0.05217320583784402,0.00010130113061301849,-0.31107302463963504
979,0.9544,725.835,287.772,0.00715501,458.625,0.376298,0.232115,0.428728,-0.0536255,-0.372903,0.835929,0.00016285,0.000101886,0.693336,0.5353033750802354,1.3069562154204397,0.0001628632607810765,-0.05221301372722731,0.00010189119055481477,-0.311267963388528
980,0.9554,725.942,287.811,0.0071389,458.689,0.376329,0.232147,0.429054,-0.0536675,-0.373186,0.836571,0.000163871,0.000102475,0.693869,0.5358039655723283,1.308437756834647,0.00016388442758574762,-0.05225281994471431,0.00010248025074210965,-0.31146284697756055
981,0.9564,726.049,287.849,0.00712283,458.754,0.376361,0.23218,0.429379,-0.0537095,-0.373469,0.837212,0.000164891,0.000103065,0.694401,0.5363031829795739,1.3099179397847318,0.00016490459526807832,-0.05229262449037542,0.00010307031137957168,-0.3116576754223406
982,0.9574,726.156,287.888,0.00710679,458.819,0.376392,0.232212,0.429705,-0.0537514,-0.373752,0.837853,0.000165912,0.000103654,0.694933,0.5368040994621757,1.3113990718362425,0.00016592576415708216,-0.05233233259751857,0.00010365937226142208,-0.31185244873847195
983,0.9584,726.263,287.927,0.0070908,458.883,0.376423,0.232244,0.43003,-0.0537934,-0.374035,0.838494,0.000166931,0.000104243,0.695464,0.5373036419657606,1.3128811535977474,0.00016694493375468689,-0.0523721338037183,0.0001042484334903282,-0.31204716694155366
984,0.9594,726.37,287.966,0.00707484,458.947,0.376455,0.232277,0.430355,-0.0538353,-0.374318,0.839134,0.00016795,0.000104831,0.695996,0.5378033468470442,1.3143618713151777,0.00016796410439079423,-0.052411838579491055,0.00010483649496140224,-0.31224183004718054
985,0.9604,726.476,288.005,0.00705892,459.012,0.376486,0.232309,0.430679,-0.0538772,-0.3746,0.839774,0.000168969,0.00010542,0.696527,0.5383016758563628,1.315843536995263,0.00016898327606562624,-0.052451541691668546,0.00010542555688353161,-0.3124357505070373
986,0.9614,726.583,288.043,0.00704303,459.076,0.376517,0.232341,0.431004,-0.053919,-0.374882,0.840414,0.000169987,0.000106008,0.697058,0.5388017051513754,1.317326151244893,0.00017000144860879196,-0.052491148389440134,0.00010601361904649664,-0.3126296162890343
987,0.9624,726.689,288.082,0.00702719,459.14,0.376548,0.232373,0.431328,-0.0539609,-0.375165,0.841053,0.000171004,0.000106595,0.697589,0.5393003576811919,1.3188073958627924,0.0001710186220174048,-0.052530848178606204,0.00010660068144896506,-0.3128241145848175
988,0.9634,726.795,288.121,0.00701138,459.204,0.376579,0.232405,0.431653,-0.0540027,-0.375447,0.841692,0.000172021,0.000107183,0.698119,0.5398007116005461,1.3202895872984781,0.00017203579646074552,-0.052570451561435916,0.0001071887443029329,-0.31301787086358523
989,0.9644,726.902,288.159,0.00699561,459.268,0.376611,0.232437,0.431977,-0.0540445,-0.375729,0.842331,0.000173038,0.00010777,0.698649,0.5402996878608939,1.3217727261571608,0.00017305297193837,-0.05261005328887869,0.00010777580739507187,-0.3132115725107858
990,0.9654,727.008,288.198,0.00697988,459.332,0.376642,0.232469,0.432301,-0.0540863,-0.37601,0.842969,0.000174054,0.000108357,0.699179,0.540798825815743,1.3232544897887855,0.00017406914827633457,-0.05264965336100402,0.00010836287083182405,-0.31340453294669934
991,0.9664,727.113,288.236,0.00696418,459.396,0.376673,0.232501,0.432624,-0.0541281,-0.376292,0.843607,0.000175069,0.000108943,0.699708,0.5412965842201363,1.324737199087243,0.00017508432547175268,-0.05268925177788086,0.00010894893450408283,-0.31359812557056554
992,0.9674,727.219,288.275,0.00694852,459.46,0.376704,0.232533,0.432948,-0.0541698,-0.376573,0.844245,0.000176084,0.000109529,0.700238,0.5417960452217365,1.3262208546560612,0.00017609950369745775,-0.05272875381245856,0.0001095349985198446,-0.31379097740032913
993,0.9684,727.325,288.313,0.0069329,459.524,0.376735,0.232565,0.433271,-0.0542116,-0.376855,0.844883,0.000177099,0.000110115,0.700767,0.5422941257800229,1.3277054570991527,0.00017711468295367183,-0.05276834892300564,0.00011012106287910939,-0.31398446106222366
994,0.9694,727.43,288.351,0.00691732,459.588,0.376766,0.232596,0.433595,-0.0542533,-0.377136,0.84552,0.000178113,0.000110701,0.701295,0.5427939100374533,1.3291886778309743,0.0001781288630622324,-0.05280784765930113,0.00011070712758187717,-0.3141772043469654
995,0.9704,727.536,288.39,0.00690177,459.651,0.376797,0.232628,0.433918,-0.054295,-0.377417,0.846157,0.000179126,0.000111286,0.701824,0.543292312958134,1.3306728436753885,0.00017914204401980882,-0.0528473447485337,0.00011129219251659883,-0.314369893478453
996,0.9714,727.641,288.428,0.00688626,459.715,0.376828,0.23266,0.434241,-0.0543366,-0.377698,0.846793,0.000180139,0.000111871,0.702352,0.5437908768889597,1.3321556230778344,0.00018015522600389744,-0.05288674547945127,0.00011187725779371327,-0.31456252847190147
997,0.9724,727.746,288.466,0.00687078,459.778,0.376859,0.232691,0.434563,-0.0543783,-0.377978,0.847429,0.000181151,0.000112456,0.70288,0.5442880575931155,1.3336393458279332,0.00018116740883322713,-0.052926239278713316,0.00011246232341299844,-0.31475442409728804
998,0.9734,727.851,288.504,0.00685534,459.842,0.37689,0.232723,0.434886,-0.0544199,-0.378259,0.848065,0.000182163,0.000113041,0.703408,0.5447869432014063,1.3351240125258443,0.00018217959268684858,-0.05296563672768673,0.0001130473893746764,-0.3149469510528127
999,0.9744,727.956,288.542,0.00683994,459.905,0.37692,0.232755,0.435208,-0.0544615,-0.378539,0.8487,0.000183175,0.000113625,0.703935,0.5452844446905585,1.3366072871636545,0.0001831917775647618,-0.053005032537760344,0.00011363145556475551,-0.3151387390549445
