,Time,S11,S22,S33,S12,S13,S23,LE11,LE22,LE33,LE12,LE13,LE23,SDV_EPBAR,E11,E12,E13,E22,E23,E33
0,1e-05,1.56305,0.521016,-2.22045e-16,0.902427,-2.51557e-17,-2.43235e-17,6.74997e-06,2.49999e-07,-2.99999e-06,1.12583e-05,-2.75078e-22,-1.58816e-22,0.0,6.749992781163172e-06,1.1258363374899716e-05,0.0,2.499990312543332e-07,0.0,-2.999985500018454e-06
1,2e-05,3.12608,1.04203,3.33067e-16,1.80484,-4.09921e-17,-1.38669e-17,1.34999e-05,5.00011e-07,-5.99996e-06,2.25164e-05,-6.35266e-22,1.10034e-21,0.0,1.3499991124099608e-05,2.2516653495952e-05,0.0,5.000111249486849e-07,0.0,-5.9999420002343484e-06
2,3.5e-05,5.4706,1.82353,-9.99201e-16,3.15845,-6.58417e-17,-1.06613e-16,2.36246e-05,8.75006e-07,-1.04998e-05,3.94034e-05,-1.94732e-21,8.31865e-22,0.0,2.3624879063044446e-05,3.9404176324087103e-05,0.0,8.750063829054966e-07,0.0,-1.0499744877323636e-05
3,5.75e-05,8.98732,2.99577,-4.10783e-15,5.18883,-7.43258e-17,-9.19113e-17,3.88114e-05,1.43749e-06,-1.72495e-05,6.47335e-05,-6.19998e-22,-2.31412e-21,0.0,3.8812153172029795e-05,6.473559525832506e-05,0.0,1.4374910330960944e-06,0.0,-1.7249351228265652e-05
4,9.125e-05,14.2622,4.75408,-2.89768e-14,8.23431,-2.08889e-16,-1.30402e-16,6.1591e-05,2.28117e-06,-2.73738e-05,0.000102728,-4.5146e-21,-6.50321e-22,0.0,6.159289676466173e-05,0.00010273327670162757,0.0,2.2811726019256184e-06,0.0,-2.737342534098186e-05
5,0.00014188,22.1743,7.39143,-1.57763e-13,12.8023,-5.36799e-16,-2.41322e-16,9.57588e-05,3.54668e-06,-4.25596e-05,0.000159716,-6.09447e-21,3.93795e-22,0.0,9.576338502026438e-05,0.00015972875527947572,0.0,3.5466862895461304e-06,0.0,-4.255869435310089e-05
6,0.00021781,34.0416,11.3472,-8.00804e-13,19.6539,-5.36749e-16,-2.41293e-16,0.000147007,5.4448e-06,-6.53367e-05,0.000245194,-1.55781e-20,6.65609e-21,0.0,0.00014701780605852477,0.00024522406250571116,0.0,5.44481482300796e-06,0.0,-6.533456560431361e-05
7,0.00033172,51.8409,17.2803,-4.05331e-12,29.9304,-7.0394e-16,-4.94619e-16,0.000223873,8.29167e-06,-9.94992e-05,0.000373398,-1.2188e-20,7.88597e-22,0.0,0.00022389806143019442,0.00037346772171087395,0.0,8.291704375995579e-06,0.0,-9.949425011879232e-05
8,0.00050258,78.5361,26.1787,-2.05113e-11,45.3428,-9.3892e-16,-6.30284e-16,0.000339155,1.25613e-05,-0.000150736,0.000565677,-4.95336e-21,-1.85113e-20,0.0,0.0003392125195595952,0.0005658370254069123,0.0,1.256137889349418e-05,0.0,-0.00015072463989995732
9,0.00075887,118.57,39.5234,-1.03755e-10,68.4566,-2.11419e-15,-1.30882e-15,0.000512041,1.89646e-05,-0.000227574,0.000854034,-1.84908e-20,4.97698e-21,0.0,0.0005121721153706904,0.00085439879087712,0.0,1.896477982921141e-05,0.0,-0.0002275481070015406
10,0.0011433,178.602,59.5341,-5.24723e-10,103.116,-2.78185e-15,-2.32149e-15,0.000771287,2.85663e-05,-0.000342794,0.00128643,-5.05387e-20,3.34393e-20,0.0,0.0007715845183038361,0.0012872578060059148,0.0,2.8566708020649756e-05,0.0,-0.00034273525284966855
11,0.00172,268.247,89.4156,-0.000117257,154.873,-3.0134e-05,-3.49266e-05,0.00115985,4.26161e-05,-0.000516003,0.00193511,-3.65897e-10,-4.6268e-10,2.30193e-06,0.001160522886135107,0.0019369835336591201,-3.658969793818301e-10,4.261700807894897e-05,-4.626800054197133e-10,-0.0005158698933475092
12,0.0021524,273.888,91.077,0.0123131,158.2,-0.0681181,0.0232173,0.00143156,-7.15864e-06,-0.00072378,0.0024901,-9.77551e-07,6.86797e-07,0.000397672,0.0014325851711565196,0.002493202873959266,-9.77550522196502e-07,-7.158614376945316e-06,6.867972357493812e-07,-0.0007235181344372732
13,0.0025849,279.288,93.2724,-0.0523685,161.207,0.0532366,-0.0399061,0.00170273,-5.3745e-05,-0.000933812,0.00304375,7.84035e-07,3.86382e-08,0.000795169,0.0017041804678612493,0.0030483869103696826,7.840353073440554e-07,-5.374355576337475e-05,3.8638200638985154e-08,-0.0009333761332573909
14,0.0030174,284.207,94.8804,-0.0226434,164.048,0.0425248,-0.0250895,0.00197386,-0.000102958,-0.00114306,0.00359855,8.50023e-07,3.69338e-07,0.00119513,0.0019758093440160884,0.0036050325546512774,8.500233612540598e-07,-0.00010295270000704182,3.693380681291103e-07,-0.0011424069557648409
15,0.0036661,290.875,96.84,-0.0351254,167.989,-0.039574,-0.0105335,0.00238021,-0.00017866,-0.00145698,0.00443163,-1.82386e-07,1.1132e-06,0.00179881,0.002383044948633506,0.004441464194031797,-1.8238598331610234e-07,-0.0001786440412525625,1.1132006196845623e-06,-0.001455919119929372
16,0.0046392,300.158,100.325,-0.0129015,173.211,0.0693642,-0.0627367,0.00298855,-0.000288435,-0.00193056,0.00567931,2.09076e-06,1.59213e-06,0.00270974,0.0029930201675483215,0.005695467855044933,2.090762185602557e-06,-0.00028839340662445423,1.592131267491581e-06,-0.0019286976676841094
17,0.0056392,308.253,102.457,0.0102908,178.068,-0.0967102,0.0254273,0.00361322,-0.000408221,-0.00241542,0.0069641,-2.84427e-07,4.13723e-06,0.00365241,0.0036197555484716037,0.006988405734166481,-2.8442695954034036e-07,-0.0004081376891443833,4.1372385584104165e-06,-0.0024125052203897157
18,0.0066392,315.956,105.623,-0.0151508,182.329,0.0779675,-0.0563057,0.00423646,-0.000521534,-0.00290426,0.00824535,2.69982e-06,3.72559e-06,0.0045983,0.00424544648247549,0.008279436518996874,2.6998236444253365e-06,-0.0005213980247830152,3.725596940062914e-06,-0.002900046716736493
19,0.0076392,322.778,107.928,-0.0186037,186.257,0.085581,-0.0620954,0.00485906,-0.00063817,-0.00339249,0.00952734,3.58464e-06,4.03109e-06,0.00554794,0.004870884376068529,0.00957286958079906,3.584646424803495e-06,-0.0006379664128356444,4.031098124857024e-06,-0.0033867420076393318
20,0.0086392,328.796,109.282,0.0139251,189.932,-0.107747,0.025346,0.00548133,-0.000760041,-0.0038785,0.0108107,6.52803e-07,5.92846e-06,0.00650069,0.005496379974678556,0.01086934676424045,6.528032130415085e-07,-0.000759752241999756,5.928477573302615e-06,-0.0038709883333459816
21,0.0096392,334.601,111.228,0.022624,193.279,-0.105454,0.0241036,0.00610262,-0.000878886,-0.0043659,0.0120917,1.57033e-07,6.59977e-06,0.00745479,0.0061212789222258035,0.012165100150299146,1.5703301237124379e-07,-0.0008784998928225152,6.599791778638675e-06,-0.0043563833132665986
22,0.010639,340.231,113.716,-0.00116429,196.343,0.0755606,-0.0524812,0.00672275,-0.000993723,-0.00485553,0.0133701,3.02173e-06,5.76349e-06,0.00840987,0.006745398408531278,0.013459879460927748,3.021734565455958e-06,-0.0009932294208068182,5.763506608857938e-06,-0.0048437609702068896
23,0.011639,345.283,115.412,-0.0262487,199.262,0.078686,-0.065294,0.00734236,-0.0011117,-0.00534415,0.014649,3.66111e-06,5.58185e-06,0.00936669,0.007369381217870341,0.014756822454195628,3.6611167018030244e-06,-0.0011110822904787376,5.581865578641043e-06,-0.005329895434538656
24,0.012639,349.901,116.401,0.0758502,202.07,-0.086429,0.0355576,0.00796174,-0.00123398,-0.00583019,0.0159285,1.16266e-06,7.39036e-06,0.0103248,0.007993518934465316,0.016056034802378383,1.1626606759573832e-06,-0.0012332189597481502,7.390387308792157e-06,-0.005813227423306699
25,0.013639,354.562,118.526,-0.0301463,204.614,0.0845785,-0.0696088,0.0085797,-0.00134934,-0.00631988,0.0172042,3.89408e-06,5.9458e-06,0.0112828,0.008616611112618688,0.017353044607782753,3.894087581945982e-06,-0.0013484300501054314,5.945817676211718e-06,-0.0062999515622718105
26,0.014639,358.619,119.216,0.0365244,207.145,-0.113667,0.0283492,0.00919773,-0.00147249,-0.00680546,0.018482,8.08119e-07,7.59234e-06,0.0122422,0.009240159102618994,0.018653849235265918,8.081193265674358e-07,-0.0014714064185195053,7.5923688218626495e-06,-0.006782355299510101
27,0.015639,362.92,121.357,-0.0340568,209.427,0.0979236,-0.0762297,0.00981431,-0.00158732,-0.00729491,0.0197553,4.09607e-06,6.0615e-06,0.0132009,0.009862628281221308,0.019951727300213884,4.096078388915458e-06,-0.00158606087390889,6.061518371014429e-06,-0.00726836672685971
28,0.016639,366.559,121.828,0.0412794,211.737,-0.124092,0.0334054,0.0104311,-0.00171106,-0.00777982,0.0210313,6.5097e-07,7.82642e-06,0.0141609,0.010485693582189537,0.021254016387990626,6.50970211957258e-07,-0.0017095969714003845,7.826450626469139e-06,-0.0077496355276927
29,0.017639,370.279,123.102,0.0346171,213.878,-0.113656,0.0269628,0.0110468,-0.00183081,-0.00826621,0.0223044,1.69822e-07,8.08343e-06,0.0151205,0.01110804119378006,0.022555002843464234,1.6982201445081557e-07,-0.0018291350896754155,8.083462671004682e-06,-0.008232138830565283
30,0.018639,374.093,125.023,0.0304101,215.877,0.0806741,-0.0423721,0.0116615,-0.00194634,-0.00875433,0.0235746,3.10814e-06,7.13813e-06,0.0160794,0.01172976037251483,0.023854677456680795,3.108144830177295e-06,-0.0019444471085714454,7.138155476482666e-06,-0.008716122428312878
31,0.019639,377.472,126.162,-0.0369528,217.845,0.0847088,-0.0720677,0.0122757,-0.00206489,-0.0092414,0.0248453,3.68573e-06,6.50385e-06,0.017039,0.012351355663708485,0.025156516543617835,3.685736792213845e-06,-0.002062759581256346,6.503871150087548e-06,-0.009198829500951855
32,0.020639,380.656,126.671,0.123462,219.803,-0.0826953,0.0493281,0.0128898,-0.00218769,-0.00972529,0.0261163,1.16542e-06,8.43191e-06,0.0179987,0.012973231558671694,0.026460318867003396,1.1654206790723265e-06,-0.0021852987503208077,8.431945548670328e-06,-0.009678152300237164
33,0.021639,383.725,127.586,0.0396578,221.639,-0.11402,0.0277591,0.013503,-0.00230807,-0.0102105,0.0273853,1.675e-07,8.44135e-06,0.018958,0.013594577229376625,0.027763723847192834,1.6750001408105675e-07,-0.002305408454509106,8.441385628277231e-06,-0.01015854980769737
34,0.022639,387.097,129.439,0.0676999,223.346,0.103809,-0.0387202,0.0141151,-0.00242316,-0.0106975,0.0286509,3.49831e-06,7.51054e-06,0.0199162,0.01421518838876712,0.029065285070305258,3.498316119010525e-06,-0.002420226517717894,7.510568204249779e-06,-0.010640485233139874
35,0.023639,389.964,130.347,-0.0396516,225.052,0.0907697,-0.0755235,0.0147268,-0.00254191,-0.0111833,0.0299173,3.86786e-06,6.73795e-06,0.0208749,0.014835773606142633,0.030369318887250474,3.867867480078502e-06,-0.0025386820823805056,6.7379727000105305e-06,-0.011120999359082284
36,0.024639,392.744,130.728,0.145315,226.765,-0.0754025,0.0536993,0.0153384,-0.0026646,-0.0116658,0.0311837,1.40681e-06,8.74011e-06,0.0218335,0.015456637005954788,0.03167500517874755,1.4068109894793679e-06,-0.0026610531044720664,8.740148194963382e-06,-0.011598018386796638
37,0.025639,395.606,132.242,-0.0500326,228.309,0.0954276,-0.0801971,0.0159485,-0.00278012,-0.0121523,0.0324465,4.08491e-06,6.7229e-06,0.022791,0.016076356126286884,0.03297862730906376,4.08491834336111e-06,-0.002776259045194185,6.722922598845216e-06,-0.012078759001215134
38,0.026639,398.275,133.067,-0.0519897,229.87,0.0764479,-0.0735244,0.0165584,-0.00289906,-0.0126365,0.0337094,4.28566e-06,6.49141e-06,0.0237485,0.01669625011334408,0.034284000121658,4.285669183534679e-06,-0.0028948617834986257,6.4914310693442445e-06,-0.012556994675906319
39,0.027639,400.827,133.475,0.10508,231.429,-0.0584498,0.035553,0.0171681,-0.00302095,-0.0131183,0.0349721,2.30949e-06,8.11943e-06,0.0247057,0.017316318825776778,0.03559081541281239,2.3094926668854043e-06,-0.0030163915220154935,8.119462962641322e-06,-0.013032630126090683
40,0.028639,403.238,134.057,0.0403298,232.913,-0.124521,0.033304,0.0177769,-0.00314172,-0.0136007,0.0362335,8.39425e-07,8.33996e-06,0.0256625,0.017935849566700357,0.036897933893683676,8.394253523391626e-07,-0.003136789962005171,8.339994777672999e-06,-0.013508628365311859
41,0.029639,405.677,134.867,-0.00902602,234.34,-0.123034,0.0171265,0.0183851,-0.00326131,-0.0140832,0.0374931,2.23948e-07,8.29553e-06,0.0266185,0.018555146459501737,0.03820483344375969,2.2394802501324307e-07,-0.003255997705124636,8.295564408067335e-06,-0.013984495639913441
42,0.030639,408.427,136.495,0.0696393,235.677,0.0881037,-0.0306435,0.0189923,-0.00337635,-0.0145668,0.0387496,3.34264e-06,7.60289e-06,0.0275732,0.01917380094892729,0.03951015771521904,3.342645586545956e-06,-0.0033706565398459176,7.602918902005484e-06,-0.014461217457195752
43,0.031639,410.476,136.477,0.0369794,237.091,-0.122251,0.0292642,0.0195995,-0.00349935,-0.0150471,0.0400086,9.17801e-08,8.56086e-06,0.0285288,0.019792831199428207,0.040819725203535606,9.178010418331439e-08,-0.0034932344103979496,8.560896644249638e-06,-0.01493445807661875
44,0.032639,412.777,137.269,0.0348681,238.413,-0.114362,0.0254876,0.0202059,-0.00361866,-0.0155283,0.0412647,-3.89502e-07,8.70143e-06,0.0294831,0.020411421109772565,0.04212792030028978,-3.8950192415843077e-07,-0.003612120540307351,8.701467857585854e-06,-0.015408357586025878
45,0.033639,415.265,138.736,0.0326007,239.652,0.0782946,-0.0388763,0.0208113,-0.00373382,-0.0160109,0.0425179,2.43626e-06,7.75156e-06,0.0304362,0.021029365216920226,0.043434733688248794,2.4362629675867e-06,-0.003726857961798391,7.751590043403311e-06,-0.01588340687404166
46,0.034639,417.43,139.553,-0.0533694,240.9,0.107258,-0.0841285,0.0214162,-0.00385128,-0.0164927,0.0437713,3.36373e-06,6.80471e-06,0.0313893,0.021647172716980023,0.04474339475001421,3.3637356573468224e-06,-0.0038438733326149332,6.804733152065978e-06,-0.01635744004484907
47,0.035639,419.425,139.514,0.141895,242.205,-0.107399,0.0644149,0.0220211,-0.00397431,-0.0169705,0.0450254,1.47411e-07,9.03227e-06,0.0323423,0.022265354041848706,0.04605442935378923,1.4741101095339104e-07,-0.003966422882088705,9.032310791079468e-06,-0.01682731219859901
48,0.036639,421.44,140.165,0.0478683,243.407,-0.11245,0.0285774,0.0226251,-0.00409345,-0.0174503,0.0462771,-4.75752e-07,8.7739e-06,0.0332943,0.022882988822616968,0.04736459547942218,-4.757518867748445e-07,-0.004085083253727917,8.773938490858058e-06,-0.017298925305174406
49,0.037639,423.749,141.578,0.0636131,244.535,0.0815473,-0.0301189,0.0232281,-0.00420835,-0.0179313,0.0475257,2.37149e-06,7.93325e-06,0.0342449,0.023499973266991825,0.04867315167496722,2.3714928119034084e-06,-0.004199507303874417,7.93328146841965e-06,-0.017771490860975403
50,0.038639,425.703,142.302,-0.0454255,245.676,0.104525,-0.0805134,0.0238305,-0.00432564,-0.0184115,0.0487744,3.19552e-06,6.94019e-06,0.0351955,0.02411671539496618,0.049983447752562915,3.1955251056370315e-06,-0.004316297894344734,6.940214083206442e-06,-0.018243043762151023
51,0.039639,427.533,142.241,0.145594,246.877,-0.100331,0.0630737,0.0244331,-0.00444817,-0.0188878,0.0500239,1.46008e-07,9.08309e-06,0.0361458,0.024734034107110725,0.051296222055478014,1.4600801057085278e-07,-0.004438291544270112,9.083131251363952e-06,-0.018710543256564405
52,0.040639,429.571,143.578,-0.0571848,247.918,0.100768,-0.0834719,0.0250341,-0.00456229,-0.0193686,0.0512691,3.1688e-06,6.87756e-06,0.0370947,0.025350084366168923,0.05260611147908567,3.168805020603571e-06,-0.004551898563899259,6.877583650366503e-06,-0.019182233823867523
53,0.041639,431.257,143.406,0.0735206,249.074,-0.123018,0.0404467,0.0256355,-0.00468493,-0.0198441,0.0525164,-2.26176e-07,8.65589e-06,0.0380438,0.02596691536939799,0.05391984622228496,-2.26175974393783e-07,-0.004673972833312168,8.655927462353219e-06,-0.019648501807685848
54,0.042639,433.317,144.853,-0.0505276,250.07,0.10852,-0.0840247,0.0262354,-0.00479846,-0.020324,0.053759,3.20942e-06,6.72452e-06,0.0389911,0.026582577571341748,0.05523026101529904,3.2094251500858206e-06,-0.0047869657830103,6.724542609637396e-06,-0.020118859620284146
55,0.043639,434.905,144.595,0.0704993,251.19,-0.130825,0.0424846,0.0268356,-0.00492123,-0.0207986,0.0550041,-4.13394e-07,8.53982e-06,0.0399388,0.027198917379473997,0.0565449465008947,-4.1339391454453533e-07,-0.0049091405873672445,8.539856464429008e-06,-0.0205838008702226
56,0.044639,436.691,145.256,0.044983,252.211,-0.110277,0.026843,0.0274348,-0.00503936,-0.0212751,0.0562462,-6.87062e-07,8.50492e-06,0.0408853,0.027814599410683094,0.057858096341823595,-6.87061763926522e-07,-0.005026683727767378,8.504956166888178e-06,-0.021050381517440542
57,0.045639,438.658,146.486,0.0345213,253.172,0.0646815,-0.0322567,0.0280331,-0.00515401,-0.0217526,0.0574858,1.82089e-06,7.6416e-06,0.0418305,0.02842972488194584,0.059170230330675366,1.8208916578998924e-06,-0.005140750879453537,7.64162919719702e-06,-0.021517718374711614
58,0.046639,440.339,147.107,-0.0509495,254.152,0.0830692,-0.0734031,0.0286309,-0.00527088,-0.0222293,0.0587254,2.45979e-06,6.8014e-06,0.0427756,0.029044703970415586,0.06048399184935471,2.4597930252667766e-06,-0.0052570132859722785,6.801423129587647e-06,-0.021984049719455556
59,0.047639,441.947,147.113,0.132615,255.182,-0.0792332,0.0514545,0.0292288,-0.00539189,-0.0227026,0.0599652,5.87567e-08,8.63109e-06,0.0437201,0.029660153769302422,0.06179959527649559,5.8756701726281335e-08,-0.005377379851868591,8.631127248026615e-06,-0.022446835141913923
60,0.048639,443.481,147.444,0.0571508,256.15,-0.133221,0.0407622,0.0298257,-0.00551097,-0.0231771,0.0612033,-1.24813e-06,8.71643e-06,0.044664,0.030274941380196152,0.06311502350321718,-1.2481292210875239e-06,-0.005495812461858263,8.716467988278964e-06,-0.022910574087873226
61,0.049639,445.432,148.931,0.0431293,257.021,0.120669,-0.0486877,0.0304216,-0.00562371,-0.0236536,0.0624376,2.50641e-06,7.39596e-06,0.045606,0.03088906517777734,0.0644280365360228,2.5064131410346135e-06,-0.005607926543971686,7.39598735011171e-06,-0.0233760462917606
62,0.050639,446.724,148.545,0.0558999,258.016,-0.127475,0.0364719,0.0310177,-0.00574585,-0.0241258,0.0636748,-1.19401e-06,8.6513e-06,0.0465489,0.03150376134151944,0.06574576187963999,-1.1940092872197994e-06,-0.005729374174865853,8.651337422671546e-06,-0.023837099259529038
63,0.051639,448.534,149.91,-0.0434582,258.858,0.10434,-0.0795507,0.0316123,-0.00585868,-0.0246017,0.064907,2.20168e-06,6.85333e-06,0.0474897,0.03211727585780322,0.06705978320971107,2.2016824237081067e-06,-0.005841551400980527,6.8533534840486965e-06,-0.024301544660442653
64,0.052639,449.876,149.625,0.0646405,259.823,-0.118816,0.0361349,0.0322073,-0.0059803,-0.0250728,0.0661416,-1.14061e-06,8.4851e-06,0.0484308,0.03273156837083824,0.06837798877892154,-1.1406093495258673e-06,-0.005962453599287376,8.485135998492765e-06,-0.024761087948832472
65,0.053639,451.603,150.9,-0.0468769,260.642,0.0947677,-0.0768481,0.0328008,-0.0060933,-0.0255478,0.0673717,1.97798e-06,6.73904e-06,0.0493702,0.03334467647850059,0.06969300918039822,1.9779819562248946e-06,-0.00607477349583696,6.7390627074281895e-06,-0.02522421643033468
66,0.054639,452.924,150.674,0.0614226,261.574,-0.108708,0.031574,0.0333947,-0.00621435,-0.0260183,0.0686039,-1.06714e-06,8.25606e-06,0.0503098,0.033958562157169414,0.07101189730641044,-1.0671394305994397e-06,-0.006195080862754998,8.256094081282583e-06,-0.025682740560244
67,0.055639,454.584,151.857,-0.0426001,262.373,0.0839597,-0.0712895,0.0339871,-0.00632758,-0.0264922,0.0698318,1.73601e-06,6.66332e-06,0.0512477,0.034571260672773274,0.07232780054857213,1.736011506769941e-06,-0.006307603023186559,6.663342200008415e-06,-0.026144360120098464
68,0.056639,456.035,152.39,-0.0857654,263.211,0.100234,-0.090098,0.0345792,-0.00644358,-0.0269646,0.0710599,2.40898e-06,6.03081e-06,0.0521853,0.03518401170325869,0.07364553530983553,2.408982901602741e-06,-0.0064228646559320035,6.030828185288328e-06,-0.0266043008778174
69,0.057639,457.391,152.234,0.12922,264.107,-0.0867793,0.0540516,0.0351714,-0.00656415,-0.0274334,0.0722884,-3.22955e-07,8.09384e-06,0.0531224,0.03579722923077777,0.0749653193613311,-3.2295494789558177e-07,-0.006542653029553147,8.093872755132736e-06,-0.02706052183501806
70,0.058639,458.697,152.493,0.0652651,264.938,-0.140046,0.0459196,0.0357626,-0.00668234,-0.0279036,0.0735151,-1.62904e-06,8.21851e-06,0.0540588,0.03640977360297426,0.07628478844949615,-1.6290386730677398e-06,-0.006660062814923706,8.218543771976172e-06,-0.027517890441865145
71,0.059639,460.412,153.923,0.0305518,265.675,0.121603,-0.0521283,0.0363528,-0.00679405,-0.0283761,0.0747379,2.2029e-06,6.77785e-06,0.0549933,0.037021643196310405,0.07760167446883615,2.2029024264735853e-06,-0.006771022621531286,6.777872969765397e-06,-0.02797727969937247
72,0.060639,461.501,153.492,0.0573526,266.54,-0.120741,0.0347429,0.0369432,-0.00691513,-0.0288441,0.0759636,-1.37376e-06,8.03184e-06,0.0559286,0.03763408154846504,0.07892330063436703,-1.3737590564000257e-06,-0.006891275505855665,8.031872255287453e-06,-0.028432079900925
73,0.061639,463.068,154.709,-0.0424982,267.263,0.0913404,-0.0734684,0.0375322,-0.00702748,-0.0293156,0.0771846,1.69622e-06,6.36726e-06,0.0568618,0.03824542804636666,0.08024147056341824,1.696221438640677e-06,-0.007002845003518776,6.367280271035725e-06,-0.02889006619649792
74,0.062639,464.4,155.201,-0.0870441,268.034,0.107379,-0.0927329,0.0381209,-0.00714291,-0.0297855,0.0784058,2.38714e-06,5.7233e-06,0.0577948,0.03885682307632732,0.08156146727321545,2.3871428491695212e-06,-0.007117460049985258,5.723316378158927e-06,-0.029346283557728503
75,0.063639,465.629,154.968,0.129421,268.867,-0.0903518,0.0554604,0.0387097,-0.0072631,-0.0302517,0.0796276,-4.87413e-07,7.83374e-06,0.0587274,0.03946868208737064,0.08288372667771138,-4.874128811671596e-07,-0.007236787431339264,7.833770683918218e-06,-0.02979869685460035
76,0.064639,466.828,155.198,0.0671068,269.634,-0.141809,0.047115,0.0392976,-0.00738069,-0.0307194,0.0808475,-1.7658e-06,7.95308e-06,0.0596591,0.0400799653946915,0.08420554261359325,-1.7657984410224259e-06,-0.007353519594103242,7.95311162571366e-06,-0.030252353908109986
77,0.065639,468.431,156.589,0.0267843,270.308,0.119712,-0.0522344,0.0398844,-0.00749187,-0.0311893,0.0820635,2.04404e-06,6.49858e-06,0.060589,0.04069046342098814,0.0855247384619342,2.0440420891443267e-06,-0.007463875894974326,6.498601115900726e-06,-0.030707931280722023
78,0.066639,469.428,156.152,0.0563991,271.111,-0.115293,0.0325607,0.0404714,-0.00761223,-0.0316549,0.0832823,-1.40637e-06,7.7102e-06,0.0615196,0.04130152805293963,0.08684858259991124,-1.4063690110255322e-06,-0.007583330353957973,7.710229723567608e-06,-0.031159128621025878
79,0.067639,470.876,157.283,-0.0405955,271.78,0.0830027,-0.0693924,0.0410571,-0.00772429,-0.0321237,0.0844967,1.44527e-06,6.14642e-06,0.0624482,0.04191159699917102,0.0881692532675431,1.4452710443979555e-06,-0.0076945343350831585,6.146438889187422e-06,-0.03161321477541734
80,0.068639,472.107,157.729,-0.0818719,272.494,0.0950258,-0.0861711,0.0416425,-0.0078393,-0.032591,0.0857112,2.02021e-06,5.56874e-06,0.0633765,0.042521710610885055,0.08949163768102752,2.0202120405432566e-06,-0.0078086528241797515,5.56875550539182e-06,-0.032065636203653214
81,0.069639,473.262,157.551,0.121671,273.264,-0.0784063,0.0488336,0.0422279,-0.00795845,-0.033055,0.0869261,-4.90498e-07,7.47776e-06,0.0643044,0.04313218148766862,0.09081606543238108,-4.904978797570791e-07,-0.00792686538054288,7.477787958620752e-06,-0.03251465356837013
82,0.070639,474.375,157.774,0.0588976,273.975,-0.123516,0.0379192,0.0428125,-0.00807526,-0.0335203,0.0881391,-1.59673e-06,7.51784e-06,0.0652314,0.04374217484465204,0.09214002814079669,-1.5967287252394158e-06,-0.008042742675452574,7.517868259032667e-06,-0.03296471978403959
83,0.071639,475.849,159.001,0.0318076,274.607,0.101754,-0.0438875,0.043396,-0.00818658,-0.0339874,0.0893487,1.67055e-06,6.3212e-06,0.0661567,0.044351376120861596,0.09346188001367839,1.6705513954384799e-06,-0.008153161211328253,6.321219978788761e-06,-0.03341631648480814
84,0.072639,476.974,159.387,-0.064151,275.286,0.105438,-0.0839202,0.0439792,-0.00830123,-0.0344531,0.0905588,2.18027e-06,5.46657e-06,0.067082,0.04496061948151109,0.09478587915879988,2.1802723768615806e-06,-0.008266869932918253,5.466584941826724e-06,-0.03386634970785174
85,0.073639,478.052,159.137,0.135928,276.027,-0.0820091,0.0542074,0.0445624,-0.00842025,-0.0349154,0.0917693,-5.17678e-07,7.43322e-06,0.0680068,0.045570218256517414,0.09611191988975243,-5.176778660187509e-07,-0.00838489898601058,7.433247626531525e-06,-0.03431289006862448
86,0.074639,479.1,159.333,0.0626107,276.706,-0.128379,0.0407368,0.0451448,-0.00853671,-0.035379,0.0929779,-1.65442e-06,7.4499e-06,0.0689307,0.046179335709415126,0.09743748163173627,-1.6544186314249032e-06,-0.00850037575633189,7.449927750480256e-06,-0.03476047885369171
87,0.075639,480.527,160.569,0.0315611,277.305,0.104411,-0.0446611,0.0457261,-0.00864751,-0.0358445,0.094183,1.71299e-06,6.20699e-06,0.0698529,0.046787656548584966,0.0987608007466323,1.712991467117675e-06,-0.008610227828780848,6.2070092634591845e-06,-0.03520969328801404
88,0.076639,481.598,160.934,-0.0655952,277.954,0.107092,-0.0848257,0.0463071,-0.0087618,-0.0363086,0.0953887,2.21096e-06,5.35036e-06,0.0707751,0.0473960168886054,0.10008637560631306,2.2109624442379072e-06,-0.008723527291221167,5.350374313151107e-06,-0.03565734858291292
89,0.077639,482.623,160.66,0.135752,278.666,-0.0821402,0.0541431,0.0468881,-0.00888046,-0.0367692,0.0965948,-5.06079e-07,7.32277e-06,0.0716967,0.04800473078868239,0.10141399024099962,-5.060788719202236e-07,-0.008841145179065535,7.32279681159298e-06,-0.036101422530074645
90,0.078639,483.623,160.846,0.0627524,279.316,-0.127036,0.0402042,0.0474683,-0.0089965,-0.0372312,0.0977989,-1.61213e-06,7.32787e-06,0.0726175,0.04861295956359113,0.10274100159350219,-1.6121287005343987e-06,-0.008956152579720489,7.32789684887436e-06,-0.03654664081952186
91,0.079639,484.994,162.048,0.0305001,279.888,0.101447,-0.0438571,0.0480475,-0.00910701,-0.037695,0.0989997,1.68347e-06,6.10678e-06,0.0735365,0.049220492114212755,0.10406596833904169,1.683471416935589e-06,-0.00906566678398013,6.106798646321465e-06,-0.03699338687909015
92,0.080639,486.016,162.39,-0.0644685,280.51,0.102272,-0.0825773,0.0486263,-0.00922098,-0.0381574,0.100201,2.13161e-06,5.28122e-06,0.0744556,0.04982795671834617,0.10539307975668177,2.131612271805139e-06,-0.009178597134478439,5.2812339457197766e-06,-0.03743857820083141
93,0.081639,487.004,162.136,0.132146,281.192,-0.0774644,0.0513034,0.0492052,-0.00933906,-0.0386164,0.101403,-4.43142e-07,7.17421e-06,0.0753741,0.050435878068347595,0.10672256109676481,-4.431419018402494e-07,-0.009295586418545554,7.17423573459719e-06,-0.03788029251224767
94,0.082639,487.962,162.316,0.0594137,281.814,-0.119684,0.0364403,0.0497832,-0.00945463,-0.0390768,0.102602,-1.47843e-06,7.14874e-06,0.0762917,0.05104320550659258,0.10805031727828518,-1.478428907075724e-06,-0.009410075511743554,7.148765552411618e-06,-0.03832315047185009
95,0.083639,489.272,163.449,0.032046,282.365,0.0939261,-0.0406315,0.0503602,-0.00956505,-0.0395388,0.103799,1.59459e-06,6.0299e-06,0.0772077,0.051649832431207354,0.10937744763712676,1.5945912714698807e-06,-0.009519450412506125,6.029918179883964e-06,-0.03876734256005887
96,0.084639,490.249,163.768,-0.0601341,282.962,0.0920251,-0.0773646,0.0509369,-0.00967873,-0.0399994,0.104996,1.95986e-06,5.25426e-06,0.0781236,0.05225649380356345,0.11070616752214946,1.95986192053077e-06,-0.009632041841565075,5.254273803600995e-06,-0.03920998437384038
97,0.085639,491.211,163.566,0.126063,283.614,-0.0687973,0.0462957,0.0515136,-0.00979606,-0.040457,0.106193,-3.38536e-07,6.99551e-06,0.0790389,0.05286350513843474,0.11203647883715528,-3.385359427232615e-07,-0.009748234897496877,6.995534468590137e-06,-0.039649541306694513
98,0.086639,492.335,164.574,-0.0805863,284.141,0.129522,-0.0869999,0.0520889,-0.00990606,-0.0409186,0.107386,2.68713e-06,4.98148e-06,0.0799528,0.05346939177952237,0.11336393002359957,2.687133610290715e-06,-0.009857156600854733,4.981492407685195e-06,-0.040092736781042304
99,0.087639,493.307,164.831,-0.104734,284.73,0.106693,-0.0965642,0.052664,-0.0100198,-0.0413777,0.10858,2.84863e-06,4.46696e-06,0.0808664,0.054075416272374666,0.11469408049785512,2.8486340573063984e-06,-0.00996976904347191,4.466969976801849e-06,-0.04053332905988982
100,0.088639,494.252,164.581,0.122282,285.37,-0.0685527,0.0447667,0.0532392,-0.010137,-0.0418338,0.109774,3.73078e-07,6.41973e-06,0.0817793,0.05468189485833452,0.11602582012030949,3.730780695487823e-07,-0.010085793787357189,6.419750606445618e-06,-0.04097084202608914
101,0.089639,495.146,164.737,0.05907,285.952,-0.111653,0.0334686,0.0538134,-0.0102519,-0.0422913,0.110966,-6.30364e-07,6.42173e-06,0.0826914,0.05528766710292965,0.1173569160734722,-6.303638012683521e-07,-0.010199528395472668,6.421750619267641e-06,-0.041409497515767835
102,0.090639,496.364,165.789,0.0286528,286.467,0.0870605,-0.0390379,0.0543868,-0.0103619,-0.0427503,0.112155,2.22064e-06,5.3689e-06,0.0836019,0.05589294256713817,0.11868624357527513,2.2206424656889823e-06,-0.010308400459275835,5.3689144126067845e-06,-0.04184938959345319
103,0.091639,497.272,166.073,-0.0573524,287.026,0.0814055,-0.0723174,0.0549598,-0.0104751,-0.043208,0.113344,2.48682e-06,4.6622e-06,0.0845124,0.056498142596478784,0.12001715258749934,2.486823092118229e-06,-0.010420427207510352,4.662210868033867e-06,-0.04228783478200071
104,0.092639,498.185,165.921,0.118465,287.633,-0.0596455,0.0407438,0.0555327,-0.0105914,-0.0436629,0.114533,4.78274e-07,6.24344e-06,0.0854222,0.057103583794444024,0.1213496449916791,4.782741143127822e-07,-0.010535508619712197,6.243459490296033e-06,-0.04272339896937283
105,0.093639,499.219,166.808,-0.0722613,288.131,0.110867,-0.0777906,0.0561043,-0.0107012,-0.0441213,0.115719,3.0692e-06,4.45702e-06,0.0863307,0.057707996927757854,0.12268035462547133,3.0692047099378783e-06,-0.010644145856572362,4.457029932458667e-06,-0.04316211400211756
106,0.094639,500.127,167.038,-0.0930095,288.683,0.086393,-0.0852542,0.0566758,-0.0108144,-0.0445775,0.116906,3.11771e-06,4.02139e-06,0.0872388,0.058312649811106176,0.12401376743034986,3.1177148600569637e-06,-0.010756134600578893,4.021398085862771e-06,-0.04359852389304486
107,0.095639,501.037,166.889,0.110406,289.276,-0.0539963,0.0359586,0.0572472,-0.0109304,-0.0450311,0.118092,1.14246e-06,5.68308e-06,0.0881461,0.05891754246058034,0.1253476385877672,1.1424606525256564e-06,-0.010870880233589841,5.683096148789701e-06,-0.0440322492262647
108,0.096639,502.034,167.729,-0.076919,289.762,0.105865,-0.0776855,0.0578173,-0.0110402,-0.0454882,0.119274,3.57613e-06,3.96015e-06,0.0890523,0.0595214034657614,0.12667858593149983,3.576136394345397e-06,-0.010979480648668272,3.960157841431666e-06,-0.0444691222302116
109,0.097639,502.92,167.947,-0.0903855,290.301,0.079896,-0.0819189,0.0583872,-0.0111531,-0.0459431,0.120457,3.57648e-06,3.58065e-06,0.0899581,0.060125396805151166,0.12801223539677986,3.576486395706624e-06,-0.011091134762309718,3.5806564104845506e-06,-0.04490369437558073
110,0.098639,503.814,167.831,0.104768,290.876,-0.0490015,0.0325076,0.058957,-0.0112685,-0.0463956,0.12164,1.76676e-06,5.14232e-06,0.0908631,0.060729628385479906,0.12934746350295945,1.7667615608285558e-06,-0.01120524826088265,5.142333221686002e-06,-0.04533577768765373
111,0.099639,504.776,168.61,-0.0708272,291.353,0.0957387,-0.072163,0.0595255,-0.0113784,-0.0468513,0.12282,3.96694e-06,3.55544e-06,0.091767,0.06133282462150147,0.13068088007094714,3.966947868416781e-06,-0.011313910832981056,3.555446320691047e-06,-0.04577071906484187
112,0.1006,505.64,168.82,-0.0837943,291.878,0.0697161,-0.0760236,0.0600939,-0.0114911,-0.0473049,0.124,3.92276e-06,3.20643e-06,0.0926704,0.06193625767844457,0.13201587099917522,3.922767694009011e-06,-0.011425329476671742,3.2064351405125535e-06,-0.046203459313765904
113,0.1016,506.523,168.755,0.0992847,292.435,-0.0424055,0.0285512,0.0606621,-0.0116059,-0.0477564,0.125179,2.35087e-06,4.62828e-06,0.093573,0.06253982131624869,0.13335130479461332,2.3508727633458903e-06,-0.011538811334864452,4.628290710462224e-06,-0.04663400124972972
114,0.1026,507.446,169.456,-0.0630055,292.905,0.0820745,-0.0649197,0.0612291,-0.0117159,-0.0482106,0.126356,4.23964e-06,3.21148e-06,0.0944746,0.06314245222465242,0.13468604462065636,4.239648987214295e-06,-0.011647536085646726,3.211485156917604e-06,-0.04706692176267113
115,0.1036,508.216,169.059,0.14208,293.477,-0.122658,0.0710638,0.0617965,-0.0118324,-0.0486604,0.127534,1.18576e-06,5.18994e-06,0.095376,0.06374585041992442,0.1360234923832888,1.1857607029597261e-06,-0.011762672440869815,5.189953467654718e-06,-0.04749545467698468
116,0.1046,509.019,169.283,0.0708963,293.98,-0.1358,0.0457402,0.0623629,-0.0119454,-0.0491119,0.12871,4.77667e-07,5.05817e-06,0.0962763,0.06434852673142166,0.1373602418649691,4.776671140849231e-07,-0.01187433694972051,5.058182792616606e-06,-0.04792541340871037
117,0.1056,510.127,170.363,0.0207125,294.418,0.0832492,-0.040162,0.0629284,-0.0120536,-0.049565,0.129882,3.55635e-06,3.84045e-06,0.0971751,0.06495058603951342,0.1386940095036009,3.556356323874965e-06,-0.011981246362558928,3.840457374559847e-06,-0.04835670068838305
118,0.1066,510.924,170.622,-0.0606769,294.908,0.0813068,-0.0726305,0.0634936,-0.0121653,-0.0500167,0.131056,3.85475e-06,3.15244e-06,0.0980739,0.06555266624258027,0.1400316212952466,3.854757429477829e-06,-0.012091601893869153,3.1524449688458134e-06,-0.048786460898031736
119,0.1076,511.718,170.426,0.11376,295.447,-0.0610273,0.039866,0.0640588,-0.0122801,-0.0504655,0.132229,1.832e-06,4.71383e-06,0.098972,0.06615508683756377,0.14136966299506204,1.8320016781370185e-06,-0.012205007268378587,4.713841110115524e-06,-0.04921326975130991
120,0.1086,512.639,171.271,-0.0713903,295.88,0.107966,-0.0760973,0.0646226,-0.0123887,-0.0509178,0.133399,4.37654e-06,2.9779e-06,0.0998688,0.06675635455696582,0.1427058470159932,4.376549576967648e-06,-0.012312275979792786,2.977904433931755e-06,-0.04964321335032684
121,0.1096,513.432,171.448,-0.0876471,296.368,0.0792021,-0.0803246,0.0651863,-0.0125005,-0.0513679,0.13457,4.32848e-06,2.61325e-06,0.100765,0.06735785463089772,0.14404473933130424,4.3284893678219305e-06,-0.012422693294895426,2.613253414551764e-06,-0.050070872688044
122,0.1106,514.239,171.312,0.100956,296.892,-0.0468633,0.0306886,0.06575,-0.0126147,-0.0518156,0.13574,2.56712e-06,4.11938e-06,0.101661,0.06795969386600498,0.14538405502321927,2.5671232950497114e-06,-0.012535468183752396,4.11938848454696e-06,-0.05049606077288682
123,0.1116,515.111,172.036,-0.0674953,297.323,0.0900433,-0.0688945,0.0663124,-0.0127236,-0.0522664,0.136907,4.63626e-06,2.61682e-06,0.102556,0.06856048332399545,0.1467214984618903,4.636270747537807e-06,-0.012642997216205099,2.6168234239509758e-06,-0.05092400068378733
124,0.1126,515.889,172.209,-0.0776969,297.801,0.0614603,-0.0707368,0.0668746,-0.0128352,-0.0527152,0.138074,4.51855e-06,2.32118e-06,0.10345,0.06916139692870704,0.1480605036081335,4.518560208666145e-06,-0.012753180109395967,2.321182693831858e-06,-0.05134985042445073
125,0.1136,516.7,172.168,0.0911229,298.305,-0.0357508,0.0237609,0.0674366,-0.0129487,-0.053162,0.139241,3.16328e-06,3.5941e-06,0.104343,0.06976243450952158,0.14940107228552546,3.1632850032714543e-06,-0.01286522626471398,3.5941064588929095e-06,-0.05177361263575342
126,0.1146,517.528,172.77,-0.0541419,298.735,0.0677901,-0.0570526,0.0679976,-0.0130579,-0.0536113,0.140405,4.72512e-06,2.37212e-06,0.105236,0.07036273960511674,0.15073975409533102,4.72513116345219e-06,-0.012973015496606677,2.372122813509847e-06,-0.052199555056465896
127,0.1156,518.246,172.469,0.126895,299.251,-0.101864,0.0590404,0.0685588,-0.0131725,-0.0540566,0.14157,2.20372e-06,4.04654e-06,0.106128,0.0709635957590502,0.1520811471185739,2.2037224280957446e-06,-0.013086122307886638,4.0465481871976294e-06,-0.052621516637880505
128,0.1166,518.976,172.68,0.0573693,299.708,-0.111803,0.0330925,0.069119,-0.0132843,-0.0545035,0.142733,1.64364e-06,3.85167e-06,0.107019,0.07156371764383995,0.1534217969294276,1.643641350801417e-06,-0.01319645311180584,3.851677417676669e-06,-0.053044805491155866
129,0.1176,519.966,173.578,0.0275482,300.114,0.0638273,-0.0309188,0.0696785,-0.0133922,-0.0549515,0.143894,4.09561e-06,2.946e-06,0.107908,0.07216342529643294,0.1547616972973196,4.095618387101041e-06,-0.013302923470335903,2.946004339365871e-06,-0.05346894640363753
130,0.1186,520.524,173.131,0.0652837,300.62,-0.130273,0.0471757,0.0702381,-0.0135069,-0.055396,0.145056,1.1567e-06,4.09565e-06,0.108798,0.07276357585569393,0.1561043102966606,1.156700669024957e-06,-0.013416091134724195,4.095658387104351e-06,-0.05388958596289328
131,0.1196,521.292,173.409,0.0409901,301.065,-0.124484,0.0322308,0.0707969,-0.0136182,-0.0558416,0.146216,7.48748e-07,4.0345e-06,0.109687,0.07336320366228799,0.15744616942443157,7.487482802659429e-07,-0.013525891813259805,4.03450813868389e-06,-0.05431107884779918
132,0.1206,522.286,174.35,0.0169366,301.458,0.0637272,-0.0345521,0.0713548,-0.0137257,-0.0562884,0.147373,3.35714e-06,3.08196e-06,0.110574,0.07396220006812193,0.15878610964839934,3.3571456352632367e-06,-0.013631932080123477,3.0819647491853175e-06,-0.05473351827777362
133,0.1216,522.83,173.881,0.0680386,301.957,-0.135947,0.0496935,0.0719129,-0.0138402,-0.0567317,0.148533,3.29424e-07,4.31589e-06,0.111462,0.07456174565961526,0.16013108146843114,3.2942405425728793e-07,-0.013744864758380992,4.315899313489524e-06,-0.05515246204337476
134,0.1226,523.586,174.165,0.0445456,302.391,-0.12709,0.034281,0.0724702,-0.0139511,-0.0571761,0.14969,-4.67807e-08,4.25573e-06,0.112349,0.07516076582193576,0.16147412993340438,-4.678069887020797e-08,-0.01385423438822131,4.255739055603058e-06,-0.05557225900344931
135,0.1236,524.562,175.109,0.0145323,302.774,0.0638128,-0.0352908,0.0730266,-0.0140583,-0.0576218,0.150844,2.59459e-06,3.26678e-06,0.113234,0.07575915172756065,0.16281524475376696,2.5945933659343723e-06,-0.01395994354818264,3.266785336020206e-06,-0.05599309665697383
136,0.1246,525.093,174.634,0.0706422,303.264,-0.136565,0.0507175,0.0735833,-0.0141726,-0.0580639,0.152,-4.41444e-07,4.52469e-06,0.114119,0.07635819357515472,0.16416023643211242,-4.414439025435257e-07,-0.01407264148582521,4.524700236485657e-06,-0.05641034986832327
137,0.1256,525.834,174.917,0.0456697,303.689,-0.126314,0.0343934,0.0741391,-0.0142832,-0.0585072,0.153154,-7.94025e-07,4.45253e-06,0.115003,0.07695659974081259,0.16550445280862802,-7.940246847804033e-07,-0.014181679021790017,4.452539912547238e-06,-0.056828550459217086
138,0.1266,526.791,175.847,0.0143162,304.063,0.062568,-0.0348506,0.074694,-0.0143901,-0.0589517,0.154305,1.81625e-06,3.47035e-06,0.115886,0.07755436879369393,0.16684672076083085,1.8162516493003267e-06,-0.014287057367729616,3.4703560216620133e-06,-0.05724769700631671
139,0.1276,527.312,175.381,0.0704874,304.543,-0.134008,0.0498065,0.0752491,-0.014504,-0.0593926,0.155458,-1.15962e-06,4.70628e-06,0.116769,0.07815268527118624,0.16819287093631208,-1.159619327673056e-06,-0.014399323678207732,4.7062910746298314e-06,-0.0576632648780373
140,0.1286,528.038,175.662,0.0448059,304.959,-0.123002,0.0329993,0.0758035,-0.0146143,-0.0598348,0.156609,-1.48712e-06,4.62184e-06,0.117651,0.07875057884068393,0.1695382350392729,-1.4871188942500169e-06,-0.014508029437573233,4.621850680619488e-06,-0.058079874063228676
141,0.1296,528.973,176.567,0.015029,305.326,0.0600861,-0.0336849,0.0763569,-0.0147211,-0.0602781,0.157757,1.04016e-06,3.67679e-06,0.118532,0.07934772462601347,0.17088163589765126,1.0401605410326198e-06,-0.014613274359850381,3.676796759499723e-06,-0.05849733471806595
142,0.1306,529.487,176.123,0.0686255,305.795,-0.12889,0.0475098,0.0769106,-0.0148346,-0.0607179,0.158907,-1.8184e-06,4.85953e-06,0.119412,0.07994552494688478,0.17222892432129466,-1.8183983466757425e-06,-0.014725109406451553,4.859541807622492e-06,-0.05891131654897941
143,0.1316,530.199,176.4,0.0425598,306.202,-0.117708,0.0304861,0.0774634,-0.0149446,-0.0611589,0.160055,-2.12086e-06,4.76207e-06,0.120292,0.08054268387259533,0.1735754158646825,-2.120857750975702e-06,-0.014833483683722282,4.762081338594015e-06,-0.05932624515989804
144,0.1326,531.112,177.268,0.0164825,306.564,0.0566921,-0.0319659,0.0780154,-0.0150512,-0.061601,0.1612,2.83812e-07,3.87685e-06,0.12117,0.08113930808722691,0.1749199293029,2.8381204031369123e-07,-0.014938496837061166,3.876857515017207e-06,-0.059742025111982344
145,0.1336,531.622,176.857,0.0654876,307.022,-0.12187,0.044187,0.0785676,-0.0151642,-0.0620398,0.162347,-2.41527e-06,4.98319e-06,0.122049,0.08173647807661233,0.176268335625005,-2.415267083222261e-06,-0.01504980249803023,4.983202416042332e-06,-0.060154519803409134
146,0.1346,532.604,178.076,-0.0311063,307.347,0.153207,-0.0774121,0.0791184,-0.0152685,-0.0624823,0.16349,1.61283e-06,3.19841e-06,0.122926,0.08233246264782035,0.17761357899275132,1.612831300512596e-06,-0.015152527446430586,3.19841511497998e-06,-0.06057030942815722
147,0.1356,533.214,178.158,-0.0868225,307.755,0.115152,-0.0915733,0.0796691,-0.0153779,-0.0629224,0.164633,1.56192e-06,2.684e-06,0.123802,0.08292866728487969,0.1789603608527479,1.561921219694895e-06,-0.015260263866638257,2.684003602038132e-06,-0.06098366147018919
148,0.1366,533.823,177.793,0.112055,308.212,-0.0611872,0.0396767,0.0802199,-0.0154906,-0.0633596,0.165777,-8.76826e-07,4.46291e-06,0.124678,0.08352530869478048,0.18030986327376963,-8.768256155589071e-07,-0.015371237781402924,4.462919958703182e-06,-0.061394109682877285
149,0.1376,534.596,178.626,-0.0822755,308.551,0.119951,-0.0828606,0.0807693,-0.0155962,-0.0638007,0.166917,1.84166e-06,2.64118e-06,0.125553,0.08412076105516308,0.181656183774781,1.8416616958116805e-06,-0.015475209088911535,2.641183487916976e-06,-0.061808037442617314
150,0.1386,535.228,178.711,-0.0866091,308.954,0.0793282,-0.0789249,0.0813186,-0.0157055,-0.0642393,0.168058,1.6239e-06,2.40094e-06,0.126428,0.08471643217530622,0.18300522296096622,1.6239013185259665e-06,-0.01558281176796461,2.4009428822857615e-06,-0.06221943821061149
151,0.1396,535.883,178.551,0.0886547,309.387,-0.0385505,0.0242517,0.0818678,-0.0158168,-0.0646759,0.169198,4.25468e-09,3.77498e-06,0.127302,0.0853123220562404,0.18435461792413133,4.254679941695372e-09,-0.015692371303913544,3.7749871253378586e-06,-0.06262878383723591
152,0.1406,536.593,179.153,-0.0587309,309.738,0.0771072,-0.0611526,0.0824159,-0.0159234,-0.0651152,0.170336,1.74009e-06,2.49415e-06,0.128174,0.0859073447910439,0.18570318066599167,1.7400915139909046e-06,-0.01579729290471188,2.494153110488284e-06,-0.06304048057668654
153,0.1416,537.164,178.751,0.125945,310.183,-0.108918,0.0608613,0.0829643,-0.0160359,-0.0655504,0.171475,-9.95863e-07,4.23106e-06,0.129047,0.08650301969805807,0.18705446599968023,-9.958625041273095e-07,-0.01590800948133586,4.231068950977246e-06,-0.06344815664279313
154,0.1426,537.78,178.954,0.0591011,310.564,-0.109827,0.0331783,0.0835118,-0.016145,-0.0659873,0.172612,-1.41281e-06,4.0059e-06,0.129918,0.08709804297410106,0.18840491451201635,-1.4128090020104622e-06,-0.01601536806098447,4.005908023518856e-06,-0.06385724677091009
155,0.1436,538.625,179.77,0.0224321,310.9,0.0559321,-0.0293124,0.0840585,-0.0162508,-0.0664252,0.173746,8.77714e-07,3.13292e-06,0.130788,0.08769252196021915,0.18975333009220674,8.777143851723679e-07,-0.016119468128052983,3.1329249075007226e-06,-0.06426709393996222
156,0.1446,539.091,179.366,0.0648366,311.328,-0.115975,0.0420657,0.0846053,-0.0163626,-0.0668599,0.174882,-1.70868e-06,4.16654e-06,0.131659,0.08828743486559265,0.1911056578519279,-1.708678540213171e-06,-0.016229459822865944,4.16654868007349e-06,-0.06467376863707719
157,0.1456,540.009,180.511,-0.0290444,311.631,0.143286,-0.0731084,0.0851508,-0.0164662,-0.0672981,0.176014,2.07516e-06,2.48479e-06,0.132527,0.0888812576117406,0.19245475290034997,2.0751621532255626e-06,-0.016331373171625696,2.4847930870652846e-06,-0.06508353880445972
158,0.1466,540.572,180.571,-0.0809743,312.012,0.10316,-0.0851232,0.0856963,-0.0165747,-0.0677339,0.177147,1.94415e-06,2.02716e-06,0.133396,0.08947540437656443,0.19380656979504773,1.944151889921031e-06,-0.016438095427849464,2.027162054663023e-06,-0.06549088663071034
159,0.1476,541.152,180.263,0.103683,312.437,-0.0526225,0.0341076,0.0862417,-0.016686,-0.0681672,0.178279,-2.02071e-07,3.63232e-06,0.134264,0.09006976632988284,0.19515872400694922,-2.0207097961577603e-07,-0.0165475597760244,3.6323265968363216e-06,-0.06589572171567815
160,0.1486,541.859,180.99,-0.0725734,312.758,0.102418,-0.0737642,0.0867859,-0.0167911,-0.0686039,0.179409,2.11691e-06,2.03232e-06,0.135131,0.09066314374006867,0.1965100167016609,2.1169122406128338e-06,-0.016650915196069427,2.0323220650819707e-06,-0.06630355599690829
161,0.1496,542.449,181.065,-0.0754297,313.135,0.0630516,-0.0693812,0.08733,-0.0168995,-0.0690383,0.180539,1.84881e-06,1.83759e-06,0.135997,0.09125673502844345,0.1978628372201754,1.8488117090598166e-06,-0.016757504459619765,1.8375916883694998e-06,-0.06670906564910994
162,0.1506,543.078,180.979,0.0788754,313.535,-0.0293532,0.0180205,0.0878739,-0.0170093,-0.069471,0.181668,5.84419e-07,2.99088e-06,0.136863,0.09185043100761092,0.19921598807332175,5.84419170834849e-07,-0.016865458558841584,2.990884472753308e-06,-0.0671128132793044
163,0.1516,543.725,181.467,-0.0461361,313.869,0.0576008,-0.0505452,0.0884168,-0.0171155,-0.0699058,0.182795,1.88399e-06,1.96151e-06,0.137727,0.09244335754194943,0.20056826635756297,1.883991774809246e-06,-0.016969861903226913,1.961511923775916e-06,-0.06751834445922322
164,0.1526,544.288,181.21,0.107289,314.276,-0.0828989,0.0461258,0.0889598,-0.0172261,-0.0703374,0.183923,-1.79403e-07,3.32589e-06,0.138591,0.09303671536716518,0.20192327144120759,-1.794029839130573e-07,-0.01707857902433274,3.3258955307591265e-06,-0.06792071670357813
165,0.1536,545.026,182.07,-0.0679227,314.576,0.109673,-0.0752108,0.0895016,-0.0173301,-0.0707724,0.185047,2.63543e-06,1.55848e-06,0.139454,0.09362908311748397,0.20327499272335703,2.635433472786275e-06,-0.017180797536659465,1.5584812145252869e-06,-0.0683260830182465
166,0.1546,545.596,182.15,-0.079405,314.941,0.0741484,-0.0743655,0.0900433,-0.017438,-0.071205,0.186172,2.4528e-06,1.3044e-06,0.140317,0.0942216624774379,0.20462943882325013,2.452803008035076e-06,-0.017286838007618988,1.3044008506657434e-06,-0.06872903798928842
167,0.1556,546.188,181.989,0.0840053,315.336,-0.0376162,0.0225545,0.0905849,-0.0175477,-0.0716357,0.187297,9.15768e-07,2.59014e-06,0.141179,0.09481445344313877,0.20598540953243782,9.157684193183968e-07,-0.01739463572867639,2.5901433544639474e-06,-0.06913005002848471
168,0.1566,546.835,182.546,-0.0538036,315.654,0.0708002,-0.0572603,0.0911254,-0.017653,-0.0720689,0.188419,2.53093e-06,1.4001e-06,0.14204,0.09540636060372498,0.2073392845437836,2.530933202793406e-06,-0.017498098626117065,1.4001009800423958e-06,-0.06953321555885361
169,0.1576,547.354,182.175,0.116763,316.06,-0.10043,0.0549108,0.0916661,-0.0177637,-0.0724983,0.189542,2.01615e-08,2.98441e-06,0.142901,0.09599880697634644,0.2086958881506804,2.016150024708452e-08,-0.017606855566791424,2.9844144533441863e-06,-0.06993267222660826
170,0.1586,548.11,183.173,-0.081766,316.337,0.133073,-0.087344,0.0922054,-0.0178665,-0.0729319,0.190661,3.43075e-06,9.19447e-07,0.14376,0.09659003854421133,0.21004917587279048,3.430755884936687e-06,-0.01770784039133022,9.194474226426053e-07,-0.07033586200207054
171,0.1596,548.656,183.226,-0.0907836,316.694,0.0915805,-0.0838734,0.0927448,-0.0179739,-0.0733627,0.191782,3.23208e-06,6.668e-07,0.144619,0.097181698767419,0.2114064015818249,3.2320852232370356e-06,-0.017813332904222823,6.668002223708669e-07,-0.0707362750575552
172,0.1606,549.212,182.973,0.0890282,317.087,-0.0450464,0.0267567,0.0932841,-0.0180837,-0.0737913,0.192901,1.35647e-06,2.13542e-06,0.145478,0.09777356844087648,0.2127627240660972,1.3564709200331038e-06,-0.01792117107984581,2.1354222801139855e-06,-0.07113447215033286
173,0.1616,549.86,183.603,-0.0637584,317.388,0.0859589,-0.0653525,0.0938222,-0.0181881,-0.0742228,0.194019,3.30777e-06,7.67517e-07,0.146335,0.0983644393576173,0.214119351004755,3.3077754706400953e-06,-0.018023694757756004,7.675172946086661e-07,-0.07153519116425522
174,0.1626,550.334,183.108,0.128069,317.795,-0.119452,0.0647685,0.0943607,-0.018299,-0.0746501,0.195137,3.01613e-07,2.60506e-06,0.147192,0.09895606788989686,0.21547749550048678,3.016130454280841e-07,-0.018132589891660555,2.605063393223972e-06,-0.07193183942713421
175,0.1636,550.885,183.314,0.0623544,318.129,-0.112487,0.0352429,0.0948983,-0.0184061,-0.0750792,0.196253,-1.05599e-08,2.35828e-06,0.148048,0.0995470255071691,0.21683472557898487,-1.055989995446538e-08,-0.018237742260273304,2.3582827808343865e-06,-0.07232998804594071
176,0.1646,551.646,184.091,0.0181986,318.422,0.0506039,-0.0285876,0.0954351,-0.01851,-0.0755093,0.197367,2.22375e-06,1.47719e-06,0.148903,0.1001374207983805,0.21819103478724422,2.223752472607643e-06,-0.0183397420598711,1.47719109100386e-06,-0.07272889312739506
177,0.1656,552.057,183.707,0.0655784,318.805,-0.110153,0.0402126,0.095972,-0.0186198,-0.0759363,0.198483,-1.89993e-07,2.46318e-06,0.149758,0.1007282431716805,0.2195512948660121,-1.8999298190269798e-07,-0.018447522438941877,2.463183033540872e-06,-0.07312475336785362
178,0.1666,552.872,184.751,-0.03141,319.07,0.129318,-0.0688553,0.0965077,-0.0187219,-0.0763665,0.199594,3.28177e-06,8.85029e-07,0.150611,0.10131806126021736,0.22090696929230735,3.281775385000074e-06,-0.01854773383102215,8.850293915507734e-07,-0.07352340934190638
179,0.1676,553.366,184.782,-0.073754,319.411,0.086863,-0.0764818,0.0970434,-0.0188286,-0.0767945,0.200707,3.04807e-06,5.2283e-07,0.151465,0.10190819539895091,0.22226659524061465,3.048074645350951e-06,-0.01865244920115805,5.228301367399268e-07,-0.07391985647696919
180,0.1686,553.895,184.544,0.0904469,319.786,-0.0416702,0.026231,0.097579,-0.0189375,-0.0772204,0.201819,1.28709e-06,1.88901e-06,0.152317,0.10249853550737509,0.2236265116679228,1.2870908283613147e-06,-0.018759312130647965,1.889011784106387e-06,-0.07431419003080464
181,0.1696,554.507,185.13,-0.0588796,320.076,0.0790972,-0.0614006,0.0981134,-0.0190414,-0.0776489,0.202929,3.08208e-06,5.93698e-07,0.153169,0.10308786818041527,0.2249854911899758,3.0820847496393355e-06,-0.018861257741951354,5.936981761767157e-07,-0.07471076142888655
182,0.1706,554.969,184.683,0.121937,320.463,-0.109921,0.0595751,0.0986482,-0.0191513,-0.0780734,0.204039,3.19706e-07,2.29571e-06,0.15402,0.10367795734809726,0.22634598001680728,3.1970605118836204e-07,-0.01896907896484079,2.2957126351030865e-06,-0.07510346335377927
183,0.1716,555.699,185.736,-0.089963,320.711,0.14363,-0.0932727,0.0991815,-0.0192525,-0.0785024,0.205146,4.01206e-06,8.93463e-08,0.15487,0.10426670577856623,0.22770429670626124,4.012068048231399e-06,-0.019068354270634358,8.93463039108866e-08,-0.07550015887072814
184,0.1726,556.202,185.756,-0.0942912,321.046,0.096427,-0.0863031,0.0997149,-0.0193589,-0.0789284,0.206254,3.74968e-06,-1.21869e-07,0.15572,0.10485587875789282,0.2290653469496038,3.749687029985793e-06,-0.019172719845392927,-1.2186899256416694e-07,-0.07589391192769335
185,0.1736,556.712,185.473,0.0867004,321.417,-0.0449158,0.026011,0.100248,-0.0194675,-0.0793523,0.207361,1.81682e-06,1.3611e-06,0.156569,0.10544503445235609,0.23042667564509012,1.8168216504577117e-06,-0.019279231904308247,1.3611009261893514e-06,-0.07628555748328703
186,0.1746,557.321,186.089,-0.0641759,321.696,0.0858629,-0.0653069,0.10078,-0.0195708,-0.0797791,0.208466,3.75975e-06,9.6722e-09,0.157417,0.10603328767216702,0.23178704858930876,3.7597570679004377e-06,-0.01938053512725102,9.672199929866565e-09,-0.07667971468822243
187,0.1756,557.757,185.586,0.125336,322.079,-0.118007,0.0632445,0.101313,-0.0196805,-0.0802017,0.209572,7.8426e-07,1.81469e-06,0.158265,0.10662296054835796,0.23315015872600364,7.842603075847165e-07,-0.01948810318233185,1.8146916465067164e-06,-0.07706982740417245
188,0.1766,558.273,185.791,0.0603657,322.39,-0.108015,0.033133,0.101844,-0.0197864,-0.0806262,0.210676,5.34372e-07,1.55011e-06,0.159112,0.1072107333802852,0.23451230826943448,5.343721427575332e-07,-0.019591933894271607,1.550111201398252e-06,-0.07746152811808082
189,0.1776,558.983,186.518,0.0181663,322.664,0.0449985,-0.0265791,0.102375,-0.0198893,-0.0810514,0.211778,2.62111e-06,7.3019e-07,0.159958,0.10779881840246541,0.2358734907069182,2.6211134351861176e-06,-0.019692812693970607,7.301902666956295e-07,-0.07785370809295367
190,0.1786,559.372,186.174,0.0620999,323.02,-0.101441,0.0361489,0.102906,-0.0199977,-0.0814739,0.212881,4.23654e-07,1.62241e-06,0.160804,0.10838721578071575,0.23723741123105713,4.236540898094887e-07,-0.019799072233703474,1.6224113161822373e-06,-0.07824323260843613
191,0.1796,560.125,187.122,-0.0279143,323.271,0.114986,-0.0628282,0.103436,-0.0200991,-0.0818992,0.213981,3.54949e-06,1.9642e-07,0.161648,0.10897481670556974,0.23859912118658122,3.5494962995485935e-06,-0.01989845956875591,1.9642001936048814e-07,-0.07863517240970119
192,0.1806,560.586,187.143,-0.0660139,323.59,0.0732173,-0.0689753,0.103966,-0.0202047,-0.0823225,0.215081,3.26977e-06,-1.16578e-07,0.162492,0.10956272914145715,0.2399623298471929,3.269775345593473e-06,-0.020001952826885216,-1.1657799325881513e-07,-0.07902510360645987
193,0.1816,561.093,186.968,0.0815636,323.937,-0.0340815,0.0208296,0.104496,-0.020312,-0.0827439,0.216181,1.80382e-06,1.06854e-06,0.163335,0.11015095325352253,0.24132703886237494,1.8038216269555818e-06,-0.020107100976047843,1.0685405709143225e-06,-0.07941312066686357
194,0.1826,561.653,187.46,-0.0486156,324.213,0.0629883,-0.0527314,0.105024,-0.0204153,-0.0831675,0.217278,3.24054e-06,-1.83258e-08,0.164178,0.11073726773024095,0.24268952180926795,3.2405452505823718e-06,-0.020208318684532323,-1.8325799877594307e-08,-0.07980299868695451
195,0.1836,562.107,187.129,0.106129,324.568,-0.0889913,0.0474986,0.105553,-0.0205233,-0.0835877,0.218377,1.0221e-06,1.38052e-06,0.16502,0.11132500318719263,0.24405598832955433,1.0221005224408941e-06,-0.020314130472175007,1.3805209528872098e-06,-0.08018958423959344
196,0.1846,562.759,187.987,-0.0711329,324.811,0.111948,-0.0765298,0.10608,-0.0206245,-0.0840115,0.219472,3.93604e-06,-4.05178e-07,0.165861,0.11191082581457623,0.24541897573619242,3.936047746178062e-06,-0.020413269665643496,-4.051779178837478e-07,-0.0805793173035233
197,0.1856,563.232,188.013,-0.075781,325.125,0.0696978,-0.0708661,0.106608,-0.0207297,-0.0844329,0.220567,3.63692e-06,-5.74807e-07,0.166701,0.11249806974936227,0.24678345643146704,3.636926613648228e-06,-0.02051631676930199,-5.74806834796604e-07,-0.0809666795562527
198,0.1866,563.735,187.855,0.0736051,325.463,-0.0318312,0.0173904,0.107135,-0.0208365,-0.0848525,0.221663,2.25192e-06,5.79005e-07,0.167541,0.1130845107457501,0.2481506802014808,2.2519225355566164e-06,-0.020620920040756885,5.790051675891306e-07,-0.08135222504441075
199,0.1876,564.281,188.32,-0.0457808,325.734,0.0582353,-0.0502717,0.107662,-0.0209395,-0.0852743,0.222756,3.58312e-06,-4.24779e-07,0.16838,0.11367126087799306,0.24951565471762538,3.583126419348659e-06,-0.020721790891054748,-4.2477890982439703e-07,-0.08173962896665599
200,0.1886,564.73,188.023,0.0999969,326.078,-0.0828959,0.0434725,0.108188,-0.0210469,-0.0856929,0.223849,1.52365e-06,8.78589e-07,0.169219,0.11425720605128586,0.2508821219665458,1.5236511607952252e-06,-0.0208269597230456,8.785893859108995e-07,-0.08212393231766757
201,0.1896,565.359,188.823,-0.0648433,326.319,0.102569,-0.0713207,0.108714,-0.0211479,-0.0861148,0.22494,4.20884e-06,-7.73045e-07,0.170056,0.11484345951281227,0.25224757908302875,4.208848857212288e-06,-0.02092585120600965,-7.73044701252168e-07,-0.08251110255131888
202,0.1906,565.821,188.85,-0.0700259,326.625,0.0618585,-0.0662095,0.109239,-0.0212527,-0.0865343,0.226031,3.90038e-06,-9.32305e-07,0.170894,0.1154289059953113,0.2536145267261598,3.900387606448064e-06,-0.02102845280038579,-9.323045654374695e-07,-0.0828959084251234
203,0.1916,566.319,188.728,0.0696909,326.952,-0.0281973,0.0149327,0.109764,-0.0213589,-0.0869523,0.227121,2.67267e-06,1.24674e-07,0.17173,0.11601465991790949,0.2549817115406525,2.672673571568751e-06,-0.021132414058257942,1.2467400778426452e-07,-0.08327917782651628
204,0.1926,566.845,189.15,-0.0403778,327.22,0.0503061,-0.045906,0.110288,-0.0214616,-0.0873722,0.22821,3.83015e-06,-7.78975e-07,0.172566,0.11659960484189225,0.2563491310493051,3.83015733507186e-06,-0.02123293859731068,-7.789746966357924e-07,-0.08366402809477858
205,0.1936,567.295,188.909,0.0925213,327.552,-0.0730966,0.0378434,0.110813,-0.0215682,-0.0877892,0.229299,2.02874e-06,3.80902e-07,0.173401,0.11718597354275007,0.257718040488923,2.0287420579023774e-06,-0.021337269605114728,3.809020725498158e-07,-0.08404606053576313
206,0.1946,567.894,189.622,-0.0558172,327.793,0.0882272,-0.0636251,0.111336,-0.0216693,-0.0882091,0.230385,4.35944e-06,-1.07884e-06,0.174235,0.1177704146249341,0.2590846642232658,4.359449502278068e-06,-0.02143620740576757,-1.0788394180227812e-06,-0.08443058885757315
207,0.1956,568.25,189.043,0.122392,328.15,-0.130756,0.0657439,0.11186,-0.0217776,-0.0886246,0.231473,1.15727e-06,7.3111e-07,0.175069,0.11835627980546937,0.260455293825238,1.1572706697382529e-06,-0.021542180125979082,7.311102672158398e-07,-0.08481092892678155
208,0.1966,568.732,189.27,0.0611653,328.429,-0.110065,0.0341467,0.112382,-0.0218815,-0.0890421,0.232558,1.04784e-06,4.47716e-07,0.175902,0.1189402141771394,0.26182363000718034,1.0478405489955378e-06,-0.021643836612318057,4.477161001936736e-07,-0.08519294061346616
209,0.1976,569.384,189.965,0.0151155,328.675,0.039174,-0.0254815,0.112904,-0.0219828,-0.0894603,0.233642,3.06677e-06,-3.62577e-07,0.176734,0.11952445344212181,0.2631921884467714,3.066774702631392e-06,-0.021742939072044942,-3.6257693425412185e-07,-0.08557543294098136
210,0.1986,569.741,189.65,0.0611256,328.999,-0.0953771,0.0337233,0.113426,-0.0220892,-0.0898758,0.234726,1.04676e-06,4.71694e-07,0.177566,0.12010899775961215,0.264562231208068,1.0467605477959552e-06,-0.021847020086119495,4.716941113258599e-07,-0.0859552974262826
211,0.1996,570.421,190.513,-0.0278471,329.226,0.102637,-0.0585588,0.113947,-0.0221892,-0.090294,0.235808,3.89206e-06,-8.48082e-07,0.178396,0.12069272659560282,0.26593122803595914,3.892067574007285e-06,-0.021944830493509038,-8.480816403588776e-07,-0.08633747100283418
212,0.2006,570.683,189.783,0.102394,329.584,-0.1521,0.0655285,0.114469,-0.0222977,-0.0907077,0.236891,1.65193e-07,8.8638e-07,0.179227,0.12127788091087477,0.26730297422240645,1.6519301371253903e-07,-0.022050943722653704,8.863803928615965e-07,-0.08671537501624527
213,0.2016,571.182,190.049,0.0618027,329.856,-0.121864,0.0382681,0.114989,-0.0224011,-0.0911234,0.237972,1.41504e-07,6.70785e-07,0.180056,0.12186109703199821,0.26867366946484106,1.4150401006496338e-07,-0.02215205842735246,6.707852249210333e-07,-0.08709494853502908
214,0.2026,571.834,190.788,0.00726935,330.091,0.0412866,-0.0288563,0.115509,-0.0225017,-0.09154,0.239051,2.34342e-06,-2.41285e-07,0.180885,0.12244461650436889,0.27004330714083746,2.3434227458540846e-06,-0.022250424982353967,-2.4128497089215273e-07,-0.08747518557059553
215,0.2036,572.178,190.44,0.0671581,330.412,-0.102343,0.0378262,0.116029,-0.0226079,-0.0919537,0.240131,1.87419e-07,6.97128e-07,0.181713,0.12302843948577102,0.27141569486852646,1.874190176387458e-07,-0.022354256473671064,6.971282429102388e-07,-0.08785261900883523
216,0.2046,572.855,191.348,-0.0359539,330.628,0.110011,-0.063588,0.116548,-0.0227072,-0.0923703,0.241208,3.237e-06,-7.48917e-07,0.18254,0.12361144252206535,0.2727857472126569,3.2370052391872406e-06,-0.0224513318761298,-7.489167195284807e-07,-0.08823254046462214
217,0.2056,573.261,191.344,-0.0634897,330.915,0.0659413,-0.0650711,0.117067,-0.0228108,-0.0927847,0.242285,2.89226e-06,-9.82862e-07,0.183367,0.12419474821546861,0.2741572758980291,2.8922641825968043e-06,-0.022552600672333223,-9.828615169515942e-07,-0.08861029862295722
218,0.2066,573.717,191.192,0.0718407,331.223,-0.0285726,0.0159342,0.117585,-0.0229158,-0.0931975,0.243362,1.60746e-06,7.27433e-08,0.184193,0.12477723194530554,0.2755302825155188,1.6074612920746745e-06,-0.022655227261272337,7.274330271478391e-08,-0.08898644265021705
219,0.2076,574.209,191.607,-0.0409834,331.471,0.0514057,-0.0463126,0.118103,-0.0230172,-0.0936122,0.244437,2.78452e-06,-8.45152e-07,0.185019,0.12536001747987546,0.2769022148507332,2.78452387680872e-06,-0.02275432499688801,-8.451516428920058e-07,-0.08936416164700278
220,0.2086,574.624,191.351,0.091602,331.784,-0.0733195,0.0375487,0.118621,-0.0231226,-0.0940241,0.245513,9.68857e-07,3.10137e-07,0.185844,0.1259431049755535,0.2782769010824737,9.688574693633711e-07,-0.022857321263034747,3.101370480429466e-07,-0.08973917530945452
221,0.2096,575.189,192.049,-0.0561669,332.007,0.0870867,-0.0632109,0.119137,-0.0232224,-0.0944388,0.246586,3.28065e-06,-1.13242e-06,0.186667,0.12652424153805963,0.2796492283192311,3.2806553813546913e-06,-0.02295483523634445,-1.132419358840231e-06,-0.09011658221272356
222,0.2106,575.516,191.475,0.119793,332.343,-0.127682,0.0637574,0.119655,-0.0233293,-0.0948492,0.24766,1.47284e-07,6.33176e-07,0.187491,0.1271079322580213,0.2810243098770655,1.4728401076524733e-07,-0.023059275782011057,6.331762003597419e-07,-0.09048992175286974
223,0.2116,575.97,191.702,0.0586494,332.604,-0.104315,0.0314924,0.120171,-0.023432,-0.0952616,0.248732,9.90397e-08,3.30215e-07,0.188314,0.1276896700265031,0.28239830426666557,9.903970488167602e-08,-0.023159602442526128,3.302150544115534e-07,-0.09086492637787036
224,0.2126,576.578,192.346,0.0157248,332.834,0.033884,-0.0233932,0.120686,-0.0235322,-0.0956746,0.249802,1.96152e-06,-4.11512e-07,0.189136,0.1282705797779884,0.2837712048230425,1.9615219237767434e-06,-0.02325747694676683,-4.115119153214053e-07,-0.09124032163881901
225,0.2136,576.918,192.071,0.0568762,333.136,-0.0863859,0.0293944,0.121202,-0.023637,-0.0960851,0.250873,1.55728e-07,3.25699e-07,0.189958,0.12885291762739826,0.2851468603154297,1.55728012041223e-07,-0.023359834199568996,3.2569905306090163e-07,-0.09161329092960191
226,0.2146,577.544,192.844,-0.0235403,333.351,0.0895079,-0.0527376,0.121717,-0.0237362,-0.096498,0.251941,2.67503e-06,-8.44264e-07,0.190778,0.12943442660568572,0.28652013035791724,2.6750335779812673e-06,-0.023456712098793187,-8.442636436623019e-07,-0.09198828637863898
227,0.2156,577.806,192.219,0.0927222,333.682,-0.133097,0.0561629,0.122231,-0.0238428,-0.0969069,0.253011,-5.77478e-07,6.6577e-07,0.191599,0.13001510512255532,0.2878974436285928,-5.774778332190422e-07,-0.02356080606497646,6.657702216195105e-07,-0.09235949646926356
228,0.2166,578.514,193.391,-0.0719768,333.86,0.159325,-0.091228,0.122745,-0.0239396,-0.0973202,0.254077,3.64248e-06,-1.42564e-06,0.192417,0.13059608218490237,0.2892710743185809,3.6424866338702344e-06,-0.023655320804362168,-1.4256389837541406e-06,-0.09273454677988735
229,0.2176,578.882,193.315,-0.086618,334.138,0.0964299,-0.0825639,0.123259,-0.0240425,-0.0977305,0.255144,3.1527e-06,-1.58655e-06,0.193236,0.13117735794621854,0.290647460726444,3.1527049697555043e-06,-0.023755781503059903,-1.586548741383531e-06,-0.09310672143849119
230,0.2186,579.286,193.023,0.0777109,334.445,-0.036571,0.0206212,0.123772,-0.0241471,-0.098139,0.256211,1.35524e-06,-2.45561e-07,0.194055,0.13175780080170774,0.2920253165223834,1.3552409183770209e-06,-0.023857891307878742,-2.4556096989147846e-07,-0.09347711168542494
231,0.2196,579.775,193.527,-0.0559833,334.67,0.0716372,-0.057567,0.124285,-0.024247,-0.0985499,0.257275,2.95305e-06,-1.39088e-06,0.194872,0.1323385415007723,0.2934007630669635,2.9530543601552495e-06,-0.023955403033745326,-1.3908790327255005e-06,-0.09384952542259128
232,0.2206,580.134,193.116,0.106373,334.982,-0.0958871,0.049547,0.124798,-0.0243522,-0.0989573,0.25834,5.24698e-07,8.33357e-08,0.195689,0.13291958019624506,0.29477896864383313,5.246981376050286e-07,-0.02405807752457323,8.333570344909447e-08,-0.09421861593709135
233,0.2216,580.715,193.984,-0.0768643,335.176,0.116186,-0.0792624,0.125309,-0.02445,-0.0993685,0.259402,3.58217e-06,-1.74772e-06,0.196505,0.1334986500414701,0.2961547543214218,3.5821764159393865e-06,-0.024153519977379356,-1.7477184727221484e-06,-0.0945909966754912
234,0.2226,581.104,193.958,-0.0728921,335.446,0.0663304,-0.0679214,0.125821,-0.0245523,-0.0997771,0.260465,3.15953e-06,-1.82578e-06,0.19732,0.13407914994558556,0.2975332993921611,3.1595349914148585e-06,-0.02425334396620149,-1.8257783332975563e-06,-0.09496087122373331
235,0.2236,581.53,193.804,0.0631546,335.735,-0.0260605,0.0122681,0.126332,-0.0246558,-0.100184,0.261527,1.91016e-06,-7.94313e-07,0.198135,0.13465881248237244,0.29891201172278214,1.9101618242700624e-06,-0.024354328519060275,-7.943126845155746e-07,-0.09532905673281067
236,0.2246,581.99,194.187,-0.0384101,335.966,0.0473191,-0.0440672,0.126842,-0.024756,-0.100593,0.262587,2.98823e-06,-1.62714e-06,0.198949,0.1352376360642058,0.30028958844188236,2.9882344647624848e-06,-0.02445208331774551,-1.6271386762412021e-06,-0.09569899149179173
237,0.2256,582.377,193.954,0.0842149,336.257,-0.0674834,0.0331718,0.127353,-0.0248598,-0.100999,0.263647,1.31977e-06,-5.72372e-07,0.199763,0.13581789073867756,0.3016686261665009,1.3197708708112543e-06,-0.02455333993618769,-5.723718361494434e-07,-0.09606606318065103
238,0.2266,582.9,194.587,-0.0498534,336.465,0.0772079,-0.0577605,0.127863,-0.0249585,-0.101408,0.264705,3.39778e-06,-1.8695e-06,0.200576,0.13639730560118535,0.30304652035047797,3.397785772518702e-06,-0.02464961177044278,-1.8694982525380155e-06,-0.09643569656563022
239,0.2276,583.212,194.084,0.108601,336.776,-0.113831,0.0555487,0.128373,-0.0250635,-0.101813,0.265765,6.1414e-07,-3.06097e-07,0.201388,0.13697701604063872,0.3044284819723113,6.141401884818265e-07,-0.024752018184776015,-3.060969531176738e-07,-0.09680156601495671
240,0.2286,583.821,195.077,-0.0820285,336.952,0.134161,-0.0865555,0.128881,-0.0251602,-0.102222,0.26682,4.18378e-06,-2.31624e-06,0.202199,0.1375547470960512,0.30580538020690073,4.183788752110118e-06,-0.024846320105046282,-2.3162373175011908e-06,-0.0971708986407861
241,0.2296,584.188,195.022,-0.0793841,337.217,0.0776532,-0.0736427,0.12939,-0.025262,-0.102629,0.267877,3.70952e-06,-2.39132e-06,0.20301,0.13813390984673912,0.30718634620573604,3.7095268803355452e-06,-0.024945585696955264,-2.3913171407485834e-06,-0.09753827531881398
242,0.2306,584.591,194.814,0.0660338,337.503,-0.029258,0.0143545,0.129898,-0.0253652,-0.103033,0.268933,2.26587e-06,-1.25874e-06,0.203821,0.13871222875350653,0.3085674640892273,2.2658725671309554e-06,-0.025046206120408088,-1.2587392077545445e-06,-0.09790279621740572
243,0.2316,585.045,195.229,-0.0439334,337.724,0.0546531,-0.0481295,0.130406,-0.0254646,-0.10344,0.269987,3.49977e-06,-2.17761e-06,0.20463,0.1392908415209131,0.30994742130607933,3.499776124238352e-06,-0.02514311171123207,-2.177607628994771e-06,-0.09826987507373075
244,0.2326,585.408,194.938,0.0895281,338.013,-0.0757275,0.0375327,0.130914,-0.0255681,-0.103844,0.271042,1.60852e-06,-1.0083e-06,0.205439,0.13986974829827759,0.31133014509410484,1.6085212937166915e-06,-0.02524400417789474,-1.008299491678244e-06,-0.09863410046571786
245,0.2336,585.932,195.63,-0.0574017,338.208,0.0872979,-0.0634,0.13142,-0.0256659,-0.104251,0.272093,3.95001e-06,-2.4423e-06,0.206247,0.14044666833937747,0.3127090775786887,3.950017801290784e-06,-0.02533933065274563,-2.4422970176241066e-06,-0.09900088174177557
246,0.2346,586.216,195.045,0.1169,338.52,-0.126484,0.0622296,0.131927,-0.0257708,-0.104653,0.273147,8.39251e-07,-7.10954e-07,0.207055,0.14102502140033768,0.3140934023574593,8.39251352191539e-07,-0.0254415671945597,-7.109537473182215e-07,-0.09936301059453911
247,0.2356,586.834,196.129,-0.0931311,338.68,0.149179,-0.0949239,0.132433,-0.0258663,-0.10506,0.274196,4.8058e-06,-2.92623e-06,0.207862,0.14160252615754798,0.3154726096042597,4.805811547825556e-06,-0.02553463308092585,-2.9262257186246643e-06,-0.09972949526453778
248,0.2366,587.185,196.048,-0.0859902,338.94,0.0863743,-0.0785363,0.132939,-0.0259677,-0.105464,0.275247,4.27574e-06,-2.97162e-06,0.208668,0.14218032320610896,0.31685589810773074,4.275749140969509e-06,-0.025633438859593793,-2.9716155847125947e-06,-0.10009313108906848
249,0.2376,587.567,195.8,0.0669167,339.223,-0.0311602,0.0153332,0.133444,-0.0260705,-0.105866,0.276297,2.6912e-06,-1.76528e-06,0.209474,0.14275726993611615,0.3182393229716951,2.6912036212856094e-06,-0.02573359859378055,-1.7652784418675793e-06,-0.10045482094583857
250,0.2386,588.015,196.234,-0.0477084,339.435,0.0594831,-0.0508252,0.133949,-0.0261692,-0.106271,0.277345,4.02477e-06,-2.73525e-06,0.210279,0.14333450809780213,0.3196215619488836,4.0247780994651094e-06,-0.02582975394225484,-2.735246259155666e-06,-0.10081906297936505
251,0.2396,588.359,195.905,0.0925108,339.72,-0.0809129,0.0401442,0.134454,-0.0262723,-0.106672,0.278394,1.99097e-06,-1.49535e-06,0.211084,0.14391203783837736,0.32100657127775545,1.990971981946643e-06,-0.025930185717276344,-1.4953488819413607e-06,-0.10117956225017577
252,0.2406,588.88,196.631,-0.062065,339.906,0.0932426,-0.0667523,0.134957,-0.0263693,-0.107077,0.27944,4.49143e-06,-3.00928e-06,0.211887,0.14448757032769644,0.3223890670705609,4.491440086518139e-06,-0.02602466590689856,-3.009275472143358e-06,-0.1015435108229037
253,0.2416,589.143,195.997,0.121503,340.214,-0.133725,0.0659768,0.135462,-0.0264739,-0.107477,0.280488,1.19196e-06,-1.18346e-06,0.212691,0.14506568251175245,0.32377565725920143,1.1919607103560992e-06,-0.026126538398820398,-1.1834592996695648e-06,-0.10190282155163799
254,0.2426,589.551,196.236,0.0592319,340.44,-0.101999,0.0311168,0.135965,-0.0265739,-0.107879,0.281533,1.27235e-06,-1.5241e-06,0.213494,0.14564179543030797,0.3251597258709338,1.2723508093781533e-06,-0.02622392087577552,-1.5240988385789578e-06,-0.10226378405904923
255,0.2436,590.09,196.824,0.0144637,340.642,0.0264629,-0.0211115,0.136468,-0.0266718,-0.108282,0.282576,2.99012e-06,-2.2198e-06,0.214295,0.14621819820655468,0.3265425885025175,2.990124470469979e-06,-0.02631924888753956,-2.219797536229251e-06,-0.1026254988636448
256,0.2446,590.395,196.593,0.0531611,340.908,-0.0771438,0.0251723,0.13697,-0.0267738,-0.108682,0.283621,1.43083e-06,-1.58277e-06,0.215097,0.1467937441920102,0.3279295500687045,1.4308310236632593e-06,-0.026418559259237973,-1.5827687473990437e-06,-0.10298437688371032
257,0.2456,590.94,197.256,-0.0206037,341.099,0.0732603,-0.0462635,0.137472,-0.026871,-0.109085,0.284662,3.57163e-06,-2.59057e-06,0.215897,0.14736957917408233,0.3293126445060781,3.5716363782078986e-06,-0.026513186776306097,-2.5905666444225872e-06,-0.10334580134790505
258,0.2466,591.188,196.75,0.081709,341.388,-0.111009,0.045387,0.137974,-0.0269743,-0.109484,0.285706,8.82538e-07,-1.33833e-06,0.216697,0.14794570329788392,0.3307011715919641,8.825383894794925e-07,-0.026613742770305593,-1.3383291044277712e-06,-0.10370349500853648
259,0.2476,591.788,197.704,-0.0588785,341.552,0.124999,-0.0754344,0.138475,-0.0270697,-0.109886,0.286745,4.27102e-06,-3.03699e-06,0.217496,0.1485209681870583,0.3320844886179999,4.271029120817005e-06,-0.026706599389914154,-3.036985388393809e-06,-0.10406373379069656
260,0.2486,592.115,197.632,-0.0680184,341.798,0.0678548,-0.06623,0.138976,-0.0271701,-0.110287,0.287786,3.74883e-06,-3.13142e-06,0.218295,0.14909652135615015,0.33347191059849846,3.7488370268068394e-06,-0.026804313142022917,-3.1314150971128996e-06,-0.10442293220935017
261,0.2496,592.494,197.465,0.0612281,342.062,-0.0238517,0.0111568,0.139477,-0.0272715,-0.110685,0.288826,2.51456e-06,-2.14186e-06,0.219093,0.14967236294962394,0.33485944277719093,2.5145631614709174e-06,-0.02690299018165987,-2.141857706194905e-06,-0.10477930096024535
262,0.2506,592.906,197.813,-0.0364356,342.27,0.0435459,-0.0420088,0.139977,-0.0273697,-0.111086,0.289864,3.50188e-06,-2.92314e-06,0.21989,0.1502473428640987,0.3362457462458217,3.5018861315183614e-06,-0.02699854361627363,-2.9231357275838477e-06,-0.10513821249398825
263,0.2516,593.257,197.597,0.0782447,342.534,-0.0621704,0.029475,0.140477,-0.0274712,-0.111484,0.290902,1.96835e-06,-1.95707e-06,0.220687,0.1508226103404151,0.33763348944454386,1.9683519372204472e-06,-0.027097298252213964,-1.9570680849234634e-06,-0.10549429661997412
264,0.2526,593.726,198.164,-0.0449585,342.723,0.067387,-0.0527618,0.140976,-0.0275681,-0.111884,0.291938,3.82061e-06,-3.12272e-06,0.221483,0.15139701412480022,0.3390199958259028,3.820617298533335e-06,-0.027191567956572404,-3.1227151242596562e-06,-0.10585202735041033
265,0.2536,594.016,197.728,0.0978446,343.003,-0.100275,0.0475997,0.141475,-0.0276707,-0.112281,0.292976,1.38083e-06,-1.753e-06,0.222279,0.1519717046081992,0.3404106201907555,1.3808309533569485e-06,-0.02729137298161477,-1.7529984635000773e-06,-0.10620693364199196
266,0.2546,594.555,198.584,-0.0706491,343.166,0.112528,-0.0755232,0.141973,-0.0277659,-0.112681,0.29401,4.43162e-06,-3.48233e-06,0.223074,0.1525455293876048,0.3417973215730974,4.431629819556804e-06,-0.027383970435198135,-3.4823239366543746e-06,-0.10656437937462271
267,0.2556,594.757,197.792,0.132935,343.475,-0.157906,0.0771257,0.142472,-0.0278702,-0.113076,0.295046,5.06501e-07,-1.38962e-06,0.223869,0.15312079312313465,0.34318814391982566,5.065011283722498e-07,-0.02748540899696883,-1.3896190345086268e-06,-0.10691721675479948
268,0.2566,595.157,198.065,0.0686622,343.686,-0.114388,0.0382922,0.142969,-0.0279689,-0.113474,0.296079,7.05829e-07,-1.75882e-06,0.224662,0.15369403659652026,0.3445763741699721,7.058292490480511e-07,-0.027581391450288817,-1.7588184533234852e-06,-0.10727259297797165
269,0.2576,595.682,198.69,0.00998322,343.871,0.0270482,-0.0227447,0.143466,-0.0280655,-0.113872,0.297111,2.59195e-06,-2.56437e-06,0.225455,0.1542675650427221,0.3459646932375382,2.5919533590545996e-06,-0.027675322550929526,-2.5643667119767954e-06,-0.10762782778954971
270,0.2586,595.967,198.434,0.0583969,344.127,-0.0823476,0.0284543,0.143963,-0.0281665,-0.114268,0.298144,9.45195e-07,-1.8604e-06,0.226248,0.15484137860340663,0.3473557931450526,9.451954467998291e-07,-0.027773522384176852,-1.8603982694376242e-06,-0.10798113720986269
271,0.2596,596.493,199.118,-0.0268729,344.304,0.0769604,-0.0494235,0.14446,-0.0282624,-0.114667,0.299174,3.20984e-06,-2.95162e-06,0.227039,0.15541547742031114,0.34874428456231765,3.2098451514528392e-06,-0.02786675443283204,-2.9516156440090313e-06,-0.10833698174041129
272,0.2606,596.719,198.58,0.0866718,344.584,-0.115471,0.048351,0.144956,-0.0283648,-0.115061,0.300206,4.05324e-07,-1.62109e-06,0.227831,0.15598870564595968,0.35013690713363466,4.0532408207560877e-07,-0.02796629578057408,-1.621088686065697e-06,-0.10868822776959397
273,0.2616,597.301,199.552,-0.0652669,344.733,0.128581,-0.0785251,0.145451,-0.028459,-0.115459,0.301234,3.90542e-06,-3.39518e-06,0.228621,0.15656106170169148,0.3515255615202306,3.905427626182956e-06,-0.02805785704290842,-3.3951742364202175e-06,-0.10904289927063116
274,0.2626,597.607,199.464,-0.0689977,344.969,0.0681967,-0.0663771,0.145947,-0.0285583,-0.115855,0.302263,3.33754e-06,-3.45062e-06,0.229411,0.15713485827808293,0.3529169970938617,3.3375455696926792e-06,-0.02815436610594979,-3.450614046607292e-06,-0.10939564843357596
275,0.2636,597.966,199.293,0.0580743,345.221,-0.0224873,0.00974526,0.146442,-0.0286586,-0.116249,0.303291,2.11997e-06,-2.48268e-06,0.2302,0.1577077818198087,0.3543085108824173,2.1199722470832683e-06,-0.02825183733476555,-2.4826769181585107e-06,-0.10974647743024235
276,0.2646,598.358,199.623,-0.0350285,345.42,0.0414066,-0.0407838,0.146936,-0.0287558,-0.116645,0.304318,3.05514e-06,-3.22466e-06,0.230989,0.15827983074847962,0.35570010018188647,3.055144667030163e-06,-0.028346286665864695,-3.2246548007375253e-06,-0.11009894803139486
277,0.2656,598.692,199.418,0.0743865,345.67,-0.0590348,0.0271836,0.147431,-0.0288561,-0.117039,0.305345,1.59936e-06,-2.31172e-06,0.231777,0.158853321191875,0.35709311937769206,1.5993612789699796e-06,-0.028443738646013572,-2.31171732800739e-06,-0.11044949998260134
278,0.2666,599.137,199.95,-0.0418274,345.851,0.0622285,-0.0499691,0.147924,-0.0289521,-0.117435,0.30637,3.32958e-06,-3.40218e-06,0.232564,0.15942477673143873,0.35848485296666954,3.329585543054847e-06,-0.028537003570315633,-3.4021742125744936e-06,-0.11080169224193837
279,0.2676,599.416,199.551,0.0917902,346.116,-0.0930849,0.04329,0.148418,-0.0290533,-0.117827,0.307396,1.07049e-06,-2.13708e-06,0.233352,0.159997674065135,0.35987937369261425,1.0704905730740677e-06,-0.028635310651132118,-2.137077716457547e-06,-0.11115018966862134
280,0.2686,599.922,200.338,-0.0643657,346.273,0.101748,-0.0698549,0.14891,-0.0291478,-0.118223,0.308418,3.85857e-06,-3.72084e-06,0.234137,0.16056853334064125,0.3612698808406505,3.858577444226796e-06,-0.02872710027714742,-3.7208330776472565e-06,-0.11150210450977516
281,0.2696,600.125,199.628,0.122458,346.563,-0.143077,0.0689315,0.149404,-0.0292505,-0.118614,0.309443,3.06856e-07,-1.8294e-06,0.234924,0.16114199582968425,0.36266589780498215,3.068560470165238e-07,-0.028826844881975844,-1.8293983266026714e-06,-0.11184943927853941
282,0.2706,600.505,199.886,0.0605674,346.764,-0.102162,0.0317591,0.149896,-0.0293481,-0.119008,0.310465,5.16768e-07,-2.19923e-06,0.235709,0.16171341825002106,0.36405925423639696,5.167681336182284e-07,-0.028921626756484686,-2.19922758171176e-06,-0.11219930167204628
283,0.2716,600.996,200.442,0.0128007,346.944,0.0211992,-0.0197878,0.150387,-0.029444,-0.119401,0.311486,2.15705e-06,-2.87735e-06,0.236493,0.16228395959481978,0.36545266995264947,2.1570523265346253e-06,-0.02901474870720977,-2.8773458604636204e-06,-0.11254813879550463
284,0.2726,601.276,200.239,0.0509584,347.184,-0.071124,0.0224964,0.150879,-0.0295436,-0.119793,0.312507,7.63415e-07,-2.30246e-06,0.237277,0.16285594399956604,0.3668475090728722,7.634152914270942e-07,-0.029111454022233918,-2.3024573493346523e-06,-0.11289595174930389
285,0.2736,601.763,200.829,-0.0192114,347.358,0.062807,-0.0422856,0.15137,-0.0296389,-0.120187,0.313526,2.66171e-06,-3.20881e-06,0.23806,0.16342704646225092,0.36824103656629337,2.6617135424622518e-06,-0.029203975291957063,-3.208804851828617e-06,-0.11324540189811483
286,0.2746,601.998,200.399,0.0743221,347.617,-0.0966574,0.0383465,0.151861,-0.0297396,-0.120577,0.314546,3.35671e-07,-2.12121e-06,0.238843,0.16399842940509712,0.36963735442463785,3.3567105628407035e-07,-0.029301729529636722,-2.121207750227505e-06,-0.11359116876245334
287,0.2756,602.525,201.212,-0.0506091,347.769,0.103374,-0.0655247,0.152351,-0.0298336,-0.120971,0.315563,3.19781e-06,-3.57039e-06,0.239624,0.16456892839634385,0.3710309841546875,3.1978151129319343e-06,-0.029392970878650337,-3.570383626194662e-06,-0.11394034504971529
288,0.2766,602.696,200.481,0.110693,348.054,-0.144173,0.0651648,0.152841,-0.0299358,-0.12136,0.316582,-3.93685e-07,-1.79681e-06,0.240406,0.16513970700059577,0.37242877678193365,-3.936849225505412e-07,-0.02949216184828163,-1.7968083857455852e-06,-0.11428495522446647
289,0.2776,603.077,200.748,0.0576142,348.249,-0.100917,0.0304234,0.153331,-0.0300328,-0.121751,0.317599,-1.46278e-07,-2.14012e-06,0.241187,0.16571076535489682,0.3738252468325789,-1.462779892769106e-07,-0.029586296542975843,-2.1401177099367175e-06,-0.11463120211129607
290,0.2786,603.557,201.29,0.011405,348.425,0.0194752,-0.0196817,0.15382,-0.0301282,-0.122143,0.318614,1.45208e-06,-2.79899e-06,0.241967,0.16628093731483795,0.375220387372162,1.4520810542872908e-06,-0.02967886959448085,-2.7989860827970503e-06,-0.1149781986643007
291,0.2796,603.834,201.1,0.0498747,348.659,-0.0686711,0.0213653,0.154308,-0.0302272,-0.122533,0.31963,1.19973e-07,-2.24333e-06,0.242746,0.16685022130624394,0.3766183213159233,1.199730073064842e-07,-0.029774926631489285,-2.2433274837752037e-06,-0.11532328986966256
292,0.2806,604.306,201.666,-0.0184938,348.83,0.059428,-0.0409365,0.154797,-0.0303221,-0.122924,0.320643,1.93377e-06,-3.11377e-06,0.243525,0.16742095059640127,0.3780135422355011,1.933771869744305e-06,-0.029866996622161746,-3.1137651522739063e-06,-0.11566913084700636
293,0.2816,604.54,201.262,0.0718546,349.082,-0.0919992,0.036072,0.155285,-0.0304221,-0.123312,0.321658,-2.75156e-07,-2.07871e-06,0.244304,0.16799079105005443,0.3794129360530918,-2.751559621261279e-07,-0.029964005071996258,-2.078707839525684e-06,-0.11601218466749286
294,0.2826,605.049,202.033,-0.0477515,349.232,0.0970358,-0.062505,0.155772,-0.0305157,-0.123704,0.322669,2.42755e-06,-3.45191e-06,0.245081,0.16855974109338656,0.38080822773253886,2.4275529464379275e-06,-0.030054796192030775,-3.4519040421621128e-06,-0.11635863998142515
295,0.2836,605.225,201.352,0.105549,349.508,-0.135606,0.0607765,0.15626,-0.0306171,-0.124091,0.323683,-9.47423e-07,-1.78427e-06,0.245859,0.16913013741242233,0.38220907738620524,-9.47422551189625e-07,-0.030153143649396585,-1.784268408244749e-06,-0.11670054302524613
296,0.2846,605.8,202.458,-0.0885365,349.627,0.151877,-0.0933246,0.156746,-0.0307087,-0.124482,0.324692,3.17448e-06,-3.91898e-06,0.246635,0.16969847275350602,0.38360443018239154,3.1744850386150603e-06,-0.03024197755278335,-3.918972320771097e-06,-0.11704584560187037
297,0.2856,606.073,202.319,-0.0785754,349.85,0.0790502,-0.0726031,0.157232,-0.0308065,-0.124871,0.325703,2.47094e-06,-3.88239e-06,0.247411,0.17026708437269567,0.38500396160523276,2.4709430528346843e-06,-0.030336815249739746,-3.88238246351591e-06,-0.11738924797183992
298,0.2866,606.394,202.102,0.0553918,350.089,-0.0223711,0.00898941,0.157719,-0.0309052,-0.125258,0.326713,1.11552e-06,-2.85303e-06,0.248186,0.17083714324085286,0.38640352226561325,1.115520622096966e-06,-0.030432516283150912,-2.8530259300607597e-06,-0.11773075224753526
299,0.2876,606.761,202.434,-0.0376681,350.27,0.0443982,-0.0424101,0.158204,-0.0310006,-0.125647,0.327721,2.09497e-06,-3.60473e-06,0.248961,0.17140513698267323,0.38780172159012816,2.094972194388589e-06,-0.030525008609143423,-3.6047235029146307e-06,-0.11807388824063336
300,0.2886,607.062,202.203,0.073527,350.505,-0.0607148,0.0274156,0.15869,-0.0310993,-0.126034,0.32873,5.75686e-07,-2.67394e-06,0.249735,0.1719745782422646,0.3892027202121566,5.756861656269763e-07,-0.03062069106878662,-2.6739364250571995e-06,-0.11841512761180695
301,0.2896,607.481,202.734,-0.0433612,350.669,0.0630574,-0.0505239,0.159175,-0.0311935,-0.126422,0.329736,2.33994e-06,-3.76777e-06,0.250509,0.17254312377385883,0.39060096134605793,2.3399427375725423e-06,-0.030712002298861507,-3.767762902007199e-06,-0.11875711619221863
302,0.2906,607.732,202.324,0.0902733,350.918,-0.0927765,0.0426347,0.15966,-0.031293,-0.126808,0.330744,7.67043e-08,-2.51395e-06,0.251282,0.17311194511691474,0.39200339382231597,7.670430290929175e-08,-0.030808441656695162,-2.513946840032588e-06,-0.11909721030298237
303,0.2916,608.208,203.091,-0.0643136,351.06,0.0990131,-0.068698,0.160143,-0.0313858,-0.127197,0.331748,2.81721e-06,-4.06116e-06,0.252054,0.17367869504549582,0.3934016670454148,2.8172139683313446e-06,-0.030898378460177178,-4.0611517535538155e-06,-0.1194398148472704
304,0.2926,608.39,202.401,0.11846,351.332,-0.137645,0.0657917,0.160628,-0.0314866,-0.127581,0.332755,-6.12105e-07,-2.24334e-06,0.252826,0.1742480672741975,0.3948055292501176,-6.121048126139783e-07,-0.03099605898044744,-2.243337483665009e-06,-0.11977788504473685
305,0.2936,608.942,203.509,-0.10013,351.443,0.153456,-0.0976564,0.16111,-0.0315775,-0.12797,0.333757,3.55851e-06,-4.50131e-06,0.253597,0.17481419126754583,0.3962038248195152,3.558516331603201e-06,-0.03108413743545968,-4.501299869064113e-06,-0.12012022485804386
306,0.2946,609.209,203.363,-0.0805788,351.661,0.0788851,-0.0730185,0.161594,-0.0316746,-0.128356,0.334761,2.82884e-06,-4.41521e-06,0.254367,0.17538293896195856,0.3976063173930946,2.8288440012680383e-06,-0.031178214598194476,-4.415200252960716e-06,-0.12045979291039832
307,0.2956,609.521,203.147,0.0523661,351.894,-0.0215357,0.00776351,0.162077,-0.0317726,-0.12874,0.335764,1.4879e-06,-3.40046e-06,0.255138,0.1759507860455085,0.3990088197668029,1.4879011069890424e-06,-0.03127315448103363,-3.4004542184273845e-06,-0.1207974715114799
308,0.2966,609.878,203.467,-0.0365093,352.07,0.042823,-0.0414598,0.162559,-0.0318674,-0.129127,0.336765,2.43161e-06,-4.1207e-06,0.255907,0.17651773094712753,0.4004099287334344,2.4316129563217714e-06,-0.03136498543313293,-4.120691509901242e-06,-0.12113765705985557
309,0.2976,610.171,203.245,0.0707801,352.299,-0.0587116,0.0258877,0.163041,-0.0319654,-0.12951,0.337767,9.64067e-07,-3.2265e-06,0.256676,0.1770849491820572,0.40181384272547405,9.640674647481973e-07,-0.031459907013327126,-3.2264947948945633e-06,-0.12147419688571115
310,0.2986,610.577,203.755,-0.0411162,352.458,0.059715,-0.0486311,0.163522,-0.0320591,-0.129897,0.338766,2.65023e-06,-4.27049e-06,0.257444,0.17765126323022362,0.4032149544931589,2.6502335117584153e-06,-0.0315506549684319,-4.270480881474192e-06,-0.12181412059203678
311,0.2996,610.823,203.368,0.0863709,352.699,-0.0884662,0.0400024,0.164004,-0.0321577,-0.130279,0.339767,4.97729e-07,-3.08211e-06,0.258212,0.17821902795940825,0.4046202759086306,4.977291239161019e-07,-0.03164613936639382,-3.0821052503515745e-06,-0.12214952353193043
312,0.3006,611.281,204.094,-0.0603158,352.839,0.0926019,-0.0652389,0.164484,-0.0322501,-0.130665,0.340764,3.08245e-06,-4.5416e-06,0.258979,0.17878470884538022,0.4060213806583701,3.0824547507801725e-06,-0.03173561112945722,-4.541589686990477e-06,-0.1224883084261561
313,0.3016,611.465,203.452,0.112161,353.1,-0.129312,0.0611048,0.164965,-0.03235,-0.131047,0.341764,-1.33596e-07,-2.84025e-06,0.259746,0.17935184067460552,0.4074281052841142,-1.335959910475637e-07,-0.031832335910422116,-2.840245966528876e-06,-0.12282345387548099
314,0.3026,611.991,204.488,-0.092907,353.212,0.141778,-0.0914342,0.165445,-0.0324406,-0.131433,0.342759,3.74702e-06,-4.9427e-06,0.260511,0.1799180654412018,0.4088291931745047,3.747027019995741e-06,-0.03192004792737435,-4.942687784836863e-06,-0.123161978682794
315,0.3036,612.252,204.351,-0.0743404,353.424,0.0706457,-0.068087,0.165924,-0.032537,-0.131817,0.343756,3.03379e-06,-4.85678e-06,0.261276,0.18048338157695376,0.41023449630730435,3.0337946019809436e-06,-0.03201336633673457,-4.856768205829809e-06,-0.12349861984374022
316,0.3046,612.562,204.168,0.0487598,353.647,-0.0189334,0.0057829,0.166404,-0.0326342,-0.132199,0.344752,1.83826e-06,-3.93288e-06,0.262041,0.18105014961355748,0.4116397895855062,1.8382616895351589e-06,-0.03210745006498328,-3.932872266187992e-06,-0.12383337942780859
317,0.3056,612.903,204.455,-0.0317304,353.821,0.0364378,-0.0378293,0.166883,-0.0327285,-0.132582,0.345747,2.64813e-06,-4.57296e-06,0.262805,0.181616008147522,0.41304507018730474,2.64813350625559e-06,-0.03219871802909002,-4.5729495440349766e-06,-0.12416888698968831
318,0.3066,613.196,204.275,0.0645485,354.04,-0.0517683,0.0216738,0.167362,-0.0328255,-0.132963,0.346741,1.37143e-06,-3.78751e-06,0.263569,0.18218213779265024,0.4144503352881215,1.3714309403667357e-06,-0.032292590200567295,-3.787502827368172e-06,-0.12450251508355759
319,0.3076,613.581,204.725,-0.0343653,354.199,0.0501518,-0.0433087,0.16784,-0.0329189,-0.133347,0.347734,2.81869e-06,-4.69851e-06,0.264332,0.1827473559308883,0.4158555820606149,2.8186939724506033e-06,-0.03238296985184719,-4.698498962008024e-06,-0.12483864157734836
320,0.3086,613.833,204.408,0.0771085,354.428,-0.0767439,0.0333107,0.168318,-0.0330165,-0.133727,0.348728,9.72869e-07,-3.67695e-06,0.265095,0.18331284430797834,0.4172636421991376,9.728694732036303e-07,-0.03247740466549576,-3.6769432399941238e-06,-0.1251711397149018
321,0.3096,614.262,205.039,-0.0498294,354.571,0.0772866,-0.0568541,0.168795,-0.0331087,-0.13411,0.349718,3.16726e-06,-4.92705e-06,0.265856,0.18387741917511424,0.4186674279642142,3.1672650158132143e-06,-0.032566606136534615,-4.927037862145767e-06,-0.12550613501269647
322,0.3106,614.462,204.511,0.0980398,354.817,-0.1103,0.0505494,0.169273,-0.0332073,-0.13449,0.350711,4.4604e-07,-3.48812e-06,0.266618,0.1844434478515562,0.4200768643895534,4.4604009952209367e-07,-0.03266199036664974,-3.488113916483293e-06,-0.12583837955093136
323,0.3116,614.947,205.395,-0.0763281,354.936,0.117347,-0.0781285,0.169749,-0.0332981,-0.134873,0.3517,3.69993e-06,-5.25998e-06,0.267378,0.1850073771372558,0.4214820151409473,3.699936844681062e-06,-0.032749820670368246,-5.259966166293317e-06,-0.1261731193448009
324,0.3126,615.077,204.563,0.131211,355.207,-0.158602,0.0763415,0.170226,-0.0333982,-0.135251,0.352691,-2.93637e-07,-3.18338e-06,0.268139,0.18557276048935978,0.42289140205382303,-2.936369568606878e-07,-0.03284663756755257,-3.1833749331022787e-06,-0.12650336348561375
325,0.3136,615.423,204.854,0.0644116,355.376,-0.10358,0.0337892,0.170702,-0.0334923,-0.135632,0.35368,1.11458e-07,-3.61642e-06,0.268898,0.18613722745583283,0.4242993377598998,1.1145800615786072e-07,-0.03293764241711217,-3.6164134608052123e-06,-0.12683610231335396
326,0.3146,615.855,205.371,0.0115293,355.53,0.0142188,-0.0176503,0.171178,-0.0335851,-0.136013,0.354667,1.66723e-06,-4.27973e-06,0.269657,0.1867019631725393,0.4257058151887012,1.6672313898347113e-06,-0.033027381639931574,-4.279720841937618e-06,-0.12716871439174815
327,0.3156,616.105,205.204,0.0479395,355.739,-0.0640057,0.0193298,0.171653,-0.0336813,-0.136392,0.355655,4.78176e-07,-3.78514e-06,0.270415,0.1872657805010609,0.42711510861041857,4.781761142602647e-07,-0.033120399931566236,-3.7851328363869285e-06,-0.12749945476973312
328,0.3166,616.523,205.707,-0.0171774,355.891,0.0502006,-0.0373055,0.172128,-0.0337739,-0.136772,0.356641,2.08848e-06,-4.56754e-06,0.271173,0.18782986570642923,0.4285229380533666,2.088482180973017e-06,-0.033209928837280245,-4.567529568788586e-06,-0.12783094199035971
329,0.3176,616.739,205.365,0.0647352,356.115,-0.0800639,0.030021,0.172603,-0.0338709,-0.13715,0.357627,1.86367e-07,-3.67643e-06,0.271931,0.188394218915916,0.42993215630071346,1.8636701737406725e-07,-0.033303702926066214,-3.6764232419495e-06,-0.12816055959263584
330,0.3186,617.181,206.017,-0.0405427,356.252,0.0786442,-0.0539595,0.173077,-0.0339624,-0.137531,0.358611,2.448e-06,-4.83519e-06,0.272687,0.18895765129860775,0.43133990203982875,2.4480029963136474e-06,-0.033392151590660335,-4.835178310513832e-06,-0.12849266714892404
331,0.3196,617.357,205.472,0.0901657,356.492,-0.111318,0.0481024,0.173551,-0.0340604,-0.137908,0.359597,-3.08866e-07,-3.47514e-06,0.273443,0.18952135081155363,0.4327518991834369,-3.0886595225876334e-07,-0.03348687451830523,-3.475133961705623e-06,-0.12882116348795836
332,0.3206,617.844,206.36,-0.0705982,356.607,0.117218,-0.0759832,0.174024,-0.0341505,-0.138288,0.360579,2.95838e-06,-5.17768e-06,0.274199,0.19008412749668113,0.4341595525931399,2.9583843759173334e-06,-0.033573953427947334,-5.177666595801433e-06,-0.12915214855468737
333,0.3216,617.959,205.528,0.125422,356.873,-0.157258,0.0738871,0.174498,-0.0342499,-0.138664,0.361564,-1.01397e-06,-3.17104e-06,0.274954,0.1906483610859111,0.4355728957096572,-1.013969485930133e-06,-0.033670011402816113,-3.171034972271336e-06,-0.12947952579605249
334,0.3226,618.301,205.822,0.0621458,357.037,-0.101037,0.0322869,0.174971,-0.0343434,-0.139042,0.362546,-5.82e-07,-3.59646e-06,0.275708,0.19121167097299052,0.4369833206985714,-5.819998306622054e-07,-0.0337603590329324,-3.596453532761501e-06,-0.12980852035141333
335,0.3236,618.72,206.32,0.0113957,357.186,0.0123466,-0.0170492,0.175443,-0.0344356,-0.13942,0.363526,9.13543e-07,-4.2311e-06,0.276462,0.1917740555940195,0.4383922546177148,9.135434173579426e-07,-0.03384944222103148,-4.231091048856328e-06,-0.13013739057033324
336,0.3246,618.966,206.168,0.0461122,357.389,-0.0609715,0.0177999,0.175915,-0.0345311,-0.139797,0.364508,-2.0331e-07,-3.76754e-06,0.277215,0.19233670572324457,0.4398054495769095,-2.033099792964066e-07,-0.033941705193672345,-3.767532902876347e-06,-0.1304652669655043
337,0.3256,619.369,206.644,-0.0156103,357.538,0.0463397,-0.035523,0.176387,-0.0346231,-0.140175,0.365487,1.30805e-06,-4.50305e-06,0.277968,0.19289962148601525,0.44121570932155274,1.3080508554086379e-06,-0.03403057846856117,-4.503039861325497e-06,-0.13079388898111743
338,0.3266,619.585,206.33,0.0614157,357.754,-0.0749601,0.0273504,0.176859,-0.0347193,-0.14055,0.366467,-4.64335e-07,-3.67493e-06,0.27872,0.1934628030077401,0.44262879301460356,-4.643348922028778e-07,-0.03412350025730282,-3.674923247487527e-06,-0.13111978016433368
339,0.3276,620.009,206.938,-0.0369334,357.89,0.0719747,-0.0506048,0.177329,-0.0348105,-0.140928,0.367444,1.62772e-06,-4.74893e-06,0.279472,0.19402386236377422,0.4440389300851699,1.627721324837239e-06,-0.03421158417739156,-4.7489187238181074e-06,-0.1314481548207116
340,0.3286,620.189,206.444,0.0843216,358.122,-0.102711,0.0435071,0.1778,-0.0349075,-0.141302,0.368423,-9.08581e-07,-3.50035e-06,0.280223,0.19458638006546725,0.4454533364366635,-9.085805872111052e-07,-0.034305261110321617,-3.5003438737524206e-06,-0.13177293247360178
341,0.3296,620.652,207.261,-0.0638368,358.238,0.106093,-0.0701649,0.17827,-0.0349974,-0.14168,0.369399,2.07442e-06,-5.05728e-06,0.280973,0.19514796762683706,0.4468647875691354,2.0744221516100225e-06,-0.03439207316508752,-5.057267212005279e-06,-0.1321010602850634
342,0.3306,620.779,206.513,0.115593,358.491,-0.143058,0.0662465,0.178741,-0.0350957,-0.142053,0.370376,-1.53263e-06,-3.23825e-06,0.281723,0.19571101490681486,0.44827906522872984,-1.5326288255179676e-06,-0.0344869877591667,-3.2382447568979345e-06,-0.1324247262221272
343,0.3316,621.302,207.63,-0.100479,358.579,0.154281,-0.0973808,0.17921,-0.0351837,-0.142432,0.37135,2.7239e-06,-5.46912e-06,0.282472,0.19627193489826245,0.4496903762351496,2.7239037099224817e-06,-0.03457194916588713,-5.469105044397793e-06,-0.13275347494907008
344,0.3326,621.527,207.451,-0.07606,358.778,0.0735481,-0.0690203,0.179679,-0.0352783,-0.142806,0.372325,1.88381e-06,-5.32082e-06,0.283221,0.19683311802288594,0.4511045136319336,1.8838117743502636e-06,-0.03466327433974714,-5.320805844477583e-06,-0.13307776450351239
345,0.3336,621.807,207.258,0.0445161,358.985,-0.0162035,0.00373577,0.180148,-0.0353733,-0.14318,0.3733,6.91202e-07,-4.41947e-06,0.28397,0.19739456440412373,0.4525200304850552,6.912022387783878e-07,-0.03475497697274088,-4.419460234106332e-06,-0.13340193279633872
346,0.3346,622.119,207.518,-0.0301914,359.144,0.0337613,-0.036275,0.180617,-0.0354657,-0.143555,0.374273,1.4234e-06,-5.00626e-06,0.284717,0.19795627416547212,0.4539340202691917,1.4234010130564911e-06,-0.034844161492480374,-5.006247468686276e-06,-0.13372684614647934
347,0.3356,622.388,207.353,0.059214,359.345,-0.0474354,0.0186091,0.181085,-0.0355606,-0.143928,0.375246,2.49051e-07,-4.29015e-06,0.285464,0.19851704891283717,0.45534938653493806,2.490510309094418e-07,-0.03493575043559061,-4.290140797280628e-06,-0.13404990577849984
348,0.3366,622.739,207.756,-0.0304948,359.492,0.0435045,-0.039712,0.181553,-0.0356521,-0.144303,0.376217,1.53747e-06,-5.10342e-06,0.286211,0.19907808616420497,0.45676321709291456,1.5374711819227116e-06,-0.03502404977466933,-5.103406977569058e-06,-0.13437457618432702
349,0.3376,622.975,207.484,0.0689757,359.701,-0.0677222,0.0278482,0.182021,-0.0357473,-0.144676,0.377189,-8.15177e-08,-4.2134e-06,0.286957,0.19963938604245657,0.4581798793262375,-8.15176967039477e-08,-0.03511591111246182,-4.213391123664145e-06,-0.1346973942580968
350,0.3386,623.361,208.03,-0.042133,359.835,0.0643548,-0.0499829,0.182488,-0.0358379,-0.14505,0.378159,1.79588e-06,-5.2859e-06,0.287702,0.20019974847018118,0.459595000031769,1.7958816125318577e-06,-0.035203325650976613,-5.28588602966007e-06,-0.13502095692265437
351,0.3396,623.557,207.597,0.0848339,360.056,-0.0932033,0.0408823,0.182955,-0.0359339,-0.145422,0.379129,-4.91583e-07,-4.08317e-06,0.288448,0.20076037264827362,0.4610114940703436,-4.915828791807186e-07,-0.03529594168607331,-4.083161663892554e-06,-0.13534266928446992
352,0.3406,623.984,208.332,-0.0619777,360.173,0.0940174,-0.0657353,0.183421,-0.0360234,-0.145796,0.380097,2.17918e-06,-5.54155e-06,0.289192,0.20132005737834158,0.46242643791894,2.179182374328903e-06,-0.03538227883564726,-5.541534645603363e-06,-0.13566599066129126
353,0.3416,624.13,207.677,0.109253,360.412,-0.128243,0.059664,0.183887,-0.0361205,-0.146167,0.381067,-1.03969e-06,-3.8756e-06,0.289936,0.2018800029822725,0.4638456797847459,-1.0396894595254835e-06,-0.035475938669113916,-3.8755924898215e-06,-0.13598659910221278
354,0.3426,624.612,208.672,-0.0914448,360.505,0.135287,-0.0883336,0.184353,-0.0362084,-0.146541,0.382032,2.72902e-06,-5.88934e-06,0.290678,0.2024402095816622,0.4652589726698808,2.7290237236687886e-06,-0.03556071660805982,-5.889322657881557e-06,-0.13630967969431185
355,0.3436,624.837,208.516,-0.067539,360.696,0.0618377,-0.0622182,0.184818,-0.0363021,-0.146913,0.383,1.94647e-06,-5.74796e-06,0.291421,0.20299947429808696,0.4666780300683986,1.946471894331836e-06,-0.03565108033530695,-5.7479434805163265e-06,-0.1366309127404145
356,0.3446,625.116,208.369,0.0400368,360.894,-0.0135755,0.0014559,0.185283,-0.0363962,-0.147284,0.383966,9.44444e-07,-4.9638e-06,0.292164,0.20355899913307796,0.46809552558555056,9.444444459827395e-07,-0.0357418212992181,-4.963787680334342e-06,-0.13695116326164292
357,0.3456,625.414,208.592,-0.024203,361.051,0.0262187,-0.0318949,0.185748,-0.036488,-0.147656,0.384931,1.52483e-06,-5.4566e-06,0.292905,0.20411878420761798,0.4695129215513014,1.524831162447171e-06,-0.035830336137129604,-5.4565851127508225e-06,-0.13727215772023849
358,0.3466,625.683,208.475,0.0519594,361.242,-0.0397358,0.0138548,0.186213,-0.0365818,-0.148026,0.385896,5.67859e-07,-4.86493e-06,0.293646,0.20467882964274686,0.47093168596432844,5.67859161249018e-07,-0.03592077101013802,-4.864918166203047e-06,-0.13759130797544383
359,0.3476,626.013,208.815,-0.0228308,361.389,0.0332586,-0.0338869,0.186677,-0.0366729,-0.148398,0.38686,1.59733e-06,-5.53293e-06,0.294387,0.20523793032102744,0.4723503477947373,1.5973312756933922e-06,-0.03600859462747252,-5.532914693406887e-06,-0.13791206434449343
360,0.3486,626.255,208.615,0.0589297,361.586,-0.0555885,0.0208199,0.18714,-0.036767,-0.148767,0.387823,2.99981e-07,-4.81851e-06,0.295127,0.20579608468553046,0.4737689041048998,2.999810448933715e-07,-0.03609930195087163,-4.81849839095716e-06,-0.13823011610859093
361,0.3496,626.613,209.065,-0.0311527,361.723,0.049117,-0.0414964,0.187604,-0.0368573,-0.149139,0.388785,1.78334e-06,-5.67884e-06,0.295866,0.20635570389043978,0.47518735195467343,1.7833415901780114e-06,-0.03618633825415718,-5.678823875365779e-06,-0.1385506348852099
362,0.3506,626.823,208.743,0.0705731,361.929,-0.0749077,0.0305658,0.188067,-0.0369519,-0.149507,0.389748,-2.18188e-08,-4.73258e-06,0.296605,0.20691437590393202,0.4766086416157391,-2.1818799766926134e-08,-0.03627751071403307,-4.732568801402159e-06,-0.1388675899282672
363,0.3516,627.212,209.336,-0.0458511,362.052,0.0713637,-0.0532165,0.188529,-0.0370414,-0.149879,0.390708,2.05963e-06,-5.87938e-06,0.297343,0.20747209916975384,0.47802686655073945,2.0596321210764046e-06,-0.03636376001711017,-5.879362716454395e-06,-0.13918787160872792
364,0.3526,627.385,208.848,0.088615,362.272,-0.100994,0.0444983,0.188992,-0.0371368,-0.150246,0.391669,-4.41379e-07,-4.5904e-06,0.298081,0.20803128819393923,0.4794479330825978,-4.413789025381476e-07,-0.0364556865294402,-4.590389464098621e-06,-0.13950373169597619
365,0.3536,627.814,209.633,-0.0676374,362.378,0.101817,-0.0698603,0.189454,-0.0372251,-0.150618,0.392628,2.45366e-06,-6.14594e-06,0.298818,0.20858952759245653,0.48086740417802587,2.4536630103266788e-06,-0.03654076373610571,-6.145921113698272e-06,-0.13982377677570978
366,0.3546,627.937,208.919,0.114627,362.616,-0.136578,0.0639521,0.189916,-0.0373216,-0.150984,0.393588,-9.97657e-07,-4.37457e-06,0.299556,0.20914802495716134,0.4822897194881519,-9.976565022995487e-07,-0.03663373306656281,-4.374560431563701e-06,-0.14013854366755485
367,0.3556,628.42,209.967,-0.0983407,362.698,0.143417,-0.0929612,0.190376,-0.0374083,-0.151355,0.394545,3.00781e-06,-6.49908e-06,0.300291,0.20970436099612066,0.4837089497430622,3.0078145234480047e-06,-0.03671725330125153,-6.499058881059838e-06,-0.1404574930990763
368,0.3566,628.631,209.789,-0.0698583,362.885,0.0646312,-0.0636302,0.190837,-0.0375012,-0.151724,0.395503,2.15938e-06,-6.32112e-06,0.301027,0.21026216327008518,0.4851310239817157,2.159382331390347e-06,-0.03680673811178603,-6.3211000217444635e-06,-0.1407746057732362
369,0.3576,628.898,209.632,0.0384433,363.077,-0.0128232,0.000810715,0.191298,-0.0375944,-0.152091,0.39646,1.13185e-06,-5.53067e-06,0.301762,0.21082022275017964,0.4865529746665447,1.1318506405455508e-06,-0.036896503540659986,-5.530654705876437e-06,-0.14108988363589092
370,0.3586,629.185,209.848,-0.0243238,363.228,0.0260574,-0.0317749,0.191759,-0.0376854,-0.152459,0.397416,1.69989e-06,-6.01199e-06,0.302497,0.2113785395550032,0.48797479883398975,1.699891444717494e-06,-0.03698414197122879,-6.011971928066018e-06,-0.14140590440732448
371,0.3596,629.444,209.73,0.0505804,363.413,-0.0391358,0.0132645,0.192219,-0.0377783,-0.152826,0.398372,7.54143e-07,-5.43218e-06,0.303231,0.21193590186670197,0.48939798291527437,7.541432842650408e-07,-0.03707360198895748,-5.432165245733422e-06,-0.14172095062588985
372,0.3606,629.763,210.06,-0.0223014,363.555,0.0319842,-0.0332029,0.192678,-0.0378685,-0.153194,0.399326,1.75655e-06,-6.08053e-06,0.303964,0.21249230813112785,0.4908195465690228,1.7565515426642975e-06,-0.03716045403297197,-6.08051151362865e-06,-0.14203673920739668
373,0.3616,629.997,209.867,0.0569735,363.745,-0.0539354,0.0197076,0.193138,-0.0379617,-0.15356,0.40028,5.01193e-07,-5.39297e-06,0.304697,0.2130501828942264,0.4922424670415966,5.01193125668209e-07,-0.03725018649705836,-5.3929554579834615e-06,-0.14235069630319352
374,0.3626,630.341,210.299,-0.0297456,363.877,0.0463531,-0.0400498,0.193596,-0.0380513,-0.153928,0.401233,1.9209e-06,-6.21554e-06,0.305429,0.21360588712454676,0.4936652519620195,1.920901844920664e-06,-0.037336445015908826,-6.215520683583442e-06,-0.1426662531809273
375,0.3636,630.547,209.995,0.0674708,364.076,-0.0713902,0.0284914,0.194055,-0.0381449,-0.154293,0.402186,2.05887e-07,-5.32016e-06,0.306162,0.2141630600881499,0.49508939344277003,2.0588702120960534e-07,-0.03742654610785845,-5.320145847975688e-06,-0.14297912289631975
376,0.3646,630.919,210.554,-0.0429239,364.196,0.0662233,-0.0505152,0.194513,-0.0382337,-0.154661,0.403138,2.16274e-06,-6.39837e-06,0.306893,0.21471927413296377,0.49651339626312185,2.162742338773782e-06,-0.0375120188355188,-6.398349530423175e-06,-0.14329444855561402
377,0.3656,631.091,210.103,0.0835352,364.407,-0.0944902,0.0408428,0.194971,-0.038328,-0.155025,0.40409,-1.71039e-07,-5.19952e-06,0.307624,0.2152757429821559,0.49793875537965304,-1.7103898541925844e-07,-0.03760277717281979,-5.1995064824783555e-06,-0.14360623262819605
378,0.3666,631.498,210.832,-0.0621906,364.511,0.092935,-0.0651406,0.195429,-0.0384157,-0.155393,0.405039,2.5027e-06,-6.63676e-06,0.308354,0.21583246675245338,0.4993609739945035,2.5027031318458626e-06,-0.0376871757083318,-6.636737976739582e-06,-0.14392132755356668
379,0.3676,631.627,210.184,0.106329,364.738,-0.125424,0.0577979,0.195886,-0.0385109,-0.155756,0.40599,-6.60734e-07,-5.0177e-06,0.309084,0.21638822917179956,0.5007875445075352,-6.60733781687739e-07,-0.03777878352860298,-5.017687411346117e-06,-0.1442320277161735
380,0.3686,632.081,211.14,-0.0888956,364.822,0.128764,-0.0850866,0.196343,-0.0385972,-0.156124,0.406938,2.97365e-06,-6.94619e-06,0.309813,0.21694424563261538,0.5022109656947682,2.9736544213676552e-06,-0.03786181963652491,-6.946165875265642e-06,-0.14454689239132035
381,0.3696,632.153,210.229,0.13765,365.071,-0.166853,0.0807305,0.1968,-0.0386938,-0.156486,0.407888,-1.30158e-06,-4.75672e-06,0.310542,0.2175005162510244,0.5036387441995871,-1.301579152901411e-06,-0.037954757695767394,-4.756708686826094e-06,-0.14485651037203906
382,0.3706,632.462,210.548,0.0641791,365.209,-0.0988087,0.0326438,0.197256,-0.0387838,-0.156851,0.408836,-6.91886e-07,-5.26215e-06,0.31127,0.21805582308677107,0.5050648696057256,-6.9188576068413e-07,-0.03804133787140851,-5.262136154926544e-06,-0.1451685807894374
383,0.3716,632.83,210.999,0.0126303,365.339,0.00517441,-0.0139852,0.197712,-0.0388729,-0.157216,0.409782,6.7218e-07,-5.84895e-06,0.311997,0.2186113832001777,0.5064893346381014,6.721802259246346e-07,-0.038127044569914004,-5.8489328949029584e-06,-0.1454805373219188
384,0.3726,633.052,210.888,0.0410268,365.514,-0.052821,0.0137763,0.198168,-0.0389648,-0.157579,0.410729,-2.23145e-07,-5.4871e-06,0.312725,0.21916719670676543,0.5079166557678891,-2.2314497505337982e-07,-0.03821543663284055,-5.48708494585437e-06,-0.14579067159409498
385,0.3736,633.397,211.278,-0.011457,365.647,0.0338923,-0.0299106,0.198623,-0.039054,-0.157944,0.411674,9.91999e-07,-6.08258e-06,0.313451,0.21972204399945383,0.5093423105233663,9.919994921059327e-07,-0.03830122398971991,-6.0825615011417256e-06,-0.1461024011048666
386,0.3746,633.599,211.05,0.0505995,365.833,-0.0595024,0.0191499,0.199078,-0.0391464,-0.158307,0.412619,-3.78932e-07,-5.45108e-06,0.314177,0.22027714380510277,0.5107693131593607,-3.7893192816884635e-07,-0.038390080851372965,-5.451065142936251e-06,-0.1464123096814558
387,0.3756,633.954,211.516,-0.0262534,365.958,0.0504374,-0.0399438,0.199532,-0.039235,-0.158671,0.413563,1.18047e-06,-6.25743e-06,0.314903,0.22083127540674585,0.5121961527533125,1.1804706967488698e-06,-0.038475275716021384,-6.257410422372267e-06,-0.14672295905911503
388,0.3766,634.134,211.177,0.0651066,366.153,-0.0758005,0.0289696,0.199987,-0.0393279,-0.159033,0.414508,-6.58968e-07,-5.36301e-06,0.315628,0.22138688002752183,0.5136258535448919,-6.589677828960916e-07,-0.03856459721385952,-5.3629956190404116e-06,-0.14703178944626305
389,0.3776,634.51,211.764,-0.0428353,366.266,0.0702185,-0.0515457,0.20044,-0.0394157,-0.159397,0.41545,1.42036e-06,-6.455e-06,0.316352,0.2219402936228898,0.5150523608783992,1.4203610088081575e-06,-0.038649007536556756,-6.454979166514718e-06,-0.14734221337432218
390,0.3786,634.662,211.282,0.0834618,366.473,-0.0983158,0.0419269,0.200895,-0.0395092,-0.159758,0.416393,-1.02707e-06,-5.23431e-06,0.317076,0.22249640296176887,0.5164817290959001,-1.0270694725811325e-06,-0.03873888965229766,-5.234296301059871e-06,-0.14764996728237145
391,0.3796,635.068,212.032,-0.0636549,366.57,0.0962543,-0.0664913,0.201347,-0.039596,-0.160122,0.417333,1.75079e-06,-6.69705e-06,0.317799,0.22304909623517766,0.517907892112855,1.750791532639795e-06,-0.03882232349559467,-6.69702757483126e-06,-0.14796016623464636
392,0.3806,635.182,211.361,0.107115,366.793,-0.128225,0.0588534,0.201801,-0.0396904,-0.160482,0.418275,-1.50156e-06,-5.05343e-06,0.318523,0.22360448658893906,0.5193384350271537,-1.5015588726852158e-06,-0.03891305438569126,-5.053417231448698e-06,-0.1482668453692455
393,0.3816,635.63,212.329,-0.0905692,366.87,0.130661,-0.0860625,0.202253,-0.0397758,-0.160846,0.419214,2.20168e-06,-7.00049e-06,0.319245,0.22415768082935728,0.520765763843648,2.2016824237081067e-06,-0.03899512770626612,-7.000465496620478e-06,-0.1485768198187587
394,0.3826,635.692,211.406,0.138008,367.115,-0.167689,0.0810298,0.202706,-0.0398716,-0.161204,0.420155,-2.11374e-06,-4.80347e-06,0.319967,0.2247123498818282,0.5221974779432625,-2.1137377660407353e-06,-0.03908718756329432,-4.803458463320531e-06,-0.14888157476287378
395,0.3836,635.994,211.731,0.0635995,367.247,-0.0972586,0.0320519,0.203158,-0.0399607,-0.161566,0.421094,-1.4637e-06,-5.32119e-06,0.320688,0.2252660449896422,0.5236274926618889,-1.4636989288385749e-06,-0.0391728010807435,-5.3211758425097955e-06,-0.14918962387255674
396,0.3846,636.349,212.166,0.0129573,367.372,0.00335863,-0.013227,0.203609,-0.040049,-0.161928,0.422031,-1.45302e-07,-5.88803e-06,0.321409,0.22581876460483707,0.5250558006803188,-1.4530198944040507e-07,-0.03925763837678642,-5.8880126655447285e-06,-0.14949756148864357
397,0.3856,636.566,212.068,0.039386,367.542,-0.0503548,0.0125139,0.204061,-0.04014,-0.162288,0.422969,-9.78243e-07,-5.55477e-06,0.322129,0.2263729599251456,0.5264869741367739,-9.782425215432156e-07,-0.039345061953861005,-5.554754572312248e-06,-0.1498036872605626
398,0.3866,636.897,212.435,-0.0101356,367.671,0.0306686,-0.0284015,0.204511,-0.0402284,-0.162649,0.423906,1.55786e-07,-6.11108e-06,0.322849,0.2269249519460017,0.5279179627450061,1.5578601209043086e-07,-0.03942998009694709,-6.1110613274184544e-06,-0.15011055273691043
399,0.3876,637.096,212.228,0.0476383,367.85,-0.0554383,0.0169557,0.204962,-0.0403199,-0.163008,0.424842,-1.11025e-06,-5.53131e-06,0.323569,0.22747841989697104,0.529348763468414,-1.1102493836512295e-06,-0.03951786823282466,-5.531294702376677e-06,-0.15041560828773015
400,0.3886,637.435,212.659,-0.0233918,367.972,0.0452016,-0.0372907,0.205412,-0.0404078,-0.163369,0.425777,3.15921e-07,-6.27012e-06,0.324287,0.22803090948675897,0.5307793732681154,3.159210499870113e-07,-0.03960229090177636,-6.270100342820051e-06,-0.1507222529004555
401,0.3896,637.616,212.358,0.0602723,368.158,-0.069308,0.0254069,0.205863,-0.0404996,-0.163728,0.426713,-1.35491e-06,-5.4617e-06,0.325006,0.22858487633707258,0.5322128535255994,-1.3549090821518561e-06,-0.03969045136484439,-5.4616850849731335e-06,-0.15102708889033012
402,0.3906,637.971,212.892,-0.0377401,368.271,0.062026,-0.0472249,0.206312,-0.0405868,-0.164089,0.427646,5.13807e-07,-6.44481e-06,0.325723,0.2291366348070547,0.5336430752126065,5.138071319521487e-07,-0.0397741867065714,-6.444789232284975e-06,-0.15133351279839757
403,0.3916,638.129,212.469,0.0759321,368.467,-0.0882543,0.0363765,0.206762,-0.0406792,-0.164446,0.42858,-1.67126e-06,-5.35977e-06,0.326441,0.22968987076147185,0.5350761669945365,-1.6712586033973409e-06,-0.039862907472757225,-5.359755636424879e-06,-0.151636432659916
404,0.3926,638.509,213.14,-0.0553522,368.566,0.0837582,-0.0597564,0.20721,-0.0407655,-0.164807,0.429512,7.82895e-07,-6.65389e-06,0.327157,0.23024089524384106,0.536507524891346,7.828953063615529e-07,-0.039945763728543415,-6.653867862915774e-06,-0.15194263663458296
405,0.3936,638.635,212.56,0.0957095,368.776,-0.113003,0.0504449,0.20766,-0.0408587,-0.165163,0.430445,-2.07111e-06,-5.21729e-06,0.327874,0.2307946282272777,0.5379417553765509,-2.071107855217136e-06,-0.04003523661386266,-5.217276389912762e-06,-0.15224449132261852
406,0.3946,639.049,213.409,-0.0776833,368.859,0.111977,-0.0758616,0.208108,-0.0409438,-0.165524,0.431376,1.14541e-06,-6.91016e-06,0.328589,0.2313461477518728,0.539374245871663,1.145410655878365e-06,-0.0401169261392883,-6.910136124860244e-06,-0.15255047582772496
407,0.3956,639.133,212.625,0.121057,369.086,-0.145097,0.0685504,0.208556,-0.041038,-0.16588,0.432308,-2.57681e-06,-5.02192e-06,0.329305,0.23189791441256902,0.5408096114452734,-2.576806680032462e-06,-0.04020734286615124,-5.021907390156954e-06,-0.15285211416352074
408,0.3966,639.593,213.706,-0.106292,369.147,0.148515,-0.0966412,0.209003,-0.0411218,-0.16624,0.433236,1.62762e-06,-7.22821e-06,0.330019,0.23244869587079653,0.5422401464302649,1.6276213246069204e-06,-0.04028777012087004,-7.2281838765508866e-06,-0.15315703251382573
409,0.3976,639.773,213.496,-0.068532,369.32,0.0625897,-0.0618242,0.209451,-0.0412122,-0.166597,0.434166,6.66695e-07,-6.97566e-06,0.330733,0.23300095658370945,0.5436750969149962,6.666952221401345e-07,-0.04037452418510834,-6.975635670092295e-06,-0.15345930149499487
410,0.3986,640.013,213.348,0.0317793,369.493,-0.00901766,-0.00230621,0.209898,-0.0413026,-0.166954,0.435095,-2.79342e-07,-6.25608e-06,0.331447,0.23355223121200264,0.5451098374138053,-2.793419610069847e-07,-0.040461270407133654,-6.256060430809285e-06,-0.15376146258539725
411,0.3996,640.268,213.525,-0.020381,369.631,0.0206496,-0.0285339,0.210345,-0.0413911,-0.167311,0.436023,1.55154e-07,-6.64729e-06,0.33216,0.23410375231513791,0.5465443648607113,1.5515401208254787e-07,-0.04054618582713987,-6.647267906778609e-06,-0.15406351582354327
412,0.4006,640.505,213.437,0.0425641,369.796,-0.03246,0.00869012,0.210792,-0.0414811,-0.167668,0.436951,-6.17292e-07,-6.17744e-06,0.332873,0.23465552000331358,0.5479802241669753,-6.1729180944603e-07,-0.0406325327847441,-6.177420919684096e-06,-0.15436546124792916
413,0.4016,640.787,213.705,-0.0161074,369.927,0.0228012,-0.0280145,0.211238,-0.041569,-0.168025,0.437877,1.57677e-07,-6.68871e-06,0.333585,0.23520629917986158,0.549414317737402,1.5767701233571074e-07,-0.04071685747898768,-6.6886876306515575e-06,-0.15466729889703756
414,0.4026,641.006,213.572,0.0461989,370.094,-0.0426555,0.0128122,0.211684,-0.0416591,-0.16838,0.438804,-8.03704e-07,-6.16921e-06,0.334297,0.23575732405870986,0.5508512907440304,-8.037036770547346e-07,-0.04080328499651065,-6.169190970517491e-06,-0.1549673387457049
415,0.4036,641.305,213.905,-0.0199832,370.218,0.0315732,-0.0319308,0.212129,-0.0417465,-0.168737,0.439729,2.42322e-07,-6.78306e-06,0.335008,0.23630735844148942,0.5522864918661547,2.4232202933127667e-07,-0.040887115125971984,-6.783036995083869e-06,-0.15526896156289638
416,0.4046,641.505,213.705,0.0522034,370.391,-0.0533151,0.0180163,0.212574,-0.0418369,-0.169092,0.440654,-1.00067e-06,-6.14429e-06,0.335718,0.23685763764403767,0.5537230211635034,-1.0006694993736076e-06,-0.040973815011870696,-6.144271123886824e-06,-0.15556878785922512
417,0.4056,641.821,214.114,-0.0275616,370.508,0.0432369,-0.0379777,0.213019,-0.0419238,-0.169449,0.441578,3.67053e-07,-6.90509e-06,0.336428,0.23740816177532365,0.5551593247051048,3.6705306727391473e-07,-0.04105715076635519,-6.9050661599678875e-06,-0.15587019599740548
418,0.4066,642.002,213.828,0.0613315,370.687,-0.0665286,0.0250387,0.213464,-0.0420144,-0.169803,0.442502,-1.23471e-06,-6.09504e-06,0.337138,0.23795893094436504,0.5565969560045079,-1.2347092377407165e-06,-0.04114402705294051,-6.095021425234215e-06,-0.15616896506277778
419,0.4076,642.336,214.333,-0.0383928,370.795,0.0580641,-0.0460895,0.213908,-0.0421007,-0.170159,0.443424,5.37105e-07,-7.05436e-06,0.337847,0.23850870675090152,0.5580328002204118,5.371051441382946e-07,-0.04122677275287756,-7.0543351180507585e-06,-0.15646931544567522
420,0.4086,642.493,213.94,0.0738054,370.983,-0.0832353,0.034231,0.214352,-0.0421918,-0.170513,0.444347,-1.51906e-06,-6.0172e-06,0.338556,0.23905872671209472,0.5594715283659133,-1.5190588462665744e-06,-0.04131411301547039,-6.017181896633694e-06,-0.156767872460298
421,0.4096,642.852,214.564,-0.0527563,371.079,0.0768646,-0.0566041,0.214795,-0.0422773,-0.170869,0.445268,7.64312e-07,-7.23529e-06,0.339264,0.23960775132800172,0.5609084632504804,7.643122921230372e-07,-0.041396077154790656,-7.2352638254002954e-06,-0.15706800967010892
422,0.4106,642.98,214.035,0.0901271,371.279,-0.104395,0.0460382,0.215239,-0.0423691,-0.171221,0.44619,-1.86754e-06,-5.90511e-06,0.339972,0.2401582593733338,0.5623482845092,-1.8675382561506026e-06,-0.04148407295583878,-5.905092564817416e-06,-0.1573646695155092
423,0.4116,643.368,214.812,-0.0712737,371.361,0.100678,-0.0700503,0.215682,-0.0424536,-0.171577,0.447109,1.06367e-06,-7.45478e-06,0.340678,0.24070777119011666,0.5637847425340285,1.0636705656263956e-06,-0.04156506412974881,-7.454752213198468e-06,-0.15766459430338187
424,0.4126,643.461,214.111,0.111088,371.575,-0.131159,0.061058,0.216125,-0.0425462,-0.171929,0.44803,-2.29683e-06,-5.75105e-06,0.341386,0.2412575264945631,0.5652256517187286,-2.2968273623025226e-06,-0.04165381109576238,-5.751033462786381e-06,-0.15796104418794643
425,0.4136,643.886,215.08,-0.0948451,371.639,0.130785,-0.0871295,0.216567,-0.0426295,-0.172285,0.448947,1.45362e-06,-7.72207e-06,0.342091,0.24180628358765732,0.5666616219330738,1.4536210564131125e-06,-0.04173363800846108,-7.722040184843237e-06,-0.15826075670422224
426,0.4146,643.935,214.163,0.137767,371.871,-0.164943,0.0800558,0.217009,-0.0427231,-0.172635,0.449867,-2.82737e-06,-5.54518e-06,0.342797,0.24235528328499845,0.5681036138398208,-2.827366002988718e-06,-0.04182332754240781,-5.545164625475607e-06,-0.15855531388886146
427,0.4156,644.219,214.49,0.0607026,371.991,-0.0914842,0.0295587,0.217451,-0.0428101,-0.172989,0.450785,-2.11079e-06,-6.0875e-06,0.343502,0.2429045256938409,0.5695437938988333,-2.1107877722359447e-06,-0.041906685286797196,-6.08748147123972e-06,-0.15885313259072453
428,0.4166,644.544,214.884,0.0143246,372.108,-0.000879843,-0.011193,0.217892,-0.0428966,-0.173342,0.451701,-9.26886e-07,-6.59106e-06,0.344207,0.24345276746809774,0.5709821546827116,-9.268855704069878e-07,-0.04198955677427629,-6.591038279046835e-06,-0.15915000503385102
429,0.4176,644.75,214.815,0.0347629,372.262,-0.044076,0.0092208,0.218334,-0.0429854,-0.173695,0.452618,-1.60627e-06,-6.3321e-06,0.344911,0.24400249507216953,0.5724234060313047,-1.606268709930525e-06,-0.042074624324579646,-6.332079952264813e-06,-0.15944677269949936
430,0.4186,645.05,215.126,-0.00642558,372.384,0.0228216,-0.0245293,0.218774,-0.0430721,-0.174047,0.453533,-6.73439e-07,-6.78877e-06,0.345615,0.2445499766071062,0.5738628318847243,-6.734387731910374e-07,-0.04215767285444494,-6.7887469563654435e-06,-0.1597425953676651
431,0.4196,645.243,214.973,0.040252,372.546,-0.0459182,0.0117411,0.219215,-0.0431612,-0.174399,0.454448,-1.68999e-06,-6.33406e-06,0.346318,0.24509894418524403,0.5753035754155453,-1.6899885719734442e-06,-0.04224301280384235,-6.334039939881464e-06,-0.16003831392457635
432,0.4206,645.545,215.324,-0.0164017,372.664,0.0330889,-0.0310007,0.219655,-0.0432475,-0.174751,0.455362,-5.73739e-07,-6.9144e-06,0.34702,0.2456469082639423,0.5767440610851446,-5.737388354409845e-07,-0.04232566366540147,-6.914376095568109e-06,-0.16033392840687366
433,0.4216,645.727,215.107,0.0489974,372.831,-0.0548397,0.0173859,0.220095,-0.0433368,-0.175102,0.456277,-1.863e-06,-6.30155e-06,0.347723,0.24619511349988588,0.5781874421471707,-1.8629982646567456e-06,-0.04241118016526757,-6.301530145247369e-06,-0.16062859948020414
434,0.4226,646.039,215.522,-0.0261811,372.942,0.0439806,-0.0375731,0.220534,-0.0434226,-0.175454,0.457189,-4.60602e-07,-7.04296e-06,0.348424,0.24674231325627094,0.5796274056179447,-4.6060189395902285e-07,-0.042493337761398076,-7.042935198375844e-06,-0.16092400621855096
435,0.4236,646.205,215.229,0.0592563,373.115,-0.0667756,0.0244225,0.220974,-0.0435123,-0.175804,0.458102,-2.07819e-06,-6.2517e-06,0.349126,0.24729100057646192,0.5810702640039003,-2.078187840592882e-06,-0.04257922225702371,-6.251680458202458e-06,-0.16121763142896528
436,0.4246,646.532,215.729,-0.0374747,373.218,0.0574182,-0.0454252,0.221413,-0.0435975,-0.176156,0.459013,-3.10215e-07,-7.18827e-06,0.349826,0.24783868153288902,0.5825112752953907,-3.1021495183747305e-07,-0.042660791032408274,-7.1882441644577355e-06,-0.1615128308645536
437,0.4256,646.68,215.34,0.0715563,373.399,-0.081762,0.033042,0.221852,-0.0436875,-0.176506,0.459925,-2.33727e-06,-6.18141e-06,0.350527,0.2483866029740387,0.5839551839007038,-2.337267268615051e-06,-0.042746947684107806,-6.181390895143579e-06,-0.161806250022403
438,0.4266,647.026,215.947,-0.0511046,373.491,0.0741472,-0.0550593,0.222289,-0.043772,-0.176857,0.460835,-1.12279e-07,-7.35679e-06,0.351226,0.2489322671384746,0.5853972391536797,-1.1227899365806593e-07,-0.04282783214961172,-7.356762938837136e-06,-0.16210040440153162
439,0.4276,647.149,215.437,0.0865966,373.683,-0.100404,0.0436591,0.222728,-0.0438626,-0.177206,0.461746,-2.6491e-06,-6.08522e-06,0.351926,0.2494806687690989,0.5868421941156008,-2.6490964911696224e-06,-0.042914548019730714,-6.085201485039882e-06,-0.162392780337827
440,0.4286,647.52,216.177,-0.0677982,373.762,0.0949164,-0.0669527,0.223165,-0.0439463,-0.177558,0.462654,1.43925e-07,-7.55478e-06,0.352624,0.25002681114476877,0.5882837011730226,1.4392501035409566e-07,-0.0429946527196331,-7.55475146274609e-06,-0.16268756619379365
441,0.4296,647.613,215.519,0.105135,373.967,-0.123505,0.0567605,0.223603,-0.0440376,-0.177905,0.463564,-3.02526e-06,-5.95682e-06,0.353323,0.25057444281063,0.5897296971694825,-3.025255423949602e-06,-0.04308202331931121,-5.9568022582334734e-06,-0.16297806320417818
442,0.4306,648.016,216.423,-0.0883362,374.031,0.120623,-0.081648,0.22404,-0.0441202,-0.178257,0.464471,4.71293e-07,-7.78938e-06,0.35402,0.2511210632700096,0.5911722360973273,4.712931109818186e-07,-0.04316106147986398,-7.78934966283451e-06,-0.1632726430768311
443,0.4316,648.072,215.583,0.128031,374.251,-0.152043,0.0729152,0.224477,-0.0442124,-0.178603,0.46538,-3.47994e-06,-5.78891e-06,0.354718,0.25166792265473137,0.5926192692368637,-3.4799339450053424e-06,-0.043249277963153254,-5.788893244318416e-06,-0.16356210066327637
444,0.4326,648.513,216.69,-0.113611,374.296,0.152352,-0.099787,0.224913,-0.0442937,-0.178955,0.466285,8.85427e-07,-8.06902e-06,0.355414,0.2522137688548336,0.5940612420698121,8.854273920722022e-07,-0.043327058635027615,-8.068987445541964e-06,-0.1638564749909217
445,0.4336,648.671,216.454,-0.0673796,374.459,0.0606783,-0.0602236,0.225349,-0.044382,-0.179303,0.467191,-1.67946e-07,-7.75328e-06,0.356111,0.252759853095768,0.595506115984177,-1.6794598589608967e-07,-0.04341152912632307,-7.753249943398544e-06,-0.1641474023133347
446,0.4346,648.892,216.316,0.0263703,374.619,-0.00603222,-0.00475592,0.225785,-0.0444701,-0.179651,0.468097,-1.04669e-06,-7.09104e-06,0.356807,0.2533061754813435,0.5969522995474894,-1.0466894522220827e-06,-0.04349580085838278,-7.091014858628952e-06,-0.1644382284106537
447,0.4356,649.124,216.462,-0.017256,374.747,0.0164577,-0.0259585,0.226221,-0.0445565,-0.179999,0.469002,-7.16156e-07,-7.41201e-06,0.357502,0.25385273611541326,0.5983981955478348,-7.161557435964028e-07,-0.043578439251158674,-7.411982531069228e-06,-0.1647289533180989
448,0.4366,649.345,216.399,0.0364307,374.897,-0.0275438,0.00532096,0.226656,-0.0446441,-0.180347,0.469906,-1.35843e-06,-7.02438e-06,0.358197,0.25439828070296877,0.5998438008317506,-1.3584290773360763e-06,-0.04366221811031268,-7.02435532906609e-06,-0.16501957707087833
449,0.4376,649.599,216.621,-0.0115853,375.019,0.016214,-0.0242192,0.227091,-0.04473,-0.180695,0.47081,-7.48078e-07,-7.43629e-06,0.358891,0.25494406265404246,0.6012907135337071,-7.480777202140132e-07,-0.04374436399756054,-7.436262350890566e-06,-0.16531009970418742
450,0.4386,649.807,216.529,0.0384031,375.17,-0.0348916,0.00803211,0.227526,-0.0448177,-0.181042,0.471713,-1.50368e-06,-7.0342e-06,0.359585,0.2554900820719104,0.6027373320980112,-1.503678869418934e-06,-0.04382822393952579,-7.034175260045572e-06,-0.16559968685331394
451,0.4396,650.073,216.796,-0.0133297,375.288,0.0216513,-0.0263997,0.22796,-0.0449032,-0.181389,0.472615,-7.10806e-07,-7.50645e-06,0.360279,0.25603508302418176,0.6041836533643936,-7.108057473725893e-07,-0.043909973131551205,-7.506421826675158e-06,-0.16588917353313215
452,0.4406,650.268,216.662,0.041789,375.442,-0.0416272,0.0111701,0.228394,-0.044991,-0.181736,0.473517,-1.64373e-06,-7.03599e-06,0.360972,0.2565803205582009,0.6056312798011017,-1.6437286490811331e-06,-0.04399391415084564,-7.0359652474261125e-06,-0.16617855977849894
453,0.4416,650.545,216.976,-0.0177126,375.555,0.0287286,-0.0299712,0.228828,-0.0450761,-0.182083,0.474418,-6.51369e-07,-7.59439e-06,0.361664,0.2571257947766665,0.6070786055065209,-6.513687879072805e-07,-0.044075266807146685,-7.594361162710506e-06,-0.16646784562425887
454,0.4426,650.728,216.79,0.0470727,375.714,-0.0494821,0.0152857,0.229262,-0.045164,-0.182429,0.475319,-1.80018e-06,-7.02459e-06,0.362356,0.25767150578232223,0.6085272358400478,-1.800178379696149e-06,-0.0441592888983694,-7.024565327640175e-06,-0.16675619786185902
455,0.4436,651.016,217.16,-0.0239805,375.821,0.0373123,-0.0346395,0.229695,-0.0452488,-0.182776,0.476218,-5.70413e-07,-7.69668e-06,0.363048,0.25821619546113106,0.6099739520265572,-5.704128372974182e-07,-0.0442403407540235,-7.696650380584202e-06,-0.16704528330197643
456,0.4446,651.185,216.913,0.0541389,375.984,-0.0589317,0.0204796,0.230128,-0.0453369,-0.183121,0.477118,-1.97958e-06,-6.99905e-06,0.363739,0.25876112104164006,0.6114235808184876,-1.9795780406006713e-06,-0.04432453947099513,-6.999025506715384e-06,-0.16733260311371978
457,0.4456,651.486,217.349,-0.0320325,376.085,0.0476874,-0.0404522,0.23056,-0.0454212,-0.183468,0.478016,-4.63646e-07,-7.81388e-06,0.364429,0.25930502332036354,0.6128712891178025,-4.6364589256775446e-07,-0.04440509951666416,-7.813849471682843e-06,-0.16762148857591297
458,0.4466,651.639,217.028,0.0630446,376.254,-0.070343,0.0268746,0.230993,-0.0455096,-0.183812,0.478914,-2.18724e-06,-6.95788e-06,0.365119,0.2598504204654217,0.614320298043064,-2.1872376080311895e-06,-0.04448957037220003,-6.957855793965351e-06,-0.16790777753931796
459,0.4476,651.955,217.545,-0.041995,376.347,0.0602216,-0.047562,0.231424,-0.0455933,-0.184159,0.479811,-3.2572e-07,-7.94793e-06,0.365809,0.2603935330289924,0.6157689929929575,-3.2571994690311357e-07,-0.044569543248248356,-7.947898415294752e-06,-0.16819646345060946
460,0.4486,652.089,217.135,0.0739969,376.523,-0.0841144,0.0346545,0.231856,-0.0456821,-0.184502,0.480708,-2.42894e-06,-6.89878e-06,0.366498,0.2609381406620399,0.6172189880052119,-2.428937050158453e-06,-0.04465438170592462,-6.89875620352165e-06,-0.1684817231388127
461,0.4496,652.423,217.749,-0.0541257,376.607,0.0753414,-0.0561852,0.232287,-0.0457651,-0.184848,0.481604,-1.5047e-07,-8.10162e-06,0.367187,0.26148172213405774,0.6186686655770313,-1.504699886911709e-07,-0.04473367210164603,-8.101587182007819e-06,-0.1687693786953257
462,0.4506,652.535,217.231,0.0873146,376.792,-0.100704,0.0440577,0.232719,-0.0458544,-0.185191,0.4825,-2.71133e-06,-6.81872e-06,0.367875,0.26202679996635436,0.6201196426420412,-2.711326324345009e-06,-0.044818973575959875,-6.81869675256408e-06,-0.16905444190729757
463,0.4516,652.892,217.962,-0.0687803,376.865,0.0935422,-0.0665935,0.233149,-0.0459366,-0.185537,0.483394,6.92547e-08,-8.27845e-06,0.368563,0.2625695881814427,0.6215686772245115,6.925470241725407e-08,-0.044897486229417694,-8.27841573369792e-06,-0.1693418993373944
464,0.4526,652.978,217.316,0.10341,377.061,-0.120644,0.0553746,0.23358,-0.0460265,-0.185879,0.484289,-3.04213e-06,-6.71403e-06,0.36925,0.2631138729588929,0.6230206308429509,-3.042125372720861e-06,-0.04498334608594723,-6.714007460995042e-06,-0.16962593583481145
465,0.4536,653.361,218.187,-0.0864,377.121,0.1154,-0.0791142,0.23401,-0.0461079,-0.186226,0.485182,3.41764e-07,-8.48269e-06,0.369937,0.2636571287158822,0.6244706355970575,3.417640583869286e-07,-0.04506108127771069,-8.482654022090585e-06,-0.16991402564860336
466,0.4546,653.416,217.387,0.122786,377.33,-0.144553,0.0689493,0.23444,-0.0461985,-0.186567,0.486076,-3.4303e-06,-6.58033e-06,0.370623,0.2642006181230785,0.6259235617064829,-3.430294116535393e-06,-0.04514759482462405,-6.580308349657393e-06,-0.17019703670972886
467,0.4556,653.83,218.427,-0.107511,377.374,0.141587,-0.0941343,0.234869,-0.0462788,-0.186913,0.486967,6.76725e-07,-8.71939e-06,0.371309,0.2647430765372636,0.6273729051865999,6.767252289652248e-07,-0.04522426639435495,-8.719351986208324e-06,-0.17048409887040972
468,0.4566,653.849,217.442,0.14604,377.6,-0.173149,0.0851837,0.235299,-0.0463703,-0.187253,0.487861,-3.88629e-06,-6.41255e-06,0.371995,0.26528703300243306,0.6288284270851834,-3.886282448406497e-06,-0.04531162437729119,-6.412529439669967e-06,-0.17076608633620805
469,0.4576,654.116,217.793,0.0615803,377.703,-0.0900532,0.0297579,0.235728,-0.0464546,-0.187596,0.488752,-3.02432e-06,-7.01216e-06,0.372679,0.2658299575885881,0.6302803599537541,-3.024315426758406e-06,-0.04539210121520976,-7.012135414874443e-06,-0.17105046479490105
470,0.4586,654.412,218.157,0.0154606,377.809,-0.00548994,-0.00908179,0.236157,-0.0465386,-0.18794,0.489642,-1.92235e-06,-7.48333e-06,0.373364,0.266373115139358,0.6317319553382417,-1.922348152327835e-06,-0.04547228491094535,-7.483301999955394e-06,-0.17133557439334912
471,0.4596,654.605,218.114,0.0312213,377.948,-0.0392256,0.00678848,0.236585,-0.0466247,-0.188282,0.490532,-2.46526e-06,-7.28643e-06,0.374048,0.2669152388388336,0.6331848432176963,-2.4652569612371167e-06,-0.04555446620925885,-7.286403454043189e-06,-0.17161892917047783
472,0.4606,654.872,218.378,-0.00387183,378.061,0.0161535,-0.0213557,0.237013,-0.0467091,-0.188624,0.491421,-1.69611e-06,-7.66425e-06,0.374731,0.267457594616914,0.6346373901047433,-1.6961085615996296e-06,-0.04563501801297687,-7.664220629699514e-06,-0.17190218705684202
473,0.4616,655.055,218.268,0.0339543,378.206,-0.0381268,0.00749888,0.237441,-0.0467954,-0.188966,0.49231,-2.50542e-06,-7.31115e-06,0.375414,0.2680001825729499,0.6360912288801321,-2.505416861420251e-06,-0.04571737615711724,-7.3111232735678655e-06,-0.17218534808557273
474,0.4626,655.321,218.55,-0.0110885,378.316,0.0231046,-0.0258777,0.237869,-0.0468796,-0.189308,0.493198,-1.64313e-06,-7.76249e-06,0.376097,0.2685430028063347,0.6375447231473204,-1.6431286500306896e-06,-0.04579772337137966,-7.762459871996086e-06,-0.17246841228978949
475,0.4636,655.497,218.4,0.0394434,378.464,-0.0431487,0.0108725,0.238296,-0.046966,-0.189649,0.494086,-2.62165e-06,-7.30779e-06,0.376779,0.2690847863310837,0.6389995086906595,-2.6216465635053865e-06,-0.045880162886641984,-7.307763298158854e-06,-0.17275055245356685
476,0.4646,655.768,218.719,-0.0171935,378.57,0.0294654,-0.0298306,0.238723,-0.0470498,-0.189991,0.494972,-1.59435e-06,-7.85489e-06,0.377461,0.26962680124679594,0.6404523057494198,-1.5943487290392966e-06,-0.045960114778961,-7.854859150446813e-06,-0.1730334233909402
477,0.4656,655.936,218.525,0.0454904,378.722,-0.0498315,0.0149119,0.23915,-0.0471364,-0.190331,0.495859,-2.76065e-06,-7.29666e-06,0.378142,0.2701690476522971,0.6419080324639739,-2.7606461894258416e-06,-0.046042731055684794,-7.296633379394457e-06,-0.17331454423373593
478,0.4666,656.215,218.891,-0.0236829,378.823,0.0368322,-0.0342137,0.239576,-0.0472198,-0.190673,0.496744,-1.53046e-06,-7.95283e-06,0.378822,0.27071025493556355,0.6433617642541385,-1.5304588288911347e-06,-0.046122287774353454,-7.952798376287262e-06,-0.17359722231890018
479,0.4676,656.372,218.645,0.0522717,378.979,-0.0578254,0.0195787,0.240002,-0.0473065,-0.191012,0.49763,-2.91849e-06,-7.27762e-06,0.379503,0.2712516928222479,0.6448184279840103,-2.918485741187915e-06,-0.04620498538701012,-7.277593518151271e-06,-0.17387732538038259
480,0.4686,656.66,219.066,-0.0310253,379.074,0.0455216,-0.0392782,0.240428,-0.0473895,-0.191354,0.498514,-1.44734e-06,-8.05944e-06,0.380183,0.27179336141060784,0.6462730903403802,-1.4473389525759828e-06,-0.04628414708796691,-8.05940752279799e-06,-0.1741598110273035
481,0.4696,656.805,218.76,0.0600775,379.235,-0.0672584,0.0250112,0.240854,-0.0474765,-0.191693,0.499398,-3.09712e-06,-7.24879e-06,0.380862,0.2723352607989433,0.647729039186818,-3.0971152039649397e-06,-0.046367116757937255,-7.248763727596419e-06,-0.17443972340353686
482,0.4706,657.105,219.247,-0.0395104,379.324,0.0557472,-0.0451878,0.241278,-0.047559,-0.192034,0.500281,-1.34194e-06,-8.17686e-06,0.381541,0.2728748453333596,0.6491846264756325,-1.341939099619438e-06,-0.04644578822556211,-8.176826569616935e-06,-0.17472119146482434
483,0.4716,657.236,218.868,0.0691673,379.491,-0.0783391,0.031358,0.241704,-0.0476462,-0.192372,0.501165,-3.29957e-06,-7.20826e-06,0.382219,0.2734172055319919,0.6506431502579677,-3.299564556469292e-06,-0.04652893452759743,-7.208234020561477e-06,-0.17500008856584393
484,0.4726,657.549,219.433,-0.0493864,379.573,0.0677422,-0.0520979,0.242128,-0.0477282,-0.192713,0.502046,-1.21092e-06,-8.30711e-06,0.382897,0.2739572489082427,0.6520980076439231,-1.2109192668585678e-06,-0.04660711594948408,-8.30707549603904e-06,-0.17528136557518736
485,0.4736,657.663,218.97,0.0797898,379.746,-0.0913146,0.038774,0.242553,-0.0478158,-0.193051,0.502928,-3.52942e-06,-7.15405e-06,0.383575,0.2744987958095937,0.6535558008789775,-3.5294137715746743e-06,-0.04669062950817959,-7.154024409872228e-06,-0.1755600733693523
486,0.4746,657.992,219.625,-0.0608987,379.819,0.0817728,-0.060173,0.242976,-0.0478971,-0.193391,0.503808,-1.05044e-06,-8.45231e-06,0.384252,0.2750380228386975,0.655011570428407,-1.0504394483135115e-06,-0.046768130409546194,-8.45227427936912e-06,-0.17584033529717913
487,0.4756,658.086,219.064,0.0922029,380.001,-0.106467,0.0474267,0.243401,-0.0479851,-0.193728,0.50469,-3.79077e-06,-7.08404e-06,0.384929,0.2755800291665904,0.6564719345594356,-3.7907628150923856e-06,-0.04685201112326465,-7.0840149082318504e-06,-0.17611803030994622
488,0.4766,658.436,219.824,-0.0743067,380.064,0.0981406,-0.069594,0.243824,-0.0480658,-0.194069,0.505568,-8.56136e-07,-8.61481e-06,0.385604,0.2761197136541498,0.6579269555787353,-8.561356334979564e-07,-0.046928927062367176,-8.614772892601152e-06,-0.17639892616614516
489,0.4776,658.507,219.148,0.106687,380.256,-0.124116,0.0575007,0.244247,-0.0481543,-0.194405,0.506449,-4.08826e-06,-6.99591e-06,0.38628,0.27665962647653686,0.6593882328247114,-4.088251643108443e-06,-0.047013270120086714,-6.99588552866004e-06,-0.1766756096415264
490,0.4786,658.879,220.032,-0.089894,380.307,0.117186,-0.0805621,0.24467,-0.0482342,-0.194745,0.507326,-6.23112e-07,-8.79721e-06,0.386955,0.2771997677303579,0.6608441546332959,-6.231118058197538e-07,-0.04708941071794681,-8.79717130464197e-06,-0.17695549235149144
491,0.4796,658.924,219.223,0.123553,380.51,-0.14462,0.0692007,0.245093,-0.0483233,-0.19508,0.508205,-4.4271e-06,-6.8871e-06,0.38763,0.27774013751225923,0.6623046784513982,-4.427090200431749e-06,-0.04717431126907612,-6.88707628393459e-06,-0.17723116608362544
492,0.4806,659.323,220.249,-0.107974,380.548,0.139291,-0.0933027,0.245515,-0.0484023,-0.195421,0.509081,-3.45852e-07,-9.00243e-06,0.388304,0.27827945763883255,0.6637614953423592,-3.458519401977611e-07,-0.04724958152527159,-9.00238947820764e-06,-0.1775116824252364
493,0.4816,659.337,219.286,0.143147,380.765,-0.168381,0.0827546,0.245938,-0.0484922,-0.195755,0.50996,-4.81316e-06,-6.75477e-06,0.388979,0.2788202842261729,0.6652245846303035,-4.813148416715762e-06,-0.047335229937938594,-6.754747186588084e-06,-0.17778634765166024
494,0.4826,659.767,220.478,-0.128894,380.787,0.164884,-0.108068,0.246358,-0.0485701,-0.196095,0.510834,-1.81976e-08,-9.23375e-06,0.389651,0.2793575015532894,0.6666806271151502,-1.8197599871427883e-08,-0.047409439633021244,-9.233707369049604e-06,-0.17806585277489506
495,0.4836,659.896,220.197,-0.0685192,380.939,0.0614065,-0.0600218,0.24678,-0.0486557,-0.196432,0.51171,-1.2428e-06,-8.81507e-06,0.390325,0.2798975043515215,0.6681412790166301,-1.242799227751945e-06,-0.04749097789510126,-8.815031147357821e-06,-0.17834279791463292
496,0.4846,660.093,220.06,0.0197805,381.084,-0.00217835,-0.00772944,0.247201,-0.0487408,-0.196768,0.512585,-2.07714e-06,-8.20112e-06,0.390997,0.28043645464192934,0.6696015414073977,-2.077137842726451e-06,-0.0475720329639403,-8.201086370895894e-06,-0.17861882835882203
497,0.4856,660.298,220.173,-0.0144224,381.201,0.0125251,-0.0234576,0.247622,-0.0488244,-0.197104,0.51346,-1.85811e-06,-8.44694e-06,0.391669,0.280975631878178,0.6710630820869272,-1.8581082736890409e-06,-0.04765165261383675,-8.446904324665994e-06,-0.17889476607236166
498,0.4866,660.499,220.131,0.0299042,381.334,-0.0226764,0.00194328,0.248043,-0.048909,-0.19744,0.514334,-2.37456e-06,-8.14013e-06,0.392341,0.2815150361558323,0.6725242296491445,-2.3745571807731736e-06,-0.04773221787606707,-8.140096869224678e-06,-0.17917061108640375
499,0.4876,660.723,220.307,-0.00736738,381.446,0.00989236,-0.0205194,0.248463,-0.0489922,-0.197776,0.515207,-1.92373e-06,-8.45448e-06,0.393012,0.2820533855164695,0.673984980826744,-1.9237281496664593e-06,-0.04781144325971809,-8.454444261007943e-06,-0.17944636343209042
500,0.4886,660.915,220.254,0.0305502,381.579,-0.0276208,0.00349591,0.248884,-0.0490767,-0.198112,0.516079,-2.48455e-06,-8.16393e-06,0.393683,0.28259324362393,0.6754453323507537,-2.484546913539276e-06,-0.04789189979342623,-8.163896675239535e-06,-0.17972202314055274
501,0.4896,661.147,220.457,-0.00732774,381.689,0.0124975,-0.0212444,0.249303,-0.0491597,-0.198448,0.516951,-1.92625e-06,-8.50399e-06,0.394353,0.28313076279541094,0.6769069578566678,-1.926248144767939e-06,-0.04797092148629778,-8.503953841221268e-06,-0.17999759024291184
502,0.4906,661.332,220.381,0.0318158,381.823,-0.0311566,0.00496076,0.249723,-0.0492442,-0.198783,0.517823,-2.57767e-06,-8.18629e-06,0.395023,0.283669790903764,0.6783698584558828,-2.57766667777215e-06,-0.048051364544665076,-8.18625649245952e-06,-0.18027224504293282
503,0.4916,661.57,220.609,-0.00915593,381.93,0.0159392,-0.0228582,0.250142,-0.0493269,-0.199118,0.518694,-1.91814e-06,-8.56464e-06,0.395692,0.28420776124306824,0.6798323554275698,-1.918138160417193e-06,-0.04813008744158054,-8.564603323546471e-06,-0.18054680784900567
504,0.4926,661.747,220.508,0.0341078,382.066,-0.03489,0.00683664,0.250561,-0.0494114,-0.199452,0.519564,-2.67386e-06,-8.20288e-06,0.396361,0.2847459570391744,0.6812944454937493,-2.673856425272625e-06,-0.048210517050992885,-8.202846356497595e-06,-0.18082045951281234
505,0.4936,661.991,220.761,-0.0119455,382.17,0.019862,-0.0249467,0.25098,-0.0494939,-0.199788,0.520434,-1.90326e-06,-8.63145e-06,0.39703,0.28528437838656906,0.6827578081317747,-1.9032581888289712e-06,-0.04828903644436666,-8.631412749093847e-06,-0.18109565760254787
506,0.4946,662.161,220.633,0.0371725,382.308,-0.0390749,0.00911122,0.251398,-0.0495784,-0.200121,0.521303,-2.77652e-06,-8.21419e-06,0.397698,0.2858217395573952,0.6842207602276631,-2.776516145441832e-06,-0.04836945262315573,-8.214156263619543e-06,-0.18136830734986387
507,0.4956,662.41,220.915,-0.0154319,382.409,0.0243022,-0.0274274,0.251816,-0.0496606,-0.200456,0.522171,-1.88091e-06,-8.70331e-06,0.398365,0.28635932539214215,0.685683298497324,-1.880908231055578e-06,-0.04844767343923051,-8.703272126320272e-06,-0.18164250303655982
508,0.4966,662.574,220.755,0.04088,382.549,-0.0438076,0.0117655,0.252234,-0.0497452,-0.20079,0.52304,-2.88703e-06,-8.22056e-06,0.399032,0.2868971359847392,0.6871487939492682,-2.887025832509771e-06,-0.04852817136094745,-8.220526211299983e-06,-0.1819157887992826
509,0.4976,662.828,221.07,-0.0195324,382.647,0.0293306,-0.0302918,0.252651,-0.0498271,-0.201124,0.523907,-1.85002e-06,-8.78006e-06,0.399699,0.2874338839946271,0.6886121862425134,-1.850018288673816e-06,-0.048606093712749154,-8.78002145543455e-06,-0.18218898329980238
510,0.4986,662.984,220.875,0.0451962,382.79,-0.0491639,0.0148088,0.253069,-0.0499118,-0.201457,0.524774,-3.00653e-06,-8.22192e-06,0.400365,0.2879721438466085,0.6900768478470436,-3.006525480353517e-06,-0.04868667336401522,-8.221886200088235e-06,-0.18246126903027338
511,0.4996,663.244,221.227,-0.0242413,382.883,0.0350203,-0.033559,0.253486,-0.0499934,-0.201791,0.52564,-1.8095e-06,-8.86191e-06,0.401031,0.2885093402282539,0.6915410883218953,-1.8094983628147432e-06,-0.04876429736436649,-8.861870733345434e-06,-0.18273428137081837
512,0.5006,663.392,220.992,0.0501385,383.029,-0.0552179,0.0182675,0.253903,-0.0500782,-0.202123,0.526506,-3.1361e-06,-8.21796e-06,0.401697,0.2890467606675029,0.6930065973782145,-3.1360950824010914e-06,-0.04884495873185968,-8.217926232623185e-06,-0.18300556855323902
513,0.5016,663.659,221.385,-0.0295903,383.119,0.0414467,-0.0372621,0.254319,-0.0501595,-0.202457,0.527371,-1.75827e-06,-8.94928e-06,0.402361,0.28958311567404715,0.6944716816425398,-1.7582684542771787e-06,-0.048922284493379986,-8.949239955313715e-06,-0.18327839912809996
514,0.5026,663.798,221.106,0.0557512,383.268,-0.0620466,0.0221785,0.254735,-0.0502444,-0.202789,0.528236,-3.27685e-06,-8.20824e-06,0.403026,0.29011969385069003,0.6959380337530183,-3.2768446310837973e-06,-0.04900302756383468,-8.208206312532162e-06,-0.18354950569340944
515,0.5036,664.073,221.546,-0.0356309,383.353,0.048689,-0.041442,0.255151,-0.0503253,-0.203122,0.529099,-1.69516e-06,-9.04268e-06,0.40369,0.2906564952902899,0.6974022599988965,-1.6951585631863608e-06,-0.04907996010694138,-9.04263911505332e-06,-0.18382133844534831
516,0.5046,664.202,221.217,0.062094,383.507,-0.0697312,0.026585,0.255567,-0.0504104,-0.203453,0.529963,-3.43e-06,-8.19221e-06,0.404354,0.2911935200857436,0.6988694492860366,-3.4299941175097715e-06,-0.04916087995914775,-8.192176443988508e-06,-0.18409144887658047
517,0.5056,664.486,221.709,-0.0424265,383.586,0.0568309,-0.0461454,0.255982,-0.0504909,-0.203786,0.530825,-1.61897e-06,-9.1427e-06,0.405017,0.2917294765998637,0.7003345061000912,-1.618968689443001e-06,-0.049237419427556106,-9.142658205618659e-06,-0.1843631011914838
518,0.5066,664.603,221.323,0.0692364,383.744,-0.0783579,0.0315346,0.256397,-0.0505762,-0.204117,0.531688,-3.59677e-06,-8.16929e-06,0.40568,0.29226565558209616,0.7018025281392541,-3.5967635316769275e-06,-0.049318516016860214,-8.169256631496147e-06,-0.1846330323289217
519,0.5076,664.898,221.875,-0.0500483,383.818,0.0659614,-0.0514233,0.256812,-0.0506562,-0.20445,0.532549,-1.52841e-06,-9.24998e-06,0.406342,0.29280205712478447,0.7032684110880341,-1.5284088319411637e-06,-0.04939456749347926,-9.249937219069082e-06,-0.18490450432655992
520,0.5086,665.003,221.426,0.0772552,383.981,-0.0880177,0.0370791,0.257226,-0.0507418,-0.204779,0.533411,-3.77852e-06,-8.13884e-06,0.407004,0.2933373879822754,0.7047372614419425,-3.778512861374317e-06,-0.04947593583588705,-8.138806879776084e-06,-0.18517262663609813
521,0.5096,665.31,222.045,-0.0585735,384.048,0.0761747,-0.0573306,0.25764,-0.0508213,-0.205112,0.53427,-1.4221e-06,-9.36523e-06,0.407665,0.2938729405126246,0.7062022598762661,-1.4220989887903102e-06,-0.049551499495292806,-9.365186146359505e-06,-0.18544391897874635
522,0.5106,665.4,221.525,0.0862331,384.218,-0.0988074,0.0432732,0.258055,-0.0509072,-0.205441,0.535131,-3.97666e-06,-8.1002e-06,0.408326,0.29441000921698546,0.7076719326253462,-3.97665209306286e-06,-0.04963313951499715,-8.100167193436647e-06,-0.18571186385005412
523,0.5116,665.72,222.217,-0.0680843,384.277,0.0875702,-0.0639256,0.258468,-0.0509862,-0.205774,0.53599,-1.29862e-06,-9.48919e-06,0.408986,0.29494471095910146,0.7091394530252453,-1.2986191567643246e-06,-0.049708215531433786,-9.489144977781194e-06,-0.18598297665660446
524,0.5126,665.794,221.619,0.0962583,384.454,-0.110828,0.0501749,0.258882,-0.0510724,-0.206102,0.53685,-4.19266e-06,-8.05264e-06,0.409647,0.2954809290589264,0.7106099451758405,-4.192651210765952e-06,-0.04979012715281339,-8.052607577635484e-06,-0.18624993045744442
525,0.5136,666.13,222.394,-0.0786676,384.505,0.100252,-0.0712699,0.259294,-0.0511508,-0.206435,0.537707,-1.15644e-06,-9.62265e-06,0.410306,0.29601477716685753,0.7120765662562258,-1.1564393312957222e-06,-0.049864620686659866,-9.622603702408306e-06,-0.18652086411764401
526,0.5146,666.187,221.707,0.107424,384.689,-0.124187,0.0578449,0.259708,-0.0512374,-0.206762,0.538566,-4.4281e-06,-7.99543e-06,0.410966,0.29655143836580766,0.7135478718619268,-4.428090195962575e-06,-0.04994689884781267,-7.995398036642065e-06,-0.18678682830756255
527,0.5156,666.539,222.574,-0.0904142,384.732,0.114331,-0.0794282,0.26012,-0.0513152,-0.207094,0.539421,-9.93999e-07,-9.76644e-06,0.411624,0.29708572761444185,0.7150135817940757,-9.939985059492784e-07,-0.05002081010389714,-9.766392308430127e-06,-0.1870567702677196
528,0.5166,666.577,221.791,0.119829,384.924,-0.138994,0.0663463,0.260533,-0.0514022,-0.207422,0.540279,-4.6846e-06,-7.92781e-06,0.412283,0.2976215346564848,0.7164856948934648,-4.6845890272484425e-06,-0.05010345469832611,-7.927778574945421e-06,-0.18732337192201032
529,0.5176,666.947,222.759,-0.103418,384.957,0.129919,-0.0884683,0.260944,-0.0514793,-0.207754,0.541134,-8.09641e-07,-9.92143e-06,0.41294,0.29815496672000874,0.7179539177384227,-8.09640672283507e-07,-0.05017668889875415,-9.921380782818012e-06,-0.18759313577925396
530,0.5186,666.964,221.869,0.133574,385.159,-0.155365,0.0757446,0.261357,-0.0515668,-0.20808,0.541991,-4.96387e-06,-7.84899e-06,0.413598,0.29869121544900423,0.7194268353009514,-4.963857680007067e-06,-0.05025979480253917,-7.848959196810057e-06,-0.18785793725200473
531,0.5196,667.355,222.95,-0.117778,385.181,0.147134,-0.0984605,0.261767,-0.0516432,-0.208412,0.542844,-6.01669e-07,-1.00885e-05,0.414255,0.29922378801725436,0.7208941321045816,-6.016688189891539e-07,-0.050332352182489104,-1.0088449111211872e-05,-0.18812752366301655
532,0.5206,667.349,221.941,0.148767,385.393,-0.17342,0.0861073,0.262179,-0.0517312,-0.208737,0.5437,-5.26765e-06,-7.75817e-06,0.414912,0.2997591785007838,0.7223678481421403,-5.267636125960706e-06,-0.05041591925849176,-7.75813990550045e-06,-0.1883913393454556
533,0.5216,667.593,222.307,0.0580911,385.478,-0.0829736,0.0269618,0.26259,-0.0518118,-0.209066,0.544553,-4.26795e-06,-8.40467e-06,0.415568,0.300293489316499,0.7238376546999821,-4.267940892366262e-06,-0.05049245265106239,-8.404634680880818e-06,-0.18865831467496108
534,0.5226,667.849,222.616,0.0174726,385.572,-0.0113499,-0.0061457,0.263001,-0.0518925,-0.209395,0.545406,-3.33783e-06,-8.79557e-06,0.416224,0.30082801977909357,0.7253087155376918,-3.337824429405778e-06,-0.05056907481838735,-8.795531319050198e-06,-0.18892520218403042
535,0.5236,668.026,222.611,0.0249573,385.691,-0.0315226,0.0027542,0.263411,-0.0519748,-0.209723,0.546259,-3.68246e-06,-8.69184e-06,0.416879,0.30136146861674207,0.7267810317256274,-3.682453219799875e-06,-0.05064720976823256,-8.691802226068468e-06,-0.1891911910931483
536,0.5246,668.252,222.808,0.000467791,385.793,0.00702183,-0.0167206,0.263821,-0.0520559,-0.210051,0.547111,-3.15213e-06,-8.95193e-06,0.417534,0.3018951362132565,0.7282528760813183,-3.1521250319910266e-06,-0.050724199157558436,-8.95188993155216e-06,-0.18945709277221046
537,0.5256,668.423,222.755,0.0249481,385.916,-0.0277773,0.00174704,0.264231,-0.0521383,-0.210379,0.547962,-3.68141e-06,-8.73717e-06,0.418189,0.30242902265834615,0.7297242452576507,-3.681403223598778e-06,-0.05080241626095894,-8.737131831026979e-06,-0.18972290724982377
538,0.5266,668.645,222.95,-0.00383813,386.018,0.0106182,-0.0192454,0.264641,-0.0522193,-0.210706,0.548813,-3.14563e-06,-9.02202e-06,0.418843,0.30296312804175773,0.731196867102087,-3.1456250525474516e-06,-0.05087929815148318,-9.02197930174875e-06,-0.18998782454281504
539,0.5276,668.813,222.881,0.0272579,386.143,-0.0291973,0.00297451,0.26505,-0.0523017,-0.211033,0.549664,-3.74435e-06,-8.75997e-06,0.419496,0.3034961489564736,0.7326707426811012,-3.744342989886462e-06,-0.0509575024752531,-8.759931631630025e-06,-0.19025265522201362
540,0.5286,669.036,223.087,-0.0064778,386.242,0.0129105,-0.0208063,0.265459,-0.0523825,-0.211361,0.550513,-3.15417e-06,-9.08117e-06,0.42015,0.30402938792133183,0.7341424047737979,-3.154165025609501e-06,-0.05103418201115817,-9.081128766297297e-06,-0.19051820879793357
541,0.5296,669.202,223.003,0.0295241,386.368,-0.0313736,0.0043966,0.265868,-0.0524649,-0.211687,0.551363,-3.8172e-06,-8.78105e-06,0.420802,0.3045628450255329,0.7356170524543337,-3.8171927144725615e-06,-0.051112373573023784,-8.781011446745701e-06,-0.19078205685229588
542,0.5306,669.426,223.225,-0.00882099,386.466,0.0152719,-0.0222867,0.266276,-0.0525455,-0.212014,0.552211,-3.16118e-06,-9.13925e-06,0.421455,0.30509521526244665,0.7370894799358314,-3.161175003429939e-06,-0.05118885083363878,-9.139208237196605e-06,-0.19104662785998794
543,0.5316,669.588,223.125,0.0317552,386.593,-0.0338265,0.00588271,0.266685,-0.0526279,-0.21234,0.55306,-3.89395e-06,-8.80145e-06,0.422107,0.3056291083791889,0.7385648951294232,-3.893942418620178e-06,-0.051267029651318574,-8.80141126735623e-06,-0.1913103036778121
544,0.5326,669.814,223.362,-0.0111676,386.689,0.0178375,-0.0238263,0.267093,-0.0527083,-0.212666,0.553907,-3.16509e-06,-9.19797e-06,0.422758,0.3061619137403102,0.7400380834027585,-3.1650849910969114e-06,-0.051343304715835925,-9.197927698822994e-06,-0.19157389355132926
545,0.5336,669.973,223.244,0.0340618,386.817,-0.0365051,0.00745842,0.267501,-0.0527906,-0.212992,0.554754,-3.97396e-06,-8.82074e-06,0.423409,0.3066949365303713,0.7415125199951496,-3.973952103830669e-06,-0.0514213759491825,-8.820701097422834e-06,-0.19183739750855278
546,0.5346,670.202,223.5,-0.0136236,386.911,0.0206228,-0.0254665,0.267908,-0.0528708,-0.213318,0.5556,-3.16572e-06,-9.25786e-06,0.42406,0.307226869610578,0.7429864629770364,-3.1657149891506364e-06,-0.05149744890426511,-9.25781714611329e-06,-0.19210081557748693
547,0.5356,670.356,223.363,0.0365086,387.04,-0.0394077,0.00914588,0.268315,-0.0529532,-0.213643,0.556447,-4.05719e-06,-8.83862e-06,0.42471,0.30775901923161175,0.7444633979048227,-4.057181769656637e-06,-0.051575602294511524,-8.838580939474205e-06,-0.19236334014987044
548,0.5366,670.588,223.638,-0.0162378,387.131,0.0236347,-0.0272264,0.268722,-0.0530332,-0.213969,0.557292,-3.16299e-06,-9.31919e-06,0.42536,0.30829138548162205,0.7459380924467489,-3.1629849978065394e-06,-0.051651473211450805,-9.319146576536319e-06,-0.19262658678944788
549,0.5376,670.737,223.48,0.0391302,387.262,-0.0425402,0.0109587,0.269129,-0.0531156,-0.214293,0.558137,-4.14373e-06,-8.85489e-06,0.42601,0.308823968448795,0.7474140336321955,-4.14372141477326e-06,-0.051729613910617145,-8.85485079560322e-06,-0.19288813340248878
550,0.5386,670.972,223.777,-0.0190358,387.351,0.0268804,-0.0291172,0.269535,-0.0531953,-0.214619,0.558981,-3.1568e-06,-9.38211e-06,0.426658,0.30935545886523896,0.7488894736246738,-3.156795017278391e-06,-0.05180518804871914,-9.382065988106092e-06,-0.1931512089873494
551,0.5396,671.117,223.596,0.0419461,387.484,-0.0459101,0.0129058,0.269942,-0.0532777,-0.214943,0.559825,-4.23368e-06,-8.86946e-06,0.427307,0.30988847499842254,0.7503661594141582,-4.233671037967568e-06,-0.051883316082304676,-8.869420666468564e-06,-0.1934125856503316
552,0.5406,671.356,223.915,-0.022033,387.571,0.0303676,-0.0311463,0.270347,-0.0533572,-0.215268,0.560668,-3.14704e-06,-9.44669e-06,0.427955,0.3104190872725294,0.751842340209329,-3.147035048112201e-06,-0.05195868836258832,-9.446645380162266e-06,-0.19367468396671172
553,0.5416,671.496,223.711,0.0449689,387.705,-0.049525,0.0149936,0.270753,-0.0534396,-0.215591,0.561511,-4.32715e-06,-8.88223e-06,0.428603,0.31095122543870035,0.7533197659495807,-4.3271406379163935e-06,-0.052036803748269134,-8.882190553061164e-06,-0.19393508498676182
554,0.5426,671.738,224.054,-0.0252395,387.789,0.0341036,-0.0333195,0.271158,-0.0535189,-0.215916,0.562353,-3.1336e-06,-9.51303e-06,0.42925,0.31148226821390623,0.7547966828872843,-3.1335950902988685e-06,-0.052111974249182125,-9.512984751269826e-06,-0.1941970135184492
555,0.5436,671.873,223.825,0.0482075,387.925,-0.0533917,0.0172269,0.271564,-0.0536014,-0.216239,0.563195,-4.42425e-06,-8.89315e-06,0.429897,0.3120148381191763,0.7562748439127369,-4.424240213074526e-06,-0.052190171785613915,-8.893110456043019e-06,-0.19445724585329816
556,0.5446,672.119,224.194,-0.0286629,388.006,0.0380949,-0.0356413,0.271968,-0.0536804,-0.216564,0.564035,-3.11638e-06,-9.58117e-06,0.430543,0.3125449991991036,0.7577507345689167,-3.1163751440521636e-06,-0.052265045804480104,-9.581124100765948e-06,-0.1947190047102776
557,0.5456,672.248,223.937,0.051669,388.144,-0.0575164,0.0196098,0.272373,-0.0537629,-0.216886,0.564876,-4.52507e-06,-8.90218e-06,0.43119,0.3130766875834097,0.7592296247228332,-4.5250597618951005e-06,-0.052343230713029376,-8.902140375743883e-06,-0.19497826344786406
558,0.5466,672.499,224.334,-0.0323091,388.223,0.0423472,-0.0381155,0.272777,-0.0538417,-0.21721,0.565716,-3.0953e-06,-9.65117e-06,0.431835,0.31360727773718766,0.7607079984376321,-3.095295209587512e-06,-0.0524179031243176,-9.651123427656394e-06,-0.19523904824108906
559,0.5476,672.621,224.047,0.0553585,388.363,-0.0619041,0.0221453,0.273181,-0.0539243,-0.217532,0.566556,-4.62969e-06,-8.90927e-06,0.432481,0.314138082292694,0.7621876145080677,-4.629679283052468e-06,-0.052496170173045864,-8.909230312603711e-06,-0.19549813955161588
560,0.5486,672.877,224.474,-0.0361824,388.438,0.0468648,-0.0407448,0.273585,-0.0540028,-0.217856,0.567394,-3.07031e-06,-9.72305e-06,0.433125,0.31466910133656456,0.7636649466447369,-3.0703052865677094e-06,-0.05257054630438596,-9.723002731276686e-06,-0.19575875593226755
561,0.5496,672.994,224.157,0.0592803,388.581,-0.0665586,0.0248358,0.273989,-0.0540854,-0.218178,0.568233,-4.73815e-06,-8.91441e-06,0.43377,0.31520033495546995,0.765145282449005,-4.738138774995626e-06,-0.05264880074530831,-8.914370266732696e-06,-0.19601767992385755
562,0.5506,673.255,224.615,-0.040286,388.653,0.0516508,-0.0435314,0.274392,-0.0541636,-0.218501,0.56907,-3.04134e-06,-9.79684e-06,0.434414,0.315730467504991,0.7666233275259902,-3.0413353750979866e-06,-0.05272288071252562,-9.796792011074196e-06,-0.19627732427842148
563,0.5516,673.364,224.265,0.0634371,388.798,-0.0714823,0.0276827,0.274795,-0.0542463,-0.218822,0.569908,-4.85051e-06,-8.91759e-06,0.435057,0.31626081374098436,0.7681043783480799,-4.850498236286249e-06,-0.05280121729102849,-8.917550238463079e-06,-0.1965352778535644
564,0.5526,673.631,224.756,-0.0446215,388.866,0.0567069,-0.0464763,0.275197,-0.0543243,-0.219145,0.570744,-3.00839e-06,-9.87255e-06,0.4357,0.31679005695886775,0.769583131641131,-3.0083854748452765e-06,-0.052875095914776016,-9.872501266494638e-06,-0.1967947550509943
565,0.5536,673.733,224.372,0.0678302,389.014,-0.0766759,0.0306865,0.2756,-0.0544071,-0.219466,0.571581,-4.96678e-06,-8.91879e-06,0.436343,0.317320830295466,0.7710648927528334,-4.966767665592897e-06,-0.05295351461025544,-8.918750227682182e-06,-0.1970525425575146
566,0.5546,674.006,224.898,-0.0491894,389.079,0.0620329,-0.0495797,0.276002,-0.0544847,-0.219788,0.572415,-2.97145e-06,-9.9502e-06,0.436985,0.31785049972566704,0.7725425769820617,-2.9714455852536403e-06,-0.053027002566152115,-9.950150496873533e-06,-0.19731105001687654
567,0.5556,674.101,224.477,0.0724597,389.23,-0.0821385,0.0338467,0.276404,-0.0545676,-0.220108,0.573251,-5.08695e-06,-8.91805e-06,0.437628,0.31838038212578335,0.7740250421605226,-5.086937061471453e-06,-0.053105503373735985,-8.918010234282292e-06,-0.1975678693875803
568,0.5566,674.379,225.04,-0.0539885,389.291,0.0676272,-0.0528408,0.276806,-0.0546449,-0.220431,0.574085,-2.93055e-06,-1.00298e-05,0.438269,0.31891047758144575,0.7755051961841182,-2.9305457059924933e-06,-0.05317869548941345,-1.002974970176762e-05,-0.19782701311180362
569,0.5576,674.467,224.581,0.0773238,389.445,-0.0878675,0.0371618,0.277208,-0.0547279,-0.22075,0.57492,-5.21098e-06,-8.91537e-06,0.43891,0.3194407861783197,0.7769883621585512,-5.210966422919405e-06,-0.05325727839645211,-8.915330258152387e-06,-0.198082865483998
570,0.5586,674.752,225.182,-0.0590159,389.503,0.0734858,-0.0562577,0.277608,-0.0548049,-0.221073,0.575752,-2.88573e-06,-1.01112e-05,0.439551,0.3199686680621294,0.778467431683469,-2.885725836287989e-06,-0.053330174779468775,-1.0111148881941645e-05,-0.19834184289134382
571,0.5596,674.831,224.684,0.0824195,389.66,-0.0938582,0.0406291,0.27801,-0.054888,-0.221391,0.576586,-5.33882e-06,-8.9108e-06,0.440191,0.32049940213709194,0.7799512922053216,-5.338805748489328e-06,-0.053408839773368855,-8.910760298963538e-06,-0.19859672965616082
572,0.5606,675.123,225.325,-0.0642672,389.713,0.0796033,-0.0598273,0.27841,-0.0549647,-0.221713,0.577418,-2.8371e-06,-1.01945e-05,0.440831,0.32102770755198584,0.7814328279138283,-2.837095975483095e-06,-0.05348144053108361,-1.0194448036293657e-05,-0.19885473996732217
573,0.5616,675.194,224.785,0.0877416,389.873,-0.100104,0.0442446,0.278811,-0.055048,-0.222032,0.578251,-5.47037e-06,-8.9044e-06,0.44147,0.3215575458882005,0.7829173796894522,-5.470355037506813e-06,-0.05356028224328446,-8.904360355943552e-06,-0.19911026454693526
574,0.5626,675.493,225.469,-0.0697362,389.922,0.0859717,-0.0635452,0.279211,-0.0551243,-0.222353,0.579081,-2.78475e-06,-1.02796e-05,0.442109,0.3220862746452575,0.7843978154104292,-2.784746122586057e-06,-0.05363249283888005,-1.027954716514845e-05,-0.19936730889419074
575,0.5636,675.556,224.885,0.0932834,390.087,-0.106596,0.0480035,0.279611,-0.0552077,-0.222671,0.579913,-5.60551e-06,-8.89624e-06,0.442748,0.32261521493612144,0.7858830521656646,-5.605494289184776e-06,-0.05371141659781076,-8.89620042854311e-06,-0.19962186961266304
576,0.5646,675.862,225.612,-0.0754146,390.131,0.0925812,-0.0674059,0.28001,-0.0552837,-0.222993,0.580742,-2.72884e-06,-1.03664e-05,0.443386,0.3231430437017171,0.7873641630515487,-2.7288362767219354e-06,-0.053783331797337186,-1.0366346269052862e-05,-0.19987954988189793
577,0.5656,675.916,224.984,0.099036,390.299,-0.113323,0.0518992,0.28041,-0.0553672,-0.22331,0.581573,-5.74408e-06,-8.88641e-06,0.444024,0.32367240678475606,0.7888500799840203,-5.744063502843844e-06,-0.053862337590594334,-8.886370515992503e-06,-0.20013314786718106
578,0.5666,676.23,225.756,-0.0812924,390.339,0.0994194,-0.0714024,0.280809,-0.0554429,-0.223631,0.582401,-2.66955e-06,-1.04549e-05,0.444661,0.3242006574540637,0.7903318612230228,-2.6695464367954003e-06,-0.053933957500790886,-1.0454845347673825e-05,-0.20038986392158453
579,0.5676,676.275,225.082,0.104989,390.51,-0.120272,0.0559242,0.281208,-0.0555266,-0.223948,0.583231,-5.88591e-06,-8.87499e-06,0.445299,0.32472911893744283,0.7918184535182979,-5.885892678025861e-06,-0.05401313991471779,-8.874950617410171e-06,-0.20064330016295484
580,0.5686,676.597,225.901,-0.0873577,390.546,0.106472,-0.0755266,0.281606,-0.0556018,-0.224269,0.584058,-2.60708e-06,-1.05449e-05,0.445935,0.3252564660618964,0.7933009002866054,-2.6070766016017544e-06,-0.05408427545186656,-1.0544844402771147e-05,-0.20089985248475195
581,0.5696,676.632,225.179,0.111129,390.721,-0.127428,0.0600693,0.282005,-0.0556857,-0.224585,0.584887,-6.03077e-06,-8.86213e-06,0.446572,0.3257853488969642,0.7947881631182112,-6.0307518149338435e-06,-0.054163634451999454,-8.862090731476258e-06,-0.2011523282380968
582,0.5706,676.962,226.045,-0.0935965,390.752,0.113722,-0.0797688,0.282403,-0.0557606,-0.224905,0.585712,-2.5417e-06,-1.06363e-05,0.447207,0.3263131164846085,0.7962694743096319,-2.54169676983107e-06,-0.05423447494276956,-1.0636243434780646e-05,-0.20140791859642226
583,0.5716,676.988,225.275,0.117443,390.932,-0.134772,0.0643245,0.282801,-0.0558446,-0.225221,0.58654,-6.17841e-06,-8.84795e-06,0.447843,0.3268410941655584,0.7977574013511473,-6.178390913658127e-06,-0.05431391591030699,-8.847910856979446e-06,-0.20166023382623988
584,0.5726,677.327,226.19,-0.0999929,390.958,0.121151,-0.0841182,0.283198,-0.0559192,-0.225541,0.587365,-2.47367e-06,-1.0729e-05,0.448477,0.3273679546548294,0.799241163174857,-2.473666940505659e-06,-0.05438446146079834,-1.0728942444471201e-05,-0.20191566168077912
585,0.5736,677.343,225.369,0.123912,391.141,-0.142285,0.0686779,0.283596,-0.0560034,-0.225856,0.588192,-6.32854e-06,-8.83261e-06,0.449112,0.3278963522449274,0.8007297510630538,-6.328519974840852e-06,-0.05446407893720051,-8.832570992600708e-06,-0.20216701865654763
586,0.5746,677.69,226.335,-0.106529,391.162,0.128737,-0.0885625,0.283993,-0.0560775,-0.226176,0.589015,-2.40331e-06,-1.08228e-05,0.449746,0.3284236317548259,0.8022123616587542,-2.4033071120976857e-06,-0.05453414055313632,-1.0822741433713645e-05,-0.20242228436588572
587,0.5756,677.696,225.463,0.130519,391.35,-0.149944,0.0731169,0.28439,-0.0561619,-0.226491,0.589841,-6.48086e-06,-8.81626e-06,0.45038,0.32895112063624743,0.8037016040419156,-6.480838999234351e-06,-0.054613934504321615,-8.816221136909164e-06,-0.2026734817806406
588,0.5766,678.052,226.48,-0.113185,391.366,0.136456,-0.093088,0.284786,-0.0562357,-0.226811,0.590664,-2.33098e-06,-1.09176e-05,0.451013,0.32947748949417477,0.805186661479355,-2.3309772833046694e-06,-0.05468370142152423,-1.091754040327686e-05,-0.2029285854477072
589,0.5776,678.048,225.556,0.137243,391.558,-0.157726,0.0776271,0.285183,-0.0563203,-0.227125,0.591489,-6.63501e-06,-8.7991e-06,0.451647,0.3300053968401786,0.8066765549716362,-6.63498798836315e-06,-0.05476367179758934,-8.799061288033982e-06,-0.2031788265819624
590,0.5786,678.413,226.624,-0.11994,391.569,0.144284,-0.09768,0.285579,-0.0563936,-0.227444,0.59231,-2.25705e-06,-1.10132e-05,0.452279,0.33053218327415723,0.80816044547697,-2.2570474528249562e-06,-0.05483295508118324,-1.1013139354920654e-05,-0.20343297199793375
591,0.5796,678.399,225.648,0.144061,391.766,-0.165602,0.0821932,0.285975,-0.0564784,-0.227758,0.593134,-6.79061e-06,-8.78133e-06,0.452912,0.33105917835687326,0.8096509837014549,-6.790586943861143e-06,-0.05491310184832143,-8.781291444215356e-06,-0.20368305477967485
592,0.5806,678.772,226.769,-0.12677,391.771,0.152191,-0.102322,0.28637,-0.0565514,-0.228077,0.593954,-2.18192e-06,-1.11093e-05,0.453543,0.331585050585252,0.8111355060790821,-2.1819176195814194e-06,-0.054982090673763695,-1.1109238291950874e-05,-0.20393703937250385
593,0.5816,678.748,225.74,0.150949,391.973,-0.173546,0.0867989,0.286766,-0.0566364,-0.22839,0.594777,-6.94727e-06,-8.76314e-06,0.454175,0.3321124626859875,0.8126266841361875,-6.947245867805485e-06,-0.05506241378227594,-8.763101603803669e-06,-0.20418616808850232
594,0.5826,679.131,226.914,-0.13365,391.973,0.16015,-0.106998,0.28716,-0.0567089,-0.228709,0.595596,-2.10605e-06,-1.12059e-05,0.454805,0.33263741840577166,0.8141118334761348,-2.1060477822798518e-06,-0.05513091927392266,-1.1205837214145475e-05,-0.20443999221378162
595,0.5836,679.226,226.603,-0.0600191,392.107,0.0509223,-0.0525251,0.287556,-0.0567894,-0.229024,0.596417,-3.46763e-06,-1.06968e-05,0.455436,0.33316524732668884,0.8156018308516482,-3.4676239877295956e-06,-0.05520697817350939,-1.069674278941779e-05,-0.2046905541506574
596,0.5846,679.393,226.508,0.00893299,392.225,0.00339844,-0.0123337,0.28795,-0.056869,-0.229339,0.597237,-4.08779e-06,-1.02409e-05,0.456066,0.33369061792534715,0.8170912349251604,-4.087781644956934e-06,-0.05528218070494628,-1.0240847562181798e-05,-0.20494103717295276
597,0.5856,679.556,226.561,-0.00698687,392.325,0.00315234,-0.017526,0.288345,-0.0569476,-0.229654,0.598056,-4.08904e-06,-1.03448e-05,0.456696,0.3342175297776675,0.8185800422299359,-4.089031639842311e-06,-0.05535643260740486,-1.0344746492751966e-05,-0.2051914413055218
598,0.5866,679.729,226.567,0.01796,392.432,-0.0135611,-0.00422034,0.288739,-0.0570266,-0.229969,0.598875,-4.34115e-06,-1.01964e-05,0.457325,0.33474331505729826,0.8200700693673473,-4.341140577235336e-06,-0.05543105650154623,-1.0196348016910939e-05,-0.205441766573211
599,0.5876,679.907,226.664,0.000674423,392.529,-0.00135962,-0.0137861,0.289133,-0.0571049,-0.230284,0.599693,-4.18267e-06,-1.03391e-05,0.457954,0.3352693075371449,0.8215594957764403,-4.182661252682962e-06,-0.055505013354373633,-1.0339046551677278e-05,-0.20569201300085893
600,0.5886,680.076,226.675,0.0173488,392.635,-0.0157619,-0.00387934,0.289526,-0.0571837,-0.230598,0.600511,-4.41053e-06,-1.02324e-05,0.458583,0.33579417150402113,0.823050141034777,-4.4105202736677285e-06,-0.05557943662700582,-1.0232347649186124e-05,-0.20594138655507965
601,0.5896,680.257,226.781,0.00222193,392.731,-0.00143097,-0.0132139,0.28992,-0.0572619,-0.230913,0.601328,-4.2222e-06,-1.0369e-05,0.459211,0.33632057810288396,0.8245401815986906,-4.222191086533655e-06,-0.055653287427457676,-1.0368946242067523e-05,-0.20619147562721807
602,0.5906,680.423,226.789,0.0167707,392.836,-0.0163354,-0.0039115,0.290313,-0.0573406,-0.231227,0.602145,-4.45892e-06,-1.02707e-05,0.459839,0.3368458553002869,0.8260314400231734,-4.4589100590686215e-06,-0.05572760458931847,-1.0270647256560572e-05,-0.20644069237479412
603,0.5916,680.605,226.898,0.00256065,392.932,-0.00112774,-0.0131695,0.290706,-0.0574187,-0.231541,0.602961,-4.25751e-06,-1.04053e-05,0.460467,0.3373713389721982,0.8275220897806201,-4.257500936799552e-06,-0.05580134938362835,-1.0405245865041657e-05,-0.206689830880596
604,0.5926,680.77,226.904,0.0166165,393.037,-0.0166907,-0.00385786,0.291098,-0.0574974,-0.231855,0.603777,-4.50424e-06,-1.03075e-05,0.461094,0.3378956913034177,0.829013956404683,-4.504229855872843e-06,-0.05587565489347168,-1.0307446877910742e-05,-0.20693889116918784
605,0.5936,680.953,227.014,0.00252,393.132,-0.000819659,-0.01326,0.291491,-0.0575753,-0.232169,0.604592,-4.29292e-06,-1.04435e-05,0.46172,0.33842158764196184,0.8305052103826049,-4.292910785408388e-06,-0.05594919931536302,-1.0443445466856716e-05,-0.2071878732651259
606,0.5946,681.116,227.018,0.0166709,393.237,-0.0169995,-0.0037435,0.291883,-0.0576539,-0.232482,0.605407,-4.5488e-06,-1.03433e-05,0.462347,0.3389463517513631,0.8319976802279174,-4.548789654279517e-06,-0.05602339879221918,-1.0343246508282e-05,-0.20743598462933976
607,0.5956,681.298,227.131,0.00233685,393.331,-0.000529483,-0.0133955,0.292275,-0.0577318,-0.232796,0.606221,-4.32859e-06,-1.04822e-05,0.462972,0.33947132160861915,0.8334895334415062,-4.328580631707268e-06,-0.05609693170530916,-1.0482145061940784e-05,-0.2076848106624346
608,0.5966,681.461,227.132,0.0168115,393.436,-0.0172888,-0.00360425,0.292666,-0.0578102,-0.233109,0.607035,-4.593e-06,-1.03787e-05,0.463598,0.33999515729857177,0.8349826015179929,-4.592989452212315e-06,-0.05617093080506086,-1.0378646141506742e-05,-0.2079327665095828
609,0.5976,681.643,227.246,0.00210033,393.53,-0.000253532,-0.0135458,0.293058,-0.057888,-0.233422,0.607848,-4.36444e-06,-1.0521e-05,0.464223,0.34052053836819485,0.8364750489707116,-4.364430475800596e-06,-0.056244357850295135,-1.0520944654479614e-05,-0.20818064475869558
610,0.5986,681.804,227.246,0.0169834,393.635,-0.0175648,-0.00345771,0.293449,-0.0579663,-0.233734,0.60866,-4.63695e-06,-1.04139e-05,0.464848,0.3410447843821136,0.8379668723087821,-4.636939249347272e-06,-0.056318251024119914,-1.0413845775492092e-05,-0.20842765386210704
611,0.5996,681.986,227.362,0.00184707,393.728,1.0276e-05,-0.0136986,0.29384,-0.058044,-0.234047,0.609472,-4.40042e-06,-1.05599e-05,0.465472,0.3415692354163027,0.839459907499349,-4.400410318128323e-06,-0.05639157224744895,-1.0559844244473204e-05,-0.20867537723571783
612,0.6006,682.147,227.359,0.017163,393.832,-0.0178288,-0.00331187,0.294231,-0.0581223,-0.234359,0.610284,-4.68067e-06,-1.04492e-05,0.466096,0.3420938915509406,0.8409541555268358,-4.680659045686042e-06,-0.0564654538948377,-1.044914540726527e-05,-0.20892223200667348
613,0.6016,682.328,227.476,0.00159283,393.926,0.000262145,-0.0138484,0.294621,-0.0581998,-0.234671,0.611095,-4.43653e-06,-1.05987e-05,0.466719,0.34261741024815584,0.8424477749277697,-4.436520158579427e-06,-0.05653857498868187,-1.0598643834014432e-05,-0.20916900977095432
614,0.6026,682.488,227.472,0.0173398,394.03,-0.0180805,-0.00317052,0.295011,-0.058278,-0.234983,0.611906,-4.72417e-06,-1.04844e-05,0.467343,0.34314113315748185,0.8439426061453628,-4.724158841118431e-06,-0.05661235078744642,-1.0484345038919152e-05,-0.20941571055258268
615,0.6036,682.669,227.591,0.00134479,394.122,0.000501395,-0.0139924,0.295401,-0.0583555,-0.235295,0.612716,-4.47278e-06,-1.06373e-05,0.467965,0.3436650603585767,0.8454368047250702,-4.472769997154735e-06,-0.05668546049722256,-1.0637243424094223e-05,-0.20966233437557324
616,0.6046,682.828,227.585,0.0175086,394.226,-0.0183191,-0.00303567,0.295791,-0.0584336,-0.235606,0.613525,-4.76742e-06,-1.05196e-05,0.468588,0.34418919193112973,0.8469303671646404,-4.767408635864001e-06,-0.056759130485907194,-1.0519544669240766e-05,-0.2099080911724197
617,0.6056,683.009,227.705,0.00110657,394.318,0.000726995,-0.0141291,0.29618,-0.0585109,-0.235918,0.614334,-4.50918e-06,-1.06758e-05,0.46921,0.3447121832420059,0.8484251383851105,-4.509169833633031e-06,-0.0568320401871244,-1.0675743013832673e-05,-0.2101545613966196
618,0.6066,683.167,227.697,0.0176669,394.422,-0.0185434,-0.00290859,0.296569,-0.0585889,-0.236228,0.615143,-4.81042e-06,-1.05549e-05,0.469831,0.34523537803607707,0.8499211193647793,-4.810408429922752e-06,-0.05690560441894754,-1.0554844297239185e-05,-0.21039937553443466
619,0.6076,683.348,227.818,0.000880291,394.514,0.000937806,-0.0142574,0.296958,-0.0586662,-0.23654,0.615951,-4.54574e-06,-1.07142e-05,0.470453,0.3457587763925132,0.8514164596653531,-4.545729668126164e-06,-0.056978502798167296,-1.071414260311876e-05,-0.21064569250182286
620,0.6086,683.505,227.809,0.0178128,394.617,-0.0187522,-0.0027902,0.297347,-0.0587441,-0.23685,0.616759,-4.85314e-06,-1.05903e-05,0.471073,0.3462823783905158,0.8529130086891479,-4.853128223514247e-06,-0.05705196131155299,-1.0590243923025433e-05,-0.21089035441259185
621,0.6096,683.686,227.931,0.000667406,394.709,0.00113269,-0.0143766,0.297736,-0.0588212,-0.237161,0.617566,-4.58248e-06,-1.07524e-05,0.471694,0.34680618410931685,0.854408913003367,-4.582469500413744e-06,-0.05712465980277304,-1.0752342193165454e-05,-0.21113572935458835
622,0.6106,683.842,227.92,0.0179451,394.812,-0.0189445,-0.00268126,0.298124,-0.0588991,-0.237471,0.618372,-4.89558e-06,-1.06257e-05,0.472314,0.347328846298659,0.8559041690945048,-4.895568016638485e-06,-0.057198106930971604,-1.0625643547479413e-05,-0.21138023937747674
623,0.6116,684.022,228.044,0.000469073,394.903,0.00131055,-0.0144858,0.298512,-0.0589761,-0.237781,0.619178,-4.61943e-06,-1.07904e-05,0.472934,0.3478517113202777,0.8574006308478688,-4.619419330498253e-06,-0.0572706998818735,-1.0790341783861734e-05,-0.2116246736140055
624,0.6126,684.177,228.032,0.0180628,395.006,-0.0191192,-0.00258244,0.2989,-0.0590538,-0.238091,0.619984,-4.93771e-06,-1.06612e-05,0.473553,0.3483747792528866,0.858898299235614,-4.937697809515029e-06,-0.05734394710280122,-1.0661143169610199e-05,-0.21186903208766483
625,0.6136,684.357,228.156,0.000286274,395.096,0.00147037,-0.0145846,0.299287,-0.0591308,-0.238401,0.620789,-4.65658e-06,-1.08283e-05,0.474172,0.34889670127785544,0.8603953148344354,-4.65656915815682e-06,-0.05741652882444226,-1.0828241374216674e-05,-0.21211331482193763
626,0.6146,684.512,228.143,0.0181648,395.199,-0.0192754,-0.00249433,0.299674,-0.0592084,-0.23871,0.621594,-4.97952e-06,-1.06969e-05,0.47479,0.34941882532573665,0.8618935360159954,-4.979507602254074e-06,-0.0574896704638731,-1.0696842788315841e-05,-0.2123567341974273
627,0.6156,684.691,228.268,0.000119867,395.289,0.00161123,-0.0146722,0.300061,-0.0592853,-0.23902,0.622397,-4.69397e-06,-1.0866e-05,0.475408,0.3499411514747286,0.8633892369689788,-4.693958983392754e-06,-0.057562146721466645,-1.0865940965221199e-05,-0.2126008657674776
628,0.6166,684.845,228.253,0.0182504,395.392,-0.0194121,-0.00241745,0.300448,-0.0593628,-0.239329,0.623201,-5.021e-06,-1.07325e-05,0.476026,0.35046367980305937,0.8648880043392491,-5.020987394854792e-06,-0.0576351828249102,-1.0732442406902187e-05,-0.21284413451299866
629,0.6176,685.024,228.379,-2.9394e-05,395.481,0.00173231,-0.0147483,0.300835,-0.0594396,-0.239638,0.624004,-4.73159e-06,-1.09034e-05,0.476644,0.3509864103889875,0.8663861108159847,-4.7315788060942054e-06,-0.05770755366379343,-1.0903340558199304e-05,-0.2130873281000899
630,0.6186,685.178,228.364,0.018319,395.584,-0.0195286,-0.00235225,0.301221,-0.059517,-0.239947,0.624807,-5.06213e-06,-1.07683e-05,0.477261,0.3515079918021342,0.8678854207553464,-5.062117187426551e-06,-0.05778048427668869,-1.076824202206339e-05,-0.21333044655197175
631,0.6196,685.356,228.49,-0.000160865,395.673,0.0018329,-0.0148124,0.301607,-0.0595937,-0.240256,0.625609,-4.76947e-06,-1.09407e-05,0.477877,0.3520297745845682,0.8693840657391028,-4.769458626041612e-06,-0.05785274974212862,-1.0940640150725045e-05,-0.21357348989185732
632,0.6206,685.509,228.474,0.0183698,395.775,-0.0196242,-0.00229912,0.301993,-0.0596711,-0.240564,0.62641,-5.10292e-06,-1.08042e-05,0.478493,0.352551758814033,0.8708820422352548,-5.102906980081201e-06,-0.05792566911728236,-1.0804141634790376e-05,-0.21381567195901774
633,0.6216,685.687,228.601,-0.000273999,395.864,0.00191241,-0.0148642,0.302379,-0.0597476,-0.240872,0.627211,-4.8076e-06,-1.09778e-05,0.479109,0.3530739445683022,0.8723812190912597,-4.80758844345619e-06,-0.05799773504703798,-1.0977739744122417e-05,-0.21405777944558746
634,0.6226,685.839,228.584,0.0184024,395.966,-0.0196985,-0.00225839,0.302764,-0.0598249,-0.24118,0.628012,-5.14334e-06,-1.08402e-05,0.479725,0.353594978329524,0.8738815972689917,-5.143326773038304e-06,-0.058070549007822936,-1.0840141245194168e-05,-0.21429981237453388
635,0.6236,686.017,228.711,-0.000368359,396.054,0.00197039,-0.0149033,0.303149,-0.0599013,-0.241488,0.628812,-4.846e-06,-1.10147e-05,0.48034,0.35411621272736427,0.8753813023488546,-4.845988258117551e-06,-0.05814250966894652,-1.1014639338391419e-05,-0.21454177076881698
636,0.6246,686.168,228.693,0.0184164,396.156,-0.019751,-0.00223028,0.303534,-0.0599785,-0.241796,0.629612,-5.18339e-06,-1.08764e-05,0.480955,0.35463764783908247,0.8768822076728149,-5.183376566297859e-06,-0.05821521826061238,-1.0876340852172817e-05,-0.21478365465139015
637,0.6256,686.345,228.82,-0.000443625,396.244,0.0020065,-0.0149297,0.303919,-0.0600549,-0.242103,0.630411,-4.88466e-06,-1.10514e-05,0.481569,0.3551592837419686,0.8783824358180774,-4.884648070024866e-06,-0.058287167869427225,-1.1051338933532051e-05,-0.21502467907027079
638,0.6266,686.496,228.802,0.0184115,396.345,-0.0197815,-0.00221497,0.304303,-0.060132,-0.242411,0.63121,-5.22308e-06,-1.09126e-05,0.482183,0.3556797648328993,0.8798838631246291,-5.223066359749673e-06,-0.05835977112989277,-1.0912540457819198e-05,-0.21526641423999004
639,0.6276,686.673,228.93,-0.000499589,396.433,0.00202055,-0.0149431,0.304687,-0.0602082,-0.242718,0.632008,-4.92361e-06,-1.10878e-05,0.482797,0.3562004458269479,0.8813846091654325,-4.923597879069597e-06,-0.05843152138161334,-1.108773853053524e-05,-0.21550729047442452
640,0.6286,686.823,228.911,0.0183877,396.534,-0.0197898,-0.00221254,0.305071,-0.0602852,-0.243025,0.632805,-5.26239e-06,-1.09489e-05,0.48341,0.35672132680089175,0.8828846703939326,-5.2623761536141345e-06,-0.058504019363258886,-1.0948840061031362e-05,-0.215748092771205
641,0.6296,686.999,229.038,-0.000536158,396.621,0.00201246,-0.0149435,0.305455,-0.0603614,-0.243332,0.633602,-4.96283e-06,-1.11241e-05,0.484023,0.35724240783153816,0.8843859276477846,-4.962817685139065e-06,-0.058575758623682916,-1.1124038127419134e-05,-0.21598882115302698
642,0.6306,687.149,229.02,0.0183448,396.722,-0.019776,-0.00222299,0.305838,-0.0604383,-0.243638,0.634399,-5.30133e-06,-1.09853e-05,0.484635,0.3577623312327134,0.8858883818806007,-5.301315948003094e-06,-0.05864815136430812,-1.098523966180931e-05,-0.2162286918716625
643,0.6316,687.325,229.147,-0.000553358,396.809,0.00198232,-0.0149309,0.306222,-0.0605144,-0.243944,0.635195,-5.00232e-06,-1.11601e-05,0.485247,0.3582838120858225,0.8873901466556626,-5.002307488455315e-06,-0.05871978551427537,-1.1160037726276606e-05,-0.2164684892010872
644,0.6326,687.474,229.128,0.0182829,396.91,-0.0197401,-0.00224625,0.306605,-0.0605912,-0.24425,0.635991,-5.3399e-06,-1.10219e-05,0.485859,0.3588041344212183,0.8888931073113833,-5.339885742805528e-06,-0.058792073058870575,-1.1021839259051092e-05,-0.21670821316375477
645,0.6336,687.649,229.255,-0.000551333,396.997,0.00193032,-0.0149056,0.306987,-0.0606672,-0.244557,0.636786,-5.04208e-06,-1.11959e-05,0.48647,0.35932329675425945,0.8903953744037425,-5.042067288685281e-06,-0.05886360214317854,-1.1195837326116731e-05,-0.21694864683385684
646,0.6346,687.798,229.237,0.0182023,397.097,-0.0196826,-0.00228218,0.30737,-0.0607439,-0.244862,0.637581,-5.37811e-06,-1.10586e-05,0.487081,0.3598440172885333,0.8918988362733011,-5.378095538022265e-06,-0.05893578453666393,-1.1058538853858657e-05,-0.217187441078599
647,0.6356,687.972,229.362,-0.000530337,397.183,0.00185681,-0.0148676,0.307752,-0.0608198,-0.245168,0.638375,-5.08211e-06,-1.12316e-05,0.487692,0.3603635769327116,0.8934016004677379,-5.082097086051007e-06,-0.05900720860004016,-1.123153692583756e-05,-0.21742694507564853
648,0.6366,688.12,229.344,0.0181032,397.283,-0.0196037,-0.00233054,0.308134,-0.0608964,-0.245473,0.639169,-5.41595e-06,-1.10953e-05,0.488302,0.360883335086587,0.8949055583307683,-5.4159353337635e-06,-0.059079285887265964,-1.1095238447333955e-05,-0.21766559346167158
649,0.6376,688.294,229.469,-0.000490741,397.369,0.00176224,-0.0148172,0.308516,-0.0609722,-0.245779,0.639962,-5.1224e-06,-1.1267e-05,0.488912,0.3614032918260044,0.8964088144007796,-5.122386880551666e-06,-0.05915060497436819,-1.126693652764299e-05,-0.2179049511664758
650,0.6386,688.442,229.452,0.0179861,397.469,-0.019504,-0.00239105,0.308898,-0.0610487,-0.246083,0.640755,-5.45343e-06,-1.11322e-05,0.489521,0.3619234472268382,0.8979132630256399,-5.453415130030059e-06,-0.05922257720011492,-1.1132138037273087e-05,-0.21814267192593495
651,0.6396,688.615,229.576,-0.00043302,397.555,0.0016472,-0.0147548,0.309279,-0.0611244,-0.246389,0.641547,-5.16295e-06,-1.13023e-05,0.490131,0.36244243892187145,0.899417005733465,-5.1629366719652126e-06,-0.059293791355531145,-1.1302236129218102e-05,-0.21838188366706268
652,0.6406,688.763,229.559,0.0178514,397.654,-0.0193841,-0.00246332,0.30966,-0.0612009,-0.246693,0.642339,-5.49058e-06,-1.11692e-05,0.490739,0.3629616283904138,0.9009219398772608,-5.490564926824426e-06,-0.05936575262793864,-1.116913762466698e-05,-0.21861945946107753
653,0.6416,688.935,229.682,-0.000357754,397.74,0.00151239,-0.0146807,0.310041,-0.0612765,-0.246998,0.64313,-5.20373e-06,-1.13373e-05,0.491348,0.36348101570783165,0.9024261639739035,-5.203716460622232e-06,-0.05943686188907604,-1.133723573309986e-05,-0.21885774418567416
654,0.6426,689.083,229.666,0.0176999,397.838,-0.0192448,-0.00254693,0.310422,-0.0613528,-0.247302,0.643921,-5.52739e-06,-1.12062e-05,0.491956,0.3640006009495196,0.903931578382513,-5.52737472403475e-06,-0.05950862411875002,-1.1206137210728606e-05,-0.21909517534007772
655,0.6436,689.254,229.788,-0.000265618,397.924,0.00135863,-0.0145955,0.310802,-0.0614283,-0.247606,0.644711,-5.24475e-06,-1.13722e-05,0.492563,0.3645190196711994,0.9054362786077674,-5.244736246301507e-06,-0.059579628537178575,-1.1372135336751299e-05,-0.21933253432638045
656,0.6446,689.401,229.773,0.0175323,398.022,-0.019087,-0.00264138,0.311182,-0.0615046,-0.24791,0.645501,-5.56388e-06,-1.12434e-05,0.493171,0.3650376354294278,0.9069421680158649,-5.563864521662687e-06,-0.059651379874172794,-1.1243336793254066e-05,-0.21956982116651813
657,0.6456,689.572,229.893,-0.000157378,398.108,0.00118682,-0.0144996,0.311562,-0.06158,-0.248214,0.646291,-5.28598e-06,-1.14069e-05,0.493778,0.3655564482990932,0.9084492475466313,-5.2859660292226e-06,-0.05972227948718134,-1.1406834941607435e-05,-0.2198070358824198
658,0.6466,689.719,229.879,0.0173492,398.206,-0.0189116,-0.00274612,0.311942,-0.0616562,-0.248517,0.64708,-5.60006e-06,-1.12806e-05,0.494384,0.366075458355112,0.9099556081840721,-5.600044319709063e-06,-0.05979392591972066,-1.1280536374225214e-05,-0.2200433985397965
659,0.6476,689.889,229.998,-3.38811e-05,398.291,0.00099798,-0.0143937,0.312322,-0.0617315,-0.248821,0.647868,-5.32742e-06,-1.14414e-05,0.49499,0.36659466567242927,0.9114612463468474,-5.327405809274488e-06,-0.05986472077163929,-1.1441334547446225e-05,-0.22028046931005751
660,0.6486,690.036,229.985,0.0171517,398.388,-0.0187197,-0.00286054,0.312701,-0.0618076,-0.249124,0.648656,-5.63595e-06,-1.13178e-05,0.495596,0.36711270321263223,0.9129680714200765,-5.635934118064512e-06,-0.05993626234419713,-1.1317735953975117e-05,-0.22051668853883621
661,0.6496,690.205,230.103,0.00010395,398.474,0.000793181,-0.0142783,0.31308,-0.0618829,-0.249427,0.649444,-5.36904e-06,-1.14758e-05,0.496201,0.36763093712627315,0.9144760843394131,-5.3690255866767345e-06,-0.06000704647858657,-1.147573415327674e-05,-0.22075283620403097
662,0.6506,690.352,230.091,0.0169407,398.57,-0.0185124,-0.00298399,0.313459,-0.0619588,-0.24973,0.650231,-5.67157e-06,-1.13552e-05,0.496807,0.3681493674877918,0.9159833700569209,-5.671553916730687e-06,-0.06007838923626696,-1.1355135529966809e-05,-0.22098891232732232
663,0.6516,690.52,230.207,0.00025513,398.656,0.000573584,-0.0141542,0.313837,-0.062034,-0.250032,0.651017,-5.41083e-06,-1.151e-05,0.497411,0.36866662570434605,0.91748992498431,-5.410815361539534e-06,-0.060149068683815865,-1.150993376020093e-05,-0.2212241381549116
664,0.6526,690.666,230.197,0.0167172,398.752,-0.0182908,-0.00311577,0.314216,-0.0621098,-0.250335,0.651803,-5.70693e-06,-1.13926e-05,0.498016,0.36918544866622893,0.918997664529366,-5.7069137154863725e-06,-0.060220306684455216,-1.1392535104626234e-05,-0.22146007149534452
665,0.6536,690.834,230.311,0.000418615,398.837,0.000340407,-0.0140221,0.314594,-0.0621849,-0.250637,0.652589,-5.45278e-06,-1.1544e-05,0.49862,0.36970309859549766,0.920506589623564,-5.452765133640014e-06,-0.06029088148930617,-1.1543933368329817e-05,-0.2216951550543489
666,0.6546,690.98,230.302,0.0164823,398.933,-0.0180563,-0.00325518,0.314972,-0.0622607,-0.250939,0.653374,-5.74205e-06,-1.143e-05,0.499223,0.37022094423342633,0.9220147791833722,-5.742033514444245e-06,-0.06036210874094228,-1.1429934677842368e-05,-0.22193016762883755
667,0.6556,691.147,230.415,0.000593319,399.018,9.49167e-05,-0.0138827,0.31535,-0.0623357,-0.251241,0.654159,-5.49486e-06,-1.15779e-05,0.499826,0.37073898565400687,0.9235241531367984,-5.49484490330876e-06,-0.06043257894012122,-1.1577832976339408e-05,-0.22216510924024468
668,0.6566,691.293,230.407,0.016237,399.113,-0.0178101,-0.00340146,0.315727,-0.0624114,-0.251543,0.654943,-5.77694e-06,-1.14675e-05,0.500429,0.3712558516747215,0.9250327873802069,-5.776923313494109e-06,-0.060503701501872564,-1.1467434248513264e-05,-0.22239997990999794
669,0.6576,691.459,230.518,0.000778116,399.198,-0.000161583,-0.0137367,0.316104,-0.0624863,-0.251845,0.655726,-5.53706e-06,-1.16117e-05,0.501032,0.3717729125906615,0.9265406783149872,-5.537044670544944e-06,-0.06057406713940405,-1.1611632584451748e-05,-0.22263477965951828
670,0.6586,691.604,230.512,0.0159825,399.293,-0.0175535,-0.00355384,0.316481,-0.0625619,-0.252146,0.65651,-5.81164e-06,-1.1505e-05,0.501634,0.37229016847531593,0.9280516784414403,-5.81162311241723e-06,-0.060645085055417214,-1.150493381774087e-05,-0.2228687313793406
671,0.6596,691.77,230.621,0.000971856,399.378,-0.000427761,-0.013585,0.316858,-0.0626367,-0.252447,0.657292,-5.57935e-06,-1.16454e-05,0.502236,0.3728076194022021,0.9295600045326182,-5.579334435457106e-06,-0.060715346175256424,-1.1645332192555813e-05,-0.2231026126902923
672,0.6606,691.915,230.616,0.0157221,399.473,-0.0172864,-0.00371037,0.317235,-0.0627122,-0.252748,0.658075,-5.84615e-06,-1.15426e-05,0.502837,0.37332526544486466,0.9310714416665848,-5.846132911324631e-06,-0.06078625948960892,-1.1542533384423237e-05,-0.22333642361356332
673,0.6616,692.08,230.723,0.00116914,399.557,-0.000704396,-0.0134296,0.317611,-0.062787,-0.253049,0.658857,-5.6218e-06,-1.16792e-05,0.503438,0.37384173283445654,0.9325821301361745,-5.621784197717972e-06,-0.06085651004999537,-1.1679131798447706e-05,-0.22357016417033704
674,0.6626,692.225,230.72,0.0154524,399.651,-0.0170131,-0.00387365,0.317987,-0.0628623,-0.253349,0.659638,-5.88056e-06,-1.15802e-05,0.504039,0.37435839445229946,0.9340920663331456,-5.8805427095576235e-06,-0.06092722489234137,-1.1580132949773336e-05,-0.22380305818523705
675,0.6636,692.389,230.825,0.0013807,399.736,-0.000985012,-0.0132671,0.318363,-0.062937,-0.25365,0.660419,-5.66426e-06,-1.17127e-05,0.504639,0.3748752503714372,0.9356031822509074,-5.6642439580922854e-06,-0.06099737100865188,-1.1712631406646246e-05,-0.2240366583061414
676,0.6646,692.534,230.824,0.0151758,399.83,-0.0167337,-0.00403996,0.318738,-0.0630123,-0.25395,0.661199,-5.91482e-06,-1.16179e-05,0.505239,0.3753909252733274,0.9371135416966718,-5.914802507445138e-06,-0.06106807524456703,-1.1617832512467174e-05,-0.22426941239379072
677,0.6656,692.697,230.927,0.00159539,399.914,-0.00127188,-0.0131025,0.319114,-0.0630869,-0.25425,0.661979,-5.70677e-06,-1.17463e-05,0.505839,0.3759081694970505,0.9386250796823747,-5.706753716472335e-06,-0.061138116953565524,-1.174623101252159e-05,-0.22450209666568666
678,0.6666,692.842,230.928,0.0148956,400.007,-0.0164492,-0.00420905,0.319489,-0.063162,-0.25455,0.662759,-5.94896e-06,-1.16555e-05,0.506438,0.3764242318162492,0.9401377971276359,-5.948942304989657e-06,-0.06120862283345341,-1.1655432074930694e-05,-0.22473471114277077
679,0.6676,693.004,231.028,0.00181361,400.091,-0.00156316,-0.0129354,0.319864,-0.0632366,-0.25485,0.663537,-5.74929e-06,-1.17797e-05,0.507037,0.3769404876951077,0.941647811653286,-5.74927347285481e-06,-0.06127865405799293,-1.1779630619601633e-05,-0.22496725584597843
680,0.6686,693.149,231.031,0.0146125,400.184,-0.0161609,-0.00438021,0.320239,-0.0633116,-0.25515,0.664316,-5.983e-06,-1.16931e-05,0.507636,0.3774569372062244,0.9431609445873226,-5.982982101859768e-06,-0.061349055518850726,-1.1693031635950923e-05,-0.22519973079623845
681,0.6696,693.31,231.129,0.00203469,400.268,-0.00185748,-0.0127666,0.320613,-0.0633861,-0.255449,0.665094,-5.79182e-06,-1.18131e-05,0.508234,0.37797220244933394,0.9446733120368649,-5.791803227461756e-06,-0.061418982409405576,-1.1813030225571453e-05,-0.22543136144622256
682,0.6706,693.455,231.134,0.0143272,400.361,-0.0158703,-0.00455276,0.320988,-0.063461,-0.255748,0.665872,-6.01695e-06,-1.17307e-05,0.508832,0.37848903892603514,0.9461868565661078,-6.0169318981673214e-06,-0.06148927949496441,-1.1730631195638885e-05,-0.22566292284899525
683,0.6716,693.616,231.23,0.0022577,400.445,-0.00215355,-0.0125967,0.321362,-0.0635354,-0.256047,0.666649,-5.83432e-06,-1.18464e-05,0.509429,0.37900469024738004,0.9476996313905703,-5.834302980400885e-06,-0.06155910209513704,-1.184632983164402e-05,-0.22589441502525853
684,0.6726,693.76,231.236,0.0140409,400.537,-0.0155786,-0.00472601,0.321735,-0.0636103,-0.256346,0.667426,-6.05083e-06,-1.17682e-05,0.510026,0.3795191549385424,0.9492135820978422,-6.050811693802949e-06,-0.06162938868612444,-1.1768130754985506e-05,-0.22612583799570773
685,0.6736,693.92,231.331,0.00248163,400.621,-0.00245017,-0.0124264,0.322109,-0.0636846,-0.256645,0.668202,-5.87679e-06,-1.18797e-05,0.510623,0.38003519159532906,0.9507267588742063,-5.876772731672197e-06,-0.061699107032476386,-1.1879629436606365e-05,-0.22635719178103253
686,0.6746,694.064,231.339,0.0137545,400.712,-0.0152869,-0.00489927,0.322482,-0.0637593,-0.256943,0.668977,-6.08466e-06,-1.18057e-05,0.51122,0.3805500407351896,0.9522391580913319,-6.084641488546261e-06,-0.06176919549134452,-1.180563031299986e-05,-0.22658770299000575
687,0.6756,694.223,231.431,0.00270547,400.796,-0.00274615,-0.0122564,0.322856,-0.0638335,-0.257242,0.669753,-5.91921e-06,-1.19129e-05,0.511816,0.3810664630153713,0.953754683625867,-5.919192481496083e-06,-0.06183880963432242,-1.1912829041671458e-05,-0.2268189186983408
688,0.6766,694.367,231.441,0.013469,400.887,-0.0149964,-0.00507188,0.323229,-0.0639082,-0.25754,0.670528,-6.11847e-06,-1.18431e-05,0.512411,0.38158169689122023,0.9552694303942335,-6.118451282177695e-06,-0.06190888765779601,-1.1843029870783894e-05,-0.22704929233319215
689,0.6776,694.526,231.531,0.00292825,400.971,-0.00304038,-0.0120873,0.323601,-0.0639824,-0.257838,0.671302,-5.96155e-06,-1.19461e-05,0.513007,0.38209574088871934,0.9567833947619873,-5.961532229981081e-06,-0.06197849143599965,-1.1946028645626328e-05,-0.22727959732692848
690,0.6786,694.67,231.542,0.0131854,401.061,-0.0147082,-0.0052432,0.323974,-0.0640569,-0.258135,0.672076,-6.15226e-06,-1.18805e-05,0.513602,0.38261135875682517,0.9582985313917687,-6.152241074919296e-06,-0.06204837143532538,-1.1880429427124639e-05,-0.22750906120944914
691,0.6796,694.827,231.63,0.00314903,401.145,-0.00333182,-0.0119198,0.324346,-0.064131,-0.258433,0.672849,-6.00381e-06,-1.19792e-05,0.514196,0.3831257858597916,0.9598128813773983,-6.003791977127193e-06,-0.062117871076008524,-1.1979128249683946e-05,-0.22773922921247292
692,0.6806,694.971,231.643,0.0129045,401.235,-0.0144233,-0.00541265,0.324718,-0.0642054,-0.258731,0.673622,-6.18605e-06,-1.19178e-05,0.514791,0.38364040436523883,0.9613284024081175,-6.186030866439651e-06,-0.06218764691070733,-1.1917728983346088e-05,-0.22796932863565078
693,0.6816,695.128,231.729,0.00336696,401.319,-0.00361949,-0.0117545,0.32509,-0.0642794,-0.259028,0.674395,-6.04596e-06,-1.20124e-05,0.515385,0.38415521434438205,0.9628450953894938,-6.0459417232650026e-06,-0.06225704245716901,-1.201232785141837e-05,-0.22819858769838997
694,0.6826,695.271,231.744,0.0126272,401.408,-0.0141426,-0.00557966,0.325462,-0.0643538,-0.259325,0.675167,-6.21985e-06,-1.1955e-05,0.515978,0.3846702158684625,0.9643609968658164,-6.219830656739589e-06,-0.06232680793790213,-1.1954928539226195e-05,-0.22842777868129782
695,0.6836,695.427,231.828,0.00358123,401.492,-0.00390249,-0.0115918,0.325833,-0.0644277,-0.259622,0.675938,-6.08801e-06,-1.20455e-05,0.516571,0.38518402382403205,0.9658761031928358,-6.0879914680622704e-06,-0.06239609942644353,-1.2045427453255542e-05,-0.22865690160459118
696,0.6846,695.571,231.845,0.0123542,401.581,-0.013867,-0.00574374,0.326204,-0.064502,-0.259918,0.676709,-6.25368e-06,-1.19921e-05,0.517164,0.385698022437718,0.9673923781172695,-6.253660445820763e-06,-0.06246576080830368,-1.1992028095098028e-05,-0.22888518537405156
697,0.6856,695.726,231.927,0.0037911,401.664,-0.00417999,-0.0114323,0.326575,-0.0645758,-0.260215,0.67748,-6.12992e-06,-1.20786e-05,0.517757,0.38621221178026777,0.9689098225404538,-6.1299012120707985e-06,-0.06253494828210693,-1.207852705398249e-05,-0.2291141724677288
698,0.6866,695.87,231.946,0.0120864,401.753,-0.0135974,-0.00590441,0.326946,-0.06465,-0.260511,0.67825,-6.28755e-06,-1.20291e-05,0.518349,0.3867265919224545,0.9704264669369678,-6.287530233350935e-06,-0.06260450560833564,-1.2029027650628521e-05,-0.2293423209050438
699,0.6876,696.024,232.026,0.0039959,401.837,-0.00445124,-0.0112764,0.327316,-0.0647237,-0.260808,0.67902,-6.1717e-06,-1.21117e-05,0.518941,0.3872397756946091,0.9719442795993916,-6.17168095506937e-06,-0.06267358911051402,-1.2111626653710239e-05,-0.22957117224962809
700,0.6886,696.167,232.046,0.0118242,401.925,-0.0133343,-0.00606125,0.327687,-0.0647978,-0.261104,0.679789,-6.32147e-06,-1.2066e-05,0.519532,0.38775453713373453,0.9734612879653619,-6.321450019552977e-06,-0.06274304242428386,-1.206592720615074e-05,-0.22979918543502598
701,0.6896,696.321,232.124,0.00419501,402.008,-0.00471557,-0.0111244,0.328057,-0.0648715,-0.2614,0.680558,-6.21334e-06,-1.21449e-05,0.520123,0.38826810131598877,0.9749794633594306,-6.213320697279201e-06,-0.06281211571667511,-1.214482625100377e-05,-0.2300271311385088
702,0.6906,696.464,232.145,0.0115683,402.096,-0.0130785,-0.00621389,0.328427,-0.0649454,-0.261695,0.681327,-6.35544e-06,-1.21028e-05,0.520714,0.3887818555521483,0.9764988066793872,-6.355419804204843e-06,-0.06288137134229677,-1.210272676144264e-05,-0.23025423963467273
703,0.6916,696.617,232.221,0.0043879,402.179,-0.00497239,-0.0109769,0.328796,-0.065019,-0.261991,0.682095,-6.25482e-06,-1.2178e-05,0.521305,0.38929441061744074,0.9780173408053823,-6.254800438698638e-06,-0.06295034073526118,-1.2177925848511073e-05,-0.23048205066204552
704,0.6926,696.76,232.245,0.0113192,402.267,-0.0128305,-0.00636201,0.329166,-0.0650929,-0.262286,0.682862,-6.38949e-06,-1.21396e-05,0.521895,0.3898085446583013,0.979535062077483,-6.389469587197993e-06,-0.06301958614643133,-1.2139526315402271e-05,-0.23070902497674284
705,0.6936,696.912,232.319,0.00457411,402.35,-0.0052212,-0.010834,0.329535,-0.0651664,-0.262581,0.683629,-6.29614e-06,-1.22111e-05,0.522485,0.39032147864178013,0.9810539478883429,-6.29612017932768e-06,-0.0630884516760104,-1.221102544479713e-05,-0.23093593234389242
706,0.6946,697.055,232.344,0.0110772,402.437,-0.0125908,-0.00650533,0.329904,-0.0652402,-0.262876,0.684396,-6.42361e-06,-1.21762e-05,0.523074,0.3908346019328237,0.9825739991315059,-6.423589368642624e-06,-0.06315759319692316,-1.2176125870344556e-05,-0.23116277278324115
707,0.6956,697.206,232.416,0.00475324,402.52,-0.00546155,-0.010696,0.330273,-0.0653137,-0.263171,0.685162,-6.33729e-06,-1.22443e-05,0.523663,0.3913479146012999,0.9840932326069769,-6.337269919387545e-06,-0.0632264485833568,-1.2244225038871015e-05,-0.23138954631452957
708,0.6966,697.349,232.442,0.0108429,402.607,-0.0123597,-0.00664361,0.330641,-0.0653873,-0.263466,0.685927,-6.45781e-06,-1.22127e-05,0.524252,0.39186002485638083,0.9856116446484757,-6.457789148428539e-06,-0.06329539257957084,-1.2212625425278567e-05,-0.23161625295749289
709,0.6976,697.5,232.513,0.00492495,402.69,-0.0056931,-0.0105631,0.33101,-0.0654607,-0.26376,0.686693,-6.37827e-06,-1.22775e-05,0.52484,0.39237371597573567,0.9871332058518187,-6.378249658878232e-06,-0.06336414417454106,-1.2277424631834677e-05,-0.2318421245743687
710,0.6986,697.642,232.541,0.0106164,402.776,-0.0121377,-0.00677666,0.331378,-0.0655343,-0.264054,0.687457,-6.4921e-06,-1.22491e-05,0.525428,0.3928862037951899,0.9886519557096611,-6.492078926334521e-06,-0.06343307803673259,-1.2249024980093282e-05,-0.23206792979475
711,0.6996,697.792,232.61,0.00508898,402.859,-0.00591555,-0.0104356,0.331746,-0.0656076,-0.264348,0.688222,-6.41906e-06,-1.23107e-05,0.526016,0.39339888024486735,0.9901738565086136,-6.41903939790911e-06,-0.06350172587613845,-1.2310624223688116e-05,-0.23229366863815437
712,0.7006,697.935,232.639,0.0103979,402.945,-0.0119248,-0.00690433,0.332113,-0.0656811,-0.264642,0.688986,-6.52647e-06,-1.22854e-05,0.526603,0.3939103514831488,0.9916949303111917,-6.526448702692811e-06,-0.06357055596974959,-1.22853245347887e-05,-0.23251934112409378
713,0.7016,698.084,232.707,0.00524513,403.027,-0.00612871,-0.0103134,0.332481,-0.0657543,-0.264936,0.689749,-6.45968e-06,-1.23439e-05,0.52719,0.3944234048885311,0.9932151734420203,-6.459659136259788e-06,-0.06363910009630702,-1.2343823814431332e-05,-0.2327449472720745
714,0.7026,698.226,232.737,0.0101878,403.113,-0.0117214,-0.00702652,0.332848,-0.0658277,-0.26523,0.690512,-6.56094e-06,-1.23215e-05,0.527777,0.39493525219636116,0.9947365769609895,-6.560918477060973e-06,-0.06370782646407136,-1.2321424090577793e-05,-0.23297048710159707
715,0.7036,698.375,232.803,0.00539325,403.195,-0.00633243,-0.0101968,0.333215,-0.0659008,-0.265523,0.691275,-6.50012e-06,-1.23771e-05,0.528363,0.3954472873866275,0.9962591417538134,-6.5000988742625054e-06,-0.0637762669204277,-1.2377023404064325e-05,-0.23319519382773335
716,0.7046,698.517,232.834,0.00998601,403.281,-0.0115275,-0.00714316,0.333582,-0.0659741,-0.265816,0.692037,-6.59551e-06,-1.23576e-05,0.528949,0.3959595105282958,0.9977808709250122,-6.595488249661052e-06,-0.06384488960501034,-1.235752364514564e-05,-0.2334198347244434
717,0.7056,698.665,232.899,0.00553325,403.363,-0.00652663,-0.0100857,0.333948,-0.0660472,-0.266109,0.692798,-6.54037e-06,-1.24104e-05,0.529534,0.3964705252191332,0.9993017607929826,-6.540348611805413e-06,-0.06391332004241723,-1.24103229912631e-05,-0.2336444098110122
718,0.7066,698.807,232.931,0.00979266,403.448,-0.0113432,-0.00725422,0.334315,-0.0661204,-0.266402,0.693559,-6.63017e-06,-1.23935e-05,0.53012,0.3969831239580035,1.000823808498644,-6.630148020492221e-06,-0.06398183907956279,-1.2393423200918186e-05,-0.2338689191067197
719,0.7076,698.954,232.995,0.00566511,403.53,-0.00671129,-0.00998026,0.334681,-0.0661934,-0.266695,0.69432,-6.58044e-06,-1.24437e-05,0.530705,0.39749451335992414,1.002347014923446,-6.580418349000361e-06,-0.06405016591135027,-1.2443622577462676e-05,-0.23409336263083946
720,0.7086,699.096,233.028,0.00960775,403.615,-0.0111684,-0.0073597,0.335047,-0.0662665,-0.266988,0.695081,-6.66492e-06,-1.24293e-05,0.531289,0.39800608996462183,1.0038713809495095,-6.664897789443458e-06,-0.0641185813436076,-1.2429222756571434e-05,-0.23431774040263975
721,0.7096,699.242,233.09,0.00578884,403.696,-0.00688645,-0.00988034,0.335413,-0.0663394,-0.26728,0.69584,-6.62033e-06,-1.2477e-05,0.531873,0.3985178538406253,1.005392896669823,-6.620308085625304e-06,-0.06418680461225934,-1.2476922162552029e-05,-0.2345412869830531
722,0.7106,699.384,233.125,0.00943124,403.781,-0.0110032,-0.00745963,0.335778,-0.0664124,-0.267572,0.6966,-6.69978e-06,-1.2465e-05,0.532457,0.3990284060273832,1.0069175745755086,-6.699757556516417e-06,-0.06425511648210902,-1.2464922312216409e-05,-0.23476476829739423
723,0.7116,699.53,233.186,0.00590449,403.863,-0.00705219,-0.00978593,0.336144,-0.0664853,-0.267864,0.697359,-6.66003e-06,-1.25103e-05,0.533041,0.39954054413954654,1.0084414032344333,-6.6600078220124814e-06,-0.06432332979771194,-1.2510221746531158e-05,-0.23498818436471813
724,0.7126,699.671,233.221,0.00926304,403.947,-0.0108473,-0.00755408,0.336509,-0.0665582,-0.268156,0.698117,-6.73472e-06,-1.25006e-05,0.533624,0.4000514696763957,1.0099643789529615,-6.734697321819638e-06,-0.06439153814074539,-1.250052186785311e-05,-0.23521153520407412
725,0.7136,699.816,233.281,0.00601218,404.028,-0.00720867,-0.00969697,0.336874,-0.066631,-0.268448,0.698875,-6.69956e-06,-1.25436e-05,0.534207,0.40056258173510395,1.0114885095247188,-6.699537558052526e-06,-0.06445964795754133,-1.2543521329400065e-05,-0.23543482083450595
726,0.7146,699.957,233.317,0.00910303,404.112,-0.0107007,-0.00764313,0.337238,-0.0667038,-0.268739,0.699633,-6.76976e-06,-1.25361e-05,0.53479,0.4010724793105842,1.0130137958254153,-6.769737085243754e-06,-0.06452775281612311,-1.2536021423481536e-05,-0.235657276932711
727,0.7156,700.102,233.375,0.00611204,404.193,-0.00735604,-0.00961335,0.337603,-0.0667765,-0.269031,0.70039,-6.73891e-06,-1.2577e-05,0.535372,0.4015839641058292,1.014538224192194,-6.738887293633589e-06,-0.06459575917643223,-1.2576920909834755e-05,-0.23588043242555912
728,0.7166,700.243,233.412,0.00895104,404.277,-0.0105631,-0.0077269,0.337967,-0.0668492,-0.269322,0.701147,-6.80489e-06,-1.25715e-05,0.535954,0.40209423353216533,1.0160638069881434,-6.804866846787938e-06,-0.06466376059285861,-1.2571420978990666e-05,-0.23610275886965681
729,0.7176,700.387,233.47,0.00620425,404.358,-0.00749452,-0.00953494,0.338331,-0.0669218,-0.269613,0.701903,-6.77808e-06,-1.26104e-05,0.536535,0.4026046887303809,1.01758852749796,-6.778057028866691e-06,-0.06473166353893278,-1.2610320489270244e-05,-0.23632502062617167
730,0.7186,700.527,233.508,0.00880689,404.441,-0.0104344,-0.00780552,0.338695,-0.0669945,-0.269904,0.702659,-6.8401e-06,-1.26067e-05,0.537116,0.4031153297681096,1.0191144011323074,-6.840076606562384e-06,-0.06479965507547125,-1.2606620535926538e-05,-0.23654721771392517
731,0.7196,700.671,233.564,0.006289,404.522,-0.00762436,-0.00946162,0.339058,-0.067067,-0.270195,0.703415,-6.81709e-06,-1.26438e-05,0.537697,0.4036247530875541,1.020641428763279,-6.817066763642465e-06,-0.06486745464271426,-1.2643720067484487e-05,-0.23676935015173317
732,0.7206,700.811,233.603,0.00867036,404.605,-0.0103142,-0.00787915,0.339422,-0.0671396,-0.270485,0.70417,-6.8754e-06,-1.26419e-05,0.538278,0.40413576549629404,1.0221675890950244,-6.875376364456898e-06,-0.06493534280113722,-1.2641820091530143e-05,-0.2369906549494425
733,0.7216,700.954,233.658,0.00636654,404.686,-0.00774583,-0.00939321,0.339785,-0.067212,-0.270775,0.704924,-6.85593e-06,-1.26772e-05,0.538858,0.4046455593011469,1.023692878419015,-6.855906498182129e-06,-0.06500303903168525,-1.2677119644588508e-05,-0.23721189557806555
734,0.7226,701.094,233.697,0.00854121,404.768,-0.0102023,-0.00794793,0.340148,-0.0672845,-0.271066,0.705678,-6.91078e-06,-1.26769e-05,0.539438,0.40515553819474226,1.0252193182448401,-6.910756120581674e-06,-0.06507082385412599,-1.2676819648449467e-05,-0.23743383462275514
735,0.7236,701.237,233.752,0.0064371,404.849,-0.00785923,-0.00932956,0.340511,-0.0673568,-0.271356,0.706432,-6.89461e-06,-1.27106e-05,0.540017,0.40566570224428,1.0267469094403054,-6.894586232264466e-06,-0.06513841679004728,-1.2710519220693328e-05,-0.23765494674790677
736,0.7246,701.377,233.792,0.00841917,404.931,-0.0100984,-0.00801206,0.340873,-0.0674292,-0.271645,0.707185,-6.94623e-06,-1.27119e-05,0.540596,0.4061746453416353,1.0282736245992328,-6.946205875046907e-06,-0.06520609831857083,-1.2711819204147545e-05,-0.23787523263545274
737,0.7256,701.518,233.846,0.00650095,405.012,-0.00796487,-0.00927048,0.341236,-0.0675015,-0.271935,0.707938,-6.93313e-06,-1.27441e-05,0.541175,0.4066851793942188,1.0298014898076144,-6.9331059658894745e-06,-0.06527368147450185,-1.274401879425291e-05,-0.2380962167737396
738,0.7266,701.658,233.886,0.00830397,405.093,-0.0100022,-0.00807172,0.341598,-0.0675738,-0.272225,0.70869,-6.98175e-06,-1.27467e-05,0.541754,0.4071944916091086,1.0313284746022728,-6.981725627630553e-06,-0.06534125974434735,-1.2746618761161344e-05,-0.23831713683591793
739,0.7276,701.799,233.939,0.00655837,405.174,-0.00806308,-0.00921578,0.34196,-0.067646,-0.272514,0.709442,-6.97151e-06,-1.27775e-05,0.542332,0.40770398822839526,1.0328566081213633,-6.97148569905881e-06,-0.06540873966933913,-1.2777418368137283e-05,-0.23853723137817906
740,0.7286,701.938,233.979,0.00819533,405.255,-0.00991325,-0.00812711,0.342322,-0.0677182,-0.272803,0.710194,-7.01734e-06,-1.27815e-05,0.54291,0.4082136693188454,1.034385891229051,-7.017315378554656e-06,-0.06547621472245635,-1.2781418316953896e-05,-0.23875726232230798
741,0.7296,702.079,234.032,0.00660967,405.336,-0.00815421,-0.00916526,0.342683,-0.0677903,-0.273092,0.710945,-7.00973e-06,-1.2811e-05,0.543487,0.40872212622441917,1.0359142888748454,-7.009705431881841e-06,-0.06554359145841426,-1.2810917939476418e-05,-0.23897722968668167
742,0.7306,702.218,234.073,0.00809294,405.417,-0.0098313,-0.00817843,0.343044,-0.0678625,-0.273381,0.711695,-7.05299e-06,-1.28161e-05,0.544064,0.40923076671607106,1.037441797335572,-7.052965127707367e-06,-0.06561105677558376,-1.2816017874173191e-05,-0.2391971334896721
743,0.7316,702.359,234.125,0.00665512,405.497,-0.00823859,-0.00911872,0.343405,-0.0679345,-0.27367,0.712446,-7.04782e-06,-1.28444e-05,0.544641,0.4097395908600876,1.0389724908288351,-7.0477951641390035e-06,-0.06567833035761794,-1.2844317511029324e-05,-0.239416973749646
744,0.7326,702.497,234.166,0.0079965,405.578,-0.00975599,-0.00822587,0.343766,-0.0680066,-0.273958,0.713196,-7.0887e-06,-1.28507e-05,0.545218,0.4102485987227795,1.040502293801362,-7.0886748751997075e-06,-0.06574569252156393,-1.2850617430060218e-05,-0.23963599012133463
745,0.7336,702.637,234.217,0.00669505,405.658,-0.00831659,-0.00907596,0.344127,-0.0680785,-0.274247,0.713945,-7.08577e-06,-1.28779e-05,0.545794,0.4107577903704809,1.0420312025242593,-7.085744895940493e-06,-0.06581286299146427,-1.2877817080148013e-05,-0.23985570357006702
746,0.7346,702.775,234.259,0.00790571,405.738,-0.00968697,-0.00826965,0.344487,-0.0681505,-0.274535,0.714694,-7.12446e-06,-1.28852e-05,0.54637,0.41126575460309,1.043561256828757,-7.124434621141873e-06,-0.06588012204397398,-1.2885116986161016e-05,-0.24007459360576078
747,0.7356,702.915,234.31,0.00672974,405.818,-0.00838855,-0.00903676,0.344848,-0.0682223,-0.274823,0.715442,-7.1236e-06,-1.29113e-05,0.546945,0.4117753135103508,1.0450904124817817,-7.123574627176943e-06,-0.06594718944346278,-1.2911216649480473e-05,-0.2402934206102011
748,0.7366,703.053,234.352,0.00782026,405.898,-0.00962387,-0.00830998,0.345208,-0.0682942,-0.275111,0.71619,-7.16027e-06,-1.29196e-05,0.54752,0.4122836441172337,1.0466207123711255,-7.160244365311819e-06,-0.06601434542625528,-1.2919516542364562e-05,-0.24051218460153856
749,0.7376,703.192,234.402,0.00675951,405.978,-0.00845483,-0.00900094,0.345568,-0.068366,-0.275398,0.716938,-7.1613e-06,-1.29448e-05,0.548095,0.4127921577560789,1.0481521573529982,-7.161274357958547e-06,-0.06608140318885114,-1.2944716216489738e-05,-0.24073012632842417
750,0.7386,703.329,234.444,0.00773984,406.058,-0.00956636,-0.00834706,0.345927,-0.0684378,-0.275686,0.717685,-7.19612e-06,-1.29539e-05,0.54867,0.41329944119264206,1.0496826986005257,-7.196094108041784e-06,-0.06614845613687259,-1.2953816098559834e-05,-0.24094876456662406
751,0.7396,703.468,234.494,0.00678466,406.137,-0.00851578,-0.00896828,0.346287,-0.0685095,-0.275973,0.718432,-7.19888e-06,-1.29782e-05,0.549244,0.413808320584266,1.0512143835894991,-7.198854088175111e-06,-0.06621541089221084,-1.2978115783490729e-05,-0.24116658101303823
752,0.7406,703.605,234.536,0.00766415,406.217,-0.00951409,-0.00838109,0.346646,-0.0685812,-0.27626,0.719178,-7.232e-06,-1.29881e-05,0.549818,0.4143159688887741,1.052745160428426,-7.231973849108897e-06,-0.06628236084706529,-1.2988015654968876e-05,-0.24138433495510214
753,0.7416,703.743,234.585,0.00680549,406.296,-0.00857173,-0.00893858,0.347005,-0.0686529,-0.276547,0.719924,-7.23635e-06,-1.30117e-05,0.550391,0.41482379947174075,1.0542770796529317,-7.236323817716439e-06,-0.06634930600178013,-1.3011615348168526e-05,-0.2416020264107519
754,0.7426,703.88,234.628,0.0075929,406.376,-0.00946672,-0.00841227,0.347364,-0.0687245,-0.276834,0.720669,-7.26792e-06,-1.30223e-05,0.550964,0.4153318123986154,1.0558080863064392,-7.26789358873603e-06,-0.06641615299831938,-1.3022215210267696e-05,-0.2418196553979185
755,0.7436,704.018,234.676,0.00682228,406.455,-0.00862303,-0.00891166,0.347722,-0.068796,-0.277121,0.721415,-7.27371e-06,-1.30451e-05,0.551537,0.4158385918955714,1.0573422913261457,-7.273683546582532e-06,-0.06648290185707983,-1.3045014913060093e-05,-0.24203722193452792
756,0.7446,704.154,234.719,0.0075258,406.534,-0.00942393,-0.00844079,0.348081,-0.0688676,-0.277407,0.722159,-7.30387e-06,-1.30564e-05,0.55211,0.4163469691983277,1.0588735235386424,-7.303843326811332e-06,-0.06654973928849828,-1.3056314765558241e-05,-0.24225396829284795
757,0.7456,704.292,234.768,0.00683532,406.613,-0.00866999,-0.00888732,0.348439,-0.0689391,-0.277694,0.722903,-7.31096e-06,-1.30785e-05,0.552682,0.4168541121864793,1.0604058954118067,-7.310933274995435e-06,-0.06661647859618047,-1.3078414476841438e-05,-0.24247141019954177
758,0.7466,704.428,234.811,0.00746256,406.692,-0.00938541,-0.00846684,0.348797,-0.0690105,-0.27798,0.723647,-7.33984e-06,-1.30904e-05,0.553254,0.417361436764323,1.0619394077938615,-7.339813063445e-06,-0.06668311980048947,-1.3090314321062557e-05,-0.2426880323977738
759,0.7476,704.565,234.858,0.00684488,406.771,-0.00871293,-0.00886538,0.349155,-0.0690819,-0.278266,0.72439,-7.34812e-06,-1.31119e-05,0.553825,0.41786894299688004,1.0634719980606309,-7.3480930026237345e-06,-0.06674975624678625,-1.3111814039401537e-05,-0.24290459265091568
760,0.7486,704.701,234.902,0.00740293,406.85,-0.00935083,-0.0084906,0.349512,-0.0691533,-0.278552,0.725133,-7.37583e-06,-1.31243e-05,0.554397,0.41837521257327226,1.0650057274651061,-7.375802798637032e-06,-0.06681638793541056,-1.3124213876780644e-05,-0.24312109097668122
761,0.7496,704.837,234.949,0.00685123,406.928,-0.00875216,-0.00884566,0.34987,-0.0692246,-0.278838,0.725876,-7.38519e-06,-1.31453e-05,0.554968,0.4188830818025413,1.0665405968539803,-7.385162729578454e-06,-0.06688292155499909,-1.3145213600962435e-05,-0.24333752739277903
762,0.7506,704.973,234.992,0.00734663,407.007,-0.00931992,-0.00851225,0.350227,-0.0692959,-0.279123,0.726618,-7.41184e-06,-1.31581e-05,0.555538,0.4193897134911204,1.0680745389990038,-7.4118125323874295e-06,-0.06694945043090961,-1.3158013432601479e-05,-0.2435531454704366
763,0.7516,705.109,235.039,0.00685461,407.085,-0.00878795,-0.008828,0.350584,-0.0693671,-0.279409,0.727359,-7.42216e-06,-1.31787e-05,0.556108,0.4198965260795011,1.0696075501428854,-7.422132455858765e-06,-0.06701588126507318,-1.3178613161302088e-05,-0.24376945833661778
764,0.7526,705.244,235.083,0.00729343,407.163,-0.00929239,-0.00853194,0.350941,-0.0694383,-0.279694,0.728101,-7.44786e-06,-1.31919e-05,0.556678,0.42040351963227596,1.0711437688117353,-7.447832264806387e-06,-0.06708230736952969,-1.319181298731209e-05,-0.2439849533314964
765,0.7536,705.379,235.13,0.00685527,407.241,-0.00882059,-0.00881224,0.351297,-0.0695095,-0.279979,0.728841,-7.45905e-06,-1.3212e-05,0.557248,0.4209092733040771,1.072676982419725,-7.4590221813553015e-06,-0.06714872874461597,-1.3211912721966534e-05,-0.24420038691905244
766,0.7546,705.514,235.173,0.00724308,407.319,-0.00926797,-0.00854984,0.351654,-0.0695806,-0.280264,0.729582,-7.48389e-06,-1.32257e-05,0.557817,0.4214166284721559,1.0742134052380505,-7.483861995782881e-06,-0.0672150521121786,-1.3225612540801457e-05,-0.2444157591167846
767,0.7556,705.649,235.219,0.00685344,407.397,-0.00885033,-0.00879822,0.35201,-0.0696517,-0.280549,0.730322,-7.49586e-06,-1.32454e-05,0.558386,0.4219227428749104,1.0757488912176703,-7.495831906068062e-06,-0.0672813707643174,-1.3245312280085741e-05,-0.2446310699421863
768,0.7566,705.784,235.263,0.00719536,407.475,-0.00924642,-0.00856609,0.352366,-0.0697227,-0.280833,0.731061,-7.51992e-06,-1.32594e-05,0.558955,0.42242903748646743,1.0772834365929587,-7.519891725427108e-06,-0.06734759143613145,-1.3259312094504594e-05,-0.2448455642586881
769,0.7576,705.919,235.309,0.00684933,407.553,-0.00887743,-0.0087858,0.352722,-0.0697937,-0.281117,0.7318,-7.5326e-06,-1.32787e-05,0.559523,0.422935512370993,1.078819116416407,-7.532571629997875e-06,-0.06741380740644476,-1.3278611838418719e-05,-0.24505999766745323
770,0.7586,706.053,235.353,0.00715006,407.63,-0.0092275,-0.00858085,0.353077,-0.0698647,-0.281402,0.732539,-7.55595e-06,-1.3293e-05,0.560091,0.4234407441512198,1.0803559315266815,-7.55592145385009e-06,-0.06748001867559095,-1.3292911648421502e-05,-0.24527512491102965
771,0.7596,706.187,235.398,0.00684314,407.708,-0.00890211,-0.00877485,0.353432,-0.0699356,-0.281686,0.733277,-7.56926e-06,-1.3312e-05,0.560659,0.4239461553205681,1.0818918008702272,-7.569231353254935e-06,-0.06754613199852189,-1.3311911395752496e-05,-0.24548943634189135
772,0.7606,706.321,235.442,0.00710698,407.785,-0.00921097,-0.00859423,0.353788,-0.0700065,-0.28197,0.734015,-7.59199e-06,-1.33265e-05,0.561226,0.4244531703951908,1.0834288041037023,-7.591961180941631e-06,-0.06761224063418436,-1.332641120255218e-05,-0.24570368691694855
773,0.7616,706.455,235.488,0.00683508,407.862,-0.0089246,-0.00876523,0.354142,-0.0700773,-0.282254,0.734753,-7.60585e-06,-1.33452e-05,0.561793,0.4249575160814303,1.0849669420642272,-7.6058210756180245e-06,-0.06767825135074057,-1.3345110953189021e-05,-0.24591787665348186
774,0.7626,706.588,235.531,0.00706593,407.94,-0.00919664,-0.00860636,0.354497,-0.0701481,-0.282537,0.73549,-7.62802e-06,-1.336e-05,0.56236,0.42546346580040084,1.086504129084366,-7.627990906700077e-06,-0.06774425739390344,-1.3359910755572635e-05,-0.24613125170039574
775,0.7636,706.722,235.577,0.00682531,408.017,-0.0089451,-0.00875684,0.354852,-0.0702189,-0.282821,0.736226,-7.64238e-06,-1.33785e-05,0.562926,0.4259695951634064,1.0880403613875123,-7.642350797087971e-06,-0.06781025876400382,-1.3378410508302352e-05,-0.2463453200257718
776,0.7646,706.855,235.62,0.00702674,408.094,-0.00918431,-0.00861737,0.355206,-0.0702896,-0.283104,0.736962,-7.66404e-06,-1.33935e-05,0.563492,0.42647447775904124,1.0895777247738208,-7.664010631347473e-06,-0.06787616224899362,-1.3393410307482867e-05,-0.24655857412332638
777,0.7656,706.988,235.665,0.00681401,408.17,-0.0089638,-0.00874955,0.35556,-0.0703603,-0.283387,0.737698,-7.67885e-06,-1.34117e-05,0.564058,0.4269795391147535,1.0911162200760756,-7.678820517664775e-06,-0.06794206107477163,-1.3411610063518431e-05,-0.2467717678785103
778,0.7666,707.121,235.709,0.00698925,408.247,-0.00917379,-0.00862735,0.355914,-0.0704309,-0.28367,0.738433,-7.70005e-06,-1.34268e-05,0.564623,0.42748477929383566,1.0926537554728721,-7.700020354661774e-06,-0.06800786204245823,-1.3426709860930863e-05,-0.2469849013083979
779,0.7676,707.254,235.754,0.00680132,408.324,-0.00898087,-0.00874327,0.356268,-0.0705015,-0.283953,0.739168,-7.71525e-06,-1.34448e-05,0.565189,0.42799019835960217,1.0941924213735943,-7.715220237569653e-06,-0.06807365836476054,-1.3444709619059303e-05,-0.24719797443005886
780,0.7686,707.386,235.797,0.0069533,408.4,-0.00916492,-0.00863641,0.356621,-0.0705721,-0.284235,0.739903,-7.73605e-06,-1.34602e-05,0.565753,0.42849436788030815,1.0957322186094682,-7.736020076865024e-06,-0.0681394500420065,-1.3460109411944643e-05,-0.24741023467116885
781,0.7696,707.519,235.842,0.00678741,408.477,-0.00899648,-0.0087379,0.356975,-0.0706426,-0.284518,0.740637,-7.7516e-06,-1.3478e-05,0.566318,0.4290001444037006,1.0972710507402317,-7.751569956471194e-06,-0.06820514389504295,-1.3477909172165958e-05,-0.2476231874405188
782,0.7706,707.651,235.885,0.00691875,408.553,-0.00915754,-0.00864464,0.357328,-0.0707131,-0.2848,0.741371,-7.77204e-06,-1.34935e-05,0.566882,0.42950467049829166,1.098811012788408,-7.77200979773518e-06,-0.06827083311682614,-1.3493408963172193e-05,-0.24783532778846562
783,0.7716,707.783,235.93,0.00677239,408.629,-0.00901079,-0.00873336,0.357681,-0.0707835,-0.285082,0.742104,-7.7879e-06,-1.35111e-05,0.567446,0.4300093747220324,1.100350005232606,-7.787869674369396e-06,-0.06833642454132949,-1.3511008725486384e-05,-0.2480474083212687
784,0.7726,707.914,235.973,0.00688548,408.705,-0.00915151,-0.00865213,0.358034,-0.0708539,-0.285364,0.742837,-7.80802e-06,-1.35267e-05,0.568009,0.4305142571378129,1.1018901261718081,-7.807989517494285e-06,-0.0684020113483591,-1.3526608514613514e-05,-0.24825942905579357
785,0.7736,708.046,236.018,0.00675639,408.781,-0.00902392,-0.00872955,0.358386,-0.0709243,-0.285646,0.743569,-7.82414e-06,-1.35442e-05,0.568572,0.4310178867899439,1.1034292730031803,-7.824109391485479e-06,-0.06846759353823995,-1.3544108277696587e-05,-0.24847139000890073
786,0.7746,708.177,236.061,0.00685336,408.857,-0.0091467,-0.00865895,0.358739,-0.0709946,-0.285928,0.744301,-7.84398e-06,-1.35599e-05,0.569135,0.4315231252733267,1.1049695469024892,-7.84394923603049e-06,-0.06853307796460972,-1.3559808064944612e-05,-0.24868329119744637
787,0.7756,708.309,236.105,0.00673952,408.933,-0.00903602,-0.00872642,0.359091,-0.0710649,-0.286209,0.745033,-7.86033e-06,-1.35772e-05,0.569698,0.4320271101095503,1.1065109486950515,-7.860299107709245e-06,-0.06859855778758606,-1.3577107830231583e-05,-0.24889438153303878
788,0.7766,708.44,236.148,0.0068223,409.009,-0.00914299,-0.00866518,0.359443,-0.0711351,-0.286491,0.745764,-7.87992e-06,-1.3593e-05,0.57026,0.4325312723796628,1.1080513711543611,-7.879888953565839e-06,-0.0686639398738913,-1.3592907615600502e-05,-0.24910616345479197
789,0.7776,708.571,236.192,0.00672188,409.084,-0.00904719,-0.00872388,0.359794,-0.0712053,-0.286772,0.746495,-7.89648e-06,-1.36103e-05,0.570822,0.4330341791112362,1.10959292007416,-7.896448822930502e-06,-0.06872931737053511,-1.3610207380332362e-05,-0.24931713497997365
790,0.7786,708.701,236.236,0.00679218,409.16,-0.00914026,-0.00867089,0.360146,-0.0712755,-0.287053,0.747225,-7.91584e-06,-1.36261e-05,0.571384,0.4335386959320344,1.1111334851436507,-7.915808669767266e-06,-0.0687946902778398,-1.362600716514617e-05,-0.24952804723048527
791,0.7796,708.832,236.279,0.00670357,409.235,-0.00905754,-0.00872189,0.360497,-0.0713456,-0.287334,0.747955,-7.93258e-06,-1.36432e-05,0.571945,0.4340419563313398,1.1126751752362254,-7.93254853714842e-06,-0.0688599654821287,-1.3643106931970905e-05,-0.24973890022298062
792,0.7806,708.962,236.323,0.00676291,409.31,-0.00913842,-0.00867613,0.360848,-0.0714157,-0.287615,0.748685,-7.95174e-06,-1.36592e-05,0.572506,0.43454539340605014,1.1142179911734509,-7.951708384967837e-06,-0.06892523611078616,-1.3659106713581615e-05,-0.24994969397410893
793,0.7816,709.093,236.366,0.00668468,409.385,-0.00906717,-0.00872038,0.361199,-0.0714858,-0.287895,0.749414,-7.96863e-06,-1.36762e-05,0.573067,0.4350490072181892,1.1157598180166182,-7.968598250585046e-06,-0.06899050216413283,-1.3676106481175232e-05,-0.2501596786605682
794,0.7826,709.223,236.409,0.00673443,409.461,-0.00913738,-0.00868095,0.36155,-0.0715558,-0.288176,0.750143,-7.98762e-06,-1.36922e-05,0.573627,0.43555279782980283,1.1173027692613489,-7.98758809905653e-06,-0.06905567054806139,-1.369210626223083e-05,-0.25037035418956644
795,0.7836,709.352,236.453,0.00666528,409.535,-0.00907616,-0.0087193,0.361901,-0.0716257,-0.288456,0.750871,-8.00465e-06,-1.37091e-05,0.574187,0.43605676530295834,1.1188447268818438,-8.004617962908966e-06,-0.06912074128244139,-1.3709006030704352e-05,-0.25058022110765366
796,0.7846,709.482,236.496,0.00670664,409.61,-0.00913705,-0.00868541,0.362251,-0.0716957,-0.288736,0.751599,-8.02348e-06,-1.37252e-05,0.574747,0.4365594731395541,1.1203878074561922,-8.023447811922324e-06,-0.06918590054995066,-1.3725105809880844e-05,-0.25079002927122995
797,0.7856,709.612,236.539,0.00664543,409.685,-0.00908461,-0.00871861,0.362601,-0.0717655,-0.289016,0.752326,-8.04062e-06,-1.3742e-05,0.575306,0.437062356954687,1.121929889871251,-8.040587674340571e-06,-0.06925086910666323,-1.3741905579123248e-05,-0.25099977869674406
798,0.7866,709.741,236.582,0.00667949,409.76,-0.00913736,-0.00868956,0.362951,-0.0718354,-0.289296,0.753054,-8.05932e-06,-1.37581e-05,0.575865,0.43756541680996053,1.1234752172619977,-8.059287523787262e-06,-0.06931592619714089,-1.375800535774463e-05,-0.2512094694006405
799,0.7876,709.87,236.625,0.00662521,409.834,-0.00909257,-0.00871826,0.363301,-0.0719052,-0.289575,0.75378,-8.07655e-06,-1.37748e-05,0.576424,0.43806865276699924,1.1250174200215937,-8.076517384769666e-06,-0.06938088567838008,-1.3774705127866937e-05,-0.251418352818086
800,0.7886,709.999,236.668,0.00665291,409.909,-0.00913825,-0.00869343,0.363651,-0.071975,-0.289855,0.754507,-8.09513e-06,-1.3791e-05,0.576983,0.4385720648874496,1.1265628693887262,-8.095097234539494e-06,-0.06944584062560566,-1.3790904904609214e-05,-0.25162792633763487
801,0.7896,710.128,236.711,0.00660467,409.983,-0.00910012,-0.00871822,0.364,-0.0720447,-0.290134,0.755232,-8.11245e-06,-1.38077e-05,0.577541,0.43907421415804637,1.128105186491426,-8.112417094197077e-06,-0.06951069799020859,-1.380760467417641e-05,-0.25183669302188005
802,0.7906,710.257,236.754,0.00662684,410.057,-0.00913966,-0.00869706,0.364349,-0.0721144,-0.290413,0.755958,-8.13092e-06,-1.38238e-05,0.578099,0.4395765387093229,1.1296507518291508,-8.13088694417985e-06,-0.0695755508344108,-1.3823704451687568e-05,-0.25204540146834487
803,0.7916,710.385,236.797,0.00658386,410.132,-0.00910731,-0.00871846,0.364698,-0.0721841,-0.290692,0.756683,-8.14831e-06,-1.38404e-05,0.578656,0.44007903860246356,1.13119530845835,-8.148276802621979e-06,-0.06964039915852738,-1.384030422213467e-05,-0.2522540516932753
804,0.7926,710.513,236.839,0.00660124,410.206,-0.00914152,-0.00870048,0.365047,-0.0722537,-0.290971,0.757408,-8.16668e-06,-1.38566e-05,0.579213,0.44058171389867273,1.1327409852971324,-8.166646652707499e-06,-0.06970514993339283,-1.3856503997766723e-05,-0.25246264371291305
805,0.7936,710.641,236.882,0.00656282,410.28,-0.00911419,-0.00871895,0.365396,-0.0723233,-0.29125,0.758132,-8.18413e-06,-1.38732e-05,0.57977,0.441084564659177,1.1342856488712285,-8.18409651004437e-06,-0.0697698962017611,-1.3873103767658712e-05,-0.2526711775434951
806,0.7946,710.769,236.925,0.00657607,410.354,-0.00914381,-0.00870372,0.365744,-0.0723928,-0.291529,0.758856,-8.20243e-06,-1.38894e-05,0.580327,0.44158614935835416,1.1358314311866877,-8.202396360124098e-06,-0.06983454494740515,-1.3889303542735654e-05,-0.25287965320125383
807,0.7956,710.897,236.967,0.0065416,410.427,-0.00912082,-0.00871965,0.366092,-0.0724623,-0.291807,0.759579,-8.21992e-06,-1.39059e-05,0.580883,0.4420879086393821,1.1373761956765076,-8.2198862165761e-06,-0.0698991892001175,-1.3905803313396525e-05,-0.25308732379011456
808,0.7966,711.025,237.01,0.00655128,410.501,-0.00914646,-0.00870681,0.36644,-0.0725318,-0.292085,0.760302,-8.23814e-06,-1.39221e-05,0.581439,0.4425898425630257,1.1389220774348976,-8.238106066649209e-06,-0.06996382896021047,-1.3922003088029378e-05,-0.2532949366545757
809,0.7976,711.152,237.052,0.00652024,410.575,-0.00912723,-0.00872055,0.366788,-0.0726012,-0.292363,0.761025,-8.25568e-06,-1.39386e-05,0.581995,0.4430919511900715,1.1404690772699348,-8.255645921995125e-06,-0.07002837123083794,-1.3938502858135138e-05,-0.2535024918106823
810,0.7986,711.279,237.095,0.00652684,410.648,-0.00914945,-0.00870977,0.367136,-0.0726706,-0.292641,0.761747,-8.27383e-06,-1.39547e-05,0.58255,0.44359423458132663,1.142015053974156,-8.27379577195142e-06,-0.0700929090223873,-1.3954602633647895e-05,-0.2537099892744751
811,0.7996,711.407,237.137,0.00649875,410.721,-0.00913346,-0.00872163,0.367483,-0.0727399,-0.292919,0.762469,-8.2914e-06,-1.39712e-05,0.583105,0.44409524870164896,1.1435621472766013,-8.29136562641164e-06,-0.07015734935090878,-1.3971102403198543e-05,-0.25391742906199033
812,0.8006,711.534,237.179,0.00650272,410.795,-0.00915274,-0.00871262,0.36783,-0.0728092,-0.293197,0.763191,-8.3095e-06,-1.39874e-05,0.58366,0.44459643670403803,1.1451103579837456,-8.309465476252775e-06,-0.07022178521387035,-1.3987302176832195e-05,-0.2541248111892598
813,0.8016,711.66,237.222,0.00647718,410.868,-0.00913954,-0.00872286,0.368178,-0.0728785,-0.293474,0.763912,-8.3271e-06,-1.40038e-05,0.584215,0.4450992437473622,1.1466575402440329,-8.327065329827299e-06,-0.0702862166115813,-1.4003701947262748e-05,-0.2543313900040737
814,0.8026,711.787,237.264,0.00647888,410.941,-0.0091563,-0.00871538,0.368524,-0.0729477,-0.293751,0.764632,-8.34514e-06,-1.402e-05,0.584769,0.44559933459642664,1.1482036902202064,-8.345105179441425e-06,-0.07035055057941086,-1.4019901720230266e-05,-0.25453791160448036
815,0.8036,711.913,237.306,0.00645554,411.014,-0.0091455,-0.00872424,0.368871,-0.0730169,-0.294029,0.765352,-8.36276e-06,-1.40364e-05,0.585323,0.44610104460718425,1.149750953825221,-8.362725032240448e-06,-0.0704148800954838,-1.403630149021673e-05,-0.25474512126157745
816,0.8046,712.04,237.348,0.00645531,411.087,-0.00916011,-0.00871806,0.369218,-0.0730861,-0.294306,0.766072,-8.38075e-06,-1.40526e-05,0.585876,0.4466029287415243,1.151299331861178,-8.380714881628393e-06,-0.0704792051601083,-1.4052501262629136e-05,-0.254951528274297
817,0.8056,712.166,237.39,0.00643387,411.16,-0.00915138,-0.00872574,0.369564,-0.0731552,-0.294582,0.766792,-8.39839e-06,-1.40689e-05,0.586429,0.4471035399556147,1.1528488251307571,-8.398354733651914e-06,-0.07054343282794029,-1.4068801033495504e-05,-0.2551571332776976
818,0.8066,712.292,237.432,0.00643199,411.232,-0.00916415,-0.00872069,0.36991,-0.0732243,-0.294859,0.767511,-8.41634e-06,-1.40851e-05,0.586982,0.44760432441115405,1.1543972800388578,-8.416304582703482e-06,-0.07060765605779373,-1.4085000805463821e-05,-0.25536342617889385
819,0.8076,712.417,237.474,0.00641217,411.305,-0.00915718,-0.00872736,0.370256,-0.0732933,-0.295136,0.76823,-8.43399e-06,-1.41014e-05,0.587535,0.4481052821680944,1.155946848686379,-8.433954434061697e-06,-0.07067178191715817,-1.4101300575775078e-05,-0.2555696619448701
820,0.8086,712.543,237.516,0.00640889,411.378,-0.00916839,-0.00872327,0.370602,-0.0733623,-0.295412,0.768948,-8.45191e-06,-1.41176e-05,0.588087,0.4486064132864087,1.157495374377934,-8.451874282666694e-06,-0.07073590335199087,-1.4117500347188283e-05,-0.25577509636691886
821,0.8096,712.668,237.558,0.00639046,411.45,-0.00916294,-0.00872908,0.370947,-0.0734313,-0.295688,0.769666,-8.46957e-06,-1.41339e-05,0.588639,0.44910626871909676,1.159045012310182,-8.46953413324858e-06,-0.07080002036259736,-1.4133800116944428e-05,-0.2559804740968912
822,0.8106,712.794,237.599,0.006386,411.522,-0.00917282,-0.00872582,0.371292,-0.0735002,-0.295964,0.770383,-8.48745e-06,-1.415e-05,0.589191,0.4496062966316601,1.160593602687316,-8.487413981739245e-06,-0.07086404003569124,-1.4149899889237538e-05,-0.2561857951504316
823,0.8116,712.919,237.641,0.00636876,411.595,-0.00916867,-0.0087309,0.371638,-0.0735691,-0.29624,0.7711,-8.50511e-06,-1.41663e-05,0.589742,0.4501079471908367,1.1621433038019018,-8.505073831654997e-06,-0.07092805529798174,-1.4166199658438572e-05,-0.25639105954318087
824,0.8126,713.044,237.683,0.0063633,411.667,-0.00917742,-0.00872834,0.371983,-0.0736379,-0.296516,0.771817,-8.52296e-06,-1.41824e-05,0.590293,0.4506083207420921,1.1636941164506243,-8.52292367969909e-06,-0.07099197324897444,-1.4182299430287593e-05,-0.2565962672907751
825,0.8136,713.169,237.724,0.00634709,411.739,-0.00917438,-0.0087328,0.372327,-0.0737068,-0.296792,0.772533,-8.54063e-06,-1.41987e-05,0.590844,0.45110741584386327,1.1652438761857806,-8.540593528949536e-06,-0.0710559796969702,-1.4198599198933515e-05,-0.2568014184088463
826,0.8146,713.293,237.766,0.00634078,411.811,-0.00918219,-0.00873085,0.372672,-0.0737755,-0.297067,0.773249,-8.55846e-06,-1.42148e-05,0.591395,0.45160813427129143,1.1667947459462487,-8.558423376436863e-06,-0.07111979595905127,-1.4214698970227424e-05,-0.25700576991916335
827,0.8156,713.418,237.807,0.00632544,411.883,-0.00918009,-0.00873479,0.373016,-0.0738443,-0.297343,0.773965,-8.57612e-06,-1.4231e-05,0.591945,0.4521075733680804,1.1683467265270915,-8.576083225242392e-06,-0.07118370071874036,-1.423089873975325e-05,-0.25721080803010477
828,0.8166,713.542,237.849,0.00631842,411.954,-0.0091871,-0.00873335,0.37336,-0.073913,-0.297618,0.77468,-8.59392e-06,-1.42472e-05,0.592495,0.45260718430147273,1.169897648825207,-8.59388307239417e-06,-0.07124750820668868,-1.4247098509168055e-05,-0.2574150469737546
829,0.8176,713.666,237.89,0.00630384,412.026,-0.00918581,-0.00873685,0.373704,-0.0739816,-0.297893,0.775394,-8.61159e-06,-1.42634e-05,0.593044,0.4531069671305905,1.1714475089807013,-8.611552920312349e-06,-0.07131121844233967,-1.426329827813877e-05,-0.2576192297594171
830,0.8186,713.79,237.931,0.00629623,412.098,-0.00919216,-0.00873584,0.374048,-0.0740503,-0.298168,0.776109,-8.62937e-06,-1.42795e-05,0.593594,0.45360692191457597,1.1730006491310592,-8.629332767129405e-06,-0.07137501717012129,-1.4279398048433478e-05,-0.2578233564025333
831,0.8196,713.914,237.973,0.00628229,412.169,-0.00919156,-0.00873897,0.374392,-0.0741188,-0.298442,0.776823,-8.64703e-06,-1.42957e-05,0.594143,0.454107048712592,1.1745527256199084,-8.646992614491644e-06,-0.07143862580282456,-1.4295597816960104e-05,-0.25802668494559655
832,0.8206,714.038,238.014,0.00627419,412.241,-0.00919734,-0.00873834,0.374735,-0.0741874,-0.298717,0.777536,-8.66479e-06,-1.43118e-05,0.594691,0.454605892977201,1.1761037345822634,-8.664752460862957e-06,-0.07150232292825809,-1.4311697586699701e-05,-0.2582306995539422
833,0.8216,714.161,238.055,0.0062608,412.312,-0.00919733,-0.00874117,0.375079,-0.0742559,-0.298991,0.778249,-8.68245e-06,-1.43279e-05,0.59524,0.4551063634803765,1.1776558498083447,-8.682412307670084e-06,-0.07156592284081564,-1.4327797356106231e-05,-0.25843391650027137
834,0.8226,714.284,238.096,0.00625228,412.383,-0.00920265,-0.00874085,0.375422,-0.0743244,-0.299266,0.778962,-8.70018e-06,-1.4344e-05,0.595788,0.45560555056874175,1.1792090720872,-8.700142153594825e-06,-0.07162951839692833,-1.4343897125290717e-05,-0.25863781913533646
835,0.8236,714.408,238.137,0.00623937,412.454,-0.00920315,-0.00874342,0.375765,-0.0743928,-0.29954,0.779674,-8.71784e-06,-1.43601e-05,0.596336,0.4561049089076463,1.1807612214461263,-8.717801999735819e-06,-0.07169301676620099,-1.4359996894253158e-05,-0.25884092454618135
836,0.8246,714.531,238.178,0.00623052,412.525,-0.00920809,-0.00874338,0.376107,-0.0744612,-0.299814,0.780386,-8.73556e-06,-1.43762e-05,0.596883,0.4566029819521287,1.1823144763289166,-8.735521845104621e-06,-0.0717565107923338,-1.4376096662882532e-05,-0.25904397431376724
837,0.8256,714.654,238.219,0.00621801,412.596,-0.00920901,-0.00874573,0.37645,-0.0745296,-0.300088,0.781098,-8.75321e-06,-1.43923e-05,0.59743,0.4571026824686777,1.1838688375229833,-8.753171690800698e-06,-0.07182000047562365,-1.4392196431400883e-05,-0.25924696845333817
838,0.8266,714.776,238.26,0.00620888,412.667,-0.00921363,-0.00874592,0.376792,-0.0745979,-0.300361,0.781809,-8.77091e-06,-1.44084e-05,0.597977,0.4576010968100763,1.185422120393088,-8.770871535723757e-06,-0.0718833930047117,-1.4408296199475146e-05,-0.25944916642967075
839,0.8276,714.899,238.301,0.00619671,412.738,-0.00921492,-0.0087481,0.377134,-0.0746662,-0.300635,0.78252,-8.78856e-06,-1.44245e-05,0.598524,0.45809968163833115,1.1869765080400145,-8.7885213807537e-06,-0.07194678120423781,-1.4424395967438386e-05,-0.25965204956181065
840,0.8286,715.021,238.341,0.00618737,412.808,-0.00921929,-0.00874848,0.377476,-0.0747344,-0.300908,0.78323,-8.80624e-06,-1.44406e-05,0.59907,0.45859843701175906,1.188529812718632,-8.806201225231014e-06,-0.0720100722755096,-1.444049573506856e-05,-0.2598541369660945
841,0.8296,715.143,238.382,0.0061755,412.879,-0.0092209,-0.00875052,0.377818,-0.0748026,-0.301181,0.78394,-8.82388e-06,-1.44566e-05,0.599616,0.4590973629886961,1.1900842206351743,-8.823841069705018e-06,-0.07207335903047751,-1.4456495503911704e-05,-0.26005616920804686
842,0.8306,715.266,238.423,0.00616597,412.949,-0.00922506,-0.00875107,0.378159,-0.0748708,-0.301454,0.78465,-8.84155e-06,-1.44727e-05,0.600162,0.459595000031769,1.1916397325732189,-8.841510913626394e-06,-0.07213664146943599,-1.4472595270986766e-05,-0.26025814630272526
843,0.8316,715.387,238.463,0.00615437,413.02,-0.00922693,-0.008753,0.378501,-0.074939,-0.301727,0.785359,-8.85918e-06,-1.44887e-05,0.600707,0.4600942668915464,1.1931941561216464,-8.85914075754446e-06,-0.07219991959267924,-1.4488595039274799e-05,-0.26046006826518264
844,0.8326,715.509,238.504,0.0061447,413.09,-0.00923093,-0.00875369,0.378842,-0.0750071,-0.302,0.786068,-8.87683e-06,-1.45047e-05,0.601252,0.4605922439368173,1.1947496821471515,-8.87679060102009e-06,-0.07226310062681629,-1.4504594807340787e-05,-0.2606619351104681
845,0.8336,715.631,238.545,0.00613331,413.16,-0.00923304,-0.00875552,0.379183,-0.0750751,-0.302273,0.786776,-8.89446e-06,-1.45208e-05,0.601797,0.4610903908212163,1.1963041151264546,-8.894420444383044e-06,-0.07232618459109463,-1.4520694573638693e-05,-0.2608637468536267
846,0.8346,715.752,238.585,0.00612353,413.23,-0.0092369,-0.00875634,0.379524,-0.0751432,-0.302545,0.787485,-8.9121e-06,-1.45368e-05,0.602341,0.4615887076026688,1.1978618468947375,-8.912060287302737e-06,-0.0723893570268781,-1.4536694341260592e-05,-0.2610647645748331
847,0.8356,715.874,238.625,0.00611234,413.301,-0.00923922,-0.0087581,0.379864,-0.0752111,-0.302817,0.788192,-8.92971e-06,-1.45528e-05,0.602886,0.46208573225265637,1.19941628464949,-8.929670130219947e-06,-0.07245233965125164,-1.4552694108549424e-05,-0.2612657276266547
848,0.8366,715.995,238.666,0.00610248,413.37,-0.00924298,-0.00875902,0.380205,-0.0752791,-0.30309,0.7889,-8.94735e-06,-1.45688e-05,0.60343,0.4625843885034133,1.2009740227532406,-8.947309972584527e-06,-0.07251541074771384,-1.456869387550519e-05,-0.26146737455695424
849,0.8376,716.116,238.706,0.00609145,413.44,-0.00924547,-0.00876072,0.380545,-0.075347,-0.303362,0.789607,-8.96495e-06,-1.45848e-05,0.603973,0.4630817517424637,1.202530661594317,-8.964909814945798e-06,-0.07257838481333034,-1.4584693642349933e-05,-0.2616682281137527
850,0.8386,716.237,238.746,0.00608153,413.51,-0.00924916,-0.00876174,0.380885,-0.0754149,-0.303634,0.790313,-8.98257e-06,-1.46008e-05,0.604516,0.4635792841137665,1.2040861972808887,-8.982529656864635e-06,-0.07264135460315291,-1.460069340886161e-05,-0.26186902704581294
851,0.8396,716.357,238.787,0.00607066,413.58,-0.0092518,-0.00876339,0.381225,-0.0754827,-0.303905,0.791019,-9.00017e-06,-1.46168e-05,0.60506,0.4640769856748359,1.2056428315634142,-9.000129498559772e-06,-0.07270422738789939,-1.461669317515124e-05,-0.2620690334373934
852,0.8406,716.478,238.827,0.00606069,413.649,-0.00925543,-0.00876449,0.381565,-0.0755505,-0.304177,0.791725,-9.01778e-06,-1.46327e-05,0.605602,0.4645748564832066,1.207200565217775,-9.01773933992267e-06,-0.07276709591001551,-1.4632592942542821e-05,-0.2622697233652309
853,0.8416,716.598,238.867,0.00604994,413.719,-0.00925821,-0.00876611,0.381904,-0.0756183,-0.304448,0.79243,-9.03537e-06,-1.46487e-05,0.606145,0.46507143152426833,1.2087571902621081,-9.035329181172891e-06,-0.07282996016979026,-1.4648592708277342e-05,-0.26246962118282124
854,0.8426,716.718,238.907,0.00603995,413.788,-0.00926181,-0.00876728,0.382244,-0.075686,-0.30472,0.793135,-9.05296e-06,-1.46647e-05,0.606687,0.46556964050171334,1.2103149131140296,-9.052919022090045e-06,-0.0728927274567901,-1.4664592473789817e-05,-0.2626702021656092
855,0.8436,716.839,238.947,0.00602932,413.858,-0.00926471,-0.00876888,0.382583,-0.0757537,-0.304991,0.79384,-9.07054e-06,-1.46806e-05,0.607229,0.4660665528317245,1.211873734547766,-9.070498862784326e-06,-0.07295549049458849,-1.4680492240515264e-05,-0.26286999146814916
856,0.8446,716.958,238.987,0.00601931,413.927,-0.00926828,-0.00877011,0.382922,-0.0758214,-0.305262,0.794544,-9.08813e-06,-1.46965e-05,0.60777,0.4665636336435717,1.2134314419055423,-9.088088703035346e-06,-0.07301824928347311,-1.4696392007018666e-05,-0.26306972663512374
857,0.8456,717.078,239.027,0.00600878,413.996,-0.00927129,-0.0087717,0.383261,-0.075889,-0.305533,0.795248,-9.1057e-06,-1.47125e-05,0.608311,0.46706088299437987,1.2149902462754008,-9.105658543284711e-06,-0.07308091113182713,-1.4712391771753985e-05,-0.2632694076812019
858,0.8466,717.198,239.067,0.00599877,414.065,-0.00927485,-0.00877298,0.383599,-0.0759566,-0.305803,0.795952,-9.12328e-06,-1.47284e-05,0.608852,0.4675568333837261,1.2165501484299113,-9.123238382979793e-06,-0.07314356874438344,-1.4728291537702276e-05,-0.2634682980897145
859,0.8476,717.317,239.106,0.00598834,414.134,-0.00927796,-0.00877456,0.383938,-0.0760242,-0.306074,0.796655,-9.14084e-06,-1.47443e-05,0.609393,0.4680544194863223,1.2181089310321451,-9.140798222673219e-06,-0.07320622212142835,-1.47441913033175e-05,-0.26366787113756285
860,0.8486,717.437,239.146,0.00597833,414.203,-0.00928152,-0.00877589,0.384276,-0.0760917,-0.306344,0.797357,-9.15841e-06,-1.47602e-05,0.609933,0.46855070574776203,1.219666590176121,-9.158368061923383e-06,-0.07326877859013059,-1.4760091068821701e-05,-0.26386665397546494
861,0.8496,717.556,239.186,0.00596798,414.272,-0.00928472,-0.00877747,0.384614,-0.0761591,-0.306615,0.79806,-9.17597e-06,-1.47761e-05,0.610474,0.46904715978231026,1.2212275644071697,-9.175927900950676e-06,-0.07333123816954212,-1.4775990833992836e-05,-0.26406611908349475
862,0.8506,717.675,239.226,0.00595798,414.341,-0.00928829,-0.00877885,0.384952,-0.0762266,-0.306885,0.798762,-9.19353e-06,-1.4792e-05,0.611013,0.46954378164668387,1.222787413600392,-9.193487739644901e-06,-0.07339378619994597,-1.4791890598941926e-05,-0.26426479440896633
863,0.8516,717.794,239.265,0.00594772,414.409,-0.00929157,-0.00878043,0.385289,-0.076294,-0.307155,0.799463,-9.21107e-06,-1.48079e-05,0.611553,0.47003910135778226,1.224346133844942,-9.21102757822645e-06,-0.07345623735412854,-1.4807790363557949e-05,-0.264463416099341
864,0.8526,717.912,239.305,0.00593773,414.478,-0.00929516,-0.00878185,0.385627,-0.0763614,-0.307425,0.800165,-9.22862e-06,-1.48238e-05,0.612092,0.4705360585550764,1.225908173042511,-9.228577416364736e-06,-0.07351868429924513,-1.482369012806295e-05,-0.2646619841690985
865,0.8536,718.031,239.344,0.00592754,414.546,-0.00929851,-0.00878344,0.385964,-0.0764287,-0.307694,0.800865,-9.24616e-06,-1.48397e-05,0.612631,0.4710317127198451,1.2274668542384135,-9.246117254391173e-06,-0.07358103439368757,-1.4839589892234883e-05,-0.26485976349284535
866,0.8546,718.149,239.384,0.00591758,414.615,-0.00930212,-0.0087849,0.386301,-0.076496,-0.307964,0.801566,-9.2637e-06,-1.48555e-05,0.61317,0.47152753394821634,1.22902885592086,-9.263657092084543e-06,-0.07364338029210993,-1.4855389657619789e-05,-0.2650582245632521
867,0.8556,718.268,239.423,0.00590745,414.683,-0.00930555,-0.00878649,0.386638,-0.0765632,-0.308233,0.802266,-9.28124e-06,-1.48714e-05,0.613708,0.47202352229649946,1.2305897223595226,-9.281196929444846e-06,-0.07370562936536196,-1.4871289421236611e-05,-0.26525589731266774
868,0.8566,718.386,239.463,0.00589752,414.751,-0.00930919,-0.00878799,0.386975,-0.0766305,-0.308502,0.802966,-9.29877e-06,-1.48873e-05,0.614246,0.47251967782102366,1.2321516817871938,-9.298726766582277e-06,-0.07376796687882481,-1.4887189184742411e-05,-0.2654535168952652
869,0.8576,718.504,239.502,0.00588745,414.819,-0.00931268,-0.0087896,0.387312,-0.0766976,-0.308772,0.803665,-9.31629e-06,-1.49031e-05,0.614784,0.47301600057813653,1.2337125012556158,-9.316246603496836e-06,-0.07383011496315572,-1.490298894935016e-05,-0.2656518176738937
870,0.8586,718.622,239.541,0.00587755,414.887,-0.00931635,-0.00879113,0.387648,-0.0767648,-0.309041,0.804364,-9.33382e-06,-1.49189e-05,0.615321,0.47351101711245147,1.235274412118244,-9.333776440079156e-06,-0.07389235148825957,-1.4918788713735864e-05,-0.26584933076823714
871,0.8596,718.739,239.58,0.00586754,414.955,-0.00931991,-0.00879275,0.387984,-0.0768319,-0.309309,0.805062,-9.35134e-06,-1.49348e-05,0.615858,0.47400620000026783,1.2368351783019333,-9.351296276327581e-06,-0.07395449122666309,-1.4934688476464508e-05,-0.2660460567851276
872,0.8606,718.857,239.619,0.00585767,415.023,-0.00932362,-0.00879432,0.38832,-0.076899,-0.309578,0.805761,-9.36885e-06,-1.49506e-05,0.616395,0.47450154929748956,1.238399272678866,-9.368806112464156e-06,-0.07401662679563015,-1.4950488240295101e-05,-0.2662434638434127
873,0.8616,718.974,239.659,0.00584772,415.091,-0.00932724,-0.00879596,0.388656,-0.076966,-0.309847,0.806458,-9.38636e-06,-1.49664e-05,0.616932,0.4749970650600399,1.239959980815525,-9.386315948267665e-06,-0.07407866560331156,-1.4966288004014672e-05,-0.26644081780634066
874,0.8626,719.092,239.698,0.00583789,415.159,-0.00933099,-0.00879755,0.388992,-0.077033,-0.310115,0.807156,-9.40387e-06,-1.49822e-05,0.617468,0.4754927473438604,1.2415240186678442,-9.403825783738107e-06,-0.07414070025453212,-1.4982087767401175e-05,-0.2666373853259444
875,0.8636,719.209,239.737,0.00582799,415.226,-0.00933467,-0.00879921,0.389327,-0.0771,-0.310383,0.807853,-9.42138e-06,-1.4998e-05,0.618004,0.47598712021705336,1.2430869055116491,-9.421335618986504e-06,-0.07420273074957029,-1.4997887530565635e-05,-0.2668339001725114
876,0.8646,719.326,239.776,0.00581819,415.294,-0.00933846,-0.00880084,0.389663,-0.0771669,-0.310651,0.80855,-9.43888e-06,-1.50138e-05,0.61854,0.4764831352152994,1.2446508820673041,-9.438835453901007e-06,-0.07426466451517566,-1.5013687293508049e-05,-0.2670303623601562
877,0.8656,719.443,239.815,0.00580835,415.361,-0.0093422,-0.00880252,0.389998,-0.0772338,-0.310919,0.809246,-9.45638e-06,-1.50296e-05,0.619076,0.4769778399240088,1.2462137028797775,-9.456335288593465e-06,-0.0743265941375506,-1.5029487056117397e-05,-0.2672267719029894
878,0.8666,719.559,239.853,0.00579859,415.429,-0.00934603,-0.00880418,0.390333,-0.0773007,-0.311187,0.809942,-9.47387e-06,-1.50454e-05,0.619611,0.4774727103865577,1.2477776117941524,-9.473825123063051e-06,-0.07438851961697235,-1.50452868185047e-05,-0.26742312881511787
879,0.8676,719.676,239.892,0.00578879,415.496,-0.00934983,-0.00880588,0.390668,-0.0773675,-0.311455,0.810637,-9.49136e-06,-1.50612e-05,0.620146,0.4779677466584831,1.2493403602265256,-9.49131495719957e-06,-0.07445034839875764,-1.5061086580669958e-05,-0.26761943311064484
880,0.8686,719.792,239.931,0.00577907,415.563,-0.00935371,-0.00880756,0.391002,-0.0774343,-0.311722,0.811333,-9.50885e-06,-1.50769e-05,0.62068,0.4784614703331309,1.2509064460518906,-9.508804791003023e-06,-0.07451217305051827,-1.507678634415921e-05,-0.26781495261898836
881,0.8696,719.909,239.97,0.00576933,415.63,-0.00935757,-0.00880929,0.391337,-0.0775011,-0.31199,0.812027,-9.52634e-06,-1.50927e-05,0.621215,0.47895683789512633,1.2524691173096576,-9.52629462458443e-06,-0.07457399357253014,-1.5092586105769357e-05,-0.26801115191980585
882,0.8706,720.025,240.009,0.00575964,415.697,-0.00936149,-0.008811,0.391671,-0.0775678,-0.312257,0.812722,-9.54382e-06,-1.51085e-05,0.621749,0.4794508919814229,1.2540351274716839,-9.543774457942966e-06,-0.07463571742864528,-1.5108385867157459e-05,-0.2682065668531888
883,0.8716,720.141,240.047,0.00574995,415.764,-0.00936541,-0.00881275,0.392005,-0.0776345,-0.312524,0.813416,-9.5613e-06,-1.51242e-05,0.622282,0.4799451111093447,1.2555999707879728,-9.561254290968435e-06,-0.07469743716791666,-1.5124085629869555e-05,-0.26840192961774934
884,0.8726,720.256,240.086,0.0057403,415.831,-0.00936938,-0.0088145,0.392339,-0.0777011,-0.312791,0.81411,-9.57878e-06,-1.514e-05,0.622816,0.48043949533402475,1.2571659004824527,-9.578734123660837e-06,-0.07475906026652923,-1.5139885390813568e-05,-0.2685972402274147
885,0.8736,720.372,240.124,0.00573065,415.898,-0.00937335,-0.00881627,0.392673,-0.0777678,-0.313058,0.814803,-9.59625e-06,-1.51557e-05,0.623349,0.48093404471061474,1.2587306585775444,-9.596203956130367e-06,-0.07482077177910773,-1.5155585152970552e-05,-0.26879249869610844
886,0.8746,720.488,240.163,0.00572105,415.965,-0.00937738,-0.00881804,0.393006,-0.0778343,-0.313324,0.815496,-9.61372e-06,-1.51714e-05,0.623882,0.48142727786626605,1.2602965014258194,-9.613673788377852e-06,-0.07488229415214276,-1.5171284914905492e-05,-0.26898697402508975
887,0.8756,720.603,240.201,0.00571144,416.031,-0.00938141,-0.00881984,0.39334,-0.0779009,-0.313591,0.816189,-9.63119e-06,-1.51871e-05,0.624415,0.48192215721732423,1.2618634297792726,-9.63114362029227e-06,-0.07494390493969028,-1.5186984676618387e-05,-0.2691821284487502
888,0.8766,720.718,240.24,0.00570188,416.098,-0.00938548,-0.00882164,0.393673,-0.0779674,-0.313857,0.816881,-9.64865e-06,-1.52029e-05,0.624947,0.4824157194692318,1.2634291809601064,-9.648603451872795e-06,-0.07500541912464243,-1.5202784436452177e-05,-0.2693765001500005
889,0.8776,720.833,240.278,0.00569232,416.164,-0.00938957,-0.00882347,0.394006,-0.0780339,-0.314124,0.817573,-9.66612e-06,-1.52186e-05,0.625479,0.4829094461047374,1.264996016015735,-9.666073283232102e-06,-0.07506692921903735,-1.5218484197720983e-05,-0.2695715505840688
890,0.8786,720.948,240.316,0.0056828,416.231,-0.00939369,-0.0088253,0.394339,-0.0781003,-0.31439,0.818264,-9.68358e-06,-1.52343e-05,0.626011,0.4834033371785902,1.2665616691336563,-9.683533114257514e-06,-0.0751283427359859,-1.5234183958656722e-05,-0.2697658187128068
891,0.8796,721.063,240.355,0.00567329,416.297,-0.00939784,-0.00882715,0.394671,-0.0781667,-0.314656,0.818955,-9.70104e-06,-1.525e-05,0.626542,0.4838959088489063,1.2681284044917533,-9.700992945060882e-06,-0.07518975217521229,-1.5249883719370416e-05,-0.26996003517309475
892,0.8806,721.178,240.393,0.00566381,416.363,-0.00940202,-0.00882901,0.395004,-0.0782331,-0.314921,0.819646,-9.71849e-06,-1.52657e-05,0.627073,0.48439012846955287,1.2696962228381121,-9.718442775641378e-06,-0.0752511575369873,-1.5265583479751044e-05,-0.2701534701325098
893,0.8816,721.293,240.431,0.00565434,416.429,-0.00940621,-0.00883089,0.395336,-0.0782994,-0.315187,0.820337,-9.73594e-06,-1.52814e-05,0.627604,0.48488302780896775,1.2712651249213365,-9.735892605888807e-06,-0.07531246635283284,-1.528128324002065e-05,-0.2703475834912332
894,0.8826,721.407,240.469,0.0056449,416.495,-0.00941045,-0.00883277,0.395668,-0.0783657,-0.315453,0.821027,-9.75339e-06,-1.5297e-05,0.628135,0.4853760908181308,1.272832838656572,-9.75334243580317e-06,-0.07537377110403876,-1.5296883001503225e-05,-0.2705416452226701
895,0.8836,721.521,240.507,0.00563547,416.561,-0.0094147,-0.00883468,0.396,-0.0784319,-0.315718,0.821716,-9.77084e-06,-1.53127e-05,0.628665,0.48586931755138973,1.2743993600870671,-9.770792265495487e-06,-0.07543497933437682,-1.531258276121772e-05,-0.27073492607584193
896,0.8846,721.635,240.545,0.00562607,416.627,-0.009419,-0.00883659,0.396332,-0.0784982,-0.315983,0.822405,-9.78829e-06,-1.53284e-05,0.629195,0.48636270806310966,1.275966961222744,-9.788242094854738e-06,-0.07549627596324127,-1.5328282520710168e-05,-0.27092815571637363
897,0.8856,721.75,240.583,0.00561669,416.693,-0.00942331,-0.00883853,0.396664,-0.0785644,-0.316248,0.823094,-9.80573e-06,-1.5344e-05,0.629725,0.48685626240767443,1.2775356428077753,-9.805681923991116e-06,-0.07555747608402619,-1.534388228141559e-05,-0.2711213341578348
898,0.8866,721.863,240.621,0.00560733,416.759,-0.00942765,-0.00884048,0.396995,-0.0786305,-0.316513,0.823783,-9.82318e-06,-1.53597e-05,0.630255,0.4873484932902483,1.2791054055868476,-9.823131752684233e-06,-0.07561857971535979,-1.5359582040463948e-05,-0.27131446141379134
899,0.8876,721.977,240.659,0.00559799,416.824,-0.00943202,-0.00884244,0.397326,-0.0786966,-0.316778,0.824471,-9.84062e-06,-1.53753e-05,0.630784,0.48784088712821205,1.2806739696300493,-9.8405715812655e-06,-0.07567967930787678,-1.537518180072528e-05,-0.27150753749780576
900,0.8886,722.091,240.697,0.00558867,416.89,-0.00943642,-0.00884441,0.397657,-0.0787627,-0.317043,0.825159,-9.85806e-06,-1.5391e-05,0.631313,0.4883334439755125,1.2822436132166337,-9.8580114095137e-06,-0.07574077486184427,-1.5390881559218528e-05,-0.27170056242343654
901,0.8896,722.204,240.735,0.00557937,416.956,-0.00944085,-0.00884641,0.397988,-0.0788288,-0.317307,0.825846,-9.87549e-06,-1.54066e-05,0.631842,0.4888261638861151,1.2838120532763861,-9.875441237539029e-06,-0.07580186637752906,-1.5406481318924747e-05,-0.27189280809741123
902,0.8906,722.318,240.772,0.0055701,417.021,-0.00944531,-0.00884841,0.398319,-0.0788948,-0.317572,0.826534,-9.89293e-06,-1.54223e-05,0.63237,0.4893190469140023,1.2853838566073859,-9.892881065121095e-06,-0.0758628614414889,-1.5422181076973906e-05,-0.27208573093985977
903,0.8916,722.431,240.81,0.00556084,417.086,-0.00944979,-0.00885043,0.398649,-0.0789608,-0.317836,0.82722,-9.91036e-06,-1.54379e-05,0.632898,0.489810603301827,1.2869521678022546,-9.910310892591312e-06,-0.0759238524799073,-1.5437780836236037e-05,-0.27227787494276734
904,0.8926,722.544,240.848,0.00555161,417.152,-0.00945431,-0.00885247,0.39898,-0.0790267,-0.3181,0.827907,-9.92779e-06,-1.54535e-05,0.633426,0.49030381223309516,1.2885238437504078,-9.92774071961744e-06,-0.07598474709152936,-1.5453380595276123e-05,-0.2724699682263533
905,0.8936,722.657,240.885,0.00554239,417.217,-0.00945885,-0.00885452,0.39931,-0.0790926,-0.318364,0.828593,-9.94523e-06,-1.54691e-05,0.633954,0.4907956936471016,1.290094309715459,-9.945180546311327e-06,-0.0760456376903288,-1.5468980354094164e-05,-0.27266201080400587
906,0.8946,722.769,240.923,0.0055332,417.282,-0.00946343,-0.00885658,0.39964,-0.0791585,-0.318628,0.829278,-9.96265e-06,-1.54847e-05,0.634481,0.4912877374087605,1.2916635617250662,-9.96260037300356e-06,-0.07610652427656994,-1.548458011269016e-05,-0.27285400268910975
907,0.8956,722.882,240.961,0.00552402,417.347,-0.00946803,-0.00885866,0.39997,-0.0792244,-0.318892,0.829964,-9.98008e-06,-1.55003e-05,0.635008,0.49177994357165544,1.293236182275586,-9.98003019914151e-06,-0.07616740685051726,-1.550017987095309e-05,-0.2730459438950459
908,0.8966,722.995,240.998,0.00551487,417.412,-0.00947266,-0.00886076,0.4003,-0.0792902,-0.319155,0.830649,-9.99751e-06,-1.55159e-05,0.635535,0.4922723121893877,1.294807587205188,-9.997460025057414e-06,-0.07622819303525907,-1.5515779628993975e-05,-0.27323710767266285
909,0.8976,723.107,241.035,0.00550574,417.477,-0.00947732,-0.00886287,0.400629,-0.0793559,-0.319419,0.831333,-1.00149e-05,-1.55315e-05,0.636061,0.49276335055147946,1.2963777725370016,-1.0014849851081031e-05,-0.07628888284929447,-1.5531379386923838e-05,-0.2734289477522325
910,0.8986,723.219,241.073,0.00549662,417.542,-0.00948202,-0.008865,0.400958,-0.0794217,-0.319682,0.832017,-1.00324e-05,-1.55471e-05,0.636587,0.49325455049177047,1.2979490322429759,-1.003234967567046e-05,-0.07634966104117857,-1.5546979144520634e-05,-0.27362001081307985
911,0.8996,723.331,241.11,0.00548753,417.606,-0.00948674,-0.00886714,0.401287,-0.0794874,-0.319945,0.832701,-1.00498e-05,-1.55627e-05,0.637113,0.49374591206342866,1.2995213670582348,-1.0049749500917748e-05,-0.07641034287502801,-1.5562578901784363e-05,-0.27381102363094945
912,0.9006,723.443,241.148,0.00547846,417.671,-0.00949149,-0.0088693,0.401616,-0.0795531,-0.320208,0.833385,-1.00672e-05,-1.55783e-05,0.637639,0.4942374353196395,1.3010947777184043,-1.0067149325942992e-05,-0.07647102072221212,-1.557817865893707e-05,-0.2740019862190535
913,0.9016,723.555,241.185,0.00546941,417.736,-0.00949627,-0.00887147,0.401945,-0.0796187,-0.320471,0.834068,-1.00846e-05,-1.55939e-05,0.638164,0.49472912031360616,1.3026669622915006,-1.008454915063517e-05,-0.07653160223615729,-1.559377841575671e-05,-0.2741928985906006
914,0.9026,723.667,241.222,0.00546037,417.8,-0.00950108,-0.00887366,0.402274,-0.0796843,-0.320734,0.834751,-1.0102e-05,-1.56094e-05,0.638689,0.495220967098549,1.3042402210334472,-1.010194897499428e-05,-0.07659217977608557,-1.5609278173900343e-05,-0.274383760758796
915,0.9036,723.779,241.259,0.00545136,417.864,-0.00950593,-0.00887587,0.402602,-0.0797499,-0.320996,0.835433,-1.01195e-05,-1.5625e-05,0.639214,0.49571148001547805,1.3058122488647497,-1.0119448798029396e-05,-0.07665275334225763,-1.5624877930275893e-05,-0.2745738473110515
916,0.9046,723.89,241.296,0.00544237,417.929,-0.0095108,-0.00887809,0.402931,-0.0798154,-0.321259,0.836115,-1.01369e-05,-1.56405e-05,0.639738,0.4962036500499345,1.307385349184711,-1.0136848621833394e-05,-0.07671323060626167,-1.5640377687975437e-05,-0.27476460930290714
917,0.9056,724.001,241.333,0.0054334,417.993,-0.0095157,-0.00888033,0.403259,-0.0798809,-0.321521,0.836797,-1.01543e-05,-1.56561e-05,0.640263,0.4966944853397377,1.3089595227250168,-1.0154248445304326e-05,-0.07677370390913463,-1.56559774439069e-05,-0.27495459608591444
918,0.9066,724.112,241.37,0.00542444,418.057,-0.00952064,-0.00888258,0.403587,-0.0799464,-0.321784,0.837478,-1.01717e-05,-1.56716e-05,0.640787,0.49718548164992216,1.310532459684238,-1.017164826844219e-05,-0.07683417325113606,-1.5671477201162354e-05,-0.27514525795400924
919,0.9076,724.224,241.407,0.00541551,418.121,-0.00952561,-0.00888485,0.403914,-0.0800118,-0.322046,0.838159,-1.01891e-05,-1.56872e-05,0.64131,0.49767514135742075,1.312106468178345,-1.0189048091246988e-05,-0.07689454632198445,-1.5687076956538704e-05,-0.27533514502013334
920,0.9086,724.334,241.444,0.0054066,418.185,-0.0095306,-0.00888714,0.404242,-0.0800772,-0.322307,0.83884,-1.02065e-05,-1.57027e-05,0.641834,0.49816645937553594,1.3136815489373013,-1.0206447913829741e-05,-0.07695491544456323,-1.5702576713239047e-05,-0.2755242578669831
921,0.9096,724.445,241.481,0.0053977,418.249,-0.00953563,-0.00888944,0.404569,-0.0801425,-0.322569,0.83952,-1.0224e-05,-1.57182e-05,0.642357,0.49865643991520403,1.3152553874350223,-1.0223947735088501e-05,-0.0770151883206538,-1.5718076469717346e-05,-0.27571404564813695
922,0.9106,724.556,241.518,0.00538883,418.313,-0.00954069,-0.00889176,0.404897,-0.0802079,-0.322831,0.8402,-1.02414e-05,-1.57338e-05,0.64288,0.499148079852038,1.3168302965068759,-1.024134755700512e-05,-0.07707554955350382,-1.5733676224427562e-05,-0.27590378371140545
923,0.9116,724.666,241.555,0.00537997,418.377,-0.00954578,-0.00889409,0.405224,-0.0802732,-0.323092,0.84088,-1.02588e-05,-1.57493e-05,0.643402,0.49963838143408945,1.3184062768811002,-1.0258747378699695e-05,-0.07713581455244434,-1.574917598046177e-05,-0.2760927481629232
924,0.9126,724.777,241.592,0.00537114,418.441,-0.0095509,-0.00889645,0.405551,-0.0803384,-0.323354,0.841559,-1.02762e-05,-1.57648e-05,0.643925,0.5001288433709747,1.3199810093042585,-1.0276147200061203e-05,-0.0771959833358119,-1.5764675736162914e-05,-0.27628238701912944
925,0.9136,724.887,241.629,0.00536232,418.504,-0.00955606,-0.00889881,0.405877,-0.0804036,-0.323615,0.842238,-1.02936e-05,-1.57803e-05,0.644447,0.5006179650964231,1.321556811333823,-1.0293547021089644e-05,-0.07725614819630267,-1.5780175491753035e-05,-0.27647125266807815
926,0.9146,724.997,241.665,0.00535352,418.568,-0.00956124,-0.0089012,0.406204,-0.0804688,-0.323876,0.842916,-1.0311e-05,-1.57958e-05,0.644969,0.5011087474095446,1.3231313605637802,-1.0310946841785018e-05,-0.07731630913417231,-1.5795675247010088e-05,-0.2766600690295248
927,0.9156,725.107,241.702,0.00534475,418.632,-0.00956646,-0.0089036,0.40653,-0.080534,-0.324137,0.843594,-1.03285e-05,-1.58113e-05,0.64549,0.5015981886357852,1.3247069777000942,-1.032844666126742e-05,-0.07737646614967675,-1.5811175002045097e-05,-0.2768488361163317
928,0.9166,725.217,241.738,0.00533599,418.695,-0.00957171,-0.00890602,0.406857,-0.0805991,-0.324398,0.844272,-1.03459e-05,-1.58268e-05,0.646011,0.5020892915344171,1.326283663467052,-1.0345846481407683e-05,-0.07743652698672898,-1.582667475685806e-05,-0.2770375539413579
929,0.9176,725.327,241.775,0.00532725,418.758,-0.00957699,-0.00890846,0.407183,-0.0806642,-0.324659,0.844949,-1.03633e-05,-1.58423e-05,0.646532,0.5025790524701523,1.3278590907291754,-1.0363246301214879e-05,-0.07749658391394798,-1.584217451144898e-05,-0.2772262225174589
930,0.9186,725.437,241.812,0.00531853,418.822,-0.00958231,-0.00891091,0.407509,-0.0807293,-0.324919,0.845627,-1.03807e-05,-1.58578e-05,0.647053,0.5030689730939804,1.3294379143534183,-1.0380646120689008e-05,-0.07755663693158821,-1.5857674265706834e-05,-0.2774141192719678
931,0.9196,725.546,241.848,0.00530983,418.885,-0.00958765,-0.00891338,0.407834,-0.0807943,-0.32518,0.846303,-1.03981e-05,-1.58733e-05,0.647573,0.5035575498996663,1.3310131467520852,-1.0398045939941092e-05,-0.07761659380156827,-1.5873174019853664e-05,-0.2776026895773426
932,0.9206,725.655,241.884,0.00530115,418.948,-0.00959303,-0.00891587,0.40816,-0.0808593,-0.32544,0.84698,-1.04155e-05,-1.58888e-05,0.648094,0.5040477895656574,1.3325917769584668,-1.0415445758860109e-05,-0.07767654677447844,-1.5888673773667428e-05,-0.27779048846313936
933,0.9216,725.765,241.921,0.00529248,419.011,-0.00959845,-0.00891837,0.408485,-0.0809242,-0.3257,0.847656,-1.0433e-05,-1.59043e-05,0.648613,0.5045366845383961,1.3341691420890367,-1.0432945576455133e-05,-0.07773640362421697,-1.5904173527259147e-05,-0.27797823852757286
934,0.9226,725.874,241.957,0.00528384,419.074,-0.00960389,-0.0089209,0.40881,-0.0809891,-0.32596,0.848331,-1.04504e-05,-1.59197e-05,0.649133,0.5050257384278234,1.3357452381325188,-1.0450345394708016e-05,-0.07779625658937206,-1.591957328228588e-05,-0.27816593978333504
935,0.9236,725.983,241.994,0.00527522,419.137,-0.00960937,-0.00892344,0.409136,-0.081054,-0.32622,0.849007,-1.04678e-05,-1.59352e-05,0.649652,0.5055164568012998,1.337324735723533,-1.0467745212738855e-05,-0.07785610567019574,-1.593507303532249e-05,-0.2783535922431145
936,0.9246,726.092,242.03,0.00526661,419.2,-0.00961488,-0.00892599,0.40946,-0.0811189,-0.32648,0.849682,-1.04852e-05,-1.59507e-05,0.650171,0.5060043231633862,1.338902962511764,-1.0485145030436627e-05,-0.07791595086694014,-1.5950572788248074e-05,-0.2785411959195966
937,0.9256,726.2,242.066,0.00525802,419.263,-0.00962043,-0.00892857,0.409785,-0.0811837,-0.326739,0.850356,-1.05026e-05,-1.59661e-05,0.65069,0.5064938541128847,1.3404799144816133,-1.0502544847912354e-05,-0.07797569997743181,-1.5965972542497653e-05,-0.27872802955385334
938,0.9266,726.309,242.102,0.00524945,419.325,-0.009626,-0.00893116,0.41011,-0.0812485,-0.326999,0.851031,-1.052e-05,-1.59816e-05,0.651209,0.5069835441857977,1.3420602717344567,-1.0519944664943992e-05,-0.07803544521630668,-1.5981472294868126e-05,-0.2789155358892894
939,0.9276,726.417,242.138,0.0052409,419.388,-0.00963162,-0.00893377,0.410434,-0.0813132,-0.327258,0.851704,-1.05375e-05,-1.5997e-05,0.651727,0.5074718859612097,1.3436370088098477,-1.0537444480762659e-05,-0.07809509439332951,-1.5996872048673616e-05,-0.27910227258204845
940,0.9286,726.526,242.174,0.00523237,419.451,-0.00963726,-0.0089364,0.410758,-0.081378,-0.327517,0.852378,-1.05549e-05,-1.60125e-05,0.652245,0.5079603859849915,1.3452171526024252,-1.0554844297239185e-05,-0.07815483189569683,-1.60123718006e-05,-0.27928896091626687
941,0.9296,726.634,242.211,0.00522386,419.513,-0.00964294,-0.00893905,0.411082,-0.0814426,-0.327776,0.853051,-1.05723e-05,-1.60279e-05,0.652763,0.5084490443084242,1.3467960149737217,-1.0572244113382645e-05,-0.07821438117009405,-1.602777155385038e-05,-0.27947560090446777
942,0.9306,726.742,242.247,0.00521537,419.575,-0.00964865,-0.00894171,0.411406,-0.0815073,-0.328035,0.853724,-1.05897e-05,-1.60433e-05,0.65328,0.5089378609828052,1.3483759402770308,-1.058964392930406e-05,-0.07827401877033524,-1.6043171306989734e-05,-0.27966219255917113
943,0.9316,726.85,242.283,0.00520689,419.638,-0.0096544,-0.00894439,0.41173,-0.0815719,-0.328294,0.854397,-1.06072e-05,-1.60588e-05,0.653797,0.5094268360594485,1.3499569292279463,-1.0607143743901482e-05,-0.07833356034550909,-1.6058671058138962e-05,-0.27984873589289383
944,0.9326,726.958,242.318,0.00519843,419.7,-0.00966018,-0.0089471,0.412053,-0.0816365,-0.328553,0.855069,-1.06246e-05,-1.60742e-05,0.654314,0.5099144596744702,1.3515366310047372,-1.0624543559156763e-05,-0.07839309807442141,-1.6074070810723207e-05,-0.2800352309181492
945,0.9336,727.066,242.354,0.00518999,419.762,-0.009666,-0.00894982,0.412377,-0.081701,-0.328811,0.855741,-1.0642e-05,-1.60896e-05,0.654831,0.5104037512203548,1.353117394697886,-1.0641943374078977e-05,-0.07845253980257927,-1.6089470563085406e-05,-0.28022095786876555
946,0.9346,727.173,242.39,0.00518157,419.824,-0.00967185,-0.00895255,0.4127,-0.0817656,-0.32907,0.856412,-1.06594e-05,-1.61051e-05,0.655347,0.5108916904299392,1.3546968663231964,-1.0659343188779147e-05,-0.07851206984566694,-1.61049703135685e-05,-0.2804073565010127
947,0.9356,727.281,242.426,0.00517317,419.886,-0.00967773,-0.00895531,0.413023,-0.08183,-0.329328,0.857083,-1.06769e-05,-1.61205e-05,0.655864,0.511379787269344,1.356277398129619,-1.0676843002155323e-05,-0.07857141175753879,-1.612037006548661e-05,-0.28059298745561256
948,0.9366,727.388,242.462,0.00516479,419.948,-0.00968365,-0.00895809,0.413346,-0.0818945,-0.329586,0.857754,-1.06943e-05,-1.61359e-05,0.656379,0.5118680417894921,1.357858990828773,-1.0694242816189359e-05,-0.07863084198483494,-1.6135769817071655e-05,-0.2807785705236038
949,0.9376,727.495,242.497,0.00515642,420.01,-0.00968961,-0.00896088,0.413668,-0.0819589,-0.329844,0.858425,-1.07117e-05,-1.61513e-05,0.656895,0.5123549416856246,1.3594416451327564,-1.071164263000135e-05,-0.07869017624802732,-1.6151169568434653e-05,-0.28096410571733954
950,0.9386,727.603,242.533,0.00514807,420.072,-0.0096956,-0.00896369,0.413991,-0.0820233,-0.330102,0.859095,-1.07292e-05,-1.61667e-05,0.65741,0.512843511231523,1.3610230007299648,-1.0729142442378325e-05,-0.07874950669021619,-1.6166569319575608e-05,-0.28114959304916975
951,0.9396,727.71,242.569,0.00513974,420.134,-0.00970162,-0.00896652,0.414313,-0.0820877,-0.33036,0.859764,-1.07466e-05,-1.61821e-05,0.657925,0.5133307252793917,1.3626030535862026,-1.0746542255524183e-05,-0.07880883331164767,-1.6181969070494517e-05,-0.2813350325314412
952,0.9406,727.816,242.604,0.00513143,420.196,-0.00970768,-0.00896937,0.414636,-0.082152,-0.330617,0.860434,-1.07641e-05,-1.61975e-05,0.65844,0.5138196100542975,1.3641865280368113,-1.0764042067235025e-05,-0.07886806399937873,-1.6197368821191382e-05,-0.2815197056965625
953,0.9416,727.923,242.64,0.00512314,420.257,-0.00971378,-0.00897224,0.414958,-0.0822163,-0.330875,0.861103,-1.07815e-05,-1.62129e-05,0.658955,0.5143071384565956,1.365768698000911,-1.078144187982577e-05,-0.07892729087869899,-1.6212768571666203e-05,-0.281705049702088
954,0.9426,728.03,242.675,0.00511486,420.319,-0.00971991,-0.00897513,0.415279,-0.0822805,-0.331132,0.861772,-1.0799e-05,-1.62283e-05,0.659469,0.5147933090742496,1.3673519267908545,-1.07989416909815e-05,-0.07898642184850013,-1.6228168321807956e-05,-0.2818896277850149
955,0.9436,728.136,242.711,0.0051066,420.38,-0.00972607,-0.00897804,0.415601,-0.0823447,-0.331389,0.86244,-1.08164e-05,-1.62437e-05,0.659983,0.5152811510581157,1.3689338461802025,-1.0816341502906113e-05,-0.07904554902221483,-1.6243568071838688e-05,-0.28207415843746964
956,0.9446,728.243,242.746,0.00509836,420.442,-0.00973227,-0.00898097,0.415923,-0.0824089,-0.331646,0.863108,-1.08338e-05,-1.62591e-05,0.660497,0.5157691501523942,1.3705168226447269,-1.083374131460868e-05,-0.0791046724000869,-1.6258967821536352e-05,-0.2822586416716403
957,0.9456,728.349,242.782,0.00509014,420.503,-0.00973851,-0.00898391,0.416244,-0.0824731,-0.331903,0.863776,-1.08513e-05,-1.62745e-05,0.66101,0.5162557901511342,1.3721008568907886,-1.0851241124876232e-05,-0.0791637919823599,-1.6274367571011972e-05,-0.28244307749971154
958,0.9466,728.455,242.817,0.00508194,420.564,-0.00974479,-0.00898688,0.416565,-0.0825372,-0.33216,0.864443,-1.08688e-05,-1.62899e-05,0.661524,0.5167425863863886,1.37368357594046,-1.0868740934810717e-05,-0.07922281569156375,-1.6289767320265547e-05,-0.28262746593386545
959,0.9476,728.561,242.853,0.00507375,420.626,-0.0097511,-0.00898986,0.416886,-0.0826013,-0.332417,0.86511,-1.08862e-05,-1.63052e-05,0.662036,0.517229538908317,1.375267351015883,-1.0886140745514084e-05,-0.07928183561746915,-1.6305067070954138e-05,-0.2828118069862806
960,0.9486,728.667,242.888,0.00506558,420.687,-0.00975744,-0.00899287,0.417207,-0.0826653,-0.332673,0.865777,-1.09037e-05,-1.63206e-05,0.662549,0.5177166477670956,1.3768521828216618,-1.0903640554893457e-05,-0.07934075969439902,-1.6320466819763624e-05,-0.28299538366487464
961,0.9496,728.773,242.923,0.00505743,420.748,-0.00976382,-0.00899589,0.417528,-0.0827294,-0.33293,0.866443,-1.09211e-05,-1.6336e-05,0.663062,0.5182039130129168,1.3784356936259874,-1.0921040365041712e-05,-0.0793997720603361,-1.6335866568240043e-05,-0.28317963017458225
962,0.9506,728.879,242.958,0.0050493,420.809,-0.00977024,-0.00899894,0.417848,-0.0827933,-0.333186,0.867109,-1.09386e-05,-1.63514e-05,0.663574,0.5186898160054134,1.380020259399775,-1.0938540173754951e-05,-0.07945859653543941,-1.635126631660544e-05,-0.2833631127024918
963,0.9516,728.984,242.993,0.00504118,420.87,-0.0097767,-0.009002,0.418169,-0.0828573,-0.333442,0.867775,-1.09561e-05,-1.63667e-05,0.664086,0.5191773936883826,1.3816058808458673,-1.0956039982135124e-05,-0.07951750930003254,-1.636656606629483e-05,-0.28354654826488623
964,0.9526,729.089,243.029,0.00503308,420.931,-0.00978319,-0.00900508,0.418489,-0.0829212,-0.333698,0.86844,-1.09735e-05,-1.63821e-05,0.664597,0.5196636082445427,1.38319017547621,-1.0973439791395201e-05,-0.07957632625196664,-1.6381965814105115e-05,-0.283729936873787
965,0.9536,729.195,243.064,0.005025,420.991,-0.00978972,-0.00900819,0.418809,-0.0829851,-0.333954,0.869105,-1.0991e-05,-1.63974e-05,0.665109,0.5201499784142578,1.3847755240128667,-1.0990939599220262e-05,-0.07963513944561762,-1.6397265563350416e-05,-0.2839132785412125
966,0.9546,729.3,243.099,0.00501693,421.052,-0.00979629,-0.00901131,0.419129,-0.083049,-0.33421,0.869769,-1.10085e-05,-1.64128e-05,0.66562,0.520636504247332,1.3863595407961844,-1.1008439406712256e-05,-0.07969394888122561,-1.6412665310716612e-05,-0.2840965732791785
967,0.9556,729.405,243.134,0.00500889,421.113,-0.0098029,-0.00901446,0.419449,-0.0831128,-0.334465,0.870434,-1.1026e-05,-1.64282e-05,0.666131,0.5211231857935856,1.3879469976617207,-1.1025939213871183e-05,-0.07975266253430147,-1.6428065057860763e-05,-0.28427910537916046
968,0.9566,729.51,243.169,0.00500086,421.173,-0.00980954,-0.00901762,0.419768,-0.0831766,-0.334721,0.871098,-1.10434e-05,-1.64435e-05,0.666641,0.5216085014935923,1.3895331210028408,-1.1043339021910015e-05,-0.07981137244156589,-1.644336480643993e-05,-0.2844623064774423
969,0.9576,729.615,243.204,0.00499284,421.234,-0.00981622,-0.00902081,0.420088,-0.0832404,-0.334976,0.871761,-1.10609e-05,-1.64589e-05,0.667152,0.5220954941287363,1.3911179067604924,-1.106083882851383e-05,-0.07987007860325757,-1.645876455302897e-05,-0.2846447453273486
970,0.9586,729.719,243.238,0.00498485,421.294,-0.00982293,-0.00902401,0.420407,-0.0833041,-0.335232,0.872424,-1.10784e-05,-1.64742e-05,0.667662,0.5225811200445787,1.3927037435794896,-1.1078338634784579e-05,-0.07992868901248928,-1.647406430116405e-05,-0.284827852833784
971,0.9596,729.824,243.273,0.00497687,421.355,-0.00982969,-0.00902724,0.420726,-0.0833678,-0.335487,0.873087,-1.10959e-05,-1.64896e-05,0.668171,0.5230669008997999,1.3942906321569173,-1.1095838440722261e-05,-0.07998729568835672,-1.6489464047309e-05,-0.2850101984812532
972,0.9606,729.929,243.308,0.00496891,421.415,-0.00983648,-0.00903049,0.421045,-0.0834315,-0.335742,0.87375,-1.11134e-05,-1.65049e-05,0.668681,0.5235528367438333,1.3958785731903225,-1.1113338246437898e-05,-0.08004589863109779,-1.6504763794888966e-05,-0.28519249763651033
973,0.9616,730.033,243.343,0.00496096,421.475,-0.00984331,-0.00903375,0.421364,-0.0834951,-0.335996,0.874412,-1.11309e-05,-1.65202e-05,0.66919,0.5240389276261281,1.3974651699113463,-1.1130838051709446e-05,-0.08010440585139555,-1.6520063542246888e-05,-0.28537403568580244
974,0.9626,730.137,243.378,0.00495304,421.535,-0.00985018,-0.00903704,0.421682,-0.0835587,-0.336251,0.875074,-1.11484e-05,-1.65356e-05,0.669699,0.5245236490717384,1.3990528173071342,-1.1148337856869972e-05,-0.08016290935075243,-1.6535463287725705e-05,-0.28555624207440067
975,0.9636,730.241,243.412,0.00494513,421.595,-0.00985709,-0.00904035,0.422001,-0.0836223,-0.336506,0.875736,-1.11659e-05,-1.65509e-05,0.670208,0.5250100496925667,1.4006415160734633,-1.1165837661586409e-05,-0.08022140912940501,-1.6550763034639537e-05,-0.2857384020062933
976,0.9646,730.345,243.447,0.00493723,421.655,-0.00986404,-0.00904368,0.422319,-0.0836858,-0.33676,0.876397,-1.11834e-05,-1.65662e-05,0.670717,0.525495080004101,1.4022288646765055,-1.1183337465969778e-05,-0.08027981321557598,-1.6566062781220303e-05,-0.2859198014134837
977,0.9656,730.449,243.481,0.00492936,421.715,-0.00987102,-0.00904703,0.422637,-0.0837493,-0.337015,0.877058,-1.12009e-05,-1.65816e-05,0.671225,0.5259802645798013,1.4038172628638241,-1.1200837270131103e-05,-0.08033821359320514,-1.6581462526032986e-05,-0.2861018686495641
978,0.9666,730.553,243.516,0.0049215,421.775,-0.00987804,-0.0090504,0.422955,-0.0838128,-0.337269,0.877718,-1.12184e-05,-1.65969e-05,0.671733,0.526465603468731,1.405404305923914,-1.1218337073959361e-05,-0.08039661026252809,-1.6596762272169663e-05,-0.2862831757479508
979,0.9676,730.657,243.551,0.00491365,421.835,-0.00988511,-0.0090538,0.423273,-0.0838762,-0.337523,0.878379,-1.1236e-05,-1.66122e-05,0.672241,0.5269510967199698,1.4069948037717586,-1.1235936876352604e-05,-0.08045491126927595,-1.6612062018195317e-05,-0.28646443680018274
980,0.9686,730.76,243.585,0.00490583,421.895,-0.00989221,-0.00905721,0.42359,-0.0839396,-0.337777,0.879038,-1.12535e-05,-1.66275e-05,0.672748,0.5274352169466319,1.4085815361183283,-1.125343667962575e-05,-0.08051320857985722,-1.6627361763887905e-05,-0.286645651817954
981,0.9696,730.864,243.62,0.00489802,421.955,-0.00989935,-0.00906065,0.423908,-0.084003,-0.338031,0.879698,-1.1271e-05,-1.66429e-05,0.673255,0.5279210185839873,1.4101717246366534,-1.127093648256583e-05,-0.08057150219450615,-1.6642761507701387e-05,-0.28682682081295585
982,0.9706,730.967,243.654,0.00489022,422.014,-0.00990653,-0.00906411,0.424225,-0.0840663,-0.338284,0.880357,-1.12886e-05,-1.66582e-05,0.673762,0.5284054463246188,1.411760551264063,-1.1288536283959871e-05,-0.08062970017643167,-1.6658061252949885e-05,-0.2870072308044639
983,0.9716,731.07,243.688,0.00488245,422.074,-0.00991375,-0.00906759,0.424542,-0.0841296,-0.338538,0.881016,-1.13061e-05,-1.66735e-05,0.674269,0.5288900276531863,1.4133504252732947,-1.130603608634484e-05,-0.08068789447454161,-1.667336099797634e-05,-0.287188307970066
984,0.9726,731.173,243.723,0.00487469,422.133,-0.00992101,-0.00907109,0.424859,-0.0841929,-0.338791,0.881675,-1.13236e-05,-1.66888e-05,0.674776,0.5293747626183851,1.4149413473547998,-1.1323535888285718e-05,-0.080746085089069,-1.6688660742780748e-05,-0.28736862651689155
985,0.9736,731.276,243.757,0.00486694,422.193,-0.0099283,-0.00907461,0.425176,-0.0842562,-0.339045,0.882333,-1.13412e-05,-1.67041e-05,0.675282,0.5298596512689258,1.4165309016673766,-1.1341135688791582e-05,-0.08080427202024698,-1.670396048725209e-05,-0.28754961189963957
986,0.9746,731.379,243.791,0.00485922,422.252,-0.00993564,-0.00907815,0.425492,-0.0843194,-0.339298,0.882991,-1.13587e-05,-1.67195e-05,0.675788,0.5303431633096056,1.4181215022508762,-1.1358635490177349e-05,-0.08086236335454988,-1.671936022995535e-05,-0.2877298390481333
987,0.9756,731.482,243.825,0.0048515,422.312,-0.00994302,-0.00908172,0.425809,-0.0843825,-0.339551,0.883648,-1.13763e-05,-1.67348e-05,0.676293,0.5308283589918275,1.419710730082032,-1.13762352901281e-05,-0.0809203591096368,-1.6734659973982602e-05,-0.2879100206049261
988,0.9766,731.584,243.86,0.00484381,422.371,-0.00995044,-0.00908531,0.426125,-0.0844457,-0.339804,0.884305,-1.13939e-05,-1.67501e-05,0.676799,0.5313121771925184,1.421301002378942,-1.1393835089745785e-05,-0.08097844310746749,-1.6749959717898832e-05,-0.28809015658155124
989,0.9776,731.687,243.894,0.00483613,422.43,-0.0099579,-0.00908892,0.426441,-0.0845088,-0.340056,0.884962,-1.14114e-05,-1.67654e-05,0.677304,0.5317961483039197,1.4228923198280463,-1.1411334890243374e-05,-0.0810364315381531,-1.6765259461481996e-05,-0.28826953525943
990,0.9786,731.789,243.928,0.00482847,422.489,-0.0099654,-0.00909255,0.426757,-0.0845719,-0.340309,0.885619,-1.1429e-05,-1.67807e-05,0.677809,0.5322802723743583,1.4244846831162348,-1.1428934689194925e-05,-0.08109441630988434,-1.6780559204843115e-05,-0.2884495802903525
991,0.9796,731.892,243.962,0.00482082,422.548,-0.00997294,-0.00909621,0.427073,-0.084635,-0.340562,0.886275,-1.14466e-05,-1.6796e-05,0.678314,0.5327645494521771,1.4260756668539702,-1.1446534487924431e-05,-0.08115239742289182,-1.679585894798219e-05,-0.2886295797756441
992,0.9806,731.994,243.996,0.0048132,422.607,-0.00998052,-0.00909988,0.427389,-0.084698,-0.340814,0.886931,-1.14642e-05,-1.68113e-05,0.678818,0.533248979585734,1.4276676946194415,-1.146413428632087e-05,-0.08121028299843935,-1.681115869089922e-05,-0.28880882253600426
993,0.9816,732.096,244.03,0.00480558,422.666,-0.00998814,-0.00910358,0.427705,-0.084761,-0.341066,0.887587,-1.14818e-05,-1.68266e-05,0.679322,0.5337335628234021,1.4292607670977548,-1.1481734084384243e-05,-0.0812681649273106,-1.6826458433594205e-05,-0.2889880201328796
994,0.9826,732.198,244.064,0.00479798,422.725,-0.0099958,-0.00910731,0.42802,-0.0848239,-0.341318,0.888242,-1.14993e-05,-1.68419e-05,0.679826,0.5342167649960383,1.4308524541207976,-1.149923388332752e-05,-0.08132595134233478,-1.6841758175956123e-05,-0.28916717257765
995,0.9836,732.3,244.098,0.0047904,422.784,-0.0100035,-0.00911105,0.428335,-0.0848869,-0.34157,0.888897,-1.15169e-05,-1.68572e-05,0.68033,0.5347001194013341,1.4324451840403523,-1.1516833680724758e-05,-0.08138382598432992,-1.685705791820702e-05,-0.28934627988169237
996,0.9846,732.401,244.132,0.00478284,422.842,-0.0100113,-0.00911482,0.42865,-0.0849498,-0.341822,0.889551,-1.15346e-05,-1.68725e-05,0.680833,0.5351836260872505,1.4340365235019985,-1.1534533476798003e-05,-0.08144160512450249,-1.6872357660124848e-05,-0.2895253420563806
997,0.9856,732.503,244.166,0.00477529,422.901,-0.010019,-0.00911861,0.428965,-0.0850126,-0.342074,0.890205,-1.15522e-05,-1.68878e-05,0.681336,0.5356672851017636,1.4356289040400476,-1.155213327364013e-05,-0.0814992887804149,-1.6887657401931655e-05,-0.2897043591130858
998,0.9866,732.604,244.199,0.00476776,422.96,-0.0100269,-0.00912242,0.42928,-0.0850755,-0.342326,0.890859,-1.15698e-05,-1.69031e-05,0.681839,0.5361510964928642,1.4372223263355859,-1.156973307014919e-05,-0.081557060658206,-1.6902957143405395e-05,-0.28988333106317654
999,0.9876,732.706,244.233,0.00476024,423.018,-0.0100347,-0.00912626,0.429594,-0.0851383,-0.342577,0.891513,-1.15874e-05,-1.69184e-05,0.682342,0.5366335236742668,1.438816791070146,-1.1587332866325184e-05,-0.08161473706373856,-1.691825688465709e-05,-0.2900615479799209
