,Time,S11,S22,S33,S12,S13,S23,LE11,LE22,LE33,LE12,LE13,LE23,SDV_EPBAR,E11,E12,E13,E22,E23,E33
0,1e-05,1.04203,1.04203,-2.22045e-16,1.04203,-6.00101e-18,-1.80033e-17,3.49998e-06,3.49998e-06,-2.99999e-06,1.29999e-05,-2.99404e-22,-6.38851e-26,0.0,3.499986124921861e-06,1.2999984499106887e-05,0.0,3.499986124921861e-06,0.0,-2.999985500018454e-06
1,2e-05,2.08405,2.08405,2.22045e-16,2.08405,-5.40095e-17,-6.60119e-17,6.99994e-06,6.99994e-06,-5.99996e-06,2.59997e-05,-1.19787e-21,-5.98928e-22,0.0,6.999964499598832e-06,2.600003799502204e-05,0.0,6.999964499598832e-06,0.0,-5.9999420002343484e-06
2,3.5e-05,3.64707,3.64707,-6.66134e-16,3.64707,-4.20065e-17,-3.00042e-17,1.22498e-05,1.22498e-05,-1.04998e-05,4.54992e-05,-5.98929e-22,-5.98929e-22,0.0,1.2249875029013424e-05,4.550023510430101e-05,0.0,1.2249875029013424e-05,0.0,-1.0499744877323636e-05
3,5.75e-05,5.99155,5.99155,-3.9968e-15,5.99155,-4.20047e-17,-7.80117e-17,2.01244e-05,2.01244e-05,-1.72495e-05,7.47478e-05,1.19796e-21,-1.19785e-21,0.0,2.0124602497118005e-05,7.475059368644565e-05,0.0,2.0124602497118005e-05,0.0,-1.7249351228265652e-05
4,9.125e-05,9.50816,9.50816,-2.79776e-14,9.50816,-9.00093e-17,-1.26016e-16,3.19361e-05,3.19361e-05,-2.73738e-05,0.00011862,-3.5936e-21,1.19808e-21,0.0,3.193660996259062e-05,0.0001186270356303698,0.0,3.193660996259062e-05,0.0,-2.737342534098186e-05
5,0.00014188,14.7829,14.7829,-1.57652e-13,14.7829,-1.38005e-16,-2.70031e-16,4.96528e-05,4.96528e-05,-4.25595e-05,0.000184424,4.71863e-25,-4.79128e-21,0.0,4.965403272061408e-05,0.00018444100715142575,0.0,4.965403272061408e-05,0.0,-4.255859435731146e-05
6,0.00021781,22.6944,22.6944,-8.00693e-13,22.6944,-5.22036e-16,-3.66006e-16,7.62261e-05,7.62261e-05,-6.53367e-05,0.000283125,-1.4374e-20,4.79342e-21,0.0,7.622900528292398e-05,0.0002831650836656596,0.0,7.622900528292398e-05,0.0,-6.533456560431361e-05
7,0.00033172,34.5606,34.5606,-4.05498e-12,34.5606,-8.09983e-16,-6.53953e-16,0.000116082,0.000116082,-9.94992e-05,0.000431163,-2.15601e-20,7.19196e-21,0.0,0.00011608873777602113,0.00043125596412663114,0.0,0.00011608873777602113,0.0,-9.949425011879232e-05
8,0.00050258,52.3574,52.3574,-2.05111e-11,52.3574,-9.05775e-16,-1.13382e-15,0.000175858,0.000175858,-0.000150736,0.000653187,-2.87453e-20,9.59285e-21,0.0,0.0001758734639245585,0.0006534003730833682,0.0,0.0001758734639245585,0.0,-0.00015072463989995732
9,0.00075887,79.0468,79.0468,-1.03758e-10,79.0468,-7.13335e-16,-1.70953e-15,0.000265503,0.000265503,-0.000227574,0.000986153,-3.35335e-20,4.80753e-21,0.0,0.00026553824904107515,0.0009866394087476582,0.0,0.00026553824904107515,0.0,-0.0002275481070015406
10,0.0011433,119.068,119.068,-5.24726e-10,119.068,-1.48088e-15,-9.40773e-16,0.000399927,0.000399927,-0.000342794,0.00148544,-5.74957e-20,1.91952e-20,0.0,0.00040000698146447355,0.0014865438124782582,0.0,0.00040000698146447355,0.0,-0.00034273525284966855
11,0.00172,179.071,179.071,-2.65263e-09,179.071,-3.78269e-15,-3.24259e-15,0.000601466,0.000601466,-0.000515542,0.00223402,-3.82541e-20,-3.82541e-20,0.0,0.0006016469169445315,0.0022365172819931445,0.0,0.0006016469169445315,0.0,-0.0005154091310572984
12,0.0025849,194.579,198.092,0.180305,195.948,-0.104012,-0.238323,0.000871121,0.000848802,-0.000965604,0.00344326,-2.62717e-06,-1.03652e-06,0.000745654,0.0008715005360975248,0.0034491948294790298,-2.6271665489741025e-06,0.0008491623343611643,-1.0365194628159102e-06,-0.0009651379544748373
13,0.0027471,195.754,199.22,0.0263439,197.397,-0.174744,-0.263895,0.000919749,0.000890871,-0.00105217,0.00367607,-3.81685e-06,-1.72477e-06,0.000903708,0.0009201720988165629,0.003682835032359888,-3.816842715886892e-06,0.0008912679434356363,-1.7247685125676426e-06,-0.0010516166632307256
14,0.0029093,197.068,200.561,0.0158663,198.777,-0.198982,-0.270192,0.000968525,0.000933559,-0.00113856,0.00390805,-4.46583e-06,-2.18102e-06,0.00106178,0.0009689941717938577,0.003915696384974687,-4.465820028221046e-06,0.00093399490183943,-2.181017621616377e-06,-0.0011379120864826175
15,0.0031526,198.983,202.569,-0.0109071,200.76,-0.214439,-0.294592,0.00104215,0.000997813,-0.00126894,0.00425526,-5.23081e-06,-3.0649e-06,0.00129952,0.0010426932270029,0.004264326474340718,-5.230796319311004e-06,0.0009983109810083324,-3.0648953032175186e-06,-0.0012681352360732756
16,0.0035175,201.739,205.476,-0.0194096,203.598,-0.233143,-0.325036,0.00115368,0.00109409,-0.00146587,0.00477484,-6.42713e-06,-4.29133e-06,0.00165742,0.0011543457447653616,0.004786257713865094,-6.4271093460632756e-06,0.001094688734800675,-4.291320792271236e-06,-0.0014647961373499552
17,0.0040648,205.581,209.576,-0.0750537,207.563,-0.244887,-0.395511,0.00132342,0.00123838,-0.00176468,0.00555142,-8.16764e-06,-6.4418e-06,0.002197,0.0013242961066912695,0.005566857685813664,-8.167606644904346e-06,0.0012391471091370843,-6.441779251686874e-06,-0.0017631238677419114
18,0.0048859,210.832,215.202,-0.141423,212.994,-0.252835,-0.515595,0.00158366,0.0014541,-0.00221971,0.00671024,-1.09354e-05,-9.7807e-06,0.00301146,0.0015849146517243895,0.0067328041023746454,-1.0935340208684252e-05,0.0014551577160177853,-9.78065216905577e-06,-0.0022172482655403725
19,0.0058859,216.499,221.364,-0.0704021,218.992,-0.332888,-0.575956,0.0019036,0.00171594,-0.00277843,0.00811776,-1.62794e-05,-1.27297e-05,0.00400959,0.0019054129967044364,0.008150798352337674,-1.6279267491259297e-05,0.0017174130674864063,-1.2729618977691537e-05,-0.002774573735647823
20,0.0068859,221.605,227.06,0.00146826,224.359,-0.433769,-0.579383,0.00222163,0.00197841,-0.00333787,0.00952459,-2.29433e-05,-1.54676e-05,0.00501255,0.002224099648471478,0.009570093259225088,-2.2943036804501382e-05,0.001980368344320471,-1.5467480377284737e-05,-0.003332305504840427
21,0.0078859,226.214,231.998,-0.0955846,229.235,-0.53149,-0.609955,0.00253903,0.00223963,-0.00389819,0.0109313,-3.05638e-05,-1.91381e-05,0.00601959,0.0025422560664525307,0.010991264958979619,-3.056333293183222e-05,0.0022421398446264007,-1.913791686769528e-05,-0.0038906019204892894
22,0.0088859,230.744,237.084,0.12335,233.67,-0.520291,-0.626242,0.00285496,0.00250267,-0.00445814,0.0123357,-3.65425e-05,-2.29822e-05,0.0070288,0.0028590392794369812,0.012412098567317287,-3.654183233092745e-05,0.0025058042927190716,-2.298193591121489e-05,-0.004448217245023756
23,0.0091359,231.567,237.732,0.0185217,234.82,-0.643532,-0.609938,0.00292872,0.00256656,-0.00459316,0.0126936,-3.96106e-05,-2.4004e-05,0.00728187,0.0029330128902873565,0.012774505706283579,-3.960981551054399e-05,0.0025698564346792185,-2.4003711906250835e-05,-0.004582627572485842
24,0.0095109,233.219,239.617,0.0207116,236.302,-0.539008,-0.66321,0.00304083,0.00266591,-0.00479782,0.0132252,-4.02739e-05,-2.66382e-05,0.00766086,0.003045458013356095,0.013313039763186874,-4.027308901732862e-05,0.0026694666979740767,-2.6637845206289867e-05,-0.0047863288464645715
25,0.010073,235.481,242.068,0.0788693,238.551,-0.524501,-0.676915,0.0032113,0.00281352,-0.00510671,0.0140213,-4.30812e-05,-2.97207e-05,0.00823013,0.003216461747672872,0.014120059465712487,-4.308027201838094e-05,0.0028174816619288556,-2.9720258344356765e-05,-0.005093692924058257
26,0.010917,238.417,244.821,-0.261376,241.804,-0.574164,-0.779087,0.00347396,0.00303142,-0.00557692,0.0152107,-4.89217e-05,-3.57218e-05,0.00908627,0.0034800011926356955,0.015326971472729545,-4.8920503353144795e-05,0.0030360194000049745,-3.5721161984136884e-05,-0.00556139785032439
27,0.011167,239.444,246.191,0.123978,242.77,-0.618158,-0.656893,0.0035467,0.0030979,-0.0057108,0.015566,-5.08878e-05,-3.54779e-05,0.00933913,0.0035529969827470254,0.01568778123975334,-5.08865052378793e-05,0.0031027034511279528,-3.547727066677275e-05,-0.005694524378691557
28,0.011542,240.621,247.251,-0.209268,244.094,-0.647805,-0.74586,0.00365866,0.00319497,-0.00591617,0.0160986,-5.35508e-05,-3.87673e-05,0.00972018,0.003665361066313322,0.016228880634019394,-5.354936618151562e-05,0.0032000793566151486,-3.87665485579447e-05,-0.005898703927325277
29,0.012105,242.935,249.943,0.219898,246.037,-0.529202,-0.695082,0.00382832,0.00334356,-0.00622396,0.0168922,-5.49831e-05,-4.10821e-05,0.0102903,0.0038356573772992952,0.017035679969323203,-5.498158845707035e-05,0.0033491559317766484,-4.108125614210589e-05,-0.006204631282138107
30,0.012316,243.299,250.049,-0.038966,246.851,-0.687003,-0.706909,0.0038899,0.00339654,-0.00633811,0.0171944,-5.82563e-05,-4.23839e-05,0.0105053,0.0038974754804406153,0.017343074596798846,-5.8254603134688665e-05,0.00340231477822317,-4.2383001815249344e-05,-0.0063180665490362165
31,0.012632,244.364,251.124,-0.0392582,247.923,-0.686046,-0.709259,0.00398343,0.00347878,-0.00650977,0.0176437,-6.02304e-05,-4.41383e-05,0.0108267,0.003991374402436909,0.017800269541368152,-6.0228586185928634e-05,0.003484837977898003,-4.413732591956876e-05,-0.006488627350080045
32,0.013107,246.042,253.121,-0.00102743,249.409,-0.576875,-0.753051,0.00412527,0.00360398,-0.00676967,0.0183138,-6.14525e-05,-4.74009e-05,0.0113087,0.004133790638902735,0.01848252606650691,-6.145061183382428e-05,0.0036104821447735524,-4.7399776595069554e-05,-0.00674680740388045
33,0.013819,248.323,255.624,0.0887193,251.683,-0.583738,-0.747421,0.00434187,0.0037898,-0.00716268,0.0193163,-6.56605e-05,-5.12246e-05,0.0120324,0.0043513095744054375,0.01950406676060701,-6.565834439653528e-05,0.0037969903725085796,-5.122328804263443e-05,-0.0071370891437658734
34,0.014819,251.049,258.081,-0.316499,254.774,-0.636303,-0.854249,0.00465448,0.00404647,-0.00772271,0.0207188,-7.3028e-05,-5.85026e-05,0.0130511,0.0046653289175278,0.02093492436859412,-7.302533352049334e-05,0.004054668013672824,-5.8500888756252145e-05,-0.007692966491208764
35,0.015069,251.911,259.325,0.13881,255.571,-0.688119,-0.716436,0.00472652,0.00411277,-0.00785613,0.0210731,-7.51727e-05,-5.81185e-05,0.0133047,0.004737707614872244,0.021296705698075957,-7.516987460343127e-05,0.0041212390449674174,-5.8116811152642e-05,-0.007825351264034941
36,0.015444,252.826,260.093,-0.225441,256.625,-0.714589,-0.814688,0.00483769,0.00420935,-0.00806134,0.0216041,-7.79052e-05,-6.16331e-05,0.013687,0.004849410514718544,0.02183915825721039,-7.790216546865736e-05,0.0042182217574542324,-6.163120071955852e-05,-0.008028934534326182
37,0.016006,254.795,262.421,0.236715,258.202,-0.590847,-0.749922,0.00500598,0.00435725,-0.00836837,0.0223955,-7.94429e-05,-6.39194e-05,0.0142586,0.005018530852245684,0.022648161847551584,-7.943974449642344e-05,0.004366756616334122,-6.391735719868397e-05,-0.0083334526600638
38,0.016217,255.025,262.387,-0.0415106,258.875,-0.74397,-0.76915,0.00506716,0.00441,-0.00848245,0.0226968,-8.27007e-05,-6.53621e-05,0.0144741,0.005080019766889876,0.0229563321622428,-8.269728039134172e-05,0.00441973836012699,-6.535996394452237e-05,-0.008446575527133349
39,0.016533,255.905,263.273,-0.0368851,259.752,-0.740099,-0.769517,0.00516001,0.00449191,-0.00865382,0.0231446,-8.46945e-05,-6.71647e-05,0.0147962,0.0051733457793183835,0.023414514587173585,-8.469091352203417e-05,0.0045020137504385715,-6.716244450200026e-05,-0.008616483478506631
40,0.017008,257.298,264.941,-0.00351461,260.968,-0.639435,-0.807521,0.00530082,0.00461636,-0.00891312,0.023813,-8.61658e-05,-7.04541e-05,0.0152792,0.005314894203620524,0.024098793509263805,-8.616208783407409e-05,0.004627031805136905,-7.045161816821022e-05,-0.008873515898647266
41,0.01772,258.96,266.42,-0.0814634,262.946,-0.764411,-0.785374,0.00551611,0.00479851,-0.00930465,0.0248151,-9.28559e-05,-7.41851e-05,0.0160046,0.005531351746929758,0.025125557284305433,-9.285158902438972e-05,0.004810041286062772,-7.418234835354642e-05,-0.009261495693146715
42,0.01797,259.748,267.527,0.0608019,263.538,-0.690922,-0.777387,0.00558851,0.00486492,-0.00943954,0.0251675,-9.33981e-05,-7.54954e-05,0.0162588,0.0056041548522367535,0.025486875191168545,-9.339373853323174e-05,0.004876772936704521,-7.549255029404289e-05,-0.00939512739699977
43,0.018345,260.713,268.517,0.0370153,264.485,-0.673784,-0.799005,0.00569873,0.00496209,-0.00964322,0.0256967,-9.53739e-05,-7.7943e-05,0.0166406,0.005714998650674152,0.02602970646600644,-9.536935205423092e-05,0.004974421556912079,-7.793996252325464e-05,-0.009596873250956262
44,0.018907,262.044,269.724,-0.0485474,265.922,-0.703751,-0.81972,0.00586667,0.00510651,-0.00995086,0.0264888,-9.93062e-05,-8.1527e-05,0.0172138,0.005883912610855857,0.026842746558516817,-9.930126930257632e-05,0.0051195704438222744,-8.152367676439454e-05,-0.009901514006625645
45,0.019751,263.904,271.542,-0.101551,268.051,-0.800646,-0.799477,0.00612351,0.00532263,-0.0104168,0.0276714,-0.000106935,-8.59643e-05,0.0180736,0.006142297015275577,0.028057809115477284,-0.00010692928265665369,0.005336820360567041,-8.596060517540582e-05,-0.010362733036647809
46,0.020384,265.394,273.155,-0.11283,269.533,-0.797306,-0.814701,0.00631272,0.005486,-0.0107634,0.0285596,-0.000111427,-8.98109e-05,0.018718,0.0063326872105902154,0.028971335698632528,-0.00011142079224235601,0.005501075653737475,-8.980686712189989e-05,-0.010705681876910011
47,0.021017,267.055,275.196,0.0813153,270.932,-0.696055,-0.815697,0.00650141,0.00565113,-0.0111098,0.0294457,-0.000114095,-9.34635e-05,0.0193618,0.006522590041159182,0.029883511278901098,-0.00011408849141303357,0.005667127756074697,-9.345913242320147e-05,-0.011048314081383848
48,0.021254,267.438,275.395,-0.00420815,271.536,-0.785406,-0.807274,0.00657003,0.00571107,-0.0112374,0.0297819,-0.000116737,-9.47121e-05,0.0196038,0.006591659991050713,0.03022981632600974,-0.00011673018650160127,0.005727409250330773,-9.470761495067315e-05,-0.011174496265912492
49,0.02161,268.239,276.197,-0.0194997,272.336,-0.775025,-0.818332,0.006674,0.00580271,-0.0114299,0.0302833,-0.000118913,-9.69084e-05,0.0199662,0.006696320766636177,0.03074650307845972,-0.00011890593012942041,0.0058195783332373185,-9.690370453263597e-05,-0.011364826855474353
50,0.022144,269.515,277.691,-0.00403471,273.455,-0.68413,-0.8571,0.00683192,0.00594144,-0.0117212,0.0310317,-0.000120936,-0.000100615,0.0205096,0.006855310803134396,0.031518202495266046,-0.00012092868753676989,0.005959125362795525,-0.00010060993848060029,-0.011652774339824146
51,0.022945,271.068,278.952,-0.151169,275.265,-0.761322,-0.873753,0.00707422,0.00614496,-0.0121619,0.0321524,-0.000127456,-0.00010566,0.0213255,0.007099301403209468,0.03267487296403804,-0.00012744787782914546,0.006163878999012606,-0.00010565441817877996,-0.012088242999605425
52,0.023195,271.704,280.013,0.0831338,275.77,-0.736559,-0.818768,0.00714562,0.00621122,-0.0122958,0.0325035,-0.000128628,-0.000106392,0.0215793,0.007171210860466681,0.03303750876892586,-0.0001286197277734491,0.006230549626408566,-0.00010638634057191787,-0.01222051552802439
53,0.02357,272.503,280.821,0.0399219,276.542,-0.721662,-0.840753,0.00725502,0.00630781,-0.0124988,0.0330304,-0.000130675,-0.000108862,0.021961,0.007281401418248512,0.03358195965528621,-0.0001306664623941245,0.006327746129226375,-0.000108856074747532,-0.012421014412046905
54,0.024132,273.606,281.805,-0.037868,277.729,-0.745083,-0.858905,0.00742155,0.00645152,-0.0128052,0.0338189,-0.00013455,-0.000112441,0.0225336,0.0074491579578872535,0.03439726042055957,-0.00013454094855469556,0.006472375881744652,-0.00011243467874766377,-0.012723562260533727
55,0.024976,275.508,284.032,0.0413741,279.345,-0.606137,-0.914987,0.00767629,0.00666997,-0.0132702,0.0349928,-0.000137436,-0.000118401,0.0233917,0.007705828247092095,0.035612252364563,-0.00013742655610560206,0.006692263788638186,-0.00011839399087820723,-0.01318253908370104
56,0.025226,275.696,283.935,0.0267682,280.01,-0.838831,-0.817079,0.00774783,0.0067318,-0.0134035,0.0353472,-0.000142007,-0.00011858,0.0236464,0.0077779221008114074,0.035979338390602855,-0.00014199691748328913,0.0067545094956145135,-0.00011857296966966135,-0.013314073084305211
57,0.025601,276.539,285.025,0.0166562,280.665,-0.7309,-0.861695,0.00785677,0.00682953,-0.0136064,0.035872,-0.000142882,-0.000121351,0.0240275,0.007887715407977947,0.03652316303449532,-0.00014287179285321638,0.006852904421817296,-0.00012134363726523656,-0.013514251350104645
58,0.026164,277.658,286.241,0.05345,281.751,-0.712097,-0.866437,0.0080224,0.00697423,-0.0139122,0.0366583,-0.000146012,-0.000124743,0.0245994,0.008054665675885753,0.03733850170597974,-0.00014600134076669935,0.006998606578383804,-0.00012473521991551717,-0.013815872571806498
59,0.027007,279.14,287.458,-0.160621,283.381,-0.739855,-0.917088,0.00827704,0.00718841,-0.0143762,0.0378333,-0.000151898,-0.000130588,0.0254577,0.008311389400630809,0.03855809081376904,-0.00015188646408292872,0.007214308638649802,-0.0001305794737582744,-0.014273355862601811
60,0.027257,279.631,288.191,0.0807707,283.89,-0.783594,-0.834331,0.00834809,0.00725324,-0.0145093,0.0381842,-0.000153971,-0.000130959,0.0257114,0.008383032469937657,0.03892258479456445,-0.00015395914707394542,0.0072796084589497045,-0.00013095042524446932,-0.014404547347949492
61,0.027632,280.259,288.745,-0.116433,284.555,-0.784762,-0.890072,0.00845712,0.00734897,-0.0147121,0.0387095,-0.000156338,-0.000133914,0.0260927,0.008492982465782895,0.039468474193654846,-0.00015632577985169593,0.007376039951487279,-0.00013390503392052278,-0.01460440583941136
62,0.028195,281.455,290.081,0.096596,285.582,-0.725845,-0.860017,0.00862237,0.0074936,-0.0150167,0.039494,-0.000158974,-0.000136798,0.0266637,0.008659649701636463,0.04028425716068984,-0.00015896136430326724,0.007521747284717328,-0.00013678864358024345,-0.01490451162896056
63,0.029039,282.68,291.095,-0.287377,287.111,-0.760902,-0.958268,0.00887595,0.0077073,-0.0154804,0.0406674,-0.000165017,-0.000143427,0.0275215,0.008915458048177394,0.04150564315506444,-0.0001650033854437849,0.007737077689346172,-0.00014341671483952823,-0.01536119451680773
64,0.029289,283.291,292.0,0.107286,287.587,-0.78359,-0.837805,0.00894693,0.00777244,-0.0156129,0.0410171,-0.000166802,-0.000143311,0.0277746,0.008987073408988744,0.04186992136880918,-0.0001667880893198026,0.007802723820658164,-0.00014330073146917588,-0.015491650515633504
65,0.029664,283.796,292.353,-0.175456,288.228,-0.817893,-0.908349,0.0090557,0.00786743,-0.0158155,0.0415419,-0.000169648,-0.000146468,0.0281558,0.009096826901798805,0.042416838201968066,-0.0001696336105917462,0.00789845954829027,-0.0001464572740861314,-0.015691091703164517
66,0.030226,285.087,293.953,0.172163,289.162,-0.6942,-0.863267,0.0092204,0.0080129,-0.0161195,0.042324,-0.000171278,-0.000149132,0.0287258,0.00926303883636681,0.04323243130723631,-0.00017126333276074046,0.008045089202050049,-0.00014912088037610793,-0.015990276132949344
67,0.03107,286.424,295.406,0.0913903,290.592,-0.713811,-0.891209,0.00947232,0.00822834,-0.0165816,0.043494,-0.000176696,-0.000154411,0.0295821,0.009517324409576311,0.044453727570860524,-0.00017668039018114978,0.008262285831648564,-0.00015439907923509022,-0.01644488198157734
68,0.031914,287.617,296.247,0.00647809,292.117,-0.854689,-0.844025,0.00972456,0.00844041,-0.0170421,0.0446657,-0.000184606,-0.00015845,0.0304383,0.009771997177464575,0.04567823123883774,-0.00018458896136086533,0.008476130688843009,-0.00015843744746169008,-0.016897704842958827
69,0.032757,288.869,297.506,-0.093059,293.509,-0.878391,-0.874495,0.00997624,0.00865419,-0.0175029,0.045835,-0.000191183,-0.000163616,0.0312938,0.010026168577301542,0.04690165793164591,-0.00019116472569480347,0.008691745762335668,-0.0001636026156321968,-0.01735061402227822
70,0.033601,290.193,298.898,-0.0963812,294.86,-0.880224,-0.881032,0.0102276,0.00886826,-0.0179631,0.0470029,-0.00019746,-0.000168498,0.0321487,0.010280080665369562,0.048125048637889245,-0.00019744050605730035,0.008907699518136525,-0.00016848380500933402,-0.017802725230936844
71,0.034445,291.817,301.05,0.142735,296.068,-0.727702,-0.890003,0.0104782,0.00908564,-0.0184234,0.0481669,-0.000200696,-0.000173434,0.0330023,0.010533288579210653,0.049345776520301365,-0.00020067586190497533,0.009127039713079821,-0.00017341896119327238,-0.01825472660041727
72,0.034695,291.941,300.831,-0.00511637,296.562,-0.879715,-0.87092,0.0105494,0.00914696,-0.0185563,0.0485177,-0.000204231,-0.000174599,0.0332559,0.010605241110837271,0.04971395159283687,-0.0002042101462690349,0.009188921280424589,-0.0001745837584816723,-0.018385191877642315
73,0.03507,292.522,301.386,-0.0316902,297.133,-0.864248,-0.884952,0.0106572,0.00924203,-0.0187571,0.0490395,-0.000206499,-0.000176915,0.0336355,0.010714190228080955,0.050261835263196275,-0.00020647768054904425,0.009284869431993803,-0.00017689935146425473,-0.01858228034276921
74,0.035632,293.523,302.674,0.0119076,297.901,-0.738168,-0.926426,0.0108208,0.00938656,-0.0190607,0.049818,-0.000208182,-0.000180796,0.0342042,0.010879556596202322,0.05107978244657918,-0.00020816033163106873,0.009430751916116531,-0.00018077965738805268,-0.01888019353694592
75,0.036476,294.527,303.367,-0.106679,299.278,-0.88904,-0.893195,0.0110713,0.00959768,-0.0195193,0.0509852,-0.000216264,-0.000185182,0.0350581,0.011132813644250561,0.05230731901963326,-0.00021624061662683935,0.009643885434043709,-0.0001851648548717444,-0.019330031924363666
76,0.036726,295.081,304.298,0.0639227,299.575,-0.792557,-0.886461,0.011142,0.00966318,-0.0196522,0.0513315,-0.000216511,-0.000186502,0.0353102,0.011204303261303394,0.052671796149782235,-0.00021648756318493056,0.009710019274399073,-0.0001864846095831485,-0.019460354303007077
77,0.037101,295.642,304.853,0.0324753,300.113,-0.775965,-0.906989,0.0112495,0.00975834,-0.0198528,0.0518521,-0.000218487,-0.000188926,0.0356892,0.011313013566978336,0.05321995976146554,-0.0002184631334536391,0.009806107851655366,-0.00018890815460714805,-0.019657030828618804
78,0.037664,296.414,305.557,0.0146951,300.957,-0.8053,-0.903092,0.0114127,0.00990029,-0.0201552,0.0526314,-0.000222364,-0.00019212,0.0362576,0.01147807331930184,0.05404105397391268,-0.0002223392789580947,0.009949460002843136,-0.00019210154613458208,-0.019953441722910248
79,0.038507,297.745,307.005,-0.0329687,302.084,-0.698517,-0.964817,0.0116629,0.0101146,-0.0206144,0.0537926,-0.000225839,-0.000198044,0.0371097,0.011731176795170883,0.055265717347732224,-0.0002258135002927153,0.010165925466144587,-0.00019802439058158594,-0.020403375789703082
80,0.039507,299.106,308.578,0.0855086,303.517,-0.729577,-0.93522,0.011961,0.0103679,-0.0211599,0.0551662,-0.000232336,-0.000203492,0.038119,0.012032818816482882,0.05671622631857676,-0.00023230901208171062,0.010421832904373929,-0.00020347129690734267,-0.020937600025302094
81,0.040507,300.234,309.288,-0.0503885,305.018,-0.89216,-0.878937,0.0122599,0.0106169,-0.0217044,0.0565415,-0.000241785,-0.000208201,0.0391285,0.01233536063865004,0.05817052796593214,-0.00024175577236251744,0.01067345926694907,-0.00020817932767591696,-0.021470554392094443
82,0.040757,300.68,310.089,0.059067,305.295,-0.813979,-0.894713,0.0123301,0.0106818,-0.021837,0.0568868,-0.000242267,-0.000209785,0.0393801,0.012406429075439762,0.058535977340442136,-0.00024223765572006783,0.010739054102984813,-0.0002097629966655301,-0.021600298794338113
83,0.041132,301.201,310.591,0.0239261,305.788,-0.794832,-0.91796,0.0124371,0.0107766,-0.0220368,0.0574055,-0.000244214,-0.000212223,0.039758,0.012514762359078224,0.0590851823759011,-0.00024418418218841165,0.010834876707233487,-0.00021220048229209088,-0.021795763527061918
84,0.041695,301.922,311.19,-0.022404,306.56,-0.812287,-0.926275,0.0125998,0.0109177,-0.0223382,0.058182,-0.000247894,-0.000215583,0.040325,0.012679511912926822,0.05990788139157144,-0.0002478632768211364,0.010977515571272134,-0.00021555976365483787,-0.02209054985740333
85,0.042539,302.902,312.042,-0.0344372,307.748,-0.889209,-0.89833,0.0128481,0.0111286,-0.022794,0.0593421,-0.000254824,-0.000219918,0.041175,0.012930991455627927,0.06113819402963672,-0.00025479153512220076,0.011190753214425309,-0.00021989381980924705,-0.02253617941808639
86,0.042789,303.354,312.809,0.0465354,308.002,-0.814831,-0.903046,0.0129184,0.0111934,-0.0229265,0.0596867,-0.00025534,-0.000221362,0.0414263,0.013002203007383972,0.0615039252631715,-0.00025530740351664694,0.011256280498294524,-0.00022133750124020413,-0.022665684794392793
87,0.043164,303.852,313.306,0.0213908,308.477,-0.799056,-0.920024,0.0130251,0.0112879,-0.0231259,0.0602045,-0.000257316,-0.000223705,0.0418037,0.01311029610910941,0.06205371432377671,-0.00025728289707738217,0.011351848732329639,-0.00022367997990224708,-0.022860545828554013
88,0.043726,304.544,313.881,-0.0269036,309.219,-0.815865,-0.928651,0.0131874,0.0114288,-0.0234267,0.0609795,-0.000260965,-0.000227044,0.0423697,0.013274737254205915,0.06287712498279463,-0.0002609309515962943,0.011494358247375658,-0.00022701822746151734,-0.023154425174699234
89,0.04457,305.77,315.321,0.0149399,310.214,-0.700816,-0.972216,0.0134353,0.0116423,-0.0238829,0.0621343,-0.000264189,-0.000232625,0.043218,0.013525959199244708,0.0641052444664334,-0.0002641541051591201,0.011710335347596468,-0.00023259794490260166,-0.023599960491601735
90,0.04557,307.01,316.766,0.122194,311.475,-0.736969,-0.934863,0.0137311,0.0118941,-0.0244251,0.0635005,-0.000270589,-0.000237812,0.0442229,0.013825804522912932,0.06556001858134297,-0.00027055239409834453,0.011965116085585814,-0.00023778372496774391,-0.024129221097506925
91,0.04657,307.877,317.134,-0.100975,312.85,-0.917158,-0.905331,0.0140275,0.012141,-0.0249664,0.0648693,-0.000280201,-0.000242886,0.0452282,0.014126347029572717,0.06701955581417529,-0.00028016174736611443,0.01221500111978524,-0.00024285650558342198,-0.024657317008074053
92,0.04682,308.369,318.021,0.0694569,313.076,-0.814429,-0.904496,0.0140974,0.0122059,-0.0250982,0.0652122,-0.000280332,-0.000244235,0.0454785,0.014197236938803481,0.06738549955733308,-0.0002802927106563269,0.01228069600513404,-0.0002442051770603637,-0.024785858702608632
93,0.047195,308.829,318.465,0.0297253,313.516,-0.798164,-0.927933,0.0142037,0.0123,-0.0252969,0.0657281,-0.000282256,-0.000246635,0.0458548,0.014305051835350246,0.0679363058048097,-0.000282216169522731,0.012375956100545205,-0.00024660458808867247,-0.024979614502208314
94,0.047757,309.457,318.947,-0.0220892,314.216,-0.826148,-0.933534,0.0143652,0.0124402,-0.0255966,0.0665005,-0.000286015,-0.000249893,0.0464193,0.014468875329612718,0.06876149845578916,-0.00028597410160913217,0.012517901159706746,-0.0002498617793449398,-0.025271784327906666
95,0.048601,310.625,320.372,0.0251032,315.125,-0.697922,-0.981106,0.0146118,0.0126531,-0.0260509,0.067651,-0.000288955,-0.000255479,0.0472649,0.014719074202522275,0.06999181616431516,-0.00028891325652469213,0.012733489169392875,-0.0002554463680192187,-0.02571450278517462
96,0.048851,310.671,320.157,0.0229549,315.559,-0.89556,-0.896236,0.0146815,0.0127137,-0.0261816,0.0679975,-0.000292968,-0.000255762,0.0475158,0.014789802586849587,0.070362632568848,-0.0002929250890660873,0.012794862678435104,-0.00025572929568795644,-0.025841833578411966
97,0.049226,311.181,320.84,0.0087101,315.934,-0.815568,-0.930587,0.0147874,0.0128086,-0.0263802,0.0685116,-0.000294121,-0.000258283,0.0478914,0.014897274517482018,0.07091304747027927,-0.0002940777506589276,0.012890981471667784,-0.000258249647817399,-0.026035282180181363
98,0.049789,311.779,321.345,-0.014159,316.616,-0.854362,-0.922379,0.0149484,0.0129486,-0.0266791,0.0692826,-0.000298095,-0.0002613,0.0484549,0.015060686132961187,0.07173903980900853,-0.0002980505740999284,0.013032796135868718,-0.00026126586412833497,-0.02632635673107897
99,0.050632,312.939,322.758,-0.000801554,317.47,-0.70433,-0.985724,0.0151945,0.0131613,-0.0271328,0.0704308,-0.000300757,-0.000267063,0.0492992,0.015310523309022273,0.07297031731566106,-0.0003007117771473,0.013248291128686862,-0.0002670273418513558,-0.02676801226589598
100,0.050882,312.983,322.532,0.0256994,317.904,-0.899771,-0.897009,0.0152641,0.0132216,-0.0272631,0.0707767,-0.000304735,-0.000267287,0.0495497,0.015381191380664738,0.07334152194456012,-0.0003046885730060289,0.013309391842809992,-0.00026725128201221526,-0.026894816132446486
101,0.051257,313.478,323.202,0.00837959,318.263,-0.818266,-0.933108,0.0153697,0.0133164,-0.0274613,0.0712898,-0.000305855,-0.000269816,0.0499247,0.015488421296114607,0.07389239479381349,-0.0003058082311278021,0.013405458126626524,-0.00026977960293661507,-0.027087666467789484
102,0.05182,314.055,323.687,-0.0138207,318.923,-0.856933,-0.924792,0.0155303,0.0134561,-0.0277597,0.0720594,-0.000309805,-0.000272813,0.0504873,0.01565152183319718,0.07471918048717408,-0.00030975701538638045,0.013547040758443485,-0.0002727757899173566,-0.027377940197121142
103,0.052664,315.181,325.064,-0.00112232,319.748,-0.708514,-0.987479,0.0157758,0.0136683,-0.0282124,0.0732055,-0.000312468,-0.000278534,0.0513303,0.015900894891097694,0.07595162225578012,-0.00031241918695879,0.013762138261530277,-0.0002784952130067131,-0.02781814655536685
104,0.052914,315.22,324.836,0.0253556,320.171,-0.901331,-0.9,0.0158453,0.0137286,-0.0283425,0.0735507,-0.000316402,-0.000278766,0.0515804,0.015971502456877174,0.07632310486999327,-0.00031635195016599393,0.013823269961569684,-0.0002787271483688514,-0.027944619187276865
105,0.053289,315.699,325.487,0.00800075,320.518,-0.821699,-0.93542,0.0159507,0.0138232,-0.0285403,0.0740629,-0.000317535,-0.000281274,0.0519547,0.01607859149672941,0.07687453877447492,-0.0003174845910975943,0.013919182179484402,-0.00028123444617700333,-0.02813687272709975
106,0.053851,316.317,326.147,0.0252467,321.126,-0.813339,-0.936817,0.0161108,0.0139635,-0.0288383,0.0748304,-0.000320689,-0.000284404,0.0525163,0.016241278701991213,0.0777013572339813,-0.00032063758477884896,0.014061445020249197,-0.00028436356101613214,-0.02842644479064671
107,0.054695,317.218,326.929,-0.0863219,322.016,-0.79076,-0.976636,0.016356,0.0141727,-0.0292897,0.0759766,-0.0003254,-0.000289747,0.0533585,0.01649049161578353,0.07893732672844478,-0.000325347063162007,0.014273608866111953,-0.0002897050273918955,-0.028864914123494456
108,0.055695,318.384,328.251,0.125152,323.09,-0.765987,-0.937053,0.0166485,0.0144216,-0.0298258,0.0773307,-0.000330964,-0.000294677,0.0543554,0.01678785857237841,0.0803993053718195,-0.00033090923745704437,0.014526092987704242,-0.0002946335869972172,-0.029385400114297244
109,0.056695,319.313,329.281,0.0455319,324.131,-0.81082,-0.941629,0.0169404,0.0146699,-0.0303624,0.0786841,-0.000337715,-0.000300171,0.055352,0.01708470227052583,0.08186250771739223,-0.00033765798070828357,0.014778031093414468,-0.0003001259531927314,-0.029906092194416867
110,0.057695,320.308,330.151,0.073135,325.208,-0.866354,-0.895464,0.0172325,0.0149167,-0.0308977,0.0800371,-0.000344989,-0.00030472,0.0563478,0.01738183610634292,0.0833272583707021,-0.00034492949813758056,0.015028509219217723,-0.00030467357757624214,-0.030425244499753923
111,0.058695,321.36,331.483,0.0637488,326.156,-0.790883,-0.936646,0.0175238,0.0151659,-0.0314334,0.0813869,-0.000350027,-0.000310594,0.0573425,0.01767824260471129,0.08479052083772265,-0.00034996574769652344,0.015281485843293252,-0.0003105457706769066,-0.030944506599503985
112,0.059695,322.3,332.375,0.04175,327.182,-0.818664,-0.946724,0.0178149,0.0154128,-0.031968,0.0827371,-0.000356538,-0.000316126,0.0583368,0.017974531863942822,0.08625619425241493,-0.00035647444788045046,0.015532189790276707,-0.0003160760374409932,-0.03146242521429521
113,0.060445,322.947,332.929,0.101842,327.999,-0.909491,-0.881718,0.0180293,0.0155974,-0.0323645,0.0837533,-0.000362554,-0.000319106,0.0590818,0.01819280900204756,0.08736060885503316,-0.00036248828524054755,0.015719674336803102,-0.00031905509109564356,-0.03184637423977332
114,0.061195,323.739,333.869,0.026311,328.657,-0.819257,-0.951722,0.0182438,0.0157838,-0.0327622,0.0847664,-0.000365812,-0.000324073,0.0598262,0.01841123478490636,0.08846277209438402,-0.0003657450989482669,0.015909022130765615,-0.000324020494017363,-0.032231332382737565
115,0.062195,324.647,334.473,-0.0621377,329.669,-0.850153,-0.960686,0.0185349,0.0160286,-0.0332954,0.0861144,-0.000372529,-0.000329629,0.0608186,0.018707737449221273,0.08993100928070263,-0.00037245961968779273,0.016157747102077735,-0.00032957467833005794,-0.03274720909135842
116,0.063195,325.506,335.493,-0.0437881,330.638,-0.895399,-0.940289,0.0188244,0.0162752,-0.0338278,0.0874604,-0.000379726,-0.000334672,0.0618099,0.019002696032407673,0.09139904418504652,-0.00037965391320715636,0.016408362502121854,-0.0003346160035732071,-0.03326203741777711
117,0.063945,326.316,336.549,0.12874,331.328,-0.876113,-0.894709,0.0190377,0.0164613,-0.0342232,0.0884714,-0.000384115,-0.000337899,0.0625522,0.019220072489846363,0.09250300657767507,-0.0003840412372781987,0.016597533700217548,-0.0003378419185623427,-0.03364421004767404
118,0.064695,327.011,337.245,0.0431055,331.999,-0.836331,-0.946802,0.0192514,0.0166462,-0.0346193,0.0894823,-0.00038803,-0.000342569,0.0632947,0.01943790309370841,0.0936079762798614,-0.0003879547260960958,0.016785519962993156,-0.0003425103299398158,-0.034026907777785054
119,0.065695,327.955,338.075,-0.0184036,332.913,-0.802712,-0.980189,0.019541,0.0168916,-0.035151,0.0908249,-0.000393499,-0.000348477,0.064284,0.019733175063761932,0.0950772404451441,-0.0003934215894224602,0.01703506974809832,-0.0003484162889425546,-0.03454037915245789
120,0.066695,328.836,339.096,0.133097,333.87,-0.839911,-0.926059,0.0198292,0.0171375,-0.0356811,0.0921668,-0.000400093,-0.000352947,0.0652722,0.02002710451801537,0.09654771098565074,-0.0004000129734686997,0.017285189422703073,-0.00035288472153482964,-0.03505203367145748
121,0.067695,329.634,339.908,-0.0370943,334.744,-0.857663,-0.9563,0.0201176,0.0173829,-0.0362121,0.0935072,-0.000406552,-0.000358636,0.0662601,0.02032132275918941,0.0980185090461041,-0.00040646936893395935,0.017534861841740135,-0.0003585716977969611,-0.03556428502680686
122,0.068695,330.639,340.992,0.152834,335.649,-0.853104,-0.909142,0.0204055,0.0176285,-0.0367412,0.0948461,-0.000412667,-0.000363054,0.0672465,0.020615115557455654,0.09948963065045646,-0.0004125818646848467,0.01778479909484698,-0.0003629881038713645,-0.03607443299205371
123,0.069695,331.294,341.592,-0.0882446,336.532,-0.88867,-0.962261,0.0206931,0.0178728,-0.0372711,0.0961849,-0.000419524,-0.000369032,0.0682329,0.02090868667819379,0.10096261316245214,-0.00041943601211147374,0.018033474295704677,-0.0003689639160667779,-0.03658508184164966
124,0.070695,332.282,342.766,0.0393166,337.371,-0.839915,-0.966343,0.0209803,0.0181186,-0.0377997,0.0975208,-0.000424944,-0.000374396,0.0692177,0.021201933761273217,0.102434371959786,-0.00042485372408629374,0.01828373767979663,-0.00037432592256347874,-0.03709420839338562
125,0.071695,333.128,343.664,0.0411456,338.226,-0.837493,-0.969927,0.0212672,0.0183635,-0.038328,0.0988563,-0.000430906,-0.00037976,0.070202,0.0214949586284765,0.10390765663040269,-0.0004308131733432585,0.018533145905945014,-0.0003796879002982978,-0.03760277717281979
126,0.072695,333.904,344.289,0.0401398,339.129,-0.897657,-0.933466,0.0215539,0.0186067,-0.0388553,0.100192,-0.000438053,-0.000384394,0.0711856,0.021787863218982073,0.10538313126373233,-0.0004379570687927936,0.0187808832906744,-0.00038432013009170873,-0.038110115456922666
127,0.073695,334.773,345.372,0.0388418,339.918,-0.845945,-0.97233,0.02184,0.018852,-0.0393828,0.101524,-0.000443411,-0.000390177,0.0721681,0.022080238548945585,0.10685648262874681,-0.00044331270787101307,0.01903082089493946,-0.0003901008908533399,-0.03861737856861103
128,0.074695,335.575,346.25,0.0133949,340.735,-0.837489,-0.984972,0.0221258,0.0190963,-0.0399097,0.102856,-0.000449228,-0.000395691,0.0731499,0.022372390827694932,0.10833179780538749,-0.0004491271122097906,0.019279800536109004,-0.00039561272464083697,-0.03912379764402163
129,0.075695,336.339,346.812,0.0542929,341.629,-0.912855,-0.930733,0.0224116,0.0193385,-0.0404351,0.104188,-0.000456598,-0.000400038,0.074131,0.022664626615498396,0.10980907941119478,-0.0004564937749967912,0.019526700002117092,-0.00039995799546788113,-0.03962850940135054
130,0.076695,337.184,347.912,0.0431499,342.377,-0.848041,-0.979131,0.0226965,0.0195834,-0.0409612,0.105517,-0.000461738,-0.000405928,0.075111,0.02295602527538909,0.11128499620720778,-0.0004616314154149981,0.019776412667015464,-0.0004058456223762219,-0.04013362795946718
131,0.077695,337.96,348.715,0.0375636,343.182,-0.853886,-0.980814,0.0229813,0.0198268,-0.0414863,0.106846,-0.000467782,-0.00041123,0.0760903,0.02324740464183983,0.11276287580063271,-0.0004676726070582671,0.020024656455902123,-0.0004111454565328687,-0.04063752148260291
132,0.078695,338.703,349.349,0.0498776,344.019,-0.900411,-0.947642,0.023266,0.020069,-0.0420105,0.108174,-0.000474634,-0.000415891,0.0770689,0.023538764651070743,0.1142416065595977,-0.0004745213791016445,0.020271736347862834,-0.0004158045293258805,-0.04114028750735399
133,0.079695,339.551,350.448,0.0752919,344.745,-0.833961,-0.973139,0.02355,0.0203133,-0.042535,0.109499,-0.00047959,-0.00042141,0.0780464,0.023829490941410736,0.1157189552156348,-0.000479475015098596,0.020521019181710898,-0.00042132121927740407,-0.04164307755833896
134,0.080695,340.26,351.129,0.0379894,345.539,-0.860552,-0.98672,0.0238338,0.0205557,-0.0430585,0.110824,-0.000485875,-0.000426847,0.0790234,0.024120094985703444,0.11719826265604905,-0.00048575698185693295,0.02076842346094776,-0.00042675591377971944,-0.04214464611021407
135,0.081695,341.01,351.812,0.0757191,346.342,-0.892643,-0.954608,0.0241174,0.0207976,-0.0435812,0.112149,-0.000492425,-0.000431513,0.0799994,0.024410576632991843,0.11867953147795007,-0.0004923037787080142,0.021015377210434893,-0.0004314199116555173,-0.04264518627612368
136,0.082695,341.753,352.697,0.039518,347.07,-0.863389,-0.978789,0.0244004,0.0210405,-0.044104,0.113471,-0.000497987,-0.000437003,0.0809745,0.024700525852058508,0.12015940379863865,-0.0004978630250540572,0.02126341196816095,-0.0004369075280966639,-0.04314556056350294
137,0.083695,342.423,353.196,0.0346017,347.884,-0.934048,-0.949327,0.0246835,0.0212812,-0.0446255,0.114794,-0.00050526,-0.000441645,0.0819491,0.02499065963742675,0.1216423554460746,-0.0005051323776612548,0.02150925965800421,-0.00044154748920255393,-0.04364443006214114
138,0.084695,343.088,353.896,-0.0414181,348.625,-0.940312,-0.982067,0.024966,0.0215227,-0.0451471,0.116115,-0.00051175,-0.000447233,0.0829228,0.0252802604029565,0.12312502408464487,-0.0005116190783027719,0.021755983934969025,-0.0004471330062292278,-0.044143135053852145
139,0.085695,343.933,354.994,0.0396788,349.308,-0.872046,-0.99639,0.025248,0.0217657,-0.0456682,0.117433,-0.000516818,-0.00045265,0.0838951,0.02556943020741609,0.12460627879881825,-0.0005166844725815745,0.02200430080834348,-0.00045254756944435037,-0.04464110230953877
140,0.086695,344.522,355.41,-0.0389514,350.094,-0.944096,-0.985976,0.0255301,0.0220057,-0.0461884,0.118752,-0.000524112,-0.000457694,0.0848673,0.025858784155133208,0.12609061318388193,-0.0005239746772975895,0.022249611276616177,-0.00045758927407923977,-0.0451379507666293
141,0.087695,345.348,356.487,0.0369593,350.763,-0.876256,-1.00147,0.0258114,0.0222483,-0.0467085,0.120068,-0.000529174,-0.000463124,0.085838,0.026147398822865764,0.12757352397211497,-0.0005290340121325565,0.022497639116872303,-0.0004630167746337843,-0.04563444539381589
142,0.088695,346.054,357.252,0.0401432,351.474,-0.872093,-1.00582,0.0260925,0.0224896,-0.047228,0.121384,-0.000534987,-0.000468427,0.0868082,0.026435889402126156,0.12905838755560262,-0.0005348439199713839,0.022744397567401098,-0.0004683173052014711,-0.046130109539524455
143,0.089695,346.684,357.72,0.0343478,352.242,-0.936921,-0.96977,0.0263736,0.0227291,-0.0477465,0.122699,-0.000542077,-0.000473014,0.0877778,0.026724461087487272,0.13054407596127415,-0.000541930102807453,0.022989374185397482,-0.00047290214651463103,-0.046624562879622244
144,0.090695,347.421,358.675,0.0364311,352.894,-0.883278,-1.00799,0.026654,0.0229708,-0.0482653,0.124012,-0.000547306,-0.000478721,0.0887462,0.027012394992823152,0.13202945527113252,-0.0005471562553911458,0.02323666060049745,-0.00047860643138497583,-0.04711904577644588
145,0.091695,348.09,359.416,0.0132141,353.579,-0.876423,-1.01972,0.0269341,0.0232116,-0.0487834,0.125324,-0.000553057,-0.00048415,0.0897139,0.02730010145606987,0.13351565264874,-0.0005529040921675721,0.023483085656756053,-0.0004840328183006726,-0.04761260553113422
146,0.092695,348.728,359.869,0.0511636,354.338,-0.947057,-0.96976,0.0272142,0.0234504,-0.0493001,0.126637,-0.000560224,-0.00048852,0.0906809,0.027587888517184078,0.13500493620136345,-0.0005600671038352711,0.023727522602220663,-0.0004884006935335083,-0.04810457698608539
147,0.093695,349.435,360.806,0.0360793,354.966,-0.890103,-1.01471,0.0274936,0.0236915,-0.0498175,0.127946,-0.0005654,-0.000494305,0.0916469,0.027875036685967025,0.1364916304919792,-0.0005652401915400285,0.023974373064547416,-0.0004941828514105628,-0.04859696028740845
148,0.094695,350.085,361.529,0.0115079,355.631,-0.882552,-1.02723,0.0277727,0.0239317,-0.0503341,0.129254,-0.000571127,-0.00049974,0.0926121,0.028161956646523878,0.1379791341599852,-0.0005709639380194753,0.024220361250955946,-0.0004996151507644653,-0.049088328166472905
149,0.095695,350.704,361.958,0.050943,356.373,-0.95505,-0.97616,0.0280519,0.0241698,-0.0508493,0.130563,-0.00057831,-0.000504091,0.0935767,0.028449059542518862,0.13946972422495652,-0.0005781428110025466,0.02446425715362488,-0.0005039639674780938,-0.04957811168073467
150,0.096695,351.392,362.877,0.0349806,356.982,-0.897843,-1.02137,0.0283303,0.0244104,-0.0513652,0.131869,-0.000583477,-0.000509872,0.0945401,0.02873541962016879,0.1409588438682634,-0.0005833068103974215,0.02471077290855206,-0.0005097420373608719,-0.050068307875937745
151,0.097695,352.024,363.582,0.010722,357.63,-0.890439,-1.0338,0.0286084,0.0246499,-0.0518803,0.133174,-0.000589202,-0.0005153,0.0955029,0.029021550725051304,0.14244876712298726,-0.0005890284545877478,0.024956220529843254,-0.0005151672557570652,-0.05055749169044321
152,0.098695,352.628,364.001,0.0509151,358.352,-0.96126,-0.983531,0.0288866,0.0248875,-0.0523941,0.13448,-0.000596346,-0.00051966,0.096465,0.029307864344840784,0.14394177993800672,-0.0005961682210651187,0.02519977906144888,-0.0005195250001278628,-0.05104518995080065
153,0.099695,353.314,364.944,0.0448642,358.938,-0.895359,-1.03009,0.029164,0.0251276,-0.0529085,0.135782,-0.000601333,-0.000525463,0.0974259,0.029593433953083448,0.14543216216377308,-0.0006011522355465759,0.02544595908113023,-0.0005253249684956662,-0.051533206776401275
154,0.1007,353.928,365.585,0.0355691,359.583,-0.9016,-1.03306,0.0294413,0.0253663,-0.053422,0.137084,-0.000607247,-0.000530727,0.0983863,0.029878979801420735,0.14692448613099685,-0.0006070626628551512,0.025690762247658316,-0.0005305861893375452,-0.052020119449193714
155,0.1017,354.506,366.032,0.0441978,360.27,-0.956107,-0.998598,0.0297185,0.0256036,-0.0539345,0.138386,-0.000614097,-0.000535326,0.0993459,0.03016450182614605,0.14841875436947194,-0.0006139084810289352,0.025934187546809095,-0.0005351827386018693,-0.052505834662821216
156,0.1027,355.152,366.864,0.0335971,360.86,-0.913444,-1.0349,0.029995,0.0258427,-0.0544472,0.139685,-0.00061944,-0.000540987,0.100304,0.030449381693727684,0.14991151967255445,-0.0006192481866508226,0.026179517739107316,-0.000540840692917488,-0.05299149041289963
157,0.1037,355.739,367.501,0.00356513,361.481,-0.913968,-1.04525,0.0302713,0.0260808,-0.0549594,0.140984,-0.000625309,-0.000546367,0.101262,0.03073413419463611,0.15140622533775794,-0.000625113535071331,0.026423880172474323,-0.0005462177687302061,-0.053476423969424536
158,0.1047,356.345,367.99,0.0625919,362.153,-0.962425,-1.00072,0.0305476,0.0263177,-0.0554702,0.142282,-0.000632067,-0.000550812,0.102219,0.031018965383530883,0.15290172098495325,-0.0006318672877331233,0.026667068794242077,-0.000550660330918662,-0.05395978475120755
159,0.1057,356.99,368.887,0.0444152,362.706,-0.89598,-1.03926,0.0308231,0.0265567,-0.0559817,0.143577,-0.000636948,-0.000556482,0.103175,0.031303050239386065,0.15439569585357016,-0.0006367451916843292,0.0269124715481448,-0.0005563271926090074,-0.054443560585090145
160,0.1067,357.441,369.105,-0.0354711,363.39,-0.990508,-1.03117,0.0310987,0.0267923,-0.0564919,0.144874,-0.000644431,-0.000561525,0.104131,0.031587316530127696,0.15589391845842449,-0.0006442233989403245,0.027154440629280074,-0.0005613673743422032,-0.05492586043532577
161,0.1077,358.149,370.071,0.0384284,363.94,-0.92041,-1.04789,0.0313737,0.0270309,-0.057002,0.146167,-0.000649385,-0.00056694,0.105085,0.03187104205264468,0.15738945595162135,-0.0006491741951945018,0.02739954891907037,-0.0005667793198849136,-0.0554078198197262
162,0.1087,358.73,370.69,0.0350161,364.542,-0.922989,-1.05115,0.0316485,0.027268,-0.0575116,0.14746,-0.000655251,-0.000572196,0.106039,0.032154639179461375,0.15888692842549212,-0.0006550363699449058,0.02764317423275875,-0.0005720323270879124,-0.05588906136398608
163,0.1097,359.265,371.098,0.0393938,365.187,-0.977022,-1.01872,0.0319232,0.0275038,-0.0580202,0.148753,-0.000662083,-0.000576826,0.106992,0.03243821100565114,0.1603863383835853,-0.0006618638714136482,0.027885521064811458,-0.0005766596678660196,-0.056369114099617534
164,0.1107,359.761,371.579,-0.0388019,365.789,-1.00088,-1.04156,0.0321974,0.0277398,-0.0585288,0.150045,-0.000668674,-0.000582255,0.107944,0.03272134437892027,0.16188652644558066,-0.0006684504873626373,0.028128130674590635,-0.0005820855224520916,-0.05684892274250575
165,0.1117,360.472,372.563,0.056379,366.317,-0.924861,-1.055,0.0324711,0.0279778,-0.0590369,0.151333,-0.000673514,-0.000587613,0.108895,0.03300403889585679,0.1633840004578877,-0.000673287240357312,0.028372854290646288,-0.0005874403892921487,-0.057328016080890554
166,0.1127,361.023,373.151,0.0399998,366.9,-0.928578,-1.06157,0.0327447,0.0282141,-0.0595446,0.152622,-0.000679364,-0.000592914,0.109846,0.03328670746819595,0.16488456934335582,-0.000679133284527289,0.028615887509359172,-0.0005927382612286314,-0.05780648917645337
167,0.1137,361.53,373.509,0.0398718,367.533,-0.989698,-1.02714,0.0330181,0.028449,-0.0600513,0.15391,-0.000686295,-0.000597514,0.110796,0.033569246675367426,0.1663859073227758,-0.000686059553451468,0.028857537762046137,-0.0005973355240589395,-0.058283777697129224
168,0.1147,362.124,374.299,0.0323652,368.062,-0.943552,-1.06393,0.0332909,0.0286858,-0.0605582,0.155196,-0.000691581,-0.000603177,0.111744,0.03385124282838703,0.1678868444953412,-0.0006913419129793708,0.02910120007546735,-0.0006029951253226917,-0.05876101268478817
169,0.1157,362.658,374.884,0.00554131,368.626,-0.943364,-1.07407,0.0335635,0.0289216,-0.0610645,0.156481,-0.000697425,-0.000608549,0.112692,0.0341331090938084,0.16938854372563616,-0.0006971818557129916,0.029343890750551216,-0.0006083638716124495,-0.05923744136596798
170,0.1167,363.2,375.305,0.0567914,369.243,-0.993949,-1.03132,0.0338361,0.0291561,-0.0615696,0.157766,-0.000704199,-0.000613029,0.11364,0.034415052206447694,0.17089217387979505,-0.0007039511100755957,0.029585300197083608,-0.0006128411361132624,-0.05971250054803756
171,0.1177,363.799,376.162,0.0474975,369.74,-0.925075,-1.06851,0.0341079,0.0293927,-0.0620752,0.159048,-0.000709037,-0.000618681,0.114586,0.03469624442992947,0.17239422025271334,-0.0007087856926651925,0.029828928899249263,-0.0006184896563723452,-0.060187789744526765
172,0.1187,364.315,376.67,0.0361808,370.31,-0.945222,-1.07695,0.0343797,0.0296277,-0.06258,0.16033,-0.0007151,-0.00062401,0.115532,0.03497751309184527,0.17389819348393387,-0.0007148443769307011,0.03007096713591939,-0.0006238153462506668,-0.0606620872255077
173,0.1197,364.816,377.055,0.0485043,370.91,-0.99509,-1.0457,0.0346513,0.0298616,-0.0630838,0.161611,-0.000721824,-0.000628673,0.116476,0.03525865116122251,0.17540292064176466,-0.0007215635477272331,0.030311928914513953,-0.0006284754265347692,-0.06113520647721693
174,0.1207,365.41,377.873,0.0619798,371.407,-0.936999,-1.07014,0.0349222,0.0300975,-0.0635879,0.16289,-0.000726823,-0.000634137,0.11742,0.03553914072041753,0.1769072227734121,-0.0007265589281449936,0.03055500816861567,-0.0006339359776267317,-0.06160836894901078
175,0.1217,365.899,378.353,0.0314132,371.964,-0.958655,-1.08327,0.0351931,0.0303318,-0.0640912,0.164169,-0.000732942,-0.000639522,0.118364,0.03581970627452713,0.17841345013841026,-0.00073267346362349,0.030796495496165255,-0.0006393175493916159,-0.06208054262444618
176,0.1227,366.41,378.781,0.0593027,372.543,-0.99731,-1.05297,0.0354638,0.0305654,-0.0645936,0.165447,-0.000739489,-0.000644197,0.119306,0.03610014062409239,0.17992042527969265,-0.0007392156453944754,0.031037317684449617,-0.0006439895496612724,-0.06255163501151517
177,0.1237,366.955,379.495,0.0436091,373.042,-0.957899,-1.07718,0.0357339,0.0308004,-0.0650963,0.166723,-0.000744805,-0.00064966,0.120247,0.03638002906930793,0.18142696471009678,-0.0007445277016047136,0.0312796399258537,-0.0006494490166337741,-0.06302277187442273
178,0.1247,367.438,380.007,0.0076906,373.576,-0.967737,-1.09567,0.0360038,0.0310343,-0.0655983,0.167998,-0.000750784,-0.000655138,0.121188,0.03665978579062501,0.18293424477695552,-0.0007505022322126242,0.031520884446079256,-0.0006549234439576779,-0.06349301640169014
179,0.1257,367.954,380.42,0.063413,374.152,-1.01222,-1.05616,0.0362737,0.0312673,-0.0660991,0.169273,-0.000757447,-0.00065968,0.122128,0.03693961802847179,0.1844434478515562,-0.0007571602094351704,0.031761256814448524,-0.0006594624589872922,-0.06396190168040261
180,0.1267,368.491,381.171,0.0366181,374.626,-0.958379,-1.09084,0.0365428,0.0315019,-0.0666005,0.170545,-0.00076254,-0.000665306,0.123067,0.03721869602794392,0.1859510185289055,-0.0007622493402588137,0.03200333640012243,-0.0006650847330359477,-0.06443111354165643
181,0.1277,368.978,381.695,0.0145283,375.148,-0.964658,-1.1069,0.0368118,0.0317354,-0.0671011,0.171817,-0.000768411,-0.000670774,0.124006,0.03749774538763151,0.1874605080562861,-0.0007681158478717309,0.03224433731493348,-0.0006705490814131743,-0.06489934211882642
182,0.1287,369.446,381.992,0.0488368,375.731,-1.0321,-1.06279,0.0370809,0.0319673,-0.0676004,0.173089,-0.000775434,-0.00067526,0.124943,0.037776973599386254,0.1889719188760286,-0.0007751334287519063,0.032483742534719307,-0.0006750320632745721,-0.06536612133617747
183,0.1297,369.972,382.714,0.0284125,376.2,-0.985829,-1.10227,0.0373492,0.0322013,-0.0681003,0.174358,-0.000780742,-0.00068097,0.12588,0.038055446516874314,0.1904816819831685,-0.0007804373002672227,0.03272537200001735,-0.0006807381925505451,-0.0658332280490711
184,0.1307,370.448,383.238,0.00188934,376.708,-0.986608,-1.11221,0.0376173,0.0324342,-0.0685995,0.175627,-0.00078663,-0.000686353,0.126816,0.03833378649189201,0.1919933621958374,-0.0007863206877316564,0.03296592175008706,-0.0006861175136583242,-0.06629944772351648
185,0.1317,370.942,383.63,0.0561227,377.262,-1.03111,-1.07226,0.0378854,0.032666,-0.0690975,0.176895,-0.000793312,-0.000690902,0.127751,0.038612201099861077,0.1935057684420216,-0.0007929974112298455,0.0332053910041632,-0.0006906633821701647,-0.06676431483703149
186,0.1327,371.469,384.38,0.0385179,377.713,-0.973628,-1.10663,0.0381528,0.0328996,-0.0695961,0.178161,-0.000798363,-0.000696534,0.128685,0.03888996313756454,0.19501770359788417,-0.000798044393053754,0.03344677597616874,-0.0006962914765052952,-0.06722951016682066
187,0.1337,371.826,384.52,-0.0277954,378.285,-1.06403,-1.09682,0.0384204,0.0331302,-0.0700934,0.179428,-0.000805791,-0.000701568,0.129619,0.039168007292348817,0.19653275060794972,-0.0008054664376144771,0.033685116282289984,-0.0007013219587123087,-0.06769326161006084
188,0.1347,372.427,385.392,0.0399987,378.722,-0.9885,-1.11757,0.0386873,0.0333637,-0.0705908,0.180691,-0.000810671,-0.000707058,0.130552,0.03944539824967164,0.19804492620984537,-0.000810342495040639,0.033926509938554394,-0.0007068080933952947,-0.06815687567136053
189,0.1357,372.891,385.876,0.0300844,379.223,-0.997808,-1.11995,0.038954,0.0335956,-0.0710876,0.181955,-0.00081666,-0.000712326,0.131484,0.039722655307970145,0.19956021245573496,-0.0008163266239800127,0.03416630529940656,-0.0007120723560641862,-0.06861970036035514
190,0.1367,373.337,386.225,0.0418759,379.755,-1.04216,-1.09147,0.0392206,0.0338265,-0.0715835,0.183218,-0.000823331,-0.00071706,0.132415,0.03999988232059404,0.2010762141576179,-0.0008229921560322095,0.0344051218696122,-0.0007168029739162973,-0.0690814573488383
191,0.1377,373.868,386.964,0.0563846,380.197,-0.988716,-1.11435,0.0394866,0.0340591,-0.0720796,0.184478,-0.000828449,-0.000722529,0.133345,0.04027655908566974,0.2025905240023156,-0.000828105930872125,0.03464575248521484,-0.0007222680387765079,-0.06954317150018274
192,0.1387,374.199,387.089,-0.0285231,380.748,-1.0762,-1.11155,0.0397527,0.0342888,-0.0725747,0.18574,-0.000835837,-0.000727669,0.134275,0.040553413511890124,0.20410915129587592,-0.0008354877855569764,0.03488343791168691,-0.0007274043131185737,-0.07000372665613641
193,0.1397,374.778,387.925,0.0369876,381.174,-1.00532,-1.13069,0.0400181,0.0345213,-0.0730698,0.186997,-0.000840803,-0.000733147,0.135204,0.04082961303789223,0.20562366817349487,-0.0008404496242043757,0.03512407628412806,-0.0007328783134045169,-0.07046405384766952
194,0.1407,375.225,388.389,0.0264449,381.659,-1.01545,-1.13296,0.0402834,0.0347522,-0.0735643,0.188255,-0.000846833,-0.000738422,0.136132,0.041105781766393124,0.20714129713652962,-0.0008464745381280281,0.03536311402918768,-0.0007381494335687577,-0.07092359574194418
195,0.1417,375.667,388.754,0.0440696,382.171,-1.05315,-1.10622,0.0405486,0.0349823,-0.0740579,0.189513,-0.000853412,-0.000743195,0.137059,0.04138191963398041,0.20866083647817568,-0.0008530479475487018,0.03560137849300116,-0.0007429188989991342,-0.07138207469317215
196,0.1427,376.165,389.429,0.0480914,382.606,-1.01038,-1.12724,0.0408132,0.0352138,-0.0745517,0.190768,-0.00085872,-0.00074865,0.137986,0.04165750574835059,0.21017865806178238,-0.0008583514054948393,0.03584114796436788,-0.0007483698315091658,-0.0718405130269486
197,0.1437,376.588,389.88,0.0125439,383.078,-1.01972,-1.14599,0.0410776,0.0354443,-0.0750449,0.192023,-0.000864725,-0.000754162,0.138911,0.0419329564058426,0.21169838570728006,-0.0008643512330801517,0.03607993686833755,-0.0007538776913149636,-0.07229816841882719
198,0.1447,377.031,390.216,0.0560984,383.592,-1.06666,-1.1095,0.041342,0.0356736,-0.0755371,0.193277,-0.000871454,-0.000758798,0.139836,0.0422084799021174,0.21321880858886288,-0.0008710743942406118,0.0363175372377027,-0.0007585101855999143,-0.0727546709058533
199,0.1457,377.518,390.92,0.0402992,384.005,-1.01065,-1.14222,0.0416057,0.0359048,-0.0760297,0.194529,-0.000876557,-0.000764438,0.14076,0.04248334651783825,0.21473870979683474,-0.0008761729361390636,0.03655716155181543,-0.0007641458917096999,-0.07321131947318893
200,0.1467,377.84,391.033,-0.025593,384.534,-1.09852,-1.13347,0.0418695,0.0361331,-0.076521,0.195782,-0.000883961,-0.000769523,0.141684,0.042758389901276894,0.2162617313739652,-0.0008835704215690576,0.03679383456699448,-0.0007692269931091067,-0.07366653891811858
201,0.1477,378.387,391.827,0.033358,384.939,-1.03133,-1.15264,0.0421327,0.0363641,-0.0770125,0.197032,-0.000889012,-0.00077502,0.142606,0.04303288003081529,0.21778300913870252,-0.0008886169459099147,0.03703336160708748,-0.0007747197495715508,-0.0741217199443398
202,0.1487,378.719,391.989,-0.0280149,385.452,-1.10403,-1.14002,0.042396,0.0365922,-0.0775031,0.198282,-0.000896227,-0.000780066,0.143528,0.04330754674641368,0.21930618968963955,-0.0008958255085337319,0.037269935897142004,-0.0007797618276145224,-0.07457584442269205
203,0.1497,379.257,392.761,0.0297779,385.855,-1.04079,-1.15761,0.0426586,0.0368228,-0.0779936,0.19953,-0.000901355,-0.000785546,0.144449,0.04358155528393559,0.22082883374663664,-0.0009009489016040817,0.03750915792559972,-0.0007852375395162037,-0.07502965366518755
204,0.1507,379.692,393.264,0.0208046,386.297,-1.03461,-1.16634,0.042921,0.0370522,-0.0784837,0.200777,-0.000907154,-0.000790953,0.145369,0.043855427014441783,0.22235215689690446,-0.0009067426602024087,0.037747189827643135,-0.0007906402791304501,-0.07548287056205383
205,0.1517,380.076,393.486,0.0320979,386.806,-1.10083,-1.12946,0.0431835,0.03728,-0.0789726,0.202024,-0.000914222,-0.00079561,0.146289,0.044129475031261745,0.22387738081602393,-0.0009138042263896473,0.03798361556535501,-0.0007952935862834964,-0.07593475651411408
206,0.1527,380.449,393.877,-0.031935,387.253,-1.11338,-1.15388,0.0434455,0.0375084,-0.0794617,0.20327,-0.000920678,-0.000801138,0.147207,0.04440307279346167,0.2254032824718366,-0.0009202543060486956,0.03822071809922867,-0.000800817174633317,-0.0763866063158265
207,0.1537,381.047,394.734,0.107695,387.645,-1.03754,-1.14647,0.043707,0.0377385,-0.0799503,0.204513,-0.000925571,-0.000806205,0.148125,0.04467621990942594,0.22692740579835946,-0.0009251427912846388,0.03845964017339387,-0.0008058801040657926,-0.07683777359083965
208,0.1547,381.403,395.101,0.0309272,388.088,-1.05343,-1.17268,0.0439683,0.0379668,-0.0804387,0.205756,-0.000931704,-0.000811823,0.149042,0.04494922947283442,0.22845342478808783,-0.0009312700985945055,0.038696747574025414,-0.0008114935608630747,-0.07728853593709273
209,0.1557,381.816,395.432,0.0642176,388.565,-1.09269,-1.14155,0.0442296,0.0381944,-0.0809259,0.206999,-0.000938331,-0.000816564,0.149959,0.04522231038296276,0.22998134179879592,-0.0009378909051295237,0.03893318185897421,-0.0008162307023427129,-0.07773797147099815
210,0.1567,382.247,396.031,0.0320676,388.961,-1.05361,-1.17134,0.0444903,0.0384233,-0.0814136,0.208239,-0.000943746,-0.000822192,0.150874,0.045494835361367114,0.2315074646632551,-0.0009433008118029385,0.039171020883939756,-0.0008218540927721341,-0.07818764899953345
211,0.1577,382.586,396.171,0.0195766,389.463,-1.13593,-1.14176,0.0447511,0.0386497,-0.0818999,0.209481,-0.000951132,-0.000826942,0.151789,0.045767535973043394,0.233037947167263,-0.0009506798173324338,0.03940631583745158,-0.0008266001776932042,-0.0786358173648547
212,0.1587,383.068,396.909,0.0283922,389.833,-1.06786,-1.18403,0.0450112,0.0388787,-0.0823866,0.210718,-0.000956235,-0.000832762,0.152703,0.046039575486354956,0.23456415887523674,-0.0009557779530053878,0.03964436713961206,-0.0008324153499580378,-0.07908413620530375
213,0.1597,383.478,397.388,0.0148787,390.252,-1.06113,-1.19453,0.0452712,0.0391066,-0.0828727,0.211956,-0.000962058,-0.000838229,0.153616,0.04631158113518352,0.23609349576813377,-0.000961595370572943,0.03988132909167197,-0.000837877784211738,-0.07953168462123905
214,0.1607,383.845,397.589,0.0338662,390.739,-1.12845,-1.15536,0.0455311,0.0393327,-0.0833577,0.213194,-0.000969171,-0.000842889,0.154529,0.04658355285631477,0.23762472715255223,-0.0009687015054721249,0.040116472842178785,-0.0008425338688525796,-0.07997800351311779
215,0.1617,384.309,398.288,0.037372,391.107,-1.0679,-1.19441,0.0457904,0.0395611,-0.0838431,0.214429,-0.00097433,-0.000848687,0.15544,0.04685496715891402,0.23915413790733542,-0.0009738554946463474,0.04035406257629082,-0.0008483269670469529,-0.08042447382310203
216,0.1627,384.701,398.727,0.0165326,391.525,-1.06862,-1.20373,0.0460496,0.0397883,-0.0843279,0.215664,-0.000980251,-0.000854153,0.156351,0.047126347135727276,0.2406854386512287,-0.0009797707109359122,0.040590457872796915,-0.0008537883151659154,-0.08087017599125756
217,0.1637,385.064,398.928,0.0374366,392.004,-1.13415,-1.16488,0.0463088,0.0400139,-0.0848116,0.216899,-0.000987333,-0.000858831,0.157262,0.04739779746334749,0.24221863171981095,-0.0009868457471470249,0.04082524156269751,-0.000858462310211694,-0.08131465158204298
218,0.1647,385.511,399.593,0.0345689,392.37,-1.07983,-1.20292,0.0465672,0.0402417,-0.0852957,0.21813,-0.000992598,-0.000864626,0.158171,0.04766848002489277,0.24374874444661865,-0.000992105537557797,0.04106236856046519,-0.0008642523186460638,-0.0817592795283344
219,0.1657,385.892,400.015,0.0119109,392.783,-1.08261,-1.21185,0.0468256,0.0404684,-0.0857792,0.219362,-0.000998584,-0.000870094,0.15908,0.047939232539849774,0.24528198718337002,-0.0009980855809157418,0.04129840415304131,-0.0008697155779777699,-0.0822031416043787
220,0.1667,386.264,400.253,0.0416225,393.248,-1.13859,-1.17505,0.0470839,0.0406936,-0.0862615,0.220594,-0.00100553,-0.000874815,0.159988,0.04820995020529595,0.24681712003924727,-0.0010050246241138927,0.041532930960383796,-0.0008744324609163412,-0.08264568830046859
221,0.1677,386.571,400.528,-0.0427713,393.672,-1.16876,-1.19606,0.0473419,0.0409192,-0.086744,0.221824,-0.00101231,-0.00088035,0.160895,0.048480423261973105,0.24835164863851844,-0.001011797787085933,0.041767927296198604,-0.0008799626056279486,-0.08308820499012715
222,0.1687,387.091,401.314,0.040581,394.022,-1.09408,-1.21249,0.0475993,0.0411466,-0.0872262,0.223051,-0.00101734,-0.000885873,0.161801,0.048750336859310295,0.24988431621066365,-0.0010168226851055007,0.04200485226021322,-0.000885480730356214,-0.08353023327609632
223,0.1697,387.458,401.692,0.0219451,394.435,-1.1064,-1.2167,0.0478567,0.0413723,-0.0877078,0.224279,-0.00102353,-0.000891265,0.162707,0.04902031994134992,0.2514201169396211,-0.0010230063718345006,0.04224005929748387,-0.0008908679413200948,-0.08397149885047128
224,0.1707,387.837,402.017,0.0442554,394.868,-1.13687,-1.19328,0.0481138,0.0415974,-0.0881887,0.225506,-0.00103009,-0.000896195,0.163612,0.04929005773891504,0.2529565518331509,-0.0010295596394179762,0.04247469394197023,-0.0008957935371995962,-0.08441191105107282
225,0.1717,388.243,402.557,0.0352815,395.241,-1.10797,-1.21217,0.0483705,0.0418235,-0.0886696,0.226731,-0.00103574,-0.000901725,0.164516,0.04955944507112142,0.25449236410210485,-0.0010352038064611602,0.04271042411856274,-0.0009013185681846503,-0.0848521115083648
226,0.1727,388.56,402.733,0.0153907,395.691,-1.17106,-1.1941,0.0486273,0.0420476,-0.0891495,0.227957,-0.00104288,-0.000906714,0.165419,0.04982900654682765,0.25603131492458475,-0.001042336389642684,0.04294412170944484,-0.0009063030590724663,-0.08529118561579319
227,0.1737,389.014,403.43,0.0371904,396.033,-1.10702,-1.2301,0.0488833,0.042274,-0.0896297,0.229179,-0.00104806,-0.000912516,0.166322,0.050097797176236414,0.257567123379272,-0.0010475109769380042,0.04318027098968957,-0.0009120997838857337,-0.08573032334305375
228,0.1747,389.383,403.849,0.018789,396.424,-1.10643,-1.23959,0.0491393,0.0424991,-0.0901093,0.230402,-0.00105402,-0.000918028,0.167224,0.05036665662485462,0.2591060688444964,-0.0010534647160304056,0.043415117299649975,-0.0009176067412145494,-0.086168701948386
229,0.1757,389.715,404.018,0.0331529,396.877,-1.1728,-1.2028,0.0493953,0.0427227,-0.0905878,0.231624,-0.00106117,-0.000922791,0.168125,0.0506355849103024,0.26064563694514953,-0.0010606071582234256,0.04364845100561432,-0.000922365359320998,-0.08660586562475292
230,0.1767,390.138,404.656,0.0326519,397.218,-1.11915,-1.23954,0.0496506,0.0429484,-0.0910668,0.232844,-0.00106651,-0.000928618,0.169025,0.050903846417254206,0.2621845631763453,-0.0010659414803385614,0.043884029044988004,-0.0009281869677367771,-0.08704327664681555
231,0.1777,390.495,405.051,0.0109067,397.606,-1.12261,-1.24813,0.0499058,0.0431729,-0.0915451,0.234064,-0.00107257,-0.000934129,0.169925,0.05117207130289958,0.2637253680432783,-0.0010719950023909686,0.0441184073174854,-0.000933692837327027,-0.08747983943528181
232,0.1787,390.844,405.279,0.0402122,398.042,-1.17506,-1.21361,0.0501609,0.0433962,-0.0920223,0.235283,-0.00107951,-0.000938939,0.170824,0.05144025950423958,0.2652667885718609,-0.0010789275386897668,0.044351584991157766,-0.0009384983347071607,-0.08791519017295579
233,0.1797,391.273,405.942,0.0452157,398.372,-1.11209,-1.24425,0.0504154,0.0436215,-0.0925001,0.236499,-0.00108466,-0.000944678,0.171722,0.05170788510419655,0.26680628881321167,-0.0010840719689659828,0.044586903910937004,-0.0009442319322127135,-0.08835088020045478
234,0.1807,391.512,405.964,-0.0263985,398.824,-1.20344,-1.23615,0.0506701,0.0438438,-0.0929766,0.237717,-0.00109223,-0.000949913,0.17262,0.051975789218673185,0.2683501989233743,-0.00109163373391985,0.04481914139191612,-0.0009494619754688571,-0.08878517752648407
235,0.1817,391.968,406.64,0.0238959,399.158,-1.14436,-1.25377,0.0509241,0.0440687,-0.0934533,0.238932,-0.00109757,-0.000955514,0.173516,0.05224302500664324,0.26989218097947276,-0.0010969678903535174,0.04505414764227744,-0.0009550576418616563,-0.08921945011526178
236,0.1827,392.33,407.059,0.0145119,399.532,-1.14128,-1.26175,0.051178,0.0442925,-0.0939294,0.240146,-0.00110359,-0.000961028,0.174412,0.0525102234300967,0.2714347662469845,-0.0011029812685064977,0.04528805693399329,-0.000960566360486248,-0.08965296952757695
237,0.1837,392.661,407.269,0.0322928,399.957,-1.19409,-1.23073,0.0514319,0.0445149,-0.0944046,0.24136,-0.00111058,-0.000965913,0.175307,0.05277748970384333,0.27297922535019925,-0.001109963534264402,0.04552055485066542,-0.0009654466561994646,-0.0900854636677112
238,0.1847,393.095,407.949,0.0515082,400.276,-1.1266,-1.25923,0.0516851,0.0447395,-0.0948802,0.242572,-0.00111569,-0.000971644,0.176201,0.05304408671399363,0.2745230115167625,-0.0011150678493092592,0.045755405139985106,-0.0009711721068184076,-0.09051811612828031
239,0.1857,393.406,408.221,0.0207008,400.67,-1.15797,-1.26722,0.0519383,0.0449622,-0.095355,0.243784,-0.0011222,-0.00097716,0.177095,0.053310751235053244,0.2760686698864858,-0.0011215705690511557,0.04598832080290616,-0.000976682734634693,-0.09094983562842285
240,0.1867,393.771,408.559,0.0536595,401.064,-1.17877,-1.24637,0.0521913,0.0451848,-0.0958291,0.244994,-0.00112866,-0.000982208,0.177988,0.05357727256864275,0.2776136475000046,-0.0011280233028628794,0.04622118371979811,-0.0009817257916115985,-0.091380714163524
241,0.1877,394.106,408.958,0.0189928,401.425,-1.17412,-1.26159,0.0524439,0.0454077,-0.0963033,0.246204,-0.00113478,-0.000987766,0.17888,0.053843439803199944,0.2791604956678928,-0.0011341363806542937,0.046454412414021595,-0.0009872783197492074,-0.091811479286385
242,0.1887,394.457,409.283,0.0405645,401.815,-1.19788,-1.24932,0.0526963,0.0456298,-0.0967766,0.247413,-0.00114136,-0.000992919,0.179772,0.05410946345817935,0.28070793594631493,-0.0011407088964132672,0.046686855750895706,-0.0009924262190403876,-0.09224122320631767
243,0.1897,394.827,409.777,0.031832,402.156,-1.17189,-1.26876,0.0529484,0.0458528,-0.0972499,0.24862,-0.00114717,-0.000998539,0.180662,0.054375237953384614,0.2822546836994897,-0.0011465122520358806,0.04692029294700806,-0.0009980406258285335,-0.09267076377657968
244,0.1907,395.123,409.963,0.0174399,402.564,-1.22463,-1.25398,0.0532004,0.0460741,-0.0977223,0.249827,-0.00115424,-0.00100367,0.181553,0.05464097399468382,0.2838032995043449,-0.0011535741212305162,0.047152002045503405,-0.0010031664917317107,-0.09309928488311714
245,0.1917,395.524,410.564,0.0282542,402.882,-1.17438,-1.28606,0.0534519,0.0462971,-0.0981949,0.251032,-0.00115973,-0.0010095,0.182442,0.054906249556647246,0.2853512149119797,-0.001159057773055916,0.047385542980806106,-0.001008990626293671,-0.09352778489855218
246,0.1927,395.855,410.933,0.0081132,403.243,-1.17761,-1.29458,0.0537032,0.0465191,-0.0986669,0.252236,-0.00116591,-0.00101508,0.18333,0.05517138080950734,0.2868997097815851,-0.0011652305910048177,0.047618088382932244,-0.0010145649805735069,-0.09395553882621177
247,0.1937,396.187,411.171,0.0394822,403.644,-1.22121,-1.26416,0.0539545,0.0467401,-0.0991379,0.25344,-0.0011728,-0.00102002,0.184218,0.055436578698223826,0.28845007016182533,-0.0011721125388577391,0.04784963756570715,-0.0010194999564331342,-0.09438218528429643
248,0.1947,396.572,411.751,0.0368707,403.957,-1.17138,-1.29119,0.0542052,0.0469626,-0.0996093,0.254642,-0.00117825,-0.00102579,0.185105,0.05570120981862847,0.28999971829811155,-0.0011775561360105602,0.04808281004954251,-0.001025264057288866,-0.094808992915691
249,0.1957,396.888,412.087,0.0119713,404.318,-1.18313,-1.30524,0.0544558,0.047184,-0.10008,0.255844,-0.00118452,-0.00103145,0.185992,0.05596580169378629,0.2915512302313752,-0.0011838187331003613,0.04831488127302386,-0.0010309182382930437,-0.09523496606208082
250,0.1967,397.211,412.302,0.0418599,404.718,-1.23091,-1.27425,0.0547063,0.0474044,-0.10055,0.257045,-0.00119148,-0.00103641,0.186877,0.056230354260936144,0.29310331509928567,-0.001190770469529867,0.04854595533628281,-0.0010358731126504095,-0.0956601057123877
251,0.1977,397.591,412.882,0.0377395,405.025,-1.17954,-1.30201,0.0549563,0.0476265,-0.10102,0.258244,-0.00119692,-0.0010422,0.187762,0.056494444859450876,0.29465467582899385,-0.001196203976959409,0.048778863256430105,-0.001041657098200477,-0.09608504559400821
252,0.1987,397.902,413.21,0.012946,405.381,-1.19201,-1.31557,0.0552061,0.0478474,-0.10149,0.259442,-0.00120322,-0.00104787,0.188646,0.05675839013716932,0.2962066015485323,-0.0012024964210530786,0.049010564097739184,-0.0010473211759470802,-0.09650978580081171
253,0.1997,398.216,413.411,0.0405631,405.777,-1.24194,-1.28433,0.0554559,0.0480672,-0.101958,0.260641,-0.00121023,-0.00105284,0.18953,0.05702240135665404,0.29776168535022896,-0.0012094979670127515,0.04924116196150474,-0.0010522859584233268,-0.09693252029346988
254,0.2007,398.596,413.996,0.039179,406.078,-1.18829,-1.31237,0.0557051,0.0482889,-0.102427,0.261837,-0.00121565,-0.00105866,0.190412,0.05728584416268245,0.2993147368655882,-0.0012149113968633607,0.04947380451458572,-0.0010580998172007305,-0.09735595963716448
255,0.2017,398.902,414.321,0.0145616,406.429,-1.20078,-1.32588,0.0559542,0.0485093,-0.102895,0.263032,-0.00122196,-0.00106435,0.191294,0.057549246871908766,0.30086834607276103,-0.00122121371088868,0.04970513403267729,-0.001063783780441807,-0.09777829821311901
256,0.2027,399.207,414.504,0.0388447,406.823,-1.25352,-1.29444,0.0562033,0.0487286,-0.103363,0.264228,-0.00122903,-0.00106934,0.192176,0.05781271520292286,0.3024251153771391,-0.001228275051945782,0.04993535961188278,-0.0010687684597240343,-0.09820043918086385
257,0.2037,399.588,415.1,0.0414845,407.116,-1.19636,-1.32289,0.0564517,0.0489498,-0.103831,0.265421,-0.00123441,-0.00107517,0.193056,0.05807550851895793,0.3039798357460881,-0.001233648429371681,0.05016763100169741,-0.0010745922118275963,-0.09862238263285816
258,0.2047,399.89,415.42,0.0170189,407.463,-1.20875,-1.33645,0.0567001,0.0491697,-0.104298,0.266614,-0.00124072,-0.00108088,0.193936,0.058338367120960744,0.3055364120032542,-0.0012399506251665748,0.050398588256574284,-0.001080296059621566,-0.09904322770519569
259,0.2057,400.183,415.579,0.0365354,407.855,-1.26589,-1.30448,0.0569484,0.0493884,-0.104764,0.267806,-0.00124788,-0.00108588,0.194815,0.05860118516502677,0.30709353926984084,-0.001247101721519206,0.05062833554977675,-0.0010852906456547684,-0.0994629757521942
260,0.2067,400.568,416.196,0.0451809,408.14,-1.20305,-1.33374,0.0571961,0.0496093,-0.10523,0.268996,-0.00125319,-0.00109174,0.195694,0.05886343315666509,0.3086499064363717,-0.001252405085328645,0.05086044498464304,-0.0010911442687004946,-0.09988252824217125
261,0.2077,400.768,416.186,-0.0242567,408.543,-1.29209,-1.32617,0.0574439,0.0498272,-0.105696,0.270187,-0.00126086,-0.00109713,0.196572,0.059125852027756665,0.31020943699103576,-0.001260065450004011,0.05108945242505958,-0.0010965283729227338,-0.10030188526623496
262,0.2087,401.199,416.871,0.0399234,408.824,-1.22102,-1.34507,0.0576912,0.0500478,-0.106161,0.271375,-0.00126613,-0.00110289,0.197448,0.059387806240266405,0.3117668907465365,-0.0012653287955901593,0.05132134833544311,-0.0011022820403486788,-0.10072014763604864
263,0.2097,401.406,416.894,-0.0257607,409.217,-1.29913,-1.33348,0.0579385,0.0502655,-0.106626,0.272564,-0.00127368,-0.00110825,0.198325,0.05964982524206386,0.3133275091834382,-0.0012728692138926911,0.05155024590757251,-0.001107636117767985,-0.10113821555907265
264,0.2107,401.831,417.563,0.0370759,409.497,-1.23104,-1.35137,0.0581853,0.0504857,-0.107091,0.27375,-0.00127902,-0.001114,0.1992,0.0599113790933512,0.31488603963520245,-0.0012782024025314032,0.051781822767397845,-0.0011133797323474859,-0.10155608912570391
265,0.2117,402.043,417.607,-0.02397,409.883,-1.30408,-1.34083,0.0584322,0.0507032,-0.107555,0.274937,-0.00128651,-0.00111938,0.200075,0.06017310352140037,0.31644773604770515,-0.0012856828007813403,0.05201061019358044,-0.0011187537279083726,-0.10197287039961644
266,0.2127,402.458,418.252,0.0345854,410.164,-1.24075,-1.35778,0.0586784,0.050923,-0.108019,0.276121,-0.00129193,-0.00112514,0.200949,0.0604341502730239,0.31800733326654496,-0.001291095817711252,0.0522418675399523,-0.0011245072673167211,-0.10238945833187652
267,0.2137,402.762,418.598,0.0200237,410.491,-1.24267,-1.36562,0.0589246,0.0511416,-0.108482,0.277305,-0.00129819,-0.00113082,0.201823,0.06069526130226999,0.31956877814208884,-0.0012973477158829683,0.05247191275522245,-0.0011301808640024058,-0.10280495581757843
268,0.2147,403.032,418.73,0.0266564,410.87,-1.30144,-1.3363,0.0591707,0.0513589,-0.108945,0.278489,-0.00130544,-0.00113591,0.202696,0.06095633052932703,0.32113207286325784,-0.001304588283864927,0.052700639752152334,-0.0011352650984424173,-0.1032202609724725
269,0.2157,403.276,418.953,-0.0396282,411.208,-1.32679,-1.35456,0.0594165,0.0515765,-0.109407,0.279672,-0.00131239,-0.00114167,0.203568,0.061217145648236215,0.322695896925008,-0.0013115291928567085,0.052929732335731616,-0.0011410185427455088,-0.10363447752051302
270,0.2167,403.688,419.586,0.0260676,411.486,-1.26621,-1.36906,0.0596618,0.0517956,-0.10987,0.280852,-0.00131794,-0.0011474,0.204439,0.06147749414450132,0.3242575993065753,-0.0013170718984886198,0.05316045451477813,-0.0011467419883115504,-0.10404939869575669
271,0.2177,403.993,419.946,0.0152811,411.804,-1.26367,-1.37791,0.059907,0.0520136,-0.110332,0.282033,-0.00132419,-0.00115311,0.205309,0.061737800338300675,0.32582247140644593,-0.0013233136472837748,0.05339006852087946,-0.0011524454241315096,-0.10446323227064258
272,0.2187,404.269,420.11,0.0269952,412.17,-1.31383,-1.35125,0.0601522,0.0522303,-0.110793,0.283213,-0.00133135,-0.00115826,0.206179,0.061998170367004724,0.32738786532347874,-0.0013304641467593026,0.05361836288352895,-0.0011575894757915872,-0.10487597957500239
273,0.2197,404.642,420.705,0.0454039,412.439,-1.25346,-1.37696,0.0603967,0.052449,-0.111254,0.28439,-0.00133681,-0.00116415,0.207048,0.06225786066550465,0.32895112063624743,-0.0013359168675390887,0.053848814418448354,-0.0011634726402637297,-0.1052885366467069
274,0.2207,404.83,420.705,-0.0223026,412.819,-1.33537,-1.3723,0.0606415,0.0526649,-0.111714,0.285569,-0.00134446,-0.00116966,0.207917,0.06251793322137766,0.3305188780188508,-0.0013435566185530101,0.054076364940676136,-0.0011689762143670679,-0.10570000927388956
275,0.2217,405.231,421.333,0.0341827,413.087,-1.27283,-1.38949,0.0608856,0.0528833,-0.112175,0.286744,-0.00134996,-0.00117547,0.208785,0.06277732550641746,0.3320831565341773,-0.0013490492138868992,0.0543066003595718,-0.0011747794057569427,-0.10611218655545118
276,0.2227,405.522,421.662,0.0190697,413.403,-1.27598,-1.39707,0.0611296,0.0531004,-0.112635,0.28792,-0.00135629,-0.0011812,0.209652,0.06303667481316966,0.3336506078069641,-0.0013553706543980582,0.05453551517031352,-0.0011805026578738387,-0.10652328039080461
277,0.2237,405.782,421.79,0.0262155,413.768,-1.33278,-1.36886,0.0613736,0.0533163,-0.113094,0.289095,-0.00136358,-0.00118637,0.210518,0.06329608740887371,0.33521856826751084,-0.0013626507472099814,0.05476321396723938,-0.0011856665413264578,-0.1069332921002194
278,0.2247,406.017,422.007,-0.0372717,414.093,-1.35705,-1.38685,0.0616172,0.0535325,-0.113553,0.290269,-0.00137056,-0.00119218,0.211384,0.06355513788683376,0.3367870353767015,-0.001369621211580796,0.05499127842697882,-0.001191469635745901,-0.10734311565744381
279,0.2257,406.479,422.741,0.0898919,414.35,-1.27573,-1.38666,0.0618604,0.0537505,-0.114012,0.291441,-0.00137579,-0.00119772,0.212249,0.06381382595156149,0.3383546682355787,-0.0013748440348041457,0.055221291596200484,-0.0011970030196766235,-0.10775275114881999
280,0.2267,406.704,422.939,0.0185912,414.674,-1.30363,-1.40623,0.0621035,0.0539666,-0.11447,0.292613,-0.00138254,-0.00120361,0.213113,0.06407247052962495,0.339924139437225,-0.0013815847318570107,0.05544934955808967,-0.001202885952003574,-0.10816130682240288
281,0.2277,407.012,423.222,0.0562213,415.006,-1.32378,-1.38535,0.0623464,0.0541825,-0.114928,0.293784,-0.00138926,-0.00120889,0.213977,0.06433096512561431,0.3414941096426607,-0.0013882954250596935,0.05567724567315979,-0.0012081595868432826,-0.1085696754203308
282,0.2287,407.278,423.547,0.00942069,415.305,-1.32052,-1.4047,0.062589,0.0543987,-0.115385,0.294954,-0.00139568,-0.00121475,0.21484,0.06458920314075844,0.34306457629478304,-0.001394706491623543,0.055905507767917584,-0.0012140124898790683,-0.10897696600567652
283,0.2297,407.579,423.829,0.0408238,415.632,-1.34128,-1.39153,0.0628315,0.0546142,-0.115842,0.296123,-0.00140248,-0.00122014,0.215702,0.06484739732730005,0.34463553683200465,-0.001401496984531736,0.05613307992486072,-0.0012193959318433922,-0.10938407050174925
284,0.2307,407.875,424.228,0.0194532,415.918,-1.3222,-1.41199,0.0630735,0.0548304,-0.116299,0.297291,-0.00140867,-0.00122602,0.216564,0.06510512158083004,0.3462069886882575,-0.0014076782901342177,0.056361440581637945,-0.0012252687445292176,-0.10979098899357254
285,0.2317,408.137,424.415,0.0231699,416.257,-1.36247,-1.39826,0.0633156,0.0550453,-0.116755,0.298459,-0.00141581,-0.00123142,0.217425,0.06536301474747286,0.34778027707260195,-0.0014148082138573104,0.05658847704941361,-0.0012306621135159679,-0.11019683176340744
286,0.2327,408.49,424.969,0.0437533,416.515,-1.30853,-1.42149,0.0635571,0.0552617,-0.117211,0.299624,-0.00142147,-0.00123735,0.218285,0.06562033098521969,0.3493513560712158,-0.001420460190047712,0.05681714753710154,-0.0012365847981288258,-0.11060248951112761
287,0.2337,408.751,425.25,0.014621,416.822,-1.31991,-1.43639,0.0637986,0.055477,-0.117667,0.30079,-0.00142801,-0.00124324,0.219144,0.06587770937234194,0.35092561736837324,-0.0014269908788827612,0.057044704764622756,-0.0012424674973198213,-0.1110079623210839
288,0.2347,409.015,425.409,0.0347473,417.166,-1.36741,-1.40957,0.06404,0.0556913,-0.118122,0.301955,-0.00143523,-0.0012485,0.220003,0.06613504331034092,0.352500362823728,-0.001434200549981668,0.05727125371870723,-0.001247720948124198,-0.11141236169039459
289,0.2357,409.344,425.924,0.0346369,417.424,-1.31925,-1.43515,0.0642808,0.0559072,-0.118577,0.303117,-0.00144099,-0.00125449,0.220861,0.06639179954097973,0.354072881701857,-0.0014399522724214409,0.05749954322535067,-0.0012537034563580018,-0.11181657709984616
290,0.2367,409.602,426.193,0.00987673,417.729,-1.33389,-1.44751,0.0645216,0.0561219,-0.119031,0.30428,-0.00144761,-0.00126037,0.221719,0.06664861760596308,0.35564858455688264,-0.0014465627180568763,0.057726612752322604,-0.0012595760673161926,-0.11221972085328635
291,0.2377,409.873,426.375,0.0361259,418.066,-1.37533,-1.42179,0.0647623,0.0563359,-0.119485,0.305442,-0.00145475,-0.00126566,0.222575,0.06690539082963864,0.35722476379492285,-0.001453692364146164,0.05795299046900326,-0.0012648593901843919,-0.1126226816210033
292,0.2387,410.185,426.847,0.0288207,418.327,-1.33675,-1.44527,0.0650024,0.0565511,-0.119939,0.306602,-0.00146068,-0.00127165,0.223431,0.06716158556892449,0.35880005801492953,-0.0014596137261936315,0.05818068645176133,-0.0012708417957593143,-0.11302545948605369
293,0.2397,410.44,427.109,0.00406119,418.63,-1.35195,-1.45724,0.0652425,0.0567654,-0.120392,0.307762,-0.00146736,-0.00127754,0.224287,0.06741784182795252,0.36037718063649926,-0.001466283953695302,0.05840747887280795,-0.001276724293177156,-0.11342716795906782
294,0.2407,410.723,427.338,0.0395419,418.954,-1.38181,-1.43414,0.0654825,0.056979,-0.120845,0.308921,-0.00147436,-0.00128289,0.225141,0.06767405285408445,0.3619547718263558,-0.0014732736652436351,0.05863357885691367,-0.0012820674484093075,-0.11382869449935462
295,0.2417,411.01,427.74,0.0192847,419.224,-1.35853,-1.45472,0.065722,0.0571936,-0.121298,0.310079,-0.00148056,-0.00128885,0.225995,0.06792979141321309,0.36353282897087436,-0.0014794645117552907,0.058860786001391,-0.0012880197895492884,-0.11423003918931085
296,0.2427,411.248,427.871,0.0179421,419.558,-1.40982,-1.43785,0.0659616,0.0574065,-0.12175,0.311237,-0.00148794,-0.00129429,0.226849,0.06818569804762631,0.3651127145640336,-0.001486833566115342,0.0590862414616129,-0.0012934527679439034,-0.11463031674205548
297,0.2437,411.608,428.475,0.0494101,419.792,-1.34106,-1.46459,0.0662006,0.0576216,-0.122202,0.312392,-0.00149346,-0.00130034,0.227701,0.06844102493980797,0.36669033064726153,-0.0014923453435815581,0.05931407541481448,-0.001299494924277167,-0.11503041341022935
298,0.2447,411.762,428.431,-0.0239916,420.144,-1.42617,-1.45994,0.0664397,0.0578337,-0.122653,0.313548,-0.00150134,-0.00130601,0.228554,0.06869651973205615,0.3682711382002144,-0.001500213552899421,0.05953877975926347,-0.0013051575400874205,-0.11542944470546057
299,0.2457,412.131,429.022,0.0301274,420.385,-1.36506,-1.47712,0.0666783,0.0580482,-0.123104,0.314702,-0.00150705,-0.00131198,0.229405,0.06895154114450897,0.3698510345185422,-0.0015059149704024222,0.05976607520408672,-0.001311119730499688,-0.11582829607815337
300,0.2467,412.394,429.318,0.015979,420.673,-1.36934,-1.48429,0.0669168,0.0582616,-0.123555,0.315855,-0.0015136,-0.00131786,0.230255,0.06920651649167331,0.37143138365754313,-0.0015124550852405605,0.05999225341689218,-0.0013169920038511584,-0.1162269676094343
301,0.2477,412.633,429.441,0.0239595,421.005,-1.42076,-1.45918,0.0671552,0.0584738,-0.124005,0.317008,-0.00152098,-0.00132323,0.231105,0.06946144571156054,0.3730135559899703,-0.001519823896131034,0.060217207639866155,-0.0013223549172046711,-0.11662457600541132
302,0.2487,412.966,429.981,0.0408193,421.243,-1.36504,-1.48351,0.0673931,0.0586878,-0.124455,0.318159,-0.00152673,-0.00132929,0.231955,0.06971590085573465,0.37459480442682036,-0.0015255651406375081,0.06044411840088659,-0.0013284068853964826,-0.1170220055178619
303,0.2497,413.21,430.234,0.0148432,421.534,-1.37946,-1.49647,0.0676309,0.0589005,-0.124904,0.31931,-0.00153343,-0.00133527,0.232803,0.06997030954495242,0.3761778739284427,-0.0015322548969404215,0.06066969885450124,-0.0013343789236668346,-0.11741837364608065
304,0.2507,413.453,430.368,0.0310884,421.861,-1.42852,-1.47065,0.0678687,0.0591123,-0.125353,0.32046,-0.00154078,-0.00134065,0.233651,0.0702247787397503,0.3777613888300124,-0.0015395936078971273,0.060894372488816684,-0.0013397517302553563,-0.11781456384495781
305,0.2517,413.766,430.864,0.0339842,422.102,-1.38099,-1.49519,0.0681059,0.0593258,-0.125802,0.321608,-0.00154668,-0.00134674,0.234498,0.07047866616712595,0.37934396713052654,-0.0015454845069166057,0.06112089761803996,-0.001345833552648168,-0.11821057619436592
306,0.2527,414.007,431.111,0.00926715,422.39,-1.39653,-1.50706,0.068343,0.059538,-0.126251,0.322756,-0.00155345,-0.00135272,0.235345,0.07073250675048603,0.380928363274172,-0.0015522440211055422,0.06134609136472613,-0.0013518054867074358,-0.11860641077414147
307,0.2537,414.261,431.284,0.03369,422.707,-1.43608,-1.48321,0.0685801,0.0597495,-0.126699,0.323904,-0.00156068,-0.00135816,0.236191,0.07098640752658425,0.382514579349031,-0.0015594627722854693,0.061570589802922626,-0.0013572381181088389,-0.11900118666571224
308,0.2547,414.553,431.722,0.0260349,422.955,-1.4013,-1.5053,0.0688167,0.0599622,-0.127146,0.325049,-0.00156681,-0.00136423,0.237036,0.0712398328896433,0.3840984651439603,-0.0015655831940195597,0.06179640988248791,-0.001363299861276035,-0.11939490513263962
309,0.2557,414.791,431.965,0.00172818,423.24,-1.41701,-1.5168,0.0690532,0.060174,-0.127594,0.326195,-0.00157364,-0.00137023,0.237881,0.07149321107091056,0.38568555121163683,-0.0015724024777984402,0.06202132217947254,-0.0013692916635014152,-0.1197893278578529
310,0.2567,415.063,432.198,0.0378674,423.543,-1.4419,-1.4962,0.0692895,0.0603853,-0.12804,0.327339,-0.00158069,-0.00137572,0.238725,0.07174643483389587,0.3872716825763778,-0.0015794413675488395,0.06224575099491836,-0.0013747741310408124,-0.12018181428664865
311,0.2577,415.325,432.553,0.0145903,423.801,-1.42578,-1.51475,0.0695255,0.0605972,-0.128487,0.328483,-0.00158714,-0.00138177,0.239568,0.07199939684085943,0.3888596295137099,-0.0015858811593837396,0.06247086471951091,-0.001380815795381296,-0.12057500513096187
312,0.2587,415.562,432.718,0.0213339,424.109,-1.46497,-1.50109,0.0697615,0.060808,-0.128933,0.329626,-0.00159446,-0.00138737,0.240411,0.07225241855390174,0.39044800365313703,-0.001593189523985017,0.06269485718577039,-0.0013864080471545082,-0.12096714122582408
313,0.2597,415.877,433.218,0.0365688,424.342,-1.41644,-1.52375,0.0699969,0.0610202,-0.129379,0.330767,-0.00160043,-0.00139348,0.241253,0.07250485648400806,0.3920354102685615,-0.0015991499948514454,0.06292038496211605,-0.0013925095575612056,-0.12135910246698334
314,0.2607,416.111,433.464,0.00964878,424.62,-1.42943,-1.53711,0.0702323,0.0612312,-0.129825,0.331908,-0.00160723,-0.00139954,0.242094,0.07275735384499771,0.3936246291486345,-0.001605939097548581,0.06314468482614632,-0.0013985611006170906,-0.12175088893240693
315,0.2617,416.357,433.63,0.032293,424.928,-1.46817,-1.51435,0.0704676,0.0614415,-0.130269,0.333048,-0.00161453,-0.00140504,0.242935,0.07300980334987694,0.3952142671473655,-0.0016132273475909509,0.06336828766437974,-0.001404053393427196,-0.1221407449832731
316,0.2627,416.641,434.06,0.0252629,425.168,-1.43363,-1.53625,0.0707025,0.0616531,-0.130714,0.334186,-0.00162073,-0.00141117,0.243775,0.07326188295827474,0.3968029247581113,-0.0016194173263924805,0.06359332020165231,-0.0014101747678179066,-0.12253130544560764
317,0.2637,416.871,434.295,0.00135488,425.445,-1.44932,-1.54761,0.0709372,0.0618636,-0.131159,0.335325,-0.00162763,-0.00141722,0.244614,0.07351380708434485,0.39839478968438957,-0.0016263061286465597,0.06381723016125118,-0.0014162162179851556,-0.12292169214720094
318,0.2647,417.136,434.521,0.036341,425.739,-1.47361,-1.52782,0.0711718,0.0620737,-0.131603,0.336462,-0.00163474,-0.00142279,0.245453,0.07376568296737274,0.3999856688036536,-0.001633404540375083,0.06404076164246786,-0.001421778314170341,-0.1233110284768264
319,0.2657,417.39,434.865,0.013743,425.991,-1.4585,-1.54585,0.0714061,0.0622844,-0.132046,0.337598,-0.00164127,-0.00142889,0.246291,0.07401729574217741,0.4015769562035285,-0.0016399238529578586,0.06426497865137848,-0.0014278696227441046,-0.12369931567924575
320,0.2667,417.621,435.029,0.0205549,426.289,-1.49601,-1.53304,0.0716403,0.062494,-0.132489,0.338734,-0.00164863,-0.00143456,0.247128,0.07426886004987088,0.4031700523330535,-0.0016472717560779282,0.06448807197026674,-0.001433531510671826,-0.12408743090852936
321,0.2677,417.926,435.509,0.0343228,426.517,-1.45054,-1.55481,0.071874,0.062705,-0.132932,0.339868,-0.00165472,-0.00144072,0.247965,0.07451994602071732,0.4047621497210043,-0.0016533517056794844,0.06471270265115603,-0.0014396826611722258,-0.12447537424084432
322,0.2687,418.152,435.745,0.00765975,426.788,-1.46384,-1.5679,0.0721076,0.0629148,-0.133375,0.341002,-0.00166161,-0.00144683,0.248801,0.07477098320010889,0.40635605357146365,-0.0016602302903895305,0.06493610281002948,-0.0014457838460719685,-0.12486314575232416
323,0.2697,418.395,435.92,0.0319601,427.085,-1.49878,-1.54658,0.0723412,0.063124,-0.133817,0.342135,-0.00166891,-0.00145241,0.249636,0.07502207902863534,0.4079503579830601,-0.0016675181441077047,0.06515891074763491,-0.001451355763052442,-0.12524987076937688
324,0.2707,418.665,436.32,0.0217393,427.321,-1.46954,-1.5672,0.0725743,0.0633342,-0.134259,0.343267,-0.00167527,-0.00145859,0.250471,0.0752726958835166,0.4095450602194717,-0.001673867518501293,0.06538283068383488,-0.0014575267746054221,-0.12563642489174254
325,0.2717,418.858,436.379,0.0070719,427.632,-1.53024,-1.55076,0.0728075,0.0635426,-0.1347,0.344399,-0.00168303,-0.00146425,0.251305,0.07552347871633835,0.41114156868094587,-0.0016816144992309878,0.0656048796024431,-0.0014631785090094551,-0.12602193421731112
326,0.2727,419.157,436.864,0.0170081,427.852,-1.48261,-1.58038,0.0730402,0.0637528,-0.135142,0.345528,-0.00168919,-0.00147057,0.252139,0.07577378215151098,0.41273564719998745,-0.0016877641215448103,0.06582889329114949,-0.0014694892417793648,-0.1264081471630384
327,0.2737,419.394,437.129,0.00285861,428.114,-1.48775,-1.5876,0.0732728,0.063962,-0.135582,0.346658,-0.00169604,-0.00147663,0.252971,0.0760240362366611,0.41433294078223204,-0.0016946025369389828,0.06605188802006134,-0.0014755403183397409,-0.12679244302699666
328,0.2747,419.634,437.307,0.0264969,428.404,-1.52077,-1.56703,0.0735053,0.0641705,-0.136022,0.347787,-0.00170337,-0.00148227,0.253804,0.07627424091025237,0.41593062439506845,-0.0017019200886835284,0.06627418301216115,-0.001481171980411089,-0.1271765698379691
329,0.2757,419.905,437.711,0.022206,428.636,-1.49032,-1.58676,0.0737373,0.06438,-0.136463,0.348914,-0.00170975,-0.00148847,0.254635,0.0765239655010761,0.41752727775393317,-0.0017082892101158986,0.06649759085465656,-0.0014873627779532494,-0.1275614001093588
330,0.2767,420.125,437.936,-0.00093887,428.901,-1.50539,-1.59812,0.0739693,0.0645886,-0.136902,0.350041,-0.00171677,-0.00149461,0.255466,0.0767737480347257,0.41912573155549215,-0.0017152971933275252,0.06672008545748898,-0.0014934936267241294,-0.12794431659839178
331,0.2777,420.383,438.17,0.0348954,429.179,-1.52486,-1.58059,0.0742011,0.0647968,-0.137341,0.351167,-0.00172392,-0.00150031,0.256296,0.07702337311994989,0.42072456710471084,-0.001722434903435266,0.06694219970057169,-0.001499185097589728,-0.12832706502397873
332,0.2787,420.619,438.477,0.00978786,429.423,-1.51576,-1.59691,0.0744326,0.0650055,-0.137781,0.352291,-0.00173066,-0.00150649,0.257126,0.07727273289310732,0.42232235930913764,-0.001729163271549372,0.0671648937749676,-0.0015053558135582623,-0.12871051674980216
333,0.2797,420.853,438.672,0.0231053,429.702,-1.54318,-1.58675,0.074664,0.0652133,-0.138219,0.353416,-0.00173798,-0.00151229,0.257955,0.07752204264752494,0.4239233723643472,-0.0017364705873293973,0.06738667368202833,-0.0015111470656998804,-0.1290920579798367
334,0.2807,421.123,439.07,0.0244624,429.93,-1.51388,-1.60521,0.074895,0.065422,-0.138657,0.354539,-0.00174444,-0.00151851,0.258783,0.07777097899041707,0.4255233365232407,-0.0017429193488999184,0.06760946052782435,-0.0015173576470502992,-0.12947343213140527
335,0.2817,421.306,439.133,0.00255851,430.227,-1.56969,-1.59321,0.075126,0.065629,-0.139095,0.355662,-0.00175222,-0.00152431,0.259611,0.07801997284424678,0.4271250984511432,-0.001750685758776016,0.06783047856073088,-0.0015231488295814888,-0.12985463927767227
336,0.2827,421.51,439.347,-0.0379382,430.485,-1.58251,-1.60984,0.0753568,0.0658366,-0.139533,0.356784,-0.0017595,-0.00153052,0.260438,0.07826880856851726,0.42872723144013714,-0.0017579529873309463,0.06805218318022344,-0.0015293493515745604,-0.13023567949177006
337,0.2837,421.881,439.944,0.0633732,430.691,-1.51603,-1.61128,0.0755871,0.0660455,-0.13997,0.357903,-0.00176545,-0.0015365,0.261264,0.07851716247198492,0.43032687204411935,-0.0017638925098405478,0.06827532258738933,-0.0015353201882126744,-0.13061568346291708
338,0.2847,422.09,440.188,0.0228666,430.94,-1.52141,-1.63104,0.0758173,0.0662532,-0.140407,0.359023,-0.00177235,-0.00154281,0.26209,0.07876546570139098,0.43192973557683434,-0.001770780315219267,0.06849722641580547,-0.0015416204804648004,-0.13099552140860793
339,0.2857,422.288,440.266,0.0233981,431.235,-1.57435,-1.60902,0.0760476,0.0664596,-0.140843,0.360143,-0.00178007,-0.00154851,0.262915,0.07901393399816836,0.43353439532239757,-0.0017784866150488687,0.06871778700440756,-0.0015473116770081674,-0.13137432477613886
340,0.2867,422.582,440.76,0.0353701,431.439,-1.51999,-1.63425,0.0762772,0.066668,-0.141279,0.36126,-0.00178617,-0.00155487,0.263739,0.07926170404032673,0.4351365478775924,-0.0017845757477087387,0.06894053100033748,-0.0015536618159124327,-0.13175296302140083
341,0.2877,422.792,440.971,0.0108784,431.695,-1.53637,-1.64563,0.0765069,0.066875,-0.141715,0.362378,-0.00179325,-0.0015611,0.264563,0.07950963892797636,0.43674192777826715,-0.0017916430878940348,0.06916182459335118,-0.0015598821172230215,-0.13213143621637158
342,0.2887,423.005,441.091,0.0258554,431.982,-1.57986,-1.62381,0.0767365,0.0670812,-0.14215,0.363495,-0.00180084,-0.00156684,0.265387,0.0797575227970535,0.43834766514896195,-0.0017992194605706002,0.06938230849269122,-0.0015656131470516144,-0.13250887694230773
343,0.2897,423.274,441.51,0.0255734,432.196,-1.54261,-1.64518,0.0769656,0.0672887,-0.142586,0.36461,-0.00180724,-0.00157317,0.266209,0.08000492358420441,0.43995231722288897,-0.001805607925122965,0.06960422834509195,-0.001571933216717336,-0.1328870206306465
344,0.2907,423.482,441.719,0.00236633,432.451,-1.55918,-1.65586,0.0771946,0.0674953,-0.143021,0.365724,-0.00181439,-0.00157941,0.267031,0.080252273032136,0.44155731792368225,-0.001812744989511228,0.06982523140749808,-0.0015781633884158763,-0.13326413274883997
345,0.2917,423.717,441.909,0.0301427,432.722,-1.58581,-1.63784,0.0774235,0.0677014,-0.143455,0.366839,-0.00182176,-0.00158522,0.267853,0.0804995710796148,0.4431655507563552,-0.00182010160247148,0.07004574511084782,-0.0015839642024352285,-0.13364021449958385
346,0.2927,423.954,442.238,0.0136215,432.949,-1.56915,-1.65511,0.0776521,0.0679081,-0.143889,0.367951,-0.00182851,-0.00159152,0.268673,0.08074660151606672,0.44477124344847385,-0.0018268392940459233,0.0702669464267307,-0.0015902542036472234,-0.1340161330662616
347,0.2937,424.157,442.364,0.0135819,433.225,-1.60947,-1.64356,0.0778806,0.0681137,-0.144322,0.369064,-0.00183615,-0.00159742,0.269493,0.0809935803307682,0.446380169043435,-0.001834465307862354,0.07048701593328599,-0.0015961448037701276,-0.13439102291113514
348,0.2947,424.446,442.834,0.0338401,433.429,-1.56124,-1.66466,0.0781087,0.0683207,-0.144756,0.370175,-0.00184244,-0.00160378,0.270313,0.08124018309041703,0.4479879903906201,-0.001840743749329854,0.07070862968181602,-0.0016024946320967182,-0.13476661569766157
349,0.2957,424.65,443.045,0.00784312,433.677,-1.57534,-1.6771,0.0783366,0.0685266,-0.145189,0.371285,-0.00184958,-0.00161008,0.271131,0.08148662580922461,0.4495961494230989,-0.0018478705809766849,0.07092911128646961,-0.0016087845165674297,-0.13514118065389924
350,0.2967,424.866,443.189,0.0263141,433.951,-1.61152,-1.65769,0.0785646,0.0687317,-0.145621,0.372395,-0.00185715,-0.00161591,0.27195,0.08173323287204592,0.45120609450317684,-0.0018554265639969536,0.07114878137359182,-0.0016146051203865808,-0.13551471897377043
351,0.2977,425.118,443.567,0.0201924,434.165,-1.58242,-1.67734,0.0787921,0.068938,-0.146054,0.373504,-0.00186375,-0.00162228,0.272767,0.08197935517787514,0.45281637479736636,-0.0018620142964420605,0.0713697821626369,-0.0016209648150963263,-0.13588896007140994
352,0.2987,425.321,443.771,-0.00214365,434.413,-1.59849,-1.68786,0.0790195,0.0691434,-0.146486,0.374612,-0.00187099,-0.00162859,0.273584,0.08222542526035048,0.45442698745528,-0.0018692407892986207,0.0715898641175361,-0.0016272645669326291,-0.13626217542033947
353,0.2997,425.56,443.99,0.0308194,434.672,-1.61682,-1.6722,0.0792467,0.0693484,-0.146917,0.375719,-0.00187832,-0.00163449,0.274401,0.08247133481123692,0.456037929622372,-0.0018765570609494686,0.07180956255800086,-0.0016331549486949815,-0.1366343662098567
354,0.3007,425.779,444.271,0.00741499,434.9,-1.6101,-1.6873,0.0794737,0.0695538,-0.147349,0.376825,-0.0018853,-0.00164082,0.275216,0.08271708369568209,0.45764919843994356,-0.0018835239382667401,0.07202973485307096,-0.0016394745908224762,-0.13700725961287974
355,0.3017,425.999,444.461,0.0203991,435.158,-1.634,-1.67907,0.0797006,0.0697585,-0.147779,0.377931,-0.00189276,-0.00164683,0.276031,0.08296278007517288,0.4592622503066719,-0.0018909698594048452,0.0722492018014711,-0.0016454747195497887,-0.13737826671900177
356,0.3027,426.246,444.816,0.0195043,435.374,-1.61092,-1.69562,0.0799271,0.069964,-0.14821,0.379035,-0.00189951,-0.0016532,0.276846,0.08320809892617098,0.4608741654444475,-0.0018977070726201584,0.07246957165466839,-0.001651834217620829,-0.13774997657681742
357,0.3037,426.425,444.903,0.00400787,435.645,-1.65683,-1.68638,0.0801536,0.070168,-0.14864,0.380139,-0.00190734,-0.00165922,0.27766,0.08345347334818198,0.4624878611192107,-0.0019055221829775704,0.07268837776475023,-0.0016578442554886497,-0.13812066438329929
358,0.3047,426.728,445.413,0.0415684,435.835,-1.59839,-1.70659,0.0803796,0.0703737,-0.14907,0.381241,-0.00191356,-0.00166564,0.278473,0.08369836150447796,0.4641004110940097,-0.0019117303113223016,0.07290905245967072,-0.001664253591554532,-0.1384911928282896
359,0.3057,426.923,445.615,0.0129927,436.075,-1.61274,-1.71974,0.0806056,0.0705782,-0.1495,0.382344,-0.00192078,-0.00167204,0.279285,0.08394330501175173,0.4657162047938561,-0.0019189364826150968,0.07312848479709055,-0.001670642919885612,-0.13886156198029898
360,0.3067,427.118,445.711,0.0221334,436.349,-1.65804,-1.6993,0.0808315,0.0707818,-0.149929,0.383446,-0.00192857,-0.00167794,0.280097,0.08418819546368894,0.4673323143643613,-0.0019267115038161808,0.07334699600028083,-0.0016765330457164662,-0.1392309111391502
361,0.3077,427.377,446.126,0.0253002,436.548,-1.6187,-1.72073,0.081057,0.0709868,-0.150358,0.384545,-0.0019351,-0.00168441,0.280909,0.08443270746945863,0.46894579902527167,-0.0019332289011108061,0.07356705468970581,-0.0016829921776524426,-0.1396001018811952
362,0.3087,427.573,446.319,0.00253098,436.789,-1.63562,-1.73108,0.0812823,0.0711907,-0.150787,0.385645,-0.00194242,-0.0016908,0.281719,0.08467705768346945,0.4705625284423587,-0.0019405347231358228,0.0737859773305618,-0.001689371402950779,-0.13996913427438007
363,0.3097,427.791,446.488,0.0261374,437.047,-1.66365,-1.71412,0.0815076,0.0713942,-0.151215,0.386744,-0.00194998,-0.00169677,0.28253,0.08492146295578573,0.47217956505998315,-0.0019480800241721274,0.07400451501240357,-0.0016953312996131897,-0.14033714872420044
364,0.3107,428.019,446.808,0.0130351,437.26,-1.64609,-1.73099,0.0817326,0.0715984,-0.151643,0.387842,-0.00195689,-0.00170321,0.283339,0.08516559774908505,0.47379690598009483,-0.001954976539111586,0.07422384912762015,-0.0017017603609780219,-0.14070500569753874
365,0.3117,428.205,446.913,0.00932263,437.524,-1.68793,-1.72014,0.0819575,0.0718013,-0.15207,0.38894,-0.00196472,-0.00170927,0.284148,0.08540967893791973,0.47541602371583,-0.0019627912010509174,0.07444183126014758,-0.0017078100299796617,-0.14107184633405623
366,0.3127,428.484,447.375,0.0327773,437.713,-1.63842,-1.74088,0.0821819,0.0720058,-0.152498,0.390035,-0.00197116,-0.00171577,0.284956,0.08565327220001517,0.4770324891150899,-0.001969218539979445,0.0746615770828849,-0.0017142989081255777,-0.14143938892410035
367,0.3137,428.676,447.571,0.00731003,437.948,-1.65305,-1.75285,0.0824063,0.0722091,-0.152925,0.391131,-0.00197848,-0.00172221,0.285764,0.08589692013057237,0.47865220416487153,-0.0019765240985614163,0.07488007799137075,-0.0017207278473394538,-0.1418059160459202
368,0.3147,428.878,447.699,0.0227673,438.209,-1.68942,-1.73472,0.0826306,0.0724117,-0.153351,0.392226,-0.00198621,-0.00172821,0.286571,0.0861405141278031,0.480272215122562,-0.001984238790212811,0.07509787075683394,-0.0017267175050033057,-0.14217142886592626
369,0.3157,429.118,448.062,0.0184333,438.411,-1.66117,-1.75366,0.0828546,0.0726154,-0.153777,0.393319,-0.001993,-0.00173472,0.287378,0.08638383685409567,0.48189103717878434,-0.0019910152942251846,0.07531689049951051,-0.0017332162429190001,-0.14253678601063224
370,0.3167,429.309,448.252,-0.00310868,438.646,-1.67737,-1.76379,0.0830784,0.0728181,-0.154203,0.394412,-0.00200041,-0.00174116,0.288183,0.08662699676536278,0.4835116295748285,-0.0019984105134025487,0.07553487932563585,-0.0017396450603055502,-0.14290198754634176
371,0.3177,429.535,448.459,0.0272462,438.89,-1.69495,-1.74965,0.0833021,0.0730207,-0.154628,0.395505,-0.0020079,-0.00174723,0.288989,0.08687010241489235,0.4851339942467341,-0.0020058855173138435,0.07575280476728907,-0.0017457044822696277,-0.143266176805935
372,0.3187,429.742,448.724,0.0056181,439.107,-1.68956,-1.76389,0.0835255,0.0732235,-0.155054,0.396596,-0.00201507,-0.00175371,0.289793,0.08711293631930883,0.48675515961936444,-0.002013041109461877,0.07597098955928594,-0.0017521731491461079,-0.1436310676873397
373,0.3197,429.951,448.907,0.0176202,439.35,-1.71152,-1.757,0.0837488,0.0734257,-0.155478,0.397687,-0.00202267,-0.00175989,0.290597,0.08735571574330292,0.4883780946485885,-0.0020206257815276185,0.07618857289030845,-0.0017583423016533928,-0.14399409114822803
374,0.3207,430.183,449.236,0.0162,439.556,-1.69191,-1.77232,0.0839717,0.0736285,-0.155903,0.398776,-0.00202965,-0.00176638,0.291401,0.08759811434666287,0.4899998212635328,-0.002027591653248728,0.07640684606504222,-0.0017648208689888811,-0.1443578163624072
375,0.3217,430.357,449.332,0.00356355,439.81,-1.73239,-1.76483,0.0841947,0.07383,-0.156327,0.399866,-0.00203757,-0.00177258,0.292204,0.08784067577075572,0.49162480652479035,-0.0020354955634233063,0.07662376389826209,-0.0017710099079134567,-0.14472053174717403
376,0.3227,430.635,449.79,0.0344582,439.994,-1.68326,-1.78305,0.0844172,0.0740331,-0.156751,0.400953,-0.00204411,-0.00177912,0.293006,0.08808274725056808,0.4932470842376837,-0.002042022229940099,0.07684244839136856,-0.0017775383041607196,-0.1450830933732168
377,0.3237,430.819,449.978,0.00716631,440.223,-1.69784,-1.79555,0.0846396,0.074235,-0.157175,0.402041,-0.00205153,-0.00178566,0.293808,0.08832476376479548,0.4948726211970884,-0.002049427050663244,0.07705988483116877,-0.0017840666577124686,-0.14544550130571554
378,0.3247,431.014,450.102,0.0213491,440.475,-1.73342,-1.77838,0.084862,0.0744362,-0.157598,0.403128,-0.00205935,-0.00179175,0.294609,0.08856683410948141,0.4964984312039846,-0.00205723099363031,0.0772766110819263,-0.0017901457742356408,-0.1458069014171509
379,0.3257,431.247,450.452,0.0168223,440.672,-1.70651,-1.7969,0.085084,0.0746384,-0.158021,0.404213,-0.00206625,-0.00179834,0.295409,0.0888085227731028,0.4981230131781871,-0.002064116774980418,0.07749445843631242,-0.0017967239554999015,-0.146168148688667
380,0.3267,431.402,450.484,-0.000579854,440.935,-1.76289,-1.78414,0.085306,0.074839,-0.158443,0.405299,-0.00207445,-0.00180451,0.296209,0.08905026509756353,0.49975085853053547,-0.0020722998156723627,0.07771062550550689,-0.0018028828507128392,-0.14652838971371807
381,0.3277,431.582,450.679,-0.0345731,441.157,-1.77275,-1.80016,0.0855278,0.0750402,-0.158865,0.406383,-0.00208209,-0.00181108,0.297008,0.08929184323638739,0.5013774699252784,-0.002079923954177554,0.07792748269846062,-0.0018094409842289716,-0.14688847874912858
382,0.3287,431.898,451.185,0.0472052,441.338,-1.71779,-1.80282,0.0857491,0.0752425,-0.159287,0.407465,-0.00208864,-0.00181745,0.297807,0.08953293019658393,0.5030028395141135,-0.002086460309269067,0.07814556948694551,-0.0018157994378382725,-0.1472484158590246
383,0.3297,432.078,451.39,0.0116776,441.556,-1.72517,-1.82007,0.0859704,0.0754436,-0.159709,0.408548,-0.00209603,-0.00182409,0.298605,0.08977407051522857,0.5046314733353376,-0.0020938348630783477,0.07836240636318648,-0.0018224273589252382,-0.1476082011075054
384,0.3307,432.263,451.496,0.0190943,441.806,-1.76362,-1.80371,0.0861917,0.075644,-0.16013,0.40963,-0.00210396,-0.00183025,0.299402,0.09001526420413075,0.5062603656613196,-0.002101748227591349,0.07857853184447161,-0.001828576113834579,-0.14796698252605123
385,0.3317,432.5,451.87,0.0194521,441.994,-1.73011,-1.82372,0.0864125,0.0758455,-0.160551,0.41071,-0.00211083,-0.0018369,0.300199,0.09025596614698372,0.5078880056236068,-0.002108603765032191,0.0787958873164667,-0.0018352139317325822,-0.14832561292941093
386,0.3327,432.683,452.049,-0.00181873,442.218,-1.74628,-1.83377,0.0866332,0.0760461,-0.160972,0.411791,-0.00211839,-0.00184348,0.300995,0.09049661219302663,0.509518913904794,-0.0021161477954713126,0.0790123154784812,-0.0018417818344165227,-0.14868409238114821
387,0.3337,432.891,452.226,0.0227479,442.455,-1.7682,-1.8198,0.0868538,0.0762463,-0.161392,0.41287,-0.0021261,-0.00184969,0.301791,0.09073720228178761,0.5111485638509343,-0.0021238414503127467,0.07922835536891149,-0.0018479803777048387,-0.14904156998679607
388,0.3347,433.097,452.5,0.00694194,442.658,-1.75812,-1.83451,0.0870742,0.076447,-0.161812,0.413948,-0.00213335,-0.0018563,0.302586,0.09097762725502934,0.5127784603591439,-0.0021310760262368555,0.07944497823721175,-0.0018545781407488526,-0.14939889748337465
389,0.3357,433.283,452.639,0.0106413,442.896,-1.78772,-1.82702,0.0872944,0.0766468,-0.162231,0.415026,-0.00214123,-0.00186262,0.303381,0.09121788698017586,0.5144101148431681,-0.002138939202376844,0.07966067289104184,-0.0018608863998809122,-0.14975522468956626
390,0.3367,433.522,453.004,0.0201601,443.084,-1.75737,-1.84375,0.0875143,0.0768476,-0.162651,0.416103,-0.0021482,-0.00186927,0.304174,0.09145787217892831,0.5160420131563552,-0.002145894269732107,0.07987749052191995,-0.0018675240029163431,-0.1501122525141052
391,0.3377,433.702,453.187,-0.00287103,443.304,-1.77144,-1.85497,0.0877341,0.0770475,-0.16307,0.417179,-0.00215579,-0.0018759,0.304968,0.09169780098644331,0.5176741522958976,-0.002153467953652455,0.08009337960967078,-0.0018741415992947763,-0.15046828088714892
392,0.3387,433.911,453.372,0.0225044,443.535,-1.79032,-1.84217,0.0879538,0.077247,-0.163488,0.418255,-0.00216351,-0.00188217,0.305761,0.09193767334233338,0.5193080485623187,-0.0021611712991448373,0.08030887973432543,-0.0018803998288073887,-0.1508233109392878
393,0.3397,434.11,453.632,0.00488953,443.737,-1.7829,-1.85635,0.0881732,0.077447,-0.163907,0.419329,-0.00217086,-0.00188882,0.306553,0.09217727075073934,0.5209406619629393,-0.002168505387583064,0.08052496311789059,-0.0018870373020789533,-0.1511790414412597
394,0.3407,434.3,453.788,0.0118859,443.968,-1.80786,-1.84991,0.0883925,0.0776462,-0.164325,0.420403,-0.00217871,-0.00189519,0.307344,0.09241681149089698,0.5225750297322793,-0.0021763383340713816,0.08074022512992807,-0.0018933952614011984,-0.15153377445757188
395,0.3417,434.527,454.12,0.0160527,444.158,-1.78432,-1.86534,0.0886114,0.0778462,-0.164743,0.421476,-0.00218584,-0.00190187,0.308135,0.09265596770562512,0.5242096295451515,-0.002183452791415963,0.08095639479119976,-0.001900062591251972,-0.15188835922646904
396,0.3427,434.68,454.179,-0.00311972,444.403,-1.83046,-1.85768,0.0888304,0.0780447,-0.16516,0.422548,-0.00219404,-0.00190825,0.308926,0.09289528556690207,0.525844458379719,-0.0021916348535565566,0.08117098593303207,-0.0019064304485391093,-0.15224194805227764
397,0.3437,434.957,454.654,0.0354074,444.569,-1.77403,-1.87677,0.089049,0.078245,-0.165577,0.423619,-0.00220068,-0.00191498,0.309715,0.09313421859075488,0.5274795132102161,-0.0021982602791047468,0.08138756617130105,-0.0019131475956589705,-0.15259538946228424
398,0.3447,435.129,454.825,0.00843142,444.785,-1.78958,-1.8887,0.0892674,0.078444,-0.165994,0.424689,-0.00220831,-0.00192169,0.310505,0.09337298517645731,0.5291147910069531,-0.0022058734773343636,0.08160278371040408,-0.0019198447359697335,-0.15294868351794833
399,0.3457,435.303,454.913,0.0159334,445.028,-1.83013,-1.87184,0.0894859,0.0786422,-0.16641,0.42576,-0.0022164,-0.00192797,0.311293,0.09361191327566254,0.5307533502399662,-0.0022139455991662116,0.08181717862797,-0.0019261126596634703,-0.15330098358211086
400,0.3467,435.531,455.27,0.017266,445.208,-1.79887,-1.89067,0.0897039,0.0788416,-0.166826,0.426828,-0.00222345,-0.00193474,0.312081,0.09385034666105141,0.5323890681359007,-0.0022209799660535268,0.08203291448153816,-0.0019328695970084464,-0.15365313711992634
401,0.3477,435.705,455.438,-0.00335083,445.424,-1.81569,-1.90014,0.0899218,0.0790401,-0.167242,0.427897,-0.00223117,-0.00194144,0.312869,0.09408872262170664,0.5340280679390508,-0.002228682790355263,0.08224771933373898,-0.0019395566243806117,-0.15400514419233702
402,0.3487,435.906,455.611,0.0200796,445.65,-1.83593,-1.88755,0.0901397,0.0792383,-0.167657,0.428964,-0.002239,-0.0019478,0.313656,0.09432715053014307,0.5356657494352464,-0.0022364953091830175,0.08246224209021391,-0.001945904268614962,-0.15435615921684176
403,0.3497,436.101,455.867,0.00437278,445.846,-1.82841,-1.90131,0.0903572,0.0794369,-0.168073,0.430031,-0.00224645,-0.00195453,0.314442,0.09456519257151697,0.5373051792701713,-0.0022439286196037633,0.08267724044012259,-0.001952621150076883,-0.15470787389288276
404,0.3507,436.284,456.012,0.00942107,446.072,-1.85415,-1.89522,0.0905747,0.0796347,-0.168487,0.431097,-0.00225441,-0.001961,0.315228,0.09480328639266578,0.5389448203647087,-0.0022518707263223803,0.08289141517946508,-0.0019590784957285168,-0.15505775240324216
405,0.3517,436.508,456.342,0.0153717,446.256,-1.82998,-1.91043,0.0907918,0.0798333,-0.168902,0.432162,-0.00226163,-0.00196776,0.316013,0.0950409939883674,0.540584669663152,-0.0022590744418102826,0.08310649877161347,-0.001965825229553908,-0.1554083306859696
406,0.3527,436.654,456.39,-0.00544971,446.496,-1.87701,-1.90302,0.091009,0.0800305,-0.169316,0.433227,-0.00226995,-0.00197423,0.316797,0.0952788627238712,0.5422262663314075,-0.002267375611778033,0.08332010843439175,-0.0019722824897754343,-0.15575791926723614
407,0.3537,436.927,456.863,0.0343785,446.655,-1.81984,-1.92203,0.0912256,0.0802294,-0.16973,0.434289,-0.00227668,-0.00198105,0.317581,0.09551612582020308,0.5438649806295259,-0.0022740903297451265,0.08353560223410716,-0.001979089015598512,-0.15610736314878493
408,0.3547,437.093,457.026,0.00769477,446.865,-1.83574,-1.93368,0.0914423,0.080427,-0.170144,0.435352,-0.00228441,-0.00198784,0.318365,0.09575354988863682,0.5455069816728721,-0.0022818027212183623,0.08374973002423758,-0.0019858655545778037,-0.15645666239050926
409,0.3557,437.262,457.108,0.0139742,447.102,-1.87623,-1.91744,0.0916589,0.0806239,-0.170557,0.436415,-0.00229261,-0.00199422,0.319148,0.09599091581334451,0.5471507290913613,-0.002289983976892951,0.08396314135573557,-0.0019922328644438325,-0.156804973857673
410,0.3567,437.485,457.457,0.0158452,447.277,-1.84563,-1.93591,0.0918751,0.080822,-0.17097,0.437476,-0.00229976,-0.00200107,0.31993,0.09622789466583415,0.5487931271530253,-0.0022971175780047703,0.08417789572475609,-0.0019990691942342043,-0.1571531415019024
411,0.3577,437.654,457.619,-0.00431408,447.488,-1.86249,-1.94517,0.0920912,0.0810191,-0.171382,0.438536,-0.00230759,-0.00200785,0.320712,0.09646481511220362,0.5504357182873074,-0.0023049295609902654,0.08439160824868064,-0.0020058356176068104,-0.15750032288332805
412,0.3587,437.85,457.788,0.0180813,447.708,-1.88216,-1.93334,0.0923072,0.081216,-0.171794,0.439596,-0.00231551,-0.00201432,0.321493,0.09670167709244093,0.5520800514913258,-0.002312831274657312,0.08460514597844448,-0.002012292618961964,-0.15784736125548648
413,0.3597,438.039,458.035,0.0029523,447.899,-1.87549,-1.94666,0.092523,0.0814132,-0.172207,0.440655,-0.00232307,-0.00202113,0.322273,0.09693837085269563,0.5537245748873014,-0.002320373761142247,0.08481905120359334,-0.0020190888921078898,-0.15819509848260782
414,0.3607,438.218,458.179,0.0079702,448.118,-1.89993,-1.94124,0.0927386,0.0816097,-0.172618,0.441713,-0.00233112,-0.00202769,0.323053,0.09717489626197429,0.5553692853859669,-0.0023284050498074693,0.08503223909217894,-0.0020256356254114705,-0.15854100920760816
415,0.3617,438.434,458.495,0.0130795,448.298,-1.87794,-1.95581,0.0929539,0.0818069,-0.17303,0.44277,-0.00233847,-0.00203453,0.323833,0.09741114344823654,0.557014179894221,-0.0023357379090820363,0.08524622854839481,-0.0020324617467184503,-0.158887618905314
416,0.3627,438.579,458.551,-0.00562064,448.53,-1.92164,-1.9493,0.0931693,0.0820028,-0.173441,0.443827,-0.00234684,-0.00204111,0.324612,0.09764755126874358,0.5586608139751728,-0.0023440883240092303,0.08545884911007162,-0.002039028351516037,-0.15923324506290326
417,0.3637,438.84,458.995,0.0301059,448.688,-1.8699,-1.96724,0.0933842,0.0822003,-0.173851,0.444882,-0.00235375,-0.002048,0.32539,0.09788346107511203,0.560306068853264,-0.0023509821025408106,0.08567324840400414,-0.0020459042789230386,-0.1595778887756385
418,0.3647,439.003,459.154,0.00438856,448.893,-1.88562,-1.97858,0.093599,0.0823965,-0.174262,0.445938,-0.0023616,-0.00205487,0.326168,0.09811931177200894,0.5619546223450198,-0.0023588136165926255,0.08588627839289953,-0.0020527602000105505,-0.15992323129060348
419,0.3657,439.172,459.25,0.0130882,449.12,-1.92125,-1.96397,0.0938139,0.0825921,-0.174672,0.446992,-0.00236983,-0.00206137,0.326945,0.09835532297060379,0.5636017904220594,-0.0023670241697700822,0.08609869852296459,-0.0020592468359876825,-0.16026759216697084
420,0.3667,439.383,459.569,0.0116079,449.295,-1.89643,-1.98104,0.0940283,0.0827887,-0.175082,0.448046,-0.00237717,-0.00206829,0.327721,0.09859083559790016,0.5652506955295062,-0.002374346768938662,0.08631224651817448,-0.0020661525621057386,-0.1606118118843184
421,0.3677,439.52,459.59,-0.00640957,449.531,-1.94919,-1.97059,0.0942428,0.0829838,-0.175491,0.449099,-0.00238572,-0.00207485,0.328498,0.09882650860716247,0.5668997725985998,-0.0023828764318094553,0.0865242067135148,-0.0020726989866726164,-0.16095505145598044
422,0.3687,439.686,459.774,-0.0331489,449.727,-1.95657,-1.98533,0.094457,0.0831795,-0.1759,0.450151,-0.00239372,-0.00208177,0.329273,0.09906190245508717,0.568549018510621,-0.0023908573368743857,0.08673686030824412,-0.0020796046197021356,-0.16129815067136255
423,0.3697,439.959,460.203,0.0326805,449.893,-1.91287,-1.98833,0.0946708,0.083376,-0.176309,0.451202,-0.00240085,-0.0020885,0.330048,0.09929690701092397,0.5701984301430598,-0.002397970264703897,0.08695042508334683,-0.0020863206013637114,-0.1616411095878587
424,0.3707,440.121,460.382,0.00213866,450.088,-1.92109,-2.00355,0.0948846,0.0835715,-0.176718,0.452252,-0.00240869,-0.00209547,0.330822,0.09953196181610613,0.5718480043696244,-0.0024057914339580266,0.08716294466456276,-0.0020932760354693825,-0.16198392826283936
425,0.3717,440.296,460.507,0.0132722,450.306,-1.94894,-1.99169,0.0950984,0.0837665,-0.177126,0.453303,-0.00241688,-0.00210204,0.331596,0.09976706688137837,0.5735008850588714,-0.002413961697068867,0.08737496210980145,-0.0020998322611086584,-0.16232576907983942
426,0.3727,440.496,460.8,0.00750152,450.481,-1.92944,-2.00786,0.0953117,0.0839622,-0.177534,0.454351,-0.00242437,-0.00210901,0.332369,0.10000167221651379,0.575150778379506,-0.002421433588513544,0.08758778221365415,-0.002106787601038329,-0.16266747045423435
427,0.3737,440.643,460.859,-0.00306565,450.707,-1.97211,-1.99953,0.0955252,0.0841566,-0.177942,0.4554,-0.00243283,-0.00211565,0.333142,0.10023654764559176,0.5768039784978896,-0.002429873067486321,0.08779922983055899,-0.0021134135899704143,-0.1630090324429052
428,0.3747,440.89,461.278,0.0239188,450.861,-1.92391,-2.01871,0.0957381,0.0843526,-0.178349,0.456447,-0.00243991,-0.00212266,0.333914,0.10047081294324167,0.5784557568184365,-0.0024369358389827456,0.08801245937541857,-0.002120408750423075,-0.16334961845274643
429,0.3757,441.049,461.433,0.00111471,451.061,-1.93976,-2.02902,0.095951,0.0845474,-0.178756,0.457494,-0.00244788,-0.00212962,0.334685,0.10070512812128296,0.5801092654565483,-0.00244488638492113,0.08822442484727167,-0.002127353968208734,-0.16369006587228674
430,0.3767,441.217,461.537,0.011223,451.28,-1.97208,-2.01568,0.0961639,0.0847416,-0.179163,0.45854,-0.00245618,-0.00213623,0.335456,0.10093949319033624,0.5817629244611007,-0.0024531660580034975,0.08843577855235751,-0.002133949884599473,-0.16403037475792082
431,0.3777,441.419,461.833,0.00817641,451.452,-1.95135,-2.03155,0.0963764,0.0849367,-0.17957,0.459585,-0.0024637,-0.00214323,0.336227,0.10117346769154945,0.5834167306804123,-0.002460667581988929,0.08864815308921536,-0.0021409349225026686,-0.16437054516602057
432,0.3787,441.559,461.875,-0.00565651,451.678,-1.99759,-2.02273,0.096589,0.0851304,-0.179975,0.46063,-0.00247226,-0.00214992,0.336997,0.10140760205838206,0.5850722660305365,-0.0024692064821278947,0.08885904466065808,-0.0021476105773179377,-0.16470890657241855
433,0.3797,441.809,462.31,0.0254108,451.826,-1.94513,-2.0425,0.096801,0.0853258,-0.180382,0.461673,-0.00247933,-0.00215698,0.337766,0.10164112522259927,0.5867263588634684,-0.0024762589999074436,0.08907182850628947,-0.0021546553903190047,-0.16504880087426121
434,0.3807,441.966,462.459,0.00224022,452.024,-1.96157,-2.05267,0.0970131,0.0855199,-0.180787,0.462716,-0.00248735,-0.00216398,0.338535,0.10187480808645066,0.5883821778152396,-0.0024842591082296916,0.08928323786481718,-0.0021616402832841386,-0.16538688764271536
435,0.3817,442.127,462.547,0.00953461,452.243,-1.99689,-2.03896,0.0972251,0.0857134,-0.181192,0.463759,-0.00249574,-0.00217063,0.339303,0.10210843030884553,0.5900397246871312,-0.002492628230187255,0.08949403456526706,-0.0021682758863128537,-0.16572483751375178
436,0.3827,442.33,462.854,0.00908947,452.41,-1.97329,-2.05531,0.0974368,0.0859078,-0.181597,0.4648,-0.00250327,-0.00217768,0.340071,0.10234177136182088,0.5916958178874849,-0.0025001394324170034,0.08970585279365118,-0.002175310575170619,-0.1660626505428029
437,0.3837,442.462,462.874,-0.00868012,452.637,-2.02408,-2.04581,0.0976485,0.0861008,-0.182002,0.465841,-0.00251195,-0.00218441,0.340838,0.10257516181832638,0.5933536359785101,-0.002508797693629883,0.08991618631977283,-0.0021820259127333097,-0.16640032678527827
438,0.3847,442.623,463.054,-0.03294,452.825,-2.03071,-2.06004,0.0978599,0.0862944,-0.182406,0.466882,-0.00252009,-0.00219146,0.341605,0.10280827084629074,0.5950131807567527,-0.0025169172389700734,0.09012721452031491,-0.002189060504653617,-0.16673703303401521
439,0.3857,442.881,463.454,0.0271954,452.985,-1.99126,-2.06309,0.098071,0.0864887,-0.18281,0.46792,-0.00252745,-0.00219834,0.34237,0.1030410982463339,0.5966696640044531,-0.0025242586874425488,0.09033904681693739,-0.002195925420302003,-0.1670736032809017
440,0.3867,443.038,463.626,-0.00144903,453.173,-1.99963,-2.0776,0.098282,0.0866821,-0.183214,0.468959,-0.00253547,-0.00220544,0.343136,0.10327386447403741,0.5983294659031242,-0.002532258410808952,0.09054993878118744,-0.0022030098040819457,-0.1674100375808717
441,0.3877,443.209,463.755,0.0105374,453.38,-2.0241,-2.06729,0.098493,0.086875,-0.183617,0.469997,-0.00254377,-0.00221218,0.343901,0.10350667982059658,0.5999893932419806,-0.0025405373587065183,0.09076032615558827,-0.002209734933132146,-0.16774550373475638
442,0.3887,443.398,464.023,0.00329371,453.551,-2.00883,-2.08221,0.0987036,0.0870686,-0.184021,0.471034,-0.0025515,-0.00221927,0.344665,0.10373910280064758,0.6016494428297199,-0.0025482476905521745,0.09097151779742307,-0.0022168092410329576,-0.16808166664176805
443,0.3897,443.547,464.102,-0.0032832,453.763,-2.04484,-2.07566,0.0989143,0.087261,-0.184423,0.472071,-0.00256002,-0.00222608,0.345429,0.10397168513129573,0.6033112147817734,-0.0025567459432792594,0.09118144091140334,-0.0022236041214255264,-0.16841603060011956
444,0.3907,443.773,464.47,0.016543,453.917,-2.00676,-2.09271,0.0991245,0.0874547,-0.184826,0.473105,-0.00256742,-0.00223321,0.346192,0.10420376437018386,0.6049698959682486,-0.002564126996049354,0.0913928232282244,-0.0022307182417662386,-0.1687510914204977
445,0.3917,443.927,464.62,-0.00448029,454.109,-2.02181,-2.10266,0.0993347,0.0876474,-0.185228,0.47414,-0.00257557,-0.0022403,0.346955,0.10443589239725548,0.6066318997491675,-0.0025722560652883253,0.09160315489006532,-0.0022377924008959438,-0.1690851863241718
446,0.3927,444.098,464.748,0.00945072,454.314,-2.04624,-2.09193,0.0995448,0.0878396,-0.18563,0.475175,-0.00258391,-0.00224709,0.347717,0.10466795875596557,0.6082956245944966,-0.0025805745779845513,0.09181298118009562,-0.00224456718328514,-0.16941914694868643
447,0.3937,444.282,465.001,0.0015571,454.485,-2.03423,-2.10566,0.0997546,0.0880324,-0.186032,0.476208,-0.00259174,-0.00225421,0.348479,0.10489974240696731,0.6099578523675355,-0.002588384341510319,0.09202350301652018,-0.002251671176676573,-0.1697529733480112
448,0.3947,444.433,465.092,-0.0027444,454.693,-2.06667,-2.09996,0.0999644,0.0882243,-0.186433,0.477241,-0.00260026,-0.00226108,0.34924,0.10513157469128043,0.6116217981090417,-0.0025968822522746127,0.09223308243525108,-0.002258525684150303,-0.17008583566234425
449,0.3957,444.65,465.434,0.0132335,454.849,-2.03426,-2.11577,0.100174,0.0884172,-0.186834,0.478272,-0.0026078,-0.00226823,0.35,0.10536323454644059,0.6132842370228933,-0.0026044026434305367,0.0924437945193799,-0.0022656595101882004,-0.17041856452564796
450,0.3967,444.803,465.584,-0.00704974,455.038,-2.04879,-2.12567,0.100383,0.0886092,-0.187235,0.479304,-0.002616,-0.00227537,0.35076,0.10559427960582846,0.6149500057443209,-0.0026125812537964865,0.09265356386514045,-0.0022727833079473347,-0.17075115999142543
451,0.3977,444.977,465.726,0.00919814,455.237,-2.06915,-2.1161,0.100592,0.0888009,-0.187635,0.480335,-0.00262434,-0.00228221,0.35152,0.10582537295868022,0.6166158778097299,-0.0026208994301819555,0.09286304563151915,-0.0022796077387698954,-0.1710827931963661
452,0.3987,445.154,465.959,-0.00133605,455.409,-2.06142,-2.12884,0.100801,0.088993,-0.188036,0.481364,-0.00263229,-0.00228937,0.352279,0.10605651461509025,0.6182802317112213,-0.002628828562513119,0.09307300478851643,-0.002286751391204156,-0.1714151223598439
453,0.3997,445.312,466.075,-0.00085287,455.61,-2.08715,-2.12457,0.10101,0.0891844,-0.188435,0.482393,-0.00264075,-0.0022963,0.353037,0.10628770458515513,0.6199462991143228,-0.0026372662869318386,0.09328223898470678,-0.0022936655200596068,-0.17174566177902295
454,0.4007,445.514,466.376,0.00794084,455.77,-2.06423,-2.13854,0.101219,0.0893765,-0.188835,0.483421,-0.00264849,-0.00230348,0.353795,0.10651894287897345,0.6216124601698636,-0.0026449858446161434,0.09349227867648202,-0.0023008290258241804,-0.17207689726279818
455,0.4017,445.64,466.408,-0.0133567,455.983,-2.10869,-2.13291,0.101428,0.0895672,-0.189234,0.48445,-0.00265727,-0.00231042,0.354552,0.10675022950664581,0.6232819582008042,-0.002653742583198282,0.0937008275385276,-0.002307753034044402,-0.17240717268646155
456,0.4027,445.884,466.828,0.0230111,456.122,-2.05774,-2.15032,0.101636,0.0897596,-0.189633,0.485475,-0.0026646,-0.00231765,0.355309,0.10698045749726415,0.6249466752296879,-0.0026610531044720664,0.0939112758222218,-0.002314966322913836,-0.17273731635651757
457,0.4037,446.03,466.965,-0.000758744,456.309,-2.07416,-2.16053,0.101844,0.0899507,-0.190032,0.486502,-0.00267287,-0.00232486,0.356065,0.1072107333802852,0.6266163526977739,-0.00266930106345753,0.09412034224269172,-0.0023221596060748473,-0.1730673283255253
458,0.4047,446.184,467.049,0.00523233,456.516,-2.10741,-2.14855,0.102052,0.0901412,-0.19043,0.487528,-0.00268146,-0.00233174,0.356821,0.10744105716567165,0.6282861175185182,-0.002677868097365921,0.0943287920221001,-0.002329023606004621,-0.17339638204281838
459,0.4057,446.375,467.333,0.00432865,456.675,-2.0868,-2.16392,0.10226,0.0903326,-0.190829,0.488552,-0.00268928,-0.00233899,0.357576,0.10767142886338799,0.6299543364851969,-0.002685667125943092,0.09453826659897047,-0.0023362566943634366,-0.17372613109707224
460,0.4067,446.503,467.361,-0.0110609,456.887,-2.13268,-2.156,0.102468,0.0905227,-0.191226,0.489576,-0.00269812,-0.00234595,0.358331,0.10790184848340134,0.6316242645830232,-0.0026944833456780115,0.09474635810192167,-0.002343200409852697,-0.17405409671754357
461,0.4077,446.74,467.774,0.0197348,457.024,-2.08211,-2.17503,0.102675,0.0907144,-0.191624,0.490599,-0.00270551,-0.00235325,0.359085,0.1081312079039185,0.6332942702679571,-0.00270185340621365,0.09495624109541212,-0.0023504832779072116,-0.17438275777916024
462,0.4087,446.886,467.909,-0.00207259,457.209,-2.09888,-2.18446,0.102883,0.0909049,-0.192021,0.491621,-0.00271384,-0.00236049,0.359838,0.10836172316791881,0.6349643502776916,-0.0027101608651741715,0.09516485012872034,-0.0023577062342611255,-0.174710462770577
463,0.4097,447.038,467.993,0.00397239,457.413,-2.13161,-2.17279,0.10309,0.0910948,-0.192418,0.492644,-0.00272248,-0.00236742,0.360592,0.10859117779234895,0.6366377746186356,-0.0027187774121607555,0.09537284168193261,-0.00236461987140113,-0.17503803768893345
464,0.4107,447.227,468.271,0.00322075,457.571,-2.11185,-2.18778,0.103297,0.0912856,-0.192815,0.493664,-0.00273036,-0.00237471,0.361344,0.10882067991880251,0.6383079968172596,-0.002726635957231993,0.09558185875972058,-0.002371892606813142,-0.17536548258585816
465,0.4117,447.354,468.303,-0.0116312,457.779,-2.15645,-2.18028,0.103504,0.091475,-0.193211,0.494685,-0.00273923,-0.00238172,0.362096,0.10905022955711363,0.6399815634924146,-0.002735481732740075,0.09578938161556372,-0.002378885955334198,-0.1756919732053449
466,0.4127,447.587,468.705,0.0179444,457.916,-2.10789,-2.19882,0.10371,0.0916661,-0.193608,0.495704,-0.0027467,-0.00238906,0.362847,0.10927871743784623,0.6416535564413433,-0.0027429312708674436,0.09599880697634644,-0.002386208467437645,-0.17601915854139594
467,0.4137,447.732,468.838,-0.00346254,458.099,-2.12449,-2.20816,0.103917,0.0918559,-0.194003,0.496723,-0.00275508,-0.00239634,0.363598,0.10950836189973767,0.6433272540194479,-0.0027512882500875246,0.0962068472923121,-0.0023934710694041295,-0.1763445667014295
468,0.4147,447.883,468.926,0.00315076,458.299,-2.15567,-2.19708,0.104124,0.0920452,-0.194399,0.497742,-0.00276375,-0.00240333,0.364349,0.10973805390295288,0.6450026579646309,-0.0027599343589375103,0.09641437889075055,-0.002400444314669792,-0.17667066968036438
469,0.4157,448.068,469.194,0.00157345,458.456,-2.13763,-2.2116,0.10433,0.0922353,-0.194794,0.498759,-0.00277171,-0.00241065,0.365099,0.10996668349009586,0.6466764766603201,-0.0027678723582666986,0.0966228270765499,-0.0024077467166906397,-0.1769958205443174
470,0.4167,448.197,469.235,-0.0115221,458.661,-2.17951,-2.20476,0.104536,0.0924241,-0.195189,0.499776,-0.0027806,-0.00241772,0.365848,0.11019536017978537,0.6483519984955224,-0.002776737712474886,0.09682988901233358,-0.002414799668989165,-0.1773208429990416
471,0.4177,448.423,469.618,0.0151847,458.799,-2.1349,-2.2225,0.104742,0.0926144,-0.195584,0.500792,-0.00278819,-0.00242509,0.366597,0.11042408398172499,0.6500275751748115,-0.0027843066083116375,0.09703863560182069,-0.002422151844822751,-0.17764573709524867
472,0.4187,448.567,469.751,-0.0055352,458.979,-2.15108,-2.23176,0.104948,0.0928036,-0.195978,0.501807,-0.00279662,-0.00243242,0.367345,0.11065285490562138,0.6517032034010826,-0.0027927131011735717,0.09724621494806351,-0.0024294640636504106,-0.1779696808537221
473,0.4197,448.72,469.848,0.0025378,459.175,-2.17945,-2.22154,0.105153,0.0929924,-0.196372,0.502822,-0.0028053,-0.00243946,0.368093,0.11088056208006503,0.6533805332534324,-0.0028013688228579747,0.09745339459058866,-0.002436486935502913,-0.17829349700349517
474,0.4207,448.9,470.103,-0.000704451,459.332,-2.16433,-2.23535,0.105359,0.0931818,-0.196766,0.503836,-0.00281336,-0.00244682,0.36884,0.11110942704813587,0.6550579114011494,-0.002809406211434551,0.09766127194888852,-0.00244382897594031,-0.17861718559483597
475,0.4217,449.033,470.16,-0.0106529,459.532,-2.20162,-2.22953,0.105564,0.0933701,-0.19716,0.50485,-0.00282223,-0.00245395,0.369587,0.11133722782946309,0.6567369912729368,-0.0028182512527735737,0.09786798102744543,-0.0024509415260833833,-0.17894074667799253
476,0.4227,449.248,470.514,0.0112712,459.672,-2.16348,-2.24598,0.105769,0.0935596,-0.197553,0.505862,-0.00282996,-0.00246135,0.370333,0.11156507531473747,0.6584144577629851,-0.002825959437899206,0.09807604672345205,-0.002458323361803294,-0.17926335956696315
477,0.4237,449.392,470.648,-0.00843874,459.85,-2.17886,-2.2552,0.105974,0.0937482,-0.197946,0.506874,-0.00283845,-0.00246872,0.371079,0.11179296951353423,0.6600936227083947,-0.0028344254095655774,0.09828316339635257,-0.002465675216868468,-0.17958584569397873
478,0.4247,449.549,470.761,0.002186,460.041,-2.20285,-2.24618,0.106179,0.0939364,-0.198338,0.507885,-0.00284712,-0.00247582,0.371824,0.11202091043543061,0.6617728260552156,-0.0028430707976193625,0.0984898797391014,-0.002472757685431648,-0.17990738501664205
479,0.4257,449.721,470.995,-0.00374713,460.199,-2.19212,-2.25898,0.106383,0.094125,-0.198731,0.508895,-0.0028553,-0.00248322,0.372568,0.11224778584166417,0.6634520644821875,-0.0028512275079393135,0.09869707446826892,-0.0024801393597125854,-0.18022961809138394
480,0.4267,449.862,471.079,-0.00886251,460.391,-2.22255,-2.25461,0.106588,0.0943129,-0.199123,0.509906,-0.00286412,-0.0024904,0.373313,0.11247582001046541,0.6651346649305874,-0.0028600223213275378,0.09890353904530125,-0.0024873015265998166,-0.18055090510472327
481,0.4277,450.063,471.391,0.00597839,460.536,-2.19392,-2.2692,0.106792,0.0945016,-0.199515,0.510914,-0.00287205,-0.00249783,0.374056,0.11270278822771851,0.6668139668988395,-0.0028679296099980434,0.099110921709058,-0.0024947130184157507,-0.18087206619823537
482,0.4287,450.206,471.528,-0.0123194,460.712,-2.20805,-2.27843,0.106997,0.0946895,-0.199907,0.511923,-0.00288059,-0.00250524,0.374799,0.11293091568157032,0.6684966309526983,-0.0028764450815180753,0.09931746405529274,-0.002502104505206715,-0.18119310142127099
483,0.4297,450.369,471.665,0.0021322,460.896,-2.22582,-2.27103,0.107201,0.0948772,-0.200298,0.51293,-0.00288922,-0.00251241,0.375542,0.1131579767478108,0.6701776533127728,-0.0028850502206657636,0.09952382530969395,-0.0025092565394773114,-0.18151319233676333
484,0.4307,450.533,471.872,-0.00766807,461.056,-2.22117,-2.28245,0.107404,0.0950651,-0.200689,0.513937,-0.00289755,-0.00251984,0.376284,0.11338397075470619,0.6718603693149694,-0.0028933561536031993,0.09973044524780472,-0.0025166678681681764,-0.1818331581211724
485,0.4317,450.684,471.992,-0.00602127,461.24,-2.24211,-2.28005,0.107608,0.0952525,-0.201079,0.514944,-0.00290628,-0.00252709,0.377025,0.11361112425360931,0.6735447806656449,-0.0029020608566078243,0.09993655404503543,-0.002523899596111101,-0.18215218097600483
486,0.4327,450.866,472.248,-0.000869273,461.392,-2.22646,-2.2921,0.107812,0.0954404,-0.20147,0.515949,-0.00291446,-0.00253453,0.377766,0.11383832409655303,0.6752275386144475,-0.002910217084391098,0.10014325154216208,-0.0025313207906911828,-0.18247189696469424
487,0.4337,450.995,472.31,-0.0150886,461.583,-2.26024,-2.28908,0.108015,0.0956272,-0.20186,0.516954,-0.00292341,-0.0025418,0.378507,0.11406445622797934,0.6769119885850874,-0.002919140998013603,0.10034877749707682,-0.0025385723616295763,-0.18279067075994748
488,0.4347,451.205,472.647,0.00920515,461.722,-2.22554,-2.30328,0.108218,0.0958152,-0.20225,0.517958,-0.00293132,-0.00254928,0.379247,0.11429063426888808,0.678596453681608,-0.0029270278764156332,0.10055566251382841,-0.0025460333452042017,-0.18310932025766014
489,0.4357,451.345,472.778,-0.0109506,461.895,-2.24026,-2.31281,0.108421,0.0960023,-0.20264,0.518962,-0.00293993,-0.00255676,0.379986,0.1145168582285998,0.6802826108303535,-0.0029356126377482195,0.10076159574273769,-0.002553494272970802,-0.18342784550629887
490,0.4367,451.5,472.895,-9.19067e-05,462.079,-2.26192,-2.30491,0.108624,0.096189,-0.203029,0.519965,-0.00294869,-0.00256399,0.380725,0.11474312811643661,0.6819687797613767,-0.002944346883525406,0.1009671271184196,-0.0025607057851375625,-0.18374543030014967
491,0.4377,451.666,473.114,-0.00700805,462.235,-2.25356,-2.31706,0.108827,0.0963761,-0.203418,0.520966,-0.00295703,-0.00257149,0.381464,0.11496944394172348,0.683653273458358,-0.002952662292997066,0.1011731373395588,-0.0025681865517913627,-0.1840628915775413
492,0.4387,451.807,473.208,-0.00998099,462.419,-2.28021,-2.3137,0.10903,0.0965625,-0.203807,0.521968,-0.00296592,-0.00257879,0.382202,0.11519580571378607,0.6853411395180404,-0.002961526004430004,0.10137841514365586,-0.002575467777452989,-0.1843802293865121
493,0.4397,451.997,473.492,0.00119654,462.564,-2.25699,-2.32712,0.109232,0.0967496,-0.204195,0.522969,-0.00297406,-0.00258631,0.382939,0.11542109802029721,0.6870290106372559,-0.002969641864576822,0.10158450232398364,-0.0025829683817329974,-0.1846966284721182
494,0.4407,452.11,473.508,-0.0212801,462.76,-2.30126,-2.32223,0.109435,0.0969354,-0.204583,0.523969,-0.00298324,-0.00259363,0.383676,0.11564755148744466,0.6887168834436401,-0.002978794561253495,0.10178919573994505,-0.0025902694476824806,-0.18501290481869204
495,0.4417,452.337,473.901,0.0141998,462.886,-2.25227,-2.33904,0.109637,0.0971228,-0.204971,0.524968,-0.002991,-0.0026012,0.384412,0.11587293505581897,0.6904047545614489,-0.0029865314157886402,0.10199569038317047,-0.002597819810764568,-0.18532905847384695
496,0.4427,452.472,474.021,-0.00746883,463.057,-2.26902,-2.3482,0.109839,0.0973089,-0.205359,0.525967,-0.00299969,-0.00260874,0.385148,0.11609836415627295,0.6920943127050334,-0.0029951954251855595,0.10220079086515854,-0.002605340194851369,-0.18564508948517822
497,0.4437,452.613,474.098,-0.00337528,463.245,-2.29947,-2.33864,0.110041,0.0974946,-0.205746,0.526965,-0.00300865,-0.00261602,0.385884,0.11632383879800456,0.6937838657758619,-0.00300412854821408,0.10240548855761489,-0.0026126012015446065,-0.18596018386085322
498,0.4447,452.787,474.348,-0.0041222,463.392,-2.28299,-2.35239,0.110242,0.097681,-0.206133,0.527962,-0.00301694,-0.0026236,0.386618,0.11654824244141371,0.695473410388078,-0.0030123936097297133,0.1026109960933892,-0.002620161369374485,-0.18627515631859737
499,0.4457,452.91,474.387,-0.0168185,463.583,-2.32222,-2.34673,0.110444,0.0978663,-0.20652,0.528959,-0.00302608,-0.00263094,0.387353,0.11677380796773806,0.6971646403162624,-0.003021506034808219,0.10281532884180988,-0.002627482110522883,-0.18659000690558392
500,0.4467,453.12,474.738,0.00730356,463.713,-2.2823,-2.36325,0.110645,0.0980529,-0.206907,0.529954,-0.00303404,-0.00263856,0.388087,0.11699830206404038,0.698854159529797,-0.003029441952035139,0.10302113338313834,-0.002635082060153282,-0.1869047356689677
501,0.4477,453.256,474.86,-0.0115619,463.883,-2.2981,-2.37187,0.110847,0.0982384,-0.207293,0.53095,-0.00304278,-0.00264614,0.38882,0.11722395851159129,0.7005470611977707,-0.0030381554366345487,0.10322576278217088,-0.0026426420575789145,-0.18721852987482157
502,0.4487,453.403,474.959,-0.00381982,464.064,-2.32279,-2.36377,0.111048,0.0984236,-0.207679,0.531945,-0.00305171,-0.00265347,0.389553,0.11744854309724673,0.7022399475949783,-0.003047058266155256,0.10343009911439838,-0.002649952660219168,-0.18753220297948603
503,0.4497,453.569,475.185,-0.0078135,464.213,-2.31195,-2.37614,0.111249,0.0986093,-0.208065,0.532938,-0.00306014,-0.00266108,0.390285,0.11767317282894107,0.7039311113867985,-0.0030554625440299965,0.10363502511059375,-0.0026575424652002244,-0.18784575502969703
504,0.4507,453.701,475.257,-0.0145032,464.396,-2.34249,-2.37233,0.11145,0.0987941,-0.20845,0.533932,-0.0030692,-0.00266849,0.391017,0.11789784771574952,0.7056256609631335,-0.003064494820623098,0.10383899570953714,-0.00266493274542956,-0.18815837423095294
505,0.4517,453.895,475.557,0.00103841,464.533,-2.31436,-2.38649,0.11165,0.0989798,-0.208836,0.534924,-0.00307739,-0.00267613,0.391748,0.11812144964474003,0.7073184811187858,-0.003072659688975299,0.10404399764488081,-0.002672552356236424,-0.1884716846257034
506,0.4527,454.032,475.685,-0.0160804,464.7,-2.32841,-2.39522,0.111851,0.0991647,-0.209221,0.535916,-0.00308618,-0.00268375,0.392479,0.11834621464424444,0.7090129813852297,-0.00308142264178346,0.10424815425374234,-0.002680151962432875,-0.18878406289044802
507,0.4537,454.186,475.811,-0.00386935,464.874,-2.34587,-2.38895,0.112051,0.0993494,-0.209605,0.536907,-0.00309506,-0.00269115,0.39321,0.11856990625558872,0.7107074527216541,-0.0030902752394448285,0.10445212772420298,-0.0026875321020018994,-0.18909551000862435
508,0.4547,454.342,476.007,-0.0121503,465.027,-2.3418,-2.39977,0.112251,0.0995344,-0.20999,0.537898,-0.00310365,-0.00269879,0.393939,0.11879364260972958,0.7124036041115016,-0.003098838657200509,0.10465647026893454,-0.00269515154015032,-0.18940764814682387
509,0.4557,454.486,476.12,-0.0114546,465.2,-2.36184,-2.39814,0.112452,0.0997187,-0.210374,0.538888,-0.0031126,-0.00270627,0.394669,0.11901854273359946,0.7140997231199508,-0.0031077608826675096,0.10486007721820934,-0.002702611352517037,-0.18971885585423154
510,0.4567,454.66,476.36,-0.00624666,465.345,-2.34779,-2.40952,0.112651,0.0999036,-0.210757,0.539877,-0.00312106,-0.00271392,0.395398,0.11924124958219973,0.7157958063210115,-0.0031161945553359605,0.1050643847341346,-0.00271024064835812,-0.1900291341103605
511,0.4577,454.784,476.422,-0.0194436,465.526,-2.3791,-2.40735,0.112851,0.100088,-0.211141,0.540865,-0.00313022,-0.00272142,0.396126,0.11946512021843358,0.7174918502854097,-0.0031253259691719215,0.10526817739578553,-0.0027177202935045885,-0.19034010321297312
512,0.4587,454.982,476.732,0.00222182,465.659,-2.34848,-2.42061,0.113051,0.100272,-0.211524,0.541853,-0.00313844,-0.00272911,0.396854,0.11968903563327249,0.7191895707693092,-0.003133520245313992,0.10547156545155367,-0.0027253893647478655,-0.1906501435769229
513,0.4597,455.116,476.856,-0.0161679,465.823,-2.36267,-2.42964,0.11325,0.100457,-0.211907,0.54284,-0.0031473,-0.00273679,0.397581,0.11991187592323693,0.7208872485418205,-0.0031423524431979377,0.105676096609711,-0.0027330484043467385,-0.19096006521815023
514,0.4607,455.266,476.973,-0.00576878,465.995,-2.38163,-2.42334,0.11345,0.10064,-0.21229,0.543827,-0.00315627,-0.00274426,0.398308,0.12013588069815229,0.7225866027494778,-0.003151294216192535,0.10587845385051353,-0.0027404979606511226,-0.191269868182117
515,0.4617,455.422,477.172,-0.0128422,466.145,-2.37616,-2.43442,0.113649,0.100824,-0.212673,0.544812,-0.00316491,-0.00275196,0.399034,0.12035880991913306,0.7242841864759182,-0.0031599069518034595,0.10608195420748068,-0.0027481768292531017,-0.19157955251426806
516,0.4627,455.561,477.273,-0.0139981,466.317,-2.39829,-2.43249,0.113848,0.101008,-0.213055,0.545798,-0.00317397,-0.0027595,0.39976,0.1205817835074432,0.7259851691304247,-0.0031689382821344925,0.10628549201195847,-0.0027556960796522034,-0.19188831014874475
517,0.4637,455.737,477.522,-0.00657795,466.458,-2.38157,-2.44433,0.114047,0.101192,-0.213437,0.546782,-0.00318246,-0.00276722,0.400486,0.12080480147191275,0.7276843744087405,-0.003177401341922681,0.10648906727083829,-0.0027633947759614363,-0.19219694986032987
518,0.4647,455.854,477.566,-0.0226398,466.639,-2.41648,-2.44155,0.114246,0.101375,-0.213818,0.547766,-0.00319174,-0.00277478,0.401211,0.12102786382137332,0.7293852525279529,-0.003186651812716046,0.10669157329888512,-0.002770933856199198,-0.19250466419912926
519,0.4657,456.056,477.893,0.00268096,466.766,-2.38114,-2.45567,0.114444,0.101559,-0.2142,0.548749,-0.00319996,-0.00278253,0.401935,0.12124984931424843,0.7310860740480081,-0.0031948455847616852,0.10689522328359624,-0.0027786623515138054,-0.19281306850843172
520,0.4667,456.188,478.011,-0.0160008,466.928,-2.39606,-2.46445,0.114643,0.101742,-0.214581,0.549731,-0.0032089,-0.00279028,0.402659,0.12147300023704233,0.732786835509927,-0.0032037569830081214,0.10709780364499477,-0.0027863907869328797,-0.19312054815073865
521,0.4677,456.332,478.114,-0.00806709,467.1,-2.41772,-2.45782,0.114841,0.101925,-0.214962,0.550713,-0.00321798,-0.00279781,0.403382,0.12169507387565393,0.7344892679399129,-0.0032128078518037784,0.10730042108199189,-0.002793899777138842,-0.19342791066561604
522,0.4687,456.49,478.32,-0.0130574,467.246,-2.4099,-2.46927,0.115039,0.102109,-0.215343,0.551694,-0.00322665,-0.00280557,0.404105,0.12191719148919944,0.736191636787157,-0.0032214499592960744,0.10750418310500232,-0.0028016380664520613,-0.193735156097681
523,0.4697,456.622,478.403,-0.0172235,467.418,-2.43564,-2.46677,0.115237,0.102291,-0.215723,0.552675,-0.00323584,-0.00281317,0.404828,0.12213935308638679,0.7378956764776552,-0.003230610312079052,0.10770576720992442,-0.0028092167452037353,-0.19404147853341502
524,0.4707,456.801,478.668,-0.00608069,467.554,-2.41428,-2.47942,0.115435,0.102474,-0.216103,0.553655,-0.00324432,-0.00282096,0.405549,0.12236155867592524,0.7395996490507895,-0.003239062880664667,0.10790849591443452,-0.0028169848311485612,-0.19434768458873708
525,0.4717,456.909,478.684,-0.0270213,467.736,-2.45544,-2.47553,0.115633,0.102656,-0.216483,0.554634,-0.00325377,-0.00282857,0.406271,0.12258380826652648,0.7413035510311385,-0.0032484822270140157,0.10811015361098475,-0.0028245733650195115,-0.19465377430786346
526,0.4727,457.12,479.042,0.00464329,467.855,-2.41182,-2.49118,0.11583,0.10284,-0.216862,0.555612,-0.00326194,-0.00283641,0.406992,0.122804979061363,0.7430073789400877,-0.0032566256536482596,0.10831406463848836,-0.002832391189718453,-0.19495894269433867
527,0.4737,457.248,479.152,-0.0148811,468.016,-2.42808,-2.49963,0.116028,0.103022,-0.217242,0.55659,-0.00327095,-0.00284421,0.407712,0.123027316457893,0.7447128740078393,-0.003265606270993371,0.10851579615526386,-0.0028401690667334556,-0.1952648001795122
528,0.4747,457.384,479.233,-0.0106659,468.189,-2.45437,-2.49221,0.116225,0.103204,-0.217621,0.557568,-0.00328017,-0.00285179,0.408432,0.12324857463244987,0.7464200378656725,-0.0032747961197382436,0.1087175643905165,-0.00284772750960538,-0.19556973703106062
529,0.4757,457.545,479.453,-0.0125135,468.329,-2.44254,-2.50442,0.116422,0.103387,-0.218,0.558544,-0.00328885,-0.00285963,0.409152,0.12346987639916063,0.7481253758922144,-0.0032834476569602034,0.10892047827085372,-0.0028555451527765285,-0.19587455833344036
530,0.4767,457.667,479.508,-0.0214533,468.504,-2.47442,-2.50083,0.116619,0.103568,-0.218378,0.55952,-0.0032982,-0.00286728,0.409871,0.12369122176661418,0.7498323791411665,-0.0032927669131570525,0.10912121104318873,-0.002863173278678466,-0.1961784603092983
531,0.4777,457.856,479.803,-0.00424794,468.632,-2.44515,-2.51493,0.116816,0.103751,-0.218756,0.560495,-0.00330664,-0.00287515,0.410589,0.12391261074340032,0.7515392976984057,-0.0033011790867049084,0.10932419879762256,-0.0028710207146250832,-0.196482247431918
532,0.4787,457.986,479.921,-0.0203651,468.79,-2.45937,-2.52309,0.117013,0.103933,-0.219134,0.56147,-0.0033157,-0.002883,0.411307,0.12413404333811129,0.753247881312822,-0.0033102091371161046,0.1095261141755457,-0.002878848146389723,-0.19678591974470583
533,0.4797,458.131,480.034,-0.0109378,468.955,-2.47742,-2.51768,0.117209,0.104114,-0.219512,0.562444,-0.00332485,-0.00289064,0.412025,0.12435439520438307,0.7549563766513832,-0.0033193288069799376,0.10972695657790066,-0.0028864661228891197,-0.19708947729105164
534,0.4807,458.282,480.221,-0.0172356,469.099,-2.47308,-2.5281,0.117406,0.104296,-0.21989,0.563417,-0.00333369,-0.0028985,0.412742,0.12457591483920605,0.7566647802094129,-0.0033281394251702956,0.10992894526441077,-0.0028943034044648375,-0.19739292011432885
535,0.4817,458.418,480.322,-0.0183092,469.264,-2.49348,-2.52692,0.117602,0.104477,-0.220267,0.56439,-0.00334292,-0.00290623,0.413459,0.12479635332077987,0.7583748468530647,-0.003337338663988887,0.11012986058579166,-0.0029020110017096146,-0.1976954459537419
536,0.4827,458.585,480.553,-0.0118995,469.401,-2.47931,-2.53797,0.117798,0.104659,-0.220644,0.565361,-0.00335164,-0.00291411,0.414175,0.1250168350125307,0.760083058031672,-0.00334602952450358,0.11033192260750457,-0.0029098681029059437,-0.19799785776240963
537,0.4837,458.702,480.605,-0.0257597,469.572,-2.51048,-2.53615,0.117994,0.10484,-0.22102,0.566333,-0.00336106,-0.00292184,0.41489,0.1252373599229284,0.7617946904826896,-0.003355417960685836,0.11053291087438599,-0.0029175755798360736,-0.1982993538830683
538,0.4847,458.892,480.901,-0.00430861,469.697,-2.48069,-2.54909,0.11819,0.105021,-0.221397,0.567303,-0.00336956,-0.00292976,0.415605,0.12545792806044465,0.7635044604368255,-0.0033638894036294165,0.11073393552343602,-0.002925472441365873,-0.1986015380613576
539,0.4857,459.021,481.016,-0.0213313,469.853,-2.49474,-2.55755,0.118386,0.105202,-0.221773,0.568273,-0.00337869,-0.00293767,0.41632,0.1256785394335529,0.7652158896724381,-0.0033729886497810835,0.11093499656124095,-0.0029333592696864086,-0.1989028072408915
540,0.4867,459.163,481.125,-0.0127785,470.016,-2.51307,-2.55236,0.118582,0.105383,-0.222149,0.569243,-0.00338792,-0.00294538,0.417034,0.12589919405072791,0.7669289797998118,-0.00338218747464325,0.11113609399438706,-0.0029410466238516397,-0.19920396316450728
541,0.4877,459.313,481.311,-0.0186908,470.158,-2.50845,-2.56279,0.118777,0.105564,-0.222525,0.570212,-0.00339683,-0.0029533,0.417748,0.1261187658011178,0.7686419637879445,-0.0033910672997931046,0.11133722782946309,-0.00294894329949158,-0.19950500587478115
542,0.4887,459.446,481.408,-0.0202805,470.321,-2.52918,-2.56163,0.118972,0.105744,-0.2229,0.57118,-0.00340613,-0.00296109,0.418461,0.12633838037217382,0.770354838106311,-0.0034003357197690542,0.11153728653521577,-0.002956710296970755,-0.1998051352198088
543,0.4897,459.612,481.638,-0.0134405,470.455,-2.51465,-2.5727,0.119168,0.105925,-0.223275,0.572147,-0.00341492,-0.00296903,0.419174,0.1265591643308479,0.7720675992212935,-0.003409095792317518,0.11173849299271366,-0.002964626789262459,-0.20010515203743218
544,0.4907,459.727,481.685,-0.027708,470.625,-2.54622,-2.57085,0.119363,0.106105,-0.22365,0.573114,-0.00342441,-0.00297683,0.419886,0.12677886478799083,0.7737820173773244,-0.0034185533951219815,0.11193862393269671,-0.0029724036348437455,-0.2004050563698413
545,0.4917,459.916,481.981,-0.005947,470.748,-2.51605,-2.58384,0.119558,0.106286,-0.224025,0.57408,-0.00343298,-0.0029848,0.420598,0.12699860809090002,0.7754963186803312,-0.0034270940615226397,0.11213990303883814,-0.0029803499131207944,-0.2007048482592102
546,0.4927,460.043,482.093,-0.0226884,470.901,-2.53016,-2.59213,0.119752,0.106466,-0.224399,0.575046,-0.00344217,-0.00299277,0.42131,0.12721726703010106,0.7772122767985092,-0.003436252524445016,0.11234010623913249,-0.002988296128066281,-0.20100372875182526
547,0.4937,460.183,482.198,-0.0148034,471.062,-2.54864,-2.58714,0.119947,0.106646,-0.224773,0.576011,-0.00345147,-0.00300055,0.42202,0.12743709582978324,0.778928114404112,-0.0034455205242002185,0.11254034547924663,-0.0029960528489487714,-0.2013024974840366
548,0.4947,460.331,482.383,-0.0202486,471.202,-2.54395,-2.59746,0.120142,0.106826,-0.225147,0.576975,-0.00346045,-0.00300853,0.422731,0.12765696750026123,0.7806438279474583,-0.003454469543244798,0.11274062076566782,-0.003004008908702338,-0.20160115449763483
549,0.4957,460.462,482.476,-0.0222396,471.363,-2.56476,-2.59641,0.120336,0.107005,-0.22552,0.577939,-0.00346983,-0.00301638,0.423441,0.12787575417357755,0.7823611962361194,-0.0034638170964803594,0.11293981916450968,-0.0030118352965137207,-0.20189890173369562
550,0.4967,460.627,482.703,-0.0151522,471.495,-2.55022,-2.60739,0.12053,0.107185,-0.225894,0.578901,-0.00347868,-0.00302438,0.42415,0.12809458329562573,0.7840766527091656,-0.00347263640267359,0.1131401663626661,-0.0030198111699278885,-0.2021973357338105
551,0.4977,460.741,482.749,-0.0295229,471.662,-2.5817,-2.60563,0.120724,0.107364,-0.226267,0.579864,-0.00348825,-0.00303224,0.424859,0.12831345487464163,0.7857955460400261,-0.0034821731239098597,0.11333943628657117,-0.0030276474034156564,-0.20249486063573807
552,0.4987,460.927,483.041,-0.007892,471.783,-2.55179,-2.61853,0.120918,0.107544,-0.22664,0.580825,-0.00349689,-0.00304027,0.425568,0.1285323689188631,0.7875125204338282,-0.0034907830007393503,0.11353985542228395,-0.0030356530592642317,-0.20279227458157179
553,0.4997,461.053,483.151,-0.0242847,471.935,-2.56586,-2.62667,0.121112,0.107724,-0.227012,0.581786,-0.00350615,-0.0030483,0.426276,0.1287513254365289,0.7892311456331078,-0.003500010633364803,0.11374031063668788,-0.003043658650827674,-0.20308878070186975
554,0.5007,461.191,483.254,-0.0168136,472.094,-2.58413,-2.62195,0.121306,0.107903,-0.227385,0.582747,-0.00351552,-0.00305614,0.426983,0.12897032443587952,0.7909514232250514,-0.003509347794520501,0.11393968799603327,-0.003051474757904682,-0.2033859731568295
555,0.5017,461.338,483.435,-0.0220137,472.231,-2.57969,-2.6321,0.121499,0.108082,-0.227757,0.583707,-0.00352457,-0.00306419,0.42769,0.12918823673635638,0.7926715621259133,-0.003518365994115591,0.11413910104712022,-0.0030595001612305772,-0.20368225846233146
556,0.5027,461.468,483.527,-0.0240595,472.39,-2.60009,-2.63124,0.121693,0.10826,-0.228128,0.584666,-0.00353401,-0.0030721,0.428397,0.12940732050472148,0.7943915587605577,-0.0035277727363406397,0.11433743545834552,-0.003067385929396038,-0.2039776375482335
557,0.5037,461.63,483.75,-0.0171726,472.52,-2.58615,-2.64202,0.121886,0.10844,-0.2285,0.585624,-0.00354295,-0.00308016,0.429103,0.12962531715357883,0.7961114095508441,-0.0035366811582316915,0.11453803425007769,-0.0030754211738833748,-0.20427370279551538
558,0.5047,461.743,483.797,-0.0310465,472.685,-2.61673,-2.64049,0.122079,0.108618,-0.228871,0.586583,-0.00355256,-0.00308808,0.429809,0.12984335587984974,0.7978347065814557,-0.003546257124713126,0.11473643967773328,-0.003083316785280954,-0.20456886249626827
559,0.5057,461.927,484.08,-0.010339,472.805,-2.58816,-2.65309,0.122272,0.108797,-0.229242,0.587539,-0.00356129,-0.00309617,0.430514,0.13006143669165615,0.7995542583757422,-0.0035549561279172304,0.11493599536013632,-0.0030913818086251155,-0.20486391271308269
560,0.5067,462.013,484.046,-0.0406876,472.982,-2.63789,-2.64862,0.122465,0.108975,-0.229613,0.588497,-0.00357122,-0.00310409,0.431219,0.1302795595971209,0.8012790574020865,-0.00356485077807589,0.11513447163117463,-0.0030992772936150326,-0.2051588534865696
561,0.5077,462.154,484.209,-0.0472043,473.122,-2.63785,-2.65928,0.122658,0.109153,-0.229984,0.589453,-0.00358049,-0.0031122,0.431923,0.13049772460436904,0.803001903570217,-0.0035740876890960616,0.11533298323413343,-0.0031073621256921813,-0.20545368485732507
562,0.5087,462.342,484.481,-0.0131981,473.247,-2.61454,-2.66429,0.12285,0.109332,-0.230354,0.590408,-0.00358936,-0.00312021,0.432627,0.13071480100616073,0.8047245928413256,-0.0035829259477404563,0.11553264570739064,-0.003115347203741292,-0.2057476126139397
563,0.5097,462.444,484.516,-0.0413067,473.408,-2.64516,-2.66677,0.123043,0.10951,-0.230724,0.591363,-0.00359904,-0.00312824,0.43333,0.13093305002310762,0.8064489280665059,-0.0035925712183341174,0.11573122819164339,-0.0031233521553633015,-0.20604143163740118
564,0.5107,462.64,484.825,-0.0058966,473.525,-2.61181,-2.6768,0.123235,0.109688,-0.231094,0.592316,-0.00360774,-0.00313633,0.434033,0.13115021001540428,0.8081712944721897,-0.003601239925255628,0.1159298460267244,-0.003131416854822544,-0.20633514196793346
565,0.5117,462.761,484.929,-0.0253522,473.672,-2.62566,-2.68592,0.123427,0.109866,-0.231463,0.59327,-0.00361712,-0.00314447,0.434735,0.1313674117064223,0.8098971129716492,-0.0036105861017914354,0.11612849921892665,-0.003139531332063461,-0.20662795027409242
566,0.5127,462.894,485.02,-0.020226,473.829,-2.64571,-2.68123,0.123619,0.110044,-0.231833,0.594223,-0.00362663,-0.00315242,0.435437,0.13158465510416884,0.8116227670638816,-0.0036200617200610186,0.11632718777454443,-0.0031474563412874357,-0.20692144363287135
567,0.5137,463.04,485.204,-0.0243045,473.962,-2.63957,-2.69176,0.123811,0.110221,-0.232202,0.595175,-0.00363578,-0.00316057,0.436139,0.13180194021665215,0.8133482531391805,-0.0036291785547867272,0.11652479517451964,-0.0031555806564115274,-0.20721403563362673
568,0.5147,463.164,485.282,-0.0282966,474.118,-2.66232,-2.69051,0.124003,0.110399,-0.23257,0.596127,-0.00364537,-0.00316858,0.43684,0.13201926705188227,0.8150753826593784,-0.0036387337051473345,0.11672355427709591,-0.0031635653482318116,-0.20750572719397453
569,0.5157,463.328,485.513,-0.0192239,474.244,-2.64547,-2.70181,0.124195,0.110577,-0.232939,0.597077,-0.00365438,-0.00317675,0.43754,0.1322366356178708,0.8168005235850997,-0.003647710879714383,0.11692234876194152,-0.0031717094686340985,-0.2077981036338693
570,0.5167,463.433,485.54,-0.035848,474.407,-2.67973,-2.6996,0.124387,0.110753,-0.233307,0.598028,-0.00366417,-0.00318477,0.438241,0.13245404592263066,0.8185291227016303,-0.003657465120877834,0.11711894439523185,-0.003179703999466099,-0.20808958029673663
571,0.5177,463.62,485.838,-0.0118139,474.521,-2.64653,-2.71307,0.124578,0.110931,-0.233675,0.598978,-0.00367294,-0.00319297,0.43894,0.13267036530324527,0.8202575462393853,-0.0036662030065930384,0.11731780926578272,-0.0031878778923802864,-0.20838094971592613
572,0.5187,463.741,485.94,-0.0278676,474.667,-2.66118,-2.72071,0.124769,0.111108,-0.234043,0.599927,-0.0036824,-0.00320116,0.439639,0.13288672600480744,0.8219857905729979,-0.0036756282797310025,0.11751559202128026,-0.0031960417502292504,-0.20867221193089613
573,0.5197,463.873,486.03,-0.0227528,474.822,-2.68094,-2.7162,0.12496,0.111285,-0.234411,0.600875,-0.00369198,-0.00320917,0.440338,0.1331031280352104,0.8237138520741947,-0.003685173021492627,0.11771340978742395,-0.003204026117957448,-0.20896336698109053
574,0.5207,464.017,486.209,-0.0262683,474.953,-2.67544,-2.72629,0.125151,0.111462,-0.234778,0.601823,-0.0037012,-0.00321737,0.441036,0.1333195714023485,0.8254435525544479,-0.0036943590018500005,0.11791126257041107,-0.00321219981143106,-0.2092536241599583
575,0.5217,464.141,486.288,-0.0302024,475.107,-2.69735,-2.72538,0.125342,0.111638,-0.235145,0.602771,-0.00371085,-0.00322545,0.441734,0.13353605611411834,0.8271748935682464,-0.0037039733048964685,0.11810803226784872,-0.003220253824318342,-0.20954377483398623
576,0.5227,464.302,486.511,-0.0215504,475.232,-2.68169,-2.73628,0.125533,0.111815,-0.235512,0.603717,-0.00371994,-0.00323367,0.442431,0.1337525821784169,0.828904218859458,-0.003713029594618278,0.1183059549051968,-0.003228447320156591,-0.2098338190422545
577,0.5237,464.408,486.543,-0.0372565,475.392,-2.71428,-2.73449,0.125724,0.111991,-0.235879,0.604664,-0.00372977,-0.00324176,0.443128,0.13396914960314366,0.8306370115025357,-0.003722823047402457,0.11850279407459907,-0.003236511169399492,-0.21012375682382878
578,0.5247,464.59,486.829,-0.0147719,475.505,-2.68342,-2.74743,0.125914,0.112168,-0.236245,0.605608,-0.00373865,-0.00325001,0.443825,0.13418462421100785,0.8323659487713919,-0.003731669949453509,0.11870078659097105,-0.0032447344342613205,-0.21041279863095397
579,0.5257,464.711,486.93,-0.0302398,475.65,-2.69764,-2.75501,0.126104,0.112344,-0.236611,0.606553,-0.00374817,-0.00325825,0.444521,0.13440013976293708,0.8340983530250674,-0.003741154378809619,0.11889769525686544,-0.003252947663811012,-0.2107017346681348
580,0.5267,464.842,487.022,-0.024781,475.801,-2.71613,-2.75098,0.126295,0.11252,-0.236977,0.607498,-0.0037578,-0.00326633,0.445216,0.13461683088297494,0.8358323951745463,-0.0037507483052980906,0.11909463858173486,-0.003261001347456993,-0.2109905649740761
581,0.5277,464.984,487.195,-0.0286789,475.932,-2.71173,-2.76072,0.126485,0.112696,-0.237342,0.608441,-0.0037671,-0.00327459,0.445911,0.13483242856197353,0.8375644016358939,-0.003760013380256222,0.11929161657167975,-0.0032692343775833077,-0.21127850086636357
582,0.5287,465.108,487.278,-0.0316989,476.083,-2.73191,-2.76023,0.126675,0.112872,-0.237708,0.609384,-0.00377679,-0.00328273,0.446606,0.1350480672084231,0.839298042149669,-0.003769666898955193,0.11948862923280212,-0.0032773477329941514,-0.21156712011450218
583,0.5297,465.265,487.49,-0.0244676,476.207,-2.7185,-2.77061,0.126865,0.113048,-0.238073,0.610326,-0.00378598,-0.003291,0.4473,0.1352637468301079,0.8410314772251122,-0.00377882221364767,0.11968567657120421,-0.0032855905952441367,-0.2118548456025644
584,0.5307,465.374,487.532,-0.0380767,476.363,-2.74799,-2.76946,0.127055,0.113223,-0.238438,0.611269,-0.00379584,-0.00329916,0.447994,0.1354794674348141,0.8427683887331991,-0.0037886449060346994,0.11988163871079127,-0.0032937237516414974,-0.21214246608998744
585,0.5317,465.549,487.799,-0.0185852,476.478,-2.72131,-2.78156,0.127244,0.113399,-0.238802,0.612209,-0.00380485,-0.00330746,0.448687,0.13569409333566806,0.8445014054088382,-0.003797620729907969,0.12007875522494871,-0.0033019963794028717,-0.21242919404467697
586,0.5327,465.634,487.769,-0.0465648,476.646,-2.76787,-2.77772,0.127434,0.113574,-0.239167,0.61315,-0.00381498,-0.00331561,0.44938,0.1359098957139786,0.8462378981230139,-0.00380771220889653,0.12027478615931964,-0.0033101194350309004,-0.21271660493317268
587,0.5337,465.839,488.128,-0.00931295,476.743,-2.71873,-2.7937,0.127623,0.11375,-0.239531,0.614089,-0.00382367,-0.00332397,0.450072,0.1361246029734653,0.8479723296975352,-0.003816369082263238,0.12047197187351744,-0.0033184517276034775,-0.2130031239393544
588,0.5347,465.953,488.212,-0.0278155,476.888,-2.73639,-2.80076,0.127812,0.113925,-0.239895,0.615029,-0.0038333,-0.00333228,0.450764,0.13633935081645943,0.8497102403775025,-0.003825962284437656,0.12066807162682336,-0.0033267341168562448,-0.21328953867159672
589,0.5357,466.071,488.265,-0.0286161,477.043,-2.76368,-2.79493,0.128001,0.1141,-0.240258,0.615968,-0.00384313,-0.00334042,0.451456,0.1365541392506313,0.8514479340126984,-0.003835754627098953,0.12086420570058887,-0.003334847004220931,-0.21357506274330462
590,0.5367,466.221,488.463,-0.027824,477.167,-2.75232,-2.80614,0.12819,0.114275,-0.240622,0.616906,-0.00385241,-0.00334877,0.452147,0.1367689682836537,0.8531854069222049,-0.0038449989884020708,0.12106037410082093,-0.003343169123503631,-0.21386126932770766
591,0.5377,466.329,488.5,-0.038342,477.323,-2.78308,-2.80355,0.128379,0.11445,-0.240985,0.617844,-0.00386235,-0.00335696,0.452837,0.13698383792320068,0.854924510345892,-0.003854900719900467,0.12125657683352697,-0.0033513317095226203,-0.21414658589885105
592,0.5387,466.501,488.762,-0.0217735,477.435,-2.75652,-2.81651,0.128568,0.114625,-0.241348,0.61878,-0.00387142,-0.00336534,0.453527,0.13719874817694744,0.8566615324871214,-0.003863935714977118,0.12145281390471574,-0.003359683590368534,-0.21443179891887476
593,0.5397,466.586,488.731,-0.0476734,477.601,-2.8032,-2.81199,0.128756,0.114799,-0.241711,0.619717,-0.00388163,-0.00337354,0.454217,0.13741256163944038,0.8584020396433218,-0.0038741062122730208,0.12164796367187236,-0.003367856007456038,-0.21471690842536106
594,0.5407,466.789,489.086,-0.0123222,477.697,-2.75433,-2.82841,0.128945,0.114974,-0.242073,0.620652,-0.00389038,-0.00338196,0.454906,0.13762755292962714,0.8601404581343854,-0.0038828222757109065,0.1218442692417514,-0.003376247614779837,-0.21500112945740046
595,0.5417,466.902,489.168,-0.0300075,477.84,-2.77203,-2.83513,0.129133,0.115149,-0.242435,0.621587,-0.00390008,-0.00339032,0.455595,0.137841447014992,0.8618805028068597,-0.0038924845654726425,0.12204060916811121,-0.003384579354522965,-0.21528524762004686
596,0.5427,467.019,489.22,-0.030924,477.994,-2.79891,-2.82954,0.129321,0.115322,-0.242797,0.622522,-0.00390997,-0.00339852,0.456284,0.13805538131622508,0.8636221751819351,-0.003902336020084718,0.12223473898524229,-0.0033927515674662123,-0.21556926295053203
597,0.5437,467.167,489.413,-0.0300631,478.115,-2.78804,-2.84051,0.129509,0.115497,-0.243159,0.623456,-0.00391933,-0.00340692,0.456971,0.13826935584088762,0.865363611417681,-0.003911659450585803,0.12243114724978654,-0.0034011230331928433,-0.21585317548607452
598,0.5447,467.275,489.451,-0.0403081,478.269,-2.81801,-2.83816,0.129698,0.11567,-0.24352,0.624389,-0.00392932,-0.00341518,0.457659,0.13848450908048227,0.8671048078089425,-0.003921610323403213,0.12262534463585029,-0.003409354905918871,-0.21613620140047285
599,0.5457,467.444,489.707,-0.0243642,478.38,-2.79254,-2.85083,0.129885,0.115845,-0.243882,0.625321,-0.00393847,-0.00342361,0.458346,0.1386974255907536,0.8688457606478239,-0.003930724398971797,0.12282182126236507,-0.003417756129645788,-0.21641990874143902
600,0.5467,467.53,489.68,-0.0491999,478.544,-2.83761,-2.84664,0.130073,0.116018,-0.244243,0.626254,-0.00394872,-0.00343187,0.459033,0.1389115208310865,0.8705902074003748,-0.003940934056722134,0.12301608624087956,-0.003425987864983049,-0.2167027301020562
601,0.5477,467.728,490.023,-0.0155223,478.64,-2.79102,-2.86259,0.130261,0.116193,-0.244604,0.627185,-0.00395757,-0.00344034,0.459718,0.13912565632510865,0.8723325378124227,-0.003949749140448988,0.12321263125315873,-0.0034344288111184396,-0.2169854493825889
602,0.5487,467.841,490.104,-0.0326339,478.781,-2.80833,-2.86923,0.130448,0.116366,-0.244964,0.628116,-0.00396733,-0.00344876,0.460404,0.13933869274112554,0.8740764910894108,-0.0039594705434568,0.12340696384765026,-0.0034428198579014024,-0.21726728388755645
603,0.5497,467.958,490.159,-0.0330991,478.931,-2.83388,-2.8641,0.130636,0.116539,-0.245324,0.629046,-0.00397727,-0.00345702,0.461089,0.1395529085510161,0.8758201929217986,-0.003969371137113598,0.12360133006458884,-0.0034510513862131553,-0.217549016950363
604,0.5507,468.103,490.346,-0.0327199,479.052,-2.82418,-2.87471,0.130823,0.116713,-0.245684,0.629976,-0.00398671,-0.00346548,0.461774,0.1397660248706698,0.8775655171511882,-0.0039787736218702685,0.12379685370608362,-0.0034594821546561905,-0.21783064860752088
605,0.5517,468.212,490.389,-0.0419278,479.203,-2.85231,-2.8728,0.13101,0.116885,-0.246044,0.630905,-0.00399674,-0.0034738,0.462459,0.13997918104680207,0.8793105859755852,-0.003988763664670714,0.1239901633890772,-0.0034677733372733277,-0.2181121788955298
606,0.5527,468.377,490.633,-0.0275519,479.314,-2.82924,-2.88491,0.131197,0.117059,-0.246404,0.631833,-0.004006,-0.00348228,0.463142,0.14019237708686627,0.88105539566585,-0.003997986686016475,0.12418575469345683,-0.003476223894725017,-0.21839360785087603
607,0.5537,468.466,490.617,-0.0501148,479.474,-2.871,-2.8814,0.131384,0.117231,-0.246763,0.632762,-0.00401625,-0.0034906,0.463826,0.14040561299831777,0.8828037080938076,-0.004008195654331859,0.12437913127317324,-0.003484514938051464,-0.21867415418457758
608,0.5547,468.657,490.94,-0.0196488,479.571,-2.82885,-2.89645,0.13157,0.117405,-0.247122,0.633688,-0.00402524,-0.00349912,0.464509,0.14061774817029482,0.8845479918062211,-0.0040171495804049995,0.12457479026385343,-0.00349300521381557,-0.2189545998202217
609,0.5557,468.77,491.022,-0.0358404,479.71,-2.84532,-2.90308,0.131757,0.117578,-0.247481,0.634615,-0.00403506,-0.0035076,0.465192,0.140831063633577,0.8862957777682587,-0.004026930083973812,0.12476935853223892,-0.003501455557301858,-0.21923494479395256
610,0.5567,468.888,491.084,-0.0352376,479.857,-2.86858,-2.89862,0.131944,0.11775,-0.24784,0.635542,-0.00404503,-0.00351592,0.465874,0.14104441899058062,0.8880451846790767,-0.0040368598859806815,0.12496283550044884,-0.0035097463907016735,-0.21951518914190127
611,0.5577,469.03,491.261,-0.0357843,479.978,-2.86077,-2.90872,0.13213,0.117923,-0.248198,0.636467,-0.00405457,-0.00352443,0.466555,0.141256672991523,0.8897924344533428,-0.00404636132901548,0.12515747090646756,-0.0035182264866769897,-0.2197945526951287
612,0.5587,469.142,491.314,-0.043232,480.124,-2.88596,-2.90746,0.132316,0.118095,-0.248556,0.637392,-0.00406461,-0.00353281,0.467237,0.14146896647538143,0.891541301181376,-0.004056360653351021,0.12535101463574705,-0.0035265769689505344,-0.22007381625410416
613,0.5597,469.301,491.54,-0.031315,480.237,-2.8666,-2.91876,0.132502,0.118268,-0.248914,0.638316,-0.00407399,-0.00354134,0.467918,0.14168129944950025,0.8932898930687108,-0.004065702560874462,0.12554571720256535,-0.0035350768509968544,-0.2203529798546191
614,0.5607,469.395,491.543,-0.0504498,480.391,-2.90337,-2.91626,0.132689,0.118439,-0.249272,0.639241,-0.00408424,-0.00354973,0.468598,0.1418948138154683,0.895041996442681,-0.004075910835105723,0.12573820197718621,-0.0035434371566306355,-0.22063204353245236
615,0.5617,469.576,491.836,-0.02466,480.491,-2.86779,-2.92997,0.132874,0.118612,-0.249629,0.640163,-0.00409339,-0.00355829,0.469278,0.14210608389790425,0.8967900308834473,-0.0040850234988311085,0.12593297153320915,-0.003551966788301608,-0.22091022823398754
616,0.5627,469.69,491.922,-0.0395937,480.627,-2.88295,-2.93668,0.13306,0.118784,-0.249987,0.641086,-0.00410326,-0.00356682,0.469958,0.14231853538688521,0.8985415762958111,-0.004094853131139775,0.12612664866006829,-0.003560466453773836,-0.2211890924526062
617,0.5637,469.811,491.994,-0.0373579,480.771,-2.90303,-2.93309,0.133246,0.118955,-0.250344,0.642008,-0.00411326,-0.00357521,0.470637,0.1425310263955184,0.9002928388371274,-0.00410481213281344,0.12631923278246227,-0.0035688265463896807,-0.22146707832317036
618,0.5647,469.949,492.159,-0.0392193,480.892,-2.89773,-2.94252,0.133431,0.119127,-0.250701,0.642929,-0.00412289,-0.00358377,0.471315,0.14274241418816946,0.9020438147423298,-0.004114402557294561,0.12651297635197034,-0.003577355960728501,-0.22174496497049112
619,0.5657,470.064,492.225,-0.0442743,481.034,-2.91903,-2.94213,0.133617,0.119299,-0.251057,0.64385,-0.00413294,-0.00359221,0.471994,0.14295498404559237,0.9037964040391939,-0.004124411157255592,0.1267067532482382,-0.0035857657323549175,-0.22202197445234817
620,0.5667,470.216,492.43,-0.035578,481.148,-2.90452,-2.95237,0.133802,0.11947,-0.251413,0.64477,-0.00414246,-0.00360078,0.472671,0.14316645027766417,0.9055487026646822,-0.004133891847733273,0.12689943657699865,-0.00359430496575186,-0.2222988853363813
621,0.5677,470.317,492.456,-0.0503108,481.296,-2.93485,-2.95117,0.133987,0.119641,-0.251769,0.64569,-0.00415267,-0.00360925,0.473349,0.14337795563460776,0.9073026141467062,-0.004144059588791049,0.1270921528574258,-0.0036027444862474223,-0.2225756976576848
622,0.5687,470.486,492.713,-0.0304088,481.401,-2.90762,-2.96319,0.134172,0.119813,-0.252125,0.646609,-0.00416201,-0.00361785,0.474026,0.143589500123662,0.9090562309125914,-0.004153360839837639,0.12728602938062017,-0.003611313465798127,-0.22285241145134094
623,0.5697,470.565,492.673,-0.0580433,481.56,-2.9539,-2.95935,0.134357,0.119983,-0.252481,0.647528,-0.00417248,-0.0036263,0.474702,0.14380108375206713,0.9108114599930293,-0.004163787299567012,0.12747768429582118,-0.0036197329146271384,-0.2231290267524193
624,0.5707,470.761,493.014,-0.0224419,481.649,-2.90612,-2.97505,0.134542,0.120155,-0.252836,0.648445,-0.00418152,-0.00363495,0.475378,0.14401270652706444,0.9125644777376378,-0.004172789618239303,0.12767162713612623,-0.003628351566661747,-0.2234047670011322
625,0.5717,470.87,493.086,-0.0395209,481.785,-2.92379,-2.98133,0.134727,0.120326,-0.253191,0.649363,-0.0041915,-0.00364355,0.476054,0.1442243684558966,0.9143210180568508,-0.004182727924206597,0.1278644754724294,-0.0036369203259924987,-0.2236804093794298
626,0.5727,470.983,493.135,-0.0410268,481.93,-2.94909,-2.97669,0.134911,0.120497,-0.253546,0.65028,-0.00420165,-0.003652,0.476729,0.14443492511031075,0.9160772555422292,-0.0041928354182225736,0.12805735678861763,-0.0036453395584444825,-0.22395595392204992
627,0.5737,471.124,493.312,-0.0403671,482.046,-2.93999,-2.98691,0.135096,0.120668,-0.253901,0.651196,-0.0042113,-0.00366063,0.477404,0.14464666515680658,0.9178331864018627,-0.0042024449109949735,0.12825027109033127,-0.0036539380620614903,-0.22423140066371827
628,0.5747,471.23,493.352,-0.0494422,482.19,-2.96704,-2.98536,0.13528,0.120838,-0.254255,0.652112,-0.00422152,-0.00366914,0.478078,0.1448572995209625,0.9195907264310506,-0.004212621910003378,0.12844208994055695,-0.003662416930970913,-0.22450597414550966
629,0.5757,471.39,493.582,-0.035961,482.298,-2.94559,-2.99695,0.135465,0.121009,-0.25461,0.653026,-0.00423101,-0.00367779,0.478752,0.1450691177139527,0.9213460344085562,-0.004222071887381218,0.1286350700372647,-0.003671035213790308,-0.22478122566465264
630,0.5767,471.478,493.57,-0.0568282,482.45,-2.98472,-2.99398,0.135649,0.121178,-0.254964,0.653941,-0.00424143,-0.00368631,0.479426,0.14527982981653098,0.9231048705748743,-0.004232447839333409,0.12882582548248211,-0.003679523900408488,-0.22505560454284057
631,0.5777,471.66,493.869,-0.0292749,482.545,-2.94642,-3.00818,0.135833,0.121349,-0.255317,0.654855,-0.00425068,-0.003695,0.480099,0.14549058069370324,0.9248633919484255,-0.004241658646590762,0.12901887120357847,-0.0036881818877267936,-0.22532911163759461
632,0.5787,471.771,493.947,-0.0441873,482.678,-2.96219,-3.0145,0.136017,0.121519,-0.255671,0.655768,-0.00426071,-0.00370365,0.480772,0.1457013703526049,0.926621594722709,-0.004251646052667701,0.12921082072693024,-0.0036967999476802405,-0.22560329659847345
633,0.5797,471.888,494.011,-0.0432537,482.818,-2.98309,-3.011,0.1362,0.121689,-0.256024,0.656681,-0.00427085,-0.00371217,0.481444,0.1459110528887464,0.92838140346914,-0.004261742889785647,0.12940280288447492,-0.0037052884147837917,-0.22587661039205154
634,0.5807,472.024,494.173,-0.0443598,482.935,-2.97736,-3.02033,0.136384,0.121859,-0.256377,0.657593,-0.00428062,-0.00372085,0.482116,0.1461219199216499,0.9301408895127863,-0.004271471205034683,0.1295948176817605,-0.0037139362153488786,-0.22614982772288716
635,0.5817,472.136,494.232,-0.0502155,483.073,-2.9992,-3.01991,0.136568,0.122029,-0.25673,0.658505,-0.00429082,-0.00372942,0.482787,0.1463328257576575,0.931901980939648,-0.004281627584230785,0.12978686512433657,-0.0037224743503294633,-0.22642294862502566
636,0.5827,472.286,494.434,-0.0409517,483.184,-2.98415,-3.03012,0.136751,0.122199,-0.257083,0.659416,-0.00430047,-0.00373812,0.483458,0.14654262386071193,0.9336627455507898,-0.0042912362201628085,0.12997894521775288,-0.003731141927098669,-0.22669597313250034
637,0.5837,472.384,494.453,-0.056137,483.328,-3.01489,-3.02885,0.136935,0.122368,-0.257435,0.660326,-0.00431083,-0.0037467,0.484129,0.14675360711336638,0.9354231795252146,-0.00430155170952129,0.13016992779706826,-0.003739689877230168,-0.2269681282478473
638,0.5847,472.551,494.707,-0.036063,483.43,-2.98734,-3.04086,0.137118,0.122538,-0.257787,0.661236,-0.0043203,-0.00375542,0.484799,0.14696348222645517,0.9371852162236853,-0.004310980929179142,0.13036207301667457,-0.0037483772292574713,-0.22724018758145226
639,0.5857,472.628,494.662,-0.0635938,483.585,-3.03358,-3.03698,0.137301,0.122706,-0.258139,0.662146,-0.00433092,-0.003764,0.485469,0.14717339575020438,0.9389488571053441,-0.004321555090412765,0.13055198979750426,-0.003756925031510816,-0.2275121511670244
640,0.5867,472.821,494.996,-0.0285968,483.671,-2.98622,-3.05259,0.137484,0.122877,-0.258491,0.663054,-0.00434011,-0.00377277,0.486138,0.1473833476916433,0.9407102222063364,-0.004330705333276064,0.13074533071793737,-0.0037656620449664224,-0.22778401903826118
641,0.5877,472.928,495.063,-0.0451752,483.803,-3.00391,-3.05857,0.137667,0.123046,-0.258843,0.663962,-0.00435023,-0.00378149,0.486807,0.1475933380578034,0.9424731873531513,-0.0043407814555528335,0.13093644282734695,-0.0037743491705174437,-0.228055791228848
642,0.5887,473.039,495.11,-0.0469132,483.944,-3.02845,-3.05435,0.137849,0.123214,-0.259194,0.66487,-0.0043605,-0.00379007,0.487475,0.1478022190529238,0.9442377539992901,-0.004351006823219983,0.13112645611041085,-0.003782896749932374,-0.22832669609954048
643,0.5897,473.177,495.279,-0.046338,484.058,-3.02019,-3.06418,0.138032,0.123383,-0.259545,0.665777,-0.00437031,-0.00379882,0.488143,0.1480122860795572,0.946001977596624,-0.004360774091934472,0.13131763263545482,-0.003791613611449529,-0.22859750589930938
644,0.5907,473.282,495.32,-0.0548677,484.197,-3.04584,-3.06299,0.138215,0.123552,-0.259896,0.666683,-0.00438064,-0.00380746,0.488811,0.14822239155197403,0.9477658543038205,-0.004371058992016508,0.13150884147206177,-0.003800220814724753,-0.22886822066151857
645,0.5917,473.437,495.537,-0.0425223,484.302,-3.02627,-3.07407,0.138397,0.123721,-0.260246,0.667589,-0.0043903,-0.00381623,0.489478,0.1484313870452496,0.9495313298074592,-0.004380676721132959,0.13170008262569288,-0.0038089574484779787,-0.22913806955797544
646,0.5927,473.526,495.531,-0.0615937,484.449,-3.06264,-3.07166,0.138579,0.123889,-0.260597,0.668495,-0.00440082,-0.00382487,0.490145,0.1486404205791665,0.9512984055567058,-0.004391150581321224,0.13189022421102004,-0.00381756450190307,-0.22940859461563567
647,0.5937,473.701,495.81,-0.0367861,484.543,-3.02811,-3.08504,0.138761,0.124058,-0.260947,0.669399,-0.00441027,-0.00383367,0.490811,0.1488494921606487,0.9530631768717801,-0.0044005590404931905,0.13208152982378052,-0.0038263308687633835,-0.22967825441430256
648,0.5947,473.811,495.887,-0.0506849,484.672,-3.04312,-3.09121,0.138944,0.124226,-0.261297,0.670303,-0.00442042,-0.00384245,0.491477,0.1490597508557978,0.9548295442614405,-0.004410664323534541,0.13227173549762017,-0.0038350772351817275,-0.22994781984855484
649,0.5957,473.928,495.954,-0.0492128,484.807,-3.062,-3.08842,0.139126,0.124394,-0.261646,0.671207,-0.00443068,-0.00385109,0.492142,0.14926889876233584,0.9565975091691903,-0.00442087901771715,0.13246197312869734,-0.003843684062932895,-0.23021652116832003
650,0.5967,474.06,496.105,-0.0508761,484.922,-3.05789,-3.09718,0.139307,0.124562,-0.261996,0.67211,-0.00444061,-0.00385989,0.492808,0.1494769352597467,0.9583651146737453,-0.004430765069304177,0.1326522427223813,-0.00385245019994207,-0.23048589824217325
651,0.5977,474.172,496.169,-0.0554245,485.055,-3.07713,-3.09739,0.139489,0.12473,-0.262345,0.673013,-0.00445091,-0.00386859,0.493472,0.1496861591007561,0.9601343170469485,-0.004441019379614164,0.1328425442840424,-0.0038611166459262547,-0.2307544118053445
652,0.5987,474.316,496.353,-0.0481641,485.165,-3.06531,-3.10679,0.139671,0.124898,-0.262694,0.673914,-0.00446074,-0.00387739,0.494136,0.1498954210239698,0.9619011939251121,-0.004450805676293967,0.13303287781905127,-0.0038698826295293642,-0.2310228316736329
653,0.5997,474.417,496.386,-0.0604915,485.303,-3.09164,-3.10642,0.139852,0.125065,-0.263043,0.674816,-0.00447117,-0.00388611,0.4948,0.15010357093217364,0.9636716271473798,-0.004461189200240523,0.13322211011010365,-0.0038785688462809054,-0.23129115787973242
654,0.6007,474.575,496.611,-0.0444193,485.405,-3.06982,-3.1172,0.140034,0.125233,-0.263392,0.675717,-0.00448087,-0.00389494,0.495464,0.15031290883125425,0.9654416925781713,-0.004470845879870344,0.13341250741752808,-0.0038873645596848583,-0.23155939045632512
655,0.6017,474.66,496.592,-0.0666011,485.551,-3.1084,-3.11481,0.140215,0.1254,-0.26374,0.676617,-0.0044915,-0.00390365,0.496127,0.1505211343115902,0.967211386344232,-0.00448142829853293,0.13360180311201741,-0.0038960406629550137,-0.23182676126322765
656,0.6027,474.837,496.88,-0.038811,485.641,-3.07103,-3.12839,0.140396,0.125569,-0.264088,0.677516,-0.00450098,-0.00391252,0.496789,0.15072939748414904,0.9689807045699341,-0.00449086576985902,0.13379339800605594,-0.0039048760658892956,-0.23209403904127723
657,0.6037,474.945,496.952,-0.0533426,485.769,-3.08665,-3.13444,0.140577,0.125736,-0.264436,0.678416,-0.00451122,-0.00392136,0.497452,0.150937698355754,0.9707535848805176,-0.0045010597312004075,0.1339827573145851,-0.0039136815078647524,-0.23236122382284252
658,0.6047,475.059,497.012,-0.0528357,485.903,-3.1065,-3.13153,0.140758,0.125903,-0.264784,0.679315,-0.00452156,-0.00393007,0.498113,0.1511460369332287,0.9725260889745369,-0.004511353137025775,0.13417214824875945,-0.003922357381915376,-0.23262831564028041
659,0.6057,475.191,497.163,-0.0540072,486.015,-3.10179,-3.14036,0.140939,0.12607,-0.265131,0.680212,-0.00453156,-0.00393893,0.498775,0.15135441322339904,0.9742962386697958,-0.004521307973720079,0.13436157081386102,-0.003931182590733218,-0.2328945474208679
660,0.6067,475.301,497.221,-0.0592791,486.147,-3.12188,-3.1404,0.14112,0.126237,-0.265478,0.68111,-0.00454195,-0.0039477,0.499436,0.15156282723309134,0.976069952970648,-0.00453165094359842,0.13455102501517224,-0.003939918075956728,-0.2331606868350541
661,0.6077,475.445,497.406,-0.0513263,486.254,-3.10909,-3.14995,0.141301,0.126404,-0.265826,0.682007,-0.00455184,-0.00395657,0.500096,0.15177127896913367,0.9778432829380499,-0.004541496076886364,0.13474051085797734,-0.003948753089700108,-0.23342750048776717
662,0.6087,475.543,497.432,-0.0644497,486.391,-3.1365,-3.14935,0.141481,0.12657,-0.266172,0.682904,-0.00456236,-0.00396535,0.500756,0.15197861645916233,0.9796182042960644,-0.004551968245263938,0.13492889341809966,-0.0039574983812560305,-0.23369268869239346
663,0.6097,475.702,497.66,-0.0475523,486.49,-3.1134,-3.16035,0.141662,0.126737,-0.266519,0.683799,-0.00457211,-0.00397425,0.501416,0.15218714345986584,0.9813907556873358,-0.004561673816258827,0.13511844237019743,-0.003966363120072258,-0.23395855119960451
664,0.6107,475.783,497.633,-0.0706499,486.636,-3.15338,-3.15764,0.141842,0.126903,-0.266865,0.684695,-0.00458284,-0.00398303,0.502075,0.15239455581224015,0.9831668773881286,-0.00457235481219509,0.13530688767215837,-0.00397510825701286,-0.23422355569246844
665,0.6117,475.962,497.925,-0.0419144,486.723,-3.11441,-3.17153,0.142022,0.12707,-0.267211,0.685589,-0.00459237,-0.00399196,0.502734,0.15260200550219838,0.9849406213219154,-0.004581841192451086,0.1354964997545678,-0.003984002719582325,-0.23448846850963856
666,0.6127,476.068,497.992,-0.0565147,486.849,-3.13042,-3.17737,0.142202,0.127236,-0.267557,0.686483,-0.00460269,-0.00400087,0.503393,0.1528094925364616,0.98671595169181,-0.0045921138548429274,0.13568500781926351,-0.003992877182582344,-0.23475328968282927
667,0.6137,476.18,498.048,-0.056577,486.981,-3.15066,-3.17447,0.142382,0.127402,-0.267903,0.687377,-0.00461311,-0.00400964,0.504051,0.15301701692175262,0.988492869916721,-0.004602485950977786,0.13587354717889544,-0.0040016121267466565,-0.235018019243744
668,0.6147,476.311,498.197,-0.0574639,487.092,-3.14579,-3.18324,0.142562,0.127568,-0.268249,0.68827,-0.00462318,-0.00401857,0.504709,0.153224578664795,0.990269387146443,-0.0046125095534753635,0.13606211783865874,-0.004010506352637555,-0.23528265722407493
669,0.6157,476.419,498.252,-0.0630481,487.223,-3.16607,-3.18327,0.142742,0.127734,-0.268594,0.689163,-0.00463364,-0.0040274,0.505366,0.15343217777231377,0.9920474915146027,-0.00462292125217223,0.13625071980375014,-0.004019300901038525,-0.235546439202325
670,0.6167,476.563,498.435,-0.0549117,487.328,-3.15309,-3.19278,0.142922,0.1279,-0.268939,0.690054,-0.00464361,-0.00403634,0.506023,0.15363981425103534,0.993823196788767,-0.004632845112176764,0.13643935307936617,-0.0040282049286873844,-0.2358101301914891
671,0.6177,476.66,498.458,-0.0681616,487.463,-3.18059,-3.19216,0.143101,0.128066,-0.269284,0.690946,-0.0046542,-0.00404518,0.506679,0.15384633426077565,0.9956024805228718,-0.004643385994532956,0.13662801767070532,-0.0040370092804404845,-0.23607373022295308
672,0.6187,476.817,498.683,-0.0512903,487.56,-3.15746,-3.20313,0.143281,0.128232,-0.269628,0.691836,-0.00466403,-0.00405414,0.507335,0.15405404529437483,0.9973793573234249,-0.0046531703019586645,0.13681671358296588,-0.004045933068858698,-0.2363364756649493
673,0.6197,476.898,498.655,-0.0742291,487.703,-3.19726,-3.20042,0.14346,0.128397,-0.269973,0.692727,-0.00467482,-0.00406299,0.507991,0.15426063945810853,0.9991598154070871,-0.00466391003631017,0.13700430381647588,-0.0040547472233484205,-0.23659989413854543
674,0.6207,477.074,498.942,-0.0459036,487.79,-3.15868,-3.21422,0.143639,0.128563,-0.270317,0.693616,-0.00468443,-0.00407199,0.508646,0.15446727060550747,1.0009378587061284,-0.004673475170174135,0.13719306219742156,-0.0040637106902876585,-0.2368624586112832
675,0.6217,477.18,499.007,-0.0602621,487.914,-3.17463,-3.21993,0.143819,0.128728,-0.270661,0.694506,-0.00469482,-0.00408095,0.509301,0.15467509341770835,1.002719486106968,-0.0046838165590434855,0.13738071453357614,-0.004072634239462358,-0.237124932777376
676,0.6227,477.291,499.062,-0.0603752,488.044,-3.19446,-3.21722,0.143998,0.128893,-0.271005,0.695395,-0.00470531,-0.0040898,0.509956,0.15488179875900632,1.0045006953603193,-0.004694257371045674,0.1375683978349207,-0.00408144815764766,-0.23738731666788393
677,0.6237,477.42,499.207,-0.0613257,488.153,-3.18998,-3.22581,0.144177,0.129058,-0.271348,0.696283,-0.00471546,-0.00409878,0.51061,0.15508854110387205,1.0062814825302837,-0.00470435967306404,0.1377561121065649,-0.004090391466087695,-0.2376488479630856
678,0.6247,477.529,499.262,-0.0666603,488.281,-3.20961,-3.22599,0.144356,0.129223,-0.271692,0.69717,-0.00472598,-0.00410768,0.511263,0.1552953204589298,1.0080618436787296,-0.00471483012812568,0.13794385735361958,-0.004099255022160797,-0.23791105165776516
679,0.6257,477.67,499.439,-0.0590121,488.385,-3.19745,-3.23528,0.144534,0.129388,-0.272035,0.698057,-0.00473604,-0.00411668,0.511916,0.15550098132924584,1.0098437847080879,-0.00472484264657147,0.1381316335811955,-0.004108218088531679,-0.2381724033426703
680,0.6267,477.767,499.464,-0.0715349,488.518,-3.22377,-3.23488,0.144713,0.129552,-0.272378,0.698944,-0.00474668,-0.00412559,0.512569,0.15570783451771186,1.0116273070203348,-0.004735432317908628,0.1383183024755339,-0.004117091444777676,-0.23843366539931965
681,0.6277,477.921,499.68,-0.0557497,488.615,-3.20218,-3.2455,0.144891,0.129717,-0.27272,0.69983,-0.0047566,-0.00413461,0.513222,0.15591356882206586,1.013410398607284,-0.004745305293449964,0.13850614049165255,-0.004126074268100299,-0.23869407655290753
682,0.6287,478.004,499.658,-0.0772172,488.755,-3.23985,-3.24319,0.14507,0.129881,-0.273063,0.700716,-0.00476744,-0.00414352,0.513874,0.15612049587030352,1.0151950707134465,-0.004756093795866834,0.13869287081016068,-0.00413494746524834,-0.2389551597063294
683,0.6297,478.176,499.932,-0.0509289,488.841,-3.20405,-3.2564,0.145248,0.130046,-0.273405,0.7016,-0.00477716,-0.00415258,0.514525,0.15632630363491606,1.016977290781167,-0.004765767519620767,0.13888077063515358,-0.0041439699617523695,-0.23921539253935897
684,0.6307,478.281,499.997,-0.0646539,488.963,-3.21941,-3.2621,0.145426,0.13021,-0.273747,0.702484,-0.00478762,-0.00416161,0.515177,0.15653214803657134,1.018761087027995,-0.004776177615247623,0.13906756239804374,-0.004152962501102309,-0.2394755363879767
685,0.6317,478.393,500.055,-0.0642404,489.09,-3.23789,-3.25978,0.145605,0.130374,-0.274089,0.703368,-0.00479816,-0.00417052,0.515828,0.15673918582039859,1.0205464608478905,-0.004786667219055185,0.1392543847972949,-0.004161835458677321,-0.23973559128261035
686,0.6327,478.52,500.193,-0.0656187,489.199,-3.23441,-3.26806,0.145783,0.130538,-0.274431,0.704252,-0.0048084,-0.00417956,0.516478,0.1569451037216243,1.0223334136360434,-0.004796858151405181,0.13944123783793239,-0.004170837794994164,-0.23999555725367672
687,0.6337,478.629,500.251,-0.0701069,489.324,-3.25246,-3.26859,0.145961,0.130702,-0.274772,0.705134,-0.00481897,-0.00418853,0.517128,0.1571510582794986,1.0241178985490347,-0.0048073773930202846,0.13962812152498127,-0.004179770342516598,-0.24025467458663707
688,0.6347,478.767,500.418,-0.063648,489.428,-3.24219,-3.27742,0.146138,0.130866,-0.275113,0.706016,-0.00482912,-0.00419759,0.517778,0.1573558921440763,1.0259039580720195,-0.004817478546876308,0.13981503586346822,-0.004188792432927135,-0.24051370357565038
689,0.6357,478.867,500.451,-0.0745616,489.556,-3.26599,-3.27753,0.146316,0.13103,-0.275454,0.706898,-0.0048398,-0.00420657,0.518427,0.15756191982879786,1.0276915935944175,-0.0048281070394491366,0.1400019808584203,-0.004197734777419915,-0.24077264425083678
690,0.6367,479.016,500.652,-0.0609429,489.654,-3.24757,-3.28746,0.146494,0.131194,-0.275795,0.707779,-0.00484984,-0.00421564,0.519076,0.1577679841897115,1.029478777027081,-0.0048380985150972,0.14018895651486574,-0.00420676666300579,-0.24103149664230628
691,0.6377,479.102,500.644,-0.0796184,489.789,-3.28112,-3.28595,0.146671,0.131357,-0.276136,0.70866,-0.00486068,-0.00422462,0.519724,0.15797292725983958,1.0312675356621233,-0.004848886011640907,0.14037482246244104,-0.004215708846090682,-0.24129026078015825
692,0.6387,479.267,500.894,-0.0569817,489.878,-3.25054,-3.29809,0.146849,0.131521,-0.276476,0.70954,-0.00487055,-0.00423373,0.520372,0.1581790647865875,1.0330558378310553,-0.0048587081046639335,0.14056185926992382,-0.00422478039966212,-0.24154817824303976
693,0.6397,479.334,500.825,-0.0862861,490.024,-3.29902,-3.29373,0.147026,0.131683,-0.276816,0.71042,-0.00488164,-0.0042427,0.52102,0.158384080624421,1.03484571439853,-0.0048697441603959835,0.14074664525838654,-0.004233712463321604,-0.24180600802888974
694,0.6407,479.521,501.148,-0.0508496,490.099,-3.25003,-3.30948,0.147203,0.131847,-0.277156,0.711298,-0.00489125,-0.00425185,0.521667,0.1585891327532698,1.0366330934803667,-0.004879307316203563,0.14093374304980832,-0.0042428236831686394,-0.24206375016751347
695,0.6417,479.621,501.198,-0.0668143,490.221,-3.26851,-3.31454,0.14738,0.13201,-0.277496,0.712177,-0.00490182,-0.00426095,0.522314,0.15879422117955722,1.0384240809932317,-0.004889825686335558,0.14111973040748338,-0.0042518850322439405,-0.24232140468870578
696,0.6427,479.726,501.234,-0.0694881,490.349,-3.29164,-3.31119,0.147557,0.132173,-0.277835,0.713055,-0.00491251,-0.00426993,0.522961,0.1589993459097092,1.0402146032605954,-0.004900463357240481,0.14130574808356844,-0.004260826810167706,-0.24257821420084458
697,0.6437,479.856,501.38,-0.0691001,490.454,-3.28528,-3.32007,0.147734,0.132336,-0.278175,0.713932,-0.00492279,-0.00427906,0.523607,0.15920450695015176,1.0420046562911773,-0.004910692927897142,0.14149179608300622,-0.004269917867318229,-0.24283569383399828
698,0.6447,479.958,501.418,-0.076511,490.58,-3.30773,-3.31967,0.147911,0.132498,-0.278514,0.714809,-0.00493351,-0.00428809,0.524252,0.15940970430731216,1.043796279886859,-0.0049213602280920865,0.14167673273343584,-0.004278909269363584,-0.24309232903166478
699,0.6457,480.101,501.603,-0.0667775,490.678,-3.29242,-3.32949,0.148088,0.132661,-0.278853,0.715685,-0.00494367,-0.00429723,0.524898,0.1596149379876195,1.0455874298371777,-0.004931470175713493,0.14186284120830006,-0.004288010118541963,-0.24334887724474408
700,0.6467,480.192,501.608,-0.0817798,490.809,-3.32236,-3.32831,0.148264,0.132823,-0.279191,0.716561,-0.00495453,-0.00430628,0.525543,0.15981904817787518,1.0473801495222963,-0.004942276561268666,0.1420478379729091,-0.004297021271274848,-0.2436045821076791
701,0.6477,480.349,501.835,-0.0632968,490.9,-3.2965,-3.33974,0.148441,0.132986,-0.27953,0.717436,-0.00496454,-0.00431544,0.526187,0.16002435431846007,1.0491723911444892,-0.00495223703922798,0.1422340069428576,-0.0043061418687875275,-0.24386095669639662
702,0.6487,480.424,501.788,-0.0878714,491.039,-3.33896,-3.33636,0.148617,0.133148,-0.279868,0.718311,-0.0049756,-0.00432448,0.526831,0.1602285365723315,1.0509662016643944,-0.004963242206627694,0.1424190638411864,-0.004315142900580327,-0.24411648850572465
703,0.6497,480.6,502.079,-0.0581737,491.118,-3.29759,-3.3507,0.148793,0.133311,-0.280206,0.719185,-0.00498539,-0.00433368,0.527475,0.16043275476544205,1.0527595296948413,-0.0049729835688023805,0.14260529332588323,-0.004324303159128462,-0.2443719339598961
704,0.6507,480.701,502.133,-0.0725584,491.238,-3.31435,-3.3559,0.14897,0.133473,-0.280544,0.720059,-0.00499602,-0.00434284,0.528118,0.16063816954170695,1.054554425779127,-0.0049835606497697915,0.1427904103774782,-0.004333423506740264,-0.24462729308809383
705,0.6517,480.809,502.179,-0.0735686,491.362,-3.33433,-3.35335,0.149146,0.133634,-0.280881,0.720932,-0.00500674,-0.00435189,0.528761,0.16084245983656476,1.0563488349384662,-0.004994227168827026,0.14297441444547898,-0.004342434248483795,-0.2448818108016797
706,0.6527,480.935,502.314,-0.074277,491.467,-3.33013,-3.36164,0.149322,0.133796,-0.281219,0.721805,-0.00501711,-0.00436107,0.529404,0.16104678608967893,1.058144811300986,-0.005004545325191456,0.14315959129953937,-0.004351574342984277,-0.2451369976206268
707,0.6537,481.041,502.363,-0.0797082,491.589,-3.34921,-3.36198,0.149498,0.133958,-0.281556,0.722677,-0.00502785,-0.00437017,0.530046,0.1612511483073784,1.0599402962941258,-0.005015231518989749,0.14334479815468026,-0.004360634702433086,-0.2453913435927252
708,0.6547,481.178,502.529,-0.072489,491.688,-3.33785,-3.37091,0.149673,0.13412,-0.281893,0.723548,-0.00503814,-0.00437936,0.530688,0.16145438504102771,1.0617352858966904,-0.005025469859581078,0.14353003501576178,-0.004369784586156444,-0.24564560386467227
709,0.6557,481.274,502.552,-0.084218,491.814,-3.36272,-3.37077,0.149849,0.134281,-0.28223,0.72442,-0.00504899,-0.00438848,0.531329,0.1616588190024557,1.0635339031491444,-0.005036265274667828,0.14371415817291577,-0.004378864692315632,-0.24589977846534417
710,0.6567,481.422,502.752,-0.0699321,491.907,-3.34313,-3.38087,0.150025,0.134443,-0.282566,0.72529,-0.00505916,-0.00439769,0.53197,0.16186328894742763,1.0653299588158127,-0.005046384004396165,0.14389945487516753,-0.004388034320745637,-0.24615311357709768
711,0.6577,481.506,502.735,-0.0892454,492.04,-3.37771,-3.37908,0.1502,0.134603,-0.282903,0.72616,-0.00507017,-0.0044068,0.532611,0.16206663281506284,1.067127577730826,-0.005057338383404386,0.1440824934306415,-0.00439710430443907,-0.24640711717581187
712,0.6587,481.669,502.983,-0.0662043,492.124,-3.34612,-3.3914,0.150376,0.134765,-0.283239,0.727029,-0.00508018,-0.00441604,0.533251,0.16227117454158213,1.0689246923290745,-0.005067297709600571,0.1442678498080383,-0.004406303632694342,-0.24666028185039368
713,0.6597,481.734,502.906,-0.0957455,492.267,-3.39528,-3.38678,0.150551,0.134925,-0.283575,0.727899,-0.00509143,-0.00442515,0.533891,0.1624745897954425,1.0707254400230655,-0.005078490639541022,0.14445094731141728,-0.00441537344995524,-0.2469133614759339
714,0.6607,481.919,503.225,-0.0605013,492.338,-3.3459,-3.40263,0.150726,0.135087,-0.283911,0.728766,-0.00510118,-0.00443443,0.53453,0.1626780406500874,1.072521537475302,-0.005088191076967563,0.1446363633831782,-0.004424612432420649,-0.24716635608100423
715,0.6617,482.017,503.269,-0.0762958,492.457,-3.36465,-3.4074,0.150901,0.135248,-0.284246,0.729634,-0.00511191,-0.00444366,0.53517,0.1628815271117472,1.0743212671395082,-0.005098866423403958,0.1448206646735386,-0.004433801550840055,-0.24741851311305596
716,0.6627,482.12,503.302,-0.0790286,492.581,-3.38714,-3.40431,0.151076,0.135408,-0.284582,0.730502,-0.00512274,-0.00445278,0.535808,0.16308504918665379,1.076122559647239,-0.005109641144335431,0.1450038506343725,-0.00444288107316726,-0.24767133801568775
717,0.6637,482.247,503.44,-0.0788841,492.683,-3.38156,-3.41286,0.151251,0.135569,-0.284917,0.731369,-0.00513318,-0.00446204,0.536447,0.1632886068810404,1.0779233384312539,-0.005120027745463718,0.1451882110949434,-0.004452099889405314,-0.24792332590712407
718,0.6647,482.349,503.477,-0.0857597,492.805,-3.40277,-3.41274,0.151426,0.135729,-0.285252,0.732235,-0.00514403,-0.0044712,0.537085,0.16349220020114053,1.0797235994428434,-0.00513082213460303,0.14537145586790956,-0.004461219066404398,-0.24817522939675485
719,0.6657,482.488,503.65,-0.0770355,492.9,-3.38905,-3.42212,0.151601,0.13589,-0.285587,0.733101,-0.00515436,-0.00448047,0.537722,0.16369582915318937,1.0815254201557227,-0.0051410990801298295,0.14555587551768778,-0.004470447668128985,-0.2484270485128499
720,0.6667,482.58,503.659,-0.0906036,493.026,-3.41669,-3.42138,0.151776,0.13605,-0.285921,0.733967,-0.00516533,-0.00448965,0.538359,0.16389949374342283,1.0833288019211773,-0.00515201262241205,0.14573917912166778,-0.004479586587471718,-0.24867803196207738
721,0.6677,482.731,503.869,-0.0742481,493.115,-3.39382,-3.43214,0.15195,0.136211,-0.286255,0.734831,-0.00517554,-0.00449894,0.538996,0.16410202987546674,1.0851295758283426,-0.005162169968509822,0.1459236579796559,-0.004488834929153751,-0.2489289315968306
722,0.6687,482.809,503.833,-0.0960003,493.249,-3.43217,-3.42953,0.152125,0.13637,-0.286589,0.735696,-0.00518669,-0.00450812,0.539633,0.16430576555704723,1.086933993209442,-0.005173262348474483,0.14610587432709043,-0.004497973679702172,-0.24917974744509896
723,0.6697,482.976,504.096,-0.0701886,493.328,-3.39615,-3.44275,0.152299,0.136531,-0.286923,0.736559,-0.00519671,-0.00451744,0.540269,0.16450837238653704,1.0887357946110594,-0.0051832304624455094,0.14629041222775951,-0.004507251715351712,-0.24943047953486241
724,0.6707,483.034,503.996,-0.102959,493.472,-3.4504,-3.43703,0.152473,0.13669,-0.287257,0.737423,-0.00520812,-0.00452662,0.540904,0.16471101447268266,1.0905412421786393,-0.00519458125702954,0.1464726868937556,-0.004516390296834816,-0.2496811278940917
725,0.6717,483.163,504.136,-0.101064,493.572,-3.44418,-3.4463,0.152648,0.13685,-0.287591,0.738286,-0.00521868,-0.00453593,0.54154,0.16491485673589312,1.092346157979787,-0.005205086346784404,0.14665613719929183,-0.004525658206098959,-0.2499316925507481
726,0.6727,483.308,504.315,-0.0825414,493.667,-3.42997,-3.45206,0.152822,0.13701,-0.287924,0.739148,-0.00522908,-0.00454519,0.542174,0.16511756955646906,1.0941505379440026,-0.005215432160088129,0.14683961685922498,-0.004534876255824383,-0.2501814237145822
727,0.6737,483.408,504.362,-0.0948368,493.784,-3.44672,-3.45519,0.152996,0.137169,-0.288257,0.740009,-0.00523994,-0.00455446,0.542809,0.16532031765214472,1.0959543779988805,-0.005226235461832873,0.14702197885570012,-0.004544104174750041,-0.2504310717317835
728,0.6747,483.551,504.536,-0.0801564,493.879,-3.43302,-3.46264,0.153169,0.137329,-0.28859,0.74087,-0.00525034,-0.00456375,0.543443,0.16552193550654004,1.09775977182885,-0.005236581055186873,0.14720551705498153,-0.004553351917066406,-0.25068063663003504
729,0.6757,483.641,504.547,-0.0964988,494.001,-3.45886,-3.46349,0.153343,0.137488,-0.288923,0.741731,-0.00526135,-0.00457302,0.544077,0.16572475396801267,1.0995667207722875,-0.005247533340136945,0.14738793723421306,-0.0045625796647233985,-0.25093011843701096
730,0.6767,483.792,504.75,-0.0784766,494.09,-3.43757,-3.47303,0.153517,0.137647,-0.289255,0.742591,-0.00527165,-0.00458234,0.54471,0.16592760772296788,1.1013731247945464,-0.005257779237777149,0.1475703864205593,-0.004571857098248033,-0.2511787683595188
731,0.6777,483.87,504.72,-0.1006,494.22,-3.47368,-3.47144,0.153691,0.137806,-0.289587,0.743451,-0.00528283,-0.0045916,0.545343,0.16613049677754765,1.1031810829924642,-0.00526890039363781,0.14775286461863257,-0.004581074720173661,-0.2514273357439545
732,0.6787,484.034,504.97,-0.0754253,494.3,-3.4404,-3.48368,0.153864,0.137966,-0.289919,0.74431,-0.00529295,-0.00460096,0.545976,0.1663322548050563,1.1049884917136632,-0.005278967021428604,0.1479365197689917,-0.004590391797710258,-0.251675820617716
733,0.6797,484.095,504.882,-0.106634,494.44,-3.49109,-3.47893,0.154038,0.138124,-0.290251,0.745169,-0.00530437,-0.0046102,0.546608,0.16653521427435414,1.1067974536659704,-0.005290326670761569,0.1481179080684134,-0.004599589339997379,-0.2519242230081924
734,0.6807,484.28,505.202,-0.0702869,494.507,-3.44028,-3.4949,0.154211,0.138283,-0.290583,0.746027,-0.00531424,-0.00461961,0.54724,0.16673704232404662,1.1086058615772694,-0.005300144406786722,0.14830047332935004,-0.00460895601379141,-0.2521725429427637
735,0.6817,484.376,505.237,-0.0863837,494.623,-3.45959,-3.49945,0.154384,0.138442,-0.290915,0.746884,-0.00532513,-0.00462897,0.547871,0.16693890529301192,1.1104137113536225,-0.005310976629232522,0.14848306762047092,-0.004618272830360315,-0.25242078044880056
736,0.6827,484.478,505.266,-0.0892815,494.744,-3.48178,-3.4965,0.154557,0.1386,-0.291246,0.747742,-0.0053361,-0.00463822,0.548503,0.16714080318729185,1.1122252233454777,-0.005321888307968314,0.14866454228127557,-0.0046274800687531314,-0.2526681882222266
737,0.6837,484.602,505.397,-0.0893698,494.843,-3.47678,-3.50482,0.15473,0.138759,-0.291577,0.748598,-0.00534669,-0.0046476,0.549133,0.16734273601292915,1.1140340622092446,-0.005332421893395667,0.148847194463962,-0.004636816619201567,-0.25291551411723134
738,0.6847,484.703,505.432,-0.0958767,494.961,-3.49711,-3.50489,0.154903,0.138917,-0.291908,0.749455,-0.00535768,-0.0046569,0.549764,0.1675447037759672,1.1158465659474772,-0.005343353230011227,0.14902872666135325,-0.004646073453762667,-0.25316275816091194
739,0.6857,484.839,505.595,-0.0879186,495.054,-3.48455,-3.51395,0.155076,0.139075,-0.292239,0.75031,-0.00536817,-0.00466629,0.550394,0.1677467064824507,1.1176563883501873,-0.005353787123509979,0.14921028754309762,-0.004655419783251902,-0.2534099203803568
740,0.6867,484.931,505.606,-0.100427,495.175,-3.51051,-3.51353,0.155249,0.139233,-0.292569,0.751165,-0.00537926,-0.0046756,0.551023,0.16794874413842553,1.1194677588127533,-0.005364817688846224,0.1493918771137277,-0.004664686398157536,-0.25365625445927276
741,0.6877,485.078,505.802,-0.0856857,495.263,-3.48986,-3.52379,0.155422,0.139391,-0.292899,0.75202,-0.00538964,-0.00468501,0.551652,0.16815081674993837,1.121280678659332,-0.005375141948455564,0.14957349537777676,-0.00467405245939112,-0.2539025072613541
742,0.6887,485.158,505.774,-0.105318,495.39,-3.52512,-3.52176,0.155594,0.139549,-0.293229,0.752874,-0.00540089,-0.00469433,0.552281,0.16835175597069707,1.1230930261211252,-0.0053863314151677555,0.1497551423397787,-0.00468332885399414,-0.25414867881341774
743,0.6897,485.319,506.015,-0.0824574,495.469,-3.49315,-3.53413,0.155767,0.139707,-0.293559,0.753727,-0.00541111,-0.00470377,0.55291,0.16855389830928802,1.1249047970828667,-0.005396496314918009,0.14993681800426795,-0.004692724599021814,-0.25439476914227177
744,0.6907,485.382,505.932,-0.111429,495.606,-3.54197,-3.52944,0.155939,0.139864,-0.293889,0.754581,-0.00542258,-0.00471308,0.553538,0.16875490686603745,1.1267202408637336,-0.005407904351680037,0.15011737225783262,-0.004701990866621264,-0.25464077827471543
745,0.6917,485.562,506.238,-0.0775963,495.673,-3.4937,-3.54509,0.156112,0.140023,-0.294219,0.755433,-0.00543257,-0.00472255,0.554166,0.16895711895576682,1.12853297862558,-0.005417840277085584,0.15030025545885084,-0.004711416294138293,-0.2548867062375392
746,0.6927,485.658,506.273,-0.0929804,495.787,-3.51251,-3.54958,0.156284,0.14018,-0.294548,0.756285,-0.00544353,-0.00473198,0.554793,0.16915819687243228,1.1303472614981231,-0.005428740837820967,0.15048086677657513,-0.004720801821229803,-0.25513180818970504
747,0.6937,485.76,506.304,-0.0952701,495.905,-3.53342,-3.54698,0.156456,0.140337,-0.294877,0.757137,-0.00545456,-0.0047413,0.55542,0.1693593093774739,1.1321630907983584,-0.005439710898309524,0.15066150645250254,-0.0047300777801307925,-0.25537682951659224
748,0.6947,485.883,506.429,-0.0958054,496.003,-3.52939,-3.55501,0.156628,0.140494,-0.295206,0.757988,-0.00546524,-0.00475074,0.556047,0.1695604564768416,1.1339783338650027,-0.0054503327454763495,0.15084217449108572,-0.004739473083850587,-0.2556217702447221
749,0.6957,485.985,506.467,-0.101501,496.118,-3.54823,-3.55541,0.1568,0.140651,-0.295535,0.758838,-0.00547628,-0.00476012,0.556673,0.1697616381764857,1.135792986566929,-0.005461312513194372,0.15102287089677735,-0.0047488085838095495,-0.2558666304006073
750,0.6967,486.118,506.62,-0.0946515,496.211,-3.53743,-3.56406,0.156972,0.140809,-0.295863,0.759688,-0.00548688,-0.00476957,0.557299,0.16996285448235837,1.1376091823793808,-0.005471854567408729,0.15120474687820318,-0.00475821366312934,-0.2561106661217898
751,0.6977,486.212,506.637,-0.105727,496.329,-3.5611,-3.56412,0.157144,0.140965,-0.296191,0.760538,-0.00549801,-0.00477896,0.557925,0.17016410540041216,1.1394269226145601,-0.005482923604068102,0.15138434882730412,-0.004767558939626881,-0.25635462181238133
752,0.6987,486.354,506.819,-0.0928844,496.417,-3.54329,-3.57376,0.157316,0.141122,-0.29652,0.761387,-0.00550851,-0.00478843,0.55855,0.17036539093660097,1.1412440673406463,-0.005493365978547771,0.15156513036104902,-0.004776983746217267,-0.25659924089975883
753,0.6997,486.438,506.803,-0.110156,496.54,-3.57497,-3.57245,0.157487,0.141279,-0.296847,0.762236,-0.00551978,-0.00479782,0.559175,0.17056554053075357,1.1430627554776902,-0.0055045740051558045,0.151745940279723,-0.0047863288464645715,-0.25684229320676655
754,0.7007,486.592,507.023,-0.0903302,496.62,-3.54745,-3.5839,0.157659,0.141436,-0.297175,0.763083,-0.00553015,-0.00480732,0.559799,0.1707668951197232,1.1448786985749169,-0.005514886869251057,0.15192677858778247,-0.004795783331431602,-0.2570860089630258
755,0.7017,486.661,506.96,-0.11556,496.752,-3.59068,-3.58033,0.15783,0.141591,-0.297503,0.763932,-0.00554161,-0.00481671,0.560423,0.1709671133769617,1.146700473824172,-0.005526283603344173,0.15210534107669904,-0.004805128255151669,-0.2573296447936254
756,0.7027,486.832,507.235,-0.0864609,496.822,-3.54934,-3.59456,0.158001,0.141749,-0.29783,0.764778,-0.00555178,-0.00482624,0.561047,0.1711673658744497,1.1485173508556477,-0.005536397349611422,0.15228738810192555,-0.0048146124170872495,-0.25757245829760633
757,0.7037,486.929,507.274,-0.100582,496.933,-3.56654,-3.59929,0.158173,0.141905,-0.298157,0.765625,-0.0055628,-0.00483573,0.56167,0.17136882398628117,1.1503379159523002,-0.0055473562781288566,0.15246715895623142,-0.004824056681602351,-0.257815192414552
758,0.7047,487.034,507.313,-0.101458,497.047,-3.58478,-3.59735,0.158344,0.142061,-0.298484,0.766471,-0.00557387,-0.00484513,0.562293,0.17156914518215682,1.152157871561871,-0.005558364807962457,0.15264695785697824,-0.0048334112915028316,-0.2580578471704176
759,0.7057,487.154,507.428,-0.102883,497.145,-3.58247,-3.60493,0.158515,0.142217,-0.298811,0.767317,-0.00558466,-0.00485464,0.562916,0.17176950063588614,1.153979367505357,-0.005569094775317973,0.1528267848085414,-0.004842875280760106,-0.25830042259115005
760,0.7067,487.258,507.475,-0.107045,497.256,-3.59865,-3.60593,0.158686,0.142373,-0.299137,0.768162,-0.00559573,-0.00486409,0.563538,0.17196989035332733,1.1558002492851047,-0.005580103064507735,0.15300663981529738,-0.004852279471153742,-0.25854217724523565
761,0.7077,487.386,507.613,-0.102098,497.349,-3.5909,-3.6139,0.158857,0.142529,-0.299464,0.769006,-0.00560645,-0.0048736,0.56416,0.17217031434034036,1.157620512738625,-0.0055907631886645826,0.15318652288162293,-0.00486174328097555,-0.25878459431592526
762,0.7087,487.484,507.642,-0.110782,497.463,-3.61076,-3.61476,0.159028,0.142684,-0.29979,0.769851,-0.0056176,-0.00488307,0.564781,0.17237077260278544,1.1594444725863955,-0.005601850789841545,0.15336528064603838,-0.004871167195644399,-0.25902619115575365
763,0.7097,487.62,507.802,-0.100957,497.552,-3.59756,-3.62342,0.159199,0.14284,-0.300116,0.770694,-0.00562825,-0.0048926,0.565402,0.17257126514652454,1.1612656517959712,-0.005612441073737262,0.1535452196646978,-0.00488065072823185,-0.2592677092478489
764,0.7107,487.71,507.806,-0.114561,497.67,-3.62358,-3.62328,0.159369,0.142995,-0.300442,0.771537,-0.00563951,-0.00490207,0.566023,0.1727706192062144,1.163088366906912,-0.005623637814612947,0.1537240330314238,-0.004890074463848038,-0.25950914861787855
765,0.7117,487.855,507.996,-0.0992945,497.753,-3.60294,-3.6333,0.15954,0.143151,-0.300767,0.77238,-0.00565006,-0.00491162,0.566644,0.1729711801295688,1.1649126192145283,-0.005634128429895968,0.15390402801982073,-0.004899577718258774,-0.25974976904164093
766,0.7127,487.934,507.964,-0.119014,497.877,-3.63777,-3.63146,0.15971,0.143306,-0.301093,0.773222,-0.00566147,-0.00492109,0.567264,0.173170602180585,1.1667362432778976,-0.005645474079763457,0.15408289700615208,-0.004909001274637226,-0.2599910512857907
767,0.7137,488.092,508.196,-0.0967029,497.953,-3.60665,-3.64358,0.159881,0.143462,-0.301418,0.774063,-0.00567187,-0.00493067,0.567883,0.17337123150687628,1.168559234919032,-0.0056558153130585875,0.15426294798169593,-0.004918534200742175,-0.26023151511663367
768,0.7147,488.155,508.113,-0.12462,498.085,-3.6539,-3.6392,0.160051,0.143616,-0.301743,0.774905,-0.00568348,-0.00494014,0.568503,0.1735707215724076,1.1703859307258466,-0.005667359582028131,0.1544407181636378,-0.004927957577603559,-0.26047190080942983
769,0.7157,488.331,508.403,-0.0926889,498.15,-3.60806,-3.65436,0.160221,0.143772,-0.302068,0.775745,-0.00569367,-0.00494975,0.569121,0.17377024555413279,1.1722098208342575,-0.005677491780010424,0.1546208249636365,-0.004937520173982857,-0.26071220838956977
770,0.7167,488.425,508.434,-0.107643,498.26,-3.62655,-3.6588,0.160391,0.143926,-0.302393,0.776586,-0.00570479,-0.00495932,0.56974,0.17396980345781832,1.174037417690338,-0.005688548584825814,0.15479865026287754,-0.004947042876348617,-0.26095243788243605
771,0.7177,488.528,508.466,-0.109211,498.373,-3.64581,-3.65665,0.160562,0.144081,-0.302717,0.777425,-0.00571597,-0.0049688,0.570358,0.1741705694592135,1.1758622004731158,-0.005699664924712189,0.15497765792640372,-0.004956475933669324,-0.26119185050562277
772,0.7187,488.647,508.579,-0.110461,498.468,-3.64319,-3.66428,0.160732,0.144236,-0.303041,0.778265,-0.00572684,-0.00497839,0.570976,0.17437019542374776,1.1776906925806832,-0.005710472910612996,0.15515669333826843,-0.0049660183553091874,-0.26143118557168454
773,0.7197,488.75,508.62,-0.115039,498.578,-3.65996,-3.66517,0.160902,0.14439,-0.303365,0.779103,-0.00573801,-0.00498791,0.571594,0.17456985532758074,1.1795163622298097,-0.005721579062602622,0.15533460116759357,-0.004975491033724411,-0.26167044310574583
774,0.7207,488.878,508.757,-0.109795,498.669,-3.65169,-3.67324,0.161071,0.144545,-0.303689,0.779941,-0.00574881,-0.00499751,0.572211,0.1747683744075208,1.1813435624313144,-0.005732317211562643,0.15551369190994868,-0.004985043223159957,-0.26190962313292276
775,0.7217,488.974,508.781,-0.118844,498.781,-3.6721,-3.67399,0.161241,0.144699,-0.304013,0.780779,-0.00576006,-0.00500705,0.572828,0.1749681020075351,1.1831722944683376,-0.005743502660075728,0.15569165472128743,-0.00499453562056873,-0.2621487256783237
776,0.7227,489.11,508.94,-0.108749,498.868,-3.65837,-3.68276,0.161411,0.144853,-0.304336,0.781617,-0.00577079,-0.00501667,0.573444,0.1751678635641276,1.185002559625095,-0.005754170975056594,0.15586964494100974,-0.005004107527095125,-0.2623870131544306
777,0.7237,489.198,508.939,-0.122641,498.984,-3.68489,-3.68252,0.16158,0.145007,-0.304659,0.782454,-0.00578214,-0.00502621,0.57406,0.17536648371600005,1.186832172353614,-0.005765455601175584,0.15604766257333647,-0.0050135997426313805,-0.2626252236761114
778,0.7247,489.343,509.128,-0.107216,499.066,-3.66381,-3.69264,0.16175,0.145161,-0.304983,0.78329,-0.00579277,-0.00503585,0.574676,0.1755663130032401,1.1886611284468276,-0.00577602425821,0.15622570762248977,-0.005023191365298163,-0.26286409440449265
779,0.7257,489.421,509.091,-0.127062,499.188,-3.69897,-3.69072,0.161919,0.145315,-0.305305,0.784126,-0.00580428,-0.0050454,0.575292,0.1757650004987581,1.1904916141866386,-0.005787467710313687,0.15640378009269185,-0.00503269334844858,-0.26310141395559616
780,0.7267,489.578,509.32,-0.10482,499.261,-3.66769,-3.7029,0.162088,0.145469,-0.305628,0.784961,-0.00581476,-0.00505506,0.575906,0.17596372157530027,1.1923214385298309,-0.005797887003054836,0.1565818799881662,-0.005042304686208032,-0.2633393937630806
781,0.7277,489.641,509.235,-0.132551,499.392,-3.71488,-3.69851,0.162258,0.145622,-0.305951,0.785796,-0.00582646,-0.0050646,0.576521,0.1761636524016068,1.1941527914144272,-0.005809519099729044,0.15675885055370742,-0.00505179653734511,-0.2635772967154999
782,0.7287,489.815,509.52,-0.101115,499.455,-3.66943,-3.71363,0.162427,0.145776,-0.306273,0.78663,-0.00583674,-0.00507429,0.577135,0.17636244085601405,1.1959834781327165,-0.005819739325340634,0.15693700513424313,-0.005061437538725899,-0.2638143866524292
783,0.7297,489.909,509.548,-0.116006,499.563,-3.68799,-3.71802,0.162596,0.14593,-0.306595,0.787464,-0.00584796,-0.00508394,0.577749,0.17656126290850893,1.197815692280578,-0.005830893965287798,0.15711518715269723,-0.005071038649528292,-0.2640514002586887
784,0.7307,490.011,509.579,-0.117331,499.674,-3.70669,-3.71604,0.162765,0.146083,-0.306917,0.788297,-0.00585922,-0.0050935,0.578363,0.17676011856477003,1.1996472354840848,-0.005842088246397759,0.15729223932047698,-0.0050805501249338025,-0.2642883375588527
785,0.7317,490.129,509.686,-0.118879,499.768,-3.70466,-3.72353,0.162934,0.146236,-0.307239,0.78913,-0.00587018,-0.00510317,0.578976,0.17695900783047702,1.2014803049987002,-0.005852984157400876,0.1574693185793108,-0.005090170949497375,-0.26452519857748824
786,0.7327,490.232,509.727,-0.123039,499.875,-3.72063,-3.72461,0.163103,0.146389,-0.30756,0.789963,-0.00588143,-0.00511277,0.579589,0.17715793071131047,1.2033149020963716,-0.005864168248418511,0.15764642493334402,-0.005099722038010901,-0.2647612481007695
787,0.7337,490.358,509.857,-0.11843,499.965,-3.71336,-3.73247,0.163271,0.146542,-0.307882,0.790795,-0.00589233,-0.00512245,0.580202,0.17735570985665294,1.2051488229001799,-0.005875004269928152,0.15782355838672246,-0.0051093526260894695,-0.26499795686672445
788,0.7347,490.455,509.884,-0.1267,500.074,-3.73251,-3.7335,0.16344,0.146695,-0.308203,0.791626,-0.00590365,-0.00513207,0.580814,0.1775546997857942,1.2069820631778483,-0.005886257701185338,0.1580007189435928,-0.005118923428081623,-0.265233854658949
789,0.7357,490.588,510.033,-0.117689,500.16,-3.72039,-3.74195,0.163609,0.146848,-0.308524,0.792457,-0.00591449,-0.00514176,0.581426,0.17775372334707518,1.2088168275113444,-0.005897033835745025,0.15817790660810171,-0.005128563779006057,-0.26546967674013455
790,0.7367,490.678,510.037,-0.130272,500.273,-3.7449,-3.74214,0.163777,0.147,-0.308845,0.793288,-0.00592591,-0.00515139,0.582037,0.1779516025939889,1.2106531171676864,-0.0059083864267952535,0.15835396302985538,-0.005138144344806306,-0.26570542313458034
791,0.7377,490.819,510.212,-0.116575,500.354,-3.72637,-3.75175,0.163946,0.147153,-0.309166,0.794118,-0.00593666,-0.0051611,0.582648,0.17815069323751276,1.212488720925116,-0.005919072854201457,0.1585312047448444,-0.005147804406525069,-0.26594109386657805
792,0.7387,490.9,510.186,-0.134334,500.472,-3.75838,-3.75049,0.164114,0.147305,-0.309486,0.794948,-0.0059482,-0.00517073,0.583259,0.17834863918097033,1.2143258488661126,-0.005930544481909328,0.15870731487199619,-0.005157384787038977,-0.2661759551367333
793,0.7397,491.052,510.396,-0.114767,500.547,-3.73104,-3.76188,0.164282,0.147458,-0.309806,0.795776,-0.00595884,-0.00518047,0.583869,0.17854661838214003,1.2161600699317026,-0.005941121324647192,0.15888461065395298,-0.00516707450692222,-0.2664107412633059
794,0.7407,491.12,510.327,-0.139265,500.672,-3.77338,-3.75851,0.164451,0.14761,-0.310126,0.796605,-0.00597055,-0.0051901,0.58448,0.17874580959182973,1.2179980283581835,-0.005952761685962038,0.1590607745028858,-0.0051766547018660125,-0.26664545227033754
795,0.7417,491.286,510.585,-0.111902,500.738,-3.73396,-3.77241,0.164618,0.147763,-0.310446,0.797433,-0.00598101,-0.00519986,0.585089,0.17894267657996754,1.2198352912475339,-0.005963159365694803,0.15923812436830342,-0.00518636413033402,-0.26688008818186304
796,0.7427,491.337,510.46,-0.145451,500.872,-3.79043,-3.76609,0.164787,0.147914,-0.310766,0.798261,-0.00599296,-0.00520948,0.585699,0.17914193472914874,1.2216740760205291,-0.00597503803496513,0.1594131825416425,-0.0051959341914790125,-0.26711464902190885
797,0.7437,491.462,510.589,-0.142336,500.96,-3.78248,-3.77555,0.164955,0.148066,-0.311085,0.799088,-0.00600399,-0.00521924,0.586308,0.17934004721516628,1.2235121604245394,-0.005986002069828911,0.15958942673960852,-0.005205643431780094,-0.2673484021632625
798,0.7447,491.6,510.741,-0.126491,501.046,-3.77036,-3.78114,0.165122,0.148218,-0.311405,0.799915,-0.00601491,-0.00522894,0.586916,0.17953701344927397,1.2253517655530848,-0.005996856643420201,0.15976569772872873,-0.005215292890238921,-0.26758281316680943
799,0.7457,491.699,510.783,-0.136188,501.149,-3.78409,-3.78468,0.16529,0.14837,-0.311724,0.800741,-0.00602623,-0.00523866,0.587525,0.17973519231409196,1.2271906654725453,-0.0060081086953163165,0.15994199551307564,-0.0052249621505993105,-0.2678164169876188
800,0.7467,491.831,510.922,-0.125266,501.236,-3.77453,-3.79149,0.165458,0.148522,-0.312043,0.801567,-0.00603718,-0.00524839,0.588133,0.17993340447575612,1.2290310849508304,-0.006018992846935189,0.16011832009672244,-0.005234641264628581,-0.268049946300694
801,0.7477,491.924,510.939,-0.137336,501.344,-3.79478,-3.7933,0.165626,0.148673,-0.312362,0.802392,-0.00604861,-0.00525811,0.58874,0.18013164993986064,1.2308707943717048,-0.006030353984917913,0.16029351118965174,-0.005244310336923741,-0.2682834011297991
802,0.7487,492.06,511.094,-0.125143,501.427,-3.7809,-3.80148,0.165793,0.148825,-0.31268,0.803217,-0.00605951,-0.00526787,0.589347,0.18032874838266255,1.2327120221790997,-0.006041188195012981,0.16046988920774252,-0.005254019105075947,-0.2685160500151065
803,0.7497,492.146,511.087,-0.140253,501.539,-3.80726,-3.80174,0.165961,0.148976,-0.312999,0.804042,-0.00607104,-0.00527758,0.589954,0.180527060270123,1.2345547696262016,-0.006052648474044409,0.16064513339161568,-0.005263678041656283,-0.26874935618083984
804,0.7507,492.29,511.268,-0.124412,501.617,-3.78667,-3.81154,0.166128,0.149127,-0.313317,0.804865,-0.00608185,-0.00528737,0.590561,0.18072422475196404,1.236394565173626,-0.006063392986840221,0.16082040403935882,-0.005273416462578617,-0.2689818569159982
805,0.7517,492.367,511.229,-0.144164,501.735,-3.82098,-3.81001,0.166295,0.149278,-0.313635,0.805689,-0.00609352,-0.00529708,0.591167,0.1809214221630231,1.2382381137330252,-0.006074992159362802,0.16099570115496786,-0.005283075210811394,-0.2692142837276771
806,0.7527,492.521,511.446,-0.122771,501.806,-3.79118,-3.82184,0.166462,0.149429,-0.313953,0.806512,-0.0061042,-0.00530689,0.591773,0.1811186525088,1.2400809419204095,-0.0060856072217619905,0.16117102474243983,-0.005292833335979963,-0.26944663663938073
807,0.7537,492.585,511.363,-0.149121,501.931,-3.83622,-3.81799,0.16663,0.14958,-0.31427,0.807335,-0.00611604,-0.0053166,0.592379,0.18131709711130117,1.2419252873796642,-0.006097375098506497,0.16134637480577263,-0.005302491895675887,-0.2696781853531559
808,0.7547,492.754,511.63,-0.119976,501.993,-3.79397,-3.83251,0.166797,0.149731,-0.314588,0.808156,-0.00612655,-0.00532645,0.592984,0.18151439354031207,1.2437666638222025,-0.006107820960201127,0.16152175134896418,-0.005312289617876775,-0.26991039076759593
809,0.7557,492.801,511.489,-0.155386,502.128,-3.85349,-3.82558,0.166964,0.149881,-0.314905,0.808978,-0.00613863,-0.00533615,0.593589,0.18171172292057802,1.2456117982662267,-0.006119827105206643,0.16169599267943946,-0.0053219380418726425,-0.270141792494611
810,0.7567,492.927,511.62,-0.151668,502.213,-3.84461,-3.83526,0.167131,0.150032,-0.315222,0.809799,-0.00614974,-0.00534598,0.594193,0.1819090852576022,1.2474562025769727,-0.006130869052589416,0.1618714220189159,-0.0053317156791644615,-0.2703731208789042
811,0.7577,493.064,511.77,-0.13573,502.297,-3.83206,-3.84102,0.167298,0.150182,-0.315539,0.81062,-0.00616074,-0.00535577,0.594797,0.18210648055688905,1.2493021217654294,-0.006141801552900894,0.1620457158039259,-0.0053414534340016084,-0.2706043759437212
812,0.7587,493.163,511.809,-0.145299,502.398,-3.84577,-3.84457,0.167464,0.150333,-0.315856,0.81144,-0.00617214,-0.00536556,0.595401,0.18230272652062562,1.2511473059273919,-0.006153131471782536,0.1622211979555812,-0.005351191093506569,-0.27083555771230083
813,0.7597,493.294,511.945,-0.134524,502.484,-3.83622,-3.85145,0.167631,0.150483,-0.316173,0.812259,-0.00618319,-0.00537538,0.596005,0.18250018756349284,1.2529917507680102,-0.006164113419004469,0.16239554421091684,-0.005360958496852031,-0.2710666662078741
814,0.7607,493.387,511.96,-0.146429,502.59,-3.85637,-3.8533,0.167798,0.150633,-0.316489,0.813079,-0.0061947,-0.00538517,0.596608,0.1826976815851078,1.2548399616665469,-0.006175552404227513,0.1625699166201522,-0.005370695965403294,-0.2712969727510023
815,0.7617,493.522,512.111,-0.134543,502.671,-3.84278,-3.8615,0.167964,0.150783,-0.316805,0.813897,-0.00620569,-0.00539501,0.59721,0.18289402569636115,1.2566851753446948,-0.006186474474889736,0.16274431518721078,-0.005380483069602371,-0.27152720652876017
816,0.7627,493.608,512.102,-0.149306,502.781,-3.86875,-3.86186,0.168131,0.150933,-0.317121,0.814716,-0.00621731,-0.00540481,0.597813,0.1830915854944366,1.2585341575581666,-0.006198022520962021,0.16291873991601635,-0.0053902302931068125,-0.27175736756413826
817,0.7637,493.75,512.278,-0.134028,502.858,-3.84883,-3.87159,0.168297,0.151083,-0.317437,0.815534,-0.00622822,-0.00541467,0.598415,0.1832879949991666,1.2603823943248282,-0.006208864841391382,0.16309319081049378,-0.005400037097088473,-0.2719874558801194
818,0.7647,493.828,512.239,-0.153104,502.973,-3.88227,-3.87027,0.168464,0.151232,-0.317753,0.816351,-0.00623996,-0.00542447,0.599017,0.18348562059560924,1.2622298813366712,-0.006220531880832492,0.16326650460748193,-0.005409784128964423,-0.27221747149967934
819,0.7657,493.979,512.448,-0.132697,503.044,-3.85378,-3.88191,0.16863,0.151382,-0.318068,0.817168,-0.00625075,-0.00543436,0.599618,0.18368209551559533,1.2640788783621595,-0.006231254703443767,0.16344100767057546,-0.005419620577558071,-0.27244668689283724
820,0.7667,494.045,512.37,-0.157839,503.166,-3.89714,-3.87843,0.168796,0.151531,-0.318383,0.817985,-0.00626266,-0.00544415,0.600219,0.18387860305312542,1.2659293866354782,-0.0062430904187184,0.16361437329613682,-0.005429357471810503,-0.272675830094517
821,0.7677,494.211,512.624,-0.13035,503.228,-3.8572,-3.89255,0.168962,0.151681,-0.318699,0.8188,-0.00627329,-0.00545407,0.60082,0.1840751432136143,1.2677768718335418,-0.006253653998521735,0.1637889285434475,-0.005439223563648454,-0.27290562822219067
822,0.7687,494.261,512.492,-0.163726,503.359,-3.91382,-3.88625,0.169128,0.15183,-0.319013,0.819616,-0.00628541,-0.00546386,0.60142,0.18427171600247783,1.2696281329727803,-0.006265698131247666,0.16396234601308102,-0.005448960265988512,-0.273133900014382
823,0.7697,494.444,512.807,-0.12669,503.41,-3.85859,-3.90365,0.169294,0.15198,-0.319328,0.820431,-0.00629582,-0.00547381,0.60202,0.1844683214251328,1.2714786338778428,-0.0062760428514857525,0.16413695346021417,-0.005458855999602497,-0.27336282677801926
824,0.7707,494.532,512.812,-0.143575,503.515,-3.88043,-3.90748,0.16946,0.152129,-0.319643,0.821245,-0.00630735,-0.00548371,0.60262,0.1846649594869969,1.2733283702263778,-0.006287500422658687,0.16431042278942387,-0.005468701908190821,-0.2735916814410825
825,0.7717,494.631,512.828,-0.145753,503.621,-3.90064,-3.90524,0.169626,0.152277,-0.319957,0.82206,-0.00631891,-0.00549352,0.603219,0.18486163019348867,1.2751818880540307,-0.0062989876727573835,0.16448275348415353,-0.005478458212370363,-0.2738197378463805
826,0.7727,494.747,512.925,-0.147569,503.709,-3.89896,-3.91278,0.169791,0.152426,-0.320271,0.822873,-0.00633016,-0.00550344,0.603818,0.18505714849228672,1.2770323630451772,-0.006310166746263612,0.1646562743414055,-0.00548832381713138,-0.27404772265320887
827,0.7737,494.848,512.957,-0.151888,503.811,-3.91512,-3.91398,0.169957,0.152575,-0.320585,0.823687,-0.00634169,-0.0055133,0.604417,0.1852538843075573,1.2788866219696926,-0.006321623923990272,0.1648298210551915,-0.005498129653915718,-0.2742756358840459
828,0.7747,494.972,513.076,-0.147613,503.895,-3.90828,-3.92189,0.170123,0.152724,-0.320899,0.824499,-0.00635288,-0.00552322,0.605016,0.1854506527836841,1.2807378293952318,-0.006332743122806517,0.16500339362936445,-0.005507995063536941,-0.27450347756136295
829,0.7757,495.068,513.095,-0.155577,503.998,-3.92698,-3.92317,0.170288,0.152872,-0.321213,0.825312,-0.00636447,-0.0055331,0.605614,0.18564626827922792,1.2825928232033386,-0.006344259659575302,0.16517582689136812,-0.005517820596007583,-0.27473124770762425
830,0.7767,495.198,513.231,-0.147413,504.08,-3.91596,-3.93155,0.170454,0.153021,-0.321526,0.826123,-0.0063756,-0.00554304,0.606211,0.18584310189650055,1.284444756840542,-0.006355318986419944,0.1653494510242517,-0.005527705699741814,-0.27495822130387093
831,0.7777,495.288,513.232,-0.159003,504.186,-3.9391,-3.93216,0.170619,0.153169,-0.32184,0.826935,-0.00638727,-0.00555293,0.606809,0.1860387821514906,1.2863004793044532,-0.0063669147521859815,0.16552193550654004,-0.005537540982096911,-0.27518584868301277
832,0.7787,495.424,513.388,-0.147005,504.263,-3.92284,-3.94149,0.170784,0.153317,-0.322153,0.827746,-0.00639834,-0.00556289,0.607406,0.18623449469638653,1.2881554210703858,-0.006377914209557578,0.16569444551842105,-0.005547445778862681,-0.2754126800114203
833,0.7797,495.507,513.364,-0.162711,504.373,-3.95199,-3.94096,0.170949,0.153465,-0.322466,0.828557,-0.00641012,-0.00557278,0.608002,0.18643023953651672,1.2900118678042722,-0.006389619008786762,0.16586698106367326,-0.005557280865989389,-0.2756394403527319
834,0.7807,495.652,513.548,-0.146159,504.446,-3.92882,-3.95169,0.171115,0.153613,-0.322779,0.829366,-0.0064211,-0.00558276,0.608599,0.1866272033038201,1.2918652369920798,-0.006400528790875271,0.16603954214607564,-0.00556720535480304,-0.27586612972916336
835,0.7817,495.725,513.492,-0.166983,504.561,-3.96594,-3.94953,0.17128,0.153761,-0.323091,0.830176,-0.00643301,-0.00559266,0.609195,0.1868230129462165,1.2937223998834742,-0.00641236249010757,0.1662121287694085,-0.005577050190738064,-0.2760920242553093
836,0.7827,495.88,513.712,-0.144639,504.627,-3.93365,-3.96219,0.171445,0.153909,-0.323404,0.830985,-0.00644387,-0.00560266,0.60979,0.18701885489986947,1.295578772106297,-0.006423152793259446,0.1663847409374517,-0.00558699437051513,-0.27631857199514664
837,0.7837,495.941,513.614,-0.172063,504.749,-3.98126,-3.95782,0.17161,0.154056,-0.323716,0.831794,-0.00645596,-0.00561255,0.610386,0.18721472917011095,1.2974366467418927,-0.006435165064727855,0.16655621209719085,-0.005596829066508158,-0.27654432538132456
838,0.7847,496.111,513.881,-0.142187,504.806,-3.93695,-3.97305,0.171774,0.154204,-0.324028,0.832602,-0.00646664,-0.00562259,0.61098,0.18740944835223128,1.2992937257113284,-0.0064457762805009144,0.16672887519333535,-0.005606812824225815,-0.2767700083434328
839,0.7857,496.155,513.728,-0.178221,504.938,-3.99836,-3.96577,0.171939,0.154351,-0.32434,0.83341,-0.00647895,-0.00563248,0.611575,0.1876053870757095,1.3011523058069452,-0.006458006857715581,0.16690039694452863,-0.005616647324215296,-0.2769956209034401
840,0.7867,496.28,513.854,-0.174229,505.019,-3.98878,-3.97582,0.172104,0.154498,-0.324651,0.834217,-0.00649026,-0.0056425,0.61217,0.1878013581317446,1.303010085230906,-0.006469243754113285,0.16707194391127245,-0.005626610995490999,-0.2772204403041103
841,0.7877,496.416,513.996,-0.158832,505.099,-3.97681,-3.98163,0.172269,0.154646,-0.324963,0.835024,-0.00650147,-0.00565247,0.612763,0.1879973615256716,1.304869364487963,-0.0064803811714654325,0.16724468334137388,-0.005636524848758762,-0.27744591235126703
842,0.7887,496.515,514.032,-0.167831,505.196,-3.9898,-3.98548,0.172433,0.154793,-0.325274,0.83583,-0.00651307,-0.00566246,0.613357,0.18819220907002365,1.3067278380599787,-0.006491905932200059,0.16741628092193817,-0.0056464584902569115,-0.27767059173307096
843,0.7897,496.643,514.156,-0.158032,505.278,-3.9815,-3.99231,0.172598,0.15494,-0.325586,0.836636,-0.00652435,-0.00567246,0.61395,0.1883882769596763,1.308587810165522,-0.006503112640295239,0.16758790372920096,-0.005656401975954406,-0.27789592335488933
844,0.7907,496.737,514.17,-0.168895,505.379,-4.00029,-3.99458,0.172762,0.155087,-0.325897,0.837442,-0.00653604,-0.00568245,0.614543,0.18858318861941692,1.3104492820128963,-0.00651472655102503,0.16775955176687085,-0.005666335418881063,-0.27812046280503167
845,0.7917,496.868,514.306,-0.15854,505.459,-3.9888,-4.00256,0.172927,0.155234,-0.326207,0.838247,-0.00654728,-0.00569248,0.615136,0.1887793210260178,1.3123099425002835,-0.006525893262741556,0.1679312250386571,-0.00567630853552159,-0.2783442107788343
846,0.7927,496.957,514.301,-0.171584,505.563,-4.01238,-4.00357,0.173091,0.15538,-0.326518,0.839052,-0.00655906,-0.00570247,0.615728,0.18897429682224431,1.3141721014224017,-0.006537596318787808,0.16810175544592942,-0.005686241779582657,-0.2785686108332649
847,0.7937,497.094,514.457,-0.158667,505.638,-3.99586,-4.01283,0.173255,0.155527,-0.326829,0.839855,-0.00657023,-0.00571252,0.61632,0.18916930459712367,1.3160311279190893,-0.006548693231860581,0.16827347902535394,-0.005696234582638904,-0.27879294111012964
848,0.7947,497.175,514.428,-0.175011,505.746,-4.02534,-4.01248,0.173419,0.155673,-0.327139,0.840659,-0.00658212,-0.00572252,0.616912,0.18936434435590055,1.3178939657063795,-0.0065605052976751566,0.16844405940535623,-0.005706177570578008,-0.2790164806479669
849,0.7957,497.32,514.609,-0.158203,505.817,-4.00215,-4.02325,0.173583,0.15582,-0.327449,0.841462,-0.00659321,-0.00573259,0.617503,0.189559416103821,1.3197559820603542,-0.006571522480581016,0.16861583330716123,-0.00571619005895696,-0.27923995089928744
850,0.7967,497.393,514.55,-0.179116,505.93,-4.03927,-4.02124,0.173747,0.155966,-0.327759,0.842266,-0.00660523,-0.00574259,0.618095,0.18975451984613168,1.321621815834599,-0.006583463419115643,0.16878646367453798,-0.005726132847342247,-0.2794633518855668
851,0.7977,497.547,514.765,-0.157038,505.994,-4.00741,-4.03392,0.173911,0.156113,-0.328069,0.843067,-0.00661619,-0.00575269,0.618685,0.18994965558807997,1.3234821798854175,-0.006594351204691318,0.16895828791347012,-0.005736174962687746,-0.27968668362827365
852,0.7987,497.608,514.666,-0.184012,506.114,-4.05444,-4.02979,0.174075,0.156258,-0.328378,0.84387,-0.00662838,-0.00576268,0.619276,0.19014482333491411,1.3253486853775254,-0.0066064607457423374,0.16912779915448573,-0.005746107608686213,-0.27990922605845625
853,0.7997,497.776,514.926,-0.155007,506.17,-4.01132,-4.0449,0.174239,0.156405,-0.328688,0.844671,-0.00663918,-0.00577281,0.619865,0.1903400230918837,1.3272120358467485,-0.0066171893380317925,0.16929967357342157,-0.005756179349602708,-0.2801324196015915
854,0.8007,497.822,514.775,-0.18989,506.299,-4.07121,-4.03804,0.174403,0.15655,-0.328997,0.845473,-0.00665159,-0.0057828,0.620455,0.1905352548642385,1.3290792085356649,-0.006629517142217933,0.16946923431894678,-0.005766111795758366,-0.28035482432063596
855,0.8017,498.007,515.093,-0.15187,506.344,-4.01348,-4.0563,0.174566,0.156697,-0.329306,0.846272,-0.00666218,-0.00579296,0.621044,0.19072932792730635,1.330940886464576,-0.006640036879929312,0.16964115893254106,-0.005776213160747501,-0.2805771603272388
856,0.8027,498.092,515.086,-0.169477,506.446,-4.03673,-4.06009,0.17473,0.156842,-0.329615,0.847073,-0.00667397,-0.00580307,0.621633,0.19092462355088968,1.3328087180813295,-0.006651748524854173,0.16981076919703342,-0.005786264712421718,-0.2807994276426289
857,0.8037,498.191,515.097,-0.171303,506.548,-4.05661,-4.05809,0.174894,0.156987,-0.329924,0.847872,-0.00668574,-0.00581309,0.622222,0.1911199512055819,1.3346733770791461,-0.00666344016496867,0.16998040405679715,-0.005796226684139816,-0.2810216262880286
858,0.8047,498.305,515.183,-0.173829,506.633,-4.05615,-4.06561,0.175057,0.157133,-0.330232,0.848672,-0.00669724,-0.00582321,0.622811,0.19131411958192124,1.3365418630755554,-0.0066748634697225695,0.17015123366604734,-0.005806287975415492,-0.2812430375280507
859,0.8057,498.406,515.211,-0.177493,506.73,-4.07129,-4.06729,0.17522,0.157278,-0.330541,0.849471,-0.00670898,-0.00583328,0.623399,0.19150831961028536,1.3384095060481616,-0.006686525038371971,0.17032091789673842,-0.0058162994556877345,-0.2814650991191717
860,0.8067,498.527,515.317,-0.174307,506.811,-4.06622,-4.07506,0.175384,0.157423,-0.330849,0.850269,-0.00672042,-0.00584342,0.623986,0.1917037429989814,1.3402763015863428,-0.006697888479526459,0.17049062673342674,-0.005826380427300659,-0.28168637379059447
861,0.8077,498.625,515.337,-0.181104,506.909,-4.08313,-4.07698,0.175547,0.157568,-0.331157,0.851067,-0.00673221,-0.00585351,0.624574,0.19189800654113887,1.3421445874219127,-0.006709599442385028,0.17066036017968056,-0.005836411588514778,-0.2819075803199127
862,0.8087,498.751,515.456,-0.174654,506.988,-4.0748,-4.08505,0.17571,0.157713,-0.331465,0.851864,-0.00674362,-0.00586365,0.625161,0.19209230175083447,1.344012020731411,-0.006720932821198344,0.17083011823906835,-0.005846492356191724,-0.28212871872811107
863,0.8097,498.844,515.461,-0.184333,507.088,-4.09507,-4.08654,0.175873,0.157858,-0.331772,0.852661,-0.00675548,-0.00587376,0.625748,0.19228662863323054,1.3458809429785195,-0.006732713041078253,0.1709999009151597,-0.005856543197346964,-0.28234907138559806
864,0.8107,498.974,515.596,-0.174935,507.164,-4.08283,-4.0953,0.176036,0.158003,-0.33208,0.853458,-0.00676684,-0.00588392,0.626334,0.19248098719349005,1.3477513553503955,-0.0067439964933679875,0.17116970821152377,-0.005866643643557712,-0.2825700738354868
865,0.8117,499.062,515.583,-0.187683,507.267,-4.10753,-4.09597,0.1762,0.158147,-0.332387,0.854254,-0.00677878,-0.00589403,0.62692,0.19267657011275086,1.3496209094130558,-0.006755855899249097,0.17133836879277675,-0.0058766942809843625,-0.2827902910177522
866,0.8127,499.199,515.737,-0.174976,507.34,-4.09028,-4.10576,0.176362,0.158292,-0.332694,0.85505,-0.00679008,-0.00590422,0.627506,0.1928697993682562,1.3514919522331978,-0.00676707949466393,0.17150822517054154,-0.005886824345856856,-0.28301044060371927
867,0.8137,499.28,515.702,-0.191373,507.446,-4.1207,-4.10526,0.176525,0.158436,-0.333001,0.855845,-0.00680212,-0.00591434,0.628091,0.19306425299309304,1.3533621316330344,-0.006779037947036826,0.17167693450174637,-0.005896884720288931,-0.28323052261413684
868,0.8147,499.424,515.881,-0.174617,507.514,-4.09701,-4.11643,0.176688,0.158581,-0.333308,0.85664,-0.00681334,-0.00592454,0.628676,0.19325873831645413,1.3552337984166507,-0.006790181823713826,0.1718468399750983,-0.005907024520351745,-0.2834505370697473
869,0.8157,499.496,515.816,-0.19556,507.625,-4.13475,-4.1144,0.176851,0.158725,-0.333615,0.857435,-0.00682551,-0.00593467,0.629261,0.19345325534350688,1.357106953766987,-0.006802269113649673,0.17201559807034594,-0.005917094631188169,-0.283670483991287
870,0.8167,499.65,516.027,-0.173704,507.687,-4.10282,-4.12735,0.177013,0.15887,-0.333921,0.858228,-0.00683661,-0.0059449,0.629846,0.19364661043221165,1.3589768809094447,-0.0068132935472767775,0.17218555265347568,-0.005927264047293379,-0.28388964728949095
871,0.8177,499.711,515.925,-0.200399,507.805,-4.14991,-4.12335,0.177176,0.159013,-0.334228,0.859022,-0.00684894,-0.00595502,0.63043,0.1938411906875721,1.3608506523417039,-0.0068255394638711,0.17235318717308745,-0.005937324012477707,-0.28410945942488386
872,0.8187,499.878,516.178,-0.172067,507.859,-4.10745,-4.13858,0.177339,0.159158,-0.334534,0.859815,-0.0068599,-0.00596528,0.631014,0.1940358026620994,1.3627235494145529,-0.006836424596307955,0.17252319071018607,-0.005947523043212222,-0.28432848841715486
873,0.8197,499.925,516.027,-0.20607,507.984,-4.16647,-4.13205,0.177501,0.159301,-0.33484,0.860608,-0.00687243,-0.00597541,0.631597,0.19422925213111442,1.364597932283821,-0.006848868857944335,0.17269087351549262,-0.005957592743800699,-0.28454745039680784
874,0.8207,500.107,516.333,-0.1695,508.029,-4.11059,-4.15019,0.177663,0.159445,-0.335146,0.861399,-0.00688319,-0.0059857,0.63218,0.19442273294148227,1.366469069185341,-0.006859555106623283,0.17285975316032132,-0.005967821387544925,-0.2847663453843452
875,0.8217,500.192,516.323,-0.186962,508.128,-4.13383,-4.15419,0.177826,0.159589,-0.335451,0.862191,-0.00689512,-0.00599594,0.632763,0.19461743971512258,1.3683440550845427,-0.006871403201456849,0.17302865712557014,-0.005978000224938218,-0.2849844583850796
876,0.8227,500.292,516.334,-0.188106,508.226,-4.15272,-4.1526,0.177988,0.159732,-0.335757,0.862983,-0.00690703,-0.00600609,0.633346,0.19481098341697312,1.3702205265607872,-0.006883231292608261,0.1731964122177423,-0.005988089497032778,-0.2852032196686304
877,0.8237,500.405,516.412,-0.191216,508.31,-4.15336,-4.16008,0.17815,0.159876,-0.336062,0.863774,-0.00691869,-0.00601634,0.633928,0.19500455847544296,1.3720961126938191,-0.006894810966621812,0.17336536466538588,-0.005998278066898899,-0.285421199443026
878,0.8247,500.507,516.442,-0.194186,508.404,-4.1674,-4.16223,0.178313,0.160019,-0.336367,0.864564,-0.00693056,-0.00602655,0.63451,0.1951993600943751,1.3739708090304004,-0.006906599055253149,0.17353316791017903,-0.00600842677267055,-0.28563911274372833
879,0.8257,500.626,516.537,-0.191952,508.484,-4.16397,-4.16985,0.178475,0.160162,-0.336672,0.865354,-0.00694217,-0.00603682,0.635091,0.19539299807496335,1.3758469869622405,-0.0069181288027078125,0.1737009951525521,-0.006018635013708251,-0.28585695959100854
880,0.8267,500.725,516.56,-0.197723,508.578,-4.17929,-4.17235,0.178637,0.160305,-0.336977,0.866144,-0.00695408,-0.00604705,0.635673,0.19558666742744557,1.3777246476602625,-0.00692995633736071,0.1738688463959368,-0.006028803391060711,-0.2860747400051318
881,0.8277,500.848,516.666,-0.192656,508.657,-4.17324,-4.18016,0.178799,0.160448,-0.337281,0.866933,-0.00696567,-0.00605732,0.636254,0.19578036815690414,1.3796014126937117,-0.006941465952468362,0.1740367216437655,-0.006039011422831586,-0.2862917402984545
882,0.8287,500.944,516.678,-0.200826,508.753,-4.19119,-4.18237,0.178961,0.160591,-0.337586,0.867722,-0.00697764,-0.00606757,0.636834,0.195974100268423,1.3814796590790888,-0.0069533527919780624,0.17420462089947142,-0.006049199470750666,-0.28650938812468274
883,0.8297,501.071,516.796,-0.193375,508.829,-4.18209,-4.1907,0.179122,0.160734,-0.33789,0.86851,-0.00698919,-0.00607786,0.637415,0.19616666759982038,1.3833570046274453,-0.006964822414516125,0.1743725441664874,-0.006059427171866472,-0.2867262563050592
884,0.8307,501.162,516.793,-0.203969,508.927,-4.20348,-4.1923,0.179284,0.160876,-0.338194,0.869298,-0.00700123,-0.00608812,0.637995,0.19636046229691817,1.3852358301071104,-0.006976778486078583,0.17453931690834334,-0.006069624949828989,-0.2869430585675289
885,0.8317,501.294,516.926,-0.193955,509.0,-4.19055,-4.20142,0.179446,0.161019,-0.338498,0.870085,-0.00701274,-0.00609843,0.638574,0.19655428839130007,1.387113749569786,-0.006988208117580497,0.1747072880403111,-0.0060798723191705095,-0.28715979493212784
886,0.8327,501.38,516.906,-0.207337,509.101,-4.2163,-4.20215,0.179608,0.161161,-0.338802,0.870872,-0.00702486,-0.0061087,0.639154,0.19674814588805267,1.388993147536794,-0.007000243347564439,0.17487410831917227,-0.006090079826466144,-0.28737646541888584
887,0.8337,501.518,517.058,-0.194274,509.171,-4.19851,-4.21232,0.179769,0.161304,-0.339106,0.871659,-0.00703632,-0.00611903,0.639733,0.1969408378508275,1.3908740251721752,-0.007011623059569816,0.1750421273297349,-0.006100346862912165,-0.28759307004782675
888,0.8347,501.597,517.015,-0.211048,509.275,-4.22976,-4.21191,0.179931,0.161445,-0.339409,0.872445,-0.00704854,-0.0061293,0.640311,0.1971347579736651,1.3927539908856996,-0.007023757303395661,0.17520781995074364,-0.006110554159935333,-0.28780889664822107
889,0.8357,501.742,517.191,-0.194222,509.34,-4.20585,-4.22342,0.180092,0.161588,-0.339712,0.873231,-0.00705991,-0.00613966,0.64089,0.19732751218599653,1.3946354348331447,-0.007035047379090886,0.17537588668548176,-0.006120850801257571,-0.28802465786306186
890,0.8367,501.814,517.121,-0.215208,509.449,-4.244,-4.22156,0.180254,0.16173,-0.340015,0.874016,-0.00707226,-0.00614994,0.641468,0.19752149495515092,1.3965159616596994,-0.007047310420531305,0.1755428019120917,-0.00613106782639572,-0.28824035371215795
891,0.8377,501.967,517.327,-0.193688,509.508,-4.21241,-4.23475,0.180415,0.161872,-0.340318,0.874801,-0.00708353,-0.00616032,0.642045,0.1977143114371489,1.3983979652793783,-0.007058500934284284,0.1757097408423467,-0.006141384132369976,-0.28845598421531227
892,0.8387,502.029,517.222,-0.219934,509.623,-4.25922,-4.23105,0.180577,0.162013,-0.340621,0.875586,-0.00709603,-0.00617061,0.642623,0.19790835687285768,1.4002814468519187,-0.007070912625449344,0.17587552760349734,-0.006151610884910452,-0.2886715493923214
893,0.8397,502.193,517.466,-0.192544,509.676,-4.21799,-4.24636,0.180738,0.162156,-0.340924,0.876369,-0.00710717,-0.00618102,0.6432,0.19810123564463877,1.4021616032099593,-0.007081973793871876,0.17604368982725727,-0.006161956792790635,-0.28888704926297637
894,0.8407,502.242,517.317,-0.225362,509.798,-4.27564,-4.24036,0.180899,0.162296,-0.341226,0.877153,-0.00711985,-0.0061913,0.643777,0.19829414547240187,1.404045636351365,-0.007094563914622598,0.176208347469599,-0.006172173395361358,-0.28910177294919037
895,0.8417,502.421,517.609,-0.190634,509.842,-4.22234,-4.2583,0.18106,0.162439,-0.341529,0.877936,-0.00713082,-0.00620175,0.644353,0.19848708636114765,1.4059287412239767,-0.007105456027513113,0.17637655729000268,-0.006182558841885344,-0.2893171424818549
896,0.8427,502.454,517.407,-0.231655,509.973,-4.29353,-4.24941,0.181221,0.162579,-0.34183,0.878719,-0.00714372,-0.00621203,0.64493,0.19868005831587743,1.4078133211451096,-0.007118264284517006,0.17654126153705163,-0.006192775232668146,-0.28953102583090895
897,0.8437,502.582,517.533,-0.226234,510.045,-4.28128,-4.26083,0.181382,0.162721,-0.342132,0.879501,-0.00715542,-0.00622247,0.645506,0.198873061341593,1.4096969675720064,-0.007129880932867261,0.1767083422586404,-0.0062031505259355635,-0.2897455550655631
898,0.8447,502.717,517.664,-0.210845,510.118,-4.26915,-4.26732,0.181543,0.162862,-0.342434,0.880283,-0.00716708,-0.00623284,0.646081,0.19906609544329723,1.411582087586507,-0.0071414577309627525,0.17687426983251786,-0.00621345614582991,-0.2899600195221703
899,0.8457,502.817,517.691,-0.219297,510.208,-4.28178,-4.27187,0.181704,0.163003,-0.342736,0.881065,-0.00717911,-0.00624323,0.646656,0.1992591606259937,1.4134686823414073,-0.0071534017473828815,0.17704022080383286,-0.0062237815343800795,-0.29017441922029075
900,0.8467,502.943,517.799,-0.210516,510.284,-4.27488,-4.27915,0.181865,0.163144,-0.343037,0.881845,-0.00719084,-0.00625364,0.647231,0.19945225689468704,1.4153519222817303,-0.007165047769676303,0.17720619517588432,-0.0062341266909675674,-0.2903880445678777
901,0.8477,503.038,517.806,-0.22039,510.377,-4.29276,-4.28225,0.182025,0.163285,-0.343338,0.882626,-0.00720297,-0.00626404,0.647806,0.19964418460959776,1.4172390489600772,-0.007177090784605822,0.17737219295197226,-0.006244461802307311,-0.29060160562391146
902,0.8487,503.165,517.921,-0.211778,510.451,-4.28382,-4.29046,0.182186,0.163426,-0.34364,0.883406,-0.00721468,-0.00627448,0.64838,0.19983734287214294,1.4191252309336067,-0.007188716672803075,0.17753821413539694,-0.006254836555969812,-0.29081581159228376
903,0.8497,503.256,517.914,-0.223046,510.547,-4.30527,-4.29258,0.182347,0.163566,-0.34394,0.884186,-0.00722688,-0.00628488,0.648954,0.2000305322356717,1.4210128847030008,-0.007200828896574918,0.1777030810257889,-0.006265171451928064,-0.2910285349387087
904,0.8507,503.388,518.042,-0.212855,510.618,-4.29284,-4.30175,0.182507,0.163707,-0.344241,0.884965,-0.00723856,-0.00629534,0.649528,0.20022255248203957,1.4228995885159086,-0.007212424723173627,0.17786914886772132,-0.006275565863871901,-0.2912419032361524
905,0.8517,503.474,518.019,-0.226245,510.716,-4.31836,-4.30292,0.182668,0.163847,-0.344542,0.885744,-0.00725083,-0.00630576,0.650101,0.20041580386930846,1.4247877626437,-0.007224606151989055,0.17803406209221917,-0.006285920418528268,-0.29145520731940333
906,0.8527,503.61,518.165,-0.213591,510.785,-4.30152,-4.31314,0.182828,0.163988,-0.344842,0.886523,-0.00726246,-0.00631624,0.650674,0.20060788576406918,1.4266774082321967,-0.0072361520626799125,0.17820017660577214,-0.006296334487512434,-0.29166773887588004
907,0.8537,503.691,518.122,-0.229846,510.886,-4.33202,-4.31323,0.182989,0.164127,-0.345143,0.887301,-0.00727483,-0.00632667,0.651247,0.20080119919499095,1.4285660978608008,-0.0072484324755244245,0.17836395781285064,-0.006306698762693963,-0.29188091480189204
908,0.8547,503.834,518.288,-0.213965,510.95,-4.3097,-4.32471,0.183149,0.164268,-0.345443,0.888078,-0.00728639,-0.00633717,0.651819,0.20099334275793734,1.4304538270066387,-0.007259908617312738,0.1785301188449797,-0.006317132487579813,-0.292093318665279
909,0.8557,503.908,518.22,-0.233863,511.056,-4.34635,-4.32348,0.183309,0.164407,-0.345743,0.888856,-0.00729888,-0.0063476,0.652392,0.20118551706631327,1.4323454558322486,-0.007272307863620653,0.17869394591721677,-0.006327496545839306,-0.29230565881706405
910,0.8567,504.058,518.413,-0.213925,511.115,-4.31726,-4.33647,0.183469,0.164548,-0.346042,0.889632,-0.00731035,-0.00635813,0.652963,0.20137772212503857,1.4342336884454743,-0.007283694384947581,0.17886015348094908,-0.0063379598622111954,-0.2925172277939395
911,0.8577,504.124,518.315,-0.238356,511.225,-4.36149,-4.33363,0.18363,0.164687,-0.346342,0.890409,-0.00732297,-0.00636858,0.653535,0.20157115950959215,1.4361258230204843,-0.007296222385672624,0.1790240264311891,-0.006348343576275672,-0.29272944079206
912,0.8587,504.284,518.541,-0.213392,511.278,-4.32405,-4.34848,0.18379,0.164827,-0.346642,0.891185,-0.00733433,-0.00637913,0.654106,0.20176342627604482,1.4380169903371658,-0.007307499436532527,0.1791891013498641,-0.0063588265459531,-0.29294159013582977
913,0.8597,504.338,518.405,-0.243418,511.395,-4.37761,-4.34366,0.18395,0.164966,-0.346941,0.891961,-0.00734711,-0.00638958,0.654677,0.20195572380764149,1.43990962576924,-0.007320185965622672,0.1793530200270359,-0.0063692100419618924,-0.2931529689976644
914,0.8607,504.51,518.672,-0.212257,511.441,-4.32989,-4.36077,0.18411,0.165106,-0.34724,0.892735,-0.00735833,-0.00640017,0.655248,0.20214805210930442,1.4417988468538296,-0.007331323770652931,0.17951814100803865,-0.006379732536310856,-0.2933642846666673
915,0.8617,504.551,518.49,-0.249165,511.566,-4.39492,-4.3535,0.18427,0.165245,-0.347539,0.893511,-0.00737131,-0.00641062,0.655818,0.2023404111859577,1.4436944181455273,-0.007344208526448126,0.17968210542490182,-0.00639011581385307,-0.2935755371617301
916,0.8627,504.738,518.806,-0.210386,511.602,-4.33455,-4.37341,0.18443,0.165385,-0.347838,0.894284,-0.00738235,-0.00642124,0.656388,0.20253280104252558,1.4455841242080503,-0.0073551673858930355,0.17984727248108534,-0.006400667894791545,-0.2937867265017391
917,0.8637,504.821,518.779,-0.229196,511.698,-4.36036,-4.3776,0.184589,0.165524,-0.348136,0.895058,-0.00739468,-0.00643181,0.656958,0.2027240189593129,1.447477739054598,-0.0073674066212241485,0.180011282650403,-0.0064111701842271,-0.2939971467030744
918,0.8647,504.922,518.782,-0.230016,511.791,-4.37949,-4.37651,0.184749,0.165663,-0.348435,0.895832,-0.00740694,-0.00644229,0.657527,0.20291647019803483,1.449372820126393,-0.007379576222219075,0.18017531561871847,-0.00642158294060069,-0.29420821000067476
919,0.8657,505.032,518.846,-0.234019,511.871,-4.3818,-4.38432,0.184909,0.165802,-0.348733,0.896605,-0.00741898,-0.00645288,0.658096,0.20310895223141867,1.45126691729059,-0.007391527300175782,0.18033937138920142,-0.00643210488032353,-0.29441850461864016
920,0.8667,505.136,518.871,-0.236407,511.959,-4.39521,-4.38731,0.185069,0.16594,-0.349031,0.897378,-0.0074312,-0.00646342,0.658665,0.20330146506439162,1.4531624791579296,-0.007403656901600164,0.18050226946216164,-0.0064425770307497965,-0.29462873657814603
921,0.8677,505.253,518.951,-0.235282,512.036,-4.39387,-4.39519,0.185228,0.166079,-0.349329,0.89815,-0.0074432,-0.00647402,0.659233,0.20349280520847524,1.4550570518027857,-0.0074155679862506485,0.18066637068238744,-0.006453108683615372,-0.2948389058978619
922,0.8687,505.354,518.972,-0.240073,512.124,-4.40791,-4.39868,0.185388,0.166218,-0.349627,0.898922,-0.00745545,-0.00648459,0.659801,0.20368537946283793,1.4569530876224368,-0.007427727071068313,0.18083049471426826,-0.006463610418754873,-0.29504901259645133
923,0.8697,505.474,519.059,-0.236594,512.2,-4.40469,-4.40661,0.185547,0.166356,-0.349925,0.899693,-0.00746745,-0.0064952,0.660369,0.20387678065416415,1.458848128897531,-0.007439637866878512,0.1809934605669241,-0.006474151783926296,-0.2952590566925728
924,0.8707,505.573,519.072,-0.243215,512.289,-4.4205,-4.41001,0.185707,0.166495,-0.350222,0.900464,-0.00747974,-0.00650579,0.660937,0.20406941634951337,1.4607446318128385,-0.007451836358769226,0.18115763006745889,-0.006484673166948118,-0.2954683336735652
925,0.8717,505.696,519.168,-0.238013,512.363,-4.41525,-4.41826,0.185866,0.166633,-0.35052,0.901234,-0.00749173,-0.00651642,0.661504,0.20426087860755926,1.4626401348543516,-0.007463736939907206,0.18132064106790846,-0.006495234178740428,-0.29567825283062255
926,0.8727,505.792,519.171,-0.246298,512.454,-4.43334,-4.42131,0.186026,0.166771,-0.350817,0.902005,-0.00750408,-0.00652703,0.662071,0.20445357576349776,1.464539562533603,-0.00747599468706428,0.18148367456542847,-0.006505775208385578,-0.2958874053288484
927,0.8737,505.918,519.276,-0.239414,512.526,-4.42563,-4.43008,0.186185,0.166909,-0.351114,0.902774,-0.00751604,-0.00653768,0.662637,0.20464509910774642,1.4664355223603116,-0.007487865203181898,0.18164673056312353,-0.006516355865537449,-0.296096495718006
928,0.8747,506.01,519.268,-0.249478,512.618,-4.4465,-4.4326,0.186344,0.167047,-0.351411,0.903544,-0.00752846,-0.0065483,0.663204,0.2048366529066281,1.4683354090750442,-0.007500192127345762,0.18180980906409916,-0.006526906605813676,-0.29630552401653887
929,0.8757,506.14,519.385,-0.240707,512.688,-4.43579,-4.44204,0.186503,0.167185,-0.351707,0.904312,-0.00754039,-0.00655897,0.66377,0.2050282371649852,1.4702318187973349,-0.007512032579425232,0.18197291007146066,-0.0065375069071674785,-0.2965137867570238
930,0.8767,506.229,519.363,-0.252831,512.782,-4.46005,-4.44389,0.186662,0.167322,-0.352004,0.905081,-0.00755288,-0.00656961,0.664335,0.20521985188766112,1.4721321576526312,-0.007524428676724537,0.18213485145287178,-0.0065480772918593555,-0.2967226911385207
931,0.8777,506.363,519.494,-0.241834,512.849,-4.44569,-4.45416,0.186821,0.16746,-0.3523,0.905849,-0.00756478,-0.0065803,0.664901,0.20541149707950024,1.4740314843978224,-0.007536239065751293,0.18229799731917806,-0.0065586972361494356,-0.29693083041581103
932,0.8787,506.447,519.456,-0.256411,512.946,-4.47404,-4.45517,0.18698,0.167598,-0.352597,0.906617,-0.00757735,-0.00659095,0.665466,0.20560317274534756,1.4759322703862323,-0.0075487142568195775,0.18246116570116744,-0.0065692773296848195,-0.297139610953733
933,0.8797,506.586,519.604,-0.242744,513.01,-4.45525,-4.46645,0.187139,0.167735,-0.352893,0.907384,-0.0075892,-0.00660167,0.666031,0.20579487889004877,1.4778320389057114,-0.007560474734874645,0.18262317397818206,-0.006579926849950235,-0.29734762684102056
934,0.8807,506.664,519.546,-0.26027,513.11,-4.48855,-4.46643,0.187298,0.167872,-0.353189,0.908151,-0.00760186,-0.00661233,0.666595,0.2059866155184502,1.4797332651065944,-0.0075730389397329345,0.1827852044518512,-0.006590516651486356,-0.29755558116471736
935,0.8817,506.809,519.715,-0.243383,513.17,-4.46439,-4.47892,0.187457,0.16801,-0.353484,0.908917,-0.00761365,-0.00662308,0.667159,0.20617838263539956,1.481633468472642,-0.007584739584628353,0.18294844007306432,-0.006601195746032129,-0.2977627717061663
936,0.8827,506.881,519.633,-0.264461,513.274,-4.50367,-4.47765,0.187616,0.168146,-0.35378,0.909683,-0.00762643,-0.00663375,0.667723,0.2063701802457445,1.4835351279520888,-0.007597422570612022,0.18310933200131752,-0.006611795254724995,-0.2979706031651679
937,0.8837,507.034,519.828,-0.243693,513.329,-4.47303,-4.49161,0.187775,0.168284,-0.354075,0.910448,-0.00763813,-0.00664452,0.668287,0.20656200835433403,1.485435759223742,-0.007609033612843263,0.18327261235521886,-0.006622493988077349,-0.2981776712931836
938,0.8847,507.097,519.717,-0.269046,513.438,-4.5195,-4.48881,0.187933,0.16842,-0.354371,0.911214,-0.00765105,-0.00665521,0.66885,0.2067526602127543,1.4873403323736971,-0.00762185522130121,0.18343354837390047,-0.006633113136857105,-0.29838537996008163
939,0.8857,507.259,519.942,-0.243606,513.487,-4.48104,-4.50452,0.188092,0.168558,-0.354666,0.911978,-0.00766265,-0.00666601,0.669413,0.20694454914049354,1.4892413864978362,-0.00763336674101367,0.18359687347274867,-0.006643841441302256,-0.298592325746989
940,0.8867,507.313,519.796,-0.274099,513.602,-4.53618,-4.49989,0.188251,0.168694,-0.354961,0.912744,-0.00767572,-0.0066767,0.669976,0.207136468580998,1.4911488758750555,-0.007646336888150307,0.18375785359394103,-0.006654460361879111,-0.29879921049389313
941,0.8877,507.486,520.059,-0.243039,513.644,-4.48831,-4.5177,0.188409,0.168831,-0.355256,0.913507,-0.0076872,-0.00668753,0.670538,0.20732721121130493,1.4930503477866344,-0.007657729042811701,0.1839200395293663,-0.006665218235819337,-0.2990060342187981
942,0.8887,507.527,519.872,-0.279703,513.766,-4.55384,-4.51085,0.188568,0.168966,-0.35555,0.914271,-0.00770045,-0.00669823,0.6711,0.20751919149991593,1.4949557660294301,-0.007670877490793204,0.18407987952365956,-0.006675846861120993,-0.2992120961521493
943,0.8897,507.713,520.178,-0.241899,513.8,-4.49466,-4.53119,0.188726,0.169104,-0.355845,0.915033,-0.00771177,-0.0067091,0.671662,0.20770999460522144,1.49685764684771,-0.007682110592880487,0.18424329382236126,-0.0066866442359817535,-0.29941879809374905
944,0.8907,507.74,519.941,-0.285958,513.93,-4.57266,-4.52167,0.188885,0.169239,-0.356139,0.915797,-0.00772524,-0.0067198,0.672223,0.2079020357612309,1.498765974978424,-0.007695477024827757,0.18440317745892987,-0.006697272632026463,-0.29962473869235806
945,0.8917,507.942,520.302,-0.240071,513.955,-4.49991,-4.54502,0.189043,0.169377,-0.356433,0.916558,-0.00773637,-0.0067307,0.672784,0.20809289936070852,1.5006682596128815,-0.007706521312706882,0.18456663637582493,-0.006708099572747761,-0.2998306187533306
946,0.8927,508.02,520.251,-0.261583,514.05,-4.53045,-4.54894,0.189201,0.169512,-0.356727,0.917321,-0.00774904,-0.00674154,0.673345,0.20828379311901712,1.5025769975859022,-0.007719093591436299,0.1847265636665849,-0.006718866798589906,-0.300036438294462
947,0.8937,508.119,520.241,-0.26323,514.142,-4.5519,-4.54783,0.189359,0.169648,-0.357021,0.918082,-0.00776163,-0.00675229,0.673906,0.20847471704092269,1.5044821835123656,-0.0077315863294059595,0.18488769743609157,-0.006729544513379038,-0.3002421973335426
948,0.8947,508.229,520.297,-0.26764,514.219,-4.55494,-4.55621,0.189517,0.169784,-0.357315,0.918844,-0.00777396,-0.00676315,0.674466,0.20866567113119094,1.5063913262271988,-0.007743820923520106,0.18504885312128105,-0.006740331371952846,-0.3004478958883574
949,0.8957,508.333,520.314,-0.270314,514.305,-4.5693,-4.55966,0.189676,0.169919,-0.357608,0.919604,-0.00778649,-0.00677397,0.675026,0.20885786425184905,1.5082969076643553,-0.0077562538155517835,0.18520884551569616,-0.006751078383426035,-0.30065283462987036
950,0.8967,508.45,520.388,-0.269304,514.379,-4.56838,-4.56815,0.189834,0.170055,-0.357901,0.920365,-0.00779879,-0.00678484,0.675586,0.20904887888415935,1.5102064480990691,-0.007768458338571871,0.18537004487999464,-0.006761874940524604,-0.30085771333312805
951,0.8977,508.552,520.401,-0.274262,514.464,-4.58309,-4.57219,0.189992,0.17019,-0.358195,0.921125,-0.00781135,-0.00679569,0.676145,0.209239923699166,1.512114930130935,-0.00778092068847136,0.18553008063822407,-0.006772651515718486,-0.3010632309528376
952,0.8987,508.672,520.482,-0.270965,514.537,-4.58043,-4.58071,0.19015,0.170326,-0.358488,0.921884,-0.00782364,-0.00680658,0.676704,0.20943099870163828,1.514022349136848,-0.007793114986021976,0.18569132369347008,-0.00678346770264926,-0.30126798942758704
953,0.8997,508.772,520.489,-0.27761,514.623,-4.59669,-4.58471,0.190308,0.170461,-0.358781,0.922643,-0.00783625,-0.00681745,0.677263,0.20962210389634595,1.5159312164233394,-0.0078056266359559645,0.1858514028272671,-0.006794263907677789,-0.30147268791689164
954,0.9007,508.894,520.577,-0.272758,514.694,-4.59226,-4.59351,0.190465,0.170596,-0.359073,0.923402,-0.00784854,-0.00682836,0.677822,0.20981202947542554,1.5178415330900714,-0.007817820629872352,0.18601150357320595,-0.006805099723149133,-0.3016766281153018
955,0.9017,508.991,520.576,-0.280863,514.781,-4.6105,-4.59723,0.190623,0.170731,-0.359366,0.92416,-0.0078612,-0.00683925,0.67838,0.21000319487775165,1.5197507804855013,-0.007830381576752199,0.18617162593420455,-0.006815915556720786,-0.30188120689100995
956,0.9027,509.117,520.672,-0.274569,514.851,-4.60398,-4.60648,0.190781,0.170866,-0.359658,0.924918,-0.00787348,-0.00685018,0.678938,0.21019439048659772,1.521661475639088,-0.007842565344857944,0.186331769913181,-0.006826770999438625,-0.3020850278192939
957,0.9037,509.211,520.66,-0.284175,514.939,-4.62459,-4.60978,0.190939,0.171001,-0.359951,0.925676,-0.00788619,-0.00686109,0.679495,0.21038561630673658,1.5235736196486482,-0.007855175585714136,0.1864919355130541,-0.006837606460259438,-0.30228948695141733
958,0.9047,509.34,520.766,-0.276322,515.007,-4.61559,-4.61961,0.191096,0.171136,-0.360243,0.926433,-0.00789846,-0.00687205,0.680053,0.21057566176667497,1.5254846881268795,-0.007867349128024892,0.1866521227367426,-0.006848491460442752,-0.30249318867932784
959,0.9057,509.431,520.743,-0.287611,515.097,-4.639,-4.62237,0.191254,0.17127,-0.360535,0.92719,-0.00791124,-0.00688298,0.68061,0.21076694783243544,1.5273972038316552,-0.007880028502281644,0.18681114477542793,-0.0068593465471079584,-0.3026968309350172
960,0.9067,509.563,520.861,-0.27797,515.163,-4.62705,-4.63289,0.191412,0.171405,-0.360827,0.927946,-0.00792348,-0.00689396,0.681166,0.21095826412378194,1.5293086385490375,-0.007892171976414564,0.18697137509527595,-0.006870251171616326,-0.30290041373584875
961,0.9077,509.65,520.825,-0.291211,515.255,-4.65375,-4.63499,0.191569,0.171539,-0.361118,0.928702,-0.00793634,-0.00690491,0.681723,0.21114839949648556,1.5312215188574307,-0.007904930401046117,0.18713043991664358,-0.006881125882826855,-0.30310324020276946
962,0.9087,509.786,520.955,-0.279478,515.318,-4.63831,-4.64634,0.191727,0.171674,-0.36141,0.929457,-0.00794855,-0.00691592,0.682279,0.21133977606195664,1.533133312715535,-0.007917043807893376,0.1872907133442454,-0.0068920600614381655,-0.3033067043494191
963,0.9097,509.869,520.904,-0.295007,515.413,-4.66891,-4.64764,0.191884,0.171807,-0.361701,0.930212,-0.00796149,-0.00692688,0.682835,0.21152997133673668,1.5350465505230249,-0.007929881278287865,0.1874486335105785,-0.00690294446481321,-0.30350941260297204
964,0.9107,510.01,521.05,-0.280816,515.472,-4.64934,-4.65995,0.192042,0.171942,-0.361992,0.930967,-0.00797366,-0.00693791,0.68339,0.21172140819532137,1.5369612333704934,-0.007941954698165832,0.18760894989721488,-0.0069138982649255,-0.30371206187700517
965,0.9117,510.088,520.98,-0.299032,515.57,-4.68452,-4.66032,0.192199,0.172075,-0.362283,0.931722,-0.00798669,-0.0069489,0.683946,0.21191166339105028,1.5388773623493575,-0.0079548811302802,0.18776691239182441,-0.006924812221211218,-0.3039146521886791
966,0.9127,510.235,521.146,-0.281948,515.626,-4.66007,-4.67376,0.192356,0.17221,-0.362574,0.932475,-0.00799881,-0.00695996,0.684501,0.2121019484591895,1.5407898569670633,-0.00796690464425831,0.18792727174901036,-0.006935795572050041,-0.30411718355514905
967,0.9137,510.306,521.054,-0.303321,515.728,-4.70065,-4.673,0.192514,0.172343,-0.362865,0.933229,-0.00801195,-0.00697096,0.685055,0.2122934756972994,1.542706334940617,-0.007979939873489661,0.18808527658324148,-0.0069467192182185444,-0.3043196559935659
968,0.9147,510.46,521.242,-0.282837,515.779,-4.67046,-4.68776,0.192671,0.172477,-0.363155,0.933982,-0.008024,-0.00698205,0.68561,0.21248382071467686,1.5446217138604874,-0.007991893643192527,0.18824449067740967,-0.006957732118035853,-0.304521374042797
969,0.9157,510.524,521.126,-0.307913,515.885,-4.71736,-4.68568,0.192828,0.17261,-0.363446,0.934735,-0.00803727,-0.00699306,0.686164,0.21267419561856804,1.5465385356038395,-0.008005057503421509,0.18840253770456417,-0.00696866545321706,-0.3047237288788939
970,0.9167,510.685,521.34,-0.28344,515.932,-4.68042,-4.70198,0.192985,0.172744,-0.363736,0.935487,-0.00804924,-0.00700418,0.686718,0.2128646004136654,1.548454252802001,-0.008016931611816491,0.1885617943145712,-0.006979707900261145,-0.3049253297639778
971,0.9177,510.742,521.194,-0.312855,516.042,-4.73473,-4.69834,0.193142,0.172877,-0.364026,0.936239,-0.00806265,-0.00701521,0.687271,0.2130550351046625,1.5503714111613047,-0.008030234015570792,0.18871988354591585,-0.006990660853677277,-0.3051268721932815
972,0.9187,510.912,521.439,-0.283707,516.083,-4.68987,-4.71644,0.193299,0.173011,-0.364316,0.93699,-0.00807452,-0.00702636,0.687824,0.21324549969625295,1.5522874594771747,-0.008042008626810593,0.18887918268311488,-0.007001732846082298,-0.30532835618375476
973,0.9197,510.958,521.258,-0.318196,516.2,-4.75285,-4.71096,0.193456,0.173143,-0.364606,0.937742,-0.00808808,-0.0070374,0.688377,0.21343599419313208,1.5542075014920167,-0.008055459485976524,0.18903612509320022,-0.007012695486437792,-0.30552978175234236
974,0.9207,511.14,521.54,-0.283582,516.234,-4.69873,-4.73117,0.193613,0.173277,-0.364896,0.938492,-0.00809983,-0.00704859,0.68893,0.21362651859999504,1.556123875668622,-0.008067114765852645,0.18919546660960584,-0.007023806952206613,-0.3057311489159842
975,0.9217,511.174,521.319,-0.323997,516.357,-4.77183,-4.72353,0.19377,0.173409,-0.365185,0.939243,-0.00811358,-0.00705965,0.689482,0.21381707292153806,1.5580442457079413,-0.00808075374925643,0.18935245077192508,-0.0070347892081696894,-0.30593176362372587
976,0.9227,511.368,521.643,-0.282999,516.384,-4.70687,-4.74618,0.193927,0.173543,-0.365475,0.939992,-0.00812519,-0.00707087,0.690034,0.21400765716245806,1.5599609385598443,-0.008092269864854229,0.18951183467881183,-0.007045930215333618,-0.30613301422952677
977,0.9237,511.389,521.375,-0.330323,516.515,-4.79179,-4.73602,0.194084,0.173674,-0.365763,0.940743,-0.00813915,-0.00708193,0.690586,0.21419827132745306,1.5618841913157193,-0.008106116800115082,0.18966767093620662,-0.007056912226614753,-0.30633281914813937
978,0.9247,511.598,521.75,-0.281884,516.532,-4.71419,-4.76152,0.19424,0.173808,-0.366053,0.941491,-0.00815058,-0.0070932,0.691137,0.21438770103291294,1.5638011975617783,-0.008117454082407383,0.18982709708542544,-0.007068102632155959,-0.3065339534647009
979,0.9257,511.674,521.682,-0.304795,516.627,-4.74767,-4.76583,0.194397,0.17394,-0.366342,0.94224,-0.00816369,-0.0071044,0.691689,0.21457837486947962,1.5657222039858505,-0.008130457577346206,0.18998416462847056,-0.007079223407129964,-0.3067343361954503
980,0.9267,511.774,521.665,-0.30631,516.715,-4.76983,-4.76543,0.194554,0.174072,-0.36663,0.942989,-0.00817667,-0.00711551,0.69224,0.2147690786441887,1.5676446497827126,-0.008143331960451916,0.19014125290579975,-0.0070902546956790324,-0.3069339679582723
981,0.9277,511.884,521.71,-0.311474,516.789,-4.77458,-4.77444,0.19471,0.174205,-0.366919,0.943736,-0.00818942,-0.00712674,0.69279,0.2149585974025361,1.5695633968989249,-0.008155978052350465,0.19029955221910733,-0.00710140500950962,-0.30713423510153626
982,0.9287,511.99,521.723,-0.313804,516.871,-4.78889,-4.7789,0.194867,0.174337,-0.367207,0.944484,-0.00820233,-0.00713793,0.693341,0.2151493608768691,1.5714861493395693,-0.008168782676019726,0.19045668213034617,-0.007112515482624371,-0.3073337517100564
983,0.9297,512.107,521.785,-0.313616,516.942,-4.78985,-4.78799,0.195023,0.174469,-0.367496,0.945231,-0.00821506,-0.00714917,0.693891,0.21533893896387224,1.5734077671280136,-0.008181408607052076,0.19061383278410227,-0.007123675475231073,-0.30753390333250963
984,0.9307,512.211,521.796,-0.318001,517.024,-4.80411,-4.79316,0.19518,0.174601,-0.367784,0.945978,-0.008228,-0.0071604,0.69444,0.2155297621565182,1.5753308209012187,-0.008194242656588191,0.19077100418311388,-0.007134825413748436,-0.30773330485315264
985,0.9317,512.33,521.863,-0.315783,517.094,-4.80375,-4.8022,0.195336,0.174733,-0.368072,0.946725,-0.00824073,-0.00717166,0.69499,0.21571939959075004,1.5772553117322672,-0.00820686826351702,0.19092819633011948,-0.00714600501267304,-0.3079326489544265
986,0.9327,512.432,521.869,-0.321553,517.176,-4.8191,-4.80743,0.195493,0.174864,-0.368359,0.947471,-0.00825372,-0.00718291,0.695539,0.21591028252040356,1.5791786615150905,-0.008219751572621004,0.19108421814304455,-0.007157174557287815,-0.3081312437844552
987,0.9337,512.554,521.941,-0.31812,517.245,-4.81751,-4.81666,0.195649,0.174996,-0.368647,0.948216,-0.00826646,-0.0071942,0.696088,0.21609997932044256,1.5811008655500163,-0.0082323867724996,0.19124145163702155,-0.007168383689511448,-0.30833047329581864
988,0.9347,512.654,521.941,-0.324976,517.328,-4.83426,-4.82175,0.195806,0.175127,-0.368935,0.948962,-0.0082795,-0.00720548,0.696636,0.21629092200580446,1.58302708518631,-0.00824531933785555,0.19139751448907982,-0.007179582766980497,-0.3085296454373444
989,0.9357,512.778,522.019,-0.32052,517.396,-4.83127,-4.8313,0.195962,0.175259,-0.369222,0.949706,-0.00829224,-0.00721679,0.697185,0.21648067819023487,1.5849495724142568,-0.008257954212002927,0.1915547893409042,-0.007190811502400751,-0.3087280689539672
990,0.9367,512.876,522.012,-0.328414,517.479,-4.84964,-4.83614,0.196118,0.17539,-0.369509,0.950451,-0.00830533,-0.00722809,0.697733,0.2166704639789392,1.5868760773797002,-0.008270936030416065,0.19171089324289015,-0.007202030182845154,-0.308926435531212
991,0.9377,513.002,522.096,-0.322917,517.546,-4.84502,-4.84611,0.196274,0.175521,-0.369796,0.951195,-0.00831807,-0.00723943,0.698281,0.21686027937653596,1.588801429323381,-0.008283570578208832,0.1918670175958268,-0.0072132884479884085,-0.309124745185418
992,0.9387,513.098,522.082,-0.331922,517.631,-4.86526,-4.85062,0.19643,0.175652,-0.370083,0.951939,-0.00833122,-0.00725076,0.698828,0.2170501243876446,1.5907282142619161,-0.008296611563511025,0.19202316240239337,-0.0072245366577090575,-0.3093229979329196
993,0.9397,513.226,522.173,-0.325277,517.696,-4.85875,-4.86107,0.196586,0.175783,-0.37037,0.952682,-0.00834396,-0.00726213,0.699375,0.21723999901688495,1.592653840606713,-0.00830924578419956,0.19217932766526946,-0.007235824450556039,-0.30952119379004694
994,0.9407,513.32,522.15,-0.335526,517.782,-4.88114,-4.86519,0.196743,0.175914,-0.370657,0.953425,-0.00835717,-0.00727348,0.699922,0.2174311206993902,1.594580898223536,-0.008322345932536113,0.19233551338713495,-0.007247092260003529,-0.30971933277312513
995,0.9417,513.451,522.25,-0.32758,517.846,-4.87245,-4.87618,0.196899,0.176045,-0.370943,0.954167,-0.00836991,-0.00728488,0.700469,0.21762105476869142,1.596506791668125,-0.008334979825370792,0.19249171957067035,-0.007258409578642988,-0.30991672481554444
996,0.9427,513.542,522.217,-0.339244,517.933,-4.8973,-4.87984,0.197055,0.176175,-0.371229,0.95491,-0.00838318,-0.00729625,0.701015,0.21781101847001882,1.5984367130913593,-0.008348139132876353,0.1926467535712062,-0.007269696986357044,-0.3101140604119118
997,0.9437,513.676,522.326,-0.329811,517.994,-4.8861,-4.89147,0.197211,0.176306,-0.371516,0.955651,-0.0083959,-0.00730768,0.701561,0.21800101180799514,1.6003628682481108,-0.008360752864323029,0.19280300052987642,-0.007281043828873179,-0.3103120292666841
998,0.9447,513.764,522.281,-0.343091,518.083,-4.91376,-4.89458,0.197367,0.176436,-0.371802,0.956393,-0.00840925,-0.00731908,0.702107,0.21819103478724422,1.6022930535065245,-0.008373991159906558,0.1929580749995674,-0.007292360760466909,-0.31050925182214406
999,0.9457,513.901,522.402,-0.331955,518.143,-4.89968,-4.90692,0.197522,0.176567,-0.372087,0.957134,-0.00842196,-0.00733053,0.702652,0.2183798690319123,1.604222067270507,-0.008386594646383583,0.19311436274401617,-0.007303727197863208,-0.3107057286860917
