,Time,S11,S22,S33,S12,S13,S23,LE11,LE22,LE33,LE12,LE13,LE23,SDV_EPBAR,E11,E12,E13,E22,E23,E33
0,1e-05,1.04203,1.04203,-2.22045e-16,1.04203,-6.00101e-18,-1.80033e-17,3.49998e-06,3.49998e-06,-2.99999e-06,1.29999e-05,-2.99404e-22,-6.38851e-26,0.0,3.499986124921861e-06,1.2999984499106887e-05,0.0,3.499986124921861e-06,0.0,-2.999985500018454e-06
1,2e-05,2.08405,2.08405,2.22045e-16,2.08405,-5.40095e-17,-6.60119e-17,6.99994e-06,6.99994e-06,-5.99996e-06,2.59997e-05,-1.19787e-21,-5.98928e-22,0.0,6.999964499598832e-06,2.600003799502204e-05,0.0,6.999964499598832e-06,0.0,-5.9999420002343484e-06
2,3.5e-05,3.64707,3.64707,-6.66134e-16,3.64707,-4.20065e-17,-3.00042e-17,1.22498e-05,1.22498e-05,-1.04998e-05,4.54992e-05,-5.98929e-22,-5.98929e-22,0.0,1.2249875029013424e-05,4.550023510430101e-05,0.0,1.2249875029013424e-05,0.0,-1.0499744877323636e-05
3,5.75e-05,5.99155,5.99155,-3.9968e-15,5.99155,-4.20047e-17,-7.80117e-17,2.01244e-05,2.01244e-05,-1.72495e-05,7.47478e-05,1.19796e-21,-1.19785e-21,0.0,2.0124602497118005e-05,7.475059368644565e-05,0.0,2.0124602497118005e-05,0.0,-1.7249351228265652e-05
4,9.125e-05,9.50816,9.50816,-2.79776e-14,9.50816,-9.00093e-17,-1.26016e-16,3.19361e-05,3.19361e-05,-2.73738e-05,0.00011862,-3.5936e-21,1.19808e-21,0.0,3.193660996259062e-05,0.0001186270356303698,0.0,3.193660996259062e-05,0.0,-2.737342534098186e-05
5,0.00014188,14.7829,14.7829,-1.57652e-13,14.7829,-1.38005e-16,-2.70031e-16,4.96528e-05,4.96528e-05,-4.25595e-05,0.000184424,4.71863e-25,-4.79128e-21,0.0,4.965403272061408e-05,0.00018444100715142575,0.0,4.965403272061408e-05,0.0,-4.255859435731146e-05
6,0.00021781,22.6944,22.6944,-8.00693e-13,22.6944,-5.22036e-16,-3.66006e-16,7.62261e-05,7.62261e-05,-6.53367e-05,0.000283125,-1.4374e-20,4.79342e-21,0.0,7.622900528292398e-05,0.0002831650836656596,0.0,7.622900528292398e-05,0.0,-6.533456560431361e-05
7,0.00033172,34.5606,34.5606,-4.05498e-12,34.5606,-8.09983e-16,-6.53953e-16,0.000116082,0.000116082,-9.94992e-05,0.000431163,-2.15601e-20,7.19196e-21,0.0,0.00011608873777602113,0.00043125596412663114,0.0,0.00011608873777602113,0.0,-9.949425011879232e-05
8,0.00050258,52.3574,52.3574,-2.05111e-11,52.3574,-9.05775e-16,-1.13382e-15,0.000175858,0.000175858,-0.000150736,0.000653187,-2.87453e-20,9.59285e-21,0.0,0.0001758734639245585,0.0006534003730833682,0.0,0.0001758734639245585,0.0,-0.00015072463989995732
9,0.00075887,79.0468,79.0468,-1.03758e-10,79.0468,-7.13335e-16,-1.70953e-15,0.000265503,0.000265503,-0.000227574,0.000986153,-3.35335e-20,4.80753e-21,0.0,0.00026553824904107515,0.0009866394087476582,0.0,0.00026553824904107515,0.0,-0.0002275481070015406
10,0.0011433,119.068,119.068,-5.24726e-10,119.068,-1.48088e-15,-9.40773e-16,0.000399927,0.000399927,-0.000342794,0.00148544,-5.74957e-20,1.91952e-20,0.0,0.00040000698146447355,0.0014865438124782582,0.0,0.00040000698146447355,0.0,-0.00034273525284966855
11,0.00172,178.774,178.795,0.00442981,178.799,0.00102308,0.000971037,0.000601095,0.000601221,-0.00051602,0.00223463,1.27913e-08,1.21408e-08,2.67403e-06,0.0006012756938023056,0.002237128646455311,1.2791300019188157e-08,0.0006014017695710194,1.2140799920956624e-08,-0.0005158868845774878
12,0.0019362,180.588,180.702,-0.105058,180.739,0.0060738,-0.014126,0.000656517,0.000656766,-0.000619688,0.00255536,3.94047e-08,-1.58433e-07,0.000199996,0.0006567325544548641,0.002558627715168127,3.940470083563241e-08,0.0006569817180122062,-1.5843298739603995e-07,-0.0006194960330465626
13,0.0021524,182.689,182.657,0.0755457,182.608,-0.00843369,0.00612258,0.000712912,0.000711708,-0.000722562,0.00287563,-1.96884e-07,1.40756e-07,0.000397589,0.0007131661821595525,0.0028797685900154857,-1.9688398056327827e-07,0.0007119613242327905,1.4075600995866466e-07,-0.0007223010149411957
14,0.0023687,184.196,184.374,-0.126606,184.399,0.00518944,-0.020626,0.00076756,0.000767325,-0.000826721,0.00319688,-5.6813e-08,-1.92645e-07,0.000596484,0.0007678546495590854,0.0032019954705966303,-5.681299841686638e-08,0.0007676194691408345,-1.926449814115827e-07,-0.0008263793603474623
15,0.002693,187.212,187.126,0.251147,186.979,-0.019477,0.0211119,0.000852228,0.00084931,-0.000980987,0.00367732,-5.35996e-07,4.94225e-07,0.00089473,0.0008525912494650179,0.0036840896366878706,-5.359958563655454e-07,0.0008496707658647296,4.942251221606853e-07,-0.0009805059895541257
16,0.0031796,190.767,190.814,0.29125,190.587,-0.0162246,0.0166538,0.000976938,0.000973137,-0.00121444,0.00439903,-9.58943e-07,8.88155e-07,0.00134494,0.0009774153593653523,0.004408719936033201,-9.589425402634077e-07,0.0009736106514404153,8.881553943407283e-07,-0.0012137028661749483
17,0.0033621,191.583,191.903,-0.114309,191.853,0.00133245,-0.0405498,0.00102215,0.00101998,-0.00130346,0.0046707,-7.53328e-07,1.3333e-07,0.0015152,0.00102267257334554,0.004681624721321276,-7.53327716207508e-07,0.001020500356502918,1.3333000881132762e-07,-0.0013026108649920598
18,0.0036357,193.395,193.751,-0.16844,193.709,0.00672118,-0.0477755,0.00109168,0.00108953,-0.00143531,0.00507708,-7.23412e-07,-5.57228e-09,0.00177019,0.001092276099508016,0.005089990210139339,-7.234117382903804e-07,0.0010901237534282071,-5.572279970778027e-09,-0.0014342804352424077
19,0.0040463,196.423,196.57,0.155326,196.391,-0.014292,-0.00883385,0.00119721,0.00119294,-0.00163181,0.00568604,-1.19483e-06,6.12566e-07,0.00215306,0.001197926941973515,0.005702236208319222,-1.1948292861774235e-06,0.0011936518359527692,6.125661875522326e-07,-0.0016304793219649172
20,0.0046621,199.629,200.08,-0.346457,200.096,0.0120705,-0.0831758,0.00135261,0.00134919,-0.00193041,0.00660064,-1.36711e-06,-1.37968e-07,0.00273084,0.001353525189490945,0.006622472233341892,-1.3671090655087426e-06,0.0013501005662910348,-1.3796799047671726e-07,-0.0019285479569775
21,0.0052778,203.771,203.962,0.36067,203.617,-0.00988914,0.00813869,0.00151021,0.0015038,-0.00222493,0.00751391,-2.13724e-06,1.4777e-06,0.00330906,0.001511350941403533,0.0075422102592053175,-2.1372377161377187e-06,0.0015049312742190235,1.4777010917121913e-06,-0.0022224566779104338
22,0.0058936,206.96,207.211,0.325479,206.861,-0.0069074,-0.00446121,0.00166572,0.00165861,-0.00252213,0.00842833,-2.51593e-06,1.6773e-06,0.00389032,0.001667108082170854,0.008463948370765584,-2.515926835089388e-06,0.0016599862543507093,1.6773014066551184e-06,-0.0025189521023832873
23,0.0065094,209.392,209.941,-0.29131,209.868,0.0160784,-0.0909732,0.00181942,0.00181386,-0.00282165,0.00934336,-2.49631e-06,5.41722e-07,0.00447408,0.0018210761488259841,0.009387145449540224,-2.4963068842032143e-06,0.0018155060391276123,5.41722146696344e-07,-0.0028176728871915913
24,0.0071252,212.895,213.173,0.355557,212.789,-0.00335018,-0.00437628,0.00197561,0.00196761,-0.00311679,0.0102567,-3.03654e-06,1.8801e-06,0.00505723,0.0019775628032168147,0.010309480243478664,-3.0365353896888436e-06,0.001969547014777584,1.8801017673819587e-06,-0.0031119378523987162
25,0.007741,215.584,215.897,0.333298,215.511,-0.00129042,-0.0116047,0.00212999,0.00212161,-0.00341428,0.0111708,-3.26579e-06,1.98469e-06,0.00564257,0.0021322600401347813,0.011233426364608112,-3.26578466736116e-06,0.002123862206982796,1.984691969436625e-06,-0.003408457973934631
26,0.0083568,217.576,218.175,-0.264005,218.056,0.0245108,-0.0935565,0.00228268,0.00227614,-0.00371395,0.0120853,-3.06671e-06,7.98502e-07,0.00622977,0.0022852872974890026,0.012158622314387246,-3.0667052977051412e-06,0.0022787323731447984,7.985023187107032e-07,-0.0037070618177921233
27,0.0089726,219.932,220.575,-0.377305,220.513,0.0321203,-0.105521,0.00243617,0.0024301,-0.00401204,0.0129988,-3.03911e-06,4.16755e-07,0.00681706,0.0024391398733503156,0.013083651658697848,-3.0391053819078806e-06,0.002433055086238589,4.167550868849901e-07,-0.004004002520009098
28,0.0092035,221.391,221.723,0.133232,221.439,0.00977641,-0.030493,0.00249517,0.00248718,-0.00412207,0.0133404,-3.31049e-06,1.31377e-06,0.00703666,0.0024982855273822935,0.013429780149484705,-3.310484520291368e-06,0.0024902755980806823,1.3137708629873401e-06,-0.004113585930769936
29,0.0095499,222.805,223.085,0.235587,222.763,0.00377493,-0.0168514,0.00258176,0.00257336,-0.0042892,0.013854,-3.40263e-06,1.47001e-06,0.00736729,0.0025850956123145696,0.01395041137122277,-3.4026242110574145e-06,0.0025766739328825228,1.4700110804177768e-06,-0.004280014519160935
30,0.010069,224.172,224.767,-0.256098,224.647,0.0321417,-0.0809265,0.00270967,0.00270348,-0.00454204,0.014625,-3.03266e-06,4.88459e-07,0.00786455,0.00271334447387539,0.014732468582704383,-3.032655401469242e-06,0.0027071376974832084,4.884591193743404e-07,-0.004531740535745787
31,0.010849,227.777,228.018,0.632371,227.457,0.00355692,0.0332533,0.00290551,0.0028963,-0.00491531,0.0157789,-3.68079e-06,2.37979e-06,0.00860842,0.002909735085198095,0.01590404418875324,-3.6807832258789475e-06,0.0029004983290734643,2.3797928316859895e-06,-0.004903249632042361
32,0.011433,228.799,229.456,-0.340509,229.361,0.036658,-0.101342,0.0030485,0.00304228,-0.00520115,0.0166461,-3.24178e-06,4.32502e-07,0.00916946,0.003053151401523291,0.01678541828444624,-3.241774745421644e-06,0.003046912430324733,4.325020934725643e-07,-0.005187647439096499
33,0.012018,230.626,231.304,-0.425004,231.259,0.0413126,-0.107356,0.0031932,0.00318755,-0.00548397,0.0175116,-3.13168e-06,6.18509e-08,0.00972944,0.0031983036940461673,0.017665827005886703,-3.1316750962462336e-06,0.0031926356396425604,6.185090195565124e-08,-0.005468960486294638
34,0.012602,233.314,233.573,0.409538,233.157,0.00663452,0.0106775,0.00334005,0.00333148,-0.0057634,0.0183757,-3.62863e-06,1.65871e-06,0.0102883,0.0033456341824198432,0.01854557208612473,-3.628623416518373e-06,0.0033370355471802338,1.6587113755850424e-06,-0.005746823471231011
35,0.012822,233.715,234.071,0.0913793,233.803,0.0149558,-0.0362338,0.00339385,0.00338594,-0.00587051,0.0187003,-3.50818e-06,1.02746e-06,0.0104989,0.003399615629626762,0.018876245644238843,-3.508173846311635e-06,0.003391678770057416,1.0274605277693638e-06,-0.00585331222586194
36,0.01315,234.723,235.105,0.139193,234.807,0.0174522,-0.0241056,0.00347513,0.00346746,-0.00602923,0.0191867,-3.45412e-06,1.14154e-06,0.0108141,0.0034811752649239747,0.019371947595061778,-3.454114034573408e-06,0.0034734785938264068,1.1415406515613569e-06,-0.0060110906665171715
37,0.013644,235.941,236.43,-0.094737,236.255,0.0244724,-0.0559655,0.00359651,0.00358967,-0.00626823,0.0199164,-3.33714e-06,6.17664e-07,0.0112875,0.0036029852024730413,0.02011605475970346,-3.3371344317911777e-06,0.003596120581531359,6.176641906829872e-07,-0.006248625629289184
38,0.014383,237.77,238.366,-0.409496,238.354,0.0369816,-0.0939851,0.00377858,0.00377272,-0.00662643,0.0210104,-3.17274e-06,-1.24187e-07,0.0119977,0.003785727833459429,0.021232672402093478,-3.1727349668608795e-06,0.0037798456663291624,-1.2418699224525653e-07,-0.006604523626452141
39,0.014633,239.097,239.372,0.164715,239.086,0.018597,-0.0104519,0.00384185,0.00383398,-0.00674534,0.0213787,-3.37807e-06,9.06077e-07,0.0122367,0.003849239365625756,0.021608861666339907,-3.3780642942904393e-06,0.0038413391031995037,9.060774104341363e-07,-0.00672264125972466
40,0.015008,240.22,240.449,0.265948,240.129,0.0102209,0.00228638,0.00393464,0.00392638,-0.00692603,0.0219326,-3.47432e-06,1.08396e-06,0.0125965,0.0039423908582429945,0.022174887561216883,-3.474313964524356e-06,0.003934098328342683,1.0839605875112568e-06,-0.006902100331957262
41,0.015571,241.146,241.714,-0.264192,241.611,0.0402543,-0.0670323,0.00407171,0.00406589,-0.00719928,0.022764,-3.01806e-06,4.56138e-08,0.0131372,0.0040800106733165364,0.023025077137569294,-3.0180554456693542e-06,0.004074166944659785,4.5613800958577144e-08,-0.007173427261311649
42,0.016415,244.268,244.453,0.692605,243.878,0.00712174,0.0557038,0.00428154,0.00427262,-0.00760243,0.0240084,-3.58341e-06,2.03987e-06,0.0139457,0.004290718887635325,0.02429892196542882,-3.583403579643374e-06,0.004281760654376576,2.039872080583649e-06,-0.007573604622939434
43,0.017047,244.823,245.455,-0.374424,245.396,0.0418423,-0.0920664,0.00443485,0.00442918,-0.00791119,0.0249434,-3.06238e-06,-8.17161e-08,0.0145549,0.004444698500753574,0.025257089330905425,-3.0623753108915963e-06,0.0044390033154591,-8.171609666707269e-08,-0.00787997889628178
44,0.01768,247.139,247.388,0.378795,247.003,0.00695718,0.0140861,0.00459218,0.00458388,-0.00821346,0.0258754,-3.53315e-06,1.35464e-06,0.0151613,0.004602740217194423,0.026213074357985144,-3.5331437584495973e-06,0.004594402049054036,1.3546409174391982e-06,-0.008179821696036371
45,0.018313,247.8,248.464,-0.464342,248.452,0.0456394,-0.101017,0.00474546,0.00474027,-0.00852127,0.0268089,-2.94193e-06,-3.9619e-07,0.0157703,0.004756737527267241,0.0271714915345167,-2.941925672517165e-06,0.004751522853331469,-3.961899215365605e-07,-0.008485066883949344
46,0.018946,249.305,249.937,-0.442372,249.926,0.0457138,-0.0918358,0.00490065,0.00489573,-0.00882602,0.0277408,-2.82885e-06,-5.63591e-07,0.0163779,0.004912677825238632,0.0281291588032353,-2.828845998781304e-06,0.004907733667026237,-5.635908412182644e-07,-0.008787185022226973
47,0.019183,250.501,250.761,0.136434,250.503,0.0175954,-0.00831098,0.00496056,0.00495331,-0.0089385,0.028089,-3.15756e-06,4.69159e-07,0.0166048,0.004972883947223394,0.028487215710420566,-3.157555014898783e-06,0.004965597920226772,4.6915911000589006e-07,-0.008898670369602124
48,0.019539,251.394,251.607,0.231069,251.316,0.0104562,0.00379363,0.00504809,0.00504046,-0.00910961,0.0286127,-3.2328e-06,6.34999e-07,0.0169464,0.005060853073667992,0.029025975527232628,-3.2327947745436347e-06,0.005053184488614804,6.349992016652095e-07,-0.009068243209897076
49,0.020073,252.06,252.588,-0.219455,252.476,0.0380642,-0.0541055,0.00517741,0.00517203,-0.00936812,0.0293989,-2.79999e-06,-2.25755e-07,0.0174598,0.005190835947698869,0.02983531385840177,-2.799986079993211e-06,0.005185428035548778,-2.2575497449217607e-07,-0.009324375870491508
50,0.020874,254.47,254.689,0.458994,254.261,0.00992538,0.0343591,0.00537493,0.00536719,-0.00975064,0.0305759,-3.20466e-06,1.13168e-06,0.0182275,0.005389400851239623,0.031048143633121583,-3.2046548650299655e-06,0.005381619167392104,1.1316806403094404e-06,-0.009703256640877456
51,0.021675,255.261,255.854,-0.467385,255.879,0.040213,-0.0915872,0.00556866,0.00556369,-0.0101387,0.0317542,-2.73997e-06,-7.6179e-07,0.0189977,0.005584193807877114,0.03226374369089435,-2.7399662463345464e-06,0.005579196066853198,-7.617897098688431e-07,-0.010087476640077364
52,0.022476,256.924,257.494,-0.45087,257.519,0.0409134,-0.0835688,0.00576414,0.00575941,-0.0105234,0.0329302,-2.63498e-06,-9.50815e-07,0.0197662,0.005780784620242674,0.033478399931357705,-2.634976528415045e-06,0.005776027288382446,-9.508145479841801e-07,-0.010468222746604638
53,0.023277,259.424,259.624,0.486792,259.182,0.0140562,0.0444841,0.00596143,0.00595397,-0.0109044,0.0341043,-2.98633e-06,9.2383e-07,0.020533,0.005979234686703361,0.0346925195301544,-2.986325540965673e-06,0.005971730109604723,9.238304268244235e-07,-0.010845162542147402
54,0.024078,260.945,261.156,0.458563,260.735,0.00600603,0.0353875,0.00615659,0.0061488,-0.0112884,0.0352791,-3.1354e-06,1.04096e-06,0.0213012,0.006175580752970866,0.03590879059983787,-3.1353950846746415e-06,0.006167742675726062,1.040960541764946e-06,-0.011224925080657311
55,0.024878,261.734,262.285,-0.282216,262.191,0.0418999,-0.0659023,0.00634981,0.00634451,-0.0116749,0.0364537,-2.57488e-06,-4.43016e-07,0.0220702,0.006370012782157319,0.03712628395914663,-2.574876684979799e-06,0.006364679035224086,-4.4301590185202855e-07,-0.011607012803904637
56,0.025679,263.027,263.618,-0.48525,263.656,0.0401938,-0.0885772,0.00654409,0.0065395,-0.0120594,0.0376267,-2.48778e-06,-1.04769e-06,0.0228382,0.006565549342047117,0.03834354687535879,-2.487776905479855e-06,0.006560929216778755,-1.0476894511946e-06,-0.011986976854711617
57,0.02648,265.438,265.613,0.511253,265.172,0.00483044,0.0478598,0.0067408,0.00673316,-0.0124393,0.0387974,-2.96881e-06,9.23675e-07,0.023604,0.0067635703269735,0.03955984748833408,-2.968805593139834e-06,0.006755878682678462,9.236754265895541e-07,-0.012362251714231554
58,0.027281,265.88,266.471,-0.481818,266.507,0.0394992,-0.0874156,0.00693298,0.0069284,-0.012826,0.0399699,-2.42593e-06,-1.08455e-06,0.0243727,0.00695706874258617,0.04077944625957275,-2.425927057458921e-06,0.006952456889772529,-1.0845494118338905e-06,-0.012744097396872545
59,0.028082,267.293,267.855,-0.453457,267.885,0.0394638,-0.0778071,0.00712715,0.00712278,-0.013209,0.04114,-2.3128e-06,-1.24398e-06,0.0251394,0.007152608579994668,0.041997975050882985,-2.3127973254322143e-06,0.007148207332712042,-1.2439792262952665e-06,-0.013122144007022385
60,0.028883,269.535,269.721,0.468386,269.299,0.0112344,0.0484506,0.00732312,0.00731601,-0.0135885,0.0423082,-2.66773e-06,5.90018e-07,0.0259044,0.0073499996174273274,0.04321594836503717,-2.6677264416408164e-06,0.007342837384391787,5.900181740958743e-07,-0.01349659309716289
61,0.029684,270.845,271.031,0.46644,270.618,0.00190238,0.0429717,0.00751704,0.00750953,-0.0139708,0.043477,-2.82549e-06,7.53151e-07,0.0266706,0.0075453638712588145,0.04443597200841465,-2.825486008273259e-06,0.007537797233988952,7.531512835612375e-07,-0.013873661268448467
62,0.030485,271.384,271.928,-0.296537,271.848,0.0400242,-0.0616952,0.0077089,0.00770399,-0.0143557,0.0446457,-2.22842e-06,-7.67501e-07,0.0274376,0.00773869006996053,0.04565731788334726,-2.228417517069481e-06,0.00773374208513955,-7.675007054341876e-07,-0.014253148259269821
63,0.031286,273.422,273.599,0.491185,273.173,-0.000740287,0.045729,0.00790417,0.00789657,-0.0147348,0.0458117,-2.78369e-06,8.09067e-07,0.0282018,0.007935490417946944,0.04687726540719006,-2.7836861254959544e-06,0.007927830137328895,8.090673273564164e-07,-0.014626774065518489
64,0.032087,273.714,274.309,-0.475917,274.339,0.036474,-0.0860152,0.00809528,0.00809077,-0.01512,0.046979,-2.21066e-06,-1.15378e-06,0.0289685,0.008128135377123646,0.04809999874857418,-2.210657556456219e-06,0.008123588729485709,-1.1537793344063019e-06,-0.015006266737167429
65,0.032887,274.9,275.492,-0.515104,275.55,0.0390542,-0.0851835,0.00828823,0.00828417,-0.0155018,0.0481441,-2.05672e-06,-1.45824e-06,0.0297333,0.008322672468206838,0.04932185170934078,-2.0567178850017243e-06,0.008318578686467015,-1.4582389367134851e-06,-0.015382265561784125
66,0.033688,276.149,276.693,-0.465873,276.746,0.0357852,-0.0726315,0.00848123,0.00847724,-0.015883,0.0493082,-1.98802e-06,-1.56455e-06,0.0304976,0.00851729752470698,0.05054407853601717,-1.9880180238684986e-06,0.008513273548717892,-1.5645487760895804e-06,-0.015757530312146217
67,0.034489,278.21,278.386,0.448622,277.979,0.0100165,0.0522887,0.00867597,0.0086693,-0.0162607,0.0504704,-2.30303e-06,2.46288e-07,0.0312601,0.008713715307805847,0.05176573062861456,-2.3030273480495467e-06,0.008706987209762929,2.4628803041437664e-07,-0.016129208497103642
68,0.034739,277.845,278.398,-0.198097,278.306,0.0321132,-0.0413576,0.00873434,0.0087302,-0.0163819,0.0508344,-1.98704e-06,-9.75093e-07,0.0314996,0.008772595645774262,0.05214864304039457,-1.9870380257858145e-06,0.008768419335873245,-9.750925246132525e-07,-0.01624844641107015
69,0.035114,278.351,278.906,-0.250835,278.835,0.0336579,-0.0436924,0.0088245,0.00882063,-0.0165606,0.0513785,-1.90573e-06,-1.08555e-06,0.0318572,0.008863550683189114,0.05272127288689554,-1.9057281841483587e-06,0.008859646388802878,-1.0855494108064079e-06,-0.016424227107223577
70,0.035677,279.731,279.94,0.245481,279.659,0.00243699,0.0232493,0.00896138,0.00895518,-0.0168264,0.0521936,-2.29823e-06,-1.73194e-07,0.0323925,0.009001653377539443,0.053579695799156335,-2.29822735908769e-06,0.008995397586681442,-1.7319398504245243e-07,-0.01668562680609953
71,0.036521,281.082,281.267,0.465286,280.853,-0.00183949,0.04586,0.00916433,0.00915759,-0.0172261,0.053417,-2.3979e-06,3.44516e-07,0.033196,0.009206451044232677,0.054869433970973436,-2.397897125083759e-06,0.009199649015675604,3.44516059236355e-07,-0.01707857902433274
72,0.037521,281.526,282.095,-0.496038,282.147,0.0334921,-0.0808024,0.0094021,0.00939821,-0.0177038,0.0548672,-1.85542e-06,-1.58087e-06,0.0341495,0.00944643859188643,0.056400315397943546,-1.8554182786845175e-06,0.00944251185287781,-1.5808687504614838e-06,-0.017548008454986497
73,0.037771,282.209,282.669,-0.0803089,282.524,0.0217842,-0.02216,0.00946265,0.00945819,-0.0178211,0.0552285,-1.97423e-06,-8.76234e-07,0.0343868,0.009507562424248661,0.05678206179022993,-1.9742280512602406e-06,0.009503060030560562,-8.762336161094453e-07,-0.01766324331493807
74,0.038146,282.667,283.115,-0.160732,283.016,0.0210179,-0.0364325,0.00955259,0.0095482,-0.0179995,0.0557711,-1.94655e-06,-1.12107e-06,0.0347438,0.009598361617591644,0.05735562733121635,-1.946548105480339e-06,0.00959392949051252,-1.121069371556871e-06,-0.0178384765610603
75,0.038708,283.787,284.059,0.189757,283.783,0.00799469,0.0150541,0.00968831,0.00968275,-0.0182651,0.0565842,-2.09474e-06,-4.27186e-07,0.0352782,0.009735393606010723,0.058215712812165865,-2.0947378059910093e-06,0.009729779492829493,-4.2718590875789886e-07,-0.01809930402226556
76,0.039552,284.224,284.782,-0.486202,284.837,0.0279616,-0.0705888,0.00988874,0.00988538,-0.0186672,0.0578051,-1.76195e-06,-1.76217e-06,0.0360814,0.009937795153944773,0.05950847738348819,-1.7619484478093028e-06,0.009934401768653789,-1.7621684473834165e-06,-0.018494046923739238
77,0.040552,286.735,286.811,0.801859,286.216,-0.00832045,0.0945657,0.0101304,0.0101233,-0.0191355,0.0592485,-2.30904e-06,8.25499e-07,0.0370294,0.010181886213856517,0.061038876142825105,-2.309037334113917e-06,0.010174713947925795,8.254993406620059e-07,-0.018953578553835504
78,0.041302,287.47,287.582,0.555408,287.145,-0.0140091,0.0582121,0.0103095,0.0103021,-0.0194909,0.0603316,-2.45287e-06,6.08424e-07,0.0377419,0.010362825992350944,0.062188709929656305,-2.4528669917422974e-06,0.010355349335102071,6.084241850334848e-07,-0.019302180501782007
79,0.042052,287.643,288.168,-0.188014,288.016,0.0350943,-0.0445965,0.0104867,0.0104822,-0.0198481,0.0614144,-1.73016e-06,-8.2075e-07,0.0384548,0.010541878148669248,0.06333947077425472,-1.7301585032436506e-06,0.010537330720449267,-8.20749663232867e-07,-0.019652423205835823
80,0.043052,288.37,288.994,-0.748138,289.202,0.0336225,-0.110505,0.0107241,0.0107209,-0.0203222,0.0628566,-1.63511e-06,-2.13895e-06,0.039404,0.010781809269238884,0.06487412533240788,-1.6351086632448997e-06,0.010778574772624339,-2.138947712393424e-06,-0.020117095832643983
81,0.044052,291.025,291.097,0.788974,290.516,-0.0109731,0.0947687,0.0109654,0.0109579,-0.0207883,0.0642949,-2.28884e-06,9.33766e-07,0.0403492,0.01102574034891668,0.06640683577135831,-2.2888373806262408e-06,0.011018157684299146,9.337664359510001e-07,-0.02057371283141818
82,0.044802,290.712,291.303,-0.438777,291.309,0.0326253,-0.0747038,0.0111412,0.0111374,-0.0211463,0.0653756,-1.64455e-06,-1.43894e-06,0.0410614,0.011203494298184458,0.06755992459809845,-1.6445486477056903e-06,0.01119965173220705,-1.4389389647595507e-06,-0.0209242846861184
83,0.045552,291.505,292.113,-0.531122,292.176,0.0362571,-0.0819739,0.0113194,0.0113162,-0.0215002,0.0664539,-1.48416e-06,-1.81214e-06,0.0417715,0.01138370681732681,0.0687116953303828,-1.484158898668042e-06,0.011380470394643405,-1.8121383580371742e-06,-0.02127071827672833
84,0.046302,293.445,293.555,0.544178,293.116,-0.00549477,0.0661855,0.0115002,0.0114934,-0.0218496,0.06753,-2.039e-06,2.93408e-07,0.0424792,0.011566581522894692,0.06986235498711846,-2.0389979212831477e-06,0.011559702893527701,2.934080429728425e-07,-0.021612626552908187
85,0.047302,294.777,294.878,0.804368,294.268,-0.014087,0.0884958,0.0117379,0.0117304,-0.0223187,0.0689659,-2.25389e-06,1.03934e-06,0.0434241,0.011807059478995408,0.07139967379654544,-2.253887460001991e-06,0.011799470954506397,1.0393405400765943e-06,-0.02207148043719931
86,0.048302,295.639,295.849,0.551531,295.363,-0.0105405,0.0473172,0.0119746,0.0119673,-0.0227892,0.070401,-2.2999e-06,7.91285e-07,0.0443691,0.012046582556412,0.07293834327662063,-2.2998973552290636e-06,0.012039194643325368,7.91285313050949e-07,-0.022531487580487175
87,0.049302,296.094,296.597,-0.108283,296.403,0.0265797,-0.0419191,0.01221,0.0122048,-0.023261,0.0718351,-1.74837e-06,-4.85786e-07,0.045314,0.012284846364495783,0.07447814800779384,-1.7483684715546843e-06,0.012279582496980801,-4.857858819651284e-07,-0.022992548451834627
88,0.050302,297.794,298.014,0.539157,297.532,-0.0111714,0.0439315,0.012448,0.0124407,-0.0237276,0.0732663,-2.30753e-06,8.30447e-07,0.0462561,0.012525798830136603,0.07601704210315652,-2.307527337652715e-06,0.01251840741878385,8.304473448905725e-07,-0.023448313790404574
89,0.051302,297.822,298.444,-0.544227,298.509,0.0240282,-0.0990738,0.0126821,0.0126779,-0.0242001,0.0746983,-1.79248e-06,-1.3914e-06,0.0472002,0.012762858866437465,0.07755900228744195,-1.7924783934919475e-06,0.012758605271362633,-1.3913990319913694e-06,-0.023909625468672036
90,0.052302,298.705,299.367,-0.725878,299.537,0.0325859,-0.114263,0.0129178,0.0129145,-0.0246691,0.0761275,-1.56691e-06,-2.08749e-06,0.0481421,0.013001595206244554,0.07910015065580445,-1.5669087723990671e-06,0.012998252306496205,-2.0874878211563086e-06,-0.024367304520200417
91,0.053302,300.971,301.141,0.572647,300.66,-0.00882327,0.0613095,0.0131563,0.0131495,-0.0251323,0.0775537,-2.1538e-06,4.24257e-07,0.0490809,0.013243224899896822,0.08064026128250279,-2.1537976805374726e-06,0.013236334869393573,4.242570899037901e-07,-0.024819112937839005
92,0.054302,302.021,302.194,0.626863,301.675,-0.0124377,0.0621699,0.0133922,0.0133848,-0.0255993,0.0789804,-2.28738e-06,7.56477e-07,0.050021,0.01348227717175754,0.08218311107347054,-2.287377383947131e-06,0.013474777430655616,7.564772861456959e-07,-0.025274416090536156
93,0.055302,301.994,302.6,-0.437422,302.587,0.0343749,-0.0798615,0.0136253,0.0136212,-0.0260701,0.080407,-1.57512e-06,-1.3603e-06,0.0509621,0.01371854742679468,0.08372805524638571,-1.5751187595336447e-06,0.013714391189270536,-1.3602990748262656e-06,-0.025733208887142034
94,0.056302,302.848,303.456,-0.589103,303.559,0.0285684,-0.0931579,0.0138602,0.0138566,-0.0265373,0.081831,-1.54512e-06,-1.93082e-06,0.0519009,0.013956697883261482,0.08527238329766629,-1.5451188063453358e-06,0.013953047645719474,-1.9308181359312115e-06,-0.02618828001905593
95,0.057302,304.891,305.072,0.537897,304.609,-0.00816702,0.0586497,0.0140974,0.0140907,-0.0269995,0.0832521,-2.06569e-06,2.63197e-07,0.052837,0.014197236938803481,0.08681576026833637,-2.0656878664260248e-06,0.01419044184007956,2.631970346111956e-07,-0.02663827179492073
96,0.058302,304.822,305.408,-0.531072,305.482,0.0267897,-0.0839194,0.01433,0.0143263,-0.027469,0.0846748,-1.53591e-06,-1.87821e-06,0.0537758,0.014433166653677665,0.0883630734707268,-1.5359088204602855e-06,0.01442941325790481,-1.8782082361612495e-06,-0.027095157863915698
97,0.059302,305.748,306.323,-0.554771,306.419,0.0292756,-0.0803056,0.0145643,0.014561,-0.0279346,0.0860946,-1.39709e-06,-2.17595e-06,0.0547122,0.014670876191209326,0.08990942886036568,-1.3970890240244671e-06,0.014667527782842749,-2.1759476326321803e-06,-0.02754803691998864
98,0.060302,307.721,307.884,0.541356,307.427,-0.00634,0.0662428,0.0148009,0.0147945,-0.0283956,0.0875118,-1.89182e-06,-1.85086e-08,0.055646,0.014910975723170905,0.09145514353765871,-1.891818210530971e-06,0.014904480313711499,-1.8508599874955678e-08,-0.027996233957613748
99,0.061302,308.618,308.801,0.535283,308.34,-0.00988647,0.0592679,0.0150349,0.0150282,-0.02886,0.0889293,-2.00459e-06,1.88069e-07,0.0565808,0.015148492679890158,0.09300337825574001,-2.0045879908225928e-06,0.0151416912077742,1.8806901769252704e-07,-0.028447527708044262
100,0.062302,308.715,309.254,-0.297022,309.175,0.0308706,-0.0529054,0.0152669,0.0152628,-0.029327,0.0903463,-1.38093e-06,-1.42984e-06,0.0575162,0.01538403445198111,0.09455326187594038,-1.3809290465571777e-06,0.015379871385974075,-1.4298389777733789e-06,-0.028901136786640746
101,0.063302,310.402,310.591,0.530345,310.13,-0.0113121,0.0570297,0.0155023,0.0154955,-0.0297877,0.0917601,-1.97851e-06,2.22795e-07,0.0584482,0.015623083988717701,0.09610183570647668,-1.978508042732585e-06,0.015616177775227724,2.227950248734345e-07,-0.02934841899355567
102,0.064302,310.204,310.823,-0.594132,310.923,0.0275828,-0.0924489,0.0157333,0.0157298,-0.030255,0.0931749,-1.3944e-06,-2.04004e-06,0.0593824,0.015857720020537203,0.09765369811224178,-1.3943990277986984e-06,0.015854164524739423,-2.0400379191487517e-06,-0.02980189851361803
103,0.065302,312.17,312.346,0.55249,311.877,-0.011896,0.0620569,0.0159688,0.015962,-0.0307137,0.0945855,-1.95779e-06,1.88918e-07,0.0603123,0.016096982685675165,0.09920314098393379,-1.9577880835397465e-06,0.016090073249684922,1.8891801789600038e-07,-0.03024682633077369
104,0.066302,311.959,312.564,-0.560101,312.648,0.0266605,-0.0863021,0.0161993,0.0161957,-0.0311801,0.0959977,-1.38158e-06,-2.03083e-06,0.061245,0.016331220035001648,0.10075653225104331,-1.3815790456117583e-06,0.01632756124919532,-2.0308279378156158e-06,-0.030699013752669257
105,0.067302,312.792,313.384,-0.584014,313.491,0.0293059,-0.0824498,0.0164319,0.0164287,-0.0316425,0.0974069,-1.23861e-06,-2.33037e-06,0.0621752,0.016567646172075623,0.10230881183560459,-1.238609232956378e-06,0.016564393160812596,-2.3303672846974877e-06,-0.031147114919735985
106,0.068302,313.624,314.189,-0.598795,314.327,0.0279076,-0.0775063,0.0166643,0.0166613,-0.0321043,0.0988149,-1.15216e-06,-2.59371e-06,0.0631047,0.016803923947459998,0.10386195579943203,-1.152159336270664e-06,0.016800873540263828,-2.5937066363557193e-06,-0.0315944278895518
107,0.069302,314.461,315.003,-0.595252,315.152,0.0280033,-0.0709535,0.0168965,0.0168937,-0.0325657,0.100222,-1.04623e-06,-2.80724e-06,0.0640333,0.01704005323214952,0.10541629325509749,-1.0462294527391336e-06,0.017037205523987353,-2.8072360597208856e-06,-0.032041147154464045
108,0.070302,315.302,315.822,-0.576135,315.968,0.0284236,-0.063139,0.0171285,0.0171259,-0.0330266,0.101627,-9.34048e-07,-2.96992e-06,0.0649611,0.01727603389719823,0.10697049471797926,-9.340475637387158e-07,0.01727338898294839,-2.9699155897899843e-06,-0.03248717659436029
109,0.071302,316.14,316.638,-0.548041,316.775,0.0281641,-0.0548957,0.0173603,0.0173578,-0.0334871,0.103031,-8.31206e-07,-3.09052e-06,0.0658881,0.017511865813718774,0.10852577284232412,-8.312056545278779e-07,0.017509322037233988,-3.0905152244020684e-06,-0.03293261367977807
110,0.072302,316.97,317.446,-0.517739,317.573,0.0273324,-0.0470937,0.0175919,0.0175895,-0.0339472,0.104434,-7.38935e-07,-3.18212e-06,0.0668143,0.017747548852883543,0.11008212602808687,-7.389347269626256e-07,0.017745106261697563,-3.182114937105851e-06,-0.03337745903970146
111,0.073302,318.8,318.906,0.582122,318.437,0.00300735,0.0965928,0.0178254,0.0178201,-0.0344029,0.105834,-1.04029e-06,-9.48195e-07,0.067738,0.01798522065264363,0.11163732939286497,-1.040289458908994e-06,0.01797982534527165,-9.481945504319356e-07,-0.03381784858123893
112,0.074302,319.53,319.647,0.54106,319.215,-0.0123311,0.0825279,0.0180566,0.0180508,-0.034862,0.107234,-1.30093e-06,-7.48918e-07,0.0686627,0.01822060604516129,0.11319471156716454,-1.300929153735808e-06,0.01821470038277262,-7.48917719506359e-07,-0.03426132100007229
113,0.075302,319.509,319.995,-0.267968,319.918,0.0307758,-0.0288137,0.0182857,0.0182824,-0.0353236,0.108634,-6.4682e-07,-2.24895e-06,0.0695879,0.018453907109622802,0.11475427560345519,-6.468197908393591e-07,0.01845054621727482,-2.248947471139573e-06,-0.0347070031029556
114,0.076302,321.046,321.182,0.536419,320.744,-0.0154484,0.0763252,0.0185182,0.0185122,-0.035779,0.110031,-1.3026e-06,-5.90668e-07,0.0705098,0.01869072517205872,0.11631267561543268,-1.3025991516535385e-06,0.018684613046044074,-5.906678255396258e-07,-0.035146497453283465
115,0.077302,321.819,321.966,0.571731,321.499,-0.0193039,0.0740462,0.0187488,0.0187423,-0.0362366,0.111428,-1.44805e-06,-2.85249e-07,0.0714321,0.018925662340497862,0.11787325423362893,-1.4480489515245054e-06,0.018919039345217437,-2.852489593418994e-07,-0.03558791341237477
116,0.078302,321.669,322.213,-0.350061,322.17,0.0262772,-0.0505195,0.018977,0.0189734,-0.0366974,0.112824,-7.83634e-07,-2.04446e-06,0.0723551,0.019158207709061292,0.11943489506822913,-7.836336929356591e-07,0.01915453874611761,-2.0444579100775684e-06,-0.03603221212758856
117,0.079302,323.311,323.461,0.588356,322.98,-0.0206695,0.0735486,0.019209,0.0192024,-0.0371512,0.114217,-1.46847e-06,-1.65725e-07,0.0732744,0.01939467984295673,0.12099535448471,-1.4684689217947522e-06,0.01938795186027198,-1.6572498628963928e-07,-0.036469561467654454
118,0.080302,322.959,323.551,-0.533937,323.623,0.020734,-0.0766222,0.0194364,0.0194331,-0.0376119,0.115611,-8.81688e-07,-2.35695e-06,0.0741962,0.01962651655198777,0.12255911169440781,-8.816876113648675e-07,0.01962315179003493,-2.356947222392769e-06,-0.03691335770437365
119,0.081302,323.632,324.226,-0.593759,324.339,0.0246826,-0.0780781,0.0196658,0.0196629,-0.0380686,0.117003,-7.41736e-07,-2.69429e-06,0.0751155,0.019860445705532914,0.12412280205388448,-7.417357249517309e-07,0.01985748811452881,-2.6942863704526587e-06,-0.03735309895135308
120,0.082302,324.372,324.928,-0.577853,325.055,0.0225567,-0.0695006,0.0198952,0.0198924,-0.0385246,0.118392,-6.86324e-07,-2.86918e-06,0.0760339,0.020094428528581343,0.12568529352505164,-6.863237644871845e-07,0.020091572268180258,-2.869175883879471e-06,-0.03779196586896938
121,0.083302,325.15,325.663,-0.51077,325.767,0.0206039,-0.0554054,0.0201244,0.0201217,-0.03898,0.119781,-6.3652e-07,-2.91473e-06,0.0769514,0.02032826096777396,0.1272499568048444,-6.365197974256276e-07,0.02032550608518857,-2.914725752201086e-06,-0.038230055647098915
122,0.084302,326.838,326.994,0.526163,326.538,-0.00272683,0.0810414,0.0203554,0.0203499,-0.0394315,0.121167,-9.45725e-07,-8.54393e-07,0.0778666,0.020563984021021886,0.12881340846669542,-9.457245527810798e-07,0.020558370934545822,-8.543926349746656e-07,-0.03866419676224242
123,0.085302,327.599,327.718,0.605607,327.24,-0.020787,0.0840958,0.0205844,0.0205782,-0.0398857,0.122554,-1.2699e-06,-4.50816e-07,0.0787826,0.020797719935103487,0.13038015895452992,-1.2698991936899162e-06,0.020791391008859517,-4.5081589838957825e-07,-0.039100736338430586
124,0.086302,327.297,327.86,-0.409308,327.844,0.0299893,-0.0531909,0.0208107,0.0208076,-0.0403436,0.12394,-5.25726e-07,-2.37806e-06,0.0796995,0.02102875259948478,0.13194795208450305,-5.25725861844073e-07,0.02102558741525784,-2.3780571724030253e-06,-0.039540631389603065
125,0.087302,328.934,329.072,0.581025,328.602,-0.0217707,0.0778173,0.0210411,0.0210348,-0.0407939,0.125322,-1.26993e-06,-4.04306e-07,0.0806124,0.021264024726391995,0.13351338561970172,-1.2699291936923984e-06,0.02125759078330325,-4.043059183000963e-07,-0.03997302888168652
126,0.088302,329.617,329.769,0.60511,329.275,-0.0247523,0.0742422,0.0212693,0.0212626,-0.0412471,0.126705,-1.42103e-06,-1.28283e-07,0.0815261,0.021497103770141912,0.13508211916121615,-1.4210289903671125e-06,0.021490259762474206,-1.2828299178480052e-07,-0.04040801452980436
127,0.089302,329.344,329.913,-0.36059,329.865,0.02373,-0.0555566,0.021495,0.0214913,-0.0417036,0.128087,-7.32112e-07,-1.97103e-06,0.0824406,0.021727681686201983,0.13665188710970444,-7.321117320158166e-07,0.021723901300773507,-1.9710280575457872e-06,-0.04084596830061782
128,0.090302,330.86,331.05,0.52259,330.594,-0.0216004,0.0618423,0.0217246,0.0217181,-0.0421531,0.129466,-1.39432e-06,-2.36949e-07,0.0833513,0.021962297294758182,0.13822041131090135,-1.3943190279031015e-06,0.021955654561414795,-2.3694897188786257e-07,-0.04127701115372773
129,0.091302,331.497,331.708,0.516187,331.246,-0.0227277,0.0558555,0.021952,0.0219453,-0.0426053,0.130845,-1.51267e-06,-7.05663e-08,0.0842627,0.02219471794638972,0.13979109999904238,-1.5126688559519152e-06,0.022187869264722604,-7.056629747204113e-08,-0.04171044768189902
130,0.092302,331.387,331.939,-0.262653,331.831,0.0193923,-0.0483758,0.0221774,0.0221732,-0.0430599,0.132224,-9.20571e-07,-1.56287e-06,0.0851745,0.02242514660414896,0.14136395616101427,-9.205705763237759e-07,0.022420852427550875,-1.5628687787261342e-06,-0.042145987106770866
131,0.093302,331.808,332.406,-0.505693,332.457,0.0182908,-0.0755877,0.0224039,0.0224004,-0.0435123,0.1336,-8.71675e-07,-2.20476e-06,0.0860847,0.022656752128190183,0.14293555397601954,-8.716746200398973e-07,0.022653172835821467,-2.204757569512772e-06,-0.04257922225702371
132,0.094302,332.373,332.969,-0.590585,333.088,0.0195492,-0.0798726,0.0226305,0.0226274,-0.0439639,0.134975,-7.87216e-07,-2.57645e-06,0.0869939,0.022888512405670136,0.14450817128937055,-7.87215690190024e-07,0.022885341456196695,-2.576446681001876e-06,-0.04301149586552511
133,0.095302,333.056,333.616,-0.545017,333.721,0.0200792,-0.0676823,0.0228571,0.0228542,-0.0444146,0.136349,-7.08695e-07,-2.6912e-06,0.0879021,0.02312032520597973,0.1460818063564442,-7.086947488854634e-07,0.023117358161338863,-2.6911963787457083e-06,-0.0434427134021671
134,0.096302,334.731,334.902,0.550759,334.422,-0.0070473,0.0771592,0.0230857,0.0230798,-0.044861,0.137719,-1.07839e-06,-5.5516e-07,0.0888078,0.02335423724744956,0.14765301446295553,-1.0783894185406595e-06,0.023348199475261122,-5.551598458719553e-07,-0.043869625281083735
135,0.097302,335.359,335.517,0.568262,335.045,-0.021738,0.0728642,0.023312,0.0233056,-0.0453106,0.139091,-1.35909e-06,-3.03832e-07,0.0897144,0.023585848517165386,0.14922867505479798,-1.3590890763914842e-06,0.0235792975886977,-3.038319538184453e-07,-0.04429940487586481
136,0.098302,335.105,335.657,-0.322537,335.587,0.0259334,-0.0472138,0.0235359,0.0235324,-0.0457633,0.140462,-6.71669e-07,-1.98771e-06,0.0906218,0.0238150550473617,0.15080534813072677,-6.716687743768546e-07,0.02381147170093989,-1.987708024508983e-06,-0.04473195262070828
137,0.099302,335.514,336.099,-0.542351,336.182,0.0218303,-0.0715024,0.0237612,0.0237583,-0.0462132,0.141831,-6.4583e-07,-2.57279e-06,0.0915273,0.024045746565687587,0.1523818795418459,-6.4582979142358e-07,0.024042776837328805,-2.5727866903579866e-06,-0.04516163105181359
138,0.1003,336.091,336.658,-0.580108,336.784,0.0207309,-0.0702321,0.0239867,0.0239839,-0.0466622,0.143198,-5.8574e-07,-2.83195e-06,0.0924317,0.02427669491998663,0.15395826278364444,-5.857398284181414e-07,0.02427382694925595,-2.831945990044993e-06,-0.04559025724568988
139,0.1013,337.851,337.989,0.631755,337.467,-0.00927231,0.0892284,0.0242144,0.0242085,-0.0471063,0.144563,-9.97585e-07,-4.69061e-07,0.0933333,0.02450994927842065,0.15553449134359743,-9.975845024490226e-07,0.02450390468755148,-4.690608900181914e-07,-0.0460140165097378
140,0.1023,338.418,338.555,0.613869,338.062,-0.0248534,0.0796504,0.0244396,0.0244332,-0.047554,0.145928,-1.30006e-06,-2.61511e-07,0.0942361,0.024740694899979987,0.15711287292463716,-1.3000591548850693e-06,0.024734136580519372,-2.6151096577109456e-07,-0.0464410204425838
141,0.1033,338.086,338.642,-0.329806,338.574,0.0259289,-0.0476229,0.0246624,0.024659,-0.0480048,0.147293,-5.7482e-07,-2.03571e-06,0.0951397,0.024969032562674798,0.1586934104676443,-5.748198348420885e-07,0.024965547673888366,-2.0357079278943147e-06,-0.04687078795369315
142,0.1043,338.481,339.064,-0.537765,339.145,0.0209211,-0.0702764,0.0248867,0.0248838,-0.0484528,0.148656,-5.64289e-07,-2.59275e-06,0.0960412,0.025198958901953672,0.16027378636762313,-5.642888407653146e-07,0.02519598582928384,-2.5927466388298015e-06,-0.04729769420654906
143,0.1053,339.053,339.61,-0.555179,339.724,0.0190808,-0.0665143,0.0251112,0.0251084,-0.0488997,0.150017,-5.20157e-07,-2.80315e-06,0.0969418,0.025429141905302544,0.16185399407829548,-5.201568646917565e-07,0.025426270707724852,-2.8031460711508416e-06,-0.047723361744512305
144,0.1063,340.724,340.877,0.588091,340.377,-0.00936131,0.0837454,0.0253378,0.025332,-0.049342,0.151376,-9.11557e-07,-5.8195e-07,0.0978396,0.02566153047748898,0.16343402704547128,-9.115565845485563e-07,0.025655581657863857,-5.819498306580684e-07,-0.048144460568742775
145,0.1073,341.244,341.404,0.545643,340.946,-0.0232899,0.0715377,0.0255619,0.0255557,-0.0497879,0.152735,-1.18545e-06,-4.4432e-07,0.0987386,0.025891406983169496,0.16501620873717715,-1.1854492973917274e-06,0.025885046476163742,-4.4431990131599264e-07,-0.04856879834063821
146,0.1083,341.025,341.549,-0.255611,341.445,0.0222156,-0.0367614,0.025784,0.0257804,-0.0502363,0.154093,-5.40765e-07,-1.93669e-06,0.099638,0.026119282769329732,0.16659937547555614,-5.407648537847365e-07,0.026115588746560947,-1.9366881246485335e-06,-0.04899532445716037
147,0.1093,342.38,342.545,0.564275,342.071,-0.0248303,0.0707243,0.0260094,0.0260032,-0.0506785,0.155449,-1.22844e-06,-3.06627e-07,0.100534,0.02635059612370161,0.1681823572477854,-1.2284392454375848e-06,0.02634423276973208,-3.066269529394816e-07,-0.049415765758262564
148,0.1103,341.86,342.472,-0.545942,342.542,0.020593,-0.0765534,0.0262305,0.0262275,-0.0511271,0.156806,-5.94767e-07,-2.44455e-06,0.101432,0.026577547329035722,0.16976865676737063,-5.947668231254255e-07,0.02657446760101334,-2.4445470120371127e-06,-0.049842102211327344
149,0.1113,342.345,342.962,-0.626701,343.088,0.0245934,-0.0805982,0.0264536,0.026451,-0.051572,0.15816,-4.56767e-07,-2.80471e-06,0.102328,0.026806602329980223,0.17135359629054947,-4.5676689564011497e-07,0.026803932636284777,-2.8047060668390245e-06,-0.05026473343876581
150,0.1123,343.004,343.551,-0.520685,343.644,0.019511,-0.0604667,0.0266768,0.0266741,-0.0520157,0.159512,-4.50873e-07,-2.78276e-06,0.103223,0.02703581114237208,0.17293833739632558,-4.5087289834988553e-07,0.027033038149425703,-2.782756128083541e-06,-0.05068603750332046
151,0.1133,344.491,344.684,0.460644,344.255,-0.00702288,0.0687202,0.0269017,0.0268964,-0.0524559,0.160862,-8.08398e-07,-8.89927e-07,0.104116,0.027266817471986116,0.1745228734730111,-8.083976732464748e-07,0.027261372972281483,-8.899266039641418e-07,-0.051103833545955935
152,0.1143,344.061,344.629,-0.542206,344.722,0.0217895,-0.0646002,0.0271223,0.0271197,-0.0529026,0.162214,-3.77718e-07,-2.80493e-06,0.105011,0.02749345752939969,0.17611190233941088,-3.777179287123289e-07,0.027490786049882976,-2.8049260661910935e-06,-0.05152761080581325
153,0.1153,344.582,345.142,-0.564795,345.254,0.0238716,-0.0624714,0.0273446,0.0273423,-0.0533457,0.163563,-2.66145e-07,-3.0146e-06,0.105904,0.027721894714860973,0.1776995479218455,-2.6614496462240567e-07,0.02771953095722135,-3.014595456152236e-06,-0.05194778582481496
154,0.1163,346.221,346.35,0.585991,345.868,-0.0132948,0.0886444,0.0275693,0.0275637,-0.0537841,0.164909,-7.78652e-07,-7.72402e-07,0.106794,0.027952849771432087,0.17928579882071705,-7.786516968977253e-07,0.027947093251591726,-7.724017017096685e-07,-0.052363320823582415
155,0.1173,346.658,346.821,0.502983,346.391,-0.0225799,0.0706913,0.0277913,0.0277855,-0.0542262,0.166257,-9.88537e-07,-7.17966e-07,0.107686,0.02818108063677016,0.18087654800159547,-9.885365114259415e-07,0.028175117203796507,-7.179657423028729e-07,-0.05278217840415589
156,0.1183,346.501,346.985,-0.189475,346.857,0.0183555,-0.0233956,0.0280116,0.028008,-0.0546703,0.167603,-4.16378e-07,-1.97902e-06,0.108577,0.028407613880555127,0.18246707802177675,-4.1637791325932483e-07,0.028403911619809152,-1.979018041775582e-06,-0.05320274444512496
157,0.1193,346.638,347.231,-0.595119,347.351,0.0214495,-0.0730291,0.0282324,0.0282299,-0.0551131,0.168948,-3.0552e-07,-2.87686e-06,0.109467,0.028634711352338194,0.18405856627764794,-3.0551995333638615e-07,0.028632139768774323,-2.8768558618663675e-06,-0.05362189346344348
158,0.1203,348.207,348.373,0.492958,347.946,-0.0207291,0.0708225,0.0284561,0.0284505,-0.0555501,0.17029,-9.09314e-07,-7.97981e-07,0.110355,0.028864842676496583,0.1856486395741359,-9.093135865390067e-07,0.028859081049510182,-7.979806816438284e-07,-0.05403537034472128
159,0.1213,347.676,348.272,-0.581369,348.377,0.0224873,-0.0713891,0.0286751,0.0286726,-0.0559944,0.171633,-2.97414e-07,-2.84711e-06,0.111245,0.02909018875153735,0.18724203542290252,-2.9741395579652163e-07,0.029087616029281227,-2.847105947001438e-06,-0.05445556907561666
160,0.1223,348.208,348.778,-0.565834,348.886,0.0228374,-0.0637829,0.0288961,0.0288938,-0.0564346,0.172973,-2.12055e-07,-2.99005e-06,0.112132,0.0293176428159998,0.18883400613253265,-2.1205497746645818e-07,0.029315275388143824,-2.99004552983817e-06,-0.054871706135622866
161,0.1233,349.788,349.937,0.548503,349.471,-0.0140394,0.0825861,0.0291193,0.0291139,-0.0568704,0.174312,-7.21906e-07,-8.35925e-07,0.113017,0.02954741215518064,0.19042692108530757,-7.219057394092232e-07,0.029541852614165753,-8.359246506106643e-07,-0.055283503308967474
162,0.1243,349.176,349.766,-0.600168,349.888,0.0232904,-0.0700607,0.0293376,0.0293353,-0.0573138,0.175652,-1.82005e-07,-3.00997e-06,0.113905,0.029772186888523677,0.19202316240239337,-1.8200498341780502e-07,0.02976981841521753,-3.009965470091025e-06,-0.05570229775001134
163,0.1253,349.705,350.267,-0.576869,350.387,0.0235043,-0.0616593,0.029558,0.0295559,-0.0577529,0.176989,-9.59918e-08,-3.13344e-06,0.11479,0.029999173691540815,0.19361796325732894,-9.599179540131786e-08,0.029997010695547166,-3.1334350907297193e-06,-0.05611684784993409
164,0.1263,351.283,351.422,0.546899,350.962,-0.0144148,0.0855736,0.0297807,0.0297753,-0.0581875,0.178323,-6.19199e-07,-9.59246e-07,0.115672,0.030228580050971843,0.19521131214773635,-6.191988083381617e-07,0.030223016831660177,-9.592455398887978e-07,-0.05652697034178589
165,0.1273,350.669,351.247,-0.592155,351.369,0.0229549,-0.0659864,0.0299983,0.0299962,-0.0586297,0.179659,-8.0569e-08,-3.10298e-06,0.116558,0.030452782182298188,0.19680918159989047,-8.056899680752849e-08,0.030450618233727633,-3.1029751857980514e-06,-0.0569440818853415
166,0.1283,351.198,351.745,-0.556684,351.859,0.022485,-0.0564034,0.0302183,0.0302162,-0.0590676,0.180993,-7.10741e-09,-3.19047e-06,0.117441,0.03067950673316444,0.1984067904163056,-7.1074099938783775e-09,0.030677342308472966,-3.1904649104852467e-06,-0.05735695566657195
167,0.1293,352.721,352.863,0.518934,352.42,-0.0140022,0.0841575,0.0304402,0.030435,-0.0595012,0.182324,-5.10327e-07,-1.10723e-06,0.118321,0.030908239892714073,0.20000293185083606,-5.103268697626007e-07,0.03090287918380441,-1.1072293870650896e-06,-0.05776559709073181
168,0.1303,352.162,352.718,-0.551609,352.823,0.0209321,-0.0584758,0.0306574,0.0306552,-0.059942,0.183657,-9.75786e-09,-3.10972e-06,0.119204,0.031132177481160372,0.20160360236887565,-9.757859964487636e-09,0.031129908992865385,-3.109715164817395e-06,-0.05818084248872479
169,0.1313,352.685,353.21,-0.5113,353.304,0.0200366,-0.0488924,0.0308768,0.0308746,-0.0603787,0.184987,4.90484e-08,-3.16789e-06,0.120085,0.031358432700189676,0.20320279838964517,4.9048401118412244e-08,0.031356163714133745,-3.1678849822247557e-06,-0.05859204512218008
170,0.1323,354.114,354.269,0.477879,353.849,-0.013223,0.0799896,0.0310979,0.031093,-0.0608116,0.186314,-4.1078e-07,-1.2485e-06,0.120963,0.03158649126060453,0.20480050834921193,-4.107799156383152e-07,0.03158143649918155,-1.2484992206740486e-06,-0.058999492427514344
171,0.1333,353.642,354.172,-0.49283,354.25,0.0178879,-0.0495223,0.0313148,0.0313125,-0.0612509,0.187643,3.09758e-08,-3.05221e-06,0.121843,0.031810266638121254,0.20640275268033692,3.097580036914849e-08,0.031807893477237226,-3.05220534202455e-06,-0.05941278316453402
172,0.1343,355.187,355.281,0.621429,354.8,-0.0287832,0.0951852,0.0315359,0.0315302,-0.0616825,0.188968,-6.5334e-07,-8.80294e-07,0.12272,0.03203842511006472,0.20800229579093266,-6.533397866048674e-07,0.03203254250780696,-8.802936125595906e-07,-0.05981865301430622
173,0.1353,354.469,355.056,-0.593638,355.175,0.0216475,-0.0661376,0.0317518,0.0317496,-0.0621219,0.190296,4.17141e-08,-3.14349e-06,0.1236,0.03226126626088255,0.2096075885181916,4.1714100840195556e-08,0.03225899528859477,-3.14348505925377e-06,-0.060231677949948104
174,0.1363,354.989,355.537,-0.541844,355.64,0.0202483,-0.0544117,0.0319702,0.031968,-0.0625567,0.19162,9.4531e-08,-3.19373e-06,0.124476,0.03248673674191416,0.21121016963998507,9.453100435763417e-08,0.032484465273592056,-3.1937249000968393e-06,-0.06064020039715945
175,0.1373,356.442,356.602,0.486039,356.173,-0.0152266,0.0796685,0.0321904,0.0321854,-0.0629875,0.192941,-3.98737e-07,-1.21352e-06,0.125351,0.03271411535481139,0.21281123554528292,-3.98736920481646e-07,0.032708951797143504,-1.2135192636320014e-06,-0.06104478944409042
176,0.1383,355.944,356.483,-0.495589,356.559,0.0171736,-0.0509033,0.0324063,0.032404,-0.063425,0.194265,5.54936e-08,-3.03449e-06,0.126228,0.03293710240290215,0.214418061104938,5.549360149181837e-08,0.03293472665029862,-3.0344853959585194e-06,-0.06145549250086402
177,0.1393,357.464,357.57,0.606864,357.093,-0.0293942,0.0922465,0.0326264,0.0326208,-0.0638548,0.195584,-6.27967e-07,-8.96505e-07,0.127101,0.03316447688078439,0.2160209353907423,-6.279668027797669e-07,0.03315869117591386,-8.965045981135233e-07,-0.06185879225486157
178,0.1403,356.771,357.354,-0.566293,357.456,0.0199297,-0.0632254,0.0328414,0.0328392,-0.0642922,0.196905,4.62224e-08,-3.07393e-06,0.127976,0.03338663112403917,0.21762836051693735,4.622240101781472e-08,0.03338435767595138,-3.0739252754319324e-06,-0.062269045490205954
179,0.1413,357.29,357.829,-0.501386,357.909,0.0179503,-0.0500573,0.0330589,0.0330566,-0.064725,0.198224,8.30454e-08,-3.08831e-06,0.128849,0.03361141716090388,0.21923547198147086,8.30454034428385e-08,0.03360903985737829,-3.0883052312136172e-06,-0.06267480763405608
180,0.1423,358.647,358.83,0.441558,358.421,-0.0144401,0.0727703,0.033278,0.0332731,-0.0651543,0.19954,-3.68287e-07,-1.27723e-06,0.12972,0.03383790623337579,0.22084104209601585,-3.682869321730564e-07,0.03383284044004631,-1.277229184304396e-06,-0.06307711497768875
181,0.1433,359.237,359.36,0.604599,358.878,-0.0318197,0.0874465,0.0334954,0.0334896,-0.0655857,0.200856,-7.03922e-07,-7.70289e-07,0.130592,0.03406268702697779,0.22244872653174985,-7.039217522208929e-07,0.034056689480785884,-7.702887033778083e-07,-0.06348121633935655
182,0.1443,358.667,359.238,-0.426377,359.237,0.0220957,-0.0495292,0.0337099,0.0337072,-0.0660211,0.202172,3.71908e-08,-2.66332e-06,0.131464,0.03428451726378734,0.224058528072951,3.719080066133529e-08,0.03428172469936075,-2.6633164533773623e-06,-0.06388888786123181
183,0.1453,360.087,360.23,0.583448,359.752,-0.0315294,0.081746,0.0339287,0.0339229,-0.066449,0.203485,-7.41838e-07,-7.1736e-07,0.132333,0.034510843475349384,0.22566677250173117,-7.418377248047392e-07,0.03450484332985759,-7.173597427190259e-07,-0.06428936411811026
184,0.1463,359.457,360.045,-0.508519,360.104,0.0163098,-0.062273,0.0341427,0.0341401,-0.0668839,0.204799,-9.98833e-08,-2.74586e-06,0.133204,0.034732252485772275,0.22727835722007894,-9.988329496835036e-08,0.03472956218541312,-2.745856230168542e-06,-0.06469621619725807
185,0.1473,360.986,361.122,0.622097,360.619,-0.0325506,0.0852074,0.0343613,0.0343553,-0.0673105,0.206109,-8.20372e-07,-5.84475e-07,0.134071,0.034958469680804294,0.22888714539422117,-8.203716634902491e-07,0.034952259948615394,-5.844748292016533e-07,-0.06509513169670245
186,0.1483,360.268,360.88,-0.555663,360.961,0.0185667,-0.0697017,0.0345748,0.0345722,-0.067745,0.207421,-1.30577e-07,-2.77598e-06,0.134941,0.03517945690362767,0.23050050346044104,-1.3057699144169987e-07,0.035176765440538604,-2.7759761469514643e-06,-0.06550125962429854
187,0.1493,360.788,361.346,-0.46794,361.394,0.0159427,-0.0530603,0.0347908,0.0347881,-0.0681748,0.20873,-1.09573e-07,-2.75515e-06,0.135808,0.03540307981672397,0.23211228329922906,-1.0957299401148646e-07,0.035400284232182555,-2.7551462046249142e-06,-0.06590282088121624
188,0.1503,362.048,362.278,0.393479,361.879,-0.0135191,0.0595116,0.0350082,0.0350031,-0.0686014,0.210037,-5.19991e-07,-1.12444e-06,0.136673,0.03562820091605312,0.23372370688942468,-5.199908648112483e-07,0.035622919225696714,-1.124439367838903e-06,-0.06630122175288045
189,0.1513,362.588,362.767,0.523861,362.312,-0.0287626,0.071226,0.035224,0.0352182,-0.06903,0.211344,-8.16129e-07,-7.18543e-07,0.137539,0.03585171359796169,0.23533723798720896,-8.161286669805534e-07,0.03584570567544576,-7.18542741862116e-07,-0.06670131930220757
190,0.1523,362.159,362.716,-0.341965,362.663,0.0189001,-0.0432779,0.0354373,0.0354342,-0.0694619,0.212651,-1.64502e-07,-2.30547e-06,0.138405,0.03607268433416344,0.23695287934889486,-1.645019864771058e-07,0.0360694725138202,-2.305467342367251e-06,-0.06710432396727894
191,0.1533,363.368,363.575,0.470825,363.143,-0.026454,0.0624492,0.0356542,0.0356485,-0.0698875,0.213955,-8.21375e-07,-7.53396e-07,0.139268,0.03629743287249321,0.23856691802807317,-8.213746626184459e-07,0.03629152599396046,-7.53395716146521e-07,-0.0675012798887864
192,0.1543,363.84,364.033,0.540608,363.563,-0.0325735,0.0667574,0.0358692,0.0358631,-0.0703152,0.215259,-1.01672e-06,-4.57549e-07,0.140131,0.03652026077370185,0.24018306278655444,-1.0167194831600668e-06,0.03651393801939573,-4.575488953273421e-07,-0.06790002431380426
193,0.1553,363.418,363.987,-0.311289,363.908,0.0168743,-0.0456139,0.036082,0.0360785,-0.0707459,0.216563,-3.50361e-07,-2.02542e-06,0.140996,0.0367408557556681,0.2418013163724575,-3.5036093859464046e-07,0.03673722716902317,-2.0254179488032875e-06,-0.06830139333230956
194,0.1563,363.522,364.173,-0.638358,364.296,0.0220197,-0.0828889,0.0362958,0.0362933,-0.0711746,0.217864,-2.16687e-07,-2.78636e-06,0.141858,0.03696253464725796,0.24341795127803767,-2.1668697647303503e-07,0.03695994224416177,-2.7863561180563323e-06,-0.06870072692171725
195,0.1573,364.035,364.62,-0.541153,364.711,0.0179675,-0.0639198,0.0365103,0.0365077,-0.0716014,0.219164,-2.06994e-07,-2.77246e-06,0.142719,0.037184986968098244,0.24503544575831415,-2.0699397862422586e-07,0.0371822902906378,-2.7724561567632477e-06,-0.0690981206416148
196,0.1583,365.382,365.607,0.428813,365.183,-0.0128166,0.0623499,0.0367264,0.0367212,-0.0720247,0.220462,-6.27999e-07,-9.6236e-07,0.143579,0.03740914686338637,0.246652551041195,-6.27998802849028e-07,0.037403752349848496,-9.62359536949009e-07,-0.06949208801806939
197,0.1593,365.918,366.085,0.574894,365.599,-0.0294269,0.0758642,0.0369407,0.0369348,-0.0724504,0.22176,-9.41295e-07,-5.21768e-07,0.144438,0.0376314874665038,0.24827175668957513,-9.412945569664544e-07,0.037625365458787696,-5.217678639146683e-07,-0.06988812093461294
198,0.1603,365.379,365.96,-0.384207,365.925,0.0219539,-0.0503078,0.0371523,0.0371494,-0.0728797,0.223059,-2.34806e-07,-2.27864e-06,0.145299,0.03785107352063699,0.2498943153251898,-2.3480597244329715e-07,0.03784806375688787,-2.2786374038741286e-06,-0.07028733226745199
199,0.1613,366.633,366.838,0.492301,366.391,-0.0263261,0.0636297,0.0373678,0.0373621,-0.0733021,0.224353,-9.24644e-07,-6.22572e-07,0.146156,0.03807475452774356,0.25151272545474734,-9.246435724863389e-07,0.038068837518506315,-6.225718062191632e-07,-0.07067995996949372
200,0.1623,367.09,367.28,0.564816,366.793,-0.0325372,0.0681691,0.0375814,0.0375752,-0.0737269,0.225648,-1.11872e-06,-3.2278e-07,0.147014,0.03829651097805642,0.25313448429641716,-1.118719374249011e-06,0.03829007355964431,-3.227799478811022e-07,-0.07107465128412815
201,0.1633,366.61,367.191,-0.326547,367.117,0.0186317,-0.048909,0.0377926,0.0377892,-0.0741549,0.226943,-4.26318e-07,-1.95979e-06,0.147872,0.038515822359641794,0.25475834467623915,-4.263179090857605e-07,0.03851229141184831,-1.959788079597402e-06,-0.07147214626338516
202,0.1643,366.707,367.366,-0.643063,367.489,0.0238556,-0.0845196,0.0380049,0.0380025,-0.0745806,0.228236,-2.86305e-07,-2.70168e-06,0.148729,0.03873632267400873,0.2563817965513622,-2.863049589629796e-07,0.03873382970982586,-2.701676350413962e-06,-0.07186733644852183
203,0.1653,367.226,367.809,-0.521334,367.888,0.0187588,-0.062462,0.038218,0.0382154,-0.0750045,0.229527,-2.87149e-07,-2.64066e-06,0.149585,0.0389577009713904,0.25800483289524645,-2.8714895872195e-07,0.0389549996848797,-2.6406565134529103e-06,-0.07226068850774214
204,0.1663,368.501,368.745,0.39088,368.339,-0.0107014,0.0560876,0.0384325,0.0384275,-0.0754251,0.230816,-6.83134e-07,-9.5211e-07,0.150438,0.03918058130130975,0.2596274466747619,-6.831337666657333e-07,0.03917538541139298,-9.521095467590612e-07,-0.072650813613095
205,0.1673,369.0,369.194,0.515362,368.736,-0.0259568,0.0673478,0.0386453,0.0386396,-0.0758479,0.232105,-9.6577e-07,-5.73757e-07,0.151292,0.03940174245972328,0.26125215335202223,-9.6576953367844e-07,0.03939581788667623,-5.737568353758604e-07,-0.0730428139743835
206,0.1683,368.559,369.118,-0.324967,369.054,0.0205798,-0.0429841,0.0388557,0.0388526,-0.0762739,0.233394,-3.24642e-07,-2.10447e-06,0.152147,0.03962045559415173,0.26287895562651165,-3.2464194732462204e-07,0.0396172327757347,-2.1044677855908134e-06,-0.07343761363733159
207,0.1693,368.677,369.303,-0.606593,369.418,0.0238711,-0.0747048,0.0390672,0.0390649,-0.0766977,0.234681,-2.08898e-07,-2.76091e-06,0.153,0.039840358574430246,0.26450532718801356,-2.0889797813783417e-07,0.03983796694435604,-2.760906188670198e-06,-0.07383020758013958
208,0.1703,369.191,369.742,-0.478456,369.807,0.0181057,-0.0527749,0.0392794,0.0392769,-0.0771198,0.235967,-2.20439e-07,-2.66587e-06,0.153852,0.040061036111578296,0.26613252710406865,-2.2043897573986726e-07,0.04005843596223824,-2.6658664465939452e-06,-0.07422106135402784
209,0.1713,370.376,370.622,0.352713,370.242,-0.00857281,0.0545966,0.0394929,0.0394881,-0.0775389,0.237251,-5.74174e-07,-1.12424e-06,0.154702,0.04028311284863628,0.2677592854242148,-5.741738351439096e-07,0.04027811950167881,-1.1242393680443996e-06,-0.07460897401443856
210,0.1723,369.76,370.389,-0.665912,370.546,0.0280201,-0.076052,0.0397023,0.0397004,-0.0779641,0.238536,-3.67202e-08,-3.02643e-06,0.155554,0.04050097094141303,0.26938940323236893,-3.672019932565718e-08,0.04049899399144641,-3.0264254203826724e-06,-0.07500236663748894
211,0.1733,371.328,371.472,0.55843,371.007,-0.0258785,0.0817068,0.0399163,0.0399108,-0.0783811,0.239817,-7.85986e-07,-7.60869e-07,0.156402,0.04072366197628541,0.2710165330120289,-7.859856910874541e-07,0.04071793801188539,-7.608687105919998e-07,-0.07538801023832209
212,0.1743,370.675,371.245,-0.488761,371.302,0.0208662,-0.0552737,0.0401252,0.0401228,-0.0788057,0.241099,-1.46069e-07,-2.66909e-06,0.157253,0.04094109185903272,0.27264702112691985,-1.460689893484357e-07,0.040938593603410345,-2.669086437978585e-06,-0.07578051715405976
213,0.1753,372.015,372.188,0.508089,371.745,-0.0244753,0.0732575,0.0403384,0.040333,-0.0792228,0.242379,-7.85996e-07,-8.00514e-07,0.1581,0.041163044159091555,0.2742770523113667,-7.859956910882815e-07,0.04115742189383331,-8.005136795663503e-07,-0.07616592871718575
214,0.1763,372.456,372.614,0.595392,372.119,-0.0314849,0.0786883,0.0405494,0.0405435,-0.0796425,0.243658,-9.82306e-07,-4.59754e-07,0.158947,0.04138275273984937,0.2759078953630878,-9.823055174829065e-07,0.041376608599733355,-4.597538942885393e-07,-0.0765535805224814
215,0.1773,371.894,372.461,-0.350549,372.412,0.0208193,-0.045353,0.040758,0.040755,-0.0800657,0.244937,-2.71107e-07,-2.16934e-06,0.159796,0.04160000784099016,0.2775408255975409,-2.7110696321219763e-07,0.041596883045653676,-2.169337646962255e-06,-0.07694430036505417
216,0.1783,371.984,372.624,-0.642696,372.758,0.025673,-0.0781524,0.0409678,0.0409657,-0.0804864,0.246215,-1.31194e-07,-2.84749e-06,0.160643,0.04181855844779214,0.2791745665107346,-1.3119399144834176e-07,0.04181637063111654,-2.8474859459226565e-06,-0.0773325482242272
217,0.1793,372.512,373.065,-0.482821,373.133,0.0186418,-0.0521106,0.0411784,0.041176,-0.0809051,0.247491,-1.56886e-07,-2.69569e-06,0.161488,0.04203798854137908,0.28080783506133344,-1.5688598764551642e-07,0.04203548765320764,-2.6956863666827147e-06,-0.07771878822129963
218,0.1803,373.661,373.916,0.32776,373.549,-0.0083941,0.0523015,0.0413902,0.0413856,-0.0813211,0.248764,-5.13211e-07,-1.20156e-06,0.162332,0.04225871556151839,0.282439341668997,-5.132108683580938e-07,0.04225392118245397,-1.2015592780745266e-06,-0.07810237741331583
219,0.1813,373.089,373.703,-0.627563,373.84,0.0268675,-0.0698898,0.0415981,0.0415962,-0.0817429,0.25004,2.38287e-09,-2.97339e-06,0.163178,0.042475423674511514,0.28407677873164294,2.382869901396134e-09,0.042473442973088193,-2.9733855795299746e-06,-0.07849115183223387
220,0.1823,374.549,374.715,0.502025,374.279,-0.0239393,0.0750934,0.0418103,0.0418051,-0.0821571,0.251311,-7.00219e-07,-8.94378e-07,0.16402,0.04269666043180509,0.285709877932105,-7.002187548676986e-07,0.04269123842326805,-8.943776000913672e-07,-0.07887276176027302
221,0.1833,375.02,375.156,0.634892,374.644,-0.0330977,0.0859924,0.0420202,0.0420144,-0.0825743,0.252583,-9.26457e-07,-4.63594e-07,0.164862,0.04291554543200671,0.287346341466995,-9.26456570793377e-07,0.04290949653938503,-4.635938924968386e-07,-0.079256975891426
222,0.1843,374.356,374.935,-0.402675,374.918,0.0229254,-0.0496131,0.0422274,0.0422246,-0.0829953,0.253855,-1.64246e-07,-2.33194e-06,0.165706,0.0431316599217082,0.2889848879079491,-1.6424598647812871e-07,0.04312873915714954,-2.3319372810526318e-06,-0.07964452711931802
223,0.1853,375.547,375.764,0.456176,375.335,-0.0245115,0.0609147,0.0424385,0.0424331,-0.0834094,0.255123,-8.30806e-07,-7.36111e-07,0.166546,0.04335188825940084,0.29062035741435444,-8.308056548278486e-07,0.04334625417441629,-7.361107290382307e-07,-0.08002556742079847
224,0.1863,375.927,376.143,0.496648,375.689,-0.0290625,0.0616365,0.0426476,0.0426419,-0.0838258,0.256392,-9.86983e-07,-5.17126e-07,0.167387,0.04357007594996398,0.2922591942699717,-9.86982512940493e-07,0.04356412761748385,-5.171258662395317e-07,-0.08040856502888849
225,0.1873,375.541,376.086,-0.251126,375.979,0.015725,-0.0360322,0.0428548,0.0428514,-0.0842448,0.25766,-3.8591e-07,-1.86214e-06,0.168228,0.04378632607243982,0.29389881823021113,-3.859099255709708e-07,0.043782777204964374,-1.8621382662509234e-06,-0.08079379312921842
226,0.1883,375.661,376.262,-0.493469,376.311,0.0185279,-0.0630945,0.043063,0.0430603,-0.0846617,0.258927,-2.96496e-07,-2.41359e-06,0.169068,0.04400366500972641,0.2955392270124282,-2.9649595600922396e-07,0.04400084620363631,-2.413587087302105e-06,-0.08117693032636486
227,0.1893,377.054,377.255,0.58227,376.73,-0.0192833,0.0746398,0.0432737,0.0432682,-0.0850737,0.260191,-8.18247e-07,-4.27815e-07,0.169905,0.044223659757576694,0.29717782397048453,-8.18246665201805e-07,0.04421791654324192,-4.278149084990801e-07,-0.08155540745942735
228,0.1903,377.431,377.612,0.627344,377.08,-0.0333722,0.0750062,0.0434822,0.0434762,-0.0854887,0.261455,-1.10804e-06,-1.71288e-07,0.170743,0.04444140308958988,0.2988184934246372,-1.1080393861329085e-06,0.0444351364599711,-1.7128798535104295e-07,-0.08193648288671129
229,0.1913,376.826,377.419,-0.33955,377.348,0.0205632,-0.0504923,0.0436883,0.0436851,-0.085907,0.26272,-3.80353e-07,-1.91439e-06,0.171582,0.044656684646769085,0.30046253845806614,-3.8035292770910445e-07,0.04465334175072666,-1.914388167545411e-06,-0.0823204285480863
230,0.1923,376.91,377.564,-0.614251,377.672,0.0242667,-0.0803059,0.0438957,0.0438933,-0.0863227,0.263982,-2.61872e-07,-2.55693e-06,0.172419,0.04487336891254645,0.30210475820430416,-2.6187196566773707e-07,0.04487086121947015,-2.5569267310121546e-06,-0.08270182866643183
231,0.1933,377.43,377.99,-0.438372,378.023,0.0165073,-0.0521905,0.0441038,0.0441011,-0.0867365,0.265243,-3.0463e-07,-2.37528e-06,0.173254,0.04509082968662592,0.3037477479917481,-3.0462995359581413e-07,0.04508800794519496,-2.37527717905639e-06,-0.08308132812587643
232,0.1943,378.466,378.762,0.277965,378.409,-0.00717834,0.0400387,0.0443129,0.0443084,-0.0871481,0.266502,-6.14333e-07,-1.07846e-06,0.174088,0.04530938102785975,0.30539020011312856,-6.143328112884205e-07,0.04530467714622888,-1.078459418435429e-06,-0.08345865419218834
233,0.1953,378.019,378.615,-0.523917,378.689,0.0231207,-0.0615323,0.0445187,0.0445164,-0.0875645,0.267762,-1.74193e-07,-2.5592e-06,0.174924,0.04552452783632255,0.30703602841936095,-1.741929848142476e-07,0.0455221231326739,-2.559196725204771e-06,-0.08384022256053503
234,0.1963,378.28,378.884,-0.610152,379.017,0.0258648,-0.0680396,0.0447258,0.0447239,-0.0879782,0.26902,-5.89859e-08,-2.86487e-06,0.175758,0.04574107838907304,0.3086813144110203,-5.89858982769087e-08,0.045739091482911665,-2.864865896290425e-06,-0.08421915947195713
235,0.1973,379.744,379.914,0.551683,379.429,-0.0176642,0.0800717,0.0449353,0.0449302,-0.0883871,0.270275,-6.4334e-07,-7.33166e-07,0.17659,0.045960184095517054,0.31032474049477066,-6.433397931049356e-07,0.04595484971218089,-7.33165731237051e-07,-0.08459354570916644
236,0.1983,380.143,380.288,0.633826,379.768,-0.0319041,0.0842704,0.0451425,0.0451368,-0.0887993,0.271531,-9.27367e-07,-4.0098e-07,0.177422,0.046176929499710084,0.3119715423439027,-9.273665699804923e-07,0.04617096630820705,-4.0097991960141854e-07,-0.0849707984924849
237,0.1993,379.494,380.063,-0.363296,380.022,0.0227164,-0.0453684,0.0453471,0.0453444,-0.089215,0.272788,-1.85751e-07,-2.17786e-06,0.178255,0.046390999198069105,0.31362172749671635,-1.8575098270634527e-07,0.04638817394618533,-2.1778576284603446e-06,-0.0853510970810134
238,0.2003,379.583,380.21,-0.618364,380.335,0.0259746,-0.0732522,0.0455532,0.0455512,-0.0896279,0.274042,-6.78162e-08,-2.76954e-06,0.179087,0.04660668260841572,0.3152700424204542,-6.78161976574998e-08,0.04660458939714385,-2.7695361648483185e-06,-0.08572867765615455
239,0.2013,381.153,381.302,0.656887,380.749,-0.0224674,0.0890165,0.0457623,0.0457568,-0.090035,0.275292,-7.26407e-07,-4.31678e-07,0.179915,0.04682555094763652,0.31691515795648195,-7.264067362067195e-07,0.046819793422939515,-4.3167790686471363e-07,-0.08610080176047996
240,0.2023,380.386,380.961,-0.45928,380.997,0.0187731,-0.0549503,0.0459662,0.0459637,-0.0904501,0.276546,-1.70426e-07,-2.42341e-06,0.180747,0.04703902043995001,0.31856760543258544,-1.7042598543515197e-07,0.0470364028456709,-2.4234070635786864e-06,-0.08648008259248641
241,0.2033,381.591,381.808,0.44459,381.385,-0.023293,0.0606462,0.0461742,0.0461691,-0.0908579,0.277795,-7.59582e-07,-7.68398e-07,0.181575,0.04725682720731994,0.32021552528348773,-7.595817115291226e-07,0.04725148621112085,-7.68397704797863e-07,-0.08685254006556475
242,0.2043,381.938,382.157,0.479853,381.711,-0.0274712,0.0606799,0.0463802,0.0463748,-0.0912682,0.279045,-9.02452e-07,-5.67713e-07,0.182403,0.04747258433594603,0.3218668265383633,-9.024515927880117e-07,0.047466927999262776,-5.67712838850376e-07,-0.08722712761648477
243,0.2053,381.559,382.087,-0.232077,381.976,0.0148991,-0.0317274,0.0465844,0.0465812,-0.0916809,0.280294,-3.36161e-07,-1.83062e-06,0.183232,0.04768650007772135,0.3235188696908926,-3.361609435259538e-07,0.047683147486285105,-1.8306183243721463e-06,-0.08760375125928321
244,0.2063,381.683,382.259,-0.439653,382.284,0.0168764,-0.0546692,0.0467895,0.0467869,-0.0920915,0.281542,-2.63806e-07,-2.29736e-06,0.184059,0.04790140261638931,0.32517165236213597,-2.638059651838276e-07,0.04789867807628423,-2.2973573611251297e-06,-0.08797830425802322
245,0.2073,382.923,383.15,0.505728,382.665,-0.0170087,0.0653095,0.0469969,0.0469917,-0.0924978,0.282787,-7.26775e-07,-5.70891e-07,0.184884,0.04811875990646364,0.3268225185202698,-7.267747359485099e-07,0.04811330970308281,-5.708908370483101e-07,-0.08834878340506791
246,0.2083,383.235,383.457,0.510426,382.985,-0.0282577,0.0614257,0.0472022,0.0471967,-0.0929069,0.284033,-9.61594e-07,-4.19867e-07,0.18571,0.048333960777485974,0.32847676976284923,-9.615935376849905e-07,0.04832819495655771,-4.198669119048759e-07,-0.0887216636399244
247,0.2093,382.82,383.363,-0.232836,383.243,0.0158042,-0.0346824,0.0474056,0.0474023,-0.0933183,0.285278,-3.72258e-07,-1.73865e-06,0.186536,0.04854721359218428,0.33013175335471767,-3.7225793070305713e-07,0.04854375339208872,-1.7386484885140163e-06,-0.08909648644116619
248,0.2103,382.934,383.521,-0.446271,383.545,0.0170954,-0.0579166,0.04761,0.0476074,-0.0937277,0.286522,-3.08533e-07,-2.21889e-06,0.187361,0.04876155854795061,0.3317874668961909,-3.085329524088465e-07,0.048758831771443356,-2.218887538263381e-06,-0.08946933401251156
249,0.2113,384.179,384.413,0.509331,383.922,-0.0173343,0.063355,0.0478167,0.0478115,-0.0941326,0.287763,-7.78357e-07,-4.83457e-07,0.188183,0.048978359967757346,0.33344124109725515,-7.783566970953615e-07,0.04897290529446763,-4.834568830824892e-07,-0.08983793325121825
250,0.2123,384.482,384.712,0.509392,384.236,-0.0283808,0.0591273,0.0480213,0.0480158,-0.0945403,0.289005,-1.01059e-06,-3.45658e-07,0.189006,0.04919300289742967,0.33509840400383983,-1.0105894893142064e-06,0.049187232351782795,-3.456579402705273e-07,-0.09020893069286429
251,0.2133,384.067,384.615,-0.228422,384.489,0.0155993,-0.0359547,0.048224,0.0482208,-0.0949504,0.290246,-4.23434e-07,-1.6553e-06,0.18983,0.04940569587482213,0.3367562896284655,-4.2343391037924505e-07,0.04940233778196812,-1.6552986299434025e-06,-0.090581959515599
252,0.2143,384.181,384.771,-0.436138,384.786,0.0168199,-0.0583236,0.0484278,0.0484251,-0.0953584,0.291486,-3.61835e-07,-2.12498e-06,0.190652,0.049619586550360806,0.33841489555075377,-3.618349345702043e-07,0.049616752581302936,-2.1249777422127636e-06,-0.09095292639372743
253,0.2153,385.398,385.643,0.495483,385.156,-0.0168141,0.0598393,0.0486338,0.0486286,-0.0957621,0.292722,-8.19659e-07,-4.40916e-07,0.191471,0.049835830457547914,0.3400701991285322,-8.196586640529802e-07,0.04983037132542334,-4.409159027884968e-07,-0.09131983463193138
254,0.2163,385.689,385.932,0.488604,385.465,-0.0272638,0.0550534,0.0488377,0.0488322,-0.0961685,0.29396,-1.04042e-06,-3.24553e-07,0.192292,0.050049913808434265,0.3417302333842376,-1.0404194588087279e-06,0.050044138549790285,-3.245529472950537e-07,-0.09168904722205706
255,0.2173,385.308,385.852,-0.210211,385.716,0.01499,-0.0347823,0.0490398,0.0490365,-0.0965771,0.295197,-4.76666e-07,-1.56398e-06,0.193112,0.050262150341794154,0.34339098064334483,-4.7666588642858443e-07,0.05025868448241666,-1.5639787769305968e-06,-0.09206010726463287
256,0.2183,386.455,386.649,0.654167,386.082,-0.0293321,0.0741276,0.0492453,0.0492393,-0.09698,0.296431,-1.11063e-06,4.58793e-08,0.19393,0.05047800139162506,0.34504974836265,-1.1106293832385816e-06,0.05047169854252531,4.5879301024953634e-08,-0.09242584256509223
257,0.2193,386.621,386.873,0.525778,386.377,-0.0313254,0.0532216,0.0494484,0.0494426,-0.0973858,0.297666,-1.24021e-06,-4.73127e-08,0.194749,0.05069137514107869,0.34671191097602727,-1.2402092309793389e-06,0.05068528114877546,-4.731269886981693e-08,-0.09279406144151636
258,0.2203,386.25,386.8,-0.159235,386.624,0.0120269,-0.0346935,0.04965,0.0496463,-0.0977934,0.2989,-6.72225e-07,-1.26185e-06,0.195568,0.050903215875135466,0.3483747792528866,-6.722247740675868e-07,0.05089932754043014,-1.2618492039040419e-06,-0.09316376323172948
259,0.2213,387.301,387.536,0.610423,386.981,-0.0281005,0.0626466,0.0498547,0.0498487,-0.0981956,0.300131,-1.25111e-06,1.64674e-07,0.196383,0.05111835778244811,0.3500356506627649,-1.2511092173372873e-06,0.05111205109122152,1.6467401353637e-07,-0.09352841942888068
260,0.2223,387.453,387.747,0.468684,387.27,-0.0286189,0.0410527,0.0500573,0.0500515,-0.0986005,0.301363,-1.35365e-06,2.31659e-08,0.1972,0.05133133593569328,0.35169991956351865,-1.35364908382396e-06,0.05132523823162827,2.316590030915222e-08,-0.09389537547658877
261,0.2233,387.178,387.727,-0.115205,387.521,0.0101932,-0.0334363,0.0502587,0.0502547,-0.0990068,0.302594,-8.46835e-07,-1.01798e-06,0.198017,0.05154309539021207,0.3533648867415471,-8.468346414103323e-07,0.05153888922624272,-1.0179794818210297e-06,-0.09426345100592537
262,0.2243,388.095,388.38,0.518945,387.864,-0.0236832,0.0472142,0.0504626,0.0504567,-0.0994084,0.303822,-1.33567e-06,1.48576e-07,0.198831,0.051757526887910466,0.35502783966658624,-1.33566910798244e-06,0.051751321536807504,1.4857601104978357e-07,-0.09462712177402333
263,0.2253,387.289,388.014,-0.607933,388.078,0.0306144,-0.0936064,0.0506624,0.0506599,-0.0998159,0.305052,-5.83236e-07,-1.92158e-06,0.199647,0.05196768903628213,0.35669554934056924,-5.832358299651119e-07,0.05196505912034688,-1.9215781538184373e-06,-0.09499598606069759
264,0.2263,388.61,388.902,0.435382,388.447,-0.0228183,0.0408523,0.0508669,0.0508614,-0.100216,0.306278,-1.30647e-06,-9.77557e-08,0.200459,0.05218283842696536,0.35835987810912817,-1.3064691465336509e-06,0.05217705143726814,-9.775569520531491e-08,-0.09535800573980857
265,0.2273,388.954,389.233,0.495643,388.744,-0.027139,0.045627,0.051069,0.0510633,-0.100618,0.307504,-1.4463e-06,1.07507e-07,0.201272,0.052395506067952624,0.360026248596075,-1.4462989541552673e-06,0.05238950743066417,1.0750700574213568e-07,-0.09572159873441277
266,0.2283,388.514,389.106,-0.251207,388.978,0.0177796,-0.0488444,0.0512692,0.0512657,-0.101023,0.30873,-8.43043e-07,-1.23398e-06,0.202086,0.052606216739701894,0.36169466330609157,-8.430426446937034e-07,0.05260253262439063,-1.2339792386795168e-06,-0.09608775733480379
267,0.2293,388.643,389.266,-0.42536,389.259,0.0198142,-0.0660902,0.0514706,0.0514676,-0.101426,0.309955,-7.62647e-07,-1.65963e-06,0.202898,0.052818232981072244,0.36336376138248894,-7.626467092292089e-07,0.052815074531110895,-1.659628622863174e-06,-0.09645196057671546
268,0.2303,389.795,390.089,0.455135,389.606,-0.0128395,0.0456942,0.0516739,0.0516687,-0.101825,0.311176,-1.19389e-06,-1.03418e-07,0.203708,0.05303229268626897,0.3650294452281857,-1.1938892873208928e-06,0.05302681693258404,-1.034179946124425e-07,-0.09681240433113447
269,0.2313,390.056,390.35,0.43354,389.895,-0.0212967,0.0402072,0.0518753,0.0518698,-0.102227,0.312399,-1.36931e-06,-4.68109e-08,0.204518,0.05324439474797682,0.36669989751306,-1.3693090624711246e-06,0.05323860191973595,-4.681089893487922e-08,-0.09717541277500752
270,0.2323,389.756,390.306,-0.164587,390.136,0.0163504,-0.0357077,0.0520752,0.0520716,-0.10263,0.313621,-8.58885e-07,-1.11233e-06,0.205329,0.05345495934771738,0.36837102563915036,-8.588846311941012e-07,0.05345116691669016,-1.1123293813808388e-06,-0.09753917778008747
271,0.2333,390.739,390.998,0.54871,390.473,-0.0213395,0.0541552,0.0522777,0.052272,-0.103029,0.31484,-1.38441e-06,1.90823e-07,0.206137,0.05366830557756197,0.3700400870056273,-1.3844090417380883e-06,0.05366229968533709,1.908230182756654e-07,-0.09789918782137375
272,0.2343,389.836,390.567,-0.665266,390.671,0.0363815,-0.0972335,0.052476,0.0524738,-0.103434,0.316061,-5.75114e-07,-2.02128e-06,0.206948,0.05387726872056886,0.3717139276236059,-5.751138346665741e-07,0.05387495019312816,-2.0212779572315043e-06,-0.09826446467674999
273,0.2353,391.216,391.49,0.44823,391.034,-0.0206083,0.0452824,0.0526791,0.0526738,-0.10383,0.317278,-1.3322e-06,-8.26526e-08,0.207754,0.05409133293133084,0.37338431970093633,-1.3321991125803123e-06,0.054085746262070966,-8.26525965447189e-08,-0.09862148125479009
274,0.2363,391.553,391.814,0.512223,391.321,-0.0254032,0.0500287,0.0528798,0.0528741,-0.10423,0.318495,-1.47092e-06,1.34102e-07,0.208561,0.05430291029292822,0.37505674588292637,-1.4709189182227078e-06,0.054296900783466606,1.3410200905283887e-07,-0.09898196056162045
275,0.2373,391.075,391.659,-0.26116,391.544,0.0204641,-0.0477114,0.0530785,0.0530752,-0.104632,0.319712,-8.49156e-07,-1.24372e-06,0.209369,0.05451242109541243,0.3767312086465886,-8.491556394707445e-07,0.054508941210164474,-1.2437192266068209e-06,-0.0993440970191698
276,0.2383,391.204,391.816,-0.425578,391.815,0.022118,-0.0638996,0.0532783,0.0532755,-0.105032,0.320928,-7.67007e-07,-1.64662e-06,0.210175,0.05472313372663806,0.37840633206493024,-7.670067058151986e-07,0.05472018050599825,-1.6466186443242492e-06,-0.09970428733749592
277,0.2393,392.333,392.622,0.441837,392.151,-0.0109088,0.0455824,0.0534802,0.0534751,-0.105428,0.322141,-1.19554e-06,-1.20781e-07,0.210979,0.05493610382594549,0.3800793534280458,-1.1955392853479907e-06,0.05493072366553542,-1.207809926517811e-07,-0.100060733858641
278,0.2403,392.576,392.871,0.412942,392.43,-0.0188338,0.0391677,0.0536801,0.0536749,-0.105827,0.323354,-1.35583e-06,-8.08848e-08,0.211784,0.055147006632133566,0.3817544053973885,-1.3558290808957096e-06,0.055141519881964696,-8.088479674928095e-08,-0.10041973799974246
279,0.2413,392.303,392.838,-0.146776,392.663,0.0167884,-0.0317946,0.0538786,0.0538751,-0.106227,0.324568,-8.69579e-07,-1.07088e-06,0.212589,0.05535647410190858,0.3834328738697603,-8.695786218870794e-07,0.05535278036071323,-1.070879426579019e-06,-0.10077949814771614
280,0.2423,393.218,393.487,0.506474,392.986,-0.0184679,0.0500744,0.0540796,0.0540742,-0.106623,0.325778,-1.35537e-06,1.17248e-07,0.213391,0.05556862207336,0.38510784079777416,-1.3553690815237829e-06,0.05556292201819102,1.1724800685897208e-07,-0.10113551896967443
281,0.2433,392.412,393.11,-0.597234,393.183,0.0346655,-0.0871314,0.0542766,0.0542744,-0.107025,0.32699,-6.08882e-07,-1.88178e-06,0.214196,0.05577658957603493,0.3867876092348701,-6.088818146343655e-07,0.05577426687009268,-1.8817782294622276e-06,-0.1014967898707323
282,0.2443,392.647,393.326,-0.651461,393.454,0.0340953,-0.0873731,0.0544758,0.0544738,-0.107423,0.3282,-5.16116e-07,-2.15351e-06,0.214998,0.055986921221014674,0.38846663784950075,-5.161158668220978e-07,0.055984809249284284,-2.1535076811796117e-06,-0.10185432299455255
283,0.2453,394.058,394.298,0.508842,393.805,-0.0142879,0.0589218,0.0546773,0.0546722,-0.107816,0.329406,-1.13993e-06,-1.23016e-07,0.215798,0.05619972402480311,0.3901421387387076,-1.13992935024676e-06,0.056194337419946505,-1.2301599239261662e-07,-0.10220722489584999
284,0.2463,394.342,394.576,0.531533,394.08,-0.0240748,0.0576023,0.0548763,0.054871,-0.108212,0.330614,-1.33743e-06,3.68592e-08,0.216598,0.05640992868455408,0.3918224451430381,-1.3374291056855725e-06,0.05640432972676934,3.6859200580607876e-08,-0.10256268044994643
285,0.2473,393.848,394.407,-0.246956,394.293,0.0216789,-0.0409838,0.0550734,0.0550704,-0.108612,0.331821,-7.14793e-07,-1.32958e-06,0.2174,0.056618167602769054,0.3935033890799182,-7.147927445494417e-07,0.056614997753021035,-1.3295791161382908e-06,-0.1029215835923526
286,0.2483,393.967,394.554,-0.408629,394.554,0.0221929,-0.057266,0.0552717,0.0552691,-0.109008,0.333027,-6.47738e-07,-1.71093e-06,0.2182,0.056827715761417874,0.39518496795539804,-6.477377901825676e-07,0.05682496801292913,-1.710928536402534e-06,-0.1032767563164092
287,0.2493,395.049,395.33,0.421739,394.877,-0.00991392,0.0466357,0.0554719,0.0554671,-0.109402,0.334231,-1.06077e-06,-2.53293e-07,0.218997,0.057039313850375306,0.3968657823040096,-1.0607694373998555e-06,0.05703424007384594,-2.5329296793330514e-07,-0.10362999568169595
288,0.2503,394.278,394.948,-0.639246,395.073,0.0337028,-0.0839174,0.055668,0.0556661,-0.109801,0.335436,-4.38538e-07,-2.15846e-06,0.219798,0.05724661958548438,0.39855002012117446,-4.385379038795989e-07,0.0572446108188156,-2.1584576704869463e-06,-0.10398757597140729
289,0.2513,394.562,395.203,-0.634578,395.34,0.0337168,-0.0778265,0.0558661,0.0558644,-0.110196,0.336638,-3.38539e-07,-2.31755e-06,0.220595,0.05745608088728127,0.40023208796561316,-3.385389426568963e-07,0.05745428321347168,-2.317547314500956e-06,-0.10434143098793192
290,0.2523,395.9,396.131,0.45895,395.679,-0.0125138,0.0591345,0.0560664,0.0560617,-0.110587,0.337838,-9.29959e-07,-4.05093e-07,0.221391,0.05766791055431586,0.401913375041663,-9.299585675970334e-07,0.057662939526818224,-4.0509291798773717e-07,-0.10469156503274912
291,0.2533,396.176,396.404,0.481094,395.947,-0.0215493,0.0575599,0.0562643,0.0562594,-0.110982,0.339039,-1.10937e-06,-2.50158e-07,0.222187,0.05787724374665082,0.403598084470598,-1.109369384688641e-06,0.05787206016085622,-2.501579686731148e-07,-0.10504514202850734
292,0.2543,395.754,396.277,-0.214995,396.158,0.0198356,-0.0308676,0.0564605,0.0564576,-0.111379,0.34024,-5.4614e-07,-1.45688e-06,0.222984,0.05808481962440171,0.4052848184510569,-5.461398508987969e-07,0.05808175118287395,-1.456878938710382e-06,-0.10540036858998403
293,0.2553,396.825,397.023,0.612867,396.48,-0.0235626,0.0711797,0.0566598,0.0566544,-0.11177,0.341438,-1.14257e-06,4.82283e-08,0.223778,0.05829571694417268,0.4069693585015799,-1.1425693472455478e-06,0.05829000216273106,4.822830113049292e-08,-0.105750088671134
294,0.2563,396.911,397.183,0.444181,396.731,-0.0229777,0.0459217,0.0568568,0.0568517,-0.112164,0.342636,-1.2103e-06,-1.32236e-07,0.224573,0.058504221737458506,0.4086559178403957,-1.2102992675844249e-06,0.058498823379693476,-1.322359912681037e-07,-0.10610235373542287
295,0.2573,396.653,397.154,-0.0837966,396.951,0.0121008,-0.0213236,0.0570528,0.0570494,-0.112559,0.343834,-7.45835e-07,-1.0422e-06,0.225367,0.058711708897996484,0.4103444988880611,-7.458347218713968e-07,0.05870810928430559,-1.0421994569576043e-06,-0.10645537357968815
296,0.2583,397.421,397.711,0.436757,397.249,-0.0175519,0.0433134,0.057251,0.057246,-0.11295,0.345029,-1.15938e-06,-9.47951e-08,0.22616,0.05892156635488699,0.41203086796907695,-1.1593793278752429e-06,0.058916271760291794,-9.479509555099241e-08,-0.10680468123452169
297,0.2593,396.792,397.434,-0.469231,397.444,0.0276268,-0.0687107,0.0574459,0.0574435,-0.113346,0.346225,-5.33078e-07,-1.71587e-06,0.226954,0.05912797028157879,0.41372066718567324,-5.330778579670792e-07,0.059125428377500455,-1.7158685279294872e-06,-0.1071583165563379
298,0.2603,397.022,397.645,-0.510161,397.701,0.025837,-0.0685866,0.0576426,0.0576403,-0.113739,0.347419,-4.8234e-07,-1.92081e-06,0.227746,0.059336321243978585,0.41540965778902583,-4.82339883700611e-07,0.05933388477324164,-1.920808155198017e-06,-0.10750913439771015
299,0.2613,398.176,398.459,0.403819,398.018,-0.0116859,0.0457001,0.0578411,0.0578364,-0.114128,0.348611,-9.64981e-07,-3.36351e-07,0.228536,0.05954662037524372,0.41709783205308293,-9.649805343681095e-07,0.05954164051783084,-3.363509434306522e-07,-0.10785624582687925
300,0.2623,397.383,398.061,-0.666644,398.203,0.0345965,-0.085322,0.0580352,0.0580335,-0.114524,0.349805,-3.09845e-07,-2.24869e-06,0.229329,0.05975229833465878,0.4187908573995496,-3.098449520289037e-07,0.059750496757283056,-2.248687471673172e-06,-0.10820946481155702
301,0.2633,397.694,398.327,-0.623865,398.461,0.0328048,-0.0745869,0.0582315,0.0582299,-0.114915,0.350996,-2.35901e-07,-2.33544e-06,0.230119,0.059960348130241314,0.42048164397425536,-2.3590097220083095e-07,0.05995865219504104,-2.335437272904528e-06,-0.10855808675078515
302,0.2643,398.973,399.216,0.421268,398.785,-0.0122937,0.0556044,0.0584299,0.0584254,-0.115303,0.352185,-8.11454e-07,-5.20733e-07,0.230907,0.0601706651260665,0.4221716011293757,-8.114536708125897e-07,0.060165894368807704,-5.207328643841436e-07,-0.10890389912118759
303,0.2653,399.232,399.475,0.436619,399.041,-0.0204651,0.0534964,0.0586259,0.0586212,-0.115694,0.353374,-9.75808e-07,-3.8777e-07,0.231696,0.06037847894151982,0.4238635688385908,-9.758075238952557e-07,0.06037349517438062,-3.877699248366895e-07,-0.10925224958967661
304,0.2663,398.874,399.379,-0.182926,399.247,0.0172074,-0.0249744,0.0588203,0.0588175,-0.116086,0.354564,-4.66759e-07,-1.45051e-06,0.232485,0.06058463655569679,0.4255589750521336,-4.667588910933773e-07,0.060581666922872035,-1.4505089480643107e-06,-0.10960135427884798
305,0.2673,399.83,400.054,0.538612,399.55,-0.0214344,0.0633666,0.0590175,0.0590126,-0.116474,0.35575,-9.97594e-07,-1.44507e-07,0.233272,0.06079380446930416,0.4272506909857974,-9.975935023609495e-07,0.06078860659239704,-1.4450698959667108e-07,-0.10994676193996833
306,0.2683,398.929,399.604,-0.635191,399.72,0.0352253,-0.0815664,0.0592105,0.0592088,-0.116868,0.356938,-2.13481e-07,-2.21884e-06,0.234061,0.06099855743159188,0.4289472723764962,-2.1348097722917458e-07,0.06099675373557756,-2.2188375383702663e-06,-0.11029737384068383
307,0.2693,399.19,399.831,-0.637181,399.97,0.0326772,-0.07613,0.0594058,0.0594043,-0.117258,0.358124,-1.51802e-07,-2.37617e-06,0.234847,0.061205790685527006,0.43064300921471177,-1.5180198842390524e-07,0.06120419887803474,-2.3761671769095827e-06,-0.11064429021179645
308,0.2703,400.505,400.741,0.449081,400.292,-0.0146895,0.0587432,0.0596033,0.0595988,-0.117644,0.359307,-7.60723e-07,-4.9366e-07,0.235631,0.06141539952737918,0.43233646137406767,-7.607227106021242e-07,0.06141062316882806,-4.936598781979384e-07,-0.11098751526907702
309,0.2713,400.746,400.986,0.451746,400.542,-0.0226371,0.055022,0.0597984,0.0597937,-0.118033,0.360491,-9.28608e-07,-3.78185e-07,0.236417,0.061622501874003976,0.4340333521054145,-9.286075688397233e-07,0.0616175122599707,-3.781849284845151e-07,-0.11133327387122927
310,0.2723,400.367,400.875,-0.183739,400.742,0.0160669,-0.0252109,0.0599919,0.059989,-0.118424,0.361674,-4.11167e-07,-1.46376e-06,0.237203,0.061827945704166165,0.4357308174137198,-4.111669155149045e-07,0.06182486640758844,-1.463758928732517e-06,-0.11168067463986942
311,0.2733,401.323,401.548,0.542499,401.04,-0.023017,0.0635217,0.0601882,0.0601832,-0.11881,0.362855,-9.51121e-07,-1.53568e-07,0.237985,0.062036402989321004,0.437427417154036,-9.511205476542273e-07,0.06203109282058139,-1.5356798821475337e-07,-0.1120234997299594
312,0.2743,400.413,401.089,-0.635271,401.205,0.0343037,-0.0814405,0.0603802,0.0603786,-0.119202,0.364038,-1.63185e-07,-2.22682e-06,0.238771,0.062240333555402705,0.43912890001720895,-1.6318498663459025e-07,0.06223863397222873,-2.2268175206008323e-06,-0.11237151830196868
313,0.2753,400.678,401.317,-0.626917,401.451,0.0313765,-0.0747588,0.0605746,0.0605731,-0.11959,0.365218,-1.10626e-07,-2.36259e-06,0.239554,0.0624468531493001,0.44082807443497485,-1.1062599392097638e-07,0.06244525948021562,-2.362587209092659e-06,-0.11271585134793682
314,0.2763,401.963,402.207,0.432729,401.765,-0.0150871,0.0564935,0.0607711,0.0607667,-0.119974,0.366395,-7.08996e-07,-5.33228e-07,0.240334,0.06265564446901917,0.4425249274807108,-7.089957486661191e-07,0.06265096879447007,-5.332278578684679e-07,-0.11305650305170611
315,0.2773,402.194,402.444,0.430645,402.01,-0.0224985,0.0524169,0.0609653,0.0609607,-0.120361,0.367574,-8.69377e-07,-4.31348e-07,0.241116,0.0628620322347786,0.4442266673487387,-8.693766221368193e-07,0.06285714308067525,-4.313479069484316e-07,-0.11339968377527199
316,0.2783,401.847,402.348,-0.168128,402.208,0.0144484,-0.023005,0.0611579,0.0611551,-0.12075,0.368752,-3.78499e-07,-1.44947e-06,0.241898,0.06306675917675864,0.4459289688215884,-3.7849892842167776e-07,0.06306378259400014,-1.449468949532573e-06,-0.1137445042263574
317,0.2793,402.748,402.988,0.507781,402.497,-0.0222738,0.0593587,0.0613532,0.0613484,-0.121134,0.369927,-8.87013e-07,-2.33141e-07,0.242677,0.06327439638993981,0.44762893389384906,-8.870126065874118e-07,0.06326929268508596,-2.3314097286064595e-07,-0.11408476100325227
318,0.2803,401.918,402.575,-0.583212,402.663,0.0313368,-0.0745666,0.0615445,0.0615428,-0.121524,0.371104,-1.53479e-07,-2.14541e-06,0.243459,0.06347782023883997,0.4493337962637305,-1.5347898818518502e-07,0.0634760123280822,-2.14540769860605e-06,-0.11443020058136477
319,0.2813,402.18,402.801,-0.571981,402.905,0.0280884,-0.0680048,0.061738,0.0617363,-0.121911,0.372279,-1.1513e-07,-2.26128e-06,0.244238,0.06368362310784148,0.45103776435955156,-1.1512999342766506e-07,0.06368181484721935,-2.261277443293963e-06,-0.1147728497868421
320,0.2823,403.37,403.632,0.395352,403.208,-0.0140914,0.0514287,0.0619334,0.0619292,-0.122293,0.373451,-6.58268e-07,-5.96832e-07,0.245015,0.06389148719545679,0.45273937756994664,-6.582677833932848e-07,0.063887018860594,-5.968318218529944e-07,-0.11511094197850358
321,0.2833,402.558,403.215,-0.674167,403.375,0.0339784,-0.0787028,0.0621243,0.062123,-0.122682,0.374625,1.24097e-08,-2.47393e-06,0.245795,0.06409460346719364,0.45444589512901645,1.2409699934323726e-08,0.06409322014510832,-2.4739269398610375e-06,-0.11545509687960587
322,0.2843,402.892,403.492,-0.587593,403.618,0.0297632,-0.0633808,0.0623176,0.0623162,-0.123067,0.375797,4.59603e-08,-2.46365e-06,0.246572,0.06430031283521376,0.4561515050102649,4.5960301120473446e-08,0.06429882281581878,-2.46364696521173e-06,-0.1157955811198852
323,0.2853,404.06,404.31,0.361156,403.917,-0.0123918,0.0532722,0.0625125,0.0625085,-0.123449,0.376966,-4.91852e-07,-8.29294e-07,0.247347,0.06450776518175982,0.4578547414673664,-4.918518790031357e-07,0.06450350715921527,-8.29293656190444e-07,-0.11613328270278855
324,0.2863,403.309,403.933,-0.642669,404.086,0.0332831,-0.069249,0.0627031,0.0627019,-0.123837,0.378137,1.48265e-07,-2.58155e-06,0.248125,0.06471067969894273,0.4595628892949877,1.4826501093523348e-07,0.06470940204689368,-2.5815466677681087e-06,-0.11647615646728804
325,0.2873,403.643,404.211,-0.552554,404.328,0.0282628,-0.0542607,0.0628959,0.0628945,-0.124221,0.379306,1.67383e-07,-2.54824e-06,0.248901,0.0649159757078881,0.46127011599215884,1.6738301411578504e-07,0.0649144848265657,-2.5482367532747574e-06,-0.11681536449109586
326,0.2883,404.749,404.993,0.337461,404.621,-0.0113777,0.0545411,0.0630903,0.0630865,-0.124602,0.380473,-3.36951e-07,-1.0098e-06,0.249674,0.06512301549718114,0.46297641364855524,-3.369509432582518e-07,0.06511896803741246,-1.00979949013702e-06,-0.11715179374338247
327,0.2893,404.065,404.657,-0.595325,404.792,0.0307948,-0.0595478,0.0632806,0.0632794,-0.124989,0.381642,2.53492e-07,-2.62661e-06,0.25045,0.06532572769448408,0.4646876330889995,2.5349203203184345e-07,0.06532444930437786,-2.62660655048208e-06,-0.11749338989608493
328,0.2903,404.389,404.93,-0.511314,405.031,0.0256385,-0.0460111,0.0634729,0.0634716,-0.125372,0.382808,2.63039e-07,-2.58723e-06,0.251224,0.06553060953067691,0.46639645491870474,2.630390345537137e-07,0.06552922434178488,-2.587226653139041e-06,-0.1178313252090113
329,0.2913,405.431,405.673,0.315756,405.317,-0.0110423,0.05456,0.0636667,0.0636631,-0.125753,0.383972,-2.04416e-07,-1.1532e-06,0.251996,0.06573712937393039,0.46810433418512987,-2.0441597914366838e-07,0.06573329272717054,-1.1531993350244463e-06,-0.11816736745399403
330,0.2923,404.812,405.377,-0.547163,405.491,0.027735,-0.0511217,0.0638567,0.0638555,-0.126138,0.385138,3.36052e-07,-2.63883e-06,0.25277,0.06593963866628494,0.4698171422118145,3.3605205640441227e-07,0.06593835953948601,-2.638826518297499e-06,-0.11850680767108968
331,0.2933,405.125,405.644,-0.470828,405.727,0.0226393,-0.0390916,0.0640486,0.0640472,-0.126521,0.386301,3.37372e-07,-2.59814e-06,0.253542,0.0661442121111393,0.47152753394821634,3.3737205695771877e-07,0.06614271951028705,-2.5981366248428728e-06,-0.11884435491932732
332,0.2943,406.105,406.35,0.29553,406.007,-0.0110878,0.0536616,0.0642418,0.0642383,-0.1269,0.387463,-9.44109e-08,-1.266e-06,0.254312,0.06635021107177796,0.47323844278818816,-9.441089554584892e-08,0.0663464788525705,-1.265999198585277e-06,-0.11917824963176815
333,0.2953,405.548,406.092,-0.501368,406.183,0.0245371,-0.0440005,0.0644316,0.0644302,-0.127285,0.388626,3.98694e-07,-2.6293e-06,0.255084,0.06655262355017588,0.47495281581183013,3.9869407952863867e-07,0.06655113037754812,-2.6292965433771798e-06,-0.1195173007341348
334,0.2963,405.85,406.353,-0.432868,406.417,0.0195964,-0.0333733,0.064623,0.0646215,-0.127667,0.389786,3.92864e-07,-2.58963e-06,0.255854,0.06675678125959306,0.47666475381024553,3.9286407726990547e-07,0.06675518112562129,-2.5896266468983242e-06,-0.11985358089165499
335,0.2973,406.772,407.024,0.276988,406.69,-0.0113246,0.0521863,0.0648156,0.0648122,-0.128046,0.390945,-5.59543e-09,-1.35316e-06,0.256623,0.06696225840247716,0.47837720043103693,-5.595430008220603e-09,0.06695863073696562,-1.3531590844495511e-06,-0.12018709317992626
336,0.2983,406.272,406.799,-0.459115,406.869,0.0214358,-0.0380375,0.065005,0.0650036,-0.128429,0.392105,4.43972e-07,-2.60496e-06,0.257393,0.06716436019265415,0.4800931130204278,4.4397209864044385e-07,0.06716286616359568,-2.604956607088482e-06,-0.12052399700203797
337,0.2993,406.564,407.054,-0.398149,407.099,0.0167003,-0.0286793,0.065196,0.0651944,-0.12881,0.393264,4.32086e-07,-2.56768e-06,0.258162,0.0673682080523017,0.4818095354130585,4.3208609334932646e-07,0.06736650026453517,-2.567676703479904e-06,-0.12085901353447825
338,0.3003,407.433,407.693,0.260252,407.367,-0.0116318,0.050386,0.0653881,0.0653848,-0.129188,0.39442,6.41147e-08,-1.41897e-06,0.258929,0.06757326918055928,0.48352349771533754,6.411470199196856e-08,0.06756974619458389,-1.4189689933052918e-06,-0.12119126602768482
339,0.3013,406.985,407.499,-0.420882,407.547,0.0185658,-0.0330749,0.0655772,0.0655757,-0.129571,0.395577,4.74511e-07,-2.57078e-06,0.259697,0.0677751663745394,0.4852409277438794,4.7451111262475365e-07,0.06777356471299112,-2.570776695520749e-06,-0.12152778532523711
340,0.3023,408.277,408.401,0.669981,407.842,-0.0317689,0.0966501,0.0657699,0.0657654,-0.129947,0.396731,-2.13183e-07,-6.4912e-07,0.260462,0.06798094647537578,0.4869558851145792,-2.1318297727113134e-07,0.06797614057192991,-6.491197893643275e-07,-0.1218580287882931
341,0.3033,408.302,408.508,0.483197,408.056,-0.0318917,0.0684325,0.0659598,0.0659555,-0.130327,0.397886,-3.12048e-07,-8.13948e-07,0.261229,0.06818377531510023,0.4886743113620091,-3.1204795136741126e-07,0.06817918213474172,-8.139476687096803e-07,-0.12219165934353338
342,0.3043,407.953,408.405,-0.0953756,408.236,0.00489737,-0.00484572,0.0661487,0.066146,-0.130708,0.399041,1.48045e-07,-1.75267e-06,0.261995,0.06838557428957026,0.49039472353840785,1.480450109170306e-07,0.06838268965241401,-1.7526684640278845e-06,-0.12252604061764583
343,0.3053,408.691,408.941,0.43556,408.496,-0.026182,0.058471,0.0663398,0.0663355,-0.131085,0.400193,-3.01077e-07,-7.84813e-07,0.262759,0.06858976228235836,0.4921126475941917,-3.010769547007186e-07,0.06858516735625964,-7.848126920562137e-07,-0.12285678595092031
344,0.3063,408.042,408.63,-0.449172,408.657,0.0192156,-0.0494952,0.0665276,0.0665259,-0.131467,0.401347,2.95587e-07,-2.29277e-06,0.263525,0.06879046228485541,0.4938355395069489,2.9558704373044975e-07,0.06878864534261386,-2.292767371625537e-06,-0.12319179066871211
345,0.3073,408.289,408.845,-0.430268,408.88,0.0150106,-0.0436452,0.0667174,0.0667156,-0.131845,0.402498,2.82801e-07,-2.34268e-06,0.264289,0.06899333796689011,0.4955559341100837,2.8280103991917827e-07,0.06899141378061358,-2.3426772559620446e-06,-0.12352316153879928
346,0.3083,409.223,409.517,0.296172,409.147,-0.0162512,0.0444215,0.0669084,0.0669047,-0.132221,0.403647,-1.32287e-07,-1.09789e-06,0.265051,0.06919753519465632,0.497275315473809,-1.32286991250119e-07,0.0691935791710947,-1.0978893972835024e-06,-0.12385265488143038
347,0.3093,408.685,409.26,-0.472482,409.316,0.0187317,-0.0481941,0.0670961,0.0670945,-0.132602,0.404797,3.34257e-07,-2.40882e-06,0.265815,0.06939824240779502,0.49899817253954337,3.342570558118041e-07,0.06939653137197599,-2.4088170987868196e-06,-0.12418640343678355
348,0.3103,408.984,409.514,-0.398713,409.54,0.0142346,-0.0364279,0.0672855,0.0672837,-0.132979,0.405946,3.17923e-07,-2.36192e-06,0.266577,0.06960080561703741,0.5007215113083179,3.1792305055233783e-07,0.0695988803373202,-2.3619172107025577e-06,-0.12451652293125315
349,0.3113,409.837,410.137,0.248673,409.799,-0.0135447,0.04169,0.067476,0.0674725,-0.133354,0.407092,-4.78136e-08,-1.25115e-06,0.267338,0.06980458397978029,0.5024423239976172,-4.7813598857970874e-08,0.06980083967028894,-1.251149217340597e-06,-0.12484476768541597
350,0.3123,409.412,409.95,-0.403764,409.974,0.0163263,-0.0371806,0.0676635,0.0676618,-0.133734,0.40824,3.51344e-07,-2.35609e-06,0.2681,0.07000519114561055,0.504168118201904,3.51344061622072e-07,0.07000337213833174,-2.356087224431036e-06,-0.12517726349549052
351,0.3133,410.646,410.813,0.634351,410.258,-0.031805,0.0861587,0.0678545,0.06785,-0.134107,0.409384,-3.08103e-07,-5.47518e-07,0.268858,0.07020958165579172,0.505889871184056,-3.0810295248429043e-07,0.07020476572351031,-5.475178500580213e-07,-0.1255035115271662
352,0.3143,410.662,410.909,0.44392,410.464,-0.0307181,0.0585503,0.0680428,0.0680385,-0.134484,0.41053,-3.87817e-07,-7.35511e-07,0.269618,0.07041112109436032,0.5076166102089146,-3.8781692479616936e-07,0.07040651833643552,-7.35510729543698e-07,-0.12583313456547374
353,0.3153,410.369,410.833,-0.0716695,410.642,0.00306842,-0.00616294,0.0682302,0.0682274,-0.134862,0.411675,3.05085e-08,-1.57001e-06,0.270378,0.0706117349353832,0.5093438198664315,3.05085003926564e-08,0.07060873722672212,-1.5700087675485364e-06,-0.12616350719624703
354,0.3163,411.025,411.315,0.381824,410.888,-0.0238861,0.047955,0.0684195,0.0684154,-0.135236,0.412817,-3.61367e-07,-7.50001e-07,0.271136,0.07081442092042955,0.511068475099421,-3.613669347091175e-07,0.07081003059030411,-7.500007187521973e-07,-0.12649026093779714
355,0.3173,410.496,411.072,-0.374134,411.051,0.0157587,-0.0436019,0.0686061,0.0686041,-0.135614,0.413961,1.5576e-07,-2.03249e-06,0.271896,0.07101425353517654,0.512798126606959,1.5576001222150637e-07,0.07101211150881137,-2.0324879345112734e-06,-0.12682038522174222
356,0.3183,411.733,411.925,0.669343,411.334,-0.0362884,0.0812533,0.0687964,0.0687915,-0.135986,0.415101,-5.65231e-07,-2.20912e-07,0.272652,0.0712180869417578,0.5145236998611662,-5.652308402437356e-07,0.07121283798599176,-2.2091197560136777e-07,-0.12714514762888685
357,0.3193,411.72,412.001,0.45056,411.534,-0.0321719,0.0508475,0.0689839,0.0689794,-0.136361,0.416242,-6.11539e-07,-4.66998e-07,0.273409,0.07141895916424157,0.5162527576425864,-6.115388130334409e-07,0.07141413778977346,-4.669978909133121e-07,-0.12747240683359007
358,0.3203,411.43,411.922,-0.060184,411.709,0.00199169,-0.0124735,0.0691705,0.0691675,-0.136738,0.417383,-1.91837e-07,-1.30173e-06,0.274166,0.07161890459635045,0.5179837894048773,-1.9183698163338647e-07,0.07161568974445887,-1.3017291528027997e-06,-0.12780128773826793
359,0.3213,412.062,412.387,0.369984,411.951,-0.0233428,0.0393693,0.0693591,0.0693548,-0.137111,0.418521,-5.62202e-07,-5.35168e-07,0.274921,0.07182103098167625,0.5197122382580828,-5.62201841969312e-07,0.07181642216115192,-5.351678568077389e-07,-0.1281265571914174
360,0.3223,411.562,412.158,-0.353554,412.113,0.0151647,-0.0474797,0.069545,0.0695428,-0.137488,0.41966,-6.08072e-08,-1.76848e-06,0.275678,0.07202030103291301,0.5214441766491322,-6.08071981655911e-08,0.07201794259084515,-1.7684784362481665e-06,-0.12845519152789142
361,0.3233,412.746,412.975,0.636369,412.388,-0.0341769,0.0712059,0.0697345,0.0697296,-0.137858,0.420796,-7.42775e-07,-6.39359e-08,0.276431,0.07222346812943337,0.5231735193144638,-7.427747241717242e-07,0.07221821424731134,-6.393589790931742e-08,-0.12877760345714107
362,0.3243,412.733,413.048,0.420465,412.586,-0.0296293,0.0419755,0.0699213,0.0699167,-0.138232,0.421933,-7.76308e-07,-3.20748e-07,0.277185,0.07242377818165635,0.5249063525349309,-7.763076986799788e-07,0.07241884504362273,-3.207479485345388e-07,-0.12910337970949148
363,0.3253,412.485,412.991,-0.0455692,412.76,0.00232203,-0.0153168,0.0701073,0.0701041,-0.138607,0.423069,-3.82427e-07,-1.08697e-06,0.27794,0.07262326755633475,0.5266396304668768,-3.824269269037117e-07,0.07261983516737036,-1.0869694092585647e-06,-0.1294299047148355
364,0.3263,413.067,413.422,0.335969,412.996,-0.0203664,0.0309749,0.0702951,0.0702908,-0.138979,0.424203,-7.12459e-07,-4.14518e-07,0.278692,0.07282472512225513,0.5283718217746709,-7.124587462215004e-07,0.07282011198585536,-4.1451791410462846e-07,-0.12975369656126412
365,0.3273,412.643,413.238,-0.308467,413.16,0.0144627,-0.0458809,0.0704804,0.070478,-0.139354,0.425338,-2.57229e-07,-1.51608e-06,0.279445,0.07302353796326111,0.5301075086083338,-2.5722896690449915e-07,0.07302096270986036,-1.516078850793967e-06,-0.13007997774350843
366,0.3283,413.712,413.98,0.566608,413.425,-0.0293714,0.0591085,0.070669,0.0706641,-0.139723,0.426469,-8.59723e-07,-1.94348e-08,0.280196,0.07322592928742289,0.531839039196542,-8.597226304196681e-07,0.07322067049325343,-1.9434799769513234e-08,-0.13040091901441497
367,0.3293,413.711,414.058,0.364073,413.62,-0.0249208,0.0323092,0.0708551,0.0708506,-0.140096,0.427602,-8.80825e-07,-2.72744e-07,0.280948,0.07342567521864574,0.5335755964018418,-8.808246120262098e-07,0.0734208448139757,-2.727439628591455e-07,-0.13072521898591793
368,0.3303,413.539,414.044,-0.0226174,413.798,0.00278296,-0.0149674,0.0710406,0.0710373,-0.14047,0.428734,-5.36717e-07,-9.10848e-07,0.281699,0.07362481415096389,0.5353125869281214,-5.367168559589075e-07,0.0736212711949229,-9.108475851338227e-07,-0.131050266966256
369,0.3313,414.041,414.424,0.280133,414.025,-0.0158021,0.0220177,0.0712274,0.0712233,-0.14084,0.429864,-8.04858e-07,-3.81424e-07,0.282449,0.07382538599907451,0.5370484707409919,-8.048576760621984e-07,0.07382098332401754,-3.814239272204034e-07,-0.13137171889520438
370,0.3323,413.74,414.314,-0.236996,414.195,0.012793,-0.0393353,0.0714124,0.0714097,-0.141213,0.430994,-4.28688e-07,-1.26753e-06,0.283199,0.0740240620724546,0.5387863172112637,-4.2868790806060986e-07,0.07402116221140176,-1.2675291967134683e-06,-0.1316956568258767
371,0.3333,414.63,414.944,0.459029,414.445,-0.0224523,0.0442276,0.0715998,0.0715953,-0.141582,0.432122,-9.09705e-07,-8.43259e-08,0.283947,0.07422535304206179,0.5405230475088167,-9.097045862160869e-07,0.07422051903884941,-8.432589648776911e-08,-0.13201600202118446
372,0.3343,413.861,414.533,-0.531052,414.584,0.0272111,-0.072879,0.0717835,0.0717817,-0.141956,0.433251,-2.46618e-07,-1.77188e-06,0.284697,0.0744227063657632,0.5422632802059641,-2.466179696014592e-07,0.07442077240663236,-1.7718784302012125e-06,-0.13234056733893085
373,0.3353,414.158,414.771,-0.447525,414.793,0.0218873,-0.0581464,0.0719693,0.0719674,-0.142327,0.434378,-2.53884e-07,-1.74384e-06,0.285445,0.07462235265117156,0.5440023907274605,-2.5388396773795563e-07,0.07462031087064136,-1.7438384795065431e-06,-0.13266240928307593
374,0.3363,415.057,415.414,0.25844,415.04,-0.00968507,0.0273932,0.0721563,0.0721526,-0.142694,0.435503,-6.52113e-07,-5.79609e-07,0.286191,0.07482332582152318,0.5457403708475439,-6.5211278732491e-07,0.07481934898257481,-5.796088320408899e-07,-0.13298066377559759
375,0.3373,414.585,415.185,-0.428047,415.198,0.0231817,-0.0533751,0.0723403,0.0723384,-0.143067,0.436629,-2.01214e-07,-1.75178e-06,0.286939,0.07502111150919966,0.5474818547765714,-2.0121397981132105e-07,0.07501906897102817,-1.75177846561958e-06,-0.13330400168174095
376,0.3383,415.839,416.055,0.641237,415.468,-0.0275888,0.0731887,0.0725278,0.0725231,-0.143433,0.437752,-8.75882e-07,5.8189e-08,0.287684,0.0752226968656442,0.5492206530519796,-8.758816164577965e-07,0.07521764333084469,5.818900161713714e-08,-0.13362115437464228
377,0.3393,415.818,416.118,0.426455,415.657,-0.024166,0.0440799,0.0727125,0.0727081,-0.143803,0.438876,-9.0745e-07,-1.93978e-07,0.28843,0.07542130883900633,0.550962956056867,-9.074495882499534e-07,0.07541657699565762,-1.9397798123321763e-07,-0.13394165525120516
378,0.3403,415.55,416.044,-0.049801,415.823,0.00761697,-0.0143271,0.0728964,0.0728934,-0.144174,0.44,-5.02128e-07,-9.71463e-07,0.289176,0.07561909700376623,0.552707218511336,-5.021278739469892e-07,0.07561587015131543,-9.714625280876632e-07,-0.13426290330190882
379,0.3413,416.126,416.471,0.335164,416.049,-0.0157904,0.0317494,0.0730821,0.073078,-0.144541,0.441121,-8.26834e-07,-3.00358e-07,0.28992,0.0758188580173158,0.5544487792657136,-8.268336582073488e-07,0.07581444716904029,-3.003579548410684e-07,-0.13458057052089678
380,0.3423,415.696,416.278,-0.305215,416.206,0.0186742,-0.0442946,0.0732654,0.0732631,-0.144912,0.442243,-3.66106e-07,-1.38596e-06,0.290665,0.07601607368825447,0.5561938495974359,-3.6610593301400485e-07,0.07601359885413106,-1.3859590395348675e-06,-0.13490158157800036
381,0.3433,416.737,417.004,0.550179,416.46,-0.0249794,0.0573519,0.0734518,0.0734472,-0.145278,0.443362,-9.52108e-07,6.22164e-08,0.291407,0.07621666177861908,0.5579362051812753,-9.521075466922824e-07,0.07621171119336134,6.221640203030177e-08,-0.1352181496636493
382,0.3443,415.752,416.453,-0.652615,416.58,0.0351883,-0.0845999,0.0736336,0.0736323,-0.14565,0.444484,-1.44908e-07,-1.97201e-06,0.292152,0.0764123357539559,0.5596851906008282,-1.449079894966232e-07,0.07641093641882901,-1.9720080556284714e-06,-0.13553978868340766
383,0.3453,416.089,416.714,-0.523513,416.787,0.0279497,-0.0640998,0.0738182,0.0738166,-0.146017,0.445602,-1.58833e-07,-1.88435e-06,0.292894,0.07661105981280247,0.5614298937512523,-1.588329874291361e-07,0.07660933723648489,-1.8843482245678445e-06,-0.13585698737144136
384,0.3463,417.07,417.406,0.270539,417.034,-0.00919824,0.0314895,0.074004,0.0740004,-0.146382,0.446718,-6.21573e-07,-5.81419e-07,0.293635,0.07681111273205632,0.5631734222206073,-6.215728067804349e-07,0.07680723621902819,-5.814188309694046e-07,-0.13617234201532713
385,0.3473,416.534,417.135,-0.474149,417.183,0.0270654,-0.0560018,0.0741864,0.0741848,-0.146752,0.447837,-1.20873e-07,-1.84505e-06,0.294378,0.07700754099273155,0.5649235923176168,-1.208729927260066e-07,0.07700581778204452,-1.8450482979215366e-06,-0.13649189912707016
386,0.3483,416.857,417.396,-0.352549,417.387,0.0198671,-0.0385218,0.0743705,0.0743687,-0.147119,0.448952,-1.55677e-07,-1.72605e-06,0.295118,0.07720583633355438,0.5666694552607667,-1.5567698785634576e-07,0.07720389736479394,-1.726048510342082e-06,-0.1368087484546826
387,0.3493,417.581,417.932,0.18442,417.615,-0.00407833,0.0254572,0.0745554,0.0745522,-0.147484,0.450067,-4.47282e-07,-8.41038e-07,0.295857,0.07740503010758926,0.5684172659267519,-4.4728189996234846e-07,0.07740158241700912,-8.410376463041658e-07,-0.13712375576916447
388,0.3503,417.299,417.822,-0.299667,417.779,0.0186703,-0.0316961,0.074738,0.0747361,-0.147852,0.451182,-1.29724e-07,-1.65291e-06,0.296598,0.07760178222900893,0.5701670264884946,-1.2972399154875802e-07,0.07759973478756765,-1.6529086339645005e-06,-0.13744123580713163
389,0.3513,418.241,418.496,0.461165,418.021,-0.0180498,0.057111,0.0749231,0.0749191,-0.148215,0.452295,-6.10934e-07,-3.67819e-07,0.297336,0.07780126478044003,0.5719155952870065,-6.109338134274722e-07,0.07779695358400329,-3.678189323119696e-07,-0.1377542878161564
390,0.3523,417.434,418.054,-0.553366,418.151,0.0307673,-0.0626889,0.0751043,0.075103,-0.148585,0.453409,4.67481e-08,-2.06059e-06,0.298076,0.07799658006464871,0.5736676849929279,4.674810116789274e-08,0.0779951786700055,-2.060587876995257e-06,-0.13807325971622397
391,0.3533,417.75,418.307,-0.437781,418.352,0.0238902,-0.0455544,0.0752877,0.0752862,-0.14895,0.454521,2.61211e-08,-1.96409e-06,0.298814,0.07819430276805006,0.5754185767740492,2.612110039379445e-08,0.078192685477809,-1.964088071182424e-06,-0.13838780556831742
392,0.3543,418.6,418.921,0.229541,418.586,-0.00722156,0.0336666,0.0754722,0.075469,-0.149313,0.455631,-3.58788e-07,-8.63401e-07,0.299551,0.07839324796904124,0.5771682622900807,-3.5878793558374866e-07,0.07838979711616911,-8.634006272156824e-07,-0.1387005140348757
393,0.3553,418.185,418.727,-0.386242,418.739,0.0223402,-0.0389989,0.0756538,0.0756522,-0.14968,0.456742,4.88291e-08,-1.89202e-06,0.300289,0.0785891019658771,0.5789214699560083,4.882910120684869e-08,0.0785873762246947,-1.89201821010343e-06,-0.13901655294953674
394,0.3563,419.314,419.521,0.567977,418.991,-0.0243108,0.0721389,0.0758387,0.0758345,-0.150042,0.45785,-5.65759e-07,-2.83133e-07,0.301023,0.07878855152937447,0.5806718844952976,-5.657588399987645e-07,0.07878402062697298,-2.831329599661814e-07,-0.1393281725508182
395,0.3573,419.289,419.579,0.359542,419.171,-0.0206787,0.043901,0.0760209,0.0760172,-0.150407,0.458959,-5.84032e-07,-5.27533e-07,0.30176,0.07898512471073627,0.5824258219937846,-5.840318294536573e-07,0.07898113247316041,-5.275328608389529e-07,-0.13964226044330974
396,0.3583,419.105,419.554,-0.0190967,419.334,0.00534588,-0.00293286,0.0762026,0.0761999,-0.150773,0.460068,-2.5452e-07,-1.12752e-06,0.302496,0.0791811941202627,0.5841817056879235,-2.5451996765735174e-07,0.0791782803349721,-1.1275193643189851e-06,-0.1399570937579765
397,0.3593,419.568,419.911,0.261363,419.544,-0.0128963,0.0298749,0.0763856,0.0763821,-0.151136,0.461175,-5.08668e-07,-6.31241e-07,0.30323,0.07937870235023836,0.5859363658613388,-5.086678706023307e-07,0.0793749245313915,-6.31240800741395e-07,-0.1402692326763011
398,0.3603,419.293,419.811,-0.210649,419.702,0.0130157,-0.0262533,0.0765669,0.0765646,-0.151501,0.462282,-1.66051e-07,-1.41405e-06,0.303965,0.07957441144946831,0.5876929695190862,-1.6605098618338587e-07,0.07957192843117755,-1.4140490002256811e-06,-0.1405829771445256
399,0.3613,420.086,420.383,0.403983,419.931,-0.0193153,0.0457422,0.0767503,0.0767464,-0.151863,0.463386,-6.00745e-07,-3.75707e-07,0.304698,0.07977242355368319,0.5894467504663901,-6.007448195566312e-07,0.07976821244944299,-3.757069294563209e-07,-0.14089402980287136
400,0.3623,419.436,420.039,-0.446954,420.065,0.0239183,-0.0541669,0.0769305,0.0769289,-0.152229,0.464492,-2.68049e-08,-1.79115e-06,0.305433,0.07996701607666723,0.5912056510651411,-2.680489963324817e-08,0.07996528813082393,-1.7911483959354157e-06,-0.14120840505378318
401,0.3633,419.719,420.269,-0.358409,420.259,0.0176009,-0.0404545,0.0771125,0.0771107,-0.152592,0.465596,-5.89118e-08,-1.72393e-06,0.306165,0.08016358796109202,0.5929633121543163,-5.891179821748693e-08,0.08016164366838363,-1.723928514052453e-06,-0.14152008982853947
402,0.3643,420.456,420.811,0.198631,420.481,-0.00752043,0.0255479,0.0772954,0.0772922,-0.152953,0.466698,-3.72592e-07,-8.13354e-07,0.306896,0.08036116794946935,0.5947197253302205,-3.7259193064187457e-07,0.08035771079926324,-8.133536691934395e-07,-0.14182994514386194
403,0.3653,420.139,420.674,-0.312465,420.636,0.016979,-0.0341029,0.0774759,0.0774741,-0.153317,0.467801,-4.0295e-08,-1.66311e-06,0.307629,0.08055619074056164,0.5964796716192078,-4.029499922619806e-08,0.08055424574116876,-1.6631086170448839e-06,-0.1421422621986772
404,0.3663,421.097,421.357,0.470838,420.871,-0.0211078,0.0568342,0.077659,0.0776551,-0.153676,0.468901,-5.43856e-07,-3.5313e-07,0.308359,0.0807540586933444,0.5982367654824399,-5.438558521309034e-07,0.08074984376073457,-3.531299376247077e-07,-0.142450177852381
405,0.3673,420.266,420.893,-0.560146,420.993,0.0293706,-0.0637989,0.0778382,0.077837,-0.154042,0.470003,1.27319e-07,-2.05855e-06,0.309091,0.08094774717463182,0.5999989932071399,1.273190080031128e-07,0.08094645003811363,-2.0585478811563362e-06,-0.14276398365732168
406,0.3683,420.592,421.151,-0.426339,421.187,0.0217654,-0.0445759,0.0780196,0.0780182,-0.154403,0.471103,9.17197e-08,-1.9307e-06,0.309821,0.08114384888185655,0.6017599604540893,9.17197042760165e-08,0.08114233528152748,-1.9306981362543496e-06,-0.1430733900080149
407,0.3693,421.403,421.739,0.20903,421.412,-0.00812816,0.0304212,0.0782021,0.078199,-0.154762,0.472201,-2.80144e-07,-8.92911e-07,0.310549,0.08134117563979637,0.6035196587882619,-2.8014396080688897e-07,0.08133782348734764,-8.929106013466637e-07,-0.14338097144683037
408,0.3703,421.032,421.567,-0.354549,421.561,0.0194209,-0.0355004,0.0783818,0.0783802,-0.155125,0.4733,9.4584e-08,-1.82577e-06,0.311279,0.0815355101094879,0.605282895614436,9.458400440642833e-08,0.08153377965405628,-1.825768333296729e-06,-0.14369186772310716
409,0.3713,422.071,422.304,0.514402,421.799,-0.0235186,0.0649749,0.0785644,0.0785605,-0.155483,0.474396,-4.72098e-07,-3.73367e-07,0.312006,0.08173301652542109,0.60704325016611,-4.7209788855973045e-07,0.08172879777488307,-3.7336693026190915e-07,-0.14399837116707226
410,0.3723,421.134,421.771,-0.620539,421.912,0.0324232,-0.0677469,0.0787427,0.0787418,-0.155848,0.475494,2.70862e-07,-2.24283e-06,0.312736,0.08192590671791722,0.6088087527383299,2.7086203657766816e-07,0.08192493298503933,-2.2428274848440566e-06,-0.1443107547481246
411,0.3733,421.484,422.042,-0.46114,422.105,0.0235783,-0.0454824,0.0789236,0.0789223,-0.156208,0.47659,2.25198e-07,-2.07769e-06,0.313463,0.08212164481841988,0.6105729737478434,2.2519802533871314e-07,0.08212023806119584,-2.0776878415507127e-06,-0.1446187474344054
412,0.3743,422.33,422.653,0.2122,422.33,-0.00877865,0.0336781,0.0791054,0.0791024,-0.156565,0.477684,-1.7738e-07,-9.78506e-07,0.314189,0.08231839241726258,0.6123359047285417,-1.7737998425637613e-07,0.08231514546695573,-9.785055212763183e-07,-0.14492406403931468
413,0.3753,421.935,422.466,-0.372864,422.475,0.0200405,-0.0347899,0.0792844,0.079283,-0.156927,0.478779,2.13646e-07,-1.94167e-06,0.314916,0.08251214474982183,0.6141023795126599,2.1364602287299306e-07,0.08251062923387997,-1.941668114957551e-06,-0.1452335455086069
414,0.3763,423.005,423.222,0.5304,422.713,-0.0250033,0.0692441,0.0794665,0.0794627,-0.157284,0.479871,-3.81117e-07,-4.33279e-07,0.31564,0.08270928816074341,0.6158659420409793,-3.8111692735043334e-07,0.08270517387326559,-4.332789060867981e-07,-0.14553864266977667
415,0.3773,422.029,422.663,-0.641648,422.821,0.0330334,-0.067654,0.079644,0.0796432,-0.157647,0.480965,3.87336e-07,-2.35538e-06,0.316368,0.08290148611645587,0.6176346666975532,3.8733607499175093e-07,0.08290061979561347,-2.355377226148647e-06,-0.1458487558535394
416,0.3783,422.388,422.941,-0.469289,423.013,0.0234962,-0.0440139,0.0798243,0.0798231,-0.158006,0.482057,3.33061e-07,-2.16809e-06,0.317092,0.0830967508569902,0.6194020885903082,3.3306105540198416e-07,0.08309545114166883,-2.1680876497454094e-06,-0.14615534111484085
417,0.3793,423.236,423.553,0.208174,423.235,-0.00938115,0.0353088,0.0800054,0.0800026,-0.158362,0.483147,-7.69504e-08,-1.06275e-06,0.317815,0.08329291744091827,0.6211681992223064,-7.695039705435391e-08,0.08328988422499606,-1.062749435232213e-06,-0.1464592557133957
418,0.3803,422.843,423.367,-0.371042,423.379,0.0192719,-0.032456,0.0801838,0.0801825,-0.158723,0.484238,3.09721e-07,-2.01068e-06,0.31854,0.08348619413715852,0.6229378589014802,3.097210479197088e-07,0.08348478560602168,-2.010677978558917e-06,-0.14676732831163342
419,0.3813,423.902,424.117,0.522946,423.614,-0.0255753,0.0701135,0.0803652,0.0803615,-0.159078,0.485326,-2.83564e-07,-5.19257e-07,0.319262,0.08368275636042966,0.6247045762119035,-2.835639597575934e-07,0.08367874674164888,-5.192568651724017e-07,-0.1470701721521206
420,0.3823,422.942,423.566,-0.630033,423.721,0.0317371,-0.0643516,0.0805421,0.0805414,-0.15944,0.486417,4.7219e-07,-2.40142e-06,0.319986,0.08387447679720239,0.6264780961837797,4.72190111455717e-07,0.08387371808533417,-2.401417116604243e-06,-0.14737887687087625
421,0.3833,423.3,423.843,-0.455917,423.911,0.0219962,-0.0407853,0.0807218,0.0807206,-0.159797,0.487504,4.11358e-07,-2.20601e-06,0.320708,0.0840692665420173,0.6282470391206403,4.113580847064924e-07,0.08406796565967789,-2.2060075667296175e-06,-0.14768320828544368
422,0.3843,424.123,424.44,0.198942,424.129,-0.0098522,0.0355702,0.0809022,0.0808994,-0.160153,0.48859,1.26926e-08,-1.13799e-06,0.321429,0.08426485027882413,0.6300162759268253,1.2692600082075955e-08,0.08426181434149371,-1.1379893525287343e-06,-0.14798657906009216
423,0.3853,423.754,424.268,-0.35385,424.273,0.0175373,-0.0290531,0.08108,0.0810787,-0.160512,0.489677,3.79542e-07,-2.03694e-06,0.322151,0.08445764970856517,0.6317890669561259,3.7954207199319967e-07,0.08445623991453677,-2.0369379254425724e-06,-0.14829239698060837
424,0.3863,424.769,424.99,0.498085,424.502,-0.0253582,0.0683145,0.0812607,0.0812571,-0.160866,0.490761,-1.89543e-07,-6.17069e-07,0.32287,0.08465362891205519,0.6335588853729852,-1.8954298208750942e-07,0.08464972416601957,-6.170688096052146e-07,-0.14859384811207887
425,0.3873,423.866,424.474,-0.594402,424.611,0.0291231,-0.0588732,0.0814371,0.0814363,-0.161226,0.491848,5.25364e-07,-2.39193e-06,0.323592,0.0848449786887493,0.6353355293124312,5.253641379709961e-07,0.0848441108131135,-2.391927139355765e-06,-0.14890029916225989
426,0.3883,424.214,424.746,-0.42736,424.798,0.0195809,-0.0364928,0.0816161,0.0816149,-0.161582,0.492932,4.60373e-07,-2.20004e-06,0.324311,0.08503918332073068,0.6371091941788838,4.6037310608149085e-07,0.08503788127449186,-2.2000375798914007e-06,-0.14920323672967162
427,0.3893,424.995,425.315,0.186593,425.012,-0.0101612,0.034783,0.0817958,0.0817931,-0.161936,0.494014,8.62693e-08,-1.19898e-06,0.325029,0.08523418238211433,0.6388815049742185,8.62693037007034e-08,0.0852312522537777,-1.1989792811917255e-06,-0.1495043654809357
428,0.3903,424.662,425.165,-0.326604,425.156,0.0152509,-0.0251418,0.0819731,0.0819717,-0.162294,0.495097,4.23495e-07,-2.02787e-06,0.325749,0.08542661146098451,0.640657375104206,4.2349508966310623e-07,0.08542509186479208,-2.0278679438989755e-06,-0.1498087884231355
429,0.3913,425.613,425.847,0.462291,425.379,-0.0245458,0.0646708,0.0821529,0.0821495,-0.162647,0.496177,-1.06391e-07,-7.14303e-07,0.326465,0.08562178871163417,0.6424302422452521,-1.0639099434772703e-07,0.08561809760382744,-7.143027448419659e-07,-0.15010885295631615
430,0.3923,424.792,425.382,-0.543901,425.491,0.0257699,-0.0522484,0.0823289,0.082328,-0.163006,0.49726,5.50189e-07,-2.34084e-06,0.327185,0.0858128749615441,0.644209957739593,5.501891513493007e-07,0.08581189773039655,-2.3408372602506944e-06,-0.1504139091172476
431,0.3933,425.125,425.644,-0.389958,425.675,0.0167165,-0.0317813,0.0825072,0.0825059,-0.163361,0.49834,4.83355e-07,-2.16085e-06,0.327901,0.08600649265765448,0.6459866637424976,4.833551168204053e-07,0.08600508085013159,-2.1608476653556252e-06,-0.15071545865130176
432,0.3943,425.853,426.18,0.172953,425.883,-0.0103057,0.0332766,0.0826862,0.0826835,-0.163714,0.499418,1.415e-07,-1.24311e-06,0.328617,0.0862009052192454,0.6477619940971495,1.4150000993140566e-07,0.08619797248076044,-1.2431092273335054e-06,-0.15101520318637485
433,0.3953,425.563,426.057,-0.294239,426.028,0.012771,-0.0211932,0.0828629,0.0828614,-0.16407,0.500497,4.44458e-07,-1.9923e-06,0.329334,0.08639285387736217,0.6495408888299001,4.444580987694735e-07,0.08639122428930346,-1.992298015340843e-06,-0.1513173879819555
434,0.3963,426.44,426.69,0.421396,426.244,-0.0233433,0.0599615,0.083042,0.0830386,-0.164422,0.501574,-3.84308e-08,-8.01787e-07,0.330048,0.08658744426254028,0.6513184013858657,-3.8430799209621114e-08,0.0865837498715103,-8.017866786058647e-07,-0.15161607168996916
435,0.3973,425.714,426.285,-0.486665,426.361,0.0221723,-0.045344,0.0832175,0.0832165,-0.164779,0.502652,5.51894e-07,-2.26221e-06,0.330764,0.08677815709356995,0.6530994824527743,5.518941523785514e-07,0.08677707031595627,-2.2622074411504656e-06,-0.1519188906959671
436,0.3983,426.027,426.535,-0.349133,426.542,0.0137826,-0.0271574,0.0833951,0.0833938,-0.165133,0.503728,4.85164e-07,-2.09919e-06,0.331479,0.0869711860347322,0.6548791747986684,4.851641177694432e-07,0.08696977297310893,-2.0991877967002637e-06,-0.15221905827586446
437,0.3993,426.699,427.036,0.159401,426.744,-0.0102974,0.0313476,0.0835733,0.0835707,-0.165485,0.504803,1.78554e-07,-1.27015e-06,0.332192,0.08716490155962431,0.6566591264641843,1.78554016017074e-07,0.08716207493455497,-1.2701491933775344e-06,-0.1525174246517884
438,0.4003,426.454,426.939,-0.26072,426.89,0.0103701,-0.0175416,0.0837495,0.083748,-0.16584,0.505878,4.46665e-07,-1.93884e-06,0.332906,0.08735647689257031,0.6584409926065875,4.46665099795851e-07,0.08735484585907827,-1.9388381204965555e-06,-0.1528182275703599
439,0.4013,427.255,427.524,0.379944,427.099,-0.0219302,0.054829,0.0839278,0.0839246,-0.166191,0.506951,1.2772e-08,-8.74013e-07,0.333618,0.08755036983744269,0.660221454838817,1.2771999902128073e-08,0.08754688968182744,-8.740126180573071e-07,-0.15311553619176732
440,0.4023,426.624,427.178,-0.429013,427.22,0.0187004,-0.0387842,0.0841029,0.0841018,-0.166547,0.508025,5.36333e-07,-2.16828e-06,0.334332,0.08774081658032684,0.662005490536997,5.363331438967833e-07,0.08773962006608671,-2.168277649317041e-06,-0.1534169734018761
441,0.4033,427.851,428.037,0.643894,427.455,-0.0360071,0.0831556,0.0842819,0.0842779,-0.166896,0.509096,-1.96098e-07,-3.98985e-07,0.335042,0.08793553961368628,0.6637864519519634,-1.960979807424934e-07,0.08793118788023135,-3.989849204355522e-07,-0.15371237932682646
442,0.4043,427.734,428.029,0.365924,427.61,-0.0274829,0.0474412,0.0844578,0.0844544,-0.167249,0.510168,-1.71233e-07,-7.37849e-07,0.335754,0.08812692430689473,0.6655709873685425,-1.7123298534649223e-07,0.08812322468164147,-7.378487277831525e-07,-0.15401106613560078
443,0.4053,427.549,427.989,0.00823435,427.754,-0.00251212,0.00397408,0.0846335,0.0846311,-0.167602,0.51124,1.23938e-07,-1.2793e-06,0.336465,0.08831812500398484,0.6673574368328348,1.2393800763454976e-07,0.08831551304361906,-1.279299181700111e-06,-0.15430964752653897
444,0.4063,427.922,428.285,0.219389,427.937,-0.0168174,0.028049,0.0848102,0.0848072,-0.167953,0.512309,-9.05173e-08,-9.02234e-07,0.337175,0.08851044780789241,0.6691407949679029,-9.051729588094304e-08,0.08850718228144716,-9.0223359294761e-07,-0.15460643275140318
445,0.4073,427.727,428.223,-0.149925,428.082,0.00443099,-0.0150104,0.0849856,0.0849836,-0.168306,0.513379,1.72383e-07,-1.48901e-06,0.337886,0.08870138928551596,0.6709277314590527,1.723830147515315e-07,0.08869921188491481,-1.489008891408794e-06,-0.1549048040150156
446,0.4083,428.337,428.676,0.299826,428.278,-0.0198969,0.0363738,0.0851626,0.0851594,-0.168656,0.514447,-1.64745e-07,-7.409e-07,0.338594,0.08889410648638862,0.6727132355657282,-1.6474498643059832e-07,0.08889062203082299,-7.408997255708982e-07,-0.15520053557756797
447,0.4093,427.913,428.462,-0.299118,428.408,0.0118876,-0.032386,0.0853373,0.0853356,-0.16901,0.515516,2.38798e-07,-1.70075e-06,0.339304,0.08908435290433259,0.6745023221109314,2.3879802846238363e-07,0.08908250146250629,-1.7007485537678946e-06,-0.15549954166077418
448,0.4103,428.846,429.127,0.477627,428.623,-0.0282837,0.0561654,0.0855147,0.085511,-0.169358,0.516582,-3.03718e-07,-4.27385e-07,0.340011,0.0892775736067073,0.6762882933398418,-3.0371795389783074e-07,0.08927354328714099,-4.2738490868554635e-07,-0.1557933766900158
449,0.4113,428.013,428.644,-0.534819,428.728,0.0242309,-0.059563,0.0856882,0.0856872,-0.169712,0.51765,3.73061e-07,-2.05656e-06,0.340721,0.08946657966152927,0.6780795255848875,3.7306106959178464e-07,0.08946549019549432,-2.0565578853215527e-06,-0.1560921729446102
450,0.4123,428.349,428.903,-0.371001,428.905,0.0149114,-0.0374449,0.0858641,0.0858627,-0.170062,0.518715,2.97854e-07,-1.86806e-06,0.341428,0.08965823368836912,0.6798676322774395,2.9785404431770246e-07,0.08965670816790983,-1.868058255194427e-06,-0.15638748900075505
451,0.4133,429.034,429.408,0.153835,429.102,-0.010126,0.0233051,0.0860406,0.0860379,-0.17041,0.519779,-1.89182e-08,-1.03113e-06,0.342134,0.08985057534026653,0.6816559626612333,-1.8918199784501155e-08,0.08984763274768559,-1.031129468365144e-06,-0.15668101507808307
452,0.4143,428.789,429.305,-0.262383,429.242,0.0110535,-0.0241604,0.086215,0.0862134,-0.170762,0.520843,2.56393e-07,-1.69826e-06,0.342841,0.09004066185566817,0.6834461968411956,2.563930328047803e-07,0.09003891779200446,-1.6982585580027632e-06,-0.15697781112160736
453,0.4153,429.579,429.88,0.371552,429.445,-0.0210133,0.0475005,0.0863916,0.0863883,-0.171109,0.521906,-1.71094e-07,-6.62061e-07,0.343546,0.09023318003540681,0.6852366516065489,-1.7109398531278686e-07,0.09022958227184907,-6.620607808649481e-07,-0.15727028907328888
454,0.4163,428.965,429.539,-0.415856,429.562,0.0192485,-0.0424964,0.0865649,0.0865637,-0.171461,0.522969,3.4826e-07,-1.91919e-06,0.344253,0.09042213381787945,0.6870290106372559,3.482600605675401e-07,0.09042082531210394,-1.919188158394647e-06,-0.15756687772886924
455,0.4173,430.147,430.369,0.615898,429.789,-0.033707,0.0743306,0.0867421,0.0867382,-0.171807,0.52403,-3.55619e-07,-2.3883e-07,0.344956,0.09061537374054351,0.6888198983154519,-3.556189367426299e-07,0.09061112034887997,-2.3882997146618123e-07,-0.15785830916862853
456,0.4183,430.027,430.354,0.338979,429.938,-0.0245353,0.0396176,0.0869163,0.086913,-0.172157,0.525091,-3.14713e-07,-5.86628e-07,0.345661,0.0908053754873206,0.6906126871338509,-3.147129504776913e-07,0.09080177583552107,-5.866278279809123e-07,-0.15815300718525827
457,0.4193,429.876,430.329,0.0195067,430.079,-0.00168829,0.00125234,0.0870903,0.0870878,-0.172507,0.526152,-4.29915e-08,-1.0704e-06,0.346366,0.09099519213622509,0.6924073791106335,-4.299149902742272e-08,0.090992464651654,-1.070399427094415e-06,-0.15844760207563025
458,0.4203,430.206,430.595,0.19166,430.254,-0.0136769,0.0210237,0.0872652,0.0872623,-0.172855,0.527211,-2.2136e-07,-7.66538e-07,0.347069,0.0911860238830795,0.6942005878615578,-2.2135997546079977e-07,0.0911828594481987,-7.665377061982781e-07,-0.15874041135833772
459,0.4213,430.065,430.564,-0.11741,430.397,0.00451255,-0.0145933,0.087439,0.0874369,-0.173204,0.528271,5.27673e-09,-1.2571e-06,0.347772,0.09137568849540778,0.6959973926229739,5.276729941883218e-09,0.09137339660886834,-1.2570992098392963e-06,-0.1590339597276037
460,0.4223,430.59,430.961,0.250654,430.583,-0.0156007,0.0273733,0.0876141,0.087611,-0.173551,0.529328,-2.70538e-07,-6.52439e-07,0.348474,0.09156680511023452,0.6977910096265696,-2.705379633649585e-07,0.09156342125838379,-6.524387871076343e-07,-0.159325724319494
461,0.4233,430.273,430.811,-0.234652,430.715,0.0105254,-0.0277813,0.0877872,0.0877854,-0.1739,0.530386,6.23393e-08,-1.42644e-06,0.349177,0.09175577167878379,0.699588223073023,6.233930194277093e-08,0.09175380652016352,-1.4264389825990875e-06,-0.15961906845017815
462,0.4243,431.048,431.372,0.38602,430.914,-0.0218557,0.0426212,0.0879626,0.0879592,-0.174246,0.531442,-3.71319e-07,-4.19693e-07,0.349877,0.0919472824361387,0.7013839362062504,-3.7131893104724867e-07,0.09194356982168994,-4.196929119792969e-07,-0.15990978995477378
463,0.4253,430.42,431.018,-0.412975,431.027,0.0200413,-0.0479045,0.0881348,0.0881335,-0.174596,0.532499,1.68983e-07,-1.69661e-06,0.35058,0.09213533194877255,0.7031832497965294,1.6898301424816964e-07,0.09213391217376388,-1.6966085607528214e-06,-0.16020377007876685
464,0.4263,431.594,431.841,0.612808,431.25,-0.0330689,0.0682272,0.0883109,0.0883069,-0.174939,0.533552,-5.34195e-07,-4.12842e-08,0.351278,0.09232767391594199,0.7049776463425432,-5.341948573489574e-07,0.09232330461398486,-4.128419917037718e-08,-0.16049177079068422
465,0.4273,431.466,431.817,0.330135,431.395,-0.0230118,0.0334965,0.088484,0.0884806,-0.175287,0.534607,-4.78417e-07,-4.05673e-07,0.351979,0.09251677220228127,0.7067773469345711,-4.784168855520576e-07,0.09251305765157047,-4.056729177026597e-07,-0.1607838688264429
466,0.4283,431.327,431.797,0.0255531,431.534,-0.00089496,-0.00260168,0.0886569,0.0886544,-0.175634,0.535661,-2.13579e-07,-8.70371e-07,0.352679,0.09270568468320839,0.7085772386345386,-2.1357897717066976e-07,0.09270295292241149,-8.70370621242067e-07,-0.16107502630521608
467,0.4293,431.637,432.048,0.179318,431.705,-0.0116736,0.0153317,0.0888306,0.0888277,-0.17598,0.536714,-3.72263e-07,-6.0438e-07,0.353378,0.09289550414598091,0.7103773180423001,-3.7226293070347083e-07,0.09289233475361458,-6.043798174149018e-07,-0.16136524413553455
468,0.4303,431.52,432.029,-0.10263,431.846,0.00520468,-0.0167409,0.0890034,0.0890012,-0.176327,0.537766,-1.59632e-07,-1.05484e-06,0.354077,0.09308437280687976,0.7121775817535627,-1.596319872954055e-07,0.09308196802390478,-1.0548394436815656e-06,-0.1616561999120728
469,0.4313,432.005,432.398,0.228067,432.026,-0.012904,0.0210761,0.0891773,0.0891743,-0.176672,0.538817,-4.04724e-07,-5.19053e-07,0.354774,0.09327447670836597,0.7139780263598954,-4.047239180460238e-07,0.09327119688985563,-5.190528652443405e-07,-0.16194537863690484
470,0.4323,431.737,432.277,-0.205349,432.158,0.0106812,-0.027715,0.0893494,0.0893476,-0.177019,0.539869,-1.0175e-07,-1.21121e-06,0.355473,0.09346264543726224,0.7157820800094663,-1.0174999487411185e-07,0.09346067720627182,-1.2112092664384733e-06,-0.16223613314169383
471,0.4333,432.439,432.789,0.34403,432.349,-0.0180857,0.0345334,0.0895236,0.0895203,-0.177362,0.540918,-4.83044e-07,-3.29074e-07,0.356169,0.09365314322197271,0.7175828797657349,-4.830438833369755e-07,0.09364953417255495,-3.290739458705616e-07,-0.1625234368726196
472,0.4343,431.904,432.492,-0.357609,432.466,0.0189849,-0.0443878,0.0896949,0.0896935,-0.17771,0.541968,-2.71095e-09,-1.44833e-06,0.356867,0.09384050205223216,0.7193872889385244,-2.7109500200239722e-09,0.09383897067660141,-1.4483289512146058e-06,-0.16281482801158897
473,0.4353,432.945,433.228,0.535723,432.676,-0.0274895,0.0564467,0.0898696,0.0898658,-0.178052,0.543015,-6.13401e-07,-1.8259e-08,0.357561,0.09403161268096816,0.7211884301629385,-6.134008119218493e-07,0.0940274553687388,-1.8258999867626358e-08,-0.16310109638572678
474,0.4363,431.98,432.648,-0.600268,432.766,0.0320718,-0.0713364,0.0900397,0.0900389,-0.1784,0.544065,1.61561e-07,-1.82969e-06,0.358259,0.09421772328654354,0.7229966271519006,1.615610130123457e-07,0.09421684791271501,-1.8296883260715546e-06,-0.16339228653416005
475,0.4373,432.356,432.929,-0.388438,432.936,0.0204405,-0.0436043,0.0902127,0.0902114,-0.178744,0.545111,7.24075e-08,-1.58111e-06,0.358954,0.0944070393280374,0.7247998245317222,7.240750266035434e-08,0.09440561659981106,-1.5811087500372523e-06,-0.1636800300928627
476,0.4383,433.031,433.425,0.133836,433.123,-0.00533057,0.0164297,0.0903862,0.0903836,-0.179086,0.546156,-2.40258e-07,-7.70223e-07,0.359647,0.09459693542237058,0.7266031824387549,-2.402579711846542e-07,0.09459408947403825,-7.702227033945519e-07,-0.1639660026184816
477,0.4393,432.812,433.333,-0.246349,433.257,0.0144561,-0.0261646,0.0905576,0.090556,-0.179431,0.547203,2.59537e-08,-1.37917e-06,0.360342,0.09478456541653313,0.7284118826601083,2.5953700300007654e-08,0.09478281376262987,-1.3791690489650676e-06,-0.16425438459882624
478,0.4403,433.543,433.869,0.335347,433.447,-0.0156371,0.038937,0.090731,0.0907279,-0.179773,0.548246,-3.63309e-07,-4.49192e-07,0.361035,0.09497441751987812,0.7302155567062274,-3.633089340482343e-07,0.09497102310444516,-4.4919189912118185e-07,-0.16454016072878974
479,0.4413,433.005,433.569,-0.365643,433.561,0.0207778,-0.0400122,0.0909015,0.0909002,-0.180119,0.549292,1.12483e-07,-1.55789e-06,0.361729,0.09516112657455977,0.7320263090369132,1.124830062426696e-07,0.09515970286602071,-1.5578887865297375e-06,-0.1648291798299898
480,0.4423,434.049,434.31,0.534233,433.769,-0.0262871,0.0606773,0.0910753,0.0910717,-0.180459,0.550334,-5.01036e-07,-1.19399e-07,0.362421,0.09535148211977629,0.7338320210635141,-5.010358744561572e-07,0.09534753886153857,-1.1939899291490974e-07,-0.16511308964144467
481,0.4433,433.084,433.728,-0.598187,433.857,0.0328644,-0.0666221,0.0912446,0.091244,-0.180806,0.551378,2.69738e-07,-1.91269e-06,0.363115,0.09553694082433539,0.7356430869053785,2.697380363514412e-07,0.09553628350236809,-1.912688170846444e-06,-0.16540274514120346
482,0.4443,433.461,434.013,-0.380764,434.025,0.0206804,-0.0388096,0.0914168,0.0914156,-0.181148,0.55242,1.7446e-07,-1.65037e-06,0.363806,0.09572560852936851,0.737452569578684,1.7446001532306354e-07,0.09572429365942736,-1.650368638195232e-06,-0.16568812859901216
483,0.4453,434.118,434.498,0.126171,434.209,-0.00464963,0.0189246,0.0915894,0.091587,-0.181489,0.55346,-1.31151e-07,-8.62712e-07,0.364497,0.09591474709158909,0.7392604601912129,-1.31150991400375e-07,0.09591211689935242,-8.62711627913626e-07,-0.16597258044536378
484,0.4463,433.915,434.417,-0.234572,434.341,0.0140058,-0.0216404,0.09176,0.0917586,-0.181832,0.554501,1.20307e-07,-1.43443e-06,0.365188,0.09610172609629863,0.7410719730591282,1.2030700724530163e-07,0.0961001915549562,-1.4344289711587521e-06,-0.1662586027946339
485,0.4473,434.614,434.933,0.318043,434.527,-0.0148728,0.0397054,0.0919325,0.0919296,-0.182172,0.55554,-2.52478e-07,-5.50951e-07,0.365878,0.09629081995292643,0.7428818869265708,-2.5247796808791634e-07,0.0962876407141584,-5.509508482770542e-07,-0.16654202668489204
486,0.4483,434.112,434.656,-0.342419,434.642,0.0194306,-0.0346539,0.0921023,0.0921011,-0.182516,0.55658,1.94727e-07,-1.5876e-06,0.366569,0.0964769859391994,0.7446954269663344,1.9472701895395517e-07,0.09647567016760572,-1.587598739805074e-06,-0.1668286869193253
487,0.4493,435.098,435.361,0.500706,434.844,-0.0249779,0.059111,0.0922752,0.0922718,-0.182855,0.557617,-3.83853e-07,-2.42039e-07,0.367257,0.0966665832002791,0.7465056145441396,-3.838529263333612e-07,0.09666285454023504,-2.420389707546988e-07,-0.16711108412542874
488,0.4503,434.206,434.825,-0.553583,434.934,0.0302111,-0.0591694,0.0924439,0.0924432,-0.1832,0.558656,3.33201e-07,-1.90128e-06,0.367947,0.09685160645913804,0.7483211768989662,3.332010554135678e-07,0.09685083866328226,-1.9012781925509259e-06,-0.16739838123980366
489,0.4513,434.568,435.1,-0.349481,435.099,0.0184645,-0.0333872,0.0926151,0.092614,-0.18354,0.559693,2.3736e-07,-1.65118e-06,0.368636,0.09703940352913443,0.7501351263296345,2.3736002807694945e-07,0.0970381967864542,-1.6511786368189618e-06,-0.1676814176712622
490,0.4523,435.18,435.558,0.116306,435.278,-0.00473561,0.0192703,0.0927868,0.0927845,-0.18388,0.560728,-4.30848e-08,-9.27675e-07,0.369323,0.09722778136649501,0.7519474539031208,-4.308479906178775e-08,0.09722525774549995,-9.276745697173183e-07,-0.16796435788669162
491,0.4533,435.008,435.496,-0.21052,435.41,0.0120663,-0.0174769,0.0929567,0.0929553,-0.184221,0.561764,1.81565e-07,-1.44038e-06,0.370011,0.09741421620374013,0.7537634119692211,1.815650165770677e-07,0.09741267982491286,-1.4403789626582508e-06,-0.16824803367118224
492,0.4543,435.652,435.977,0.289011,435.59,-0.0141257,0.037613,0.0931283,0.0931255,-0.18456,0.562798,-1.57549e-07,-6.42447e-07,0.370697,0.09760254864170159,0.755577741183751,-1.575489876337599e-07,0.09759947535886804,-6.424467936527734e-07,-0.16852994980028402
493,0.4553,435.215,435.741,-0.303624,435.706,0.0166929,-0.0289845,0.0932974,0.0932961,-0.184902,0.563833,2.41787e-07,-1.56583e-06,0.371385,0.09778816892642972,0.7573957047797499,2.4178702928701057e-07,0.09778674180273783,-1.5658287740860644e-06,-0.16881426393696375
494,0.4563,436.108,436.385,0.448536,435.9,-0.0230948,0.0542232,0.0934692,0.0934661,-0.18524,0.564865,-2.77606e-07,-3.67809e-07,0.37207,0.09797678513551977,0.7592102733033941,-2.776059614406634e-07,0.09797338141276146,-3.678089323111422e-07,-0.16909515724211022
495,0.4573,435.332,435.924,-0.486206,435.996,0.0259865,-0.0503614,0.0936373,0.0936366,-0.185582,0.565899,3.57112e-07,-1.82994e-06,0.372757,0.09816137054707008,0.7610302374853197,3.571120636980396e-07,0.09816060183437991,-1.8299383256481505e-06,-0.16937927811089548
496,0.4583,435.666,436.183,-0.306279,436.157,0.0152872,-0.0278066,0.0938077,0.0938065,-0.185921,0.566931,2.65602e-07,-1.60736e-06,0.373442,0.09834851318871163,0.7628485587828144,2.656020352542754e-07,0.09834719517128665,-1.6073587082443552e-06,-0.16966081081312678
497,0.4593,436.224,436.605,0.106027,436.33,-0.00496782,0.0184864,0.0939785,0.0939763,-0.186259,0.567961,1.9585e-08,-9.67276e-07,0.374126,0.09853612713653925,0.7646652282225135,1.9585000288202536e-08,0.09853371035971814,-9.672755322265303e-07,-0.16994141803378016
498,0.4603,436.088,436.566,-0.181215,436.463,0.00969021,-0.0137445,0.0941477,0.0941462,-0.186599,0.568992,2.13065e-07,-1.41319e-06,0.374811,0.09872201517493528,0.7664855362803717,2.1306502273610306e-07,0.09872036709314869,-1.413189001486792e-06,-0.17022358997969955
499,0.4613,436.668,437.004,0.255583,436.637,-0.013199,0.0341415,0.0943183,0.0943157,-0.186936,0.570021,-8.47877e-08,-7.16273e-07,0.375494,0.09890947314043408,0.768304185431721,-8.478769641939721e-08,0.09890661597951822,-7.162727434506522e-07,-0.1705031775167304
500,0.4623,436.305,436.816,-0.259206,436.755,0.0136109,-0.0235552,0.0944867,0.0944854,-0.187277,0.571051,2.59903e-07,-1.51247e-06,0.376178,0.09909454507833071,0.7701264770617993,2.5990303376133284e-07,0.09909311625635087,-1.512468856268434e-06,-0.1707859877113186
501,0.4633,437.095,437.392,0.390261,436.941,-0.0208391,0.0479391,0.0946575,0.0946546,-0.187613,0.572079,-1.91177e-07,-4.8012e-07,0.37686,0.0992822864592875,0.7719471027214739,-1.9117698168980013e-07,0.09927909854527939,-4.801198847381727e-07,-0.171064556817217
502,0.4643,436.447,437.014,-0.411983,437.043,0.021427,-0.0415473,0.0948251,0.0948242,-0.187953,0.573108,3.52417e-07,-1.72728e-06,0.377543,0.0994665416106486,0.7737713747171482,3.5241706219935054e-07,0.09946555209120644,-1.7272785082234066e-06,-0.17134634696086015
503,0.4653,437.58,437.818,0.584266,437.248,-0.0314766,0.0684641,0.0949965,0.094993,-0.188288,0.574133,-3.38861e-07,-1.52119e-07,0.378224,0.09965500632684532,0.7755904224789498,-3.388609426391298e-07,0.09965115754105858,-1.5211898840572502e-07,-0.17162389944199197
504,0.4663,436.506,437.156,-0.648389,437.324,0.0338362,-0.0686066,0.0951629,0.0951626,-0.18863,0.575161,5.02897e-07,-2.07467e-06,0.378907,0.0998380041448943,0.777416667962608,5.028971263865145e-07,0.09983767419354272,-2.0746678478511527e-06,-0.17190715562881398
505,0.4673,436.917,437.461,-0.390016,437.486,0.019482,-0.0365837,0.0953324,0.0953315,-0.188966,0.576186,3.78802e-07,-1.75031e-06,0.379588,0.10002444248679998,0.7792394540655585,3.788020717099272e-07,0.10002345246524724,-1.750308468162487e-06,-0.17218534808557273
506,0.4683,437.556,437.936,0.107508,437.661,-0.00594386,0.0193482,0.0955023,0.0955002,-0.189302,0.57721,6.96803e-08,-9.8483e-07,0.380268,0.10021135251713598,0.7810623284189053,6.968030241694123e-08,0.10020904207572179,-9.848295150494124e-07,-0.17246344708536765
507,0.4693,437.38,437.869,-0.217762,437.789,0.0112039,-0.0169452,0.0956704,0.0956691,-0.18964,0.578235,2.95912e-07,-1.49026e-06,0.380948,0.10039631359103685,0.7828888532395895,2.9591204375734037e-07,0.10039488307675914,-1.490258889513818e-06,-0.17274310717503516
508,0.4703,438.023,438.349,0.285352,437.963,-0.0154961,0.0380968,0.0958401,0.0958375,-0.189975,0.579258,-5.14852e-08,-6.92586e-07,0.381627,0.1005830666910057,0.7847136817771059,-5.148519865993961e-08,0.10058020517875232,-6.925857601869367e-07,-0.17302019181986217
509,0.4713,437.589,438.11,-0.299204,438.076,0.0153093,-0.0270946,0.0960074,0.0960062,-0.190313,0.580282,3.43458e-07,-1.59332e-06,0.382307,0.10076720964119135,0.7865421646106809,3.4345805888236214e-07,0.1007658887213323,-1.5933187306194085e-06,-0.17329966376160832
510,0.4723,438.458,438.741,0.434011,438.263,-0.0238362,0.053309,0.0961773,0.0961743,-0.190647,0.581302,-1.68683e-07,-4.34426e-07,0.382985,0.10095424587838786,0.7883653672938806,-1.686829858016381e-07,0.10095094302060437,-4.3442590558218086e-07,-0.17357573556735395
511,0.4733,437.713,438.295,-0.463974,438.357,0.0238034,-0.0463765,0.0963437,0.096343,-0.190986,0.582325,4.42398e-07,-1.82386e-06,0.383664,0.10113745990788647,0.7901958011719175,4.4239809793289453e-07,0.1011366891119343,-1.8238583368024308e-06,-0.17385584591161063
512,0.4743,438.952,439.171,0.642673,438.565,-0.035269,0.0752969,0.0965142,0.0965107,-0.191318,0.583344,-3.28479e-07,-8.34855e-08,0.38434,0.10132521985088094,0.7920209404438412,-3.284789460433757e-07,0.1013213652193572,-8.348549651593373e-08,-0.1741300802453497
513,0.4753,438.765,439.102,0.318182,438.692,-0.0222706,0.0364575,0.0966816,0.0966787,-0.191654,0.584365,-2.34342e-07,-4.99168e-07,0.385018,0.10150959712463137,0.7938515281800504,-2.3434197249372346e-07,0.10150640275143141,-4.991678753674123e-07,-0.17440752592490283
514,0.4763,438.639,439.082,0.044858,438.818,-0.00252373,0.00432622,0.0968489,0.0968468,-0.191991,0.585385,-2.44957e-09,-8.9792e-07,0.385695,0.10169389509632576,0.7956821902177149,-2.4495699912918667e-09,0.10169158154157532,-8.979195968983333e-07,-0.17468570371307612
515,0.4773,438.878,439.285,0.144324,438.969,-0.0103253,0.0154789,0.097017,0.0970146,-0.192325,0.586403,-1.2101e-07,-7.19655e-07,0.386372,0.10187910540658196,0.7975111254574461,-1.210099926929331e-07,0.10187646089990232,-7.196547410215359e-07,-0.1749613126587799
516,0.4783,438.819,439.297,-0.0613411,439.1,0.00230948,-0.00768495,0.0971842,0.0971824,-0.192661,0.587421,3.36553e-08,-1.03398e-06,0.387048,0.10206335499584229,0.7993419235012575,3.365530054644239e-08,0.10206137128358872,-1.0339794654923296e-06,-0.1752384790911583
517,0.4793,439.182,439.585,0.161457,439.257,-0.0103813,0.0170104,0.0973523,0.0973499,-0.192995,0.588438,-1.39717e-07,-6.77069e-07,0.387723,0.10224862741752783,0.8011727850727643,-1.3971699019954542e-07,0.10224598202399648,-6.770687708268497e-07,-0.17551390344071505
518,0.4803,439.045,439.542,-0.121854,439.383,0.00547228,-0.0142935,0.0975192,0.0975175,-0.19333,0.589455,5.84614e-08,-1.11209e-06,0.388399,0.10243260806620191,0.8030055095776301,5.846140171961167e-08,0.10243073393236113,-1.1120893815830257e-06,-0.17579006002425202
519,0.4813,439.527,439.911,0.221041,439.546,-0.0130262,0.0234604,0.0976873,0.0976847,-0.193663,0.590471,-1.87749e-07,-5.71885e-07,0.389073,0.10261794256454593,0.8048382940722256,-1.8774898236095794e-07,0.10261507576162221,-5.718848364866247e-07,-0.17606447624142796
520,0.4823,439.253,439.775,-0.199372,439.664,0.00981708,-0.0227845,0.0978536,0.0978521,-0.193999,0.591487,1.01414e-07,-1.21901e-06,0.389748,0.1028013231760696,0.8066729416221394,1.0141400519358967e-07,0.10279966897532566,-1.2190092569808186e-06,-0.17634127207310712
521,0.4833,439.904,440.257,0.313508,439.835,-0.0175975,0.0335444,0.0980218,0.0980191,-0.194331,0.5925,-2.58817e-07,-4.16433e-07,0.39042,0.10298682995931108,0.8085040286009739,-2.5881696652518826e-07,0.10298385189889059,-4.1643291326387555e-07,-0.17661468138232217
522,0.4843,439.426,439.984,-0.312215,439.942,0.0161292,-0.03517,0.0981875,0.0981864,-0.194666,0.593515,1.71502e-07,-1.38138e-06,0.391095,0.10316961001994507,0.8103405920883009,1.71502014811864e-07,0.10316839653404153,-1.381379045928277e-06,-0.17689046926700913
523,0.4853,440.323,440.631,0.450458,440.126,-0.0246403,0.0484967,0.0983561,0.098353,-0.194997,0.594527,-3.60245e-07,-1.9263e-07,0.391766,0.1033556200964032,0.8121735841050175,-3.6024493510478095e-07,0.10335219969928255,-1.926299814103416e-07,-0.17716287343630466
524,0.4863,439.544,440.157,-0.477779,440.215,0.0253031,-0.0533372,0.0985209,0.0985201,-0.195333,0.595541,2.80019e-07,-1.62579e-06,0.39244,0.10353746808645803,0.8140120600690874,2.8001903928931426e-07,0.10353658525683662,-1.6257886783499487e-06,-0.17743930026852162
525,0.4873,440.804,441.047,0.651766,440.42,-0.0351852,0.0704895,0.09869,0.0986864,-0.195662,0.596551,-5.05308e-07,1.30174e-07,0.39311,0.10372409205092281,0.8158451377981837,-5.053078723227244e-07,0.10372011865134367,1.3017400846138116e-07,-0.17770987822621864
526,0.4883,440.602,440.964,0.315352,440.543,-0.0210365,0.0310318,0.0988559,0.098853,-0.195996,0.597563,-3.94239e-07,-3.0765e-07,0.393782,0.10390721506742828,0.8176837032348332,-3.9423892228551694e-07,0.10390401374114666,-3.076499526244447e-07,-0.17798447726629862
527,0.4893,440.482,440.942,0.0498998,440.666,-0.00166108,0.00035428,0.0990218,0.0990196,-0.196329,0.598573,-1.64932e-07,-6.97498e-07,0.394454,0.10409036846656239,0.8195204911968792,-1.6493198640166185e-07,0.10408793947042372,-6.974977567741902e-07,-0.17825816286418783
528,0.4903,440.705,441.133,0.135896,440.812,-0.00849922,0.0102846,0.0991883,0.0991859,-0.196661,0.599583,-2.67499e-07,-5.47319e-07,0.395124,0.10427421481769605,0.8213591352519356,-2.674989642015291e-07,0.10427156456276077,-5.473188502413961e-07,-0.1785309358712922
529,0.4913,440.66,441.151,-0.0517998,440.941,0.00326745,-0.0104518,0.0993541,0.0993523,-0.196994,0.600592,-1.20988e-07,-8.36917e-07,0.395794,0.10445731866140218,0.8231978140768783,-1.2098799273552174e-07,0.10445533064001777,-8.369166497601555e-07,-0.1788044395287608
530,0.4923,440.996,441.42,0.146555,441.092,-0.00802646,0.0116636,0.0995207,0.0995183,-0.197325,0.6016,-2.72111e-07,-5.25739e-07,0.396464,0.10464133657895802,0.8250365240275959,-2.721109629844065e-07,0.10463868544293153,-5.257388617785352e-07,-0.17907621027873633
531,0.4933,440.888,441.393,-0.10404,441.217,0.00619417,-0.0156074,0.0996862,0.0996845,-0.197657,0.602609,-9.16409e-08,-9.1187e-07,0.397133,0.10482416984919762,0.8268789152103826,-9.16408957607473e-08,0.10482229164970525,-9.11869584285796e-07,-0.17934871173917832
532,0.4943,441.324,441.729,0.195475,441.373,-0.010006,0.0173662,0.0998527,0.0998503,-0.197987,0.603615,-3.03495e-07,-4.47443e-07,0.397802,0.10500813838843337,0.8287176801427707,-3.03494953945993e-07,0.10500548637208373,-4.474428998424429e-07,-0.17961948198475663
533,0.4953,441.104,441.626,-0.167905,441.491,0.00993064,-0.0221381,0.100018,0.100016,-0.19832,0.604622,-4.84413e-08,-1.00621e-06,0.398471,0.10519081133121166,0.8305601263626519,-4.844129886105719e-08,0.1051886009517995,-1.0062094937257626e-06,-0.1798926232167165
534,0.4963,441.677,442.056,0.270448,441.654,-0.0136066,0.0258504,0.100184,0.100182,-0.198649,0.605627,-3.53537e-07,-3.2894e-07,0.399138,0.10537428823405426,0.8324007640551627,-3.535369375029518e-07,0.10537207748768851,-3.2893994594829223e-07,-0.1801623941639241
535,0.4973,441.291,441.841,-0.258574,441.762,0.0151246,-0.0316842,0.100349,0.100348,-0.198981,0.606633,1.54924e-08,-1.14174e-06,0.399806,0.10555669003934809,0.8342450867625806,1.5492400029515352e-08,0.10555558448321078,-1.141739348176074e-06,-0.18043453507117135
536,0.4983,442.062,442.403,0.37913,441.936,-0.0191569,0.0379311,0.100516,0.100513,-0.19931,0.607636,-4.27045e-07,-1.58435e-07,0.400472,0.10574133342387815,0.8360857575266807,-4.270449087684369e-07,0.10573801620485379,-1.584349874628188e-07,-0.18070412775870404
537,0.4993,441.439,442.028,-0.388674,442.031,0.0224269,-0.0455842,0.100679,0.100678,-0.199642,0.608641,1.08045e-07,-1.33756e-06,0.40114,0.10592158395124507,0.8379319512699592,1.0804500583105892e-07,0.1059204780302141,-1.3375591054742841e-06,-0.18097608884025063
538,0.5003,442.492,442.782,0.535397,442.219,-0.0273574,0.055123,0.100847,0.100843,-0.199969,0.609643,-5.33253e-07,8.51725e-08,0.401804,0.1061073943849884,0.8397744820388879,-5.332528578705364e-07,0.10610296996425972,8.517250371653518e-08,-0.18124386587526853
539,0.5013,441.529,442.177,-0.57477,442.294,0.0327535,-0.0656137,0.101009,0.101009,-0.200303,0.610647,2.40794e-07,-1.61906e-06,0.402472,0.10628659829800369,0.8416225431903135,2.4079402893839585e-07,0.10628659829800369,-1.6190586893394254e-06,-0.1815172847605706
540,0.5023,441.922,442.47,-0.324332,442.446,0.0185723,-0.035134,0.101175,0.101174,-0.200632,0.611648,1.15616e-07,-1.30752e-06,0.403137,0.10647025711658142,0.8434669303177977,1.1561600676834871e-07,0.10646915064687756,-1.3075191451772383e-06,-0.18178652128204797
541,0.5033,442.457,442.875,0.0762965,442.604,-0.00183573,0.0094019,0.101341,0.101339,-0.20096,0.612648,-1.24076e-07,-7.11128e-07,0.403801,0.10665394642505355,0.8453113192889019,-1.240759922582768e-07,0.10665173311937393,-7.111277471327782e-07,-0.1820548512945398
542,0.5043,442.362,442.854,-0.157757,442.727,0.0106713,-0.0159321,0.101505,0.101504,-0.201289,0.613649,4.54162e-08,-1.07307e-06,0.404465,0.1068354525553632,0.8471594007299565,4.5416201022163705e-08,0.10683434572046391,-1.0730694242067074e-06,-0.18232391098571776
543,0.5053,442.861,443.236,0.208418,442.883,-0.00896691,0.0235938,0.10167,0.101668,-0.201617,0.614648,-2.02852e-07,-5.09504e-07,0.405129,0.10701809547266117,0.8490056350117641,-2.028519794361472e-07,0.10701588143868412,-5.095038702052079e-07,-0.18259206476329082
544,0.5063,442.591,443.099,-0.19993,442.996,0.0129053,-0.0209176,0.101834,0.101833,-0.201947,0.615648,8.05523e-08,-1.12977e-06,0.405793,0.10719966132831171,0.850855565457838,8.055230327208562e-08,0.10719855412920398,-1.1297693618406157e-06,-0.18286176487895234
545,0.5073,443.221,443.569,0.299135,443.159,-0.0141682,0.0329339,0.102,0.101997,-0.202274,0.616645,-2.66179e-07,-3.60756e-07,0.406455,0.10738347172793339,0.8527017886459287,-2.66178964536401e-07,0.1073801495825013,-3.607559349028122e-07,-0.18312892539871128
546,0.5083,442.767,443.308,-0.293696,443.262,0.0177978,-0.0315303,0.102163,0.102162,-0.202604,0.617644,1.45652e-07,-1.26215e-06,0.407119,0.10756398994566019,0.8545535625398399,1.4565201067462397e-07,0.10756288238222389,-1.2621492034847748e-06,-0.18339844837959196
547,0.5093,443.605,443.918,0.415748,443.436,-0.0207324,0.0451137,0.102329,0.102326,-0.20293,0.61864,-3.49009e-07,-1.7214e-07,0.407779,0.10774786082885224,0.8564016180670071,-3.490089390822959e-07,0.1077445375902546,-1.7213998515508422e-07,-0.18366461709756188
548,0.5103,442.9,443.486,-0.430064,443.524,0.0250587,-0.0466598,0.102491,0.10249,-0.20326,0.619638,2.399e-07,-1.45972e-06,0.408443,0.10792733051895875,0.8582552316811809,2.399000287311992e-07,0.10792622259218221,-1.4597189346154948e-06,-0.1839339633293472
549,0.5113,444.035,444.297,0.578768,443.714,-0.0297462,0.0623823,0.102657,0.102654,-0.203585,0.620632,-4.64e-07,8.6494e-08,0.409102,0.10811126172169239,0.8601032556972483,-4.639998923972044e-07,0.1081079373928937,8.649400373705873e-08,-0.18419914169744622
550,0.5123,442.978,443.627,-0.621976,443.782,0.0354375,-0.0677049,0.102819,0.102818,-0.203916,0.621629,3.73673e-07,-1.74249e-06,0.409765,0.10829079028751254,0.8619587034301792,3.7367306982005744e-07,0.10828968199727651,-1.7424884818373343e-06,-0.18446912709649577
551,0.5133,443.398,443.939,-0.340814,443.931,0.0195067,-0.0341181,0.102983,0.102982,-0.204242,0.622623,2.30044e-07,-1.38738e-06,0.410425,0.10847256488222912,0.8638104105273534,2.3004402649462463e-07,0.10847145641021849,-1.3873790375429351e-06,-0.18473494683009162
552,0.5143,443.939,444.347,0.0689397,444.087,-0.00179526,0.0110309,0.103148,0.103146,-0.204568,0.623616,-1.99686e-08,-7.79268e-07,0.411084,0.10865547794534725,0.8656620934734354,-1.9968599773712015e-08,0.10865326063660885,-7.792676963713774e-07,-0.18500067992057778
553,0.5153,443.848,444.329,-0.157241,444.208,0.0103291,-0.0134955,0.103311,0.103309,-0.204895,0.624609,1.44021e-07,-1.12507e-06,0.411744,0.10883620351698631,0.8675156160539104,1.4402101045085658e-07,0.10883398584679704,-1.1250693671138734e-06,-0.18526714112946174
554,0.5163,444.337,444.705,0.201852,444.361,-0.00916619,0.0248878,0.103475,0.103473,-0.205221,0.625601,-1.02736e-07,-5.73509e-07,0.412403,0.10901806756680754,0.869369110726397,-1.0273599471144479e-07,0.10901584953289056,-5.735088355329765e-07,-0.18553270075288297
555,0.5173,444.077,444.573,-0.192534,444.472,0.0120159,-0.0180169,0.103638,0.103636,-0.205548,0.626593,1.70165e-07,-1.16642e-06,0.413062,0.10919885224537196,0.871224444977879,1.7016501452360444e-07,0.10919663384988598,-1.1664193196869732e-06,-0.18579898801939598
556,0.5183,444.684,445.029,0.286092,444.63,-0.0141618,0.0331877,0.103802,0.103799,-0.205873,0.627584,-1.65607e-07,-4.31223e-07,0.413719,0.10938077577446181,0.8730797475534402,-1.65606986235467e-07,0.10937744763712676,-4.3122290704911137e-07,-0.18606356035295668
557,0.5193,444.256,444.783,-0.276986,444.732,0.0163044,-0.0278206,0.103964,0.103963,-0.2062,0.628575,2.24735e-07,-1.27958e-06,0.414378,0.10956051001821798,0.8749368896451835,2.2473502525599542e-07,0.10955940045826273,-1.2795791813902113e-06,-0.18632967405675938
558,0.5203,445.05,445.366,0.390897,444.9,-0.0202006,0.0437924,0.104128,0.104126,-0.206524,0.629564,-2.444e-07,-2.57725e-07,0.415034,0.10974249286404647,0.8767921194889805,-2.4439997015068826e-07,0.10974027338128023,-2.577249668123116e-07,-0.186593260539049
559,0.5213,444.398,444.967,-0.398194,444.989,0.0226939,-0.0414393,0.10429,0.104289,-0.206852,0.630554,3.04551e-07,-1.449e-06,0.415693,0.10992228571071783,0.878651063712836,3.0455104638171804e-07,0.10992117578898708,-1.4489989501598188e-06,-0.1868600141996003
560,0.5223,445.454,445.727,0.534513,445.171,-0.0282558,0.0586823,0.104454,0.104451,-0.207174,0.631541,-3.50084e-07,-2.64968e-08,0.416347,0.11010432789262525,0.8805062076756642,-3.500839387271526e-07,0.1101009975846372,-2.6496799643282998e-08,-0.18712180312474913
561,0.5233,444.493,445.118,-0.565782,445.243,0.0317381,-0.0599144,0.104615,0.104615,-0.207503,0.632531,4.17595e-07,-1.68946e-06,0.417005,0.11028306907769525,0.8823688306675144,4.175950871765366e-07,0.11028306907769525,-1.6894585728177702e-06,-0.1873891960629709
562,0.5243,444.889,445.415,-0.305526,445.388,0.0167439,-0.0291567,0.104778,0.104777,-0.207827,0.633518,2.78308e-07,-1.35873e-06,0.417661,0.11046405996831177,0.8842276458777896,2.7830803883688304e-07,0.11046294950480706,-1.3587290769168092e-06,-0.18765243931573672
563,0.5253,445.384,445.794,0.0612744,445.539,-0.00219978,0.0109118,0.104941,0.10494,-0.20815,0.634503,5.52602e-08,-8.16138e-07,0.418315,0.11064508036284804,0.8860845244715541,5.526020152579747e-08,0.11064396971832302,-8.161376670035025e-07,-0.18791478520669547
564,0.5263,445.319,445.792,-0.135263,445.659,0.0082838,-0.0103291,0.105103,0.105102,-0.208475,0.63549,1.95174e-07,-1.11253e-06,0.41897,0.11082501944053869,0.8879470088820662,1.951740189465312e-07,0.1108239086160745,-1.1125293811753423e-06,-0.18817867001789867
565,0.5273,445.76,446.135,0.177529,445.806,-0.00872486,0.022819,0.105266,0.105264,-0.208798,0.636474,-2.12881e-08,-6.33324e-07,0.419624,0.11100609867626421,0.889805663046684,-2.128809972745671e-08,0.11100387666628886,-6.333237994038399e-07,-0.1884408459637883
566,0.5283,445.551,446.037,-0.161846,445.917,0.00955064,-0.0139492,0.105428,0.105427,-0.209123,0.63746,2.11897e-07,-1.13806e-06,0.420279,0.11118609624365905,0.8916699303631992,2.1189702237300878e-07,0.11118498505811836,-1.1380593524235039e-06,-0.18870455983302514
567,0.5293,446.086,446.444,0.246799,446.069,-0.0128876,0.0294353,0.105591,0.105589,-0.209446,0.638443,-7.70589e-08,-5.12388e-07,0.420931,0.11136723433970053,0.8935303561542132,-7.705889704112678e-08,0.11136501160745449,-5.123878686896788e-07,-0.18896656594393424
568,0.5303,445.741,446.252,-0.229536,446.173,0.0129936,-0.0219351,0.105752,0.105751,-0.209771,0.639427,2.5207e-07,-1.22329e-06,0.421585,0.11154617886907725,0.8953945070364884,2.5207003173655096e-07,0.11154506732345415,-1.2232892517838323e-06,-0.18923010898193904
569,0.5313,446.426,446.761,0.330476,446.332,-0.0177496,0.0376899,0.105915,0.105913,-0.210092,0.640409,-1.43981e-07,-3.69966e-07,0.422237,0.11172737566337054,0.8972566986288237,-1.439809896863764e-07,0.11172515221084267,-3.6996593155702584e-07,-0.18949032435015478
570,0.5323,445.903,446.447,-0.325366,446.426,0.0180636,-0.0327891,0.106075,0.106075,-0.210417,0.641392,3.11624e-07,-1.35154e-06,0.42289,0.11190526627434605,0.899122618913144,3.1162404856566184e-07,0.11190526627434605,-1.35153908664698e-06,-0.18975369719433566
571,0.5333,446.794,447.097,0.442941,446.596,-0.0240896,0.0491332,0.106239,0.106236,-0.210738,0.642372,-2.30666e-07,-1.85372e-07,0.423541,0.11208763369173447,0.9009846713363403,-2.3066597343301964e-07,0.11208429743383785,-1.853719827638045e-07,-0.19001374451770792
572,0.5343,446.029,446.618,-0.455588,446.676,0.0251244,-0.0471899,0.106398,0.106398,-0.211063,0.643354,3.96007e-07,-1.5324e-06,0.424194,0.11226446968358039,0.9028523551662653,3.960070784625458e-07,0.11226446968358039,-1.5323988258320043e-06,-0.1902769472779744
573,0.5353,447.2,447.458,0.595107,446.861,-0.0325286,0.0649108,0.106562,0.106559,-0.211382,0.644333,-3.44457e-07,5.78128e-08,0.424843,0.11244689601515878,0.9047161598054818,-3.444569406374498e-07,0.11244355867947675,5.781280165706448e-08,-0.19053520773705934
574,0.5363,446.11,446.756,-0.631179,446.923,0.0347852,-0.0663294,0.106721,0.106721,-0.211709,0.645314,5.13494e-07,-1.78229e-06,0.425496,0.11262378913425541,0.9065856031702981,5.13494131881842e-07,0.11262378913425541,-1.7822884117446591e-06,-0.1907998594512158
575,0.5373,446.545,447.078,-0.329115,447.067,0.0176125,-0.0310492,0.106883,0.106882,-0.21203,0.646293,3.50747e-07,-1.39621e-06,0.426145,0.11280404878873296,0.9084530644489435,3.507470616170849e-07,0.1128029359852405,-1.3962090252839232e-06,-0.19105957101039672
576,0.5383,447.053,447.465,0.0525168,447.215,-0.00243328,0.0104504,0.107045,0.107043,-0.212351,0.64727,1.14385e-07,-8.36205e-07,0.426794,0.11298433764764004,0.9103185342265092,1.1438500657767747e-07,0.11298211168119066,-8.36204650411787e-07,-0.19131919921554608
577,0.5393,446.992,447.464,-0.136525,447.332,0.00783018,-0.00985464,0.107205,0.107204,-0.212673,0.648248,2.50603e-07,-1.11937e-06,0.427444,0.11316242938862286,0.9121877396454439,2.5060303143753515e-07,0.11316131622675019,-1.119369373525636e-06,-0.19157955251426806
578,0.5403,447.425,447.803,0.171922,447.476,-0.00907307,0.0226192,0.107367,0.107365,-0.212993,0.649225,3.49411e-08,-6.49636e-07,0.428092,0.1133427763098902,0.9140568599836854,3.494110067947531e-08,0.11334054962656426,-6.496357889407278e-07,-0.19183820567075127
579,0.5413,447.224,447.707,-0.156289,447.585,0.00874824,-0.0127253,0.107527,0.107526,-0.213316,0.650201,2.60739e-07,-1.13332e-06,0.428741,0.11352092540564729,0.9159258914180031,2.6073903391932163e-07,0.11351981188527871,-1.1333193578044742e-06,-0.19209919977750223
580,0.5423,447.74,448.102,0.235978,447.733,-0.0129126,0.0286141,0.107689,0.107687,-0.213635,0.651176,-1.86963e-08,-5.36209e-07,0.429389,0.1137013304079737,0.9177948301216987,-1.8696299841636232e-08,0.11369910300754027,-5.362088562055334e-07,-0.19235687903074716
581,0.5433,447.416,447.922,-0.216093,447.835,0.0118029,-0.0198354,0.107848,0.107848,-0.213958,0.652152,2.93742e-07,-1.20476e-06,0.430037,0.11387842299799633,0.9196675115958008,2.9374204313370456e-07,0.11387842299799633,-1.2047592742314706e-06,-0.19261770563305636
582,0.5443,448.064,448.407,0.310016,447.989,-0.0172284,0.0357657,0.10801,0.108008,-0.214276,0.653126,-8.05346e-08,-4.07995e-07,0.430683,0.1140588859196241,0.9215381786190473,-8.053459676915509e-08,0.11405665780408025,-4.0799491674015087e-07,-0.19287441238412828
583,0.5453,447.583,448.119,-0.299699,448.083,0.0162527,-0.029336,0.108169,0.108169,-0.214599,0.654101,3.43254e-07,-1.31245e-06,0.431331,0.11423603536549298,0.9234125919712215,3.4325405895430094e-07,0.11423603536549298,-1.3124491387017656e-06,-0.19313507185015832
584,0.5463,448.41,448.726,0.407167,448.246,-0.022725,0.0454828,0.108331,0.108329,-0.214917,0.655072,-1.58184e-07,-2.46425e-07,0.431976,0.11441655622501701,0.9252811326277028,-1.5818398746425544e-07,0.11441432739413337,-2.464249696521037e-07,-0.19339161410492955
585,0.5473,447.722,448.295,-0.411015,448.328,0.022328,-0.0416508,0.10849,0.108489,-0.215239,0.656047,4.12996e-07,-1.46243e-06,0.432623,0.11459376254498599,0.9271591971396866,4.1299608533051924e-07,0.1145926479517807,-1.4624289306208738e-06,-0.19365130019348376
586,0.5483,448.787,449.066,0.535805,448.503,-0.0298834,0.0586326,0.108652,0.108649,-0.215556,0.657017,-2.57217e-07,-3.90141e-08,0.433267,0.11477434136100739,0.9290294484861719,-2.572169669479152e-07,0.11477099704299976,-3.9014099284528925e-08,-0.19390687222101588
587,0.5493,447.825,448.446,-0.558025,448.57,0.0304686,-0.0576426,0.108809,0.108809,-0.215879,0.65799,5.0902e-07,-1.66645e-06,0.433914,0.11494937467235644,0.9309073075698411,5.09020129602078e-07,0.11494937467235644,-1.6664486114370547e-06,-0.1941671982563704
588,0.5503,448.226,448.747,-0.286352,448.71,0.0147651,-0.0262214,0.10897,0.108969,-0.216198,0.65896,3.56753e-07,-1.31859e-06,0.434559,0.11512889597275566,0.9327811963473125,3.5675306353510905e-07,0.1151277808444171,-1.3185891306610742e-06,-0.19442421792331022
589,0.5513,448.681,449.099,0.0458194,448.852,-0.0024925,0.00957638,0.10913,0.109129,-0.216516,0.659929,1.5315e-07,-8.33844e-07,0.435202,0.11530733087052236,0.9346549690228176,1.531500117835094e-07,0.1153062155637492,-8.338436523480652e-07,-0.19468035029480513
590,0.5523,448.647,449.115,-0.112951,448.968,0.00607564,-0.00736579,0.10929,0.109289,-0.216835,0.660899,2.65469e-07,-1.06823e-06,0.435846,0.11548579432015704,0.936532494795556,2.65469035198862e-07,0.11548467883492042,-1.0682294294683814e-06,-0.19493720629235134
591,0.5533,449.03,449.418,0.147263,449.105,-0.00817881,0.0197846,0.10945,0.109448,-0.217153,0.661867,8.29271e-08,-6.73674e-07,0.436489,0.11566428632622783,0.9384079658320528,8.292710340640497e-08,0.11566205499988658,-6.736737730994591e-07,-0.1951931755594799
592,0.5543,448.881,449.357,-0.125659,449.215,0.0066856,-0.00943185,0.109609,0.109608,-0.217473,0.662836,2.69564e-07,-1.07113e-06,0.437133,0.11584169105105557,0.9402871934897008,2.6956403642586224e-07,0.11584057520992252,-1.0711294263776594e-06,-0.19545067254158632
593,0.5553,449.325,449.702,0.197658,449.355,-0.0112269,0.024356,0.109769,0.109767,-0.21779,0.663803,3.7794e-08,-5.81141e-07,0.437775,0.11602024000515931,0.9421643586688933,3.779400081782569e-08,0.11601800796691131,-5.811408311240385e-07,-0.19570567425848318
594,0.5563,449.081,449.575,-0.170989,449.459,0.00902234,-0.0149159,0.109928,0.109927,-0.218109,0.664771,2.91924e-07,-1.12045e-06,0.438418,0.1161977013311215,0.944045283989067,2.9192404271682904e-07,0.11619658513397835,-1.120449372282728e-06,-0.19596220322984836
595,0.5573,449.626,449.989,0.253693,449.605,-0.0145116,0.0296079,0.110088,0.110086,-0.218426,0.665736,-1.20523e-08,-4.80503e-07,0.439059,0.11637630725142722,0.945922193151135,-1.2052300046860864e-08,0.11637407450104531,-4.805028845922266e-07,-0.19621704281721586
596,0.5583,449.263,449.779,-0.233499,449.702,0.012374,-0.022087,0.110246,0.110245,-0.218745,0.666703,3.26206e-07,-1.19593e-06,0.439701,0.1165527086433158,0.9478048100104626,3.262060532804867e-07,0.1165515920911655,-1.195929284825148e-06,-0.19647340868802676
597,0.5593,449.941,450.285,0.32554,449.854,-0.0185889,0.0366262,0.110406,0.110404,-0.219061,0.667667,-7.2518e-08,-3.57548e-07,0.440341,0.11673137136933565,0.9496833991818128,-7.251799738483555e-08,0.11672913790882644,-3.575479360362621e-07,-0.19672728297663122
598,0.5603,449.426,449.97,-0.315076,449.943,0.0168593,-0.0311547,0.110563,0.110563,-0.21938,0.668632,3.74578e-07,-1.30054e-06,0.440983,0.11690671195851676,0.9515657517510634,3.745780701169821e-07,0.11690671195851676,-1.3005391542586509e-06,-0.19698348610678973
599,0.5613,450.278,450.595,0.418691,450.104,-0.0237821,0.04597,0.110724,0.110721,-0.219695,0.669595,-1.47269e-07,-2.04153e-07,0.441622,0.11708654841558852,0.9534460147713357,-1.4726898911465724e-07,0.11708319716097004,-2.0415297918852104e-07,-0.19723639647319213
600,0.5623,449.564,450.143,-0.42064,450.182,0.0227465,-0.0426522,0.110881,0.11088,-0.220015,0.670559,4.40807e-07,-1.44142e-06,0.442263,0.1172619447719434,0.9553300446860924,4.4080709704630294e-07,0.11726082751055733,-1.4414189611899886e-06,-0.19749323972920807
601,0.5633,450.64,450.923,0.539173,450.354,-0.0304432,0.0582553,0.111041,0.111039,-0.220328,0.67152,-2.4046e-07,-1.13111e-08,0.4429,0.1174407209848225,0.9572100200425113,-2.4045997104593653e-07,0.11743848610561547,-1.1311099945565672e-08,-0.19774438503888148
602,0.5643,449.671,450.294,-0.55663,450.418,0.0303917,-0.0572678,0.111198,0.111197,-0.220648,0.672484,5.29703e-07,-1.62793e-06,0.443541,0.1176161729506362,0.959097680207849,5.297031402395902e-07,0.11761505533502192,-1.6279286749742994e-06,-0.19800106576456256
603,0.5653,450.077,450.598,-0.277405,450.555,0.0142281,-0.0253297,0.111356,0.111356,-0.220964,0.673445,3.7077e-07,-1.27034e-06,0.444179,0.11779277025678203,0.9609812780023073,3.707700686472748e-07,0.11779277025678203,-1.2703391931712105e-06,-0.19825445738979564
604,0.5663,450.512,450.936,0.0377793,450.692,-0.00220941,0.00840057,0.111515,0.111514,-0.221279,0.674405,1.77532e-07,-8.14725e-07,0.444817,0.11797051343746134,0.9628647239385904,1.7753201575487765e-07,0.11796939546750695,-8.147246680634268e-07,-0.19850696746329333
605,0.5673,450.494,450.961,-0.1021,450.806,0.00538701,-0.00639533,0.111673,0.111672,-0.221595,0.675365,2.76886e-07,-1.01928e-06,0.445455,0.11814716673382741,0.9647499788511418,2.7688603831954595e-07,0.11814604858721967,-1.0192794804853023e-06,-0.19876019924884558
606,0.5683,450.848,451.244,0.132508,450.938,-0.00751722,0.0178836,0.111832,0.11183,-0.22191,0.676324,1.11786e-07,-6.66218e-07,0.446092,0.11832496626802635,0.9666350778413517,1.1178600622940849e-07,0.11832272962033064,-6.662177780558665e-07,-0.19901255003874618
607,0.5693,450.727,451.2,-0.108543,451.046,0.00568765,-0.0077276,0.111989,0.111988,-0.222226,0.677284,2.76754e-07,-1.01348e-06,0.446729,0.11850055707124785,0.9685239540315851,2.7675403835303314e-07,0.11849943857125012,-1.0134794864447016e-06,-0.19926562208544463
608,0.5703,451.129,451.516,0.174558,451.181,-0.0100734,0.0216018,0.112148,0.112146,-0.222541,0.678242,7.2882e-08,-5.87375e-07,0.447365,0.11867841279897795,0.9704107035882856,7.288200265520572e-08,0.11867617544438969,-5.873748274431989e-07,-0.19951781369222432
609,0.5713,450.93,451.417,-0.14418,451.285,0.00753115,-0.012102,0.112305,0.112304,-0.222857,0.6792,2.9276e-07,-1.04869e-06,0.448002,0.118854059097661,0.9722992615171338,2.9276004287481783e-07,0.11885294024416138,-1.0486894501671173e-06,-0.19977072610083246
610,0.5723,451.411,451.788,0.218837,451.424,-0.0126879,0.025628,0.112463,0.112462,-0.223171,0.680156,3.17184e-08,-5.05452e-07,0.448637,0.1190308520052703,0.9741856811760687,3.1718400572700034e-08,0.11902973297497788,-5.054518722458212e-07,-0.2000219586472628
611,0.5733,451.12,451.625,-0.192773,451.522,0.0101488,-0.0177206,0.11262,0.112619,-0.223487,0.681113,3.17743e-07,-1.10356e-06,0.449273,0.11920655364125254,0.976075881189399,3.1774305053744456e-07,0.11920543443525866,-1.1035593910913022e-06,-0.20027471177123346
612,0.5743,451.704,452.067,0.274052,451.665,-0.0158379,0.0308876,0.112779,0.112777,-0.2238,0.682068,-1.66752e-08,-4.08488e-07,0.449907,0.11938452163136182,0.9779639350581615,-1.667519988757249e-08,0.11938228286455743,-4.084879166033062e-07,-0.2005249866163925
613,0.5753,451.296,451.822,-0.254763,451.758,0.0135777,-0.0246385,0.112935,0.112934,-0.224116,0.683025,3.52766e-07,-1.17893e-06,0.450542,0.11955915923811555,0.979857752591164,3.527660621394091e-07,0.11955803967951617,-1.1789293050679106e-06,-0.2007775808086375
614,0.5763,452.011,452.354,0.343914,451.907,-0.0197471,0.0377509,0.113093,0.113091,-0.224428,0.683978,-7.47546e-08,-2.91048e-07,0.451175,0.1197360635603486,0.9817454563773682,-7.475459717909416e-08,0.11973382409046085,-2.9104795762346924e-07,-0.20102689930771678
615,0.5773,451.455,452.007,-0.333107,451.991,0.0179764,-0.033179,0.113249,0.113249,-0.224744,0.684933,4.00137e-07,-1.27901e-06,0.45181,0.11991075601192103,0.9836389272766555,4.0013708013653115e-07,0.11991075601192103,-1.2790091821202054e-06,-0.20127933492060812
616,0.5783,452.335,452.654,0.432136,452.149,-0.0246388,0.0465897,0.113408,0.113406,-0.225055,0.685885,-1.45083e-07,-1.47615e-07,0.452442,0.12008883597910902,0.9855282507106855,-1.4508298951110277e-07,0.1200865958036772,-1.4761498912108095e-07,-0.20152769842492113
617,0.5793,451.593,452.176,-0.431698,452.223,0.0235572,-0.043758,0.113563,0.113563,-0.225372,0.68684,4.62783e-07,-1.40937e-06,0.453076,0.12026246320444822,0.9874253359041119,4.6278310716907356e-07,0.12026246320444822,-1.4093690068328613e-06,-0.20178077402991768
618,0.5803,452.681,452.968,0.54316,452.392,-0.0307702,0.0578516,0.113722,0.113719,-0.225682,0.68779,-2.3071e-07,2.83783e-08,0.453707,0.12044059909752591,0.9893142870829659,-2.3070997334784238e-07,0.12043723778077053,2.837830037627498e-08,-0.2020281836394976
619,0.5813,451.705,452.327,-0.555262,452.453,0.0305827,-0.0568759,0.113876,0.113876,-0.225998,0.688744,5.44214e-07,-1.5768e-06,0.454341,0.12061316023665358,0.9912129984541631,5.442141481903917e-07,0.12061316023665358,-1.576798756897091e-06,-0.202280302896527
620,0.5823,452.115,452.635,-0.267852,452.586,0.0138985,-0.0244128,0.114034,0.114033,-0.22631,0.689694,3.78378e-07,-1.20923e-06,0.454972,0.12079023110420106,0.9931055496221637,3.783780715416185e-07,0.12078911031453043,-1.2092292688281603e-06,-0.20252915261944782
621,0.5833,452.53,452.959,0.0293573,452.719,-0.00167824,0.00713477,0.114191,0.11419,-0.226622,0.690644,1.96478e-07,-7.84397e-07,0.455603,0.12096620898438659,0.9949998995680582,1.96478019409696e-07,0.12096508801873807,-7.843966923770651e-07,-0.20277792471336586
622,0.5843,452.527,452.993,-0.0909318,452.83,0.00488478,-0.00546664,0.114347,0.114346,-0.226935,0.691594,2.82598e-07,-9.586e-07,0.456234,0.12114109335361434,0.9968960500014974,2.8259803985797305e-07,0.12113997221308148,-9.585995405236858e-07,-0.2030274161754798
623,0.5853,452.852,453.256,0.117489,452.958,-0.00663811,0.0158977,0.114504,0.114503,-0.227247,0.692543,1.35723e-07,-6.47744e-07,0.456864,0.12131712632349734,0.9987920038407541,1.3572300927577885e-07,0.12131600500693174,-6.477437901608596e-07,-0.2032760328354174
624,0.5863,452.759,453.229,-0.0914956,453.064,0.00486942,-0.00612262,0.11466,0.114659,-0.22756,0.693492,2.79043e-07,-9.45244e-07,0.457495,0.12149206544010016,1.0006897577942233,2.790430388976972e-07,0.12149094394859539,-9.452435532075754e-07,-0.2035253684140863
625,0.5873,453.118,453.515,0.151726,453.193,-0.00874922,0.0188235,0.114817,0.114815,-0.227871,0.69444,1.03251e-07,-5.82068e-07,0.458124,0.12166815351692661,1.0025873109827117,1.0325100530117481e-07,0.12166591018286299,-5.820678306012184e-07,-0.20377303351059073
626,0.5883,452.965,453.445,-0.118233,453.296,0.0062389,-0.00948716,0.114972,0.114971,-0.228183,0.695387,2.89747e-07,-9.6812e-07,0.458754,0.12184202555545665,1.0044846594189005,2.8974704191497835e-07,0.12184090371399203,-9.68119531319367e-07,-0.20402141757420666
627,0.5893,453.383,453.773,0.185358,453.428,-0.0107675,0.021753,0.115129,0.115127,-0.228494,0.696334,7.05366e-08,-5.17396e-07,0.459382,0.12201816858033454,1.0063838054951062,7.053660255884608e-08,0.12201592454624133,-5.173958661508493e-07,-0.20426892842340905
628,0.5903,453.16,453.654,-0.154407,453.527,0.00818252,-0.0137298,0.115284,0.115283,-0.228806,0.697281,3.06934e-07,-1.00527e-06,0.460011,0.12219209487540406,1.008284750914501,3.0693404706738647e-07,0.12219097268387036,-1.0052694947582097e-06,-0.2045171577919458
629,0.5913,453.654,454.034,0.225953,453.662,-0.013109,0.0254861,0.115441,0.115439,-0.229116,0.698225,3.33293e-08,-4.43514e-07,0.460639,0.1223682928654799,1.0101814668284228,3.332930065269579e-08,0.12236604813113883,-4.4351390160457527e-07,-0.20476371925402914
630,0.5923,453.345,453.855,-0.199406,453.756,0.0106771,-0.018796,0.115595,0.115595,-0.229429,0.699171,3.30858e-07,-1.05601e-06,0.461267,0.12254115089230755,1.012083998251522,3.30858054731209e-07,0.12254115089230755,-1.0560094424461042e-06,-0.205012589259715
631,0.5933,453.935,454.301,0.275919,453.896,-0.015924,0.0302567,0.115752,0.11575,-0.229738,0.700115,-9.93673e-09,-3.56932e-07,0.461894,0.12271740368848016,1.0139843023482857,-9.93672999438644e-09,0.12271515825591806,-3.569319363405654e-07,-0.20525820242044612
632,0.5943,453.52,454.048,-0.254784,453.984,0.0138024,-0.02486,0.115906,0.115906,-0.23005,0.70106,3.6278e-07,-1.1225e-06,0.462522,0.1228903154825145,1.0158884170665075,3.627800657657332e-07,0.1228903154825145,-1.1224993700098551e-06,-0.2055061231836407
633,0.5953,454.225,454.576,0.337338,454.129,-0.0193434,0.0362651,0.116063,0.116061,-0.230359,0.702002,-6.07035e-08,-2.54565e-07,0.463147,0.12306662310183114,1.017788278649701,-6.07034981170429e-08,0.12306437697083106,-2.5456496755005276e-07,-0.2057515838659485
634,0.5963,453.682,454.232,-0.322643,454.211,0.0176689,-0.0321495,0.116217,0.116216,-0.230671,0.702946,4.04279e-07,-1.20766e-06,0.463774,0.12323958867979656,1.0196939701296053,4.042790817671005e-07,0.12323846544076944,-1.2076592708076817e-06,-0.20599935071814346
635,0.5973,454.53,454.859,0.412581,454.363,-0.0235108,0.0437432,0.116374,0.116372,-0.230979,0.703886,-1.20618e-07,-1.32914e-07,0.464399,0.12341595113931003,1.0215933750419768,-1.206179927049078e-07,0.12341370430965459,-1.32913991146566e-07,-0.20624386526094973
636,0.5983,453.828,454.404,-0.405479,454.436,0.0224125,-0.0409296,0.116527,0.116527,-0.231291,0.704829,4.57217e-07,-1.31501e-06,0.465026,0.12358784692952707,1.02350063672719,4.5721710462132137e-07,0.12358784692952707,-1.3150091353608673e-06,-0.20649147854530736
637,0.5993,454.85,455.152,0.504424,454.596,-0.0285906,0.0529678,0.116684,0.116682,-0.231598,0.705769,-1.91612e-07,1.20973e-08,0.465649,0.12376426406987817,1.0254036215884752,-1.916119816147699e-07,0.12376201654359753,1.2097300050584181e-08,-0.2067350482715279
638,0.6003,453.955,454.563,-0.506209,454.66,0.0281961,-0.0515053,0.116837,0.116837,-0.23191,0.706711,5.23779e-07,-1.44865e-06,0.466276,0.12393621315605041,1.0273124507173788,5.237791371737188e-07,0.12393621315605041,-1.4486489506859712e-06,-0.20698250833069054
639,0.6013,455.189,455.459,0.616113,454.83,-0.0347717,0.0642661,0.116994,0.116991,-0.232216,0.707648,-2.75936e-07,1.85223e-07,0.466898,0.1241126849941927,1.0292129327204727,-2.759359619686208e-07,0.12410931266119629,1.852230171461855e-07,-0.20722513455943514
640,0.6023,454.061,454.706,-0.62818,454.882,0.0352113,-0.0642271,0.117146,0.117146,-0.232529,0.70859,6.06506e-07,-1.61334e-06,0.467524,0.12428356310871957,1.0311253519111165,6.065061839422015e-07,0.12428356310871957,-1.6133386985250908e-06,-0.20747323426268904
641,0.6033,454.52,455.047,-0.288617,455.012,0.0156222,-0.0264907,0.117301,0.117301,-0.232837,0.709528,4.10556e-07,-1.18022e-06,0.468147,0.1244578405671557,1.0330314413073807,4.105560842404543e-07,0.1244578405671557,-1.1802193035093111e-06,-0.2077172949192656
642,0.6043,454.939,455.373,0.016007,455.141,-0.000693957,0.00558952,0.117457,0.117456,-0.233144,0.710465,2.22115e-07,-7.5161e-07,0.468769,0.1246332696733985,1.0349372845159897,2.2211502459512644e-07,0.12463214504069131,-7.516097175752634e-07,-0.2079604883776195
643,0.6053,454.949,455.414,-0.0876711,455.249,0.00505967,-0.00515966,0.117611,0.11761,-0.233453,0.711403,2.99126e-07,-9.01081e-07,0.469392,0.12480647653351418,1.0368469511825151,2.991260448226285e-07,0.12480535172759999,-9.010805940290467e-07,-0.20820519077824284
644,0.6063,455.255,455.664,0.106592,455.371,-0.00581126,0.0145389,0.117766,0.117764,-0.233761,0.712339,1.61813e-07,-6.14943e-07,0.470014,0.12498083504981272,1.038754332443998,1.6181301298878736e-07,0.12497858509039261,-6.14942810894803e-07,-0.20844902602692728
645,0.6073,455.18,455.646,-0.0809972,455.475,0.00458959,-0.00503855,0.117919,0.117919,-0.23407,0.713276,2.91494e-07,-8.78616e-07,0.470636,0.12515297028558514,1.0406655405146474,2.9149404245920607e-07,0.12515297028558514,-8.786156140416779e-07,-0.20869357749273765
646,0.6083,455.508,455.911,0.135557,455.598,-0.00764517,0.0168991,0.118074,0.118073,-0.234377,0.714211,1.3445e-07,-5.58756e-07,0.471257,0.1253273825125778,1.0425744550735168,1.3445000912604144e-07,0.12532625718575807,-5.587558439268392e-07,-0.20893647127834358
647,0.6093,455.384,455.859,-0.100462,455.699,0.00552859,-0.0076082,0.118228,0.118227,-0.234685,0.715146,2.98113e-07,-8.91689e-07,0.471879,0.12550069627430194,1.0444851553021683,2.98113044472359e-07,0.1254995707741684,-8.916886024001869e-07,-0.20918008132731647
648,0.6103,455.757,456.155,0.160999,455.824,-0.00923079,0.018964,0.118382,0.118381,-0.234992,0.71608,1.08642e-07,-5.07578e-07,0.472499,0.1256740367284006,1.0463955964743663,1.08642005836046e-07,0.12567291105492662,-5.075778711782775e-07,-0.20942282577916904
649,0.6113,455.58,456.066,-0.126982,455.922,0.00691575,-0.0108058,0.118535,0.118535,-0.2353,0.717015,3.09505e-07,-9.15377e-07,0.47312,0.12584627803214365,1.0483098711410173,3.09505047813019e-07,0.12584627803214365,-9.153765810898662e-07,-0.20966628605402216
650,0.6123,456.009,456.401,0.190375,456.05,-0.0109734,0.0215145,0.11869,0.118688,-0.235606,0.717947,8.03493e-08,-4.51553e-07,0.473739,0.12602079773016595,1.0502197858229128,8.034930321088041e-08,0.1260185456908225,-4.515528980730821e-07,-0.2099080911724197
651,0.6133,455.771,456.268,-0.159013,456.144,0.00867097,-0.0144808,0.118843,0.118842,-0.235914,0.718881,3.25213e-07,-9.47678e-07,0.474359,0.12619309209240126,1.0521355856421155,3.2521305293187197e-07,0.12619196589987225,-9.476775509886792e-07,-0.21015140200854643
652,0.6143,456.266,456.65,0.225309,456.275,-0.0129776,0.0247018,0.118997,0.118996,-0.23622,0.719812,4.85895e-08,-3.88377e-07,0.474978,0.1263665391836668,1.0540470135039555,4.858950108932447e-08,0.12636541281769076,-3.8837692462045936e-07,-0.2103930587041717
653,0.6153,455.955,456.465,-0.197162,456.365,0.0108188,-0.0187093,0.11915,0.119149,-0.236528,0.720745,3.45796e-07,-9.8939e-07,0.475598,0.1265388864483914,1.0559643336583227,3.4579605978635186e-07,0.1265377599100681,-9.893895105417272e-07,-0.2106362201932992
654,0.6163,456.529,456.902,0.266845,456.499,-0.0153158,0.0286177,0.119304,0.119302,-0.236832,0.721675,1.2654e-08,-3.16491e-07,0.476215,0.1267123867960882,1.0578772698660868,1.2654000070000393e-08,0.12671013337356807,-3.164909498920565e-07,-0.2108761503111347
655,0.6173,456.131,456.656,-0.242394,456.585,0.0134044,-0.023601,0.119456,0.119456,-0.23714,0.722606,3.71991e-07,-1.0418e-06,0.476834,0.12688366009532226,1.0597940457250452,3.7199106928120784e-07,0.12688366009532226,-1.0417994573685974e-06,-0.2111191630309589
656,0.6183,456.799,457.159,0.316074,456.723,-0.01806,0.0333611,0.119611,0.119609,-0.237444,0.723535,-2.82151e-08,-2.34278e-07,0.477451,0.12705834060002652,1.0617084835121897,-2.8215099590056525e-08,0.1270560864855994,-2.3427797257724592e-07,-0.21135894635648544
657,0.6193,456.298,456.841,-0.295832,456.804,0.0164839,-0.0292787,0.119763,0.119762,-0.237752,0.724465,4.04636e-07,-1.10642e-06,0.478069,0.1272296664882353,1.0636267642641455,4.046360819742745e-07,0.12722853925913236,-1.1064193878862483e-06,-0.21160181039802528
658,0.6203,457.078,457.422,0.374216,456.947,-0.0212873,0.0390464,0.119917,0.119915,-0.238056,0.725393,-7.48682e-08,-1.39943e-07,0.478685,0.12740327322425005,1.0655426987574899,-7.486819719737525e-08,0.12740101841995832,-1.3994299019604028e-07,-0.21184144702105212
659,0.6213,456.455,457.017,-0.358737,457.022,0.020124,-0.0358768,0.120068,0.120068,-0.238363,0.726322,4.44672e-07,-1.18495e-06,0.479303,0.12757352397211497,1.0674624795247314,4.446720989204067e-07,0.12757352397211497,-1.1849492979054688e-06,-0.21208337455903936
660,0.6223,457.366,457.691,0.44264,457.171,-0.0250812,0.0458051,0.120223,0.120221,-0.238666,0.727248,-1.28258e-07,-3.14891e-08,0.479917,0.12774831141400744,1.0693778364541653,-1.28257991782732e-07,0.12774605591963994,-3.148909955008605e-08,-0.21232207713128204
661,0.6233,456.601,457.186,-0.43251,457.238,0.024402,-0.0435419,0.120374,0.120374,-0.238974,0.728177,4.93153e-07,-1.27932e-06,0.480535,0.1279186142665727,1.0713011817197797,4.931531216723073e-07,0.1279186142665727,-1.2793191817017657e-06,-0.21256464457422186
662,0.6243,457.665,457.968,0.522872,457.394,-0.0295336,0.0537863,0.120528,0.120526,-0.239276,0.729101,-1.89456e-07,9.3303e-08,0.481148,0.12809232710871532,1.0732159484977082,-1.8945598201369762e-07,0.1280900709263173,9.330300443366468e-08,-0.21280241414654788
663,0.6253,456.734,457.344,-0.518704,457.453,0.0294047,-0.0524339,0.120679,0.120679,-0.239584,0.730029,5.5125e-07,-1.39163e-06,0.481765,0.12826268191157264,1.075140785884325,5.512501519699953e-07,0.12826268191157264,-1.3916290316773328e-06,-0.21304483366846794
664,0.6263,457.977,458.253,0.616603,457.617,-0.0347437,0.0631573,0.120834,0.120831,-0.239885,0.730952,-2.59631e-07,2.36889e-07,0.482378,0.12843757618122464,1.077057025038024,-2.596309662816765e-07,0.128434190873574,2.368890279491609e-07,-0.21328167152764776
665,0.6273,456.852,457.492,-0.618998,457.667,0.0352298,-0.0627263,0.120983,0.120984,-0.240193,0.731879,6.20257e-07,-1.52423e-06,0.482994,0.1286057259069191,1.0789833496137295,6.202571922742095e-07,0.1286068545132093,-1.5242288383676694e-06,-0.21352394346102432
666,0.6283,457.314,457.837,-0.271935,457.793,0.015077,-0.0248349,0.121136,0.121136,-0.240496,0.732803,4.16352e-07,-1.08386e-06,0.483608,0.1287784157934222,1.0809052179952277,4.163520865851922e-07,0.1287784157934222,-1.083859412664978e-06,-0.21376220960701153
667,0.6293,457.701,458.141,0.00546553,457.915,0.000140672,0.00401333,0.121289,0.121288,-0.240799,0.733726,2.45783e-07,-7.00063e-07,0.484221,0.1289511321034995,1.0828267801759641,2.4578303015054814e-07,0.1289500031529318,-7.000627549880178e-07,-0.21400040356929306
668,0.6303,457.732,458.195,-0.0726215,458.02,0.00447653,-0.00397338,0.121441,0.12144,-0.241103,0.734649,3.04942e-07,-8.11265e-07,0.484834,0.1291227457178834,1.0847501167773625,3.0494204650288737e-07,0.12912161659570232,-8.112646708857696e-07,-0.21423931113081873
669,0.6313,458.0,458.418,0.0878761,458.136,-0.00456623,0.0120638,0.121593,0.121592,-0.241406,0.735571,1.91644e-07,-5.7797e-07,0.485446,0.12929438541951943,1.0866731427637832,1.9164401843241308e-07,0.12929325612569875,-5.77969832993297e-07,-0.2144773605532373
670,0.6323,457.959,458.422,-0.0606046,458.237,0.00370021,-0.00325725,0.121745,0.121744,-0.24171,0.736493,2.94562e-07,-7.8293e-07,0.486059,0.1294660512123731,1.0885979425977816,2.9456204342359626e-07,0.12946492174688662,-7.829296935213392e-07,-0.21471612314187682
671,0.6333,458.237,458.651,0.109191,458.353,-0.00596835,0.013676,0.121897,0.121896,-0.242012,0.737414,1.71022e-07,-5.34912e-07,0.486671,0.1296377431004101,1.0905224273921266,1.7102201455010402e-07,0.12963661346323185,-5.349118569197842e-07,-0.21495324306577734
672,0.6343,458.163,458.631,-0.0719889,458.452,0.00419362,-0.00492206,0.122048,0.122048,-0.242316,0.738335,2.96825e-07,-7.85815e-07,0.487283,0.12980833127870173,1.092448685453431,2.9682504409933586e-07,0.12980833127870173,-7.858146912065322e-07,-0.21519186100812038
673,0.6353,458.467,458.879,0.125243,458.569,-0.00702519,0.014815,0.1222,0.122199,-0.242618,0.739255,1.53262e-07,-4.99179e-07,0.487894,0.1299800751972633,1.094374624039955,1.532620117483674e-07,0.12997894521775288,-4.991788754571402e-07,-0.2154288372808777
674,0.6363,458.361,458.836,-0.0880108,458.667,0.00499526,-0.00697164,0.122352,0.122351,-0.242922,0.740175,3.02131e-07,-7.95654e-07,0.488505,0.13015184522288448,1.0963023353052859,3.0213104573739713e-07,0.13015071507160436,-7.956536834941019e-07,-0.21566731066455336
675,0.6373,458.698,459.108,0.142733,458.785,-0.00810454,0.0161739,0.122503,0.122502,-0.243223,0.741094,1.34728e-07,-4.6208e-07,0.489115,0.13032251103645764,1.0982297226502666,1.3472800897140758e-07,0.13032138071451183,-4.620798932375436e-07,-0.21590335927694504
676,0.6383,458.555,459.039,-0.10673,458.88,0.00600098,-0.0092174,0.122654,0.122654,-0.243526,0.742013,3.09674e-07,-8.09916e-07,0.489726,0.13049320262251474,1.1001588820783654,3.096740479602289e-07,0.13049320262251474,-8.099156719731937e-07,-0.2161409045691549
677,0.6393,458.932,459.337,0.162686,459.0,-0.00927636,0.0178434,0.122806,0.122805,-0.243827,0.74293,1.14841e-07,-4.2219e-07,0.490335,0.13066505064943246,1.1020856110434476,1.1484100670422492e-07,0.13066391998494709,-4.221899109202454e-07,-0.21637681065123315
678,0.6403,458.747,459.238,-0.128174,459.093,0.00720306,-0.0116754,0.122957,0.122956,-0.24413,0.743848,3.19576e-07,-8.28593e-07,0.490945,0.13083579396287615,1.1040162116444812,3.195760509555612e-07,0.1308346631276478,-8.28592656709759e-07,-0.21661421250940804
679,0.6413,459.167,459.567,0.185486,459.215,-0.0105746,0.0198493,0.123108,0.123107,-0.244431,0.744764,9.33478e-08,-3.78908e-07,0.491553,0.13100656306050706,1.1059443734576382,9.334780437519896e-08,0.13100543205450954,-3.7890792825567843e-07,-0.2168499761472351
680,0.6423,458.935,459.434,-0.152621,459.305,0.00860777,-0.014384,0.123259,0.123258,-0.244734,0.745681,3.32062e-07,-8.52e-07,0.492163,0.13117735794621854,1.1078764101515377,3.3206205518609977e-07,0.13117622676942609,-8.519996370637273e-07,-0.21708723465798296
681,0.6433,459.406,459.799,0.211465,459.429,-0.0120276,0.0222142,0.12341,0.123409,-0.245034,0.746596,7.00188e-08,-3.31718e-07,0.49277,0.13134817862390502,1.1098059997194283,7.001880253376669e-08,0.1313470472762921,-3.317179450013086e-07,-0.21732207326003394
682,0.6443,459.119,459.628,-0.180393,459.517,0.0102259,-0.0173841,0.12356,0.12356,-0.245336,0.747512,3.47372e-07,-8.80524e-07,0.493379,0.131517893579002,1.111739467408182,3.4737206022761313e-07,0.131517893579002,-8.805236123565763e-07,-0.21755840630582335
683,0.6453,459.647,460.033,0.240964,459.643,-0.0136621,0.0249637,0.123712,0.12371,-0.245636,0.748426,4.46111e-08,-2.80094e-07,0.493986,0.13168989737078296,1.113670479619544,4.461110103548549e-08,0.13168763399325156,-2.8009396080275195e-07,-0.21779310357758053
684,0.6463,459.299,459.818,-0.211832,459.727,0.0120712,-0.0207164,0.123861,0.123861,-0.245938,0.749341,3.65759e-07,-9.14587e-07,0.494594,0.13185853172843887,1.1156053731872078,3.6575906681157733e-07,0.13185853172843887,-9.145865818016574e-07,-0.21802929439369179
685,0.6473,459.891,460.269,0.274345,459.856,-0.0155043,0.028127,0.124013,0.124011,-0.246237,0.750253,1.6866e-08,-2.23496e-07,0.4952,0.1320305873011538,1.1175356853761187,1.686600015204931e-08,0.13202832324224345,-2.2349597506021723e-07,-0.21826306868367007
686,0.6483,459.474,460.004,-0.2473,459.937,0.0141601,-0.0244219,0.124162,0.124162,-0.246539,0.751167,3.87484e-07,-9.5464e-07,0.495807,0.13219927242539153,1.1194719977525098,3.8748407504840543e-07,0.13219927242539153,-9.546395443038591e-07,-0.21849911759174845
687,0.6493,460.14,460.507,0.311985,460.068,-0.01758,0.0317362,0.124314,0.124312,-0.246838,0.752078,-1.34887e-08,-1.61362e-07,0.496412,0.13237137979462887,1.121403716506757,-1.3488700045805047e-08,0.13236911505413396,-1.6136198699445714e-07,-0.2187327514255898
688,0.6503,459.645,460.186,-0.287173,460.145,0.016511,-0.0285415,0.124463,0.124462,-0.24714,0.752991,4.12821e-07,-1.00115e-06,0.497019,0.1325401157007311,1.1233414425372583,4.1282108531603967e-07,0.13253898316118162,-1.0011494988582115e-06,-0.21896865851089642
689,0.6513,460.392,460.748,0.354278,460.28,-0.019915,0.0358259,0.124614,0.124612,-0.247437,0.753901,-4.67353e-08,-9.31145e-08,0.497623,0.13271114217037527,1.1252745626862337,-4.673529885312888e-08,0.13270887675035636,-9.311449566951069e-08,-0.2192005903757318
690,0.6523,459.809,460.364,-0.331837,460.353,0.0191442,-0.0331164,0.124763,0.124763,-0.247739,0.754813,4.42055e-07,-1.05462e-06,0.498229,0.13287992870484322,1.1272136971983358,4.4205509763806106e-07,0.13287992870484322,-1.0546194438854073e-06,-0.2194363561950078
691,0.6533,460.649,460.992,0.401628,460.492,-0.0225348,0.040433,0.124914,0.124913,-0.248037,0.755722,-8.31621e-08,-1.81635e-08,0.498833,0.13305100649012536,1.129148213553568,-8.31620965424662e-08,0.13304987343968544,-1.816349981531573e-08,-0.21966892950571726
692,0.6543,459.968,460.538,-0.381686,460.56,0.022081,-0.0381873,0.125062,0.125063,-0.248338,0.756633,4.7548e-07,-1.11554e-06,0.499438,0.1332187104488729,1.1310887513568768,4.7548011306020044e-07,0.13321984366814976,-1.1155393777606548e-06,-0.2199037738120948
693,0.6553,460.91,461.239,0.454449,460.703,-0.0254653,0.0455956,0.125214,0.125212,-0.248635,0.75754,-1.23068e-07,6.40921e-08,0.500041,0.13339097278446688,1.1330225256884487,-1.230679924635325e-07,0.13338870600478803,6.409210207003468e-08,-0.2201354279889245
694,0.6563,460.121,460.707,-0.437118,460.766,0.0253437,-0.0437946,0.125362,0.125362,-0.248937,0.758451,5.13392e-07,-1.18441e-06,0.500646,0.13355872706194938,1.1349665945982874,5.133921316957668e-07,0.13355872706194938,-1.184409298637945e-06,-0.22037091152986743
695,0.6573,461.177,461.489,0.513156,460.914,-0.028732,0.051353,0.125513,0.125511,-0.249232,0.759357,-1.6675e-07,1.54258e-07,0.501247,0.13372990735352253,1.1369017508263943,-1.6674998615240355e-07,0.13372763989597525,1.5425801191959465e-07,-0.22060086819069102
696,0.6583,460.267,460.871,-0.498524,460.971,0.0289546,-0.0499775,0.125661,0.125661,-0.249534,0.760266,5.5609e-07,-1.26173e-06,0.501852,0.13389771179703325,1.1388450776261148,5.560901545909047e-07,0.13389771179703325,-1.2617292040051353e-06,-0.2208362111899158
697,0.6593,461.45,461.743,0.578162,461.125,-0.0323596,0.0577444,0.125813,0.12581,-0.249829,0.761171,-2.14496e-07,2.52937e-07,0.502452,0.1340700773486765,1.140781608569446,-2.1449597698008915e-07,0.13406667514354775,2.5293703198592254e-07,-0.221066030607584
698,0.6603,460.406,461.029,-0.566288,461.175,0.0329363,-0.0567739,0.125959,0.12596,-0.250131,0.762079,6.03874e-07,-1.34796e-06,0.503056,0.1342356636674764,1.1427263210358745,6.038741824365701e-07,0.13423679790370735,-1.3479590914577955e-06,-0.2213012331489691
699,0.6613,460.846,461.361,-0.235981,461.294,0.0135367,-0.0215038,0.126109,0.126109,-0.250428,0.762985,4.05142e-07,-9.32846e-07,0.503658,0.13440581177781596,1.1446685107618273,4.0514208210495894e-07,0.13440581177781596,-9.328455649049161e-07,-0.2215324723420039
700,0.6623,461.184,461.631,-0.00312378,461.408,0.00103132,0.00228357,0.126259,0.126258,-0.250725,0.763889,2.64688e-07,-6.17765e-07,0.504259,0.1345759854122861,1.146608167688394,2.6468803504542393e-07,0.13457485083686804,-6.177648091965082e-07,-0.22176364286719608
701,0.6633,461.237,461.698,-0.0526098,461.509,0.00372806,-0.00267062,0.126408,0.126407,-0.251023,0.764794,3.03097e-07,-6.86999e-07,0.50486,0.13474504982909874,1.148551727408273,3.0309704590614217e-07,0.13474391508461636,-6.869987639879227e-07,-0.22199552274980316
702,0.6643,461.459,461.888,0.0663777,461.617,-0.00300524,0.0089825,0.126557,0.126556,-0.251321,0.765698,2.19902e-07,-5.17103e-07,0.50546,0.13491413943838637,1.1504948963498793,2.1990202414556848e-07,0.13491300452481436,-5.171028663042421e-07,-0.22222733354250024
703,0.6653,461.457,461.917,-0.0373192,461.715,0.0027756,-0.00155436,0.126706,0.126705,-0.251618,0.766602,2.92018e-07,-6.56697e-07,0.506061,0.13508325424390288,1.1524398227104427,2.920180426357888e-07,0.13508211916121615,-6.566967843957272e-07,-0.22245829772455927
704,0.6663,461.677,462.104,0.0800908,461.823,-0.00396685,0.00990978,0.126855,0.126854,-0.251915,0.767505,2.06628e-07,-4.87598e-07,0.50666,0.1352523942494026,1.1543843536939566,2.066280213597338e-07,0.13525125899757606,-4.875978810714443e-07,-0.2226891933204418
705,0.6673,461.657,462.12,-0.0417451,461.92,0.00289404,-0.0024099,0.127003,0.127003,-0.252212,0.768407,2.91456e-07,-6.52079e-07,0.50726,0.1354204240376491,1.1563284850524185,2.91456042411653e-07,0.1354204240376491,-6.520787874109146e-07,-0.22292002035051495
706,0.6683,461.889,462.315,0.0879742,462.028,-0.00455095,0.0103034,0.127152,0.127151,-0.252509,0.769309,1.96806e-07,-4.66033e-07,0.507859,0.13558961428519112,1.1582743708084804,1.9680601925919916e-07,0.13558847869614477,-4.6603289138857917e-07,-0.22315077883513956
707,0.6693,461.853,462.32,-0.048983,462.124,0.00320786,-0.00347636,0.1273,0.1273,-0.252806,0.770211,2.9261e-07,-6.51625e-07,0.508458,0.13575769398569637,1.1602220125453218,2.9261004286240677e-07,0.13575769398569637,-6.51624787684213e-07,-0.2233814687946708
708,0.6703,462.1,462.526,0.095765,462.232,-0.00507928,0.0107485,0.127449,0.127448,-0.253102,0.771111,1.87241e-07,-4.45092e-07,0.509056,0.13592693449020476,1.162167087509054,1.872410175796091e-07,0.13592579856383824,-4.450919008913701e-07,-0.22361131386115962
709,0.6713,462.048,462.518,-0.0571271,462.327,0.00361473,-0.00457178,0.127597,0.127597,-0.253399,0.772012,2.94619e-07,-6.52892e-07,0.509655,0.13609506411779493,1.1641160779432407,2.9461904338390354e-07,0.13609506411779493,-6.528917868564577e-07,-0.22384186706209774
710,0.6723,462.311,462.736,0.104144,462.436,-0.00560141,0.0113032,0.127746,0.127745,-0.253694,0.772911,1.77554e-07,-4.23845e-07,0.510252,0.1362643548941982,1.1660624930798242,1.7755401571228902e-07,0.13626321863041135,-4.238449101690023e-07,-0.22407079994205437
711,0.6733,462.241,462.716,-0.065983,462.53,0.00409612,-0.00568808,0.127894,0.127893,-0.253991,0.773811,2.97431e-07,-6.55586e-07,0.51085,0.13643253446370363,1.168012826842142,2.9743104423829436e-07,0.13643139803173732,-6.555857851031632e-07,-0.22430121669588998
712,0.6743,462.522,462.946,0.113211,462.639,-0.00613315,0.0119673,0.128042,0.128041,-0.254286,0.774709,1.67687e-07,-4.02108e-07,0.511447,0.1366007389256274,1.169960576769474,1.6768701405212028e-07,0.13659960232545676,-4.021079191840471e-07,-0.22453001408769013
713,0.6753,462.433,462.912,-0.0755485,462.732,0.00464408,-0.00683424,0.12819,0.128189,-0.254582,0.775608,3.01064e-07,-6.59654e-07,0.512044,0.1367689682836537,1.171912248472975,3.0106404524943287e-07,0.13676783151525385,-6.596537823755355e-07,-0.22475951923508264
714,0.6763,462.733,463.156,0.122998,462.842,-0.00668407,0.0127353,0.128338,0.128337,-0.254877,0.776505,1.57617e-07,-3.79799e-07,0.51264,0.13693722254146778,1.1738613277912426,1.5761701233074632e-07,0.13693608560481363,-3.7979892786310643e-07,-0.2249881814475737
715,0.6773,462.624,463.107,-0.085841,462.933,0.00525306,-0.00801921,0.128485,0.128485,-0.255173,0.777403,3.05531e-07,-6.65078e-07,0.513236,0.13710436459782138,1.1758143320312602,3.055310466848482e-07,0.13710436459782138,-6.650777788497209e-07,-0.22521755099749707
716,0.6783,462.945,463.366,0.133524,463.044,-0.00726131,0.0136026,0.128634,0.128633,-0.255467,0.778299,1.4733e-07,-3.56855e-07,0.513831,0.1372738057712004,1.1777647353229503,1.4733001085787123e-07,0.13727266849796327,-3.5685493637860333e-07,-0.22544530355623715
717,0.6793,462.814,463.3,-0.0968763,463.134,0.00591884,-0.00925022,0.128781,0.12878,-0.255763,0.779195,3.10842e-07,-6.71842e-07,0.514427,0.1374409973089259,1.179716886959131,3.108420483233232e-07,0.13743985986849716,-6.718417743245553e-07,-0.22567453781804014
718,0.6803,463.157,463.575,0.144805,463.245,-0.00787115,0.0145658,0.128929,0.128928,-0.256057,0.78009,1.36809e-07,-3.33227e-07,0.515022,0.13760935103439587,1.1816686068373237,1.3680900945445273e-07,0.13760821342561358,-3.3322694448223444e-07,-0.22590215604240305
719,0.6813,463.002,463.493,-0.108673,463.334,0.00663865,-0.0105328,0.129076,0.129075,-0.256352,0.780986,3.17018e-07,-6.79936e-07,0.515617,0.1377765919009004,1.1836242579098948,3.170180502554132e-07,0.13777545412487746,-6.799357687992114e-07,-0.22613048122675006
720,0.6823,463.369,463.784,0.156858,463.446,-0.00851491,0.0156203,0.129224,0.129223,-0.256646,0.78188,1.26069e-07,-3.08877e-07,0.51621,0.13794499529804582,1.1855772908721227,1.2606900789968734e-07,0.13794385735361958,-3.0887695234849133e-07,-0.22635796542345388
721,0.6833,463.19,463.684,-0.121229,463.533,0.00740844,-0.0118711,0.12937,0.12937,-0.256941,0.782774,3.24039e-07,-6.89343e-07,0.516805,0.13811114739616737,1.187532070626518,3.240390524794634e-07,0.13811114739616737,-6.893427624277138e-07,-0.2265861561638649
722,0.6843,463.581,463.994,0.169671,463.646,-0.00919952,0.0167644,0.129518,0.129517,-0.257234,0.783667,1.15052e-07,-2.83778e-07,0.517398,0.13827960031119013,1.1894864092479085,1.1505200658845638e-07,0.1382784620321591,-2.83777959686482e-07,-0.22681273322494855
723,0.6853,463.375,463.874,-0.134539,463.732,0.00822729,-0.0132675,0.129665,0.129664,-0.257529,0.78456,3.31899e-07,-7.00018e-07,0.517991,0.13844693971158062,1.1914424938731623,3.3189905512820417e-07,0.1384458012652101,-7.000177549842945e-07,-0.22704078982864417
724,0.6863,463.794,464.203,0.183246,463.846,-0.00992442,0.0179931,0.129812,0.129811,-0.257821,0.785452,1.03772e-07,-2.57926e-07,0.518584,0.1386143037126708,1.193398132662928,1.0377200543310039e-07,0.1386131650989364,-2.5792596669571566e-07,-0.2272664609684244
725,0.6873,463.56,464.062,-0.148602,463.93,0.00909193,-0.0147236,0.129959,0.129958,-0.258116,0.786345,3.40569e-07,-7.11932e-07,0.519177,0.13878169231807758,1.1953577120173553,3.4056905806600923e-07,0.13878055353695484,-7.119317465553721e-07,-0.22749438374217668
726,0.6883,464.007,464.412,0.197574,464.045,-0.0106912,0.0193037,0.130106,0.130105,-0.258408,0.787235,9.22188e-08,-2.31313e-07,0.519768,0.13894910553141826,1.1973124501104735,9.221880414855832e-08,0.1389479665828821,-2.3131297322009914e-07,-0.22771992245186978
727,0.6893,463.743,464.25,-0.163403,464.128,0.0100006,-0.0162398,0.130252,0.130252,-0.258703,0.788127,3.50031e-07,-7.25048e-07,0.520361,0.1391154042403362,1.199273327237154,3.5003106124698036e-07,0.1391154042403362,-7.250477371822939e-07,-0.22794771147421378
728,0.6903,464.22,464.621,0.212639,464.243,-0.0115,0.0206929,0.1304,0.130398,-0.258994,0.789016,8.03919e-08,-2.03948e-07,0.520951,0.13928400579637112,1.2012293505486058,8.039190313446909e-08,0.13928172723063792,-2.0394797917155927e-07,-0.2281723460042654
729,0.6913,463.925,464.436,-0.17892,464.325,0.0109511,-0.0178151,0.130545,0.130545,-0.259288,0.789907,3.6026e-07,-7.39314e-07,0.521543,0.1394492139545136,1.2031915199165875,3.6026006489109363e-07,0.1394492139545136,-7.393137266831218e-07,-0.2283992299809614
730,0.6923,464.433,464.83,0.228416,464.441,-0.0123504,0.0221565,0.130693,0.130692,-0.25958,0.790795,6.82984e-08,-1.75852e-07,0.522133,0.13961786491804218,1.2051488229001799,6.829840226707518e-08,0.1396167253007472,-1.7585198452962914e-07,-0.22862450451412442
731,0.6933,464.105,464.621,-0.195125,464.521,0.0119411,-0.0194476,0.130838,0.130838,-0.259874,0.791684,3.71224e-07,-7.54673e-07,0.522724,0.1397831214892673,1.207110071849728,3.712240688180657e-07,0.1397831214892673,-7.546727152085708e-07,-0.22885125557575792
732,0.6943,464.646,465.039,0.24487,464.639,-0.0132412,0.0236902,0.130986,0.130984,-0.260164,0.792572,5.59515e-08,-1.47058e-07,0.523313,0.13995182187476818,1.20907085605287,5.595150165405016e-08,0.13994954197340448,-1.470579892304258e-07,-0.22907485628797064
733,0.6953,464.284,464.806,-0.211978,464.717,0.0129679,-0.0211342,0.131131,0.131131,-0.260458,0.79346,3.82886e-07,-7.71054e-07,0.523904,0.14011712687326283,1.2110333822056951,3.8288607329128865e-07,0.14011712687326283,-7.710537027749709e-07,-0.22930147496564401
734,0.6963,464.859,465.248,0.261961,464.836,-0.0141703,0.0252887,0.131278,0.131277,-0.260748,0.794346,4.3371e-08,-1.17614e-07,0.524492,0.14028473640991246,1.2129932258648646,4.3371001012815213e-08,0.14028359612574604,-1.1761399310028509e-07,-0.22952494513316346
735,0.6973,464.463,464.989,-0.229433,464.912,0.0140286,-0.022871,0.131423,0.131423,-0.261042,0.795234,3.95203e-07,-7.88377e-07,0.525082,0.14045008968451445,1.2149592366290212,3.9520307804075117e-07,0.14045008968451445,-7.883766892646804e-07,-0.22975143150416644
736,0.6983,465.072,465.456,0.279637,465.032,-0.0151352,0.0269465,0.13157,0.131569,-0.261332,0.796119,3.05834e-08,-8.75774e-08,0.52567,0.14061774817029482,1.2169203432151035,3.058340047878971e-08,0.140616607553117,-8.757739611287008e-08,-0.22997477120320864
737,0.6993,464.64,465.171,-0.247434,465.106,0.0151197,-0.024653,0.131715,0.131715,-0.261625,0.797005,4.08126e-07,-8.06551e-07,0.526259,0.1407831497351033,1.21888540503303,4.081260833732614e-07,0.1407831497351033,-8.065506746923745e-07,-0.2302003555455261
738,0.7003,465.286,465.665,0.29784,465.228,-0.0161328,0.0286569,0.131862,0.131861,-0.261914,0.797889,1.76217e-08,-5.70197e-08,0.526846,0.14095085718430989,1.2208477669672626,1.7621700099113013e-08,0.1409497162340232,-5.701969840732346e-08,-0.23042279549865197
739,0.7013,464.815,465.352,-0.265919,465.3,0.0162374,-0.0264741,0.132006,0.132006,-0.262207,0.798775,4.21601e-07,-8.25474e-07,0.527435,0.1411151659376908,1.2228163100245952,4.2160108892908e-07,0.1411151659376908,-8.254736593160672e-07,-0.23064824858908028
740,0.7023,465.499,465.873,0.316502,465.423,-0.0171593,0.0304128,0.132153,0.132152,-0.262496,0.799657,4.52601e-09,-2.60234e-08,0.528021,0.14128292219686656,1.2247776988553603,4.526010011218773e-09,0.14128178091451482,-2.602339965740441e-08,-0.23087055911981902
741,0.7033,464.99,465.532,-0.284813,465.494,0.0173776,-0.0283276,0.132297,0.132298,-0.262789,0.800542,4.35568e-07,-8.45032e-07,0.528609,0.14144727877105212,1.2267474986266795,4.3556809492528714e-07,0.1414484202189017,-8.450316429930993e-07,-0.23109588103472434
742,0.7043,465.712,466.081,0.335546,465.617,-0.0182104,0.0322062,0.132444,0.132443,-0.263078,0.801424,-8.65736e-09,5.31705e-09,0.529195,0.14161508385440302,1.2287123562953246,-8.657360051067542e-09,0.14161394223988988,5.31704991146853e-09,-0.23131806221837792
743,0.7053,465.164,465.711,-0.304038,465.686,0.0185356,-0.0302059,0.132588,0.132588,-0.26337,0.802307,4.4996e-07,-8.65103e-07,0.529782,0.14177948826331144,1.2306811784129756,4.4996010117870355e-07,0.14177948826331144,-8.651026257577854e-07,-0.23154248457695115
744,0.7063,465.924,466.288,0.354888,465.811,-0.0192813,0.0340287,0.132735,0.132734,-0.263658,0.803188,-2.18758e-08,3.68963e-08,0.530367,0.141947342185047,1.2326472744693033,-2.1875799727233414e-08,0.14194620023827587,3.689630068137717e-08,-0.23176376847498226
745,0.7073,465.338,465.89,-0.323505,465.878,0.0197063,-0.0321005,0.132879,0.132879,-0.26395,0.804071,4.64707e-07,-8.85555e-07,0.530953,0.14211179444260003,1.23461957265416,4.64707107905582e-07,0.14211179444260003,-8.855546078656573e-07,-0.23198806070632805
746,0.7083,466.137,466.495,0.374437,466.005,-0.0203666,0.0358708,0.133025,0.133024,-0.264238,0.80495,-3.50708e-08,6.85989e-08,0.531537,0.14227855493780872,1.2365846667908702,-3.507079937570268e-08,0.14227741265982474,6.859890233634758e-08,-0.23220921629691094
747,0.7093,465.51,466.068,-0.343118,466.07,0.0208843,-0.0340023,0.133169,0.133169,-0.26453,0.805832,4.79734e-07,-9.06245e-07,0.532123,0.14244305489343212,1.2385582046692454,4.79734115099717e-07,0.14244305489343212,-9.062445893714965e-07,-0.23243337847648127
748,0.7103,466.349,466.702,0.394092,466.198,-0.0214609,0.0377227,0.133315,0.133314,-0.264817,0.80671,-4.81794e-08,1.003e-07,0.532707,0.14260986375619722,1.2405245218598746,-4.817939880386035e-08,0.14260872114690493,1.0030000496819014e-07,-0.232653638488035
749,0.7113,465.682,466.245,-0.362777,466.261,0.0220637,-0.0359015,0.133459,0.133459,-0.265109,0.807591,4.94959e-07,-9.27025e-07,0.533292,0.14277441142372593,1.2424992937229105,4.949591225766881e-07,0.14277441142372593,-9.270245703296709e-07,-0.23287767091527034
750,0.7123,466.56,466.908,0.41375,466.39,-0.0225581,0.039574,0.133605,0.133604,-0.265396,0.808468,-6.11373e-08,1.31866e-07,0.533875,0.14294126866807622,1.2444668282412845,-6.113729811296764e-08,0.14294012572737902,1.3186600877901355e-07,-0.2330978034331903
751,0.7133,465.853,466.422,-0.382374,466.451,0.0232382,-0.037788,0.133748,0.133749,-0.265687,0.809348,5.10296e-07,-9.47739e-07,0.53446,0.14310472095605586,1.2464428283626723,5.102961302405618e-07,0.1431058640613483,-9.477385508604996e-07,-0.23332093950451827
752,0.7143,466.771,467.114,0.433301,466.582,-0.023652,0.0414139,0.133895,0.133893,-0.265974,0.810224,-7.3873e-08,1.63157e-07,0.535041,0.14327276970131653,1.2484115744652136,-7.387299727490415e-08,0.1432704831580638,1.6315701323321719e-07,-0.23354094482260712
753,0.7153,466.024,466.598,-0.401798,466.641,0.0244013,-0.039651,0.134037,0.134038,-0.266265,0.811103,5.25655e-07,-9.68227e-07,0.535626,0.14343512596163577,1.25038879710121,5.256551380838914e-07,0.14343626939733345,-9.682265312838112e-07,-0.23376395195855182
754,0.7163,466.98,467.319,0.452629,466.773,-0.0247358,0.0432311,0.134184,0.134182,-0.266551,0.811978,-8.63119e-08,1.94028e-07,0.536207,0.1436032232800024,1.2523587490269543,-8.631189629682012e-08,0.143600936075843,1.9402801876289288e-07,-0.23398306413375702
755,0.7173,466.195,466.774,-0.420933,466.831,0.0255465,-0.0414795,0.134326,0.134327,-0.266842,0.812856,5.40947e-07,-9.88323e-07,0.53679,0.14376562646806157,1.2543371884163963,5.409471464101756e-07,0.14376677023426,-9.883225116080752e-07,-0.23420594263169991
756,0.7183,467.19,467.523,0.471617,466.964,-0.0258027,0.0450142,0.134472,0.134471,-0.267128,0.81373,-9.8377e-08,2.24328e-07,0.53737,0.14393262844037324,1.2563083403870068,-9.837699510573117e-08,0.14393148450831683,2.2432802526672901e-07,-0.23442492841564744
757,0.7193,466.366,466.95,-0.439663,467.02,0.0266668,-0.0432624,0.134615,0.134615,-0.267418,0.814607,5.56077e-07,-1.00786e-06,0.537953,0.14409622250293697,1.2582879907513274,5.560771545454202e-07,0.14409622250293697,-1.0078594920859274e-06,-0.23464691299708684
758,0.7203,467.398,467.726,0.490145,467.154,-0.0268458,0.0467515,0.134761,0.134759,-0.267703,0.81548,-1.0999e-07,2.53905e-07,0.538533,0.14426327274579331,1.260260336971113,-1.0998999400158027e-07,0.14426098422153633,2.5390503233246875e-07,-0.23486500754693307
759,0.7213,466.536,467.125,-0.457868,467.208,0.0277555,-0.0449885,0.134903,0.134903,-0.267994,0.816356,5.70953e-07,-1.02668e-06,0.539115,0.1444257696675315,1.262241192514356,5.709531629705111e-07,0.1444257696675315,-1.026679472992953e-06,-0.23508762943668104
760,0.7223,467.604,467.928,0.508093,467.343,-0.0278581,0.0484313,0.135049,0.135047,-0.268279,0.817227,-1.21072e-07,2.82606e-07,0.539694,0.1445928680277866,1.2642124629566895,-1.210719926536541e-07,0.1445905788443398,2.826060399030439e-07,-0.2353055984002389
761,0.7233,466.707,467.3,-0.475431,467.396,0.0288056,-0.0466465,0.13519,0.135191,-0.268569,0.818103,5.8548e-07,-1.0446e-06,0.540276,0.14475426700053862,1.2661967820791222,5.854801714555435e-07,0.14475541175537798,-1.0445994543806236e-06,-0.2355273276244113
762,0.7243,467.81,468.129,0.525341,467.532,-0.0288326,0.0500421,0.135336,0.135335,-0.268853,0.818973,-1.31546e-07,3.10278e-07,0.540854,0.1449214133249055,1.2681692311704733,-1.3154599132203515e-07,0.1449202684040647,3.1027804814343085e-07,-0.23574440703663035
763,0.7253,466.878,467.476,-0.492234,467.583,0.0298104,-0.0482254,0.135478,0.135479,-0.269143,0.819847,5.99566e-07,-1.06147e-06,0.541435,0.1450840037092418,1.2701524776309734,5.995661798152696e-07,0.14508514879381806,-1.0614694366806177e-06,-0.2359660090247484
764,0.7263,468.014,468.329,0.541772,467.72,-0.0297623,0.0515725,0.135624,0.135622,-0.269427,0.820717,-1.41334e-07,3.36773e-07,0.542013,0.1452511981786826,1.2721283696749222,-1.4133399006688308e-07,0.1452489076785768,3.367730567749305e-07,-0.23618296386913928
765,0.7273,467.049,467.651,-0.508163,467.77,0.0307631,-0.0497146,0.135765,0.135766,-0.269717,0.82159,6.1312e-07,-1.07713e-06,0.542593,0.14541268998253032,1.2741128038211205,6.131201879533421e-07,0.145413835395793,-1.0771294198796966e-06,-0.23640443869421546
766,0.7283,468.217,468.528,0.55727,467.908,-0.0306408,0.0530117,0.135911,0.135909,-0.27,0.822459,-1.50362e-07,3.61944e-07,0.54317,0.1455799324436704,1.27608986675707,-1.5036198874884832e-07,0.14557764128609674,3.619440656077444e-07,-0.23662050566314685
767,0.7293,467.221,467.827,-0.523109,467.956,0.0316574,-0.051104,0.136052,0.136053,-0.27029,0.823331,6.26054e-07,-1.09143e-06,0.54375,0.14574147060231746,1.278075482723624,6.260541960401156e-07,0.14574261634436092,-1.0914294044095385e-06,-0.2368418536194995
768,0.7303,468.419,468.726,0.571727,468.095,-0.0314615,0.0543491,0.136197,0.136196,-0.270573,0.824198,-1.58559e-07,3.85654e-07,0.544326,0.14590761516074435,1.280051430616782,-1.5855898738426077e-07,0.145906469253702,3.8565407445290134e-07,-0.23705779681752148
769,0.7313,467.393,468.002,-0.536967,468.142,0.0324872,-0.0523839,0.136338,0.136339,-0.270862,0.82507,6.38285e-07,-1.10423e-06,0.544905,0.14606919952591202,1.282040502573615,6.38285203802269e-07,0.14607034559568444,-1.1042293903695821e-06,-0.2372782552564624
770,0.7323,468.618,468.922,0.58504,468.281,-0.0322184,0.0555749,0.136484,0.136482,-0.271145,0.825936,-1.6586e-07,4.07771e-07,0.54548,0.1462365378444428,1.2840176056108974,-1.6585998618978692e-07,0.1462342453736596,4.0777108312184396e-07,-0.23749407497029495
771,0.7333,467.566,468.178,-0.54964,468.327,0.0332466,-0.0535454,0.136624,0.136625,-0.271434,0.826807,6.49731e-07,-1.1154e-06,0.546059,0.14639702219338324,1.2860078515716769,6.497312110553821e-07,0.14639816859097854,-1.1153993779711158e-06,-0.23771440734306715
772,0.7343,468.816,469.117,0.597112,468.467,-0.032906,0.0566801,0.13677,0.136768,-0.271716,0.827672,-1.72204e-07,4.28176e-07,0.546633,0.1465644083775175,1.2879861038340414,-1.7220398518258406e-07,0.14656211525099394,4.28176091693544e-07,-0.23792934157304557
773,0.7353,467.739,468.355,-0.561038,468.512,0.0339306,-0.0545803,0.13691,0.136911,-0.272005,0.828541,6.60321e-07,-1.12482e-06,0.547212,0.14672493863154612,1.2899752279075076,6.60321217926807e-07,0.146726085357058,-1.1248193674262552e-06,-0.23814954817194478
774,0.7363,468.195,468.703,-0.206001,468.62,0.0128862,-0.0185356,0.137054,0.137054,-0.272289,0.829407,4.40665e-07,-6.89881e-07,0.547787,0.1468900789125238,1.2919592053931352,4.4066509707896273e-07,0.1468900789125238,-6.898807620725478e-07,-0.2383658829792672
775,0.7373,468.472,468.929,-0.023972,468.719,0.0029752,-0.000641907,0.137197,0.137197,-0.272574,0.830273,3.33719e-07,-4.56378e-07,0.548362,0.14705409592074492,1.2939449017474285,3.3371905572288085e-07,0.14705409592074492,-4.563778958077691e-07,-0.2385829177736909
776,0.7383,468.561,469.019,-0.0275424,468.811,0.00304527,-0.0009753,0.13734,0.137339,-0.272859,0.831139,3.40174e-07,-4.62129e-07,0.548937,0.1472181363850753,1.2959323184595717,3.401740578112822e-07,0.14721698916751236,-4.6212889326380235e-07,-0.23879989072201158
777,0.7393,468.717,469.158,0.0356958,468.906,-0.000599804,0.00492215,0.137482,0.137482,-0.273143,0.832004,2.97432e-07,-3.75438e-07,0.549512,0.14738105292724257,1.2979191590997328,2.9743204432719494e-07,0.14738105292724257,-3.754379295228816e-07,-0.23901604085827444
778,0.7403,468.764,469.218,-0.00819984,468.996,0.00180764,0.000570622,0.137625,0.137624,-0.273428,0.832868,3.28523e-07,-4.30715e-07,0.550086,0.14754514014976805,1.2999054191939945,3.285230538718764e-07,0.14754399260520157,-4.3071490729573725e-07,-0.23923289038410456
779,0.7413,468.906,469.348,0.0425476,469.09,-0.00118317,0.0052513,0.137767,0.137767,-0.273712,0.833732,2.9206e-07,-3.59426e-07,0.55066,0.14770810312976712,1.3018933961585586,2.9206004259485496e-07,0.14770810312976712,-3.5942593545890134e-07,-0.23944891756592368
780,0.7423,468.948,469.404,-0.00639328,469.179,0.00155162,0.000429976,0.137909,0.137909,-0.273997,0.834596,3.26471e-07,-4.21112e-07,0.551234,0.14787108925215242,1.3038830914774424,3.264710533024129e-07,0.14787108925215242,-4.2111191134175385e-07,-0.23966564373947064
781,0.7433,469.089,469.533,0.0434935,469.273,-0.00138448,0.00505314,0.138052,0.138051,-0.27428,0.835459,2.90248e-07,-3.50995e-07,0.551808,0.14803524655488287,1.3058722007625914,2.902480420452491e-07,0.1480340985202102,-3.509949384472577e-07,-0.2398807879179553
782,0.7443,469.13,469.588,-0.00647219,469.362,0.00143675,0.000162622,0.138194,0.138193,-0.274565,0.836322,3.25455e-07,-4.14102e-07,0.552381,0.14819827913493278,1.3078630273899807,3.254550529074862e-07,0.14819713093722786,-4.1410191431445753e-07,-0.2400973910259896
783,0.7453,469.271,469.717,0.043728,469.455,-0.00150149,0.00483591,0.138336,0.138335,-0.274848,0.837184,2.89002e-07,-3.43764e-07,0.552953,0.148361334867253,1.3098532629878976,2.890020418533368e-07,0.1483601865064923,-3.437639408687687e-07,-0.24031241303727957
784,0.7463,469.311,469.771,-0.00670219,469.545,0.00136657,-7.2521e-05,0.138478,0.138477,-0.275132,0.838046,3.24625e-07,-4.07559e-07,0.553526,0.14852441375513115,1.3118452149085282,3.246250526167671e-07,0.14852326523129156,-4.0755891694832513e-07,-0.24052813367819603
785,0.7473,469.453,469.9,0.0438263,469.638,-0.0015761,0.00464683,0.13862,0.138619,-0.275415,0.838907,2.87998e-07,-3.36993e-07,0.554098,0.14868751580185569,1.3138365707942539,2.879980414149941e-07,0.14868636711491412,-3.36992943217318e-07,-0.2407430338065627
786,0.7483,469.492,469.953,-0.00689069,469.726,0.00132343,-0.000266165,0.138761,0.138761,-0.275699,0.839767,3.23909e-07,-4.01222e-07,0.55467,0.1488494921606487,1.3158273261472422,3.2390905246870716e-07,0.1488494921606487,-4.012219194660105e-07,-0.24095863216854518
787,0.7493,469.634,470.082,0.0438513,469.819,-0.00162003,0.00448412,0.138903,0.138903,-0.275982,0.840627,2.87206e-07,-3.30571e-07,0.555241,0.1490126403717842,1.3178197942862262,2.87206041171828e-07,0.1490126403717842,-3.305709453949035e-07,-0.2411734104830765
788,0.7503,469.673,470.135,-0.00701581,469.908,0.0012995,-0.000423707,0.139045,0.139044,-0.276265,0.841487,3.23305e-07,-3.95036e-07,0.555813,0.14917581175161088,1.3198139766848356,3.233050522855052e-07,0.14917466257637368,-3.950359219739852e-07,-0.2413881280239446
789,0.7513,469.815,470.263,0.0438096,470.0,-0.00163999,0.00434192,0.139186,0.139186,-0.276547,0.842346,2.86623e-07,-3.24461e-07,0.556384,0.1493378569649868,1.3218075530092541,2.8662304107918146e-07,0.1493378569649868,-3.244609473318505e-07,-0.2416020264107519
790,0.7523,469.853,470.316,-0.00707495,470.089,0.0012892,-0.000550839,0.139328,0.139328,-0.27683,0.843205,3.22816e-07,-3.88975e-07,0.556954,0.14950107452884875,1.3238028425514567,3.228160521118184e-07,0.14950107452884875,-3.889749243812801e-07,-0.24181662267047466
791,0.7533,469.995,470.444,0.0437021,470.181,-0.00164096,0.0042151,0.139469,0.139469,-0.277113,0.844063,2.86252e-07,-3.18641e-07,0.557524,0.1496631656075098,1.3257975209850463,2.8625204095966694e-07,0.1496631656075098,-3.186409491817699e-07,-0.24203115820804855
792,0.7543,470.034,470.497,-0.00706804,470.269,0.00128822,-0.000652274,0.139611,0.13961,-0.277395,0.844921,3.22443e-07,-3.83018e-07,0.558094,0.1498264293684788,1.3277939115871473,3.2244305203654733e-07,0.14982527954262426,-3.830179265973399e-07,-0.24224487528590954
793,0.7553,470.175,470.625,0.0435292,470.361,-0.00162681,0.00409956,0.139752,0.139752,-0.277677,0.845778,2.86089e-07,-3.13092e-07,0.558664,0.14998856632540658,1.3297896860365794,2.8608904090177134e-07,0.14998856632540658,-3.1309195103190746e-07,-0.24245853210405166
794,0.7563,470.213,470.677,-0.00699575,470.449,0.00129319,-0.000731829,0.139893,0.139893,-0.277959,0.846635,3.22183e-07,-3.77152e-07,0.559233,0.15015072614525704,1.3317871715978216,3.2218305179299023e-07,0.15015072614525704,-3.771519289097469e-07,-0.24267212867946575
795,0.7573,470.354,470.804,0.043292,470.541,-0.0016006,0.00399207,0.140034,0.140034,-0.278241,0.847491,2.86131e-07,-3.07796e-07,0.559802,0.15031290883125425,1.3337840359527218,2.861310408608375e-07,0.15031290883125425,-3.0779595261432036e-07,-0.24288566502913767
796,0.7583,470.392,470.857,-0.00685929,470.628,0.00130154,-0.000792607,0.140175,0.140175,-0.278523,0.848347,3.22033e-07,-3.71363e-07,0.560371,0.1504751143866223,1.3357826103553059,3.2203305178057917e-07,0.1504751143866223,-3.713629310730937e-07,-0.24309914117004894
797,0.7593,470.532,470.983,0.0429919,470.72,-0.00156476,0.00389016,0.140316,0.140316,-0.278804,0.849202,2.86372e-07,-3.02739e-07,0.560939,0.15063734281458618,1.3377805584882743,2.863720409695958e-07,0.15063734281458618,-3.0273895412769036e-07,-0.24331180043135459
798,0.7603,470.571,471.036,-0.00666033,470.807,0.0013113,-0.00083715,0.140457,0.140457,-0.279086,0.850057,3.2199e-07,-3.65642e-07,0.561507,0.1507995941183713,1.3397802155973793,3.219900517326124e-07,0.1507995941183713,-3.6564193317545346e-07,-0.24352515641902472
799,0.7613,470.71,471.162,0.0426308,470.898,-0.00152121,0.00379191,0.140598,0.140597,-0.279367,0.850911,2.86804e-07,-2.97907e-07,0.562074,0.15096186830120284,1.3417792413640082,2.868040411829753e-07,0.15096071733991012,-2.9790695565967695e-07,-0.24373769598686312
800,0.7623,470.75,471.215,-0.006401,470.985,0.001321,-0.00086756,0.140738,0.140738,-0.279648,0.851765,3.22048e-07,-3.59983e-07,0.562642,0.1511230142427178,1.3437799750278105,3.220480517818203e-07,0.1511230142427178,-3.599829352385342e-07,-0.24395017583947343
801,0.7633,470.888,471.34,0.0422111,471.076,-0.00147148,0.00369588,0.140879,0.140879,-0.279928,0.852618,2.87421e-07,-2.93286e-07,0.563209,0.15128533403100208,1.3457800722667073,2.874210414116618e-07,0.15128533403100208,-2.932859569648727e-07,-0.2441618401558513
802,0.7643,470.928,471.393,-0.00608387,471.163,0.00132955,-0.000885598,0.141019,0.141019,-0.280209,0.853471,3.22204e-07,-3.5438e-07,0.563775,0.15144652526088942,1.3477818763164007,3.222040518835456e-07,0.15144652526088942,-3.5437993717302163e-07,-0.24437420084069383
803,0.7653,471.065,471.517,0.0417356,471.254,-0.00141682,0.00360103,0.14116,0.14116,-0.28049,0.854324,2.88213e-07,-2.88865e-07,0.564342,0.15160889066744332,1.3497853886334203,2.8821304143278326e-07,0.15160889066744332,-2.888649582866165e-07,-0.2445865018605674
804,0.7663,471.105,471.571,-0.00571191,471.341,0.00133619,-0.000892756,0.1413,0.1413,-0.28077,0.855176,3.22453e-07,-3.48829e-07,0.564908,0.15177012719843064,1.3517882588861063,3.2245305203737473e-07,0.15177012719843064,-3.4882893917842495e-07,-0.24479798803060093
805,0.7673,471.241,471.694,0.0412074,471.431,-0.00135822,0.00350659,0.141441,0.14144,-0.28105,0.856027,2.89172e-07,-2.84631e-07,0.565473,0.15193253823607455,1.3537904825197402,2.8917204186740264e-07,0.1519313863041123,-2.8463095946840156e-07,-0.24500941499279638
806,0.7683,471.283,471.748,-0.00528842,471.518,0.00134039,-0.000890319,0.141581,0.141581,-0.281331,0.856878,3.22791e-07,-3.43328e-07,0.566039,0.15209382008089345,1.3557944107708981,3.227910521097499e-07,0.15209382008089345,-3.43327941076943e-07,-0.24522153754256926
807,0.7693,471.417,471.871,0.0406299,471.608,-0.0012965,0.00341205,0.141721,0.141721,-0.28161,0.857728,2.90289e-07,-2.80574e-07,0.566604,0.15225512450675094,1.3577976872919608,2.902890421374593e-07,0.15225512450675094,-2.805739606204227e-07,-0.24543209135997157
808,0.7703,471.459,471.925,-0.00481705,471.694,0.00134184,-0.000879409,0.141861,0.141861,-0.28189,0.858578,3.23214e-07,-3.37875e-07,0.567169,0.15241645151680916,1.3598026673219552,3.23214052189158e-07,0.15241645151680916,-3.3787494291281917e-07,-0.24564334079808925
809,0.7713,471.593,472.046,0.0400071,471.784,-0.00123234,0.00331711,0.142001,0.142001,-0.28217,0.859428,2.91554e-07,-2.76681e-07,0.567733,0.1525778011142298,1.3618093523094794,2.915540424641705e-07,0.1525778011142298,-2.7668096169719547e-07,-0.2458545310946445
810,0.7723,471.636,472.101,-0.00430172,471.87,0.00134035,-0.000861021,0.142141,0.142141,-0.282449,0.860277,3.23718e-07,-3.32471e-07,0.568297,0.15273917330217546,1.3638153798878014,3.237180523640859e-07,0.15273917330217546,-3.324709447749541e-07,-0.24606490833147998
811,0.7733,471.768,472.222,0.039343,471.96,-0.00116631,0.00322161,0.142281,0.14228,-0.282729,0.861125,2.92959e-07,-2.72942e-07,0.568861,0.1529005680838087,1.3658207454847875,2.929590428024653e-07,0.15289941518381722,-2.729419626978924e-07,-0.2462759806056497
812,0.7743,471.812,472.277,-0.00374655,472.046,0.00133588,-0.000836048,0.14242,0.14242,-0.283008,0.861973,3.243e-07,-3.27114e-07,0.569424,0.15306083240088442,1.3678278123530365,3.243000525898765e-07,0.15306083240088442,-3.271139464855466e-07,-0.24648624027447308
813,0.7753,471.942,472.397,0.0386417,472.135,-0.00109889,0.00312551,0.14256,0.14256,-0.283287,0.862821,2.94494e-07,-2.69346e-07,0.569987,0.15322227221794416,1.3698365819358385,2.94494043373561e-07,0.15322227221794416,-2.693459637548301e-07,-0.24669644128903145
814,0.7763,471.987,472.453,-0.00315587,472.221,0.00132849,-0.000805306,0.1427,0.142699,-0.283566,0.863668,3.24957e-07,-3.21807e-07,0.57055,0.15338373463816035,1.3718446838318386,3.249570528218726e-07,0.15338258125500226,-3.218069482002761e-07,-0.24690658366568707
815,0.7773,472.116,472.571,0.0379076,472.309,-0.00103051,0.00302889,0.142839,0.142839,-0.283844,0.864515,2.9615e-07,-2.65881e-07,0.571113,0.1535440661200549,1.3738544873106635,2.961500438214415e-07,0.1535440661200549,-2.6588096468938005e-07,-0.2471159145370887
816,0.7783,472.162,472.628,-0.00253411,472.395,0.00131828,-0.000769543,0.142979,0.142978,-0.284123,0.865361,3.25687e-07,-3.1655e-07,0.571675,0.15370557359457115,1.3758636179493577,3.2568705310431767e-07,0.15370441988957428,-3.1654994991914265e-07,-0.24732593989703278
817,0.7793,472.29,472.745,0.0371453,472.484,-0.000961538,0.00293187,0.143118,0.143118,-0.284401,0.866206,2.97918e-07,-2.62539e-07,0.572237,0.15386594981518975,1.3778720711584986,2.979180444562246e-07,0.15386594981518975,-2.625389655674937e-07,-0.2475351542036054
818,0.7803,472.337,472.802,-0.00188579,472.569,0.00130543,-0.000729455,0.143257,0.143257,-0.284679,0.867052,3.26488e-07,-3.11344e-07,0.572799,0.15402634832965267,1.3798846021112587,3.2648805325941055e-07,0.15402634832965267,-3.113439515090022e-07,-0.24774431035668454
819,0.7813,472.463,472.918,0.0363593,472.657,-0.000892305,0.00283465,0.143396,0.143396,-0.284957,0.867896,2.9979e-07,-2.59307e-07,0.57336,0.15418676914105856,1.3818940725926985,2.9979004501079487e-07,0.15418676914105856,-2.5930696634368644e-07,-0.24795340837243451
820,0.7823,472.511,472.976,-0.00121546,472.743,0.00129015,-0.00068569,0.143535,0.143535,-0.285235,0.868741,3.27357e-07,-3.06193e-07,0.573921,0.15434721225250714,1.3839076236895673,3.273570536865833e-07,0.15434721225250714,-3.0619295310341244e-07,-0.2481624482670154
821,0.7833,472.635,473.091,0.0355541,472.831,-0.000823109,0.00273748,0.143675,0.143674,-0.285513,0.869584,3.01758e-07,-2.56176e-07,0.574481,0.15450883217535294,1.3859181051151963,3.0175804544008145e-07,0.15450767766709816,-2.561759672170538e-07,-0.24837143005658247
822,0.7843,472.685,473.15,-0.000527667,472.916,0.00127269,-0.000638858,0.143813,0.143813,-0.285791,0.870428,3.28293e-07,-3.01098e-07,0.575042,0.15466816538793204,1.3879326700227175,3.2829305385284613e-07,0.15466816538793204,-3.010979546802517e-07,-0.24858035375728682
823,0.7853,472.807,473.263,0.0347343,473.004,-0.000754223,0.00264061,0.143952,0.143952,-0.286068,0.87127,3.03813e-07,-2.53137e-07,0.575602,0.15482867541810963,1.3899441560476538,3.038130460542021e-07,0.15482867541810963,-2.531369679426021e-07,-0.2487884681741186
824,0.7863,472.858,473.323,0.000173124,473.089,0.0012533,-0.000589527,0.144091,0.144091,-0.286345,0.872113,3.29295e-07,-2.96061e-07,0.576162,0.154989207760732,1.3919597284155913,3.2929505411338766e-07,0.154989207760732,-2.960609561952765e-07,-0.24899652495124036
825,0.7873,472.979,473.435,0.0339043,473.176,-0.000685895,0.00254433,0.14423,0.14423,-0.286622,0.872955,3.05949e-07,-2.5018e-07,0.576721,0.1551497624189011,1.3939746066516152,3.059490467638426e-07,0.1551497624189011,-2.5017996874154846e-07,-0.24920452410461613
826,0.7883,473.031,473.496,0.000882539,473.261,0.00123224,-0.000538236,0.144368,0.144368,-0.286899,0.873796,3.30362e-07,-2.91084e-07,0.57728,0.15530918408595684,1.3959887861395677,3.3036205460135193e-07,0.15530918408595684,-2.9108395760424344e-07,-0.24941246565020558
827,0.7893,473.15,473.606,0.0330684,473.348,-0.000618353,0.00244892,0.144507,0.144507,-0.287176,0.874637,3.08157e-07,-2.47295e-07,0.577839,0.15546978322392646,1.3980046602649652,3.0815704743503147e-07,0.15546978322392646,-2.472949693910209e-07,-0.24962034960396362
828,0.7903,473.203,473.668,0.00159635,473.432,0.00120979,-0.000485485,0.144645,0.144645,-0.287453,0.875477,3.31492e-07,-2.8617e-07,0.578397,0.15562924905690068,1.4000198304325657,3.3149205491689315e-07,0.15562924905690068,-2.8616995906283194e-07,-0.24982817598184115
829,0.7913,473.32,473.777,0.0322307,473.519,-0.000551809,0.00235468,0.144784,0.144784,-0.287729,0.876317,3.10431e-07,-2.44475e-07,0.578955,0.15578989268699317,1.4020366940542588,3.1043104820049905e-07,0.15578989268699317,-2.444749701568938e-07,-0.2500351948353542
830,0.7923,473.375,473.84,0.00231049,473.604,0.00118622,-0.000431745,0.144922,0.144922,-0.288006,0.877157,3.32685e-07,-2.81321e-07,0.579513,0.15594940269812163,1.4040552525531425,3.3268505528205594e-07,0.15594940269812163,-2.8132096041577626e-07,-0.2502429063170164
831,0.7933,473.49,473.948,0.0313952,473.69,-0.000486454,0.00226188,0.145061,0.14506,-0.288282,0.877996,3.12764e-07,-2.41711e-07,0.580071,0.15611009083266336,1.4060731012792083,3.1276404888203047e-07,0.15610893472315057,-2.4171097079417336e-07,-0.2504498107207518
832,0.7943,473.547,474.011,0.00302113,473.775,0.0011618,-0.00037745,0.145199,0.145199,-0.288558,0.878835,3.33939e-07,-2.76538e-07,0.580628,0.15626964503418495,1.4080926436907566,3.3393905574108373e-07,0.15626964503418495,-2.76537961751977e-07,-0.2506566580267515
833,0.7953,473.66,474.118,0.0305656,473.861,-0.000422463,0.0021708,0.145337,0.145337,-0.288834,0.879673,3.1515e-07,-2.38995e-07,0.581185,0.15642922125570569,1.4101114710967102,3.1515004961235604e-07,0.15642922125570569,-2.389949714798334e-07,-0.25086344825077256
834,0.7963,473.718,474.182,0.00372621,473.945,0.00113602,-0.000322343,0.145475,0.145475,-0.28911,0.88051,3.35254e-07,-2.71824e-07,0.581741,0.1565888195002645,1.4121295788582975,3.3525405629397653e-07,0.1565888195002645,-2.7182396300506895e-07,-0.2510701814085672
835,0.7973,473.829,474.287,0.0297396,474.031,-0.000360196,0.00208243,0.145613,0.145613,-0.289385,0.881347,3.17601e-07,-2.36326e-07,0.582298,0.15674843977090092,1.4141493764831905,3.1760105034805974e-07,0.15674843977090092,-2.363259721249733e-07,-0.25127610879236684
836,0.7983,473.888,474.353,0.00442364,474.115,0.00111159,-0.000267543,0.145751,0.145751,-0.289661,0.882184,3.36666e-07,-2.67185e-07,0.582854,0.15690808207065476,1.416170865386397,3.366660565884416e-07,0.15690808207065476,-2.6718496426436644e-07,-0.251482728071568
837,0.7993,473.998,474.456,0.028932,474.201,-0.000298787,0.00199553,0.145888,0.145888,-0.289936,0.88302,3.20108e-07,-2.33699e-07,0.583409,0.15706658933539797,1.4181916287912717,3.2010805117721475e-07,0.15706658933539797,-2.336989727291794e-07,-0.2516885420206333
838,0.8003,474.058,474.523,0.00510306,474.284,0.00108567,-0.000213171,0.146026,0.146026,-0.290211,0.883856,3.38118e-07,-2.62616e-07,0.583965,0.15722627554282131,1.4202140822607006,3.3811805710826093e-07,0.15722627554282131,-2.6261596552945576e-07,-0.25189429937864416
839,0.8013,474.166,474.625,0.0281402,474.37,-0.000239825,0.00191143,0.146164,0.146164,-0.290486,0.884692,3.22642e-07,-2.31093e-07,0.58452,0.1573859837884617,1.4222382272081697,3.226420519641948e-07,0.1573859837884617,-2.3109297331291856e-07,-0.2521000001611611
840,0.8023,474.228,474.692,0.00576591,474.453,0.00106,-0.00016001,0.146301,0.146301,-0.290761,0.885527,3.39631e-07,-2.58123e-07,0.585074,0.15754455653022537,1.4242616407854927,3.3963105772194524e-07,0.15754455653022537,-2.581229666676066e-07,-0.25230564438374015
841,0.8033,474.334,474.793,0.0273667,474.539,-0.000182874,0.00182987,0.146439,0.146439,-0.291035,0.886361,3.25205e-07,-2.28509e-07,0.585629,0.15770430870167296,1.4262843183332046,3.2520505288680113e-07,0.15770430870167296,-2.285089738540691e-07,-0.25251048457279157
842,0.8043,474.397,474.861,0.00640988,474.622,0.00103457,-0.000108092,0.146576,0.146576,-0.29131,0.887195,3.412e-07,-2.53703e-07,0.586183,0.15786292505693722,1.42830868349763,3.4120005820703625e-07,0.15786292505693722,-2.537029678562064e-07,-0.25271601592767756
843,0.8053,474.502,474.961,0.0266138,474.707,-0.000127985,0.00175104,0.146714,0.146714,-0.291584,0.888028,3.27795e-07,-2.25943e-07,0.586737,0.15802272116627303,1.4303323073533054,3.277950537672325e-07,0.15802272116627303,-2.2594297444111788e-07,-0.252920743690329
844,0.8063,474.566,475.03,0.00703282,474.79,0.00100953,-5.76074e-05,0.146851,0.146851,-0.291858,0.888861,3.42824e-07,-2.49358e-07,0.58729,0.1581813811470334,1.4323576175899322,3.42824058696678e-07,0.1581813811470334,-2.493579689399894e-07,-0.2531254153652579
845,0.8073,474.669,475.128,0.0258834,474.875,-7.51971e-05,0.00167507,0.146988,0.146988,-0.292132,0.889694,3.30407e-07,-2.23388e-07,0.587843,0.15834006286570013,1.434384615612852,3.3040705460507525e-07,0.15834006286570013,-2.2338797500687235e-07,-0.25333003096783013
846,0.8083,474.734,475.198,0.00763286,474.958,0.00098505,-8.74088e-06,0.147125,0.147125,-0.292406,0.890526,3.44502e-07,-2.45086e-07,0.588396,0.1584987663252515,1.4364108664164914,3.4450205932401445e-07,0.1584987663252515,-2.450859699631991e-07,-0.25353459051340743
847,0.8093,474.836,475.295,0.0251774,475.042,-2.45526e-05,0.00160211,0.147262,0.147262,-0.29268,0.891358,3.33038e-07,-2.20842e-07,0.588949,0.15865749152866626,1.4384388037623035,3.330380553556722e-07,0.15865749152866626,-2.2084197559557595e-07,-0.2537390940173473
848,0.8103,474.902,475.366,0.00820842,475.125,0.000961261,3.83471e-05,0.147399,0.147399,-0.292954,0.892189,3.46233e-07,-2.40888e-07,0.589501,0.15881623847892334,1.4404659885868667,3.462330600001451e-07,0.15881623847892334,-2.40887971014736e-07,-0.253943541495003
849,0.8113,475.002,475.462,0.024497,475.209,2.39147e-05,0.00153224,0.147536,0.147536,-0.293227,0.893019,3.35685e-07,-2.183e-07,0.590053,0.1589750071790026,1.4424924162085229,3.356850564184555e-07,0.1589750071790026,-2.1829997620681496e-07,-0.25414718710928375
850,0.8123,475.069,475.533,0.00875821,475.292,0.000938288,8.35218e-05,0.147673,0.147673,-0.2935,0.89385,3.48017e-07,-2.36763e-07,0.590605,0.15913379763188384,1.4445229709850498,3.480170605030253e-07,0.15913379763188384,-2.3676297200569962e-07,-0.2543507771358997
851,0.8133,475.168,475.628,0.0238435,475.376,7.01826e-05,0.00146554,0.14781,0.14781,-0.293774,0.894679,3.38345e-07,-2.15759e-07,0.591156,0.15929260984054738,1.4465503207483668,3.383450573046787e-07,0.15929260984054738,-2.1575897668490995e-07,-0.2545550570353402
852,0.8143,475.236,475.7,0.00928122,475.458,0.00091623,0.000126674,0.147946,0.147946,-0.294047,0.895509,3.49851e-07,-2.32711e-07,0.591707,0.15945028435710973,1.4485818004620454,3.498510612320871e-07,0.15945028435710973,-2.327109729360899e-07,-0.25475853572866425
853,0.8153,475.333,475.793,0.0232178,475.542,0.000114241,0.00140205,0.148083,0.148083,-0.294319,0.896338,3.41016e-07,-2.13217e-07,0.592258,0.15960913992742465,1.4506125163900814,3.4101605805858526e-07,0.15960913992742465,-2.1321697729614897e-07,-0.2549612138414731
854,0.8163,475.403,475.866,0.00977673,475.624,0.000895169,0.000167721,0.148219,0.148219,-0.294592,0.897166,3.51734e-07,-2.28731e-07,0.592809,0.1597668574950064,1.4526424638359199,3.5173406187638534e-07,0.1597668574950064,-2.2873097382802854e-07,-0.2551645816691228
855,0.8173,475.498,475.959,0.0226203,475.707,0.000156092,0.00134179,0.148356,0.148356,-0.294865,0.897994,3.43696e-07,-2.1067e-07,0.593359,0.15992575643881235,1.4546740927742854,3.4369605916850787e-07,0.15992575643881235,-2.1066997779595198e-07,-0.2553678939849333
856,0.8183,475.569,476.032,0.0102443,475.79,0.000875169,0.000206604,0.148492,0.148492,-0.295137,0.898822,3.53666e-07,-2.2482e-07,0.593909,0.16008351706916768,1.4567074045980304,3.5366606243592e-07,0.16008351706916768,-2.2481997474788074e-07,-0.25557040637483586
857,0.8193,475.663,476.124,0.0220515,475.873,0.00019575,0.00128477,0.148628,0.148628,-0.295409,0.899649,3.46382e-07,-2.08118e-07,0.594458,0.16024129915642793,1.4587399419599896,3.4638205992365556e-07,0.16024129915642793,-2.081179782953413e-07,-0.255772863688859
858,0.8203,475.734,476.197,0.0106836,475.955,0.000856274,0.000243285,0.148765,0.148765,-0.295681,0.900475,3.55645e-07,-2.20979e-07,0.595007,0.160400263103194,1.4607717001526637,3.556450631769792e-07,0.160400263103194,-2.2097897556250246e-07,-0.2559752659419813
859,0.8213,475.827,476.288,0.0215115,476.038,0.000233238,0.00123095,0.148901,0.148901,-0.295953,0.901301,3.49074e-07,-2.05558e-07,0.595556,0.16055808827084417,1.462805137270906,3.4907406099016214e-07,0.16055808827084417,-2.0555797886068206e-07,-0.2561776131491774
860,0.8223,475.899,476.362,0.0110947,476.119,0.000838518,0.00027775,0.149037,0.149037,-0.296225,0.902127,3.57668e-07,-2.17206e-07,0.596105,0.16071593490417668,1.4648402547020813,3.576680640549057e-07,0.16071593490417668,-2.1720597642715944e-07,-0.25637990532541766
861,0.8233,475.991,476.452,0.0210001,476.202,0.000268592,0.00118031,0.149173,0.149173,-0.296497,0.902952,3.51769e-07,-2.02989e-07,0.596653,0.16087380300611143,1.4668745869588817,3.5176906187928125e-07,0.16087380300611143,-2.029889794030737e-07,-0.25658214248566846
862,0.8243,476.064,476.527,0.0114778,476.284,0.000821915,0.000310003,0.149309,0.149309,-0.296768,0.903777,3.59736e-07,-2.13497e-07,0.597201,0.16103169257956784,1.4689105982322932,3.597360647145109e-07,0.16103169257956784,-2.1349697720829397e-07,-0.25678358142884516
863,0.8253,476.155,476.616,0.0205171,476.366,0.000301856,0.00113277,0.149445,0.149445,-0.29704,0.904602,3.54467e-07,-2.00411e-07,0.597749,0.16118960362746648,1.4709482899080757,3.544670628130575e-07,0.16118960362746648,-2.0041097992251622e-07,-0.2569857088041274
864,0.8263,476.228,476.691,0.0118333,476.447,0.000806471,0.000340066,0.14958,0.14958,-0.297311,0.905425,3.61845e-07,-2.09853e-07,0.598297,0.16134637480577263,1.4729827174027528,3.6184506546632633e-07,0.16134637480577263,-2.0985297799480662e-07,-0.2571870383956496
865,0.8273,476.318,476.779,0.020062,476.529,0.000333082,0.00108826,0.149716,0.149716,-0.297582,0.906249,3.57166e-07,-1.97822e-07,0.598844,0.1615043286533644,1.4750212949404928,3.5716606383573435e-07,0.1615043286533644,-1.9782198046325306e-07,-0.25738831343424484
866,0.8283,476.391,476.855,0.0121618,476.611,0.000792178,0.000367976,0.149852,0.149852,-0.297853,0.907072,3.63995e-07,-2.06269e-07,0.599391,0.16166230398414028,1.477059075898072,3.6399506631035194e-07,0.16166230398414028,-2.062689786752614e-07,-0.25758953393469486
867,0.8293,476.481,476.942,0.0196341,476.693,0.000362331,0.0010467,0.149987,0.149987,-0.298124,0.907894,3.59866e-07,-1.95223e-07,0.599937,0.16181913898130218,1.479096055542398,3.5986606472526717e-07,0.16181913898130218,-1.9522298089214019e-07,-0.2577906999117775
868,0.8303,476.555,477.018,0.0124638,476.774,0.00077902,0.000393784,0.150123,0.150123,-0.298394,0.908716,3.66183e-07,-2.02745e-07,0.600483,0.16197715712919414,1.4811347102723573,3.66183066979886e-07,0.16197715712919414,-2.027449794717029e-07,-0.257991069371707
869,0.8313,476.643,477.104,0.0192327,476.855,0.000389668,0.00100799,0.150258,0.150258,-0.298665,0.909538,3.62566e-07,-1.92613e-07,0.601029,0.16213403463440001,1.4831750414654365,3.625660658368446e-07,0.16213403463440001,-1.9261298145334393e-07,-0.2581921265474295
870,0.8323,476.717,477.181,0.0127403,476.936,0.00076697,0.000417555,0.150393,0.150393,-0.298935,0.910359,3.68408e-07,-1.99278e-07,0.601575,0.16229093331949862,1.4852145652844473,3.6840806783011715e-07,0.16229093331949862,-1.9927798011742937e-07,-0.25839238763679806
871,0.8333,476.805,477.267,0.018857,477.018,0.000415164,0.000972026,0.150529,0.150529,-0.299205,0.91118,3.65266e-07,-1.89993e-07,0.60212,0.16244901563578384,1.4872557642400626,3.652660667263774e-07,0.16244901563578384,-1.8999298190269798e-07,-0.25859259466297135
872,0.8343,476.88,477.343,0.0129922,477.098,0.000755995,0.000439359,0.150664,0.150664,-0.299475,0.912,3.70668e-07,-1.95865e-07,0.602666,0.16260595684618795,1.4892961504107398,3.706680686832442e-07,0.16260595684618795,-1.9586498078982828e-07,-0.2587927476405444
873,0.8353,476.966,477.428,0.0185059,477.18,0.000438897,0.000938688,0.150799,0.150799,-0.299745,0.91282,3.67965e-07,-1.87362e-07,0.60321,0.1627629192450859,1.4913382103842423,3.6796506774905424e-07,0.1627629192450859,-1.8736198248436864e-07,-0.2589928465841085
874,0.8363,477.042,477.505,0.0132204,477.26,0.000746056,0.00045928,0.150934,0.150934,-0.300015,0.91364,3.72962e-07,-1.92505e-07,0.603755,0.16291990283533786,1.4933819455336517,3.729620694503666e-07,0.16291990283533786,-1.9250498151102136e-07,-0.25919289150825076
875,0.8373,477.127,477.589,0.0181783,477.341,0.000460943,0.000907857,0.151069,0.151069,-0.300284,0.914458,3.70664e-07,-1.84722e-07,0.604299,0.1630769076198051,1.4954223663834512,3.706640687717311e-07,0.1630769076198051,-1.8472198293206787e-07,-0.25939214182006654
876,0.8383,477.203,477.666,0.0134262,477.421,0.000737109,0.000477405,0.151204,0.151204,-0.300554,0.915277,3.75287e-07,-1.89194e-07,0.604843,0.16323393360134908,1.497466954446045,3.7528707053091637e-07,0.16323393360134908,-1.8919398214745087e-07,-0.2595920789490481
877,0.8393,477.288,477.75,0.0178733,477.502,0.000481386,0.00087941,0.151338,0.151339,-0.300823,0.916095,3.73361e-07,-1.82072e-07,0.605386,0.1633898173924324,1.499510718200196,3.7336106961660676e-07,0.16339098078283154,-1.820719833789397e-07,-0.25979122189388393
878,0.8403,477.364,477.828,0.0136104,477.582,0.000729105,0.000493825,0.151473,0.151473,-0.301092,0.916913,3.77642e-07,-1.8593e-07,0.60593,0.16354688561964714,1.5015561544370506,3.7764207139190376e-07,0.16354688561964714,-1.8592998274336026e-07,-0.259990311276472
879,0.8413,477.449,477.911,0.0175896,477.663,0.000500307,0.00085322,0.151608,0.151608,-0.301361,0.91773,3.76057e-07,-1.79413e-07,0.606473,0.163703975052504,1.5036007609232462,3.7605707081667106e-07,0.163703975052504,-1.7941298391388472e-07,-0.26018934711121866
880,0.8423,477.525,477.988,0.0137745,477.743,0.000721994,0.000508638,0.151742,0.151743,-0.30163,0.918547,3.80026e-07,-1.82711e-07,0.607015,0.16385992183336184,1.5056470385355025,3.8002607216647277e-07,0.1638610856938656,-1.8271098334299296e-07,-0.2603883294125263
881,0.8433,477.609,478.071,0.0173261,477.823,0.00051779,0.000829159,0.151877,0.151877,-0.301899,0.919363,3.78751e-07,-1.76747e-07,0.607558,0.16401705352896023,1.5076924809459538,3.787510716168896e-07,0.16401705352896023,-1.7674698438163716e-07,-0.26058725819479356
882,0.8443,477.685,478.148,0.0139194,477.903,0.000715722,0.000521942,0.152011,0.152012,-0.302168,0.920179,3.82435e-07,-1.79534e-07,0.6081,0.16417304226514506,1.5097395931185815,3.824350731651549e-07,0.16417420643876945,-1.7953398390169184e-07,-0.2607861334724151
883,0.8453,477.768,478.231,0.0170815,477.983,0.000533919,0.0008071,0.152146,0.152146,-0.302436,0.920994,3.81445e-07,-1.74073e-07,0.608642,0.164330216234855,1.5117858646293487,3.8144507263915273e-07,0.164330216234855,-1.7407298480431876e-07,-0.2609842162443674
884,0.8463,477.845,478.308,0.0140465,478.063,0.000710235,0.000533835,0.15228,0.15228,-0.302704,0.921809,3.8487e-07,-1.76397e-07,0.609183,0.16448624693765423,1.5138338045311737,3.848700740327615e-07,0.16448624693765423,-1.7639698446370033e-07,-0.2611822459372498
885,0.8473,477.927,478.39,0.0168547,478.142,0.000548776,0.000786916,0.152414,0.152414,-0.302972,0.922624,3.84138e-07,-1.71393e-07,0.609725,0.16464229854996826,1.51588341418435,3.841380737945599e-07,0.16464229854996826,-1.713929853597307e-07,-0.2613802225652856
886,0.8483,478.004,478.468,0.0141569,478.222,0.000705477,0.000544416,0.152548,0.152549,-0.30324,0.923438,3.87327e-07,-1.73298e-07,0.610266,0.16479837107459971,1.517932177016844,3.873270750798241e-07,0.164799535873553,-1.7329798496223958e-07,-0.26157814614269403
887,0.8493,478.086,478.549,0.0166445,478.301,0.000562442,0.000768483,0.152682,0.152683,-0.303508,0.924251,3.86829e-07,-1.68708e-07,0.610806,0.16495446451435058,1.5199800882398704,3.868290747721659e-07,0.16495562946939746,-1.687079858037066e-07,-0.261776016683691
888,0.8503,478.163,478.627,0.0142517,478.381,0.000701394,0.000553782,0.152816,0.152817,-0.303776,0.925064,3.89807e-07,-1.70234e-07,0.611347,0.16511057887202374,1.5220296650917073,3.8980707595115405e-07,0.1651117439831853,-1.7023398546367474e-07,-0.2619738342024882
889,0.8513,478.245,478.708,0.0164498,478.46,0.000574996,0.000751679,0.15295,0.152951,-0.304043,0.925877,3.8952e-07,-1.66018e-07,0.611887,0.1652667141504227,1.5240809089270617,3.895200759718165e-07,0.1652678794177196,-1.6601798624726882e-07,-0.26217086088452357
890,0.8523,478.322,478.785,0.0143322,478.539,0.000697933,0.000562029,0.153084,0.153084,-0.304311,0.92669,3.92306e-07,-1.67204e-07,0.612427,0.16542287035235081,1.5261338211017428,3.923060769572828e-07,0.16542287035235081,-1.6720398599012753e-07,-0.2623685725992534
891,0.8533,478.403,478.866,0.0162694,478.618,0.000586515,0.000736387,0.153218,0.153218,-0.304578,0.927501,3.9221e-07,-1.63324e-07,0.612966,0.1655790474806118,1.5281833466009114,3.922100768605219e-07,0.1655790474806118,-1.6332398666829562e-07,-0.2625654939002059
892,0.8543,478.48,478.943,0.0143993,478.697,0.00069504,0.000569249,0.153352,0.153352,-0.304845,0.928313,3.94825e-07,-1.64204e-07,0.613505,0.16573524553801033,1.5302370651752506,3.948250779650664e-07,0.16573524553801033,-1.6420398651906254e-07,-0.2627623626301895
893,0.8553,478.56,479.024,0.0161022,478.776,0.000597075,0.000722494,0.153485,0.153486,-0.305112,0.929124,3.949e-07,-1.60626e-07,0.614044,0.16589029863646942,1.5322899197551223,3.949000779712719e-07,0.16589146452735104,-1.60625987066787e-07,-0.26295917880323894
894,0.8563,478.637,479.101,0.0144542,478.855,0.000692665,0.000575531,0.153619,0.153619,-0.305379,0.929934,3.9736e-07,-1.61234e-07,0.614583,0.16604653840431727,1.5343419055321714,3.9736007884094704e-07,0.16604653840431727,-1.6123398705047975e-07,-0.2631559424333849
895,0.8573,478.718,479.181,0.0159472,478.934,0.000606745,0.000709891,0.153752,0.153753,-0.305646,0.930745,3.9759e-07,-1.57927e-07,0.615121,0.1662016329074809,1.5363980904878578,3.9759007908202193e-07,0.16620279910969704,-1.5792698748740008e-07,-0.26335265353465453
896,0.8583,478.795,479.258,0.0144979,479.012,0.000690758,0.000580961,0.153886,0.153886,-0.305912,0.931554,3.99912e-07,-1.58291e-07,0.615659,0.1663579143969165,1.538450866779114,3.9991207989586997e-07,0.1663579143969165,-1.5829098742869974e-07,-0.2635485756700151
897,0.8593,478.875,479.338,0.0158033,479.091,0.000615595,0.000698474,0.154019,0.154019,-0.306179,0.932363,4.00279e-07,-1.55226e-07,0.616197,0.16651305031584118,1.5405053044383221,4.0027908010387137e-07,0.16651305031584118,-1.5522598795225662e-07,-0.26374518195220453
898,0.8603,478.952,479.415,0.0145314,479.169,0.000689272,0.00058562,0.154152,0.154153,-0.306445,0.933172,4.02479e-07,-1.55373e-07,0.616734,0.16666820686921535,1.542561404810073,4.02479080952034e-07,0.1666693735380056,-1.5537298792001053e-07,-0.26394099968889173
899,0.8613,479.031,479.495,0.0156697,479.248,0.000623688,0.000688146,0.154286,0.154286,-0.306711,0.933981,4.02968e-07,-1.52524e-07,0.617272,0.16682455088375092,1.5446191692400455,4.029680811257208e-07,0.16682455088375092,-1.5252398832821257e-07,-0.26413676534498787
900,0.8623,479.108,479.572,0.0145556,479.326,0.000688163,0.000589584,0.154419,0.154419,-0.306977,0.934789,4.05059e-07,-1.52479e-07,0.617808,0.16697974886945555,1.546676052397682,4.0505908205368257e-07,0.16697974886945555,-1.5247898832448925e-07,-0.26433247893434475
901,0.8633,479.187,479.651,0.0155454,479.404,0.000631086,0.000678814,0.154552,0.154552,-0.307243,0.935596,4.05658e-07,-1.49822e-07,0.618345,0.16713496749786527,1.5487320494551993,4.056580822364708e-07,0.16713496749786527,-1.4982198881519082e-07,-0.2645281404708102
902,0.8643,479.264,479.728,0.0145714,479.482,0.00068739,0.000592925,0.154685,0.154685,-0.307509,0.936403,4.07652e-07,-1.49607e-07,0.618881,0.16729020677172524,1.5507897063720049,4.076520832008157e-07,0.16729020677172524,-1.4960698879740164e-07,-0.26472374996822834
903,0.8653,479.343,479.807,0.0154296,479.56,0.000637847,0.000670392,0.154818,0.154818,-0.307774,0.93721,4.08347e-07,-1.4712e-07,0.619417,0.1674454666937819,1.5528490244881463,4.0834708348036486e-07,0.1674454666937819,-1.4711998919114677e-07,-0.2649185723593799
904,0.8663,479.42,479.884,0.0145796,479.638,0.000686913,0.000595711,0.154951,0.154951,-0.30804,0.938016,4.10257e-07,-1.46755e-07,0.619953,0.1676007472667813,1.5549074502360245,4.102570840824882e-07,0.1676007472667813,-1.4675498927196884e-07,-0.2651140780157272
905,0.8673,479.499,479.962,0.0153214,479.715,0.000644024,0.000662797,0.155083,0.155084,-0.308305,0.938822,4.11037e-07,-1.4442e-07,0.620489,0.16775488073800582,1.556967535743849,4.1103708436907027e-07,0.1677560484934706,-1.4441998952285928e-07,-0.2653087969836503
906,0.8683,479.575,480.039,0.0145809,479.793,0.000686696,0.000598004,0.155216,0.155216,-0.30857,0.939627,4.12872e-07,-1.43923e-07,0.621024,0.16791020246581012,1.5590267233219222,4.1287208518703267e-07,0.16791020246581012,-1.4392298963716854e-07,-0.2655034643578833
907,0.8693,479.654,480.117,0.0152202,479.871,0.000649667,0.000655955,0.155349,0.155349,-0.308835,0.940432,4.13728e-07,-1.4172e-07,0.621559,0.1680655448527777,1.5610875692133779,4.1372808556872087e-07,0.1680655448527777,-1.417199899655941e-07,-0.26569808015209684
908,0.8703,479.73,480.194,0.0145761,479.948,0.000686706,0.000599861,0.155481,0.155482,-0.3091,0.941237,4.15497e-07,-1.41108e-07,0.622093,0.1682197396813332,1.563150074753695,4.1549708629240456e-07,0.16822090790165678,-1.411079900703882e-07,-0.26589264437995774
909,0.8713,479.808,480.272,0.0151253,480.025,0.000654824,0.000649796,0.155614,0.155614,-0.309364,0.942041,4.16419e-07,-1.39023e-07,0.622628,0.16837512323948833,1.5652116760664705,4.1641908676837147e-07,0.16837512323948833,-1.3902299034196375e-07,-0.2660864231419193
910,0.8723,479.885,480.349,0.0145658,480.103,0.00068691,0.000601337,0.155746,0.155747,-0.309629,0.942844,4.1813e-07,-1.3831e-07,0.623162,0.1685293589350878,1.567272368299554,4.181300874428473e-07,0.16853052746503105,-1.3830999046060555e-07,-0.2662808844725225
911,0.8733,479.963,480.426,0.0150359,480.18,0.000659538,0.000644254,0.155879,0.155879,-0.309893,0.943648,4.19111e-07,-1.36328e-07,0.623695,0.16868478367534223,1.5693372852690555,4.1911108783487805e-07,0.16868478367534223,-1.3632799067408996e-07,-0.2664745607526279
912,0.8743,480.039,480.503,0.0145506,480.257,0.000687282,0.000602479,0.156011,0.156011,-0.310158,0.94445,4.20771e-07,-1.35528e-07,0.624229,0.16883906024881723,1.571398720296794,4.207710884163163e-07,0.16883906024881723,-1.3552799082994227e-07,-0.2666689192403914
913,0.8753,480.116,480.58,0.0149516,480.334,0.000663849,0.000639269,0.156143,0.156143,-0.310422,0.945253,4.21804e-07,-1.33636e-07,0.624762,0.16899335718814412,1.5734643827216592,4.218040889902852e-07,0.16899335718814412,-1.3363599105087332e-07,-0.26686249309283916
914,0.8763,480.193,480.657,0.0145312,480.411,0.000687795,0.000603331,0.156275,0.156276,-0.310686,0.946055,4.2342e-07,-1.3276e-07,0.625295,0.1691476744960112,1.5755291290091922,4.234200896569007e-07,0.1691488436442703,-1.3275999122264182e-07,-0.2670560158485349
915,0.8773,480.27,480.734,0.0148718,480.487,0.000667794,0.000634788,0.156407,0.156408,-0.31095,0.946856,4.24497e-07,-1.30947e-07,0.625827,0.16930201217510743,1.577592954293209,4.2449709014569237e-07,0.16930318147770418,-1.309469914723138e-07,-0.26724948752096644
916,0.8783,480.346,480.811,0.0145079,480.564,0.000688426,0.000603934,0.156539,0.15654,-0.311213,0.947657,4.26075e-07,-1.30005e-07,0.62636,0.169456370228122,1.579658433363531,4.260750907647548e-07,0.16945753968507682,-1.300049915498036e-07,-0.2674421755661598
917,0.8793,480.423,480.887,0.0147961,480.641,0.000671408,0.000630761,0.156671,0.156672,-0.311477,0.948458,4.27191e-07,-1.28262e-07,0.626892,0.16961074865774428,1.581725567545372,4.271910911679555e-07,0.16961191826907762,-1.2826199180526743e-07,-0.26763554530588163
918,0.8803,480.499,480.964,0.0144812,480.717,0.000689155,0.000604325,0.156803,0.156803,-0.31174,0.949258,4.28736e-07,-1.27263e-07,0.627424,0.16976514746666416,1.5837917743719414,4.287360919619232e-07,0.16976514746666416,-1.2726299192244994e-07,-0.267828131831228
919,0.8813,480.576,481.04,0.0147239,480.794,0.00067472,0.00062714,0.156935,0.156935,-0.312004,0.950058,4.29886e-07,-1.2558e-07,0.627955,0.16991956665757213,1.5858596348253342,4.2988609250116383e-07,0.16991956665757213,-1.2557999207185588e-07,-0.2680213996919445
920,0.8823,480.652,481.116,0.0144516,480.87,0.000689962,0.000604534,0.157067,0.157067,-0.312267,0.950857,4.31402e-07,-1.24532e-07,0.628486,0.17007400623315871,1.5879265623011256,4.314020931595053e-07,0.17007400623315871,-1.2453199227380196e-07,-0.26821388475093066
921,0.8833,480.728,481.193,0.0146549,480.946,0.000677759,0.000623886,0.157198,0.157199,-0.31253,0.951656,4.32582e-07,-1.22902e-07,0.629017,0.17022729596823383,1.5899951419119098,4.3258209347918353e-07,0.17022846619611487,-1.2290199247200206e-07,-0.26840631919300284
922,0.8843,480.804,481.269,0.0144195,481.022,0.000690831,0.000604592,0.15733,0.15733,-0.312793,0.952455,4.34073e-07,-1.21812e-07,0.629548,0.1703817761667703,1.5920653749782714,4.3407309413545647e-07,0.1703817761667703,-1.2181199260385966e-07,-0.2685987030314714
923,0.8853,480.881,481.345,0.0145887,481.098,0.000680551,0.000620961,0.157461,0.157462,-0.313055,0.953253,4.35278e-07,-1.20228e-07,0.630078,0.17053510622234747,1.5941346686858822,4.3527809467924783e-07,0.17053627675803895,-1.2022799278366136e-07,-0.2687903050703141
924,0.8863,480.956,481.421,0.0143851,481.174,0.000691748,0.000604524,0.157593,0.157593,-0.313318,0.95405,4.36748e-07,-1.19103e-07,0.630608,0.1706896270545195,1.5962030181445974,4.3674809546701e-07,0.1706896270545195,-1.1910299291262305e-07,-0.2689825879337757
925,0.8873,481.032,481.497,0.014525,481.25,0.00068312,0.000618331,0.157724,0.157725,-0.313581,0.954848,4.37975e-07,-1.17558e-07,0.631138,0.17084299744120468,1.5982756150092396,4.379750959682127e-07,0.17084416828478743,-1.1755799311785609e-07,-0.2691748202334937
926,0.8883,481.108,481.572,0.0143488,481.326,0.000692698,0.000604353,0.157855,0.157856,-0.313843,0.955644,4.39427e-07,-1.16402e-07,0.631668,0.17099638792072636,1.600344665771742,4.39427096488032e-07,0.17099755891769974,-1.1640199326645728e-07,-0.26936627134940117
927,0.8893,481.184,481.648,0.0144636,481.402,0.000685486,0.000615965,0.157987,0.157987,-0.314105,0.956441,4.40673e-07,-1.14893e-07,0.632197,0.17115096964610133,1.602417966570982,4.406730971240336e-07,0.17115096964610133,-1.1489299345246451e-07,-0.2695576723116867
928,0.8903,481.259,481.724,0.0143109,481.477,0.000693672,0.000604099,0.158118,0.158118,-0.314367,0.957237,4.42109e-07,-1.13711e-07,0.632726,0.17130440047262474,1.6044903159580057,4.421090977757558e-07,0.17130440047262474,-1.1371099351009661e-07,-0.2697490231334888
929,0.8913,481.335,481.799,0.0144041,481.553,0.000687668,0.000613835,0.158249,0.158249,-0.314629,0.958032,4.43371e-07,-1.12231e-07,0.633254,0.171457851399903,1.6065617090288402,4.4337109827985444e-07,0.171457851399903,-1.1223099372070777e-07,-0.26994032382794253
930,0.8923,481.41,481.875,0.0142715,481.628,0.000694659,0.00060378,0.15838,0.15838,-0.314891,0.958827,4.44794e-07,-1.11029e-07,0.633783,0.1716113224305693,1.6086347495119258,4.447940988860921e-07,0.1716113224305693,-1.1102899388770737e-07,-0.2701315744081795
931,0.8933,481.485,481.95,0.0143463,481.703,0.000689685,0.000611918,0.158511,0.158511,-0.315152,0.959622,4.4607e-07,-1.09575e-07,0.634311,0.1717648135672578,1.6107094387174756,4.460700995245759e-07,0.1717648135672578,-1.0957499396724302e-07,-0.2703220452097381
932,0.8943,481.56,482.025,0.014231,481.779,0.000695651,0.00060341,0.158642,0.158642,-0.315414,0.960416,4.47482e-07,-1.08354e-07,0.634839,0.17191832481260216,1.612783165172274,4.4748210004108557e-07,0.17191832481260216,-1.0835399411046609e-07,-0.27051319579207345
933,0.8953,481.635,482.1,0.0142901,481.854,0.000691551,0.000610191,0.158773,0.158773,-0.315675,0.96121,4.4877e-07,-1.06922e-07,0.635366,0.1720718561692367,1.6148585388197265,4.487701006361533e-07,0.1720718561692367,-1.069219942584354e-07,-0.270703567003448
934,0.8963,481.71,482.175,0.0141894,481.929,0.00069664,0.000603003,0.158903,0.158904,-0.315936,0.962004,4.50171e-07,-1.05687e-07,0.635894,0.17222423541497522,1.6169355609682228,4.501711012849796e-07,0.17222540763979666,-1.0568699437829565e-07,-0.27089388853441987
935,0.8973,481.785,482.25,0.0142352,482.004,0.000693281,0.000608634,0.159034,0.159035,-0.316198,0.962797,4.5147e-07,-1.04274e-07,0.636421,0.17237780684852377,1.6190116139142705,4.5147010196977533e-07,0.1723789792269168,-1.0427399455004149e-07,-0.2710848893134292
936,0.8983,481.86,482.325,0.014147,482.079,0.000697621,0.000602571,0.159165,0.159165,-0.316458,0.963589,4.52863e-07,-1.03026e-07,0.636947,0.17253139840124798,1.621086692735235,4.528631025735308e-07,0.17253139840124798,-1.030259947354395e-07,-0.2712743826070121
937,0.8993,481.935,482.4,0.0141814,482.153,0.000694887,0.000607231,0.159295,0.159296,-0.316719,0.964382,4.5417e-07,-1.01631e-07,0.637474,0.17268383739135995,1.623166038834336,4.5417010308135275e-07,0.17268501007578352,-1.0163099484206128e-07,-0.27146455517455204
938,0.9003,482.01,482.474,0.0141039,482.228,0.000698589,0.000602122,0.159426,0.159426,-0.31698,0.965173,4.55556e-07,-1.00373e-07,0.638,0.17283746903671116,1.6252417840200453,4.5555610372893796e-07,0.17283746903671116,-1.0037299491560958e-07,-0.2716546781135286
939,0.9013,482.084,482.549,0.0141288,482.303,0.00069638,0.000605964,0.159556,0.159557,-0.31724,0.965965,4.5687e-07,-9.8992e-08,0.638526,0.17298994781859212,1.6273217990902307,4.568701044149748e-07,0.17299112080912638,-9.89919950455942e-08,-0.27184402328128066
940,0.9023,482.159,482.624,0.0140602,482.377,0.00069954,0.000601665,0.159686,0.159687,-0.317501,0.966756,4.5825e-07,-9.77258e-08,0.639051,0.173142446424003,1.6294008327827352,4.582501049732457e-07,0.17314361956703594,-9.772579523392722e-08,-0.2720340471920052
941,0.9033,482.233,482.698,0.0140771,482.452,0.000697771,0.000604821,0.159817,0.159817,-0.317761,0.967546,4.5957e-07,-9.63575e-08,0.639577,0.17329613815107292,1.6314788801612723,4.595701055265522e-07,0.17329613815107292,-9.635749531611282e-08,-0.27222329373661835
942,0.9043,482.307,482.772,0.0140161,482.526,0.000700469,0.000601208,0.159947,0.159947,-0.318021,0.968336,4.60946e-07,-9.50848e-08,0.640102,0.17344867656381457,1.6335585698458641,4.6094610617331e-07,0.17344867656381457,-9.508479548170357e-08,-0.27241249108352594
943,0.9053,482.381,482.847,0.0140262,482.6,0.000699068,0.000603789,0.160077,0.160078,-0.318281,0.969126,4.62271e-07,-9.37274e-08,0.640627,0.17360123480783884,1.6356399031344449,4.622711069490748e-07,0.17360240840966057,-9.372739562252264e-08,-0.2726016392455176
944,0.9063,482.456,482.921,0.0139716,482.674,0.000701375,0.000600755,0.160207,0.160208,-0.318541,0.969915,4.63642e-07,-9.24495e-08,0.641151,0.1737538128857241,1.6377202436044116,4.636421073733743e-07,0.1737549866401238,-9.244949572551064e-08,-0.2727907382353799
945,0.9073,482.53,482.995,0.013976,482.748,0.000700279,0.000602858,0.160337,0.160338,-0.318801,0.970704,4.64972e-07,-9.11016e-08,0.641675,0.17390641080004876,1.639802226110708,4.649721081495528e-07,0.1739075847070466,-9.110159582270683e-08,-0.27297978806589573
946,0.9083,482.604,483.069,0.0139268,482.822,0.000702256,0.000600312,0.160467,0.160468,-0.31906,0.971493,4.66339e-07,-8.98197e-08,0.642199,0.17405902855339184,1.6418858519494108,4.663391086623392e-07,0.17406020261300736,-8.981969601418172e-08,-0.27316806191827037
947,0.9093,482.677,483.143,0.0139265,482.896,0.000701413,0.000602016,0.160597,0.160597,-0.31932,0.972281,4.67672e-07,-8.84801e-08,0.642723,0.1742116661483324,1.643968478447821,4.6767210926113023e-07,0.1742116661483324,-8.848009613871e-08,-0.2733570136573811
948,0.9103,482.751,483.216,0.0138818,482.97,0.000703109,0.000599883,0.160727,0.160727,-0.319579,0.973069,4.69036e-07,-8.71952e-08,0.643247,0.17436432358745035,1.6460527467026793,4.6903610995130407e-07,0.17436432358745035,-8.719519617450544e-08,-0.27354518982097864
949,0.9113,482.825,483.29,0.0138775,483.044,0.000702474,0.000601257,0.160856,0.160857,-0.319838,0.973856,4.70372e-07,-8.58628e-08,0.64377,0.17451582635691154,1.6481360098708655,4.7037211059475226e-07,0.17451700087332522,-8.586279631739302e-08,-0.2737333172532609
950,0.9123,482.898,483.364,0.0138367,483.117,0.000703933,0.000599469,0.160986,0.160987,-0.320097,0.974643,4.71734e-07,-8.45757e-08,0.644293,0.17466852333942673,1.6502209132124883,4.7173411132916954e-07,0.17466969800853738,-8.457569644626517e-08,-0.2739213959668475
951,0.9133,482.972,483.437,0.0138291,483.191,0.00070347,0.000600571,0.161116,0.161116,-0.320356,0.975429,4.73072e-07,-8.32498e-08,0.644815,0.17482124017384004,1.652304805712741,4.730721119283743e-07,0.17482124017384004,-8.324979650087272e-08,-0.27410942597435506
952,0.9143,483.045,483.511,0.0137915,483.264,0.000704729,0.000599075,0.161245,0.161246,-0.320615,0.976215,4.74431e-07,-8.19612e-08,0.645337,0.17497280188934305,1.6543903367963777,4.744311126181344e-07,0.1749739768627323,-8.19611966074163e-08,-0.2742974072883967
953,0.9153,483.119,483.584,0.0137812,483.338,0.000704405,0.000599953,0.161375,0.161375,-0.320874,0.977001,4.75771e-07,-8.06408e-08,0.64586,0.17512555828253906,1.656477507751831,4.7577111317309573e-07,0.17512555828253906,-8.064079670688784e-08,-0.2744853399215824
954,0.9163,483.192,483.657,0.0137462,483.411,0.000705495,0.000598701,0.161504,0.161505,-0.321132,0.977786,4.77129e-07,-7.93513e-08,0.646381,0.17527715925761012,1.6585636613035573,4.771291137739553e-07,0.17527833453535702,-7.935129686664766e-08,-0.27467249855938025
955,0.9173,483.265,483.731,0.0137337,483.484,0.000705285,0.000599397,0.161633,0.161634,-0.32139,0.97857,4.7847e-07,-7.80359e-08,0.646903,0.17542877979046856,1.6606487924786366,4.784701144178172e-07,0.17542995521983595,-7.80358969665329e-08,-0.274859608916478
956,0.9183,483.338,483.804,0.0137009,483.557,0.000706231,0.000598349,0.161763,0.161763,-0.321649,0.979355,4.79826e-07,-7.67459e-08,0.647424,0.1755815954646449,1.662738221774434,4.798261150629202e-07,0.1755815954646449,-7.674589708184243e-08,-0.27504739595829697
957,0.9193,483.411,483.877,0.0136866,483.63,0.000706112,0.000598896,0.161892,0.161892,-0.321907,0.980139,4.81169e-07,-7.54349e-08,0.647945,0.175733255272307,1.6648266270882175,4.811691156625386e-07,0.175733255272307,-7.543489710659657e-08,-0.275234409604342
958,0.9203,483.484,483.95,0.0136556,483.703,0.000706938,0.00059802,0.162021,0.162022,-0.322165,0.980922,4.82523e-07,-7.41449e-08,0.648466,0.17588493464534638,1.666914003438423,4.82523116351885e-07,0.1758861105308689,-7.414489722190609e-08,-0.27542137500708996
959,0.9213,483.557,484.023,0.0136398,483.776,0.000706892,0.000598447,0.16215,0.162151,-0.322423,0.981705,4.83867e-07,-7.28379e-08,0.648986,0.17603663358628685,1.6690030148443515,4.838671170404041e-07,0.17603780962350846,-7.283789738021795e-08,-0.2756082921789862
960,0.9223,483.63,484.095,0.0136104,483.849,0.000707615,0.000597715,0.162279,0.16228,-0.32268,0.982488,4.8522e-07,-7.15481e-08,0.649506,0.17618835209765327,1.6710936625867534,4.852201176408499e-07,0.1761895282865933,-7.154809744669421e-08,-0.27579443692727146
961,0.9233,483.702,484.168,0.0135934,483.922,0.000707627,0.000598045,0.162408,0.162408,-0.322938,0.98327,4.86564e-07,-7.02447e-08,0.650026,0.17634009018196983,1.6731832747627693,4.86564118329369e-07,0.17634009018196983,-7.024469750316342e-08,-0.27598125786160743
962,0.9243,483.775,484.241,0.0135653,483.994,0.000708263,0.000597434,0.162537,0.162537,-0.323195,0.984052,4.87915e-07,-6.89554e-08,0.650546,0.17649184784176186,1.6752745216545981,4.879151189740583e-07,0.17649184784176186,-6.895539761408997e-08,-0.2761673067700282
963,0.9253,483.847,484.313,0.0135472,484.067,0.00070832,0.000597686,0.162665,0.162666,-0.323453,0.984834,4.8926e-07,-6.76552e-08,0.651065,0.1766424484365181,1.6773674045410867,4.892601197514779e-07,0.1766436250795549,-6.765519766638306e-08,-0.2763540315163535
964,0.9263,483.92,484.386,0.0135203,484.139,0.000708884,0.000597176,0.162794,0.162795,-0.32371,0.985615,4.9061e-07,-6.63667e-08,0.651584,0.17679424510304087,1.6794592452414983,4.906101203072666e-07,0.17679542189787445,-6.636669780402116e-08,-0.27653998463425467
965,0.9273,483.992,484.458,0.0135014,484.211,0.000708975,0.000597367,0.162923,0.162923,-0.323967,0.986396,4.91955e-07,-6.50694e-08,0.652103,0.17694606135259683,1.681552720307634,4.919551210846862e-07,0.17694606135259683,-6.506939786987687e-08,-0.2767258899683449
966,0.9283,484.064,484.53,0.0134735,484.284,0.000709361,0.000597389,0.163051,0.163052,-0.324224,0.987176,4.93313e-07,-6.37829e-08,0.652622,0.17709672009040345,1.6836451473699419,4.933131216855458e-07,0.17709789718771196,-6.378289796327152e-08,-0.2769117475309033
967,0.9293,484.136,484.602,0.0134555,484.356,0.000709723,0.000597672,0.16318,0.163181,-0.32448,0.987956,4.94672e-07,-6.24929e-08,0.65314,0.17724857536174943,1.6857392071620403,4.946721223753059e-07,0.17724975261091336,-6.249289807858105e-08,-0.2770968344314013
968,0.9303,484.208,484.674,0.0134301,484.428,0.000710184,0.000597589,0.163308,0.163309,-0.324737,0.988735,4.96031e-07,-6.12088e-08,0.653658,0.17739927282382761,1.6878322131243988,4.96031123065066e-07,0.17740045022368922,-6.120879814108804e-08,-0.2772825966734819
969,0.9313,484.28,484.746,0.0134108,484.5,0.000710301,0.000597944,0.163437,0.163437,-0.324993,0.989514,4.97386e-07,-5.99192e-08,0.654176,0.17755116712699381,1.6899268501736273,4.973861236212684e-07,0.17755116712699381,-5.991919815873104e-08,-0.2774675886487503
970,0.9323,484.352,484.818,0.0133856,484.572,0.000710676,0.000597817,0.163565,0.163566,-0.32525,0.990293,4.98744e-07,-5.8637e-08,0.654693,0.17770190332329672,1.692023119580838,4.987441244441726e-07,0.1777030810257889,-5.863699825692237e-08,-0.2776532556192399
971,0.9333,484.424,484.89,0.0133657,484.644,0.000710755,0.000598093,0.163693,0.163694,-0.325506,0.991071,5.00097e-07,-5.73499e-08,0.65521,0.17785265881506773,1.6941183284984578,5.000971250446185e-07,0.17785383666831556,-5.734989838579452e-08,-0.2778381527179631
972,0.9343,484.496,484.962,0.0133412,484.716,0.000711066,0.000597965,0.163821,0.163822,-0.325762,0.991849,5.01453e-07,-5.60692e-08,0.655727,0.17800343360477688,1.6962151681228783,5.014531256897214e-07,0.17800461160879943,-5.606919839529212e-08,-0.27802300248908707
973,0.9353,484.568,485.034,0.0133208,484.787,0.000711125,0.000598178,0.16395,0.16395,-0.326018,0.992627,5.02806e-07,-5.47845e-08,0.656244,0.1781554058497108,1.698313639723283,5.028061265122119e-07,0.1781554058497108,-5.47844984932766e-08,-0.2782078049447262
974,0.9363,484.639,485.105,0.0132968,484.859,0.000711378,0.000598064,0.164078,0.164078,-0.326274,0.993404,5.0416e-07,-5.3505e-08,0.65676,0.17830621939352054,1.7004110441574483,5.041601269795137e-07,0.17830621939352054,-5.350499854284152e-08,-0.27839256009699187
975,0.9373,484.711,485.177,0.0132762,484.93,0.000711427,0.000598227,0.164206,0.164206,-0.32653,0.99418,5.05512e-07,-5.22225e-08,0.657276,0.17845705224269937,1.7025073763994278,5.055121277131036e-07,0.17845705224269937,-5.22224986587716e-08,-0.2785772679579921
976,0.9383,484.782,485.248,0.0132526,485.002,0.000711634,0.000598129,0.164334,0.164334,-0.326785,0.994957,5.06865e-07,-5.09444e-08,0.657792,0.1786079043997184,1.7046080406332589,5.068651285355941e-07,0.1786079043997184,-5.094439869957057e-08,-0.27876120730139975
977,0.9393,484.853,485.32,0.0132318,485.073,0.000711676,0.000598256,0.164461,0.164462,-0.327041,0.995732,5.08215e-07,-4.9664e-08,0.658308,0.17875759710886308,1.706704924302218,5.082151290913828e-07,0.17875877586704947,-4.966399880235173e-08,-0.27894582080079444
978,0.9403,484.925,485.391,0.0132086,485.144,0.000711847,0.000598175,0.164589,0.16459,-0.327296,0.996508,5.09567e-07,-4.83872e-08,0.658823,0.17890848773808732,1.7088061424906917,5.095671298249727e-07,0.17890966664716434,-4.838719880329023e-08,-0.27912966617520885
979,0.9413,484.996,485.462,0.0131876,485.216,0.000711887,0.000598275,0.164717,0.164718,-0.327551,0.997283,5.10916e-07,-4.71088e-08,0.659338,0.17905939768254808,1.7109062809496587,5.109161305139054e-07,0.17906057674253528,-4.710879886182795e-08,-0.2793134646750295
980,0.9423,485.067,485.533,0.0131647,485.287,0.000712029,0.00059821,0.164845,0.164845,-0.327806,0.998058,5.12267e-07,-4.58334e-08,0.659853,0.17921032694471828,1.7130080476467922,5.122671311585947e-07,0.17921032694471828,-4.583339896502281e-08,-0.2794972163122079
981,0.9433,485.138,485.604,0.0131436,485.358,0.000712068,0.000598292,0.164972,0.164973,-0.328061,0.998832,5.13615e-07,-4.45567e-08,0.660368,0.17936009616638438,1.7151087287343794,5.136151319806714e-07,0.17936127552707037,-4.455669899705583e-08,-0.2796809210986926
982,0.9443,485.209,485.675,0.013121,485.429,0.000712188,0.000598244,0.1651,0.1651,-0.328316,0.999606,5.14964e-07,-4.32826e-08,0.660882,0.17951106392042382,1.7172110363785245,5.149641326696042e-07,0.17951106392042382,-4.3282599060390226e-08,-0.2798645790464288
983,0.9453,485.28,485.746,0.0130998,485.5,0.000712227,0.000598314,0.165227,0.165228,-0.32857,1.00038,5.16311e-07,-4.20077e-08,0.661396,0.17966087133811137,1.7193149718386698,5.163111331807357e-07,0.17966205099957255,-4.2007699097013074e-08,-0.2800474702151893
984,0.9463,485.35,485.817,0.0130775,485.57,0.000712331,0.000598282,0.165355,0.165355,-0.328825,1.00115,5.17659e-07,-4.0735e-08,0.66191,0.17981187759383688,1.721409650714858,5.176591340028125e-07,0.17981187759383688,-4.073499915158152e-08,-0.28023103470481736
985,0.9473,485.421,485.887,0.0130563,485.641,0.00071237,0.000598343,0.165482,0.165483,-0.329079,1.00192,5.19005e-07,-3.94618e-08,0.662423,0.17996172321728698,1.7235059431149082,5.190051346470881e-07,0.17996290317960018,-3.9461799272721976e-08,-0.2804138328056607
986,0.9483,485.492,485.958,0.0130341,485.712,0.000712461,0.000598326,0.165609,0.16561,-0.329334,1.0027,5.20351e-07,-3.81904e-08,0.662937,0.18011158787233983,1.725631106456495,5.203511352913637e-07,0.1801127679845178,-3.8190399287429955e-08,-0.2805973038847386
987,0.9493,485.562,486.029,0.0130129,485.782,0.0007125,0.000598384,0.165736,0.165737,-0.329588,1.00347,5.21696e-07,-3.69187e-08,0.663449,0.18026147156141237,1.7277306506292387,5.216961360687833e-07,0.180262651823474,-3.691869931987668e-08,-0.2807800089650243
988,0.9503,485.633,486.099,0.0129909,485.853,0.000712581,0.00059838,0.165863,0.165864,-0.329842,1.00424,5.23041e-07,-3.56486e-08,0.663962,0.18041137428692222,1.7298318120735643,5.230411368462029e-07,0.18041255469888684,-3.5648599405746495e-08,-0.28096266764411293
989,0.9513,485.703,486.169,0.0129697,485.923,0.000712622,0.000598436,0.16599,0.165991,-0.330096,1.00501,5.24385e-07,-3.43785e-08,0.664475,0.18056129605128723,1.731934592035251,5.243851375347219e-07,0.18056247661317348,-3.437849938059401e-08,-0.2811452799337888
990,0.9523,485.773,486.24,0.0129479,485.993,0.000712695,0.000598445,0.166117,0.166118,-0.330349,1.00578,5.25729e-07,-3.31097e-08,0.664987,0.18071123685692525,1.7340389917610377,5.25729138223241e-07,0.18071241756875267,-3.3109699426603356e-08,-0.28132712717331976
991,0.9533,485.843,486.31,0.0129267,486.064,0.000712737,0.000598502,0.166244,0.166245,-0.330603,1.00655,5.27072e-07,-3.1841e-08,0.665499,0.180861196706255,1.736145012498623,5.270721388228594e-07,0.18086237756804224,-3.1840999503707224e-08,-0.28150964690203084
992,0.9543,485.913,486.38,0.012905,486.134,0.000712804,0.000598522,0.166371,0.166372,-0.330856,1.00732,5.28414e-07,-3.05736e-08,0.66601,0.181011175601695,1.738252655496666,5.284141395556219e-07,0.18101235661346116,-3.0573599540950624e-08,-0.2816914019683793
993,0.9553,485.983,486.45,0.0128839,486.204,0.000712846,0.000598581,0.166498,0.166499,-0.33111,1.00809,5.29756e-07,-2.93063e-08,0.666522,0.1811611735456644,1.7403619220047886,5.297561402883844e-07,0.18116235470742836,-2.9306299609288544e-08,-0.28187382918304227
994,0.9563,486.053,486.52,0.0128624,486.274,0.000712909,0.000598612,0.166625,0.166626,-0.331363,1.00886,5.31097e-07,-2.80401e-08,0.667033,0.1813111905405822,1.7424728132735754,5.310971409322462e-07,0.18131237185236326,-2.804009957557696e-08,-0.282055492122928
995,0.9573,486.123,486.59,0.0128413,486.344,0.000712951,0.000598674,0.166752,0.166752,-0.331616,1.00963,5.32438e-07,-2.67743e-08,0.667544,0.1814612265888682,1.7445853305545733,5.324381417981527e-07,0.1814612265888682,-2.677429966624345e-08,-0.28223710910790356
996,0.9583,486.193,486.66,0.0128199,486.414,0.00071301,0.000598715,0.166878,0.166879,-0.331869,1.0104,5.33778e-07,-2.55094e-08,0.668054,0.18161010008225142,1.7466994751002938,5.33778142353114e-07,0.1816112816929425,-2.5509399703693703e-08,-0.2824186801495939
997,0.9593,486.263,486.73,0.0127988,486.483,0.000713053,0.00059878,0.167005,0.167006,-0.332122,1.01117,5.35118e-07,-2.42448e-08,0.668565,0.1817601740944601,1.7488152481642136,5.3511814313012e-07,0.1817613558552249,-2.4244799723405208e-08,-0.2826002052596214
998,0.9603,486.332,486.799,0.0127776,486.553,0.000713109,0.000598829,0.167131,0.167132,-0.332375,1.01193,5.36457e-07,-2.29812e-08,0.669075,0.1819090852576022,1.7509051418118111,5.364571438182253e-07,0.18191026716727832,-2.2981199720994994e-08,-0.28278168444960516
999,0.9613,486.402,486.869,0.0127566,486.623,0.000713152,0.000598899,0.167258,0.167258,-0.332627,1.0127,5.37795e-07,-2.17179e-08,0.669585,0.1820591972433392,1.7530241544861886,5.377951446394746e-07,0.1820591972433392,-2.1717899811868335e-08,-0.28296240069392076
