,Time,S11,S22,S33,S12,S13,S23,LE11,LE22,LE33,LE12,LE13,LE23,SDV_EPBAR,E11,E12,E13,E22,E23,E33
0,1e-05,1.04203,1.04203,-2.22045e-16,1.04203,-6.00101e-18,-1.80033e-17,3.49998e-06,3.49998e-06,-2.99999e-06,1.29999e-05,-2.99404e-22,-6.38851e-26,0.0,3.499986124921861e-06,1.2999984499106887e-05,0.0,3.499986124921861e-06,0.0,-2.999985500018454e-06
1,2e-05,2.08405,2.08405,2.22045e-16,2.08405,-5.40095e-17,-6.60119e-17,6.99994e-06,6.99994e-06,-5.99996e-06,2.59997e-05,-1.19787e-21,-5.98928e-22,0.0,6.999964499598832e-06,2.600003799502204e-05,0.0,6.999964499598832e-06,0.0,-5.9999420002343484e-06
2,3.5e-05,3.64707,3.64707,-6.66134e-16,3.64707,-4.20065e-17,-3.00042e-17,1.22498e-05,1.22498e-05,-1.04998e-05,4.54992e-05,-5.98929e-22,-5.98929e-22,0.0,1.2249875029013424e-05,4.550023510430101e-05,0.0,1.2249875029013424e-05,0.0,-1.0499744877323636e-05
3,5.75e-05,5.99155,5.99155,-3.9968e-15,5.99155,-4.20047e-17,-7.80117e-17,2.01244e-05,2.01244e-05,-1.72495e-05,7.47478e-05,1.19796e-21,-1.19785e-21,0.0,2.0124602497118005e-05,7.475059368644565e-05,0.0,2.0124602497118005e-05,0.0,-1.7249351228265652e-05
4,9.125e-05,9.50816,9.50816,-2.79776e-14,9.50816,-9.00093e-17,-1.26016e-16,3.19361e-05,3.19361e-05,-2.73738e-05,0.00011862,-3.5936e-21,1.19808e-21,0.0,3.193660996259062e-05,0.0001186270356303698,0.0,3.193660996259062e-05,0.0,-2.737342534098186e-05
5,0.00014188,14.7829,14.7829,-1.57652e-13,14.7829,-1.38005e-16,-2.70031e-16,4.96528e-05,4.96528e-05,-4.25595e-05,0.000184424,4.71863e-25,-4.79128e-21,0.0,4.965403272061408e-05,0.00018444100715142575,0.0,4.965403272061408e-05,0.0,-4.255859435731146e-05
6,0.00021781,22.6944,22.6944,-8.00693e-13,22.6944,-5.22036e-16,-3.66006e-16,7.62261e-05,7.62261e-05,-6.53367e-05,0.000283125,-1.4374e-20,4.79342e-21,0.0,7.622900528292398e-05,0.0002831650836656596,0.0,7.622900528292398e-05,0.0,-6.533456560431361e-05
7,0.00033172,34.5606,34.5606,-4.05498e-12,34.5606,-8.09983e-16,-6.53953e-16,0.000116082,0.000116082,-9.94992e-05,0.000431163,-2.15601e-20,7.19196e-21,0.0,0.00011608873777602113,0.00043125596412663114,0.0,0.00011608873777602113,0.0,-9.949425011879232e-05
8,0.00050258,52.3574,52.3574,-2.05111e-11,52.3574,-9.05775e-16,-1.13382e-15,0.000175858,0.000175858,-0.000150736,0.000653187,-2.87453e-20,9.59285e-21,0.0,0.0001758734639245585,0.0006534003730833682,0.0,0.0001758734639245585,0.0,-0.00015072463989995732
9,0.00075887,79.0468,79.0468,-1.03758e-10,79.0468,-7.13335e-16,-1.70953e-15,0.000265503,0.000265503,-0.000227574,0.000986153,-3.35335e-20,4.80753e-21,0.0,0.00026553824904107515,0.0009866394087476582,0.0,0.00026553824904107515,0.0,-0.0002275481070015406
10,0.0011433,119.068,119.068,-5.24726e-10,119.068,-1.48088e-15,-9.40773e-16,0.000399927,0.000399927,-0.000342794,0.00148544,-5.74957e-20,1.91952e-20,0.0,0.00040000698146447355,0.0014865438124782582,0.0,0.00040000698146447355,0.0,-0.00034273525284966855
11,0.00172,178.817,178.817,-0.000223854,178.817,-4.74673e-05,-4.99347e-05,0.000601222,0.000601221,-0.000516031,0.0022345,-5.95539e-10,-6.20761e-10,2.43974e-06,0.000601402770172399,0.0022369983556369544,-5.955389514866738e-10,0.0006014017695710194,-6.207609981601081e-10,-0.0005158978789027158
12,0.0019362,180.797,180.855,0.0344962,180.754,0.017343,-0.00050046,0.000657084,0.000657309,-0.000620195,0.00255425,2.39561e-07,5.14047e-08,0.000199571,0.0006572999269829349,0.0025575148757090993,2.3956102879196806e-07,0.0006575250749007999,5.1404701384427653e-08,-0.0006200027188336676
13,0.0022606,183.48,183.416,-0.054342,183.552,-0.0243363,-0.00617695,0.000740885,0.000739984,-0.000776762,0.00303515,-3.52975e-07,1.38913e-07,0.000496991,0.0007411595230841783,0.0030397607313348285,-3.529749377229052e-07,0.0007402578557056394,1.3891300953972063e-07,-0.0007764603984935503
14,0.0027471,187.481,187.609,0.0780176,187.388,0.0348531,-0.0112034,0.000865945,0.000866002,-0.00101182,0.00375474,4.76535e-07,5.24078e-07,0.000945054,0.0008663200386178627,0.0037617978669541863,4.7653511359158074e-07,0.0008663770879997479,5.24078137331685e-07,-0.001011308282746981
15,0.0034769,192.482,192.32,-0.181296,192.713,-0.0676429,-0.017857,0.00105338,0.00105044,-0.00136548,0.00483799,-1.2381e-06,1.65623e-06,0.0016232,0.001053934999570183,0.004849711969586945,-1.2380992335803143e-06,0.0010509919053276473,1.656231371605088e-06,-0.0013645481563709927
16,0.0042068,197.58,197.815,0.179998,197.382,0.0569905,-0.0120873,0.00123968,0.00123907,-0.00171933,0.00591711,5.47573e-07,2.68094e-06,0.00230424,0.0012404487208743653,0.005934650675011088,5.47573149933811e-07,0.0012398379643869806,2.6809435937913406e-06,-0.0017178527988955805
17,0.0049366,201.906,202.159,0.190208,201.698,0.0589514,-0.0153147,0.00142555,0.00142492,-0.00207435,0.0069984,8.20285e-07,3.37741e-06,0.00298962,0.0014265665794055415,0.007022946028846011,8.202853365446572e-07,0.0014259356808672408,3.3774157035537655e-06,-0.002072200022897319
18,0.0056664,205.866,206.107,0.186526,205.672,0.0518714,-0.0156257,0.00161098,0.00161012,-0.00242978,0.00807971,9.4952e-07,3.9609e-06,0.00367784,0.001612278325378691,0.008112438944252842,9.495204507103949e-07,0.0016114169391896471,3.960907844380301e-06,-0.002426830473959196
19,0.0063962,209.184,209.058,-0.180689,209.413,-0.0690082,-0.0356822,0.00179641,0.00179217,-0.00278589,0.00916314,-9.3449e-07,4.08836e-06,0.00436919,0.0017980245110740256,0.009205250089270534,-9.344895633978112e-07,0.0017937768964548795,4.08836835741333e-06,-0.002782013009579254
20,0.0066462,210.63,210.799,0.0750981,210.563,0.023805,-0.0219019,0.00185958,0.00185711,-0.0029074,0.00953178,2.61796e-07,4.24365e-06,0.00460547,0.0018613100911362146,0.009577352094291225,2.617960341844139e-07,0.0018588354967565834,4.243659004199429e-06,-0.0029031776056743785
21,0.0070212,212.388,212.571,0.0844596,212.309,0.0277448,-0.0252587,0.00195446,0.00195196,-0.00309032,0.010087,3.75671e-07,4.20131e-06,0.00496122,0.0019563712018655366,0.010138045271349982,3.7567107047387083e-07,0.0019538663140685752,4.201318825503009e-06,-0.003085549876150284
22,0.0075837,214.748,214.707,-0.0676331,214.866,-0.0449033,-0.0253779,0.00209689,0.00209236,-0.0033648,0.010921,-7.11134e-07,4.29579e-06,0.00549609,0.002099090011294491,0.01098085180257824,-7.111337471110701e-07,0.0020945505126988007,4.2957992270054035e-06,-0.0033591454044523683
23,0.0084275,218.161,218.0,-0.211264,218.446,-0.0875239,-0.032893,0.00231012,0.00230347,-0.00377651,0.0121707,-1.75875e-06,4.57698e-06,0.00629965,0.0023127903831130503,0.01224506435175532,-1.7587484534287157e-06,0.00230612502521943,4.576990474403075e-06,-0.0037693879544228315
24,0.0092712,221.913,222.225,0.214802,221.694,0.0610391,-0.0253732,0.00252239,0.00251862,-0.00418779,0.013416,3.96931e-07,5.00635e-06,0.00710325,0.002525573902107503,0.013506398336994963,3.9693107867222466e-07,0.00252179438781841,5.006362531867481e-06,-0.004179033435273927
25,0.010115,225.042,225.355,0.211345,224.828,0.0595316,-0.0268687,0.00273445,0.00273061,-0.00459981,0.0146633,6.71886e-07,5.25244e-06,0.00790912,0.0027381920184113007,0.014771333580511081,6.718862257670821e-07,0.0027343415111469316,5.252453794124534e-06,-0.004589247076002612
26,0.010748,226.938,226.849,-0.128979,227.133,-0.0693233,-0.0308357,0.00289368,0.00288652,-0.00490908,0.0156007,-1.22318e-06,5.23252e-06,0.00851501,0.0028978707332099063,0.015723026217259184,-1.2231792518857532e-06,0.0028906900101624,5.232533689669694e-06,-0.004897050159976213
27,0.011381,229.366,229.657,0.157939,229.213,0.0491902,-0.030905,0.00305212,0.00304726,-0.00521766,0.0165333,4.4073e-07,5.24781e-06,0.00911971,0.003056782460503449,0.016670731357727897,4.4073009708434085e-07,0.0030519076163866288,5.247823769760629e-06,-0.005204071655455
28,0.011618,229.929,229.901,-0.0634075,230.051,-0.0510945,-0.0316415,0.00311182,0.00310475,-0.00533373,0.0168853,-8.86958e-07,5.19851e-06,0.00934746,0.003116666737944307,0.017028662447341913,-8.869576066938833e-07,0.0031095747281806307,5.198523512328634e-06,-0.005319530918050042
29,0.011974,231.081,231.056,-0.0638492,231.205,-0.0507271,-0.0301435,0.00320104,0.00319363,-0.00550739,0.0174108,-9.96178e-07,5.17293e-06,0.00968828,0.003206168799578135,0.017563251460418927,-9.961775038203058e-07,0.0031987350694093752,5.172943379649908e-06,-0.005492252130493869
30,0.012508,232.881,233.035,0.0505006,232.861,0.00464783,-0.0309047,0.00333457,0.00332802,-0.00576783,0.0181979,-2.9488e-07,5.13196e-06,0.0101994,0.0033401358634099765,0.018364490782012632,-2.948799565638538e-07,0.0033335640070428774,5.131973168426285e-06,-0.00575122800304706
31,0.013309,235.097,234.967,-0.16544,235.348,-0.0865771,-0.0299405,0.00353522,0.00352572,-0.00615862,0.0193809,-1.86999e-06,5.21239e-06,0.0109675,0.003541476260470855,0.01956992885064235,-1.8699882515793576e-06,0.003531942661731069,5.212403584531344e-06,-0.0061396945712868245
32,0.013559,236.063,236.26,0.0605579,236.03,0.0154304,-0.0326051,0.00359746,0.00358994,-0.00628031,0.0197478,-5.74349e-07,5.136e-06,0.0112065,0.0036039386257618045,0.019944077690945194,-5.743488350473669e-07,0.0035963915525205614,5.1360131891886596e-06,-0.006260630073384621
33,0.013934,237.159,237.363,0.0660907,237.119,0.0173955,-0.0350187,0.00369107,0.00368348,-0.00646323,0.0203005,-5.11947e-07,5.04629e-06,0.011566,0.003697890387800218,0.02050795659626603,-5.119468690084616e-07,0.003690272349722745,5.046302732569785e-06,-0.006442388254821463
34,0.014496,238.651,238.676,-0.0348844,238.748,-0.0392732,-0.0288237,0.00383163,0.00382242,-0.00673754,0.0211302,-1.35651e-06,5.08895e-06,0.0121058,0.003838980078824328,0.02135502340492601,-1.3565090799527724e-06,0.003829734764392523,5.088962948818221e-06,-0.006714893666110888
35,0.01534,241.233,241.589,0.234766,241.002,0.0638809,-0.0232481,0.00404168,0.00403452,-0.00714862,0.0223708,2.39478e-07,5.23673e-06,0.0129145,0.004049858603331513,0.022622902749904972,2.394780287406917e-07,0.004042669632080553,5.236743711778402e-06,-0.007123129393102445
36,0.01559,241.597,241.577,-0.0715325,241.734,-0.0551645,-0.0346516,0.00410414,0.00409441,-0.00727088,0.0227408,-1.32868e-06,5.04733e-06,0.0131551,0.004112573516066309,0.023001343231094262,-1.3286791172850698e-06,0.0041028035482568725,5.047342737762861e-06,-0.007244511099087969
37,0.015965,242.573,242.538,-0.0807338,242.724,-0.0600385,-0.0323998,0.00419757,0.00418736,-0.00745355,0.0232928,-1.52409e-06,5.01905e-06,0.0135149,0.004206392136478554,0.02356619585753994,-1.5240888385781304e-06,0.0041961392415559295,5.019062595534862e-06,-0.007425841181958104
38,0.016527,244.174,244.376,0.074427,244.132,0.0131631,-0.032212,0.00433733,0.00432838,-0.00772743,0.024119,-5.7058e-07,4.96464e-06,0.0140542,0.004346749829810648,0.02441221569122587,-5.705798372668269e-07,0.0043377609666248595,4.964652323913299e-06,-0.0076976501693534205
39,0.017371,246.411,246.771,0.20522,246.21,0.0620333,-0.0346211,0.00454684,0.00453887,-0.00813829,0.0253584,3.34767e-07,4.91904e-06,0.0148636,0.004557192561526202,0.02568265932264313,3.347670560760463e-07,0.004549186272606587,4.919052098539822e-06,-0.00810526377100873
40,0.017621,246.76,246.764,-0.0542772,246.881,-0.0496456,-0.0336838,0.00460915,0.00459874,-0.0082603,0.0257276,-1.13162e-06,4.88512e-06,0.0151042,0.004619788470349828,0.02606141127377315,-1.1316193597732394e-06,0.004609330432786107,4.88513193230844e-06,-0.00822627746518545
41,0.017996,247.647,247.633,-0.0685071,247.786,-0.055875,-0.0323889,0.0047023,0.00469142,-0.00844279,0.0262787,-1.33196e-06,4.84329e-06,0.0154641,0.0047133731622852615,0.026627029559329163,-1.3319591128935215e-06,0.004702441940251267,4.843301728785221e-06,-0.008407249738493494
42,0.018559,249.112,249.31,0.070116,249.077,0.00993749,-0.0321411,0.00484168,0.00483191,-0.00871636,0.0271036,-4.81294e-07,4.78238e-06,0.0160035,0.00485341987186505,0.02747424358139483,-4.812938841913805e-07,0.00484360250191096,4.782391435531608e-06,-0.008678482664895126
43,0.019402,251.152,251.482,0.173877,250.989,0.0503708,-0.0356674,0.00505066,0.00504161,-0.00912675,0.028341,2.58487e-07,4.69203e-06,0.0168129,0.005063436083379447,0.02874642714804887,2.5848703333331e-07,0.0050543403004414955,4.6920410075035335e-06,-0.009085227634651583
44,0.020402,253.412,253.789,0.21815,253.194,0.0645021,-0.0370275,0.00529808,0.00528929,-0.00961299,0.0298069,7.88835e-07,4.65707e-06,0.0177723,0.005312139644584102,0.03025557239336729,7.888353110718782e-07,0.005303302989713821,4.657080844072681e-06,-0.009566932911888704
45,0.021402,255.154,255.021,-0.15896,255.419,-0.0974629,-0.0180756,0.00554589,0.00553242,-0.0100989,0.031275,-1.7923e-06,4.9665e-06,0.0187326,0.00556129691646623,0.03176920140671258,-1.7922983938101211e-06,0.005547752097021297,4.966512333171025e-06,-0.010048077337606709
46,0.021652,255.905,256.134,0.0625871,255.875,0.0155303,-0.036026,0.00560739,0.00559613,-0.0102201,0.0316392,-3.60854e-07,4.69497e-06,0.0189718,0.005623140837907492,0.032145040185952434,-3.608539348443074e-07,0.005611817585091883,4.694981021291511e-06,-0.010168052240007386
47,0.022027,256.675,256.894,0.0594919,256.651,0.0124801,-0.0386574,0.00569997,0.00568854,-0.0104022,0.0321882,-3.73461e-07,4.58947e-06,0.0193314,0.005716245738045744,0.03271184338625677,-3.734609302918912e-07,0.005704750467052433,4.589480531613788e-06,-0.010348284227074012
48,0.02259,257.735,257.801,-0.0172017,257.82,-0.0358216,-0.0305387,0.00583897,0.00582614,-0.0106752,0.0330121,-1.09059e-06,4.62248e-06,0.0198711,0.0058560500123752135,0.03356304527849163,-1.0905894053392373e-06,0.005843144962039748,4.622490683781066e-06,-0.01061842226995946
49,0.023434,259.611,259.938,0.185276,259.447,0.0453393,-0.0264568,0.00604681,0.0060355,-0.0110843,0.0342444,1.28334e-07,4.63824e-06,0.0206794,0.0060651288605311215,0.03483749010709247,1.2833400830913888e-07,0.0060537503282693805,4.6382507565834175e-06,-0.011023095491857315
50,0.024434,261.105,260.941,-0.245511,261.454,-0.110453,-0.0391852,0.00629367,0.00627772,-0.0115694,0.0357086,-2.43208e-06,4.39861e-06,0.021639,0.006313516755498183,0.03635380898625806,-2.432077042535674e-06,0.006297466182909384,4.398619673828819e-06,-0.011502731843031522
51,0.024684,261.896,262.147,0.0798017,261.856,0.0188417,-0.0342836,0.00635495,0.00634156,-0.01169,0.0360715,-7.93019e-07,4.41542e-06,0.0218776,0.006375185537317085,0.036729970033832826,-7.930186856075494e-07,0.006361710263799836,4.415429748050315e-06,-0.011621937425330131
52,0.024934,262.309,262.473,0.0230256,262.338,-0.00826899,-0.0376795,0.00641651,0.00640248,-0.0118112,0.0364369,-1.14288e-06,4.3233e-06,0.0221173,0.0064371399006744046,0.03710886038393446,-1.1428793469381304e-06,0.0064230196866552625,4.3233093454109195e-06,-0.011741721587447351
53,0.025309,263.005,263.159,0.0263956,263.035,-0.0115158,-0.0346246,0.00650875,0.00649448,-0.0119928,0.0369842,-1.20751e-06,4.29708e-06,0.0224765,0.00652997794408372,0.037676625417951914,-1.207509270906293e-06,0.006515614863779273,4.297089232441209e-06,-0.01192117299612594
54,0.025871,264.009,264.126,0.00184386,264.068,-0.0234236,-0.0338792,0.00664708,0.00663221,-0.0122651,0.0378051,-1.42932e-06,4.22402e-06,0.0230153,0.0066692208664473895,0.03852880388855562,-1.42931897850751e-06,0.006654251806428313,4.224028921084866e-06,-0.01219019023236012
55,0.026715,265.594,265.788,0.0830238,265.566,-0.000522506,-0.0249268,0.00685431,0.00683948,-0.0126732,0.0390349,-1.15022e-06,4.29052e-06,0.023823,0.006877854545919604,0.03980677227327001,-1.1502193385526382e-06,0.006862922658056769,4.290529204364901e-06,-0.01259323316922134
56,0.027715,267.204,267.246,-0.0521884,267.332,-0.0491948,-0.0261292,0.00709991,0.00708314,-0.0131569,0.0404926,-2.02836e-06,4.24123e-06,0.0247804,0.007125174116596078,0.0413236038793372,-2.0283579428292953e-06,0.007108284769043793,4.24123899400719e-06,-0.013070726331306348
57,0.028715,269.213,269.602,0.275687,268.969,0.0575209,-0.0110687,0.00734472,0.00733008,-0.0136396,0.041946,-3.96141e-07,4.4705e-06,0.0257361,0.007371758612415347,0.042838163969423526,-3.961409215103018e-07,0.00735701079782336,4.470509992637872e-06,-0.01354700213329374
58,0.029715,270.841,271.266,0.249611,270.608,0.0687642,-0.0359525,0.00758927,0.00757489,-0.0141227,0.0433999,1.01961e-07,4.06241e-06,0.0266921,0.007618141501223752,0.04435544909917066,1.0196100519443974e-07,0.007603652056528354,4.062418251571387e-06,-0.014023442483130477
59,0.030715,272.071,271.975,-0.114547,272.305,-0.0937352,-0.0139987,0.00783435,0.00781538,-0.0146052,0.0448557,-2.42527e-06,4.34846e-06,0.0276487,0.007865118818707106,0.04587692897846063,-2.425267059069647e-06,0.007845999798747672,4.348469454518167e-06,-0.0144990614198367
60,0.031715,273.52,273.367,-0.241393,273.875,-0.114234,-0.0399566,0.00807888,0.00805806,-0.0150872,0.0463079,-3.28351e-06,3.89641e-06,0.0286039,0.008111602211275715,0.04739685480575395,-3.2835046093193654e-06,0.008090613546210434,3.896417591020551e-06,-0.014973958412862753
61,0.032465,275.157,275.59,0.264163,274.928,0.067611,-0.020897,0.00826147,0.0082444,-0.0154478,0.0473923,-7.5231e-07,4.08699e-06,0.0293184,0.008295690114517251,0.04853326800698188,-7.523097169670478e-07,0.00827847865398712,4.086998351748861e-06,-0.015329094768525953
62,0.033215,276.186,276.541,0.153535,276.064,0.0431078,-0.0405989,0.00844421,0.0084266,-0.0158091,0.0484797,-8.93126e-07,3.71421e-06,0.0300342,0.008479962905420857,0.049674063220560116,-8.931256011424082e-07,0.008462203729644013,3.7142168975989875e-06,-0.015684792105992718
63,0.034215,277.538,277.628,0.0511057,277.587,-0.0396872,-0.00791979,0.00868812,0.008668,-0.0162899,0.0499292,-2.13526e-06,4.15099e-06,0.030988,0.008725971253901621,0.051196669017160135,-2.1352577203037626e-06,0.008705675891532039,4.15099861528212e-06,-0.016157937104775755
64,0.035215,279.163,279.575,0.212297,278.961,0.0597994,-0.0302963,0.00893108,0.00891295,-0.0167707,0.0513741,-5.918e-07,3.78382e-06,0.0319404,0.00897108109061473,0.05271664092348516,-5.917998249227452e-07,0.00895278861073634,3.7838271587098404e-06,-0.01663085467012282
65,0.036215,280.578,281.011,0.232495,280.367,0.065251,-0.0398148,0.00917391,0.00915595,-0.017251,0.0528193,-1.95929e-07,3.52498e-06,0.0328926,0.009216119288344649,0.05423912689632271,-1.9592898081732812e-07,0.009197993929608295,3.524986212699588e-06,-0.017103053463007
66,0.037215,281.6,281.533,-0.113964,281.83,-0.089843,-0.0195185,0.00941722,0.00939489,-0.0177309,0.0542663,-2.59107e-06,3.73714e-06,0.0338452,0.009461701537425649,0.05576571513316564,-2.5910666431316898e-06,0.009439160509301825,3.7371469832070403e-06,-0.017574632543199353
67,0.038215,282.825,282.675,-0.241852,283.189,-0.118423,-0.0403562,0.00966003,0.00963573,-0.0182103,0.0557099,-3.54792e-06,3.32909e-06,0.0347964,0.00970683869284783,0.05729091914691442,-3.5479137061589228e-06,0.009682303114776136,3.329095541459992e-06,-0.018045494389755556
68,0.039215,284.609,285.04,0.229803,284.41,0.0616085,-0.038901,0.00990185,0.0098812,-0.0186887,0.0571481,-9.95387e-07,3.2079e-06,0.0357455,0.00995103552522969,0.058812608931664734,-9.953865045542187e-07,0.009930180251677356,3.2079051452971186e-06,-0.018515149074881387
69,0.040215,285.424,285.266,-0.249878,285.801,-0.122545,-0.0403863,0.0101444,0.0101186,-0.0191677,0.0585917,-3.90932e-06,3.03608e-06,0.0366964,0.010196028859261741,0.06034221461766354,-3.909312358607586e-06,0.010169966137927755,3.0360846088317572e-06,-0.01898516774001746
70,0.041215,286.714,286.59,-0.224716,287.062,-0.113214,-0.0405259,0.0103865,0.0103595,-0.0196455,0.0600305,-4.35683e-06,2.88128e-06,0.0376452,0.010440626925249719,0.06186893305392105,-4.356820509032744e-06,0.010413345396625084,2.881284150824115e-06,-0.01945378466537262
71,0.042215,288.451,288.902,0.283633,288.209,0.0649241,-0.0204993,0.0106275,0.0106042,-0.0201225,0.0614647,-1.81538e-06,3.07869e-06,0.0385922,0.010684172462397168,0.06339295809482937,-1.8153783521990263e-06,0.010660623795521795,3.078694739144794e-06,-0.019921393676471943
72,0.043215,289.156,289.015,-0.239958,289.525,-0.119983,-0.0407059,0.0108693,0.0108409,-0.0206004,0.0629043,-4.71709e-06,2.66738e-06,0.0395411,0.010928585443637173,0.0649249210396543,-4.717078874505454e-06,0.010899875479494003,2.667383557364289e-06,-0.020389661340963205
73,0.044215,290.814,291.263,0.227097,290.622,0.0624655,-0.0410576,0.0111098,0.0110851,-0.0210768,0.0643357,-2.13682e-06,2.50684e-06,0.0404867,0.011171743006961332,0.0664503460578616,-2.136817716991146e-06,0.0111467673733594,2.506843142180415e-06,-0.020856236559259056
74,0.045215,292.008,292.484,0.24726,291.791,0.0704585,-0.0412141,0.0113504,0.0113259,-0.0215534,0.0657688,-1.69736e-06,2.34474e-06,0.0414328,0.011415060198213034,0.06797977169698077,-1.697358559482609e-06,0.011390280832786814,2.3447427488498818e-06,-0.02132278528952114
75,0.046215,292.78,292.716,-0.12867,293.038,-0.0973919,-0.0204669,0.0115914,0.0115624,-0.0220297,0.0672039,-4.26743e-06,2.5405e-06,0.0423793,0.011658840602079668,0.06951352975220293,-4.267420894543683e-06,0.011629502921100654,2.5405032271219596e-06,-0.021788818252327258
76,0.047215,294.265,294.711,0.219624,294.083,0.0596596,-0.0415604,0.0118311,0.0118054,-0.0225051,0.0686319,-2.02177e-06,2.11587e-06,0.043323,0.011901364291474925,0.07104188605937578,-2.0217679562728463e-06,0.011875358760585097,2.1158722385283824e-06,-0.0222537493252577
77,0.048215,294.934,294.809,-0.228113,295.293,-0.118151,-0.0403629,0.0120717,0.012041,-0.0229806,0.0700647,-4.81194e-06,1.96903e-06,0.0442682,0.012144857050727875,0.07257757477839988,-4.811928422610023e-06,0.012113784680579665,1.9690319386089783e-06,-0.02271855715063531
78,0.049215,296.495,296.975,0.242218,296.287,0.068874,-0.0419704,0.0123109,0.0122841,-0.0234549,0.0714894,-2.15004e-06,1.78531e-06,0.0452102,0.012386991058607189,0.07410676510926018,-2.1500376886640638e-06,0.012359859450811861,1.785311593671679e-06,-0.023181971831499615
79,0.050215,297.56,298.024,0.229328,297.367,0.0639295,-0.0421315,0.0125503,0.0125234,-0.0239295,0.0729161,-1.91034e-06,1.61536e-06,0.0461527,0.012629385517725744,0.07564028690869695,-1.9103381753149407e-06,0.012602146153626315,1.615361304718732e-06,-0.02364545967330367
80,0.051215,298.299,298.291,-0.0851624,298.509,-0.0828082,-0.0196461,0.01279,0.0127591,-0.0244036,0.0743441,-4.13702e-06,1.83166e-06,0.0470954,0.012872141874621379,0.0771773984748565,-4.13701144252876e-06,0.012840844608982716,1.831661677442753e-06,-0.024108239650210805
81,0.052215,299.657,300.119,0.225317,299.471,0.0619761,-0.042156,0.0130285,0.0130007,-0.024877,0.0757657,-2.03921e-06,1.38418e-06,0.0480356,0.013113740689971953,0.07870980283947504,-2.039207920856434e-06,0.013085576519464626,1.3841809580750208e-06,-0.02457011747445348
82,0.053215,300.691,301.166,0.231228,300.495,0.0659499,-0.0432714,0.0132671,0.0132394,-0.0253503,0.0771882,-1.68229e-06,1.19603e-06,0.0489758,0.013355498469056704,0.08024535943971212,-1.6822885849920866e-06,0.013327428910514305,1.1960307151337446e-06,-0.025031679200654078
83,0.054215,301.361,301.331,-0.103085,301.594,-0.0908949,-0.01997,0.0135061,0.0134742,-0.0258231,0.0786124,-4.06813e-06,1.41831e-06,0.0499163,0.013597719377436368,0.08178494095639066,-4.068121725153695e-06,0.013565386125906187,1.41831100575196e-06,-0.025492535267768734
84,0.055215,302.694,303.167,0.229515,302.504,0.0639095,-0.0426403,0.0137439,0.0137152,-0.0262952,0.0800299,-1.83941e-06,9.66168e-07,0.0508541,0.013838781576263726,0.08331945844252164,-1.8394083083350665e-06,0.013809684820772938,9.661684667872095e-07,-0.025952491660619414
85,0.056215,303.681,304.166,0.234241,303.483,0.0673261,-0.0436872,0.0139818,0.0139532,-0.0267672,0.0814485,-1.48664e-06,7.76365e-07,0.0517921,0.014080002514493595,0.0848573459919999,-1.4866388949874576e-06,0.014051000241156242,7.763653013803662e-07,-0.026412133600524412
86,0.057215,304.303,304.275,-0.103918,304.539,-0.0919854,-0.020131,0.0142201,0.0141872,-0.0272388,0.0828688,-3.90327e-06,9.98997e-07,0.0527304,0.014321686574604975,0.08639926361410866,-3.903262382198847e-06,0.014288315940066632,9.989974989466077e-07,-0.026871169389171667
87,0.058215,305.585,306.051,0.219783,305.407,0.0601779,-0.0430165,0.0144572,0.0144274,-0.0277096,0.0842824,-1.72784e-06,5.42169e-07,0.0536659,0.014562210759507144,0.0879360835815921,-1.7278385072705404e-06,0.014531977256107886,5.421691469109646e-07,-0.027329210611259147
88,0.059215,306.523,306.991,0.217215,306.347,0.0605993,-0.0439993,0.0146943,0.0146646,-0.0281804,0.0856971,-1.44676e-06,3.5141e-07,0.0546017,0.014802791979454666,0.0894762759572365,-1.4467589534161718e-06,0.014772652784102114,3.514100617163507e-07,-0.02778703623829415
89,0.060215,307.142,307.142,-0.0835096,307.355,-0.0845972,-0.0202021,0.0149319,0.0148983,-0.0286507,0.0871132,-3.64841e-06,5.75391e-07,0.0555375,0.015043937769814386,0.0910201762121916,-3.648403344547191e-06,0.015009832866470951,5.753911656025679e-07,-0.02824416049395695
90,0.061215,307.918,307.8,-0.229755,308.287,-0.122608,-0.0410547,0.015169,0.0151334,-0.0291205,0.0885265,-4.68285e-06,1.47846e-07,0.056472,0.015284633220777888,0.09256320515179306,-4.6828390354303195e-06,0.015248489731193082,1.478460109893831e-07,-0.02870058416504173
91,0.062215,309.272,309.746,0.230059,309.092,0.0598916,-0.0404143,0.0154052,0.0153733,-0.0295893,0.0899342,-2.13287e-06,-2.28728e-09,0.0574042,0.015524471774962745,0.09410228940598109,-2.1328677254350836e-06,0.015492077061011633,-2.2872800320428155e-09,-0.029155822614955085
92,0.063215,310.181,310.691,0.244759,309.974,0.0714622,-0.0442806,0.0156413,0.0156098,-0.0300584,0.0913434,-1.66747e-06,-2.29924e-07,0.0583368,0.01576426540927356,0.09564518522127408,-1.667468609745093e-06,0.015732269338853744,-2.299239735270575e-07,-0.029611138815801907
93,0.064215,310.687,310.641,-0.121137,310.949,-0.100848,-0.0205331,0.0158781,0.0158419,-0.0305271,0.0927548,-4.27562e-06,-1.05045e-08,0.0592698,0.016004826868674993,0.09719267063926584,-4.275610859583168e-06,0.015968048159641146,-1.0504500047581189e-08,-0.030065853504327444
94,0.065215,311.892,312.36,0.211377,311.728,0.0573112,-0.0439696,0.0161135,0.0160806,-0.0309949,0.0941591,-2.04441e-06,-4.77755e-07,0.0601999,0.016244022557147852,0.0987345406773037,-2.0444079101844537e-06,0.01621058867879621,-4.777548858747593e-07,-0.03051948258594328
95,0.066215,312.738,313.196,0.199933,312.586,0.0539214,-0.0447875,0.016349,0.0163161,-0.0314628,0.0955648,-1.84752e-06,-6.69706e-07,0.0611303,0.01648337620724627,0.10028011787556346,-1.8475182933519463e-06,0.016449934454288773,-6.697057757243385e-07,-0.030972996412207743
96,0.067215,313.314,313.349,-0.0618796,313.506,-0.077063,-0.0207208,0.0165849,0.0165484,-0.0319301,0.0969715,-3.82844e-06,-4.47068e-07,0.0620606,0.016723192920962804,0.10182897104785127,-3.828432671548754e-06,0.01668608320167775,-4.4706790003345986e-07,-0.03142571694459351
97,0.068215,314.448,314.943,0.232253,314.262,0.0640716,-0.0428881,0.0168197,0.0167861,-0.0323967,0.0983722,-1.78239e-06,-8.93409e-07,0.0629885,0.016961947555357737,0.10337338426488807,-1.7823884115308886e-06,0.016927778207968203,-8.934086008771658e-07,-0.031877548284617974
98,0.069215,314.814,314.691,-0.227398,315.191,-0.127744,-0.038707,0.0170553,0.0170166,-0.0328635,0.0997775,-4.74643e-06,-1.00162e-06,0.0639177,0.017201572016855016,0.1049250449007808,-4.7464187357126875e-06,0.017162207077734415,-1.001619498341988e-06,-0.03232936238346373
99,0.070215,316.094,316.606,0.238149,315.9,0.0686056,-0.0446315,0.0172895,0.0172549,-0.033329,0.101175,-1.99165e-06,-1.25064e-06,0.0648437,0.017439828523769352,0.10647025711658142,-1.9916480166193296e-06,0.01740462571471446,-1.2506392179645331e-06,-0.03277970823914422
100,0.071215,316.9,317.415,0.23753,316.704,0.069417,-0.0453468,0.0175239,0.0174894,-0.0337947,0.102574,-1.67819e-06,-1.44267e-06,0.0657701,0.017678344372540566,0.10801929230375307,-1.6781885918693007e-06,0.017643235075298636,-1.442668959406035e-06,-0.033230037861625816
101,0.072215,317.352,317.344,-0.0994358,317.592,-0.0928474,-0.0212467,0.0177587,0.0177199,-0.03426,0.103974,-4.11377e-06,-1.22419e-06,0.0666967,0.017917323302827803,0.10957160567879654,-4.1137615384156945e-06,0.017877828876880386,-1.2241892506370533e-06,-0.03367977128641342
102,0.073215,318.03,317.934,-0.216521,318.391,-0.121004,-0.0409768,0.017993,0.0179525,-0.0347247,0.105372,-4.99514e-06,-1.63674e-06,0.0676219,0.018155849273904012,0.11112387156457659,-4.995127524276555e-06,0.018114614797012152,-1.6367386604931866e-06,-0.034128715976318946
103,0.074215,318.783,318.683,-0.248481,319.168,-0.123233,-0.0474004,0.0182271,0.0181854,-0.0351889,0.106768,-5.55986e-06,-1.91005e-06,0.068546,0.018394227459296975,0.11267608368125703,-5.55984454397862e-06,0.018351761305437364,-1.9100481758460575e-06,-0.03457696937869892
104,0.075215,320.068,320.578,0.292032,319.842,0.0644886,-0.0206059,0.0184603,0.0184225,-0.035652,0.108158,-2.93385e-06,-1.6443e-06,0.0694679,0.018631744686572693,0.11422377883651502,-2.9338456962735293e-06,0.01859324113434524,-1.6442986481290944e-06,-0.03502395327706953
105,0.076215,320.78,321.293,0.230429,320.599,0.0656287,-0.0451693,0.0186935,0.0186558,-0.0361159,0.109551,-2.63806e-06,-2.13261e-06,0.0703905,0.01886931730932484,0.11577697410978405,-2.6380565203432127e-06,0.01883090666010756,-2.1326077259686826e-06,-0.035471501848227116
106,0.077215,321.228,321.247,-0.0629326,321.439,-0.0867992,-0.0166634,0.0189272,0.0188854,-0.036579,0.110945,-4.91817e-06,-1.83987e-06,0.0713132,0.01910745489407306,0.11733345182461008,-4.918157905819953e-06,0.019064857092758736,-1.8398683074849487e-06,-0.03591807158451776
107,0.078215,322.283,322.807,0.237668,322.095,0.0680392,-0.0447282,0.0191596,0.0191211,-0.0370415,0.112333,-2.69206e-06,-2.3647e-06,0.0722332,0.019344322989596874,0.1188853874499105,-2.6920563763743743e-06,0.019305078988613777,-2.364697204049193e-06,-0.036363856380729365
108,0.079215,322.56,322.449,-0.222517,322.938,-0.128688,-0.0386619,0.0193929,0.0193493,-0.0375041,0.113726,-5.70448e-06,-2.44932e-06,0.0731546,0.01958216376319788,0.12044508086888572,-5.704463729494513e-06,0.01953771094993617,-2.4493170004413756e-06,-0.0368095313681952
109,0.080215,323.717,324.206,0.206752,323.566,0.0563148,-0.0455949,0.0196249,0.0195851,-0.0379655,0.11511,-3.15203e-06,-2.71194e-06,0.0740728,0.01981873426630809,0.12199685043765451,-3.1520250323158194e-06,0.019778146288390586,-2.7119363227301463e-06,-0.03725384493939865
110,0.081215,323.989,323.856,-0.243176,324.392,-0.13641,-0.0393825,0.0198579,0.0198129,-0.0384272,0.1165,-6.14411e-06,-2.79768e-06,0.0749927,0.02005637971601204,0.12355751046720398,-6.144091124982154e-06,0.02001047821171631,-2.7976760864634187e-06,-0.03769824224217855
111,0.082215,325.148,325.636,0.203744,325.002,0.0552373,-0.0457698,0.0200894,0.0200484,-0.0388877,0.117882,-3.51427e-06,-3.05317e-06,0.0759092,0.020292550103583995,0.12511134039584237,-3.5142638249441305e-06,0.02025071896657371,-3.0531653391063784e-06,-0.03814128018431062
112,0.083215,325.842,326.316,0.191038,325.71,0.0507192,-0.0462235,0.0203211,0.02028,-0.0393484,0.119266,-3.35745e-06,-3.24282e-06,0.0768263,0.02052897927670494,0.12666957253886602,-3.3574443637496287e-06,0.020487036397588643,-3.2428147420660025e-06,-0.03858430643759636
113,0.084215,326.29,326.358,-0.0533029,326.481,-0.0749265,-0.022497,0.0205532,0.0205087,-0.0398087,0.120651,-5.24517e-06,-3.03487e-06,0.0777433,0.020765871543078962,0.12823109099875385,-5.245156244115812e-06,0.020720448472466124,-3.0348653947687154e-06,-0.03902674424646957
114,0.085215,326.795,326.68,-0.250912,327.2,-0.133875,-0.0425983,0.0207849,0.020738,-0.0402685,0.122033,-6.54703e-06,-3.4583e-06,0.0786592,0.02100241039748374,0.12979138428083536,-6.54700856828061e-06,0.020954526507322102,-3.458294020042274e-06,-0.03946849818245235
115,0.086215,327.932,328.423,0.209913,327.787,0.0537114,-0.0432387,0.0210156,0.0209725,-0.0407273,0.12341,-3.97629e-06,-3.62969e-06,0.0795726,0.02123798282579714,0.13134817862390502,-3.9762820945865585e-06,0.021193968417254627,-3.629683412720297e-06,-0.03990908895623413
116,0.087215,328.17,328.054,-0.235595,328.567,-0.133867,-0.0399246,0.0212472,0.0211991,-0.0411866,0.124792,-6.88397e-06,-3.75336e-06,0.0804878,0.021474528933601578,0.1329127826991563,-6.883946305547006e-06,0.02142539719038772,-3.753352956104017e-06,-0.040349957458474695
117,0.088215,328.837,328.721,-0.240663,329.239,-0.134389,-0.0410884,0.0214782,0.0214289,-0.0416448,0.12617,-7.45116e-06,-3.93071e-06,0.0814009,0.02171051680533509,0.13447501264293926,-7.451132240210434e-06,0.021660147718464806,-3.9307022747792075e-06,-0.04078956838541259
118,0.089215,330.003,330.534,0.270309,329.8,0.0650772,-0.0279927,0.0217082,0.0216631,-0.0421023,0.127543,-4.68541e-06,-3.86491e-06,0.0823118,0.02194553725051529,0.13603371664072927,-4.685399023429682e-06,0.021899448546093492,-3.864902531236503e-06,-0.04122830678881395
119,0.090215,330.599,331.096,0.199229,330.463,0.0540341,-0.0466179,0.0219383,0.021893,-0.0425603,0.128918,-4.60135e-06,-4.28162e-06,0.0832235,0.022180713974681243,0.13759683740035955,-4.6013394138233465e-06,0.0221344102371257,-4.2816108338783465e-06,-0.04166732368176196
120,0.091215,331.014,331.104,-0.0278829,331.188,-0.0712429,-0.0191281,0.0221688,0.0221202,-0.0430176,0.130294,-6.46316e-06,-4.01294e-06,0.084135,0.022416353785697396,0.13916324809202796,-6.463139113788152e-06,0.022366665558336996,-4.012931948182974e-06,-0.04210546902507406
121,0.092215,331.475,331.391,-0.227962,331.86,-0.127424,-0.0418639,0.022399,0.0223481,-0.0434746,0.131668,-7.69316e-06,-4.46478e-06,0.0850454,0.022651741122381663,0.14072953418704093,-7.693130407715465e-06,0.02259968947348434,-4.4647700329081275e-06,-0.04254312681330796
122,0.093215,332.088,331.984,-0.262641,332.503,-0.133143,-0.047728,0.0226289,0.0225767,-0.0439309,0.13304,-8.31279e-06,-4.72736e-06,0.0859547,0.02288687578535953,0.14229568924463964,-8.312755448880438e-06,0.02283348248402084,-4.727348826061295e-06,-0.04297991472380269
123,0.094215,333.251,333.799,0.289544,333.037,0.0671947,-0.0242816,0.0228578,0.0228099,-0.0443862,0.134407,-5.52982e-06,-4.51528e-06,0.0868617,0.023121041390457897,0.14385827523603,-5.529804710580066e-06,0.0230720350662863,-4.515269806160127e-06,-0.04341554678946369
124,0.095215,333.8,334.3,0.19594,333.671,0.0526276,-0.0468807,0.0230869,0.0230387,-0.0448423,0.135776,-5.49885e-06,-4.98139e-06,0.0877695,0.023355465273271037,0.14542528959141787,-5.498834881323411e-06,0.023306140728575953,-4.9813775928608806e-06,-0.04385174547590076
125,0.096215,334.202,334.313,-0.0138773,334.365,-0.0674316,-0.0183875,0.0233163,0.0232649,-0.0452975,0.137145,-7.27603e-06,-4.69717e-06,0.088677,0.023590249945776964,0.14699445065854722,-7.276003529788078e-06,0.023537638759048907,-4.697158968336446e-06,-0.04428688511606438
126,0.097215,335.127,335.721,0.275091,334.897,0.0818582,-0.0343087,0.0235445,0.0234965,-0.0457523,0.138509,-5.07594e-06,-5.02009e-06,0.0895822,0.023823859894696042,0.14856001856382917,-5.0759271174039e-06,0.02377471752884719,-5.020077399331413e-06,-0.0447214446143932
127,0.098215,335.256,335.189,-0.203361,335.624,-0.123867,-0.0394444,0.0237737,0.0237204,-0.0462071,0.139878,-8.15544e-06,-5.24737e-06,0.0904889,0.02405854721752365,0.1501334740137561,-8.15540674448112e-06,0.024003966351549888,-5.2473562325294765e-06,-0.045155806519998176
128,0.099215,335.852,335.776,-0.217137,336.233,-0.126776,-0.0414158,0.0240023,0.0239479,-0.0466609,0.141242,-8.7052e-06,-5.43356e-06,0.0913934,0.024292673761062034,0.151703326468293,-8.705162109823306e-06,0.02423695375520718,-5.433545238187065e-06,-0.045589016512217806
129,0.1002,336.911,337.431,0.24945,336.739,0.0570321,-0.0290297,0.02423,0.0241794,-0.047114,0.142602,-6.17382e-06,-5.37839e-06,0.0922959,0.02452593175829243,0.1532707085705336,-6.173800942033125e-06,0.024474092057700902,-5.37837553649112e-06,-0.04602136217352981
130,0.1012,337.049,336.971,-0.218956,337.434,-0.128518,-0.041003,0.0244585,0.024403,-0.0475676,0.143967,-9.01626e-06,-5.69649e-06,0.0932001,0.024760062682138706,0.1548459979781598,-9.016219353674693e-06,0.024703190076889037,-5.6964737750186956e-06,-0.04645398875652107
131,0.1022,337.656,337.602,-0.204351,338.023,-0.121544,-0.0417822,0.0246864,0.02463,-0.0480202,0.145327,-9.41719e-06,-5.86791e-06,0.0941023,0.024993632114649778,0.1564176570213145,-9.417145658385806e-06,0.024935824103999638,-5.867892783895101e-06,-0.046885466030537226
132,0.1032,338.658,339.147,0.219636,338.523,0.045744,-0.0301903,0.0249135,0.0248606,-0.0484721,0.146683,-7.13908e-06,-5.82733e-06,0.0950025,0.025226434602224845,0.15798682301834122,-7.13905451688035e-06,0.025172201558311125,-5.827313021122826e-06,-0.047316081183615966
133,0.1042,338.84,338.806,-0.189277,339.191,-0.116235,-0.0413924,0.0251413,0.0250841,-0.0489245,0.148044,-9.63359e-06,-6.13568e-06,0.0959043,0.02546000778700308,0.15956391605283882,-9.633543597176164e-06,0.025401353152096018,-6.135661176798202e-06,-0.047746977912299315
134,0.1052,339.844,340.416,0.241835,339.669,0.0697381,-0.0459589,0.0253679,0.0253146,-0.0493757,0.149397,-7.02766e-06,-6.35844e-06,0.0968029,0.025692403354190763,0.1611338678641614,-7.027635306022795e-06,0.02563773540600578,-6.358419785135183e-06,-0.04817653755992135
135,0.1062,339.964,339.891,-0.214847,340.35,-0.129159,-0.040118,0.0255954,0.025537,-0.0498273,0.150756,-1.00332e-05,-6.4501e-06,0.0977033,0.02592577492096315,0.1627129215145171,-1.0033149667632024e-05,0.025865862605164436,-6.450079198194736e-06,-0.048606283991511345
136,0.1072,340.549,340.506,-0.198921,340.914,-0.120337,-0.0416703,0.0258223,0.025763,-0.0502778,0.15211,-1.04001e-05,-6.62931e-06,0.0986016,0.026158583890471432,0.16428830110154746,-1.0400045919123357e-05,0.026097734490649227,-6.629288026194224e-06,-0.04903479033227276
137,0.1082,341.514,341.999,0.210956,341.392,0.0424221,-0.0306503,0.0260483,0.0259924,-0.0507277,0.15346,-8.19326e-06,-6.59633e-06,0.099498,0.026390521938442824,0.16586115174334126,-8.193226435304624e-06,0.026333148311874277,-6.596308244288807e-06,-0.04946253335209505
138,0.1092,342.109,342.695,0.240942,341.933,0.0724818,-0.0478611,0.0262743,0.0262192,-0.051178,0.154812,-7.53244e-06,-6.99158e-06,0.100395,0.026622512410336974,0.16743846204199575,-7.532411631205882e-06,0.026565947068292628,-6.991555558943929e-06,-0.0498904640175063
139,0.1102,342.289,342.276,-0.127452,342.592,-0.111716,-0.0228869,0.0265009,0.0264411,-0.0516277,0.156165,-1.02793e-05,-6.77403e-06,0.101292,0.026855171430920644,0.1690190753249008,-1.0279247168232253e-05,0.026793767327669915,-6.774007056287168e-06,-0.05031763221986851
140,0.1112,343.202,343.77,0.227582,343.043,0.0665451,-0.0478126,0.0267262,0.0266702,-0.0520768,0.157512,-7.78667e-06,-7.25671e-06,0.102186,0.027086547964631835,0.17059480503507163,-7.786639683926566e-06,0.027029032728387303,-7.2566836701870585e-06,-0.05074403881447087
141,0.1122,343.331,343.295,-0.189965,343.692,-0.120318,-0.039821,0.0269524,0.0268916,-0.0525259,0.158863,-1.06001e-05,-7.31897e-06,0.103082,0.027318901219943736,0.17217734738332546,-1.0600043819142257e-05,0.02725644212952516,-7.318943216372276e-06,-0.05117025395286634
142,0.1132,344.305,344.895,0.243553,344.13,0.072244,-0.0472242,0.0271773,0.0271206,-0.0529739,0.160207,-7.90598e-06,-7.5778e-06,0.103974,0.027549971223676195,0.1737538128857241,-7.90594874777728e-06,0.02749171079200652,-7.5777712885694015e-06,-0.05159523447635028
143,0.1142,344.394,344.334,-0.208804,344.777,-0.128047,-0.040047,0.0274031,0.0273413,-0.0534223,0.161556,-1.0916e-05,-7.65191e-06,0.104868,0.02778201820429671,0.17533827525889367,-1.0915940420685999e-05,0.02771850323820435,-7.651880724157678e-06,-0.05202040384311524
144,0.1152,344.954,344.938,-0.183555,345.304,-0.114947,-0.0418074,0.0276283,0.0275658,-0.0538697,0.1629,-1.11992e-05,-7.8318e-06,0.10576,0.028013500778755862,0.17691899190448535,-1.1199137289197303e-05,0.027949251942754216,-7.831769331501093e-06,-0.05244443505158136
145,0.1162,345.848,346.315,0.188885,345.757,0.0337073,-0.0314272,0.0278527,0.0277932,-0.0543164,0.164241,-9.20476e-06,-7.80809e-06,0.106651,0.028244212893261622,0.17849829896134128,-9.204717636324133e-06,0.0281830341826792,-7.808059516944965e-06,-0.05286761359847858
146,0.1172,346.398,346.947,0.205968,346.268,0.058071,-0.0481152,0.0280771,0.0280182,-0.0547635,0.165583,-8.67624e-06,-8.1954e-06,0.107541,0.02847497678537536,0.1800809053699295,-8.676202361557195e-06,0.0284144013932055,-8.195366417829142e-06,-0.05329098183741632
147,0.1182,346.613,346.656,-0.0931594,346.878,-0.0974863,-0.0234874,0.028302,0.0282391,-0.05521,0.166926,-1.10018e-05,-7.98294e-06,0.108432,0.028706306819741734,0.18166681872829216,-1.1001739480431816e-05,0.02864160322799192,-7.982908136416889e-06,-0.05371359305904966
148,0.1192,347.414,347.927,0.181338,347.316,0.0466494,-0.0476494,0.0285257,0.0284658,-0.055656,0.168263,-9.01714e-06,-8.45398e-06,0.10932,0.028936454161597736,0.1832477638912693,-9.017099345753898e-06,0.02887482271387376,-8.45394426518542e-06,-0.05413554269478216
149,0.1202,347.941,348.487,0.188083,347.824,0.0570074,-0.052395,0.0287495,0.02869,-0.0561018,0.169602,-8.66913e-06,-8.70788e-06,0.110209,0.02916675590984341,0.1848331938556016,-8.669092423252422e-06,0.02910552230958441,-8.707842086508322e-06,-0.054557115094379105
150,0.1212,348.178,348.253,-0.0733667,348.419,-0.0885131,-0.0236786,0.0289738,0.0289105,-0.0565471,0.170941,-1.08319e-05,-8.44414e-06,0.111097,0.029397623904071635,0.18642074813256593,-1.0831841335212644e-05,0.02933246509677656,-8.444104348304116e-06,-0.05497802708801691
151,0.1222,348.538,348.469,-0.231983,348.948,-0.13471,-0.0419038,0.0291977,0.0291324,-0.0569921,0.172279,-1.19284e-05,-8.83335e-06,0.111984,0.029628131836463734,0.18800924155868692,-1.1928328856880555e-05,0.02956089931462058,-8.83331098611162e-06,-0.05539846831085249
152,0.1232,349.583,350.22,0.325662,349.339,0.0838376,-0.0254065,0.0294204,0.0293599,-0.0574359,0.17361,-8.86689e-06,-8.70183e-06,0.112869,0.029857455555672097,0.18959153464165412,-8.866850689237538e-06,0.02979515106434083,-8.701792139187425e-06,-0.05581758946075388
153,0.1242,349.536,349.45,-0.236202,349.956,-0.13966,-0.0409439,0.0296443,0.0295781,-0.0578806,0.174948,-1.22045e-05,-9.06552e-06,0.113755,0.03008806645589801,0.19118427341963118,-1.2204425525408347e-05,0.03001987688299823,-9.065478908332203e-06,-0.056237374032703125
154,0.1252,350.079,350.063,-0.189252,350.442,-0.118803,-0.0418306,0.0298674,0.0298007,-0.058324,0.17628,-1.23947e-05,-9.23139e-06,0.11464,0.030317904741031576,0.1927719880550265,-1.2394623186029463e-05,0.030249184828619935,-9.231347390836753e-06,-0.05665574562122144
155,0.1262,350.929,351.393,0.174445,350.858,0.0291643,-0.0331066,0.0300898,0.0300261,-0.0587669,0.177609,-1.04275e-05,-9.23146e-06,0.115523,0.030547072925603436,0.1943582358553404,-1.042744563384268e-05,0.03048142916783414,-9.23141739017641e-06,-0.05707346028174598
156,0.1272,351.44,351.98,0.189727,351.334,0.0517512,-0.048719,0.0303121,0.030249,-0.05921,0.178939,-9.94993e-06,-9.60422e-06,0.116406,0.03077618900522361,0.19594778912764066,-9.949880499626751e-06,0.030711149079728717,-9.604173879629307e-06,-0.05749117847919394
157,0.1282,351.649,351.721,-0.0798046,351.902,-0.0918769,-0.0244091,0.030535,0.0304681,-0.0596526,0.18027,-1.20975e-05,-9.39849e-06,0.117289,0.031005974626409083,0.19754065545235377,-1.2097426825508073e-05,0.030937002633845356,-9.398445834363223e-06,-0.05790824058094757
158,0.1292,351.995,351.937,-0.228431,352.404,-0.133814,-0.0422997,0.0307574,0.0306887,-0.0600949,0.181599,-1.31297e-05,-9.78334e-06,0.118171,0.031235295854741274,0.19913324502481267,-1.3129613805840101e-05,0.03116445242341581,-9.783292143294986e-06,-0.0583248356293522
159,0.1302,352.998,353.627,0.310589,352.775,0.0784169,-0.0263243,0.0309788,0.0309147,-0.060536,0.182922,-1.01709e-05,-9.65963e-06,0.11905,0.031463636625634006,0.20072074820978303,-1.0170848276591649e-05,0.03139752192552514,-9.659583345977829e-06,-0.05874011694732795
160,0.1312,352.962,352.908,-0.217006,353.362,-0.132233,-0.0412537,0.0312012,0.0311317,-0.0609779,0.184252,-1.33128e-05,-1.00157e-05,0.119931,0.03169305964931435,0.20231876925333436,-1.3312711385049525e-05,0.0316213594732786,-1.0015649843042596e-05,-0.05915596780063581
161,0.1322,353.892,354.508,0.243996,353.726,0.0733308,-0.048179,0.0314221,0.0313571,-0.0614185,0.185572,-1.04596e-05,-1.02611e-05,0.120809,0.03192098581970937,0.20390687794989515,-1.0459545298546757e-05,0.03185391313551711,-1.0261047355131225e-05,-0.059570412372379034
162,0.1332,353.927,353.902,-0.194302,354.304,-0.124237,-0.0404218,0.0316441,0.0315741,-0.0618595,0.186899,-1.34039e-05,-1.03281e-05,0.121689,0.03215009770904009,0.20550552284322965,-1.3403810168122199e-05,0.032077849730909325,-1.032804666534215e-05,-0.0599850503861209
163,0.1342,354.807,355.393,0.219672,354.67,0.0634772,-0.0484355,0.0318647,0.0317988,-0.0622993,0.188218,-1.08122e-05,-1.05887e-05,0.122566,0.03237781513690363,0.20709663373481346,-1.0812141548410814e-05,0.032309783680547266,-1.058864393987946e-05,-0.060398378063542535
164,0.1352,354.881,354.89,-0.172055,355.232,-0.114537,-0.040737,0.0320863,0.0320158,-0.0627395,0.189542,-1.34733e-05,-1.06557e-05,0.123444,0.03260661541087195,0.2086958881506804,-1.347320923550388e-05,0.03253381921058174,-1.0655643228218992e-05,-0.06081189967473477
165,0.1362,355.71,356.264,0.196637,355.602,0.0531918,-0.0481029,0.0323066,0.0322396,-0.0631786,0.190859,-1.11712e-05,-1.09077e-05,0.124319,0.032834123707365714,0.21028878933056272,-1.1171137602405956e-05,0.03276492613922177,-1.0907640511259586e-05,-0.06122420664096839
166,0.1372,356.189,356.786,0.213265,356.053,0.0663585,-0.0519228,0.0325269,0.0324605,-0.0636179,0.192177,-1.07608e-05,-1.11413e-05,0.125194,0.03306168212945826,0.21188500162773605,-1.0760742102822185e-05,0.032993089111078344,-1.1141237935996529e-05,-0.06163652027567035
167,0.1382,356.329,356.396,-0.0940259,356.601,-0.0969313,-0.0254108,0.0327479,0.0326773,-0.0640567,0.193497,-1.31677e-05,-1.09134e-05,0.12607,0.03329001399095044,0.2134857460888009,-1.3167613306164228e-05,0.033217066291046704,-1.0913340449114628e-05,-0.0620481838449809
168,0.1392,356.645,356.574,-0.240893,357.074,-0.140872,-0.0419337,0.0329683,0.0328958,-0.0644951,0.194815,-1.42411e-05,-1.12782e-05,0.126944,0.033517776208508376,0.21508617475295688,-1.424099859603789e-05,0.03344284888588156,-1.1278136401338124e-05,-0.062459291799735195
169,0.1402,357.633,358.281,0.312334,357.409,0.0815022,-0.0279801,0.0331877,0.03312,-0.0649324,0.196126,-1.11474e-05,-1.11809e-05,0.127816,0.03374455488531969,0.21668019738158462,-1.1147337868000484e-05,0.033674572747876,-1.1180837493962592e-05,-0.06286918872093727
170,0.1412,357.569,357.528,-0.211715,357.968,-0.131444,-0.0410811,0.0334081,0.0333351,-0.0653705,0.197444,-1.43072e-05,-1.15136e-05,0.12869,0.03397241729473155,0.21828483910834295,-1.4307097652488387e-05,0.033896940063221415,-1.151353371875441e-05,-0.06327965580997763
171,0.1422,358.449,359.056,0.228455,358.306,0.0673068,-0.0485583,0.0336271,0.0335584,-0.0658073,0.198753,-1.15651e-05,-1.17626e-05,0.129561,0.03419888205110477,0.21988061817227167,-1.1565033124494306e-05,0.03412783502840089,-1.1762530820913497e-05,-0.06368872590890629
172,0.1432,358.491,358.502,-0.173981,358.847,-0.116274,-0.0407026,0.0338471,0.0337737,-0.0662444,0.200068,-1.42969e-05,-1.18276e-05,0.130433,0.03442643083460428,0.22148581637167197,-1.4296797799850935e-05,0.03435050672103013,-1.182753005424253e-05,-0.06409789813570677
173,0.1442,359.294,359.85,0.191108,359.196,0.0512171,-0.0484218,0.0340658,0.033996,-0.0666805,0.201376,-1.20068e-05,-1.20813e-05,0.131302,0.03465268463497928,0.22308456517326558,-1.2006727918678628e-05,0.03458046839796758,-1.2081227021343288e-05,-0.06450595605883247
174,0.1452,359.747,360.339,0.20391,359.625,0.062537,-0.0520745,0.0342846,0.0342152,-0.0671167,0.202685,-1.16374e-05,-1.23106e-05,0.132172,0.034879091410375374,0.22468663119252774,-1.1637332285707735e-05,0.034807273293548935,-1.2310524224901087e-05,-0.06491392957530684
175,0.1462,359.883,359.97,-0.0847945,360.147,-0.0930707,-0.0259193,0.034504,0.0344306,-0.0675525,0.203996,-1.39291e-05,-1.20884e-05,0.133042,0.03510616879250872,0.22629324827340724,-1.3929002990575867e-05,0.0350301947879994,-1.2088326935555394e-05,-0.06532135130115568
176,0.1472,360.187,360.149,-0.220993,360.597,-0.133195,-0.0420891,0.0347229,0.0346478,-0.0679878,0.205304,-1.49188e-05,-1.24475e-05,0.13391,0.03533277833436688,0.22789828931015288,-1.4918688715281903e-05,0.03525502776228451,-1.2447422530148522e-05,-0.06572812837548092
177,0.1482,361.11,361.734,0.287256,360.919,0.0716834,-0.0287627,0.0349407,0.03487,-0.0684222,0.206606,-1.20831e-05,-1.23593e-05,0.134776,0.035558298371728636,0.22949805410372148,-1.2083026999620827e-05,0.03548508698808672,-1.2359223624192062e-05,-0.06613388793915664
178,0.1492,361.076,361.08,-0.184159,361.446,-0.11998,-0.0414759,0.0351595,0.035084,-0.0688572,0.207915,-1.49281e-05,-1.26863e-05,0.135644,0.03578490331708939,0.23110852087708755,-1.4927988576496354e-05,0.035706704508930986,-1.2686219529212117e-05,-0.06654003135530573
179,0.1502,361.877,362.445,0.196288,361.776,0.053179,-0.0483498,0.035377,0.0353053,-0.069291,0.209215,-1.25606e-05,-1.29255e-05,0.136509,0.036010211034886996,0.23271000269186537,-1.2560521115978496e-05,0.035935931765699314,-1.2925416466136319e-05,-0.06694487847201547
180,0.1512,362.313,362.916,0.207136,362.19,0.0639691,-0.0521818,0.0355947,0.0355233,-0.069725,0.210518,-1.21952e-05,-1.31553e-05,0.137374,0.036235775009576976,0.23431727073309894,-1.219512563888081e-05,0.03616179041652279,-1.3155213469451255e-05,-0.06734973653420429
181,0.1522,362.43,362.522,-0.0855101,362.698,-0.0936407,-0.0261713,0.0358129,0.0357376,-0.0701585,0.211822,-1.45111e-05,-1.29362e-05,0.138239,0.036461906325713445,0.23592787033685236,-1.4510994714500569e-05,0.036383863682509565,-1.2936116327688651e-05,-0.06775395280321028
182,0.1532,362.724,362.694,-0.217402,363.132,-0.132411,-0.0420694,0.0360306,0.0359536,-0.0705917,0.213123,-1.54757e-05,-1.32906e-05,0.139103,0.03668756864517286,0.23753685891628362,-1.547558025194462e-05,0.03660774677556855,-1.3290511680419392e-05,-0.068157714329795
183,0.1542,363.62,364.241,0.278644,363.442,0.0687656,-0.029403,0.0362473,0.0361746,-0.0710238,0.214419,-1.26985e-05,-1.32108e-05,0.139965,0.03691224318390529,0.23914174642791375,-1.2698419374346237e-05,0.03683686240395034,-1.3210712737743435e-05,-0.06856027640163398
184,0.1552,363.591,363.614,-0.173539,363.95,-0.115855,-0.0416155,0.036465,0.0363876,-0.0714566,0.21572,-1.54364e-05,-1.35313e-05,0.140828,0.03713800355237096,0.24075491898122436,-1.543628085942661e-05,0.03705773217743835,-1.3531208452377541e-05,-0.06896331628988417
185,0.1562,364.352,364.907,0.1821,364.271,0.0470247,-0.0483661,0.0366814,0.0366075,-0.0718882,0.217015,-1.32212e-05,-1.37672e-05,0.141689,0.037362464502138426,0.24236273743906045,-1.3221112600270146e-05,0.03728580624856903,-1.3767105232487253e-05,-0.06936506501896134
186,0.1572,364.769,365.349,0.187246,364.673,0.0551811,-0.0520438,0.0368979,0.0368244,-0.0723199,0.21831,-1.29227e-05,-1.39929e-05,0.14255,0.03758707778921422,0.2439726393705577,-1.2922616502319961e-05,0.0375108179415804,-1.39928020997937e-05,-0.0697667334140315
187,0.1582,364.908,365.029,-0.0686826,365.158,-0.086149,-0.0267085,0.0371149,0.0370378,-0.0727512,0.219607,-1.50042e-05,-1.37825e-05,0.14341,0.03781225861633053,0.24558711864730798,-1.5004087437597846e-05,0.03773224637570283,-1.3782405021811606e-05,-0.07016785651349555
188,0.1592,365.198,365.211,-0.19025,365.575,-0.120897,-0.0424633,0.0373315,0.0372528,-0.0731821,0.220902,-1.58723e-05,-1.41348e-05,0.14427,0.03803707309807636,0.24720119885732106,-1.5872174035758135e-05,0.03795538279497901,-1.4134700104140308e-05,-0.07056843487331821
189,0.1602,366.026,366.615,0.251294,365.883,0.0572019,-0.0297408,0.0375471,0.0374722,-0.073612,0.222191,-1.34275e-05,-1.40557e-05,0.145128,0.03826089801849575,0.24880987777347174,-1.3427409851551886e-05,0.03818313518948835,-1.4055601219142844e-05,-0.07096791162948501
190,0.1612,366.406,367.031,0.224241,366.273,0.0674843,-0.0497849,0.0377628,0.0376884,-0.0740424,0.223482,-1.30619e-05,-1.44774e-05,0.145985,0.038484875049252576,0.2504231324575108,-1.3061814693737794e-05,0.03840761464867137,-1.4477295202985907e-05,-0.0713676810037791
191,0.1622,366.492,366.589,-0.0780092,366.76,-0.0944741,-0.0244452,0.0379791,0.0379007,-0.0744723,0.224775,-1.54306e-05,-1.42614e-05,0.146844,0.03870952362259317,0.2520409752777626,-1.543048094887478e-05,0.0386280919881028,-1.4261298306728065e-05,-0.07176681423787978
192,0.1632,366.763,366.745,-0.211708,367.169,-0.131507,-0.0418568,0.038195,0.0381148,-0.0749017,0.226066,-1.63622e-05,-1.46324e-05,0.1477,0.038933805219070416,0.2536584040024432,-1.6362066139974374e-05,0.03885048606903441,-1.4632292946958891e-05,-0.07216531200425247
193,0.1642,367.621,368.238,0.268487,367.459,0.0647604,-0.0298348,0.0384098,0.0383339,-0.0753302,0.22735,-1.36628e-05,-1.45585e-05,0.148555,0.0391569921698518,0.2552691352613554,-1.3662706664363533e-05,0.039078123147263444,-1.4558394025532273e-05,-0.0725628039993167
194,0.1652,367.994,368.652,0.24365,367.838,0.0765234,-0.0502991,0.0386247,0.0385494,-0.0757591,0.228637,-1.32486e-05,-1.49856e-05,0.14941,0.03938033100436722,0.25688570667900756,-1.3248512237717947e-05,0.03930206861205865,-1.4985487716501211e-05,-0.07296049652142356
195,0.1662,368.039,368.117,-0.0920197,368.326,-0.101195,-0.0243374,0.0388403,0.0387606,-0.0761875,0.229926,-1.58375e-05,-1.47636e-05,0.150265,0.03960444556241316,0.258506876974705,-1.583737458743517e-05,0.03952159238984465,-1.4763491018587871e-05,-0.0733575551886747
196,0.1672,368.299,368.26,-0.2275,368.727,-0.139295,-0.0415086,0.0390554,0.038974,-0.0766155,0.231212,-1.68066e-05,-1.51301e-05,0.151119,0.03982808853059261,0.26012635792155225,-1.6806458769891286e-05,0.03974344996902235,-1.5129985540651703e-05,-0.07375407329412642
197,0.1682,369.174,369.811,0.277521,369.002,0.0695245,-0.0304607,0.0392695,0.0391925,-0.0770425,0.232492,-1.39332e-05,-1.50673e-05,0.151971,0.04005073955828897,0.2617403523957913,-1.393310293340555e-05,0.039970658734494124,-1.5067186488804118e-05,-0.07414949587610042
198,0.1692,369.124,369.168,-0.16484,369.479,-0.113441,-0.0417027,0.0394845,0.039403,-0.0774701,0.233778,-1.66345e-05,-1.53759e-05,0.152824,0.0402743745071894,0.263363994266931,-1.663436164744958e-05,0.04018959560045454,-1.537578179144905e-05,-0.074545304921659
199,0.1702,369.41,369.338,-0.263492,369.875,-0.149967,-0.0448611,0.0396991,0.0396158,-0.0778969,0.23506,-1.76169e-05,-1.55773e-05,0.153676,0.04049764134363354,0.26498466553589695,-1.7616744823367725e-05,0.04041097149995854,-1.5577178674508474e-05,-0.07494020470790963
200,0.1712,370.314,370.971,0.280287,370.136,0.0743065,-0.0327688,0.0399125,0.0398342,-0.0783227,0.236337,-1.45327e-05,-1.55059e-05,0.154525,0.04071970723388385,0.2666010828165586,-1.45325944008734e-05,0.040638222070993324,-1.5505779784152907e-05,-0.07533401132136697
201,0.1722,370.246,370.279,-0.173269,370.613,-0.117709,-0.0414894,0.040127,0.0400439,-0.0787493,0.237619,-1.73612e-05,-1.57832e-05,0.155376,0.04094296555468446,0.2682259066942987,-1.7361049295283593e-05,0.040856466788320445,-1.5783075445918726e-05,-0.07572838970524698
202,0.1732,370.958,371.512,0.168536,370.9,0.0417818,-0.0490156,0.0403402,0.0402605,-0.0791747,0.238895,-1.52086e-05,-1.60234e-05,0.156225,0.04116491825425772,0.2698451958380068,-1.5208484349882312e-05,0.0410819407169718,-1.602327162597561e-05,-0.07612149122964407
203,0.1742,371.333,371.902,0.167873,371.268,0.0468278,-0.0522829,0.0405536,0.0404741,-0.0796002,0.240172,-1.49838e-05,-1.62397e-05,0.157073,0.04138712655659593,0.2714678239806556,-1.498368774344172e-05,0.04130433957086077,-1.623956813678884e-05,-0.0765145179127692
204,0.1752,371.473,371.634,-0.0524632,371.709,-0.0789123,-0.0279363,0.0407674,0.0406847,-0.0800253,0.24145,-1.6837e-05,-1.6044e-05,0.157922,0.04160979892708183,0.2730937986362012,-1.6836858258484355e-05,0.041523661358548125,-1.6043871295723378e-05,-0.07690700816149154
205,0.1762,372.148,372.801,0.247093,371.991,0.0727074,-0.0388531,0.04098,0.0409007,-0.0804498,0.242722,-1.46775e-05,-1.62903e-05,0.158768,0.0418312687117377,0.27471420430759097,-1.4677392285999957e-05,0.041748654767814974,-1.6290167313748327e-05,-0.0772987779775004
206,0.1772,372.455,373.056,0.186525,372.365,0.0560452,-0.0528306,0.0411929,0.0411134,-0.0808744,0.243997,-1.46968e-05,-1.66451e-05,0.159615,0.04205309820175773,0.2763405014622067,-1.4696692002602596e-05,0.04197025827338141,-1.6644961471135034e-05,-0.07769047375347315
207,0.1782,372.591,372.775,-0.0293481,372.803,-0.0719538,-0.0261475,0.0414061,0.0413235,-0.0812984,0.245272,-1.65532e-05,-1.64139e-05,0.160461,0.04227528760684329,0.27796887346813137,-1.6553062996527146e-05,0.042189199223586105,-1.641376529271099e-05,-0.07808145009975898
208,0.1792,373.227,373.868,0.233305,373.085,0.0686801,-0.040224,0.0416182,0.0415387,-0.0817219,0.246541,-1.45471e-05,-1.67051e-05,0.161305,0.042496377641114025,0.27959164539958214,-1.4546994191455553e-05,0.042413502473423126,-1.6704960470570462e-05,-0.07847179994322817
209,0.1802,373.524,374.104,0.169632,373.456,0.0489601,-0.0529621,0.0418305,0.0417508,-0.0821454,0.247812,-1.46302e-05,-1.70445e-05,0.16215,0.04271772311707811,0.2812190403713095,-1.4630092979195375e-05,0.04263462182617617,-1.7044354743367407e-05,-0.07886198450853876
210,0.1812,373.684,373.889,-0.0166711,373.881,-0.0659214,-0.026575,0.0420432,0.0419605,-0.0825683,0.249083,-1.62997e-05,-1.68166e-05,0.162994,0.042939532765404964,0.28284850507708326,-1.6299567160649175e-05,0.04285328523242993,-1.6816458601742745e-05,-0.07925145141670797
211,0.1822,374.276,374.879,0.206122,374.167,0.0566804,-0.0404116,0.0422548,0.0421749,-0.0829907,0.25035,-1.45625e-05,-1.71071e-05,0.163837,0.043160242120764414,0.2844749042393153,-1.4562393967354481e-05,0.04307689694710293,-1.7106953674406178e-05,-0.07964029347440549
212,0.1832,374.568,375.109,0.142905,374.533,0.0365715,-0.0524624,0.0424666,0.0423863,-0.0834131,0.251618,-1.46935e-05,-1.74358e-05,0.164679,0.04338120685938529,0.286104651459266,-1.4693392051068344e-05,0.04329742671229253,-1.7435647997277037e-05,-0.08002897131990183
213,0.1842,374.766,374.998,-0.000171842,374.942,-0.057905,-0.0272333,0.0426787,0.042596,-0.0838349,0.252886,-1.60778e-05,-1.72216e-05,0.165521,0.043602531484006946,0.28773646650941864,-1.6077670752845385e-05,0.043516229123305106,-1.7221451709126256e-05,-0.08041693327287114
214,0.1852,375.297,375.847,0.168135,375.236,0.0395464,-0.040481,0.0428898,0.0428092,-0.0842564,0.254149,-1.47162e-05,-1.75079e-05,0.166361,0.04382285923317908,0.2893639051778025,-1.4716091717215107e-05,0.043738730501158285,-1.750774673758837e-05,-0.08080445585937424
215,0.1862,375.309,375.327,-0.160591,375.678,-0.126065,-0.0292909,0.0431018,0.0430169,-0.0846776,0.255416,-1.72306e-05,-1.74901e-05,0.167203,0.04404417313778142,0.2909985645837214,-1.723045155410663e-05,0.04395553755011594,-1.7489947049087462e-05,-0.08119153949702951
216,0.1872,375.599,375.572,-0.226623,376.032,-0.140073,-0.0421654,0.0433131,0.0432271,-0.0850983,0.25668,-1.78826e-05,-1.77987e-05,0.168042,0.044264802980287454,0.29263141851564,-1.788244010725304e-05,0.0441750000688117,-1.779854160410821e-05,-0.08157800091850309
217,0.1882,376.389,376.984,0.228901,376.278,0.0519888,-0.0336701,0.0435236,0.0434417,-0.0855182,0.257939,-1.52825e-05,-1.77726e-05,0.16888,0.04448464385875539,0.29425986636437007,-1.5282383223236273e-05,0.04439910406932568,-1.7772442068242356e-05,-0.08196356536099769
218,0.1892,376.719,377.347,0.206491,376.615,0.061244,-0.0509055,0.0437342,0.0436527,-0.0859385,0.2592,-1.4962e-05,-1.81548e-05,0.169718,0.044704635489057676,0.2958929575034177,-1.4961888069819906e-05,0.04461949553076572,-1.8154635202605185e-05,-0.08234933499930797
219,0.1902,376.78,376.915,-0.0680777,377.043,-0.0898153,-0.0263965,0.0439453,0.0438601,-0.0863583,0.260462,-1.71665e-05,-1.79561e-05,0.170556,0.04492519591694344,0.2975294067981018,-1.7166352656472483e-05,0.044836172082720616,-1.7955938790170656e-05,-0.08273448390006477
220,0.1912,377.482,378.203,0.282887,377.284,0.0904948,-0.0401606,0.0441551,0.044074,-0.0867775,0.261718,-1.4589e-05,-1.82316e-05,0.171392,0.045144444221389746,0.29916012761133426,-1.4588893581080065e-05,0.045059686443937874,-1.8231433805415698e-05,-0.08311892102076357
221,0.1922,377.754,378.407,0.212935,377.635,0.0690824,-0.0539241,0.0443653,0.0442839,-0.0871968,0.262977,-1.46299e-05,-1.85836e-05,0.172228,0.04536415667453508,0.30079680028125444,-1.4629792983500423e-05,0.04527906749535826,-1.858342732596885e-05,-0.0835032886688708
222,0.1932,377.827,378.0,-0.0410992,378.057,-0.0780461,-0.0262452,0.0445759,0.0444909,-0.0876155,0.264236,-1.67439e-05,-1.83435e-05,0.173064,0.045584333549741896,0.30243553481973984,-1.6743759821635784e-05,0.0454954626584565,-1.8343331758985393e-05,-0.0838869455177389
223,0.1942,378.472,379.158,0.255877,378.305,0.0797819,-0.0409851,0.0447852,0.0447038,-0.0880338,0.265489,-1.4487e-05,-1.86365e-05,0.173898,0.04580319725404136,0.30406850938978836,-1.4486895063892113e-05,0.04571807233841607,-1.8636326341470166e-05,-0.08427007547121257
224,0.1952,378.735,379.346,0.18355,378.652,0.0556981,-0.0535284,0.0449948,0.0449132,-0.088452,0.266744,-1.46074e-05,-1.8972e-05,0.174732,0.04602242057798778,0.30570614276907526,-1.4607293312485226e-05,0.04593706863087532,-1.897182003274267e-05,-0.08465295366024106
225,0.1962,378.852,379.059,-0.0211562,379.058,-0.0683141,-0.0269743,0.0452048,0.0451201,-0.0888696,0.268,-1.63964e-05,-1.87448e-05,0.175566,0.046242108352718025,0.3073471400149361,-1.639626557981e-05,0.04615349539895219,-1.8744624317279523e-05,-0.08503512278432557
226,0.1972,379.43,380.055,0.212795,379.316,0.0602303,-0.0410057,0.0454137,0.0453319,-0.0892868,0.26925,-1.45748e-05,-1.90329e-05,0.176398,0.04646069115933216,0.30898234573060956,-1.4574693788071968e-05,0.04637509417575969,-1.9032718875489074e-05,-0.08541676651468211
227,0.1982,379.691,380.243,0.143539,379.659,0.0368605,-0.0526533,0.0456229,0.0455406,-0.089704,0.270502,-1.47496e-05,-1.9354e-05,0.17723,0.0466796336365074,0.3106222179732794,-1.4749491225152234e-05,0.046593495447294186,-1.9353812712563645e-05,-0.08579825105648353
228,0.1992,379.867,380.112,0.00166416,380.044,-0.0570186,-0.0279235,0.0458322,0.0457476,-0.0901205,0.271754,-1.61201e-05,-1.91479e-05,0.178062,0.04689872661110739,0.31226414462178664,-1.611997007189281e-05,0.04681016272514138,-1.914771668010129e-05,-0.08617893680160882
229,0.2002,380.364,380.913,0.160097,380.317,0.0360849,-0.0409385,0.0460408,0.0459581,-0.0905368,0.273002,-1.48264e-05,-1.94284e-05,0.178892,0.047117132464417066,0.31390287262785677,-1.4826290089420269e-05,0.047030539458232434,-1.942821126987848e-05,-0.08655928133601054
230,0.2012,380.374,380.418,-0.147332,380.731,-0.12091,-0.0297601,0.04625,0.0461633,-0.0909528,0.274254,-1.72077e-05,-1.94122e-05,0.179723,0.04733621228347862,0.3155489092282846,-1.720755194833945e-05,0.047245412170115575,-1.941201158450756e-05,-0.08693919364773506
231,0.2022,380.65,380.663,-0.203006,381.059,-0.130934,-0.0423249,0.0464587,0.046371,-0.0913682,0.275502,-1.77683e-05,-1.97143e-05,0.180552,0.0475548141612947,0.31719173917966503,-1.7768142144714005e-05,0.04746294763249903,-1.971410567447318e-05,-0.08731840034001093
232,0.2032,381.368,381.937,0.202288,381.293,0.0409116,-0.0343802,0.0466665,0.0465825,-0.091783,0.276745,-1.54602e-05,-1.96943e-05,0.18138,0.04777251867039256,0.31883002649609615,-1.5460080491691564e-05,0.04768450947526226,-1.969410606850186e-05,-0.08769690216084514
233,0.2042,381.667,382.253,0.171935,381.609,0.0456268,-0.0506308,0.0468745,0.0467907,-0.0921981,0.27799,-1.52533e-05,-2.00605e-05,0.182207,0.04799047802126277,0.3204729924131473,-1.525318366901729e-05,0.04790266009882682,-2.006029878953708e-05,-0.08807552058906687
234,0.2052,381.765,381.949,-0.0421775,382.0,-0.0777108,-0.0275724,0.047083,0.0469961,-0.0926126,0.279237,-1.70632e-05,-1.98798e-05,0.183035,0.04820900681676532,0.3221206493352675,-1.7063054424393265e-05,0.048117921411791276,-1.98796023981318e-05,-0.08845343495761904
235,0.2062,382.36,383.005,0.223624,382.238,0.0642805,-0.0407843,0.0472903,0.0472065,-0.0930267,0.280478,-1.50595e-05,-2.0151e-05,0.183861,0.04842632306792982,0.32376241956881757,-1.5059386606286473e-05,0.04833846862320934,-2.015079696993105e-05,-0.0888308282455299
236,0.2072,382.609,383.182,0.153474,382.568,0.0413049,-0.0528671,0.0474978,0.0474137,-0.0934408,0.28172,-1.5217e-05,-2.0476e-05,0.184687,0.04864389410218051,0.3254075539108714,-1.5216884222013505e-05,0.048555706859012115,-2.047579036812408e-05,-0.08920806528723324
237,0.2082,382.755,382.996,-0.00499749,382.943,-0.0602817,-0.0281437,0.0477056,0.047619,-0.0938542,0.282963,-1.66938e-05,-2.02718e-05,0.185513,0.048861824945605425,0.3270560598345622,-1.669366065926159e-05,0.04877099744445257,-2.0271594528442627e-05,-0.08958450885679647
238,0.2092,383.256,383.827,0.170232,383.199,0.0408777,-0.0412928,0.0479125,0.0478281,-0.0942674,0.284202,-1.52831e-05,-2.05506e-05,0.186337,0.049078856908368884,0.3287013013093205,-1.5282983214071066e-05,0.048990318389223964,-2.055038883785887e-05,-0.08996061482889184
239,0.2102,383.229,383.258,-0.161738,383.607,-0.127863,-0.0300505,0.0481203,0.0480316,-0.0946803,0.285444,-1.7832e-05,-2.05377e-05,0.187161,0.04929687814645667,0.33035257355334413,-1.783184101078472e-05,0.04920380964101412,-2.0537489102911977e-05,-0.0903362925270309
240,0.2112,383.5,383.504,-0.21028,383.921,-0.135384,-0.0420424,0.0483274,0.0482377,-0.0950927,0.286683,-1.83697e-05,-2.08301e-05,0.187985,0.049514210033860806,0.33200190193991896,-1.8369531278095153e-05,0.049420072831337425,-2.0829883054962472e-05,-0.09071136049566186
241,0.2122,384.21,384.784,0.199428,384.139,0.0406433,-0.0352469,0.0485337,0.0484477,-0.0955044,0.287917,-1.60092e-05,-2.08227e-05,0.188806,0.04973074715042647,0.3336466068611421,-1.6009071853395618e-05,0.04964047418796458,-2.0822483209115283e-05,-0.09108563757832178
242,0.2132,384.496,385.086,0.169267,384.444,0.0447389,-0.0509128,0.0487401,0.0486544,-0.0959164,0.289153,-1.58151e-05,-2.11803e-05,0.189628,0.04994743393794554,0.3352960131903513,-1.5814974941963378e-05,0.04985745729841118,-2.1180075699067658e-05,-0.09146003316485274
243,0.2142,384.587,384.78,-0.0407208,384.821,-0.0769684,-0.0280866,0.048947,0.0488582,-0.0963279,0.29039,-1.75998e-05,-2.10042e-05,0.19045,0.050164690536447454,0.3369487963943263,-1.7599645124377616e-05,0.05007144005231057,-2.100397941329213e-05,-0.09183382044919708
244,0.2152,385.16,385.802,0.216209,385.05,0.0612311,-0.0411677,0.0491527,0.0490671,-0.096739,0.291622,-1.5655e-05,-2.12721e-05,0.191269,0.05038073163235568,0.33859693235477084,-1.5654877461135364e-05,0.050290822889877074,-2.1271873750450254e-05,-0.09220709083462575
245,0.2162,385.395,385.96,0.144208,385.368,0.0369447,-0.0528019,0.0493587,0.0492727,-0.09715,0.292856,-1.58453e-05,-2.15896e-05,0.192089,0.05059713235158081,0.34024978056690314,-1.584517446384659e-05,0.050506784883195266,-2.1589366946295208e-05,-0.09258011705815272
246,0.2172,385.545,385.803,0.000991522,385.728,-0.0572274,-0.0287943,0.049565,0.0494765,-0.0975604,0.294089,-1.72169e-05,-2.13951e-05,0.192909,0.05081389289806637,0.3419033277486905,-1.7216751790005702e-05,0.050720899983542234,-2.139487112651217e-05,-0.09295244577103434
247,0.2182,386.012,386.566,0.15432,385.977,0.0336403,-0.041538,0.0497704,0.0496839,-0.0979705,0.295319,-1.59603e-05,-2.16686e-05,0.193727,0.05102975223966322,0.34355488434090575,-1.5960172635054448e-05,0.0509388420980148,-2.1668365237537124e-05,-0.0933243497089089
248,0.2192,386.012,386.081,-0.138289,386.363,-0.117509,-0.0304639,0.0499765,0.0498862,-0.0983804,0.296552,-1.82495e-05,-2.16565e-05,0.194546,0.05124639179553925,0.3452125092290357,-1.824933347893687e-05,0.051151468532209865,-2.1656265499658822e-05,-0.09369591989945014
249,0.2202,386.275,386.324,-0.183179,386.665,-0.123457,-0.0425624,0.0501821,0.0500909,-0.0987898,0.297781,-1.87234e-05,-2.19499e-05,0.195363,0.05146255027402247,0.34686679175126356,-1.872322471818677e-05,0.05136666126204292,-2.194965910273794e-05,-0.09406688484813686
250,0.2212,386.925,387.475,0.178024,386.884,0.0309429,-0.035322,0.0503869,0.050299,-0.0991985,0.299007,-1.66669e-05,-2.19375e-05,0.196178,0.051677911856591985,0.3485190630733135,-1.6666761108008465e-05,0.051585473430868056,-2.1937259374826823e-05,-0.09443706406102448
251,0.2222,386.814,386.772,-0.242806,387.277,-0.151723,-0.0395589,0.0505926,0.0505,-0.0996076,0.300237,-1.94674e-05,-2.21564e-05,0.196995,0.05189426425414201,0.35017876202650333,-1.946721051138134e-05,0.05179686335500322,-2.215615454881359e-05,-0.09480745408967095
252,0.2232,387.112,387.083,-0.241097,387.572,-0.1483,-0.0430835,0.0507977,0.0507043,-0.100016,0.301463,-1.98986e-05,-2.23418e-05,0.197811,0.052110029893750465,0.35183509631419985,-1.9898402024209894e-05,0.052011767405887976,-2.2341550423798928e-05,-0.09517705924691044
253,0.2242,387.827,388.409,0.189177,387.769,0.0398131,-0.0380495,0.0510019,0.0509125,-0.100424,0.302685,-1.7387e-05,-2.23578e-05,0.198624,0.052324892698600634,0.35348804855001803,-1.7386848847000813e-05,0.05223081905834781,-2.2357550066298693e-05,-0.09554615170675584
254,0.2252,388.107,388.709,0.169432,388.058,0.0455078,-0.0515085,0.0512063,0.0511172,-0.100832,0.303909,-1.71725e-05,-2.26861e-05,0.199438,0.052540009890896355,0.3551457322168887,-1.717235255349614e-05,0.05244623275384841,-2.2685842672398593e-05,-0.09591509360759376
255,0.2262,388.178,388.376,-0.0455594,388.422,-0.078499,-0.0291142,0.0514111,0.0513189,-0.101239,0.305134,-1.89886e-05,-2.25197e-05,0.200252,0.05275559215979286,0.3568068029369502,-1.8988419717702598e-05,0.05265853256871145,-2.25194464334999e-05,-0.09628298129427282
256,0.2272,388.74,389.393,0.216053,388.635,0.0613685,-0.0415627,0.0516148,0.0515258,-0.101646,0.306354,-1.70232e-05,-2.27755e-05,0.201063,0.052970060316755996,0.35846311738290715,-1.702305510620228e-05,0.0528763501515519,-2.2775240640315886e-05,-0.09665071928112945
257,0.2282,388.957,389.527,0.140685,388.939,0.0352493,-0.052891,0.0518188,0.0517293,-0.102053,0.307576,-1.72447e-05,-2.30873e-05,0.201876,0.053184888120751506,0.36012417401124663,-1.7244551311024203e-05,0.053090632291276085,-2.3087033490298836e-05,-0.09701830762907904
258,0.2292,389.099,389.372,0.00397357,389.282,-0.055598,-0.0294917,0.052023,0.0519313,-0.102459,0.308797,-1.8567e-05,-2.29017e-05,0.202687,0.05339997043406264,0.3617858999049248,-1.8566827634347582e-05,0.053303378085600706,-2.290143775807163e-05,-0.09738484378430723
259,0.2302,389.539,390.088,0.144584,389.521,0.0292757,-0.041914,0.0522264,0.0521365,-0.102866,0.310015,-1.74005e-05,-2.31699e-05,0.203497,0.05361425377992646,0.3634455656622759,-1.7400348612195415e-05,0.053519538116044485,-2.316963157988905e-05,-0.09775213340437927
260,0.2312,389.549,389.647,-0.12389,389.887,-0.111225,-0.0310099,0.0524305,0.052337,-0.103272,0.311235,-1.95307e-05,-2.31604e-05,0.204308,0.05382931839572036,0.36510998434133457,-1.953050927716582e-05,0.053730789960726444,-2.3160131800037398e-05,-0.09811837168681503
261,0.2322,390.247,390.993,0.283621,390.063,0.08949,-0.0404061,0.0526332,0.0525442,-0.103677,0.312449,-1.67048e-05,-2.33579e-05,0.205116,0.0540429512495173,0.366768234216339,-1.6704660475652666e-05,0.05394914560126951,-2.3357627206399556e-05,-0.09848355979069912
262,0.2332,390.453,391.12,0.202625,390.361,0.0642274,-0.053961,0.0528363,0.0527471,-0.104082,0.313666,-1.68257e-05,-2.36987e-05,0.205925,0.054257049113818345,0.36843260372080056,-1.6825558448729794e-05,0.054163013579084485,-2.369841918803406e-05,-0.09884860002334717
263,0.2342,390.494,390.712,-0.0308754,390.723,-0.0734758,-0.0281256,0.0530398,0.0529472,-0.104487,0.314883,-1.87974e-05,-2.34885e-05,0.206734,0.054471612254372026,0.3700989999959887,-1.879722332998046e-05,0.05437397270385835,-2.3488224147327763e-05,-0.09921349244463473
264,0.2352,391.036,391.7,0.217616,390.928,0.0637725,-0.0425167,0.0532422,0.0531527,-0.104892,0.316095,-1.68587e-05,-2.37692e-05,0.20754,0.05468505890876507,0.3717605666900048,-1.6858557892907022e-05,0.05459066882001218,-2.3768917514765953e-05,-0.09957823711441338
265,0.2362,391.237,391.805,0.136245,391.226,0.0335111,-0.0530527,0.0534449,0.0533549,-0.105296,0.317309,-1.71398e-05,-2.40709e-05,0.208347,0.05489886523874543,0.373426895274765,-1.713965311445076e-05,0.05480392861308614,-2.4070610298188022e-05,-0.09994193403489449
266,0.2372,391.38,391.666,0.00957153,391.557,-0.0527707,-0.0299147,0.0536478,0.0535556,-0.1057,0.318522,-1.83942e-05,-2.38888e-05,0.209154,0.055112925934225565,0.37509387291627805,-1.839403082770641e-05,0.05501564900698974,-2.3888514664838212e-05,-0.10030548405149631
267,0.2382,391.794,392.331,0.133263,391.791,0.0240856,-0.0420436,0.0538499,0.0537593,-0.106103,0.319732,-1.73457e-05,-2.41531e-05,0.209959,0.055326185805741,0.3767587435461097,-1.73455495642294e-05,0.055230577584424845,-2.4152808316246777e-05,-0.1006679878919935
268,0.2392,391.823,391.95,-0.107192,392.142,-0.103761,-0.0312794,0.0540526,0.0539588,-0.106507,0.320945,-1.92897e-05,-2.41439e-05,0.210764,0.05554012210531534,0.3784297651717561,-1.9289513954912074e-05,0.055441117085269775,-2.414360853841835e-05,-0.10103124464208091
269,0.2402,392.467,393.175,0.254814,392.32,0.0766621,-0.0406565,0.054254,0.0541643,-0.106909,0.322151,-1.6762e-05,-2.4343e-05,0.211568,0.05575272929473263,0.3800931542905843,-1.6761859518488187e-05,0.05565803252212853,-2.434270371154401e-05,-0.10139255745299391
270,0.2412,392.666,393.295,0.175224,392.609,0.0511811,-0.0533802,0.0544558,0.0543657,-0.107312,0.32336,-1.69289e-05,-2.46706e-05,0.212371,0.05596580169378629,0.3817626959486924,-1.6928756707002002e-05,0.05587066346109548,-2.4670295683204557e-05,-0.1017546232911738
271,0.2422,392.741,392.988,-0.0158636,392.952,-0.065798,-0.0290303,0.054658,0.054565,-0.107714,0.324569,-1.86126e-05,-2.44777e-05,0.213175,0.05617933956684018,0.3834342573033258,-1.8612426786690506e-05,0.056081119455566375,-2.44774004235504e-05,-0.10211564536231255
272,0.2432,393.223,393.837,0.181882,393.161,0.0470655,-0.0424731,0.0548591,0.0547687,-0.108116,0.325774,-1.70359e-05,-2.47493e-05,0.213976,0.05639175859004397,0.3851023003774918,-1.7035754889871413e-05,0.0562962650914387,-2.474899373861028e-05,-0.10247652233174609
273,0.2442,393.131,393.156,-0.175481,393.536,-0.135888,-0.0309098,0.0550612,0.0549662,-0.108518,0.326982,-1.97782e-05,-2.47433e-05,0.214779,0.05660527693975759,0.3867765149783733,-1.9778004412662753e-05,0.05650490420622867,-2.474299388710577e-05,-0.10283725425779366
274,0.2452,393.384,393.413,-0.201244,393.805,-0.134637,-0.041722,0.0552626,0.0551669,-0.108919,0.328187,-2.01817e-05,-2.50134e-05,0.21558,0.05681809867296228,0.3884485879005337,-2.018149635085731e-05,0.05671696602019405,-2.5013087167513604e-05,-0.10319694439614369
275,0.2462,394.018,394.581,0.170647,393.99,0.0299529,-0.0373238,0.0554632,0.055371,-0.10932,0.329388,-1.79966e-05,-2.50304e-05,0.216379,0.05703011764834831,0.390117116405412,-1.7996438062217734e-05,0.05693266396418517,-2.503008674215046e-05,-0.10355649032766356
276,0.2472,393.887,393.853,-0.240634,394.357,-0.154116,-0.0390493,0.0556648,0.0555679,-0.109721,0.330593,-2.08121e-05,-2.52202e-05,0.21718,0.0572432364017148,0.39179321717858473,-2.081188342972773e-05,0.057140794495498026,-2.521988197345948e-05,-0.10391589211016872
277,0.2482,394.174,394.18,-0.222273,394.62,-0.142618,-0.0427195,0.0558657,0.0557682,-0.110121,0.331795,-2.11067e-05,-2.54003e-05,0.217979,0.057455657904933455,0.3934671584628022,-2.1106477255172784e-05,0.05735256100434327,-2.5399977415130337e-05,-0.10427425407615332
278,0.2492,394.816,395.377,0.161271,394.798,0.0282319,-0.0391293,0.0560658,0.055972,-0.11052,0.332993,-1.88471e-05,-2.54304e-05,0.218776,0.05766727595375998,0.3951375324728954,-1.8846922394510912e-05,0.057568071416041144,-2.5430076650123645e-05,-0.10463157735804174
279,0.2502,394.688,394.651,-0.242417,395.163,-0.155919,-0.038745,0.056267,0.0561684,-0.11092,0.334196,-2.16676e-05,-2.55931e-05,0.219575,0.05788010001906496,0.39681689285719934,-2.1667365259214755e-05,0.05777579818336798,-2.5592772499360983e-05,-0.10498965310717434
280,0.2512,394.975,394.986,-0.220308,395.421,-0.142286,-0.0425812,0.0564674,0.0563683,-0.111319,0.335394,-2.19322e-05,-2.57738e-05,0.220372,0.058092120434844796,0.39849128225383335,-2.193195949107274e-05,0.05798726870119886,-2.5773467858480892e-05,-0.10534669100178784
281,0.2522,395.609,396.168,0.157249,395.598,0.0265561,-0.0393312,0.056667,0.0565716,-0.111718,0.336589,-1.97027e-05,-2.58079e-05,0.221168,0.05830333670076571,0.400163478274254,-1.9702505903107514e-05,0.058202379378185176,-2.58075669790081e-05,-0.10570358646669809
282,0.2532,395.487,395.462,-0.236561,395.957,-0.153581,-0.0387514,0.0568676,0.0567676,-0.112117,0.337789,-2.24639e-05,-2.59676e-05,0.221965,0.05851565364478528,0.40184468296925546,-2.2463647688542032e-05,0.058409807371822664,-2.5967262844761585e-05,-0.10606033955872296
283,0.2542,395.773,395.796,-0.213858,396.213,-0.139474,-0.0427344,0.0570676,0.056967,-0.112515,0.338985,-2.27121e-05,-2.61499e-05,0.22276,0.05872737794723881,0.4035222922204458,-2.271184208224586e-05,0.05862087533018867,-2.6149558094323844e-05,-0.10641605675116173
284,0.2552,396.393,396.948,0.152392,396.389,0.0243059,-0.0393913,0.0572667,0.0571697,-0.112913,0.340177,-2.05532e-05,-2.61829e-05,0.223554,0.05893819155398616,0.4051962882962237,-2.055298878445022e-05,0.058835479531019086,-2.6182557230858272e-05,-0.1067716323963277
285,0.2562,396.282,396.274,-0.227119,396.742,-0.149409,-0.0388486,0.0574668,0.0573654,-0.113311,0.341374,-2.32189e-05,-2.6342e-05,0.224349,0.05915010628747819,0.40687931534404753,-2.3218630443411215e-05,0.05904271391158611,-2.634165305259728e-05,-0.10712706655054538
286,0.2572,396.565,396.605,-0.204894,396.995,-0.135377,-0.0429817,0.0576663,0.0575644,-0.113708,0.342567,-2.34538e-05,-2.65262e-05,0.225142,0.0593614278123038,0.408558723935293,-2.3453524961802863e-05,0.0592534843826209,-2.6525848183522882e-05,-0.10748146675203019
287,0.2582,397.167,397.717,0.146742,397.172,0.0216084,-0.0393872,0.057865,0.0577664,-0.114105,0.343757,-2.13889e-05,-2.65565e-05,0.225934,0.05957194384208497,0.41023590654250586,-2.1388671259114922e-05,0.059467475198810904,-2.6556147379230843e-05,-0.10783572628455951
288,0.2592,397.071,397.083,-0.215456,397.518,-0.144138,-0.0389758,0.0580646,0.0579618,-0.114502,0.344951,-2.39362e-05,-2.67158e-05,0.226727,0.059783455510238115,0.4119207338566615,-2.393591353144764e-05,0.05967451537063084,-2.6715443136149375e-05,-0.10818984520396802
289,0.2602,397.349,397.408,-0.194434,397.768,-0.130511,-0.0432807,0.0582636,0.0581603,-0.114898,0.346141,-2.41598e-05,-2.69025e-05,0.227519,0.0599943734035191,0.41360191963709636,-2.415950815437551e-05,0.059884881640093424,-2.690213813094644e-05,-0.10854293210944577
290,0.2612,397.933,398.476,0.140676,397.946,0.0186604,-0.039338,0.0584618,0.0583617,-0.115294,0.347328,-2.22026e-05,-2.69289e-05,0.228309,0.06020448510970988,0.415280861370493,-2.2202353524125584e-05,0.06009836395220303,-2.6928537420478627e-05,-0.10889587922019017
291,0.2622,397.852,397.887,-0.202581,398.285,-0.138249,-0.0391234,0.0586609,0.0585568,-0.11569,0.348518,-2.46185e-05,-2.7089e-05,0.2291,0.06041559283777209,0.41696604808275173,-2.461819696719658e-05,0.06030520932011951,-2.7088633096306047e-05,-0.10924868659154896
292,0.2632,398.126,398.206,-0.183245,398.533,-0.125256,-0.0436081,0.0588594,0.0587549,-0.116086,0.349706,-2.48327e-05,-2.72783e-05,0.22989,0.06062610622571296,0.4186504040572223,-2.4832391671059106e-05,0.060515276588561706,-2.7277927950541958e-05,-0.10960135427884798
293,0.2642,398.69,399.226,0.134506,398.713,0.0156286,-0.0392624,0.0590572,0.0589557,-0.11648,0.35089,-2.29894e-05,-2.73004e-05,0.230678,0.060835918819305945,0.42033108089997806,-2.2989135745721256e-05,0.06072824943785915,-2.7300027347521016e-05,-0.1099521022433757
294,0.2652,398.626,398.684,-0.189273,399.044,-0.132115,-0.0392834,0.0592558,0.0591504,-0.116876,0.352078,-2.52693e-05,-2.74616e-05,0.231467,0.061046621754892394,0.4220194369089856,-2.526898073396122e-05,0.060934793334420645,-2.746122293373343e-05,-0.11030449143322274
295,0.2662,398.896,398.995,-0.171913,399.289,-0.119901,-0.0439456,0.0594538,0.0593481,-0.11727,0.353262,-2.54757e-05,-2.76535e-05,0.232255,0.06125672978600849,0.42370410504901956,-2.5475375497130415e-05,0.06114456087790132,-2.765311764552081e-05,-0.11065496241628059
296,0.2672,399.439,399.969,0.128459,399.471,0.0126375,-0.0391748,0.0596511,0.0595482,-0.117664,0.354444,-2.37471e-05,-2.7671e-05,0.233041,0.06146613639607801,0.42538791823874145,-2.3746818039849238e-05,0.06135691715006941,-2.7670617161357214e-05,-0.11100529534097037
297,0.2682,399.392,399.473,-0.176111,399.795,-0.126017,-0.039449,0.0598492,0.0597427,-0.118058,0.355629,-2.5892e-05,-2.78335e-05,0.233829,0.06167643366695508,0.42707800409995533,-2.5891664805044456e-05,0.06156337114745547,-2.7833112651753922e-05,-0.11135549026167646
298,0.2692,400.107,400.897,0.299172,399.929,0.0921127,-0.038338,0.0600458,0.0599444,-0.118452,0.356807,-2.28349e-05,-2.78666e-05,0.234613,0.06188517977288388,0.42876009254436154,-2.2834639285651548e-05,0.06177751007460075,-2.7866211729898893e-05,-0.1117055472327616
299,0.2702,400.264,400.959,0.200079,400.191,0.0624424,-0.0539327,0.060243,0.0601412,-0.118845,0.357988,-2.30296e-05,-2.82274e-05,0.235399,0.06209460417890278,0.43044845499544526,-2.302933482078995e-05,0.061986488451381216,-2.822700161064784e-05,-0.11205457836358956
300,0.2712,400.281,400.543,-0.0227382,400.515,-0.0700665,-0.029586,0.0604406,0.0603356,-0.119238,0.35917,-2.49203e-05,-2.80417e-05,0.236184,0.06230449480919975,0.4321402447200071,-2.491998949194496e-05,0.06219295869299346,-2.8041306835202562e-05,-0.11240347235213344
301,0.2722,400.754,401.417,0.19277,400.691,0.0534442,-0.0439964,0.060637,0.0605348,-0.119631,0.360347,-2.31892e-05,-2.83161e-05,0.236968,0.06251315190143614,0.4338268661700555,-2.318893113262277e-05,0.06240456860601262,-2.8315699102998693e-05,-0.11275222925227935
302,0.2732,400.613,400.644,-0.186743,401.045,-0.142734,-0.0316624,0.0608345,0.0607275,-0.120024,0.361528,-2.61125e-05,-2.83119e-05,0.237752,0.06272301897262778,0.43552121601565186,-2.6112159071667307e-05,0.06260931369293865,-2.8311499221889136e-05,-0.11310084911789264
303,0.2742,400.855,400.915,-0.195165,401.284,-0.134217,-0.0418329,0.0610313,0.0609238,-0.120416,0.362705,-2.64064e-05,-2.85683e-05,0.238535,0.06293218344387053,0.4372118192117129,-2.6406051354066484e-05,0.06281792437568523,-2.856789192995368e-05,-0.11344844545170596
304,0.2752,401.438,402.005,0.15027,401.447,0.0223334,-0.0391512,0.0612273,0.0611231,-0.120807,0.363879,-2.43416e-05,-2.86019e-05,0.239317,0.06314053856996082,0.438900096712451,-2.4341303745623044e-05,0.06302976509724001,-2.8601490969504262e-05,-0.11379501934992187
305,0.2762,401.329,401.36,-0.210689,401.777,-0.142954,-0.0392701,0.0614243,0.0613158,-0.121199,0.365057,-2.68747e-05,-2.87713e-05,0.240099,0.06334999788712437,0.4405961197878412,-2.687433887849089e-05,0.06323463067113821,-2.8770886110085492e-05,-0.11414234362233167
306,0.2772,401.599,401.686,-0.183322,402.011,-0.126429,-0.0435077,0.0616205,0.0615118,-0.12159,0.366231,-2.70402e-05,-2.89539e-05,0.24088,0.06355864762457974,0.4422883727906186,-2.7039834417097453e-05,0.06344304508269505,-2.8953480839866153e-05,-0.11448864625939781
307,0.2782,402.143,402.683,0.127171,402.18,0.0129621,-0.0400134,0.0618161,0.0617104,-0.121981,0.367403,-2.52213e-05,-2.89837e-05,0.24166,0.06376670004291829,0.4439797257027345,-2.5220981945683896e-05,0.06365426584497591,-2.89832799765799e-05,-0.11483481351860103
308,0.2792,402.084,402.163,-0.179963,402.496,-0.12889,-0.0393503,0.0620125,0.0619031,-0.122372,0.368577,-2.74125e-05,-2.91363e-05,0.242441,0.0639756443404651,0.4456759533915402,-2.74121242808123e-05,0.06385925177176399,-2.9135875542096734e-05,-0.11518084545286367
309,0.2802,402.794,403.595,0.298452,402.619,0.0931914,-0.0392842,0.0622074,0.0621032,-0.122762,0.369745,-2.43016e-05,-2.91781e-05,0.243219,0.06418303340295473,0.4473654894020562,-2.4301304718532535e-05,0.06407215130793165,-2.9177674323421776e-05,-0.11552585764138723
310,0.2812,402.938,403.637,0.196456,402.873,0.0611912,-0.0541917,0.0624029,0.0622982,-0.123152,0.370916,-2.45328e-05,-2.95298e-05,0.243998,0.06439110152398109,0.44906134712105494,-2.4532499073304237e-05,0.06427966560942355,-2.9529363999802882e-05,-0.11587073530139214
311,0.2822,402.953,403.229,-0.0194818,403.186,-0.0682683,-0.0301557,0.0625988,0.062491,-0.123542,0.372088,-2.63785e-05,-2.93497e-05,0.244776,0.064599636166071,0.45076064261252813,-2.6378152090389406e-05,0.06448487851084117,-2.9349269301759406e-05,-0.11621547848533409
312,0.2832,403.404,404.063,0.183598,403.356,0.0493986,-0.044296,0.0627935,0.0626885,-0.123931,0.373255,-2.47338e-05,-2.96192e-05,0.245553,0.06480693389501169,0.4524546685543378,-2.4733494122131106e-05,0.06469513503649549,-2.9618761355876266e-05,-0.11655920380529416
313,0.2842,403.277,403.336,-0.173303,403.697,-0.136748,-0.0320721,0.0629893,0.0628796,-0.12432,0.374426,-2.75089e-05,-2.96168e-05,0.246331,0.06501544350509292,0.45415648919273166,-2.750852163369011e-05,0.06489861771895189,-2.9616361426954008e-05,-0.1169027954421078
314,0.2852,403.513,403.604,-0.179172,403.926,-0.127133,-0.0422161,0.0631844,0.0630742,-0.124709,0.375593,-2.77624e-05,-2.98719e-05,0.247107,0.0652232482888182,0.45585448040078314,-2.7762014628174292e-05,0.06510586715467603,-2.98714538392586e-05,-0.11724625344776762
315,0.2862,404.058,404.615,0.137526,404.086,0.0165287,-0.039331,0.0633787,0.0632717,-0.125097,0.376757,-2.58769e-05,-2.99026e-05,0.247882,0.06543024127467811,0.4575500816644582,-2.587656519592585e-05,0.06531624633769972,-2.9902152921756908e-05,-0.11758869546338291
316,0.2872,403.976,404.049,-0.187119,404.4,-0.132523,-0.0394658,0.0635739,0.0634631,-0.125486,0.377925,-2.81693e-05,-3.00692e-05,0.248658,0.06563823355716125,0.45925349475943666,-2.81689032489707e-05,0.06552016738187016,-3.0068747926104145e-05,-0.11793188670582322
317,0.2882,404.236,404.364,-0.16136,404.625,-0.116391,-0.0440299,0.0637685,0.0636574,-0.125874,0.379089,-2.8305e-05,-3.02552e-05,0.249433,0.06584562693613294,0.4609530547793743,-2.830459941727259e-05,0.06572721806471482,-3.025474231610481e-05,-0.11827406274733665
318,0.2892,404.737,405.263,0.113566,404.794,0.00641737,-0.0399738,0.0639625,0.063854,-0.126261,0.380251,-2.67145e-05,-3.02785e-05,0.250206,0.06605242104613862,0.46265166893272247,-2.6714143170902815e-05,0.0659367606331458,-3.0278041610820594e-05,-0.11861522466596419
319,0.2902,404.709,404.837,-0.152697,405.092,-0.116457,-0.0396571,0.0641571,0.0640454,-0.126648,0.381415,-2.86244e-05,-3.04312e-05,0.25098,0.06625989503383845,0.46435518673037746,-2.862399032577123e-05,0.06614080045511916,-3.04307369757284e-05,-0.11895625458047376
320,0.2912,405.344,406.094,0.258052,405.222,0.0747135,-0.0395207,0.0643504,0.0642432,-0.127035,0.382574,-2.59616e-05,-3.0477e-05,0.251751,0.06646602299317395,0.4660533582921247,-2.5961263000584545e-05,0.06635170396311851,-3.0476535580969966e-05,-0.11929715254194084
321,0.2922,405.485,406.137,0.161845,405.468,0.0442757,-0.0534079,0.0645443,0.0644365,-0.127422,0.383735,-2.62251e-05,-3.08124e-05,0.252524,0.06667283080440156,0.4677564346856471,-2.6224756125126092e-05,0.06655784967083522,-3.0811925302853815e-05,-0.11963791860142159
322,0.2932,405.542,405.854,-0.00383248,405.758,-0.0597133,-0.0314504,0.0647384,0.0646281,-0.127808,0.384896,-2.77201e-05,-3.06551e-05,0.253296,0.06687989209550893,0.46946148949911315,-2.7719715801621803e-05,0.06676222173305058,-3.06546301371835e-05,-0.11997767278806493
323,0.2942,405.93,406.537,0.145066,405.935,0.0307602,-0.04413,0.0649316,0.0648234,-0.128195,0.386054,-2.64765e-05,-3.0911e-05,0.254066,0.06708603320325168,0.47116411153184723,-2.6476149500576085e-05,0.06697058074054985,-3.091052226000812e-05,-0.12031817553716428
324,0.2952,405.884,406.03,-0.122524,406.243,-0.112387,-0.0330927,0.0651255,0.0650138,-0.128581,0.387214,-2.86291e-05,-3.09141e-05,0.254837,0.06729296124611506,0.47287165208327164,-2.8628690191268014e-05,0.06717375128034453,-3.09136221641193e-05,-0.12065766719530169
325,0.2962,406.493,407.259,0.254014,406.367,0.0798324,-0.0435922,0.0653181,0.0652108,-0.128966,0.388368,-2.59411e-05,-3.11044e-05,0.255606,0.06749854166721025,0.4745723270705089,-2.5940763532572575e-05,0.0673840052186796,-3.110391626315323e-05,-0.12099614883153553
326,0.2972,406.627,407.279,0.157873,406.612,0.0440264,-0.0542845,0.0655112,0.0654033,-0.129351,0.389525,-2.62742e-05,-3.14026e-05,0.256375,0.06770469553912184,0.4762793946010655,-2.627385483622291e-05,0.06758949641757761,-3.14021069435233e-05,-0.12133450017742198
327,0.2982,406.686,407.008,-0.000410072,406.898,-0.0572598,-0.0320432,0.0657045,0.0655942,-0.129736,0.390682,-2.77271e-05,-3.12425e-05,0.257145,0.06791110280538915,0.47798843835177784,-2.7726715607467867e-05,0.06779331870666216,-3.124201195814358e-05,-0.12167272128311313
328,0.2992,407.06,407.658,0.138179,407.074,0.0275192,-0.0441204,0.065897,0.0657886,-0.130121,0.391835,-2.65654e-05,-3.14912e-05,0.257912,0.06811669548033938,0.47969354182445123,-2.6565047142934617e-05,0.0680009179058072,-3.149070415731092e-05,-0.12201081219874166
329,0.3002,407.027,407.19,-0.112818,407.375,-0.107665,-0.0333438,0.0660902,0.0659784,-0.130505,0.392991,-2.86018e-05,-3.14962e-05,0.25868,0.06832307556158002,0.48140505662375754,-2.8601390972382568e-05,0.06820364371809662,-3.149570399985091e-05,-0.12234789532275547
330,0.3012,407.607,408.352,0.238385,407.501,0.0725038,-0.0435365,0.0662821,0.0661744,-0.130889,0.39414,-2.60887e-05,-3.16842e-05,0.259446,0.06852810643186302,0.48310816928467104,-2.608835969286627e-05,0.06841303215166161,-3.1683698061057974e-05,-0.12268484903169896
331,0.3022,407.74,408.374,0.144952,407.743,0.0375926,-0.0538728,0.0664744,0.0663662,-0.131273,0.395293,-2.643e-05,-3.19762e-05,0.260213,0.06873360414470175,0.4848191792115266,-2.6429650730630527e-05,0.06861797342446807,-3.197568876678325e-05,-0.12302167337525793
332,0.3032,407.814,408.148,0.0049374,408.019,-0.0542521,-0.0324875,0.066667,0.0665565,-0.131657,0.396445,-2.77533e-05,-3.18253e-05,0.260979,0.06893946206034096,0.48653067653916104,-2.775291488077425e-05,0.06882135077555196,-3.182479358054824e-05,-0.12335836840309922
333,0.3042,408.165,408.744,0.124449,408.198,0.0207873,-0.0439759,0.0668587,0.06675,-0.13204,0.397594,-2.67353e-05,-3.20681e-05,0.261743,0.06914439739764244,0.4882396819220778,-2.6734942615069812e-05,0.06902818771775587,-3.20675858239694e-05,-0.12369405785936638
334,0.3052,408.16,408.353,-0.0952044,408.487,-0.0990877,-0.0337069,0.0670511,0.0669393,-0.132423,0.398745,-2.85503e-05,-3.20757e-05,0.262508,0.0693501205696363,0.4899536319850111,-2.8549892444051927e-05,0.06923057390893939,-3.207518558023814e-05,-0.12402961877118979
335,0.3062,408.692,409.397,0.211287,408.621,0.0595529,-0.0433442,0.0672423,0.0671342,-0.132805,0.399891,-2.63495e-05,-3.22617e-05,0.263271,0.06955459986028645,0.49166209761109014,-2.6349152854932e-05,0.06943898725701536,-3.2261179596981826e-05,-0.12436417555240564
336,0.3072,408.828,409.43,0.12403,408.858,0.0270638,-0.0531917,0.067434,0.0673252,-0.133188,0.401039,-2.66908e-05,-3.25448e-05,0.264035,0.06975965313080756,0.4933755090091141,-2.6690443803767394e-05,0.06964326961192513,-3.254427042376218e-05,-0.12469947985829566
337,0.3082,408.927,409.279,0.0127976,409.123,-0.0497876,-0.0331437,0.0676257,0.0675151,-0.13357,0.402186,-2.78095e-05,-3.24077e-05,0.264798,0.06996474571380884,0.49508939344277003,-2.780911331945468e-05,0.0698464141567885,-3.2407174876181166e-05,-0.12503378080144445
338,0.3092,409.247,409.795,0.10405,409.306,0.0106703,-0.0437113,0.0678168,0.0677075,-0.133951,0.403331,-2.70066e-05,-3.26422e-05,0.26556,0.07016923551509291,0.49680225122220745,-2.7006235325033323e-05,0.07005227240980116,-3.2641667249144746e-05,-0.12536707943353786
339,0.3102,409.284,409.521,-0.0694885,409.579,-0.0864253,-0.034253,0.0680084,0.0678966,-0.134333,0.404477,-2.84931e-05,-3.26536e-05,0.266322,0.0703742995851282,0.4985185698648513,-2.849269407545485e-05,0.07025463842761792,-3.265306687705305e-05,-0.12570112540235212
340,0.3112,409.749,410.396,0.172736,409.727,0.0408998,-0.0429767,0.068199,0.0680901,-0.134714,0.405619,-2.67461e-05,-3.28367e-05,0.267082,0.07057833237033595,0.5002308556007005,-2.674574232630622e-05,0.07046175273781685,-3.2836160881455356e-05,-0.1260341698245826
341,0.3122,409.615,409.694,-0.175757,410.04,-0.135208,-0.0350541,0.0683906,0.0682773,-0.135095,0.406765,-2.93853e-05,-3.2901e-05,0.267844,0.07078347483083824,0.5019511056762427,-2.938486825632136e-05,0.07066216193564512,-3.290045876802594e-05,-0.12636708738105773
342,0.3132,409.849,409.981,-0.161088,410.247,-0.119307,-0.0427908,0.0685814,0.0684679,-0.135475,0.407907,-2.95228e-05,-3.31207e-05,0.268604,0.07098779980981895,0.5036673136071355,-2.9522364206391316e-05,0.07086624959264598,-3.312015151568648e-05,-0.12669900481954555
343,0.3142,410.332,410.871,0.112609,410.397,0.00610975,-0.040253,0.0687716,0.0686608,-0.135855,0.409047,-2.78947e-05,-3.31537e-05,0.269362,0.07119152106261972,0.5053824717990654,-2.7894310946519063e-05,0.0710728396171596,-3.31531504221827e-05,-0.1270307961533681
344,0.3152,410.291,410.433,-0.149446,410.676,-0.116343,-0.0395838,0.0689626,0.0688486,-0.136236,0.410189,-2.97944e-05,-3.33044e-05,0.270122,0.0713961381834558,0.5071026005884545,-2.9793956151324963e-05,0.07127400598537048,-3.3303845414667244e-05,-0.12736333406753841
345,0.3162,410.894,411.642,0.245298,410.792,0.0704653,-0.0405198,0.0691522,0.0690425,-0.136615,0.411326,-2.71972e-05,-3.33554e-05,0.270879,0.07159929414983246,0.5088171507823991,-2.7196830159503804e-05,0.07148174615488956,-3.335484371480568e-05,-0.12769400069864212
346,0.3172,411.015,411.656,0.146443,411.022,0.0371847,-0.0532241,0.0693423,0.0692321,-0.136995,0.412465,-2.75225e-05,-3.36735e-05,0.271637,0.07180302453961018,0.5105366725989171,-2.7522121259448973e-05,0.07168491835407642,-3.367293305400754e-05,-0.12802541400586032
347,0.3182,411.078,411.419,0.00447783,411.288,-0.0548918,-0.0325678,0.0695327,0.0694203,-0.137374,0.413604,-2.885e-05,-3.35327e-05,0.272394,0.07200711526430315,0.5122581540665936,-2.8849583842749382e-05,0.071886628436034,-3.3532137785341476e-05,-0.1283558297562123
348,0.3192,411.418,412.002,0.122056,411.457,0.0198416,-0.0442646,0.0697223,0.0696115,-0.137753,0.41474,-2.78378e-05,-3.37749e-05,0.27315,0.07221038708291672,0.5139770554807637,-2.7837412532094596e-05,0.0720915927533552,-3.37743296344728e-05,-0.12868612030272242
349,0.3202,411.408,411.613,-0.09231,411.735,-0.0980107,-0.0340094,0.0699125,0.0697988,-0.138131,0.415878,-2.96219e-05,-3.37843e-05,0.273907,0.0724143408939324,0.5157009420753307,-2.962146127583054e-05,0.07229241431503008,-3.378372931694962e-05,-0.12901541470868438
350,0.3212,411.918,412.62,0.202377,411.862,0.0559438,-0.0437622,0.0701015,0.0699913,-0.138509,0.417011,-2.749e-05,-3.39681e-05,0.274661,0.07261704635942445,0.5174192044545303,-2.7489622153376025e-05,0.07249885047362858,-3.3967523090594476e-05,-0.1293445846648834
351,0.3222,411.709,411.728,-0.2159,412.187,-0.155296,-0.0346559,0.0702918,0.0701763,-0.138887,0.418149,-3.06355e-05,-3.40328e-05,0.275417,0.07282118480650368,0.5191470104443423,-3.063503073785778e-05,0.07269728111523466,-3.4032220890822806e-05,-0.12967363021835254
352,0.3232,411.952,412.047,-0.18563,412.384,-0.132563,-0.0418098,0.0704812,0.0703656,-0.139265,0.419282,-3.07182e-05,-3.42394e-05,0.276171,0.07302439638243485,0.5208691794316795,-3.071772820095742e-05,0.07290036193154248,-3.4238813838460835e-05,-0.13000255141610717
353,0.3242,412.457,413.011,0.116149,412.519,0.00902112,-0.0412781,0.0706699,0.0705574,-0.139642,0.420412,-2.88727e-05,-3.42909e-05,0.276924,0.07322689519119407,0.5225887329692114,-2.8872283187597603e-05,0.0731061639567443,-3.429031207380362e-05,-0.1303304786360583
354,0.3252,412.39,412.51,-0.165168,412.799,-0.125,-0.0392455,0.0708594,0.0707435,-0.140019,0.421546,-3.09434e-05,-3.44294e-05,0.277678,0.07343029095897302,0.5243163279536203,-3.094292125793707e-05,0.07330588759756496,-3.442880731496789e-05,-0.1306582822507486
355,0.3262,413.017,413.8,0.260395,412.898,0.0790888,-0.0415237,0.0710475,0.0709364,-0.140396,0.422674,-2.80991e-05,-3.44881e-05,0.278429,0.07363222218773924,0.526036726894137,-2.8098705224022247e-05,0.07351294827364274,-3.448750529233546e-05,-0.1309859623067684
356,0.3272,413.127,413.791,0.155867,413.124,0.0423397,-0.0537774,0.0712362,0.0711245,-0.140773,0.423805,-2.84564e-05,-3.48017e-05,0.279181,0.07383483570404992,0.5277636508236521,-2.8455995120468813e-05,0.07371489505171192,-3.480109442788315e-05,-0.13131351885069065
357,0.3282,413.171,413.514,0.00186906,413.387,-0.0562045,-0.0327097,0.0714252,0.0713111,-0.141149,0.424936,-2.98701e-05,-3.46588e-05,0.279933,0.07403780966843354,0.5294925290090546,-2.9869653892955483e-05,0.07391526894543143,-3.465819939074688e-05,-0.13164008356958823
358,0.3292,413.513,414.112,0.127293,413.548,0.0226683,-0.0446006,0.0716133,0.071501,-0.141525,0.426063,-2.87961e-05,-3.48998e-05,0.280683,0.07423985518221698,0.5312172387806537,-2.8795685396265647e-05,0.07411922482000155,-3.489919100907457e-05,-0.13196652552323285
359,0.3302,413.486,413.686,-0.0984205,413.823,-0.101228,-0.0341137,0.0718021,0.0716867,-0.141901,0.427192,-3.06658e-05,-3.49102e-05,0.281434,0.0744426908139566,0.5329469592867317,-3.066532980910974e-05,0.07431870728142398,-3.490959064600396e-05,-0.13229284475777559
360,0.3312,414.002,414.72,0.208101,413.94,0.0592379,-0.0441979,0.0719897,0.0718779,-0.142276,0.428316,-2.84399e-05,-3.50921e-05,0.282183,0.07464427517077477,0.5346709603760771,-2.843949558983816e-05,0.07452413665667867,-3.509148427949249e-05,-0.13261817393795772
361,0.3322,413.773,413.786,-0.222842,414.264,-0.159265,-0.0346345,0.0721785,0.0720614,-0.142651,0.429446,-3.16887e-05,-3.51571e-05,0.282933,0.07484718716421646,0.5364061187411431,-3.168819791843358e-05,0.07472132992768432,-3.5156481996367894e-05,-0.1329433811425691
362,0.3332,414.017,414.114,-0.186185,414.453,-0.133601,-0.0416425,0.0723665,0.0722493,-0.143026,0.430571,-3.1732e-05,-3.53589e-05,0.283682,0.0750492774312932,0.5381355482464227,-3.173149654545071e-05,0.0749232890390421,-3.535827488143628e-05,-0.13326846641734202
363,0.3342,414.513,415.067,0.111559,414.582,0.00725925,-0.0416572,0.0725538,0.0724396,-0.1434,0.431693,-2.98984e-05,-3.54147e-05,0.284429,0.07525065301919098,0.5398623048608671,-2.989795304730869e-05,0.07512786640586544,-3.541407290696963e-05,-0.13359256340098813
364,0.3352,414.449,414.58,-0.16004,414.854,-0.123164,-0.0392655,0.0727419,0.0726244,-0.143775,0.432818,-3.19162e-05,-3.55486e-05,0.285177,0.07545292669026638,0.5415956247634697,-3.191569068350386e-05,0.07532656839507545,-3.5547968155968945e-05,-0.13391740527805407
365,0.3362,415.055,415.83,0.249874,414.951,0.0747961,-0.0419642,0.0729286,0.0728157,-0.144148,0.433938,-2.91611e-05,-3.56109e-05,0.285923,0.07565373249631824,0.5433231791130535,-2.9160674819284083e-05,0.07553229804502304,-3.5610265939456376e-05,-0.13424039384477293
366,0.3372,415.159,415.815,0.146455,415.171,0.0377788,-0.0536344,0.0731159,0.0730024,-0.144522,0.43506,-2.95364e-05,-3.59161e-05,0.286669,0.07585522130925293,0.5450557595158645,-2.9535963804838694e-05,0.07573311867109012,-3.591545502457105e-05,-0.13456412739552748
367,0.3382,415.212,415.568,0.00577915,415.425,-0.0538499,-0.0332965,0.0733034,0.0731877,-0.144896,0.436182,-3.08546e-05,-3.57818e-05,0.287416,0.076056963075948,0.5467902849648545,-3.085412400172238e-05,0.07593247048735519,-3.57811598390434e-05,-0.1348877398925724
368,0.3392,415.532,416.12,0.116309,415.584,0.0172684,-0.0446263,0.0734902,0.0733761,-0.145269,0.437301,-2.98943e-05,-3.60162e-05,0.288161,0.07625798929191463,0.548522112070285,-2.9893853169871143e-05,0.07613519526086909,-3.601555142440649e-05,-0.1352103665919725
369,0.3402,415.524,415.752,-0.0847139,415.847,-0.094486,-0.0346199,0.0736775,0.0735606,-0.145642,0.438422,-3.15883e-05,-3.60301e-05,0.288906,0.07645959129274704,0.5502589786897711,-3.1587801094912216e-05,0.07633376052147689,-3.602945092373577e-05,-0.13553287297405425
370,0.3412,415.998,416.689,0.185961,415.967,0.048649,-0.0441873,0.0738637,0.0737501,-0.146015,0.439538,-2.96133e-05,-3.62085e-05,0.289649,0.07666004673046789,0.5519900334588874,-2.961286153058129e-05,0.07653774509602362,-3.62078444802183e-05,-0.13585525908368778
371,0.3422,415.817,415.883,-0.192298,416.272,-0.144758,-0.035128,0.0740511,0.0739327,-0.146387,0.440659,-3.24982e-05,-3.62733e-05,0.290394,0.07686183172988903,0.5537307897980308,-3.2497671939246686e-05,0.07673433883674052,-3.627264213179604e-05,-0.13617666114281923
372,0.3432,416.049,416.192,-0.161201,416.456,-0.121409,-0.0424169,0.0742376,0.0741192,-0.146759,0.441775,-3.25334e-05,-3.64795e-05,0.291137,0.07706268519050963,0.5554657212711422,-3.253287079463263e-05,0.07693516851771909,-3.6478834631092916e-05,-0.13649794366262036
373,0.3442,416.503,417.043,0.099609,416.59,0.00108754,-0.0413483,0.0744235,0.0743078,-0.147131,0.442889,-3.09501e-05,-3.65241e-05,0.291878,0.07726292975584226,0.5571994756065046,-3.094962105054666e-05,0.07713829764497615,-3.652343300319938e-05,-0.1368191066875516
374,0.3452,416.47,416.647,-0.134686,416.846,-0.110943,-0.039706,0.0746102,0.0744915,-0.147502,0.444006,-3.26964e-05,-3.66619e-05,0.292621,0.07746407352101392,0.5589398392328899,-3.269586547849368e-05,0.07733618612575399,-3.666122796075477e-05,-0.1371392874017755
375,0.3462,417.012,417.739,0.215496,416.953,0.0582259,-0.0417859,0.0747956,0.0746808,-0.147873,0.445117,-3.03557e-05,-3.67234e-05,0.293361,0.07766385387931174,0.5606727838667709,-3.035523927041872e-05,0.07754014516990204,-3.672272570420798e-05,-0.1374593493509868
376,0.3472,416.761,416.772,-0.237057,417.267,-0.162623,-0.0373176,0.0749824,0.0748621,-0.148245,0.446234,-3.36451e-05,-3.68678e-05,0.294104,0.0778651802905177,0.5624170293460939,-3.3644534010002225e-05,0.07773552090849689,-3.686712039097095e-05,-0.13778015479951522
377,0.3482,417.009,417.118,-0.184197,417.447,-0.132839,-0.0420596,0.0751682,0.0750481,-0.148615,0.447347,-3.36256e-05,-3.70377e-05,0.294844,0.07806546624700483,0.5641569675957769,-3.362503466586286e-05,0.07793599835921095,-3.703701411283955e-05,-0.13809911713056933
378,0.3492,417.485,418.036,0.101421,417.57,0.00344282,-0.0425014,0.0753534,0.0752362,-0.148985,0.448456,-3.18576e-05,-3.7097e-05,0.295583,0.07826514246080052,0.5658925798919758,-3.185709255204561e-05,0.0781387771912534,-3.709631191484153e-05,-0.13841796146739127
379,0.3502,417.433,417.591,-0.148038,417.829,-0.118259,-0.0393915,0.0755394,0.0754191,-0.149355,0.449569,-3.37473e-05,-3.72202e-05,0.296322,0.07846571843028505,0.5676363885829174,-3.374673056633082e-05,0.07833598680787146,-3.721950733692747e-05,-0.1387366878536307
380,0.3512,418.0,418.755,0.229013,417.925,0.0658091,-0.0426187,0.0757241,0.075608,-0.149725,0.450676,-3.11934e-05,-3.72894e-05,0.29706,0.0786649294450501,0.5693727229488346,-3.119291349096276e-05,0.07853970371623564,-3.728870475894208e-05,-0.13905529633292135
381,0.3522,418.099,418.737,0.129593,418.136,0.0294108,-0.053344,0.0759093,0.0757926,-0.150095,0.451786,-3.15861e-05,-3.75806e-05,0.297798,0.07886471668971096,0.5711156938411934,-3.158560116434117e-05,0.0787388205234576,-3.757989385810845e-05,-0.1393737869488808
382,0.3532,418.166,418.545,0.0118357,418.375,-0.0501027,-0.0343006,0.0760947,0.0759761,-0.150464,0.452896,-3.27379e-05,-3.74608e-05,0.298536,0.07906475675132607,0.5728606005053976,-3.273736412079398e-05,0.07893678725991626,-3.74600983530371e-05,-0.1396912994368399
383,0.3542,418.454,419.024,0.0987348,418.533,0.00846301,-0.0446432,0.0762794,0.0761621,-0.150833,0.454002,-3.19619e-05,-3.76844e-05,0.299273,0.07926407841868732,0.574601146674163,-3.196138922390013e-05,0.07913748816695221,-3.768368995193949e-05,-0.14000869478430467
384,0.3552,418.477,418.75,-0.0634537,418.777,-0.0838449,-0.0355039,0.0764646,0.076345,-0.151202,0.455111,-3.33751e-05,-3.77043e-05,0.30001,0.07946397663601412,0.5763483479898832,-3.33745430575183e-05,0.07933488046451331,-3.7703589201854015e-05,-0.140325973034492
385,0.3562,418.889,419.536,0.152419,418.905,0.032334,-0.0441198,0.0766488,0.0765319,-0.15157,0.456215,-3.17897e-05,-3.78767e-05,0.300745,0.07966283221454695,0.578089597558971,-3.1789194712805724e-05,0.07953662700629915,-3.787598268689685e-05,-0.1406422748733075
386,0.3572,418.778,418.924,-0.146983,419.18,-0.122879,-0.0360312,0.076834,0.0767131,-0.151939,0.457322,-3.41215e-05,-3.79425e-05,0.301482,0.07986280428791548,0.5798375100345259,-3.412091786825222e-05,0.07973225676663387,-3.794178019245198e-05,-0.14095931937557116
387,0.3582,419.371,420.182,0.255587,419.26,0.0821429,-0.0446892,0.0770176,0.0769016,-0.152307,0.458423,-3.12541e-05,-3.80731e-05,0.302215,0.08006108530042266,0.5815778690248927,-3.125361159572737e-05,0.07993580548089785,-3.8072375228681565e-05,-0.14127538818581287
388,0.3592,419.453,420.12,0.14345,419.473,0.0374084,-0.0542643,0.0772019,0.0770851,-0.152675,0.459528,-3.17335e-05,-3.83543e-05,0.30295,0.08026015890251248,0.5833264784989751,-3.173299649783523e-05,0.08013399188425008,-3.835356448322891e-05,-0.14159134070413149
389,0.3602,419.501,419.881,0.0109801,419.713,-0.0505832,-0.0342366,0.0773863,0.0772674,-0.153042,0.460632,-3.29954e-05,-3.82256e-05,0.303684,0.08045937724318075,0.5850754361782387,-3.299485565777527e-05,0.08033091826026428,-3.822486941107428e-05,-0.14190631888006244
390,0.3612,419.793,420.377,0.105341,419.865,0.0120626,-0.0448947,0.07757,0.0774526,-0.153409,0.461733,-3.21566e-05,-3.84501e-05,0.304417,0.0806578758623202,0.5868215653011648,-3.215608298212658e-05,0.0805310140746267,-3.8449360804326815e-05,-0.14222118148021234
391,0.3622,419.799,420.063,-0.0703372,420.109,-0.0874568,-0.0353807,0.0777543,0.0776343,-0.153776,0.462835,-3.3672e-05,-3.84689e-05,0.30515,0.08085705946304667,0.5885712065413857,-3.367143310462062e-05,0.08072736439777062,-3.846816008135079e-05,-0.1425359285469896
392,0.3632,420.223,420.887,0.160789,420.229,0.0368432,-0.0444254,0.0779375,0.0778205,-0.154143,0.463934,-3.19688e-05,-3.86411e-05,0.305882,0.08105509061543992,0.5903180059878552,-3.196828900331461e-05,0.08092861456883105,-3.864035344236516e-05,-0.14285056012278718
393,0.3642,420.089,420.22,-0.157728,420.506,-0.128515,-0.0358431,0.0781218,0.0780006,-0.154509,0.465036,-3.44464e-05,-3.87065e-05,0.306614,0.0812543474295917,0.5920715024295387,-3.444580672962161e-05,0.08112330734387285,-3.8705750913137216e-05,-0.14316421941463053
394,0.3652,420.701,421.536,0.267698,420.575,0.0887202,-0.0451136,0.0783044,0.0781883,-0.154875,0.466131,-3.14024e-05,-3.88361e-05,0.307344,0.08145180250053174,0.5938157755399414,-3.1401906949835023e-05,0.08132625323453735,-3.883534588844384e-05,-0.14347776392817868
395,0.3662,420.774,421.455,0.149854,420.786,0.0409291,-0.0545345,0.0784877,0.0783708,-0.155241,0.46723,-3.19133e-05,-3.91166e-05,0.308075,0.08165005078483034,0.5955683419360984,-3.191279077607856e-05,0.08152361328430935,-3.911583495574966e-05,-0.14379119370543292
396,0.3672,420.812,421.193,0.0100563,421.025,-0.0510893,-0.0342191,0.0786713,0.0785522,-0.155607,0.468328,-3.32285e-05,-3.89864e-05,0.308806,0.08184865996591939,0.5973212381394519,-3.32279479394737e-05,0.08171981946312168,-3.8985640040234415e-05,-0.144104508788379
397,0.3682,421.104,421.695,0.108117,421.173,0.0136355,-0.0450341,0.078854,0.0787364,-0.155972,0.469423,-3.23581e-05,-3.92104e-05,0.309535,0.0820463317728648,0.5990712628588881,-3.235757648234472e-05,0.08191909060617553,-3.9209631282344226e-05,-0.14441685363626877
398,0.3692,421.1,421.362,-0.0733373,421.415,-0.0890665,-0.0353637,0.0790374,0.0789172,-0.156337,0.470521,-3.39185e-05,-3.92294e-05,0.310265,0.0822447972688416,0.6008280073817553,-3.391792477414057e-05,0.08211471926205482,-3.922863053718029e-05,-0.14472908449909272
399,0.3702,421.526,422.199,0.1634,421.53,0.0384352,-0.0446102,0.0792196,0.0791024,-0.156702,0.471613,-3.21687e-05,-3.94003e-05,0.310992,0.08244200023554882,0.6025770663782208,-3.216818259288434e-05,0.08231514546695573,-3.939952381837308e-05,-0.14504120141844756
400,0.3712,421.383,421.511,-0.160893,421.806,-0.130358,-0.035778,0.079403,0.0792815,-0.157066,0.47271,-3.46953e-05,-3.94659e-05,0.311721,0.08264053830377627,0.6043360580505712,-3.469469812500403e-05,0.08250900546915396,-3.9465121231652134e-05,-0.14535234978869238
401,0.3722,421.997,422.839,0.269631,421.87,0.0901922,-0.0453657,0.0795846,0.0794684,-0.15743,0.473799,-3.16033e-05,-3.95944e-05,0.312447,0.08283716367857585,0.6060841316711183,-3.160280062097787e-05,0.08271134531034519,-3.959361615213375e-05,-0.14566338492154085
402,0.3732,422.064,422.748,0.149536,422.078,0.040936,-0.054546,0.079767,0.0796499,-0.157795,0.474892,-3.21346e-05,-3.98721e-05,0.313175,0.08303469119119233,0.6078405413300556,-3.213408368929471e-05,0.08290787525407195,-3.987130511839965e-05,-0.14597516088347007
403,0.3742,422.1,422.485,0.0109033,422.313,-0.0505247,-0.0343685,0.0799496,0.0798303,-0.158158,0.475985,-3.34411e-05,-3.97441e-05,0.313901,0.08323247138258583,0.6095988717942791,-3.344054085263615e-05,0.08310324945699099,-3.974331021372457e-05,-0.14628511563987756
404,0.3752,422.385,422.976,0.105838,422.458,0.0125825,-0.0450541,0.0801314,0.0800136,-0.158522,0.477075,-3.25938e-05,-3.99656e-05,0.314627,0.08342942094805617,0.6113542910942522,-3.2593268827874056e-05,0.08330180047926183,-3.9964801386016546e-05,-0.14659581130774257
405,0.3762,422.384,422.652,-0.070478,422.696,-0.0876541,-0.0354965,0.0803138,0.0801935,-0.158885,0.478167,-3.41182e-05,-3.99859e-05,0.315353,0.08362705649825153,0.6131148510709239,-3.411761798088886e-05,0.0834967040042145,-3.998510057456883e-05,-0.14690554080893237
406,0.3772,422.798,423.465,0.157926,422.809,0.0359073,-0.0446306,0.0804952,0.0803777,-0.159248,0.479254,-3.24251e-05,-4.01547e-05,0.316077,0.08382364427627254,0.6148692602626875,-3.242457431207324e-05,0.08369630247954718,-4.0153893810845886e-05,-0.1472151578987171
407,0.3782,422.664,422.806,-0.1535,423.079,-0.126876,-0.0359004,0.0806776,0.080556,-0.15961,0.480345,-3.48645e-05,-4.02206e-05,0.316802,0.0840213517393611,0.6166320440493391,-3.486389224038877e-05,0.08388954275713822,-4.021979116253238e-05,-0.14752381014213112
408,0.3792,423.256,424.083,0.257683,423.145,0.08463,-0.0453693,0.0808583,0.0807418,-0.159973,0.481429,-3.19028e-05,-4.03481e-05,0.317525,0.08421725209668462,0.6183854233449735,-3.190229111105225e-05,0.0840909481441634,-4.034728602630988e-05,-0.14783320284087742
409,0.3802,423.322,423.994,0.140396,423.349,0.0362808,-0.0542093,0.0810398,0.0809224,-0.160335,0.482516,-3.24361e-05,-4.06202e-05,0.318248,0.08441405538729851,0.6201455647637,-3.243557395538055e-05,0.08428675265001306,-4.06193750108752e-05,-0.14814163139251302
410,0.3812,423.367,423.761,0.0137833,423.578,-0.0486902,-0.034743,0.0812214,0.081102,-0.160697,0.483604,-3.36541e-05,-4.04994e-05,0.318971,0.08461100286204637,0.6219092424048209,-3.365353370710089e-05,0.08448150803929932,-4.04985799103974e-05,-0.14844994831321934
411,0.3822,423.638,424.217,0.0973253,423.723,0.0082511,-0.0449205,0.0814024,0.0812843,-0.161058,0.484688,-3.28973e-05,-4.07156e-05,0.319693,0.08480733522110673,0.6236683452850953,-3.289675888973331e-05,0.08467922703975428,-4.071477113121169e-05,-0.1487573024011275
412,0.3832,423.651,423.939,-0.0605955,423.952,-0.0825733,-0.035834,0.0815838,0.0814634,-0.16142,0.485774,-3.42862e-05,-4.07386e-05,0.320415,0.08500413712110855,0.6254326069287504,-3.428561223495219e-05,0.08487351048688052,-4.0737770194532175e-05,-0.14906539648926387
413,0.3842,424.037,424.683,0.142852,424.069,0.0284304,-0.0444422,0.0817643,0.0816465,-0.161781,0.486856,-3.27742e-05,-4.09043e-05,0.321136,0.08519999804377543,0.6271922768191842,-3.277366293175099e-05,0.08507216901328363,-4.090346343055273e-05,-0.14937252844047855
414,0.3852,423.935,424.111,-0.133773,424.326,-0.117101,-0.0362743,0.0819457,0.0818242,-0.162142,0.487941,-3.49642e-05,-4.09708e-05,0.321857,0.08539687117927408,0.6289587385717401,-3.4963588759429065e-05,0.08526500347055133,-4.0969960708236997e-05,-0.1496795495370693
415,0.3862,424.477,425.261,0.229739,424.401,0.070876,-0.0450622,0.0821256,0.0820086,-0.162502,0.48902,-3.2342e-05,-4.10975e-05,0.322576,0.08559215164135026,0.6307173336420804,-3.234147700315049e-05,0.08546514478965395,-4.1096655509331725e-05,-0.14998560980508224
416,0.3872,424.548,425.19,0.121433,424.601,0.02638,-0.0534736,0.0823061,0.0821883,-0.162863,0.490102,-3.28527e-05,-4.13608e-05,0.323296,0.08578811871021741,0.632482724701412,-3.285216035597838e-05,0.08566022040319154,-4.1359944653929226e-05,-0.15029240961924428
417,0.3882,424.614,425.021,0.0186297,424.819,-0.0455834,-0.0353721,0.0824868,0.0823673,-0.163223,0.491183,-3.38945e-05,-4.12529e-05,0.324016,0.08598433835117891,0.6342483926984257,-3.389392558794668e-05,0.08585457097650107,-4.1252049110873656e-05,-0.15059824929733623
418,0.3892,424.861,425.418,0.0822811,424.967,0.00044364,-0.0446195,0.0826669,0.0825484,-0.163582,0.492262,-3.32988e-05,-4.14609e-05,0.324734,0.08617994174407273,0.6360126983858927,-3.3298245601165455e-05,0.08605123704688,-4.146004050875618e-05,-0.15090312979651443
419,0.3902,424.904,425.223,-0.0435649,425.185,-0.0737107,-0.036406,0.0828473,0.0827269,-0.163942,0.493342,-3.44481e-05,-4.1488e-05,0.325452,0.0863759062810332,0.6377805465663322,-3.444750667103147e-05,0.08624511449574035,-4.148713938478821e-05,-0.1512087496549125
420,0.3912,425.245,425.853,0.118107,425.31,0.01591,-0.0440299,0.083027,0.0829086,-0.164301,0.494419,-3.32449e-05,-4.16494e-05,0.326169,0.08657114557311685,0.6395453864106495,-3.324434739448989e-05,0.08644250316526181,-4.164853267574209e-05,-0.15151341102379856
421,0.3922,425.196,425.428,-0.101828,425.548,-0.101013,-0.0369319,0.0832074,0.083086,-0.16466,0.495499,-3.50217e-05,-4.17169e-05,0.326887,0.0867671806896142,0.6413170519551612,-3.502108674746651e-05,0.08663525516192006,-4.171602986224876e-05,-0.1518179630388834
422,0.3932,425.66,426.377,0.186195,425.641,0.0490461,-0.0444278,0.0833865,0.0832687,-0.165019,0.496573,-3.29468e-05,-4.18429e-05,0.327603,0.0869618381227284,0.6430807734178523,-3.294625726013578e-05,0.08683380155969922,-4.184202459811548e-05,-0.15212240573941804
423,0.3942,425.457,425.547,-0.190386,425.919,-0.144659,-0.0361299,0.0835669,0.0834443,-0.165378,0.497652,-3.58346e-05,-4.19367e-05,0.32832,0.08715794372651953,0.6448546143874749,-3.583395794837241e-05,0.08702466633268968,-4.193582066891466e-05,-0.1524267391646391
424,0.3952,425.681,425.873,-0.141211,426.075,-0.113677,-0.0425155,0.0837464,0.083624,-0.165736,0.498727,-3.57306e-05,-4.21198e-05,0.329035,0.08735310609271663,0.6466237838561562,-3.572996166967268e-05,0.0872200222174302,-4.211891297367654e-05,-0.15273011608430942
425,0.3962,426.065,426.593,0.074453,426.193,-0.00996073,-0.0421799,0.0839254,0.0838053,-0.166093,0.499799,-3.44068e-05,-4.21667e-05,0.329749,0.0875477597196872,0.6483899110274802,-3.440620809280759e-05,0.08741715307683062,-4.216581099725225e-05,-0.15303253744744205
426,0.3972,426.067,426.32,-0.0986183,426.41,-0.0950135,-0.0401347,0.0841051,0.0839827,-0.166451,0.500874,-3.57566e-05,-4.22919e-05,0.330464,0.08774320961275572,0.6501628829835202,-3.5755960740346815e-05,0.0876100779917206,-4.2291005710182183e-05,-0.1533356975301432
427,0.3982,426.491,427.157,0.15697,426.514,0.0318173,-0.0426991,0.0842836,0.0841643,-0.166809,0.501945,-3.40246e-05,-4.23608e-05,0.331178,0.08793738910567583,0.6519311541713932,-3.4024021169809515e-05,0.08780760591687664,-4.235990279399804e-05,-0.15363874910095954
428,0.3992,426.351,426.505,-0.157382,426.771,-0.126053,-0.038099,0.0844633,0.0843399,-0.167166,0.503019,-3.64002e-05,-4.24888e-05,0.331892,0.08813290902143645,0.6537062813036127,-3.639953752077041e-05,0.087998641704927,-4.248789736371883e-05,-0.1539408461400006
429,0.4002,426.926,427.747,0.24998,426.831,0.0795562,-0.044553,0.0846413,0.0845228,-0.167523,0.504087,-3.3522e-05,-4.25661e-05,0.332604,0.08832661391846663,0.6554733830764252,-3.352143814405739e-05,0.08819765485569264,-4.256519407641601e-05,-0.15424283534964733
430,0.4012,426.982,427.646,0.130321,427.027,0.0308477,-0.0537439,0.0848201,0.0847007,-0.16788,0.505159,-3.40785e-05,-4.28412e-05,0.333317,0.08852122411466823,0.6572490021048396,-3.407791933451865e-05,0.08839126243937545,-4.284028232892645e-05,-0.154544716768388
431,0.4022,427.032,427.445,0.0180948,427.242,-0.0461729,-0.0354053,0.084999,0.0848778,-0.168236,0.506229,-3.51874e-05,-4.27334e-05,0.334029,0.08871597798187647,0.6590232075677405,-3.5186780930729356e-05,0.08858403360133593,-4.273248694131038e-05,-0.15484564528076505
432,0.4032,427.277,427.847,0.0850015,427.383,0.00204661,-0.0449821,0.0851772,0.0850571,-0.168592,0.507298,-3.45579e-05,-4.29422e-05,0.33474,0.08891000445639818,0.660797651648011,-3.4557302882598506e-05,0.0887792342177729,-4.2941277996977334e-05,-0.15514646668165866
433,0.4042,427.308,427.629,-0.0465345,427.596,-0.0754326,-0.0365583,0.0853559,0.0852338,-0.168948,0.508367,-3.57541e-05,-4.29697e-05,0.335451,0.08910461006168746,0.6625739936232471,-3.575346082973496e-05,0.0889716385068775,-4.296877681564393e-05,-0.15544718100919375
434,0.4052,427.648,428.267,0.119757,427.714,0.0171089,-0.0444412,0.0855337,0.0854138,-0.169304,0.509433,-3.45079e-05,-4.31293e-05,0.336161,0.08929827007722158,0.664347242474167,-3.450730460929918e-05,0.08916767104420797,-4.312836994513347e-05,-0.15574778830148162
435,0.4062,427.59,427.823,-0.104028,427.948,-0.102506,-0.0370541,0.0857123,0.0855893,-0.169659,0.510502,-3.63231e-05,-4.31972e-05,0.336872,0.08949283612248804,0.6661273809908863,-3.632244032414356e-05,0.08935883674477574,-4.319626701443369e-05,-0.15604744464448672
436,0.4072,428.049,428.774,0.185716,428.033,0.0494168,-0.0448886,0.0858896,0.0857703,-0.170014,0.511565,-3.42203e-05,-4.33213e-05,0.33758,0.08968602032760642,0.6678994160666603,-3.4219714492245146e-05,0.08955602853954558,-4.332036164600428e-05,-0.15634699462836987
437,0.4082,427.842,427.939,-0.189082,428.306,-0.144703,-0.0361982,0.0860683,0.0859441,-0.170369,0.512634,-3.71139e-05,-4.3415e-05,0.33829,0.08988076461932315,0.6696833538873161,-3.711321128774259e-05,0.08974540983406354,-4.341405758256922e-05,-0.15664643829088198
438,0.4092,428.063,428.268,-0.136426,428.455,-0.111894,-0.0425847,0.086246,0.0861221,-0.170724,0.513698,-3.69767e-05,-4.35952e-05,0.338999,0.09007445363995581,0.6714608424320674,-3.697601637020487e-05,0.08993940178178517,-4.3594249743095226e-05,-0.1569457756697603
439,0.4102,428.432,428.959,0.0689731,428.57,-0.0125079,-0.0424059,0.0864232,0.0863015,-0.171078,0.51476,-3.57123e-05,-4.36424e-05,0.339706,0.0902676319482334,0.6732368767540311,-3.571166232341216e-05,0.09013495445101483,-4.3641447684317214e-05,-0.15724416404731434
440,0.4112,428.441,428.713,-0.0909172,428.778,-0.0915646,-0.0403534,0.086601,0.0864772,-0.171432,0.515824,-3.69742e-05,-4.37656e-05,0.340414,0.09046149876744325,0.6750181482592905,-3.697351646270164e-05,0.0903265079899973,-4.376464230004817e-05,-0.1575424468140768
441,0.4122,428.84,429.494,0.144687,428.881,0.0261119,-0.0429448,0.0867778,0.0866568,-0.171786,0.516884,-3.53732e-05,-4.38354e-05,0.34112,0.09065430940438346,0.6767946088542249,-3.5372574375691634e-05,0.09052234821675831,-4.383443924294017e-05,-0.1578406240074276
442,0.4132,428.722,428.907,-0.14132,429.125,-0.118535,-0.0384279,0.0869556,0.0868309,-0.17214,0.517948,-3.75575e-05,-4.39609e-05,0.341827,0.09084824498095734,0.6785796678010005,-3.7556794725945863e-05,0.09071222468584983,-4.395993373385032e-05,-0.15813869566473282
443,0.4142,429.252,430.042,0.225746,429.19,0.0680433,-0.0446814,0.0871319,0.0870117,-0.172493,0.519005,-3.4953e-05,-4.40394e-05,0.342532,0.09104057848024727,0.6803548645360629,-3.495238915096621e-05,0.09090944328409711,-4.4038430279891294e-05,-0.1584358202595868
444,0.4152,429.309,429.951,0.113407,429.379,0.0220066,-0.0532228,0.0873089,0.0871878,-0.172847,0.520066,-3.54998e-05,-4.43036e-05,0.343238,0.09123370975425193,0.6821386671873033,-3.549916988954127e-05,0.0911015693532633,-4.430261860999263e-05,-0.15873368125470821
445,0.4162,429.375,429.804,0.0222063,429.581,-0.0433709,-0.0362467,0.087486,0.0873633,-0.1732,0.521126,-3.64505e-05,-4.42094e-05,0.343943,0.09142698435821028,0.6839226795340225,-3.6449835688623367e-05,0.09129307448276847,-4.4208422778857503e-05,-0.15903059585671486
446,0.4172,429.596,430.149,0.0710897,429.722,-0.00526361,-0.044857,0.0876625,0.0875407,-0.173552,0.522184,-3.59698e-05,-4.44086e-05,0.344647,0.09161963822215302,0.6857052125226453,-3.596915309445059e-05,0.0914866870471085,-4.440761395274606e-05,-0.1593265649933493
447,0.4182,429.651,430.005,-0.0313693,429.922,-0.0674511,-0.0373345,0.0878394,0.087716,-0.173905,0.523243,-3.69461e-05,-4.44413e-05,0.345352,0.09181276281752115,0.6874913199196497,-3.694541750121072e-05,0.09167804143506975,-4.444031250006031e-05,-0.15962327034433121
448,0.4192,429.947,430.535,0.096862,430.045,0.00544005,-0.0442202,0.0880155,0.0878938,-0.174257,0.524298,-3.59832e-05,-4.45952e-05,0.346055,0.09200504797526454,0.6892725627025189,-3.598255261239025e-05,0.09187215904738144,-4.45942056488402e-05,-0.15991903089625903
449,0.4202,429.935,430.222,-0.0752454,430.259,-0.0879287,-0.0378978,0.0881922,0.0880681,-0.174609,0.525356,-3.74192e-05,-4.4665e-05,0.346758,0.09219802231602281,0.6910607588628235,-3.741849991045765e-05,0.09206248895147251,-4.466400253377856e-05,-0.1602146873587934
450,0.4212,430.32,430.987,0.145743,430.358,0.0292869,-0.0444676,0.0883679,0.0882466,-0.17496,0.52641,-3.58168e-05,-4.4787e-05,0.34746,0.09238993836787524,0.6928440765459909,-3.5816158586055025e-05,0.09225743950456966,-4.478599707724573e-05,-0.16050940027838734
451,0.4222,430.198,430.386,-0.137728,430.601,-0.11898,-0.0373139,0.0885446,0.0884196,-0.175312,0.527467,-3.8048e-05,-4.48794e-05,0.348163,0.09258298072477467,0.6946343587323529,-3.804727618406112e-05,0.09244641638763307,-4.4878392934766254e-05,-0.16080484896746938
452,0.4232,430.72,431.515,0.222926,430.661,0.0684312,-0.045669,0.0887198,0.0885992,-0.175663,0.528518,-3.54307e-05,-4.49824e-05,0.348863,0.09277441803241615,0.6964163557187641,-3.5430072340192353e-05,0.09264263738413425,-4.498138830699716e-05,-0.16109935477668869
453,0.4242,430.773,431.416,0.110912,430.847,0.0210349,-0.0533019,0.0888957,0.0887742,-0.176014,0.529572,-3.59986e-05,-4.52356e-05,0.349565,0.09296665395920223,0.6982053211768722,-3.599795205821987e-05,0.09283386657774284,-4.5234576885655464e-05,-0.1613937572325086
454,0.4252,430.839,431.275,0.0230498,431.046,-0.0425431,-0.0365929,0.0890717,0.0889486,-0.176365,0.530625,-3.6924e-05,-4.51447e-05,0.350265,0.09315903301915962,0.6999944732032943,-3.6923318317505505e-05,0.09302447342450804,-4.514368099339805e-05,-0.16168805637119954
455,0.4262,431.052,431.604,0.0679309,431.185,-0.00690268,-0.0448489,0.0892471,0.0891249,-0.176715,0.531676,-3.64786e-05,-4.53393e-05,0.350965,0.09335078993014068,0.7017821066314458,-3.647793466399207e-05,0.09321719062669498,-4.533827218944353e-05,-0.161981414210853
456,0.4272,431.111,431.474,-0.0280043,431.379,-0.0656039,-0.0375975,0.0894228,0.0892991,-0.177066,0.532728,-3.74045e-05,-4.53742e-05,0.351665,0.09354290854105707,0.7035733234224584,-3.7403800460467096e-05,0.09340764564945303,-4.537317060659962e-05,-0.16227550711814043
457,0.4282,431.394,431.976,0.090949,431.501,0.00248075,-0.0441958,0.0895978,0.0894757,-0.177416,0.533777,-3.65103e-05,-4.5525e-05,0.352364,0.09373429529590438,0.7053613094734539,-3.6509633507098016e-05,0.09360075849103677,-4.5523963752902574e-05,-0.16256865938600962
458,0.4292,431.392,431.695,-0.0680213,431.709,-0.0842668,-0.0381562,0.0897734,0.089649,-0.177765,0.534828,-3.78506e-05,-4.55959e-05,0.353063,0.09392637190199093,0.7071545864116702,-3.784988367505626e-05,0.09379029592542754,-4.559486052280182e-05,-0.162860871929829
459,0.4302,431.755,432.409,0.134795,431.809,0.0238819,-0.0444056,0.089948,0.0898262,-0.178115,0.535875,-3.63784e-05,-4.57161e-05,0.35376,0.09411738812175563,0.7089429132893987,-3.6377738313997376e-05,0.09398413273930006,-4.5715055035033814e-05,-0.16315381935586348
460,0.4312,431.655,431.869,-0.123801,432.042,-0.112056,-0.0376329,0.0901236,0.0899983,-0.178464,0.536926,-3.84315e-05,-4.58084e-05,0.354459,0.09430953200484904,0.7107399564720405,-3.8430761519325785e-05,0.09417242361050904,-4.5807350811277736e-05,-0.1634458277144858
461,0.4322,432.14,432.907,0.203128,432.108,0.0586418,-0.0454999,0.0902977,0.0901765,-0.178813,0.53797,-3.60547e-05,-4.59107e-05,0.355155,0.09450006788003784,0.7125269016096543,-3.605405003714868e-05,0.0943674225102824,-4.590964611994597e-05,-0.1637377341799724
462,0.4332,431.887,431.96,-0.209215,432.382,-0.155625,-0.0361957,0.0904733,0.0903468,-0.179162,0.53902,-3.92406e-05,-4.60185e-05,0.355853,0.09469227896759702,0.7143259992172966,-3.9239830097681505e-05,0.09455380915270806,-4.601744116505824e-05,-0.16402953878787763
463,0.4342,432.114,432.319,-0.140961,432.518,-0.115533,-0.0421898,0.0906479,0.0905218,-0.17951,0.540066,-3.90088e-05,-4.61849e-05,0.356548,0.09488342892641066,0.716120122375308,-3.9008039166676944e-05,0.09474537283064288,-4.618383349397348e-05,-0.16432040589456742
464,0.4352,432.471,433.001,0.0618115,432.622,-0.0153463,-0.0430933,0.090822,0.0906982,-0.179858,0.541109,-3.77352e-05,-4.62393e-05,0.357244,0.09507406472575153,0.7179109694273351,-3.773448803634505e-05,0.09493850294798567,-4.623823098004465e-05,-0.1646111717971147
465,0.4362,432.482,432.771,-0.0860956,432.819,-0.0900198,-0.0404847,0.0909967,0.0908709,-0.180206,0.542155,-3.89343e-05,-4.63549e-05,0.357939,0.09526539087671182,0.7197088444260571,-3.8933542069963245e-05,0.0951276151568139,-4.6353825628231426e-05,-0.1649018365307322
466,0.4372,432.856,433.506,0.133119,432.917,0.0212595,-0.0435853,0.0911704,0.0910473,-0.180554,0.543197,-3.74243e-05,-4.64276e-05,0.358633,0.09545565499906772,0.7215017149652805,-3.7423599719588196e-05,0.09532081270765058,-4.642652225561594e-05,-0.16519240013062075
467,0.4382,432.754,432.971,-0.127086,433.145,-0.112338,-0.0387067,0.0913451,0.0912186,-0.180902,0.544242,-3.94489e-05,-4.65476e-05,0.359328,0.09564704781967226,0.7233016245463797,-3.944812190237457e-05,0.09550845723416224,-4.654651667723719e-05,-0.16548286263196876
468,0.4392,433.237,434.004,0.201788,433.21,0.0571524,-0.0451564,0.0915184,0.0913959,-0.181249,0.545281,-3.7089e-05,-4.66278e-05,0.360021,0.09583693990673336,0.7250930654266625,-3.708831221149733e-05,0.09570270810346071,-4.662671294097809e-05,-0.16577238984275922
469,0.4402,432.986,433.069,-0.207042,433.48,-0.154111,-0.0367973,0.0916931,0.0915654,-0.181596,0.546326,-4.0233e-05,-4.67502e-05,0.360715,0.09602839934362994,0.7268967299305995,-4.0232190663735956e-05,0.09588844545327979,-4.674910722646253e-05,-0.1660618166050365
470,0.4412,433.212,433.427,-0.137203,433.613,-0.113767,-0.0424483,0.0918669,0.0917396,-0.181943,0.547366,-3.99909e-05,-4.69112e-05,0.361408,0.09621890563395308,0.7286936367593171,-3.999010037458728e-05,0.09607936584916144,-4.691009968682547e-05,-0.16635114295364983
471,0.4422,433.56,434.089,0.0588767,433.717,-0.016758,-0.0432739,0.0920401,0.091915,-0.182289,0.548405,-3.87605e-05,-4.69647e-05,0.3621,0.096408787191677,0.7304906828516926,-3.8759748821504125e-05,0.09627163503144587,-4.696359717570875e-05,-0.1666395355633894
472,0.4432,433.576,433.875,-0.0816223,433.909,-0.0879395,-0.0406951,0.092214,0.0920869,-0.182635,0.549446,-3.99082e-05,-4.70794e-05,0.362792,0.0965994692590948,0.7322930616279271,-3.990740367842971e-05,0.09646010032363539,-4.707829178240974e-05,-0.1669278284065464
473,0.4442,433.937,434.581,0.126713,434.007,0.0181234,-0.0437271,0.0923869,0.0922624,-0.182981,0.550483,-3.84729e-05,-4.71526e-05,0.363482,0.09678908769937156,0.7340903812820108,-3.847215992747177e-05,0.09665254595785266,-4.715148833367433e-05,-0.16721602151763448
474,0.4452,433.847,434.081,-0.118949,434.229,-0.108425,-0.0389848,0.0925607,0.092433,-0.183327,0.551522,-4.03956e-05,-4.72716e-05,0.364174,0.09697972620882034,0.7358930375059041,-4.039478410877706e-05,0.09683965084178592,-4.7270482715466855e-05,-0.1675041149311547
475,0.4462,434.308,435.06,0.190157,434.297,0.0514002,-0.0452197,0.0927332,0.0926093,-0.183673,0.552557,-3.81747e-05,-4.73522e-05,0.364863,0.09716897153353132,0.7376906168865844,-3.8173971355415226e-05,0.09703304071904606,-4.735107890230239e-05,-0.16779210868159655
476,0.4472,434.08,434.191,-0.192151,434.557,-0.146829,-0.0371785,0.092907,0.0927782,-0.184018,0.553597,-4.11307e-05,-4.74735e-05,0.365555,0.09735967607252816,0.7394987551970944,-4.112985414439496e-05,0.09721834524815054,-4.74723731512805e-05,-0.16807917088302438
477,0.4482,434.299,434.535,-0.127012,434.689,-0.108613,-0.0429198,0.0930799,0.0929515,-0.184363,0.554632,-4.09013e-05,-4.76365e-05,0.366244,0.09754942596392646,0.7413000684275193,-4.09004635532062e-05,0.09740850966465286,-4.763536539997837e-05,-0.1683661340650745
478,0.4492,434.631,435.159,0.055515,434.794,-0.0186962,-0.0432308,0.0932523,0.093126,-0.184708,0.555666,-3.97664e-05,-4.76855e-05,0.366932,0.09773865979645047,0.7431015038799009,-3.9765609327169216e-05,0.09760002415874292,-4.768436306457069e-05,-0.16865299826190272
479,0.4502,434.656,434.972,-0.0738195,434.981,-0.0839997,-0.0410251,0.0934253,0.0932972,-0.185053,0.556701,-4.08272e-05,-4.78021e-05,0.367621,0.09792858501265278,0.7449065478855554,-4.0826366581203644e-05,0.09778794936881785,-4.780095749779001e-05,-0.16893976350765316
480,0.4512,434.997,435.629,0.117058,435.081,0.0131509,-0.0437055,0.0935974,0.0934716,-0.185397,0.557733,-3.95194e-05,-4.78743e-05,0.368308,0.09811755478251571,0.7467082209463707,-3.9518619118772413e-05,0.09797942028296625,-4.787315404397585e-05,-0.16922559906247236
481,0.4522,434.927,435.185,-0.106453,435.295,-0.10214,-0.0394032,0.0937704,0.0936416,-0.185741,0.558768,-4.12793e-05,-4.79936e-05,0.368997,0.09830754555322097,0.7485169998366585,-4.12784480213757e-05,0.09816609265111609,-4.799244832565108e-05,-0.16951133630677107
482,0.4532,435.356,436.085,0.173307,435.368,0.0428218,-0.0451103,0.093942,0.0938168,-0.186085,0.559798,-3.92725e-05,-4.80741e-05,0.369683,0.09849603129965234,0.7503189001658568,-3.927172884543584e-05,0.09835850820565883,-4.8072944458965594e-05,-0.16979697527436233
483,0.4542,435.164,435.314,-0.17086,435.616,-0.136121,-0.0377372,0.094115,0.0939853,-0.186429,0.560832,-4.19499e-05,-4.81945e-05,0.370371,0.09868608755245911,0.7521296659131871,-4.1949020115228386e-05,0.09854359720760208,-4.8193338663793384e-05,-0.17008251599904756
484,0.4552,435.739,436.608,0.254786,435.647,0.0857995,-0.0471617,0.0942861,0.0941618,-0.186772,0.561859,-3.88291e-05,-4.8273e-05,0.371055,0.09887408882508941,0.7539300274074661,-3.8828346160202365e-05,0.09873750726456842,-4.8271834877433584e-05,-0.17036712888216
485,0.4562,435.762,436.445,0.123646,435.827,0.0281028,-0.0542857,0.0944581,0.0943327,-0.187116,0.56289,-3.95196e-05,-4.85269e-05,0.371741,0.09906311142384494,0.7557392617657728,-3.951881911090638e-05,0.09892529755078283,-4.852572258906562e-05,-0.17065247350773516
486,0.4572,435.805,436.258,0.0235024,436.018,-0.0423765,-0.0372405,0.0946302,0.0945031,-0.187459,0.563921,-4.05348e-05,-4.84381e-05,0.372427,0.09925227646250567,0.7575503624066062,-4.053397847614271e-05,0.09911257037667709,-4.843692689415757e-05,-0.1709368909289457
487,0.4582,436.008,436.58,0.069507,436.146,-0.00592674,-0.0455819,0.0948018,0.0946755,-0.187802,0.564949,-4.00736e-05,-4.8629e-05,0.373111,0.09944092433867135,0.7593580531730193,-4.007279706397249e-05,0.09930207371852862,-4.86278176293764e-05,-0.1712212108117097
488,0.4592,436.053,436.429,-0.029616,436.33,-0.0666757,-0.0382716,0.0949736,0.0948458,-0.188144,0.565978,-4.10277e-05,-4.86672e-05,0.373796,0.09962982451553337,0.7611693643695205,-4.102685837548137e-05,0.09948930080361662,-4.866601577102614e-05,-0.1715046046944959
489,0.4602,436.324,436.921,0.0888026,436.441,0.00173308,-0.0449553,0.0951448,0.0950186,-0.188487,0.567004,-4.01265e-05,-4.88124e-05,0.374479,0.09981809725717716,0.7629772514248299,-4.012569494271645e-05,0.09967930897102839,-4.8811208694155006e-05,-0.17178872988482996
490,0.4612,436.315,436.636,-0.0660971,436.637,-0.0838084,-0.0387954,0.0953165,0.0951882,-0.188829,0.568032,-4.14493e-05,-4.88855e-05,0.375163,0.10000695223721245,0.7647905239016612,-4.1448440989633184e-05,0.09986583039839991,-4.888430512339781e-05,-0.1720719297092791
491,0.4622,436.658,437.317,0.12673,436.729,0.02043,-0.0451763,0.0954873,0.0953614,-0.18917,0.569056,-4.00308e-05,-4.90007e-05,0.375845,0.10019484947062152,0.7665985949725331,-4.002999877816826e-05,0.10005634365819693,-4.8999499485335996e-05,-0.1723542050505672
492,0.4632,436.565,436.809,-0.113624,436.946,-0.107773,-0.0382786,0.095659,0.0955299,-0.189512,0.570083,-4.19728e-05,-4.90944e-05,0.376529,0.10038376914456548,0.7684138236899685,-4.1971919154337733e-05,0.10024171876951793,-4.909319488966002e-05,-0.17263721151557598
493,0.4642,437.01,437.764,0.183426,437.009,0.0496609,-0.0462066,0.0958293,0.095704,-0.189853,0.571105,-3.97842e-05,-4.91927e-05,0.37721,0.10057118045807112,0.7702220664724515,-3.978340861920948e-05,0.10043328752833225,-4.919149005899737e-05,-0.17291929412863016
494,0.4652,436.791,436.92,-0.18294,437.261,-0.14365,-0.0369525,0.0960011,0.0958709,-0.190195,0.572132,-4.26689e-05,-4.93006e-05,0.377892,0.10076027482961525,0.7720410184066617,-4.266798969543295e-05,0.10061696517149366,-4.929938474540485e-05,-0.173202107366218
495,0.4662,437.388,438.287,0.267712,437.28,0.0938557,-0.0481188,0.0961708,0.0960464,-0.190535,0.573151,-3.93212e-05,-4.93859e-05,0.378572,0.1009470896990472,0.7738476485261361,-3.9320426931777064e-05,0.10081014039951164,-4.938468053650169e-05,-0.1734831708662109
496,0.4672,437.4,438.097,0.129244,437.459,0.0314677,-0.0546415,0.0963415,0.096216,-0.190876,0.574175,-4.00669e-05,-4.96356e-05,0.379253,0.10113503740813945,0.7756649988427866,-4.006609733253619e-05,0.10099685363215793,-4.963436817395639e-05,-0.17376496505630556
497,0.4682,437.434,437.891,0.023643,437.649,-0.0421852,-0.0373529,0.0965124,0.0963851,-0.191217,0.575197,-4.11236e-05,-4.95464e-05,0.379933,0.10132323746726946,0.7774806561144343,-4.112275443635127e-05,0.10118304794239252,-4.954517259736502e-05,-0.17404666317096307
498,0.4692,437.634,438.212,0.0706102,437.773,-0.00521753,-0.0457039,0.0966826,0.0965562,-0.191557,0.576218,-4.06529e-05,-4.97352e-05,0.380613,0.10151069863477913,0.7792963906390691,-4.065207368209034e-05,0.10137147648149725,-4.9733963225495614e-05,-0.17432743957079222
499,0.4702,437.673,438.052,-0.0306078,437.954,-0.0671989,-0.0383509,0.0968532,0.0967252,-0.191897,0.577239,-4.16241e-05,-4.97745e-05,0.381292,0.10169863239025978,0.7811139799753735,-4.162323372913779e-05,0.10155762399004398,-4.977326127009185e-05,-0.17460812052287233
500,0.4712,437.942,438.544,0.0887448,438.061,0.00189137,-0.0450855,0.0970231,0.0968967,-0.192237,0.578257,-4.0712e-05,-4.99173e-05,0.38197,0.10188582688962544,0.7829280772258229,-4.071117127779633e-05,0.10174655732312865,-4.9916054152276956e-05,-0.17488870605965035
501,0.4722,437.93,438.254,-0.0662209,438.254,-0.083981,-0.0388586,0.0971935,0.0970649,-0.192576,0.579278,-4.20395e-05,-4.99912e-05,0.382649,0.10207360423270262,0.7847493764076863,-4.20386163526576e-05,0.10193188667983222,-4.9989950460793686e-05,-0.17516837138234564
502,0.4732,438.268,438.929,0.125072,438.342,0.0198643,-0.0453154,0.097363,0.0972369,-0.192915,0.580294,-4.06255e-05,-5.01042e-05,0.383326,0.10226042154093973,0.7865636032452878,-4.062467479559739e-05,0.10212143526505213,-5.010294480556343e-05,-0.17544794191456448
503,0.4742,438.175,438.426,-0.11155,438.556,-0.106935,-0.0383412,0.0975334,0.0974041,-0.193255,0.581314,-4.25475e-05,-5.01984e-05,0.384004,0.10244826272038421,0.7883868278070509,-4.254659486790935e-05,0.1023057253752524,-5.0197140081365e-05,-0.17572824196060544
504,0.4752,438.61,439.362,0.17866,438.616,0.0476199,-0.0463315,0.0977025,0.0975769,-0.193593,0.582328,-4.0399e-05,-5.02947e-05,0.38468,0.10263470248464812,0.7902011717673767,-4.039818397139072e-05,0.10249622026288163,-5.0293435242765305e-05,-0.17600679873607572
505,0.4762,438.398,438.541,-0.176589,438.863,-0.140765,-0.0370471,0.0978729,0.0977426,-0.193932,0.583347,-4.32131e-05,-5.04028e-05,0.385358,0.10282260744699956,0.7920263165147265,-4.3212166327410984e-05,0.10267891902275328,-5.040152980018142e-05,-0.17628608508959265
506,0.4772,438.976,439.862,0.257136,438.882,0.0889677,-0.0481814,0.0980414,0.0979167,-0.19427,0.584359,-3.99758e-05,-5.04864e-05,0.386032,0.10300844871304138,0.7938407651031705,-3.997500097840945e-05,0.1028709121350706,-5.0485125583144e-05,-0.17656445334594695
507,0.4782,438.987,439.675,0.121683,439.058,0.0274961,-0.0543343,0.0982109,0.098085,-0.194609,0.585375,-4.07213e-05,-5.07305e-05,0.386708,0.10319542449084773,0.7956642334855963,-4.072047089909159e-05,0.10305654092980787,-5.072921322990531e-05,-0.17684355068659052
508,0.4792,439.027,439.492,0.0252367,439.241,-0.0409411,-0.0377379,0.0983804,0.0982529,-0.194946,0.58639,-4.17071e-05,-5.06481e-05,0.387384,0.10338243196373442,0.7974877579647042,-4.170623027099918e-05,0.10324175967170834,-5.064681740662991e-05,-0.17712090767273203
509,0.4802,439.216,439.787,0.0645486,439.364,-0.00845178,-0.0455971,0.0985494,0.0984227,-0.195284,0.587403,-4.13019e-05,-5.08318e-05,0.388058,0.10356891935247692,0.7993095356381263,-4.13010470882158e-05,0.10342910602775612,-5.08305080859639e-05,-0.17739899380673463
510,0.4812,439.264,439.657,-0.0245271,439.538,-0.0638497,-0.0387068,0.0987187,0.0985906,-0.195622,0.588416,-4.21784e-05,-5.08734e-05,0.388733,0.10375576938693243,0.8011331597073734,-4.2177510503838e-05,0.10361438732858796,-5.0872105970545256e-05,-0.17767698596350678
511,0.4822,439.514,440.103,0.0793858,439.647,-0.0029672,-0.0449398,0.0988873,0.0987606,-0.195959,0.589427,-4.13842e-05,-5.10129e-05,0.389406,0.10394187829819135,0.8029550261301335,-4.138334368575247e-05,0.10380201772256559,-5.101159886411466e-05,-0.1779540621292809
512,0.4832,439.519,439.866,-0.0551945,439.83,-0.0782,-0.0392438,0.0990565,0.0989279,-0.196296,0.59044,-4.2558e-05,-5.10876e-05,0.39008,0.10412868106706807,0.8047823449523253,-4.25570944211362e-05,0.10398669924830939,-5.1086295050795094e-05,-0.17823104493611897
513,0.4842,439.827,440.466,0.109815,439.923,0.0120237,-0.0450857,0.0992248,0.0990983,-0.196633,0.591449,-4.13399e-05,-5.11989e-05,0.390752,0.10431452156213061,0.8066042893547594,-4.133904551806289e-05,0.10417483461053889,-5.11975893586758e-05,-0.17850793441547774
514,0.4852,439.765,440.05,-0.0930073,440.124,-0.0973529,-0.0388443,0.0993938,0.0992646,-0.196969,0.592461,-4.30101e-05,-5.12926e-05,0.391425,0.10450116648732655,0.8084334983192079,-4.300917507893409e-05,0.10435847415473964,-5.129128455705345e-05,-0.17878390938312316
515,0.4862,440.154,440.868,0.15401,440.193,0.0349524,-0.0459286,0.0995617,0.0994357,-0.197305,0.593468,-4.11821e-05,-5.13884e-05,0.392096,0.10468662780222138,0.8102555080799625,-4.118125202901002e-05,0.1045474460557525,-5.1387079638809396e-05,-0.17905979163875607
516,0.4872,439.994,440.19,-0.146252,440.421,-0.125152,-0.037772,0.0997308,0.0996007,-0.197642,0.594479,-4.35875e-05,-5.14948e-05,0.392768,0.10487344610602523,0.8120866018605708,-4.358655007874468e-05,0.10472971142083076,-5.149347416555372e-05,-0.17933640187753064
517,0.4882,440.498,441.322,0.217703,440.456,0.0686271,-0.0474722,0.0998982,0.0997728,-0.197977,0.595484,-4.08687e-05,-5.15791e-05,0.393438,0.10505841740256905,0.8139086643284701,-4.0867864886107164e-05,0.10491985176527363,-5.157776982112061e-05,-0.17961127813855726
518,0.4892,440.198,440.264,-0.222939,440.724,-0.165586,-0.0359663,0.100067,0.0999361,-0.198313,0.596495,-4.43479e-05,-5.16967e-05,0.39411,0.1052449670077702,0.8157434533176589,-4.434691664645385e-05,0.10510029991025704,-5.169536374860506e-05,-0.1798868824449864
519,0.4902,440.428,440.66,-0.134214,440.836,-0.114593,-0.0420557,0.100235,0.100105,-0.198649,0.597501,-4.39512e-05,-5.18471e-05,0.39478,0.10543066376031796,0.8175710103387486,-4.3950234160150536e-05,0.10528696711451357,-5.1845755962287576e-05,-0.1801623941639241
520,0.4912,440.745,441.274,0.0452665,440.927,-0.0231262,-0.0439776,0.100403,0.100274,-0.198984,0.598505,-4.27969e-05,-5.19054e-05,0.395449,0.10561639171254078,0.8193967680101135,-4.2795984225740824e-05,0.10547377639689559,-5.190405293797884e-05,-0.18043699376387812
521,0.4922,440.772,441.111,-0.0677754,441.098,-0.0819916,-0.0412284,0.100571,0.100441,-0.199319,0.599511,-4.37659e-05,-5.20131e-05,0.396118,0.10580215086968092,0.8212280021150471,-4.3764942286972364e-05,0.10565840593369114,-5.201174734215108e-05,-0.18071150138837289
522,0.4932,441.08,441.707,0.102133,441.189,0.00665199,-0.0444361,0.100738,0.10061,-0.199653,0.600515,-4.25779e-05,-5.20869e-05,0.396787,0.10598683524959251,0.8230574332499256,-4.257699357412825e-05,0.10584527799453824,-5.2085543501001474e-05,-0.18098509805372265
523,0.4942,441.028,441.328,-0.0893929,441.383,-0.0944438,-0.0398727,0.100906,0.100776,-0.199988,0.60152,-4.41333e-05,-5.22003e-05,0.397455,0.1061726566464749,0.8248905269456348,-4.413232614020046e-05,0.10602886354786478,-5.219893758801053e-05,-0.18125942209403234
524,0.4952,441.4,442.102,0.144805,441.454,0.0295029,-0.0455854,0.101073,0.100946,-0.200322,0.602521,-4.24256e-05,-5.22802e-05,0.398123,0.10635740290601814,0.8267181569393118,-4.2424700047005715e-05,0.1062169044376906,-5.227883341418771e-05,-0.18153283578442492
525,0.4962,441.259,441.479,-0.135144,441.673,-0.119082,-0.0385255,0.101241,0.10111,-0.200656,0.603526,-4.4666e-05,-5.23963e-05,0.398791,0.10654328656349632,0.8285549315116594,-4.466500248911931e-05,0.10639833888723671,-5.239492733788431e-05,-0.18180615816989365
526,0.4972,441.733,442.535,0.201699,441.714,0.0600619,-0.0472115,0.101407,0.101281,-0.20099,0.604525,-4.21574e-05,-5.24733e-05,0.399457,0.106726987995863,0.8303825706419863,-4.215651138927967e-05,0.1065875491802053,-5.247192330049e-05,-0.18207938928092926
527,0.4982,441.467,441.571,-0.202839,441.969,-0.155216,-0.0367147,0.101576,0.101443,-0.201324,0.60553,-4.53639e-05,-5.25949e-05,0.400124,0.10691404066233923,0.8322230298013,-4.5362871073817423e-05,0.10676683088459837,-5.259351691244696e-05,-0.18235252914801248
528,0.4992,441.686,441.945,-0.121483,442.08,-0.10794,-0.0427336,0.101742,0.101611,-0.201657,0.60653,-4.49974e-05,-5.27462e-05,0.40079,0.10709780364499477,0.834056169248063,-4.499638763222347e-05,0.10695278333175517,-5.2744808943683275e-05,-0.18262476042678266
529,0.5002,441.985,442.512,0.0420682,442.173,-0.0250857,-0.0439339,0.101909,0.101779,-0.20199,0.607528,-4.39587e-05,-5.27987e-05,0.401455,0.1072827044169884,0.8358874709725344,-4.395773383047974e-05,0.10713876702154757,-5.2797306173135716e-05,-0.18289690106762901
530,0.5012,442.022,442.379,-0.0593673,442.338,-0.0776496,-0.0416499,0.102076,0.101945,-0.202323,0.608528,-4.4834e-05,-5.29086e-05,0.402121,0.1074676360699891,0.8377242766933002,-4.483299497126669e-05,0.10732256731187517,-5.2907200364660234e-05,-0.18316895110072906
531,0.5022,442.309,442.924,0.0923689,442.433,0.00145037,-0.0443988,0.102242,0.102113,-0.202656,0.609526,-4.37824e-05,-5.29814e-05,0.402785,0.10765149095711024,0.8395592410163348,-4.378144156469421e-05,0.10750861313059468,-5.2979996510438276e-05,-0.18344091055625011
532,0.5032,442.276,442.601,-0.0771543,442.617,-0.0881469,-0.0403872,0.102409,0.102278,-0.202988,0.610525,-4.51714e-05,-5.30951e-05,0.40345,0.10783648420260605,0.8413978789448417,-4.517037978768457e-05,0.10769136712855154,-5.309369048012158e-05,-0.18371196317672067
533,0.5042,442.618,443.297,0.12884,442.695,0.0211302,-0.0454574,0.102575,0.102447,-0.203321,0.61152,-4.3675e-05,-5.31748e-05,0.404113,0.10802040032359939,0.8432309816517538,-4.36740462610441e-05,0.10787858278887397,-5.317338624533097e-05,-0.1839837418393241
534,0.5052,442.509,442.767,-0.11579,442.901,-0.109113,-0.0391839,0.102742,0.10261,-0.203653,0.612519,-4.56504e-05,-5.32899e-05,0.404777,0.10820545518210412,0.8450732894819664,-4.5649358036303767e-05,0.10805918171628126,-5.3288480118540704e-05,-0.1842546142697219
535,0.5062,442.937,443.701,0.176755,442.952,0.0470015,-0.0468891,0.102908,0.102779,-0.203984,0.613513,-4.34741e-05,-5.33678e-05,0.405439,0.108389432557364,0.846908204133213,-4.3473155014961407e-05,0.10824645954252188,-5.336637596431437e-05,-0.18452458131038862
536,0.5072,442.723,442.883,-0.172479,443.188,-0.139538,-0.0376116,0.103075,0.102942,-0.204316,0.614511,-4.62652e-05,-5.34873e-05,0.406103,0.1085745490493979,0.8487523385909685,-4.6264129782147556e-05,0.10842711843872732,-5.3485869579872336e-05,-0.18479527421188546
537,0.5082,443.275,444.158,0.244423,443.203,0.0835015,-0.0488558,0.10324,0.103112,-0.204647,0.615502,-4.31184e-05,-5.3559e-05,0.406764,0.10875747894129217,0.8505853602707398,-4.311747041518821e-05,0.10861556706654141,-5.355756574232373e-05,-0.18506506232372566
538,0.5092,443.279,443.961,0.110232,443.37,0.0213428,-0.054197,0.103406,0.103277,-0.204979,0.616497,-4.38932e-05,-5.37941e-05,0.407426,0.10894154796010236,0.8524276090709979,-4.3892236707643306e-05,0.10879850372696676,-5.379265312333015e-05,-0.1853355758153098
539,0.5102,443.325,443.811,0.0281755,443.54,-0.0387747,-0.0388672,0.103572,0.103442,-0.20531,0.617491,-4.47656e-05,-5.37255e-05,0.408087,0.10912564753690579,0.8542698375502866,-4.476459803548494e-05,0.10898147057443164,-5.3724056811144116e-05,-0.18560518511691393
540,0.5112,443.491,444.056,0.0538069,443.659,-0.0143942,-0.0457975,0.103737,0.103608,-0.205641,0.618483,-4.44786e-05,-5.38992e-05,0.408748,0.1093086683675526,0.856110185890995,-4.447761084169777e-05,0.10916557677893923,-5.38977474642266e-05,-0.18587470519260696
541,0.5122,443.552,443.977,-0.0141822,443.818,-0.0582525,-0.0397871,0.103903,0.103772,-0.205971,0.619476,-4.5189e-05,-5.39464e-05,0.409409,0.10949282889140233,0.8579542187163571,-4.518797899255578e-05,0.10934749485040496,-5.39449449191709e-05,-0.186143322215647
542,0.5132,443.766,444.34,0.0625287,443.926,-0.0119266,-0.0450742,0.104068,0.103939,-0.206302,0.620466,-4.46035e-05,-5.40787e-05,0.410068,0.1096759103119711,0.8597945041838873,-4.4602505278712457e-05,0.1095327713522023,-5.407723777350881e-05,-0.18641266419743652
543,0.5142,443.798,444.191,-0.0361125,444.091,-0.0683088,-0.0403682,0.104234,0.104103,-0.206632,0.621458,-4.55049e-05,-5.41558e-05,0.410728,0.10986013180304366,0.8616403357131082,-4.55038646677286e-05,0.10971474964851646,-5.415433360111965e-05,-0.1866811037232935
544,0.5152,444.052,444.658,0.0825149,444.188,-0.00221933,-0.0450723,0.104399,0.104269,-0.206962,0.622447,-4.46337e-05,-5.42631e-05,0.411387,0.11004327383359325,0.8634824087601025,-4.463270393118002e-05,0.10989897758745415,-5.4261627784657485e-05,-0.18694945467872182
545,0.5162,444.04,444.393,-0.0607476,444.364,-0.080774,-0.0401765,0.104564,0.104433,-0.207291,0.623437,-4.58584e-05,-5.43566e-05,0.412046,0.11022644608507104,0.86532816984576,-4.5857348519695584e-05,0.11008101594651576,-5.43551227067951e-05,-0.18721690431025573
546,0.5172,444.345,444.999,0.110371,444.446,0.0122894,-0.0456062,0.104729,0.1046,-0.207621,0.624424,-4.45954e-05,-5.44507e-05,0.412704,0.11040964856246371,0.8671701576208308,-4.4594405639974966e-05,0.1102664149565653,-5.444921758757104e-05,-0.18748507848066154
547,0.5182,444.272,444.57,-0.0936398,444.638,-0.0981075,-0.0395011,0.104894,0.104762,-0.20795,0.625414,-4.62827e-05,-5.45546e-05,0.413362,0.11059288127075928,0.8690195713856381,-4.628162897235555e-05,0.110446292685491,-5.455311192481549e-05,-0.18775235192094963
548,0.5192,444.647,445.369,0.148778,444.699,0.0327913,-0.0466061,0.105058,0.10493,-0.208279,0.626399,-4.44703e-05,-5.46396e-05,0.414019,0.11077503343935713,0.8708614626459781,-4.446931121082631e-05,0.11063286333415778,-5.4638107284232795e-05,-0.18801953744273925
549,0.5202,444.491,444.711,-0.138969,444.915,-0.122326,-0.0383582,0.105224,0.105091,-0.208608,0.627389,-4.68066e-05,-5.47519e-05,0.414676,0.11095943740001335,0.8727145326122814,-4.6805504588243174e-05,0.11081168962028443,-5.4750401142111826e-05,-0.18828663507495091
550,0.5212,444.964,445.779,0.202036,444.948,0.0614938,-0.0481177,0.105388,0.105259,-0.208936,0.628372,-4.4226e-05,-5.48283e-05,0.415332,0.11114164968874629,0.8745563160861087,-4.4225022044930284e-05,0.11099832166079304,-5.482679695623105e-05,-0.1885528333997345
551,0.5222,444.691,444.803,-0.201806,445.197,-0.156045,-0.0366654,0.105553,0.105419,-0.209265,0.629361,-4.74684e-05,-5.49498e-05,0.415989,0.11132500318719263,0.8764111693564707,-4.746727339333123e-05,0.11117609561379571,-5.494829028740433e-05,-0.18881975560643538
552,0.5232,444.909,445.184,-0.116129,445.301,-0.106016,-0.0428793,0.105717,0.105584,-0.209593,0.630345,-4.70535e-05,-5.50974e-05,0.416644,0.11150727543363104,0.8782584666683404,-4.705239300140107e-05,0.11135945479628861,-5.5095882166122934e-05,-0.18908577909635904
553,0.5242,445.19,445.718,0.0363385,445.39,-0.0280458,-0.0442027,0.105881,0.10575,-0.209921,0.631328,-4.60805e-05,-5.51494e-05,0.417299,0.11168957757516917,0.8801057025087438,-4.6079438310031584e-05,0.1115439557789426,-5.514787929983278e-05,-0.18935171534488648
554,0.5252,445.234,445.612,-0.052199,445.545,-0.0743104,-0.0420682,0.106046,0.105913,-0.210248,0.632312,-4.68636e-05,-5.52577e-05,0.417954,0.11187302148917566,0.8819566370304488,-4.6862501918654154e-05,0.11172515221084267,-5.525617332136079e-05,-0.18961675399778732
555,0.5262,445.497,446.103,0.0814224,445.638,-0.00402416,-0.0446669,0.106209,0.106079,-0.210576,0.633294,-4.59372e-05,-5.533e-05,0.418608,0.11205427156315828,0.8838056261530867,-4.5936144903002685e-05,0.11190971390430637,-5.532846932376767e-05,-0.1898825161151061
556,0.5272,445.481,445.836,-0.0645102,445.81,-0.0819153,-0.0409694,0.106374,0.106241,-0.210903,0.634277,-4.71571e-05,-5.5442e-05,0.419262,0.1122377756566375,0.8856583175322217,-4.715598812143895e-05,0.11208985786922598,-5.5440463120670636e-05,-0.190147381224531
557,0.5282,445.786,446.444,0.11049,445.89,0.0118365,-0.045576,0.106537,0.106407,-0.21123,0.635257,-4.5883e-05,-5.55211e-05,0.419915,0.11241908519039501,0.8875071684723943,-4.5881947391301914e-05,0.11227448010885421,-5.5519558732286534e-05,-0.19041215973722436
558,0.5292,445.711,446.014,-0.0939985,446.079,-0.0981459,-0.0399691,0.106701,0.106568,-0.211557,0.63624,-4.7566e-05,-5.56344e-05,0.420569,0.11260153688099606,0.8893635002565952,-4.756486875578947e-05,0.11245357071655881,-5.5632852435483215e-05,-0.19067685168149873
559,0.5302,446.081,446.805,0.146859,446.138,0.0316883,-0.0467498,0.106864,0.106734,-0.211884,0.637218,-4.57672e-05,-5.57118e-05,0.421221,0.11278290571266592,0.891212201627462,-4.5766152697690465e-05,0.11263825333753119,-5.5710248126450423e-05,-0.19094145708565746
560,0.5312,445.927,446.156,-0.136287,446.35,-0.121113,-0.0387121,0.107028,0.106895,-0.21221,0.6382,-4.80715e-05,-5.58289e-05,0.421874,0.1129654170747254,0.8930702841786766,-4.8070344583983626e-05,0.11281740251744066,-5.5827341595926505e-05,-0.19120516718356617
561,0.5322,446.389,447.201,0.196586,446.382,0.0587824,-0.048302,0.107191,0.107062,-0.212536,0.639176,-4.55456e-05,-5.5901e-05,0.422525,0.113146845223701,0.8949188227161018,-4.554456281491426e-05,0.11300325854220716,-5.589943756822979e-05,-0.19146879132599426
562,0.5332,446.126,446.254,-0.194606,446.625,-0.152676,-0.0370246,0.107355,0.107221,-0.212863,0.640158,-4.87017e-05,-5.60251e-05,0.423177,0.11332941627673487,0.8967805469570027,-4.870051409144871e-05,0.11318024012997885,-5.602353062339471e-05,-0.19173313780822532
563,0.5342,446.34,446.629,-0.110373,446.726,-0.103272,-0.0432293,0.107518,0.107384,-0.213188,0.641135,-4.82853e-05,-5.61715e-05,0.423828,0.11351090376241624,0.8986346071122859,-4.8284134283704816e-05,0.11336170329796635,-5.6169922410864714e-05,-0.19199578185646804
564,0.5352,446.61,447.138,0.0337965,446.815,-0.0295166,-0.0443429,0.107681,0.107549,-0.213514,0.642111,-4.73689e-05,-5.62216e-05,0.424478,0.11369242083296882,0.900488579079977,-4.736777811131798e-05,0.11354542313548022,-5.6220019595487614e-05,-0.19225914830051993
565,0.5362,446.658,447.048,-0.0476487,446.966,-0.0720885,-0.0424024,0.107844,0.107711,-0.213839,0.643088,-4.80974e-05,-5.63302e-05,0.425128,0.11387396749321543,0.9023462637529331,-4.809624333856899e-05,0.11372583210676046,-5.632861348403573e-05,-0.19252162142312956
566,0.5372,446.908,447.509,0.0755013,447.059,-0.00716575,-0.0448043,0.108007,0.107875,-0.214164,0.644063,-4.72475e-05,-5.64021e-05,0.425777,0.11405554374797955,0.9042019558629903,-4.7246383854449014e-05,0.11390849812142956,-5.640050943145347e-05,-0.1927840092558346
567,0.5382,446.902,447.273,-0.0575712,447.225,-0.07843,-0.0413785,0.10817,0.108036,-0.214489,0.645039,-4.83715e-05,-5.65138e-05,0.426427,0.11423714960208553,0.9060613642155864,-4.837033011784175e-05,0.11408785182721304,-5.651220312530292e-05,-0.19304631182635001
568,0.5392,447.188,447.835,0.101003,447.306,0.00684241,-0.0456441,0.108332,0.108201,-0.214814,0.646012,-4.72193e-05,-5.65927e-05,0.427075,0.11441767064213049,0.9079168644774576,-4.721818518638177e-05,0.11427169148911953,-5.6591098663405504e-05,-0.19330852916238128
569,0.5402,447.131,447.457,-0.0829149,447.487,-0.0924892,-0.0404762,0.108495,0.108361,-0.215139,0.646988,-4.87484e-05,-5.67052e-05,0.427724,0.11459933552773105,0.9097799003508034,-4.8747211816024816e-05,0.11444998922319627,-5.6703592290485716e-05,-0.19357066129162515
570,0.5412,447.473,448.177,0.132212,447.551,0.0239734,-0.0466935,0.108657,0.108526,-0.215463,0.647959,-4.71423e-05,-5.67828e-05,0.428372,0.11477991524664888,0.9116351972349104,-4.714118881921081e-05,0.11463388864270296,-5.678118788732256e-05,-0.19383190207407464
571,0.5422,447.348,447.611,-0.118932,447.751,-0.112164,-0.0393699,0.10882,0.108685,-0.215787,0.648934,-4.92058e-05,-5.68987e-05,0.42902,0.11496163918293245,0.9134999504716941,-4.920458941448658e-05,0.11481112952127348,-5.689708129963389e-05,-0.1940930582282211
572,0.5432,447.768,448.547,0.174282,447.791,0.0470032,-0.0480521,0.108981,0.108851,-0.216111,0.649904,-4.6979e-05,-5.69715e-05,0.429666,0.11514116245807693,0.9153569459208406,-4.697789650409678e-05,0.1149962035294918,-5.6969877154866566e-05,-0.1943541297814796
573,0.5442,447.551,447.729,-0.167948,448.018,-0.138834,-0.03791,0.109144,0.109009,-0.216435,0.650878,-4.97647e-05,-5.70936e-05,0.430314,0.11532294528245512,0.9172234124077905,-4.976346175789015e-05,0.11517238684776498,-5.70919701914363e-05,-0.19461511676125653
574,0.5452,448.077,448.957,0.231229,448.026,0.0781782,-0.0498589,0.109305,0.109175,-0.216758,0.651845,-4.6697e-05,-5.71587e-05,0.430959,0.11550252673256445,0.919078264123856,-4.669590971206894e-05,0.1153575208296771,-5.7157066472579565e-05,-0.19487521407056596
575,0.5462,448.073,448.75,0.0989327,448.185,0.015177,-0.0541378,0.109467,0.109336,-0.217081,0.652816,-4.75035e-05,-5.73825e-05,0.431605,0.11568325278030978,0.920942594104045,-4.750237172657101e-05,0.11553710784689764,-5.738085365580847e-05,-0.19513522738201072
576,0.5472,448.124,448.631,0.0304865,448.341,-0.0368656,-0.0401325,0.109629,0.109497,-0.217405,0.653787,-4.82661e-05,-5.73281e-05,0.432251,0.11586400810804642,0.9228087352278127,-4.8264935210484694e-05,0.11571672377995568,-5.732645677591908e-05,-0.19539596132715897
577,0.5482,448.268,448.83,0.0438286,448.455,-0.0201047,-0.0460694,0.109791,0.109659,-0.217727,0.654755,-4.809e-05,-5.74912e-05,0.432896,0.11604479272051815,0.9246709152332269,-4.8088843694449324e-05,0.11589748453043347,-5.748954741258139e-05,-0.1956550021198058
578,0.5492,448.339,448.795,-0.0053131,448.6,-0.0533566,-0.0409743,0.109953,0.10982,-0.21805,0.655724,-4.86475e-05,-5.75438e-05,0.433541,0.11622560662246961,0.9265368252374835,-4.8646316729517025e-05,0.11607715848880851,-5.754214438724592e-05,-0.19591476360038362
579,0.5502,448.52,449.083,0.0476886,448.705,-0.0200407,-0.0452999,0.110114,0.109982,-0.218373,0.656691,-4.82486e-05,-5.76689e-05,0.434185,0.11640533341275416,0.9284006873795942,-4.824743605502668e-05,0.11625797763443901,-5.7667237180925035e-05,-0.19617444119155203
580,0.5512,448.574,449.009,-0.0202701,448.852,-0.0599799,-0.0415778,0.110276,0.110143,-0.218695,0.657659,-4.89119e-05,-5.77481e-05,0.434829,0.11658620572702882,0.9302682830154336,-4.89107038325054e-05,0.11643770963687605,-5.7746432610583653e-05,-0.19643323135403623
581,0.5522,448.779,449.362,0.0596622,448.951,-0.0144222,-0.0451823,0.110437,0.110305,-0.219017,0.658624,-4.83357e-05,-5.78513e-05,0.435472,0.11676599057844306,0.9321318909547542,-4.833453184882597e-05,0.11661858719652396,-5.784962664578952e-05,-0.1966919381995027
582,0.5532,448.808,449.219,-0.0350218,449.104,-0.0673725,-0.0415545,0.110598,0.110465,-0.219339,0.659591,-4.91898e-05,-5.79443e-05,0.436115,0.11694580437754865,0.9340011661421992,-4.918859020164312e-05,0.11679726046395578,-5.794262126146421e-05,-0.19695056175477554
583,0.5542,449.043,449.653,0.0755947,449.195,-0.00613438,-0.0454705,0.110759,0.110627,-0.21966,0.660555,-4.83851e-05,-5.80368e-05,0.436758,0.11712564712900653,0.9358664421849634,-4.8383929459938635e-05,0.11697819627555583,-5.8035115897525635e-05,-0.1972082992553703
584,0.5552,449.036,449.417,-0.0534165,449.357,-0.077137,-0.0411963,0.11092,0.110787,-0.219982,0.661521,-4.95023e-05,-5.81379e-05,0.4374,0.1173055188374783,0.9377373926917181,-4.950107478141064e-05,0.11715692708504344,-5.8136210025039325e-05,-0.19746675656914936
585,0.5562,449.31,449.957,0.0964326,449.436,0.00508895,-0.0460523,0.111081,0.110949,-0.220303,0.662483,-4.8392e-05,-5.82234e-05,0.438041,0.11748541950762648,0.9396023929847992,-4.839082912611037e-05,0.11733792116735597,-5.822170505076496e-05,-0.19772432839780052
586,0.5572,449.259,449.598,-0.0774615,449.611,-0.0901603,-0.0405636,0.111242,0.111108,-0.220624,0.663448,-4.9862e-05,-5.83307e-05,0.438683,0.1176653491441142,0.9414750126877169,-4.9860756911157544e-05,0.11751559202128026,-5.83289987977631e-05,-0.19798181755916333
587,0.5582,449.583,450.28,0.123934,449.674,0.0200927,-0.04691,0.111402,0.111271,-0.220945,0.664409,-4.83438e-05,-5.84101e-05,0.439324,0.11784418990685674,0.9433416669586292,-4.834263145736539e-05,0.11769776190922232,-5.8408394163267374e-05,-0.19823922407977002
588,0.5592,449.472,449.756,-0.109206,449.866,-0.107471,-0.0396457,0.111563,0.111429,-0.221265,0.665373,-5.0284e-05,-5.85235e-05,0.439965,0.11802417731002901,0.9452159515856202,-5.028273578089326e-05,0.11787437210744223,-5.852178753340542e-05,-0.19849574648229107
589,0.5602,449.865,450.627,0.160338,449.908,0.0400605,-0.0480837,0.111723,0.111592,-0.221586,0.666332,-4.82231e-05,-5.85962e-05,0.440604,0.1182030754898713,0.9470823084582738,-4.8221937285042316e-05,0.11805660048130462,-5.859448327616423e-05,-0.19875298805818853
590,0.5612,449.675,449.885,-0.151171,450.123,-0.130407,-0.0383861,0.111884,0.111749,-0.221906,0.667296,-5.07877e-05,-5.87169e-05,0.441245,0.11838312067827395,0.9489602008023108,-5.078641032663089e-05,0.11823214914779001,-5.871517619659983e-05,-0.1990093460825384
591,0.5622,450.157,451.005,0.208498,450.138,0.0665564,-0.0496536,0.112043,0.111913,-0.222226,0.668253,-4.80074e-05,-5.87814e-05,0.441883,0.11856095773213293,0.9508262484758723,-4.80062476632126e-05,0.11841555425905814,-5.8779672407305306e-05,-0.19926562208544463
592,0.5632,449.863,449.976,-0.206581,450.383,-0.160709,-0.0366932,0.112205,0.112068,-0.222546,0.669216,-5.13985e-05,-5.89114e-05,0.442523,0.11874217928583497,0.9527057990114844,-5.139717911972763e-05,0.11858892210562932,-5.8909664757522684e-05,-0.1995218160931499
593,0.5642,450.081,450.377,-0.110732,450.474,-0.104716,-0.0431424,0.112365,0.112229,-0.222865,0.670174,-5.08885e-05,-5.90499e-05,0.443161,0.1189211923551845,0.9545773875146908,-5.088720520229906e-05,0.11876902942033829,-5.904815658897e-05,-0.19977712790941637
594,0.5652,450.34,450.868,0.027701,450.557,-0.0326107,-0.0448243,0.112524,0.112391,-0.223184,0.671131,-4.99945e-05,-5.91024e-05,0.443799,0.11909911496924175,0.9564488134090041,-4.999325029586554e-05,0.11895028468438418,-5.910065348757598e-05,-0.20003235829420252
595,0.5662,450.391,450.798,-0.042971,450.698,-0.0701862,-0.0428427,0.112684,0.11255,-0.223504,0.67209,-5.06508e-05,-5.92073e-05,0.444437,0.1192781851528697,0.9583259477631223,-5.0649517269851785e-05,0.11912821192448986,-5.92055472824482e-05,-0.20028830698557365
596,0.5672,450.621,451.219,0.0667436,450.787,-0.0115362,-0.0452634,0.112844,0.112711,-0.223822,0.673046,-4.98894e-05,-5.92793e-05,0.445074,0.11945728399001898,0.9601990025467162,-4.9888155544630663e-05,0.11930840607184923,-5.9277543017044465e-05,-0.20054257487321547
597,0.5682,450.626,451.022,-0.0484002,450.942,-0.0740482,-0.0419926,0.113004,0.112869,-0.224141,0.674004,-5.08871e-05,-5.93886e-05,0.445711,0.11963641148527482,0.9620777729785037,-5.088580527345954e-05,0.11948527077195203,-5.938683653206045e-05,-0.2007975611193623
598,0.5692,450.882,451.517,0.086901,451.023,-0.000361395,-0.0459542,0.113163,0.11303,-0.22446,0.674958,-4.99001e-05,-5.94667e-05,0.446347,0.11981444782821526,0.9639504883171093,-4.9898855010721554e-05,0.11966552241041395,-5.9464931890795825e-05,-0.20105246603786908
599,0.5702,450.848,451.211,-0.0670202,451.189,-0.0845462,-0.0412747,0.113323,0.113188,-0.224778,0.675915,-5.12108e-05,-5.95774e-05,0.446984,0.1199936324742572,0.9658308885624327,-5.120948874937081e-05,0.11984244353935591,-5.957562530189975e-05,-0.2013064909615655
600,0.5712,451.145,451.822,0.109839,451.256,0.0123789,-0.0467871,0.113481,0.113349,-0.225096,0.676868,-4.98846e-05,-5.96541e-05,0.447619,0.12017060544868485,0.9677052183755317,-4.988335578404168e-05,0.12002275268726259,-5.965232072957516e-05,-0.2015604351181789
601,0.5722,451.062,451.379,-0.0928845,451.436,-0.0988679,-0.0404273,0.113641,0.113506,-0.225414,0.677824,-5.1589e-05,-5.97679e-05,0.448254,0.12034984708450525,0.9695872440292235,-5.1587669310459994e-05,0.12019861006387722,-5.976611393465614e-05,-0.20181429853338895
602,0.5732,451.414,452.145,0.139518,451.487,0.0288174,-0.0478242,0.1138,0.113667,-0.225732,0.678775,-4.98147e-05,-5.98403e-05,0.448889,0.12052799687272442,0.9714612124290345,-4.9813459268466254e-05,0.12037897655921093,-5.983850960500359e-05,-0.20206808123286746
603,0.5742,451.267,451.524,-0.126843,451.686,-0.117591,-0.0393491,0.113959,0.113823,-0.22605,0.679731,-5.20311e-05,-5.99596e-05,0.449524,0.12070617498901215,0.9733468305299577,-5.202974640583502e-05,0.12055376931303452,-5.995780245915405e-05,-0.202321783242278
604,0.5752,451.692,452.492,0.178214,451.714,0.0502428,-0.0491492,0.114118,0.113986,-0.226367,0.68068,-4.96719e-05,-6.00254e-05,0.450157,0.12088438143787261,0.9752204255523551,-4.9670666371626204e-05,0.12073643446423787,-6.002359851176031e-05,-0.2025746071622817
605,0.5762,451.46,451.639,-0.171055,451.937,-0.141936,-0.0379479,0.114277,0.114141,-0.226684,0.681635,-5.2555e-05,-6.01524e-05,0.450792,0.12106261622381109,0.9771076620707615,-5.255361901013167e-05,0.12091016207512184,-6.015059088071428e-05,-0.20282735094980442
606,0.5772,451.98,452.871,0.228541,451.936,0.0781385,-0.0508603,0.114435,0.114304,-0.227001,0.682583,-4.94346e-05,-6.02091e-05,0.451424,0.12123975811101517,0.9789828488324932,-4.943337813034798e-05,0.12109288532308016,-6.020728746847226e-05,-0.20308001463024417
607,0.5782,451.966,452.646,0.0940157,452.09,0.0124872,-0.0542653,0.114594,0.114461,-0.227318,0.683534,-5.02878e-05,-6.04259e-05,0.452057,0.12141804940633705,0.9808657567025163,-5.0286535589805226e-05,0.12126891072370838,-6.042407439210695e-05,-0.20333259822899086
608,0.5792,452.017,452.539,0.0319211,452.236,-0.0356623,-0.0410393,0.114752,0.114619,-0.227634,0.684485,-5.09969e-05,-6.03806e-05,0.452689,0.12159524745642059,0.9827504560696458,-5.099559968024803e-05,0.12144608520801836,-6.0378777128278216e-05,-0.2035843053561298
609,0.5802,452.146,452.709,0.0382482,452.346,-0.0234056,-0.0463439,0.114911,0.114777,-0.227951,0.685434,-5.08858e-05,-6.05367e-05,0.453321,0.12177359527904241,0.9846329793684776,-5.088450533963229e-05,0.12162328768810848,-6.05348676909756e-05,-0.20383672912005157
610,0.5812,452.221,452.697,-0.000764944,452.48,-0.0508149,-0.0418214,0.115069,0.114935,-0.228267,0.686383,-5.13589e-05,-6.05927e-05,0.453953,0.12195084950981205,0.9865172900298895,-5.1357581154265475e-05,0.12180051816840254,-6.059086429943683e-05,-0.2040882769669966
611,0.5822,452.382,452.941,0.0394097,452.583,-0.0246844,-0.0455566,0.115227,0.115094,-0.228583,0.68733,-5.10625e-05,-6.07127e-05,0.454584,0.12212813174896264,0.9883994129480909,-5.106119633269124e-05,0.12197889863166234,-6.071085702130663e-05,-0.20433974533737997
612,0.5832,452.446,452.906,-0.0121573,452.718,-0.0556934,-0.0424275,0.115386,0.115251,-0.228898,0.688278,-5.15963e-05,-6.0793e-05,0.455215,0.12230656430692322,0.9902853093652288,-5.1594968933810215e-05,0.12215506314730007,-6.0791152142969374e-05,-0.2045903388470488
613,0.5842,452.624,453.195,0.047333,452.816,-0.021142,-0.0453851,0.115543,0.11541,-0.229214,0.689225,-5.11778e-05,-6.08931e-05,0.455846,0.1224827802701105,0.9921710022878711,-5.117649043873129e-05,0.12233349998769327,-6.089124605279661e-05,-0.20484164859094234
614,0.5852,452.67,453.115,-0.022036,452.955,-0.0605703,-0.0424897,0.115701,0.115567,-0.229529,0.690172,-5.18359e-05,-6.09856e-05,0.456476,0.12266014656096114,0.9940584818075313,-5.1834556542895704e-05,0.12250972018011463,-6.098374041607624e-05,-0.20509208402598444
615,0.5862,452.868,453.457,0.0575176,453.048,-0.0158809,-0.045551,0.115859,0.115726,-0.229844,0.691117,-5.12692e-05,-6.10765e-05,0.457105,0.12283754087789966,0.9959437577254107,-5.126788575704477e-05,0.12268821341545944,-6.107463486859643e-05,-0.2053424405862878
616,0.5872,452.892,453.318,-0.0335878,453.192,-0.0667228,-0.0422937,0.116017,0.115882,-0.230159,0.692062,-5.20941e-05,-6.11757e-05,0.457735,0.12301496322535477,0.9978308160710969,-5.2092743125897734e-05,0.12286336643833273,-6.117382880499456e-05,-0.20559271829669434
617,0.5882,453.113,453.726,0.0702436,453.277,-0.00899135,-0.0459266,0.116174,0.116041,-0.230474,0.693006,-5.1337e-05,-6.1261e-05,0.458363,0.12319129041590338,0.9997176588111218,-5.133568227877472e-05,0.12304191590790303,-6.125912358323493e-05,-0.20584291718203762
618,0.5892,453.111,453.511,-0.0480055,453.429,-0.074613,-0.041915,0.116332,0.116197,-0.230789,0.693951,-5.23775e-05,-6.1365e-05,0.458992,0.12336876866020119,1.0016082851789592,-5.237612832265093e-05,0.12321712411266939,-6.136311720694732e-05,-0.20609303726714367
619,0.5902,453.362,454.004,0.0863451,453.505,-0.000124965,-0.0464719,0.116489,0.116356,-0.231103,0.694893,-5.13759e-05,-6.14457e-05,0.45962,0.12354515140256384,1.003494688540087,-5.137458028103836e-05,0.1233957298341819,-6.144381225159368e-05,-0.20634228491951245
620,0.5912,453.324,453.693,-0.0662647,453.667,-0.0846988,-0.0413696,0.116647,0.116512,-0.231417,0.695837,-5.26929e-05,-6.15542e-05,0.460248,0.12372268556131472,1.0053868805001573,-5.269151175357756e-05,0.12357099323822607,-6.155230557913782e-05,-0.2065914543204045
621,0.5922,453.614,454.293,0.106818,453.73,0.0112245,-0.0471919,0.116804,0.116671,-0.231731,0.696778,-5.13784e-05,-6.16301e-05,0.460875,0.12389912387299296,1.0072748376992577,-5.1377080152570365e-05,0.12374965522940284,-6.162820090438448e-05,-0.2068405454943869
622,0.5932,453.532,453.86,-0.0894549,453.905,-0.09755,-0.0406404,0.116961,0.116826,-0.232045,0.697721,-5.30484e-05,-6.17435e-05,0.461502,0.12407558988766065,1.0091685906353827,-5.3046992958494243e-05,0.1239238499257036,-6.174159390937017e-05,-0.20708955846601917
623,0.5942,453.87,454.597,0.132856,453.954,0.0257051,-0.0481155,0.117118,0.116985,-0.232358,0.69866,-5.13351e-05,-6.18138e-05,0.462128,0.12425208360966766,1.0110560859823674,-5.133378237631714e-05,0.1241025680255543,-6.181188956644323e-05,-0.20733770059794987
624,0.5952,453.733,454.008,-0.11889,454.145,-0.11388,-0.0396909,0.117275,0.117139,-0.232672,0.699602,-5.34547e-05,-6.19334e-05,0.462755,0.12442860504336428,1.0129513933649879,-5.3453271323000706e-05,0.1242756931513227,-6.19314821665995e-05,-0.20758655748738575
625,0.5962,454.134,454.921,0.165917,454.174,0.0441314,-0.0492895,0.117431,0.117299,-0.232985,0.70054,-5.12341e-05,-6.19966e-05,0.46338,0.1246040295885098,1.0148404275905114,-5.123278755592153e-05,0.12445559165372333,-6.199467825052096e-05,-0.20783454408296542
626,0.5972,453.925,454.134,-0.156185,454.385,-0.134577,-0.038469,0.117589,0.117452,-0.233298,0.701482,-5.39246e-05,-6.21241e-05,0.464006,0.12478173106323154,1.0167393015024984,-5.39231460948697e-05,0.12462764652110803,-6.212217033807477e-05,-0.2080824530708869
627,0.5982,454.405,455.268,0.207807,454.39,0.0675218,-0.0507769,0.117745,0.117613,-0.233611,0.702417,-5.10605e-05,-6.21784e-05,0.46463,0.12495721070033339,1.0186258345661723,-5.105919643488832e-05,0.12480872614871696,-6.217646696338175e-05,-0.20833028447543755
628,0.5992,454.106,454.231,-0.203336,454.629,-0.160743,-0.0369076,0.117902,0.117765,-0.233923,0.703359,-5.44742e-05,-6.23159e-05,0.465256,0.12513384284767404,1.0205282760115746,-5.447271630776296e-05,0.12497971006954023,-6.231395840461396e-05,-0.20857724689853985
629,0.6002,454.322,454.639,-0.103147,454.71,-0.101791,-0.0435656,0.118059,0.117922,-0.234236,0.704295,-5.39071e-05,-6.24478e-05,0.465879,0.1253105027284389,1.0224203758425041,-5.390564703844358e-05,0.12515634574955925,-6.244585017667337e-05,-0.20882492345685721
630,0.6012,454.559,455.088,0.021233,454.789,-0.03626,-0.0452455,0.118215,0.11808,-0.234548,0.705231,-5.3101e-05,-6.24988e-05,0.466503,0.12548606486035485,1.0243142475079643,-5.309959016686072e-05,0.12533413449712882,-6.249684699066727e-05,-0.20907173157666992
631,0.6022,454.617,455.049,-0.0349497,454.919,-0.0664188,-0.0435571,0.118371,0.118235,-0.23486,0.706168,-5.36482e-05,-6.26018e-05,0.467126,0.12566165438209964,1.026211918878075,-5.364676096109022e-05,0.1255085748067506,-6.259984054823864e-05,-0.2093184627043605
632,0.6032,454.82,455.41,0.055137,455.007,-0.0177253,-0.0456768,0.118527,0.118392,-0.235171,0.707103,-5.30282e-05,-6.26732e-05,0.467749,0.12583727129794653,1.0281073129808855,-5.302679402985344e-05,0.12568529352505164,-6.267123607606173e-05,-0.20956432642866862
633,0.6042,454.842,455.271,-0.0359915,455.147,-0.0678358,-0.0428966,0.118683,0.118547,-0.235483,0.708038,-5.38463e-05,-6.27804e-05,0.468372,0.1260129156121692,1.0300044801059407,-5.3844850314010984e-05,0.12585978826854127,-6.277842935187294e-05,-0.20981090389073864
634,0.6052,455.061,455.678,0.0693281,455.229,-0.00973929,-0.0462139,0.118839,0.118705,-0.235795,0.708972,-5.30828e-05,-6.28579e-05,0.468994,0.12618858732904248,1.0319013900093865,-5.308139113313626e-05,0.1260376881688099,-6.285592448362909e-05,-0.21005740443264054
635,0.6062,455.056,455.463,-0.0477441,455.377,-0.0746361,-0.0423846,0.118995,0.118859,-0.236106,0.709907,-5.41143e-05,-6.29661e-05,0.469616,0.12636428645284115,1.0338021062554188,-5.411283584766391e-05,0.12621111132602825,-6.29641176767004e-05,-0.2103030383818031
636,0.6072,455.301,455.945,0.0839876,455.45,-0.00146966,-0.0468112,0.11915,0.119016,-0.236417,0.710839,-5.31301e-05,-6.30427e-05,0.470237,0.1265388864483914,1.0356984933975868,-5.31286886212845e-05,0.12638794035122158,-6.30407128507926e-05,-0.2105485959506851
637,0.6082,455.265,455.644,-0.0638123,455.608,-0.083694,-0.0418194,0.119306,0.11917,-0.236728,0.711773,-5.44143e-05,-6.31533e-05,0.470859,0.1267146402231154,1.0376007239938234,-5.4412819568860904e-05,0.12656141745142957,-6.315130587231099e-05,-0.21079407716303733
638,0.6092,455.544,456.222,0.102059,455.67,0.00868033,-0.0475124,0.119461,0.119328,-0.237038,0.712704,-5.31494e-05,-6.32266e-05,0.471479,0.12688929452770892,1.0394986135983877,-5.314798759570305e-05,0.1267394282178671,-6.322460124064122e-05,-0.21103869308169043
639,0.6102,455.47,455.812,-0.0840742,455.838,-0.0950482,-0.0411359,0.119617,0.119481,-0.237349,0.713637,-5.47477e-05,-6.33413e-05,0.4721,0.1270651029703571,1.0414023537615624,-5.474620137202457e-05,0.12691183253897864,-6.333929398216753e-05,-0.2112840218975338
640,0.6112,455.791,456.51,0.124619,455.887,0.0213355,-0.0483624,0.119772,0.119639,-0.237659,0.714566,-5.31319e-05,-6.34097e-05,0.472719,0.1272398116008866,1.0432996977280222,-5.313048852562119e-05,0.12708989867537412,-6.340768964741006e-05,-0.2115284859568587
641,0.6122,455.668,455.965,-0.109344,456.07,-0.109185,-0.0402852,0.119928,0.119791,-0.237969,0.715499,-5.51217e-05,-6.353e-05,0.473339,0.1274156747284636,1.0452069859576052,-5.512018082698411e-05,0.1272612293607751,-6.352798201225696e-05,-0.21177287424407032
642,0.6132,456.043,456.814,0.152719,456.102,0.0371057,-0.049407,0.120083,0.119949,-0.238279,0.716426,-5.30688e-05,-6.35918e-05,0.473957,0.1275904377018271,1.0471037718580227,-5.3067391876160386e-05,0.12743935070622991,-6.358977808429422e-05,-0.2120171867826547
643,0.6142,455.859,456.1,-0.140742,456.303,-0.126739,-0.0392206,0.120238,0.120101,-0.238589,0.717358,-5.55455e-05,-6.37194e-05,0.474577,0.127765227765551,1.0490125619314004,-5.5543957377279796e-05,0.12761073451237648,-6.371736996213517e-05,-0.21226142359609002
644,0.6152,456.301,457.135,0.187619,456.314,0.0567168,-0.0506966,0.120392,0.12026,-0.238898,0.718284,-5.29493e-05,-6.3773e-05,0.475194,0.12793891698435345,1.05091082632452,-5.294789821053136e-05,0.12779003887348295,-6.37709665454178e-05,-0.2125047972130386
645,0.6162,456.043,456.214,-0.179648,456.537,-0.148485,-0.0378903,0.120548,0.12041,-0.239207,0.719215,-5.60305e-05,-6.39097e-05,0.475814,0.12811488918087743,1.0528211134044834,-5.602893032086165e-05,0.1279592200675863,-6.390765781860708e-05,-0.2127480956391571
646,0.6172,456.566,457.48,0.230853,456.523,0.0810499,-0.0522909,0.120702,0.12057,-0.239516,0.720139,-5.27606e-05,-6.39529e-05,0.47643,0.1282886322516843,1.054718796707939,-5.27592081840389e-05,0.12813970798144525,-6.395085505683795e-05,-0.21299131889767586
647,0.6182,456.539,457.225,0.0908028,456.672,0.010665,-0.0546195,0.120857,0.120723,-0.239825,0.721067,-5.36882e-05,-6.41639e-05,0.477048,0.12846353054395077,1.056626460770505,-5.368675881434193e-05,0.12831232656175096,-6.416184154101057e-05,-0.21323446701181814
648,0.6192,456.587,457.126,0.0335395,456.809,-0.0344257,-0.0421271,0.121012,0.120877,-0.240134,0.721994,-5.43549e-05,-6.41279e-05,0.477665,0.12863845594755374,1.0585338374321331,-5.435342279913602e-05,0.12848610004025596,-6.412584385018238e-05,-0.21347754000480001
649,0.6202,456.701,457.266,0.0330983,456.913,-0.0266304,-0.0467837,0.121166,0.121032,-0.240443,0.72292,-5.4308e-05,-6.42772e-05,0.478281,0.12881227965385156,1.060440922609759,-5.430652534721414e-05,0.12866102894240194,-6.427513426499054e-05,-0.21372053789983025
650,0.6212,456.778,457.273,0.00312674,457.036,-0.0486989,-0.0428367,0.121321,0.121185,-0.240751,0.723846,-5.47036e-05,-6.43365e-05,0.478897,0.12898725911775588,1.0623497745661519,-5.4702103785331246e-05,0.1288337272909168,-6.433443045172904e-05,-0.2139626746831783
651,0.6222,456.919,457.477,0.0318667,457.135,-0.0291124,-0.0459866,0.121475,0.12134,-0.241059,0.72477,-5.45006e-05,-6.44513e-05,0.479513,0.12916113654387829,1.0642562664214452,-5.449911486932191e-05,0.12900871007946257,-6.444922305959278e-05,-0.21420473689988095
652,0.6232,456.989,457.474,-0.0053843,457.258,-0.0521789,-0.0434361,0.121629,0.121494,-0.241367,0.725694,-5.49189e-05,-6.45325e-05,0.480128,0.12933504074918623,1.0661645206893215,-5.491739198482115e-05,0.1291825908092874,-6.453041782306101e-05,-0.21444672457290115
653,0.6242,457.142,457.707,0.0365572,457.354,-0.0272361,-0.0457773,0.121783,0.121648,-0.241675,0.726618,-5.46382e-05,-6.46297e-05,0.480743,0.12950897173780396,1.0680745389990038,-5.463670736072235e-05,0.1293564983188067,-6.462761154590879e-05,-0.21468863772519486
654,0.6252,457.203,457.678,-0.0114834,457.479,-0.0550946,-0.0435665,0.121937,0.121802,-0.241983,0.727541,-5.5128e-05,-6.47213e-05,0.481358,0.1296829295138564,1.0699842529959311,-5.5126480479783524e-05,0.12953043261214447,-6.471920562189926e-05,-0.21493047637971086
655,0.6262,457.366,457.942,0.0423959,457.571,-0.0242876,-0.0458488,0.122091,0.121956,-0.24229,0.728463,-5.47611e-05,-6.48107e-05,0.481972,0.12985691408146938,1.0718936585779035,-5.4759600638387695e-05,0.12970439369342635,-6.480859983193366e-05,-0.2151714557312392
656,0.6272,457.414,457.879,-0.0179818,457.699,-0.0585509,-0.0435002,0.122245,0.12211,-0.242597,0.729385,-5.53451e-05,-6.49078e-05,0.482586,0.13003092544476913,1.0738048254436499,-5.5343568488241957e-05,0.12987838156677745,-6.490569353434505e-05,-0.2154123611134614
657,0.6282,457.591,458.179,0.049276,457.787,-0.0205621,-0.0460667,0.122399,0.122264,-0.242904,0.730306,-5.48729e-05,-6.49929e-05,0.483199,0.13020496360788214,1.075715679501105,-5.487139450999212e-05,0.13005239623632447,-6.499078800725755e-05,-0.21565319254908266
658,0.6292,457.624,458.076,-0.025615,457.919,-0.0627751,-0.0433182,0.122552,0.122417,-0.243211,0.731227,-5.55733e-05,-6.50934e-05,0.483812,0.13037789819647294,1.077628294265828,-5.557175583281726e-05,0.13022530748032146,-6.509128147058618e-05,-0.21589395006080114
659,0.6302,457.816,458.42,0.05753,458.002,-0.0159789,-0.046381,0.122706,0.122571,-0.243518,0.732147,-5.49721e-05,-6.51753e-05,0.484425,0.13055198979750426,1.0795405918185463,-5.497058906178687e-05,0.13039937558057302,-6.517317613630169e-05,-0.21613463367130792
660,0.6312,457.832,458.268,-0.0347915,458.139,-0.0679233,-0.0430493,0.122859,0.122724,-0.243824,0.733067,-5.5815e-05,-6.52788e-05,0.485038,0.13072497748516398,1.0814546494945456,-5.581344237182151e-05,0.1305723399164711,-6.527666938549448e-05,-0.21637445977813885
661,0.6322,458.043,458.665,0.0675174,458.216,-0.0103799,-0.0467792,0.123012,0.122878,-0.24413,0.733985,-5.50563e-05,-6.53575e-05,0.485649,0.13089799164196458,1.083366302177113,-5.50547844296867e-05,0.1307464614638334,-6.535536424512323e-05,-0.21661421250940804
662,0.6332,458.037,458.453,-0.0458852,458.359,-0.0741761,-0.042697,0.123166,0.12303,-0.244436,0.734905,-5.60727e-05,-6.54642e-05,0.486261,0.13107216334355432,1.0852838811261796,-5.6071127955581446e-05,0.1309183479890208,-6.546205726598586e-05,-0.2168538918875651
663,0.6342,458.271,458.916,0.0796216,458.428,-0.00356568,-0.0472646,0.123319,0.123185,-0.244742,0.735822,-5.51227e-05,-6.55395e-05,0.486872,0.13124523062385518,1.0871969634593643,-5.512118077188877e-05,0.13109365391881767,-6.55373523339442e-05,-0.2170934979350525
664,0.6352,458.239,458.631,-0.0593013,458.578,-0.0817504,-0.0422531,0.123472,0.123336,-0.245048,0.73674,-5.63497e-05,-6.56498e-05,0.487483,0.13141832438547585,1.0891138900064852,-5.634811238552917e-05,0.13126446195624175,-6.564764509908727e-05,-0.2173330306743062
665,0.6362,458.501,459.173,0.0942758,458.639,0.00470348,-0.0478495,0.123625,0.123491,-0.245353,0.737656,-5.51676e-05,-6.5721e-05,0.488093,0.13159144463246797,1.0910283950391713,-5.5166078295920684e-05,0.13143982153786138,-6.571884042239073e-05,-0.2175717076998539
666,0.6372,458.437,458.801,-0.0755041,458.798,-0.0909035,-0.041703,0.123778,0.123642,-0.245659,0.738573,-5.66498e-05,-6.58357e-05,0.488704,0.1317645913688843,1.0929467475076025,-5.664819543038657e-05,0.1316106818505427,-6.583353287781257e-05,-0.2178110941293061
667,0.6382,458.733,459.438,0.111982,458.848,0.0147121,-0.0485513,0.12393,0.123797,-0.245964,0.739487,-5.5187e-05,-6.59019e-05,0.489313,0.1319366326615794,1.0948605753209013,-5.5185477225494495e-05,0.13178609510040507,-6.589972851744896e-05,-0.21804962536773376
668,0.6392,458.632,458.96,-0.0950341,459.019,-0.101939,-0.0410273,0.124084,0.123947,-0.246269,0.740404,-5.69774e-05,-6.6022e-05,0.489923,0.13211096432620284,1.096782443510362,-5.697577681873511e-05,0.13195587574790046,-6.601982059573075e-05,-0.21828808386522713
669,0.6402,458.968,459.713,0.133327,459.055,0.0267962,-0.0493922,0.124236,0.124102,-0.246574,0.741317,-5.51758e-05,-6.60822e-05,0.490531,0.13228305827158904,1.098697680053729,-5.517427784351714e-05,0.1321313425069639,-6.608001661956298e-05,-0.21852646964396905
670,0.6412,458.821,459.107,-0.118524,459.239,-0.115213,-0.0402024,0.124389,0.124252,-0.246878,0.742233,-5.73377e-05,-6.62088e-05,0.49114,0.13245631083298748,1.1006209678599945,-5.733605622548765e-05,0.13230117494545435,-6.620660824574465e-05,-0.21876400149052722
671,0.6422,459.207,460.0,0.158998,459.261,0.0413514,-0.0503987,0.124541,0.124407,-0.247183,0.743144,-5.51283e-05,-6.62617e-05,0.491748,0.13262845727503225,1.102535505501201,-5.5126780463155e-05,0.13247669523004157,-6.62595047420389e-05,-0.2190022421365273
672,0.6432,459.006,459.241,-0.146712,459.461,-0.131143,-0.0392002,0.124694,0.124556,-0.247487,0.74406,-5.77369e-05,-6.63962e-05,0.492357,0.13280176268652122,1.1044623103661437,-5.773523325725005e-05,0.13264544682931279,-6.639399582109018e-05,-0.21923962937023
673,0.6442,459.451,460.3,0.189798,459.464,0.0588422,-0.0516026,0.124845,0.124712,-0.247791,0.744969,-5.50376e-05,-6.64404e-05,0.492963,0.13297282866784355,1.1063761363083775,-5.5036085459092554e-05,0.1328221533017646,-6.643819288554287e-05,-0.21947694444918187
674,0.6452,459.184,459.358,-0.180461,459.683,-0.150214,-0.0379878,0.124998,0.12486,-0.248095,0.745884,-5.81821e-05,-6.65844e-05,0.493571,0.13314618677218637,1.108304352497477,-5.818040745442232e-05,0.13298982338773357,-6.658218330801713e-05,-0.21971418739531445
675,0.6462,459.699,460.617,0.226666,459.664,0.0798127,-0.053041,0.125149,0.125017,-0.248398,0.746792,-5.48957e-05,-6.66179e-05,0.494177,0.13331730476547254,1.110219562223175,-5.489419325865885e-05,0.1331677167542693,-6.66156810770202e-05,-0.21995057818152097
676,0.6472,459.355,459.455,-0.220774,459.907,-0.17299,-0.0365268,0.125302,0.125163,-0.248702,0.747706,-5.86814e-05,-6.67735e-05,0.494785,0.1334907155786904,1.1121491846061424,-5.867967828032672e-05,0.13333317131880484,-6.677127069942834e-05,-0.2201876771648823
677,0.6482,459.579,459.904,-0.103324,459.975,-0.103817,-0.0437087,0.125454,0.125317,-0.249005,0.748615,-5.7966e-05,-6.68922e-05,0.49539,0.13366301926220658,1.1140700010937823,-5.79643200039337e-05,0.13350771806694262,-6.68899627667141e-05,-0.2204239245054218
678,0.6492,459.8,460.329,0.013056,460.046,-0.0409097,-0.0460351,0.125605,0.12547,-0.249308,0.749524,-5.71953e-05,-6.69456e-05,0.495996,0.13383421530309114,1.1159925643974162,-5.7193664380061904e-05,0.13368115801562452,-6.694335919332772e-05,-0.22066010027386085
679,0.6502,459.863,460.317,-0.0291447,460.164,-0.0641657,-0.0444474,0.125757,0.125621,-0.249611,0.750433,-5.76422e-05,-6.70438e-05,0.496601,0.13400657120253356,1.1179168761056233,-5.764053872026054e-05,0.13385235679566754,-6.704155261461064e-05,-0.2208962044918824
680,0.6512,460.042,460.628,0.0447287,460.247,-0.0234415,-0.0464501,0.125909,0.125773,-0.249914,0.751341,-5.71352e-05,-6.71154e-05,0.497206,0.13417895330206409,1.1198408179665469,-5.713356781555934e-05,0.13402471545282646,-6.711314781193689e-05,-0.22113223718116315
681,0.6522,460.076,460.534,-0.0260834,460.373,-0.0631663,-0.0440114,0.12606,0.125924,-0.250216,0.75225,-5.7803e-05,-6.72196e-05,0.49781,0.13435022725487067,1.1217686293275992,-5.7801329438778026e-05,0.13419596611395934,-6.72173408132748e-05,-0.2213674197311819
682,0.6532,460.261,460.866,0.0544044,460.454,-0.0179585,-0.0468249,0.126211,0.126076,-0.250519,0.753156,-5.7224e-05,-6.72965e-05,0.498414,0.13452152707199683,1.1236918227808523,-5.722236273819625e-05,0.1343683770037043,-6.72942356413353e-05,-0.22160330966387376
683,0.6542,460.278,460.724,-0.0324293,460.585,-0.0669739,-0.0437007,0.126363,0.126226,-0.250821,0.754064,-5.80257e-05,-6.74021e-05,0.499019,0.13469398745076866,1.125621010674695,-5.8024016541646795e-05,0.13453854502253737,-6.739982852954629e-05,-0.22183834997148255
684,0.6552,460.478,461.099,0.0627727,460.66,-0.013166,-0.0472145,0.126514,0.126379,-0.251123,0.754969,-5.73198e-05,-6.74783e-05,0.499622,0.13486533917960353,1.127545568420381,-5.731815725162903e-05,0.13471214269980947,-6.747602339074454e-05,-0.22207331930763552
685,0.6562,460.478,460.908,-0.0411734,460.796,-0.0720192,-0.0433804,0.126665,0.126529,-0.251425,0.755876,-5.82655e-05,-6.75858e-05,0.500225,0.13503671678450324,1.1294761276271905,-5.8263802598768066e-05,0.13488236228736428,-6.758351613123104e-05,-0.22230821769376297
686,0.6572,460.696,461.335,0.0723731,460.865,-0.00768865,-0.0476441,0.126816,0.126681,-0.251726,0.75678,-5.74051e-05,-6.76596e-05,0.500827,0.13520812026937512,1.131402044429803,-5.740345235882849e-05,0.1350548775172573,-6.765731114088958e-05,-0.22254226769394503
687,0.6582,460.675,461.087,-0.0516569,461.007,-0.0780205,-0.0430149,0.126967,0.12683,-0.252028,0.757686,-5.85191e-05,-6.777e-05,0.50143,0.13537954963812737,1.13333396971206,-5.851738779083515e-05,0.13522401329430989,-6.776770366545559e-05,-0.22277702447904268
688,0.6592,460.914,461.575,0.0836868,461.069,-0.0012439,-0.0481333,0.127118,0.126983,-0.252329,0.758589,-5.7476e-05,-6.78405e-05,0.502032,0.13555100489466887,1.135261240318429,-5.747434828640152e-05,0.13539771585625093,-6.783819888533937e-05,-0.22301093338961742
689,0.6602,460.869,461.259,-0.0640213,461.218,-0.0850829,-0.0425832,0.127269,0.127132,-0.25263,0.759493,-5.87884e-05,-6.79545e-05,0.502634,0.1357224860429087,1.13719238922747,-5.8786671995880724e-05,0.13556690272002192,-6.795219114530404e-05,-0.22324477190420522
690,0.6612,461.135,461.82,0.0970057,461.272,0.00634524,-0.0486978,0.127419,0.127284,-0.252931,0.760395,-5.75301e-05,-6.80208e-05,0.503235,0.135892857193332,1.1391210064381543,-5.752844517548095e-05,0.1357395220079689,-6.801848663784416e-05,-0.22347854004399204
691,0.6622,461.061,461.424,-0.0785405,461.429,-0.0933705,-0.0420697,0.12757,0.127433,-0.253232,0.761299,-5.90755e-05,-6.81394e-05,0.503836,0.13606438996516657,1.141055646153374,-5.9073755076965995e-05,0.1359087598046509,-6.813707856379025e-05,-0.2237122378301576
692,0.6632,461.356,462.071,0.112642,461.473,0.0152639,-0.0493526,0.12772,0.127586,-0.253532,0.762199,-5.75646e-05,-6.82006e-05,0.504436,0.13623481240502477,1.1429834636226457,-5.756294319025912e-05,0.136082567140823,-6.81982743919729e-05,-0.2239450892293522
693,0.6642,461.249,461.582,-0.0955436,461.64,-0.103074,-0.0414596,0.127871,0.127733,-0.253833,0.763102,-5.93834e-05,-6.83246e-05,0.505037,0.13640639681599498,1.1449194516573424,-5.938163684082731e-05,0.1362495835535984,-6.832226592767832e-05,-0.2241786466053457
694,0.6652,461.58,462.33,0.130951,461.673,0.0257206,-0.0501131,0.128021,0.127886,-0.254133,0.764001,-5.75764e-05,-6.83799e-05,0.505636,0.13657687056072865,1.146848601267204,-5.7574742510890786e-05,0.1364234430397937,-6.837756214794766e-05,-0.22441135810289414
695,0.6662,461.435,461.731,-0.115408,461.852,-0.11441,-0.0407371,0.128172,0.128034,-0.254433,0.764904,-5.97152e-05,-6.85102e-05,0.506236,0.13674850662638005,1.1487880810975026,-5.971341708288502e-05,0.136591646156087,-6.850785322987107e-05,-0.2246439997974643
696,0.6672,461.807,462.596,0.152309,461.871,0.0379513,-0.0509906,0.128321,0.128187,-0.254733,0.765801,-5.75619e-05,-6.85585e-05,0.506835,0.136917894772971,1.150716408731895,-5.7560243345577966e-05,0.1367655579818643,-6.855614991974068e-05,-0.22487657170999387
697,0.6682,461.616,461.87,-0.138528,462.064,-0.12762,-0.0398892,0.128472,0.128334,-0.255033,0.766703,-6.00745e-05,-6.86965e-05,0.507434,0.1370895823371665,1.152657230111425,-6.0072695563406775e-05,0.13693267480167304,-6.869414044952116e-05,-0.22510907386141443
698,0.6692,462.036,462.872,0.177253,462.068,0.0522218,-0.0520217,0.128621,0.128487,-0.255332,0.767599,-5.75174e-05,-6.87366e-05,0.508032,0.13725902130782464,1.1545868753415722,-5.751574590606712e-05,0.1371066388088249,-6.873423769404585e-05,-0.22534073161377
699,0.6702,461.793,461.998,-0.165479,462.276,-0.142982,-0.0388827,0.128772,0.128633,-0.255632,0.7685,-6.04654e-05,-6.88833e-05,0.508631,0.13743076038601632,1.1565290329268598,-6.0463572004509913e-05,0.13727266849796327,-6.88809275999347e-05,-0.22557309453810448
700,0.6712,462.269,463.159,0.206225,462.263,0.0688401,-0.0532084,0.128921,0.128787,-0.25593,0.769394,-5.74382e-05,-6.89138e-05,0.509228,0.13760025019599098,1.1584578319269858,-5.743655045820084e-05,0.13744782197538363,-6.891142549858564e-05,-0.2258038393732441
701,0.6722,461.965,462.112,-0.196713,462.489,-0.160804,-0.0377085,0.129071,0.128932,-0.25623,0.770295,-6.08923e-05,-6.90709e-05,0.509826,0.13777090303216322,1.1604034788158524,-6.089044610158023e-05,0.13761276386756816,-6.906851466026431e-05,-0.2260360633860885
702,0.6732,462.506,463.458,0.239825,462.455,0.088145,-0.0545834,0.12922,0.129087,-0.256528,0.771187,-5.73194e-05,-6.909e-05,0.510422,0.13794044352716828,1.1623314184522013,-5.731775727457755e-05,0.13778910751224704,-6.90876133409013e-05,-0.22626667027706615
703,0.6742,462.458,463.156,0.0889581,462.599,0.009418,-0.0553911,0.129369,0.129235,-0.256827,0.772084,-5.83729e-05,-6.92969e-05,0.511019,0.13811000928558892,1.1642718999103763,-5.8371196335449405e-05,0.13795751276183998,-6.929449902526308e-05,-0.2264979819598335
704,0.6752,462.5,463.061,0.0358625,462.724,-0.0329414,-0.0436836,0.129519,0.129383,-0.257125,0.77298,-5.90017e-05,-6.92722e-05,0.511615,0.1382807385913596,1.1662119565482771,-5.899995943392522e-05,0.13812594293725433,-6.926980073651556e-05,-0.22672845121958418
705,0.6762,462.597,463.166,0.0275718,462.823,-0.0304401,-0.0475667,0.129668,0.129533,-0.257424,0.773875,-5.90311e-05,-6.94145e-05,0.512211,0.13845035505752268,1.1681515841032448,-5.902935769885875e-05,0.1382966746332519,-6.9412090869303e-05,-0.22695962485048937
706,0.6772,462.674,463.191,0.0070065,462.933,-0.0467951,-0.0442875,0.129818,0.129682,-0.257722,0.77477,-5.93437e-05,-6.94776e-05,0.512807,0.13862113541898813,1.1700929484019507,-5.934193919743258e-05,0.13846629347406214,-6.947518648747764e-05,-0.2271899565611546
707,0.6782,462.794,463.351,0.0240391,463.027,-0.0340984,-0.0467693,0.129967,0.129831,-0.25802,0.775664,-5.92394e-05,-6.95872e-05,0.513402,0.13879080260805732,1.1720338789645117,-5.9237645381404747e-05,0.13863593758996262,-6.958477886698233e-05,-0.22742021964319614
708,0.6792,462.87,463.38,0.000919984,463.136,-0.0491245,-0.0448676,0.130116,0.12998,-0.258317,0.776557,-5.95404e-05,-6.96691e-05,0.513997,0.1389604950794212,1.173974371519399,-5.953862750551764e-05,0.13880560698471944,-6.966667316465891e-05,-0.22764964176709024
709,0.6802,462.996,463.556,0.0260562,463.227,-0.0336088,-0.0465395,0.130265,0.130129,-0.258615,0.77745,-5.93953e-05,-6.97635e-05,0.514591,0.1391302128368468,1.17591659770809,-5.9393536134044744e-05,0.13897530166209981,-6.976106658362902e-05,-0.2278797678833493
710,0.6812,463.067,463.573,-0.00218082,463.337,-0.0504811,-0.0450538,0.130414,0.130278,-0.258912,0.778342,-5.9725e-05,-6.98539e-05,0.515186,0.1392999558841026,1.1778583812199415,-5.9723216497720166e-05,0.13914502162587072,-6.985146027316258e-05,-0.2281090535416822
711,0.6822,463.199,463.763,0.0285719,463.427,-0.0324536,-0.0465415,0.130562,0.130427,-0.259209,0.779234,-5.95426e-05,-6.99423e-05,0.515779,0.13946858475580215,1.1798018975754188,-5.954082737458233e-05,0.13931476687980027,-6.993985409431414e-05,-0.22833827111228622
712,0.6832,463.264,463.766,-0.00494077,463.538,-0.0519201,-0.0450941,0.130711,0.130575,-0.259506,0.780125,-5.99108e-05,-7.00367e-05,0.516373,0.1396383782242301,1.1817449665748505,-5.990900538388466e-05,0.13948339794368936,-7.003424748752707e-05,-0.22856742061538027
713,0.6842,463.401,463.97,0.0312745,463.626,-0.0310309,-0.0466421,0.13086,0.130724,-0.259803,0.781015,-5.96861e-05,-7.01221e-05,0.516966,0.13980819699376945,1.1836875839315972,-5.968431882019676e-05,0.13965319361944672,-7.01196415030525e-05,-0.2287965020711774
714,0.6852,463.461,463.958,-0.0078724,463.738,-0.0535646,-0.0450664,0.131008,0.130872,-0.2601,0.781906,-6.00995e-05,-7.02187e-05,0.517559,0.13997690109071992,1.1856341166204167,-6.009769406123411e-05,0.13982187477419994,-7.021623472480698e-05,-0.2290255154998847
715,0.6862,463.602,464.178,0.0342656,463.824,-0.0293774,-0.0467909,0.131157,0.131021,-0.260396,0.782795,-5.98262e-05,-7.03022e-05,0.518151,0.14014677030392453,1.1875780092823556,-5.982441044860565e-05,0.13999172088676248,-7.029972885819191e-05,-0.22925369017577868
716,0.6872,463.656,464.148,-0.0111346,463.938,-0.0554413,-0.0450021,0.131305,0.131169,-0.260692,0.783685,-6.02917e-05,-7.04004e-05,0.518743,0.14031552451343288,1.1895258203579737,-6.0289882491959546e-05,0.14016045214725903,-7.039792194996064e-05,-0.2294817973219635
717,0.6882,463.804,464.387,0.0376368,464.022,-0.0274787,-0.0469699,0.131453,0.131318,-0.260989,0.784573,-5.99627e-05,-7.04823e-05,0.519335,0.14048430370041265,1.1914709828107601,-5.9960902273226147e-05,0.14033034871160877,-7.047981618102384e-05,-0.2297106072482029
718,0.6892,463.85,464.336,-0.0148121,464.137,-0.0575743,-0.0449118,0.131601,0.131465,-0.261285,0.785461,-6.04875e-05,-7.0582e-05,0.519926,0.14065310786856067,1.1934178733349547,-6.048567066807564e-05,0.14049798959417226,-7.057950914923783e-05,-0.22993857916694893
719,0.6902,464.006,464.596,0.0414578,464.218,-0.0253096,-0.0471733,0.131749,0.131614,-0.26158,0.786348,-6.00952e-05,-7.06623e-05,0.520517,0.14082193702157442,1.1953642981003707,-6.009339431967131e-05,0.14066793645534847,-7.06598034785344e-05,-0.23016571378209183
720,0.6912,464.043,464.522,-0.0189696,464.336,-0.0599916,-0.0447982,0.131898,0.131761,-0.261876,0.787236,-6.06875e-05,-7.07636e-05,0.521108,0.14099193215451344,1.1973146474240224,-6.068565855088526e-05,0.14083562696695817,-7.07610963155414e-05,-0.2303935510092392
721,0.6922,464.207,464.806,0.0457901,464.414,-0.0228403,-0.0474003,0.132045,0.13191,-0.262171,0.788122,-6.02232e-05,-7.08423e-05,0.521698,0.14115967029699172,1.1992623308980086,-6.022138661954113e-05,0.14100562413985118,-7.083979074351543e-05,-0.2306205514274835
722,0.6932,464.235,464.705,-0.0236678,464.534,-0.0627247,-0.044661,0.132193,0.132057,-0.262467,0.789008,-6.08922e-05,-7.09453e-05,0.522288,0.14132857442679292,1.2012117407842409,-6.089034610756716e-05,0.1411733642951991,-7.094278344166316e-05,-0.23084825404261144
723,0.6942,464.409,465.017,0.0506946,464.609,-0.0200372,-0.0476522,0.132341,0.132205,-0.262762,0.789893,-6.03463e-05,-7.1022e-05,0.522878,0.14149750355625534,1.2031606754512203,-6.03444791986707e-05,0.14134227045186187,-7.101947799748043e-05,-0.2310751203432443
724,0.6952,464.426,464.887,-0.0289686,464.732,-0.065808,-0.0444982,0.132489,0.132352,-0.263056,0.790778,-6.1102e-05,-7.1127e-05,0.523467,0.14166645768907893,1.2051113356888323,-6.110013331084296e-05,0.14151006009785516,-7.112447053492232e-05,-0.23130115102972437
725,0.6962,464.61,465.229,0.056235,464.804,-0.0168642,-0.0479313,0.132636,0.132501,-0.263351,0.791662,-6.04639e-05,-7.12015e-05,0.524056,0.14183429499409894,1.207061515962264,-6.0462072095202046e-05,0.14168015776877163,-7.119896523333225e-05,-0.23152788374545075
726,0.6972,464.616,465.066,-0.0349373,464.93,-0.0692792,-0.0443075,0.132784,0.132647,-0.263646,0.792547,-6.13175e-05,-7.13088e-05,0.524644,0.14200329897574426,1.2090156299717973,-6.131562012057223e-05,0.14184685524042506,-7.130625758799969e-05,-0.23175454958489072
727,0.6982,464.812,465.443,0.0624789,464.997,-0.0132817,-0.0482401,0.132931,0.132796,-0.26394,0.793429,-6.05754e-05,-7.13809e-05,0.525232,0.14217118580007293,1.2109648412332374,-6.057356534749925e-05,0.1420170030975565,-7.137835244419577e-05,-0.23198038054853443
728,0.6992,464.804,465.242,-0.0416437,465.128,-0.0731785,-0.0440858,0.133078,0.132942,-0.264234,0.794313,-6.15393e-05,-7.14907e-05,0.525821,0.14233909730557892,1.2129201982933724,-6.153740649617045e-05,0.14218374975221848,-7.148814460078423e-05,-0.23220614512763382
729,0.7002,465.014,465.658,0.0694986,465.19,-0.00924717,-0.0485819,0.133225,0.13309,-0.264528,0.795194,-6.06802e-05,-7.156e-05,0.526408,0.14250703349589044,1.2148706400314997,-6.0678358993926373e-05,0.14235280545699536,-7.155743964426531e-05,-0.23243184334170308
730,0.7012,464.991,465.415,-0.0491621,465.325,-0.0775494,-0.04383,0.133373,0.133236,-0.264822,0.796077,-6.1768e-05,-7.16728e-05,0.526995,0.1426761370502021,1.2168272345159847,-6.176609239638697e-05,0.14251960114238083,-7.16702315661788e-05,-0.23265747521025082
731,0.7022,465.216,465.876,0.0773712,465.382,-0.0047152,-0.0489599,0.133519,0.133384,-0.265116,0.796957,-6.07776e-05,-7.17389e-05,0.527582,0.14284297994544648,1.2187789010897037,-6.077575307905647e-05,0.14268870655684185,-7.173632682666575e-05,-0.23288304075277944
732,0.7032,465.176,465.586,-0.0575719,465.521,-0.0824381,-0.0435366,0.133667,0.13353,-0.265409,0.797839,-6.20043e-05,-7.18549e-05,0.528169,0.14301213322351214,1.2207367273549274,-6.200237777309603e-05,0.14285555128736815,-7.185231849848872e-05,-0.23310777309694275
733,0.7042,465.418,466.095,0.0861789,465.573,0.000362891,-0.0493778,0.133813,0.133678,-0.265703,0.798718,-6.0867e-05,-7.19175e-05,0.528754,0.14317902517777892,1.2226896131058202,-6.08651476416977e-05,0.14302470642613008,-7.191491399860528e-05,-0.2333332062713518
734,0.7052,465.36,465.752,-0.0669575,465.718,-0.0878938,-0.0432018,0.13396,0.133823,-0.265996,0.799599,-6.2249e-05,-7.20373e-05,0.529341,0.14334708484656322,1.2246486654908302,-6.224706257118573e-05,0.14319045702518984,-7.203470537597845e-05,-0.2335578067363393
735,0.7062,465.621,466.317,0.0960089,465.763,0.00603884,-0.0498393,0.134107,0.133972,-0.266289,0.800477,-6.09474e-05,-7.20958e-05,0.529926,0.14351516922193452,1.2266027647431712,-6.094554274493902e-05,0.1433608050939026,-7.209320116030593e-05,-0.23378234140303056
736,0.7072,465.542,465.916,-0.0774079,465.914,-0.0939684,-0.0428217,0.134254,0.134116,-0.266582,0.801357,-6.25029e-05,-7.22198e-05,0.530511,0.14368327830752525,1.2285630375696859,-6.250094673443396e-05,0.14352546090477003,-7.221719221306433e-05,-0.23400681029070158
737,0.7082,465.825,466.542,0.106953,465.952,0.0123675,-0.0503486,0.1344,0.134265,-0.266874,0.802233,-6.10182e-05,-7.22738e-05,0.531096,0.1438502682561278,1.2305161141132275,-6.101633842747756e-05,0.1436958588927797,-7.227118831187873e-05,-0.23423044764945333
738,0.7092,465.723,466.075,-0.0890173,466.11,-0.100717,-0.042392,0.134547,0.134409,-0.267167,0.803113,-6.27666e-05,-7.24026e-05,0.531681,0.14401842660489717,1.2324798322028814,-6.276463021814838e-05,0.14386056295486815,-7.239997899499695e-05,-0.23445478526122698
739,0.7102,466.029,466.769,0.119109,466.141,0.0194066,-0.0509099,0.134692,0.134558,-0.267459,0.803988,-6.10784e-05,-7.24514e-05,0.532264,0.14418432130382985,1.2344341069265639,-6.107653475251329e-05,0.14403101087680326,-7.24487754607539e-05,-0.23467829183038347
740,0.7112,465.902,466.23,-0.101884,466.306,-0.108197,-0.0419083,0.134839,0.134702,-0.267751,0.804866,-6.30411e-05,-7.25856e-05,0.532848,0.14435252876200688,1.2363968015693092,-6.303911295157949e-05,0.14419576320425231,-7.25829657290955e-05,-0.2349017331451495
741,0.7122,466.234,467.0,0.132578,466.328,0.0272171,-0.0515278,0.134985,0.13485,-0.268043,0.80574,-6.11272e-05,-7.26287e-05,0.533431,0.1445196164283089,1.2383522667877034,-6.112533177082824e-05,0.14436511670905694,-7.262606259983428e-05,-0.2351251092245763
742,0.7132,466.078,466.38,-0.116111,466.502,-0.116468,-0.0413659,0.135132,0.134994,-0.268335,0.806618,-6.33273e-05,-7.27688e-05,0.534015,0.14468787317849197,1.2403184030854724,-6.332529486885452e-05,0.14452991715121,-7.276615241513795e-05,-0.23534842008770995
743,0.7142,466.44,467.234,0.147466,466.514,0.0358625,-0.0522069,0.135277,0.135143,-0.268627,0.807491,-6.11635e-05,-7.28056e-05,0.534597,0.14485386495421593,1.2422750550056607,-6.116162955127624e-05,0.14470046481435084,-7.280294973666113e-05,-0.2355716657535909
744,0.7152,466.253,466.526,-0.131806,466.697,-0.125592,-0.0407597,0.135424,0.135285,-0.268918,0.808368,-6.36261e-05,-7.29523e-05,0.53518,0.14502217084254387,1.2442423927804205,-6.36240759026574e-05,0.14486302382177096,-7.294963904569407e-05,-0.23579408203571806
745,0.7162,466.647,467.472,0.163883,466.699,0.045409,-0.0529522,0.135568,0.135435,-0.269209,0.809239,-6.11865e-05,-7.2982e-05,0.535761,0.1451870659073049,1.2461979794388895,-6.118462814430625e-05,0.14503476615569721,-7.297933687866465e-05,-0.2360164336041234
746,0.7172,466.426,466.666,-0.149078,466.893,-0.135635,-0.0400847,0.135715,0.135577,-0.2695,0.810116,-6.39384e-05,-7.31362e-05,0.536344,0.14535542077977315,1.2481687591274353,-6.393635598411773e-05,0.1451973726372784,-7.313352561333364e-05,-0.23623872047763583
747,0.7182,466.855,467.714,0.181942,466.883,0.0559255,-0.0537687,0.13586,0.135726,-0.269791,0.810986,-6.11951e-05,-7.3158e-05,0.536924,0.1455215093569171,1.2501255170141348,-6.119322761810597e-05,0.14536801975869618,-7.315532401874769e-05,-0.236460942675079
748,0.7192,466.596,466.801,-0.168041,467.088,-0.146661,-0.0393353,0.136006,0.135868,-0.270082,0.811861,-6.42652e-05,-7.33203e-05,0.537507,0.1456887677068457,1.2520952384689865,-6.426313503626879e-05,0.14553067356564875,-7.331761213247301e-05,-0.23668310021527073
749,0.7202,467.064,467.961,0.201759,467.066,0.0674827,-0.0546616,0.136151,0.136018,-0.270373,0.81273,-6.11881e-05,-7.33334e-05,0.538086,0.1458549046227986,1.2540531598248328,-6.118622804640594e-05,0.1457025160545482,-7.333071117199275e-05,-0.23690519311702363
750,0.7212,466.764,466.931,-0.188811,467.284,-0.158739,-0.0385061,0.136297,0.136158,-0.270663,0.813605,-6.46075e-05,-7.35048e-05,0.538668,0.14602221165198936,1.256026319471133,-6.460541298036748e-05,0.14586292563520442,-7.350209858836276e-05,-0.23712645852598468
751,0.7222,467.275,468.213,0.223455,467.248,0.0801534,-0.0556363,0.136441,0.136309,-0.270953,0.814472,-6.11646e-05,-7.35082e-05,0.539246,0.146187250732996,1.257983142450299,-6.116272948397672e-05,0.14603596400104313,-7.350549833851083e-05,-0.23734765977728045
752,0.7232,466.93,467.054,-0.211507,467.48,-0.171937,-0.0375913,0.136588,0.136449,-0.271244,0.815347,-6.49663e-05,-7.36898e-05,0.539828,0.1463557526434407,1.259959742336282,-6.49641897356723e-05,0.14619642026767976,-7.368708497335064e-05,-0.23756955932033585
753,0.7242,467.148,467.51,-0.0893195,467.533,-0.0985913,-0.0452465,0.136733,0.136595,-0.271533,0.816216,-6.41596e-05,-7.37948e-05,0.540406,0.1465219862792213,1.261924500916333,-6.415754181687827e-05,0.14636377716179494,-7.379207723068326e-05,-0.23778986988128292
754,0.7252,467.334,467.863,0.00399718,467.6,-0.0471666,-0.0472927,0.136878,0.136741,-0.271823,0.817085,-6.35428e-05,-7.38456e-05,0.540985,0.14668824402062675,1.2638909676136594,-6.354078119907847e-05,0.14653115849180032,-7.384287348077834e-05,-0.23801087877117932
755,0.7262,467.407,467.896,-0.0179495,467.7,-0.0593621,-0.0463797,0.137023,0.136886,-0.272113,0.817954,-6.38255e-05,-7.39408e-05,0.541564,0.14685452587115244,1.2658591439132603,-6.382346319611099e-05,0.14669741756327292,-7.393806644639955e-05,-0.23823182357779027
756,0.7272,467.548,468.123,0.0295736,467.779,-0.0327285,-0.0477379,0.137168,0.137031,-0.272402,0.818822,-6.35203e-05,-7.4013e-05,0.542142,0.1470208318342947,1.2678267634735287,-6.351828262840531e-05,0.14686370074405897,-7.401026110553932e-05,-0.23845194277202064
757,0.7282,467.6,468.099,-0.0116088,467.885,-0.0563511,-0.0461899,0.137312,0.137176,-0.272691,0.81969,-6.39537e-05,-7.41137e-05,0.54272,0.1471860147269617,1.2697960916690154,-6.395165500572286e-05,0.14703000803765431,-7.411095364762144e-05,-0.2386719983609954
758,0.7292,467.739,468.324,0.0342535,467.964,-0.0300297,-0.0479667,0.137457,0.137321,-0.27298,0.820557,-6.36478e-05,-7.41917e-05,0.543298,0.1473523687594731,1.271764858217466,-6.36457745217811e-05,0.1471963394475555,-7.418894786392904e-05,-0.2388919903630936
759,0.7302,467.785,468.282,-0.0128897,468.073,-0.0572927,-0.0460953,0.137602,0.137465,-0.273269,0.821425,-6.41329e-05,-7.42929e-05,0.543875,0.14751874691506806,1.2737376061631478,-6.413084352951959e-05,0.14736154761513842,-7.429014035087445e-05,-0.23911191879668925
760,0.7312,467.928,468.518,0.0368208,468.15,-0.0285255,-0.0481546,0.137746,0.13761,-0.273558,0.822291,-6.37902e-05,-7.43713e-05,0.544452,0.14768400151266925,1.2757075157778361,-6.37881654484973e-05,0.147527927101764,-7.436853452347236e-05,-0.23933178368015107
761,0.7322,467.968,468.461,-0.0152601,468.259,-0.058759,-0.0460254,0.137891,0.137754,-0.273847,0.823157,-6.43191e-05,-7.44731e-05,0.545029,0.14785042775849977,1.2776791320731369,-6.43170315710595e-05,0.14769318302140721,-7.447032694751776e-05,-0.23955158503184237
762,0.7332,468.116,468.712,0.0393612,468.335,-0.0270547,-0.0483345,0.138035,0.137899,-0.274135,0.824022,-6.39329e-05,-7.45507e-05,0.545605,0.14801573012158142,1.2796501768763586,-6.393085633571438e-05,0.14785961059865316,-7.454792116556863e-05,-0.2397705626410639
763,0.7342,468.151,468.639,-0.0179469,468.446,-0.0603818,-0.0459601,0.13818,0.138043,-0.274423,0.824888,-6.45075e-05,-7.46535e-05,0.546182,0.14818220447154773,1.2816252089950084,-6.450541943592292e-05,0.14802491428415898,-7.46507134967711e-05,-0.23998947719381447
764,0.7352,468.304,468.905,0.042091,468.519,-0.0254838,-0.0485171,0.138324,0.138187,-0.274712,0.825751,-6.40741e-05,-7.473e-05,0.546757,0.14834755461391635,1.2835951014367004,-6.40720472987466e-05,0.14819024177510975,-7.47272077831207e-05,-0.24020908849954337
765,0.7362,468.333,468.816,-0.0208583,468.632,-0.062128,-0.0458905,0.138468,0.138331,-0.275,0.826616,-6.46977e-05,-7.48341e-05,0.547333,0.1485129285684197,1.2855712657672984,-6.469560714894573e-05,0.14835559307493318,-7.483129999863447e-05,-0.24042787677503152
766,0.7372,468.491,469.099,0.0450319,468.703,-0.0237931,-0.0487066,0.138612,0.138476,-0.275287,0.827479,-6.42134e-05,-7.49092e-05,0.547907,0.1486783263384872,1.2875445651258572,-6.421133836376214e-05,0.1485221167086006,-7.490639437590652e-05,-0.2406458426947915
767,0.7382,468.514,468.992,-0.0239855,468.817,-0.0639988,-0.0458132,0.138756,0.138619,-0.275575,0.828342,-6.48899e-05,-7.50147e-05,0.548482,0.1488437479275484,1.289519568176801,-6.488779469593364e-05,0.14868636711491412,-7.501188646774626e-05,-0.2408645052031828
768,0.7392,468.679,469.292,0.0481897,468.886,-0.021976,-0.0489052,0.1389,0.138764,-0.275862,0.829204,-6.43509e-05,-7.50883e-05,0.549057,0.14900919333903362,1.2914939848959186,-6.434882952521814e-05,0.14885293871429495,-7.508548094414813e-05,-0.24108234582856447
769,0.7402,468.694,469.166,-0.0273318,469.002,-0.0659984,-0.0457267,0.139044,0.138907,-0.27615,0.830067,-6.50839e-05,-7.51954e-05,0.549631,0.14917466257637368,1.2934723977672493,-6.508178208897153e-05,0.14901723643153786,-7.519257289678727e-05,-0.2413008826421541
770,0.7412,468.866,469.486,0.0515698,469.069,-0.020028,-0.0491137,0.139187,0.139051,-0.276437,0.830928,-6.44865e-05,-7.52673e-05,0.550204,0.14933900630341856,1.2954479278453839,-6.44844207903228e-05,0.1491827068271665,-7.526446748784554e-05,-0.24151859804518105
771,0.7422,468.874,469.339,-0.0309023,469.187,-0.0681308,-0.0456305,0.139331,0.139194,-0.276724,0.83179,-6.528e-05,-7.53761e-05,0.550778,0.14950452303724515,1.297427457013685,-6.527786930721202e-05,0.1493470517046216,-7.537325929318772e-05,-0.241736250972853
772,0.7432,469.052,469.68,0.0551774,469.251,-0.0179451,-0.0493328,0.139474,0.139338,-0.27701,0.832649,-6.46201e-05,-7.54462e-05,0.551351,0.14966891393770854,1.2994017950560468,-6.461801216628427e-05,0.14951256959706916,-7.544335400699875e-05,-0.2419530833965602
773,0.7442,469.053,469.511,-0.0347023,469.371,-0.0703995,-0.045524,0.139618,0.139481,-0.277297,0.83351,-6.54781e-05,-7.55569e-05,0.551924,0.14983447818165518,1.301382432543671,-6.547595635597592e-05,0.14967696164827315,-7.555404564929535e-05,-0.24217061164482856
774,0.7452,469.239,469.874,0.0590176,469.432,-0.015724,-0.0495627,0.139761,0.139625,-0.277583,0.834369,-6.47516e-05,-7.5625e-05,0.552496,0.14999891626907802,1.3033601693695815,-6.474950366042176e-05,0.1498425270511734,-7.562214050171878e-05,-0.2423873198591464
775,0.7462,469.231,469.682,-0.0387361,469.555,-0.0728074,-0.045407,0.139905,0.139768,-0.27787,0.835229,-6.56782e-05,-7.57378e-05,0.553068,0.15016452803678204,1.3053419111420603,-6.567604323426401e-05,0.15000696628966703,-7.573493196522119e-05,-0.24260472349943218
776,0.7472,469.425,470.068,0.0630944,469.613,-0.013362,-0.0498038,0.140048,0.139912,-0.278156,0.836086,-6.48811e-05,-7.58038e-05,0.55364,0.15032901332470905,1.3073184359798304,-6.487899526697039e-05,0.15017257921665728,-7.580092696457541e-05,-0.24282130757551212
777,0.7482,469.408,469.852,-0.0430074,469.738,-0.0753568,-0.045279,0.140191,0.140054,-0.278442,0.836945,-6.58805e-05,-7.59187e-05,0.554211,0.1504935221357142,1.309301274023352,-6.587832992754894e-05,0.15033591531949497,-7.591581824839544e-05,-0.2430378297174034
778,0.7492,469.611,470.263,0.0674108,469.793,-0.0108571,-0.0500563,0.140334,0.140198,-0.278728,0.837802,-6.50084e-05,-7.59824e-05,0.554782,0.15065805447316127,1.3112811934895023,-6.500628699979139e-05,0.15050157561855615,-7.59795134105401e-05,-0.2432542899428164
779,0.7502,469.585,470.021,-0.0475185,469.921,-0.0780493,-0.04514,0.140477,0.14034,-0.279013,0.83866,-6.6085e-05,-7.60997e-05,0.555353,0.1508226103404151,1.3132651237378847,-6.608281643449843e-05,0.15066495844219996,-7.609680449127687e-05,-0.24346993173976705
780,0.7512,469.796,470.457,0.0719687,469.973,-0.00820772,-0.0503202,0.14062,0.140484,-0.279299,0.839516,-6.51336e-05,-7.6161e-05,0.555923,0.15098718974084036,1.3152461264319948,-6.513147885311987e-05,0.15083066612688256,-7.615809982464139e-05,-0.2436862684016723
781,0.7522,469.761,470.188,-0.0522706,470.103,-0.0808858,-0.0449898,0.140763,0.140626,-0.279584,0.840373,-6.62916e-05,-7.62807e-05,0.556494,0.15115179267780277,1.3172311428203782,-6.628940276043327e-05,0.15099409568469668,-7.627779070140672e-05,-0.24390178710230415
782,0.7532,469.981,470.652,0.0767687,470.152,-0.0054134,-0.0505958,0.140905,0.14077,-0.279869,0.841227,-6.52566e-05,-7.63395e-05,0.557063,0.15131526783882476,1.3192109034538144,-6.525447083438607e-05,0.15115985076855476,-7.633658621453154e-05,-0.24411724438885818
783,0.7542,469.936,470.354,-0.0572634,470.285,-0.0838664,-0.0448283,0.141049,0.140911,-0.280154,0.842083,-6.65003e-05,-7.64618e-05,0.557633,0.1514810691748032,1.3211969979143268,-6.64980889040212e-05,0.15132217575115559,-7.645887687102171e-05,-0.24433264027883517
784,0.7552,470.167,470.847,0.0818097,470.331,-0.00247431,-0.0508829,0.141191,0.141055,-0.280439,0.842937,-6.53775e-05,-7.65179e-05,0.558202,0.1516445910964077,1.323180146834606,-6.537536293782509e-05,0.15148797808194514,-7.651497258021056e-05,-0.24454797478973034
785,0.7562,470.11,470.519,-0.0624953,470.467,-0.0869902,-0.0446555,0.141334,0.141196,-0.280724,0.843792,-6.67113e-05,-7.6643e-05,0.558771,0.15180928804848604,1.325167315253593,-6.670907485073485e-05,0.15165034933375887,-7.664006300034387e-05,-0.24476324793903437
786,0.7572,470.351,471.043,0.0870895,470.509,0.000608421,-0.0511816,0.141476,0.14134,-0.281008,0.844645,-6.54963e-05,-7.66962e-05,0.559339,0.15197285658047965,1.3271515291204072,-6.549415516421409e-05,0.1518161989249469,-7.669325892167844e-05,-0.24497770472231495
787,0.7582,470.284,470.682,-0.0679629,470.648,-0.0902556,-0.0444714,0.141618,0.141481,-0.281292,0.845499,-6.69243e-05,-7.68243e-05,0.559908,0.15213644834085427,1.3291397653823225,-6.69220606189791e-05,0.15197861645916233,-7.682134908904015e-05,-0.24519210060851693
788,0.7592,470.536,471.238,0.0926039,470.686,0.00383272,-0.0514917,0.14176,0.141625,-0.281577,0.84635,-6.56129e-05,-7.68744e-05,0.560475,0.15230006333290813,1.331122706944627,-6.561074752076124e-05,0.15214451332422008,-7.687144523904621e-05,-0.24540719020811974
789,0.7602,470.457,470.845,-0.0736612,470.828,-0.0936597,-0.0442761,0.141903,0.141765,-0.281861,0.847204,-6.71395e-05,-7.70056e-05,0.561043,0.1524648540242184,1.3331143360409374,-6.713724619422656e-05,0.15230582484762856,-7.700263514487382e-05,-0.24562146413776242
790,0.7612,470.72,471.434,0.0983472,470.863,0.00719549,-0.051813,0.142044,0.141909,-0.282144,0.848054,-6.57275e-05,-7.70526e-05,0.56161,0.15262736302525126,1.335098326302981,-6.572533999515962e-05,0.15247176883408708,-7.70496315246616e-05,-0.24583492305754961
791,0.7622,470.629,471.006,-0.0795837,471.009,-0.0971989,-0.0440699,0.142187,0.142049,-0.282428,0.848907,-6.73567e-05,-7.7187e-05,0.562177,0.15279220052376408,1.3370910149361945,-6.735443158845111e-05,0.15263312617647418,-7.718402116019263e-05,-0.246049075528311
792,0.7632,470.904,471.629,0.104312,471.039,0.0106926,-0.0521451,0.142328,0.142193,-0.282712,0.849756,-6.58401e-05,-7.72306e-05,0.562743,0.15295475568390748,1.3390760477350643,-6.583793258818638e-05,0.15279911729771745,-7.722761779394016e-05,-0.24626316718840635
793,0.7642,470.801,471.166,-0.0857216,471.189,-0.100868,-0.043853,0.142471,0.142333,-0.282995,0.850608,-6.75759e-05,-7.73684e-05,0.56331,0.153119640002918,1.3410697897412236,-6.757361680032048e-05,0.15296052047209763,-7.736540714253781e-05,-0.2464764445319244
794,0.7652,471.088,471.825,0.110488,471.214,0.0143188,-0.0524878,0.142612,0.142477,-0.283278,0.851456,-6.59508e-05,-7.74085e-05,0.563876,0.153282241335283,1.3430558588972303,-6.594862529374357e-05,0.15312655874151426,-7.740550403934066e-05,-0.24668966152649408
795,0.7662,470.972,471.325,-0.0920647,471.368,-0.104662,-0.0436257,0.142754,0.142616,-0.283561,0.852307,-6.77969e-05,-7.755e-05,0.564442,0.15344601904149457,1.3450506480955702,-6.779460184214159e-05,0.15328685447347445,-7.754699307649382e-05,-0.2469028181891918
796,0.7672,471.272,472.021,0.116866,471.389,0.0180677,-0.0528405,0.142895,0.14276,-0.283844,0.853154,-6.60597e-05,-7.75864e-05,0.565007,0.15360866639654835,1.347037747412271,-6.60575181060663e-05,0.15345293973837082,-7.758339025309979e-05,-0.2471159145370887
797,0.7682,471.142,471.483,-0.0986006,471.547,-0.108573,-0.0433885,0.143037,0.142899,-0.284127,0.854005,-6.80197e-05,-7.77316e-05,0.565572,0.1537724904584099,1.3490359266399898,-6.80173867126932e-05,0.1536132808404429,-7.77285789774762e-05,-0.2473289505872519
798,0.7692,471.455,472.217,0.12343,471.564,0.0219319,-0.0532027,0.143178,0.143043,-0.284409,0.85485,-6.61669e-05,-7.77642e-05,0.566136,0.15393518384917892,1.3510217008694547,-6.616471101894561e-05,0.15377941311412058,-7.776117644298086e-05,-0.247541173898293
799,0.7702,471.312,471.64,-0.105315,471.726,-0.112593,-0.0431418,0.14332,0.143182,-0.284692,0.8557,-6.82442e-05,-7.79132e-05,0.566701,0.15409905427981085,1.3530209188624713,-6.824187141751814e-05,0.15393979959914583,-7.791016484548496e-05,-0.24775408961708456
800,0.7712,471.638,472.414,0.130167,471.738,0.0259026,-0.0535736,0.143461,0.143326,-0.284974,0.856545,-6.62724e-05,-7.79418e-05,0.567264,0.15426179371932514,1.3550100618334575,-6.627020403304762e-05,0.1541059788949104,-7.793876261685817e-05,-0.24796619305582202
801,0.7722,471.48,471.796,-0.112192,471.904,-0.116712,-0.0428864,0.143603,0.143464,-0.285256,0.857393,-6.84702e-05,-7.80949e-05,0.567829,0.1544257105318516,1.357007957353868,-6.846785596936744e-05,0.15426525650990053,-7.809185067264579e-05,-0.24817823668982275
802,0.7732,471.82,472.61,0.13706,471.911,0.02997,-0.0539526,0.143743,0.143609,-0.285538,0.858237,-6.63765e-05,-7.81194e-05,0.568392,0.1545873414452259,1.3589981117969119,-6.637429712885723e-05,0.15443263710689448,-7.811634875909412e-05,-0.24839022053594906
803,0.7742,471.649,471.951,-0.119214,472.081,-0.120921,-0.0426229,0.143885,0.143746,-0.28582,0.859085,-6.86976e-05,-7.82767e-05,0.568955,0.1547513044888118,1.3609993906180082,-6.869524037389496e-05,0.15459080521244584,-7.82736364590697e-05,-0.2486021446110589
804,0.7752,472.003,472.806,0.144089,472.084,0.0341231,-0.0543387,0.144025,0.143891,-0.286101,0.859927,-6.64794e-05,-7.82969e-05,0.569517,0.154912980988531,1.362988189271643,-6.647719029362342e-05,0.1547582330174242,-7.829383487767405e-05,-0.24881325774563867
805,0.7762,471.816,472.105,-0.12636,472.259,-0.125207,-0.0423521,0.144167,0.144028,-0.286383,0.860774,-6.89262e-05,-7.84585e-05,0.570081,0.15507699027621524,1.3649904881218133,-6.892382464407376e-05,0.15491644573267105,-7.845542221240898e-05,-0.2490250625410746
806,0.7772,472.185,473.001,0.151233,472.257,0.0383499,-0.054731,0.144307,0.144172,-0.286664,0.861616,-6.65811e-05,-7.84744e-05,0.570642,0.15523871237513664,1.3669826486947159,-6.657888352779029e-05,0.15508276567560508,-7.847132096483467e-05,-0.24923605685241146
807,0.7782,471.984,472.259,-0.133609,472.436,-0.129558,-0.0420748,0.144448,0.14431,-0.286945,0.862462,-6.91557e-05,-7.86404e-05,0.571205,0.15540161251777174,1.3689859632981047,-6.915330879975201e-05,0.15524217809647234,-7.863730792478929e-05,-0.24944699188267616
808,0.7792,472.366,473.197,0.158471,472.429,0.0426372,-0.0551286,0.144588,0.144454,-0.287226,0.863302,-6.66819e-05,-7.86517e-05,0.571765,0.15556338006698844,1.3709767475195904,-6.667967681150966e-05,0.15540854494824408,-7.864860703610255e-05,-0.2496578676485245
809,0.7802,472.15,472.411,-0.140938,472.612,-0.133961,-0.0417921,0.14473,0.144591,-0.287507,0.864148,-6.93861e-05,-7.88222e-05,0.572327,0.15572748171789952,1.372983442560309,-6.938369284026358e-05,0.1555668467623288,-7.881909361195927e-05,-0.24986868416660724
810,0.7812,472.548,473.393,0.165777,472.6,0.0469707,-0.0555301,0.144869,0.144735,-0.287788,0.864987,-6.6782e-05,-7.8829e-05,0.572887,0.1558881390032809,1.3749752110986813,-6.677977013191949e-05,0.15573326036975477,-7.882589307606214e-05,-0.25007944145357086
811,0.7822,472.316,472.563,-0.148321,472.788,-0.1384,-0.0415049,0.145011,0.144872,-0.288068,0.865832,-6.96171e-05,-7.90041e-05,0.573449,0.15605228677323524,1.376982913286772,-6.961467678590072e-05,0.15589160667289947,-7.900097925828131e-05,-0.2502893898158214
812,0.7832,472.728,473.588,0.173127,472.771,0.0513353,-0.0559346,0.14515,0.145016,-0.288349,0.86667,-6.68816e-05,-7.90062e-05,0.574008,0.15621298920965732,1.3789756598122844,-6.687936347560264e-05,0.15605806704911984,-7.90030790923657e-05,-0.2505000289011057
813,0.7842,472.482,472.715,-0.155732,472.964,-0.14286,-0.0412143,0.145291,0.145152,-0.288629,0.867514,-6.98484e-05,-7.9186e-05,0.574569,0.1563760267350114,1.3809843628225966,-6.984596065728876e-05,0.15621530163794817,-7.918286487140769e-05,-0.2507098595153565
814,0.7852,472.909,473.782,0.180492,472.941,0.0557147,-0.0563405,0.14543,0.145296,-0.288909,0.868351,-6.6981e-05,-7.91833e-05,0.575127,0.1565367741744157,1.382978080988937,-6.697875682293297e-05,0.1563818086295996,-7.918016508523529e-05,-0.25091963138525997
815,0.7862,472.647,472.866,-0.163144,473.139,-0.147325,-0.0409216,0.145572,0.145432,-0.289189,0.869194,-7.00798e-05,-7.93679e-05,0.575688,0.15670101405710413,1.3849877784796876,-7.007734446817793e-05,0.156539087250277,-7.936475045156044e-05,-0.251129344527262
816,0.7872,473.089,473.977,0.187845,473.111,0.0600921,-0.0567467,0.14571,0.145577,-0.289468,0.87003,-6.70804e-05,-7.93603e-05,0.576246,0.15686064981165782,1.3869824619240028,-6.70781501602713e-05,0.1567067975766332,-7.93571510546709e-05,-0.251338250296429
817,0.7882,472.812,473.016,-0.170526,473.313,-0.151777,-0.040628,0.145852,0.145712,-0.289748,0.870872,-7.03111e-05,-7.95498e-05,0.576806,0.15702493568795206,1.388993147536794,-7.030862823254047e-05,0.15686296353527118,-7.954663599851752e-05,-0.25154784624154436
818,0.7892,473.268,474.17,0.195155,473.281,0.0644499,-0.0571517,0.14599,0.145857,-0.290027,0.871707,-6.718e-05,-7.95373e-05,0.577363,0.15718461614677537,1.3909887898797146,-6.717774347431149e-05,0.15703072082709335,-7.953413699279821e-05,-0.2517566352650198
819,0.7902,472.976,473.166,-0.17785,473.487,-0.156199,-0.0403348,0.146131,0.145992,-0.290307,0.872548,-7.05419e-05,-7.97317e-05,0.577922,0.15734779068118643,1.3930004572395602,-7.053941197865399e-05,0.157186930518322,-7.972852151250098e-05,-0.25196611407874303
820,0.7912,473.447,474.363,0.202392,473.45,0.0687697,-0.0575541,0.14627,0.146136,-0.290586,0.873382,-6.72802e-05,-7.97143e-05,0.578479,0.15750867320516737,1.3949970520852202,-6.727793673810822e-05,0.15735357743460665,-7.971112289961724e-05,-0.2521747864217696
821,0.7922,473.14,473.316,-0.185084,473.661,-0.160573,-0.0400434,0.146411,0.146271,-0.290865,0.874223,-7.07721e-05,-7.99135e-05,0.579037,0.1576718934348451,1.3970120918114621,-7.076959571405972e-05,0.15750983071441937,-7.99103070012741e-05,-0.2523834005533334
822,0.7932,473.625,474.555,0.209525,473.619,0.0730329,-0.0579523,0.146549,0.146415,-0.291143,0.875056,-6.73812e-05,-7.98911e-05,0.579593,0.15783166317999808,1.3990096347450667,-6.737892993791128e-05,0.1576765241316802,-7.988790879109864e-05,-0.25259120908125576
823,0.7942,473.304,473.466,-0.192196,473.834,-0.16488,-0.0397552,0.14669,0.14655,-0.291422,0.875896,-7.10013e-05,-8.00953e-05,0.580151,0.15799492895447287,1.4010256494458853,-7.099877946736832e-05,0.15783282101224017,-8.00920924570736e-05,-0.2527997070471034
824,0.7952,473.803,474.746,0.216522,473.787,0.0772202,-0.0583449,0.146828,0.146694,-0.2917,0.876727,-6.74834e-05,-8.0068e-05,0.580706,0.15815474328160373,1.4030217310176,-6.748112304655329e-05,0.1579995609434528,-8.006479464328642e-05,-0.2530073998579061
825,0.7962,473.467,473.616,-0.199156,474.007,-0.1691,-0.0394717,0.146968,0.146829,-0.291979,0.877566,-7.12293e-05,-8.0277e-05,0.581264,0.15831689629610923,1.4050387122552364,-7.122676325366228e-05,0.15815590143692604,-8.027377788788481e-05,-0.25321578172272385
826,0.7972,473.98,474.937,0.223351,473.955,0.0813123,-0.0587302,0.147106,0.146973,-0.292257,0.878397,-6.75869e-05,-8.02448e-05,0.581818,0.158476755057799,1.407038130068162,-6.758461605693711e-05,0.15832268789506965,-8.024158047215124e-05,-0.253423358880843
827,0.7982,473.631,473.766,-0.20593,474.179,-0.173216,-0.0391943,0.147247,0.147107,-0.292535,0.879235,-7.14557e-05,-8.04587e-05,0.582375,0.15864011179664161,1.409056073421333,-7.145314710232942e-05,0.1584779135351333,-8.045546328561137e-05,-0.2536308783405328
828,0.7992,474.157,475.126,0.229979,474.122,0.0852899,-0.0591068,0.147384,0.147251,-0.292813,0.880065,-6.76921e-05,-8.04216e-05,0.582929,0.15879885636571234,1.411056419991263,-6.768980894145127e-05,0.15864474636635784,-8.04183662698188e-05,-0.2538383401178309
829,0.8002,473.793,473.916,-0.212487,474.35,-0.177208,-0.0389246,0.147525,0.147385,-0.293091,0.880902,-7.16804e-05,-8.06402e-05,0.583485,0.15896225852404133,1.4130753190061682,-7.167783102146608e-05,0.15880001516514808,-8.0636948666446e-05,-0.254045744228771
830,0.8012,474.012,474.393,-0.0811181,474.391,-0.0971228,-0.0471942,0.147664,0.147525,-0.293368,0.881734,-7.07541e-05,-8.07291e-05,0.58404,0.15912336547465,1.4150838330975821,-7.075159698766154e-05,0.15896225852404133,-8.072584149387829e-05,-0.2542523449420998
831,0.8022,474.174,474.697,-0.00341101,474.452,-0.0533296,-0.0492024,0.147802,0.147665,-0.293645,0.882566,-7.02411e-05,-8.07805e-05,0.584594,0.15928333553676577,1.4170940189680827,-7.023863315169798e-05,0.15912452459859505,-8.07772373432325e-05,-0.25445888843495645
832,0.8032,474.251,474.761,-0.0107825,474.538,-0.0573677,-0.048812,0.147941,0.147804,-0.293923,0.883398,-7.04029e-05,-8.08723e-05,0.585148,0.159444487120181,1.4191058780091708,-7.04004217739751e-05,0.15928565410575546,-8.086902992365808e-05,-0.2546661200574414
833,0.8042,474.365,474.931,0.0194412,474.613,-0.0401933,-0.0497068,0.14808,0.147943,-0.2942,0.884229,-7.02356e-05,-8.09473e-05,0.585701,0.15960566110522323,1.4211169904953014,-7.023313353804461e-05,0.1594468060114742,-8.094402385572241e-05,-0.25487254895046385
834,0.8052,474.426,474.95,-0.0031603,474.704,-0.0534454,-0.0488013,0.148218,0.148081,-0.294477,0.88506,-7.0518e-05,-8.10452e-05,0.586255,0.15976569772872873,1.4231297749104983,-7.051551366432651e-05,0.15960682071146404,-8.104191592650523e-05,-0.2550789206706018
835,0.8062,474.536,475.107,0.0220747,474.78,-0.0386959,-0.0498737,0.148357,0.14822,-0.294753,0.88589,-7.03819e-05,-8.11262e-05,0.586808,0.15992691636514866,1.4251418075016917,-7.037942325216484e-05,0.15976801726244383,-8.112290935879951e-05,-0.25528449051855273
836,0.8072,474.595,475.12,-0.00253047,474.872,-0.0532589,-0.0488312,0.148495,0.148358,-0.29503,0.88672,-7.0682e-05,-8.12241e-05,0.587361,0.16008699732493925,1.4271555107731726,-7.067950208627938e-05,0.15992807629264494,-8.122080141215182e-05,-0.2554907481466787
837,0.8082,474.704,475.277,0.0225295,474.948,-0.0384568,-0.0499869,0.148634,0.148497,-0.295307,0.88755,-7.05447e-05,-8.13062e-05,0.587913,0.16024826062510722,1.4291708861121806,-7.054221178115494e-05,0.1600893175012541,-8.130289474050922e-05,-0.255696948649354
838,0.8092,474.762,475.287,-0.00270194,475.04,-0.053458,-0.0488831,0.148772,0.148635,-0.295583,0.888379,-7.08512e-05,-8.14041e-05,0.588466,0.1604083859334655,1.431185503720389,-7.084869011297901e-05,0.16024942087394778,-8.140078677620899e-05,-0.2559023479451201
839,0.8102,474.871,475.445,0.0227581,475.115,-0.0383647,-0.0500862,0.14891,0.148773,-0.295859,0.889207,-7.07095e-05,-8.14863e-05,0.589017,0.16056853334064125,1.4331993589384742,-7.070700014222275e-05,0.16040954634243176,-8.148298008159305e-05,-0.25610769055850313
840,0.8112,474.929,475.453,-0.00295775,475.207,-0.0536856,-0.0489453,0.149049,0.148911,-0.296135,0.890036,-7.10209e-05,-8.15843e-05,0.589569,0.16072986357896757,1.435217317535304,-7.101837807554912e-05,0.16056969390975495,-8.158097209154391e-05,-0.2563129765051452
841,0.8122,475.038,475.613,0.0229541,475.282,-0.0383003,-0.0501804,0.149187,0.14905,-0.296411,0.890863,-7.08748e-05,-8.16664e-05,0.59012,0.16089005535311962,1.4372320752443888,-7.087228844071536e-05,0.16073102430941133,-8.166306539036938e-05,-0.2565182058006842
842,0.8132,475.095,475.619,-0.00320957,475.373,-0.0539049,-0.0490118,0.149325,0.149187,-0.296687,0.891691,-7.11906e-05,-8.17646e-05,0.590671,0.161050269235262,1.4392509390969845,-7.118806600936445e-05,0.16089005535311962,-8.176125736614193e-05,-0.25672337846075366
843,0.8142,475.205,475.78,0.023131,475.448,-0.0382509,-0.0502724,0.149462,0.149326,-0.296962,0.892518,-7.10405e-05,-8.18466e-05,0.591222,0.16120934401852094,1.441269033990837,-7.103797668339684e-05,0.16105143028611169,-8.18432506584088e-05,-0.25692775142910584
844,0.8152,475.261,475.785,-0.00344319,475.54,-0.054112,-0.0490808,0.1496,0.149463,-0.297238,0.893344,-7.13602e-05,-8.1945e-05,0.591772,0.1613696019655395,1.4432863552518969,-7.135765392152216e-05,0.1612105052284456,-8.194164260022507e-05,-0.25713281107017927
845,0.8162,475.37,475.946,0.023287,475.614,-0.0382155,-0.0503632,0.149738,0.149601,-0.297513,0.89417,-7.12065e-05,-8.20269e-05,0.592322,0.16152988202968088,1.4453053435086924,-7.120396487736436e-05,0.1613707633357222,-8.202353588582234e-05,-0.25733707146004403
846,0.8172,475.426,475.95,-0.00365484,475.705,-0.0543059,-0.0491515,0.149876,0.149739,-0.297788,0.894996,-7.15297e-05,-8.21256e-05,0.592872,0.16169018421399728,1.447326000138732,-7.152714181202224e-05,0.16153104356014358,-8.212222778525291e-05,-0.2575412756860246
847,0.8182,475.536,476.112,0.0234204,475.779,-0.0381944,-0.0504532,0.150013,0.149877,-0.298063,0.89582,-7.13728e-05,-8.22074e-05,0.593422,0.161849346671614,1.4493434278289055,-7.137025302228484e-05,0.16169134590476242,-8.220402106429159e-05,-0.2577454237635637
848,0.8192,475.591,476.115,-0.00384286,475.871,-0.0544862,-0.0492239,0.150151,0.150014,-0.298338,0.896645,-7.16991e-05,-8.23062e-05,0.593971,0.16200969294509315,1.4513649699283215,-7.169652968097573e-05,0.1618505085215416,-8.230281293764019e-05,-0.2579495157081001
849,0.8202,475.701,476.278,0.0235298,475.944,-0.0381881,-0.0505424,0.150288,0.150152,-0.298612,0.897469,-7.15394e-05,-8.23879e-05,0.59452,0.1621688991784045,1.45338572710116,-7.153684111815828e-05,0.16201085495536716,-8.238450621012028e-05,-0.25815280968824894
850,0.8212,475.755,476.279,-0.00400619,476.036,-0.0546522,-0.0492979,0.150426,0.150289,-0.298887,0.898293,-7.18684e-05,-8.24869e-05,0.595068,0.1623292895531725,1.455408150064121,-7.186581752838261e-05,0.1621700613478847,-8.248349804917954e-05,-0.258356789617059
851,0.8222,475.866,476.443,0.0236144,476.109,-0.0381972,-0.0506309,0.150563,0.150426,-0.299161,0.899116,-7.17064e-05,-8.25685e-05,0.595616,0.1624885395742186,1.4574297827593687,-7.170382915755447e-05,0.1623292895531725,-8.256509131521206e-05,-0.2585599720194436
852,0.8232,475.92,476.444,-0.00414405,476.2,-0.0548036,-0.0493735,0.150701,0.150563,-0.299435,0.899939,-7.20377e-05,-8.26677e-05,0.596165,0.16264897406240486,1.4594530799431675,-7.203510534714574e-05,0.1624885395742186,-8.266428311987095e-05,-0.2587630987574763
853,0.8242,476.03,476.608,0.0236735,476.273,-0.038222,-0.0507186,0.150838,0.150701,-0.299709,0.900761,-7.18738e-05,-8.27492e-05,0.596712,0.162808267883229,1.4614755815091436,-7.187121714036238e-05,0.16264897406240486,-8.274577637934488e-05,-0.2589661698464071
854,0.8252,476.083,476.607,-0.00425586,476.364,-0.05494,-0.0494507,0.150975,0.150838,-0.299983,0.901583,-7.22068e-05,-8.28486e-05,0.59726,0.16296758352880159,1.4634997462548798,-7.22041931517925e-05,0.162808267883229,-8.284516814949239e-05,-0.2591691853014817
855,0.8262,476.194,476.772,0.0237066,476.437,-0.0382629,-0.0508056,0.151112,0.150975,-0.300257,0.902404,-7.20415e-05,-8.293e-05,0.597807,0.16312692100211268,1.4655231100237298,-7.203890507345712e-05,0.16296758352880159,-8.292656140262977e-05,-0.2593721451379417
856,0.8272,476.247,476.771,-0.00434122,476.528,-0.0550612,-0.0495297,0.151249,0.151112,-0.300531,0.903225,-7.23758e-05,-8.30296e-05,0.598353,0.16328628030615322,1.4675481356563354,-7.237318093500367e-05,0.16312692100211268,-8.302615313815487e-05,-0.2595750493710246
857,0.8282,476.357,476.935,0.0237134,476.6,-0.03832,-0.0508918,0.151386,0.151249,-0.300804,0.904046,-7.22095e-05,-8.3111e-05,0.5989,0.1634456614439137,1.4695748245176476,-7.220689295683869e-05,0.16328628030615322,-8.310754637652629e-05,-0.2597771577934913
858,0.8292,476.41,476.934,-0.00439986,476.691,-0.0551671,-0.0496103,0.151523,0.151385,-0.301077,0.904866,-7.25447e-05,-8.32107e-05,0.599446,0.16360506441838596,1.4716007063717953,-7.254206869689028e-05,0.1634444979988341,-8.320723808574737e-05,-0.25997921104788957
859,0.8302,476.52,477.098,0.0236937,476.763,-0.0383934,-0.0509772,0.151659,0.151522,-0.301351,0.905685,-7.2378e-05,-8.32921e-05,0.599992,0.16376332546865435,1.4736257765033378,-7.237538077575767e-05,0.1636039008139034,-8.328863130935282e-05,-0.2601819489676991
860,0.8312,476.572,477.097,-0.00443167,476.854,-0.0552574,-0.0496927,0.151796,0.151659,-0.301624,0.906505,-7.27135e-05,-8.33919e-05,0.600537,0.16392277196607918,1.4756549815004165,-7.271085643756336e-05,0.16376332546865435,-8.338842299215887e-05,-0.26038389172918974
861,0.8322,476.682,477.261,0.0236474,476.926,-0.0384834,-0.0510618,0.151932,0.151796,-0.301896,0.907323,-7.25468e-05,-8.34733e-05,0.601083,0.16408107622751245,1.4776808957612508,-7.25441685445194e-05,0.16392277196607918,-8.346981620099836e-05,-0.2605850399532408
862,0.8332,476.735,477.259,-0.0044367,477.016,-0.0553322,-0.0497768,0.152069,0.151932,-0.302169,0.908142,-7.28822e-05,-8.35732e-05,0.601628,0.16424056625977324,1.479710947607637,-7.287954415702291e-05,0.16408107622751245,-8.356970785738937e-05,-0.26078687268591205
863,0.8342,476.844,477.423,0.0235748,477.088,-0.0385897,-0.0511456,0.152205,0.152069,-0.302442,0.908959,-7.2716e-05,-8.36546e-05,0.602172,0.16439891374416948,1.481737699267149,-7.271335625580466e-05,0.16424056625977324,-8.36511010514629e-05,-0.2609886503257677
864,0.8352,476.897,477.422,-0.00441515,477.178,-0.0553917,-0.0498626,0.152342,0.152205,-0.302714,0.909777,-7.30509e-05,-8.37546e-05,0.602717,0.16455844732315317,1.4837685912267178,-7.304823184794973e-05,0.16439891374416948,-8.375109268143888e-05,-0.2611896340778497
865,0.8362,477.006,477.585,0.023476,477.25,-0.0387124,-0.0512287,0.152478,0.152341,-0.302986,0.910594,-7.28855e-05,-8.3836e-05,0.603261,0.16471683804231385,1.4857986593356522,-7.288284391648858e-05,0.16455728276528814,-8.383248586074643e-05,-0.26139056316978515
866,0.8372,477.058,477.583,-0.00436736,477.34,-0.055436,-0.0499501,0.152614,0.152477,-0.303258,0.91141,-7.32194e-05,-8.39361e-05,0.603805,0.16487525030407713,1.487827898858797,-7.321671952520425e-05,0.1647156733260582,-8.393257746408533e-05,-0.2615914376164399
867,0.8382,477.167,477.746,0.0233514,477.411,-0.0388511,-0.0513109,0.15275,0.152614,-0.30353,0.912226,-7.30555e-05,-8.40175e-05,0.604348,0.1650336841113733,1.489858794917167,-7.305283151193276e-05,0.16487525030407713,-8.401397062873794e-05,-0.2617922574326751
868,0.8392,477.219,477.745,-0.00429382,477.501,-0.0554653,-0.0500394,0.152886,0.152749,-0.303802,0.913042,-7.33878e-05,-8.41177e-05,0.604891,0.1651921394671323,1.4918913488630472,-7.338510718124525e-05,0.16503251907827177,-8.411416220543977e-05,-0.2619930226333482
869,0.8402,477.327,477.906,0.0232017,477.572,-0.0390055,-0.0513924,0.153022,0.152886,-0.304074,0.913857,-7.32258e-05,-8.41992e-05,0.605434,0.16535061637428528,1.4939230681255102,-7.322311905655354e-05,0.1651921394671323,-8.419565534689699e-05,-0.26219373323331296
870,0.8412,477.38,477.906,-0.00419516,477.661,-0.0554801,-0.0501304,0.153158,0.153021,-0.304345,0.914672,-7.35561e-05,-8.42994e-05,0.605977,0.16550911483576325,1.4959564439141149,-7.355339481640577e-05,0.1653494510242517,-8.429584690539116e-05,-0.2623936516414389
871,0.8422,477.488,478.066,0.0230275,477.733,-0.0391753,-0.0514732,0.153294,0.153157,-0.304617,0.915486,-7.33965e-05,-8.4381e-05,0.606519,0.16566763485449787,1.4979889795892514,-7.339380654280969e-05,0.16550794932723112,-8.437744002354197e-05,-0.2625942532851321
872,0.8432,477.54,478.067,-0.00407216,477.822,-0.0554807,-0.0502231,0.15343,0.153293,-0.304888,0.9163,-7.37244e-05,-8.44812e-05,0.607061,0.16582617643342124,1.5000231704219855,-7.372168242325561e-05,0.16566646918744588,-8.44776315639395e-05,-0.26279406316703
873,0.8442,477.647,478.226,0.0228296,477.893,-0.0393601,-0.0515534,0.153566,0.153429,-0.305159,0.917113,-7.35675e-05,-8.4563e-05,0.607603,0.16598473957546545,1.5020565157023968,-7.356479397779836e-05,0.16582501060782762,-8.455942465024346e-05,-0.2629938189077864
874,0.8452,477.7,478.227,-0.0039257,477.981,-0.0554678,-0.0503174,0.153701,0.153564,-0.30543,0.917926,-7.38926e-05,-8.46632e-05,0.608144,0.16614215814082223,1.5040915147646925,-7.388987000911396e-05,0.16598240760831806,-8.465961617243334e-05,-0.26319352052207134
875,0.8462,477.807,478.385,0.0226091,478.052,-0.0395591,-0.0516329,0.153837,0.1537,-0.305701,0.918738,-7.37389e-05,-8.47451e-05,0.608685,0.16630076425930085,1.5061256628270279,-7.373618135408933e-05,0.16614099199924715,-8.474150923543089e-05,-0.2633931680245515
876,0.8472,477.86,478.387,-0.00375678,478.141,-0.0554418,-0.0504134,0.153972,0.153835,-0.305971,0.919551,-7.40608e-05,-8.48453e-05,0.609226,0.16645822549086975,1.50816397145109,-7.405805756666162e-05,0.16629843166010505,-8.484170073930208e-05,-0.2635920250222821
877,0.8482,477.966,478.544,0.0223669,478.212,-0.0397719,-0.0517119,0.154108,0.153971,-0.306242,0.920362,-7.39107e-05,-8.49273e-05,0.609767,0.16661687459743124,1.5101989174910204,-7.390796867146054e-05,0.1664570590332275,-8.492369377899323e-05,-0.26379156454467456
878,0.8492,478.019,478.547,-0.00356654,478.3,-0.0554034,-0.0505109,0.154243,0.154106,-0.306512,0.921174,-7.42289e-05,-8.50274e-05,0.610307,0.16677437850677657,1.5122380267783546,-7.422614510332881e-05,0.1666145413660154,-8.502378527308618e-05,-0.26399031398986506
879,0.8502,478.124,478.702,0.0221043,478.371,-0.0399978,-0.0517903,0.154378,0.154241,-0.306782,0.921984,-7.40827e-05,-8.51096e-05,0.610847,0.16693190368058497,1.5142737639422923,-7.407995594455041e-05,0.16677204496035314,-8.510597828070843e-05,-0.26418900977994897
880,0.8512,478.178,478.706,-0.00335618,478.458,-0.0553534,-0.0506099,0.154513,0.154376,-0.307052,0.922795,-7.4397e-05,-8.52098e-05,0.611387,0.1670894501217275,1.5163136670337458,-7.439423261179634e-05,0.16692956981911156,-8.520616974805328e-05,-0.2643876519294115
881,0.8522,478.282,478.86,0.0218224,478.529,-0.040236,-0.0518683,0.154648,0.154512,-0.307322,0.923604,-7.42552e-05,-8.52921e-05,0.611926,0.16724701783307516,1.5183501884522177,-7.425244315084623e-05,0.16708828303286083,-8.52884627322581e-05,-0.2645862404527335
882,0.8532,478.336,478.866,-0.00312702,478.617,-0.0552925,-0.0507104,0.154784,0.154646,-0.307592,0.924414,-7.45651e-05,-8.53922e-05,0.612465,0.1674057742226902,1.5203908784727478,-7.45623200920642e-05,0.16724468334137388,-8.538855418982472e-05,-0.26478477536439204
883,0.8542,478.44,479.017,0.0215227,478.688,-0.0404857,-0.0519458,0.154918,0.154782,-0.307862,0.925223,-7.44279e-05,-8.54747e-05,0.613004,0.16756221707787322,1.5224306996898624,-7.442513031252762e-05,0.16740343941347646,-8.547104714196063e-05,-0.26498325667886047
884,0.8552,478.494,479.024,-0.00288042,478.775,-0.0552216,-0.0508124,0.155053,0.154916,-0.308131,0.926031,-7.47332e-05,-8.55747e-05,0.613543,0.16771984861706812,1.5244696473191248,-7.473040754402138e-05,0.1675598819557742,-8.557103858974902e-05,-0.26518094959192495
885,0.8562,478.597,479.174,0.0212066,478.845,-0.0407461,-0.0520231,0.155188,0.155051,-0.308401,0.926839,-7.4601e-05,-8.56575e-05,0.614081,0.16787750143795743,1.5265102430838278,-7.459821741462314e-05,0.1677175131797064,-8.565383150105355e-05,-0.26537932395379116
886,0.8572,478.652,479.183,-0.00261784,478.932,-0.0551415,-0.0509156,0.155323,0.155186,-0.30867,0.927647,-7.49012e-05,-8.57574e-05,0.614619,0.16803517554341418,1.5285524883162047,-7.489839497509809e-05,0.16787516568529037,-8.575372293928574e-05,-0.26557691033908726
887,0.8582,478.754,479.331,0.0208754,479.003,-0.0410164,-0.0521001,0.155458,0.155321,-0.308939,0.928454,-7.47744e-05,-8.58404e-05,0.615157,0.16819287093631208,1.5305938537544437,-7.477160446422992e-05,0.16803283947539915,-8.583671581829933e-05,-0.26577444358079394
888,0.8592,478.809,479.341,-0.00234077,479.089,-0.055053,-0.0510202,0.155592,0.155455,-0.309208,0.929261,-7.50694e-05,-8.59403e-05,0.615694,0.16834941926952163,1.5326368672394888,-7.50665823631147e-05,0.16818936636295634,-8.593660723821284e-05,-0.26597192369320477
889,0.8602,478.911,479.487,0.0205308,479.16,-0.0412956,-0.0521769,0.155727,0.15559,-0.309476,0.930067,-7.4948e-05,-8.60235e-05,0.616231,0.1685071570881862,1.5346789954215878,-7.49451914687782e-05,0.16834708257301978,-8.601980008482446e-05,-0.26616861685959337
890,0.8612,478.966,479.498,-0.00205073,479.246,-0.0549571,-0.0511261,0.155861,0.155724,-0.309745,0.930874,-7.52375e-05,-8.61232e-05,0.616768,0.16866374753856195,1.5367253069465385,-7.523466973025084e-05,0.16850365157197333,-8.611949150372222e-05,-0.2663659909536523
891,0.8622,479.067,479.643,0.0201743,479.316,-0.0415829,-0.0522537,0.155995,0.155859,-0.310013,0.931679,-7.5122e-05,-8.62067e-05,0.617304,0.16882035897346404,1.5387681929699348,-7.51191784131855e-05,0.1686614102134043,-8.62029843091694e-05,-0.26656257852416565
892,0.8632,479.123,479.656,-0.0017493,479.402,-0.0548548,-0.051233,0.15613,0.155993,-0.310282,0.932484,-7.54058e-05,-8.63063e-05,0.617841,0.16897816037328006,1.5408127241786782,-7.540295705410482e-05,0.1688180213350836,-8.630257571839994e-05,-0.2667598466567893
893,0.8642,479.222,479.798,0.0198075,479.473,-0.0418773,-0.0523304,0.156264,0.156127,-0.31055,0.933289,-7.52962e-05,-8.63901e-05,0.618376,0.169134813942325,1.5428589018976764,-7.529336531231223e-05,0.16897465344405949,-8.638636848279369e-05,-0.26695632868811703
894,0.8652,479.279,479.813,-0.00143805,479.558,-0.054747,-0.0513411,0.156398,0.156261,-0.310818,0.934093,-7.55741e-05,-8.64896e-05,0.618912,0.16929148850435438,1.5449041825474477,-7.557124434964813e-05,0.16913130654314412,-8.648585988235702e-05,-0.2671527580693158
895,0.8662,479.378,479.952,0.0194318,479.629,-0.0421778,-0.0524072,0.156532,0.156396,-0.311086,0.934897,-7.54706e-05,-8.65736e-05,0.619447,0.16944818406218198,1.5469511082640905,-7.546775216593637e-05,0.1692891499237159,-8.656985261401573e-05,-0.26734913481449407
896,0.8672,479.435,479.969,-0.00111855,479.713,-0.0546346,-0.0514502,0.156666,0.156529,-0.311354,0.9357,-7.57425e-05,-8.6673e-05,0.619983,0.1696049006186211,1.5489971313723632,-7.573963160922847e-05,0.16944467572289224,-8.666924400402287e-05,-0.26754545893775616
897,0.8682,479.533,480.107,0.019049,479.784,-0.0424835,-0.0524841,0.1568,0.156664,-0.311621,0.936503,-7.56454e-05,-8.67573e-05,0.620517,0.1697616381764857,1.5510447980970157,-7.564253895886441e-05,0.16960256141115893,-8.675353669429509e-05,-0.2677409981945673
898,0.8692,479.59,480.126,-0.000792372,479.868,-0.0545186,-0.0515603,0.156934,0.156797,-0.311889,0.937306,-7.5911e-05,-8.68565e-05,0.621052,0.16991839673859044,1.5530941097584017,-7.59081188329569e-05,0.16975812889683506,-8.68527280833975e-05,-0.26793721731251496
899,0.8702,479.687,480.261,0.0186605,479.939,-0.0427936,-0.0525612,0.157068,0.156931,-0.312156,0.938108,-7.58203e-05,-8.69411e-05,0.621586,0.17007517630774993,1.5551425125341463,-7.581742571372008e-05,0.16991488698866486,-8.693732073206117e-05,-0.26813265198380287
900,0.8712,479.745,480.282,-0.000461057,480.023,-0.0543999,-0.0516712,0.157202,0.157065,-0.312423,0.938909,-7.60797e-05,-8.70402e-05,0.62212,0.1702319768867795,1.5571900015965827,-7.60768060130701e-05,0.17007166608748636,-8.703641211171842e-05,-0.26832803448099907
901,0.8722,479.841,480.414,0.0182679,480.094,-0.043107,-0.0526387,0.157335,0.157199,-0.31269,0.93971,-7.59955e-05,-8.71251e-05,0.622654,0.17038762809028096,1.5592391313547695,-7.599261241508781e-05,0.17022846619611487,-8.712130471866253e-05,-0.2685233648180323
902,0.8732,479.9,480.437,-0.000126123,480.177,-0.0542794,-0.051783,0.157469,0.157332,-0.312957,0.940511,-7.62484e-05,-8.7224e-05,0.623187,0.17054447054065447,1.5612899031234297,-7.624549316465057e-05,0.17038411693266342,-8.722019609752607e-05,-0.2687186430088273
903,0.8742,479.995,480.568,0.0178727,480.248,-0.0434229,-0.0527165,0.157602,0.157466,-0.313224,0.941312,-7.61709e-05,-8.73092e-05,0.62372,0.17070016330857607,1.5633423182183415,-7.616799907061989e-05,0.17054095891251042,-8.730538866275062e-05,-0.2689138690673053
904,0.8752,480.054,480.592,0.000210958,480.331,-0.054158,-0.0518955,0.157736,0.157599,-0.31349,0.942112,-7.64174e-05,-8.7408e-05,0.624253,0.1708570476414748,1.5653938125612399,-7.641448026485254e-05,0.1706966512133543,-8.740418003205797e-05,-0.26910831211606145
905,0.8762,480.148,480.72,0.0174763,480.402,-0.0437404,-0.0527948,0.157869,0.157733,-0.313757,0.942911,-7.63465e-05,-8.74935e-05,0.624785,0.17101278198491543,1.5674443813106018,-7.634358568009425e-05,0.17085353507560086,-8.74896725553409e-05,-0.26930343414677615
906,0.8772,480.208,480.747,0.00054876,480.485,-0.0540367,-0.0520087,0.158003,0.157866,-0.314023,0.94371,-7.65865e-05,-8.75922e-05,0.625318,0.17116970821152377,1.5694965891191108,-7.65835673288695e-05,0.171009268951839,-8.758836391520308e-05,-0.26949777358500193
907,0.8782,480.301,480.873,0.0170802,480.556,-0.0440587,-0.0528736,0.158136,0.157999,-0.314289,0.944509,-7.65222e-05,-8.7678e-05,0.625849,0.17132548414158566,1.571550437296899,-7.651927225116317e-05,0.1711650235420603,-8.767415639654441e-05,-0.2696920613358119
908,0.8792,480.362,480.901,0.00088592,480.638,-0.0539161,-0.0521225,0.158269,0.158132,-0.314555,0.945307,-7.67558e-05,-8.77765e-05,0.626381,0.17148128079122404,1.5736033535505047,-7.675285434893819e-05,0.17132079884901974,-8.777264775572391e-05,-0.269886297412953
909,0.8802,480.454,481.025,0.0166856,480.709,-0.0443769,-0.052953,0.158402,0.158265,-0.314821,0.946105,-7.66982e-05,-8.78627e-05,0.626913,0.17163709816319495,1.5756579086851077,-7.669525876830008e-05,0.17147659487547262,-8.785884018602808e-05,-0.27008048183016875
910,0.8812,480.515,481.055,0.00122114,480.791,-0.0537972,-0.0522369,0.158535,0.158398,-0.315087,0.946902,-7.69254e-05,-8.7961e-05,0.627444,0.17179293626025438,1.5777115262962416,-7.692244131729531e-05,0.1716324116241752,-8.795713154463591e-05,-0.2702746146011987
911,0.8822,480.606,481.177,0.0162938,480.862,-0.0446944,-0.0530331,0.158668,0.158531,-0.315353,0.947699,-7.68743e-05,-8.80475e-05,0.627974,0.17194879508515903,1.5797667812930225,-7.687134524669847e-05,0.17178824909788348,-8.80436239326654e-05,-0.27046869573977894
912,0.8832,480.668,481.209,0.00155319,480.943,-0.0536806,-0.0523518,0.158801,0.158664,-0.315618,0.948496,-7.70951e-05,-8.81457e-05,0.628505,0.17210467464066603,1.5818236749809684,-7.709212824913436e-05,0.17194410729935417,-8.81418152819391e-05,-0.2706619959220026
913,0.8842,480.758,481.328,0.015906,481.014,-0.0450103,-0.0531139,0.158934,0.158797,-0.315883,0.949292,-7.70506e-05,-8.82325e-05,0.629035,0.1722605749295325,1.5838796247857183,-7.70476316787061e-05,0.17209998623134415,-8.822860762747187e-05,-0.2708552448864646
914,0.8852,480.82,481.362,0.00188092,481.095,-0.0535671,-0.0524672,0.159066,0.15893,-0.316149,0.950088,-7.72651e-05,-8.83305e-05,0.629565,0.17241532353860678,1.5859372117780275,-7.72621151290398e-05,0.172255885896611,-8.832659897628492e-05,-0.27104917159792874
915,0.8862,480.91,481.479,0.0155233,481.167,-0.045324,-0.0531955,0.159199,0.159062,-0.316414,0.950883,-7.72271e-05,-8.84176e-05,0.630095,0.17257126514652454,1.5879938492664722,-7.722411806432294e-05,0.17241063388669198,-8.841369127920995e-05,-0.27124231797443
916,0.8872,480.972,481.515,0.00220326,481.247,-0.0534574,-0.052583,0.159332,0.159195,-0.316678,0.951678,-7.74353e-05,-8.85155e-05,0.630624,0.1727272274960554,1.5900521224318158,-7.743230196455286e-05,0.17256657487084448,-8.851158261868886e-05,-0.2714346846089718
917,0.8882,481.061,481.629,0.0151468,481.318,-0.0456349,-0.053278,0.159464,0.159328,-0.316943,0.952472,-7.74037e-05,-8.8603e-05,0.631153,0.1728820377073339,1.5921094404642013,-7.740070441086822e-05,0.17272253659652725,-8.859907487013263e-05,-0.2716277288380603
918,0.8892,481.124,481.668,0.00251923,481.398,-0.053352,-0.0526991,0.159597,0.15946,-0.317208,0.953266,-7.76057e-05,-8.87007e-05,0.631682,0.17303804139236423,1.5941683926557801,-7.760268875556253e-05,0.1728773461885662,-8.869676620926192e-05,-0.27182072191720585
919,0.8902,481.212,481.78,0.0147774,481.47,-0.0459425,-0.0533613,0.159729,0.159592,-0.317472,0.95406,-7.75804e-05,-8.87885e-05,0.632211,0.17319289263378512,1.59622898030459,-7.757739071856395e-05,0.1730321762168201,-8.878455841776489e-05,-0.27201293587326114
920,0.8912,481.275,481.82,0.00282794,481.549,-0.0532515,-0.0528155,0.159861,0.159725,-0.317737,0.954853,-7.77765e-05,-8.88861e-05,0.632739,0.17334776431691878,1.5982886064197928,-7.777347548643121e-05,0.17318819987160006,-8.888214974767106e-05,-0.27220582688606665
921,0.8922,481.362,481.93,0.0144159,481.621,-0.0462461,-0.0534457,0.159994,0.159857,-0.318001,0.955646,-7.77573e-05,-8.89742e-05,0.633267,0.1735038299477074,1.6003498664662739,-7.775427697953585e-05,0.17334307093524837,-8.897024191323322e-05,-0.2723979391878292
922,0.8932,481.426,481.971,0.00312858,481.7,-0.0531563,-0.0529323,0.160126,0.159989,-0.318265,0.956438,-7.79475e-05,-8.90716e-05,0.633795,0.17365874267727577,1.6024101593287932,-7.794446217257445e-05,0.17349796244322646,-8.906763324278977e-05,-0.27259000077863815
923,0.8942,481.513,482.079,0.014063,481.771,-0.0465454,-0.053531,0.160258,0.160121,-0.318529,0.95723,-7.79343e-05,-8.91601e-05,0.634322,0.17381367585667395,1.604472084589604,-7.793126320132515e-05,0.17365287439823307,-8.915612535642659e-05,-0.27278201167187943
924,0.8952,481.577,482.123,0.00342043,481.85,-0.0530671,-0.0530493,0.16039,0.160253,-0.318793,0.958021,-7.81188e-05,-8.92574e-05,0.63485,0.1739686294886018,1.6065330370077375,-7.811574880600691e-05,0.17380780680296737,-8.925341667676001e-05,-0.27297397188093553
925,0.8962,481.662,482.229,0.0137195,481.922,-0.0468399,-0.0536174,0.160522,0.160385,-0.319056,0.958812,-7.81115e-05,-8.93461e-05,0.635376,0.17412360357575896,1.6085956202841531,-7.810844937616856e-05,0.17396275966012897,-8.934210875610749e-05,-0.27316515458470336
926,0.8972,481.727,482.274,0.00370288,482.0,-0.052984,-0.0531665,0.160654,0.160517,-0.31932,0.959603,-7.82904e-05,-8.94433e-05,0.635903,0.1742785981208459,1.6106598357093702,-7.828733538661758e-05,0.17411773297241773,-8.943930006732881e-05,-0.2733570136573811
927,0.8982,481.812,482.377,0.013386,482.072,-0.0471293,-0.0537049,0.160786,0.160649,-0.319583,0.960393,-7.82888e-05,-8.95324e-05,0.636429,0.17443361312656314,1.6127230718505512,-7.828573551182938e-05,0.1742727267425339,-8.952839209430685e-05,-0.27354809563440774
928,0.8992,481.877,482.424,0.00397538,482.15,-0.0529076,-0.0532839,0.160917,0.160781,-0.319846,0.961183,-7.84623e-05,-8.96294e-05,0.636955,0.17458747400755037,1.6147879385922854,-7.845922191429544e-05,0.17442774097317804,-8.962538340528958e-05,-0.2737391273634824
929,0.9002,481.961,482.526,0.0130629,482.221,-0.0474132,-0.0537935,0.161049,0.160912,-0.32011,0.961973,-7.84662e-05,-8.97188e-05,0.637481,0.17474252978757576,1.6168544372232576,-7.846312160819657e-05,0.17458160108486265,-8.97147753887717e-05,-0.2739308349273466
930,0.9012,482.026,482.574,0.00423748,482.299,-0.052838,-0.0534015,0.161181,0.161044,-0.320372,0.962762,-7.86345e-05,-8.98157e-05,0.638007,0.174897606036315,1.6189199501119091,-7.863140838870741e-05,0.1747366560896111,-8.981166669075336e-05,-0.274121040130626
931,0.9022,482.11,482.674,0.0127506,482.37,-0.0476914,-0.0538832,0.161312,0.161176,-0.320635,0.96355,-7.86437e-05,-8.99055e-05,0.638532,0.17505152770435495,1.6209844723475286,-7.864060766527015e-05,0.174891731562971,-8.9901458621644e-05,-0.2743119211951114
932,0.9032,482.176,482.724,0.00448883,482.448,-0.0527756,-0.0535192,0.161444,0.161307,-0.320898,0.964338,-7.8807e-05,-9.00022e-05,0.639057,0.17520664474351122,1.6230506220678147,-7.880389480996453e-05,0.17504565246140458,-8.999814992349808e-05,-0.27450275206447783
933,0.9042,482.258,482.822,0.0124494,482.519,-0.0479638,-0.0539741,0.161575,0.161439,-0.321161,0.965126,-7.88213e-05,-9.00923e-05,0.639582,0.1753606068982736,1.6251184005557309,-7.881819368293908e-05,0.17520076872497747,-9.008824181055974e-05,-0.27469353275192476
934,0.9052,482.324,482.874,0.00472914,482.596,-0.0527204,-0.0536371,0.161706,0.16157,-0.321423,0.965914,-7.89798e-05,-9.0189e-05,0.640106,0.17551458922339935,1.627187809095251,-7.897668117773371e-05,0.17535473010993097,-9.018493309442821e-05,-0.27488353815454913
935,0.9062,482.406,482.97,0.0121596,482.668,-0.0482301,-0.0540662,0.161838,0.161701,-0.321685,0.9667,-7.89991e-05,-9.02793e-05,0.64063,0.1756697673907106,1.629253590458923,-7.899597965321803e-05,0.17550871166514725,-9.027522494664542e-05,-0.27507349378227874
936,0.9072,482.473,483.023,0.00495821,482.744,-0.0526727,-0.0537552,0.161969,0.161832,-0.321947,0.967487,-7.9153e-05,-9.03759e-05,0.641154,0.1758237902185138,1.6313236274873417,-7.914986748391861e-05,0.17566271339326822,-9.037181622140178e-05,-0.27526339964815305
937,0.9082,482.554,483.117,0.0118814,482.816,-0.0484902,-0.0541595,0.1621,0.161963,-0.322209,0.968273,-7.9177e-05,-9.04665e-05,0.641678,0.1759778332246289,1.633392660882151,-7.917386558409234e-05,0.1758167352969371,-9.046240802956795e-05,-0.27545325576520785
938,0.9092,482.621,483.171,0.00517591,482.892,-0.0526325,-0.0538733,0.162231,0.162094,-0.322471,0.969059,-7.93265e-05,-9.0563e-05,0.642201,0.1761318964116998,1.6354633211764962,-7.932335373639354e-05,0.17597077737879707,-9.055889929532324e-05,-0.2756430621464757
939,0.9102,482.701,483.264,0.0116149,482.964,-0.0487442,-0.0542541,0.162362,0.162226,-0.322733,0.969844,-7.9355e-05,-9.0654e-05,0.642724,0.17628597978237015,1.6375329721153324,-7.935185147522894e-05,0.17612601576691933,-9.064989105034282e-05,-0.27583281880498556
940,0.9112,482.769,483.319,0.00538218,483.039,-0.0525999,-0.0539916,0.162493,0.162356,-0.322994,0.970629,-7.95003e-05,-9.07504e-05,0.643247,0.1764400833392843,1.6396042483680078,-7.949713993493646e-05,0.1762789220876646,-9.0746282306986e-05,-0.27602180177592694
941,0.9122,482.848,483.411,0.0113599,483.111,-0.0489919,-0.0543498,0.162624,0.162487,-0.323256,0.971413,-7.95332e-05,-9.08416e-05,0.643769,0.17659420708508655,1.641674509535064,-7.953003731886454e-05,0.17643302471996014,-9.083747402682807e-05,-0.2762114592176519
942,0.9132,482.916,483.467,0.00557703,483.187,-0.0525749,-0.0541101,0.162755,0.162618,-0.323517,0.972197,-7.96745e-05,-9.09379e-05,0.644292,0.17674835102242215,1.643746394423291,-7.967132607133998e-05,0.17658714754102278,-9.093376527447017e-05,-0.2764003433763411
943,0.9142,482.995,483.557,0.0111167,483.258,-0.0492334,-0.0544468,0.162885,0.162749,-0.323778,0.972981,-7.97114e-05,-9.10294e-05,0.644813,0.1769013382520097,1.645819904306185,-7.970822313074777e-05,0.17674129055349752,-9.102525694992813e-05,-0.2765891782426979
944,0.9152,483.063,483.615,0.00576053,483.333,-0.0525575,-0.0542287,0.163016,0.162879,-0.324039,0.973764,-7.9849e-05,-9.11257e-05,0.645335,0.17705552242616363,1.647892392564525,-7.984581215347841e-05,0.17689427686516423,-9.11215481794736e-05,-0.27677796382958575
945,0.9162,483.141,483.703,0.0108849,483.405,-0.0494688,-0.0545451,0.163147,0.16301,-0.3243,0.974547,-7.98899e-05,-9.12175e-05,0.645857,0.1772097267997672,1.6499665042166471,-7.988670888692262e-05,0.17704846011421593,-9.121333981032542e-05,-0.276966700149865
946,0.9172,483.21,483.762,0.0059328,483.48,-0.0525475,-0.0543475,0.163277,0.163141,-0.324561,0.97533,-8.00238e-05,-9.13137e-05,0.646378,0.17736277401210465,1.6520422405341662,-8.002059818112972e-05,0.17720266356259629,-9.130953103098083e-05,-0.27715538721639255
947,0.9182,483.288,483.849,0.0106645,483.551,-0.0496981,-0.0546445,0.163408,0.163271,-0.324822,0.976111,-8.00684e-05,-9.14057e-05,0.646899,0.1775170186383026,1.654114294555796,-8.006519461123407e-05,0.17735570985665294,-9.140152262632206e-05,-0.27734402504202205
948,0.9192,483.356,483.908,0.00609401,483.626,-0.052545,-0.0544664,0.163538,0.163401,-0.325082,0.976893,-8.0199e-05,-9.15019e-05,0.647419,0.1776701058011756,1.6561906236730133,-8.019578414619755e-05,0.17750877604802118,-9.149771382888083e-05,-0.27753189117185584
949,0.9202,483.433,483.994,0.0104553,483.697,-0.0499214,-0.0547453,0.163668,0.163532,-0.325343,0.977674,-8.02471e-05,-9.15942e-05,0.64794,0.17782321286667324,1.65826591884738,-8.024388028760043e-05,0.1776630398017387,-9.159000537928286e-05,-0.27772043074277575
950,0.9212,483.502,484.055,0.00624439,483.772,-0.0525499,-0.0545855,0.163798,0.163662,-0.325603,0.978455,-8.03745e-05,-9.16904e-05,0.64846,0.17797633983738348,1.660342835460367,-8.037127005644518e-05,0.17781614594859696,-9.168619656374499e-05,-0.27790819901984887
951,0.9222,483.579,484.139,0.0102571,483.843,-0.050139,-0.0548472,0.163929,0.163792,-0.325863,0.979235,-8.04259e-05,-9.17829e-05,0.648979,0.1781306648459695,1.6624187123587695,-8.042266592400704e-05,0.1779692720005479,-9.17786880785254e-05,-0.2780959184835159
952,0.9232,483.647,484.201,0.00638419,483.917,-0.0525618,-0.0547049,0.164059,0.163922,-0.326123,0.980015,-8.05504e-05,-9.1879e-05,0.649499,0.17828383178803509,1.6644962090727988,-8.054715590366524e-05,0.1781224179601797,-9.187477925398646e-05,-0.2782835891464668
953,0.9242,483.724,484.284,0.0100694,483.988,-0.0503509,-0.0549504,0.164189,0.164052,-0.326383,0.980795,-8.06049e-05,-9.19719e-05,0.650018,0.17843701864309724,1.6665753268664036,-8.060165151235754e-05,0.17827558383008046,-9.196767071451006e-05,-0.27847121102138805
954,0.9252,483.793,484.346,0.00651371,484.062,-0.0525808,-0.0548244,0.164319,0.164182,-0.326642,0.981574,-8.07266e-05,-9.2068e-05,0.650537,0.17859022541374525,1.6686533983497873,-8.072334169573203e-05,0.17842876961283838,-9.206376187176346e-05,-0.2786580627793863
955,0.9262,483.869,484.429,0.00989219,484.133,-0.0505573,-0.0550549,0.164449,0.164312,-0.326902,0.982353,-8.07841e-05,-9.2161e-05,0.651056,0.17874345210256792,1.6707330892815495,-8.078083705242989e-05,0.1785819753110427,-9.215675330553896e-05,-0.27884558730381914
956,0.9272,483.938,484.491,0.00663328,484.207,-0.0526066,-0.0549442,0.164579,0.164442,-0.327161,0.983131,-8.09032e-05,-9.22571e-05,0.651574,0.1788966987121552,1.672811728110668,-8.089992742432717e-05,0.17873520092728246,-9.22528444445847e-05,-0.2790323421109159
957,0.9282,484.013,484.573,0.00972493,484.278,-0.0507585,-0.0551605,0.164708,0.164572,-0.32742,0.983909,-8.09634e-05,-9.23504e-05,0.652092,0.17904878619572084,1.674891984750042,-8.096012255243146e-05,0.17888844646414692,-9.234613583308793e-05,-0.27921904855478097
958,0.9292,484.082,484.636,0.00674324,484.351,-0.052639,-0.0550642,0.164838,0.164702,-0.32768,0.984687,-8.10801e-05,-9.24465e-05,0.65261,0.17920207250132014,1.6769738604588178,-8.1076813097547e-05,0.17904171192422647,-9.244222695403703e-05,-0.2794064272418719
959,0.9302,484.157,484.717,0.00956732,484.422,-0.0509547,-0.0552674,0.164968,0.164831,-0.327939,0.985464,-8.11429e-05,-9.254e-05,0.653128,0.17935537873543472,1.6790546774411044,-8.113960800393283e-05,0.17919381811570312,-9.253571830625251e-05,-0.27959303681023395
960,0.9312,484.226,484.781,0.00684395,484.495,-0.0526778,-0.0551845,0.165097,0.164961,-0.328197,0.986241,-8.12573e-05,-9.26361e-05,0.653645,0.17950752539254,1.681137111846474,-8.125399871505845e-05,0.17934712327667768,-9.263180940899396e-05,-0.2797788778322142
961,0.9322,484.301,484.86,0.00941898,484.566,-0.0511461,-0.0553754,0.165227,0.16509,-0.328456,0.987017,-8.13226e-05,-9.27298e-05,0.654162,0.17966087133811137,1.6832184817123288,-8.131929340704502e-05,0.17949926886876,-9.272550072503272e-05,-0.2799653909483646
962,0.9332,484.37,484.925,0.00693582,484.639,-0.0527227,-0.0553051,0.165356,0.16522,-0.328715,0.987793,-8.14349e-05,-9.2826e-05,0.654679,0.17981305740630438,1.685301467348037,-8.143158426854313e-05,0.1796526137409138,-9.282169180013788e-05,-0.2801518557638729
963,0.9342,484.444,485.004,0.0092795,484.71,-0.0513329,-0.0554847,0.165486,0.165349,-0.328973,0.988568,-8.15024e-05,-9.29199e-05,0.655196,0.17996644307361964,1.6873833826231968,-8.149907876964235e-05,0.17980479874380784,-9.291558307977787e-05,-0.28033755262916016
964,0.9352,484.514,485.069,0.00701924,484.783,-0.0527737,-0.0554261,0.165615,0.165478,-0.329232,0.989344,-8.16128e-05,-9.30161e-05,0.655712,0.1801186685631091,1.689469601476338,-8.160946976598638e-05,0.1799570033798339,-9.301177413667538e-05,-0.28052392106727475
965,0.9362,484.588,485.147,0.0091485,484.853,-0.0515154,-0.0555951,0.165744,0.165608,-0.32949,0.990118,-8.16825e-05,-9.31102e-05,0.656228,0.18027091369095327,1.691552056754111,-8.167916407542108e-05,0.18011040776134202,-9.310586537991661e-05,-0.28070952195209564
966,0.9372,484.657,485.212,0.00709461,484.926,-0.0528303,-0.0555474,0.165873,0.165737,-0.329748,0.990893,-8.17911e-05,-9.32064e-05,0.656744,0.18042317845968592,1.6936388181136754,-8.17877551991808e-05,0.180262651823474,-9.320205641849544e-05,-0.280895074958065
967,0.9382,484.73,485.289,0.00902555,484.996,-0.0516938,-0.0557067,0.166002,0.165866,-0.330006,0.991667,-8.18627e-05,-9.33008e-05,0.657259,0.18057546287184056,1.6957245016142863,-8.185934934057393e-05,0.18041491552635702,-9.329644761568723e-05,-0.2810805800975338
968,0.9392,484.8,485.355,0.00716234,485.068,-0.0528924,-0.0556691,0.166131,0.165995,-0.330264,0.99244,-8.19697e-05,-9.3397e-05,0.657775,0.18072776692995163,1.6978091022483786,-8.19663405758897e-05,0.1805671988725246,-9.339263863594738e-05,-0.28126603738285016
969,0.9402,484.873,485.432,0.00891025,485.139,-0.0518684,-0.0558194,0.16626,0.166124,-0.330521,0.993213,-8.20432e-05,-9.34916e-05,0.65829,0.1808800906365533,1.6998953149017262,-8.203983454868613e-05,0.1807195018645109,-9.348722979651836e-05,-0.2814507282774462
970,0.9412,484.942,485.498,0.00722285,485.211,-0.0529598,-0.0557912,0.166389,0.166253,-0.330779,0.993986,-8.21487e-05,-9.35879e-05,0.658804,0.1810324339941809,1.7019831408209019,-8.214532588790568e-05,0.1808718245048504,-9.358352078914223e-05,-0.2816360900768503
971,0.9422,485.015,485.574,0.00880218,485.281,-0.0520395,-0.0559332,0.166518,0.166382,-0.331036,0.994758,-8.22238e-05,-9.36827e-05,0.659319,0.18118479700536905,1.7040698771822123,-8.22204197159504e-05,0.18102416679607813,-9.367831191287035e-05,-0.28182068588012377
972,0.9432,485.085,485.64,0.00727654,485.353,-0.0530321,-0.0559138,0.166647,0.16651,-0.331293,0.99553,-8.2328e-05,-9.3779e-05,0.659833,0.1813371796726535,1.7061582251259848,-8.23246111432141e-05,0.1811753475647908,-9.377460288706452e-05,-0.28200523424837154
973,0.9442,485.157,485.715,0.00870094,485.423,-0.0522073,-0.0560482,0.166776,0.166639,-0.331551,0.996302,-8.24047e-05,-9.3874e-05,0.660347,0.1814895819985698,1.7082481858968412,-8.240130482595198e-05,0.18132772901301886,-9.386959397394978e-05,-0.2821904530036886
974,0.9452,485.227,485.782,0.00732382,485.495,-0.0531092,-0.0560367,0.166904,0.166768,-0.331808,0.997073,-8.25076e-05,-9.39704e-05,0.66086,0.1816408223442414,1.7103370504019586,-8.25041963415929e-05,0.18148013011972153,-9.396598492028563e-05,-0.28237490635399587
975,0.9462,485.299,485.857,0.00860611,485.565,-0.052372,-0.0561643,0.167033,0.166896,-0.332065,0.997844,-8.25858e-05,-9.40656e-05,0.661374,0.18179326384258898,1.7124275260426227,-8.258238988667621e-05,0.18163136925547496,-9.406117597021701e-05,-0.28255931230588316
976,0.9472,485.368,485.924,0.0073651,485.636,-0.0531908,-0.0561602,0.167161,0.167025,-0.332321,0.998614,-8.26876e-05,-9.4162e-05,0.661887,0.18194454306202434,1.714516899543241,-8.268418147461265e-05,0.18178380953429563,-9.415756689801213e-05,-0.28274295361484236
977,0.9482,485.44,485.998,0.0085173,485.707,-0.0525339,-0.0562815,0.16729,0.167153,-0.332578,0.999384,-8.27671e-05,-9.42574e-05,0.6624,0.18209702374287184,1.716607882481008,-8.276367489812309e-05,0.18193508754350196,-9.425295791087862e-05,-0.28292726499073706
978,0.9492,485.509,486.065,0.00740075,485.777,-0.0532767,-0.0562842,0.167418,0.167282,-0.332834,1.00015,-8.28679e-05,-9.4354e-05,0.662912,0.18224834184606298,1.7186896013155142,-8.286446655036972e-05,0.1820875670045088,-9.43495488013868e-05,-0.283110812115865
979,0.9502,485.581,486.139,0.00843414,485.848,-0.0526932,-0.0563997,0.167546,0.16741,-0.333091,1.00092,-8.29486e-05,-9.44495e-05,0.663425,0.18239967931921086,1.7207837984709609,-8.294515985995954e-05,0.18223888389716003,-9.444503978639496e-05,-0.2832950289642723
980,0.9512,485.65,486.206,0.00743117,485.918,-0.0533667,-0.0564087,0.167675,0.167538,-0.333347,1.00169,-8.30485e-05,-9.45461e-05,0.663937,0.18255221871642258,1.7228796087792015,-8.304505156875308e-05,0.18239022015961304,-9.454163065836241e-05,-0.2834784819538728
981,0.9522,485.721,486.279,0.00835623,485.988,-0.0528502,-0.0565191,0.167803,0.167667,-0.333603,1.00246,-8.31304e-05,-9.46419e-05,0.664449,0.18270359508829936,1.7249770334828418,-8.312694476408922e-05,0.18254275833651445,-9.4637421596655e-05,-0.28366188798551895
982,0.9532,485.791,486.347,0.00745671,486.059,-0.0534605,-0.0565338,0.167931,0.167795,-0.333859,1.00323,-8.32295e-05,-9.47386e-05,0.66496,0.18285499083759205,1.727076073825446,-8.322603652122229e-05,0.18269413349738506,-9.473411244054208e-05,-0.28384524707123027
983,0.9542,485.862,486.419,0.00828322,486.129,-0.053005,-0.0566394,0.168059,0.167923,-0.334115,1.004,-8.33125e-05,-9.48345e-05,0.665471,0.18300640596678064,1.7291767310515334,-8.330902961006803e-05,0.18284552803551657,-9.483000335097636e-05,-0.2840285592230235
984,0.9552,485.931,486.487,0.00747774,486.199,-0.053558,-0.0566595,0.168187,0.168051,-0.33437,1.00476,-8.34108e-05,-9.49313e-05,0.665982,0.1831578404783465,1.7312516937530846,-8.340732141598473e-05,0.182996941953389,-9.492679416667205e-05,-0.2842111086643787
985,0.9562,486.002,486.559,0.00821477,486.269,-0.053158,-0.0567609,0.168315,0.168179,-0.334626,1.00553,-8.34948e-05,-9.50274e-05,0.666493,0.18330929437477028,1.7333555674446965,-8.349131440621438e-05,0.1831483752534835,-9.502288503959733e-05,-0.2843943271675915
986,0.9572,486.071,486.627,0.00749458,486.339,-0.0536589,-0.0567858,0.168443,0.168306,-0.334881,1.0063,-8.35925e-05,-9.51243e-05,0.667004,0.18346076765853359,1.735461061742905,-8.35890062442779e-05,0.18329864463904477,-9.511977582721265e-05,-0.2845767833500119
987,0.9582,486.142,486.699,0.00815053,486.409,-0.0533093,-0.0568834,0.16857,0.168434,-0.335137,1.00706,-8.36774e-05,-9.52206e-05,0.667514,0.18361107672044952,1.7375408023511558,-8.367389914398782e-05,0.1834501165595548,-9.521606666251792e-05,-0.28475990825248665
988,0.9592,486.211,486.767,0.00750758,486.478,-0.0537631,-0.0569127,0.168698,0.168562,-0.335392,1.00783,-8.37745e-05,-9.53176e-05,0.668024,0.18376258863482553,1.7396495205212736,-8.377099101453123e-05,0.18360160786971136,-9.531305742194185e-05,-0.28494227122361526
989,0.9602,486.281,486.838,0.0080902,486.548,-0.0534591,-0.0570069,0.168826,0.16869,-0.335647,1.00859,-8.38602e-05,-9.54141e-05,0.668534,0.18391411994396756,1.7417324455681293,-8.385668383170675e-05,0.18375311857199672,-9.540954821951608e-05,-0.2851245876981148
990,0.9612,486.35,486.906,0.00751702,486.618,-0.0538703,-0.0570403,0.168953,0.168817,-0.335902,1.00936,-8.39568e-05,-9.55112e-05,0.669043,0.18406448658528007,1.7438443925464555,-8.395327572652267e-05,0.18390346476483654,-9.550663895052658e-05,-0.2853068576878405
991,0.9622,486.42,486.977,0.00803346,486.687,-0.0536076,-0.0571314,0.169081,0.168945,-0.336157,1.01012,-8.40433e-05,-9.56079e-05,0.669552,0.1842160565398332,1.7459305069078361,-8.403976846083072e-05,0.18405501410727743,-9.560332971036978e-05,-0.2854890812046442
992,0.9632,486.489,487.045,0.00752322,486.757,-0.0539805,-0.0571685,0.169208,0.169072,-0.336411,1.01089,-8.41395e-05,-9.57051e-05,0.670061,0.1843664615295284,1.7480456876382293,-8.413596037148974e-05,0.184205398643285,-9.570052041296684e-05,-0.28567054393127633
993,0.9642,486.559,487.116,0.00798004,486.826,-0.0537549,-0.0572569,0.169336,0.1692,-0.336666,1.01165,-8.42267e-05,-9.58019e-05,0.67057,0.1845180701393483,1.7501349961975214,-8.42231530311377e-05,0.18435698663573574,-9.579731114450762e-05,-0.2858526747199114
994,0.9652,486.628,487.184,0.00752644,486.895,-0.0540934,-0.0572974,0.169463,0.169327,-0.33692,1.01241,-8.43225e-05,-9.58993e-05,0.671078,0.18466851348720636,1.752225893234864,-8.431894495797287e-05,0.1845074095246899,-9.58947018091516e-05,-0.28603404510551844
995,0.9662,486.697,487.254,0.00792966,486.964,-0.0539013,-0.0573835,0.16959,0.169454,-0.337175,1.01318,-8.44104e-05,-9.59963e-05,0.671587,0.1848189759425829,1.754345923279475,-8.440683754240563e-05,0.18465785151856395,-9.599169250262829e-05,-0.2862160832131714
996,0.9672,486.766,487.322,0.00752694,487.034,-0.0542089,-0.0574271,0.169718,0.169581,-0.337429,1.01394,-8.45059e-05,-9.60937e-05,0.672094,0.1849706424779547,1.7564400218378236,-8.450232947698755e-05,0.18480831261978437,-9.608908314828746e-05,-0.286397361304743
997,0.9682,486.835,487.392,0.00788207,487.103,-0.054047,-0.0575111,0.169845,0.169708,-0.337683,1.0147,-8.45944e-05,-9.61909e-05,0.672602,0.1851211433061497,1.758535712516005,-8.459082199463452e-05,0.18495879283077832,-9.618627380370004e-05,-0.28657859335752656
998,0.9692,486.904,487.46,0.00752497,487.172,-0.0543268,-0.0575574,0.169972,0.169836,-0.337937,1.01546,-8.46896e-05,-9.62885e-05,0.673109,0.18527166324916378,1.7606329965244916,-8.46860139370742e-05,0.1851104772638572,-9.628386441118408e-05,-0.2867597793832144
999,0.9702,486.973,487.53,0.00783703,487.241,-0.054192,-0.0576396,0.170099,0.169963,-0.33819,1.01622,-8.47786e-05,-9.63858e-05,0.673617,0.1854222023094243,1.7627318750746728,-8.477500639603175e-05,0.1852609958521978,-9.638115503796119e-05,-0.2869402063340587
