,Time,S11,S22,S33,S12,S13,S23,LE11,LE22,LE33,LE12,LE13,LE23,SDV_EPBAR,E11,E12,E13,E22,E23,E33
0,1e-05,1.04203,1.04203,-2.22045e-16,1.04203,-6.00101e-18,-1.80033e-17,3.49998e-06,3.49998e-06,-2.99999e-06,1.29999e-05,-2.99404e-22,-6.38851e-26,0.0,3.499986124921861e-06,1.2999984499106887e-05,0.0,3.499986124921861e-06,0.0,-2.999985500018454e-06
1,2e-05,2.08405,2.08405,2.22045e-16,2.08405,-5.40095e-17,-6.60119e-17,6.99994e-06,6.99994e-06,-5.99996e-06,2.59997e-05,-1.19787e-21,-5.98928e-22,0.0,6.999964499598832e-06,2.600003799502204e-05,0.0,6.999964499598832e-06,0.0,-5.9999420002343484e-06
2,3.5e-05,3.64707,3.64707,-6.66134e-16,3.64707,-4.20065e-17,-3.00042e-17,1.22498e-05,1.22498e-05,-1.04998e-05,4.54992e-05,-5.98929e-22,-5.98929e-22,0.0,1.2249875029013424e-05,4.550023510430101e-05,0.0,1.2249875029013424e-05,0.0,-1.0499744877323636e-05
3,5.75e-05,5.99155,5.99155,-3.9968e-15,5.99155,-4.20047e-17,-7.80117e-17,2.01244e-05,2.01244e-05,-1.72495e-05,7.47478e-05,1.19796e-21,-1.19785e-21,0.0,2.0124602497118005e-05,7.475059368644565e-05,0.0,2.0124602497118005e-05,0.0,-1.7249351228265652e-05
4,9.125e-05,9.50816,9.50816,-2.79776e-14,9.50816,-9.00093e-17,-1.26016e-16,3.19361e-05,3.19361e-05,-2.73738e-05,0.00011862,-3.5936e-21,1.19808e-21,0.0,3.193660996259062e-05,0.0001186270356303698,0.0,3.193660996259062e-05,0.0,-2.737342534098186e-05
5,0.00014188,14.7829,14.7829,-1.57652e-13,14.7829,-1.38005e-16,-2.70031e-16,4.96528e-05,4.96528e-05,-4.25595e-05,0.000184424,4.71863e-25,-4.79128e-21,0.0,4.965403272061408e-05,0.00018444100715142575,0.0,4.965403272061408e-05,0.0,-4.255859435731146e-05
6,0.00021781,22.6944,22.6944,-8.00693e-13,22.6944,-5.22036e-16,-3.66006e-16,7.62261e-05,7.62261e-05,-6.53367e-05,0.000283125,-1.4374e-20,4.79342e-21,0.0,7.622900528292398e-05,0.0002831650836656596,0.0,7.622900528292398e-05,0.0,-6.533456560431361e-05
7,0.00033172,34.5606,34.5606,-4.05498e-12,34.5606,-8.09983e-16,-6.53953e-16,0.000116082,0.000116082,-9.94992e-05,0.000431163,-2.15601e-20,7.19196e-21,0.0,0.00011608873777602113,0.00043125596412663114,0.0,0.00011608873777602113,0.0,-9.949425011879232e-05
8,0.00050258,52.3574,52.3574,-2.05111e-11,52.3574,-9.05775e-16,-1.13382e-15,0.000175858,0.000175858,-0.000150736,0.000653187,-2.87453e-20,9.59285e-21,0.0,0.0001758734639245585,0.0006534003730833682,0.0,0.0001758734639245585,0.0,-0.00015072463989995732
9,0.00075887,79.0468,79.0468,-1.03758e-10,79.0468,-7.13335e-16,-1.70953e-15,0.000265503,0.000265503,-0.000227574,0.000986153,-3.35335e-20,4.80753e-21,0.0,0.00026553824904107515,0.0009866394087476582,0.0,0.00026553824904107515,0.0,-0.0002275481070015406
10,0.0011433,119.068,119.068,-5.24726e-10,119.068,-1.48088e-15,-9.40773e-16,0.000399927,0.000399927,-0.000342794,0.00148544,-5.74957e-20,1.91952e-20,0.0,0.00040000698146447355,0.0014865438124782582,0.0,0.00040000698146447355,0.0,-0.00034273525284966855
11,0.00172,178.815,178.832,0.00429787,178.835,0.00085036,0.000810864,0.000601153,0.000601257,-0.000515965,0.00223454,1.06291e-08,1.01356e-08,2.31519e-06,0.0006013337286780995,0.0022370384451178005,1.0629100044567963e-08,0.0006014377912222368,1.0135599914917748e-08,-0.0005158319129497935
12,0.0025849,185.548,185.999,-0.517661,186.115,0.0347217,-0.134143,0.000827735,0.00082523,-0.000935821,0.00351022,-1.60717e-06,-4.12637e-07,0.000794212,0.0008280776671545365,0.003516388037168472,-1.6071687084506792e-06,0.0008255705959601123,-4.126369148593767e-07,-0.0009353832560886621
13,0.0032337,190.977,191.235,0.225659,191.007,-0.0191197,0.00478215,0.000997105,0.000991279,-0.00124717,0.0044685,-3.04246e-06,1.93769e-06,0.00139291,0.0009976022744551116,0.004478498633542216,-3.0424553717489644e-06,0.000991770479412235,1.9376918773961194e-06,-0.0012463926067096676
14,0.0038824,195.325,195.652,0.191095,195.374,0.0135746,-0.0146579,0.0011643,0.00115748,-0.00156205,0.00542796,-3.10897e-06,2.10018e-06,0.00199669,0.001164978060374633,0.005442718064860186,-3.1089651671978302e-06,0.0011581501385076187,2.1001822054778074e-06,-0.0015608306348844359
15,0.0048555,200.749,201.332,-0.262152,201.247,0.0432726,-0.126735,0.00141374,0.00140645,-0.00203702,0.00686728,-3.90642e-06,1.22536e-06,0.00290867,0.001414739801491427,0.006890913836382406,-3.9064123699139586e-06,0.0014074395146477237,1.2253607506451658e-06,-0.0020349466827949136
16,0.0058555,206.621,207.112,0.278361,206.689,0.0359843,-0.0271139,0.00167035,0.00166089,-0.00252224,0.00834558,-4.94568e-06,3.41648e-06,0.00384987,0.0016717458116177752,0.008380501431702658,-4.945667770095419e-06,0.0016622700417228131,3.4164858362384365e-06,-0.00251906182529249
17,0.0068555,210.991,211.699,-0.282396,211.522,0.0654386,-0.134525,0.00192371,0.0019154,-0.00301204,0.00982508,-5.0774e-06,2.06007e-06,0.00479698,0.0019255615171522855,0.009873504560296453,-5.077387109975184e-06,0.0019172355503305205,2.0600721220009888e-06,-0.003007508358489508
18,0.0078555,215.948,216.457,0.283265,216.026,0.0465377,-0.0316321,0.0021781,0.00216815,-0.00349786,0.0113033,-5.75064e-06,3.83686e-06,0.00574563,0.0021804737829376197,0.01136742367072685,-5.750623465083926e-06,0.002170502136832564,3.836867360718088e-06,-0.0034917496142110593
19,0.0088555,219.527,220.24,-0.30797,220.075,0.0769405,-0.139353,0.00242953,0.00242144,-0.00398826,0.0127821,-5.48537e-06,2.16407e-06,0.0066985,0.002432483699559951,0.012864140216306996,-5.48535495537017e-06,0.0024243740535703218,2.164072341548362e-06,-0.003980317453574633
20,0.0098555,223.887,224.355,0.302782,223.934,0.0522195,-0.0237201,0.00268248,0.00267293,-0.00447414,0.0142591,-5.96555e-06,3.92903e-06,0.00765151,0.002686081068686841,0.014361245891783003,-5.965532206109181e-06,0.0026765054623363316,3.929037718730655e-06,-0.004464145946117881
21,0.010855,227.475,227.92,0.339384,227.488,0.051278,-0.0200231,0.00293376,0.00292426,-0.00496199,0.015736,-6.08208e-06,4.2486e-06,0.00860689,0.002938067685410495,0.015860462840084244,-6.08206150420898e-06,0.0029285398190248557,4.248609025259142e-06,-0.004949699664197338
22,0.011855,230.296,230.948,-0.245838,230.763,0.085487,-0.123012,0.00318327,0.00317605,-0.00545235,0.0172122,-5.49131e-06,2.54084e-06,0.00956437,0.0031883419843503624,0.017361183464695173,-5.491294922777001e-06,0.0031810989906684295,2.5408432280382698e-06,-0.005437512917641829
23,0.012855,233.38,234.007,-0.331082,233.897,0.0864811,-0.130843,0.00343325,0.00342689,-0.00594082,0.018687,-5.26482e-06,1.93457e-06,0.010522,0.0034391503533115486,0.018862694680285896,-5.264806140825584e-06,0.0034327685006096953,1.9345718713648097e-06,-0.005923208222256893
24,0.013855,236.389,236.954,-0.310449,236.871,0.0831316,-0.115949,0.00368299,0.00367719,-0.00642872,0.0201606,-5.0784e-06,1.67347e-06,0.0114802,0.003689780541609844,0.020365197519368605,-5.078387104950899e-06,0.003683959157764649,1.6734714003430184e-06,-0.006408099989999583
25,0.014855,239.789,240.116,0.310512,239.74,0.0654787,0.00518247,0.00393343,0.00392644,-0.00691406,0.0216326,-5.14704e-06,3.4398e-06,0.0124379,0.003941176088684939,0.02186828108821892,-5.147026754026562e-06,0.003934158564390389,3.4398059161055983e-06,-0.006890212878951973
26,0.015855,241.896,242.427,-0.338731,242.371,0.0855055,-0.115828,0.0041811,0.00417636,-0.00740389,0.0231047,-4.60568e-06,1.44124e-06,0.0133979,0.004189852993400356,0.023373681162673687,-4.605669393864531e-06,0.004185093144777996,1.4412410385133967e-06,-0.007376548725309684
27,0.016855,244.469,244.965,-0.350595,244.933,0.0862056,-0.108349,0.00442957,0.00442553,-0.00789127,0.0245749,-4.28235e-06,1.07537e-06,0.0143572,0.00443939504674673,0.024879351695920704,-4.2823408307191e-06,0.00443533711978783,1.0753705781407774e-06,-0.007860215668620385
28,0.017855,247.595,247.797,0.374843,247.448,0.0568473,0.032908,0.00467914,0.00467337,-0.00837543,0.0260434,-4.48849e-06,3.18677e-06,0.0153154,0.004690104270017592,0.02638549263720713,-4.488479926734179e-06,0.004684307224840589,3.1867750778236115e-06,-0.008340453801173986
29,0.018855,249.272,249.738,-0.37804,249.735,0.0841295,-0.110109,0.0049255,0.00492231,-0.00886484,0.027512,-3.81926e-06,9.10149e-07,0.0162759,0.0049376502155631385,0.027893949760641634,-3.819252706649401e-06,0.00493444446957203,9.101494142793598e-07,-0.00882566315683897
30,0.019855,251.562,251.984,-0.367399,251.997,0.0823731,-0.0988703,0.00517298,0.00517035,-0.00935127,0.0289786,-3.5113e-06,6.15153e-07,0.0172352,0.0051863829621590085,0.029402565024525096,-3.5112938353565326e-06,0.0051837393254483555,6.151531892761852e-07,-0.009307682845586585
31,0.020855,254.426,254.547,0.37404,254.239,0.0507325,0.0453088,0.0054216,0.00541708,-0.00983446,0.0304433,-3.74538e-06,2.78705e-06,0.0181932,0.005436323469508064,0.0309114357132112,-3.745372986085904e-06,0.005431778907596829,2.787053883901436e-06,-0.009786259835193434
32,0.021855,255.863,256.252,-0.357129,256.273,0.0771851,-0.0954663,0.00566702,0.00566495,-0.0103228,0.0319082,-3.09967e-06,6.01196e-07,0.0191533,0.005683107933696974,0.032422724548634596,-3.0996651960712995e-06,0.005681026171818093,6.011961806162702e-07,-0.010269702761198762
33,0.022855,257.93,258.274,-0.330787,258.303,0.0739362,-0.0827271,0.00591359,0.00591192,-0.0108082,0.0333709,-2.8356e-06,3.97733e-07,0.0201119,0.0059311097912726485,0.03393395423622536,-2.835595979688854e-06,0.00592942988772216,3.977330791382627e-07,-0.010750001269600129
34,0.023855,260.51,260.583,0.335493,260.321,0.0455621,0.0470748,0.00616115,0.00615774,-0.0112906,0.0348319,-3.03524e-06,2.36683e-06,0.0210693,0.006180168924080132,0.035445635757823,-3.0352353936891063e-06,0.006176737855553949,2.3668328008596973e-06,-0.011227100383429223
35,0.024855,262.468,262.493,0.408867,262.232,0.0258677,0.0510171,0.0064073,0.00640344,-0.0117747,0.0362925,-3.22986e-06,2.77801e-06,0.0220272,0.006427870657300883,0.03695911267653984,-3.2298547839593184e-06,0.006423985853217795,2.7780138587285563e-06,-0.011705649501973725
36,0.025855,263.734,264.056,-0.230858,264.003,0.0755584,-0.0679712,0.00665159,0.00665026,-0.0122614,0.0377519,-2.28325e-06,9.9993e-07,0.0229858,0.006673760954871266,0.03847355562580557,-2.283247393375376e-06,0.006672422079659679,9.999304999563918e-07,-0.012186535329302473
37,0.026855,266.056,266.079,0.355196,265.853,0.0227029,0.0402235,0.00689818,0.00689486,-0.0127429,0.0392094,-2.89732e-06,2.63775e-06,0.0239421,0.006922027246319518,0.03998823438714072,-2.897315802719014e-06,0.0069186842707384955,2.637753478973437e-06,-0.0126620530224697
38,0.027855,267.798,267.809,0.370606,267.592,0.0140751,0.0384034,0.00714332,0.00713977,-0.013226,0.0406661,-3.00201e-06,2.88666e-06,0.0248988,0.007168894369345757,0.0415042891986086,-3.0020054939683405e-06,0.007165318926117159,2.8866641663682913e-06,-0.013138920787971298
39,0.028855,269.01,269.295,-0.163416,269.216,0.0673884,-0.0600725,0.00738692,0.00738569,-0.0137112,0.0421214,-2.04574e-06,1.3992e-06,0.0258559,0.007414270597625228,0.043021093825863055,-2.045737907518941e-06,0.007413031478834542,1.3992009788577064e-06,-0.013617629639446127
40,0.029855,270.436,270.759,-0.405859,270.843,0.0627016,-0.101785,0.00763092,0.00763064,-0.0141949,0.0435754,-1.83608e-06,3.97141e-07,0.0268121,0.007660109670798443,0.044538749564632996,-1.8360783143878123e-06,0.007659827526007135,3.9714107891164474e-07,-0.014094627420776051
41,0.030855,272.068,272.335,-0.383657,272.448,0.0546692,-0.0886153,0.00787517,0.00787513,-0.0146773,0.0450278,-1.70811e-06,1.49285e-07,0.0277673,0.007906260712557733,0.0460569398874322,-1.7081085411652097e-06,0.007906220396308061,1.4928501124167326e-07,-0.014570113476050861
42,0.031855,274.331,274.31,0.364669,274.067,0.0308566,0.0567959,0.00812061,0.0081186,-0.0151565,0.046478,-1.89807e-06,2.31086e-06,0.0287208,0.00815367158620739,0.04757503216431114,-1.8980681986136005e-06,0.008151645199363955,2.310862670107383e-06,-0.015042218352310566
43,0.032855,275.889,275.826,0.418319,275.601,0.00911294,0.056839,0.00836448,0.00836193,-0.0156375,0.0479282,-2.17425e-06,2.6534e-06,0.0296748,0.00839956000328268,0.04909532757571666,-2.17424763626628e-06,0.008396988587683119,2.6534035202363526e-06,-0.015515869123140735
44,0.033855,276.803,277.046,-0.210384,277.017,0.0607787,-0.0606567,0.00860654,0.00860644,-0.016121,0.049377,-1.26553e-06,9.18202e-07,0.0306293,0.00864368274576055,0.05061635845502099,-1.2655291992125228e-06,0.008643581881397244,9.182024216514151e-07,-0.015991752146428118
45,0.034855,278.037,278.321,-0.449655,278.453,0.0562051,-0.101455,0.00884919,0.00884999,-0.0166028,0.0508244,-1.08102e-06,-7.01312e-08,0.0315826,0.008888459831757789,0.052138121606571275,-1.0810194156496422e-06,0.008889266942848417,-7.013119751597685e-08,-0.016465733129056415
46,0.035855,279.525,279.741,-0.385194,279.88,0.0470549,-0.0807526,0.00909219,0.00909305,-0.017083,0.05227,-9.9886e-07,-1.8424e-07,0.0325348,0.009133649516837039,0.05366019236284503,-9.988595011112267e-07,0.009134517372148876,-1.8423998304761824e-07,-0.016937912904570362
47,0.036855,281.589,281.524,0.332449,281.325,0.0228176,0.0587281,0.00933628,0.00933514,-0.0175603,0.0537137,-1.22533e-06,1.89185e-06,0.0334853,0.009379999013848783,0.05518246016717243,-1.2253292492880874e-06,0.009378848321305977,1.8918517894483955e-06,-0.017407016478267368
48,0.037855,282.969,282.871,0.372075,282.693,0.00248263,0.0563812,0.00957881,0.00957715,-0.0180394,0.0551571,-1.50582e-06,2.18206e-06,0.0344363,0.009624833633679719,0.056706610244670275,-1.5058188662653293e-06,0.009623157657846937,2.182062380784444e-06,-0.017877664024050444
49,0.038855,283.807,283.986,-0.165333,283.961,0.0508039,-0.0446212,0.00981973,0.00982021,-0.0185205,0.0565993,-6.85596e-07,7.30893e-07,0.0353875,0.009868101751499658,0.05823169199007183,-6.855957649376521e-07,0.009868586488304798,7.308932670202495e-07,-0.018350049438465632
50,0.039855,284.917,285.131,-0.373709,285.251,0.0447361,-0.081498,0.0100612,0.0100623,-0.0190001,0.05804,-5.7384e-07,-1.04929e-07,0.0363376,0.010111984045973355,0.05975738515789919,-5.738398353161145e-07,0.010113095169766995,-1.0492899449321413e-07,-0.01882073587512534
51,0.040855,287.004,286.865,0.487508,286.6,0.00907064,0.0849956,0.0103045,0.0103031,-0.0194751,0.0594783,-1.00532e-06,2.42531e-06,0.0372852,0.010357774190850488,0.061282730894400395,-1.0053194946513244e-06,0.010356359690956607,2.425312941145563e-06,-0.019286685353822608
52,0.041855,288.234,288.078,0.486144,287.86,-0.0126605,0.0725979,0.010546,0.010544,-0.0199527,0.0609165,-1.37126e-06,2.6576e-06,0.0382336,0.010601805058858771,0.0628101658331559,-1.3712590598569108e-06,0.010599783857269784,2.657603531464048e-06,-0.019754962199485693
53,0.042855,288.819,289.022,-0.213576,289.009,0.0492079,-0.0593833,0.0107855,0.0107863,-0.0204328,0.0623534,-3.8861e-07,7.45309e-07,0.0391823,0.010843873177670549,0.06433841546844632,-3.886099244621022e-07,0.010844681853092508,7.453092778497705e-07,-0.020225464888925626
54,0.043855,289.807,290.052,-0.448275,290.201,0.0444284,-0.0995619,0.0110258,0.0110274,-0.0209108,0.0637888,-2.60651e-07,-2.17894e-07,0.0401297,0.011086808147862781,0.06586726382197328,-2.6065096603300475e-07,0.011088425888049924,-2.1789397630644913e-07,-0.020693685203138634
55,0.044855,291.084,291.25,-0.355292,291.395,0.0336008,-0.0737106,0.0112666,0.0112681,-0.0213872,0.0652225,-2.59857e-07,-2.29333e-07,0.0410758,0.011330307167370046,0.0673964936845981,-2.5985696627817134e-07,0.011331824163968607,-2.2933297372240702e-07,-0.02116011561896114
56,0.045855,292.853,292.764,0.283893,292.607,0.012046,0.0513829,0.0115083,0.0115079,-0.021861,0.0666542,-4.95168e-07,1.60514e-06,0.0420203,0.011574775245389635,0.06892577972279379,-4.951678773679191e-07,0.011574370615560436,1.6051412883300031e-06,-0.021623780105390122
57,0.046855,293.294,293.503,-0.457235,293.686,0.0407772,-0.0888493,0.0117468,0.0117488,-0.0223395,0.0680862,3.30173e-08,-5.52396e-07,0.0429663,0.011816064601897658,0.0704575779451222,3.301730044924511e-08,0.01181808823605035,-5.523958473974133e-07,-0.02209182113886221
58,0.047855,295.175,295.017,0.350477,294.882,-0.0083766,0.0626785,0.0119884,0.0119877,-0.0228119,0.0695153,-6.42911e-07,1.66165e-06,0.0439092,0.012060548895618917,0.0719884625027769,-6.429107933803024e-07,0.012059840453482629,1.6616513804912358e-06,-0.02255367586388113
59,0.048855,296.299,296.134,0.387318,295.99,-0.0166044,0.0633636,0.0122281,0.012227,-0.0232865,0.070944,-8.48211e-07,1.99371e-06,0.0448525,0.012303168886033333,0.07352110700305259,-8.482106402807332e-07,0.01230205535316009,1.9937119875024223e-06,-0.02301746182420228
60,0.049855,296.872,297.01,-0.169055,297.01,0.0386313,-0.0415127,0.0124662,0.0124673,-0.0237631,0.0723715,1.81681e-09,5.06768e-07,0.045796,0.012544226967370786,0.07505465269111844,1.8168100357485173e-09,0.012545340766633162,5.067681283499326e-07,-0.02348298075992261
61,0.050855,297.767,297.939,-0.352207,298.067,0.0338036,-0.0743751,0.0127049,0.0127067,-0.0242379,0.0737976,7.96003e-08,-2.37372e-07,0.0467382,0.01278595012285888,0.07658888185340396,7.960030323772571e-08,0.012787773139209868,-2.3737197185624836e-07,-0.02394652098749961
62,0.051855,299.567,299.404,0.438919,299.184,-0.00131538,0.0791699,0.0129455,0.0129447,-0.0247087,0.0752213,-3.82904e-07,2.0715e-06,0.0476781,0.013029655739068335,0.07812271304315144,-3.8290392667672535e-07,0.013028845315667947,2.071502145595261e-06,-0.024405938809977434
63,0.052855,300.548,300.385,0.403485,300.222,-0.0192179,0.0617793,0.0131841,0.013183,-0.0251818,0.0766449,-7.16803e-07,2.16181e-06,0.0486186,0.013271393453090141,0.0796586215377122,-7.168027430504154e-07,0.013270278855170403,2.161812336698432e-06,-0.02486738319704973
64,0.053855,301.07,301.203,-0.133539,301.177,0.0352392,-0.0395793,0.0134212,0.0134223,-0.0256567,0.0780671,1.07772e-07,7.28087e-07,0.049559,0.013511668583969128,0.08119520443436312,1.0777200576406187e-07,0.013512783447417576,7.280872651449499e-07,-0.025330363733339856
65,0.054855,302.66,302.458,0.503241,302.249,-0.0227921,0.082917,0.0136608,0.0136593,-0.0261265,0.0794874,-7.39197e-07,2.65963e-06,0.050497,0.01375453507400537,0.08273191702133675,-7.391967268288724e-07,0.013753014443343314,2.6596335367390367e-06,-0.025788155984638017
66,0.055855,303.511,303.372,0.37502,303.229,-0.0260022,0.046408,0.0138985,0.0138971,-0.0265987,0.0809071,-9.18348e-07,2.43441e-06,0.0514354,0.013995533168481344,0.084270163189607,-9.183475783158812e-07,0.013994113575728662,2.4344129632147826e-06,-0.02624807022308473
67,0.056855,304.089,304.211,-0.0605668,304.145,0.0290464,-0.0353287,0.0141351,0.0141356,-0.027072,0.0823252,-1.14759e-07,1.26585e-06,0.0523734,0.014235472895379297,0.08580885746133915,-1.1475899341917284e-07,0.014235980013242555,1.2658508012908243e-06,-0.02670883796216117
68,0.057855,305.464,305.327,0.394498,305.158,-0.0196665,0.0536085,0.0143736,0.0143721,-0.0275412,0.0837418,-8.2847e-07,2.63724e-06,0.0533094,0.014477396903956219,0.08734810427993289,-8.284696567661953e-07,0.014475875189001952,2.6372434775989717e-06,-0.02716539905778037
69,0.058855,305.66,305.935,-0.413634,306.016,0.0485378,-0.101794,0.0146089,0.0146107,-0.0280151,0.0851576,2.27509e-07,2.43238e-07,0.0542465,0.014716131521473885,0.08888866202946732,2.2750902584078858e-07,0.014717958012154586,2.432380294958847e-07,-0.02762631615223521
70,0.059855,306.503,306.763,-0.517308,306.946,0.0412502,-0.114263,0.0148456,0.0148479,-0.0284859,0.0865717,3.09016e-07,-4.21603e-07,0.0551818,0.014956343257742422,0.09042954871359998,3.090160476393322e-07,0.014958677660016573,-4.216029111381303e-07,-0.02808400193490357
71,0.060855,308.375,308.183,0.48272,307.954,-0.0113421,0.081181,0.0150844,0.0150835,-0.0289521,0.0879833,-4.09961e-07,2.40154e-06,0.0561146,0.015198743773982226,0.09196988597883093,-4.0996091599243556e-07,0.015197830095524001,2.4015428836676733e-06,-0.028537003570315633
72,0.061855,309.252,309.053,0.472205,308.868,-0.0289078,0.0687045,0.015321,0.0153196,-0.0294213,0.0893951,-7.74919e-07,2.56935e-06,0.0570482,0.015438968214189774,0.09351261782201892,-7.749186997640933e-07,0.015437546600629348,2.5693533007853375e-06,-0.028992707091834102
73,0.062855,309.535,309.694,-0.187767,309.689,0.0356517,-0.0557263,0.0155557,0.015557,-0.0298929,0.0908056,1.76544e-07,7.75841e-07,0.0579819,0.015677319709483495,0.09505610565835476,1.7654401562872124e-07,0.015678640090857288,7.758413009817389e-07,-0.029450526168945945
74,0.063855,310.25,310.436,-0.366753,310.564,0.0301496,-0.0860494,0.0157913,0.0157932,-0.0303622,0.0922146,2.29152e-07,2.08332e-08,0.0589143,0.015916641477004223,0.09660012721897382,2.2915202624318454e-07,0.015918571720456853,2.0833200276015873e-08,-0.02990589817561584
75,0.064855,311.88,311.715,0.425582,311.504,-0.00795189,0.068948,0.0160288,0.0160281,-0.0308275,0.0936213,-2.91601e-07,2.27741e-06,0.0598443,0.01615795033364753,0.09814380010570534,-2.91600957491589e-07,0.016157239023331105,2.2774125933988643e-06,-0.030357177962810233
76,0.065855,312.668,312.512,0.36831,312.368,-0.0232241,0.0490628,0.0162643,0.0162634,-0.0312952,0.0950279,-5.99148e-07,2.25874e-06,0.0607749,0.016397283711350186,0.0996895360361576,-5.991478204681044e-07,0.016396368954206375,2.2587425509978942e-06,-0.030810573875778013
77,0.066855,313.089,313.199,-0.0961971,313.162,0.0282656,-0.0378449,0.0164985,0.0164995,-0.0317644,0.096433,1.56195e-07,1.01564e-06,0.0617053,0.016635351831884027,0.1012357958736918,1.5619501225749843e-07,0.01663636846774419,1.0156405156891424e-06,-0.031265210888331674
78,0.067855,314.405,314.231,0.418767,314.06,-0.0230186,0.0620799,0.0167348,0.0167337,-0.0322293,0.0978364,-5.95958e-07,2.54897e-06,0.0626335,0.016875611151042635,0.10278235515643641,-5.959578224246087e-07,0.01687449258848539,2.5489732486949634e-06,-0.03171547102071237
79,0.068855,314.42,314.686,-0.450555,314.799,0.0472905,-0.105164,0.0169677,0.0169699,-0.0326991,0.0992393,4.76419e-07,4.21254e-09,0.0635629,0.01711246906191266,0.1043305342387848,4.76419113493165e-07,0.017114706711806038,4.2125400945280944e-09,-0.03217026425313163
80,0.069855,315.183,315.423,-0.51929,315.618,0.0396226,-0.110972,0.0172021,0.0172048,-0.0331656,0.10064,5.43505e-07,-5.48358e-07,0.0644904,0.017350908168632495,0.10587845385051353,5.435051477764574e-07,0.017353655019792802,-5.48357849683434e-07,-0.03262165153058916
81,0.070855,316.919,316.713,0.448402,316.514,-0.0137192,0.078041,0.0174386,0.0174381,-0.0336277,0.102039,-1.88744e-07,2.16493e-06,0.0654155,0.01759154011201991,0.10742666052550676,-1.8874398222124e-07,0.01759103131637718,2.1649323433958756e-06,-0.03306857379607453
82,0.071855,317.675,317.473,0.423618,317.32,-0.0291552,0.0635566,0.0176728,0.0176719,-0.0340928,0.103438,-5.19932e-07,2.27075e-06,0.0663414,0.01782988796015772,0.10897703465742126,-5.199318647841622e-07,0.017828971913670832,2.2707525781928695e-06,-0.033518189036272905
83,0.072855,317.935,318.052,-0.146971,318.045,0.0300811,-0.0440793,0.0179055,0.0179068,-0.0345599,0.104835,3.38935e-07,7.42938e-07,0.0672672,0.01806676453460665,0.11052735822371318,3.389350573534955e-07,0.018068088022260786,7.42938276010463e-07,-0.03396952727192293
84,0.073855,319.32,319.092,0.499547,318.897,-0.0298136,0.0805522,0.0181407,0.0181394,-0.0350217,0.106231,-5.45407e-07,2.65813e-06,0.0681905,0.01830624199907116,0.1120787370262517,-5.454068512378285e-07,0.0183049182018169,2.658133532840168e-06,-0.03441553715262102
85,0.074855,319.923,319.779,0.3382,319.659,-0.028947,0.0389696,0.0183738,0.0183728,-0.0354861,0.107626,-6.70803e-07,2.31535e-06,0.0691142,0.018543636851376277,0.11363116943425178,-6.708027749935397e-07,0.01854261830824866,2.3153526804708946e-06,-0.034863850470757574
86,0.075855,320.363,320.443,-0.0196606,320.375,0.0207556,-0.0277834,0.0186062,0.0186069,-0.0359511,0.109019,2.9194e-08,1.37001e-06,0.0700374,0.018780373900360026,0.11518353862739228,2.9194000328303105e-08,0.018781087046871425,1.3700109384728876e-06,-0.03531253445317806
87,0.076855,321.414,321.298,0.303676,321.172,-0.0188522,0.0360195,0.01884,0.0188392,-0.0364129,0.110411,-5.54254e-07,2.32951e-06,0.0709589,0.019018592598458506,0.1167369550401518,-5.542538463743085e-07,0.01901777738391064,2.3295127133948768e-06,-0.03575792427634217
88,0.077855,321.63,321.82,-0.268714,321.856,0.0356892,-0.0739505,0.0190715,0.0190731,-0.0368779,0.111802,2.68773e-07,6.45594e-07,0.0718808,0.019254522710501876,0.11829141702227952,2.6877303604955216e-07,0.019256153519042973,6.455942083150035e-07,-0.036206192611088595
89,0.078855,322.309,322.478,-0.335813,322.597,0.0263883,-0.0824315,0.0193039,0.0193058,-0.0373406,0.113192,2.56095e-07,1.9349e-07,0.0728013,0.01949142498855827,0.11984692291808874,2.5609503273571477e-07,0.01949336202410601,1.9349001867396964e-07,-0.036652036851748115
90,0.079855,323.682,323.549,0.326764,323.385,-0.00647713,0.0481249,0.0195377,0.0195375,-0.0378001,0.114579,-1.86304e-07,2.03777e-06,0.0737198,0.01972980994983664,0.12140122826175492,-1.863039826854873e-07,0.019729606003895173,2.0377720761910467e-06,-0.037094593555625166
91,0.080855,323.653,323.868,-0.456004,324.043,0.0348508,-0.0991805,0.0197681,0.0197706,-0.0382645,0.115967,4.65586e-07,-2.19087e-07,0.0746398,0.01996478276587821,0.12295881388093877,4.6558610833358216e-07,0.019967332681022354,-2.190869760054781e-07,-0.03754166300881612
92,0.081855,324.385,324.566,-0.452872,324.761,0.0323715,-0.0924095,0.02,0.0200027,-0.0387257,0.117352,5.63618e-07,-5.19838e-07,0.0755578,0.020201340026755776,0.12451518937940675,5.636181588108968e-07,0.020204094574092446,-5.198378648652024e-07,-0.03798544644950874
93,0.082855,325.874,325.686,0.353858,325.54,-0.0103001,0.0649043,0.0202336,0.0202335,-0.0391835,0.118736,-1.54378e-08,1.72748e-06,0.0764737,0.02043968689761666,0.12607259587820985,-1.54377999272981e-08,0.02043958485365316,1.7274814920753556e-06,-0.03842575591759689
94,0.083855,325.71,325.938,-0.546569,326.162,0.0420818,-0.105806,0.020463,0.0204661,-0.0396471,0.12012,8.03526e-07,-8.46763e-07,0.0773915,0.02067380261383689,0.12763215931986727,8.035263228123313e-07,0.0206769667075295,-8.467626414487839e-07,-0.0388714384199671
95,0.084855,326.45,326.63,-0.512961,326.861,0.0378412,-0.092753,0.0206944,0.0206976,-0.040107,0.121502,9.02143e-07,-1.06738e-06,0.0783071,0.020910013860349075,0.12919162430614795,9.021434068667844e-07,0.020913280777620447,-1.0673794303972528e-06,-0.039313359817823135
96,0.085855,327.989,327.76,0.369053,327.627,-0.0126644,0.0781892,0.0209274,0.0209276,-0.0405633,0.122881,2.17041e-07,1.4031e-06,0.0792205,0.021147913607822755,0.13074985370830605,2.1704102359798583e-07,0.021148117837425984,1.4031009842874198e-06,-0.03975162113481456
97,0.086855,328.625,328.408,0.340989,328.312,-0.025022,0.0633477,0.0211583,0.0211582,-0.0410222,0.124261,-4.91718e-08,1.48773e-06,0.0801347,0.021383723884323524,0.13231136570188728,-4.917179874386335e-08,0.021383621745956205,1.487731106752932e-06,-0.04019217802236663
98,0.087855,328.891,328.934,-0.0943786,328.935,0.0238232,-0.019583,0.0213879,0.0213895,-0.0414825,0.125639,6.51583e-07,3.76146e-07,0.0810486,0.02161826051110194,0.13387276632177492,6.515832122744314e-07,0.02161989510162643,3.761460707352171e-07,-0.040633875898257954
99,0.088855,329.997,329.784,0.37581,329.656,-0.0239341,0.0699362,0.0216194,0.0216191,-0.0419389,0.127016,-4.8042e-08,1.79067e-06,0.0819604,0.021854792515933363,0.13543518459910509,-4.804199882357807e-08,0.021854485959541536,1.7906716032189962e-06,-0.04107163069405484
100,0.089855,329.94,330.124,-0.38145,330.24,0.0394565,-0.0768013,0.0218478,0.0218504,-0.0423996,0.128392,8.96375e-07,-3.56297e-07,0.0828732,0.022088210805897956,0.1369986188091692,8.963754016821923e-07,0.022090868238700878,-3.562969365100699e-07,-0.0415133072457885
101,0.090855,330.577,330.726,-0.406008,330.9,0.0294996,-0.0772454,0.0220777,0.0220805,-0.0428572,0.129766,8.86775e-07,-6.7622e-07,0.0837842,0.022323215898362614,0.1385619286593356,8.867753931163236e-07,0.02232607840737466,-6.762197714005325e-07,-0.04195181041921492
102,0.091855,331.941,331.748,0.332159,331.614,-0.0121078,0.0661635,0.0223091,0.0223094,-0.0433115,0.131139,3.16515e-07,1.3947e-06,0.0846932,0.022559808863271913,0.14012624784676175,3.1651505016938586e-07,0.02256011563126048,1.3947009724901704e-06,-0.04238695286165162
103,0.092855,331.79,331.979,-0.488237,332.186,0.035415,-0.0895827,0.0225368,0.0225399,-0.0437711,0.132511,1.044e-06,-9.16353e-07,0.0856039,0.022792672242239576,0.14169157462743343,1.0440005449030565e-06,0.022795842904437924,-9.163525801492156e-07,-0.04282697069427299
104,0.093855,332.478,332.618,-0.447393,332.829,0.029923,-0.0767588,0.0227662,0.0227693,-0.0442273,0.133882,1.09192e-06,-1.06573e-06,0.0865124,0.02302732779521488,0.14325790725191645,1.091920596163476e-06,0.023030499184846676,-1.0657294321481103e-06,-0.04326353344270795
105,0.094855,333.852,333.637,0.318207,333.527,-0.0134511,0.0712745,0.0229971,0.0229976,-0.0446803,0.13525,4.95407e-07,1.08152e-06,0.087419,0.023263572078555672,0.14482295431715753,4.954071226581647e-07,0.02326408371046962,1.0815205848668796e-06,-0.043696836911412906
106,0.095855,333.693,333.863,-0.492215,334.082,0.0358953,-0.0831812,0.0232242,0.0232275,-0.0451387,0.136619,1.24677e-06,-1.18473e-06,0.0883273,0.02349598162487987,0.1463912902226021,1.246770777285633e-06,0.023499359167192146,-1.1847292982203328e-06,-0.04413510582246383
107,0.096855,334.374,334.492,-0.439488,334.709,0.0292548,-0.0687515,0.0234529,0.0234562,-0.0455936,0.137986,1.27717e-06,-1.27926e-06,0.0892335,0.02373008192422632,0.14795947872897597,1.2771708155501216e-06,0.023733460239070858,-1.2792591816968013e-06,-0.04456982987734237
108,0.097855,335.711,335.484,0.304685,335.389,-0.0137381,0.0745586,0.0236831,0.0236838,-0.0460454,0.13935,6.85208e-07,8.19788e-07,0.0901378,0.023965771715939388,0.14952636383066964,6.852082348185462e-07,0.023966488492230598,8.197883361038549e-07,-0.04500139573013662
109,0.098855,335.567,335.713,-0.470924,335.931,0.033833,-0.0737435,0.0239096,0.0239131,-0.0465025,0.140716,1.40528e-06,-1.32909e-06,0.0910437,0.024197726231090178,0.1510976898149743,1.4052809873543737e-06,0.02420131092940525,-1.3290891167638819e-06,-0.04543782583844813
110,0.099855,336.233,336.327,-0.416506,336.542,0.0265937,-0.0598889,0.0241378,0.0241411,-0.0469562,0.142079,1.4169e-06,-1.39316e-06,0.0919475,0.0244314748219161,0.1526677056889496,1.4169010038589391e-06,0.024434855451360926,-1.3931590295834795e-06,-0.04587081246642133
111,0.1009,337.515,337.286,0.288209,337.202,-0.0140166,0.0753551,0.0243673,0.0243682,-0.047407,0.14344,8.54344e-07,6.05802e-07,0.0928495,0.024666608825982594,0.15423755447617005,8.543443650310678e-07,0.024667531026345557,6.058021835286809e-07,-0.04630083696935605
112,0.1019,337.402,337.523,-0.438928,337.733,0.030418,-0.0640078,0.0245933,0.0245967,-0.0478626,0.144801,1.52091e-06,-1.39033e-06,0.093753,0.024898209649484526,0.1558095412821816,1.5209111565717137e-06,0.02490169430932121,-1.3903290334571494e-06,-0.0467352433427467
113,0.1029,338.048,338.122,-0.386896,338.329,0.0230369,-0.0514923,0.0248208,0.0248241,-0.0483151,0.146161,1.51601e-06,-1.43597e-06,0.0946545,0.025131400516635205,0.1573825116357186,1.5160111490608585e-06,0.02513478345583886,-1.435968968954704e-06,-0.04716649806639439
114,0.1039,339.271,339.044,0.27042,338.969,-0.0143145,0.0743083,0.0250495,0.0250505,-0.0487648,0.147518,9.93612e-07,4.38367e-07,0.0955543,0.025365874879054617,0.15895414581662637,9.936124936160695e-07,0.025366900245442192,4.383670961782826e-07,-0.04759489096085212
115,0.1049,339.193,339.292,-0.402554,339.491,0.0264965,-0.0548885,0.025275,0.0252783,-0.049219,0.148876,1.59885e-06,-1.39277e-06,0.0964554,0.0255971209558552,0.16052907468130884,1.5988512782616482e-06,0.025600505431938814,-1.3927690301063222e-06,-0.04802737513678634
116,0.1059,339.82,339.875,-0.355144,340.072,0.0192174,-0.0440504,0.0255019,0.0255051,-0.0496703,0.150231,1.57962e-06,-1.42854e-06,0.0973546,0.02582985534531801,0.16210265743905894,1.5796212475827076e-06,0.025833138006107426,-1.4285389796642178e-06,-0.04845690345203246
117,0.1069,340.981,340.761,0.25288,340.693,-0.0145726,0.0720691,0.0257299,0.025731,-0.0501191,0.151585,1.10124e-06,3.13601e-07,0.0982521,0.026063771217732956,0.16367721016887504,1.1012406062604896e-06,0.026064899888502024,3.1360104912891984e-07,-0.048883860177507565
118,0.1079,340.941,341.02,-0.365819,341.206,0.022554,-0.046832,0.0259549,0.0259581,-0.0505719,0.152939,1.64458e-06,-1.3557e-06,0.0991508,0.026294661540444242,0.16525389628706533,1.6445813522114605e-06,0.026297945688615654,-1.3556990809959757e-06,-0.04931442807769004
119,0.1089,341.547,341.588,-0.324092,341.773,0.0155226,-0.0377549,0.0261811,0.0261842,-0.0510219,0.154291,1.61355e-06,-1.38766e-06,0.100048,0.026526835650786618,0.1668303850210906,1.6135513016823921e-06,0.026530017888909407,-1.3876590372330355e-06,-0.049742140342577845
120,0.1099,342.65,342.439,0.236536,342.377,-0.0147569,0.0691456,0.0264084,0.0264096,-0.0514697,0.155642,1.17883e-06,2.25549e-07,0.100943,0.026760191720442528,0.1684078382009464,1.1788306948368188e-06,0.026761423833411957,2.2554902545657285e-07,-0.05016757055119958
121,0.1109,342.646,342.709,-0.331149,342.881,0.0188885,-0.0400057,0.0266329,0.0266359,-0.0519211,0.156992,1.66411e-06,-1.29403e-06,0.101839,0.026990725259905313,0.16998625397344203,1.66411138469158e-06,0.026993806236702556,-1.2940291627128175e-06,-0.050596228154553
122,0.1119,344.045,343.699,0.544967,343.505,-0.0367356,0.123535,0.0268605,0.0268603,-0.0523668,0.15834,8.30335e-07,1.23867e-06,0.102732,0.027224494950956135,0.17156445891494876,8.303353447036699e-07,0.027224289506077692,1.2386707670675179e-06,-0.051019283130859794
123,0.1129,344.379,344.131,0.355835,344.04,-0.039822,0.075114,0.0270854,0.0270855,-0.0528158,0.159688,6.30214e-07,9.28184e-07,0.103627,0.027455543720330988,0.17314479271124217,6.302141986047616e-07,0.027455646465890382,9.281844308706155e-07,-0.05144527982931846
124,0.1139,344.566,344.554,-0.0196115,344.534,0.00725398,0.00266095,0.0273097,0.0273113,-0.0532654,0.161034,1.24063e-06,3.6531e-08,0.10452,0.02768602784661578,0.17472490878178681,1.2406307696721797e-06,0.02768767214557588,3.653100066891568e-08,-0.05187165417537187
125,0.1149,345.375,345.189,0.279807,345.108,-0.0304655,0.0588964,0.0275353,0.0275355,-0.0537119,0.162379,6.49693e-07,9.70982e-07,0.105412,0.027917899968689985,0.17630597681400073,6.496932110078291e-07,0.027918105552290573,9.709824713155513e-07,-0.05229489898534723
126,0.1159,345.425,345.521,-0.226804,345.585,0.019144,-0.0398955,0.0277589,0.0277611,-0.0541612,0.163723,1.33579e-06,-4.16145e-07,0.106305,0.02814776810942332,0.17788799492487128,1.3357908921207695e-06,0.02815003003700145,-4.16144913417682e-07,-0.05272060724471117
127,0.1169,346.605,346.343,0.456478,346.183,-0.0412675,0.0891674,0.027985,0.0279845,-0.0546056,0.165065,4.24305e-07,1.54557e-06,0.107194,0.02838025860185267,0.17946978175562878,4.2430508995217053e-07,0.02837974441185187,1.5455711943612727e-06,-0.053141484680958584
128,0.1179,346.197,346.434,-0.510556,346.613,0.0373963,-0.0958851,0.028207,0.0282102,-0.0550557,0.166407,1.53885e-06,-1.13736e-06,0.108086,0.028608584362483924,0.18105369276932115,1.5388511840352948e-06,0.02861187591522052,-1.137359353253764e-06,-0.05356756980105404
129,0.1189,346.788,346.948,-0.446981,347.144,0.0250849,-0.0780641,0.0284312,0.0284343,-0.0555018,0.167747,1.47758e-06,-1.21249e-06,0.108975,0.028839224260864604,0.18263736554141907,1.4775810917022625e-06,0.028842413667403255,-1.2124892648790464e-06,-0.05398967914967545
130,0.1199,348.02,347.826,0.285115,347.725,-0.0211359,0.0633872,0.0286568,0.0286573,-0.055945,0.169085,8.23404e-07,8.04331e-07,0.109862,0.02907135657339821,0.18422079341353315,8.234043389343526e-07,0.02907187110920506,8.043313235450711e-07,-0.05440885802697559
131,0.1209,347.828,347.983,-0.436423,348.175,0.0265257,-0.0729926,0.0288788,0.0288819,-0.056393,0.170424,1.50971e-06,-1.1802e-06,0.110751,0.029299835774810434,0.18580752713706783,1.50971113965781e-06,0.029303026609247107,-1.1801993036186786e-06,-0.05483238798078616
132,0.1219,348.426,348.514,-0.352753,348.693,0.0173403,-0.0536543,0.0291025,0.0291054,-0.0568378,0.17176,1.458e-06,-1.14081e-06,0.111638,0.029530115903945386,0.1873928247363199,1.4580010629927642e-06,0.02953310154561062,-1.1408093493203708e-06,-0.05525270504916646
133,0.1229,349.496,349.314,0.222597,349.247,-0.0160663,0.0569705,0.0293271,0.029328,-0.0572804,0.173095,9.82809e-07,4.6435e-07,0.112523,0.029761374337327284,0.18897905272894344,9.828094829078537e-07,0.029762301122981283,4.643501079204526e-07,-0.05567075768003993
134,0.1239,349.461,349.545,-0.324327,349.702,0.0189422,-0.0469258,0.029549,0.0295518,-0.0577266,0.17443,1.48327e-06,-1.01264e-06,0.11341,0.029989903740692325,0.19056739975007386,1.4832710999446164e-06,0.0299927877164603,-1.0126394872633782e-06,-0.05609202339659247
135,0.1249,350.779,350.463,0.515067,350.273,-0.0367368,0.110119,0.0297738,0.0297736,-0.0581674,0.175762,6.54836e-07,1.37385e-06,0.114293,0.030221471498294017,0.1921542921622621,6.548362143643516e-07,0.030221265454020374,1.373850943675592e-06,-0.05650800634330211
136,0.1259,350.172,350.411,-0.607786,350.67,0.0392569,-0.10405,0.0299939,0.0299976,-0.0586149,0.177095,1.73779e-06,-1.70024e-06,0.115179,0.030448248200031225,0.19374449346741685,1.7377915100258434e-06,0.030452060865603148,-1.7002385546138754e-06,-0.05693012455446944
137,0.1269,350.786,350.936,-0.495882,351.173,0.0291155,-0.0770512,0.0302166,0.0302202,-0.0590577,0.178425,1.71836e-06,-1.65113e-06,0.116062,0.03067775457949229,0.19533322991927604,1.718361476443775e-06,0.030681465026087595,-1.651128636925847e-06,-0.057347623454238716
138,0.1279,352.035,351.808,0.281145,351.729,-0.0219522,0.0718652,0.0304407,0.0304415,-0.0594976,0.179754,1.00376e-06,4.87006e-07,0.116943,0.03090875534696269,0.1969228838729149,1.0037605038260011e-06,0.030909580074296894,4.870061185435759e-07,-0.05776220504077567
139,0.1289,351.803,351.939,-0.450928,352.15,0.0288914,-0.0670882,0.0306611,0.0306645,-0.0599426,0.181083,1.73672e-06,-1.50335e-06,0.117826,0.03113599267727518,0.19851465188113626,1.7367215081609544e-06,0.031139498545610156,-1.5033488699467412e-06,-0.05818140758004986
140,0.1299,352.392,352.453,-0.347681,352.642,0.0176984,-0.0447543,0.0308832,0.0308863,-0.0603842,0.18241,1.66083e-06,-1.38968e-06,0.118707,0.031365033415281296,0.2001061365407133,1.6608313790911211e-06,0.03136823065184058,-1.389679034402569e-06,-0.05859722285169311
141,0.1309,353.413,353.215,0.20539,353.167,-0.0156938,0.0607312,0.0311062,0.0311074,-0.0608238,0.183735,1.18911e-06,1.61581e-07,0.119586,0.03159505346401503,0.2016973311052337,1.1891107070116647e-06,0.03159629137882192,1.6158101301400052e-07,-0.05901097256367782
142,0.1319,353.388,353.441,-0.300936,353.599,0.017111,-0.0359435,0.0313266,0.0313295,-0.0612667,0.185061,1.65435e-06,-1.18153e-06,0.120466,0.03182244207110263,0.20329183869117662,1.6543513683409117e-06,0.03182543436052332,-1.1815293019523665e-06,-0.05942764432515657
143,0.1329,354.618,354.301,0.473938,354.138,-0.0356097,0.108028,0.0315497,0.0315497,-0.0617046,0.186383,8.70011e-07,1.02661e-06,0.121344,0.03205266733860235,0.20488364245238166,8.700113784954056e-07,0.03205266733860235,1.0266105270329007e-06,-0.05983943079247933
144,0.1339,354.081,354.274,-0.547301,354.518,0.0346436,-0.0869819,0.0317684,0.0317721,-0.0621487,0.187707,1.862e-06,-1.73827e-06,0.122223,0.0322784019401281,0.20647996492727416,1.8620017334658456e-06,0.03228222137728132,-1.738268489259731e-06,-0.060256863403492456
145,0.1349,354.664,354.773,-0.438339,354.996,0.0238113,-0.0620855,0.0319895,0.031993,-0.0625885,0.189028,1.81278e-06,-1.65518e-06,0.1231,0.032506663928230095,0.2080747781031278,1.8127816430180133e-06,0.032510277707877844,-1.6551786301555182e-06,-0.06067007156383275
146,0.1359,355.799,355.579,0.246861,355.517,-0.0208896,0.0685818,0.0322119,0.0322128,-0.0630256,0.190347,1.18325e-06,2.38074e-07,0.123976,0.03273631894697915,0.20966928007832752,1.1832507000875125e-06,0.03273724841008452,2.3807402826925284e-07,-0.06108056295612285
147,0.1369,355.638,355.732,-0.383601,355.922,0.0226721,-0.0512332,0.0324309,0.0324341,-0.0634671,0.191667,1.80123e-06,-1.45053e-06,0.124852,0.03296251296816988,0.21126709785576092,1.8012316223003921e-06,0.03296581845350022,-1.4505289479549432e-06,-0.06149500439289857
148,0.1379,357.03,356.662,0.571184,356.463,-0.0446331,0.12671,0.0326535,0.0326532,-0.0639025,0.192984,8.05802e-07,1.24777e-06,0.125726,0.03319247601749442,0.21286338754967127,8.058023246437784e-07,0.03319216605979802,1.2477707784785963e-06,-0.06190354052321634
149,0.1389,357.24,356.993,0.348769,356.904,-0.0421512,0.0729491,0.0328731,0.0328732,-0.0643415,0.194301,6.75756e-07,8.43545e-07,0.1266,0.03341938999947125,0.21446178094209034,6.757562283077334e-07,0.03341949334141536,8.435453557886774e-07,-0.06231527448670915
150,0.1399,357.359,357.334,-0.00230275,357.313,0.00295145,0.00552202,0.0330922,0.0330937,-0.0647809,0.195617,1.2452e-06,2.28869e-08,0.127474,0.03364583699418233,0.21606106474374087,1.245200775157329e-06,0.033647387464100786,2.2886900152840894e-08,-0.06272720264785503
151,0.1409,358.029,357.861,0.241178,357.792,-0.0295392,0.0509492,0.0333125,0.0333128,-0.0652176,0.196931,7.3097e-07,7.79347e-07,0.128347,0.03387357425641069,0.21766001926587264,7.309702672042562e-07,0.03387388441852934,7.793473035810905e-07,-0.0631364203192768
152,0.1419,358.08,358.144,-0.172149,358.194,0.0131562,-0.0293299,0.0335311,0.033533,-0.0656564,0.198245,1.30578e-06,-3.31002e-07,0.129219,0.03409960372386389,0.21926107619522583,1.305780852556282e-06,0.034101568514977476,-3.3100194518631554e-07,-0.0635474258768266
153,0.1429,359.03,358.814,0.357038,358.69,-0.0361506,0.0699339,0.0337517,0.0337515,-0.0660914,0.199557,5.61799e-07,1.16877e-06,0.13009,0.034327751260193384,0.22086179657014404,5.617991578610315e-07,0.03432754439466379,1.1687706829022204e-06,-0.06395469415929667
154,0.1439,358.77,358.932,-0.364808,359.061,0.026083,-0.0674129,0.0339691,0.0339717,-0.0665306,0.200868,1.42334e-06,-7.95771e-07,0.130961,0.03455263855768087,0.22246339600448484,1.4233410130515267e-06,0.034555328398037766,-7.957706833483513e-07,-0.0643657149908402
155,0.1449,360.146,359.814,0.59912,359.589,-0.0522432,0.113867,0.0341903,0.0341892,-0.0669632,0.202177,2.65243e-07,1.89044e-06,0.131829,0.03478150691323667,0.22406464838089213,2.6524303509134484e-07,0.034780368654205196,1.890441786889241e-06,-0.06477038284656711
156,0.1459,360.317,360.12,0.350834,360.007,-0.0433201,0.0567862,0.0344085,0.034408,-0.0673997,0.203487,2.13304e-07,1.38167e-06,0.132699,0.03500732087345226,0.22566922383772758,2.1330402266706017e-07,0.035006803369921125,1.3816709545366734e-06,-0.06517852149171499
157,0.1469,360.428,360.444,0.00838817,360.397,0.00252969,-0.00752635,0.0346262,0.0346272,-0.0678364,0.204794,7.9047e-07,5.52055e-07,0.133568,0.035232666495187415,0.22727222084363374,7.904703123173817e-07,0.03523370172837148,5.520551524806905e-07,-0.06558666890590525
158,0.1479,361.059,360.941,0.227665,360.856,-0.0270365,0.0346181,0.0348451,0.034845,-0.0682705,0.206101,3.23279e-07,1.20558e-06,0.134435,0.03545930373042361,0.22887731433638225,3.232790521945361e-07,0.03545920018449844,1.2055807268041008e-06,-0.0659922097039346
159,0.1489,361.126,361.218,-0.15228,361.242,0.0135892,-0.0379469,0.0350623,0.0350638,-0.0687066,0.207406,8.73354e-07,1.61777e-07,0.135302,0.035684229917293475,0.23048204609131973,8.733543814809508e-07,0.03568578344480344,1.6177701311903547e-07,-0.06639944169789236
160,0.1499,362.011,361.844,0.325761,361.715,-0.0314495,0.0526158,0.0352814,0.035281,-0.0691391,0.20871,2.0129e-07,1.48677e-06,0.136167,0.03591117319279635,0.23208764129998394,2.0129002020752296e-07,0.03591075882840977,1.4867711053412336e-06,-0.06680313663403525
161,0.1509,361.806,361.977,-0.321128,362.075,0.02566,-0.0693202,0.0354976,0.0354998,-0.0695754,0.210014,9.96513e-07,-2.88781e-07,0.137034,0.03613516140069328,0.23369533157048372,9.965134966094524e-07,0.03613744090055593,-2.8878095825746186e-07,-0.0672102016178383
162,0.1519,363.061,362.788,0.533434,362.575,-0.0446616,0.0918989,0.0357173,0.0357162,-0.0700058,0.211315,-3.2391e-08,2.06215e-06,0.137897,0.03636282530361701,0.2353014137267615,-3.2390999438192125e-08,0.03636168530513628,2.0621521261698916e-06,-0.06761158796252442
163,0.1529,362.371,362.675,-0.598968,362.889,0.0463642,-0.121043,0.0359319,0.0359351,-0.0704432,0.212617,1.25328e-06,-1.03955e-06,0.138763,0.03658525263152579,0.23691082366594762,1.2532807853737893e-06,0.03658856970964153,-1.0395494596249222e-06,-0.06801932547525491
164,0.1539,362.948,363.131,-0.446323,363.321,0.0301745,-0.0851534,0.0361495,0.0361523,-0.0708755,0.213916,1.15738e-06,-8.92975e-07,0.139626,0.03681083812531005,0.2385186148601881,1.1573806697473543e-06,0.03681374119972114,-8.929746012631412e-07,-0.06842213364759231
165,0.1549,364.02,363.87,0.219082,363.79,-0.015617,0.0431167,0.036368,0.0363685,-0.0713056,0.215214,5.37696e-07,8.7081e-07,0.140487,0.03703740604508443,0.24012725580439565,5.376961444980566e-07,0.03703792456391697,8.708103791388311e-07,-0.06882271913582605
166,0.1559,363.87,364.0,-0.349858,364.151,0.0257401,-0.0626865,0.0365835,0.0365861,-0.0717398,0.216512,1.13574e-06,-6.77766e-07,0.14135,0.03726091168795498,0.24173798612025754,1.1357406448642138e-06,0.03726360856983146,-6.777657702849993e-07,-0.06922694854662137
167,0.1569,365.12,364.828,0.503834,364.633,-0.0365931,0.0969145,0.0368022,0.0368016,-0.0721684,0.217807,2.38383e-07,1.66897e-06,0.142209,0.037487785457083644,0.24334707847470893,2.3838302842804637e-07,0.0374871629645992,1.6689713926432148e-06,-0.06962579239813138
168,0.1579,364.457,364.707,-0.577921,364.945,0.0434758,-0.106609,0.0370161,0.0370194,-0.0726036,0.219104,1.375e-06,-1.26061e-06,0.143071,0.03770972783028359,0.24496074587258754,1.3750009453250556e-06,0.03771315227803562,-1.2606092054667783e-06,-0.0700306031600687
169,0.1589,365.028,365.165,-0.42016,365.364,0.0288063,-0.0713637,0.0372327,0.0372356,-0.0730341,0.220397,1.29281e-06,-1.07011e-06,0.14393,0.03793452010145559,0.24657152125887372,1.2928108357179724e-06,0.037937530115928375,-1.0701094274034872e-06,-0.07043086882204275
170,0.1599,366.044,365.875,0.200928,365.817,-0.0138419,0.0473969,0.0374502,0.037451,-0.0734625,0.22169,7.19288e-07,5.88523e-07,0.144788,0.03816029541175259,0.24818438072480142,7.192882587325755e-07,0.03816112594032117,5.88523173083999e-07,-0.0708290109497065
171,0.1609,365.93,366.019,-0.318343,366.172,0.0238702,-0.0497507,0.0376649,0.0376675,-0.0738946,0.222982,1.26495e-06,-8.04085e-07,0.145647,0.038383212356455365,0.24979807716812652,1.264950800106135e-06,0.03838591215631704,-8.040846767309873e-07,-0.07123041900361948
172,0.1619,367.095,366.801,0.460261,366.635,-0.033637,0.0948388,0.0378824,0.0378822,-0.0743217,0.224272,4.39104e-07,1.34432e-06,0.146503,0.0386090852679315,0.25141135702946227,4.3910409641689796e-07,0.03860887754613529,1.3443209037067305e-06,-0.07162701179324416
173,0.1629,366.52,366.721,-0.51789,366.945,0.0389704,-0.0895301,0.0380956,0.0380989,-0.0747547,0.225563,1.46628e-06,-1.28199e-06,0.147361,0.038830540331181496,0.2530279723920721,1.4662810750021293e-06,0.038833968477621106,-1.2819891782589465e-06,-0.07202891027983604
174,0.1639,367.063,367.162,-0.374838,367.352,0.0246759,-0.058491,0.0383113,0.0383142,-0.0751834,0.226851,1.37338e-06,-1.09682e-06,0.148217,0.039054640247037975,0.25464291221850344,1.3733809431926147e-06,0.0390576535098639,-1.0968193985272379e-06,-0.07242664622520767
175,0.1649,368.006,367.834,0.182834,367.788,-0.0130318,0.0475896,0.0385277,0.0385287,-0.0756102,0.228138,8.64563e-07,4.02295e-07,0.149071,0.03927951600186663,0.25625867716824846,8.645633737813796e-07,0.03928055528190222,4.022950810256276e-07,-0.07282245006205179
176,0.1659,367.936,367.994,-0.278561,368.138,0.0198609,-0.0389618,0.0387416,0.0387442,-0.0760403,0.229425,1.3359e-06,-8.18505e-07,0.149927,0.039501841667221704,0.25787652294620966,1.3359008923519156e-06,0.03950454437552353,-8.185046650455163e-07,-0.07322114338113572
177,0.1669,369.002,368.725,0.409655,368.582,-0.0308984,0.0881224,0.038958,0.0389581,-0.0764658,0.230709,6.04217e-07,1.0843e-06,0.150779,0.039726814206909156,0.259492673748448,6.04217182509359e-07,0.03972691817959584,1.0843005877614331e-06,-0.0736154038997533
178,0.1679,368.533,368.69,-0.448409,368.893,0.0326774,-0.0736986,0.0391706,0.0391737,-0.0768966,0.231994,1.49675e-06,-1.20172e-06,0.151634,0.03994788362645618,0.26111216213265664,1.4967511201557926e-06,0.03995110746989239,-1.2017192779767427e-06,-0.07401440443286766
179,0.1689,369.044,369.113,-0.325186,369.287,0.0194603,-0.0476058,0.0393852,0.039388,-0.0773235,0.233277,1.39833e-06,-1.03902e-06,0.152486,0.04017108039043871,0.2627312074321413,1.3983309776754993e-06,0.040173992873541176,-1.0390194602472036e-06,-0.07440962331814205
180,0.1699,369.912,369.745,0.165354,369.707,-0.0126796,0.0453862,0.0396006,0.0396017,-0.0777488,0.234558,9.60249e-07,2.87087e-07,0.153337,0.0403951573733794,0.2643498025977278,9.602494610572165e-07,0.040396301808682145,2.8708704125079976e-07,-0.07480319320677564
181,0.1709,369.887,369.922,-0.238037,370.052,0.0154261,-0.0303312,0.0398137,0.0398161,-0.0781768,0.23584,1.35651e-06,-7.67113e-07,0.154188,0.0406168892061034,0.26597173848341993,1.3565109200364134e-06,0.040619386689634496,-7.671127058017646e-07,-0.07519909271154557
182,0.1719,370.855,370.6,0.359559,370.478,-0.0282899,0.0794749,0.040029,0.0400292,-0.0786008,0.237119,7.21895e-07,8.86654e-07,0.155037,0.04084095814250488,0.26759195224277166,7.21895260458183e-07,0.040841166310717325,8.866543930174942e-07,-0.07559112517947941
183,0.1729,370.491,370.612,-0.380191,370.789,0.0263237,-0.0600012,0.0402409,0.0402438,-0.0790294,0.238398,1.48098e-06,-1.06998e-06,0.155888,0.04106153571090343,0.26921423958129287,1.4809810966465164e-06,0.04106455479373472,-1.0699794276147756e-06,-0.07598724192934425
184,0.1739,371.813,371.458,0.579061,371.243,-0.0464648,0.117232,0.0404567,0.040456,-0.0794514,0.239675,4.27406e-07,1.55848e-06,0.156735,0.04128622103298407,0.27083606147812334,4.274060914077893e-07,0.04128549213288446,1.5584812145252869e-06,-0.0763770930488783
185,0.1749,371.893,371.684,0.310696,371.597,-0.0374366,0.0572939,0.0406694,0.0406693,-0.0798773,0.240952,4.04595e-07,1.00229e-06,0.157584,0.04150772616843379,0.27245995576445514,4.045950818820643e-07,0.041507622017666446,1.0022905023721052e-06,-0.07677038028848626
186,0.1759,371.999,371.968,0.0331636,371.931,0.000801297,0.00487809,0.0408818,0.0408829,-0.0803031,0.242227,8.81356e-07,3.6454e-07,0.158432,0.04172896590430031,0.274083376919118,8.813563883158793e-07,0.04173011180679298,3.6454006635544545e-07,-0.0771634077790685
187,0.1769,372.488,372.369,0.171433,372.317,-0.0217962,0.0308576,0.0410951,0.0410955,-0.080727,0.243502,5.24367e-07,7.95614e-07,0.159278,0.0419511903921268,0.27570886925585114,5.243671374888237e-07,0.0419516071726862,7.956143164289387e-07,-0.07755451530941326
188,0.1779,372.609,372.637,-0.0846185,372.653,0.00795875,-0.0184671,0.0413072,0.0413086,-0.081152,0.244775,9.18447e-07,1.15585e-07,0.160124,0.0421722116780876,0.27733388074677956,9.184474216716865e-07,0.04217367072020539,1.1558500667696592e-07,-0.07794647134384969
189,0.1789,373.262,373.125,0.217677,373.048,-0.0233084,0.0379524,0.0415205,0.0415207,-0.0815745,0.246047,4.51504e-07,9.53074e-07,0.160969,0.04239453072032151,0.27895968323426135,4.5150410188377066e-07,0.04239473919924852,9.530744542463054e-07,-0.07833595667513693
190,0.1799,373.237,373.311,-0.178604,373.37,0.0142628,-0.0366104,0.0417319,0.0417336,-0.0819994,0.247318,9.61719e-07,-1.05934e-07,0.161814,0.042614916218042254,0.2805862744714116,9.617194625111125e-07,0.04261668866490642,-1.059339943543236e-07,-0.07872748854031031
191,0.1809,374.088,373.901,0.32346,373.776,-0.0299065,0.0569634,0.0419453,0.0419451,-0.0824205,0.248588,3.15525e-07,1.26252e-06,0.162657,0.042837433982964246,0.2822136522061187,3.155250498654283e-07,0.04283722541549828,1.262520797018496e-06,-0.0791153547239295
192,0.1819,373.815,373.958,-0.316869,374.076,0.0246467,-0.0626797,0.0421557,0.042158,-0.0828455,0.249858,1.06825e-06,-4.51111e-07,0.163502,0.043056870062940344,0.2838430980235034,1.0682505706682832e-06,0.043059269096500374,-4.5111089830296436e-07,-0.0795066475425581
193,0.1829,374.973,374.7,0.495948,374.504,-0.0421865,0.0885107,0.0423695,0.0423687,-0.0832648,0.251125,1.03883e-07,1.74706e-06,0.164343,0.04327989946275301,0.2854707581336402,1.0388300530905781e-07,0.043279064839167436,1.7470615261139244e-06,-0.0798925294994377
194,0.1839,374.308,374.559,-0.534652,374.767,0.0417001,-0.103484,0.0425787,0.0425817,-0.0836904,0.252393,1.27307e-06,-1.01313e-06,0.165186,0.043498176448697246,0.28710176889724615,1.2730708103259047e-06,0.043501306947922425,-1.0131294867488094e-06,-0.08028404391870447
195,0.1849,374.841,374.969,-0.362318,375.137,0.0241134,-0.0659774,0.0427905,0.0427931,-0.0841115,0.253658,1.13474e-06,-7.64682e-07,0.166027,0.04371921276938928,0.28873098289549604,1.134740643893295e-06,0.043721926442870096,-7.646817076212287e-07,-0.08067125477484272
196,0.1859,375.709,375.58,0.154724,375.53,-0.0118702,0.0327271,0.0430031,0.0430038,-0.0845309,0.254922,6.54165e-07,5.86769e-07,0.166866,0.04394113106310282,0.29036096879194395,6.541652139979703e-07,0.04394186182215032,5.867691721395119e-07,-0.08105674040860233
197,0.1869,375.664,375.73,-0.240243,375.846,0.0173802,-0.0399934,0.0432132,0.0432154,-0.0849532,0.256186,1.06926e-06,-4.60446e-07,0.167707,0.04416048613718271,0.29199301629322494,1.0692605716400294e-06,0.04416278329277912,-4.604458939683198e-07,-0.08144472821773585
198,0.1879,376.595,376.372,0.345682,376.242,-0.0268284,0.0680103,0.0434256,0.0434256,-0.0853716,0.257448,4.3733e-07,1.12547e-06,0.168545,0.04438228937910882,0.29362454075518607,4.3733009569280057e-07,0.04438228937910882,1.1254706333563291e-06,-0.08182897135417988
199,0.1889,376.236,376.369,-0.360357,376.529,0.0272865,-0.0636593,0.0436346,0.0436372,-0.0857943,0.25871,1.19015e-06,-7.41385e-07,0.169384,0.04460058808900946,0.29525812550078356,1.1901507082079377e-06,0.044603304054069204,-7.413847251669381e-07,-0.08221700023230749
200,0.1899,377.473,377.158,0.53794,376.948,-0.0426322,0.102006,0.0438474,0.0438466,-0.0862109,0.25997,1.907e-07,1.68146e-06,0.17022,0.04482290274759548,0.29689117934678455,1.907000182210794e-07,0.04482206688960777,1.6814614136606565e-06,-0.08259926899789816
201,0.1909,376.695,376.949,-0.585674,377.195,0.0452993,-0.107031,0.0440551,0.0440584,-0.0866344,0.26123,1.41779e-06,-1.30211e-06,0.171059,0.045039935002515685,0.29852629213749426,1.417791005042801e-06,0.0450433836399915,-1.3021091522791295e-06,-0.08298770595014726
202,0.1919,377.249,377.367,-0.383008,377.555,0.0265818,-0.0640739,0.0442657,0.0442685,-0.0870529,0.262488,1.27358e-06,-9.75826e-07,0.171895,0.04526004358944791,0.30016086614448545,1.2735808110342361e-06,0.04526297032166737,-9.758255238301317e-07,-0.08337139530261017
203,0.1929,378.119,377.973,0.148354,377.938,-0.0115993,0.0366215,0.0444771,0.044478,-0.0874698,0.263745,7.67857e-07,4.12695e-07,0.17273,0.04548103492062339,0.30179619594268203,7.678572948588425e-07,0.045481975853978174,4.1269508521679654e-07,-0.08375345812138024
204,0.1939,378.067,378.117,-0.241732,378.243,0.017969,-0.0354949,0.044686,0.0446883,-0.0878897,0.265002,1.18816e-06,-6.10687e-07,0.173565,0.04569945872239001,0.3034335826429273,1.1881607058228383e-06,0.04570186383391106,-6.106868135624666e-07,-0.0841381092811524
205,0.1949,378.982,378.746,0.339551,378.627,-0.026958,0.0710215,0.0448971,0.0448972,-0.0883056,0.266256,5.48488e-07,9.64277e-07,0.174398,0.04592022917962835,0.30506911361915856,5.484881504536077e-07,0.045920333771656496,9.642774649876173e-07,-0.08451893704287983
206,0.1959,378.624,378.74,-0.352311,378.903,0.0267446,-0.0580931,0.0451049,0.0451076,-0.0887259,0.267511,1.29309e-06,-8.50147e-07,0.175233,0.04613759398667305,0.30670800354507155,1.2930908359631843e-06,0.046140418561990026,-8.501466386423573e-07,-0.0849036328841466
207,0.1969,379.826,379.506,0.521191,379.309,-0.0423099,0.102255,0.0453164,0.0453158,-0.0891401,0.268763,3.07639e-07,1.50345e-06,0.176064,0.046358875487495066,0.3083450265280605,3.0763904734776304e-07,0.0463582476723583,1.503451130258071e-06,-0.08528258731252603
208,0.1979,379.076,379.306,-0.561485,379.549,0.043271,-0.0989972,0.0455229,0.0455263,-0.089561,0.270016,1.49679e-06,-1.35256e-06,0.176898,0.04657497090636742,0.30998541033213534,1.4967911201591022e-06,0.04657852926731776,-1.3525590852880853e-06,-0.08566751085868318
209,0.1989,379.616,379.713,-0.360659,379.898,0.0242599,-0.0571395,0.0457324,0.0457351,-0.0899771,0.271267,1.34046e-06,-1.01469e-06,0.177729,0.04679425133159487,0.31162522757228506,1.3404608985023714e-06,0.04679707767988894,-1.0146894852125499e-06,-0.08604788546498998
210,0.1999,380.442,380.294,0.136232,380.267,-0.0114458,0.0365894,0.0459424,0.0459434,-0.0903917,0.272516,8.66615e-07,2.85272e-07,0.178559,0.04701410120780358,0.3132644709759267,8.666153754610662e-07,0.04701514822242814,2.852720406565368e-07,-0.08642673147147228
211,0.2009,380.412,380.443,-0.219454,380.564,0.0153863,-0.029207,0.0461502,0.0461524,-0.090809,0.273766,1.24398e-06,-6.37103e-07,0.17939,0.04723169334507449,0.31490707798014306,1.2439807737241182e-06,0.04723399725733435,-6.371027970741849e-07,-0.0868078860629925
212,0.2019,381.265,381.037,0.309878,380.933,-0.0257115,0.067251,0.0463599,0.0463602,-0.0912227,0.275013,6.56854e-07,7.96869e-07,0.180218,0.04745132085830894,0.3165477898776423,6.568542156859536e-07,0.04745163509375239,7.968693174209562e-07,-0.08718559550594296
213,0.2029,380.964,381.054,-0.313261,381.205,0.022832,-0.048966,0.0465667,0.0465693,-0.0916403,0.276261,1.32401e-06,-8.24011e-07,0.181048,0.04766795619078379,0.31819186721027704,1.324010876491144e-06,0.047670680131010945,-8.240106604828767e-07,-0.08756670721959536
214,0.2039,382.064,381.766,0.467178,381.593,-0.0392733,0.0936592,0.0467767,0.0467764,-0.0920524,0.277506,4.3585e-07,1.27565e-06,0.181874,0.04788798956427942,0.3198340381242306,4.35850094904211e-07,0.0478876751979298,1.2756508136479994e-06,-0.08794264351255676
215,0.2049,381.425,381.614,-0.491641,381.834,0.0369902,-0.0842973,0.0469823,0.0469855,-0.0924705,0.278751,1.48808e-06,-1.2367e-06,0.182703,0.048103457484277135,0.32147825481420345,1.4880811072259803e-06,0.048106811420707274,-1.2366992352408346e-06,-0.08832389498712956
216,0.2059,381.93,382.002,-0.313714,382.17,0.0193723,-0.0477844,0.0471905,0.0471931,-0.0928842,0.279995,1.33212e-06,-9.334e-07,0.18353,0.0483216953418979,0.3231231967049144,1.3321208873762203e-06,0.04832442098184919,-9.333995644178472e-07,-0.08870097738690097
217,0.2069,382.686,382.546,0.122243,382.523,-0.0111375,0.034183,0.0473992,0.0474002,-0.0932966,0.281237,9.24038e-07,2.10046e-07,0.184355,0.04854050291149137,0.324767536638946,9.240384268860424e-07,0.048541551452518705,2.100460221310385e-07,-0.08907671962045272
218,0.2079,382.693,382.707,-0.185511,382.815,0.0115971,-0.0226659,0.0476058,0.047608,-0.0937113,0.282479,1.23802e-06,-5.7799e-07,0.185181,0.04875715375865486,0.3264139201119505,1.2380207663476028e-06,0.04875946102693107,-5.779898329949518e-07,-0.08945440118714054
219,0.2089,383.463,383.256,0.269809,383.167,-0.0234812,0.0598402,0.0478142,0.0478146,-0.094123,0.283719,7.33304e-07,6.54529e-07,0.186005,0.04897573752513562,0.3280596935415374,7.333042688628666e-07,0.04897615711551451,6.545292141613146e-07,-0.08982919565343706
220,0.2099,383.243,383.306,-0.260939,383.438,0.0177679,-0.0390103,0.04802,0.0480223,-0.0945378,0.28496,1.29353e-06,-7.14604e-07,0.186829,0.04919163894741252,0.32970883870414425,1.2935308366657239e-06,0.049194052090957285,-7.146037446226217e-07,-0.09020665621234791
221,0.2109,384.214,383.951,0.398314,383.805,-0.0347461,0.0809283,0.0482285,0.0482284,-0.094948,0.286197,5.39411e-07,1.05596e-06,0.187652,0.04941041821107883,0.33135470629685604,5.394111455281347e-07,0.04941031327004208,1.0559605574389508e-06,-0.09057977690968266
222,0.2119,383.719,383.864,-0.404687,384.05,0.0293537,-0.0678223,0.0484333,0.0484361,-0.0953631,0.287436,1.41622e-06,-1.03369e-06,0.188476,0.049625359473962405,0.3330052770954155,1.4162210029144973e-06,0.04962829842908345,-1.0336894656903794e-06,-0.09095719890493303
223,0.2129,385.01,384.664,0.577327,384.441,-0.0498936,0.111678,0.0486423,0.0486414,-0.0957715,0.288671,2.87196e-07,1.58398e-06,0.189296,0.049844754100032196,0.3346525555977311,2.871960411710006e-07,0.04984380924017873,1.5839812546047938e-06,-0.09132837618534051
224,0.2139,384.119,384.381,-0.619921,384.65,0.0469866,-0.109351,0.0488457,0.0488492,-0.0961873,0.289908,1.62103e-06,-1.54843e-06,0.190119,0.05005831424134621,0.33630454235216134,1.6210313138476096e-06,0.050061989451877675,-1.5484288011791136e-06,-0.09170612330745354
225,0.2149,384.683,384.788,-0.375037,384.98,0.0246236,-0.0590099,0.0490525,0.0490553,-0.0965978,0.291142,1.42337e-06,-1.10475e-06,0.190939,0.050275488755802344,0.3379545600089371,1.423371013054009e-06,0.050278429531287916,-1.1047493897464733e-06,-0.09207890142589226
226,0.2159,385.485,385.345,0.118754,385.326,-0.0121277,0.033715,0.0492597,0.0492608,-0.097007,0.292375,9.36381e-07,1.71192e-07,0.191759,0.0504931283837593,0.33960527543835983,9.363814383878122e-07,0.05049428392683608,1.7119201456416988e-07,-0.09245034673653518
227,0.2169,385.463,385.487,-0.206641,385.604,0.0133362,-0.0261032,0.0494648,0.049467,-0.0974187,0.293608,1.28892e-06,-6.64469e-07,0.192578,0.050708606620928576,0.3412580274552055,1.2889208307331756e-06,0.05071091818240592,-6.644687792212167e-07,-0.09282390802591589
228,0.2179,386.255,386.04,0.282122,385.947,-0.0255471,0.0624169,0.0496717,0.0496721,-0.0978272,0.294839,7.32499e-07,6.49547e-07,0.193396,0.05092602072235164,0.34291013274918325,7.324992683521714e-07,0.050926441092844055,6.495472109069311e-07,-0.0931944137785351
229,0.2189,385.993,386.064,-0.277801,386.203,0.0191531,-0.0414833,0.0498759,0.0498783,-0.0982391,0.29607,1.33829e-06,-7.89879e-07,0.194215,0.05114064172784216,0.3445642730370597,1.338290895436245e-06,0.0511431644684095,-7.898786880122799e-07,-0.09356785008501256
230,0.2199,386.983,386.712,0.411695,386.561,-0.0368219,0.0836398,0.050083,0.0500828,-0.0986462,0.297299,5.37471e-07,1.0515e-06,0.195031,0.05135835549822665,0.34621775838724567,5.3747114447944e-07,0.05135814522657656,1.0515005528510812e-06,-0.09393678351174861
231,0.2209,386.449,386.6,-0.418564,386.792,0.0305476,-0.0696449,0.0502861,0.050289,-0.0990583,0.298529,1.45609e-06,-1.09896e-06,0.195849,0.05157190806575751,0.3478746249941358,1.4560910601701949e-06,0.05157495762871278,-1.0989593961507893e-06,-0.09431009523709932
232,0.2219,387.752,387.401,0.586056,387.174,-0.0516129,0.11341,0.0504936,0.0504927,-0.0994636,0.299755,2.89297e-07,1.56496e-06,0.196664,0.05179013187661852,0.3495281326774762,2.892970418777452e-07,0.0517891852659258,1.5649612246093625e-06,-0.0946770969775731
233,0.2229,386.834,387.097,-0.625482,387.371,0.0476253,-0.109514,0.0506955,0.0506991,-0.0998765,0.300983,1.65078e-06,-1.58842e-06,0.197481,0.05200250974306875,0.35118637117445806,1.6507813624944134e-06,0.052006296958920784,-1.588418738429631e-06,-0.09505082764222561
234,0.2239,387.399,387.5,-0.367857,387.69,0.0240336,-0.057057,0.0509008,0.0509035,-0.100284,0.302208,1.43541e-06,-1.10906e-06,0.198295,0.05221850802978434,0.3528425887052711,1.4354110302594592e-06,0.052221349023591435,-1.1090593849960584e-06,-0.09541951930393344
235,0.2249,388.173,388.037,0.107583,388.023,-0.0117037,0.0319319,0.0511065,0.0511075,-0.10069,0.303432,9.6325e-07,1.13309e-07,0.199108,0.052434971639405026,0.3544994818455882,9.632504638368289e-07,0.05243602407490289,1.1330900639983099e-07,-0.09578670443547055
236,0.2259,388.165,388.18,-0.192219,388.292,0.0119447,-0.0230261,0.0513101,0.0513122,-0.101099,0.304656,1.28841e-06,-6.50762e-07,0.199922,0.05264926921438384,0.35615840426477474,1.2884108300248442e-06,0.05265147978017026,-6.507617882345329e-07,-0.09615645205481393
237,0.2269,388.91,388.705,0.260395,388.621,-0.0243865,0.0585697,0.0515154,0.0515158,-0.101504,0.305877,7.68464e-07,5.61763e-07,0.200734,0.05286540029444975,0.35781528499622306,7.684642953087462e-07,0.05286582144069407,5.61763157769235e-07,-0.09652243457526888
238,0.2279,388.686,388.742,-0.250382,388.871,0.0167379,-0.0359796,0.0517182,0.0517205,-0.101913,0.3071,1.3217e-06,-7.41534e-07,0.201547,0.053078943050133054,0.35947690896571927,1.321700873413434e-06,0.05308136513448747,-7.415337250904486e-07,-0.09689188134251359
239,0.2289,389.6,389.347,0.372807,389.212,-0.0342996,0.0765869,0.0519236,0.0519235,-0.102317,0.308319,5.91386e-07,9.16772e-07,0.202358,0.053295267680814495,0.36113512179313023,5.913861749196059e-07,0.053295162351292946,9.167724202008287e-07,-0.09725666333152783
240,0.2299,389.141,389.266,-0.369394,389.44,0.0264361,-0.0600602,0.0521255,0.0521281,-0.102726,0.30954,1.41409e-06,-9.92112e-07,0.203169,0.053507949464862925,0.36279808280793824,1.4140909998516804e-06,0.05351068858909236,-9.921115078359577e-07,-0.09762580986061409
241,0.2309,390.32,390.001,0.519318,389.801,-0.0468653,0.101164,0.0523312,0.0523305,-0.103129,0.310757,3.73454e-07,1.35496e-06,0.203978,0.05372467833986838,0.3644576176968688,3.7345406966871053e-07,0.053723940732851805,1.3549609179097644e-06,-0.09798939339223789
242,0.2319,389.54,389.759,-0.54127,390.001,0.0407347,-0.0933772,0.0525319,0.0525351,-0.103538,0.311976,1.56818e-06,-1.38717e-06,0.204789,0.053936182106504305,0.36612190571029646,1.5681812295387232e-06,0.05393955470768308,-1.3871690378586266e-06,-0.09835824029600693
243,0.2329,390.062,390.138,-0.314521,390.307,0.0191688,-0.0477932,0.0527356,0.0527381,-0.103943,0.313192,1.36152e-06,-9.62857e-07,0.205598,0.0541508907741346,0.3677841203693326,1.3615209268902362e-06,0.05415352615465596,-9.628565365016328e-07,-0.09872333127277388
244,0.2339,390.76,390.635,0.0945472,390.623,-0.0107602,0.0285321,0.0529396,0.0529407,-0.104347,0.314407,9.64583e-07,8.87947e-08,0.206405,0.05436595949211598,0.36944698806314147,9.645834651017537e-07,0.05436711929530924,8.879470403400092e-08,-0.09908737350545727
245,0.2349,390.788,390.789,-0.157702,390.887,0.00866503,-0.0175343,0.0531419,0.0531438,-0.104752,0.315622,1.22706e-06,-5.45778e-07,0.207213,0.05457927930229256,0.3711118773690789,1.2270607527842259e-06,0.054581283004826675,-5.457778510242761e-07,-0.09945216924306433
246,0.2359,391.451,391.269,0.221512,391.199,-0.021493,0.0503971,0.0533455,0.053346,-0.105155,0.316835,7.93077e-07,4.67339e-07,0.208019,0.054794013502758254,0.3727760451900606,7.930773144870784e-07,0.05479454089989688,4.6733910918916877e-07,-0.09981501690014571
247,0.2369,391.304,391.337,-0.20099,391.446,0.012421,-0.0276074,0.053547,0.053549,-0.10556,0.318048,1.24375e-06,-6.00797e-07,0.208826,0.05500657591142266,0.374442232871407,1.2437507734830433e-06,0.05500868592668451,-6.007968195165247e-07,-0.10017951800184577
248,0.2379,392.096,391.879,0.309477,391.767,-0.0294025,0.0640924,0.0537506,0.0537508,-0.105962,0.319259,6.43093e-07,7.53521e-07,0.209631,0.05522139711833485,0.37610769064656124,6.430932066869843e-07,0.05522160816263555,7.53521283813896e-07,-0.10054117313805622
249,0.2389,391.767,391.855,-0.292066,391.998,0.0199944,-0.0463383,0.0539513,0.0539537,-0.106368,0.320471,1.30581e-06,-7.81047e-07,0.210437,0.05543320130657592,0.37777654428864427,1.3058108525587642e-06,0.055435734349298604,-7.810466949864647e-07,-0.10090627930019602
250,0.2399,392.761,392.495,0.420797,392.333,-0.0390637,0.0823471,0.0541551,0.0541548,-0.106768,0.32168,4.65696e-07,1.09494e-06,0.21124,0.0556483205129048,0.37944328347150535,4.656961083426836e-07,0.05564800381845614,1.0949405995219763e-06,-0.10126584487056767
251,0.2409,392.189,392.348,-0.421302,392.542,0.0308997,-0.0716255,0.0543549,0.0543577,-0.107174,0.32289,1.41241e-06,-1.06622e-06,0.212045,0.05585926011950826,0.38111342007337945,1.4124109974922305e-06,0.05586221652957546,-1.0662194316335416e-06,-0.10163065687570205
252,0.2419,393.464,393.127,0.572843,392.898,-0.0519276,0.108342,0.0545591,0.0545581,-0.107573,0.324096,2.4382e-07,1.53514e-06,0.212847,0.05607488859534282,0.3827800476324057,2.4382002972167527e-07,0.05607383252098219,1.5351411783992575e-06,-0.10198903474246968
253,0.2429,392.558,392.812,-0.598798,393.078,0.0460544,-0.10535,0.0547577,0.0547611,-0.107979,0.325304,1.57808e-06,-1.4823e-06,0.213651,0.05628464589642834,0.3844514552568987,1.5780812452348414e-06,0.05628823727032972,-1.4822989014007248e-06,-0.10235355319211181
254,0.2439,393.109,393.199,-0.333391,393.375,0.0214878,-0.0522046,0.0549597,0.0549622,-0.10838,0.32651,1.34139e-06,-9.73508e-07,0.214452,0.05649803694666988,0.38612211091481186,1.341390899689543e-06,0.05650067819506388,-9.735075261474435e-07,-0.10271343725570459
255,0.2449,393.805,393.688,0.0843285,393.68,-0.0100105,0.0255852,0.055162,0.055163,-0.108779,0.327714,9.28505e-07,8.66477e-08,0.215253,0.05671178811974631,0.38779200701207817,9.28505430985993e-07,0.05671284483206285,8.664770367872165e-08,-0.103071383179279
256,0.2459,393.834,393.837,-0.155306,393.933,0.00899998,-0.017885,0.0553625,0.0553643,-0.109181,0.328918,1.18646e-06,-5.15776e-07,0.216053,0.05692368007472304,0.3894639148750856,1.1864607039058228e-06,0.05692558253905933,-5.157758670160106e-07,-0.10343187601932535
257,0.2469,394.474,394.299,0.210883,394.232,-0.0206701,0.0475311,0.0555643,0.0555648,-0.109581,0.330121,7.62402e-07,4.54839e-07,0.216853,0.05713698879548801,0.39113644579031726,7.624022906327355e-07,0.057137517364114654,4.548391034919774e-07,-0.10379043155303014
258,0.2479,394.337,394.366,-0.18898,394.47,0.0119534,-0.0259551,0.055764,0.0557659,-0.109983,0.331323,1.19497e-06,-5.50591e-07,0.217652,0.057348120132912905,0.39280959716068287,1.1949707139358168e-06,0.0573501290962497,-5.505908484693123e-07,-0.10415063539372293
259,0.2489,395.087,394.881,0.289315,394.776,-0.0277578,0.0595986,0.0559658,0.0559659,-0.110381,0.332523,6.27096e-07,7.10089e-07,0.21845,0.057561514514324674,0.3944819719014352,6.270961965260113e-07,0.057561620270481395,7.100892520650604e-07,-0.10450711249718703
260,0.2499,394.791,394.867,-0.266888,395.0,0.0184566,-0.0420722,0.0561648,0.056167,-0.110783,0.333724,1.24478e-06,-6.99707e-07,0.219249,0.05777199019734902,0.3961577508535208,1.244780774678489e-06,0.05777431729828719,-6.997067552028113e-07,-0.1048670282900418
261,0.2509,395.713,395.466,0.384203,395.318,-0.0360692,0.0749151,0.0563667,0.0563664,-0.11118,0.334922,4.71713e-07,1.00324e-06,0.220045,0.057985575922923305,0.39783135012484383,4.7171311123861415e-07,0.05798525852729797,1.003240503338887e-06,-0.1052223255486383
262,0.2519,395.211,395.348,-0.375382,395.523,0.0276692,-0.0633744,0.0565649,0.0565674,-0.111582,0.336121,1.33038e-06,-9.32899e-07,0.220843,0.058195289445994725,0.39950835507720717,1.330380885011806e-06,0.05819793493752523,-9.32898564842688e-07,-0.10558195388362934
263,0.2529,396.368,396.063,0.510262,395.859,-0.0468259,0.0961821,0.056767,0.0567662,-0.111977,0.337317,2.82361e-07,1.37055e-06,0.221638,0.058409172326128855,0.40118316840861157,2.823610398827725e-07,0.058408325599129673,1.3705509391837012e-06,-0.10593517924524376
264,0.2539,395.59,395.805,-0.520738,396.04,0.04018,-0.091032,0.0569642,0.0569672,-0.11238,0.338515,1.46162e-06,-1.26623e-06,0.222435,0.05861791119588755,0.4028627917378558,1.4616210681772657e-06,0.05862108705438507,-1.2662291983822627e-06,-0.10629541477567306
265,0.2549,396.099,396.168,-0.28492,396.323,0.017626,-0.0443819,0.0571643,0.0571666,-0.112777,0.33971,1.23698e-06,-8.12916e-07,0.223229,0.05882976183486743,0.4045402148346662,1.2369807651513298e-06,0.05883219714612031,-8.129156695568795e-07,-0.10665014507738313
266,0.2559,396.726,396.619,0.0732375,396.612,-0.00868202,0.0220929,0.0573647,0.0573657,-0.113174,0.340904,8.92652e-07,9.35877e-08,0.224023,0.05904197258194577,0.4062182374313148,8.926523984431611e-07,0.059043031624447906,9.358770447498443e-08,-0.10700473457911408
267,0.2569,396.784,396.776,-0.125574,396.858,0.00666189,-0.0137508,0.0575635,0.0575652,-0.113572,0.342097,1.09806e-06,-3.99872e-07,0.224817,0.059252531054913904,0.407896856885984,1.0980606028887507e-06,0.05925433178574724,-3.998719200204448e-07,-0.10736007597712283
268,0.2579,397.351,397.197,0.177875,397.141,-0.0176914,0.0400736,0.0577634,0.0577639,-0.113968,0.343289,7.49255e-07,4.00412e-07,0.225609,0.05946429680115295,0.40957607055190914,7.492552807075725e-07,0.05946482653343388,4.0041208015928476e-07,-0.10771349140616249
269,0.2589,397.277,397.289,-0.148224,397.375,0.00881116,-0.0196237,0.0579615,0.0579633,-0.114366,0.344481,1.09683e-06,-4.11555e-07,0.226402,0.05967419746832392,0.41125728703396525,1.0968306014547125e-06,0.05967610488359609,-4.1155491525834975e-07,-0.10806855077508148
270,0.2599,397.924,397.747,0.237522,397.663,-0.02323,0.0489292,0.0581613,0.0581616,-0.114761,0.345671,6.37814e-07,6.00576e-07,0.227193,0.05988594152550508,0.4129376828427411,6.378142034524359e-07,0.05988625949133519,6.005761803429266e-07,-0.10842079412488392
271,0.2609,397.731,397.779,-0.205438,397.885,0.0136918,-0.0317265,0.0583588,0.0583607,-0.115159,0.346861,1.1267e-06,-5.12017e-07,0.227985,0.060095289671405094,0.4146200795128059,1.1267006347903674e-06,0.060097303854369066,-5.120168689032312e-07,-0.10877557204333321
272,0.2619,398.505,398.299,0.306821,398.181,-0.0294065,0.0597665,0.0585586,0.0585586,-0.115553,0.348049,5.14996e-07,8.21484e-07,0.228774,0.06030711787121401,0.41630164682047544,5.149961326278429e-07,0.06030711787121401,8.214843374432235e-07,-0.10912664530197458
273,0.2629,398.161,398.253,-0.283621,398.39,0.0204316,-0.047293,0.0587555,0.0587576,-0.115951,0.349238,1.18087e-06,-6.70721e-07,0.229565,0.06051591289791869,0.41798663100313327,1.1808706972260552e-06,0.06051813998367428,-6.707207750311639e-07,-0.1094811423475529
274,0.2639,399.103,398.857,0.396471,398.698,-0.0371274,0.0745363,0.0589553,0.058955,-0.116344,0.350424,3.70822e-07,1.08912e-06,0.230353,0.06072782514664432,0.4196693608090345,3.70822068829213e-07,0.06072750692834461,1.089120593045223e-06,-0.10983104749774475
275,0.2649,398.563,398.711,-0.385879,398.89,0.0293469,-0.0669138,0.0591514,0.0591539,-0.116742,0.35161,1.26515e-06,-8.95477e-07,0.231143,0.06093585426974446,0.4213540875164141,1.2651508003447276e-06,0.06093850661269551,-8.954765990942803e-07,-0.11018526424703168
276,0.2659,399.725,399.425,0.513054,399.214,-0.0470191,0.0943764,0.0593515,0.0593507,-0.117133,0.352794,1.97804e-07,1.42074e-06,0.23193,0.061148168775541745,0.423037967416221,1.9780401960822758e-07,0.06114731985734623,1.420741009283688e-06,-0.110533113799692
277,0.2669,398.931,399.149,-0.518429,399.384,0.040976,-0.0917559,0.0595466,0.0595496,-0.117531,0.353979,1.38775e-06,-1.20155e-06,0.232719,0.06135521898036056,0.4247252669351287,1.3877509630333407e-06,0.06135840305079365,-1.2015492781847215e-06,-0.11088705118218845
278,0.2679,399.438,399.506,-0.273497,399.656,0.0175718,-0.0436883,0.0597448,0.0597469,-0.117925,0.355162,1.15205e-06,-7.25505e-07,0.233505,0.06156560043287573,0.42641171426282676,1.1520506635331884e-06,0.06156782972297736,-7.255047368426304e-07,-0.1112372926819164
279,0.2689,400.032,399.935,0.0623933,399.931,-0.00724643,0.0184771,0.059943,0.059944,-0.118317,0.356344,8.31145e-07,1.15369e-07,0.23429,0.06177602358712719,0.4280987297388177,8.311453454368234e-07,0.06177708536368165,1.1536900657027616e-07,-0.11158561938669054
280,0.2699,400.104,400.092,-0.111229,400.167,0.00618253,-0.0125468,0.0601398,0.0601414,-0.118712,0.357525,1.0113e-06,-3.1338e-07,0.235076,0.061985001671338136,0.42978631065902495,1.0113005113332463e-06,0.06198670084870028,-3.13379950878101e-07,-0.1119364737687305
281,0.2709,400.625,400.485,0.157842,400.435,-0.0155479,0.0349295,0.0603375,0.0603381,-0.119104,0.358705,7.0209e-07,3.89924e-07,0.235861,0.06219497686153219,0.4314744543144784,7.02090246385012e-07,0.06219561417870967,3.8992407591642575e-07,-0.11228452644823106
282,0.2719,400.583,400.586,-0.124941,400.661,0.00759026,-0.0165507,0.0605338,0.0605354,-0.119498,0.359885,1.00433e-06,-3.08835e-07,0.236645,0.06240350620197521,0.43316459115519335,1.0043305043172523e-06,0.06240520604894506,-3.0883495227840285e-07,-0.11263421745115909
283,0.2729,401.165,401.006,0.205727,400.933,-0.0200932,0.041854,0.0607314,0.0607317,-0.119889,0.361062,6.09275e-07,5.52381e-07,0.237429,0.06261345787734318,0.43485241897080273,6.092751856368039e-07,0.06261377666142831,5.523811525964817e-07,-0.1129811096502914
284,0.2739,401.029,401.059,-0.168326,401.15,0.0113236,-0.0259025,0.060927,0.0609287,-0.120283,0.36224,1.02304e-06,-3.79353e-07,0.238212,0.06282132539848484,0.436543671072261,1.0230405234068485e-06,0.06282313219627378,-3.793529280704533e-07,-0.11333052625349815
285,0.2749,401.706,401.527,0.258251,401.428,-0.0248674,0.0498138,0.0611246,0.0611247,-0.120673,0.363416,5.10822e-07,7.2345e-07,0.238994,0.0630313596430836,0.4382340401716609,5.10822130372901e-07,0.06303146594622477,7.234502616970673e-07,-0.11367625992581099
286,0.2759,401.456,401.521,-0.226533,401.635,0.016381,-0.0376347,0.0613196,0.0613215,-0.121066,0.364593,1.05866e-06,-4.91334e-07,0.239777,0.06323867097041136,0.4399278382415681,1.058660560326885e-06,0.06324069112580544,-4.913338792489341e-07,-0.11402451671871805
287,0.2769,402.257,402.05,0.324019,401.92,-0.0306038,0.060378,0.0615172,0.061517,-0.121456,0.365767,3.98963e-07,9.23605e-07,0.240557,0.06344878769064355,0.4416193062210918,3.989630796841226e-07,0.06344857500090728,9.236054265837623e-07,-0.11436997978752061
288,0.2779,401.865,401.97,-0.300544,402.114,0.0228945,-0.0519491,0.0617116,0.0617137,-0.121849,0.366941,1.11428e-06,-6.47227e-07,0.241339,0.06365554223086067,0.44331276115013485,1.114280620884145e-06,0.06365777590984467,-6.472267904955586e-07,-0.11471796400208711
289,0.2789,402.824,402.579,0.407061,402.411,-0.0377054,0.0742263,0.0619092,0.0619087,-0.122237,0.368113,2.69128e-07,1.16344e-06,0.242117,0.06386574133299283,0.4450053153492246,2.691280363009696e-07,0.0638652094002552,1.1634406766880545e-06,-0.11506138680372247
290,0.2799,402.251,402.406,-0.393753,402.59,0.0311558,-0.0694944,0.0621029,0.0621053,-0.122631,0.369286,1.19461e-06,-8.55085e-07,0.242898,0.06407183208633427,0.4467013010853005,1.194610713461941e-06,0.06407438586179559,-8.550846344324015e-07,-0.11540998393917645
291,0.2809,403.41,403.115,0.511478,402.9,-0.046578,0.0920524,0.0623007,0.0622998,-0.123018,0.370456,1.16416e-07,1.45379e-06,0.243676,0.06428232631191344,0.44839493218856474,1.1641600683454101e-07,0.06428136845825083,1.453791056649223e-06,-0.1157522540418554
292,0.2819,402.61,402.826,-0.510457,403.06,0.041536,-0.0910737,0.0624935,0.0624964,-0.123411,0.371627,1.3052e-06,-1.1253e-06,0.244455,0.06448753972636379,0.4500919960911489,1.3052008518421587e-06,0.06449062674470518,-1.1252993667998368e-06,-0.11609969512937146
293,0.2829,403.112,403.176,-0.258721,403.32,0.017416,-0.0421675,0.0626893,0.0626914,-0.1238,0.372796,1.05976e-06,-6.31146e-07,0.245233,0.0646959867929442,0.4517881448403658,1.0597605615281225e-06,0.06469822265686398,-6.31145800844557e-07,-0.11644346548029783
294,0.2839,403.669,403.581,0.0512004,403.579,-0.00558064,0.0149642,0.0628852,0.0628861,-0.124188,0.373964,7.66861e-07,1.35611e-07,0.246009,0.06490458116790876,0.45348482406131674,7.668612940214814e-07,0.06490553958246315,1.3561100908887624e-07,-0.11678621891722474
295,0.2849,403.754,403.738,-0.0957165,403.806,0.0057249,-0.0110204,0.0630797,0.0630812,-0.124577,0.375132,9.19328e-07,-2.24739e-07,0.246786,0.06511172525305531,0.45518348616137394,9.193284224995324e-07,0.06511332292184147,-2.2473897476338323e-07,-0.11712972226233376
296,0.2859,404.228,404.101,0.136987,404.059,-0.0131712,0.0297565,0.0632751,0.0632757,-0.124965,0.376298,6.52774e-07,3.77403e-07,0.247561,0.06531986841909476,0.4568812196925398,6.527742131279268e-07,0.06532050761120756,3.7740307123890204e-07,-0.11747220948327852
297,0.2869,404.218,404.211,-0.101243,404.276,0.0064088,-0.0133449,0.0634691,0.0634706,-0.125354,0.377464,9.0761e-07,-2.05893e-07,0.248337,0.06552656052205386,0.45858093393553356,9.076104119376538e-07,0.06552815881309337,-2.0589297877737778e-07,-0.11781544602995286
298,0.2879,404.732,404.592,0.173847,404.531,-0.0168014,0.0348717,0.0636643,0.0636647,-0.125741,0.378628,5.78038e-07,5.04614e-07,0.249111,0.0657345716078892,0.4602797106388703,5.780381671094403e-07,0.06573499790180315,5.046141273723492e-07,-0.11815678539891128
299,0.2889,404.653,404.667,-0.132068,404.742,0.00906199,-0.0202184,0.0638578,0.0638593,-0.12613,0.379792,9.16751e-07,-2.49965e-07,0.249885,0.06594081120053241,0.4619804658695694,9.167514201102733e-07,0.06594241011294844,-2.499649687237593e-07,-0.11849975569734317
300,0.2899,405.235,405.081,0.211371,405.001,-0.020326,0.0402789,0.0640528,0.0640531,-0.126516,0.380954,5.02228e-07,6.31004e-07,0.250658,0.06614868992623357,0.4636802745685009,5.022281261979344e-07,0.06614900977088856,6.310041991142157e-07,-0.11883994913008744
301,0.2909,405.074,405.113,-0.172751,405.204,0.0126054,-0.028605,0.0642459,0.0642475,-0.126905,0.382117,9.36718e-07,-3.22009e-07,0.251432,0.06635458311660614,0.4653835249759557,9.36718438815376e-07,0.06635628928530402,-3.2200894817258074e-07,-0.11918265372950976
302,0.2919,405.743,405.57,0.256578,405.468,-0.0243496,0.0472567,0.0644408,0.0644409,-0.12729,0.383277,4.19184e-07,7.72923e-07,0.252203,0.06656243587944921,0.4670843561562925,4.19184087885327e-07,0.06656254253569815,7.729232986974921e-07,-0.11952170313662502
303,0.2929,405.484,405.551,-0.222856,405.663,0.0170455,-0.0384495,0.0646333,0.0646351,-0.127678,0.384438,9.68782e-07,-4.20948e-07,0.252976,0.0667677689110262,0.4687886302334563,9.687824693571656e-07,0.06676968909473846,-4.209479114170023e-07,-0.11986326244901646
304,0.2939,406.258,406.061,0.311753,405.933,-0.0291217,0.0561756,0.0648282,0.0648281,-0.128063,0.385597,3.26335e-07,9.36441e-07,0.253746,0.06697570221162885,0.47049194313505427,3.2633505320234235e-07,0.06697559551406407,9.364414383927766e-07,-0.12020204987220995
305,0.2949,405.879,405.979,-0.283902,406.117,0.0225102,-0.0500591,0.0650201,0.0650221,-0.128451,0.386756,1.0153e-06,-5.50142e-07,0.254517,0.06718047449615572,0.4721972313207614,1.015300515438966e-06,0.0671826088592391,-5.50141848632002e-07,-0.12054334526127242
306,0.2959,406.783,406.556,0.378863,406.396,-0.0348582,0.067349,0.065215,0.0652146,-0.128834,0.387913,2.21274e-07,1.12689e-06,0.255286,0.06738848824091592,0.47390154927521255,2.2127402443672395e-07,0.06738806128560593,1.1268906350281327e-06,-0.12088011266496279
307,0.2969,406.259,406.398,-0.357861,406.568,0.0291632,-0.0638148,0.0654063,0.0654086,-0.129222,0.38907,1.07891e-06,-7.14109e-07,0.256057,0.06759269919087108,0.47560784026671876,1.078910581986392e-06,0.06759515465690291,-7.141087450257544e-07,-0.12122114501669423
308,0.2979,407.32,407.054,0.460079,406.857,-0.0417815,0.0811328,0.0656013,0.0656006,-0.129604,0.390225,1.01362e-07,1.35005e-06,0.256824,0.06780090006613881,0.47731315195014656,1.013620052336961e-07,0.06780015260577033,1.3500509112862602e-06,-0.12155677442999857
309,0.2989,406.621,406.805,-0.446994,407.015,0.0371975,-0.0801413,0.0657918,0.0657944,-0.129992,0.391381,1.16253e-06,-9.1815e-07,0.257594,0.06800433551421259,0.479021913427645,1.1625306757245824e-06,0.06800711232909484,-9.181495784771343e-07,-0.12189754428789223
310,0.2999,407.871,407.559,0.557848,407.316,-0.0501307,0.0979381,0.065987,0.0659859,-0.130373,0.392533,-3.63454e-08,1.61229e-06,0.25836,0.06821283030893488,0.48072672845683173,-3.6345399356818575e-08,0.06821165527546791,1.6122912998017824e-06,-0.12223203759849655
311,0.3009,406.962,407.2,-0.553834,407.458,0.0468362,-0.0995054,0.0661767,0.0661797,-0.130761,0.393688,1.26941e-06,-1.16831e-06,0.259128,0.06841548950446152,0.4824379558717964,1.2694108058042275e-06,0.06841869475573792,-1.1683093175118842e-06,-0.12257254550510266
312,0.3019,407.49,407.558,-0.264556,407.705,0.0194851,-0.0439273,0.0663698,0.0663718,-0.131144,0.394839,9.90137e-07,-5.9103e-07,0.259894,0.0686218204560971,0.4841452243035047,9.901374902199223e-07,0.06862395770187524,-5.910298253031243e-07,-0.12290853587391137
313,0.3029,408.024,407.945,0.0366026,407.95,-0.00352965,0.0112731,0.0665628,0.0665637,-0.131526,0.39599,7.03748e-07,1.40596e-07,0.26066,0.06882808437127252,0.48585445893250734,7.037482476768275e-07,0.06882904631698139,1.405960099454262e-07,-0.12324352082700796
314,0.3039,408.121,408.101,-0.085699,408.164,0.00602143,-0.0100927,0.0667545,0.0667559,-0.13191,0.397141,8.35295e-07,-1.58287e-07,0.261425,0.06903299835542454,0.4875656620232005,8.352953488888204e-07,0.06903449500266978,-1.5828698751718662e-07,-0.12358013068178209
315,0.3049,408.553,408.436,0.119065,408.401,-0.0109347,0.0255045,0.066947,0.0669476,-0.132292,0.39829,5.9987e-07,3.64774e-07,0.262189,0.06923880701605589,0.4892758572878946,5.998701799736494e-07,0.06923944855953268,3.6477406650803346e-07,-0.12391485913465672
316,0.3059,408.566,408.55,-0.0826098,408.608,0.00582836,-0.0107219,0.0671382,0.0671396,-0.132676,0.399439,8.18166e-07,-1.23849e-07,0.262954,0.06944326502151976,0.49098801869628095,8.181663346817913e-07,0.06944476224313889,-1.2384899228390367e-07,-0.1242512112450107
317,0.3069,409.022,408.896,0.147213,408.845,-0.0138556,0.0291666,0.0673304,0.0673309,-0.133057,0.400586,5.41265e-07,4.63454e-07,0.263717,0.06964883177138881,0.49269916310744577,5.41265146480896e-07,0.06964936659593834,4.634541073134102e-07,-0.12458480797931304
318,0.3079,408.984,408.984,-0.102852,409.047,0.00748301,-0.0155499,0.0675213,0.0675227,-0.13344,0.401734,8.19616e-07,-1.4615e-07,0.26448,0.06985304722511887,0.4944137657402974,8.196163359119879e-07,0.06985454502043353,-1.4614998933293322e-07,-0.12492002779916367
319,0.3089,409.485,409.351,0.17257,409.287,-0.0163823,0.0324881,0.0677133,0.0677137,-0.133821,0.402879,4.8508e-07,5.53349e-07,0.265242,0.07005847873097948,0.4961258494829641,4.850801176292663e-07,0.07005890675445658,5.533491531650725e-07,-0.1252533697628958
320,0.3099,409.393,409.41,-0.129436,409.483,0.00973811,-0.0212783,0.0679037,0.0679052,-0.134204,0.404025,8.27539e-07,-1.86839e-07,0.266004,0.07026223726252656,0.49784139252488036,8.275393423851085e-07,0.07026384265708652,-1.868389825077088e-07,-0.12558833357261234
321,0.3109,409.95,409.805,0.201534,409.726,-0.0190661,0.0366356,0.0680956,0.0680958,-0.134584,0.405168,4.25932e-07,6.49052e-07,0.266765,0.07046764029364772,0.49955440403611817,4.25932090708514e-07,0.07046785438719727,6.4905221064393e-07,-0.12592054688132848
322,0.3119,409.795,409.83,-0.16092,409.917,0.0125044,-0.0276726,0.0682856,0.0682871,-0.134966,0.406312,8.41899e-07,-2.4244e-07,0.267526,0.07067104846846828,0.5012708759090461,8.418993544534459e-07,0.07067265447624549,-2.4243997065465095e-07,-0.1262543814659547
323,0.3129,410.417,410.258,0.235378,410.163,-0.0220624,0.0418002,0.0684773,0.0684774,-0.135345,0.407454,3.62505e-07,7.53992e-07,0.268285,0.07087631578270304,0.5029863065738103,3.625050657429796e-07,0.07087642287034002,7.539922841637292e-07,-0.12658546831045892
324,0.3139,410.189,410.245,-0.197699,410.347,0.0158067,-0.0348376,0.0686668,0.0686685,-0.135727,0.408597,8.63634e-07,-3.13552e-07,0.269045,0.0710792660734767,0.5047052020838707,8.636343729051532e-07,0.07108108690977666,-3.135519508479234e-07,-0.12691904894360695
325,0.3149,410.888,410.712,0.27483,410.597,-0.0254748,0.048078,0.0688585,0.0688584,-0.136105,0.409737,2.93906e-07,8.70338e-07,0.269803,0.07128461165052769,0.5064215441433404,2.9390604328050074e-07,0.0712845045220718,8.703383787000973e-07,-0.12724901117631537
326,0.3159,410.574,410.653,-0.240419,410.774,0.0196879,-0.0429155,0.0690475,0.0690493,-0.136487,0.410877,8.93749e-07,-4.0142e-07,0.270562,0.07148710357701393,0.5081398439484608,8.937493993776968e-07,0.07148903225553616,-4.014199194157797e-07,-0.12758233838449584
327,0.3169,411.363,411.167,0.32061,411.03,-0.0293943,0.055567,0.0692391,0.0692388,-0.136864,0.412015,2.19251e-07,1.00016e-06,0.271319,0.07169242017476107,0.5098570840151471,2.1925102400288665e-07,0.07169209866708326,1.0001605001974667e-06,-0.12791117785279038
328,0.3179,410.951,411.056,-0.289791,411.198,0.0241989,-0.0520549,0.0694275,0.0694295,-0.137246,0.413155,9.33177e-07,-5.07483e-07,0.272077,0.07189434604754208,0.5115793025689837,9.3317743532495e-07,0.07189648983837804,-5.074828712814394e-07,-0.1282442521616073
329,0.3189,411.843,411.622,0.373458,411.46,-0.0339083,0.0643755,0.0696191,0.0696186,-0.137622,0.414291,1.37592e-07,1.14555e-06,0.272833,0.07209974068042224,0.5132974323696589,1.3759200956364737e-07,0.07209920463068586,1.1455506561119932e-06,-0.12857197070784687
330,0.3199,411.317,411.451,-0.346564,411.62,0.0293975,-0.0624048,0.069807,0.0698091,-0.138004,0.415428,9.8288e-07,-6.33332e-07,0.27359,0.072301207148878,0.5150190300930999,9.828804830025462e-07,0.07230345898377744,-6.333317994489107e-07,-0.12890479264199983
331,0.3209,412.329,412.08,0.434155,411.888,-0.0391007,0.0746229,0.0699985,0.0699979,-0.138379,0.416563,4.79672e-08,1.3086e-06,0.274344,0.07250657249315107,0.5167395529042493,4.796720110000763e-08,0.07250592898940078,1.3086008561202789e-06,-0.12923139210353274
332,0.3219,411.672,411.839,-0.411513,412.038,0.0353472,-0.0741134,0.0701858,0.0701882,-0.13876,0.417699,1.04384e-06,-7.80651e-07,0.2751,0.07270747178781067,0.5184635480802076,1.043840544889818e-06,0.07271004628883238,-7.806506953089709e-07,-0.12956309175034608
333,0.3229,412.821,412.539,0.503503,412.315,-0.0450543,0.0864362,0.0703775,0.0703765,-0.139135,0.418831,-5.0611e-08,1.49146e-06,0.275853,0.07291312952181639,0.5201834220816619,-5.0610998725275635e-08,0.0729120566092234,1.4914611121685795e-06,-0.12988944439599415
334,0.3239,412.016,412.22,-0.485424,412.453,0.042116,-0.087328,0.0705641,0.0705667,-0.139516,0.419966,1.11705e-06,-9.51183e-07,0.276608,0.07311335379212869,0.5219098098054267,1.1170506239999156e-06,0.07311614389047572,-9.511825476149482e-07,-0.13022089337263987
335,0.3249,413.321,413.001,0.582315,412.739,-0.0518503,0.0999469,0.0707558,0.0707546,-0.139889,0.421096,-1.59139e-07,1.69625e-06,0.27736,0.07331908934117304,0.5236305399199215,-1.591389873212279e-07,0.07331780135903854,1.6962514386431593e-06,-0.1305452604811853
336,0.3259,412.348,412.593,-0.56908,412.864,0.0497748,-0.102193,0.0709418,0.0709447,-0.14027,0.422229,1.20353e-06,-1.14669e-06,0.278114,0.0735187452592152,0.5253577916249703,1.2035307241919924e-06,0.07352185846809056,-1.1466893425904345e-06,-0.1308764596394959
337,0.3269,412.888,412.952,-0.254137,413.097,0.0200479,-0.0426684,0.0711313,0.0711331,-0.140646,0.423359,8.96361e-07,-5.11026e-07,0.278866,0.07372219633782273,0.5270824201611146,8.963614017698518e-07,0.07372412903951564,-5.110258693985514e-07,-0.13120318866176595
338,0.3279,413.381,413.31,0.0202832,413.323,-0.00126937,0.00721456,0.0713205,0.0713215,-0.141021,0.424488,6.37792e-07,1.42248e-07,0.279617,0.07392536379640524,0.5288074698207745,6.377922034950245e-07,0.07392643772230612,1.4224801003770438e-07,-0.13152892638637725
339,0.3289,413.495,413.467,-0.0688121,413.523,0.00559758,-0.00806648,0.0715087,0.07151,-0.141398,0.425617,7.35048e-07,-7.35618e-08,0.280368,0.07412749556987519,0.5305344681613235,7.350482702506156e-07,0.07412889193652705,-7.356179732020962e-08,-0.131856278271422
340,0.3299,413.87,413.766,0.0952127,413.741,-0.00816099,0.0200876,0.0716975,0.0716981,-0.141773,0.426745,5.47282e-07,3.38817e-07,0.281118,0.07433030998611723,0.5322618851214136,5.472821498209157e-07,0.07433095458449657,3.388170572993232e-07,-0.13218177113334428
341,0.3309,413.916,413.888,-0.0578576,413.936,0.00460822,-0.00716203,0.0718852,0.0718864,-0.142149,0.427872,7.13103e-07,-2.61487e-08,0.281868,0.07453198071150702,0.5339897177167319,7.131032542240234e-07,0.07453327015065758,-2.614869965000821e-08,-0.13250800945075092
342,0.3319,414.298,414.189,0.113994,414.153,-0.0103024,0.0222261,0.0720737,0.0720742,-0.142523,0.428998,5.05303e-07,4.07377e-07,0.282617,0.07473454908134025,0.535717962958352,5.053031275625841e-07,0.07473508644874904,4.073770829560175e-07,-0.1328323907921244
343,0.3329,414.313,414.295,-0.0677629,414.344,0.00529725,-0.00999024,0.0722611,0.0722623,-0.142899,0.430124,7.07223e-07,-2.82269e-08,0.283366,0.07493597320868917,0.5374481553001258,7.072232501847964e-07,0.07493726313263105,-2.8226899595473753e-08,-0.1331583845225246
344,0.3339,414.718,414.606,0.127645,414.562,-0.0118462,0.0236012,0.0724493,0.0724498,-0.143273,0.431248,4.6827e-07,4.62107e-07,0.284114,0.07513829519674897,0.5391772185782073,4.682701095770625e-07,0.07513883276603095,4.621071068022786e-07,-0.13348252266910154
345,0.3349,414.705,414.697,-0.0812787,414.75,0.00635393,-0.0132554,0.0726364,0.0726376,-0.143648,0.432372,7.04419e-07,-4.11924e-08,0.284862,0.0753394723913201,0.5409082264160512,7.044192480432088e-07,0.07534076279946111,-4.119239915834072e-08,-0.13380740580370565
346,0.3359,415.137,415.022,0.142008,414.969,-0.0133025,0.0252706,0.0728244,0.0728248,-0.144021,0.433495,4.31297e-07,5.16074e-07,0.285608,0.07554165521671963,0.5426396383601619,4.3129709292877294e-07,0.07554208543346785,5.160741332055352e-07,-0.1341304353925773
347,0.3369,415.092,415.095,-0.0965227,415.154,0.00764338,-0.0166478,0.0730111,0.0730124,-0.144396,0.434617,7.03985e-07,-6.06009e-08,0.286355,0.0757424775899338,0.5443714513998379,7.039852478740727e-07,0.07574387605606381,-6.06008981884898e-08,-0.13445507560546077
348,0.3379,415.555,415.435,0.157813,415.373,-0.0147757,0.0273331,0.0731989,0.0731992,-0.144769,0.435738,3.93712e-07,5.71281e-07,0.287101,0.07594452099850746,0.5461036625197926,3.937120776065228e-07,0.07594484378191213,5.712811632641035e-07,-0.1347778636585456
349,0.3389,415.476,415.489,-0.113352,415.555,0.00914118,-0.0201751,0.0733853,0.0733866,-0.145143,0.436858,7.06159e-07,-8.58101e-08,0.287846,0.07614509575020767,0.5478362687001608,7.061592492974e-07,0.07614649473974144,-8.581009636188242e-08,-0.13510139623317463
350,0.3399,415.973,415.847,0.175206,415.776,-0.0163137,0.0297853,0.0735729,0.0735731,-0.145515,0.437978,3.55323e-07,6.28401e-07,0.288591,0.07634699950815071,0.5495708164865472,3.553230631947457e-07,0.07634721477757234,6.284011975221659e-07,-0.13542307867713177
351,0.3409,415.856,415.88,-0.131809,415.954,0.0108357,-0.0238726,0.0737588,0.0737602,-0.145889,0.439097,7.11162e-07,-1.16645e-07,0.289335,0.07654711101514766,0.5513057567482367,7.111622528643835e-07,0.07654861818215819,-1.1664499321994981e-07,-0.13574636998646328
352,0.3419,416.391,416.257,0.194261,416.176,-0.0179482,0.0326159,0.0739463,0.0739464,-0.14626,0.440214,3.16018e-07,6.8787e-07,0.290079,0.0767489825233254,0.5530395334125238,3.160180499506282e-07,0.07674909019822906,6.878702365487044e-07,-0.13606694861218616
353,0.3429,416.233,416.268,-0.15195,416.351,0.0127182,-0.0277712,0.0741319,0.0741333,-0.146633,0.441331,7.19133e-07,-1.52999e-07,0.290822,0.07694884568120908,0.5547752477873544,7.191332584977062e-07,0.07695035341064838,-1.5299898825649194e-07,-0.13638913554875465
354,0.3439,416.809,416.666,0.21503,416.575,-0.0197018,0.0358146,0.0743191,0.0743192,-0.147004,0.442447,2.75708e-07,7.50024e-07,0.291564,0.07715046937650971,0.5565113455262374,2.7570803795562426e-07,0.07715057709156214,7.500242813485158e-07,-0.13670947575268388
355,0.3449,416.605,416.652,-0.173816,416.745,0.0147813,-0.0318948,0.0745043,0.0745058,-0.147377,0.443563,7.30149e-07,-1.94774e-07,0.292307,0.07734997611719208,0.5582493818317158,7.301492666034193e-07,0.07735159214336829,-1.947739810548299e-07,-0.13703142307132055
356,0.3459,417.226,417.074,0.237551,416.971,-0.0215909,0.0393727,0.0746914,0.0746914,-0.147747,0.444677,2.34322e-07,8.15118e-07,0.293048,0.07755156715597722,0.55998623889284,2.3432202755913067e-07,0.07755156715597722,8.151183321647437e-07,-0.13735066238186966
357,0.3469,416.974,417.033,-0.197441,417.137,0.0170197,-0.0362609,0.0748762,0.0748778,-0.148119,0.445791,7.44251e-07,-2.4187e-07,0.293789,0.07775071708647463,0.5617250318908469,7.442512770516885e-07,0.0777524414890014,-2.4186997071851124e-07,-0.13767150825443142
358,0.3479,417.644,417.48,0.261846,417.365,-0.0236264,0.043282,0.0750632,0.0750631,-0.148489,0.446903,1.91818e-07,8.83338e-07,0.294529,0.07795227531567672,0.5634626360551729,1.9181801835799206e-07,0.07795216752045464,8.833383902118186e-07,-0.1379905107772712
359,0.3489,417.338,417.411,-0.222819,417.527,0.0194253,-0.0408795,0.0752476,0.0752492,-0.148861,0.448016,7.61418e-07,-2.94163e-07,0.29527,0.07815106804337124,0.565203738712996,7.61418289974003e-07,0.07815279308646006,-2.941629567709825e-07,-0.13831111867049672
360,0.3499,418.061,417.885,0.287907,417.757,-0.0258155,0.0475318,0.0754344,0.0754342,-0.149229,0.449127,1.48148e-07,9.54785e-07,0.296008,0.07835248547468399,0.5669436464064628,1.4814801096996177e-07,0.07835226980420851,9.547854558089597e-07,-0.13862816183930493
361,0.3509,417.699,417.785,-0.24994,417.914,0.0219949,-0.0457555,0.0756183,0.0756201,-0.149601,0.450238,7.81613e-07,-3.5147e-07,0.296748,0.07855081273239528,0.5686854882115773,7.816133054117103e-07,0.07855275412560547,-3.514699382645148e-07,-0.13894853257045026
362,0.3519,418.477,418.289,0.31571,418.147,-0.0281609,0.0521091,0.075805,0.0758047,-0.149969,0.451346,1.03292e-07,1.02949e-06,0.297485,0.07875219696776581,0.5704245549975993,1.0329200539338501e-07,0.07875187334215528,1.0294905299357282e-06,-0.1392653412140985
363,0.3529,418.056,418.156,-0.278766,418.299,0.0247203,-0.0508886,0.0759886,0.0759904,-0.15034,0.452456,8.04735e-07,-4.136e-07,0.298224,0.07895027405404931,0.5721686940717534,8.04735323711725e-07,0.07895221616629033,-4.135999144283531e-07,-0.13958461454364346
364,0.3539,418.894,418.692,0.345207,418.535,-0.0306617,0.0569996,0.0761751,0.0761747,-0.150707,0.453563,5.72635e-08,1.10742e-06,0.29896,0.07915151704548595,0.573910048477926,5.726350171819661e-08,0.07915108538496551,1.1074206132111186e-06,-0.1399003290529498
365,0.3549,418.409,418.525,-0.309235,418.682,0.0275941,-0.056272,0.0763582,0.0763602,-0.151079,0.454671,8.30674e-07,-4.80303e-07,0.299698,0.07934912777896752,0.5756549072849104,8.306743450869902e-07,0.07935128647938172,-4.803028846867008e-07,-0.1402202266259045
366,0.3559,419.31,419.093,0.376324,418.921,-0.0333138,0.0621855,0.0765447,0.0765441,-0.151445,0.455776,1.01092e-08,1.18845e-06,0.300432,0.07955044516356091,0.5773969682688955,1.0109199921615186e-08,0.07954979743348822,1.1884507062909222e-06,-0.1405348484436546
367,0.3569,418.759,418.89,-0.341254,419.063,0.0306067,-0.0618933,0.0767274,0.0767294,-0.151816,0.456883,8.59285e-07,-5.51273e-07,0.301169,0.07974769704830331,0.5791441135792788,8.592853690814195e-07,0.07974985654585698,-5.512728480372431e-07,-0.14085365087337465
368,0.3579,419.726,419.494,0.408958,419.305,-0.0361099,0.067645,0.0769137,0.076913,-0.152181,0.457987,-3.80909e-08,1.2724e-06,0.301903,0.07994887278320117,0.5808884513779662,-3.809089932360621e-08,0.07994811681925484,1.2724008096043349e-06,-0.14116718206788204
369,0.3589,419.105,419.252,-0.374706,419.442,0.0337471,-0.0677345,0.0770959,0.0770981,-0.152552,0.459092,8.9039e-07,-6.26147e-07,0.302639,0.08014565739435597,0.5826362986244955,8.903903963020099e-07,0.0801480337174163,-6.261468039614471e-07,-0.14148574994533958
370,0.3599,420.141,419.893,0.442977,419.687,-0.0390395,0.073352,0.0772822,0.0772814,-0.152916,0.460193,-8.72204e-08,1.35901e-06,0.303371,0.08034690727617289,0.5843797407780698,-8.722039623876299e-08,0.08034604299899284,1.3590109233518888e-06,-0.1417981922644076
371,0.3609,419.447,419.611,-0.409443,419.818,0.0370017,-0.0737719,0.077464,0.0774662,-0.153286,0.461297,9.2378e-07,-7.04498e-07,0.304106,0.08054333219840015,0.5861298619009923,9.237804265982419e-07,0.08054570939634598,-7.044977518022577e-07,-0.1421156681966005
372,0.3619,420.555,420.29,0.478221,420.067,-0.0420891,0.0792764,0.0776501,0.0776492,-0.15365,0.462397,-1.37126e-07,1.44793e-06,0.304837,0.08074444002502523,0.587875564709603,-1.371259905624811e-07,0.08074346735546678,1.4479310481707586e-06,-0.14242788126715078
373,0.3629,419.787,419.968,-0.44529,420.193,0.0403548,-0.0799768,0.0778315,0.0778338,-0.15402,0.463499,9.59212e-07,-7.85837e-07,0.305571,0.08094050484898774,0.5896263680973979,9.592124601276453e-07,0.0809429910150079,-7.858366912749659e-07,-0.14274512425750951
374,0.3639,420.969,420.687,0.514503,420.446,-0.0452423,0.0853834,0.0780175,0.0780165,-0.154383,0.464597,-1.87618e-07,1.53875e-06,0.306301,0.08114157848215764,0.5913727364303312,-1.876179823723234e-07,0.08114049734111983,1.5387511838049761e-06,-0.14305625130442867
375,0.3649,420.123,420.322,-0.482044,420.565,0.0437884,-0.0863151,0.0781984,0.0782009,-0.154753,0.465698,9.96411e-07,-8.69615e-07,0.307034,0.08133717468484836,0.5931258026990329,9.964114964233772e-07,0.08133987803116427,-8.696146218678535e-07,-0.14337326184088017
376,0.3659,421.382,421.082,0.551604,420.822,-0.04848,0.0916341,0.0783843,0.0783832,-0.155115,0.466794,-2.38471e-07,1.631e-06,0.307763,0.08153821395164318,0.594872825772556,-2.384709715252953e-07,0.08153702426026199,1.6310013299936088e-06,-0.14368330459896883
377,0.3669,420.457,420.674,-0.519473,420.936,0.047282,-0.0927482,0.0785648,0.0785674,-0.155485,0.467893,1.03507e-06,-9.55222e-07,0.308495,0.08173344921871406,0.5966265545055058,1.03507053572649e-06,0.08173626172933846,-9.552215437524936e-07,-0.1440000831686179
378,0.3679,421.793,421.475,0.589284,421.196,-0.0517805,0.0979852,0.0787507,0.0787494,-0.155846,0.468988,-2.89425e-07,1.72412e-06,0.309223,0.08193456215979267,0.5983758181297394,-2.894249581109065e-07,0.08193315564577608,1.7241214862462328e-06,-0.14430904336792272
379,0.3689,420.789,421.023,-0.557324,421.304,0.050813,-0.099233,0.0789307,0.0789334,-0.156215,0.470086,1.07486e-06,-1.042e-06,0.309954,0.08212932790937288,0.600131798634925,1.0748605776544906e-06,0.08213224966250277,-1.0419994571631008e-06,-0.14462473508221652
380,0.3699,421.327,421.376,-0.22419,421.513,0.0192413,-0.0380457,0.0791143,0.0791159,-0.156579,0.47118,7.42449e-07,-3.65255e-07,0.310682,0.08232802509382053,0.6018833007195836,7.424492756147316e-07,0.08232975682004606,-3.6525493329886416e-07,-0.14493603501862107
381,0.3709,421.747,421.689,-0.000590402,421.711,0.00175572,0.00197241,0.0792975,0.0792984,-0.156943,0.472274,5.39346e-07,1.49908e-07,0.31141,0.08252632575180341,0.6036367199960355,5.393461455227566e-07,0.082527300025935,1.4990801133762943e-07,-0.14524722166246917
382,0.3719,421.886,421.847,-0.0429126,421.892,0.00460269,-0.00495084,0.0794799,0.0794809,-0.157307,0.473368,5.84628e-07,4.89066e-08,0.312137,0.0827237965624108,0.6053920585628361,5.846281709853685e-07,0.08272487928674876,4.890660121326107e-08,-0.14555829505499196
383,0.3729,422.18,422.093,0.0624966,422.082,-0.00429228,0.01268,0.0796625,0.0796632,-0.157671,0.47446,4.67185e-07,3.06531e-07,0.312864,0.08292151997926167,0.6071461042254154,4.671851090432e-07,0.08292227802459107,3.065310469896332e-07,-0.14586925523740535
384,0.3739,422.269,422.226,-0.0255078,422.259,0.00292109,-0.00276645,0.0798446,0.0798455,-0.158035,0.475552,5.60661e-07,1.02947e-07,0.313591,0.08311873794420066,0.6089020663520572,5.606611572783748e-07,0.08311971275150354,1.0294700536483958e-07,-0.14618010225091027
385,0.3749,422.552,422.465,0.0718246,422.448,-0.00563647,0.0133793,0.0800269,0.0800276,-0.158398,0.476643,4.43428e-07,3.43208e-07,0.314316,0.0833162084890211,0.6106583363775417,4.434280982401617e-07,0.08331696681063261,3.4320805886167705e-07,-0.14648998262710222
386,0.3759,422.631,422.592,-0.0261458,422.623,0.00272488,-0.00375127,0.0802087,0.0802096,-0.158762,0.477733,5.50303e-07,1.15692e-07,0.315042,0.08351317327928154,0.6124149111235142,5.503031514919599e-07,0.08351414844157623,1.1569200664141022e-07,-0.14680060373695425
387,0.3769,422.917,422.832,0.0751865,422.811,-0.00630593,0.0131645,0.0803908,0.0803914,-0.159125,0.478822,4.2557e-07,3.65016e-07,0.315767,0.08371049899409666,0.6141717874072379,4.255700905009263e-07,0.08371114922059109,3.650160667056923e-07,-0.14711025891198326
388,0.3779,422.989,422.955,-0.0287353,422.985,0.00275124,-0.00491179,0.0805722,0.0805732,-0.159488,0.479911,5.40913e-07,1.22475e-07,0.316491,0.08390710190995954,0.6159305779713711,5.409131462741357e-07,0.0839081858176034,1.2247500746909168e-07,-0.14741980170258262
389,0.3789,423.28,423.196,0.0778406,423.173,-0.00677467,0.012969,0.0807541,0.0807546,-0.15985,0.480999,4.09036e-07,3.83454e-07,0.317215,0.08410428254483193,0.6176896672112244,4.0903608367059974e-07,0.08410482459710877,3.834540736047387e-07,-0.14772837987834675
390,0.3799,423.345,423.315,-0.0314779,423.346,0.00286558,-0.00595807,0.0809353,0.0809362,-0.160212,0.482086,5.31674e-07,1.27386e-07,0.317938,0.08430074003934052,0.6194490519318425,5.316741413796677e-07,0.08430171591044577,1.273860081862921e-07,-0.14803684636902736
391,0.3809,423.641,423.558,0.0803467,423.533,-0.00712876,0.0128659,0.0811169,0.0811174,-0.160574,0.483172,3.93311e-07,4.00012e-07,0.318661,0.08449766693415262,0.6212087289339061,3.933110772624815e-07,0.08449820918312168,4.00012079904144e-07,-0.14834520121504735
392,0.3819,423.7,423.673,-0.0341577,423.704,0.00303778,-0.00688155,0.0812978,0.0812987,-0.160936,0.484258,5.22683e-07,1.31124e-07,0.319384,0.08469387030816122,0.622970317983248,5.226831365501283e-07,0.08469484653308368,1.3112400853998452e-07,-0.1486534444568146
393,0.3829,424.0,423.919,0.0827454,423.891,-0.00740207,0.0128396,0.0814791,0.0814796,-0.161297,0.485342,3.7835e-07,4.15019e-07,0.320105,0.0848905431347009,0.6247305716930862,3.7835007149489286e-07,0.08489108558010816,4.1501908620844574e-07,-0.14896072509587333
394,0.3839,424.053,424.03,-0.0367313,424.061,0.00324994,-0.00769787,0.0816597,0.0816607,-0.161659,0.486426,5.14066e-07,1.3397e-07,0.320827,0.0850864920604466,0.626492734552518,5.140661321068052e-07,0.08508757714748105,1.3397000886428145e-07,-0.14926874555832115
395,0.3849,424.358,424.277,0.0850281,424.247,-0.00761446,0.0128685,0.0818408,0.0818413,-0.162019,0.487509,3.64171e-07,4.28637e-07,0.321547,0.0852830190191376,0.6282551803761891,3.641710664137321e-07,0.08528356166078277,4.2863709182050513e-07,-0.14957495368914964
396,0.3859,424.405,424.384,-0.0391749,424.416,0.00348704,-0.00842235,0.0820212,0.0820221,-0.16238,0.488592,5.05839e-07,1.36146e-07,0.322268,0.0854788217366429,0.6300195359626373,5.058391279177954e-07,0.08547979866802202,1.3614600935518695e-07,-0.1498819017234141
397,0.3869,424.714,424.633,0.0871693,424.601,-0.00778004,0.012933,0.082202,0.0822025,-0.16274,0.489673,3.5077e-07,4.4097e-07,0.322987,0.08567509405009521,0.6317825398129124,3.5077006144135225e-07,0.08567563688777802,4.4097009732624315e-07,-0.15018788915775083
398,0.3879,424.756,424.736,-0.0414673,424.769,0.0037366,-0.00906583,0.0823821,0.082383,-0.163101,0.490754,4.98002e-07,1.37827e-07,0.323706,0.0858706417430748,0.6335474505008099,4.98002123983099e-07,0.08587161902709228,1.3782700958309135e-07,-0.15049461596224567
399,0.3889,425.068,424.987,0.0891491,424.953,-0.0079078,0.0130177,0.0825627,0.0825632,-0.16346,0.491834,3.38166e-07,4.52089e-07,0.324425,0.08606676769061372,0.6353126347752829,3.381660571566414e-07,0.0860673107241332,4.520891021542184e-07,-0.1507995336591138
400,0.3899,425.105,425.087,-0.0435875,425.121,0.00398863,-0.00963575,0.0827425,0.0827434,-0.16382,0.492914,4.90538e-07,1.39169e-07,0.325143,0.08626206005170167,0.6370797264785988,4.905381203457182e-07,0.08626303768799559,1.3916900964972e-07,-0.15110519080540907
401,0.3909,425.42,425.339,0.0909476,425.304,-0.00800405,0.0131096,0.0829229,0.0829233,-0.164179,0.493992,3.26366e-07,4.6205e-07,0.325861,0.08645803940414098,0.6388454499777154,3.2636605329372514e-07,0.08645847398744366,4.6205010684197134e-07,-0.15140988934524957
402,0.3919,425.452,425.436,-0.0455157,425.47,0.00423504,-0.0101375,0.0831024,0.0831033,-0.164539,0.49507,4.83414e-07,1.40307e-07,0.326578,0.08665307612623607,0.6406130779530925,4.834141167364692e-07,0.08665405411444471,1.4030700978828747e-07,-0.15171532680304411
403,0.3929,425.77,425.689,0.0925461,425.653,-0.00807302,0.0131982,0.0832825,0.0832829,-0.164897,0.496146,3.15371e-07,4.7089e-07,0.327294,0.08684879996964945,0.6423793276969221,3.153710497194595e-07,0.08684923470925643,4.708901109040653e-07,-0.15201895836275658
404,0.3939,425.798,425.783,-0.0472341,425.818,0.00446943,-0.0105748,0.0834618,0.0834627,-0.165256,0.497223,4.76589e-07,1.41354e-07,0.328011,0.0870436894308022,0.6441491230966045,4.765891135072309e-07,0.08704466777056297,1.4135401005255233e-07,-0.15232332891892053
405,0.3949,426.119,426.037,0.0939274,426.0,-0.0081175,0.0132748,0.0836416,0.0836421,-0.165614,0.498298,3.05176e-07,4.78639e-07,0.328726,0.08723915745821098,0.6459175337543603,3.051760466554754e-07,0.08723970107792556,4.786391145650271e-07,-0.15262674285283284
406,0.3959,426.142,426.129,-0.0487265,426.164,0.00468679,-0.0109503,0.0838206,0.0838216,-0.165972,0.499373,4.70019e-07,1.4241e-07,0.329441,0.0874337906865501,0.6476878464757492,4.70019110521136e-07,0.08743487812088468,1.42410010228744e-07,-0.1529300481839978
407,0.3969,426.465,426.384,0.0950767,426.346,-0.00813929,0.0133323,0.0840002,0.0840006,-0.16633,0.500446,2.95772e-07,4.8532e-07,0.330156,0.08762911133462659,0.6494567643897613,2.957720437457567e-07,0.08762954638635811,4.853201178711686e-07,-0.15323324495128832
408,0.3979,426.486,426.473,-0.0499792,426.509,0.00488326,-0.0112659,0.084179,0.0841799,-0.166688,0.50152,4.63661e-07,1.43558e-07,0.33087,0.08782359680621643,0.6512292325997697,4.6366110750817313e-07,0.08782457584789394,1.4355801036813887e-07,-0.1535363331935633
409,0.3989,426.81,426.728,0.0959814,426.69,-0.00813948,0.013365,0.0843583,0.0843587,-0.167044,0.502592,2.87143e-07,4.90956e-07,0.331583,0.08801866106411182,0.6530002994593467,2.8714304112220645e-07,0.08801909627166338,4.909561204247126e-07,-0.15383762062660133
410,0.3999,426.827,426.815,-0.0509807,426.852,0.00505593,-0.0115231,0.0845368,0.0845377,-0.167402,0.503663,4.57472e-07,1.44869e-07,0.332297,0.08821288972950447,0.654771611148163,4.5747210464242016e-07,0.08821386912154594,1.4486901056542933e-07,-0.1541404925411095
411,0.4009,427.153,427.071,0.0966312,427.032,-0.00811873,0.0133685,0.0847159,0.0847163,-0.167758,0.504734,2.79271e-07,4.95566e-07,0.333009,0.08840780611229615,0.6565448209280447,2.7927103896097094e-07,0.08840824147550563,4.955661228045471e-07,-0.1544415649316997
412,0.4019,427.168,427.156,-0.0517221,427.193,0.00520268,-0.0117232,0.0848941,0.084895,-0.168115,0.505804,4.51412e-07,1.46401e-07,0.333721,0.08860177766569732,0.6583182725138339,4.5141210192056747e-07,0.08860275740773815,1.4640101064777866e-07,-0.15474337541664207
413,0.4029,427.494,427.412,0.0970188,427.373,-0.00807745,0.0133393,0.085073,0.0850734,-0.168471,0.506873,2.72136e-07,4.99171e-07,0.334433,0.0887965459452249,0.6600919626156019,2.7213603703835076e-07,0.08879698146393045,4.991711246571384e-07,-0.15504423321912741
414,0.4039,427.507,427.495,-0.0521976,427.533,0.0053221,-0.0118672,0.0852509,0.0852518,-0.168828,0.507942,4.45446e-07,1.48201e-07,0.335144,0.0889902600811101,0.6618675498059019,4.454460991176745e-07,0.08899124017278526,1.4820101101875593e-07,-0.15534582858989132
415,0.4049,427.833,427.751,0.0971396,427.711,-0.0080159,0.013275,0.0854295,0.0854299,-0.169183,0.509009,2.65713e-07,5.01796e-07,0.335854,0.08918477111087841,0.663641708827061,2.657130353522774e-07,0.08918520678487396,5.017961259845549e-07,-0.1556456276032685
416,0.4059,427.844,427.833,-0.0524038,427.871,0.00541334,-0.0119565,0.0856072,0.0856081,-0.169539,0.510077,4.39541e-07,1.50304e-07,0.336564,0.08937833644247517,0.6654194273047795,4.395410966306912e-07,0.08937931688341916,1.5030401123716786e-07,-0.1559461642611426
417,0.4069,428.17,428.088,0.0969918,428.049,-0.00793434,0.0131739,0.0857856,0.0857859,-0.169894,0.511143,2.59978e-07,5.03467e-07,0.337274,0.08957269887430996,0.6671957110052913,2.5997803376753836e-07,0.08957302574616866,5.034671266557211e-07,-0.15624575019318065
418,0.4079,428.181,428.17,-0.0523406,428.207,0.00547603,-0.0119924,0.085963,0.0859639,-0.170249,0.512208,4.3367e-07,1.52735e-07,0.337983,0.08976600621694453,0.6689722202607771,4.336700940577032e-07,0.08976698700679164,1.5273501174917214e-07,-0.15654522979108831
419,0.4089,428.505,428.423,0.0965767,428.384,-0.00783309,0.0130351,0.0861411,0.0861415,-0.170603,0.513273,2.549e-07,5.04215e-07,0.338691,0.08996011082715438,0.6707506225064583,2.549000324147954e-07,0.08996054681128585,5.042151272061091e-07,-0.1568437599367889
420,0.4099,428.516,428.505,-0.0520106,428.542,0.00551026,-0.0119766,0.0863183,0.0863192,-0.170958,0.514337,4.2781e-07,1.55512e-07,0.339399,0.0901532688720903,0.67252924722936,4.2781009157444316e-07,0.09015425001047372,1.5551201215657784e-07,-0.15714302727891527
421,0.4109,428.838,428.757,0.0958982,428.718,-0.00771258,0.0128586,0.0864961,0.0864965,-0.171312,0.5154,2.50451e-07,5.04075e-07,0.340107,0.09034711535573736,0.6743080911071826,2.5045103146936754e-07,0.09034755149467077,5.040751269724808e-07,-0.1574413458417575
422,0.4119,428.85,428.838,-0.0514192,428.876,0.00551651,-0.011911,0.0866731,0.086674,-0.171667,0.516463,4.21945e-07,1.5864e-07,0.340814,0.0905401238759056,0.6760888269014229,4.2194508909076944e-07,0.09054110536245874,1.5864001268184325e-07,-0.15774040107853848
423,0.4129,429.17,429.089,0.0949632,429.05,-0.00757336,0.0126448,0.0868506,0.086851,-0.17202,0.517524,2.46598e-07,5.03085e-07,0.34152,0.09073371192832491,0.6778681008846994,2.4659803044002615e-07,0.09073414822189685,5.030851264464786e-07,-0.1580376662465688
424,0.4139,429.182,429.17,-0.0505745,429.207,0.00549557,-0.0117979,0.0870273,0.0870282,-0.172374,0.518585,4.16062e-07,1.62118e-07,0.342227,0.09092646160415496,0.6796492636795097,4.160620865611975e-07,0.09092744343841219,1.6211801323606778e-07,-0.15833566816326616
425,0.4149,429.499,429.419,0.0937812,429.381,-0.00741618,0.0123948,0.0872047,0.087205,-0.172727,0.519645,2.43307e-07,5.0129e-07,0.342932,0.09112000912560103,0.6814306358594697,2.4330702963482054e-07,0.09112033646165285,5.012901256318258e-07,-0.15863272323909905
426,0.4159,429.513,429.501,-0.0494874,429.537,0.00544854,-0.0116398,0.0873811,0.087382,-0.17308,0.520705,4.10152e-07,1.65938e-07,0.343637,0.09131249967237798,0.6832138972950688,4.1015208407380044e-07,0.09131348185406951,1.659380137741806e-07,-0.1589296734729958
427,0.4169,429.827,429.748,0.0923641,429.71,-0.00724195,0.0121101,0.0875582,0.0875586,-0.173433,0.521763,2.40545e-07,4.98737e-07,0.344341,0.09150578823126665,0.6849956799952501,2.4054502900661134e-07,0.0915062248336691,4.987371242659577e-07,-0.15922651890195916
428,0.4179,429.843,429.83,-0.0481709,429.866,0.00537678,-0.0114395,0.0877344,0.0877353,-0.173786,0.522821,4.04211e-07,1.70082e-07,0.345046,0.0916981284958327,0.6867793488191116,4.042110817170652e-07,0.09169911102459039,1.7008201447232807e-07,-0.15952325956297864
429,0.4189,430.153,430.075,0.0907262,430.038,-0.00705175,0.0117929,0.0879112,0.0879116,-0.174137,0.523878,2.38273e-07,4.95476e-07,0.345749,0.09189115778823731,0.6885632171991669,2.3827302841894493e-07,0.09189159454478779,4.954761227971005e-07,-0.15981821513114158
430,0.4199,430.172,430.158,-0.0466402,430.193,0.00528186,-0.0112001,0.0880872,0.088088,-0.17449,0.524935,3.9824e-07,1.74529e-07,0.346452,0.09208334754421044,0.6903489721249638,3.982400793578478e-07,0.09208422121123805,1.745290152399548e-07,-0.1601147469602533
431,0.4209,430.478,430.4,0.0888814,430.364,-0.0068468,0.0114458,0.0882637,0.0882641,-0.174841,0.52599,2.36468e-07,4.91557e-07,0.347155,0.09227611726647966,0.6921332313217881,2.3646802804755396e-07,0.09227655417701386,4.91557120785302e-07,-0.16040949495277146
432,0.4219,430.499,430.484,-0.0449121,430.519,0.00516566,-0.0109241,0.0884394,0.0884403,-0.175193,0.527046,3.92267e-07,1.79247e-07,0.347857,0.09246804704082034,0.6939210678255978,3.922670770428738e-07,0.09246903026250508,1.79247016118822e-07,-0.16070497880233958
433,0.4229,430.8,430.723,0.0868533,430.689,-0.00662825,0.0110718,0.0886157,0.0886161,-0.175544,0.5281,2.35096e-07,4.87044e-07,0.348558,0.09266066613638779,0.6957074018637519,2.3509602753435388e-07,0.09266110320074183,4.87044118591129e-07,-0.1609995196598355
434,0.4239,430.825,430.809,-0.0430053,430.843,0.00502985,-0.010616,0.0887912,0.0887921,-0.175895,0.529153,3.86275e-07,1.8421e-07,0.34926,0.09285244491139011,0.6974939221957934,3.8627507459310095e-07,0.09285342847903322,1.8421001701796058e-07,-0.1612939571516322
435,0.4249,431.121,431.045,0.0846567,431.012,-0.0063982,0.0106732,0.0889673,0.0889677,-0.176246,0.530206,2.34098e-07,4.81993e-07,0.34996,0.09304491317327201,0.6992823247245472,2.3409802740737007e-07,0.09304535039132489,4.81993116085988e-07,-0.16158829131400465
436,0.4259,431.15,431.133,-0.0409405,431.165,0.00487639,-0.0102796,0.0891425,0.0891434,-0.176597,0.531258,3.80268e-07,1.89378e-07,0.35066,0.09323643141856852,0.7010709103612494,3.802680723641316e-07,0.09323741533179941,1.8937801793406095e-07,-0.16188252218321508
437,0.4269,431.441,431.366,0.0823129,431.333,-0.00615803,0.0102533,0.0893183,0.0893187,-0.176947,0.532309,2.33437e-07,4.76466e-07,0.35136,0.09342863927778766,0.7028596757195791,2.3343702726386084e-07,0.09342907664933087,4.764661134526449e-07,-0.1621758119717439
438,0.4279,431.473,431.455,-0.038738,431.487,0.00470746,-0.00991859,0.0894933,0.0894941,-0.177297,0.53336,3.74261e-07,1.94715e-07,0.352059,0.09362000603376397,0.704650322058582,3.742610701351623e-07,0.09362088093011867,1.947150189973712e-07,-0.16246899912680868
439,0.4289,431.758,431.685,0.0798433,431.653,-0.00590943,0.00981567,0.0896688,0.0896692,-0.177646,0.534409,2.33076e-07,4.70524e-07,0.352757,0.09381195318769309,0.7064394384739194,2.3307602714517373e-07,0.09381239071256187,4.705241107849645e-07,-0.16276124644598988
440,0.4299,431.795,431.775,-0.0364191,431.806,0.00452522,-0.00953675,0.0898436,0.0898444,-0.177996,0.535459,3.68266e-07,2.00179e-07,0.353456,0.09400316822881782,0.70823214088838,3.6826606786277694e-07,0.09400404343170266,2.0017902002678056e-07,-0.16305422873484243
441,0.4309,432.074,432.002,0.0772694,431.972,-0.00565409,0.0093637,0.0900189,0.0900193,-0.178345,0.536507,2.32978e-07,4.64228e-07,0.354153,0.09419496379459869,0.7100233065789159,2.3297802709265625e-07,0.09419540147267158,4.642281077327226e-07,-0.1633462718445271
442,0.4319,432.115,432.095,-0.0340056,432.124,0.00433187,-0.00913791,0.0901934,0.0901942,-0.178695,0.537555,3.62298e-07,2.0573e-07,0.354851,0.09438591747600489,0.7118163503950614,3.6229806554821664e-07,0.09438679298508901,2.0573002124102402e-07,-0.1636390494103187
443,0.4329,432.389,432.318,0.0746131,432.289,-0.00539377,0.00890092,0.0903684,0.0903689,-0.179043,0.538601,2.33106e-07,4.57639e-07,0.355547,0.09457745177032506,0.7136078470870024,2.3310602714765594e-07,0.09457799905918796,4.576391046118289e-07,-0.16393005238366976
444,0.4339,432.435,432.413,-0.0315192,432.441,0.00412955,-0.00872588,0.0905428,0.0905436,-0.179392,0.539648,3.56373e-07,2.11324e-07,0.356244,0.09476836272486522,0.7154029340669539,3.563730635036677e-07,0.09476923853990571,2.1132402228118963e-07,-0.16422178988423286
445,0.4349,432.702,432.632,0.0718958,432.605,-0.00513021,0.00843082,0.0907175,0.0907179,-0.17974,0.540693,2.33424e-07,4.50815e-07,0.356939,0.09495963546502062,0.7171964670908435,2.334240272183763e-07,0.0949600734489624,4.508151016935358e-07,-0.16451259009918096
446,0.4359,432.753,432.729,-0.0289812,432.757,0.00392039,-0.00830438,0.0908916,0.0908924,-0.180089,0.541738,3.50506e-07,2.16919e-07,0.357635,0.09515028453307495,0.718991875336376,3.5050606150832664e-07,0.09515116065365303,2.1691902363230042e-07,-0.16480412432955405
447,0.4369,433.014,432.945,0.0691388,432.919,-0.00486514,0.0079568,0.0910661,0.0910665,-0.180436,0.542781,2.33899e-07,4.43815e-07,0.358329,0.09534140493249588,0.7207857191893017,2.3389902725767797e-07,0.0953418430691455,4.438150984498179e-07,-0.16509388702167715
448,0.4379,433.069,433.045,-0.0264123,433.07,0.00370643,-0.00787703,0.09124,0.0912407,-0.180784,0.543825,3.44714e-07,2.22476e-07,0.359024,0.09553190136599854,0.7225831575797175,3.447140595191911e-07,0.09553266823859774,2.2247602471381356e-07,-0.1653843837996225
449,0.4389,433.324,433.256,0.0663623,433.232,-0.00460022,0.00748213,0.0914142,0.0914146,-0.181131,0.544867,2.34498e-07,4.36692e-07,0.359717,0.09572275964649002,0.7243790247142019,2.3449802744046622e-07,0.0957231979356814,4.366920953735587e-07,-0.16567394517663958
450,0.4399,433.384,433.358,-0.0238326,433.383,0.00348963,-0.00744724,0.0915878,0.0915886,-0.181479,0.545909,3.39013e-07,2.27955e-07,0.360411,0.09591299362939654,0.7261767641175232,3.3901305740435816e-07,0.0959138703601421,2.2795502596650863e-07,-0.16596424012946676
451,0.4409,433.633,433.566,0.0635858,433.544,-0.00433706,0.00700992,0.0917618,0.0917623,-0.181825,0.54695,2.3519e-07,4.29499e-07,0.361104,0.09610369908118122,0.7279746497660886,2.3519002767535824e-07,0.0961042471331679,4.294990922915076e-07,-0.16625276658442678
452,0.4419,433.698,433.671,-0.0212607,433.694,0.00327184,-0.00701826,0.0919352,0.0919359,-0.182172,0.547991,3.33416e-07,2.33318e-07,0.361796,0.09629377994213639,0.7297744079881192,3.334160556534016e-07,0.09629454734805076,2.3331802712078797e-07,-0.16654202668489204
453,0.4429,433.94,433.875,0.0608275,433.854,-0.00407718,0.00654309,0.0921089,0.0921094,-0.182518,0.54903,2.35948e-07,4.22285e-07,0.362488,0.09648422271118795,0.7315725775853612,2.3594802778248436e-07,0.09648477095343622,4.2228508911890117e-07,-0.16683035326028517
454,0.4439,434.01,433.982,-0.0187144,434.004,0.00305477,-0.00659309,0.0922821,0.0922828,-0.182865,0.550069,3.27939e-07,2.38533e-07,0.363179,0.0966741502258095,0.7333726164517318,3.279390536903293e-07,0.09667491789798333,2.3853302844045743e-07,-0.1671194129729432
455,0.4449,434.246,434.182,0.0581043,434.162,-0.00382195,0.0060843,0.0924556,0.092456,-0.18321,0.551107,2.36744e-07,4.15094e-07,0.36387,0.09686443969800806,0.7351727913567521,2.3674402793716354e-07,0.0968648784438717,4.1509408621465127e-07,-0.16740670721436135
456,0.4459,434.321,434.292,-0.0162098,434.312,0.00284001,-0.00617449,0.0926285,0.0926292,-0.183556,0.552145,3.22594e-07,2.43566e-07,0.364561,0.0970541039556343,0.7369748358134534,3.2259405213785897e-07,0.09705487189377582,2.4356602956743245e-07,-0.1676947346620432
457,0.4469,434.551,434.488,0.0554316,434.47,-0.00357265,0.005636,0.0928017,0.0928022,-0.183902,0.553181,2.37554e-07,4.07966e-07,0.365251,0.09724413018223577,0.7387752742094116,2.3755402822622784e-07,0.09724467880443788,4.0796608313797833e-07,-0.16798266246946703
458,0.4479,434.63,434.6,-0.0137616,434.619,0.002629,-0.00576494,0.0929745,0.0929752,-0.184247,0.554217,3.17392e-07,2.48391e-07,0.36594,0.09743375035064195,0.7405775788260833,3.1739205041958485e-07,0.097434518554536,2.4839103085483316e-07,-0.16826965894117707
459,0.4489,434.854,434.793,0.0528233,434.776,-0.00333041,0.00520034,0.0931474,0.0931479,-0.184592,0.555253,2.38358e-07,4.00939e-07,0.366629,0.09762351305059025,0.7423817515978754,2.3835802842597786e-07,0.09762406186248396,4.009390803805246e-07,-0.16855655641618228
460,0.4499,434.938,434.907,-0.0113827,434.925,0.00242301,-0.00536665,0.0933199,0.0933206,-0.184937,0.556287,3.12344e-07,2.52983e-07,0.367318,0.09781286943811018,0.7441843060890985,3.123440488472795e-07,0.09781363790738795,2.5298303207854644e-07,-0.16884335492863056
461,0.4509,435.156,435.096,0.0502915,435.081,-0.00309624,0.00477922,0.0934926,0.0934931,-0.185281,0.557321,2.39135e-07,3.94044e-07,0.368006,0.0980024780928983,0.7459887253856037,2.391350286679028e-07,0.09800302709427466,3.940440775895837e-07,-0.16912922364229732
462,0.4519,435.245,435.212,-0.00908453,435.229,0.00222317,-0.00498151,0.0936649,0.0936656,-0.185626,0.558354,3.07458e-07,2.57321e-07,0.368694,0.09819168021916891,0.7477932636224596,3.074580472439692e-07,0.09819244895361412,2.573210331480169e-07,-0.16941582461862958
463,0.4529,435.457,435.398,0.0478468,435.384,-0.00287098,0.00437424,0.0938374,0.0938378,-0.185969,0.559387,2.39869e-07,3.8731e-07,0.369381,0.09838113462397935,0.749599666910447,2.39869028861861e-07,0.09838157397652103,3.8731007490078184e-07,-0.16970066613767232
464,0.4539,435.55,435.516,-0.00687674,435.532,0.00203043,-0.00461115,0.0940094,0.0940101,-0.186313,0.560418,3.0274e-07,2.61387e-07,0.370067,0.09857007242731997,0.7514044343647879,3.027400459210128e-07,0.09857084142663974,2.613870342393909e-07,-0.16998623998700269
465,0.4549,435.757,435.699,0.0454978,435.686,-0.00265534,0.00398673,0.0941816,0.0941821,-0.186657,0.561449,2.40545e-07,3.80759e-07,0.370754,0.09875926248258815,0.7532110634939027,2.4054502900661134e-07,0.09875981186235672,3.80759072493575e-07,-0.17027171561582377
466,0.4559,435.854,435.819,-0.00476727,435.834,0.00184559,-0.00425689,0.0943534,0.0943541,-0.187,0.56248,2.98195e-07,2.6517e-07,0.371439,0.09894804553988301,0.7550195562181679,2.9819504443473477e-07,0.09894881480378404,2.6517003526294047e-07,-0.17055626361459608
467,0.4569,436.056,435.998,0.0432518,435.987,-0.00244988,0.00361774,0.0945254,0.0945259,-0.187343,0.563509,2.41151e-07,3.74412e-07,0.372125,0.09913708086028739,0.7568264008036256,2.4115102914556985e-07,0.09913763042896506,3.7441207001442933e-07,-0.17084071403014123
468,0.4579,436.156,436.12,-0.0027625,436.134,0.00166929,-0.00391978,0.094697,0.0946977,-0.187686,0.564538,2.93828e-07,2.68657e-07,0.372809,0.09932570896719173,0.7586351055890703,2.9382804322963807e-07,0.09932647849545728,2.6865703617318104e-07,-0.17112506689592455
469,0.4589,436.353,436.297,0.0411142,436.286,-0.00225502,0.00326805,0.0948687,0.0948692,-0.188029,0.565566,2.41678e-07,3.68283e-07,0.373494,0.09951447939689895,0.7604439120448412,2.416780291447651e-07,0.09951502915427612,3.682830678197746e-07,-0.17140932224539995
470,0.4599,436.457,436.42,-0.000867192,436.433,0.00150204,-0.0036006,0.0950401,0.0950407,-0.188371,0.566594,2.89639e-07,2.71844e-07,0.374178,0.09970295233033655,0.7622545789097348,2.8963904186163347e-07,0.09970361215230583,2.718440370585995e-07,-0.17169265180507576
471,0.4609,436.649,436.594,0.0390891,436.584,-0.00207104,0.0029382,0.0952116,0.0952121,-0.188713,0.567621,2.42117e-07,3.62384e-07,0.374861,0.09989156755995476,0.7640653440310095,2.421170293143149e-07,0.09989211750587601,3.6238406564415016e-07,-0.17197588448260992
472,0.4619,436.757,436.719,0.00091337,436.731,0.00134419,-0.00329962,0.0953827,0.0953833,-0.189055,0.568647,2.85642e-07,2.74722e-07,0.375544,0.10007977510786081,0.7658762038862368,2.856420406871507e-07,0.10008043515592391,2.747220377852244e-07,-0.17225902031113038
473,0.4629,436.944,436.889,0.0371791,436.881,-0.00189797,0.00262922,0.0955539,0.0955544,-0.189397,0.569672,2.42487e-07,3.56718e-07,0.376226,0.10026812488764048,0.7676871549490873,2.4248702934492883e-07,0.10026867502184045,3.5671806353221314e-07,-0.1725420593237541
474,0.4639,437.055,437.016,0.00258278,437.027,0.00119618,-0.00301695,0.0957249,0.0957255,-0.189738,0.570697,2.81837e-07,2.77296e-07,0.376909,0.10045628682438346,0.7694999631884176,2.818370397061898e-07,0.10045694709835362,2.772960383534695e-07,-0.1728241743781742
475,0.4649,437.238,437.184,0.0353854,437.177,-0.00173611,0.00234036,0.0958958,0.0958963,-0.19008,0.571721,2.4276e-07,3.51297e-07,0.37759,0.1006443708751259,0.7713128591950649,2.4276002941192587e-07,0.10064492119744894,3.512970616625921e-07,-0.17310702014115453
476,0.4659,437.352,437.312,0.0041361,437.323,0.00105759,-0.00275332,0.0960665,0.0960672,-0.190421,0.572744,2.78204e-07,2.79569e-07,0.378271,0.10083226690570424,0.7731258394313008,2.782040386950513e-07,0.10083303748856087,2.795690390300365e-07,-0.17338894257677928
477,0.4669,437.531,437.477,0.033707,437.471,-0.00158543,0.00207128,0.0962373,0.0962378,-0.190761,0.573767,2.4293e-07,3.46118e-07,0.378952,0.10102030511489768,0.7749406752953103,2.4293002942599173e-07,0.10102085562518792,3.4611805999062994e-07,-0.17366994256359836
478,0.4679,437.647,437.607,0.00557506,437.617,0.00092858,-0.00250853,0.0964077,0.0964084,-0.191102,0.574789,2.74741e-07,2.81544e-07,0.379632,0.10120793496049818,0.7767555919298914,2.7474103769797864e-07,0.10120870580632246,2.8154403963753794e-07,-0.17395167307540194
479,0.4689,437.822,437.77,0.0321433,437.764,-0.00144568,0.00182182,0.0965782,0.0965788,-0.191442,0.57581,2.42998e-07,3.4118e-07,0.380312,0.10139570692051358,0.7785705857859466,2.42998029476027e-07,0.10139636775813599,3.4118005820538144e-07,-0.17423248176637374
480,0.4699,437.941,437.9,0.0069015,437.909,0.000809082,-0.0022822,0.0967485,0.0967491,-0.191782,0.576831,2.71442e-07,2.8323e-07,0.380991,0.10158329058169757,0.7803874336970629,2.714420368477022e-07,0.10158395153187016,2.8323004008790065e-07,-0.1745131949986195
481,0.4709,438.113,438.061,0.030692,438.056,-0.00131659,0.00159157,0.0969187,0.0969193,-0.192122,0.57785,2.42963e-07,3.3648e-07,0.38167,0.10177079601401418,0.7822025731484865,2.429630294731311e-07,0.10177145707669011,3.364800567062787e-07,-0.1747938128045896
482,0.4719,438.234,438.192,0.0081181,438.201,0.00069892,-0.00207387,0.0970888,0.0970894,-0.192462,0.57887,2.68304e-07,2.84635e-07,0.382348,0.1019582231666436,0.7840213471901716,2.6830403609956477e-07,0.10195888434177602,2.846350404261955e-07,-0.17507433521672366
483,0.4729,438.402,438.351,0.0293499,438.347,-0.00119783,0.00137994,0.0972588,0.0972593,-0.192801,0.579888,2.42829e-07,3.32013e-07,0.383026,0.10214557198878071,0.7858384056474441,2.428290295508617e-07,0.10214612306170445,3.3201305504881873e-07,-0.17535393762179985
484,0.4739,438.525,438.483,0.00922834,438.491,0.000597838,-0.00188293,0.0974286,0.0974292,-0.19314,0.580906,2.65319e-07,2.85771e-07,0.383703,0.1023327321963563,0.7876573148120767,2.6531903518645095e-07,0.10233339359619409,2.85771040831051e-07,-0.17563344525772495
485,0.4749,438.69,438.639,0.0281134,438.637,-0.00108899,0.00118624,0.0975984,0.0975989,-0.193479,0.581923,2.42597e-07,3.27771e-07,0.38438,0.10251992418643341,0.7894762870918661,2.4259702935403027e-07,0.10252047544653342,3.2777105363201997e-07,-0.1759128581566204
486,0.4759,438.816,438.773,0.0102363,438.78,0.000505513,-0.00170866,0.0977679,0.0977685,-0.193818,0.582939,2.6248e-07,2.86649e-07,0.385057,0.10270681715231444,0.7912953189112402,2.6248003437423506e-07,0.10270747877660313,2.8664904117015055e-07,-0.17619217635059647
487,0.4769,438.978,438.927,0.0269778,438.925,-0.000989637,0.00100967,0.0979375,0.097938,-0.194156,0.583955,2.42272e-07,3.23745e-07,0.385733,0.10289385208861779,0.793116199806114,2.4227202932713965e-07,0.10289440353568158,3.23745052321911e-07,-0.17647057634274077
488,0.4779,439.104,439.061,0.0111468,439.068,0.000421566,-0.00155027,0.0981068,0.0981074,-0.194494,0.58497,2.59782e-07,2.87282e-07,0.386408,0.10308058782451046,0.7949371367180686,2.597820336625034e-07,0.10308124967306154,2.8728204126693413e-07,-0.1767488822515888
489,0.4789,439.264,439.214,0.0259385,439.212,-0.000899279,0.000849372,0.0982762,0.0982767,-0.194832,0.585984,2.41857e-07,3.19924e-07,0.387083,0.10326746550418053,0.7967581260602694,2.418570292928024e-07,0.10326801713805112,3.1992405125080836e-07,-0.17702709410893525
490,0.4799,439.392,439.348,0.0119647,439.354,0.000345578,-0.00140692,0.0984453,0.0984458,-0.19517,0.586998,2.57214e-07,2.87686e-07,0.387758,0.10345404380734813,0.7985809628221467,2.572140331835726e-07,0.10345459553450786,2.87686041433588e-07,-0.17730521194656412
491,0.4809,439.549,439.499,0.02499,439.498,-0.000817414,0.000704416,0.0986144,0.0986149,-0.195508,0.588011,2.41358e-07,3.16298e-07,0.388432,0.10364065366357456,0.8004038484731855,2.413580291182882e-07,0.10364120548403943,3.162980499737955e-07,-0.17758323579624868
492,0.4819,439.678,439.634,0.0126954,439.64,0.000277097,-0.00127772,0.0987833,0.0987838,-0.195845,0.589023,2.54771e-07,2.87873e-07,0.389106,0.10382707431275917,0.8022267794153184,2.5477103249293975e-07,0.10382762622643416,2.8787304140465153e-07,-0.17786034355050617
493,0.4829,439.832,439.783,0.024127,439.783,-0.000743519,0.000573849,0.0989521,0.0989526,-0.196182,0.590034,2.40779e-07,3.12854e-07,0.389779,0.10401341604970327,0.8040497520466976,2.4077902893715475e-07,0.10401396805654928,3.128540488894771e-07,-0.17813735793518415
494,0.4839,439.963,439.918,0.0133446,439.924,0.000215652,-0.00116173,0.0991208,0.0991213,-0.196519,0.591045,2.52444e-07,2.87858e-07,0.390452,0.10419967882381398,0.8058745686353705,2.524440319007226e-07,0.10420023092379149,2.878580414034104e-07,-0.17841427898174278
495,0.4849,440.115,440.066,0.0233439,440.066,-0.00067706,0.000456698,0.0992894,0.0992899,-0.196856,0.592056,2.40126e-07,3.09582e-07,0.391125,0.10438586258451377,0.8077012310465206,2.4012602883871637e-07,0.10438641477758304,3.095820479970257e-07,-0.1786911067216319
496,0.4859,440.246,440.202,0.0139177,440.207,0.000160759,-0.00105803,0.0994578,0.0994584,-0.197192,0.593065,2.50226e-07,2.87657e-07,0.391797,0.10457185682404835,0.8095261220913545,2.5022603122870635e-07,0.10457251956736124,2.8765704129796177e-07,-0.178967020153721
497,0.4869,440.397,440.348,0.0226349,440.349,-0.000617504,0.000351983,0.0996262,0.0996267,-0.197528,0.594074,2.39405e-07,3.06468e-07,0.392468,0.10475788238765027,0.8113528553805089,2.394050286902427e-07,0.10475843476672964,3.064680469400116e-07,-0.17924284089447007
498,0.4879,440.529,440.484,0.0144206,440.489,0.000111932,-0.000965688,0.0997944,0.099795,-0.197864,0.595082,2.48107e-07,2.87283e-07,0.393139,0.10494371829182936,0.8131796195932199,2.4810703069810813e-07,0.10494438125825933,2.872830413558347e-07,-0.17951856897501794
499,0.4889,440.678,440.629,0.0219945,440.63,-0.000564322,0.000258739,0.0999626,0.0999631,-0.1982,0.59609,2.38621e-07,3.03501e-07,0.39381,0.10512958545623641,0.8150082261126239,2.386210284921475e-07,0.10513013802116733,3.0350104607279604e-07,-0.1797942044264933
500,0.4899,440.81,440.765,0.0148587,440.77,6.86902e-05,-0.000883784,0.100131,0.100131,-0.198535,0.597097,2.46081e-07,2.86751e-07,0.39448,0.1053157049492488,0.816836859958934,2.460810302196137e-07,0.1053157049492488,2.8675104113418115e-07,-0.18006892734935154
501,0.4909,440.957,440.909,0.0214171,440.91,-0.000516996,0.000176018,0.100299,0.100299,-0.198871,0.598103,2.3778e-07,3.00669e-07,0.39515,0.1055014135867689,0.8186655175005739,2.37780028333745e-07,0.1055014135867689,3.006690452167504e-07,-0.18034437791147628
502,0.4919,441.09,441.045,0.0152375,441.049,3.05597e-05,-0.000811426,0.100466,0.100467,-0.199206,0.599108,2.4414e-07,2.86074e-07,0.395819,0.10568604773936063,0.8204941951022391,2.441400297481522e-07,0.10568715342596113,2.8607404090053024e-07,-0.18061891655708529
503,0.4929,441.236,441.187,0.0208973,441.189,-0.000475024,0.000102904,0.100634,0.100635,-0.199541,0.600113,2.36888e-07,2.97961e-07,0.396488,0.10587181859969608,0.8223247114487089,2.3688802808230491e-07,0.10587292447206775,2.9796104428214676e-07,-0.18089336324765137
504,0.4939,441.369,441.323,0.0155623,441.328,-2.91679e-06,-0.00074775,0.100802,0.100802,-0.199875,0.601117,2.42277e-07,2.85267e-07,0.397156,0.10605762067215796,0.8241552442326936,2.4227702932755335e-07,0.10605762067215796,2.8526704065612307e-07,-0.18116689918128281
505,0.4949,441.513,441.465,0.02043,441.467,-0.000437924,3.85162e-05,0.100969,0.10097,-0.20021,0.60212,2.35948e-07,2.95364e-07,0.397824,0.10624234771908925,0.8259857898078029,2.3594802778248436e-07,0.10624345396199009,2.953640436675897e-07,-0.181441162328415
506,0.4959,441.647,441.601,0.0158381,441.605,-3.21784e-05,-0.000691932,0.101136,0.101137,-0.200544,0.603123,2.40485e-07,2.84341e-07,0.398492,0.1064271056180135,0.8278181723412044,2.404850290016469e-07,0.10642821204567232,2.8434104049068765e-07,-0.18171451532770533
507,0.4969,441.789,441.741,0.0200102,441.743,-0.000405237,-1.79813e-05,0.101304,0.101304,-0.200878,0.604125,2.34967e-07,2.92869e-07,0.399159,0.10661300098653115,0.8296505640248131,2.3496702761249821e-07,0.10661300098653115,2.928690427950187e-07,-0.18198777704233915
508,0.4979,441.923,441.877,0.0160698,441.881,-5.76424e-05,-0.000643191,0.101471,0.101471,-0.201211,0.605127,2.38758e-07,2.83308e-07,0.399825,0.10679782078971978,0.8314847926850604,2.38758028459074e-07,0.10679782078971978,2.833080401387633e-07,-0.18226012976333927
509,0.4989,442.065,442.017,0.0196333,442.019,-0.000376529,-6.73777e-05,0.101638,0.101638,-0.201545,0.606128,2.33949e-07,2.90466e-07,0.400491,0.1069826714603932,0.8333190268435757,2.33949027261815e-07,0.1069826714603932,2.9046604210769544e-07,-0.1825332092731815
510,0.4999,442.198,442.152,0.0162618,442.156,-7.97023e-05,-0.000600793,0.101805,0.101805,-0.201878,0.607128,2.3709e-07,2.8218e-07,0.401157,0.10716755300370617,0.8351532628355622,2.3709002805460955e-07,0.10716755300370617,2.8218003977897865e-07,-0.18280538039548666
511,0.5009,442.339,442.291,0.0192948,442.294,-0.000351393,-0.000110412,0.101971,0.101972,-0.202211,0.608127,2.32898e-07,2.88145e-07,0.401822,0.10735135807290352,0.836987496992549,2.3289802708603702e-07,0.10735246542481525,2.881450416047926e-07,-0.18307746089989674
512,0.5019,442.473,442.426,0.0164185,442.43,-9.87259e-05,-0.000564053,0.102138,0.102139,-0.202544,0.609126,2.35474e-07,2.80966e-07,0.402487,0.10753630119202229,0.8388235644650475,2.3547402783208327e-07,0.10753740872887718,2.809660395453051e-07,-0.1833494508165826
513,0.5029,442.612,442.564,0.0189906,442.567,-0.000329451,-0.000147771,0.102305,0.102305,-0.202877,0.610124,2.31819e-07,2.85897e-07,0.403152,0.10772127519922114,0.8406596264249078,2.318190268635334e-07,0.10772127519922114,2.858970409302941e-07,-0.1836213501757048
514,0.5039,442.746,442.699,0.0165437,442.703,-0.000115055,-0.000532335,0.102471,0.102472,-0.203209,0.611121,2.33907e-07,2.79678e-07,0.403815,0.10790517219393236,0.8424956791926705,2.3390702730274882e-07,0.10790628009965864,2.7967803917228196e-07,-0.18389234290016498
515,0.5049,442.884,442.837,0.0187171,442.839,-0.000310352,-0.000180089,0.102637,0.102638,-0.203541,0.612118,2.30715e-07,2.83714e-07,0.404479,0.10808909971807878,0.8443335634178724,2.3071502663896126e-07,0.1080902078077326,2.8371404026117375e-07,-0.1841632456699741
516,0.5059,443.018,442.971,0.0166391,442.975,-0.000128981,-0.000504784,0.102804,0.102804,-0.203873,0.613114,2.32393e-07,2.78319e-07,0.405142,0.10827416605034035,0.8461714347550293,2.3239302704425313e-07,0.10827416605034035,2.783190387045664e-07,-0.18443405851499184
517,0.5069,443.155,443.108,0.0184708,443.111,-0.000293603,-0.000207235,0.10297,0.10297,-0.204205,0.61411,2.29615e-07,2.81585e-07,0.405805,0.10845815483255117,0.8480111375239399,2.2961502632590225e-07,0.10845815483255117,2.8158503972974813e-07,-0.18470478146506852
518,0.5079,443.288,443.242,0.0167132,443.246,-0.000140598,-0.000480739,0.103136,0.103136,-0.204536,0.615105,2.30932e-07,2.76903e-07,0.406467,0.10864217415943478,0.8498508236978697,2.30932026612507e-07,0.10864217415943478,2.769030382765436e-07,-0.18497459952505113
519,0.5089,443.425,443.378,0.0182486,443.381,-0.000279218,-0.000230529,0.103302,0.103302,-0.204868,0.616099,2.28496e-07,2.79509e-07,0.407129,0.10882622403606246,0.8516904895790969,2.28496026100089e-07,0.10882622403606246,2.7950903902507207e-07,-0.1852451430452995
520,0.5099,443.558,443.511,0.0167647,443.516,-0.000150663,-0.000460328,0.103468,0.103468,-0.205199,0.617092,2.29502e-07,2.75435e-07,0.40779,0.10901030446750548,0.8535301314662811,2.2950202627214367e-07,0.10901030446750548,2.754350378886272e-07,-0.18551478227519702
521,0.5109,443.694,443.647,0.0180471,443.65,-0.000266927,-0.000250657,0.103633,0.103634,-0.20553,0.618085,2.27359e-07,2.77477e-07,0.408451,0.1091933062649757,0.8553716010251482,2.2735902582837753e-07,0.10919441545883668,2.7747703845726335e-07,-0.18578433226927893
522,0.5119,443.827,443.78,0.0167973,443.784,-0.000159234,-0.000443047,0.103799,0.103799,-0.20586,0.619077,2.281e-07,2.73923e-07,0.409111,0.10937744763712676,0.857213042857506,2.2810002597850598e-07,0.10937744763712676,2.739230375858881e-07,-0.18605297911046326
523,0.5129,443.962,443.915,0.0178639,443.918,-0.000256425,-0.000267898,0.103964,0.103965,-0.206191,0.620069,2.26207e-07,2.75484e-07,0.409771,0.10956051001821798,0.8590563123065094,2.2620702555542493e-07,0.10956161957928279,2.7548403802590826e-07,-0.18632235099087213
524,0.5139,444.095,444.048,0.0168137,444.052,-0.000166493,-0.000428447,0.10413,0.10413,-0.206521,0.62106,2.26724e-07,2.72373e-07,0.410431,0.10974471235125183,0.860899550285573,2.267240257758374e-07,0.10974471235125183,2.723730370135513e-07,-0.18659082031517027
525,0.5149,444.229,444.182,0.0176968,444.185,-0.000247468,-0.000282599,0.104295,0.104295,-0.206851,0.62205,2.25044e-07,2.73525e-07,0.41109,0.10992783533602046,0.862742753075193,2.2504402541478896e-07,0.10992783533602046,2.735250375085485e-07,-0.18685920105920795
526,0.5159,444.361,444.314,0.016816,444.318,-0.000172601,-0.000416149,0.10446,0.10446,-0.207181,0.623039,2.2537e-07,2.7079e-07,0.411749,0.11011098853857448,0.8645859169522851,2.2537002530853556e-07,0.11011098853857448,2.707900366161198e-07,-0.1871274932522119
527,0.5169,444.495,444.447,0.0175437,444.451,-0.000239842,-0.000295083,0.104625,0.104626,-0.20751,0.624028,2.23871e-07,2.71597e-07,0.412407,0.11029417196390034,0.8664309046201677,2.2387102505128098e-07,0.11029528225862761,2.7159703686052694e-07,-0.18739488431868956
528,0.5179,444.627,444.58,0.0168061,444.584,-0.000177707,-0.000405821,0.10479,0.10479,-0.207839,0.625017,2.24036e-07,2.69179e-07,0.413065,0.11047738561698517,0.868277717883462,2.2403602506493314e-07,0.11047738561698517,2.691790361719626e-07,-0.18766218742797613
529,0.5189,444.76,444.712,0.0174027,444.716,-0.00023336,-0.00030564,0.104955,0.104955,-0.208168,0.626004,2.22689e-07,2.69695e-07,0.413722,0.11066062950281697,0.8701226182995978,2.2268902477584618e-07,0.11066062950281697,2.6969503630347447e-07,-0.1879294026090047
530,0.5199,444.891,444.844,0.0167859,444.848,-0.000181948,-0.000397172,0.105119,0.10512,-0.208497,0.626991,2.2272e-07,2.67544e-07,0.414379,0.11084279278303599,0.8719693405313624,2.2272002486722897e-07,0.11084390362638419,2.675440358146375e-07,-0.18819652989069902
531,0.5209,445.024,444.976,0.0172723,444.98,-0.000227857,-0.000314531,0.105284,0.105285,-0.208826,0.627977,2.21502e-07,2.67816e-07,0.415036,0.11102609696602439,0.8738160125608263,2.2150202449999767e-07,0.11102720799267685,2.6781603579273394e-07,-0.18846356930197317
532,0.5219,445.155,445.107,0.0167569,445.112,-0.000185447,-0.000389948,0.105449,0.105449,-0.209155,0.628963,2.21419e-07,2.65889e-07,0.415692,0.11120943139669848,0.87566450630687,2.214190244487213e-07,0.11120943139669848,2.6588903545565756e-07,-0.1887305208717316
533,0.5229,445.286,445.239,0.0171508,445.243,-0.000223193,-0.000321987,0.105613,0.105613,-0.209483,0.629948,2.20309e-07,2.65957e-07,0.416348,0.11139168468780891,0.8775129460527069,2.203090243568795e-07,0.11139168468780891,2.659570352836482e-07,-0.18899657362584876
534,0.5239,445.417,445.37,0.0167204,445.374,-0.000188311,-0.000383928,0.105777,0.105778,-0.209811,0.630932,2.20132e-07,2.64217e-07,0.417003,0.11157396787091,0.8793613280464214,2.2013202416459876e-07,0.11157507944543377,2.642170349176354e-07,-0.1892625391289725
535,0.5249,445.548,445.501,0.0170371,445.505,-0.000219243,-0.000328211,0.105941,0.105942,-0.210139,0.631916,2.19113e-07,2.64115e-07,0.417658,0.11175628095090495,0.8812115297431649,2.1911302394705956e-07,0.11175739270774177,2.641150349536048e-07,-0.1895284174097165
536,0.5259,445.678,445.631,0.0166776,445.636,-0.000190638,-0.000378923,0.106105,0.106106,-0.210466,0.632899,2.18858e-07,2.62532e-07,0.418312,0.11193862393269671,0.8830616698717948,2.1885802392596077e-07,0.11193973587187656,2.6253203455617324e-07,-0.18979339829048825
537,0.5269,445.809,445.762,0.01693,445.766,-0.0002159,-0.000333382,0.106269,0.10627,-0.210794,0.633882,2.17914e-07,2.62289e-07,0.418966,0.11212099682118959,0.884913629582349,2.179140237146271e-07,0.11212210894274266,2.622890344916584e-07,-0.1900591024779802
538,0.5279,445.939,445.892,0.0166295,445.896,-0.000192511,-0.000374767,0.106433,0.106434,-0.211121,0.634863,2.17595e-07,2.60836e-07,0.41962,0.11230339962128921,0.8867636371333085,2.1759502377705076e-07,0.11230451192524482,2.6083603410498313e-07,-0.19032390985310432
539,0.5289,446.069,446.022,0.0168287,446.026,-0.000213075,-0.000337657,0.106597,0.106597,-0.211448,0.635845,2.16713e-07,2.60476e-07,0.420273,0.11248583233790099,0.8886173490485589,2.1671302352643806e-07,0.11248583233790099,2.60476033853152e-07,-0.19058863065037324
540,0.5299,446.198,446.151,0.016577,446.156,-0.000194005,-0.000371322,0.10676,0.106761,-0.211774,0.636825,2.16341e-07,2.59131e-07,0.420925,0.11266718230819306,0.8904691012610086,2.1634102331802296e-07,0.11266829497593167,2.591310335198216e-07,-0.19085245575095322
541,0.5309,446.328,446.28,0.0167322,446.285,-0.000210686,-0.00034117,0.106924,0.106924,-0.212101,0.637805,2.15512e-07,2.58675e-07,0.421578,0.1128496746900578,0.8923226690801285,2.1551202311620443e-07,0.1128496746900578,2.5867503339327413e-07,-0.19111700374196883
542,0.5319,446.457,446.409,0.016521,446.414,-0.000195183,-0.000368465,0.107087,0.107088,-0.212427,0.638784,2.15097e-07,2.57419e-07,0.422229,0.1130310839714872,0.8941761601089784,2.1509702308186718e-07,0.11303219700312761,2.574190332005344e-07,-0.19138065662099468
543,0.5329,446.586,446.538,0.0166399,446.543,-0.000208668,-0.000344039,0.107251,0.107251,-0.212753,0.639763,2.14311e-07,2.56884e-07,0.422881,0.11321363603811885,0.8960314665940659,2.143110229280154e-07,0.11321363603811885,2.568840329342237e-07,-0.19164422356319044
544,0.5339,446.714,446.667,0.0164619,446.672,-0.000196099,-0.000366097,0.107414,0.107414,-0.213079,0.640741,2.1386e-07,2.55702e-07,0.423532,0.11339510465008296,0.8978866924259523,2.1386002280188166e-07,0.11339510465008296,2.557020326587889e-07,-0.19190770459656692
545,0.5349,446.843,446.795,0.016551,446.8,-0.000206963,-0.000346365,0.107577,0.107577,-0.213405,0.641718,2.1311e-07,2.55102e-07,0.424182,0.11357660284384208,0.8997418338134546,2.1311002273982638e-07,0.11357660284384208,2.5510203260914466e-07,-0.19217109974912583
546,0.5359,446.971,446.923,0.0164004,446.928,-0.0001968,-0.000364129,0.10774,0.10774,-0.21373,0.642695,2.1263e-07,2.53981e-07,0.424833,0.11375813062421769,0.9015987885597743,2.12630022700111e-07,0.11375813062421769,2.5398103220553025e-07,-0.19243360148286504
547,0.5369,447.099,447.051,0.0164653,447.056,-0.000205522,-0.000348232,0.107903,0.107903,-0.214056,0.643671,2.1191e-07,2.53329e-07,0.425482,0.11393968799603327,0.9034556549808215,2.1191002241849333e-07,0.11393968799603327,2.5332903219599245e-07,-0.1926968252209812
548,0.5379,447.226,447.179,0.016337,447.184,-0.000197327,-0.00036249,0.108066,0.108066,-0.214381,0.644646,2.11407e-07,2.52258e-07,0.426132,0.1141212749641125,0.9053124292748049,2.11407022332466e-07,0.1141212749641125,2.5225803179651507e-07,-0.1929591561217039
549,0.5389,447.354,447.306,0.016382,447.311,-0.000204304,-0.000349716,0.108228,0.108229,-0.214706,0.645621,2.10711e-07,2.51563e-07,0.426781,0.11430177723094559,0.9071710148065597,2.1071102218606086e-07,0.11430289153328,2.515630317390105e-07,-0.1932214017787368
550,0.5399,447.481,447.433,0.0162721,447.438,-0.000197712,-0.000361118,0.108391,0.108391,-0.21503,0.646595,2.10189e-07,2.50533e-07,0.427429,0.11448342322438054,0.9090295043124452,2.101890221872793e-07,0.11448342322438054,2.505330314317433e-07,-0.19348275570293838
551,0.5409,447.608,447.56,0.016301,447.565,-0.000203273,-0.000350879,0.108553,0.108554,-0.215355,0.647569,2.09514e-07,2.49804e-07,0.428077,0.11466398416398405,0.910889804868948,2.0951402190938495e-07,0.1146650988285256,2.4980403123819883e-07,-0.19374483121775699
552,0.5419,447.734,447.687,0.016206,447.692,-0.000197984,-0.000359962,0.108716,0.108716,-0.215679,0.648541,2.08977e-07,2.48807e-07,0.428725,0.11484568920196092,0.9127480927408798,2.089770219093623e-07,0.11484568920196092,2.48807030978071e-07,-0.19400601557829122
553,0.5429,447.861,447.813,0.0162219,447.818,-0.0002024,-0.000351773,0.108878,0.108878,-0.216003,0.649514,2.08318e-07,2.48051e-07,0.429372,0.11502630883340692,0.9146101023558928,2.0831802172160963e-07,0.11502630883340692,2.4805103082670144e-07,-0.19426711532880014
554,0.5439,447.987,447.94,0.0161389,447.945,-0.000198167,-0.00035898,0.10904,0.10904,-0.216327,0.650485,2.0777e-07,2.47082e-07,0.430019,0.11520695772760314,0.9164700916439401,2.0777002163185898e-07,0.11520695772760314,2.4708203061329925e-07,-0.19452813049669304
555,0.5449,448.113,448.066,0.0161444,448.071,-0.00020166,-0.000352444,0.109202,0.109202,-0.21665,0.651456,2.07124e-07,2.46304e-07,0.430665,0.11538763588929113,0.9183318878587072,2.0712402148959086e-07,0.11538763588929113,2.463040302824737e-07,-0.19478825589802873
556,0.5459,448.239,448.191,0.0160712,448.197,-0.00019828,-0.000358137,0.109364,0.109364,-0.216973,0.652427,2.06567e-07,2.45357e-07,0.431311,0.11556834332321198,0.9201954927555718,2.065670212658688e-07,0.11556834332321198,2.453570300264829e-07,-0.19504829729242767
557,0.5469,448.364,448.317,0.0160683,448.322,-0.000201032,-0.000352928,0.109526,0.109526,-0.217297,0.653396,2.05933e-07,2.44562e-07,0.431957,0.11574908003410878,0.9220570639736452,2.0593302130222924e-07,0.11574908003410878,2.445620299607043e-07,-0.19530905939836263
558,0.5479,448.49,448.442,0.016003,448.447,-0.000198339,-0.000357404,0.109687,0.109688,-0.21762,0.654365,2.05369e-07,2.43633e-07,0.432602,0.11592873009743632,0.9239204399284826,2.053690211223369e-07,0.1159298460267244,2.4363302975061174e-07,-0.19556893260039543
559,0.5489,448.615,448.567,0.0159934,448.572,-0.000200498,-0.000353258,0.109849,0.10985,-0.217942,0.655334,2.04744e-07,2.42825e-07,0.433246,0.1161095251957196,0.9257856223697216,2.0474402107062417e-07,0.11611064130580284,2.42825029417304e-07,-0.19582791770525854
560,0.5499,448.739,448.692,0.0159345,448.697,-0.000198358,-0.000356757,0.110011,0.110011,-0.218265,0.656302,2.04174e-07,2.41912e-07,0.433891,0.11629034958518147,0.9276506853970468,2.0417402080141756e-07,0.11629034958518147,2.419120292973531e-07,-0.19608762334312135
561,0.5509,448.864,448.816,0.0159196,448.822,-0.000200045,-0.000353459,0.110172,0.110172,-0.218587,0.657269,2.03557e-07,2.41093e-07,0.434535,0.11647008679992221,0.9295156251628787,2.0355702079477567e-07,0.11647008679992221,2.41093029096362e-07,-0.1963464414564523
562,0.5519,448.988,448.941,0.0158658,448.946,-0.000198347,-0.000356178,0.110333,0.110334,-0.218909,0.658236,2.02983e-07,2.40192e-07,0.435178,0.116649852954684,0.9313823691976879,2.0298302061405593e-07,0.11665096960509547,2.4019202893299507e-07,-0.19660517624376705
563,0.5529,449.113,449.065,0.0158466,449.07,-0.000199659,-0.000353553,0.110494,0.110495,-0.219231,0.659202,2.02372e-07,2.39366e-07,0.435821,0.11682964805412688,0.9332489859970929,2.0237202047468372e-07,0.11683076488433342,2.393660285537891e-07,-0.19686382773189215
564,0.5539,449.236,449.189,0.0157952,449.194,-0.000198289,-0.000355371,0.110656,0.110656,-0.219553,0.660167,2.01806e-07,2.38472e-07,0.436464,0.11701058911294182,0.9351154717030903,2.0180602033903483e-07,0.11701058911294182,2.384720283465924e-07,-0.19712239594764558
565,0.5549,449.36,449.313,0.0157747,449.318,-0.000199147,-0.000352884,0.110817,0.110817,-0.219874,0.661132,2.01213e-07,2.37639e-07,0.437106,0.11719044229558162,0.9369837594371326,2.0121302024556087e-07,0.11719044229558162,2.3763902823326077e-07,-0.1973800782983165
566,0.5559,449.484,449.436,0.0157277,449.442,-0.000198018,-0.000354237,0.110977,0.110978,-0.220196,0.662096,2.00647e-07,2.36755e-07,0.437748,0.11736920706714926,0.9388519120861345,2.0064702010991198e-07,0.11737032443691509,2.3675502802689152e-07,-0.19763848030814812
567,0.5569,449.607,449.559,0.0157037,449.565,-0.000198837,-0.000352206,0.111138,0.111139,-0.220517,0.663059,2.00056e-07,2.35919e-07,0.438389,0.11754911799192791,0.9407199257817063,2.0005601997219458e-07,0.11755023554160471,2.3591902786890273e-07,-0.1978959970223254
568,0.5579,449.73,449.682,0.0156592,449.688,-0.000197998,-0.000353337,0.111299,0.111299,-0.220838,0.664022,1.99486e-07,2.3504e-07,0.43903,0.11772905788469723,0.9425897392409142,1.9948601992503256e-07,0.11772905788469723,2.3504002766294718e-07,-0.1981534310869033
569,0.5589,449.853,449.805,0.015633,449.811,-0.000198697,-0.000351732,0.111459,0.11146,-0.221158,0.664984,1.98898e-07,2.34201e-07,0.439671,0.11790790884165392,0.9444594097373831,1.988980198319723e-07,0.11790902675012171,2.3420102746030125e-07,-0.19840998093878992
570,0.5599,449.975,449.928,0.0155908,449.933,-0.00019807,-0.000352603,0.11162,0.11162,-0.221479,0.665946,1.98327e-07,2.33328e-07,0.440311,0.11808790650440049,0.9463308797222849,1.983270196959097e-07,0.11808790650440049,2.3332802712161538e-07,-0.1986672500410086
571,0.5609,450.098,450.05,0.0155628,450.056,-0.000198663,-0.000351325,0.11178,0.111781,-0.221799,0.666907,1.97741e-07,2.32487e-07,0.440951,0.11826681488172963,0.9482022027243833,1.97741019558606e-07,0.11826793314910367,2.3248702696321288e-07,-0.19892363549713465
572,0.5619,450.22,450.172,0.0155225,450.178,-0.000198207,-0.000351976,0.111941,0.111941,-0.222119,0.667868,1.97168e-07,2.31619e-07,0.44159,0.11844687033300039,0.9500753249322667,1.9716801946678686e-07,0.11844687033300039,2.3161902684698532e-07,-0.1991799389230403
573,0.5629,450.342,450.294,0.0154933,450.3,-0.000198706,-0.000350953,0.112101,0.112101,-0.222439,0.668827,1.96584e-07,2.30776e-07,0.442229,0.11862583614913724,0.9519463441792104,1.9658401928523972e-07,0.11862583614913724,2.3077602673282627e-07,-0.19943616034497103
574,0.5639,450.463,450.416,0.0154545,450.421,-0.000198384,-0.000351425,0.112261,0.112261,-0.222759,0.669787,1.96011e-07,2.29914e-07,0.442868,0.11880483060209546,0.9538211124143932,1.9601101919342057e-07,0.11880483060209546,2.2991402648386838e-07,-0.1996922997891638
575,0.5649,450.585,450.537,0.0154242,450.543,-0.000198802,-0.0003506,0.112421,0.112421,-0.223078,0.670745,1.95428e-07,2.2907e-07,0.443506,0.11898385369645736,0.9556937698998003,1.95428019100774e-07,0.11898385369645736,2.2907002628080875e-07,-0.19994755722980473
576,0.5659,450.706,450.658,0.0153867,450.664,-0.000198583,-0.000350927,0.112581,0.112581,-0.223397,0.671703,1.94854e-07,2.28211e-07,0.444144,0.11916290543680619,0.9575682222506816,1.9485401892005427e-07,0.11916290543680619,2.28211026076508e-07,-0.20020273325630833
577,0.5669,450.827,450.779,0.0153557,450.785,-0.000198934,-0.000350255,0.11274,0.112741,-0.223716,0.67266,1.94273e-07,2.27367e-07,0.444781,0.11934086648629916,0.9594425117438508,1.9427301878316428e-07,0.11934198582772537,2.2736702587344837e-07,-0.2004578278946415
578,0.5679,450.948,450.9,0.0153191,450.906,-0.000198793,-0.000350466,0.1129,0.1129,-0.224035,0.673617,1.93699e-07,2.26512e-07,0.445418,0.11951997535326409,0.9613185957906218,1.9369901882448914e-07,0.11951997535326409,2.2651202558066075e-07,-0.20071284117076305
579,0.5689,451.068,451.021,0.0152877,451.027,-0.000199089,-0.000349908,0.11306,0.11306,-0.224354,0.674573,1.93119e-07,2.25669e-07,0.446054,0.11969911287994073,0.9631945129137103,1.9311901855445512e-07,0.11969911287994073,2.256690254665017e-07,-0.2009677731106233
580,0.5699,451.189,451.141,0.0152519,451.147,-0.000199006,-0.000350028,0.113219,0.113219,-0.224672,0.675529,1.92544e-07,2.24817e-07,0.446691,0.1198771591931953,0.9650722242710756,1.925440185068794e-07,0.1198771591931953,2.2481702521837121e-07,-0.20122182496238883
581,0.5709,451.309,451.261,0.0152201,451.267,-0.000199257,-0.000349557,0.113378,0.113379,-0.22499,0.676484,1.91965e-07,2.23974e-07,0.447326,0.12005523381806471,0.9669497646280778,1.9196501832574597e-07,0.12005635387385838,2.2397402510421216e-07,-0.2014757960385094
582,0.5719,451.429,451.381,0.015185,451.387,-0.000199216,-0.000349603,0.113538,0.113538,-0.225308,0.677438,1.91391e-07,2.23125e-07,0.447962,0.12023445699294721,0.9688271300644613,1.9139101836707084e-07,0.12023445699294721,2.2312502490073882e-07,-0.20172968636466782
583,0.5729,451.549,451.501,0.0151529,451.507,-0.00019943,-0.000349198,0.113697,0.113697,-0.225626,0.678392,1.90813e-07,2.22283e-07,0.448597,0.12041258843268321,0.9707062873620527,1.9081301827483799e-07,0.12041258843268321,2.2228302465343575e-07,-0.2019834959665383
584,0.5739,451.668,451.62,0.0151184,451.627,-0.000199421,-0.000349186,0.113856,0.113856,-0.225944,0.679345,1.90238e-07,2.21437e-07,0.449231,0.1205907481975701,0.9725852656448517,1.9023801800521767e-07,0.1205907481975701,2.2143702449461955e-07,-0.20223722486978712
585,0.5749,451.787,451.74,0.0150862,451.746,-0.000199605,-0.00034883,0.114015,0.114015,-0.226261,0.680297,1.89662e-07,2.20596e-07,0.449865,0.1207689362921116,0.9744640609824298,1.8966201809078598e-07,0.1207689362921116,2.2059602433621706e-07,-0.20249007559054677
586,0.5759,451.907,451.859,0.0150521,451.865,-0.000199618,-0.000348772,0.114173,0.114174,-0.226578,0.681249,1.89087e-07,2.19753e-07,0.450499,0.12094603177422036,0.976344645784819,1.8908701782116566e-07,0.12094715272081258,2.19753024222058e-07,-0.2027428461703309
587,0.5769,452.025,451.978,0.0150199,451.984,-0.000199777,-0.000348453,0.114332,0.114333,-0.226895,0.6822,1.88512e-07,2.18914e-07,0.451132,0.12112427636334178,0.9782250435303692,1.8851201777358995e-07,0.12112539748817874,2.1891402401941207e-07,-0.20299553663454029
588,0.5779,452.144,452.096,0.0149862,452.103,-0.000199807,-0.000348358,0.114491,0.114491,-0.227212,0.683151,1.87938e-07,2.18072e-07,0.451765,0.12130254929560613,0.9801072303847613,1.879380175928702e-07,0.12130254929560613,2.18072023772109e-07,-0.20324814700856753
589,0.5789,452.263,452.215,0.014954,452.221,-0.000199945,-0.000348065,0.114649,0.11465,-0.227529,0.684101,1.87363e-07,2.17235e-07,0.452398,0.1214797290952303,0.9819892260600309,1.873630175452945e-07,0.12148085057552027,2.1723502352521962e-07,-0.20350067731779709
590,0.5799,452.381,452.333,0.0149206,452.34,-0.000199986,-0.000347942,0.114808,0.114808,-0.227845,0.685051,1.86789e-07,2.16396e-07,0.45303,0.12165805854897238,0.9838730104807114,1.8678901736457476e-07,0.12165805854897238,2.1639602332257368e-07,-0.203752331340335
591,0.5809,452.499,452.451,0.0148884,452.458,-0.000200108,-0.000347669,0.114966,0.114967,-0.228162,0.686,1.86215e-07,2.1556e-07,0.453661,0.1218352945234964,0.9857565995893263,1.8621501740589963e-07,0.12183641635935194,2.155600231645849e-07,-0.2040047018484612
592,0.5819,452.617,452.569,0.0148554,452.576,-0.000200156,-0.000347523,0.115124,0.115125,-0.228478,0.686948,1.85642e-07,2.14723e-07,0.454293,0.12201255850351678,0.9876399894314714,1.8564201731408048e-07,0.1220136805166363,2.1472302313974012e-07,-0.20425619662440964
593,0.5829,452.734,452.687,0.0148232,452.693,-0.000200266,-0.000347264,0.115283,0.115283,-0.228793,0.687895,1.85068e-07,2.13889e-07,0.454924,0.12219097268387036,0.9895231760495884,1.8506801713336074e-07,0.12219097268387036,2.138890229375079e-07,-0.20450681644777846
594,0.5839,452.852,452.804,0.0147905,452.811,-0.000200319,-0.0003471,0.115441,0.115441,-0.229109,0.688843,1.84496e-07,2.13055e-07,0.455554,0.1223682928654799,0.9914101382992713,1.8449601690839756e-07,0.1223682928654799,2.1305502273527566e-07,-0.2047581525805806
595,0.5849,452.969,452.921,0.0147584,452.928,-0.000200417,-0.000346851,0.115598,0.115599,-0.229424,0.689789,1.83923e-07,2.12222e-07,0.456184,0.12254451852081161,0.9932949036435512,1.839230168165784e-07,0.12254564106589139,2.12222022621944e-07,-0.20500861431272388
596,0.5859,453.086,453.038,0.014726,453.045,-0.000200473,-0.000346674,0.115756,0.115757,-0.22974,0.690735,1.83351e-07,2.1139e-07,0.456814,0.1227218945670765,0.9951814528194665,1.8335101681365984e-07,0.12272301728953261,2.1139002237546833e-07,-0.2052597919024518
597,0.5869,453.203,453.155,0.014694,453.162,-0.000200562,-0.000346433,0.115914,0.115914,-0.230055,0.69168,1.8278e-07,2.1056e-07,0.457443,0.12289929864097093,0.9970677904465306,1.8278001667759725e-07,0.12289929864097093,2.1056002208474922e-07,-0.20551009564309364
598,0.5879,453.32,453.272,0.0146618,453.278,-0.00020062,-0.000346244,0.116072,0.116072,-0.230369,0.692625,1.82208e-07,2.09729e-07,0.458072,0.12307673074692338,0.9989559115051914,1.8220801667467867e-07,0.12307673074692338,2.0972902192717413e-07,-0.2057595263103975
599,0.5889,453.436,453.388,0.01463,453.395,-0.000200702,-0.000346008,0.116229,0.11623,-0.230684,0.693569,1.81637e-07,2.08901e-07,0.458701,0.1232530676357344,1.0008438168367704,1.8163701653861608e-07,0.12325419088936362,2.0890102181425618e-07,-0.20600967265949133
600,0.5899,453.552,453.504,0.0145979,453.511,-0.00020076,-0.000345812,0.116387,0.116387,-0.230998,0.694512,1.81066e-07,2.08073e-07,0.459329,0.12343055564160399,1.0027315024599335,1.810660164025535e-07,0.12343055564160399,2.0807302170133823e-07,-0.2062589464842377
601,0.5909,453.668,453.62,0.0145662,453.627,-0.000200837,-0.000345579,0.116544,0.116544,-0.231313,0.695455,1.80496e-07,2.07246e-07,0.459957,0.12360694808528416,1.0046209690102148,1.8049601635539148e-07,0.12360694808528416,2.0724602145527626e-07,-0.20650893554075167
602,0.5919,453.784,453.736,0.0145344,453.743,-0.000200895,-0.000345376,0.116701,0.116702,-0.231627,0.696398,1.79926e-07,2.0642e-07,0.460584,0.12378336822475222,1.0065122181678197,1.7992601608618486e-07,0.12378449200868236,2.0642002129811488e-07,-0.20675805262156333
603,0.5929,453.9,453.852,0.0145029,453.859,-0.000200967,-0.000345147,0.116858,0.116859,-0.231941,0.697339,1.79356e-07,2.05595e-07,0.461211,0.12395981606435647,1.0084012348080544,1.7935601603902285e-07,0.12396094002473457,2.0559502122985407e-07,-0.20700709149189134
604,0.5939,454.015,453.967,0.0144713,453.974,-0.000201025,-0.000344939,0.117015,0.117016,-0.232254,0.698281,1.78787e-07,2.04772e-07,0.461837,0.1241362916084463,1.0102940401425888,1.7878701608076142e-07,0.1241374157452999,2.0477202089530522e-07,-0.20725525943194567
605,0.5949,454.13,454.082,0.0144399,454.089,-0.000201092,-0.000344712,0.117172,0.117173,-0.232568,0.699221,1.78218e-07,2.03949e-07,0.462464,0.12431279486137159,1.0121846049665812,1.7821801590045538e-07,0.12431391917472867,2.0394902078280097e-07,-0.20750414220384394
606,0.5959,454.245,454.198,0.0144085,454.204,-0.00020115,-0.0003445,0.117329,0.11733,-0.232881,0.700161,1.77649e-07,2.03127e-07,0.463089,0.12448932582748307,1.014076947757022,1.7764901572014935e-07,0.12449045031737116,2.031270205371527e-07,-0.20775215459137075
607,0.5969,454.36,454.312,0.0143772,454.319,-0.000201215,-0.000344274,0.117486,0.117486,-0.233194,0.7011,1.77081e-07,2.02306e-07,0.463715,0.12466588451113192,1.015969054215922,1.770810156287439e-07,0.12466588451113192,2.0230602038040502e-07,-0.20800008936316772
608,0.5979,454.475,454.427,0.014346,454.434,-0.000201272,-0.00034406,0.117643,0.117643,-0.233507,0.702039,1.76513e-07,2.01486e-07,0.46434,0.12484247091667022,1.017862938197204,1.7651301553733845e-07,0.12484247091667022,2.014860203125579e-07,-0.20824794654352474
609,0.5989,454.589,454.541,0.0143149,454.548,-0.000201334,-0.000343836,0.117799,0.1178,-0.233819,0.702977,1.75946e-07,2.00667e-07,0.464964,0.12501796002992838,1.0197565816131524,1.7594601553483358e-07,0.12501908504845072,2.0066702011156679e-07,-0.2084949346520547
610,0.5999,454.704,454.656,0.0142839,454.663,-0.00020139,-0.00034362,0.117956,0.117956,-0.234132,0.703915,1.75378e-07,1.9985e-07,0.465589,0.12519460171566243,1.0216520020999411,1.7537801544342813e-07,0.12519460171566243,1.9985001986633222e-07,-0.20874263697007356
611,0.6009,454.818,454.77,0.014253,454.777,-0.00020145,-0.000343396,0.118112,0.118112,-0.234444,0.704852,1.74811e-07,1.99033e-07,0.466213,0.12537014576561,1.0235471777770546,1.7481101521887865e-07,0.12537014576561,1.9903301984314226e-07,-0.20898947075926544
612,0.6019,454.932,454.884,0.0142221,454.891,-0.000201506,-0.000343179,0.118268,0.118269,-0.234756,0.705788,1.74245e-07,1.98217e-07,0.466836,0.12554571720256535,1.025442104622873,1.7424501508322976e-07,0.12554684274884553,1.9821701968680827e-07,-0.20923622754832782
613,0.6029,455.045,454.997,0.0141913,455.004,-0.000201564,-0.000342957,0.118424,0.118425,-0.235068,0.706724,1.73679e-07,1.97402e-07,0.467459,0.1257213160308015,1.027338805950547,1.7367901516962547e-07,0.12572244175268055,1.9740201939733026e-07,-0.20948290736128083
614,0.6039,455.159,455.111,0.0141606,455.118,-0.000201619,-0.000342739,0.11858,0.118581,-0.23538,0.70766,1.73113e-07,1.96588e-07,0.468082,0.1258969422545917,1.029237283421769,1.7311301503397658e-07,0.12589806815209692,1.9658801941879744e-07,-0.20972951022213737
615,0.6049,455.272,455.224,0.01413,455.231,-0.000201676,-0.000342517,0.118736,0.118737,-0.235691,0.708594,1.72547e-07,1.95775e-07,0.468704,0.12607259587820985,1.031133476428773,1.725470148983277e-07,0.1260737219513688,1.95775019085076e-07,-0.20997524613054386
616,0.6059,455.385,455.337,0.0140978,455.344,-0.000201704,-0.000342015,0.118892,0.118893,-0.236003,0.709528,1.71993e-07,1.94961e-07,0.469326,0.12624827690593055,1.0330314413073807,1.7199301471926276e-07,0.12624940315477073,1.9496101910654318e-07,-0.21022169540566504
617,0.6069,455.498,455.45,0.0140691,455.457,-0.000201593,-0.000341444,0.119048,0.119048,-0.236314,0.710462,1.7144e-07,1.94149e-07,0.469947,0.1264239853420297,1.0349311797132934,1.7144001462909841e-07,0.1264239853420297,1.941490188617223e-07,-0.21046727826827927
618,0.6079,455.611,455.563,0.0140382,455.57,-0.000201603,-0.000340959,0.119204,0.119204,-0.236625,0.711395,1.70887e-07,1.93338e-07,0.470569,0.12659972119078278,1.0368306564720844,1.7088701453893407e-07,0.12659972119078278,1.9333801870580203e-07,-0.21071278476649857
619,0.6089,455.723,455.675,0.0140088,455.683,-0.000201676,-0.000340424,0.119359,0.11936,-0.236935,0.712327,1.70333e-07,1.92528e-07,0.471189,0.12677435768154588,1.0387298675387986,1.7033301458191374e-07,0.1267754844564668,1.9252801863878233e-07,-0.21095742588188893
620,0.6099,455.836,455.787,0.013978,455.795,-0.000201743,-0.0003401,0.119515,0.119515,-0.237246,0.713259,1.69779e-07,1.91718e-07,0.47181,0.12695014819264738,1.040630849495333,1.6977901440284882e-07,0.12695014819264738,1.9171801834971802e-07,-0.2112027799679017
621,0.6109,455.948,455.9,0.0139485,455.907,-0.000201875,-0.000339654,0.11967,0.11967,-0.237556,0.71419,1.69225e-07,1.9091e-07,0.47243,0.12712483900380556,1.0425315614603443,1.692250142237839e-07,0.12712483900380556,1.9091001823845488e-07,-0.21144726920832146
622,0.6119,456.06,456.012,0.0139179,456.019,-0.000201974,-0.000339379,0.119825,0.119826,-0.237866,0.715121,1.68671e-07,1.90102e-07,0.473049,0.12729955689413774,1.0444340438121822,1.6867101426676356e-07,0.12730068419425833,1.9010201812719174e-07,-0.2116916826688231
623,0.6129,456.171,456.123,0.0138884,456.131,-0.000202141,-0.000338998,0.119981,0.119981,-0.238176,0.716051,1.68117e-07,1.89296e-07,0.473668,0.1274754293427076,1.0463362518625696,1.6811701408769864e-07,0.1274754293427076,1.8929601797168516e-07,-0.21193602037289494
624,0.6139,456.283,456.235,0.0138582,456.242,-0.000202269,-0.000338749,0.120136,0.120136,-0.238486,0.71698,1.67563e-07,1.88489e-07,0.474287,0.12765020157875417,1.0482381815501025,1.675630141306783e-07,0.12765020157875417,1.88489017727278e-07,-0.21218028234401765
625,0.6149,456.394,456.346,0.0138287,456.354,-0.000202453,-0.000338418,0.120291,0.120291,-0.238796,0.717909,1.67008e-07,1.87684e-07,0.474906,0.12782500090659665,1.0501418789512917,1.670080138627128e-07,0.12782500090659665,1.87684017660672e-07,-0.212424468605665
626,0.6159,456.506,456.457,0.0137987,456.465,-0.0002026,-0.000338184,0.120446,0.120446,-0.239105,0.718838,1.66454e-07,1.8688e-07,0.475524,0.12799982733043502,1.0520473457091049,1.6645401390569248e-07,0.12799982733043502,1.8688001746092198e-07,-0.21266779184948859
627,0.6169,456.617,456.568,0.0137694,456.576,-0.00020279,-0.00033789,0.1206,0.120601,-0.239414,0.719765,1.65899e-07,1.86077e-07,0.476141,0.12817355268035246,1.05395047556298,1.6589901385977157e-07,0.12817468085446926,1.8607701735007254e-07,-0.21291103991804505
628,0.6179,456.728,456.679,0.0137396,456.687,-0.00020295,-0.000337667,0.120755,0.120755,-0.239723,0.720693,1.65345e-07,1.85274e-07,0.476759,0.1283484331339031,1.055857426292588,1.6534501368070664e-07,0.1283484331339031,1.852740172392231e-07,-0.21315421283455993
629,0.6189,456.838,456.79,0.0137103,456.798,-0.000203139,-0.0003374,0.12091,0.12091,-0.240032,0.721619,1.6479e-07,1.84473e-07,0.477376,0.12852334069602467,1.0577620319656655,1.6479001363478574e-07,0.12852334069602467,1.8447301708413022e-07,-0.21339731062225153
630,0.6199,456.949,456.9,0.0136808,456.908,-0.000203305,-0.000337184,0.121064,0.121065,-0.24034,0.722545,1.64236e-07,1.83672e-07,0.477992,0.12869714667320853,1.0596684021204252,1.642360134557208e-07,0.1286982753709196,1.8367201692903734e-07,-0.21363954694427134
631,0.6209,457.059,457.011,0.0136516,457.019,-0.00020349,-0.000336935,0.121219,0.121219,-0.240649,0.723471,1.63682e-07,1.82873e-07,0.478608,0.12887210829011808,1.0615765383915337,1.6368201349870048e-07,0.12887210829011808,1.8287301672970102e-07,-0.2138824947868908
632,0.6219,457.169,457.121,0.0136223,457.129,-0.000203657,-0.000336723,0.121373,0.121373,-0.240957,0.724395,1.63127e-07,1.82074e-07,0.479224,0.12904596798164736,1.0634823154464148,1.6312701323073497e-07,0.12904596798164736,1.820740165303647e-07,-0.21412458169519877
633,0.6229,457.279,457.231,0.0135932,457.239,-0.000203837,-0.000336487,0.121527,0.121528,-0.241265,0.72532,1.62573e-07,1.81277e-07,0.479839,0.1292198544496308,1.065391919643985,1.6257301327371465e-07,0.12922098367004997,1.8127701650882955e-07,-0.21436659405222047
634,0.6239,457.389,457.34,0.0135641,457.348,-0.000204001,-0.000336278,0.121681,0.121682,-0.241573,0.726244,1.62019e-07,1.8048e-07,0.480454,0.12939376769819244,1.0673012237403858,1.6201901309464972e-07,0.12939489709252494,1.804800162652498e-07,-0.21460853188091422
635,0.6249,457.498,457.45,0.0135352,457.458,-0.000204173,-0.000336051,0.121835,0.121836,-0.241881,0.727167,1.61464e-07,1.79684e-07,0.481069,0.12956770773145676,1.069210223637823,1.6146401304872882e-07,0.12956883729972946,1.796840161105706e-07,-0.2148503952042311
636,0.6259,457.608,457.559,0.0135062,457.567,-0.000204333,-0.000335843,0.121989,0.12199,-0.242188,0.728089,1.6091e-07,1.78889e-07,0.481683,0.1297416745535489,1.071118915235631,1.609100128696639e-07,0.12974280429578844,1.7888901604479202e-07,-0.21509139913690678
637,0.6269,457.717,457.669,0.0134774,457.677,-0.000204497,-0.000335623,0.122143,0.122143,-0.242495,0.729011,1.60356e-07,1.78095e-07,0.482297,0.12991566816859468,1.073029367458616,1.6035601291264356e-07,0.12991566816859468,1.780950158458694e-07,-0.21533232909273126
638,0.6279,457.826,457.778,0.0134486,457.786,-0.00020465,-0.000335415,0.122297,0.122297,-0.242802,0.729933,1.59803e-07,1.77302e-07,0.482911,0.13008968858072056,1.074941581930823,1.5980301282247922e-07,0.13008968858072056,1.7730201573584736e-07,-0.21557318509441192
639,0.6289,457.935,457.887,0.01342,457.895,-0.000204806,-0.000335199,0.122451,0.122451,-0.243109,0.730854,1.59249e-07,1.7651e-07,0.483524,0.13026373579405326,1.0768534834232724,1.592490126434143e-07,0.13026373579405326,1.765100154926813e-07,-0.21581396716464896
640,0.6299,458.043,457.995,0.0133913,458.003,-0.000204953,-0.000334992,0.122604,0.122604,-0.243416,0.731774,1.58695e-07,1.75719e-07,0.484137,0.13043667937547654,1.0787650678220149,1.5869501268639397e-07,0.13043667937547654,1.7571901533841583e-07,-0.2160546753261361
641,0.6309,458.152,458.104,0.0133628,458.112,-0.000205099,-0.000334779,0.122758,0.122758,-0.243723,0.732694,1.58142e-07,1.74929e-07,0.484749,0.13061078002950666,1.0806784116876345,1.5814201259622962e-07,0.13061078002950666,1.7492901527305094e-07,-0.21629530960155974
642,0.6319,458.26,458.212,0.0133344,458.22,-0.000205239,-0.000334572,0.122911,0.122911,-0.244029,0.733613,1.57589e-07,1.74139e-07,0.485361,0.13078377671275998,1.082591434047111,1.5758901250606527e-07,0.13078377671275998,1.7413901520768604e-07,-0.21653508654907772
643,0.6329,458.368,458.32,0.013306,458.328,-0.000205378,-0.000334361,0.123064,0.123065,-0.244335,0.734532,1.57036e-07,1.73351e-07,0.485973,0.13095679986653064,1.0845062152822154,1.5703601241590093e-07,0.13095793082389595,1.733510150980777e-07,-0.21677479013607448
644,0.6339,458.476,458.428,0.0132777,458.436,-0.000205511,-0.000334154,0.123217,0.123218,-0.244641,0.73545,1.56483e-07,1.72563e-07,0.486584,0.13112984949486917,1.0864206705883839,1.5648301232573658e-07,0.13113098062528428,1.7256301498846938e-07,-0.21701442038499497
645,0.6349,458.584,458.536,0.0132495,458.544,-0.000205641,-0.000333944,0.123371,0.123371,-0.244947,0.736367,1.5593e-07,1.71777e-07,0.487195,0.13130405690531766,1.0883347958356087,1.5593001223557224e-07,0.13130405690531766,1.717770148346176e-07,-0.21725397731827711
646,0.6359,458.692,458.643,0.0132213,458.652,-0.000205767,-0.000333738,0.123524,0.123524,-0.245252,0.737284,1.55377e-07,1.70991e-07,0.487805,0.13147715966804796,1.0902506771407148,1.553770121454079e-07,0.13147715966804796,1.7099101468076583e-07,-0.21749267845142173
647,0.6369,458.799,458.751,0.0131933,458.759,-0.00020589,-0.00033353,0.123676,0.123677,-0.245558,0.738201,1.54825e-07,1.70207e-07,0.488416,0.13164915726780402,1.0921683161147455,1.5482501192209952e-07,0.13165028891752706,1.7020701448267062e-07,-0.21773208906012442
648,0.6379,458.906,458.858,0.0131653,458.867,-0.000206009,-0.000333323,0.123829,0.12383,-0.245863,0.739117,1.54273e-07,1.69423e-07,0.489025,0.13182231283492896,1.0940856202835554,1.5427301192083576e-07,0.1318234446578077,1.694230142845754e-07,-0.21797064439142366
649,0.6389,459.014,458.965,0.0131373,458.974,-0.000206126,-0.000333116,0.123982,0.123982,-0.246168,0.740032,1.53721e-07,1.6864e-07,0.489635,0.13199549489688267,1.096002585503959,1.53721011919572e-07,0.13199549489688267,1.6864001417538077e-07,-0.21820912697444173
650,0.6399,459.121,459.072,0.0131095,459.081,-0.000206238,-0.000332911,0.124135,0.124135,-0.246473,0.740947,1.53169e-07,1.67859e-07,0.490244,0.1321687034577188,1.0979213055502495,1.5316901169626362e-07,0.1321687034577188,1.678590140219427e-07,-0.2184475368313631
651,0.6409,459.227,459.179,0.0130817,459.187,-0.000206349,-0.000332704,0.124287,0.124287,-0.246778,0.741861,1.52617e-07,1.67078e-07,0.490852,0.1323408061801199,1.0998396821880956,1.5261701169499986e-07,0.1323408061801199,1.6707801386850463e-07,-0.21868587398436612
652,0.6419,459.334,459.286,0.013054,459.294,-0.000206455,-0.0003325,0.12444,0.12444,-0.247082,0.742774,1.52066e-07,1.66298e-07,0.491461,0.1325140675776244,1.1017577112649728,1.5206601156059207e-07,0.1325140675776244,1.6629801380396714e-07,-0.21892335737936985
653,0.6429,459.44,459.392,0.0130264,459.4,-0.00020656,-0.000332294,0.124592,0.124592,-0.247386,0.743688,1.51515e-07,1.65519e-07,0.492069,0.1326862227993617,1.1036795959805894,1.515150114261843e-07,0.1326862227993617,1.6551901360628563e-07,-0.21916076859039413
654,0.6439,459.547,459.498,0.0129988,459.507,-0.000206661,-0.000332091,0.124744,0.124745,-0.24769,0.7446,1.50964e-07,1.64741e-07,0.492676,0.1328584041906815,1.1055990268995832,1.509640112917765e-07,0.13285953704965192,1.647410134975047e-07,-0.2193981076393794
655,0.6449,459.653,459.604,0.0129714,459.613,-0.00020676,-0.000331887,0.124896,0.124897,-0.247994,0.745512,1.50413e-07,1.63964e-07,0.493283,0.13303061175556175,1.1075202091380554,1.5041301137941332e-07,0.13303174478673996,1.6396401347762435e-07,-0.21963537454825954
656,0.6459,459.758,459.71,0.012944,459.719,-0.000206856,-0.000331684,0.125048,0.125049,-0.248298,0.746423,1.49863e-07,1.63187e-07,0.49389,0.13320284549798145,1.109441034851848,1.4986301133390612e-07,0.13320397870139344,1.631870132356994e-07,-0.21987256933896193
657,0.6469,459.864,459.816,0.0129166,459.824,-0.000206951,-0.000331481,0.1252,0.125201,-0.248602,0.747334,1.49312e-07,1.62412e-07,0.494497,0.13337510542191966,1.1113636112351752,1.4931201119949833e-07,0.13337623879759186,1.624120131715756e-07,-0.22010969203340724
658,0.6479,459.97,459.921,0.0128894,459.93,-0.000207042,-0.00033128,0.125352,0.125353,-0.248905,0.748245,1.48762e-07,1.61637e-07,0.495103,0.1335473915313563,1.1132879398836235,1.4876201115399112e-07,0.1335485250793147,1.6163701310745182e-07,-0.22034596299986198
659,0.6489,460.075,460.027,0.0128622,460.035,-0.000207132,-0.000331078,0.125504,0.125504,-0.249208,0.749154,1.48212e-07,1.60864e-07,0.495709,0.1337197038302722,1.1152097919704183,1.4821201088643932e-07,0.1337197038302722,1.608640129990846e-07,-0.22058216238705886
660,0.6499,460.18,460.132,0.0128351,460.141,-0.00020722,-0.000330878,0.125656,0.125656,-0.249511,0.750064,1.47663e-07,1.60091e-07,0.496314,0.13389204232264795,1.1171355089494464,1.476630109298327e-07,0.13389204232264795,1.6009101289071737e-07,-0.22081829021668276
661,0.6509,460.285,460.237,0.012808,460.246,-0.000207306,-0.000330679,0.125807,0.125808,-0.249814,0.750972,1.47114e-07,1.59319e-07,0.496919,0.13406327294862552,1.11905874100679,1.4711401075118147e-07,0.13406440701246547,1.5931901264920612e-07,-0.22105434651041267
662,0.6519,460.39,460.342,0.012781,460.351,-0.00020739,-0.00033048,0.125959,0.125959,-0.250117,0.75188,1.46564e-07,1.58549e-07,0.497523,0.1342356636674764,1.1209837201518997,1.4656401070567426e-07,0.1342356636674764,1.5854901258549603e-07,-0.22129033128992037
663,0.6529,460.495,460.447,0.0127541,460.455,-0.000207472,-0.000330282,0.12611,0.126111,-0.250419,0.752788,1.46016e-07,1.57779e-07,0.498128,0.1344069461841948,1.1229104479718517,1.4601601061592362e-07,0.13440808059170828,1.5777901252178594e-07,-0.22152546610272705
664,0.6539,460.6,460.551,0.0127273,460.56,-0.000207552,-0.000330085,0.126262,0.126262,-0.250721,0.753695,1.45467e-07,1.5701e-07,0.498732,0.13457938914534795,1.1248368012172998,1.45467010659317e-07,0.13457938914534795,1.5701001232493184e-07,-0.22176052991554174
665,0.6549,460.704,460.656,0.0127005,460.664,-0.000207631,-0.000329888,0.126413,0.126413,-0.251023,0.754601,1.44919e-07,1.56241e-07,0.499335,0.13475072356853213,1.1267627756938978,1.4491901056956635e-07,0.13475072356853213,1.5624101212807773e-07,-0.22199552274980316
666,0.6559,460.808,460.76,0.0126739,460.769,-0.000207709,-0.000329693,0.126564,0.126564,-0.251325,0.755507,1.44371e-07,1.55474e-07,0.499938,0.1349220838651679,1.1286904958940656,1.443710104798157e-07,0.1349220838651679,1.5547401210902478e-07,-0.22223044462694386
667,0.6569,460.912,460.864,0.0126472,460.873,-0.000207785,-0.000329499,0.126715,0.126715,-0.251627,0.756413,1.43823e-07,1.54708e-07,0.500541,0.13509347003916194,1.1306199634001444,1.4382301039006506e-07,0.13509347003916194,1.5470801195682782e-07,-0.22246529556838934
668,0.6579,461.016,460.968,0.0126207,460.977,-0.00020786,-0.000329305,0.126866,0.126866,-0.251929,0.757317,1.43275e-07,1.53942e-07,0.501144,0.13526488209442245,1.1325469146978167,1.4327501030031442e-07,0.13526488209442245,1.5394201180463085e-07,-0.22270007559555927
669,0.6589,461.12,461.072,0.0125942,461.081,-0.000207933,-0.000329112,0.127017,0.127017,-0.25223,0.758222,1.42728e-07,1.53177e-07,0.501746,0.1354363200348574,1.134477743223743,1.4272801007741975e-07,0.1354363200348574,1.5317701174133447e-07,-0.2229340076642624
670,0.6599,461.224,461.175,0.0125678,461.184,-0.000208006,-0.000328921,0.127168,0.127168,-0.252531,0.759125,1.42181e-07,1.52414e-07,0.502347,0.1356077838643761,1.1364060471240554,1.421810100765697e-07,0.1356077838643761,1.5241401163379464e-07,-0.2231678693300091
671,0.6609,461.327,461.279,0.0125398,461.288,-0.000208051,-0.000328442,0.127318,0.127319,-0.252832,0.760028,1.41644e-07,1.51649e-07,0.502949,0.13577813780818193,1.1383360930692046,1.4164401007654703e-07,0.13577927358688768,1.5164901157049826e-07,-0.22340166061398736
672,0.6619,461.43,461.382,0.0125151,461.391,-0.000207948,-0.000327943,0.127469,0.127469,-0.253133,0.760931,1.4111e-07,1.50886e-07,0.50355,0.13594965325608155,1.1402678826329677,1.411100098991369e-07,0.13594965325608155,1.5088601146295844e-07,-0.22363538153737894
673,0.6629,461.533,461.485,0.0124886,461.494,-0.000207994,-0.000327475,0.12762,0.12762,-0.253434,0.761833,1.40574e-07,1.50124e-07,0.50415,0.13612119460476912,1.1421992751901966,1.4057400998801484e-07,0.13612119460476912,1.501240112222746e-07,-0.22386903212135922
674,0.6639,461.636,461.588,0.0124631,461.597,-0.000208066,-0.000327008,0.12777,0.12777,-0.253734,0.762735,1.40038e-07,1.49363e-07,0.504751,0.1362916255659623,1.1441324106494433,1.4003800985484816e-07,0.1362916255659623,1.4936301107049132e-07,-0.2241018364893217
675,0.6649,461.739,461.691,0.0124366,461.7,-0.000208156,-0.000326696,0.12792,0.127921,-0.254034,0.763636,1.39502e-07,1.48601e-07,0.505351,0.13646208209371724,1.146065144517296,1.3950200972168147e-07,0.13646321855636745,1.4860101105185208e-07,-0.22433457102644871
676,0.6659,461.842,461.793,0.012411,461.802,-0.000208286,-0.000326313,0.128071,0.128071,-0.254334,0.764536,1.38965e-07,1.47842e-07,0.50595,0.13663370082500137,1.1479974725645508,1.3896500972165882e-07,0.13663370082500137,1.4784201085582538e-07,-0.22456723575368676
677,0.6669,461.944,461.896,0.0123847,461.905,-0.000208406,-0.000326051,0.128221,0.128221,-0.254634,0.765436,1.38429e-07,1.47082e-07,0.506549,0.13680420866789378,1.149931540489876,1.3842900958849214e-07,0.13680420866789378,1.470820107929427e-07,-0.2247998306919755
678,0.6679,462.047,461.998,0.0123591,462.007,-0.000208569,-0.000325728,0.128371,0.128371,-0.254934,0.766335,1.37892e-07,1.46324e-07,0.507148,0.13697474208888072,1.151865197993592,1.3789200958846948e-07,0.13697474208888072,1.4632401068581657e-07,-0.22503235586224835
679,0.6689,462.149,462.1,0.0123331,462.109,-0.000208714,-0.000325494,0.128521,0.128521,-0.255234,0.767234,1.37355e-07,1.45566e-07,0.507747,0.13714530109179957,1.1538005946370307,1.3735500936640221e-07,0.13714530109179957,1.4556601057869045e-07,-0.22526481128543285
680,0.6699,462.251,462.202,0.0123076,462.211,-0.000208894,-0.000325217,0.128671,0.128671,-0.255533,0.768133,1.36818e-07,1.44809e-07,0.508345,0.13731588568048747,1.1557377319843805,1.3681800936637956e-07,0.13731588568048747,1.448090105604649e-07,-0.2254964224792595
681,0.6709,462.352,462.304,0.0122817,462.313,-0.000209056,-0.000325003,0.12882,0.128821,-0.255832,0.76903,1.36281e-07,1.44052e-07,0.508942,0.13748535837285591,1.1576722962523305,1.362810093663569e-07,0.13748649585878314,1.4405201032019477e-07,-0.2257279644316913
682,0.6719,462.454,462.406,0.0122563,462.415,-0.000209243,-0.000324759,0.12897,0.12897,-0.256131,0.769928,1.35743e-07,1.43297e-07,0.50954,0.1376559939739621,1.159610756212622,1.3574300927743366e-07,0.1376559939739621,1.432970102577258e-07,-0.22595943716342826
683,0.6729,462.556,462.507,0.0122306,462.516,-0.000209414,-0.000324559,0.12912,0.12912,-0.25643,0.770824,1.35206e-07,1.42542e-07,0.510137,0.13782665517232795,1.161546634594191,1.352060090553664e-07,0.13782665517232795,1.425420101952568e-07,-0.22619084069516449
684,0.6739,462.657,462.608,0.0122053,462.618,-0.000209602,-0.000324339,0.129269,0.12927,-0.256729,0.77172,1.34669e-07,1.41789e-07,0.510734,0.13799620397502088,1.1634842483000987,1.3466900905534374e-07,0.1379973419717937,1.417890100885444e-07,-0.22642217504758744
685,0.6749,462.758,462.71,0.0121798,462.719,-0.000209777,-0.000324149,0.129419,0.129419,-0.257027,0.772616,1.34131e-07,1.41035e-07,0.51133,0.13816691620871446,1.1654235988858925,1.341310089664205e-07,0.13816691620871446,1.4103500989293138e-07,-0.22665266689443242
686,0.6759,462.859,462.811,0.0121545,462.82,-0.000209961,-0.000323945,0.129568,0.129568,-0.257325,0.773511,1.33594e-07,1.40283e-07,0.511926,0.138336515714079,1.167362520544911,1.3359400896639784e-07,0.138336515714079,1.4028300987511955e-07,-0.22688309006494023
687,0.6769,462.96,462.912,0.0121292,462.921,-0.000210136,-0.000323762,0.129717,0.129718,-0.257623,0.774406,1.33056e-07,1.39532e-07,0.512522,0.13850614049165255,1.1693031783156083,1.330560088774746e-07,0.13850727899836235,1.3953200972416369e-07,-0.2271134445795735
688,0.6779,463.061,463.012,0.0121041,463.022,-0.000210315,-0.00032357,0.129866,0.129867,-0.257921,0.7753,1.32519e-07,1.38781e-07,0.513117,0.13867579054520096,1.1712434025080114,1.3251900887745194e-07,0.13867692922156083,1.3878100957320783e-07,-0.22734373045878864
689,0.6789,463.161,463.113,0.0120789,463.122,-0.000210485,-0.000323391,0.130016,0.130016,-0.258219,0.776193,1.31981e-07,1.38031e-07,0.513712,0.1388466047245258,1.1731831888521471,1.319810087885287e-07,0.1388466047245258,1.3803100951115255e-07,-0.22757394772303585
690,0.6799,463.262,463.213,0.0120539,463.223,-0.000210657,-0.000323206,0.130165,0.130165,-0.258517,0.777086,1.31444e-07,1.37282e-07,0.514306,0.1390163055110245,1.1751247081991587,1.3144400856646143e-07,0.1390163055110245,1.3728200931595325e-07,-0.22780409639275934
691,0.6809,463.362,463.314,0.0120288,463.323,-0.000210822,-0.000323031,0.130313,0.130314,-0.258814,0.777979,1.30907e-07,1.36534e-07,0.514901,0.13918489239936216,1.177067962097309,1.3090700856643878e-07,0.13918603158482412,1.3653400943169913e-07,-0.2280334045221879
692,0.6819,463.462,463.414,0.0120039,463.423,-0.000210986,-0.000322852,0.130462,0.130463,-0.259111,0.778871,1.30369e-07,1.35787e-07,0.515494,0.13935464359447947,1.1790107730843813,1.3036900847751554e-07,0.13935578294969275,1.357870091922564e-07,-0.22826264455721457
693,0.6829,463.562,463.514,0.011979,463.523,-0.000211144,-0.000322679,0.130611,0.130611,-0.259409,0.779762,1.29832e-07,1.3504e-07,0.516088,0.13952442008440946,1.1809531368777688,1.2983200847749288e-07,0.13952442008440946,1.3504000917485826e-07,-0.22849258802585803
694,0.6839,463.662,463.613,0.0119542,463.623,-0.000211299,-0.000322503,0.13076,0.13076,-0.259705,0.780653,1.29295e-07,1.34294e-07,0.516681,0.13969422187292113,1.1828972320885285,1.2929500825542561e-07,0.13969422187292113,1.342940090243161e-07,-0.2287209204249402
695,0.6849,463.762,463.713,0.0119295,463.723,-0.00021145,-0.000322332,0.130908,0.130908,-0.260002,0.781543,1.28758e-07,1.33549e-07,0.517274,0.1398629091003054,1.1848408754180721,1.2875800825540296e-07,0.1398629091003054,1.3354900896267452e-07,-0.22894995629806325
696,0.6859,463.861,463.813,0.0119048,463.822,-0.000211597,-0.000322159,0.131057,0.131057,-0.260299,0.782433,1.28221e-07,1.32805e-07,0.517866,0.14003276132743792,1.1867862493601877,1.282210082553803e-07,0.14003276132743792,1.3280500876788892e-07,-0.2291789241576324
697,0.6869,463.961,463.912,0.0118802,463.922,-0.000211739,-0.000321988,0.131205,0.131205,-0.260595,0.783322,1.27684e-07,1.32062e-07,0.518458,0.1402014986623692,1.188731166723544,1.2768400825535764e-07,0.1402014986623692,1.320620086620039e-07,-0.22940705343128365
698,0.6879,464.06,464.011,0.0118556,464.021,-0.000211879,-0.000321817,0.131353,0.131354,-0.260891,0.784211,1.27148e-07,1.31319e-07,0.51905,0.14037026097227412,1.1906778138872194,1.2714800812219096e-07,0.14037140134310522,1.313190085561189e-07,-0.22963511518866275
699,0.6889,464.159,464.11,0.0118311,464.12,-0.000212013,-0.000321648,0.131501,0.131502,-0.261187,0.785099,1.26611e-07,1.30577e-07,0.519642,0.1405390482608493,1.192623999764593,1.266110081221683e-07,0.1405401888004678,1.3057700853913445e-07,-0.22986310944975163
700,0.6899,464.258,464.209,0.0118067,464.219,-0.000212145,-0.000321478,0.13165,0.13165,-0.261483,0.785987,1.26074e-07,1.29837e-07,0.520233,0.14070900124022256,1.1945719146225797,1.2607400790010104e-07,0.14070900124022256,1.2983700847790658e-07,-0.2300910362345262
701,0.6909,464.357,464.308,0.0117823,464.318,-0.000212272,-0.000321309,0.131798,0.131798,-0.261779,0.786874,1.25538e-07,1.29096e-07,0.520823,0.14087783866606762,1.196519363476734,1.2553800798897896e-07,0.14087783866606762,1.2909600832777812e-07,-0.23031889556295648
702,0.6919,464.455,464.407,0.011758,464.416,-0.000212396,-0.00032114,0.131945,0.131946,-0.262074,0.78776,1.25002e-07,1.28357e-07,0.521414,0.14104556003557,1.1984663420169035,1.2500200785581228e-07,0.1410467010817007,1.2835700813340623e-07,-0.2305459180013093
703,0.6929,464.554,464.505,0.0117338,464.515,-0.000212515,-0.000320972,0.132093,0.132094,-0.262369,0.788647,1.24466e-07,1.27619e-07,0.522004,0.1412144472758028,1.2004172467606171,1.244660077226456e-07,0.14121558849082083,1.2761900824997952e-07,-0.2307728734779203
704,0.6939,464.652,464.603,0.0117096,464.613,-0.000212632,-0.000320805,0.132241,0.132241,-0.262665,0.789532,1.2393e-07,1.26881e-07,0.522593,0.1413833595131968,1.2023654779891602,1.2393000758947892e-07,0.1413833595131968,1.268810081445082e-07,-0.23100053101239348
705,0.6949,464.75,464.701,0.0116855,464.711,-0.000212745,-0.000320638,0.132389,0.132389,-0.26296,0.790417,1.23394e-07,1.26144e-07,0.523183,0.1415522967514522,1.2043154341655176,1.2339400767835684e-07,0.1415522967514522,1.2614400790589286e-07,-0.23122735239794556
706,0.6959,464.848,464.799,0.0116615,464.81,-0.000212856,-0.000320471,0.132536,0.132537,-0.263254,0.791302,1.22859e-07,1.25408e-07,0.523772,0.1417201172735807,1.2062671168169432,1.2285900763409074e-07,0.1417212589942689,1.254080077561781e-07,-0.23145333833478
707,0.6969,464.946,464.897,0.0116375,464.907,-0.000212963,-0.000320305,0.132684,0.132684,-0.263549,0.792186,1.22323e-07,1.24673e-07,0.52436,0.14188910435567292,1.2082183192526208,1.2232300750092406e-07,0.14188910435567292,1.2467300769536394e-07,-0.23168002616187278
708,0.6979,465.044,464.995,0.0116135,465.005,-0.000213067,-0.00032014,0.132831,0.132832,-0.263843,0.793069,1.21788e-07,1.23938e-07,0.524949,0.14205697439215847,1.2101690371437241,1.2178800745665797e-07,0.1420581164497039,1.2393800763454976e-07,-0.23190587903218252
709,0.6989,465.141,465.093,0.0115897,465.103,-0.000213168,-0.000319975,0.132979,0.132979,-0.264138,0.793952,1.21253e-07,1.23205e-07,0.525537,0.14222601133279356,1.2121214782794252,1.2125300741239187e-07,0.14222601133279356,1.2320500752949215e-07,-0.23213243337945877
710,0.6999,465.239,465.19,0.0115659,465.2,-0.000213266,-0.00031981,0.133126,0.133126,-0.264432,0.794835,1.20718e-07,1.22472e-07,0.526124,0.14239393089824515,1.2140756441820217,1.2071800736812577e-07,0.14239393089824515,1.2247200742443454e-07,-0.2323581532615967
711,0.7009,465.336,465.287,0.0115421,465.298,-0.000213362,-0.000319647,0.133273,0.133273,-0.264726,0.795717,1.20183e-07,1.2174e-07,0.526711,0.14256187514968732,1.216029320344727,1.2018300732385967e-07,0.14256187514968732,1.217400074082775e-07,-0.23258380679184343
712,0.7019,465.433,465.385,0.0115184,465.395,-0.000213456,-0.000319483,0.13342,0.13342,-0.265019,0.796598,1.19649e-07,1.21009e-07,0.527298,0.14272984409074896,1.217982502426326,1.1964900714644955e-07,0.14272984409074896,1.2100900725897645e-07,-0.23280862679871406
713,0.7029,465.53,465.482,0.0114948,465.492,-0.000213547,-0.000319321,0.133567,0.133567,-0.265313,0.797479,1.19114e-07,1.20278e-07,0.527885,0.14289783772506004,1.219937406019553,1.1911400710218345e-07,0.14289783772506004,1.2027800733172e-07,-0.23303414790920762
714,0.7039,465.627,465.578,0.0114713,465.589,-0.000213635,-0.000319159,0.133714,0.133714,-0.265606,0.798359,1.1858e-07,1.19549e-07,0.528471,0.14306585605625033,1.221891810748807,1.1858000692477333e-07,0.14306585605625033,1.195490071381755e-07,-0.2332588359854596
715,0.7049,465.724,465.675,0.0114478,465.685,-0.000213722,-0.000318998,0.133861,0.133861,-0.2659,0.799239,1.18046e-07,1.1882e-07,0.529057,0.14323389908795092,1.22384793611119,1.1804600696940781e-07,0.14323389908795092,1.1882000716667562e-07,-0.2334842247539074
716,0.7059,465.821,465.772,0.0114243,465.782,-0.000213807,-0.000318838,0.134007,0.134008,-0.266193,0.800118,1.17512e-07,1.18091e-07,0.529642,0.14340082342239757,1.225803557816855,1.175120070140423e-07,0.1434019668237927,1.1809100697313113e-07,-0.23370878097696135
717,0.7069,465.917,465.868,0.0114009,465.878,-0.000213889,-0.000318679,0.134154,0.134154,-0.266486,0.800997,1.16979e-07,1.17364e-07,0.530228,0.1435689156979203,1.2277608992697178,1.1697900692553276e-07,0.1435689156979203,1.173640069573878e-07,-0.2339332714146799
718,0.7079,466.013,465.965,0.0113776,465.975,-0.00021397,-0.00031852,0.134301,0.134301,-0.266778,0.801876,1.16445e-07,1.16638e-07,0.530813,0.14373703268482374,1.2297199619821004,1.1644500674812264e-07,0.14373703268482374,1.1663800680850045e-07,-0.2341569302436487
719,0.7089,466.109,466.061,0.0113543,466.071,-0.000214049,-0.000318362,0.134447,0.134447,-0.267071,0.802753,1.15912e-07,1.15912e-07,0.531397,0.14390403048213818,1.2316762841106232,1.159120066596131e-07,0.14390403048213818,1.159120066596131e-07,-0.23438128939286684
720,0.7099,466.206,466.157,0.0113311,466.167,-0.000214126,-0.000318205,0.134593,0.134594,-0.267363,0.803631,1.15379e-07,1.15187e-07,0.531981,0.14407105266291098,1.2336365563216445,1.1537900657110356e-07,0.14407219673453575,1.1518700659962633e-07,-0.23460481741968398
721,0.7109,466.301,466.253,0.011308,466.263,-0.000214201,-0.000318049,0.13474,0.13474,-0.267655,0.804507,1.14847e-07,1.14462e-07,0.532565,0.144239243469374,1.2355940792148297,1.148470065714946e-07,0.144239243469374,1.1446200653963956e-07,-0.23482828018584567
722,0.7119,466.397,466.348,0.0112849,466.359,-0.000214275,-0.000317893,0.134886,0.134886,-0.267947,0.805384,1.14314e-07,1.13739e-07,0.533148,0.1444063145948158,1.2375555552038033,1.1431400648298506e-07,0.1444063145948158,1.1373900643540935e-07,-0.23505167771040558
723,0.7129,466.493,466.444,0.0112619,466.454,-0.000214348,-0.000317739,0.135032,0.135032,-0.268239,0.80626,1.13782e-07,1.13016e-07,0.533732,0.14457341011442293,1.2395165126441214,1.1378200648337611e-07,0.14457341011442293,1.1301600633117914e-07,-0.23527501001241125
724,0.7139,466.588,466.539,0.0112389,466.55,-0.000214419,-0.000317585,0.135178,0.135178,-0.268531,0.807135,1.1325e-07,1.12294e-07,0.534314,0.14474053003175658,1.2414769471577052,1.1325000648376715e-07,0.14474053003175658,1.1229400631584951e-07,-0.23549827711090476
725,0.7149,466.683,466.635,0.011216,466.645,-0.000214489,-0.000317433,0.135324,0.135324,-0.268822,0.80801,1.12718e-07,1.11573e-07,0.534897,0.14490767435037966,1.2434390978021854,1.1271800626211359e-07,0.14490767435037966,1.1157300616737587e-07,-0.23572071474601997
726,0.7159,466.779,466.73,0.0111931,466.74,-0.000214557,-0.000317281,0.13547,0.13547,-0.269114,0.808884,1.12186e-07,1.10853e-07,0.535479,0.14507484307385465,1.245400720677992,1.1218600626250463e-07,0.14507484307385465,1.108530061078028e-07,-0.2359438517177308
727,0.7169,466.874,466.825,0.0111703,466.835,-0.000214624,-0.00031713,0.135616,0.135616,-0.269405,0.809757,1.11655e-07,1.10133e-07,0.536061,0.14524203620574494,1.2473618113986928,1.1165500612975165e-07,0.14524203620574494,1.1013300604822973e-07,-0.23616615970949928
728,0.7179,466.969,466.92,0.0111476,466.93,-0.00021469,-0.00031698,0.135761,0.135762,-0.269696,0.810631,1.11123e-07,1.09414e-07,0.536642,0.14540810834093376,1.2493268642248525,1.111230061301427e-07,0.14540925374961478,1.0941400607755725e-07,-0.23638840301905395
729,0.7189,467.063,467.014,0.0111249,467.025,-0.000214756,-0.000316831,0.135907,0.135907,-0.269987,0.811503,1.10592e-07,1.08696e-07,0.537223,0.14557535013310519,1.251289132675161,1.1059200621943432e-07,0.14557535013310519,1.0869600597374074e-07,-0.23661058166521454
730,0.7199,467.158,467.109,0.0111023,467.12,-0.00021482,-0.000316683,0.136052,0.136053,-0.270278,0.812376,1.10061e-07,1.07978e-07,0.537804,0.14574147060231746,1.2532553662240535,1.1006100608668135e-07,0.14574261634436092,1.0797800586992423e-07,-0.23683269566679543
731,0.7209,467.252,467.204,0.0110797,467.214,-0.000214883,-0.000316535,0.136198,0.136198,-0.270568,0.813247,1.09531e-07,1.07261e-07,0.538384,0.14590876106893247,1.2552188066021905,1.0953100604282895e-07,0.14590876106893247,1.0726100585500831e-07,-0.2370539820969687
732,0.7219,467.347,467.298,0.0110572,467.309,-0.000214945,-0.000316389,0.136343,0.136343,-0.270858,0.814118,1.09001e-07,1.06545e-07,0.538965,0.14607492988623538,1.2571839578818862,1.0900100599897655e-07,0.14607492988623538,1.0654500570694836e-07,-0.23727520436338168
733,0.7229,467.441,467.392,0.0110348,467.403,-0.000215006,-0.000316243,0.136488,0.136489,-0.271149,0.814989,1.0847e-07,1.0583e-07,0.539544,0.14624112279976398,1.2591508215539853,1.0847000586622357e-07,0.14624226904145998,1.05830005647789e-07,-0.237497124987895
734,0.7239,467.535,467.486,0.0110124,467.497,-0.000215066,-0.000316099,0.136634,0.136634,-0.271439,0.815859,1.07941e-07,1.05116e-07,0.540124,0.14640848622092517,1.2611171379923625,1.0794100591127176e-07,0.14640848622092517,1.051160054554856e-07,-0.2377182187615018
735,0.7249,467.629,467.58,0.01099,467.591,-0.000215126,-0.000315955,0.136779,0.136779,-0.271728,0.816729,1.07411e-07,1.04402e-07,0.540703,0.1465747275036291,1.2630851658704096,1.0741100586741936e-07,0.1465747275036291,1.0440200548522682e-07,-0.23793848636607784
736,0.7259,467.723,467.674,0.0109677,467.685,-0.000215184,-0.000315813,0.136924,0.136924,-0.272018,0.817598,1.06881e-07,1.03689e-07,0.541282,0.14674099289306652,1.2650526416239525,1.0688100560152236e-07,0.14674099289306652,1.0368900538182402e-07,-0.23815945216344236
737,0.7269,467.817,467.768,0.0109455,467.778,-0.000215242,-0.000315671,0.137069,0.137069,-0.272308,0.818467,1.06352e-07,1.02976e-07,0.54186,0.14690728239273332,1.2670218278570204,1.0635200564657055e-07,0.14690728239273332,1.0297600527842121e-07,-0.23838035389001655
738,0.7279,467.91,467.861,0.0109233,467.872,-0.0002153,-0.00031553,0.137213,0.137214,-0.272597,0.819335,1.05823e-07,1.02265e-07,0.542438,0.14707244893310345,1.268990457065076,1.0582300569161873e-07,0.1470735960061258,1.0226500513077497e-07,-0.23860043016518873
739,0.7289,468.004,467.955,0.0109012,467.965,-0.000215356,-0.00031539,0.137358,0.137359,-0.272886,0.820202,1.05294e-07,1.01554e-07,0.543016,0.14723878649738054,1.2709585248254442,1.0529400551462231e-07,0.1472399337367407,1.0155400520517333e-07,-0.23882044284750714
740,0.7299,468.097,468.048,0.0108792,468.059,-0.000215412,-0.000315251,0.137503,0.137503,-0.273175,0.82107,1.04766e-07,1.00844e-07,0.543593,0.1474051481823535,1.2729305725698983,1.0476600542652648e-07,0.1474051481823535,1.0084400514642766e-07,-0.23904039195534732
741,0.7309,468.19,468.141,0.0108572,468.152,-0.000215468,-0.000315112,0.137648,0.137648,-0.273464,0.821936,1.04238e-07,1.00134e-07,0.54417,0.14757153399151957,1.2748997829907873,1.0423800533843064e-07,0.14757153399151957,1.00134005087682e-07,-0.23926027750707957
742,0.7319,468.283,468.234,0.0108352,468.245,-0.000215522,-0.000314975,0.137792,0.137792,-0.273752,0.822802,1.0371e-07,9.94253e-08,0.544747,0.147736796191007,1.2768706994865253,1.0371000547237941e-07,0.147736796191007,9.942530487805357e-08,-0.23947933900078822
743,0.7329,468.376,468.327,0.0108133,468.338,-0.000215577,-0.000314838,0.137936,0.137937,-0.274041,0.823668,1.03182e-07,9.87172e-08,0.545324,0.1479020821899648,1.2788433235352117,1.0318200538428357e-07,0.14790323009262107,9.871720485499225e-08,-0.2396990977151532
744,0.7339,468.469,468.42,0.0107915,468.43,-0.00021563,-0.000314703,0.138081,0.138081,-0.274329,0.824533,1.02654e-07,9.80099e-08,0.5459,0.1480685400597863,1.2808153757997123,1.0265400529618773e-07,0.1480685400597863,9.800990485864247e-08,-0.239918032846839
745,0.7349,468.561,468.512,0.0107697,468.523,-0.000215684,-0.000314568,0.138225,0.138225,-0.274617,0.825398,1.02127e-07,9.73032e-08,0.546475,0.1482338738333009,1.282789134627404,1.0212700529699248e-07,0.1482338738333009,9.73032048268152e-08,-0.24013690493428574
746,0.7359,468.654,468.605,0.010748,468.616,-0.000215736,-0.000314434,0.138369,0.138369,-0.274905,0.826262,1.016e-07,9.65972e-08,0.547051,0.14839923141659317,1.2847623167316438,1.0160000507575262e-07,0.14839923141659317,9.659720467958266e-08,-0.24035571399564737
747,0.7369,468.746,468.697,0.0107263,468.708,-0.000215789,-0.000314301,0.138513,0.138514,-0.275193,0.827126,1.01073e-07,9.58919e-08,0.547626,0.14856461281309197,1.2867372044019199,1.0107300507655737e-07,0.14856576137827915,9.589190463898944e-08,-0.240574460049073
748,0.7379,468.838,468.789,0.0107047,468.8,-0.00021584,-0.000314168,0.138657,0.138658,-0.275481,0.827989,1.00546e-07,9.51874e-08,0.548201,0.14873001802622654,1.288711510399823,1.0054600507736211e-07,0.14873116675681897,9.518740462510777e-08,-0.24079314311270616
749,0.7389,468.93,468.881,0.0106831,468.892,-0.000215892,-0.000314037,0.138801,0.138802,-0.275768,0.828852,1.0002e-07,9.44835e-08,0.548775,0.1488954470594268,1.2906875209592155,1.0002000494502283e-07,0.14889659595544846,9.4483504353704e-08,-0.24101100421606902
750,0.7399,469.022,468.973,0.0106616,468.984,-0.000215943,-0.000313906,0.138945,0.138945,-0.276056,0.829714,9.94935e-08,9.37803e-08,0.549349,0.14906089991612315,1.292662944887676,9.949350499027787e-08,0.14906089991612315,9.378030441098417e-08,-0.24122956157308473
751,0.7409,469.114,469.065,0.0106401,469.076,-0.000215993,-0.000313776,0.139089,0.139089,-0.276343,0.830575,9.89675e-08,9.30778e-08,0.549923,0.14922637659974636,1.2946377777267628,9.896750485793859e-08,0.14922637659974636,9.307780435285906e-08,-0.24144729744232152
752,0.7419,469.206,469.157,0.0106187,469.168,-0.000216044,-0.000313647,0.139233,0.139233,-0.27663,0.831437,9.84418e-08,9.2376e-08,0.550496,0.1493918771137277,1.296616608244587,9.844180492990517e-08,0.1493918771137277,9.237600417932867e-08,-0.24166497083033023
753,0.7429,469.297,469.248,0.0105974,469.259,-0.000216094,-0.000313519,0.139376,0.139376,-0.276917,0.832297,9.79163e-08,9.16748e-08,0.55107,0.14955625190467248,1.298592548060014,9.791630484201619e-08,0.14955625190467248,9.16748041923654e-08,-0.24188258175504052
754,0.7439,469.389,469.34,0.0105761,469.351,-0.000216143,-0.000313391,0.13952,0.13952,-0.277204,0.833157,9.7391e-08,9.09744e-08,0.551642,0.14972179992411805,1.3005701879145946,9.739100481631624e-08,0.14972179992411805,9.097440423211367e-08,-0.24210013023437682
755,0.7449,469.48,469.431,0.0105548,469.442,-0.000216192,-0.000313264,0.139663,0.139663,-0.27749,0.834017,9.6866e-08,9.02746e-08,0.552215,0.1498862218973982,1.302549529270991,9.686600477287755e-08,0.1498862218973982,9.027460401433984e-08,-0.24231685860349572
756,0.7459,469.571,469.522,0.0105336,469.533,-0.000216241,-0.000313138,0.139806,0.139807,-0.277776,0.834876,9.63412e-08,8.95755e-08,0.552787,0.15005066738470152,1.3045282690637028,9.634120456958328e-08,0.15005181743594398,8.957550390320534e-08,-0.24253352499716396
757,0.7469,469.662,469.613,0.0105125,469.624,-0.00021629,-0.000313013,0.13995,0.13995,-0.278063,0.835735,9.58167e-08,8.88771e-08,0.553359,0.15021628660510267,1.306508709324143,9.581670457059488e-08,0.15021628660510267,8.887710389871017e-08,-0.24275088668259592
758,0.7479,469.753,469.704,0.0104914,469.715,-0.000216339,-0.000312889,0.140093,0.140093,-0.278349,0.836593,9.52923e-08,8.81793e-08,0.55393,0.15038077929503424,1.3084885430239437,9.529230449167869e-08,0.15038077929503424,8.817930385873751e-08,-0.24296742896198265
759,0.7489,469.844,469.795,0.0104704,469.806,-0.000216387,-0.000312765,0.140236,0.140236,-0.278634,0.837451,9.47683e-08,8.74823e-08,0.554501,0.15054529550910245,1.310470076150008,9.476830453714058e-08,0.15054529550910245,8.74823038454764e-08,-0.24318315250266376
760,0.7499,469.935,469.886,0.0104494,469.897,-0.000216435,-0.000312642,0.140379,0.140379,-0.27892,0.838308,9.42444e-08,8.67858e-08,0.555072,0.15070983525067128,1.312450997708916,9.424440450267468e-08,0.15070983525067128,8.678580387666557e-08,-0.2433995711717032
761,0.7509,470.025,469.976,0.0104284,469.987,-0.000216482,-0.000312519,0.140522,0.140522,-0.279206,0.839165,9.37208e-08,8.60901e-08,0.555643,0.1508743985231058,1.3144336176452511,9.372080445047004e-08,0.1508743985231058,8.609010371252168e-08,-0.24361592795385345
762,0.7519,470.116,470.066,0.0104076,470.078,-0.00021653,-0.000312398,0.140665,0.140665,-0.279491,0.840021,9.31974e-08,8.5395e-08,0.556213,0.15103898532977067,1.3164156209983666,9.319740423840983e-08,0.15103898532977067,8.539500373494491e-08,-0.24383146669865652
763,0.7529,470.206,470.157,0.0103867,470.168,-0.000216577,-0.000312277,0.140808,0.140808,-0.279776,0.840877,9.26743e-08,8.47006e-08,0.556783,0.15120359567403208,1.3183993216727026,9.267430423065548e-08,0.15120359567403208,8.470060364196286e-08,-0.2440469440236701
764,0.7539,470.296,470.247,0.010366,470.258,-0.000216624,-0.000312156,0.14095,0.140951,-0.280061,0.841732,9.21514e-08,8.40068e-08,0.557352,0.15136707819160167,1.3203824007382265,9.215140428509017e-08,0.15136822955925555,8.400680351350331e-08,-0.24426235994639622
765,0.7549,470.386,470.337,0.0103452,470.348,-0.000216671,-0.000312037,0.141093,0.141093,-0.280346,0.842587,9.16287e-08,8.33137e-08,0.557922,0.1515317354564969,1.3223671760613982,9.162870417966928e-08,0.1515317354564969,8.33137034916831e-08,-0.2444777144843322
766,0.7559,470.476,470.427,0.0103246,470.438,-0.000216717,-0.000311918,0.141235,0.141236,-0.280631,0.843441,9.11063e-08,8.26213e-08,0.55849,0.15169526457322435,1.3243513247406513,9.110630405650966e-08,0.15169641626906483,8.262130335445761e-08,-0.24469300765497015
767,0.7569,470.566,470.517,0.0103039,470.528,-0.000216764,-0.0003118,0.141378,0.141378,-0.280915,0.844295,9.0584e-08,8.19295e-08,0.559059,0.15185996877212782,1.3263371686066185,9.058400407546685e-08,0.15185996877212782,8.192950340379923e-08,-0.24490748438365906
768,0.7579,470.655,470.606,0.0102834,470.618,-0.00021681,-0.000311682,0.14152,0.14152,-0.2812,0.845149,9.00621e-08,8.12384e-08,0.559627,0.1520235445012954,1.3283247091076071,9.006210399675751e-08,0.1520235445012954,8.123840333773558e-08,-0.245122655087328
769,0.7589,470.745,470.696,0.0102628,470.707,-0.000216856,-0.000311565,0.141663,0.141663,-0.281484,0.846001,8.95404e-08,8.05479e-08,0.560195,0.1521882956475853,1.3303092870699276,8.954040398023722e-08,0.1521882956475853,8.054790323619443e-08,-0.24533700981347129
770,0.7599,470.834,470.785,0.0102424,470.797,-0.000216902,-0.000311449,0.141805,0.141805,-0.281768,0.846854,8.90188e-08,7.9858e-08,0.560763,0.1523519180024795,1.3322978889099057,8.901880388378913e-08,0.1523519180024795,7.985800309917579e-08,-0.24555130367151612
771,0.7609,470.924,470.875,0.0102219,470.886,-0.000216948,-0.000311333,0.141947,0.141947,-0.282052,0.847706,8.84976e-08,7.91688e-08,0.56133,0.1525155635933979,1.3342858534639008,8.849760391171912e-08,0.1525155635933979,7.916880306879648e-08,-0.24576553667874645
772,0.7619,471.013,470.964,0.0102016,470.975,-0.000216994,-0.000311218,0.142089,0.142089,-0.282336,0.848557,8.79766e-08,7.84803e-08,0.561897,0.15267923242364012,1.3362731762110927,8.797660377979355e-08,0.15267923242364012,7.84803031450565e-08,-0.24597970885244147
773,0.7629,471.102,471.053,0.0101813,471.064,-0.000217039,-0.000311103,0.142231,0.142231,-0.282619,0.849408,8.74558e-08,7.77924e-08,0.562464,0.15284292449650638,1.3382621908897572,8.745580393210162e-08,0.15284292449650638,7.779240296379442e-08,-0.24619306640331884
774,0.7639,471.191,471.142,0.010161,471.153,-0.000217085,-0.00031099,0.142373,0.142373,-0.282903,0.850258,8.69352e-08,7.71051e-08,0.56303,0.15300663981529738,1.3402505586886115,8.693520370250951e-08,0.15300663981529738,7.710510296909945e-08,-0.24640711717581187
775,0.7649,471.28,471.23,0.0101408,471.242,-0.00021713,-0.000310876,0.142515,0.142515,-0.283186,0.851108,8.64149e-08,7.64185e-08,0.563596,0.15317037838331427,1.3422406173185966,8.641490367722326e-08,0.15317037838331427,7.64185028589992e-08,-0.24662035378724745
776,0.7659,471.368,471.319,0.0101206,471.331,-0.000217175,-0.000310764,0.142656,0.142656,-0.283469,0.851958,8.58948e-08,7.57325e-08,0.564162,0.15333298687029528,1.3442323682175292,8.589480371412606e-08,0.15333298687029528,7.573250293546607e-08,-0.2468335300612602
777,0.7669,471.457,471.408,0.0101005,471.419,-0.00021722,-0.000310652,0.142798,0.142798,-0.283752,0.852807,8.53749e-08,7.50471e-08,0.564727,0.15349677178288457,1.3462234665998105,8.537490359117328e-08,0.15349677178288457,7.504710275441084e-08,-0.247046646014923
778,0.7679,471.545,471.496,0.0100804,471.508,-0.000217265,-0.00031054,0.142939,0.14294,-0.284035,0.853655,8.48553e-08,7.43624e-08,0.565292,0.1536594262945794,1.3482139079273323,8.485530367252636e-08,0.1536605799545825,7.436240267999494e-08,-0.2472597016653043
779,0.7689,471.634,471.584,0.0100604,471.596,-0.00021731,-0.000310429,0.143081,0.143081,-0.284317,0.854503,8.43359e-08,7.36783e-08,0.565857,0.15382325756485815,1.350206037864969,8.433590359402388e-08,0.15382325756485815,7.367830279214616e-08,-0.24747194450178822
780,0.7699,471.722,471.673,0.0100404,471.684,-0.000217355,-0.000310319,0.143222,0.143223,-0.2846,0.855351,8.38168e-08,7.29948e-08,0.566421,0.15398595811429394,1.3521998578452696,8.381680349778264e-08,0.15398711210082916,7.299480264677527e-08,-0.24768487980972698
781,0.7709,471.81,471.761,0.0100205,471.772,-0.0002174,-0.000310209,0.143364,0.143364,-0.284882,0.856198,8.32979e-08,7.2312e-08,0.566985,0.15414983575538344,1.3541930151078065,8.329790346373045e-08,0.15414983575538344,7.231200260804371e-08,-0.24789700276287852
782,0.7719,471.898,471.849,0.0100006,471.86,-0.000217444,-0.0003101,0.143505,0.143505,-0.285164,0.857045,8.27792e-08,7.16297e-08,0.567549,0.15431258235559064,1.3561878612897007,8.277920349186729e-08,0.15431258235559064,7.162970261376245e-08,-0.24810906590579085
783,0.7729,471.986,471.936,0.0099808,471.948,-0.000217489,-0.000309992,0.143646,0.143646,-0.285446,0.857891,8.22607e-08,7.09482e-08,0.568112,0.1544753519046862,1.3581820396388546,8.226070336014857e-08,0.1544753519046862,7.094820242414812e-08,-0.24832106925532815
784,0.7739,472.073,472.024,0.00996102,472.036,-0.000217533,-0.000309883,0.143787,0.143787,-0.285728,0.858736,8.17425e-08,7.02672e-08,0.568675,0.1546381444059064,1.3601755456000002,8.17425034327357e-08,0.1546381444059064,7.026720250102869e-08,-0.24853301282834983
785,0.7749,472.161,472.112,0.0099413,472.124,-0.000217578,-0.000309776,0.143928,0.143928,-0.28601,0.859581,8.12245e-08,6.95868e-08,0.569238,0.15480095986248754,1.3621707367855902,8.122450334546727e-08,0.15480095986248754,6.958680232038716e-08,-0.2487448966417104
786,0.7759,472.248,472.199,0.00992162,472.211,-0.000217622,-0.000309669,0.144069,0.144069,-0.286291,0.860426,8.07068e-08,6.89071e-08,0.569801,0.1549637982776666,1.3641676146202406,8.070680324046009e-08,0.1549637982776666,6.890710246842957e-08,-0.248955969668605
787,0.7769,472.336,472.287,0.00990198,472.298,-0.000217666,-0.000309562,0.14421,0.14421,-0.286573,0.86127,8.01892e-08,6.8228e-08,0.570363,0.1551266596546812,1.3661638143647754,8.018920327756973e-08,0.1551266596546812,6.822800235894988e-08,-0.24916773422495264
788,0.7779,472.423,472.374,0.0098824,472.386,-0.00021771,-0.000309456,0.144351,0.144351,-0.286854,0.862114,7.96719e-08,6.75495e-08,0.570925,0.15528954399676875,1.368161699613077,7.967190307489602e-08,0.15528954399676875,6.75495022139927e-08,-0.2493786884511785
789,0.7789,472.51,472.461,0.00986286,472.473,-0.000217754,-0.000309351,0.144491,0.144492,-0.287135,0.862957,7.91549e-08,6.68716e-08,0.571486,0.15545129585529405,1.370158901628224,7.915490307652817e-08,0.15545245130716778,6.687160225560262e-08,-0.24958958340759463
790,0.7799,472.597,472.548,0.00984338,472.56,-0.000217799,-0.000309246,0.144632,0.144632,-0.287416,0.8638,7.86381e-08,6.61943e-08,0.572048,0.15561422597431318,1.3721577879945248,7.863810314034936e-08,0.15561422597431318,6.619430226173506e-08,-0.2498004191108535
791,0.7809,472.684,472.635,0.00982393,472.647,-0.000217843,-0.000309142,0.144773,0.144773,-0.287697,0.864642,7.81215e-08,6.55176e-08,0.572608,0.15577717906809863,1.3741559859753116,7.812150304431498e-08,0.15577717906809863,6.551760223239e-08,-0.2500111955776029
792,0.7819,472.771,472.721,0.00980454,472.733,-0.000217887,-0.000309038,0.144913,0.144913,-0.287977,0.865484,7.76051e-08,6.48416e-08,0.573169,0.15593899920031307,1.3761558671473226,7.760510301046963e-08,0.15593899920031307,6.484160208763967e-08,-0.2502211630460237
793,0.7829,472.857,472.808,0.00978519,472.82,-0.000217931,-0.000308934,0.145053,0.145054,-0.288258,0.866326,7.7089e-08,6.41661e-08,0.573729,0.15610084198893204,1.3781574329284014,7.708900295888554e-08,0.1561019980903522,6.416610198733963e-08,-0.2504318213003369
794,0.7839,472.944,472.895,0.0097659,472.907,-0.000217974,-0.000308831,0.145194,0.145194,-0.288538,0.867167,7.65731e-08,6.34913e-08,0.574289,0.156263863700413,1.3801583045780914,7.657310296949049e-08,0.156263863700413,6.349130199367892e-08,-0.2506416710100424
795,0.7849,473.03,472.981,0.00974664,472.993,-0.000218018,-0.000308729,0.145334,0.145334,-0.288818,0.868007,7.60574e-08,6.2817e-08,0.574849,0.15642575197324593,1.3821584775089577,7.605740282023987e-08,0.15642575197324593,6.28170020444685e-08,-0.2508514619700546
796,0.7859,473.117,473.067,0.00972744,473.079,-0.000218062,-0.000308627,0.145474,0.145474,-0.289098,0.868847,7.5542e-08,6.21434e-08,0.575408,0.1565876629120233,1.384160331290945,7.554200287529511e-08,0.1565876629120233,6.21434019798528e-08,-0.25106119419682105
797,0.7869,473.203,473.154,0.00970828,473.166,-0.000218106,-0.000308525,0.145614,0.145614,-0.289378,0.869686,7.50268e-08,6.14703e-08,0.575967,0.15674959651991904,1.386161481173886,7.502680277049478e-08,0.15674959651991904,6.147030195968739e-08,-0.25127086770678464
798,0.7879,473.289,473.24,0.00968917,473.252,-0.00021815,-0.000308424,0.145754,0.145754,-0.289657,0.870525,7.45118e-08,6.07979e-08,0.576526,0.15691155280010705,1.388164310726102,7.451180272788349e-08,0.15691155280010705,6.079790182411671e-08,-0.25147973399649215
799,0.7889,473.375,473.326,0.0096701,473.338,-0.000218194,-0.000308324,0.145894,0.145894,-0.289937,0.871364,7.3997e-08,6.0126e-08,0.577084,0.15707353175576122,1.3901688213574266,7.399700274746124e-08,0.15707353175576122,6.012600173299631e-08,-0.25168929033171705
800,0.7899,473.461,473.411,0.00965108,473.424,-0.000218237,-0.000308224,0.146034,0.146034,-0.290216,0.872202,7.34825e-08,5.94548e-08,0.577643,0.15723553339005703,1.3921726223050581,7.348250274930024e-08,0.15723553339005703,5.945480174851525e-08,-0.2518980398977959
801,0.7909,473.546,473.497,0.00963211,473.509,-0.000218281,-0.000308124,0.146174,0.146174,-0.290495,0.87304,7.29682e-08,5.87841e-08,0.5782,0.15739755770616903,1.394178103141659,7.296820259128367e-08,0.15739755770616903,5.878410180848448e-08,-0.2521067312308698
802,0.7919,473.632,473.583,0.00961318,473.595,-0.000218325,-0.000308025,0.146313,0.146313,-0.290774,0.873877,7.24542e-08,5.81141e-08,0.578758,0.1575584471482474,1.3961828690914984,7.245420263757296e-08,0.1575584471482474,5.811410175304843e-08,-0.25231536434718327
803,0.7929,473.717,473.668,0.0095943,473.68,-0.000218368,-0.000307926,0.146453,0.146453,-0.291053,0.874713,7.19403e-08,5.74446e-08,0.579315,0.15772051667545028,1.3981869155447582,7.194030260393447e-08,0.15772051667545028,5.744460174206267e-08,-0.2525239392629768
804,0.7939,473.803,473.754,0.00957547,473.766,-0.000218412,-0.000307828,0.146592,0.146592,-0.291332,0.87555,7.14267e-08,5.67757e-08,0.579872,0.1578814510119455,1.400195038275196,7.142670255255723e-08,0.1578814510119455,5.677570169559942e-08,-0.2527324559944857
805,0.7949,473.888,473.839,0.00955668,473.851,-0.000218456,-0.00030773,0.146732,0.146732,-0.29161,0.876385,7.09134e-08,5.61074e-08,0.580428,0.15804356576285494,1.4022000381030892,7.091340248344125e-08,0.15804356576285494,5.610740161365868e-08,-0.25294016749848247
806,0.7959,473.973,473.924,0.00953793,473.936,-0.000218499,-0.000307633,0.146871,0.146871,-0.291889,0.877221,7.04002e-08,5.54397e-08,0.580985,0.1582045450062941,1.4042091170129165,7.040020255644208e-08,0.1582045450062941,5.5439701496240446e-08,-0.25314856811851205
807,0.7969,474.058,474.009,0.00951923,474.021,-0.000218543,-0.000307536,0.14701,0.147011,-0.292167,0.878056,6.98873e-08,5.47726e-08,0.581541,0.15836554662740343,1.406217469996303,6.988730238965957e-08,0.15836670499352934,5.477260156538932e-08,-0.2533561639594162
808,0.7979,474.143,474.094,0.00950058,474.106,-0.000218587,-0.000307439,0.14715,0.14715,-0.292445,0.87889,6.93746e-08,5.4106e-08,0.582096,0.15852772915644353,1.4082250924284665,6.93746025071107e-08,0.15852772915644353,5.4106001456943886e-08,-0.25356370209669776
809,0.7989,474.228,474.179,0.00948197,474.191,-0.00021863,-0.000307343,0.147289,0.147289,-0.292723,0.879724,6.88621e-08,5.344e-08,0.582651,0.158688775703272,1.4102343899161394,6.886210246470625e-08,0.158688775703272,5.344000153506556e-08,-0.2537711825463962
810,0.7999,474.313,474.263,0.00946341,474.276,-0.000218674,-0.000307248,0.147428,0.147428,-0.293001,0.880557,6.83499e-08,5.27747e-08,0.583206,0.15884984463712626,1.4122429516127428,6.834990240456307e-08,0.15884984463712626,5.277470149778196e-08,-0.2539786053245463
811,0.8009,474.397,474.348,0.00944489,474.36,-0.000218718,-0.000307152,0.147567,0.147567,-0.293278,0.88139,6.78379e-08,5.21098e-08,0.583761,0.15901093596111848,1.4142531871382924,6.783790240660892e-08,0.15901093596111848,5.210980136283183e-08,-0.25418522463277604
812,0.8019,474.482,474.433,0.00942641,474.445,-0.000218761,-0.000307057,0.147706,0.147706,-0.293556,0.882223,6.73261e-08,5.14456e-08,0.584316,0.15917204967836107,1.4162650978876692,6.73261022487992e-08,0.15917204967836107,5.144560133452103e-08,-0.254392532323224
813,0.8029,474.566,474.517,0.00940798,474.529,-0.000218805,-0.000306963,0.147844,0.147845,-0.293833,0.883055,6.68146e-08,5.0782e-08,0.58487,0.1593320264593605,1.4182762669794386,6.681460229529534e-08,0.15933318579196665,5.0782001270732735e-08,-0.2545990369895538
814,0.8039,474.65,474.601,0.0093896,474.614,-0.000218848,-0.000306869,0.147983,0.147983,-0.29411,0.883886,6.63032e-08,5.01189e-08,0.585423,0.15949318481128438,1.4202866897722757,6.63032022618637e-08,0.15949318481128438,5.011890125139473e-08,-0.2548054844620127
815,0.8049,474.735,474.685,0.00937125,474.698,-0.000218892,-0.000306776,0.148122,0.148122,-0.294387,0.884717,6.57921e-08,4.94564e-08,0.585977,0.15965436556577606,1.4222987839208057,6.579210221069332e-08,0.15965436556577606,4.9456401196579236e-08,-0.25501187475644127
816,0.8059,474.819,474.769,0.00935296,474.782,-0.000218936,-0.000306682,0.14826,0.148261,-0.294664,0.885548,6.52813e-08,4.87944e-08,0.58653,0.159814408910961,1.4243125508145025,6.528130214178418e-08,0.15981556872594993,4.879440118621403e-08,-0.25521820788867555
817,0.8069,474.903,474.853,0.0093347,474.866,-0.000218979,-0.00030659,0.148399,0.148399,-0.294941,0.886378,6.47706e-08,4.81331e-08,0.587083,0.15997563431870598,1.4263255655172165,6.477060199294726e-08,0.15997563431870598,4.813310106044355e-08,-0.2554244838745474
818,0.8079,474.986,474.937,0.00931649,474.95,-0.000219023,-0.000306497,0.148537,0.148537,-0.295217,0.887208,6.42602e-08,4.74723e-08,0.587635,0.16013572200203807,1.4283402517157082,6.42602020484162e-08,0.16013572200203807,4.7472301201167966e-08,-0.25562995836021474
819,0.8089,475.07,475.021,0.00929833,475.033,-0.000219067,-0.000306405,0.148676,0.148676,-0.295494,0.888037,6.375e-08,4.6812e-08,0.588188,0.1602969920754067,1.4303541804425,6.375000194402958e-08,0.1602969920754067,4.681200116429807e-08,-0.2558361203070011
820,0.8099,475.154,475.104,0.0092802,475.117,-0.00021911,-0.000306314,0.148814,0.148814,-0.29577,0.888866,6.324e-08,4.61524e-08,0.58874,0.16045712410916924,1.432369779408425,6.324000190183199e-08,0.16045712410916924,4.615240101202289e-08,-0.2560414811966899
821,0.8109,475.237,475.188,0.00926213,475.2,-0.000219154,-0.000306222,0.148952,0.148952,-0.296046,0.889694,6.27302e-08,4.54933e-08,0.589291,0.16061727824267735,1.434384615612852,6.273020192182344e-08,0.16061727824267735,4.5493301126242613e-08,-0.2562467854145942
822,0.8119,475.32,475.271,0.00924409,475.284,-0.000219198,-0.000306132,0.14909,0.14909,-0.296322,0.890522,6.22207e-08,4.48347e-08,0.589843,0.16077745447898106,1.436401120792517,6.222070192407614e-08,0.16077745447898106,4.483470106286802e-08,-0.25645203297635344
823,0.8129,475.404,475.354,0.0092261,475.367,-0.000219241,-0.000306041,0.149228,0.149228,-0.296598,0.89135,6.17114e-08,4.41768e-08,0.590394,0.1609376528211306,1.438419296329903,6.171140198851788e-08,0.1609376528211306,4.417680088408815e-08,-0.25665722389760226
824,0.8139,475.487,475.438,0.00920815,475.45,-0.000219285,-0.000305951,0.149366,0.149366,-0.296873,0.892177,6.12023e-08,4.35193e-08,0.590944,0.16109787327217662,1.4404367031707164,6.120230189310405e-08,0.16109787327217662,4.351930105173096e-08,-0.25686161505595806
825,0.8149,475.57,475.521,0.00919024,475.533,-0.000219329,-0.000305861,0.149504,0.149504,-0.297149,0.893003,6.06935e-08,4.28625e-08,0.591495,0.1612581158351707,1.442453336642501,6.069350177995148e-08,0.1612581158351707,4.286250088192389e-08,-0.25706669294815165
826,0.8159,475.653,475.604,0.00917238,475.616,-0.000219372,-0.000305772,0.149642,0.149642,-0.297424,0.893829,6.01848e-08,4.22062e-08,0.592045,0.16141838051316437,1.4444716365416728,6.018480180891572e-08,0.16141838051316437,4.220620097861172e-08,-0.25727097151800016
827,0.8169,475.736,475.686,0.00915456,475.699,-0.000219416,-0.000305683,0.14978,0.14978,-0.297699,0.894655,5.96764e-08,4.15504e-08,0.592595,0.1615786673092099,1.4464916042452698,5.967640182014122e-08,0.1615786673092099,4.155040089770523e-08,-0.25747519391896556
828,0.8179,475.818,475.769,0.00913678,475.782,-0.00021946,-0.000305595,0.149917,0.149917,-0.297974,0.89548,5.91682e-08,4.08952e-08,0.593144,0.16173781448796398,1.4485107926194507,5.9168201671511156e-08,0.16173781448796398,4.089520078132125e-08,-0.2576793601664922
829,0.8189,475.901,475.852,0.00911904,475.865,-0.000219504,-0.000305506,0.150055,0.150055,-0.298249,0.896305,5.86602e-08,4.02406e-08,0.593693,0.16189814536893965,1.4505316475113843,5.866020180711473e-08,0.16189814536893965,4.024060085150438e-08,-0.25788347027602
830,0.8199,475.984,475.934,0.00910135,475.947,-0.000219547,-0.000305419,0.150192,0.150193,-0.298524,0.897129,5.81525e-08,3.95865e-08,0.594242,0.1620573363191864,1.452551717743571,5.8152501702934956e-08,0.16205849837710362,3.95865007440932e-08,-0.258087524262985
831,0.8209,476.066,476.017,0.0090837,476.029,-0.000219591,-0.000305331,0.15033,0.15033,-0.298798,0.897953,5.7645e-08,3.8933e-08,0.594791,0.1622177112972174,1.454573453199607,5.764500166094422e-08,0.1622177112972174,3.893300082324913e-08,-0.2582907804339698
832,0.8219,476.148,476.099,0.00906609,476.112,-0.000219635,-0.000305244,0.150467,0.150467,-0.299073,0.898776,5.71377e-08,3.828e-08,0.595339,0.16237694603099517,1.4565943986565757,5.7137701681142516e-08,0.16237694603099517,3.828000072481075e-08,-0.2584947224260413
833,0.8229,476.231,476.181,0.00904852,476.194,-0.000219679,-0.000305157,0.150605,0.150605,-0.299347,0.899599,5.66306e-08,3.76276e-08,0.595887,0.16253736511821004,1.4586170080362653,5.663060154148525e-08,0.16253736511821004,3.762760081293948e-08,-0.2586978670400135
834,0.8239,476.313,476.263,0.009031,476.276,-0.000219723,-0.000305071,0.150742,0.150742,-0.299621,0.900422,5.61237e-08,3.69757e-08,0.596435,0.1626966436475612,1.4606412827086483,5.612370146401702e-08,0.1626966436475612,3.697570072347389e-08,-0.2589009559999864
835,0.8249,476.395,476.345,0.00901351,476.358,-0.000219767,-0.000304985,0.150879,0.150879,-0.299895,0.901244,5.56171e-08,3.63243e-08,0.596982,0.16285594399956604,1.4626647613788326,5.5617101590854645e-08,0.16285594399956604,3.63243006784586e-08,-0.25910398932120715
836,0.8259,476.477,476.427,0.00899607,476.44,-0.00021981,-0.000304899,0.151016,0.151016,-0.300169,0.902065,5.51106e-08,3.56735e-08,0.59753,0.16301526617721396,1.464687439343615,5.5110601415719884e-08,0.16301526617721396,3.567350059796581e-08,-0.25930696701891864
837,0.8269,476.558,476.509,0.00897867,476.522,-0.000219854,-0.000304814,0.151153,0.151153,-0.300442,0.902886,5.46044e-08,3.50233e-08,0.598076,0.16317461018349544,1.466711778608877,5.460440144489098e-08,0.16317461018349544,3.502330070404014e-08,-0.25950914861787855
838,0.8279,476.64,476.591,0.00896131,476.603,-0.000219898,-0.000304729,0.15129,0.15129,-0.300716,0.903707,5.40985e-08,3.43736e-08,0.598623,0.1633339760214012,1.4687377805391066,5.4098501456323334e-08,0.1633339760214012,3.437360063252015e-08,-0.25971201531715027
839,0.8289,476.721,476.672,0.00894399,476.685,-0.000219942,-0.000304644,0.151427,0.151427,-0.300989,0.904527,5.35927e-08,3.37244e-08,0.599169,0.16349336369392242,1.4707629757357008,5.35927013878279e-08,0.16349336369392242,3.3724400605450455e-08,-0.25991408635301727
840,0.8299,476.803,476.754,0.00892672,476.767,-0.000219986,-0.00030456,0.151563,0.151564,-0.301262,0.905347,5.30871e-08,3.30757e-08,0.599715,0.1636516095518592,1.4727898322734134,5.3087101381521506e-08,0.16365277320405047,3.307570062283105e-08,-0.2601161022310209
841,0.8309,476.884,476.835,0.00890948,476.848,-0.00022003,-0.000304476,0.1517,0.1517,-0.301536,0.906166,5.25818e-08,3.24276e-08,0.600261,0.163811040743155,1.474815876697988,5.2581801357476365e-08,0.163811040743155,3.242760060473415e-08,-0.2603188026477843
842,0.8319,476.966,476.916,0.00889229,476.929,-0.000220074,-0.000304392,0.151837,0.151837,-0.301808,0.906985,5.20767e-08,3.17801e-08,0.600806,0.16397049377802042,1.4768435811326275,5.207670139562026e-08,0.16397049377802042,3.178010055115976e-08,-0.260519968573658
843,0.8329,477.047,476.997,0.00887513,477.01,-0.000220118,-0.000304309,0.151973,0.151973,-0.302081,0.907804,5.15718e-08,3.11331e-08,0.601351,0.1641288045300613,1.4788729469374373,5.157180127390859e-08,0.1641288045300613,3.113310054203566e-08,-0.2607218190683912
844,0.8339,477.128,477.078,0.00885802,477.091,-0.000220162,-0.000304226,0.15211,0.15211,-0.302354,0.908622,5.10671e-08,3.04866e-08,0.601896,0.16428830110154746,1.4809014945709014,5.106710121438596e-08,0.16428830110154746,3.048660035531725e-08,-0.26092361446546053
845,0.8349,477.209,477.159,0.00884095,477.172,-0.000220206,-0.000304143,0.152246,0.152246,-0.302626,0.909439,5.05627e-08,2.98406e-08,0.60244,0.16444665507832368,1.4829292193047294,5.056270135916918e-08,0.16444665507832368,2.9840600435093734e-08,-0.2611246159048909
846,0.8359,477.29,477.24,0.00882391,477.253,-0.000220251,-0.000304061,0.152382,0.152383,-0.302899,0.910256,5.00584e-08,2.91952e-08,0.602984,0.16460503059270515,1.484958601366591,5.005840120198002e-08,0.1646061951983182,2.9195200479392724e-08,-0.2613263013534325
847,0.8369,477.37,477.321,0.00880692,477.334,-0.000220295,-0.000303979,0.152519,0.152519,-0.303171,0.911073,4.95544e-08,2.85503e-08,0.603528,0.16476459241163144,1.486989642111077,4.9554401249096713e-08,0.16476459241163144,2.85503003460974e-08,-0.2615271932769242
848,0.8379,477.451,477.401,0.00878997,477.415,-0.000220339,-0.000303897,0.152655,0.152655,-0.303443,0.911889,4.90506e-08,2.79059e-08,0.604072,0.16492301116843078,1.4890198538727857,4.905060113635784e-08,0.16492301116843078,2.7905900479296974e-08,-0.2617280305652435
849,0.8389,477.531,477.482,0.00877306,477.495,-0.000220383,-0.000303816,0.152791,0.152791,-0.303715,0.912705,4.8547e-08,2.72621e-08,0.604615,0.1650814514716461,1.4910517229633906,4.8547001085808006e-08,0.1650814514716461,2.726210035497445e-08,-0.261928813233249
850,0.8399,477.612,477.562,0.00875618,477.576,-0.000220427,-0.000303735,0.152927,0.152927,-0.303986,0.91352,4.80437e-08,2.66188e-08,0.605158,0.16523991332420795,1.4930827576518193,4.804370123956403e-08,0.16523991332420795,2.6618800275102217e-08,-0.2621288034249678
851,0.8409,477.692,477.643,0.00873935,477.656,-0.000220471,-0.000303654,0.153063,0.153063,-0.304258,0.914335,4.75405e-08,2.5976e-08,0.605701,0.16539839672904733,1.4951154483082343,4.7540501091347664e-08,0.16539839672904733,2.5976000239680275e-08,-0.2623294770975795
852,0.8419,477.772,477.723,0.00872256,477.736,-0.000220516,-0.000303574,0.153199,0.153199,-0.304529,0.915149,4.70376e-08,2.53337e-08,0.606243,0.16555690168909543,1.497147299134252,4.703760114743716e-08,0.16555690168909543,2.5333700248708624e-08,-0.26252935872410244
853,0.8429,477.853,477.803,0.00870581,477.816,-0.00022056,-0.000303494,0.153335,0.153335,-0.304801,0.915963,4.65348e-08,2.4692e-08,0.606785,0.1657154282072839,1.499180804560173,4.653480112359887e-08,0.1657154282072839,2.469200022225948e-08,-0.26272992346048873
854,0.8439,477.933,477.883,0.00868909,477.896,-0.000220604,-0.000303414,0.15347,0.15347,-0.305072,0.916777,4.60323e-08,2.40508e-08,0.607327,0.16587281041315194,1.50121596593339,4.603230108202183e-08,0.16587281041315194,2.4050800240260628e-08,-0.2629296965807505
855,0.8449,478.013,477.963,0.00867242,477.976,-0.000220649,-0.000303335,0.153606,0.153606,-0.305343,0.91759,4.553e-08,2.34101e-08,0.607868,0.16603137989784855,1.5032502813508595,4.553000110263383e-08,0.16603137989784855,2.3410100302712067e-08,-0.2631294155698318
856,0.8459,478.092,478.043,0.00865578,478.056,-0.000220693,-0.000303256,0.153742,0.153742,-0.305614,0.918403,4.5028e-08,2.27699e-08,0.608409,0.16618997094946186,1.505286251339255,4.502800110550709e-08,0.16618997094946186,2.2769900187569192e-08,-0.2633290804424002
857,0.8469,478.172,478.123,0.00863918,478.136,-0.000220737,-0.000303177,0.153877,0.153877,-0.305884,0.919215,4.45261e-08,2.21302e-08,0.60895,0.16634741722292423,1.5073213699216668,4.452610102845256e-08,0.16634741722292423,2.2130200338921213e-08,-0.2635279547414422
858,0.8479,478.252,478.202,0.00862263,478.216,-0.000220782,-0.000303098,0.154012,0.154013,-0.306155,0.920027,4.40244e-08,2.14911e-08,0.609491,0.16650488475306857,1.5093581416914708,4.402440101358707e-08,0.16650605125853657,2.1491100232751137e-08,-0.26372751162452834
859,0.8489,478.331,478.282,0.00860611,478.295,-0.000220826,-0.00030302,0.154148,0.154148,-0.306425,0.920838,4.3523e-08,2.08525e-08,0.610031,0.16666354020572127,1.5113940565962878,4.352300098098283e-08,0.16666354020572127,2.0852500171031352e-08,-0.2639262783616727
860,0.8499,478.411,478.361,0.00858963,478.375,-0.000220871,-0.000302942,0.154283,0.154283,-0.306696,0.921649,4.30218e-08,2.02144e-08,0.610571,0.1668210504153489,1.5134316232978056,4.302180101056763e-08,0.1668210504153489,2.0214400153761858e-08,-0.264125727313683
861,0.8509,478.49,478.44,0.00857319,478.454,-0.000220915,-0.000302865,0.154418,0.154418,-0.306966,0.922459,4.25208e-08,1.95768e-08,0.611111,0.16697858189029025,1.5154683276665892,4.252080088029686e-08,0.16697858189029025,1.9576800180942655e-08,-0.264324386547105
862,0.8519,478.569,478.52,0.00855679,478.533,-0.00022096,-0.000302787,0.154553,0.154554,-0.307236,0.923269,4.202e-08,1.89397e-08,0.61165,0.16713613463341637,1.5175066824342331,4.202000081221513e-08,0.16713730177013453,1.8939700252573743e-08,-0.26452299214977437
863,0.8529,478.648,478.599,0.00854042,478.612,-0.000221004,-0.00030271,0.154688,0.154689,-0.307505,0.924079,4.15194e-08,1.83031e-08,0.61219,0.16729370864759852,1.5195466889381013,4.151940080632244e-08,0.16729487594189085,1.8303100146610518e-08,-0.26472080885734606
864,0.8539,478.727,478.678,0.0085241,478.691,-0.000221049,-0.000302634,0.154823,0.154824,-0.307775,0.924888,4.1019e-08,1.76671e-08,0.612729,0.1674513039357084,1.521585826929555,4.101900086261878e-08,0.16745247138759622,1.7667100227214405e-08,-0.26491930744044
865,0.8549,478.806,478.757,0.00850781,478.77,-0.000221093,-0.000302557,0.154958,0.154958,-0.308045,0.925697,4.05189e-08,1.70315e-08,0.613267,0.1676089205006186,1.5236266152511124,4.051890090117638e-08,0.1676089205006186,1.7031500210151762e-08,-0.2651177524361511
866,0.8559,478.885,478.836,0.00849156,478.849,-0.000221138,-0.000302481,0.155093,0.155093,-0.308314,0.926505,4.00189e-08,1.63965e-08,0.613805,0.16776655834520127,1.5256665295706382,4.0018900859806195e-08,0.16776655834520127,1.6396500157611626e-08,-0.2653154091747225
867,0.8569,478.964,478.914,0.00847535,478.928,-0.000221182,-0.000302405,0.155228,0.155228,-0.308583,0.927313,3.95192e-08,1.57619e-08,0.614343,0.16792421747232944,1.527708092807007,3.951920080069726e-08,0.16792421747232944,1.5761900229449566e-08,-0.265513012750782
868,0.8579,479.042,478.993,0.00845918,479.006,-0.000221227,-0.00030233,0.155363,0.155363,-0.308852,0.92812,3.90197e-08,1.51279e-08,0.614881,0.1680818978848766,1.5297487765430402,3.901970080377737e-08,0.1680818978848766,1.5127900043765408e-08,-0.2657105631786283
869,0.8589,479.121,479.071,0.00844304,479.085,-0.000221272,-0.000302255,0.155497,0.155497,-0.309121,0.928927,3.85203e-08,1.44944e-08,0.615418,0.1682384313467009,1.5317911077755237,3.852030072692969e-08,0.1682384313467009,1.449439990253154e-08,-0.2659080604725562
870,0.8599,479.199,479.15,0.00842694,479.163,-0.000221316,-0.00030218,0.155632,0.155632,-0.30939,0.929734,3.80212e-08,1.38614e-08,0.615956,0.16839615418098441,1.533835087834524,3.8021200632343266e-08,0.16839615418098441,1.386140002779257e-08,-0.266105504646857
871,0.8609,479.278,479.228,0.00841088,479.242,-0.000221361,-0.000302105,0.155766,0.155766,-0.309659,0.93054,3.75224e-08,1.32288e-08,0.616492,0.1685527297559739,1.5358781821717313,3.75224007420627e-08,0.1685527297559739,1.3228800055387069e-08,-0.266302895715818
872,0.8619,479.356,479.306,0.00839486,479.32,-0.000221406,-0.000302031,0.155901,0.155901,-0.309927,0.931346,3.70237e-08,1.25968e-08,0.617029,0.16871049502340707,1.5379229239067858,3.702370077185435e-08,0.16871049502340707,1.2596800047504075e-08,-0.26649950019358937
873,0.8629,479.434,479.385,0.00837888,479.398,-0.000221451,-0.000301957,0.156035,0.156035,-0.310196,0.932151,3.65252e-08,1.19653e-08,0.617565,0.16886711272289157,1.539966774399982,3.6525200641790434e-08,0.16886711272289157,1.1965300084071373e-08,-0.2666967852920019
874,0.8639,479.512,479.463,0.00836293,479.476,-0.000221495,-0.000301883,0.156169,0.156169,-0.310464,0.932956,3.60269e-08,1.13343e-08,0.618101,0.16902375141055415,1.5420122708552362,3.6026900573915555e-08,0.16902375141055415,1.1334299943044357e-08,-0.26689328422151104
875,0.8649,479.59,479.541,0.00834702,479.554,-0.00022154,-0.000301809,0.156304,0.156304,-0.310732,0.93376,3.55289e-08,1.07038e-08,0.618637,0.16918158027020302,1.5440568705399387,3.5528900710346534e-08,0.16918158027020302,1.0703800068512237e-08,-0.267089730496363
876,0.8659,479.668,479.618,0.00833114,479.632,-0.000221585,-0.000301736,0.156438,0.156438,-0.311,0.934564,3.50311e-08,1.00738e-08,0.619172,0.16933826109934014,1.5461031147437954,3.5031100686921945e-08,0.16933826109934014,1.0073800016385803e-08,-0.26728612413066755
877,0.8669,479.746,479.696,0.00831531,479.71,-0.00022163,-0.000301663,0.156572,0.156572,-0.311268,0.935367,3.45334e-08,9.44423e-09,0.619707,0.16949496292511546,1.5481484566398014,3.4533400583569573e-08,0.16949496292511546,9.44423006465911e-09,-0.26748246513853025
878,0.8679,479.823,479.774,0.00829951,479.788,-0.000221675,-0.00030159,0.156706,0.156706,-0.311535,0.93617,3.4036e-08,8.8152e-09,0.620242,0.16965168575034206,1.550195441604954,3.403600068452306e-08,0.16965168575034206,8.815199903366988e-09,-0.26767802121244066
879,0.8689,479.901,479.851,0.00828374,479.865,-0.00022172,-0.000301518,0.15684,0.15684,-0.311803,0.936973,3.35388e-08,8.18667e-09,0.620777,0.1698084295778346,1.552244070959167,3.353880062562098e-08,0.1698084295778346,8.186670008569763e-09,-0.26787425720595803
880,0.8699,479.978,479.929,0.00826801,479.943,-0.000221765,-0.000301446,0.156973,0.156974,-0.31207,0.937775,3.30418e-08,7.55863e-09,0.621311,0.16996402444579783,1.5542917917303471,3.3041800628907936e-08,0.16996519441040725,7.558629944171003e-09,-0.2680697086853505
881,0.8709,480.056,480.006,0.00825232,480.02,-0.00022181,-0.000301374,0.157107,0.157107,-0.312337,0.938577,3.2545e-08,6.93108e-09,0.621845,0.17012081012947977,1.556341155432313,3.2545000472339325e-08,0.17012081012947977,6.931079932215312e-09,-0.268265107986164
882,0.8719,480.133,480.084,0.00823667,480.097,-0.000221854,-0.000301303,0.157241,0.157241,-0.312605,0.939378,3.20484e-08,6.30402e-09,0.622379,0.1702776168238509,1.5583896049923394,3.2048400600004356e-08,0.1702776168238509,6.30401997270269e-09,-0.26846118666150764
883,0.8729,480.21,480.161,0.00822105,480.175,-0.000221899,-0.000301231,0.157375,0.157375,-0.312872,0.940179,3.1552e-08,5.67745e-09,0.622912,0.17043444453172718,1.5604396960177818,3.155200056781382e-08,0.17043444453172718,5.677450065633138e-09,-0.2686564814516543
884,0.8739,480.287,480.238,0.00820547,480.252,-0.000221944,-0.00030116,0.157508,0.157508,-0.313138,0.94098,3.10558e-08,5.05137e-09,0.623445,0.17059012266521623,1.5624914298239823,3.105580037576772e-08,0.17059012266521623,5.051369988962051e-09,-0.26885099295641113
885,0.8749,480.364,480.315,0.00818993,480.329,-0.00022199,-0.000301089,0.157642,0.157642,-0.313405,0.94178,3.05599e-08,4.42578e-09,0.623978,0.17074699225168088,1.564542243183808,3.055990038802747e-08,0.17074699225168088,4.4257799647340335e-09,-0.26904618368217026
886,0.8759,480.441,480.392,0.00817442,480.406,-0.000222035,-0.000301019,0.157775,0.157775,-0.313671,0.94258,3.00641e-08,3.80068e-09,0.624511,0.1709027119567812,1.566594697850758,3.006410054240405e-08,0.1709027119567812,3.800679992949085e-09,-0.2692405915399194
887,0.8769,480.518,480.469,0.00815894,480.482,-0.00022208,-0.000300949,0.157908,0.157908,-0.313938,0.943379,2.95686e-08,3.17606e-09,0.625043,0.17105845237397976,1.5686462264908907,2.9568600456997274e-08,0.17105845237397976,3.176060081599985e-09,-0.26943567825674264
888,0.8779,480.595,480.545,0.00814351,480.559,-0.000222125,-0.000300879,0.158042,0.158042,-0.314204,0.944178,2.90732e-08,2.55192e-09,0.625575,0.1712153847208302,1.5706993949574306,2.907320051370732e-08,0.1712153847208302,2.551920008642128e-09,-0.2696299825227133
889,0.8789,480.672,480.622,0.0081281,480.636,-0.00022217,-0.000300809,0.158175,0.158175,-0.31447,0.944976,2.85781e-08,1.92827e-09,0.626107,0.17137116672627184,1.5727516318082042,2.8578100330634015e-08,0.17137116672627184,1.92826998812734e-09,-0.2698242351106227
890,0.8799,480.748,480.698,0.00811274,480.712,-0.000222215,-0.00030074,0.158308,0.158308,-0.314736,0.945774,2.80831e-08,1.30511e-09,0.626638,0.171526969452098,1.574805506997595,2.8083100289677532e-08,0.171526969452098,1.305110020055622e-09,-0.2700184360342154
891,0.8809,480.824,480.775,0.00809741,480.789,-0.00022226,-0.00030067,0.158441,0.158441,-0.315002,0.946572,2.75884e-08,6.82419e-10,0.627169,0.17168279290106492,1.5768610218335182,2.7588400453026907e-08,0.17168279290106492,6.824190101895056e-10,-0.27021258530723213
892,0.8819,480.901,480.851,0.00808211,480.865,-0.000222305,-0.000300601,0.158574,0.158574,-0.315268,0.947369,2.70939e-08,6.02138e-11,0.6277,0.1718386370759286,1.578915598708047,2.7093900456520714e-08,0.1718386370759286,6.021383391896507e-11,-0.2704066829434104
893,0.8829,480.977,480.927,0.00806685,480.941,-0.000222351,-0.000300533,0.158707,0.158707,-0.315533,0.948165,2.65996e-08,-5.61512e-10,0.628231,0.171994501979446,1.5809692327625378,2.6599600300158954e-08,0.171994501979446,-5.615119480495423e-10,-0.27059999955684777
894,0.8839,481.053,481.004,0.00805163,481.018,-0.000222396,-0.000300464,0.15884,0.15884,-0.315798,0.948962,2.61055e-08,-1.18276e-09,0.628761,0.17215038761437418,1.58302708518631,2.6105500428030837e-08,0.17215038761437418,-1.1827600010505535e-09,-0.2707932649481699
895,0.8849,481.129,481.08,0.00803644,481.094,-0.000222441,-0.000300396,0.158972,0.158972,-0.316064,0.949757,2.56116e-08,-1.80353e-09,0.629291,0.17230512167776268,1.5850814082042337,2.5611600396047152e-08,0.17230512167776268,-1.803529992017161e-09,-0.27098720814410504
896,0.8859,481.205,481.156,0.00802128,481.17,-0.000222486,-0.000300328,0.159105,0.159105,-0.316329,0.950553,2.51179e-08,-2.42382e-09,0.629821,0.17246104862785816,1.5871399521969796,2.5117900426252504e-08,0.17246104862785816,-2.423820033570223e-09,-0.27118037093874614
897,0.8869,481.281,481.232,0.00800616,481.246,-0.000222532,-0.000300261,0.159238,0.159238,-0.316594,0.951348,2.46244e-08,-3.04364e-09,0.63035,0.17261699631761718,1.5891975462442391,2.462440029660229e-08,0.17261699631761718,-3.043640006694659e-09,-0.27137348255202853
898,0.8879,481.357,481.307,0.00799108,481.321,-0.000222577,-0.000300193,0.15937,0.15937,-0.316859,0.952142,2.41311e-08,-3.66298e-09,0.630879,0.17277179197741988,1.5912541854736832,2.413110022914111e-08,0.17277179197741988,-3.6629800304055493e-09,-0.27156654299751337
899,0.8889,481.433,481.383,0.00797603,481.397,-0.000222622,-0.000300126,0.159503,0.159503,-0.317123,0.952937,2.3638e-08,-4.28185e-09,0.631408,0.17292778099879302,1.5933150516368912,2.363800022386897e-08,0.17292778099879302,-4.281849985687813e-09,-0.2717588240479466
900,0.8899,481.508,481.459,0.00796101,481.473,-0.000222667,-0.000300059,0.159635,0.159635,-0.317388,0.95373,2.31451e-08,-4.90024e-09,0.631937,0.1730826176848812,1.5953723660902082,2.314510028078587e-08,0.1730826176848812,-4.900239991556532e-09,-0.2719517823914642
901,0.8909,481.584,481.534,0.00794603,481.548,-0.000222713,-0.000299993,0.159767,0.159768,-0.317652,0.954524,2.26524e-08,-5.51817e-09,0.632465,0.17323747481076102,1.5974339100735393,2.26524001778472e-08,0.1732386480488226,-5.5181700320261484e-09,-0.2721439617521211
902,0.8919,481.659,481.61,0.00793108,481.624,-0.000222758,-0.000299926,0.1599,0.1599,-0.317916,0.955317,2.21599e-08,-6.13562e-09,0.632993,0.1733935257720698,1.599494492077009,2.2159900137097566e-08,0.1733935257720698,-6.135620012059917e-09,-0.2723360903841232
903,0.8929,481.735,481.685,0.00791617,481.699,-0.000222804,-0.00029986,0.160032,0.160032,-0.318181,0.956109,2.16677e-08,-6.7526e-09,0.633521,0.17354842394052605,1.6015541072146684,2.166770030065379e-08,0.17354842394052605,-6.7526000346873616e-09,-0.2725288957723292
904,0.8939,481.81,481.76,0.00790129,481.774,-0.000222849,-0.000299794,0.160164,0.160164,-0.318445,0.956901,2.11756e-08,-7.36912e-09,0.634048,0.1737033425568899,1.6036153542136486,2.117560016223763e-08,0.1737033425568899,-7.369119980893402e-09,-0.2727209227951629
905,0.8949,481.885,481.835,0.00788645,481.85,-0.000222894,-0.000299728,0.160296,0.160296,-0.318708,0.957693,2.06837e-08,-7.98516e-09,0.634576,0.17385828162386074,1.6056782343668958,2.068370030805511e-08,0.17385828162386074,-7.985159977685896e-09,-0.2729121720420895
906,0.8959,481.96,481.91,0.00787164,481.925,-0.00022294,-0.000299663,0.160428,0.160428,-0.318972,0.958484,2.0192e-08,-8.60074e-09,0.635103,0.1740132411441384,1.6077401412269348,2.019200029401702e-08,0.1740132411441384,-8.600740009079288e-09,-0.2731040978933432
907,0.8969,482.035,481.985,0.00785686,482.0,-0.000222985,-0.000299598,0.16056,0.16056,-0.319236,0.959275,1.97006e-08,-9.21586e-09,0.635629,0.17416822112042296,1.6098036797005189,1.9700600262240187e-08,0.17416822112042296,-9.215859964051276e-09,-0.27329597308286
908,0.8979,482.11,482.06,0.00784212,482.075,-0.000223031,-0.000299533,0.160692,0.160692,-0.319499,0.960065,1.92093e-08,-9.83051e-09,0.636156,0.17432322155541446,1.6118662392112184,1.920930015053557e-08,0.17432322155541446,-9.83050996161694e-09,-0.273487071111447
909,0.8989,482.185,482.135,0.00782741,482.149,-0.000223076,-0.000299468,0.160824,0.160824,-0.319762,0.960855,1.87183e-08,-1.04447e-08,0.636682,0.17447824245181387,1.613930428787723,1.871830024313681e-08,0.17447824245181387,-1.0444699993783502e-08,-0.27367811888786087
910,0.8999,482.26,482.21,0.00781273,482.224,-0.000223122,-0.000299404,0.160955,0.160956,-0.320026,0.961645,1.82274e-08,-1.10584e-08,0.637208,0.17463210917962568,1.6159962497182931,1.8227400255810267e-08,0.17463328381232213,-1.1058399973506994e-08,-0.2738698425558367
911,0.9009,482.334,482.284,0.00779809,482.299,-0.000223167,-0.00029934,0.161087,0.161087,-0.320289,0.962434,1.77367e-08,-1.16717e-08,0.637733,0.17478717085188267,1.618061085229813,1.7736700108628156e-08,0.17478717085188267,-1.1671700050897016e-08,-0.2740607896765975
912,0.9019,482.409,482.359,0.00778348,482.373,-0.000223213,-0.000299276,0.161219,0.161219,-0.320551,0.963223,1.72463e-08,-1.22845e-08,0.638258,0.1749422529936313,1.6201275505394226,1.7246300165751904e-08,0.1749422529936313,-1.2284499972814444e-08,-0.2742509608361925
913,0.9029,482.483,482.433,0.00776891,482.448,-0.000223258,-0.000299212,0.16135,0.16135,-0.320814,0.964011,1.6756e-08,-1.28968e-08,0.638783,0.17509618051080555,1.6221930247392038,1.675600014294787e-08,0.17509618051080555,-1.2896799961303884e-08,-0.2744418077360252
914,0.9039,482.557,482.508,0.00775436,482.522,-0.000223304,-0.000299148,0.161482,0.161482,-0.321077,0.964799,1.6266e-08,-1.35087e-08,0.639308,0.17525130344452133,1.6242601271740944,1.6266000102405087e-08,0.17525130344452133,-1.3508700047459854e-08,-0.27463260444972304
915,0.9049,482.632,482.582,0.00773986,482.596,-0.00022335,-0.000299085,0.161613,0.161613,-0.321339,0.965586,1.57761e-08,-1.41201e-08,0.639833,0.17540527144995677,1.6263262328001047,1.5776100203979126e-08,0.17540527144995677,-1.412009997814323e-08,-0.2748226258134715
916,0.9059,482.706,482.656,0.00772538,482.671,-0.000223395,-0.000299022,0.161744,0.161744,-0.321602,0.966373,1.52864e-08,-1.47311e-08,0.640357,0.17555925962652208,1.6283939650912505,1.52864001456976e-08,0.17555925962652208,-1.4731100006493136e-08,-0.2750133223851843
917,0.9069,482.78,482.73,0.00771094,482.745,-0.000223441,-0.000298959,0.161876,0.161876,-0.321864,0.96716,1.4797e-08,-1.53416e-08,0.640881,0.17571444369071565,1.6304633253282224,1.4797000069677324e-08,0.17571444369071565,-1.534159987937045e-08,-0.2752032440138995
918,0.9079,482.854,482.804,0.00769653,482.819,-0.000223487,-0.000298897,0.162007,0.162007,-0.322126,0.967946,1.43077e-08,-1.59516e-08,0.641404,0.1758684723714976,1.6325316822597191,1.4307699913729266e-08,0.1758684723714976,-1.5951599818819773e-08,-0.2753931158896661
919,0.9089,482.928,482.878,0.00768215,482.893,-0.000223532,-0.000298834,0.162138,0.162138,-0.322388,0.968732,1.38187e-08,-1.65612e-08,0.641928,0.1760225212313582,1.6346016655588431,1.3818699962087067e-08,0.1760225212313582,-1.6561199855935627e-08,-0.27558293802551737
920,0.9099,483.002,482.952,0.00766781,482.966,-0.000223578,-0.000298772,0.162269,0.162269,-0.322649,0.969517,1.33298e-08,-1.71704e-08,0.642451,0.17617659027294152,1.636670639832463,1.3329799930517083e-08,0.17617659027294152,-1.7170399879695708e-08,-0.27577198620683185
921,0.9109,483.076,483.026,0.0076535,483.04,-0.000223624,-0.00029871,0.1624,0.1624,-0.322911,0.970302,1.28411e-08,-1.7779e-08,0.642974,0.17633067949889103,1.6387412388885312,1.2841099961136138e-08,0.17633067949889103,-1.777899982791098e-08,-0.2759617090916624
922,0.9119,483.149,483.099,0.00763922,483.114,-0.000223669,-0.000298649,0.162531,0.162531,-0.323173,0.971087,1.23527e-08,-1.83873e-08,0.643496,0.1764847889118517,1.6408134640030032,1.2352699974016446e-08,0.1764847889118517,-1.8387299793864997e-08,-0.2761513822756083
923,0.9129,483.223,483.173,0.00762497,483.188,-0.000223715,-0.000298587,0.162662,0.162662,-0.323434,0.971871,1.18644e-08,-1.89951e-08,0.644018,0.17663891851446767,1.6428846735668405,1.186439990696897e-08,0.17663891851446767,-1.8995099826391026e-08,-0.2763402821123334
924,0.9139,483.296,483.247,0.00761076,483.261,-0.000223761,-0.000298526,0.162792,0.162792,-0.323695,0.972655,1.13764e-08,-1.96024e-08,0.64454,0.17679189151690422,1.644957507595683,1.1376400044227353e-08,0.17679189151690422,-1.9602399814466764e-08,-0.27652913265263446
925,0.9149,483.37,483.32,0.00759658,483.334,-0.000223806,-0.000298465,0.162923,0.162923,-0.323956,0.973438,1.08885e-08,-2.02093e-08,0.645062,0.17694606135259683,1.6470293203329667,1.0888500101557952e-08,0.17694606135259683,-2.020929978918673e-08,-0.2767179339093764
926,0.9159,483.443,483.393,0.00758243,483.408,-0.000223852,-0.000298404,0.163054,0.163054,-0.324217,0.974221,1.04008e-08,-2.08157e-08,0.645584,0.1771002513858606,1.649102755934892,1.0400799999032984e-08,0.1771002513858606,-2.0815699830478707e-08,-0.27690668589542033
927,0.9169,483.516,483.466,0.00756831,483.481,-0.000223898,-0.000298344,0.163184,0.163184,-0.324478,0.975004,9.91336e-09,-2.14217e-08,0.646105,0.17725328436546883,1.6511778156726598,9.913359910740382e-09,0.17725328436546883,-2.142169974739261e-08,-0.2770953886236244
928,0.9179,483.589,483.54,0.00755422,483.554,-0.000223944,-0.000298283,0.163315,0.163315,-0.324739,0.975786,9.42608e-09,-2.20272e-08,0.646626,0.17740751464758375,1.6532518475652926,9.426079916607932e-09,0.17740751464758375,-2.2027199730878522e-08,-0.2772840421068431
929,0.9189,483.662,483.613,0.00754017,483.627,-0.000223989,-0.000298223,0.163445,0.163445,-0.324999,0.976568,8.93901e-09,-2.26323e-08,0.647146,0.1775605875740125,1.655327501985191,8.939009976671741e-09,0.1775605875740125,-2.2632299701008662e-08,-0.2774719238302129
930,0.9199,483.735,483.686,0.00752615,483.7,-0.000224035,-0.000298164,0.163575,0.163575,-0.32526,0.977349,8.45213e-09,-2.3237e-08,0.647667,0.17771368040121538,1.6574021227982159,8.452130106917366e-09,0.17771368040121538,-2.3236999768805333e-08,-0.27766047905056657
931,0.9209,483.808,483.759,0.00751216,483.773,-0.000224081,-0.000298104,0.163706,0.163706,-0.32552,0.97813,7.96545e-09,-2.38412e-08,0.648187,0.1778679709991613,1.6594783645229794,7.965450077307423e-09,0.1778679709991613,-2.384119968112941e-08,-0.2778482629130534
932,0.9219,483.881,483.831,0.0074982,483.846,-0.000224127,-0.000298044,0.163836,0.163836,-0.32578,0.978911,7.47896e-09,-2.4445e-08,0.648707,0.17802110378880687,1.6615562284259076,7.478959895834691e-09,0.17802110378880687,-2.4444999691120017e-08,-0.27803599795808265
933,0.9229,483.954,483.904,0.00748427,483.919,-0.000224173,-0.000297985,0.163966,0.163966,-0.32604,0.979691,6.99267e-09,-2.50483e-08,0.649226,0.17817425648700924,1.663633052140033,6.992669998595602e-09,0.17817425648700924,-2.5048299656660333e-08,-0.278223684198345
934,0.9239,484.026,483.977,0.00747038,483.991,-0.000224219,-0.000297926,0.164096,0.164096,-0.3263,0.98047,6.50658e-09,-2.56512e-08,0.649745,0.17832742909635635,1.6657088306984265,6.506579941500945e-09,0.17832742909635635,-2.565119971986718e-08,-0.27841132164652815
935,0.9249,484.099,484.049,0.00745651,484.064,-0.000224264,-0.000297868,0.164226,0.164226,-0.32656,0.98125,6.02069e-09,-2.62536e-08,0.650264,0.17848062161943723,1.667788894705875,6.020689946595326e-09,0.17848062161943723,-2.625359962760143e-08,-0.27859891031531636
936,0.9259,484.171,484.122,0.00744268,484.136,-0.00022431,-0.000297809,0.164356,0.164356,-0.326819,0.982029,5.53499e-09,-2.68556e-08,0.650783,0.17863383405884048,1.6698679119269224,5.534990021871522e-09,0.17863383405884048,-2.6855599633002214e-08,-0.2787857290034803
937,0.9269,484.244,484.194,0.00742888,484.209,-0.000224356,-0.000297751,0.164486,0.164486,-0.327079,0.982807,5.04948e-09,-2.74572e-08,0.651302,0.17878706641715558,1.6719458773861517,5.049479945284929e-09,0.17878706641715558,-2.7457199625047224e-08,-0.2789732203390095
938,0.9279,484.316,484.266,0.00741511,484.281,-0.000224402,-0.000297692,0.164616,0.164616,-0.327338,0.983585,4.56417e-09,-2.80583e-08,0.65182,0.17894031869697224,1.6740254601315514,4.564169930887374e-09,0.17894031869697224,-2.8058299572641943e-08,-0.27915994209343076
939,0.9289,484.388,484.339,0.00740137,484.353,-0.000224448,-0.000297635,0.164745,0.164745,-0.327597,0.984363,4.07906e-09,-2.8659e-08,0.652338,0.17909241180787894,1.6761066614218594,4.079059978678856e-09,0.17909241180787894,-2.865899961790319e-08,-0.27934661549317974
940,0.9299,484.46,484.411,0.00738766,484.425,-0.000224494,-0.000297577,0.164875,0.164875,-0.327856,0.98514,3.59414e-09,-2.92592e-08,0.652856,0.17924570378517646,1.6781868043286496,3.594140096652154e-09,0.17924570378517646,-2.925919961871415e-08,-0.27953324055077877
941,0.9309,484.533,484.483,0.00737398,484.497,-0.00022454,-0.000297519,0.165005,0.165005,-0.328115,0.985917,3.10942e-09,-2.9859e-08,0.653373,0.17939901569172667,1.680268564134563,3.1094200547698847e-09,0.17939901569172667,-2.9858999606169334e-08,-0.27971981727874684
942,0.9319,484.604,484.555,0.00736033,484.569,-0.000224586,-0.000297462,0.165134,0.165134,-0.328374,0.986693,2.62489e-09,-3.04584e-08,0.65389,0.17955116797836235,1.6823492597458163,2.624890083069431e-09,0.17955116797836235,-3.045839958026875e-08,-0.2799063456895998
943,0.9329,484.676,484.627,0.00734672,484.641,-0.000224631,-0.000297405,0.165264,0.165264,-0.328633,0.98747,2.14055e-09,-3.10573e-08,0.654407,0.17970451959783884,1.6844342550364115,2.1405499595061883e-09,0.17970451959783884,-3.105729950991787e-08,-0.28009282579584993
944,0.9339,484.748,484.698,0.00733313,484.713,-0.000224677,-0.000297348,0.165393,0.165393,-0.328891,0.988245,1.65641e-09,-3.16559e-08,0.654923,0.1798567112970204,1.686515497961528,1.656409898131983e-09,0.1798567112970204,-3.1655899457305736e-08,-0.28027853788890444
945,0.9349,484.82,484.77,0.00731958,484.785,-0.000224723,-0.000297291,0.165522,0.165522,-0.32915,0.98902,1.17247e-09,-3.22539e-08,0.65544,0.18000892263019774,1.6885983544750958,1.1724698989468152e-09,0.18000892263019774,-3.2253899440171097e-08,-0.2804649216098575
946,0.9359,484.891,484.842,0.00730605,484.857,-0.000224769,-0.000297235,0.165652,0.165652,-0.329408,0.989795,6.88716e-10,-3.28516e-08,0.655956,0.18016233376164714,1.690682825828131,6.887159731405745e-10,0.18016233376164714,-3.28515994407752e-08,-0.28065053771457504
947,0.9369,484.963,484.913,0.00729256,484.928,-0.000224815,-0.000297179,0.165781,0.165781,-0.329666,0.99057,2.05158e-10,-3.34488e-08,0.656472,0.18031458452266524,1.6927689132726194,2.0515789067587775e-10,0.18031458452266524,-3.344879939692902e-08,-0.28083610593651476
948,0.9379,485.034,484.985,0.00727909,485.0,-0.000224861,-0.000297123,0.16591,0.16591,-0.329924,0.991344,-2.78207e-10,-3.40456e-08,0.656987,0.18046685492529857,1.6948539232062467,-2.7820701298253425e-10,0.18046685492529857,-3.4045599450749364e-08,-0.2810216262880286
949,0.9389,485.106,485.056,0.00726566,485.071,-0.000224907,-0.000297067,0.166039,0.166039,-0.330182,0.992118,-7.61378e-10,-3.46419e-08,0.657503,0.18061914497208065,1.696940547562264,-7.613779606785442e-10,0.18061914497208065,-3.4641899349097116e-08,-0.2812070987814659
950,0.9399,485.177,485.127,0.00725226,485.142,-0.000224953,-0.000297011,0.166168,0.166168,-0.330439,0.992891,-1.24436e-09,-3.52379e-08,0.658018,0.18077145466554612,1.6990260885632784,-1.244359948415763e-09,0.18077145466554612,-3.523789937620592e-08,-0.2813918048213363
951,0.9409,485.248,485.199,0.00723888,485.213,-0.000224999,-0.000296956,0.166297,0.166297,-0.330697,0.993664,-1.72714e-09,-3.58334e-08,0.658532,0.1809237840082294,1.7011132423107336,-1.7271399865848025e-09,0.1809237840082294,-3.5833399358864426e-08,-0.2815771818210312
952,0.9419,485.32,485.27,0.00722554,485.285,-0.000225045,-0.000296901,0.166426,0.166426,-0.330955,0.994436,-2.20974e-09,-3.64284e-08,0.659047,0.18107613300266534,1.703199306851105,-2.2097399465792478e-09,0.18107613300266534,-3.6428399297072644e-08,-0.28176251099962923
953,0.9429,485.391,485.341,0.00721222,485.356,-0.000225091,-0.000296846,0.166555,0.166555,-0.331212,0.995208,-2.69214e-09,-3.70231e-08,0.659561,0.18122850165138926,1.705286982455092,-2.692139955406958e-09,0.18122850165138926,-3.702309936404191e-08,-0.28194707431690025
954,0.9439,485.462,485.412,0.00719894,485.427,-0.000225137,-0.000296791,0.166683,0.166683,-0.331469,0.99598,-3.17434e-09,-3.76173e-08,0.660075,0.18137970857663732,1.707376270366916,-3.1743400130679333e-09,0.18137970857663732,-3.7617299275538585e-08,-0.28213159020749323
955,0.9449,485.532,485.483,0.00718568,485.498,-0.000225183,-0.000296736,0.166812,0.166812,-0.331726,0.996751,-3.65636e-09,-3.82111e-08,0.660589,0.18153211638913636,1.7094644623659425,-3.6563599925543144e-09,0.18153211638913636,-3.821109928470179e-08,-0.28231605868359544
956,0.9459,485.603,485.553,0.00717246,485.568,-0.000225229,-0.000296682,0.166941,0.166941,-0.331983,0.997522,-4.13818e-09,-3.88045e-08,0.661102,0.1816845438635113,1.711554264981813,-4.1381800208739605e-09,0.1816845438635113,-3.880449928050922e-08,-0.2825004797573907
957,0.9469,485.674,485.624,0.00715926,485.639,-0.000225275,-0.000296628,0.167069,0.167069,-0.33224,0.998293,-4.61981e-09,-3.93974e-08,0.661615,0.18183580916589848,1.7136456794567922,-4.619809979011791e-09,0.18183580916589848,-3.939739923186636e-08,-0.28268485344105987
958,0.9479,485.745,485.695,0.0071461,485.71,-0.000225321,-0.000296573,0.167198,0.167198,-0.332496,0.999063,-5.10125e-09,-3.999e-08,0.662128,0.18198827581916865,1.7157359912967536,-5.101249977990108e-09,0.18198827581916865,-3.9989999200962245e-08,-0.28286846261560183
959,0.9489,485.815,485.765,0.00713296,485.78,-0.000225367,-0.00029652,0.167326,0.167326,-0.332753,0.999832,-5.5825e-09,-4.05821e-08,0.662641,0.1821395800017347,1.7178251954701094,-5.582500017808911e-09,0.1821395800017347,-4.058209912560784e-08,-0.28305274173982786
960,0.9499,485.886,485.836,0.00711986,485.851,-0.000225413,-0.000296466,0.167454,0.167454,-0.333009,1.0006,-6.06356e-09,-4.11738e-08,0.663153,0.18229090355247535,1.7199132869447222,-6.063559987445899e-09,0.18229090355247535,-4.1173799147919965e-08,-0.28323625674701935
961,0.9509,485.956,485.906,0.00710678,485.921,-0.000225459,-0.000296413,0.167583,0.167583,-0.333266,1.00137,-6.54443e-09,-4.17651e-08,0.663665,0.18244342891670828,1.7220084267009592,-6.544429997923373e-09,0.18244342891670828,-4.176509915687632e-08,-0.28342044136029876
962,0.9519,486.026,485.977,0.00709373,485.992,-0.000225505,-0.000296359,0.167711,0.167711,-0.333522,1.00214,-7.0251e-09,-4.23559e-08,0.664177,0.18259479136259937,1.7241051803360712,-7.02509994621181e-09,0.18259479136259937,-4.235589912138238e-08,-0.28360386224843515
963,0.9529,486.097,486.047,0.00708071,486.062,-0.000225551,-0.000296306,0.167839,0.167839,-0.333778,1.00291,-7.50559e-09,-4.29463e-08,0.664689,0.18274617318412378,1.7262035490932242,-7.505590038370258e-09,0.18274617318412378,-4.294629907253267e-08,-0.283787236186834
964,0.9539,486.167,486.117,0.00706772,486.132,-0.000225597,-0.000296253,0.167967,0.167967,-0.334034,1.00367,-7.98588e-09,-4.35364e-08,0.6652,0.1828975743837613,1.7282762513176144,-7.985879957317366e-09,0.1828975743837613,-4.35363990414217e-08,-0.2839705631875128
965,0.9549,486.237,486.187,0.00705476,486.202,-0.000225643,-0.000296201,0.168095,0.168095,-0.334289,1.00444,-8.46599e-09,-4.4126e-08,0.665711,0.18304899496399285,1.730377833036255,-8.465990020134484e-09,0.18304899496399285,-4.412599907688275e-08,-0.28415312741597165
966,0.9559,486.307,486.257,0.00704182,486.272,-0.000225689,-0.000296148,0.168223,0.168223,-0.334545,1.00521,-8.9459e-09,-4.47152e-08,0.666222,0.1832004349272991,1.7324810335959926,-8.945900020762565e-09,0.1832004349272991,-4.471519898796572e-08,-0.2843363607604843
967,0.9569,486.377,486.327,0.00702892,486.342,-0.000225735,-0.000296096,0.168351,0.168351,-0.334801,1.00598,-9.42562e-09,-4.53039e-08,0.666732,0.1833518942761614,1.7345858542438157,-9.42561995120883e-09,0.1833518942761614,-4.5303898965620704e-08,-0.28451954720326456
968,0.9579,486.447,486.397,0.00701604,486.412,-0.000225782,-0.000296044,0.168479,0.168479,-0.335056,1.00674,-9.90516e-09,-4.58923e-08,0.667243,0.18350337301306108,1.736664929441543,-9.905160025525106e-09,0.18350337301306108,-4.589229896101443e-08,-0.2847019714586466
969,0.9589,486.517,486.467,0.0070032,486.482,-0.000225828,-0.000295992,0.168606,0.168606,-0.335311,1.00751,-1.03845e-08,-4.64802e-08,0.667753,0.1836536874862007,1.7387729729298007,-1.0384500037652344e-08,0.1836536874862007,-4.648019891195787e-08,-0.2848843492017742
970,0.9599,486.586,486.536,0.00699038,486.552,-0.000225874,-0.00029594,0.168734,0.168734,-0.335566,1.00827,-1.08637e-08,-4.70678e-08,0.668262,0.18380520485510377,1.7408552315472763,-1.0863700050656178e-08,0.18380520485510377,-4.7067798880640055e-08,-0.2850666804445062
971,0.9609,486.656,486.606,0.00697759,486.621,-0.00022592,-0.000295889,0.168862,0.168862,-0.335821,1.00904,-1.13426e-08,-4.76549e-08,0.668772,0.18395674161947118,1.7429665028106895,-1.1342599970376455e-08,0.18395674161947118,-4.765489891589425e-08,-0.285248965198699
972,0.9619,486.725,486.676,0.00696482,486.691,-0.000225966,-0.000295837,0.168989,0.168989,-0.336076,1.0098,-1.18214e-08,-4.82416e-08,0.669281,0.18410711367408017,1.745051949722273,-1.1821399970024515e-08,0.18410711367408017,-4.824159882677037e-08,-0.28543120347620543
973,0.9629,486.795,486.745,0.00695209,486.76,-0.000226012,-0.000295786,0.169117,0.169117,-0.336331,1.01057,-1.23e-08,-4.88279e-08,0.66979,0.18425868908524978,1.7471664537031173,-1.2300000018505841e-08,0.18425868908524978,-4.882789883531302e-08,-0.28561339528887564
974,0.9639,486.864,486.814,0.00693939,486.83,-0.000226058,-0.000295735,0.169244,0.169244,-0.336585,1.01133,-1.27784e-08,-4.94138e-08,0.670299,0.18440909948962214,1.749255093790632,-1.277840000479813e-08,0.18440909948962214,-4.94137988304999e-08,-0.2857948264437402
975,0.9649,486.934,486.884,0.00692671,486.899,-0.000226104,-0.000295684,0.169372,0.169372,-0.33684,1.01209,-1.32566e-08,-4.99993e-08,0.670807,0.1845607135574503,1.7513453218479649,-1.3256600039923683e-08,0.1845607135574503,-4.99992987013087e-08,-0.2859769255443749
976,0.9659,487.003,486.953,0.00691406,486.968,-0.00022615,-0.000295634,0.169499,0.169499,-0.337094,1.01286,-1.37346e-08,-5.05843e-08,0.671316,0.18471116232136642,1.7534646735914956,-1.3734600012860199e-08,0.18471116232136642,-5.058429874971182e-08,-0.2861582643742804
977,0.9669,487.072,487.022,0.00690144,487.037,-0.000226196,-0.000295583,0.169626,0.169626,-0.337348,1.01362,-1.42125e-08,-5.1169e-08,0.671824,0.18486163019348867,1.7555581021455118,-1.4212499954702196e-08,0.18486163019348867,-5.116899870483138e-08,-0.28633955714997206
978,0.9679,487.141,487.091,0.00688884,487.106,-0.000226242,-0.000295533,0.169753,0.169753,-0.337602,1.01438,-1.46901e-08,-5.17533e-08,0.672331,0.18501211717624444,1.7576531223099647,-1.4690100025305242e-08,0.18501211717624444,-5.175329864659517e-08,-0.2865208038831464
979,0.9689,487.21,487.16,0.00687628,487.175,-0.000226288,-0.000295483,0.16988,0.16988,-0.337856,1.01514,-1.51676e-08,-5.23371e-08,0.672839,0.18516262327206068,1.7597497352949372,-1.5167599842769164e-08,0.18516262327206068,-5.233709865493097e-08,-0.28670200458549666
980,0.9699,487.279,487.229,0.00686374,487.244,-0.000226334,-0.000295433,0.170007,0.170007,-0.33811,1.01591,-1.56448e-08,-5.29206e-08,0.673346,0.18531314848336478,1.7618755609289503,-1.5644799900016437e-08,0.18531314848336478,-5.292059856998321e-08,-0.28688315926871333
981,0.9709,487.348,487.298,0.00685123,487.313,-0.00022638,-0.000295384,0.170134,0.170134,-0.338364,1.01667,-1.61219e-08,-5.35036e-08,0.673853,0.1854636928125848,1.7639753841870225,-1.612189981514689e-08,0.1854636928125848,-5.350359855160747e-08,-0.2870642679444835
982,0.9719,487.417,487.367,0.00683875,487.382,-0.000226426,-0.000295334,0.170261,0.170261,-0.338617,1.01743,-1.65988e-08,-5.40863e-08,0.674359,0.18561425626214856,1.7660768039173544,-1.659879989013291e-08,0.18561425626214856,-5.408629855097047e-08,-0.287244617869466
983,0.9729,487.485,487.435,0.00682629,487.451,-0.000226472,-0.000295285,0.170388,0.170388,-0.338871,1.01819,-1.70755e-08,-5.46685e-08,0.674866,0.1857648388344848,1.768179821333724,-1.707549990292989e-08,0.1857648388344848,-5.466849850588318e-08,-0.2874256347464106
984,0.9739,487.554,487.504,0.00681387,487.519,-0.000226519,-0.000295236,0.170515,0.170515,-0.339124,1.01895,-1.7552e-08,-5.52503e-08,0.675372,0.18591544053202225,1.7702844376508362,-1.7551999853537836e-08,0.18591544053202225,-5.5250298447440116e-08,-0.2876058932571566
985,0.9749,487.622,487.573,0.00680147,487.588,-0.000226565,-0.000295187,0.170642,0.170642,-0.339377,1.01971,-1.80284e-08,-5.58318e-08,0.675878,0.18606606135718962,1.7723906540843162,-1.8028399884073565e-08,0.18606606135718962,-5.58317984067358e-08,-0.28778610616826805
986,0.9759,487.691,487.641,0.00678909,487.656,-0.000226611,-0.000295138,0.170768,0.170768,-0.33963,1.02047,-1.85045e-08,-5.64128e-08,0.676383,0.18621551509630851,1.7744984718507153,-1.8504499821325737e-08,0.18621551509630851,-5.6412798432603495e-08,-0.2879662734912801
987,0.9769,487.759,487.709,0.00677675,487.725,-0.000226657,-0.000295089,0.170895,0.170895,-0.339883,1.02123,-1.89805e-08,-5.69934e-08,0.676889,0.18636617403336575,1.776607892167509,-1.8980499838505693e-08,0.18636617403336575,-5.6993398334093115e-08,-0.2881463952377251
988,0.9779,487.828,487.778,0.00676443,487.793,-0.000226703,-0.000295041,0.171021,0.171021,-0.340136,1.02198,-1.94563e-08,-5.75737e-08,0.677394,0.1865156655890643,1.7786911292028713,-1.9456299793496612e-08,0.1865156655890643,-5.7573698364343784e-08,-0.2883264714191325
989,0.9789,487.896,487.846,0.00675214,487.861,-0.000226749,-0.000294992,0.171148,0.171148,-0.340388,1.02274,-1.99318e-08,-5.81535e-08,0.677899,0.1866663626476548,1.7808037371503982,-1.9931799766226277e-08,0.1866663626476548,-5.815349835014416e-08,-0.28850579055317505
990,0.9799,487.964,487.914,0.00673987,487.93,-0.000226795,-0.000294944,0.171274,0.171274,-0.340641,1.0235,-2.04073e-08,-5.8733e-08,0.678403,0.18681589202950155,1.782917951290242,-2.0407299738955942e-08,0.18681589202950155,-5.873299824266098e-08,-0.28868577581906885
991,0.9809,488.032,487.982,0.00672764,487.998,-0.000226841,-0.000294896,0.1714,0.1714,-0.340893,1.02426,-2.08825e-08,-5.9312e-08,0.678908,0.18696544025323747,1.7850337728435708,-2.0882499729424353e-08,0.18696544025323747,-5.9311998201749816e-08,-0.2888650044198102
992,0.9819,488.1,488.05,0.00671542,488.066,-0.000226887,-0.000294849,0.171527,0.171527,-0.341146,1.02501,-2.13575e-08,-5.98906e-08,0.679412,0.1871161944368378,1.7871233316598114,-2.135749976872603e-08,0.1871161944368378,-5.989059825850518e-08,-0.2890448988160913
993,0.9829,488.168,488.118,0.00670324,488.134,-0.000226933,-0.000294801,0.171653,0.171653,-0.341398,1.02577,-2.18323e-08,-6.04689e-08,0.679916,0.1872657805010609,1.7892423505170436,-2.1832299745838668e-08,0.1872657805010609,-6.046889822197699e-08,-0.28922403692923937
994,0.9839,488.236,488.186,0.00669108,488.202,-0.000226979,-0.000294754,0.171779,0.171779,-0.34165,1.02653,-2.2307e-08,-6.10468e-08,0.680419,0.18741538541431568,1.7913629804407343,-2.230699980287909e-08,0.18741538541431568,-6.104679817209302e-08,-0.2894031299052705
995,0.9849,488.304,488.254,0.00667895,488.269,-0.000227025,-0.000294706,0.171905,0.171905,-0.341902,1.02728,-2.27815e-08,-6.16242e-08,0.680923,0.18756500917897712,1.7934572879432076,-2.2781499686708173e-08,0.18756500917897712,-6.162419807775876e-08,-0.2895821777555577
996,0.9859,488.371,488.321,0.00666685,488.337,-0.000227071,-0.000294659,0.172031,0.172031,-0.342153,1.02804,-2.32558e-08,-6.22013e-08,0.681426,0.18771465179742064,1.795581122436925,-2.3255799730392823e-08,0.18771465179742064,-6.220129811218555e-08,-0.2897604702522967
997,0.9869,488.439,488.389,0.00665477,488.405,-0.000227117,-0.000294612,0.172157,0.172157,-0.342405,1.02879,-2.37299e-08,-6.2778e-08,0.681929,0.1878643132720219,1.7976785947325449,-2.3729899711888436e-08,0.1878643132720219,-6.277799802223427e-08,-0.28993942806416184
998,0.9879,488.507,488.457,0.00664272,488.472,-0.000227163,-0.000294566,0.172283,0.172283,-0.342657,1.02955,-2.42038e-08,-6.33542e-08,0.682431,0.18801399360515725,1.7998056386388437,-2.4203799742217313e-08,0.18801399360515725,-6.3354197998855e-08,-0.29011834078434007
999,0.9889,488.574,488.524,0.0066307,488.54,-0.000227209,-0.000294519,0.172409,0.172409,-0.342908,1.0303,-2.46775e-08,-6.39301e-08,0.682934,0.18816369279920253,1.8019062805100572,-2.4677499710357154e-08,0.18816369279920253,-6.393009799321447e-08,-0.2902964987210468
