,Time,S11,S22,S33,S12,S13,S23,LE11,LE22,LE33,LE12,LE13,LE23,SDV_EPBAR,E11,E12,E13,E22,E23,E33
0,1e-05,0.521016,1.56305,-3.33067e-16,0.902427,-7.34989e-18,4.24346e-18,2.50015e-07,6.74997e-06,-3.00001e-06,1.12583e-05,-1.83389e-22,1.0588e-22,0.0,2.500150313444749e-07,1.1258363374899716e-05,0.0,6.749992781163172e-06,0.0,-3.0000055000201087e-06
1,2e-05,1.04203,3.12608,3.33067e-16,1.80484,1.07607e-17,5.25857e-17,5.00016e-07,1.34999e-05,-5.99997e-06,2.25164e-05,-7.33567e-22,4.23506e-22,0.0,5.000161249490986e-07,2.2516653495952e-05,0.0,1.3499991124099608e-05,0.0,-5.999952000235176e-06
2,3.5e-05,1.82353,5.4706,-7.77156e-16,3.15845,-2.54606e-17,-4.40991e-17,8.74997e-07,2.36246e-05,-1.04998e-05,3.94035e-05,-4.23507e-22,-7.33535e-22,0.0,8.749973827715252e-07,3.940427632809218e-05,0.0,2.3624879063044446e-05,0.0,-1.0499744877323636e-05
3,5.75e-05,2.99577,8.98732,-4.10783e-15,5.18883,9.2746e-17,2.485e-17,1.43746e-06,3.88114e-05,-1.72495e-05,6.47335e-05,4.23492e-22,7.3351e-22,0.0,1.4374610330936122e-06,6.473559525832506e-05,0.0,3.8812153172029795e-05,0.0,-1.7249351228265652e-05
4,9.125e-05,4.75408,14.2622,-2.89768e-14,8.23431,-4.18269e-17,6.33446e-17,2.2812e-06,6.1591e-05,-2.73738e-05,0.000102728,-2.93431e-21,1.69407e-21,0.0,2.2812026019281006e-06,0.00010273327670162757,0.0,6.159289676466173e-05,0.0,-2.737342534098186e-05
5,0.00014188,7.39143,22.1743,-1.55986e-13,12.8023,1.24253e-17,-4.63742e-17,3.54667e-06,9.57588e-05,-4.25595e-05,0.000159716,2.93438e-21,-1.69407e-21,0.0,3.546676289545303e-06,0.00015972875527947572,0.0,9.576338502026438e-05,0.0,-4.255859435731146e-05
6,0.00021781,11.3472,34.0416,-8.00804e-13,19.6539,2.31858e-16,6.21133e-17,5.44479e-06,0.000147007,-6.53367e-05,0.000245194,-2.99771e-25,-5.19218e-25,0.0,5.444804822785088e-06,0.00024522406250571116,0.0,0.00014701780605852477,0.0,-6.533456560431361e-05
7,0.00033172,17.2803,51.8409,-4.05509e-12,29.9304,2.81559e-16,-1.23385e-16,8.29165e-06,0.000223873,-9.94992e-05,0.000373398,1.51264e-20,-9.08104e-22,0.0,8.29168437577188e-06,0.00037346772171087395,0.0,0.00022389806143019442,0.0,-9.949425011879232e-05
8,0.00050258,26.1787,78.5361,-2.0513e-11,45.3428,-2.74881e-16,-2.72422e-16,1.25613e-05,0.000339155,-0.000150736,0.000565677,1.5215e-24,2.63531e-24,0.0,1.256137889349418e-05,0.0005658370254069123,0.0,0.0003392125195595952,0.0,-0.00015072463989995732
9,0.00075887,39.5234,118.57,-1.0376e-10,68.4566,1.1095e-15,4.95905e-16,1.89646e-05,0.000512041,-0.000227574,0.000854034,1.85113e-20,4.95121e-21,0.0,1.896477982921141e-05,0.00085439879087712,0.0,0.0005121721153706904,0.0,-0.0002275481070015406
10,0.0011433,59.5341,178.602,-5.24721e-10,103.116,-3.50563e-18,1.97614e-16,2.85663e-05,0.000771287,-0.000342794,0.00128643,2.34802e-20,-1.35599e-20,0.0,2.8566708020649756e-05,0.0012872578060059148,0.0,0.0007715845183038361,0.0,-0.00034273525284966855
11,0.00172,89.5357,268.607,-2.65265e-09,155.08,-2.30125e-15,-1.60954e-15,4.2962e-05,0.00115997,-0.000515542,0.00193471,3.54803e-23,6.14538e-23,0.0,4.2962922879974386e-05,0.001936582758945704,0.0,0.0011606430254049727,0.0,-0.0005154091310572984
12,0.0025849,98.6294,292.826,-0.527977,170.401,0.156086,-0.0207782,-2.31539e-05,0.00172299,-0.000945761,0.002991,-8.17662e-07,3.30315e-06,0.000745056,-2.3153631950489917e-05,0.002995477503457966,-8.176616657085134e-07,0.0017244752001426278,3.303155455380846e-06,-0.0009453139090236373
13,0.0032337,102.458,301.126,0.278036,175.416,0.196688,0.200921,-8.28308e-05,0.00214348,-0.00127971,0.00379098,-6.19009e-07,9.01222e-06,0.00137673,-8.28273696239501e-05,0.0037981748536559667,-6.190088084334633e-07,0.0021457788955072665,9.012260610230527e-06,-0.0012788915203340023
14,0.0038824,105.271,308.169,0.321886,179.846,0.241828,0.264216,-0.00014485,0.00256362,-0.00161717,0.00459194,3.11212e-07,1.28209e-05,0.00201464,-0.00014483950974530924,0.004602499112565717,3.112120483539371e-07,0.0025669088836342002,1.2820982188133101e-05,-0.0016158630851915712
15,0.0045311,107.119,314.155,-0.360098,183.76,0.299796,0.196639,-0.000209385,0.0029841,-0.001958,0.00539281,2.05992e-06,1.43094e-05,0.00265774,-0.00020936308049079866,0.005407377374436528,2.0599221215444885e-06,0.002988556858539493,1.4309502379905581e-05,-0.0019560843684728324
16,0.0055042,110.332,322.511,-0.674708,189.251,0.386067,0.235783,-0.000301249,0.00361512,-0.00247301,0.00658895,4.13878e-06,2.02312e-05,0.00362708,-0.00030120362907604115,0.006610704885421814,4.138788564755913e-06,0.003621662427818695,2.0231404652015783e-05,-0.0024699546299424835
17,0.006234,112.966,328.659,-0.351299,193.017,0.416013,0.327976,-0.000371004,0.00408554,-0.00285501,0.00749006,6.77886e-06,2.46917e-05,0.00435661,-0.0003709351865263111,0.007518180664044749,6.778882976510303e-06,0.004093897195889262,2.469200484256362e-05,-0.0028509383347533612
18,0.0069639,115.696,334.281,0.0575322,196.628,0.359903,0.412946,-0.000439025,0.00455342,-0.00323701,0.00839335,8.00626e-06,2.94689e-05,0.00508842,-0.0004389286426262906,0.008428672918822766,8.006292050222186e-06,0.004563802569599984,2.9469334212217646e-05,-0.0032317765315827973
19,0.0079639,119.076,341.626,0.694567,201.122,0.406912,0.534933,-0.000531272,0.0051966,-0.00376447,0.00962487,1.10341e-05,3.8186e-05,0.00609435,-0.0005311309000195497,0.009671338024504816,1.1034160875889043e-05,0.005210125744925742,3.8186729094613625e-05,-0.0037573932656459474
20,0.0087139,120.645,346.208,0.329781,204.126,0.410158,0.490158,-0.000603798,0.00567687,-0.00416027,0.0105526,1.35994e-05,4.17059e-05,0.00685219,-0.0006036157506700279,0.010608475052783062,1.3599492472149421e-05,0.005693013961097115,4.170676970316478e-05,-0.004151628065177992
21,0.0094639,122.113,350.573,0.00139005,206.94,0.432744,0.451061,-0.000676497,0.00615674,-0.00455613,0.0114799,1.66241e-05,4.49101e-05,0.00761136,-0.0006762682274953358,0.011546046929716614,1.66242381811621e-05,0.006175731679319174,4.4911108473710826e-05,-0.004545766584707955
22,0.010464,124.749,356.381,0.283942,210.638,0.504593,0.475017,-0.000768909,0.00679625,-0.00508529,0.0127122,2.15648e-05,5.09833e-05,0.00862412,-0.0007686134652261645,0.01279334348728045,2.156503252193076e-05,0.006819396914726106,5.098459967056712e-05,-0.005072381802719406
23,0.011464,126.128,361.149,-0.430675,213.938,0.452017,0.39256,-0.000864516,0.00743575,-0.00561769,0.0139441,2.44739e-05,5.47514e-05,0.00964034,-0.0008641424137076914,0.014041772419040699,2.447419948836682e-05,0.007463463837501738,5.475289888523527e-05,-0.005601940285670959
24,0.012464,127.99,366.082,-0.603173,217.061,0.46302,0.393194,-0.000958422,0.00807415,-0.00614851,0.0151747,2.83637e-05,5.9372e-05,0.0106568,-0.0009579628603298973,0.015290420359680423,2.8364102253597423e-05,0.008106833854674367,5.9373762552050735e-05,-0.006129646592806459
25,0.013214,129.656,369.856,-0.326144,219.348,0.455439,0.435012,-0.00102895,0.00854991,-0.00654226,0.0161015,3.12338e-05,6.30819e-05,0.011419,-0.0010284208124667904,0.016231827702046564,3.123428778017967e-05,0.008586564871314595,6.308388970488465e-05,-0.0065209060102077165
26,0.013964,131.591,373.483,0.134025,221.646,0.384057,0.497949,-0.0010976,0.00902358,-0.00693525,0.0170295,3.27774e-05,6.7399e-05,0.0121814,-0.0010969978574439931,0.017175328554839053,3.277793718492461e-05,0.009064415232252987,6.740127136373175e-05,-0.00691125665238157
27,0.014964,132.72,377.495,-0.431684,224.298,0.426134,0.411108,-0.00119218,0.00965914,-0.00746666,0.0182598,3.6765e-05,7.07409e-05,0.0132006,-0.001191469635745901,0.018427529495020245,3.676567584087742e-05,0.009705940054161255,7.074340219648256e-05,-0.007438853743882756
28,0.015964,134.285,381.561,-0.530498,226.917,0.426651,0.399353,-0.00128503,0.0102929,-0.00799626,0.0194899,4.02557e-05,7.48018e-05,0.0142194,-0.0012842047024981262,0.019681068029862248,4.0256510271508006e-05,0.010346054108646419,7.480459772435388e-05,-0.00796437495663982
29,0.016964,136.913,386.088,0.443676,229.622,0.363694,0.535897,-0.00137389,0.0109235,-0.00852168,0.020721,4.23333e-05,8.17687e-05,0.0152367,-0.001372946645205264,0.020937170427898444,4.233419606669564e-05,0.010983379257867076,8.17720431511848e-05,-0.00848547340498862
30,0.017964,138.463,389.907,0.490359,232.025,0.348159,0.519199,-0.00146542,0.0115542,-0.00904985,0.0219512,4.4862e-05,8.65936e-05,0.0162558,-0.0014643467964071677,0.02219390019094236,4.486300631456608e-05,0.011621207593187632,8.659734933402774e-05,-0.009009023358639845
31,0.018964,138.998,393.039,-0.356518,234.151,0.385247,0.38297,-0.00155989,0.0121857,-0.00958087,0.0231794,4.8419e-05,8.87082e-05,0.0172767,-0.0015586740039494895,0.02345013003198626,4.8420172218621715e-05,0.012260248141598762,8.871213468863992e-05,-0.009535119690856297
32,0.019964,140.278,396.454,-0.460086,236.343,0.378477,0.354284,-0.00165189,0.0128153,-0.010109,0.0244074,5.13598e-05,9.18507e-05,0.0182961,-0.0016505263806669834,0.024707698780844556,5.1361118936998906e-05,0.012897767863978116,9.185491840479898e-05,-0.010058075801533284
33,0.020964,141.613,399.799,-0.465963,238.47,0.366805,0.347692,-0.00174336,0.0134437,-0.0106365,0.0256348,5.41248e-05,9.51527e-05,0.0193154,-0.001741841230670671,0.02596619719280846,5.412626477352411e-05,0.01353447285305931,9.515722716169073e-05,-0.010580132461998293
34,0.021964,143.881,403.577,0.447562,240.7,0.299967,0.470665,-0.00183136,0.0140694,-0.0111602,0.0268629,5.5564e-05,0.000101002,0.0203328,-0.0018296840835001493,0.02722696029270244,5.556554370755862e-05,0.014168839813730738,0.00010100710087379561,-0.011098155990327596
35,0.022964,144.097,406.171,-0.483457,242.477,0.342795,0.310961,-0.00192547,0.0146973,-0.0116899,0.0280883,5.87761e-05,0.000101997,0.0213534,-0.0019236174718261223,0.028486495769621367,5.877782734886594e-05,0.014805836392397298,0.00010200220187095432,-0.011621838587518973
36,0.023964,146.332,409.758,0.475353,244.582,0.270187,0.440979,-0.00201294,0.015321,-0.0122127,0.029315,5.98652e-05,0.000107581,0.0223702,-0.0020109153949755543,0.029748914300081086,5.986699195692502e-05,0.015438968214189774,0.00010758678704325675,-0.012138427642160332
37,0.024964,146.435,412.152,-0.474903,246.22,0.317905,0.278455,-0.00210687,0.0159473,-0.0127416,0.0305387,6.28966e-05,0.000108197,0.0233902,-0.002104652107278837,0.031009789355572304,6.28985780326552e-05,0.01607513683539108,0.00010820285350643388,-0.012660769482304324
38,0.025964,147.532,414.981,-0.494226,248.005,0.308271,0.269468,-0.00219762,0.0165713,-0.0132669,0.0317623,6.51165e-05,0.000110615,0.0244081,-0.0021952070011096447,0.03227210506108191,6.51186201252596e-05,0.01670936557956515,0.00011062111806459107,-0.013179282580706775
39,0.026964,148.605,417.723,-0.509694,249.74,0.295517,0.260949,-0.00228815,0.0171945,-0.0137918,0.0329851,6.71763e-05,0.000112939,0.0254256,-0.002285534180298421,0.03353513945299946,6.717855637816683e-05,0.017343176331111376,0.00011294537784900527,-0.01369712885463581
40,0.027964,149.662,420.406,-0.504086,251.426,0.282921,0.253991,-0.00237847,0.0178167,-0.0143161,0.0342071,6.91193e-05,0.000115198,0.0264427,-0.002375643681444939,0.03479889138858194,6.912168879380509e-05,0.017976364219749463,0.00011520463554437477,-0.014214111911026284
41,0.028964,150.704,423.031,-0.480394,253.064,0.270377,0.249043,-0.0024686,0.0184382,-0.0148399,0.0354282,7.09462e-05,0.000117414,0.0274592,-0.0024655555127424122,0.036063256115634434,7.094871674118153e-05,0.01860923317376839,0.00011742089329347394,-0.014730331349533499
42,0.029964,152.768,426.187,0.526679,254.848,0.205263,0.392567,-0.00255516,0.019057,-0.0153598,0.0366498,7.15387e-05,0.000122536,0.0284735,-0.0025518983572849763,0.037329684366189,7.154125895381114e-05,0.01923974362707126,0.00012254350784224322,-0.015242439916107964
43,0.030964,153.655,428.64,0.469097,256.377,0.184682,0.346163,-0.00264488,0.0196763,-0.0158827,0.03787,7.25051e-05,0.000124912,0.0294891,-0.0026413853865161485,0.038596206595122196,7.250772855837972e-05,0.019871154296432714,0.00012491980182871565,-0.015757235039361106
44,0.031964,153.781,430.708,-0.221711,257.71,0.237675,0.230748,-0.00273727,0.0202967,-0.0164074,0.0390878,7.48504e-05,0.000125539,0.0305054,-0.002733527092368626,0.039861779506451755,7.48532013610248e-05,0.020504078673399206,0.00012554688035004702,-0.016273531755847226
45,0.032964,155.433,433.421,0.432455,259.33,0.165666,0.305501,-0.00282437,0.0209134,-0.016927,0.0403067,7.50099e-05,0.000129063,0.0315186,-0.0028203852194326196,0.041130039813713326,7.501271331289416e-05,0.021133617637104418,0.00012907132898720697,-0.016784543256461948
46,0.033964,156.305,435.748,0.437726,260.752,0.155139,0.2838,-0.00291373,0.0215306,-0.0174483,0.0415239,7.58462e-05,0.000131203,0.0325324,-0.0029094892085838042,0.042398074867751046,7.584907639568428e-05,0.021764055839126106,0.0001312116074900782,-0.017296959901059616
47,0.034964,156.38,437.656,-0.237781,261.982,0.209605,0.17486,-0.00300582,0.0221487,-0.0179715,0.0427389,7.79572e-05,0.000131437,0.0335468,-0.003001307045905399,0.043665358247468866,7.796023874151459e-05,0.0223958034235181,0.00013144563822087285,-0.01781097565339318
48,0.035964,156.971,439.7,-0.482295,263.306,0.206598,0.124205,-0.00309613,0.0227653,-0.0184929,0.0439533,7.93213e-05,0.000132012,0.0345598,-0.0030913419322796676,0.04493355535194854,7.932444601754796e-05,0.023026407071034205,0.0001320207139674512,-0.01832295552593588
49,0.036964,158.851,442.401,0.472866,264.846,0.131869,0.262217,-0.00318202,0.0233788,-0.0190095,0.0451684,7.91621e-05,0.000135919,0.0355701,-0.0031769627398828826,0.04620402583308003,7.916523340179005e-05,0.02365422633563985,0.0001359282374058246,-0.01882995891685968
50,0.037964,158.627,444.011,-0.438381,265.944,0.190033,0.109053,-0.00327452,0.0239952,-0.0195321,0.0463803,8.11447e-05,0.000135081,0.036583,-0.003269164606427344,0.04747268908320956,8.114799232017411e-05,0.02428540130889556,0.0001350901238490465,-0.01934258441961889
51,0.038964,160.47,446.61,0.507883,267.429,0.112184,0.245376,-0.00336019,0.0246072,-0.0200478,0.0475935,8.07847e-05,0.00013881,0.0375918,-0.0033545508795223,0.0487442541249965,8.078796317168013e-05,0.024912455833609348,0.00013881963455375512,-0.01984817907004799
52,0.039964,160.165,448.127,-0.433928,268.461,0.177487,0.0886224,-0.0034527,0.0252223,-0.0205695,0.0488034,8.27472e-05,0.000137758,0.0386035,-0.0034467462854561592,0.050013897714070055,8.275062364404562e-05,0.02554307341174611,0.00013776748906901837,-0.020359390913822994
53,0.040964,161.96,450.633,0.495312,269.892,0.100095,0.223628,-0.00353826,0.025833,-0.0210843,0.0500146,8.22962e-05,0.000141285,0.039611,-0.0035320077343071743,0.05128644504607616,8.229958642513857e-05,0.026169563846061727,0.00014129498119563877,-0.02086358010994649
54,0.041964,162.685,452.607,0.503489,271.082,0.0924855,0.205742,-0.00362693,0.0264445,-0.0216016,0.051224,8.26537e-05,0.000142766,0.0406195,-0.0036203606339976213,0.0525586400139475,8.265711591115554e-05,0.026797258432413873,0.0001427761915504533,-0.021369956394437506
55,0.042964,162.481,454.12,-0.283937,272.061,0.163278,0.0829227,-0.00371887,0.0270574,-0.0221213,0.0524308,8.45628e-05,0.000142069,0.0416287,-0.0037119635669896622,0.05382963454456324,8.456637553444502e-05,0.02742677536786564,0.0001420790922783688,-0.02187841829283088
56,0.043964,162.995,455.864,-0.478358,273.186,0.159168,0.0446872,-0.00380839,0.0276685,-0.0226385,0.0536374,8.55016e-05,0.000142154,0.0426361,-0.0038011472800885127,0.05510195281685615,8.550525536588083e-05,0.028054827752153733,0.00014216410435863303,-0.022384171975713518
57,0.044964,163.673,457.671,-0.509246,274.323,0.151861,0.0426487,-0.00389728,0.0282786,-0.0231547,0.0548431,8.63404e-05,0.000142669,0.0436425,-0.0038896954605246448,0.056374856457124034,8.634412743968589e-05,0.028682235373798992,0.00014267917770571792,-0.022888687039598787
58,0.045964,165.498,460.111,0.545493,275.647,0.0870543,0.208115,-0.00398232,0.028886,-0.0236666,0.056049,8.59488e-05,0.000146401,0.0446461,-0.003974401079088752,0.05764950729278118,8.595249370402236e-05,0.029307246760307493,0.00014641171714946388,-0.02338874232063448
59,0.046964,166.124,461.861,0.501917,276.733,0.0662153,0.173134,-0.00407063,0.0294942,-0.0241816,0.0572535,8.59389e-05,0.000147382,0.0456511,-0.004062356216013252,0.05892421366211198,8.594259285299444e-05,0.029933461840489617,0.0001473928612605313,-0.023891567629708677
60,0.047964,165.885,463.247,-0.245301,277.608,0.140951,0.0571499,-0.00416215,0.0301038,-0.0246987,0.0584552,8.77104e-05,0.000146556,0.0466565,-0.004153500258357368,0.060197487783199444,8.771424666953465e-05,0.03056150068561858,0.00014656673985524726,-0.024396182820585643
61,0.048964,167.445,465.37,0.53649,278.857,0.0538168,0.161702,-0.00424739,0.0307092,-0.02521,0.0596585,8.67817e-05,0.000149179,0.0476584,-0.0042383825962586386,0.06147399127455033,8.678546564055978e-05,0.031185591511365462,0.00014919012774039508,-0.02489488154911501
62,0.049964,167.926,467.017,0.418468,279.856,0.0578595,0.12819,-0.004336,0.0313158,-0.0257238,0.0608595,8.70219e-05,0.000149846,0.0486612,-0.00432661312406557,0.06274958738020575,8.70256865153074e-05,0.031811298448903846,0.00014985722747273833,-0.02539576187180126
63,0.050964,167.892,468.43,-0.120289,280.728,0.117287,0.0473912,-0.00442655,0.0319231,-0.0262387,0.0620584,8.84145e-05,0.000149376,0.0496639,-0.004416767267456656,0.06402448194335486,8.841840867712669e-05,0.0324381077618352,0.0001493871571502936,-0.02589745642166741
64,0.051964,168.126,469.84,-0.479358,281.667,0.125735,-0.0145629,-0.00451609,0.0325292,-0.0267525,0.0632567,8.92344e-05,0.000148723,0.0506656,-0.004505907799234432,0.06530026671385203,8.923838150742824e-05,0.033064058174059774,0.00014873405981363774,-0.026397821753696538
65,0.052964,168.657,471.392,-0.559341,282.646,0.124601,-0.0220129,-0.00460467,0.0331343,-0.0272649,0.064454,8.99253e-05,0.000148698,0.0516659,-0.004594084760506267,0.06657651459652225,8.992934340090741e-05,0.033689354399954796,0.00014870905609565277,-0.026896567720200992
66,0.053964,169.374,473.039,-0.451223,283.644,0.114676,0.000276771,-0.00469255,0.0337385,-0.0277762,0.0656504,9.04305e-05,0.000149188,0.0526652,-0.0046815571887427465,0.06785333037748575,9.043458896096368e-05,0.0343140982239869,0.00014919912908317734,-0.027393988328710428
67,0.054964,170.874,475.101,0.388575,284.773,0.060389,0.134265,-0.0047777,0.0343406,-0.0282844,0.0668469,8.9973e-05,0.000151948,0.0536623,-0.004766304945961197,0.06913178156818667,8.997704769164727e-05,0.034937046262214944,0.00015195954468216755,-0.02788814112897997
68,0.055964,170.528,476.193,-0.42597,285.531,0.110655,-0.00685805,-0.00486859,0.034945,-0.0287977,0.0680406,9.11954e-05,0.000150344,0.0546616,-0.004856757625820274,0.07040876619248415,9.11995584269576e-05,0.03556275128198538,0.0001503553022255133,-0.028386998103542838
69,0.056964,171.097,477.712,-0.424847,286.461,0.107874,-0.00338107,-0.00495665,0.0355475,-0.0293079,0.0692339,9.1736e-05,0.000150567,0.0556587,-0.004944386081406238,0.0716868473886656,9.174020787550141e-05,0.036186865835262205,0.00015057833577958313,-0.028882588621218952
70,0.057964,172.619,479.708,0.44232,287.562,0.0444555,0.134255,-0.00504136,0.0361475,-0.0298145,0.0704274,9.1049e-05,0.000153351,0.0566534,-0.00502867367241,0.07296666922278394,9.105314508595086e-05,0.03680876450570758,0.00015336275886568274,-0.029374432107349358
71,0.058964,172.145,480.696,-0.453708,288.258,0.104491,-0.0202402,-0.0051324,0.0367502,-0.0303267,0.0716178,9.23447e-05,0.000151485,0.0576505,-0.005119251738782693,0.07424468927244199,9.234896390308833e-05,0.037433837494899036,0.0001514964744320224,-0.02987145922371337
72,0.059964,172.705,482.158,-0.440341,289.151,0.100573,-0.0143677,-0.00522022,0.0373509,-0.0308353,0.072808,9.28148e-05,0.000151659,0.0586451,-0.005206618329771873,0.07552401647821227,9.281910742675592e-05,0.03805721121263339,0.00015167050080755473,-0.03036474114732568
73,0.060964,174.221,484.098,0.439858,290.219,0.0349022,0.125603,-0.00530467,0.037949,-0.0313404,0.0739985,9.20336e-05,0.000154398,0.0596373,-0.005290625083618772,0.0768051902872231,9.203783522160336e-05,0.038678258936468035,0.0001544099199846105,-0.0308543802478074
74,0.061964,173.735,485.036,-0.444252,290.878,0.0956272,-0.0269547,-0.0053955,0.0385499,-0.0318511,0.0751858,9.32705e-05,0.000152507,0.060632,-0.005380970433046306,0.07808444036618245,9.327484982835088e-05,0.03930258826322297,0.00015251862978371555,-0.031349196553716485
75,0.062964,174.288,486.449,-0.415863,291.739,0.090618,-0.0189378,-0.00548307,0.0391487,-0.0323582,0.0763729,9.36525e-05,0.000152671,0.0616242,-0.005468065407956302,0.07936499432776478,9.365688553231166e-05,0.03992510901718771,0.00015268265481016563,-0.03184027485271801
76,0.063964,175.718,488.3,0.406016,292.759,0.029062,0.112153,-0.00556754,0.0397451,-0.0328621,0.0775601,9.28845e-05,0.000155197,0.0626141,-0.0055520699724885825,0.08064717740230654,9.288881389868386e-05,0.040545505335998655,0.00015520904367738453,-0.03232800764362276
77,0.064964,176.37,489.741,0.537959,293.618,0.00194853,0.110571,-0.00565412,0.0403419,-0.0333677,0.0787461,9.23481e-05,0.00015605,0.0636044,-0.00563816554713914,0.08192958527225347,9.235236421711868e-05,0.04116668823612324,0.00015606217643471254,-0.032817138940146706
78,0.065964,175.768,490.639,-0.376118,294.198,0.0964575,-0.0316139,-0.0057452,0.0409408,-0.0338765,0.0799288,9.40111e-05,0.000154253,0.0645959,-0.005728727898749009,0.08320994038150431,9.401551918197804e-05,0.041790429726453526,0.00015426489760583806,-0.03330911641017209
79,0.066964,177.348,492.445,0.546341,295.237,-0.0046973,0.101139,-0.00582873,0.0415349,-0.0343785,0.0811135,9.25106e-05,0.000156715,0.0655832,-0.005811775909559169,0.08449397964835348,9.251487923744861e-05,0.04240954130963992,0.0001567272804370301,-0.03379427344912889
80,0.067964,176.607,493.221,-0.495821,295.777,0.0899343,-0.0661023,-0.00592004,0.0421327,-0.0348867,0.0822942,9.4126e-05,0.000154387,0.0665732,-0.005902551091896857,0.08577519790848354,9.413042999084631e-05,0.04303288003081529,0.00015439891828616936,-0.03428517445085222
81,0.068964,177.156,494.537,-0.444496,296.585,0.0823243,-0.0514518,-0.00600719,0.042728,-0.0353909,0.083475,9.44139e-05,0.000154422,0.0675604,-0.005989182909532875,0.08705803850220639,9.441835713253077e-05,0.04365398235706275,0.00015443392369074438,-0.03477196513564984
82,0.069964,178.583,496.296,0.401526,297.552,0.0168446,0.0857749,-0.00609122,0.0433208,-0.0358917,0.084656,9.3519e-05,0.000156833,0.0685454,-0.0060727061292158435,0.08834261243727992,9.352337303791813e-05,0.04427284385022756,0.00015684529893800203,-0.03525523031580857
83,0.070964,179.194,497.634,0.527433,298.351,-0.00922643,0.0856574,-0.00617749,0.0439141,-0.0363945,0.0858357,9.29292e-05,0.000157522,0.0695309,-0.0061584485383060494,0.08962728783396567,9.293351805195194e-05,0.04489259475941165,0.00015753440724175505,-0.03574018205892093
84,0.071964,178.584,498.455,-0.358604,298.878,0.0861086,-0.0507055,-0.00626816,0.0445094,-0.0369002,0.0870122,9.45255e-05,0.000155672,0.0705173,-0.006248556066690503,0.09090998873895506,9.45299676757827e-05,0.045514804503427264,0.00015568411751454292,-0.0362276849733526
85,0.072964,180.06,500.13,0.498813,299.847,-0.0108943,0.0738936,-0.00635159,0.0451002,-0.0373996,0.0881905,9.30465e-05,0.00015784,0.0714998,-0.006331461291218421,0.09219616558096311,9.305082895982864e-05,0.04613267715153602,0.00015785245738819675,-0.03670887270489964
86,0.073964,179.413,500.879,-0.429476,300.358,0.0764884,-0.0744194,-0.00644215,0.0456944,-0.0379046,0.089365,9.44743e-05,0.000155694,0.0724847,-0.006421443839612517,0.09347970358758428,9.447876283719125e-05,0.046754473905820104,0.00015570612093984693,-0.037195211913197856
87,0.074964,180.956,502.595,0.5162,301.319,-0.0131911,0.0728048,-0.00652531,0.0462839,-0.0384027,0.0905412,9.3076e-05,0.000158132,0.0734653,-0.006504066396849306,0.09476661109688611,9.308033170518648e-05,0.0473717175828865,0.0001581445035236939,-0.0376746655603003
88,0.075964,180.259,503.294,-0.449441,301.805,0.0766529,-0.0816208,-0.00661589,0.046877,-0.0389068,0.0917136,9.4535e-05,0.000155866,0.0744486,-0.006594053182952031,0.09605086815612096,9.453946857385098e-05,0.047993098000732815,0.00015587814773621034,-0.03815965151041234
89,0.076964,181.824,504.999,0.523833,302.757,-0.0155345,0.0704936,-0.00669883,0.0474654,-0.0394039,0.0928877,9.30938e-05,0.000158344,0.0754276,-0.006676442855434117,0.09733849723515653,9.309813336222383e-05,0.048609918590417855,0.0001583565370728568,-0.0386376635279162
90,0.077964,181.103,505.667,-0.452476,303.225,0.0759477,-0.0856015,-0.00678934,0.0480574,-0.0399071,0.094058,9.45677e-05,0.000156033,0.0764093,-0.006766344502030841,0.09862346423025015,9.457217166586318e-05,0.04923087944850191,0.00015604517378164928,-0.03912129936264774
91,0.078964,182.658,507.343,0.518364,304.16,-0.0167189,0.0664165,-0.00687217,0.0486446,-0.0404032,0.0952301,9.31167e-05,0.00015848,0.0773866,-0.006848610638616637,0.09991191574217484,9.312103549441453e-05,0.049847168745743575,0.0001584925586186614,-0.039597873062153455
92,0.079964,181.945,507.996,-0.44188,304.616,0.0740308,-0.0871089,-0.00696251,0.0492354,-0.0409054,0.0963984,9.45679e-05,0.000156191,0.0783665,-0.006938327882542672,0.10119769377432464,9.457237168475352e-05,0.05046760171088982,0.00015620319844922292,-0.04008006592154034
93,0.080964,183.459,509.632,0.500124,305.531,-0.0166346,0.0605852,-0.00704534,0.0498216,-0.0414007,0.0975683,9.31464e-05,0.000158544,0.0793422,-0.007020579774335012,0.10248673883615744,9.315073826066111e-05,0.05108356634060707,0.0001585565687642898,-0.04055539653954443
94,0.081964,182.783,510.283,-0.419051,305.982,0.0709555,-0.0864181,-0.00713542,0.0504112,-0.0419018,0.0987345,9.45369e-05,0.000156341,0.0803205,-0.0071100233319105755,0.10377320886586028,9.454136875364227e-05,0.051703467940355186,0.00015635322189111456,-0.04103605379160613
95,0.082964,184.229,511.868,0.470657,306.87,-0.0153926,0.0532027,-0.00721833,0.0509964,-0.0423963,0.0999023,9.31814e-05,0.000158545,0.0812946,-0.007192340427373822,0.1050629481513683,9.318574152139547e-05,0.05231910492760705,0.00015855756892269035,-0.041510144234483404
96,0.083964,184.715,513.027,0.55335,307.549,-0.0271699,0.0544987,-0.0073041,0.0515824,-0.042893,0.101068,9.26747e-05,0.000159023,0.0822694,-0.007277489888648514,0.10635187113283306,9.267899443266003e-05,0.052935944639478594,0.00015903564482755428,-0.04198610793047286
97,0.084964,184.024,513.688,-0.338734,307.969,0.0765222,-0.0800494,-0.00739416,0.0521704,-0.0433925,0.102231,9.43039e-05,0.000157015,0.0832451,-0.007366890452141339,0.10763930685772238,9.430834675261401e-05,0.05355525303375108,0.0001570273275002254,-0.04246451637710513
98,0.085964,185.355,515.155,0.437354,308.824,-0.0158937,0.0343449,-0.00747718,0.052754,-0.043886,0.103396,9.28737e-05,0.000158785,0.084217,-0.0074492954322179505,0.10893045860006967,9.287801289570297e-05,0.054170287328972666,0.00015879760700543422,-0.042936943557278284
99,0.086964,185.795,516.26,0.486978,309.478,-0.0246472,0.0326637,-0.00756294,0.0533385,-0.0443814,0.104559,9.24273e-05,0.000159092,0.0851893,-0.007534412930751189,0.11022089496671827,9.243157153449033e-05,0.05478662997050621,0.00015910465580337707,-0.043410955173068366
100,0.087964,185.242,516.966,-0.271288,309.907,0.0701224,-0.0791181,-0.00765237,0.0539246,-0.0448791,0.105719,9.3902e-05,0.000157374,0.0861623,-0.007623165159587719,0.11150949845040481,9.390640893069957e-05,0.055405021616301564,0.0001573863839374745,-0.043886931084248126
101,0.088964,185.349,517.836,-0.540098,310.498,0.0782675,-0.119504,-0.00773949,0.054509,-0.0453748,0.106879,9.43497e-05,0.000156315,0.0871336,-0.007709617263530699,0.1127995975814402,9.435415107295064e-05,0.05602198056878116,0.00015632721782621317,-0.044360758884587015
102,0.089964,185.886,518.919,-0.422947,311.165,0.0626011,-0.092731,-0.00782516,0.0550921,-0.0458687,0.108038,9.43986e-05,0.000156251,0.0881033,-0.007794623139340984,0.11409008000514498,9.440305568797491e-05,0.05663792654724875,0.00015626320782335945,-0.04483263256697567
103,0.090964,187.081,520.368,0.309208,311.946,0.00961023,0.030358,-0.00790853,0.0556735,-0.04636,0.109197,9.36382e-05,0.0001581,0.0890711,-0.007877339853515797,0.11538205896505405,9.364258419308769e-05,0.057252434457883083,0.0001581124984637583,-0.045301791036380656
104,0.091964,186.467,520.905,-0.55348,312.368,0.0768785,-0.110252,-0.00799764,0.0562573,-0.0468562,0.110353,9.48111e-05,0.000155841,0.0900409,-0.007965743964857719,0.11667218617507458,9.481559471447021e-05,0.05786983863186257,0.00015585314383947946,-0.04577539477686299
105,0.092964,187.994,522.458,0.442713,313.212,-0.0192238,0.0456338,-0.00807964,0.0568368,-0.0473457,0.111511,9.33273e-05,0.000158183,0.0910066,-0.00804708743872462,0.11796604156435131,9.333165512792618e-05,0.058483051864723024,0.00015819551159035328,-0.046242373418772686
106,0.093964,188.472,523.53,0.550155,313.836,-0.0336915,0.0506337,-0.00816474,0.0574172,-0.0478376,0.112666,9.27643e-05,0.000158662,0.091973,-0.008131499039819023,0.11925803832685888,9.276860274076704e-05,0.05909757374502411,0.00015867458748086705,-0.0467114114259326
107,0.094964,187.74,524.091,-0.343416,314.195,0.0708774,-0.0853726,-0.00825421,0.0579998,-0.0483325,0.113819,9.43636e-05,0.000156605,0.0929405,-0.008220237544823705,0.12054928710692159,9.436805238460799e-05,0.05971478376730954,0.00015661726320326252,-0.047183077225088965
108,0.095964,189.0,525.445,0.400912,314.984,-0.0198537,0.0245132,-0.00833676,0.0585779,-0.0488215,0.114974,9.29454e-05,0.000158245,0.0939041,-0.008302105585064501,0.1218442692417514,9.294971955742248e-05,0.06032758199606714,0.00015825752140052884,-0.047648890799624755
109,0.096964,189.383,526.445,0.431984,315.575,-0.0268353,0.0204877,-0.00842202,0.0591569,-0.0493123,0.116126,9.25249e-05,0.000158435,0.0948682,-0.008386654143186068,0.12313737852785911,9.252918056068538e-05,0.06094168943298972,0.00015844755148752832,-0.04811619003940637
110,0.097964,188.921,527.116,-0.217393,315.974,0.0587695,-0.0748486,-0.00851045,0.0597374,-0.049805,0.117276,9.38098e-05,0.000156948,0.0958327,-0.008474338634333334,0.12442972947253161,9.381420027687604e-05,0.06155774487649812,0.00015696031698175794,-0.048585067675083304
111,0.098964,189.042,527.924,-0.440612,316.517,0.0636,-0.10994,-0.00859679,0.0603161,-0.0502958,0.118426,9.41178e-05,0.000156016,0.0967956,-0.008559943264330516,0.12572356747568514,9.412222921900693e-05,0.062172246132247144,0.0001560281711290301,-0.0490519075519914
112,0.1,190.489,529.41,0.519837,317.308,-0.0151698,0.0489012,-0.00867865,0.060892,-0.0507822,0.119576,9.28885e-05,0.000158401,0.0977556,-0.008641099225616067,0.12701889424842072,9.28928142702734e-05,0.06278412730306626,0.0001584135461007996,-0.0495143362323861
113,0.101,190.86,530.353,0.537744,317.885,-0.0350942,0.0330075,-0.0087636,0.0614688,-0.0512712,0.120725,9.22598e-05,0.000158505,0.0987164,-0.008725311587266193,0.12831458318866074,9.226405606632682e-05,0.06339731801489545,0.00015851756258133953,-0.04997901009994832
114,0.102,190.201,530.897,-0.276354,318.228,0.0634787,-0.0899963,-0.00885238,0.0620474,-0.0517626,0.121871,9.3735e-05,0.000156587,0.0996779,-0.008813313047660865,0.12960837290090388,9.373939326229319e-05,0.06401277773842673,0.0001565992603842492,-0.050445735730505925
115,0.103,190.291,531.657,-0.519795,318.75,0.0692824,-0.126377,-0.00893857,0.0626241,-0.0522517,0.123016,9.40902e-05,0.00015555,0.100638,-0.008898739746692752,0.13090251524297836,9.4094626621688e-05,0.06462657087758861,0.00015556209852851666,-0.05091004916405395
116,0.104,191.887,533.182,0.576386,319.555,-0.0235414,0.0545266,-0.00901967,0.0631975,-0.0527358,0.124163,9.26393e-05,0.000158235,0.101594,-0.008979114799646859,0.13220040462522986,9.264359115235266e-05,0.06523720280477274,0.00015824751981785568,-0.051369392416248716
117,0.105,191.092,533.568,-0.393704,319.876,0.056384,-0.109578,-0.00910847,0.0637745,-0.0532264,0.125306,9.38335e-05,0.000155692,0.102553,-0.009067113547050476,0.13349524955062075,9.38379025006153e-05,0.0658520220290797,0.0001557041206283749,-0.05183467644882378
118,0.106,192.337,534.881,0.384474,320.612,-0.022925,0.0147234,-0.00919047,0.0643473,-0.0537107,0.12645,9.25545e-05,0.000157445,0.103509,-0.009148366712314338,0.13479271012205074,9.255878329983425e-05,0.06646271695362693,0.00015745739511441315,-0.05229376173854361
119,0.107,192.683,535.799,0.408802,321.154,-0.0289897,0.0103491,-0.0092752,0.064921,-0.0541969,0.127592,9.21476e-05,0.000157562,0.104465,-0.009232318014555596,0.13608938365667544,9.21518457204229e-05,0.06707472215124843,0.00015757441354380397,-0.052754424515390586
120,0.108,192.253,536.412,-0.1929,321.52,0.0508066,-0.0781269,-0.00936282,0.065496,-0.0546849,0.128732,9.33093e-05,0.000156142,0.105421,-0.009319125275769502,0.1373852640655333,9.331365344822373e-05,0.0676884665510904,0.00015615419079662018,-0.053216567584146945
121,0.109,192.378,537.163,-0.38529,322.022,0.0539868,-0.108834,-0.00944845,0.0660693,-0.0551711,0.129872,9.35349e-05,0.000155277,0.106375,-0.009403953647093677,0.1386826226204403,9.35392745251562e-05,0.0683007478426263,0.0001552890560974074,-0.05367678180184532
122,0.11,193.654,538.506,0.450142,322.739,-0.015018,0.0303054,-0.0095302,0.0666402,-0.0556534,0.131012,9.2441e-05,0.000157298,0.107327,-0.00948493156386554,0.13998146100744413,9.244527280083403e-05,0.06891081486663175,0.0001573103719791913,-0.054133083443996144
123,0.111,193.962,539.357,0.435226,323.265,-0.0309951,0.0115998,-0.00961473,0.0672117,-0.056138,0.132151,9.19028e-05,0.000157236,0.10828,-0.009568656263926112,0.14128063963330462,9.19070231917285e-05,0.06952187199026971,0.00015724836222785754,-0.05459133950734707
124,0.112,193.501,539.931,-0.185728,323.611,0.049983,-0.0807875,-0.00970217,0.0677846,-0.0566242,0.133287,9.30739e-05,0.000155754,0.109233,-0.009655255794435713,0.1425778711279111,9.307823150983552e-05,0.0701347766205005,0.00015576613028400743,-0.055050885473401534
125,0.113,193.616,540.649,-0.381849,324.098,0.0520533,-0.11198,-0.00978756,0.0683558,-0.0571086,0.134423,9.32734e-05,0.000154868,0.110184,-0.009739817721720612,0.14387657711484825,9.327775009881911e-05,0.07074621221428723,0.00015487999266783348,-0.055508507979359134
126,0.114,194.872,541.96,0.44367,324.796,-0.0165153,0.0258508,-0.00986911,0.0689246,-0.0575891,0.135559,9.21806e-05,0.000156843,0.111133,-0.009820570146860552,0.14517675927009166,9.21848487620558e-05,0.071355425903743,0.00015685530050646435,-0.055962227126520436
127,0.115,195.161,542.78,0.420245,325.304,-0.031808,0.0061904,-0.00995344,0.069494,-0.058072,0.136693,9.16515e-05,0.000156736,0.112083,-0.009904068457424309,0.14647612631697537,9.165570012714674e-05,0.07196562939169904,0.00015674828372858052,-0.056417992913535
128,0.116,194.726,543.344,-0.170155,325.642,0.0466584,-0.0812469,-0.0100405,0.0700647,-0.0585563,0.137825,9.2771e-05,0.000155313,0.113032,-0.009990262457145183,0.14777467213023088,9.277530336238016e-05,0.07257757477839988,0.00015532506168836058,-0.0568748590405046
129,0.117,195.916,544.537,0.557589,326.332,-0.0404067,0.0324003,-0.0101218,0.0706317,-0.0590358,0.138959,9.13035e-05,0.000157015,0.113979,-0.010070746977067335,0.14907698688133064,9.130766829135162e-05,0.07318589870683545,0.0001570273275002254,-0.057326979141137935
130,0.118,196.076,545.309,0.448762,326.799,-0.0401612,-0.0023396,-0.0102064,0.0711998,-0.0595176,0.14009,9.09207e-05,0.00015667,0.114926,-0.010154491449431924,0.15037732815787308,9.092483341222035e-05,0.07379574882741591,0.00015668227338538898,-0.057781049608228496
131,0.119,195.633,545.868,-0.134688,327.121,0.0429822,-0.0869766,-0.0102934,0.0717691,-0.0600005,0.141219,9.20764e-05,0.000155253,0.115873,-0.010240604262714115,0.15167683759640727,9.208063916177345e-05,0.07440723479018718,0.00015526505237062338,-0.05823593729790033
132,0.12,196.745,547.005,0.52954,327.788,-0.0394005,0.0173341,-0.0103748,0.0723346,-0.0604789,0.14235,9.06772e-05,0.000156754,0.116817,-0.010321167398563036,0.15298012096754943,9.068131130152146e-05,0.07501498390632766,0.00015676628655025837,-0.0586863694735299
133,0.121,196.886,547.753,0.409884,328.241,-0.0362182,-0.0169246,-0.0104593,0.0729013,-0.0609594,0.143478,9.03589e-05,0.000156335,0.117762,-0.010404791726740248,0.1542814163366102,9.036298248843444e-05,0.07562436755025437,0.00015634722095292375,-0.0591385620250372
134,0.122,196.521,548.33,-0.102921,328.572,0.0401536,-0.0894231,-0.0105458,0.0734688,-0.0614408,0.144604,9.14137e-05,0.000155058,0.118707,-0.01049038801016322,0.15558186922898254,9.14178783595343e-05,0.07623495761738353,0.00015507002211312404,-0.05959138371835182
135,0.123,197.513,549.398,0.464247,329.204,-0.0323465,0.000273074,-0.0106274,0.074033,-0.0619182,0.145732,9.01834e-05,0.000156283,0.119649,-0.010571128700236687,0.15688610102591594,9.018746664501975e-05,0.07684234070712903,0.0001562952128242312,-0.06004022764419481
136,0.124,197.649,550.126,0.34372,329.648,-0.0283586,-0.0316765,-0.0107118,0.0745982,-0.0623974,0.146857,8.99261e-05,0.000155815,0.120591,-0.010654632973044476,0.15818833025616752,8.993014347291606e-05,0.07745114402970876,0.0001558271397876787,-0.060490548461622495
137,0.125,197.408,550.74,-0.0608785,329.997,0.0364937,-0.0865299,-0.0107977,0.075164,-0.0628771,0.14798,9.08164e-05,0.000154775,0.121533,-0.01073961409008084,0.1594897063369478,9.082052393405426e-05,0.07806093838155514,0.00015478697826831755,-0.060941123066566294
138,0.126,198.235,551.72,0.371683,330.587,-0.0221115,-0.0178203,-0.0108797,0.075727,-0.0633536,0.149105,8.98229e-05,0.000155641,0.122473,-0.010820730115922994,0.16079486627138628,8.982693419756771e-05,0.07866805757788131,0.0001556531126889471,-0.0613884780306404
139,0.127,197.556,552.104,-0.407045,330.848,0.0699155,-0.138504,-0.010967,0.0762925,-0.0638338,0.150226,9.1247e-05,0.000153504,0.123414,-0.010907081696882481,0.1620968469402979,9.125116313413173e-05,0.07927821687072134,0.00015351578234179541,-0.06183909108263741
140,0.128,197.776,552.796,-0.490051,331.309,0.0653021,-0.145621,-0.0110512,0.0768559,-0.0643112,0.151347,9.1441e-05,0.000152756,0.124353,-0.010990359814545658,0.1634002879479064,9.144518085557607e-05,0.07988645354228785,0.00015276766779193096,-0.062286862209082305
141,0.129,199.124,554.058,0.428079,331.984,-0.0186145,0.00833448,-0.0111315,0.0774168,-0.0647848,0.152468,9.01617e-05,0.000154827,0.125289,-0.011069774100126328,0.16470519093216907,9.016576468812154e-05,0.08049233175674031,0.00015483898631862836,-0.06273085800463674
142,0.13,199.398,554.804,0.420408,332.443,-0.0327837,-0.00646098,-0.0112149,0.0779785,-0.065261,0.153588,8.96599e-05,0.000154701,0.126227,-0.011152247441780228,0.16601039152190644,8.966391956888309e-05,0.08109941478279437,0.00015471296681668356,-0.06317707931632832
143,0.131,198.926,555.279,-0.174999,332.73,0.0477697,-0.093944,-0.0113012,0.0785416,-0.0657388,0.154705,9.08118e-05,0.000153215,0.127164,-0.011237581320616141,0.16731355280932037,9.08159235162298e-05,0.0817083532938061,0.00015322673801754227,-0.06362458638987756
144,0.132,200.074,556.383,0.540291,333.367,-0.0396275,0.0186629,-0.0113816,0.079101,-0.0662117,0.155824,8.93661e-05,0.000154816,0.128099,-0.011317074623404366,0.1686205077798435,8.937009326892564e-05,0.08231363022681282,0.00015482798461530223,-0.06406729363659491
145,0.133,200.177,557.059,0.40699,333.779,-0.0359315,-0.0180898,-0.0114655,0.0796615,-0.0666871,0.156941,8.90709e-05,0.000154353,0.129034,-0.01140002164116738,0.16992658619603063,8.907486693043865e-05,0.08292043705828323,0.00015436491303733035,-0.06451213029914749
146,0.134,199.804,557.578,-0.0926497,334.075,0.0390688,-0.0891701,-0.0115513,0.0802229,-0.0671632,0.158055,9.01034e-05,0.000153099,0.129969,-0.011484839880556041,0.17123061061979983,9.010745943327514e-05,0.08352855927558234,0.0001531107202499271,-0.06495741006665234
147,0.135,200.728,558.563,0.434633,334.661,-0.0306532,-0.00618916,-0.0116323,0.0807812,-0.0676355,0.159171,8.89321e-05,0.000154199,0.130901,-0.01156490636578933,0.17253843361074406,8.893605457638287e-05,0.084133662168981,0.00015421088927691784,-0.06539892640958622
148,0.136,199.855,558.824,-0.491366,334.859,0.0774213,-0.151221,-0.0117197,0.0813425,-0.0681122,0.160283,9.0595e-05,0.000151699,0.131835,-0.011651291817873721,0.17384302156539033,9.059910385089687e-05,0.08474235720783807,0.00015171050687512455,-0.06584434456751398
149,0.137,200.091,559.485,-0.547835,335.299,0.0709226,-0.152821,-0.0118032,0.0819013,-0.0685857,0.161396,9.07955e-05,0.000150992,0.132767,-0.011733815489595734,0.17515023617837988,9.079962203606406e-05,0.08534868062803191,0.00015100339986573452,-0.06628656256698762
150,0.138,201.507,560.736,0.437491,335.967,-0.0234525,0.0111318,-0.0118827,0.0824575,-0.0690552,0.162508,8.93677e-05,0.000153197,0.133696,-0.011812379528302386,0.17645773007288446,8.937169341183271e-05,0.08595251947621407,0.00015320873525959122,-0.06672483813262264
151,0.139,201.765,561.441,0.430754,336.399,-0.0370576,-0.00391188,-0.0119656,0.0830147,-0.0695276,0.16362,8.88585e-05,0.000153075,0.134627,-0.011894296886517997,0.17776667870928642,8.886244803352206e-05,0.08655778083021981,0.00015308671657554562,-0.06716561319982095
152,0.14,201.258,561.866,-0.179428,336.655,0.0459144,-0.0942576,-0.0120514,0.0835733,-0.0700015,0.164728,9.00291e-05,0.000151555,0.135557,-0.011979072718909967,0.17907236740725607,9.003315274114243e-05,0.08716490155962431,0.00015156648503911185,-0.06760757868373268
153,0.141,202.394,562.93,0.538191,337.267,-0.0429642,0.0182935,-0.0121313,0.0841281,-0.0704706,0.165839,8.85573e-05,0.000153146,0.136484,-0.012058012437315968,0.18038304475389522,8.856122131351007e-05,0.08776822799428707,0.00015315772744739498,-0.06804486139589316
154,0.142,202.464,563.558,0.390903,337.65,-0.0372884,-0.0205572,-0.0122147,0.0846843,-0.0709421,0.166947,8.82889e-05,0.000152639,0.137412,-0.012140403363329333,0.1816916339920447,8.829279757960329e-05,0.08837341296903745,0.00015265064992497912,-0.06848417466750245
155,0.143,202.117,564.053,-0.0746706,337.93,0.0343259,-0.0866656,-0.0122998,0.0852411,-0.0714143,0.168053,8.92529e-05,0.000151462,0.13834,-0.012224466638059983,0.18299930794963903,8.925688315852831e-05,0.08897958802885442,0.00015147347094779384,-0.06892393260520424
156,0.144,202.956,564.969,0.394247,338.477,-0.0298268,-0.0132634,-0.0123806,0.085795,-0.071883,0.16916,8.81648e-05,0.000152401,0.139266,-0.012304275676827126,0.1843096133037434,8.816868663030775e-05,0.08958294090581687,0.0001524126136223103,-0.06936022570471723
157,0.145,202.193,565.245,-0.426216,338.676,0.0685878,-0.141544,-0.0124669,0.0863516,-0.0723556,0.170263,8.96531e-05,0.000150169,0.140193,-0.012389510139916182,0.18561662749303243,8.96571189592521e-05,0.09018957158038043,0.00015018027592872407,-0.0697999421488692
158,0.146,202.429,565.877,-0.467772,339.095,0.0605222,-0.142526,-0.0125499,0.0869059,-0.0728252,0.171367,8.97719e-05,0.00014953,0.141117,-0.012471478408844328,0.1869262710400048,8.977592961767478e-05,0.09079403117040608,0.00014954118016774487,-0.07023666154629593
159,0.147,203.659,567.013,0.371659,339.703,-0.0198874,-0.00214902,-0.0126294,0.0874579,-0.0732913,0.172471,8.8546e-05,0.000151367,0.14204,-0.012549983805679954,0.18823736123185397,8.854992031270825e-05,0.09139631569084661,0.0001513784565623233,-0.07066992325886334
160,0.148,202.77,567.163,-0.591645,339.883,0.0748535,-0.156363,-0.0127158,0.0880131,-0.0737631,0.173572,9.00199e-05,0.000148736,0.142965,-0.012635295801547874,0.18954633102221208,9.002395191282098e-05,0.09200242716629448,0.00014874706174716756,-0.07110827777310857
161,0.149,203.089,567.845,-0.545912,340.307,0.065708,-0.139687,-0.0127984,0.0885658,-0.0742312,0.174673,9.01554e-05,0.000148337,0.143887,-0.01271684875793122,0.19085674278196763,9.015946412027631e-05,0.09260614372949316,0.0001483480024768724,-0.07154299023589328
162,0.15,204.402,569.01,0.368613,340.925,-0.0239076,0.0112611,-0.0128774,0.0891162,-0.0746959,0.175775,8.87958e-05,0.000150372,0.144807,-0.012794841046143368,0.19216979026879777,8.879974246367439e-05,0.09320767967850907,0.00015038330643601938,-0.07197434397552682
163,0.151,204.64,569.67,0.364218,341.324,-0.0358082,-0.00309559,-0.0129596,0.0896676,-0.0751632,0.176875,8.8328e-05,0.000150255,0.145727,-0.012875985975107085,0.19348189856535236,8.833190103274546e-05,0.0938106406141368,0.00015026628884795556,-0.07240790905421668
164,0.152,204.241,570.102,-0.138271,341.577,0.0352638,-0.078115,-0.0130442,0.09022,-0.0756317,0.177972,8.92908e-05,0.000149011,0.146648,-0.012959493134291011,0.19479186659417347,8.929478654207124e-05,0.09441502852858497,0.0001490221026905214,-0.07284238416508304
165,0.153,205.189,571.047,0.438627,342.123,-0.0392103,0.0106624,-0.013124,0.0907693,-0.0760963,0.179071,8.80324e-05,0.000150257,0.147566,-0.013038255824065814,0.19610566465536117,8.803627496534183e-05,0.09501635584318291,0.0001502682891485474,-0.07327304154394432
166,0.154,204.272,571.222,-0.501183,342.274,0.0698172,-0.139379,-0.0132103,0.0913217,-0.0765655,0.180166,8.9655e-05,0.000147768,0.148487,-0.013123426947401318,0.19741611770026202,8.965901912971752e-05,0.09562140997871715,0.0001477789182287026,-0.07370775983996436
167,0.155,204.533,571.842,-0.507868,342.678,0.0593008,-0.135173,-0.0132925,0.0918715,-0.0770312,0.181262,8.97349e-05,0.000147239,0.149404,-0.013204544867714052,0.19872920520577275,8.973892629660085e-05,0.0962239482525169,0.00014724984019354181,-0.07413903370629271
168,0.156,205.795,572.961,0.367321,343.274,-0.0278408,0.00885768,-0.0133713,0.0924191,-0.0774935,0.182357,8.83895e-05,0.000149172,0.15032,-0.013282301285935327,0.2000425326009958,8.839340646704663e-05,0.09682440487659894,0.00014918312669598421,-0.0745669603081549
169,0.157,206.004,573.586,0.342712,343.656,-0.0385039,-0.00854828,-0.0134532,0.0929676,-0.0779584,0.183452,8.79274e-05,0.000148986,0.151236,-0.013363110156291658,0.20135729887736042,8.793126572714804e-05,0.09742617808388876,0.00014899709896520896,-0.07499709413595224
170,0.158,205.65,574.019,-0.114748,343.906,0.0284881,-0.0762734,-0.0135373,0.093517,-0.0784243,0.184544,8.88027e-05,0.000147844,0.152152,-0.01344608282967763,0.20266989759619958,8.880664307642228e-05,0.09802926968021985,0.0001478549294626763,-0.07542795261351831
171,0.159,206.511,574.906,0.394669,344.423,-0.039496,0.00166125,-0.013617,0.0940635,-0.0788866,0.185637,8.76289e-05,0.000148906,0.153066,-0.013524708043619715,0.2039851344402701,8.76327395242793e-05,0.09862950667592019,0.00014891708704878326,-0.07585528348588311
172,0.16,205.716,575.118,-0.434616,344.587,0.05931,-0.130359,-0.0137025,0.0946128,-0.079353,0.186727,8.90648e-05,0.000146692,0.153981,-0.013609048075494234,0.20529819372411606,8.906876638703487e-05,0.09923314963929908,0.00014670275979744574,-0.07628620408317055
173,0.161,205.969,575.719,-0.439556,344.977,0.0483873,-0.127317,-0.0137844,0.0951597,-0.0798162,0.187817,8.90784e-05,0.00014619,0.154894,-0.013689830186384255,0.20661268502288754,8.908236759852528e-05,0.09983448466891232,0.00014620068627868577,-0.07671396923538176
174,0.162,207.088,576.758,0.321668,345.532,-0.026664,-0.00146073,-0.0138633,0.0957046,-0.0802765,0.188907,8.78944e-05,0.000147842,0.155805,-0.013767646988869342,0.20792860989833195,8.789826282584734e-05,0.10043394778850279,0.00014785292916696946,-0.07713885999923131
175,0.163,206.332,576.931,-0.506136,345.708,0.0573092,-0.135023,-0.0139483,0.0962522,-0.0807416,0.189994,8.91321e-05,0.000145585,0.156718,-0.013851473176211826,0.209242342181432,8.913607238358878e-05,0.10103671043966345,0.0001455955980103063,-0.07756798291517597
176,0.164,206.647,577.571,-0.442895,346.101,0.0454682,-0.119067,-0.0140298,0.0967977,-0.0812034,0.191081,8.91196e-05,0.000145289,0.157628,-0.013931841006114443,0.21055750326793765,8.912357126944492e-05,0.10163748981288445,0.0001452995549580116,-0.07799386367722927
177,0.165,207.721,578.585,0.286645,346.64,-0.0263887,0.00094643,-0.0141086,0.0973412,-0.0816625,0.192168,8.79793e-05,0.000146877,0.158537,-0.014009540115658026,0.21187409471180252,8.798317029201641e-05,0.1022363925256673,0.00014688778695459703,-0.07841705954237099
178,0.166,207.044,578.791,-0.467453,346.826,0.0513912,-0.121431,-0.0141932,0.0978872,-0.0821262,0.193253,8.9108e-05,0.000144829,0.159448,-0.014092951380218044,0.21318969168686097,8.911197023575568e-05,0.10283837792304462,0.00014483948822596737,-0.0788442984888561
179,0.167,207.355,579.423,-0.404024,347.212,0.0389806,-0.107287,-0.0142745,0.0984312,-0.0825868,0.194338,8.90532e-05,0.000144568,0.160356,-0.014173102365089174,0.21450671685929446,8.905716535401176e-05,0.10343848521501875,0.00014457845045701134,-0.07926848510729456
180,0.168,208.349,580.396,0.262359,347.729,-0.0263407,0.0017823,-0.0143534,0.0989734,-0.0830449,0.195422,8.79965e-05,0.000146021,0.161262,-0.014250881038903485,0.21582395595497395,8.80003718055633e-05,0.10403693178590667,0.00014603166158511094,-0.07969017561868086
181,0.169,207.755,580.632,-0.418515,347.926,0.0435768,-0.109586,-0.0144374,0.0995179,-0.0835071,0.196504,8.89853e-05,0.000144169,0.162171,-0.014333680487270684,0.21714018942921465,8.898925930922452e-05,0.1046382435875457,0.00014417939284960823,-0.08011544453229313
182,0.17,208.051,581.252,-0.362167,348.303,0.031574,-0.0982159,-0.0145186,0.10006,-0.0839665,0.197586,8.88959e-05,0.000143917,0.163077,-0.014413713343037204,0.2184578478388255,8.889985135751566e-05,0.1052372303200797,0.00014392735654822353,-0.08053794244187451
183,0.171,208.964,582.184,0.240478,348.798,-0.0266336,0.000242044,-0.0145975,0.100601,-0.0844237,0.198668,8.79281e-05,0.000145229,0.163981,-0.014491473033394375,0.21977693272642096,8.793196578871232e-05,0.10583532543182295,0.00014523954624179325,-0.08095822441081102
184,0.172,208.449,582.447,-0.370935,349.006,0.0356817,-0.100437,-0.0146811,0.101144,-0.0848844,0.199747,8.87803e-05,0.000143556,0.164887,-0.014573858102504889,0.22109378234944344,8.878424108749172e-05,0.10643595707026421,0.00014356630465561793,-0.08138152944102417
185,0.173,209.791,583.567,0.588501,349.583,-0.0646458,0.0516273,-0.0147584,0.101683,-0.0853396,0.200828,8.7091e-05,0.000145783,0.165789,-0.014650028599245912,0.22241449844660233,8.709479253132812e-05,0.10703248680144561,0.00014579362685784858,-0.08179958941115473
186,0.174,209.79,584.059,0.412541,349.891,-0.0609982,0.00419537,-0.0148399,0.102224,-0.085798,0.201906,8.67003e-05,0.000145269,0.166692,-0.014730331349533499,0.22373297180538665,8.670405857968966e-05,0.10763155340971142,0.00014527955205223542,-0.08222039602312448
187,0.175,209.376,584.427,-0.0731759,350.098,0.0122081,-0.0689117,-0.0149231,0.102766,-0.0862571,0.202983,8.7568e-05,0.000144095,0.167596,-0.014812302375923236,0.22505164219256102,8.757183418928172e-05,0.10823205243219425,0.00014410538218312396,-0.08264165193261708
188,0.176,210.141,585.223,0.370458,350.566,-0.0513219,-0.00269651,-0.015002,0.103304,-0.0867128,0.20406,8.6402e-05,0.000144981,0.168497,-0.014890030618846306,0.22637173355279883,8.64057327603085e-05,0.10882844169072814,0.00014499151025315626,-0.08305959689583897
189,0.177,209.42,585.428,-0.375343,350.716,0.0424682,-0.12125,-0.0150862,0.103845,-0.087172,0.205134,8.76819e-05,0.000142988,0.169399,-0.014972973386328747,0.22768956434309517,8.768574417006292e-05,0.10942848017345752,0.00014299822327124012,-0.08348055926858644
190,0.178,209.668,585.984,-0.366806,351.076,0.0300629,-0.117764,-0.015167,0.104384,-0.0876283,0.206209,8.75782e-05,0.000142548,0.170299,-0.015052560354722244,0.229010040253401,8.758203508252294e-05,0.11002662330936497,0.00014255816044883574,-0.0838986716897886
191,0.179,210.61,586.9,0.260808,351.565,-0.0320113,-0.0137599,-0.0152454,0.104921,-0.0880822,0.207284,8.65398e-05,0.00014386,0.171197,-0.015129777207050332,0.23033193643857164,8.654354467640957e-05,0.11062286768336826,0.0001438703483460646,-0.08431439572700095
192,0.18,210.043,587.115,-0.389589,351.752,0.0354636,-0.118759,-0.0153287,0.105461,-0.0885399,0.208356,8.74539e-05,0.00014205,0.172097,-0.015211813479750758,0.23165155946600247,8.745772420382103e-05,0.11122276598988257,0.00014206008957895477,-0.08473340912954463
193,0.181,211.426,588.229,0.60755,352.325,-0.069862,0.0409047,-0.0154054,0.105996,-0.0889917,0.209429,8.56849e-05,0.000144316,0.172993,-0.015287343837030676,0.23297383086104873,8.568857105584193e-05,0.11181742922791948,0.00014432641405481839,-0.08514683317577543
194,0.182,211.398,588.688,0.415302,352.616,-0.0634145,-0.00754224,-0.0154865,0.106533,-0.089447,0.2105,8.53241e-05,0.00014373,0.173891,-0.01536720079520204,0.2342950532221839,8.532774020464373e-05,0.11241463552295361,0.00014374032965136507,-0.08556327101336281
195,0.183,210.983,589.033,-0.0659255,352.812,0.0102475,-0.0786137,-0.0155693,0.107071,-0.089903,0.21157,8.6189e-05,0.000142537,0.174788,-0.015448725015826836,0.23561645575341306,8.619271437848575e-05,0.1130132756166109,0.00014254715888095681,-0.0859801591040722
196,0.184,211.716,589.795,0.35705,353.262,-0.0510021,-0.0145674,-0.0156479,0.107606,-0.0903555,0.21264,8.50604e-05,0.000143338,0.175683,-0.01552610770486107,0.2369392729420574,8.506401773833439e-05,0.11360889703358801,0.0001433482733819158,-0.08639365952055289
197,0.185,211.032,589.994,-0.352044,353.408,0.0399124,-0.126061,-0.0157314,0.108143,-0.0908114,0.213707,8.62904e-05,0.000141415,0.176579,-0.015608307842964186,0.23825979151766363,8.629412312366469e-05,0.1142070656051819,0.00014142499957237042,-0.08681007772143601
198,0.186,211.279,590.531,-0.33728,353.756,0.0272179,-0.121136,-0.0158118,0.108678,-0.0912646,0.214775,8.61688e-05,0.000140981,0.177474,-0.015687449753466254,0.23958295942089514,8.617251263776105e-05,0.11480332587067976,0.00014099093828812137,-0.08722384162822938
199,0.187,212.15,591.396,0.236485,354.22,-0.029434,-0.0250868,-0.0158899,0.109212,-0.0917155,0.215842,8.5217e-05,0.00014214,0.178366,-0.015764321561757222,0.2409063003154137,8.522063107174738e-05,0.11539878982141949,0.0001421501023683991,-0.0876353196233538
200,0.188,211.659,591.625,-0.34418,354.411,0.0314183,-0.118097,-0.0159725,0.109747,-0.0921698,0.216907,8.60279e-05,0.000140487,0.17926,-0.01584561607128676,0.2422285695086157,8.603160050579817e-05,0.11599568782995395,0.000140496868760831,-0.0880497127611205
201,0.189,212.899,592.654,0.537404,354.944,-0.0625901,0.0234658,-0.0160492,0.110279,-0.0926189,0.217973,8.44453e-05,0.00014244,0.18015,-0.01592109781777218,0.2435534912215196,8.444886560465825e-05,0.11658955549067063,0.0001424501450584259,-0.08845917768288913
202,0.19,212.873,593.094,0.351491,355.225,-0.0556063,-0.0215392,-0.0161299,0.110813,-0.0930711,0.219037,8.41395e-05,0.000141831,0.181042,-0.016000509780862426,0.24487733629686614,8.414303982706706e-05,0.11718597354275007,0.00014184105849190942,-0.08887128325864779
203,0.191,212.566,593.464,-0.0345169,355.433,0.00676021,-0.0771514,-0.0162118,0.111347,-0.0935235,0.2201,8.48487e-05,0.000140841,0.181933,-0.01608109603905905,0.24620134449103093,8.485229975274677e-05,0.11778271016712027,0.00014085091855919885,-0.08928338466573471
204,0.192,213.168,594.152,0.285476,355.844,-0.0422673,-0.0289546,-0.0162904,0.111878,-0.0939733,0.221163,8.39232e-05,0.000141374,0.182822,-0.016158429025684207,0.24752676085421532,8.392672165036252e-05,0.11837641039968072,0.00014138399377494615,-0.08969293288501257
205,0.193,212.678,594.417,-0.257049,356.02,0.0299667,-0.113522,-0.0163728,0.112412,-0.0944255,0.222223,8.48708e-05,0.000139852,0.183712,-0.01623949423120019,0.24884984032895807,8.487440162818771e-05,0.11897378288709293,0.00013986177974678604,-0.09010448068279198
206,0.194,213.775,595.33,0.479655,356.525,-0.0619042,0.00178434,-0.0164496,0.112941,-0.0948732,0.223285,8.33193e-05,0.000141371,0.184599,-0.016315044136889667,0.2501768233626591,8.332277114919684e-05,0.11956587661322304,0.00014138099335081478,-0.09051174973281084
207,0.195,213.742,595.766,0.299698,356.796,-0.0498172,-0.0385896,-0.0165301,0.113473,-0.0953234,0.224344,8.31115e-05,0.000140742,0.185487,-0.01639422758866005,0.2515014618909044,8.311495385648904e-05,0.12016164411968666,0.00014075190461992904,-0.09092110918935337
208,0.196,213.525,596.163,-0.00848909,357.017,0.00429771,-0.0806842,-0.0166114,0.114004,-0.0957737,0.225403,8.37074e-05,0.000139908,0.186375,-0.016474191487380496,0.2528275039543919,8.371090356207311e-05,0.12075660790161868,0.00013991778758071227,-0.09133037526071386
209,0.197,214.022,596.796,0.229703,357.4,-0.0341132,-0.0442936,-0.01669,0.114534,-0.0962218,0.226461,8.29585e-05,0.000140222,0.18726,-0.01655149357791763,0.2541536968859288,8.29619411515381e-05,0.12135076634188491,0.00014023183156419705,-0.09173745890565721
210,0.198,213.685,597.115,-0.184343,357.601,0.0234368,-0.107626,-0.0167716,0.115065,-0.0966717,0.227517,8.36916e-05,0.000138997,0.188147,-0.016631739701955306,0.25547878271201885,8.369510223960042e-05,0.12194636171538953,0.00013900666053068278,-0.09214599431596404
211,0.199,214.561,597.92,0.372231,358.055,-0.0478069,-0.020303,-0.0168489,0.115593,-0.097118,0.228574,8.24708e-05,0.000140062,0.18903,-0.01670775113059675,0.25680652537372395,8.247420080986778e-05,0.1225389058122508,0.00014007180913977457,-0.09255107915729466
212,0.2,213.783,598.029,-0.411795,358.167,0.0482769,-0.142705,-0.0169319,0.116123,-0.0975683,0.229628,8.38043e-05,0.000137934,0.189916,-0.01678936100039652,0.2581318978000384,8.38078116784935e-05,0.12313400912077777,0.00013794351333151766,-0.09295961141840836
213,0.201,214.073,598.557,-0.348597,358.504,0.032626,-0.127858,-0.0170112,0.116652,-0.0980156,0.230683,8.36753e-05,0.000137605,0.190799,-0.016867326512695735,0.2594599273646352,8.367880087556401e-05,0.1237283041887891,0.0001376144680023117,-0.09336523985865719
214,0.202,214.917,599.374,0.210286,358.943,-0.0247673,-0.0341351,-0.0170886,0.117179,-0.0984607,0.231737,8.2748e-05,0.000138692,0.19168,-0.016943418036843627,0.26078809795101954,8.27514237102811e-05,0.12432066507848138,0.00013870161818019255,-0.09376869319519521
215,0.203,214.475,599.597,-0.315633,359.124,0.0325115,-0.117522,-0.0171702,0.117707,-0.0989091,0.232789,8.35206e-05,0.00013717,0.192563,-0.017023632181150328,0.2621151449343899,8.35240879424326e-05,0.12491446313853549,0.00013717940823454455,-0.09417495622218885
216,0.204,215.603,600.541,0.479103,359.616,-0.0552431,0.00985726,-0.0172464,0.118233,-0.0993527,0.233842,8.20671e-05,0.000138877,0.193443,-0.01709853212665391,0.2634448521499888,8.207046759656222e-05,0.12550632379185211,0.00013888664385697247,-0.09457669110022493
217,0.205,214.523,600.481,-0.570419,359.666,0.0617531,-0.158318,-0.01733,0.118762,-0.099802,0.234891,8.37226e-05,0.000136102,0.194325,-0.01718069925473431,0.2647709011910173,8.372610483475817e-05,0.12610187414631846,0.00013611126229751136,-0.0949834064174756
218,0.206,214.878,601.038,-0.443539,360.008,0.04272,-0.131071,-0.0174088,0.119288,-0.100247,0.235941,8.36038e-05,0.000135919,0.195204,-0.017258142364334428,0.26609960808631317,8.360729489509389e-05,0.12669435954211794,0.0001359282374058246,-0.0953860492069547
219,0.207,215.854,601.902,0.22716,360.468,-0.0299386,-0.021092,-0.0174854,0.119812,-0.10069,0.236991,8.24653e-05,0.00013727,0.196082,-0.01733341750755457,0.26742971085655487,8.246870035621967e-05,0.12728490209515453,0.00013727942195762566,-0.09578670443547055
220,0.208,215.307,602.077,-0.37702,360.621,0.0385928,-0.117445,-0.017567,0.120339,-0.101137,0.238039,8.34077e-05,0.000135586,0.196961,-0.017413599829202764,0.26875867344829696,8.341117851884405e-05,0.12787913780591542,0.00013559519219707994,-0.09619079745706915
221,0.209,216.587,603.077,0.544594,361.137,-0.0662515,0.0286072,-0.0176424,0.120862,-0.101578,0.239088,8.16932e-05,0.00013761,0.197837,-0.017487684050765395,0.27009029961255715,8.169653698031354e-05,0.12846917287570925,0.00013761946869039754,-0.09658928944144973
222,0.21,216.516,603.463,0.339221,361.383,-0.0550438,-0.0193917,-0.017722,0.121386,-0.102023,0.240135,8.14596e-05,0.000136966,0.198714,-0.017565888918519845,0.2714207805414772,8.146291792332505e-05,0.12906064567463593,0.0001369753802709095,-0.09699121777196207
223,0.211,216.225,603.8,-0.0191743,361.57,0.00401532,-0.0714719,-0.0178027,0.121911,-0.102467,0.24118,8.21194e-05,0.000136049,0.199591,-0.017645168152324087,0.2727501097106624,8.212277189012518e-05,0.12965355813951862,0.0001360582550848921,-0.09739206467667338
224,0.212,216.747,604.418,0.250239,361.94,-0.0394158,-0.0319899,-0.0178803,0.122434,-0.10291,0.242225,8.12922e-05,0.000136456,0.200466,-0.017721395929599426,0.27408082875491235,8.129550430036048e-05,0.130244521473867,0.00013646531054356537,-0.09779183143714631
225,0.213,216.345,604.681,-0.206312,362.11,0.023314,-0.103301,-0.0179612,0.122958,-0.103354,0.243269,8.20898e-05,0.000135155,0.201342,-0.017800859054341922,0.2754116637151047,8.209316945984035e-05,0.1308369247992356,0.00013516413384850878,-0.0981923229482935
226,0.214,217.257,605.478,0.390858,362.553,-0.0541278,-0.010923,-0.0180375,0.12348,-0.103795,0.244313,8.07737e-05,0.000136323,0.202214,-0.017875797989839404,0.2767438887925102,8.077696228303566e-05,0.13142737576827646,0.00013633229240239686,-0.09858993245453318
227,0.215,216.419,605.534,-0.430434,362.636,0.0477094,-0.139854,-0.0181198,0.124004,-0.104239,0.245354,8.21725e-05,0.000134133,0.203089,-0.01795662348565008,0.27807367121240456,8.217587625236611e-05,0.13202039907171526,0.00013414199623307255,-0.09899006968748425
228,0.216,216.727,606.044,-0.341221,362.958,0.0290543,-0.121608,-0.0181981,0.124526,-0.104681,0.246396,8.19893e-05,0.000133883,0.203962,-0.018033514471709755,0.2794061180620562,8.199266121455828e-05,0.1326114679755932,0.00013389196272872717,-0.09938822807719605
229,0.217,217.523,606.813,0.186287,363.37,-0.026781,-0.0340919,-0.0182747,0.125046,-0.105121,0.247437,8.10801e-05,0.000134892,0.204832,-0.018108730223701075,0.2807386733056243,8.108338708012752e-05,0.13320057909455674,0.00013490109833491637,-0.0997844100904075
230,0.218,217.136,607.037,-0.281887,363.545,0.0254321,-0.108615,-0.0183552,0.125568,-0.105563,0.248476,8.17553e-05,0.000133526,0.205704,-0.018187769289553013,0.2820700523188153,8.175864205561822e-05,0.13379226421322477,0.00013353491499312753,-0.1001822174592426
231,0.219,218.143,607.899,0.41962,363.995,-0.0541673,0.00280983,-0.0184309,0.126087,-0.106001,0.249516,8.04202e-05,0.000134997,0.206573,-0.018262089662356207,0.2834040987571327,8.042343379099925e-05,0.13438085512448095,0.00013500611250494288,-0.1005762513482743
232,0.22,217.224,607.888,-0.482433,364.061,0.0488543,-0.141719,-0.0185131,0.126609,-0.106445,0.250553,8.18357e-05,0.000132602,0.207445,-0.01834278520195387,0.28473567911262987,8.183904863234837e-05,0.13497315650806763,0.0001326107920338604,-0.100975506851395
233,0.221,217.559,608.413,-0.361055,364.381,0.029559,-0.117757,-0.0185911,0.127129,-0.106884,0.251591,8.16484e-05,0.000132444,0.208314,-0.018419351478584423,0.2860699271024574,8.165173332130848e-05,0.13556349602442386,0.00013245277109374953,-0.10137009198611313
234,0.222,218.367,609.18,0.179816,364.79,-0.0287399,-0.0290512,-0.0186674,0.127647,-0.107322,0.252628,8.07021e-05,0.00013349,0.209181,-0.018494243224910223,0.28740427335581886,8.070535650217536e-05,0.13615187029114328,0.0001334989101864359,-0.10176360570002874
235,0.223,217.978,609.399,-0.283293,364.958,0.0240525,-0.10319,-0.0187476,0.128167,-0.107763,0.253663,8.13783e-05,0.000132154,0.210049,-0.018572956830145815,0.2887374265665197,8.138161130366584e-05,0.13674282289805628,0.00013216273272464996,-0.10215964061779725
236,0.224,218.978,610.25,0.413994,365.401,-0.0564005,0.00661865,-0.018823,0.128684,-0.108199,0.254699,8.00259e-05,0.000133619,0.210915,-0.018646953639486097,0.29007325037769904,8.002910215765269e-05,0.13733067088310502,0.00013362792741622442,-0.10255101368895847
237,0.225,218.07,610.238,-0.474271,365.464,0.0461898,-0.136011,-0.0189048,0.129203,-0.10864,0.255732,8.14223e-05,0.000131276,0.211783,-0.01872722503553348,0.29140658459389623,8.142561488533318e-05,0.13792109870405977,0.0001312846170711257,-0.10294670143636053
238,0.226,218.405,610.756,-0.349096,365.779,0.0260492,-0.112296,-0.0189825,0.129721,-0.109078,0.256765,8.12078e-05,0.00013114,0.212648,-0.01880346696811075,0.29274129685597705,8.1211097442635e-05,0.1385106945253225,0.00013114859922569444,-0.1033395247465464
239,0.227,219.182,611.503,0.169711,366.176,-0.0301806,-0.0277058,-0.0190586,0.130237,-0.109514,0.257798,8.0283e-05,0.00013214,0.213512,-0.018878133183188983,0.2940773885881982,8.028622276623487e-05,0.1390983176374223,0.00013214873087430412,-0.1037303835003569
240,0.228,218.822,611.727,-0.266041,366.345,0.0196535,-0.0978601,-0.0191384,0.130754,-0.109953,0.258829,8.09017e-05,0.000130879,0.214377,-0.01895642358433247,0.2954122703891571,8.090497263069096e-05,0.13968738372810452,0.0001308875650298802,-0.10412375950964847
241,0.229,219.767,612.547,0.388279,366.772,-0.0563561,0.00463229,-0.0192137,0.131269,-0.110388,0.25986,7.96082e-05,0.000132242,0.215239,-0.01903029338440365,0.29674852916296035,7.961136881684538e-05,0.14027447389346603,0.0001322507443586307,-0.10451338092546003
242,0.23,218.929,612.559,-0.437835,366.843,0.0396437,-0.128266,-0.019295,0.131787,-0.110827,0.260889,8.08911e-05,0.000130057,0.216104,-0.019110042979686548,0.29808357016026243,8.089437177316583e-05,0.14086528907886509,0.00013006545777827228,-0.10490641327432104
243,0.231,219.251,613.065,-0.319404,367.15,0.0200608,-0.10661,-0.0193724,0.132302,-0.111263,0.261918,8.06551e-05,0.000129921,0.216965,-0.019185960924297474,0.2994199856217914,8.065835270998356e-05,0.1414529860217142,0.00012992944009870833,-0.10529658901364136
244,0.232,219.973,613.781,0.155984,367.531,-0.0310465,-0.0291772,-0.0194484,0.132816,-0.111697,0.262947,7.97921e-05,0.000130824,0.217826,-0.019260499958748123,0.30075777696259864,7.979528347434872e-05,0.1420398436660235,0.00013083255783263859,-0.10568480604482011
245,0.233,219.66,614.02,-0.237293,367.705,0.0138318,-0.0927811,-0.0195277,0.133332,-0.112134,0.263974,8.03223e-05,0.000129668,0.218687,-0.01933826951749762,0.3020943414079058,8.032552592229791e-05,0.14262928828898924,0.00012967640725847218,-0.10607553640377698
246,0.234,220.521,614.795,0.350299,368.11,-0.0545392,-0.0010774,-0.019603,0.133845,-0.112567,0.265001,7.91352e-05,0.000130869,0.219546,-0.01941211056565262,0.3034322792099964,7.913833127259906e-05,0.14321560749189866,0.00013087756372121007,-0.10646252190810612
247,0.235,219.789,614.847,-0.384952,368.198,0.0312459,-0.119555,-0.0196837,0.13436,-0.113004,0.266026,8.02517e-05,0.000128905,0.220407,-0.01949124081538145,0.3047689822394579,8.025492025387493e-05,0.14380451516046544,0.00012891330860642647,-0.1068529124794797
248,0.236,221.108,615.82,0.579216,368.693,-0.0832614,0.0311898,-0.0197573,0.134871,-0.113436,0.267053,7.83622e-05,0.000130988,0.221264,-0.019563403604434204,0.30610966830867614,7.83652703972848e-05,0.144389148628842,0.00013099657930260022,-0.10723866869194743
249,0.237,220.955,616.129,0.32545,368.895,-0.0639807,-0.0237841,-0.0198356,0.135384,-0.113871,0.268077,7.82049e-05,0.000130229,0.222122,-0.019640168784535894,0.30744780962044715,7.820795808299863e-05,0.14497637087171578,0.00013023748016438574,-0.10762693541693125
250,0.238,220.697,616.434,0.00846918,369.063,-0.00915879,-0.0693503,-0.0199146,0.135898,-0.114305,0.269099,7.87561e-05,0.000129406,0.22298,-0.01971761415206963,0.3087847043187064,7.875920134314818e-05,0.14556504000134973,0.00012941437331770445,-0.10801414129720666
251,0.239,221.106,616.963,0.201978,369.381,-0.0431835,-0.0418377,-0.0199911,0.136409,-0.114738,0.270122,7.80436e-05,0.000129617,0.223836,-0.019792602886231414,0.3101242761453886,7.804664548105578e-05,0.14615057332781412,0.00012962540064620498,-0.10840028756732423
252,0.24,220.825,617.234,-0.139903,369.551,0.00692413,-0.0946701,-0.02007,0.136922,-0.115172,0.271144,7.86094e-05,0.000128593,0.224693,-0.019869938198945447,0.311463907590676,7.861248979978974e-05,0.14673869941337414,0.00012860126843428077,-0.10878715788558857
253,0.241,221.508,617.891,0.283392,369.919,-0.0507163,-0.0299816,-0.0201455,0.137432,-0.115603,0.272165,7.75735e-05,0.000129326,0.225547,-0.019943935225188558,0.3128035960348978,7.757650890183321e-05,0.1473236853087987,0.00012933436296758138,-0.10917118785613633
254,0.242,220.963,618.032,-0.28024,370.036,0.0229462,-0.117537,-0.0202252,0.137944,-0.116037,0.273184,7.85036e-05,0.000127767,0.226403,-0.020022042580931654,0.3141420247128546,7.850668148834394e-05,0.14791126544335542,0.0001277751625508028,-0.1095577236762666
255,0.243,222.011,618.855,0.448339,370.474,-0.0692579,-0.00388505,-0.0202993,0.138453,-0.116467,0.274205,7.69583e-05,0.000129229,0.227255,-0.02009465625720641,0.3154844489110229,7.696126136602643e-05,0.14849570100369802,0.00012923735042691398,-0.10994053154549555
256,0.244,221.008,618.784,-0.495339,370.5,0.0488005,-0.151589,-0.0203805,0.138965,-0.116902,0.275222,7.85552e-05,0.000126765,0.22811,-0.020174221340732212,0.3168229771217921,7.85582855404865e-05,0.14908388136393524,0.00012677303502206527,-0.11032762321573097
257,0.245,221.37,619.278,-0.343899,370.804,0.0241422,-0.122614,-0.020457,0.139474,-0.117332,0.276239,7.82763e-05,0.000126661,0.228962,-0.020249175145780063,0.3181628673081984,7.827936366955335e-05,0.14966891393770854,0.00012666902184310658,-0.11071010009932492
258,0.246,222.108,619.974,0.146906,371.176,-0.0305681,-0.0418122,-0.0205321,0.139982,-0.117762,0.277257,7.73781e-05,0.000127553,0.229813,-0.020322751669893613,0.31950544036085704,7.738109376242974e-05,0.15025309411519117,0.0001275611352298256,-0.11109241255321389
259,0.247,221.801,620.193,-0.235519,371.34,0.0146923,-0.102069,-0.0206107,0.140492,-0.118193,0.278272,7.79185e-05,0.000126405,0.230665,-0.02039975127548821,0.32084541830659075,7.792153572516725e-05,0.15083987280903832,0.00012641298944870982,-0.11147544917308239
260,0.248,222.636,620.934,0.334667,371.728,-0.0531316,-0.0124094,-0.0206853,0.140999,-0.118622,0.279288,7.67544e-05,0.000127529,0.231514,-0.020472826728294757,0.32218807920783066,7.675734569434489e-05,0.151423496560672,0.00012753713216850926,-0.11185654445460447
261,0.249,221.942,620.982,-0.361518,371.812,0.0302758,-0.123187,-0.0207651,0.141509,-0.119054,0.280302,7.78364e-05,0.000125653,0.232365,-0.02055098987797066,0.32352945788420295,7.78394293312612e-05,0.15201087231200305,0.00012566089466892194,-0.11224013956489065
262,0.25,223.175,621.895,0.534855,372.278,-0.078384,0.017048,-0.0208382,0.142014,-0.11948,0.281316,7.60545e-05,0.00012754,0.233213,-0.02062258498377756,0.32487219740838635,7.605739221672181e-05,0.1525927847230375,0.00012754813357163108,-0.11261824472331916
263,0.251,223.02,622.181,0.285397,372.468,-0.0580146,-0.0350728,-0.0209158,0.142522,-0.11991,0.282329,7.59482e-05,0.000126766,0.234062,-0.0206985817224713,0.3262149729453443,7.59510841374933e-05,0.15317845060421575,0.00012677403514893548,-0.11299973685140241
264,0.252,222.824,622.49,0.0244869,372.638,-0.0105395,-0.0713761,-0.0209938,0.143029,-0.12034,0.283341,7.64064e-05,0.000126054,0.23491,-0.020774964254139494,0.32755778184466555,7.640931904329129e-05,0.15376326031540688,0.0001260619451393108,-0.1133810649731345
265,0.253,223.157,622.968,0.162475,372.929,-0.0370084,-0.0519492,-0.0210698,0.143535,-0.120768,0.284352,7.58236e-05,0.000126121,0.235757,-0.020849382528925875,0.3289006214531538,7.582647468185044e-05,0.15434721225250714,0.0001261289535876564,-0.11376045668170887
266,0.254,222.975,623.26,-0.093523,373.107,0.0023577,-0.090825,-0.0211476,0.144041,-0.121197,0.285362,7.62382e-05,0.000125294,0.236604,-0.020925557483720936,0.3302434891148358,7.624110620541025e-05,0.15493145974405653,0.00012530184962100677,-0.11414057190524718
267,0.255,223.509,623.833,0.214253,373.434,-0.0411585,-0.0439745,-0.0212228,0.144546,-0.121623,0.286372,7.54291e-05,0.000125742,0.237449,-0.020999181113514953,0.3315877137580163,7.543194484616045e-05,0.15551484742421828,0.00012574990585667578,-0.11451786765191563
268,0.256,223.151,624.036,-0.190174,373.578,0.013373,-0.106089,-0.0213011,0.145052,-0.122052,0.287381,7.60801e-05,0.000124557,0.238295,-0.021075833876639027,0.33293196382130885,7.608299416417275e-05,0.15609968588866807,0.00012456475754518692,-0.11489765801583518
269,0.257,223.93,624.721,0.322461,373.949,-0.0532293,-0.0263883,-0.0213754,0.145556,-0.122477,0.288389,7.49341e-05,0.000125496,0.239138,-0.021148565240178385,0.3342762366405192,7.493690762983007e-05,0.15668250698893615,0.0001255038749523596,-0.1152737465866962
270,0.258,223.273,624.783,-0.329438,374.034,0.0302757,-0.127676,-0.0214546,0.146062,-0.122906,0.289396,7.60182e-05,0.000123725,0.239983,-0.021226087203901067,0.33562052954869737,7.602108945659047e-05,0.15726793643863246,0.00012373265425358326,-0.11565321274809914
271,0.259,224.426,625.637,0.494253,374.477,-0.0737009,0.00100557,-0.0215275,0.146564,-0.12333,0.290403,7.43215e-05,0.000125397,0.240825,-0.021297437221404092,0.3369661768416523,7.432426191100738e-05,0.15784903078520252,0.00012540486253254102,-0.11602809630496358
272,0.26,223.3,625.484,-0.544518,374.468,0.0569703,-0.161109,-0.0216081,0.147069,-0.123759,0.291407,7.6107e-05,0.000122718,0.241669,-0.021376317469047446,0.3383091649504191,7.610989621120723e-05,0.15843389221082949,0.00012272553016168253,-0.11640723891974314
273,0.261,223.702,625.977,-0.352762,374.767,0.0277179,-0.125085,-0.0216837,0.147572,-0.124184,0.292412,7.57891e-05,0.000122702,0.242511,-0.021450298622923913,0.3396548417505223,7.579197206641908e-05,0.1590167310302859,0.00012270952819837255,-0.11678268605503472
274,0.262,224.421,626.642,0.127791,375.123,-0.0277069,-0.0463385,-0.021758,0.148074,-0.124608,0.293417,7.49028e-05,0.000123551,0.243351,-0.021523002164766214,0.3410018716356209,7.490560528466972e-05,0.15959870349212935,0.00012355863273905143,-0.11715709081672887
275,0.263,224.149,626.857,-0.217378,375.281,0.0143264,-0.100303,-0.0218355,0.148577,-0.125034,0.29442,7.54034e-05,0.000122494,0.244192,-0.021598831193685553,0.34234757126842186,7.540624290780507e-05,0.160182128359039,0.00012250150269643711,-0.11753310180001508
276,0.264,224.914,627.545,0.299375,375.642,-0.048906,-0.0194922,-0.0219095,0.149078,-0.125457,0.295423,7.43253e-05,0.000123476,0.245031,-0.021671230201380953,0.3436946213150738,7.432806219354049e-05,0.160763525233103,0.0001234836234751402,-0.11790630635962451
277,0.265,224.31,627.614,-0.313481,375.732,0.026178,-0.116563,-0.0219881,0.14958,-0.125883,0.296424,7.52856e-05,0.000121806,0.245871,-0.021748123820728216,0.34504033304736526,7.528843403181718e-05,0.16134637480577263,0.0001218134186520281,-0.11828199824506214
278,0.266,225.389,628.437,0.460061,376.154,-0.069896,0.0037138,-0.0220609,0.15008,-0.126305,0.297426,7.37102e-05,0.000123382,0.246708,-0.021819337965087837,0.34638873889959365,7.37129166634709e-05,0.16192719318567006,0.00012338961187197128,-0.11865400474291099
279,0.267,224.361,628.315,-0.498704,376.159,0.0492667,-0.14717,-0.0221408,0.150583,-0.126731,0.298425,7.53167e-05,0.000120905,0.247548,-0.02189749147771003,0.34773445332218955,7.531953637385236e-05,0.16251178957750945,0.00012091230930399988,-0.11902937817667236
280,0.268,224.743,628.796,-0.316975,376.447,0.0214715,-0.114304,-0.022216,0.151083,-0.127154,0.299424,7.49891e-05,0.000120896,0.248385,-0.02197104202081579,0.3490815127852298,7.499191175286413e-05,0.16309319081049378,0.00012090330821590278,-0.11940194994521924
281,0.269,225.396,629.427,0.113622,376.784,-0.0279327,-0.0442437,-0.0222901,0.151582,-0.127576,0.300423,7.41792e-05,0.000121643,0.249221,-0.022043511281582773,0.3504299186330806,7.418195134478722e-05,0.16367371914248108,0.00012165039880973616,-0.11977348392315934
282,0.27,225.173,629.657,-0.187297,376.947,0.00853652,-0.0918898,-0.0223671,0.152082,-0.127999,0.301421,7.45859e-05,0.000120702,0.250057,-0.02211881103213653,0.3517783204324565,7.45886815973762e-05,0.1642557014855135,0.0001207092847794744,-0.12014574100153708
283,0.271,225.851,630.3,0.262061,377.285,-0.046757,-0.0223098,-0.022441,0.15258,-0.12842,0.302418,7.3619e-05,0.00012153,0.250892,-0.022191073781859694,0.35312671548116636,7.362170994507089e-05,0.16483564521885707,0.00012153738506959222,-0.12051608168239214
284,0.272,225.349,630.406,-0.264167,377.39,0.0179212,-0.106098,-0.0225188,0.15308,-0.128843,0.303414,7.44143e-05,0.000120072,0.251727,-0.022267144357135726,0.35447510107434277,7.441706881272658e-05,0.16541820867019275,0.00012007920893108981,-0.12088802470834459
285,0.273,226.283,631.159,0.39395,377.777,-0.0644514,-0.00445206,-0.0225917,0.153577,-0.129263,0.30441,7.30367e-05,0.000121378,0.25256,-0.022338418484338596,0.355824830328602,7.30393672447871e-05,0.16599756547814293,0.0001213853666075515,-0.12125717421114501
286,0.274,225.435,631.109,-0.413604,377.813,0.0365913,-0.131738,-0.0226706,0.154076,-0.129687,0.305404,7.43624e-05,0.000119266,0.253395,-0.02241555294012587,0.35717319023380245,7.436516495173962e-05,0.16657954345474568,0.00011927311247217354,-0.12162968219200687
287,0.275,226.782,632.042,0.581604,378.281,-0.0888668,0.022539,-0.022742,0.154572,-0.130104,0.306399,7.23484e-05,0.000121347,0.254225,-0.022485349977862112,0.3585242495986538,7.235101720870496e-05,0.16715831043064378,0.00012135436284510526,-0.12199588625567892
288,0.276,226.56,632.272,0.291028,378.439,-0.061422,-0.0355978,-0.0228184,0.155069,-0.130526,0.307392,7.23287e-05,0.000120491,0.255058,-0.02256002924433942,0.35987393418599845,7.233131578354701e-05,0.16773853228411495,0.00012049825933213576,-0.12236632582343276
289,0.277,226.36,632.546,0.036866,378.591,-0.0147734,-0.0709306,-0.022895,0.155566,-0.130947,0.308384,7.27647e-05,0.000119796,0.25589,-0.022634898278578786,0.36122359845150687,7.276734741501478e-05,0.16831904257951935,0.00011980317582738209,-0.12273573183483955
290,0.278,226.642,632.975,0.144239,378.852,-0.0370349,-0.0562829,-0.0229698,0.156062,-0.131366,0.309376,7.22454e-05,0.000119786,0.25672,-0.02270800245405724,0.36257460224826454,7.224800976168844e-05,0.16889867256099111,0.00011979317462929018,-0.12310322856725886
291,0.279,226.5,633.252,-0.0696717,379.021,-0.00289748,-0.0884551,-0.0230461,0.156559,-0.131786,0.310367,7.25766e-05,0.000119059,0.257551,-0.022782566988796882,0.3639255829794805,7.257923374504038e-05,0.1694797595894193,0.00011906608780409833,-0.12347144787979214
292,0.28,226.942,633.758,0.1735,379.31,-0.0385087,-0.0517797,-0.0231203,0.157054,-0.132205,0.311357,7.18893e-05,0.000119348,0.25838,-0.02285507383228913,0.36527653791898596,7.189188409761904e-05,0.1700587953699486,0.00011935512225580425,-0.12383863641176107
293,0.281,226.686,633.974,-0.137784,379.457,0.00496923,-0.0990506,-0.0231968,0.15755,-0.132625,0.312346,7.23691e-05,0.000118386,0.259209,-0.022929822559965674,0.3666274643379879,7.237171870655423e-05,0.17063928848284315,0.00011839300789895368,-0.12420654691785349
294,0.282,227.291,634.556,0.242818,379.776,-0.0460995,-0.0403211,-0.0232704,0.158044,-0.133042,0.313335,7.14606e-05,0.000119003,0.260037,-0.02300173227871516,0.3679797274841208,7.146315336958864e-05,0.17121772715394212,0.00011901008113790468,-0.124571676652948
295,0.283,226.846,634.682,-0.225413,379.885,0.0158993,-0.11236,-0.0233475,0.158539,-0.133462,0.314322,7.22156e-05,0.000117673,0.260865,-0.023077055941391866,0.3693305900161432,7.221820760916486e-05,0.17179762344137361,0.00011767992373901137,-0.12493927934678428
296,0.284,227.681,635.368,0.346285,380.247,-0.0585699,-0.0237323,-0.0234201,0.159032,-0.133878,0.31531,7.09667e-05,0.000118736,0.261691,-0.023147977972629685,0.3706841571911572,7.096921819571556e-05,0.1723754620952549,0.00011874304939785141,-0.12530322889982037
297,0.285,226.957,635.364,-0.35071,380.301,0.0319498,-0.131542,-0.023498,0.159527,-0.134298,0.316296,7.21422e-05,0.000116876,0.262518,-0.023224071781253297,0.3720363182760156,7.214480231110265e-05,0.17295593160334288,0.00011688283026578539,-0.12567052440622684
298,0.286,228.126,636.199,0.496534,380.726,-0.0773788,-3.83323e-05,-0.0235694,0.160018,-0.134712,0.317282,7.03848e-05,0.000118577,0.263342,-0.02329381109280504,0.3733898132492022,7.03872770682068e-05,0.17353199437759792,0.0001185840305304442,-0.12603242189117436
299,0.287,226.998,636.011,-0.531708,380.7,0.0553521,-0.159364,-0.0236486,0.160513,-0.135132,0.318266,7.21809e-05,0.000115953,0.264169,-0.02337116315978427,0.37474189394004265,7.218350510385108e-05,0.17411303651087873,0.00011595972280886713,-0.12639941120083031
300,0.288,227.418,636.484,-0.314604,380.982,0.0224917,-0.120188,-0.0237226,0.161005,-0.135548,0.31925,7.17964e-05,0.000116009,0.264993,-0.023443431019766647,0.3760953057330776,7.179897742326524e-05,0.17469084225339926,0.00011601572930430848,-0.12676275346533983
301,0.289,228.036,637.076,0.0919456,381.299,-0.0254966,-0.0537628,-0.0237958,0.161497,-0.135963,0.320233,7.10225e-05,0.000116675,0.265816,-0.023514912344367533,0.3774486724893955,7.102502215738937e-05,0.17526893234628949,0.00011668180679258455,-0.1271250717364104
302,0.29,227.859,637.304,-0.163165,381.458,0.00636321,-0.0933447,-0.0238716,0.161989,-0.13638,0.321216,7.13654e-05,0.000115835,0.26664,-0.02358892710881688,0.37880337025932054,7.136794657069956e-05,0.17584730692948436,0.00011584170913270242,-0.12748898470036996
303,0.291,228.453,637.886,0.221889,381.765,-0.0421976,-0.0336916,-0.0239447,0.16248,-0.136794,0.322198,7.05114e-05,0.000116491,0.267461,-0.0236603001495288,0.3801580201931727,7.051388598711128e-05,0.17642478971760966,0.00011649778534006394,-0.12785012949857255
304,0.292,228.053,638.015,-0.212444,381.879,0.0125417,-0.102144,-0.0240211,0.162971,-0.137211,0.323178,7.11619e-05,0.000115249,0.268284,-0.023734889653241997,0.3815112380213954,7.116443206811596e-05,0.1770025561194053,0.00011525564142123024,-0.12821374017647635
305,0.293,228.826,638.674,0.318053,382.221,-0.0554795,-0.0205591,-0.0240935,0.163461,-0.137624,0.324159,7.00122e-05,0.000116235,0.269104,-0.02380556868861916,0.3828671655195912,7.001465091116543e-05,0.17757942869414234,0.00011624175554936222,-0.12857371356216263
306,0.294,228.18,638.692,-0.314943,382.285,0.0256266,-0.119564,-0.0241706,0.163952,-0.13804,0.325138,7.10433e-05,0.000114536,0.269926,-0.0238808303778979,0.3842216553892428,7.104582363504086e-05,0.17815776216287893,0.00011454255949816528,-0.12893615150500182
307,0.295,229.233,639.473,0.444631,382.68,-0.0724574,-0.00250742,-0.0242419,0.16444,-0.138452,0.326118,6.94525e-05,0.000116043,0.270744,-0.02395042519360724,0.38557885753195276,6.94549118807064e-05,0.17873284345923812,0.00011604973324930157,-0.12929495589180262
308,0.296,228.248,639.338,-0.464445,382.677,0.0449541,-0.14392,-0.0243201,0.164932,-0.138869,0.327094,7.10128e-05,0.000113711,0.271565,-0.0240267492860462,0.38693184264623803,7.101532146847056e-05,0.1793129227060133,0.00011371746534072358,-0.1296579642027027
309,0.297,228.632,639.791,-0.270024,382.946,0.0147701,-0.110023,-0.0243937,0.16542,-0.139282,0.328072,7.06285e-05,0.000113743,0.272384,-0.02409857827395956,0.38828892549368943,7.063099425130837e-05,0.1798885678582871,0.00011374946898023985,-0.13001734124701914
310,0.298,229.176,640.344,0.0797103,383.241,-0.0259621,-0.0530968,-0.0244667,0.165908,-0.139694,0.329049,6.99452e-05,0.000114292,0.273201,-0.02416981647751948,0.3896459465707498,6.994764622247907e-05,0.1804644939939497,0.00011429853157940428,-0.13037570027539636
311,0.299,229.047,640.585,-0.132673,383.404,0.000228614,-0.0864993,-0.0245418,0.166397,-0.140108,0.330024,7.0193e-05,0.000113558,0.274019,-0.024243098572524935,0.39100151209946543,7.019546358622009e-05,0.1810418822914459,0.0001135644479537401,-0.13073565022070255
312,0.3,229.557,641.122,0.186797,383.689,-0.0401344,-0.0374948,-0.0246147,0.166884,-0.140519,0.331,6.94527e-05,0.000114064,0.274835,-0.02431422865791588,0.3923597923081943,6.945511189471176e-05,0.181617189764121,0.00011407050554534948,-0.13109284446001757
313,0.301,229.249,641.285,-0.167706,383.815,0.00461983,-0.093693,-0.0246903,0.167372,-0.140933,0.331973,6.99472e-05,0.000113013,0.275652,-0.02438798771410189,0.39371521769362516,6.994964636253265e-05,0.18219395967313745,0.00011301938620955632,-0.13145249756908062
314,0.302,229.893,641.878,0.260322,384.126,-0.0506454,-0.0283722,-0.0247627,0.167859,-0.141343,0.332947,6.89796e-05,0.000113761,0.276467,-0.024458619466891096,0.39507335762243456,6.898197914728676e-05,0.18276982834413813,0.00011376747102787022,-0.1318085290536355
315,0.303,229.4,641.957,-0.243975,384.215,0.0144248,-0.107387,-0.0248388,0.168347,-0.141757,0.33392,6.97657e-05,0.000112367,0.277283,-0.024532855341238835,0.39643142459183833,6.976813368297918e-05,0.18334716087805103,0.00011237331340785417,-0.13216788593060103
316,0.304,230.253,642.64,0.353895,384.565,-0.0634543,-0.0157959,-0.0249103,0.168832,-0.142166,0.334892,6.84669e-05,0.000113498,0.278096,-0.02460259874872539,0.3977894158133579,6.846924391168407e-05,0.18392122344999784,0.00011350444114177627,-0.1325227566892384
317,0.305,229.51,642.605,-0.353122,384.605,0.0286746,-0.125737,-0.0249872,0.169319,-0.142579,0.335863,6.96459e-05,0.000111639,0.278911,-0.024677603924895597,0.39914732849602874,6.96483253319613e-05,0.1844979335033179,0.00011164523186502073,-0.13288095081854667
318,0.306,230.654,643.416,0.482377,385.011,-0.080651,0.00259308,-0.0250577,0.169803,-0.142987,0.336834,6.78896e-05,0.000113308,0.279722,-0.024746361730077826,0.4005065603522697,6.78919045511428e-05,0.18507136926339318,0.00011331441959394617,-0.1332346632283744
319,0.307,229.568,643.225,-0.503887,384.982,0.0485694,-0.150102,-0.0251356,0.17029,-0.143401,0.337803,6.96084e-05,0.000110812,0.280537,-0.024822331029456413,0.4018643089321985,6.961082272094465e-05,0.1856486395741359,0.0001108181398765673,-0.1335934298079916
320,0.308,229.984,643.682,-0.280275,385.251,0.0144889,-0.111333,-0.0252086,0.170775,-0.14381,0.338772,6.9176e-05,0.000110906,0.281348,-0.024893516400993576,0.4032233738081439,6.917839271469717e-05,0.18622381863397663,0.00011091215029779278,-0.13394771763839997
321,0.309,230.526,644.223,0.069908,385.539,-0.0272215,-0.0546358,-0.0252809,0.171259,-0.144219,0.339741,6.8479e-05,0.000111447,0.282159,-0.02496401405123705,0.40458375625621446,6.848134474024548e-05,0.1867980899246373,0.00011145321044758738,-0.1343018605947145
322,0.31,230.41,644.461,-0.127264,385.698,-0.00236101,-0.0855115,-0.0253554,0.171743,-0.144629,0.340709,6.87012e-05,0.000110751,0.28297,-0.025036651526410658,0.40594405160900204,6.870355998156441e-05,0.18737263922987668,0.00011075713311847757,-0.13465672407988516
323,0.311,230.894,644.977,0.174248,385.972,-0.0410408,-0.0395018,-0.0254278,0.172226,-0.145037,0.341676,6.79823e-05,0.000111211,0.283779,-0.02510723631763989,0.407304257060251,6.79846108488924e-05,0.18794627873741376,0.00011121718417261839,-0.1350097121220033
324,0.312,230.615,645.142,-0.153025,386.098,0.000912958,-0.0912634,-0.0255028,0.17271,-0.145447,0.342642,6.84281e-05,0.000110228,0.284589,-0.02518035053309875,0.40866436980125864,6.84304412559289e-05,0.1885213839005453,0.00011023407532917417,-0.13536428544753465
325,0.313,231.21,645.704,0.237632,386.392,-0.0501655,-0.0319868,-0.0255747,0.173193,-0.145854,0.343608,6.75191e-05,0.000110885,0.285397,-0.025250437546237015,0.4100257970459773,6.752137946564041e-05,0.18909557838577484,0.00011089114796880573,-0.13571612058005122
326,0.314,230.774,645.798,-0.215784,386.486,0.00912386,-0.102863,-0.0256501,0.173676,-0.146264,0.344572,6.82124e-05,0.000109614,0.286206,-0.02532393089251206,0.41138571729057327,6.821472651874494e-05,0.18967005027392791,0.0001096200078340992,-0.1360704043374802
327,0.315,231.54,646.433,0.314309,386.813,-0.0607434,-0.0220749,-0.0257213,0.174157,-0.14667,0.345536,6.70295e-05,0.000110583,0.287013,-0.0253933253581603,0.4127469491303726,6.70317465272241e-05,0.19024241921180396,0.00011058911452543896,-0.136421088559605
328,0.316,230.901,646.434,-0.303673,386.867,0.0207928,-0.11791,-0.0257973,0.17464,-0.147079,0.346499,6.80448e-05,0.000108937,0.287821,-0.025467392650840304,0.4141080797215757,6.804711510000061e-05,0.19081744515787014,0.0001089429338505532,-0.1367742201140585
329,0.317,231.901,647.172,0.416294,387.238,-0.0745018,-0.00784663,-0.0258677,0.17512,-0.147484,0.347462,6.64937e-05,0.000110333,0.288626,-0.025535997331484594,0.4154705217128758,6.64959107550267e-05,0.19138917473566752,0.00011033908690927241,-0.13712375576916447
330,0.318,230.991,647.05,-0.421616,387.239,0.0366099,-0.137181,-0.0259445,0.175603,-0.147894,0.348423,6.7938e-05,0.000108188,0.289433,-0.025610833293151836,0.41683144270204053,6.794030783807692e-05,0.191964754698436,0.00010819385253268976,-0.13747746251446147
331,0.319,232.302,647.926,0.552272,387.669,-0.0926564,0.0119433,-0.0260137,0.176082,-0.148297,0.349385,6.58962e-05,0.000110156,0.290236,-0.0256782586905423,0.41819509035927815,6.58983712022998e-05,0.19253584258056522,0.0001101620673948922,-0.13782498906576468
332,0.32,231.032,647.639,-0.578399,387.599,0.0577678,-0.162074,-0.0260916,0.176565,-0.148707,0.350344,6.79109e-05,0.000107347,0.291043,-0.025754155397975098,0.41955579180299063,6.791320599730533e-05,0.19311197651767698,0.00010735276189532961,-0.1381784083643407
333,0.321,231.507,648.11,-0.304736,387.872,0.0169432,-0.114784,-0.0261637,0.177045,-0.149112,0.351304,6.74072e-05,0.000107542,0.291846,-0.02582439599116715,0.42091921970380275,6.740947191641311e-05,0.19368480773489916,0.00010754778284827182,-0.1385273754383507
334,0.322,232.06,648.644,0.0578034,388.156,-0.0276884,-0.0565154,-0.0262353,0.177524,-0.149517,0.352264,6.66765e-05,0.000108097,0.292649,-0.025894144467388913,0.4222839571238681,6.66787229273158e-05,0.19425671971978953,0.00010810284269124892,-0.13887620120931154
335,0.323,231.956,648.876,-0.125571,388.31,-0.0038318,-0.0850076,-0.0263091,0.178003,-0.149922,0.353222,6.68825e-05,0.000107436,0.293452,-0.025966030826887865,0.42364715802376574,6.688473668425843e-05,0.1948289057161412,0.00010744177145372014,-0.13922488573443925
336,0.324,232.422,649.372,0.163668,388.573,-0.04174,-0.0411358,-0.0263809,0.178482,-0.150327,0.354179,6.61753e-05,0.000107864,0.294254,-0.02603596395524521,0.42501024048492075,6.617748963355652e-05,0.19540136585523715,0.00010786981753030389,-0.13957342907092707
337,0.325,232.164,649.536,-0.141634,388.696,-0.00186467,-0.0892514,-0.0264551,0.178961,-0.150732,0.355136,6.65858e-05,0.000106936,0.295056,-0.026108229405638395,0.42637462804037907,6.658801688352867e-05,0.195974100268423,0.00010694171785785578,-0.1399218312759446
338,0.326,232.717,650.069,0.218381,388.975,-0.0496959,-0.0350047,-0.0265265,0.179438,-0.151135,0.356092,6.57245e-05,0.000107518,0.295856,-0.026177762795687176,0.4277388942001057,6.572665990223214e-05,0.19654471599528245,0.00010752378026723797,-0.14026837294510397
339,0.327,232.328,650.173,-0.192175,389.073,0.00481832,-0.098989,-0.0266011,0.179917,-0.151541,0.357047,6.63424e-05,0.000106353,0.296657,-0.026250407224911787,0.4291030361181549,6.634460070564785e-05,0.19711799820437226,0.00010635865568087155,-0.14061735313791535
340,0.328,233.02,650.765,0.280158,389.378,-0.0583183,-0.0274562,-0.0266719,0.180394,-0.151943,0.358002,6.52588e-05,0.000107183,0.297456,-0.02631934625560972,0.43046848141399985,6.526092940184469e-05,0.1976891597007029,0.0001071887443029329,-0.14096275553142135
341,0.329,232.469,650.794,-0.26142,389.443,0.0141471,-0.111169,-0.026747,0.180872,-0.152348,0.358956,6.61354e-05,0.000105721,0.298256,-0.026392466926990377,0.43183379949844536,6.613758699369754e-05,0.19826179196724847,0.00010572658866192519,-0.14131059517314914
342,0.33,233.343,651.466,0.359193,389.782,-0.0690962,-0.0168367,-0.026817,0.181347,-0.152749,0.35991,6.47621e-05,0.000106882,0.299053,-0.026460617069022696,0.43320042071783993,6.476419711010095e-05,0.19883110151874717,0.00010688771208444692,-0.14165486059465449
343,0.331,232.584,651.399,-0.351256,389.806,0.0263944,-0.126106,-0.0268927,0.181825,-0.153154,0.360861,6.59713e-05,0.000105038,0.299852,-0.026534311210952066,0.434564042617384,6.597347615411309e-05,0.19940427976396013,0.00010504351668383372,-0.14200241999058527
344,0.332,233.693,652.176,0.460914,390.189,-0.082812,-0.00240932,-0.0269619,0.1823,-0.153554,0.361814,6.4225e-05,0.000106627,0.300648,-0.02660167270588165,0.4359318337989764,6.422706246955734e-05,0.19997413212606974,0.00010663268486066357,-0.14234555039193364
345,0.333,232.666,651.986,-0.466584,390.161,0.0422233,-0.144613,-0.0270383,0.182777,-0.15396,0.362764,6.58612e-05,0.000104294,0.301447,-0.02667603749731573,0.4372966172105628,6.586336889635724e-05,0.2005466563232594,0.0001042994388082974,-0.14269368742187538
346,0.334,234.078,652.897,0.59118,390.602,-0.100316,0.0166441,-0.0271064,0.183251,-0.154358,0.363716,6.36365e-05,0.000106433,0.302241,-0.026742318602264947,0.4386655751107167,6.363852484492227e-05,0.20111585032667834,0.00010643866419268733,-0.14303482744291407
347,0.335,233.768,653.034,0.251222,390.71,-0.0615418,-0.0459484,-0.0271801,0.183726,-0.154761,0.364665,6.37856e-05,0.000105474,0.303037,-0.026814045050231883,0.440031516778304,6.37876343445587e-05,0.2016865158779222,0.0001054795625778926,-0.14338011482737345
348,0.336,233.634,653.274,0.0658067,390.844,-0.0247534,-0.070501,-0.0272534,0.184201,-0.155163,0.365614,6.40735e-05,0.000104924,0.303832,-0.026885376966383046,0.44139875533981265,6.407555275056431e-05,0.2022574525596914,0.00010492950471530094,-0.14372440681388698
349,0.337,233.783,653.596,0.0868886,391.044,-0.0338113,-0.0685245,-0.0273256,0.184675,-0.155564,0.366562,6.37526e-05,0.000104711,0.304627,-0.026955633305881688,0.4427658492600086,6.375463224017608e-05,0.20282745767274424,0.00010471648238818965,-0.14406770449097017
350,0.338,233.767,653.869,-0.00902036,391.207,-0.0157762,-0.0821196,-0.0273984,0.18515,-0.155965,0.36751,6.38431e-05,0.000104256,0.305421,-0.027026468357349898,0.4441342397997414,6.384513801416247e-05,0.2033989364305988,0.00010426143484565387,-0.14441086453328245
351,0.339,233.998,654.232,0.0814692,391.419,-0.0308057,-0.0687663,-0.0274703,0.185623,-0.156365,0.368457,6.34636e-05,0.00010419,0.306214,-0.027096422639388384,0.4455024826855838,6.346561385695004e-05,0.20396827876637813,0.00010419542796658021,-0.14475303174946363
352,0.34,233.965,654.49,-0.0316617,391.579,-0.013033,-0.0850204,-0.027543,0.186096,-0.156765,0.369403,6.35613e-05,0.000103689,0.307007,-0.02716715015848603,0.4468705750398607,6.35633200622987e-05,0.20453789046478144,0.00010369437589008434,-0.1450950621261281
353,0.341,234.236,654.875,0.0955818,391.798,-0.0315271,-0.0656078,-0.0276146,0.186569,-0.157164,0.370348,6.31381e-05,0.000103713,0.307798,-0.027236802496951262,0.4482385139826235,6.314009325181225e-05,0.20510777165324723,0.00010371837837919173,-0.1454361011545291
354,0.342,234.164,655.11,-0.0506926,391.95,-0.0103947,-0.0872525,-0.0276874,0.187042,-0.157564,0.371293,6.32874e-05,0.000103135,0.30859,-0.027307617080047364,0.4496077462386816,6.328940268973682e-05,0.20567792245927508,0.00010314031859692818,-0.1457778583580699
355,0.343,234.48,655.516,0.114882,392.176,-0.0334341,-0.0619265,-0.0277588,0.187514,-0.157963,0.372237,6.28019e-05,0.000103249,0.309381,-0.02737706483687341,0.45097682205324596,6.280387208068561e-05,0.2062471367626837,0.00010325433036140197,-0.14611862500511807
356,0.344,234.358,655.726,-0.0726445,392.317,-0.00723106,-0.0900717,-0.0278316,0.187986,-0.158362,0.37318,6.30263e-05,0.000102578,0.310171,-0.027447869209242914,0.45234573853912297,6.302828619886292e-05,0.20681661979865962,0.00010258326130285766,-0.1464592557133957
357,0.345,234.729,656.156,0.138649,392.552,-0.0362371,-0.0577874,-0.0279027,0.188457,-0.15876,0.374123,6.24573e-05,0.000102797,0.31096,-0.02751701520757277,0.45371594652209124,6.245925049785939e-05,0.20738516430830622,0.00010280228379255796,-0.14679889733645535
358,0.346,234.545,656.336,-0.0992903,392.681,-0.00341084,-0.0937283,-0.0279756,0.188929,-0.159159,0.375065,6.27783e-05,0.000102013,0.31175,-0.027587906633140258,0.45508599213388745,6.278027059880564e-05,0.20795518462007068,0.00010201820350297375,-0.14713925667021555
359,0.347,234.983,656.796,0.167801,392.928,-0.0399569,-0.0529923,-0.0280464,0.189399,-0.159556,0.376007,6.21028e-05,0.000102357,0.312538,-0.02765675097223219,0.45645732893670554,6.210472841883252e-05,0.20852305699639695,0.00010236223865645044,-0.1474777751849462
360,0.348,234.723,656.94,-0.131864,393.042,0.00120506,-0.0983846,-0.0281195,0.18987,-0.159955,0.376947,6.25447e-05,0.000101436,0.313326,-0.02772782666588791,0.4578270424904196,6.25466559605048e-05,0.20909240542727225,0.00010144114480503674,-0.14781786370047667
361,0.349,235.244,657.436,0.20352,393.304,-0.0446973,-0.0473185,-0.0281899,0.190339,-0.160351,0.377887,6.17365e-05,0.000101933,0.314113,-0.027796272217578966,0.4591980441802035,6.17384057368664e-05,0.20965960276279616,0.00010193819534487503,-0.14815526101737342
362,0.35,234.891,657.536,-0.171638,393.398,0.00678781,-0.104208,-0.0282632,0.19081,-0.16075,0.378826,6.23273e-05,0.000100844,0.314901,-0.027867532139117412,0.4605688746478691,6.232924238647186e-05,0.2102294866328136,0.00010084908492702382,-0.14849507926997785
363,0.351,235.514,658.077,0.247143,393.679,-0.0506156,-0.0405271,-0.0283331,0.191278,-0.161145,0.379765,6.13556e-05,0.000101528,0.315686,-0.027935481823751718,0.4619409929298781,6.135748229341154e-05,0.2107960065878871,0.00010153315414185293,-0.14883135729438401
364,0.352,235.046,658.124,-0.220042,393.751,0.0135445,-0.111392,-0.0284067,0.191748,-0.161543,0.380702,6.21288e-05,0.000100234,0.316473,-0.028007023139536735,0.463311473610182,6.213073003391578e-05,0.21136521446435608,0.00010023902359512782,-0.1491700550088647
365,0.353,235.794,658.721,0.3002,394.055,-0.0578903,-0.0323731,-0.0284761,0.192216,-0.161938,0.38164,6.09571e-05,0.000101143,0.317257,-0.028074477111450946,0.4646847037166626,6.095895792168626e-05,0.21193226606445004,0.0001011481151256266,-0.14950606647050368
366,0.354,235.188,658.703,-0.278666,394.1,0.0216943,-0.12015,-0.0285501,0.192685,-0.162335,0.382576,6.19519e-05,9.96021e-05,0.318042,-0.028146396939078278,0.4660562904017733,6.195381905849118e-05,0.21250079560699087,9.960706045375467e-05,-0.14984364554823426
367,0.355,236.086,659.367,0.364352,394.431,-0.0667497,-0.0225822,-0.0286189,0.193152,-0.162729,0.383512,6.05378e-05,0.000100784,0.318825,-0.028213258166916222,0.4674291614930295,6.0539632449563285e-05,0.21306716571566642,0.00010078907887800526,-0.1501785411731178
368,0.356,235.314,659.272,-0.34927,394.443,0.0315121,-0.130743,-0.0286934,0.193621,-0.163126,0.384447,6.18003e-05,9.89443e-05,0.31961,-0.02828565358242008,0.4688018493906143,6.180220967788586e-05,0.21363622765098,9.894919514863432e-05,-0.1505158533313784
369,0.357,236.394,660.017,0.441511,394.808,-0.077456,-0.0108518,-0.0287615,0.194087,-0.163519,0.385382,6.00937e-05,0.000100454,0.320391,-0.02835182507624623,0.47017582135158964,6.009550566266064e-05,0.2142019139277309,0.00010045904567190789,-0.15084963500862358
370,0.358,235.422,659.829,-0.433883,394.781,0.043282,-0.143453,-0.0288365,0.194555,-0.163916,0.386315,6.1678e-05,9.82561e-05,0.321175,-0.028424695956673296,0.4715481354779021,6.167990212690988e-05,0.21477029341387488,9.826092728859592e-05,-0.15118668079550968
371,0.359,236.718,660.672,0.533827,395.186,-0.0903011,0.00315197,-0.0289037,0.19502,-0.164308,0.387249,5.96206e-05,0.000100158,0.321954,-0.028489983623414927,0.47292320349323913,5.9622377343249156e-05,0.2153352929525243,0.00010016301598003707,-0.15151935040913356
372,0.36,235.508,660.375,-0.534745,395.114,0.057335,-0.158602,-0.0289795,0.195488,-0.164705,0.38818,6.15896e-05,9.75328e-05,0.322737,-0.02856362129175327,0.4742951335300287,6.159149667839259e-05,0.21590420298418977,9.753755647823326e-05,-0.15185613037177526
373,0.361,235.983,660.819,-0.250367,395.367,0.0136931,-0.110943,-0.0290496,0.195954,-0.165098,0.389112,6.10411e-05,9.77612e-05,0.323517,-0.028631716595132528,0.4756698170975142,6.104296304587642e-05,0.21647094638373665,9.776597878174975e-05,-0.15218938542363225
374,0.362,236.421,661.272,0.0261448,395.608,-0.0209976,-0.066371,-0.0291196,0.196419,-0.165491,0.390043,6.0471e-05,9.81121e-05,0.324297,-0.028699709995174127,0.4770443054222677,6.04728284077094e-05,0.21703673690990755,9.811691314953741e-05,-0.15252250953198587
375,0.363,236.404,661.512,-0.07608,395.762,-0.0077019,-0.0819741,-0.0291912,0.196884,-0.165884,0.390973,6.05382e-05,9.7634e-05,0.325076,-0.02876925260628327,0.47841859557217825,6.0540032473799243e-05,0.21760279058985166,9.763876635404678e-05,-0.15285550274828696
376,0.364,236.722,661.912,0.101517,395.978,-0.0317463,-0.0553003,-0.0292615,0.197349,-0.166276,0.391903,6.0055e-05,9.77929e-05,0.325855,-0.02883752772792636,0.4797941644064243,6.0056803337538156e-05,0.21816910754596397,9.779768188145077e-05,-0.15318751831190758
377,0.365,236.616,662.113,-0.0697016,396.113,-0.00893652,-0.0821231,-0.0293332,0.197813,-0.16667,0.392832,6.02339e-05,9.71703e-05,0.326633,-0.02890715758092821,0.48116953194446266,6.0235714097744975e-05,0.21873446916561767,9.717502118644639e-05,-0.1535210967104329
378,0.366,236.956,662.52,0.124715,396.332,-0.0357555,-0.0533451,-0.0294034,0.198277,-0.167061,0.39376,5.97011e-05,9.73628e-05,0.32741,-0.02897532590572982,0.48254469524719057,5.970288214607322e-05,0.2193000931739324,9.736753991118619e-05,-0.15385200526478093
379,0.367,236.801,662.698,-0.0851337,396.457,-0.00710193,-0.08582,-0.0294752,0.198741,-0.167454,0.394688,5.99592e-05,9.6655e-05,0.328188,-0.02904504297445709,0.4839211352937809,5.996099758887041e-05,0.21986597969268473,9.665967124505848e-05,-0.1541844760919152
380,0.368,237.185,663.123,0.144703,396.684,-0.0390467,-0.0516529,-0.0295451,0.199205,-0.167845,0.395615,5.93512e-05,9.69224e-05,0.328964,-0.029112910353960686,0.48529736797149137,5.9352961317316044e-05,0.22043212884370766,9.692709712760816e-05,-0.1545151253156275
381,0.369,236.978,663.277,-0.105902,396.799,-0.00445206,-0.0900518,-0.029617,0.199668,-0.168237,0.396541,5.96926e-05,9.61241e-05,0.32974,-0.02918271462621258,0.48667339033426127,5.969438163866414e-05,0.2209973197509607,9.612872006936612e-05,-0.15484649043469723
382,0.37,237.416,663.724,0.167259,397.035,-0.0425374,-0.0492701,-0.0296866,0.20013,-0.168628,0.397467,5.89964e-05,9.64847e-05,0.330515,-0.029250281157931934,0.4880506874838746,5.899814032184203e-05,0.22156155084003126,9.648935479833476e-05,-0.15517688086139958
383,0.371,237.151,663.85,-0.130335,397.138,-0.00119735,-0.0945799,-0.0297586,0.200593,-0.169019,0.398392,5.94333e-05,9.55821e-05,0.33129,-0.02932017262156572,0.48942777117281433,5.9435066193547215e-05,0.22212726479074374,9.558666811448902e-05,-0.15550714213069716
384,0.372,237.651,664.324,0.193304,397.385,-0.0463973,-0.0461254,-0.0298279,0.201055,-0.169409,0.399316,5.86357e-05,9.60522e-05,0.332064,-0.029387438402816768,0.49080463844809774,5.863741910627773e-05,0.22269201803503136,9.605681316027237e-05,-0.15583643012993253
385,0.373,237.318,664.417,-0.158522,397.475,0.00266729,-0.0994695,-0.0299,0.201517,-0.1698,0.400239,5.91824e-05,9.50298e-05,0.332838,-0.029457417045747558,0.4921812863546604,5.9184151312674516e-05,0.22325703225559845,9.503431547441821e-05,-0.15616643356587578
386,0.374,237.889,664.923,0.223243,397.734,-0.0507267,-0.0422168,-0.029969,0.201978,-0.170189,0.401163,5.82685e-05,9.56266e-05,0.333611,-0.029524382173647945,0.49356069905377664,5.8270197641929755e-05,0.2238210837513488,9.563117236899288e-05,-0.1564946209866268
387,0.375,237.479,664.979,-0.190785,397.809,0.00717111,-0.104812,-0.0300413,0.20244,-0.17058,0.402085,5.89409e-05,9.44672e-05,0.334384,-0.029594545024399177,0.49493839703947917,5.89426370489754e-05,0.22438661972079155,9.447166216647318e-05,-0.15682436712025094
388,0.376,238.132,665.521,0.257441,398.083,-0.0556083,-0.0375342,-0.0301099,0.2029,-0.170968,0.403007,5.7894e-05,9.52089e-05,0.335155,-0.029661112555318114,0.49631736584848385,5.78956758898741e-05,0.2249499671258326,9.521343251117642e-05,-0.1571514558064997
389,0.377,237.634,665.535,-0.227483,398.14,0.0123517,-0.110697,-0.0301824,0.203361,-0.171359,0.403927,5.87097e-05,9.38938e-05,0.335928,-0.029731459574547592,0.49769461126081227,5.871142344826552e-05,0.2255147992444777,9.389820816085859e-05,-0.15748094516791156
390,0.378,238.379,666.118,0.29627,398.431,-0.0611166,-0.0320558,-0.0302506,0.20382,-0.171746,0.404848,5.75116e-05,9.48005e-05,0.336698,-0.029797629632579925,0.4990746233958232,5.7513253823859856e-05,0.22607743965342664,9.480499370950746e-05,-0.15780693695865144
391,0.379,237.782,666.086,-0.268981,398.469,0.0182507,-0.117203,-0.0303234,0.204281,-0.172136,0.405767,5.84898e-05,9.33094e-05,0.337469,-0.0298682577942464,0.5004529061986682,5.849151056169788e-05,0.2266427916567313,9.331375345755788e-05,-0.15813532821278065
392,0.38,238.632,666.716,0.340094,398.779,-0.0673198,-0.0257522,-0.0303911,0.20474,-0.172523,0.406687,5.71207e-05,9.44024e-05,0.338238,-0.02993393349004636,0.5018339580588165,5.712233141830225e-05,0.22720594993303878,9.440685604689136e-05,-0.15846106680627892
393,0.381,237.922,666.63,-0.315637,398.795,0.024912,-0.124402,-0.0304641,0.2052,-0.172913,0.407604,5.82819e-05,9.27133e-05,0.339008,-0.030004745728223425,0.5032117714292377,5.828359842285913e-05,0.2277705945283084,9.271759801077195e-05,-0.15878920299950772
394,0.382,238.891,667.313,0.389269,399.126,-0.0742806,-0.0185893,-0.0305314,0.205657,-0.173298,0.408523,5.67205e-05,9.40156e-05,0.339775,-0.030070024212190294,0.5045938580186977,5.672210863805205e-05,0.22833181391887103,9.40200196051233e-05,-0.15911300682011775
395,0.383,238.055,667.168,-0.36779,399.118,0.0323796,-0.132359,-0.0306048,0.206117,-0.173688,0.409439,5.80868e-05,9.21052e-05,0.340545,-0.030141214459699084,0.5059726974046712,5.808848707089531e-05,0.22889697653070873,9.210944181425873e-05,-0.15944088880631468
396,0.384,239.156,667.91,0.444124,399.472,-0.0820555,-0.0105316,-0.0306715,0.206574,-0.174073,0.410356,5.63103e-05,9.36409e-05,0.341311,-0.030205901883345043,0.5073543077397149,5.631188545462962e-05,0.2294587107954864,9.364528444599785e-05,-0.159764441776181
397,0.385,238.18,667.7,-0.425748,399.438,0.0406954,-0.141128,-0.0307452,0.207033,-0.174462,0.411271,5.79052e-05,9.14846e-05,0.34208,-0.03027737307463052,0.5087341681211501,5.79068765385049e-05,0.23002316187535432,9.148878484355194e-05,-0.1600912298439301
398,0.386,239.427,668.508,0.504954,399.819,-0.0906947,-0.00154521,-0.0308113,0.207489,-0.174846,0.412187,5.58896e-05,9.32792e-05,0.342844,-0.03034146962185602,0.5101168017686841,5.5891161852894555e-05,0.230584180339658,9.328355063975557e-05,-0.16041369289480178
399,0.387,238.297,668.226,-0.489778,399.755,0.0498975,-0.150754,-0.0308855,0.207948,-0.175235,0.4131,5.77378e-05,9.08512e-05,0.343612,-0.030413415615580752,0.5114961679935641,5.773946685883047e-05,0.23114914812862253,9.085532709529609e-05,-0.16074022845298208
400,0.388,239.705,669.107,0.572011,400.165,-0.10024,0.00840005,-0.030951,0.208403,-0.175618,0.414015,5.54578e-05,9.29311e-05,0.344375,-0.030476921457018857,0.512879819911495,5.545933781214707e-05,0.23170944844967778,9.293541822841256e-05,-0.16106160339825404
401,0.389,238.405,668.745,-0.560098,400.069,0.0600177,-0.161273,-0.0310257,0.208861,-0.176007,0.414927,5.75849e-05,9.02045e-05,0.345142,-0.030549342126040435,0.5142601956629205,5.758655804211088e-05,0.23227370058094254,9.020856854813353e-05,-0.16138788696826323
402,0.39,238.918,669.19,-0.239503,400.316,0.0105321,-0.108675,-0.0310942,0.209317,-0.176392,0.415839,5.69547e-05,9.05142e-05,0.345906,-0.030615747221704237,0.5156418308912651,5.695632194968603e-05,0.23283574552491548,9.051829653383692e-05,-0.1617106904881156
403,0.391,239.311,669.606,0.00630591,400.537,-0.0210892,-0.0693849,-0.031163,0.209772,-0.176776,0.416751,5.64284e-05,9.07917e-05,0.346669,-0.030682438564086922,0.5170247267456964,5.642999211219468e-05,0.23339681342239627,9.079582169113642e-05,-0.16203253178548427
404,0.392,239.335,669.847,-0.0562153,400.687,-0.0128958,-0.0789263,-0.031233,0.210228,-0.177161,0.417662,5.64177e-05,9.04064e-05,0.347433,-0.030750288418614824,0.5184073659683042,5.641929150845826e-05,0.23395937062261063,9.041048678182229e-05,-0.16235508716485214
405,0.393,239.588,670.2,0.0740383,400.878,-0.0309629,-0.0596812,-0.0313022,0.210683,-0.177546,0.418573,5.60183e-05,9.04576e-05,0.348195,-0.030817358178015786,0.5197912653491585,5.601986905423573e-05,0.23452094988583783,9.046169141213589e-05,-0.16267751838430122
406,0.394,239.542,670.411,-0.0413182,401.014,-0.0153284,-0.0778495,-0.0313723,0.211138,-0.17793,0.419483,5.60894e-05,8.9965e-05,0.348957,-0.03088529549997654,0.5211749048611216,5.609097303982402e-05,0.23508278472576927,8.996904697200492e-05,-0.1629989884910309
407,0.395,239.795,670.761,0.0873793,401.205,-0.033505,-0.0592244,-0.0314414,0.211592,-0.178314,0.420392,5.56791e-05,9.00093e-05,0.349719,-0.030952259012441585,0.5225582814990675,5.5680650109968255e-05,0.235643639614461,9.00133509584844e-05,-0.163320335176938
408,0.396,239.725,670.961,-0.0459579,401.336,-0.0149118,-0.0799096,-0.0315116,0.212046,-0.178698,0.4213,5.57884e-05,8.94776e-05,0.35048,-0.031020283776161728,0.5239413922559253,5.5789956201701685e-05,0.23620474918908174,8.948160323996035e-05,-0.16364155848940687
409,0.397,239.993,671.316,0.0952893,401.529,-0.0350123,-0.0593454,-0.0315805,0.2125,-0.179081,0.422208,5.53493e-05,8.95465e-05,0.35124,-0.03108704417868724,0.5253257594476854,5.535083180085998e-05,0.23676611356528476,8.955050940739895e-05,-0.16396182243804425
410,0.398,239.904,671.505,-0.0533808,401.656,-0.0140262,-0.0821109,-0.0316506,0.212954,-0.179465,0.423115,5.54916e-05,8.89808e-05,0.352,-0.031154962596322,0.5267098575050879,5.54931396872238e-05,0.2373277328587764,8.898475890872781e-05,-0.16428279946669444
411,0.399,240.191,671.868,0.103115,401.852,-0.0363564,-0.059175,-0.0317194,0.213406,-0.179847,0.424022,5.50205e-05,8.90808e-05,0.352759,-0.031221616841963007,0.5280952115089139,5.502201365548132e-05,0.23788713140857687,8.908476781233077e-05,-0.16460198246946323
412,0.4,240.082,672.046,-0.0615984,401.974,-0.0129395,-0.0841775,-0.0317895,0.21386,-0.18023,0.424928,5.5197e-05,8.84797e-05,0.353519,-0.03128952582638467,0.529480293117766,5.5198523382538056e-05,0.23844925975971676,8.848361444413477e-05,-0.16492187864614916
413,0.401,240.389,672.417,0.111382,402.174,-0.0376507,-0.058704,-0.0318581,0.214312,-0.180612,0.425833,5.46925e-05,8.8614e-05,0.354277,-0.03135597708560878,0.5308650993133253,5.469399566204736e-05,0.23900916535425987,8.861792633640952e-05,-0.16524081756729403
414,0.402,240.258,672.584,-0.0703241,402.291,-0.0117061,-0.0861213,-0.0319281,0.214764,-0.180995,0.426738,5.49047e-05,8.79755e-05,0.355035,-0.03142377979409028,0.532251159325758,5.49062072905393e-05,0.23956932408333587,8.797936995774691e-05,-0.16556046911698652
415,0.403,240.587,672.963,0.12009,402.494,-0.0389351,-0.0579904,-0.0319966,0.215216,-0.181376,0.427642,5.43652e-05,8.81466e-05,0.355791,-0.03149012499282533,0.5336369406525747,5.4366677814332576e-05,0.24012973606138743,8.815048502563982e-05,-0.16587833002190544
416,0.404,240.434,673.119,-0.0794736,402.607,-0.0103578,-0.0879756,-0.0320666,0.215668,-0.181758,0.428545,5.4615e-05,8.74692e-05,0.356549,-0.031557918311282074,0.535022440268915,5.461649142635139e-05,0.24069040140290898,8.747302554201752e-05,-0.16619690364840045
417,0.405,240.785,673.507,0.12919,402.813,-0.0402299,-0.0570863,-0.0321349,0.216119,-0.182139,0.429448,5.40388e-05,8.7679e-05,0.357304,-0.03162406064667489,0.5364091915564533,5.404026012234553e-05,0.24125007897174688,8.768284391580394e-05,-0.16651452211794981
418,0.406,240.608,673.651,-0.0889855,402.92,-0.00891946,-0.0897676,-0.032205,0.21657,-0.18252,0.43035,5.43277e-05,8.69611e-05,0.35806,-0.031691941420774694,0.5377956578495326,5.432917577619101e-05,0.24181000901209626,8.696488122605928e-05,-0.16683201959791227
419,0.407,240.982,674.048,0.138623,403.13,-0.0415457,-0.0560339,-0.0322731,0.21702,-0.1829,0.431252,5.37135e-05,8.72113e-05,0.358815,-0.031757880954297324,0.5391833752993951,5.371494259587273e-05,0.24236894926827723,8.721510301601398e-05,-0.1671485632833558
420,0.408,240.781,674.18,-0.0987968,403.233,-0.00741313,-0.0915157,-0.0323431,0.217471,-0.183282,0.432152,5.40427e-05,8.64518e-05,0.35957,-0.03182565553049266,0.5405692638934843,5.404416033294446e-05,0.24292938403293718,8.645553706454479e-05,-0.1674666517734118
421,0.409,241.179,674.587,0.148322,403.446,-0.0428865,-0.0548681,-0.0324111,0.21792,-0.183661,0.433053,5.33894e-05,8.67436e-05,0.360324,-0.031891489147548246,0.5419579423059331,5.339082523936334e-05,0.2434875846330249,8.674736233493796e-05,-0.16778212212698151
422,0.41,240.953,674.706,-0.108838,403.544,-0.00585846,-0.0932305,-0.0324811,0.21837,-0.184042,0.433952,5.376e-05,8.59417e-05,0.361078,-0.03195925437149738,0.5433447857888076,5.3761445094613336e-05,0.24404727996811526,8.594539309370042e-05,-0.16809913674333188
423,0.411,241.375,675.123,0.158215,403.761,-0.0442511,-0.0536185,-0.0325489,0.218819,-0.184421,0.434851,5.30665e-05,8.6276e-05,0.36183,-0.03202488530913705,0.5447328766045654,5.3067908051707136e-05,0.24460598261617927,8.627972188102184e-05,-0.16841436743051763
424,0.412,241.124,675.229,-0.119032,403.853,-0.00427365,-0.0949167,-0.0326189,0.219269,-0.184801,0.435749,5.34793e-05,8.5431e-05,0.362583,-0.03209264119568178,0.5461206697536201,5.348073004318721e-05,0.24516618134361678,8.543464933175038e-05,-0.16873030993801574
425,0.413,241.571,675.657,0.168222,404.074,-0.0456344,-0.0523113,-0.0326865,0.219717,-0.185179,0.436647,5.27451e-05,8.58084e-05,0.363334,-0.03215806952163458,0.5475097097006509,5.27464910471398e-05,0.24572414076643745,8.58120816460417e-05,-0.1690444705007721
426,0.414,241.294,675.749,-0.129294,404.161,-0.00267598,-0.0965736,-0.0327565,0.220166,-0.185559,0.437544,5.32004e-05,8.49201e-05,0.364086,-0.0322258160856107,0.5488984486665627,5.320181516643707e-05,0.2462835964940535,8.492370581381081e-05,-0.16936017361459121
427,0.415,241.765,676.188,0.178253,404.386,-0.0470283,-0.0509702,-0.0328239,0.220613,-0.185936,0.438441,5.24251e-05,8.53407e-05,0.364836,-0.032291041867473,0.5502884338901899,5.242647421965785e-05,0.24684080978958,8.534434162110749e-05,-0.16967326580755182
428,0.416,241.463,676.267,-0.139532,404.468,-0.00108219,-0.0981968,-0.0328939,0.221061,-0.186315,0.439336,5.29229e-05,8.44092e-05,0.365587,-0.03235877912371066,0.5516765631336975,5.292430044145924e-05,0.24739951961402173,8.441276255677366e-05,-0.16998790001286268
429,0.417,241.959,676.716,0.188215,404.697,-0.048422,-0.0496169,-0.0329612,0.221508,-0.186692,0.440231,5.21066e-05,8.48729e-05,0.366337,-0.032423899186560856,0.553065935309007,5.210795757237818e-05,0.24795723183868512,8.487650180644124e-05,-0.17030075559757463
430,0.418,241.632,676.783,-0.149651,404.773,0.00049127,-0.0997788,-0.0330312,0.221956,-0.187071,0.441126,5.26467e-05,8.38987e-05,0.367086,-0.03249162714311171,0.5544565515290407,5.264808586180614e-05,0.24851644193225675,8.390221959442279e-05,-0.170615152029316
431,0.419,242.152,677.242,0.198009,405.006,-0.0498031,-0.0482721,-0.0330983,0.222402,-0.187448,0.44202,5.17899e-05,8.44048e-05,0.367835,-0.03255654477691938,0.5558468570600814,5.179124111998057e-05,0.24907340445876947,8.440836218537306e-05,-0.17092777118458746
432,0.42,241.8,677.296,-0.159548,405.077,0.00202815,-0.10131,-0.0331683,0.222849,-0.187826,0.442913,5.23715e-05,8.33888e-05,0.368583,-0.03262426344860392,0.5572368488423962,5.237287141102165e-05,0.24963186507721202,8.339227694253992e-05,-0.17124110126396386
433,0.421,242.344,677.766,0.207532,405.313,-0.0511576,-0.0469554,-0.0332352,0.223294,-0.188202,0.443806,5.1475e-05,8.39361e-05,0.36933,-0.03268897872062915,0.5586280824417615,5.1476324860466605e-05,0.25018807500470164,8.393962273300914e-05,-0.17155265603392134
434,0.422,241.968,677.807,-0.16912,405.38,0.0035124,-0.102778,-0.0333052,0.223741,-0.188579,0.444697,5.20968e-05,8.28798e-05,0.370078,-0.03275668812226207,0.5600174389296171,5.2098157061752914e-05,0.2507470339922555,8.288323462557479e-05,-0.17186492181679802
435,0.423,242.535,678.286,0.216679,405.619,-0.0524709,-0.0456855,-0.0333719,0.224186,-0.188955,0.445589,5.11621e-05,8.34667e-05,0.370824,-0.0328212010996326,0.5614095952945739,5.116340880251258e-05,0.2513037402803442,8.347018344201373e-05,-0.1721762420743187
436,0.424,242.135,678.316,-0.178262,405.681,0.00492821,-0.104171,-0.0334419,0.224632,-0.189332,0.446479,5.18225e-05,8.23719e-05,0.371571,-0.03288890124602284,0.5627998684141546,5.1823842808884635e-05,0.2518619462191807,8.237529265819887e-05,-0.17248827280956736
437,0.425,242.724,678.805,0.225346,405.924,-0.0537277,-0.0444801,-0.0335085,0.225076,-0.189706,0.44737,5.08512e-05,8.29964e-05,0.372316,-0.0329533087004078,0.5641929436197544,5.085249294412009e-05,0.2524178963350945,8.299984429638307e-05,-0.1727977043282357
438,0.426,242.303,678.823,-0.186871,405.981,0.00626021,-0.105476,-0.0335785,0.225521,-0.190083,0.448259,5.15483e-05,8.18653e-05,0.373062,-0.03302099959958971,0.5655841294371045,5.1549628636404776e-05,0.2529753463223867,8.186865105508367e-05,-0.173109500816373
439,0.427,242.912,679.32,0.233431,406.227,-0.0549126,-0.0433561,-0.0336449,0.225964,-0.190457,0.449148,5.05425e-05,8.25251e-05,0.373806,-0.03308520487357758,0.5669765525685508,5.0543777293743375e-05,0.2535305373665442,8.25285052896696e-05,-0.1734187000392089
440,0.428,242.47,679.327,-0.194847,406.28,0.00749361,-0.10668,-0.0337148,0.226409,-0.190834,0.450036,5.12738e-05,8.13604e-05,0.37455,-0.0331527898556343,0.5683686457451249,5.127511452385214e-05,0.2540884825892771,8.136370984712649e-05,-0.17373026245608836
441,0.429,243.098,679.832,0.240835,406.528,-0.0560108,-0.0423291,-0.0337811,0.226852,-0.191207,0.450924,5.02362e-05,8.20525e-05,0.375293,-0.03321688970073344,0.5697619756494656,5.023746185894851e-05,0.25464416686204294,8.20558663985338e-05,-0.17403840359629696
442,0.43,242.638,679.83,-0.202094,406.577,0.00861445,-0.10777,-0.033851,0.227296,-0.191583,0.451811,5.09987e-05,8.08573e-05,0.376037,-0.03328446547834241,0.5711549722245173,5.100000045588082e-05,0.25520135255820064,8.086056903966465e-05,-0.1743489067782884
443,0.431,243.282,680.342,0.247467,406.828,-0.0570079,-0.0414136,-0.0339171,0.227738,-0.191956,0.452698,4.99324e-05,8.15784e-05,0.376779,-0.03334836326332924,0.5725492049356762,4.9933646643074425e-05,0.2557562741846766,8.158172760808213e-05,-0.17465681720719517
444,0.432,242.805,680.331,-0.208525,406.874,0.00960981,-0.108735,-0.033987,0.228182,-0.192331,0.453583,5.07229e-05,8.03562e-05,0.377521,-0.03341592985125741,0.5739415269936798,5.072418642804166e-05,0.2563139537661201,8.035942864581536e-05,-0.17496626287605332
445,0.433,243.465,680.849,0.253241,407.127,-0.0578906,-0.0406226,-0.034053,0.228623,-0.192703,0.454469,4.96312e-05,8.11027e-05,0.378262,-0.03347972229471341,0.5753366571379859,4.963243164834985e-05,0.2568681104022881,8.110598891297727e-05,-0.17527311834760706
446,0.434,242.973,680.83,-0.214059,407.169,0.0104681,-0.109563,-0.0341229,0.229066,-0.193078,0.455353,5.04461e-05,7.98573e-05,0.379004,-0.03354727970096616,0.5767298704524528,5.0447372425876935e-05,0.25742502632296493,7.986048867913986e-05,-0.17558233294686576
447,0.435,243.645,681.353,0.258084,407.423,-0.0586469,-0.0399675,-0.0341887,0.229507,-0.19345,0.456238,4.93326e-05,8.06252e-05,0.379743,-0.033610870197811615,0.5781258940371228,4.933381687277638e-05,0.25797967305018776,8.062845029876975e-05,-0.175888959282975
448,0.436,243.142,681.327,-0.218628,407.463,0.0111792,-0.110245,-0.0342585,0.229949,-0.193824,0.45712,5.01681e-05,7.93608e-05,0.380484,-0.03367832180498331,0.5795184150871737,5.0169358440266265e-05,0.25853582296575284,7.936394915164513e-05,-0.17619711918270986
449,0.437,243.824,681.855,0.261931,407.719,-0.0592664,-0.0394577,-0.0343242,0.23039,-0.194195,0.458004,4.90368e-05,8.01459e-05,0.381223,-0.033741807053727424,0.5809153267100793,4.903800232347599e-05,0.2590909596623254,8.014911176834616e-05,-0.1765026933639775
450,0.438,243.311,681.823,-0.222174,407.756,0.0117346,-0.110773,-0.034394,0.230831,-0.194569,0.458885,4.98887e-05,7.88667e-05,0.381962,-0.033809249521825624,0.582308726815532,4.988994446186723e-05,0.2596463412281709,7.886981006000049e-05,-0.17681062377008405
451,0.439,244.0,682.353,0.264732,408.012,-0.0597404,-0.039101,-0.0344596,0.231271,-0.19494,0.459767,4.87439e-05,7.96645e-05,0.3827,-0.0338726295561691,0.583704938751535,4.8745088003121495e-05,0.2602007075699626,7.966767330058744e-05,-0.17711597038336624
452,0.44,243.48,682.317,-0.224654,408.048,0.0121281,-0.111142,-0.0345293,0.231712,-0.195313,0.460648,4.96078e-05,7.83753e-05,0.383439,-0.03393996628717666,0.5851007975881084,4.960903048734089e-05,0.26075657864256363,7.837837142399273e-05,-0.1774228488900138
453,0.441,244.175,682.849,0.26645,408.305,-0.0600621,-0.0389026,-0.0345948,0.232151,-0.195683,0.461529,4.84538e-05,7.91812e-05,0.384175,-0.03400324114711062,0.5864978867181814,4.845497390437714e-05,0.2613101722855016,7.918433491393984e-05,-0.1777271461374622
454,0.442,243.65,682.809,-0.226037,408.339,0.012355,-0.111348,-0.0346644,0.232592,-0.196056,0.462408,4.93252e-05,7.78864e-05,0.384913,-0.03407047218185966,0.5878930314368818,4.9326416507788906e-05,0.261866532739943,7.788943322450947e-05,-0.1780337967180643
455,0.443,244.347,683.342,0.267062,408.595,-0.0602272,-0.0388658,-0.0347298,0.23303,-0.196426,0.463288,4.81665e-05,7.86958e-05,0.385648,-0.03413364190730639,0.5892909923171183,4.8167660024578396e-05,0.2624193513397184,7.869889659573026e-05,-0.17833786795663054
456,0.444,243.821,683.3,-0.226309,408.629,0.0124131,-0.11139,-0.0347993,0.23347,-0.196798,0.464165,4.90409e-05,7.74002e-05,0.386385,-0.03420076728655985,0.5906854118809852,4.904210252454355e-05,0.2629749380744262,7.74031954726695e-05,-0.1786434694243535
457,0.445,244.517,683.832,0.26656,408.884,-0.060233,-0.0389917,-0.0348646,0.233907,-0.197167,0.465044,4.78821e-05,7.82083e-05,0.387119,-0.03426383191737348,0.5920842390525045,4.788324636595398e-05,0.2635269787344636,7.82113583488453e-05,-0.17894649407264995
458,0.446,243.992,683.79,-0.22547,408.918,0.0123024,-0.111267,-0.0349341,0.234347,-0.197539,0.465921,4.87549e-05,7.69167e-05,0.387855,-0.034330948248735615,0.5934811093682559,4.875608853938118e-05,0.26408305293245915,7.691965816514212e-05,-0.1792518691735645
459,0.447,244.685,684.319,0.264951,409.172,-0.0600796,-0.0392789,-0.0349993,0.234784,-0.197907,0.466798,4.76005e-05,7.77187e-05,0.388589,-0.03439390781840557,0.5948792052766181,4.760163292183428e-05,0.26463557794451265,7.772172017639356e-05,-0.17955384891802773
460,0.448,244.164,684.278,-0.223533,409.206,0.0120249,-0.110982,-0.0350687,0.235223,-0.198279,0.467674,4.84671e-05,7.64359e-05,0.389323,-0.0344609185559035,0.5962769315751772,4.846827454896285e-05,0.26519087484198134,7.643882129793056e-05,-0.17985899812495876
461,0.449,244.851,684.803,0.262258,409.458,-0.0597691,-0.0397241,-0.0351338,0.235659,-0.198647,0.46855,4.73217e-05,7.72272e-05,0.390056,-0.034523773104167765,0.5976758828184217,4.732281968933272e-05,0.26574261833475354,7.723018209704335e-05,-0.1801607544870727
462,0.45,244.336,684.764,-0.220529,409.493,0.0115848,-0.110541,-0.0352031,0.236097,-0.199018,0.469424,4.81775e-05,7.59576e-05,0.390789,-0.034590678288400234,0.5990728619309504,4.817866055439879e-05,0.2662971350318757,7.596048485147833e-05,-0.18046485843238813
463,0.451,245.015,685.285,0.258517,409.742,-0.0593056,-0.0403216,-0.0352682,0.236533,-0.199385,0.470299,4.70455e-05,7.67337e-05,0.391521,-0.0346535243895808,0.6004726630088015,4.7046606656886425e-05,0.2668493609592537,7.673664410567937e-05,-0.1807655726449101
464,0.452,244.509,685.249,-0.216501,409.778,0.0109885,-0.109949,-0.0353373,0.236971,-0.199755,0.471172,4.78863e-05,7.54818e-05,0.392254,-0.03472022752642567,0.6018704857044379,4.788744656725186e-05,0.267404362515822,7.54846488226768e-05,-0.18106863331335044
465,0.453,245.177,685.764,0.253778,410.026,-0.0586956,-0.0410638,-0.0354024,0.237406,-0.200122,0.472046,4.67718e-05,7.62385e-05,0.392984,-0.03478306519422536,0.6032711325024345,4.6772893817603745e-05,0.2679558033432008,7.624140622830566e-05,-0.18136912598114718
466,0.454,244.683,685.732,-0.211505,410.063,0.0102442,-0.109216,-0.0354714,0.237843,-0.200492,0.472918,4.75935e-05,7.50083e-05,0.393716,-0.034849662865080955,0.6046697946580497,4.759463258863228e-05,0.2685100211170255,7.501111319285769e-05,-0.1816719633761612
467,0.455,245.337,686.24,0.248103,410.307,-0.0579473,-0.0419414,-0.0355364,0.238278,-0.200858,0.47379,4.65005e-05,7.57417e-05,0.394445,-0.03491239559815873,0.6060696769789793,4.650158116503711e-05,0.2690619430105201,7.57445684749225e-05,-0.18197141663427652
468,0.456,244.857,686.214,-0.205608,410.347,0.00936192,-0.108352,-0.0356053,0.238714,-0.201228,0.474661,4.72992e-05,7.45371e-05,0.395176,-0.03497888784341785,0.6074691730596948,4.730031862476558e-05,0.26961537465700447,7.453987795869033e-05,-0.1822740312229706
469,0.457,245.495,686.714,0.241566,410.587,-0.0570705,-0.0429434,-0.0356702,0.239148,-0.201594,0.475532,4.62314e-05,7.52433e-05,0.395904,-0.03504151568130154,0.6088698886325086,4.623246868762365e-05,0.2701665073167421,7.524613084819443e-05,-0.1825732641645743
470,0.458,245.031,686.694,-0.19889,410.63,0.00835308,-0.107368,-0.035739,0.239584,-0.201962,0.476402,4.70036e-05,7.40679e-05,0.396634,-0.03510790254128848,0.6102702144890408,4.700470468654849e-05,0.27072042065826585,7.407064309461475e-05,-0.18287402186055157
471,0.459,245.651,687.185,0.234249,410.866,-0.0560768,-0.0440575,-0.0358039,0.240017,-0.202328,0.477272,4.59644e-05,7.47437e-05,0.397361,-0.035170522006389926,0.6116717591591754,4.596545637913785e-05,0.2712707617406567,7.474649337990691e-05,-0.18317303524576323
472,0.46,245.205,687.173,-0.191435,410.911,0.00723049,-0.106278,-0.0358725,0.240452,-0.202696,0.47814,4.67068e-05,7.36006e-05,0.39809,-0.035236707038407755,0.6130712975579202,4.6707890779540406e-05,0.27182388481756115,7.360330859063069e-05,-0.18347357226658922
473,0.461,245.806,687.654,0.226243,411.144,-0.0549789,-0.0452702,-0.0359374,0.240885,-0.203061,0.479009,4.56992e-05,7.4243e-05,0.398816,-0.0352993181443686,0.6144736657562291,4.5700244224455844e-05,0.27237470380339146,7.424575607983819e-05,-0.18377155002846224
474,0.462,245.379,687.65,-0.183338,411.192,0.00600797,-0.105095,-0.0360059,0.24132,-0.203428,0.479876,4.64091e-05,7.3135e-05,0.399544,-0.035365397877819005,0.615874021390888,4.6410176918865176e-05,0.27292830719955496,7.313767442940211e-05,-0.18407105090782883
475,0.463,245.959,688.12,0.217643,411.42,-0.0537903,-0.0465673,-0.0360708,0.241752,-0.203793,0.480744,4.54356e-05,7.37414e-05,0.40027,-0.035428000632015344,0.6172772089367506,4.543663221245886e-05,0.2734783310248574,7.374411896376998e-05,-0.1843688106297925
476,0.464,245.554,688.125,-0.174696,411.471,0.00470006,-0.103833,-0.0361391,0.242186,-0.20416,0.48161,4.61106e-05,7.26708e-05,0.400996,-0.03549387864981224,0.6186783776181608,4.611166311008219e-05,0.2740311405715168,7.267344058647929e-05,-0.18466809235473558
477,0.465,246.111,688.584,0.208549,411.695,-0.0525255,-0.0479341,-0.036204,0.242618,-0.204524,0.482476,4.51735e-05,7.32391e-05,0.401721,-0.03555647306587717,0.6200807602372085,4.5174520337809554e-05,0.2745816409237585,7.324178204837217e-05,-0.18496481916156338
478,0.466,245.728,688.598,-0.16561,411.75,0.00332179,-0.102508,-0.0362721,0.243051,-0.20489,0.483341,4.58115e-05,7.22079e-05,0.402446,-0.035622149433755634,0.6214827363620716,4.5812549362755917e-05,0.27513365427654457,7.22105070531942e-05,-0.18526306745498322
479,0.467,246.262,689.046,0.199063,411.968,-0.051199,-0.0493556,-0.036337,0.243482,-0.205254,0.484207,4.49126e-05,7.27365e-05,0.40317,-0.03568473552531681,0.6228875486076679,4.491360858582816e-05,0.2756833553336062,7.273914536343185e-05,-0.18555957773028564
480,0.468,245.902,689.07,-0.156182,412.027,0.00188834,-0.101135,-0.0364049,0.243915,-0.20562,0.485071,4.5512e-05,7.1746e-05,0.403894,-0.03575021030888048,0.6242903293636872,4.551303568689491e-05,0.2762358458320262,7.174857380576327e-05,-0.18585760838190013
481,0.469,246.412,689.506,0.189286,412.24,-0.0498259,-0.0508167,-0.0364699,0.244345,-0.205983,0.485935,4.46527e-05,7.22335e-05,0.404617,-0.03581288450827691,0.6256943226460159,4.465369694672816e-05,0.27678474525065155,7.223610890205734e-05,-0.18615308843718292
482,0.47,246.076,689.54,-0.146512,412.303,0.000414847,-0.099727,-0.0365376,0.244777,-0.206349,0.486797,4.52123e-05,7.1285e-05,0.405341,-0.035878157766470964,0.6270962753069242,4.52133220913975e-05,0.27733643541709574,7.128754083596256e-05,-0.18645090190362612
483,0.471,246.561,689.963,0.179319,412.512,-0.0484208,-0.0523027,-0.0366025,0.245207,-0.206711,0.48766,4.43936e-05,7.17306e-05,0.406062,-0.0359407272436304,0.6285010654722833,4.439458541050101e-05,0.2778858081910067,7.173317270092738e-05,-0.18674535337820453
484,0.472,246.249,690.008,-0.136699,412.578,-0.00108393,-0.0982999,-0.0366701,0.245639,-0.207076,0.488522,4.49127e-05,7.08245e-05,0.406785,-0.03600589544775867,0.6299054385885745,4.491370859049937e-05,0.2784379741193983,7.0827008114005e-05,-0.18704213715788676
485,0.473,246.709,690.419,0.169259,412.782,-0.046998,-0.0537997,-0.0367351,0.246068,-0.207439,0.489383,4.4135e-05,7.1228e-05,0.407506,-0.03606855302816114,0.63130939148619,4.413597396335511e-05,0.278986541669622,7.123053677426938e-05,-0.18733718730725646
486,0.474,246.421,690.474,-0.126838,412.852,-0.00259379,-0.096867,-0.0368025,0.246499,-0.207803,0.490244,4.46133e-05,7.03646e-05,0.408227,-0.03613351981828161,0.6327145537077896,4.4614295187983544e-05,0.2795379036790595,7.03670756465602e-05,-0.18763294274032227
487,0.475,246.857,690.872,0.159197,413.05,-0.0455713,-0.055294,-0.0368674,0.246928,-0.208165,0.491104,4.38769e-05,7.07257e-05,0.408947,-0.03619607272298164,0.6341192921749403,4.3877862605290474e-05,0.2800869432002946,7.072820112119516e-05,-0.18792696639355821
488,0.476,246.593,690.939,-0.117017,413.125,-0.00410131,-0.0954412,-0.0369347,0.247358,-0.208528,0.491964,4.43143e-05,6.99048e-05,0.409668,-0.036260934544662615,0.6355252392367943,4.431528189319245e-05,0.28063749894687295,6.990724339739351e-05,-0.18822169540820488
489,0.477,247.003,691.324,0.149219,413.318,-0.0441535,-0.0567733,-0.0369996,0.247787,-0.20889,0.492823,4.3619e-05,7.0224e-05,0.410387,-0.03632347918041534,0.6369307590016122,4.3619951322515504e-05,0.28118701029567794,7.022646576282376e-05,-0.18851550597154665
490,0.478,246.764,691.401,-0.107318,413.396,-0.00559403,-0.0940344,-0.0370667,0.248216,-0.209253,0.493681,4.40159e-05,6.94452e-05,0.411106,-0.036388139705577416,0.6383358482899422,4.401686871391419e-05,0.2817367574354248,6.944761137361866e-05,-0.1888100213850974
491,0.479,247.15,691.774,0.139403,413.585,-0.0427565,-0.0582261,-0.0371316,0.248644,-0.209614,0.494539,4.33611e-05,6.9723e-05,0.411824,-0.03645067608598307,0.6397421436622177,4.336204010613187e-05,0.28228545818119066,6.972543070493664e-05,-0.18910280811619273
492,0.48,246.934,691.861,-0.0978161,413.667,-0.00706058,-0.0926574,-0.0371986,0.249073,-0.209976,0.495396,4.37182e-05,6.89855e-05,0.412543,-0.03651523172804716,0.6411480050048772,4.3719155654375896e-05,0.2828356766561748,6.89878795543386e-05,-0.1893962997744595
493,0.481,247.296,692.222,0.129821,413.85,-0.041391,-0.0596422,-0.0372635,0.2495,-0.210337,0.496253,4.31031e-05,6.9223e-05,0.41326,-0.03657775986044809,0.6425550716871213,4.3104028951912454e-05,0.2833835644558276,6.922539596709854e-05,-0.18968887489725383
494,0.482,247.103,692.319,-0.088578,413.936,-0.00849081,-0.0913198,-0.0373302,0.249928,-0.210699,0.497109,4.34214e-05,6.85256e-05,0.413977,-0.03664201798083333,0.6439617007798466,4.3422342722587715e-05,0.28393297018585395,6.85279479326617e-05,-0.18998215443774147
495,0.483,247.441,692.669,0.120535,414.115,-0.0400667,-0.0610127,-0.0373951,0.250355,-0.211059,0.497965,4.28449e-05,6.87241e-05,0.414693,-0.03670453788507355,0.6453695344625661,4.2845817855852175e-05,0.28448132662989245,6.872646155509088e-05,-0.1902737083792857
496,0.484,247.271,692.776,-0.0796613,414.204,-0.00987585,-0.0900298,-0.0374618,0.250783,-0.21142,0.49882,4.31256e-05,6.80653e-05,0.41541,-0.03676878754964641,0.6467769269891002,4.3126529922110635e-05,0.28503120230268997,6.806761649502668e-05,-0.19056596681473914
497,0.485,247.587,693.114,0.111597,414.378,-0.0387917,-0.0623299,-0.0375267,0.251209,-0.21178,0.499674,4.25864e-05,6.82263e-05,0.416125,-0.03683129922680861,0.6481838751661113,4.258730681350187e-05,0.2855787422125913,6.822862746691527e-05,-0.19085731062165412
498,0.486,247.438,693.23,-0.0711146,414.471,-0.0112081,-0.0887944,-0.0375931,0.251636,-0.212141,0.500528,4.28308e-05,6.76047e-05,0.41684,-0.03689525150530082,0.6495920253900664,4.2831717251834434e-05,0.28612780155134243,6.760698524921338e-05,-0.19114935841472136
499,0.487,247.732,693.557,0.103053,414.641,-0.037573,-0.0635876,-0.037658,0.252062,-0.2125,0.501381,4.23274e-05,6.77297e-05,0.417555,-0.03695775497521858,0.6509997276873993,4.2328295817073425e-05,0.2866758087120409,6.773199370790906e-05,-0.19143968367854758
500,0.488,247.603,693.682,-0.0629778,414.736,-0.0124815,-0.0876192,-0.0377243,0.252488,-0.21286,0.502234,4.25373e-05,6.71436e-05,0.418269,-0.03702160255949294,0.6524086312670658,4.253820472377434e-05,0.2872240493735221,6.714585418188257e-05,-0.19173071300400157
501,0.489,247.878,693.999,0.094937,414.902,-0.0364161,-0.0647808,-0.0377892,0.252914,-0.213219,0.503086,4.20678e-05,6.72345e-05,0.418983,-0.03708409782949329,0.6538170833362869,4.206868486233972e-05,0.2877725236352784,6.72367602896351e-05,-0.19202082959898847
502,0.49,247.768,694.132,-0.0552817,415.001,-0.013691,-0.0865086,-0.0378554,0.253339,-0.213579,0.503937,4.2245e-05,6.66819e-05,0.419696,-0.03714784075230304,0.655225080692108,4.2245892332593016e-05,0.2883199432762573,6.668412328725282e-05,-0.19231164974956483
503,0.491,248.023,694.439,0.0872759,415.163,-0.0353254,-0.0659059,-0.0379202,0.253764,-0.213938,0.504789,4.18077e-05,6.67407e-05,0.420409,-0.03721023155073855,0.6566359333987657,4.180857395397197e-05,0.2888675956200295,6.6742927210095e-05,-0.19260155782569144
504,0.492,247.931,694.58,-0.0480487,415.264,-0.0148331,-0.0854658,-0.0379862,0.254189,-0.214297,0.505639,4.1954e-05,6.62197e-05,0.421121,-0.03727377357854622,0.658044672571485,4.195488008140735e-05,0.2894154807655145,6.622189257265987e-05,-0.1928913618434983
505,0.493,248.168,694.877,0.0800877,415.423,-0.034304,-0.0669603,-0.0380511,0.254613,-0.214655,0.506489,4.15469e-05,6.62483e-05,0.421833,-0.03733625248317862,0.6594546096815526,4.154776308440411e-05,0.28996230884872065,6.625049446706832e-05,-0.19318025502099412
506,0.494,248.093,695.026,-0.041293,415.526,-0.0159054,-0.0844926,-0.038117,0.255038,-0.215013,0.507338,4.16643e-05,6.57568e-05,0.422544,-0.03739968993385301,0.6608640848827325,4.166516796910713e-05,0.2905106593462081,6.575896202565268e-05,-0.193469044793243
507,0.495,248.313,695.314,0.0733829,415.681,-0.0333535,-0.0679429,-0.0381818,0.255462,-0.215371,0.508187,4.12855e-05,6.57574e-05,0.423255,-0.03746206441299038,0.6622747572364778,4.12863522580853e-05,0.29105795188358985,6.575956206522626e-05,-0.19375773119725737
508,0.496,248.254,695.469,-0.0350215,415.787,-0.0169066,-0.08359,-0.0382475,0.255885,-0.215729,0.509035,4.13759e-05,6.52934e-05,0.423965,-0.03752530107801122,0.6636849640738063,4.137675599436008e-05,0.2916041849173783,6.529553166045865e-05,-0.1940463142700366
509,0.497,248.458,695.75,0.0671648,415.939,-0.032475,-0.0688531,-0.0383123,0.256309,-0.216086,0.509883,4.10234e-05,6.52679e-05,0.424675,-0.03758766741781017,0.6650963672737187,4.1024241471232514e-05,0.29215194120791077,6.527002999567877e-05,-0.19433398838295768
510,0.498,248.414,695.911,-0.0292341,416.047,-0.0178364,-0.0827578,-0.0383779,0.256732,-0.216444,0.51073,4.10889e-05,6.48293e-05,0.425385,-0.03765079959606943,0.6665073013430265,4.108974416050515e-05,0.2926986370970708,6.483140146440469e-05,-0.1946223651925877
511,0.499,248.603,696.184,0.0614301,416.196,-0.031668,-0.0696919,-0.0384427,0.257154,-0.2168,0.511576,4.07607e-05,6.47799e-05,0.426094,-0.03771315780382789,0.6679177630611453,4.076153072851696e-05,0.2932442710425909,6.478199826309705e-05,-0.19490902860146486
512,0.5,248.572,696.351,-0.0239247,416.306,-0.0186955,-0.081995,-0.0385081,0.257577,-0.217158,0.512422,4.08032e-05,6.43646e-05,0.426802,-0.037776089305424976,0.6693294185347651,4.080403246198294e-05,0.2937914290850092,6.436667144527064e-05,-0.19519719958354198
513,0.501,248.748,696.616,0.0561701,416.452,-0.0309317,-0.0704605,-0.0385729,0.257999,-0.217514,0.513267,4.04973e-05,6.42933e-05,0.42751,-0.03783843939467324,0.6707405980327967,4.049812002682174e-05,0.2943375242860662,6.429536685859105e-05,-0.1954836583877977
514,0.502,248.73,696.789,-0.0190823,416.563,-0.0194855,-0.0812999,-0.0386382,0.258421,-0.21787,0.514112,4.05188e-05,6.38994e-05,0.428218,-0.03790126649325365,0.6721529704814548,4.051962089768324e-05,0.2948838499879305,6.39014416101702e-05,-0.19577001523086923
515,0.503,248.893,697.048,0.051371,416.707,-0.0302641,-0.0711611,-0.0387029,0.258843,-0.218226,0.514956,4.02332e-05,6.38082e-05,0.428925,-0.037963512267639055,0.6735648633235087,4.023400936614685e-05,0.29543040628789363,6.381023578638789e-05,-0.19605627014904836
516,0.504,248.886,697.224,-0.0146909,416.82,-0.0202084,-0.0806702,-0.0387681,0.259264,-0.218582,0.5158,4.02356e-05,6.34337e-05,0.429631,-0.03802623500185587,0.6749779483061338,4.0236409462712786e-05,0.29597589730674323,6.343571195976949e-05,-0.19634242317861395
517,0.505,249.038,697.477,0.0470151,416.961,-0.0296627,-0.0717965,-0.0388328,0.259685,-0.218938,0.516643,3.99686e-05,6.33244e-05,0.430337,-0.03808847269104021,0.6763905500445333,3.9969398755168584e-05,0.29652161802566046,6.332640503203812e-05,-0.19662847435583175
518,0.506,249.041,697.658,-0.0107313,417.075,-0.0208669,-0.0801029,-0.0388979,0.260106,-0.219293,0.517486,3.99537e-05,6.29674e-05,0.431043,-0.038151091093217016,0.6778043431082712,3.995449815974439e-05,0.29706756854136906,6.29693824882871e-05,-0.19691362063097695
519,0.507,249.183,697.906,0.0430816,417.214,-0.0291247,-0.0723698,-0.0389625,0.260527,-0.219648,0.518328,3.97034e-05,6.28419e-05,0.431748,-0.03821322452580089,0.6792176492835698,3.970418819032595e-05,0.2976137489506341,6.284387459354335e-05,-0.19719866569716016
520,0.508,249.195,698.09,-0.00718118,417.329,-0.0214643,-0.0795948,-0.0390275,0.260947,-0.220003,0.519169,3.96729e-05,6.25008e-05,0.432453,-0.0382757386344762,0.6806304653324942,3.967368697987972e-05,0.2981588611907504,6.250275321573184e-05,-0.1974836095903041
521,0.509,249.327,698.332,0.0395469,417.466,-0.0286466,-0.0728845,-0.039092,0.261367,-0.220357,0.52001,3.94376e-05,6.23607e-05,0.433157,-0.03833776784887055,0.682044470059485,3.9438377672285085e-05,0.2987042024260935,6.236264446890516e-05,-0.19776765011437014
522,0.51,249.347,698.52,-0.00401628,417.583,-0.0220041,-0.0791422,-0.0391569,0.261787,-0.220712,0.52085,3.93932e-05,6.20338e-05,0.433861,-0.03840017770251547,0.6834579810058181,3.9393975922230595e-05,0.29924977275286113,6.203572413587821e-05,-0.1980523920538948
523,0.511,249.472,698.758,0.036386,417.717,-0.0282247,-0.0733445,-0.0392214,0.262206,-0.221066,0.52169,3.91714e-05,6.18807e-05,0.434564,-0.0384621988908489,0.6848726798001721,3.9172167209278186e-05,0.2997942724723699,6.188261464989964e-05,-0.1983362312646033
524,0.512,249.499,698.948,-0.00121076,417.835,-0.0224899,-0.0787414,-0.0392862,0.262625,-0.22142,0.522529,3.91146e-05,6.15664e-05,0.435267,-0.03852450452163647,0.6862868811530349,3.911536498590884e-05,0.3003390003850641,6.156829524961438e-05,-0.198619970014014
525,0.513,249.616,699.181,0.0335724,417.967,-0.0278552,-0.0737536,-0.0393506,0.263044,-0.221773,0.523368,3.89048e-05,6.14019e-05,0.43597,-0.038586421549795635,0.6877022695187149,3.89055568015273e-05,0.30088395658657685,6.140378513519451e-05,-0.1989028072408915
526,0.514,249.65,699.374,0.00126197,418.086,-0.0229258,-0.0783886,-0.0394153,0.263463,-0.222127,0.524206,3.8837e-05,6.10989e-05,0.436672,-0.03864862299608285,0.6891171567755325,3.88377541660212e-05,0.30142914117258135,6.110076657583896e-05,-0.1991863454579028
527,0.515,249.761,699.604,0.0310794,418.217,-0.0275342,-0.0741159,-0.0394797,0.263881,-0.22248,0.525044,3.86378e-05,6.09242e-05,0.437373,-0.03871053203126962,0.6905332302048082,3.863854644947651e-05,0.30197325226488725,6.09260559167879e-05,-0.19946898278953218
528,0.516,249.8,699.798,0.00342884,418.336,-0.0233155,-0.0780796,-0.0395443,0.264299,-0.222833,0.525881,3.85603e-05,6.06311e-05,0.438074,-0.03877262932513614,0.6919487988513262,3.856104345789646e-05,0.3025175908431712,6.063293810232295e-05,-0.19975152036779098
529,0.517,249.905,700.025,0.0288799,418.465,-0.0272576,-0.0744352,-0.0396086,0.264717,-0.223186,0.526717,3.83705e-05,6.04476e-05,0.438775,-0.03883443425802069,0.6933638594600853,3.8371236157130895e-05,0.3030621570025418,6.0449426992903454e-05,-0.20003395822788606
530,0.518,249.949,700.221,0.00531652,418.585,-0.0236631,-0.0778108,-0.0396731,0.265135,-0.223538,0.527553,3.82845e-05,6.01632e-05,0.439475,-0.03889642743770949,0.6947801035541414,3.828523286086849e-05,0.30360695083814826,6.01650098415174e-05,-0.2003154967209081
531,0.519,250.049,700.444,0.0269477,418.713,-0.0270215,-0.0747156,-0.0397374,0.265552,-0.22389,0.528389,3.81029e-05,5.9972e-05,0.440174,-0.03895822441063124,0.6961975321233016,3.81036259247125e-05,0.3041506682938584,5.9973798356427466e-05,-0.20059693612982032
532,0.52,250.097,700.642,0.00695114,418.832,-0.0239724,-0.0775782,-0.0398018,0.265969,-0.224243,0.529224,3.80096e-05,5.96952e-05,0.440874,-0.03902011350812895,0.6976144485429041,3.801032237404911e-05,0.30469461252702734,5.96969817938664e-05,-0.20087907561081841
533,0.521,250.192,700.862,0.0252568,418.96,-0.026822,-0.0749607,-0.0398659,0.266385,-0.224594,0.530058,3.78351e-05,5.94974e-05,0.441572,-0.03908171034465335,0.6990308495501099,3.7835815756448454e-05,0.3052374783941101,5.9499170005361535e-05,-0.20115951783478947
534,0.522,250.244,701.061,0.00835787,419.079,-0.0242472,-0.0773782,-0.0399303,0.266802,-0.224946,0.530892,3.77354e-05,5.92272e-05,0.442271,-0.039143591489912866,0.7004484323284861,3.773611198920612e-05,0.3057818759215962,5.9228953965151376e-05,-0.2014406602005524
535,0.523,250.336,701.278,0.0237828,419.206,-0.0266555,-0.0751742,-0.0399944,0.267218,-0.225297,0.531725,3.75671e-05,5.90236e-05,0.442968,-0.03920518041175236,0.7018654959976933,3.756780565233875e-05,0.3063251941843428,5.902534192703257e-05,-0.2017209053429223
536,0.524,250.39,701.478,0.00956069,419.325,-0.024491,-0.0772074,-0.0400586,0.267634,-0.225648,0.532558,3.74619e-05,5.87592e-05,0.443666,-0.03926686145918712,0.7032837405727161,3.746260170567339e-05,0.30686873851450547,5.876092635559438e-05,-0.20200105213650843
537,0.525,250.478,701.693,0.0225023,419.451,-0.0265184,-0.0753595,-0.0401226,0.268049,-0.225999,0.53339,3.72991e-05,5.85507e-05,0.444363,-0.03932834641251426,0.7047014623353443,3.7299795620171494e-05,0.3074112015942927,5.8552414125667696e-05,-0.20228110061582516
538,0.526,250.536,701.893,0.0105822,419.57,-0.0247071,-0.0770624,-0.0401868,0.268465,-0.22635,0.534221,3.71891e-05,5.82913e-05,0.445059,-0.03939001955294552,0.7061186580137941,3.718979152322888e-05,0.307955197797521,5.8292998970754795e-05,-0.2025610508153748
539,0.527,250.621,702.107,0.0213934,419.695,-0.0264074,-0.0755198,-0.0402508,0.26888,-0.2267,0.535052,3.70309e-05,5.80786e-05,0.445755,-0.039451496624406834,0.7075370318713188,3.703158565215858e-05,0.3084981118514811,5.80802865945973e-05,-0.20284010561015176
540,0.528,250.68,702.307,0.0114435,419.814,-0.0248988,-0.0769402,-0.0403148,0.269294,-0.22705,0.535883,3.69169e-05,5.78235e-05,0.446451,-0.03951296976146157,0.7089565848873913,3.691758143720136e-05,0.3090399422209351,5.782517181085467e-05,-0.20311906275284053
541,0.529,250.763,702.519,0.0204358,419.938,-0.0263194,-0.075658,-0.0403787,0.269709,-0.2274,0.536713,3.67627e-05,5.76073e-05,0.447146,-0.0395743429218004,0.7103756076658372,3.676337575631017e-05,0.3095833065372542,5.760895933226706e-05,-0.20339792227761344
542,0.53,250.825,702.72,0.0121641,420.057,-0.0250689,-0.0768381,-0.0404427,0.270123,-0.22775,0.537542,3.66453e-05,5.73558e-05,0.447841,-0.03963580819694368,0.7117940969271539,3.6645971447146763e-05,0.31012558627031983,5.7357444875449914e-05,-0.20367668421863094
543,0.531,250.905,702.929,0.0196108,420.18,-0.0262516,-0.075777,-0.0405065,0.270537,-0.228099,0.538371,3.64946e-05,5.71367e-05,0.448535,-0.03969707747786988,0.7132137626036252,3.649526593596519e-05,0.31066809055367384,5.7138332332229425e-05,-0.20395455256499184
544,0.532,250.968,703.13,0.0127618,420.299,-0.0252202,-0.0767533,-0.0405704,0.270951,-0.228448,0.539199,3.63743e-05,5.68884e-05,0.449228,-0.039758438874101465,0.7146328910371549,3.637496155284303e-05,0.31121081948029916,5.689001817565931e-05,-0.20423232395222013
545,0.533,251.047,703.338,0.0189015,420.421,-0.0262014,-0.0758791,-0.0406342,0.271364,-0.228797,0.540027,3.62264e-05,5.66668e-05,0.449922,-0.03981970033144011,0.7160531949956277,3.622705618400168e-05,0.31175246139009993,5.666840559337416e-05,-0.20450999841414874
546,0.534,251.111,703.539,0.0132528,420.54,-0.0253551,-0.0766837,-0.0406979,0.271777,-0.229146,0.540855,3.61037e-05,5.64212e-05,0.450615,-0.03988086186851336,0.7174746754527812,3.610435174650206e-05,0.31229432704420956,5.642279170592346e-05,-0.20478757598459874
547,0.535,251.188,703.746,0.0182923,420.662,-0.0261665,-0.0759665,-0.0407616,0.27219,-0.229495,0.541681,3.59584e-05,5.61976e-05,0.451307,-0.03994201950972076,0.7188938955919311,3.59590465111026e-05,0.31283641653505323,5.619917911481309e-05,-0.2050650566973793
548,0.536,251.253,703.947,0.0136517,420.781,-0.0254757,-0.0766271,-0.0408253,0.272602,-0.229843,0.542508,3.58337e-05,5.59543e-05,0.451999,-0.04000317325531055,0.7203160088063476,3.5834342034801736e-05,0.3133774165770218,5.5955865471135624e-05,-0.20534164592833115
549,0.537,251.328,704.152,0.0177695,420.901,-0.0261446,-0.0760414,-0.040889,0.273015,-0.230191,0.543333,3.56904e-05,5.5729e-05,0.45269,-0.040064323105530764,0.7217358551196851,3.569103690992392e-05,0.31391995347622603,5.573055288965456e-05,-0.20561813892297665
550,0.538,251.394,704.352,0.0139715,421.02,-0.025584,-0.0765816,-0.0409526,0.273427,-0.230539,0.544158,3.55641e-05,5.54876e-05,0.453381,-0.040125373073171655,0.7231568732895557,3.556473241017599e-05,0.31446140002738887,5.5489139465292325e-05,-0.2058945357148002
551,0.539,251.469,704.557,0.0173208,421.14,-0.0261341,-0.0761055,-0.0410161,0.273839,-0.230886,0.544983,3.54225e-05,5.5261e-05,0.454072,-0.04018632317679527,0.7245790642831396,3.542312738424869e-05,0.31500306970049086,5.5262526917232435e-05,-0.2061700425077142
552,0.54,251.535,704.757,0.0142239,421.258,-0.0256818,-0.0765456,-0.0410797,0.27425,-0.231234,0.545807,3.52948e-05,5.50213e-05,0.454762,-0.04024736538547835,0.7260007030668496,3.52954228688418e-05,0.31554364704317206,5.502281369951234e-05,-0.2064462472705053
553,0.541,251.608,704.96,0.0169352,421.378,-0.026133,-0.0761603,-0.0411432,0.274661,-0.231581,0.546631,3.51548e-05,5.47936e-05,0.455452,-0.040308307742836114,0.7274235137636791,3.515541793719379e-05,0.31608444660880486,5.4795101196658536e-05,-0.20672156265272112
554,0.542,251.675,705.159,0.0144191,421.496,-0.0257707,-0.0765175,-0.0412066,0.275072,-0.231928,0.547454,3.5026e-05,5.45554e-05,0.456141,-0.04036915026739685,0.7288457684930498,3.502661341747704e-05,0.3166254684887415,5.455688817290749e-05,-0.20699678251707254
555,0.543,251.748,705.361,0.0166032,421.615,-0.0261401,-0.0762073,-0.04127,0.275483,-0.232275,0.548276,3.48873e-05,5.43268e-05,0.45683,-0.04042998893466376,0.7302674639515332,3.4887908568981274e-05,0.31716671277437203,5.432827572726673e-05,-0.2072719068966986
556,0.544,251.815,705.561,0.0145659,421.732,-0.0258519,-0.0764962,-0.0413334,0.275893,-0.232621,0.549098,3.47576e-05,5.40898e-05,0.457518,-0.04049082374488144,0.7316903285241234,3.475820405229868e-05,0.3177068618496035,5.4091262879696345e-05,-0.20754614337126642
557,0.545,251.886,705.762,0.0163165,421.851,-0.026154,-0.0762477,-0.0413967,0.276304,-0.232967,0.549919,3.46199e-05,5.38605e-05,0.458206,-0.040551558753455064,0.7331126300587312,3.4620499275606065e-05,0.31824855067925295,5.386195050283149e-05,-0.20782028497642735
558,0.546,251.954,705.96,0.0146722,421.968,-0.0259267,-0.0764806,-0.0414601,0.276713,-0.233313,0.55074,3.44896e-05,5.36245e-05,0.458894,-0.04061238585639049,0.7345360997823744,3.449019477308468e-05,0.31878782461048205,5.3625937819212766e-05,-0.20809433174500058
559,0.547,252.025,706.16,0.0160679,422.086,-0.0261736,-0.0762824,-0.0415233,0.277123,-0.233659,0.551561,3.43528e-05,5.33948e-05,0.459581,-0.040673017237632614,0.7359607386545306,3.435339006419014e-05,0.3193286384778393,5.339622552780199e-05,-0.20836828370979388
560,0.548,252.092,706.358,0.0147446,422.203,-0.025996,-0.0764696,-0.0415865,0.277532,-0.234005,0.55238,3.42218e-05,5.31597e-05,0.460267,-0.040733644787092405,0.7373830728658444,3.422238557249102e-05,0.31986835425532956,5.31611130019094e-05,-0.20864214090360356
561,0.549,252.163,706.558,0.015851,422.32,-0.0261978,-0.0763125,-0.0416497,0.277942,-0.23435,0.5532,3.40858e-05,5.29296e-05,0.460953,-0.04079426850501222,0.7388083112534725,3.408638092738947e-05,0.32040961123067224,5.29310007959527e-05,-0.20891511227472281
562,0.55,252.23,706.755,0.0147889,422.437,-0.0260608,-0.0764624,-0.0417129,0.27835,-0.234695,0.554019,3.39545e-05,5.26953e-05,0.461639,-0.04085488839163409,0.7402329785820259,3.395507646053453e-05,0.32094844826733504,5.269668842178277e-05,-0.20918798948696227
563,0.551,252.3,706.954,0.0156607,422.553,-0.026226,-0.0763386,-0.041776,0.278759,-0.23504,0.554837,3.3819e-05,5.2465e-05,0.462324,-0.04091540853874587,0.741657071533115,3.381957186876505e-05,0.3214888266825293,5.246637631217688e-05,-0.20946077257280138
564,0.552,252.368,707.15,0.01481,422.67,-0.0261218,-0.0764585,-0.041839,0.279167,-0.235385,0.555655,3.36874e-05,5.22313e-05,0.463009,-0.0409758289647445,0.7430823298688154,3.3687967426754284e-05,0.3220281041289339,5.2232664078166735e-05,-0.20973346156470796
565,0.553,252.437,707.348,0.0154923,422.786,-0.0262574,-0.0763614,-0.0419021,0.279575,-0.235729,0.556472,3.35525e-05,5.20008e-05,0.463693,-0.04103634148074686,0.7445070100349196,3.355306289143378e-05,0.32256760164542797,5.20021520651337e-05,-0.21000526650080031
566,0.554,252.504,707.544,0.0148121,422.902,-0.0261796,-0.0764571,-0.0419651,0.279983,-0.236073,0.557288,3.34206e-05,5.17677e-05,0.464377,-0.041096754288210136,0.7459311087083464,3.342115847448923e-05,0.32310731932181835,5.176903997039517e-05,-0.2102769779520749
567,0.555,252.573,707.741,0.015342,423.018,-0.0262913,-0.0763816,-0.042028,0.280391,-0.236417,0.558105,3.32862e-05,5.15371e-05,0.465061,-0.04115706740549807,0.7473581172777857,3.328675399161263e-05,0.3236472572479485,5.153842805905029e-05,-0.2105485959506851
568,0.556,252.641,707.937,0.0147986,423.133,-0.0262348,-0.0764577,-0.0420909,0.280798,-0.236761,0.55892,3.31542e-05,5.13045e-05,0.465744,-0.04121737672921011,0.7487827946205254,3.3154749606634226e-05,0.3241860913269454,5.130581609846807e-05,-0.21082012052877308
569,0.557,252.709,708.133,0.0152066,423.249,-0.0263274,-0.0763995,-0.0421538,0.281205,-0.237105,0.559735,3.30202e-05,5.1074e-05,0.466427,-0.04127768225958506,0.7502086335485811,3.3020745172862576e-05,0.3247251447560473,5.1075304299041946e-05,-0.21109155171846994
570,0.558,252.777,708.328,0.0147726,423.364,-0.0262878,-0.0764601,-0.0422167,0.281612,-0.237448,0.56055,3.2888e-05,5.08418e-05,0.467109,-0.041337983996861394,0.751635635009031,3.2888540816289336e-05,0.3252644176245474,5.084309246616847e-05,-0.2113621009143909
571,0.559,252.845,708.523,0.0150835,423.479,-0.0263651,-0.0764155,-0.0422795,0.282018,-0.237791,0.561364,3.27544e-05,5.06113e-05,0.467791,-0.04139818608110113,0.7530620468868012,3.275493643117855e-05,0.32580258421852926,5.06125807735458e-05,-0.2116325573278508
572,0.56,252.912,708.717,0.0147365,423.593,-0.026339,-0.0764637,-0.0423422,0.282424,-0.238134,0.562178,3.26222e-05,5.03795e-05,0.468472,-0.041458288530602405,0.7544896203365359,3.262273210968836e-05,0.3263409693525088,5.038076906838107e-05,-0.21190292099066843
573,0.561,252.98,708.911,0.0149703,423.708,-0.0264041,-0.07643,-0.0424049,0.28283,-0.238476,0.562991,3.24888e-05,5.01491e-05,0.469153,-0.041518387211798125,0.7559166003866606,3.2489327766782594e-05,0.3268795731152312,5.0150357487233066e-05,-0.21217240410744997
574,0.562,253.047,709.105,0.0146922,423.822,-0.0263887,-0.0764684,-0.0424676,0.283236,-0.238819,0.563803,3.23566e-05,4.99177e-05,0.469833,-0.041578482124924765,0.7573429836994268,3.235712348037545e-05,0.3274183955954779,4.9918945909110946e-05,-0.21244258263457494
575,0.563,253.114,709.299,0.0148652,423.936,-0.0264441,-0.0764432,-0.0425303,0.283641,-0.239161,0.564615,3.22235e-05,4.96874e-05,0.470513,-0.04163857327021847,0.7587705257058084,3.222401918256956e-05,0.3279561089252936,4.968863443921556e-05,-0.21271188121863116
576,0.564,253.181,709.492,0.0146416,424.05,-0.0264371,-0.0764739,-0.0425929,0.284047,-0.239503,0.565427,3.20913e-05,4.94563e-05,0.471193,-0.04169856481777667,0.7601992273470473,3.2091814931245466e-05,0.32849536856781736,4.945752298302075e-05,-0.21298108771831903
577,0.565,253.248,709.685,0.0147668,424.164,-0.026485,-0.0764554,-0.0426555,0.284451,-0.239845,0.566238,3.19585e-05,4.92261e-05,0.471872,-0.041758552609981625,0.7616273279369408,3.195901067831741e-05,0.32903218912717014,4.922731162437799e-05,-0.2132502021651259
578,0.566,253.315,709.877,0.0145859,424.277,-0.0264845,-0.07648,-0.042718,0.284856,-0.240186,0.567048,3.18263e-05,4.89954e-05,0.472551,-0.04181844082891717,0.7630548241304795,3.182680646207636e-05,0.32957055617573516,4.8996600294115566e-05,-0.2135184381093599
579,0.567,253.382,710.069,0.0146737,424.391,-0.0265264,-0.0764667,-0.0427805,0.28526,-0.240528,0.567858,3.16937e-05,4.87654e-05,0.473229,-0.04187832530495594,0.7644834770643518,3.16942022506872e-05,0.3301078111986375,4.8766589051396636e-05,-0.2137873688137547
580,0.568,253.448,710.261,0.0145262,424.504,-0.0265311,-0.0764865,-0.042843,0.285665,-0.240869,0.568668,3.15616e-05,4.8535e-05,0.473907,-0.04193820603833198,0.7659132876758967,3.1562098072646094e-05,0.33064661396236783,4.8536177842173345e-05,-0.21405542161538904
581,0.569,253.515,710.453,0.0145849,424.617,-0.0265682,-0.0764773,-0.0429054,0.286068,-0.24121,0.569476,3.14292e-05,4.83051e-05,0.474584,-0.041997987229082656,0.767340722218234,3.1429693902573774e-05,0.3311829726168043,4.83062667100409e-05,-0.21432338302660103
582,0.57,253.581,710.644,0.0144635,424.729,-0.0265769,-0.0764934,-0.0429678,0.286472,-0.24155,0.570285,3.12971e-05,4.8075e-05,0.475261,-0.04205776468960343,0.7687710793639622,3.1297589759393674e-05,0.33172087918755255,4.807615562141265e-05,-0.2145904676694098
583,0.571,253.648,710.834,0.0144996,424.842,-0.0266103,-0.0764873,-0.0430302,0.286875,-0.241891,0.571093,3.11649e-05,4.78453e-05,0.475938,-0.042117538420127,0.7702008239351092,3.11653856306382e-05,0.33225767085812175,4.784644460453791e-05,-0.2148582466610217
584,0.572,253.714,711.025,0.0143985,424.954,-0.0266221,-0.0765005,-0.0430925,0.287278,-0.242231,0.5719,3.1033e-05,4.76155e-05,0.476614,-0.04217721263861218,0.7716299525758714,3.10334815285529e-05,0.3327946788993301,4.761663363583857e-05,-0.2151251494811064
585,0.573,253.78,711.215,0.0144173,425.066,-0.0266527,-0.0764969,-0.0431548,0.287681,-0.242571,0.572707,3.09009e-05,4.7386e-05,0.47729,-0.04223688313950946,0.7730602349889315,3.0901377437775324e-05,0.33333190339839214,4.738712273422152e-05,-0.21539196156965745
586,0.574,253.845,711.405,0.0143318,425.178,-0.0266667,-0.0765078,-0.043217,0.288084,-0.242911,0.573513,3.07691e-05,4.71564e-05,0.477965,-0.04229645415270045,0.7744898976149743,3.0769573373667924e-05,0.33386934444255845,4.7157511880557834e-05,-0.21565868295751844
587,0.575,253.911,711.594,0.0143372,425.29,-0.0266951,-0.076506,-0.0432792,0.288486,-0.24325,0.574319,3.06371e-05,4.69271e-05,0.47864,-0.04235602146068962,0.7759207130135983,3.063756932064621e-05,0.3344056677127789,4.692820109353235e-05,-0.21592452960044384
588,0.576,253.977,711.783,0.0142638,425.401,-0.0267109,-0.0765152,-0.0433414,0.288888,-0.24359,0.575125,3.05054e-05,4.66978e-05,0.479314,-0.04241558506370757,0.7773526821143133,3.050586529451671e-05,0.3349422066282959,4.669889035913144e-05,-0.21619106994595327
589,0.577,254.043,711.972,0.0142591,425.512,-0.0267375,-0.0765147,-0.0434035,0.28929,-0.243929,0.575929,3.03736e-05,4.64687e-05,0.479988,-0.0424750492094943,0.7787822482793239,3.0374061282367748e-05,0.3354789612758162,4.646977968669752e-05,-0.2164567361402775
590,0.578,254.108,712.16,0.014195,425.624,-0.0267547,-0.0765226,-0.0434656,0.289692,-0.244268,0.576734,3.02421e-05,4.62396e-05,0.480662,-0.04253450966267214,0.7802147444915561,3.024255729688896e-05,0.33601593174208144,4.6240669066888174e-05,-0.2167223122890254
591,0.579,254.173,712.348,0.0141825,425.734,-0.02678,-0.0765232,-0.0435277,0.290093,-0.244606,0.577538,3.01104e-05,4.60108e-05,0.481335,-0.042593966423470575,0.7816466126800072,3.01108533227179e-05,0.3365517815614183,4.6011858513050896e-05,-0.2169870154101241
592,0.58,254.238,712.536,0.0141256,425.845,-0.0267982,-0.07653,-0.0435897,0.290494,-0.244945,0.578341,2.99789e-05,4.5782e-05,0.482008,-0.04265332375745601,0.7830778494746562,2.9979349371656028e-05,0.3370878462996212,4.578304801183819e-05,-0.21725241182466626
593,0.581,254.304,712.724,0.0141073,425.956,-0.0268224,-0.0765314,-0.0436517,0.290895,-0.245283,0.579144,2.98475e-05,4.55533e-05,0.48268,-0.042712677411400723,0.7845102360140119,2.9847945441030532e-05,0.3376241260428896,4.555433756725513e-05,-0.21751693580239884
594,0.582,254.368,712.911,0.0140558,426.066,-0.0268413,-0.0765374,-0.0437136,0.291295,-0.245621,0.579946,2.97161e-05,4.53248e-05,0.483352,-0.042771931662730966,0.78594198727881,2.9716541527724516e-05,0.3381592827175064,4.532582718419498e-05,-0.21778137038613554
595,0.583,254.433,713.098,0.0140331,426.176,-0.0268647,-0.0765394,-0.0437755,0.291696,-0.245959,0.580748,2.95848e-05,4.50964e-05,0.484023,-0.04283118224633653,0.7873748872686996,2.9585237634410788e-05,0.3386959921929338,4.5097416857986516e-05,-0.2180457156060862
596,0.584,254.498,713.284,0.0139858,426.286,-0.0268841,-0.0765448,-0.0438374,0.292096,-0.246296,0.581549,2.94535e-05,4.4868e-05,0.484694,-0.042890429162444565,0.7888071480972854,2.9453933758638584e-05,0.3392315776997712,4.486900658373649e-05,-0.2183091898020314
597,0.585,254.563,713.47,0.0139599,426.396,-0.0269069,-0.0765472,-0.0438992,0.292495,-0.246634,0.58235,2.93223e-05,4.46399e-05,0.485365,-0.04294957670624433,0.7902405566263877,2.932272990285867e-05,0.33976603771695646,4.4640896375236494e-05,-0.2185733566491661
598,0.586,254.627,713.656,0.0139158,426.505,-0.0269267,-0.0765521,-0.043961,0.292895,-0.246971,0.58315,2.91912e-05,4.44118e-05,0.486035,-0.043008720594838956,0.7916733221014645,2.9191626067293086e-05,0.3403020513276185,4.441278621869493e-05,-0.2188366530600383
599,0.587,254.692,713.841,0.0138875,426.615,-0.0269489,-0.0765548,-0.0440228,0.293294,-0.247308,0.58395,2.90602e-05,4.41838e-05,0.486705,-0.04306786082845415,0.7931072342475287,2.9060622251719792e-05,0.34083693854900265,4.4184776118560976e-05,-0.21909986075496946
600,0.588,254.756,714.027,0.0138458,426.724,-0.026969,-0.0765593,-0.0440845,0.293693,-0.247645,0.584749,2.89292e-05,4.39559e-05,0.487374,-0.04312690172001077,0.7945404994408873,2.8929618453243933e-05,0.3413720392329711,4.395686607483462e-05,-0.21936297976385188
601,0.589,254.82,714.211,0.0138158,426.833,-0.0269908,-0.0765622,-0.0441462,0.294092,-0.247981,0.585548,2.87983e-05,4.37282e-05,0.488043,-0.04318593896885681,0.7959749102707565,2.8798714674982406e-05,0.34190735346471235,4.372915609174299e-05,-0.21962522974218757
602,0.59,254.884,714.396,0.013776,426.941,-0.0270111,-0.0765665,-0.0442079,0.29449,-0.248318,0.586346,2.86674e-05,4.35006e-05,0.488712,-0.04324497257521698,0.7974086702432963,2.8667810913818315e-05,0.3424415388872388,4.3501546164836924e-05,-0.21988817173155073
603,0.591,254.948,714.58,0.0137448,427.05,-0.0270326,-0.0765695,-0.0442695,0.294889,-0.248654,0.587144,2.85366e-05,4.32731e-05,0.48938,-0.04330390686971142,0.7988435748129277,2.853700717264651e-05,0.34297727993448635,4.3274036294116414e-05,-0.22015024527502802
604,0.592,255.012,714.764,0.0137064,427.158,-0.0270529,-0.0765736,-0.0443311,0.295287,-0.24899,0.587941,2.84059e-05,4.30457e-05,0.490047,-0.04336283753396508,0.8002778246146789,2.8406303451466997e-05,0.3435118912724995,4.304662647935942e-05,-0.22041223077658667
605,0.593,255.076,714.948,0.0136743,427.267,-0.0270741,-0.0765767,-0.0443926,0.295685,-0.249325,0.588738,2.82753e-05,4.28185e-05,0.490715,-0.04342166891037347,0.8017132179691673,2.8275699750057726e-05,0.344046715428173,4.28194167250151e-05,-0.22067334893954216
606,0.594,255.139,715.131,0.013637,427.375,-0.0270945,-0.0765805,-0.0444541,0.296082,-0.249661,0.589535,2.81447e-05,4.25913e-05,0.491382,-0.0434804966687633,0.8031497557881679,2.814509606574589e-05,0.3445804079051451,4.2592207022185136e-05,-0.22093515870779434
607,0.595,255.203,715.314,0.0136044,427.483,-0.0271155,-0.0765837,-0.0445156,0.296479,-0.249996,0.59033,2.80142e-05,4.23643e-05,0.492048,-0.043539320809357296,0.8045838298129133,2.801459240142634e-05,0.3451143123000935,4.2365197379545805e-05,-0.22119610171923243
608,0.596,255.266,715.496,0.013568,427.59,-0.0271359,-0.0765874,-0.044577,0.296876,-0.250331,0.591126,2.78837e-05,4.21374e-05,0.492714,-0.04359804569218728,0.8060208503997615,2.7884088753982184e-05,0.3456484286971664,4.2138287792647944e-05,-0.2214569573294023
609,0.597,255.329,715.679,0.013535,427.698,-0.0271567,-0.0765906,-0.0446384,0.297273,-0.250666,0.59192,2.77533e-05,4.19106e-05,0.49338,-0.04365676696942011,0.8074554003959613,2.775368512630827e-05,0.34618275718054514,4.191147826149155e-05,-0.2217177255675783
610,0.598,255.393,715.861,0.0134992,427.805,-0.0271771,-0.0765942,-0.0446998,0.29767,-0.251,0.592715,2.7623e-05,4.16839e-05,0.494045,-0.04371548464127717,0.8088928987691681,2.7623381518626644e-05,0.34671729783444505,4.168476878585459e-05,-0.22197762844104274
611,0.599,255.456,716.042,0.013466,427.912,-0.0271978,-0.0765974,-0.0447611,0.298066,-0.251335,0.593509,2.74927e-05,4.14574e-05,0.494709,-0.04377410308539509,0.8103297300773342,2.749307792782041e-05,0.3472507034917369,4.145825936996417e-05,-0.22223822228360923
612,0.6,255.519,716.224,0.0134308,428.019,-0.0272181,-0.0766009,-0.0448224,0.298462,-0.251669,0.594302,2.73626e-05,4.12309e-05,0.495374,-0.04383271793631238,0.8117658909157974,2.7362974359457226e-05,0.34778432041949814,4.123175000514401e-05,-0.22249795134019945
613,0.601,255.582,716.405,0.0133975,428.126,-0.0272386,-0.0766042,-0.0448837,0.298858,-0.252003,0.595095,2.72324e-05,4.10046e-05,0.496038,-0.04389132919424943,0.813203191081489,2.723277080507458e-05,0.348318148701408,4.1005440700070395e-05,-0.2227575936617704
614,0.602,255.644,716.586,0.0133628,428.232,-0.0272588,-0.0766075,-0.0449449,0.299253,-0.252337,0.595887,2.71024e-05,4.07784e-05,0.496701,-0.04394984125441548,0.8146398168375295,2.710276727335703e-05,0.34885083956966545,4.077923145029416e-05,-0.22301714927728666
615,0.603,255.707,716.766,0.0133294,428.339,-0.0272792,-0.0766107,-0.0450061,0.299648,-0.25267,0.596679,2.69724e-05,4.05523e-05,0.497364,-0.044008349733753005,0.8160775808518597,2.6972763758514873e-05,0.3493837408923779,4.0553122255593266e-05,-0.22327584149193314
616,0.604,255.77,716.946,0.013295,428.445,-0.0272994,-0.0766141,-0.0450672,0.300043,-0.253004,0.59747,2.68424e-05,4.03263e-05,0.498027,-0.044066759039161796,0.817514666510762,2.6842760260548104e-05,0.34991685275269124,4.032711311618975e-05,-0.22353522404157777
617,0.605,255.832,717.126,0.0132617,428.551,-0.0273196,-0.0766172,-0.0451283,0.300438,-0.253337,0.598261,2.67126e-05,4.01005e-05,0.498689,-0.04412516477587103,0.8189528893541176,2.67129567845803e-05,0.3504501752337843,4.010130403586665e-05,-0.22379374376604888
618,0.606,255.894,717.306,0.0132277,428.657,-0.0273397,-0.0766205,-0.0451894,0.300833,-0.25367,0.599052,2.65828e-05,3.98747e-05,0.499351,-0.04418356694409886,0.8203922502817951,2.658315332570993e-05,0.3509837084188687,3.987549500639176e-05,-0.2240521774177836
619,0.607,255.956,717.485,0.0131944,428.762,-0.0273599,-0.0766236,-0.0452505,0.301227,-0.254002,0.599842,2.6453e-05,3.96491e-05,0.500013,-0.04424196554406323,0.8218309283625362,2.645334988371495e-05,0.3515161008744121,3.9649886035997284e-05,-0.22430974933557668
620,0.608,256.019,717.664,0.0131607,428.868,-0.0273799,-0.0766268,-0.0453115,0.301621,-0.254335,0.600631,2.63234e-05,3.94236e-05,0.500674,-0.04430026500601336,0.8232689201781873,2.6323746463718933e-05,0.3520487031339119,3.9424377120234055e-05,-0.2245680111860633
621,0.609,256.081,717.843,0.0131275,428.973,-0.0273999,-0.07663,-0.0453724,0.302015,-0.254667,0.60142,2.61938e-05,3.91982e-05,0.501334,-0.044358465347656084,0.8247080470170887,2.6194143060598307e-05,0.3525815152800469,3.919896825954616e-05,-0.22482541187547078
622,0.61,256.143,718.021,0.0130941,429.078,-0.0274199,-0.0766331,-0.0454334,0.302408,-0.254999,0.602208,2.60643e-05,3.89729e-05,0.501995,-0.044416757703334975,0.8261464836277304,2.6064639676803836e-05,0.3531131842816677,3.897365945326747e-05,-0.2250827271220336
623,0.611,256.204,718.199,0.013061,429.183,-0.0274398,-0.0766362,-0.0454943,0.302802,-0.255331,0.602996,2.59348e-05,3.87477e-05,0.502654,-0.04447495095078846,0.8275860541731328,2.5935136309884754e-05,0.35364641591600865,3.8748450701842074e-05,-0.22533995695411424
624,0.612,256.266,718.377,0.0130278,429.288,-0.0274596,-0.0766393,-0.0455551,0.303195,-0.255663,0.603784,2.58054e-05,3.85227e-05,0.503314,-0.044533045107690405,0.8290267595471887,2.5805732962291827e-05,0.3541785035058267,3.8523442008830955e-05,-0.2255971014000655
625,0.613,256.328,718.554,0.0129949,429.393,-0.0274795,-0.0766423,-0.0456159,0.303588,-0.255994,0.604571,2.5676e-05,3.82978e-05,0.503973,-0.044591135732574894,0.8304667701768103,2.5676329631352246e-05,0.35471080024716306,3.829853337000699e-05,-0.22585338634200425
626,0.614,256.389,718.731,0.012962,429.497,-0.0274992,-0.0766454,-0.0456767,0.30398,-0.256325,0.605357,2.55468e-05,3.8073e-05,0.504631,-0.044649222825656865,0.8319060826338649,2.5547126322189584e-05,0.3552419509796019,3.807372478581428e-05,-0.2261095864676652
627,0.615,256.451,718.908,0.0129292,429.601,-0.0275189,-0.0766484,-0.0457375,0.304372,-0.256657,0.606143,2.54176e-05,3.78483e-05,0.50529,-0.044707306387150925,0.8333465268352278,2.5417923029902312e-05,0.35577330996394263,3.7849016256030765e-05,-0.2263664754390291
628,0.616,256.512,719.085,0.0128965,429.705,-0.0275386,-0.0766514,-0.0457982,0.304765,-0.256987,0.606929,2.52884e-05,3.76237e-05,0.505947,-0.044765290893805654,0.8347881036708,2.5288719754268385e-05,0.35630623358739144,3.7624407780212366e-05,-0.22662173238242211
629,0.617,256.573,719.261,0.0128639,429.809,-0.0275582,-0.0766544,-0.0458589,0.305156,-0.257318,0.607714,2.51593e-05,3.73992e-05,0.506605,-0.04482327188090762,0.8362289778012859,2.515961649773857e-05,0.3568366530149645,3.739989935880317e-05,-0.22687767822762928
630,0.618,256.634,719.437,0.0128313,429.913,-0.0275778,-0.0766573,-0.0459195,0.305548,-0.257648,0.608498,2.50303e-05,3.71749e-05,0.507262,-0.04488115383679059,0.8376691457919672,2.5030613260534906e-05,0.3573686372450433,3.7175590995142116e-05,-0.22713276650193392
631,0.619,256.695,719.613,0.0127989,430.017,-0.0275973,-0.0766603,-0.0459802,0.305939,-0.257979,0.609282,2.49014e-05,3.69507e-05,0.507918,-0.04493912779122544,0.8391104433170726,2.4901710042435354e-05,0.3578994721536679,3.695138268544618e-05,-0.2273885432228393
632,0.62,256.756,719.788,0.0127665,430.12,-0.0276168,-0.0766632,-0.0460407,0.30633,-0.258309,0.610066,2.47725e-05,3.67265e-05,0.508574,-0.044996907226148575,0.8405528712625048,2.4772806840989148e-05,0.3584305146593243,3.672717442615436e-05,-0.2276434629395091
633,0.621,256.817,719.963,0.0127343,430.223,-0.0276362,-0.0766661,-0.0461013,0.306721,-0.258638,0.610849,2.46437e-05,3.65025e-05,0.50923,-0.04505477866004848,0.8419945885193509,2.4644003658425007e-05,0.35896176484319886,3.650316622438865e-05,-0.2278975264444637
634,0.622,256.877,720.138,0.0127021,430.326,-0.0276556,-0.076669,-0.0461618,0.307112,-0.258968,0.611632,2.4515e-05,3.62787e-05,0.509886,-0.0451125510983057,0.843437435082875,2.4515300494964976e-05,0.3594932227865095,3.627935807992699e-05,-0.22815227822438144
635,0.623,256.938,720.312,0.0126701,430.429,-0.0276749,-0.0766718,-0.0462223,0.307502,-0.259297,0.612414,2.43863e-05,3.60549e-05,0.51054,-0.04517032004143606,0.8448795669571814,2.438659734815829e-05,0.3600235285462978,3.605554998564742e-05,-0.2284061743566418
636,0.624,256.998,720.487,0.0126381,430.532,-0.0276942,-0.0766747,-0.0462827,0.307892,-0.259627,0.613195,2.42577e-05,3.58312e-05,0.511195,-0.04522799001245492,0.8463209806977734,2.4257994220455714e-05,0.36055404116566736,3.583184194511091e-05,-0.2286607583104413
637,0.625,257.059,720.661,0.0126062,430.634,-0.0277134,-0.0766775,-0.0463431,0.308282,-0.259956,0.613977,2.41291e-05,3.56077e-05,0.511849,-0.04528565650031269,0.8477653683866588,2.412939110918444e-05,0.3610847607253094,3.560833396165641e-05,-0.22891448718026952
638,0.626,257.119,720.834,0.0125744,430.737,-0.0277326,-0.0766803,-0.0464035,0.308672,-0.260284,0.614757,2.40006e-05,3.53843e-05,0.512503,-0.04534331950521975,0.8492071876103975,2.400088801679523e-05,0.36161568730594595,3.538492603172294e-05,-0.22916736175477703
639,0.627,257.179,721.008,0.0125427,430.839,-0.0277518,-0.0766831,-0.0464638,0.309061,-0.260613,0.615538,2.38722e-05,3.5161e-05,0.513156,-0.04540088356747973,0.8506519825429033,2.3872484943288086e-05,0.3621454588421913,3.516161815531049e-05,-0.22942092397948655
640,0.628,257.239,721.181,0.0125111,430.941,-0.0277709,-0.0766859,-0.0465241,0.309451,-0.260941,0.616317,2.37438e-05,3.49378e-05,0.513809,-0.04545844415873135,0.852094202108892,2.3744081886212243e-05,0.36267679917577,3.493841033197498e-05,-0.2296736324699632
641,0.629,257.299,721.354,0.0124795,431.043,-0.0277899,-0.0766886,-0.0465844,0.30984,-0.261269,0.617097,2.36155e-05,3.47147e-05,0.514462,-0.04551600127918387,0.8535393991401077,2.3615778848018465e-05,0.3632069835648273,3.471530256216049e-05,-0.22992625808564726
642,0.63,257.359,721.526,0.0124481,431.144,-0.0278089,-0.0766914,-0.0466446,0.310228,-0.261597,0.617875,2.34873e-05,3.44918e-05,0.515114,-0.04557345948639757,0.854982013897013,2.3487575828706753e-05,0.36373601049903903,3.449239484898392e-05,-0.2301788008537171
643,0.631,257.419,721.699,0.0124167,431.246,-0.0278279,-0.0766941,-0.0467048,0.310617,-0.261925,0.618654,2.33592e-05,3.42689e-05,0.515766,-0.0456309142347312,0.8564276078715882,2.3359472828277106e-05,0.36426660700145197,3.4269487185545344e-05,-0.23043126080134224
644,0.632,257.479,721.871,0.0123855,431.347,-0.0278468,-0.0766968,-0.046765,0.311005,-0.262253,0.619432,2.32311e-05,3.40462e-05,0.516417,-0.04568836552439304,0.8578724705292067,2.3231369844056715e-05,0.36479604514932706,3.4046779578522646e-05,-0.23068363795568347
645,0.633,257.538,722.042,0.0123543,431.448,-0.0278657,-0.0766995,-0.0468251,0.311393,-0.26258,0.620209,2.3103e-05,3.38236e-05,0.517068,-0.04574571793016802,0.8593165984098345,2.3103266876267625e-05,0.3653256887590608,3.382417202435484e-05,-0.2309351632794402
646,0.634,257.598,722.214,0.0123232,431.55,-0.0278845,-0.0767022,-0.0468852,0.311781,-0.262907,0.620986,2.29751e-05,3.36011e-05,0.517718,-0.04580306688916691,0.8607618488138693,2.297536392958932e-05,0.3658555379103876,3.360166452326396e-05,-0.23118660636786237
647,0.635,257.657,722.385,0.0122922,431.65,-0.0279032,-0.0767048,-0.0469452,0.312168,-0.263234,0.621762,2.28472e-05,3.33787e-05,0.518369,-0.045860316987633376,0.8622063604065593,2.2847460999342317e-05,0.3663842262981636,3.337925707502798e-05,-0.23143796724783638
648,0.636,257.716,722.556,0.0122613,431.751,-0.027922,-0.0767075,-0.0470052,0.312555,-0.263561,0.622538,2.27193e-05,3.31565e-05,0.519018,-0.045917563651197035,0.8636519933752829,2.271955808530457e-05,0.36691311932794135,3.3157049682763784e-05,-0.23168924594624007
649,0.637,257.776,722.726,0.0122304,431.852,-0.0279407,-0.0767101,-0.0470652,0.312942,-0.263887,0.623314,2.25916e-05,3.29343e-05,0.519668,-0.045974806880063945,0.8650987485905655,2.2591855192155563e-05,0.36744221707893243,3.2934842340015535e-05,-0.23193967443000085
650,0.638,257.835,722.897,0.0121997,431.952,-0.0279593,-0.0767127,-0.0471252,0.313329,-0.264214,0.624089,2.24638e-05,3.27123e-05,0.520317,-0.046032046674440164,0.8665447603779148,2.2464052312987093e-05,0.36797151963037966,3.271283505301703e-05,-0.23219078909697655
651,0.639,257.894,723.067,0.012169,432.052,-0.0279779,-0.0767153,-0.0471851,0.313716,-0.26454,0.624863,2.23362e-05,3.24904e-05,0.520965,-0.046089187643455265,0.8679900252678077,2.2336449454707363e-05,0.36850102706155585,3.2490927818873416e-05,-0.23244105410431837
652,0.64,257.953,723.236,0.0121384,432.152,-0.0279964,-0.0767179,-0.047245,0.314102,-0.264866,0.625637,2.22086e-05,3.22686e-05,0.521614,-0.04614632518982886,0.8694364092257489,2.2208846612858935e-05,0.36902937042171,3.226912063691856e-05,-0.2326912375385648
653,0.641,258.011,723.406,0.0121079,432.252,-0.028015,-0.0767205,-0.0473048,0.314488,-0.265192,0.626411,2.20811e-05,3.20469e-05,0.522261,-0.04620336393410707,0.8708839131182324,2.2081343789226437e-05,0.3695579177617667,3.20474135073745e-05,-0.23294133942630457
654,0.642,258.07,723.575,0.0120775,432.352,-0.0280334,-0.076723,-0.0473646,0.314874,-0.265517,0.627184,2.19537e-05,3.18253e-05,0.522909,-0.04626039926757031,0.8723306654808212,2.195394098425396e-05,0.3700866691604776,3.1825806430241244e-05,-0.23319059298509381
655,0.643,258.129,723.744,0.0120472,432.452,-0.0280518,-0.0767256,-0.0474244,0.31526,-0.265842,0.627957,2.18263e-05,3.16039e-05,0.523556,-0.04631743119042264,0.8737785366153359,2.182653819549074e-05,0.37061562469662435,3.160439940841364e-05,-0.23343976554963863
656,0.644,258.187,723.913,0.012017,432.551,-0.0280702,-0.0767281,-0.0474842,0.315645,-0.266168,0.628729,2.1699e-05,3.13825e-05,0.524202,-0.04637445970286791,0.8752256521603319,2.1699235424943453e-05,0.3711434133049203,3.138299243587994e-05,-0.23368962345701771
657,0.645,258.246,724.081,0.0119868,432.65,-0.0280885,-0.0767306,-0.0475439,0.31603,-0.266493,0.629501,2.15717e-05,3.11613e-05,0.524849,-0.04643138944825387,0.8766738853098683,2.1571932670827465e-05,0.3716714051509513,3.116178551842985e-05,-0.2339386338630114
658,0.646,258.304,724.249,0.0119568,432.749,-0.0281068,-0.0767331,-0.0476036,0.316415,-0.266817,0.630272,2.14445e-05,3.09402e-05,0.525494,-0.04648831579503543,0.8781213588047716,2.144472993492741e-05,0.37219960031297883,3.0940678652946474e-05,-0.23418679754095306
659,0.647,258.362,724.417,0.0119268,432.848,-0.0281251,-0.0767356,-0.0476632,0.3168,-0.267142,0.631043,2.13174e-05,3.07192e-05,0.52614,-0.046545143397934696,0.8795699487320685,2.131762721746533e-05,0.37272799886929464,3.071967183942981e-05,-0.23443564639162362
660,0.648,258.421,724.585,0.0118969,432.947,-0.0281433,-0.0767381,-0.0477228,0.317184,-0.267466,0.631813,2.11904e-05,3.04983e-05,0.526785,-0.0466019676140097,0.8810177749341452,2.119062451821918e-05,0.37325522764230623,3.0498765077879852e-05,-0.2346836490635903
661,0.649,258.479,724.752,0.0118671,433.046,-0.0281614,-0.0767405,-0.0477824,0.317568,-0.26779,0.632583,2.10634e-05,3.02776e-05,0.527429,-0.046658788443462385,0.8824667163917159,2.1063621834960244e-05,0.37378265891004325,3.0278058371191463e-05,-0.23493157139570708
662,0.65,258.537,724.919,0.0118373,433.144,-0.0281795,-0.076743,-0.0478419,0.317952,-0.268114,0.633352,2.09364e-05,3.00569e-05,0.528074,-0.046715510558050344,0.8839148900480258,2.0936619167910564e-05,0.3743102927502784,3.0057351713130842e-05,-0.23517941341399984
663,0.651,258.594,725.086,0.0118077,433.242,-0.0281976,-0.0767454,-0.0479014,0.318336,-0.268438,0.634121,2.08096e-05,2.98364e-05,0.528718,-0.046772229297772805,0.8853641777781842,2.0809816521305535e-05,0.3748381292408147,2.9836845109709742e-05,-0.23542717514448597
664,0.652,258.652,725.253,0.0117781,433.341,-0.0282156,-0.0767478,-0.0479609,0.31872,-0.268762,0.63489,2.06828e-05,2.9616e-05,0.529361,-0.04682894466283083,0.8868145804392427,2.0683013890687718e-05,0.37536616845948445,2.961643855803331e-05,-0.23567485661317444
665,0.653,258.71,725.419,0.0117486,433.439,-0.0282336,-0.0767502,-0.0480203,0.319103,-0.269085,0.635658,2.0556e-05,2.93957e-05,0.530004,-0.04688556134198585,0.8882642106237586,2.0556211276057113e-05,0.3758930345904281,2.9396132057879498e-05,-0.23592169376814187
666,0.654,258.768,725.585,0.0117192,433.536,-0.0282515,-0.0767526,-0.0480797,0.319486,-0.269408,0.636425,2.04294e-05,2.91755e-05,0.530647,-0.046942174658209934,0.8897130648378695,2.0429608681649114e-05,0.37642010254974756,2.9175925609026265e-05,-0.2361684512075829
667,0.655,258.825,725.751,0.0116899,433.634,-0.0282694,-0.076755,-0.0481391,0.319869,-0.269731,0.637192,2.03028e-05,2.89554e-05,0.531289,-0.04699878461170304,0.8911630307494438,2.0303006103228327e-05,0.37694737241475784,2.8955819211695655e-05,-0.2364151289572417
668,0.656,258.882,725.916,0.0116607,433.732,-0.0282873,-0.0767574,-0.0481984,0.320251,-0.270054,0.637959,2.01762e-05,2.87354e-05,0.531931,-0.04705529590819901,0.8926141092114812,2.0176403540794752e-05,0.37747346678864835,2.8735812865665622e-05,-0.2366617270428537
669,0.657,258.94,726.082,0.0116315,433.829,-0.0283051,-0.0767597,-0.0482577,0.320634,-0.270376,0.638725,2.00497e-05,2.85156e-05,0.532573,-0.04711180385367453,0.8940644070122805,2.0049900996577108e-05,0.3780011401694303,2.8516006573608976e-05,-0.2369074823980104
670,0.658,258.997,726.247,0.0116024,433.926,-0.0283229,-0.0767621,-0.048317,0.321016,-0.270699,0.639491,1.99233e-05,2.82959e-05,0.533214,-0.0471683084483282,0.8955158161667895,1.992349847035335e-05,0.3785276371594979,2.829630033285291e-05,-0.2371539214791416
671,0.659,259.054,726.411,0.0115734,434.023,-0.0283406,-0.0767644,-0.0483762,0.321398,-0.271021,0.640256,1.9797e-05,2.80762e-05,0.533855,-0.047224714414835,0.8969664405592424,1.9797195961901437e-05,0.3790543353098348,2.807659414028052e-05,-0.2373995183732034
672,0.66,259.111,726.576,0.0115445,434.12,-0.0283583,-0.0767667,-0.0484354,0.321779,-0.271343,0.641021,1.96707e-05,2.78567e-05,0.534495,-0.04728111704220739,0.898418175103934,1.9670893469436734e-05,0.37957985511675374,2.7857088001459474e-05,-0.2376450361977961
673,0.661,259.168,726.74,0.0115156,434.217,-0.0283759,-0.076769,-0.0484946,0.322161,-0.271665,0.641785,1.95445e-05,2.76373e-05,0.535135,-0.04733751633064309,0.899869120780386,1.954469099496592e-05,0.38010695529113203,2.763768191371696e-05,-0.237890474978376
674,0.662,259.225,726.904,0.0114869,434.314,-0.0283936,-0.0767713,-0.0485537,0.322542,-0.271986,0.642549,1.94183e-05,2.74181e-05,0.535775,-0.047393817019726225,0.9013211754028982,1.9418488536482315e-05,0.3806328762226734,2.7418475879503745e-05,-0.23813507287584512
675,0.663,259.282,727.068,0.0114582,434.41,-0.0284111,-0.0767736,-0.0486128,0.322923,-0.272307,0.643313,1.92922e-05,2.71989e-05,0.536414,-0.0474501143815369,0.9027743398190291,1.9292386095770553e-05,0.3811589975682663,2.719926989347421e-05,-0.23837959226998962
676,0.664,259.339,727.231,0.0114296,434.506,-0.0284286,-0.0767759,-0.0486719,0.323304,-0.272629,0.644076,1.91662e-05,2.69799e-05,0.537053,-0.04750640841627185,0.9042267106493223,1.9166383672830634e-05,0.38168531940428285,2.6980263960751927e-05,-0.23862479456159114
677,0.665,259.395,727.394,0.0114011,434.603,-0.0284461,-0.0767782,-0.0487309,0.323684,-0.27295,0.644838,1.90402e-05,2.67609e-05,0.537691,-0.047562603880392795,0.905678284382192,1.904038126565588e-05,0.38221045959597366,2.676125807599128e-05,-0.2388691567803024
678,0.666,259.452,727.557,0.0113726,434.699,-0.0284636,-0.0767804,-0.0487899,0.324064,-0.27327,0.6456,1.89143e-05,2.65421e-05,0.538329,-0.04761879602907915,0.9071309646357768,1.8914478876475016e-05,0.3827357993788574,2.654245224475993e-05,-0.23911267968438998
679,0.667,259.508,727.72,0.0113443,434.794,-0.028481,-0.0767827,-0.0488489,0.324444,-0.273591,0.646362,1.87885e-05,2.63234e-05,0.538967,-0.047674984862526526,0.9085847522535673,1.8788676505065993e-05,0.38326133882879265,2.6323746463718933e-05,-0.2393568853171103
680,0.668,259.565,727.882,0.011316,434.89,-0.0284983,-0.0767849,-0.0489078,0.324824,-0.273911,0.647123,1.86627e-05,2.61048e-05,0.539604,-0.047731075154042846,0.9100377380410032,1.8662874149200093e-05,0.3837870780216679,2.6105140733312382e-05,-0.23960025217303516
681,0.669,259.621,728.045,0.0112877,434.986,-0.0285157,-0.0767871,-0.0489667,0.325204,-0.274232,0.647884,1.8537e-05,2.58863e-05,0.540241,-0.04778716214193823,0.9114918299714574,1.853717181132808e-05,0.3843130170333995,2.5886635053096185e-05,-0.23984430132010393
682,0.67,259.677,728.207,0.0112596,435.081,-0.0285329,-0.0767893,-0.0490256,0.325583,-0.274552,0.648644,1.84114e-05,2.5668e-05,0.540878,-0.04784324582640742,0.9129451159409525,1.841156949078382e-05,0.3848377711014699,2.5668329425965197e-05,-0.24008751222786084
683,0.671,259.733,728.368,0.0112316,435.176,-0.0285502,-0.0767915,-0.0490844,0.325962,-0.274871,0.649404,1.82858e-05,2.54497e-05,0.541514,-0.04789923099757265,0.9143995068275999,1.828596718622677e-05,0.3853627240890247,2.5450023846351755e-05,-0.2403298856508439
684,0.672,259.789,728.53,0.0112036,435.272,-0.0285674,-0.0767937,-0.0491432,0.326341,-0.275191,0.650163,1.81603e-05,2.52316e-05,0.54215,-0.04795521287690663,0.9158530876174102,1.816046489921952e-05,0.385887876071469,2.5231918319601476e-05,-0.2405729411964742
685,0.673,259.845,728.691,0.0111757,435.366,-0.0285845,-0.0767959,-0.049202,0.32672,-0.275511,0.650922,1.80348e-05,2.50135e-05,0.542785,-0.048011191464602865,0.9173077720938358,1.8034962627977436e-05,0.386413227124236,2.50138128401467e-05,-0.24081591897677312
686,0.674,259.901,728.852,0.0111478,435.461,-0.0286017,-0.0767981,-0.0492607,0.327098,-0.27583,0.65168,1.79095e-05,2.47956e-05,0.54342,-0.04806707156756673,0.9187616423322917,1.790966037606978e-05,0.386937390384704,2.479590741333304e-05,-0.24105806007506103
687,0.675,259.957,729.013,0.0111201,435.556,-0.0286187,-0.0768002,-0.0493194,0.327477,-0.276149,0.652438,1.77841e-05,2.45778e-05,0.544055,-0.04812294839046494,0.9202166150221642,1.778425813814266e-05,0.38746313927878195,2.4578102036709737e-05,-0.24130012394265743
688,0.676,260.012,729.173,0.0110924,435.651,-0.0286358,-0.0768024,-0.0493781,0.327855,-0.276468,0.653196,1.76589e-05,2.43601e-05,0.544689,-0.04817882193348988,0.9216726909994291,1.7659055919327926e-05,0.3879876994810616,2.4360396709610654e-05,-0.24154211060419517
689,0.677,260.068,729.333,0.0110648,435.745,-0.0286528,-0.0768045,-0.0494367,0.328232,-0.276786,0.653953,1.75337e-05,2.41426e-05,0.545323,-0.04823459702029864,0.9231279479717853,1.7533853716278358e-05,0.38851106949281444,2.4142891434930647e-05,-0.24178326186793986
690,0.678,260.123,729.493,0.0110373,435.839,-0.0286698,-0.0768066,-0.0494953,0.32861,-0.277105,0.654709,1.74086e-05,2.39251e-05,0.545957,-0.048290368838783015,0.9245823824073969,1.7408751530556543e-05,0.3890360258875907,2.392538620754614e-05,-0.24202509443305908
691,0.679,260.179,729.653,0.0110098,435.933,-0.0286867,-0.0768088,-0.0495539,0.328987,-0.277423,0.655466,1.72835e-05,2.37078e-05,0.54659,-0.048346137389134514,0.9260398428500571,1.7283649360599895e-05,0.38955979119290673,2.370808103213662e-05,-0.24226609213236427
692,0.68,260.234,729.812,0.0109825,436.027,-0.0287036,-0.0768109,-0.0496124,0.329364,-0.277741,0.656221,1.71585e-05,2.34905e-05,0.547223,-0.04840180751173029,0.9274945520150171,1.7158647207971e-05,0.39008375399496886,2.3490775904022598e-05,-0.2425070132065852
693,0.681,260.289,729.972,0.0109552,436.121,-0.0287204,-0.076813,-0.0496709,0.329741,-0.278059,0.656977,1.70335e-05,2.32734e-05,0.547855,-0.04845747437771919,0.9289522888514354,1.7033645070885228e-05,0.39060791436824704,2.327367082766152e-05,-0.24274785768008456
694,0.682,260.344,730.131,0.0109279,436.215,-0.0287372,-0.0768151,-0.0497294,0.330118,-0.278377,0.657732,1.69087e-05,2.30564e-05,0.548487,-0.04851313798729162,0.9304091977434188,1.690884295291184e-05,0.39113227238724013,2.305666580082466e-05,-0.24298862557721768
695,0.683,260.399,730.289,0.0109008,436.308,-0.028754,-0.0768172,-0.0497878,0.330494,-0.278694,0.658486,1.67839e-05,2.28395e-05,0.549119,-0.048568703197513274,0.9318652751507162,1.6784040850481574e-05,0.39165543647034173,2.283976082328998e-05,-0.2432285601512706
696,0.684,260.454,730.448,0.0108737,436.402,-0.0287708,-0.0768193,-0.0498462,0.33087,-0.279012,0.65924,1.66591e-05,2.26227e-05,0.54975,-0.04862426516282137,0.9333224508543845,1.665923876359443e-05,0.3921787973001247,2.2622955895279517e-05,-0.24346917520932054
697,0.685,260.509,730.606,0.0108467,436.495,-0.0287875,-0.0768213,-0.0499046,0.331246,-0.279329,0.659993,1.65344e-05,2.24061e-05,0.550381,-0.048679823883405415,0.9347787909030931,1.653453669403504e-05,0.3927023549505795,2.2406351018577908e-05,-0.24370895747328236
698,0.686,260.564,730.764,0.0108198,436.588,-0.0288041,-0.0768234,-0.0499629,0.331622,-0.279646,0.660746,1.64098e-05,2.21895e-05,0.551012,-0.04873528423298812,0.936236227988841,1.640993464158136e-05,0.3932261094957248,2.218974618872771e-05,-0.24394866373831303
699,0.687,260.619,730.922,0.0107929,436.681,-0.0288207,-0.0768254,-0.0500212,0.331998,-0.279962,0.661499,1.62852e-05,2.19731e-05,0.551642,-0.048790741349326594,0.9376947629380079,1.62853326046708e-05,0.3937500610096072,2.197334141040841e-05,-0.24418753821641648
700,0.688,260.673,731.079,0.0107661,436.774,-0.0288373,-0.0768275,-0.0500795,0.332373,-0.280279,0.662251,1.61607e-05,2.17567e-05,0.552271,-0.04884619523260958,0.9391524574241699,1.616083058486595e-05,0.3942728152927877,2.1756936678718475e-05,-0.24442709279539498
701,0.689,260.728,731.237,0.0107394,436.867,-0.0288539,-0.0768295,-0.0501378,0.332748,-0.280595,0.663003,1.60363e-05,2.15405e-05,0.552901,-0.04890164588302537,0.9406112485088545,1.6036428582166806e-05,0.3947957656455854,2.1540731998337392e-05,-0.2446658161138009
702,0.69,260.783,731.394,0.0107128,436.959,-0.0288704,-0.0768315,-0.050196,0.333123,-0.280912,0.663754,1.59119e-05,2.13244e-05,0.55353,-0.04895699819646704,0.9420691949468485,1.5912026595010786e-05,0.3953189121415399,2.1324627366592352e-05,-0.24490521910271423
703,0.691,260.837,731.551,0.0106862,437.052,-0.0288869,-0.0768336,-0.0502541,0.333498,-0.281228,0.664505,1.57876e-05,2.11084e-05,0.554159,-0.04901225218972771,0.9435282367138622,1.578772462473843e-05,0.39584225485421864,2.1108622783927444e-05,-0.2451437913570763
704,0.692,260.891,731.707,0.0106597,437.144,-0.0289033,-0.0768356,-0.0503123,0.333872,-0.281543,0.665255,1.56634e-05,2.08925e-05,0.554787,-0.04906759806606964,0.944986429645394,1.5663522671793828e-05,0.39636439749212116,2.089271824989858e-05,-0.24538153361642723
705,0.693,260.945,731.864,0.0106333,437.236,-0.0289197,-0.0768376,-0.0503704,0.334246,-0.281859,0.666005,1.55392e-05,2.06768e-05,0.555415,-0.04912284563366465,0.9464457166318438,1.553932073394826e-05,0.39688673544789244,2.067701376651243e-05,-0.2456199553791819
706,0.694,261.0,732.02,0.0106069,437.328,-0.0289361,-0.0768396,-0.0504285,0.33462,-0.282174,0.666755,1.54151e-05,2.04611e-05,0.556042,-0.04917808999146922,0.9479060984940606,1.5415218813208398e-05,0.3974092687945949,2.046130932975565e-05,-0.24585754767048695
707,0.695,261.054,732.176,0.0105807,437.42,-0.0289524,-0.0768416,-0.0504865,0.334994,-0.28249,0.667504,1.52911e-05,2.02456e-05,0.55667,-0.04923323606299812,0.9493656266869079,1.5291216909574246e-05,0.3979319976053186,2.0245804943641588e-05,-0.24609581903656463
708,0.696,261.108,732.331,0.0105544,437.511,-0.0289687,-0.0768436,-0.0505445,0.335367,-0.282805,0.668253,1.51671e-05,2.00301e-05,0.557296,-0.04928837893614768,0.9508262484758723,1.5167215021039127e-05,0.3984535234989579,2.0030300603712803e-05,-0.2463332614544239
709,0.697,261.162,732.487,0.0105283,437.603,-0.028985,-0.0768455,-0.0506025,0.335741,-0.28312,0.669001,1.50431e-05,1.98148e-05,0.557923,-0.04934351861110342,0.9522860123933752,1.504321314804713e-05,0.39897664293398316,1.9814996314426736e-05,-0.2465706290897004
710,0.698,261.215,732.642,0.0105022,437.694,-0.0290012,-0.0768475,-0.0506604,0.336114,-0.283434,0.669749,1.49193e-05,1.95996e-05,0.558549,-0.04939856002791143,0.9537468686227626,1.4919411293279339e-05,0.39949855855300953,1.9599792073332623e-05,-0.2468071687734924
711,0.699,261.269,732.797,0.0104762,437.786,-0.0290174,-0.0768495,-0.0507184,0.336487,-0.283749,0.670496,1.47955e-05,1.93845e-05,0.559175,-0.04945369331254912,0.9552068627735482,1.479560945405467e-05,0.4000206688828727,1.9384687880652507e-05,-0.2470443871514727
712,0.7,261.323,732.952,0.0104503,437.877,-0.0290335,-0.0768514,-0.0507762,0.336859,-0.284063,0.671243,1.46717e-05,1.91695e-05,0.5598,-0.049508633301294624,0.956667947947411,1.4671807629929035e-05,0.40054157345394037,1.91696837359423e-05,-0.24728077809858628
713,0.701,261.376,733.106,0.0104245,437.968,-0.0290496,-0.0768533,-0.0508341,0.337232,-0.284377,0.671989,1.45481e-05,1.89547e-05,0.560425,-0.049563665158238845,0.9581281668305033,1.4548205824027605e-05,0.4010640729009276,1.8954879641430722e-05,-0.2475170948305947
714,0.702,261.43,733.26,0.0103987,438.059,-0.0290657,-0.0768553,-0.0508919,0.337604,-0.284691,0.672735,1.44245e-05,1.87399e-05,0.56105,-0.04961859879079544,0.9595894754433014,1.4424604033669297e-05,0.4015853656904942,1.874007559310442e-05,-0.24775333737079808
715,0.703,261.483,733.415,0.0103729,438.15,-0.0290818,-0.0768572,-0.0509497,0.337976,-0.285005,0.673481,1.43009e-05,1.85252e-05,0.561674,-0.049673529248279835,0.9610518745990464,1.4301002258410023e-05,0.40210685243705213,1.8525371592525985e-05,-0.2479895057424888
716,0.704,261.537,733.568,0.0103473,438.24,-0.0290978,-0.0768591,-0.0510074,0.338348,-0.285318,0.674226,1.41774e-05,1.83107e-05,0.562298,-0.0497283615037164,0.9625134025972033,1.4177500499812368e-05,0.4026285332127668,1.8310867641924133e-05,-0.24822484819417634
717,0.705,261.59,733.722,0.0103217,438.331,-0.0291137,-0.0768611,-0.0510652,0.338719,-0.285632,0.674971,1.4054e-05,1.80963e-05,0.562921,-0.04978328561709933,0.9639760198394118,1.4054098757876332e-05,0.4031490049401243,1.8096463739070145e-05,-0.24846086853471072
718,0.706,261.643,733.875,0.0102962,438.421,-0.0291297,-0.076863,-0.0511228,0.339091,-0.285945,0.675715,1.39307e-05,1.7882e-05,0.563545,-0.04983801652358255,0.9654377616987169,1.3930797032601916e-05,0.4036710734686879,1.788215988396402e-05,-0.24869606347293138
719,0.707,261.696,734.029,0.0102708,438.511,-0.0291456,-0.0768649,-0.0511805,0.339462,-0.286258,0.676459,1.38074e-05,1.76678e-05,0.564167,-0.04989283928837718,0.9669005914986291,1.3807495322648577e-05,0.4041919320502374,1.7667956076605762e-05,-0.2489311848066561
720,0.708,261.749,734.181,0.0102454,438.601,-0.0291614,-0.0768668,-0.0512381,0.339833,-0.286571,0.677202,1.36841e-05,1.74537e-05,0.56479,-0.049947563884750634,0.968362541685351,1.3684193627794272e-05,0.4047129839061707,1.7453852316773322e-05,-0.24916623255891945
721,0.709,261.802,734.334,0.0102201,438.691,-0.0291773,-0.0768687,-0.0512957,0.340203,-0.286883,0.677945,1.3561e-05,1.72397e-05,0.565412,-0.05000228532907813,0.9698255785046961,1.3561091950720083e-05,0.4052328238746796,1.72398486044667e-05,-0.2494004561535802
722,0.71,261.855,734.487,0.0101948,438.781,-0.0291931,-0.0768706,-0.0513533,0.340574,-0.287196,0.678688,1.34379e-05,1.70258e-05,0.566034,-0.05005700362154131,0.9712897027643317,1.3437990288966972e-05,0.4057542619731236,1.70259449396859e-05,-0.24963535704689654
723,0.711,261.908,734.639,0.0101697,438.871,-0.0292089,-0.0768724,-0.0514108,0.340944,-0.287508,0.67943,1.33148e-05,1.6812e-05,0.566655,-0.050111623773488656,0.9727529425185977,1.3314888642312894e-05,0.40627448728580173,1.6812141322430918e-05,-0.24986943429754804
724,0.712,261.961,734.791,0.0101446,438.961,-0.0292246,-0.0768743,-0.0514683,0.341314,-0.28782,0.680171,1.31918e-05,1.65984e-05,0.567276,-0.05016624078486753,0.9742152941833833,1.3191887012098391e-05,0.4067949051174591,1.6598537754264342e-05,-0.25010343852748906
725,0.713,262.013,734.943,0.0101195,439.05,-0.0292403,-0.0768762,-0.0515258,0.341684,-0.288132,0.680913,1.30689e-05,1.63849e-05,0.567897,-0.05022085465585857,0.9756807055320442,1.3068985398545507e-05,0.4073155155393413,1.6385034233179496e-05,-0.2503373697594986
726,0.714,262.066,735.094,0.0100946,439.139,-0.0292559,-0.076878,-0.0515832,0.342053,-0.288444,0.681653,1.29461e-05,1.61714e-05,0.568517,-0.05027537041418406,0.9771432503289719,1.2946183801210154e-05,0.4078349107871051,1.617153075783584e-05,-0.25057122801634857
727,0.715,262.118,735.246,0.0100697,439.228,-0.0292716,-0.0768799,-0.0516406,0.342423,-0.288755,0.682394,1.28233e-05,1.59581e-05,0.569137,-0.05032988304339492,0.9786088564174602,1.2823382218973833e-05,0.4083559060822821,1.59582273311365e-05,-0.2508042641254422
728,0.716,262.171,735.397,0.0100448,439.317,-0.0292872,-0.0768817,-0.051698,0.342792,-0.289067,0.683134,1.27005e-05,1.57449e-05,0.569756,-0.05038439254367055,0.9800735688479687,1.2700580651614501e-05,0.4088756853049953,1.574502395151889e-05,-0.2510379767339723
729,0.717,262.223,735.548,0.0100201,439.406,-0.0293027,-0.0768836,-0.0517553,0.343161,-0.289378,0.683873,1.25779e-05,1.55318e-05,0.570375,-0.05043880395907585,0.981537384028438,1.2577979102035286e-05,0.409395656361633,1.553192061898301e-05,-0.25127086770678464
730,0.718,262.275,735.698,0.00999536,439.495,-0.0293183,-0.0768854,-0.0518126,0.34353,-0.289689,0.684612,1.24553e-05,1.53188e-05,0.570994,-0.05049321225679637,0.9830022813681347,1.2455377567555104e-05,0.4099158193229946,1.5318917333306814e-05,-0.251503686261766
731,0.719,262.327,735.849,0.00997072,439.584,-0.0293338,-0.0768873,-0.0518699,0.343898,-0.289999,0.685351,1.23327e-05,1.51059e-05,0.571613,-0.05054761743701075,0.9844682616670695,1.233277604795191e-05,0.4104347638244372,1.510601409471235e-05,-0.25173568415749303
732,0.72,262.38,735.999,0.00994615,439.672,-0.0293492,-0.0768891,-0.0519271,0.344266,-0.29031,0.686089,1.22102e-05,1.48932e-05,0.572231,-0.050601924560094824,0.985933339791512,1.2210274544788291e-05,0.4109538993325996,1.4893310904318113e-05,-0.25196835817703467
733,0.721,262.432,736.149,0.00992164,439.761,-0.0293647,-0.0768909,-0.0519844,0.344634,-0.290621,0.686827,1.20878e-05,1.46805e-05,0.572849,-0.050656323511272694,0.9873994995426816,1.2087873057842202e-05,0.4114732259177847,1.4680607758998931e-05,-0.2522009598462073
734,0.722,262.484,736.299,0.00989721,439.849,-0.0293801,-0.0768927,-0.0520415,0.345002,-0.290931,0.687564,1.19655e-05,1.4468e-05,0.573466,-0.050710529487604905,0.9888647528533663,1.1965571586891599e-05,0.41199274365032235,1.4468104662102022e-05,-0.2524327416206237
735,0.723,262.535,736.449,0.00987283,439.937,-0.0293954,-0.0768945,-0.0520987,0.34537,-0.291241,0.688301,1.18432e-05,1.42555e-05,0.574083,-0.05076482729238618,0.9903310864537789,1.1843270131040029e-05,0.41251245260056746,1.4255601610058122e-05,-0.2526644515538261
736,0.724,262.587,736.598,0.00984852,440.025,-0.0294108,-0.0768963,-0.0521558,0.345737,-0.291551,0.689038,1.17209e-05,1.40432e-05,0.5747,-0.050819027073329304,0.991798501140386,1.1720968690065448e-05,0.4130309398072547,1.404329860621445e-05,-0.25289608966808164
737,0.725,262.639,736.747,0.00982427,440.113,-0.0294261,-0.0768981,-0.0522129,0.346105,-0.29186,0.689774,1.15988e-05,1.3831e-05,0.575316,-0.05087322375955328,0.9932650044442413,1.1598867266426893e-05,0.4135510308839925,1.3831095648786373e-05,-0.25312690911293345
738,0.726,262.691,736.896,0.00980009,440.201,-0.0294413,-0.0768999,-0.0522699,0.346472,-0.29217,0.69051,1.14766e-05,1.36189e-05,0.575932,-0.0509273224439718,0.9947325874918249,1.1476665856324786e-05,0.41406989931886096,1.361899273755185e-05,-0.2533584038875645
739,0.727,262.742,737.045,0.00977598,440.288,-0.0294566,-0.0769017,-0.052327,0.346838,-0.292479,0.691245,1.13546e-05,1.34069e-05,0.576548,-0.05098151294670672,0.9961992548778684,1.135466446378075e-05,0.41458754362514116,1.3406989872954966e-05,-0.2535890804993912
740,0.728,262.794,737.194,0.00975192,440.376,-0.0294718,-0.0769035,-0.052384,0.347205,-0.292788,0.69198,1.12326e-05,1.3195e-05,0.577163,-0.05103560545881747,0.9976670006607029,1.1232663085891659e-05,0.4151067925299976,1.319508705432959e-05,-0.2538196858431564
741,0.729,262.845,737.342,0.00972794,440.463,-0.029487,-0.0769053,-0.0524409,0.347571,-0.293097,0.692714,1.11107e-05,1.29833e-05,0.577778,-0.0510895999967077,0.9991338264984151,1.1110761723998053e-05,0.4156248164086507,1.2983384283460353e-05,-0.2540502199408785
742,0.73,262.897,737.49,0.00970401,440.551,-0.0295021,-0.0769071,-0.0524978,0.347938,-0.293406,0.693448,1.09888e-05,1.27716e-05,0.578392,-0.05114359146239611,1.0006017293815193,1.0988860376981435e-05,0.4161444460624819,1.2771681557222081e-05,-0.25428068281456906
743,0.731,262.948,737.638,0.00968015,440.638,-0.0295172,-0.0769088,-0.0525547,0.348303,-0.293715,0.694182,1.0867e-05,1.256e-05,0.579006,-0.05119757985605755,1.0020707101008575,1.0867059045960303e-05,0.4166614331296947,1.256007887717736e-05,-0.2545110744862329
744,0.732,262.999,737.786,0.00965635,440.725,-0.0295323,-0.0769106,-0.0526116,0.348669,-0.294023,0.694915,1.07453e-05,1.23486e-05,0.57962,-0.051251565177866776,1.0035387659080839,1.0745357730934657e-05,0.4171800261109466,1.2348676244222645e-05,-0.25474064971889043
745,0.733,263.05,737.933,0.00963262,440.812,-0.0295473,-0.0769124,-0.0526684,0.349035,-0.294331,0.695648,1.06236e-05,1.21372e-05,0.580234,-0.05130545255854857,1.005007898194699,1.0623656430563955e-05,0.4176988089319684,1.213727365612094e-05,-0.2549701542532644
746,0.734,263.101,738.08,0.00960894,440.898,-0.0295624,-0.0769141,-0.0527252,0.3494,-0.29464,0.69638,1.0502e-05,1.1926e-05,0.580847,-0.05135933687851413,1.0064761012729457,1.0502055146188738e-05,0.4182163634451812,1.1926071115109238e-05,-0.25520033291116606
747,0.735,263.152,738.227,0.00958534,440.985,-0.0295773,-0.0769159,-0.052782,0.349765,-0.294947,0.697112,1.03805e-05,1.17149e-05,0.58146,-0.0514132181379372,1.007945379469291,1.0380553877586962e-05,0.41873410690027124,1.1714968619624955e-05,-0.2554289513142419
748,0.736,263.203,738.374,0.00956179,441.071,-0.0295923,-0.0769176,-0.0528388,0.35013,-0.295255,0.697843,1.0259e-05,1.15039e-05,0.582072,-0.051467096336991536,1.0094137241562806,1.025905262364013e-05,0.4192520393662147,1.1503966170112179e-05,-0.25565824388436864
749,0.737,263.254,738.521,0.0095383,441.158,-0.0296072,-0.0769194,-0.0528955,0.350495,-0.295563,0.698574,1.01375e-05,1.1293e-05,0.582684,-0.05152087662794358,1.0108831425956453,1.0137551384570287e-05,0.41977016091201325,1.129306376612682e-05,-0.2558874658432585
750,0.738,263.305,738.667,0.00951488,441.244,-0.0296221,-0.0769211,-0.0529522,0.350859,-0.29587,0.699305,1.00162e-05,1.10822e-05,0.583296,-0.05157465386963955,1.0123536355725844,1.0016250162392382e-05,0.42028705131893207,1.1082261407890925e-05,-0.2561158733289016
751,0.739,263.355,738.814,0.00949152,441.33,-0.029637,-0.0769229,-0.0530088,0.351223,-0.296177,0.700035,9.89488e-06,1.08715e-05,0.583907,-0.05162833322509053,1.0138231900486758,9.894928954423676e-06,0.42080412990820637,1.0871559094960404e-05,-0.2563442107042092
752,0.74,263.406,738.96,0.00946822,441.416,-0.0296518,-0.0769246,-0.0530654,0.351588,-0.296484,0.700765,9.77363e-06,1.06609e-05,0.584518,-0.051682009542375895,1.0152938176911928,9.773677762003885e-06,0.421322818070454,1.06609568275573e-05,-0.2565724779907017
753,0.741,263.457,739.105,0.00944499,441.502,-0.0296666,-0.0769263,-0.053122,0.351951,-0.296791,0.701494,9.65245e-06,1.04505e-05,0.585129,-0.05173568282166763,1.0167635025193218,9.652496585133008e-06,0.4218388519078886,1.0450554606578066e-05,-0.25680067520989314
754,0.742,263.507,739.251,0.00942181,441.588,-0.0296814,-0.076928,-0.0531786,0.352315,-0.297098,0.702223,9.53133e-06,1.02401e-05,0.585739,-0.0517893530631377,1.0182342591383113,9.531375423366129e-06,0.4223564954553931,1.0240152430007754e-05,-0.25702880238329084
755,0.743,263.557,739.396,0.00939869,441.674,-0.0296961,-0.0769298,-0.0532351,0.352678,-0.297404,0.702952,9.41028e-06,1.00299e-05,0.586349,-0.05184292545125546,1.0197060883297806,9.410324276926119e-06,0.42287290458583016,1.0029950299639268e-05,-0.2572561167888837
756,0.744,263.608,739.542,0.00937564,441.759,-0.0297108,-0.0769315,-0.0532916,0.353042,-0.29771,0.70368,9.28928e-06,9.81974e-06,0.586959,-0.05189649481261871,1.0211769696979407,9.289323145589279e-06,0.42339092459702177,9.819788213905056e-06,-0.2574833616469099
757,0.745,263.658,739.687,0.00935265,441.845,-0.0297255,-0.0769332,-0.0533481,0.353405,-0.298017,0.704408,9.16835e-06,9.60971e-06,0.587568,-0.05195006114739864,1.0226489222576034,9.168392029357264e-06,0.42390770929339827,9.6097561734787e-06,-0.2577112792677394
758,0.746,263.708,739.831,0.00932971,441.93,-0.0297401,-0.0769349,-0.0534045,0.353767,-0.298322,0.705135,9.04747e-06,9.39979e-06,0.588177,-0.05200352965612376,1.024119922667945,9.047510928450464e-06,0.42442325719270224,9.399834178136501e-06,-0.25793764280536846
759,0.747,263.758,739.976,0.00930684,442.015,-0.0297548,-0.0769366,-0.0534609,0.35413,-0.298628,0.705862,8.92666e-06,9.18998e-06,0.588785,-0.05205699514931017,1.0255919928844124,8.926699842648489e-06,0.42494041669383376,9.190022228100503e-06,-0.25816467914833796
760,0.748,263.808,740.12,0.00928403,442.1,-0.0297693,-0.0769383,-0.0535173,0.354492,-0.298934,0.706588,8.80591e-06,8.98027e-06,0.589394,-0.052110457627127627,1.027063106620917,8.805948772172556e-06,0.42545633850089004,8.980310322703744e-06,-0.2583916460288148
761,0.749,263.858,740.265,0.00926128,442.185,-0.0297839,-0.07694,-0.0535736,0.354855,-0.299239,0.707314,8.68522e-06,8.77067e-06,0.590002,-0.05216382230613348,1.0285352887737824,8.685257716578576e-06,0.4259738730786087,8.770708462391141e-06,-0.2586178020862241
762,0.75,263.908,740.409,0.00923859,442.27,-0.0297984,-0.0769417,-0.0536299,0.355217,-0.299544,0.70804,8.56459e-06,8.56119e-06,0.590609,-0.05221718398079234,1.0300085401189611,8.564626676310638e-06,0.4264901690645986,8.561226647163522e-06,-0.2588438891765539
763,0.751,263.958,740.552,0.00921595,442.355,-0.0298129,-0.0769434,-0.0536862,0.355578,-0.29985,0.708765,8.44403e-06,8.35181e-06,0.591216,-0.05227054265127362,1.0314808299511222,8.44406565092548e-06,0.4270052249776297,8.351844876353098e-06,-0.25907064825055814
764,0.752,264.008,740.696,0.00919338,442.439,-0.0298274,-0.0769451,-0.0537424,0.35594,-0.300154,0.70949,8.32352e-06,8.14254e-06,0.591823,-0.05232380355013133,1.032954187580441,8.323554640643493e-06,0.4275218943805912,8.14257315062683e-06,-0.25929585654009557
765,0.753,264.058,740.839,0.00917086,442.524,-0.0298418,-0.0769468,-0.0537987,0.356301,-0.300459,0.710214,8.20307e-06,7.93337e-06,0.59243,-0.052377156218099685,1.0344265793537555,8.203103645243459e-06,0.42803732281369733,7.933401469317758e-06,-0.25952173685535174
766,0.754,264.107,740.982,0.00914841,442.608,-0.0298563,-0.0769484,-0.0538549,0.356662,-0.300764,0.710938,8.08269e-06,7.72432e-06,0.593036,-0.05243041112544333,1.0359000375247027,8.08272266494825e-06,0.4285529373500572,7.72434983264958e-06,-0.2597475482876169
767,0.755,264.157,741.125,0.00912601,442.692,-0.0298706,-0.0769501,-0.053911,0.357023,-0.301068,0.711662,7.96237e-06,7.51537e-06,0.593642,-0.052483568288306914,1.0373745628656348,7.962401699757038e-06,0.4290687380568665,7.515398240398596e-06,-0.25997255083081805
768,0.756,264.206,741.268,0.00910368,442.776,-0.029885,-0.0769518,-0.0539671,0.357384,-0.301372,0.712385,7.84211e-06,7.30653e-06,0.594247,-0.05253672246913721,1.0388481173003257,7.842140749447779e-06,0.4295847250013449,7.30655669278768e-06,-0.26019748498364204
769,0.757,264.256,741.411,0.0090814,442.86,-0.0298993,-0.0769535,-0.0540232,0.357744,-0.301676,0.713108,7.72191e-06,7.09779e-06,0.594852,-0.05258987366810164,1.0403227375001003,7.721939814020473e-06,0.430099468150553,7.097815189371914e-06,-0.26042235076687614
770,0.758,264.305,741.553,0.00905918,442.944,-0.0299136,-0.0769551,-0.0540793,0.358105,-0.30198,0.71383,7.60177e-06,6.88917e-06,0.595457,-0.0526430218853674,1.0417963824383825,7.60179889347512e-06,0.4306158272557661,6.889193730374998e-06,-0.26064714820130175
771,0.759,264.354,741.695,0.00903701,443.028,-0.0299279,-0.0769568,-0.0541353,0.358465,-0.302284,0.714552,7.48169e-06,6.68065e-06,0.596061,-0.05269607239071372,1.0432710917324965,7.48171798781172e-06,0.4311309416686093,6.680672315573233e-06,-0.2608718773076937
772,0.76,264.404,741.837,0.00901491,443.111,-0.0299421,-0.0769585,-0.0541913,0.358825,-0.302587,0.715274,7.36167e-06,6.47224e-06,0.596665,-0.05274911992531506,1.044746866151184,7.361697097252318e-06,0.4316462415560245,6.472260944967445e-06,-0.2610957992029891
773,0.761,264.453,741.979,0.00899286,443.195,-0.0299563,-0.0769601,-0.0542473,0.359185,-0.30289,0.715995,7.24171e-06,6.26394e-06,0.597269,-0.05280216448933761,1.0462216602410606,7.241736221352824e-06,0.4321617269847946,6.263959618557635e-06,-0.2613196532602283
774,0.762,264.502,742.121,0.00897087,443.278,-0.0299705,-0.0769618,-0.0543033,0.359544,-0.303193,0.716715,7.12182e-06,6.05574e-06,0.597872,-0.05285520608294769,1.0476954703444026,7.121845360114065e-06,0.4326759653450447,6.055758336120931e-06,-0.26154343949996295
775,0.763,264.551,742.262,0.00894894,443.362,-0.0299847,-0.0769634,-0.0543592,0.359903,-0.303496,0.717436,7.00198e-06,5.84765e-06,0.598476,-0.05290814999713145,1.0491723911444892,7.002004513978477e-06,0.4331903883500081,5.8476670974361156e-06,-0.26176715794273886
776,0.764,264.6,742.403,0.00892707,443.445,-0.0299988,-0.0769651,-0.0544151,0.360262,-0.303799,0.718156,6.8822e-06,5.63967e-06,0.599078,-0.05296109095183321,1.0506483265390947,6.882223682502797e-06,0.4337049960659838,5.639685902947278e-06,-0.26199080860909507
777,0.765,264.649,742.544,0.00890525,443.528,-0.0300129,-0.0769667,-0.0544709,0.360621,-0.304102,0.718875,6.76249e-06,5.4318e-06,0.599681,-0.053013934248616335,1.0521232728655399,6.762512865687853e-06,0.4342197885592951,5.431814752210329e-06,-0.26221439151956505
778,0.766,264.698,742.685,0.00888349,443.611,-0.030027,-0.0769684,-0.0545268,0.36098,-0.304404,0.719594,6.64284e-06,5.22403e-06,0.600283,-0.0530668692901437,1.0535992800597298,6.642862063754862e-06,0.434734765896289,5.224043645224441e-06,-0.2624371691322135
779,0.767,264.746,742.826,0.00886178,443.694,-0.030041,-0.07697,-0.0545825,0.361338,-0.304707,0.720313,6.52324e-06,5.01637e-06,0.600884,-0.05311961199662618,1.0550763488847035,6.523261276480952e-06,0.4352484928941258,5.016382581990442e-06,-0.2626606168159328
780,0.768,264.795,742.966,0.00884014,443.776,-0.030055,-0.0769717,-0.0546383,0.361697,-0.305009,0.721031,6.40371e-06,4.80882e-06,0.601486,-0.053172446448181865,1.056552423550595,6.403730503867777e-06,0.43576383960227405,4.8088315622862865e-06,-0.26288325968888837
781,0.769,264.844,743.107,0.00881854,443.859,-0.030069,-0.0769733,-0.054694,0.362055,-0.30531,0.721749,6.28424e-06,4.60137e-06,0.602087,-0.053225183274180465,1.0580295584186636,6.284259745914511e-06,0.43627793507445034,4.6013805863331925e-06,-0.2631050984393152
782,0.77,264.892,743.247,0.00879701,443.942,-0.030083,-0.0769749,-0.0547498,0.362413,-0.305612,0.722466,6.16483e-06,4.39403e-06,0.602687,-0.05327801183502323,1.0595056947436836,6.164849002621153e-06,0.4367922146257541,4.394039653687898e-06,-0.26332760709908776
783,0.771,264.941,743.387,0.00877553,444.024,-0.0300969,-0.0769766,-0.0548054,0.36277,-0.305914,0.723184,6.04547e-06,4.1868e-06,0.603288,-0.053330648114263024,1.0609849508218923,6.0454882739868765e-06,0.4373052410161373,4.186808764572447e-06,-0.26355004857139086
784,0.772,264.989,743.526,0.00875411,444.106,-0.0301108,-0.0769782,-0.0548611,0.363128,-0.306215,0.7239,5.92618e-06,3.97967e-06,0.603888,-0.053383376128674276,1.0624611444609386,5.926197559791291e-06,0.4378198884088078,3.979677918986013e-06,-0.26377168664856687
785,0.773,265.037,743.666,0.00873274,444.188,-0.0301247,-0.0769798,-0.0549167,0.363485,-0.306516,0.724616,5.80695e-06,3.77265e-06,0.604487,-0.05343600654982228,1.0639383954331105,5.806966860477658e-06,0.4383332817442276,3.772657116485334e-06,-0.263993258022721
786,0.774,265.086,743.805,0.00871143,444.27,-0.0301386,-0.0769815,-0.0549723,0.363842,-0.306817,0.725332,5.68778e-06,3.56573e-06,0.605087,-0.0534886340448002,1.0654167044957297,5.6877961753798445e-06,0.4388468583937877,3.5657363572916267e-06,-0.26421476271392774
787,0.775,265.134,743.944,0.00869017,444.352,-0.0301524,-0.0769831,-0.0550278,0.364199,-0.307118,0.726048,5.56867e-06,3.35893e-06,0.605686,-0.05354116396789188,1.0668960724066605,5.568685505163984e-06,0.43936061842294283,3.3589356411845017e-06,-0.2644362007422557
788,0.776,265.182,744.083,0.00866897,444.434,-0.0301662,-0.0769847,-0.0550834,0.364556,-0.307419,0.726763,5.44962e-06,3.15222e-06,0.606284,-0.05359378561627981,1.0683744315488433,5.449634849163942e-06,0.43987456189717156,3.1522249681614767e-06,-0.2646575721277674
789,0.777,265.23,744.222,0.00864782,444.516,-0.03018,-0.0769863,-0.0551389,0.364912,-0.30772,0.727477,5.33063e-06,2.94563e-06,0.606883,-0.053646309703621275,1.0698517782429766,5.330644207823809e-06,0.44038724849400657,2.9456343384470784e-06,-0.26487887689051925
790,0.778,265.278,744.36,0.00862673,444.597,-0.0301937,-0.076988,-0.0551943,0.365268,-0.30802,0.728192,5.2117e-06,2.73914e-06,0.607481,-0.05369873624583499,1.071332251470528,5.21171358092154e-06,0.4409001176397618,2.7391437513735184e-06,-0.2650993801503094
791,0.779,265.326,744.499,0.00860569,444.679,-0.0302074,-0.0769896,-0.0552498,0.365624,-0.30832,0.728906,5.09283e-06,2.53276e-06,0.608078,-0.053751254508578095,1.0728117108022075,5.092842968457134e-06,0.4414131693994363,2.532763207385713e-06,-0.2653198172690432
792,0.78,265.374,744.637,0.00858471,444.76,-0.0302211,-0.0769912,-0.0553052,0.36598,-0.30862,0.729619,4.97402e-06,2.32648e-06,0.608676,-0.053803675237010795,1.074290152553861,4.974032370430592e-06,0.44192640383805215,2.3264827062607907e-06,-0.2655401882665601
793,0.781,265.422,744.775,0.00856378,444.842,-0.0302348,-0.0769928,-0.0553605,0.366336,-0.30892,0.730332,4.85527e-06,2.12031e-06,0.609273,-0.05385599844702005,1.07576964881037,4.855281786841914e-06,0.4424398210206546,2.120312247777534e-06,-0.26576049316269335
794,0.782,265.47,744.913,0.00854291,444.923,-0.0302484,-0.0769944,-0.0554159,0.366691,-0.30922,0.731045,4.73658e-06,1.91424e-06,0.609869,-0.05390841337279928,1.077250200323864,4.7365912176911e-06,0.4429519780596125,1.9142418321571597e-06,-0.26598073197727057
795,0.783,265.517,745.05,0.00852209,445.004,-0.030262,-0.076996,-0.0554712,0.367046,-0.309519,0.731757,4.61795e-06,1.70828e-06,0.610466,-0.05396073079094976,1.0787297291162417,4.617960662756104e-06,0.4434643169465955,1.7082814591784512e-06,-0.26620017093065107
796,0.784,265.565,745.188,0.00850132,445.085,-0.0302756,-0.0769976,-0.0555265,0.367401,-0.309819,0.732469,4.49938e-06,1.50243e-06,0.611062,-0.05401304531602713,1.0802103117082273,4.499390122258973e-06,0.443976837746171,1.5024311286193637e-06,-0.26642027786168143
797,0.785,265.613,745.325,0.00848061,445.166,-0.0302892,-0.0769992,-0.0555818,0.367756,-0.310118,0.73318,4.38087e-06,1.29668e-06,0.611657,-0.054065356948191146,1.0816898671594863,4.38087959597766e-06,0.44448954052292944,1.2966808407011143e-06,-0.2666395854104884
798,0.786,265.66,745.462,0.00845995,445.246,-0.0303027,-0.0770008,-0.055637,0.368111,-0.310417,0.733891,4.26242e-06,1.09103e-06,0.612252,-0.05411757109936377,1.0831704749487323,4.262429084134212e-06,0.44500242534148393,1.0910305952016586e-06,-0.2668588273961404
799,0.787,265.707,745.599,0.00843934,445.327,-0.0303162,-0.0770024,-0.0556922,0.368465,-0.310716,0.734602,4.14403e-06,8.85495e-07,0.612847,-0.05416978236839476,1.0846521358244448,4.144038586506582e-06,0.4455140467517016,8.854953921222375e-07,-0.267078003838238
800,0.788,265.755,745.736,0.00841879,445.407,-0.0303297,-0.077004,-0.0557474,0.36882,-0.311014,0.735312,4.0257e-06,6.80062e-07,0.613442,-0.05422199075544332,1.086132764401826,4.025708103094772e-06,0.44602729533453167,6.800622311953219e-07,-0.2672963820531241
801,0.789,265.802,745.872,0.00839829,445.488,-0.0303432,-0.0770056,-0.0558025,0.369174,-0.311313,0.736022,3.90743e-06,4.74734e-07,0.614036,-0.05427410168808333,1.0876144445987785,3.907437634120825e-06,0.4465392796129508,4.747341126876137e-07,-0.26751542768593617
802,0.79,265.849,746.008,0.00837784,445.568,-0.0303566,-0.0770072,-0.0558576,0.369528,-0.311611,0.736732,3.78922e-06,2.69512e-07,0.61463,-0.054326209749490095,1.0890971771622167,3.789227179140653e-06,0.447051445165888,2.6951203624392406e-07,-0.26773367556793626
803,0.791,265.897,746.144,0.00835744,445.648,-0.03037,-0.0770088,-0.0559127,0.369881,-0.311909,0.737441,3.67107e-06,6.43942e-08,0.615224,-0.054378314939821704,1.0905788722596683,3.6710767383763e-06,0.44756234449445786,6.439420197068557e-08,-0.26795185842175717
804,0.792,265.944,746.28,0.0083371,445.728,-0.0303834,-0.0770104,-0.0559678,0.370235,-0.312207,0.738149,3.55297e-06,-1.40618e-07,0.615817,-0.05443041725923636,1.0920595261908699,3.5529763118269386e-06,0.448074872276474,-1.4061799014086773e-07,-0.2681699762667744
805,0.793,265.991,746.416,0.00831681,445.808,-0.0303967,-0.077012,-0.0560228,0.370588,-0.312505,0.738858,3.43494e-06,-3.45526e-07,0.61641,-0.05448242215613941,1.0935433223385171,3.434945899494224e-06,0.4485861329385854,-3.455259403040145e-07,-0.2683880291223577
806,0.794,266.038,746.552,0.00829657,445.888,-0.0304101,-0.0770136,-0.0560778,0.370941,-0.312803,0.739566,3.31697e-06,-5.50328e-07,0.617003,-0.054534424192851705,1.0950260758435362,3.3169755011552837e-06,0.44909757410756823,-5.503278485141649e-07,-0.2686060170078711
807,0.795,266.085,746.687,0.00827639,445.968,-0.0304234,-0.0770152,-0.0561327,0.371294,-0.3131,0.740273,3.19905e-06,-7.55026e-07,0.617595,-0.05458632882816816,1.0965077830009182,3.1990551170313353e-06,0.44960919584715264,-7.550257149491202e-07,-0.2688232087662472
808,0.796,266.132,746.822,0.00825625,446.048,-0.0304366,-0.0770168,-0.0561877,0.371647,-0.313398,0.74098,3.0812e-06,-9.59619e-07,0.618187,-0.05463832515017064,1.0979905380956634,3.0812047469019888e-06,0.450120998221091,-9.596185395199797e-07,-0.2690410669875477
809,0.797,266.178,746.958,0.00823617,446.127,-0.0304499,-0.0770184,-0.0562426,0.371999,-0.313695,0.741687,2.9634e-06,-1.16411e-06,0.618779,-0.054690224081481276,1.0994743418689241,2.9634043907655894e-06,0.4506315306609028,-1.1641093223824228e-06,-0.2692581295552655
810,0.798,266.225,747.092,0.00821614,446.207,-0.0304631,-0.0770199,-0.0562975,0.372351,-0.313992,0.742393,2.84567e-06,-1.36849e-06,0.61937,-0.05474212016361868,1.1009570941042348,2.8456740488458365e-06,0.45114224283976556,-1.3684890636245228e-06,-0.26947512766497317
811,0.799,266.272,747.227,0.00819616,446.286,-0.0304763,-0.0770215,-0.0563523,0.372703,-0.314289,0.743099,2.72799e-06,-1.57277e-06,0.619961,-0.05479391887613605,1.1024408935322385,2.727993720919031e-06,0.4516531348209589,-1.5727687632249854e-06,-0.2696920613358119
812,0.8,266.318,747.362,0.00817623,446.365,-0.0304895,-0.0770231,-0.0564071,0.373055,-0.314585,0.743805,2.61037e-06,-1.77695e-06,0.620552,-0.054845714750161756,1.1039257408925156,2.6103734069859996e-06,0.4521642066677838,-1.7769484211838105e-06,-0.2699082004954828
813,0.801,266.365,747.496,0.00815636,446.444,-0.0305027,-0.0770247,-0.0564619,0.373407,-0.314882,0.74451,2.49282e-06,-1.98102e-06,0.621142,-0.05489750778585123,1.1054095315145824,2.4928231070475704e-06,0.4526754584435646,-1.9810180378332376e-06,-0.2701250055627895
814,0.802,266.411,747.63,0.00813653,446.523,-0.0305158,-0.0770263,-0.0565167,0.373758,-0.315178,0.745215,2.37532e-06,-2.18498e-06,0.621732,-0.054949297983360235,1.1068943685778647,2.3753228211020883e-06,0.45318543702548353,-2.184977612951222e-06,-0.2703410165899337
815,0.803,266.458,747.764,0.00811675,446.602,-0.0305289,-0.0770278,-0.0565714,0.37411,-0.315474,0.745919,2.25788e-06,-2.38885e-06,0.622322,-0.05500099084294796,1.1083781444411658,2.257882548928336e-06,0.45369704833762503,-2.3888471466504413e-06,-0.270556963687276
816,0.804,266.504,747.898,0.00809703,446.681,-0.030542,-0.0770294,-0.0566261,0.374461,-0.31577,0.746623,2.1405e-06,-2.5926e-06,0.622912,-0.05505268087501358,1.1098629652504521,2.140502290970403e-06,0.45420738556053464,-2.5925966392614797e-06,-0.2707728468737367
817,0.805,266.551,748.032,0.00807735,446.76,-0.030555,-0.077031,-0.0566808,0.374812,-0.316066,0.747327,2.02317e-06,-2.79626e-06,0.623501,-0.05510436807971175,1.111348831741625,2.023172046561328e-06,0.4547179019432501,-2.7962560904537526e-06,-0.2709886661682307
818,0.806,266.597,748.165,0.00805773,446.838,-0.0305681,-0.0770326,-0.0567355,0.375162,-0.316362,0.74803,1.90591e-06,-2.99981e-06,0.624089,-0.055156052457197235,1.1128336318164154,1.9059118161468547e-06,0.45522714232079786,-2.999805500558672e-06,-0.2712044215896672
819,0.807,266.643,748.298,0.00803816,446.917,-0.0305811,-0.0770342,-0.0567901,0.375513,-0.316657,0.748733,1.78871e-06,-3.20325e-06,0.624678,-0.05520763952839314,1.1143194760726454,1.788711599726156e-06,0.45573801670096103,-3.2032448695762383e-06,-0.2714193845766988
820,0.808,266.689,748.431,0.00801863,446.995,-0.0305941,-0.0770357,-0.0568447,0.375863,-0.316953,0.749435,1.67156e-06,-3.4066e-06,0.625266,-0.05525922378301196,1.115804249439325,1.6715613970763599e-06,0.45624761418116333,-3.406594197508106e-06,-0.2716350125243534
821,0.809,266.735,748.564,0.00799916,447.073,-0.030607,-0.0770373,-0.0568992,0.376213,-0.317248,0.750137,1.55448e-06,-3.60984e-06,0.625853,-0.05531071075228311,1.1172900654828446,1.554481208199121e-06,0.45675739005170013,-3.609833484574665e-06,-0.2718498485057935
822,0.81,266.781,748.697,0.00797973,447.152,-0.03062,-0.0770389,-0.0569538,0.376563,-0.317543,0.750839,1.43745e-06,-3.81297e-06,0.626441,-0.055362289379366714,1.1187769249354207,1.4374510330927848e-06,0.45726734437501904,-3.8129627306648928e-06,-0.2720646211199662
823,0.811,266.827,748.83,0.00796036,447.23,-0.0306329,-0.0770404,-0.0570083,0.376913,-0.317838,0.75154,1.32048e-06,-4.016e-06,0.627028,-0.05541377073171594,1.1202627082660146,1.3204808717581784e-06,0.4577774772135894,-4.015991935890639e-06,-0.27227933038556196
824,0.812,266.873,748.962,0.00794103,447.308,-0.0306458,-0.077042,-0.0570627,0.377263,-0.318132,0.752241,1.20357e-06,-4.21893e-06,0.627615,-0.05546515482492809,1.1217495334958665,1.203570724195302e-06,0.4582877886299026,-4.218921100362927e-06,-0.2724932488148787
825,0.813,266.919,749.094,0.00792176,447.386,-0.0306586,-0.0770436,-0.0571172,0.377612,-0.318427,0.752942,1.08672e-06,-4.42176e-06,0.628201,-0.055516630571263326,1.123237401355604,1.0867205904041555e-06,0.4587968198889225,-4.421750224081755e-06,-0.2727078316539534
826,0.814,266.965,749.227,0.00790253,447.463,-0.0306715,-0.0770452,-0.0571716,0.377961,-0.318721,0.753642,9.69927e-07,-4.62448e-06,0.628787,-0.05556800906905246,1.1247241878511156,9.699274703400818e-07,0.4593060288308555,-4.6244693071573195e-06,-0.2729216241224143
827,0.815,267.01,749.358,0.00788335,447.541,-0.0306843,-0.0770467,-0.057226,0.37831,-0.319015,0.754342,8.53193e-07,-4.8271e-06,0.629373,-0.055619384771927294,1.126212015461522,8.531933639588374e-07,0.4598154155177241,-4.827088349590447e-06,-0.2731353537451282
828,0.816,267.056,749.49,0.00786422,447.619,-0.0306971,-0.0770483,-0.0572804,0.378659,-0.319309,0.755041,7.36518e-07,-5.02961e-06,0.629959,-0.05567075768003993,1.1276987572160375,7.365182712604224e-07,0.46032498001157185,-5.029597351491333e-06,-0.2733490205405692
829,0.817,267.102,749.622,0.00784514,447.696,-0.0307099,-0.0770499,-0.0573347,0.379007,-0.319603,0.75574,6.19901e-07,-5.23202e-06,0.630544,-0.055722033365750434,1.1291865385663358,6.199011921559361e-07,0.4608332615404722,-5.232006312971826e-06,-0.2735626245272057
830,0.818,267.147,749.753,0.00782611,447.774,-0.0307226,-0.0770514,-0.057389,0.379356,-0.319897,0.756439,5.03343e-07,-5.43433e-06,0.631129,-0.05577330626726684,1.1306753602393487,5.033431267342792e-07,0.4613431813245765,-5.434315234031928e-06,-0.2737761657235006
831,0.819,267.193,749.884,0.00780712,447.851,-0.0307353,-0.077053,-0.0574433,0.379704,-0.32019,0.757137,3.86843e-07,-5.63654e-06,0.631713,-0.055824576384740254,1.1321630907983584,3.86843074906551e-07,0.4618518172491952,-5.6365241147826595e-06,-0.27398891813719306
832,0.82,267.238,750.015,0.00778819,447.928,-0.030748,-0.0770546,-0.0574975,0.380052,-0.320484,0.757835,2.70402e-07,-5.83864e-06,0.632297,-0.055875749305901445,1.1336518601557968,2.704020365396076e-07,0.46236063020991813,-5.838622955223194e-06,-0.27420233402158845
833,0.821,267.283,750.146,0.0077693,448.005,-0.0307607,-0.0770561,-0.0575517,0.3804,-0.320777,0.758532,1.54019e-07,-6.04064e-06,0.632881,-0.05592691945356554,1.135139533896397,1.5401901176659294e-07,0.46286962026836465,-6.040621755354358e-06,-0.2744149615862608
834,0.822,267.329,750.277,0.00775046,448.082,-0.0307734,-0.0770577,-0.0576059,0.380747,-0.32107,0.759229,3.76939e-08,-6.24254e-06,0.633465,-0.055978086827882856,1.1366282449070408,3.769390066743483e-08,0.4633773241081196,-6.242520515398198e-06,-0.27462752686018266
835,0.823,267.374,750.408,0.00773166,448.159,-0.030786,-0.0770592,-0.0576601,0.381095,-0.321363,0.759926,-7.85726e-08,-6.44433e-06,0.634048,-0.0560292514290035,1.1381179939109578,-7.8572596873272e-08,0.4638866680376128,-6.4443092353538844e-06,-0.2748400298616026
836,0.824,267.419,750.538,0.00771292,448.236,-0.0307986,-0.0770608,-0.0577142,0.381442,-0.321656,0.760622,-1.94781e-07,-6.64603e-06,0.634631,-0.056080318865114664,1.1396066420241695,-1.9478098101100016e-07,0.46439472485418154,-6.646007915223073e-06,-0.2750524706087639
837,0.825,267.464,750.668,0.00769422,448.312,-0.0308112,-0.0770624,-0.0577683,0.381789,-0.321948,0.761318,-3.10931e-07,-6.84762e-06,0.635214,-0.05613138353855218,1.141096326597114,-3.109309516524661e-07,0.4649029579970565,-6.847596555115132e-06,-0.2752641243843911
838,0.826,267.509,750.798,0.00767557,448.389,-0.0308238,-0.0770639,-0.0578224,0.382136,-0.322241,0.762014,-4.27023e-07,-7.0491e-06,0.635796,-0.0561824454494656,1.1425870483514187,-4.2702290881102556e-07,0.4654113675274336,-7.049075155141082e-06,-0.2754764408900594
839,0.827,267.554,750.928,0.00765697,448.465,-0.0308363,-0.0770655,-0.0578764,0.382483,-0.322533,0.762709,-5.43057e-07,-7.25049e-06,0.636378,-0.05623341022135009,1.1440766639314766,-5.430568525977009e-07,0.4659199535065299,-7.25046371530258e-06,-0.2756879708844373
840,0.828,267.599,751.058,0.00763841,448.542,-0.0308488,-0.0770671,-0.0579305,0.382829,-0.322825,0.763404,-6.59032e-07,-7.45177e-06,0.63696,-0.0562844666127692,1.1455673151542074,-6.590317828125691e-07,0.46642724956760073,-7.451742235597969e-06,-0.27589943912107395
841,0.829,267.644,751.187,0.00761991,448.618,-0.0308613,-0.0770686,-0.0579845,0.383175,-0.323117,0.764098,-7.7495e-07,-7.65295e-06,0.637541,-0.05633542587565965,1.147056855681703,-7.749496997444538e-07,0.466934721183478,-7.652920716250122e-06,-0.2761108456179999
842,0.83,267.689,751.317,0.00760144,448.694,-0.0308738,-0.0770702,-0.0580384,0.383522,-0.323409,0.764792,-8.90809e-07,-7.85403e-06,0.638122,-0.056386288025457754,1.1485474303091152,-8.908086032155538e-07,0.4674438358580162,-7.853999157148017e-06,-0.2763221903932407
843,0.831,267.734,751.446,0.00758303,448.77,-0.0308863,-0.0770717,-0.0580924,0.383867,-0.3237,0.765486,-1.00661e-06,-8.05501e-06,0.638703,-0.05643724179014031,1.1500390397543594,-1.0066094933147696e-06,0.46795019132268245,-8.054977558513698e-06,-0.2765327499979279
844,0.832,267.779,751.575,0.00756466,448.846,-0.0308987,-0.0770733,-0.0581463,0.384213,-0.323992,0.766179,-1.12236e-06,-8.25588e-06,0.639283,-0.05648809845220848,1.1515295332052395,-1.1223593701092938e-06,0.4684581899675777,-8.255845920346339e-06,-0.27674397159507447
845,0.833,267.823,751.704,0.00754634,448.922,-0.0309111,-0.0770749,-0.0582001,0.384559,-0.324283,0.766872,-1.23804e-06,-8.45665e-06,0.639863,-0.05653885802706693,1.1530210599260675,-1.2380392335753498e-06,0.4689663644104154,-8.456614242646765e-06,-0.27695440847928865
846,0.834,267.868,751.833,0.00752806,448.998,-0.0309235,-0.0770764,-0.058254,0.384904,-0.324574,0.767565,-1.35367e-06,-8.65733e-06,0.640443,-0.05658970921216755,1.1545136206331477,-1.353669083825615e-06,0.4694732452380521,-8.657292525415805e-06,-0.2771647841352787
847,0.835,267.912,751.961,0.00750983,449.074,-0.0309359,-0.077078,-0.0583078,0.385249,-0.324865,0.768257,-1.46924e-06,-8.8579e-06,0.641022,-0.0566404633205142,1.1560050600371432,-1.469238920637217e-06,0.46998030096974364,-8.857860768873849e-06,-0.2773750985808593
848,0.836,267.957,752.09,0.00749165,449.149,-0.0309482,-0.0770795,-0.0583616,0.385594,-0.325156,0.768948,-1.58475e-06,-9.05836e-06,0.641601,-0.056691214698363246,1.157495374377934,-1.5847487442322006e-06,0.4704875316658421,-9.058318973131918e-06,-0.27758535183384025
849,0.837,268.001,752.218,0.00747351,449.225,-0.0309605,-0.0770811,-0.0584154,0.385939,-0.325446,0.76964,-1.70021e-06,-9.25873e-06,0.64218,-0.05674196334586157,1.158988877869613,-1.7002085546113932e-06,0.4709949373867208,-9.258687138080646e-06,-0.2777948217072088
850,0.838,268.046,752.346,0.00745542,449.3,-0.0309728,-0.0770827,-0.0584691,0.386283,-0.325737,0.770331,-1.8156e-06,-9.45899e-06,0.642759,-0.05679261494242238,1.1604812547410481,-1.81559835177314e-06,0.47150104669099124,-9.458945263940421e-06,-0.27800495283852955
851,0.839,268.09,752.474,0.00743737,449.376,-0.0309851,-0.0770842,-0.0585228,0.386628,-0.326027,0.771022,-1.93094e-06,-9.65916e-06,0.643337,-0.05684326381906546,1.1619746632012742,-1.9309381357190958e-06,0.4720088021348774,-9.659113350490856e-06,-0.27821430104524925
852,0.84,268.134,752.601,0.00741937,449.451,-0.0309974,-0.0770858,-0.0585765,0.386972,-0.326317,0.771712,-2.04623e-06,-9.85922e-06,0.643915,-0.05689390997593691,1.1634669404953435,-2.0462279064492606e-06,0.47251526026861645,-9.85917139806336e-06,-0.2784235885497912
853,0.841,268.178,752.729,0.00740141,449.526,-0.0310096,-0.0770874,-0.0586302,0.387316,-0.326607,0.772402,-2.16145e-06,-1.00592e-05,0.644492,-0.05694455341318272,1.1649602478160639,-2.161447664073002e-06,0.47302189265392314,-1.0059149406438372e-05,-0.2786328153697565
854,0.842,268.223,752.856,0.0073835,449.601,-0.0310218,-0.0770889,-0.0586838,0.38766,-0.326897,0.773091,-2.27662e-06,-1.0259e-05,0.64507,-0.05699509983046369,1.1664524194208967,-2.276617408480952e-06,0.47352869935075015,-1.025894737660682e-05,-0.2788419815227412
855,0.843,268.267,752.984,0.00736563,449.676,-0.031034,-0.0770905,-0.0587374,0.388004,-0.327187,0.77378,-2.39173e-06,-1.04588e-05,0.645647,-0.057045643538529256,1.167945619486229,-2.391727139783306e-06,0.47403568041907107,-1.045874530691826e-05,-0.2790510870263361
856,0.844,268.311,753.111,0.00734781,449.751,-0.0310462,-0.077092,-0.058791,0.388347,-0.327476,0.774469,-2.50678e-06,-1.06585e-05,0.646223,-0.05709618453752474,1.1694398487209146,-2.5067768579800642e-06,0.47454136137678127,-1.065844319836362e-05,-0.27925941115789854
857,0.845,268.355,753.238,0.00733003,449.826,-0.0310583,-0.0770936,-0.0588445,0.38869,-0.327766,0.775158,-2.62177e-06,-1.0858e-05,0.646799,-0.05714662854226282,1.1709351078342953,-2.6217665631822484e-06,0.47504721581280984,-1.0857941052155873e-05,-0.27946839562445047
858,0.846,268.399,753.365,0.0073123,449.9,-0.0310704,-0.0770952,-0.058898,0.389033,-0.328055,0.775846,-2.73671e-06,-1.10575e-05,0.647375,-0.05719706984831885,1.172429225105891,-2.7367062551686416e-06,0.4755532437866701,-1.1057438866091118e-05,-0.2796765991712533
859,0.847,268.442,753.491,0.00729461,449.975,-0.0310825,-0.0770967,-0.0589515,0.389376,-0.328344,0.776533,-2.85159e-06,-1.12568e-05,0.647951,-0.05724750845583715,1.1739221967605822,-2.8515859342714833e-06,0.47605944535789546,-1.1256736642484277e-05,-0.2798847425559251
860,0.848,268.486,753.618,0.00727697,450.049,-0.0310946,-0.0770983,-0.059005,0.389719,-0.328633,0.777221,-2.96641e-06,-1.14561e-05,0.648526,-0.05729794436496227,1.1754183698564815,-2.9664056001577066e-06,0.47656582058604036,-1.1456034379131452e-05,-0.28009282579584993
861,0.849,268.53,753.744,0.00725937,450.124,-0.0311067,-0.0770998,-0.0590584,0.390062,-0.328921,0.777908,-3.08118e-06,-1.16552e-05,0.649101,-0.05734828331067132,1.1769133957591702,-3.0811752531612058e-06,0.4770723695306791,-1.1655132078458585e-05,-0.28030012920889646
862,0.85,268.574,753.87,0.00724182,450.198,-0.0311187,-0.0771014,-0.0591118,0.390404,-0.32921,0.778594,-3.19589e-06,-1.18543e-05,0.649676,-0.05739861956835246,1.1784072706891773,-3.195884893170131e-06,0.47757761467305326,-1.1854229738039734e-05,-0.28050809241942365
863,0.851,268.617,753.996,0.00722431,450.272,-0.0311308,-0.077103,-0.0591652,0.390746,-0.329498,0.77928,-3.31054e-06,-1.20532e-05,0.650251,-0.05744895313814924,1.179902170768973,-3.3105345201844827e-06,0.47808303263881724,-1.2053127360522886e-05,-0.2807152762529028
864,0.852,268.661,754.122,0.00720684,450.346,-0.0311428,-0.0771045,-0.0592186,0.391088,-0.329787,0.779966,-3.42513e-06,-1.22521e-05,0.650825,-0.05749928402020521,1.181398096702051,-3.4251241342042604e-06,0.47858862348708686,-1.2252024943371076e-05,-0.2809231195032694
865,0.853,268.705,754.248,0.00718941,450.42,-0.0311547,-0.0771061,-0.0592719,0.39143,-0.330075,0.780652,-3.53967e-06,-1.24508e-05,0.651399,-0.05754951796962027,1.1828950491923877,-3.539663735341314e-06,0.4790943872769977,-1.2450722489121269e-05,-0.28113018382615873
866,0.854,268.748,754.373,0.00717203,450.494,-0.0311667,-0.0771077,-0.0593252,0.391771,-0.330363,0.781337,-3.65415e-06,-1.26495e-05,0.651972,-0.05759974924163713,1.1843908445525066,-3.654143323594816e-06,0.47959884446812207,-1.2649419995458544e-05,-0.2813371885231096
867,0.855,268.791,754.498,0.0071547,450.568,-0.0311786,-0.0771092,-0.0593784,0.392113,-0.33065,0.782021,-3.76857e-06,-1.2848e-05,0.652545,-0.05764988360139167,1.1858854789968878,-3.768562898964767e-06,0.48010495381269513,-1.2847917464808845e-05,-0.2815434151550663
868,0.856,268.835,754.624,0.0071374,450.642,-0.0311906,-0.0771108,-0.0594317,0.392454,-0.330938,0.782706,-3.88294e-06,-1.30465e-05,0.653118,-0.057700109524063015,1.187383323503175,-3.882932461451993e-06,0.4806097556657696,-1.3046414894746228e-05,-0.28175030085853037
869,0.857,268.878,754.749,0.00712015,450.715,-0.0312025,-0.0771123,-0.0594849,0.392795,-0.331226,0.78339,-3.99725e-06,-1.32448e-05,0.653691,-0.057750238544792554,1.1888800055033428,-3.997242011055668e-06,0.48111472968562885,-1.3244712288029703e-05,-0.281957126987491
870,0.858,268.921,754.874,0.00710295,450.789,-0.0312143,-0.0771139,-0.0595381,0.393136,-0.331513,0.784073,-4.1115e-06,-1.34431e-05,0.654263,-0.057800364898729195,1.1903755212075775,-4.111491547775792e-06,0.48161987593099154,-1.3443009641900261e-05,-0.2821631757226377
871,0.859,268.965,754.998,0.00708578,450.862,-0.0312262,-0.0771155,-0.0595912,0.393477,-0.3318,0.784757,-4.2257e-06,-1.36412e-05,0.654835,-0.057850394371058766,1.1918742505710935,-4.2256910717242135e-06,0.48212519446059665,-1.3641106959227933e-05,-0.28236916533028267
872,0.86,269.008,755.123,0.00706866,450.936,-0.031238,-0.077117,-0.0596444,0.393817,-0.332087,0.785439,-4.33984e-06,-1.38393e-05,0.655407,-0.05790051539684715,1.1933696186725444,-4.339830582900106e-06,0.48262920270325926,-1.3839204237364733e-05,-0.28257509582739304
873,0.861,269.051,755.247,0.00705158,451.009,-0.0312498,-0.0771186,-0.0596975,0.394157,-0.332374,0.786122,-4.45392e-06,-1.40372e-05,0.655978,-0.05795053955132656,1.19486820182999,-4.453910081303469e-06,0.4831333823378592,-1.4037101478958647e-05,-0.28278096723093105
874,0.862,269.094,755.372,0.00703454,451.082,-0.0312616,-0.0771202,-0.0597506,0.394498,-0.33266,0.786804,-4.56795e-06,-1.42351e-05,0.656549,-0.058000561049593835,1.1963656125026372,-4.567939566935131e-06,0.4836392170611552,-1.423499868147271e-05,-0.28298606254427516
875,0.863,269.137,755.496,0.00701755,451.155,-0.0312734,-0.0771217,-0.0598036,0.394838,-0.332947,0.787486,-4.68192e-06,-1.44329e-05,0.65712,-0.058050485696843346,1.1978640447576834,-4.681909039794263e-06,0.4841437401590225,-1.4432795846230917e-05,-0.28319181601728927
876,0.864,269.18,755.62,0.0070006,451.228,-0.0312852,-0.0771233,-0.0598566,0.395177,-0.333233,0.788167,-4.79583e-06,-1.46305e-05,0.65769,-0.05810040769815672,1.1993612999296852,-4.7958184999918885e-06,0.4846469501762152,-1.4630392974779305e-05,-0.28339679384468186
877,0.865,269.223,755.743,0.00698369,451.301,-0.0312969,-0.0771249,-0.0599096,0.395517,-0.33352,0.788848,-4.90968e-06,-1.48281e-05,0.65826,-0.05815032705367407,1.2008595750797229,-4.909667947528007e-06,0.48515181596159507,-1.4827990064247842e-05,-0.2836024294547268
878,0.866,269.266,755.867,0.00696682,451.374,-0.0313086,-0.0771264,-0.0599626,0.395856,-0.333806,0.789529,-5.02348e-06,-1.50255e-05,0.65883,-0.05820024376353572,1.202358870902637,-5.023467382292424e-06,0.485655367774416,-1.5025387117728606e-05,-0.2838072898634679
879,0.867,269.308,755.991,0.00695,451.447,-0.0313203,-0.077128,-0.0600155,0.396196,-0.334092,0.790209,-5.13723e-06,-1.52229e-05,0.6594,-0.05825006365289298,1.2038569842356566,-5.137216804507183e-06,0.48616057648007227,-1.5222784132240541e-05,-0.2840120916905098
880,0.868,269.351,756.114,0.00693321,451.519,-0.031332,-0.0771296,-0.0600685,0.396535,-0.334377,0.790889,-5.25091e-06,-1.54201e-05,0.659969,-0.058299975076854915,1.205356116632185,-5.250896213948586e-06,0.4866644703206795,-1.5419981110875725e-05,-0.2842161191690812
881,0.869,269.394,756.237,0.00691647,451.592,-0.0313437,-0.0771311,-0.0601213,0.396873,-0.334663,0.791569,-5.36454e-06,-1.56173e-05,0.660538,-0.05834969552553948,1.2068562687854212,-5.364525610840332e-06,0.4871670478424641,-1.5617178050653102e-05,-0.28442080408766035
882,0.87,269.437,756.36,0.00689977,451.664,-0.0313553,-0.0771327,-0.0601742,0.397212,-0.334948,0.792248,-5.47812e-06,-1.58143e-05,0.661107,-0.05839950750910761,1.208355233032698,-5.47810499518242e-06,0.4876712829347021,-1.581417495466475e-05,-0.2846247150997959
883,0.871,269.479,756.483,0.00688311,451.737,-0.0313669,-0.0771343,-0.060227,0.397551,-0.335234,0.792927,-5.59163e-06,-1.60113e-05,0.661675,-0.05844922270261843,1.2098552154223192,-5.591614366862174e-06,0.4881756889916129,-1.6011171819818593e-05,-0.2848292831766479
884,0.872,269.522,756.606,0.00686649,451.809,-0.0313785,-0.0771359,-0.0602798,0.397889,-0.335519,0.793606,-5.7051e-06,-1.62082e-05,0.662243,-0.058498935271236396,1.2113562166458376,-5.705083725993099e-06,0.4886787773916421,-1.6208068647882712e-05,-0.2850330777888309
885,0.873,269.564,756.729,0.00684992,451.881,-0.0313901,-0.0771374,-0.0603326,0.398227,-0.335804,0.794284,-5.8185e-06,-1.64049e-05,0.662811,-0.05854864521510006,1.2128560245381457,-5.818483072572711e-06,0.4891820358642913,-1.6404765440403146e-05,-0.2852368143278252
886,0.874,269.607,756.851,0.00683338,451.953,-0.0314016,-0.077139,-0.0603854,0.398565,-0.336089,0.794962,-5.93185e-06,-1.66016e-05,0.663378,-0.058598352534347864,1.214356849645002,-5.931832406602666e-06,0.4896854644670545,-1.6601462194176797e-05,-0.28544049281017947
887,0.875,269.649,756.973,0.00681689,452.025,-0.0314132,-0.0771406,-0.0604381,0.398903,-0.336373,0.795639,-6.04514e-06,-1.67981e-05,0.663945,-0.05864796309391962,1.2158564767987263,-6.045121728193159e-06,0.4901890632574455,-1.679795891273983e-05,-0.2856433988961934
888,0.876,269.691,757.095,0.00680043,452.097,-0.0314247,-0.0771421,-0.0604908,0.39924,-0.336658,0.796316,-6.15838e-06,-1.69946e-05,0.664512,-0.058697571039083685,1.2173571195437725,-6.158361037233995e-06,0.49069134160091044,-1.699445559255608e-05,-0.28584696151845645
889,0.877,269.733,757.217,0.00678402,452.169,-0.0314362,-0.0771437,-0.0605435,0.399578,-0.336942,0.796993,-6.27156e-06,-1.7191e-05,0.665078,-0.05874717636997806,1.2188587785679288,-6.271540333835368e-06,0.49119528043523686,-1.7190852235615672e-05,-0.28604975218374773
890,0.878,269.776,757.339,0.00676765,452.241,-0.0314477,-0.0771453,-0.0605961,0.399915,-0.337226,0.797669,-6.38469e-06,-1.73872e-05,0.665645,-0.05879668496641344,1.2203592341991047,-6.384669617887084e-06,0.4916978979310349,-1.7387048843464648e-05,-0.2862524852646674
891,0.879,269.818,757.461,0.00675131,452.312,-0.0314591,-0.0771469,-0.0606487,0.400252,-0.337511,0.798345,-6.49775e-06,-1.75834e-05,0.66621,-0.0588461909587652,1.2218607044812004,-6.497728889720555e-06,0.4922006848374729,-1.7583245412899906e-05,-0.28645587432204955
892,0.88,269.86,757.583,0.00673502,452.384,-0.0314706,-0.0771485,-0.0607013,0.400589,-0.337794,0.799021,-6.61077e-06,-1.77795e-05,0.666776,-0.058895694347170235,1.2233631901003523,-6.610748148894174e-06,0.4927036412116521,-1.777934194557851e-05,-0.28665777873879394
893,0.881,269.902,757.704,0.00671877,452.455,-0.031482,-0.07715,-0.0607539,0.400926,-0.338078,0.799696,-6.72372e-06,-1.79755e-05,0.667341,-0.05894519513176555,1.2248644668775808,-6.723697395849548e-06,0.4932067671106928,-1.79753384417225e-05,-0.2868603391646901
894,0.882,269.944,757.825,0.00670256,452.527,-0.0314934,-0.0771516,-0.0608064,0.401262,-0.338362,0.800371,-6.83663e-06,-1.81713e-05,0.667906,-0.058994599212152665,1.2263667573587207,-6.836606630256092e-06,0.49370856888241876,-1.8171134902877917e-05,-0.2870628420715935
895,0.883,269.986,757.946,0.00668639,452.598,-0.0315048,-0.0771532,-0.0608589,0.401598,-0.338645,0.801046,-6.94947e-06,-1.83671e-05,0.668471,-0.059044000698893595,1.2278700622282526,-6.949445852444391e-06,0.49421053928786884,-1.8366931325841662e-05,-0.28726457474076816
896,0.884,270.028,758.067,0.00667026,452.669,-0.0315162,-0.0771548,-0.0609114,0.401935,-0.338929,0.80172,-7.06226e-06,-1.85628e-05,0.669035,-0.059093399592124674,1.2293721527978527,-7.062235062305078e-06,0.49471417309713916,-1.8562627712270796e-05,-0.28746696286106843
897,0.885,270.07,758.188,0.00665417,452.741,-0.0315275,-0.0771564,-0.0609639,0.402271,-0.339212,0.802394,-7.17499e-06,-1.87584e-05,0.6696,-0.0591427958919819,1.2308752561177556,-7.174964259837324e-06,0.49521648144237607,-1.875822406227634e-05,-0.28766858118024097
898,0.886,270.112,758.309,0.00663811,452.812,-0.0315389,-0.0771579,-0.0610163,0.402606,-0.339495,0.803067,-7.28767e-06,-1.89539e-05,0.670163,-0.05919209551781568,1.2323771404925274,-7.287643445041958e-06,0.4957174628733638,-1.895372037596932e-05,-0.28787014244950204
899,0.887,270.153,758.429,0.0066221,452.883,-0.0315502,-0.0771595,-0.0610687,0.402942,-0.339778,0.803741,-7.4003e-06,-1.91492e-05,0.670727,-0.05924139256041672,1.2338822698568368,-7.400272617807957e-06,0.4962201083806057,-1.9149016655228834e-05,-0.28807164668499474
900,0.888,270.195,758.55,0.00660613,452.953,-0.0315615,-0.0771611,-0.0611211,0.403277,-0.34006,0.804413,-7.51286e-06,-1.93445e-05,0.67129,-0.05929068701992046,1.2353839432479288,-7.512831778577755e-06,0.49672142608294,-1.93443128964077e-05,-0.28827238217559503
901,0.889,270.237,758.67,0.00659019,453.024,-0.0315727,-0.0771627,-0.0611735,0.403613,-0.340343,0.805086,-7.62537e-06,-1.95397e-05,0.671853,-0.05933997889646214,1.2368888629904262,-7.625340926908919e-06,0.49722440897849807,-1.9539509101274e-05,-0.28847377259335116
902,0.89,270.278,758.79,0.0065743,453.095,-0.031584,-0.0771643,-0.0612258,0.403948,-0.340625,0.805758,-7.73783e-06,-1.97348e-05,0.672415,-0.059389174129099276,1.238392557491121,-7.737800063023492e-06,0.4977260631778928,-1.97346052701608e-05,-0.2886743947004332
903,0.891,270.32,758.91,0.00655844,453.166,-0.0315952,-0.0771659,-0.0612781,0.404283,-0.340907,0.80643,-7.85023e-06,-1.99298e-05,0.672978,-0.05943836678889314,1.2398972628141185,-7.85019918703167e-06,0.4982278854595965,-1.9929601402846053e-05,-0.28887496024005754
904,0.892,270.361,759.03,0.00654263,453.236,-0.0316064,-0.0771675,-0.0613304,0.404617,-0.34119,0.807101,-7.96258e-06,-2.01247e-05,0.67354,-0.059487556875978065,1.2414007382370604,-7.962548298712235e-06,0.49872837715079976,-2.0124497499551808e-05,-0.28907618015234904
905,0.893,270.403,759.15,0.00652685,453.307,-0.0316176,-0.077169,-0.0613826,0.404952,-0.341472,0.807772,-8.07487e-06,-2.03195e-05,0.674102,-0.05953665034415845,1.2429052228305504,-8.074837398286405e-06,0.499230535263933,-2.0319293560389085e-05,-0.2892766324044501
906,0.894,270.444,759.269,0.00651111,453.377,-0.0316288,-0.0771706,-0.0614348,0.405286,-0.341753,0.808443,-8.1871e-06,-2.05142e-05,0.674663,-0.05958574124972671,1.2444107172719687,-8.18706648575418e-06,0.4997313618961028,-2.051398958524686e-05,-0.28947631761365855
907,0.895,270.486,759.388,0.00649541,453.447,-0.03164,-0.0771722,-0.061487,0.40562,-0.342035,0.809113,-8.29928e-06,-2.07088e-05,0.675224,-0.05963482959281652,1.2459149763230508,-8.299245561116386e-06,0.5002323558323061,-2.070858557423616e-05,-0.28967665704290435
908,0.896,270.527,759.508,0.00647975,453.517,-0.0316511,-0.0771738,-0.0615392,0.405955,-0.342316,0.809783,-8.4114e-06,-2.09033e-05,0.675785,-0.05968391537356177,1.2474202435654043,-8.411364624261175e-06,0.500735017862699,-2.0903081527579026e-05,-0.28987622986098116
909,0.897,270.568,759.627,0.00646413,453.588,-0.0316623,-0.0771754,-0.0615913,0.406288,-0.342598,0.810453,-8.52347e-06,-2.10977e-05,0.676345,-0.059732904565391265,1.2489265196747423,-8.523433675300396e-06,0.5012348458403868,-2.1097477445053414e-05,-0.290076456530873
910,0.898,270.609,759.746,0.00644854,453.658,-0.0316734,-0.077177,-0.0616434,0.406622,-0.342879,0.811122,-8.63548e-06,-2.1292e-05,0.676906,-0.059781891204950366,1.2504315548945528,-8.635442714344244e-06,0.5017363420240981,-2.129177332699239e-05,-0.29027591702107647
911,0.899,270.651,759.865,0.00643299,453.728,-0.0316845,-0.0771786,-0.0616955,0.406955,-0.34316,0.811791,-8.74744e-06,-2.14863e-05,0.677466,-0.05983087529237208,1.251937597319798,-8.747401741282523e-06,0.5022365034982559,-2.1486069171072764e-05,-0.2904753214707563
912,0.9,270.692,759.983,0.00641749,453.797,-0.0316955,-0.0771802,-0.0617476,0.407289,-0.343441,0.812459,-8.85935e-06,-2.16804e-05,0.678025,-0.05987985682778929,1.2534423941810031,-8.859310756115235e-06,0.5027383342915015,-2.1680164981829897e-05,-0.2906746698956576
913,0.901,270.733,760.102,0.00640201,453.867,-0.0317066,-0.0771818,-0.0617996,0.407622,-0.343722,0.813127,-8.97119e-06,-2.18744e-05,0.678585,-0.059928741804213814,1.2549481965823244,-8.971149758951746e-06,0.5032388294846453,-2.187416075705162e-05,-0.2908739623115212
914,0.902,270.774,760.22,0.00638658,453.937,-0.0317176,-0.0771834,-0.0618516,0.407955,-0.344002,0.813795,-9.08299e-06,-2.20683e-05,0.679144,-0.05997762423868569,1.2564550051956869,-9.08294874979454e-06,0.5037394913704412,-2.2068056496848953e-05,-0.29107248980692746
915,0.903,270.815,760.338,0.00637119,454.007,-0.0317286,-0.077185,-0.0619036,0.408288,-0.344283,0.814463,-9.19472e-06,-2.22622e-05,0.679702,-0.06002650413133703,1.2579628206934652,-9.194677728641132e-06,0.504240320004407,-2.2261952199009727e-05,-0.2912716704511006
916,0.904,270.856,760.457,0.00635583,454.076,-0.0317396,-0.0771866,-0.0619556,0.40862,-0.344563,0.81513,-9.30641e-06,-2.24559e-05,0.680261,-0.06007538148230007,1.2594693842779687,-9.306366695494006e-06,0.5047398107015162,-2.245564786818033e-05,-0.29147008660381657
917,0.905,270.896,760.575,0.00634051,454.146,-0.0317506,-0.0771882,-0.0620075,0.408953,-0.344843,0.815797,-9.41804e-06,-2.26495e-05,0.680819,-0.06012416230412787,1.260976953075584,-9.417995650351507e-06,0.5052409724972877,-2.2649243502037564e-05,-0.29166844720778706
918,0.906,270.937,760.692,0.00632523,454.215,-0.0317616,-0.0771898,-0.0620594,0.409285,-0.345123,0.816463,-9.52961e-06,-2.28431e-05,0.681377,-0.060172940594296676,1.2624832652726163,-9.52956459343568e-06,0.5057407954661786,-2.284283909836926e-05,-0.2918667522785634
919,0.907,270.978,760.81,0.00630998,454.284,-0.0317725,-0.0771914,-0.0621113,0.409617,-0.345403,0.817129,-9.64113e-06,-2.30365e-05,0.681935,-0.06022171635293794,1.2639905810077128,-9.641083524414285e-06,0.5062407844038443,-2.303623466182181e-05,-0.2920650018316927
920,0.908,271.019,760.928,0.00629477,454.353,-0.0317835,-0.077193,-0.0621631,0.409949,-0.345683,0.817795,-9.75259e-06,-2.32299e-05,0.682492,-0.060270395607227356,1.2654989009494528,-9.75254244361956e-06,0.5067409393653961,-2.3229630187970862e-05,-0.29226319588271776
921,0.909,271.059,761.045,0.0062796,454.423,-0.0317944,-0.0771946,-0.062215,0.410281,-0.345962,0.818461,-9.864e-06,-2.34231e-05,0.683049,-0.06031916630808465,1.26700822576686,-9.863951350941313e-06,0.5072412604059624,-2.342282568135179e-05,-0.2924606269081578
922,0.91,271.1,761.162,0.00626447,454.492,-0.0318053,-0.0771962,-0.0622668,0.410612,-0.346242,0.819126,-9.97536e-06,-2.36163e-05,0.683606,-0.06036784051459709,1.268516287611983,-9.97531024626852e-06,0.5077402398396973,-2.3616021137429222e-05,-0.2926587101996685
923,0.911,271.141,761.279,0.00624937,454.561,-0.0318162,-0.0771978,-0.0623185,0.410944,-0.346521,0.81979,-1.00867e-05,-2.38094e-05,0.684162,-0.06041641824149746,1.270023082627541,-1.008664912938162e-05,0.5082408927031008,-2.3809116558526355e-05,-0.2928560308920063
924,0.912,271.181,761.396,0.00623431,454.63,-0.031827,-0.0771995,-0.0623703,0.411275,-0.3468,0.820455,-1.01979e-05,-2.40023e-05,0.684718,-0.06046508741049017,1.271533150019247,-1.019784800160295e-05,0.5087402030698924,-2.4002011947077406e-05,-0.2930532965395499
925,0.913,271.222,761.513,0.00621929,454.698,-0.0318379,-0.0772011,-0.062422,0.411606,-0.347079,0.821119,-1.03091e-05,-2.41952e-05,0.685274,-0.06051366010985593,1.273041948896652,-1.0309046861389781e-05,0.5092396787357711,-2.4194907298547008e-05,-0.293250507157655
926,0.914,271.262,761.63,0.0062043,454.767,-0.0318487,-0.0772027,-0.0624737,0.411937,-0.347358,0.821782,-1.04202e-05,-2.4388e-05,0.68583,-0.06056223029807806,1.274549475398584,-1.0420145709955086e-05,0.5097393197554596,-2.4387702615147333e-05,-0.29344766276167233
927,0.915,271.302,761.747,0.00618935,454.836,-0.0318595,-0.0772043,-0.0625254,0.412268,-0.347637,0.822446,-1.05313e-05,-2.45807e-05,0.686385,-0.060610797975286346,1.2760602777811307,-1.0531244546085894e-05,0.5102391261836994,-2.4580397897100426e-05,-0.2936447633669488
928,0.916,271.343,761.863,0.00617444,454.904,-0.0318703,-0.0772059,-0.062577,0.412598,-0.347915,0.823109,-1.06423e-05,-2.47732e-05,0.68694,-0.06065926920754228,1.2775698060986413,-1.0642243370884152e-05,0.5107375873369067,-2.4772893146840502e-05,-0.29384110283028286
929,0.917,271.383,761.979,0.00615956,454.973,-0.0318811,-0.0772075,-0.0626286,0.412928,-0.348194,0.823771,-1.07533e-05,-2.49657e-05,0.687495,-0.060707737938747175,1.2790780564860755,-1.0753242183469958e-05,0.5112362130094388,-2.496538835949913e-05,-0.2940380936810918
930,0.918,271.423,762.096,0.00614472,455.041,-0.0318918,-0.0772091,-0.0626802,0.413259,-0.348472,0.824434,-1.08642e-05,-2.51581e-05,0.688049,-0.06075620416903005,1.2805895862542753,-1.0864140984834236e-05,0.5117365149913551,-2.5157783537621548e-05,-0.2942343238137962
931,0.919,271.464,762.212,0.00612991,455.109,-0.0319026,-0.0772108,-0.0627318,0.413589,-0.34875,0.825096,-1.09751e-05,-2.53504e-05,0.688603,-0.060804667898519904,1.2820998363980185,-1.0975039773764017e-05,0.5122354703644107,-2.5350078681318777e-05,-0.29443049940210575
932,0.92,271.504,762.327,0.00611514,455.178,-0.0319133,-0.0772124,-0.0627833,0.413918,-0.349028,0.825757,-1.10859e-05,-2.55426e-05,0.689157,-0.06085303521265417,1.2836088030484136,-1.1085838551583294e-05,0.5127330776860766,-2.554227379059082e-05,-0.2946266204611816
933,0.921,271.544,762.443,0.00610041,455.246,-0.031924,-0.077214,-0.0628349,0.414248,-0.349306,0.826419,-1.11967e-05,-2.57347e-05,0.68971,-0.06090149394579114,1.2851210525753975,-1.1196637317190117e-05,0.5132323619790904,-2.5734368865437673e-05,-0.294822687006181
934,0.922,271.584,762.559,0.00608571,455.314,-0.0319347,-0.0772156,-0.0628863,0.414578,-0.349583,0.82708,-1.13074e-05,-2.59267e-05,0.690264,-0.060949762368493254,1.2866320169098482,-1.1307336071575413e-05,0.5137318110631099,-2.5926363905970362e-05,-0.29501799407060303
935,0.923,271.624,762.674,0.00607105,455.382,-0.0319454,-0.0772173,-0.0629378,0.414907,-0.349861,0.82774,-1.1418e-05,-2.61187e-05,0.690817,-0.06099812221045464,1.288141692179046,-1.1417934814850206e-05,0.5142299107618573,-2.611835890975467e-05,-0.2952139518288609
936,0.924,271.664,762.79,0.00605642,455.45,-0.031956,-0.0772189,-0.0629892,0.415236,-0.350138,0.8284,-1.15286e-05,-2.63105e-05,0.691369,-0.061046385666591485,1.2896523641628015,-1.1528533545912545e-05,0.5147281743623657,-2.631015388188107e-05,-0.29540915052793637
937,0.925,271.704,762.905,0.00604183,455.518,-0.0319667,-0.0772205,-0.0630407,0.415565,-0.350415,0.82906,-1.16391e-05,-2.65022e-05,0.691922,-0.06109474053258124,1.2911640335191632,-1.1639032265975402e-05,0.5152266019185681,-2.650184881980433e-05,-0.2956042951644602
938,0.926,271.744,763.02,0.00602727,455.585,-0.0319773,-0.0772221,-0.0630921,0.415894,-0.350692,0.82972,-1.17496e-05,-2.66938e-05,0.692474,-0.06114299902266407,1.2926767009066138,-1.1749530973714783e-05,0.5157251934844145,-2.6693443723635468e-05,-0.2957993857534057
939,0.927,271.783,763.135,0.00601275,455.653,-0.0319879,-0.0772238,-0.0631434,0.416222,-0.350969,0.830379,-1.18601e-05,-2.68854e-05,0.693026,-0.06119116115144496,1.2941880727948516,-1.1860029669241712e-05,0.5162224328906821,-2.6885038590829247e-05,-0.2959944223097418
940,0.928,271.823,763.25,0.00599827,455.721,-0.0319985,-0.0772254,-0.0631948,0.416551,-0.351246,0.831038,-1.19704e-05,-2.70768e-05,0.693577,-0.06123941468563532,1.2957004410054163,-1.1970328355093152e-05,0.5167213521388192,-2.707643342680921e-05,-0.2961894048484337
941,0.929,271.863,763.365,0.00598382,455.788,-0.0320091,-0.077227,-0.0632461,0.416879,-0.351523,0.831697,-1.20808e-05,-2.72682e-05,0.694128,-0.06128757186841971,1.2972138061950997,-1.2080727027408145e-05,0.5172189183387166,-2.726782822604079e-05,-0.29638433338444203
942,0.93,271.903,763.479,0.0059694,455.856,-0.0320196,-0.0772287,-0.0632974,0.417207,-0.351799,0.832355,-1.2191e-05,-2.74594e-05,0.694679,-0.061335726580803884,1.298725870294109,-1.219092569004765e-05,0.5177166477670956,-2.745902299416958e-05,-0.29657850451157985
943,0.931,271.942,763.594,0.00595502,455.923,-0.0320302,-0.0772303,-0.0633486,0.417535,-0.352076,0.833013,-1.23012e-05,-2.76506e-05,0.69523,-0.06138378496129793,1.3002389296587018,-1.2301124340585723e-05,0.518214540477504,-2.7650217725661008e-05,-0.2967733252819077
944,0.932,271.982,763.708,0.00594067,455.99,-0.0320407,-0.0772319,-0.0633999,0.417863,-0.352352,0.83367,-1.24114e-05,-2.78416e-05,0.69578,-0.061431934738077065,1.3017506831921444,-1.2411322978911343e-05,0.5187125965235069,-2.784121242627169e-05,-0.2969673890620963
945,0.933,272.021,763.822,0.00592636,456.058,-0.0320512,-0.0772336,-0.0634511,0.418191,-0.352628,0.834327,-1.25215e-05,-2.80326e-05,0.696331,-0.06147998819283951,1.3032634302740034,-1.2521421606348504e-05,0.5192108159586872,-2.803220709035603e-05,-0.2971613992880724
946,0.934,272.061,763.936,0.00591209,456.125,-0.0320617,-0.0772352,-0.0635022,0.418518,-0.352904,0.834984,-1.26316e-05,-2.82235e-05,0.69688,-0.06152794534012729,1.3047771715572543,-1.2631520221684234e-05,0.5197076791282067,-2.8223101720792343e-05,-0.29735535597461493
947,0.935,272.1,764.05,0.00589784,456.192,-0.0320722,-0.0772369,-0.0635534,0.418845,-0.35318,0.835641,-1.27416e-05,-2.84143e-05,0.69743,-0.06157599387927282,1.3062919076953028,-1.2741518826131504e-05,0.5202047047985499,-2.8413896317580623e-05,-0.29754925913649877
948,0.936,272.14,764.164,0.00588364,456.259,-0.0320826,-0.0772385,-0.0636045,0.419172,-0.353455,0.836297,-1.28515e-05,-2.8605e-05,0.697979,-0.06162394612079536,1.307805331535497,-1.2851417419801336e-05,0.5207018930228633,-2.8604590880942915e-05,-0.29774240653125217
949,0.937,272.179,764.277,0.00586946,456.326,-0.0320931,-0.0772402,-0.0636556,0.419499,-0.353731,0.836953,-1.29614e-05,-2.87956e-05,0.698528,-0.061671895912021046,1.3093197485074421,-1.2961316001369738e-05,0.5211992438543109,-2.8795185410657176e-05,-0.2979362028819229
950,0.938,272.218,764.391,0.00585532,456.393,-0.0321035,-0.0772418,-0.0637067,0.419826,-0.354006,0.837608,-1.30712e-05,-2.89861e-05,0.699077,-0.06171984325307489,1.3108328484288423,-1.3071114572271725e-05,0.521696757346074,-2.8985679907056472e-05,-0.2981292438817764
951,0.939,272.258,764.504,0.00584122,456.459,-0.0321139,-0.0772434,-0.0637578,0.420153,-0.354281,0.838263,-1.3181e-05,-2.91765e-05,0.699625,-0.06176778814408235,1.312346939755341,-1.3180913130961258e-05,0.5221944335513511,-2.917607437002978e-05,-0.2983222318026535
952,0.94,272.297,764.618,0.00582715,456.526,-0.0321243,-0.0772451,-0.0638088,0.420479,-0.354556,0.838918,-1.32908e-05,-2.93668e-05,0.700173,-0.06181563676673674,1.3138620231365206,-1.3290711677660383e-05,0.5226907498318469,-2.9366368799799147e-05,-0.2985151666591491
953,0.941,272.336,764.731,0.00581311,456.593,-0.0321347,-0.0772467,-0.0638598,0.420805,-0.354831,0.839573,-1.34004e-05,-2.9557e-05,0.700721,-0.06186348294917354,1.3153780992223902,-1.3400310215017086e-05,0.5231872279378265,-2.9556563196142527e-05,-0.29870804846585386
954,0.942,272.375,764.844,0.0057991,456.659,-0.032145,-0.0772484,-0.0639108,0.421131,-0.355106,0.840227,-1.35101e-05,-2.97471e-05,0.701269,-0.06191132669151733,1.3168928517693739,-1.3510008739059387e-05,0.5236838679220532,-2.9746657559392986e-05,-0.2989008772373545
955,0.943,272.414,764.957,0.00578514,456.726,-0.0321554,-0.0772501,-0.0639618,0.421457,-0.355381,0.840881,-1.36196e-05,-2.99371e-05,0.701816,-0.06195916799389256,1.3184085952885365,-1.3619507253648244e-05,0.5241806698373082,-2.9936651889439503e-05,-0.29909365298823354
956,0.944,272.453,765.069,0.0057712,456.792,-0.0321657,-0.0772517,-0.0640127,0.421783,-0.355655,0.841534,-1.37292e-05,-3.01271e-05,0.702363,-0.06200691305711947,1.3199230105040143,-1.3729105754922699e-05,0.5246776337363894,-3.0126646183514794e-05,-0.2992856750190952
957,0.945,272.492,765.182,0.0057573,456.858,-0.032176,-0.0772534,-0.0640636,0.422109,-0.355929,0.842187,-1.38386e-05,-3.03169e-05,0.70291,-0.062054655690184535,1.3214384149555785,-1.3838504246965755e-05,0.5251747596721121,-3.0316440447486492e-05,-0.29947764444312786
958,0.946,272.531,765.294,0.00574343,456.924,-0.0321863,-0.077255,-0.0641145,0.422434,-0.356204,0.84284,-1.3948e-05,-3.05067e-05,0.703456,-0.062102395893211426,1.3229548092894108,-1.3947902727129424e-05,0.5256705220260243,-3.0506234675375943e-05,-0.29967026160483246
959,0.947,272.57,765.407,0.00572959,456.991,-0.0321966,-0.0772567,-0.0641653,0.422759,-0.356478,0.843493,-1.40574e-05,-3.06963e-05,0.704002,-0.0621500398813325,1.3244721941521154,-1.4057301195191663e-05,0.526166445528887,-3.0695828873383846e-05,-0.2998621256665759
960,0.948,272.609,765.519,0.00571579,457.057,-0.0322069,-0.0772583,-0.0642162,0.423084,-0.356752,0.844145,-1.41667e-05,-3.08859e-05,0.704548,-0.0621977752294276,1.3259882442013122,-1.416659965280953e-05,0.5266625302330816,-3.0885423035531545e-05,-0.3000539371647679
961,0.949,272.648,765.631,0.00570202,457.123,-0.0322171,-0.07726,-0.064267,0.423409,-0.357025,0.844797,-1.4276e-05,-3.10754e-05,0.705094,-0.0622454143724015,1.3275052830374503,-1.427589809843699e-05,0.5271587761910075,-3.107491716480837e-05,-0.30024499635915525
962,0.95,272.687,765.743,0.00568828,457.189,-0.0322274,-0.0772617,-0.0643178,0.423734,-0.357299,0.845448,-1.43852e-05,-3.12648e-05,0.705639,-0.062293051095368424,1.3290209822832826,-1.4385096533509056e-05,0.5276551834550807,-3.126431126121432e-05,-0.30043670296514846
963,0.951,272.725,765.855,0.00567458,457.254,-0.0322376,-0.0772633,-0.0643685,0.424059,-0.357572,0.846099,-1.44943e-05,-3.1454e-05,0.706184,-0.06234059163251504,1.330537668570571,-1.4494194958136752e-05,0.5281517520777339,-3.145350532818281e-05,-0.30062765767873456
964,0.952,272.764,765.967,0.00566091,457.32,-0.0322478,-0.077265,-0.0644193,0.424383,-0.357846,0.84675,-1.46034e-05,-3.16432e-05,0.706729,-0.06238822352059992,1.332055342542089,-1.4603293370885062e-05,0.5286469534636995,-3.164269935918007e-05,-0.3008192594498893
965,0.953,272.803,766.078,0.00564727,457.386,-0.032258,-0.0772667,-0.06447,0.424707,-0.358119,0.8474,-1.47124e-05,-3.18323e-05,0.707273,-0.0624357592326269,1.33357167126819,-1.4712291773189001e-05,0.5291423153209092,-3.183179335775055e-05,-0.3010101097398096
966,0.954,272.841,766.19,0.00563366,457.452,-0.0322682,-0.0772684,-0.0645206,0.425031,-0.358392,0.848051,-1.48214e-05,-3.20213e-05,0.707818,-0.06248319878297903,1.3350913210185102,-1.4821290163613554e-05,0.529637837701364,-3.2020787323672195e-05,-0.301200907934712
967,0.955,272.88,766.301,0.00562009,457.517,-0.0322783,-0.07727,-0.0645713,0.425355,-0.358665,0.8487,-1.49304e-05,-3.22103e-05,0.708362,-0.06253072967988227,1.3366072871636545,-1.493028854215872e-05,0.5301335206570819,-3.220978125384466e-05,-0.3013916540488165
968,0.956,272.918,766.412,0.00560655,457.583,-0.0322885,-0.0772717,-0.0646219,0.425679,-0.358938,0.84935,-1.50393e-05,-3.23991e-05,0.708905,-0.06257816442485131,1.3381265756155662,-1.5039186910259517e-05,0.5306293642400974,-3.239857515480171e-05,-0.3015823480963393
969,0.957,272.957,766.523,0.00559304,457.648,-0.0322986,-0.0772734,-0.0646725,0.426003,-0.35921,0.849999,-1.51481e-05,-3.25878e-05,0.709449,-0.06262559676968293,1.3396445122803087,-1.5147985268137987e-05,0.5311253685024628,-3.2587269023443e-05,-0.3017722918641337
970,0.958,272.995,766.634,0.00557956,457.713,-0.0323087,-0.0772751,-0.0647231,0.426326,-0.359483,0.850648,-1.52569e-05,-3.27764e-05,0.709992,-0.0626730267144987,1.341163434405694,-1.525678361413707e-05,0.5316200018754784,-3.27758628596575e-05,-0.30196288201171595
971,0.959,273.034,766.745,0.00556612,457.779,-0.0323188,-0.0772767,-0.0647737,0.426649,-0.359755,0.851296,-1.53656e-05,-3.2965e-05,0.710535,-0.06272045425941997,1.3426809999493226,-1.5365481949802806e-05,0.5321147950408787,-3.2964456660344865e-05,-0.30215272228836065
972,0.96,273.072,766.856,0.00555271,457.844,-0.0323289,-0.0772784,-0.0648242,0.426972,-0.360028,0.851945,-1.54743e-05,-3.31534e-05,0.711077,-0.06276778568135144,1.3442018933948292,-1.5474180273589155e-05,0.5326097480502847,-3.315285043214988e-05,-0.3023432085926123
973,0.961,273.11,766.966,0.00553933,457.909,-0.032339,-0.0772801,-0.0648747,0.427295,-0.3603,0.852592,-1.55829e-05,-3.33418e-05,0.711619,-0.06281511471310641,1.3457190827776953,-1.55827785872642e-05,0.5331048609553346,-3.334124416831674e-05,-0.30253294543449494
974,0.962,273.149,767.077,0.00552598,457.974,-0.032349,-0.0772818,-0.0649252,0.427618,-0.360572,0.85324,-1.56914e-05,-3.35301e-05,0.712161,-0.06286244135480556,1.347239601338143,-1.56912768906059e-05,0.533600133807683,-3.35295378725009e-05,-0.3027226306749745
975,0.963,273.187,767.187,0.00551267,458.039,-0.0323591,-0.0772835,-0.0649757,0.427941,-0.360843,0.853887,-1.58e-05,-3.37182e-05,0.712703,-0.0629097656065698,1.3487587567539912,-1.5799875180633194e-05,0.534095566659001,-3.371763154791374e-05,-0.3029115672400008
976,0.964,273.225,767.297,0.00549938,458.104,-0.0323691,-0.0772852,-0.0650261,0.428263,-0.361115,0.854534,-1.59084e-05,-3.39063e-05,0.713244,-0.06295699376422359,1.3502788953814284,-1.5908273462095224e-05,0.5345896249705844,-3.390572518791046e-05,-0.30310114950935396
977,0.965,273.263,767.407,0.00548613,458.168,-0.0323791,-0.0772869,-0.0650765,0.428585,-0.361387,0.85518,-1.60168e-05,-3.40943e-05,0.713786,-0.06300421954163837,1.3517976660579563,-1.601667173178889e-05,0.5350838423945601,-3.409371879592449e-05,-0.30329068021934236
978,0.966,273.301,767.517,0.00547291,458.233,-0.0323891,-0.0772885,-0.0651269,0.428907,-0.361658,0.855827,-1.61252e-05,-3.42822e-05,0.714327,-0.06305144293893383,1.3533197714959075,-1.612506998971419e-05,0.5355782189821701,-3.428161237206684e-05,-0.30347946286379923
979,0.967,273.339,767.627,0.00545972,458.298,-0.0323991,-0.0772902,-0.0651773,0.429229,-0.361929,0.856472,-1.62335e-05,-3.447e-05,0.714867,-0.0630986639562301,1.354838152373715,-1.6233368237417167e-05,0.5360727547846738,-3.4469405916337514e-05,-0.30366819435509107
980,0.968,273.377,767.737,0.00544656,458.362,-0.032409,-0.0772919,-0.0652276,0.429551,-0.3622,0.857118,-1.63417e-05,-3.46577e-05,0.715407,-0.06314578890823064,1.35635986928179,-1.6341566475119862e-05,0.5365674498533461,-3.465709942884754e-05,-0.30385687470707834
981,0.969,273.415,767.847,0.00543344,458.427,-0.032419,-0.0772936,-0.0652779,0.429873,-0.362471,0.857763,-1.64499e-05,-3.48454e-05,0.715948,-0.06319291148990569,1.3578802116551838,-1.6449764701165215e-05,0.5370623042394793,-3.484479290605247e-05,-0.30404550393361807
982,0.97,273.453,767.956,0.00542034,458.491,-0.0324289,-0.0772953,-0.0653282,0.430194,-0.362742,0.858408,-1.65581e-05,-3.50329e-05,0.716487,-0.06324003170137449,1.3594015349657265,-1.6557962915442204e-05,0.5375557804378326,-3.503228635515221e-05,-0.3042340820485634
983,0.971,273.491,768.065,0.00540728,458.556,-0.0324388,-0.077297,-0.0653784,0.430515,-0.363013,0.859053,-1.66662e-05,-3.52203e-05,0.717027,-0.06328705587146655,1.3609238398463273,-1.666606111960789e-05,0.5380494150674724,-3.52196797724913e-05,-0.30442260906576357
984,0.972,273.529,768.175,0.00539424,458.62,-0.0324487,-0.0772987,-0.0654287,0.430837,-0.363283,0.859697,-1.67742e-05,-3.54077e-05,0.717566,-0.063334171347592,1.3624447644843567,-1.6774059313884315e-05,0.5385447467232409,-3.540707315474734e-05,-0.3046103896098017
985,0.973,273.567,768.284,0.00538124,458.684,-0.0324586,-0.0773004,-0.0654789,0.431157,-0.363554,0.860341,-1.68822e-05,-3.55949e-05,0.718105,-0.06338119079199245,1.3639666689133114,-1.68820574965034e-05,0.5390371598240866,-3.559426650900921e-05,-0.30479881466146974
986,0.974,273.604,768.393,0.00536827,458.749,-0.0324685,-0.0773021,-0.0655291,0.431478,-0.363824,0.860984,-1.69902e-05,-3.57821e-05,0.718644,-0.06342820787607595,1.3654871882760098,-1.699005566735412e-05,0.539531270052839,-3.5781459828299056e-05,-0.30498649364370833
987,0.975,273.642,768.502,0.00535533,458.813,-0.0324784,-0.0773038,-0.0655793,0.431799,-0.364094,0.861628,-1.7098e-05,-3.59692e-05,0.719182,-0.06347522259996119,1.3670110526569235,-1.7097853830083665e-05,0.5400255389164346,-3.5968553116050295e-05,-0.30517412195946214
988,0.976,273.68,768.61,0.00534242,458.877,-0.0324882,-0.0773055,-0.0656294,0.432119,-0.364364,0.862271,-1.72059e-05,-3.61562e-05,0.71972,-0.06352214131598521,1.3685335301878525,-1.7205751979387784e-05,0.5405184259466065,-3.615554637248497e-05,-0.305361699622409
989,0.977,273.717,768.719,0.00532954,458.941,-0.0324981,-0.0773073,-0.0656795,0.43244,-0.364634,0.862913,-1.73137e-05,-3.63431e-05,0.720258,-0.0635690576814405,1.3700546169308327,-1.7313550118802645e-05,0.541013011738108,-3.634243959749206e-05,-0.3055492266462235
990,0.978,273.755,768.828,0.00531669,459.004,-0.0325079,-0.077309,-0.0657296,0.43276,-0.364904,0.863556,-1.74214e-05,-3.65299e-05,0.720796,-0.06361597169644484,1.3715790521029039,-1.7421248248328247e-05,0.541506214810147,-3.652923279129361e-05,-0.30573670304457634
991,0.979,273.792,768.936,0.00530388,459.068,-0.0325177,-0.0773107,-0.0657797,0.43308,-0.365173,0.864197,-1.75291e-05,-3.67166e-05,0.721333,-0.06366288336111581,1.3730997215978071,-1.7528946366196507e-05,0.5419995757324241,-3.6715925953889617e-05,-0.30592343475491635
992,0.98,273.83,769.044,0.00529109,459.132,-0.0325275,-0.0773124,-0.0658297,0.4334,-0.365443,0.864839,-1.76367e-05,-3.69032e-05,0.72187,-0.06370969904654589,1.374623740776884,-1.763654447428653e-05,0.5424930945554587,-3.690251908528008e-05,-0.3061108101307185
993,0.981,273.867,769.152,0.00527833,459.196,-0.0325372,-0.0773141,-0.0658797,0.433719,-0.365712,0.86548,-1.77443e-05,-3.70897e-05,0.722407,-0.06375651239125013,1.3761463625428636,-1.7744142570830235e-05,0.5429852283437877,-3.708901218557603e-05,-0.3062974412197864
994,0.982,273.905,769.26,0.0052656,459.259,-0.032547,-0.0773158,-0.0659297,0.434039,-0.365981,0.866121,-1.78518e-05,-3.72762e-05,0.722943,-0.06380332339534578,1.3776699606222698,-1.7851640657595702e-05,0.543479062626129,-3.7275505251122e-05,-0.3064840221118432
995,0.983,273.942,769.368,0.00525291,459.323,-0.0325568,-0.0773176,-0.0659797,0.434358,-0.36625,0.866762,-1.79593e-05,-3.74625e-05,0.72348,-0.06385013205894963,1.3791945356411208,-1.7959138732703828e-05,0.5439715109884444,-3.746179828933993e-05,-0.30667055282039
996,0.984,273.98,769.476,0.00524024,459.386,-0.0325665,-0.0773193,-0.0660296,0.434677,-0.366519,0.867402,-1.80667e-05,-3.76488e-05,0.724016,-0.06389684477186797,1.3807177075069372,-1.806653679814474e-05,0.5444641164668462,-3.7648091292807884e-05,-0.30685703335892445
997,0.985,274.017,769.584,0.0052276,459.45,-0.0325762,-0.077321,-0.0660796,0.434996,-0.366788,0.868043,-1.81741e-05,-3.78349e-05,0.724551,-0.06394364875951997,1.3822442367578054,-1.817393485203933e-05,0.5449568791114623,-3.7834184269169846e-05,-0.30704346374094027
998,0.986,274.054,769.691,0.005215,459.513,-0.0325859,-0.0773227,-0.0661295,0.435315,-0.367057,0.868682,-1.82814e-05,-3.8021e-05,0.725087,-0.06399035680607146,1.3837669772888792,-1.8281232896266708e-05,0.5454497989724367,-3.802027721089285e-05,-0.3072298439799279
999,0.987,274.091,769.799,0.00520242,459.576,-0.0325956,-0.0773245,-0.0661793,0.435634,-0.367325,0.869322,-1.83886e-05,-3.8207e-05,0.725622,-0.06403696892565103,1.3852930764539861,-1.838843093071585e-05,0.5459428760999294,-3.82062701218544e-05,-0.3074154815052018
