,Time,S11,S22,S33,S12,S13,S23,LE11,LE22,LE33,LE12,LE13,LE23,SDV_EPBAR,E11,E12,E13,E22,E23,E33
0,1e-05,0.521016,1.56305,-3.33067e-16,0.902427,-7.34989e-18,4.24346e-18,2.50015e-07,6.74997e-06,-3.00001e-06,1.12583e-05,-1.83389e-22,1.0588e-22,0.0,2.500150313444749e-07,1.1258363374899716e-05,0.0,6.749992781163172e-06,0.0,-3.0000055000201087e-06
1,2e-05,1.04203,3.12608,3.33067e-16,1.80484,1.07607e-17,5.25857e-17,5.00016e-07,1.34999e-05,-5.99997e-06,2.25164e-05,-7.33567e-22,4.23506e-22,0.0,5.000161249490986e-07,2.2516653495952e-05,0.0,1.3499991124099608e-05,0.0,-5.999952000235176e-06
2,3.5e-05,1.82353,5.4706,-7.77156e-16,3.15845,-2.54606e-17,-4.40991e-17,8.74997e-07,2.36246e-05,-1.04998e-05,3.94035e-05,-4.23507e-22,-7.33535e-22,0.0,8.749973827715252e-07,3.940427632809218e-05,0.0,2.3624879063044446e-05,0.0,-1.0499744877323636e-05
3,5.75e-05,2.99577,8.98732,-4.10783e-15,5.18883,9.2746e-17,2.485e-17,1.43746e-06,3.88114e-05,-1.72495e-05,6.47335e-05,4.23492e-22,7.3351e-22,0.0,1.4374610330936122e-06,6.473559525832506e-05,0.0,3.8812153172029795e-05,0.0,-1.7249351228265652e-05
4,9.125e-05,4.75408,14.2622,-2.89768e-14,8.23431,-4.18269e-17,6.33446e-17,2.2812e-06,6.1591e-05,-2.73738e-05,0.000102728,-2.93431e-21,1.69407e-21,0.0,2.2812026019281006e-06,0.00010273327670162757,0.0,6.159289676466173e-05,0.0,-2.737342534098186e-05
5,0.00014188,7.39143,22.1743,-1.55986e-13,12.8023,1.24253e-17,-4.63742e-17,3.54667e-06,9.57588e-05,-4.25595e-05,0.000159716,2.93438e-21,-1.69407e-21,0.0,3.546676289545303e-06,0.00015972875527947572,0.0,9.576338502026438e-05,0.0,-4.255859435731146e-05
6,0.00021781,11.3472,34.0416,-8.00804e-13,19.6539,2.31858e-16,6.21133e-17,5.44479e-06,0.000147007,-6.53367e-05,0.000245194,-2.99771e-25,-5.19218e-25,0.0,5.444804822785088e-06,0.00024522406250571116,0.0,0.00014701780605852477,0.0,-6.533456560431361e-05
7,0.00033172,17.2803,51.8409,-4.05509e-12,29.9304,2.81559e-16,-1.23385e-16,8.29165e-06,0.000223873,-9.94992e-05,0.000373398,1.51264e-20,-9.08104e-22,0.0,8.29168437577188e-06,0.00037346772171087395,0.0,0.00022389806143019442,0.0,-9.949425011879232e-05
8,0.00050258,26.1787,78.5361,-2.0513e-11,45.3428,-2.74881e-16,-2.72422e-16,1.25613e-05,0.000339155,-0.000150736,0.000565677,1.5215e-24,2.63531e-24,0.0,1.256137889349418e-05,0.0005658370254069123,0.0,0.0003392125195595952,0.0,-0.00015072463989995732
9,0.00075887,39.5234,118.57,-1.0376e-10,68.4566,1.1095e-15,4.95905e-16,1.89646e-05,0.000512041,-0.000227574,0.000854034,1.85113e-20,4.95121e-21,0.0,1.896477982921141e-05,0.00085439879087712,0.0,0.0005121721153706904,0.0,-0.0002275481070015406
10,0.0011433,59.5341,178.602,-5.24721e-10,103.116,-3.50563e-18,1.97614e-16,2.85663e-05,0.000771287,-0.000342794,0.00128643,2.34802e-20,-1.35599e-20,0.0,2.8566708020649756e-05,0.0012872578060059148,0.0,0.0007715845183038361,0.0,-0.00034273525284966855
11,0.00172,89.4168,268.25,-0.000164691,154.875,-3.1386e-05,-2.87053e-05,4.26143e-05,0.00115985,-0.000515992,0.00193512,-3.92244e-10,-3.58835e-10,2.28398e-06,4.261520800219465e-05,0.0019369935530288984,-3.9224401504611706e-10,0.001160522886135107,-3.588349617444919e-10,-0.0005158588990219481
12,0.0019362,90.3318,271.051,-0.0718545,156.591,-0.0286757,-0.011221,1.79009e-05,0.00129521,-0.000619643,0.00221342,-4.33157e-07,-9.09591e-08,0.000199856,1.7901060222147436e-05,0.0022158714223903253,-4.33156906232135e-07,0.0012960491467233215,-9.095909581091632e-08,-0.0006194510609228709
13,0.0022606,91.8199,275.423,0.04673,158.948,0.0200059,0.00338016,-1.93942e-05,0.00149915,-0.000774821,0.00262924,1.43494e-07,2.98506e-07,0.000497102,-1.9394011933737687e-05,0.002632699482761236,1.4349401022961672e-07,0.0015002742871159658,2.9850604454928487e-07,-0.0007745209037209877
14,0.0027471,93.5842,280.916,-0.140434,162.375,-0.0533956,-0.0255687,-7.59564e-05,0.001803,-0.00100856,0.00325645,-1.17911e-06,4.12075e-07,0.000946444,-7.595351538569606e-05,0.0032617579934757224,-1.1791093048607593e-06,0.0018046263818085606,4.120750849434529e-07,-0.0010080515743035035
15,0.0034769,96.5296,289.394,0.211318,166.826,0.0657737,0.00609892,-0.000161544,0.00226097,-0.0013584,0.00419286,1.15205e-07,2.352e-06,0.00162407,-0.0001615309524706232,0.004201662335510337,1.1520500664552458e-07,0.0022635279201006497,2.3520027658818776e-06,-0.0013574777923428538
16,0.0044769,99.7822,299.051,0.260593,172.355,0.0728718,0.00622139,-0.000280475,0.00288568,-0.00183942,0.00547975,-2.89417e-07,5.34015e-06,0.0025608,-0.00028043567056423857,0.0054947912916534225,-2.8941695806583567e-07,0.00288984758233668,5.340164258571534e-06,-0.0018377293038240872
17,0.0054769,102.591,307.502,0.246884,177.254,0.066776,-0.00230271,-0.000400486,0.00350936,-0.0023216,0.00676676,-6.55292e-07,7.40647e-06,0.00350358,-0.0004004058161863888,0.006789706248502059,-6.552917852786777e-07,0.003515525013445764,7.406497428030789e-06,-0.0023189071710136844
18,0.0064769,104.67,314.363,-0.280942,181.768,-0.0687921,-0.0749567,-0.000521247,0.00413017,-0.00280558,0.00805689,-3.39776e-06,7.68325e-06,0.00445178,-0.0005211111743831376,0.008089434080882585,-3.397754227640881e-06,0.0041387109065316174,7.68327951616854e-06,-0.0028016480384356335
19,0.0074769,106.973,321.263,-0.256982,185.775,-0.0778565,-0.0661291,-0.000642086,0.00475155,-0.00328847,0.00934378,-4.49256e-06,8.69251e-06,0.00540225,-0.0006418799068964587,0.009387569392230288,-4.4925499084191856e-06,0.004762856514431091,8.692547780020377e-06,-0.0032830689045983963
20,0.0084769,109.529,328.363,0.209154,189.29,0.0748655,-0.0217552,-0.000763205,0.00537466,-0.00377107,0.0106256,-2.47132e-06,1.0189e-05,0.00635427,-0.000762913833142087,0.010682252164293748,-2.4713169463064233e-06,0.005389129396138115,1.0189051907971702e-05,-0.003763968445152255
21,0.0094769,111.038,333.459,-0.263003,192.832,-0.0818976,-0.0688871,-0.000885242,0.00599292,-0.00425556,0.011914,-5.27066e-06,1.00592e-05,0.00731037,-0.0008848502888956222,0.011985254391771338,-5.270646110111521e-06,0.006010913471583557,1.0059250593830171e-05,-0.004246517935439953
22,0.010477,112.877,338.953,-0.243516,195.982,-0.0759289,-0.0673542,-0.00100705,0.00661229,-0.00473904,0.0131982,-5.9428e-06,1.04078e-05,0.00826694,-0.001006543095322443,0.013285680680462653,-5.942782341561426e-06,0.006634199453454448,1.0407854161398333e-05,-0.00472782846756481
23,0.011477,115.023,344.826,0.233833,198.794,0.0752779,-0.0144193,-0.00112897,0.00723319,-0.00522174,0.0144775,-3.80726e-06,1.1622e-05,0.00922371,-0.001128332953127753,0.014582806581432406,-3.8072527523969057e-06,0.007259412705263202,1.1622067535688174e-05,-0.005208130414562806
24,0.012477,116.656,349.692,0.261748,201.562,0.0872312,-0.0168256,-0.00125151,0.00785192,-0.00570543,0.0157586,-3.31087e-06,1.20436e-05,0.0101824,-0.0012507271879597104,0.01588342154597666,-3.310864519101564e-06,0.007882827164412243,1.204367252438665e-05,-0.005689184943951098
25,0.013477,117.77,353.521,-0.170652,204.333,-0.0606085,-0.0526481,-0.00137424,0.00846757,-0.0061897,0.0170429,-5.69737e-06,1.17598e-05,0.0111428,-0.0013732961646127917,0.017188958795564035,-5.697353769984481e-06,0.008503521272514858,1.1759869146699131e-05,-0.006170583269566654
26,0.014477,119.121,357.693,-0.268961,206.845,-0.0859892,-0.0698738,-0.0014967,0.0090838,-0.00667309,0.0183239,-6.68407e-06,1.1548e-05,0.012103,-0.0014955805031416913,0.018492812791968127,-6.684047661686954e-06,0.009125182921035035,1.1548066678468416e-05,-0.006650874378008265
27,0.015477,120.487,361.794,-0.277874,209.209,-0.0830399,-0.0723371,-0.00161913,0.0096997,-0.00715609,0.0196031,-7.27665e-06,1.14614e-05,0.0130633,-0.0016178199161822615,0.019796502460228682,-7.276623525287462e-06,0.00974689455764155,1.1461465682094385e-05,-0.007130546155624251
28,0.016477,122.303,366.592,0.295023,211.306,0.0919743,-0.00200379,-0.00174153,0.0103175,-0.00763776,0.0208767,-4.66485e-06,1.26621e-05,0.0140226,-0.0017400144165685694,0.021096142721005906,-4.66483911965021e-06,0.010370908927290534,1.2662180164824122e-05,-0.00760866642811775
29,0.017477,123.525,370.299,0.254548,213.464,0.0906758,-0.0176235,-0.00186447,0.0109328,-0.00812068,0.0221529,-4.25411e-06,1.26637e-05,0.0149833,-0.0018627329555330752,0.0224000974949099,-4.254100951284201e-06,0.010992781447014321,1.266378018494052e-05,-0.008087796350903509
30,0.018477,124.386,373.265,-0.0944869,215.668,-0.043007,-0.0379673,-0.00198743,0.0115454,-0.00860364,0.0234315,-6.26835e-06,1.24605e-05,0.0159449,-0.0019854563686987348,0.023708174334885035,-6.268330353886853e-06,0.011612305365730657,1.2460577632378289e-05,-0.00856673460545887
31,0.019477,125.866,377.32,0.25063,217.523,0.0905069,-0.0171483,-0.00211004,0.0121608,-0.00908517,0.0247028,-4.16709e-06,1.28666e-05,0.0169047,-0.0021078154305178565,0.025010442148058365,-4.167081317674182e-06,0.01223504317522317,1.2866682775003468e-05,-0.009044024541810192
32,0.020477,126.533,379.843,-0.219154,219.595,-0.0741264,-0.0609724,-0.00223302,0.0127716,-0.00956783,0.0259799,-6.72452e-06,1.2195e-05,0.0178662,-0.002230528665584708,0.026320319227702393,-6.724497390475648e-06,0.01285350519866868,1.2195074359233615e-05,-0.009522203944606566
33,0.021477,127.572,382.989,-0.250917,221.445,-0.0821522,-0.0649274,-0.00235556,0.0133835,-0.0100492,0.0272528,-7.36188e-06,1.19829e-05,0.0188266,-0.0023527878456290896,0.027627554175223112,-7.361852901399679e-06,0.013473459914301378,1.1982971795276853e-05,-0.009998875504394933
34,0.022477,129.099,386.953,0.298793,223.054,0.0991446,0.00050224,-0.00247796,0.0139976,-0.0105293,0.0285196,-4.60881e-06,1.29894e-05,0.0197854,-0.0024748923914460486,0.028930177668370582,-4.6087993794685644e-06,0.014096025105111432,1.298948436256886e-05,-0.010474060966867649
35,0.023477,129.565,388.992,-0.280727,224.955,-0.0932417,-0.0667698,-0.00260092,0.0146062,-0.0110112,0.029794,-7.59131e-06,1.19497e-05,0.0207464,-0.0025975405381151173,0.030242282182205482,-7.591281186103416e-06,0.014713391791617347,1.194977139795661e-05,-0.010950798637719972
36,0.024477,130.529,391.88,-0.276694,226.617,-0.091517,-0.0660269,-0.00272332,0.0152163,-0.0114915,0.0310633,-8.13198e-06,1.17539e-05,0.0217058,-0.0027196151280358682,0.03155079898548685,-8.131946935496792e-06,0.015332657319690135,1.1753969077377135e-05,-0.011425724906460877
37,0.025477,131.981,395.601,0.29331,228.049,0.100835,0.000194055,-0.0028456,0.0158285,-0.0119705,0.0323265,-5.23042e-06,1.2729e-05,0.0226635,-0.0028415551179351572,0.032854677310935276,-5.230406321388159e-06,0.015954434279009,1.2729081014128951e-05,-0.011899138592601055
38,0.026477,132.368,397.384,-0.271689,229.794,-0.090882,-0.0642754,-0.00296841,0.0164353,-0.0124514,0.0335974,-8.16775e-06,1.17102e-05,0.0236234,-0.002964008627139414,0.03416816680043144,-8.167716644025269e-06,0.016571102507948243,1.1710268564613102e-05,-0.012374202058686001
39,0.027477,133.262,400.045,-0.253676,231.307,-0.0839037,-0.0623321,-0.00309067,0.0170436,-0.0129306,0.0348631,-8.57964e-06,1.15253e-05,0.0245815,-0.0030858987961468465,0.035477942165636156,-8.579603195002505e-06,0.017189670828084536,1.1525366416575977e-05,-0.012847358963610778
40,0.028477,134.588,403.449,0.264209,232.618,0.0925601,-0.00157415,-0.00321282,0.0176539,-0.0134086,0.0361232,-5.92227e-06,1.23944e-05,0.025538,-0.0032076644166222357,0.03678357035884017,-5.922252463430588e-06,0.017810651157063706,1.2394476810895227e-05,-0.013319105169700696
41,0.029477,134.967,405.127,-0.229143,234.213,-0.0761012,-0.058761,-0.00333543,0.0182591,-0.0138883,0.0373901,-8.47372e-06,1.14772e-05,0.0264962,-0.0033298736326989875,0.038097903852883475,-8.473684098175838e-06,0.018426816595999096,1.1477265863257813e-05,-0.013792302489499586
42,0.030477,136.255,408.429,0.290492,235.432,0.111122,-0.00881755,-0.00345749,0.0188683,-0.0143656,0.0386476,-5.58501e-06,1.21583e-05,0.0274516,-0.0034515197641089568,0.03940413308648005,-5.584994403839971e-06,0.019047431232693812,1.2158373912329878e-05,-0.014262907104795608
43,0.031477,136.549,409.88,-0.24199,236.983,-0.0826828,-0.0582382,-0.00357997,0.019472,-0.0148445,0.0399126,-8.4752e-06,1.13312e-05,0.0284089,-0.003573569547486888,0.04071981130585978,-8.475164085641751e-06,0.019662815902101505,1.133126419827768e-05,-0.0147348635795852
44,0.032477,137.826,413.121,0.30553,238.119,0.118642,-0.00703856,-0.00370188,0.0200802,-0.015321,0.0411675,-5.37419e-06,1.20259e-05,0.0293632,-0.003695036489455461,0.042026630389206066,-5.374175559014205e-06,0.020283163455301567,1.2025972311535682e-05,-0.015204230581520428
45,0.033477,138.058,414.41,-0.251196,239.615,-0.0867259,-0.0579712,-0.00382423,0.0206825,-0.0157992,0.0424305,-8.42069e-06,1.11736e-05,0.0303194,-0.003816926944940402,0.043343541477681935,-8.420654546092976e-06,0.02089786510346925,1.117366242486817e-05,-0.015675047337198045
46,0.034477,139.312,417.569,0.308942,240.682,0.121232,-0.00607649,-0.00394598,0.0212895,-0.0162749,0.0436829,-5.22723e-06,1.18725e-05,0.0312724,-0.0039382048511424905,0.04465104351590288,-5.22721633811063e-06,0.021517738220045324,1.1872570478299593e-05,-0.016143179363149573
47,0.035477,139.508,418.749,-0.249787,242.122,-0.0866963,-0.056833,-0.00406818,0.0218907,-0.0167523,0.0449436,-8.29711e-06,1.10222e-05,0.0322273,-0.0040599161657968175,0.04596886560107327,-8.297075579033475e-06,0.02213205933068574,1.102226074456425e-05,-0.01661276051138294
48,0.036477,140.721,421.798,0.301056,243.134,0.119491,-0.00614237,-0.00418977,0.0224965,-0.0172273,0.0461937,-5.13865e-06,1.16977e-05,0.0331791,-0.004181005158835793,0.04727724891456164,-5.13863679718618e-06,0.022751454528090687,1.1697768418361676e-05,-0.01707975852933019
49,0.037477,140.903,422.915,-0.237756,244.515,-0.082633,-0.0547752,-0.00431179,0.0230965,-0.0177038,0.047452,-8.10769e-06,1.08796e-05,0.0341328,-0.004302507579572845,0.04859586731165244,-8.107657132772061e-06,0.023365289532893962,1.0879659183116175e-05,-0.017548008454986497
50,0.038477,142.06,425.828,0.283225,245.485,0.113884,-0.00711599,-0.00443324,0.023701,-0.018178,0.0487,-5.10226e-06,1.15055e-05,0.0350833,-0.004423427697004545,0.04990533188999624,-5.102246983468284e-06,0.02398410086729852,1.1505566188452221e-05,-0.01801377674698712
51,0.039477,142.25,426.925,-0.216845,246.804,-0.0751201,-0.0519649,-0.00455507,0.0243,-0.0186537,0.0499556,-7.86281e-06,1.07448e-05,0.0360356,-0.004544711402661217,0.05122442097554658,-7.862779088152472e-06,0.02459765108366274,1.0744857725564216e-05,-0.01848079650393253
52,0.040477,143.336,429.679,0.25771,247.743,0.105201,-0.00878176,-0.00467637,0.0249031,-0.0191272,0.0512017,-5.10665e-06,1.13007e-05,0.0369849,-0.004665452806053905,0.05253516821798665,-5.106636961071942e-06,0.025215772302749073,1.1300763853139273e-05,-0.018945435834745283
53,0.041477,143.987,431.606,0.27142,248.824,0.115825,-0.00960686,-0.00479794,0.0255038,-0.0196013,0.05245,-4.41719e-06,1.12985e-05,0.0379346,-0.004786448272097954,0.0538498682677897,-4.417180244242758e-06,0.025831804423894766,1.1298563828310293e-05,-0.019410443564823576
54,0.042477,144.229,432.733,-0.113164,250.061,-0.0497875,-0.0280484,-0.00491949,0.0261013,-0.0200755,0.0537015,-6.75121e-06,1.09817e-05,0.0388846,-0.00490740912776555,0.05516958701968466,-6.751187210607412e-06,0.026444922077696553,1.0981760299122456e-05,-0.019875328899460865
55,0.043477,144.686,434.296,-0.290167,251.152,-0.0984815,-0.0579316,-0.00504066,0.0266995,-0.0205489,0.0549497,-7.86397e-06,1.03742e-05,0.0398333,-0.005027977192237798,0.05648747201912507,-7.8639390790336e-06,0.02705912511989772,1.0374253812228673e-05,-0.020339210109414196
56,0.044477,145.324,436.162,-0.252194,252.163,-0.0782651,-0.0573191,-0.00516157,0.0272978,-0.0210215,0.0561952,-8.01356e-06,1.01504e-05,0.0407808,-0.005148271986947117,0.0578041469546311,-8.013527891481687e-06,0.027673798455649434,1.0150451515533732e-05,-0.020802088411958297
57,0.045477,146.332,438.686,0.226108,253.028,0.0814517,0.00284491,-0.00528241,0.0278977,-0.0214928,0.057436,-5.63866e-06,1.09646e-05,0.0417267,-0.005268482606488267,0.05911748496657543,-5.638644102745616e-06,0.028290484923954695,1.0964660111412172e-05,-0.021263475653245933
58,0.046477,146.919,440.449,0.227554,254.004,0.0958639,-0.00949645,-0.00540352,0.0284954,-0.0219649,0.0586786,-5.00887e-06,1.08089e-05,0.0426729,-0.005388947245676401,0.06043436235987509,-5.008857455579552e-06,0.028905277859359924,1.080895841631957e-05,-0.021725428113931744
59,0.047477,147.191,441.566,-0.0743568,255.114,-0.0358495,-0.0229082,-0.00552455,0.0290905,-0.0224369,0.0599235,-6.84266e-06,1.05723e-05,0.0436191,-0.005509317737024011,0.06175531915653609,-6.842636589010631e-06,0.029517761616680405,1.0572355886973028e-05,-0.022187064757043795
60,0.048477,147.62,443.018,-0.226655,256.107,-0.0748984,-0.0505947,-0.00564528,0.0296859,-0.0229082,0.0611656,-7.70659e-06,1.00238e-05,0.0445642,-0.005629375349670007,0.0630749448223189,-7.706560304354682e-06,0.03013091901078946,1.0023850238516374e-05,-0.02264779941277384
61,0.049477,148.655,445.547,0.318179,256.877,0.113049,0.0162059,-0.00576574,0.0302838,-0.0233778,0.0624011,-4.83224e-06,1.0978e-05,0.045507,-0.005749150020942118,0.06438918562172269,-4.832228324702648e-06,0.030747018451840136,1.0978060258404199e-05,-0.023106656258149783
62,0.050477,149.177,447.153,0.286562,257.794,0.119302,-0.00297434,-0.00588654,0.0308792,-0.0238484,0.0636391,-4.19825e-06,1.07617e-05,0.0464503,-0.005869248269539273,0.06570771543507381,-4.1982411873586756e-06,0.03136090796339852,1.0761757907262748e-05,-0.02356627410915202
63,0.051477,149.337,448.015,-0.0941989,258.875,-0.0456207,-0.022497,-0.00600724,0.0314716,-0.0243188,0.0648801,-6.48808e-06,1.04455e-05,0.0473937,-0.005989232610072559,0.0670310796876068,-6.488058952425213e-06,0.031972067172760577,1.0445554554427972e-05,-0.024025480519995646
64,0.052477,149.718,449.339,-0.261769,259.811,-0.0894041,-0.0523627,-0.00612757,0.0320646,-0.0247886,0.0661177,-7.47162e-06,9.85928e-06,0.0483359,-0.006108834729706691,0.06835245485012131,-7.471592087471279e-06,0.03258420809043794,9.85932860286809e-06,-0.024483885661448324
65,0.053477,150.778,451.88,0.345048,260.497,0.124682,0.0196977,-0.00624761,0.0326605,-0.0252564,0.067348,-4.22306e-06,1.08894e-05,0.0492755,-0.006228134264684382,0.06966765775649608,-4.223051082941076e-06,0.03319970839013986,1.0889459289842307e-05,-0.02494012537694623
66,0.054477,151.269,453.391,0.314818,261.357,0.13161,0.000393103,-0.00636805,0.0332537,-0.0257253,0.0685813,-3.53046e-06,1.06822e-05,0.0502159,-0.006347816940758144,0.07098769271104444,-3.530453767885966e-06,0.03381278427748713,1.0682257054916988e-05,-0.025397223777061995
67,0.055477,151.353,454.072,-0.112484,262.402,-0.0530726,-0.0230948,-0.00648837,0.0338436,-0.0261942,0.0698182,-6.09676e-06,1.03095e-05,0.0511564,-0.006467365979209494,0.07231321698965298,-6.09674141482941e-06,0.03442281034843231,1.0309553143184047e-05,-0.02585410789398057
68,0.056477,151.704,455.302,-0.280371,263.285,-0.0974206,-0.0528582,-0.0066083,0.0344343,-0.0266623,0.0710512,-7.11621e-06,9.72119e-06,0.0520956,-0.006586513203201472,0.07363619463431026,-7.116184679856197e-06,0.03503402440680481,9.721237250959192e-06,-0.026309998876466456
69,0.057477,152.758,457.807,0.352316,263.907,0.129209,0.0209789,-0.00672794,0.0350281,-0.0271284,0.0722767,-3.69757e-06,1.07742e-05,0.0530321,-0.0067053580833194015,0.07495274234067018,-3.6975631639846185e-06,0.03564881012231225,1.0774258041967855e-05,-0.026763730035729072
70,0.058477,153.219,459.227,0.320228,264.719,0.135234,0.00160091,-0.00684798,0.035619,-0.0275957,0.0735054,-3.00775e-06,1.05672e-05,0.0539694,-0.006824586015931389,0.07627434853768178,-3.007745476679702e-06,0.03626095584485567,1.0567255833038303e-05,-0.027218417098776926
71,0.059477,153.269,459.809,-0.113762,265.72,-0.0538209,-0.02222,-0.00696792,0.0362065,-0.028063,0.0747378,-5.62696e-06,1.01914e-05,0.054907,-0.006943700331656255,0.07760156670867402,-5.626944168724002e-06,0.03686993802741445,1.0191451932595186e-05,-0.027672891736197358
72,0.060477,153.597,460.967,-0.276095,266.555,-0.0966021,-0.051358,-0.00708745,0.036795,-0.0285294,0.0759662,-6.6148e-06,9.61741e-06,0.055843,-0.007062393257331601,0.0789261058385955,-6.614778122249199e-06,0.03748031557191989,9.617456247390521e-06,-0.02812627936127876
73,0.061477,154.612,463.372,0.341552,267.135,0.126589,0.0205084,-0.00720669,0.0373865,-0.0289939,0.0771872,-3.25848e-06,1.0639e-05,0.0567765,-0.007180784078958613,0.08024427919489274,-3.2584746911812346e-06,0.038094166707156596,1.0639056594374807e-05,-0.028577609874888665
74,0.062477,155.042,464.705,0.303081,267.905,0.129971,0.000756082,-0.00732633,0.0379751,-0.0294595,0.0784115,-2.63381e-06,1.04198e-05,0.0577107,-0.007299557864761774,0.08156763219114871,-2.6338065315378856e-06,0.03870536879280828,1.0419854286292107e-05,-0.029029798861965772
75,0.063477,155.096,465.267,-0.0982409,268.852,-0.047859,-0.0198635,-0.00744585,0.0385606,-0.0299251,0.079639,-5.08106e-06,1.00927e-05,0.0586451,-0.007418198331510251,0.08289607162256152,-5.081047091404223e-06,0.03931370886041252,1.0092750931445238e-05,-0.029481777358856487
76,0.064477,155.41,466.368,-0.250922,269.643,-0.0874857,-0.0480683,-0.00756499,0.0391469,-0.0303898,0.0808628,-5.98072e-06,9.54515e-06,0.0595781,-0.007536447483119213,0.08422213108529686,-5.980702115548908e-06,0.03992323715367618,9.545195555071828e-06,-0.029932672403340188
77,0.065477,156.355,468.618,0.315646,270.199,0.117754,0.0186212,-0.00768386,0.0397359,-0.0308528,0.0820797,-2.89527e-06,1.04895e-05,0.0605086,-0.007654414614091554,0.08554232410514051,-2.8952658086556227e-06,0.040535932361385196,1.0489555015036345e-05,-0.030381709615881047
78,0.066477,156.753,469.865,0.267807,270.934,0.117337,-0.00170243,-0.00780307,0.0403222,-0.0313167,0.0832996,-2.38222e-06,1.02491e-05,0.0614398,-0.007772705080482112,0.08686738524303261,-2.3822171625331734e-06,0.04114617745439686,1.0249152522234795e-05,-0.030831411224437444
79,0.067477,156.844,470.471,-0.0701505,271.82,-0.0367049,-0.0164443,-0.00792216,0.0409057,-0.0317805,0.084522,-4.47848e-06,1.00092e-05,0.0623709,-0.007890862393217235,0.088196784297917,-4.4784699716471366e-06,0.04175386352411081,1.0009250092313238e-05,-0.03128080739288419
80,0.068477,157.66,472.489,0.333185,272.364,0.142792,0.0162926,-0.00804081,0.0414929,-0.0322428,0.085736,-1.6081e-06,1.05154e-05,0.0632994,-0.008008569159302259,0.08951865740868525,-1.6080987069733155e-06,0.042365761028297255,1.0515455286963515e-05,-0.03172854277361903
81,0.069477,157.985,473.577,0.237664,273.102,0.11247,-0.00669704,-0.00815976,0.0420771,-0.0327056,0.086953,-1.49494e-06,1.0217e-05,0.0642283,-0.008126559522384835,0.09084540877920744,-1.494938882573571e-06,0.04297488901485069,1.0217052193617349e-05,-0.03217655512596862
82,0.070477,158.126,474.257,-0.021175,273.941,-0.0180023,-0.0108121,-0.00827853,0.0426593,-0.0331679,0.0881715,-3.21156e-06,1.01342e-05,0.065157,-0.008244357335348784,0.0921754140509572,-3.2115548429523244e-06,0.043582285791279984,1.0134251351212598e-05,-0.03262387649823184
83,0.071477,158.815,476.021,0.258017,274.503,0.116234,0.00800054,-0.00839692,0.0432443,-0.0336292,0.0893832,-1.02928e-06,1.04265e-05,0.0660834,-0.00836176433583935,0.09349960509929267,-1.029279470321498e-06,0.044192960033268,1.0426554356124385e-05,-0.03307002419212601
84,0.072477,158.709,476.25,-0.257837,275.408,-0.105636,-0.0366304,-0.00851557,0.0438242,-0.0340912,0.0906016,-4.27349e-06,9.71993e-06,0.0670111,-0.00847941523272333,0.09483273699717865,-4.273480868621782e-06,0.044798663137432415,9.719977238642485e-06,-0.03351664266413823
85,0.073477,159.046,477.334,-0.332895,276.098,-0.120783,-0.0538827,-0.00863367,0.0444057,-0.034552,0.0918149,-4.99939e-06,9.28513e-06,0.0679368,-0.008596506899385403,0.09616190373292222,-4.999377503089875e-06,0.04540639023957693,9.285173107054234e-06,-0.033961895601043346
86,0.074477,160.025,479.612,0.315363,276.54,0.123138,0.0178018,-0.00875157,0.0449902,-0.0350111,0.0930209,-1.42059e-06,1.02832e-05,0.0688601,-0.008713386481035257,0.09748467245804182,-1.4205889909968406e-06,0.04601760888591988,1.0283252872334003e-05,-0.03440530190306812
87,0.075477,160.395,480.755,0.28575,277.195,0.127208,0.00109421,-0.00886987,0.0455715,-0.0354714,0.0942306,-8.2249e-07,1.00955e-05,0.0697842,-0.008830648751214532,0.0988131030055317,-8.224896617115007e-07,0.046625835685957684,1.0095550959654531e-05,-0.034849662865080955
88,0.076477,160.408,481.162,-0.0898419,278.026,-0.0440852,-0.0170214,-0.00898805,0.04615,-0.0359315,0.0954433,-3.16034e-06,9.80689e-06,0.0707084,-0.008947778223828196,0.10014644196221778,-3.1603350061359947e-06,0.047231483898756865,9.806938087608685e-06,-0.035293626393555044
89,0.077477,160.679,482.111,-0.219667,278.702,-0.0769491,-0.0423862,-0.00910588,0.0467292,-0.0363909,0.0966523,-3.91074e-06,9.32076e-06,0.0716311,-0.009064547027550884,0.10147732336624848,-3.91073235306294e-06,0.04783821606690508,9.320803438406244e-06,-0.03573671071732798
90,0.078477,161.495,484.057,0.271569,279.175,0.10406,0.015963,-0.00922346,0.0473108,-0.0368486,0.0978552,-1.2058e-06,1.01404e-05,0.0725516,-0.009181054368510577,0.10280308765959845,-1.205799272985253e-06,0.04844781602785475,1.0140451414120122e-05,-0.03617795303882443
91,0.079477,161.819,485.099,0.209782,279.813,0.0971456,-0.00474237,-0.00934132,0.0478898,-0.0373073,0.0990608,-8.80669e-07,9.8756e-06,0.0734726,-0.009297825407990179,0.10413342883060417,-8.806686122575513e-07,0.04905504308860498,9.875648763868483e-06,-0.03661995683044583
92,0.080477,161.946,485.706,-0.0264165,280.562,-0.0186935,-0.0102619,-0.00945903,0.0484667,-0.0377655,0.100268,-2.41376e-06,9.77402e-06,0.0743933,-0.009414434097822388,0.10546714357413567,-2.4137570868720815e-06,0.049660417546435465,9.774067765810912e-06,-0.0370612764521796
93,0.081477,162.575,487.311,0.236432,281.059,0.107643,0.008003,-0.00957641,0.0490461,-0.0382227,0.101469,-3.80827e-07,1.00549e-05,0.075312,-0.009530702207639075,0.10679560719629189,-3.8082692743746094e-07,0.0502687670141837,1.0054950550619779e-05,-0.037501431409495245
94,0.082477,162.48,487.51,-0.227723,281.872,-0.0933436,-0.0325348,-0.00969401,0.0496208,-0.0386806,0.102675,-3.29655e-06,9.41639e-06,0.0762317,-0.009647174548351622,0.1081312079039185,-3.296544566433468e-06,0.050872529949248735,9.416434334275081e-06,-0.0379420586147553
95,0.083477,162.792,488.502,-0.285171,282.488,-0.102886,-0.0477404,-0.00981112,0.0501971,-0.0391373,0.103877,-3.85881e-06,9.03606e-06,0.0771495,-0.00976314797678357,0.10946398245285649,-3.858802554823626e-06,0.05147832233056682,9.036100825365878e-06,-0.03838133016129319
96,0.084477,163.644,490.502,0.267985,282.894,0.10663,0.0145687,-0.00992805,0.0507757,-0.0395925,0.105073,-7.93572e-07,9.89794e-06,0.0780652,-0.009878929602585962,0.11079169518982157,-7.935716851426022e-07,0.05208688372770154,9.897988984874928e-06,-0.038818959367839745
97,0.085477,163.962,491.504,0.224607,283.489,0.104721,-0.00276642,-0.0100453,0.0513516,-0.0400486,0.106272,-3.80626e-07,9.68202e-06,0.0789815,-0.009995014492480414,0.1121243331891848,-3.806259275540569e-07,0.05269295506553129,9.682066870908557e-06,-0.03925725407976488
98,0.086477,164.037,491.986,-0.0449194,284.214,-0.0253253,-0.0114711,-0.0101624,0.0519251,-0.0405045,0.107473,-2.1174e-06,9.53321e-06,0.0798975,-0.010110937288871136,0.11346079689915967,-2.1173977583499592e-06,0.053296847624900945,9.533255441285249e-06,-0.039695156870104165
99,0.087477,164.684,493.603,0.26093,284.658,0.118208,0.0114795,-0.0102792,0.0525015,-0.0409592,0.108666,1.67773e-07,9.88604e-06,0.0808114,-0.010226549579506639,0.11478994831103484,1.677730141480538e-07,0.053904142933566046,9.886088867094855e-06,-0.040131708224803386
100,0.088477,164.514,493.635,-0.262277,285.459,-0.107051,-0.0354091,-0.0103962,0.0530727,-0.0414147,0.109867,-3.10196e-06,9.15446e-06,0.0817265,-0.010342346298965688,0.11612961534798405,-3.101955188933303e-06,0.054506304941106754,9.154501902086665e-06,-0.040568828669967805
101,0.089477,164.817,494.587,-0.306333,286.036,-0.112296,-0.048506,-0.0105127,0.0536458,-0.0418689,0.111063,-3.64164e-06,8.79883e-06,0.0826396,-0.010457634699942098,0.11746530495110674,-3.641633369189101e-06,0.05511081571048382,8.798868709858354e-06,-0.04100450335877415
102,0.090477,165.671,496.574,0.268764,286.396,0.108983,0.0149342,-0.010629,0.0542214,-0.0423217,0.112252,-4.26053e-07,9.67527e-06,0.0835505,-0.01057271178516428,0.11879476140393153,-4.260529092858789e-07,0.0557183123167575,9.675316805513035e-06,-0.04143863822410232
103,0.091477,165.97,497.518,0.226561,286.959,0.106816,-0.00182755,-0.0107456,0.054794,-0.0427754,0.113444,-1.46042e-08,9.46891e-06,0.0844621,-0.010688072281322514,0.12012915990303052,-1.4604199960466246e-08,0.0563229897250106,9.46895483022736e-06,-0.041873438871954605
104,0.092477,166.022,497.934,-0.0466,287.653,-0.0256624,-0.0108712,-0.0108621,0.0553644,-0.0432288,0.114638,-1.78111e-06,9.3168e-06,0.0853735,-0.01080332040756804,0.12146739288605968,-1.7811084138674715e-06,0.05692568823162292,9.316843401441233e-06,-0.04230775498786632
105,0.093477,166.65,499.497,0.259235,288.064,0.118607,0.0120637,-0.0109783,0.0559376,-0.0436811,0.115825,5.0757e-07,9.6703e-06,0.0862826,-0.010918258383710855,0.1227993650505026,5.075701288159706e-07,0.05753169170011896,9.67034675758427e-06,-0.042740821244968474
106,0.094477,166.467,499.481,-0.258133,288.833,-0.105887,-0.034123,-0.0110946,0.0565057,-0.0441342,0.11702,-2.74048e-06,8.95241e-06,0.087193,-0.011033281901513647,0.12414191230395599,-2.740476244933454e-06,0.058132646139119615,8.952450073040907e-06,-0.04317445713123358
107,0.095477,166.76,500.393,-0.293963,289.376,-0.108109,-0.0463168,-0.0112105,0.0570756,-0.044586,0.118208,-3.217e-06,8.61876e-06,0.0881014,-0.01114789650209691,0.12547818648547504,-3.216994825416819e-06,0.05873584780014185,8.61879714153524e-06,-0.04360665327104185
108,0.096477,167.571,502.281,0.252732,289.715,0.10379,0.0140156,-0.0113262,0.0576479,-0.0450364,0.119391,-1.46108e-07,9.45106e-06,0.0890077,-0.011262300072097386,0.12681041503790613,-1.4610798937386704e-07,0.0593419357413596,9.451104661328813e-06,-0.04403731584191728
109,0.097477,167.85,503.167,0.206985,290.249,0.0998108,-0.00272982,-0.0114423,0.0582174,-0.0454877,0.120577,2.07298e-07,9.23983e-06,0.0899146,-0.011377085855615365,0.12814760498704048,2.0729802141516984e-07,0.05994540279469751,9.23987268741655e-06,-0.04446864446465337
110,0.098477,167.915,503.59,-0.0334545,290.902,-0.0198019,-0.00898525,-0.0115581,0.0587848,-0.0459387,0.121765,-1.37255e-06,9.12963e-06,0.0908212,-0.01149156176079047,0.1294886407592919,-1.3725490580762667e-06,0.06054698646939216,9.129671675101036e-06,-0.044899491942590575
111,0.099477,168.486,505.027,0.229568,291.3,0.107532,0.00970901,-0.0116737,0.0593546,-0.0463886,0.122946,6.52454e-07,9.41842e-06,0.0917258,-0.01160582673160837,0.13082335483755791,6.524542128794053e-07,0.061151458339963716,9.41846435353888e-06,-0.045329095014708165
112,0.1005,168.354,505.088,-0.215436,292.014,-0.089145,-0.0289251,-0.0117895,0.0599199,-0.0468392,0.124133,-2.17294e-06,8.81714e-06,0.0926313,-0.01172027615012361,0.1321664391225763,-2.172937639155492e-06,0.061751496844267395,8.817178871023401e-06,-0.04575917282068798
113,0.1015,168.632,505.956,-0.249913,292.529,-0.0906106,-0.0414391,-0.0119048,0.0604868,-0.0472886,0.125315,-2.56193e-06,8.50078e-06,0.093535,-0.011834218233396143,0.13350545105377343,-2.5619267182142025e-06,0.062353574410590085,8.50081613168463e-06,-0.04618791230344488
114,0.1025,169.358,507.665,0.222583,292.868,0.0920155,0.0120866,-0.0120199,0.0610557,-0.0477367,0.126492,8.99797e-08,9.23798e-06,0.0944368,-0.011947949569513616,0.13484037241677704,8.997970413204825e-08,0.06295811930556283,9.238022670166046e-06,-0.04661521975455729
115,0.1035,169.179,507.634,-0.300238,293.569,-0.110082,-0.0444109,-0.0121353,0.0616193,-0.0481864,0.127676,-2.88568e-06,8.34937e-06,0.0953402,-0.012061964197362718,0.1361848191731383,-2.8856758363948742e-06,0.06355737135496842,8.349404856167197e-06,-0.04704386050313758
116,0.1045,169.487,508.546,-0.282179,294.063,-0.100577,-0.0454228,-0.0122503,0.0621847,-0.0486345,0.128855,-3.17404e-06,8.16239e-06,0.0962415,-0.0121755705389901,0.13752517105711703,-3.1740349627495945e-06,0.06415887672227583,8.162423312363387e-06,-0.04747078448978337
117,0.1055,170.226,510.276,0.213984,294.38,0.0915758,0.0103098,-0.0123651,0.0627521,-0.0490814,0.130029,-4.07001e-07,8.92035e-06,0.0971409,-0.012288966274452529,0.13886140982662032,-4.07000917190814e-07,0.06476285180045394,8.920389786393201e-06,-0.04789637469098118
118,0.1065,170.038,510.216,-0.306846,295.072,-0.113469,-0.0445529,-0.0124802,0.0633142,-0.0495298,0.13121,-3.42983e-06,8.05165e-06,0.0980419,-0.012402645272082569,0.140207199684115,-3.4298241181618394e-06,0.06536152324029643,8.05168241457821e-06,-0.048323202254678344
119,0.1075,170.347,511.121,-0.281105,295.551,-0.100729,-0.0446418,-0.0125948,0.0638781,-0.0499767,0.132385,-3.67509e-06,7.88035e-06,0.0989408,-0.012515817444045063,0.14154773055139747,-3.6750832468346317e-06,0.0659624500186331,7.880381049929497e-06,-0.048748411595486596
120,0.1085,171.073,512.821,0.207725,295.858,0.0899082,0.00990087,-0.0127094,0.064444,-0.0504224,0.133556,-9.35839e-07,8.62159e-06,0.099838,-0.012628976647219736,0.14288526591799,-9.358385620883425e-07,0.06656584888470496,8.621627165972257e-06,-0.049172289960128124
121,0.1095,170.891,512.764,-0.298464,296.534,-0.11056,-0.0431032,-0.0128242,0.0650045,-0.0508696,0.134733,-3.88667e-06,7.78234e-06,0.100737,-0.012742320334648505,0.14423123382270342,-3.886662446883626e-06,0.06716382661060738,7.782370282427564e-06,-0.04959740504923915
122,0.1105,171.195,513.654,-0.270847,297.0,-0.096747,-0.0431875,-0.0129385,0.065567,-0.0513154,0.135906,-4.09965e-06,7.61773e-06,0.101633,-0.012855157438670939,0.14557420455832792,-4.099641596422288e-06,0.06776427512338801,7.617759014921788e-06,-0.050021000099716106
123,0.1115,171.897,515.301,0.199266,297.302,0.086945,0.00947334,-0.0130528,0.0661312,-0.0517599,0.137073,-1.46104e-06,8.3333e-06,0.102528,-0.012967981646149429,0.14691187003103812,-1.4610389327263107e-06,0.06836687770561589,8.333334722054886e-06,-0.05044317193053127
124,0.1125,171.731,515.267,-0.282711,297.958,-0.104351,-0.0409842,-0.0131673,0.0666904,-0.0522059,0.138248,-4.26962e-06,7.53497e-06,0.103424,-0.013080990342379528,0.14826028351610931,-4.2696108851769665e-06,0.06896447553640961,7.534998387903613e-06,-0.050866579848866
125,0.1135,172.028,516.137,-0.255556,298.413,-0.090512,-0.0413532,-0.0132813,0.0672513,-0.0526505,0.139417,-4.4549e-06,7.37482e-06,0.104319,-0.01319349269672454,0.1496033846772158,-4.454890076943663e-06,0.06956422589500222,7.374847194041578e-06,-0.051288470774162875
126,0.1145,172.701,517.721,0.189344,298.714,0.0832178,0.00897219,-0.0133953,0.0678139,-0.0530939,0.140581,-1.95747e-06,8.0586e-06,0.105211,-0.01330598222653201,0.15094230211575477,-1.9574680841794034e-06,0.07016613202881006,8.058632470664406e-06,-0.051709036219971916
127,0.1155,172.556,517.721,-0.262888,299.348,-0.0963424,-0.0384807,-0.0135095,0.0683717,-0.0535387,0.141753,-4.58508e-06,7.30854e-06,0.106105,-0.01341865624955263,0.1522919972606962,-4.585069488527438e-06,0.07076323721441002,7.308566707386888e-06,-0.05213074224628822
128,0.1165,172.846,518.57,-0.237755,299.792,-0.0831354,-0.0393323,-0.0136233,0.0689311,-0.0539821,0.142919,-4.74689e-06,7.15097e-06,0.106997,-0.01353092281838253,0.15363635333678394,-4.746878733530302e-06,0.07136238973664377,7.150995568139251e-06,-0.052550934311711095
129,0.1175,173.486,520.086,0.178967,300.094,0.0791895,0.00846475,-0.013737,0.0694921,-0.0544245,0.14408,-2.40962e-06,7.80045e-06,0.107888,-0.013643077976316476,0.1549765029493233,-2.4096170968546105e-06,0.07196359265893815,7.800480423592049e-06,-0.05296999307573813
130,0.1185,173.365,520.125,-0.241486,300.706,-0.0875831,-0.035842,-0.0138508,0.0700486,-0.054868,0.145248,-4.84069e-06,7.10096e-06,0.108779,-0.013755319007407008,0.15632630363491606,-4.840678283879463e-06,0.07256030641845657,7.100985211838662e-06,-0.053389907760844846
131,0.1195,173.646,520.952,-0.219298,301.142,-0.0754122,-0.0372788,-0.0139643,0.0706065,-0.0553103,0.146411,-4.98321e-06,6.94468e-06,0.109669,-0.01386725142641465,0.1576718934348451,-4.983197583796617e-06,0.07315885476294315,6.944704114442146e-06,-0.05380850082596178
132,0.1205,174.254,522.399,0.168842,301.445,0.0751934,0.00799457,-0.0140777,0.0711658,-0.0557515,0.14757,-2.80969e-06,7.56003e-06,0.110557,-0.013979072539725967,0.15901441299914199,-2.809686052818172e-06,0.07375924039260262,7.560058577160689e-06,-0.054225868437332014
133,0.1215,174.157,522.478,-0.220247,302.035,-0.0788139,-0.033243,-0.0141913,0.0717209,-0.0561938,0.148734,-5.04496e-06,6.90995e-06,0.111446,-0.014091078155046066,0.16036429125260443,-5.044947274157607e-06,0.07435544960950335,6.909973873758801e-06,-0.054644091838798814
134,0.1225,174.954,524.294,0.375461,302.247,0.159097,0.0319249,-0.0143045,0.0722804,-0.056634,0.149888,-1.45744e-06,7.87331e-06,0.112332,-0.014202676728400476,0.16170412457984984,-1.4574389379795605e-06,0.07495671967317485,7.873340994501987e-06,-0.055060145929347604
135,0.1235,175.09,524.843,0.236983,302.718,0.117495,0.00315703,-0.014418,0.0728363,-0.0570753,0.151048,-1.53145e-06,7.52835e-06,0.113219,-0.014314558375188247,0.1630524832612017,-1.5314488273077131e-06,0.07555445423857088,7.5283783380619695e-06,-0.055477055889000426
136,0.1245,175.096,525.084,-0.00445172,303.28,-0.0075672,-0.00198889,-0.0145313,0.0733904,-0.0575161,0.152208,-3.12767e-06,7.45458e-06,0.114106,-0.014426230209395485,0.1644024069461505,-3.127665108793032e-06,0.0761505841041914,7.45460778550644e-06,-0.05589330985365082
137,0.1255,175.56,526.263,0.200215,303.6,0.100857,0.00936531,-0.0146443,0.0739469,-0.057956,0.153362,-1.3884e-06,7.6464e-06,0.114991,-0.014537593753223055,0.1657469029487526,-1.3883990361840404e-06,0.07674962857290879,7.646429233787444e-06,-0.056308531052047694
138,0.1265,175.447,526.292,-0.163162,304.194,-0.0690208,-0.0198104,-0.0147575,0.0744994,-0.0583962,0.154522,-3.78105e-06,7.19845e-06,0.115876,-0.014649141783872555,0.16709995397404587,-3.7810428518136874e-06,0.07734469711524272,7.19847590890943e-06,-0.056723852617695414
139,0.1275,176.181,527.987,0.343102,304.398,0.156837,0.0246526,-0.0148702,0.0750562,-0.0588347,0.155671,-3.59877e-07,7.87263e-06,0.116759,-0.014760184568215151,0.16844172251957445,-3.598769352519682e-07,0.07794472967615929,7.872660989338698e-06,-0.057137388533946565
140,0.1285,176.305,528.499,0.210367,304.861,0.109728,5.06447e-05,-0.0149832,0.0756096,-0.0592741,0.156826,-5.37076e-07,7.56691e-06,0.117642,-0.014871510377332253,0.16979205237446116,-5.370758557887712e-07,0.07854142938114217,7.566938629244291e-06,-0.057551591358400045
141,0.1295,176.336,528.782,0.00834533,305.395,-0.000872257,-0.000856254,-0.015096,0.0761614,-0.0597129,0.157981,-1.9266e-06,7.55074e-06,0.118525,-0.014982626603888716,0.17114394276136413,-1.9265981441307645e-06,0.07913673277097488,7.550768506892069e-06,-0.05796504700130978
142,0.1305,176.752,529.857,0.171256,305.719,0.0891706,0.00683783,-0.0152085,0.0767151,-0.0601509,0.15913,-4.65352e-07,7.6854e-06,0.119406,-0.015093434825316443,0.17249036052047106,-4.6535189168750435e-07,0.07973441623330668,7.685429532777732e-06,-0.05837756796203786
143,0.1315,176.692,529.982,-0.125345,306.273,-0.0532839,-0.0155702,-0.0153212,0.0772655,-0.0605891,0.160284,-2.45259e-06,7.33989e-06,0.120287,-0.015204427540654653,0.17384419540899887,-2.452586992385264e-06,0.08032886563346953,7.339916937132429e-06,-0.05879009652014866
144,0.1325,177.33,531.48,0.28552,306.5,0.133464,0.0192573,-0.0154334,0.0778194,-0.0610259,0.161429,3.85388e-07,7.86966e-06,0.121166,-0.01531491540539942,0.17518901677605014,3.8538807434207456e-07,0.0809274255480088,7.869690965778275e-06,-0.05920112723034643
145,0.1335,177.004,531.082,-0.30334,307.158,-0.124226,-0.0354076,-0.0155459,0.0783674,-0.0614639,0.162584,-3.31211e-06,7.03444e-06,0.122047,-0.015425686246439696,0.17654714425806595,-3.3121045149853146e-06,0.08151993611027541,7.034464741817459e-06,-0.05961310690648414
146,0.1345,177.271,531.858,-0.276221,307.541,-0.104039,-0.0388696,-0.0156579,0.078918,-0.0619004,0.163731,-3.45162e-06,6.8498e-06,0.122925,-0.015535952394560515,0.17789741806652315,-3.4516140431373188e-06,0.08211558495417637,6.84982345999785e-06,-0.060023496211337624
147,0.1355,177.93,533.388,0.189048,307.762,0.085755,0.0109433,-0.0157698,0.0794704,-0.0623358,0.164874,-7.55271e-07,7.53684e-06,0.123802,-0.015646107758179983,0.17924452454006223,-7.55270714747347e-07,0.08271351073520128,7.536868402047148e-06,-0.06043267289685861
148,0.1365,177.745,533.261,-0.266252,308.34,-0.100485,-0.0358368,-0.0158819,0.0800177,-0.0627725,0.166023,-3.46677e-06,6.80412e-06,0.12468,-0.015756447644834193,0.18060025521687972,-3.4667639907670633e-06,0.08330624202574888,6.8041431480203585e-06,-0.060842892370663204
149,0.1375,178.018,534.042,-0.220458,308.714,-0.0779884,-0.0346404,-0.0159936,0.0805669,-0.0632078,0.167168,-3.47758e-06,6.69507e-06,0.125556,-0.015866381509711536,0.18195281670278352,-3.47757395324777e-06,0.08390135721754288,6.6950924120234845e-06,-0.06125161849391947
150,0.1385,178.583,535.38,0.150125,308.968,0.0698595,0.00754145,-0.0161053,0.0811173,-0.0636422,0.168308,-1.36713e-06,7.27052e-06,0.12643,-0.015976303095662114,0.18330101123870057,-1.3671290655103974e-06,0.0844981007333061,7.270546430238056e-06,-0.061659322231182756
151,0.1395,178.492,535.436,-0.197638,309.496,-0.0713514,-0.0285215,-0.0162171,0.0816638,-0.0640776,0.169454,-3.40406e-06,6.70351e-06,0.127306,-0.01608631079543099,0.18465785151856395,-3.4040542061797296e-06,0.08509094092418423,6.703532468677054e-06,-0.06206778683308667
152,0.1405,179.2,537.057,0.329806,309.679,0.144388,0.028272,-0.0163286,0.0822141,-0.0645111,0.170591,-1.68388e-07,7.54602e-06,0.128179,-0.016196011055874093,0.18600557353051328,-1.683879857772297e-07,0.08568823079821053,7.546048471196443e-06,-0.06247429233106183
153,0.1415,179.309,537.519,0.19356,310.103,0.101195,0.00130821,-0.0164403,0.0827612,-0.0649455,0.171732,-3.39756e-07,7.21363e-06,0.129052,-0.016305895824260563,0.1873595782026809,-3.397559422690932e-07,0.08628237334215316,7.213656018301151e-06,-0.06288146505415493
154,0.1425,179.347,537.794,0.0160798,310.59,0.00306766,0.00106348,-0.0165518,0.0833068,-0.0653794,0.172874,-1.55886e-06,7.21164e-06,0.129925,-0.016415571602337975,0.18871631739161443,-1.5588587849446611e-06,0.08687521071637816,7.211666003925643e-06,-0.06328799258394224
155,0.1435,179.714,538.756,0.148465,310.894,0.0801696,0.00596815,-0.0166631,0.0838541,-0.0658126,0.174011,-3.00855e-07,7.30664e-06,0.130796,-0.016525038457275154,0.1900686565035854,-3.0085495472675916e-07,0.0874702203287312,7.306666693462915e-06,-0.06369368834550848
156,0.1445,179.686,538.919,-0.0963243,311.394,-0.0405935,-0.0116136,-0.0167744,0.0843985,-0.0662458,0.175151,-1.96508e-06,7.03664e-06,0.131668,-0.016634493129229377,0.19142610837255258,-1.9650780692659353e-06,0.08806240029343915,7.036664757098521e-06,-0.06409920839773209
157,0.1455,180.231,540.22,0.236278,311.619,0.114297,0.0155215,-0.0168855,0.0849457,-0.0666778,0.176284,3.92165e-07,7.45349e-06,0.132537,-0.01674373896832393,0.1927767591525209,3.921650768567986e-07,0.08865795096668361,7.453517777422647e-06,-0.06450343022150395
158,0.1465,179.997,539.979,-0.233909,312.2,-0.0957676,-0.0270424,-0.0169967,0.085488,-0.0671108,0.177424,-2.59362e-06,6.80366e-06,0.133408,-0.016853070985577867,0.19413730001890217,-2.5936166365703173e-06,0.08924849028375603,6.8036831448736734e-06,-0.06490841255121615
159,0.1475,180.239,540.688,-0.214111,312.553,-0.0779901,-0.031947,-0.0171075,0.0860323,-0.0675424,0.178559,-2.65784e-06,6.62901e-06,0.134277,-0.016961997630665082,0.19549341530426623,-2.657836467911956e-06,0.08984152961803105,6.629031972016364e-06,-0.06531191099913036
160,0.1485,180.79,541.987,0.154225,312.782,0.0714892,0.00931581,-0.0172182,0.086578,-0.0679731,0.179689,-5.24892e-07,7.20049e-06,0.135144,-0.01707081391443488,0.19684508641390797,-5.248918621969523e-07,0.09043641844139638,7.200515923511119e-06,-0.06571439447802407
161,0.1495,180.684,541.997,-0.196429,313.288,-0.0714439,-0.0273044,-0.017329,0.0871196,-0.0684048,0.180825,-2.57942e-06,6.63001e-06,0.136012,-0.017179716434942205,0.19820547498648544,-2.579416673254009e-06,0.09102715876366352,6.630031978538398e-06,-0.06611763852743735
162,0.1505,181.373,543.57,0.323474,313.449,0.143251,0.0284034,-0.0174395,0.0876652,-0.0688345,0.181952,6.30329e-07,7.45983e-06,0.136878,-0.017288312076256362,0.1995566137804956,6.303291986142767e-07,0.09162258559915504,7.459857824576588e-06,-0.0665188415735144
163,0.1515,181.465,543.984,0.183912,313.852,0.0979611,0.00149055,-0.0175503,0.0882074,-0.0692653,0.183083,4.13316e-07,7.12716e-06,0.137744,-0.01739719049930233,0.20091407981302112,4.1331608535699615e-07,0.0922146238521333,7.127185398303482e-06,-0.0669208986472527
164,0.1525,181.504,544.249,0.0214645,314.311,0.00611329,0.00227512,-0.0176609,0.0887484,-0.0696954,0.184215,-7.16613e-07,7.14147e-06,0.138609,-0.017505860360478964,0.20227428428184901,-7.166127432567393e-07,0.09280567182769905,7.141495500295747e-06,-0.06732212967782625
165,0.1535,181.84,545.135,0.13446,314.6,0.0747513,0.00547112,-0.0177712,0.0892908,-0.0701249,0.185342,4.10629e-07,7.21227e-06,0.139473,-0.017614223487744884,0.20363001120886226,4.106290842909033e-07,0.0933985704036564,7.212296008418662e-06,-0.0677226288097843
166,0.1545,181.829,545.319,-0.0788188,315.066,-0.0328996,-0.00910694,-0.0178816,0.0898306,-0.0705544,0.186472,-1.05916e-06,6.98912e-06,0.140338,-0.01772267289095464,0.20499088186864323,-1.0591594390430004e-06,0.09398894628007382,6.989144423874549e-06,-0.06812295596430007
167,0.1555,182.317,546.497,0.206735,315.289,0.102678,0.0134042,-0.0179917,0.0903729,-0.0709828,0.187596,1.00737e-06,7.33865e-06,0.1412,-0.01783081567130007,0.20634605308341203,1.007370507455363e-06,0.0945823773799408,7.338676927926002e-06,-0.06852208659008063
168,0.1565,182.136,546.345,-0.193294,315.82,-0.0789496,-0.022035,-0.0181019,0.0909108,-0.0714119,0.188726,-1.55586e-06,6.79789e-06,0.142063,-0.01793904475188124,0.20770999460522144,-1.5558587896924436e-06,0.09517131162039738,6.7979131057605e-06,-0.06892169801996095
169,0.1575,182.856,547.979,0.350244,315.938,0.161996,0.0289224,-0.0182118,0.0914534,-0.0718391,0.189845,2.04352e-06,7.57283e-06,0.142923,-0.018046967320409224,0.20906217849497488,2.0435220879910787e-06,0.09576571282054491,7.57285867392099e-06,-0.06931936972184338
170,0.1585,182.923,548.334,0.19857,316.338,0.106784,0.00258001,-0.0183219,0.0919923,-0.0722673,0.19097,1.72874e-06,7.24957e-06,0.143784,-0.018155074397903426,0.21042313884243846,1.72874149417801e-06,0.09635638010418868,7.249596278180448e-06,-0.06971780185732046
171,0.1595,182.937,548.538,0.0197843,316.792,0.00577402,0.00267905,-0.0184318,0.0925299,-0.0726949,0.192095,4.82197e-07,7.25467e-06,0.144645,-0.01826297322607795,0.21178563113184867,4.821971162360938e-07,0.09694593975356702,7.254696315239784e-06,-0.07011550549014978
172,0.1605,183.273,549.417,0.141204,317.064,0.0783047,0.00665204,-0.0185415,0.0930691,-0.0731219,0.193215,1.66773e-06,7.3399e-06,0.145504,-0.01837066387097508,0.2131435913544888,1.66773139076426e-06,0.09753757249413497,7.3399269371332565e-06,-0.0705124814089152
173,0.1615,183.24,549.548,-0.0860582,317.522,-0.0361787,-0.00920628,-0.0186512,0.0936055,-0.0735488,0.194339,1.01672e-07,7.09853e-06,0.146363,-0.01847834270285653,0.2145079313666185,1.0167200525934561e-07,0.09812644957073324,7.098555194540168e-06,-0.07090919494607228
174,0.1625,183.734,550.732,0.213983,317.724,0.106452,0.0146268,-0.0187607,0.0941446,-0.0739747,0.195456,2.26601e-06,7.47025e-06,0.14722,-0.018585813440200383,0.2158652946722306,2.2660125673645837e-06,0.09871860914196762,7.4702779024882204e-06,-0.07130481046763937
175,0.1635,183.53,550.523,-0.202263,318.25,-0.0832631,-0.0222975,-0.0188702,0.0946792,-0.0744013,0.196579,-4.11214e-07,6.90765e-06,0.148078,-0.018693272410142625,0.2172314783667142,-4.1121391547438435e-07,0.09930614114372616,6.9076738578033314e-06,-0.0717009073420235
176,0.1645,184.258,552.168,0.357728,318.346,0.166264,0.0301007,-0.0189794,0.0952186,-0.0748259,0.197691,3.30476e-06,7.70683e-06,0.148933,-0.018800425254143716,0.21858579262983246,3.304765460621084e-06,0.09989926682787509,7.706859697753643e-06,-0.07209497946933308
177,0.1655,184.312,552.488,0.200186,318.736,0.108032,0.00335587,-0.0190889,0.0957542,-0.0752516,0.198809,2.9512e-06,7.37992e-06,0.149789,-0.018907860725378978,0.2199489333996978,2.951204354895154e-06,0.10048853066595731,7.379947231767048e-06,-0.07248990457080107
178,0.1665,184.318,552.668,0.0208986,319.177,0.00647925,0.00331557,-0.0191982,0.0962885,-0.0756766,0.199928,1.69973e-06,7.38425e-06,0.150645,-0.019015088236111533,0.22131482032738226,1.699731444482211e-06,0.10107667879767357,7.3842772636556475e-06,-0.07288401260746846
179,0.1675,184.642,553.517,0.138432,319.438,0.077405,0.00694882,-0.0193072,0.0968244,-0.0761011,0.201041,2.85878e-06,7.46609e-06,0.151499,-0.01912200976416467,0.222674900466602,2.858784086345878e-06,0.10166690392653899,7.46611787127982e-06,-0.07327748982266902
180,0.1685,184.608,553.638,-0.0823964,319.881,-0.0346276,-0.00832995,-0.0194163,0.0973577,-0.0765255,0.202158,1.33006e-06,7.23435e-06,0.152353,-0.019229017715509444,0.2240413913735151,1.3300608845412398e-06,0.10225457957618667,7.2343761678972385e-06,-0.07367070740931436
181,0.1695,185.084,554.779,0.205859,320.075,0.103445,0.0143464,-0.0195251,0.0978935,-0.0769488,0.203268,3.4227e-06,7.59045e-06,0.153205,-0.01933571979368376,0.2254008316677225,3.42270585740323e-06,0.10284532582671146,7.5904788074954155e-06,-0.07406273961939691
182,0.1705,184.89,554.583,-0.19103,320.581,-0.0788003,-0.0205998,-0.019634,0.0984249,-0.0773729,0.204385,8.57645e-07,7.05829e-06,0.154058,-0.019442508319057472,0.2267703691409777,8.576453678355023e-07,0.10343153357445956,7.058314909880181e-06,-0.0744553463533818
183,0.1715,185.583,556.153,0.338285,320.676,0.158803,0.0285964,-0.0197425,0.098961,-0.0777951,0.205491,4.39202e-06,7.81146e-06,0.154908,-0.019548893035429615,0.22812792776077995,4.39202964486185e-06,0.10402324181283062,7.811490509546104e-06,-0.07484602882727787
184,0.1725,185.633,556.456,0.184147,321.053,0.101309,0.00266074,-0.0198514,0.0994934,-0.0782182,0.206602,4.01922e-06,7.49121e-06,0.155759,-0.01965565834750127,0.22949313612134103,4.0192280770234845e-06,0.10461118028210459,7.491238059209593e-06,-0.07523737867658231
185,0.1735,185.653,556.657,0.0266045,321.472,0.00960337,0.00410915,-0.01996,0.100025,-0.0786407,0.207714,2.90154e-06,7.51702e-06,0.15661,-0.019762117962143,0.23086109293173296,2.9015442095658983e-06,0.1051985476939683,7.517048252969616e-06,-0.07562800835776051
186,0.1745,185.949,557.444,0.12281,321.731,0.0706436,0.00599085,-0.0200684,0.100557,-0.0790627,0.208821,3.91006e-06,7.57223e-06,0.157459,-0.01986836998959196,0.232224410618725,3.910067644330439e-06,0.10578666974793682,7.572258669430454e-06,-0.07601801104187944
187,0.1755,185.941,557.608,-0.0640516,322.147,-0.026431,-0.00614436,-0.0201768,0.101087,-0.0794845,0.20993,2.59857e-06,7.3886e-06,0.158308,-0.019974610499945422,0.23359170551498698,2.598573376255686e-06,0.1063728920180822,7.388627295767947e-06,-0.07640766446113867
188,0.1765,186.366,558.642,0.177686,322.349,0.0914994,0.0121209,-0.020285,0.10162,-0.0799055,0.211035,4.39334e-06,7.67925e-06,0.159155,-0.020080643510600016,0.23495557775021414,4.393349650744227e-06,0.1069627459516369,7.679279485417467e-06,-0.076796414996671
189,0.1775,186.227,558.546,-0.154021,322.817,-0.0629398,-0.0164191,-0.0203932,0.102148,-0.0803269,0.212144,2.23483e-06,7.24471e-06,0.160003,-0.02018666504910349,0.23632590319095126,2.234832497283179e-06,0.10754737661041114,7.244736242917327e-06,-0.07718537102859957
190,0.1785,186.829,559.93,0.285285,322.938,0.136504,0.0237895,-0.0205011,0.102681,-0.0807468,0.213244,5.20787e-06,7.86393e-06,0.160848,-0.020292381204455534,0.23768660993596646,5.207883561064719e-06,0.10813785671111242,7.863960920673208e-06,-0.07757277954919362
191,0.1795,186.461,559.376,-0.294738,323.503,-0.122291,-0.0311592,-0.0206093,0.103207,-0.081168,0.214354,1.53377e-06,7.03022e-06,0.161696,-0.020398379834179914,0.2390612048320262,1.5337711762875017e-06,0.10872089054819889,7.030244712158407e-06,-0.07796122408228601
192,0.1805,186.709,560.059,-0.227916,323.778,-0.0866893,-0.029595,-0.020717,0.103737,-0.0815876,0.215456,1.68133e-06,6.95204e-06,0.16254,-0.020503877247534108,0.240427402916636,1.6813314134278556e-06,0.1093086683675526,6.952064165455241e-06,-0.07834803039502147
193,0.1815,187.217,561.249,0.128978,323.944,0.0644288,0.00848991,-0.0208246,0.104267,-0.0820064,0.216555,3.79974e-06,7.48495e-06,0.163384,-0.02060926536036012,0.24179138200166395,3.799747219090932e-06,0.1098967577917187,7.484978012284316e-06,-0.07873393742531942
194,0.1825,187.117,561.227,-0.173384,324.377,-0.0645735,-0.0216149,-0.0209324,0.104794,-0.0824261,0.217659,1.95568e-06,7.01463e-06,0.164228,-0.02071483799108731,0.24316307672355997,1.955681912413354e-06,0.11048182753541158,7.014654602510717e-06,-0.07912051166350353
195,0.1835,187.706,562.58,0.271644,324.5,0.126521,0.0246246,-0.0210399,0.105324,-0.0828442,0.218755,4.78765e-06,7.71283e-06,0.16507,-0.02082010548777391,0.24452633038219052,4.787661460836645e-06,0.11107053889873586,7.712859743991274e-06,-0.07950545090042205
196,0.1845,187.369,562.081,-0.28339,325.038,-0.11339,-0.0315065,-0.0211475,0.105848,-0.0832636,0.21986,1.38315e-06,6.86396e-06,0.165914,-0.020925459576271788,0.24590229205608072,1.3831509566575306e-06,0.11165289242441734,6.863983557092723e-06,-0.07989142536981053
197,0.1855,187.612,562.75,-0.212601,325.307,-0.0790114,-0.0282805,-0.0212548,0.106375,-0.0836815,0.220958,1.54437e-06,6.81218e-06,0.166755,-0.02103050863847633,0.24727104408010514,1.5443711924856274e-06,0.11223888789496916,6.8122032028661295e-06,-0.08027585841026996
198,0.1865,188.091,563.878,0.118948,325.476,0.0606982,0.00779799,-0.021362,0.106903,-0.0840986,0.222052,3.50568e-06,7.31675e-06,0.167595,-0.021135448543070923,0.24863630526403013,3.5056861449334065e-06,0.1128263050922711,7.31677676757414e-06,-0.08065939535753619
199,0.1875,188.012,563.893,-0.156041,325.891,-0.0569817,-0.0194899,-0.0214693,0.107428,-0.0845165,0.223151,1.83112e-06,6.89033e-06,0.168436,-0.021240475074667975,0.2500093108919148,1.8311216765098948e-06,0.11341069229066147,6.890353738464583e-06,-0.08104350753038769
200,0.1885,188.559,565.159,0.248275,326.024,0.11699,0.0225872,-0.0215764,0.107955,-0.0849328,0.224243,4.41292e-06,7.52736e-06,0.169275,-0.021345294606601395,0.2513750666263217,4.412929736963278e-06,0.11399761436588163,7.527388330652585e-06,-0.0814259894990571
201,0.1895,188.268,564.747,-0.252108,326.532,-0.100039,-0.0279525,-0.0216836,0.108478,-0.0853504,0.225342,1.34361e-06,6.76338e-06,0.170115,-0.0214502007679489,0.2527510838074889,1.3436109025377618e-06,0.1145803875000857,6.763402871756696e-06,-0.08180950592203984
202,0.1905,188.5,565.389,-0.189998,326.797,-0.0689667,-0.0259365,-0.0217904,0.109003,-0.0857666,0.226436,1.4995e-06,6.70481e-06,0.170953,-0.02155470430591855,0.2541223434354265,1.499501124158087e-06,0.11516569583351699,6.704832477222311e-06,-0.08219157729110782
203,0.1915,188.945,566.445,0.110422,326.973,0.0568998,0.00759021,-0.0218972,0.109528,-0.0861821,0.227526,3.27305e-06,7.17536e-06,0.171789,-0.021659196683506465,0.2554900820719104,3.2730553565230025e-06,0.11575131153450036,7.1753857429079915e-06,-0.08257284747637716
204,0.1925,188.889,566.5,-0.136939,327.369,-0.0484234,-0.0172388,-0.022004,0.110051,-0.0865982,0.22862,1.78377e-06,6.78895e-06,0.172627,-0.021763677901904255,0.2568643398036128,1.7837715908797236e-06,0.11633500209220893,6.788973045068758e-06,-0.08295450950425065
205,0.1935,189.391,567.673,0.223981,327.512,0.106705,0.020579,-0.0221106,0.110576,-0.0870129,0.229708,4.09173e-06,7.36329e-06,0.173462,-0.021867952335913876,0.2582325523779918,4.091738371236886e-06,0.11692123184015135,7.363317109154721e-06,-0.08333472942510955
206,0.1945,189.149,567.355,-0.219424,327.99,-0.0858008,-0.0243521,-0.0222174,0.111097,-0.0874286,0.230802,1.38057e-06,6.68498e-06,0.174298,-0.021972411260398506,0.2596098120139514,1.3805709528913468e-06,0.11750329941737747,6.685002344575253e-06,-0.08371570798620731
207,0.1955,189.847,568.92,0.351804,328.039,0.163481,0.0333242,-0.0223238,0.111622,-0.0878423,0.231886,5.06137e-06,7.56855e-06,0.175131,-0.022076467859931115,0.2609759693736877,5.061382808646542e-06,0.11809014268244966,7.568578641592438e-06,-0.08409469639865508
208,0.1965,189.863,569.135,0.180282,328.385,0.100363,0.0047988,-0.0224304,0.112144,-0.0882571,0.232975,4.59895e-06,7.21852e-06,0.175966,-0.02218070895230828,0.262349920184769,4.598960575252775e-06,0.11867393809427607,7.2185460535667545e-06,-0.08447453513458891
209,0.1975,189.874,569.294,0.0326424,328.764,0.0133278,0.00628611,-0.0225369,0.112664,-0.0886712,0.234064,3.54987e-06,7.24915e-06,0.176799,-0.02228484116166629,0.2637253680432783,3.549876300690258e-06,0.11925579981302059,7.249176275259117e-06,-0.08485357574381502
210,0.1985,190.13,569.981,0.108276,328.996,0.0654006,0.00628904,-0.0226431,0.113186,-0.0890848,0.235149,4.41964e-06,7.28078e-06,0.177632,-0.022388668998179262,0.2650972541812502,4.419649766607137e-06,0.11984020385670835,7.280806505027826e-06,-0.0852320020409345
211,0.1995,190.132,570.143,-0.0472518,329.365,-0.0183085,-0.00304477,-0.0227494,0.113706,-0.0894983,0.236237,3.30533e-06,7.14178e-06,0.178464,-0.022492583559508006,0.2664744290410712,3.3053354626666476e-06,0.12042267219135594,7.1418055025418425e-06,-0.08561018041432344
212,0.2005,190.491,571.03,0.14665,329.551,0.0795492,0.0106833,-0.0228554,0.114227,-0.089911,0.237319,4.79803e-06,7.36926e-06,0.179295,-0.02259619385420797,0.26784549598674956,4.798041510545303e-06,0.1210065644943048,7.369287153169424e-06,-0.08598747123355088
213,0.2015,190.399,571.003,-0.114288,329.957,-0.0455212,-0.0108855,-0.0229615,0.114746,-0.090324,0.238406,3.0725e-06,7.04171e-06,0.180126,-0.02269989089681468,0.2692243933358245,3.0725047202029288e-06,0.1215885179051246,7.041734792823107e-06,-0.08636488046756008
214,0.2025,190.886,572.143,0.222271,330.084,0.111422,0.018988,-0.0230673,0.115267,-0.0907357,0.239485,5.41389e-06,7.51146e-06,0.180955,-0.02280328377877794,0.2705946255635807,5.413904655027224e-06,0.12217301777194711,7.511488210987238e-06,-0.08674094662774057
215,0.2035,190.635,571.796,-0.2111,330.558,-0.0868603,-0.0210114,-0.0231733,0.115784,-0.0911483,0.240571,2.62995e-06,6.90387e-06,0.181785,-0.022906861141000157,0.2719752408653606,2.6299534583440476e-06,0.12275333122023557,6.903893831733399e-06,-0.0871176795878078
216,0.2045,191.319,573.333,0.342453,330.592,0.163817,0.0314125,-0.0232789,0.116305,-0.091559,0.241647,6.32296e-06,7.71682e-06,0.182613,-0.023010036728696837,0.27334462281990346,6.322979990036615e-06,0.12333843811291167,7.716849774741519e-06,-0.08749252337736002
217,0.2055,191.328,573.522,0.172812,330.93,0.0982661,0.00452202,-0.0233847,0.116823,-0.0919707,0.242728,5.81779e-06,7.38475e-06,0.183441,-0.023113396798966734,0.27472185261576176,5.8178069233250085e-06,0.12392047815921159,7.384777267249731e-06,-0.08786812538250754
218,0.2065,191.34,573.679,0.0349006,331.293,0.0152211,0.00675467,-0.0234904,0.11734,-0.0923818,0.243809,4.82401e-06,7.42555e-06,0.184268,-0.023216648255989458,0.27610057200200777,4.824021635485565e-06,0.12450169527809907,7.425577569497577e-06,-0.08824302573011633
219,0.2075,191.579,574.326,0.100476,331.519,0.0620664,0.00615537,-0.0235959,0.117858,-0.0927923,0.244886,5.61436e-06,7.44836e-06,0.185095,-0.023319693463868196,0.27747567267684903,5.614375760520929e-06,0.12508433804770225,7.448387739028561e-06,-0.08861722515836679
220,0.2085,191.59,574.5,-0.0388372,331.87,-0.0142351,-0.00180303,-0.0237013,0.118374,-0.0932027,0.245965,4.6069e-06,7.33087e-06,0.185921,-0.0234226301433188,0.27885481283998104,4.606910611881787e-06,0.12566503137212814,7.3308968708829525e-06,-0.08899117990839844
221,0.2095,191.922,575.325,0.132546,332.055,0.0735238,0.00993252,-0.0238066,0.118891,-0.0936124,0.24704,5.94984e-06,7.52959e-06,0.186745,-0.023525458326365878,0.2802303209669381,5.9498577003047615e-06,0.1262471506582168,7.529618347490441e-06,-0.08936434377415226
222,0.2105,191.853,575.338,-0.0967973,332.436,-0.0377214,-0.00866207,-0.0239119,0.119406,-0.0940223,0.248118,4.42504e-06,7.24783e-06,0.187571,-0.023628275682175293,0.2816111533878951,4.425049790590663e-06,0.1268273173208987,7.247856265601982e-06,-0.0897375368384955
223,0.2115,192.293,576.378,0.19632,332.571,0.100405,0.0170019,-0.0240169,0.119923,-0.0944311,0.24919,6.48975e-06,7.65574e-06,0.188394,-0.0237307893311679,0.28298577721105467,6.4897710585487545e-06,0.12741003766418268,7.655769305170423e-06,-0.09010957608343306
224,0.2125,192.091,576.122,-0.177899,333.009,-0.0724488,-0.0171578,-0.0241221,0.120436,-0.0948406,0.250267,4.0755e-06,7.13696e-06,0.189218,-0.023833487450114488,0.2843682972465147,4.0755083048349405e-06,0.12798854738856158,7.136985468170209e-06,-0.09048209993256306
225,0.2135,192.695,577.492,0.295693,333.066,0.143918,0.0272954,-0.0242269,0.120953,-0.0952483,0.251336,7.26645e-06,7.83158e-06,0.190039,-0.023935784340179067,0.2857420210808408,7.26647640081346e-06,0.12857186824300948,7.831610666864108e-06,-0.09085283480098227
226,0.2145,192.286,576.817,-0.301201,333.596,-0.126647,-0.0295688,-0.024332,0.121464,-0.0956576,0.252414,3.44499e-06,6.9654e-06,0.190862,-0.024038363298626186,0.28712879831820093,3.4449959340765446e-06,0.12914871583969023,6.9654242584871184e-06,-0.0912248725929703
227,0.2155,192.53,577.468,-0.208247,333.815,-0.0799102,-0.0247782,-0.0244366,0.121978,-0.0960652,0.253484,3.7725e-06,6.95113e-06,0.191683,-0.02414044354693512,0.2885067632121503,3.772507115806789e-06,0.12972924746347791,6.951154159162698e-06,-0.09159521385422509
228,0.2165,192.967,578.496,0.0992844,333.951,0.0539275,0.00762162,-0.0245412,0.122493,-0.0964722,0.254552,5.63229e-06,7.41285e-06,0.192503,-0.024242513118208464,0.28988362354780683,5.632305861480447e-06,0.1303112078678632,7.41287747518804e-06,-0.0919648593742205
229,0.2175,192.905,578.517,-0.133226,334.313,-0.0482818,-0.0148653,-0.0246458,0.123005,-0.0968798,0.255624,4.18679e-06,7.06105e-06,0.193323,-0.024344572013562993,0.2912671202139723,4.18679876457162e-06,0.1308900753837301,7.061074929204381e-06,-0.0923348990783247
230,0.2185,193.372,579.608,0.206708,334.43,0.101981,0.0198358,-0.0247503,0.12352,-0.0972861,0.256689,6.40806e-06,7.59652e-06,0.194141,-0.024446522678772564,0.2926430522507584,6.408080531761229e-06,0.13147263376846108,7.596548853738838e-06,-0.0927036085004379
231,0.2195,193.146,579.298,-0.197658,334.866,-0.0781397,-0.0201257,-0.0248548,0.124029,-0.0976933,0.257761,3.88448e-06,6.99092e-06,0.194961,-0.024548462690694217,0.2940295086106055,3.8844875445143145e-06,0.13204869993545132,6.99094443645798e-06,-0.0930729843810233
232,0.2205,193.772,580.709,0.311231,334.906,0.1493,0.0301729,-0.0249591,0.124544,-0.0980987,0.258823,7.22943e-06,7.77328e-06,0.195778,-0.024650196980500194,0.29540449793885215,7.229456132407108e-06,0.13263185516550102,7.77331021195593e-06,-0.09344057807687856
233,0.2215,193.333,579.967,-0.318611,335.439,-0.132906,-0.0316629,-0.0250635,0.125052,-0.0985057,0.259895,3.24312e-06,6.83202e-06,0.196596,-0.024752018184776015,0.2967939161557487,3.2431252590114923e-06,0.1332073783184291,6.832043338400595e-06,-0.09380947268645601
234,0.2225,193.583,580.624,-0.212839,335.646,-0.0820178,-0.0247464,-0.0251675,0.125563,-0.098911,0.260959,3.61947e-06,6.8466e-06,0.197412,-0.0248534387009266,0.29817443919055253,3.619476550253964e-06,0.13378659526607617,6.84662343797271e-06,-0.09417667728813695
235,0.2235,194.016,581.641,0.0947934,335.773,0.0528281,0.00732889,-0.0252715,0.126075,-0.0993156,0.262021,5.48756e-06,7.3048e-06,0.198228,-0.02495484866989195,0.2995538327733205,5.4875750565841486e-06,0.1343672426358946,7.3048266802100414e-06,-0.09454309927234017
236,0.2245,193.955,581.66,-0.130767,336.126,-0.0474713,-0.0141129,-0.0253755,0.126584,-0.0997209,0.263086,4.06979e-06,6.9681e-06,0.199043,-0.02505624809276885,0.3009385948601493,4.069798281713943e-06,0.13494478253383102,6.968124277362264e-06,-0.09491000659541349
237,0.2255,194.41,582.724,0.200375,336.238,0.10006,0.0194267,-0.0254794,0.127095,-0.100125,0.264146,6.24813e-06,7.48824e-06,0.199857,-0.025157539486412972,0.30231832089631183,6.248149519549884e-06,0.13552488752190728,7.488268036981438e-06,-0.09527567957254712
238,0.2265,194.192,582.425,-0.189934,336.662,-0.0750869,-0.0188331,-0.0255834,0.127603,-0.10053,0.265211,3.79848e-06,6.90759e-06,0.200672,-0.025258917830541128,0.303706028731324,3.7984872143237425e-06,0.13610188070862939,6.907613857354278e-06,-0.09564201873363276
239,0.2275,194.795,583.788,0.298372,336.702,0.144602,0.0291235,-0.025687,0.128114,-0.100933,0.266267,7.02739e-06,7.65727e-06,0.201484,-0.025359895775906027,0.3050834694583655,7.0274146921622815e-06,0.13668257712496978,7.65729931706538e-06,-0.09600640157200957
240,0.2285,194.379,583.085,-0.30174,337.216,-0.125981,-0.0294448,-0.0257908,0.128619,-0.101338,0.267333,3.21229e-06,6.76419e-06,0.202298,-0.02546105816830546,0.3064754302200805,3.2122951594271143e-06,0.13725674679205668,6.7642128771527865e-06,-0.09637244485060559
241,0.2295,194.622,583.724,-0.199383,337.417,-0.0761183,-0.0230771,-0.0258943,0.129128,-0.101741,0.268391,3.59746e-06,6.77823e-06,0.203109,-0.02556191772921268,0.30785841269397696,3.597466470939281e-06,0.13783575782198,6.778252972239329e-06,-0.09673653338656318
242,0.2305,195.033,584.693,0.0885561,337.546,0.0501891,0.00726007,-0.0259977,0.129637,-0.102143,0.269447,5.34885e-06,7.21394e-06,0.20392,-0.025662669417967465,0.3092402406545345,5.3488643050325635e-06,0.13841506364353573,7.213966020547247e-06,-0.09709957232442623
243,0.2315,194.984,584.733,-0.118761,337.884,-0.0420293,-0.0125105,-0.0261012,0.130143,-0.102546,0.270506,4.05111e-06,6.90431e-06,0.204731,-0.02576350811319017,0.31062746047263623,4.0511182057834105e-06,0.1389912474279431,6.904333834878429e-06,-0.09746336788705001
244,0.2325,195.41,585.734,0.184557,338.0,0.0934479,0.0182618,-0.0262044,0.130651,-0.102948,0.27156,6.05437e-06,7.38437e-06,0.20554,-0.025864044131405195,0.3120095900703199,6.054388327791926e-06,0.13957000197284453,7.384397264553755e-06,-0.09782611469616564
245,0.2335,195.222,585.49,-0.169648,338.402,-0.0660761,-0.0164301,-0.0263078,0.131155,-0.10335,0.272619,3.83157e-06,6.85821e-06,0.206351,-0.025964764581904887,0.31339974418288774,3.831577340518422e-06,0.14014449001266427,6.858233517537116e-06,-0.0981887157103708
246,0.2345,195.776,586.751,0.270382,338.455,0.132734,0.0267055,-0.0264109,0.131664,-0.103751,0.273669,6.75669e-06,7.53646e-06,0.207158,-0.02606518243804712,0.3147795381793592,6.756712826572198e-06,0.14072497127803008,7.5364883991291265e-06,-0.09855026953898349
247,0.2355,195.414,586.154,-0.26642,338.936,-0.110446,-0.0255225,-0.0265141,0.132166,-0.104154,0.274728,3.33861e-06,6.7396e-06,0.207967,-0.02616568732507818,0.316172627220745,3.3386155731118805e-06,0.14129775897129382,6.739622711249282e-06,-0.09891348058841709
248,0.2365,195.642,586.76,-0.176054,339.135,-0.0654226,-0.0206707,-0.026617,0.132672,-0.104554,0.275781,3.699e-06,6.74244e-06,0.208775,-0.02626588972035071,0.3175592869454251,3.6990068412734445e-06,0.14187540176863633,6.7424627303580564e-06,-0.09927384311887077
249,0.2375,196.02,587.658,0.0815602,339.27,0.0469189,0.00726749,-0.0267198,0.133178,-0.104954,0.276831,5.26343e-06,7.14624e-06,0.209581,-0.026365984441930612,0.3189434507555482,5.26344385187727e-06,0.14245333692719542,7.1462655344411985e-06,-0.09963406153313747
250,0.2385,195.991,587.733,-0.10193,339.591,-0.034183,-0.0104929,-0.0268227,0.133681,-0.105355,0.277884,4.13122e-06,6.87008e-06,0.210387,-0.02646616622769027,0.3203330296941067,4.13122853348824e-06,0.14302813550539306,6.870103599121435e-06,-0.09999503589426617
251,0.2395,196.378,588.652,0.164319,339.717,0.0845815,0.0167472,-0.0269254,0.134186,-0.105755,0.278932,5.89397e-06,7.298e-06,0.211192,-0.02656614301852267,0.32171746402610535,5.893987369498532e-06,0.14360551048873615,7.298026630575549e-06,-0.10035496588911041
252,0.2405,196.229,588.484,-0.143696,340.092,-0.0542879,-0.0135465,-0.0270282,0.134688,-0.106155,0.279985,3.96971e-06,6.83979e-06,0.211998,-0.02666620687564991,0.3231099655391032,3.969717879304113e-06,0.14417974457569827,6.839813391446015e-06,-0.1007147519407473
253,0.2415,196.723,589.619,0.23599,340.165,0.117699,0.0237246,-0.0271307,0.135193,-0.106554,0.28103,6.50678e-06,7.42986e-06,0.212801,-0.026765968476575752,0.3244933381393855,6.506801169203769e-06,0.14475770126849108,7.429887601384522e-06,-0.1010734951806872
254,0.2425,196.43,589.156,-0.2237,340.606,-0.091294,-0.0209531,-0.0272333,0.135693,-0.106954,0.282082,3.58188e-06,6.74867e-06,0.213605,-0.026865817165884764,0.32588743829922073,3.5818864150272134e-06,0.14533022323769007,6.74869277239587e-06,-0.10143299387808213
255,0.2435,197.092,590.635,0.33581,340.595,0.163893,0.0332675,-0.0273357,0.136199,-0.107352,0.283124,7.31199e-06,7.60415e-06,0.214407,-0.026965461004355373,0.3272697330604286,7.312016732763382e-06,0.14590990697826633,7.604178911657655e-06,-0.10179055238765544
256,0.2445,197.067,590.729,0.155072,340.899,0.0920452,0.00590679,-0.0274382,0.1367,-0.10775,0.284171,6.68671e-06,7.26266e-06,0.21521,-0.027065191933305033,0.3286601122074142,6.686732356042668e-06,0.14648415167794848,7.262686373188387e-06,-0.10214796861725739
257,0.2455,197.082,590.868,0.0429989,341.209,0.0212351,0.00922182,-0.0275405,0.137201,-0.108149,0.285218,5.86091e-06,7.32184e-06,0.216011,-0.027164718073321326,0.33005194784370584,5.860927175138642e-06,0.14705868414630507,7.3218668046326485e-06,-0.102506140117813
258,0.2465,197.266,591.382,0.0769031,341.41,0.0525087,0.00623501,-0.0276427,0.137702,-0.108547,0.286262,6.4153e-06,7.31201e-06,0.216812,-0.027264136758752944,0.3314412471653132,6.415320578101458e-06,0.14763350452754453,7.312036732765037e-06,-0.10286327160016684
259,0.2475,197.301,591.578,-0.0149458,341.699,-0.00184669,0.00225961,-0.0277449,0.138202,-0.108944,0.287307,5.7234e-06,7.25789e-06,0.217613,-0.027363545284114,0.3328333305054636,5.72341637861129e-06,0.14820746475790836,7.2579163385988466e-06,-0.10321936419228506
260,0.2485,197.547,592.211,0.091343,341.874,0.0564537,0.00824468,-0.0278469,0.138703,-0.109341,0.288349,6.63164e-06,7.37493e-06,0.218412,-0.027462749143012166,0.33422286665846035,6.6316619893314055e-06,0.14878286082243086,7.374957194938858e-06,-0.10357531544370224
261,0.2495,197.54,592.325,-0.04854,342.177,-0.0150768,-0.00202092,-0.0279489,0.139202,-0.109738,0.289392,5.68125e-06,7.22252e-06,0.219212,-0.027561942883632784,0.3356151870772641,5.681266138424235e-06,0.14935624651781443,7.22254608254147e-06,-0.10393112541051952
262,0.2505,197.844,593.071,0.123852,342.325,0.0699475,0.0120897,-0.0280507,0.139703,-0.110135,0.290432,6.96883e-06,7.46186e-06,0.22001,-0.027660932039213715,0.3370049494229803,6.968854282307646e-06,0.1499322182661953,7.461887839843584e-06,-0.10428679414881559
263,0.2515,197.771,593.05,-0.0889864,342.656,-0.0323889,-0.00634921,-0.0281525,0.140201,-0.110531,0.291474,5.57548e-06,7.18381e-06,0.220808,-0.027759911118211522,0.3383988346683726,5.575495543030939e-06,0.15050502712846026,7.183835803559191e-06,-0.10464142635652118
264,0.2525,198.152,593.955,0.170591,342.765,0.0906417,0.0170475,-0.0282542,0.140701,-0.110927,0.292511,7.40668e-06,7.5666e-06,0.221605,-0.027858782907535184,0.33978747414505084,7.406707429602477e-06,0.15108042347912476,7.566628626776151e-06,-0.10499591815767484
265,0.2535,197.984,593.738,-0.14484,343.138,-0.0573687,-0.011925,-0.0283559,0.141197,-0.111323,0.293553,5.35921e-06,7.12511e-06,0.222402,-0.027957644642109036,0.34118426029231097,5.3592243605127265e-06,0.15165150098468394,7.1251353837009646e-06,-0.10535026960786664
266,0.2545,198.478,594.872,0.236859,343.193,0.120815,0.0236836,-0.0284574,0.141697,-0.111717,0.294588,7.97938e-06,7.69832e-06,0.223197,-0.028056301934235583,0.3425731046046647,7.979411835279393e-06,0.15222747071560971,7.698349632212498e-06,-0.1057026921698373
267,0.2555,198.174,594.375,-0.223835,343.629,-0.0933876,-0.0195781,-0.0285589,0.142192,-0.112113,0.295629,4.98484e-06,7.03363e-06,0.223993,-0.0281549492131552,0.34397145091953507,4.984852424394504e-06,0.1527979644991766,7.033654735977279e-06,-0.10605676379292972
268,0.2565,198.829,595.838,0.331228,343.604,0.164343,0.0328603,-0.0286602,0.142692,-0.112507,0.29666,8.74257e-06,7.87048e-06,0.224787,-0.028253392130581978,0.34535780002559435,8.742608216483205e-06,0.15337450760519133,7.870510972285416e-06,-0.10640890805102099
269,0.2575,198.795,595.906,0.149444,343.898,0.0902063,0.00617905,-0.0287617,0.143188,-0.112902,0.297697,8.0766e-06,7.53554e-06,0.225581,-0.02835201940586174,0.3467536596923695,8.076632615816592e-06,0.1539467232587144,7.535568392169623e-06,-0.1067618068302435
270,0.2585,198.811,596.04,0.0446774,344.194,0.0228151,0.00982751,-0.028863,0.143684,-0.113296,0.298733,7.2969e-06,7.59977e-06,0.226375,-0.028450442361089068,0.3481496194661171,7.296926622490929e-06,0.15451922280160035,7.599798878432651e-06,-0.10711367335609501
271,0.2595,198.98,596.518,0.0706824,344.389,0.0497868,0.00639142,-0.0289641,0.14418,-0.11369,0.299766,7.7861e-06,7.58366e-06,0.227168,-0.028548661056327695,0.3495429775685823,7.786130311826511e-06,0.15509200637469323,7.583688756085394e-06,-0.10746540127384274
272,0.2605,199.021,596.72,-0.00923332,344.661,0.00123281,0.00333338,-0.0290652,0.144675,-0.114083,0.3008,7.17632e-06,7.54448e-06,0.22796,-0.02864686982215814,0.3509391266920934,7.176345749870805e-06,0.15566391845441085,7.544508459744748e-06,-0.10781609845463247
273,0.2615,199.245,597.302,0.0812161,344.833,0.0520246,0.00801698,-0.0291662,0.145171,-0.114476,0.301831,7.97389e-06,7.64303e-06,0.228751,-0.028744971534086283,0.35233266317633083,7.97392179152645e-06,0.15623726993737752,7.64305920797348e-06,-0.10816665783850887
274,0.2625,199.253,597.439,-0.037448,345.116,-0.0097241,-0.000368119,-0.0292671,0.145665,-0.114869,0.302864,7.16327e-06,7.52036e-06,0.229542,-0.028842966222543343,0.3537303445955575,7.163295656198443e-06,0.15680859225372012,7.52038827789292e-06,-0.10851707947961564
275,0.2635,199.523,598.114,0.107136,345.265,0.062652,0.0111784,-0.0293679,0.14616,-0.115262,0.303893,8.26622e-06,7.72221e-06,0.230332,-0.028940853917925335,0.35512405005863124,8.266254165389952e-06,0.15738135425378563,7.722239816265741e-06,-0.10886736343207504
276,0.2645,199.479,598.143,-0.0695769,345.57,-0.0234123,-0.0038508,-0.0294687,0.146653,-0.115654,0.304925,7.10617e-06,7.4971e-06,0.231123,-0.029038731746725,0.356523259946411,7.106195248907099e-06,0.15795208393473947,7.497128103217676e-06,-0.10921661896705248
277,0.2655,199.81,598.941,0.143487,345.689,0.078756,0.0150871,-0.0295693,0.147147,-0.116046,0.305951,8.63452e-06,7.81359e-06,0.231911,-0.029136405537237176,0.35791576704510275,8.634557277620303e-06,0.15852425357846944,7.813620526153642e-06,-0.10956573762069077
278,0.2665,199.692,598.819,-0.112512,346.026,-0.0426727,-0.00813847,-0.0296699,0.147639,-0.116438,0.306982,6.96869e-06,7.46067e-06,0.2327,-0.029234069502260374,0.3593165001547671,6.968714281407884e-06,0.159094387752736,7.460697830863339e-06,-0.10991471944663667
279,0.2675,200.109,599.792,0.193622,346.103,0.10171,0.0201283,-0.0297704,0.148134,-0.116828,0.308006,9.09991e-06,7.92353e-06,0.233487,-0.029331626575950343,0.36070915316757635,9.09995140441211e-06,0.15966828150165835,7.92356139123207e-06,-0.11026178502386597
280,0.2685,199.888,599.458,-0.171598,346.487,-0.0697943,-0.0138273,-0.0298709,0.148624,-0.11722,0.309037,6.71868e-06,7.40193e-06,0.234275,-0.029429173845647028,0.3621127677434739,6.7187025702963865e-06,0.16023665820051303,7.401957394348457e-06,-0.11061049405270162
281,0.2695,200.425,600.675,0.263171,346.504,0.134031,0.0268861,-0.0299711,0.149118,-0.11761,0.310058,9.69853e-06,8.06119e-06,0.235061,-0.02952642017030549,0.3635041950821227,9.698577030814448e-06,0.16080995670273546,8.061222491528852e-06,-0.11095728833074114
282,0.2705,200.061,600.047,-0.253419,346.955,-0.107744,-0.0215959,-0.0300715,0.149607,-0.118001,0.311088,6.31398e-06,7.31011e-06,0.235848,-0.029623850826619558,0.3649093279222446,6.313999933116321e-06,0.16137773158120683,7.310136718841065e-06,-0.11130483608099084
283,0.2715,200.765,601.607,0.359825,346.89,0.179281,0.0361069,-0.0301716,0.150102,-0.11839,0.312106,1.04813e-05,8.23831e-06,0.236632,-0.029720980617724657,0.36629951310226927,1.0481354929092745e-05,0.1619527558651086,8.23834393504086e-06,-0.11165047126935279
284,0.2725,200.707,601.619,0.159974,347.182,0.0959864,0.00787181,-0.0302719,0.150592,-0.11878,0.313131,9.7098e-06,7.8837e-06,0.237417,-0.029818294722984806,0.36770068808270073,9.709847140326744e-06,0.1625222522306975,7.88373107640794e-06,-0.11199686003535791
285,0.2735,200.707,601.713,0.0457449,347.472,0.0236543,0.0107221,-0.030372,0.151081,-0.11917,0.314155,8.86798e-06,7.93711e-06,0.238202,-0.029915405051230026,0.36910193090117804,8.868019320651399e-06,0.1630908646264384,7.937141498937095e-06,-0.11234311373608363
286,0.2745,200.87,602.171,0.0717625,347.655,0.0506939,0.00725512,-0.0304719,0.151572,-0.119559,0.315176,9.35801e-06,7.92329e-06,0.238985,-0.030012311661699598,0.3705004978195463,9.358053786323595e-06,0.16366208246347314,7.923321389435856e-06,-0.11268834511298409
287,0.2755,200.902,602.349,-0.0104382,347.917,0.000901271,0.00391681,-0.0305718,0.152061,-0.119948,0.316198,8.73078e-06,7.88026e-06,0.239768,-0.030109208591682313,0.3719018653051276,8.730818113367178e-06,0.16423125237249891,7.880291049255916e-06,-0.11303344222099598
288,0.2765,201.119,602.912,0.0801072,348.077,0.0519345,0.00864126,-0.0306716,0.152551,-0.120337,0.317217,9.52879e-06,7.98204e-06,0.240551,-0.030205998862749994,0.3733005458125642,9.528835398953106e-06,0.16480186547495435,7.98207185659372e-06,-0.11337840511233965
289,0.2775,201.122,603.031,-0.037219,348.348,-0.00949335,0.000356447,-0.0307713,0.153039,-0.120725,0.318237,8.72251e-06,7.8609e-06,0.241333,-0.030302682504903755,0.3747020270031918,8.722548041184552e-06,0.16537042750315778,7.860930896885776e-06,-0.11372234756200594
290,0.2785,201.383,603.68,0.103487,348.488,0.0615019,0.0115276,-0.030871,0.153528,-0.121113,0.319254,9.80203e-06,8.05997e-06,0.242113,-0.03039935650817882,0.3761008101253094,9.802078040133111e-06,0.16594043299719186,8.060002481657946e-06,-0.11406615658788766
291,0.2795,201.338,603.703,-0.0661043,348.779,-0.0218322,-0.00279184,-0.0309706,0.154015,-0.121501,0.320274,8.6812e-06,7.84524e-06,0.242894,-0.030495923923133605,0.377505149042729,8.681237681829046e-06,0.166508384272972,7.845270773909618e-06,-0.11440983224174317
292,0.2805,201.653,604.462,0.135515,348.891,0.0757657,0.0149815,-0.03107,0.154504,-0.121888,0.321288,1.01399e-05,8.14734e-06,0.243674,-0.030592287838929644,0.3789026476759234,1.0139951408971726e-05,0.16707894636394327,8.147373189659746e-06,-0.11475248932824278
293,0.2815,201.544,604.352,-0.103434,349.211,-0.0386914,-0.00650994,-0.0311695,0.15499,-0.122275,0.322307,8.57461e-06,7.81995e-06,0.244454,-0.03068873910775949,0.38030846561650034,8.57464676218278e-06,0.16764628458389663,7.819980575973773e-06,-0.1150950138321063
294,0.2825,201.932,605.262,0.178425,349.286,0.0955718,0.0192866,-0.0312687,0.155479,-0.122661,0.32332,1.0556e-05,8.24895e-06,0.245232,-0.03078489001567608,0.3817074265462499,1.0556055714872059e-05,0.1682174032441901,8.248984022740657e-06,-0.11543652124159676
295,0.2835,201.736,604.97,-0.153324,349.646,-0.0617926,-0.0112789,-0.031368,0.155963,-0.123048,0.324337,8.37876e-06,7.77766e-06,0.246011,-0.030881128297787774,0.38311333778373524,8.378795101959824e-06,0.1687829573204065,7.777690246069113e-06,-0.11577878107632666
296,0.2845,202.225,606.086,0.236277,349.672,0.122709,0.0248804,-0.0314672,0.156452,-0.123434,0.325347,1.10762e-05,8.37171e-06,0.246787,-0.03097726012164337,0.3845109879494184,1.1076261341225191e-05,0.16935463194959133,8.371745042756729e-06,-0.11612002460259363
297,0.2855,201.91,605.55,-0.220499,350.087,-0.0932512,-0.0175971,-0.0315663,0.156935,-0.12382,0.326365,8.06364e-06,7.71047e-06,0.247565,-0.03107328551702837,0.38592113777963366,8.063672511271491e-06,0.16991956665757213,7.710499725810394e-06,-0.11646113643427813
298,0.2865,202.535,606.946,0.314461,350.045,0.159669,0.0322931,-0.0316653,0.157424,-0.124205,0.327372,1.17359e-05,8.524e-06,0.24834,-0.031169204513693427,0.3873174632972807,1.1735968865833613e-05,0.1704917972246387,8.524036329449203e-06,-0.11680123342387949
299,0.2875,202.061,606.08,-0.311,350.537,-0.135862,-0.0260654,-0.0317643,0.157905,-0.124591,0.328389,7.58959e-06,7.60866e-06,0.249117,-0.031265114014847994,0.38872908284432506,7.589618800984965e-06,0.17105493920389225,7.608688946003639e-06,-0.11714208235970114
300,0.2885,202.307,606.702,-0.177077,350.673,-0.0690857,-0.016814,-0.031863,0.15839,-0.124976,0.329399,8.23125e-06,7.69141e-06,0.249892,-0.03136072342969243,0.390132407777795,8.231283876725115e-06,0.1716230386023745,7.69143957901619e-06,-0.11748191723558143
301,0.2895,202.641,607.496,0.0561716,350.772,0.037629,0.0070389,-0.0319617,0.158876,-0.12536,0.330406,9.69355e-06,8.05017e-06,0.250666,-0.03145632340835336,0.39153297618026395,9.693596982662811e-06,0.17219258578789076,8.05020240268739e-06,-0.11782073912139746
302,0.2905,202.631,607.584,-0.0795735,351.035,-0.0252121,-0.00529175,-0.0320604,0.159359,-0.125745,0.331417,8.82187e-06,7.85694e-06,0.25144,-0.031551913951762045,0.3929405274164417,8.82190891271506e-06,0.17275889155866064,7.856970865915969e-06,-0.11816031276471495
303,0.2915,202.937,608.322,0.122971,351.144,0.0689284,0.0147385,-0.032159,0.159844,-0.126128,0.332423,1.02158e-05,8.18794e-06,0.252213,-0.03164739822559437,0.39434253067642255,1.0215852181527652e-05,0.17332781757447324,8.18797352120093e-06,-0.11849799269509154
304,0.2925,202.846,608.243,-0.0962342,351.445,-0.0339449,-0.00598572,-0.0322576,0.160326,-0.126512,0.333433,8.81091e-06,7.87275e-06,0.252986,-0.031742873085141454,0.395751528056306,8.810948816107e-06,0.1738934979005511,7.872780990236805e-06,-0.11883642448283471
305,0.2935,203.207,609.092,0.163301,351.525,0.0881954,0.0186373,-0.0323561,0.16081,-0.126895,0.334437,1.06154e-05,8.28352e-06,0.253758,-0.031838241715160365,0.3971535662958976,1.0615456343510132e-05,0.1744617998715179,8.283554308485819e-06,-0.11917384551200605
306,0.2945,203.039,608.854,-0.135911,351.862,-0.05306,-0.00945802,-0.0324545,0.161291,-0.127279,0.335446,8.66814e-06,7.85088e-06,0.25453,-0.03193350414518714,0.39856400569130357,8.668177568393887e-06,0.17502685188137024,7.850910818341106e-06,-0.11951201782209042
307,0.2955,203.482,609.875,0.211618,351.9,0.111399,0.0231445,-0.0325528,0.161775,-0.127661,0.336447,1.10762e-05,8.39131e-06,0.2553,-0.032028660404722964,0.39996466917611917,1.1076261341225191e-05,0.1755957025284327,8.391345207137135e-06,-0.11984829999729762
308,0.2965,203.215,609.431,-0.190936,352.284,-0.0793321,-0.0144481,-0.0326511,0.162254,-0.128045,0.337456,8.42507e-06,7.8055e-06,0.256072,-0.032123807310858066,0.4013779464057776,8.42510549103892e-06,0.1761589477564065,7.805530463089738e-06,-0.12018621336657953
309,0.2975,203.771,610.683,0.275438,352.264,0.142015,0.0290782,-0.0327493,0.162738,-0.128426,0.338455,1.16428e-05,8.5226e-06,0.25684,-0.03221884808640174,0.40277862249545415,1.1642867777661436e-05,0.17672834647049407,8.522636317565002e-06,-0.1205213585700714
310,0.2985,203.373,609.969,-0.264228,352.711,-0.114269,-0.0211699,-0.0328474,0.163216,-0.128809,0.339463,8.05876e-06,7.73231e-06,0.257611,-0.03231378276078256,0.40419333624287157,8.058792471787868e-06,0.17729095707332876,7.732339894372942e-06,-0.12085813439305215
311,0.2995,204.078,611.528,0.360134,352.617,0.182646,0.0369291,-0.0329454,0.1637,-0.12919,0.340459,1.23518e-05,8.6851e-06,0.258378,-0.03240861136339457,0.40559260952819054,1.235187628378931e-05,0.17786090381253694,8.685137715680469e-06,-0.12119302364339513
312,0.3005,204.002,611.487,0.152322,352.896,0.0935688,0.00874035,-0.0330435,0.16418,-0.129572,0.341462,1.14869e-05,8.32573e-06,0.259147,-0.03250352742291096,0.40700312617139445,1.1486965974638608e-05,0.17842641275765603,8.325764659034007e-06,-0.12152866379701255
313,0.3015,204.002,611.572,0.0492516,353.161,0.0266661,0.0119491,-0.0331414,0.164659,-0.129953,0.342463,1.07184e-05,8.38485e-06,0.259914,-0.03259824069128614,0.40841224144522537,1.07184574422714e-05,0.17899101422062214,8.384885152867838e-06,-0.1218632976243138
314,0.3025,204.14,611.968,0.0614143,353.333,0.046208,0.00761182,-0.0332392,0.165139,-0.130334,0.343463,1.10958e-05,8.35859e-06,0.260681,-0.0326928479569758,0.40982135812758536,1.1095861558674258e-05,0.1795570657489467,8.358624933091363e-06,-0.12219780398041169
315,0.3035,204.18,612.153,-0.00147375,353.568,0.00598876,0.00572947,-0.033337,0.165617,-0.130714,0.344462,1.06031e-05,8.33949e-06,0.261448,-0.03278744597052741,0.4112304734002419,1.0603156213040421e-05,0.18012102880280634,8.339524773637308e-06,-0.12253130544560764
316,0.3045,204.363,612.635,0.064052,353.721,0.044902,0.00843767,-0.0334346,0.166096,-0.131094,0.34546,1.12234e-05,8.4124e-06,0.262213,-0.03288184130923322,0.41263958444214865,1.122346298254584e-05,0.18068644218129637,8.412435384297368e-06,-0.12286468020432251
317,0.3055,204.386,612.786,-0.0208423,353.96,-0.001212,0.00296182,-0.0335322,0.166574,-0.131474,0.346458,1.06343e-05,8.33628e-06,0.262978,-0.032976227435403516,0.41405010247884877,1.063435654446998e-05,0.18125094520613372,8.336314746948403e-06,-0.12319792830469567
318,0.3065,204.597,613.324,0.0786296,354.1,0.0505607,0.0104176,-0.0336297,0.167053,-0.131854,0.347454,1.14345e-05,8.48066e-06,0.263743,-0.03307050765699304,0.415459197993997,1.1434565374113248e-05,0.181816899944226,8.480695960821905e-06,-0.12353104979484819
319,0.3075,204.592,613.416,-0.0389823,354.349,-0.00876999,0.00089334,-0.0337272,0.16753,-0.132234,0.348451,1.06554e-05,8.34149e-06,0.264507,-0.033164778686709084,0.4168711145378394,1.0655456768926541e-05,0.182380761075688,8.34152479023409e-06,-0.12386404472288282
320,0.3085,204.834,614.02,0.0977082,354.473,0.0589769,0.0125776,-0.0338245,0.168008,-0.132612,0.349445,1.16825e-05,8.55231e-06,0.26527,-0.033258847177236595,0.41828018461750194,1.1682568240578561e-05,0.18294607417855002,8.552346571155667e-06,-0.1241951615289586
321,0.3095,204.792,614.032,-0.0607146,354.739,-0.018564,-0.00129486,-0.0339218,0.168484,-0.132991,0.350441,1.06438e-05,8.34414e-06,0.266033,-0.03335290651534528,0.4196934953933118,1.0643856645398131e-05,0.18350929054471998,8.344174812435767e-06,-0.12452702866994347
322,0.3105,205.076,614.722,0.121816,354.841,0.0701766,0.0150497,-0.034019,0.168962,-0.13337,0.351433,1.19695e-05,8.62968e-06,0.266795,-0.033446860046616456,0.4211025301064113,1.1969571634740106e-05,0.1840751432136143,8.629717235697498e-06,-0.12485877005711365
323,0.3115,204.984,614.633,-0.0881073,355.13,-0.0313622,-0.0038883,-0.0341162,0.169436,-0.133748,0.352428,1.05893e-05,8.33997e-06,0.267557,-0.03354080444604812,0.42251723082075676,1.0589356066903477e-05,0.18463652786914997,8.340004777673826e-06,-0.1251895109280694
324,0.3125,205.323,615.434,0.152593,355.204,0.0848062,0.0180455,-0.0342132,0.169914,-0.134126,0.353417,1.23048e-05,8.7161e-06,0.268317,-0.03363454644145658,0.4239247962884314,1.2304875704360896e-05,0.18520291948628365,8.71613798536508e-06,-0.1255201268026016
325,0.3135,205.169,615.215,-0.123085,355.521,-0.0479753,-0.00711626,-0.0343102,0.170388,-0.134504,0.354411,1.04802e-05,8.32538e-06,0.269079,-0.033728279344332424,0.4253408812135546,1.0480254917455412e-05,0.1857648388344848,8.325414656118468e-06,-0.12585061772795025
326,0.3145,205.576,616.159,0.19209,355.56,0.103778,0.0217863,-0.0344071,0.170865,-0.134881,0.355399,1.27014e-05,8.81511e-06,0.269838,-0.03382190653775319,0.4267498139023318,1.2701480663013243e-05,0.18633058358200416,8.81514885309187e-06,-0.12618010993188378
327,0.3155,205.342,615.773,-0.167883,355.916,-0.0694208,-0.0112127,-0.034504,0.171337,-0.135258,0.356392,1.03023e-05,8.29656e-06,0.270598,-0.033915524659138496,0.42816728012304117,1.0302353068869508e-05,0.18689066378598507,8.296594416590253e-06,-0.1265094779406687
328,0.3165,205.84,616.903,0.242801,355.908,0.128263,0.0265168,-0.0346007,0.171814,-0.135635,0.357377,1.3176e-05,8.93065e-06,0.271356,-0.034008940511174646,0.4295747179432945,1.3176086803845521e-05,0.18745694568010562,8.930689878283715e-06,-0.12683872180111777
329,0.3175,205.502,616.302,-0.225218,356.314,-0.0969792,-0.0164438,-0.0346974,0.172285,-0.136012,0.35837,1.00373e-05,8.24911e-06,0.272115,-0.03410234733033479,0.4309949906869246,1.0037350373970355e-05,0.18801636963552038,8.249144024086164e-06,-0.12716784156002614
330,0.3185,206.116,617.672,0.307804,356.247,0.159746,0.0325228,-0.034794,0.172762,-0.136387,0.359353,1.37497e-05,9.06739e-06,0.272871,-0.03419564853706181,0.43240235036672603,1.3749794527617709e-05,0.18858318861941692,9.06743110884456e-06,-0.12749509225610067
331,0.3195,205.646,616.796,-0.298428,356.717,-0.132249,-0.0231273,-0.0348906,0.173232,-0.136764,0.360346,9.66274e-06,8.17772e-06,0.27363,-0.0342889407313276,0.43382543234390636,9.662786684350166e-06,0.18914195401765066,8.177753437532687e-06,-0.12782396460998613
332,0.3205,205.887,617.399,-0.158838,356.831,-0.0615933,-0.0134592,-0.0349869,0.173705,-0.137139,0.361331,1.03849e-05,8.28206e-06,0.274386,-0.034381934228626454,0.4352384461898391,1.038495392324812e-05,0.189704551205647,8.282094296374609e-06,-0.12815096930604486
333,0.3215,206.181,618.103,0.0426257,356.923,0.0319386,0.00717588,-0.0350832,0.174179,-0.137514,0.362314,1.16635e-05,8.60159e-06,0.275142,-0.03447491877108266,0.436649979237274,1.166356801896029e-05,0.1902686048330673,8.601626993787193e-06,-0.12847785139833212
334,0.3225,206.19,618.218,-0.0609742,357.153,-0.0166224,-0.00208526,-0.0351796,0.174651,-0.13789,0.3633,1.0998e-05,8.45802e-06,0.275897,-0.0345679909027643,0.4380672146990654,1.0998060478328853e-05,0.19083054422181167,8.458055769100525e-06,-0.12880548212776932
335,0.3235,206.443,618.84,0.0968638,357.263,0.057875,0.0134415,-0.0352758,0.175123,-0.138264,0.364282,1.21071e-05,8.72506e-06,0.276652,-0.03466086099491639,0.43948009031228685,1.2107173291253659e-05,0.19139274890855296,8.725098063377956e-06,-0.1291312479554465
336,0.3245,206.394,618.833,-0.0669646,357.521,-0.0203512,-0.00184651,-0.035372,0.175594,-0.138639,0.365267,1.10537e-05,8.49382e-06,0.277406,-0.03475372215339534,0.44089867674036465,1.1053761092449932e-05,0.19195402706391818,8.493856072488981e-06,-0.12945776251215746
337,0.3255,206.677,619.518,0.122603,357.613,0.0704724,0.0159059,-0.0354681,0.176066,-0.139013,0.366247,1.24052e-05,8.80315e-06,0.278159,-0.03484647786371309,0.4423114495891971,1.2405276944793542e-05,0.19251676215972768,8.80318874774133e-06,-0.12978328443258436
338,0.3265,206.58,619.413,-0.0897621,357.893,-0.0316682,-0.00371955,-0.0355641,0.176536,-0.139387,0.367231,1.10159e-05,8.50129e-06,0.278913,-0.03493912815455302,0.4437313825480371,1.1015960675209158e-05,0.1930773767720566,8.50132613616772e-06,-0.13010868463057668
339,0.3275,206.912,620.197,0.150367,357.96,0.0841401,0.018454,-0.0356601,0.177008,-0.139761,0.36821,1.27231e-05,8.88474e-06,0.279665,-0.03503176955139209,0.4451454876630607,1.2723180939033796e-05,0.19364064221408017,8.884779469475745e-06,-0.1304339631516498
340,0.3285,206.759,619.973,-0.120407,358.267,-0.0466426,-0.00639427,-0.035756,0.177476,-0.140134,0.369193,1.09276e-05,8.49645e-06,0.280418,-0.03512430556751922,0.44656676412036544,1.0927659706450044e-05,0.19419939677300468,8.496486094911049e-06,-0.13075825079998804
341,0.3295,207.153,620.886,0.184929,358.301,0.101098,0.0216237,-0.0358518,0.177948,-0.140507,0.370169,1.3088e-05,8.97701e-06,0.281168,-0.03521673623154631,0.4479793024887415,1.3088085648149672e-05,0.19476319193347247,8.977050293568212e-06,-0.13108241751158944
342,0.3305,206.928,620.515,-0.159166,358.643,-0.0655183,-0.00983744,-0.0359475,0.178415,-0.14088,0.371151,1.07837e-05,8.47913e-06,0.28192,-0.03530906157205094,0.44940191655296924,1.0783758144228273e-05,0.19532127664674315,8.479165947816725e-06,-0.13140646333155526
343,0.3315,207.4,621.589,0.228343,358.637,0.122366,0.0256007,-0.0360432,0.178886,-0.141252,0.372125,1.35137e-05,9.08288e-06,0.282669,-0.03540137807744326,0.45081432174936276,1.3513791310426626e-05,0.19588440557449593,9.08292124957022e-06,-0.13172952003492355
344,0.3325,207.087,621.033,-0.207714,359.021,-0.0891493,-0.0141855,-0.0361388,0.179352,-0.141625,0.373107,1.05722e-05,8.44688e-06,0.28342,-0.03549358929793245,0.45223972116989075,1.0572255885854531e-05,0.1964418175744025,8.446915674920064e-06,-0.13205332453065788
345,0.3335,207.657,622.309,0.282703,358.965,0.148998,0.0305654,-0.0362343,0.179824,-0.141997,0.374078,1.40154e-05,9.20536e-06,0.284168,-0.03558569526202471,0.4536505307763632,1.4015498216224387e-05,0.19700667140731554,9.205402369483195e-06,-0.13237614064641223
346,0.3345,207.234,621.524,-0.268247,359.403,-0.118626,-0.0196337,-0.0363298,0.180288,-0.142369,0.37506,1.02777e-05,8.39635e-06,0.284918,-0.035677792430417465,0.4550787167221153,1.0277752815701646e-05,0.19756221137815455,8.396385249520577e-06,-0.13269883669690496
347,0.3355,207.925,623.054,0.350522,359.284,0.18225,0.0367344,-0.0364251,0.18076,-0.14274,0.376028,1.46108e-05,9.34807e-06,0.285664,-0.03576968795790736,0.4564879148617642,1.4610906738266038e-05,0.1981275941617655,9.348113693352644e-06,-0.13302054574777156
348,0.3365,207.832,622.964,0.139181,359.549,0.0885507,0.00938402,-0.0365206,0.181226,-0.143111,0.377004,1.36578e-05,8.99085e-06,0.286412,-0.03586176755583659,0.4579101410001267,1.3657893268126386e-05,0.1986860517311524,8.99089041772605e-06,-0.13334213546671758
349,0.3375,207.837,623.049,0.0525043,359.786,0.0299937,0.0131624,-0.0366159,0.181692,-0.143482,0.377979,1.29991e-05,9.05866e-06,0.28716,-0.035953645551332514,0.45933229657578356,1.2999184488604598e-05,0.19924476960241244,9.05870102974049e-06,-0.13366360589800708
350,0.3385,207.947,623.376,0.0489697,359.947,0.040536,0.00798517,-0.0367111,0.182159,-0.143853,0.378952,1.32414e-05,9.01885e-06,0.287906,-0.03604541839581932,0.4607529179205574,1.3241487667681184e-05,0.19980494770122204,9.01889066984296e-06,-0.13398495708588765
351,0.3395,207.999,623.573,0.00826519,360.151,0.0117837,0.0076886,-0.0368062,0.182625,-0.144223,0.379924,1.29084e-05,9.02661e-06,0.288652,-0.036137086117660644,0.46217346002839843,1.2908483313811558e-05,0.20036418709951054,9.026650739984987e-06,-0.1343053233803465
352,0.3405,208.143,623.966,0.0467988,360.298,0.0370775,0.00834275,-0.0369012,0.183091,-0.144594,0.380895,1.33299e-05,9.0688e-06,0.289397,-0.03622864874518572,0.4635939199797867,1.3329988843402418e-05,0.20092368716408915,9.068841121617766e-06,-0.134626436535199
353,0.3415,208.189,624.151,-0.00442778,360.501,0.00746055,0.00565894,-0.0369962,0.183556,-0.144963,0.381867,1.2973e-05,9.03887e-06,0.290142,-0.03632020267467451,0.4650172248841311,1.2973084149825453e-05,0.20148224653360924,9.038910850689419e-06,-0.1349457004722986
354,0.3425,208.348,624.575,0.0540251,360.641,0.0394357,0.00955514,-0.0370911,0.184022,-0.145333,0.382836,1.34867e-05,9.12939e-06,0.290886,-0.03641165154812298,0.4664375145942752,1.3486790946037885e-05,0.20204226773529954,9.129431673082777e-06,-0.13526571135745924
355,0.3435,208.38,624.731,-0.0138386,360.849,0.00383774,0.00446879,-0.0371859,0.184486,-0.145702,0.383806,1.3043e-05,9.06217e-06,0.29163,-0.03650299539378954,0.46786064909207736,1.3043085060227e-05,0.20260014476499055,9.062211061561243e-06,-0.13558473944566618
356,0.3445,208.554,625.185,0.0630255,360.981,0.0432223,0.0107074,-0.0372806,0.184951,-0.146071,0.384774,1.36617e-05,9.1895e-06,0.292373,-0.03659423423989816,0.4692822261326819,1.3661793321517735e-05,0.2031594838685693,9.189542223619895e-06,-0.13590364983422543
357,0.3455,208.569,625.305,-0.0238331,361.195,-0.000536759,0.00341873,-0.0373753,0.185415,-0.14644,0.385742,1.31017e-05,9.08713e-06,0.293115,-0.036685464446097216,0.4707051799261026,1.3101785827585033e-05,0.20371787940683084,9.087171288113538e-06,-0.13622244256656024
358,0.3465,208.761,625.796,0.0735035,361.318,0.048055,0.011861,-0.0374699,0.185879,-0.146808,0.386708,1.38509e-05,9.25024e-06,0.293857,-0.03677658969086861,0.472126567549602,1.3850995924213905e-05,0.20427653410074154,9.250282783535013e-06,-0.13654025422676364
359,0.3475,208.755,625.872,-0.0354278,361.541,-0.00594031,0.00232505,-0.0375644,0.186342,-0.147177,0.387676,1.31454e-05,9.11113e-06,0.294599,-0.03686761000236538,0.47355227599855243,1.3145486401189288e-05,0.20483424323573196,9.111171506370752e-06,-0.13685881209541262
360,0.3485,208.969,626.408,0.085938,361.652,0.0540265,0.0131184,-0.0376589,0.186806,-0.147544,0.38864,1.40559e-05,9.31316e-06,0.295339,-0.03695862171284903,0.47497346529579754,1.4055998784678891e-05,0.20539341604265227,9.313203367611322e-06,-0.13717552679067213
361,0.3495,208.938,626.43,-0.0492282,361.886,-0.0125606,0.0010853,-0.0377533,0.187268,-0.147912,0.389607,1.31716e-05,9.13261e-06,0.29608,-0.03704952852809018,0.4764004544748097,1.3171686745971911e-05,0.2059504364626732,9.132651702437045e-06,-0.13749298778040842
362,0.3505,209.179,627.021,0.100872,361.982,0.0613282,0.0145604,-0.0378476,0.187731,-0.148279,0.390569,1.42793e-05,9.37954e-06,0.29682,-0.037140330476170824,0.4778214350941059,1.4279401949757187e-05,0.20650892079390126,9.37958398794514e-06,-0.1378094697758946
363,0.3515,209.116,626.98,-0.0657941,362.231,-0.020617,-0.00037523,-0.0379419,0.188192,-0.148647,0.391534,1.31771e-05,9.15038e-06,0.297559,-0.037231123862031534,0.47924822109249443,1.3177186818369435e-05,0.20706524963033157,9.15042186488968e-06,-0.1381266975175326
364,0.3525,209.39,627.638,0.118877,362.309,0.0702033,0.0162552,-0.038036,0.188655,-0.149013,0.392495,1.45247e-05,9.45045e-06,0.298297,-0.03732171615084201,0.48067046191022134,1.4524805483917547e-05,0.20762425023956532,9.450494655727226e-06,-0.13844208542673309
365,0.3535,209.291,627.52,-0.0857165,362.575,-0.030373,-0.00212235,-0.0381302,0.189115,-0.14938,0.39346,1.31582e-05,9.16338e-06,0.299036,-0.03741239617408454,0.4820999985464567,1.3158286569447952e-05,0.20817988518091446,9.16342198387099e-06,-0.1387582191672918
366,0.3545,209.604,628.26,0.140581,362.633,0.0809435,0.0182674,-0.0382242,0.189578,-0.149746,0.394419,1.47962e-05,9.52697e-06,0.299773,-0.03750287515626538,0.4835220141925818,1.479630946432664e-05,0.20873940198589813,9.527015381705084e-06,-0.13907337598186142
367,0.3555,209.461,628.049,-0.109652,362.92,-0.0421399,-0.00422158,-0.0383182,0.190037,-0.150112,0.395382,1.31106e-05,9.17047e-06,0.300511,-0.03759334563382155,0.48495133399927726,1.3110685944228706e-05,0.20929434072010644,9.170512048850554e-06,-0.13938841747014286
368,0.3565,209.821,628.887,0.166692,362.952,0.0938927,0.020664,-0.0384121,0.190499,-0.150477,0.396339,1.50986e-05,9.61023e-06,0.301247,-0.03768371137592863,0.48637311263848204,1.509871398441831e-05,0.2098531637837069,9.610276178406707e-06,-0.13970248337725144
369,0.3575,209.625,628.565,-0.138345,363.265,-0.0562803,-0.00674308,-0.0385059,0.190957,-0.150843,0.397301,1.3029e-05,9.17046e-06,0.301984,-0.03777397241049285,0.48780369157098025,1.3029084877880237e-05,0.21040740344391384,9.170502048849727e-06,-0.14001729465435742
370,0.3585,210.042,629.521,0.198018,363.267,0.109452,0.0235181,-0.0385997,0.191419,-0.151208,0.398256,1.54377e-05,9.70147e-06,0.302718,-0.03786422497896913,0.4892252227695384,1.5437819161912003e-05,0.2109667408612994,9.701517059479414e-06,-0.14033113106317974
371,0.3595,209.783,629.066,-0.172643,363.611,-0.073214,-0.00976474,-0.0386934,0.191876,-0.151574,0.399218,1.29077e-05,9.16198e-06,0.303454,-0.03795437287759351,0.49065854675214005,1.2907783304649811e-05,0.2115202791357349,9.16202197109861e-06,-0.14064571229733314
372,0.3605,210.268,630.165,0.235486,363.578,0.128086,0.0269117,-0.038787,0.192337,-0.151938,0.400171,1.58201e-05,9.80209e-06,0.304187,-0.038044416134202064,0.4920798214770332,1.582022513835213e-05,0.21207891874095175,9.802138040582165e-06,-0.1409584603344609
373,0.3615,209.933,629.551,-0.213517,363.959,-0.0934231,-0.0133745,-0.0388806,0.192793,-0.152303,0.401132,1.27397e-05,9.1435e-06,0.304922,-0.03813445096315615,0.4935143993897546,1.2739781150239438e-05,0.21263175276447566,9.143541801925892e-06,-0.1412719532804958
374,0.3625,210.499,630.82,0.280161,363.883,0.150331,0.0309372,-0.0389741,0.193255,-0.152666,0.402083,1.62535e-05,9.91367e-06,0.305654,-0.03822438118768756,0.49493540716567486,1.6253632088902847e-05,0.2131921180686709,9.913719140497435e-06,-0.14158361499143213
375,0.3635,210.075,630.018,-0.26207,364.308,-0.117459,-0.0176721,-0.0390675,0.193709,-0.153031,0.403043,1.25175e-05,9.11324e-06,0.306389,-0.03831420683556164,0.49637123424327956,1.2517578344306557e-05,0.21374303233835046,9.11328152564117e-06,-0.1418968797976553
376,0.3645,210.738,631.49,0.33326,364.182,0.176805,0.0356996,-0.0391608,0.194171,-0.153393,0.403991,1.67466e-05,1.0038e-05,0.307119,-0.03840392793450953,0.4977904667832771,1.674674022500433e-05,0.21430391117232506,1.0038050380911656e-05,-0.14220745690931968
377,0.3655,210.64,631.378,0.125611,364.434,0.0826602,0.00959523,-0.0392543,0.194627,-0.153757,0.404947,1.57607e-05,9.68955e-06,0.307852,-0.03849383296412201,0.499223039129997,1.576082420040592e-05,0.21485776002376067,9.689596943918133e-06,-0.14251963657485867
378,0.3665,210.652,631.472,0.0538316,364.65,0.0320133,0.0138917,-0.0393475,0.195083,-0.15412,0.405901,1.52039e-05,9.76552e-06,0.308583,-0.038583441163082766,0.5006539803597667,1.5204015579861618e-05,0.21541186148786395,9.765567682951115e-06,-0.1428308454589523
379,0.3675,210.743,631.752,0.0396327,364.804,0.0360581,0.00826053,-0.0394407,0.19554,-0.154483,0.406853,1.5348e-05,9.71695e-06,0.309314,-0.038673041010948594,0.5020832831892676,1.534811778114431e-05,0.21596743164667598,9.716997209752165e-06,-0.14314194139472225
380,0.3685,210.803,631.959,0.0146967,364.986,0.0157928,0.00902797,-0.0395338,0.195996,-0.154846,0.407805,1.5132e-05,9.74356e-06,0.310044,-0.03876253638475624,0.5035139473629591,1.513211448922469e-05,0.2165220392364271,9.74360746863745e-06,-0.1434529244231615
381,0.3695,210.922,632.293,0.0353177,365.13,0.0316747,0.00840603,-0.0396268,0.196452,-0.155208,0.408755,1.54166e-05,9.76556e-06,0.310773,-0.03885192731212994,0.5049429642885195,1.5416718836425147e-05,0.2170768997849093,9.76560768317647e-06,-0.1437629383486143
382,0.3705,210.981,632.499,0.00566025,365.309,0.0130222,0.00742611,-0.0397197,0.196908,-0.15557,0.409706,1.52128e-05,9.76508e-06,0.311502,-0.03894121382066007,0.5063748457993,1.5212915715157038e-05,0.21763201340749827,9.765127678473817e-06,-0.14407284006933652
383,0.3715,211.109,632.85,0.0389539,365.449,0.0324233,0.00922799,-0.0398126,0.197363,-0.155932,0.410655,1.5545e-05,9.82269e-06,0.312231,-0.039030492034858866,0.5078050740639364,1.5545120824134173e-05,0.21818616203285068,9.822738242792894e-06,-0.14438262962593862
384,0.3725,211.161,633.042,0.000439092,365.629,0.0112929,0.00666411,-0.0399054,0.197818,-0.156293,0.411604,1.53042e-05,9.79801e-06,0.312959,-0.03911966586746818,0.5092366602594323,1.5304317109832155e-05,0.21874056285319776,9.798058000720644e-06,-0.14469145175089626
385,0.3735,211.296,633.406,0.0433553,365.765,0.0340746,0.00991186,-0.0399981,0.198273,-0.156655,0.412552,1.56842e-05,9.87805e-06,0.313686,-0.03920873534600822,0.510668095006225,1.568432299769995e-05,0.21929521598331414,9.878098788052014e-06,-0.14500101741059745
386,0.3745,211.34,633.582,-0.00438037,365.948,0.00933998,0.00611317,-0.0400908,0.198727,-0.157016,0.4135,1.53919e-05,9.83384e-06,0.314413,-0.03929779656819021,0.5121008873965793,1.539201845579541e-05,0.21984890168851523,9.833888352295261e-06,-0.14530961633785444
387,0.3755,211.483,633.962,0.048064,366.079,0.0361643,0.0105057,-0.0401834,0.199182,-0.157376,0.414446,1.58292e-05,9.93243e-06,0.31514,-0.03938675347345966,0.5135320116511009,1.582932528254588e-05,0.22040405922754602,9.932479326790755e-06,-0.1456172494986815
388,0.3765,211.518,634.117,-0.00950935,366.265,0.00702069,0.00562283,-0.040276,0.199635,-0.157737,0.415392,1.54741e-05,9.87045e-06,0.315866,-0.03947570214170115,0.514964490389737,1.5474219724476157e-05,0.22095702750423474,9.870498713038245e-06,-0.14592562600630377
389,0.3775,211.669,634.516,0.0532724,366.391,0.0386532,0.0110823,-0.0403684,0.200089,-0.158097,0.416337,1.59793e-05,9.9869e-06,0.316591,-0.03956445048658652,0.5163968084968698,1.597942766973226e-05,0.22151146784315512,9.986949869311701e-06,-0.14623303744356275
390,0.3785,211.694,634.649,-0.0152283,366.581,0.00429735,0.00512437,-0.0404608,0.200541,-0.158457,0.417282,1.55502e-05,9.90684e-06,0.317316,-0.03965319063150374,0.517830480784363,1.555032090494457e-05,0.22206371582526208,9.906889072874847e-06,-0.14654033823262225
391,0.3795,211.856,635.069,0.0591746,366.701,0.0415676,0.0116881,-0.0405532,0.200994,-0.158816,0.418225,1.61352e-05,1.00421e-05,0.31804,-0.03974192257721043,0.5192624700045438,1.6135330173083773e-05,0.22261743609670348,1.0042150422107099e-05,-0.14684667526041018
392,0.3805,211.868,635.175,-0.0217201,366.896,0.00112959,0.00458004,-0.0406454,0.201446,-0.159176,0.41917,1.56198e-05,9.94246e-06,0.318764,-0.03983045429057408,0.5206988516221185,1.5619921989618035e-05,0.22317018408945466,9.94250942643049e-06,-0.1471537551796145
393,0.3815,212.042,635.621,0.065931,367.009,0.0449523,0.0123524,-0.0407376,0.201899,-0.159535,0.420111,1.62973e-05,1.00986e-05,0.319487,-0.03991897784169007,0.5221305027276986,1.6297432801737344e-05,0.22372440570456553,1.0098650990997271e-05,-0.14745987203024258
394,0.3825,212.04,635.698,-0.0291353,367.21,-0.00253262,0.00396569,-0.0408298,0.20235,-0.159894,0.421054,1.5682e-05,9.97691e-06,0.32021,-0.04000749323131092,0.5235665487810681,1.568212296310101e-05,0.22427642988363372,9.97695976945323e-06,-0.14776587900464533
395,0.3835,212.228,636.172,0.0736859,367.314,0.048862,0.0130955,-0.0409218,0.202802,-0.160252,0.421994,1.64666e-05,1.01566e-05,0.320932,-0.04009580847936989,0.5249993746595814,1.6466735575093594e-05,0.22482992791107193,1.0156651578441256e-05,-0.14807092421361123
396,0.3845,212.211,636.215,-0.0376144,367.523,-0.00674747,0.00326352,-0.0410139,0.203252,-0.160611,0.422936,1.57361e-05,1.00099e-05,0.321654,-0.040184211584383456,0.5264366008977903,1.5736223813123118e-05,0.22538122541126615,1.0009950099254539e-05,-0.14837671185965184
397,0.3855,212.415,636.723,0.08258,367.618,0.053359,0.0139335,-0.0411058,0.203704,-0.160969,0.423875,1.66438e-05,1.02165e-05,0.322375,-0.040272414602348094,0.527870598022318,1.6643938508753564e-05,0.2259352229191569,1.0216552188690997e-05,-0.14868153842959442
398,0.3865,212.379,636.727,-0.0472981,367.835,-0.0115801,0.00245845,-0.0411977,0.204153,-0.161327,0.424815,1.57812e-05,1.00412e-05,0.323096,-0.040360609514827894,0.529307471609243,1.578132452384473e-05,0.22648579142762815,1.0041250412928804e-05,-0.14898625589115655
399,0.3875,212.602,637.274,0.0927575,367.919,0.0585127,0.0148808,-0.0412895,0.204604,-0.161684,0.425752,1.683e-05,1.02784e-05,0.323816,-0.040448700367442414,0.5307411042621484,1.6830141625234774e-05,0.22703906127253415,1.0278452822864992e-05,-0.14929001357383087
400,0.3885,212.545,637.234,-0.0583325,368.146,-0.0171018,0.00153639,-0.0413812,0.205053,-0.162042,0.426692,1.58162e-05,1.00705e-05,0.324536,-0.040536687187361364,0.5321806773935258,1.581632507674513e-05,0.22759012551571023,1.0070550707563797e-05,-0.14959451324027906
401,0.3895,212.789,637.825,0.10437,368.219,0.0643985,0.0159515,-0.0414729,0.205504,-0.162399,0.427627,1.70263e-05,1.03426e-05,0.325255,-0.04062466593925884,0.5336139362709982,1.7026444948164965e-05,0.22814389352761788,1.034265348476282e-05,-0.14989805381383603
402,0.3905,212.709,637.735,-0.0708713,368.457,-0.0233898,0.000483283,-0.0415645,0.205952,-0.162756,0.428565,1.58401e-05,1.00976e-05,0.325974,-0.040712540695133526,0.5350531410247268,1.584022545508823e-05,0.2286942252570212,1.0097650980922523e-05,-0.15020148604274897
403,0.3915,212.977,638.377,0.117578,368.515,0.071098,0.0171596,-0.041656,0.206402,-0.163112,0.429499,1.72338e-05,1.04093e-05,0.326692,-0.04080031148208518,0.5364875504233568,1.7233948502726193e-05,0.22924726208234003,1.0409354176843522e-05,-0.1505039604700752
404,0.3925,212.87,638.23,-0.0850771,368.766,-0.0305269,-0.000715317,-0.0417475,0.206849,-0.163469,0.430436,1.58517e-05,1.01222e-05,0.32741,-0.04088807423837726,0.5379279139630391,1.585182563879073e-05,0.22979685843412434,1.0122251229649493e-05,-0.15080717642891828
405,0.3935,213.166,638.93,0.13255,368.81,0.0786984,0.0185199,-0.0418389,0.207298,-0.163824,0.431369,1.74537e-05,1.04789e-05,0.328126,-0.040975733062322606,0.5393634702896566,1.7453852316773322e-05,0.23034916120625493,1.0478954903803128e-05,-0.15110858637785463
406,0.3945,213.029,638.718,-0.101122,369.075,-0.0386012,-0.00207446,-0.0419302,0.207745,-0.164181,0.432305,1.58497e-05,1.0144e-05,0.328844,-0.04106328798095116,0.5408049890233726,1.5849825607094914e-05,0.2308992502170486,1.0144051450611258e-05,-0.15141158652377362
407,0.3955,213.356,639.484,0.149468,369.102,0.0872927,0.0200477,-0.0420215,0.208194,-0.164536,0.433235,1.76873e-05,1.05516e-05,0.329559,-0.041150834906180545,0.5422386041908895,1.7687456421278114e-05,0.23145204807422792,1.0551655668322724e-05,-0.1517127819452072
408,0.3965,213.185,639.2,-0.119186,369.384,-0.0477056,-0.00360985,-0.0421127,0.208639,-0.164891,0.434171,1.58329e-05,1.01628e-05,0.330275,-0.04123827796257318,0.5436828153097768,1.5833025341027707e-05,0.23200016618285502,1.016285164134878e-05,-0.15201387046124304
409,0.3975,213.547,640.04,0.168519,369.391,0.0969792,0.0217591,-0.0422039,0.209088,-0.165246,0.435099,1.79362e-05,1.06276e-05,0.33099,-0.041325713044522594,0.5451160178655159,1.7936360854564626e-05,0.23255345846229258,1.0627656473083391e-05,-0.15231485210982576
410,0.3985,213.338,639.675,-0.139459,369.692,-0.0579379,-0.00533789,-0.0422949,0.209532,-0.165601,0.436034,1.57999e-05,1.01782e-05,0.331705,-0.04141294843536503,0.546561376942291,1.5800024819156988e-05,0.23310083370616175,1.0178251798054205e-05,-0.15261572692888659
411,0.3995,213.74,640.598,0.189903,369.678,0.107861,0.0236708,-0.042386,0.209981,-0.165955,0.436961,1.82017e-05,1.07074e-05,0.332418,-0.04150027173812576,0.5479957040466161,1.8201865652045512e-05,0.23365462029628148,1.070745732434375e-05,-0.15291564787241463
412,0.4005,213.488,640.143,-0.162138,370.001,-0.0693998,-0.00727555,-0.0424769,0.210424,-0.16631,0.437894,1.57492e-05,1.01899e-05,0.333133,-0.04158739540359424,0.5494406580046951,1.5749324019376232e-05,0.2342012503626929,1.0189951917149997e-05,-0.15321630944683295
413,0.4015,213.934,641.159,0.213825,369.962,0.120047,0.0257999,-0.0425678,0.210872,-0.166664,0.438819,1.84853e-05,1.07912e-05,0.333845,-0.04167451114988141,0.5508745536878632,1.8485470854257002e-05,0.23475429639591683,1.0791258225228972e-05,-0.15351601782177648
414,0.4025,213.634,640.603,-0.187424,370.308,-0.0821963,-0.00944032,-0.0426586,0.211315,-0.167018,0.439752,1.56795e-05,1.01976e-05,0.334558,-0.041761523153864166,0.5523221948660506,1.567962292403635e-05,0.2353014137267615,1.0197651995724755e-05,-0.1538156201187323
415,0.4035,214.13,641.723,0.240499,370.243,0.133647,0.0281642,-0.0427494,0.211763,-0.167371,0.440675,1.87888e-05,1.08793e-05,0.335269,-0.041848527257515755,0.5537556496895462,1.878897651064193e-05,0.2358549527435927,1.0879359179760684e-05,-0.15411427048993864
416,0.4045,213.777,641.054,-0.215525,370.616,-0.0964353,-0.0118501,-0.0428401,0.212204,-0.167725,0.441607,1.55892e-05,1.02009e-05,0.335982,-0.04193542765510083,0.5552044249794719,1.558932151213277e-05,0.23640008497057385,1.0200952029304489e-05,-0.15441366104293075
417,0.4055,214.328,642.291,0.270142,370.522,0.148778,0.0307817,-0.0429307,0.212652,-0.168077,0.442529,1.91136e-05,1.09721e-05,0.336691,-0.04202222437340464,0.5566389846897046,1.91137826659471e-05,0.23695411630239271,1.097216019374514e-05,-0.1547112550546249
418,0.4065,213.916,641.497,-0.246652,370.924,-0.112226,-0.014523,-0.0430212,0.213093,-0.168431,0.44346,1.54767e-05,1.01995e-05,0.337403,-0.04210891743917844,0.5580888904108372,1.547681976465931e-05,0.23749973336740227,1.0199552014977797e-05,-0.15501043431248251
419,0.4075,214.529,642.862,0.302976,370.797,0.165557,0.0336707,-0.0431117,0.21354,-0.168783,0.444379,1.94616e-05,1.10699e-05,0.338112,-0.042195602659584774,0.5595214322532789,1.946178937806131e-05,0.2380530193984327,1.1069961271648054e-05,-0.15530781829695273
420,0.4085,214.052,641.931,-0.281014,371.233,-0.12968,-0.0174772,-0.0432022,0.213979,-0.169136,0.44531,1.53407e-05,1.01931e-05,0.338823,-0.04228228003533374,0.5609740227826774,1.5340817669073914e-05,0.23859664399081604,1.0193151949833279e-05,-0.15560594201516187
421,0.4095,214.732,643.439,0.339226,371.069,0.184102,0.0368495,-0.0432925,0.214426,-0.169487,0.446227,1.98345e-05,1.1173e-05,0.33953,-0.042368758040905785,0.5624060924651675,1.983469670507887e-05,0.23915042045049795,1.1173062418157187e-05,-0.15590227232050358
422,0.4105,214.611,643.266,0.119795,371.313,0.0809796,0.0107941,-0.043383,0.214868,-0.169839,0.447153,1.8713e-05,1.08118e-05,0.340239,-0.04245541974680178,0.5638535505764659,1.8713175089279943e-05,0.23969824599686396,1.0811858447645761e-05,-0.15619934243323963
423,0.4115,214.621,643.348,0.056342,371.507,0.0348887,0.0150838,-0.0434732,0.21531,-0.170191,0.448076,1.82156e-05,1.08879e-05,0.340948,-0.04254178637274719,0.5652976537547418,1.8215765904994186e-05,0.2402463137356421,1.088795927350894e-05,-0.15649630799569791
424,0.4125,214.691,643.574,0.031694,371.651,0.0323203,0.00902273,-0.0435634,0.215752,-0.170542,0.448998,1.8261e-05,1.08305e-05,0.341655,-0.04262814520877434,0.5667415237132705,1.8261166732980172e-05,0.24079462377390493,1.0830558650143374e-05,-0.15679232583742098
425,0.4135,214.755,643.779,0.0193078,371.809,0.019153,0.0105051,-0.0436535,0.216194,-0.170893,0.449919,1.81415e-05,1.08712e-05,0.342362,-0.04271440052703057,0.5681851573478534,1.8141664557935755e-05,0.24134317621877277,1.0871259091604912e-05,-0.15708823979511444
426,0.4145,214.849,644.052,0.025366,371.944,0.027029,0.00895265,-0.0437436,0.216635,-0.171244,0.45084,1.83086e-05,1.08781e-05,0.343069,-0.04280064807403272,0.5696301211814763,1.8308767603336662e-05,0.2418907292860626,1.0878159166782808e-05,-0.15738404990523502
427,0.4155,214.915,644.265,0.0126608,372.097,0.0173355,0.00920503,-0.0438336,0.217076,-0.171594,0.45176,1.82279e-05,1.09004e-05,0.343775,-0.04288679213916502,0.5710748453641861,1.822806612916672e-05,0.24243852387750708,1.0900459409546315e-05,-0.15767891388356192
428,0.4165,215.014,644.547,0.0265719,372.23,0.0267098,0.00948714,-0.0439235,0.217517,-0.171945,0.452679,1.84141e-05,1.09338e-05,0.34448,-0.04297283274896835,0.5725193267846258,1.8414269540523165e-05,0.24298656009964215,1.093385977424255e-05,-0.15797451670345897
429,0.4175,215.078,644.755,0.0101354,372.382,0.0167948,0.00872917,-0.0440133,0.217958,-0.172295,0.453598,1.83286e-05,1.09411e-05,0.345185,-0.04305876992995028,0.573965136293654,1.8328767969810755e-05,0.24353483805905052,1.0941159854116478e-05,-0.15826917405456842
430,0.4185,215.179,645.04,0.0281211,372.514,0.0270476,0.00986163,-0.0441031,0.218398,-0.172645,0.454516,1.85272e-05,1.09872e-05,0.34589,-0.04314469939411991,0.5754106997008579,1.852737162955087e-05,0.24408211377962563,1.0987260359529571e-05,-0.1585637282936505
431,0.4195,215.241,645.243,0.00842794,372.667,0.016289,0.00848203,-0.0441928,0.218838,-0.172994,0.455433,1.84293e-05,1.09851e-05,0.346594,-0.04323052546522743,0.5768560138877592,1.8429469820668842e-05,0.2446296303545017,1.0985160336485222e-05,-0.15885733831454718
432,0.4205,215.344,645.532,0.0294927,372.797,0.027543,0.0101192,-0.0442825,0.219277,-0.173343,0.45635,1.8642e-05,1.10391e-05,0.347297,-0.043316343838081584,0.5783026540356302,1.8642173763128156e-05,0.2451761427129131,1.1039160931147762e-05,-0.15915084588342554
433,0.4215,215.403,645.729,0.00693635,372.949,0.015714,0.00832815,-0.0443721,0.219717,-0.173693,0.457266,1.85286e-05,1.10304e-05,0.348,-0.043402058853583725,0.5797490416111031,1.8528771655645926e-05,0.24572414076643745,1.1030460835170786e-05,-0.15944509159136366
434,0.4225,215.508,646.022,0.0307824,373.078,0.0281187,0.0103193,-0.0444617,0.220156,-0.174041,0.458181,1.87576e-05,1.10903e-05,0.348703,-0.04348776618936445,0.5811951734886163,1.87577759249713e-05,0.24627113372040266,1.1090361497601009e-05,-0.15973755380811272
435,0.4235,215.564,646.213,0.00548725,373.231,0.0150743,0.0082131,-0.0445511,0.220594,-0.17439,0.459096,1.86268e-05,1.10763e-05,0.349405,-0.04357327456078597,0.582642629182351,1.8626973479873854e-05,0.24681712003924727,1.1076361342343688e-05,-0.16003075423538304
436,0.4245,215.671,646.51,0.0320763,373.358,0.0287562,0.0104951,-0.0446405,0.221033,-0.174738,0.46001,1.88737e-05,1.11413e-05,0.350106,-0.04365877528810069,0.5840898258135356,1.887387810950436e-05,0.24736459291644852,1.1141362064481797e-05,-0.1603230126769909
437,0.4255,215.725,646.694,0.00400866,373.511,0.0143773,0.00811228,-0.0447299,0.221471,-0.175086,0.460924,1.87239e-05,1.11225e-05,0.350808,-0.04374426837199219,0.5855383457871166,1.8724075293352627e-05,0.24791105827532323,1.1122561855314572e-05,-0.1606151694303557
438,0.4265,215.834,646.995,0.0334212,373.636,0.0294489,0.0106632,-0.0448192,0.221909,-0.175434,0.461836,1.89903e-05,1.11922e-05,0.351508,-0.043829658196114174,0.5869850163399748,1.8990480316949387e-05,0.2484577630384508,1.1192262632908623e-05,-0.16090722453085904
439,0.4275,215.884,647.173,0.00246668,373.791,0.0136269,0.00801401,-0.0449084,0.222346,-0.175782,0.462749,1.88199e-05,1.11687e-05,0.352208,-0.04391494478676461,0.5884345952919912,1.882007709541611e-05,0.2490034583066305,1.1168762370061813e-05,-0.16119917801386985
440,0.4285,215.995,647.479,0.0348403,373.913,0.0301942,0.0108316,-0.0449976,0.222783,-0.176129,0.46366,1.91073e-05,1.12433e-05,0.352908,-0.044000223770190416,0.5898823185461197,1.9107482545521748e-05,0.24954939209575544,1.1243363206236978e-05,-0.1614901914053556
441,0.4295,216.043,647.649,0.000844914,374.068,0.0128248,0.00791267,-0.0450867,0.22322,-0.176476,0.464572,1.89149e-05,1.12149e-05,0.353607,-0.04408539955561486,0.5913329526092201,1.8915078887848935e-05,0.25009556451008197,1.1214962887251545e-05,-0.1617811038327127
442,0.4305,216.157,647.96,0.0363449,374.189,0.0309908,0.0110043,-0.0451757,0.223657,-0.176823,0.465481,1.92248e-05,1.12945e-05,0.354306,-0.04417047216926695,0.5927801319064845,1.9224984797672207e-05,0.250641975653912,1.1294563783126321e-05,-0.16207191533096987
443,0.4315,216.2,648.123,-0.000864356,374.345,0.0119718,0.00780559,-0.0452647,0.224093,-0.17717,0.466392,1.90089e-05,1.1261e-05,0.355004,-0.04425553721179343,0.5942318157482427,1.9009080670207013e-05,0.2511873744435935,1.1261063405321181e-05,-0.16236262593514317
444,0.4325,216.317,648.44,0.0379401,374.463,0.0318382,0.011183,-0.0453536,0.224529,-0.177516,0.4673,1.93427e-05,1.13459e-05,0.355701,-0.044340499117922594,0.5956800356292677,1.9342887071172044e-05,0.2517330110789937,1.1345964364917194e-05,-0.1626523983330539
445,0.4335,216.357,648.594,-0.00266426,374.621,0.0110686,0.00769155,-0.0454424,0.224964,-0.177862,0.468209,1.91019e-05,1.13071e-05,0.356399,-0.044425357913814634,0.5971311682214977,1.9102082442490342e-05,0.25227763338557674,1.1307163925389219e-05,-0.1629420704870581
446,0.4345,216.477,648.917,0.0396276,374.736,0.0327358,0.0113685,-0.0455312,0.2254,-0.178208,0.469116,1.9461e-05,1.13975e-05,0.357095,-0.04451020917458015,0.5985804233289134,1.9461189366465348e-05,0.25282374547751774,1.139756495183164e-05,-0.1632316424318343
447,0.4355,216.514,649.064,-0.00455528,374.895,0.0101158,0.00757008,-0.0456199,0.225834,-0.178554,0.470024,1.91939e-05,1.13531e-05,0.357792,-0.044594957360388765,0.6000325935387996,1.919408420403279e-05,0.2533675889885607,1.135316444678125e-05,-0.16352111420204873
448,0.4365,216.637,649.393,0.041407,375.008,0.0336825,0.0115611,-0.0457086,0.226269,-0.178899,0.47093,1.95797e-05,1.14494e-05,0.358487,-0.044679698029366666,0.6014828799490857,1.957989168355212e-05,0.2539129224912082,1.1449465544544069e-05,-0.16380964964242373
449,0.4375,216.669,649.53,-0.00653615,375.168,0.00911462,0.00744109,-0.0457972,0.226704,-0.179245,0.471836,1.92849e-05,1.1399e-05,0.359183,-0.044764335658618926,0.6029344809142627,1.9285085954834358e-05,0.25445849326553227,1.139906496883114e-05,-0.16409892145673766
450,0.4385,216.796,649.867,0.0432763,375.279,0.0346772,0.0117608,-0.0458858,0.227138,-0.17959,0.472741,1.96987e-05,1.15014e-05,0.359877,-0.044848965789309414,0.6043857932392622,1.9698894020647728e-05,0.2550030464110946,1.1501466141261574e-05,-0.16438725758799244
451,0.4395,216.824,649.995,-0.00860428,375.44,0.00806638,0.00730472,-0.0459742,0.227571,-0.179934,0.473646,1.9375e-05,1.14448e-05,0.360572,-0.04493339740880109,0.6058384195964255,1.937518769645763e-05,0.25554658039680644,1.144486549198298e-05,-0.16467465893551625
452,0.4405,216.954,650.339,0.0452322,375.548,0.0357182,0.0119673,-0.0460627,0.228005,-0.180279,0.47455,1.98182e-05,1.15536e-05,0.361265,-0.04501791706308045,0.6072907538839327,1.9818396381765524e-05,0.2560916058746725,1.1553666743102653e-05,-0.16496279647160061
453,0.4415,216.977,650.457,-0.0107559,375.711,0.00697308,0.00716127,-0.046151,0.228438,-0.180623,0.475454,1.94641e-05,1.14906e-05,0.361959,-0.04510223825816828,0.6087444016752501,1.946428942689593e-05,0.25663561130869295,1.1490666017133222e-05,-0.16524999986779798
454,0.4425,217.111,650.809,0.0472706,375.816,0.0368033,0.0121803,-0.0462393,0.228871,-0.180967,0.476356,1.9938e-05,1.1606e-05,0.362652,-0.04518655200802324,0.6101961437628141,1.9938198763336246e-05,0.2571798523480715,1.1606067349845262e-05,-0.1655371044830184
455,0.4435,217.131,650.917,-0.0129863,375.981,0.00583712,0.00701115,-0.0463275,0.229304,-0.181311,0.477258,1.95524e-05,1.15362e-05,0.363344,-0.045270762840383894,0.6116491959124903,1.955259114949648e-05,0.257724329094847,1.1536266542266915e-05,-0.16582411035123668
456,0.4445,217.268,651.277,0.0493861,376.083,0.0379299,0.0123993,-0.0464157,0.229736,-0.181654,0.478159,2.00581e-05,1.16586e-05,0.364036,-0.04535496624567659,0.613101946203735,2.005830116513785e-05,0.2582677833826903,1.1658667961711444e-05,-0.16611018361701646
457,0.4455,217.283,651.375,-0.0152894,376.249,0.00466147,0.00685487,-0.0465038,0.230168,-0.181998,0.479061,1.96398e-05,1.15818e-05,0.364727,-0.04543906676846787,0.6145576205696546,1.9639992862030553e-05,0.258811472493504,1.158186706939901e-05,-0.16639699237991668
458,0.4465,217.424,651.743,0.0515722,376.348,0.0390947,0.0126238,-0.0465919,0.2306,-0.182341,0.47996,2.01784e-05,1.17114e-05,0.365418,-0.04552315988232958,0.616009760509648,2.01786035853857e-05,0.25935539652875383,1.17114685787012e-05,-0.16668286918085617
459,0.4475,217.434,651.831,-0.0176584,376.516,0.0034496,0.00669305,-0.0466799,0.231031,-0.182684,0.480861,1.97264e-05,1.16274e-05,0.366109,-0.045607150148633924,0.6174664414400817,1.9726594566726874e-05,0.25989829569102296,1.1627467598529506e-05,-0.1669686479428677
460,0.4485,217.58,652.207,0.0538217,376.613,0.0402941,0.0128531,-0.0467678,0.231462,-0.183026,0.481759,2.02989e-05,1.17643e-05,0.366799,-0.04569103759322868,0.6189195786654578,2.0299106024079805e-05,0.26044142889326305,1.1764369199696034e-05,-0.16725349595348504
461,0.4495,217.585,652.284,-0.0200855,376.783,0.0022055,0.00652637,-0.0468556,0.231893,-0.183369,0.482658,1.98123e-05,1.16729e-05,0.367488,-0.04577482224192808,0.620375641768977,1.9812496264925983e-05,0.26098479623636717,1.1672968128539907e-05,-0.1675390790240765
462,0.4505,217.735,652.669,0.056126,376.876,0.0415236,0.0130866,-0.0469435,0.232324,-0.183711,0.483555,2.04196e-05,1.18174e-05,0.368177,-0.04585869494879358,0.6218297707990135,2.0419808481442203e-05,0.2615283978212717,1.1817469825814442e-05,-0.16782373198062017
463,0.4515,217.735,652.736,-0.0225616,377.048,0.000933693,0.00635561,-0.0470312,0.232754,-0.184053,0.484453,1.98975e-05,1.17183e-05,0.368866,-0.04594236947206509,0.6232868280539836,1.989769795662788e-05,0.2620709716773537,1.1718368659652256e-05,-0.16810828760249785
464,0.4525,217.89,653.13,0.0584759,377.138,0.0427787,0.0133233,-0.0471189,0.233184,-0.184394,0.485349,2.05404e-05,1.18706e-05,0.369554,-0.04602603665740268,0.624741944846894,2.054061095546622e-05,0.26261377889036197,1.1870670455937926e-05,-0.16839191431532252
465,0.4535,217.885,653.185,-0.025077,377.312,-0.000360788,0.00618164,-0.0472065,0.233613,-0.184736,0.486245,1.99822e-05,1.17638e-05,0.370242,-0.04610960111641471,0.6261983660087207,1.9982399645401827e-05,0.26315555640447363,1.176386919365946e-05,-0.16867627565206644
466,0.4545,218.043,653.588,0.0608609,377.399,0.0440539,0.0135624,-0.0472941,0.234043,-0.185077,0.48714,2.06612e-05,1.19239e-05,0.370929,-0.046193158255500855,0.6276544650534235,2.0661413444145182e-05,0.2636988300891989,1.1923971090066487e-05,-0.16895970871398558
467,0.4555,218.033,653.632,-0.0276209,377.575,-0.00167244,0.00600538,-0.0473816,0.234471,-0.185418,0.488035,2.00663e-05,1.18092e-05,0.371616,-0.04627661270296812,0.6291118678901311,2.0066501329463193e-05,0.2642398089496949,1.1809269728768612e-05,-0.16924304514170763
468,0.4565,218.197,654.045,0.0632699,377.659,0.0453435,0.0138029,-0.047469,0.234901,-0.185758,0.488928,2.07819e-05,1.19773e-05,0.372302,-0.04635996448449198,0.6305673145483695,2.0782115945250368e-05,0.26478354896326817,1.1977371728200126e-05,-0.169525454494049
469,0.4575,218.181,654.078,-0.0301818,377.836,-0.00299532,0.00582783,-0.0475564,0.235329,-0.186099,0.489823,2.01499e-05,1.18547e-05,0.372988,-0.04644330898138849,0.6320273255523559,2.015010301059661e-05,0.26532499218280803,1.1854770267216708e-05,-0.16980859803534898
470,0.4585,218.349,654.499,0.065691,377.917,0.0466415,0.0140439,-0.0476437,0.235757,-0.186439,0.490715,2.09024e-05,1.20308e-05,0.373673,-0.04652655084695412,0.6334837433925369,2.09026184567751e-05,0.2658666671896448,1.2030872370338841e-05,-0.17009081513239177
471,0.4595,218.329,654.521,-0.0327472,378.097,-0.00432306,0.00565006,-0.047731,0.236185,-0.186779,0.491608,2.02332e-05,1.19001e-05,0.374358,-0.04660978544582206,0.6349430958792919,2.0233404692593382e-05,0.2664085740830049,1.1900170806544708e-05,-0.17037293629193195
472,0.4605,218.501,654.952,0.0681115,378.175,0.0479411,0.0142841,-0.0478182,0.236613,-0.187119,0.492498,2.10227e-05,1.20843e-05,0.375042,-0.046692917447923254,0.6363988429459777,2.102292097849734e-05,0.26695071296215644,1.2084373015364136e-05,-0.17065496154658255
473,0.4615,218.476,654.962,-0.0353044,378.356,-0.00564894,0.00547316,-0.0479053,0.237039,-0.187459,0.493391,2.03163e-05,1.19457e-05,0.375726,-0.046775946878829355,0.6378607997793015,2.0316506377460186e-05,0.26749054894277835,1.1945771350108103e-05,-0.1709368909289457
474,0.4625,218.652,655.403,0.070518,378.431,0.0492355,0.0145227,-0.0479924,0.237467,-0.187798,0.49428,2.11427e-05,1.21379e-05,0.376409,-0.046858969078186874,0.6393175054400326,2.1142923508410405e-05,0.26803315100628455,1.2137973664616553e-05,-0.17121789568992274
475,0.4635,218.622,655.402,-0.0378396,378.615,-0.00696593,0.0052983,-0.0480794,0.237893,-0.188137,0.495171,2.03992e-05,1.19913e-05,0.377092,-0.046941888740819504,0.6407787882421945,2.0399408065197022e-05,0.2685734482037452,1.1991371895891945e-05,-0.17149880520643057
476,0.4645,218.803,655.852,0.0728969,378.686,0.0505175,0.0147582,-0.0481664,0.23832,-0.188476,0.496059,2.12622e-05,1.21914e-05,0.377775,-0.04702480118975516,0.6422364469108168,2.1262426042278904e-05,0.2691152447314549,1.2191474315415007e-05,-0.17177961951075182
477,0.4655,218.767,655.84,-0.0403391,378.872,-0.00826674,0.00512666,-0.0482533,0.238745,-0.188814,0.496948,2.04821e-05,1.2037e-05,0.378457,-0.047107611136387506,0.6436970442514434,2.0482309759595196e-05,0.2696547333436754,1.203707244501473e-05,-0.1720595106950823
478,0.4665,218.953,656.298,0.0752338,378.94,0.0517796,0.0149896,-0.0483402,0.239172,-0.189153,0.497835,2.13811e-05,1.2245e-05,0.379138,-0.047190413887148175,0.6451556503258562,2.1381328577430025e-05,0.27019699167872857,1.2245074970218539e-05,-0.1723401349524576
479,0.4675,218.912,656.276,-0.0427884,379.128,-0.00954392,0.00495946,-0.0484269,0.239597,-0.189491,0.498724,2.05651e-05,1.20828e-05,0.37982,-0.04727301889728519,0.6466188439922145,2.0565311463105473e-05,0.2707369401311108,1.2082872997254412e-05,-0.17261983671458303
480,0.4685,219.102,656.743,0.0775145,379.193,0.0530144,0.0152157,-0.0485137,0.240023,-0.189829,0.499609,2.14994e-05,1.22985e-05,0.3805,-0.04735571201031186,0.6480767466959385,2.149963111386377e-05,0.2712783893881101,1.2298575626790154e-05,-0.1728994439534881
481,0.4695,219.057,656.71,-0.0451733,379.383,-0.0107899,0.0047979,-0.0486003,0.240447,-0.190167,0.500497,2.06482e-05,1.21287e-05,0.38118,-0.04743820743354843,0.6495408888299001,2.064841317550581e-05,0.2718175257140347,1.2128773553055083e-05,-0.1731789567011165
482,0.4705,219.251,657.186,0.0797244,379.446,0.0542142,0.0154352,-0.048687,0.240872,-0.190504,0.501381,2.1617e-05,1.2352e-05,0.38186,-0.047520790960916215,0.6509997276873993,2.1617233649129375e-05,0.27235816303975713,1.2352076286248348e-05,-0.1734575484473624
483,0.4715,219.2,657.142,-0.0474793,379.637,-0.0119971,0.00464321,-0.0487735,0.241296,-0.190841,0.502267,2.07316e-05,1.21748e-05,0.382539,-0.04760317684925708,0.6524631616516441,2.0731814901031598e-05,0.27289775728678256,1.217487411309115e-05,-0.17373604632400763
484,0.4725,219.398,657.627,0.081849,379.697,0.0553713,0.0156469,-0.04886,0.241721,-0.191178,0.50315,2.17336e-05,1.24054e-05,0.383218,-0.047685555611526764,0.6539229310167101,2.1733836176318633e-05,0.27343885380849575,1.240547694725258e-05,-0.17401445036268104
485,0.4735,219.344,657.573,-0.049692,379.89,-0.0131578,0.00449658,-0.0489464,0.242144,-0.191515,0.504035,2.08154e-05,1.22211e-05,0.383897,-0.047767832025129686,0.6553873006986666,2.081561664191156e-05,0.27397763238729245,1.2221174678028746e-05,-0.17429276059500076
486,0.4745,219.546,658.066,0.0838742,379.947,0.0564782,0.0158496,-0.0490328,0.242568,-0.191852,0.504917,2.18493e-05,1.24587e-05,0.384574,-0.04785010133035761,0.6568479963699811,2.1849538697660265e-05,0.2745179134349127,1.2458777610024896e-05,-0.17457097705257407
487,0.4755,219.487,658.003,-0.0517975,380.142,-0.0142648,0.00435918,-0.0491191,0.24299,-0.192188,0.505801,2.08997e-05,1.22676e-05,0.385252,-0.047932268321056126,0.6583132975664787,2.0899918400152373e-05,0.2750558734959716,1.2267675247201737e-05,-0.17484827461568497
488,0.4765,219.692,658.503,0.0857861,380.196,0.0575274,0.0160423,-0.0492054,0.243414,-0.192524,0.506681,2.19639e-05,1.25118e-05,0.385928,-0.0480144282210494,0.6597732555556366,2.196414120825274e-05,0.2755966118147566,1.2511878273002708e-05,-0.1751254790224659
489,0.4775,219.629,658.43,-0.0537822,380.392,-0.0153107,0.00423214,-0.0492916,0.243836,-0.19286,0.507564,2.09846e-05,1.23143e-05,0.386605,-0.04809648584060244,0.6612394825842587,2.09848201782048e-05,0.27613502718259464,1.2314375821276258e-05,-0.1754025903042119
490,0.4785,219.838,658.937,0.0875712,380.444,0.0585119,0.0162238,-0.0493777,0.244259,-0.193196,0.508444,2.20774e-05,1.25648e-05,0.387281,-0.048178441204942524,0.6627020167495832,2.2077643707651973e-05,0.2766749464839746,1.2564878937526558e-05,-0.17567960849220798
491,0.4795,219.771,658.856,-0.0556331,380.642,-0.0162887,0.00411653,-0.0494638,0.24468,-0.193531,0.509325,2.10701e-05,1.23613e-05,0.387957,-0.04826038951322953,0.6641675026781035,2.107032197606884e-05,0.2772125397918954,1.236137640114876e-05,-0.17595570957384976
492,0.4805,219.983,659.37,0.0892169,380.691,0.0594248,0.016393,-0.0495498,0.245103,-0.193866,0.510203,2.21895e-05,1.26176e-05,0.388632,-0.048342235600299155,0.6656292833732746,2.218974618872771e-05,0.27775291497752175,1.2617679602255905e-05,-0.17623171817712024
493,0.4815,219.912,659.281,-0.0573379,380.89,-0.017192,0.00401336,-0.0496358,0.245524,-0.194201,0.511084,2.11565e-05,1.24085e-05,0.389307,-0.04842407464890797,0.667097349360039,2.1156723800430655e-05,0.2782909622057217,1.2408576985700748e-05,-0.17650763433299432
494,0.4825,220.127,659.801,0.0907112,380.937,0.0602597,0.0165491,-0.0497217,0.245946,-0.194536,0.511961,2.23003e-05,1.26702e-05,0.389981,-0.04850581151024724,0.6685600350293444,2.230054865348663e-05,0.27883051482936905,1.2670280267412792e-05,-0.1767834580724369
495,0.4835,220.053,659.704,-0.0588852,381.137,-0.0180146,0.00392356,-0.0498075,0.246366,-0.194871,0.51284,2.12437e-05,1.2456e-05,0.390655,-0.048587446209441,0.6700273440879911,2.1243925649061524e-05,0.2793677364542413,1.2456077576272762e-05,-0.1770591894264022
496,0.4845,220.27,660.229,0.0920432,381.182,0.0610106,0.016691,-0.0498933,0.246787,-0.195205,0.513715,2.24097e-05,1.27226e-05,0.391328,-0.048669073904678006,0.6714892575079163,2.240995109925592e-05,0.2799064636654096,1.2722680932553132e-05,-0.17733400576025127
497,0.4855,220.194,660.126,-0.0602647,381.384,-0.0187508,0.00384796,-0.049979,0.247207,-0.195539,0.514594,2.1332e-05,1.25038e-05,0.392001,-0.04875059947162397,0.672959142485072,2.1332227528647607e-05,0.280444137283705,1.2503878172864802e-05,-0.17760873032077173
498,0.4865,220.413,660.655,0.0932031,381.427,0.0616721,0.016818,-0.0500647,0.247628,-0.195873,0.515468,2.25175e-05,1.27748e-05,0.392673,-0.04883211805212817,0.6744219479284659,2.251775352091201e-05,0.28098331775502694,1.2774881598121013e-05,-0.17788336313861097
499,0.4875,220.334,660.547,-0.0614673,381.629,-0.0193956,0.0037873,-0.0501503,0.248047,-0.196206,0.516345,2.14212e-05,1.25519e-05,0.393345,-0.04891353453814751,0.6758910600883199,2.1421429435619643e-05,0.2815201622262289,1.2551978775476869e-05,-0.1781570824018991
500,0.4885,220.555,661.08,0.0941821,381.67,0.0622395,0.0169295,-0.0502359,0.248467,-0.19654,0.517218,2.26237e-05,1.28267e-05,0.394017,-0.048994944055214096,0.6773547517922456,2.2623955917788763e-05,0.28205851374026825,1.2826782262553849e-05,-0.17843153210072582
501,0.4895,220.473,660.966,-0.0624848,381.873,-0.0199444,0.00374222,-0.0503214,0.248885,-0.196873,0.518094,2.15115e-05,1.26003e-05,0.394688,-0.04907625151155404,0.6788247583236724,2.1511731373990983e-05,0.2825945262178149,1.2600379384108962e-05,-0.17870506885413917
502,0.4905,220.696,661.502,0.0949728,381.913,0.0627085,0.0170248,-0.0504069,0.249305,-0.197206,0.518966,2.27283e-05,1.28783e-05,0.395358,-0.049157552016403705,0.6802893319742391,2.2728558289664136e-05,0.2831333290595026,1.2878382925629595e-05,-0.17897851453497804
503,0.4915,220.613,661.383,-0.0633106,382.116,-0.0203937,0.00371323,-0.0504922,0.249723,-0.197539,0.519841,2.1603e-05,1.26491e-05,0.396029,-0.04923865541810746,0.6817602285631279,2.1603233346434436e-05,0.283669790903764,1.2649180000101623e-05,-0.1792518691735645
504,0.4925,220.837,661.922,0.0955693,382.154,0.0630759,0.0171034,-0.0505776,0.250142,-0.197871,0.520712,2.28312e-05,1.29297e-05,0.396698,-0.04931984697000613,0.6832256798335887,2.283146063386532e-05,0.28420776124306824,1.2929783588910837e-05,-0.17952431232493327
505,0.4935,220.752,661.8,-0.0639395,382.357,-0.0207404,0.00370071,-0.0506628,0.250559,-0.198204,0.521585,2.16957e-05,1.26983e-05,0.397368,-0.049400841468629664,0.6846957774563287,2.169593535339409e-05,0.28474338754982975,1.2698380623676897e-05,-0.1797974852431139
506,0.4945,220.977,662.34,0.0959671,382.395,0.0633389,0.0171651,-0.0507481,0.250978,-0.198535,0.522455,2.29323e-05,1.29808e-05,0.398036,-0.04948192411862817,0.6861621005407692,2.2932562947275414e-05,0.2852818078203827,1.2980884251057034e-05,-0.18006892734935154
507,0.4955,220.89,662.215,-0.0643678,382.598,-0.0209821,0.00370494,-0.0508332,0.251395,-0.198868,0.523327,2.17896e-05,1.27477e-05,0.398705,-0.04956280976515259,0.6876330751441591,2.1789837395091993e-05,0.28581788209796266,1.2747781252375745e-05,-0.18034191894092155
508,0.4965,221.116,662.756,0.0961629,382.635,0.0634958,0.0172096,-0.0509183,0.251813,-0.199199,0.524196,2.30317e-05,1.30316e-05,0.399373,-0.04964368852860135,0.6891002656884204,2.3031965231679052e-05,0.28635546631995457,1.3031684911624097e-05,-0.18061318086942635
509,0.4975,221.029,662.629,-0.0645931,382.838,-0.0211176,0.00372606,-0.0510033,0.252229,-0.199531,0.525067,2.18847e-05,1.27976e-05,0.400041,-0.049724465382011585,0.6905721129162523,2.1884939471750187e-05,0.2868907015151454,1.2797681889553658e-05,-0.1808851721403284
510,0.4985,221.254,663.169,0.0961554,382.874,0.0635453,0.0172368,-0.0510883,0.252647,-0.199862,0.525934,2.31293e-05,1.30821e-05,0.400707,-0.049805235369680956,0.6920384745140495,2.3129567484403424e-05,0.2874287342693904,1.3082185571056115e-05,-0.1811562542817805
511,0.4995,221.167,663.042,-0.0646148,383.077,-0.021146,0.00376407,-0.0511732,0.253062,-0.200193,0.526805,2.19811e-05,1.28478e-05,0.401374,-0.04988590348078836,0.693512882036615,2.198134158604148e-05,0.28796312807315694,1.2847882533417732e-05,-0.1814272467098922
512,0.5005,221.391,663.581,0.0959446,383.112,0.0634873,0.0172468,-0.0512581,0.253479,-0.200523,0.527671,2.32252e-05,1.31323e-05,0.40204,-0.049966564743463726,0.6949800994058839,2.3225469707011115e-05,0.28850032069444076,1.3132386229131043e-05,-0.18169733115209397
513,0.5015,221.304,663.453,-0.0644337,383.314,-0.0210677,0.00381885,-0.0513429,0.253894,-0.200854,0.52854,2.20787e-05,1.28983e-05,0.402706,-0.05004712416300583,0.6964536772891257,2.2078943736181245e-05,0.28903515929886314,1.2898383183523876e-05,-0.18196814451339882
514,0.5025,221.528,663.991,0.095532,383.349,0.0633224,0.0172397,-0.0514277,0.254311,-0.201184,0.529405,2.33193e-05,1.31823e-05,0.403371,-0.05012767675139884,0.6979217445675416,2.331957189705136e-05,0.28957279905038824,1.3182386886967379e-05,-0.18223805048877406
515,0.5035,221.441,663.864,-0.0640521,383.551,-0.0208835,0.00389015,-0.0515124,0.254725,-0.201514,0.530272,2.21776e-05,1.29493e-05,0.404036,-0.05020812753003934,0.6993944810590973,2.2177845924842288e-05,0.29010679271825723,1.2949383842553175e-05,-0.18250786740987213
516,0.5045,221.664,664.398,0.0949208,383.586,0.0630519,0.0172159,-0.0515971,0.255141,-0.201844,0.531136,2.34116e-05,1.32319e-05,0.4047,-0.050288571494787604,0.7008633923690404,2.3411874053635984e-05,0.29064358878986973,1.3231987541884038e-05,-0.1827775953060763
517,0.5055,221.578,664.273,-0.0634739,383.786,-0.0205951,0.0039776,-0.0516816,0.255555,-0.202174,0.532003,2.22777e-05,1.30005e-05,0.405365,-0.05036881872000332,0.7023386803751617,2.227794814979589e-05,0.291178025856468,1.3000584506928092e-05,-0.1830472342067596
518,0.5065,221.799,664.804,0.0941155,383.822,0.0626781,0.0171757,-0.0517662,0.25597,-0.202503,0.532866,2.35022e-05,1.32812e-05,0.406028,-0.05044915411970419,0.7038084327632621,2.350247617877166e-05,0.2917139759391487,1.3281288195443608e-05,-0.18331596745766188
519,0.5075,221.715,664.681,-0.0627043,384.021,-0.0202053,0.0040807,-0.0518506,0.256384,-0.202833,0.533731,2.23789e-05,1.30521e-05,0.406691,-0.05052929282919538,0.7052828646574627,2.2379150409479465e-05,0.29224885623776964,1.3052185179107667e-05,-0.1835854287248464
520,0.5085,221.934,665.207,0.0931221,384.056,0.0622038,0.0171197,-0.0519351,0.256799,-0.203161,0.534593,2.35912e-05,1.33303e-05,0.407354,-0.05060951971431771,0.7067534522189771,2.359147827446506e-05,0.292785250807283,1.3330388848764585e-05,-0.18385316879245317
521,0.5095,221.851,665.087,-0.06175,384.254,-0.019717,0.00419885,-0.0520194,0.257211,-0.20349,0.535457,2.24813e-05,1.3104e-05,0.408016,-0.050689549958483626,0.7082287244275147,2.2481552706343777e-05,0.2933179880669554,1.3104085857751357e-05,-0.18412163693448946
522,0.5105,222.068,665.609,0.0919479,384.29,0.0616326,0.0170485,-0.0521038,0.257626,-0.203819,0.536317,2.36785e-05,1.33791e-05,0.408678,-0.050769668379422206,0.7096984330146319,2.3678780337821337e-05,0.29385482641825633,1.3379189500506428e-05,-0.18439001676503508
523,0.5115,221.986,665.493,-0.0606188,384.486,-0.0191344,0.00433135,-0.052188,0.258038,-0.204147,0.537181,2.25848e-05,1.31563e-05,0.409339,-0.05084959020858837,0.7111762507861017,2.2585055038604196e-05,0.2943880044338698,1.315638654442175e-05,-0.1846574929710404
524,0.5125,222.201,666.009,0.0906015,384.524,0.060969,0.0169629,-0.0522722,0.258451,-0.204475,0.53804,2.37642e-05,1.34276e-05,0.41,-0.05092950530861995,0.7126467826885559,2.3764482370847162e-05,0.2949226970861336,1.3427690150669136e-05,-0.18492488145923658
525,0.5135,222.122,665.897,-0.0593199,384.718,-0.018462,0.00447738,-0.0523563,0.258863,-0.204803,0.538902,2.26893e-05,1.32088e-05,0.410661,-0.051009318781019886,0.7141237206840569,2.2689557404032e-05,0.29545631515510706,1.3208887236659805e-05,-0.18519218225839051
526,0.5145,222.333,666.406,0.0890925,384.756,0.0602177,0.0168637,-0.0524404,0.259276,-0.205131,0.53976,2.38485e-05,1.34759e-05,0.41132,-0.05108912554138911,0.7155950699549782,2.3848784377777932e-05,0.29599144911082154,1.3475990800371207e-05,-0.1854593953972593
527,0.5155,222.257,666.3,-0.0578634,384.948,-0.017705,0.00463606,-0.0525244,0.259687,-0.205459,0.540621,2.27947e-05,1.32616e-05,0.41198,-0.05116883070717981,0.7170728333960794,2.2794959801064607e-05,0.2965242110714894,1.3261687935361977e-05,-0.18572652090459085
528,0.5165,222.465,666.802,0.0874316,384.987,0.0593844,0.0167519,-0.0526084,0.2601,-0.205786,0.541478,2.39313e-05,1.35239e-05,0.412639,-0.05124852917801781,0.7185449955456786,2.3931586355940837e-05,0.29705978615930495,1.3523991448272099e-05,-0.18599274480227557
529,0.5175,222.392,666.702,-0.0562603,385.178,-0.016869,0.00480643,-0.0526923,0.260511,-0.206113,0.542338,2.2901e-05,1.33147e-05,0.413298,-0.051328126087282655,0.7200235799420083,2.2901262229924058e-05,0.29759298729674444,1.3314788640972353e-05,-0.18625888165897764
530,0.5185,222.596,667.196,0.0856304,385.218,0.0584748,0.0166283,-0.0527762,0.260923,-0.206439,0.543194,2.40129e-05,1.35717e-05,0.413956,-0.051407716318647045,0.7214965504678821,2.4013188312022038e-05,0.2981277057519487,1.3571792095934399e-05,-0.18652411802767976
531,0.5195,222.526,667.102,-0.0545226,385.406,-0.0159601,0.00498746,-0.05286,0.261333,-0.206766,0.544052,2.30081e-05,1.33681e-05,0.414615,-0.051487205021396476,0.7229742283413403,2.3008364688381633e-05,0.29866004723385364,1.3368189353490934e-05,-0.18679008115374363
532,0.5205,222.726,667.588,0.0837012,385.448,0.0574955,0.0164941,-0.0529438,0.261744,-0.207093,0.544907,2.40931e-05,1.36194e-05,0.415272,-0.05156668706327161,0.7244480012547123,2.4093390241120005e-05,0.29919390621377207,1.3619492744476602e-05,-0.1870559573240833
533,0.5215,222.66,667.501,-0.0526627,385.634,-0.0149848,0.00517807,-0.0530275,0.262154,-0.207419,0.545764,2.31159e-05,1.34216e-05,0.415929,-0.051646067609442126,0.7259264866322825,2.3116167174430657e-05,0.29972668492749266,1.3421690070014591e-05,-0.18732093388846893
534,0.5225,222.856,667.979,0.0816568,385.677,0.0564532,0.0163503,-0.0531111,0.262565,-0.207745,0.546618,2.41723e-05,1.36668e-05,0.416585,-0.05172534668427853,0.7274010574039669,2.4172592152371664e-05,0.3002609823856044,1.3666893391217627e-05,-0.18758582408457347
535,0.5235,222.793,667.899,-0.0506939,385.86,-0.01395,0.00537714,-0.0531947,0.262974,-0.208071,0.547474,2.32242e-05,1.34754e-05,0.417242,-0.051804619131661234,0.7288803457541913,2.3224469683835736e-05,0.30079289789670716,1.3475490793668499e-05,-0.1878506279405482
536,0.5245,222.986,668.367,0.0795106,385.905,0.0553547,0.016198,-0.0532783,0.263384,-0.208396,0.548327,2.42504e-05,1.37141e-05,0.417897,-0.051883884952144355,0.7303557098424458,2.425069404332625e-05,0.30132633233143147,1.3714194038616512e-05,-0.18811453359947494
537,0.5255,222.926,668.296,-0.0486294,386.086,-0.0128626,0.00558354,-0.0533617,0.263793,-0.208722,0.549182,2.33331e-05,1.35293e-05,0.418553,-0.05196295453889177,0.731835796621294,2.3333372218825588e-05,0.3018586836597805,1.3529391521327483e-05,-0.18837916512423936
538,0.5265,223.114,668.755,0.0772762,386.133,0.0542072,0.0160385,-0.0534452,0.264203,-0.209047,0.550034,2.43276e-05,1.37613e-05,0.419207,-0.05204211232730416,0.7333119494718343,2.43278959184412e-05,0.3023925551562592,1.3761394687117345e-05,-0.18864289903649178
539,0.5275,223.059,668.691,-0.0464831,386.311,-0.0117299,0.00579611,-0.0535285,0.264611,-0.209372,0.550888,2.34423e-05,1.35834e-05,0.419862,-0.052121073930550765,0.7347928301227187,2.3442574772936098e-05,0.3029240397342441,1.3583492254776175e-05,-0.1889065472491498
540,0.5285,223.242,669.14,0.0749674,386.359,0.0530181,0.0158729,-0.0536118,0.26502,-0.209696,0.551738,2.44039e-05,1.38083e-05,0.420516,-0.052200028956569944,0.7362680308998337,2.4404197777494474e-05,0.30345704465857226,1.3808395334935497e-05,-0.1891692989597653
541,0.5295,223.191,669.085,-0.0442687,386.535,-0.0105591,0.00601368,-0.0536951,0.265428,-0.210021,0.552591,2.35518e-05,1.36377e-05,0.42117,-0.052278977405909255,0.7377496993719552,2.3552077345723177e-05,0.30398896363688577,1.363779299379253e-05,-0.18943277612024567
542,0.5305,223.37,669.524,0.0725982,386.585,0.0517946,0.0157022,-0.0537783,0.265836,-0.210345,0.553441,2.44795e-05,1.38553e-05,0.421823,-0.052357824514903895,0.739227414556404,2.44797996253876e-05,0.30452109968242125,1.385539598519614e-05,-0.18969535736032483
543,0.5315,223.323,669.478,-0.0419999,386.758,-0.00935734,0.00623511,-0.0538614,0.266243,-0.210669,0.554292,2.36616e-05,1.3692e-05,0.422476,-0.05243657030775373,0.7407081270399922,2.366187993785296e-05,0.3050521478309596,1.369209373591751e-05,-0.189957853537863
544,0.5325,223.497,669.906,0.0701821,386.81,0.050544,0.0155278,-0.0539445,0.266651,-0.210993,0.555141,2.45544e-05,1.39021e-05,0.423128,-0.05251530955709993,0.7421866157695067,2.4554701461676487e-05,0.3055847177441491,1.3902196634552055e-05,-0.19022026468041608
545,0.5335,223.454,669.869,-0.0396903,386.98,-0.00813192,0.00645927,-0.0540276,0.267058,-0.211317,0.555991,2.37714e-05,1.37464e-05,0.42378,-0.05259404226348652,0.7436681039361839,2.377168254197315e-05,0.30611619887334407,1.3746494482269611e-05,-0.19048259081553087
546,0.5345,223.623,670.286,0.0677326,387.034,0.0492734,0.0153506,-0.0541106,0.267466,-0.21164,0.556838,2.46289e-05,1.3949e-05,0.424431,-0.052672673694729166,0.7451456164584394,2.4629203293935475e-05,0.30664920300793397,1.3949097287691004e-05,-0.19074402271517277
547,0.5355,223.585,670.259,-0.0373532,387.201,-0.00688984,0.00668506,-0.0541935,0.267871,-0.211963,0.557688,2.38812e-05,1.38009e-05,0.425082,-0.05275120387495891,0.7466296208449437,2.388148515808375e-05,0.3071785031111882,1.3800995232848834e-05,-0.191005370185947
548,0.5365,223.749,670.666,0.0652629,387.258,0.0479899,0.0151718,-0.0542764,0.268279,-0.212286,0.558534,2.47029e-05,1.39957e-05,0.425733,-0.05282972754530657,0.7481078947258615,2.4703205119047666e-05,0.30771194075433694,1.3995797940369314e-05,-0.19126663325511983
549,0.5375,223.715,670.647,-0.0350013,387.421,-0.00563795,0.00691141,-0.0543592,0.268684,-0.212609,0.559382,2.39909e-05,1.38554e-05,0.426383,-0.05290814999713145,0.7495909189339827,2.3991187783956036e-05,0.3082416713535481,1.3855495986536681e-05,-0.1915278119499485
550,0.5385,223.875,671.043,0.0627856,387.48,0.0467,0.0149925,-0.054442,0.269091,-0.212932,0.560227,2.47766e-05,1.40425e-05,0.427033,-0.052986565955846276,0.7510699480622831,2.4776906942580723e-05,0.3087742340829529,1.4042598596386568e-05,-0.19178890629768153
551,0.5395,223.845,671.034,-0.0326471,387.641,-0.00438283,0.00713731,-0.0545247,0.269495,-0.213254,0.561074,2.41004e-05,1.391e-05,0.427682,-0.053064880728481145,0.7525537326023377,2.4100690416917203e-05,0.30930308569435483,1.391009674445165e-05,-0.19204910837507105
552,0.5405,224.0,671.419,0.0603127,387.702,0.0454105,0.0148135,-0.0546074,0.269901,-0.213576,0.561918,2.485e-05,1.40893e-05,0.428331,-0.053143189024752235,0.7540335123318584,2.485030876386851e-05,0.3098347706718938,1.4089399254624269e-05,-0.19230922668087946
553,0.5415,223.975,671.42,-0.0303022,387.86,-0.00313077,0.0073618,-0.0546899,0.270306,-0.213898,0.562764,2.42096e-05,1.39646e-05,0.42898,-0.05322130148947424,0.7555180525552634,2.420989305473853e-05,0.3103653611913435,1.3964697505475243e-05,-0.19256926124207707
554,0.5425,224.124,671.794,0.0578556,387.923,0.0441272,0.0146359,-0.0547725,0.270711,-0.21422,0.563607,2.49233e-05,1.41361e-05,0.429628,-0.05329950218023827,0.7569985782274602,2.4923610588034606e-05,0.31089616664347464,1.4136199915082415e-05,-0.1928292120856253
555,0.5435,224.104,671.804,-0.0279777,388.078,-0.00188769,0.00758398,-0.054855,0.271115,-0.214542,0.564452,2.43185e-05,1.40191e-05,0.430275,-0.05337760174965678,0.7584838694732359,2.431879569719797e-05,0.3114258756888211,1.4019198268044875e-05,-0.19308907923847674
556,0.5445,224.248,672.168,0.0554251,388.143,0.042856,0.0144606,-0.0549375,0.27152,-0.214863,0.565294,2.49965e-05,1.41829e-05,0.430923,-0.05345569487612667,0.759965136417202,2.4996812415079006e-05,0.3119571107363108,1.4183000577761007e-05,-0.193348056076035
557,0.5455,224.232,672.186,-0.0256839,388.295,-0.000659133,0.00780302,-0.0550198,0.271924,-0.215184,0.566138,2.44269e-05,1.40736e-05,0.43157,-0.053533592266916785,0.76145117401199,2.442719833917195e-05,0.3124872484896639,1.4073699033501086e-05,-0.19360694979536963
558,0.5465,224.372,672.54,0.0530309,388.362,0.0416023,0.0142883,-0.0551022,0.272328,-0.215505,0.566979,2.50697e-05,1.42298e-05,0.432216,-0.05361157788586235,0.7629331775444701,2.5070014247452477e-05,0.3130176004619385,1.4229901244000587e-05,-0.19386576042315717
559,0.5475,224.36,672.568,-0.0234301,388.511,0.000549768,0.00801815,-0.0551845,0.272731,-0.215826,0.567821,2.45348e-05,1.4128e-05,0.432862,-0.05368946244800865,0.7644181923834745,2.4535100980660474e-05,0.313546853192187,1.412809980072538e-05,-0.19412448798606585
560,0.5485,224.495,672.911,0.0506822,388.58,0.040371,0.0141198,-0.0552667,0.273135,-0.216146,0.568661,2.51431e-05,1.42767e-05,0.433507,-0.05376724597724858,0.7659009263261478,2.5143416090278592e-05,0.3140776333312454,1.4276801912460613e-05,-0.1943823268934849
561,0.5495,224.488,672.947,-0.021225,388.727,0.00173433,0.00822869,-0.0553489,0.273537,-0.216467,0.569502,2.46421e-05,1.41824e-05,0.434153,-0.053845023112945256,0.767386673674378,2.4642403618990727e-05,0.31460599873417494,1.418250057061421e-05,-0.1946408886651676
562,0.5505,224.618,673.28,0.048387,388.798,0.0391664,0.0139557,-0.055431,0.27394,-0.216787,0.570342,2.52165e-05,1.43238e-05,0.434797,-0.05392269924789872,0.7688719021889092,2.5216817938655822e-05,0.31513589171792944,1.4323902586044213e-05,-0.19489856235080616
563,0.5515,224.614,673.325,-0.0190763,388.942,0.00289035,0.00843401,-0.0555131,0.274342,-0.217107,0.571182,2.47488e-05,1.42367e-05,0.435442,-0.054000369005903215,0.7703583788195278,2.474910625416271e-05,0.31566468262625147,1.4236801342271121e-05,-0.1951561535940569
564,0.5525,224.74,673.649,0.0461527,389.015,0.0379926,0.0137967,-0.0555951,0.274745,-0.217426,0.57202,2.52902e-05,1.43709e-05,0.436086,-0.05407793779528092,0.7718425609264266,2.5290519799714417e-05,0.31619500234559594,1.4371003261848259e-05,-0.1954128578345572
565,0.5535,224.741,673.702,-0.0169909,389.156,0.00401405,0.00863359,-0.0556771,0.275146,-0.217746,0.572859,2.48548e-05,1.42909e-05,0.436729,-0.05415550022427862,0.7733297606280796,2.485510888305953e-05,0.31672290237841905,1.4291002115474072e-05,-0.19567028452958224
566,0.5545,224.862,674.016,0.0439856,389.23,0.0368531,0.0136433,-0.055759,0.275549,-0.218065,0.573696,2.53641e-05,1.44181e-05,0.437372,-0.054232961716718875,0.7748146589809963,2.53644216714477e-05,0.31725364864626737,1.4418203941213292e-05,-0.19592682478847046
567,0.5555,224.867,674.077,-0.0149746,389.369,0.00510219,0.00882696,-0.0558409,0.27595,-0.218384,0.574533,2.49601e-05,1.43449e-05,0.438015,-0.054310416865322675,0.7763008007141166,2.4960411505903224e-05,0.31778197328138424,1.4345002888660474e-05,-0.19618328322406764
568,0.5565,224.984,674.382,0.0418911,389.446,0.0357509,0.0134958,-0.0559227,0.276351,-0.218703,0.575369,2.54383e-05,1.44654e-05,0.438657,-0.0543877711093913,0.7777864090812874,2.543862355630644e-05,0.31831050981716325,1.4465504624361358e-05,-0.19643965986247125
569,0.5575,224.992,674.451,-0.0130324,389.582,0.00615195,0.00901372,-0.0560044,0.276752,-0.219022,0.576206,2.50646e-05,1.43989e-05,0.439299,-0.05446502447264889,0.7792750392104901,2.5064914119798942e-05,0.31883925833859306,1.4399003664733456e-05,-0.19669595472977042
570,0.5585,225.105,674.747,0.0398738,389.66,0.0346886,0.0133547,-0.0560862,0.277153,-0.21934,0.577041,2.55128e-05,1.45129e-05,0.439941,-0.05454236607033247,0.7807613543184304,2.551312545429063e-05,0.31936821893069745,1.4513005312632998e-05,-0.19695136480381226
571,0.5595,225.117,674.823,-0.0111686,389.793,0.007161,0.00919358,-0.0561678,0.277553,-0.219659,0.577877,2.51683e-05,1.44527e-05,0.440582,-0.05461951226565365,0.7822506932675803,2.5168616724302595e-05,0.319896071781802,1.445280444078989e-05,-0.19720749646326807
572,0.5605,225.226,675.11,0.0379375,389.873,0.0336682,0.0132202,-0.0562494,0.277953,-0.219977,0.57871,2.55877e-05,1.45605e-05,0.441222,-0.05469665216610198,0.7837359266088766,2.5588027368073085e-05,0.3204241358162807,1.456060600468767e-05,-0.19746274389290053
573,0.5615,225.241,675.194,-0.00938634,390.004,0.00812749,0.00936627,-0.0563309,0.278353,-0.220294,0.579545,2.52712e-05,1.45064e-05,0.441863,-0.054773691249565104,0.7852259681133487,2.5271519319414182e-05,0.32095241111862416,1.4506505218392363e-05,-0.19771710788426378
574,0.5625,225.347,675.473,0.0360848,390.086,0.0326914,0.0130927,-0.0564125,0.278753,-0.220612,0.580378,2.5663e-05,1.46082e-05,0.442502,-0.054850818569521675,0.7867136808911332,2.5663329297653803e-05,0.32148089777335587,1.460830670030333e-05,-0.19797219328322857
575,0.5635,225.365,675.563,-0.00768809,390.215,0.00904996,0.00953163,-0.0564939,0.279152,-0.22093,0.581211,2.53732e-05,1.456e-05,0.443142,-0.05492775058171484,0.7882026334499592,2.5373521902460894e-05,0.3220082738560994,1.4560105997318828e-05,-0.19822719757793272
576,0.5645,225.467,675.834,0.034318,390.298,0.0317594,0.0129721,-0.0565753,0.279551,-0.221247,0.582043,2.57387e-05,1.4656e-05,0.443781,-0.055004676331896984,0.7896910371310617,2.573903124325483e-05,0.32253586040388504,1.4656107399702023e-05,-0.1984813192758833
577,0.5655,225.488,675.931,-0.00607555,390.424,0.00992741,0.00968955,-0.0566566,0.27995,-0.221564,0.582875,2.54744e-05,1.46134e-05,0.44442,-0.055081501328732685,0.7911806796793244,2.547472447522736e-05,0.32306365750070465,1.4613506776228746e-05,-0.1987353604300226
578,0.5665,225.587,676.194,0.0326382,390.509,0.0308729,0.0128587,-0.0567379,0.280349,-0.221881,0.583706,2.58149e-05,1.4704e-05,0.445058,-0.05515832007995014,0.7926697694552474,2.5815233207326926e-05,0.3235916652305848,1.4704108104446334e-05,-0.19898932106587874
579,0.5675,225.611,676.297,-0.00454964,390.633,0.0107592,0.00983997,-0.0568191,0.280747,-0.222197,0.584537,2.55746e-05,1.46667e-05,0.445696,-0.05523503810956554,0.7941600971790705,2.5574927032812056e-05,0.32411855955836266,1.4666807556462658e-05,-0.1992424004517731
580,0.5685,225.706,676.553,0.031046,390.719,0.0300325,0.0127524,-0.0569003,0.281145,-0.222514,0.585367,2.58914e-05,1.47521e-05,0.446333,-0.05531174990992971,0.7956498682291897,2.5891735185190612e-05,0.32464566363181935,1.4752208812751633e-05,-0.1994962003814157
581,0.5695,225.733,676.662,-0.00311061,390.842,0.0115451,0.0099829,-0.0569815,0.281543,-0.22283,0.586197,2.56741e-05,1.47198e-05,0.44697,-0.05538845548154869,0.797140876302574,2.567442958256727e-05,0.32517297753445074,1.4719908336680021e-05,-0.19974911961875097
582,0.5705,225.825,676.911,0.0295413,390.928,0.0292381,0.0126532,-0.0570625,0.28194,-0.223146,0.587026,2.59684e-05,1.48003e-05,0.447606,-0.05546496591794026,0.7986313237941562,2.5968737181747414e-05,0.32569917564994677,1.4800409525062008e-05,-0.20000195894623374
583,0.5715,225.855,677.025,-0.00175809,391.049,0.0122853,0.0101184,-0.0571436,0.282338,-0.223462,0.587855,2.57726e-05,1.47728e-05,0.448243,-0.05554156460308557,0.8001230073789987,2.5772932116252534e-05,0.32622690893381256,1.4772909118443422e-05,-0.20025471838911146
584,0.5725,225.944,677.268,0.0281234,391.137,0.0284895,0.0125611,-0.0572246,0.282735,-0.223778,0.588683,2.60458e-05,1.48487e-05,0.448878,-0.05561806263814051,0.8016141264672203,2.6046139194768614e-05,0.32675352554313974,1.4848810242495958e-05,-0.20050739797262374
585,0.5735,225.976,677.387,-0.000491137,391.256,0.01298,0.0102465,-0.0573055,0.283131,-0.224093,0.589511,2.58703e-05,1.48256e-05,0.449514,-0.055694460046556205,0.8031064807133319,2.587063463899142e-05,0.32727902398107833,1.4825709899746187e-05,-0.20075919848160007
586,0.5745,226.063,677.623,0.0267912,391.345,0.0277861,0.0124759,-0.0573863,0.283528,-0.224408,0.590337,2.61236e-05,1.48972e-05,0.450149,-0.055770756851752035,0.8045964619439345,2.612394122425421e-05,0.3278060583630016,1.4897310963934984e-05,-0.20101091968590734
587,0.5755,226.097,677.747,0.000691724,391.462,0.0136301,0.0103675,-0.0574672,0.283924,-0.224723,0.591164,2.59672e-05,1.48783e-05,0.450783,-0.055847141907705566,0.8060894804960401,2.596753715056188e-05,0.3283319736864747,1.4878410682372945e-05,-0.20126256161052236
588,0.5765,226.181,677.978,0.0255428,391.552,0.0271271,0.0123976,-0.0575479,0.284321,-0.225038,0.59199,2.62018e-05,1.49458e-05,0.451417,-0.05592333196904331,0.8075819267023581,2.6202143270204203e-05,0.3288594261724189,1.4945911688934999e-05,-0.20151412428041438
589,0.5775,226.217,678.106,0.0017924,391.668,0.0142363,0.0104814,-0.0576287,0.284716,-0.225353,0.592816,2.60632e-05,1.49309e-05,0.452051,-0.05599961028213485,0.8090756061785127,2.6063539648069067e-05,0.32938442932705403,1.493101146654574e-05,-0.20176560772054475
590,0.5785,226.298,678.332,0.0243762,391.758,0.0265115,0.0123258,-0.0577093,0.285112,-0.225667,0.59364,2.62804e-05,1.49945e-05,0.452685,-0.056075693647345326,0.8105668988061869,2.6280745332840638e-05,0.3299109698092022,1.4994612418162134e-05,-0.20201621397247993
591,0.5795,226.337,678.464,0.00281321,391.872,0.0148,0.0105885,-0.0577899,0.285507,-0.225982,0.594465,2.61583e-05,1.49833e-05,0.453318,-0.05615177088048362,0.8120612328257286,2.6158642131290932e-05,0.33043638840561806,1.49834122502579e-05,-0.20226753927926466
592,0.5805,226.416,678.684,0.0232889,391.964,0.0259379,0.0122604,-0.0578705,0.285902,-0.226296,0.595289,2.63594e-05,1.50434e-05,0.45395,-0.05622784198204411,0.8135549866236229,2.635974741194147e-05,0.33096201458337404,1.5043513152512844e-05,-0.202517987949432
593,0.5815,226.456,678.82,0.00375678,392.077,0.0153224,0.0106891,-0.057951,0.286297,-0.226609,0.596112,2.62527e-05,1.50355e-05,0.454582,-0.05630381258290684,0.8150481567328336,2.6253044605129006e-05,0.3314878484244812,1.5035613033731465e-05,-0.20276756075902158
594,0.5825,226.533,679.035,0.022278,392.169,0.025405,0.0122012,-0.0580315,0.286692,-0.226923,0.596935,2.64388e-05,1.50924e-05,0.455214,-0.056379777068382375,0.8165425562268664,2.6439149508172832e-05,0.3320138900109826,1.509251389086863e-05,-0.2030178524470917
595,0.5835,226.574,679.174,0.00462605,392.28,0.015805,0.0107833,-0.0581119,0.287086,-0.227237,0.597757,2.63463e-05,1.50877e-05,0.455845,-0.056455641084531716,0.8180363680806448,2.6346647066910478e-05,0.33253880688548065,1.5087813819869567e-05,-0.20326806555590937
596,0.5845,226.65,679.386,0.0213404,392.373,0.0249112,0.0121479,-0.0581923,0.28748,-0.22755,0.598579,2.65185e-05,1.51415e-05,0.456476,-0.05653149900145937,0.8195314083525775,2.651885161863987e-05,0.3330639306179757,1.514161463300745e-05,-0.20351740362794657
597,0.5855,226.693,679.528,0.00542415,392.483,0.0162494,0.0108715,-0.0582726,0.287874,-0.227863,0.5994,2.64392e-05,1.51397e-05,0.457107,-0.056607256480386114,0.8210258570260724,2.6439549518642025e-05,0.3335892612899858,1.5139814605769075e-05,-0.20376666366937957
598,0.5865,226.766,679.735,0.020473,392.576,0.0244547,0.0121002,-0.0583528,0.288268,-0.228176,0.600221,2.65985e-05,1.51907e-05,0.457737,-0.05668291354452759,0.8225215331457256,2.6598853743342588e-05,0.33411479898306107,1.519081537937339e-05,-0.20401584570462816
599,0.5875,226.81,679.88,0.0061544,392.685,0.0166574,0.0109539,-0.058433,0.288661,-0.228488,0.601041,2.65313e-05,1.51915e-05,0.458367,-0.05675856454121575,0.824016613702159,2.6531651958094926e-05,0.33463920913890743,1.5191615391429991e-05,-0.2042641540226564
600,0.5885,226.882,680.083,0.0196724,392.779,0.0240339,0.0120578,-0.0585132,0.289054,-0.228801,0.601861,2.66788e-05,1.524e-05,0.458996,-0.056834209470937314,0.8255129207274319,2.667915588228098e-05,0.3351638254284477,1.5240116129300318e-05,-0.2045131803677912
601,0.5895,226.928,680.23,0.00682026,392.886,0.0170308,0.0110308,-0.0585933,0.289447,-0.229113,0.60268,2.66227e-05,1.52433e-05,0.459625,-0.056909754025158965,0.8270086282181199,2.6623054387275857e-05,0.33568864793270836,1.5243416179755442e-05,-0.2047613335416083
602,0.5905,226.998,680.43,0.018935,392.98,0.0236468,0.0120205,-0.0586734,0.289839,-0.229425,0.603499,2.67593e-05,1.52893e-05,0.460254,-0.05698529252850404,0.828505561195011,2.675965803322633e-05,0.33621234051973903,1.5289416881891782e-05,-0.20500940930371203
603,0.5915,227.045,680.58,0.00742523,393.087,0.0173714,0.0111026,-0.0587534,0.290232,-0.229737,0.604317,2.67135e-05,1.52949e-05,0.460882,-0.057060730687535144,0.8300018906593836,2.6713856808635583e-05,0.3367375751714121,1.5295016967620256e-05,-0.20525740767825118
604,0.5925,227.113,680.776,0.0182572,393.182,0.0232917,0.0119879,-0.0588333,0.290624,-0.230049,0.605135,2.68401e-05,1.53388e-05,0.46151,-0.05713606852536657,0.8314994446220094,2.68404601986294e-05,0.3372616790185219,1.533891764005091e-05,-0.20550532868936666
605,0.5935,227.161,680.928,0.00797289,393.287,0.017681,0.0111695,-0.0589132,0.291016,-0.23036,0.605952,2.68036e-05,1.53465e-05,0.462137,-0.05721140034394512,0.8329963910876308,2.680395921972334e-05,0.33778598835461326,1.5346617758149605e-05,-0.20575237811396752
606,0.5945,227.228,681.121,0.0176356,393.382,0.0229667,0.0119598,-0.0589931,0.291407,-0.230672,0.606769,2.69211e-05,1.53884e-05,0.462764,-0.057286726143751854,0.8344945610582479,2.692146237603943e-05,0.3383091649504191,1.5388518401993068e-05,-0.20600014471839578
607,0.5955,227.277,681.274,0.0084668,393.487,0.0179616,0.0112319,-0.0590729,0.291799,-0.230983,0.607585,2.6893e-05,1.53979e-05,0.463391,-0.057361951661467514,0.835992119540836,2.689336161987299e-05,0.3388338849814865,1.5398018548218317e-05,-0.20624704027913865
608,0.5965,227.343,681.465,0.0170665,393.582,0.0226697,0.0119358,-0.0591527,0.29219,-0.231294,0.608401,2.70023e-05,1.5438e-05,0.464017,-0.05743717117642633,0.8374909005298603,2.7002664565456413e-05,0.3393574713849856,1.5438119166599762e-05,-0.2064938590673009
609,0.5975,227.392,681.62,0.0089105,393.685,0.0182151,0.0112899,-0.0592324,0.29258,-0.231604,0.609216,2.69819e-05,1.54492e-05,0.464643,-0.05751229044034123,0.8389890660333081,2.6982264014652202e-05,0.3398799226702043,1.5449319339611023e-05,-0.20673980784695956
610,0.5985,227.457,681.808,0.0165464,393.781,0.0223991,0.0119157,-0.059312,0.292971,-0.231915,0.61003,2.70837e-05,1.54877e-05,0.465269,-0.057587309476224924,0.8404866125518033,2.708406676665831e-05,0.3404039181544096,1.548781993498949e-05,-0.20698647340823617
611,0.5995,227.507,681.964,0.00930746,393.884,0.0184432,0.011344,-0.0593916,0.293361,-0.232225,0.610845,2.70702e-05,1.55005e-05,0.465894,-0.057662322540831035,0.8419872205557328,2.707056640116612e-05,0.340926777633461,1.550062013344622e-05,-0.20723226950111684
612,0.6005,227.571,682.149,0.0160719,393.979,0.022153,0.0118991,-0.0594712,0.293752,-0.232535,0.611658,2.71652e-05,1.55374e-05,0.466518,-0.05773732963463485,0.8434853650792746,2.71655689774164e-05,0.3414511825179898,1.553752070604375e-05,-0.20747798940901796
613,0.6015,227.622,682.307,0.00966108,394.081,0.0186478,0.0113945,-0.0595507,0.294142,-0.232845,0.612471,2.7158e-05,1.55516e-05,0.467143,-0.05781223653933998,0.8449847280895617,2.7158368781865505e-05,0.3419744505097977,1.5551720926820778e-05,-0.2077236331555533
614,0.6025,227.685,682.49,0.0156396,394.176,0.0219295,0.0118858,-0.0596301,0.294531,-0.233155,0.613284,2.72468e-05,1.55872e-05,0.467767,-0.05788704327789196,0.8464853105776267,2.7247171197508635e-05,0.3424965801186708,1.558732148110309e-05,-0.20796920076432912
615,0.6035,227.736,682.648,0.00997465,394.278,0.0188306,0.0114414,-0.0597095,0.294921,-0.233465,0.614096,2.72453e-05,1.56027e-05,0.46839,-0.05796184407702465,0.8479852655491185,2.7245671156528317e-05,0.3430202558950559,1.5602821722859872e-05,-0.2082146922589445
616,0.6045,227.798,682.83,0.0152463,394.373,0.021727,0.0118756,-0.0597889,0.29531,-0.233774,0.614907,2.73285e-05,1.56371e-05,0.469013,-0.05803663893720967,0.8494845894931602,2.732887342693502e-05,0.3435427924013603,1.5637222260167505e-05,-0.2084593161227032
617,0.6055,227.85,682.989,0.0102514,394.474,0.0189933,0.0114853,-0.0598682,0.295699,-0.234083,0.615719,2.7332e-05,1.56537e-05,0.469636,-0.05811133367005661,0.8509869808681776,2.7332373522481745e-05,0.34406553221390634,1.565382251977887e-05,-0.20870386440936517
618,0.6065,227.911,683.168,0.0148889,394.569,0.0215438,0.0118681,-0.0599475,0.296087,-0.234392,0.616529,2.74103e-05,1.5687e-05,0.470258,-0.05818602247984617,0.8524868877029415,2.741067566569555e-05,0.34458713082399206,1.568712304167441e-05,-0.20894833714228012
619,0.6075,227.963,683.328,0.0104942,394.67,0.0191377,0.0115262,-0.0600267,0.296476,-0.234701,0.617339,2.74183e-05,1.57046e-05,0.47088,-0.058260611193113765,0.8539880099544186,2.741867588507141e-05,0.34511027696320973,1.5704723317799818e-05,-0.2091927343447908
620,0.6085,228.024,683.505,0.0145643,394.765,0.0213782,0.0118632,-0.0601058,0.296864,-0.235009,0.618149,2.74921e-05,1.57369e-05,0.471502,-0.058335099832703796,0.8554903486074958,2.7492477911339464e-05,0.34563228101290844,1.5737023825623808e-05,-0.2094362654768931
621,0.6095,228.076,683.666,0.0107061,394.864,0.0192651,0.0115645,-0.0601849,0.297252,-0.235318,0.618958,2.75042e-05,1.57554e-05,0.472123,-0.05840958258047557,0.8569920476548814,2.7504578244075262e-05,0.34615448763947576,1.5755524116922714e-05,-0.20968051193283987
622,0.6105,228.136,683.842,0.0142698,394.96,0.0212289,0.0118606,-0.060264,0.29764,-0.235626,0.619766,2.75739e-05,1.57868e-05,0.472744,-0.05848405943689494,0.8584931035743126,2.757428016342267e-05,0.3466768969215268,1.578692461223774e-05,-0.20992389285257895
623,0.6115,228.189,684.003,0.0108898,395.059,0.019377,0.0116003,-0.060343,0.298027,-0.235934,0.620574,2.75896e-05,1.58062e-05,0.473364,-0.05855843625827628,0.8599953728370511,2.758998059659845e-05,0.34719816173887175,1.5806324918710146e-05,-0.21016719882253754
624,0.6125,228.248,684.177,0.0140028,395.154,0.0210944,0.01186,-0.060422,0.298414,-0.236242,0.621382,2.76558e-05,1.58368e-05,0.473984,-0.058632807204120785,0.861498856423875,2.765618242506207e-05,0.3477196283247408,1.583692540285675e-05,-0.21041042986579672
625,0.6135,228.301,684.338,0.0110479,395.252,0.019475,0.0116339,-0.0605009,0.298801,-0.23655,0.622189,2.76746e-05,1.58569e-05,0.474604,-0.058707078145605274,0.8630016923137307,2.7674982945313786e-05,0.34824129675723325,1.5857025721377482e-05,-0.21065358600543027
626,0.6145,228.359,684.511,0.0137606,395.348,0.0209732,0.0118614,-0.0605798,0.299188,-0.236857,0.622995,2.77376e-05,1.58869e-05,0.475223,-0.05878134322734352,0.8645038769768318,2.773798469069e-05,0.3487631671144791,1.5887026197480836e-05,-0.21089587816077782
627,0.6155,228.413,684.673,0.0111828,395.445,0.0195602,0.0116655,-0.0606586,0.299574,-0.237164,0.623802,2.77593e-05,1.59076e-05,0.475842,-0.05885550833535358,0.8660091388970454,2.7759685292894076e-05,0.34928389019007344,1.590772652648731e-05,-0.21113809594385036
628,0.6165,228.47,684.844,0.013541,395.54,0.0208642,0.0118644,-0.0607373,0.299961,-0.237471,0.624607,2.78194e-05,1.59369e-05,0.476461,-0.05892957349234551,0.8675118810264135,2.781978696320131e-05,0.34980616410906196,1.5937026992984826e-05,-0.21138023937747674
629,0.6175,228.524,685.006,0.0112967,395.638,0.0196339,0.0116953,-0.0608161,0.300347,-0.237778,0.625412,2.78436e-05,1.59582e-05,0.477079,-0.05900372692027078,0.8690158333502334,2.7843987636666512e-05,0.35032728985920736,1.5958327332699085e-05,-0.2116223084844786
630,0.6185,228.581,685.176,0.0133418,395.733,0.0207662,0.0118689,-0.0608947,0.300733,-0.238085,0.626217,2.79012e-05,1.59869e-05,0.477697,-0.059077686320692435,0.8705209968431042,2.7901589242151914e-05,0.35084861680272006,1.5987027791153352e-05,-0.21186430328767103
631,0.6195,228.635,685.338,0.0113917,395.829,0.0196972,0.0117233,-0.0609733,0.301118,-0.238391,0.627021,2.79275e-05,1.60087e-05,0.478314,-0.059151639908133546,0.8720255004539732,2.7927889976187004e-05,0.3513687936478065,1.600882814001281e-05,-0.2121054359156913
632,0.6205,228.692,685.507,0.0131609,395.924,0.0206781,0.0118748,-0.0610519,0.301503,-0.238698,0.627824,2.79829e-05,1.6037e-05,0.478931,-0.059225587683051084,0.8735293406418658,2.7983291525091047e-05,0.35188917079953486,1.6037128593326955e-05,-0.21234728242152712
633,0.6215,228.745,685.669,0.0114699,396.021,0.0197511,0.0117499,-0.0611304,0.301888,-0.239004,0.628627,2.80111e-05,1.60592e-05,0.479548,-0.05929943557585027,0.8750343888984038,2.801149231457245e-05,0.35240974833503813,1.605932894954698e-05,-0.21258826728054225
634,0.6225,228.802,685.837,0.0129965,396.115,0.0205989,0.0118818,-0.0612089,0.302273,-0.23931,0.62943,2.80645e-05,1.60871e-05,0.480164,-0.05937327767181744,0.8765406461940559,2.8064893811796665e-05,0.3529305263314788,1.6087229398165093e-05,-0.2128291784094718
635,0.6235,228.856,685.999,0.0115329,396.211,0.0197967,0.0117752,-0.0612873,0.302658,-0.239616,0.630232,2.80944e-05,1.61097e-05,0.48078,-0.05944701991611423,0.8780462354528964,2.8094794651378763e-05,0.35345150486604915,1.610982976196773e-05,-0.21307001583087382
636,0.6245,228.912,686.166,0.0128469,396.305,0.0205276,0.0118899,-0.0613657,0.303042,-0.239921,0.631034,2.8146e-05,1.61371e-05,0.481395,-0.05952075637924559,0.8795530326786523,2.8146396102268767e-05,0.3539713300439642,1.613723020366109e-05,-0.21330999287768548
637,0.6255,228.965,686.328,0.0115825,396.401,0.0198348,0.0117992,-0.061444,0.303426,-0.240226,0.631835,2.81774e-05,1.61601e-05,0.48201,-0.05959439302110903,0.8810591577804034,2.817779698660594e-05,0.35449135487307815,1.616023057504634e-05,-0.21354989674265856
638,0.6265,229.021,686.494,0.0127105,396.495,0.0204634,0.011899,-0.0615223,0.30381,-0.240532,0.632635,2.82274e-05,1.61872e-05,0.482625,-0.05966802389744896,0.8825646072061073,2.8227798396729398e-05,0.3550115794300719,1.618733101338421e-05,-0.21379051365798973
639,0.6275,229.075,686.655,0.0116201,396.59,0.0198663,0.0118221,-0.0616006,0.304194,-0.240837,0.633435,2.82601e-05,1.62104e-05,0.483239,-0.059741649008717146,0.8840712614732242,2.826049932047603e-05,0.3555320037916556,1.62105313892269e-05,-0.21403027098647287
640,0.6285,229.13,686.821,0.0125858,396.684,0.0204055,0.0119088,-0.0616787,0.304577,-0.241141,0.634235,2.83088e-05,1.62373e-05,0.483853,-0.05981508031839955,0.8855791215460127,2.8309200697851367e-05,0.35605127198261877,1.6237431825771864e-05,-0.21426916946968366
641,0.6295,229.184,686.982,0.0116471,396.779,0.0198918,0.011844,-0.0617569,0.304961,-0.241446,0.635034,2.83425e-05,1.62608e-05,0.484467,-0.05988859990446538,0.8870863013022585,2.834290165254494e-05,0.3565720956628067,1.6260932207634582e-05,-0.21450878083040548
642,0.6305,229.239,687.146,0.0124716,396.872,0.0203533,0.0119194,-0.061835,0.305344,-0.241751,0.635833,2.839e-05,1.62873e-05,0.48508,-0.059962019737731076,0.8885946857763503,2.8390402999844966e-05,0.3570917622852514,1.628743263881738e-05,-0.21474831912080594
643,0.6315,229.293,687.307,0.0116648,396.967,0.0199122,0.011865,-0.061913,0.305726,-0.242055,0.636631,2.84246e-05,1.6311e-05,0.485693,-0.06003533984067033,0.8901023858279111,2.842500398281267e-05,0.3576102703671826,1.6311133025137536e-05,-0.2149869993505602
644,0.6325,229.347,687.471,0.0123666,397.06,0.020306,0.0119306,-0.061991,0.306109,-0.242359,0.637429,2.8471e-05,1.63374e-05,0.486305,-0.060108654224864555,0.8916112895042958,2.8471405302710195e-05,0.3581303346866933,1.6337533456090014e-05,-0.21522560703255234
645,0.6335,229.401,687.632,0.0116742,397.154,0.0199278,0.0118853,-0.0620689,0.306491,-0.242663,0.638226,2.85065e-05,1.63613e-05,0.486917,-0.0601818689089515,0.8931195046459286,2.8506906314174074e-05,0.3586492395790679,1.6361433846867612e-05,-0.21546414218883359
646,0.6345,229.455,687.795,0.0122698,397.247,0.020263,0.0119423,-0.0621468,0.306873,-0.242966,0.639022,2.8552e-05,1.63874e-05,0.487529,-0.06025507788983664,0.8946270276861976,2.8552407612236763e-05,0.35916834273097664,1.6387534274242554e-05,-0.21570182054366127
647,0.6355,229.509,687.955,0.0116764,397.341,0.0199395,0.0119048,-0.0622247,0.307255,-0.24327,0.639819,2.85881e-05,1.64115e-05,0.48814,-0.06032828116796429,0.896137647329228,2.85885086437343e-05,0.3596876442181691,1.6411634669477593e-05,-0.21594021095303784
648,0.6365,229.563,688.117,0.0121802,397.434,0.020224,0.0119544,-0.0623025,0.307636,-0.243573,0.640614,2.86328e-05,1.64375e-05,0.488751,-0.060401384783921985,0.8976456761208735,2.863320992263496e-05,0.3602057839099597,1.643763509640017e-05,-0.2161777450808814
649,0.6375,229.616,688.277,0.0116722,397.527,0.0199475,0.0119237,-0.0623802,0.308018,-0.243876,0.64141,2.86695e-05,1.64617e-05,0.489362,-0.06047438876008304,0.8991568034279445,2.8669910973944113e-05,0.360725481775386,1.6461835494530064e-05,-0.21641520724678698
650,0.6385,229.671,688.439,0.012097,397.62,0.0201883,0.011967,-0.0624579,0.308399,-0.244179,0.642204,2.87134e-05,1.64875e-05,0.489972,-0.06054738706405549,0.9006653327367491,2.8713812233682745e-05,0.3612440169586222,1.6487635919659738e-05,-0.21665259747255583
651,0.6395,229.724,688.599,0.0116626,397.713,0.0199524,0.0119421,-0.0625356,0.308779,-0.244482,0.642999,2.87506e-05,1.65118e-05,0.490582,-0.0606203796962802,0.902176962469478,2.8751013302352746e-05,0.36176138797933466,1.651193632046244e-05,-0.2168899157799824
652,0.6405,229.778,688.76,0.0120194,397.805,0.0201556,0.0119798,-0.0626132,0.30916,-0.244785,0.643792,2.8794e-05,1.65375e-05,0.491192,-0.06069327272652958,0.9036859870498835,2.8794414551169822e-05,0.3622803179180307,1.653763674513975e-05,-0.2171271621908547
653,0.6415,229.831,688.919,0.0116482,397.898,0.0199546,0.0119599,-0.0626908,0.30954,-0.245087,0.644586,2.88315e-05,1.65619e-05,0.491801,-0.06076616010049929,0.9051981139585421,2.883191563163301e-05,0.36279808280793824,1.656203714905935e-05,-0.21736355409089947
654,0.6425,229.884,689.079,0.0119466,397.99,0.0201254,0.011993,-0.0627683,0.309921,-0.245389,0.645378,2.88743e-05,1.65875e-05,0.49241,-0.06083894790252775,0.9067076285536715,2.8874716866633676e-05,0.36331740780261734,1.6587637573284297e-05,-0.21759987461136931
655,0.6435,229.937,689.238,0.0116297,398.082,0.0199544,0.0119773,-0.0628458,0.310301,-0.245691,0.646171,2.89122e-05,1.6612e-05,0.493018,-0.06091173006372019,0.9082202473772107,2.8912617961784903e-05,0.3638355668615685,1.661213798009875e-05,-0.21783612377381756
656,0.6445,229.991,689.398,0.0118782,398.174,0.0200976,0.0120063,-0.0629232,0.31068,-0.245993,0.646963,2.89545e-05,1.66375e-05,0.493626,-0.06098441268295951,0.9097321564500958,2.895491918564197e-05,0.36435255850513704,1.6637638403871335e-05,-0.21807230159979107
657,0.6455,230.043,689.556,0.0116076,398.266,0.0199521,0.0119943,-0.0630006,0.31106,-0.246295,0.647754,2.89927e-05,1.66621e-05,0.494234,-0.06105708967678192,0.9112433521849672,2.8993120292364338e-05,0.36487111099610225,1.6662238813580643e-05,-0.2183084081108303
658,0.6465,230.097,689.715,0.0118135,398.358,0.0200717,0.0120199,-0.0630779,0.311439,-0.246596,0.648545,2.90345e-05,1.66875e-05,0.494841,-0.061129667158594136,0.9127557437485527,2.9034921505077804e-05,0.3653884951852806,1.668763923712291e-05,-0.2185436618725216
659,0.6475,230.149,689.873,0.0115824,398.449,0.0199481,0.0120109,-0.0631552,0.311818,-0.246898,0.649335,2.90729e-05,1.67121e-05,0.495448,-0.0612022390303838,0.914267417818752,2.907332262092055e-05,0.3659060755002299,1.671223964794244e-05,-0.21877962605425127
660,0.6485,230.202,690.032,0.0117521,398.541,0.0200474,0.0120335,-0.0632324,0.312197,-0.247199,0.650125,2.91144e-05,1.67374e-05,0.496054,-0.06127471142006036,0.9157802865833091,2.9114823828280123e-05,0.36642385201529626,1.6737540071032342e-05,-0.21901473800068594
661,0.6495,230.255,690.189,0.0115547,398.632,0.0199425,0.0120271,-0.0633096,0.312575,-0.2475,0.650914,2.91529e-05,1.67621e-05,0.49666,-0.06134717821508451,0.9172924336930128,2.9153324949904302e-05,0.3669404578637121,1.6762240484746727e-05,-0.2192497791890743
662,0.6505,230.308,690.347,0.0116935,398.723,0.0200247,0.0120473,-0.0633867,0.312953,-0.247801,0.651703,2.91941e-05,1.67873e-05,0.497266,-0.06141954555784723,0.9188057743575817,2.9194526151909983e-05,0.36745725902605075,1.678744090760631e-05,-0.2194847496407113
663,0.6515,230.36,690.504,0.0115247,398.814,0.0199356,0.0120431,-0.0634638,0.313332,-0.248101,0.652492,2.92327e-05,1.6812e-05,0.497872,-0.06149190732130283,0.9203203095191017,2.923312727953764e-05,0.36797562355109426,1.6812141322430918e-05,-0.2197188690961449
664,0.6525,230.413,690.662,0.0116374,398.905,0.0200033,0.0120612,-0.0635409,0.313709,-0.248402,0.65328,2.92736e-05,1.68372e-05,0.498477,-0.06156426350588162,0.9218341182853242,2.9274028475967384e-05,0.36849144758789465,1.6837341746400725e-05,-0.21995369837296785
665,0.6535,230.465,690.818,0.0114929,398.996,0.0199275,0.0120589,-0.0636179,0.314087,-0.248702,0.654067,2.93124e-05,1.68619e-05,0.499081,-0.06163652027567035,0.9233471970548144,2.9312829612493374e-05,0.3690088351351688,1.68620421625576e-05,-0.2201876771648823
666,0.6545,230.517,690.975,0.0115835,399.086,0.0199829,0.0120751,-0.0636948,0.314464,-0.249002,0.654854,2.93529e-05,1.68871e-05,0.499686,-0.061708677652774435,0.9248614670859963,2.935333080067437e-05,0.3695250487661701,1.6887242587859674e-05,-0.2204215857736872
667,0.6555,230.57,691.132,0.0114595,399.177,0.0199185,0.0120743,-0.0637717,0.314842,-0.249302,0.655641,2.93918e-05,1.69118e-05,0.50029,-0.06178082948118957,0.9263769293167614,2.939223194320384e-05,0.3700428270885414,1.6911943005348817e-05,-0.22065542422043427
668,0.6565,230.622,691.288,0.0115315,399.267,0.0199635,0.012089,-0.0638486,0.315219,-0.249601,0.656427,2.94321e-05,1.69369e-05,0.500893,-0.06185297576134241,0.9278916567931199,2.9432533128481708e-05,0.37055943060799845,1.693704343019853e-05,-0.220888413414972
669,0.6575,230.674,691.444,0.0114247,399.357,0.0199086,0.0120896,-0.0639254,0.315595,-0.249901,0.657213,2.9471e-05,1.69617e-05,0.501497,-0.06192502268616662,0.9294075753132938,2.94714342741198e-05,0.37107485784815575,1.696184385036048e-05,-0.22112211183443187
670,0.6585,230.726,691.6,0.0114811,399.447,0.0199449,0.012103,-0.0640022,0.315972,-0.2502,0.657998,2.95111e-05,1.69868e-05,0.5021,-0.06199706407799954,0.9309227548900909,2.9511535456716587e-05,0.3715918505165592,1.698694427654246e-05,-0.22135496151023204
671,0.6595,230.778,691.755,0.0113889,399.537,0.0198981,0.0121046,-0.0640789,0.316348,-0.250499,0.658783,2.955e-05,1.70115e-05,0.502702,-0.06206900614417121,0.9324391243498238,2.9550436605463304e-05,0.372107666019591,1.7011644696474093e-05,-0.22158774157438677
672,0.6605,230.83,691.91,0.0114321,399.627,0.0199269,0.0121169,-0.0641556,0.316724,-0.250798,0.659567,2.95899e-05,1.70366e-05,0.503304,-0.06214094269259807,0.9339547506711996,2.9590337785379006e-05,0.3726236755057186,1.7036745123766295e-05,-0.2218204520477065
673,0.6615,230.881,692.065,0.0113522,399.716,0.0198869,0.0121195,-0.0642322,0.3171,-0.251097,0.660351,2.96288e-05,1.70613e-05,0.503906,-0.062212779944985974,0.9354715657095276,2.9629238937234348e-05,0.37313987904789303,1.706144554480815e-05,-0.22205309295099607
674,0.6625,230.933,692.22,0.0113844,399.806,0.0199096,0.0121309,-0.0643088,0.317475,-0.251396,0.661134,2.96686e-05,1.70863e-05,0.504507,-0.062284611694851,0.9369876334085252,2.966904011736382e-05,0.37365490306350346,1.708644597164799e-05,-0.2222856643050536
675,0.6635,230.984,692.374,0.0113147,399.895,0.0198753,0.0121342,-0.0643853,0.317851,-0.251694,0.661917,2.97075e-05,1.71111e-05,0.505109,-0.062356344178253864,0.9385048886533949,2.9707941272105742e-05,0.3741714944201442,1.7111246395806745e-05,-0.2225173886484486
676,0.6645,231.036,692.528,0.0113377,399.984,0.0198928,0.0121448,-0.0644618,0.318226,-0.251992,0.662699,2.97471e-05,1.71361e-05,0.505709,-0.06242807117433169,0.9400213923519865,2.9747542449332087e-05,0.3746869053640638,1.7136246823756807e-05,-0.22274904394827744
677,0.6655,231.087,692.682,0.0112766,400.073,0.0198632,0.0121488,-0.0645382,0.318601,-0.25229,0.663481,2.97859e-05,1.71609e-05,0.50631,-0.06249969893347873,0.9415390824202803,2.978634360428778e-05,0.3752025096233318,1.7161047249025785e-05,-0.22298063022511172
678,0.6665,231.139,692.836,0.011292,400.162,0.0198764,0.0121587,-0.0646146,0.318975,-0.252588,0.664262,2.98253e-05,1.71858e-05,0.50691,-0.06257132122047393,0.9430560167293924,2.9825744778610996e-05,0.3757169315528355,1.7185947676745528e-05,-0.22321214749951745
679,0.6675,231.19,692.99,0.0112381,400.251,0.0198508,0.0121632,-0.064691,0.31935,-0.252886,0.665043,2.98642e-05,1.72106e-05,0.507509,-0.06264293803573551,0.9445741362269557,2.9864645939570167e-05,0.376232922144357,1.721074810312473e-05,-0.2234435957920542
680,0.6685,231.241,693.143,0.0112472,400.339,0.0198604,0.0121726,-0.0647673,0.319724,-0.253183,0.665823,2.99035e-05,1.72355e-05,0.508109,-0.06271445565113165,0.9460914957464954,2.9903947114107154e-05,0.3767477295202175,1.723564853217674e-05,-0.22367419879786254
681,0.6695,231.292,693.296,0.0111993,400.428,0.019838,0.0121774,-0.0648436,0.320098,-0.253481,0.666603,2.99422e-05,1.72603e-05,0.508708,-0.06278596780994194,0.9476100392681608,2.9942648272163197e-05,0.37726272947004547,1.7260448959888208e-05,-0.2239055094196264
682,0.6705,231.343,693.449,0.011203,400.516,0.0198447,0.0121864,-0.0649198,0.320472,-0.253778,0.667383,2.99814e-05,1.72852e-05,0.509306,-0.06285738079832548,0.9491297677158341,2.998184944669191e-05,0.37777792206587746,1.7285349389828397e-05,-0.22413597525745765
683,0.6715,231.394,693.601,0.0111601,400.604,0.0198251,0.0121916,-0.0649959,0.320845,-0.254075,0.668162,3.00201e-05,1.731e-05,0.509904,-0.06292869463812067,0.9506487313644121,3.0020550607634533e-05,0.37829192908715803,1.7310149818872134e-05,-0.2243663726570988
684,0.6725,231.445,693.754,0.0111596,400.692,0.0198292,0.0122001,-0.0650721,0.321219,-0.254372,0.668941,3.00591e-05,1.73348e-05,0.510502,-0.06300009675113416,0.9521688787466762,3.005955177926012e-05,0.378807506675636,1.7334950248582004e-05,-0.2245967016388728
685,0.6735,231.496,693.906,0.0111208,400.78,0.0198119,0.0122056,-0.0651481,0.321592,-0.254668,0.669719,3.00978e-05,1.73596e-05,0.5111,-0.06307130603779387,0.9536882570958809,3.0098252943311365e-05,0.3793218978036075,1.7359750678735963e-05,-0.22482618704967128
686,0.6745,231.547,694.058,0.0111166,400.868,0.019814,0.0122138,-0.0652242,0.321965,-0.254965,0.670496,3.01367e-05,1.73844e-05,0.511697,-0.06314260359849788,0.9552068627735482,3.0137154114928677e-05,0.37983648083525745,1.7384551109556057e-05,-0.22505637948684853
687,0.6755,231.597,694.209,0.0110813,400.956,0.0197986,0.0122195,-0.0653001,0.322337,-0.255261,0.671273,3.01753e-05,1.74092e-05,0.512294,-0.06321370837642426,0.9567266488663586,3.017575527897165e-05,0.3803498754916139,1.7409351541042284e-05,-0.2252857288531397
688,0.6765,231.648,694.361,0.0110742,401.043,0.019799,0.0122274,-0.0653761,0.32271,-0.255557,0.67205,3.02141e-05,1.7434e-05,0.51289,-0.06328490142921739,0.9582476162918516,3.0214556450580687e-05,0.3808648420304612,1.74341519729726e-05,-0.22551501034206467
689,0.6775,231.698,694.512,0.0110417,401.13,0.0197851,0.0122333,-0.065452,0.323082,-0.255853,0.672826,3.02526e-05,1.74588e-05,0.513486,-0.06335599540714831,0.9597678061994932,3.0253057614615386e-05,0.38137861930834527,1.7458952405791095e-05,-0.2257442239737124
690,0.6785,231.749,694.663,0.0110323,401.218,0.0197842,0.012241,-0.0655278,0.323454,-0.256149,0.673602,3.02913e-05,1.74836e-05,0.514082,-0.06342699033195476,0.9612891762323323,3.0291758785994105e-05,0.3818925877469306,1.748375283905368e-05,-0.2259733697681655
691,0.6795,231.799,694.813,0.0110022,401.305,0.0197716,0.012247,-0.0656036,0.323826,-0.256444,0.674378,3.03298e-05,1.75083e-05,0.514677,-0.06349797987554995,0.9628117273065018,3.033025995313743e-05,0.3824067474173418,1.7508453271197766e-05,-0.22620167394756185
692,0.6805,231.849,694.964,0.0109908,401.392,0.0197695,0.0122545,-0.0656794,0.324197,-0.25674,0.675152,3.03684e-05,1.75331e-05,0.515272,-0.06356896403834167,0.964331531671853,3.0368861124507873e-05,0.38291971547032366,1.7533253705792617e-05,-0.22643068435686065
693,0.6815,231.899,695.114,0.0109626,401.479,0.0197579,0.0122606,-0.0657551,0.324569,-0.257035,0.675927,3.04068e-05,1.75578e-05,0.515867,-0.06363984918472732,0.9658544786746357,3.0407262291420878e-05,0.3834342573033258,1.7557954139046927e-05,-0.22665885364835014
694,0.6825,231.949,695.264,0.0109496,401.565,0.0197549,0.0122679,-0.0658308,0.32494,-0.25733,0.676701,3.04452e-05,1.75826e-05,0.516461,-0.06371072896531049,0.9673766390412009,3.0445663459888195e-05,0.38394760663319794,1.7582754574752002e-05,-0.22688695563982597
695,0.6835,231.999,695.414,0.0109231,401.652,0.0197442,0.0122741,-0.0659064,0.325311,-0.257625,0.677474,3.04836e-05,1.76073e-05,0.517055,-0.06378150975865304,0.968898009116959,3.048406462968778e-05,0.3844611464510048,1.760745500933858e-05,-0.22711499035113858
696,0.6845,232.049,695.563,0.0109088,401.738,0.0197404,0.0122813,-0.065982,0.325681,-0.25792,0.678247,3.05219e-05,1.7632e-05,0.517649,-0.06385228520116981,0.9704205556664338,3.052236579792478e-05,0.3849734918532459,1.763215544459129e-05,-0.22734295780213276
697,0.6855,232.099,695.713,0.0108836,401.825,0.0197304,0.0122875,-0.0660575,0.326052,-0.258214,0.67902,3.05602e-05,1.76568e-05,0.518242,-0.06392296168556622,0.9719442795993916,3.056066696771609e-05,0.38548741234508,1.7656955882294767e-05,-0.22757008558311909
698,0.6865,232.149,695.862,0.0108683,401.911,0.0197261,0.0122945,-0.066133,0.326422,-0.258509,0.679792,3.05984e-05,1.76815e-05,0.518835,-0.06399363283408954,0.9734672083581064,3.059886813572277e-05,0.38600013753595874,1.76816563186577e-05,-0.22779791880082023
699,0.6875,232.199,696.011,0.0108442,401.997,0.0197167,0.0123009,-0.0662084,0.326792,-0.258803,0.680564,3.06366e-05,1.77062e-05,0.519427,-0.0640642050535678,0.9749913132717603,3.0637069305505804e-05,0.38651305247025847,1.770635675568677e-05,-0.22802491284293358
700,0.6885,232.248,696.159,0.0108281,402.083,0.0197118,0.0123078,-0.0662838,0.327162,-0.259097,0.681335,3.06748e-05,1.77309e-05,0.52002,-0.06413477195210127,0.9765146187330886,3.0675270476399064e-05,0.387026157218197,1.773105719338197e-05,-0.22825184015860778
701,0.6895,232.298,696.308,0.0108049,402.169,0.0197028,0.0123141,-0.0663592,0.327531,-0.259391,0.682106,3.07129e-05,1.77556e-05,0.520611,-0.06420533353009106,0.9780390991158017,3.071337164595178e-05,0.3875380643112607,1.7755757631521263e-05,-0.22847870076745758
702,0.6905,232.347,696.456,0.0107882,402.254,0.0196975,0.0123209,-0.0664345,0.327901,-0.259684,0.682876,3.07509e-05,1.77803e-05,0.521203,-0.06427579621552293,0.9795627757623475,3.075137281371987e-05,0.3880515483837512,1.7780458070548733e-05,-0.2287047233942009
703,0.6915,232.397,696.604,0.0107658,402.34,0.019689,0.0123273,-0.0665098,0.32827,-0.259978,0.683646,3.07889e-05,1.78049e-05,0.521794,-0.0643462535953142,0.9810876260917207,3.078937398304227e-05,0.38856383391597293,1.780505850823566e-05,-0.22893145087495015
704,0.6925,232.446,696.752,0.0107486,402.425,0.0196834,0.012334,-0.066585,0.328639,-0.260271,0.684415,3.08269e-05,1.78296e-05,0.522385,-0.06441661211153049,0.9826116683953463,3.0827375153696934e-05,0.3890763085164368,1.7829758948373353e-05,-0.22915734086534423
705,0.6935,232.495,696.899,0.0107268,402.51,0.0196752,0.0123403,-0.0666602,0.329007,-0.260564,0.685184,3.08648e-05,1.78543e-05,0.522975,-0.06448696533698528,0.9841368831382482,3.0865276322789015e-05,0.3895875826666444,1.7854459388955135e-05,-0.22938316467966635
706,0.6945,232.544,697.047,0.0107092,402.596,0.0196693,0.012347,-0.0667353,0.329376,-0.260857,0.685952,3.09027e-05,1.78789e-05,0.523566,-0.06455721972780304,0.985661285560101,3.090317749343541e-05,0.39010043510010317,1.787905982841842e-05,-0.22960892233730323
707,0.6955,232.594,697.194,0.0106879,402.681,0.0196613,0.0123533,-0.0668104,0.329744,-0.26115,0.68672,3.09406e-05,1.79035e-05,0.524155,-0.0646274688427142,0.9871868591726933,3.094107866519202e-05,0.39061208619824805,1.790366026854784e-05,-0.22983461385763604
708,0.6965,232.643,697.341,0.01067,402.765,0.0196553,0.0123599,-0.0668854,0.330112,-0.261443,0.687488,3.09784e-05,1.79282e-05,0.524745,-0.06469761915188155,0.9887136048758454,3.09788798356081e-05,0.39112392561864606,1.7928360711128022e-05,-0.23006023926004016
709,0.6975,232.692,697.487,0.0106492,402.85,0.0196475,0.0123663,-0.0669604,0.33048,-0.261735,0.688255,3.10161e-05,1.79528e-05,0.525334,-0.06476776419997299,0.9902395333295397,3.101658100423954e-05,0.39163595343061264,1.7952961152367664e-05,-0.23028502884929902
710,0.6985,232.74,697.634,0.0106311,402.935,0.0196413,0.0123728,-0.0670354,0.330848,-0.262027,0.689022,3.10538e-05,1.79774e-05,0.525922,-0.0648379039873831,0.9917666326193166,3.105428217420325e-05,0.39214816970348876,1.7977561594495484e-05,-0.23050975280958008
711,0.6995,232.789,697.78,0.0106106,403.019,0.0196337,0.0123791,-0.0671103,0.331215,-0.262319,0.689788,3.10915e-05,1.8002e-05,0.526511,-0.0649079450053055,0.9932929103496442,3.1091983345721275e-05,0.39265918184676263,1.8002162037067393e-05,-0.23073441116004423
712,0.7005,232.838,697.926,0.0105924,403.104,0.0196273,0.0123856,-0.0671852,0.331582,-0.262611,0.690554,3.11291e-05,1.80267e-05,0.527099,-0.06497798077735228,0.9948203576566041,3.112958451545467e-05,0.3931703815659111,1.8026862481868022e-05,-0.2309590039198467
713,0.7015,232.887,698.072,0.0105722,403.188,0.0196199,0.0123919,-0.06726,0.331949,-0.262903,0.691319,3.11667e-05,1.80512e-05,0.527687,-0.06504791780871255,0.9963469790884578,3.116718568674237e-05,0.3936817689297871,1.805136292398757e-05,-0.23118353110813727
714,0.7025,232.935,698.217,0.0105539,403.272,0.0196134,0.0123983,-0.0673348,0.332316,-0.263195,0.692084,3.12043e-05,1.80758e-05,0.528274,-0.06511784960897848,0.9978747688325291,3.12047868591403e-05,0.39419334400726913,1.8075963368335835e-05,-0.23140799274406
715,0.7035,232.984,698.363,0.010534,403.356,0.0196061,0.0124046,-0.0674095,0.332682,-0.263486,0.692848,3.12417e-05,1.81004e-05,0.528861,-0.06518768269731434,0.999401728380191,3.1242188027080786e-05,0.39470371216285116,1.810056381312819e-05,-0.23163162047875807
716,0.7045,233.032,698.508,0.0105156,403.44,0.0195996,0.012411,-0.0674842,0.333049,-0.263777,0.693612,3.12792e-05,1.8125e-05,0.529448,-0.06525751056931339,1.000929854970701,3.1279689199248395e-05,0.3952156623623302,1.8125164258808724e-05,-0.23185518314725284
717,0.7055,233.081,698.653,0.010496,403.524,0.0195923,0.0124172,-0.0675588,0.333415,-0.264068,0.694376,3.13166e-05,1.81496e-05,0.530034,-0.06532723975809385,1.0024591494960204,3.131709036985342e-05,0.3957264047549114,1.8149764704933347e-05,-0.23207868076847593
718,0.7065,233.129,698.797,0.0104775,403.607,0.0195857,0.0124236,-0.0676334,0.333781,-0.264359,0.695139,3.1354e-05,1.81741e-05,0.53062,-0.06539696374527082,1.0039876088601813,3.135449154179071e-05,0.39623733411342066,1.8174265149939473e-05,-0.2323021133613533
719,0.7075,233.177,698.942,0.0104581,403.691,0.0195786,0.0124298,-0.067708,0.334146,-0.26465,0.695901,3.13913e-05,1.81987e-05,0.531205,-0.06546668253123245,1.0055152293676293,3.139179271194337e-05,0.39674705375854846,1.8198865597396363e-05,-0.23252548094480552
720,0.7085,233.225,699.086,0.0104396,403.774,0.0195719,0.0124361,-0.0677825,0.334512,-0.264941,0.696663,3.14286e-05,1.82232e-05,0.531791,-0.06553630267000143,1.0070440143655182,3.142909388365034e-05,0.3972583567429626,1.8223366043512712e-05,-0.23274878353774753
721,0.7095,233.274,699.23,0.0104204,403.858,0.0195649,0.0124423,-0.067857,0.334877,-0.265231,0.697425,3.14658e-05,1.82477e-05,0.532376,-0.06560591762226331,1.0085739647415282,3.146629505357268e-05,0.39776844912937115,1.8247866490295195e-05,-0.2329712541307264
722,0.7105,233.322,699.374,0.0104019,403.941,0.0195582,0.0124486,-0.0679314,0.335242,-0.265521,0.698187,3.1503e-05,1.82723e-05,0.53296,-0.06567543395595254,1.0101050813840162,3.150349622460524e-05,0.3982787277334834,1.8272466939528442e-05,-0.23319366021658738
723,0.7115,233.37,699.518,0.0103828,404.024,0.0195512,0.0124547,-0.0680058,0.335607,-0.265811,0.698947,3.15402e-05,1.82968e-05,0.533545,-0.06574494511781903,1.011633341911308,3.1540697397414164e-05,0.3987891926232814,1.8296967387421148e-05,-0.23341600181403466
724,0.7125,233.417,699.661,0.0103643,404.107,0.0195445,0.012461,-0.0680801,0.335971,-0.266101,0.699708,3.15773e-05,1.83213e-05,0.534128,-0.0658143576896878,1.0131647775218449,3.157779856821641e-05,0.3992984445676273,1.8321467835979988e-05,-0.23363827894176725
725,0.7135,233.465,699.805,0.0103455,404.19,0.0195375,0.0124671,-0.0681544,0.336336,-0.266391,0.700468,3.16144e-05,1.83458e-05,0.534712,-0.06588376510439398,1.014695364302066,3.161489974035092e-05,0.3998092817220038,1.834596828520496e-05,-0.23386049161847877
726,0.7145,233.513,699.948,0.010327,404.272,0.0195308,0.0124733,-0.0682287,0.3367,-0.26668,0.701227,3.16514e-05,1.83703e-05,0.535295,-0.06595316736232093,1.0162250985442784,3.165190091092285e-05,0.4003189050463687,1.8370468735096068e-05,-0.23408187394511393
727,0.7155,233.561,700.09,0.0103083,404.355,0.0195239,0.0124794,-0.0683029,0.337064,-0.26697,0.701986,3.16884e-05,1.83948e-05,0.535878,-0.06602247106610348,1.017755994295518,3.1688902082605e-05,0.4008287139073894,1.8394969185431265e-05,-0.2343039579979258
728,0.7165,233.608,700.233,0.0102899,404.437,0.0195172,0.0124856,-0.068377,0.337428,-0.267259,0.702745,3.17254e-05,1.84192e-05,0.536461,-0.06609167623691425,1.019288052437704,3.172590325584146e-05,0.4013387083726132,1.841936963442592e-05,-0.23452521218129496
729,0.7175,233.656,700.375,0.0102713,404.519,0.0195103,0.0124917,-0.0684512,0.337791,-0.267548,0.703503,3.17623e-05,1.84437e-05,0.537043,-0.06616096966371954,1.0208192530331632,3.176280442729329e-05,0.4018474866614252,1.8443870086093384e-05,-0.23474640243144385
730,0.7185,233.703,700.518,0.0102529,404.602,0.0195036,0.0124978,-0.0685252,0.338154,-0.267837,0.704261,3.17991e-05,1.84682e-05,0.537625,-0.06623007119517621,1.022351614718671,3.1799605596738445e-05,0.4023564496702805,1.8468370538204937e-05,-0.23496752876684668
731,0.7195,233.751,700.66,0.0102344,404.684,0.0194967,0.0125039,-0.0685993,0.338518,-0.268126,0.705018,3.1836e-05,1.84926e-05,0.538206,-0.06629926098338734,1.0238831144905416,3.183650677085481e-05,0.40286700033254386,1.8492770989197993e-05,-0.23518859120597202
732,0.7205,233.798,700.801,0.0102162,404.766,0.01949,0.01251,-0.0686733,0.338881,-0.268414,0.705775,3.18727e-05,1.85171e-05,0.538788,-0.06636835228166504,1.025415774046662,3.18732079398476e-05,0.40337633349204016,1.8517271442641814e-05,-0.23540882517649064
733,0.7215,233.845,700.943,0.0101978,404.848,0.0194832,0.012516,-0.0687472,0.339243,-0.268703,0.706531,3.19095e-05,1.85415e-05,0.539369,-0.06643734511111488,1.026947567316741,3.1910009113511606e-05,0.4038844476878851,1.8541671894745093e-05,-0.23562976009938064
734,0.7225,233.892,701.084,0.0101796,404.929,0.0194765,0.0125221,-0.0688211,0.339606,-0.268991,0.707287,3.19462e-05,1.85659e-05,0.539949,-0.0665063328421831,1.02848051906038,3.194671028539098e-05,0.40439415024781344,1.856607234729246e-05,-0.2358498670315523
735,0.7235,233.94,701.226,0.0101613,405.011,0.0194697,0.0125281,-0.068895,0.339968,-0.269279,0.708043,3.19828e-05,1.85903e-05,0.540529,-0.06657531547524642,1.0300146301537163,3.1983311455263674e-05,0.40490263296002116,1.859047280072801e-05,-0.23606991058205506
736,0.7245,233.987,701.367,0.0101432,405.092,0.019463,0.0125341,-0.0689688,0.34033,-0.269567,0.708798,3.20195e-05,1.86147e-05,0.541109,-0.06664419967510615,1.031547869924664,3.202001262958554e-05,0.40541129977629176,1.8614873254607645e-05,-0.23628989076913998
737,0.7255,234.034,701.507,0.010125,405.174,0.0194562,0.0125401,-0.0690426,0.340692,-0.269854,0.709553,3.2056e-05,1.86391e-05,0.541689,-0.06671307879149946,1.0330822677287412,3.205651379900587e-05,0.4059201507632826,1.8639273709153414e-05,-0.23650904412047902
738,0.7265,234.081,701.648,0.0101069,405.255,0.0194495,0.0125461,-0.0691163,0.341054,-0.270142,0.710307,3.20926e-05,1.86635e-05,0.542268,-0.0667818595029922,1.0346157898237855,3.2093114973097414e-05,0.40642918598767563,1.8663674164143274e-05,-0.2367288978553148
739,0.7275,234.127,701.788,0.0100888,405.336,0.0194428,0.0125521,-0.06919,0.341415,-0.270429,0.711061,3.21291e-05,1.86879e-05,0.542847,-0.06685063514553324,1.0361504686305159,3.212961614496024e-05,0.406936998578475,1.8688074619799266e-05,-0.23694792522969876
740,0.7285,234.174,701.928,0.0100709,405.417,0.0194361,0.0125581,-0.0692637,0.341776,-0.270717,0.711814,3.21655e-05,1.87123e-05,0.543425,-0.06691940571949617,1.0376842673361337,3.2166017315260476e-05,0.40744499452271277,1.8712475076121393e-05,-0.23716765258497463
741,0.7295,234.221,702.068,0.0100529,405.498,0.0194293,0.012564,-0.0693373,0.342137,-0.271004,0.712567,3.22019e-05,1.87367e-05,0.544003,-0.06698807792406714,1.0392192214271252,3.2202418486670936e-05,0.4079531738865918,1.8736875533109654e-05,-0.23738655405481934
742,0.7305,234.268,702.208,0.010035,405.579,0.0194227,0.01257,-0.0694109,0.342498,-0.271291,0.713319,3.22383e-05,1.8761e-05,0.544581,-0.06705674507454984,1.040753291019512,3.223881965963571e-05,0.40846153673633845,1.8761175988757373e-05,-0.23760539270895653
743,0.7315,234.314,702.348,0.0100171,405.659,0.019416,0.0125759,-0.0694844,0.342859,-0.271577,0.714071,3.22746e-05,1.87854e-05,0.545159,-0.06712531388385223,1.0422885146661018,3.2275120830593806e-05,0.40897008313820304,1.878557644663381e-05,-0.23782340638919952
744,0.7325,234.361,702.487,0.00999926,405.74,0.0194093,0.0125818,-0.0695579,0.343219,-0.271864,0.714823,3.23109e-05,1.88097e-05,0.545736,-0.06719387765353235,1.0438248932350702,3.231142200266213e-05,0.40947740368035124,1.8809876903613798e-05,-0.23804211968470657
745,0.7335,234.407,702.626,0.00998145,405.82,0.0194026,0.0125877,-0.0696313,0.343579,-0.27215,0.715574,3.23472e-05,1.8834e-05,0.546313,-0.06726234311019952,1.0453603822338406,3.234772317628476e-05,0.40998490689077305,1.883417736081583e-05,-0.23826000847889406
746,0.7345,234.454,702.765,0.00996371,405.901,0.019396,0.0125936,-0.0697047,0.343939,-0.272436,0.716325,3.23834e-05,1.88584e-05,0.546889,-0.06733080354168675,1.0468970248179663,3.2383924347900717e-05,0.41049259283524053,1.885857782069067e-05,-0.23847783496579666
747,0.7355,234.5,702.904,0.00994599,405.981,0.0193893,0.0125995,-0.069778,0.344299,-0.272722,0.717075,3.24196e-05,1.88827e-05,0.547466,-0.06739916568828386,1.0484327734203176,3.242012552084894e-05,0.4110004615795504,1.888287827922497e-05,-0.2386955991632319
748,0.7365,234.546,703.042,0.00992834,406.061,0.0193827,0.0126054,-0.0698513,0.344658,-0.273008,0.717825,3.24557e-05,1.8907e-05,0.548041,-0.06746752282411927,1.049969674266158,3.2456226692012535e-05,0.41150710168171445,1.89071787384254e-05,-0.23891330108901188
749,0.7375,234.592,703.181,0.00991071,406.141,0.0193761,0.0126112,-0.0699246,0.345018,-0.273294,0.718574,3.24918e-05,1.89313e-05,0.548617,-0.06753587494956026,1.0515056767132913,3.249232786428635e-05,0.41201533571495674,1.8931479198291967e-05,-0.23913094076094377
750,0.7385,234.638,703.319,0.00989314,406.221,0.0193695,0.0126171,-0.0699978,0.345377,-0.27358,0.719323,3.25278e-05,1.89556e-05,0.549192,-0.06760412882539157,1.053042830057215,3.2528329034553494e-05,0.41252234022234235,1.8955779658602623e-05,-0.23934851819682978
751,0.7395,234.685,703.457,0.00987559,406.3,0.0193629,0.0126229,-0.070071,0.345736,-0.273865,0.720072,3.25639e-05,1.89799e-05,0.549767,-0.06767237770522205,1.054581135160273,3.2564430209491846e-05,0.4130295267770214,1.8980080119357368e-05,-0.23956527298011987
752,0.7405,234.731,703.595,0.00985811,406.38,0.0193563,0.0126287,-0.0701442,0.346095,-0.27415,0.72082,3.25998e-05,1.90041e-05,0.550342,-0.0677406215894174,1.0561185367658914,3.2600331379306624e-05,0.413536895444361,1.9004280578993615e-05,-0.2397819659970989
753,0.7415,234.776,703.732,0.00984065,406.46,0.0193497,0.0126345,-0.0702173,0.346453,-0.274435,0.721568,3.26358e-05,1.90284e-05,0.550916,-0.06780876725922469,1.0576570887781092,3.263633255357057e-05,0.4140430322460118,1.9028581041080628e-05,-0.23999859726536765
754,0.7425,234.822,703.87,0.00982324,406.539,0.0193431,0.0126403,-0.0702903,0.346811,-0.27472,0.722315,3.26717e-05,1.90527e-05,0.55149,-0.0678768147354516,1.0591947328619904,3.267223372582784e-05,0.41454935027707585,1.9052881503833774e-05,-0.24021516680252208
755,0.7435,234.868,704.007,0.00980586,406.618,0.0193365,0.0126461,-0.0703633,0.34717,-0.275005,0.723062,3.27075e-05,1.90769e-05,0.552063,-0.06794485724439414,1.0607335259951185,3.270803489607843e-05,0.41505726465900183,1.907708196524638e-05,-0.240431674626153
756,0.7445,234.914,704.144,0.00978854,406.697,0.01933,0.0126519,-0.0704363,0.347527,-0.27529,0.723808,3.27433e-05,1.91011e-05,0.552637,-0.06801289478641481,1.062271406763716,3.274383606766129e-05,0.4155625302870334,1.9101282427103072e-05,-0.24064812075384623
757,0.7455,234.96,704.281,0.00977125,406.777,0.0193234,0.0126577,-0.0705092,0.347885,-0.275574,0.724554,3.27791e-05,1.91254e-05,0.553209,-0.06808083416996424,1.0638104352194016,3.277963724057642e-05,0.4160693923957801,1.9125582891632575e-05,-0.24086374606730843
758,0.7465,235.005,704.417,0.009754,406.855,0.0193169,0.0126635,-0.0705821,0.348243,-0.275858,0.7253,3.28148e-05,1.91496e-05,0.553782,-0.06814876860091323,1.0653506122186678,3.2815338411484873e-05,0.4165764359936466,1.9149783354821537e-05,-0.24107931015187645
759,0.7475,235.051,704.554,0.00973679,406.934,0.0193103,0.0126692,-0.070655,0.3486,-0.276142,0.726045,3.28505e-05,1.91738e-05,0.554354,-0.0682166980796226,1.066889871727744,3.285103958350355e-05,0.4170822440626645,1.9173983818454587e-05,-0.24129481302493683
760,0.7485,235.096,704.69,0.00971963,407.013,0.0193038,0.012675,-0.0707278,0.348957,-0.276426,0.72679,3.28862e-05,1.9198e-05,0.554926,-0.06828452943491115,1.0684302784124244,3.288674075707654e-05,0.4175882327373994,1.9198184282753772e-05,-0.24151025470387133
761,0.7495,235.142,704.826,0.0097025,407.092,0.0192973,0.0126807,-0.0708005,0.349314,-0.27671,0.727534,3.29218e-05,1.92222e-05,0.555498,-0.06835226268748762,1.0699697631568745,3.2922341928420806e-05,0.4180944020823387,1.922238474771909e-05,-0.2417256352060564
762,0.7505,235.187,704.962,0.00968542,407.17,0.0192908,0.0126864,-0.0708733,0.349671,-0.276994,0.728278,3.29574e-05,1.92464e-05,0.556069,-0.06842008417403189,1.0715103937041608,3.295794310109734e-05,0.41860075216199366,1.9246585213128498e-05,-0.241940954548864
763,0.7515,235.232,705.098,0.00966838,407.249,0.0192843,0.0126921,-0.0709459,0.350027,-0.277277,0.729021,3.29929e-05,1.92706e-05,0.55664,-0.06848771442091317,1.0730500978559427,3.29934442717672e-05,0.4191058639343239,1.927078567920404e-05,-0.24215545490549462
764,0.7525,235.277,705.233,0.00965138,407.327,0.0192778,0.0126978,-0.0710186,0.350383,-0.27756,0.729765,3.30284e-05,1.92948e-05,0.557211,-0.06855543290247823,1.0745930210249943,3.3028945443547286e-05,0.4196111555584572,1.9294986145945714e-05,-0.242369894567113
765,0.7535,235.323,705.368,0.00963441,407.405,0.0192714,0.0127035,-0.0710912,0.350739,-0.277844,0.730507,3.30639e-05,1.93189e-05,0.557781,-0.06862305332339846,1.076132940285989,3.306444661665964e-05,0.4201166270984318,1.9319086611124803e-05,-0.2425850309662413
766,0.7545,235.368,705.503,0.00961749,407.483,0.0192649,0.0127092,-0.0711637,0.351095,-0.278127,0.731249,3.30993e-05,1.93431e-05,0.558351,-0.06869057570431669,1.0776740025910918,3.309984778776531e-05,0.4206222786183089,1.93432870789767e-05,-0.2427993490750351
767,0.7555,235.413,705.638,0.00960061,407.561,0.0192585,0.0127149,-0.0712363,0.351451,-0.278409,0.731991,3.31347e-05,1.93672e-05,0.55892,-0.0687581863142257,1.0792162087887567,3.3135248960203256e-05,0.4211281101821731,1.9367387545488057e-05,-0.24301284955361357
768,0.7565,235.458,705.773,0.00958376,407.639,0.019252,0.0127206,-0.0713087,0.351806,-0.278692,0.732732,3.317e-05,1.93914e-05,0.55949,-0.06882560578092245,1.0807574789695478,3.3170550130634524e-05,0.4216327002207203,1.939158801445018e-05,-0.24322704660687733
769,0.7575,235.503,705.908,0.00956696,407.717,0.0192456,0.0127262,-0.0713812,0.352162,-0.278974,0.733473,3.32053e-05,1.94155e-05,0.560059,-0.06889311347731975,1.0822998916547881,3.3205851302176015e-05,0.422138891558711,1.9415688482071758e-05,-0.24344042649175635
770,0.7585,235.547,706.042,0.0095502,407.794,0.0192392,0.0127319,-0.0714535,0.352517,-0.279257,0.734214,3.32406e-05,1.94396e-05,0.560627,-0.06896043007169106,1.0838434476913879,3.324115247482773e-05,0.42264384048834636,1.9439788950137427e-05,-0.24365450255786703
771,0.7595,235.592,706.176,0.00953347,407.872,0.0192328,0.0127375,-0.0715259,0.352872,-0.279539,0.734954,3.32758e-05,1.94637e-05,0.561196,-0.0690278348964698,1.0853860625397789,3.327635364547277e-05,0.4231489687066736,1.9463889419091274e-05,-0.24386776191716275
772,0.7605,235.637,706.31,0.00951679,407.949,0.0192264,0.0127432,-0.0715982,0.353226,-0.279821,0.735694,3.3311e-05,1.94878e-05,0.561764,-0.06909514175083464,1.0869298193456296,3.331155481745007e-05,0.42365285262378705,1.948798988848921e-05,-0.24408096114579803
773,0.7615,235.682,706.444,0.00950014,408.027,0.01922,0.0127488,-0.0716705,0.353581,-0.280103,0.736433,3.33462e-05,1.95119e-05,0.562332,-0.06916244373908986,1.0884726304806267,3.334675599075965e-05,0.42415833910501033,1.9512090358331236e-05,-0.2442941002607273
774,0.7625,235.726,706.578,0.00948354,408.104,0.0192136,0.0127544,-0.0717427,0.353935,-0.280384,0.737172,3.33813e-05,1.9536e-05,0.562899,-0.06922964778455676,1.0900165821744379,3.33818571618405e-05,0.42466258040249727,1.9536190828839395e-05,-0.24450642378570164
775,0.7635,235.771,706.711,0.00946697,408.181,0.0192073,0.0127601,-0.0718149,0.354289,-0.280666,0.73791,3.34164e-05,1.95601e-05,0.563466,-0.0692968469780666,1.0915595837096164,3.341695833403158e-05,0.42516700023300213,1.9560291300013688e-05,-0.24471944293708203
776,0.7645,235.815,706.844,0.00945044,408.258,0.0192009,0.0127657,-0.071887,0.354643,-0.280947,0.738648,3.34514e-05,1.95842e-05,0.564033,-0.06936394825636927,1.0931037244002253,3.345195950421598e-05,0.4256715986597366,1.958439177163207e-05,-0.24493164695755554
777,0.7655,235.86,706.977,0.00943395,408.335,0.0191946,0.0127713,-0.0719591,0.354996,-0.281229,0.739385,3.34864e-05,1.96082e-05,0.564599,-0.06943104469684425,1.0946469104393124,3.3486960675732647e-05,0.42617494957027224,1.960839224190991e-05,-0.2451445462129076
778,0.7665,235.904,707.11,0.0094175,408.412,0.0191883,0.0127769,-0.0720312,0.35535,-0.28151,0.740123,3.35214e-05,1.96323e-05,0.565165,-0.06949813629984025,1.0961933304180014,3.352196184835954e-05,0.4266799048742358,1.963249271486056e-05,-0.24535663079614223
779,0.7675,235.948,707.243,0.00940109,408.488,0.0191819,0.0127825,-0.0721032,0.355703,-0.281791,0.740859,3.35563e-05,1.96563e-05,0.565731,-0.06956513002222375,1.097736696598274,3.3556863018979755e-05,0.42718361177969477,1.9656493186248625e-05,-0.2455686557919815
780,0.7685,235.993,707.375,0.00938472,408.565,0.0191756,0.0127881,-0.0721752,0.356056,-0.282071,0.741596,3.35912e-05,1.96804e-05,0.566297,-0.06963211892123289,1.0992832983964242,3.3591764190710194e-05,0.4276874965250781,1.9680593660309498e-05,-0.24577986699741106
781,0.7695,236.037,707.508,0.00936838,408.641,0.0191693,0.0127937,-0.0722471,0.356409,-0.282352,0.742332,3.36261e-05,1.97044e-05,0.566862,-0.06969900996712053,1.1008289396302455,3.3626665363550856e-05,0.42819155917317464,1.970459413302983e-05,-0.24599177308058573
782,0.7705,236.081,707.64,0.00935209,408.718,0.0191631,0.0127992,-0.072319,0.356762,-0.282632,0.743067,3.36609e-05,1.97284e-05,0.567427,-0.06976589620371487,1.102373616500084,3.366146653438484e-05,0.42869579978679506,1.972859460619425e-05,-0.24620286582975914
783,0.7715,236.125,707.772,0.00933583,408.794,0.0191568,0.0128048,-0.0723909,0.357114,-0.282912,0.743802,3.36957e-05,1.97524e-05,0.567991,-0.06983277763136164,1.1039194291247605,3.36962677065511e-05,0.42919878922926835,1.9752595080024804e-05,-0.24641389948123693
784,0.7725,236.169,707.904,0.00931961,408.87,0.0191505,0.0128104,-0.0724627,0.357466,-0.283193,0.744537,3.37304e-05,1.97764e-05,0.568555,-0.06989956124036745,1.105466378339362,3.373096887626659e-05,0.4297019557551902,1.9776595554299448e-05,-0.24662562742631322
785,0.7735,236.213,708.035,0.00930342,408.946,0.0191443,0.0128159,-0.0725345,0.357818,-0.283473,0.745271,3.37651e-05,1.98004e-05,0.569119,-0.06996634005448232,1.1070123579661773,3.3765670047314345e-05,0.430205299426905,1.9800596029240225e-05,-0.24683654272111455
786,0.7745,236.257,708.167,0.00928728,409.022,0.019138,0.0128215,-0.0726062,0.35817,-0.283752,0.746005,3.37998e-05,1.98244e-05,0.569683,-0.0700330210773572,1.1085594727585937,3.380037121969437e-05,0.43070882030677904,1.982459650462509e-05,-0.247046646014923
787,0.7755,236.3,708.298,0.00927117,409.098,0.0191318,0.0128271,-0.0726779,0.358522,-0.284032,0.746738,3.38344e-05,1.98484e-05,0.570246,-0.07009969731937404,1.1101056134434595,3.3834972389845674e-05,0.43121251845720066,1.9848596980898137e-05,-0.24725744344102196
788,0.7765,236.344,708.429,0.0092551,409.174,0.0191256,0.0128326,-0.0727496,0.358873,-0.284311,0.747471,3.3869e-05,1.98724e-05,0.570809,-0.07016636878087579,1.1116528878649112,3.38695735611072e-05,0.4317149622249019,1.9872597457393226e-05,-0.24746742931990973
789,0.7775,236.388,708.56,0.00923907,409.25,0.0191194,0.0128381,-0.0728212,0.359225,-0.284591,0.748204,3.39035e-05,1.98963e-05,0.571371,-0.07023294248550405,1.1132012968542822,3.390407473014001e-05,0.43221901459961853,1.989649793276982e-05,-0.24767810894317643
790,0.7785,236.432,708.691,0.00922308,409.325,0.0191132,0.0128437,-0.0728928,0.359576,-0.28487,0.748936,3.39381e-05,1.99203e-05,0.571934,-0.07029951142362567,1.114748726493732,3.393867590384403e-05,0.43272181170947377,1.9920498410597176e-05,-0.24788797747276003
791,0.7795,236.475,708.821,0.00920712,409.401,0.019107,0.0128492,-0.0729643,0.359927,-0.285149,0.749668,3.39725e-05,1.99442e-05,0.572496,-0.07036598263218485,1.1162972892663534,3.3973077071980384e-05,0.43322478533209074,1.9944398886861947e-05,-0.24809778745719135
792,0.7805,236.519,708.952,0.0091912,409.476,0.0191009,0.0128548,-0.0730358,0.360277,-0.285428,0.750399,3.4007e-05,1.99681e-05,0.573057,-0.07043244908822255,1.1178448681559776,3.4007578244565906e-05,0.4337265018022174,1.9968299363792852e-05,-0.2483075389128021
793,0.7815,236.562,709.082,0.00917531,409.551,0.0190947,0.0128603,-0.0731072,0.360628,-0.285706,0.75113,3.40414e-05,1.99921e-05,0.573619,-0.07049881784196488,1.1193935787393534,3.404197941492271e-05,0.4342298281329535,1.9992299843396566e-05,-0.24851648037277574
794,0.7825,236.606,709.212,0.00915947,409.626,0.0190886,0.0128658,-0.0731787,0.360978,-0.285985,0.75186,3.40758e-05,2.0016e-05,0.57418,-0.07056527480062458,1.1209413009016909,3.4076380586611776e-05,0.43473189642962673,2.0016200321437694e-05,-0.24872611502935726
795,0.7835,236.649,709.342,0.00914366,409.701,0.0190825,0.0128713,-0.07325,0.361328,-0.286263,0.75259,3.41101e-05,2.00399e-05,0.57474,-0.07063154113410852,1.1224901533136973,3.4110681756072125e-05,0.435234140480959,2.0040100800144955e-05,-0.24893494014134365
796,0.7845,236.692,709.471,0.00912788,409.776,0.0190764,0.0128768,-0.0733214,0.361678,-0.286541,0.75332,3.41444e-05,2.00638e-05,0.575301,-0.0706978956731863,1.1240401368007569,3.41449829266427e-05,0.4357365603484753,2.0064001279296306e-05,-0.2491437072080176
797,0.7855,236.735,709.601,0.00911215,409.851,0.0190703,0.0128824,-0.0733927,0.362028,-0.28682,0.754049,3.41787e-05,2.00877e-05,0.575861,-0.07076415255113899,1.1255891265986664,3.417928409832349e-05,0.436239156093722,2.008790175911379e-05,-0.2493531668927218
798,0.7865,236.779,709.73,0.00909645,409.926,0.0190642,0.0128879,-0.0734639,0.362377,-0.287097,0.754778,3.42129e-05,2.01116e-05,0.576421,-0.07083031178818056,1.1271392460218368,3.421348526799761e-05,0.4367404910370578,2.011180223959741e-05,-0.24956106726996097
799,0.7875,236.822,709.859,0.00908078,410.0,0.0190581,0.0128934,-0.0735351,0.362726,-0.287375,0.755507,3.42471e-05,2.01355e-05,0.57698,-0.07089646631485214,1.1286904958940656,3.424768643855991e-05,0.43724200097682386,2.0135702720525117e-05,-0.2497696602974857
800,0.7885,236.865,709.988,0.00906516,410.075,0.019052,0.0128989,-0.0736063,0.363076,-0.287653,0.756235,3.42813e-05,2.01593e-05,0.577539,-0.07096261613148913,1.1302407467979378,3.4281887610454476e-05,0.4377451237185095,2.0159503200112283e-05,-0.2499781953442084
801,0.7895,236.908,710.117,0.00904956,410.149,0.019046,0.0129044,-0.0736774,0.363424,-0.28793,0.756962,3.43154e-05,2.01832e-05,0.578098,-0.07102866834129828,1.1317899949043118,3.431598878012032e-05,0.4382455460900059,2.0183403682150214e-05,-0.25018592261254324
802,0.7905,236.951,710.246,0.00903401,410.224,0.0190399,0.0129099,-0.0737485,0.363773,-0.288208,0.75769,3.43495e-05,2.0207e-05,0.578657,-0.0710947158549623,1.133342503065005,3.435008995089639e-05,0.43874758138565473,2.0207204162847603e-05,-0.2503943419544261
803,0.7915,236.993,710.374,0.00901849,410.298,0.0190339,0.0129154,-0.0738196,0.364122,-0.288485,0.758417,3.43835e-05,2.02309e-05,0.579215,-0.07116075867281502,1.134894006968068,3.4384091119221694e-05,0.4392497919221994,2.0231104645995757e-05,-0.2506019539661136
804,0.7925,237.036,710.502,0.00900301,410.372,0.0190279,0.0129209,-0.0738906,0.36447,-0.288762,0.759143,3.44175e-05,2.02547e-05,0.579773,-0.07122670391786534,1.1364445027790033,3.4418092288879265e-05,0.43975073800935194,2.025490512780337e-05,-0.25080950847723815
805,0.7935,237.079,710.631,0.00898756,410.446,0.0190219,0.0129264,-0.0739616,0.364818,-0.289038,0.759869,3.44515e-05,2.02786e-05,0.58033,-0.0712926444809695,1.1379961246586117,3.445209345964706e-05,0.4402518584560795,2.027880561228379e-05,-0.251016256520356
806,0.7945,237.122,710.758,0.00897215,410.52,0.0190159,0.0129319,-0.0740325,0.365166,-0.289315,0.760595,3.44854e-05,2.03024e-05,0.580888,-0.0713584874983132,1.1395488734247143,3.4485994628186134e-05,0.4407531533230702,2.0302606095201625e-05,-0.25122369628556596
807,0.7955,237.164,710.886,0.00895677,410.594,0.01901,0.0129374,-0.0741034,0.365514,-0.289592,0.76132,3.45193e-05,2.03262e-05,0.581445,-0.07142432584755254,1.1411006087940496,3.451989579783543e-05,0.4412546226710323,2.032640657856355e-05,-0.2514310785979186
808,0.7965,237.207,711.014,0.00894143,410.668,0.019004,0.0129429,-0.0741743,0.365861,-0.289868,0.762045,3.45532e-05,2.035e-05,0.582001,-0.07149015952901838,1.1426534695794412,3.455379696859495e-05,0.4417548248051504,2.0350207062591608e-05,-0.2516376551113554
809,0.7975,237.25,711.141,0.00892612,410.741,0.0189981,0.0129484,-0.0742451,0.366209,-0.290144,0.762769,3.45871e-05,2.03738e-05,0.582558,-0.07155589569863585,1.1442053123907279,3.458769814068674e-05,0.4422566427954484,2.03740075472858e-05,-0.2518441746175418
810,0.7985,237.292,711.269,0.00891085,410.815,0.0189921,0.0129539,-0.0743158,0.366556,-0.29042,0.763493,3.46209e-05,2.03976e-05,0.583114,-0.07162153437645535,1.1457582791430276,3.4621499310327764e-05,0.4427571926908829,2.039780803242408e-05,-0.25205063713220976
811,0.7995,237.334,711.396,0.00889562,410.888,0.0189862,0.0129594,-0.0743866,0.366903,-0.290696,0.764217,3.46546e-05,2.04213e-05,0.583669,-0.07168726124506286,1.147312370650368,3.465520047751802e-05,0.44325791630726963,2.042150851622182e-05,-0.2522570426710866
812,0.8005,237.377,711.523,0.00888041,410.962,0.0189803,0.0129649,-0.0744573,0.36725,-0.290972,0.76494,3.46883e-05,2.04451e-05,0.584225,-0.07175289063566659,1.1488654388608532,3.468890164604055e-05,0.44375881370490067,2.0445309002470324e-05,-0.2524633912498956
813,0.8015,237.419,711.649,0.00886525,411.035,0.0189744,0.0129704,-0.0745279,0.367596,-0.291247,0.765663,3.4722e-05,2.04689e-05,0.58478,-0.07181842256828319,1.1504196303456697,3.47226028156733e-05,0.4442584406849257,2.0469109489384962e-05,-0.25266893555366476
814,0.8025,237.461,711.776,0.00885012,411.108,0.0189686,0.0129759,-0.0745986,0.367943,-0.291523,0.766385,3.47557e-05,2.04926e-05,0.585335,-0.07188404268610915,1.1519727939433682,3.475630398641627e-05,0.44475968532475885,2.0492809974737014e-05,-0.25287517046572483
815,0.8035,237.504,711.902,0.00883502,411.181,0.0189627,0.0129814,-0.0746691,0.368289,-0.291798,0.767107,3.47893e-05,2.05164e-05,0.585889,-0.07194947255466988,1.1535270793301011,3.478990515470848e-05,0.44525965866628137,2.0516610462761875e-05,-0.2530806015457787
816,0.8045,237.546,712.029,0.00881996,411.254,0.0189568,0.0129869,-0.0747397,0.368635,-0.292073,0.767829,3.48229e-05,2.05401e-05,0.586444,-0.072014990609093,1.155082487316093,3.482350632411091e-05,0.445759805028511,2.054031094922415e-05,-0.25328597614005255
817,0.8055,237.588,712.155,0.00880493,411.327,0.018951,0.0129924,-0.0748102,0.368981,-0.292348,0.76855,3.48565e-05,2.05639e-05,0.586997,-0.07208041124615039,1.1566368620742127,3.485710749484561e-05,0.4462601244713231,2.0564111438359234e-05,-0.2534912942640781
818,0.8065,237.63,712.281,0.00878994,411.4,0.0189452,0.0129979,-0.0748806,0.369326,-0.292623,0.769271,3.489e-05,2.05876e-05,0.587551,-0.07214573448579376,1.158192357940644,3.489060866312954e-05,0.44675917029472023,2.0587811926153776e-05,-0.25369655593338236
819,0.8075,237.672,712.406,0.00877498,411.472,0.0189394,0.0130034,-0.0749511,0.369672,-0.292898,0.769991,3.49235e-05,2.06113e-05,0.588104,-0.07221114590573285,1.159746815976101,3.49241098325237e-05,0.4472598355777415,2.0611512414392408e-05,-0.2539017611634883
820,0.8085,237.714,712.532,0.00876006,411.545,0.0189336,0.0130089,-0.0750215,0.370017,-0.293172,0.770711,3.49569e-05,2.0635e-05,0.588657,-0.07227645994197995,1.1613023936243567,3.495751099946709e-05,0.44775922636097265,2.063521290307513e-05,-0.2541061640764516
821,0.8095,237.756,712.658,0.00874517,411.618,0.0189278,0.0130144,-0.0750918,0.370362,-0.293447,0.771431,3.49904e-05,2.06587e-05,0.58921,-0.07234167661445323,1.162859091691821,3.499101217108169e-05,0.4482587894637473,2.0658913392423983e-05,-0.25431125667980514
822,0.8105,237.797,712.783,0.00873031,411.69,0.0189221,0.0130199,-0.0751621,0.370707,-0.293721,0.77215,3.50237e-05,2.06824e-05,0.589762,-0.07240688870235545,1.1644147465696584,3.502431333690659e-05,0.44875852494552615,2.0682613882216927e-05,-0.25451554740636717
823,0.8115,237.839,712.908,0.00871549,411.762,0.0189163,0.0130254,-0.0752324,0.371051,-0.293995,0.772869,3.50571e-05,2.07061e-05,0.590314,-0.07247209620600903,1.1659715203655554,3.505771450740269e-05,0.449256983608082,2.0706314372676005e-05,-0.2547197821649382
824,0.8125,237.881,713.033,0.0087007,411.834,0.0189106,0.0130309,-0.0753026,0.371396,-0.294269,0.773587,3.50904e-05,2.07298e-05,0.590866,-0.0725372063794616,1.167527246355974,3.509101567522599e-05,0.44975706352625244,2.0730014863801216e-05,-0.2549239609708511
825,0.8135,237.923,713.158,0.00868594,411.907,0.0189049,0.0130364,-0.0753728,0.37174,-0.294543,0.774305,3.51237e-05,2.07534e-05,0.591418,-0.07260231198234035,1.1690840897587567,3.5124316844381553e-05,0.4502558657451683,2.075361535336384e-05,-0.2551280838394351
826,0.8145,237.964,713.282,0.00867122,411.979,0.0188992,0.0130419,-0.0754429,0.372084,-0.294816,0.775023,3.51569e-05,2.07771e-05,0.591969,-0.07266732028170286,1.1706420513764937,3.515751801108635e-05,0.4507548395815639,2.077731584537723e-05,-0.25533140611779315
827,0.8155,238.006,713.407,0.00865653,412.05,0.0188935,0.0130474,-0.0755131,0.372428,-0.29509,0.77574,3.51902e-05,2.08007e-05,0.59252,-0.07273241675090625,1.1721989598123055,3.519081918224032e-05,0.4512539850944859,2.080091633605008e-05,-0.25553541736170016
828,0.8165,238.047,713.531,0.00864188,412.122,0.0188878,0.013053,-0.0755831,0.372772,-0.295363,0.776457,3.52233e-05,2.08244e-05,0.59307,-0.07279732320998111,1.1737569849517566,3.5223920347604576e-05,0.45175330234300115,2.0824616829395737e-05,-0.2557386284531843
829,0.8175,238.089,713.655,0.00862726,412.194,0.0188822,0.0130585,-0.0756532,0.373115,-0.295636,0.777174,3.52565e-05,2.0848e-05,0.59362,-0.07286231783953578,1.17531612759581,3.5257121517640044e-05,0.45225133913413185,2.0848217320956763e-05,-0.2559417840756124
830,0.8185,238.13,713.779,0.00861267,412.266,0.0188765,0.013064,-0.0757232,0.373459,-0.295909,0.77789,3.52896e-05,2.08716e-05,0.59417,-0.07292721520585266,1.1768742116707038,3.529022268522475e-05,0.4527509995314549,2.087181781340597e-05,-0.2561448842441253
831,0.8195,238.171,713.903,0.00859812,412.337,0.0188709,0.0130696,-0.0757931,0.373802,-0.296182,0.778605,3.53227e-05,2.08953e-05,0.59472,-0.07299201532871913,1.178431233300949,3.5323323853919675e-05,0.4532493785914169,2.0895518308305938e-05,-0.25634792897385994
832,0.8205,238.213,714.027,0.0085836,412.409,0.0188653,0.0130751,-0.075863,0.374145,-0.296455,0.77932,3.53557e-05,2.09189e-05,0.595269,-0.07305681092221528,1.179989368599749,3.535632502016384e-05,0.4537479286247166,2.091911880164332e-05,-0.25655091827994914
833,0.8215,238.254,714.15,0.00856911,412.48,0.0188597,0.0130806,-0.0759329,0.374488,-0.296728,0.780035,3.53887e-05,2.09425e-05,0.595818,-0.07312160198665763,1.181548618363661,3.538932618751822e-05,0.45424664969000816,2.094271929564684e-05,-0.25675385217752134
834,0.8225,238.295,714.274,0.00855465,412.551,0.0188541,0.0130862,-0.0760028,0.37483,-0.297,0.78075,3.54217e-05,2.09661e-05,0.596367,-0.07318638852236303,1.183108983389813,3.5422327355760785e-05,0.4547440871011508,2.096631979031649e-05,-0.25695598763806016
835,0.8235,238.336,714.397,0.00854023,412.622,0.0188486,0.0130917,-0.0760726,0.375173,-0.297272,0.781464,3.54547e-05,2.09897e-05,0.596916,-0.07325107785476015,1.1846682798065307,3.5455328525335617e-05,0.455243149907405,2.0989920285208186e-05,-0.25715806812523045
836,0.8245,238.377,714.52,0.00852584,412.694,0.018843,0.0130973,-0.0761423,0.375515,-0.297544,0.782178,3.54876e-05,2.10133e-05,0.597464,-0.0733156700035712,1.1862286899584458,3.548822969223764e-05,0.4557409281799061,2.101352078098806e-05,-0.25736009365398294
837,0.8255,238.418,714.643,0.00851148,412.765,0.0188375,0.0131028,-0.0762121,0.375857,-0.297816,0.782891,3.55205e-05,2.10368e-05,0.598012,-0.07338035031243584,1.1877880268519285,3.552113086047193e-05,0.4562388767216907,2.1037021274983303e-05,-0.2575620642392642
838,0.8265,238.459,714.765,0.00849715,412.836,0.018832,0.0131084,-0.0762817,0.376199,-0.298088,0.783604,3.55533e-05,2.10604e-05,0.598559,-0.0734448407957593,1.1893484759490702,3.555393202603341e-05,0.456736995591001,2.10606217718734e-05,-0.25776397989601696
839,0.8275,238.5,714.888,0.00848286,412.906,0.0188265,0.013114,-0.0763514,0.37654,-0.29836,0.784316,3.55861e-05,2.1084e-05,0.599106,-0.07350941943976397,1.1909078471342118,3.558673319270511e-05,0.45723382761154263,2.1084222268985542e-05,-0.2579658406391796
840,0.8285,238.541,715.01,0.0084686,412.977,0.018821,0.0131195,-0.076421,0.376882,-0.298631,0.785028,3.56189e-05,2.11075e-05,0.599653,-0.07357390094018867,1.1924683289869877,3.561953436048704e-05,0.45773228681225064,2.1107722764757142e-05,-0.25816690465096226
841,0.8295,238.582,715.133,0.00845437,413.048,0.0188155,0.0131251,-0.0764906,0.377223,-0.298903,0.78574,3.56516e-05,2.11311e-05,0.6002,-0.07363837795285721,1.1940299222984754,3.56522355258182e-05,0.4582294582849722,2.113132326320155e-05,-0.2583686558134952
842,0.8305,238.622,715.255,0.00844017,413.118,0.0188101,0.0131307,-0.0765601,0.377564,-0.299174,0.786452,3.56844e-05,2.11546e-05,0.600746,-0.07370275784836222,1.1955926278603148,3.568503669582057e-05,0.45872679932207494,2.1154823760083374e-05,-0.2585696106771559
843,0.8315,238.663,715.377,0.00842601,413.189,0.0188046,0.0131363,-0.0766296,0.377905,-0.299445,0.787163,3.5717e-05,2.11782e-05,0.601292,-0.07376713326961992,1.1971542493093628,3.5717637859589146e-05,0.4592243099813902,2.1178424259638007e-05,-0.25877051108942706
844,0.8325,238.704,715.498,0.00841188,413.259,0.0187992,0.0131419,-0.0766991,0.378246,-0.299716,0.787873,3.57497e-05,2.12017e-05,0.601838,-0.07383150421694129,1.1987147827501885,3.575033902825098e-05,0.4597219903207692,2.1201924757630053e-05,-0.2589713570650629
845,0.8335,238.744,715.62,0.00839777,413.329,0.0187938,0.0131475,-0.0767685,0.378586,-0.299987,0.788583,3.57823e-05,2.12252e-05,0.602384,-0.07389577808021985,1.200276424563183,3.578294019424e-05,0.4602183801789721,2.1225425256066188e-05,-0.2591721486188139
846,0.8345,238.785,715.741,0.00838371,413.4,0.0187884,0.0131531,-0.0768379,0.378927,-0.300257,0.789293,3.58149e-05,2.12487e-05,0.602929,-0.07396004748304696,1.2018391755355693,3.58155413611172e-05,0.4607163995540908,2.1248925755168457e-05,-0.2593721451379417
847,0.8355,238.825,715.863,0.00836967,413.47,0.018783,0.0131587,-0.0769072,0.379267,-0.300528,0.790003,3.58475e-05,2.12722e-05,0.603474,-0.07402421982815899,1.2034030364551307,3.5848142529326665e-05,0.46121312756891664,2.127242625493686e-05,-0.25957282809284077
848,0.8365,238.866,715.984,0.00835566,413.54,0.0187777,0.0131643,-0.0769766,0.379607,-0.300798,0.790712,3.588e-05,2.12957e-05,0.604018,-0.07408848031743809,1.204965803143304,3.5880643694863323e-05,0.46171002449998166,2.1295926754927308e-05,-0.25977271644311406
849,0.8375,238.906,716.105,0.00834169,413.61,0.0187724,0.01317,-0.0770458,0.379946,-0.301069,0.79142,3.59125e-05,2.13192e-05,0.604562,-0.07415255117772279,1.2065274716973637,3.5913144861510204e-05,0.46220562819836775,2.1319427255805934e-05,-0.2599732908578972
850,0.8385,238.946,716.226,0.00832774,413.679,0.018767,0.0131756,-0.0771151,0.380286,-0.301339,0.792128,3.59449e-05,2.13427e-05,0.605106,-0.07421671018279097,1.208090246304256,3.594554602570632e-05,0.46270286263701954,2.134292775712865e-05,-0.2601730710978196
851,0.8395,238.987,716.346,0.00831383,413.749,0.0187617,0.0131813,-0.0771843,0.380625,-0.301608,0.792836,3.59774e-05,2.13662e-05,0.60565,-0.07428077216987605,1.2096541277473438,3.59780471943516e-05,0.4631988029645895,2.1366428258895453e-05,-0.26037205777678607
852,0.8405,239.027,716.467,0.00829995,413.819,0.0187565,0.0131869,-0.0772534,0.380965,-0.301878,0.793544,3.60097e-05,2.13896e-05,0.606193,-0.07434473715850332,1.2112191168105446,3.6010348356985133e-05,0.4636963751400742,2.138982875909967e-05,-0.260571730364174
853,0.8415,239.067,716.587,0.0082861,413.888,0.0187512,0.0131926,-0.0773225,0.381304,-0.302148,0.794251,3.60421e-05,2.14131e-05,0.606737,-0.07440869772730252,1.212783001494223,3.6042749524289874e-05,0.4641926523254767,2.14133292619767e-05,-0.26077134904724075
854,0.8425,239.107,716.708,0.00827228,413.958,0.0187459,0.0131983,-0.0773916,0.381643,-0.302417,0.794958,3.60744e-05,2.14365e-05,0.607279,-0.0744726538765792,1.2143479922353184,3.6075050688921806e-05,0.464689097777365,2.1436729763513185e-05,-0.26097017481108287
855,0.8435,239.147,716.828,0.00825849,414.027,0.0187407,0.0132039,-0.0774607,0.381981,-0.302687,0.795664,3.61067e-05,2.146e-05,0.607822,-0.07453660560663855,1.2159118739031074,3.610735185466396e-05,0.4651842463678115,2.1460230267500435e-05,-0.26116968592867096
856,0.8445,239.187,716.948,0.00824474,414.096,0.0187355,0.0132096,-0.0775297,0.38232,-0.302956,0.79637,3.6139e-05,2.14834e-05,0.608364,-0.07460046037783674,1.217476860061193,3.613965302151634e-05,0.4656810280270638,2.14836307699251e-05,-0.26136840455430277
857,0.8455,239.227,717.067,0.00823101,414.166,0.0187303,0.0132153,-0.0775986,0.382658,-0.303225,0.797076,3.61712e-05,2.15069e-05,0.608906,-0.0746642182096342,1.2190429514896204,3.6171854185695906e-05,0.46617651194660215,2.1507131275022573e-05,-0.2615670697318133
858,0.8465,239.267,717.187,0.00821732,414.235,0.0187251,0.013221,-0.0776676,0.382996,-0.303494,0.797781,3.62035e-05,2.15303e-05,0.609448,-0.07472806417586664,1.2206079283599478,3.6204155354546685e-05,0.46667216336801154,2.153053177855746e-05,-0.2617656814755782
859,0.8475,239.307,717.306,0.00820365,414.304,0.0187199,0.0132267,-0.0777365,0.383334,-0.303762,0.798486,3.62356e-05,2.15537e-05,0.609989,-0.0747918132160652,1.222174008927977,3.623625651738571e-05,0.46716798234791734,2.155393228275848e-05,-0.2619635017638401
860,0.8485,239.347,717.426,0.00819002,414.373,0.0187148,0.0132325,-0.0778053,0.383672,-0.304031,0.79919,3.62678e-05,2.15771e-05,0.61053,-0.07485546534965748,1.2237389702320063,3.6268457684673905e-05,0.46766396894296336,2.157733278740359e-05,-0.2621620068817303
861,0.8495,239.387,717.545,0.00817641,414.442,0.0187097,0.0132382,-0.0778741,0.38401,-0.3043,0.799894,3.62999e-05,2.16005e-05,0.611071,-0.07491911310413357,1.2253050336566944,3.630055884928929e-05,0.4681601232098138,2.160073329249279e-05,-0.2623604586089252
862,0.8505,239.426,717.664,0.00816284,414.51,0.0187046,0.0132439,-0.0779429,0.384347,-0.304568,0.800598,3.6332e-05,2.16239e-05,0.611611,-0.0749827564797948,1.226872199978208,3.6332660015014895e-05,0.4686549765494399,2.1624133798248124e-05,-0.262558119518273
863,0.8515,239.466,717.783,0.00814929,414.579,0.0186995,0.0132497,-0.0780117,0.384684,-0.304836,0.801301,3.6364e-05,2.16473e-05,0.612151,-0.07504639547694236,1.2284382415339037,3.636466117828974e-05,0.4691499966827446,2.1647534304447547e-05,-0.2627557274615949
864,0.8525,239.506,717.902,0.00813578,414.648,0.0186944,0.0132555,-0.0780804,0.385021,-0.305104,0.802004,3.6396e-05,2.16707e-05,0.612691,-0.0751099376068759,1.2300053844038796,3.639666234245276e-05,0.46964518366594676,2.1670934811313103e-05,-0.2629532824530839
865,0.8535,239.545,718.02,0.0081223,414.716,0.0186894,0.0132612,-0.0781491,0.385358,-0.305372,0.802706,3.6428e-05,2.16941e-05,0.613231,-0.07517347537161512,1.231571397790118,3.6428663507726e-05,0.4701405375552845,2.169433531862275e-05,-0.2631507845069292
866,0.8545,239.585,718.139,0.00810884,414.785,0.0186843,0.013267,-0.0782177,0.385695,-0.30564,0.803409,3.646e-05,2.17175e-05,0.61377,-0.07523691629515605,1.2331407440433404,3.646066467388742e-05,0.4706360584070146,2.1717735826598528e-05,-0.2633482336373161
867,0.8555,239.624,718.257,0.00809542,414.853,0.0186793,0.0132728,-0.0782863,0.386031,-0.305907,0.80411,3.64919e-05,2.17408e-05,0.614309,-0.07530035286679893,1.2347067245169439,3.6492565837376034e-05,0.47113027514640193,2.174103633301172e-05,-0.2635448934036878
868,0.8565,239.664,718.375,0.00808203,414.921,0.0186743,0.0132786,-0.0783549,0.386367,-0.306175,0.804812,3.65238e-05,2.17642e-05,0.614848,-0.07536378508684227,1.2362760394026324,3.6524467002196914e-05,0.47162465797051434,2.176443684187568e-05,-0.26374223692704235
869,0.8575,239.703,718.493,0.00806866,414.99,0.0186693,0.0132844,-0.0784234,0.386704,-0.306442,0.805513,3.65557e-05,2.17875e-05,0.615386,-0.07542712049830125,1.2378442184888065,3.655636816768393e-05,0.4721206790551087,2.1787737349399094e-05,-0.26393879150857846
870,0.8585,239.742,718.611,0.00805533,415.058,0.0186644,0.0132903,-0.0784919,0.38704,-0.306709,0.806213,3.65875e-05,2.18109e-05,0.615924,-0.07549045157143308,1.2394112578415344,3.658816933072018e-05,0.4726153947108471,2.1811137859373275e-05,-0.2641352936170469
871,0.8595,239.782,718.729,0.00804202,415.126,0.0186594,0.0132961,-0.0785603,0.387375,-0.306976,0.806914,3.66193e-05,2.18342e-05,0.616462,-0.07555368586190814,1.2409816354863388,3.6619970494644605e-05,0.47310880350943463,2.183443836778487e-05,-0.2643317432664558
872,0.8605,239.821,718.846,0.00802875,415.194,0.0186545,0.013302,-0.0786287,0.387711,-0.307243,0.807613,3.66511e-05,2.18576e-05,0.617,-0.07561691582730579,1.2425486292500612,3.6651771659679255e-05,0.47360385123077364,2.1857838879091318e-05,-0.2645281404708102
873,0.8615,239.86,718.964,0.0080155,415.261,0.0186496,0.0133078,-0.0786971,0.388046,-0.30751,0.808313,3.66828e-05,2.18809e-05,0.617537,-0.07568014146792157,1.2441189628431717,3.6683472822041097e-05,0.4740975912177663,2.1881139388613136e-05,-0.26472448524411085
874,0.8625,239.899,719.081,0.00800228,415.329,0.0186447,0.0133137,-0.0787654,0.388382,-0.307776,0.809012,3.67145e-05,2.19042e-05,0.618074,-0.07574327035838313,1.2456881503653459,3.671517398551316e-05,0.47459297122759647,2.1904439898801087e-05,-0.26492004252076495
875,0.8635,239.938,719.198,0.0079891,415.397,0.0186398,0.0133196,-0.0788337,0.388717,-0.308043,0.809711,3.67462e-05,2.19275e-05,0.618611,-0.0758063949372888,1.2472584351330407,3.6746875149873404e-05,0.4750870426252962,2.1927740409433127e-05,-0.26511628267018617
876,0.8645,239.977,719.315,0.00797594,415.464,0.018635,0.0133255,-0.078902,0.389051,-0.308309,0.810409,3.67779e-05,2.19509e-05,0.619147,-0.0758695152049329,1.2488275690848059,3.677857631534387e-05,0.47557980398409927,2.1951140922737977e-05,-0.2653117357425848
877,0.8655,240.016,719.432,0.00796281,415.532,0.0186302,0.0133314,-0.0789702,0.389386,-0.308575,0.811107,3.68095e-05,2.19742e-05,0.619683,-0.0759325387548685,1.2503977986744017,3.681017747791948e-05,0.47607420602615225,2.197444143448024e-05,-0.2655071368313804
878,0.8665,240.055,719.549,0.00794971,415.599,0.0186254,0.0133374,-0.0790384,0.389721,-0.308841,0.811805,3.68411e-05,2.19975e-05,0.620219,-0.0759955580067444,1.2519691246668514,3.6841778641605316e-05,0.47656877372063455,2.1997741946666594e-05,-0.26570248595039847
879,0.8675,240.094,719.665,0.00793664,415.667,0.0186206,0.0133433,-0.0791066,0.390055,-0.309107,0.812502,3.68727e-05,2.20208e-05,0.620754,-0.07605857296085405,1.25353929428729,3.6873379806401374e-05,0.4770620300602806,2.202104245951908e-05,-0.26589778311346146
880,0.8685,240.133,719.781,0.0079236,415.734,0.0186158,0.0133493,-0.0791747,0.390389,-0.309373,0.813199,3.69042e-05,2.2044e-05,0.62129,-0.07612149122964407,1.255110558697444,3.690488096830258e-05,0.4775554511750597,2.204424297080898e-05,-0.26609302833438775
881,0.8695,240.172,719.898,0.00791058,415.801,0.0186111,0.0133552,-0.0792428,0.390723,-0.309638,0.813896,3.69357e-05,2.20673e-05,0.621825,-0.07618440521384584,1.2566829186606476,3.6936382131314005e-05,0.47804903712001656,2.2067543484549645e-05,-0.2662874879148467
882,0.8705,240.211,720.014,0.0078976,415.868,0.0186063,0.0133612,-0.0793108,0.391057,-0.309904,0.814592,3.69672e-05,2.20906e-05,0.622359,-0.07624722253847804,1.2582541166855221,3.6967883295435655e-05,0.4785427879502131,2.209084399917849e-05,-0.26648262948808144
883,0.8715,240.249,720.13,0.00788464,415.935,0.0186016,0.0133672,-0.0793789,0.39139,-0.310169,0.815287,3.69986e-05,2.21139e-05,0.622894,-0.07631012796066927,1.2598241488195878,3.699928445666245e-05,0.47903522468476645,2.2114144514029377e-05,-0.2666769858379133
884,0.8725,240.288,720.246,0.00787171,416.002,0.0185969,0.0133732,-0.0794468,0.391724,-0.310434,0.815983,3.70301e-05,2.21371e-05,0.623428,-0.07637284437373437,1.2613975339016608,3.703078562256046e-05,0.4795293049566234,2.213734502731768e-05,-0.2668712906901364
885,0.8735,240.326,720.361,0.00785881,416.069,0.0185923,0.0133793,-0.0795148,0.392057,-0.310699,0.816678,3.70614e-05,2.21604e-05,0.623962,-0.07643564888493937,1.2629697514700422,3.706208678222467e-05,0.4800220702560427,2.2160645543500834e-05,-0.26706554405839533
886,0.8745,240.365,720.477,0.00784594,416.136,0.0185876,0.0133853,-0.0795827,0.39239,-0.310964,0.817373,3.70928e-05,2.21836e-05,0.624495,-0.07649835677542316,1.264543062109432,3.7093487946338044e-05,0.4805149996736311,2.218384605789936e-05,-0.26725974595633195
887,0.8755,240.404,720.592,0.0078331,416.202,0.018583,0.0133914,-0.0796505,0.392723,-0.311229,0.818067,3.71241e-05,2.22069e-05,0.625028,-0.07656096806428703,1.266115200463445,3.7124789108000655e-05,0.4810080932640486,2.2207146574970693e-05,-0.2674538963975839
888,0.8765,240.442,720.708,0.00782028,416.269,0.0185784,0.0133974,-0.0797184,0.393056,-0.311494,0.818761,3.71554e-05,2.22301e-05,0.625561,-0.07662366744588744,1.2676884302601623,3.71560902703294e-05,0.4815013510819741,2.223034709047944e-05,-0.2676479953957853
889,0.8775,240.48,720.823,0.0078075,416.336,0.0185738,0.0134035,-0.0797861,0.393388,-0.311758,0.819454,3.71867e-05,2.22534e-05,0.626094,-0.07668617790759835,1.269260482995691,3.718739143399041e-05,0.48199329118807244,2.2253647608660998e-05,-0.26784131080624385
890,0.8785,240.519,720.938,0.00779474,416.402,0.0185692,0.0134096,-0.0798539,0.393721,-0.312022,0.820147,3.7218e-05,2.22766e-05,0.626626,-0.07674877646262124,1.2708336255413406,3.721869259831756e-05,0.4824868771315365,2.227684812527997e-05,-0.2680345751881702
891,0.8795,240.557,721.053,0.00778201,416.468,0.0185647,0.0134157,-0.0799216,0.394053,-0.312286,0.82084,3.72492e-05,2.22998e-05,0.627159,-0.07681127845473834,1.272407858652612,3.72498937599719e-05,0.4829791444866034,2.230004864234303e-05,-0.26822778855503393
892,0.8805,240.595,721.167,0.0077693,416.535,0.0185602,0.0134219,-0.0799893,0.394385,-0.312551,0.821533,3.72804e-05,2.23231e-05,0.62769,-0.07687377621561386,1.2739831830855284,3.728109492273646e-05,0.48347157530156504,2.2323349162300943e-05,-0.26842168249898457
893,0.8815,240.634,721.282,0.00775663,416.601,0.0185557,0.013428,-0.080057,0.394717,-0.312814,0.822225,3.73115e-05,2.23463e-05,0.628222,-0.07693626974553425,1.2755573240381768,3.7312196082606164e-05,0.4839641696306993,2.2346549680474226e-05,-0.2686140622974349
894,0.8825,240.672,721.396,0.00774398,416.667,0.0185512,0.0134342,-0.0801246,0.395048,-0.313078,0.822916,3.73427e-05,2.23695e-05,0.628753,-0.07699866674465716,1.2771302775419344,3.7343397247369126e-05,0.4844554430721162,2.2369750199091598e-05,-0.26880712269989404
895,0.8835,240.71,721.511,0.00773136,416.733,0.0185467,0.0134404,-0.0801921,0.39538,-0.313342,0.823608,3.73738e-05,2.23927e-05,0.629284,-0.07706096723198674,1.2787065970376355,3.7374498409237233e-05,0.4849483640995791,2.2392950718375104e-05,-0.26900013214113394
896,0.8845,240.748,721.625,0.00771877,416.799,0.0185423,0.0134466,-0.0802597,0.395711,-0.313605,0.824299,3.74048e-05,2.24159e-05,0.629815,-0.07712335580184448,1.2802817274410683,3.740549956821049e-05,0.48543996336328576,2.24161512381027e-05,-0.26919235982733214
897,0.8855,240.786,721.739,0.0077062,416.865,0.0185379,0.0134528,-0.0803272,0.396042,-0.313869,0.824989,3.74359e-05,2.24391e-05,0.630345,-0.0771856478729468,1.2818556647789383,3.7436600732077e-05,0.485931725373282,2.243935175849643e-05,-0.26938526757939396
898,0.8865,240.824,721.853,0.00769366,416.931,0.0185335,0.013459,-0.0803947,0.396373,-0.314132,0.82568,3.74669e-05,2.24623e-05,0.630876,-0.07724793573947619,1.2834329719401634,3.746760189304865e-05,0.48642365018344513,2.2462552279334247e-05,-0.2695773939882904
899,0.8875,240.862,721.966,0.00768115,416.996,0.0185291,0.0134653,-0.0804621,0.396704,-0.314395,0.826369,3.74979e-05,2.24854e-05,0.631405,-0.07731012713273389,1.2850067993791225,3.749860305513053e-05,0.4869157378476716,2.248565279860948e-05,-0.2697694698745853
900,0.8885,240.9,722.08,0.00766867,417.062,0.0185247,0.0134716,-0.0805295,0.397035,-0.314658,0.827059,3.75289e-05,2.25086e-05,0.631935,-0.07737231433443292,1.2865839981416918,3.752960421787854e-05,0.48740798841987454,2.2508853320335476e-05,-0.2699614952515643
901,0.8895,240.938,722.193,0.00765622,417.128,0.0185204,0.0134779,-0.0805968,0.397365,-0.314921,0.827748,3.75598e-05,2.25318e-05,0.632464,-0.0774344050883009,1.2881599973858044,3.756050537817579e-05,0.4878989140543277,2.253205384294965e-05,-0.2701534701325098
902,0.8905,240.976,722.307,0.00764379,417.193,0.0185161,0.0134842,-0.0806642,0.397695,-0.315183,0.828437,3.75907e-05,2.2555e-05,0.632993,-0.07749658391394798,1.2897370828675618,3.759140653913917e-05,0.4883900017209739,2.2555254366007915e-05,-0.27034466487573006
903,0.8915,241.013,722.42,0.00763139,417.258,0.0185118,0.0134905,-0.0807315,0.398025,-0.315446,0.829125,3.76216e-05,2.25781e-05,0.633522,-0.07755866630475461,1.2913129640215306,3.7622307701212776e-05,0.488881251473293,2.257835488728155e-05,-0.2705365389963149
904,0.8925,241.051,722.533,0.00761901,417.324,0.0185075,0.0134969,-0.0807987,0.398355,-0.315708,0.829813,3.76524e-05,2.26013e-05,0.634051,-0.07762065227962689,1.2928899297547858,3.765310886061357e-05,0.4893726633647817,2.260155541122799e-05,-0.27072763338863925
905,0.8935,241.089,722.646,0.00760666,417.389,0.0185033,0.0135032,-0.0808659,0.398685,-0.31597,0.830501,3.76833e-05,2.26245e-05,0.634579,-0.07768263408918163,1.2944679808137747,3.768401002446353e-05,0.4898642374489548,2.2624755935840568e-05,-0.27091867772079115
906,0.8945,241.126,722.759,0.00759434,417.454,0.0184991,0.0135096,-0.0809331,0.399015,-0.316232,0.831188,3.7714e-05,2.26476e-05,0.635107,-0.07774461173369862,1.2960448218994882,3.771471118185765e-05,0.49035597377934503,2.264785645889056e-05,-0.27110967200588443
907,0.8955,241.164,722.871,0.00758205,417.519,0.0184949,0.013516,-0.0810003,0.399344,-0.316494,0.831875,3.77448e-05,2.26708e-05,0.635634,-0.07780658521345785,1.2976227466472232,3.774551234392298e-05,0.49084638156237514,2.2671056984613358e-05,-0.2713006162570297
908,0.8965,241.202,722.984,0.00756978,417.584,0.0184907,0.0135224,-0.0810674,0.399673,-0.316756,0.832562,3.77756e-05,2.26939e-05,0.636162,-0.07786846231559008,1.2992017558017106,3.777631350687649e-05,0.49133695071611005,2.2694157508551527e-05,-0.2714915104873342
909,0.8975,241.239,723.096,0.00755754,417.649,0.0184865,0.0135289,-0.0811345,0.400002,-0.317018,0.833248,3.78063e-05,2.2717e-05,0.636689,-0.07793033526590798,1.3007795493274945,3.780701466715719e-05,0.4918276812936493,2.2717258032933785e-05,-0.27168235470990165
910,0.8985,241.276,723.209,0.00754532,417.714,0.0184824,0.0135353,-0.0812015,0.400331,-0.317279,0.833934,3.7837e-05,2.27402e-05,0.637216,-0.07799211186390598,1.302358425590974,3.783771582832607e-05,0.4923185733481099,2.2740458560210897e-05,-0.27187242081061724
911,0.8995,241.314,723.321,0.00753314,417.779,0.0184783,0.0135418,-0.0812685,0.40066,-0.317541,0.834619,3.78676e-05,2.27633e-05,0.637742,-0.07805388432301064,1.3039360813979282,3.786831698660009e-05,0.49280962693262675,2.2763559085925422e-05,-0.27206316524775254
912,0.9005,241.351,723.433,0.00752097,417.844,0.0184742,0.0135483,-0.0813355,0.400988,-0.317802,0.835305,3.78983e-05,2.27864e-05,0.638268,-0.07811565264349918,1.305517123785303,3.789901814954533e-05,0.4932993488002564,2.2786659612084037e-05,-0.2722531319698872
913,0.9015,241.389,723.544,0.00750884,417.908,0.0184702,0.0135549,-0.0814024,0.401317,-0.318063,0.835989,3.79289e-05,2.28095e-05,0.638794,-0.07817732464338589,1.307094636945969,3.792961930981775e-05,0.49379072511298294,2.280976013868674e-05,-0.2724430491171772
914,0.9025,241.426,723.656,0.00749673,417.973,0.0184661,0.0135614,-0.0814693,0.401645,-0.318324,0.836674,3.79595e-05,2.28327e-05,0.63932,-0.07823899251755384,1.3086755381691297,3.7960220470978356e-05,0.4942807688335966,2.28329606681843e-05,-0.27263291670255996
915,0.9035,241.463,723.768,0.00748465,418.037,0.0184621,0.013568,-0.0815362,0.401973,-0.318585,0.837358,3.799e-05,2.28558e-05,0.639845,-0.07830065626627902,1.3102552124242441,3.7990721629244106e-05,0.4947709733149144,2.2856061195897226e-05,-0.27282273473896923
916,0.9045,241.5,723.879,0.00747259,418.102,0.0184581,0.0135746,-0.081603,0.402301,-0.318846,0.838042,3.80205e-05,2.28789e-05,0.640371,-0.07836222372606438,1.3118359675461635,3.8021222788398035e-05,0.4952613386096736,2.2879161724054242e-05,-0.2730125032393358
917,0.9055,241.537,723.991,0.00746056,418.166,0.0184541,0.0135812,-0.0816698,0.402628,-0.319106,0.838725,3.8051e-05,2.2902e-05,0.640896,-0.07842378707328079,1.313415490857806,3.805172394844014e-05,0.4957503690195133,2.2902262252877392e-05,-0.27320149541844563
918,0.9065,241.574,724.102,0.00744855,418.23,0.0184502,0.0135878,-0.0817366,0.402956,-0.319367,0.839408,3.80815e-05,2.29251e-05,0.64142,-0.07848534630820303,1.3149960933523692,3.808222510959247e-05,0.4962410556087531,2.292536278214463e-05,-0.2733911650751746
919,0.9075,241.612,724.213,0.00743657,418.294,0.0184463,0.0135945,-0.0818033,0.403283,-0.319627,0.840091,3.8112e-05,2.29482e-05,0.641944,-0.07854680928579116,1.3165777757671875,3.8112726271410935e-05,0.49673040643843747,2.294846331185596e-05,-0.2735800588150047
920,0.9085,241.649,724.324,0.00742462,418.358,0.0184424,0.0136011,-0.08187,0.40361,-0.319887,0.840773,3.81424e-05,2.29713e-05,0.642469,-0.0786082681639354,1.3181582206807172,3.814312743055659e-05,0.4972199173120089,2.2971563842233422e-05,-0.2737689034488465
921,0.9095,241.686,724.435,0.00741269,418.422,0.0184385,0.0136078,-0.0819366,0.403937,-0.320147,0.841455,3.81728e-05,2.29944e-05,0.642992,-0.07866963080987688,1.3197397438253136,3.817352859059042e-05,0.4977095882818099,2.299466437327702e-05,-0.2739576989894661
922,0.9105,241.722,724.545,0.00740079,418.486,0.0184346,0.0136145,-0.0820032,0.404264,-0.320407,0.842136,3.82032e-05,2.30175e-05,0.643516,-0.07873098936920231,1.321320024615395,3.820392975151243e-05,0.4981994194002013,2.3017764904764704e-05,-0.27414644544962574
923,0.9115,241.759,724.656,0.00738891,418.55,0.0184308,0.0136213,-0.0820698,0.404591,-0.320667,0.842817,3.82335e-05,2.30405e-05,0.644039,-0.0787923438421837,1.3229013819432138,3.823423090953959e-05,0.49868941071955963,2.3040765434467758e-05,-0.2743351428420848
924,0.9125,241.796,724.766,0.00737706,418.614,0.018427,0.0136281,-0.0821364,0.404917,-0.320926,0.843498,3.82638e-05,2.30636e-05,0.644562,-0.07885369422909316,1.3244838165421422,3.8264532068454926e-05,0.4991780631134668,2.3063865966843622e-05,-0.27452306570302765
925,0.9135,241.833,724.876,0.00736524,418.678,0.0184232,0.0136348,-0.0822029,0.405243,-0.321186,0.844179,3.82941e-05,2.30867e-05,0.645085,-0.07891494842170244,1.3260673291460514,3.8294833228480485e-05,0.49966687483402317,2.308696649988562e-05,-0.27471166518694956
926,0.9145,241.87,724.987,0.00735344,418.741,0.0184195,0.0136417,-0.0822694,0.40557,-0.321445,0.844859,3.83244e-05,2.31098e-05,0.645607,-0.07897619854104343,1.327649592838556,3.832513438917218e-05,0.5001573460897737,2.311006703359375e-05,-0.27489949054123275
927,0.9155,241.906,725.097,0.00734166,418.805,0.0184157,0.0136485,-0.0823358,0.405895,-0.321705,0.845539,3.83546e-05,2.31328e-05,0.646129,-0.07903735249112664,1.3292329328362742,3.8355335546969016e-05,0.5006449764628964,2.3133067565295207e-05,-0.27508799216741875
928,0.9165,241.943,725.207,0.00732991,418.868,0.018412,0.0136554,-0.0824022,0.406221,-0.321964,0.846218,3.83848e-05,2.31559e-05,0.646651,-0.07909850238072247,1.3308150190551578,3.838553670587608e-05,0.5011342664751619,2.3156168099891516e-05,-0.27527572006563517
929,0.9175,241.98,725.316,0.00731819,418.932,0.0184084,0.0136622,-0.0824686,0.406547,-0.322223,0.846897,3.8415e-05,2.3179e-05,0.647173,-0.07915964821010035,1.3323981798753692,3.841573786567132e-05,0.5016237160219743,2.317926863515396e-05,-0.27546339934862185
930,0.9185,242.016,725.426,0.00730649,418.995,0.0184047,0.0136692,-0.0825349,0.406872,-0.322481,0.847576,3.84452e-05,2.3202e-05,0.647694,-0.07922069790160435,1.3339824160268114,3.844593902613269e-05,0.5021118230427759,2.3202269168409728e-05,-0.27565030567963644
931,0.9195,242.053,725.535,0.00729482,419.058,0.0184011,0.0136761,-0.0826012,0.407198,-0.32274,0.848254,3.84753e-05,2.32251e-05,0.648215,-0.0792817435456481,1.3355653926733217,3.8476040183921256e-05,0.5026015913249804,2.3225369704782395e-05,-0.27583788795751185
932,0.9205,242.089,725.645,0.00728317,419.122,0.0183975,0.013683,-0.0826675,0.407523,-0.322999,0.848932,3.85054e-05,2.32481e-05,0.648736,-0.0793427851424997,1.3371494429419153,3.8506141342375955e-05,0.5030900162069052,2.3248370239148386e-05,-0.27602542165786836
933,0.9215,242.126,725.754,0.00727154,419.185,0.0183939,0.01369,-0.0827338,0.407848,-0.323257,0.84961,3.85355e-05,2.32712e-05,0.649256,-0.07940382269242763,1.338734567560754,3.8536242501940876e-05,0.5035785998527142,2.327147077640923e-05,-0.2762121830058307
934,0.9225,242.162,725.863,0.00725994,419.248,0.0183903,0.013697,-0.0828,0.408172,-0.323515,0.850287,3.85656e-05,2.32942e-05,0.649777,-0.07946476414218118,1.3403184269388984,3.8566343662393976e-05,0.5040658382474239,2.3294471311885445e-05,-0.27639889617558067
935,0.9235,242.198,725.972,0.00724837,419.311,0.0183868,0.0137041,-0.0828661,0.408497,-0.323773,0.850964,3.85956e-05,2.33173e-05,0.650297,-0.07952560951030974,1.3419033589528877,3.859634481973018e-05,0.5045547390869376,2.3317571850256513e-05,-0.27658556117954636
936,0.9245,242.235,726.081,0.00723682,419.374,0.0183833,0.0137111,-0.0829323,0.408821,-0.324031,0.851641,3.86257e-05,2.33403e-05,0.650816,-0.07958654289804279,1.3434893643291423,3.8626445981959634e-05,0.5050422938020005,2.334057238684295e-05,-0.2767721780301532
937,0.9255,242.271,726.19,0.00722529,419.436,0.0183798,0.0137182,-0.0829984,0.409146,-0.324289,0.852317,3.86556e-05,2.33634e-05,0.651336,-0.07964738021686169,1.3450740987193042,3.865634713728916e-05,0.5055315120411439,2.336367292632424e-05,-0.276958746739823
938,0.9265,242.307,726.298,0.00721379,419.499,0.0183763,0.0137253,-0.0830644,0.40947,-0.324547,0.852993,3.86856e-05,2.33864e-05,0.651855,-0.0797081214852835,1.3466599047520877,3.868634829751194e-05,0.5060193832819182,2.3386673464020902e-05,-0.27714526732097444
939,0.9275,242.344,726.407,0.00720232,419.562,0.0183729,0.0137325,-0.0831305,0.409794,-0.324805,0.853669,3.87155e-05,2.34094e-05,0.652374,-0.07976895076802337,1.348246783152169,3.8716249454617824e-05,0.5065074126185849,2.340967400216165e-05,-0.2773317397860233
940,0.9285,242.38,726.515,0.00719086,419.624,0.0183695,0.0137396,-0.0831965,0.410117,-0.325062,0.854344,3.87455e-05,2.34325e-05,0.652892,-0.07982968401305357,1.3498323848111533,3.874625061661696e-05,0.5069940931075283,2.3432774543197255e-05,-0.27751744166518477
941,0.9295,242.416,726.624,0.00717944,419.687,0.0183661,0.0137468,-0.0832624,0.410441,-0.325319,0.855019,3.87754e-05,2.34555e-05,0.653411,-0.07989032123885853,1.3514190571125586,3.87761517754992e-05,0.5074824383013445,2.3455775082448227e-05,-0.27770309582509545
942,0.9305,242.452,726.732,0.00716803,419.749,0.0183628,0.0137541,-0.0833283,0.410764,-0.325577,0.855693,3.88052e-05,2.34785e-05,0.653929,-0.07995095446880207,1.3530044477736882,3.880595293148659e-05,0.5079694337744509,2.347877562214329e-05,-0.27788942438895425
943,0.9315,242.488,726.84,0.00715665,419.812,0.0183595,0.0137613,-0.0833942,0.411088,-0.325834,0.856367,3.88351e-05,2.35015e-05,0.654447,-0.08001158370314732,1.3545909073483067,3.883585409236723e-05,0.5084580950298423,2.3501776162504484e-05,-0.2780749829615884
944,0.9325,242.524,726.948,0.0071453,419.874,0.0183562,0.0137686,-0.0834601,0.411411,-0.326091,0.857041,3.88649e-05,2.35246e-05,0.654964,-0.08007220894215772,1.356178436557105,3.8865655249908926e-05,0.5089454056909719,2.352487670553849e-05,-0.27826049385179674
945,0.9335,242.56,727.055,0.00713397,419.936,0.0183529,0.0137759,-0.0835259,0.411734,-0.326347,0.857714,3.88947e-05,2.35476e-05,0.655481,-0.08013273819937494,1.3577646783554016,3.889545640856085e-05,0.5094328737788683,2.3547877247009907e-05,-0.2784452355174285
946,0.9345,242.596,727.163,0.00712266,419.999,0.0183496,0.0137832,-0.0835917,0.412056,-0.326604,0.858388,3.89245e-05,2.35706e-05,0.655998,-0.08019326347389799,1.3593543474069048,3.8925257568100946e-05,0.5099189894246439,2.357087778870337e-05,-0.27863065126495645
947,0.9355,242.632,727.27,0.00711138,420.061,0.0183464,0.0137906,-0.0836575,0.412379,-0.326861,0.85906,3.89542e-05,2.35936e-05,0.656515,-0.0802537847659891,1.3609403663710489,3.895495872474619e-05,0.510406772030878,2.3593878331062967e-05,-0.27881601936676004
948,0.9365,242.667,727.378,0.00710012,420.123,0.0183432,0.013798,-0.0837232,0.412701,-0.327117,0.859733,3.89839e-05,2.36166e-05,0.657032,-0.08031421010733575,1.3625298140267605,3.898465988205757e-05,0.510893201322385,2.3616878874088698e-05,-0.27900061883606186
949,0.9375,242.703,727.485,0.00708888,420.185,0.0183401,0.0138054,-0.0837889,0.413023,-0.327373,0.860405,3.90136e-05,2.36396e-05,0.657548,-0.08037463147886792,1.3641179676216288,3.901436104047917e-05,0.511379787269344,2.3639879417558518e-05,-0.27918517105394813
950,0.9385,242.739,727.592,0.00707767,420.247,0.0183369,0.0138128,-0.0838545,0.413346,-0.327629,0.861076,3.90433e-05,2.36626e-05,0.658064,-0.08043495692434666,1.3657048231083797,3.904406219956691e-05,0.5118680417894921,2.3662879961472427e-05,-0.2793696760325134
951,0.9395,242.775,727.699,0.00706649,420.308,0.0183338,0.0138203,-0.0839202,0.413667,-0.327886,0.861748,3.9073e-05,2.36857e-05,0.65858,-0.08049537036307353,1.3672951110264036,3.9073763359542824e-05,0.5123534293314391,2.3685980508503235e-05,-0.27955485422935544
952,0.9405,242.81,727.806,0.00705532,420.37,0.0183307,0.0138278,-0.0839858,0.413989,-0.328141,0.862419,3.91026e-05,2.37087e-05,0.659095,-0.08055568788834133,1.3688840990917792,3.9103364516623884e-05,0.5128404855475264,2.3708981053527367e-05,-0.2797385443200451
953,0.9415,242.846,727.913,0.00704418,420.432,0.0183277,0.0138353,-0.0840513,0.414311,-0.328397,0.86309,3.91322e-05,2.37317e-05,0.65961,-0.08061590951850461,1.3704741537259406,3.913296567459312e-05,0.5133276986209678,2.373198159899559e-05,-0.2799229076531856
954,0.9425,242.881,728.019,0.00703306,420.493,0.0183246,0.0138429,-0.0841168,0.414632,-0.328653,0.86376,3.91618e-05,2.37547e-05,0.660125,-0.08067612720428052,1.372062903580706,3.9162566833228496e-05,0.5138135547879679,2.3754982145129944e-05,-0.2801072237953536
955,0.9435,242.917,728.126,0.00702197,420.555,0.0183216,0.0138505,-0.0841823,0.414953,-0.328908,0.86443,3.91913e-05,2.37777e-05,0.66064,-0.08073634094592708,1.3736527182545486,3.9192067988969015e-05,0.514299566939832,2.3777982691708388e-05,-0.28029077304976124
956,0.9445,242.952,728.232,0.0070109,420.616,0.0183187,0.0138581,-0.0842478,0.415275,-0.329164,0.865099,3.92209e-05,2.38007e-05,0.661154,-0.08079655074370262,1.3752412232187248,3.922166914960279e-05,0.5147872499131316,2.3800983238952966e-05,-0.2804749950304408
957,0.9455,242.988,728.339,0.00699986,420.678,0.0183157,0.0138658,-0.0843132,0.415595,-0.329419,0.865769,3.92504e-05,2.38237e-05,0.661668,-0.0808566646835368,1.3768331680802581,3.9251170307119665e-05,0.5152720593984843,2.3823983786641634e-05,-0.2806584505151397
958,0.9465,243.023,728.445,0.00698883,420.739,0.0183128,0.0138735,-0.0843786,0.415916,-0.329674,0.866438,3.92799e-05,2.38467e-05,0.662182,-0.08091677469204772,1.37842380147725,3.9280671465302675e-05,0.5157585398054794,2.384698433477439e-05,-0.2808418592246541
959,0.9475,243.059,728.551,0.00697783,420.8,0.0183099,0.0138812,-0.0844439,0.416237,-0.329929,0.867106,3.93094e-05,2.38697e-05,0.662695,-0.08097678886717619,1.380013119349707,3.931017262459591e-05,0.5162451763977514,2.386998488357328e-05,-0.28102522117091
960,0.9485,243.094,728.657,0.00696686,420.862,0.018307,0.0138889,-0.0845092,0.416557,-0.330184,0.867775,3.93388e-05,2.38927e-05,0.663209,-0.08103679912350703,1.3816058808458673,3.933957378077224e-05,0.5167304524942331,2.389298543281626e-05,-0.28120853636583076
961,0.9495,243.129,728.762,0.0069559,420.923,0.0183042,0.0138967,-0.0845745,0.416877,-0.330438,0.868442,3.93682e-05,2.39157e-05,0.663722,-0.08109680546129594,1.3831949418613272,3.9368974937836754e-05,0.5172158839039145,2.3915985982725374e-05,-0.28139108621278186
962,0.9505,243.165,728.868,0.00694497,420.984,0.0183014,0.0139045,-0.0846398,0.417198,-0.330693,0.86911,3.93976e-05,2.39387e-05,0.664235,-0.08115680788079904,1.3847874479202966,3.93983760955674e-05,0.5177029883787332,2.3938986532856532e-05,-0.2815743081240111
963,0.9515,243.2,728.974,0.00693406,421.045,0.0182986,0.0139123,-0.084705,0.417517,-0.330947,0.869777,3.9427e-05,2.39617e-05,0.664747,-0.08121671450394807,1.3863786317488742,3.942777725440827e-05,0.5181872128617249,2.396198708387587e-05,-0.28175676507673353
964,0.9525,243.235,729.079,0.00692318,421.106,0.0182959,0.0139202,-0.0847702,0.417837,-0.331202,0.870444,3.94564e-05,2.39847e-05,0.665259,-0.08127661722131263,1.3879708772510946,3.945717841391527e-05,0.5186731105093179,2.398498763511725e-05,-0.28193989375174067
965,0.9535,243.27,729.184,0.00691232,421.166,0.0182931,0.0139281,-0.0848353,0.418157,-0.331456,0.871111,3.94857e-05,2.40076e-05,0.665771,-0.08133642416679432,1.3895641851353302,3.948647957052742e-05,0.5191591636690387,2.4007888184796045e-05,-0.2821222578575058
966,0.9545,243.305,729.29,0.00690148,421.227,0.0182904,0.0139361,-0.0849004,0.418476,-0.33171,0.871777,3.9515e-05,2.40306e-05,0.666283,-0.08139622721897055,1.3911561649530655,3.9515780727805705e-05,0.5196438527460467,2.403088873714765e-05,-0.2823045756486703
967,0.9555,243.34,729.395,0.00689066,421.288,0.0182878,0.013944,-0.0849655,0.418796,-0.331964,0.872443,3.95443e-05,2.40536e-05,0.666795,-0.0814560263780949,1.3927492053825032,3.954508188619421e-05,0.5201302165929906,2.4053889290165387e-05,-0.28248684713699657
968,0.9565,243.375,729.5,0.00687987,421.348,0.0182851,0.013952,-0.0850306,0.419115,-0.332218,0.873108,3.95736e-05,2.40766e-05,0.667306,-0.08151582164442062,1.3943409127881377,3.957438304524885e-05,0.5206152154852943,2.4076889843627214e-05,-0.282669072334244
969,0.9575,243.41,729.604,0.0068691,421.409,0.0182825,0.0139601,-0.0850956,0.419434,-0.332471,0.873774,3.96028e-05,2.40996e-05,0.667817,-0.08157552117575795,1.3959360749660976,3.960358420118659e-05,0.521100369116924,2.4099890397755175e-05,-0.2828505341030618
970,0.9585,243.445,729.709,0.00685835,421.47,0.01828,0.0139681,-0.0851606,0.419752,-0.332725,0.874438,3.9632e-05,2.41226e-05,0.668327,-0.0816352168267519,1.397527504816114,3.963278535801251e-05,0.5215841559523333,2.4122890952327225e-05,-0.2830326669355506
971,0.9595,243.48,729.814,0.00684762,421.53,0.0182774,0.0139763,-0.0852255,0.420071,-0.332978,0.875103,3.96612e-05,2.41456e-05,0.668838,-0.08169481676714085,1.3991223908476473,3.966198651572661e-05,0.5220696187252776,2.4145891507343364e-05,-0.28321403672657
972,0.9605,243.515,729.918,0.00683692,421.59,0.0182749,0.0139844,-0.0852904,0.420389,-0.333232,0.875767,3.96904e-05,2.41686e-05,0.669348,-0.08175441283961915,1.4007159371139815,3.969118767432889e-05,0.5225537138310745,2.4168892063025638e-05,-0.2833960772411174
973,0.9615,243.55,730.023,0.00682624,421.651,0.0182724,0.0139926,-0.0853553,0.420708,-0.333485,0.876431,3.97196e-05,2.41916e-05,0.669858,-0.08181400504443792,1.4023105418464086,3.972038883381934e-05,0.5230394859423191,2.4191892619152e-05,-0.28357735510095916
974,0.9625,243.584,730.127,0.00681558,421.711,0.0182699,0.0140008,-0.0854202,0.421026,-0.333738,0.877094,3.97487e-05,2.42146e-05,0.670368,-0.08187359338184808,1.4039038018429792,3.9749489989970854e-05,0.5235238895149348,2.4214893175722452e-05,-0.2837585871033036
975,0.9635,243.619,730.231,0.00680494,421.771,0.0182675,0.014009,-0.085485,0.421344,-0.333991,0.877758,3.97778e-05,2.42376e-05,0.670877,-0.08193308604541383,1.4055005240205003,3.977859114723259e-05,0.5240084471523814,2.4237893732959037e-05,-0.28393977325975117
976,0.9645,243.654,730.335,0.00679433,421.831,0.0182651,0.0140173,-0.0855498,0.421662,-0.334243,0.87842,3.98069e-05,2.42606e-05,0.671386,-0.08199257485397982,1.40709349258182,3.980769230516046e-05,0.5244931589036597,2.4260894290639712e-05,-0.2841201977024551
977,0.9655,243.688,730.439,0.00678373,421.891,0.0182627,0.0140256,-0.0856145,0.421979,-0.334496,0.879083,3.9836e-05,2.42835e-05,0.671895,-0.08205196801299741,1.408689924726179,3.9836793463976505e-05,0.5249764998405231,2.4283794846535756e-05,-0.2843012923829934
978,0.9665,243.723,730.543,0.00677316,421.951,0.0182604,0.014034,-0.0856792,0.422297,-0.334749,0.879745,3.9865e-05,2.43065e-05,0.672404,-0.08211135732940178,1.4102850053697877,3.9865794619675654e-05,0.525461519481508,2.4306795405326653e-05,-0.2844823412523728
979,0.9675,243.758,730.646,0.00676261,422.011,0.0182581,0.0140423,-0.0857439,0.422614,-0.335001,0.880407,3.98941e-05,2.43295e-05,0.672912,-0.08217074280344183,1.4118811423063775,3.989489578026806e-05,0.5259451674373345,2.4329795964783685e-05,-0.2846626289851688
980,0.9685,243.792,730.75,0.00675209,422.071,0.0182558,0.0140508,-0.0858086,0.422931,-0.335253,0.881068,3.99231e-05,2.43525e-05,0.67342,-0.08223012443536593,1.4134759227583151,3.992389693752152e-05,0.5264289687338664,2.435279652446276e-05,-0.28484287129118013
981,0.9695,243.827,730.853,0.00674158,422.13,0.0182536,0.0140592,-0.0858732,0.423248,-0.335505,0.881729,3.99521e-05,2.43755e-05,0.673928,-0.08228941045436833,1.415071757708605,3.99528980958852e-05,0.5269129234197201,2.437579708480797e-05,-0.28502306818185286
982,0.9705,243.861,730.957,0.0067311,422.19,0.0182513,0.0140677,-0.0859378,0.423565,-0.335757,0.88239,3.9981e-05,2.43985e-05,0.674435,-0.08234869264361766,1.4166686478545008,3.9981799250909944e-05,0.5273970315435277,2.4398797645819315e-05,-0.2852032196686304
983,0.9715,243.896,731.06,0.00672064,422.25,0.0182491,0.0140762,-0.0860023,0.423882,-0.336009,0.883051,4.001e-05,2.44215e-05,0.674943,-0.08240787924415383,1.418266593893717,4.001080041082794e-05,0.527881293153937,2.4421798207274747e-05,-0.2853833257629529
984,0.9725,243.93,731.163,0.0067102,422.309,0.018247,0.0140848,-0.0860669,0.424198,-0.336261,0.883711,4.00389e-05,2.44445e-05,0.67545,-0.08246715378056646,1.4198631766600438,4.003970156740699e-05,0.5283641799346668,2.444479876917427e-05,-0.2855633864762578
985,0.9735,243.964,731.266,0.00669978,422.369,0.0182449,0.0140934,-0.0861314,0.424515,-0.336512,0.884371,4.00678e-05,2.44675e-05,0.675957,-0.08252633274060561,1.4214608135188085,4.006860272509627e-05,0.5288487481797151,2.4467799331739926e-05,-0.28574268756302457
986,0.9745,243.999,731.369,0.00668939,422.428,0.0182428,0.014102,-0.0861958,0.424831,-0.336764,0.88503,4.00967e-05,2.44905e-05,0.676463,-0.08258541614227122,1.4230570821076483,4.009750388345168e-05,0.5293319407245412,2.449079989474967e-05,-0.2859226577285654
987,0.9755,244.033,731.471,0.00667901,422.488,0.0182407,0.0141107,-0.0862602,0.425147,-0.337015,0.885689,4.01256e-05,2.45135e-05,0.67697,-0.08264449573908816,1.4246544029841788,4.012640504269527e-05,0.5298152859823386,2.4513800458203505e-05,-0.2861018686495641
988,0.9765,244.067,731.574,0.00666866,422.547,0.0182387,0.0141194,-0.0863246,0.425463,-0.337267,0.886348,4.01544e-05,2.45365e-05,0.677476,-0.0827035715313017,1.4262527768420865,4.015520619859991e-05,0.5302987840013729,2.4536801022323473e-05,-0.2862817483128749
989,0.9775,244.101,731.677,0.00665833,422.606,0.0182367,0.0141282,-0.086389,0.425779,-0.337518,0.887006,4.01832e-05,2.45595e-05,0.677981,-0.08276264351915663,1.427849776524524,4.018400735561478e-05,0.5307824348299235,2.455980158688753e-05,-0.2864608691134475
990,0.9785,244.135,731.779,0.00664802,422.665,0.0182347,0.014137,-0.0864533,0.426094,-0.337769,0.887665,4.0212e-05,2.45825e-05,0.678487,-0.08282161998506465,1.4294502568275917,4.0212808513295784e-05,0.5312647072508134,2.4582802152117722e-05,-0.28663994496034106
991,0.9795,244.17,731.881,0.00663773,422.724,0.0182328,0.0141458,-0.0865176,0.42641,-0.338019,0.888322,4.02408e-05,2.46055e-05,0.678992,-0.08288059265890779,1.4310469300960627,4.0241609671864964e-05,0.5317486633593427,2.4605802717792002e-05,-0.2868182626834569
992,0.9805,244.204,731.984,0.00662746,422.783,0.0182308,0.0141547,-0.0865819,0.426725,-0.33827,0.88898,4.02696e-05,2.46285e-05,0.679497,-0.08293956154092996,1.4326470853694167,4.027041083132232e-05,0.5322312401901614,2.4628803283910372e-05,-0.28699724883582156
993,0.9815,244.238,732.086,0.00661722,422.842,0.018229,0.0141636,-0.0866461,0.42704,-0.338521,0.889637,4.02983e-05,2.46515e-05,0.680002,-0.08299843493122305,1.4342458596443448,4.029911198744074e-05,0.5327139690566263,2.4651803850694876e-05,-0.28717619006829964
994,0.9825,244.272,732.188,0.00660699,422.901,0.0182271,0.0141725,-0.0867103,0.427355,-0.338771,0.890294,4.03271e-05,2.46745e-05,0.680506,-0.08305730454196569,1.4358456846591015,4.032791314845241e-05,0.533196850006636,2.4674804417923468e-05,-0.28735437374689465
995,0.9835,244.306,732.289,0.00659679,422.96,0.0182253,0.0141815,-0.0867745,0.42767,-0.339022,0.89095,4.03558e-05,2.46976e-05,0.681011,-0.08311617037340069,1.4374441236589077,4.035661430634718e-05,0.5336798830881042,2.469790498826896e-05,-0.28753322535226866
996,0.9845,244.34,732.391,0.0065866,423.019,0.0182235,0.0141905,-0.0868386,0.427984,-0.339272,0.891606,4.03845e-05,2.47206e-05,0.681515,-0.08317494074326925,1.4390436115787058,4.038531546490809e-05,0.534161534186659,2.4720905556607775e-05,-0.2877113197831992
997,0.9855,244.373,732.493,0.00657644,423.077,0.0182218,0.0141996,-0.0869027,0.428299,-0.339522,0.892262,4.04131e-05,2.47436e-05,0.682019,-0.08323370734607793,1.4406441491068134,4.04139166203521e-05,0.5346448711915095,2.474390612539068e-05,-0.2878893696960869
998,0.9865,244.407,732.594,0.0065663,423.136,0.0182201,0.0142087,-0.0869668,0.428613,-0.339772,0.892918,4.04418e-05,2.47666e-05,0.682522,-0.08329247018206798,1.4422457369319988,4.044261778068936e-05,0.5351268253439057,2.476690669483972e-05,-0.28806737510206004
999,0.9875,244.441,732.696,0.00655618,423.195,0.0182184,0.0142178,-0.0870308,0.428927,-0.340022,0.893573,4.04704e-05,2.47896e-05,0.683025,-0.0833511375865994,1.44384593189633,4.047121893768768e-05,0.5356089308536676,2.4789907264732847e-05,-0.2882453360122439
