,Time,S11,S22,S33,S12,S13,S23,LE11,LE22,LE33,LE12,LE13,LE23,SDV_EPBAR,E11,E12,E13,E22,E23,E33
0,1e-05,0.521016,1.56305,-3.33067e-16,0.902427,-7.34989e-18,4.24346e-18,2.50015e-07,6.74997e-06,-3.00001e-06,1.12583e-05,-1.83389e-22,1.0588e-22,0.0,2.500150313444749e-07,1.1258363374899716e-05,0.0,6.749992781163172e-06,0.0,-3.0000055000201087e-06
1,2e-05,1.04203,3.12608,3.33067e-16,1.80484,1.07607e-17,5.25857e-17,5.00016e-07,1.34999e-05,-5.99997e-06,2.25164e-05,-7.33567e-22,4.23506e-22,0.0,5.000161249490986e-07,2.2516653495952e-05,0.0,1.3499991124099608e-05,0.0,-5.999952000235176e-06
2,3.5e-05,1.82353,5.4706,-7.77156e-16,3.15845,-2.54606e-17,-4.40991e-17,8.74997e-07,2.36246e-05,-1.04998e-05,3.94035e-05,-4.23507e-22,-7.33535e-22,0.0,8.749973827715252e-07,3.940427632809218e-05,0.0,2.3624879063044446e-05,0.0,-1.0499744877323636e-05
3,5.75e-05,2.99577,8.98732,-4.10783e-15,5.18883,9.2746e-17,2.485e-17,1.43746e-06,3.88114e-05,-1.72495e-05,6.47335e-05,4.23492e-22,7.3351e-22,0.0,1.4374610330936122e-06,6.473559525832506e-05,0.0,3.8812153172029795e-05,0.0,-1.7249351228265652e-05
4,9.125e-05,4.75408,14.2622,-2.89768e-14,8.23431,-4.18269e-17,6.33446e-17,2.2812e-06,6.1591e-05,-2.73738e-05,0.000102728,-2.93431e-21,1.69407e-21,0.0,2.2812026019281006e-06,0.00010273327670162757,0.0,6.159289676466173e-05,0.0,-2.737342534098186e-05
5,0.00014188,7.39143,22.1743,-1.55986e-13,12.8023,1.24253e-17,-4.63742e-17,3.54667e-06,9.57588e-05,-4.25595e-05,0.000159716,2.93438e-21,-1.69407e-21,0.0,3.546676289545303e-06,0.00015972875527947572,0.0,9.576338502026438e-05,0.0,-4.255859435731146e-05
6,0.00021781,11.3472,34.0416,-8.00804e-13,19.6539,2.31858e-16,6.21133e-17,5.44479e-06,0.000147007,-6.53367e-05,0.000245194,-2.99771e-25,-5.19218e-25,0.0,5.444804822785088e-06,0.00024522406250571116,0.0,0.00014701780605852477,0.0,-6.533456560431361e-05
7,0.00033172,17.2803,51.8409,-4.05509e-12,29.9304,2.81559e-16,-1.23385e-16,8.29165e-06,0.000223873,-9.94992e-05,0.000373398,1.51264e-20,-9.08104e-22,0.0,8.29168437577188e-06,0.00037346772171087395,0.0,0.00022389806143019442,0.0,-9.949425011879232e-05
8,0.00050258,26.1787,78.5361,-2.0513e-11,45.3428,-2.74881e-16,-2.72422e-16,1.25613e-05,0.000339155,-0.000150736,0.000565677,1.5215e-24,2.63531e-24,0.0,1.256137889349418e-05,0.0005658370254069123,0.0,0.0003392125195595952,0.0,-0.00015072463989995732
9,0.00075887,39.5234,118.57,-1.0376e-10,68.4566,1.1095e-15,4.95905e-16,1.89646e-05,0.000512041,-0.000227574,0.000854034,1.85113e-20,4.95121e-21,0.0,1.896477982921141e-05,0.00085439879087712,0.0,0.0005121721153706904,0.0,-0.0002275481070015406
10,0.0011433,59.5341,178.602,-5.24721e-10,103.116,-3.50563e-18,1.97614e-16,2.85663e-05,0.000771287,-0.000342794,0.00128643,2.34802e-20,-1.35599e-20,0.0,2.8566708020649756e-05,0.0012872578060059148,0.0,0.0007715845183038361,0.0,-0.00034273525284966855
11,0.00172,89.5357,268.607,-2.65265e-09,155.08,-2.30125e-15,-1.60954e-15,4.2962e-05,0.00115997,-0.000515542,0.00193471,3.54803e-23,6.14538e-23,0.0,4.2962922879974386e-05,0.001936582758945704,0.0,0.0011606430254049727,0.0,-0.0005154091310572984
12,0.0025849,93.9537,281.208,0.337913,162.072,0.0426603,0.0222712,-5.24351e-05,0.00170419,-0.00093106,0.00304047,7.49905e-07,5.68447e-07,0.000784745,-5.2433725304168455e-05,0.0030450969170561226,7.49905281205443e-07,0.0017056429570323495,5.684471615641229e-07,-0.0009306266981252698
13,0.0032337,94.9944,284.6,0.182437,164.154,0.0205578,-0.0112627,-0.000130039,0.00210953,-0.00125059,0.00387703,5.49888e-07,1.67238e-07,0.0014092,-0.00013003054529570068,0.0038845554030719764,5.49888151235578e-07,0.002111756623845107,1.6723801388174309e-07,-0.0012498083382060932
14,0.0038824,96.0078,287.809,-0.0043694,166.262,-0.0446901,-0.0200973,-0.000207314,0.00251382,-0.00156988,0.00471426,-5.07174e-07,2.96803e-08,0.00203364,-0.000207292511937629,0.004725389606086594,-5.071738713446905e-07,0.0025169822947541665,2.968030043959402e-08,-0.0015686483829741027
15,0.0045311,97.3416,291.625,0.184507,168.2,0.0236258,-0.00705672,-0.000284492,0.00291968,-0.00188832,0.00554776,4.34521e-07,2.27814e-07,0.00265712,-0.0002844515359883282,0.005563177317849499,4.345210944389777e-07,0.002923946416831358,2.278140258660244e-07,-0.001886538245472802
16,0.0047744,97.5523,292.506,-0.0673747,169.031,-0.0576749,-0.0357234,-0.00031359,0.00307043,-0.00200836,0.00586266,-6.85226e-07,-1.90822e-07,0.0028916,-0.00031354083579526737,0.005879879024453638,-6.85225765240105e-07,0.0030751485983318005,-1.908219817714496e-07,-0.002006344594500886
17,0.0051393,98.1835,294.415,-0.081744,170.148,-0.0602215,-0.0368668,-0.000356986,0.00329789,-0.00218757,0.00633233,-8.82936e-07,-2.92078e-07,0.00324249,-0.00035692228807959747,0.006352421588081469,-8.829356101802688e-07,0.0033033340221764185,-2.920779573756249e-07,-0.002185179012549443
18,0.0056867,99.2781,297.552,0.0844208,171.749,-0.00643821,-0.0184061,-0.000422073,0.00363976,-0.00245592,0.00703505,-2.51857e-07,-9.52625e-08,0.00376836,-0.000421983939721704,0.007059854096154172,-2.5185696828078363e-07,0.003646391970247631,-9.526249544755672e-08,-0.0024529066957929
19,0.0065077,100.426,301.313,-0.225126,174.287,-0.0933602,-0.0474796,-0.000519771,0.00414981,-0.00285945,0.00809267,-1.93072e-06,-6.07702e-07,0.00455821,-0.0005196359424544106,0.008125504166123898,-1.930718136144982e-06,0.004158432384478106,-6.07701815313888e-07,-0.0028553656667584804
20,0.0067577,101.117,303.09,0.0882605,174.926,0.00118753,-0.0170529,-0.000549358,0.00430662,-0.00298134,0.00841169,-7.50468e-07,-2.547e-07,0.00479778,-0.0005492071305223112,0.00844716767028042,-7.504677184133612e-07,0.004315906814720272,-2.546999675612227e-07,-0.002976900219163525
21,0.0071327,101.756,305.0,0.0928631,176.024,0.00234272,-0.0194713,-0.000594002,0.00454006,-0.00316523,0.0088932,-7.34538e-07,-3.24623e-07,0.00515811,-0.0005938256157379529,0.008932861989937146,-7.345377301959388e-07,0.004550381686849514,-3.246229473008455e-07,-0.003160225940582184
22,0.0076952,102.584,307.592,-0.0425668,177.708,-0.0468745,-0.0300526,-0.000660928,0.00488929,-0.00344124,0.00961642,-1.54842e-06,-5.35833e-07,0.00569883,-0.0006607096351998187,0.009662806337744856,-1.5484188011782862e-06,0.004901262082059876,-5.358328564186721e-07,-0.003435325719728821
23,0.008539,104.269,312.284,0.291541,180.028,0.0447898,0.00589832,-0.000761197,0.00541515,-0.00385396,0.0106964,-1.88052e-07,7.95868e-08,0.00650859,-0.0007609073630585605,0.010753811000900004,-1.880519823194149e-07,0.00542983842613598,7.958680314779087e-08,-0.0038465430274570167
24,0.008789,104.349,312.917,-0.093591,180.844,-0.0637446,-0.0396278,-0.000791173,0.0055691,-0.0039773,0.0110194,-1.6539e-06,-5.53923e-07,0.00674948,-0.0007908601051654918,0.011080337212997726,-1.6538986322700566e-06,0.0055846362650195935,-5.539228465911705e-07,-0.003969401018032004
25,0.009164,104.945,314.72,-0.107142,181.902,-0.0673565,-0.0392502,-0.000835731,0.00580184,-0.00416091,0.0115003,-1.87652e-06,-6.39172e-07,0.0071096,-0.0008353818741130281,0.01156668267955796,-1.8765182393520874e-06,0.0058187032705847574,-6.39171795713267e-07,-0.00415226540793201
26,0.0097265,106.019,317.767,0.0982312,183.399,0.000140974,-0.0167436,-0.000902571,0.00615186,-0.00443578,0.0122196,-1.04733e-06,-3.85134e-07,0.00764919,-0.0009021638053116066,0.012294564345667114,-1.0473294514978804e-06,0.0061708215537295,-3.8513392586203565e-07,-0.004425956458286695
27,0.01057,107.033,321.189,-0.276585,185.825,-0.107537,-0.0517511,-0.0010029,0.00667354,-0.00484935,0.0133029,-3.04246e-06,-9.94017e-07,0.00845987,-0.0010023972638737444,0.013391777245288061,-3.0424553717489644e-06,0.006695857686435103,-9.940165059951767e-07,-0.004837610885645938
28,0.01082,107.744,322.968,0.10025,186.384,0.00747152,-0.0152452,-0.00103243,0.00682994,-0.00497072,0.0136203,-1.59638e-06,-5.60641e-07,0.00869896,-0.0010318972275134008,0.013713478846729021,-1.5963787257655682e-06,0.006853317231592548,-5.606408428615595e-07,-0.004958386415401472
29,0.011195,108.327,324.715,0.0987889,187.395,0.00646076,-0.0185364,-0.00107705,0.00706238,-0.00515408,0.0141001,-1.59699e-06,-6.37546e-07,0.00905878,-0.0010764701898289264,0.014199975275039911,-1.596988724816839e-06,0.007087377418071084,-6.375457968221809e-07,-0.005140820519598521
30,0.011758,109.078,327.073,-0.0386718,188.95,-0.0448017,-0.0291239,-0.00114392,0.00741013,-0.00542926,0.0148206,-2.41561e-06,-8.43565e-07,0.00959872,-0.0011432659729254668,0.014930969666332228,-2.4156070823622144e-06,0.0074376529541970715,-8.435646442483957e-07,-0.005414548204688452
31,0.012601,110.635,331.407,0.276303,191.079,0.0445075,0.00464967,-0.00124411,0.00793374,-0.00584077,0.0158967,-1.09593e-06,-2.81943e-07,0.0104073,-0.0012433364159950555,0.016023724734204325,-1.0959293994527997e-06,0.00796529551106473,-2.8194296020078724e-07,-0.005823745863717922
32,0.013601,112.171,335.954,0.332521,193.649,0.0553052,0.00383368,-0.00136311,0.00855264,-0.00632891,0.0171729,-6.68082e-07,-8.23632e-08,0.011366,-0.0013621813875455135,0.01732120195582665,-6.68081776789009e-07,0.008589318316394978,-8.2363196596269e-08,-0.006308924633195767
33,0.014601,113.145,339.471,-0.23161,196.334,-0.0967968,-0.0401514,-0.00148206,0.00916815,-0.00681795,0.0184528,-3.24094e-06,-7.09053e-07,0.0123255,-0.0014809622914351284,0.018624104977136513,-3.2409347481276995e-06,0.009210306220239106,-7.090527486264264e-07,-0.006794760510421716
34,0.015601,114.48,343.62,-0.340742,198.828,-0.116023,-0.0608543,-0.00160061,0.00978459,-0.00730553,0.0197286,-4.26542e-06,-1.17752e-06,0.0132837,-0.001599329706988284,0.019924494952648475,-4.265410903148137e-06,0.00983261560989912,-1.1775193067276035e-06,-0.007278909480822993
35,0.016351,115.623,346.918,-0.243234,200.63,-0.0956715,-0.0531412,-0.00168935,0.010247,-0.00767052,0.0206837,-4.48102e-06,-1.25874e-06,0.0140017,-0.0016879238514897477,0.0208990901816426,-4.481009960199955e-06,0.01029968028905004,-1.2587392077545445e-06,-0.0076411766356854205
36,0.017101,116.999,350.653,0.164822,202.312,0.0175824,-0.00829923,-0.00177822,0.0107106,-0.00803465,0.0216356,-3.01106e-06,-6.6827e-07,0.0147188,-0.001776639903540933,0.021871346697660554,-3.0110554667395206e-06,0.010768163806920805,-6.682697767379508e-07,-0.008002458473267415
37,0.018101,118.496,354.959,0.320183,204.625,0.0567692,0.00218237,-0.00189695,0.011327,-0.00852088,0.022906,-2.2315e-06,-3.64846e-07,0.0156754,-0.001895151927479688,0.023170357013150067,-2.231497510218894e-06,0.011391393362707447,-3.648459334648635e-07,-0.008484680193050043
38,0.019101,119.297,358.003,-0.293889,207.103,-0.112228,-0.0476829,-0.00201574,0.0119394,-0.00900832,0.0241811,-5.06716e-06,-1.12162e-06,0.0166333,-0.002013709760500304,0.024475833665137836,-5.067147161974539e-06,0.012010959143681887,-1.1216193709362443e-06,-0.008967866648766698
39,0.020101,120.576,361.889,-0.321889,209.358,-0.112287,-0.0587466,-0.00213408,0.0125533,-0.00949401,0.0254511,-5.78468e-06,-1.4608e-06,0.0175894,-0.002131804470285492,0.025777744512292866,-5.784663268726398e-06,0.01263242341043913,-1.46079893303952e-06,-0.009449084174884215
40,0.021101,122.399,366.685,0.31845,211.397,0.0566773,0.00314364,-0.00225236,0.0131694,-0.0099779,0.0267151,-3.39285e-06,-5.24613e-07,0.0185436,-0.0022498253405608404,0.02707514736722283,-3.3928442443320606e-06,0.013256498473084743,-5.246128623737079e-07,-0.009928285907729206
41,0.022101,123.111,369.483,-0.31172,213.733,-0.110131,-0.0575735,-0.00237105,0.01378,-0.0104643,0.0279866,-6.16285e-06,-1.4794e-06,0.0195001,-0.002368241281258121,0.028381904011582693,-6.162831009626224e-06,0.01387538181690906,-1.4793989057126922e-06,-0.010409739690411701
42,0.023101,124.322,373.134,-0.326851,215.858,-0.114166,-0.0589827,-0.00248924,0.0143919,-0.0109488,0.0292532,-6.9154e-06,-1.70185e-06,0.0204548,-0.002486144411198432,0.02968527778356611,-6.915376088656444e-06,0.014495962010189656,-1.7018485518605075e-06,-0.010889080041954768
43,0.024101,126.054,377.685,0.296994,217.765,0.0540499,0.000719553,-0.0026074,0.0150061,-0.0114316,0.0305138,-4.55376e-06,-8.20049e-07,0.0214077,-0.002604003685111711,0.03098411753143293,-4.55374963159727e-06,0.015119256824299265,-8.20048663752182e-07,-0.011366507533840164
44,0.025101,127.23,381.209,0.292539,219.8,0.055153,-0.000805034,-0.00272595,0.0156176,-0.0119155,0.0317771,-4.27316e-06,-7.15826e-07,0.0223614,-0.0027222379719991086,0.03228738280129173,-4.273150870037767e-06,0.015740192081453275,-7.158257437911431e-07,-0.011844791550693734
45,0.026101,128.012,383.977,-0.135465,221.928,-0.0730883,-0.0285898,-0.00284439,0.0162264,-0.0123999,0.0330428,-6.32434e-06,-1.09998e-06,0.0233156,-0.0028403485554868713,0.03359477615104822,-6.324320001360739e-06,0.01635876298426986,-1.0999793950139392e-06,-0.012323338020354346
46,0.027101,128.969,387.079,-0.337064,223.924,-0.117686,-0.0598172,-0.00296254,0.0168354,-0.0128833,0.0343057,-7.57311e-06,-1.70236e-06,0.0242687,-0.0029581560086926473,0.03490092758957486,-7.573081324041553e-06,0.01697791398327042,-1.7023585510145267e-06,-0.012800665539398959
47,0.028101,130.102,390.447,-0.303379,225.827,-0.107714,-0.0569238,-0.00308048,0.0174445,-0.0133658,0.0355662,-8.07864e-06,-1.86292e-06,0.0252208,-0.0030757401896975844,0.03620624271082651,-8.078607367845159e-06,0.017597543919817937,-1.8629182647611486e-06,-0.013276874323668308
48,0.029101,131.728,394.656,0.336388,227.532,0.0606492,0.0143476,-0.00319838,0.0180556,-0.0138466,0.036821,-5.68703e-06,-7.80672e-07,0.0261712,-0.003193270631373535,0.03750729041079626,-5.6870138288589445e-06,0.018219587825064387,-7.80671695288504e-07,-0.01375117677104809
49,0.030101,132.251,396.884,-0.293982,229.537,-0.10656,-0.0553539,-0.00331671,0.0186613,-0.0143299,0.0380832,-8.38673e-06,-1.84188e-06,0.0271237,-0.003311215793296518,0.03881765891234634,-8.38669483149701e-06,0.018836510245503923,-1.8418783037654762e-06,-0.014227715662415763
50,0.031101,133.291,400.004,-0.291392,231.335,-0.105756,-0.0550579,-0.00343452,0.0192685,-0.0148113,0.0393404,-8.97809e-06,-2.02683e-06,0.0280744,-0.003428628782615961,0.04012448176985406,-8.978049697017099e-06,0.019455335630899073,-2.0268279460333716e-06,-0.014702152234050692
51,0.032101,134.85,404.021,0.343821,232.925,0.0649986,0.0151799,-0.00355228,0.0198778,-0.0152909,0.0405916,-6.53851e-06,-9.64189e-07,0.0290231,-0.0035459781176261362,0.04142670001929605,-6.538488623974992e-06,0.020076679039946033,-9.641885351241442e-07,-0.015174587782739057
52,0.033101,135.838,407.015,0.331137,234.644,0.0710768,0.00269227,-0.00367047,0.0204845,-0.0157718,0.0418455,-6.12429e-06,-1.00483e-06,0.0299727,-0.003663742059075159,0.0427333640002312,-6.1242712465769955e-06,0.02069574733649815,-1.0048294951658931e-06,-0.015648076463995797
53,0.034101,136.392,409.146,-0.157147,236.493,-0.0813012,-0.029499,-0.0037885,0.0210881,-0.0162532,0.0431025,-8.48453e-06,-1.46476e-06,0.0309228,-0.0037813326878525233,0.04404490396895833,-8.48449400647766e-06,0.02131202526355791,-1.4647589272609451e-06,-0.016121829438495938
54,0.035101,137.226,411.817,-0.306129,238.177,-0.110696,-0.0561273,-0.00390621,0.0216925,-0.0167334,0.0443559,-9.45751e-06,-1.99432e-06,0.0318716,-0.003898590685826986,0.04535433029764624,-9.457465277917798e-06,0.021929492831529673,-1.9943180114001535e-06,-0.016594174316917676
55,0.036101,138.134,414.583,-0.346333,239.803,-0.115825,-0.0623502,-0.00402373,0.0222965,-0.017213,0.0456075,-1.01486e-05,-2.30141e-06,0.0328196,-0.004015645645165433,0.04666351489426401,-1.0148548503119414e-05,0.02254692469085051,-2.301407351801288e-06,-0.017065702669378013
56,0.037101,139.087,417.401,-0.304339,241.381,-0.104291,-0.0580254,-0.00414117,0.0229002,-0.0176919,0.0468575,-1.05676e-05,-2.45467e-06,0.0337668,-0.0041326071796251584,0.047972662334570204,-1.0567544163064824e-05,0.023164422642288907,-2.4546669873393157e-06,-0.017536317206724328
57,0.038101,140.498,421.016,0.307642,242.777,0.0566966,0.0123496,-0.0042586,0.0235058,-0.0181692,0.0481022,-8.30124e-06,-1.42393e-06,0.0347123,-0.0042495450214242725,0.04927788604484107,-8.301205544847257e-06,0.02378423867799362,-1.4239289861661675e-06,-0.018005135230199865
58,0.039101,140.836,422.678,-0.333741,244.479,-0.1182,-0.0585364,-0.00437636,0.024106,-0.018649,0.0493542,-1.11098e-05,-2.52202e-06,0.0356599,-0.004366797691029878,0.05059240467512249,-1.1109738286441129e-05,0.02439889841898424,-2.522016819717088e-06,-0.018476183352835185
59,0.040101,142.224,426.238,0.283207,245.791,0.0615471,-0.00160109,-0.00449367,0.0247105,-0.0191256,0.0505962,-8.58754e-06,-1.73416e-06,0.0366042,-0.004483588571489672,0.05189805108030954,-8.587503127155394e-06,0.025018334758849292,-1.7341584963581624e-06,-0.018943866146186816
60,0.041101,142.543,427.798,-0.332755,247.44,-0.119656,-0.0573868,-0.00461127,0.0253095,-0.0196045,0.051846,-1.14726e-05,-2.63881e-06,0.0375505,-0.004600654417866945,0.053213535139306156,-1.1472534189982397e-05,0.025632504666893707,-2.6388065182958442e-06,-0.01941358144638361
61,0.042101,143.358,430.261,-0.34832,248.877,-0.123118,-0.0592679,-0.00472841,0.0259099,-0.0200816,0.0530907,-1.21503e-05,-2.8778e-06,0.038495,-0.0047172486681499315,0.05452528622542685,-1.2150226185392299e-05,0.02624847931978258,-2.877795859168586e-06,-0.01988130764171947
62,0.043101,144.785,433.817,0.376622,250.077,0.0807507,0.0186781,-0.00484549,0.0265131,-0.0205568,0.0543287,-9.23624e-06,-1.73357e-06,0.0394373,-0.0048337695514102386,0.05583159696928197,-9.236197346051966e-06,0.026867699140430856,-1.7335684974195686e-06,-0.020346949399084102
63,0.044101,145.515,436.101,0.297117,251.465,0.0675505,-0.000191503,-0.00496302,0.027113,-0.0210335,0.0555704,-9.09818e-06,-1.8957e-06,0.0403807,-0.004950724565478848,0.05714343735078775,-9.098138611718376e-06,0.02748390188467842,-1.8956982031914649e-06,-0.020813838716395416
64,0.045101,145.969,437.803,-0.0772517,252.945,-0.0579944,-0.0201681,-0.00508032,0.0277105,-0.0215102,0.0568141,-1.09718e-05,-2.17258e-06,0.0413242,-0.005067437000169206,0.05845902457215657,-1.0971739810017311e-05,0.028098006961676303,-2.172577639902862e-06,-0.021280505520609228
65,0.046101,146.525,439.74,-0.326699,254.321,-0.115884,-0.0565594,-0.00519739,0.0283079,-0.0219864,0.0580555,-1.22776e-05,-2.83142e-06,0.0422667,-0.005183906937618721,0.059773811524673315,-1.2277524630621706e-05,0.02871237620485645,-2.8314159915554526e-06,-0.02174646079112519
66,0.047101,147.245,441.933,-0.365119,255.621,-0.1225,-0.062779,-0.00531419,0.0289054,-0.0224615,0.0592946,-1.29706e-05,-3.1428e-06,0.0432081,-0.00530009467179271,0.06108779116249785,-1.297051588211584e-05,0.029327215514590943,-3.142795061417125e-06,-0.02221111865938652
67,0.048101,148.605,445.275,0.387375,256.684,0.0828189,0.0218712,-0.00543095,0.0295057,-0.0229346,0.0605268,-1.00363e-05,-1.91102e-06,0.0441473,-0.005416229052681687,0.06239606940346065,-1.0036249636469208e-05,0.029945306143405404,-1.9110181740389365e-06,-0.022673601170284607
68,0.049101,149.233,447.282,0.275003,257.944,0.062798,-0.00189067,-0.00554813,0.0301025,-0.0234094,0.0617631,-1.00121e-05,-2.1517e-06,0.0450877,-0.005532767550837314,0.06371032190185,-1.0012049879049023e-05,0.030560160956538462,-2.1516976851376768e-06,-0.02313752560007387
69,0.050101,149.662,448.846,-0.0393267,259.278,-0.0473166,-0.0155458,-0.00566508,0.0306973,-0.023884,0.0630007,-1.1632e-05,-2.33402e-06,0.0460279,-0.005649063693122791,0.06502758475035386,-1.163193234854365e-05,0.031173320475839095,-2.334017276228728e-06,-0.023601034531054554
70,0.051101,150.703,451.578,0.354559,260.333,0.0843578,0.0170997,-0.00578179,0.0312949,-0.0243569,0.0642312,-9.61466e-06,-1.78172e-06,0.0469659,-0.005765107619024157,0.06633890781944785,-9.6146137793518e-06,0.03178973381811745,-1.7817184126966978e-06,-0.024062664440829606
71,0.052101,151.349,453.572,0.327606,261.502,0.0821519,0.00203285,-0.00589877,0.0318902,-0.0248303,0.0654636,-9.28079e-06,-1.89984e-06,0.0479042,-0.005881406414285695,0.06765387400517642,-9.28074693362646e-06,0.03240414110684431,-1.8998381953183596e-06,-0.024524563835270352
72,0.053101,151.611,454.773,-0.13076,262.81,-0.0734534,-0.0253193,-0.00601552,0.0324827,-0.025304,0.0666989,-1.15852e-05,-2.3035e-06,0.0488429,-0.005997462985152691,0.06897356177306824,-1.1585132891789307e-05,0.03301602181220864,-2.3034973469782116e-06,-0.02498653712236998
73,0.054101,152.604,457.395,0.270014,263.79,0.0620135,-0.00162663,-0.00613203,0.0330785,-0.0257756,0.0679261,-9.62796e-06,-1.95539e-06,0.0497789,-0.00611326747441876,0.07028621140515057,-9.627913651333309e-06,0.033631676143217604,-1.955388088226151e-06,-0.025446245063810324
74,0.055101,153.251,459.323,0.27874,264.881,0.0688487,-0.00278722,-0.00624867,0.0336722,-0.0262477,0.069155,-9.2462e-06,-1.92645e-06,0.0507152,-0.006229187662303848,0.0716022946320567,-9.246157254061416e-06,0.03424552547248649,-1.9264481444514203e-06,-0.02590622330510861
75,0.056101,153.524,460.503,-0.120008,266.102,-0.068898,-0.0244231,-0.00636518,0.0342631,-0.0267201,0.0703865,-1.13005e-05,-2.25716e-06,0.0516518,-0.0063449651549004615,0.07292278578343536,-1.1300436149608295e-05,0.03485684174909465,-2.257157452612013e-06,-0.02636627653209145
76,0.057101,153.961,462.031,-0.329494,267.204,-0.118864,-0.0554184,-0.00648141,0.0348543,-0.0271917,0.0716153,-1.24844e-05,-2.84635e-06,0.0525872,-0.00646045096801251,0.07424200366407585,-1.248432207023864e-05,0.03546882999983869,-2.8463459491590015e-06,-0.026825333941833618
77,0.058101,154.572,463.851,-0.316927,268.229,-0.111101,-0.0565513,-0.00659742,0.0354457,-0.0276624,0.0728416,-1.29087e-05,-3.06646e-06,0.0535215,-0.006575704805667604,0.07556015469228439,-1.290861668312715e-05,0.03608138738126443,-3.0664552984616122e-06,-0.02728329946650543
78,0.059101,155.672,466.557,0.302769,269.068,0.0620581,0.0134545,-0.0067134,0.0360391,-0.0281313,0.0740623,-1.04838e-05,-2.07668e-06,0.0544538,-0.006690915474228398,0.07687389264994549,-1.0483745045197779e-05,0.03669638052695667,-2.076677843687591e-06,-0.027739299409843987
79,0.060101,156.295,468.392,0.358411,270.03,0.0894031,0.00756079,-0.00682972,0.0366303,-0.0286013,0.075285,-9.7586e-06,-2.06609e-06,0.0553867,-0.006806450467295,0.07819139164736266,-9.758552385052965e-06,0.037309456634564864,-2.0660878656819648e-06,-0.028196154569748777
80,0.061101,156.378,469.139,-0.203718,271.192,-0.0939562,-0.0326883,-0.00694586,0.0372177,-0.0290721,0.0765121,-1.2486e-05,-2.67206e-06,0.0563203,-0.006921793268051646,0.07951525239269386,-1.2485922050275988e-05,0.037918951200421214,-2.6720564300086735e-06,-0.028653572135633354
81,0.062101,157.359,471.635,0.300258,271.971,0.0733729,0.00170784,-0.00706173,0.0378093,-0.0295403,0.0777296,-1.00864e-05,-2.18406e-06,0.0572509,-0.007036854573660101,0.08083036262338528,-1.0086349132465422e-05,0.03853316571869181,-2.1840576149845248e-06,-0.029108250084745713
82,0.063101,157.923,473.298,0.323535,272.893,0.084337,0.00196597,-0.00717777,0.0383986,-0.0300091,0.0789494,-9.59186e-06,-2.12564e-06,0.0581818,-0.007152071332049759,0.08214956391701089,-9.591813998288679e-06,0.03914535367671523,-2.1256377408240823e-06,-0.029563297465665883
83,0.064101,158.034,474.062,-0.157325,273.978,-0.0799165,-0.02748,-0.00729367,0.0389846,-0.0304785,0.0801726,-1.20122e-05,-2.57495e-06,0.0591132,-0.007267135738871278,0.08347405915974027,-1.2012127853844312e-05,0.03975447130800491,-2.5749466848745683e-06,-0.03001871355931629
84,0.065101,158.381,475.316,-0.364538,274.922,-0.130557,-0.0576987,-0.00740926,0.0395712,-0.0309469,0.0813924,-1.32347e-05,-3.16625e-06,0.0600433,-0.007381879098930955,0.08479648720199484,-1.3234612421753056e-05,0.04036457020538631,-3.166244987418132e-06,-0.030472946404248025
85,0.066101,158.934,476.925,-0.315264,275.781,-0.111947,-0.0552745,-0.00752463,0.0401582,-0.0314143,0.0826096,-1.35075e-05,-3.33704e-06,0.0609721,-0.0074963908458021145,0.08611770541649877,-1.3507408774149354e-05,0.04097544348186277,-3.3370344321159706e-06,-0.030925997462818433
86,0.067101,159.916,479.322,0.269864,276.474,0.0548019,0.0101145,-0.00763999,0.040747,-0.0318801,0.0838216,-1.11995e-05,-2.4296e-06,0.0618991,-0.00761087945832406,0.08743487812088468,-1.1199437285780434e-05,0.04158855030392039,-2.429597048547727e-06,-0.03137728701970277
87,0.068101,160.441,480.875,0.311345,277.292,0.0776068,0.00354823,-0.00775565,0.0413336,-0.0323469,0.0850356,-1.05918e-05,-2.4548e-06,0.0628266,-0.007725652546550221,0.08875582571587959,-1.059174390705131e-05,0.042199725387655374,-2.454796987017005e-06,-0.03182933458601145
88,0.069101,160.518,481.513,-0.158114,278.282,-0.0801065,-0.0276829,-0.00787112,0.0419169,-0.0328143,0.0862531,-1.29231e-05,-2.93057e-06,0.0637546,-0.007840223850549166,0.09008219319605204,-1.292301649713501e-05,0.04280781782039056,-2.930565705883126e-06,-0.03228175181688275
89,0.070101,160.831,482.647,-0.34629,279.133,-0.125054,-0.0557497,-0.00798631,0.0425008,-0.0332807,0.0874673,-1.40385e-05,-3.48692e-06,0.0646812,-0.007954504153063424,0.09140657486443216,-1.403840146074753e-05,0.04341689110685709,-3.4869139207138744e-06,-0.03273299037082478
90,0.071101,161.342,484.123,-0.288205,279.904,-0.103958,-0.0523087,-0.00810129,0.0430851,-0.033746,0.0886788,-1.42351e-05,-3.63248e-06,0.0656066,-0.008068562986807915,0.09272961519974121,-1.423499868147271e-05,0.044026737745676,-3.6324734025150462e-06,-0.03318295501801183
91,0.072101,162.23,486.291,0.24149,280.53,0.0474067,0.00756776,-0.00821627,0.0436709,-0.03421,0.0898856,-1.21532e-05,-2.81009e-06,0.0665302,-0.008182608706821637,0.09404911732680787,-1.2153126150216131e-05,0.04463850777859535,-2.8100860517410453e-06,-0.033631454067057365
92,0.073101,162.694,487.677,0.266659,281.272,0.0651886,-0.000302579,-0.0083315,0.0442546,-0.0346748,0.0910943,-1.16656e-05,-2.87307e-06,0.0674543,-0.008296889240420935,0.09537229399564873,-1.1665531957194553e-05,0.045248441267357054,-2.873065872766034e-06,-0.03408051779671162
93,0.074101,162.798,488.314,-0.116106,282.156,-0.0668852,-0.0233665,-0.00844654,0.0448354,-0.03514,0.0923057,-1.36128e-05,-3.23039e-06,0.0683786,-0.008410968204334845,0.09670003204115907,-1.3612707346233321e-05,0.0458556978922986,-3.2303847823378362e-06,-0.03452975903821809
94,0.075101,163.085,489.349,-0.280944,282.923,-0.105165,-0.0493481,-0.00856135,0.0454168,-0.0356043,0.0935141,-1.45498e-05,-3.73357e-06,0.0693016,-0.00852480600609129,0.09802608539995505,-1.4549694152155013e-05,0.046463935192503136,-3.733563030183795e-06,-0.034977922821823215
95,0.076101,164.042,491.607,0.367658,283.451,0.0838125,0.0226991,-0.008676,0.0460009,-0.0360664,0.0947156,-1.18454e-05,-2.69659e-06,0.0702222,-0.00863847212104818,0.09934615661554091,-1.1845329843551688e-05,0.047075353324331104,-2.696586364203668e-06,-0.03542375650588103
96,0.077101,164.449,492.854,0.364646,284.137,0.0963148,0.00887056,-0.00879098,0.0465824,-0.0365297,0.0959199,-1.12951e-05,-2.79836e-06,0.0711435,-0.008752452316676651,0.10067089672409923,-1.129503621055683e-05,0.04768440470681656,-2.798356084632303e-06,-0.035870541173831816
97,0.078101,164.395,493.146,-0.164993,285.013,-0.0836285,-0.0267357,-0.00890573,0.0471605,-0.0369936,0.097128,-1.39066e-05,-3.33068e-06,0.0720653,-0.008866191446865956,0.10200142077565943,-1.3906503303684481e-05,0.04829024616277766,-3.330674453239091e-06,-0.03631769710394417
98,0.079101,164.627,494.041,-0.357985,285.731,-0.129912,-0.0557765,-0.00902016,0.0477395,-0.0374564,0.0983323,-1.50407e-05,-3.90037e-06,0.0729856,-0.008979600399761645,0.10332936054513486,-1.5040586889281116e-05,0.04889738196415894,-3.900362393616241e-06,-0.03676358608705532
99,0.080101,165.078,495.32,-0.280445,286.364,-0.102329,-0.0507053,-0.00913439,0.0483189,-0.0379181,0.0995338,-1.51339e-05,-4.01931e-06,0.0739046,-0.009092798194592855,0.10465580747525127,-1.5133785483123496e-05,0.04950528920098907,-4.019301922619789e-06,-0.03720820969010186
100,0.081101,165.865,497.22,0.21761,286.867,0.041904,0.00543505,-0.00924863,0.0488997,-0.0383785,0.100731,-1.31666e-05,-3.25942e-06,0.074822,-0.009205992967518561,0.10597909336884248,-1.3166513320728157e-05,0.05011501892132797,-3.259414688150386e-06,-0.03765137700541643
101,0.082101,165.758,497.418,-0.354111,287.672,-0.127056,-0.054426,-0.00936297,0.0494755,-0.0388409,0.101935,-1.58172e-05,-4.21333e-06,0.075741,-0.009319273877889556,0.10731149414156804,-1.581707490871942e-05,0.05071984926316753,-4.21332112399142e-06,-0.03809626414285605
102,0.083101,166.644,499.522,0.278542,288.093,0.0706705,0.00134736,-0.00947706,0.0500559,-0.0393003,0.103129,-1.30633e-05,-3.47436e-06,0.0766567,-0.00943229419456637,0.1086344136913775,-1.3063214675423929e-05,0.051329864072853226,-3.4743539644166432e-06,-0.038538061230547704
103,0.084101,167.036,500.656,0.321276,288.687,0.0870676,0.00375268,-0.00959136,0.0506336,-0.0397607,0.104325,-1.25089e-05,-3.39955e-06,0.0775729,-0.009545509612955416,0.10996113367055305,-1.2508821764067868e-05,0.05193739280310572,-3.3995442215717375e-06,-0.03898061642313455
104,0.085101,166.97,500.869,-0.158947,289.457,-0.0788148,-0.0270118,-0.0097055,0.0512081,-0.0402217,0.105525,-1.49163e-05,-3.87541e-06,0.0784896,-0.009658553636943012,0.11129388652273864,-1.491618875260059e-05,0.05254190446461915,-3.875402490582935e-06,-0.039423544256253606
105,0.086101,167.176,501.651,-0.321271,290.08,-0.118598,-0.0519197,-0.00981934,0.0517834,-0.0406816,0.106722,-1.59102e-05,-4.37758e-06,0.0794049,-0.009771287690252928,0.11262490175860096,-1.591007343348938e-05,0.05314760603560886,-4.377570418379051e-06,-0.03986521179901403
106,0.087101,168.096,503.762,0.382473,290.443,0.0919295,0.0239143,-0.00993305,0.0523619,-0.0411392,0.107911,-1.29107e-05,-3.29575e-06,0.0803175,-0.009883880195561523,0.11394859954918335,-1.2910616657313412e-05,0.05375702818406092,-3.295744569031811e-06,-0.04030446896838957
107,0.088101,168.419,504.759,0.375517,290.992,0.102587,0.0101849,-0.0100471,0.0529374,-0.0415981,0.109103,-1.23681e-05,-3.39923e-06,0.081231,-0.009996796499850524,0.11527721797911483,-1.2368023515341164e-05,0.054363639889556614,-3.3992242226554836e-06,-0.04074477221227368
108,0.089101,168.276,504.788,-0.166367,291.738,-0.0839106,-0.0261503,-0.0101609,0.0535095,-0.0420576,0.1103,-1.505e-05,-3.94389e-06,0.0821449,-0.010109452454163503,0.11661300411754572,-1.5049886749274322e-05,0.05496701390661807,-3.943882222912087e-06,-0.04118544873625707
109,0.090101,168.444,505.472,-0.344342,292.318,-0.126592,-0.0535004,-0.0102744,0.0540826,-0.042516,0.111492,-1.61069e-05,-4.48365e-06,0.0830573,-0.010221798655542402,0.11794480041135325,-1.610677028462959e-05,0.05557178878397617,-4.483639948427154e-06,-0.04162486860382808
110,0.091101,169.374,507.579,0.401629,292.622,0.0983869,0.0260662,-0.0103877,0.0546591,-0.0429719,0.112676,-1.29032e-05,-3.34807e-06,0.083967,-0.010333934173157644,0.1192692309632053,-1.2903116754059418e-05,0.05618050136475272,-3.3480643951699918e-06,-0.042061692244716675
111,0.092101,169.124,507.43,-0.255139,293.342,-0.10008,-0.0453347,-0.0105014,0.0552294,-0.0434306,0.11387,-1.57986e-05,-4.41223e-06,0.084879,-0.010446452808036577,0.12060643657786319,-1.5798475202721818e-05,0.056783012894513485,-4.412220266147848e-06,-0.042500997784055916
112,0.093101,169.3,508.088,-0.401081,293.892,-0.141205,-0.0603677,-0.0106145,0.0558009,-0.0438876,0.115059,-1.68901e-05,-4.82569e-06,0.0857891,-0.010558364985471136,0.12193963005741426,-1.6889957363042107e-05,0.0573871369984027,-4.825678356357166e-06,-0.042938474856943576
113,0.094101,170.271,510.258,0.418055,294.142,0.106112,0.0267847,-0.0107276,0.0563761,-0.0443421,0.11624,-1.33782e-05,-3.59275e-06,0.0866965,-0.010670264506354,0.1232654234874353,-1.3378110512274333e-05,0.05799552103407879,-3.5927435461102775e-06,-0.043373360484875945
114,0.095101,169.974,509.994,-0.272954,294.846,-0.105944,-0.0466472,-0.0108409,0.0569446,-0.0447997,0.11743,-1.64639e-05,-4.6891e-06,0.0876064,-0.010782349215666787,0.12460290498504256,-1.6463764470731057e-05,0.058597162488166266,-4.68908900619347e-06,-0.04381101269265597
115,0.096101,170.704,511.715,0.265206,295.147,0.0686279,0.000730538,-0.0109539,0.0575178,-0.0452541,0.118611,-1.40136e-05,-4.06354e-06,0.0885128,-0.01089412449478322,0.1259318456008005,-1.4013501809961859e-05,0.05920412432034694,-4.063531743869753e-06,-0.04424540626679396
116,0.097101,170.981,512.539,0.266371,295.613,0.0720849,-0.000646619,-0.0110671,0.0580883,-0.0457094,0.119794,-1.36899e-05,-4.06163e-06,0.0894198,-0.011006084942809524,0.1272646111495359,-1.3689806293792905e-05,0.05980857267577089,-4.061621751594302e-06,-0.044680462285302536
117,0.098101,170.934,512.7,-0.0969241,296.211,-0.0591668,-0.0202461,-0.0111801,0.0586564,-0.046165,0.120979,-1.55737e-05,-4.37403e-06,0.0903268,-0.011117834941217097,0.12860121149304438,-1.5573578730609938e-05,0.06041082097834116,-4.374020433961512e-06,-0.0451156067332531
118,0.099101,171.597,514.269,0.366195,296.501,0.0979743,0.0206375,-0.0112928,0.0592278,-0.0466185,0.122157,-1.32259e-05,-3.75164e-06,0.0912312,-0.01122927568141563,0.1299314870986814,-1.322581253815347e-05,0.06101691286540967,-3.7516329626230416e-06,-0.0455485486286048
119,0.1001,171.775,514.909,0.279268,296.964,0.0767892,0.000684055,-0.0114058,0.0597966,-0.0470728,0.123337,-1.31938e-05,-3.97965e-06,0.0921362,-0.011341000460694639,0.1312655932212694,-1.3193712962156212e-05,0.06162059095522032,-3.979642081208823e-06,-0.04598205744397954
120,0.1011,171.738,515.066,-0.0532119,297.53,-0.0475205,-0.0149002,-0.0115185,0.0603632,-0.0475271,0.124519,-1.49426e-05,-4.22111e-06,0.093041,-0.011452416051556336,0.13260353972306627,-1.4942488359870332e-05,0.06222227562322513,-4.221101091106405e-06,-0.04641536936102819
121,0.1021,172.313,516.456,0.321532,297.817,0.0855352,0.0155895,-0.0116311,0.0609327,-0.0479797,0.125694,-1.29472e-05,-3.75155e-06,0.0939434,-0.011563720242965259,0.13393513103893673,-1.2947116185380025e-05,0.06282738349730521,-3.751542962948662e-06,-0.04684686411022776
122,0.1031,171.97,516.044,-0.355896,298.464,-0.139488,-0.0466971,-0.0117437,0.0614968,-0.0484339,0.126876,-1.63189e-05,-4.71146e-06,0.0948475,-0.011675011902227972,0.13527623480000672,-1.6318766847489563e-05,0.06342709355665543,-4.711448901129067e-06,-0.04727968796281112
123,0.1041,172.746,517.822,0.278702,298.653,0.0747836,0.0018242,-0.0118559,0.0620663,-0.048885,0.128047,-1.3351e-05,-4.0674e-06,0.0957479,-0.01178589574519262,0.13660642194352945,-1.3350910875842281e-05,0.06403288776996519,-4.067391728090897e-06,-0.04770936317504071
124,0.1051,173.001,518.564,0.303231,299.043,0.0854842,0.00257405,-0.0119683,0.0626328,-0.0493371,0.129222,-1.28881e-05,-4.02877e-06,0.0966489,-0.01189696476831481,0.1379427194103311,-1.2888016948764403e-05,0.0646358331690462,-4.028761884544707e-06,-0.048139796465172524
125,0.1061,172.854,518.484,-0.133183,299.599,-0.070962,-0.0233186,-0.0120806,0.0631964,-0.0497897,0.130399,-1.51286e-05,-4.43647e-06,0.0975503,-0.01200792250877758,0.13928286651293487,-1.5128485563287164e-05,0.06523603104449416,-4.436460158907529e-06,-0.04857051091525977
126,0.1071,172.966,518.96,-0.268391,300.015,-0.103354,-0.04552,-0.0121926,0.0637608,-0.0502412,0.131573,-1.59439e-05,-4.88022e-06,0.0984502,-0.012118571425001612,0.14062117002867214,-1.594377289670934e-05,0.06583741995640224,-4.880208091750937e-06,-0.048999984368653715
127,0.1081,173.673,520.548,0.315928,300.214,0.0744993,0.0179559,-0.0123045,0.0643278,-0.0506908,0.132741,-1.34329e-05,-3.9875e-06,0.0993478,-0.012229109172156916,0.14195419388965513,-1.3432809779057031e-05,0.06644192113340619,-3.987492049883912e-06,-0.049427457872437075
128,0.1091,173.859,521.162,0.27943,300.582,0.0750533,0.00243907,-0.0124167,0.0648921,-0.0511415,0.133911,-1.31402e-05,-4.15565e-06,0.100246,-0.012339930848895397,0.1432910622119714,-1.3140113667930997e-05,0.06704388413738949,-4.155641365244378e-06,-0.04985578438654359
129,0.1101,173.758,521.15,-0.0849963,301.084,-0.0573622,-0.0177611,-0.0125286,0.0654539,-0.0515924,0.135084,-1.50247e-05,-4.47013e-06,0.101144,-0.01245044382731697,0.14463292947923878,-1.5024587129763844e-05,0.06764351781282607,-4.470120009036904e-06,-0.050284107840584014
130,0.1111,174.344,522.521,0.351704,301.281,0.0954751,0.0191471,-0.0126403,0.0660191,-0.0520412,0.136249,-1.27474e-05,-3.908e-06,0.10204,-0.012560746952197221,0.14596720390602647,-1.2747318752226455e-05,0.06824712049114234,-3.907992363827439e-06,-0.05071024470072105
131,0.1121,174.461,522.981,0.255071,301.655,0.0703707,-0.00107511,-0.0127522,0.0665815,-0.0524909,0.137417,-1.27953e-05,-4.15132e-06,0.102936,-0.012671235222679322,0.14730647558259236,-1.279521814046003e-05,0.06884807164333084,-4.151311383315814e-06,-0.05113704433058963
132,0.1131,174.408,523.05,-0.0327671,302.115,-0.0405049,-0.0126557,-0.0128638,0.0671422,-0.0529404,0.138586,-1.43434e-05,-4.33735e-06,0.103832,-0.012781414964684434,0.1486484610902521,-1.4343297133900812e-05,0.06944754280313559,-4.3373405936852905e-06,-0.05156346238452558
133,0.1141,174.874,524.176,0.274919,302.333,0.0719989,0.0111926,-0.0129753,0.0677052,-0.0533883,0.139749,-1.2663e-05,-3.97327e-06,0.104726,-0.012891483700469886,0.14998511636488243,-1.2662919824601993e-05,0.07004981129240506,-3.973262106549136e-06,-0.05198817198890748
134,0.1151,174.581,523.802,-0.282808,302.856,-0.117158,-0.0388542,-0.0130868,0.0682637,-0.0538376,0.140918,-1.54867e-05,-4.74996e-06,0.105621,-0.01300154016427535,0.1513302350345933,-1.5486580081658374e-05,0.07064760102925716,-4.749948718907326e-06,-0.05241401802975598
135,0.1161,174.713,524.265,-0.354978,303.191,-0.131458,-0.0531038,-0.0131979,0.0688237,-0.0542855,0.142082,-1.61755e-05,-5.12315e-06,0.106514,-0.013111189602024065,0.15267116369725375,-1.6175369177306997e-05,0.07124733159471885,-5.123136876727941e-06,-0.05283834675556842
136,0.1171,175.466,525.918,0.328763,303.293,0.0811967,0.0180753,-0.013309,0.0693865,-0.0547313,0.14324,-1.3206e-05,-4.13308e-06,0.107405,-0.013220826858396872,0.15400673004848686,-1.3205912801184105e-05,0.07185039928026904,-4.133071458856108e-06,-0.05326049731623339
137,0.1181,175.635,526.459,0.312939,303.595,0.0871101,0.0055294,-0.0134203,0.0699463,-0.0551785,0.144401,-1.2804e-05,-4.25447e-06,0.108296,-0.01333064926863703,0.15534730991810441,-1.2803918029158368e-05,0.07245058911124591,-4.254460949759675e-06,-0.053683784567749804
138,0.1191,175.445,526.235,-0.116623,304.061,-0.0672588,-0.0206344,-0.0135314,0.0705033,-0.055626,0.145565,-1.49972e-05,-4.65916e-06,0.109188,-0.01344026214439531,0.15669291717834488,-1.4997087542600873e-05,0.07304811048363491,-4.659149146157837e-06,-0.05410716633541979
139,0.1201,176.066,527.642,0.402042,304.173,0.112532,0.0243923,-0.0136423,0.0710643,-0.0560712,0.14672,-1.23218e-05,-3.97523e-06,0.110077,-0.013549665552792356,0.15802966932344464,-1.2321724086938879e-05,0.07365025936058367,-3.9752220988287235e-06,-0.05452818409945903
140,0.1211,176.142,527.988,0.295473,304.493,0.0843125,0.0028002,-0.0137534,0.0716222,-0.0565174,0.147879,-1.23594e-05,-4.22365e-06,0.110967,-0.013659254097193152,0.15937260379038576,-1.235932362297909e-05,0.07424941595947354,-4.22364108043638e-06,-0.05494995951862014
141,0.1221,176.007,527.859,-0.0524652,304.919,-0.0469932,-0.014039,-0.0138643,0.072178,-0.0569635,0.149039,-1.41852e-05,-4.48512e-06,0.111856,-0.013768633220729298,0.160718256338368,-1.4185099390551237e-05,0.07484664974075717,-4.485109941887444e-06,-0.05537145232071938
142,0.1231,176.493,528.994,0.316469,305.061,0.0862324,0.0155262,-0.0139749,0.0727368,-0.0574079,0.150192,-1.21941e-05,-4.03305e-06,0.112743,-0.013877704378148836,0.1620573363191864,-1.2194025652223495e-05,0.0754474418943265,-4.03304186724629e-06,-0.05579115198313578
143,0.1241,176.087,528.363,-0.339943,305.564,-0.135816,-0.044225,-0.0140856,0.0732903,-0.0578539,0.151353,-1.54939e-05,-4.9569e-06,0.113632,-0.013986862074284234,0.16340726837057518,-1.549377997012158e-05,0.07604286682206252,-4.956887714624436e-06,-0.05621217523418731
144,0.1251,176.739,529.824,0.242904,305.629,0.0649273,-0.00057917,-0.014196,0.0738489,-0.0582969,0.152503,-1.27389e-05,-4.38563e-06,0.114517,-0.014095711916089382,0.16474595632724198,-1.2738818860547063e-05,0.07664411227969148,-4.385620383184907e-06,-0.05663018064552383
145,0.1261,176.904,530.309,0.254118,305.887,0.0712325,-0.000929243,-0.0143065,0.0744047,-0.0587409,0.153655,-1.23951e-05,-4.38065e-06,0.115403,-0.014204648321075486,0.16608851683530723,-1.2395023181066556e-05,0.07724267740313562,-4.380640404977321e-06,-0.0570489438730013
146,0.1271,176.755,530.142,-0.0936646,306.283,-0.0577848,-0.0192129,-0.0144169,0.074958,-0.0591852,0.154811,-1.42315e-05,-4.68146e-06,0.116288,-0.014313474120606129,0.16743729460411738,-1.4231398732689193e-05,0.07783888070097489,-4.6814490419766486e-06,-0.05746780397057749
147,0.1281,177.274,531.321,0.335147,306.384,0.0914847,0.0179666,-0.0145271,0.0755146,-0.0596274,0.155958,-1.20214e-05,-4.124e-06,0.117172,-0.014422090790869646,0.1687771134202296,-1.2021327743250154e-05,0.0784389728121151,-4.123991496296497e-06,-0.05788449956947472
148,0.1291,177.329,531.6,0.233148,306.66,0.064141,-0.00227231,-0.0146374,0.0760685,-0.0600705,0.157109,-1.21275e-05,-4.3772e-06,0.118055,-0.014530794039161021,0.17012315037344017,-1.2127426462171798e-05,0.0790364856250525,-4.377190420123966e-06,-0.05830185847502134
149,0.1301,177.253,531.563,-0.017288,307.011,-0.034697,-0.0110279,-0.0147475,0.0766207,-0.0605134,0.15826,-1.3498e-05,-4.52558e-06,0.118939,-0.014639288226022673,0.1714707375071418,-1.3497908902371236e-05,0.079632494115214,-4.52556975960583e-06,-0.058718844233590195
150,0.1311,177.617,532.433,0.235014,307.152,0.0602516,0.00761969,-0.0148575,0.0771751,-0.0609549,0.159406,-1.20865e-05,-4.24475e-06,0.11982,-0.014747671943104113,0.17281401252189643,-1.2086426958601848e-05,0.08023120831819353,-4.2447409910328915e-06,-0.05913432813904007
151,0.1321,177.356,532.06,-0.222287,307.551,-0.0981514,-0.0324711,-0.0149674,0.0777254,-0.0613975,0.160557,-1.44415e-05,-4.87401e-06,0.120703,-0.014855945224231837,0.17416469862104322,-1.4441395722042394e-05,0.0808258231453951,-4.873998121990297e-06,-0.059550663143672744
152,0.1331,177.446,532.387,-0.281074,307.791,-0.108323,-0.0457559,-0.015077,0.0782771,-0.0618388,0.161704,-1.49771e-05,-5.20625e-06,0.121583,-0.014963911095997373,0.1755122381965719,-1.4976987843806633e-05,0.08142227926931755,-5.206236447508061e-06,-0.05996559187526895
153,0.1341,178.033,533.666,0.266917,307.846,0.0624217,0.0126878,-0.0151866,0.0788309,-0.0622784,0.162845,-1.2607e-05,-4.40054e-06,0.122462,-0.015071865135351858,0.1768542631399881,-1.260692053206558e-05,0.08202133679129409,-4.40053031758314e-06,-0.0603787401844289
154,0.1351,177.62,532.991,-0.387365,308.276,-0.142579,-0.0542036,-0.0152962,0.0793791,-0.0627203,0.163995,-1.57113e-05,-5.45366e-06,0.123343,-0.015179807343591922,0.17820842403587434,-1.5711176578170338e-05,0.08261466350411584,-5.453645128827844e-06,-0.060793867090096265
155,0.1361,177.742,533.367,-0.390581,308.494,-0.142577,-0.0562583,-0.0154055,0.0799293,-0.0631603,0.165138,-1.6244e-05,-5.68367e-06,0.124221,-0.015287442308291266,0.17955588619247065,-1.624386806697853e-05,0.08321048198660996,-5.68365384800984e-06,-0.06120702688675572
156,0.1371,178.443,534.868,0.302917,308.486,0.0769471,0.0145931,-0.0155148,0.0804823,-0.0635985,0.166276,-1.32093e-05,-4.71081e-06,0.125097,-0.015395065509131944,0.18089898486915712,-1.3209212757603339e-05,0.08380966304144066,-4.7107989041839105e-06,-0.06161831584758137
157,0.1381,178.558,535.239,0.292746,308.689,0.0824891,0.00420266,-0.0156243,0.0810322,-0.064038,0.167416,-1.2838e-05,-4.81497e-06,0.125974,-0.015502873846844456,0.18224597735174375,-1.2837917593211401e-05,0.08440581387179535,-4.8149584080947605e-06,-0.06203064398202163
158,0.1391,178.338,534.894,-0.105671,309.047,-0.0628194,-0.0195526,-0.0157336,0.0815794,-0.0644777,0.16856,-1.48935e-05,-5.19012e-06,0.126851,-0.015610473502304711,0.18359924066886268,-1.4893389092329734e-05,0.08499936311340806,-5.190106531327565e-06,-0.06244297844948676
159,0.1401,178.861,536.056,0.364279,309.078,0.102207,0.0209744,-0.0158427,0.0821303,-0.0649154,0.169695,-1.24504e-05,-4.57878e-06,0.127726,-0.01571786454135793,0.18494338846660008,-1.2450322494084176e-05,0.08559725393645334,-4.578769517427084e-06,-0.06285325736172942
160,0.1411,178.877,536.226,0.251125,309.307,0.0710609,-0.000391545,-0.015952,0.0826783,-0.065354,0.170834,-1.25824e-05,-4.84181e-06,0.128601,-0.015825440699619442,0.18629380790393912,-1.2582320841891814e-05,0.086192324265989,-4.841798278421017e-06,-0.06326419979678677
161,0.1421,178.751,536.06,-0.02298,309.616,-0.0363255,-0.0111996,-0.016061,0.0832246,-0.0657924,0.171974,-1.40636e-05,-5.0201e-06,0.129475,-0.015932709880306595,0.18764695399167386,-1.4063501107997034e-05,0.0867858732458775,-5.02008739933224e-06,-0.06367477476698657
162,0.1431,179.1,536.874,0.246587,309.7,0.0649829,0.00895168,-0.0161699,0.0837732,-0.0662293,0.173107,-1.25574e-05,-4.71577e-06,0.130348,-0.016039868973282134,0.18899332056318285,-1.2557321156236867e-05,0.08738224754645363,-4.715758880724508e-06,-0.0640837659072705
163,0.1441,178.79,536.371,-0.236655,310.06,-0.102951,-0.0336088,-0.0162787,0.0843177,-0.0666674,0.174247,-1.50439e-05,-5.38399e-06,0.131222,-0.01614691801196455,0.1903495458501594,-1.5043786841140161e-05,0.08797448840318367,-5.383975506312311e-06,-0.06449370100658636
164,0.1451,178.861,536.631,-0.285237,310.249,-0.110199,-0.0456017,-0.0163873,0.0848635,-0.0671041,0.175382,-1.55422e-05,-5.69899e-06,0.132094,-0.016253758655116468,0.1917013595938788,-1.5542079220609573e-05,0.08856846696095722,-5.698973760792647e-06,-0.06490214741659206
165,0.1461,179.417,537.826,0.258571,310.257,0.0610008,0.0118571,-0.0164958,0.0854115,-0.0675393,0.176511,-1.31731e-05,-4.90825e-06,0.132963,-0.01636048933205847,0.19304755021047093,-1.3173013235112663e-05,0.08916516596144541,-4.9082379545151156e-06,-0.06530901346156337
166,0.1471,178.994,537.098,-0.376359,310.637,-0.139864,-0.0526329,-0.0166043,0.085954,-0.0679766,0.177648,-1.62079e-05,-5.92747e-06,0.133835,-0.016467208429350233,0.19440481673486,-1.620776865274287e-05,0.08975619836702409,-5.927452432552549e-06,-0.06571766447192096
167,0.1481,179.099,537.414,-0.368808,310.806,-0.136218,-0.0537482,-0.0167125,0.0864985,-0.0684121,0.17878,-1.66622e-05,-6.13487e-06,0.134705,-0.016573620920378618,0.19575764854574618,-1.6662061186334398e-05,0.09034973219195441,-6.1348511817271856e-06,-0.06612445584379278
168,0.1491,179.735,538.767,0.278376,310.767,0.0699736,0.012401,-0.0168207,0.0870455,-0.0688458,0.179906,-1.38219e-05,-5.22917e-06,0.135572,-0.016680021898198283,0.1971048299788174,-1.382180447795367e-05,0.09094631664643638,-5.229156327946072e-06,-0.06652938985100676
169,0.1501,179.82,539.051,0.262009,310.929,0.0731832,0.00182126,-0.0169292,0.0875896,-0.0692808,0.181035,-1.35181e-05,-5.34675e-06,0.136441,-0.01678670632808743,0.19845712455851272,-1.3518008630919454e-05,0.09154006205111331,-5.346735706179828e-06,-0.06693536126123811
170,0.1511,179.62,538.72,-0.0838802,311.227,-0.0551887,-0.0174707,-0.0170374,0.0881313,-0.069716,0.182166,-1.53301e-05,-5.6592e-06,0.137309,-0.016893084251313306,0.1998133463652514,-1.5329982494649563e-05,0.09213150948180004,-5.659183986761462e-06,-0.06734134264406066
171,0.1521,180.059,539.693,0.315788,311.24,0.0873562,0.0162971,-0.0171454,0.0886762,-0.0701493,0.18329,-1.32267e-05,-5.15235e-06,0.138175,-0.01699925406494096,0.20116269475830162,-1.3226612527561521e-05,0.09272677410643504,-5.152336726710338e-06,-0.06774537610012332
172,0.1531,179.585,538.848,-0.344676,311.627,-0.13721,-0.0446459,-0.0172535,0.0892155,-0.0705844,0.184422,-1.65451e-05,-6.10082e-06,0.139042,-0.017105510702301818,0.2025231808185981,-1.6544963130638024e-05,0.09331624059106125,-6.100801390074295e-06,-0.06815091185628064
173,0.1541,179.658,539.091,-0.370441,311.782,-0.13878,-0.0527629,-0.0173612,0.0897571,-0.0710178,0.185548,-1.70705e-05,-6.393e-06,0.139908,-0.017211362738564717,0.2038779845315466,-1.7070354299875135e-05,0.09390854104745072,-6.392979564839862e-06,-0.0685546877465264
174,0.1551,180.298,540.443,0.293159,311.718,0.0743902,0.0143942,-0.0174688,0.0903014,-0.0714493,0.186667,-1.41273e-05,-5.46563e-06,0.140771,-0.01731710510689266,0.205225878001986,-1.4127200210212187e-05,0.09450411753778076,-5.46561506342691e-06,-0.06895651969728556
175,0.1561,180.367,540.685,0.269019,311.863,0.075935,0.00257564,-0.0175767,0.0908426,-0.0718821,0.187791,-1.38363e-05,-5.59689e-06,0.141635,-0.017423130871058734,0.20658131350090847,-1.3836204278860897e-05,0.0950966234838393,-5.596874337432389e-06,-0.06935938812854348
176,0.1571,180.15,540.31,-0.0843388,312.147,-0.0555185,-0.017243,-0.0176844,0.0913815,-0.0723151,0.188916,-1.56869e-05,-5.91671e-06,0.142499,-0.01752894870147148,0.20793948130474238,-1.5686776961176818e-05,0.09568693009806584,-5.916692496277243e-06,-0.06976226828363563
177,0.1581,180.581,541.259,0.317585,312.141,0.0885656,0.0164749,-0.0177919,0.0919235,-0.0727462,0.190035,-1.35612e-05,-5.40942e-06,0.143361,-0.01763455866284891,0.2092919221338434,-1.3561108047288606e-05,0.09628095337994647,-5.409405369083409e-06,-0.07016320734115522
178,0.1591,180.096,540.378,-0.34558,312.513,-0.137822,-0.0445443,-0.0178995,0.09246,-0.0731791,0.191161,-1.69018e-05,-6.36035e-06,0.144224,-0.01774025549774516,0.21065435174208624,-1.690165716539127e-05,0.09686926591216038,-6.360329772969742e-06,-0.07056564657444031
179,0.1601,180.162,540.6,-0.366499,312.65,-0.137804,-0.0521743,-0.0180066,0.0929988,-0.0736102,0.192281,-1.73998e-05,-6.64366e-06,0.145085,-0.017845449883121423,0.21201104422200667,-1.739964862434995e-05,0.0974604183147898,-6.643637930903168e-06,-0.07096623937022084
180,0.1611,180.784,541.906,0.285665,312.572,0.0724398,0.0137009,-0.0181138,0.0935403,-0.0740395,0.193395,-1.4501e-05,-5.73416e-06,0.145944,-0.017950731207714177,0.2133619768550381,-1.4500894860991487e-05,0.09805485406026015,-5.734143559754656e-06,-0.0713649879661491
181,0.1621,180.842,542.118,0.259945,312.702,0.0732882,0.0019175,-0.0182211,0.0940787,-0.0744701,0.194512,-1.423e-05,-5.86816e-06,0.146804,-0.01805609944114872,0.214718059414297,-1.4229898753992387e-05,0.098646205971336,-5.868142782361474e-06,-0.07176477212262478
182,0.1631,180.629,541.74,-0.0782435,312.965,-0.0532789,-0.0166625,-0.0183283,0.0946148,-0.0749008,0.195632,-1.60101e-05,-6.17095e-06,0.147663,-0.018161358185319165,0.21607930579651957,-1.6009971839037185e-05,0.09923534810779677,-6.170930959781273e-06,-0.07216447695265749
183,0.1641,181.033,542.629,0.302993,312.95,0.0841669,0.0150946,-0.0184353,0.095154,-0.0753298,0.196745,-1.39848e-05,-5.69376e-06,0.148521,-0.018266409299658504,0.21743355556406652,-1.3984702213143407e-05,0.09982821563021638,-5.693743790557981e-06,-0.07256243302436416
184,0.1651,180.569,541.779,-0.324369,313.296,-0.130997,-0.042379,-0.0185423,0.0956878,-0.0757604,0.197865,-1.71574e-05,-6.5925e-06,0.149379,-0.018371449174129917,0.21879784500577193,-1.715725281270508e-05,0.1004154606534724,-6.5924782695070405e-06,-0.07296170167199478
185,0.1661,180.629,541.979,-0.343294,313.417,-0.130272,-0.049953,-0.0186489,0.0962239,-0.0761894,0.198979,-1.76159e-05,-6.86639e-06,0.150236,-0.018476085200448633,0.22015634234763692,-1.761574484093753e-05,0.10100555154165836,-6.866366426439008e-06,-0.07335931580764721
186,0.1671,181.208,543.194,0.268668,313.338,0.0671042,0.0122524,-0.0187555,0.0967624,-0.0766166,0.200087,-1.48981e-05,-6.00863e-06,0.151091,-0.018580710073161533,0.22150902482266255,-1.4897989023876512e-05,0.10159860269585574,-6.008611948216114e-06,-0.07375509216408538
187,0.1681,181.255,543.375,0.23893,313.455,0.0665317,0.000247395,-0.0188623,0.097298,-0.077045,0.201199,-1.46706e-05,-6.15234e-06,0.151946,-0.018685520056372917,0.22286809836310773,-1.46704923872365e-05,0.10218877694201423,-6.1523210743708034e-06,-0.07415181049946751
188,0.1691,181.063,543.031,-0.0640703,313.692,-0.0482892,-0.0153748,-0.0189689,0.0978315,-0.0774735,0.202313,-1.62844e-05,-6.41294e-06,0.152802,-0.018790122604520065,0.22423113249373494,-1.6284267409849562e-05,0.1027769515361352,-6.412919437148723e-06,-0.07454845146227318
189,0.1701,181.423,543.823,0.27315,313.678,0.0746509,0.0122097,-0.0190754,0.0983677,-0.0779004,0.20342,-1.44764e-05,-6.00012e-06,0.153655,-0.0188946158920964,0.2255871067506836,-1.4476295217447088e-05,0.10336841909583039,-6.0001019993594085e-06,-0.07494344241152706
190,0.1711,181.012,543.069,-0.282222,313.987,-0.117229,-0.0381815,-0.0191819,0.0988991,-0.0783287,0.204534,-1.7305e-05,-6.79304e-06,0.154509,-0.018999098051730057,0.22695317154442063,-1.7304850269406202e-05,0.10395490488921211,-6.793016927408857e-06,-0.07533955930065506
191,0.1721,181.063,543.244,-0.302823,314.095,-0.116838,-0.0462592,-0.019288,0.0994324,-0.0787555,0.205643,-1.77168e-05,-7.05932e-06,0.155362,-0.019103176725955517,0.22831461739385217,-1.7716643058385273e-05,0.1045438010551949,-7.059295083045036e-06,-0.07573412017146641
192,0.1731,181.579,544.328,0.243881,314.025,0.0589288,0.01021,-0.0193941,0.0999679,-0.0791807,0.206746,-1.52996e-05,-6.28265e-06,0.156213,-0.01920724435801935,0.22967019588093907,-1.529948296175032e-05,0.1051354426585609,-6.2826302641427745e-06,-0.07612703448406688
193,0.1741,181.138,543.513,-0.362824,314.329,-0.136972,-0.0504471,-0.0195003,0.100498,-0.0796081,0.207857,-1.8249e-05,-7.25127e-06,0.157065,-0.019311399017958197,0.23103711865356114,-1.8248833487999327e-05,0.10572143025900549,-7.2512437095939575e-06,-0.07652181341926034
194,0.1751,181.221,543.745,-0.334316,314.421,-0.126135,-0.0496171,-0.0196061,0.10103,-0.0800336,0.208963,-1.85603e-05,-7.4157e-06,0.157915,-0.01941515038339814,0.23239939890890748,-1.8560127758693312e-05,0.10630983056050591,-7.4156725037299864e-06,-0.07691466980152795
195,0.1761,181.754,544.86,0.23659,314.337,0.0581905,0.00866172,-0.019712,0.101564,-0.0804577,0.210063,-1.60383e-05,-6.62005e-06,0.158764,-0.01951898882063019,0.23375578412280595,-1.6038171387178224e-05,0.1069007577735488,-6.620028087489516e-06,-0.07730606728836154
196,0.1771,181.307,544.027,-0.371637,314.639,-0.140352,-0.051129,-0.0198178,0.102093,-0.080884,0.211172,-1.90316e-05,-7.58124e-06,0.159614,-0.019622718224230784,0.23512477825433575,-1.9031418900250507e-05,0.10748646317983246,-7.58121126243072e-06,-0.07769932788242528
197,0.1781,181.392,544.26,-0.336488,314.723,-0.127148,-0.0495913,-0.0199234,0.102623,-0.0813085,0.212275,-1.93151e-05,-7.73606e-06,0.160462,-0.019726240599108658,0.23648787249302705,-1.9314913464629768e-05,0.10807358657927502,-7.73603007675483e-06,-0.07809076143009064
198,0.1791,181.921,545.366,0.233296,314.632,0.0574256,0.00831826,-0.020029,0.103156,-0.0817315,0.213372,-1.67927e-05,-6.94554e-06,0.161309,-0.019829752042601068,0.23784504396159956,-1.6792559003442342e-05,0.10866434722464802,-6.945515879763775e-06,-0.0784806465714849
199,0.1801,181.476,544.532,-0.368673,314.927,-0.139551,-0.0507121,-0.0201346,0.103683,-0.0821567,0.214478,-1.97624e-05,-7.89614e-06,0.162157,-0.01993325255586209,0.2392148579477218,-1.9762204725104482e-05,0.10924876731680366,-7.896108825566905e-06,-0.07887239330930407
200,0.1811,181.56,544.76,-0.331687,315.005,-0.125636,-0.0490424,-0.0202399,0.104213,-0.0825801,0.215578,-2.00301e-05,-8.04688e-06,0.163003,-0.020036448151024455,0.240578744291428,-2.002989939886568e-05,0.10983682498499836,-8.04684762389929e-06,-0.07926231618547896
201,0.1821,182.078,545.841,0.228569,314.912,0.0560479,0.00792905,-0.0203452,0.104744,-0.0830021,0.216672,-1.75488e-05,-7.26921e-06,0.163847,-0.02013963288026288,0.24193668009313085,-1.7548646020659753e-05,0.11042630483211391,-7.269183579405869e-06,-0.07965078551525506
202,0.1831,181.64,545.02,-0.360286,315.197,-0.136862,-0.0497917,-0.0204506,0.10527,-0.0834262,0.217775,-2.04568e-05,-8.20011e-06,0.164694,-0.02024290472043566,0.24330729200478451,-2.045659076110873e-05,0.11101054270954691,-8.200076379138999e-06,-0.08004102286143977
203,0.1841,181.722,545.239,-0.323037,315.27,-0.122784,-0.048178,-0.0205556,0.105798,-0.0838486,0.218872,-2.0711e-05,-8.34805e-06,0.165538,-0.020345773814718027,0.244671948481338,-2.0710785528677e-05,0.11159731116933913,-8.348015155146271e-06,-0.08042953147458742
204,0.1851,182.225,546.287,0.22253,315.177,0.0541783,0.00744865,-0.0206607,0.106328,-0.0842695,0.219964,-1.82956e-05,-7.58895e-06,0.16638,-0.020448730063444498,0.24603187263252768,-1.829543263653921e-05,0.11218661389568685,-7.588921204004784e-06,-0.08081649724213125
205,0.1861,181.799,545.487,-0.348444,315.452,-0.132996,-0.0485378,-0.0207658,0.106853,-0.0846925,0.221064,-2.11168e-05,-8.49332e-06,0.167224,-0.020551675492037846,0.24740326181819383,-2.1116577041957463e-05,0.11277066516802603,-8.493283931820805e-06,-0.08120522964109911
206,0.1871,181.877,545.697,-0.311942,315.52,-0.119083,-0.0471108,-0.0208706,0.10738,-0.0851138,0.222159,-2.13587e-05,-8.63943e-06,0.168066,-0.020654316297974096,0.24876991649676694,-2.135847190454232e-05,0.11335724986006013,-8.639392680254154e-06,-0.08159223634916402
207,0.1881,182.363,546.707,0.215675,315.429,0.0519944,0.00691289,-0.0209755,0.107908,-0.0855337,0.223248,-1.90249e-05,-7.90253e-06,0.168906,-0.020757044272017966,0.2501305676759302,-1.902471902770486e-05,0.11394525770839747,-7.90249877513638e-06,-0.08197779481545597
208,0.1891,181.952,545.934,-0.334468,315.692,-0.128397,-0.0470805,-0.0210803,0.108432,-0.0859557,0.224345,-2.17437e-05,-8.77618e-06,0.169748,-0.02085966355643387,0.2515027133929921,-2.1743463607504232e-05,0.1145291179814687,-8.776141489419409e-06,-0.08236511845500794
209,0.1901,182.026,546.133,-0.29941,315.756,-0.114877,-0.0459269,-0.0211848,0.108957,-0.0863759,0.225437,-2.19746e-05,-8.92118e-06,0.170588,-0.020961978375549806,0.2528701008136689,-2.1974358560217233e-05,0.11511439939133594,-8.921140206341605e-06,-0.08275062763108287
210,0.1911,182.492,547.103,0.208417,315.666,0.0496461,0.00635169,-0.0212894,0.109484,-0.0867948,0.226524,-1.97313e-05,-8.20851e-06,0.171426,-0.021064380396892624,0.2542327110577529,-1.9731105339149124e-05,0.11570221955682425,-8.208476310223034e-06,-0.08313478292622412
211,0.1921,182.098,546.359,-0.319365,315.918,-0.123402,-0.0455183,-0.021394,0.110007,-0.0872157,0.227618,-2.23394e-05,-9.04929e-06,0.172266,-0.02116677170754422,0.25560559247285797,-2.2339150477446168e-05,0.11628588443271348,-9.049249055315123e-06,-0.08352061029302504
212,0.1931,182.168,546.549,-0.286206,315.978,-0.110427,-0.0446913,-0.0214983,0.110531,-0.0876349,0.228706,-2.25604e-05,-9.19371e-06,0.173103,-0.021268858689326486,0.25697243478485343,-2.2560145516048458e-05,0.11687097151558423,-9.19366773799446e-06,-0.08390471793860288
213,0.1941,182.614,547.477,0.201066,315.892,0.0472464,0.00578734,-0.0216026,0.111056,-0.0880528,0.229791,-2.04115e-05,-8.50604e-06,0.17394,-0.02137093502399179,0.25833699001394117,-2.0411291686728283e-05,0.11745748272134993,-8.50600382373834e-06,-0.08428747417449045
214,0.1951,182.237,546.764,-0.303885,316.131,-0.118264,-0.0439249,-0.0217069,0.111577,-0.0884725,0.230882,-2.29061e-05,-9.31334e-06,0.174777,-0.02147300071265057,0.2597105848297714,-2.290583765729437e-05,0.11803982975807825,-9.313296631008328e-06,-0.08467171808235496
215,0.1961,182.303,546.943,-0.272893,316.188,-0.105928,-0.0434516,-0.021811,0.1121,-0.0888907,0.231968,-2.31184e-05,-9.45754e-06,0.175613,-0.021574860071404744,0.2610793736426933,-2.311813277189323e-05,0.11862471752386039,-9.457495277587213e-06,-0.08505442833956045
216,0.1971,182.73,547.83,0.193841,316.105,0.0448759,0.0052353,-0.0219151,0.112625,-0.0893076,0.23305,-2.1064e-05,-8.79477e-06,0.176447,-0.02167670882715167,0.26244459997923086,-2.1063778155472335e-05,0.11921214968801097,-8.794731326089433e-06,-0.0854357896480974
217,0.1981,182.369,547.148,-0.288566,316.333,-0.113165,-0.0423527,-0.0220191,0.113144,-0.0897263,0.234138,-2.34461e-05,-9.56905e-06,0.177283,-0.021778449158844637,0.2638188871806788,-2.344582514235416e-05,0.11979317155583158,-9.569004216780641e-06,-0.08581863752817498
218,0.1991,182.431,547.317,-0.259863,316.387,-0.101514,-0.042241,-0.022123,0.113666,-0.0901434,0.235221,-2.36506e-05,-9.71326e-06,0.178116,-0.021880081098106352,0.26518834446276207,-2.3650320326806806e-05,0.12037785618079444,-9.713212826389928e-06,-0.08619986306434946
219,0.2001,182.839,548.164,0.186886,316.307,0.0425883,0.00470554,-0.0222268,0.114189,-0.0905593,0.236301,-2.16883e-05,-9.07469e-06,0.178948,-0.021981604676523547,0.2665554859983248,-2.168806481051e-05,0.12096396705421064,-9.074648825158071e-06,-0.08657983352096754
220,0.2011,182.495,547.512,-0.273769,316.524,-0.108229,-0.0408365,-0.0223306,0.114707,-0.0909769,0.237386,-2.39618e-05,-9.81712e-06,0.179782,-0.022083117717340173,0.26793044448072334,-2.3961512918391215e-05,0.12154477680588327,-9.817071812245892e-06,-0.08696119814801284
221,0.2021,182.553,547.671,-0.247371,316.575,-0.0972756,-0.0410809,-0.0224342,0.115228,-0.091393,0.238467,-2.41594e-05,-9.96148e-06,0.180614,-0.022184424658554414,0.269301818385258,-2.4159108164001353e-05,0.1221292538776555,-9.961430384675118e-06,-0.0873410345630169
222,0.2031,182.942,548.48,0.180287,316.498,0.0404165,0.00420378,-0.0225377,0.115749,-0.0918079,0.239543,-2.22851e-05,-9.34601e-06,0.181444,-0.022285623333480498,0.2706683221890449,-2.2284851688980645e-05,0.12271403554132121,-9.345966326179678e-06,-0.08771961822516516
223,0.2041,182.614,547.857,-0.259717,316.704,-0.103532,-0.0393978,-0.0226413,0.116267,-0.0922244,0.240626,-2.44552e-05,-1.00582e-05,0.182275,-0.022386909296199686,0.2720452014275061,-2.4454900974024696e-05,0.12329575206330357,-1.0058149416458662e-05,-0.08809950388749355
224,0.2051,183.219,549.1,0.428222,316.535,0.122214,0.0304307,-0.0227448,0.116789,-0.0926382,0.241698,-2.11912e-05,-9.0233e-06,0.183103,-0.02248808701505034,0.2734095650516801,-2.119097546815496e-05,0.12388226551257286,-9.023259290197316e-06,-0.0884767702509911
225,0.2061,183.144,549.007,0.295806,316.626,0.0883291,0.00606042,-0.0228484,0.117307,-0.0930535,0.242776,-2.13174e-05,-9.30987e-06,0.183932,-0.022589352003618557,0.2747830407331904,-2.131717278586187e-05,0.12446458733443921,-9.309826663250753e-06,-0.08885524725211669
226,0.2071,182.888,548.492,-0.0443964,316.82,-0.0419242,-0.0120301,-0.0229517,0.117823,-0.0934687,0.243855,-2.30994e-05,-9.59857e-06,0.184762,-0.022690313308815435,0.27615927397845486,-2.309913321096868e-05,0.12504496078497684,-9.59852393389582e-06,-0.08923347602773024
227,0.2081,183.195,549.152,0.269347,316.753,0.0764246,0.0121739,-0.023055,0.118343,-0.0938823,0.244928,-2.13478e-05,-9.22409e-06,0.185589,-0.022791264185248017,0.2775293277818509,-2.1347572137342397e-05,0.12563013629703224,-9.224047458178397e-06,-0.08961009117266439
228,0.2091,182.77,548.329,-0.263162,317.001,-0.111687,-0.0353497,-0.0231582,0.118857,-0.0942972,0.246007,-2.41001e-05,-9.98021e-06,0.186417,-0.02289210692320931,0.2789085258700861,-2.4099809594946286e-05,0.12620885890605793,-9.980160197819998e-06,-0.08998773359849832
229,0.2101,182.801,548.434,-0.268465,317.048,-0.106087,-0.0420104,-0.0232611,0.119374,-0.0947107,0.24708,-2.43934e-05,-1.02101e-05,0.187243,-0.022992646152574903,0.2802815312039746,-2.439310248347759e-05,0.12679125942367375,-1.021004787715718e-05,-0.0903639458834049
230,0.2111,183.225,549.308,0.204745,316.946,0.0482601,0.00692271,-0.023364,0.119892,-0.0951228,0.24815,-2.22822e-05,-9.534e-06,0.188068,-0.023093175036985936,0.2816521656009954,-2.2281951753577722e-05,0.12737508849473,-9.533954551610435e-06,-0.09073872967180274
231,0.2121,182.842,548.57,-0.295595,317.164,-0.11562,-0.0428923,-0.0234668,0.120406,-0.0955367,0.249225,-2.47436e-05,-1.03428e-05,0.188894,-0.023193595896871533,0.28303068249909513,-2.4743293879692096e-05,0.12795470823972965,-1.0342746513458678e-05,-0.09111499503810239
232,0.2131,182.901,548.725,-0.259677,317.201,-0.101724,-0.0418965,-0.0235695,0.120922,-0.095949,0.250296,-2.49156e-05,-1.0473e-05,0.189718,-0.02329390876341908,0.2844055444672171,-2.4915289609017677e-05,0.128536883057367,-1.0472945158324087e-05,-0.09148965108499685
233,0.2141,183.294,549.536,0.179542,317.107,0.0409156,0.00401049,-0.0236721,0.121439,-0.0963602,0.251363,-2.29768e-05,-9.84678e-06,0.190541,-0.023394113667780436,0.2857767365840673,-2.2976536035335116e-05,0.12912048747465033,-9.846731520601892e-06,-0.09186315374306131
234,0.2151,182.956,548.885,-0.264259,317.306,-0.105375,-0.0396744,-0.0237748,0.121951,-0.0967729,0.252436,-2.51806e-05,-1.05638e-05,0.191365,-0.023494405942210306,0.2871571154632515,-2.5180282971382084e-05,0.1296987451855791,-1.056374420327355e-05,-0.09223786449262994
235,0.2161,183.559,550.12,0.42803,317.122,0.12319,0.030296,-0.0238773,0.122469,-0.0971829,0.253499,-2.1879e-05,-9.52307e-06,0.192185,-0.023594492636070608,0.2885260909585563,-2.187876065640193e-05,0.13028408072440145,-9.523024655733181e-06,-0.09260997068120669
236,0.2171,183.475,550.002,0.292335,317.204,0.0877168,0.00592278,-0.02398,0.122982,-0.0975945,0.254567,-2.20307e-05,-9.81161e-06,0.193007,-0.023694764332637064,0.28990297194727277,-2.2030457325961095e-05,0.13086406521111438,-9.811561866301943e-06,-0.09298337556527758
237,0.2181,183.218,549.479,-0.0412679,317.386,-0.0405318,-0.0117449,-0.0240825,0.123494,-0.098006,0.255636,-2.37823e-05,-1.00958e-05,0.193829,-0.023794830490814767,0.29128261551238643,-2.378201720332207e-05,0.13144321586241747,-1.0095749037541957e-05,-0.09335653612318195
238,0.2191,183.509,550.102,0.260516,317.312,0.0739322,0.0113896,-0.0241848,0.124009,-0.0984159,0.256699,-2.20892e-05,-9.73649e-06,0.194649,-0.023894691171694626,0.2926559787459131,-2.208895603539318e-05,0.1320260591878608,-9.736442600494222e-06,-0.0937280931232155
239,0.2201,183.096,549.297,-0.250646,317.544,-0.107515,-0.0340936,-0.0242871,0.124519,-0.098827,0.257768,-2.47415e-05,-1.04643e-05,0.19547,-0.023994541637349376,0.29403856684886964,-2.47411939315878e-05,0.13260353972306627,-1.046424524941969e-05,-0.09410058493319506
240,0.2211,183.125,549.389,-0.253142,317.581,-0.101054,-0.0404558,-0.024389,0.125031,-0.0992368,0.258832,-2.50033e-05,-1.0684e-05,0.196288,-0.024093991526498604,0.29541615663179766,-2.5002987420141842e-05,0.13318358121335483,-1.0683942926248413e-05,-0.09447174645729883
241,0.2221,183.519,550.2,0.191997,317.477,0.0444167,0.00581026,-0.024491,0.125544,-0.0996453,0.259892,-2.30165e-05,-1.00443e-05,0.197106,-0.024193528862872515,0.29679002577983593,-2.3016235122352846e-05,0.13376505352541312,-1.0044249556195872e-05,-0.09484157920538938
242,0.2231,183.161,549.504,-0.272773,317.675,-0.108195,-0.0404952,-0.024593,0.126053,-0.100055,0.260958,-2.53086e-05,-1.08007e-05,0.197925,-0.024293056046955752,0.2981731410167625,-2.530827974012162e-05,0.13434228683107152,-1.0800641672692457e-05,-0.09521234665349088
243,0.2241,183.776,550.761,0.439237,317.478,0.127209,0.0315543,-0.0246949,0.126568,-0.100463,0.262013,-2.19077e-05,-9.72461e-06,0.19874,-0.02439247551903645,0.29954343638424374,-2.1907460028058878e-05,0.13492662356258278,-9.724562716084684e-06,-0.0955814247190111
244,0.2251,183.683,550.622,0.297453,317.555,0.0897829,0.00650153,-0.024797,0.127078,-0.100872,0.263074,-2.20795e-05,-1.0021e-05,0.199557,-0.024492079962392665,0.30092298369067816,-2.20792562496408e-05,0.13550558376290178,-1.002094978996837e-05,-0.0959512562805912
245,0.2261,183.419,550.079,-0.0414824,317.733,-0.0405408,-0.011691,-0.0248987,0.127586,-0.10128,0.264137,-2.38573e-05,-1.03137e-05,0.200373,-0.024591284073245845,0.30230660008416743,-2.385701541685048e-05,0.136082567140823,-1.0313646814030797e-05,-0.09632003293247604
246,0.2271,183.706,550.693,0.260903,317.653,0.0744256,0.0114544,-0.0250004,0.128097,-0.101688,0.265193,-2.21569e-05,-9.95249e-06,0.201187,-0.024690478095554136,0.303682562234006,-2.215665453775273e-05,0.13666325368540844,-9.952440474081392e-06,-0.09668865915417679
247,0.2281,183.29,549.876,-0.250268,317.879,-0.107476,-0.0340187,-0.025102,0.128604,-0.102096,0.266255,-2.48138e-05,-1.06824e-05,0.202003,-0.024789564509304585,0.3050678085506977,-2.4813492140229876e-05,0.13723968806879538,-1.0682342943324485e-05,-0.09705713500705637
248,0.2291,183.318,549.963,-0.249339,317.908,-0.099936,-0.0399748,-0.0252033,0.129113,-0.102503,0.267312,-2.50557e-05,-1.08947e-05,0.202817,-0.024888348322935183,0.30644799452412164,-2.5055386108530087e-05,0.1378186904136185,-1.0894640652958643e-05,-0.09742455797746208
249,0.2301,183.701,550.749,0.186233,317.802,0.0428309,0.00525864,-0.0253047,0.129623,-0.102909,0.268365,-2.3108e-05,-1.02683e-05,0.203629,-0.024987219631555146,0.3078244088172992,-2.310773301217317e-05,0.13839912594420878,-1.0268247281230991e-05,-0.09779092922852672
250,0.2311,183.351,550.067,-0.263921,317.989,-0.105413,-0.039536,-0.025406,0.130129,-0.103317,0.269424,-2.53344e-05,-1.10032e-05,0.204442,-0.025085983423735914,0.30921012847529084,-2.5334079086780648e-05,0.13897530166209981,-1.100313946500453e-05,-0.09815895544694764
251,0.2321,183.943,551.275,0.423555,317.794,0.122551,0.0299638,-0.0255072,0.13064,-0.103721,0.270473,-2.20437e-05,-9.96332e-06,0.205252,-0.025184639730120084,0.31058421048006957,-2.2043457039377934e-05,0.13955746677176672,-9.963270366286636e-06,-0.09852322564141325
252,0.2331,183.848,551.127,0.282801,317.866,0.0850658,0.00534628,-0.0256086,0.131147,-0.104127,0.271527,-2.22344e-05,-1.02592e-05,0.206064,-0.02528348099631461,0.3119662944682289,-2.223415281754626e-05,0.14013536889322853,-1.0259147374624966e-05,-0.09888915092394401
253,0.2341,183.598,550.612,-0.0343346,318.031,-0.0377668,-0.0111485,-0.0257098,0.131652,-0.104534,0.272583,-2.39083e-05,-1.05286e-05,0.206875,-0.02538211731695572,0.31335246264316985,-2.390801419882571e-05,0.1407112826605066,-1.0528544574506249e-05,-0.09925582841558678
254,0.2351,183.862,551.174,0.243292,317.954,0.0686954,0.00977877,-0.0258108,0.13216,-0.104938,0.273632,-2.2335e-05,-1.02017e-05,0.207684,-0.0254805487522356,0.31473089223640205,-2.2334750575780937e-05,0.14129091120528336,-1.0201647962837512e-05,-0.09961965556287455
255,0.2361,183.478,550.416,-0.227118,318.161,-0.0996334,-0.0318008,-0.0259117,0.132663,-0.105344,0.274687,-2.47933e-05,-1.08739e-05,0.208494,-0.025578872804334685,0.31611866524925714,-2.4792992648681178e-05,0.14186512493626613,-1.0873840879388474e-05,-0.09998513578521051
256,0.2371,184.047,551.583,0.421154,317.963,0.12654,0.0276021,-0.0260126,0.133172,-0.105747,0.275732,-2.15141e-05,-9.96925e-06,0.209301,-0.025677186936037377,0.317494728122069,-2.1513868573408423e-05,0.14244648222773781,-9.96920030715831e-06,-0.1003477687000488
257,0.2381,183.942,551.411,0.275225,318.038,0.0837702,0.00417384,-0.0261136,0.133677,-0.106152,0.276782,-2.17769e-05,-1.02555e-05,0.210109,-0.025775588570790653,0.3188788241098268,-2.1776662885053533e-05,0.14302356340199518,-1.0255447412510499e-05,-0.1007120540809564
258,0.2391,183.702,550.914,-0.0268036,318.195,-0.0346592,-0.0106743,-0.0262143,0.13418,-0.106556,0.277833,-2.33848e-05,-1.05023e-05,0.210917,-0.02587368802963086,0.3202656944266562,-2.3384526577685527e-05,0.14359864887625795,-1.0502244850996156e-05,-0.101075293031899
259,0.2401,183.946,551.436,0.230217,318.122,0.0644476,0.00850127,-0.0263149,0.134686,-0.106959,0.278878,-2.19189e-05,-1.02029e-05,0.211723,-0.025971680207525938,0.3216460932100773,-2.191865978262708e-05,0.14417745621849742,-1.0202847950613325e-05,-0.10143748670188069
260,0.2411,183.586,550.725,-0.209027,318.316,-0.0934692,-0.0300829,-0.0264154,0.135187,-0.107364,0.279929,-2.42245e-05,-1.08302e-05,0.21253,-0.026069565134865025,0.3230358734556307,-2.422420658920732e-05,0.14475083274288902,-1.083014135361271e-05,-0.1018013308363559
261,0.2421,184.116,551.81,0.393455,318.131,0.117419,0.0249038,-0.0265159,0.135694,-0.107765,0.28097,-2.11692e-05,-9.99247e-06,0.213334,-0.026167440225263294,0.32441387092313745,-2.1168975934071632e-05,0.14533136856848605,-9.992420075488617e-06,-0.10216143629672025
262,0.2431,184.014,551.642,0.252857,318.201,0.0761453,0.00233122,-0.0266165,0.136196,-0.108168,0.282015,-2.14398e-05,-1.02746e-05,0.214139,-0.026265402853173914,0.32579860681674266,-2.1439570169090594e-05,0.145906469253702,-1.0274547216471142e-05,-0.10252319233915408
263,0.2441,183.799,551.195,-0.0176033,318.344,-0.031164,-0.0100156,-0.0267168,0.136698,-0.108571,0.283062,-2.28957e-05,-1.04859e-05,0.214944,-0.02636306353550255,0.3271874448879386,-2.2895437895464887e-05,0.14648185871193808,-1.0485845023167073e-05,-0.10288480262327515
264,0.2451,184.014,551.657,0.207685,318.28,0.0568234,0.0063345,-0.026817,0.137201,-0.108972,0.284103,-2.15959e-05,-1.02317e-05,0.215747,-0.026460617069022696,0.32856976639157676,-2.159566681025904e-05,0.14705868414630507,-1.0231647656344656e-05,-0.10324447369855294
265,0.2461,183.696,551.028,-0.18035,318.454,-0.0836564,-0.0273728,-0.0269171,0.137701,-0.109375,0.285149,-2.3648e-05,-1.07848e-05,0.21655,-0.0265580634839796,0.3299601774254204,-2.364772038820906e-05,0.14763235689461385,-1.078474184423861e-05,-0.10360579336484954
266,0.2471,184.163,551.988,0.350109,318.29,0.10292,0.0206978,-0.0270172,0.138205,-0.109775,0.286187,-2.09484e-05,-1.00535e-05,0.217351,-0.026655500145038702,0.33134139281636066,-2.0948180583846288e-05,0.14821090938546955,-1.005344946369835e-05,-0.10396427934552765
267,0.2481,184.068,551.831,0.21927,318.356,0.0645752,-0.000463911,-0.0271173,0.138706,-0.110176,0.287228,-2.12214e-05,-1.03276e-05,0.218153,-0.026752927053176,0.33272804083135066,-2.1221174827723566e-05,0.1487863071761828,-1.0327546670518828e-05,-0.10432351763741876
268,0.2491,183.891,551.46,-0.00461571,318.479,-0.0262321,-0.00910109,-0.0272172,0.139205,-0.110577,0.28827,-2.24525e-05,-1.04855e-05,0.218954,-0.026850149579417337,0.3341174672153273,-2.24522479445044e-05,0.14935969459172593,-1.0485445027352824e-05,-0.10468261190363393
269,0.2501,184.067,551.84,0.175641,318.429,0.0458774,0.00325,-0.027317,0.139707,-0.110977,0.289308,-2.13899e-05,-1.0296e-05,0.219754,-0.026947265088344885,0.335503000113468,-2.1389671237770358e-05,0.14993681800426795,-1.0295946996419225e-05,-0.10504066724303052
270,0.2511,183.808,551.33,-0.140031,318.575,-0.0697962,-0.0235715,-0.0274168,0.140205,-0.111378,0.290349,-2.30821e-05,-1.07435e-05,0.220554,-0.027044370905628168,0.33689398261736425,-2.3081833610327784e-05,0.150509629157773,-1.0743442288796423e-05,-0.10539947398990523
271,0.2521,184.19,552.116,0.290206,318.444,0.0827194,0.0148951,-0.0275164,0.140706,-0.111777,0.291383,-2.088e-05,-1.01611e-05,0.221352,-0.02714127246050846,0.33827704591589014,-2.087978201437135e-05,0.1510861788956308,-1.0161048376144954e-05,-0.10575634839860415
272,0.2531,183.688,551.117,-0.321313,318.686,-0.129247,-0.042535,-0.027616,0.141203,-0.112178,0.292425,-2.3988e-05,-1.10887e-05,0.222152,-0.02723816436447446,0.3396722573766664,-2.398771229017438e-05,0.15165841091441967,-1.10886385206177e-05,-0.10611486821486904
273,0.2541,183.737,551.237,-0.282596,318.692,-0.111662,-0.042667,-0.0277153,0.141701,-0.112576,0.293461,-2.4134e-05,-1.12326e-05,0.222949,-0.02733475481895764,0.3410608770160819,-2.4133708777407392e-05,0.1522320796347103,-1.1232536914596025e-05,-0.10647056370922081
274,0.2551,184.136,552.052,0.18035,318.559,0.0427719,0.00404132,-0.0278146,0.142201,-0.112974,0.294492,-2.20375e-05,-1.05816e-05,0.223745,-0.027431335682484903,0.34244422377300165,-2.203725717608851e-05,0.15280833972754548,-1.0581544015120237e-05,-0.10682611766493388
275,0.2561,183.775,551.334,-0.272578,318.738,-0.109268,-0.0401061,-0.0279139,0.142697,-0.113374,0.29553,-2.43216e-05,-1.13178e-05,0.224543,-0.027527906956008485,0.3438384043318088,-2.4321304232244323e-05,0.15338027449214664,-1.1317735953975117e-05,-0.10718331577348361
276,0.2571,184.364,552.537,0.420447,318.524,0.123683,0.0292223,-0.0280132,0.143198,-0.11377,0.296558,-2.09653e-05,-1.02704e-05,0.225337,-0.027624468640480737,0.34522058052830507,-2.0965080229640165e-05,0.15395826278364444,-1.0270347259644375e-05,-0.1075368011857063
277,0.2581,184.257,552.354,0.274474,318.586,0.0832127,0.00486269,-0.0281126,0.143695,-0.114168,0.297592,-2.12068e-05,-1.0568e-05,0.226132,-0.027721117964746966,0.3466122579818214,-2.1206575137378003e-05,0.15453192258289983,-1.0567944158879072e-05,-0.1078919308633407
278,0.2591,184.012,551.841,-0.0283699,318.733,-0.0350588,-0.0107543,-0.0282117,0.14419,-0.114566,0.298626,-2.28146e-05,-1.0829e-05,0.226927,-0.027817466027831195,0.3480053751740413,-2.2814339749044343e-05,0.1551035573525119,-1.0828941366614053e-05,-0.10824691922748675
279,0.2601,184.248,552.342,0.225802,318.652,0.0635021,0.00815455,-0.0283107,0.144687,-0.114963,0.299655,-2.13597e-05,-1.05308e-05,0.227721,-0.027913707334671245,0.3493931866116242,-2.1359471883197756e-05,0.15567778650464037,-1.0530744551373594e-05,-0.10860087493569648
280,0.2611,183.892,551.631,-0.203611,318.834,-0.0916571,-0.0295866,-0.0284097,0.145181,-0.115361,0.300689,-2.36232e-05,-1.11507e-05,0.228515,-0.02800993911409333,0.35078918077118315,-2.3622920974353256e-05,0.15624883236788878,-1.1150637831192078e-05,-0.10895558119624393
281,0.2621,184.398,552.668,0.377856,318.646,0.113164,0.0233801,-0.0285086,0.145679,-0.115756,0.301713,-2.06595e-05,-1.03374e-05,0.229306,-0.028106064177652268,0.3521730973366459,-2.0659286594004733e-05,0.1568247876873794,-1.0337346569300188e-05,-0.10930747423822029
282,0.2631,184.29,552.48,0.23616,318.708,0.070919,0.00117172,-0.0286075,0.146174,-0.116153,0.302743,-2.09645e-05,-1.06213e-05,0.230098,-0.028202179734912458,0.35356655313344487,-2.0964280246449363e-05,0.15739755770616903,-1.0621243594188812e-05,-0.10966100898965625
283,0.2641,184.091,552.061,-0.00936499,318.833,-0.0277118,-0.00943023,-0.0287063,0.146668,-0.116549,0.303773,-2.22997e-05,-1.08096e-05,0.23089,-0.0282981886166378,0.35496144492912696,-2.229945136356104e-05,0.15796945334626877,-1.0809541576506376e-05,-0.11001351342961063
284,0.2651,184.276,552.456,0.185676,318.772,0.0497816,0.00427321,-0.0288049,0.147163,-0.116944,0.304798,-2.11566e-05,-1.05959e-05,0.231681,-0.028393993691972375,0.3563509924316166,-2.1156376200703875e-05,0.15854279011481842,-1.0595843863647758e-05,-0.11036498867087585
285,0.2661,183.996,551.897,-0.152321,318.92,-0.0739617,-0.0247407,-0.0289035,0.147655,-0.11734,0.305827,-2.2964e-05,-1.10807e-05,0.232472,-0.028489789321392123,0.3577473959292141,-2.296373632937332e-05,0.15911293341130506,-1.1080638609217708e-05,-0.11071721439006699
286,0.2671,184.395,552.718,0.303257,318.774,0.0878375,0.0161635,-0.029002,0.148151,-0.117734,0.306848,-2.06279e-05,-1.04558e-05,0.23326,-0.0285854783643813,0.35913436394714493,-2.06276872463107e-05,0.15968799603001682,-1.0455745338311395e-05,-0.11106752279231036
287,0.2681,183.865,551.656,-0.338283,319.021,-0.135277,-0.0441547,-0.0291003,0.148641,-0.11813,0.307878,-2.38958e-05,-1.1435e-05,0.23405,-0.02868096371867601,0.3605349935424247,-2.3895514497662695e-05,0.16025638239135764,-1.1434934620635495e-05,-0.11141947036306632
288,0.2691,183.92,551.784,-0.288161,319.017,-0.114025,-0.0429006,-0.0291985,0.149134,-0.118525,0.308902,-2.39985e-05,-1.15599e-05,0.234838,-0.028776342564860835,0.36192889493152247,-2.3998212038356392e-05,0.16082852981062712,-1.1559833184571211e-05,-0.11177039036101055
289,0.2701,184.315,552.592,0.174548,318.878,0.0415197,0.00335246,-0.0292967,0.149628,-0.118918,0.309921,-2.18907e-05,-1.09117e-05,0.235625,-0.02887171204530281,0.36331740780261734,-2.1890460400353362e-05,0.16140212076965565,-1.0911640467625716e-05,-0.11211939601349608
290,0.2711,183.959,551.88,-0.267997,319.049,-0.108115,-0.0395294,-0.0293948,0.150118,-0.119312,0.310947,-2.41392e-05,-1.16334e-05,0.236413,-0.028966975057624023,0.36471688927425117,-2.413890865182733e-05,0.16197134725793316,-1.1633332332228186e-05,-0.11246915206499997
291,0.2721,184.531,553.047,0.407359,318.834,0.120296,0.0277989,-0.0294929,0.150613,-0.119704,0.311963,-2.08516e-05,-1.06103e-05,0.237198,-0.029062228725102113,0.3661041462409591,-2.085138260687902e-05,0.16254666545433216,-1.0610243710962308e-05,-0.11281699597552985
292,0.2731,184.421,552.853,0.261103,318.892,0.0790772,0.00387511,-0.0295911,0.151104,-0.120098,0.312984,-2.11199e-05,-1.09077e-05,0.237984,-0.029157570132901545,0.3674996508581505,-2.1119676976488755e-05,0.16311761602396468,-1.0907640511259586e-05,-0.11316647722678796
293,0.2741,184.19,552.365,-0.0218448,319.027,-0.0323374,-0.0103011,-0.029689,0.151593,-0.120491,0.314006,-2.26324e-05,-1.11499e-05,0.23877,-0.02925261095446141,0.368897949910435,-2.2632143889200762e-05,0.1636865196237942,-1.1149837840118693e-05,-0.11351493432493309
294,0.2751,184.402,552.816,0.208523,318.949,0.0579548,0.00652945,-0.0297869,0.152085,-0.120883,0.315023,-2.13009e-05,-1.08832e-05,0.239554,-0.029347642471980295,0.370290827283585,-2.1300673137436554e-05,0.16425919425785707,-1.0883140778239486e-05,-0.11386236836915609
295,0.2761,184.077,552.162,-0.181524,319.112,-0.0840343,-0.0275109,-0.0298847,0.152573,-0.121276,0.316044,-2.3372e-05,-1.14494e-05,0.240339,-0.02944256763063058,0.3716906086850478,-2.337172687694178e-05,0.1648274913978791,-1.1449334455848614e-05,-0.1142105520358151
296,0.2771,184.53,553.092,0.341285,318.939,0.101344,0.019842,-0.0299824,0.153065,-0.121667,0.317057,-2.06933e-05,-1.07191e-05,0.241121,-0.029537386459797865,0.37308083530254366,-2.0693085895140406e-05,0.16540072752817148,-1.0719042550677571e-05,-0.1145568280086049
297,0.2781,184.425,552.907,0.206412,318.995,0.0608608,-0.00116199,-0.0300803,0.153554,-0.122059,0.318074,-2.10119e-05,-1.0997e-05,0.241904,-0.02963239009915941,0.3744779688340272,-2.1011679251614623e-05,0.16597074784254096,-1.0996939533214345e-05,-0.11490385371054412
298,0.2791,184.259,552.551,0.00207431,319.1,-0.0230927,-0.00865239,-0.0301778,0.154042,-0.122451,0.319092,-2.21467e-05,-1.11412e-05,0.242687,-0.029726996328996114,0.37587789985028897,-2.214645476361632e-05,0.16653988042454348,-1.1141137937098478e-05,-0.11525074340506747
299,0.2801,184.405,552.866,0.15568,319.049,0.0396956,0.00143342,-0.0302753,0.154531,-0.122841,0.320105,-2.1223e-05,-1.09854e-05,0.243468,-0.02982159333517509,0.37727237034289485,-2.1222774793772103e-05,0.1671104579208993,-1.098533966070736e-05,-0.11559572833870468
300,0.2811,184.179,552.413,-0.115413,319.169,-0.0610748,-0.0212904,-0.0303727,0.155018,-0.123232,0.321122,-2.26966e-05,-1.13747e-05,0.244249,-0.02991608411020874,0.3786737688338786,-2.2696342434125327e-05,0.16767897913758678,-1.1374635308314396e-05,-0.11594146281342976
301,0.2821,184.496,553.067,0.246294,319.051,0.0688336,0.0106784,-0.0304701,0.155508,-0.123622,0.322132,-2.08265e-05,-1.08871e-05,0.245029,-0.030010565682289214,0.3800669327697579,-2.0826283129937728e-05,0.16825128204012452,-1.0887040735707565e-05,-0.11628617841902023
302,0.2831,184.077,552.224,-0.260299,319.248,-0.108869,-0.0365322,-0.0305673,0.155993,-0.124013,0.323149,-2.34319e-05,-1.16656e-05,0.24581,-0.03010484407330083,0.38147117477641257,-2.3431625475134332e-05,0.1688180213350836,-1.1665531957194553e-05,-0.1166316429805353
303,0.2841,184.117,552.32,-0.225713,319.245,-0.0923952,-0.0373605,-0.0306643,0.156479,-0.124403,0.324161,-2.35213e-05,-1.17978e-05,0.246589,-0.030198919340701513,0.3828699312566879,-2.3521023376438244e-05,0.16938620495088763,-1.1797730406271079e-05,-0.11697608946834193
304,0.2851,184.433,552.965,0.146126,319.133,0.0315733,0.00116338,-0.0307614,0.156968,-0.124791,0.325169,-2.18443e-05,-1.12597e-05,0.247366,-0.030293082453940356,0.3842645669256852,-2.184406141503281e-05,0.16995817464030005,-1.1259636609861623e-05,-0.11731863628724792
305,0.2861,184.15,552.398,-0.206832,319.268,-0.087132,-0.0335055,-0.0308584,0.157452,-0.125181,0.326182,-2.36316e-05,-1.18507e-05,0.248145,-0.030387139463103674,0.385667537416561,-2.3631320775985287e-05,0.17052457145379796,-1.18506297807075e-05,-0.11766281489990404
306,0.2871,184.599,553.317,0.32555,319.099,0.0927911,0.0199718,-0.0309553,0.157941,-0.125569,0.327187,-2.10474e-05,-1.10388e-05,0.248921,-0.03048109039729341,0.3870608333055767,-2.1047178505040343e-05,0.1710970979405564,-1.103873907271069e-05,-0.1180050953210271
307,0.2881,184.502,553.145,0.197606,319.147,0.0571104,-0.00134571,-0.0310524,0.158426,-0.125958,0.328196,-2.13196e-05,-1.13213e-05,0.249698,-0.030575226113052856,0.388461083994057,-2.1319372738970443e-05,0.17166521779098498,-1.1321235914296679e-05,-0.11834812461542388
308,0.2891,184.342,552.801,0.00179178,319.246,-0.0231558,-0.00866388,-0.0311492,0.15891,-0.126347,0.329206,-2.24081e-05,-1.14637e-05,0.250475,-0.030669061889440297,0.3898641381119492,-2.2407848940364516e-05,0.17223244101334267,-1.146363429205266e-05,-0.11869102049737545
309,0.2901,184.482,553.103,0.149431,319.195,0.0376773,0.000869333,-0.0312459,0.159395,-0.126734,0.330212,-2.15159e-05,-1.13161e-05,0.25125,-0.030762791659248112,0.3912630449670593,-2.151566853469955e-05,0.1728011116387136,-1.1316035973152339e-05,-0.11903202108457345
310,0.2911,184.265,552.666,-0.109092,319.307,-0.0587947,-0.0207262,-0.0313426,0.159878,-0.127122,0.33122,-2.29275e-05,-1.16897e-05,0.252025,-0.03085651236582554,0.39266614516008014,-2.2927237166903147e-05,0.17336771139846197,-1.1689631675748657e-05,-0.11937377035674646
311,0.2921,184.566,553.286,0.234226,319.193,0.0650114,0.00951861,-0.0314392,0.160364,-0.127509,0.332223,-2.11469e-05,-1.12271e-05,0.252799,-0.030950127105066283,0.39406369005527875,-2.1146676405847664e-05,0.17393810670103305,-1.1227036976313443e-05,-0.11971450677086959
312,0.2931,184.169,552.486,-0.244021,319.378,-0.103368,-0.034949,-0.0315356,0.160845,-0.127897,0.333231,-2.36159e-05,-1.19657e-05,0.253573,-0.031043539010287113,0.39546961472184394,-2.361562114683302e-05,0.17450290675387947,-1.1965628411325646e-05,-0.1200559912899618
313,0.2941,184.724,553.62,0.408157,319.158,0.123684,0.0270219,-0.0316321,0.161332,-0.128282,0.33423,-2.03355e-05,-1.10033e-05,0.254345,-0.031137038797335426,0.39686438543892577,-2.0335293235085317e-05,0.17507502896992078,-1.1003239463902581e-05,-0.12039470452683321
314,0.2951,184.599,553.393,0.250623,319.217,0.0765766,0.00296597,-0.0317287,0.161814,-0.128669,0.335234,-2.06919e-05,-1.13095e-05,0.255118,-0.03123062643903174,0.39826754154840627,-2.0691685924112413e-05,0.1756415516548835,-1.1309436047879373e-05,-0.1207350459158748
315,0.2961,184.382,552.929,-0.0116505,319.339,-0.0281366,-0.00952896,-0.0318249,0.162295,-0.129056,0.336239,-2.21068e-05,-1.15298e-05,0.25589,-0.03132381757020297,0.39967350680686664,-2.2106555646494996e-05,0.1762071712618396,-1.1529733532134046e-05,-0.12107525561828192
316,0.2971,184.565,553.319,0.188022,319.267,0.0514744,0.0045863,-0.0319212,0.162779,-0.129441,0.337238,-2.09321e-05,-1.13038e-05,0.256661,-0.031417096595113825,0.4010724793105842,-2.0931880925112445e-05,0.1767765933217531,-1.1303736112244778e-05,-0.12141357651391749
317,0.2981,184.277,552.735,-0.154616,319.409,-0.0746768,-0.0249796,-0.0320173,0.163259,-0.129828,0.338242,-2.27715e-05,-1.1805e-05,0.257433,-0.03151017293974101,0.4024798624679351,-2.277124073135628e-05,0.17734158167290404,-1.1804930321268614e-05,-0.12175352367578796
318,0.2991,184.668,553.538,0.297173,319.254,0.0870949,0.0155634,-0.0321134,0.163742,-0.130212,0.339239,-2.04381e-05,-1.11754e-05,0.258202,-0.031603240340161376,0.40387883216132536,-2.0437891143476605e-05,0.1779103750093849,-1.1175337555457965e-05,-0.12209070557962765
319,0.3001,184.147,552.485,-0.328045,319.49,-0.132354,-0.0430937,-0.0322093,0.16422,-0.130598,0.340243,-2.3649e-05,-1.21433e-05,0.258973,-0.031696105136474584,0.40528903431183605,-2.364872036464405e-05,0.17847355075691995,-1.2143226270411311e-05,-0.12242951317320161
320,0.3011,184.207,552.618,-0.267118,319.475,-0.107413,-0.0406494,-0.0323051,0.164701,-0.130983,0.341241,-2.36744e-05,-1.22413e-05,0.259742,-0.03178886420637206,0.4066922128376993,-2.3674119763561485e-05,0.17904053288310395,-1.224122507559322e-05,-0.12276731278003306
321,0.3021,184.561,553.342,0.152103,319.341,0.0348024,0.00124516,-0.0324009,0.165183,-0.131366,0.342236,-2.17538e-05,-1.16486e-05,0.260509,-0.0318816143903764,0.4080925681507088,-2.1753563387849617e-05,0.17960896740166765,-1.1648532155295044e-05,-0.12310322856725886
322,0.3031,184.249,552.711,-0.232274,319.485,-0.0964149,-0.0358488,-0.0324966,0.165661,-0.131751,0.343236,-2.37289e-05,-1.2287e-05,0.261278,-0.0319742588867693,0.40950136499988443,-2.3728618471885454e-05,0.18017295527044763,-1.2286924515159114e-05,-0.1234407688435879
323,0.3041,184.738,553.711,0.349444,319.293,0.102236,0.0220061,-0.0325923,0.166143,-0.132134,0.344228,-2.08761e-05,-1.13986e-05,0.262044,-0.032066894517508215,0.4109002841031206,-2.0875882095761078e-05,0.18074193574816744,-1.1398535036177826e-05,-0.12377642674652933
324,0.3051,184.631,553.517,0.212453,319.342,0.0628712,5.63132e-05,-0.0326881,0.166622,-0.132517,0.345224,-2.118e-05,-1.16869e-05,0.26281,-0.03215961806748446,0.41230624083631273,-2.1179775705371107e-05,0.18130764661232646,-1.1686831708490608e-05,-0.12411195611710935
325,0.3061,184.453,553.134,-0.00262462,319.444,-0.0244462,-0.00902608,-0.0327836,0.1671,-0.132901,0.346221,-2.23628e-05,-1.18578e-05,0.263577,-0.0322520424106264,0.41371501231431407,-2.2362549954468847e-05,0.1818724466438606,-1.185772969658494e-05,-0.12444823255675186
326,0.3071,184.602,553.452,0.157915,319.385,0.0410387,0.00173201,-0.0328791,0.167579,-0.133284,0.347213,-2.14008e-05,-1.16876e-05,0.264342,-0.03234445792766505,0.41511811342962135,-2.1400571004526192e-05,0.18243869915245203,-1.1687531700221854e-05,-0.12478350467497357
327,0.3081,184.368,552.977,-0.119533,319.502,-0.0623054,-0.0217463,-0.0329745,0.168056,-0.133667,0.348209,-2.29108e-05,-1.20944e-05,0.265107,-0.03243676786312477,0.41652827321359465,-2.291053754965855e-05,0.18300285695288632,-1.209432686299916e-05,-0.12511864840856124
328,0.3091,184.684,553.627,0.244602,319.376,0.0691716,0.0105254,-0.0330699,0.168535,-0.134048,0.349198,-2.10192e-05,-1.15949e-05,0.265871,-0.032529068992636745,0.41792991267226753,-2.1018979098119672e-05,0.18356965105771783,-1.1594832779460162e-05,-0.12545191471225525
329,0.3101,184.265,552.779,-0.257582,319.567,-0.108178,-0.0362617,-0.0331651,0.16901,-0.134431,0.350194,-2.36174e-05,-1.2377e-05,0.266636,-0.032621167841293985,0.41934287440342444,-2.3617121111429995e-05,0.1841319801845649,-1.2376923405277296e-05,-0.12578680249381657
330,0.3111,184.839,553.955,0.420541,319.334,0.128864,0.0281837,-0.0332603,0.16949,-0.134812,0.351179,-2.01929e-05,-1.13663e-05,0.267397,-0.03271325792255808,0.4207416159018087,-2.0192696124743392e-05,0.18470049996888616,-1.1366235403875713e-05,-0.12611981427929297
331,0.3121,184.706,553.707,0.254892,319.393,0.0785825,0.00351257,-0.0333556,0.169966,-0.135194,0.35217,-2.05875e-05,-1.16816e-05,0.26816,-0.032805435956724915,0.422150268715352,-2.0587288078854904e-05,0.18526455164051914,-1.1681531770335596e-05,-0.12645357275831015
332,0.3131,184.485,553.232,-0.0109298,319.514,-0.0276022,-0.00946385,-0.0334507,0.170441,-0.135575,0.353162,-2.20203e-05,-1.19116e-05,0.268923,-0.03289741178624539,0.42356174175679806,-2.2020057555027783e-05,0.18582768603637922,-1.191152905721804e-05,-0.12678633055270416
333,0.3141,184.663,553.612,0.185777,319.44,0.0511321,0.00441222,-0.0335457,0.170918,-0.135956,0.354149,-2.08582e-05,-1.16865e-05,0.269684,-0.03298928216821351,0.42496749081895446,-2.0857982469313363e-05,0.18639346076916485,-1.1686431713120449e-05,-0.12711896159052716
334,0.3151,184.378,553.032,-0.151333,319.577,-0.0734886,-0.024685,-0.0336406,0.171392,-0.136337,0.35514,-2.26743e-05,-1.21846e-05,0.270445,-0.03308104713101934,0.42638033355030225,-2.2674042939985206e-05,0.18695594456769826,-1.2184525768010879e-05,-0.12745146592006418
335,0.3161,184.756,553.81,0.28803,319.423,0.0845869,0.0146801,-0.0337354,0.171869,-0.136716,0.356123,-2.03953e-05,-1.15681e-05,0.271204,-0.03317270670301897,0.4277831547918616,-2.039509201723355e-05,0.18752225760817942,-1.1568033089770502e-05,-0.12778209915552463
336,0.3171,184.253,552.788,-0.314819,319.65,-0.128074,-0.0417816,-0.0338301,0.172341,-0.137098,0.357115,-2.35063e-05,-1.25089e-05,0.271965,-0.03326426091253398,0.4292002184287722,-2.350602372913624e-05,0.18808290041506437,-1.2508821764067868e-05,-0.12811522276298726
337,0.3181,184.313,552.921,-0.251374,319.63,-0.102199,-0.0390881,-0.0339246,0.172816,-0.137477,0.3581,-2.3499e-05,-1.25965e-05,0.272724,-0.03335561312341784,0.43060867419451254,-2.3498723900616802e-05,0.18864737384458796,-1.2596420664423569e-05,-0.1284456044822696
338,0.3191,184.642,553.594,0.139859,319.503,0.0309638,0.000151893,-0.0340192,0.173291,-0.137856,0.359082,-2.17036e-05,-1.20388e-05,0.273482,-0.03344705335722509,0.4320142219235561,-2.1703364478597997e-05,0.18921211546268002,-1.2038727533969507e-05,-0.12877586101060545
339,0.3201,184.357,553.014,-0.211342,319.634,-0.0893825,-0.0337274,-0.0341137,0.173763,-0.138236,0.360069,-2.35174e-05,-1.26294e-05,0.274241,-0.03353838829503908,0.43342831770206414,-2.3517123468153045e-05,0.18977355607073854,-1.2629320249479825e-05,-0.12910686328900545
340,0.3211,184.8,553.922,0.317692,319.457,0.0920587,0.0188769,-0.0342082,0.174239,-0.138613,0.361048,-2.09149e-05,-1.18172e-05,0.274997,-0.03362971460210917,0.43483233117755193,-2.0914681284955883e-05,0.1903400230918837,-1.1817130177171897e-05,-0.1294351281197369
341,0.3221,184.237,552.775,-0.366922,319.705,-0.14348,-0.0482384,-0.0343025,0.174709,-0.138993,0.362036,-2.43676e-05,-1.29283e-05,0.275755,-0.033720839023438254,0.4362506460529305,-2.4367303112393657e-05,0.19089961439639214,-1.2928216429841655e-05,-0.1297658799242286
342,0.3231,184.313,552.94,-0.279828,319.68,-0.111927,-0.0417237,-0.0343966,0.175182,-0.139371,0.363018,-2.43164e-05,-1.2973e-05,0.276511,-0.03381176161451105,0.43766173691957433,-2.4316104358712565e-05,0.19146304315439844,-1.2972915851006128e-05,-0.13009476625818406
343,0.3241,184.668,553.668,0.143161,319.54,0.0329938,-3.26904e-05,-0.0344908,0.175656,-0.139748,0.363996,-2.23643e-05,-1.23783e-05,0.277266,-0.03390277225989835,0.4390684578727022,-2.23640499209532e-05,0.19202793050457911,-1.2378223389175602e-05,-0.13042265871969216
344,0.3251,184.364,553.049,-0.228171,319.678,-0.0955212,-0.0353041,-0.0345849,0.176126,-0.140127,0.36498,-2.43012e-05,-1.29965e-05,0.278022,-0.03399367773185913,0.4404851981571549,-2.43009047282694e-05,0.19258831531203024,-1.2996415545862838e-05,-0.13075216608644713
345,0.3261,184.836,554.017,0.334995,319.487,0.0986014,0.0203443,-0.0346791,0.1766,-0.140503,0.365955,-2.15163e-05,-1.2133e-05,0.278775,-0.03408467124155523,0.4418903561285543,-2.1516068526072907e-05,0.19315373616764475,-1.2132926395458377e-05,-0.13107894183430813
346,0.3271,184.729,553.817,0.199064,319.534,0.0586998,-0.000900819,-0.0347733,0.177071,-0.14088,0.366934,-2.18443e-05,-1.24178e-05,0.279529,-0.03417565618006635,0.44330265799616786,-2.184406141503281e-05,0.19371584394336927,-1.2417722899393802e-05,-0.13140646333155526
347,0.3281,184.564,553.461,0.00249198,319.626,-0.0220166,-0.00876673,-0.0348672,0.177541,-0.141258,0.367915,-2.29364e-05,-1.25732e-05,0.280283,-0.03426634282814622,0.4447192326199103,-2.293613696280339e-05,0.19427702225659593,-1.257312095770402e-05,-0.13173472964217448
348,0.3291,184.693,553.737,0.142237,319.571,0.0359469,0.000271825,-0.0349612,0.178012,-0.141634,0.368891,-2.20862e-05,-1.24295e-05,0.281035,-0.03435711752544279,0.44612996691729845,-2.208595610164732e-05,0.1948396592246835,-1.242942275403447e-05,-0.13206113601558533
349,0.3301,184.486,553.315,-0.101127,319.673,-0.0556627,-0.0200923,-0.035055,0.178481,-0.142011,0.36987,-2.34258e-05,-1.27907e-05,0.281788,-0.03444769057987629,0.4475464213962457,-2.342552561807043e-05,0.195400170454469,-1.2790618199365333e-05,-0.1323882872954164
350,0.3311,184.759,553.877,0.213668,319.562,0.0590559,0.00755631,-0.0351488,0.178952,-0.142386,0.370843,-2.17786e-05,-1.23601e-05,0.282539,-0.0345382551389557,0.4489555695036449,-2.177836284800172e-05,0.19596333654995735,-1.2360023614266247e-05,-0.13271358069135686
351,0.3321,184.4,553.145,-0.216293,319.725,-0.0940352,-0.0322757,-0.0352424,0.17942,-0.142763,0.371822,-2.40234e-05,-1.30382e-05,0.283291,-0.03462861812922069,0.45037479160205285,-2.4023111440452105e-05,0.1965231783842336,-1.3038115003083384e-05,-0.13304048604590502
352,0.3331,184.885,554.141,0.357565,319.525,0.108073,0.0220235,-0.0353361,0.179892,-0.143137,0.372792,-2.11078e-05,-1.21801e-05,0.28404,-0.03471906919000367,0.4517823376994008,-2.1107577231949115e-05,0.1970880706285134,-1.2180025822927654e-05,-0.13336466827826754
353,0.3341,184.763,553.912,0.20733,319.577,0.062185,-0.000307531,-0.0354298,0.18036,-0.143513,0.373766,-2.15025e-05,-1.24797e-05,0.284791,-0.03480951177591918,0.45319706255548176,-2.150226882291495e-05,0.19764843896152962,-1.2479622128913626e-05,-0.13369046190995393
354,0.3351,184.593,553.543,0.00486618,319.671,-0.0210853,-0.00849114,-0.0355232,0.180827,-0.143888,0.374741,-2.26245e-05,-1.26402e-05,0.285541,-0.03489965635770187,0.4546146206387418,-2.2624244067959154e-05,0.19820787139983165,-1.2640120113038833e-05,-0.13401526708196165
355,0.3361,184.72,553.815,0.14282,319.616,0.0363796,0.00032958,-0.0356167,0.181296,-0.144262,0.375712,-2.17794e-05,-1.24983e-05,0.286289,-0.034989889021389664,0.45602773739253744,-2.177916283063741e-05,0.19876996269162306,-1.2498221896528605e-05,-0.1343390848143825
356,0.3371,184.513,553.391,-0.100611,319.717,-0.0554753,-0.0200189,-0.03571,0.181762,-0.144637,0.376686,-2.31215e-05,-1.28605e-05,0.287038,-0.035079920264721176,0.457446599282328,-2.3121232700207273e-05,0.19932871967450283,-1.2860417304083605e-05,-0.1346636467984016
357,0.3381,184.783,553.949,0.212007,319.606,0.0587254,0.00738384,-0.0358033,0.182231,-0.14501,0.377654,-2.14817e-05,-1.24319e-05,0.287785,-0.0351699431085295,0.45885809064203453,-2.1481469269946096e-05,0.19989133676742576,-1.2431822724257025e-05,-0.1349863570689388
358,0.3391,184.427,553.222,-0.213918,319.767,-0.0932698,-0.0320277,-0.0358964,0.182696,-0.145385,0.378628,-2.37103e-05,-1.31058e-05,0.288533,-0.035259764605570454,0.4602797106388703,-2.3710018913103426e-05,0.2004494159823842,-1.310571411938799e-05,-0.13531067637136818
359,0.3401,184.905,554.205,0.352354,319.568,0.106603,0.0214962,-0.0359896,0.183165,-0.145757,0.379593,-2.08273e-05,-1.22568e-05,0.289278,-0.03534967420565682,0.46168956070288547,-2.0827083113239553e-05,0.20101255880514923,-1.2256724885695292e-05,-0.1356322809775925
360,0.3411,184.783,553.975,0.202533,319.62,0.0606409,-0.000643869,-0.0360828,0.183631,-0.146131,0.380563,-2.12293e-05,-1.2556e-05,0.290025,-0.035439575426558845,0.46310808745101584,-2.1229074659956382e-05,0.20157236108135246,-1.2555921173773577e-05,-0.13595549405989305
361,0.3421,184.619,553.617,0.00667814,319.711,-0.0202415,-0.00838373,-0.0361758,0.184096,-0.146504,0.381533,-2.23185e-05,-1.27105e-05,0.290771,-0.035529275374932,0.4645279908376536,-2.231825094411999e-05,0.20213122215438495,-1.27104192219063e-05,-0.13627772256125725
362,0.3431,184.739,553.875,0.137546,319.658,0.0346485,-0.000156693,-0.0362688,0.184563,-0.146877,0.382499,-2.15117e-05,-1.25781e-05,0.291515,-0.03561896698159772,0.46594340841342463,-2.1511468625057262e-05,0.202692748541337,-1.2578020896047981e-05,-0.13659983089380334
363,0.3441,184.541,553.47,-0.0945118,319.754,-0.0532483,-0.0194631,-0.0363616,0.185027,-0.147249,0.383467,-2.27964e-05,-1.29249e-05,0.29226,-0.035708457389042714,0.4673631286665121,-2.2796140164094147e-05,0.20325092746415585,-1.2924816473858236e-05,-0.13692095602373344
364,0.3451,184.797,553.999,0.202062,319.648,0.0554418,0.00643657,-0.0364544,0.185493,-0.147621,0.384431,-2.12368e-05,-1.25193e-05,0.293003,-0.035797939492163255,0.4687783487490298,-2.123657450070482e-05,0.20381177306322962,-1.251922163392205e-05,-0.13724196171733183
365,0.3461,184.46,553.31,-0.200878,319.801,-0.0887441,-0.0307671,-0.0365471,0.185956,-0.147993,0.385399,-2.33517e-05,-1.31598e-05,0.293748,-0.03588731688046631,0.47020081455299434,-2.335142735121476e-05,0.20436926696403668,-1.315971341020461e-05,-0.1375628480190204
366,0.3471,184.911,554.237,0.332908,319.613,0.100123,0.0196065,-0.0366398,0.186422,-0.148364,0.386359,-2.06288e-05,-1.23591e-05,0.294489,-0.035976685983869605,0.4716128850203425,-2.062858722773342e-05,0.20493063383076326,-1.2359023626618004e-05,-0.13788275285638862
367,0.3481,184.793,554.015,0.188452,319.662,0.0557506,-0.00176485,-0.0367325,0.186886,-0.148736,0.387324,-2.10267e-05,-1.26526e-05,0.295232,-0.03606604680314096,0.4730336768762011,-2.1026478940533444e-05,0.20548985137329745,-1.26525199561911e-05,-0.13820340082810556
368,0.3491,184.644,553.687,0.010845,319.745,-0.0184587,-0.00814036,-0.036825,0.187348,-0.149107,0.388288,-2.20257e-05,-1.27872e-05,0.295974,-0.036155206570108844,0.47445436600284885,-2.2025457436014584e-05,0.20604691635673467,-1.2787118244150797e-05,-0.13852306806445935
369,0.3501,184.75,553.916,0.125598,319.698,0.0305209,-0.0012819,-0.0369175,0.187812,-0.149477,0.38925,-2.1307e-05,-1.26779e-05,0.296715,-0.036244358090179674,0.47587347358424803,-2.1306773007490065e-05,0.20660665197454509,-1.2677819635764642e-05,-0.13884175556845169
370,0.3511,184.573,553.553,-0.0808447,319.785,-0.048318,-0.0182119,-0.0370098,0.188274,-0.149848,0.390213,-2.24608e-05,-1.29872e-05,0.297456,-0.03633330863079742,0.4772954242986893,-2.2460547758118565e-05,0.2071642330390655,-1.2987115666662774e-05,-0.1391611860191233
371,0.3521,184.801,554.023,0.181746,319.69,0.0484864,0.004502,-0.0371021,0.188738,-0.150218,0.391172,-2.10742e-05,-1.26325e-05,0.298195,-0.036422250961659075,0.47871283014806654,-2.1073977940599953e-05,0.207724487212112,-1.2632420210323403e-05,-0.13947963746314607
372,0.3531,184.502,553.413,-0.17443,319.826,-0.0795035,-0.0282181,-0.0371943,0.189198,-0.150588,0.392135,-2.29538e-05,-1.32017e-05,0.298935,-0.036511088734636155,0.4801375164798669,-2.295353656356358e-05,0.20828016827307505,-1.3201612857893785e-05,-0.13979797110192982
373,0.3541,184.9,554.231,0.29584,319.659,0.0874377,0.0160188,-0.0372865,0.189662,-0.150957,0.39309,-2.05496e-05,-1.24986e-05,0.299673,-0.03659991831714815,0.48155172298422855,-2.0549388858426276e-05,0.20884094036021716,-1.2498521892778669e-05,-0.14011532709481156
374,0.3551,184.383,553.173,-0.325591,319.887,-0.13131,-0.0433572,-0.0373785,0.190121,-0.151328,0.394054,-2.37506e-05,-1.35043e-05,0.300413,-0.036688547047678766,0.4829806274664894,-2.375031795676108e-05,0.20939592571123677,-1.3504208817405328e-05,-0.14043428513808387
375,0.3561,184.455,553.329,-0.243373,319.859,-0.0998759,-0.0380918,-0.0374704,0.190582,-0.151697,0.395012,-2.36554e-05,-1.35494e-05,0.301151,-0.036777071302453335,0.48440200363808117,-2.3655120213184055e-05,0.20995358576375556,-1.3549308207294608e-05,-0.14075140637440153
376,0.3571,184.759,553.954,0.121529,319.735,0.0258404,-0.00177851,-0.0375624,0.191044,-0.152065,0.395967,-2.1966e-05,-1.30258e-05,0.301887,-0.036865683735659016,0.48582028467295735,-2.196575874924278e-05,0.21051271346893308,-1.3025715164594054e-05,-0.14106755168255125
377,0.3581,184.506,553.435,-0.187699,319.849,-0.0816315,-0.0312775,-0.0376542,0.191503,-0.152434,0.396926,-2.35907e-05,-1.35563e-05,0.302624,-0.03695409540773431,0.48724586978476303,-2.3590421741603862e-05,0.21106846633994203,-1.3556208113829626e-05,-0.1413844392866218
378,0.3591,184.894,554.232,0.276368,319.689,0.0794474,0.0146408,-0.0377461,0.191966,-0.152801,0.397878,-2.12843e-05,-1.28361e-05,0.30336,-0.037042595259735855,0.48866240201515554,-2.1284073490890343e-05,0.2116293208676614,-1.2836017617590123e-05,-0.14169949338144106
379,0.3601,184.409,553.24,-0.310253,319.902,-0.124791,-0.0425512,-0.0378377,0.192422,-0.15317,0.398838,-2.42805e-05,-1.3807e-05,0.304097,-0.03713079811825748,0.49009220411629006,-2.4280205231042018e-05,0.21218194982780392,-1.3806904683777432e-05,-0.1420161478420423
380,0.3611,184.479,553.391,-0.228704,319.874,-0.0944634,-0.0369389,-0.0379293,0.192882,-0.153538,0.399792,-2.41815e-05,-1.38432e-05,0.304831,-0.0372189928977672,0.4915144303730754,-2.418120762992526e-05,0.2127396817932421,-1.3843104183397514e-05,-0.14233182781095954
381,0.3621,184.765,553.977,0.114126,319.759,0.0233639,-0.0024802,-0.0380209,0.193343,-0.153904,0.400743,-2.25998e-05,-1.33477e-05,0.305565,-0.0373071795990052,0.49293353527378714,-2.2599544626467072e-05,0.21329888367267857,-1.3347610919867137e-05,-0.14264567692408958
382,0.3631,184.53,553.495,-0.173484,319.865,-0.076667,-0.0299066,-0.0381123,0.1938,-0.154272,0.401699,-2.4114e-05,-1.38444e-05,0.3063,-0.03739516570176371,0.4943614621738144,-2.4113709259809823e-05,0.21385348797994874,-1.3844304166732435e-05,-0.14296112526892613
383,0.3641,184.89,554.236,0.258069,319.716,0.0731939,0.0128474,-0.0382039,0.19426,-0.154638,0.402648,-2.19698e-05,-1.31741e-05,0.307032,-0.03748333626631195,0.4957802843260457,-2.1969558665735356e-05,0.21441198902981284,-1.3174013221872727e-05,-0.14327474410133045
384,0.3651,184.441,553.315,-0.285587,319.913,-0.116278,-0.0401684,-0.0382952,0.194716,-0.155006,0.403604,-2.47512e-05,-1.40786e-05,0.307767,-0.037571210026212665,0.4972109340194548,-2.475089369158301e-05,0.21496588717598986,-1.4078500896963497e-05,-0.14358996099203591
385,0.3661,184.505,553.454,-0.211307,319.887,-0.0882895,-0.0354385,-0.0383864,0.195174,-0.155372,0.404555,-2.46622e-05,-1.41214e-05,0.308499,-0.03765897952950814,0.49863545887191285,-2.466189589045431e-05,0.21552246899982475,-1.4121300293545858e-05,-0.1439033497126786
386,0.3671,184.771,554.0,0.108124,319.78,0.0211577,-0.00292642,-0.0384777,0.195633,-0.155737,0.405503,-2.31937e-05,-1.36546e-05,0.30923,-0.037746837253910925,0.5000568389146136,-2.3193431028190048e-05,0.21608052187643323,-1.3654506776372699e-05,-0.14421576797023294
387,0.3681,184.552,553.551,-0.159347,319.878,-0.0716663,-0.0285619,-0.0385689,0.196088,-0.156104,0.406455,-2.46004e-05,-1.41214e-05,0.309962,-0.037834590740733476,0.5014855729947769,-2.460009741267477e-05,0.21663396441251592,-1.4121300293545858e-05,-0.1445297831580764
388,0.3691,184.886,554.237,0.240484,319.74,0.0670996,0.0111623,-0.0386601,0.196547,-0.156468,0.4074,-2.26163e-05,-1.3499e-05,0.310692,-0.03792233622480312,0.5029051475045698,-2.2616044253465084e-05,0.2171925275826223,-1.3498908888909256e-05,-0.14484111765069163
389,0.3701,184.471,553.387,-0.2617,319.922,-0.107969,-0.0378867,-0.0387511,0.197001,-0.156835,0.408353,-2.5188e-05,-1.43399e-05,0.311423,-0.03800988130884486,0.5043380988029837,-2.5187682785032806e-05,0.21774525845055792,-1.4339797184126368e-05,-0.14515490337731107
390,0.3711,185.022,554.521,0.399112,319.69,0.122789,0.026635,-0.0388422,0.19746,-0.157198,0.409295,-2.18561e-05,-1.32999e-05,0.312152,-0.03809751461689981,0.5057558529494206,-2.185586115721616e-05,0.21830433182170994,-1.3299811556732877e-05,-0.14546515583315756
391,0.3721,184.881,554.25,0.226219,319.746,0.0695424,0.00173032,-0.0389333,0.197915,-0.157564,0.410243,-2.23309e-05,-1.36338e-05,0.312881,-0.03818513994192407,0.5071839863262815,-2.2330650667257146e-05,0.21885878642154477,-1.3633707060201061e-05,-0.1457778583580699
392,0.3731,184.693,553.84,0.00332319,319.846,-0.0213015,-0.00856731,-0.0390242,0.19837,-0.157929,0.411191,-2.35525e-05,-1.38315e-05,0.31361,-0.03827256493917708,0.508613474215521,-2.35522226420537e-05,0.2194134933556242,-1.383140434529917e-05,-0.14608959254481924
393,0.3741,184.823,554.118,0.146966,319.785,0.0386639,0.0007108,-0.0391151,0.198826,-0.158293,0.412135,-2.26682e-05,-1.36756e-05,0.314338,-0.038359981989858905,0.5100382777366346,-2.2667943078258368e-05,0.21996967270784928,-1.367550648945226e-05,-0.1464003593701394
394,0.3751,184.607,553.674,-0.105053,319.887,-0.0568603,-0.0205489,-0.0392058,0.199279,-0.158657,0.413082,-2.40622e-05,-1.40609e-05,0.315066,-0.03844719878415104,0.5114689613074013,-2.40619105076334e-05,0.2205224441628677,-1.4060801145965307e-05,-0.14671101309692036
395,0.3761,184.878,554.233,0.210446,319.771,0.0592991,0.00713695,-0.0392965,0.199735,-0.15902,0.414023,-2.23936e-05,-1.36171e-05,0.315793,-0.03853440766823868,0.5128919229984665,-2.2393349265237283e-05,0.2210791293119736,-1.3617007287747285e-05,-0.14702070078744978
396,0.3771,184.524,553.506,-0.21149,319.93,-0.092649,-0.0318617,-0.0393871,0.200187,-0.159384,0.41497,-2.4621e-05,-1.42987e-05,0.31652,-0.03862151250499524,0.5143253102512875,-2.4620696905675032e-05,0.22163118183289354,-1.4298597774131672e-05,-0.14733112875104615
397,0.3781,184.987,554.46,0.338282,319.733,0.103325,0.0199673,-0.0394777,0.200643,-0.159746,0.415909,-2.17945e-05,-1.34587e-05,0.317245,-0.0387086094504111,0.5157479295328367,-2.179426250159544e-05,0.2221883726816678,-1.3458609432137614e-05,-0.14763973902060945
398,0.3791,184.862,554.221,0.186676,319.783,0.0557514,-0.00171172,-0.0395684,0.201096,-0.16011,0.416852,-2.22391e-05,-1.37609e-05,0.317971,-0.038795794625626434,0.5171779539809429,-2.2238852713019064e-05,0.22274214943545734,-1.3760805319229519e-05,-0.14794994169529407
399,0.3801,184.715,553.897,0.0131226,319.863,-0.0170294,-0.0081147,-0.0396588,0.201549,-0.160473,0.417795,-2.32171e-05,-1.38991e-05,0.318696,-0.03888268355835334,0.5186093275781274,-2.3216830485228712e-05,0.22329617710694505,-1.3899003407980004e-05,-0.1482591797363585
400,0.3811,184.811,554.105,0.11792,319.818,0.0283136,-0.00203156,-0.0397492,0.202002,-0.160835,0.418734,-2.25514e-05,-1.38e-05,0.319421,-0.03896956463667578,0.5200359714411917,-2.255114571914074e-05,0.223850455809822,-1.3799904780453787e-05,-0.14856745411226546
401,0.3821,184.648,553.766,-0.0724957,319.897,-0.0450558,-0.017584,-0.0398394,0.202453,-0.161197,0.419676,-2.36257e-05,-1.40918e-05,0.320145,-0.03905624567257204,0.5214685199507045,-2.362542091538522e-05,0.2244025368503091,-1.4091700711094113e-05,-0.14887561691304463
402,0.3831,184.852,554.19,0.16458,319.809,0.0431701,0.00279585,-0.0399297,0.202907,-0.161559,0.420613,-2.23636e-05,-1.37691e-05,0.320868,-0.039143014975894785,0.5228948040636525,-2.2363349936549426e-05,0.22495854180561392,-1.3769005206332174e-05,-0.14918366817907902
403,0.3841,184.585,553.642,-0.15268,319.93,-0.0718795,-0.0262205,-0.0400198,0.203357,-0.161921,0.421555,-2.40551e-05,-1.42863e-05,0.321592,-0.03922958429023926,0.5243300468623069,-2.4054810678353356e-05,0.22550989719508485,-1.4286197951296487e-05,-0.14949160795073668
404,0.3851,184.933,554.36,0.259538,319.781,0.075773,0.012397,-0.04011,0.20381,-0.162282,0.422489,-2.19309e-05,-1.36638e-05,0.322313,-0.03931624187342053,0.5257544362123547,-2.193065951960893e-05,0.22606517894033384,-1.3663706650679508e-05,-0.1497985860673826
405,0.3861,184.486,553.441,-0.276971,319.979,-0.114776,-0.0386733,-0.0401999,0.204259,-0.162644,0.423431,-2.47221e-05,-1.45484e-05,0.323036,-0.03940260346126456,0.5271923740536588,-2.4721794411375342e-05,0.22661580581216012,-1.4548294172578302e-05,-0.1501063032790505
406,0.3871,184.551,553.581,-0.202552,319.951,-0.0856709,-0.0343854,-0.0402898,0.20471,-0.163004,0.424367,-2.4607e-05,-1.45911e-05,0.323757,-0.03948895728555091,0.52862249530811,-2.4606697250240117e-05,0.2271691343067781,-1.459099355038962e-05,-0.15041220994336668
407,0.3881,184.803,554.099,0.100798,319.848,0.0188782,-0.00354849,-0.0403797,0.205162,-0.163364,0.425301,-2.32054e-05,-1.41439e-05,0.324477,-0.03957530334697734,0.5300508956778609,-2.3205130756820402e-05,0.22772394013215558,-1.4143799975552263e-05,-0.15071800650110412
408,0.3891,184.6,553.68,-0.147664,319.938,-0.0676355,-0.0274011,-0.0404694,0.205611,-0.163725,0.426238,-2.45191e-05,-1.4585e-05,0.325198,-0.03966144957855078,0.5314852252455722,-2.4518799409345426e-05,0.22827531195498585,-1.4584893639368879e-05,-0.15102454196777648
409,0.3901,184.907,554.314,0.22166,319.809,0.0611695,0.00928205,-0.0405593,0.206062,-0.164084,0.42717,-2.26789e-05,-1.40053e-05,0.325917,-0.03974778013361713,0.532913234824598,-2.267864283567178e-05,0.22882938905567207,-1.400520192629262e-05,-0.1513292694553532
410,0.3911,184.529,553.536,-0.236556,319.976,-0.0994038,-0.0354267,-0.0406489,0.206509,-0.164445,0.428108,-2.504e-05,-1.47834e-05,0.326638,-0.039833814878103,0.5343517820120194,-2.5039686501804326e-05,0.22937879857645993,-1.4783290726128051e-05,-0.1516355842959245
411,0.3921,185.025,554.561,0.360343,319.764,0.11016,0.0227728,-0.0407387,0.206961,-0.164803,0.429036,-2.20155e-05,-1.38361e-05,0.327355,-0.03992003393023358,0.5357763213497468,-2.201525766065693e-05,0.22993460339584293,-1.3836004281619907e-05,-0.15193924439834505
412,0.3931,184.893,554.304,0.197684,319.817,0.0597173,-0.000541717,-0.0408284,0.20741,-0.165163,0.42997,-2.24882e-05,-1.41589e-05,0.328074,-0.040006149240860656,0.5372114065143339,-2.2487947142324494e-05,0.23048696802934798,-1.415879976329748e-05,-0.15224449132261852
413,0.3941,184.735,553.957,0.0115627,319.901,-0.0176247,-0.00815221,-0.0409179,0.207857,-0.165522,0.430903,-2.35273e-05,-1.43173e-05,0.328792,-0.04009206484572292,0.5386462940275489,-2.3527023235270228e-05,0.23103711865356114,-1.4317197507995871e-05,-0.15254878092698165
414,0.3951,184.837,554.176,0.122561,319.853,0.0302563,-0.00160958,-0.0410074,0.208306,-0.165881,0.431833,-2.28231e-05,-1.42076e-05,0.329509,-0.040177972761482605,0.5400779006749026,-2.2822839555014518e-05,0.2315899784275679,-1.4207499072549368e-05,-0.15285296131098303
415,0.3961,184.664,553.819,-0.0777778,319.935,-0.0468845,-0.0181089,-0.0410967,0.208753,-0.16624,0.432766,-2.39517e-05,-1.45178e-05,0.330226,-0.0402636810415834,0.5415154638751831,-2.3951413160361312e-05,0.2321406222076412,-1.4517694617244281e-05,-0.15315703251382573
416,0.3971,184.877,554.26,0.169406,319.842,0.0452462,0.00320747,-0.0411861,0.209202,-0.166598,0.433693,-2.26324e-05,-1.41759e-05,0.330941,-0.04034947763333352,0.5429451112493753,-2.2632143889200762e-05,0.23269397756599397,-1.4175799522453403e-05,-0.15346014803527008
417,0.3981,184.601,553.691,-0.159029,319.967,-0.0741525,-0.026861,-0.0412753,0.209648,-0.166956,0.434626,-2.43872e-05,-1.47152e-05,0.331658,-0.04043507464224527,0.5443853508054479,-2.4386902634621066e-05,0.23324388169949484,-1.4715091732009355e-05,-0.15376315506077964
418,0.3991,184.957,554.428,0.264595,319.813,0.0780509,0.0128204,-0.0413646,0.210097,-0.167313,0.435551,-2.21965e-05,-1.40692e-05,0.332372,-0.04052075996417315,0.545814568166066,-2.2196253659512166e-05,0.23379773253258507,-1.4069101029301478e-05,-0.1540652076948198
419,0.4001,184.501,553.488,-0.282887,320.015,-0.117053,-0.0392605,-0.0414536,0.21054,-0.167672,0.436483,-2.50542e-05,-1.49782e-05,0.333088,-0.040606149816631465,0.5472559389180331,-2.505388614615356e-05,0.23434442601176197,-1.4978087827355324e-05,-0.15436884377931903
420,0.4011,184.57,553.637,-0.202351,319.985,-0.0858137,-0.0342644,-0.0415425,0.210987,-0.168029,0.43741,-2.49092e-05,-1.50087e-05,0.333802,-0.0406914361388796,0.5486909101798305,-2.4908889768471276e-05,0.23489630130512817,-1.5008587370024529e-05,-0.15467068022107933
421,0.4021,184.819,554.148,0.0962971,319.882,0.0176425,-0.0040603,-0.0416316,0.211434,-0.168385,0.438334,-2.35237e-05,-1.45677e-05,0.334515,-0.040776906724148465,0.5501225619020733,-2.3523423319904424e-05,0.23544842334189364,-1.4567593891623432e-05,-0.15497156389844824
422,0.4031,184.623,553.743,-0.143007,319.969,-0.0660949,-0.0269422,-0.0417204,0.211879,-0.168742,0.439262,-2.47971e-05,-1.49961e-05,0.335228,-0.04086208195299523,0.5515617433164113,-2.479679255440459e-05,0.23599832023326472,-1.4995987559052182e-05,-0.15527318520752942
423,0.4041,184.918,554.354,0.212645,319.844,0.0584723,0.00831514,-0.0418094,0.212326,-0.169098,0.440185,-2.30182e-05,-1.44352e-05,0.33594,-0.04094744142914841,0.5529944959191015,-2.3017935083302632e-05,0.23655093498260382,-1.4435095813003507e-05,-0.15557385443129823
424,0.4051,184.557,553.608,-0.224896,320.003,-0.0954891,-0.0342896,-0.0418981,0.212769,-0.169455,0.441113,-2.52834e-05,-1.51842e-05,0.336653,-0.04103250561844107,0.5544363437252218,-2.5283080377525025e-05,0.23709884840066264,-1.5184084720565316e-05,-0.1558752607610352
425,0.4061,185.028,554.582,0.341528,319.801,0.104155,0.0208486,-0.041987,0.213216,-0.16981,0.442032,-2.24026e-05,-1.42804e-05,0.337364,-0.041117754039343146,0.5558655273343875,-2.240234906358829e-05,0.23765195519605697,-1.4280298035518335e-05,-0.15617487185934853
426,0.4071,184.899,554.332,0.183713,319.852,0.0549343,-0.00165483,-0.0420758,0.21366,-0.170166,0.442957,-2.28764e-05,-1.45977e-05,0.338075,-0.041202899002292126,0.5573053687711726,-2.2876138337180052e-05,0.23820159467509883,-1.4597593454124258e-05,-0.15647522013980064
427,0.4081,184.756,554.016,0.0154018,319.929,-0.0158255,-0.00800587,-0.0421644,0.214103,-0.170521,0.443881,-2.38266e-05,-1.47377e-05,0.338786,-0.041287844662292295,0.5587449839316958,-2.3826316148833904e-05,0.2387502394973955,-1.4737591400582062e-05,-0.156774618290335
428,0.4091,184.844,554.206,0.110563,319.886,0.0261321,-0.00276794,-0.042253,0.214548,-0.170877,0.444802,-2.32106e-05,-1.46503e-05,0.339496,-0.0413727827964403,0.560181249360602,-2.321033063612532e-05,0.23930160602392525,-1.4650192684872998e-05,-0.15707475309905783
429,0.4101,184.692,553.891,-0.0647298,319.959,-0.0420454,-0.0169818,-0.0423415,0.21499,-0.171232,0.445725,-2.42098e-05,-1.49244e-05,0.340206,-0.0414576175511695,0.5616219614401043,-2.4209506945149784e-05,0.2398494984090851,-1.4924288631701366e-05,-0.15737393845316527
430,0.4111,184.877,554.274,0.149425,319.878,0.0384107,0.00127465,-0.04243,0.215434,-0.171586,0.446644,-2.30602e-05,-1.46317e-05,0.340914,-0.04154244479835523,0.5630577516672262,-2.3059934115665648e-05,0.2404001138139531,-1.4631592957226047e-05,-0.15767217528791855
431,0.4121,184.638,553.782,-0.133934,319.986,-0.0652318,-0.0245067,-0.0425183,0.215876,-0.171941,0.447566,-2.45863e-05,-1.51025e-05,0.341624,-0.041627072864095394,0.5644995554836849,-2.4585997759452027e-05,0.24094849184687628,-1.5102385957810327e-05,-0.15797114859478956
432,0.4131,184.944,554.415,0.229116,319.854,0.0658797,0.00935839,-0.0426067,0.21632,-0.172294,0.448482,-2.27018e-05,-1.45497e-05,0.342331,-0.04171178928633312,0.5659332936283292,-2.270154231609478e-05,0.24149959531317244,-1.4549594153590029e-05,-0.1582683323233216
433,0.4141,184.555,553.612,-0.237185,320.026,-0.101062,-0.0348657,-0.0426948,0.21676,-0.172649,0.449405,-2.51505e-05,-1.53326e-05,0.34304,-0.04179621075887663,0.5673793172956116,-2.515018372883926e-05,0.2420459753298989,-1.5332482456331675e-05,-0.15856709403200586
434,0.4151,185.054,554.644,0.359435,319.81,0.111712,0.0221661,-0.0427831,0.217205,-0.173002,0.450318,-2.20779e-05,-1.43872e-05,0.343745,-0.04188081641807173,0.5688109880705616,-2.207765628492453e-05,0.24259880878524154,-1.4387096504697716e-05,-0.15886406742892423
435,0.4161,184.917,554.377,0.193163,319.865,0.0587458,-0.000863128,-0.0428714,0.217646,-0.173356,0.451237,-2.25902e-05,-1.47117e-05,0.344452,-0.04196541460691705,0.5702533880498726,-2.25899448433875e-05,0.24314691570860947,-1.4711591783456157e-05,-0.15916177685137767
436,0.4171,184.765,554.041,0.0143095,319.946,-0.0160644,-0.00807951,-0.0429594,0.218086,-0.173709,0.452155,-2.35938e-05,-1.48668e-05,0.345159,-0.04204971794103052,0.5716955425077204,-2.3593521668474615e-05,0.24369402070579405,-1.4866689489689833e-05,-0.15945854036230778
437,0.4181,184.857,554.24,0.114744,319.901,0.0278171,-0.00234524,-0.0430475,0.218528,-0.174062,0.45307,-2.29479e-05,-1.47693e-05,0.345864,-0.04213410964337083,0.5731343020612303,-2.294763669896671e-05,0.24424385496736623,-1.4769190934460497e-05,-0.1597551991342061
438,0.4191,184.698,553.91,-0.0691784,319.976,-0.0435513,-0.0174044,-0.0431354,0.218967,-0.174415,0.453988,-2.39929e-05,-1.50592e-05,0.34657,-0.04221830235480928,0.5745791024124196,-2.399261217267412e-05,0.24479019793320367,-1.5059086610813566e-05,-0.16005175320403897
439,0.4201,184.89,554.309,0.154084,319.891,0.0402851,0.00172785,-0.0432233,0.219409,-0.174767,0.4549,-2.27938e-05,-1.47495e-05,0.347274,-0.04230248766603373,0.5760157735762921,-2.2793540223275954e-05,0.24534051681220292,-1.4749391226698272e-05,-0.1603473629565425
440,0.4211,184.642,553.797,-0.139914,320.004,-0.0673317,-0.0250799,-0.0433111,0.219847,-0.17512,0.455817,-2.43777e-05,-1.52403e-05,0.347978,-0.042386569816356245,0.5774616428704149,-2.4377402866315734e-05,0.24588609543156226,-1.5240183867226698e-05,-0.16064370802943617
441,0.4221,184.958,554.451,0.234955,319.866,0.0682427,0.00991641,-0.0433989,0.220289,-0.175471,0.456728,-2.24279e-05,-1.46648e-05,0.348681,-0.042470644584589934,0.5788993652101626,-2.24276484965813e-05,0.24643689880432107,-1.4664692472354801e-05,-0.1609382703891995
442,0.4231,184.558,553.624,-0.24434,320.044,-0.103664,-0.0355449,-0.0434865,0.220726,-0.175824,0.457645,-2.49492e-05,-1.54731e-05,0.349385,-0.04255452048230646,0.5803478799705746,-2.49488887712479e-05,0.24698171076184106,-1.5472980292252636e-05,-0.16123440690858137
443,0.4241,185.068,554.681,0.366184,319.822,0.114514,0.0227984,-0.0435742,0.221168,-0.176174,0.458552,-2.17973e-05,-1.44998e-05,0.350087,-0.04263848476897236,0.5817819057300815,-2.1797062440542803e-05,0.24753299850361365,-1.4499694878433722e-05,-0.1615279234977639
444,0.4251,184.927,554.405,0.195662,319.878,0.0598608,-0.000574233,-0.043662,0.221606,-0.176525,0.459464,-2.233e-05,-1.48301e-05,0.350789,-0.04272253742004428,0.5832251488469344,-2.232975068738874e-05,0.24807953764029156,-1.4829990034659346e-05,-0.16182217555235956
445,0.4261,184.774,554.065,0.0145156,319.96,-0.0158446,-0.00805148,-0.0437494,0.222044,-0.176877,0.460377,-2.3345e-05,-1.49904e-05,0.351491,-0.042806199814173884,0.5846712934723981,-2.3344727507645935e-05,0.24862631621354425,-1.4990287644511824e-05,-0.1621171622258648
446,0.4271,184.865,554.263,0.114522,319.914,0.0279032,-0.00234315,-0.0438369,0.222482,-0.177227,0.461287,-2.27005e-05,-1.48923e-05,0.352192,-0.04288995060753942,0.5861140006816794,-2.2700242345630173e-05,0.24917333432826783,-1.4892189110216059e-05,-0.16241036990474877
447,0.4281,184.706,553.933,-0.0689175,319.99,-0.0433694,-0.0173846,-0.0439243,0.222919,-0.177578,0.462198,-2.37441e-05,-1.51833e-05,0.352893,-0.04297359837039583,0.5875596089108706,-2.374381811109938e-05,0.24971934236943705,-1.5183184734257615e-05,-0.16270431227500837
448,0.4291,184.896,554.328,0.152383,319.905,0.0398864,0.00157629,-0.0440117,0.223358,-0.177928,0.463105,-2.25531e-05,-1.48745e-05,0.353593,-0.04305723882275725,0.5890001786757841,-2.255284568075666e-05,0.2502680896019418,-1.4874389375196806e-05,-0.1629973144873339
449,0.4301,184.652,553.822,-0.1379,320.016,-0.0665913,-0.0248815,-0.0440988,0.223794,-0.178278,0.464016,-2.41206e-05,-1.5362e-05,0.354293,-0.04314058490748118,0.5904484174111413,-2.412030910070584e-05,0.25081332534176215,-1.5361882005127114e-05,-0.16329021416682943
450,0.4311,184.962,554.466,0.230559,319.881,0.0669579,0.00949352,-0.0441861,0.224232,-0.178627,0.464921,-2.21999e-05,-1.47937e-05,0.354991,-0.043224115088273285,0.5918884247339284,-2.2199653584076273e-05,0.25136130157629677,-1.47935905737695e-05,-0.16358217493196825
451,0.4321,184.571,553.655,-0.238535,320.054,-0.101673,-0.0349669,-0.0442732,0.224667,-0.178978,0.465832,-2.46738e-05,-1.55892e-05,0.355691,-0.04330744663870745,0.593339295860317,-2.4673495604310425e-05,0.2519057621540728,-1.558907848908664e-05,-0.16387570607083868
452,0.4331,185.067,554.686,0.356409,319.838,0.111423,0.0218427,-0.0443604,0.225106,-0.179326,0.466734,-2.15953e-05,-1.46365e-05,0.356388,-0.04339086659219771,0.5947771362737233,-2.1595066823199005e-05,0.2524554694355783,-1.4636392886901994e-05,-0.16416662670200022
453,0.4341,184.929,554.413,0.188272,319.893,0.0573509,-0.00111939,-0.0444475,0.225541,-0.179675,0.467641,-2.21295e-05,-1.49644e-05,0.357086,-0.043474183619208295,0.5962242553055985,-2.2129255144442972e-05,0.25300040607991003,-1.4964288033936235e-05,-0.16445828165253196
454,0.4351,184.783,554.09,0.0165068,319.971,-0.0148657,-0.00794819,-0.0445345,0.225976,-0.180024,0.468547,-2.30975e-05,-1.51153e-05,0.357784,-0.04355739774536649,0.5976710897979627,-2.3097233254776306e-05,0.2535455798232471,-1.5115185764469352e-05,-0.1647498348332459
455,0.4361,184.866,554.272,0.10818,319.929,0.0257425,-0.0029218,-0.0446214,0.226412,-0.180373,0.469451,-2.24996e-05,-1.50288e-05,0.35848,-0.04364050899626626,0.59911603748109,-2.2499346885918037e-05,0.2540922448603684,-1.5028687068152635e-05,-0.16504128627965353
456,0.4371,184.719,553.965,-0.0621758,319.999,-0.0408188,-0.0167759,-0.0447082,0.226846,-0.180721,0.470357,-2.34753e-05,-1.5301e-05,0.359177,-0.0437235173974686,0.600565493115303,-2.3475024457320082e-05,0.2546366390196253,-1.530088294032783e-05,-0.16533180135947245
457,0.4381,184.895,554.33,0.142009,319.921,0.0363503,0.000606193,-0.044795,0.227282,-0.181069,0.471258,-2.23726e-05,-1.50176e-05,0.359872,-0.04380651859385443,0.6020082524900954,-2.23723497352335e-05,0.25518377986227403,-1.5017487236423932e-05,-0.16562221535763277
458,0.4391,184.669,553.863,-0.125107,320.023,-0.0619813,-0.0236556,-0.0448817,0.227715,-0.181417,0.472164,-2.38219e-05,-1.54697e-05,0.360568,-0.0438894169749956,0.6034603296584822,-2.3821616260799594e-05,0.2557273921225154,-1.5469580344817935e-05,-0.16591252830930492
459,0.4401,184.954,554.454,0.212504,319.898,0.0607641,0.00776575,-0.0449684,0.228151,-0.181764,0.473063,-2.20579e-05,-1.49491e-05,0.361262,-0.04397230816915876,0.6049024886481817,-2.205765672635973e-05,0.25627500863720587,-1.4948988262708518e-05,-0.1662019064519702
460,0.4411,184.596,553.713,-0.215635,320.057,-0.0935737,-0.0327417,-0.0450549,0.228583,-0.182112,0.473968,-2.43244e-05,-1.56805e-05,0.361957,-0.04405500098798609,0.6063555828263472,-2.432410416419728e-05,0.2568178366833531,-1.5680377061566553e-05,-0.16649201770623878
461,0.4421,185.048,554.651,0.325074,319.86,0.100592,0.0188195,-0.0451416,0.229019,-0.182458,0.474864,-2.15206e-05,-1.4813e-05,0.36265,-0.044137877826637584,0.6077955224251659,-2.1520368433503023e-05,0.2573659287355319,-1.481289028804067e-05,-0.16678036158174536
462,0.4431,184.481,553.475,-0.356426,320.11,-0.143335,-0.0465634,-0.0452279,0.229449,-0.182806,0.475771,-2.50915e-05,-1.59746e-05,0.363345,-0.04422036516840111,0.609254454489681,-2.5091185210990297e-05,0.2579067123450316,-1.5974472406754536e-05,-0.1670702715686514
463,0.4441,184.584,553.693,-0.234135,320.065,-0.0980254,-0.0366173,-0.0453141,0.229883,-0.183153,0.476669,-2.47912e-05,-1.59355e-05,0.364037,-0.044302749822094034,0.6107002140386948,-2.4790892700687905e-05,0.25845276234246795,-1.5935373030573352e-05,-0.16735924804409907
464,0.4451,184.852,554.249,0.0884984,319.949,0.0164026,-0.00531805,-0.0454005,0.230317,-0.183498,0.477566,-2.32622e-05,-1.5464e-05,0.364729,-0.04438531849749128,0.6121456603164248,-2.326192943713501e-05,0.25899904937703644,-1.5463880432942112e-05,-0.1676464595566891
465,0.4461,184.656,553.84,-0.149119,320.037,-0.0687403,-0.0274097,-0.0454867,0.230748,-0.183845,0.478466,-2.45619e-05,-1.58937e-05,0.365422,-0.04446768893282005,0.6135972445256217,-2.4561598358951997e-05,0.2595417949205807,-1.5893573695802132e-05,-0.16793523612958994
466,0.4471,184.953,554.457,0.207659,319.908,0.0583666,0.00749934,-0.0455731,0.231182,-0.18419,0.479361,-2.27464e-05,-1.53224e-05,0.366112,-0.044550243358093655,0.6150420605181843,-2.2746141302598666e-05,0.26008855469786574,-1.532228261258428e-05,-0.16822224896056504
467,0.4481,184.598,553.721,-0.219884,320.066,-0.0943374,-0.0336664,-0.0456591,0.231611,-0.184536,0.480262,-2.49952e-05,-1.60675e-05,0.366804,-0.044632408504012955,0.6164978691580181,-2.499488762264246e-05,0.2606292486583932,-1.606737091841559e-05,-0.16850999427961388
468,0.4491,185.05,554.661,0.324073,319.868,0.0999277,0.0188839,-0.0457454,0.232046,-0.184881,0.481154,-2.21904e-05,-1.51824e-05,0.367493,-0.04471485316962065,0.6179404285431433,-2.2190153794898748e-05,0.26117774167014063,-1.5182284747949915e-05,-0.16879680885322856
469,0.4501,184.487,553.49,-0.355459,320.117,-0.142742,-0.0467455,-0.0458312,0.232473,-0.185227,0.482056,-2.57448e-05,-1.63519e-05,0.368185,-0.044796813119086565,0.6194004691890294,-2.5744468605481963e-05,0.26171637955683846,-1.635176630843116e-05,-0.16908435540894262
470,0.4511,184.591,553.711,-0.230995,320.071,-0.0969472,-0.0364038,-0.0459171,0.232905,-0.185572,0.48295,-2.54333e-05,-1.63053e-05,0.368874,-0.04487886154880916,0.6208488605429523,-2.543297657642274e-05,0.26226155878304125,-1.6305167069297077e-05,-0.16937097186214545
471,0.4521,184.853,554.256,0.0854604,319.957,0.0154469,-0.00569824,-0.0460031,0.233337,-0.185916,0.483843,-2.39322e-05,-1.58416e-05,0.369562,-0.04496099843477919,0.6222969250399852,-2.393191362715097e-05,0.2628069735775489,-1.5841474522493293e-05,-0.1696566591068015
472,0.4531,184.663,553.859,-0.144747,320.043,-0.0672495,-0.0270439,-0.0460889,0.233766,-0.186261,0.484739,-2.5196e-05,-1.62601e-05,0.370252,-0.04504293726588737,0.6237511544823213,-2.5195682583412093e-05,0.2633488339899617,-1.6259967805298814e-05,-0.169943078149284
473,0.4541,184.951,554.458,0.201183,319.918,0.0562225,0.00678048,-0.0461748,0.234198,-0.186604,0.485629,-2.34329e-05,-1.5705e-05,0.370939,-0.045124964554453695,0.6251969362872802,-2.3432625451791367e-05,0.2638947185888292,-1.5704876677125057e-05,-0.17022773885137754
474,0.4551,184.609,553.747,-0.211585,320.069,-0.0914873,-0.0329253,-0.0462604,0.234625,-0.186949,0.486526,-2.56095e-05,-1.6428e-05,0.371627,-0.04520669835923108,0.6266553919587079,-2.560917207949931e-05,0.2644345168723985,-1.6427865061174884e-05,-0.17051396090533055
475,0.4561,185.044,554.652,0.31204,319.879,0.0958552,0.0176241,-0.0463463,0.235057,-0.187291,0.487413,-2.29048e-05,-1.55738e-05,0.372313,-0.04528871158132375,0.6280988753816328,-2.2904537687051807e-05,0.2649808705875929,-1.5573678728952878e-05,-0.17079759662622807
476,0.4571,184.504,553.528,-0.339922,320.118,-0.137392,-0.0452971,-0.0464317,0.235483,-0.187636,0.488311,-2.63228e-05,-1.67013e-05,0.373002,-0.045370240444022714,0.6295615648209905,-2.6322453558158543e-05,0.26551986723659815,-1.6701160534093873e-05,-0.17108362211315842
477,0.4581,184.604,553.741,-0.219954,320.073,-0.0930302,-0.0354875,-0.0465172,0.235912,-0.187979,0.489201,-2.60169e-05,-1.66583e-05,0.373688,-0.04545185779927308,0.6310125201930465,-2.6016561563424467e-05,0.26606289173006825,-1.6658161251292825e-05,-0.1713678916757566
478,0.4591,184.854,554.26,0.0815316,319.965,0.0140038,-0.00605674,-0.0466027,0.236342,-0.188321,0.490089,-2.45882e-05,-1.62135e-05,0.374373,-0.04553346817653792,0.6324615025639351,-2.45878977126468e-05,0.2666074158378051,-1.6213368561945884e-05,-0.17165123540226457
479,0.4601,184.674,553.885,-0.13606,320.046,-0.06415,-0.0262762,-0.0466881,0.236769,-0.188665,0.490981,-2.57844e-05,-1.66131e-05,0.375058,-0.0456149761379161,0.6339183078627915,-2.5784067585243875e-05,0.2671483726904367,-1.661296200317075e-05,-0.17193613837116606
480,0.4611,184.946,554.45,0.190371,319.928,0.052444,0.00568256,-0.0467736,0.237199,-0.189007,0.491867,-2.41204e-05,-1.6088e-05,0.375742,-0.045696572569159155,0.635366600982668,-2.412010910546325e-05,0.26769336365535357,-1.6087870588821218e-05,-0.17221928779053253
481,0.4621,184.624,553.781,-0.197517,320.071,-0.0865242,-0.031648,-0.0468588,0.237625,-0.18935,0.492759,-2.617e-05,-1.67724e-05,0.376428,-0.045777875757611275,0.6368259987853988,-2.6169657568519966e-05,0.26823351607256685,-1.677225934404447e-05,-0.1725031678866007
482,0.4631,185.032,554.63,0.292964,319.892,0.0892009,0.0157038,-0.0469443,0.238055,-0.189691,0.493643,-2.36339e-05,-1.59705e-05,0.37711,-0.04585945826153226,0.6382735927105707,-2.3633620721552617e-05,0.2687789737494739,-1.5970372472251526e-05,-0.1727852962007399
483,0.4641,184.527,553.58,-0.315681,320.115,-0.128888,-0.0430211,-0.0470293,0.238479,-0.190034,0.494536,-2.68319e-05,-1.70293e-05,0.377795,-0.045940556760844964,0.6397372244431656,-2.683154002780519e-05,0.26931705009846874,-1.702915500234603e-05,-0.17306898218921485
484,0.4651,184.621,553.778,-0.204045,320.073,-0.0872951,-0.034166,-0.0471144,0.238906,-0.190375,0.495422,-2.6544e-05,-1.6995e-05,0.378478,-0.04602174376490864,0.6411906754077201,-2.6543647711152474e-05,0.26985916421198697,-1.6994855585816815e-05,-0.1733509175935698
485,0.4661,184.853,554.262,0.0770311,319.973,0.0122866,-0.00642205,-0.0471995,0.239333,-0.190716,0.496306,-2.52154e-05,-1.65762e-05,0.37916,-0.046102923860252165,0.6426421294129303,-2.5215082094520724e-05,0.2704015098576604,-1.6576062615514253e-05,-0.173632756874342
486,0.4671,184.687,553.915,-0.124759,320.047,-0.0600724,-0.0252625,-0.0472845,0.239759,-0.191057,0.497193,-2.63249e-05,-1.69515e-05,0.379842,-0.04618400166586856,0.6440997993627715,-2.6324553502821146e-05,0.27094281619092264,-1.6951356324179656e-05,-0.17391450006430387
487,0.4681,184.938,554.436,0.177009,319.938,0.0477033,0.00435865,-0.0473696,0.240186,-0.191398,0.498075,-2.47881e-05,-1.64651e-05,0.380523,-0.04626516795365221,0.6455505350662076,-2.478779277759191e-05,0.27148562465479564,-1.6464964450957353e-05,-0.1741961471962168
488,0.4691,184.642,553.821,-0.180118,320.07,-0.080332,-0.0300595,-0.0474544,0.24061,-0.191739,0.498963,-2.66786e-05,-1.71008e-05,0.381205,-0.04634604123833408,0.647012432927933,-2.6678244129274553e-05,0.272024848867104,-1.710065378213166e-05,-0.17447769830283089
489,0.4701,185.016,554.6,0.269933,319.905,0.0810833,0.0134127,-0.0475394,0.241037,-0.192079,0.499843,-2.43503e-05,-1.63638e-05,0.381885,-0.046427098379851484,0.6484624417792302,-2.43500035338462e-05,0.27256811945758685,-1.6363666113794473e-05,-0.1747583281756262
490,0.4711,184.555,553.639,-0.286656,320.11,-0.118629,-0.0402913,-0.0476241,0.24146,-0.19242,0.500731,-2.72814e-05,-1.73387e-05,0.382566,-0.04650786258420636,0.6499269265625398,-2.7281027865977414e-05,0.27310652963784254,-1.733854968566373e-05,-0.17503968761120814
491,0.4721,184.639,553.819,-0.185628,320.072,-0.080608,-0.0326363,-0.0477087,0.241885,-0.19276,0.501613,-2.70194e-05,-1.73163e-05,0.383246,-0.04658852460698004,0.6513828040593637,-2.7019034979258727e-05,0.2736477149066623,-1.731615007372067e-05,-0.17532012644011785
492,0.4731,184.852,554.262,0.0723908,319.98,0.0104809,-0.00677487,-0.0477935,0.24231,-0.193099,0.502492,-2.58048e-05,-1.69269e-05,0.383924,-0.04666937047218023,0.652835007694127,-2.580446705902073e-05,0.2741891302281039,-1.6926756740809346e-05,-0.17559964553609098
493,0.4741,184.701,553.945,-0.112308,320.048,-0.0555517,-0.0241406,-0.0478781,0.242734,-0.193439,0.503375,-2.68196e-05,-1.72759e-05,0.384603,-0.04675001883196461,0.654295105544253,-2.6819240357744967e-05,0.2747295009698225,-1.7275750772483e-05,-0.17587989401166815
494,0.4751,184.929,554.42,0.162649,319.948,0.0425712,0.00295034,-0.0479627,0.243159,-0.193777,0.504254,-2.54219e-05,-1.68319e-05,0.385281,-0.04683066036918626,0.6557498702174327,-2.542157686624691e-05,0.27527137614805364,-1.6831758344326708e-05,-0.17615839953740686
495,0.4761,184.661,553.861,-0.161455,320.068,-0.0736547,-0.0283542,-0.0480472,0.243581,-0.194117,0.505137,-2.71406e-05,-1.74149e-05,0.38596,-0.04691119977554725,0.6572125430278446,-2.7140231697253547e-05,0.27580965423747683,-1.7414748361477272e-05,-0.1764384580689159
496,0.4771,184.998,554.566,0.245528,319.919,0.0724354,0.0109966,-0.0481318,0.244006,-0.194455,0.506013,-2.50348e-05,-1.67476e-05,0.386636,-0.046991827677437925,0.6586648972538129,-2.5034486632047326e-05,0.2763519885784118,-1.6747459759769434e-05,-0.17671677483190595
497,0.4781,184.583,553.7,-0.256088,320.104,-0.107773,-0.0374179,-0.0482161,0.244427,-0.194795,0.506896,-2.76825e-05,-1.76331e-05,0.387314,-0.04707216288018834,0.6601301451698398,-2.768211684311961e-05,0.2768894458924296,-1.763294453782649e-05,-0.1769966435480853
498,0.4791,185.099,554.776,0.365643,319.876,0.115861,0.022499,-0.0483006,0.244853,-0.195132,0.507769,-2.44457e-05,-1.65995e-05,0.387989,-0.0471526818804493,0.6615800715873685,-2.4445401206274475e-05,0.27743351667522864,-1.659936222908609e-05,-0.17727394895062487
499,0.4801,184.951,554.481,0.185662,319.936,0.0569924,-0.00134744,-0.0483851,0.245274,-0.19547,0.508648,-2.50522e-05,-1.695e-05,0.388666,-0.047233194077142104,0.6630412425608565,-2.505188619628118e-05,0.2779714294084341,-1.6949856349590675e-05,-0.17755198336541644
500,0.4811,184.81,554.168,0.0203702,320.01,-0.0129045,-0.00807686,-0.0484693,0.245696,-0.195809,0.509527,-2.59878e-05,-1.7105e-05,0.389342,-0.04731341366490882,0.664503698468276,-2.5987462320076204e-05,0.2785108471607851,-1.710485371031467e-05,-0.17783074599012105
501,0.4821,184.882,554.325,0.098183,319.973,0.0225911,-0.00419543,-0.0485535,0.246118,-0.196146,0.510403,-2.54643e-05,-1.70355e-05,0.390017,-0.047393626498470565,0.6659624425447561,-2.5463975787509696e-05,0.2790504925954651,-1.70353548967217e-05,-0.17810777034749636
502,0.4831,184.752,554.052,-0.0517495,320.035,-0.0368069,-0.016273,-0.0486376,0.246539,-0.196484,0.51128,-2.63371e-05,-1.72845e-05,0.390692,-0.047473737325774534,0.6674241324642116,-2.6336753181643857e-05,0.2795890862188506,-1.728435062386957e-05,-0.17838552297828003
503,0.4841,184.901,554.364,0.122161,319.967,0.0298613,-0.00165518,-0.0487218,0.246961,-0.196821,0.512154,-2.53861e-05,-1.70415e-05,0.391365,-0.04755393666065233,0.6688820981942007,-2.5385777775666085e-05,0.2801291867664353,-1.704135479441149e-05,-0.17866236040730954
504,0.4851,184.712,553.97,-0.101588,320.053,-0.0535776,-0.021824,-0.0488057,0.247381,-0.197158,0.513031,-2.66205e-05,-1.74341e-05,0.39204,-0.047633843533226305,0.6703463497747852,-2.662014567766935e-05,0.28066695394807994,-1.7433948027001378e-05,-0.1789391045578438
505,0.4861,184.945,554.456,0.175,319.95,0.048238,0.00374965,-0.0488898,0.247803,-0.197494,0.513903,-2.51591e-05,-1.70017e-05,0.392712,-0.04771393415912717,0.671803527028737,-2.5158783512502225e-05,0.28120750945183537,-1.700155547190718e-05,-0.1792149346766574
506,0.4871,184.658,553.858,-0.168605,320.079,-0.077135,-0.0285813,-0.0489736,0.248222,-0.197832,0.514779,-2.70067e-05,-1.76092e-05,0.393386,-0.04779373238785212,0.6732686685567106,-2.7006335322377062e-05,0.28174444787904074,-1.760904495895499e-05,-0.17949231314913416
507,0.4881,185.012,554.598,0.256159,319.921,0.0771978,0.0117228,-0.0490576,0.248644,-0.198167,0.515649,-2.47796e-05,-1.6916e-05,0.394057,-0.04787371435504184,0.6747250457305647,-2.477929298827508e-05,0.28228545818119066,-1.691585692531472e-05,-0.17976713718863235
508,0.4891,184.577,553.688,-0.268099,320.116,-0.112664,-0.0383389,-0.0491412,0.249061,-0.198504,0.516526,-2.75677e-05,-1.78392e-05,0.39473,-0.04795330878542825,0.6761944238237858,-2.756732001440998e-05,0.2828202827204187,-1.7839040882372537e-05,-0.18004350909211841
509,0.4901,185.114,554.812,0.378612,319.877,0.121338,0.023551,-0.0492252,0.249484,-0.198839,0.517392,-2.41788e-05,-1.67608e-05,0.3954,-0.048033277348763614,0.6776466369123264,-2.417850769520502e-05,0.28336303048306855,-1.6760659538594957e-05,-0.1803181485119013
510,0.4911,184.96,554.502,0.191282,319.94,0.0593598,-0.000831068,-0.049309,0.249903,-0.199175,0.518264,-2.48211e-05,-1.71205e-05,0.396072,-0.04811304881765055,0.6791101827929797,-2.482079195909037e-05,0.2839008722628251,-1.71203534450326e-05,-0.18059351534978185
511,0.4921,184.815,554.179,0.0204626,320.017,-0.01271,-0.00805732,-0.0493926,0.250321,-0.199511,0.519137,-2.57853e-05,-1.72854e-05,0.396743,-0.04819262324051221,0.6805766860180771,-2.5784967562003658e-05,0.28443765500720875,-1.7285250608289893e-05,-0.18086878967994713
512,0.4931,184.887,554.337,0.0993823,319.979,0.023204,-0.00406212,-0.0494762,0.25074,-0.199846,0.520006,-2.52544e-05,-1.72124e-05,0.397413,-0.04827219101123004,0.682037741895061,-2.525408111031524e-05,0.2849759471489852,-1.7212251867460004e-05,-0.1811431526770365
513,0.4941,184.755,554.06,-0.0528726,320.042,-0.0371189,-0.0163881,-0.0495597,0.251158,-0.200181,0.520877,-2.61406e-05,-1.74674e-05,0.398083,-0.0483516569655309,0.6835034349849312,-2.6140258337470357e-05,0.285513179368605,-1.7467247445890344e-05,-0.18141742377791525
514,0.4951,184.905,554.375,0.122369,319.973,0.0301412,-0.00163049,-0.0496432,0.251577,-0.200515,0.521744,-2.51804e-05,-1.72197e-05,0.398752,-0.048431116284701536,0.6849636653814699,-2.518008297636154e-05,0.28605192224951215,-1.721955174183165e-05,-0.18169078470455746
515,0.4961,184.716,553.979,-0.102042,320.06,-0.0536988,-0.0218707,-0.0497265,0.251994,-0.20085,0.522615,-2.6421e-05,-1.76163e-05,0.399421,-0.04851037867139074,0.6864319080608818,-2.6420650968472792e-05,0.2865883177317756,-1.76161448338652e-05,-0.1819648723794326
516,0.4971,184.948,554.464,0.173864,319.956,0.0480878,0.00363553,-0.04981,0.252413,-0.201184,0.52348,-2.49594e-05,-1.71817e-05,0.400089,-0.04858982473785223,0.6878913027585647,-2.4959088516740557e-05,0.2871275111900462,-1.7181552395384436e-05,-0.18223805048877406
517,0.4981,184.663,553.869,-0.167172,320.084,-0.0766454,-0.0284377,-0.0498932,0.252829,-0.201519,0.52435,-2.67982e-05,-1.77888e-05,0.400757,-0.04866897877158061,0.6893604071597155,-2.6797840931402916e-05,0.2876630676227159,-1.778864178025863e-05,-0.18251195486031646
518,0.4991,185.013,554.601,0.25228,319.928,0.0761368,0.0113342,-0.0499766,0.253248,-0.201852,0.525214,-2.45927e-05,-1.70997e-05,0.401424,-0.04874831647032307,0.6908206452835324,-2.459239760199683e-05,0.2882027114955461,-1.7099553800914435e-05,-0.18278413305916275
519,0.5001,184.585,553.706,-0.262837,320.12,-0.110894,-0.0378151,-0.0500596,0.253662,-0.202187,0.526084,-2.73406e-05,-1.80131e-05,0.402092,-0.04882726708356022,0.6922922993216112,-2.7340226249172872e-05,0.2887361378297375,-1.801293776504398e-05,-0.18305785452368273
520,0.5011,185.11,554.805,0.369417,319.886,0.118467,0.0226392,-0.0501429,0.254082,-0.202519,0.526944,-2.40179e-05,-1.69523e-05,0.402757,-0.048906496472262306,0.6937482966881574,-2.4017611572557662e-05,0.2892775206900684,-1.6952156310590105e-05,-0.18332903429764758
521,0.5021,184.958,554.499,0.184354,319.948,0.0569991,-0.00134163,-0.0502261,0.254497,-0.202852,0.52781,-2.46625e-05,-1.73102e-05,0.403424,-0.04898562415999841,0.6952157180148153,-2.466219588304064e-05,0.2898126818994249,-1.7310050179353276e-05,-0.18360094045433872
522,0.5031,184.82,554.191,0.0221357,320.021,-0.0118295,-0.0079904,-0.0503091,0.254913,-0.203186,0.528676,-2.5583e-05,-1.74666e-05,0.40409,-0.04906455507751473,0.6966844106787518,-2.5582672757873404e-05,0.29034935559548436,-1.746644745981296e-05,-0.18387357220818956
523,0.5041,184.885,554.336,0.0937139,319.986,0.0212563,-0.00458264,-0.0503921,0.255329,-0.203518,0.529539,-2.50942e-05,-1.74041e-05,0.404755,-0.04914347944403674,0.6981492813259358,-2.5093885143157024e-05,0.29088625259424505,-1.7403948549543635e-05,-0.18414448120883398
524,0.5051,184.763,554.078,-0.0471786,320.045,-0.0349041,-0.01589,-0.050475,0.255743,-0.203851,0.530404,-2.59204e-05,-1.76424e-05,0.40542,-0.04922230218234325,0.6996188159363732,-2.5920064069318016e-05,0.2914207901444572,-1.7642244373727856e-05,-0.18441611586691076
525,0.5061,184.901,554.368,0.113611,319.982,0.0271276,-0.00245068,-0.0505579,0.256159,-0.204183,0.531265,-2.50361e-05,-1.74167e-05,0.406084,-0.04930111838651552,0.7010828178992983,-2.503578659951433e-05,0.2919581329527121,-1.7416548330206894e-05,-0.18468684477295783
526,0.5071,184.728,554.005,-0.0917104,320.061,-0.049889,-0.0208974,-0.0506406,0.256573,-0.204516,0.532129,-2.61776e-05,-1.77834e-05,0.406748,-0.04937973793306183,0.7025531885626211,-2.6177257369641715e-05,0.2924931143532634,-1.7783241876290212e-05,-0.18495829885403547
527,0.5081,184.939,554.448,0.159452,319.966,0.0430923,0.00225719,-0.0507234,0.256989,-0.204847,0.532988,-2.48438e-05,-1.7388e-05,0.407411,-0.04945844603220073,0.7040163100723174,-2.4843491395309947e-05,0.2930309033411882,-1.7387848829653052e-05,-0.18522803301364865
528,0.5091,184.681,553.908,-0.149591,320.083,-0.070296,-0.02675,-0.050806,0.257402,-0.205179,0.533852,-2.65179e-05,-1.79438e-05,0.408075,-0.04953695752198928,0.705489216368113,-2.6517548403548474e-05,0.29356503539494505,-1.794363901097551e-05,-0.18549849240794447
529,0.5101,184.996,554.568,0.22865,319.942,0.067877,0.00905833,-0.0508888,0.257818,-0.20551,0.534709,-2.45244e-05,-1.73212e-05,0.408737,-0.04961565260388512,0.7069514471029159,-2.4524099279332745e-05,0.29410327039478723,-1.732104998886097e-05,-0.1857680477930801
530,0.5111,184.612,553.764,-0.233641,320.115,-0.100448,-0.0349924,-0.0509712,0.258229,-0.205842,0.535573,-2.70006e-05,-1.81487e-05,0.4094,-0.04969396104775836,0.7084268904529556,-2.7000235487073532e-05,0.2946352561545045,-1.8148535313344816e-05,-0.18603832793222708
531,0.5121,185.082,554.747,0.330959,319.905,0.104921,0.018932,-0.0510539,0.258646,-0.206172,0.536427,-2.40264e-05,-1.71981e-05,0.41006,-0.049772548107560044,0.7098865101863183,-2.4026111368313785e-05,0.29517523163338355,-1.7197952113523485e-05,-0.18630689096867126
532,0.5131,184.942,554.467,0.161587,319.962,0.048702,-0.00318768,-0.0511365,0.259058,-0.206503,0.537287,-2.46277e-05,-1.75358e-05,0.410722,-0.04985103365358867,0.7113576450824128,-2.462739674069514e-05,0.29570895376802664,-1.753564624873416e-05,-0.1865761788181629
533,0.5141,184.826,554.205,0.0253135,320.025,-0.0102121,-0.0079386,-0.0512189,0.25947,-0.206834,0.538146,-2.54158e-05,-1.76608e-05,0.411383,-0.04992932270286243,0.7128283328695104,-2.541547702128444e-05,0.2962428958414933,-1.766064404895573e-05,-0.18684537754812647
534,0.5151,184.877,554.319,0.07994,319.996,0.0162535,-0.0058755,-0.0513013,0.259884,-0.207164,0.539003,-2.50269e-05,-1.76246e-05,0.412043,-0.05000760530138437,0.7142968559230285,-2.502658682979053e-05,0.29677965150112673,-1.7624444687669438e-05,-0.18711367430213632
535,0.5161,184.777,554.11,-0.0337033,320.045,-0.0297692,-0.0147091,-0.0513836,0.260295,-0.207494,0.539861,-2.5707e-05,-1.78196e-05,0.412704,-0.05008578645826933,0.7157683538077311,-2.570666957790735e-05,0.2973127374795581,-1.7819441231914368e-05,-0.18738188253282462
536,0.5171,184.888,554.343,0.0946653,319.993,0.0203344,-0.00422972,-0.0514659,0.260708,-0.207824,0.540716,-2.49965e-05,-1.76466e-05,0.413363,-0.050163961181109884,0.7172359630637886,-2.4996187590109464e-05,0.2978486382960386,-1.7646444299690422e-05,-0.1876500022693991
537,0.5181,184.749,554.052,-0.0693066,320.057,-0.0416419,-0.0187956,-0.051548,0.261119,-0.208154,0.541573,-2.59193e-05,-1.79449e-05,0.414022,-0.05024193951884237,0.7187082650754353,-2.5918964097870756e-05,0.29838216371834214,-1.7944738991193532e-05,-0.18791803354105796
538,0.5191,184.918,554.404,0.130375,319.982,0.0326987,-0.000517979,-0.0516302,0.261532,-0.208483,0.542427,-2.48568e-05,-1.76354e-05,0.414681,-0.050320006422820196,0.7201766688529787,-2.485649107231147e-05,0.2989185062990771,-1.7635244497271607e-05,-0.1881851645625604
539,0.5201,184.713,553.976,-0.1144,320.074,-0.0575062,-0.0233915,-0.0517122,0.261942,-0.208813,0.543284,-2.61934e-05,-1.80831e-05,0.415339,-0.05039787698955667,0.7216514921296946,-2.6193056955947647e-05,0.2994511720756823,-1.8082936501739866e-05,-0.18845301925979885
540,0.5211,184.962,554.497,0.183795,319.963,0.0518226,0.00475367,-0.0517944,0.262354,-0.209141,0.544135,-2.46198e-05,-1.75956e-05,0.415996,-0.050475931076001235,0.7231172411372415,-2.46194969352187e-05,0.29998665626074494,-1.7595445198304027e-05,-0.18871916301951908
541,0.5221,184.66,553.865,-0.179038,320.099,-0.0807201,-0.0297452,-0.0518762,0.262763,-0.209471,0.544992,-2.65749e-05,-1.82545e-05,0.416655,-0.050553598968179125,0.7245945855645637,-2.657454689047878e-05,0.3005184595495147,-1.825433338764615e-05,-0.18898684152633982
542,0.5231,185.027,554.634,0.261926,319.934,0.080145,0.0123028,-0.0519583,0.263176,-0.209798,0.545841,-2.42488e-05,-1.75136e-05,0.417311,-0.05063154531796232,0.7260593880883934,-2.4248506000246195e-05,0.301055684602646,-1.751344663780685e-05,-0.1892519994734736
543,0.5241,184.583,553.703,-0.273176,320.134,-0.114771,-0.0388798,-0.05204,0.263584,-0.210128,0.546698,-2.71146e-05,-1.84775e-05,0.417968,-0.05070910555233121,0.7275392550163899,-2.711423240253641e-05,0.3015866236261595,-1.847732929205481e-05,-0.1895195021732743
544,0.5251,185.122,554.834,0.376238,319.892,0.121806,0.0232546,-0.0521221,0.263997,-0.210455,0.547544,-2.3683e-05,-1.7369e-05,0.418623,-0.05078703913554794,0.7290013716142498,-2.3682719559992016e-05,0.3021242899221648,-1.7368849159815625e-05,-0.18978448596885178
545,0.5261,184.964,554.514,0.184129,319.958,0.0573409,-0.00122402,-0.0522039,0.264406,-0.210783,0.548397,-2.43706e-05,-1.774e-05,0.419279,-0.05086468158012736,0.7304768389816052,-2.4370303039367158e-05,0.3026569676819193,-1.773984264707984e-05,-0.19005019307910576
546,0.5271,184.827,554.21,0.0240339,320.03,-0.0107623,-0.00788148,-0.0522856,0.264815,-0.211111,0.549249,-2.52808e-05,-1.78993e-05,0.419935,-0.05094222276804161,0.73195183350686,-2.5280480443257147e-05,0.30318986335143694,-1.7899139808430498e-05,-0.19031581305171896
547,0.5281,184.888,554.344,0.0895783,319.997,0.020045,-0.00496447,-0.0523673,0.265224,-0.211439,0.550099,-2.48247e-05,-1.7844e-05,0.420589,-0.05101975762109956,0.7334246184102509,-2.4824391869682216e-05,0.3037229770198613,-1.7843840796727406e-05,-0.19058134591526776
548,0.5291,184.773,554.1,-0.0429754,320.053,-0.0331459,-0.0155577,-0.0524489,0.265632,-0.211766,0.55095,-2.56081e-05,-1.80727e-05,0.421244,-0.051097191249542706,0.7349003906125271,-2.56077721153547e-05,0.3042550045207153,-1.8072536689728302e-05,-0.19084598254470653
549,0.5301,184.9,554.369,0.105597,319.994,0.0245777,-0.00322213,-0.0525305,0.266042,-0.212093,0.551797,-2.47857e-05,-1.78631e-05,0.421897,-0.051174618559659546,0.7363704737356909,-2.4785392837123332e-05,0.30478985871018516,-1.7862940455803944e-05,-0.19111053265211442
550,0.5311,184.741,554.035,-0.0826565,320.067,-0.0464865,-0.0200722,-0.0526119,0.266449,-0.21242,0.552648,-2.58414e-05,-1.8206e-05,0.422551,-0.05125184980235453,0.7378487539278475,-2.5841066113918565e-05,0.30532101626591057,-1.820583427181166e-05,-0.1913749962657798
551,0.5321,184.933,554.437,0.145045,319.98,0.0383258,0.000850044,-0.0526934,0.266858,-0.212746,0.553494,-2.46252e-05,-1.78447e-05,0.423204,-0.051329169625770055,0.7393195960521637,-2.462489680221669e-05,0.3058550017541519,-1.7844540784239804e-05,-0.19163856505295063
552,0.5331,184.701,553.951,-0.132274,320.086,-0.0640288,-0.0251093,-0.0527747,0.267265,-0.213073,0.554344,-2.61398e-05,-1.8353e-05,0.423857,-0.05140629342915437,0.7407986462160763,-2.613945835838738e-05,0.3063865929113283,-1.8352831584689255e-05,-0.19190285602824886
553,0.5341,184.981,554.539,0.203525,319.959,0.0593503,0.00660208,-0.0528562,0.267674,-0.213399,0.555188,-2.43602e-05,-1.77951e-05,0.424509,-0.051483600665927276,0.7422685004647231,-2.435990329274773e-05,0.3069210143095551,-1.7794941668092257e-05,-0.19216625276118338
554,0.5351,184.644,553.83,-0.202604,320.112,-0.0893782,-0.0320092,-0.0529373,0.268079,-0.213726,0.556037,-2.65526e-05,-1.85355e-05,0.425161,-0.05156052222670182,0.743748314513794,-2.655224748282503e-05,0.3074504245186813,-1.8535328218716174e-05,-0.19243037121081052
555,0.5361,185.051,554.687,0.288122,319.928,0.0901262,0.0147589,-0.0530188,0.268489,-0.214051,0.556879,-2.39529e-05,-1.77007e-05,0.425812,-0.05163781689433977,0.7452171688955289,-2.3952613131594802e-05,0.30798658909896215,-1.7700543343490693e-05,-0.19269278869501594
556,0.5371,184.56,553.655,-0.303871,320.15,-0.12612,-0.0418251,-0.0530997,0.268893,-0.214377,0.557729,-2.71316e-05,-1.87726e-05,0.426464,-0.0517145362916116,0.7467012341274606,-2.7131231941424083e-05,0.3085151224375038,-1.8772423795887505e-05,-0.1929559279518721
557,0.5381,184.663,553.874,-0.180706,320.103,-0.0796429,-0.0318184,-0.0531807,0.2693,-0.214702,0.558573,-2.67439e-05,-1.87008e-05,0.427114,-0.051791344303405484,0.7481760722632091,-2.6743542385077035e-05,0.30904779648415137,-1.8700625141088167e-05,-0.1932181746578897
558,0.5391,184.858,554.283,0.0555573,320.016,0.005464,-0.00858375,-0.0532619,0.269707,-0.215027,0.559415,-2.56126e-05,-1.8338e-05,0.427764,-0.05186833572035421,0.74964865638697,-2.5612272000152814e-05,0.3095806873732603,-1.8337831859893683e-05,-0.1934803361475762
559,0.5401,184.734,554.022,-0.0946495,320.072,-0.0493265,-0.0224485,-0.0533428,0.270112,-0.215352,0.56026,-2.64646e-05,-1.86369e-05,0.428414,-0.05194503646940729,0.7511277343240372,-2.6464249815560947e-05,0.31011117496813334,-1.8636726334064768e-05,-0.19374241244862245
560,0.5411,184.922,554.416,0.131849,319.988,0.0329073,-0.000287649,-0.0534239,0.270519,-0.215677,0.561101,-2.52949e-05,-1.82621e-05,0.429062,-0.0520219206092557,0.7526010521919297,-2.5294580086709928e-05,0.3106444987403709,-1.8261933248830964e-05,-0.1940044035887104
561,0.5421,184.71,553.97,-0.124579,320.084,-0.0606202,-0.0248511,-0.0535047,0.270923,-0.216002,0.561946,-2.66859e-05,-1.8746e-05,0.429712,-0.052098514143649965,0.7540826259577911,-2.6685543934590328e-05,0.31117410609134355,-1.8745824294841285e-05,-0.1942663095955126
562,0.5431,184.97,554.517,0.189252,319.968,0.0538608,0.00529467,-0.0535857,0.27133,-0.216325,0.562785,-2.50361e-05,-1.82172e-05,0.43036,-0.052175291054497475,0.7555549188214612,-2.503578659951433e-05,0.31170786256459704,-1.8217034067791182e-05,-0.19452651955134315
563,0.5441,184.659,553.864,-0.185982,320.108,-0.0831233,-0.0306956,-0.0536663,0.271733,-0.21665,0.56363,-2.70589e-05,-1.89119e-05,0.431008,-0.052251682647415865,0.7570389896594891,-2.7058533911272775e-05,0.31223658736410176,-1.8911721171188667e-05,-0.19478825589802873
564,0.5451,185.034,554.651,0.265681,319.939,0.0819004,0.0125773,-0.0537473,0.27214,-0.216973,0.564467,-2.46696e-05,-1.81383e-05,0.431655,-0.05232844715211704,0.7585102469291085,-2.466929570787979e-05,0.31277077635524475,-1.8138135501999386e-05,-0.19504829729242767
565,0.5461,184.585,553.707,-0.276408,320.142,-0.116156,-0.039378,-0.0538277,0.272542,-0.217298,0.565312,-2.75843e-05,-1.913e-05,0.432303,-0.052404636882097844,0.7599968160747737,-2.758391955670625e-05,0.31329861629605915,-1.9129817022678353e-05,-0.19530986408890083
566,0.5471,185.125,554.843,0.374891,319.899,0.122011,0.0229673,-0.0539087,0.272949,-0.21762,0.566146,-2.41259e-05,-1.80013e-05,0.432949,-0.052481388998007694,0.7614652656777487,-2.412560897280258e-05,0.3138332376209514,-1.800113797756353e-05,-0.19556893260039543
567,0.5481,184.964,554.517,0.17987,319.965,0.0560465,-0.00158929,-0.0539894,0.273352,-0.217944,0.566987,-2.48413e-05,-1.83802e-05,0.433595,-0.0525578506646458,0.7629472810663045,-2.484099145749763e-05,0.31436281911921715,-1.8380031085118986e-05,-0.19582952604781478
568,0.5491,184.833,554.224,0.0261005,320.035,-0.00969655,-0.00791409,-0.0540699,0.273755,-0.218267,0.567827,-2.57195e-05,-1.85364e-05,0.434242,-0.05263411668791873,0.7644287789243884,-2.5719169256532837e-05,0.3148926140818369,-1.8536228202026273e-05,-0.19608923116626675
569,0.5501,184.887,554.344,0.0839308,320.006,0.0181372,-0.0056172,-0.0541504,0.274159,-0.21859,0.568664,-2.53072e-05,-1.8492e-05,0.434887,-0.05271037657202382,0.7659062240368733,-2.530687977553292e-05,0.3154239380181343,-1.8491829024025463e-05,-0.19634885241351152
570,0.5511,184.781,554.12,-0.0374334,320.057,-0.030965,-0.0152307,-0.0542308,0.274561,-0.218913,0.569503,-2.6032e-05,-1.87058e-05,0.435532,-0.05278653559611368,0.7673884410619354,-2.603166117043365e-05,0.3159528447443467,-1.8705625047577e-05,-0.19660838981663487
571,0.5521,184.897,554.362,0.0962528,320.003,0.0213853,-0.00424109,-0.0543113,0.274965,-0.219235,0.570339,-2.52873e-05,-1.85181e-05,0.436177,-0.05286278321099047,0.7688665955811627,-2.528698027892684e-05,0.3164845971003669,-1.8517928541017525e-05,-0.1968670402701561
572,0.5531,184.754,554.062,-0.0721233,320.069,-0.0425922,-0.0192356,-0.0543916,0.275367,-0.219558,0.571177,-2.62406e-05,-1.88313e-05,0.436821,-0.05293883527596732,0.7703495270497633,-2.624025571851263e-05,0.31701393029724523,-1.8831122692186675e-05,-0.19712641032562994
573,0.5541,184.924,554.419,0.129482,319.992,0.0329512,-0.000785897,-0.0544719,0.27577,-0.219879,0.572011,-2.51587e-05,-1.85106e-05,0.437465,-0.05301488123420861,0.7718266144151378,-2.515838352257216e-05,0.31754479387298096,-1.8510428679952007e-05,-0.19738409138789226
574,0.5551,184.72,553.992,-0.113843,320.085,-0.0573637,-0.0234955,-0.0545521,0.276171,-0.220202,0.572849,-2.64989e-05,-1.89656e-05,0.438109,-0.053090826395291946,0.7733120274191394,-2.6498548907238906e-05,0.31807323528074494,-1.896542015411562e-05,-0.1976432944628238
575,0.5561,184.964,554.504,0.177977,319.974,0.0504322,0.00399143,-0.0546324,0.276574,-0.220523,0.573681,-2.49452e-05,-1.84781e-05,0.438751,-0.05316686014913641,0.7747880369607774,-2.4944888871059057e-05,0.3186045258424208,-1.8477929281002226e-05,-0.19790080963190537
576,0.5571,184.673,553.892,-0.171658,320.106,-0.0782819,-0.0291753,-0.0547124,0.276974,-0.220845,0.574519,-2.68474e-05,-1.91277e-05,0.439394,-0.05324260377053913,0.7762759326769835,-2.684703961175483e-05,0.3191320731551863,-1.9127517066674926e-05,-0.19815904399324047
577,0.5581,185.021,554.624,0.246752,319.949,0.075551,0.0106189,-0.0547926,0.277377,-0.221165,0.575349,-2.46203e-05,-1.84106e-05,0.440036,-0.05331853066900749,0.7777508537086606,-2.4619996922936593e-05,0.31966379051451943,-1.8410430525972465e-05,-0.1984155920492845
578,0.5591,184.606,553.751,-0.253256,320.137,-0.108031,-0.0370797,-0.0548724,0.277776,-0.221487,0.576186,-2.73249e-05,-1.93322e-05,0.440679,-0.05339407283608755,0.7792394540655585,-2.7324526678307315e-05,0.32019044142680486,-1.9332013134198966e-05,-0.1986736606773657
579,0.5601,185.102,554.795,0.344289,319.913,0.111372,0.0199361,-0.0549527,0.27818,-0.221807,0.577014,-2.41388e-05,-1.82922e-05,0.441319,-0.05347008224022032,0.7807132744109455,-2.4138508661564195e-05,0.3207239061177529,-1.829203269876345e-05,-0.19893004408241632
580,0.5611,184.951,554.49,0.162029,319.975,0.0495514,-0.00304665,-0.0550327,0.278579,-0.222128,0.577847,-2.48199e-05,-1.8654e-05,0.44196,-0.05354580160482614,0.7821972265487871,-2.4819591988856082e-05,0.32125098010056097,-1.8653826015180286e-05,-0.19918714627115686
581,0.5621,184.837,554.233,0.028158,320.037,-0.0085214,-0.00795173,-0.0551125,0.278979,-0.222448,0.578681,-2.55957e-05,-1.87865e-05,0.442601,-0.0536213256364092,0.7836841990170587,-2.5595372432851704e-05,0.32177958620677427,-1.8786323534802918e-05,-0.19944336538710516
582,0.5631,184.88,554.329,0.0734902,320.012,0.0143311,-0.00661286,-0.0551924,0.279379,-0.222769,0.579511,-2.52588e-05,-1.87616e-05,0.443241,-0.053696938271725836,0.7851652714622817,-2.5258480999212907e-05,0.3223084037977244,-1.8761424002256e-05,-0.1997003028261507
583,0.5641,184.792,554.141,-0.0276973,320.056,-0.0271769,-0.0144174,-0.0552722,0.279778,-0.223089,0.580343,-2.58741e-05,-1.89432e-05,0.443881,-0.05377245024308397,0.7866511470066517,-2.5873765268413784e-05,0.32283611012125024,-1.89430205786989e-05,-0.19995635775827225
584,0.5651,184.887,554.342,0.0823591,320.011,0.0163841,-0.00556202,-0.0553519,0.280178,-0.223408,0.581172,-2.52577e-05,-1.87943e-05,0.44452,-0.053847861573618205,0.7881328949071651,-2.525738102698849e-05,0.3233653504062992,-1.879412338823272e-05,-0.20021153097785493
585,0.5661,184.769,554.094,-0.056214,320.066,-0.0366495,-0.0177795,-0.0554316,0.280577,-0.223728,0.582003,-2.60516e-05,-1.90576e-05,0.445159,-0.05392326689410887,0.7896194509213104,-2.6051260660020503e-05,0.32389347853566663,-1.9057418405132864e-05,-0.20046742234313997
586,0.5671,184.908,554.387,0.108794,320.002,0.0255242,-0.00277799,-0.0555113,0.280977,-0.224047,0.58283,-2.51645e-05,-1.87989e-05,0.445797,-0.053998666205034906,0.7911000783622819,-2.5164183376613636e-05,0.3244231418526822,-1.8798723301793885e-05,-0.20072243255912048
587,0.5681,184.743,554.038,-0.0894558,320.078,-0.0483908,-0.0212057,-0.0555907,0.281375,-0.224367,0.583661,-2.62657e-05,-1.9177e-05,0.446436,-0.0540737757290507,0.7925891011306729,-2.6265355059562623e-05,0.3249503671740188,-1.917681612251254e-05,-0.20097816046205497
588,0.5691,184.94,554.454,0.147025,319.989,0.0392986,0.00100325,-0.0556704,0.281774,-0.224685,0.584486,-2.5005e-05,-1.87845e-05,0.447073,-0.05414916304490058,0.7940685973473798,-2.5004687377538914e-05,0.32547912785126143,-1.878432357238502e-05,-0.20123220901116778
589,0.5701,184.705,553.96,-0.134827,320.095,-0.0648252,-0.025678,-0.0557497,0.282171,-0.225004,0.585316,-2.65488e-05,-1.93173e-05,0.447711,-0.05422416604236302,0.7955582924211129,-2.6548447583762957e-05,0.32600544753256244,-1.9317113422179233e-05,-0.20148697529910986
590,0.5711,184.984,554.548,0.200588,319.969,0.0588899,0.00616864,-0.0558293,0.282571,-0.225322,0.58614,-2.47607e-05,-1.87435e-05,0.448347,-0.05429944680253207,0.7970384421920247,-2.476039345644665e-05,0.3265359558061567,-1.874332434170789e-05,-0.20174086207082853
591,0.5721,184.653,553.85,-0.198089,320.119,-0.0879478,-0.0318096,-0.0559085,0.282966,-0.225641,0.58697,-2.69296e-05,-1.94896e-05,0.448984,-0.05437434332040403,0.7985306032602248,-2.692923740155173e-05,0.32706004100871344,-1.948941007900995e-05,-0.2019954661243224
592,0.5731,185.047,554.68,0.275652,319.941,0.0865132,0.0133378,-0.055988,0.283366,-0.225959,0.587792,-2.43988e-05,-1.86642e-05,0.449619,-0.05444951757189398,0.8000096032018027,-2.4398502351696827e-05,0.327590971204077,-1.8664025824954855e-05,-0.20224919122166618
593,0.5741,184.58,553.696,-0.286539,320.153,-0.120376,-0.0403336,-0.056067,0.283761,-0.226278,0.588622,-2.74464e-05,-1.97077e-05,0.450256,-0.05452421310949318,0.8015042313573406,-2.7446023351029858e-05,0.3281154732200311,-1.9707505804600345e-05,-0.2025036331440222
594,0.5751,184.682,553.915,-0.164108,320.105,-0.0738634,-0.0303868,-0.0561462,0.284158,-0.226595,0.589446,-2.70356e-05,-1.9626e-05,0.450891,-0.05459909182657863,0.8029892826010654,-2.7035234541505915e-05,0.32864283973822683,-1.9625807411327578e-05,-0.20275639942674306
595,0.5761,184.856,554.279,0.0461341,320.028,0.00228395,-0.00959023,-0.0562254,0.284556,-0.226912,0.590269,-2.60252e-05,-1.9297e-05,0.451525,-0.05467396461350438,0.8044737535566548,-2.6024861347395678e-05,0.3291717448335749,-1.9296813814073666e-05,-0.203009085595251
596,0.5771,184.753,554.061,-0.0793728,320.075,-0.043778,-0.0211462,-0.0563044,0.284951,-0.22723,0.591094,-2.67485e-05,-1.95578e-05,0.45216,-0.054748642420487714,0.8059630586572215,-2.6748142262111863e-05,0.32969687137844916,-1.9557608747500232e-05,-0.20326248841284833
597,0.5781,184.91,554.393,0.111063,320.004,0.0258256,-0.00250331,-0.0563836,0.285349,-0.227547,0.591916,-2.57604e-05,-1.92392e-05,0.452794,-0.05482350336347552,0.8074481705888192,-2.5760068203761755e-05,0.3302261960618824,-1.9239014927729947e-05,-0.20351501417657325
598,0.5791,184.736,554.025,-0.0997016,320.083,-0.0516296,-0.0226627,-0.0564625,0.285743,-0.227864,0.59274,-2.69185e-05,-1.96513e-05,0.453428,-0.05489807484717646,0.8089381216569211,-2.691813770039353e-05,0.3307504084461892,-1.9651106914486682e-05,-0.2037674599023177
599,0.5801,184.947,554.469,0.154626,319.988,0.0418611,0.00172067,-0.0565416,0.286141,-0.22818,0.59356,-2.55727e-05,-1.9218e-05,0.45406,-0.05497282945287241,0.8104220592479421,-2.5572373021254258e-05,0.33128015252082865,-1.9217815335426103e-05,-0.2040190296348774
600,0.5811,184.699,553.947,-0.144432,320.101,-0.0681915,-0.0268976,-0.0566204,0.286534,-0.228497,0.594385,-2.7205e-05,-1.97901e-05,0.454694,-0.055047294659943846,0.8119162737255439,-2.7204629947319425e-05,0.33180344844168275,-1.978990417728088e-05,-0.20427131561304301
601,0.5821,184.993,554.567,0.20984,319.967,0.0622888,0.00695783,-0.0566994,0.286931,-0.228813,0.595203,-2.53169e-05,-1.91753e-05,0.455325,-0.05512194297501849,0.8133990276011076,-2.5316579529977012e-05,0.33233227937670895,-1.917511615512346e-05,-0.204522726152352
602,0.5831,184.646,553.835,-0.208646,320.125,-0.0918663,-0.0330439,-0.056778,0.287324,-0.22913,0.596027,-2.75945e-05,-1.99648e-05,0.455958,-0.055196207471667647,0.814893884196187,-2.7594119275331508e-05,0.3328559888646778,-1.996460070474715e-05,-0.20477485248402683
603,0.5841,185.056,554.701,0.2861,319.939,0.0905199,0.0141865,-0.056857,0.287721,-0.229445,0.596843,-2.49462e-05,-1.90943e-05,0.456589,-0.05527084402309479,0.8163754419990661,-2.494588884616178e-05,0.3333852377412079,-1.9094117705065194e-05,-0.20502530895652893
604,0.5851,184.572,553.679,-0.298028,320.159,-0.124785,-0.0416184,-0.0569355,0.288113,-0.229762,0.597668,-2.8119e-05,-2.0186e-05,0.457222,-0.055345002351086525,0.8178745700440051,-2.8118604664673086e-05,0.3339080272144448,-2.0185796264060585e-05,-0.20527727599470413
605,0.5861,184.68,553.91,-0.167862,320.109,-0.0754823,-0.030808,-0.0570141,0.288508,-0.230077,0.598486,-2.76736e-05,-2.00897e-05,0.457852,-0.055419249315957764,0.8193621997999205,-2.7673217089518864e-05,0.3344350249603971,-2.008949820331285e-05,-0.20552757422872436
606,0.5871,184.855,554.279,0.0440043,320.03,0.00162161,-0.0100246,-0.0570927,0.288903,-0.230392,0.599303,-2.66511e-05,-1.97583e-05,0.458482,-0.055493490445246985,0.82084922608468,-2.665074486263297e-05,0.3349622309115772,-1.9758104806033572e-05,-0.2057777936312174
607,0.5881,184.754,554.063,-0.079106,320.077,-0.0438058,-0.0212754,-0.0571712,0.289296,-0.230707,0.600122,-2.73662e-05,-2.00161e-05,0.459112,-0.055567631296180475,0.8223411124449163,-2.736582554896394e-05,0.3354869741736224,-2.0015899679259874e-05,-0.20602793422701138
608,0.5891,184.91,554.392,0.109,320.006,0.0251968,-0.00291058,-0.0572498,0.28969,-0.231022,0.600938,-2.63867e-05,-1.97004e-05,0.459742,-0.0556418607631044,0.8238287496661114,-2.6386351874130298e-05,0.33601325971289,-1.9700205948436356e-05,-0.20627799604092645
609,0.5901,184.739,554.03,-0.0976968,320.084,-0.0510119,-0.0226304,-0.0573282,0.290082,-0.231337,0.601757,-2.75274e-05,-2.01077e-05,0.460371,-0.055715895539019455,0.8253230772557079,-2.7527021124629236e-05,0.3365370795726823,-2.0107497841537203e-05,-0.2065279790977751
610,0.5911,184.945,554.466,0.15084,319.991,0.0406107,0.00115741,-0.0574067,0.290476,-0.231651,0.602571,-2.62084e-05,-1.96824e-05,0.461,-0.055790018931838325,0.8268094951305944,-2.6208056562837534e-05,0.3370637789349946,-1.968220630288453e-05,-0.20677709019984858
611,0.5921,184.704,553.956,-0.14,320.101,-0.0667064,-0.026637,-0.057485,0.290868,-0.231966,0.60339,-2.78018e-05,-2.02434e-05,0.461629,-0.05586394767900782,0.8283062649506834,-2.7801413533534713e-05,0.3375880106790461,-2.024319510374184e-05,-0.2070269160667958
612,0.5931,184.988,554.557,0.202983,319.971,0.0599382,0.00610164,-0.0575635,0.291262,-0.232279,0.604202,-2.59688e-05,-1.96453e-05,0.462256,-0.055938059450189925,0.8297914525423813,-2.5968462813663606e-05,0.3381151241897964,-1.9645107032340015e-05,-0.20727507780272925
613,0.5941,184.654,553.851,-0.200296,320.124,-0.088987,-0.0324078,-0.0576415,0.291652,-0.232594,0.605021,-2.81714e-05,-2.04124e-05,0.462885,-0.056011693409791063,0.8312906655859538,-2.8171003189858546e-05,0.3386370908651162,-2.0412191668373048e-05,-0.20752474682828537
614,0.5951,185.048,554.683,0.274257,319.944,0.0863809,0.012852,-0.05772,0.292046,-0.232907,0.605831,-2.56245e-05,-1.95732e-05,0.463511,-0.0560857935833885,0.8327746119422179,-2.562417169527098e-05,0.3391646177948977,-1.9573008446127638e-05,-0.2077727527675739
615,0.5961,184.585,553.706,-0.283448,320.156,-0.119686,-0.0403812,-0.0577979,0.292435,-0.233221,0.60665,-2.8664e-05,-2.06241e-05,0.464139,-0.05615932163611348,0.8342762691941055,-2.866358919151324e-05,0.33968565416622387,-2.06238873247111e-05,-0.20802147307207353
616,0.5971,185.129,554.856,0.372347,319.907,0.122806,0.0221392,-0.0578764,0.29283,-0.233533,0.607458,-2.51336e-05,-1.94521e-05,0.464764,-0.05623341022135009,0.8357589633473859,-2.513328415376659e-05,0.3402149345256089,-1.945191080909847e-05,-0.20826853182930471
617,0.5981,184.963,554.516,0.17106,319.978,0.0533429,-0.00248528,-0.0579545,0.293221,-0.233847,0.608272,-2.59124e-05,-1.98483e-05,0.46539,-0.056307115513782646,0.8372538794918776,-2.5912064276711888e-05,0.3407390610250616,-1.984810302380069e-05,-0.20851709648361738
618,0.5991,184.843,554.245,0.0302702,320.042,-0.00752692,-0.00813476,-0.0580325,0.293611,-0.23416,0.609086,-2.67252e-05,-1.99988e-05,0.466016,-0.05638072068813349,0.8387500129935082,-2.672484288501753e-05,0.3412620512353235,-1.9998600025328273e-05,-0.20876479186606844
619,0.6001,184.884,554.337,0.0725515,320.019,0.0141921,-0.0070581,-0.0581105,0.294002,-0.234473,0.609897,-2.6403e-05,-1.99769e-05,0.466642,-0.05645432012150453,0.8402418441097961,-2.6402651443824254e-05,0.34178658723746236,-1.9976700463053554e-05,-0.20901240973199675
620,0.6011,184.797,554.151,-0.0266484,320.061,-0.0267036,-0.0147523,-0.0581884,0.294392,-0.234786,0.61071,-2.70102e-05,-2.01611e-05,0.467267,-0.05652781946713037,0.841738569065311,-2.7009835227853607e-05,0.34230998606262175,-2.016089676637467e-05,-0.20925995010566123
621,0.6021,184.887,554.343,0.0780995,320.018,0.0150678,-0.00635557,-0.0582663,0.294783,-0.235098,0.61152,-2.64189e-05,-2.0017e-05,0.467891,-0.056601313087380256,0.8432309816517538,-2.641855102392121e-05,0.3428349318873931,-2.0016799661237705e-05,-0.20950662251833085
622,0.6031,184.777,554.109,-0.0522974,320.07,-0.0352164,-0.0178289,-0.0583441,0.295172,-0.23541,0.612331,-2.71743e-05,-2.02728e-05,0.468516,-0.05667470665017549,0.8447264483076355,-2.71739307821095e-05,0.34335739628863493,-2.0272594508208286e-05,-0.2097532179812126
623,0.6041,184.905,554.381,0.100316,320.011,0.0227417,-0.00399717,-0.058422,0.295563,-0.235722,0.61314,-2.63474e-05,-2.00301e-05,0.469139,-0.056748188828359414,0.8462194358363444,-2.6347052910269397e-05,0.3438827517308798,-2.002989939886568e-05,-0.20999973651831083
624,0.6051,184.754,554.062,-0.0802594,320.081,-0.0451255,-0.0207366,-0.0584996,0.295951,-0.236034,0.613951,-2.73624e-05,-2.03854e-05,0.469763,-0.05682138232896172,0.8477173271116203,-2.736202565289947e-05,0.34440427940837814,-2.0385192219141146e-05,-0.2102461781536229
625,0.6061,184.931,554.436,0.131741,319.999,0.0341182,-0.000887315,-0.0585774,0.296342,-0.236345,0.614758,-2.62233e-05,-2.00284e-05,0.470385,-0.056894758771036,0.8492090368185099,-2.622295617227266e-05,0.3449300442619574,-2.002819943291989e-05,-0.2104917534032864
626,0.6071,184.724,553.998,-0.11702,320.094,-0.0585265,-0.0243708,-0.0586549,0.296729,-0.236657,0.615569,-2.76021e-05,-2.05132e-05,0.471008,-0.056967846595041394,0.8507093536436097,-2.760171906557307e-05,0.3454506329164939,-2.0512989605703247e-05,-0.21073804155327536
627,0.6081,184.966,554.511,0.174386,319.984,0.0498205,0.00321592,-0.0587327,0.29712,-0.236968,0.616374,-2.6036e-05,-2.00071e-05,0.47163,-0.05704121164263898,0.8521997744871965,-2.6035661066292626e-05,0.34597680697428923,-2.000689985925952e-05,-0.2109834638572059
628,0.6091,184.683,553.912,-0.166622,320.113,-0.0767959,-0.0291788,-0.05881,0.297506,-0.23728,0.617184,-2.7913e-05,-2.06644e-05,0.472252,-0.05711409953982549,0.853700664082756,-2.791261043588733e-05,0.3464964543072644,-2.0664186492713732e-05,-0.21122959861746315
629,0.6101,185.014,554.613,0.232256,319.962,0.0712724,0.00872579,-0.0588877,0.297897,-0.23759,0.617988,-2.57644e-05,-1.99581e-05,0.472873,-0.05718735892812721,0.8551916387081622,-2.5764068100730952e-05,0.3470230373611769,-1.9957900838418752e-05,-0.2114740795453901
630,0.6111,184.628,553.794,-0.233798,320.139,-0.101628,-0.0356439,-0.0589649,0.298282,-0.237901,0.618798,-2.83202e-05,-2.08483e-05,0.473495,-0.05726014125458401,0.856694952695487,-2.8319798986875533e-05,0.34754174107461866,-2.084808267566185e-05,-0.21171927297709658
631,0.6121,185.08,554.751,0.31082,319.932,0.100487,0.0161746,-0.0590426,0.298673,-0.238211,0.619599,-2.53788e-05,-1.98712e-05,0.474115,-0.05733338929588516,0.8581827611403301,-2.5378477961024437e-05,0.34806873291556983,-1.9871002569060714e-05,-0.21196360212949839
632,0.6131,184.553,553.635,-0.324746,320.174,-0.135283,-0.044377,-0.0591196,0.299057,-0.238522,0.62041,-2.88566e-05,-2.10769e-05,0.474736,-0.057405971830446045,0.8596903586077564,-2.885618365233711e-05,0.3485864907121441,-2.107667788375789e-05,-0.21220864334335232
633,0.6141,184.676,553.899,-0.175942,320.116,-0.0790095,-0.031585,-0.0591969,0.299445,-0.238832,0.621214,-2.83229e-05,-2.09446e-05,0.475356,-0.05747883153275968,0.8611861508839969,-2.8322498910493543e-05,0.34910984379447285,-2.094438066335691e-05,-0.21245282081445238
634,0.6151,184.854,554.274,0.0384621,320.035,-9.45926e-05,-0.0109498,-0.0592742,0.299834,-0.239141,0.622017,-2.72776e-05,-2.0609e-05,0.475975,-0.05755168560323609,0.862681283578594,-2.7277227969690898e-05,0.34963474961127106,-2.06087876359895e-05,-0.21269613529879683
635,0.6161,184.758,554.07,-0.0776908,320.08,-0.0434961,-0.02138,-0.0593513,0.30022,-0.239451,0.622822,-2.79654e-05,-2.08573e-05,0.476594,-0.05762434556719853,0.8641813457058742,-2.7965008971841954e-05,0.35015580918264866,-2.0857082488001666e-05,-0.2129401616708123
636,0.6171,184.908,554.387,0.103208,320.011,0.0234382,-0.00382462,-0.0594286,0.300607,-0.23976,0.623624,-2.70155e-05,-2.05508e-05,0.477213,-0.05769718838987481,0.8656770188298846,-2.701513508462927e-05,0.350678420599589,-2.055058883376759e-05,-0.21318332559009567
637,0.6181,184.746,554.044,-0.0919083,320.086,-0.0490694,-0.0223304,-0.0595056,0.300993,-0.24007,0.624428,-2.81039e-05,-2.09429e-05,0.477831,-0.05776974291298376,0.8671776263163986,-2.8103505089083214e-05,0.35119988310572947,-2.0942680698965432e-05,-0.213427200956528
638,0.6191,184.939,554.453,0.140647,319.997,0.0372591,-0.000159863,-0.0595828,0.30138,-0.240379,0.625229,-2.68608e-05,-2.05405e-05,0.478449,-0.05784248028113237,0.868673834746557,-2.6860439251930046e-05,0.35172289865747297,-2.0540289045412052e-05,-0.2136702144039212
639,0.6201,184.716,553.981,-0.128182,320.1,-0.0625958,-0.0257693,-0.0596596,0.301765,-0.240688,0.626033,-2.83474e-05,-2.10701e-05,0.479067,-0.05791483520018237,0.8701768526419225,-2.8346998216299824e-05,0.35224341216587707,-2.1069878026969135e-05,-0.21391315277175948
640,0.6211,184.976,554.532,0.185259,319.981,0.0538723,0.00406613,-0.0597368,0.302152,-0.240996,0.626832,-2.6661e-05,-2.05169e-05,0.479683,-0.05798756136763872,0.8716717210675924,-2.6660644598663907e-05,0.3527668316415211,-2.0516689529848087e-05,-0.21415523023886218
641,0.6221,184.674,553.892,-0.179011,320.119,-0.0814864,-0.0306344,-0.0598135,0.302535,-0.241305,0.627636,-2.86682e-05,-2.12248e-05,0.480301,-0.05805981095087487,0.8731771502327608,-2.8667789071068484e-05,0.3532850405687147,-2.122457475550732e-05,-0.21439801875996
642,0.6231,185.026,554.636,0.244652,319.958,0.0760258,0.00967813,-0.0598906,0.302923,-0.241613,0.628433,-2.63795e-05,-2.04657e-05,0.480917,-0.05813243173988314,0.874670667509073,-2.637915206404884e-05,0.3538102170421027,-2.0465490578991385e-05,-0.21463994691133415
643,0.6241,184.618,553.772,-0.247502,320.146,-0.106928,-0.037196,-0.0599672,0.303305,-0.241922,0.629237,-2.9085e-05,-2.14129e-05,0.481534,-0.05820457603245022,0.8761785087967235,-2.9084577035543013e-05,0.35432747133429254,-2.1412670745513118e-05,-0.21488258567811847
644,0.6251,185.092,554.777,0.324434,319.928,0.105816,0.0172139,-0.0600443,0.303693,-0.242229,0.630031,-2.59856e-05,-2.03766e-05,0.482148,-0.058277185660500996,0.8776687860945016,-2.5985262377181684e-05,0.35485305234929365,-2.0376392398491205e-05,-0.21512357972983553
645,0.6261,184.542,553.61,-0.339324,320.181,-0.141024,-0.0459963,-0.0601206,0.304074,-0.242538,0.630836,-2.96286e-05,-2.16455e-05,0.482765,-0.0583490363700957,0.8791809180187486,-2.9628161077321913e-05,0.3553693497106405,-2.1645265737890718e-05,-0.2153660690771655
646,0.6271,184.673,553.892,-0.180586,320.119,-0.0810584,-0.03214,-0.0601973,0.304459,-0.242845,0.631634,-2.90486e-05,-2.14942e-05,0.48338,-0.05842125822926236,0.8806811028854793,-2.9048178093460386e-05,0.3558912673729824,-2.1493969001307178e-05,-0.21560691472226068
647,0.6281,184.852,554.272,0.0358426,320.037,-0.000972942,-0.0115065,-0.060274,0.304844,-0.243152,0.63243,-2.79884e-05,-2.11555e-05,0.483994,-0.05849347454922493,0.8821787210163161,-2.7988008328372338e-05,0.35641338601230976,-2.1155276224038566e-05,-0.21584768643909136
648,0.6291,184.759,554.072,-0.0773566,320.081,-0.043542,-0.0215736,-0.0603505,0.305227,-0.243459,0.633228,-2.86655e-05,-2.14e-05,0.484608,-0.058565497043526316,0.883681299084599,-2.8665089148449674e-05,0.3569329918373163,-2.1399771021668457e-05,-0.21608838425035004
649,0.6301,184.907,554.385,0.100847,320.013,0.0226682,-0.00433287,-0.0604271,0.305612,-0.243766,0.634024,-2.77261e-05,-2.1097e-05,0.485221,-0.05863760816456165,0.8851813063223486,-2.7725715635251724e-05,0.3574555116177771,-2.1096777459872484e-05,-0.21632900817872225
650,0.6311,184.749,554.05,-0.0896638,320.086,-0.0483935,-0.0223478,-0.0605035,0.305994,-0.244073,0.634822,-2.87944e-05,-2.14836e-05,0.485835,-0.05870952550402053,0.8866862814099892,-2.8793985445196846e-05,0.3579741586784968,-2.1483369229136073e-05,-0.21656955824688662
651,0.6321,184.937,554.448,0.136531,320.0,0.0358464,-0.000825892,-0.0605801,0.306378,-0.244379,0.635616,-2.75813e-05,-2.10904e-05,0.486448,-0.058781625592898235,0.8881849051923381,-2.7580919639391688e-05,0.35849572088896475,-2.1090177599103477e-05,-0.21680925128715767
652,0.6331,184.721,553.99,-0.123476,320.099,-0.0610288,-0.0255571,-0.0606563,0.30676,-0.244686,0.636414,-2.90255e-05,-2.16079e-05,0.487061,-0.05885334370053341,0.8896922781084835,-2.9025078764233214e-05,0.35901476538553156,-2.1607666551015647e-05,-0.21704965394331655
653,0.6341,184.971,554.521,0.178113,319.984,0.0513609,0.0031121,-0.0607328,0.307144,-0.244992,0.637206,-2.7398e-05,-2.10728e-05,0.487673,-0.058925338665897886,0.8911895072172094,-2.739762467818263e-05,0.3595367272657066,-2.107257797012707e-05,-0.21728920009677932
654,0.6351,184.682,553.908,-0.170517,320.118,-0.0785555,-0.0300614,-0.060809,0.307524,-0.245299,0.638004,-2.9327e-05,-2.17574e-05,0.488285,-0.05899704582301413,0.8926992787626962,-2.932656996779137e-05,0.36005344939305406,-2.1757163309543692e-05,-0.21752945543126878
655,0.6361,185.017,554.618,0.232791,319.964,0.0718045,0.00827297,-0.0608855,0.307909,-0.245604,0.638794,-2.71418e-05,-2.10306e-05,0.488896,-0.05906902979558659,0.8941951019652885,-2.714143166471228e-05,0.3605771707809684,-2.1030378858477583e-05,-0.21776807255640085
656,0.6371,184.63,553.798,-0.233232,320.142,-0.101916,-0.0360689,-0.0609614,0.308288,-0.245911,0.639592,-2.97141e-05,-2.19368e-05,0.489508,-0.059140443746031446,0.8957072729326265,-2.9713658540542198e-05,0.36109292725837316,-2.1936559390201005e-05,-0.2180081808996095
657,0.6381,185.077,554.746,0.305427,319.936,0.0989939,0.0151254,-0.0610379,0.308673,-0.246215,0.640381,-2.67863e-05,-2.09548e-05,0.490118,-0.0592124167490824,0.8972035761849799,-2.678594125027356e-05,0.36161704892231405,-2.0954580449705773e-05,-0.21824587028199938
658,0.6391,184.562,553.651,-0.316406,320.174,-0.132889,-0.0440362,-0.0611136,0.309051,-0.246522,0.641179,-3.02128e-05,-2.21555e-05,0.49073,-0.0592836316736155,0.8987181488729044,-3.0212343597901814e-05,0.36213183745570987,-2.2155254568723137e-05,-0.21848583196382
659,0.6401,184.686,553.918,-0.166977,320.115,-0.0761156,-0.0311839,-0.0611897,0.309433,-0.246826,0.64197,-2.96596e-05,-2.20151e-05,0.491339,-0.05935521746537131,0.9002206290812456,-2.9659160158401754e-05,0.3626522712141371,-2.2014857669505616e-05,-0.21872337616235538
660,0.6411,184.851,554.268,0.0331113,320.04,-0.00214479,-0.0119034,-0.0612658,0.309815,-0.247131,0.64276,-2.86815e-05,-2.1699e-05,0.491949,-0.05942679780965554,0.901722396498245,-2.86810886896971e-05,0.3631729038162368,-2.169876457835951e-05,-0.2189616291971911
661,0.6421,184.766,554.087,-0.0695489,320.079,-0.0407022,-0.0210795,-0.0613417,0.310195,-0.247436,0.643552,-2.92982e-05,-2.19266e-05,0.492558,-0.05949818460653855,0.9032291572347619,-2.9297770811953505e-05,0.3636910079532385,-2.192635961384415e-05,-0.21919980957593177
662,0.6431,184.9,554.371,0.092247,320.018,0.0194498,-0.00538106,-0.0614177,0.310576,-0.24774,0.644341,-2.84464e-05,-2.16516e-05,0.493167,-0.05956966002840802,0.9047313975957114,-2.8445995404968727e-05,0.36421067321721523,-2.1651365605834805e-05,-0.21943713675826126
663,0.6441,184.758,554.069,-0.0793433,320.083,-0.0446512,-0.0216317,-0.0614935,0.310955,-0.248045,0.645133,-2.94134e-05,-2.20066e-05,0.493776,-0.059640941946559,0.9062405424050655,-2.9412967430197945e-05,0.3647278070530364,-2.2006357856541037e-05,-0.21967517212931065
664,0.6451,184.926,554.426,0.123392,320.006,0.0309981,-0.00233422,-0.0615694,0.311337,-0.248349,0.645921,-2.83256e-05,-2.16544e-05,0.494384,-0.05971231249051889,0.9077432519422801,-2.832519883400053e-05,0.36524923266128106,-2.1654165545226256e-05,-0.21991235482338722
665,0.6461,184.734,554.018,-0.108318,320.095,-0.0555303,-0.0243736,-0.0616451,0.311715,-0.248653,0.646712,-2.96192e-05,-2.21233e-05,0.494992,-0.059783489574376736,0.9092528738313117,-2.9618761355876266e-05,0.3657653944196535,-2.2123055281597637e-05,-0.22014946542488345
666,0.6471,184.956,554.489,0.158999,319.992,0.0443266,0.00102549,-0.061721,0.312096,-0.248956,0.647499,-2.81747e-05,-2.16487e-05,0.495599,-0.05985484929938223,0.910756047264178,-2.8174303096872855e-05,0.3662858501754529,-2.1648465668544503e-05,-0.22038572434182624
667,0.6481,184.701,553.948,-0.14836,320.11,-0.070502,-0.028205,-0.0617965,0.312474,-0.249261,0.64829,-2.98839e-05,-2.22612e-05,0.496207,-0.05992582757879639,0.9122680532170822,-2.988345348076127e-05,0.36680240384931295,-2.226095222135349e-05,-0.2206234704377793
668,0.6491,184.995,554.571,0.205283,319.975,0.0616793,0.00538298,-0.0618724,0.312855,-0.249563,0.649074,-2.79643e-05,-2.16227e-05,0.496812,-0.05999717650075731,0.9137678592179348,-2.796390900261514e-05,0.3673232547809815,-2.1622466231052684e-05,-0.22085880661215607
669,0.6501,184.658,553.855,-0.201203,320.131,-0.090248,-0.0332646,-0.0619478,0.313232,-0.249867,0.649865,-3.02187e-05,-2.24239e-05,0.49742,-0.06006805004168303,0.9152822484565595,-3.0218243419644075e-05,0.36783883282838925,-2.2423648586178402e-05,-0.22109562953603779
670,0.6511,185.045,554.678,0.266103,319.952,0.0845021,0.0111105,-0.0620236,0.313613,-0.25017,0.650648,-2.76733e-05,-2.15693e-05,0.498025,-0.06013929418330277,0.9167825017296083,-2.7672917097820715e-05,0.368360078714733,-2.1569067384374918e-05,-0.2213316018086836
671,0.6521,184.6,553.733,-0.270546,320.157,-0.116153,-0.039903,-0.0620988,0.313988,-0.250474,0.651439,-3.0644e-05,-2.26185e-05,0.498632,-0.06020996905097187,0.9182992764938109,-3.064353047743662e-05,0.3688733099690966,-2.2618244203687077e-05,-0.2215682810246702
672,0.6531,185.112,554.82,0.345988,319.921,0.11451,0.0186332,-0.0621747,0.31437,-0.250775,0.65222,-2.72765e-05,-2.14798e-05,0.499235,-0.06028129640741353,0.9197980534249612,-2.7276127999686928e-05,0.36939631946195806,-2.147956931075612e-05,-0.22180255371227353
673,0.6541,184.95,554.487,0.150715,319.99,0.045935,-0.00477027,-0.0622502,0.314747,-0.251078,0.653006,-2.80737e-05,-2.1878e-05,0.499841,-0.060352242491286345,0.9213076078721345,-2.807330593734836e-05,0.36991267920209037,-2.1877760678301605e-05,-0.22203831181934175
674,0.6551,184.851,554.26,0.0341197,320.045,-0.00554503,-0.00892783,-0.0623255,0.315124,-0.251381,0.653793,-2.87619e-05,-2.20078e-05,0.500445,-0.06042299530355,0.9228202721148346,-2.8761486380535217e-05,0.37042923364654423,-2.2007557830105995e-05,-0.22227399850252483
675,0.6561,184.875,554.316,0.0572016,320.03,0.00839007,-0.00930316,-0.0624009,0.315502,-0.251683,0.654577,-2.85571e-05,-2.20173e-05,0.50105,-0.06049383673894837,0.924328354299143,-2.8556692249881444e-05,0.37094735381540533,-2.2017057621059877e-05,-0.22250883629268592
676,0.6571,184.812,554.182,-0.0132438,320.061,-0.0215747,-0.0145002,-0.0624761,0.315879,-0.251985,0.655361,-2.90078e-05,-2.21593e-05,0.501654,-0.06056448494601974,0.9258376192834807,-2.900737927780117e-05,0.37146429840572637,-2.215905448454958e-05,-0.22274360317254238
677,0.6581,184.874,554.312,0.0569914,320.031,0.00724808,-0.00916847,-0.0625514,0.316256,-0.252287,0.656144,-2.86058e-05,-2.20726e-05,0.502257,-0.06063522177702818,0.9273461406484227,-2.860539085802749e-05,0.37198143792089877,-2.20723564019476e-05,-0.22297829916350587
678,0.6591,184.799,554.155,-0.0300062,320.067,-0.0269986,-0.0166494,-0.0626266,0.316633,-0.252589,0.656928,-2.91291e-05,-2.22586e-05,0.50286,-0.060705859352344516,0.9288577725049509,-2.9128675751888267e-05,0.37249877243442353,-2.225835227920303e-05,-0.22321292428698158
679,0.6601,184.883,554.333,0.0693055,320.027,0.0113757,-0.00780261,-0.0627018,0.31701,-0.25289,0.65771,-2.8588e-05,-2.21075e-05,0.503463,-0.06077649161591481,0.930366729208224,-2.858759136703526e-05,0.3730163020198285,-2.2107255631009792e-05,-0.22344670201145866
680,0.6611,184.787,554.128,-0.0458592,320.072,-0.0325674,-0.0183686,-0.0627768,0.317386,-0.253191,0.658493,-2.92556e-05,-2.23532e-05,0.504065,-0.06084693073754355,0.931878798254973,-2.9255172059095003e-05,0.37353265321732976,-2.2352950169057806e-05,-0.2236804093794298
681,0.6621,184.897,554.363,0.0863042,320.021,0.0175138,-0.00610381,-0.062852,0.317763,-0.253492,0.659274,-2.85421e-05,-2.21355e-05,0.504667,-0.060917552392944496,0.9333881849351866,-2.8541692678185626e-05,0.37405057264927133,-2.213525501160163e-05,-0.22391404641206913
682,0.6631,184.771,554.094,-0.0653742,320.08,-0.0397127,-0.0203368,-0.0629269,0.318138,-0.253793,0.660056,-2.94056e-05,-2.2454e-05,0.505269,-0.0609878870342051,0.9349006858065689,-2.940516765959078e-05,0.3745659382390234,-2.245374791087773e-05,-0.22414761313054454
683,0.6641,184.915,554.401,0.108274,320.013,0.0256508,-0.00399553,-0.063002,0.318514,-0.254094,0.660835,-2.8467e-05,-2.21549e-05,0.50587,-0.06105840419593622,0.9364085606818229,-2.8466594818810087e-05,0.3750828722092976,-2.215465458199617e-05,-0.2243811095560173
684,0.6651,184.751,554.05,-0.0903972,320.09,-0.0490181,-0.0227838,-0.0630768,0.318889,-0.254395,0.661617,-2.95873e-05,-2.25649e-05,0.506471,-0.061128634400659965,0.9379234244107961,-2.9586862300146066e-05,0.37559862498397734,-2.2564645414613338e-05,-0.2246145357096424
685,0.6661,184.939,554.451,0.136674,320.002,0.036272,-0.00130898,-0.0631518,0.319265,-0.254695,0.662395,-2.83555e-05,-2.21624e-05,0.507071,-0.06119904711257018,0.9394317154841365,-2.8355097986598743e-05,0.3761159473174751,-2.2162154415861224e-05,-0.2248471164600726
686,0.6671,184.724,553.993,-0.122702,320.102,-0.0611004,-0.0259032,-0.0632265,0.319639,-0.254995,0.663177,-2.981e-05,-2.26898e-05,0.507672,-0.06126917292451928,0.940948944244772,-2.9809555686322042e-05,0.3766307109365685,-2.2689542588438805e-05,-0.2250796274467428
687,0.6681,184.97,554.516,0.173435,319.988,0.0500758,0.00215262,-0.0633015,0.320015,-0.255295,0.663953,-2.81971e-05,-2.21541e-05,0.508271,-0.061339575096435506,0.942455705173135,-2.8196702465566048e-05,0.3771484214073497,-2.2153854599693545e-05,-0.22531206869057885
688,0.6691,184.69,553.92,-0.164442,320.118,-0.0767438,-0.0299117,-0.063376,0.320388,-0.255595,0.664734,-3.0085e-05,-2.28331e-05,0.508871,-0.0614095026932554,0.943973355644242,-3.008454745090372e-05,0.37766219358108843,-2.2832839326802912e-05,-0.22554444021250064
689,0.6701,185.009,554.601,0.221003,319.97,0.0679739,0.00662637,-0.063451,0.320764,-0.255894,0.665509,-2.79785e-05,-2.21253e-05,0.509469,-0.061479894340833674,0.9454805189452087,-2.797810860544203e-05,0.37818029196226655,-2.2125055237354196e-05,-0.22577596780977638
690,0.6711,184.645,553.825,-0.218324,320.139,-0.0969521,-0.0350738,-0.0635254,0.321136,-0.256195,0.66629,-3.04272e-05,-2.30002e-05,0.510069,-0.06154971763923578,0.9470005327186211,-3.042673709741095e-05,0.37869307040175304,-2.2999935497480806e-05,-0.2260089741742486
691,0.6721,185.06,554.709,0.28249,319.946,0.0911411,0.0124071,-0.0636003,0.321513,-0.256493,0.667063,-2.76822e-05,-2.20699e-05,0.510666,-0.06162000493309261,0.9485061459749653,-2.768181685142146e-05,0.3792129356777416,-2.2069656461565224e-05,-0.2262395891366087
692,0.6731,184.588,553.702,-0.287778,320.166,-0.123003,-0.0417217,-0.0636745,0.321883,-0.256793,0.667844,-3.08554e-05,-2.31978e-05,0.511266,-0.06168963014559925,0.9500285236860855,-3.08549239770306e-05,0.37972333888271237,-2.3197530933161126e-05,-0.22647168244413085
693,0.6741,184.704,553.953,-0.147607,320.11,-0.0692214,-0.0298604,-0.063749,0.322257,-0.257092,0.668619,-3.03179e-05,-2.3063e-05,0.511863,-0.06175953166428949,0.9515403815611971,-3.0317440417149122e-05,0.38023945191857633,-2.3062734051060296e-05,-0.22670293283742338
694,0.6751,184.848,554.259,0.0271078,320.044,-0.00450449,-0.0128008,-0.0638236,0.322632,-0.25739,0.669394,-2.94642e-05,-2.27821e-05,0.51246,-0.06182952179256307,0.9530534115803093,-2.9463765934711894e-05,0.38075713877326445,-2.2781840489982663e-05,-0.2269333410309119
695,0.6761,184.779,554.111,-0.0569258,320.077,-0.0361206,-0.0203347,-0.0638979,0.323004,-0.257689,0.67017,-2.99774e-05,-2.29797e-05,0.513057,-0.061899225269577696,0.9545695692207772,-2.9976950682186754e-05,0.38127087597808385,-2.2979435968739637e-05,-0.22716445340892133
696,0.6771,184.89,554.347,0.077161,320.026,0.0139234,-0.00727935,-0.0639724,0.323378,-0.257987,0.670943,-2.92717e-05,-2.27519e-05,0.513653,-0.061969111174012825,0.9560810356042799,-2.9271271587916203e-05,0.3817875679010665,-2.2751641177487514e-05,-0.22739472408977002
697,0.6781,184.775,554.101,-0.0619607,320.079,-0.0383248,-0.0204694,-0.0640467,0.323749,-0.258285,0.671718,-3.00664e-05,-2.30529e-05,0.51425,-0.0620388042799217,0.9575975859942429,-3.0065948010360444e-05,0.38230030619583033,-2.3052634283926565e-05,-0.22762492616017915
698,0.6791,184.91,554.388,0.100516,320.017,0.0226528,-0.00501193,-0.0641211,0.324123,-0.258583,0.672491,-2.91924e-05,-2.27708e-05,0.514845,-0.06210858599697122,0.9591113939396085,-2.9191973906050883e-05,0.3828173831977195,-2.2770540747285573e-05,-0.22785505964059183
699,0.6801,184.758,554.065,-0.0824592,320.087,-0.0461089,-0.0224009,-0.0641952,0.324494,-0.258881,0.673266,-3.02277e-05,-2.31564e-05,0.515441,-0.06217808117592061,0.960630293767571,-3.0227243147717964e-05,0.3833305036248398,-2.3156131892632104e-05,-0.22808512455144458
700,0.6811,184.931,554.433,0.125761,320.007,0.0321736,-0.00265221,-0.0642696,0.324867,-0.259179,0.674037,-2.90981e-05,-2.27858e-05,0.516036,-0.0622478525311545,0.9621425226133751,-2.9097676654377125e-05,0.3838465821453523,-2.2785540405578786e-05,-0.2283151209131683
701,0.6821,184.735,554.016,-0.110368,320.098,-0.0566343,-0.025072,-0.0643436,0.325237,-0.259477,0.674811,-3.04284e-05,-2.32745e-05,0.516631,-0.06231724362256519,0.96366180881379,-3.04279370609839e-05,0.38435870011672835,-2.327422915093802e-05,-0.22854504874618753
702,0.6831,184.957,554.489,0.157578,319.995,0.0441839,0.000321172,-0.0644179,0.32561,-0.259773,0.675581,-2.89668e-05,-2.27882e-05,0.517225,-0.06238691086319392,0.9651744106835614,-2.8966380466344255e-05,0.38487516222606755,-2.2787940350932345e-05,-0.22877336561919448
703,0.6841,184.705,553.952,-0.146241,320.112,-0.0701464,-0.0285087,-0.0644918,0.32598,-0.260071,0.676355,-3.0673e-05,-2.34085e-05,0.51782,-0.06245619791029322,0.9666960444737427,-3.0672529588327e-05,0.38538766084248843,-2.3408226023202694e-05,-0.22900315691563622
704,0.6851,184.991,554.561,0.198226,319.979,0.059535,0.0041272,-0.0645661,0.326353,-0.260367,0.677123,-2.87862e-05,-2.27735e-05,0.518413,-0.06252585482700201,0.9682070471866715,-2.8785785681328946e-05,0.38590450682576627,-2.277324068578057e-05,-0.2292313382086918
705,0.6861,184.668,553.871,-0.19204,320.13,-0.0873913,-0.0328931,-0.0646398,0.326721,-0.260665,0.677897,-3.09727e-05,-2.35622e-05,0.519007,-0.06259494412552935,0.9697310291461305,-3.0972220350866664e-05,0.3864146135381563,-2.3561922413595227e-05,-0.22946099304963474
706,0.6871,185.034,554.653,0.250138,319.959,0.0791542,0.00899394,-0.0647141,0.327094,-0.260961,0.678663,-2.85426e-05,-2.2737e-05,0.519599,-0.06266459073377728,0.9712404211377856,-2.854219266390512e-05,0.38693184264623803,-2.2736741516427017e-05,-0.22968903884324965
707,0.6881,184.619,553.768,-0.25038,320.153,-0.109353,-0.0384745,-0.0647876,0.327462,-0.261258,0.679437,-3.13418e-05,-2.37408e-05,0.520193,-0.06273348235456033,0.9727667518375278,-3.134130885096287e-05,0.3874423274877816,-2.3740518189430126e-05,-0.22991778722789658
708,0.6891,185.089,554.771,0.316341,319.934,0.104198,0.0152032,-0.0648619,0.327835,-0.261553,0.680201,-2.8219e-05,-2.26729e-05,0.520784,-0.06280311866980015,0.9742745215306146,-2.8218601847762592e-05,0.3879599400046678,-2.267264297173277e-05,-0.2301449279757568
709,0.6901,184.558,553.637,-0.324557,320.181,-0.137268,-0.0455696,-0.0649353,0.328202,-0.261851,0.680976,-3.17985e-05,-2.39509e-05,0.521378,-0.06287190639634943,0.9758051773373135,-3.17979944330915e-05,0.3884694147855534,-2.395061317950198e-05,-0.23037431060751035
710,0.6911,184.693,553.927,-0.161946,320.117,-0.0751346,-0.0313473,-0.065009,0.328572,-0.262146,0.681743,-3.11611e-05,-2.37754e-05,0.521969,-0.06294097019181588,0.9773212012291721,-3.1160614497927064e-05,0.3889832435214782,-2.3775117367397236e-05,-0.23060131670083617
711,0.6921,184.846,554.255,0.02372,320.046,-0.00562975,-0.0136602,-0.0650828,0.328943,-0.262442,0.682509,-3.02447e-05,-2.34788e-05,0.52256,-0.06301012259646055,0.9788364095200008,-3.0244242633648e-05,0.38949865190716837,-2.3478524375120102e-05,-0.23082902500860059
712,0.6931,184.777,554.106,-0.0599039,320.079,-0.0375232,-0.0209769,-0.0651565,0.329311,-0.262737,0.683277,-3.07653e-05,-2.36771e-05,0.523151,-0.06307917620576842,0.9803567396145414,-3.076482675301584e-05,0.3900100815083454,-2.3676819699725016e-05,-0.23105589698096185
713,0.6941,184.891,554.348,0.0772389,320.026,0.0140431,-0.00772617,-0.0652302,0.329681,-0.263033,0.684043,-3.00377e-05,-2.34427e-05,0.523741,-0.06314822472601289,0.9818742740185609,-3.003724887284953e-05,0.3905244803964292,-2.34424252220089e-05,-0.2312834707528756
714,0.6951,184.775,554.099,-0.0631716,320.081,-0.0390162,-0.020947,-0.0653037,0.330049,-0.263328,0.68481,-3.08458e-05,-2.37491e-05,0.524332,-0.06321708080100374,0.9833949546932219,-3.084532427322095e-05,0.3910362875719595,-2.374881799238615e-05,-0.23151020868351446
715,0.6961,184.91,554.389,0.100238,320.017,0.0226111,-0.00546393,-0.0653774,0.330419,-0.263623,0.685575,-2.99618e-05,-2.34633e-05,0.524922,-0.06328611915805404,0.9849128323477401,-2.9961351149743187e-05,0.39155106622653957,-2.3463024738878957e-05,-0.23173687973632862
716,0.6971,184.759,554.065,-0.0824736,320.088,-0.0463498,-0.0227781,-0.0654508,0.330786,-0.263918,0.686342,-3.10016e-05,-2.38527e-05,0.525512,-0.06335487143366847,0.9864358444906434,-3.100111945530948e-05,0.3920618591926208,-2.3852415526604e-05,-0.23196348393104438
717,0.6981,184.93,554.431,0.124149,320.008,0.0316356,-0.00322494,-0.0655244,0.331155,-0.264212,0.687105,-2.98756e-05,-2.34821e-05,0.5261,-0.06342380597830855,0.9879520734077629,-2.987515372865346e-05,0.39257562480258823,-2.3481824297677534e-05,-0.23218925347701913
718,0.6991,184.737,554.019,-0.108608,320.098,-0.0562292,-0.0252876,-0.0655976,0.331522,-0.264507,0.687872,-3.11939e-05,-2.39699e-05,0.52669,-0.06349236084657217,0.9894774175427641,-3.1193413475349985e-05,0.3930867938506737,-2.396961272421727e-05,-0.2324157242411633
719,0.7001,184.955,554.484,0.153764,319.997,0.0428404,-0.000461162,-0.0656712,0.331891,-0.264801,0.688634,-2.97568e-05,-2.34898e-05,0.527278,-0.06356128527236382,0.9909939770707299,-2.9756357270871447e-05,0.39360093773131677,-2.348952411679317e-05,-0.23264136084803
720,0.7011,184.71,553.96,-0.141751,320.111,-0.0687524,-0.0284679,-0.0657444,0.332257,-0.265096,0.6894,-3.1425e-05,-2.41011e-05,0.527866,-0.06362983007751144,0.9925196627201696,-3.142450623982995e-05,0.3941110890265187,-2.4100809570826165e-05,-0.23286769826017006
721,0.7021,184.986,554.55,0.191056,319.982,0.0569649,0.00302314,-0.0658179,0.332626,-0.265389,0.690161,-2.95949e-05,-2.34826e-05,0.528454,-0.06369865075580983,0.9940365472848716,-2.9594462075288597e-05,0.39462561094182447,-2.348232428595054e-05,-0.23309243509902522
722,0.7031,184.676,553.886,-0.183484,320.128,-0.0845201,-0.032466,-0.0658909,0.332991,-0.265684,0.690927,-3.17041e-05,-2.42496e-05,0.529042,-0.06376699825959042,0.9955645644359459,-3.170359743032147e-05,0.3951347422006206,-2.4249305980772462e-05,-0.23331863946388665
723,0.7041,185.025,554.633,0.238024,319.964,0.0747695,0.00741641,-0.0659644,0.333361,-0.265977,0.691685,-2.93787e-05,-2.34565e-05,0.529628,-0.06383580885639795,0.9970777758104463,-2.9378268450175327e-05,0.395651037563987,-2.3456224898410483e-05,-0.23354324419632366
724,0.7051,184.632,553.794,-0.235917,320.148,-0.104329,-0.0374835,-0.0660372,0.333725,-0.266271,0.692452,-3.20427e-05,-2.44196e-05,0.530216,-0.06390395912881319,0.9986101220441517,-3.204218663821479e-05,0.39615914701196964,-2.4419301844047503e-05,-0.23376854936104785
725,0.7061,185.074,554.738,0.297096,319.941,0.0971847,0.0129453,-0.0661107,0.334094,-0.266563,0.693208,-2.90943e-05,-2.34068e-05,0.530801,-0.06397275965936677,1.0001216425791886,-2.909387676497399e-05,0.3966744248001224,-2.3406526063030064e-05,-0.2339922562818345
726,0.7071,184.578,553.677,-0.301678,320.174,-0.129166,-0.0437729,-0.0661834,0.334457,-0.266858,0.693975,-3.24555e-05,-2.46165e-05,0.531389,-0.06404080636621168,1.001656324354271,-3.2454973325934944e-05,0.3971815096466562,-2.4616197016436026e-05,-0.23421819523859666
727,0.7081,184.705,553.951,-0.148737,320.113,-0.0703798,-0.0305716,-0.0662564,0.334824,-0.26715,0.694734,-3.18476e-05,-2.44526e-05,0.531974,-0.06410912889354436,1.0031761582084413,-3.1847092870518345e-05,0.3976943693646984,-2.4452301037647395e-05,-0.2344417708819545
728,0.7091,184.845,554.251,0.0213691,320.048,-0.006738,-0.0141801,-0.0663295,0.33519,-0.267443,0.695493,-3.101e-05,-2.41785e-05,0.532559,-0.06417754001576526,1.0046971460543919,-3.100951919488004e-05,0.39820601913008136,-2.4178207702396648e-05,-0.23466604658509105
729,0.7101,184.784,554.119,-0.0528797,320.077,-0.035018,-0.0207123,-0.0664024,0.335556,-0.267736,0.696254,-3.14761e-05,-2.43616e-05,0.533144,-0.06424575898648643,1.0062233012109236,-3.147560463279131e-05,0.39871785619355204,-2.43613032586687e-05,-0.23489025658507257
730,0.7111,184.886,554.335,0.0696538,320.03,0.0110961,-0.00883337,-0.0664754,0.335922,-0.268028,0.697012,-3.08278e-05,-2.41534e-05,0.533729,-0.0643140665528239,1.0077445949707364,-3.082732482828643e-05,0.3992298806236738,-2.4153108308944127e-05,-0.23511363601516577
731,0.7121,184.783,554.115,-0.0544122,320.078,-0.0358784,-0.0205377,-0.0665482,0.336286,-0.268321,0.697772,-3.15472e-05,-2.4432e-05,0.534313,-0.0643821820093462,1.0092710608464732,-3.1546702392359904e-05,0.39973929300765,-2.443170154109442e-05,-0.23533771489065503
732,0.7131,184.902,554.37,0.0891574,320.022,0.0183962,-0.00692939,-0.0666211,0.336652,-0.268612,0.698529,-3.07711e-05,-2.41825e-05,0.534897,-0.06445038606220976,1.010792654890217,-3.077062657452778e-05,0.40025169135206795,-2.4182207605694117e-05,-0.23556019924257865
733,0.7141,184.77,554.087,-0.0702,320.084,-0.0419199,-0.0220327,-0.0666938,0.337016,-0.268905,0.699288,-3.1685e-05,-2.45309e-05,0.535481,-0.06451839804687742,1.0123194258515635,-3.168449803570006e-05,0.4007614757428506,-2.453059911988742e-05,-0.23578414729420882
734,0.7151,184.918,554.405,0.108806,320.015,0.0258413,-0.00510421,-0.0667666,0.337381,-0.269196,0.700044,-3.07089e-05,-2.42112e-05,0.536064,-0.06458649862860844,1.0138413145389462,-3.070842848651445e-05,0.401272847001074,-2.4210906911292795e-05,-0.23600650175320337
735,0.7161,184.752,554.049,-0.091484,320.093,-0.0500045,-0.0240801,-0.0668392,0.337744,-0.269488,0.700803,-3.18518e-05,-2.46408e-05,0.536648,-0.06465440718369764,1.0153704003113257,-3.1851292736750914e-05,0.40178160137786834,-2.4640496417926983e-05,-0.23622955528729062
736,0.7171,184.938,554.447,0.132767,320.006,0.034937,-0.00288203,-0.066912,0.33811,-0.269779,0.701558,-3.0622e-05,-2.42314e-05,0.53723,-0.06472249786432371,1.016892579513903,-3.0621531151298065e-05,0.4022947473439562,-2.423110642202353e-05,-0.236451780151416
737,0.7181,184.73,554.002,-0.11814,320.103,-0.0601185,-0.0266432,-0.0669845,0.338472,-0.270071,0.702316,-3.20486e-05,-2.47617e-05,0.537813,-0.06479030302526179,1.0184219636525356,-3.204808644907686e-05,0.4028024699347392,-2.4761393431660395e-05,-0.2366747036831922
738,0.7191,184.963,554.5,0.162528,319.994,0.0462429,-0.000115009,-0.0670572,0.338838,-0.270361,0.703069,-3.05025e-05,-2.42402e-05,0.538394,-0.06485829029886458,1.0199424077665329,-3.0502034803481237e-05,0.4033159896071028,-2.4239906208700646e-05,-0.236896035924398
739,0.7201,184.703,553.943,-0.151257,320.116,-0.072681,-0.0298214,-0.0671296,0.339199,-0.270653,0.703827,-3.22816e-05,-2.48959e-05,0.538977,-0.0649259921078118,1.0214741045513631,-3.228107895481003e-05,0.40382267813112693,-2.489559009966058e-05,-0.23711882975242615
740,0.7211,184.994,554.566,0.1995,319.98,0.0602988,0.00332981,-0.0672023,0.339564,-0.270943,0.704579,-3.03424e-05,-2.42349e-05,0.539557,-0.06499396951717684,1.0229948247971334,-3.0341939673994567e-05,0.4043351669321613,-2.4234606337159015e-05,-0.23734003321574548
741,0.7221,184.669,553.871,-0.192307,320.132,-0.0882509,-0.0337544,-0.0672745,0.339925,-0.271234,0.705337,-3.25591e-05,-2.50462e-05,0.540139,-0.06506147451561795,1.0245288361911995,-3.2558569958207606e-05,0.4048422234456177,-2.5045886346553026e-05,-0.23756193497780742
742,0.7231,185.032,554.647,0.245367,319.962,0.0777509,0.00760929,-0.0673472,0.340291,-0.271524,0.706087,-3.0132e-05,-2.4212e-05,0.540719,-0.06512944207576987,1.0260478023594541,-3.013154603581647e-05,0.40535648980440175,-2.4211706891930085e-05,-0.23778300995924218
743,0.7241,184.627,553.781,-0.243103,320.152,-0.107514,-0.0386154,-0.0674192,0.340651,-0.271815,0.706845,-3.28911e-05,-2.52164e-05,0.5413,-0.06519675033281414,1.0275841287877991,-3.2890559093723404e-05,0.4058625092187609,-2.521608206929038e-05,-0.23800478283382576
744,0.7251,185.079,554.748,0.302183,319.94,0.0993898,0.0129144,-0.0674919,0.341016,-0.272104,0.707593,-2.98597e-05,-2.41676e-05,0.541879,-0.0652647080587716,1.0291013290783013,-2.9859254203623564e-05,0.4063757426940371,-2.4167307965949902e-05,-0.23822496763335077
745,0.7261,184.575,553.669,-0.305849,320.176,-0.131303,-0.0446161,-0.0675638,0.341375,-0.272395,0.708352,-3.32899e-05,-2.54111e-05,0.54246,-0.06533191311021169,1.0306420015983302,-3.3289345897413725e-05,0.40688072222406646,-2.5410777140688623e-05,-0.23844661191696215
746,0.7271,184.706,553.952,-0.14773,320.114,-0.0704112,-0.0308777,-0.067636,0.341738,-0.272685,0.709103,-3.26502e-05,-2.52338e-05,0.543039,-0.06539939371000614,1.032167586526969,-3.264966698801608e-05,0.40739151262908346,-2.523348163030459e-05,-0.23866743037928162
747,0.7281,184.844,554.246,0.0183453,320.05,-0.00798219,-0.0149552,-0.0677083,0.3421,-0.272974,0.709853,-3.18298e-05,-2.49659e-05,0.543617,-0.06546696289118559,1.0336922839069111,-3.182929343725771e-05,0.4079010805828902,-2.4965588354519674e-05,-0.23888742370133575
748,0.7291,184.787,554.123,-0.0501622,320.077,-0.034236,-0.0209231,-0.0677803,0.342461,-0.273264,0.710605,-3.22669e-05,-2.51402e-05,0.544196,-0.06553424684760589,1.0352221956791383,-3.226637942921329e-05,0.4084094246235592,-2.513988398777922e-05,-0.23910811434677215
749,0.7301,184.883,554.328,0.0652934,320.032,0.00939533,-0.00974925,-0.0678525,0.342823,-0.273553,0.711355,-3.16548e-05,-2.49445e-05,0.544774,-0.06560171283943195,1.0367491848752683,-3.1654298992100927e-05,0.4089193611282116,-2.4944188888542662e-05,-0.23932798032956115
750,0.7311,184.788,554.123,-0.0499734,320.077,-0.0344329,-0.0205994,-0.0679245,0.343184,-0.273842,0.712106,-3.23293e-05,-2.52095e-05,0.545353,-0.06566898709420521,1.0382793580212075,-3.232877741377038e-05,0.4094280728345172,-2.520918224324653e-05,-0.2395477827802619
751,0.7321,184.897,554.359,0.0827638,320.026,0.0159389,-0.00804048,-0.0679966,0.343546,-0.274131,0.712855,-3.16102e-05,-2.49794e-05,0.54593,-0.06573634993177624,1.0398066011415152,-3.160970040294586e-05,0.40993837815657397,-2.4979088017351714e-05,-0.2397675217172326
752,0.7331,184.776,554.099,-0.0633862,320.083,-0.0395906,-0.0218748,-0.0680685,0.343905,-0.27442,0.713606,-3.24552e-05,-2.53063e-05,0.546508,-0.06580352107338472,1.0413390712694794,-3.2454673335680084e-05,0.4104446369023398,-2.5305979798329048e-05,-0.2399871971588261
753,0.7341,184.912,554.389,0.0996182,320.019,0.0223404,-0.0064832,-0.0681406,0.344267,-0.274708,0.714354,-3.15645e-05,-2.50155e-05,0.547084,-0.06587087421140547,1.04286656410589,-3.156400184645136e-05,0.41095531028720433,-2.5015187114951765e-05,-0.24020604932981904
754,0.7351,184.762,554.067,-0.0814221,320.09,-0.0464702,-0.0236175,-0.0682124,0.344626,-0.274997,0.715104,-3.26056e-05,-2.54126e-05,0.547661,-0.06593794227486482,1.0443992887288567,-3.260506844315891e-05,0.4114619341771444,-2.541227710262106e-05,-0.24042559805524377
755,0.7361,184.928,554.425,0.119786,320.011,0.0300188,-0.00462402,-0.0682844,0.344987,-0.275284,0.715851,-3.14995e-05,-2.5045e-05,0.548237,-0.06600519232199031,1.0459270255361939,-3.1499003895985034e-05,0.4119715639180159,-2.5044686376651804e-05,-0.24064356462890246
756,0.7371,184.743,554.028,-0.103694,320.098,-0.0549565,-0.025767,-0.068356,0.345346,-0.275573,0.716601,-3.27797e-05,-2.55276e-05,0.548814,-0.06607206395618692,1.0474620463662032,-3.2779162751461755e-05,0.4124785527085053,-2.5527274173597903e-05,-0.24086298693067487
757,0.7381,184.949,554.468,0.144448,320.002,0.0394166,-0.00234366,-0.068428,0.345707,-0.27586,0.717346,-3.14092e-05,-2.50657e-05,0.549389,-0.06613930434689896,1.0489879739281855,-3.1408706736235636e-05,0.41298854951491815,-2.5065385858002998e-05,-0.24108082799173824
758,0.7391,184.721,553.979,-0.130952,320.109,-0.0653401,-0.0283905,-0.0684995,0.346065,-0.276149,0.718096,-3.29819e-05,-2.56531e-05,0.549965,-0.06620607299963044,1.0505252913305956,-3.298135610307895e-05,0.41349448997358285,-2.565277096200358e-05,-0.24130012394265743
759,0.7401,184.974,554.522,0.174623,319.99,0.050924,0.000454199,-0.0685715,0.346426,-0.276436,0.71884,-3.12876e-05,-2.50754e-05,0.550539,-0.06627330374203866,1.0520514498079008,-3.128711054811717e-05,0.4140048535995553,-2.507508561477856e-05,-0.2415178395633999
760,0.7411,184.693,553.92,-0.164235,320.122,-0.0780172,-0.0315861,-0.0686429,0.346783,-0.276724,0.719589,-3.32181e-05,-2.5791e-05,0.551114,-0.06633996944815745,1.0535890120889997,-3.3217548285002785e-05,0.4145097434497662,-2.579066741503766e-05,-0.241736250972853
761,0.7421,185.005,554.588,0.211492,319.975,0.0649958,0.00387978,-0.0687148,0.347144,-0.27701,0.720331,-3.11282e-05,-2.50718e-05,0.551688,-0.06640709719108284,1.0551133405919075,-3.112771552260529e-05,0.415020473648406,-2.5071485705074892e-05,-0.2419530833965602
762,0.7431,184.66,553.848,-0.204804,320.138,-0.0934679,-0.0354745,-0.068786,0.347501,-0.277298,0.72108,-3.34954e-05,-2.59441e-05,0.552263,-0.06647356663942239,1.0566531970882806,-3.349483903536399e-05,0.41552572613970207,-2.5943763454772117e-05,-0.242171369473838
763,0.7441,185.042,554.668,0.256471,319.958,0.0821787,0.00806481,-0.0688579,0.347862,-0.277584,0.721821,-3.09226e-05,-2.50521e-05,0.552835,-0.0665406847770551,1.0581777418814107,-3.092212190136667e-05,0.4160368231743026,-2.5051786198715398e-05,-0.24238807747144775
764,0.7451,184.619,553.76,-0.254173,320.157,-0.112266,-0.0402002,-0.068929,0.348217,-0.277872,0.72257,-3.38222e-05,-2.61155e-05,0.55341,-0.06660705137500689,1.0597198944741302,-3.3821628035890505e-05,0.4165396054851094,-2.6115158993311738e-05,-0.2426062382884704
765,0.7461,185.087,554.766,0.311263,319.936,0.103131,0.0131672,-0.0690009,0.348578,-0.278158,0.723309,-3.06612e-05,-2.50127e-05,0.553982,-0.06667415991543213,1.0612425900428608,-3.066072995017155e-05,0.41705106859622654,-2.501238718499721e-05,-0.2428228219313826
766,0.7471,184.57,553.654,-0.314148,320.181,-0.135098,-0.0459368,-0.0690718,0.348933,-0.278445,0.724058,-3.42086e-05,-2.6309e-05,0.554556,-0.06674033037172367,1.0627870390667593,-3.4208014892511684e-05,0.41755421102807566,-2.63086539212809e-05,-0.24304010060050785
767,0.7481,184.707,553.951,-0.148271,320.115,-0.0711117,-0.031397,-0.0691432,0.349291,-0.278731,0.7248,-3.35249e-05,-2.61133e-05,0.555128,-0.06680696273333153,1.0643181950383624,-3.352433804681976e-05,0.41806178628617396,-2.6112959050750284e-05,-0.2432565601765413
768,0.7491,184.842,554.24,0.014989,320.052,-0.00938194,-0.0158667,-0.0692146,0.349649,-0.279017,0.725542,-3.27149e-05,-2.58497e-05,0.555699,-0.06687359033755857,1.0658504875493002,-3.271436487350954e-05,0.41856954328874485,-2.5849365899333065e-05,-0.24347295785398793
769,0.7501,184.79,554.127,-0.0478193,320.077,-0.0336481,-0.021259,-0.0692858,0.350006,-0.279303,0.726285,-3.3124e-05,-2.60154e-05,0.556271,-0.06694002657276854,1.0673859848281495,-3.312345140638051e-05,0.41907606302409195,-2.6015061602380207e-05,-0.24368929365054814
770,0.7511,184.88,554.321,0.0611025,320.034,0.00771911,-0.0107449,-0.0693571,0.350364,-0.279589,0.727026,-3.25452e-05,-2.58315e-05,0.556842,-0.06700655137723643,1.0689184855643075,-3.254467041069464e-05,0.4195841832027398,-2.5831166369671976e-05,-0.24390556758391735
771,0.7521,184.792,554.13,-0.0458818,320.076,-0.0331613,-0.0207845,-0.0694283,0.35072,-0.279874,0.727768,-3.31777e-05,-2.6084e-05,0.557414,-0.06707297814595736,1.0704541927575062,-3.317714962625118e-05,0.4200896451388463,-2.608365981537908e-05,-0.24412102379318779
772,0.7531,184.893,554.348,0.0767206,320.028,0.0135663,-0.00921138,-0.0694995,0.351077,-0.28016,0.728508,-3.25121e-05,-2.58723e-05,0.557984,-0.06713940018526077,1.0719868958903636,-3.251157148742578e-05,0.42059670764743307,-2.587196531489422e-05,-0.2443371742693915
773,0.7541,184.783,554.11,-0.0570759,320.081,-0.0374878,-0.0218573,-0.0695706,0.351433,-0.280445,0.72925,-3.32928e-05,-2.61794e-05,0.558555,-0.0672057242160603,1.073524880688911,-3.3292245800842224e-05,0.4211025301064113,-2.6179057322495147e-05,-0.2445525074882835
774,0.7551,184.905,554.374,0.0910046,320.023,0.0190017,-0.00790021,-0.0696418,0.35179,-0.28073,0.729989,-3.24819e-05,-2.59158e-05,0.559125,-0.06727213680417998,1.0750577819129803,-3.248137246880667e-05,0.4216099542794849,-2.591546418850843e-05,-0.2447677793459525
775,0.7561,184.77,554.083,-0.072136,320.087,-0.0432585,-0.0233229,-0.0697127,0.352145,-0.281015,0.73073,-3.34283e-05,-2.62829e-05,0.559695,-0.06733826486541306,1.0765959695575176,-3.342774128056725e-05,0.42211471540305245,-2.6282554607570674e-05,-0.24498298985988398
776,0.7571,184.919,554.403,0.107727,320.016,0.0253863,-0.00637104,-0.0697838,0.352502,-0.2813,0.731468,-3.24373e-05,-2.59546e-05,0.560264,-0.06740457475743655,1.0781290630249578,-3.243677391651101e-05,0.4226225009907858,-2.5954263182303983e-05,-0.24519813904755838
777,0.7581,184.755,554.051,-0.0904526,320.094,-0.0502701,-0.0251011,-0.0698546,0.352857,-0.281585,0.732209,-3.35821e-05,-2.63932e-05,0.560833,-0.06747060017621631,1.0796695273321988,-3.358153612764703e-05,0.4231276216322464,-2.6392851702583542e-05,-0.24541322692645118
778,0.7591,184.936,554.439,0.127827,320.009,0.0330693,-0.00452672,-0.0699257,0.353213,-0.281869,0.732945,-3.23736e-05,-2.59866e-05,0.561401,-0.06753690065953366,1.0812007275168627,-3.2373075980696164e-05,0.42363434525700105,-2.5986262351285205e-05,-0.2456274991419093
779,0.7601,184.737,554.011,-0.112503,320.103,-0.0587093,-0.0272336,-0.0699964,0.353567,-0.282154,0.733686,-3.37572e-05,-2.65115e-05,0.56197,-0.06760282347025814,1.0827434687709965,-3.375663023208464e-05,0.42413840102782974,-2.6511148573327148e-05,-0.245842464670611
780,0.7611,184.956,554.482,0.15201,319.999,0.0423216,-0.00229968,-0.0700675,0.353924,-0.282437,0.734421,-3.22866e-05,-2.60105e-05,0.562538,-0.06766911455283353,1.0842748479334445,-3.228607879335321e-05,0.4246469092003047,-2.6010161729872472e-05,-0.24605586105609634
781,0.7621,184.715,553.964,-0.138984,320.113,-0.0688437,-0.0297863,-0.070138,0.354277,-0.282722,0.735161,-3.39575e-05,-2.66393e-05,0.563106,-0.06773484156335319,1.0858177821361612,-3.395692345065093e-05,0.4251498983316109,-2.663894517695997e-05,-0.24627070451904765
782,0.7631,184.98,554.534,0.18107,319.988,0.0534492,0.00038409,-0.070209,0.354633,-0.283005,0.735895,-3.21719e-05,-2.60246e-05,0.563673,-0.06780103003988347,1.0873493343991685,-3.217138249000939e-05,0.42565734201503336,-2.602426136300018e-05,-0.24648397972980307
783,0.7641,184.689,553.908,-0.170735,320.126,-0.0809931,-0.0328388,-0.0702795,0.354986,-0.283289,0.736635,-3.41878e-05,-2.67782e-05,0.564241,-0.06786674775068913,1.088894544563872,-3.418721560377591e-05,0.42616068789208517,-2.6777841467207075e-05,-0.24669794789464228
784,0.7651,185.009,554.596,0.215935,319.974,0.0668118,0.0036112,-0.0703505,0.355342,-0.283572,0.737367,-3.20241e-05,-2.6027e-05,0.564807,-0.06793292686221264,1.090424175146985,-3.20235872339758e-05,0.42666849148065045,-2.6026661300582177e-05,-0.24691110221262946
785,0.7661,184.658,553.84,-0.208741,320.141,-0.0955343,-0.0364855,-0.0704208,0.355694,-0.283856,0.738107,-3.44535e-05,-2.69303e-05,0.565375,-0.06799844887432849,1.0919716615359403,-3.44529064849608e-05,0.42717076718498936,-2.6929937382735858e-05,-0.24712494909190685
786,0.7671,185.044,554.671,0.257704,319.958,0.0828349,0.00748342,-0.0704918,0.35605,-0.284139,0.738838,-3.18368e-05,-2.60155e-05,0.56594,-0.06806461863540414,1.0935014518907762,-3.183629321446002e-05,0.4276789304257973,-2.601516159983497e-05,-0.24733798258565265
787,0.7681,184.62,553.759,-0.254161,320.159,-0.112909,-0.0408371,-0.0705619,0.356401,-0.284423,0.739577,-3.47612e-05,-2.70982e-05,0.566507,-0.0681299450159214,1.0950491212571198,-3.476059583651381e-05,0.4281801336864033,-2.7097832847045034e-05,-0.24755170824811779
788,0.7691,185.086,554.76,0.307668,319.938,0.102021,0.0121204,-0.0706329,0.356757,-0.284704,0.740306,-3.16026e-05,-2.59875e-05,0.567071,-0.06819610544110233,1.0965769688993188,-3.160210064312441e-05,0.42868865632565467,-2.5987162327822944e-05,-0.24776311651384764
789,0.7701,184.575,553.663,-0.30835,320.18,-0.133632,-0.0460237,-0.0707029,0.357107,-0.284988,0.741046,-3.51186e-05,-2.72847e-05,0.567638,-0.06826132943085517,1.0981290100407013,-3.511798334920879e-05,0.4291887848727589,-2.7284327775989325e-05,-0.24797672145542027
790,0.7711,184.713,553.96,-0.142442,320.114,-0.0693802,-0.0314868,-0.0707733,0.357461,-0.285271,0.741778,-3.44226e-05,-2.70833e-05,0.568202,-0.06832692152439446,1.0996654027271715,-3.4422007549106404e-05,0.4296948072632827,-2.708293325071054e-05,-0.24818951393169286
791,0.7721,184.84,554.234,0.011997,320.054,-0.0107803,-0.0167867,-0.0708438,0.357814,-0.285553,0.74251,-3.36555e-05,-2.68333e-05,0.568767,-0.06839260216115739,1.1012029204648064,-3.365493366003225e-05,0.4301995786171491,-2.6832939990173443e-05,-0.24840149459808536
792,0.7731,184.795,554.135,-0.0433772,320.076,-0.0322759,-0.0215035,-0.0709141,0.358167,-0.285835,0.743243,-3.4024e-05,-2.69873e-05,0.569331,-0.06845809185923557,1.1027436668200608,-3.4023421190299e-05,0.43070452818675653,-2.6986935846129434e-05,-0.2486134154943579
793,0.7741,184.877,554.311,0.0554099,320.037,0.00537804,-0.0119664,-0.0709845,0.35852,-0.286117,0.743975,-3.34996e-05,-2.68225e-05,0.569895,-0.06852367010118754,1.1042834386719171,-3.3499038894713173e-05,0.43120965603502626,-2.6822140279936235e-05,-0.2488252766373633
794,0.7751,184.798,554.14,-0.0399189,320.075,-0.0312027,-0.0209049,-0.0710547,0.358871,-0.286399,0.744708,-3.40701e-05,-2.70559e-05,0.570459,-0.06858905744442378,1.105826443874784,-3.406951962070526e-05,0.4317120987978409,-2.7055533992403902e-05,-0.2490370780439497
795,0.7761,184.888,554.334,0.0687163,320.032,0.0103668,-0.0106644,-0.071125,0.359224,-0.286681,0.745438,-3.34806e-05,-2.68708e-05,0.571022,-0.06865453333218097,1.1073642584128272,-3.3480039530964234e-05,0.43221758238132013,-2.6870438983306322e-05,-0.24924881973096014
796,0.7771,184.791,554.125,-0.0486876,320.078,-0.0346215,-0.0217534,-0.0711951,0.359575,-0.286962,0.74617,-3.41735e-05,-2.71499e-05,0.571585,-0.0687198183611274,1.1089074137759432,-3.417291609264517e-05,0.43272037898837845,-2.714953144478116e-05,-0.2494597511753599
797,0.7781,184.897,554.354,0.0801579,320.028,0.0147318,-0.00962882,-0.0712654,0.359927,-0.287244,0.7469,-3.34678e-05,-2.6923e-05,0.572147,-0.06878528505671533,1.1104474782431386,-3.3467239959450445e-05,0.43322478533209074,-2.6922637579307462e-05,-0.24967137368535208
798,0.7791,184.781,554.103,-0.0605495,320.083,-0.039195,-0.0229206,-0.0713354,0.360278,-0.287525,0.747631,-3.4293e-05,-2.72504e-05,0.57271,-0.06885046780533854,1.1119907793575683,-3.429241200181288e-05,0.4337279355294361,-2.7250028711178764e-05,-0.2498821864087717
799,0.7801,184.908,554.378,0.0932322,320.023,0.0197384,-0.00845036,-0.0714056,0.36063,-0.287806,0.74836,-3.34452e-05,-2.6972e-05,0.573272,-0.0689158322081812,1.113530981971362,-3.344464071552977e-05,0.43423269659547836,-2.6971636258865672e-05,-0.2500929399021382
800,0.7811,184.769,554.078,-0.0747481,320.089,-0.0446616,-0.024313,-0.0714755,0.36098,-0.288087,0.749091,-3.44258e-05,-2.73561e-05,0.573834,-0.06898091271691964,1.1150765379510696,-3.442520743890398e-05,0.434734765896289,-2.735572582535095e-05,-0.250303634182093
801,0.7821,184.921,554.405,0.108656,320.017,0.0256522,-0.0070533,-0.0715457,0.361332,-0.288368,0.749818,-3.34091e-05,-2.70164e-05,0.574395,-0.06904626796285085,1.1166147576692782,-3.340854192224185e-05,0.43523988142900283,-2.7016035060389854e-05,-0.25051426926527265
802,0.7831,184.756,554.048,-0.0915391,320.096,-0.0511241,-0.0259514,-0.0716155,0.361681,-0.288649,0.750548,-3.45735e-05,-2.74675e-05,0.574957,-0.06911124626557796,1.1181604505516374,-3.457290234343269e-05,0.43574086756461705,-2.746712277168495e-05,-0.2507248451683092
803,0.7841,184.936,554.438,0.12688,320.01,0.0326465,-0.00539413,-0.0716856,0.362033,-0.288929,0.751275,-3.33572e-05,-2.70552e-05,0.575517,-0.06917649928006986,1.1197009130894728,-3.335664365478053e-05,0.43624633730745543,-2.7054834011330797e-05,-0.25093461284281715
804,0.7851,184.739,554.013,-0.111346,320.103,-0.0587458,-0.0278753,-0.0717553,0.362382,-0.28921,0.752005,-3.47386e-05,-2.75854e-05,0.576078,-0.0692413754171104,1.1212488596877948,-3.4737996621792e-05,0.4367476747574721,-2.7585019526377152e-05,-0.2511450706459022
805,0.7861,184.954,554.476,0.148386,320.001,0.0409078,-0.0034279,-0.0718254,0.362734,-0.289489,0.75273,-3.32865e-05,-2.70874e-05,0.576637,-0.06930661930986848,1.1227873227365355,-3.32859460105972e-05,0.4372534989588235,-2.7087033139694405e-05,-0.25135397202809395
806,0.7871,184.72,553.971,-0.13467,320.113,-0.0677198,-0.0301324,-0.0718949,0.363082,-0.28977,0.753459,-3.49238e-05,-2.77111e-05,0.577198,-0.06937130025213767,1.1243353989000129,-3.492319017117662e-05,0.4377537502151312,-2.7710716051010387e-05,-0.25156431200780294
807,0.7881,184.975,554.521,0.173725,319.991,0.0506505,-0.00110321,-0.071965,0.363433,-0.290049,0.754183,-3.31939e-05,-2.71118e-05,0.577757,-0.06943653503748404,1.1258739746260225,-3.3193349088578294e-05,0.4382584903581699,-2.7111432478466035e-05,-0.2517730964379704
808,0.7891,184.697,553.922,-0.162094,320.124,-0.0782695,-0.0327781,-0.0720344,0.363781,-0.29033,0.754912,-3.51325e-05,-2.78456e-05,0.578317,-0.06950111390103997,1.1274243017791132,-3.5131882860972574e-05,0.4387590914123458,-2.7845212314914214e-05,-0.2519833186602658
809,0.7901,185.0,554.575,0.203536,319.979,0.0621227,0.0016392,-0.0721044,0.364132,-0.290608,0.755635,-3.30756e-05,-2.71272e-05,0.578875,-0.06956624654339782,1.1289629857165164,-3.3075053008424504e-05,0.43926418449208127,-2.712683206085309e-05,-0.25219123839549595
810,0.7911,184.671,553.865,-0.194286,320.136,-0.0906515,-0.0358761,-0.0721737,0.364479,-0.290889,0.756364,-3.53684e-05,-2.79906e-05,0.579434,-0.06963072336836451,1.1305155655797052,-3.536777454549167e-05,0.4397636958243041,-2.7990208266825967e-05,-0.2524013431364083
811,0.7921,185.029,554.637,0.238554,319.966,0.0756111,0.00486749,-0.0722437,0.36483,-0.291167,0.757085,-3.29274e-05,-2.7132e-05,0.579992,-0.06969584693837727,1.1320522212002713,-3.29268578991293e-05,0.44026914158207964,-2.7131631930576994e-05,-0.25260914667698586
812,0.7931,184.64,553.797,-0.232015,320.151,-0.105161,-0.0394998,-0.0723129,0.365176,-0.291447,0.757814,-3.56361e-05,-2.81476e-05,0.580551,-0.0697602217583746,1.1336070539372005,-3.563546504170567e-05,0.44076756092664127,-2.8147203860018344e-05,-0.25281838682092916
813,0.7941,185.063,554.711,0.279626,319.949,0.0914467,0.00866004,-0.0723829,0.365527,-0.291725,0.758533,-3.27443e-05,-2.71244e-05,0.581107,-0.06982533626381726,1.1351416690369982,-3.274376391126932e-05,0.44127335910291343,-2.7124032136782716e-05,-0.25302607443947633
814,0.7951,184.603,553.718,-0.27616,320.169,-0.122134,-0.0437336,-0.0724519,0.365873,-0.292005,0.759262,-3.59403e-05,-2.83185e-05,0.581666,-0.06988951610138516,1.1366987548025294,-3.593965415515932e-05,0.4417721259668548,-2.8318099035029576e-05,-0.25323519785998816
815,0.7961,185.103,554.797,0.327729,319.93,0.110011,0.0131067,-0.0725219,0.366224,-0.292282,0.75998,-3.25206e-05,-2.71024e-05,0.582222,-0.06995462155654064,1.1382334554000608,-3.252007121101741e-05,0.442278276807345,-2.7102032733261616e-05,-0.2534420230635678
816,0.7971,184.938,554.447,0.126825,320.005,0.0364021,-0.00968269,-0.0725913,0.366571,-0.292561,0.760704,-3.34358e-05,-2.75457e-05,0.582779,-0.07001916446613976,1.1397820969623695,-3.343524102983331e-05,0.4427788342110841,-2.7545320620658842e-05,-0.2536502836854254
817,0.7981,184.864,554.276,0.0402572,320.047,-0.00318632,-0.0123056,-0.0726606,0.366918,-0.29284,0.761428,-3.39694e-05,-2.76626e-05,0.583335,-0.07008360990498197,1.1413318601471474,-3.396882304651516e-05,0.44327956533838164,-2.766221739380903e-05,-0.2538584862106743
818,0.7991,184.864,554.279,0.0358947,320.044,-0.000821421,-0.0146955,-0.0727299,0.367266,-0.293118,0.76215,-3.3942e-05,-2.77261e-05,0.583892,-0.0701480508779101,1.1428784600055377,-3.3941423976835416e-05,0.4437819140307222,-2.7725715635251724e-05,-0.25406588472177893
819,0.8001,184.834,554.214,0.00320165,320.06,-0.0160233,-0.0167395,-0.0727992,0.367613,-0.293396,0.762872,-3.41838e-05,-2.7817e-05,0.584448,-0.07021248738523345,1.1444261769122317,-3.418321574055749e-05,0.44428299328711396,-2.7816613110798194e-05,-0.25427322558411114
820,0.8011,184.857,554.265,0.0291425,320.048,-0.00428529,-0.0152478,-0.0728685,0.36796,-0.293674,0.763593,-3.40354e-05,-2.78129e-05,0.585003,-0.07027691942726155,1.1459728657000907,-3.403482080233111e-05,0.4447842464481784,-2.7812513224922952e-05,-0.2544805088136949
821,0.8021,184.828,554.202,-0.00409473,320.062,-0.0181924,-0.0178856,-0.0729377,0.368307,-0.293951,0.764314,-3.42663e-05,-2.79145e-05,0.585558,-0.07034125403843405,1.1475206700526788,-3.426571291709202e-05,0.44528567357427096,-2.791411039393399e-05,-0.25468698911391163
822,0.8031,184.859,554.268,0.0313751,320.047,-0.00380309,-0.0149338,-0.0730069,0.368654,-0.294229,0.765034,-3.40796e-05,-2.78841e-05,0.586113,-0.0704055841978054,1.1490674417060913,-3.407901929708412e-05,0.44578727472576785,-2.7883711242071563e-05,-0.2548941573332213
823,0.8041,184.826,554.196,-0.00804759,320.064,-0.0194731,-0.0184448,-0.073076,0.369,-0.294506,0.765755,-3.43381e-05,-2.80029e-05,0.586668,-0.07046981695267007,1.1506174780525167,-3.4337510454229836e-05,0.44628760367473963,-2.800250792245329e-05,-0.25510052306866604
824,0.8051,184.861,554.273,0.0347916,320.046,-0.00266831,-0.0145951,-0.0731452,0.369347,-0.294784,0.766474,-3.41154e-05,-2.79546e-05,0.587222,-0.07053413821579557,1.15216432804517,-3.411481807635841e-05,0.44678955255630903,-2.79542092738172e-05,-0.2553075763415146
825,0.8061,184.823,554.189,-0.0118825,320.065,-0.0208617,-0.018919,-0.0732142,0.369693,-0.295061,0.767194,-3.44119e-05,-2.80905e-05,0.587776,-0.07059826914771605,1.1537144443362628,-3.441130791737024e-05,0.4472902283534117,-2.8090105465561344e-05,-0.25551382757575325
826,0.8071,184.865,554.28,0.0387041,320.045,-0.0012505,-0.014253,-0.0732833,0.370039,-0.295338,0.767912,-3.41473e-05,-2.80249e-05,0.588329,-0.07066248858851076,1.1552613665859273,-3.414671698753757e-05,0.4477910774143128,-2.802450730621242e-05,-0.255720021686312
827,0.8081,184.819,554.182,-0.0161402,320.067,-0.022478,-0.0194024,-0.0733522,0.370384,-0.295614,0.768631,-3.44892e-05,-2.81789e-05,0.588883,-0.0707265177372175,1.1568115567350787,-3.448860525434583e-05,0.4482906515075966,-2.8178502978537523e-05,-0.25592541461479856
828,0.8091,184.868,554.288,0.0431703,320.043,0.000422072,-0.0138784,-0.0734213,0.37073,-0.295891,0.769349,-3.41757e-05,-2.80946e-05,0.589436,-0.07079072831634081,1.1583607035099548,-3.417511601744305e-05,0.44879184677479955,-2.8094205350437385e-05,-0.2561314947315364
829,0.8101,184.815,554.173,-0.0209983,320.069,-0.0243541,-0.01993,-0.0734901,0.371075,-0.296168,0.770067,-3.45705e-05,-2.82687e-05,0.589989,-0.07085465571510485,1.159910962971622,-3.456990244710134e-05,0.44929176619307776,-2.8268300444111993e-05,-0.2563375177719873
830,0.8111,184.873,554.297,0.0483062,320.041,0.00237141,-0.0134498,-0.0735591,0.371421,-0.296444,0.770784,-3.42001e-05,-2.81632e-05,0.590541,-0.0709187645320809,1.1614601744580213,-3.4199515183241935e-05,0.44979330790589334,-2.8162803420772597e-05,-0.2565427402950714
831,0.8121,184.811,554.163,-0.0265805,320.071,-0.0265225,-0.0205206,-0.0736278,0.371765,-0.29672,0.771502,-3.46562e-05,-2.83603e-05,0.591093,-0.07098259022052011,1.1630126601389463,-3.465559948079289e-05,0.4502921225950207,-2.8359897850438465e-05,-0.2567479061845548
832,0.8131,184.878,554.307,0.054227,320.039,0.00463239,-0.0129518,-0.0736967,0.372111,-0.296996,0.772218,-3.422e-05,-2.82305e-05,0.591645,-0.0710465973149842,1.1645619317766651,-3.4219414502434375e-05,0.4507940104910375,-2.8230101523196716e-05,-0.2569530154560663
833,0.8141,184.806,554.151,-0.0330041,320.074,-0.029022,-0.0211885,-0.0737654,0.372455,-0.297272,0.772935,-3.4747e-05,-2.8454e-05,0.592197,-0.0711104142216128,1.1661144792034892,-3.474639632994325e-05,0.45129316948107023,-2.8453595188770997e-05,-0.25715806812523045
834,0.8151,184.884,554.32,0.0610529,320.036,0.00724739,-0.012371,-0.0738342,0.3728,-0.297547,0.773649,-3.42348e-05,-2.82962e-05,0.592748,-0.07117431962674314,1.1676616372113218,-3.4234213995953944e-05,0.4517939520045595,-2.8295799666344656e-05,-0.2573623215703601
835,0.8161,184.8,554.138,-0.0403929,320.077,-0.0318978,-0.0219468,-0.0739028,0.373144,-0.297823,0.774366,-3.48436e-05,-2.855e-05,0.593299,-0.07123803488295855,1.1692164079238947,-3.484299296885318e-05,0.45229345503364415,-2.8549592452575823e-05,-0.2575672612866249
836,0.8171,184.89,554.334,0.0689143,320.033,0.0102653,-0.0116942,-0.0739716,0.373488,-0.298098,0.77508,-3.42437e-05,-2.836e-05,0.593849,-0.0713019315080895,1.1707657814996972,-3.424311369115696e-05,0.45279312992132903,-2.835959785896236e-05,-0.2577714022191063
837,0.8181,184.793,554.123,-0.0488833,320.08,-0.0352014,-0.022809,-0.0740401,0.373831,-0.298374,0.775795,-3.49467e-05,-2.86487e-05,0.5944,-0.07136554514698912,1.1723184340406068,-3.4946089371157285e-05,0.4532915234344934,-2.864828962989563e-05,-0.25797622904469164
838,0.8191,184.898,554.35,0.0779557,320.03,0.0137415,-0.0109077,-0.0741088,0.374176,-0.298649,0.776508,-3.42459e-05,-2.84215e-05,0.59495,-0.07142934014265434,1.173867849385008,-3.424531361584382e-05,0.4537929955090372,-2.8421096113007138e-05,-0.2581802575265023
839,0.8201,184.785,554.105,-0.058626,320.084,-0.0389909,-0.0237894,-0.0741772,0.374519,-0.298924,0.777224,-3.50571e-05,-2.87503e-05,0.5955,-0.07149285220365131,1.1754248961213802,-3.5056485507056756e-05,0.4542917320349211,-2.8749886714085626e-05,-0.25838422990819465
840,0.8211,184.906,554.368,0.0883382,320.026,0.0177385,-0.00999613,-0.0742458,0.374863,-0.299198,0.777936,-3.42406e-05,-2.84805e-05,0.596049,-0.07155654560928137,1.176974350187609,-3.424001379737085e-05,0.45479209444814206,-2.8480094434457648e-05,-0.2585874047929695
841,0.8221,184.776,554.085,-0.0697896,320.088,-0.0433313,-0.0249042,-0.0743142,0.375205,-0.299473,0.77865,-3.5176e-05,-2.88554e-05,0.596598,-0.07162004896972207,1.1785292649121422,-3.517538133179787e-05,0.45528971843329447,-2.88549836869878e-05,-0.2587912652245573
842,0.8231,184.916,554.39,0.100242,320.021,0.0223267,-0.00894272,-0.0743828,0.375549,-0.299747,0.779361,-3.42265e-05,-2.85365e-05,0.597147,-0.07168373364995317,1.1800787499961674,-3.4225914280039405e-05,0.45579042421289206,-2.8536092837927463e-05,-0.2589943285969333
843,0.8241,184.765,554.062,-0.0825625,320.094,-0.0482958,-0.0261711,-0.074451,0.37589,-0.300022,0.780075,-3.53042e-05,-2.89642e-05,0.597696,-0.0717470426604565,1.1816358820536577,-3.5303576814027515e-05,0.4562869333975532,-2.8963780541624295e-05,-0.2591980771398604
844,0.8251,184.928,554.414,0.113867,320.016,0.0275844,-0.00772867,-0.0745195,0.376234,-0.300296,0.780785,-3.42026e-05,-2.85891e-05,0.598243,-0.07181062581028652,1.1831853935414012,-3.420201509773957e-05,0.45678798227810846,-2.858869133559594e-05,-0.25940102906104123
845,0.8261,184.753,554.036,-0.0971542,320.099,-0.0539655,-0.0276101,-0.0745876,0.376575,-0.30057,0.781499,-3.54432e-05,-2.90772e-05,0.598792,-0.07187383335442754,1.1847447445344486,-3.544257189724842e-05,0.4572848316880753,-2.9076777262271314e-05,-0.2596039253810132
846,0.8271,184.941,554.442,0.12944,320.01,0.0335998,-0.00633305,-0.0746561,0.376919,-0.300844,0.782207,-3.41676e-05,-2.86378e-05,0.599339,-0.0719374078193924,1.1862920915097726,-3.416701629421759e-05,0.4577862239046928,-2.8637389942076652e-05,-0.2598067661150092
847,0.8281,184.74,554.006,-0.113798,320.106,-0.060431,-0.0292433,-0.0747241,0.377259,-0.301118,0.78292,-3.55941e-05,-2.91951e-05,0.599887,-0.0720005139300286,1.187851473624681,-3.559346653758677e-05,0.4582819554904145,-2.9194673827226403e-05,-0.26000955127825764
848,0.8291,184.956,554.474,0.147211,320.003,0.0404708,-0.00473262,-0.0747926,0.377603,-0.301391,0.783628,-3.41199e-05,-2.86821e-05,0.600433,-0.07206407971767137,1.1894010209430306,-3.411931792285383e-05,0.4587836907766245,-2.8681688672538286e-05,-0.2602115410978938
849,0.8301,184.724,553.972,-0.132754,320.114,-0.0677927,-0.0310952,-0.0748605,0.377943,-0.301665,0.784341,-3.57585e-05,-2.93182e-05,0.60098,-0.07212708442762439,1.1909626205150543,-3.575786067244735e-05,0.4592797615587427,-2.931777022574522e-05,-0.26041421536799003
850,0.8311,184.972,554.51,0.167458,319.995,0.0483068,-0.00290142,-0.0749289,0.378286,-0.301938,0.785048,-3.40579e-05,-2.87214e-05,0.601526,-0.07219054876454445,1.192512178792064,-3.4057320036362526e-05,0.45978038036817503,-2.8720987544583743e-05,-0.26061609472940783
851,0.8321,184.706,553.934,-0.154309,320.122,-0.0761621,-0.0331933,-0.0749967,0.378625,-0.302212,0.78576,-3.59381e-05,-2.94474e-05,0.602073,-0.07225345211289069,1.1940738033357303,-3.593745423424721e-05,0.4602753298063096,-2.9446966429591548e-05,-0.2608186581669938
852,0.8331,184.992,554.551,0.19049,319.985,0.0572293,-0.000810898,-0.0750651,0.378968,-0.302484,0.786465,-3.39799e-05,-2.87551e-05,0.602618,-0.07231690780655664,1.1956211707500053,-3.39793226897811e-05,0.4607762901542216,-2.875468657603797e-05,-0.2610196881506551
853,0.8341,184.686,553.89,-0.17878,320.132,-0.0856621,-0.0355676,-0.0751327,0.379307,-0.302758,0.787177,-3.61346e-05,-2.95833e-05,0.603164,-0.07237961706399221,1.1971850096841754,-3.6133947153182966e-05,0.4612715772630054,-2.9582862418497946e-05,-0.2612221410187924
854,0.8351,185.013,554.598,0.216651,319.975,0.0673732,0.00157065,-0.0752011,0.37965,-0.30303,0.787881,-3.38837e-05,-2.87823e-05,0.603709,-0.07244306412827062,1.1987323725388097,-3.3883125953870774e-05,0.4617728793824054,-2.8781885793582873e-05,-0.26142306127004233
855,0.8361,184.663,553.84,-0.206519,320.143,-0.0964285,-0.0382517,-0.0752686,0.379988,-0.303303,0.788593,-3.63501e-05,-2.97266e-05,0.604254,-0.07250567210839887,1.2002984274374424,-3.6349439343164036e-05,0.4622670421244355,-2.9726158168985606e-05,-0.26162466525411965
856,0.8371,185.038,554.651,0.246321,319.963,0.0788884,0.00427826,-0.075337,0.380331,-0.303574,0.789296,-3.37671e-05,-2.88022e-05,0.604798,-0.07256911055080717,1.201845781063004,-3.376652989794948e-05,0.46276868574684715,-2.880178522057797e-05,-0.26182473785877336
857,0.8381,184.637,553.784,-0.237911,320.156,-0.108611,-0.0412825,-0.0754044,0.380668,-0.303848,0.790007,-3.65868e-05,-2.98784e-05,0.605344,-0.07263161728625545,1.2034118500849038,-3.658613071122474e-05,0.4632617218658637,-2.9877953645063293e-05,-0.26202697017350773
858,0.8391,185.066,554.712,0.279919,319.95,0.0919404,0.00735048,-0.0754727,0.381011,-0.304119,0.790709,-3.36276e-05,-2.88141e-05,0.605886,-0.07269495438380824,1.2049591882558168,-3.3627034598637806e-05,0.4637637067219451,-2.881368487783753e-05,-0.26222693376829975
859,0.8401,184.608,553.72,-0.273382,320.17,-0.122372,-0.0447007,-0.07554,0.381348,-0.304392,0.79142,-3.68472e-05,-3.00394e-05,0.606431,-0.07275735991340859,1.2065274716973637,-3.684652115021336e-05,0.46425707821953854,-3.0038948821697886e-05,-0.26242831832513835
860,0.8411,185.098,554.78,0.317908,319.935,0.106713,0.0108298,-0.0756083,0.381691,-0.304662,0.79212,-3.34624e-05,-2.88168e-05,0.606973,-0.07282068842303335,1.208072581652944,-3.3461840140192045e-05,0.46475940454140696,-2.881638480001225e-05,-0.2626274357971221
861,0.8421,184.575,553.648,-0.313394,320.186,-0.137893,-0.0485511,-0.0756754,0.382026,-0.304935,0.792831,-3.71338e-05,-3.02109e-05,0.607518,-0.07288290006761611,1.2096430795043256,-3.7133110548981385e-05,0.46525018114241923,-3.0210443655365182e-05,-0.2628287110318299
862,0.8431,184.723,553.97,-0.134967,320.114,-0.0681511,-0.0327449,-0.0757431,0.382366,-0.305206,0.793535,-3.63462e-05,-2.99691e-05,0.60806,-0.07294566377070621,1.2111992159280471,-3.6345539484838874e-05,0.46574845090506733,-2.9968650930967122e-05,-0.26302845738428704
863,0.8441,184.837,554.216,0.00286393,320.06,-0.0150742,-0.0197892,-0.0758109,0.382706,-0.305478,0.794238,-3.56565e-05,-2.97461e-05,0.608603,-0.07300851592399049,1.212754235502183,-3.565586431453216e-05,0.46624689010823794,-2.9745657589175245e-05,-0.26322888638429887
864,0.8451,184.806,554.149,-0.0340668,320.075,-0.0297724,-0.0227618,-0.0758784,0.383045,-0.305749,0.794943,-3.59269e-05,-2.98707e-05,0.609145,-0.07307108573741061,1.2143147772645473,-3.5926254636664545e-05,0.4667440320647853,-2.9870253875130537e-05,-0.2634285243039288
865,0.8461,184.869,554.285,0.0420441,320.045,-0.000366628,-0.0154443,-0.0759461,0.383384,-0.30602,0.795646,-3.55247e-05,-2.97507e-05,0.609687,-0.07313383670076212,1.2158719878483524,-3.5524069005310466e-05,0.4672413425810251,-2.9750257452332285e-05,-0.2636281081290127
866,0.8471,184.812,554.161,-0.0269094,320.072,-0.0272242,-0.0218698,-0.0760135,0.383722,-0.306291,0.79635,-3.59557e-05,-2.99417e-05,0.610229,-0.07319630537495059,1.217432510967484,-3.595505360154405e-05,0.46773735397602123,-2.9941251751819387e-05,-0.26382763787420804
867,0.8481,184.877,554.3,0.050677,320.041,0.00285166,-0.0146053,-0.0760811,0.384061,-0.306561,0.797052,-3.55368e-05,-2.98182e-05,0.61077,-0.07325895518711967,1.2189896950978638,-3.553616857543407e-05,0.46823500128547213,-2.981775544186327e-05,-0.2640263775809143
868,0.8491,184.809,554.154,-0.0306443,320.074,-0.0287332,-0.0222677,-0.0761485,0.384398,-0.306832,0.797755,-3.60362e-05,-3.00362e-05,0.611311,-0.07332141542860626,1.2205501933043696,-3.603555070397224e-05,0.4687298798632622,-3.0035748917911498e-05,-0.2642257994097116
869,0.8501,184.881,554.31,0.0563908,320.039,0.00502819,-0.014128,-0.076216,0.384737,-0.307103,0.798457,-3.55616e-05,-2.98922e-05,0.611852,-0.07338396412202275,1.2221095668161333,-3.55609676937485e-05,0.4692278636960263,-2.9891753232647034e-05,-0.2644251672025155
870,0.8511,184.805,554.144,-0.0361441,320.076,-0.0309029,-0.022854,-0.0762833,0.385074,-0.307373,0.79916,-3.61258e-05,-3.01347e-05,0.612392,-0.07344632328282807,1.2236722590635716,-3.612514747119988e-05,0.46972307692483417,-3.0134245954438477e-05,-0.2646237455980811
871,0.8521,184.887,554.321,0.0623487,320.037,0.00731503,-0.0136391,-0.0763508,0.385412,-0.307643,0.79986,-3.55846e-05,-2.99659e-05,0.612932,-0.07350886354524888,1.2252293745717622,-3.5583966875640805e-05,0.47021992728781603,-2.996545102695869e-05,-0.2648222703847173
872,0.8531,184.8,554.133,-0.0424382,320.079,-0.03338,-0.0235182,-0.076418,0.385749,-0.307913,0.800562,-3.622e-05,-3.02353e-05,0.613473,-0.07357112165772262,1.2267920340220044,-3.6219344063725956e-05,0.4707154748983944,-3.0234842917975513e-05,-0.2650207415768968
873,0.8541,184.892,554.333,0.0689667,320.034,0.00986226,-0.0130909,-0.0764854,0.386087,-0.308183,0.801262,-3.56039e-05,-3.00385e-05,0.614012,-0.07363356085989814,1.228351334137189,-3.5603266188677374e-05,0.47121266074858537,-3.0038048848823884e-05,-0.265219159189088
874,0.8551,184.794,554.12,-0.0494815,320.082,-0.0361501,-0.0242536,-0.0765525,0.386423,-0.308453,0.801963,-3.63187e-05,-3.03379e-05,0.614552,-0.07369571796257024,1.2299139560574126,-3.631804048398468e-05,0.4717070712589113,-3.0337439810512734e-05,-0.2654175232357556
875,0.8561,184.898,554.346,0.076355,320.031,0.0127113,-0.0124715,-0.0766198,0.386761,-0.308722,0.802662,-3.56188e-05,-3.01098e-05,0.61509,-0.07375805614304809,1.2314732108087445,-3.5618165658113377e-05,0.4722045923253204,-3.010934670455434e-05,-0.2656150993468268
876,0.8571,184.788,554.106,-0.0573366,320.085,-0.0392375,-0.0250657,-0.0766869,0.387096,-0.308992,0.803363,-3.64224e-05,-3.04426e-05,0.615629,-0.07382020489236707,1.233038021931741,-3.6421736712477504e-05,0.4726978634820551,-3.0442136628727745e-05,-0.26581335650408255
877,0.8581,184.905,554.361,0.0845971,320.028,0.0158943,-0.0117731,-0.0767541,0.387434,-0.309261,0.804061,-3.56289e-05,-3.01796e-05,0.616167,-0.07388244208340522,1.234597226570164,-3.5628265298237594e-05,0.473195719492838,-3.0179144600461782e-05,-0.2660108261503248
878,0.8591,184.781,554.09,-0.0660821,320.088,-0.042673,-0.0259622,-0.0768211,0.387769,-0.309531,0.804761,-3.65314e-05,-3.05497e-05,0.616706,-0.0739444898811612,1.2361619922328502,-3.65307327365727e-05,0.4736893227327945,-3.054923336265336e-05,-0.26620897647576647
879,0.8601,184.913,554.377,0.0937772,320.025,0.0194443,-0.0109877,-0.0768883,0.388106,-0.309799,0.805458,-3.56337e-05,-3.02476e-05,0.617244,-0.07400671872052877,1.2377211404414665,-3.563306512721631e-05,0.4741860397266682,-3.0247142545958283e-05,-0.26640560612052167
880,0.8611,184.773,554.073,-0.0758042,320.092,-0.0464903,-0.0269511,-0.0769552,0.388441,-0.310069,0.806158,-3.66464e-05,-3.06593e-05,0.617782,-0.07406866559890024,1.2392880936094008,-3.6645728528905686e-05,0.47467997477947854,-3.0658830008412075e-05,-0.26660364986975993
881,0.8621,184.922,554.396,0.103986,320.02,0.0233972,-0.0101068,-0.0770223,0.388778,-0.310337,0.806854,-3.56326e-05,-3.03138e-05,0.618318,-0.0741307935070239,1.2408471806218957,-3.563196516642719e-05,0.4751770256793517,-3.031334054137691e-05,-0.2668001737562177
882,0.8631,184.764,554.053,-0.0865951,320.097,-0.0507252,-0.0280413,-0.0770891,0.389112,-0.310606,0.807553,-3.67677e-05,-3.07716e-05,0.618856,-0.0741926395043383,1.242414080368813,-3.6767024076400645e-05,0.4756698170975142,-3.077112655913705e-05,-0.26699737798431944
883,0.8641,184.931,554.416,0.115321,320.016,0.0277911,-0.00912128,-0.0771562,0.389449,-0.310874,0.808248,-3.56252e-05,-3.03778e-05,0.619392,-0.07425475909409196,1.2439730998511855,-3.5624565430047994e-05,0.47616720163046256,-3.0377338599341108e-05,-0.2671937963657809
884,0.8651,184.754,554.032,-0.0985541,320.101,-0.0554169,-0.029242,-0.0772229,0.389783,-0.311143,0.808946,-3.68961e-05,-3.0887e-05,0.619929,-0.07431650424243685,1.2455399398384235,-3.689541934726037e-05,0.476660323822629,-3.088652300153871e-05,-0.26739089472364086
885,0.8661,184.942,554.438,0.127886,320.011,0.0326674,-0.00802167,-0.07729,0.390119,-0.31141,0.809641,-3.56106e-05,-3.04394e-05,0.620465,-0.07437861552114544,1.2471011325482362,-3.5609965950089695e-05,0.477156565055292,-3.0438936726162602e-05,-0.26758647524358836
886,0.8671,184.743,554.008,-0.111787,320.107,-0.0606064,-0.0305633,-0.0773566,0.390453,-0.311679,0.810339,-3.70321e-05,-3.10055e-05,0.621001,-0.07444025985257274,1.2486701566644687,-3.7031414320209954e-05,0.47765001775003313,-3.1005019334506834e-05,-0.26778346798503627
887,0.8681,184.953,554.463,0.141793,320.005,0.0380702,-0.00679752,-0.0774236,0.390789,-0.311946,0.811032,-3.55884e-05,-3.04985e-05,0.621536,-0.07450227027779022,1.2502290251685868,-3.558776674039699e-05,0.47814659157572814,-3.0498034925496853e-05,-0.2679789437019148
888,0.8691,184.731,553.982,-0.126406,320.113,-0.0663379,-0.0320159,-0.0774901,0.391122,-0.312215,0.811729,-3.71764e-05,-3.11275e-05,0.622072,-0.07456381383047095,1.2517979815168987,-3.717570896621947e-05,0.4786388963549193,-3.112701554441877e-05,-0.2681758308835458
889,0.8701,184.966,554.491,0.15716,319.999,0.0440465,-0.00543787,-0.077557,0.391458,-0.312482,0.812421,-3.55577e-05,-3.05547e-05,0.622606,-0.07462572344042606,1.2533567649969886,-3.555706783242574e-05,0.47913580249965193,-3.0554233209856285e-05,-0.2683712018535147
890,0.8711,184.718,553.952,-0.142532,320.119,-0.0726585,-0.0336112,-0.0776234,0.39179,-0.31275,0.813119,-3.73296e-05,-3.12533e-05,0.623142,-0.07468716625246574,1.2549301570689098,-3.732890325913729e-05,0.47962695711323633,-3.125281162075222e-05,-0.2685672520995116
891,0.8721,184.98,554.521,0.174115,319.993,0.0506469,-0.00393103,-0.0776904,0.392126,-0.313016,0.81381,-3.55178e-05,-3.06077e-05,0.623676,-0.07474916013550859,1.2564888522746172,-3.551716925043191e-05,0.480124195302164,-3.060723158909706e-05,-0.26876178733611966
892,0.8731,184.703,553.92,-0.160291,320.126,-0.0796176,-0.0353613,-0.0777566,0.392458,-0.313284,0.814506,-3.74926e-05,-3.13832e-05,0.62421,-0.0748104097137241,1.2580599151822716,-3.749189716129031e-05,0.4806156781166371,-3.13827075525408e-05,-0.26895773291923264
893,0.8741,184.996,554.555,0.192792,319.985,0.0579247,-0.00226457,-0.0778235,0.392793,-0.31355,0.815196,-3.54679e-05,-3.06573e-05,0.624744,-0.07487230282696655,1.2596185141785639,-3.546727102143876e-05,0.48111176745913165,-3.065683006975295e-05,-0.2691521643017558
894,0.8751,184.687,553.885,-0.179818,320.134,-0.087268,-0.037279,-0.0778897,0.393124,-0.313818,0.815893,-3.76661e-05,-3.15174e-05,0.625278,-0.07493354425340581,1.2611940172819947,-3.766539064131713e-05,0.48160209659915654,-3.151690333191848e-05,-0.26934800527785996
895,0.8761,185.013,554.592,0.213334,319.977,0.0659367,-0.000425447,-0.0779566,0.39346,-0.314084,0.816581,-3.54072e-05,-3.07031e-05,0.62581,-0.07499542912922308,1.262750254049947,-3.5406573172469535e-05,0.4820999985464567,-3.070262866466944e-05,-0.26954233286174156
896,0.8771,184.67,553.847,-0.201255,320.143,-0.0956647,-0.0393777,-0.0780226,0.393791,-0.314351,0.817278,-3.78509e-05,-3.16564e-05,0.626344,-0.07505647741628496,1.2643279407369588,-3.785018366375681e-05,0.4825906548451133,-3.165589894149612e-05,-0.26973733902438624
897,0.8781,185.032,554.633,0.235891,319.968,0.0747431,0.00160023,-0.0780895,0.394126,-0.314617,0.817965,-3.53346e-05,-3.07449e-05,0.626876,-0.07511835406814871,1.2658840685009283,-3.5333975740403645e-05,0.48308740591564514,-3.07444273803803e-05,-0.2699315630592639
898,0.8791,184.65,553.804,-0.22475,320.152,-0.104866,-0.0416718,-0.0781554,0.394456,-0.314884,0.818661,-3.80479e-05,-3.18004e-05,0.62741,-0.07517930176036713,1.2674616727552004,-3.80471761878276e-05,0.48357690552259003,-3.179989437263053e-05,-0.27012646531131856
899,0.8801,185.052,554.677,0.260624,319.958,0.0844074,0.00382694,-0.0782222,0.394791,-0.315149,0.819347,-3.52493e-05,-3.07822e-05,0.627941,-0.07524107771966948,1.269017685113929,-3.524867875071003e-05,0.484073987042446,-3.07817262329424e-05,-0.27031985617259024
900,0.8811,184.629,553.758,-0.25046,320.163,-0.114933,-0.0441763,-0.078288,0.395121,-0.315417,0.820043,-3.82579e-05,-3.19499e-05,0.628474,-0.07530192485486287,1.270597471124527,-3.825716817584812e-05,0.4845638122748883,-3.1949389607377476e-05,-0.2705153842492034
901,0.8821,185.075,554.726,0.287699,319.947,0.094997,0.00627009,-0.0783549,0.395456,-0.315681,0.820728,-3.51503e-05,-3.08146e-05,0.629004,-0.07536378508684227,1.2721533632244526,-3.514968223539139e-05,0.4850612244638901,-3.0814125235090195e-05,-0.27070794276891863
902,0.8831,184.606,553.707,-0.278547,320.174,-0.125929,-0.0469068,-0.0784205,0.395785,-0.315948,0.821423,-3.8482e-05,-3.21052e-05,0.629537,-0.07542443923306286,1.2737330586924829,-3.848125957728321e-05,0.4855498899878097,-3.210468463354932e-05,-0.270902637755262
903,0.8841,185.099,554.779,0.317292,319.935,0.106582,0.00894545,-0.0784873,0.39612,-0.316213,0.822107,-3.50363e-05,-3.08419e-05,0.630066,-0.07548619881772889,1.275288824115747,-3.503568623597353e-05,0.48604763256818284,-3.0841424393468486e-05,-0.271095822958087
904,0.8851,184.581,553.652,-0.309182,320.186,-0.137921,-0.0498797,-0.0785529,0.396448,-0.316479,0.822802,-3.87211e-05,-3.22668e-05,0.630598,-0.07554684493387209,1.2768706994865253,-3.872035034790944e-05,0.48653513613788,-3.226627943242466e-05,-0.27128968568429446
905,0.8861,184.731,553.98,-0.128081,320.113,-0.0666888,-0.0338097,-0.0786191,0.39678,-0.316744,0.82349,-3.79013e-05,-3.20103e-05,0.631128,-0.075608041707102,1.2784377255229167,-3.790058175479061e-05,0.4870287477380695,-3.200978767581297e-05,-0.2714827683330072
906,0.8871,184.835,554.207,-0.00144738,320.063,-0.0175788,-0.021941,-0.0786853,0.397112,-0.317009,0.824177,-3.72674e-05,-3.18072e-05,0.631658,-0.07566923442923956,1.280003550039487,-3.72667055790199e-05,0.48752252324451706,-3.180669415636661e-05,-0.27167579982159706
907,0.8881,184.813,554.157,-0.0286705,320.074,-0.0285843,-0.0240309,-0.0787513,0.397443,-0.317274,0.824865,-3.74845e-05,-3.19169e-05,0.632188,-0.07573023824661906,1.2815727322186867,-3.7483797464932245e-05,0.48801497469593014,-3.1916390661135274e-05,-0.2718687801636197
908,0.8891,184.866,554.271,0.0350643,320.049,-0.00379545,-0.0179087,-0.0788174,0.397775,-0.317539,0.825553,-3.71517e-05,-3.18241e-05,0.632718,-0.07579133045875108,1.2831429943666928,-3.715100988410658e-05,0.4885090776840866,-3.1823593618751644e-05,-0.2720617093726272
909,0.8901,184.82,554.171,-0.0202392,320.071,-0.025515,-0.0230542,-0.0788833,0.398105,-0.317804,0.826241,-3.75094e-05,-3.19934e-05,0.633247,-0.07585223380328665,1.284714337226779,-3.7508696531296515e-05,0.4890003667379579,-3.1992888216647586e-05,-0.2722545874621678
910,0.8911,184.872,554.283,0.041691,320.046,-0.00134184,-0.0172792,-0.0789493,0.398436,-0.318068,0.826927,-3.71794e-05,-3.19043e-05,0.633776,-0.07591322554310609,1.28628218897378,-3.717870885466823e-05,0.4894933074365331,-3.1903791063214726e-05,-0.27244668689283724
911,0.8921,184.819,554.168,-0.0220233,320.072,-0.0262782,-0.0232842,-0.0790152,0.398766,-0.318333,0.827614,-3.75834e-05,-3.20925e-05,0.634305,-0.0759741208550202,1.2878534044883372,-3.7582693752868934e-05,0.48998492133981975,-3.2091985041282634e-05,-0.27263946297685127
912,0.8931,184.875,554.289,0.0452029,320.045,-1.98152e-05,-0.0170236,-0.0790812,0.399097,-0.318597,0.8283,-3.72216e-05,-3.19915e-05,0.634834,-0.07603510455055973,1.2894234103742654,-3.7220907284862825e-05,0.4904781879799087,-3.199098827744162e-05,-0.27283146081379583
913,0.8941,184.816,554.162,-0.0251663,320.073,-0.0275496,-0.0236626,-0.0791469,0.399426,-0.318862,0.828986,-3.76643e-05,-3.21949e-05,0.635362,-0.07609580705009178,1.2909944936537348,-3.766359070911385e-05,0.49096863597802587,-3.219438174972833e-05,-0.2730241349462301
914,0.8951,184.878,554.295,0.048598,320.044,0.00127074,-0.0167896,-0.0792128,0.399757,-0.319126,0.829671,-3.72641e-05,-3.20794e-05,0.63589,-0.07615669033028105,1.292564362500583,-3.7263405702092633e-05,0.49146222828155417,-3.207888546152837e-05,-0.2732160312431786
915,0.8961,184.814,554.156,-0.0286933,320.075,-0.0289703,-0.0240801,-0.0792786,0.400086,-0.31939,0.830357,-3.77475e-05,-3.22985e-05,0.636418,-0.07621747722014671,1.2941376012124395,-3.7746787572068285e-05,0.49195300008219345,-3.229797840909043e-05,-0.2734078768861913
916,0.8971,184.881,554.301,0.0522251,320.042,0.00265502,-0.0165366,-0.0793444,0.400416,-0.319653,0.831041,-3.73054e-05,-3.21672e-05,0.636945,-0.07627826011036665,1.2957073281170697,-3.7304704162188784e-05,0.492445425817998,-3.2166682641165956e-05,-0.2735989454879477
917,0.8981,184.811,554.149,-0.0325129,320.076,-0.030507,-0.0245259,-0.07941,0.400745,-0.319917,0.831727,-3.78327e-05,-3.24033e-05,0.637472,-0.07633885426899323,1.297282723643042,-3.783198435247659e-05,0.4929365211438437,-3.240277501870281e-05,-0.2737906900549424
918,0.8991,184.884,554.308,0.056136,320.041,0.00415171,-0.016258,-0.0794758,0.401074,-0.32018,0.83241,-3.73452e-05,-3.22548e-05,0.637999,-0.07639962917286602,1.2988523036938617,-3.7344502676672775e-05,0.4934277780666325,-3.2254279819565745e-05,-0.2739816579900738
919,0.9001,184.807,554.141,-0.0366296,320.078,-0.0321615,-0.0250001,-0.0795413,0.401403,-0.320444,0.833095,-3.79199e-05,-3.25091e-05,0.638525,-0.07646012301596028,1.3004275569845487,-3.791918104967262e-05,0.4939191966395391,-3.250857158498821e-05,-0.2741733015343034
920,0.9011,184.888,554.316,0.0603516,320.039,0.00576866,-0.0159517,-0.0796071,0.401732,-0.320707,0.833777,-3.73834e-05,-3.23421e-05,0.639052,-0.07652088994061201,1.3019969836920877,-3.738270124942211e-05,0.49441077691575486,-3.2341576999939115e-05,-0.274364168855847
921,0.9021,184.804,554.133,-0.0410585,320.08,-0.0339396,-0.0255041,-0.0796725,0.40206,-0.32097,0.834461,-3.80092e-05,-3.26161e-05,0.639578,-0.07658128349951898,1.3035720882532829,-3.800847765955684e-05,0.4949010240467173,-3.261556810074673e-05,-0.27455498598588535
922,0.9031,184.891,554.324,0.0648892,320.037,0.00751241,-0.0156162,-0.0797382,0.402389,-0.321233,0.835143,-3.742e-05,-3.24291e-05,0.640103,-0.07664195011627295,1.3051436602626119,-3.741929988054782e-05,0.495392927397293,-3.2428574182397085e-05,-0.2747457529376174
923,0.9041,184.8,554.124,-0.0458167,320.082,-0.0358478,-0.0260397,-0.0798036,0.402717,-0.321496,0.835826,-3.81006e-05,-3.27243e-05,0.640629,-0.07670233575810337,1.3067186111670805,-3.809987418135208e-05,0.49588349672645116,-3.2723764565978364e-05,-0.274936469724238
924,0.9051,184.896,554.333,0.0697655,320.035,0.00938962,-0.0152498,-0.0798692,0.403046,-0.321758,0.836507,-3.74547e-05,-3.25157e-05,0.641154,-0.07676290209827996,1.3082900215457895,-3.745399858146037e-05,0.49637572336371605,-3.2515171370373075e-05,-0.27512641148571293
925,0.9061,184.796,554.115,-0.0509188,320.084,-0.0378925,-0.0266084,-0.0799345,0.403373,-0.322021,0.83719,-3.81943e-05,-3.28337e-05,0.641679,-0.07682318751243267,1.3098671221490528,-3.819357060697026e-05,0.4968651182369568,-3.2833160980016984e-05,-0.2753170281722992
926,0.9071,184.9,554.342,0.0749964,320.033,0.0114068,-0.014851,-0.08,0.403702,-0.322283,0.83787,-3.74876e-05,-3.26019e-05,0.642203,-0.07688365361336424,1.3114383659544626,-3.7486897348726345e-05,0.49735766788083047,-3.2601368563867084e-05,-0.2755068702405211
927,0.9081,184.791,554.105,-0.0563816,320.086,-0.0400799,-0.0272116,-0.0800653,0.404029,-0.322546,0.838552,-3.82904e-05,-3.29444e-05,0.642728,-0.07694393114270048,1.3130153045949973,-3.828966693197877e-05,0.4978473839024333,-3.294385733920713e-05,-0.27569738687961176
928,0.9091,184.905,554.352,0.0805978,320.031,0.0135704,-0.0144183,-0.0801308,0.404357,-0.322808,0.839231,-3.75185e-05,-3.26878e-05,0.643252,-0.07700438933518328,1.314586375304963,-3.7517796189878716e-05,0.4983387584253698,-3.268726575966774e-05,-0.27588712930690584
929,0.9101,184.787,554.095,-0.062221,320.089,-0.0424167,-0.0278508,-0.0801959,0.404683,-0.32307,0.839913,-3.8389e-05,-3.30564e-05,0.643776,-0.07706447439364761,1.3161654616201486,-3.8388263151722946e-05,0.49882729648799384,-3.305585364321573e-05,-0.27607682202819595
930,0.9111,184.91,554.363,0.0865878,320.029,0.0158872,-0.0139502,-0.0802613,0.405011,-0.323332,0.840591,-3.75473e-05,-3.27732e-05,0.644299,-0.07712483240329382,1.317736354275561,-3.754659510890601e-05,0.4993189924749757,-3.277266296453085e-05,-0.276266465056503
931,0.9121,184.782,554.083,-0.0684538,320.091,-0.044909,-0.0285277,-0.0803264,0.405337,-0.323594,0.841272,-3.84901e-05,-3.31697e-05,0.644823,-0.07718490962116975,1.3193152702927065,-3.848935926564767e-05,0.49980785014599327,-3.316914989159869e-05,-0.276456058404845
932,0.9131,184.915,554.374,0.0929803,320.026,0.0183635,-0.0134452,-0.0803918,0.405665,-0.323855,0.84195,-3.7574e-05,-3.2858e-05,0.645345,-0.07724525975460972,1.3208882992425206,-3.75732941061413e-05,0.5002998678073265,-3.285746018177882e-05,-0.2766448787314768
933,0.9141,184.776,554.071,-0.0750941,320.094,-0.0475631,-0.0292435,-0.0804568,0.405991,-0.324117,0.84263,-3.85939e-05,-3.32845e-05,0.645868,-0.07730523686344848,1.322467039997028,-3.8593155264998735e-05,0.5007890452958301,-3.3283946077156124e-05,-0.27683437294842284
934,0.9151,184.921,554.386,0.0997922,320.024,0.0210055,-0.012902,-0.0805221,0.406318,-0.324378,0.843307,-3.75984e-05,-3.29424e-05,0.64639,-0.07736548686429734,1.3240398825302302,-3.759769318900652e-05,0.5012798835613246,-3.294185740509992e-05,-0.27702309454784324
935,0.9161,184.771,554.058,-0.0821579,320.097,-0.0503848,-0.0299999,-0.080587,0.406643,-0.324639,0.843986,-3.87004e-05,-3.34006e-05,0.646913,-0.07742536390116894,1.32561844147058,-3.8699651149221026e-05,0.5017678788184159,-3.340004220619974e-05,-0.2772117668973536
936,0.9171,184.927,554.399,0.107038,320.021,0.0238197,-0.012319,-0.0806523,0.406971,-0.3249,0.844662,-3.76204e-05,-3.30262e-05,0.647434,-0.07748560605797838,1.3271910910326778,-3.761969236160123e-05,0.5022605394745991,-3.302565464102791e-05,-0.27740039000980643
937,0.9181,184.765,554.045,-0.0896595,320.1,-0.0533803,-0.0307981,-0.0807171,0.407295,-0.325161,0.845342,-3.88098e-05,-3.35183e-05,0.647957,-0.07754538305391023,1.3287741191431381,-3.880904690944931e-05,0.5027473507485565,-3.351773826809623e-05,-0.2775889638980509
938,0.9191,184.934,554.413,0.114733,320.018,0.0268117,-0.011695,-0.0807823,0.407622,-0.325421,0.846017,-3.764e-05,-3.31094e-05,0.648477,-0.07760552513428198,1.330346572316802,-3.763929162403645e-05,0.5032388294846453,-3.3108851889895874e-05,-0.2777767663520605
939,0.9201,184.758,554.03,-0.0976121,320.103,-0.0565546,-0.0316395,-0.080847,0.407947,-0.325682,0.846695,-3.89222e-05,-3.36375e-05,0.648999,-0.07766520212623429,1.331927083025418,-3.892144254102892e-05,0.5037274615026297,-3.363693426561287e-05,-0.27796524201889816
940,0.9211,184.941,554.428,0.12289,320.014,0.0299873,-0.0110288,-0.0809122,0.408273,-0.325943,0.847369,-3.7657e-05,-3.3192e-05,0.649519,-0.07772533639465729,1.3334993316676504,-3.76562909840672e-05,0.504217756568833,-3.31914491517038e-05,-0.2781536685000058
941,0.9221,184.751,554.015,-0.10603,320.107,-0.0599134,-0.0325252,-0.0809769,0.408597,-0.326203,0.848048,-3.90375e-05,-3.37583e-05,0.65004,-0.07778500563507174,1.3350843157550552,-3.903673804672714e-05,0.5047052020838707,-3.375773019498318e-05,-0.2783413241499042
942,0.9231,184.948,554.443,0.131524,320.011,0.033352,-0.010319,-0.081042,0.408924,-0.326463,0.848721,-3.76714e-05,-3.3274e-05,0.65056,-0.07784503987706914,1.3366563564319107,-3.7670690441693466e-05,0.5051973211420331,-3.3273446426562714e-05,-0.2785289310156758
943,0.9241,184.744,553.999,-0.114923,320.11,-0.0634613,-0.0334565,-0.0811065,0.409247,-0.326724,0.849398,-3.91559e-05,-3.38806e-05,0.651081,-0.07790451695384071,1.338238808384761,-3.9155133417789756e-05,0.505683578403082,-3.3880026058974444e-05,-0.2787172103931531
944,0.9251,184.955,554.46,0.140645,320.007,0.0369105,-0.00956476,-0.0811716,0.409573,-0.326983,0.850071,-3.76831e-05,-3.33553e-05,0.6516,-0.07796454341590453,1.339812972749697,-3.768239000090379e-05,0.5061745112673504,-3.335474371812808e-05,-0.27890399844556435
945,0.9261,184.736,553.982,-0.124304,320.114,-0.0672027,-0.0344343,-0.0812361,0.409896,-0.327243,0.850748,-3.92775e-05,-3.40046e-05,0.65212,-0.07802401278494642,1.341397562455342,-3.927672864911802e-05,0.50666108421179,-3.400402185016471e-05,-0.27909145903503585
946,0.9271,184.964,554.477,0.150264,320.003,0.0406674,-0.00876496,-0.0813011,0.410223,-0.327503,0.851419,-3.76921e-05,-3.34359e-05,0.652638,-0.07808393927648327,1.3429691674342532,-3.769138966169816e-05,0.5071538429479898,-3.343534102651091e-05,-0.2792788708910897
947,0.9281,184.728,553.964,-0.134182,320.118,-0.0711416,-0.0354597,-0.0813655,0.410545,-0.327763,0.852096,-3.94022e-05,-3.41302e-05,0.653158,-0.07814330875907605,1.3445558946071507,-3.9401423743479214e-05,0.5076392246276755,-3.412961757132127e-05,-0.2794662340263949
948,0.9291,184.972,554.495,0.160392,319.999,0.0446269,-0.00791873,-0.0814305,0.410871,-0.328021,0.852767,-3.76982e-05,-3.35157e-05,0.653676,-0.07820322749662667,1.3461296195381003,-3.76974894318316e-05,0.5081307951365435,-3.351513835525566e-05,-0.2796521077592735
949,0.9301,184.72,553.945,-0.144565,320.123,-0.0752811,-0.0365334,-0.0814948,0.411193,-0.328281,0.853443,-3.95303e-05,-3.42575e-05,0.654195,-0.0782624971235597,1.3477161393441857,-3.952951868801957e-05,0.5086164914454867,-3.425691321856661e-05,-0.2798393738656073
950,0.9311,184.981,554.515,0.171037,319.995,0.048792,-0.00702541,-0.0815597,0.411519,-0.32854,0.854112,-3.77014e-05,-3.35948e-05,0.654712,-0.07832231594635453,1.349287286931676,-3.770068931119308e-05,0.509108380595273,-3.359423570103992e-05,-0.28002587131531387
951,0.9321,184.711,553.925,-0.15546,320.127,-0.0796241,-0.0376561,-0.0816239,0.41184,-0.3288,0.854788,-3.96616e-05,-3.43866e-05,0.655231,-0.0783814857542996,1.3508759420425713,-3.966081348916184e-05,0.5095928821437823,-3.438600878769016e-05,-0.2802130402557552
952,0.9331,184.99,554.535,0.182205,319.991,0.0531662,-0.00608427,-0.0816888,0.412166,-0.329058,0.855457,-3.77017e-05,-3.36732e-05,0.655748,-0.07844129685498302,1.3524492042453273,-3.770098929989363e-05,0.5100850896488254,-3.3672633064196766e-05,-0.2803987213374798
953,0.9341,184.702,553.904,-0.166872,320.132,-0.0841728,-0.0388283,-0.0817529,0.412487,-0.329317,0.856132,-3.97963e-05,-3.45173e-05,0.656266,-0.07850036687464024,1.3540376434961288,-3.9795508137707714e-05,0.5105699047712668,-3.451670428489262e-05,-0.28058507393495025
954,0.9351,185.0,554.556,0.193901,319.986,0.0577513,-0.00509517,-0.0818178,0.412812,-0.329575,0.8568,-3.7699e-05,-3.37508e-05,0.656782,-0.07856017026018924,1.355610665972998,-3.76982894015887e-05,0.5110609197759337,-3.375023044815961e-05,-0.2807706590443665
955,0.9361,184.692,553.883,-0.178805,320.137,-0.0889285,-0.0400503,-0.0818818,0.413133,-0.329834,0.857475,-3.99343e-05,-3.46499e-05,0.6573,-0.07861914052222407,1.3572012399308484,-3.993350263642448e-05,0.5115460481901266,-3.464929969909658e-05,-0.2809569153224448
956,0.9371,185.01,554.578,0.206127,319.981,0.0625491,-0.00405767,-0.0819466,0.413458,-0.330092,0.858141,-3.76933e-05,-3.38277e-05,0.657815,-0.07867884406750247,1.3587716588480947,-3.769258961650035e-05,0.512037380492963,-3.382712784982811e-05,-0.2811424045091576
957,0.9381,184.682,553.86,-0.191258,320.142,-0.0938919,-0.0413223,-0.0820105,0.413778,-0.330351,0.858816,-4.00756e-05,-3.47842e-05,0.658332,-0.07873771460843271,1.3603643671964116,-4.007479698386884e-05,0.5125213098792929,-3.478359503672479e-05,-0.281328564517628
958,0.9391,185.021,554.601,0.218886,319.976,0.06756,-0.00297182,-0.0820753,0.414103,-0.330608,0.859482,-3.76846e-05,-3.39038e-05,0.658847,-0.07879741047035926,1.361936893458084,-3.7683889944406523e-05,0.5130129591936898,-3.390322527263567e-05,-0.2815132393448152
959,0.9401,184.671,553.836,-0.204233,320.147,-0.0990625,-0.0426443,-0.0821391,0.414422,-0.330867,0.860156,-4.02203e-05,-3.49202e-05,0.659364,-0.07885618132076122,1.3635293755304478,-4.021949117460899e-05,0.5134956873187149,-3.491959029688907e-05,-0.2816993033195001
960,0.9411,185.032,554.625,0.232177,319.971,0.072784,-0.00183767,-0.0822039,0.414747,-0.331124,0.860821,-3.76729e-05,-3.39791e-05,0.659879,-0.07891586950629348,1.365101645286928,-3.76721903851962e-05,0.5139876533572445,-3.397852271691537e-05,-0.28188388287905763
961,0.9421,184.66,553.812,-0.217725,320.153,-0.10444,-0.044016,-0.0822676,0.415066,-0.331382,0.861494,-4.03684e-05,-3.50581e-05,0.660395,-0.07897454069670873,1.3666938944259432,-4.0367585207090606e-05,0.5144706924593059,-3.5057485471945427e-05,-0.2820691329389895
962,0.9431,185.044,554.65,0.245996,319.965,0.0782202,-0.000655652,-0.0823323,0.415391,-0.331639,0.862158,-3.76582e-05,-3.40536e-05,0.660909,-0.07903412911621943,1.368265901020274,-3.765749093886939e-05,0.5149629754260043,-3.4053020182778226e-05,-0.28225361746454725
963,0.9441,184.649,553.786,-0.23173,320.158,-0.110021,-0.045437,-0.0823959,0.415709,-0.331897,0.862831,-4.05197e-05,-3.51977e-05,0.661424,-0.07909270068301211,1.3698602804201503,-4.0518879088069504e-05,0.5154448102598679,-3.5197080568205585e-05,-0.2824387721452605
964,0.9451,185.056,554.676,0.260336,319.959,0.0838666,0.000573731,-0.0824606,0.416034,-0.332154,0.863494,-3.76405e-05,-3.41275e-05,0.661938,-0.07915228145781905,1.3714320187597546,-3.7639791605315054e-05,0.5159374098663025,-3.4126917663468426e-05,-0.2826231616857483
965,0.9461,184.637,553.76,-0.246238,320.164,-0.115804,-0.0469065,-0.0825241,0.416352,-0.332412,0.864167,-4.06744e-05,-3.53391e-05,0.662453,-0.07921075343144168,1.3730285296740434,-4.067357280779227e-05,0.5164195546195927,-3.533847558134795e-05,-0.2828082210363506
966,0.9471,185.068,554.703,0.27519,319.953,0.0897201,0.00184944,-0.0825888,0.416676,-0.332668,0.864829,-3.76198e-05,-3.42006e-05,0.662965,-0.07927032656848287,1.3745999946582073,-3.761909238420014e-05,0.5169109541577159,-3.420001516618587e-05,-0.2829917986328304
967,0.9481,184.625,553.733,-0.261241,320.171,-0.121784,-0.0484235,-0.0826522,0.416994,-0.332926,0.865501,-4.08322e-05,-3.54822e-05,0.66348,-0.07932869897935346,1.3761962621404207,-4.0831366377114264e-05,0.5173934085473202,-3.5481570514139804e-05,-0.28317676288736837
968,0.9491,185.081,554.73,0.290549,319.947,0.0957768,0.00317058,-0.0827168,0.417318,-0.333181,0.866162,-3.75963e-05,-3.4273e-05,0.663992,-0.07938817242438645,1.3777674470891141,-3.759559326799167e-05,0.5178851236652373,-3.4272412687497145e-05,-0.2833595295090974
969,0.9501,184.612,553.705,-0.276727,320.177,-0.127956,-0.0499871,-0.0827801,0.417635,-0.333439,0.866834,-4.09931e-05,-3.56271e-05,0.664507,-0.07944644530871581,1.379365843814707,-4.0992259794370156e-05,0.5183663695228775,-3.5626465362370574e-05,-0.283544398901307
970,0.9511,185.094,554.759,0.306396,319.941,0.102032,0.004536,-0.0828447,0.417959,-0.333694,0.867494,-3.75699e-05,-3.43447e-05,0.665018,-0.07950591114758154,1.3809367436115338,-3.756919426012306e-05,0.5188583999312248,-3.434411022751327e-05,-0.2837270717878043
971,0.9521,184.599,553.676,-0.292677,320.183,-0.134315,-0.0515957,-0.0829079,0.418276,-0.333952,0.868166,-4.1157e-05,-3.57737e-05,0.665532,-0.07956408453569863,1.3825372708201518,-4.115615306232723e-05,0.5193399543663484,-3.577306012880754e-05,-0.2839118463663375
972,0.9531,184.746,553.999,-0.114574,320.111,-0.0635269,-0.0358316,-0.0829719,0.418597,-0.334208,0.868829,-4.03237e-05,-3.55094e-05,0.666044,-0.0796229905492758,1.384117416791213,-4.032288701050213e-05,0.5198277407772305,-3.5508769548719954e-05,-0.2840951414708932
973,0.9541,184.836,554.194,-0.00631001,320.067,-0.0211934,-0.0256565,-0.0830358,0.418917,-0.334464,0.869493,-3.97851e-05,-3.53417e-05,0.666556,-0.07968180076117337,1.385700996446225,-3.9784308583423744e-05,0.5203141634777604,-3.5341075489525586e-05,-0.28427838965790797
974,0.9551,184.824,554.167,-0.0208928,320.073,-0.0272574,-0.0266437,-0.0830995,0.419237,-0.33472,0.870158,-3.9931e-05,-3.54331e-05,0.667067,-0.07974042316332153,1.387288015234124,-3.9930202768267975e-05,0.5208007418584621,-3.54324722551258e-05,-0.28446159093939105
975,0.9561,184.863,554.251,0.0258766,320.055,-0.00892683,-0.0221458,-0.0831634,0.419557,-0.334975,0.870821,-3.96968e-05,-3.53813e-05,0.667579,-0.07979922587151489,1.3888713119931024,-3.969601209241613e-05,0.521287475969161,-3.5380674089147135e-05,-0.2846440299717362
976,0.9571,184.832,554.183,-0.0116342,320.07,-0.0238328,-0.0256464,-0.083227,0.419876,-0.335231,0.871486,-3.99581e-05,-3.55231e-05,0.66809,-0.07985774877970131,1.3904604397419917,-3.995730168571132e-05,0.521772844086094,-3.552246906213252e-05,-0.2848271376612792
977,0.9581,184.866,554.259,0.0302932,320.053,-0.00731791,-0.021765,-0.0832908,0.420195,-0.335487,0.872149,-3.97455e-05,-3.54823e-05,0.668601,-0.07991645198267705,1.3920458405158227,-3.974471015810721e-05,0.5222583670601544,-3.5481670510595364e-05,-0.2850101984812532
978,0.9591,184.832,554.183,-0.0115634,320.07,-0.0238869,-0.0257291,-0.0833544,0.420514,-0.335742,0.872812,-4.00301e-05,-3.56345e-05,0.669112,-0.0799749674355198,1.3936322927588907,-4.002929880619899e-05,0.5227440449407501,-3.563386509874977e-05,-0.28519249763651033
979,0.9601,184.868,554.261,0.0316806,320.053,-0.00683352,-0.0217372,-0.0834181,0.420833,-0.335997,0.873475,-3.9809e-05,-3.55907e-05,0.669622,-0.08003357116354559,1.3952197971685498,-3.980820763227477e-05,0.5232298777773037,-3.559006665854181e-05,-0.28537475031140946
980,0.9611,184.831,554.181,-0.0125211,320.07,-0.0243244,-0.0259276,-0.0834816,0.421152,-0.336253,0.874138,-4.01075e-05,-3.57487e-05,0.670132,-0.08009198717704868,1.3968083544426189,-4.0106695704977824e-05,0.5237158656192542,-3.574806102280004e-05,-0.2855576709604877
981,0.9621,184.869,554.263,0.0327536,320.052,-0.0064626,-0.0217474,-0.0835453,0.421471,-0.336508,0.874799,-3.98742e-05,-3.57003e-05,0.670642,-0.08015058345115433,1.3983931684882442,-3.987340503464054e-05,0.5242020085160561,-3.5699662751853545e-05,-0.28573983052806073
982,0.9631,184.83,554.179,-0.0136054,320.071,-0.0248101,-0.0261413,-0.0836087,0.421789,-0.336763,0.875462,-4.01857e-05,-3.58636e-05,0.671152,-0.08020890005550763,1.3999838304051102,-4.018489256552016e-05,0.5246867818296361,-3.586295690882757e-05,-0.2859219436508661
983,0.9641,184.87,554.265,0.0338098,320.052,-0.00609731,-0.0217615,-0.0836723,0.422108,-0.337017,0.876123,-3.99397e-05,-3.58105e-05,0.671661,-0.08026739690924445,1.401570744134216,-3.9938902420821876e-05,0.525173234498115,-3.580985881168619e-05,-0.286103296444399
984,0.9651,184.83,554.177,-0.0147198,320.072,-0.0253081,-0.0263588,-0.0837357,0.422425,-0.337272,0.876784,-4.02645e-05,-3.59792e-05,0.672171,-0.08032570610785927,1.4031587071600509,-4.026368939591407e-05,0.5256567910531156,-3.597855275638828e-05,-0.28628531689521186
985,0.9661,184.871,554.267,0.0348796,320.051,-0.0057267,-0.0217754,-0.0837992,0.422744,-0.337526,0.877445,-4.00055e-05,-3.59211e-05,0.672679,-0.08038410357138237,1.4047477201764296,-4.0004699790707754e-05,0.5261435532038969,-3.59204548450176e-05,-0.28646657740366144
986,0.9671,184.829,554.175,-0.0158506,320.072,-0.0258135,-0.0265789,-0.0838626,0.423061,-0.337781,0.878106,-4.03436e-05,-3.60954e-05,0.673188,-0.08044240537102931,1.4063377838776252,-4.03427862079031e-05,0.5266274173986856,-3.609474856891559e-05,-0.2866485052296398
987,0.9681,184.872,554.269,0.0359641,320.051,-0.00535076,-0.0217888,-0.083926,0.423379,-0.338035,0.878765,-4.00714e-05,-3.60323e-05,0.673696,-0.08050070347445937,1.4079240831053874,-4.007059715216421e-05,0.5271129621149364,-3.603165084442583e-05,-0.28682967349996713
988,0.9691,184.828,554.173,-0.0169943,320.073,-0.0263252,-0.026801,-0.0839893,0.423696,-0.338289,0.879426,-4.04232e-05,-3.62122e-05,0.674204,-0.08055890593780213,1.4095162470765419,-4.04223829935102e-05,0.5275971336610625,-3.621154434618745e-05,-0.2870107957593975
989,0.9701,184.873,554.27,0.0370599,320.051,-0.00496992,-0.0218021,-0.0840526,0.424014,-0.338543,0.880085,-4.01376e-05,-3.61441e-05,0.674712,-0.08061710471704542,1.4111046416018773,-4.013679449732521e-05,0.5280829867961208,-3.6143446809910884e-05,-0.28719187201961593
990,0.9711,184.827,554.17,-0.0181507,320.073,-0.026842,-0.0270249,-0.0841159,0.424331,-0.338797,0.880744,-4.05031e-05,-3.63296e-05,0.67522,-0.08067529981242261,1.4126940832241854,-4.050227976049037e-05,0.5285674658888144,-3.632894008809284e-05,-0.28737290229230505
991,0.9721,184.874,554.272,0.0381676,320.05,-0.00458534,-0.0218152,-0.0841792,0.424648,-0.339051,0.881402,-4.02041e-05,-3.62563e-05,0.675727,-0.08073349122416684,1.4142821583503653,-4.020329182596871e-05,0.5290520985857252,-3.625564274833959e-05,-0.28755388658914416
992,0.9731,184.826,554.168,-0.0193149,320.074,-0.0273631,-0.0272507,-0.0842423,0.424965,-0.339305,0.882061,-4.05834e-05,-3.64475e-05,0.676234,-0.08079149511082884,1.4158736946463297,-4.0582576504966106e-05,0.5295368849355537,-3.644683579795416e-05,-0.28773482492180946
993,0.9741,184.875,554.274,0.0392803,320.05,-0.00419825,-0.0218284,-0.0843056,0.425282,-0.339558,0.882719,-4.02708e-05,-3.63691e-05,0.676741,-0.0808496791676434,1.417463862645305,-4.026998914219426e-05,0.5300218249870154,-3.636843865229e-05,-0.2879150052173358
994,0.9751,184.826,554.166,-0.0204836,320.074,-0.027887,-0.0274777,-0.0843686,0.425598,-0.339811,0.883377,-4.0664e-05,-3.65661e-05,0.677248,-0.08090758381384033,1.4190550773191415,-4.06631732307039e-05,0.5305053882826882,-3.656543146834945e-05,-0.2880951399330134
995,0.9761,184.876,554.276,0.0403989,320.05,-0.00380979,-0.0218424,-0.0844318,0.425914,-0.340065,0.884034,-4.03378e-05,-3.64824e-05,0.677754,-0.0809656686190442,1.4206449187106496,-4.033698644190231e-05,0.5309891044085082,-3.6481734525306564e-05,-0.2882759408047876
996,0.9771,184.825,554.164,-0.0216551,320.075,-0.0284128,-0.0277058,-0.0844948,0.42623,-0.340318,0.884692,-4.0745e-05,-3.66852e-05,0.67826,-0.08102356595813587,1.4222382272081697,-4.074416993371521e-05,0.5314729734127777,-3.668452710625658e-05,-0.28845598421531227
997,0.9781,184.877,554.278,0.0415171,320.049,-0.003421,-0.021857,-0.084558,0.426547,-0.340571,0.885348,-4.04051e-05,-3.65963e-05,0.678766,-0.08108164343349966,1.4238277367873584,-4.040428372498184e-05,0.5319585273015748,-3.659563036362279e-05,-0.2886359820806157
998,0.9791,184.824,554.161,-0.0228266,320.075,-0.0289392,-0.0279347,-0.0846209,0.426862,-0.340824,0.886005,-4.08263e-05,-3.68049e-05,0.679271,-0.08113944158035702,1.4254207148464197,-4.082546661798858e-05,0.5324411702499483,-3.6804222708020085e-05,-0.2888159344122194
999,0.9801,184.878,554.28,0.0426349,320.049,-0.00303319,-0.0218727,-0.084684,0.427178,-0.341076,0.886661,-4.04727e-05,-3.67108e-05,0.679776,-0.08119741985235951,1.4270123128224181,-4.047188099132182e-05,0.5329254981795299,-3.671012616679459e-05,-0.28899513021712786
