,Time,S11,S22,S33,S12,S13,S23,LE11,LE22,LE33,LE12,LE13,LE23,SDV_EPBAR,E11,E12,E13,E22,E23,E33
0,1e-05,0.521016,1.56305,-3.33067e-16,0.902427,-7.34989e-18,4.24346e-18,2.50015e-07,6.74997e-06,-3.00001e-06,1.12583e-05,-1.83389e-22,1.0588e-22,0.0,2.500150313444749e-07,1.1258363374899716e-05,0.0,6.749992781163172e-06,0.0,-3.0000055000201087e-06
1,2e-05,1.04203,3.12608,3.33067e-16,1.80484,1.07607e-17,5.25857e-17,5.00016e-07,1.34999e-05,-5.99997e-06,2.25164e-05,-7.33567e-22,4.23506e-22,0.0,5.000161249490986e-07,2.2516653495952e-05,0.0,1.3499991124099608e-05,0.0,-5.999952000235176e-06
2,3.5e-05,1.82353,5.4706,-7.77156e-16,3.15845,-2.54606e-17,-4.40991e-17,8.74997e-07,2.36246e-05,-1.04998e-05,3.94035e-05,-4.23507e-22,-7.33535e-22,0.0,8.749973827715252e-07,3.940427632809218e-05,0.0,2.3624879063044446e-05,0.0,-1.0499744877323636e-05
3,5.75e-05,2.99577,8.98732,-4.10783e-15,5.18883,9.2746e-17,2.485e-17,1.43746e-06,3.88114e-05,-1.72495e-05,6.47335e-05,4.23492e-22,7.3351e-22,0.0,1.4374610330936122e-06,6.473559525832506e-05,0.0,3.8812153172029795e-05,0.0,-1.7249351228265652e-05
4,9.125e-05,4.75408,14.2622,-2.89768e-14,8.23431,-4.18269e-17,6.33446e-17,2.2812e-06,6.1591e-05,-2.73738e-05,0.000102728,-2.93431e-21,1.69407e-21,0.0,2.2812026019281006e-06,0.00010273327670162757,0.0,6.159289676466173e-05,0.0,-2.737342534098186e-05
5,0.00014188,7.39143,22.1743,-1.55986e-13,12.8023,1.24253e-17,-4.63742e-17,3.54667e-06,9.57588e-05,-4.25595e-05,0.000159716,2.93438e-21,-1.69407e-21,0.0,3.546676289545303e-06,0.00015972875527947572,0.0,9.576338502026438e-05,0.0,-4.255859435731146e-05
6,0.00021781,11.3472,34.0416,-8.00804e-13,19.6539,2.31858e-16,6.21133e-17,5.44479e-06,0.000147007,-6.53367e-05,0.000245194,-2.99771e-25,-5.19218e-25,0.0,5.444804822785088e-06,0.00024522406250571116,0.0,0.00014701780605852477,0.0,-6.533456560431361e-05
7,0.00033172,17.2803,51.8409,-4.05509e-12,29.9304,2.81559e-16,-1.23385e-16,8.29165e-06,0.000223873,-9.94992e-05,0.000373398,1.51264e-20,-9.08104e-22,0.0,8.29168437577188e-06,0.00037346772171087395,0.0,0.00022389806143019442,0.0,-9.949425011879232e-05
8,0.00050258,26.1787,78.5361,-2.0513e-11,45.3428,-2.74881e-16,-2.72422e-16,1.25613e-05,0.000339155,-0.000150736,0.000565677,1.5215e-24,2.63531e-24,0.0,1.256137889349418e-05,0.0005658370254069123,0.0,0.0003392125195595952,0.0,-0.00015072463989995732
9,0.00075887,39.5234,118.57,-1.0376e-10,68.4566,1.1095e-15,4.95905e-16,1.89646e-05,0.000512041,-0.000227574,0.000854034,1.85113e-20,4.95121e-21,0.0,1.896477982921141e-05,0.00085439879087712,0.0,0.0005121721153706904,0.0,-0.0002275481070015406
10,0.0011433,59.5341,178.602,-5.24721e-10,103.116,-3.50563e-18,1.97614e-16,2.85663e-05,0.000771287,-0.000342794,0.00128643,2.34802e-20,-1.35599e-20,0.0,2.8566708020649756e-05,0.0012872578060059148,0.0,0.0007715845183038361,0.0,-0.00034273525284966855
11,0.00172,89.4174,268.251,0.0151052,154.868,0.000204816,0.000312914,4.25932e-05,0.00115987,-0.000515954,0.0019351,2.56009e-09,3.91143e-09,2.3358e-06,4.259410710316658e-05,0.0019369735142893418,2.5600899178357395e-09,0.001160542909345752,3.911430068725963e-09,-0.0005158209186238993
12,0.0025849,93.1522,279.446,0.182581,161.205,0.0136561,-0.0348181,-5.13255e-05,0.00170243,-0.000932273,0.00304288,-2.32615e-06,2.29887e-06,0.000795512,-5.1324182869016965e-05,0.003047514258652795,-2.326147294562375e-06,0.0017038799566522211,2.2988726424699735e-06,-0.0009318385685401775
13,0.0034499,95.9468,288.752,-0.213437,166.609,0.0461889,-0.148812,-0.000148648,0.00224482,-0.00135246,0.00415117,-3.47128e-06,2.04642e-06,0.0015982,-0.00014863695243350072,0.00415979804087474,-3.471273975153011e-06,0.0022473414948305237,2.0464220940041855e-06,-0.00135154583814312
14,0.0043149,99.0426,297.361,0.152765,171.507,0.0156502,-0.0923582,-0.000245942,0.00278562,-0.00177095,0.0052605,-5.11842e-06,3.73795e-06,0.00240605,-0.00024591175874555393,0.005274360724246696,-5.1184069008725075e-06,0.0027895034444884725,3.73795698616064e-06,-0.001769382793333496
15,0.0053149,101.56,305.775,-0.244802,176.408,0.0680184,-0.182152,-0.000361391,0.00341104,-0.00225884,0.00654224,-5.58174e-06,3.19214e-06,0.00334719,-0.0003613257061383379,0.006563687197503221,-5.581724422110135e-06,0.003416864217270721,3.1921450949212726e-06,-0.0022562907407447375
16,0.0063149,104.591,313.82,0.284356,180.96,0.0354148,-0.0799268,-0.000475979,0.00403445,-0.00274393,0.00782467,-6.96266e-06,5.32744e-06,0.00429158,-0.0004758657399662747,0.007855362731576498,-6.962635760721092e-06,0.004042599349096232,5.327454190906522e-06,-0.00274016886496109
17,0.0073149,106.449,320.518,-0.260483,184.909,0.0855125,-0.194161,-0.000593798,0.00465842,-0.00323352,0.00910572,-6.73661e-06,3.72315e-06,0.00524112,-0.0005936217368575081,0.009147303187481803,-6.73658730909743e-06,0.004669287306721559,3.7231569309792434e-06,-0.003228297804412472
18,0.0083149,108.555,326.902,-0.312964,188.615,0.0940504,-0.19559,-0.000711139,0.00528113,-0.00372172,0.0103864,-6.79802e-06,3.32564e-06,0.00619263,-0.0007108862005900107,0.010440525881192153,-6.7979968935150126e-06,0.005295099748230614,3.325645529850263e-06,-0.0037148029838472985
19,0.0093149,111.028,333.154,0.237316,192.146,0.0588814,-0.074968,-0.000827586,0.00590218,-0.0042077,0.0116672,-7.50267e-06,5.0888e-06,0.00714532,-0.0008272436451555176,0.011735527248584399,-7.5026418550061535e-06,0.005919632182789902,5.088812947917631e-06,-0.004198860033343799
20,0.010315,112.921,338.704,0.292533,195.348,0.0544691,-0.0673613,-0.000945509,0.0065229,-0.00469541,0.0129471,-7.75542e-06,5.37852e-06,0.0081004,-0.0009450621472110177,0.013031276587814222,-7.75538992681124e-06,0.006544220444036908,5.378534464250961e-06,-0.004684403795418568
21,0.011315,114.215,343.603,-0.186464,198.239,0.0985223,-0.160042,-0.00106508,0.00714386,-0.00518522,0.0142253,-7.05314e-06,3.75017e-06,0.00905757,-0.001064513003613543,0.014326961061088772,-7.053115126720577e-06,0.0071694382406954915,3.750177031802693e-06,-0.0051717999520953795
22,0.012315,115.77,348.385,-0.278675,201.04,0.101327,-0.169988,-0.00118388,0.00776361,-0.00567364,0.0155029,-6.79121e-06,3.0315e-06,0.0100151,-0.0011831794905398096,0.015623693362750712,-6.791186939802962e-06,0.007793824961895401,3.0315045949080854e-06,-0.005657575300707873
23,0.013315,117.807,353.287,0.2787,203.795,0.0661586,-0.0417872,-0.00130138,0.00838172,-0.00615941,0.0167803,-7.17193e-06,4.77157e-06,0.0109725,-0.0013005335722623412,0.016921880043959225,-7.171904281788599e-06,0.008416944961554984,4.771581384011014e-06,-0.006140479720618042
24,0.014315,119.246,357.61,0.261678,206.309,0.0565329,-0.051223,-0.00142029,0.00899965,-0.00664698,0.0180566,-7.2556e-06,4.69168e-06,0.0119312,-0.0014192818654955586,0.01822060604516129,-7.255573678199845e-06,0.009040268609711966,4.691691005920262e-06,-0.006624937693736399
25,0.015315,120.304,361.56,-0.089937,208.619,0.0978687,-0.115998,-0.00154028,0.00961769,-0.00713573,0.019331,-6.42565e-06,3.49803e-06,0.0128908,-0.0015390943775690502,0.01951905358054118,-6.42562935559976e-06,0.009664088610323196,3.4980361180991792e-06,-0.00711033112775572
26,0.016315,121.999,365.696,0.311185,210.987,0.0562793,-0.0240495,-0.00165833,0.0102337,-0.00762139,0.0206057,-6.85148e-06,4.77605e-06,0.0138496,-0.0016569557305745608,0.02081946315810268,-6.851456528678135e-06,0.010286243392657823,4.776061405253884e-06,-0.007592420849017456
27,0.017315,122.649,369.104,-0.347251,213.025,0.114348,-0.161733,-0.00177926,0.0108509,-0.00811082,0.0218777,-5.67419e-06,2.35636e-06,0.0148101,-0.0017776780552956062,0.0221187717002842,-5.674173901848434e-06,0.010909984528793881,2.356362776234633e-06,-0.008078016048358783
28,0.018315,123.839,372.662,-0.38764,215.116,0.10903,-0.160579,-0.00189856,0.0114665,-0.00859785,0.0231492,-5.30315e-06,1.66118e-06,0.0157697,-0.001896758874991522,0.02341922230476845,-5.303135938272696e-06,0.011532492303503838,1.661181379786214e-06,-0.008560994190233706
29,0.019315,125.651,376.518,0.32675,217.261,0.0548997,0.00335087,-0.00201606,0.0120803,-0.00908162,0.0244208,-5.83775e-06,3.92477e-06,0.0167281,-0.002014029116062077,0.024721429956007013,-5.837732960367603e-06,0.01215356153392766,3.92477770194688e-06,-0.009040506641853074
30,0.020315,126.733,379.814,0.290933,219.184,0.0424899,-0.0138677,-0.00213532,0.0126942,-0.00956766,0.0256909,-5.91059e-06,3.8115e-06,0.0176876,-0.0021330418260807615,0.026023755510966806,-5.910572532519254e-06,0.012775113371169322,3.811507263806746e-06,-0.009522035563366948
31,0.021315,127.457,382.848,-0.0778366,220.948,0.0921057,-0.0837011,-0.00225564,0.0133083,-0.0100548,0.0269589,-4.91816e-06,2.63313e-06,0.0186473,-0.0022530979557666697,0.027325578814503926,-4.918147905819126e-06,0.013397249575660464,2.6331334666007677e-06,-0.010004419495168948
32,0.022315,128.868,386.124,0.312684,222.834,0.0432026,0.0045809,-0.00237378,0.0139203,-0.0105387,0.0282272,-5.41972e-06,3.91139e-06,0.0196057,-0.0023709648122418603,0.028629362465746322,-5.41970531331426e-06,0.014017638512051622,3.91139764954751e-06,-0.010483362466977453
33,0.023315,129.27,388.793,-0.319548,224.42,0.107344,-0.130475,-0.0024948,0.0145337,-0.0110261,0.0294926,-4.14739e-06,1.64066e-06,0.0205653,-0.0024916905728171734,0.029931813948268937,-4.14738139964399e-06,0.014639827737441768,1.640661345891914e-06,-0.010965535361031398
34,0.024315,130.235,391.646,-0.34593,226.102,0.0969414,-0.130336,-0.00261405,0.0151454,-0.0115111,0.0307577,-3.85713e-06,1.05333e-06,0.0215237,-0.002610636346433659,0.031235605225376384,-3.857122561234938e-06,0.01526067278616794,1.053330554778853e-06,-0.0114451007723686
35,0.025315,131.761,394.795,0.289842,227.856,0.0453569,0.0170104,-0.00273164,0.0157553,-0.0119932,0.0320225,-4.35691e-06,3.10371e-06,0.0224806,-0.002727912466321092,0.03254073721034567,-4.356900508706296e-06,0.01588006913621709,3.103714816488079e-06,-0.011921568227577728
36,0.026315,132.028,397.126,-0.411208,229.286,0.100781,-0.133546,-0.00285256,0.0163667,-0.0124798,0.0332847,-3.21691e-06,6.09594e-07,0.0234392,-0.0028484953165596183,0.033844832970552075,-3.2169048257424393e-06,0.016501368122233018,6.095941857964249e-07,-0.012402250233061629
37,0.027315,132.959,399.772,-0.374794,230.828,0.0923659,-0.117831,-0.00297156,0.0169765,-0.0129635,0.0345464,-2.9152e-06,2.73739e-07,0.0243962,-0.00296714928556574,0.03515005822451478,-2.915195750796684e-06,0.01712141969102321,2.737390374374371e-07,-0.012879835751254731
38,0.028315,134.411,402.688,0.270422,232.446,0.039055,0.0309063,-0.00308898,0.0175846,-0.0134444,0.0358078,-3.45493e-06,2.39076e-06,0.0253518,-0.0030842140098921167,0.03645662038347042,-3.4549240317538477e-06,0.017740119322894765,2.3907628579067364e-06,-0.013354427713458294
39,0.029315,134.63,404.824,-0.396431,233.749,0.0947846,-0.114026,-0.00320968,0.018194,-0.0139298,0.0370667,-2.33578e-06,6.43956e-08,0.026309,-0.003204534483774446,0.037762237270989374,-2.3357772720444814e-06,0.01836051916824344,6.439560218396423e-08,-0.013833229259709867
40,0.030315,135.499,407.267,-0.348809,235.172,0.0845249,-0.0980938,-0.00332849,0.0188019,-0.0144123,0.0383249,-2.09171e-06,-1.70884e-07,0.0272645,-0.003322956718020298,0.03906877148623766,-2.091707812401644e-06,0.01897976872967999,-1.7088398540643368e-07,-0.01430893995215854
41,0.031315,136.84,409.958,0.246812,236.665,0.0341292,0.03901,-0.00344584,0.0194081,-0.0148922,0.039583,-2.60989e-06,1.82327e-06,0.0282186,-0.0034399099066868555,0.04037684657974516,-2.6098865942847382e-06,0.01959766152986986,1.8232716620936174e-06,-0.01478185960572831
42,0.032315,137.056,411.947,-0.352254,237.873,0.0853799,-0.0925323,-0.00356621,0.0200156,-0.0153762,0.0408384,-1.59146e-06,-2.28045e-07,0.029174,-0.0035598586254729225,0.04168375584824524,-1.591458733574136e-06,0.020217255291798963,-2.280449740155177e-07,-0.015258589807663925
43,0.033315,137.862,414.213,-0.306622,239.192,0.0742046,-0.0796161,-0.00368482,0.0206216,-0.0158575,0.0420933,-1.40803e-06,-4.09932e-07,0.0301278,-0.003678039381793119,0.04299178534491266,-1.4080290087203906e-06,0.020835694316604148,-4.0993191596783163e-07,-0.015732431809164726
44,0.034315,139.085,416.701,0.22131,240.575,0.0297817,0.0421989,-0.00380215,0.0212262,-0.0163365,0.0433478,-1.86591e-06,1.39334e-06,0.0310803,-0.0037949309798527286,0.044301039597652414,-1.8659082592353826e-06,0.021453078193727437,1.3933409706012867e-06,-0.01620378307668724
45,0.035315,139.318,418.574,-0.300022,241.706,0.0745562,-0.0732908,-0.00392211,0.0218317,-0.0168189,0.0445999,-9.81062e-07,-3.62465e-07,0.0320338,-0.003914428572323492,0.04560942787487776,-9.81061518801063e-07,0.02207175531817107,-3.6246493428926385e-07,-0.01667825192064476
46,0.036315,140.065,420.687,-0.261947,242.936,0.0633635,-0.0643164,-0.00404053,0.0224359,-0.017299,0.0458514,-8.50052e-07,-5.19532e-07,0.0329858,-0.004032378041766038,0.04691882725962393,-8.500516387455193e-07,0.02268947766786411,-5.19531865084133e-07,-0.017150231384161607
47,0.037315,141.176,422.996,0.197847,244.22,0.0257197,0.0423546,-0.00415782,0.0230387,-0.017777,0.0471024,-1.23767e-06,1.08196e-06,0.0339365,-0.004149188233677936,0.048229342268750974,-1.2376692340998474e-06,0.023306140728575953,1.0819605853473746e-06,-0.01761992130872503
48,0.038315,141.43,424.771,-0.250511,245.287,0.0639547,-0.0577087,-0.00427736,0.0236423,-0.018258,0.0483512,-4.85922e-07,-4.05906e-07,0.0348879,-0.004268225124739677,0.04953918876930552,-4.859218819541766e-07,0.023923994764708967,-4.059059176553248e-07,-0.018092332502575248
49,0.039315,142.708,427.097,0.41401,246.57,0.000857598,0.0897579,-0.00439391,0.0242436,-0.0187344,0.0496002,-1.31154e-06,1.9342e-06,0.035837,-0.004384270900402498,0.05085088219810441,-1.3115391399587395e-06,0.024539865405712957,1.934201870668062e-06,-0.018560001907673707
50,0.040315,142.528,428.576,-0.461012,247.492,0.0829134,-0.108131,-0.00451451,0.0248468,-0.0192161,0.0508461,8.19864e-08,-1.02929e-06,0.0367878,-0.004504334917326158,0.05216095325153258,8.19864034440343e-08,0.025158054279545983,-1.0292894703223254e-06,-0.019032647708874362
51,0.041315,143.249,430.498,-0.382168,248.612,0.0687688,-0.0864684,-0.00463246,0.025448,-0.019694,0.0520917,2.06361e-07,-1.14245e-06,0.0377364,-0.004621746706526264,0.053472341497948994,2.0636102138205104e-07,0.025774564606213746,-1.1424493474576636e-06,-0.019501340003590162
52,0.042315,144.45,432.678,0.237298,249.823,0.00929242,0.0557975,-0.00474889,0.0260475,-0.0201694,0.0533372,-5.26578e-07,9.51991e-07,0.0386835,-0.00473763185017273,0.05478525874877849,-5.265778613150474e-07,0.026389700826353835,9.519914532241103e-07,-0.019967358285229997
53,0.043315,144.513,434.206,-0.340431,250.746,0.0664129,-0.0729174,-0.00486845,0.0266485,-0.0206488,0.0545799,4.7463e-07,-9.7286e-07,0.0396318,-0.004856618305756677,0.05609685518147711,4.746301125457819e-07,0.027006746440184193,-9.72859526826575e-07,-0.02043707333397482
54,0.044315,145.189,436.02,-0.268287,251.802,0.0515174,-0.0562002,-0.00498615,0.0272478,-0.0211255,0.0558222,5.05618e-07,-9.9964e-07,0.0405783,-0.004973739789047582,0.057409659584285455,5.056181278106919e-07,0.027622416050297582,-9.99639500398608e-07,-0.020903919699444717
55,0.045315,146.19,438.015,0.177776,252.914,0.0117424,0.0474135,-0.0051028,0.0278459,-0.0216003,0.057064,3.43651e-08,5.62161e-07,0.0415235,-0.005089802832792478,0.058723566535538785,3.4365100542999016e-08,0.028237220856387024,5.621611580686192e-07,-0.021368684174553843
56,0.046315,146.386,439.532,-0.22588,253.821,0.0496233,-0.0435239,-0.00522161,0.0284448,-0.0220777,0.0583035,7.14436e-07,-7.48754e-07,0.0424694,-0.005208001091611347,0.06003666802278995,7.144362552669037e-07,0.028853216569461937,-7.487537196926297e-07,-0.021835771262169956
57,0.047315,147.508,441.536,0.366435,254.932,-0.0109017,0.0877519,-0.00533766,0.0290413,-0.0225511,0.0595434,-1.22046e-07,1.34735e-06,0.043413,-0.005323440004612157,0.06135182264909389,-1.2204599253440307e-07,0.029467110588834444,1.3473509077321921e-06,-0.02229872461834903
58,0.048315,147.344,442.823,-0.389102,255.721,0.0659707,-0.0844592,-0.00545732,0.0296397,-0.023029,0.0607801,1.12254e-06,-1.1765e-06,0.0443579,-0.005442455880919295,0.06266520841285717,1.1225406300052754e-06,0.030083328061690562,-1.176499307975476e-06,-0.022765856427817477
59,0.049315,147.979,444.488,-0.310881,256.693,0.0502479,-0.0655845,-0.00557458,0.0302362,-0.0235036,0.0620166,1.13813e-06,-1.22249e-06,0.0453009,-0.00555907086127283,0.06398000664954973,1.1381306477264985e-06,0.030697956061455978,-1.2224892527168407e-06,-0.02322954171113545
60,0.050315,148.99,446.362,0.192661,257.738,0.00154426,0.0511795,-0.00569063,0.0308312,-0.0239761,0.0632527,5.12368e-07,5.09372e-07,0.0462424,-0.005674469034990803,0.06529600552130765,5.123681312557693e-07,0.031311403827924966,5.093721298088383e-07,-0.023690956734793156
61,0.051315,149.094,447.722,-0.255396,258.551,0.0473074,-0.0494794,-0.00580916,0.0314273,-0.0244516,0.0644865,1.28025e-06,-9.53489e-07,0.0471847,-0.005792319455632966,0.06661117889653845,1.2802508195797202e-06,0.03192635182278725,-9.534885454520747e-07,-0.024155081330498263
62,0.052315,150.231,449.614,0.393936,259.602,-0.0225247,0.0949839,-0.00592458,0.0320209,-0.0249227,0.0657207,2.80026e-07,1.32618e-06,0.0481245,-0.005907064284069952,0.06792840310538661,2.800260392454845e-07,0.032539085146487956,1.3261808793352259e-06,-0.024614693601512694
63,0.053315,149.96,450.747,-0.421959,260.297,0.0655501,-0.0907992,-0.00604401,0.0326165,-0.0253987,0.0669515,1.66054e-06,-1.39476e-06,0.0490658,-0.00602578171403001,0.06924361860151351,1.6605413786230372e-06,0.03315424860309335,-1.3947590272733734e-06,-0.025078866525438226
64,0.054315,150.577,452.298,-0.320539,261.204,0.0471068,-0.0660788,-0.00616077,0.03321,-0.0258711,0.0681823,1.62749e-06,-1.36904e-06,0.050005,-0.006141831368646433,0.07056045386147125,1.6274913243741196e-06,0.03376760764593101,-1.369039062892874e-06,-0.025539310503461254
65,0.055315,151.55,454.045,0.182695,262.181,-0.00396757,0.0507887,-0.00627635,0.0338022,-0.0263415,0.0694127,9.51241e-07,3.5223e-07,0.0509428,-0.006256694857687983,0.07187848212861381,9.512414524959212e-07,0.03437998613055138,3.522300620062424e-07,-0.025997589016243716
66,0.056315,151.631,455.301,-0.246374,262.929,0.0421176,-0.0456902,-0.0063944,0.0343954,-0.0268149,0.0706408,1.69885e-06,-1.0413e-06,0.0518813,-0.0063739993308272735,0.07319566474294925,1.6988514430771318e-06,0.034993762366357206,-1.0412994578823387e-06,-0.02645857263417184
67,0.057315,152.705,457.06,0.373383,263.91,-0.0271338,0.0922696,-0.00650941,0.0349862,-0.0272839,0.0718692,6.911e-07,1.1312e-06,0.0528173,-0.006488269685921533,0.07451478833735492,6.911002388143572e-07,0.035605417346253,1.1312006398256358e-06,-0.02691505650977022
68,0.058315,152.442,458.114,-0.392012,264.55,0.0589915,-0.0823577,-0.00662828,0.0355789,-0.0277577,0.0730944,2.01482e-06,-1.40792e-06,0.0537548,-0.0066063614063834875,0.07583209067065,2.0148220296611896e-06,0.03621940261367418,-1.4079190089333338e-06,-0.02737599495105636
69,0.059315,153.022,459.557,-0.290817,265.396,0.0397928,-0.058597,-0.00674458,0.0361696,-0.028228,0.0743196,1.9383e-06,-1.35813e-06,0.0546902,-0.006721886368645125,0.07715100795187912,1.938301878556814e-06,0.03683167823259881,-1.3581290777553434e-06,-0.027833312473986127
70,0.060315,153.917,461.176,0.164156,266.302,-0.00661394,0.0476487,-0.00685982,0.036759,-0.0286964,0.0755443,1.31222e-06,2.07804e-07,0.0556242,-0.006836345143218736,0.07847100292525244,1.3122208608606911e-06,0.03744296695283844,2.078040215458543e-07,-0.02828856872108665
71,0.061315,154.013,462.358,-0.212705,267.004,0.0345408,-0.0373467,-0.00697727,0.0373493,-0.0291675,0.0767667,1.96353e-06,-1.0043e-06,0.0565588,-0.00695298536465061,0.07979013196663787,1.96353192771781e-06,0.03805555032242425,-1.0042994956771523e-06,-0.028746234164802598
72,0.062315,154.979,463.979,0.326951,267.911,-0.0269626,0.0827411,-0.00709204,0.0379373,-0.0296347,0.0779894,1.05879e-06,8.90449e-07,0.0574912,-0.007066950830486918,0.08111119883063855,1.058790560559686e-06,0.03866610647193047,8.904493964401183e-07,-0.029199897940090924
73,0.063315,154.788,464.995,-0.328583,268.521,0.0486776,-0.0673717,-0.00721015,0.0385271,-0.030106,0.079209,2.20318e-06,-1.2714e-06,0.0584247,-0.007184219227502897,0.08243052641115756,2.2031824269408418e-06,0.039278892434344126,-1.2713991918156253e-06,-0.029657328226277535
74,0.064315,156.029,466.715,0.502135,269.482,-0.0510049,0.117687,-0.00732386,0.0391134,-0.0305713,0.08043,7.173e-07,1.58825e-06,0.059355,-0.007297105891641564,0.08375298127830466,7.173002571914111e-07,0.03988840030875185,1.588251261175344e-06,-0.030108723646165347
75,0.065315,156.216,467.888,0.253647,270.174,-0.03814,0.0426947,-0.0074405,0.0397009,-0.03104,0.0816485,6.89775e-07,8.59216e-07,0.0602863,-0.007412888004666218,0.0850743391597919,6.897752378165478e-07,0.040499514241073564,8.592163691645283e-07,-0.030563205171326935
76,0.066315,156.427,469.114,0.0493344,270.844,0.011669,0.00353233,-0.00755719,0.0402883,-0.0315083,0.0828653,1.34778e-06,4.03114e-07,0.0612167,-0.007528706237218796,0.08639546122334019,1.3477809082118597e-06,0.041110883197222226,4.0311408122661874e-07,-0.03101708613782206
77,0.067315,156.942,470.389,0.128684,271.611,-0.0144782,0.0195864,-0.00767267,0.0408742,-0.0319751,0.0840819,9.42382e-07,7.06972e-07,0.062146,-0.007643310204862086,0.08771797426302386,9.423824440801809e-07,0.04172104879424432,7.069722498531661e-07,-0.031469301806664296
78,0.068315,157.174,471.584,-0.0419745,272.277,0.0201027,-0.0182583,-0.0077891,0.0414604,-0.0324425,0.0852965,1.44806e-06,1.69187e-07,0.0630748,-0.00775884356834966,0.08903991916918841,1.4480610484035594e-06,0.04233188469155724,1.6918701439827544e-07,-0.031921887277535865
79,0.069315,157.799,472.896,0.158574,273.052,-0.0169508,0.0244878,-0.00790406,0.0420451,-0.0329081,0.086511,8.97503e-07,8.26866e-07,0.0640023,-0.007872905055313129,0.09036336164879089,8.975034027081108e-07,0.04294151435239968,8.268663418409261e-07,-0.032372519531489896
80,0.070315,157.933,474.01,-0.104688,273.682,0.0258504,-0.0337166,-0.00802055,0.0426304,-0.0333749,0.0877232,1.53083e-06,-3.40906e-08,0.0649297,-0.00798847120932189,0.09168590154526446,1.5308311718253975e-06,0.043552126699021754,-3.409059945447268e-08,-0.03282410263167701
81,0.071315,158.672,475.358,0.224781,274.47,-0.0243887,0.0391336,-0.00813496,0.0432137,-0.0338392,0.0889356,7.85105e-07,1.06269e-06,0.0658554,-0.00810196075603753,0.09301026419871361,7.851053080987214e-07,0.04416100821755631,1.0626905646571316e-06,-0.03327305816773207
82,0.072315,158.652,476.369,-0.188821,275.048,0.0354877,-0.0530868,-0.00825169,0.0437981,-0.0343057,0.0901454,1.67295e-06,-3.08392e-07,0.0667815,-0.008217738256673268,0.09433338821267845,1.672951399411815e-06,0.044771394248185103,-3.0839195241938455e-07,-0.03372393111180594
83,0.073315,159.559,477.778,0.324494,275.864,-0.0367007,0.0615013,-0.00836538,0.04438,-0.0347685,0.0913558,6.0213e-07,1.40583e-06,0.0677053,-0.008330487572654532,0.09565877130580436,6.021301812708657e-07,0.04537952364058495,1.4058309882880593e-06,-0.03417102021208973
84,0.074315,159.315,478.656,-0.310699,276.372,0.0506938,-0.0807909,-0.00848257,0.0449638,-0.035235,0.092563,1.8981e-06,-7.11401e-07,0.0686302,-0.00844669451353719,0.09698224926509202,1.8981018012897977e-06,0.0459899943855584,-7.114007469777306e-07,-0.034621474354562976
85,0.075315,160.476,480.165,0.470569,277.24,-0.0556259,0.0943909,-0.00859528,0.045544,-0.0356959,0.0937717,3.22711e-07,1.90037e-06,0.0695521,-0.008558446188714597,0.09830897335395816,3.2271105210313067e-07,0.04659705387122792,1.9003718056964658e-06,-0.035066314795678566
86,0.076315,159.906,480.866,-0.488046,277.651,0.0738303,-0.120791,-0.00871324,0.0461274,-0.0361629,0.0949761,2.24132e-06,-1.30035e-06,0.0704759,-0.008675389736936046,0.09963257359353106,2.241322511808974e-06,0.04720781673466079,-1.300349154575997e-06,-0.03551683362233515
87,0.077315,160.472,482.051,-0.316738,278.358,0.043105,-0.077686,-0.00882764,0.046708,-0.0366254,0.0961811,2.03257e-06,-1.08375e-06,0.0713971,-0.008788790785686507,0.10095842951247103,2.0325720657687896e-06,0.04781600213219295,-1.083749412766899e-06,-0.035962803948197286
88,0.078315,161.283,483.381,0.134439,279.115,-0.00992039,0.0294773,-0.00894117,0.0472874,-0.0370863,0.0973857,1.32001e-06,3.94993e-07,0.0723172,-0.008901316606619525,0.10228544313650278,1.3200108712752012e-06,0.048423282636001375,3.949930780233757e-07,-0.0364070263129499
89,0.079315,161.339,484.329,-0.188422,279.673,0.0303019,-0.0418881,-0.00905681,0.0478678,-0.0375497,0.098588,1.93942e-06,-6.65346e-07,0.0732376,-0.00901592063183465,0.1036115179349113,1.9394218806478847e-06,0.04903196413152644,-6.653457786942596e-07,-0.03685345185217026
90,0.080315,162.153,485.641,0.273492,280.418,-0.0281366,0.0621544,-0.00917007,0.048446,-0.0380097,0.0997905,1.08268e-06,9.12241e-07,0.0741561,-0.009128153132817451,0.10493940901973109,1.0826805860730815e-06,0.049638689800675095,9.122414161844006e-07,-0.03729639737903645
91,0.081315,161.992,486.475,-0.257036,280.907,0.0403313,-0.0586961,-0.00928618,0.0490257,-0.038473,0.10099,2.0958e-06,-8.3828e-07,0.0750753,-0.009243196583980318,0.10626557905231948,2.0958021962336204e-06,0.05024734174987522,-8.382796486960942e-07,-0.03774231465341793
92,0.082315,162.982,487.845,0.389061,281.688,-0.0451707,0.0859678,-0.00939866,0.0496025,-0.0389315,0.102191,8.3158e-07,1.34606e-06,0.0759919,-0.009354630642059658,0.10759500217154772,8.315803456948601e-07,0.05085329915791292,1.3460609058491002e-06,-0.0381834086736178
93,0.083315,162.572,488.549,-0.383971,282.101,0.0578346,-0.08919,-0.00951534,0.0501816,-0.0393948,0.103388,2.34781e-06,-1.21215e-06,0.0769099,-0.009470212400585432,0.1089215871918865,2.347812756209322e-06,0.05146202454287874,-1.2121492652950039e-06,-0.03862891509084898
94,0.084315,163.073,489.643,-0.246433,282.751,0.0316923,-0.0566762,-0.00962916,0.0507585,-0.0398545,0.104585,2.14603e-06,-1.03441e-06,0.0778258,-0.009582948085100518,0.11024976108524531,2.146032302752232e-06,0.052068787988925225,-1.0344094649727964e-06,-0.039070755813710556
95,0.085315,163.766,490.855,0.112765,283.437,-0.00868936,0.0293391,-0.00974228,0.0513343,-0.0403129,0.105782,1.59895e-06,1.75177e-07,0.0787405,-0.009694977725497211,0.11157952575464414,1.5989512782699222e-06,0.05267474363493796,1.7517701533797947e-07,-0.03951114483437046
96,0.086315,163.866,491.76,-0.138742,283.969,0.0219663,-0.0268306,-0.00985703,0.0519107,-0.0407731,0.106977,2.06327e-06,-6.30448e-07,0.0796553,-0.009808608707100985,0.11290865728584154,2.063272128483007e-06,0.05328168025950042,-6.304478012975068e-07,-0.039953060113012806
97,0.087315,164.548,492.947,0.215536,284.644,-0.0229395,0.0525395,-0.00996994,0.0524854,-0.0412306,0.108172,1.40089e-06,5.9158e-07,0.0805685,-0.00992040490551871,0.11423937807861306,1.4008909812179837e-06,0.05388717521345532,5.915801750688843e-07,-0.04039218113141885
98,0.088315,164.491,493.771,-0.183369,285.124,0.028908,-0.0391279,-0.010085,0.0530611,-0.0416905,0.109364,2.1575e-06,-7.09415e-07,0.081482,-0.010034316910246921,0.11556834332321198,2.157502327460037e-06,0.05449407273891649,-7.094147483899249e-07,-0.04083340330050189
99,0.089315,165.293,494.991,0.294528,285.821,-0.035475,0.0674728,-0.0101973,0.0536345,-0.0421468,0.110557,1.20181e-06,9.13591e-07,0.0823934,-0.010145483814319456,0.11690001053834931,1.201810722273322e-06,0.05509889302562976,9.135914174063231e-07,-0.04127097117987211
100,0.090315,165.065,495.723,-0.267774,286.246,0.0409516,-0.0605307,-0.0103127,0.0542094,-0.0426065,0.111746,2.31369e-06,-9.30484e-07,0.0833056,-0.010259706434715299,0.11822879445637446,2.3136926765587873e-06,0.05570564377302101,-9.304835670853606e-07,-0.041711597628671826
101,0.091315,166.048,497.005,0.3958,286.983,-0.0510343,0.0879971,-0.0104242,0.0547814,-0.0430612,0.112937,9.51885e-07,1.29989e-06,0.0842151,-0.01037005632532706,0.11956139835867319,9.51885453126522e-07,0.05630968013919069,1.2998908449635138e-06,-0.04214723231617823
102,0.092315,165.594,497.623,-0.385972,287.338,0.0579789,-0.0889935,-0.0105401,0.0553558,-0.0435209,0.114125,2.53854e-06,-1.27389e-06,0.0851261,-0.010484747789300308,0.12089222765600427,2.538543222074807e-06,0.056916598709789046,-1.2738891885799575e-06,-0.042587456040307003
103,0.093315,166.079,498.635,-0.235661,287.942,0.0292569,-0.0537066,-0.010653,0.0559278,-0.0439768,0.115312,2.29305e-06,-1.0451e-06,0.0860348,-0.01059645775512863,0.12222351669396403,2.2930526291098374e-06,0.05752132794032283,-1.0450994538668823e-06,-0.043023840937602476
104,0.094315,166.721,499.748,0.0986728,288.575,-0.00952197,0.0266681,-0.0107653,0.0564989,-0.0444316,0.116499,1.76539e-06,7.85095e-08,0.0869425,-0.010707561534328724,0.12355638691025539,1.7653915582727109e-06,0.058125450861590044,7.850950312082716e-08,-0.04345897473781757
105,0.095315,166.824,500.587,-0.120736,289.066,0.0180191,-0.0223013,-0.0108791,0.0570705,-0.044888,0.117684,2.17406e-06,-6.1788e-07,0.0878503,-0.010820136608182929,0.12488859040342093,2.174062363247131e-06,0.058730448261086865,-6.178798090950011e-07,-0.04389544045269467
106,0.096315,167.436,501.669,0.188566,289.683,-0.0223996,0.0469137,-0.0109913,0.0576406,-0.045342,0.118869,1.57387e-06,4.47417e-07,0.0887565,-0.010931116362774884,0.12622237349345222,1.5738712384472109e-06,0.0593342025734549,4.4741710003570745e-07,-0.04432941340341534
107,0.097315,167.41,502.442,-0.150773,290.131,0.0232214,-0.0312593,-0.0111053,0.0582114,-0.045798,0.120052,2.2283e-06,-6.50944e-07,0.0896629,-0.01104386378878408,0.12755548294006003,2.2283024827540743e-06,0.05993904314135978,-6.509437880941604e-07,-0.044765099846844736
108,0.098315,168.11,503.545,0.248774,290.764,-0.0324073,0.0576859,-0.0112169,0.0587802,-0.0462509,0.121235,1.39924e-06,7.03587e-07,0.0905673,-0.011154225135307616,0.12889017038834694,1.399240978861016e-06,0.06054210796447501,7.035872475746885e-07,-0.045197627779780314
109,0.099315,167.955,504.25,-0.212139,291.169,0.032446,-0.0474028,-0.0113311,0.0593502,-0.0467066,0.122415,2.32984e-06,-7.96807e-07,0.0914724,-0.01126714487495728,0.13022304703196697,2.329842714088315e-06,0.06114678928381889,-7.968066825236875e-07,-0.04563263209753943
110,0.1003,168.786,505.394,0.32166,291.83,-0.0440913,0.0718597,-0.0114422,0.0599177,-0.0471581,0.123596,1.19486e-06,9.92865e-07,0.0923751,-0.011376986993319016,0.13155862895640325,1.1948607139267153e-06,0.06174916099354366,9.928654929325376e-07,-0.04606343170381799
111,0.1013,168.468,506.015,-0.295526,292.184,0.0449983,-0.0679978,-0.0115567,0.060487,-0.0476136,0.124774,2.47677e-06,-1.02525e-06,0.0932788,-0.01149017784800821,0.13289239045259849,2.4767730673058708e-06,0.0623537868813262,-1.0252494744289464e-06,-0.046497850864201995
112,0.1023,169.474,507.221,0.416545,292.885,-0.0588719,0.0914751,-0.011667,0.061053,-0.0480637,0.125953,9.44197e-07,1.34474e-06,0.0941797,-0.011599204468462965,0.13422885827391062,9.441974457846669e-07,0.06295524932251517,1.3447409041855707e-06,-0.046926925611012416
113,0.1033,168.946,507.739,-0.40448,293.175,0.0615416,-0.0938951,-0.011782,0.0616218,-0.048519,0.127129,2.68094e-06,-1.3462e-06,0.0950822,-0.011712864024399305,0.13556349602442386,2.6809435937913406e-06,0.06356003025172052,-1.3461990938656854e-06,-0.047360761011658314
114,0.1043,169.426,508.672,-0.231508,293.735,0.0286545,-0.0531619,-0.0118938,0.0621881,-0.0489705,0.128305,2.37937e-06,-1.04233e-06,0.0959823,-0.01182334835001253,0.13689970423217934,2.37937283076306e-06,0.0641624948686077,-1.042329456746316e-06,-0.04779078054384711
115,0.1053,170.023,509.687,0.0836112,294.315,-0.00961391,0.0228807,-0.0120051,0.0627535,-0.0494209,0.12948,1.86061e-06,7.8425e-09,0.0968815,-0.011933326290955226,0.13823634650820593,1.8606117309083459e-06,0.06476434246948992,7.842499982757545e-09,-0.048219559008131574
116,0.1063,170.127,510.456,-0.105142,294.764,0.0150146,-0.0190644,-0.0121178,0.0633193,-0.0498727,0.130653,2.22039e-06,-5.8718e-07,0.0977807,-0.01204467513045726,0.13957228111512765,2.2203924650021634e-06,0.06536695659792002,-5.871798276491091e-07,-0.048649476285745674
117,0.1073,170.673,511.435,0.163564,295.324,-0.0214407,0.0410333,-0.012229,0.0638838,-0.0503225,0.131826,1.67748e-06,3.34259e-07,0.0986784,-0.012154529654557988,0.1409097836927784,1.6774814068920563e-06,0.06596852602191472,3.3425905576756065e-07,-0.049077297527102104
118,0.1083,170.672,512.153,-0.121968,295.737,0.0185096,-0.0248251,-0.0123418,0.0644488,-0.0507738,0.132997,2.24134e-06,-5.83043e-07,0.0995762,-0.012265952339255426,0.14224657158603926,2.241342511810629e-06,0.06657096841306642,-5.830428300157564e-07,-0.04950635211927712
119,0.1093,171.277,513.142,0.207859,296.308,-0.0291848,0.0484317,-0.0124526,0.065012,-0.0512226,0.134169,1.52883e-06,5.31274e-07,0.100472,-0.012375387208932498,0.14358606936030793,1.5288311685512923e-06,0.06717183036932095,5.31274141124527e-07,-0.049932837957865295
120,0.1103,171.183,513.81,-0.163978,296.689,0.0252283,-0.0364246,-0.0125655,0.0655762,-0.0516735,0.135337,2.29867e-06,-6.69474e-07,0.101369,-0.012486883733619392,0.14492255824689138,2.298672642009336e-06,0.0677740985999069,-6.69473775860574e-07,-0.05036112667628212
121,0.1113,171.878,514.824,0.257451,297.278,-0.0375304,0.0575103,-0.0126758,0.0661383,-0.0521211,0.136507,1.36709e-06,7.38328e-07,0.102263,-0.012595800423477632,0.14626290158799504,1.3670909344565274e-06,0.06837446313737572,7.383282725204054e-07,-0.05078608992211253
122,0.1123,171.673,515.435,-0.219345,297.622,0.0340002,-0.0505842,-0.0127889,0.0667017,-0.0525716,0.137673,2.38362e-06,-8.08661e-07,0.103158,-0.012707469523443149,0.14760022363848835,2.3836228408846694e-06,0.06897655490323151,-8.086606729795776e-07,-0.05121361448146511
123,0.1133,172.483,516.485,0.319014,298.237,-0.0475304,0.0697181,-0.0128987,0.0672624,-0.0530179,0.138841,1.18083e-06,9.7586e-07,0.104051,-0.01281586829208814,0.14894140379643783,1.1808306972227456e-06,0.0695760981238005,9.758604762044598e-07,-0.05163696336799095
124,0.1143,172.141,517.028,-0.288599,298.538,0.0450249,-0.0674747,-0.013012,0.0678252,-0.0534681,0.140005,2.50099e-06,-1.00102e-06,0.104944,-0.012927709918262864,0.15027955024060002,2.500993127485529e-06,0.07017822497442694,-1.0010194989584775e-06,-0.0520638203143744
125,0.1153,173.095,518.128,0.395333,299.185,-0.05972,0.0856159,-0.0131211,0.0683846,-0.0539131,0.14117,9.6377e-07,1.25463e-06,0.105835,-0.013035393630857484,0.15162040681393063,9.63770464323943e-07,0.07077705014926328,1.254630787039801e-06,-0.05248555807072419
126,0.1163,172.585,518.59,-0.374027,299.435,0.0587124,-0.0876589,-0.0132347,0.0689466,-0.0543631,0.142332,2.65771e-06,-1.25196e-06,0.106728,-0.01314750644201279,0.15295936751215367,2.657713531695194e-06,0.07137899598238273,-1.2519592162973936e-06,-0.05291184364814383
127,0.1173,173.717,519.753,0.489061,300.126,-0.0746169,0.105735,-0.013343,0.0695046,-0.0548067,0.143496,7.09446e-07,1.58481e-06,0.107617,-0.013254376779931798,0.1543021935890989,7.094462517454048e-07,0.07197699228759391,1.5848112557836913e-06,-0.05333187878362056
128,0.1183,173.002,520.119,-0.4784,300.314,0.0755367,-0.111799,-0.0134571,0.0700662,-0.0552567,0.144655,2.86136e-06,-1.56873e-06,0.108508,-0.013366958032658638,0.15564080540717296,2.8613640936647755e-06,0.07257918364596883,-1.5687287695520524e-06,-0.05375778360239658
129,0.1193,173.511,520.978,-0.248711,300.837,0.0329927,-0.0569702,-0.0135673,0.0706247,-0.055702,0.145816,2.4539e-06,-1.09657e-06,0.109396,-0.013475679003247976,0.15698328354001045,2.4539030107906257e-06,0.0731783864318376,-1.0965693987285974e-06,-0.05417905145910895
130,0.1203,174.078,521.892,0.0643359,301.364,-0.00846907,0.0184657,-0.0136772,0.0711825,-0.0561464,0.146975,1.90296e-06,-7.48778e-08,0.110284,-0.013584092068718467,0.15832500454276222,1.9029618105737e-06,0.07377717232164827,-7.487779718484688e-08,-0.054599280906741265
131,0.1213,174.179,522.585,-0.094743,301.766,0.0137363,-0.0165533,-0.0137883,0.0717407,-0.0565922,0.148133,2.22687e-06,-5.72779e-07,0.111172,-0.013693676788545717,0.1596671218339567,2.226872479527131e-06,0.07437672205800205,-5.727788359166652e-07,-0.05502064661791761
132,0.1223,174.664,523.454,0.140894,302.267,-0.0201969,0.0360511,-0.0138982,0.0722976,-0.0570362,0.149291,1.72466e-06,2.29188e-07,0.112058,-0.013802065897375981,0.16101079419718745,1.724661487179091e-06,0.07497520908776178,2.2918802633498103e-07,-0.055440124319878215
133,0.1233,174.677,524.105,-0.0981903,302.639,0.0151824,-0.0191008,-0.0140095,0.072855,-0.0574815,0.150446,2.21755e-06,-5.30822e-07,0.112944,-0.013911823619311092,0.16235253637143088,2.2175524587719764e-06,0.07557456729492151,-5.30821859134889e-07,-0.05586064319704187
134,0.1243,175.196,524.976,0.17207,303.144,-0.0260021,0.040654,-0.0141191,0.0734108,-0.0579245,0.151602,1.6036e-06,3.77443e-07,0.113829,-0.014019892961134262,0.16369699284960015,1.6036012857600923e-06,0.07617253780003397,3.7744307124221166e-07,-0.05627880430258203
135,0.1253,175.146,525.594,-0.123696,303.493,0.0195182,-0.0268813,-0.0142303,0.0739673,-0.0583692,0.152755,2.23877e-06,-5.67274e-07,0.114714,-0.014129527853224078,0.16503950929435685,2.238772506046871e-06,0.0767715944893832,-5.672738391249155e-07,-0.05669838381788883
136,0.1263,175.72,526.477,0.202533,304.009,-0.0315008,0.045516,-0.0143395,0.074522,-0.0588113,0.153909,1.48248e-06,5.17081e-07,0.115597,-0.014237179030921143,0.1663847409374517,1.4824810987690284e-06,0.07736904538053202,5.17081133688535e-07,-0.057115325290699404
137,0.1273,175.602,527.059,-0.156459,304.334,0.0249957,-0.0358886,-0.0144508,0.0750777,-0.0592555,0.15506,2.27442e-06,-6.35412e-07,0.11648,-0.01434688832745945,0.16772802268461784,2.2744225864901324e-06,0.07796790573698908,-6.354117981777208e-07,-0.057534061654973545
138,0.1283,176.242,527.959,0.237863,304.864,-0.0375855,0.0518763,-0.0145596,0.0756312,-0.0596965,0.156212,1.35236e-06,6.64772e-07,0.117361,-0.01445412155241621,0.16907402051264286,1.3523609143639703e-06,0.07856472612762078,6.647722210484375e-07,-0.057949597501395056
139,0.1293,176.045,528.5,-0.195166,305.163,0.0315061,-0.0458732,-0.014671,0.0761861,-0.0601402,0.157361,2.32483e-06,-7.2999e-07,0.118243,-0.01456390524820983,0.17041805856420567,2.3248327023495108e-06,0.07916338777746246,-7.29989733549985e-07,-0.05836749254811169
140,0.1303,176.765,529.423,0.279071,305.709,-0.0444984,0.0598961,-0.0147793,0.0767385,-0.0605802,0.158511,1.21103e-06,8.25183e-07,0.119123,-0.014670622198444283,0.1717648135672578,1.2110307332502401e-06,0.07975968231425856,8.251833405470421e-07,-0.05878171971473101
141,0.1313,176.477,529.918,-0.240103,305.978,0.0391253,-0.0569534,-0.0148908,0.0772926,-0.0610234,0.159658,2.39198e-06,-8.50261e-07,0.120004,-0.014780480299366294,0.1731095988953708,2.3919828608942595e-06,0.08035814294243404,-8.502606385629718e-07,-0.05919877523022443
142,0.1323,177.288,530.871,0.326691,306.545,-0.0524022,0.0696264,-0.0149986,0.0778437,-0.0614622,0.160806,1.05696e-06,1.0013e-06,0.120882,-0.014886681239256516,0.174457102033714,1.0569605586319142e-06,0.08095369240359074,1.0013005014020138e-06,-0.05961150824740702
143,0.1333,176.895,531.315,-0.291728,306.781,0.0479394,-0.0692837,-0.0151102,0.0783971,-0.0619051,0.16195,2.47772e-06,-9.9636e-07,0.121761,-0.014996613751281918,0.17580144977873435,2.47772306960492e-06,0.08155205772938157,-9.963595036799333e-07,-0.06002791409052333
144,0.1343,177.811,532.302,0.381194,307.373,-0.0614334,0.0811181,-0.0152175,0.078947,-0.0623427,0.163097,8.88742e-07,1.19569e-06,0.122638,-0.015102298944514425,0.17715086778491496,8.887423950110218e-07,0.08214696676117406,1.1956907148835683e-06,-0.060439155889049356
145,0.1353,177.3,532.689,-0.350495,307.572,0.0580312,-0.0830056,-0.0153293,0.0794997,-0.0627852,0.164239,2.5836e-06,-1.16864e-06,0.123516,-0.015212404352485387,0.17849594196710017,2.5836033374915246e-06,0.08274523470581974,-1.1686393170950993e-06,-0.06085481959019212
146,0.1363,178.337,533.718,0.443007,308.192,-0.0717096,0.0944258,-0.0154361,0.0800484,-0.0632217,0.165384,7.05101e-07,1.41058e-06,0.124391,-0.015317574051538663,0.17984609263440277,7.05101248499318e-07,0.08333950003788693,1.410580994898325e-06,-0.061264667005735074
147,0.1373,177.692,534.043,-0.416812,308.35,0.0694758,-0.0982393,-0.0155481,0.0806003,-0.0636639,0.166524,2.71097e-06,-1.36746e-06,0.125267,-0.015427852307547285,0.18119188413541232,2.7109736746577795e-06,0.08393756012745923,-1.3674590649825902e-06,-0.06167968400296431
148,0.1383,178.864,535.119,0.512489,309.003,-0.0833298,0.1096,-0.0156542,0.0811478,-0.0640991,0.167666,5.04908e-07,1.64787e-06,0.12614,-0.01553230987084575,0.18254157579434738,5.049081275299017e-07,0.08453117842981084,1.6478713578127469e-06,-0.062087952158891735
149,0.1393,178.07,535.375,-0.49101,309.116,0.082337,-0.115079,-0.0157665,0.0816991,-0.0645411,0.168804,2.8609e-06,-1.59305e-06,0.127016,-0.015642859384975782,0.1838880741198341,2.8609040922944473e-06,0.08512924531046728,-1.5930487310411579e-06,-0.06250241768040954
150,0.1403,178.578,536.142,-0.231255,309.589,0.03285,-0.0535699,-0.0158746,0.0822472,-0.0649781,0.169943,2.36255e-06,-1.01558e-06,0.127889,-0.015749262640676664,0.18523729086933138,2.362552790735606e-06,0.08572416767340196,-1.015579484286988e-06,-0.0629120146204335
151,0.1413,179.072,536.933,0.0410819,310.049,-0.0052457,0.0124888,-0.0159826,0.0827948,-0.0654147,0.171082,1.86858e-06,-1.36755e-07,0.12876,-0.01585555598036792,0.1865880452522224,1.8685817457786413e-06,0.08631887304308905,-1.3675499066501118e-07,-0.06332105793419718
152,0.1423,179.188,537.549,-0.0693753,310.406,0.0106269,-0.0115064,-0.0160917,0.0833426,-0.0658522,0.172218,2.10126e-06,-4.7705e-07,0.129632,-0.01596292028238122,0.18793677520519814,2.1012622075655685e-06,0.08691412154542144,-4.770498862605166e-07,-0.0637307653413206
153,0.1433,179.58,538.29,0.105088,310.834,-0.015726,0.0273065,-0.0161998,0.0838893,-0.0662883,0.173355,1.71452e-06,1.13279e-07,0.130503,-0.016069288941369164,0.18928822747362806,1.7145214696867583e-06,0.0875084999542044,1.1327900639734878e-07,-0.06413898333615176
154,0.1443,179.633,538.878,-0.0605229,311.168,0.00996998,-0.0110509,-0.0163089,0.0844363,-0.0667253,0.174489,2.06661e-06,-4.05667e-07,0.131373,-0.016176629926388353,0.19063764529888227,2.066612135420698e-06,0.08810352982951364,-4.056669177243677e-07,-0.06454786525322809
155,0.1453,180.033,539.613,0.121519,311.595,-0.0192601,0.0288791,-0.0164168,0.0849821,-0.0671606,0.175624,1.63147e-06,2.03782e-07,0.132242,-0.016282778741187776,0.19198978622111484,1.6314713309206752e-06,0.08869757883732166,2.0378202081339225e-07,-0.06495497895275804
156,0.1463,180.056,540.183,-0.069801,311.918,0.011747,-0.0149305,-0.0165258,0.0855282,-0.0675969,0.176756,2.05589e-06,-3.97659e-07,0.133111,-0.01638999807474517,0.1933398826695365,2.0558921134394836e-06,0.08929227895321179,-3.9765892090315447e-07,-0.06536285011187748
157,0.1473,180.476,540.917,0.13371,312.347,-0.0218528,0.0298695,-0.0166335,0.0860729,-0.0680314,0.177889,1.55748e-06,2.75985e-07,0.133979,-0.016495927167568536,0.19469270298459285,1.5574812128882343e-06,0.08988577808237119,2.7598503815617903e-07,-0.06576886174108987
158,0.1483,180.47,541.47,-0.082155,312.657,0.0139824,-0.0191611,-0.0167424,0.0866181,-0.0684671,0.179019,2.04978e-06,-4.06247e-07,0.134846,-0.016603024929520926,0.1960434687779058,2.0497821007214867e-06,0.09048014581850405,-4.062469174392902e-07,-0.06617581758626057
159,0.1493,180.915,542.206,0.146422,313.09,-0.024321,0.0313304,-0.0168498,0.0871619,-0.0689007,0.18015,1.48451e-06,3.43634e-07,0.135712,-0.016708636093222484,0.19739695919564726,1.4845111018235713e-06,0.09107331018857479,3.436340589857423e-07,-0.06658063598078479
160,0.1503,180.88,542.741,-0.0957245,313.388,0.0164592,-0.0233611,-0.0169586,0.0877062,-0.0693357,0.181278,2.04693e-06,-4.24713e-07,0.136579,-0.01681561237400042,0.19874838502649417,2.0469320949345615e-06,0.09166734304268598,-4.2471290984114063e-07,-0.06698658510379751
161,0.1513,181.35,543.48,0.160001,313.824,-0.0267927,0.0332804,-0.0170657,0.0882489,-0.0697685,0.182407,1.41185e-06,4.08929e-07,0.137443,-0.01692090578335237,0.20010253622770402,1.4118509965577175e-06,0.09225995169956946,4.0892908370615544e-07,-0.06739030593827411
162,0.1523,181.283,543.996,-0.110168,314.111,0.01914,-0.0275045,-0.0171744,0.0887924,-0.0702029,0.183533,2.04758e-06,-4.50671e-07,0.138308,-0.01702776067322531,0.20145461275972854,2.0475820963206104e-06,0.09285375633511084,-4.506708984886032e-07,-0.06779534360882311
163,0.1533,181.781,544.74,0.174346,314.551,-0.0293096,0.0356344,-0.0172813,0.0893341,-0.0706348,0.18466,1.33953e-06,4.72528e-07,0.139171,-0.017132834789297724,0.20280941539619657,1.3395308970931552e-06,0.09344591558677062,4.7252811175013676e-07,-0.06819787586682013
164,0.1543,181.681,545.236,-0.125312,314.824,0.0219946,-0.0316017,-0.0173899,0.0898767,-0.0710686,0.185784,2.05183e-06,-4.82562e-07,0.140034,-0.017239568367701463,0.2041621332641277,2.051832105109952e-06,0.0940393803329933,-4.825618835635481e-07,-0.06860200396654681
165,0.1553,182.208,545.985,0.18931,315.269,-0.031887,0.0383089,-0.0174965,0.0904174,-0.0714997,0.186909,1.26777e-06,5.34754e-07,0.140896,-0.017344325046083298,0.2055175779587335,1.2677708036701318e-06,0.09463108737952353,5.347541429667757e-07,-0.06900344310621298
166,0.1563,182.075,546.462,-0.140997,315.53,0.0249898,-0.0356572,-0.017605,0.0909591,-0.0719328,0.188032,2.05954e-06,-5.19094e-07,0.141758,-0.017450937402990863,0.20687213464000176,2.0595421208469133e-06,0.09522420967222622,-5.190938652255284e-07,-0.06940657041148435
167,0.1573,182.631,547.216,0.204731,315.98,-0.0345245,0.0412286,-0.0177113,0.0914988,-0.072363,0.189155,1.19684e-06,5.95731e-07,0.142618,-0.01755537681729169,0.20822821334287833,1.1968407163109873e-06,0.0958154617131981,5.957311774995588e-07,-0.06980682560382845
168,0.1583,182.463,547.673,-0.157054,316.228,0.0280893,-0.0396658,-0.0178198,0.0920396,-0.0727955,0.190275,2.0704e-06,-5.59116e-07,0.143478,-0.017661966276324215,0.20958218702554943,2.0704021432838005e-06,0.09640823898742035,-5.591158437345811e-07,-0.07020904716507237
169,0.1593,183.05,548.433,0.220435,316.683,-0.0372108,0.0443241,-0.0179258,0.0925783,-0.0732249,0.191396,1.12707e-06,6.55413e-07,0.144337,-0.01776608858931894,0.21093888894655777,1.127070635043026e-06,0.09699903322190284,6.554132148117731e-07,-0.07060821369303283
170,0.1603,182.847,548.871,-0.173301,316.918,0.0312543,-0.0436125,-0.0180342,0.0931183,-0.0736567,0.192515,2.08397e-06,-6.01565e-07,0.145196,-0.017872556974625087,0.2122946879913814,2.083972171496029e-06,0.0975915726710952,-6.015648190693668e-07,-0.07100943843570418
171,0.1613,183.465,549.637,0.236233,317.378,-0.0399258,0.0475292,-0.0181399,0.093656,-0.0740853,0.193634,1.05882e-06,7.13606e-07,0.146053,-0.017976362359141684,0.2136520050244921,1.0588205605621681e-06,0.09818190635670865,7.136062545320954e-07,-0.07140751847574411
172,0.1623,183.227,550.055,-0.189543,317.6,0.0344442,-0.0474742,-0.0182483,0.0941951,-0.0745165,0.19475,2.09972e-06,-6.45435e-07,0.14691,-0.018082807952006563,0.21500719671841195,2.099722204329524e-06,0.09877409583275654,-6.454347917239645e-07,-0.07180784123798711
173,0.1633,183.875,550.827,0.251923,318.066,-0.0426427,0.0507799,-0.0183537,0.0947318,-0.0749442,0.195868,9.92497e-07,7.69993e-07,0.147766,-0.0181862965701024,0.21636633438072828,9.924974926356356e-07,0.09936396616753518,7.699932964566614e-07,-0.07220474414055345
174,0.1643,183.603,551.226,-0.20557,318.275,0.0376171,-0.0512208,-0.018462,0.0952701,-0.0753748,0.196982,2.11706e-06,-6.89764e-07,0.148622,-0.01829262123659925,0.217722121510449,2.117062241069334e-06,0.09995591309874574,-6.897637621072761e-07,-0.07260416677586157
175,0.1653,184.281,552.005,0.267293,318.747,-0.0453297,0.054014,-0.0185671,0.0958057,-0.0758017,0.198098,9.28517e-07,8.24158e-07,0.149476,-0.01839579326032248,0.2190818579898859,9.285174311646216e-07,0.10054520728469707,8.241583395740548e-07,-0.07299998756310655
176,0.1663,183.975,552.385,-0.221166,318.943,0.0407299,-0.0548171,-0.0186753,0.0963432,-0.0762317,0.19921,2.13533e-06,-7.33622e-07,0.150331,-0.01850199708976097,0.22043823101960736,2.1353322798844943e-06,0.1011369093392942,-7.336217309195092e-07,-0.07339851187958579
177,0.1673,184.683,553.169,0.282123,319.42,-0.0479513,0.0571709,-0.0187801,0.0968779,-0.0766577,0.200324,8.67324e-07,8.75613e-07,0.151184,-0.018604852690738305,0.22179855676972604,8.67324376097045e-07,0.10172584468255041,8.756133833554003e-07,-0.07379316004749703
178,0.1683,184.343,553.531,-0.236109,319.604,0.0437392,-0.0582243,-0.0188883,0.0974144,-0.0770871,0.201434,2.15384e-06,-7.7612e-07,0.152037,-0.018711033901170127,0.22315550613531365,2.1538423196076906e-06,0.10231707918269572,-7.761196988420593e-07,-0.07419078788776567
179,0.1693,185.079,554.321,0.296192,320.086,-0.0504695,0.060192,-0.0189929,0.0979481,-0.0775123,0.202546,8.09368e-07,9.23825e-07,0.152889,-0.01881367135899137,0.22451641158132896,8.093683274701391e-07,0.10290554282541065,9.238254268240098e-07,-0.0745843582857596
180,0.1703,184.709,554.666,-0.250177,320.258,0.0466021,-0.0614018,-0.0191009,0.0984839,-0.077941,0.203655,2.1719e-06,-8.16407e-07,0.153741,-0.018919633760411947,0.22587515356494503,2.17190235862752e-06,0.1034966379555009,-8.164066667148973e-07,-0.07498099894536236
181,0.1713,185.471,555.461,0.309281,320.744,-0.0528453,0.0630213,-0.0192052,0.0990166,-0.0783654,0.204765,7.55101e-07,9.6824e-07,0.15459,-0.019021955106459765,0.2272366304652922,7.551012850548489e-07,0.10408462721157363,9.682404686905954e-07,-0.07537349371612845
182,0.1723,185.071,555.789,-0.263155,320.906,0.0492767,-0.0643085,-0.0193132,0.0995515,-0.0787935,0.205872,2.18883e-06,-8.53688e-07,0.155441,-0.019127895014450225,0.2285959336507173,2.188832395555451e-06,0.10467536005608347,-8.536876355824674e-07,-0.07576924160758836
183,0.1733,185.857,556.588,0.321182,321.396,-0.05504,0.0656064,-0.0194172,0.100083,-0.0792171,0.20698,7.04959e-07,1.0083e-06,0.156289,-0.019229900408996303,0.22995797237531201,7.049592485319778e-07,0.10526265106871446,1.00830050842049e-06,-0.07616066284797174
184,0.1743,185.431,556.901,-0.274839,321.547,0.051723,-0.066905,-0.0195251,0.100617,-0.0796446,0.208085,2.20395e-06,-8.87231e-07,0.157139,-0.01933571979368376,0.2313178271161629,2.2039524287809087e-06,0.10585301893857757,-8.872306064278135e-07,-0.07655551975792618
185,0.1753,186.239,557.703,0.331699,322.041,-0.0570162,0.0678993,-0.0196289,0.101148,-0.0800673,0.209191,6.59351e-07,1.04349e-06,0.157985,-0.019437507463097692,0.2326804180068185,6.593512174024596e-07,0.1064403828229441,1.0434905444167697e-06,-0.07694577725299212
186,0.1763,185.789,558.002,-0.285043,322.182,0.0539042,-0.0691546,-0.0197367,0.101681,-0.0804942,0.210294,2.21664e-06,-9.16378e-07,0.158833,-0.019543206402517943,0.2340408146286943,2.216642456698281e-06,0.10703027273868604,-9.163775801512841e-07,-0.07733974500228358
187,0.1773,186.614,558.806,0.340655,322.678,-0.0587388,0.069857,-0.0198402,0.102211,-0.0809161,0.211398,6.1865e-07,1.07332e-06,0.159679,-0.01964467842938733,0.23540394799921427,6.186501912974762e-07,0.1076171542931117,1.0733205759727582e-06,-0.07772893325883146
188,0.1783,186.145,559.093,-0.2936,322.812,0.0557873,-0.0710246,-0.0199479,0.102743,-0.0813423,0.212499,2.22633e-06,-9.40562e-07,0.160525,-0.019750257012011718,0.23676487679978941,2.2263324783722283e-06,0.1082065633881133,-9.405615576385529e-07,-0.07812192143574725
189,0.1793,186.985,559.898,0.347901,323.309,-0.0601767,0.071443,-0.0200512,0.103272,-0.0817635,0.213602,5.83176e-07,1.09737e-06,0.161369,-0.019851511580573966,0.23812978106522253,5.831761700214599e-07,0.10879295974830816,1.097370602165526e-06,-0.07851013471898172
190,0.1803,186.499,560.174,-0.300371,323.435,0.0573436,-0.072488,-0.0201587,0.103804,-0.0821891,0.214701,2.23251e-06,-9.59316e-07,0.162214,-0.019956871879861504,0.2394912336757924,2.2325124919841954e-06,0.1093829945382323,-9.593155398945896e-07,-0.07890223736028457
191,0.1813,187.35,560.978,0.353311,323.933,-0.0613029,0.0726276,-0.0202618,0.104332,-0.0826095,0.215802,5.53187e-07,1.1153e-06,0.163057,-0.02005790911781158,0.2408566650561128,5.531871529740329e-07,0.10996890342568277,1.1153006218567185e-06,-0.0792893854754626
192,0.1823,186.852,561.245,-0.305249,324.053,0.0585503,-0.0735235,-0.0203692,0.104862,-0.0830344,0.216899,2.23475e-06,-9.72278e-07,0.163901,-0.020163149246876233,0.24221863171981095,2.234752497054515e-06,0.110557342867176,-9.722775273779405e-07,-0.07968051231479256
193,0.1833,187.71,562.046,0.356795,324.551,-0.0620961,0.0733884,-0.0204721,0.105389,-0.0834541,0.217998,5.28872e-07,1.12687e-06,0.164742,-0.020263969271539506,0.24358458044741393,5.288721398599705e-07,0.11114276083095165,1.1268706350264779e-06,-0.08006668935885264
194,0.1843,187.203,562.306,-0.308158,324.665,0.0593902,-0.0741172,-0.0205793,0.105919,-0.0838783,0.219093,2.23274e-06,-9.79206e-07,0.165584,-0.020368991344749898,0.24494705137970296,2.2327424926693595e-06,0.11173182258176695,-9.792055205570804e-07,-0.08045684231193473
195,0.1853,188.064,563.103,0.358296,325.161,-0.0625405,0.0737116,-0.020682,0.106445,-0.0842972,0.22019,5.10341e-07,1.13192e-06,0.166424,-0.020469594283289427,0.24631350765930193,5.103411302442851e-07,0.11231674734217068,1.1319206405513427e-06,-0.08084195827252072
196,0.1863,187.552,563.357,-0.309058,325.272,0.0598529,-0.0742626,-0.0207891,0.106974,-0.0847207,0.221284,2.22623e-06,-9.79975e-07,0.167265,-0.0205744963721346,0.24767772072516658,2.2262324781419096e-06,0.11290531856487762,-9.799745198657561e-07,-0.0812311392882955
197,0.1873,188.412,564.15,0.357792,325.766,-0.062627,0.0735913,-0.0208917,0.107499,-0.085139,0.222379,4.97622e-07,1.13042e-06,0.168103,-0.020674980273894472,0.24904467610084446,4.97622123729613e-07,0.11348974725623218,1.1304206388729199e-06,-0.08161537993319767
198,0.1883,187.901,564.399,-0.307945,325.874,0.0599344,-0.0739609,-0.0209986,0.108027,-0.0855618,0.223471,2.21509e-06,-9.74583e-07,0.168943,-0.020779664523030372,0.2504093778787042,2.2150924532393645e-06,0.11407782508166697,-9.745825251261664e-07,-0.08200359087698528
199,0.1893,188.756,565.185,0.355297,326.364,-0.062353,0.07303,-0.0211009,0.108551,-0.0859793,0.224564,4.90656e-07,1.12244e-06,0.16978,-0.02087983363961199,0.251776822501077,4.906561203998905e-07,0.11466175483824492,1.1224406299970013e-06,-0.08238677438267139
200,0.1903,188.248,565.432,-0.304851,326.471,0.0596376,-0.0732207,-0.0212076,0.109078,-0.0864014,0.225654,2.19929e-06,-9.63143e-07,0.170618,-0.02098430018797315,0.2531420031258793,2.1992924184033313e-06,0.11524933639718649,-9.631425361700252e-07,-0.08277401719186006
201,0.1913,189.094,566.21,0.35086,326.956,-0.0617224,0.0720383,-0.0213099,0.109602,-0.0868183,0.226745,4.89303e-07,1.10815e-06,0.171454,-0.021084448371397002,0.254509927118143,4.893031197994446e-07,0.11583388018655638,1.108150613937653e-06,-0.08315632900565784
202,0.1923,188.594,566.457,-0.299844,327.062,0.0589719,-0.0720584,-0.0214164,0.110128,-0.0872396,0.227833,2.17891e-06,-9.45884e-07,0.172291,-0.02118869732629014,0.2558755766975038,2.178912373862474e-06,0.11642096319683026,-9.458835527054177e-07,-0.08354251388869005
203,0.1933,189.426,567.225,0.344567,327.541,-0.0607457,0.0706347,-0.0215185,0.110651,-0.0876559,0.228923,4.93338e-07,1.08783e-06,0.173125,-0.02128862885870153,0.2572452274001302,4.933381216876143e-07,0.11700500407395875,1.0878305916062203e-06,-0.08392395573752853
204,0.1943,188.938,567.472,-0.293024,327.649,0.0579533,-0.0704973,-0.0216248,0.111176,-0.0880765,0.230009,2.15411e-06,-9.23135e-07,0.17396,-0.021392660348082293,0.25861133738054076,2.1541123200741197e-06,0.11759158566529226,-9.231345738935914e-07,-0.08430917630418122
205,0.1953,189.754,568.229,0.33653,328.121,-0.0594394,0.0688445,-0.0217267,0.111698,-0.0884921,0.231097,5.02461e-07,1.06186e-06,0.174793,-0.021492375355426918,0.2599814517226575,5.024611262616219e-07,0.11817512076241954,1.0618605637002787e-06,-0.0846896583408655
206,0.1963,189.282,568.479,-0.284519,328.231,0.0566032,-0.0685667,-0.0218328,0.112222,-0.0889119,0.232182,2.12514e-06,-8.95321e-07,0.175627,-0.021596189506963515,0.2613492735069083,2.125142258169177e-06,0.118761198064542,-8.953205992145996e-07,-0.08507382498007454
207,0.1973,190.077,569.223,0.326892,328.695,-0.0578256,0.0666995,-0.0219347,0.112743,-0.0893269,0.233268,5.16304e-07,1.03069e-06,0.176459,-0.021695883775743496,0.2627198429024149,5.163041332245655e-07,0.11934422451393556,1.0306905311452397e-06,-0.0854534405670252
208,0.1983,189.623,569.477,-0.274484,328.807,0.0549485,-0.0663015,-0.0220405,0.113266,-0.0897459,0.23435,2.09235e-06,-8.62945e-07,0.177291,-0.021799382876041107,0.2640868451873062,2.0923521890647834e-06,0.11992979465660114,-8.629446276442465e-07,-0.08583655530728462
209,0.1993,190.396,570.208,0.315818,329.263,-0.0559314,0.0642366,-0.0221422,0.113786,-0.0901603,0.235435,5.3444e-07,9.9486e-07,0.178121,-0.021898860820263377,0.26545912374082636,5.344401428075685e-07,0.12051230959057935,9.948604948739614e-07,-0.08621530615616924
210,0.2003,189.964,570.467,-0.263097,329.379,0.0530203,-0.063741,-0.0222478,0.114309,-0.0905786,0.236516,2.05615e-06,-8.26572e-07,0.178953,-0.022002142847173722,0.2668278247031761,2.0561521139050853e-06,0.12109849080152046,-8.26571658341102e-07,-0.08659746236006172
211,0.2013,190.71,571.184,0.303491,329.826,-0.0537877,0.0614969,-0.0223495,0.114828,-0.0909923,0.237598,5.56392e-07,9.54952e-07,0.179782,-0.022101600171755553,0.2681992742299,5.56392154793528e-07,0.1216804919344765,9.54952456000413e-07,-0.08697525883729385
212,0.2023,190.302,571.448,-0.250547,329.947,0.0508529,-0.0609279,-0.0224548,0.11535,-0.0914099,0.238677,2.01698e-06,-7.86818e-07,0.180611,-0.022204567451934998,0.26956839975718316,2.0169820340587563e-06,0.122266161997854,-7.868176904457513e-07,-0.08735645836920125
213,0.2033,191.021,572.15,0.290108,330.383,-0.051429,0.0585247,-0.0225564,0.115868,-0.091823,0.239758,5.81647e-07,9.11597e-07,0.181439,-0.022303906421376807,0.2709415452487418,5.816471690955893e-07,0.12284764646124269,9.115974155537998e-07,-0.08773339355492604
214,0.2043,190.638,572.421,-0.237039,330.509,0.0484836,-0.057907,-0.0226615,0.116389,-0.0922398,0.240835,1.97535e-06,-7.44326e-07,0.182267,-0.02240665688118071,0.2723110866586431,1.9753519509002615e-06,0.12343280250496225,-7.443257229455824e-07,-0.08811354704700114
215,0.2053,191.327,573.107,0.275876,330.935,-0.0488916,0.0553661,-0.022763,0.116907,-0.0926523,0.241914,6.09669e-07,8.65453e-07,0.183094,-0.02250587756997202,0.2736846512259685,6.096691858026304e-07,0.12401489144467948,8.654533745211523e-07,-0.08848962263792093
216,0.2063,190.973,573.386,-0.222782,331.067,0.0459508,-0.0547244,-0.0228678,0.117426,-0.0930683,0.242989,1.93179e-06,-6.99756e-07,0.183921,-0.022608313586261697,0.27505459844073554,1.931791865805721e-06,0.1245984065824195,-6.997557551180478e-07,-0.08886873209466939
217,0.2073,191.63,574.056,0.261003,331.482,-0.0462135,0.0520678,-0.0229693,0.117943,-0.0934803,0.244066,6.3991e-07,8.17182e-07,0.184746,-0.02270751380793634,0.276428571995206,6.399102048249006e-07,0.12517997428091876,8.171823338010142e-07,-0.0892440408581322
218,0.2083,191.305,574.342,-0.207984,331.62,0.0432937,-0.0514261,-0.0230738,0.118462,-0.0938954,0.24514,1.88683e-06,-6.53764e-07,0.185571,-0.022809635536790163,0.27780019271000844,1.8868317801512546e-06,0.1257640942535918,-6.537637863290868e-07,-0.08962201720235441
219,0.2093,191.93,574.996,0.245696,332.024,-0.0434329,0.0486761,-0.0231752,0.118978,-0.0943069,0.246215,6.71821e-07,7.67446e-07,0.186395,-0.02290871761620039,0.2791745665107346,6.71821225761704e-07,0.1263451384227301,7.674462945139737e-07,-0.08999656067467099
220,0.2103,191.635,575.291,-0.192851,332.168,0.0405511,-0.048057,-0.0232795,0.119496,-0.0947212,0.247287,1.84101e-06,-6.06991e-07,0.187219,-0.02301062292249889,0.2805465769122182,1.8410116946476762e-06,0.12692873634324497,-6.069908158323756e-07,-0.09037349701182962
221,0.2113,192.227,575.928,0.230156,332.562,-0.0405873,0.0452358,-0.0233808,0.120011,-0.0951321,0.248361,7.04869e-07,7.16881e-07,0.188042,-0.023109586933785065,0.2819226227401619,7.048692485245311e-07,0.12750925411295677,7.168812570235161e-07,-0.0907471857622959
222,0.2123,191.962,576.231,-0.17758,332.712,0.0377606,-0.0446601,-0.0234848,0.120528,-0.0955457,0.249431,1.79484e-06,-5.60044e-07,0.188864,-0.02321117825390373,0.2832950140449044,1.794841610669451e-06,0.12809232710871532,-5.600438431896393e-07,-0.09112317496633737
223,0.2133,192.521,576.852,0.214572,333.094,-0.0377131,0.0417895,-0.023586,0.121043,-0.095956,0.250502,7.3854e-07,6.66094e-07,0.189685,-0.023310024280971064,0.2846701592637655,7.385402727155821e-07,0.12867344428200456,6.660942217795451e-07,-0.09149601063518076
224,0.2143,192.286,577.163,-0.162355,333.251,0.0349578,-0.0412758,-0.0236898,0.121559,-0.0963688,0.251571,1.74883e-06,-5.13492e-07,0.190507,-0.023411399438988956,0.2860442059611277,1.7488315291469547e-06,0.12925599006314004,-5.134918681370948e-07,-0.09187096368635639
225,0.2153,192.813,577.768,0.199122,333.622,-0.0348442,0.0383763,-0.023791,0.122072,-0.0967785,0.252641,7.72355e-07,6.15645e-07,0.191327,-0.0235102252046977,0.2874210097201586,7.723552981619974e-07,0.1298354470040397,6.156451894945292e-07,-0.09224294794635512
226,0.2163,192.608,578.088,-0.147344,333.786,0.0321758,-0.0379409,-0.0238945,0.122587,-0.0971905,0.253708,1.70342e-06,-4.67851e-07,0.192147,-0.023611286666368136,0.2887954210555814,1.7034214507827272e-06,0.13041746211527427,-4.6785089058420937e-07,-0.09261686681922421
227,0.2173,193.102,578.676,0.183965,334.146,-0.0320123,0.0350319,-0.0239956,0.1231,-0.0975997,0.254776,8.05873e-07,5.66044e-07,0.192965,-0.023709994575517257,0.2901725898424983,8.058733247384708e-07,0.13099751504419466,5.660441602106658e-07,-0.09298809203946179
228,0.2183,192.927,579.004,-0.1327,334.316,0.0294445,-0.0346883,-0.0240988,0.123615,-0.0980109,0.255841,1.65903e-06,-4.23578e-07,0.193784,-0.0238107425053945,0.2915473555834964,1.6590313762776532e-06,0.131580128774601,-4.235779103023418e-07,-0.09336097866527071
229,0.2193,193.389,579.577,0.169242,334.665,-0.0292455,0.0317874,-0.0241998,0.124127,-0.0984195,0.256907,8.387e-07,5.17737e-07,0.194601,-0.023909332641515735,0.2929248791541652,8.38700351613042e-07,0.13215964614432063,5.177371340536752e-07,-0.09373135569620772
230,0.2203,193.242,579.913,-0.118552,334.842,0.0267902,-0.0315464,-0.0243028,0.12464,-0.09883,0.257971,1.61601e-06,-3.81068e-07,0.195419,-0.024009864802758463,0.29430128334276184,1.6160113056606917e-06,0.1327405930429315,-3.810679274351969e-07,-0.09410330262736366
231,0.2213,193.674,580.471,0.155075,335.181,-0.0265685,0.0286694,-0.0244038,0.125151,-0.0992381,0.259035,8.70493e-07,4.71111e-07,0.196235,-0.0241084348285433,0.2956791528048024,8.704933789349667e-07,0.1333195714023485,4.7111111101116876e-07,-0.09447292364326332
232,0.2223,193.555,580.814,-0.105011,335.363,0.0242356,-0.0285394,-0.0245065,0.125664,-0.0996477,0.260097,1.57469e-06,-3.40649e-07,0.197051,-0.024208653745956932,0.29705589498578333,1.5746912398473256e-06,0.13390111349527123,-3.406489419433001e-07,-0.09484375158299241
233,0.2233,193.958,581.357,0.141562,335.692,-0.0240023,0.0257,-0.0246074,0.126174,-0.100055,0.261159,9.00959e-07,4.26482e-07,0.197865,-0.024307106125787903,0.2984341000436104,9.009594059694592e-07,0.13447955055206573,4.264820909760658e-07,-0.09521234665349088
234,0.2243,193.865,581.708,-0.0921677,335.88,0.0217994,-0.0256865,-0.0247098,0.126686,-0.100464,0.26222,1.53532e-06,-3.02581e-07,0.19868,-0.02440701196285444,0.299812469719565,1.5353211786361953e-06,0.13506055280583307,-3.0258095418123077e-07,-0.09558232913713416
235,0.2253,194.24,582.237,0.128783,336.199,-0.0215637,0.0228963,-0.0248106,0.127196,-0.100871,0.26328,9.29861e-07,3.84102e-07,0.199493,-0.02450534677989058,0.3011910014301977,9.298614322972298e-07,0.13563958132748666,3.841020737027634e-07,-0.09595035223139536
236,0.2263,194.171,582.594,-0.0800892,336.392,0.0194963,-0.0230026,-0.0249128,0.127706,-0.101279,0.264339,1.49808e-06,-2.67062e-07,0.200307,-0.024605037239180394,0.3025696925888328,1.4980811220421941e-06,0.1362189052290017,-2.6706196432080276e-07,-0.0963191292520571
237,0.2273,194.52,583.11,0.116797,336.702,-0.019266,0.0202709,-0.0250136,0.128215,-0.101686,0.265398,9.57013e-07,3.44158e-07,0.201119,-0.02470335209627461,0.3039498445547659,9.570134580361156e-07,0.13679738786310414,3.44158059162325e-07,-0.09668685252968845
238,0.2283,194.474,583.472,-0.0688244,336.9,0.0173375,-0.0204982,-0.0251155,0.128725,-0.102093,0.266455,1.46313e-06,-2.34226e-07,0.201931,-0.024802729761318032,0.3053288482155041,1.463131070300605e-06,0.13737730239655077,-2.3422597261735234e-07,-0.09705442617439819
239,0.2293,194.799,583.976,0.105642,337.202,-0.0171187,0.0178323,-0.0252162,0.129233,-0.102499,0.267512,9.82283e-07,3.06774e-07,0.202742,-0.0249009271821079,0.3067093102537284,9.822834823314253e-07,0.1379552368490904,3.06774047054148e-07,-0.09742094766847342
240,0.2303,194.774,584.343,-0.0584028,337.403,0.0153302,-0.0181795,-0.0253179,0.129742,-0.102905,0.268567,1.43055e-06,-2.04146e-07,0.203552,-0.0250000897153132,0.3080886160319105,1.4305510231960028e-06,0.13853460350095093,-2.0414597912132848e-07,-0.09778732038502591
241,0.2313,195.076,584.835,0.0953401,337.697,-0.0151276,0.0155846,-0.0254185,0.13025,-0.103311,0.269622,1.00558e-06,2.7202e-07,0.204362,-0.025098169772778234,0.3094693777455597,1.0055805055309008e-06,0.13911312601180592,2.7202003693993504e-07,-0.09815354438444712
242,0.2323,195.07,585.207,-0.0488368,337.903,0.0134785,-0.0160491,-0.02552,0.130758,-0.103717,0.270676,1.4004e-06,-1.76846e-07,0.205171,-0.025197117286875015,0.31085028608055665,1.4004009805113071e-06,0.13969194248675687,-1.7684598441203292e-07,-0.09851961972710399
243,0.2333,195.352,585.688,0.0858948,338.189,-0.0132955,0.0135285,-0.0256205,0.131264,-0.104121,0.27173,1.02688e-06,2.3991e-07,0.205979,-0.025295080053876262,0.31223265066024486,1.0268805272772852e-06,0.14026877253534997,2.399100287320266e-07,-0.09888374424262947
244,0.2343,195.364,586.064,-0.0401235,338.398,0.0117834,-0.0141062,-0.0257217,0.131771,-0.104526,0.272782,1.37266e-06,-1.52301e-07,0.206788,-0.025393715200752176,0.3136138457899964,1.3726609420228186e-06,0.14084703538026977,-1.5230098837637485e-07,-0.09924862243339017
245,0.2353,195.627,586.535,0.0772969,338.678,-0.0116222,0.0116615,-0.0258221,0.132277,-0.10493,0.273833,1.04616e-06,2.10417e-07,0.207595,-0.025491560759816734,0.31499517970574265,1.0461605473022217e-06,0.1414244500537647,2.1041702202850843e-07,-0.09961245249130679
246,0.2363,195.654,586.914,-0.0322465,338.889,0.0102433,-0.0123472,-0.0259232,0.132784,-0.105335,0.274884,1.34732e-06,-1.30447e-07,0.208401,-0.025590078582864106,0.31637796616661285,1.34732090772971e-06,0.14200329897574426,-1.3044699154196593e-07,-0.09997703561498184
247,0.2373,195.9,587.375,0.0695244,339.162,-0.0101049,0.00997834,-0.0260234,0.133289,-0.105738,0.275934,1.06345e-06,1.83473e-07,0.209207,-0.025687709565596184,0.3177608889384871,1.0634505653861481e-06,0.14258015628593834,1.8347301677934524e-07,-0.1003396717935311
248,0.2383,195.942,587.757,-0.0251784,339.377,0.00885406,-0.0107659,-0.0261243,0.133794,-0.106142,0.276982,1.32429e-06,-1.11184e-07,0.210012,-0.025786012716223605,0.3191426262539838,1.3242908769584005e-06,0.14315730498264312,-1.1118399378950983e-07,-0.1007030611565326
249,0.2393,196.172,588.209,0.0625452,339.644,-0.00873882,0.00847167,-0.0262244,0.134299,-0.106545,0.278031,1.07883e-06,1.58979e-07,0.210817,-0.025883526655696598,0.3205271329157091,1.0788305819797728e-06,0.14373474521304574,1.589790126210744e-07,-0.10106540480573722
250,0.2403,196.226,588.593,-0.0188825,339.86,0.00760998,-0.00935413,-0.0263251,0.134803,-0.106948,0.279078,1.30348e-06,-9.43871e-08,0.211621,-0.02598161524571896,0.3219104488634035,1.3034808494793992e-06,0.14431133281250297,-9.438709558384772e-08,-0.10142760245987126
251,0.2413,196.442,589.037,0.0563191,340.121,-0.00751736,0.00713227,-0.0264251,0.135307,-0.10735,0.280124,1.09238e-06,1.3681e-07,0.212424,-0.026079012214264896,0.32329389060680924,1.0923805966456257e-06,0.144888211085354,1.368100093213087e-07,-0.1017887559669638
252,0.2423,196.508,589.423,-0.0133153,340.339,0.00650369,-0.00810236,-0.0265255,0.13581,-0.107753,0.28117,1.28478e-06,-7.99103e-08,0.213227,-0.02617678897296316,0.3246787801873654,1.2847808252836046e-06,0.14546423471332726,-7.991029682408168e-08,-0.10215066216931123
253,0.2433,196.711,589.859,0.0507999,340.596,-0.0064326,0.00594966,-0.0266254,0.136313,-0.108154,0.282215,1.10419e-06,1.16823e-07,0.214029,-0.02627406905252383,0.3260637930558459,1.1041906096131981e-06,0.14604054815406742,1.1682300682380742e-07,-0.1025106275758938
254,0.2443,196.787,590.246,-0.00842816,340.815,0.00552674,-0.00699983,-0.0267257,0.136816,-0.108556,0.283258,1.26805e-06,-6.75929e-08,0.21483,-0.026371728865676403,0.32744759912141874,1.2680508039153437e-06,0.14661715155338673,-6.759289772340082e-08,-0.1028713457943885
255,0.2453,196.979,590.675,0.0459373,341.067,-0.00547561,0.00491248,-0.0268255,0.137318,-0.108957,0.284302,1.11438e-06,9.88611e-08,0.215631,-0.02646889211860859,0.3288341780831794,1.114380620892419e-06,0.1471928978636996,9.88611048580168e-08,-0.10323102226477299
256,0.2463,197.063,591.062,-0.00417203,341.287,0.0046702,-0.00603294,-0.0269255,0.13782,-0.109358,0.285344,1.25324e-06,-5.73065e-08,0.216431,-0.02656624036190347,0.3302195449475298,1.2532407853704797e-06,0.14776893327121754,-5.730649832447199e-08,-0.10359055453380706
257,0.2473,197.245,591.486,0.0416771,341.534,-0.00463755,0.00401261,-0.0270252,0.138321,-0.109759,0.286385,1.12321e-06,8.2677e-08,0.217231,-0.0266632868698905,0.33160502451081486,1.1232106307268452e-06,0.14834410957641997,8.267700346564766e-08,-0.10394994265930402
258,0.2483,197.336,591.873,-0.00048485,341.755,0.00392375,-0.00518992,-0.0271251,0.138822,-0.110159,0.287426,1.24017e-06,-4.88568e-08,0.21803,-0.026760518350738893,0.3329919471092946,1.2401707689679853e-06,0.1489195741171483,-4.8856798828822434e-08,-0.10430829100779271
259,0.2493,197.51,592.29,0.0379696,341.998,-0.00390688,0.00323482,-0.0272246,0.139323,-0.110559,0.288465,1.13069e-06,6.82249e-08,0.218828,-0.02685735086166574,0.3343776454879914,1.130690639339349e-06,0.14949532703784474,6.822490239422052e-08,-0.10466649604560585
260,0.2503,197.607,592.677,0.00267851,342.219,0.00327714,-0.00446236,-0.0273243,0.139823,-0.110959,0.289504,1.22864e-06,-4.20404e-08,0.219626,-0.02695436834738274,0.33576478435550783,1.2286407546913125e-06,0.15007021841223045,-4.204039916189117e-08,-0.1050245578300566
261,0.2513,197.774,593.088,0.0347575,342.459,-0.00327524,0.00256494,-0.0274237,0.140323,-0.111358,0.290542,1.13692e-06,5.53013e-08,0.220423,-0.027051084276307757,0.3371520280565934,1.136920646294115e-06,0.1506453973041766,5.5301301538079883e-08,-0.10538158180046375
262,0.2523,197.876,593.475,0.00537427,342.68,0.00272106,-0.00383815,-0.0275232,0.140823,-0.111757,0.291579,1.21848e-06,-3.6689e-08,0.221219,-0.02714788787736322,0.33853937392419464,1.2184807423043509e-06,0.15122086385747813,-3.668899928310765e-08,-0.10573846334672221
263,0.2533,198.036,593.881,0.0319892,342.917,-0.00273225,0.00199225,-0.0276224,0.141322,-0.112155,0.292616,1.14204e-06,4.37514e-08,0.222015,-0.027244390020300324,0.3399281592156729,1.1420406520468163e-06,0.15179546641995922,4.3751400946590024e-08,-0.10609430862040348
264,0.2543,198.142,594.267,0.00765357,343.138,0.00224596,-0.00330576,-0.0277218,0.14182,-0.112554,0.293651,1.20957e-06,-3.26392e-08,0.22281,-0.027341077122503776,0.3413157027903968,1.209570731575127e-06,0.1523692034108899,-3.263919945428739e-08,-0.10645090584538675
265,0.2553,198.296,594.669,0.0296151,343.372,-0.00226831,0.00150582,-0.0278209,0.142318,-0.112952,0.294686,1.14617e-06,3.34198e-08,0.223604,-0.027437462845769423,0.34270468321616265,1.146170656829426e-06,0.15294322619399803,3.341980048254811e-08,-0.10680646762337287
266,0.2563,198.406,595.053,0.00956503,343.592,0.00184265,-0.00285442,-0.0279201,0.142816,-0.11335,0.29572,1.20176e-06,-2.9738e-08,0.224398,-0.027533936264294456,0.34409375788645136,1.2017607220471405e-06,0.15351753491164422,-2.9737999507339907e-08,-0.10716188791592896
267,0.2573,198.555,595.45,0.027588,343.823,-0.00187426,0.0010953,-0.028019,0.143314,-0.113747,0.296753,1.14943e-06,2.41599e-08,0.225191,-0.027630108402207365,0.3454829241191768,1.1494306606518734e-06,0.15409212970625874,2.4159900302578308e-08,-0.10751627429607524
268,0.2583,198.668,595.833,0.0111542,344.043,0.00150252,-0.00247404,-0.028118,0.143811,-0.114144,0.297786,1.19492e-06,-2.78416e-08,0.225984,-0.027726368256534073,0.3468735261020581,1.1949207139316798e-06,0.1546658560539107,-2.7841599581357457e-08,-0.10787052001275232
269,0.2593,198.812,596.226,0.0258642,344.271,-0.00154152,0.000751079,-0.0282168,0.144307,-0.114541,0.298817,1.15194e-06,1.58356e-08,0.226776,-0.027822424146111246,0.3482628687905571,1.151940663524087e-06,0.15523871237513664,1.5835600164493258e-08,-0.1082246251217922
270,0.2603,198.927,596.608,0.0124632,344.49,0.00121751,-0.0021553,-0.0283157,0.144804,-0.114937,0.299848,1.18894e-06,-2.68174e-08,0.227567,-0.027918567753983492,0.34965364463003046,1.1889407067755542e-06,0.15581300871600656,-2.6817399634282424e-08,-0.10857769825714925
271,0.2613,199.068,596.997,0.0244031,344.716,-0.00126219,0.000464281,-0.0284144,0.145299,-0.115333,0.300877,1.15379e-06,8.32197e-09,0.228358,-0.02801450745664391,0.35104315300981037,1.153790665675558e-06,0.15638527778022926,8.321970002000967e-09,-0.1089306316032248
272,0.2623,199.185,597.377,0.0135305,344.934,0.000980217,-0.00188972,-0.028513,0.145795,-0.115729,0.301906,1.1837e-06,-2.65442e-08,0.229148,-0.028110340501561915,0.35243409192959985,1.183700700568835e-06,0.15695898714616918,-2.6544199616118647e-08,-0.10928342521536438
273,0.2633,199.322,597.763,0.0231684,345.158,-0.00102901,0.000226869,-0.0286116,0.14629,-0.116125,0.302935,1.15508e-06,1.50603e-09,0.229938,-0.028206164097807518,0.3538264628621819,1.1550806671145608e-06,0.15753182361013485,1.5060299674019006e-09,-0.10963607914889173
274,0.2643,199.44,598.14,0.0143908,345.375,0.000783932,-0.00166964,-0.0287101,0.146785,-0.11652,0.303962,1.1791e-06,-2.69128e-08,0.230727,-0.02830188107650533,0.3552175568440321,1.1791006950812033e-06,0.15810494369834127,-2.691279965549853e-08,-0.10998770344725717
275,0.2653,199.574,598.523,0.0221269,345.597,-0.000835445,3.16159e-05,-0.0288085,0.147279,-0.116915,0.304989,1.1559e-06,-4.71364e-09,0.231515,-0.028397491467299085,0.35661008021326657,1.1559006680705863e-06,0.15867718887344906,-4.713640033848776e-09,-0.11033918888145222
276,0.2663,199.693,598.898,0.0150752,345.813,0.00062261,-0.00148822,-0.0289068,0.147773,-0.11731,0.306014,1.17506e-06,-2.78254e-08,0.232302,-0.02849299529979754,0.3580013184332671,1.17506069030604e-06,0.1592497168075091,-2.7825399651071336e-08,-0.11069053550631736
277,0.2673,199.825,599.278,0.0212495,346.033,-0.000675644,-0.0001279,-0.0290051,0.148266,-0.117704,0.307039,1.15631e-06,-1.0427e-08,0.23309,-0.028588489744730716,0.3593939834035278,1.156310668548599e-06,0.15982136781829115,-1.042700004116881e-08,-0.11104085441797051
278,0.2683,199.945,599.651,0.0156112,346.248,0.00049088,-0.00133944,-0.0291033,0.148759,-0.118098,0.308064,1.17148e-06,-2.91957e-08,0.233876,-0.028683877671413893,0.3607880765872171,1.1714806862350713e-06,0.16039330072250246,-2.9195699524642293e-08,-0.1113910353311598
279,0.2693,200.075,600.027,0.0205104,346.466,-0.000544423,-0.000257332,-0.0292013,0.149252,-0.118491,0.309087,1.1564e-06,-1.57129e-08,0.234662,-0.028779061987294408,0.36218087508453034,1.1564006685560457e-06,0.16096551565915096,-1.571289987012392e-08,-0.11174019004088032
280,0.2703,200.195,600.398,0.0160229,346.68,0.000384014,-0.00121799,-0.0292994,0.149744,-0.118885,0.310109,1.16832e-06,-3.0948e-08,0.235447,-0.028874334088140552,0.36357373556933936,1.168320682420898e-06,0.1615368512298807,-3.0947999496433454e-08,-0.11209009547010818
281,0.2713,200.322,600.772,0.019887,346.895,-0.000437235,-0.000361613,-0.0293973,0.150236,-0.119278,0.311131,1.15621e-06,-2.06403e-08,0.236232,-0.028969402637151975,0.36496802028522213,1.1562106683182805e-06,0.16210846796687228,-2.064029980264337e-08,-0.11243897550317161
282,0.2723,200.442,601.141,0.0163311,347.108,0.000297885,-0.0011193,-0.0294952,0.150728,-0.119671,0.312152,1.16549e-06,-3.30167e-08,0.237016,-0.02906446187940792,0.366362364325439,1.1654906790781183e-06,0.1626803660084939,-3.301669948552188e-08,-0.11278771845332058
283,0.2733,200.569,601.511,0.01936,347.322,-0.000350129,-0.000445005,-0.029593,0.151219,-0.120063,0.313172,1.15579e-06,-2.52684e-08,0.237799,-0.029159414731765976,0.36775676496048026,1.1557906678394403e-06,0.1632513822412176,-2.5268399705957734e-08,-0.11313543751029898
284,0.2743,200.688,601.878,0.0165539,347.534,0.00022893,-0.00103942,-0.0296907,0.15171,-0.120455,0.314192,1.16295e-06,-3.53451e-08,0.238582,-0.02925426122362007,0.3691525886097833,1.1629506762034225e-06,0.16382267891175317,-3.534509940283925e-08,-0.11348302028811963
285,0.2753,200.813,602.246,0.0189127,347.747,-0.000279698,-0.000511162,-0.0297884,0.1522,-0.120847,0.31521,1.15519e-06,-2.9648e-08,0.239364,-0.02934909844942457,0.37054709562863053,1.1551906671236623e-06,0.16439309176415584,-2.9647999610915576e-08,-0.11383046684019327
286,0.2763,200.933,602.61,0.0167067,347.957,0.000174093,-0.000974991,-0.029886,0.15269,-0.121238,0.316228,1.16065e-06,-3.78848e-08,0.240145,-0.02944382935447254,0.37194302297844883,1.160650673570629e-06,0.16496378418734525,-3.7884799297671634e-08,-0.1141768913972444
287,0.2773,201.056,602.975,0.0185308,348.168,-0.000223027,-0.000563191,-0.0299834,0.15318,-0.12163,0.317245,1.15445e-06,-3.38219e-08,0.240926,-0.02953835692192619,0.3733389987661857,1.1544506663963006e-06,0.1655347563183449,-3.3821899392272314e-08,-0.11452406600514786
288,0.2783,201.175,603.338,0.0168024,348.377,0.00013078,-0.000923161,-0.0300809,0.153669,-0.122021,0.318261,1.15856e-06,-4.0595e-08,0.241707,-0.029632972319550754,0.37473502024775707,1.1585606711772556e-06,0.16610484218882005,-4.059499913999787e-08,-0.11487021941793762
289,0.2793,201.297,603.7,0.0182025,348.586,-0.000177647,-0.00060371,-0.0301782,0.154158,-0.122411,0.319276,1.15359e-06,-3.78264e-08,0.242486,-0.029727384438119953,0.376131084676151,1.1535906654369654e-06,0.16667520689945658,-3.7826399235108e-08,-0.11521535272699479
290,0.2803,201.416,604.06,0.016852,348.794,9.68046e-05,-0.000881545,-0.0302755,0.154647,-0.122801,0.320291,1.15663e-06,-4.34411e-08,0.243265,-0.02982178737083696,0.37752856682931335,1.1566306687971206e-06,0.167245850586641,-4.3441099051300114e-08,-0.11556035146030541
291,0.2813,201.537,604.42,0.0179177,349.002,-0.000141477,-0.000634912,-0.0303727,0.155135,-0.123191,0.321305,1.15265e-06,-4.16917e-08,0.244044,-0.02991608411020874,0.37892608922018645,1.1526506642489665e-06,0.16781560557063635,-4.169169909307158e-08,-0.11590521567034373
292,0.2823,201.656,604.777,0.0168646,349.209,7.03409e-05,-0.000848154,-0.0304698,0.155622,-0.123581,0.322318,1.15485e-06,-4.63944e-08,0.244822,-0.030010274685415284,0.380323649093131,1.154850666873486e-06,0.1683844702778623,-4.6394398878213394e-08,-0.11624994540956368
293,0.2833,201.775,605.135,0.017668,349.415,-0.000112782,-0.000658619,-0.0305668,0.15611,-0.12397,0.32333,1.15164e-06,-4.54427e-08,0.245599,-0.03010435912560161,0.3817212436896009,1.1516406630551757e-06,0.16895478104386674,-4.544269893713704e-08,-0.11659365732449778
294,0.2843,201.893,605.49,0.0168478,349.62,4.98741e-05,-0.000821344,-0.0306638,0.156597,-0.12436,0.324341,1.15318e-06,-4.94311e-08,0.246376,-0.03019843444003989,0.38311887024815117,1.1531806649589527e-06,0.16952420066465868,-4.943109876975882e-08,-0.11693811862382175
295,0.2853,202.012,605.845,0.0174467,349.825,-9.01193e-05,-0.00067633,-0.0307607,0.157083,-0.124748,0.325352,1.15058e-06,-4.90998e-08,0.247152,-0.030292403658860545,0.38451791052166473,1.1505806618572478e-06,0.17009272756702876,-4.909979878231496e-08,-0.11728068017255766
296,0.2863,202.129,606.198,0.0168077,350.029,3.41585e-05,-0.000799767,-0.0308575,0.157569,-0.125137,0.326362,1.1516e-06,-5.25316e-08,0.247927,-0.03038626681113643,0.3859169800224569,1.151600663051866e-06,0.17066153084062607,-5.253159862661505e-08,-0.11762399120964473
297,0.2873,202.247,606.551,0.017248,350.233,-7.23025e-05,-0.000689277,-0.0309543,0.158055,-0.125525,0.327371,1.14948e-06,-5.26798e-08,0.248702,-0.030480120877899086,0.387316075980511,1.1494806606560104e-06,0.17123061061979983,-5.267979863443628e-08,-0.11796628669143772
298,0.2883,202.364,606.902,0.0167494,350.435,2.21774e-05,-0.000782323,-0.031051,0.158541,-0.125913,0.328379,1.15011e-06,-5.56797e-08,0.249477,-0.030573868917419422,0.3887151956229329,1.1501106613742706e-06,0.17179996703896405,-5.5679698407473666e-08,-0.11830844938834562
299,0.2893,202.481,607.252,0.0170675,350.638,-5.83603e-05,-0.000698458,-0.0311475,0.159026,-0.1263,0.329386,1.14836e-06,-5.61962e-08,0.25025,-0.030667414025444817,0.39011433617395963,1.1483606594531182e-06,0.17236842786358508,-5.619619847241353e-08,-0.11864959800191788
300,0.2903,202.597,607.601,0.016677,350.839,1.31073e-05,-0.000768126,-0.0312441,0.15951,-0.126688,0.330393,1.14869e-06,-5.88625e-08,0.251024,-0.030761047030702926,0.39151488636915777,1.148690659702467e-06,0.1729359915219968,-5.886249831998924e-08,-0.11899149562546496
301,0.2913,202.713,607.949,0.0169014,351.04,-4.7503e-05,-0.00070468,-0.0313405,0.159995,-0.127075,0.331399,1.14722e-06,-5.96599e-08,0.251796,-0.030854477162364558,0.39291545471260303,1.1472206580265265e-06,0.17350500345212416,-5.965989824385787e-08,-0.11933237995128632
302,0.2923,202.828,608.295,0.0165938,351.24,6.28623e-06,-0.000756462,-0.0314369,0.160479,-0.127461,0.332404,1.14732e-06,-6.20694e-08,0.252568,-0.030947898287795428,0.39431603842001683,1.1473206582568451e-06,0.17407311734626707,-6.206939806574496e-08,-0.11967225205308951
303,0.2933,202.944,608.641,0.0167467,351.44,-3.90928e-05,-0.000708591,-0.0315332,0.160962,-0.127848,0.333409,1.14607e-06,-6.30794e-08,0.253339,-0.031041213511990184,0.3957180304216059,1.146070656821152e-06,0.1746403316331684,-6.307939803829044e-08,-0.12001287297714491
304,0.2943,203.058,608.985,0.0165024,351.638,1.18645e-06,-0.000746762,-0.0316294,0.161446,-0.128234,0.334412,1.146e-06,-6.5292e-08,0.25411,-0.03113442286380863,0.3971186378933471,1.1460006565933156e-06,0.17520899515915112,-6.529199791938112e-08,-0.12035248245932895
305,0.2953,203.173,609.329,0.0166012,351.837,-3.26173e-05,-0.000710708,-0.0317256,0.161928,-0.12862,0.335415,1.14492e-06,-6.64615e-08,0.25488,-0.031227623249318714,0.39852065087913013,1.144920655393733e-06,0.17577558243138114,-6.646149774969246e-08,-0.12069196087754996
306,0.2963,203.287,609.671,0.0164048,352.034,-2.60976e-06,-0.000738577,-0.0318217,0.162411,-0.129005,0.336417,1.14472e-06,-6.85234e-08,0.25565,-0.03132071780145962,0.39992267086602173,1.1447206551551403e-06,0.17634361920753383,-6.852339762275506e-08,-0.12103042931325736
307,0.2973,203.401,610.012,0.0164629,352.231,-2.76671e-05,-0.000711439,-0.0319177,0.162893,-0.12939,0.337418,1.14377e-06,-6.98117e-08,0.256419,-0.031413706549019316,0.4013246950555962,1.1437706541883585e-06,0.17691075350037666,-6.981169753395022e-08,-0.12136876746369862
308,0.2983,203.514,610.352,0.0163027,352.428,-5.43024e-06,-0.000731553,-0.0320136,0.163375,-0.129775,0.338419,1.14348e-06,-7.17585e-08,0.257187,-0.03150658952075158,0.40272812337403385,1.1434806537202746e-06,0.17747816121783844,-7.175849747742546e-08,-0.12170697537902386
309,0.2993,203.627,610.691,0.0163304,352.624,-2.39174e-05,-0.000711107,-0.0321095,0.163856,-0.13016,0.339419,1.14263e-06,-7.3134e-08,0.257955,-0.03159946358543397,0.40413155309531623,1.142630652761767e-06,0.1780446644464886,-7.313399730257686e-08,-0.12204505310936387
310,0.3003,203.74,611.029,0.0161975,352.819,-7.53023e-06,-0.000725414,-0.0322053,0.164337,-0.130544,0.340418,1.14226e-06,-7.49928e-08,0.258722,-0.03169223191314863,0.40553498141258415,1.1422606522870637e-06,0.17861144022873532,-7.499279719436203e-08,-0.12238212308739216
311,0.3013,203.852,611.366,0.0162025,353.013,-2.11111e-05,-0.000709963,-0.032301,0.164817,-0.130928,0.341416,1.14149e-06,-7.64317e-08,0.259489,-0.03178489453257749,0.4069384055161771,1.1414906515572198e-06,0.17917730951780997,-7.643169708249076e-08,-0.1227190636553972
312,0.3023,203.964,611.702,0.01609,353.207,-9.10672e-06,-0.000719945,-0.0323966,0.165298,-0.131312,0.342413,1.14107e-06,-7.82232e-08,0.260255,-0.03187745147236798,0.40834182259363905,1.1410706510783797e-06,0.17974463023338205,-7.822319691985768e-08,-0.12305587486306302
313,0.3033,204.076,612.036,0.0160783,353.4,-1.90459e-05,-0.000708204,-0.0324922,0.165778,-0.131695,0.34341,1.14035e-06,-7.97072e-08,0.261021,-0.03196999956413793,0.4097466395756637,1.1403506501306282e-06,0.18031104358422323,-7.970719684280425e-08,-0.12339168015217261
314,0.3043,204.187,612.37,0.0159811,353.593,-1.03103e-05,-0.000714982,-0.0325877,0.166257,-0.132078,0.344406,1.1399e-06,-8.1447e-08,0.261786,-0.03206244201498232,0.4111514467064996,1.1399006496493058e-06,0.18087654800159547,-8.144699670253885e-08,-0.12372735685248293
315,0.3053,204.298,612.703,0.0159571,353.785,-1.75634e-05,-0.000705982,-0.0326831,0.166736,-0.132461,0.345401,1.13923e-06,-8.29624e-08,0.26255,-0.03215477885347684,0.4125562411653174,1.139230648927736e-06,0.18144232336046895,-8.296239650817938e-08,-0.1240629050132338
316,0.3063,204.408,613.035,0.0158713,353.977,-1.12552e-05,-0.000710399,-0.0327785,0.167215,-0.132844,0.346395,1.13875e-06,-8.46621e-08,0.263314,-0.03224710688345711,0.413961020128516,1.1387506484439314e-06,0.18200836979065582,-8.466209644453215e-08,-0.12439832468364664
317,0.3073,204.518,613.365,0.0158385,354.168,-1.65396e-05,-0.000703414,-0.0328738,0.167693,-0.133226,0.347389,1.13811e-06,-8.61988e-08,0.264077,-0.032339329339701295,0.4153671961362202,1.1381106477248437e-06,0.18257350484793422,-8.619879632298932e-08,-0.12473274064610207
318,0.3083,204.628,613.695,0.0157611,354.358,-1.20266e-05,-0.000706101,-0.032969,0.168171,-0.133608,0.348382,1.13761e-06,-8.78672e-08,0.264839,-0.0324314462507137,0.4167733538037204,1.1376106470173397e-06,0.18313891010434213,-8.786719618569805e-08,-0.12506702888605636
319,0.3093,204.738,614.024,0.0157219,354.548,-1.58782e-05,-0.000700589,-0.0330641,0.168649,-0.13399,0.349374,1.137e-06,-8.94173e-08,0.265601,-0.032523457644964116,0.41817949029908474,1.1370006463007343e-06,0.18370458568906622,-8.941729601197324e-08,-0.12540118945229028
320,0.3103,204.847,614.351,0.0156508,354.737,-1.26879e-05,-0.000702016,-0.0331592,0.169126,-0.134371,0.350365,1.13649e-06,-9.10608e-08,0.266363,-0.03261546028934692,0.4195856027876328,1.1364906458144475e-06,0.18426934746141432,-9.106079590370797e-08,-0.12573434812835105
321,0.3113,204.956,614.678,0.0156071,354.926,-1.55041e-05,-0.000697577,-0.0332542,0.169603,-0.134752,0.351356,1.13591e-06,-9.26187e-08,0.267124,-0.03270735745543496,0.4209931094243433,1.1359106451003242e-06,0.1848343786893878,-9.261869571286496e-08,-0.12606737989513395
322,0.3123,205.065,615.003,0.0155407,355.114,-1.32851e-05,-0.000698091,-0.0333491,0.17008,-0.135133,0.352346,1.13539e-06,-9.42422e-08,0.267884,-0.03279914917162663,0.4224005891902016,1.13539064461321e-06,0.1853996795015478,-9.424219560294489e-08,-0.1264002848009823
323,0.3133,205.173,615.328,0.0154939,355.301,-1.53589e-05,-0.000694428,-0.0334439,0.170556,-0.135513,0.353335,1.13482e-06,-9.58036e-08,0.268644,-0.03289083546628613,0.4238080392422401,1.1348206438999142e-06,0.1859640640618596,-9.580359539018701e-08,-0.12673218962684707
324,0.3143,205.281,615.652,0.0154309,355.488,-1.38512e-05,-0.000694285,-0.0335387,0.171032,-0.135894,0.354323,1.1343e-06,-9.74106e-08,0.269403,-0.032982513069496844,0.4252154567347659,1.1343006434128e-06,0.18652871733317022,-9.741059525669726e-08,-0.12706484128843365
325,0.3153,205.388,615.975,0.015382,355.675,-1.53973e-05,-0.000691184,-0.0336334,0.171507,-0.136274,0.355311,1.13374e-06,-9.89725e-08,0.270161,-0.03307408528949607,0.42662426544292176,1.1337406427003316e-06,0.18709245235037053,-9.897249508838968e-08,-0.12739649363080818
326,0.3163,205.495,616.296,0.0153217,355.86,-1.44093e-05,-0.000690571,-0.0337281,0.171982,-0.136653,0.356298,1.13322e-06,-1.00565e-07,0.270919,-0.03316564883801676,0.428033038708155,1.1332206419911728e-06,0.1876564552053106,-1.0056499499810911e-07,-0.1277271476968186
327,0.3173,205.602,616.617,0.0152713,356.046,-1.55839e-05,-0.000687873,-0.0338226,0.172457,-0.137033,0.357284,1.13267e-06,-1.02126e-07,0.271677,-0.03325701036730133,0.42944177367653014,1.1326706415015764e-06,0.18822072602524353,-1.0212599477199547e-07,-0.1280585484105703
328,0.3183,205.709,616.937,0.015213,356.23,-1.49753e-05,-0.000686926,-0.0339171,0.172931,-0.137412,0.358269,1.13215e-06,-1.03706e-07,0.272434,-0.03334836326332924,0.43085046749140954,1.1321506407924176e-06,0.18878407615281212,-1.0370599456965834e-07,-0.12838895160536234
329,0.3193,205.815,617.256,0.0151618,356.414,-1.58913e-05,-0.000684518,-0.0340116,0.173405,-0.13779,0.359254,1.13161e-06,-1.05263e-07,0.27319,-0.033439707526916496,0.43226054955329585,1.1316106403036486e-06,0.1893476933716367,-1.0526299443203158e-07,-0.12871835831986422
330,0.3203,205.921,617.574,0.015105,356.598,-1.55593e-05,-0.000683337,-0.0341059,0.173879,-0.138169,0.360237,1.13109e-06,-1.06833e-07,0.273946,-0.033530849865067935,0.4336691538891113,1.1310906395944897e-06,0.18991157780834889,-1.0683299433988935e-07,-0.12904851149408259
331,0.3213,206.027,617.891,0.0150533,356.781,-1.62976e-05,-0.000681137,-0.0342002,0.174352,-0.138547,0.361221,1.13056e-06,-1.08385e-07,0.274701,-0.033621983608902006,0.4350805786436325,1.1305606391065481e-06,0.19047453911450507,-1.0838499409082658e-07,-0.12937766894206082
332,0.3223,206.132,618.207,0.0149978,356.964,-1.61676e-05,-0.000679792,-0.0342944,0.174825,-0.138925,0.362203,1.13004e-06,-1.09945e-07,0.275455,-0.03371301213053546,0.43649051993973353,1.1300406383973893e-06,0.19103776676434459,-1.0994499399785695e-07,-0.1297067019920365
333,0.3233,206.237,618.522,0.0149458,357.146,-1.67859e-05,-0.000677741,-0.0343885,0.175298,-0.139303,0.363185,1.12951e-06,-1.11492e-07,0.276209,-0.033803935458084244,0.43790184647823005,1.1295106379094477e-06,0.19160126088387752,-1.1149199374838048e-07,-0.1300356106910231
334,0.3243,206.342,618.836,0.0148912,357.327,-1.68036e-05,-0.000676285,-0.0344826,0.17577,-0.13968,0.364165,1.129e-06,-1.13043e-07,0.276963,-0.0338948502301506,0.43931168099385753,1.129000637423161e-06,0.19216382943474852,-1.1304299363246173e-07,-0.13036352544997665
335,0.3253,206.446,619.149,0.0148392,357.508,-1.73425e-05,-0.000674342,-0.0345766,0.176242,-0.140057,0.365146,1.12848e-06,-1.14584e-07,0.277716,-0.03398565984611013,0.4407243385481525,1.1284806367140021e-06,0.19272666358065105,-1.1458399340469327e-07,-0.1306913166083663
336,0.3263,206.551,619.462,0.0147855,357.688,-1.74685e-05,-0.00067281,-0.0346705,0.176714,-0.140434,0.366125,1.12796e-06,-1.16126e-07,0.278468,-0.03407636433400818,0.4421354983255925,1.127960636226888e-06,0.19328976344697546,-1.161259932658254e-07,-0.13101898421278058
337,0.3273,206.654,619.773,0.0147335,357.868,-1.79564e-05,-0.000670946,-0.0347644,0.177185,-0.14081,0.367104,1.12745e-06,-1.1766e-07,0.27922,-0.03416706030515482,0.44354804030493233,1.1274506355185565e-06,0.19385193530663902,-1.1765999308188668e-07,-0.13134565965588463
338,0.3283,206.758,620.084,0.0146805,358.048,-1.81623e-05,-0.000669365,-0.0348582,0.177656,-0.141187,0.368082,1.12694e-06,-1.19195e-07,0.279971,-0.03425765118611945,0.4449605208787666,1.1269406350322697e-06,0.19441437201161493,-1.1919499287582624e-07,-0.1316730806194647
339,0.3293,206.861,620.393,0.0146288,358.226,-1.86186e-05,-0.000667558,-0.0349519,0.178126,-0.141563,0.369059,1.12642e-06,-1.20722e-07,0.280722,-0.03434813700487649,0.4463729371606695,1.126420634323111e-06,0.19497587871019806,-1.2072199273571727e-07,-0.13199951016855072
340,0.3303,206.964,620.702,0.0145763,358.405,-1.88838e-05,-0.000665947,-0.0350456,0.178596,-0.141938,0.370035,1.12592e-06,-1.22248e-07,0.281472,-0.034438614345509544,0.4477852862615854,1.1259206338376515e-06,0.1955376493789578,-1.222479925067077e-07,-0.1323249493285813
341,0.3313,207.067,621.01,0.0145248,358.582,-1.93219e-05,-0.000664184,-0.0351391,0.179066,-0.142314,0.371011,1.12541e-06,-1.23768e-07,0.282221,-0.034528890114610244,0.4491990144881277,1.1254106333513647e-06,0.19609968414198908,-1.2376799229940616e-07,-0.13265113382110627
342,0.3323,207.169,621.317,0.014473,358.76,-1.96314e-05,-0.000662556,-0.0352327,0.179535,-0.142689,0.371986,1.1249e-06,-1.25287e-07,0.28297,-0.03461925398140053,0.45061267257358195,1.1249006326430333e-06,0.19666078646206064,-1.2528699211422634e-07,-0.13297632866807874
343,0.3333,207.271,621.623,0.0144218,358.936,-2.00601e-05,-0.000660826,-0.0353261,0.180004,-0.143064,0.37296,1.1244e-06,-1.268e-07,0.283718,-0.0347094163324313,0.4520262576208338,1.124400632157574e-06,0.19722215200084037,-1.2679999195075453e-07,-0.13330140158984594
344,0.3343,207.373,621.928,0.0143704,359.113,-2.04031e-05,-0.00065919,-0.0354195,0.180473,-0.143438,0.373934,1.1239e-06,-1.28311e-07,0.284466,-0.03479957026269176,0.4534412201706566,1.1239006316721145e-06,0.1977837808818066,-1.2831099172050386e-07,-0.13362548625804072
345,0.3353,207.474,622.233,0.0143195,359.289,-2.0828e-05,-0.000657488,-0.0355128,0.180941,-0.143812,0.374906,1.1234e-06,-1.29817e-07,0.285214,-0.03488961926193512,0.45485465185317797,1.1234006309646105e-06,0.198344474883422,-1.298169916008618e-07,-0.13394944974123257
346,0.3363,207.575,622.536,0.0142686,359.464,-2.11965e-05,-0.000655851,-0.035606,0.181409,-0.144186,0.375879,1.1229e-06,-1.3132e-07,0.28596,-0.03497956335795993,0.45627091432939104,1.1229006304791511e-06,0.19890543135124217,-1.3131999132554029e-07,-0.13427329208473637
347,0.3373,207.676,622.839,0.0142181,359.639,-2.16213e-05,-0.000654171,-0.0356992,0.181877,-0.14456,0.37685,1.1224e-06,-1.32819e-07,0.286707,-0.03506949907158563,0.4576856401254237,1.1224006299936917e-06,0.1994666504081306,-1.3281899113870566e-07,-0.13459701333384966
348,0.3383,207.777,623.141,0.0141676,359.813,-2.20093e-05,-0.000652537,-0.0357923,0.182344,-0.144934,0.377821,1.12191e-06,-1.34314e-07,0.287452,-0.03515932991953119,0.45910174028735096,1.1219106292870151e-06,0.2000269321494752,-1.343139909293356e-07,-0.13492061353385343
349,0.3393,207.877,623.442,0.0141174,359.987,-2.2436e-05,-0.000650877,-0.0358853,0.182811,-0.145307,0.37879,1.12141e-06,-1.35806e-07,0.288197,-0.03524905592952454,0.46051629511481895,1.1214106288015557e-06,0.2005874756034982,-1.358059907863307e-07,-0.13524322797367183
350,0.3403,207.977,623.742,0.0140674,360.16,-2.28392e-05,-0.00064925,-0.0359782,0.183278,-0.14568,0.37976,1.12092e-06,-1.37294e-07,0.288942,-0.03533867712925953,0.4619336832431875,1.1209206283169237e-06,0.20114828089244785,-1.372939906207904e-07,-0.1355657221007439
351,0.3413,208.077,624.041,0.0140176,360.333,-2.3269e-05,-0.000647607,-0.0360711,0.183744,-0.146052,0.380728,1.12043e-06,-1.38778e-07,0.289686,-0.03542829000357173,0.4633495202030995,1.1204306276102471e-06,0.20170814642988244,-1.3877799032169236e-07,-0.13588723184760187
352,0.3423,208.176,624.339,0.0139679,360.505,-2.36839e-05,-0.000645989,-0.0361639,0.18421,-0.146424,0.381696,1.11994e-06,-1.40259e-07,0.290429,-0.035517798105019316,0.46476672835673916,1.1199406271256152e-06,0.2022682729254559,-1.4025899019998178e-07,-0.1362086220150771
353,0.3433,208.276,624.637,0.0139185,360.677,-2.41172e-05,-0.000644363,-0.0362567,0.184676,-0.146796,0.382663,1.11945e-06,-1.41736e-07,0.291172,-0.035607297900500434,0.46618384284748915,1.1194506266409832e-06,0.2028286605008034,-1.4173598994471348e-07,-0.13652989264764503
354,0.3443,208.374,624.934,0.0138692,360.848,-2.45413e-05,-0.000642756,-0.0363494,0.185141,-0.147168,0.383629,1.11896e-06,-1.4321e-07,0.291914,-0.035696692960459964,0.4676008607491349,1.1189606259343066e-06,0.20338810588890843,-1.4320998975581034e-07,-0.1368510437897641
355,0.3453,208.473,625.23,0.0138202,361.019,-2.49781e-05,-0.000641146,-0.036442,0.185606,-0.14754,0.384595,1.11848e-06,-1.4468e-07,0.292656,-0.035785983312484726,0.4690192481514357,1.118480625450502e-06,0.20394781147961139,-1.4467998954437178e-07,-0.13717207548587673
356,0.3463,208.571,625.525,0.0137713,361.19,-2.54093e-05,-0.00063955,-0.0365345,0.18607,-0.147911,0.38556,1.11799e-06,-1.46146e-07,0.293397,-0.03587516898412746,0.4704375359396977,1.11799062496587e-06,0.20450657288675944,-1.461459893103978e-07,-0.13749212527296495
357,0.3473,208.67,625.819,0.0137227,361.36,-2.58493e-05,-0.000637955,-0.036627,0.186534,-0.148282,0.386524,1.11751e-06,-1.47609e-07,0.294138,-0.035964346406477055,0.4718557211798031,1.1175106244820654e-06,0.20506559361935928,-1.4760898914278897e-07,-0.13781205634360538
358,0.3483,208.767,626.113,0.0136742,361.529,-2.6286e-05,-0.000636372,-0.0367194,0.186998,-0.148653,0.387487,1.11702e-06,-1.49068e-07,0.294878,-0.03605341918564331,0.4732738009351112,1.1170206237753888e-06,0.20562487379776595,-1.4906798884162242e-07,-0.1381318687418338
359,0.3493,208.865,626.405,0.0136259,361.698,-2.67288e-05,-0.000634792,-0.0368118,0.187462,-0.149023,0.38845,1.11654e-06,-1.50523e-07,0.295618,-0.03614248373486506,0.4746932469589762,1.1165406232915842e-06,0.2061844135423898,-1.5052298862894276e-07,-0.1384507009628011
360,0.3503,208.962,626.697,0.0135778,361.867,-2.71696e-05,-0.000633223,-0.036904,0.187925,-0.149393,0.389412,1.11606e-06,-1.51975e-07,0.296357,-0.03623134730119126,0.4761125844544263,1.1160606228077796e-06,0.20674300623008857,-1.5197498848262825e-07,-0.13876941523766806
361,0.3513,209.059,626.988,0.0135298,362.035,-2.76146e-05,-0.000631658,-0.0369963,0.188388,-0.149763,0.390373,1.11558e-06,-1.53423e-07,0.297095,-0.03632029904264944,0.47753181047696724,1.115580622323975e-06,0.20730185760608322,-1.5342298820275602e-07,-0.13908801161006656
362,0.3523,209.156,627.279,0.0134821,362.202,-2.80586e-05,-0.000630102,-0.0370884,0.18885,-0.150132,0.391334,1.11511e-06,-1.54868e-07,0.297833,-0.03640904985606985,0.478952401031268,1.1151106218409979e-06,0.20785975992981065,-1.5486798798924895e-07,-0.13940562952967228
363,0.3533,209.253,627.568,0.0134345,362.37,-2.85053e-05,-0.000628552,-0.0371805,0.189312,-0.150502,0.392294,1.11463e-06,-1.5631e-07,0.29857,-0.03649779249591678,0.48037287705565723,1.1146306211351487e-06,0.2084179200639611,-1.5630998773108473e-07,-0.13972399054632634
364,0.3543,209.349,627.857,0.0133872,362.536,-2.89513e-05,-0.00062701,-0.0372725,0.189774,-0.150871,0.393253,1.11415e-06,-1.57747e-07,0.299307,-0.03658643062159095,0.4817932355978183,1.114150620651344e-06,0.2089763381276708,-1.5774698758352912e-07,-0.14004137383299708
365,0.3553,209.445,628.145,0.01334,362.703,-2.93991e-05,-0.000625475,-0.0373644,0.190235,-0.151239,0.394211,1.11368e-06,-1.59181e-07,0.300044,-0.03667496426043371,0.483213473702953,1.1136806201683669e-06,0.20953380470572114,-1.5918098728029406e-07,-0.1403577803850502
366,0.3563,209.54,628.432,0.013293,362.868,-2.98465e-05,-0.000623948,-0.0374563,0.190696,-0.151608,0.395169,1.1132e-06,-1.60612e-07,0.300779,-0.03676348976340904,0.48463507304812237,1.1132006196845623e-06,0.2100915283351097,-1.6061198715444647e-07,-0.14067492984641383
367,0.3573,209.636,628.718,0.0132461,363.034,-3.02948e-05,-0.000622427,-0.0375481,0.191157,-0.151976,0.396126,1.11273e-06,-1.62039e-07,0.301515,-0.03685191081646033,0.48605654888072714,1.1127306189795405e-06,0.21064950913436453,-1.6203898689504115e-07,-0.1409911032927481
368,0.3583,209.731,629.004,0.0131995,363.199,-3.07428e-05,-0.000620915,-0.0376398,0.191618,-0.152344,0.397082,1.11226e-06,-1.63463e-07,0.302249,-0.0369402274468591,0.4874778982381982,1.1122606184965633e-06,0.21120774722206836,-1.634629865909787e-07,-0.14130716040866032
369,0.3593,209.826,629.289,0.013153,363.363,-3.11912e-05,-0.000619409,-0.0377315,0.192078,-0.152712,0.398038,1.11179e-06,-1.64883e-07,0.302984,-0.03702853597899414,0.4889006070553732,1.1117906180135861e-06,0.21176503095122134,-1.648829863754031e-07,-0.141623101236952
370,0.3603,209.921,629.573,0.0131067,363.527,-3.1639e-05,-0.000617912,-0.0378231,0.192537,-0.153079,0.398993,1.11132e-06,-1.663e-07,0.303717,-0.03711674012528687,0.4903231863085853,1.111320617530609e-06,0.2123213587678947,-1.6629998622619269e-07,-0.14193806775890605
371,0.3613,210.015,629.856,0.0130606,363.691,-3.2087e-05,-0.000616421,-0.0379146,0.192997,-0.153446,0.399947,1.11085e-06,-1.67714e-07,0.30445,-0.03720483991293866,0.49174563302752605,1.1108506170476318e-06,0.21287915487619702,-1.6771398592130282e-07,-0.1422529187093552
372,0.3623,210.109,630.139,0.0130147,363.854,-3.25343e-05,-0.000614938,-0.0380061,0.193456,-0.153813,0.400901,1.11038e-06,-1.69124e-07,0.305183,-0.03729293163982872,0.49316943740813834,1.1103806165646546e-06,0.21343599419313208,-1.6912398570489984e-07,-0.14256765413070638
373,0.3633,210.203,630.421,0.0129689,364.017,-3.29813e-05,-0.000613463,-0.0380975,0.193914,-0.15418,0.401854,1.10992e-06,-1.7053e-07,0.305915,-0.03738091904479113,0.4945931061523958,1.1099206158604602e-06,0.2139918751654981,-1.7052998546596143e-07,-0.14288227406535114
374,0.3643,210.297,630.702,0.0129233,364.179,-3.34275e-05,-0.000611995,-0.0381888,0.194373,-0.154546,0.402806,1.10945e-06,-1.71933e-07,0.306646,-0.03746880215495729,0.4960166362822822,1.109450615377483e-06,0.21454922533827858,-1.7193298518236588e-07,-0.14319592175201523
375,0.3653,210.39,630.982,0.0128779,364.341,-3.38732e-05,-0.000610534,-0.0382801,0.194831,-0.154912,0.403757,1.10899e-06,-1.73333e-07,0.307377,-0.037556677241761816,0.49744002481735894,1.1089906148953332e-06,0.21510561628728486,-1.733329849651355e-07,-0.14350945466463105
376,0.3663,210.484,631.262,0.0128326,364.502,-3.43179e-05,-0.000609081,-0.0383713,0.195289,-0.155278,0.404708,1.10852e-06,-1.74729e-07,0.308108,-0.037644448070386693,0.4988647676387936,1.108520614412356e-06,0.21566226212171014,-1.7472898472536968e-07,-0.14382287284519812
377,0.3673,210.577,631.541,0.0127876,364.663,-3.47618e-05,-0.000607636,-0.0384624,0.195746,-0.155643,0.405658,1.10806e-06,-1.76122e-07,0.308838,-0.03773211466789339,0.5002893657450092,1.1080606139302063e-06,0.2162179467397638,-1.7612198444094673e-07,-0.14413532047144895
378,0.3683,210.669,631.819,0.0127427,364.824,-3.52046e-05,-0.000606198,-0.0385535,0.196203,-0.156009,0.406607,1.1076e-06,-1.77512e-07,0.309567,-0.03781977327933672,0.5017138161479122,1.1076006134480565e-06,0.216773885363724,-1.7751198422288894e-07,-0.1444485096270448
379,0.3693,210.762,632.096,0.0126979,364.984,-3.56465e-05,-0.000604767,-0.0386445,0.19666,-0.156374,0.407556,1.10714e-06,-1.78898e-07,0.310296,-0.03790732769618199,0.5031396189958814,1.1071406129659067e-06,0.21733007810969762,-1.7889798398229573e-07,-0.14476072893754055
380,0.3703,210.854,632.373,0.0126534,365.144,-3.60871e-05,-0.000603344,-0.0387354,0.197116,-0.156738,0.408504,1.10668e-06,-1.80281e-07,0.311024,-0.03799477794542028,0.5045652710069728,1.1066806122617123e-06,0.21788530720792898,-1.8028098369704537e-07,-0.14507197938118988
381,0.3713,210.946,632.649,0.012609,365.303,-3.65265e-05,-0.000601929,-0.0388263,0.197572,-0.157103,0.409451,1.10622e-06,-1.81661e-07,0.311752,-0.03808222024579233,0.5059907691854706,1.1062206117795625e-06,0.218440789548364,-1.8166098347816018e-07,-0.14538397116675106
382,0.3723,211.038,632.924,0.0125647,365.462,-3.69646e-05,-0.00060052,-0.0389171,0.198028,-0.157467,0.410398,1.10576e-06,-1.83037e-07,0.312479,-0.03816955841498115,0.5074176179501451,1.1057606112974128e-06,0.2189965252465076,-1.8303698323673956e-07,-0.1456949947915126
383,0.3733,211.129,633.199,0.0125207,365.621,-3.74013e-05,-0.00059912,-0.0390078,0.198483,-0.157831,0.411344,1.1053e-06,-1.8441e-07,0.313206,-0.03825679247990821,0.5088443097355431,1.105300610815263e-06,0.2195512948660121,-1.844099829506618e-07,-0.1460059052242768
384,0.3743,211.221,633.472,0.0124768,365.779,-3.78365e-05,-0.000597727,-0.0390985,0.198938,-0.158195,0.412289,1.10484e-06,-1.8578e-07,0.313932,-0.03834401863306447,0.5102708415383592,1.1048406103331132e-06,0.22010631696312788,-1.857799827309492e-07,-0.1463167025062383
385,0.3753,211.312,633.746,0.0124331,365.937,-3.82703e-05,-0.000596341,-0.0391891,0.199393,-0.158558,0.413233,1.10439e-06,-1.87147e-07,0.314658,-0.03843114071828624,0.5116972103529278,1.1043906098517908e-06,0.22066159165275834,-1.8714698246657946e-07,-0.14662653330553632
386,0.3763,211.402,634.018,0.0123895,366.094,-3.87025e-05,-0.000594962,-0.0392797,0.199847,-0.158921,0.414177,1.10393e-06,-1.8851e-07,0.315383,-0.03851825491060468,0.5131249262954019,1.103930609369641e-06,0.22121589783335094,-1.885099821796743e-07,-0.14693625165666468
387,0.3773,211.493,634.29,0.0123461,366.251,-3.91331e-05,-0.000593591,-0.0393702,0.200301,-0.159284,0.41512,1.10348e-06,-1.8987e-07,0.316108,-0.03860526507126616,0.5145524760848368,1.1034806088883187e-06,0.22177045572608356,-1.898699819591343e-07,-0.14724585760043485
388,0.3783,211.583,634.561,0.0123029,366.408,-3.9562e-05,-0.000592228,-0.0394606,0.200755,-0.159647,0.416063,1.10302e-06,-1.91227e-07,0.316832,-0.038692171227086236,0.5159813726886464,1.1030206084061689e-06,0.22232526544525988,-1.9122698169393715e-07,-0.14755535117764318
389,0.3793,211.673,634.831,0.0122598,366.564,-3.99892e-05,-0.000590871,-0.0395509,0.201208,-0.160009,0.417005,1.10257e-06,-1.92581e-07,0.317555,-0.03877897340484715,0.5174100999666169,1.1025706079248465e-06,0.22287910422551915,-1.9258098149510516e-07,-0.1478638802933776
390,0.3803,211.763,635.101,0.0122169,366.719,-4.04146e-05,-0.000589522,-0.0396412,0.201662,-0.160371,0.417946,1.10212e-06,-1.93931e-07,0.318278,-0.03886576774472528,0.5188386549003687,1.1021206074435241e-06,0.2234344173853866,-1.9393098116271545e-07,-0.1481722977417853
391,0.3813,211.853,635.37,0.0121741,366.875,-4.08383e-05,-0.000588181,-0.0397314,0.202114,-0.160733,0.418886,1.10167e-06,-1.95278e-07,0.319001,-0.038952458142679,0.520267034469196,1.1016706067401572e-06,0.22398753473714939,-1.952779808966909e-07,-0.1484806035632822
392,0.3823,211.942,635.638,0.0121315,367.03,-4.12601e-05,-0.000586846,-0.0398216,0.202567,-0.161095,0.419826,1.10122e-06,-1.96622e-07,0.319723,-0.03903914072151138,0.521696757346074,1.1012206062588348e-06,0.22454212669597995,-1.9662198069703152e-07,-0.14878879779827014
393,0.3833,212.032,635.906,0.0120891,367.184,-4.168e-05,-0.000585519,-0.0399117,0.203019,-0.161456,0.420765,1.10077e-06,-1.97963e-07,0.320445,-0.0391257193945046,0.5231263016672425,1.1007706057775124e-06,0.22509574484552286,-1.97962980452715e-07,-0.14909602958359125
394,0.3843,212.121,636.173,0.0120468,367.338,-4.20981e-05,-0.0005842,-0.0400017,0.20347,-0.161817,0.421703,1.10032e-06,-1.99301e-07,0.321166,-0.03921219418833499,0.5245556644045288,1.10032060529619e-06,0.22564838763803063,-1.9930098016374131e-07,-0.1494031504782547
395,0.3853,212.209,636.439,0.0120047,367.492,-4.25141e-05,-0.000582887,-0.0400916,0.203922,-0.162178,0.422641,1.09987e-06,-2.00636e-07,0.321886,-0.03929856512964547,0.5259863685130675,1.0998706048148676e-06,0.22620250593054303,-2.006359798301105e-07,-0.14971016052228492
396,0.3863,212.298,636.705,0.0119627,367.645,-4.29283e-05,-0.000581582,-0.0401815,0.204373,-0.162538,0.423578,1.09942e-06,-2.01968e-07,0.322606,-0.039384928306557376,0.5274168878340033,1.0994206043335453e-06,0.22675564798487513,-2.0196797956284485e-07,-0.15001620977232655
397,0.3873,212.386,636.969,0.0119209,367.798,-4.33404e-05,-0.000580284,-0.0402714,0.204824,-0.162898,0.424514,1.09897e-06,-2.03296e-07,0.323325,-0.0394712837197686,0.5288472193317313,1.0989706038522229e-06,0.227309039562537,-2.0329597938406607e-07,-0.15032214886446782
398,0.3883,212.474,637.234,0.0118793,367.951,-4.37505e-05,-0.000578993,-0.0403611,0.205274,-0.163258,0.42545,1.09853e-06,-2.04622e-07,0.324044,-0.03955743928148425,0.5302788902464906,1.098530603371728e-06,0.22786145291402238,-2.0462197902748613e-07,-0.15062797783835835
399,0.3893,212.562,637.497,0.0118378,368.103,-4.41585e-05,-0.000577709,-0.0404508,0.205724,-0.163618,0.426385,1.09808e-06,-2.05944e-07,0.324763,-0.03964358711539262,0.5317103701214263,1.0980806028904055e-06,0.2284141149074559,-2.0594397875939308e-07,-0.15093369673363366
400,0.3903,212.65,637.76,0.0117964,368.255,-4.45645e-05,-0.000576432,-0.0405405,0.206174,-0.163978,0.427319,1.09764e-06,-2.07263e-07,0.325481,-0.03972972722218682,0.5331416559135354,1.0976406024099106e-06,0.22896702565475202,-2.0726297855766518e-07,-0.15123930558991483
401,0.3913,212.737,638.023,0.0117552,368.407,-4.49684e-05,-0.000575162,-0.0406301,0.206624,-0.164337,0.428253,1.09719e-06,-2.0858e-07,0.326198,-0.03981576358414107,0.5345742791510639,1.0971906019285882e-06,0.2295201852678752,-2.0857997828915842e-07,-0.15154395599118908
402,0.3923,212.824,638.284,0.0117142,368.558,-4.53702e-05,-0.000573899,-0.0407196,0.207073,-0.164696,0.429186,1.09675e-06,-2.09893e-07,0.326915,-0.03990169622775719,0.5360067050762969,1.0967506014480932e-06,0.23007236378586104,-2.0989297799811624e-07,-0.15184849704259873
403,0.3933,212.911,638.545,0.0116733,368.708,-4.57698e-05,-0.000572644,-0.040809,0.207522,-0.165055,0.430119,1.09631e-06,-2.11203e-07,0.327631,-0.0399875251795031,0.5374404680785672,1.0963106009675982e-06,0.2306247902876697,-2.112029776624169e-07,-0.15215292878339326
404,0.3943,212.998,638.806,0.0116326,368.859,-4.61674e-05,-0.000571395,-0.0408984,0.20797,-0.165413,0.43105,1.09586e-06,-2.12511e-07,0.328347,-0.040073346458483705,0.5388724916578895,1.0958606004862759e-06,0.2311762337078216,-2.1251097737096103e-07,-0.15245640370963587
405,0.3953,213.085,639.065,0.011592,369.009,-4.65627e-05,-0.000570153,-0.0409877,0.208418,-0.165771,0.431981,1.09542e-06,-2.13815e-07,0.329062,-0.0401590640812961,0.5403058490719677,1.095420600005781e-06,0.23172792422997257,-2.1381497716799203e-07,-0.1527597700112997
406,0.3963,213.171,639.324,0.0115515,369.158,-4.6956e-05,-0.000568918,-0.041077,0.208866,-0.166129,0.432911,1.09498e-06,-2.15116e-07,0.329777,-0.040244774049866594,0.5417389998234097,1.094980599525286e-06,0.23227986196484873,-2.1511597680934358e-07,-0.15306302772726565
407,0.3973,213.257,639.583,0.0115113,369.308,-4.7347e-05,-0.00056769,-0.0411662,0.209314,-0.166487,0.433841,1.09454e-06,-2.16415e-07,0.330492,-0.04033038039792147,0.5431734840250086,1.094540599044791e-06,0.23283204702322657,-2.1641497660596087e-07,-0.1533661768964003
408,0.3983,213.343,639.841,0.0114711,369.457,-4.77359e-05,-0.000566469,-0.0412553,0.209761,-0.166844,0.43477,1.0941e-06,-2.1771e-07,0.331205,-0.04041588315182376,0.5446077583089197,1.094100598564296e-06,0.23338324613206907,-2.1770997626902044e-07,-0.1536683712263508
409,0.3993,213.429,640.098,0.0114311,369.605,-4.81225e-05,-0.000565254,-0.0413444,0.210208,-0.167201,0.435698,1.09366e-06,-2.19002e-07,0.331919,-0.04050137828777012,0.5460418196101582,1.093660598083801e-06,0.23393469168198844,-2.1900197599844518e-07,-0.15397045769218043
410,0.4003,213.514,640.354,0.0113913,369.753,-4.8507e-05,-0.000564047,-0.0414334,0.210654,-0.167558,0.436626,1.09323e-06,-2.20292e-07,0.332631,-0.040586769865120886,0.5474772123379708,1.0932305976041334e-06,0.23448514929740227,-2.2029197577211335e-07,-0.15427243633238985
411,0.4013,213.6,640.61,0.0113516,369.901,-4.88893e-05,-0.000562846,-0.0415223,0.211101,-0.167915,0.437553,1.09279e-06,-2.21579e-07,0.333344,-0.040672057910170145,0.5489123888153313,1.0927905971236385e-06,0.23503708750813823,-2.2157897550112438e-07,-0.15457430718546583
412,0.4023,213.685,640.866,0.011312,370.048,-4.92694e-05,-0.000561652,-0.0416112,0.211547,-0.168271,0.438479,1.09235e-06,-2.22862e-07,0.334056,-0.04075733837344919,0.5503473459700001,1.0923505966431435e-06,0.2355880369017489,-2.2286197520759998e-07,-0.1548752251655292
413,0.4033,213.77,641.12,0.0112726,370.195,-4.96472e-05,-0.000560464,-0.0417,0.211992,-0.168628,0.439405,1.09192e-06,-2.24143e-07,0.334767,-0.04084251533988836,0.5517836325104049,1.091920596163476e-06,0.23613799593497964,-2.2414297484729673e-07,-0.15517688086139958
414,0.4043,213.854,641.375,0.0112334,370.342,-5.00229e-05,-0.000559283,-0.0417887,0.212438,-0.168984,0.44033,1.09148e-06,-2.25421e-07,0.335478,-0.04092758883571235,0.5532196964476535,1.091480595682981e-06,0.23668943644325902,-2.2542097455335863e-07,-0.15547758436341375
415,0.4053,213.939,641.628,0.0111943,370.489,-5.03963e-05,-0.000558109,-0.0418774,0.212883,-0.169339,0.441255,1.09105e-06,-2.26697e-07,0.336188,-0.04101265478585203,0.5546570893585998,1.0910505952033134e-06,0.2372398857083542,-2.2669697430366398e-07,-0.1557773366117926
416,0.4063,214.023,641.881,0.0111553,370.635,-5.07676e-05,-0.000556941,-0.041966,0.213327,-0.169695,0.442178,1.09061e-06,-2.27969e-07,0.336898,-0.04109761730074302,0.5560927002846003,1.0906105947228184e-06,0.2377893421879207,-2.279689740314339e-07,-0.15607782638960488
417,0.4073,214.107,642.133,0.0111165,370.78,-5.11366e-05,-0.00055578,-0.0420546,0.213772,-0.17005,0.443101,1.09018e-06,-2.29238e-07,0.337607,-0.04118257228828859,0.5575296368911928,1.0901805942431508e-06,0.23834028101999283,-2.2923797371454668e-07,-0.1563773655898827
418,0.4083,214.191,642.385,0.0110778,370.926,-5.15034e-05,-0.000554626,-0.0421431,0.214216,-0.170405,0.444024,1.08975e-06,-2.30505e-07,0.338316,-0.04126742387590299,0.5589679004025456,1.0897505937634833e-06,0.23889022618355749,-2.305049734419029e-07,-0.15667679847261695
419,0.4093,214.275,642.636,0.0110392,371.071,-5.1868e-05,-0.000553477,-0.0422315,0.214659,-0.170759,0.444945,1.08931e-06,-2.31769e-07,0.339024,-0.041352172089706096,0.5604043712320941,1.0893105932829883e-06,0.2394391761371939,-2.3176897312460198e-07,-0.1569752820512471
420,0.4103,214.358,642.886,0.0110008,371.215,-5.22304e-05,-0.000552336,-0.0423199,0.215103,-0.171114,0.445867,1.08888e-06,-2.3303e-07,0.339732,-0.04143691281209827,0.5618437275036468,1.0888805928033207e-06,0.23998960931852253,-2.3302997287366622e-07,-0.15727450271130938
421,0.4113,214.442,643.136,0.0109625,371.36,-5.25906e-05,-0.0005512,-0.0424082,0.215546,-0.171468,0.446787,1.08845e-06,-2.34289e-07,0.340439,-0.041521550195901424,0.5632812849079605,1.0884505923236532e-06,0.24053904640678025,-2.342889725559516e-07,-0.15757277474008557
422,0.4123,214.525,643.385,0.0109228,371.504,-5.26129e-05,-0.000547814,-0.0424965,0.215989,-0.171822,0.447707,1.08808e-06,-2.3557e-07,0.341146,-0.04160618010655359,0.5647201654736469,1.08808059184895e-06,0.24108872694958916,-2.3556997230667065e-07,-0.1578709411992506
423,0.4133,214.608,643.634,0.0108851,371.647,-5.32866e-05,-0.000545184,-0.0425847,0.216431,-0.172175,0.448626,1.08771e-06,-2.36855e-07,0.341852,-0.04169070671379005,0.5661588042589876,1.0877105915962915e-06,0.24163740941679346,-2.3685497196890282e-07,-0.15816816029475056
424,0.4143,214.69,643.882,0.0108489,371.79,-5.31296e-05,-0.000541466,-0.0426728,0.216873,-0.172529,0.449544,1.08734e-06,-2.38115e-07,0.342558,-0.04177513004362621,0.5675971981630852,1.0873405911215883e-06,0.2421863344552524,-2.3811497162906647e-07,-0.15846611602473049
425,0.4153,214.773,644.13,0.0108106,371.933,-5.37448e-05,-0.000538889,-0.0427609,0.217315,-0.172882,0.450462,1.08697e-06,-2.39383e-07,0.343263,-0.041859545936094755,0.5690369131190567,1.0869705906468852e-06,0.2427355021722064,-2.39382971334301e-07,-0.15876312506059476
426,0.4163,214.855,644.377,0.0107734,372.076,-5.41772e-05,-0.000536305,-0.0428489,0.217757,-0.173235,0.451379,1.08659e-06,-2.40645e-07,0.343968,-0.04194385858624139,0.5704763798630197,1.0865905903933992e-06,0.243284912674943,-2.406449710612435e-07,-0.15906002927077212
427,0.4173,214.937,644.623,0.0107358,372.218,-5.48126e-05,-0.000534066,-0.0429368,0.218198,-0.173588,0.452296,1.08622e-06,-2.41905e-07,0.344672,-0.0420280680200128,0.5719171672033878,1.086220589918696e-06,0.24383332223685317,-2.4190497072140715e-07,-0.15935682869225964
428,0.4183,215.019,644.869,0.0106986,372.36,-5.54104e-05,-0.000531916,-0.0430247,0.218639,-0.17394,0.453212,1.08584e-06,-2.4316e-07,0.345376,-0.042112270052100276,0.5733577029932138,1.0858405894431655e-06,0.24438197370071557,-2.431599703811571e-07,-0.15965268301514435
429,0.4193,215.101,645.114,0.0106614,372.502,-5.61063e-05,-0.000529939,-0.0431125,0.219079,-0.174292,0.454127,1.08546e-06,-2.44412e-07,0.346079,-0.04219636890279621,0.5747979841195812,1.0854605891896796e-06,0.24492962224298775,-2.444119701072722e-07,-0.159948433215634
430,0.4203,215.183,645.359,0.0106243,372.643,-5.6802e-05,-0.000528077,-0.0432003,0.21952,-0.174644,0.455042,1.08508e-06,-2.45661e-07,0.346782,-0.042280460369937045,0.576239583706283,1.085080588714149e-06,0.24547875728177337,-2.456609697887302e-07,-0.16024407933037332
431,0.4213,215.264,645.603,0.0105874,372.784,-5.75492e-05,-0.000526327,-0.043288,0.21996,-0.174996,0.455956,1.08471e-06,-2.46906e-07,0.347484,-0.04236444869062095,0.577680925278548,1.0847105882394459e-06,0.24602688851500543,-2.4690596955867505e-07,-0.16053962139599387
432,0.4223,215.345,645.846,0.0105506,372.925,-5.83006e-05,-0.000524678,-0.0433756,0.220399,-0.175347,0.456869,1.08432e-06,-2.48148e-07,0.348186,-0.04244833389069025,0.5791220057164441,1.0843205879851325e-06,0.2465740144044093,-2.4814796917294046e-07,-0.1608342202837545
433,0.4233,215.426,646.089,0.010514,373.065,-5.90794e-05,-0.00052311,-0.0434632,0.220839,-0.175698,0.457782,1.08394e-06,-2.49387e-07,0.348888,-0.0425322117427378,0.5805644024615826,1.083940587509602e-06,0.24712262765681192,-2.4938696885357103e-07,-0.16112871578545085
434,0.4243,215.507,646.332,0.0104775,373.205,-5.98598e-05,-0.000521621,-0.0435507,0.221278,-0.176049,0.458694,1.08356e-06,-2.50623e-07,0.349588,-0.042615986509010884,0.5820065347089751,1.0835605870340714e-06,0.24767023468130045,-2.5062296860056676e-07,-0.16142310793736503
435,0.4253,215.587,646.573,0.0104411,373.344,-6.06528e-05,-0.000520196,-0.0436381,0.221717,-0.1764,0.459605,1.08318e-06,-2.51856e-07,0.350289,-0.04269965821528321,0.5834483993317112,1.0831805865585409e-06,0.2482180821580482,-2.5185596830290535e-07,-0.16171739677576658
436,0.4263,215.668,646.815,0.0104048,373.484,-6.14436e-05,-0.000518832,-0.0437255,0.222155,-0.17675,0.460516,1.08279e-06,-2.53086e-07,0.350989,-0.04278332260896789,0.5848915780916173,1.0827905863042275e-06,0.24876492142709106,-2.530859679605868e-07,-0.16201074434807528
437,0.4273,215.748,647.055,0.0103687,373.623,-6.22373e-05,-0.000517518,-0.0438129,0.222593,-0.1771,0.461426,1.08241e-06,-2.54313e-07,0.351688,-0.04286697969070419,0.5863344858511386,1.082410585828697e-06,0.2493120002641953,-2.543129676846334e-07,-0.1623039892666991
438,0.4283,215.828,647.295,0.0103327,373.761,-6.30251e-05,-0.000516251,-0.0439001,0.223031,-0.17745,0.462336,1.08202e-06,-2.55537e-07,0.352387,-0.04295043805123766,0.5877787072543383,1.082020585352339e-06,0.24985931877431478,-2.5553696736402287e-07,-0.16259713156756062
439,0.4293,215.908,647.535,0.0102969,373.9,-6.38094e-05,-0.000515023,-0.0439873,0.223468,-0.1778,0.463244,1.08163e-06,-2.56758e-07,0.353085,-0.043033889134519554,0.5892210650518674,1.081630584875981e-06,0.25040562665619737,-2.567579669987552e-07,-0.16289017128656968
440,0.4303,215.988,647.774,0.0102611,374.038,-6.45849e-05,-0.000513832,-0.0440745,0.223906,-0.17815,0.464153,1.08124e-06,-2.57977e-07,0.353783,-0.04311733294118414,0.5906663237705716,1.0812405846216677e-06,0.25095342427959455,-2.5797696667773096e-07,-0.1631831084596237
441,0.4313,216.067,648.013,0.0102255,374.176,-6.53524e-05,-0.000512672,-0.0441616,0.224343,-0.178499,0.46506,1.08086e-06,-2.59192e-07,0.354481,-0.04320067379193826,0.5921097126041173,1.0808605841461372e-06,0.2515002103900683,-2.591919664451936e-07,-0.16347510659813236
442,0.4323,216.146,648.251,0.0101901,374.313,-6.61089e-05,-0.000511541,-0.0442486,0.224779,-0.178848,0.465967,1.08047e-06,-2.60405e-07,0.355178,-0.0432839117124163,0.5935544111852158,1.0804705836697792e-06,0.25204598345168017,-2.604049661458774e-07,-0.16376700284707135
443,0.4333,216.226,648.488,0.0101547,374.45,-6.68546e-05,-0.000510434,-0.0443356,0.225215,-0.179196,0.466874,1.08008e-06,-2.61615e-07,0.355874,-0.043367142391510294,0.5950004207023469,1.0800805831934213e-06,0.2525919945222288,-2.61614965801904e-07,-0.16405796130037342
444,0.4343,216.305,648.725,0.0101195,374.587,-6.75878e-05,-0.00050935,-0.0444225,0.225651,-0.179545,0.467779,1.07968e-06,-2.62823e-07,0.35657,-0.04345027017488201,0.5964445494527773,1.0796805829382805e-06,0.2531382437055092,-2.628229655021741e-07,-0.16434965416851333
445,0.4353,216.383,648.961,0.0100844,374.723,-6.83083e-05,-0.000508286,-0.0445093,0.226087,-0.179893,0.468684,1.07929e-06,-2.64027e-07,0.357266,-0.043533295088097446,0.597889985731294,1.0792905824619226e-06,0.25368473110536094,-2.6402696517990876e-07,-0.16464040989443207
446,0.4363,216.462,649.197,0.0100494,374.86,-6.90153e-05,-0.000507239,-0.0445961,0.226522,-0.180241,0.469589,1.0789e-06,-2.65229e-07,0.357961,-0.04361631279506317,0.5993367307217456,1.0789005819855646e-06,0.2542302025948393,-2.6522896479086455e-07,-0.16493106445496208
447,0.4373,216.54,649.432,0.0100146,374.995,-6.97086e-05,-0.000506209,-0.0446828,0.226958,-0.180589,0.470493,1.07851e-06,-2.66429e-07,0.358655,-0.043699227666332274,0.6007831848250673,1.0785105815092066e-06,0.2547771661925702,-2.664289645570861e-07,-0.16522161788530254
448,0.4383,216.619,649.667,0.00997984,375.131,-7.03878e-05,-0.000505193,-0.0447695,0.227392,-0.180936,0.471396,1.07812e-06,-2.67625e-07,0.359349,-0.04378213534919362,0.6022293448839633,1.0781205812548933e-06,0.25532185767219917,-2.676249641897499e-07,-0.16551123573229387
449,0.4393,216.697,649.901,0.00994523,375.266,-7.10529e-05,-0.00050419,-0.0448561,0.227827,-0.181284,0.472298,1.07772e-06,-2.68819e-07,0.360043,-0.043864940230769256,0.6036752077391665,1.077720580777708e-06,0.2558680414666492,-2.6881896386665716e-07,-0.1658015872981563
450,0.4403,216.775,650.135,0.00991075,375.401,-7.17036e-05,-0.000503199,-0.0449426,0.228261,-0.181631,0.4732,1.07733e-06,-2.70011e-07,0.360736,-0.0439476423365216,0.6051223753510218,1.07733058030135e-06,0.25641320648889865,-2.7001096358780785e-07,-0.1660910039306741
451,0.4413,216.852,650.368,0.0098764,375.536,-7.23401e-05,-0.000502219,-0.0450291,0.228695,-0.181977,0.474101,1.07693e-06,-2.71199e-07,0.361428,-0.04403033728885131,0.6065692423269049,1.0769305798241646e-06,0.25695860816411753,-2.711989631754008e-07,-0.16637948653294587
452,0.4423,216.93,650.601,0.00984216,375.67,-7.29623e-05,-0.00050125,-0.0451155,0.229128,-0.182324,0.475002,1.07654e-06,-2.72385e-07,0.362121,-0.0441129294996746,0.6080174135173939,1.0765405795698513e-06,0.2575029890914178,-2.7238496291825953e-07,-0.1666687026692173
453,0.4433,217.007,650.833,0.00980805,375.804,-7.35704e-05,-0.000500289,-0.0452019,0.229562,-0.18267,0.475902,1.07614e-06,-2.73569e-07,0.362812,-0.04419551457483917,0.60946528063203,1.076140579092666e-06,0.2580488638349345,-2.735689625943394e-07,-0.16695698542230142
454,0.4443,217.085,651.065,0.00977405,375.938,-7.41646e-05,-0.000499338,-0.0452882,0.229995,-0.183016,0.476802,1.07575e-06,-2.7475e-07,0.363503,-0.04427799694276602,0.6109144514136315,1.075750578616308e-06,0.25859371694516065,-2.747499622257621e-07,-0.16724516844680715
455,0.4453,217.162,651.296,0.00974018,376.072,-7.4745e-05,-0.000498395,-0.0453745,0.230427,-0.183362,0.4777,1.07535e-06,-2.75928e-07,0.364194,-0.044360472192771616,0.6123617023093975,1.0753505781391226e-06,0.25913754688969126,-2.7592796192354996e-07,-0.16753325177723433
456,0.4463,217.238,651.527,0.00970642,376.205,-7.53118e-05,-0.000497459,-0.0454606,0.23086,-0.183708,0.478599,1.07496e-06,-2.77104e-07,0.364884,-0.044442749214039234,0.6138118672312372,1.0749605776627646e-06,0.25968287150175295,-2.7710396155455896e-07,-0.16782123544807137
457,0.4473,217.315,651.757,0.00967279,376.338,-7.58653e-05,-0.000496531,-0.0455468,0.231292,-0.184053,0.479496,1.07456e-06,-2.78277e-07,0.365574,-0.044525114699053625,0.6152601059140874,1.074560577407624e-06,0.26022717206269785,-2.7827696125193313e-07,-0.16810828760249785
458,0.4483,217.392,651.986,0.00963927,376.47,-7.64058e-05,-0.00049561,-0.0456328,0.231724,-0.184398,0.480393,1.07416e-06,-2.79448e-07,0.366263,-0.04460728200594466,0.6167096442498434,1.0741605769304385e-06,0.2607717078122822,-2.7944796099355074e-07,-0.16839524074101242
459,0.4493,217.468,652.215,0.00960588,376.602,-7.69335e-05,-0.000494696,-0.0457189,0.232155,-0.184743,0.481289,1.07377e-06,-2.80616e-07,0.366952,-0.04468953777780216,0.6181588652451424,1.0737705764540806e-06,0.2613152175362814,-2.806159605794889e-07,-0.16868209489776953
460,0.4503,217.544,652.444,0.00957259,376.734,-7.74487e-05,-0.000493788,-0.0458048,0.232586,-0.185088,0.482185,1.07337e-06,-2.81782e-07,0.367641,-0.04477159542208076,0.6196093853243556,1.0733705759768952e-06,0.2618589615634601,-2.817819603206928e-07,-0.16896885010691198
461,0.4513,217.62,652.672,0.00953943,376.866,-7.79518e-05,-0.000492887,-0.0458907,0.233017,-0.185432,0.48308,1.07297e-06,-2.82945e-07,0.368328,-0.04485364601791042,0.6210595845915892,1.0729705757217545e-06,0.2624029399948251,-2.8294496001723957e-07,-0.16925467565766183
462,0.4523,217.696,652.9,0.00950638,376.998,-7.8443e-05,-0.000491992,-0.0459765,0.233448,-0.185776,0.483975,1.07258e-06,-2.84106e-07,0.369016,-0.044935594059460904,0.6225110823681632,1.0725805752453965e-06,0.26294715293142623,-2.8410595964700747e-07,-0.169540402901332
463,0.4533,217.772,653.127,0.00947345,377.129,-7.89226e-05,-0.000491102,-0.0460623,0.233878,-0.18612,0.484868,1.07218e-06,-2.85264e-07,0.369703,-0.04501753507017092,0.6239606318922521,1.0721805747682112e-06,0.2634903369833883,-2.8526395934314053e-07,-0.1698260318717344
464,0.4543,217.847,653.353,0.00944064,377.26,-7.9391e-05,-0.000490219,-0.046148,0.234308,-0.186464,0.485762,1.07178e-06,-2.8642e-07,0.370389,-0.04509937356058602,0.6254131018544979,1.0717805742910258e-06,0.26403375465471735,-2.864199589724947e-07,-0.17011156260266902
465,0.4553,217.923,653.579,0.00940794,377.39,-7.98485e-05,-0.000489341,-0.0462337,0.234738,-0.186807,0.486654,1.07139e-06,-2.87573e-07,0.371075,-0.04518120503774303,0.6268636171750082,1.0713905740367125e-06,0.2645774060458912,-2.875729586682141e-07,-0.17039616552450498
466,0.4563,217.998,653.805,0.00937535,377.52,-8.02954e-05,-0.000488469,-0.0463193,0.235167,-0.187151,0.487546,1.07099e-06,-2.88724e-07,0.371761,-0.04526293402854109,0.6283154269324174,1.070990573559527e-06,0.2651200261367723,-2.887239582971546e-07,-0.17068150016319295
467,0.4573,218.073,654.03,0.00934288,377.65,-8.0732e-05,-0.000487602,-0.0464048,0.235596,-0.187494,0.488438,1.07059e-06,-2.89873e-07,0.372446,-0.04534456055809777,0.6297685322818782,1.0705905730823417e-06,0.2656628790616118,-2.898729579703385e-07,-0.170965907629968
468,0.4583,218.148,654.255,0.00931052,377.78,-8.11585e-05,-0.000486741,-0.0464903,0.236025,-0.187836,0.489328,1.07019e-06,-2.91019e-07,0.37313,-0.04542618010888455,0.6312196719369685,1.0701905726051564e-06,0.2662059649203168,-2.910189575988653e-07,-0.17124938881151341
469,0.4593,218.223,654.479,0.00927828,377.91,-8.15754e-05,-0.000485886,-0.0465757,0.236453,-0.188179,0.490219,1.0698e-06,-2.92162e-07,0.373814,-0.04550769723227255,0.6326737363541659,1.0698005721287984e-06,0.26674801706418694,-2.9216195729375727e-07,-0.17153360152588415
470,0.4603,218.297,654.703,0.00924614,378.039,-8.19828e-05,-0.000485036,-0.0466611,0.236882,-0.188521,0.491108,1.0694e-06,-2.93304e-07,0.374498,-0.045589207394395426,0.6341258286651821,1.0694005718736577e-06,0.2672915685469641,-2.9330395701077094e-07,-0.1718168885893132
471,0.4613,218.372,654.926,0.00921412,378.168,-8.23811e-05,-0.000484191,-0.0467464,0.23731,-0.188863,0.491997,1.069e-06,-2.94443e-07,0.375181,-0.04567061516291393,0.6355792124602424,1.0690005713964723e-06,0.2678340854286332,-2.944429566831275e-07,-0.1721000787851319
472,0.4623,218.446,655.149,0.00918222,378.296,-8.27706e-05,-0.000483352,-0.0468317,0.237737,-0.189205,0.492886,1.0686e-06,-2.95579e-07,0.375864,-0.045752015987646,0.6370338888879865,1.068600570919287e-06,0.26837556618102454,-2.9557895631082687e-07,-0.17238317214646337
473,0.4633,218.52,655.371,0.00915042,378.425,-8.31515e-05,-0.000482517,-0.0469168,0.238165,-0.189547,0.493773,1.06821e-06,-2.96714e-07,0.376546,-0.045833219035846806,0.6384865821216348,1.068210570442929e-06,0.2689185471129807,-2.96713955960648e-07,-0.17266616870641915
474,0.4643,218.594,655.593,0.00911873,378.553,-8.3524e-05,-0.000481689,-0.047002,0.238592,-0.189888,0.49466,1.06781e-06,-2.97846e-07,0.377228,-0.04591451058251583,0.6399405644658174,1.0678105701877882e-06,0.26946049102938985,-2.9784595567683425e-07,-0.1729482414467547
475,0.4653,218.668,655.814,0.00908716,378.68,-8.38886e-05,-0.000480865,-0.0470871,0.239018,-0.190229,0.495547,1.06741e-06,-2.98975e-07,0.377909,-0.04599569980301499,0.6413958370644826,1.0674105697106029e-06,0.27000139640323284,-2.989749553483634e-07,-0.1732302180166838
476,0.4663,218.741,656.035,0.00905569,378.808,-8.42453e-05,-0.000480047,-0.0471721,0.239445,-0.19057,0.496433,1.06702e-06,-3.00103e-07,0.37859,-0.046076786722288765,0.6428507582110139,1.067020569234245e-06,0.2705438027950202,-3.0010295493099193e-07,-0.17351209844899496
477,0.4673,218.815,656.255,0.00902433,378.935,-8.45944e-05,-0.000479234,-0.047257,0.239871,-0.190911,0.497318,1.06662e-06,-3.01228e-07,0.379271,-0.046157771365249345,0.6443053246827566,1.0666205687570596e-06,0.271085169757987,-3.0122795457998564e-07,-0.17379388277646546
478,0.4683,218.888,656.475,0.00899308,379.062,-8.49363e-05,-0.000478426,-0.0473419,0.240297,-0.191251,0.498203,1.06622e-06,-3.0235e-07,0.37995,-0.0462387491329056,0.6457611790156215,1.0662205685019188e-06,0.27162676739240954,-3.023499542953445e-07,-0.1740747451070197
479,0.4693,218.961,656.694,0.00896194,379.189,-8.5271e-05,-0.000477623,-0.0474268,0.240723,-0.191591,0.499087,1.06583e-06,-3.03471e-07,0.38063,-0.04631972002584117,0.6472166751323709,1.0658305680255609e-06,0.2721685957965747,-3.034709539218028e-07,-0.1743555119606135
480,0.4703,219.034,656.913,0.00893091,379.315,-8.55989e-05,-0.000476826,-0.0475116,0.241148,-0.191931,0.499971,1.06543e-06,-3.04589e-07,0.381309,-0.046400588684703314,0.6486734584765583,1.0654305675483755e-06,0.2727093823587927,-3.0458895361462623e-07,-0.17463618336970343
481,0.4713,219.107,657.132,0.00889999,379.442,-8.59202e-05,-0.000476033,-0.0475963,0.241573,-0.192271,0.500853,1.06504e-06,-3.05705e-07,0.381988,-0.04648135513433438,0.6501282299268358,1.0650405670720176e-06,0.27325039880414637,-3.057049532406708e-07,-0.17491675936673545
482,0.4723,219.18,657.35,0.00886917,379.567,-8.6235e-05,-0.000475246,-0.047681,0.241998,-0.19261,0.501736,1.06464e-06,-3.06819e-07,0.382666,-0.04656211474333671,0.6515859366366605,1.0646405668168768e-06,0.2737916452303568,-3.0681895291095884e-07,-0.1751964151809714
483,0.4733,219.252,657.568,0.00883846,379.693,-8.65435e-05,-0.000474463,-0.0477656,0.242422,-0.19295,0.502617,1.06424e-06,-3.0793e-07,0.383343,-0.04664277217657187,0.6530416249834001,1.0642405663396914e-06,0.2743318474027021,-3.079299525365897e-07,-0.17547680073156524
484,0.4743,219.324,657.785,0.00880785,379.818,-8.6846e-05,-0.000473686,-0.0478502,0.242846,-0.193289,0.503499,1.06385e-06,-3.0904e-07,0.38402,-0.0467234227864769,0.6545002508560871,1.0638505658633335e-06,0.27487227866933295,-3.0903995229536463e-07,-0.17575626672395517
485,0.4753,219.397,658.001,0.00877735,379.944,-8.71427e-05,-0.000472914,-0.0479347,0.24327,-0.193628,0.504379,1.06345e-06,-3.10147e-07,0.384697,-0.046803971254030685,0.6559568518872947,1.0634505653861481e-06,0.27541293912740605,-3.101469518984601e-07,-0.17603563799343003
486,0.4763,219.469,658.218,0.00874696,380.068,-8.74337e-05,-0.000472146,-0.0480191,0.243694,-0.193966,0.505259,1.06306e-06,-3.11252e-07,0.385373,-0.046884417603973216,0.6574147352915714,1.0630605651318348e-06,0.275953828874119,-3.11251951545799e-07,-0.17631409088659833
487,0.4773,219.541,658.433,0.00871667,380.193,-8.77191e-05,-0.000471384,-0.0481035,0.244117,-0.194304,0.506138,1.06266e-06,-3.12355e-07,0.386049,-0.04696485716453025,0.6588722433248291,1.0626605646546494e-06,0.27649367151240134,-3.1235495123738133e-07,-0.17659244967859278
488,0.4783,219.612,658.649,0.00868648,380.317,-8.79993e-05,-0.000470626,-0.0481878,0.24454,-0.194643,0.507017,1.06227e-06,-3.13455e-07,0.386725,-0.04704519464079904,0.6603310330708783,1.0622705641782915e-06,0.2770337425524232,-3.1345495088430653e-07,-0.17687153753008822
489,0.4793,219.684,658.864,0.0086564,380.441,-8.82743e-05,-0.000469874,-0.0482721,0.244963,-0.19498,0.507895,1.06187e-06,-3.14554e-07,0.387399,-0.047125525344903996,0.661789443866565,1.0618705637011061e-06,0.27757404209081904,-3.1455395055335345e-07,-0.17714888508625248
490,0.4803,219.755,659.078,0.00862643,380.565,-8.85442e-05,-0.000469126,-0.0483563,0.245385,-0.195318,0.508773,1.06148e-06,-3.1565e-07,0.388074,-0.047205753997996314,0.6632491357092278,1.0614805634467928e-06,0.27811329211033287,-3.156499501777432e-07,-0.1774269617654871
491,0.4813,219.827,659.292,0.00859655,380.689,-8.88093e-05,-0.000468383,-0.0484405,0.245807,-0.195656,0.50965,1.06109e-06,-3.16744e-07,0.388748,-0.04728597589612038,0.6647084450148422,1.0610905629704348e-06,0.2786527697413774,-3.1674394984637644e-07,-0.17770494447068674
492,0.4823,219.898,659.506,0.00856678,380.812,-8.90697e-05,-0.000467645,-0.0485246,0.246229,-0.195993,0.510526,1.06069e-06,-3.17836e-07,0.389421,-0.04736609577645934,0.6661673685278786,1.0606905624932494e-06,0.2791924750800254,-3.178359494482308e-07,-0.1779820112160313
493,0.4833,219.969,659.719,0.00853711,380.935,-8.93256e-05,-0.000466911,-0.0486086,0.246651,-0.19633,0.511402,1.0603e-06,-3.18926e-07,0.390094,-0.04744611366361584,0.6676275706178474,1.0603005620168915e-06,0.27973240822238954,-3.189259490943286e-07,-0.17825898460561407
494,0.4843,220.04,659.931,0.00850754,381.058,-8.95769e-05,-0.000466182,-0.0486926,0.247072,-0.196667,0.512277,1.05991e-06,-3.20014e-07,0.390767,-0.047526124829551986,0.6690873833170548,1.0599105617625781e-06,0.28027128899269393,-3.200139487846698e-07,-0.17853586467089055
495,0.4853,220.111,660.144,0.00847808,381.181,-8.9824e-05,-0.000465458,-0.0487766,0.247493,-0.197003,0.513152,1.05951e-06,-3.211e-07,0.391439,-0.047606129274832654,0.6705484739113716,1.0595105612853928e-06,0.2808103966795652,-3.210999484082322e-07,-0.1788118302555467
496,0.4863,220.181,660.355,0.00844871,381.303,-9.0067e-05,-0.000464739,-0.0488604,0.247914,-0.197339,0.514026,1.05912e-06,-3.22184e-07,0.392111,-0.04768593653722841,0.6720091715094378,1.0591205608090348e-06,0.28134973137855535,-3.22183948076038e-07,-0.17908770313134226
497,0.4873,220.252,660.567,0.00841944,381.425,-9.03058e-05,-0.000464024,-0.0489443,0.248334,-0.197675,0.514899,1.05873e-06,-3.23266e-07,0.392782,-0.047765832335477265,0.6734694728449537,1.0587305605547215e-06,0.28188801129660446,-3.2326594778808726e-07,-0.1793634833294223
498,0.4883,220.322,660.778,0.00839028,381.547,-9.05408e-05,-0.000463314,-0.049028,0.248754,-0.198011,0.515772,1.05834e-06,-3.24345e-07,0.393453,-0.04784553099987521,0.6749310495801664,1.0583405600783635e-06,0.28242651733970203,-3.2434494745547937e-07,-0.1796391708809213
499,0.4893,220.392,660.988,0.00836121,381.668,-9.07719e-05,-0.000462608,-0.0491117,0.249174,-0.198347,0.516644,1.05795e-06,-3.25423e-07,0.394124,-0.047925222993774,0.6763922264359215,1.0579505596020056e-06,0.28296524960284075,-3.254229470339709e-07,-0.1799147658169633
500,0.4903,220.462,661.198,0.00833225,381.79,-9.09993e-05,-0.000461907,-0.0491954,0.249594,-0.198682,0.517516,1.05755e-06,-3.26499e-07,0.394793,-0.048004908317732076,0.6778546779935841,1.0575505591248202e-06,0.2835042081810526,-3.2649894665670587e-07,-0.18018944835852002
501,0.4913,220.532,661.408,0.00830338,381.911,-9.12231e-05,-0.00046121,-0.049279,0.250013,-0.199018,0.518387,1.05716e-06,-3.27572e-07,0.395463,-0.048084491780761685,0.6793167260476132,1.0571605588705069e-06,0.28404210912665895,-3.27571946345806e-07,-0.18046485843238813
502,0.4923,220.602,661.617,0.00827461,382.032,-9.14434e-05,-0.000460517,-0.0493625,0.250432,-0.199352,0.519257,1.05677e-06,-3.28644e-07,0.396132,-0.048163973407293836,0.6807783673210355,1.056770558394149e-06,0.28458023549998557,-3.2864394594600554e-07,-0.1807385374627294
503,0.4933,220.671,661.826,0.00824594,382.152,-9.16603e-05,-0.000459829,-0.049446,0.250851,-0.199687,0.520127,1.05638e-06,-3.29714e-07,0.396801,-0.04824344839738737,0.6822412807756844,1.056380557917791e-06,0.285118587395506,-3.2971394559044853e-07,-0.18101294408700352
504,0.4943,220.741,662.034,0.00821737,382.272,-9.18739e-05,-0.000459145,-0.0495295,0.251269,-0.200022,0.520997,1.05599e-06,-3.30781e-07,0.397469,-0.04832291675159617,0.683705467518839,1.0559905576634776e-06,0.28565587925121205,-3.307809453012567e-07,-0.1812872588004545
505,0.4953,220.81,662.242,0.00818889,382.393,-9.20843e-05,-0.000458466,-0.0496128,0.251688,-0.200356,0.521865,1.0556e-06,-3.31847e-07,0.398136,-0.048402188150931225,0.6851675583202552,1.0556005571871196e-06,0.28619468193589803,-3.3184694492316424e-07,-0.18156066319493958
506,0.4963,220.879,662.45,0.00816051,382.512,-9.22916e-05,-0.000457791,-0.0496962,0.252105,-0.20069,0.522734,1.05521e-06,-3.32911e-07,0.398804,-0.04848154809908356,0.6866326053991958,1.0552105567107617e-06,0.2867311369613643,-3.3291094458931525e-07,-0.18183397628760523
507,0.4973,220.948,662.657,0.00813223,382.632,-9.24959e-05,-0.00045712,-0.0497794,0.252523,-0.201024,0.523601,1.05482e-06,-3.33972e-07,0.399471,-0.048560711141053536,0.6880955499629053,1.0548205562344037e-06,0.287269103003684,-3.339719442108091e-07,-0.18210719810894105
508,0.4983,221.017,662.864,0.00810404,382.751,-9.26972e-05,-0.000456453,-0.0498626,0.25294,-0.201357,0.524468,1.05443e-06,-3.35032e-07,0.400137,-0.048639867596932285,0.6895597634495503,1.0544305559800904e-06,0.2878060061561638,-3.350319438544247e-07,-0.18237951106934647
509,0.4993,221.086,663.07,0.00807595,382.87,-9.28956e-05,-0.00045579,-0.0499458,0.253357,-0.201691,0.525335,1.05404e-06,-3.3609e-07,0.400803,-0.04871901746726803,0.6910252469597635,1.0540405555037324e-06,0.28834313324394545,-3.360899435422837e-07,-0.18265255071249065
510,0.5003,221.155,663.276,0.00804796,382.989,-9.30912e-05,-0.000455131,-0.0500289,0.253774,-0.202024,0.526201,1.05365e-06,-3.37146e-07,0.401468,-0.04879806563241973,0.6924903091039782,1.0536505550273745e-06,0.28888048436042935,-3.371459431633639e-07,-0.18292468210071255
511,0.5013,221.223,663.481,0.00802006,383.108,-9.32842e-05,-0.000454477,-0.0501119,0.254191,-0.202357,0.527066,1.05327e-06,-3.382e-07,0.402133,-0.048877012116647855,0.6939549465857409,1.0532705547738885e-06,0.289418059599055,-3.381999428286875e-07,-0.1831967228842687
512,0.5023,221.292,663.686,0.00799225,383.226,-9.34744e-05,-0.000453826,-0.0501949,0.254607,-0.20269,0.52793,1.05288e-06,-3.39252e-07,0.402798,-0.0489559520485896,0.6954191561070187,1.0528805542975306e-06,0.2899545690980867,-3.392519424272322e-07,-0.18346867309332537
513,0.5033,221.36,663.891,0.00796454,383.345,-9.36621e-05,-0.00045318,-0.0502779,0.255023,-0.203022,0.528795,1.05249e-06,-3.40303e-07,0.403462,-0.04903488542878898,0.6968863281374731,1.0524905538211726e-06,0.2904913018314996,-3.403029420478987e-07,-0.18373971649816356
514,0.5043,221.428,664.095,0.00793692,383.463,-9.38474e-05,-0.000452537,-0.0503607,0.255439,-0.203355,0.529658,1.0521e-06,-3.41351e-07,0.404126,-0.04911362208053316,0.6983513731146367,1.0521005535668593e-06,0.29102825789217857,-3.413509417349303e-07,-0.18401148592044947
515,0.5053,221.496,664.299,0.0079094,383.58,-9.40301e-05,-0.000451898,-0.0504436,0.255854,-0.203687,0.530521,1.05172e-06,-3.42397e-07,0.404789,-0.04919244729391248,0.6998176829713325,1.0517205530913287e-06,0.2915641458082554,-3.4239694135518306e-07,-0.18428234914134123
516,0.5063,221.564,664.503,0.00788196,383.698,-9.42105e-05,-0.000451263,-0.0505263,0.256269,-0.204018,0.531384,1.05133e-06,-3.43442e-07,0.405452,-0.049271075827186595,0.701285258799623,1.0513305526149708e-06,0.2921002561639703,-3.4344194099755754e-07,-0.18455230700328462
517,0.5073,221.631,664.706,0.00785462,383.815,-9.43886e-05,-0.000450632,-0.0506091,0.256684,-0.20435,0.532245,1.05094e-06,-3.44485e-07,0.406114,-0.04934979292317532,0.702750696187715,1.0509405521386128e-06,0.2926365890516551,-3.4448494068417546e-07,-0.1848229907013793
518,0.5083,221.699,664.908,0.00782738,383.932,-9.45644e-05,-0.000450005,-0.0506917,0.257099,-0.204681,0.533107,1.05056e-06,-3.45526e-07,0.406776,-0.049428313387340106,0.7042191000789819,1.0505605518851269e-06,0.2931731445636796,-3.455259403040145e-07,-0.18509276964057964
519,0.5093,221.766,665.111,0.00780022,384.049,-9.47381e-05,-0.000449381,-0.0507743,0.257513,-0.205013,0.533967,1.05017e-06,-3.46565e-07,0.407438,-0.04950682736598233,0.7056853589059751,1.050170551408769e-06,0.2937086290831761,-3.46564939968097e-07,-0.1853632739348614
520,0.5103,221.834,665.312,0.00777316,384.165,-9.49096e-05,-0.000448761,-0.0508569,0.257927,-0.205344,0.534827,1.04979e-06,-3.47602e-07,0.408099,-0.049585334859637786,0.7071528792579376,1.0497905509332384e-06,0.29424433533916017,-3.4760193956540064e-07,-0.18563287406990514
521,0.5113,221.901,665.514,0.00774618,384.282,-9.5079e-05,-0.000448145,-0.0509394,0.258341,-0.205674,0.535687,1.0494e-06,-3.48638e-07,0.40876,-0.04966374083522085,0.708621662220247,1.049400550678925e-06,0.2947802634234493,-3.48637939184826e-07,-0.18590157088404935
522,0.5123,221.968,665.715,0.0077193,384.398,-9.52464e-05,-0.000447533,-0.0510218,0.258754,-0.206005,0.536546,1.04902e-06,-3.49671e-07,0.40942,-0.049742045316787054,0.710089998788362,1.0490205502033945e-06,0.29531511811213385,-3.496709388706165e-07,-0.18617099287228778
523,0.5133,222.035,665.916,0.00769251,384.514,-9.54118e-05,-0.000446924,-0.0511042,0.259167,-0.206335,0.537404,1.04863e-06,-3.50703e-07,0.41008,-0.0498203433463299,0.7115578856407316,1.0486305497270365e-06,0.29585019374142596,-3.5070293846750644e-07,-0.18643951213652454
524,0.5143,222.101,666.116,0.00766581,384.629,-9.55753e-05,-0.000446318,-0.0511866,0.25958,-0.206665,0.538262,1.04825e-06,-3.51733e-07,0.410739,-0.04989863492438085,0.7130270324804779,1.0482505494735506e-06,0.2963854904025929,-3.517329381086398e-07,-0.18670794280402336
525,0.5153,222.168,666.316,0.0076392,384.745,-9.57369e-05,-0.000445716,-0.0512688,0.259993,-0.206995,0.53912,1.04787e-06,-3.52761e-07,0.411398,-0.04997673004683656,0.714497440389134,1.04787054899802e-06,0.2969210081869398,-3.5276093779401663e-07,-0.1869762849040163
526,0.5163,222.234,666.515,0.00761267,384.86,-9.58967e-05,-0.000445118,-0.0513511,0.260406,-0.207325,0.539976,1.04748e-06,-3.53788e-07,0.412056,-0.05005491374465043,0.715965678514372,1.047480548521662e-06,0.2974567471858094,-3.5378793739049286e-07,-0.18724453846572586
527,0.5173,222.301,666.714,0.00758624,384.975,-9.60547e-05,-0.000444523,-0.0514332,0.260818,-0.207654,0.540832,1.0471e-06,-3.54813e-07,0.412714,-0.05013290103480983,0.7174351739895144,1.0471005482681761e-06,0.2979914094985232,-3.5481293703121253e-07,-0.18751189103066224
528,0.5183,222.367,666.913,0.00755989,385.09,-9.62109e-05,-0.000443932,-0.0515154,0.261229,-0.207983,0.541688,1.04672e-06,-3.55836e-07,0.413372,-0.050210976901382764,0.718905927891313,1.0467205477926456e-06,0.29852499361185125,-3.5583593671617564e-07,-0.18777915565107228
529,0.5193,222.433,667.111,0.00753364,385.204,-9.63654e-05,-0.000443344,-0.0515974,0.261641,-0.208312,0.542543,1.04634e-06,-3.56857e-07,0.414029,-0.05028885640817338,0.7203762209203617,1.046340547317115e-06,0.2990600961327696,-3.568569363343599e-07,-0.1880463323558852
530,0.5203,222.499,667.309,0.00750747,385.318,-9.65183e-05,-0.000442759,-0.0516794,0.262052,-0.208641,0.543398,1.04595e-06,-3.57876e-07,0.414686,-0.05036672952910637,0.721847771587514,1.0459505470628017e-06,0.29959411956657833,-3.578759359967876e-07,-0.1883134211740204
531,0.5213,222.565,667.507,0.00748139,385.433,-9.66695e-05,-0.000442178,-0.0517614,0.262463,-0.20897,0.544251,1.04557e-06,-3.58894e-07,0.415342,-0.05044459626470521,0.7233171343307947,1.0455705465872711e-06,0.30012836252912867,-3.588939355703147e-07,-0.18858042213438775
532,0.5223,222.631,667.704,0.00745539,385.546,-9.68192e-05,-0.0004416,-0.0518433,0.262874,-0.209298,0.545105,1.04519e-06,-3.5991e-07,0.415998,-0.05052236166773438,0.7247894757638214,1.0451905461117406e-06,0.3006628251106651,-3.5990993518808523e-07,-0.18884652411281755
533,0.5233,222.696,667.901,0.00742948,385.66,-9.69673e-05,-0.000441025,-0.0519251,0.263285,-0.209626,0.545958,1.04481e-06,-3.60924e-07,0.416654,-0.05060002576204514,0.7262613488512741,1.0448105458582546e-06,0.3011975074014699,-3.609239348500992e-07,-0.18911253882411094
534,0.5243,222.762,668.097,0.00740366,385.773,-9.71139e-05,-0.000440454,-0.0520069,0.263695,-0.209954,0.54681,1.04443e-06,-3.61937e-07,0.417309,-0.05067768350369295,0.7277327502484825,1.044430545382724e-06,0.30173110776010303,-3.619369345342349e-07,-0.18937846629688704
535,0.5253,222.827,668.293,0.00737793,385.887,-9.7259e-05,-0.000439885,-0.0520887,0.264105,-0.210282,0.547661,1.04405e-06,-3.62948e-07,0.417963,-0.05075533489319717,0.7292036766093399,1.0440505451292381e-06,0.3022649269397386,-3.6294793415159177e-07,-0.18964430655975517
536,0.5263,222.892,668.489,0.00735228,386.0,-9.74027e-05,-0.00043932,-0.0521704,0.264515,-0.210609,0.548513,1.04367e-06,-3.63957e-07,0.418618,-0.05083288501437078,0.7306775859380255,1.0436705446537076e-06,0.3027989650301115,-3.6395693381319205e-07,-0.18990924955097022
537,0.5273,222.957,668.684,0.00732671,386.112,-9.7545e-05,-0.000438758,-0.052252,0.264924,-0.210937,0.549363,1.04329e-06,-3.64964e-07,0.419271,-0.05091033389099653,0.7321492872705306,1.043290544178177e-06,0.3033319187884229,-3.649639334080135e-07,-0.19017491574547984
538,0.5283,223.022,668.879,0.00730123,386.225,-9.76859e-05,-0.0004382,-0.0523336,0.265333,-0.211264,0.550213,1.04291e-06,-3.6597e-07,0.419925,-0.05098777644805175,0.7336222400809707,1.042910543924691e-06,0.30386509056940425,-3.659699330249566e-07,-0.19043968525585675
539,0.5293,223.087,669.074,0.00727584,386.337,-9.78254e-05,-0.000437644,-0.0524151,0.265742,-0.211591,0.551063,1.04253e-06,-3.66974e-07,0.420578,-0.051065117792568615,0.7350964454335549,1.0425305434491605e-06,0.3043984804622446,-3.669739326861432e-07,-0.1907043682007581
540,0.5303,223.152,669.268,0.00725053,386.45,-9.79637e-05,-0.000437091,-0.0524966,0.266151,-0.211917,0.551911,1.04215e-06,-3.67977e-07,0.42123,-0.051142452834022745,0.7365684312530609,1.04215054297363e-06,0.3049320885561704,-3.679769322584292e-07,-0.19096815557704616
541,0.5313,223.217,669.462,0.0072253,386.561,-9.81006e-05,-0.000436542,-0.052578,0.266559,-0.212244,0.55276,1.04178e-06,-3.68977e-07,0.421882,-0.05121968669490129,0.7380434038884818,1.0417805427209714e-06,0.3054646094751816,-3.6897693189708036e-07,-0.19123266574040376
542,0.5323,223.281,669.655,0.00720016,386.673,-9.82363e-05,-0.000435995,-0.0526594,0.266967,-0.21257,0.553608,1.0414e-06,-3.69977e-07,0.422534,-0.051296914269199356,0.7395178897886416,1.0414005422454409e-06,0.3059973477070568,-3.699769315357315e-07,-0.19149628091976345
543,0.5333,223.346,669.849,0.0071751,386.785,-9.83708e-05,-0.000435452,-0.0527407,0.267375,-0.212896,0.554455,1.04102e-06,-3.70974e-07,0.423185,-0.05137404069483764,0.7409918855903934,1.0410205417699103e-06,0.30653030334047715,-3.7097393124074785e-07,-0.1917598101745812
544,0.5343,223.41,670.041,0.00715013,386.896,-9.85041e-05,-0.000434911,-0.052822,0.267782,-0.213222,0.555301,1.04064e-06,-3.7197e-07,0.423836,-0.051451160850352284,0.742465387929208,1.0406405415164244e-06,0.30706216940133824,-3.719699308568636e-07,-0.19202325353286376
545,0.5353,223.474,670.234,0.00712523,387.007,-9.86362e-05,-0.000434373,-0.0529032,0.26819,-0.213547,0.556148,1.04027e-06,-3.72964e-07,0.424486,-0.05152817988907599,0.7439418813194638,1.0402705410417212e-06,0.3075955595706492,-3.7296393040620046e-07,-0.19228580330881595
546,0.5363,223.538,670.426,0.00710042,387.118,-9.87671e-05,-0.000433838,-0.0529844,0.268597,-0.213873,0.556993,1.03989e-06,-3.73957e-07,0.425136,-0.05160519267410757,0.745416134993635,1.0398905407882353e-06,0.3081278592790373,-3.7395693008868136e-07,-0.19254907522128395
547,0.5373,223.602,670.617,0.00707569,387.229,-9.8897e-05,-0.000433307,-0.0530655,0.269004,-0.214198,0.557838,1.03952e-06,-3.74948e-07,0.425786,-0.0516821043741702,0.7468916349386361,1.0395205403135321e-06,0.30866037567750015,-3.749479297043834e-07,-0.19281145413295442
548,0.5383,223.666,670.809,0.00705105,387.339,-9.90257e-05,-0.000432778,-0.0531465,0.26941,-0.214523,0.558683,1.03914e-06,-3.75937e-07,0.426435,-0.05175891501284302,0.7483683822080112,1.0391405398380016e-06,0.3091917996617941,-3.759369293643289e-07,-0.19307374778533393
549,0.5393,223.729,671.0,0.00702648,387.449,-9.91533e-05,-0.000432251,-0.0532275,0.269816,-0.214848,0.559527,1.03876e-06,-3.76925e-07,0.427083,-0.05183571943010601,0.7498446280106914,1.0387605395845156e-06,0.3097234394480306,-3.7692492893537377e-07,-0.19333595620612742
550,0.5403,223.793,671.19,0.007002,387.559,-9.92799e-05,-0.000431728,-0.0533085,0.270222,-0.215172,0.56037,1.03839e-06,-3.77911e-07,0.427732,-0.05191251762646332,0.7513203689695243,1.0383905391098125e-06,0.3102552951238431,-3.779109285506621e-07,-0.19359727302070662
551,0.5413,223.856,671.38,0.00697759,387.669,-9.94055e-05,-0.000431207,-0.0533894,0.270628,-0.215496,0.561213,1.03801e-06,-3.78895e-07,0.42838,-0.051989214801344774,0.7527973545024993,1.038010538634282e-06,0.3107873667769001,-3.788949282101939e-07,-0.19385850518235248
552,0.5423,223.919,671.57,0.00695327,387.779,-9.95301e-05,-0.00043069,-0.0534702,0.271033,-0.215821,0.562055,1.03764e-06,-3.79878e-07,0.429027,-0.05206581097826157,0.754273831384527,1.0376405383816234e-06,0.3113183431759079,-3.798779278918474e-07,-0.1941204585984324
553,0.5433,223.983,671.76,0.00692903,387.888,-9.96537e-05,-0.000430174,-0.053551,0.271439,-0.216144,0.562897,1.03727e-06,-3.8086e-07,0.429674,-0.05214240096645728,0.7557515519836209,1.0372705379069203e-06,0.3118508465141001,-3.808599274846003e-07,-0.19438071565652748
554,0.5443,224.046,671.949,0.00690487,387.997,-9.97763e-05,-0.000429662,-0.0536318,0.271843,-0.216468,0.563738,1.03689e-06,-3.8184e-07,0.430321,-0.05221898476643205,0.7572287601177927,1.0368905376534343e-06,0.3123809413280343,-3.8183992712159665e-07,-0.1946416940238762
555,0.5453,224.109,672.138,0.00688078,388.107,-9.9898e-05,-0.000429152,-0.0537125,0.272248,-0.216792,0.564579,1.03652e-06,-3.82818e-07,0.430967,-0.05229546760823722,0.7587072111065527,1.0365205371787312e-06,0.3129125632554459,-3.8281792669181414e-07,-0.1949025878479307
556,0.5463,224.171,672.326,0.00685678,388.215,-0.000100019,-0.000428645,-0.0537931,0.272653,-0.217115,0.565419,1.03615e-06,-3.83795e-07,0.431612,-0.052371849515315816,0.7601851458095548,1.036150536704028e-06,0.31344440053334344,-3.8379492639517565e-07,-0.19516259231907318
557,0.5473,224.234,672.514,0.00683285,388.324,-0.000100139,-0.000428141,-0.0538737,0.273057,-0.217438,0.566258,1.03577e-06,-3.8477e-07,0.432258,-0.052448225266260695,0.7616625608358272,1.035770536450542e-06,0.3139751392731658,-3.84769925920736e-07,-0.19542251282233314
558,0.5483,224.297,672.702,0.00680901,388.432,-0.000100257,-0.000427639,-0.0539542,0.273461,-0.217761,0.567097,1.0354e-06,-3.85744e-07,0.432903,-0.05252450011402299,0.7631412159334439,1.035400535975839e-06,0.31450609247475714,-3.8574392557944037e-07,-0.19568234938482765
559,0.5493,224.359,672.889,0.00678524,388.541,-0.000100376,-0.00042714,-0.0540347,0.273864,-0.218083,0.567936,1.03503e-06,-3.86716e-07,0.433547,-0.05260076882190712,0.7646211121432611,1.0350305357231804e-06,0.31503594518817524,-3.867159251713659e-07,-0.1959412979753652
560,0.5503,224.421,673.076,0.00676155,388.649,-0.000100493,-0.000426644,-0.0541151,0.274267,-0.218406,0.568774,1.03466e-06,-3.87686e-07,0.434191,-0.0526769366581058,0.7661004844056418,1.0346605352484772e-06,0.31556601147526875,-3.8768592480753483e-07,-0.19620096699731449
561,0.5513,224.484,673.263,0.00673794,388.757,-0.000100609,-0.00042615,-0.0541955,0.274671,-0.218728,0.569611,1.03429e-06,-3.88655e-07,0.434835,-0.05275309837065667,0.7675793293213504,1.034290534773774e-06,0.31609760751907534,-3.886549244658255e-07,-0.19645974861986426
562,0.5523,224.546,673.45,0.0067144,388.864,-0.000100725,-0.000425659,-0.0542759,0.275073,-0.21905,0.570448,1.03392e-06,-3.89623e-07,0.435478,-0.05282925396005189,0.7690594125484145,1.0339205345211155e-06,0.3166267851148683,-3.896229241462379e-07,-0.19671844692814577
563,0.5533,224.608,673.636,0.00669095,388.972,-0.000100839,-0.00042517,-0.0543561,0.275476,-0.219372,0.571284,1.03355e-06,-3.90589e-07,0.436121,-0.05290521400784565,0.7705389645838849,1.0335505340464124e-06,0.3171574926396532,-3.905889237598714e-07,-0.196977061948982
564,0.5543,224.67,673.821,0.00666756,389.079,-0.000100953,-0.000424683,-0.0544364,0.275878,-0.219694,0.57212,1.03318e-06,-3.91553e-07,0.436764,-0.052981262665766415,0.7720197540420273,1.0331805337937539e-06,0.317687096394917,-3.915529233067261e-07,-0.1972355937091872
565,0.5553,224.732,674.007,0.00664426,389.186,-0.000101067,-0.000424199,-0.0545165,0.27628,-0.220015,0.572955,1.03281e-06,-3.92516e-07,0.437406,-0.05305711582866712,0.7735000084568648,1.0328105333190507e-06,0.31821691309368916,-3.925159229867248e-07,-0.19749323972920807
566,0.5563,224.793,674.192,0.00662103,389.293,-0.000101179,-0.000423718,-0.0545967,0.276682,-0.220336,0.57379,1.03244e-06,-3.93478e-07,0.438047,-0.05313305760267184,0.7749814994003175,1.0324405330663922e-06,0.3187469428215901,-3.934779225778229e-07,-0.1977508030581291
567,0.5573,224.855,674.376,0.00659788,389.399,-0.000101291,-0.000423239,-0.0546767,0.277084,-0.220657,0.574624,1.03207e-06,-3.94438e-07,0.438688,-0.05320880392817018,0.7764624514419782,1.032070532591689e-06,0.3192771856642751,-3.9443792221316443e-07,-0.1980082837224898
568,0.5583,224.916,674.561,0.0065748,389.506,-0.000101402,-0.000422763,-0.0547567,0.277485,-0.220978,0.575458,1.0317e-06,-3.95396e-07,0.439329,-0.05328454419420492,0.7779446391128275,1.0317005321169859e-06,0.3198063219004512,-3.953959217817271e-07,-0.19826568174882153
569,0.5593,224.978,674.745,0.0065518,389.612,-0.000101512,-0.000422288,-0.0548367,0.277886,-0.221298,0.576291,1.03133e-06,-3.96353e-07,0.43997,-0.053360278401260675,0.7794262840166362,1.0313305318643273e-06,0.32033567036280686,-3.963529214834338e-07,-0.19852219568624296
570,0.5603,225.039,674.929,0.00652887,389.718,-0.000101622,-0.000421817,-0.0549166,0.278287,-0.221619,0.577123,1.03096e-06,-3.97309e-07,0.44061,-0.05343591189341823,0.780907382736568,1.0309605313896242e-06,0.32086523113646126,-3.9730892109623994e-07,-0.19877942877330845
571,0.5613,225.1,675.112,0.00650602,389.824,-0.00010173,-0.000421347,-0.0549965,0.278687,-0.221939,0.577955,1.03059e-06,-3.98263e-07,0.441249,-0.05351153934270103,0.7823897142434029,1.0305905311369656e-06,0.32139368291222503,-3.982629206422672e-07,-0.19903577833798303
572,0.5623,225.161,675.295,0.00648324,389.93,-0.000101839,-0.00042088,-0.0550763,0.279087,-0.222259,0.578787,1.03023e-06,-3.99216e-07,0.441888,-0.05358706610830344,0.7838732795632464,1.0302305306630899e-06,0.3219223461109808,-3.992159203214385e-07,-0.1992920458839208
573,0.5633,225.222,675.478,0.00646054,390.035,-0.000101946,-0.000420416,-0.0551561,0.279487,-0.222579,0.579618,1.02986e-06,-4.00167e-07,0.442527,-0.05366258684711045,0.7853562943658712,1.0298605304104314e-06,0.3224512208173147,-4.001669199338309e-07,-0.19954823143736322
574,0.5643,225.283,675.66,0.00643791,390.141,-0.000102053,-0.000419953,-0.0552358,0.279887,-0.222898,0.580448,1.02949e-06,-4.01117e-07,0.443165,-0.053738006933408466,0.7868387552263463,1.0294905299357282e-06,0.3229803071158468,-4.0111691956834505e-07,-0.1998035348284788
575,0.5653,225.343,675.842,0.00641536,390.246,-0.000102159,-0.000419493,-0.0553155,0.280287,-0.223218,0.581278,1.02913e-06,-4.02065e-07,0.443803,-0.05381342100896502,0.7883224470401107,1.0291305294618525e-06,0.32350960509123095,-4.0206491913608033e-07,-0.20005955673164444
576,0.5663,225.404,676.024,0.00639287,390.351,-0.000102265,-0.000419036,-0.0553951,0.280686,-0.223537,0.582108,1.02876e-06,-4.03012e-07,0.444441,-0.053888734463137467,0.7898073708292794,1.028760529209194e-06,0.32403779078970185,-4.0301191883695964e-07,-0.2003146970360049
577,0.5673,225.464,676.205,0.00637047,390.455,-0.00010237,-0.00041858,-0.0554746,0.281085,-0.223856,0.582937,1.02839e-06,-4.03957e-07,0.445078,-0.05396394731899701,0.7912917363241849,1.0283905287344908e-06,0.3245661872763159,-4.039569183600378e-07,-0.20056975596358861
578,0.5683,225.525,676.386,0.00634813,390.56,-0.000102474,-0.000418127,-0.0555541,0.281484,-0.224174,0.583765,1.02803e-06,-4.04901e-07,0.445715,-0.05403915419567218,0.7927755400918484,1.0280305284826596e-06,0.32509479463519453,-4.0490091801625994e-07,-0.2008239343646845
579,0.5693,225.585,676.567,0.00632586,390.664,-0.000102578,-0.000417676,-0.0556336,0.281882,-0.224493,0.584593,1.02766e-06,-4.05844e-07,0.446351,-0.05411435509363827,0.794260572957808,1.0276605280079565e-06,0.32562228732754206,-4.058439176946038e-07,-0.20107883087146772
580,0.5703,225.645,676.747,0.00630367,390.768,-0.000102681,-0.000417227,-0.055713,0.28228,-0.224811,0.58542,1.0273e-06,-4.06785e-07,0.446987,-0.05418945543232101,0.7957450401942407,1.0273005277561253e-06,0.326149990003765,-4.0678491730616884e-07,-0.20133284741248003
581,0.5713,225.705,676.928,0.00628155,390.872,-0.000102784,-0.000416781,-0.0557924,0.282678,-0.225129,0.586247,1.02693e-06,-4.07725e-07,0.447622,-0.05426454980827344,0.7972307355928527,1.0269305272814222e-06,0.326677902747454,-4.0772491682883327e-07,-0.20158678318907441
582,0.5723,225.765,677.107,0.0062595,390.976,-0.000102886,-0.000416337,-0.0558717,0.283076,-0.225447,0.587073,1.02657e-06,-4.08663e-07,0.448258,-0.0543395436559283,0.7987158614529939,1.026570527029591e-06,0.327206025642232,-4.0866291650676345e-07,-0.20184063822693
583,0.5733,225.825,677.287,0.00623753,391.08,-0.000102987,-0.000415894,-0.055951,0.283473,-0.225765,0.587899,1.0262e-06,-4.096e-07,0.448892,-0.05441453155680687,0.8002022145338679,1.026200526554888e-06,0.3277330310380613,-4.0959991609579305e-07,-0.20209441255171767
584,0.5743,225.885,677.466,0.00621562,391.183,-0.000103088,-0.000415454,-0.0560302,0.283871,-0.226083,0.588724,1.02584e-06,-4.10536e-07,0.449527,-0.05448941896032722,0.8016879941606829,1.0258405260810122e-06,0.32826157395747857,-4.1053591570694437e-07,-0.20234810618910004
585,0.5753,225.944,677.645,0.00619379,391.287,-0.000103189,-0.000415017,-0.0561093,0.284267,-0.2264,0.589548,1.02548e-06,-4.1147e-07,0.450161,-0.054564205889425454,0.8031731968873599,1.025480525829181e-06,0.32878766970084783,-4.114699153623391e-07,-0.20260092176605204
586,0.5763,226.004,677.823,0.00617202,391.39,-0.000103289,-0.000414581,-0.0561884,0.284664,-0.226717,0.590372,1.02511e-06,-4.12403e-07,0.450794,-0.05463898690311142,0.8046596239254307,1.0251105253544779e-06,0.3293153031340257,-4.124029149288333e-07,-0.2028536572131674
587,0.5773,226.063,678.002,0.00615033,391.493,-0.000103388,-0.000414147,-0.0562675,0.285061,-0.227034,0.591196,1.02475e-06,-4.13335e-07,0.451427,-0.054713762001853294,0.8061472762841437,1.0247505251026467e-06,0.3298431460792617,-4.133349146284715e-07,-0.20310631255584322
588,0.5783,226.122,678.179,0.00612871,391.595,-0.000103487,-0.000413716,-0.0563465,0.285457,-0.227351,0.592019,1.02439e-06,-4.14265e-07,0.45206,-0.05478843666496713,0.8076343473383278,1.024390524628771e-06,0.33036986824921555,-4.1426491415030853e-07,-0.20335888781946865
589,0.5793,226.182,678.357,0.00610715,391.698,-0.000103585,-0.000413286,-0.0564255,0.285853,-0.227667,0.592842,1.02403e-06,-4.15193e-07,0.452692,-0.054863105429015624,0.8091226427557461,1.0240305243769399e-06,0.3308967990424534,-4.151929138274113e-07,-0.20361058664040954
590,0.5803,226.241,678.534,0.00608567,391.8,-0.000103683,-0.000412859,-0.0565044,0.286248,-0.227984,0.593664,1.02367e-06,-4.16121e-07,0.453324,-0.054937673788236774,0.8106103529332058,1.0236705239030641e-06,0.3314226071183335,-4.161209133934918e-07,-0.2038630020744845
591,0.5813,226.3,678.711,0.00606425,391.902,-0.000103781,-0.000412434,-0.0565832,0.286644,-0.2283,0.594485,1.0233e-06,-4.17047e-07,0.453956,-0.05501214176546543,0.8120974744127998,1.0233005236504056e-06,0.3319499548787175,-4.170469130038157e-07,-0.20411454162048748
592,0.5823,226.359,678.888,0.0060429,392.004,-0.000103878,-0.000412011,-0.056662,0.287039,-0.228616,0.595306,1.02294e-06,-4.17971e-07,0.454587,-0.05508660387484865,0.8135858173204558,1.0229405231765298e-06,0.33247617903332327,-4.1797091265838304e-07,-0.2043660016925516
593,0.5833,226.417,679.064,0.00602163,392.106,-0.000103974,-0.000411589,-0.0567408,0.287434,-0.228931,0.596127,1.02258e-06,-4.18895e-07,0.455217,-0.05516106011684885,0.8150753826593784,1.0225805229246987e-06,0.33300261108752727,-4.188949123129504e-07,-0.20461658693277107
594,0.5843,226.476,679.24,0.00600042,392.208,-0.00010407,-0.00041117,-0.0568195,0.287829,-0.229247,0.596947,1.02222e-06,-4.19817e-07,0.455848,-0.05523541601547466,0.8165643548683328,1.022220522450823e-06,0.33352925112346665,-4.198169119007389e-07,-0.20486788838357994
595,0.5853,226.535,679.416,0.00597928,392.309,-0.000104166,-0.000410753,-0.0568982,0.288223,-0.229562,0.597766,1.02186e-06,-4.20737e-07,0.456478,-0.05530976606252158,0.8180527304815883,1.0218605221989918e-06,0.3340547651678778,-4.207369115327708e-07,-0.20511831555438897
596,0.5863,226.593,679.591,0.0059582,392.411,-0.000104261,-0.000410338,-0.0569768,0.288617,-0.229877,0.598585,1.0215e-06,-4.21657e-07,0.457107,-0.055384015796856256,0.8195423255737795,1.021500521725116e-06,0.3345804863056172,-4.2165691105378045e-07,-0.20536866385306218
597,0.5873,226.651,679.766,0.0059372,392.512,-0.000104356,-0.000409925,-0.0570554,0.289011,-0.230192,0.599403,1.02114e-06,-4.22575e-07,0.457736,-0.0554582596953912,0.821031320111838,1.021140521473285e-06,0.3351064146182956,-4.225749107300558e-07,-0.20561893330444048
598,0.5883,226.71,679.941,0.00591626,392.613,-0.00010445,-0.000409513,-0.0571339,0.289405,-0.230507,0.600221,1.02078e-06,-4.23491e-07,0.458365,-0.05553240331183007,0.8225215331457256,1.0207805209994092e-06,0.3356325501875561,-4.2349091033955233e-07,-0.20586912393335677
599,0.5893,226.768,680.116,0.00589539,392.713,-0.000104544,-0.000409104,-0.0572123,0.289798,-0.230822,0.601039,1.02042e-06,-4.24407e-07,0.458993,-0.05560644666887293,0.8240129656725794,1.0204205205255334e-06,0.3361575569368487,-4.2440690994904884e-07,-0.2061192357646362
600,0.5903,226.826,680.29,0.00587458,392.814,-0.000104637,-0.000408697,-0.0572908,0.290192,-0.231136,0.601856,1.02007e-06,-4.25321e-07,0.459621,-0.05568057865309095,0.825503793185647,1.0200705202745297e-06,0.33668410673778104,-4.253209096027888e-07,-0.20636847519196821
601,0.5913,226.884,680.464,0.00585385,392.914,-0.00010473,-0.000408291,-0.0573691,0.290584,-0.23145,0.602672,1.01971e-06,-4.26233e-07,0.460249,-0.05575451596909864,0.8269940122075583,1.019710519800654e-06,0.3372081896211563,-4.262329091897499e-07,-0.20661763637040576
602,0.5923,226.942,680.638,0.00583317,393.015,-0.000104823,-0.000407888,-0.0574474,0.290977,-0.231764,0.603488,1.01935e-06,-4.27145e-07,0.460876,-0.05582844749604121,0.8284854477444621,1.0193505195488228e-06,0.3377338157184404,-4.2714490877671096e-07,-0.20686671932451506
603,0.5933,227.0,680.811,0.00581257,393.115,-0.000104915,-0.000407486,-0.0575257,0.29137,-0.232078,0.604303,1.01899e-06,-4.28055e-07,0.461503,-0.05590237323437186,0.8299762708122538,1.018990519074947e-06,0.3382596484273772,-4.280549084079155e-07,-0.2071157240788548
604,0.5943,227.057,680.984,0.00579203,393.215,-0.000105007,-0.000407087,-0.0576039,0.291762,-0.232391,0.605118,1.01863e-06,-4.28964e-07,0.462129,-0.05597619878216842,0.8314683093961013,1.018630518823116e-06,0.33878434904416266,-4.2896390795021944e-07,-0.20736385802223023
605,0.5953,227.115,681.157,0.00577156,393.314,-0.000105098,-0.000406689,-0.0576821,0.292154,-0.232705,0.605932,1.01828e-06,-4.29871e-07,0.462755,-0.056050018557032844,0.8329597315264057,1.0182805183500676e-06,0.339309255383909,-4.298709076477891e-07,-0.20761270669952425
606,0.5963,227.172,681.329,0.00575115,393.414,-0.000105189,-0.000406293,-0.0577602,0.292545,-0.233018,0.606746,1.01792e-06,-4.30778e-07,0.463381,-0.05612373817179506,0.8344523681685636,1.0179205180982365e-06,0.3398330276935777,-4.307779072343365e-07,-0.20786068511168132
607,0.5973,227.23,681.501,0.00573081,393.513,-0.00010528,-0.000405899,-0.0578383,0.292937,-0.233331,0.607559,1.01756e-06,-4.31683e-07,0.464006,-0.05619745202928028,0.8359443843662877,1.0175605176243607e-06,0.3403583451959371,-4.3168290686512734e-07,-0.20810858591874115
608,0.5983,227.287,681.673,0.00571053,393.613,-0.00010537,-0.000405506,-0.0579163,0.293328,-0.233643,0.608372,1.01721e-06,-4.32586e-07,0.464631,-0.05627106575704932,0.8374376140664024,1.017210517373357e-06,0.34088252777992567,-4.325859064291393e-07,-0.20835561750100373
609,0.5993,227.344,681.844,0.00569032,393.712,-0.00010546,-0.000405116,-0.0579943,0.293719,-0.233956,0.609184,1.01685e-06,-4.33489e-07,0.465255,-0.056344673743171425,0.8389302193247474,1.0168505168994812e-06,0.34140691535937884,-4.3348890599315126e-07,-0.2086033634184673
610,0.6003,227.401,682.016,0.00567017,393.811,-0.00010555,-0.000404727,-0.0580722,0.29411,-0.234268,0.609996,1.0165e-06,-4.3439e-07,0.465879,-0.05641818162991752,0.8404240370707656,1.0165005166484775e-06,0.3419315080144649,-4.3438990560140667e-07,-0.2088502406542293
611,0.6013,227.458,682.187,0.00565008,393.909,-0.000105639,-0.000404341,-0.0581501,0.2945,-0.234581,0.610807,1.01614e-06,-4.3529e-07,0.466503,-0.056491683790622194,0.8419172263712495,1.0161405161746018e-06,0.34245496336975023,-4.352899052317838e-07,-0.2090978317788721
612,0.6023,227.515,682.357,0.00563006,394.008,-0.000105728,-0.000403956,-0.0582279,0.294891,-0.234893,0.611618,1.01579e-06,-4.36189e-07,0.467126,-0.05656508588224496,0.8434116271394401,1.015790515923598e-06,0.3429799658917323,-4.3618890488428264e-07,-0.20934455476456992
613,0.6033,227.572,682.528,0.00561011,394.106,-0.000105816,-0.000403572,-0.0583057,0.295281,-0.235204,0.612428,1.01543e-06,-4.37086e-07,0.467749,-0.056638482263407064,0.8449053954519177,1.0154305154497223e-06,0.34350383022533504,-4.370859044700026e-07,-0.20959041037550907
614,0.6043,227.628,682.698,0.00559021,394.204,-0.000105904,-0.000403191,-0.0583834,0.29567,-0.235516,0.613238,1.01508e-06,-4.37982e-07,0.468371,-0.0567117786057354,0.8464003742068915,1.0150805151987186e-06,0.3440265548786461,-4.379819040778443e-07,-0.20983697970065696
615,0.6053,227.685,682.868,0.00557038,394.302,-0.000105992,-0.000402811,-0.0584611,0.29606,-0.235827,0.614047,1.01472e-06,-4.38877e-07,0.468993,-0.05678506925315918,0.8478947164895767,1.0147205147248428e-06,0.3445508274615574,-4.3887690370780774e-07,-0.21008268219125237
616,0.6063,227.742,683.037,0.00555061,394.4,-0.00010608,-0.000402433,-0.0585388,0.296449,-0.236139,0.614856,1.01437e-06,-4.39771e-07,0.469615,-0.056858354206120953,0.8493902681843097,1.014370514473839e-06,0.34507395947601993,-4.397709032488706e-07,-0.2103290979515512
617,0.6073,227.798,683.206,0.00553091,394.498,-0.000106167,-0.000402057,-0.0586164,0.296838,-0.23645,0.615664,1.01402e-06,-4.40663e-07,0.470236,-0.05693153915822169,0.8508851793837962,1.0140205142228353e-06,0.34559729502842185,-4.4066290294519916e-07,-0.21057464741716725
618,0.6083,227.854,683.375,0.00551127,394.596,-0.000106254,-0.000401683,-0.0586939,0.297227,-0.23676,0.616472,1.01366e-06,-4.41555e-07,0.470857,-0.057004624131857584,0.8523812989596502,1.0136605137489596e-06,0.3461208341979545,-4.4155490253050544e-07,-0.21081933134849906
619,0.6093,227.911,683.544,0.00549169,394.693,-0.00010634,-0.00040131,-0.0587714,0.297616,-0.237071,0.617279,1.01331e-06,-4.42445e-07,0.471478,-0.05707770344162755,0.8538767740109332,1.0133105134979559e-06,0.34664457706384044,-4.4244490216005516e-07,-0.21106472837523405
620,0.6103,227.967,683.712,0.00547217,394.79,-0.000106427,-0.000400939,-0.0588488,0.298004,-0.237381,0.618086,1.01296e-06,-4.43333e-07,0.472098,-0.05715068280304347,0.8553734563976769,1.0129605130249075e-06,0.34716717653748286,-4.43332901722826e-07,-0.21130926040501485
621,0.6113,228.023,683.88,0.00545272,394.887,-0.000106512,-0.00040057,-0.0589262,0.298392,-0.237692,0.618892,1.0126e-06,-4.44221e-07,0.472718,-0.057223656516075416,0.8568694902241758,1.0126005127730764e-06,0.3476899788190633,-4.442209012855969e-07,-0.21155450508750406
622,0.6123,228.079,684.048,0.00543332,394.984,-0.000106598,-0.000400202,-0.0590036,0.29878,-0.238002,0.619698,1.01225e-06,-4.45107e-07,0.473337,-0.05729662458116047,0.858366730340008,1.012250512300028e-06,0.3482129839872865,-4.451069008926112e-07,-0.21179888531003532
623,0.6133,228.134,684.216,0.00541399,395.081,-0.000106683,-0.000399836,-0.0590809,0.299167,-0.238312,0.620503,1.0119e-06,-4.45992e-07,0.473956,-0.05736949273568992,0.8598633178535873,1.0119005120490243e-06,0.34873484338536986,-4.459919005217472e-07,-0.21204318978643888
624,0.6143,228.19,684.383,0.00539472,395.177,-0.000106768,-0.000399472,-0.0591581,0.299555,-0.238621,0.621308,1.01155e-06,-4.46876e-07,0.474575,-0.05744226100195948,0.8613611106051577,1.011550511575976e-06,0.349258254039704,-4.4687590017300494e-07,-0.2122866308272171
625,0.6153,228.246,684.55,0.00537551,395.274,-0.000106853,-0.000399109,-0.0592353,0.299942,-0.238931,0.622112,1.0112e-06,-4.47759e-07,0.475193,-0.0575150236507358,0.8628582467061492,1.0112005113249722e-06,0.3497805180355822,-4.477588997353621e-07,-0.21253078412594417
626,0.6163,228.301,684.717,0.00535636,395.37,-0.000106938,-0.000398748,-0.0593125,0.300329,-0.23924,0.622916,1.01085e-06,-4.48641e-07,0.475811,-0.057587780682452405,0.8643565869885821,1.010850510851924e-06,0.35030298418674155,-4.4864089931984097e-07,-0.21277407452334707
627,0.6173,228.357,684.883,0.00533727,395.466,-0.000107022,-0.000398389,-0.0593896,0.300715,-0.239549,0.623719,1.0105e-06,-4.49521e-07,0.476428,-0.05766043786359143,0.8658542665658076,1.0105005106009202e-06,0.35082430174645385,-4.495208989485633e-07,-0.21301728975563072
628,0.6183,228.412,685.049,0.00531824,395.562,-0.000107106,-0.000398031,-0.0594667,0.301102,-0.239858,0.624522,1.01015e-06,-4.504e-07,0.477046,-0.057733089443077756,0.8673531492627218,1.0101505101278718e-06,0.35134717192008247,-4.503998985994073e-07,-0.21326042984601767
629,0.6193,228.468,685.215,0.00529927,395.658,-0.000107189,-0.000397675,-0.0595437,0.301488,-0.240167,0.625324,1.0098e-06,-4.51278e-07,0.477662,-0.05780564120191212,0.8688513671935156,1.009800509876868e-06,0.3518688926140596,-4.512778981613508e-07,-0.21350349481772313
630,0.6203,228.523,685.381,0.00528036,395.754,-0.000107273,-0.000397321,-0.0596207,0.301874,-0.240475,0.626126,1.00945e-06,-4.52155e-07,0.478279,-0.05787818737447603,0.8703507871770488,1.0094505094038198e-06,0.352390814731097,-4.5215489774541595e-07,-0.21374569844004665
631,0.6213,228.578,685.546,0.00526151,395.849,-0.000107356,-0.000396968,-0.0596976,0.302259,-0.240784,0.626927,1.0091e-06,-4.53031e-07,0.478895,-0.057950633756267855,0.87184953832728,1.009100509152816e-06,0.35291158543669665,-4.5303089735160285e-07,-0.2139886134869211
632,0.6223,228.633,685.711,0.00524272,395.944,-0.000107438,-0.000396617,-0.0597745,0.302645,-0.241092,0.627728,1.00875e-06,-4.53905e-07,0.47951,-0.05802307456714717,0.8733494904581109,1.0087505086797677e-06,0.3534339101108519,-4.539048970020332e-07,-0.21423066771570243
633,0.6233,228.688,685.876,0.00522399,396.039,-0.000107521,-0.000396267,-0.0598513,0.30303,-0.2414,0.628528,1.0084e-06,-4.54779e-07,0.480125,-0.05809541561708853,0.8748487696822054,1.008400508428764e-06,0.35395508248548935,-4.547788965414412e-07,-0.21447264740326122
634,0.6243,228.743,686.04,0.00520532,396.134,-0.000107603,-0.000395919,-0.0599281,0.303415,-0.241707,0.629328,1.00805e-06,-4.55651e-07,0.48074,-0.05816775111145056,0.8763492488095768,1.0080505081777602e-06,0.354476455550121,-4.55650896236115e-07,-0.21471376728671254
635,0.6253,228.797,686.205,0.00518671,396.229,-0.000107685,-0.000395573,-0.0600048,0.3038,-0.242015,0.630127,1.0077e-06,-4.56522e-07,0.481355,-0.05823998687466336,0.8778490509505412,1.0077005077047119e-06,0.35499802938202807,-4.565218958418882e-07,-0.21495559820251542
636,0.6263,228.852,686.368,0.00516815,396.324,-0.000107767,-0.000395228,-0.0600815,0.304184,-0.242322,0.630926,1.00735e-06,-4.57392e-07,0.481969,-0.05831221709760559,0.8793500519122817,1.0073505074537081e-06,0.35551844853939385,-4.573918953587608e-07,-0.21519656984282787
637,0.6273,228.907,686.532,0.00514966,396.419,-0.000107849,-0.000394884,-0.0601581,0.304569,-0.24263,0.631724,1.00701e-06,-4.58261e-07,0.482582,-0.058384347619141685,0.880850371801726,1.0070105069814872e-06,0.3560404236158363,-4.582608950087774e-07,-0.21543825207834144
638,0.6283,228.961,686.696,0.00513122,396.513,-0.00010793,-0.000394542,-0.0602347,0.304953,-0.242937,0.632522,1.00666e-06,-4.59128e-07,0.483196,-0.058456472615691424,0.8823518894242741,1.0066605067304835e-06,0.3565612431294516,-4.591278945920152e-07,-0.21567907556665644
639,0.6293,229.015,686.859,0.00511284,396.607,-0.000108011,-0.000394202,-0.0603113,0.305336,-0.243243,0.633319,1.00631e-06,-4.59995e-07,0.483809,-0.05852859208767802,0.8838527218824346,1.0063105062574351e-06,0.35708090559457983,-4.5999489417525297e-07,-0.21591904105294113
640,0.6303,229.07,687.022,0.00509452,396.701,-0.000108092,-0.000393863,-0.0603878,0.30572,-0.24355,0.634116,1.00596e-06,-4.6086e-07,0.484421,-0.058600611895590515,0.8853547509808621,1.0059605060064314e-06,0.3576021247299974,-4.608598938027342e-07,-0.21615971696169567
641,0.6313,229.124,687.184,0.00507625,396.795,-0.000108172,-0.000393526,-0.0604642,0.306103,-0.243856,0.634912,1.00562e-06,-4.61724e-07,0.485033,-0.058672532061456395,0.886856090816625,1.0056205055342105e-06,0.3581221859291315,-4.617238934523371e-07,-0.21639953539421386
642,0.6323,229.178,687.347,0.00505804,396.889,-0.000108252,-0.00039319,-0.0605406,0.306486,-0.244163,0.635708,1.00527e-06,-4.62587e-07,0.485645,-0.05874444673283152,0.8883586261946594,1.0052705052832067e-06,0.358642446349853,-4.6258689301303946e-07,-0.21664006381384637
643,0.6333,229.232,687.509,0.00503989,396.982,-0.000108332,-0.000392856,-0.060617,0.306869,-0.244469,0.636503,1.00492e-06,-4.63449e-07,0.486257,-0.058816355910135565,0.8898604682055835,1.004920505032203e-06,0.3591629060684791,-4.634488925958635e-07,-0.21687973528271443
644,0.6343,229.286,687.671,0.0050218,397.076,-0.000108412,-0.000392523,-0.0606933,0.307252,-0.244775,0.637298,1.00458e-06,-4.6431e-07,0.486868,-0.058888165482609556,0.8913635046556327,1.004580504559982e-06,0.359683565161355,-4.643098922008093e-07,-0.21711933342333278
645,0.6353,229.34,687.832,0.00500376,397.169,-0.000108492,-0.000392192,-0.0607696,0.307634,-0.24508,0.638093,1.00423e-06,-4.65169e-07,0.487479,-0.05895996957622229,0.8928677364947639,1.0042305043089783e-06,0.3602030635011122,-4.6516889184999854e-07,-0.21735807561660347
646,0.6363,229.394,687.993,0.00498578,397.262,-0.000108571,-0.000391862,-0.0608458,0.308016,-0.245386,0.638887,1.00389e-06,-4.66028e-07,0.488089,-0.05903167409456367,0.8943712703014719,1.0038905038367574e-06,0.3607227603271439,-4.6602789138816547e-07,-0.2175975274074723
647,0.6373,229.447,688.155,0.00496786,397.355,-0.00010865,-0.000391533,-0.0609219,0.308398,-0.245691,0.63968,1.00354e-06,-4.66885e-07,0.488699,-0.0591032790595617,0.8958741025130383,1.0035405035857536e-06,0.3612426557152857,-4.6688489097057584e-07,-0.21783612377381756
648,0.6383,229.501,688.315,0.00494999,397.448,-0.000108729,-0.000391206,-0.0609981,0.30878,-0.245996,0.640473,1.0032e-06,-4.67742e-07,0.489308,-0.05917497265813654,0.8973781269432006,1.0032005031135327e-06,0.36176274974140354,-4.677418906640085e-07,-0.21807464737936766
649,0.6393,229.554,688.476,0.00493218,397.541,-0.000108808,-0.000390881,-0.0610741,0.309161,-0.246301,0.641265,1.00285e-06,-4.68597e-07,0.489918,-0.059246472643180614,0.8988814456553682,1.002850502862529e-06,0.36228168019902984,-4.6859689017964e-07,-0.21831309824631118
650,0.6403,229.608,688.636,0.00491442,397.633,-0.000108887,-0.000390557,-0.0611502,0.309542,-0.246606,0.642057,1.00251e-06,-4.69451e-07,0.490526,-0.05931806126263095,0.900385955467569,1.0025105026123526e-06,0.3628008084068295,-4.6945088982841554e-07,-0.21855147639683026
651,0.6413,229.661,688.796,0.00489672,397.726,-0.000108965,-0.000390234,-0.0612262,0.309923,-0.246911,0.642849,1.00216e-06,-4.70304e-07,0.491135,-0.05938955037335436,0.9018916573235285,1.0021605021393043e-06,0.36332013444015954,-4.703038893882905e-07,-0.21878978185309972
652,0.6423,229.715,688.956,0.00487907,397.818,-0.000109043,-0.000389913,-0.0613021,0.310304,-0.247215,0.64364,1.00182e-06,-4.71156e-07,0.491743,-0.05946093999721058,0.9033966487701182,1.001820501889128e-06,0.36383965837440635,-4.7115588897028715e-07,-0.21902723366491228
653,0.6433,229.768,689.115,0.00486148,397.91,-0.000109121,-0.000389593,-0.061378,0.310685,-0.247519,0.64443,1.00148e-06,-4.72007e-07,0.492351,-0.05953232420279986,0.9049009262340098,1.001480501416907e-06,0.3643593802849838,-4.7200688857440554e-07,-0.21926461330234515
654,0.6443,229.821,689.275,0.00484394,398.002,-0.000109198,-0.000389275,-0.0614539,0.311065,-0.247823,0.64522,1.00113e-06,-4.72857e-07,0.492958,-0.059603702990533636,0.9064063925466312,1.0011305011659033e-06,0.36487793536871815,-4.7285688820064564e-07,-0.21950192078733588
655,0.6453,229.874,689.434,0.00482646,398.094,-0.000109276,-0.000388958,-0.0615297,0.311445,-0.248127,0.64601,1.00079e-06,-4.73705e-07,0.493565,-0.05967498232832591,0.9079130486475442,1.0007905006936824e-06,0.36539668754082877,-4.737048877601069e-07,-0.21973915614181572
656,0.6463,229.927,689.592,0.00480903,398.186,-0.000109353,-0.000388643,-0.0616054,0.311825,-0.248431,0.646799,1.00045e-06,-4.74553e-07,0.494172,-0.059746162237970135,0.9094189860571122,1.000450500443506e-06,0.3659156368762233,-4.7455288743059043e-07,-0.21997631938770867
657,0.6473,229.979,689.751,0.00479166,398.277,-0.00010943,-0.000388328,-0.0616811,0.312204,-0.248734,0.647588,1.00011e-06,-4.75399e-07,0.494778,-0.059817336759499073,0.9109261121201584,1.0001105001933297e-06,0.36643341701573795,-4.753988870342951e-07,-0.22021263075995334
658,0.6483,230.032,689.909,0.00477434,398.368,-0.000109507,-0.000388016,-0.0617568,0.312584,-0.249037,0.648376,9.99764e-07,-4.76245e-07,0.495384,-0.05988850589332073,0.9124325153414288,9.99764499853839e-07,0.36695276038319413,-4.762448866379998e-07,-0.22044887054069895
659,0.6493,230.085,690.067,0.00475707,398.46,-0.000109584,-0.000387704,-0.0618324,0.312963,-0.24934,0.649163,9.99422e-07,-4.77089e-07,0.49599,-0.05995957563580501,0.9139381921371077,9.994224994258616e-07,0.3674709336670141,-4.770888861749256e-07,-0.22068503875163425
660,0.6503,230.137,690.225,0.00473986,398.551,-0.00010966,-0.000387394,-0.061908,0.313342,-0.249643,0.649951,9.9908e-07,-4.77933e-07,0.496595,-0.06003064000561997,0.9154469698128436,9.99080498997884e-07,0.3679893033757289,-4.779328858228737e-07,-0.2209211354144418
661,0.6513,230.19,690.382,0.0047227,398.642,-0.000109736,-0.000387085,-0.0619835,0.31372,-0.249946,0.650737,9.98738e-07,-4.78775e-07,0.4972,-0.06010160501333672,0.9169531029639046,9.987384987919512e-07,0.368506501076612,-4.78774885404043e-07,-0.22115716055079726
662,0.6523,230.242,690.54,0.0047056,398.733,-0.000109812,-0.000386778,-0.062059,0.314099,-0.250249,0.651523,9.98397e-07,-4.79616e-07,0.497804,-0.06017256466339771,0.9184604204009856,9.983974984528743e-07,0.36902526333975927,-4.79615885007334e-07,-0.22139311418236995
663,0.6533,230.295,690.697,0.00468855,398.823,-0.000109888,-0.000386472,-0.0621344,0.314477,-0.250551,0.652309,9.98056e-07,-4.80456e-07,0.498408,-0.06024342498055457,0.9199689230553019,9.980564981137974e-07,0.3695428527075293,-4.804558846327467e-07,-0.22162821795942977
664,0.6543,230.347,690.853,0.00467155,398.914,-0.000109964,-0.000386167,-0.0622098,0.314855,-0.250853,0.653094,9.97716e-07,-4.81295e-07,0.499012,-0.060314279955045014,0.9214766903811487,9.977164976415764e-07,0.3700606377610627,-4.812948841692588e-07,-0.22186325074586888
665,0.6553,230.399,691.01,0.0046546,399.004,-0.000110039,-0.000385864,-0.0622852,0.315233,-0.251155,0.653879,9.97375e-07,-4.82133e-07,0.499615,-0.0603851295872716,0.9229856417690299,9.973754973024995e-07,0.3705786185743425,-4.821328837278926e-07,-0.22209821256312345
666,0.6563,230.451,691.166,0.00463771,399.094,-0.000110115,-0.000385562,-0.0623605,0.31561,-0.251457,0.654664,9.97035e-07,-4.8297e-07,0.500218,-0.060455879923230205,0.924495778148799,9.970354970523232e-07,0.3710954241252702,-4.829698834196705e-07,-0.2223331034326228
667,0.6573,230.503,691.322,0.00462086,399.184,-0.00011019,-0.000385261,-0.0624357,0.315988,-0.251759,0.655447,9.96695e-07,-4.83806e-07,0.500821,-0.060526530984546745,0.9260032484406908,9.966954968021469e-07,0.3716137961617323,-4.838058829115255e-07,-0.22256792337579012
668,0.6583,230.555,691.478,0.00460407,399.274,-0.000110265,-0.000384962,-0.0625109,0.316365,-0.25206,0.656231,9.96355e-07,-4.84641e-07,0.501423,-0.060597176733103275,0.9275138270569121,9.96355496329926e-07,0.3721309920481841,-4.846408825365245e-07,-0.22280189521632543
669,0.6593,230.607,691.633,0.00458734,399.364,-0.00011034,-0.000384663,-0.0625861,0.316741,-0.252361,0.657014,9.96016e-07,-4.85475e-07,0.502025,-0.060667817169299254,0.929023661406507,9.960164959466056e-07,0.37264701030654734,-4.854748821836452e-07,-0.22303579664193485
670,0.6603,230.659,691.789,0.00457065,399.454,-0.000110414,-0.000384367,-0.0626612,0.317118,-0.252662,0.657796,9.95677e-07,-4.86308e-07,0.502626,-0.06073835836737462,0.9305327478856367,9.956774957853298e-07,0.37316459578816596,-4.863078817418653e-07,-0.22326962767380987
671,0.6613,230.71,691.944,0.00455341,399.543,-0.000110208,-0.000381865,-0.0627363,0.317494,-0.252963,0.658578,9.95388e-07,-4.87154e-07,0.503228,-0.060808894268005065,0.9320430149319345,9.953884954061465e-07,0.373681002754608,-4.8715388134557e-07,-0.22350338833313588
672,0.6623,230.762,692.098,0.00453645,399.633,-0.000110051,-0.000380176,-0.0628113,0.317871,-0.253264,0.659359,9.95099e-07,-4.88007e-07,0.503828,-0.060879330959526023,0.9335525299154688,9.950994950269632e-07,0.3741989781248689,-4.88006880905445e-07,-0.22373707864109182
673,0.6633,230.814,692.253,0.00452125,399.722,-0.000109973,-0.000377606,-0.0628863,0.318247,-0.253565,0.66014,9.9481e-07,-4.88842e-07,0.504429,-0.060949762368493254,0.9350632242906975,9.948104948698244e-07,0.37471577409219714,-4.88841880530444e-07,-0.22397069861885044
674,0.6643,230.865,692.407,0.00450421,399.811,-0.000110009,-0.000375941,-0.0629613,0.318622,-0.253865,0.660921,9.94519e-07,-4.89685e-07,0.505029,-0.061020188495302774,0.9365750989790858,9.945194945348845e-07,0.37523138917926824,-4.896848800894915e-07,-0.22420347249143802
675,0.6653,230.916,692.561,0.00448812,399.9,-0.000110201,-0.000374291,-0.0630361,0.318998,-0.254165,0.661701,9.94226e-07,-4.90524e-07,0.505629,-0.06109042155845401,0.9380862168156319,9.94226494244188e-07,0.375748573406141,-4.905238797370259e-07,-0.22443617654233772
676,0.6663,230.968,692.715,0.00447159,399.989,-0.000110392,-0.000372921,-0.063111,0.319373,-0.254465,0.662481,9.93933e-07,-4.91363e-07,0.506228,-0.06116074325229903,0.9395985137838923,9.939334939534916e-07,0.3762645758655827,-4.913628792735381e-07,-0.22466881079249268
677,0.6673,231.019,692.869,0.00445534,400.078,-0.000110682,-0.000371635,-0.0631858,0.319748,-0.254765,0.66326,9.93638e-07,-4.92201e-07,0.506827,-0.06123096580234766,0.9411100496929279,9.936384937070386e-07,0.37678077186223247,-4.922008788321719e-07,-0.22490137526284015
678,0.6683,231.07,693.022,0.00443902,400.166,-0.000110995,-0.000370505,-0.0632606,0.320123,-0.255065,0.664039,9.93343e-07,-4.93038e-07,0.507426,-0.06130118309994592,0.9426227635471871,9.933434934605856e-07,0.3772971614686804,-4.930378784129275e-07,-0.22513386997431084
679,0.6693,231.121,693.175,0.00442281,400.254,-0.000111365,-0.000369469,-0.0633353,0.320497,-0.255364,0.664817,9.93046e-07,-4.93873e-07,0.508024,-0.06137130128262158,0.9441347121289618,9.930464930363314e-07,0.3778123669444884,-4.938728780379265e-07,-0.22536552031373702
680,0.6703,231.172,693.328,0.00440662,400.343,-0.000111759,-0.000368539,-0.06341,0.320872,-0.255663,0.665594,9.92748e-07,-4.94707e-07,0.508622,-0.06144141422766469,0.9456458918175665,9.927484927452213e-07,0.3783291434716354,-4.947068776850472e-07,-0.2255971014000655
681,0.6713,231.223,693.481,0.00439049,400.431,-0.000112186,-0.000367689,-0.0634846,0.321246,-0.255963,0.666372,9.92449e-07,-4.9554e-07,0.509219,-0.06151142808661392,0.9471601933082985,9.924494925872551e-07,0.3788447349808961,-4.955398772432673e-07,-0.22582938742499958
682,0.6723,231.274,693.633,0.00437441,400.519,-0.000112632,-0.000366916,-0.0635592,0.32162,-0.256262,0.667149,9.9215e-07,-4.96372e-07,0.509817,-0.06158143672272409,0.9486737247093016,9.921504922072444e-07,0.3793605193574452,-4.963718768236092e-07,-0.2260608298357949
683,0.6733,231.324,693.785,0.00435838,400.607,-0.000113097,-0.000366206,-0.0636337,0.321993,-0.25656,0.667925,9.91849e-07,-4.97203e-07,0.510414,-0.061651346301524135,0.9501864823937454,9.91849491871477e-07,0.37987511679762176,-4.972028764260727e-07,-0.22629142934747004
684,0.6743,231.375,693.937,0.0043424,400.694,-0.000113573,-0.000365554,-0.0637082,0.322367,-0.256859,0.668701,9.91547e-07,-4.98033e-07,0.51101,-0.061721250672254535,0.9517004144337433,9.915474916688538e-07,0.3803912866090422,-4.980328759396357e-07,-0.22652273362838193
685,0.6753,231.426,694.089,0.00432646,400.782,-0.000114058,-0.00036495,-0.0637826,0.32274,-0.257157,0.669476,9.91245e-07,-4.98861e-07,0.511606,-0.06179105601441348,0.9532135685264036,9.91245491244186e-07,0.3809062685971174,-4.988608756084645e-07,-0.22675319551323436
686,0.6763,231.476,694.24,0.00431058,400.87,-0.00011455,-0.000364391,-0.063857,0.323113,-0.257455,0.670251,9.90942e-07,-4.99689e-07,0.512202,-0.06186085616324832,0.9547278957680227,9.90942490952662e-07,0.3814214427093032,-4.996888751662709e-07,-0.22698358873067703
687,0.6773,231.526,694.392,0.00429475,400.957,-0.000115045,-0.000363868,-0.0639314,0.323486,-0.257754,0.671026,9.90638e-07,-5.00515e-07,0.512797,-0.0619306511191452,0.9562433970681428,9.906384905722376e-07,0.381936809017275,-5.005148747683208e-07,-0.22721468608687
688,0.6783,231.577,694.543,0.00427896,401.044,-0.00011554,-0.000363378,-0.0640057,0.323858,-0.258051,0.6718,9.90333e-07,-5.0134e-07,0.513393,-0.062000347082529994,0.9577581155779173,9.903334903249572e-07,0.3824509851410589,-5.013398742814701e-07,-0.22744416924516642
689,0.6793,231.627,694.693,0.00426322,401.131,-0.000116035,-0.000362917,-0.06408,0.324231,-0.258349,0.672573,9.90027e-07,-5.02165e-07,0.513987,-0.06207003786769705,0.9592720476606242,9.900274899887762e-07,0.38296673553998617,-5.021648739056417e-07,-0.22767435658311452
690,0.6803,231.677,694.844,0.00424753,401.218,-0.000116526,-0.000362481,-0.0641542,0.324603,-0.258647,0.673346,9.89721e-07,-5.02988e-07,0.514582,-0.062139629688998776,0.9607871504652568,9.897214898746398e-07,0.3834812948677082,-5.029878734630344e-07,-0.22790447533545566
691,0.6813,231.727,694.994,0.00423189,401.305,-0.000117013,-0.000362066,-0.0642284,0.324975,-0.258944,0.674119,9.89414e-07,-5.0381e-07,0.515176,-0.062209216346778895,0.9623034248971329,9.894144894495582e-07,0.3839960456471079,-5.038098730425489e-07,-0.22813375365676503
692,0.6823,231.777,695.144,0.0042163,401.392,-0.000117495,-0.000361669,-0.0643026,0.325347,-0.259241,0.674891,9.89106e-07,-5.04631e-07,0.515769,-0.06227879784142054,0.9638189080423805,9.891064891576207e-07,0.3845109879494184,-5.04630872644185e-07,-0.22836296389252408
693,0.6833,231.827,695.294,0.00420075,401.478,-0.000117971,-0.000361289,-0.0643767,0.325718,-0.259538,0.675663,9.88798e-07,-5.0545e-07,0.516363,-0.06234828040813967,0.9653355615923345,9.887984888656831e-07,0.38502473682047067,-5.054498722900647e-07,-0.22859210606295133
694,0.6843,231.877,695.444,0.00418525,401.564,-0.000118439,-0.000360923,-0.0644507,0.326089,-0.259835,0.676434,9.88489e-07,-5.06269e-07,0.516956,-0.06241766406816229,0.9668514195984927,9.88489488484845e-07,0.38553867632771466,-5.06268871824922e-07,-0.22882118018825914
695,0.6853,231.927,695.593,0.0041698,401.651,-0.000118899,-0.000360569,-0.0645247,0.32646,-0.260131,0.677205,9.88179e-07,-5.07087e-07,0.517548,-0.06248704259398419,0.9683684467818336,9.881794882371508e-07,0.3860528065418898,-5.07086871381901e-07,-0.2290494153384547
696,0.6863,231.977,695.742,0.0041544,401.737,-0.00011935,-0.000360226,-0.0645987,0.326831,-0.260428,0.677975,9.87869e-07,-5.07903e-07,0.518141,-0.06255641598598505,0.9698846741584815,9.878694879894567e-07,0.38656712753376166,-5.079028709831235e-07,-0.22927835366307514
697,0.6873,232.026,695.891,0.00413904,401.823,-0.000119793,-0.000359892,-0.0646726,0.327202,-0.260724,0.678745,9.87558e-07,-5.08719e-07,0.518733,-0.06262569050711864,0.9714020694798104,9.87558487652862e-07,0.38708163937412143,-5.08718870584346e-07,-0.22950645350994814
698,0.6883,232.076,696.04,0.00412373,401.909,-0.000120226,-0.000359566,-0.0647465,0.327572,-0.26102,0.679515,9.87247e-07,-5.09533e-07,0.519324,-0.06269495990905427,0.9729206336454839,9.872474873162673e-07,0.3875949545381392,-5.095328702298119e-07,-0.22973448584925793
699,0.6893,232.125,696.188,0.00410847,401.995,-0.000120649,-0.000359246,-0.0648203,0.327942,-0.261316,0.680284,9.86935e-07,-5.10347e-07,0.519915,-0.06276413046858786,0.9744383931164784,9.869354871128166e-07,0.3881084596639084,-5.103468697642555e-07,-0.2299624507009841
700,0.6903,232.175,696.337,0.00409325,402.08,-0.000121063,-0.000358933,-0.0648941,0.328312,-0.261612,0.681052,9.86623e-07,-5.11159e-07,0.520506,-0.0628332959235226,0.975955344237061,9.866234866873214e-07,0.3886221548217277,-5.111588693429425e-07,-0.23019034808509986
701,0.6913,232.224,696.485,0.00407808,402.166,-0.000121468,-0.000358625,-0.0649678,0.328682,-0.261908,0.68182,9.8631e-07,-5.1197e-07,0.521097,-0.06290236256447612,0.9774734608235858,9.8631048639497e-07,0.3891360400819224,-5.119698689437513e-07,-0.2304181780215726
702,0.6923,232.273,696.633,0.00406296,402.251,-0.000121862,-0.000358322,-0.0650416,0.329051,-0.262203,0.682588,9.85997e-07,-5.1278e-07,0.521687,-0.0629715178182586,0.9789927437714745,9.859974861026188e-07,0.3896487258654222,-5.127798685666818e-07,-0.23064517117591976
703,0.6933,232.323,696.78,0.00404788,402.336,-0.000122246,-0.000358023,-0.0651152,0.329421,-0.262498,0.683355,9.85683e-07,-5.13589e-07,0.522277,-0.06304048057668654,0.9805112134646332,9.85683485721367e-07,0.39016299102718066,-5.135888681007117e-07,-0.23087209737716252
704,0.6943,232.372,696.928,0.00403285,402.421,-0.000122621,-0.000357728,-0.0651888,0.32979,-0.262793,0.684122,9.85369e-07,-5.14397e-07,0.522866,-0.06310943825964221,0.98203084827081,9.853694855621598e-07,0.39067605582550335,-5.143968676568633e-07,-0.23109895664504898
705,0.6953,232.421,697.075,0.00401787,402.506,-0.000122986,-0.000357436,-0.0652624,0.330158,-0.263088,0.684888,9.85055e-07,-5.15203e-07,0.523455,-0.06317839086749921,0.9835496655333325,9.85055485180908e-07,0.3911879187910561,-5.152028672572584e-07,-0.2313257489993218
706,0.6963,232.47,697.222,0.00400293,402.591,-0.000123342,-0.000357147,-0.0653359,0.330527,-0.263383,0.685654,9.8474e-07,-5.16009e-07,0.524044,-0.06324724472536014,0.9850696466555791,9.847404849328e-07,0.39170136185751003,-5.160088668576535e-07,-0.23155247445971727
707,0.6973,232.519,697.369,0.00398803,402.676,-0.000123688,-0.00035686,-0.0654094,0.330895,-0.263677,0.686419,9.84425e-07,-5.16814e-07,0.524633,-0.06331609352264855,0.9865888059396093,9.844254844626477e-07,0.3922136022051166,-5.168138664801702e-07,-0.23177836482471537
708,0.6983,232.568,697.515,0.00397318,402.76,-0.000124024,-0.000356577,-0.0654829,0.331264,-0.263972,0.687184,9.8411e-07,-5.17617e-07,0.525221,-0.06338493725973626,0.9881091278251302,9.841104842145398e-07,0.39272742381858783,-5.176168660359082e-07,-0.23200495678313504
709,0.6993,232.616,697.661,0.00395838,402.845,-0.000124352,-0.000356295,-0.0655563,0.331632,-0.264266,0.687949,9.83794e-07,-5.1842e-07,0.525809,-0.06345368228236825,0.989630613201872,9.837944838775314e-07,0.3932400418264814,-5.184198655916461e-07,-0.23223071413788343
710,0.7003,232.665,697.807,0.00394362,402.929,-0.000124671,-0.000356016,-0.0656296,0.331999,-0.26456,0.688713,9.83478e-07,-5.19221e-07,0.526396,-0.06352232861153828,0.9911512718079789,9.83478483540523e-07,0.3937514547603649,-5.192208651916275e-07,-0.23245640512972554
711,0.7013,232.714,697.953,0.0039289,403.014,-0.00012498,-0.000355739,-0.0657029,0.332367,-0.264854,0.689476,9.83162e-07,-5.20022e-07,0.526983,-0.06359096990911672,0.9926710999690787,9.831624832035146e-07,0.39426444968099283,-5.200218647916088e-07,-0.23268202977816888
712,0.7023,232.762,698.099,0.00391423,403.098,-0.000125282,-0.000355463,-0.0657762,0.332734,-0.265147,0.690239,9.82846e-07,-5.20821e-07,0.52757,-0.0636596061754725,0.9941920882015767,9.828464830885508e-07,0.39477623864155564,-5.208208643248113e-07,-0.23290682100992022
713,0.7033,232.811,698.244,0.00389961,403.182,-0.000125575,-0.00035519,-0.0658494,0.333101,-0.265441,0.691002,9.82529e-07,-5.21619e-07,0.528156,-0.06372814378379343,0.9957142373909444,9.825294826626418e-07,0.3952882154631374,-5.216188639911579e-07,-0.23313231325555894
714,0.7043,232.859,698.39,0.00388502,403.265,-0.00012586,-0.000354918,-0.0659226,0.333468,-0.265734,0.691764,9.82212e-07,-5.22416e-07,0.528742,-0.06379667637534492,0.9972355511867808,9.822124824587775e-07,0.39580038021469566,-5.224158635686038e-07,-0.2333569725735778
715,0.7053,232.907,698.535,0.00387049,403.349,-0.000126137,-0.000354649,-0.0659958,0.333835,-0.266027,0.692526,9.81895e-07,-5.23212e-07,0.529328,-0.06386520395049444,0.9987580246655126,9.818954820328685e-07,0.39631273296521363,-5.232118631681715e-07,-0.23358156607605884
716,0.7063,232.956,698.679,0.00385599,403.433,-0.000126406,-0.000354381,-0.0660689,0.334201,-0.26632,0.693287,9.81578e-07,-5.24007e-07,0.529913,-0.06393363290297693,1.0002796584304963,9.81578481829004e-07,0.3968238769591239,-5.240068626788386e-07,-0.23380609378228334
717,0.7073,233.004,698.824,0.00384154,403.516,-0.000126668,-0.000354114,-0.0661419,0.334567,-0.266613,0.694048,9.8126e-07,-5.24801e-07,0.530498,-0.0640019632536869,1.001802450599492,9.812604815362391e-07,0.39733520806597533,-5.248008623226497e-07,-0.23403055571152664
718,0.7083,233.052,698.968,0.00382714,403.6,-0.000126922,-0.00035385,-0.0662149,0.334934,-0.266906,0.694809,9.80943e-07,-5.25594e-07,0.531083,-0.06407028861646336,1.0033264020543808,9.809434811103301e-07,0.3978481242016896,-5.255938618775602e-07,-0.23425495188305867
719,0.7093,233.1,699.112,0.00381278,403.683,-0.000127169,-0.000353587,-0.0662879,0.335299,-0.267198,0.695569,9.80625e-07,-5.26386e-07,0.531667,-0.06413860899167023,1.0048495088272036,9.806254808175652e-07,0.3983584318925113,-5.263858614545924e-07,-0.23447851679504317
720,0.7103,233.148,699.256,0.00379846,403.766,-0.00012741,-0.000353326,-0.0663608,0.335665,-0.267491,0.696328,9.80307e-07,-5.27177e-07,0.532251,-0.0642068308003596,1.006371767228388,9.803074805248002e-07,0.39887032474926243,-5.271768610537464e-07,-0.23470278173320436
721,0.7113,233.196,699.4,0.00378418,403.849,-0.000127644,-0.000353067,-0.0664337,0.33603,-0.267783,0.697087,9.79989e-07,-5.27967e-07,0.532835,-0.06427504763586045,1.007895181462282,9.799894802320352e-07,0.39938100561138357,-5.279668606750221e-07,-0.2349262158979627
722,0.7123,233.244,699.544,0.00376995,403.932,-0.000127871,-0.00035281,-0.0665066,0.336395,-0.268075,0.697846,9.7967e-07,-5.28756e-07,0.533418,-0.06434325949853514,1.0094197524064956,9.796704798503697e-07,0.39989187290604145,-5.287558602073972e-07,-0.23514958482946935
723,0.7133,233.292,699.687,0.00375576,404.015,-0.000128092,-0.000352554,-0.0665794,0.33676,-0.268366,0.698604,9.79352e-07,-5.29544e-07,0.534001,-0.06441137282988829,1.0109434699948294,9.793524795576047e-07,0.40040292670129585,-5.29543859761894e-07,-0.23537212391927598
724,0.7143,233.339,699.83,0.00374161,404.097,-0.000128307,-0.0003523,-0.0666521,0.337125,-0.268658,0.699362,9.79033e-07,-5.3033e-07,0.534584,-0.06447938765071493,1.0124683429989427,9.790334791759392e-07,0.40091416706523253,-5.303298593606343e-07,-0.23559536266464853
725,0.7153,233.387,699.973,0.00372751,404.18,-0.000128516,-0.000352048,-0.0667249,0.33749,-0.26895,0.700119,9.78715e-07,-5.31116e-07,0.535166,-0.06454749107229929,1.013992358301607,9.787154788831742e-07,0.401425594065961,-5.311158589593745e-07,-0.23581853623382365
726,0.7163,233.434,700.116,0.00371345,404.262,-0.00012872,-0.000351798,-0.0667975,0.337854,-0.269241,0.700876,9.78396e-07,-5.31901e-07,0.535748,-0.06461540245923425,1.0155175277206334,9.783964787235533e-07,0.4019358058351097,-5.319008585802365e-07,-0.2360408806870926
727,0.7173,233.482,700.258,0.00369943,404.344,-0.000128917,-0.00035155,-0.0668702,0.338218,-0.269532,0.701633,9.78077e-07,-5.32685e-07,0.53633,-0.06468340244764603,1.0170438521300187,9.780774783418877e-07,0.4024462033551468,-5.326848581121979e-07,-0.23626316044753892
728,0.7183,233.529,700.4,0.00368545,404.427,-0.00012911,-0.000351304,-0.0669428,0.338582,-0.269823,0.702389,9.77758e-07,-5.33468e-07,0.536911,-0.06475130396777329,1.0185693138340985,9.777584779602222e-07,0.40295678669369805,-5.33467857666281e-07,-0.23648537553398552
729,0.7193,233.577,700.542,0.00367152,404.509,-0.000129297,-0.000351059,-0.0670153,0.338946,-0.270114,0.703144,9.77439e-07,-5.34249e-07,0.537492,-0.06481910704034455,1.0200939091283452,9.774394778006013e-07,0.403467555918414,-5.342488572646076e-07,-0.2367075259652498
730,0.7203,233.624,700.684,0.00365763,404.59,-0.000129479,-0.000350816,-0.0670878,0.339309,-0.270404,0.7039,9.7712e-07,-5.3503e-07,0.538072,-0.06488690519737117,1.0216216775473441,9.771204774189357e-07,0.40397710711916,-5.350298568629341e-07,-0.2369288486893737
731,0.7213,233.671,700.826,0.00364378,404.672,-0.000129656,-0.000350575,-0.0671603,0.339672,-0.270695,0.704654,9.76801e-07,-5.3581e-07,0.538653,-0.06495469843920965,1.0231465550988088,9.768014770372702e-07,0.4044868433205675,-5.358098564833824e-07,-0.23715087008872482
732,0.7223,233.718,700.967,0.00362997,404.754,-0.000129829,-0.000350336,-0.0672327,0.340035,-0.270985,0.705409,9.76482e-07,-5.36589e-07,0.539233,-0.06502239326846027,1.0246746075151099,9.764824766556046e-07,0.4049967645898038,-5.365888560149301e-07,-0.23737206426169377
733,0.7233,233.765,701.108,0.0036162,404.835,-0.000129997,-0.000350099,-0.0673051,0.340398,-0.271275,0.706162,9.76163e-07,-5.37367e-07,0.539812,-0.06509008319678267,1.0261997616430332,9.761634764959837e-07,0.405506870994061,-5.373668555685995e-07,-0.2375931942976529
734,0.7243,233.812,701.25,0.00360247,404.917,-0.000130161,-0.000349864,-0.0673774,0.340761,-0.271565,0.706916,9.75844e-07,-5.38144e-07,0.540391,-0.06515767474030387,1.0277280923715901,9.758444761143181e-07,0.4060171626005551,-5.38143855255413e-07,-0.23781426021519925
735,0.7253,233.859,701.39,0.00358879,404.998,-0.00013032,-0.000349631,-0.0674497,0.341123,-0.271855,0.707669,9.75525e-07,-5.3892e-07,0.54097,-0.06522526139713303,1.0292555466395044,9.755254757326526e-07,0.40652623294959045,-5.389198547423035e-07,-0.23803526203292436
736,0.7263,233.906,701.531,0.00357514,405.079,-0.000130475,-0.000349399,-0.067522,0.341486,-0.272144,0.708421,9.75205e-07,-5.39695e-07,0.541549,-0.06529284316762352,1.0307821207304952,9.75205475484131e-07,0.4070368946516427,-5.396948543623381e-07,-0.23825543802523352
737,0.7273,233.953,701.671,0.00356154,405.16,-0.000130626,-0.00034917,-0.0675942,0.341848,-0.272434,0.709173,9.74886e-07,-5.40469e-07,0.542127,-0.06536032658816604,1.0323098432369524,9.748864751024655e-07,0.40754633421050346,-5.404688538934721e-07,-0.23847631191994356
738,0.7283,234.0,701.812,0.00354798,405.241,-0.000130773,-0.000348942,-0.0676664,0.342209,-0.272723,0.709925,9.74567e-07,-5.41242e-07,0.542705,-0.06542780513658153,1.0338387150228097,9.745674749428446e-07,0.4080545501646138,-5.412418535577501e-07,-0.23869636046725207
739,0.7293,234.046,701.952,0.00353446,405.322,-0.000130916,-0.000348716,-0.0677385,0.342571,-0.273012,0.710676,9.74248e-07,-5.42014e-07,0.543283,-0.06549518536274479,1.0353667015849304,9.74248474561179e-07,0.4085643581814573,-5.420138531331276e-07,-0.23891634542971874
740,0.7303,234.093,702.091,0.00352098,405.403,-0.000131056,-0.000348492,-0.0678106,0.342932,-0.273301,0.711427,9.73928e-07,-5.42785e-07,0.54386,-0.06556256073096889,1.03689583609596,9.739284743126575e-07,0.4090729417085641,-5.427848527306267e-07,-0.2391362668257172
741,0.7313,234.14,702.231,0.00350754,405.484,-0.000131192,-0.00034827,-0.0678826,0.343293,-0.27359,0.712177,9.73609e-07,-5.43556e-07,0.544437,-0.06562983780459264,1.0384240809932317,9.73609473930992e-07,0.4095817088674678,-5.435558523281259e-07,-0.23935612467361533
742,0.7323,234.186,702.37,0.00349414,405.564,-0.000131324,-0.00034805,-0.0679546,0.343654,-0.273878,0.712927,9.7329e-07,-5.44325e-07,0.545013,-0.06569711003444134,1.039953472504103,9.732904735493264e-07,0.41009065972447156,-5.443248518588462e-07,-0.2395751585673147
743,0.7333,234.232,702.51,0.00348078,405.645,-0.000131454,-0.000347832,-0.0680266,0.344015,-0.274167,0.713677,9.72971e-07,-5.45093e-07,0.54559,-0.06576437742086383,1.0414840114888566,9.729714733897055e-07,0.4105997943459019,-5.450928514116882e-07,-0.239794889593826
744,0.7343,234.279,702.649,0.00346746,405.725,-0.00013158,-0.000347615,-0.0680985,0.344376,-0.274455,0.714426,9.72651e-07,-5.45861e-07,0.546166,-0.06583154654736834,1.043013655793743,9.726514729191393e-07,0.41110911279811013,-5.458608509645302e-07,-0.24001379714142312
745,0.7353,234.325,702.788,0.00345417,405.805,-0.000131703,-0.000347401,-0.0681704,0.344736,-0.274743,0.715174,9.72332e-07,-5.46628e-07,0.546741,-0.0658987108445861,1.0445424016879628,9.723324727595184e-07,0.41161720352956177,-5.466278506505162e-07,-0.24023264165272407
746,0.7363,234.371,702.926,0.00344093,405.885,-0.000131822,-0.000347188,-0.0682423,0.345096,-0.275031,0.715922,9.72013e-07,-5.47393e-07,0.547316,-0.0659658703128646,1.0460722915118876,9.720134723778528e-07,0.412125477206605,-5.473928501587011e-07,-0.24045142314588086
747,0.7373,234.417,703.065,0.00342773,405.965,-0.000131939,-0.000346977,-0.0683141,0.345456,-0.275319,0.71667,9.71694e-07,-5.48158e-07,0.547891,-0.06603293155584866,1.0476033261214979,9.716944719961873e-07,0.41263393389511194,-5.481578497779083e-07,-0.24067014163904
748,0.7383,234.464,703.203,0.00341457,406.045,-0.000132053,-0.000346768,-0.0683858,0.345816,-0.275606,0.717417,9.71375e-07,-5.48922e-07,0.548466,-0.06609989459400245,1.0491334572389306,9.713754718365664e-07,0.4131425736609786,-5.489218493082149e-07,-0.2408880380387607
749,0.7393,234.51,703.341,0.00340145,406.124,-0.000132164,-0.00034656,-0.0684575,0.346175,-0.275894,0.718164,9.71056e-07,-5.49685e-07,0.54904,-0.06616685283107859,1.0506647317913282,9.710564714549008e-07,0.41364998291943533,-5.496848489716655e-07,-0.24110663080493622
750,0.7403,234.555,703.479,0.00338837,406.204,-0.000132273,-0.000346355,-0.0685292,0.346534,-0.276181,0.718911,9.70737e-07,-5.50447e-07,0.549614,-0.06623380626742126,1.0521971506331549,9.707374710732353e-07,0.41415757437051726,-5.504468485462155e-07,-0.24132440195024107
751,0.7413,234.601,703.616,0.00337532,406.284,-0.000132379,-0.000346151,-0.0686008,0.346894,-0.276468,0.719657,9.70418e-07,-5.51208e-07,0.550188,-0.06630066153344538,1.0537286608898273,9.704184709136143e-07,0.4146667627456988,-5.51207848031865e-07,-0.24154211060419517
752,0.7423,234.647,703.754,0.00336232,406.363,-0.000132482,-0.000345949,-0.0686724,0.347252,-0.276755,0.720402,9.70099e-07,-5.51969e-07,0.550761,-0.06636751201280389,1.0552592588191252,9.700994705319488e-07,0.4151733041122565,-5.519688476285367e-07,-0.24175975678473083
753,0.7433,234.693,703.891,0.00334935,406.442,-0.000132583,-0.000345748,-0.068744,0.347611,-0.277042,0.721148,9.6978e-07,-5.52728e-07,0.551334,-0.06643435770583939,1.0567930542607726,9.697804701502832e-07,0.415681442533822,-5.527278472694519e-07,-0.2419773405097756
754,0.7443,234.739,704.028,0.00333642,406.521,-0.000132681,-0.000345549,-0.0688155,0.34797,-0.277328,0.721892,9.69462e-07,-5.53487e-07,0.551907,-0.0665011052630099,1.058323877688844,9.694624698575183e-07,0.4161897634098295,-5.534868467993448e-07,-0.24219410399173436
755,0.7453,234.784,704.165,0.00332353,406.6,-0.000132777,-0.000345352,-0.068887,0.348328,-0.277615,0.722637,9.69143e-07,-5.54244e-07,0.552479,-0.06656784804790061,1.0598579003302042,9.691434696978973e-07,0.4166968501082333,-5.542438463734811e-07,-0.24241156307701728
756,0.7463,234.83,704.302,0.00331068,406.679,-0.000132871,-0.000345157,-0.0689584,0.348686,-0.277901,0.723381,9.68824e-07,-5.55001e-07,0.553051,-0.06663449272430666,1.0613910048522133,9.688244693162318e-07,0.4172041183761743,-5.550008459476174e-07,-0.242628202389079
757,0.7473,234.875,704.438,0.00329787,406.758,-0.000132963,-0.000344963,-0.0690298,0.349044,-0.278187,0.724124,9.68506e-07,-5.55757e-07,0.553623,-0.06670113264245281,1.062923187504187,9.685064690234668e-07,0.41771156827866585,-5.557568455438755e-07,-0.2428447797511567
758,0.7483,234.921,704.574,0.00328509,406.837,-0.000133052,-0.000344771,-0.0691011,0.349401,-0.278473,0.724867,9.68187e-07,-5.56512e-07,0.554194,-0.06676767447945064,1.0644565089908955,9.681874686418013e-07,0.4182177816622539,-5.565118451622553e-07,-0.24306129518096553
759,0.7493,234.966,704.711,0.00327236,406.915,-0.00013314,-0.00034458,-0.0691724,0.349759,-0.278759,0.72561,9.67869e-07,-5.57266e-07,0.554765,-0.06683421157218472,1.0659909701588082,9.678694683490363e-07,0.418725594521167,-5.572658446917345e-07,-0.24327774869621566
760,0.7503,235.011,704.846,0.00325966,406.994,-0.000133225,-0.000344391,-0.0692437,0.350116,-0.279045,0.726352,9.67551e-07,-5.5802e-07,0.555336,-0.06690074392099321,1.0675245043294845,9.675514680562713e-07,0.4192321699767496,-5.58019844332236e-07,-0.24349414031461214
761,0.7513,235.057,704.982,0.003247,407.072,-0.000133309,-0.000344203,-0.0693149,0.350473,-0.27933,0.727094,9.67233e-07,-5.58772e-07,0.555906,-0.06696717822293685,1.0690591768047741,9.672334677635064e-07,0.419738926312055,-5.587718439059586e-07,-0.2437097137639468
762,0.7523,235.102,705.118,0.00323438,407.151,-0.00013339,-0.000344018,-0.0693861,0.35083,-0.279615,0.727835,9.66915e-07,-5.59524e-07,0.556476,-0.06703360779492651,1.070592917835659,9.669154674707414e-07,0.4202458635916688,-5.595238434796812e-07,-0.24392522578360254
763,0.7533,235.147,705.253,0.00322179,407.229,-0.00013347,-0.000343833,-0.0694573,0.351187,-0.2799,0.728576,9.66597e-07,-5.60275e-07,0.557046,-0.06710003263729913,1.0721277957898265,9.665974671779765e-07,0.4207529818801996,-5.602748430755256e-07,-0.24414067639108428
764,0.7543,235.192,705.388,0.00320924,407.307,-0.000133548,-0.00034365,-0.0695284,0.351543,-0.280185,0.729316,9.66279e-07,-5.61025e-07,0.557615,-0.06716635946703187,1.073661737847273,9.662794668852115e-07,0.4212588599827085,-5.610248425824693e-07,-0.24435606560389211
765,0.7553,235.237,705.523,0.00319673,407.385,-0.000133625,-0.000343469,-0.0695994,0.351899,-0.28047,0.730057,9.65961e-07,-5.61774e-07,0.558184,-0.06723258830435819,1.0751988906397925,9.659614665924465e-07,0.42176491820988216,-5.617738422225571e-07,-0.24457139343952095
766,0.7563,235.282,705.658,0.00318426,407.462,-0.000133699,-0.000343289,-0.0696705,0.352255,-0.280755,0.730796,9.65643e-07,-5.62522e-07,0.558753,-0.06729890570971797,1.076733029414434,9.656434662996816e-07,0.42227115662585635,-5.625218417737443e-07,-0.24478665991546067
767,0.7573,235.327,705.793,0.00317182,407.54,-0.000133772,-0.00034311,-0.0697415,0.352611,-0.281039,0.731535,9.65325e-07,-5.6327e-07,0.559321,-0.0673651251365952,1.0782683023366455,9.653254660069166e-07,0.42277757529478976,-5.632698413249315e-07,-0.24500111005068415
768,0.7583,235.372,705.927,0.00315942,407.618,-0.000133844,-0.000342933,-0.0698124,0.352967,-0.281324,0.732274,9.65008e-07,-5.64017e-07,0.559889,-0.06743124660518918,1.079804710244872,9.650084655810076e-07,0.42328417428086373,-5.640168408982404e-07,-0.24521625407484005
769,0.7593,235.416,706.061,0.00314705,407.695,-0.000133913,-0.000342758,-0.0698833,0.353322,-0.281608,0.733013,9.6469e-07,-5.64763e-07,0.560457,-0.06749736338593737,1.0813422539781792,9.646904652882426e-07,0.4237895298580412,-5.647628404936711e-07,-0.24543058222264524
770,0.7603,235.461,706.195,0.00313473,407.773,-0.000133982,-0.000342583,-0.0699542,0.353677,-0.281892,0.733751,9.64373e-07,-5.65508e-07,0.561024,-0.06756347547917185,1.0828788514963574,9.643734650843783e-07,0.42429506486829593,-5.655078401112235e-07,-0.24564484950989895
771,0.7613,235.506,706.329,0.00312244,407.85,-0.000134049,-0.00034241,-0.070025,0.354032,-0.282176,0.734488,9.64056e-07,-5.66252e-07,0.561591,-0.06762948964817883,1.0844144990265154,9.640564646584693e-07,0.4248007793753381,-5.662518396398752e-07,-0.24585905595388335
772,0.7623,235.55,706.463,0.00311018,407.927,-0.000134114,-0.000342239,-0.0700958,0.354387,-0.282459,0.735225,9.63739e-07,-5.66995e-07,0.562158,-0.067695499143548,1.0859512787460637,9.63739464454605e-07,0.4253066734429005,-5.66994839301671e-07,-0.24607244764470004
773,0.7633,235.595,706.596,0.00309797,408.004,-0.000134178,-0.000342068,-0.0701665,0.354742,-0.282743,0.735962,9.63422e-07,-5.67738e-07,0.562725,-0.06776141074175612,1.0874891914897336,9.63422464028696e-07,0.42581274713473816,-5.677378388524446e-07,-0.24628653266805667
774,0.7643,235.639,706.73,0.00308578,408.081,-0.000134241,-0.000341899,-0.0702372,0.355096,-0.283026,0.736698,9.63105e-07,-5.6848e-07,0.563291,-0.06782731768017891,1.0890261490656776,9.631054638248315e-07,0.42631757419634186,-5.684798384253398e-07,-0.2464998034000796
775,0.7653,235.683,706.863,0.00307364,408.158,-0.000134303,-0.000341732,-0.0703079,0.35545,-0.283309,0.737434,9.62788e-07,-5.69221e-07,0.563857,-0.06789321995914588,1.0905642382587817,9.627884633989225e-07,0.4268225799983605,-5.692208380203567e-07,-0.24671301378502497
776,0.7663,235.728,706.996,0.00306153,408.235,-0.000134363,-0.000341565,-0.0703785,0.355804,-0.283592,0.73817,9.62472e-07,-5.69961e-07,0.564422,-0.06795902437489354,1.0921034599022224,9.624724632839587e-07,0.4273277646040796,-5.699608375264731e-07,-0.24692616383996846
777,0.7673,235.772,707.128,0.00304946,408.311,-0.000134422,-0.0003414,-0.0704491,0.356158,-0.283875,0.738905,9.62155e-07,-5.70701e-07,0.564987,-0.06802482414501354,1.093641721187022,9.621554628580498e-07,0.4278331280768064,-5.707008371436117e-07,-0.24713925358198108
778,0.7683,235.816,707.261,0.00303742,408.388,-0.00013448,-0.000341236,-0.0705196,0.356512,-0.284158,0.739639,9.61839e-07,-5.71439e-07,0.565552,-0.06809052607889088,1.0951790183294055,9.618394625210414e-07,0.42833867047987173,-5.714388366939716e-07,-0.24735228302812895
779,0.7693,235.86,707.393,0.00302541,408.464,-0.000134536,-0.000341074,-0.0705901,0.356865,-0.284441,0.740374,9.61523e-07,-5.72177e-07,0.566117,-0.06815622338094518,1.0967195409805996,9.61523462184033e-07,0.42884296303295,-5.721768363553537e-07,-0.24756525219547343
780,0.7703,235.904,707.526,0.00301345,408.541,-0.000134592,-0.000340912,-0.0706606,0.357218,-0.284723,0.741107,9.61206e-07,-5.72914e-07,0.566681,-0.06822191605150307,1.0982569998139624,9.612064619801686e-07,0.429347433632723,-5.729138359278352e-07,-0.24777740887885602
781,0.7713,235.948,707.658,0.00300152,408.617,-0.000134647,-0.000340752,-0.070731,0.357571,-0.285005,0.741841,9.6089e-07,-5.7365e-07,0.567245,-0.06828751091964658,1.099797685814417,9.608904616431602e-07,0.4298520823420524,-5.736498354114161e-07,-0.2479895057424888
782,0.7723,235.992,707.789,0.00298962,408.693,-0.0001347,-0.000340593,-0.0708014,0.357924,-0.285287,0.742574,9.60575e-07,-5.74386e-07,0.567809,-0.06835310117007387,1.1013374017550714,9.605754613950523e-07,0.4303569092238215,-5.743858350060194e-07,-0.2482015428032387
783,0.7733,236.036,707.921,0.00297776,408.769,-0.000134752,-0.000340435,-0.0708718,0.358277,-0.285569,0.743306,9.60259e-07,-5.75121e-07,0.568372,-0.06841868680311014,1.1028761438440533,9.60259461058044e-07,0.4308619143409367,-5.751208346227443e-07,-0.2484135200779677
784,0.7743,236.08,708.053,0.00296593,408.845,-0.000134804,-0.000340278,-0.0709421,0.358629,-0.285851,0.744039,9.59943e-07,-5.75855e-07,0.568935,-0.06848417466750245,1.1044181171216567,9.599434607210355e-07,0.4313656663899439,-5.758548341505687e-07,-0.24862543758353306
785,0.7753,236.124,708.184,0.00295414,408.921,-0.000134854,-0.000340122,-0.0710123,0.358981,-0.286133,0.74477,9.59628e-07,-5.76588e-07,0.569497,-0.06854956478322094,1.105957009161786,9.596284604729277e-07,0.43186959579088446,-5.765878338115371e-07,-0.24883729533678733
786,0.7763,236.168,708.315,0.00294238,408.997,-0.000134904,-0.000339968,-0.0710826,0.359333,-0.286414,0.745502,9.59312e-07,-5.7732e-07,0.57006,-0.0686150434472147,1.1074991340413396,9.593124601359193e-07,0.43237370260619734,-5.773198333836049e-07,-0.2490483424032961
787,0.7773,236.211,708.446,0.00293066,409.072,-0.000134952,-0.000339814,-0.0711527,0.359685,-0.286695,0.746233,9.58997e-07,-5.78052e-07,0.570622,-0.06868033124430495,1.1090402791282257,9.589974598878115e-07,0.4328779868983432,-5.780518329556728e-07,-0.24925933017391066
788,0.7783,236.255,708.577,0.00291897,409.148,-0.000135,-0.000339662,-0.0712229,0.360037,-0.286976,0.746963,9.58682e-07,-5.78783e-07,0.571183,-0.06874570759031506,1.110580440622539,9.586824596397037e-07,0.433382448729805,-5.787828325498623e-07,-0.24947025866529082
789,0.7793,236.298,708.707,0.00290732,409.223,-0.000135047,-0.00033951,-0.071293,0.360388,-0.287257,0.747693,9.58367e-07,-5.79513e-07,0.571745,-0.06881098622816995,1.1121217268452188,9.583674591695512e-07,0.43388565427671644,-5.795128320551513e-07,-0.2496811278940917
790,0.7803,236.342,708.838,0.0028957,409.299,-0.000135093,-0.00033936,-0.0713631,0.360739,-0.287538,0.748423,9.58052e-07,-5.80242e-07,0.572306,-0.06887626029015281,1.1136641386176165,9.580524589214434e-07,0.434389036479776,-5.802418316935842e-07,-0.24989193787696373
791,0.7813,236.385,708.968,0.00288411,409.374,-0.000135138,-0.00033921,-0.0714331,0.36109,-0.287819,0.749152,9.57738e-07,-5.80971e-07,0.572867,-0.06894143667073249,1.1152055615550651,9.577384585401916e-07,0.4348925954010012,-5.809708312209949e-07,-0.2501026886305526
792,0.7823,236.429,709.098,0.00287256,409.449,-0.000135182,-0.000339062,-0.0715031,0.361441,-0.288099,0.749881,9.57423e-07,-5.81699e-07,0.573427,-0.06900660848912532,1.1167481085995217,9.574234582920838e-07,0.4353963311024309,-5.816988307705273e-07,-0.2503126304845049
793,0.7833,236.472,709.228,0.00286104,409.524,-0.000135226,-0.000338915,-0.071573,0.361792,-0.28838,0.750609,9.57109e-07,-5.82426e-07,0.573987,-0.06907168265282337,1.1182896622800387,9.571094581328765e-07,0.4359002436461257,-5.824258303421814e-07,-0.25052326304007877
794,0.7843,236.515,709.358,0.00284956,409.599,-0.000135269,-0.000338769,-0.071643,0.362142,-0.28866,0.751338,9.56794e-07,-5.83153e-07,0.574547,-0.06913684535431652,1.119834458453632,9.56794457662724e-07,0.4364028966905533,-5.831528299138355e-07,-0.25073308714968134
795,0.7853,236.558,709.487,0.00283811,409.674,-0.000135311,-0.000338623,-0.0717128,0.362492,-0.28894,0.752065,9.5648e-07,-5.83878e-07,0.575107,-0.06920181733496233,1.1213761384377001,9.564804575035168e-07,0.4369057256943376,-5.838778295297331e-07,-0.2509428525167575
796,0.7863,236.601,709.617,0.00282669,409.748,-0.000135352,-0.000338479,-0.0717827,0.362842,-0.28922,0.752792,9.56166e-07,-5.84603e-07,0.575666,-0.06926687785403896,1.122918939630627,9.56166457122265e-07,0.43740873071907527,-5.846028291456307e-07,-0.25115255915775303
797,0.7873,236.645,709.746,0.00281531,409.823,-0.000135393,-0.000338335,-0.0718525,0.363192,-0.289499,0.753519,9.55852e-07,-5.85327e-07,0.576225,-0.069331840758733,1.1244628628478273,9.558524567410132e-07,0.4379119118263841,-5.853268286726276e-07,-0.2513614584509416
798,0.7883,236.688,709.875,0.00280396,409.897,-0.000135433,-0.000338193,-0.0719222,0.363542,-0.289779,0.754246,9.55539e-07,-5.86051e-07,0.576783,-0.06939670606884984,1.1260079089053092,9.55539456448662e-07,0.43841526907790374,-5.860508283106469e-07,-0.25157104789868334
799,0.7893,236.73,710.004,0.00279264,409.972,-0.000135472,-0.000338051,-0.0719919,0.363891,-0.290058,0.754972,9.55225e-07,-5.86774e-07,0.577341,-0.06946156685801208,1.12755195106666,9.552254562894547e-07,0.4389173636172128,-5.867738278597656e-07,-0.25177983044979935
800,0.7903,236.773,710.132,0.00278136,410.046,-0.000135511,-0.000337911,-0.0720616,0.364241,-0.290338,0.755697,9.54912e-07,-5.87496e-07,0.577899,-0.06952642312653479,1.1290949855135821,9.549124559971034e-07,0.43942107283845044,-5.87495827431006e-07,-0.25198930276978004
801,0.7913,236.816,710.261,0.00277011,410.12,-0.000135549,-0.000337771,-0.0721313,0.36459,-0.290617,0.756423,9.54599e-07,-5.88217e-07,0.578457,-0.06959127487473327,1.1306412697063095,9.545994557047521e-07,0.43992351846453315,-5.882168270243682e-07,-0.2521979686440643
802,0.7923,236.859,710.389,0.00275889,410.194,-0.000135587,-0.000337632,-0.0722009,0.364938,-0.290896,0.757147,9.54285e-07,-5.88937e-07,0.579014,-0.06965602906852986,1.1321844125358749,9.542854553235003e-07,0.4404246990493226,-5.889368265288297e-07,-0.2524065763086901
803,0.7933,236.902,710.517,0.00274771,410.268,-0.000135624,-0.000337494,-0.0722704,0.365287,-0.291174,0.757872,9.53973e-07,-5.89657e-07,0.579571,-0.06972068572766466,1.1337308067351253,9.539734551200496e-07,0.44092749500208095,-5.896568261443136e-07,-0.25261437839464806
804,0.7943,236.944,710.645,0.00273656,410.342,-0.00013566,-0.000337357,-0.0723399,0.365636,-0.291453,0.758596,9.5366e-07,-5.90376e-07,0.580128,-0.06978533789331787,1.1352761871994255,9.536604548276983e-07,0.44143046646125117,-5.903758257819192e-07,-0.25282286989715896
805,0.7953,236.987,710.773,0.00272544,410.416,-0.000135696,-0.00033722,-0.0724094,0.365984,-0.291731,0.759319,9.53347e-07,-5.91095e-07,0.580684,-0.06984998556580158,1.1368205501026862,9.533474545353471e-07,0.4419321715552029,-5.910948253085024e-07,-0.25303055626958426
806,0.7963,237.03,710.901,0.00271435,410.49,-0.000135732,-0.000337085,-0.0724789,0.366332,-0.29201,0.760042,9.53035e-07,-5.91812e-07,0.58124,-0.06991462874542831,1.1383660299840654,9.530354541098518e-07,0.4424340512729099,-5.918118248793292e-07,-0.25323893167466427
807,0.7973,237.072,711.028,0.0027033,410.563,-0.000135767,-0.00033695,-0.0725483,0.36668,-0.292288,0.760765,9.52722e-07,-5.92529e-07,0.581796,-0.06997917443043211,1.1399126276514298,9.527224538175005e-07,0.4429361056751522,-5.925288244501559e-07,-0.2534465023979914
808,0.7983,237.114,711.156,0.00269228,410.637,-0.000135801,-0.000336816,-0.0726177,0.367028,-0.292566,0.761488,9.5241e-07,-5.93246e-07,0.582352,-0.07004371563612088,1.1414603439132307,9.524104536140499e-07,0.44343833482273043,-5.932458240209826e-07,-0.2536540154246776
809,0.7993,237.157,711.283,0.00268129,410.71,-0.000135835,-0.000336683,-0.072687,0.367375,-0.292844,0.76221,9.52098e-07,-5.93961e-07,0.582907,-0.07010815937362602,1.1430070365703964,9.520984531885546e-07,0.44393929483644956,-5.939608236360527e-07,-0.2538614707707604
810,0.8003,237.199,711.41,0.00267033,410.784,-0.000135868,-0.000336551,-0.0727563,0.367722,-0.293121,0.762931,9.51786e-07,-5.94676e-07,0.583462,-0.07017259864533487,1.1445527017891166,9.517864529851039e-07,0.4444404287134571,-5.946758231401006e-07,-0.25406812252076816
811,0.8013,237.241,711.537,0.00265941,410.857,-0.000135901,-0.00033642,-0.0728255,0.368069,-0.293399,0.763652,9.51474e-07,-5.9539e-07,0.584016,-0.07023694047525564,1.1460994818343062,9.514744525596086e-07,0.44494173651409374,-5.953898227772925e-07,-0.2542754627610786
812,0.8023,237.284,711.663,0.00264851,410.93,-0.000135934,-0.000336289,-0.0728948,0.368416,-0.293676,0.764373,9.51163e-07,-5.96103e-07,0.58457,-0.07030137082274335,1.147647377510045,9.511634524450585e-07,0.445443218298722,-5.961028223255838e-07,-0.25448199985118614
813,0.8033,237.326,711.79,0.00263765,411.003,-0.000135966,-0.000336159,-0.0729639,0.368763,-0.293954,0.765094,9.50851e-07,-5.96816e-07,0.585124,-0.07036561077850356,1.1491963896209927,9.508514520195632e-07,0.4459448741277243,-5.96815821873875e-07,-0.25468922504959035
814,0.8043,237.368,711.916,0.00262682,411.076,-0.000135998,-0.00033603,-0.0730331,0.36911,-0.294231,0.765814,9.5054e-07,-5.97528e-07,0.585678,-0.07042993925244678,1.150744368226945,9.505404516829685e-07,0.4464467040615048,-5.975278214442881e-07,-0.2548956475434163
815,0.8053,237.41,712.042,0.00261602,411.149,-0.000136029,-0.000335902,-0.0731022,0.369456,-0.294508,0.766533,9.50229e-07,-5.9824e-07,0.586231,-0.07049417032443539,1.1522913094864404,9.502294515684184e-07,0.4469472612125034,-5.982398210147011e-07,-0.2551020128661301
816,0.8063,237.452,712.168,0.00260525,411.222,-0.00013606,-0.000335774,-0.0731712,0.369802,-0.294784,0.767252,9.49918e-07,-5.9895e-07,0.586784,-0.07055830401404517,1.153839363396652,9.499184512318237e-07,0.44744799158624216,-5.989498206293575e-07,-0.2553075763415146
817,0.8073,237.494,712.294,0.00259452,411.294,-0.00013609,-0.000335647,-0.0732403,0.370148,-0.295061,0.767971,9.49607e-07,-5.9966e-07,0.587337,-0.07062252621633525,1.155388530757862,9.49607450895229e-07,0.44794889524266623,-5.99659820244014e-07,-0.25551382757575325
818,0.8083,237.536,712.42,0.00258381,411.367,-0.00013612,-0.000335521,-0.0733092,0.370494,-0.295337,0.768689,9.49296e-07,-6.00369e-07,0.587889,-0.07068655811835456,1.1569366554331966,9.492964505586343e-07,0.4484499722417423,-6.003688197697699e-07,-0.25571927740596156
819,0.8093,237.578,712.545,0.00257314,411.439,-0.00013615,-0.000335396,-0.0733782,0.370839,-0.295614,0.769407,9.48986e-07,-6.01078e-07,0.588441,-0.07075067853366457,1.1584858920611913,9.489864503109402e-07,0.44894977369295863,-6.01077819406548e-07,-0.25592541461479856
820,0.8103,237.619,712.67,0.0025625,411.512,-0.00013618,-0.000335271,-0.0734471,0.371185,-0.29589,0.770125,9.48675e-07,-6.01786e-07,0.588993,-0.07081470160629344,1.160036241440515,9.486754499743455e-07,0.44945119705589587,-6.017858189544256e-07,-0.25613075086265924
821,0.8113,237.661,712.796,0.00255189,411.584,-0.000136209,-0.000335147,-0.073516,0.37153,-0.296166,0.770842,9.48365e-07,-6.02493e-07,0.589545,-0.07087872026788455,1.1615855427837865,9.483654497266514e-07,0.4499513439892653,-6.024928185244249e-07,-0.25633603044553555
822,0.8123,237.703,712.921,0.00254131,411.656,-0.000136238,-0.000335023,-0.0735848,0.371875,-0.296442,0.771559,9.48055e-07,-6.032e-07,0.590096,-0.07094264161301067,1.1631359553744551,9.480554494789573e-07,0.45045166350309507,-6.031998180944242e-07,-0.2565412533790651
823,0.8133,237.744,713.045,0.00253076,411.728,-0.000136266,-0.000334901,-0.0736536,0.37222,-0.296718,0.772275,9.47745e-07,-6.03906e-07,0.590647,-0.07100655856049942,1.1646853153231742,9.477454490092185e-07,0.450952155656936,-6.039058176865453e-07,-0.2567464196788807
824,0.8143,237.786,713.17,0.00252024,411.8,-0.000136294,-0.000334779,-0.0737224,0.372564,-0.296993,0.772991,9.47435e-07,-6.04611e-07,0.591197,-0.07107047111065357,1.1662357850108558,9.474354487615244e-07,0.451451369058264,-6.046108171897657e-07,-0.25695078631176904
825,0.8153,237.827,713.295,0.00250975,411.872,-0.000136322,-0.000334657,-0.0737911,0.372909,-0.297268,0.773707,9.47126e-07,-6.05315e-07,0.591748,-0.07113428637720876,1.1677873652323574,9.471264486027309e-07,0.4519522061700232,-6.053148168261302e-07,-0.25715509675156023
826,0.8163,237.869,713.419,0.00249929,411.944,-0.00013635,-0.000334537,-0.0738598,0.373253,-0.297544,0.774422,9.46816e-07,-6.06019e-07,0.592298,-0.07119809725980575,1.1693378874441338,9.468164481329922e-07,0.45245176364790574,-6.060188163514724e-07,-0.25736009365398294
827,0.8173,237.91,713.543,0.00248886,412.016,-0.000136377,-0.000334417,-0.0739284,0.373597,-0.297819,0.775137,9.46507e-07,-6.06722e-07,0.592847,-0.07126181088493144,1.1708895186757187,9.465074479741986e-07,0.45295149300312176,-6.067218158989363e-07,-0.2575642915497306
828,0.8183,237.952,713.667,0.00247847,412.087,-0.000136404,-0.000334297,-0.073997,0.373941,-0.298094,0.775852,9.46198e-07,-6.07425e-07,0.593397,-0.07132552013945226,1.172442259720345,9.461984475933605e-07,0.4534513942948073,-6.074248155574224e-07,-0.2577684332987774
829,0.8193,237.993,713.791,0.0024681,412.159,-0.000136431,-0.000334179,-0.0740656,0.374285,-0.298369,0.776566,9.45889e-07,-6.08127e-07,0.593946,-0.07138922502366818,1.173993937376789,9.458894474345669e-07,0.4539514675821186,-6.081268151270081e-07,-0.2579725189165616
830,0.8203,238.034,713.915,0.00245776,412.23,-0.000136457,-0.000334061,-0.0741341,0.374628,-0.298643,0.777279,9.4558e-07,-6.08828e-07,0.594494,-0.07145283268316682,1.1755445477810578,9.455804470537288e-07,0.45445025847324705,-6.088278147187154e-07,-0.25817580659469475
831,0.8213,238.075,714.038,0.00244745,412.301,-0.000136484,-0.000333943,-0.0742026,0.374972,-0.298918,0.777993,9.45272e-07,-6.09528e-07,0.595043,-0.07151643598569002,1.1770984412621321,9.452724467617912e-07,0.4549506754289434,-6.095278142215221e-07,-0.258379780200225
832,0.8223,238.116,714.162,0.00243718,412.373,-0.00013651,-0.000333826,-0.0742711,0.375315,-0.299192,0.778705,9.44963e-07,-6.10228e-07,0.595591,-0.07158003493153631,1.1786490873167983,9.449634463809531e-07,0.4554498091071477,-6.102278138353512e-07,-0.2585829563040527
833,0.8233,238.158,714.285,0.00242693,412.444,-0.000136536,-0.00033371,-0.0743395,0.375658,-0.299466,0.779418,9.44655e-07,-6.10927e-07,0.596139,-0.07164353668536227,1.1802030180265226,9.446554460890155e-07,0.45594911401756844,-6.109268133602797e-07,-0.2587860767452542
834,0.8243,238.199,714.408,0.00241671,412.515,-0.000136561,-0.000333594,-0.0744079,0.376,-0.29974,0.78013,9.44347e-07,-6.11626e-07,0.596687,-0.0717070340958168,1.1817558753269553,9.44347445797078e-07,0.45644713377108603,-6.116258129962304e-07,-0.2589891415390788
835,0.8253,238.24,714.531,0.00240652,412.586,-0.000136587,-0.000333479,-0.0744762,0.376343,-0.300014,0.780842,9.44039e-07,-6.12324e-07,0.597234,-0.07177043434024499,1.1833098386554854,9.440394455051404e-07,0.45694678082254025,-6.123238125432806e-07,-0.25919215070077184
836,0.8263,238.28,714.654,0.00239636,412.657,-0.000136612,-0.000333365,-0.0745445,0.376685,-0.300288,0.781553,9.43731e-07,-6.13021e-07,0.597781,-0.07183383025458445,1.1848627239360687,9.437314452132028e-07,0.45744514183645735,-6.130208121124525e-07,-0.25939510424557444
837,0.8273,238.321,714.776,0.00238623,412.728,-0.000136637,-0.000333251,-0.0746128,0.377027,-0.300561,0.782264,9.43423e-07,-6.13718e-07,0.598327,-0.07189722183913083,1.1864167137106874,9.434234449212653e-07,0.4579436733189899,-6.137178116816244e-07,-0.25959726178635556
838,0.8283,238.362,714.899,0.00237613,412.798,-0.000136662,-0.000333138,-0.0746811,0.377369,-0.300835,0.782974,9.43115e-07,-6.14413e-07,0.598874,-0.07196060909417978,1.1879696207942017,9.431154446293277e-07,0.45844237532844767,-6.144128112950398e-07,-0.2598001043459264
839,0.8293,238.403,715.021,0.00236606,412.869,-0.000136686,-0.000333025,-0.0747492,0.377711,-0.301108,0.783685,9.42808e-07,-6.15109e-07,0.59942,-0.07202380642480699,1.1895258203579737,9.428084444262907e-07,0.45894124792316116,-6.151088107753111e-07,-0.26000215133677074
840,0.8303,238.444,715.143,0.00235602,412.939,-0.000136711,-0.000332913,-0.0748174,0.378053,-0.301381,0.784394,9.42501e-07,-6.15803e-07,0.599966,-0.07208709224313781,1.1910787446112034,9.425014442232538e-07,0.45944029116148055,-6.158028104108482e-07,-0.26020414317631524
841,0.8313,238.484,715.265,0.00234601,413.01,-0.000136735,-0.000332801,-0.0748855,0.378394,-0.301654,0.785104,9.42194e-07,-6.16497e-07,0.600511,-0.07215028096055587,1.1926349629119999,9.421944437981722e-07,0.45993804516300063,-6.164968099353629e-07,-0.26040607987961395
842,0.8323,238.525,715.387,0.00233602,413.08,-0.000136759,-0.00033269,-0.0749536,0.378736,-0.301927,0.785813,9.41887e-07,-6.17191e-07,0.601056,-0.07221346537496875,1.1941900923289381,9.418874435951352e-07,0.46043742936427723,-6.171908095709e-07,-0.26060796146171705
843,0.8333,238.565,715.508,0.00232607,413.15,-0.000136783,-0.00033258,-0.0750217,0.379077,-0.3022,0.786521,9.4158e-07,-6.17883e-07,0.601601,-0.07227664548666946,1.1957441289783657,9.415804433920982e-07,0.4609355234479051,-6.178828091396582e-07,-0.2608097879376705
844,0.8343,238.606,715.63,0.00231614,413.22,-0.000136807,-0.00033247,-0.0750897,0.379417,-0.302472,0.787229,9.41273e-07,-6.18575e-07,0.602146,-0.07233972852992854,1.1972992662753241,9.412734429670166e-07,0.4614323259775215,-6.185748087084164e-07,-0.26101082033370615
845,0.8353,238.646,715.751,0.00230624,413.291,-0.00013683,-0.000332361,-0.0751576,0.379758,-0.302745,0.787937,9.40967e-07,-6.19267e-07,0.60269,-0.07240271452396274,1.1988555049993486,9.409674426308356e-07,0.46193075937874495,-6.192668082771746e-07,-0.26121253684419854
846,0.8363,238.687,715.872,0.00229637,413.361,-0.000136854,-0.000332252,-0.0752256,0.380099,-0.303017,0.788645,9.40661e-07,-6.19958e-07,0.603234,-0.07246578899481881,1.2004128459305243,9.406614425166993e-07,0.46242936277474067,-6.199578078680545e-07,-0.2614134597074288
847,0.8373,238.727,715.994,0.00228653,413.43,-0.000136877,-0.000332144,-0.0752935,0.380439,-0.303289,0.789352,9.40355e-07,-6.20648e-07,0.603778,-0.0725287664296379,1.2019690878793026,9.403554421805183e-07,0.46292667329608195,-6.206478073700339e-07,-0.26161432792707207
848,0.8383,238.767,716.114,0.00227672,413.5,-0.0001369,-0.000332036,-0.0753613,0.380779,-0.303561,0.790058,9.40049e-07,-6.21337e-07,0.604321,-0.07259164684760377,1.203524226954844,9.400494418443373e-07,0.4634241529317482,-6.213368070051573e-07,-0.26181514151798946
849,0.8393,238.808,716.235,0.00226694,413.57,-0.000136923,-0.000331929,-0.0754292,0.381119,-0.303833,0.790765,9.39743e-07,-6.22026e-07,0.604864,-0.07265461573696474,1.2050826694277998,9.397434415081563e-07,0.46392180173924835,-6.220258065292583e-07,-0.262015900495038
850,0.8403,238.848,716.356,0.00225718,413.64,-0.000136946,-0.000331822,-0.075497,0.381459,-0.304105,0.791471,9.39437e-07,-6.22715e-07,0.605407,-0.07271748762263675,1.2066400074680579,9.394374411719753e-07,0.46441961977611035,-6.227148061643817e-07,-0.2622166048730705
851,0.8413,238.888,716.476,0.00224745,413.709,-0.000136969,-0.000331716,-0.0755647,0.381798,-0.304376,0.792176,9.39132e-07,-6.23402e-07,0.605949,-0.07278026252377034,1.208196237179839,9.391324409246948e-07,0.46491614218300725,-6.234018057327262e-07,-0.26241651708382185
852,0.8423,238.928,716.596,0.00223775,413.779,-0.000136992,-0.00033161,-0.0756324,0.382138,-0.304647,0.792881,9.38826e-07,-6.24089e-07,0.606492,-0.07284303317518703,1.2097535644204007,9.388264405885138e-07,0.46541429835309955,-6.240888053010707e-07,-0.26261637512570435
853,0.8433,238.968,716.716,0.00222808,413.848,-0.000137014,-0.000331505,-0.0757001,0.382477,-0.304919,0.793586,9.38521e-07,-6.24776e-07,0.607034,-0.07290579957717436,1.211311989963773,9.385214403412334e-07,0.4659111580131954,-6.247758048694152e-07,-0.262816916196848
854,0.8443,239.008,716.836,0.00221844,413.917,-0.000137037,-0.0003314,-0.0757678,0.382816,-0.30519,0.79429,9.38216e-07,-6.25461e-07,0.607575,-0.07296856173002009,1.2128693017141248,9.38216440093953e-07,0.46640818613726887,-6.254608043709808e-07,-0.2630166657452724
855,0.8453,239.048,716.956,0.00220882,413.986,-0.000137059,-0.000331296,-0.0758354,0.383155,-0.305461,0.794994,9.37911e-07,-6.26147e-07,0.608117,-0.07303122693713926,1.2144277101979535,9.379114398466726e-07,0.4669053827824392,-6.261468039614471e-07,-0.26321636116890335
856,0.8463,239.088,717.076,0.00219923,414.055,-0.000137082,-0.000331192,-0.0759029,0.383493,-0.305731,0.795698,9.37607e-07,-6.26831e-07,0.608658,-0.07309379521761783,1.2159872161876315,9.376074394662481e-07,0.46740128060383035,-6.268308035961567e-07,-0.263415265898041
857,0.8473,239.128,717.195,0.00218967,414.124,-0.000137104,-0.000331089,-0.0759705,0.383832,-0.306002,0.796401,9.37302e-07,-6.27515e-07,0.609198,-0.07315645195923937,1.2175456029093632,9.373024392189677e-07,0.46789881396509503,-6.275148031198441e-07,-0.26361485331566603
858,0.8483,239.168,717.315,0.00218014,414.193,-0.000137126,-0.000330987,-0.076038,0.38417,-0.306273,0.797104,9.36998e-07,-6.28198e-07,0.609739,-0.07321901178731416,1.219105085562135,9.369984390605879e-07,0.46839504762297923,-6.281978026656532e-07,-0.2638143866524292
859,0.8493,239.207,717.434,0.00217063,414.262,-0.000137148,-0.000330884,-0.0761054,0.384508,-0.306543,0.797807,9.36693e-07,-6.28881e-07,0.610279,-0.07328147472089519,1.2206656649166576,9.366934385912629e-07,0.4688914490361886,-6.288808022114623e-07,-0.2640131299364823
860,0.8503,239.247,717.553,0.00216115,414.331,-0.00013717,-0.000330783,-0.0761729,0.384846,-0.306813,0.798509,9.36389e-07,-6.29563e-07,0.610819,-0.0733440261102184,1.2222251195179519,9.36389438432883e-07,0.4693880182614345,-6.295628017793931e-07,-0.2642118195670923
861,0.8513,239.287,717.672,0.0021517,414.4,-0.000137192,-0.000330681,-0.0762402,0.385184,-0.307083,0.79921,9.36085e-07,-6.30245e-07,0.611358,-0.07340638795876142,1.2237834454561618,9.360854380524586e-07,0.4698847553554466,-6.302448013473239e-07,-0.26441045555874354
862,0.8523,239.326,717.791,0.00214227,414.468,-0.000137213,-0.00033058,-0.0763076,0.385522,-0.307353,0.799912,9.35782e-07,-6.30925e-07,0.611898,-0.07346883826361417,1.225345089507802,9.357824377609347e-07,0.4703816603749744,-6.309248009594981e-07,-0.2646090379259167
863,0.8533,239.366,717.909,0.00213288,414.537,-0.000137235,-0.00033048,-0.0763749,0.385859,-0.307623,0.800613,9.35478e-07,-6.31606e-07,0.612437,-0.07353119171258193,1.226905603311732,9.354784376025549e-07,0.47087726249878825,-6.316058005495506e-07,-0.26480756668308847
864,0.8543,239.405,718.028,0.00212351,414.605,-0.000137257,-0.00033038,-0.0764422,0.386196,-0.307892,0.801313,9.35175e-07,-6.32285e-07,0.612975,-0.0735935409653038,1.2284649829532501,9.35175437311031e-07,0.4713730316686633,-6.322848000728243e-07,-0.2650053068504059
865,0.8553,239.445,718.146,0.00211416,414.673,-0.000137278,-0.000330281,-0.0765094,0.386533,-0.308162,0.802013,9.34871e-07,-6.32964e-07,0.613514,-0.07365579338764605,1.2300254545426546,9.348714369306066e-07,0.47186896794090405,-6.329637997071202e-07,-0.26520372862941066
866,0.8563,239.484,718.264,0.00210485,414.742,-0.0001373,-0.000330182,-0.0765766,0.38687,-0.308431,0.802713,9.34568e-07,-6.33643e-07,0.614052,-0.0737180416267661,1.2315870188445763,9.345684366390827e-07,0.47236507137183303,-6.336427992303939e-07,-0.26540136224349653
867,0.8573,239.523,718.382,0.00209555,414.81,-0.000137321,-0.000330083,-0.0766438,0.387207,-0.3087,0.803413,9.34265e-07,-6.34321e-07,0.61459,-0.07378028568294515,1.2331496766241816,9.342654363475589e-07,0.4728613420177925,-6.343207987757893e-07,-0.26559894270129003
868,0.8583,239.563,718.5,0.00208629,414.878,-0.000137343,-0.000329985,-0.0767109,0.387543,-0.308969,0.804112,9.33962e-07,-6.34998e-07,0.615127,-0.07384243294071202,1.2347111939348623,9.33962436056035e-07,0.4733563065780999,-6.349977983433064e-07,-0.2657964700170883
869,0.8593,239.602,718.618,0.00207705,414.946,-0.000137364,-0.000329888,-0.076778,0.387879,-0.309238,0.80481,9.3366e-07,-6.35675e-07,0.615665,-0.07390457602853773,1.2362715668550264,9.336604358534117e-07,0.47385143747444247,-6.356747979108235e-07,-0.26599394420518463
870,0.8603,239.641,718.736,0.00206784,415.014,-0.000137385,-0.00032979,-0.0768451,0.388215,-0.309507,0.805509,9.33357e-07,-6.36351e-07,0.616202,-0.07396671494670226,1.2378352671298352,9.333574355618879e-07,0.4743467347627186,-6.363507975004623e-07,-0.2661913652798684
871,0.8613,239.68,718.853,0.00205866,415.082,-0.000137406,-0.000329694,-0.0769121,0.388551,-0.309776,0.806207,9.33055e-07,-6.37026e-07,0.616738,-0.07402875709836554,1.2393978214142969,9.330554353592646e-07,0.4748421984988451,-6.370257971122228e-07,-0.2663887332554252
872,0.8623,239.719,718.97,0.0020495,415.149,-0.000137428,-0.000329597,-0.0769791,0.388887,-0.310044,0.806904,9.32753e-07,-6.37701e-07,0.617275,-0.07409079509334382,1.2409592257820323,9.327534349345967e-07,0.4753378287387582,-6.377007967239834e-07,-0.26658531473181835
873,0.8633,239.758,719.088,0.00204037,415.217,-0.000137449,-0.000329501,-0.0770461,0.389223,-0.310312,0.807601,9.32451e-07,-6.38375e-07,0.617811,-0.07415282893191577,1.2425217188279731,9.324514347319734e-07,0.47583362553841235,-6.383747962468433e-07,-0.26678184353143475
874,0.8643,239.797,719.205,0.00203126,415.285,-0.00013747,-0.000329406,-0.077113,0.389558,-0.310581,0.808298,9.32149e-07,-6.39049e-07,0.618347,-0.0742147660358411,1.2440853013111912,9.321494345293502e-07,0.47632811262493036,-6.390487957697033e-07,-0.2669790526897039
875,0.8653,239.836,719.321,0.00202218,415.352,-0.000137491,-0.000329311,-0.0771799,0.389893,-0.310849,0.808995,9.31847e-07,-6.39722e-07,0.618882,-0.07427669899631262,1.24564997399129,9.318474341046823e-07,0.476822765392372,-6.397217954257073e-07,-0.26717547598168623
876,0.8663,239.875,719.438,0.00201313,415.419,-0.000137512,-0.000329216,-0.0772467,0.390228,-0.311116,0.809691,9.31545e-07,-6.40394e-07,0.619417,-0.07433853524746592,1.2472134904137868,9.31545433902059e-07,0.47731758389625045,-6.403937949928107e-07,-0.26737111401075997
877,0.8673,239.914,719.555,0.0020041,415.487,-0.000137533,-0.000329122,-0.0773135,0.390563,-0.311384,0.810386,9.31244e-07,-6.41066e-07,0.619952,-0.07440036736809552,1.2487758466455272,9.312444335662917e-07,0.47781256819209594,-6.410657945599141e-07,-0.26756743224438684
878,0.8683,239.953,719.671,0.0019951,415.554,-0.000137554,-0.000329028,-0.0773803,0.390898,-0.311652,0.811082,9.30943e-07,-6.41738e-07,0.620487,-0.07446219535847742,1.2503415394326782,9.309434332305244e-07,0.4783077183354587,-6.417377941270175e-07,-0.26776369787177645
879,0.8693,239.992,719.788,0.00198612,415.621,-0.000137575,-0.000328935,-0.077447,0.391232,-0.311919,0.811777,9.30642e-07,-6.42408e-07,0.621022,-0.07452392667128493,1.2519060704141243,9.306424331168017e-07,0.4788015555796117,-6.42407793627342e-07,-0.2679591788665706
880,0.8703,240.031,719.904,0.00197717,415.688,-0.000137596,-0.000328842,-0.0775138,0.391567,-0.312186,0.812471,9.30341e-07,-6.43079e-07,0.621556,-0.07458574640818105,1.2534694356519815,9.303414327810344e-07,0.47929703708925,-6.430787932165671e-07,-0.2681546076749064
881,0.8713,240.069,720.02,0.00196825,415.755,-0.000137616,-0.000328749,-0.0775804,0.391901,-0.312454,0.813165,9.3004e-07,-6.43748e-07,0.62209,-0.07464737694515056,1.2550338862418875,9.300404324452671e-07,0.4797912048210551,-6.437477927390134e-07,-0.2683507159603654
882,0.8723,240.108,720.136,0.00195935,415.822,-0.000137637,-0.000328657,-0.0776471,0.392235,-0.312721,0.813859,9.29739e-07,-6.44417e-07,0.622623,-0.07470909590675812,1.2565994229373376,9.297394321094998e-07,0.4802855376324493,-6.44416792372482e-07,-0.26854604024225204
883,0.8733,240.146,720.251,0.00195047,415.889,-0.000137658,-0.000328565,-0.0777137,0.392568,-0.312988,0.814553,9.29439e-07,-6.45085e-07,0.623156,-0.07477071822892456,1.2581660464923514,9.294394318626331e-07,0.48077855479928333,-6.450847919170499e-07,-0.26874131237951693
884,0.8743,240.185,720.367,0.00194162,415.956,-0.000137679,-0.000328474,-0.0777802,0.392902,-0.313254,0.815246,9.29138e-07,-6.45753e-07,0.623689,-0.0748322439304101,1.259731497928843,9.291384317489104e-07,0.4812732174406489,-6.457527914616179e-07,-0.2689358013222478
885,0.8753,240.223,720.482,0.0019328,416.022,-0.0001377,-0.000328383,-0.0778467,0.393235,-0.313521,0.815938,9.28838e-07,-6.46421e-07,0.624222,-0.07489376554057259,1.2612957733022658,9.288384312799991e-07,0.48176656355962644,-6.464207911172082e-07,-0.26913096940719605
886,0.8763,240.262,720.598,0.001924,416.089,-0.00013772,-0.000328293,-0.0779132,0.393569,-0.313787,0.816631,9.28538e-07,-6.47087e-07,0.624754,-0.07495528305968391,1.2628633943911343,9.285384310331324e-07,0.4822615562510333,-6.470867905949973e-07,-0.26932535471494157
887,0.8773,240.3,720.713,0.00191523,416.155,-0.000137741,-0.000328202,-0.0779797,0.393902,-0.314054,0.817323,9.28238e-07,-6.47753e-07,0.625287,-0.07501679648801629,1.2644298377869583,9.282384307862657e-07,0.4827552315416388,-6.477527901838087e-07,-0.26952041880301814
888,0.8783,240.339,720.828,0.00190648,416.222,-0.000137762,-0.000328113,-0.0780461,0.394235,-0.31432,0.818014,9.27939e-07,-6.48419e-07,0.625818,-0.0750782133336676,1.2659950995405231,9.279394306282995e-07,0.4832490712534907,-6.484187897726201e-07,-0.2697147005310012
889,0.8793,240.377,720.943,0.00189775,416.288,-0.000137783,-0.000328023,-0.0781125,0.394567,-0.314586,0.818706,9.27639e-07,-6.49084e-07,0.62635,-0.07513962610137581,1.2675637108263142,9.276394301593882e-07,0.48374159169901687,-6.490837893835533e-07,-0.26990893058691723
890,0.8803,240.415,721.057,0.00188906,416.354,-0.000137803,-0.000327934,-0.0781789,0.3949,-0.314852,0.819397,9.2734e-07,-6.49748e-07,0.626881,-0.0752010347914116,1.2691311388345037,9.273404300014221e-07,0.48423575992349543,-6.497477889055858e-07,-0.2701031089845093
891,0.8813,240.453,721.172,0.00188038,416.421,-0.000137824,-0.000327845,-0.0782452,0.395232,-0.315117,0.820087,9.2704e-07,-6.50412e-07,0.627412,-0.0752623469302851,1.270697379611227,9.270404297545554e-07,0.4847286080040445,-6.504117884276184e-07,-0.2702965060343875
892,0.8823,240.491,721.286,0.00187173,416.487,-0.000137845,-0.000327757,-0.0783114,0.395564,-0.315383,0.820777,9.26741e-07,-6.51075e-07,0.627943,-0.0753235625366594,1.2722647014670154,9.267414293745446e-07,0.48522161973732114,-6.51074788082795e-07,-0.270490581350621
893,0.8833,240.53,721.401,0.00186311,416.553,-0.000137865,-0.000327669,-0.0783777,0.395896,-0.315648,0.821467,9.26442e-07,-6.51738e-07,0.628473,-0.07538486655221266,1.273833105148071,9.264424292165785e-07,0.485714795177667,-6.517377876269492e-07,-0.27068387573392616
894,0.8843,240.568,721.515,0.00185451,416.619,-0.000137886,-0.000327582,-0.0784439,0.396228,-0.315914,0.822156,9.26143e-07,-6.524e-07,0.629003,-0.07544607404805648,1.2754003159996574,9.261434288365678e-07,0.486208134379442,-6.523997871932252e-07,-0.27087784802352266
895,0.8853,240.606,721.629,0.00184593,416.685,-0.000137907,-0.000327495,-0.0785101,0.39656,-0.316179,0.822845,9.25845e-07,-6.53062e-07,0.629533,-0.07550727749209807,1.2769686070316002,9.258454285454576e-07,0.4867016373970239,-6.530617867595012e-07,-0.2710710397947561
896,0.8863,240.644,721.743,0.00183738,416.75,-0.000137927,-0.000327408,-0.0785762,0.396891,-0.316444,0.823534,9.25546e-07,-6.53723e-07,0.630063,-0.07556838444144898,1.2785379789883997,9.255464283874915e-07,0.4871938170902479,-6.537227863478989e-07,-0.2712641803769531
897,0.8873,240.682,721.857,0.00182885,416.816,-0.000137948,-0.000327321,-0.0786423,0.397223,-0.316709,0.824222,9.25248e-07,-6.54383e-07,0.630592,-0.07562948735176389,1.280106152507777,9.252484280963813e-07,0.48768764740881876,-6.543827858473961e-07,-0.2714572697836769
898,0.8883,240.719,721.97,0.00182035,416.882,-0.000137969,-0.000327235,-0.0787084,0.397554,-0.316974,0.82491,9.2495e-07,-6.55043e-07,0.631121,-0.07569058622331004,1.281675405301764,9.249504278052711e-07,0.4881801535253767,-6.550427854579155e-07,-0.2716503080284871
899,0.8893,240.757,722.084,0.00181187,416.947,-0.000137989,-0.00032715,-0.0787744,0.397885,-0.317238,0.825598,9.24652e-07,-6.55703e-07,0.63165,-0.07575158863151765,1.2832457381131563,9.24652427514161e-07,0.48867282268844203,-6.557027850684349e-07,-0.2718425669678709
900,0.8903,240.795,722.197,0.00180341,417.013,-0.00013801,-0.000327064,-0.0788404,0.398215,-0.317503,0.826285,9.24354e-07,-6.56361e-07,0.632178,-0.0758125870136992,1.2848148668692527,9.243544272230508e-07,0.48916416578708155,-6.563607846121755e-07,-0.27203550312245484
901,0.8913,240.833,722.31,0.00179498,417.078,-0.000138031,-0.000326979,-0.0789064,0.398546,-0.317767,0.826972,9.24056e-07,-6.5702e-07,0.632707,-0.07587358137012046,1.2863850739871796,9.240564269319407e-07,0.48965716071211607,-6.570197841337944e-07,-0.272227660383756
902,0.8923,240.87,722.424,0.00178658,417.143,-0.000138051,-0.000326895,-0.0789723,0.398876,-0.318031,0.827659,9.23758e-07,-6.57677e-07,0.633235,-0.07593447929449948,1.287956360208026,9.237584266408305e-07,0.4901488286959066,-6.576767836996567e-07,-0.2724197669222359
903,0.8933,240.908,722.536,0.00177819,417.208,-0.000138072,-0.00032681,-0.0790382,0.399207,-0.318295,0.828345,9.23461e-07,-6.58334e-07,0.633762,-0.0759953732058376,1.2895264367458084,9.234614264386209e-07,0.4906421495983102,-6.583337832655189e-07,-0.2726118227512835
904,0.8943,240.946,722.649,0.00176983,417.274,-0.000138093,-0.000326726,-0.0791041,0.399537,-0.318559,0.829031,9.23164e-07,-6.58991e-07,0.63429,-0.07605626310439906,1.2910975907256161,9.231644260143668e-07,0.49113414268207145,-6.589907828313812e-07,-0.2728038278842845
905,0.8953,240.983,722.762,0.0017615,417.339,-0.000138113,-0.000326643,-0.0791699,0.399867,-0.318823,0.829716,9.22866e-07,-6.59647e-07,0.634817,-0.07611705660215884,1.2926675302181514,9.228664259453012e-07,0.49162629815034253,-6.596467824193653e-07,-0.27299578233462074
906,0.8963,241.021,722.875,0.00175319,417.404,-0.000138134,-0.00032656,-0.0792357,0.400196,-0.319087,0.830401,9.2257e-07,-6.60303e-07,0.635343,-0.07617784609983802,1.2942385454876506,9.225704256099476e-07,0.4921171239388491,-6.603027820073493e-07,-0.2731876861156707
907,0.8973,241.058,722.987,0.0017449,417.469,-0.000138155,-0.000326477,-0.0793015,0.400526,-0.31935,0.831086,9.22273e-07,-6.60957e-07,0.63587,-0.07623863159769984,1.2958106372712734,9.222734251856934e-07,0.49260960384446406,-6.609567815285544e-07,-0.2733788126199853
908,0.8983,241.096,723.099,0.00173663,417.533,-0.000138176,-0.000326394,-0.0793672,0.400855,-0.319614,0.83177,9.21976e-07,-6.61612e-07,0.636396,-0.07629932072594414,1.297381508924027,9.219764249834839e-07,0.49310075319376656,-6.616117811386601e-07,-0.27357061529438653
909,0.8993,241.133,723.211,0.00172839,417.598,-0.000138196,-0.000326312,-0.0794329,0.401184,-0.319877,0.832454,9.21679e-07,-6.62266e-07,0.636922,-0.07636000586704372,1.2989534554205462,9.216794247812743e-07,0.49359206415778933,-6.622657806598653e-07,-0.2737616411015694
910,0.9003,241.17,723.323,0.00172017,417.663,-0.000138217,-0.00032623,-0.0794985,0.401513,-0.32014,0.833138,9.21383e-07,-6.62919e-07,0.637448,-0.07642059466332463,1.3005264774962746,9.213834244459207e-07,0.49408353678971206,-6.629187803142145e-07,-0.2739526166755709
911,0.9013,241.208,723.435,0.00171198,417.727,-0.000138238,-0.000326148,-0.0795641,0.401842,-0.320403,0.833821,9.21087e-07,-6.63572e-07,0.637973,-0.0764811794851108,1.302098273787736,9.210874241105671e-07,0.4945751711427322,-6.635717798575413e-07,-0.2741435420296007
912,0.9023,241.245,723.547,0.00170381,417.792,-0.000138259,-0.000326067,-0.0796297,0.402171,-0.320666,0.834504,9.20791e-07,-6.64224e-07,0.638498,-0.07654176033266313,1.3036711439827608,9.207914239972581e-07,0.49506696727006516,-6.642237794229899e-07,-0.2743344171768648
913,0.9033,241.282,723.659,0.00169566,417.856,-0.000138279,-0.000325986,-0.0796953,0.402499,-0.320928,0.835186,9.20495e-07,-6.64876e-07,0.639023,-0.0766023372062421,1.3052427835711393,9.204954236619045e-07,0.4955574296667655,-6.648757789884385e-07,-0.2745245166554453
914,0.9043,241.319,723.77,0.00168753,417.921,-0.0001383,-0.000325906,-0.0797608,0.402828,-0.321191,0.835868,9.20199e-07,-6.65527e-07,0.639548,-0.07666281777239492,1.306815495383304,9.201994233265509e-07,0.49604954901031917,-6.655267785760088e-07,-0.27471529161955754
915,0.9053,241.356,723.881,0.00167943,417.985,-0.000138321,-0.000325826,-0.0798263,0.403156,-0.321453,0.83655,9.19903e-07,-6.66177e-07,0.640072,-0.07672329437720038,1.3083892801507604,9.199034232132419e-07,0.49654033374669115,-6.661767780746786e-07,-0.2749052913221053
916,0.9063,241.394,723.993,0.00167135,418.049,-0.000138342,-0.000325746,-0.0798917,0.403484,-0.321715,0.837232,9.19608e-07,-6.66828e-07,0.640596,-0.07678367469929004,1.3099641386055145,9.196084227447443e-07,0.4970312794868601,-6.668277776622489e-07,-0.2750952412512516
917,0.9073,241.431,724.104,0.00166329,418.113,-0.000138363,-0.000325666,-0.0799571,0.403812,-0.321978,0.837913,9.19312e-07,-6.67477e-07,0.64112,-0.07684405107263581,1.3115377599411544,9.193124226314353e-07,0.4975223862836433,-6.674767771830403e-07,-0.27528586613453165
918,0.9083,241.468,724.215,0.00165526,418.178,-0.000138384,-0.000325587,-0.0800225,0.404139,-0.32224,0.838594,9.19017e-07,-6.68126e-07,0.641644,-0.07690442349749582,1.3131124532778986,9.190174223849823e-07,0.4980121561769715,-6.681257768148541e-07,-0.275475716366138
919,0.9093,241.505,724.326,0.00164725,418.242,-0.000138405,-0.000325508,-0.0800879,0.404467,-0.322501,0.839274,9.18722e-07,-6.68775e-07,0.642167,-0.07696479197412842,1.3146859046589667,9.187224219164847e-07,0.4985035847540784,-6.687747763356455e-07,-0.27566479252865395
920,0.9103,241.541,724.436,0.00163926,418.305,-0.000138426,-0.000325429,-0.0801532,0.404794,-0.322763,0.839954,9.18427e-07,-6.69422e-07,0.64269,-0.07702506420530275,1.3162604263508384,9.184274216700317e-07,0.4989936755517712,-6.694217759006804e-07,-0.2758545434945494
921,0.9113,241.578,724.547,0.00163129,418.369,-0.000138446,-0.000325351,-0.0802184,0.405121,-0.323025,0.840634,9.18132e-07,-6.7007e-07,0.643212,-0.07708524020935748,1.3178360190815726,9.181324214235786e-07,0.49948392663536034,-6.700697755546159e-07,-0.2760442447522039
922,0.9123,241.615,724.657,0.00162335,418.433,-0.000138467,-0.000325273,-0.0802837,0.405448,-0.323286,0.841313,9.17838e-07,-6.70717e-07,0.643735,-0.07714550457551883,1.3194103641681996,9.178384212660262e-07,0.49997433805726765,-6.707167751196508e-07,-0.2762331725481738
923,0.9133,241.652,724.768,0.00161543,418.497,-0.000138488,-0.000325196,-0.0803489,0.405775,-0.323547,0.841992,9.17543e-07,-6.71363e-07,0.644257,-0.07720567272711742,1.320985778598141,9.175434210195732e-07,0.5004649098699325,-6.713627745957851e-07,-0.27642205104042317
924,0.9143,241.689,724.878,0.00160753,418.56,-0.000138509,-0.000325118,-0.0804141,0.406102,-0.323809,0.842671,9.17249e-07,-6.72009e-07,0.644779,-0.07726583695588052,1.322562263097728,9.172494206399762e-07,0.500955642125811,-6.720087741829417e-07,-0.276611603630577
925,0.9153,241.725,724.988,0.00159965,418.624,-0.00013853,-0.000325041,-0.0804792,0.406428,-0.32407,0.843349,9.16955e-07,-6.72654e-07,0.6453,-0.07732590499465875,1.3241374942551283,9.169554204824237e-07,0.5014450334315925,-6.7265377379222e-07,-0.2768003833652024
926,0.9163,241.762,725.098,0.0015918,418.687,-0.000138551,-0.000324964,-0.0805443,0.406754,-0.324331,0.844027,9.16661e-07,-6.73299e-07,0.645822,-0.077385969123135,1.3257137937813894,9.166614201028267e-07,0.5019345843049481,-6.73298773290476e-07,-0.27698911383474645
927,0.9173,241.798,725.207,0.00158396,418.751,-0.000138572,-0.000324888,-0.0806094,0.407081,-0.324591,0.844704,9.16367e-07,-6.73943e-07,0.646343,-0.07744602934156375,1.3272888351111125,9.163674199452743e-07,0.5024257972229509,-6.739427729218761e-07,-0.2771770722294993
928,0.9183,241.835,725.317,0.00157615,418.814,-0.000138594,-0.000324812,-0.0806744,0.407406,-0.324852,0.845381,9.16073e-07,-6.74587e-07,0.646863,-0.07750599340080355,1.3288649431048407,9.160734195656772e-07,0.5029141649625073,-6.745867724422538e-07,-0.27736570439607877
929,0.9193,241.872,725.427,0.00156836,418.877,-0.000138615,-0.000324736,-0.0807394,0.407732,-0.325112,0.846058,9.15779e-07,-6.7523e-07,0.647384,-0.07756595356250617,1.33044211848495,9.157794194081248e-07,0.503404194850817,-6.752297719847533e-07,-0.27755356489001337
930,0.9203,241.908,725.536,0.0015606,418.94,-0.000138636,-0.000324661,-0.0808044,0.408058,-0.325373,0.846735,9.15486e-07,-6.75873e-07,0.647904,-0.07762590982692485,1.3320203619743056,9.154864191174283e-07,0.5038943845149122,-6.758727716382751e-07,-0.2777420988048309
931,0.9213,241.944,725.645,0.00155285,419.004,-0.000138657,-0.000324585,-0.0808693,0.408383,-0.325633,0.847411,9.15193e-07,-6.76515e-07,0.648424,-0.07768576996289467,1.3335973406977555,9.151934188267319e-07,0.5043832296229067,-6.765147712028963e-07,-0.27792986144894016
932,0.9223,241.981,725.754,0.00154513,419.067,-0.000138678,-0.000324511,-0.0809342,0.408709,-0.325893,0.848087,9.14899e-07,-6.77157e-07,0.648944,-0.07774562621406778,1.3351753858192241,9.148994184471348e-07,0.5048737385043673,-6.771567707675175e-07,-0.2781175752811078
933,0.9233,242.017,725.863,0.00153743,419.13,-0.000138699,-0.000324436,-0.0809991,0.409034,-0.326153,0.848762,9.14606e-07,-6.77798e-07,0.649463,-0.0778054785806962,1.336752161306511,9.146064181564384e-07,0.5053629019541364,-6.777977702432381e-07,-0.27830524031402326
934,0.9243,242.053,725.972,0.00152975,419.192,-0.00013872,-0.000324362,-0.0810639,0.409359,-0.326413,0.849437,9.14314e-07,-6.78438e-07,0.649982,-0.0778652348495601,1.3383300014765416,9.143144179546425e-07,0.5058522244078629,-6.784377698521027e-07,-0.2784928565603727
935,0.9253,242.09,726.081,0.00152209,419.255,-0.000138742,-0.000324288,-0.0811288,0.409683,-0.326672,0.850112,9.14021e-07,-6.79079e-07,0.650501,-0.07792507945383997,1.3399089070482195,9.140214176639461e-07,0.5063401995762797,-6.790787694388456e-07,-0.2786797027129023
936,0.9263,242.126,726.19,0.00151446,419.318,-0.000138763,-0.000324214,-0.0811935,0.410008,-0.326932,0.850786,9.13728e-07,-6.79718e-07,0.65102,-0.07798473577129661,1.341486537253226,9.137284173732496e-07,0.5068298397033528,-6.797177689588096e-07,-0.27886722161168376
937,0.9273,242.162,726.298,0.00150684,419.381,-0.000138784,-0.000324141,-0.0812583,0.410332,-0.327191,0.85146,9.13436e-07,-6.80357e-07,0.651538,-0.07804448042467094,1.3430652311394105,9.134364171714537e-07,0.5073181316704438,-6.80356768589796e-07,-0.2790539708162204
938,0.9283,242.198,726.407,0.00149925,419.443,-0.000138806,-0.000324067,-0.081323,0.410657,-0.327451,0.852134,9.13143e-07,-6.80996e-07,0.652056,-0.0781041290171347,1.3446449894239363,9.131434168807573e-07,0.5078080896771,-6.8099576810976e-07,-0.2792413924179442
939,0.9293,242.234,726.515,0.00149168,419.506,-0.000138827,-0.000323995,-0.0813876,0.410981,-0.32771,0.852807,9.12851e-07,-6.81634e-07,0.652574,-0.07816368156683207,1.3462234665998105,9.128514166789614e-07,0.5082966986485344,-6.816337676518458e-07,-0.27942804472479077
940,0.9303,242.27,726.623,0.00148413,419.568,-0.000138848,-0.000323922,-0.0814523,0.411305,-0.327969,0.85348,9.12559e-07,-6.82271e-07,0.653092,-0.07822332244723151,1.3478030064483728,9.125594164771655e-07,0.5087854659549245,-6.822707672160533e-07,-0.2796146486949498
941,0.9313,242.306,726.731,0.0014766,419.631,-0.00013887,-0.00032385,-0.0815169,0.411628,-0.328228,0.854153,9.12267e-07,-6.82908e-07,0.653609,-0.07828286729728196,1.3493836096850433,9.122674160533251e-07,0.5092728823739419,-6.829077667802608e-07,-0.2798012043409388
942,0.9323,242.342,726.839,0.00146909,419.693,-0.000138891,-0.000323778,-0.0815814,0.411952,-0.328486,0.854825,9.11976e-07,-6.83545e-07,0.654126,-0.07834231613509568,1.3509629260616212,9.119764159404298e-07,0.5097619660151025,-6.835447663444683e-07,-0.27998699166262375
943,0.9333,242.378,726.947,0.0014616,419.755,-0.000138913,-0.000323706,-0.081646,0.412275,-0.328745,0.855497,9.11684e-07,-6.84181e-07,0.654643,-0.07840185329840232,1.352543304095481,9.116844155165893e-07,0.5102496978945836,-6.841807659307975e-07,-0.2801734508842716
944,0.9343,242.414,727.054,0.00145413,419.817,-0.000138934,-0.000323635,-0.0817105,0.412598,-0.329003,0.856169,9.11393e-07,-6.84817e-07,0.655159,-0.07846129446186645,1.3541247445002966,9.11393415403694e-07,0.5107375873369067,-6.848167655171267e-07,-0.2803591421787365
945,0.9353,242.45,727.162,0.00144669,419.879,-0.000138956,-0.000323564,-0.0817749,0.412922,-0.329262,0.85684,9.11101e-07,-6.85452e-07,0.655675,-0.0785206396435677,1.3557048922841508,9.111014149798535e-07,0.5112271456193629,-6.854517651255776e-07,-0.2805455050258817
946,0.9363,242.486,727.269,0.00143926,419.941,-0.000138977,-0.000323493,-0.0818394,0.413244,-0.32952,0.857511,9.1081e-07,-6.86086e-07,0.656191,-0.0785800731455597,1.357286100702971,9.108104148669582e-07,0.5117138391136997,-6.860857646451279e-07,-0.2807311003427596
947,0.9373,242.522,727.377,0.00143186,420.003,-0.000138999,-0.000323422,-0.0819038,0.413567,-0.329778,0.858181,9.10519e-07,-6.8672e-07,0.656707,-0.07863941067816005,1.3588660116014908,9.105194145320183e-07,0.5122022015500212,-6.867197641646783e-07,-0.28091664778222225
948,0.9383,242.557,727.484,0.00142448,420.065,-0.00013902,-0.000323352,-0.0819681,0.41389,-0.330036,0.858852,9.10228e-07,-6.87354e-07,0.657222,-0.07869865225941619,1.360449341843165,9.102284141970785e-07,0.5126907217528873,-6.873537637952509e-07,-0.2811021473566204
949,0.9393,242.593,727.591,0.00141711,420.127,-0.000139042,-0.000323282,-0.0820325,0.414212,-0.330294,0.859522,9.09937e-07,-6.87987e-07,0.657737,-0.07875798215576746,1.362031372823397,9.099374140841832e-07,0.5131778865946219,-6.87986763336923e-07,-0.2812875990783016
950,0.9403,242.629,727.698,0.00140977,420.189,-0.000139064,-0.000323212,-0.0820968,0.414534,-0.330551,0.860191,9.09647e-07,-6.88619e-07,0.658252,-0.07881721611312276,1.3636121005062698,9.096474138381438e-07,0.5136652083286941,-6.886187629007168e-07,-0.2814722844322539
951,0.9413,242.664,727.804,0.00140245,420.25,-0.000139085,-0.000323143,-0.082161,0.414856,-0.330809,0.86086,9.09356e-07,-6.89251e-07,0.658767,-0.07887635414949701,1.3651938860497772,9.09356413503204e-07,0.5141526870056308,-6.892507624645106e-07,-0.2816576406708875
952,0.9423,242.7,727.911,0.00139515,420.312,-0.000139107,-0.000323073,-0.0822253,0.415178,-0.331066,0.861529,9.09066e-07,-6.89883e-07,0.659281,-0.07893558049577776,1.3667767301618654,9.090664132571646e-07,0.5146403226759761,-6.898827620283043e-07,-0.28184223093636995
953,0.9433,242.735,728.018,0.00138787,420.373,-0.000139129,-0.000323005,-0.0822895,0.4155,-0.331324,0.862198,9.08776e-07,-6.90514e-07,0.659795,-0.0789947109334026,1.3683606335509526,9.087764130111253e-07,0.5151281153902902,-6.905137616142198e-07,-0.28202749174111696
954,0.9443,242.771,728.124,0.00138061,420.435,-0.00013915,-0.000322936,-0.0823537,0.415822,-0.331581,0.862866,9.08486e-07,-6.91144e-07,0.660309,-0.07905383757497508,1.3699432269815213,9.08486412765086e-07,0.515616065199149,-6.911437611112348e-07,-0.2822119869670875
955,0.9453,242.806,728.23,0.00137337,420.496,-0.000139172,-0.000322868,-0.0824178,0.416143,-0.331838,0.863533,9.08196e-07,-6.91774e-07,0.660823,-0.07911286833203057,1.3715245064119834,9.081964125190467e-07,0.5161026560497313,-6.91773760719272e-07,-0.2823964347838772
956,0.9463,242.842,728.336,0.00136615,420.557,-0.000139194,-0.000322799,-0.0824819,0.416464,-0.332095,0.864201,9.07906e-07,-6.92404e-07,0.661336,-0.07917189530533586,1.3731092140156784,9.079064120509628e-07,0.5165894031210485,-6.924037603273092e-07,-0.28258083520366883
957,0.9473,242.877,728.443,0.00135895,420.619,-0.000139216,-0.000322732,-0.082546,0.416785,-0.332351,0.864868,9.07617e-07,-6.93033e-07,0.661849,-0.0792309184951333,1.3746926058639057,9.076174118938241e-07,0.517076306463256,-6.930327598464459e-07,-0.28276447100347146
958,0.9483,242.912,728.548,0.00135178,420.68,-0.000139238,-0.000322664,-0.08261,0.417106,-0.332608,0.865535,9.07327e-07,-6.93662e-07,0.662362,-0.07928984583065479,1.3762770541867906,9.073274116477847e-07,0.5175633661265244,-6.936617593655825e-07,-0.2829487768501079
959,0.9493,242.947,728.654,0.00134462,420.741,-0.00013926,-0.000322597,-0.082674,0.417427,-0.332864,0.866201,9.07038e-07,-6.9429e-07,0.662874,-0.0793487693949474,1.3778601818278662,9.070384112686014e-07,0.5180505821610408,-6.942897590178632e-07,-0.28313231846890463
960,0.9503,242.983,728.76,0.00133748,420.802,-0.000139282,-0.00032253,-0.082738,0.417748,-0.333121,0.866867,9.06748e-07,-6.94917e-07,0.663386,-0.0794076891882527,1.379444364183132,9.067484110225621e-07,0.5185379546170088,-6.949167585812432e-07,-0.2833165297908893
961,0.9513,243.018,728.865,0.00133036,420.863,-0.000139304,-0.000322463,-0.0828019,0.418068,-0.333377,0.867533,9.06459e-07,-6.95544e-07,0.663898,-0.07946651315746767,1.3810296019552606,9.064594108654234e-07,0.5190239645199235,-6.955437581446233e-07,-0.28349997727698273
962,0.9523,243.053,728.971,0.00132326,420.924,-0.000139326,-0.000322396,-0.0828658,0.418388,-0.333633,0.868198,9.0617e-07,-6.96171e-07,0.66441,-0.0795253333679512,1.3826135132326902,9.0617041048624e-07,0.5195101299708933,-6.961707577080034e-07,-0.2836833778065304
963,0.9533,243.088,729.076,0.00131618,420.985,-0.000139348,-0.00032233,-0.0829297,0.418708,-0.333889,0.868864,9.05882e-07,-6.96797e-07,0.664922,-0.07958414981994333,1.38420086236109,9.058824104180019e-07,0.5199964510197019,-6.967967571824829e-07,-0.2838667313915517
964,0.9543,243.123,729.181,0.00130912,421.045,-0.00013937,-0.000322264,-0.0829936,0.419028,-0.334145,0.869528,9.05593e-07,-6.97423e-07,0.665433,-0.0796429625136843,1.3857844974423599,9.055934100388185e-07,0.5204829277161485,-6.974227567679847e-07,-0.2840500380440629
965,0.9553,243.158,729.287,0.00130208,421.106,-0.000139392,-0.000322198,-0.0830574,0.419348,-0.3344,0.870193,9.05304e-07,-6.98048e-07,0.665944,-0.07970167941958661,1.387371571776888,9.053044098816798e-07,0.5209695601100479,-6.980477563756082e-07,-0.2842325820090169
966,0.9563,243.193,729.392,0.00129506,421.167,-0.000139414,-0.000322133,-0.0831211,0.419668,-0.334656,0.870857,9.05016e-07,-6.98673e-07,0.666454,-0.07976030055550465,1.3889573129083415,9.050164095913971e-07,0.5214563482512318,-6.986727559832318e-07,-0.2844157950157572
967,0.9573,243.228,729.496,0.00128806,421.227,-0.000139436,-0.000322067,-0.0831849,0.419987,-0.334911,0.87152,9.04728e-07,-6.99297e-07,0.666965,-0.07981900997547875,1.3905417167786447,9.047284093011143e-07,0.5219417702470159,-6.992967555019547e-07,-0.28459824572457415
968,0.9583,243.263,729.601,0.00128108,421.288,-0.000139458,-0.000322002,-0.0832486,0.420306,-0.335167,0.872184,9.0444e-07,-6.99921e-07,0.667475,-0.07987762363767836,1.392129563585386,9.044404090108316e-07,0.5224273471171179,-6.999207550206776e-07,-0.28478136513338426
969,0.9593,243.298,729.706,0.00127412,421.348,-0.00013948,-0.000321938,-0.0833123,0.420626,-0.335422,0.872847,9.04152e-07,-7.00544e-07,0.667985,-0.07993623356630664,1.393716071355254,9.041524087205488e-07,0.5229146018247905,-7.005437546725446e-07,-0.28496372263370584
970,0.9603,243.333,729.81,0.00126718,421.408,-0.000139503,-0.000321873,-0.0833759,0.420945,-0.335677,0.873509,9.03864e-07,-7.01167e-07,0.668494,-0.07999474776108073,1.3953012360261061,9.038644084302661e-07,0.5234004890776691,-7.011667542133893e-07,-0.2851460336387932
971,0.9613,243.368,729.915,0.00126026,421.469,-0.000139525,-0.000321809,-0.0834395,0.421263,-0.335932,0.874172,9.03576e-07,-7.01789e-07,0.669004,-0.08005325823447029,1.3968898473120408,9.035764081399833e-07,0.5238850074675367,-7.017887537763556e-07,-0.2853282981605011
972,0.9623,243.402,730.019,0.00125335,421.529,-0.000139547,-0.000321745,-0.0835031,0.421582,-0.336187,0.874834,9.03289e-07,-7.02411e-07,0.669513,-0.08011176498671213,1.3984771137181742,9.032894079386011e-07,0.5243712043291955,-7.02410753339322e-07,-0.28551051621068135
973,0.9633,243.437,730.123,0.00124647,421.589,-0.000139569,-0.000321681,-0.0835667,0.4219,-0.336441,0.875495,9.03001e-07,-7.03032e-07,0.670022,-0.08017026801804283,1.4000630311783193,9.030014076483184e-07,0.5248560314555994,-7.030317529244101e-07,-0.2856919734935134
974,0.9643,243.472,730.227,0.00123961,421.649,-0.000139592,-0.000321618,-0.0836302,0.422219,-0.336696,0.876157,9.02714e-07,-7.03653e-07,0.67053,-0.0802286753515713,1.4016523989276402,9.027144074469362e-07,0.5253425381233219,-7.036527523984759e-07,-0.2858740988183067
975,0.9653,243.506,730.331,0.00123276,421.709,-0.000139614,-0.000321554,-0.0836937,0.422537,-0.33695,0.876818,9.02427e-07,-7.04273e-07,0.671039,-0.08028707897635168,1.4032404159451355,9.02427407245554e-07,0.5258276741829901,-7.042727520056857e-07,-0.2860554637628838
976,0.9663,243.541,730.435,0.00122593,421.769,-0.000139636,-0.000321491,-0.0837571,0.422855,-0.337204,0.877478,9.0214e-07,-7.04893e-07,0.671547,-0.08034538692716309,1.404827078160595,9.021404068221273e-07,0.5263129645404576,-7.048927516128956e-07,-0.286236782646615
977,0.9673,243.576,730.538,0.00121913,421.829,-0.000139659,-0.000321429,-0.0838206,0.423173,-0.337459,0.878139,9.01853e-07,-7.05513e-07,0.672055,-0.08040378314099372,1.4064171943347583,9.018534066207451e-07,0.5267984092447988,-7.055127511090831e-07,-0.28641876906278596
978,0.9683,243.61,730.642,0.00121234,421.889,-0.000139681,-0.000321366,-0.0838839,0.42349,-0.337713,0.878799,9.01566e-07,-7.06132e-07,0.672562,-0.08046199173919932,1.408005953916009,9.015664064193629e-07,0.5272824810618586,-7.061317507384146e-07,-0.28659999567868943
979,0.9693,243.645,730.745,0.00120557,421.948,-0.000139704,-0.000321304,-0.0839473,0.423808,-0.337966,0.879458,9.0128e-07,-7.0675e-07,0.673069,-0.08052028860089311,1.4095933528301337,9.012804060848367e-07,0.5277682341214793,-7.067497502788456e-07,-0.2867804630496976
980,0.9703,243.679,730.849,0.00119882,422.008,-0.000139726,-0.000321242,-0.0840106,0.424125,-0.33822,0.880118,9.00993e-07,-7.07368e-07,0.673576,-0.08057848982453653,1.411184209367911,9.009934058834546e-07,0.5282526134217587,-7.073677498192765e-07,-0.28696159780699504
981,0.9713,243.713,730.952,0.00119208,422.068,-0.000139749,-0.00032118,-0.0840739,0.424442,-0.338474,0.880777,9.00707e-07,-7.07986e-07,0.674083,-0.08063668736415897,1.4127737034426584,9.007074055489284e-07,0.5287371462946162,-7.079857493597075e-07,-0.28714268656190656
982,0.9723,243.748,731.055,0.00118537,422.127,-0.000139771,-0.000321118,-0.0841372,0.424759,-0.338727,0.881435,9.00421e-07,-7.08603e-07,0.67459,-0.08069488121999391,1.4143618309761816,9.004214054364468e-07,0.5292218327887421,-7.086027489222602e-07,-0.28732301664948845
983,0.9733,243.782,731.158,0.00117868,422.187,-0.000139794,-0.000321057,-0.0842004,0.425076,-0.338981,0.882094,9.00134e-07,-7.0922e-07,0.675096,-0.08075297946757687,1.415953419793711,9.0013440501302e-07,0.5297066729528421,-7.092197484848128e-07,-0.2875040136156717
984,0.9743,243.816,731.261,0.001172,422.246,-0.000139817,-0.000320996,-0.0842636,0.425393,-0.339234,0.882752,8.99849e-07,-7.09836e-07,0.675602,-0.08081107404346655,1.4175436402690957,8.998494047673944e-07,0.5301916668356372,-7.098357480694872e-07,-0.287684252299072
985,0.9753,243.851,731.364,0.00116534,422.306,-0.000139839,-0.000320935,-0.0843268,0.425709,-0.339487,0.883409,8.99563e-07,-7.10452e-07,0.676108,-0.08086916494789509,1.4191324883201855,8.995634046549128e-07,0.530675283809815,-7.104517476541616e-07,-0.2878644453878535
986,0.9763,243.885,731.466,0.0011587,422.365,-0.000139862,-0.000320874,-0.0843899,0.426026,-0.33974,0.884067,8.99277e-07,-7.11067e-07,0.676613,-0.08092716027381508,1.4207248013110227,8.992774043203866e-07,0.5311605847909242,-7.110667471499355e-07,-0.2880445928935499
987,0.9773,243.919,731.569,0.00115208,422.424,-0.000139885,-0.000320814,-0.084453,0.426342,-0.339993,0.884724,8.98992e-07,-7.11682e-07,0.677119,-0.0809851519403455,1.4223157400716397,8.98992404074761e-07,0.5316445079915568,-7.116817467567316e-07,-0.28822469482769253
988,0.9783,243.953,731.671,0.00114548,422.483,-0.000139907,-0.000320754,-0.0845161,0.426658,-0.340246,0.88538,8.98706e-07,-7.12296e-07,0.677624,-0.08104313994771717,1.4239053005159485,8.987064037402348e-07,0.532128584136085,-7.122957462746271e-07,-0.2884047512018093
989,0.9793,243.987,731.774,0.0011389,422.542,-0.00013993,-0.000320694,-0.0845791,0.426974,-0.340498,0.886037,8.98421e-07,-7.1291e-07,0.678128,-0.08110103240626887,1.425498329551123,8.984214034946092e-07,0.532612813272846,-7.129097459035449e-07,-0.288584050611832
990,0.9803,244.021,731.876,0.00113233,422.601,-0.000139953,-0.000320634,-0.0846421,0.42729,-0.340751,0.886693,8.98136e-07,-7.13523e-07,0.678633,-0.08115892121771062,1.427089978459072,8.981364032489836e-07,0.5330971954501935,-7.135227454435622e-07,-0.28876401608043545
991,0.9813,244.055,731.978,0.00112579,422.66,-0.000139976,-0.000320575,-0.0847051,0.427605,-0.341003,0.887348,8.97851e-07,-7.14136e-07,0.679137,-0.08121680638227202,1.4286802431497936,8.97851403003358e-07,0.5335801971355321,-7.141357449835795e-07,-0.2889432249671151
992,0.9823,244.089,732.08,0.00111926,422.719,-0.000139999,-0.000320515,-0.084768,0.427921,-0.341255,0.888004,8.97566e-07,-7.14749e-07,0.679641,-0.0812745960276472,1.4302739800778586,8.975664027577324e-07,0.5340648850544849,-7.147487445235967e-07,-0.289122388698845
993,0.9833,244.123,732.182,0.00111275,422.778,-0.000140021,-0.000320456,-0.084831,0.428236,-0.341507,0.888659,8.97281e-07,-7.15361e-07,0.680145,-0.08133247390492515,1.431866330972798,8.972814025121068e-07,0.5345481916100632,-7.153607440857357e-07,-0.289301507287003
994,0.9843,244.157,732.284,0.00110625,422.837,-0.000140044,-0.000320398,-0.0848938,0.428551,-0.341759,0.889313,8.96996e-07,-7.15972e-07,0.680648,-0.081390164414063,1.433457291740719,8.969964022664811e-07,0.5350316504311872,-7.159717436699964e-07,-0.28948058074296346
995,0.9853,244.191,732.385,0.00109978,422.895,-0.000140067,-0.000320339,-0.0849567,0.428866,-0.342011,0.889968,8.96712e-07,-7.16583e-07,0.681151,-0.08144794315556092,1.4350517283878061,8.967124021097561e-07,0.5355152615658278,-7.165827432542571e-07,-0.2896596090780986
996,0.9863,244.225,732.487,0.00109332,422.954,-0.00014009,-0.000320281,-0.0850195,0.429181,-0.342263,0.890622,8.96428e-07,-7.17194e-07,0.681654,-0.08150562641345749,1.4366447730870076,8.964284017309865e-07,0.5359990250619715,-7.171937428385178e-07,-0.2898385923037773
997,0.9873,244.259,732.588,0.00108688,423.012,-0.000140113,-0.000320223,-0.0850823,0.429495,-0.342514,0.891275,8.96143e-07,-7.17804e-07,0.682157,-0.08156330604895923,1.4382364217405614,8.961434014853609e-07,0.5364814044854471,-7.178037423338779e-07,-0.29001682044854116
998,0.9883,244.293,732.689,0.00108046,423.071,-0.000140136,-0.000320165,-0.085145,0.42981,-0.342766,0.891929,8.95859e-07,-7.18414e-07,0.68266,-0.08162089022438712,1.4398315499104357,8.958594013286358e-07,0.5369654723645483,-7.184137419402603e-07,-0.2901957136682958
999,0.9893,244.326,732.791,0.00107406,423.129,-0.000140159,-0.000320107,-0.0852078,0.430124,-0.343017,0.892582,8.95575e-07,-7.19023e-07,0.683162,-0.08167856262154882,1.441425280208838,8.955754009498662e-07,0.5374481553001258,-7.190227414577421e-07,-0.29037385218684575
