,Time,S11,S22,S33,S12,S13,S23,LE11,LE22,LE33,LE12,LE13,LE23,SDV_EPBAR,E11,E12,E13,E22,E23,E33
0,1e-05,0.139606,1.94446,-1.11022e-16,0.521016,1.03943e-17,6.00106e-18,-2.12914e-06,9.12912e-06,-3e-06,6.49996e-06,2.31945e-22,4.74637e-23,0.0,-2.1291377333421124e-06,6.499981124896692e-06,0.0,9.129161670617947e-06,0.0,-2.9999955000192813e-06
1,2e-05,0.27921,3.8889,1.11022e-16,1.04203,8.19771e-18,-2.19668e-18,-4.25827e-06,1.82581e-05,-5.99996e-06,1.29999e-05,8.14908e-38,-5.51668e-39,0.0,-4.258260933531766e-06,1.2999984499106887e-05,0.0,1.8258266680115653e-05,0.0,-5.9999420002343484e-06
2,3.5e-05,0.488615,6.80552,-5.55112e-16,1.82353,-1.25908e-17,-1.41987e-17,-7.45192e-06,3.19515e-05,-1.04998e-05,2.27496e-05,7.08564e-22,-6.2831e-22,0.0,-7.451892234500157e-06,2.2749858774151477e-05,0.0,3.19520104545834e-05,0.0,-1.0499744877323636e-05
3,5.75e-05,0.802715,11.1804,-4.32987e-15,2.99577,2.02003e-17,-2.29845e-17,-1.22423e-05,5.24912e-05,-1.72495e-05,3.73739e-05,4.09671e-27,1.52891e-26,0.0,-1.2242225063352485e-05,3.737459841279822e-05,0.0,5.249257768724647e-05,0.0,-1.7249351228265652e-05
4,9.125e-05,1.27385,17.7425,-2.83107e-14,4.75408,-2.78096e-17,6.01679e-17,-1.94277e-05,8.32998e-05,-2.73738e-05,5.93098e-05,-3.05355e-21,1.69506e-21,0.0,-1.9427511283476306e-05,5.931155886096384e-05,0.0,8.330326952465938e-05,0.0,-2.737342534098186e-05
5,0.00014188,1.98053,27.5852,-1.53544e-13,7.39143,-7.81729e-17,3.37333e-18,-3.02053e-05,0.000129511,-4.25596e-05,9.22122e-05,-3.27281e-21,8.76987e-22,0.0,-3.0204843824543914e-05,9.221645167567516e-05,0.0,0.0001295193869115252,0.0,-4.255869435310089e-05
6,0.00021781,3.04047,42.3484,-8.02802e-13,11.3472,-1.25906e-17,-1.41977e-17,-4.63708e-05,0.000198823,-6.53367e-05,0.000141563,1.30916e-20,-3.50782e-21,0.0,-4.636972489102664e-05,0.00014157302051431842,0.0,0.0001988427666026471,0.0,-6.533456560431361e-05
7,0.00033172,4.63024,64.491,-4.04998e-12,17.2803,-1.25899e-17,-1.41952e-17,-7.06166e-05,0.000302781,-9.94992e-05,0.000215581,1.3092e-20,-3.50791e-21,0.0,-7.061410670661239e-05,0.00021560423925381933,0.0,0.00030282684279359096,0.0,-9.949425011879232e-05
8,0.00050258,7.01456,97.7002,-2.05221e-11,26.1787,-3.83405e-17,4.14358e-16,-0.00010698,0.000458697,-0.000150736,0.000326594,1.75327e-21,6.54328e-21,0.0,-0.00010697427784389646,0.00032664733762688414,0.0,0.00045880221755600914,0.0,-0.00015072463989995732
9,0.00075887,10.5903,147.503,-1.03755e-10,39.5234,-1.96334e-17,1.53348e-15,-0.000161514,0.00069252,-0.000227574,0.000493077,-2.44379e-20,1.35462e-20,0.0,-0.00016150095731615188,0.0004931985824463414,0.0,0.0006927598473382979,0.0,-0.0002275481070015406
10,0.0011433,15.9521,222.184,-5.2473e-10,59.5341,1.72248e-16,1.20028e-15,-0.000243289,0.00104314,-0.000342794,0.000742721,-5.7803e-24,-2.15724e-23,0.0,-0.00024325940763114673,0.0007429968855396929,0.0,0.0010436842597596474,0.0,-0.00034273525284966855
11,0.00172,23.991,334.152,-2.65262e-09,89.5357,-1.15825e-15,4.3205e-16,-0.000365891,0.00156882,-0.000515542,0.00111701,-5.94097e-20,-1.21603e-20,0.0,-0.0003658240700513682,0.001117634088019237,0.0,0.0015700512418777013,0.0,-0.0005154091310572984
12,0.0025849,24.9875,349.166,-0.181499,93.5933,-0.00321827,-0.029421,-0.00069586,0.00234625,-0.000932549,0.00175651,-1.99552e-07,-4.07091e-07,0.000785743,-0.0006956179455788192,0.0017580535673216158,-1.9955198005128238e-07,0.0023490045984355667,-4.070909170872383e-07,-0.0009321143113146801
13,0.0034499,25.6395,355.431,0.261996,95.1774,0.027238,0.084171,-0.00103444,0.00312255,-0.00135607,0.00239952,1.9961e-07,1.73045e-06,0.00161735,-0.0010339051513820197,0.0024024011521150967,1.9961001984647453e-07,0.0031274302375243757,1.7304514972060758e-06,-0.0013551509525553396
14,0.0043149,25.768,360.797,-0.316364,96.7464,-0.0111411,-0.0517324,-0.00137277,0.00389783,-0.00178351,0.00304333,-5.06518e-07,-1.38221e-07,0.00245019,-0.001371828182279211,0.0030479656301356517,-5.065178717567065e-07,0.003905436418986108,-1.382209904310372e-07,-0.0017819204911486697
15,0.0053149,26.554,367.883,0.305232,98.5012,0.0348178,0.089773,-0.00176372,0.00479376,-0.0022721,0.00378525,9.1697e-08,2.52692e-06,0.00341098,-0.0017621655598808461,0.0037924231065928904,9.16970042119658e-08,0.004805268449702194,2.5269231926916547e-06,-0.002269520734614394
16,0.0063149,27.0031,374.334,0.290236,100.229,0.0333704,0.0831481,-0.00215471,0.00568861,-0.00276265,0.00452726,9.1414e-08,3.2757e-06,0.00437237,-0.0021523902788158633,0.004537523524256182,9.141400414414136e-08,0.005704820866387461,3.2757053651799595e-06,-0.0027588373942619704
17,0.0073149,27.2935,380.37,-0.081261,101.949,0.0114326,-0.000762686,-0.00254501,0.0065823,-0.00325452,0.00526947,-3.16123e-07,2.44698e-06,0.00533394,-0.0025417742076733196,0.005283378075705114,-3.1612295003924373e-07,0.006604010946491767,2.4469829937867615e-06,-0.00324922979037201
18,0.0083149,27.9369,386.904,0.341134,103.595,0.0536763,0.100949,-0.00293534,0.0074755,-0.00374271,0.00600957,3.78102e-07,4.63531e-06,0.00629407,-0.002931036101706974,0.0060276636927381055,3.781020714299643e-07,0.007503511306127475,4.635320743018312e-06,-0.003735714790662481
19,0.0093149,28.018,392.428,-0.355477,105.24,-0.0118454,-0.0695029,-0.00332518,0.00836733,-0.0042352,0.00675072,-7.20642e-07,2.23897e-06,0.00725546,-0.003319657711547186,0.0067735574711274005,-7.206417403926579e-07,0.008402433946123944,2.2389725065075083e-06,-0.0042262441881590895
20,0.010315,28.7492,398.872,0.26228,106.81,0.0313135,0.0699508,-0.00371481,0.00925884,-0.00472203,0.00748909,-1.62429e-07,4.65243e-06,0.00821461,-0.003707918629350493,0.007517203371883552,-1.624289868162876e-07,0.009301835653249713,4.652440822594528e-06,-0.004710898743940151
21,0.011315,28.8583,404.194,-0.384587,108.394,-0.0206812,-0.0839032,-0.00410396,0.0101489,-0.00521366,0.00822886,-1.13489e-06,2.36735e-06,0.00917521,-0.004095550264498593,0.008262810128173648,-1.1348893560469975e-06,0.01020057475161984,2.36735280223499e-06,-0.005200092463783279
22,0.012315,29.2435,409.888,-0.401346,109.92,-0.0181935,-0.0847677,-0.00449276,0.0110383,-0.00570257,0.00896695,-1.40204e-06,1.98821e-06,0.0101346,-0.004482682651143044,0.009007273532400939,-1.40203901710656e-06,0.01109944681195607,1.9882119763892092e-06,-0.005686341210953572
23,0.013315,30.0326,416.064,0.336345,111.411,0.0471138,0.0938872,-0.00488142,0.0119271,-0.00618784,0.00970345,-4.5548e-07,5.00603e-06,0.0110924,-0.004869525231715577,0.009750681115596072,-4.5547989624417085e-07,0.011998511485437513,5.006042530286692e-06,-0.006168734745132465
24,0.014315,30.3768,421.502,0.281203,112.868,0.0334832,0.0727434,-0.00527031,0.0128149,-0.00667563,0.01044,-5.79609e-07,5.38133e-06,0.0120511,-0.005256446282308258,0.010494686944882758,-5.796088320408899e-07,0.012897362704952009,5.38134447936045e-06,-0.006653397481583001
25,0.015315,30.6346,426.615,-0.044719,114.33,0.0137337,-0.00358612,-0.0056584,0.0137015,-0.00716438,0.0111768,-9.01896e-07,4.57531e-06,0.0130096,-0.005642421406683029,0.011239493783368415,-9.01895593319324e-07,0.013795795723231308,4.575320466715382e-06,-0.007138777009279673
26,0.016315,31.1351,432.113,0.265557,115.721,0.0468289,0.0756789,-0.00604661,0.0145876,-0.00765008,0.0119116,-3.5465e-07,6.19924e-06,0.013967,-0.006028366043637989,0.011982825630075356,-3.5464993708433923e-07,0.014694518298054238,6.199259215300401e-06,-0.0076208926140338695
27,0.017315,31.2817,436.88,-0.224679,117.122,-0.00107821,-0.0492281,-0.00643415,0.0154724,-0.00813878,0.0126472,-1.1112e-06,4.49588e-06,0.014925,-0.006413495179368622,0.012727514059433398,-1.1111993826196098e-06,0.015592717312490345,4.495890106426259e-06,-0.008105749799310336
28,0.018315,31.6128,441.903,-0.255981,118.464,-0.00819329,-0.0600818,-0.00682142,0.0163565,-0.00862539,0.0133811,-1.39632e-06,4.1493e-06,0.0158819,-0.00679820692662314,0.01347102758091645,-1.3963190251820023e-06,0.01649099986115643,4.149308608258906e-06,-0.008588298044477916
29,0.019315,32.2259,447.237,0.242278,119.784,0.0376379,0.0643398,-0.00720846,0.01724,-0.00910936,0.0141139,-7.40645e-07,6.23732e-06,0.0168376,-0.007182541367415585,0.014213971331271225,-7.40644725771844e-07,0.017389466498727746,6.237339452042079e-06,-0.009067995476926938
30,0.020315,32.3028,451.663,-0.289464,121.087,-0.00642976,-0.0671496,-0.00759528,0.0181222,-0.00959709,0.0148473,-1.46697e-06,4.34104e-06,0.0177944,-0.007566508748844791,0.01495806868499261,-1.46696892400211e-06,0.01828740350785063,4.341049422373899e-06,-0.009551184900925658
31,0.021315,32.6494,456.423,-0.26861,122.355,-0.00735954,-0.0637226,-0.00798162,0.0190038,-0.0100824,0.0155792,-1.65505e-06,4.1496e-06,0.0187499,-0.007949851448777356,0.01570118840695267,-1.6550486303668066e-06,0.019185521515031168,4.149608609615996e-06,-0.01003174299612486
32,0.022315,33.2297,461.446,0.216334,123.596,0.0362841,0.0588226,-0.0083678,0.0198846,-0.0105653,0.01631,-1.029e-06,6.1566e-06,0.0197043,-0.008332887409970735,0.016443734128599674,-1.0289994706313976e-06,0.020083615584947756,6.156618951980164e-06,-0.010509683259467772
33,0.023315,33.3212,465.625,-0.261503,124.823,-0.0032868,-0.0606701,-0.00875372,0.0207642,-0.0110517,0.0170413,-1.66768e-06,4.44689e-06,0.0206596,-0.008715517744963153,0.017187331294532093,-1.6676786094294016e-06,0.020981275866331472,4.446899887433631e-06,-0.010990854319242072
34,0.024315,33.9775,470.62,0.43131,126.008,0.0585377,0.114573,-0.00913948,0.0216434,-0.0115328,0.0177705,-6.84849e-07,7.41402e-06,0.0216127,-0.009097841899413761,0.01792933479811043,-6.848487654753654e-07,0.02187931732525028,7.414047483944586e-06,-0.011466552180933176
35,0.025315,33.8612,474.292,-0.465209,127.194,-0.020382,-0.114222,-0.00952476,0.0225212,-0.0120202,0.0185011,-1.90366e-06,4.03583e-06,0.0225677,-0.009479543147236758,0.018673305709595134,-1.9036581880849113e-06,0.022776716801005348,4.0358381439009605e-06,-0.01194824598508426
36,0.026315,34.2081,478.639,-0.37817,128.336,-0.0157544,-0.092887,-0.00990953,0.0233984,-0.0125034,0.0192296,-2.04809e-06,3.9038e-06,0.0235207,-0.009860592390560141,0.019415679589658064,-2.048087902717377e-06,0.023674290155100808,3.903807619831667e-06,-0.012425557264932108
37,0.027315,34.7983,483.304,0.233381,129.447,0.0382568,0.0636406,-0.0102943,0.024275,-0.0129838,0.0199568,-1.27345e-06,6.32688e-06,0.0244725,-0.010241495045769433,0.020157268280823315,-1.2734491892096855e-06,0.02457203646256967,6.326900014785863e-06,-0.01289987408719917
38,0.028315,34.8414,486.984,-0.314761,130.561,-0.00896408,-0.0760441,-0.0106787,0.0251503,-0.0134686,0.020685,-2.02046e-06,4.2781e-06,0.0254254,-0.010621885099421524,0.02090041735132231,-2.0204579588289917e-06,0.02546923696860426,4.278109151156784e-06,-0.013378304247400385
39,0.029315,35.4905,491.612,0.471821,131.621,0.0634837,0.126855,-0.0110631,0.0260252,-0.0139475,0.0214106,-8.76272e-07,7.6108e-06,0.0263759,-0.011002128959237245,0.021641451508832343,-8.76271616045976e-07,0.026366812591230193,7.610828962167915e-06,-0.013850684257074808
40,0.030315,35.3274,494.794,-0.508544,132.702,-0.0250276,-0.1271,-0.0114468,0.0268986,-0.0144332,0.0221381,-2.21877e-06,3.85943e-06,0.0273284,-0.011381534648719271,0.022384966085439828,-2.218767538586519e-06,0.027263632949787953,3.859437447628622e-06,-0.014329540680035113
41,0.031315,35.6607,498.754,-0.378536,133.73,-0.0160347,-0.0940628,-0.0118301,0.0277716,-0.0149143,0.0228633,-2.29079e-06,3.87316e-06,0.0282788,-0.011760399492402596,0.023126668571660458,-2.2907873761246478e-06,0.028160825668993805,3.873167500723085e-06,-0.014803632686037571
42,0.032315,36.1967,502.986,0.205756,134.727,0.0365088,0.0578025,-0.0122134,0.0286439,-0.015393,0.0235871,-1.5374e-06,6.17714e-06,0.029228,-0.012139119145018973,0.02386747572013803,-1.5373988182521003e-06,0.02905808163852175,6.177159078468719e-06,-0.015275133324389234
43,0.033315,36.2499,506.314,-0.278669,135.735,-0.00572254,-0.0671725,-0.0125963,0.0295149,-0.0158755,0.0243119,-2.18859e-06,4.36015e-06,0.0301781,-0.012517298669207921,0.024609843868257597,-2.1885876050342645e-06,0.029954781683809273,4.360159505445438e-06,-0.015750148465941693
44,0.034315,36.8126,510.471,0.40982,136.687,0.0588477,0.112957,-0.0129792,0.0303856,-0.0163529,0.0250343,-1.16644e-06,7.29471e-06,0.0311261,-0.012895333416176435,0.02535028943620632,-1.166439319688628e-06,0.03085195383943895,7.294736606544561e-06,-0.016219917202344614
45,0.035315,36.7059,513.385,-0.420277,137.666,-0.0173418,-0.104925,-0.0133613,0.0312548,-0.016836,0.0257582,-2.29655e-06,4.12069e-06,0.0320756,-0.013272434059612204,0.02609280923334434,-2.296547362945489e-06,0.031748359879344434,4.12069848998442e-06,-0.01669506657877118
46,0.036315,37.0019,516.958,-0.302103,138.591,-0.0101538,-0.0755136,-0.0137432,0.0321235,-0.0173152,0.0264801,-2.34464e-06,4.18982e-06,0.0330233,-0.013649193370275259,0.026833813065482603,-2.3446372513502567e-06,0.03264502909145528,4.189828777256821e-06,-0.01716615342144434
47,0.037315,37.4559,520.73,0.166807,139.492,0.0334536,0.0484377,-0.0141251,0.0329915,-0.0177923,0.0272008,-1.71287e-06,6.07329e-06,0.0339699,-0.01402580882402893,0.027574118931734448,-1.7128685330103366e-06,0.033541754099058796,6.073308442378078e-06,-0.017634951608946903
48,0.038315,37.5353,523.784,-0.204722,140.4,0.00152857,-0.0480344,-0.0145065,0.0338584,-0.0182724,0.0279221,-2.18538e-06,4.70911e-06,0.0349171,-0.014401787676818545,0.02831557551789099,-2.18537761209614e-06,0.034438119919316,4.709121087964618e-06,-0.018106471871183527
49,0.039315,37.992,527.454,0.31456,141.261,0.0504199,0.0891983,-0.0148879,0.0347248,-0.0187485,0.0286414,-1.40024e-06,6.95579e-06,0.0358625,-0.014777623158616304,0.02905550899653364,-1.4002390196221626e-06,0.03533474546851445,6.955814191522691e-06,-0.018573840114087137
50,0.040315,37.9652,530.193,-0.29423,142.141,-0.00582787,-0.0724569,-0.0152685,0.0355899,-0.0192288,0.0293618,-2.20927e-06,4.65313e-06,0.0368088,-0.015152527446430586,0.029797107676986734,-2.209267559560857e-06,0.036230801089794484,4.653140825761071e-06,-0.019045105915138638
51,0.041315,38.5013,533.903,0.448954,142.956,0.0631073,0.123983,-0.0156495,0.0364547,-0.0197031,0.0300794,-1.10992e-06,7.80234e-06,0.0377527,-0.015527682861828596,0.030536355291777006,-1.1099193840680144e-06,0.03712732108594907,7.802370438403372e-06,-0.01951026250079868
52,0.042315,38.3527,536.296,-0.443155,143.814,-0.0205364,-0.113824,-0.0160294,0.037318,-0.0201838,0.0307989,-2.32956e-06,4.34318e-06,0.0386983,-0.015901612862608494,0.03127809300755402,-2.3295572866288694e-06,0.03802305969218023,4.3431894316547925e-06,-0.019981470653661404
53,0.043315,38.6251,539.426,-0.293862,144.612,-0.0103259,-0.075597,-0.0164092,0.0381808,-0.02066,0.0315161,-2.32337e-06,4.52419e-06,0.0396418,-0.016275302461896457,0.03201799095154634,-2.323367300993695e-06,0.03891905246378102,4.524200234223841e-06,-0.02044804437731551
54,0.044315,39.0233,542.714,0.143047,145.389,0.0311573,0.0418425,-0.0167889,0.039043,-0.0211345,0.0322322,-1.72231e-06,6.2686e-06,0.0405843,-0.016648751825703134,0.03275728370704534,-1.7223085168049934e-06,0.03981519474223627,6.268619647809004e-06,-0.020912731524514117
55,0.045315,39.1004,545.363,-0.174066,146.177,0.00373022,-0.0413782,-0.0171681,0.0399041,-0.0216117,0.0329488,-2.11439e-06,5.09775e-06,0.0415272,-0.017021567928610426,0.03349762280836854,-2.1143877646512266e-06,0.04071096522505968,5.097762993511168e-06,-0.021379840507963044
56,0.046315,39.4829,548.533,0.26628,146.921,0.0459485,0.0766917,-0.0175474,0.0407646,-0.0220853,0.0336636,-1.4312e-06,7.0121e-06,0.0424685,-0.017394340947022968,0.0342366309992137,-1.4311989758875043e-06,0.0416068824237279,7.01212458475986e-06,-0.021843205282058964
57,0.047315,39.4826,550.929,-0.231275,147.685,-0.000834329,-0.0572017,-0.0179259,0.0416239,-0.0225623,0.0343793,-2.08384e-06,5.13016e-06,0.0434105,-0.017766186812705143,0.03497709910092284,-2.083837828847912e-06,0.04250231988740194,5.130173159395568e-06,-0.022309674811312186
58,0.048315,39.9129,554.1,0.359898,148.389,0.0549157,0.101098,-0.0183047,0.0424829,-0.0230345,0.0350924,-1.18796e-06,7.65633e-06,0.0443503,-0.018138186519947697,0.03571540448178867,-1.187959294379759e-06,0.043398214111666,7.656359309660132e-06,-0.02277123120082647
59,0.049315,39.8329,556.239,-0.329407,149.134,-0.0109574,-0.085037,-0.0186825,0.0433404,-0.0235116,0.0358071,-2.12397e-06,4.98816e-06,0.0452913,-0.018509063849941554,0.036455894864090066,-2.123967744349642e-06,0.04429331179855245,4.988172440878458e-06,-0.02323735584354525
60,0.050315,40.3339,559.463,0.474592,149.797,0.0658242,0.131284,-0.0190607,0.0441979,-0.023982,0.0365186,-9.13516e-07,8.37391e-06,0.0462296,-0.01888019353694592,0.03719359563921598,-9.135155827344477e-07,0.04518917736088479,8.37394506136846e-06,-0.023696716941155826
61,0.051315,40.1562,561.308,-0.459049,150.526,-0.0241003,-0.121469,-0.0194378,0.0450537,-0.0244593,0.0372324,-2.20837e-06,4.7018e-06,0.0471697,-0.019250104064949536,0.03793420872114628,-2.2083675615958143e-06,0.046084033113031,4.701811053386962e-06,-0.024162595307443135
62,0.052315,40.3995,563.954,-0.278431,151.184,-0.0105016,-0.0741625,-0.0198148,0.0459091,-0.0249319,0.0379436,-2.14319e-06,5.0057e-06,0.0481075,-0.0196197770879738,0.03867265008901355,-2.14318770341837e-06,0.046979236218738674,5.005712528483031e-06,-0.02462366710505337
63,0.053315,40.7357,566.711,0.117031,151.827,0.0281422,0.0341029,-0.0201918,0.0467639,-0.0254029,0.0386539,-1.58418e-06,6.57542e-06,0.0490445,-0.019989310770535673,0.03941068135314563,-1.5841787451842393e-06,0.04787457668385575,6.575441618084099e-06,-0.02508296118560005
64,0.054315,40.8076,568.919,-0.140791,152.484,0.00582249,-0.0341874,-0.0205682,0.0476176,-0.0258762,0.0393646,-1.8897e-06,5.61855e-06,0.0499816,-0.020358117380203433,0.04014965308688456,-1.8896982144633867e-06,0.0487695291660839,5.6185657841822945e-06,-0.025544280240304862
65,0.055315,41.1144,571.547,0.217285,153.1,0.0408722,0.0632923,-0.0209447,0.0484707,-0.0263466,0.0400736,-1.31572e-06,7.18347e-06,0.0509173,-0.020726883124502216,0.04088738068445319,-1.3157191344204122e-06,0.049664616196502864,7.1834958010885686e-06,-0.02600255641587279
66,0.056315,41.1334,573.561,-0.170767,153.738,0.00366613,-0.0425973,-0.0213204,0.0493227,-0.0268196,0.0407832,-1.81488e-06,5.71614e-06,0.0518534,-0.02109472693072656,0.0416262564919192,-1.8148783531568569e-06,0.0505593115355949,5.716156337154388e-06,-0.02646314826812779
67,0.057315,41.4638,576.164,0.277377,154.322,0.0467083,0.0790363,-0.0216964,0.0501743,-0.0272887,0.0414907,-1.11355e-06,7.64984e-06,0.0527877,-0.021462726125216602,0.04236346782614553,-1.1135493800384921e-06,0.05145434889811584,7.64986926005129e-06,-0.02691972730628911
68,0.058315,41.4353,577.996,-0.228902,154.942,-0.00273348,-0.0595416,-0.0220714,0.0510246,-0.0277615,0.0421993,-1.79246e-06,5.69533e-06,0.0537226,-0.02182960880811713,0.04310234833389415,-1.7924583934902927e-06,0.0523487807447931,5.695346218415054e-06,-0.027379690915253163
69,0.059315,41.8018,580.603,0.34417,155.494,0.0531086,0.0966439,-0.0224468,0.0518746,-0.0282293,0.0429053,-9.01646e-07,8.13543e-06,0.0546553,-0.022196745057185052,0.04383903861288707,-9.016455935206835e-07,0.053243657477158424,8.135463092751039e-06,-0.027834576289858415
70,0.060315,41.719,582.24,-0.302114,156.1,-0.0105687,-0.0806074,-0.0228211,0.0527232,-0.0287018,0.0436128,-1.79144e-06,5.60148e-06,0.0555891,-0.0225626683286978,0.04457781604440525,-1.791438395404299e-06,0.05413781938413198,5.601495688400959e-06,-0.028293815948647993
71,0.061315,42.1315,584.877,0.424488,156.617,0.060976,0.118091,-0.023196,0.0535718,-0.0291682,0.0443172,-6.68818e-07,8.66388e-06,0.0565203,-0.022929040903511,0.04531387586786195,-6.688177763836123e-07,0.05503274039894346,8.663917531626097e-06,-0.028746914042200644
72,0.062315,41.9855,586.3,-0.390445,157.212,-0.0199345,-0.105877,-0.0235695,0.0544186,-0.0296406,0.0450238,-1.81343e-06,5.43239e-06,0.057453,-0.02329390876341908,0.046052755668041234,-1.8134283557014186e-06,0.055926520496597965,5.43240475536777e-06,-0.02920562564379625
73,0.063315,42.454,588.994,0.520725,157.695,0.0705216,0.144041,-0.023944,0.0552657,-0.0301054,0.0457265,-4.12004e-07,9.24494e-06,0.0583826,-0.02365961671149963,0.0467880752637313,-4.1200391509566003e-07,0.056821374814146175,9.244982734690765e-06,-0.029656746020499836
74,0.064315,42.2349,590.184,-0.495478,158.282,-0.0309993,-0.135817,-0.0243167,0.0561108,-0.0305779,0.0464322,-1.86075e-06,5.18184e-06,0.0593141,-0.02402343097135262,0.04752705432653892,-1.8607482688004495e-06,0.057714872052082145,5.181853425684224e-06,-0.03011512490746515
75,0.065315,42.4461,592.279,-0.269693,158.778,-0.0121034,-0.0751017,-0.0246897,0.0569559,-0.031045,0.047135,-1.7179e-06,5.65295e-06,0.0602433,-0.02438740234671888,0.04826351510232296,-1.7178985244337142e-06,0.05860912470368862,5.6529659779869235e-06,-0.03056805234318316
76,0.066315,42.7164,594.435,0.0895568,159.265,0.0242076,0.0252409,-0.0250627,0.0578002,-0.031511,0.0478369,-1.19697e-06,7.06141e-06,0.0611717,-0.024751237986078478,0.048999549544642695,-1.1969692835789303e-06,0.05950328580466846,7.061434931898702e-06,-0.031019702388157544
77,0.067315,42.7757,596.127,-0.111018,159.771,0.00686528,-0.0283385,-0.025435,0.0586434,-0.0319788,0.0485392,-1.42262e-06,6.30638e-06,0.0621001,-0.025114255520269246,0.04973652068541301,-1.422618988056179e-06,0.06039703572727273,6.306399885191993e-06,-0.03147288536361803
78,0.068315,43.0067,598.149,0.172487,160.241,0.03543,0.0502096,-0.0258074,0.0594861,-0.0324443,0.0492399,-9.48723e-07,7.54819e-06,0.0630272,-0.025477235380468644,0.0504723288257336,-9.487225499649199e-07,0.0612910089319858,7.548218487585245e-06,-0.03192362981657049
79,0.069315,43.0318,599.7,-0.118977,160.733,0.00675689,-0.0305476,-0.0261791,0.0603277,-0.0329117,0.049941,-1.31503e-06,6.44194e-06,0.0639543,-0.025839398179951734,0.05120907321103929,-1.315029135362522e-06,0.06218456740176537,6.4419607492816056e-06,-0.03237600298414944
80,0.070315,43.2698,601.684,0.207291,161.179,0.0388742,0.0593692,-0.0265509,0.0611689,-0.0333761,0.0506404,-7.81082e-07,7.86254e-06,0.0648799,-0.02620152376838991,0.05194454600169762,-7.810816949893606e-07,0.06307845297542536,7.862570909900057e-06,-0.03282526324205748
81,0.071315,43.2703,603.116,-0.147872,161.657,0.00319489,-0.0393199,-0.0269219,0.0620089,-0.033843,0.0513404,-1.24893e-06,6.49263e-06,0.0658058,-0.026562735994060893,0.05268116497045927,-1.2489292200434932e-06,0.06397181403504004,6.492651077216749e-06,-0.03327673172313128
82,0.072315,43.522,605.077,0.240484,162.079,0.0420454,0.0680664,-0.0272932,0.0628485,-0.0343064,0.0520383,-6.16569e-07,8.16615e-06,0.0667299,-0.02692410615766372,0.05341608757690608,-6.165688098969113e-07,0.0648654998869258,8.166183343094602e-06,-0.03372460750481743
83,0.073315,43.4967,606.39,-0.18281,162.545,-0.000896276,-0.0497302,-0.0276635,0.0636869,-0.0347728,0.0527372,-1.19133e-06,6.5113e-06,0.0676545,-0.027284369454287583,0.05415257741690915,-1.1913292903287243e-06,0.06575865748137688,6.511321198665598e-06,-0.03417517326777375
84,0.074315,43.7656,608.34,0.277299,162.944,0.0456417,0.0778349,-0.0280342,0.064525,-0.035235,0.0534337,-4.47006e-07,8.47603e-06,0.0685771,-0.027644888312231997,0.05488705043761777,-4.470059000727389e-07,0.06665224421742821,8.47606592158101e-06,-0.034621474354562976
85,0.075315,43.7124,609.53,-0.222201,163.398,-0.00544205,-0.0613798,-0.0284038,0.0653618,-0.0357009,0.0541315,-1.14152e-06,6.5025e-06,0.0695004,-0.02800420435581663,0.05562340750651518,-1.141519348490938e-06,0.06754519237279144,6.502521141316109e-06,-0.035071139452042877
86,0.076315,44.0012,611.477,0.318393,163.773,0.0496928,0.0888564,-0.0287739,0.0661984,-0.036162,0.0548266,-2.72122e-07,8.79472e-06,0.0704215,-0.028363873438915332,0.05635742641579067,-2.721219629631122e-07,0.06843867437213857,8.79475867376911e-06,-0.0355159655870948
87,0.077315,43.9178,612.542,-0.265931,164.218,-0.0104342,-0.0742398,-0.0291428,0.0670335,-0.0366275,0.0555233,-1.09942e-06,6.46703e-06,0.0713435,-0.028722243900507927,0.05709364706745901,-1.0994193956337384e-06,0.06933130017313416,6.467050911229677e-06,-0.03596482842418336
88,0.078315,44.2291,614.495,0.363855,164.569,0.0542268,0.101161,-0.0295124,0.0678686,-0.0370874,0.0562169,-9.15042e-08,9.12312e-06,0.0722631,-0.029081161827043678,0.05782710155367665,-9.150419577608204e-08,0.07022467171727786,9.123161615720576e-06,-0.03640808626463787
89,0.079315,44.1134,615.429,-0.313969,165.006,-0.0158756,-0.0883102,-0.0298806,0.0687021,-0.0375525,0.0569125,-1.06501e-06,6.40541e-06,0.0731837,-0.029438588337000415,0.05856318206463906,-1.0650094328656934e-06,0.07111707583890747,6.405430514666577e-06,-0.03685614865872955
90,0.080315,44.4496,617.398,0.413651,165.333,0.0592497,0.114739,-0.0302496,0.0695357,-0.0380112,0.0576047,9.49891e-08,9.46153e-06,0.0741018,-0.029796659429724426,0.05929617315821445,9.4989104582055e-08,0.07201033129047296,9.46157476033882e-06,-0.03729784143335735
91,0.081315,44.2997,618.198,-0.366224,165.763,-0.0217648,-0.103574,-0.0306171,0.0703676,-0.0384759,0.0582993,-1.03819e-06,6.31841e-06,0.0750212,-0.030153143649396585,0.06003221587813368,-1.0381894610667075e-06,0.07290250773441209,6.3184299612384365e-06,-0.03774510519665908
92,0.082315,44.6631,620.191,0.467659,166.067,0.064757,0.129557,-0.0309856,0.0711998,-0.0389334,0.05899,2.8736e-07,9.80988e-06,0.0759377,-0.030510466375206047,0.06076463304079027,2.873600413177968e-07,0.07379574882741591,9.809928116943922e-06,-0.0381852361234053
93,0.083315,44.477,620.852,-0.422523,166.492,-0.0280897,-0.119989,-0.0313523,0.0720301,-0.0393978,0.0596836,-1.01867e-06,6.20707e-06,0.0768557,-0.030865913012062318,0.06150063460610378,-1.0186694811009644e-06,0.07468769167649913,6.207089263909893e-06,-0.03863179919977744
94,0.084315,44.8696,622.878,0.525671,166.771,0.0707341,0.145555,-0.0317203,0.0728608,-0.0398539,0.0603727,4.85472e-07,1.01677e-05,0.0777707,-0.03122248874211553,0.06223236678277644,4.854721178393362e-07,0.07558080564550296,1.0167751691270155e-05,-0.0390701792559911
95,0.085315,44.6458,623.398,-0.482606,167.192,-0.034828,-0.137489,-0.0320863,0.0736894,-0.040318,0.0610654,-1.00603e-06,6.07278e-06,0.0786875,-0.03157699643237122,0.06296843004932695,-1.006029493932914e-06,0.0764724012381024,6.072798439449301e-06,-0.03951604331504066
96,0.086315,45.0695,625.464,0.587391,167.446,0.0771559,0.162652,-0.0324538,0.0745187,-0.0407729,0.061753,6.8904e-07,1.05341e-05,0.0796008,-0.0319328264984029,0.06369957848185326,6.890402373116444e-07,0.07736549006854854,1.0534155483910013e-05,-0.039952868103605654
97,0.087315,44.8065,625.838,-0.546126,167.865,-0.0419468,-0.155982,-0.032819,0.0753457,-0.0412367,0.0624447,-9.99692e-07,5.91723e-06,0.0805163,-0.03228630008196076,0.06443559400191123,-9.996915003585016e-07,0.07825683985116849,5.917247506870282e-06,-0.04039803472126058
98,0.088315,44.9755,627.265,-0.258974,168.16,-0.0151945,-0.076516,-0.0331849,0.0761729,-0.0416944,0.0631328,-7.4988e-07,6.62494e-06,0.0814293,-0.032640321752546386,0.06516828418729248,-7.498797188754125e-07,0.07914914291475994,6.624961945034258e-06,-0.04083714404293459
99,0.089315,45.1668,628.687,0.0560473,168.457,0.018159,0.0136467,-0.0335506,0.0769993,-0.0421513,0.0638202,-2.80794e-07,7.83609e-06,0.0823414,-0.032994020509121924,0.06590073257951401,-2.807939605276033e-07,0.08004132036341138,7.836120702320315e-06,-0.04127528545079462
100,0.090315,45.2053,629.744,-0.078642,168.778,0.00680908,-0.0224616,-0.0339158,0.0778248,-0.0426098,0.0645079,-4.17939e-07,7.31408e-06,0.0832535,-0.03334710661538476,0.06663400462000113,-4.1793891270014427e-07,0.08093326257186684,7.314106748035343e-06,-0.041714759975181814
101,0.091315,45.3519,631.034,0.124582,169.07,0.0281471,0.0350966,-0.0342809,0.0786496,-0.0430663,0.0651943,-5.82732e-08,8.20208e-06,0.0841643,-0.03369996716814594,0.06736639352789031,-5.827319826678945e-08,0.08182518410471218,8.20211363716794e-06,-0.04215211735283653
102,0.092315,45.3717,632.003,-0.0685488,169.383,0.00848675,-0.0193953,-0.0346454,0.0794735,-0.0435242,0.0658809,-2.91909e-07,7.46092e-06,0.085075,-0.03405211934647967,0.06809949893997458,-2.9190895733943734e-07,0.0827168671522871,7.460947832660381e-06,-0.042590615496488904
103,0.093315,45.5147,633.252,0.139929,169.66,0.0297027,0.0391346,-0.0350099,0.0802968,-0.0439799,0.066566,7.29806e-08,8.37592e-06,0.0859844,-0.03440414318873508,0.06883150462661503,7.298060267224571e-08,0.08360863499487414,8.375955078188113e-06,-0.04302680755909738
104,0.094315,45.5258,634.16,-0.0760694,169.964,0.00714394,-0.0219847,-0.0353738,0.0811192,-0.044437,0.0672514,-2.01641e-07,7.54022e-06,0.0868937,-0.03475545959513171,0.06956433285143016,-2.0164097969121997e-07,0.08450016128165516,7.540248427639895e-06,-0.04346414004540766
105,0.095315,45.6696,635.38,0.149833,170.228,0.0305683,0.04159,-0.0357377,0.0819411,-0.0448919,0.0679352,1.94789e-07,8.52695e-06,0.0878016,-0.03510664818074649,0.07029595105398978,1.9478901891467615e-07,0.08539187836515016,8.526986354562283e-06,-0.043899169253205805
106,0.096315,45.6729,636.231,-0.0856708,170.523,0.00569156,-0.0251201,-0.0361009,0.0827619,-0.0453483,0.0686194,-1.13996e-07,7.60763e-06,0.0887094,-0.03545703381224474,0.07102849811947487,-1.1399599353367762e-07,0.08628313374008068,7.607658938146855e-06,-0.044335434109145644
107,0.097315,45.8183,637.425,0.159277,170.773,0.0313937,0.0439361,-0.0364642,0.0835823,-0.0458023,0.069302,3.14643e-07,8.67114e-06,0.0896159,-0.03580738862605537,0.07175983174806189,3.14643049392771e-07,0.08717468608776868,8.671177594399282e-06,-0.044769207348084206
108,0.098315,45.8141,638.221,-0.0955365,171.059,0.00423434,-0.0283187,-0.0368267,0.0844016,-0.0462581,0.0699851,-2.78818e-08,7.66864e-06,0.0905223,-0.03615684510486494,0.07249220100136888,-2.788179964685611e-08,0.08806577329210818,7.668669404159445e-06,-0.04520450233211193
109,0.099315,45.9614,639.39,0.168688,171.297,0.0321948,0.0462914,-0.0371895,0.0852205,-0.0467112,0.0706664,4.32583e-07,8.80992e-06,0.0914272,-0.036506463976762604,0.07322313890363441,4.325830935680841e-07,0.08895715528039916,8.809958807365348e-06,-0.045637022177334674
110,0.1003,45.9496,640.133,-0.105378,171.575,0.00280075,-0.0314952,-0.0375514,0.0860383,-0.0471662,0.0713482,5.70153e-08,7.72458e-06,0.0923322,-0.03685508919991032,0.07395511194099247,5.701530159107904e-08,0.08984806868682593,7.724609834669494e-06,-0.046071158558727454
111,0.1013,46.0989,641.278,0.178,171.801,0.0329798,0.0486407,-0.0379135,0.0868557,-0.0476185,0.0720283,5.48709e-07,8.94327e-06,0.0932357,-0.037203780837680056,0.07468575724039495,5.487091505607111e-07,0.09073927468444065,8.94330999123838e-06,-0.04650252301328606
112,0.1023,46.0799,641.97,-0.115063,172.071,0.00140016,-0.034613,-0.0382747,0.087672,-0.0480728,0.072709,1.40842e-07,7.77623e-06,0.0941392,-0.0375514800337865,0.07541754487101238,1.4084200983255357e-07,0.09163000865797555,7.776260234848564e-06,-0.04693559853652751
113,0.1033,46.2311,643.093,0.187105,172.285,0.0337423,0.0509521,-0.0386363,0.088488,-0.0485242,0.0733877,6.62943e-07,9.071e-06,0.0950412,-0.03789943850392341,0.07614767850153692,6.629432196536555e-07,0.09252114227811026,9.071041141561764e-06,-0.04736571472282147
114,0.1043,46.205,643.735,-0.124479,172.547,3.9415e-05,-0.0376412,-0.0389969,0.0893027,-0.0489778,0.0740673,2.23716e-07,7.8243e-06,0.0959433,-0.03824630942181373,0.07687927703286968,2.2371602503845622e-07,0.09341158192406263,7.824330609862429e-06,-0.04779773164577761
115,0.1053,46.3581,644.837,0.195894,172.75,0.0344738,0.0531931,-0.0393578,0.0901172,-0.0494283,0.0747448,7.75181e-07,9.19288e-06,0.0968438,-0.03859334370264067,0.07760910994604231,7.75181300483041e-07,0.09430252844625553,9.192922254541713e-06,-0.04822660215733521
116,0.1063,46.3254,645.432,-0.133498,173.005,-0.00126108,-0.0405582,-0.0397177,0.0909306,-0.0498812,0.0754232,3.05971e-07,7.86932e-06,0.0977444,-0.03893929170116561,0.07834040799448072,3.0597104672125397e-07,0.09519299622704436,7.869350963085608e-06,-0.04865756273082977
117,0.1073,46.4802,646.514,0.204241,173.197,0.0351503,0.0553394,-0.0400781,0.0917436,-0.0503309,0.0760994,8.85284e-07,9.30861e-06,0.0986435,-0.03928559557273048,0.07906982836760101,8.852843917939168e-07,0.0960837501753935,9.308653325268423e-06,-0.04908528524425437
118,0.1083,46.4412,647.063,-0.14207,173.446,-0.00252325,-0.0433051,-0.0404374,0.0925554,-0.0507831,0.0767766,3.87578e-07,7.91207e-06,0.0995427,-0.03963071825323872,0.07980082194185978,3.875780751894098e-07,0.0969739122316784,7.912101300577845e-06,-0.04951519166909846
119,0.1093,46.5974,648.125,0.212099,173.627,0.0357988,0.0573394,-0.0407971,0.093367,-0.0512319,0.0774516,9.93586e-07,9.41775e-06,0.10044,-0.0399761009630788,0.08052993354415272,9.935864935251004e-07,0.09786457764197953,9.41779434704415e-06,-0.04994167354138668
120,0.1103,46.5526,648.631,-0.150045,173.869,-0.00371245,-0.0458907,-0.0411558,0.0941773,-0.0516833,0.0781277,4.68756e-07,7.95297e-06,0.101338,-0.040320399781978544,0.08126072684906083,4.6875610992813677e-07,0.09875453782791754,7.953001625038425e-06,-0.050370433091639244
121,0.1113,46.7099,649.674,0.219329,174.04,0.0363814,0.0591899,-0.0415149,0.0949875,-0.0521313,0.0788014,1.09944e-06,9.52057e-06,0.102234,-0.04066495885713217,0.08198941763266854,1.0994406043352e-06,0.09964510947632443,9.520615320779413e-06,-0.050795771854617366
122,0.1123,46.6598,650.139,-0.157362,174.276,-0.00482685,-0.0482758,-0.041873,0.0957963,-0.0525821,0.0794763,5.49534e-07,7.9928e-06,0.10313,-0.04100843523225006,0.0827198987637594,5.495341510730611e-07,0.10053486220837038,7.99283194252709e-06,-0.05122357668621136
123,0.1133,46.818,651.162,0.225863,174.437,0.0368928,0.0608554,-0.0422315,0.096605,-0.0530292,0.0801489,1.20276e-06,9.61678e-06,0.104025,-0.041352172089706096,0.08344838112882402,1.2027607232401039e-06,0.10142522472099591,9.61682624134319e-06,-0.05164767980975682
124,0.1143,46.7631,651.589,-0.16394,174.667,-0.00585647,-0.0504406,-0.0425889,0.0974124,-0.0534792,0.0808226,6.30062e-07,8.03202e-06,0.10492,-0.04169473160436954,0.08417854623168863,6.300621984145494e-07,0.10231487455074206,8.032052256856659e-06,-0.05207434234757158
125,0.1153,46.9217,652.593,0.231627,174.819,0.0373256,0.062314,-0.0429468,0.0982196,-0.0539255,0.0814939,1.30347e-06,9.70625e-06,0.105813,-0.042037647691434143,0.08490659963355718,1.3034708494785718e-06,0.10320502233279139,9.706297105838146e-06,-0.05249730717695955
126,0.1163,46.8625,652.983,-0.16971,175.043,-0.00679411,-0.0523653,-0.0433036,0.0990256,-0.0543748,0.0821665,7.10457e-07,8.07108e-06,0.106706,-0.04237938768869687,0.0856365532683594,7.104572523619623e-07,0.10409456401793404,8.07111257117299e-06,-0.05292292451475
127,0.1173,47.0212,653.967,0.236557,175.187,0.0376725,0.0635465,-0.0436609,0.0998314,-0.0548203,0.0828366,1.40146e-06,9.78887e-06,0.107598,-0.04272148441425627,0.08636428212102532,1.4014609821533242e-06,0.10498460196574944,9.788917911146555e-06,-0.05334475338252165
128,0.1183,46.9584,654.323,-0.174615,175.404,-0.00763347,-0.0540339,-0.0440171,0.100636,-0.0552689,0.083508,7.90819e-07,8.11039e-06,0.10849,-0.04306240629971547,0.08709391200938654,7.908193127015295e-07,0.10587403034554499,8.110422889284763e-06,-0.05376932768701759
129,0.1193,47.1167,655.289,0.240604,175.54,0.0379271,0.0645371,-0.0443738,0.10144,-0.0557136,0.0841769,1.49665e-06,9.86457e-06,0.10938,-0.0434036850687014,0.08782131237906166,1.496651119925474e-06,0.10676351058908629,9.864618655042179e-06,-0.05419002291847752
130,0.1203,47.0507,655.613,-0.178612,175.752,-0.00836939,-0.0554337,-0.0447293,0.102243,-0.0561614,0.0848471,8.71233e-07,8.15026e-06,0.11027,-0.043743694618381124,0.08855061458448898,8.712333794402838e-07,0.10765259860915499,8.150293213438076e-06,-0.05461346181117066
131,0.1213,47.2083,656.559,0.243728,175.879,0.0380846,0.0652735,-0.0450855,0.103046,-0.0566053,0.0855148,1.589e-06,9.93332e-06,0.111159,-0.0440842524574061,0.0892776825344701,1.589001262569667e-06,0.10854240085362665,9.933369335524134e-06,-0.055033025766363375
132,0.1223,47.1398,656.854,-0.181669,176.086,-0.00899801,-0.0565558,-0.0454403,0.103848,-0.0570524,0.0861839,9.51763e-07,8.19098e-06,0.112048,-0.044423351204959216,0.09000676211822811,9.517634529387919e-07,0.10943180846389033,8.191013546099413e-06,-0.0554554260659198
133,0.1233,47.2961,657.779,0.245905,176.206,0.0381412,0.0657475,-0.0457959,0.104649,-0.0574954,0.0868504,1.67846e-06,9.99515e-06,0.112935,-0.044763093851448055,0.09073349378160422,1.678461408527454e-06,0.11032081934379478,9.995199951706724e-06,-0.05587376664289323
134,0.1243,47.2257,658.048,-0.183768,176.407,-0.00951683,-0.0573948,-0.0461501,0.10545,-0.0579418,0.0875183,1.03245e-06,8.23275e-06,0.113823,-0.045101378849795926,0.09146223801914877,1.0324505330672196e-06,0.11121054260668539,8.232783889283724e-06,-0.056295130538045246
135,0.1253,47.3803,658.952,0.247122,176.52,0.0380949,0.0659543,-0.0465051,0.10625,-0.0583841,0.0881836,1.76501e-06,1.00501e-05,0.114709,-0.04544030769687446,0.09218862945342021,1.7650115575751357e-06,0.11209986672298666,1.0050150502483035e-05,-0.0567124389072593
136,0.1263,47.3085,659.196,-0.184904,176.716,-0.00992474,-0.0579489,-0.0468587,0.107048,-0.0588297,0.0888504,1.11333e-06,8.27572e-06,0.115595,-0.04577778033539415,0.09291714369119375,1.1133306196953185e-06,0.11298767660566145,8.275754243891598e-06,-0.05713267420910351
137,0.1273,47.4611,660.08,0.247379,176.823,0.037945,0.065893,-0.0472131,0.107847,-0.0592712,0.0895145,1.84865e-06,1.00984e-05,0.116479,-0.04611589677227168,0.09364319102365193,1.8486517088245336e-06,0.11387730912013039,1.0098450988982322e-05,-0.05754885825405198
138,0.1283,47.3885,660.302,-0.185084,177.012,-0.010222,-0.0582203,-0.0475661,0.108644,-0.059716,0.0901801,1.19439e-06,8.31998e-06,0.117364,-0.04645255843643148,0.09437136224009501,1.1943907132216935e-06,0.11476542320194927,8.320014611040705e-06,-0.057967967305137647
139,0.1293,47.5385,661.164,0.246691,177.114,0.0376921,0.0655664,-0.0479198,0.109442,-0.0601567,0.0908431,1.92941e-06,1.014e-05,0.118246,-0.04678976852739236,0.09509717103228787,1.9294118613899514e-06,0.11565536104763852,1.0140051409868178e-05,-0.05838302935630557
140,0.1303,47.4656,661.366,-0.184326,177.298,-0.0104102,-0.0582142,-0.0482723,0.110238,-0.0606008,0.0915075,1.27563e-06,8.36556e-06,0.119129,-0.047125715919779876,0.09582499534918631,1.2756308136463446e-06,0.11654377625737622,8.36559499139966e-06,-0.058801108611598485
141,0.1313,47.6128,662.205,0.24508,177.394,0.0373383,0.0649804,-0.0486254,0.111033,-0.0610408,0.0921693,2.00732e-06,1.01753e-05,0.120011,-0.047462116434482615,0.09655045235835491,2.0073220146077375e-06,0.1174317814948127,1.017535176850437e-05,-0.05921514502911773
142,0.1323,47.5401,662.39,-0.18266,177.572,-0.0104923,-0.0579392,-0.0489772,0.111828,-0.0614841,0.0928326,1.35701e-06,8.41244e-06,0.120893,-0.04779716032424519,0.09727803554969361,1.3570109207439174e-06,0.118320492977108,8.412475384744766e-06,-0.05963210252986817
143,0.1333,47.6839,663.206,0.242583,177.663,0.0368869,0.0641445,-0.0493297,0.112622,-0.0619233,0.0934932,2.08244e-06,1.02044e-05,0.121772,-0.048132752673604395,0.09800313689458284,2.082442168260812e-06,0.11920879205659829,1.0204452065121217e-05,-0.060045021426809675
144,0.1343,47.6119,663.376,-0.180128,177.836,-0.0104723,-0.0574069,-0.0496809,0.113415,-0.0623658,0.0941553,1.43848e-06,8.46056e-06,0.122653,-0.048466989755398426,0.09873036549398195,1.438481034510275e-06,0.12009667662840307,8.460595790626968e-06,-0.0604608594938707
145,0.1353,47.7522,664.169,0.239245,177.922,0.0363424,0.0630707,-0.0500328,0.114208,-0.0628043,0.0948148,2.15486e-06,1.02276e-05,0.123531,-0.04880177531272989,0.09945521716359096,2.154862321690487e-06,0.12098526557191991,1.022765230218603e-05,-0.06087275709183426
146,0.1363,47.6813,664.325,-0.176778,178.09,-0.0103553,-0.0566315,-0.0503835,0.115,-0.063246,0.0954757,1.51998e-06,8.5098e-06,0.12441,-0.049135302042797147,0.10018208728438838,1.5199811551624975e-06,0.12187343757193836,8.509836208370203e-06,-0.06128747799717216
147,0.1373,47.8176,665.094,0.235119,178.171,0.0357103,0.0617738,-0.0507348,0.115792,-0.0636838,0.0961341,2.22465e-06,1.02453e-05,0.125287,-0.04946928214415003,0.10090668568227357,2.224652474458466e-06,0.1227623132828135,1.024535248328462e-05,-0.06169835639146182
148,0.1383,47.7482,665.238,-0.172668,178.334,-0.0101474,-0.0556296,-0.0510848,0.116582,-0.0641248,0.0967939,1.60142e-06,8.56e-06,0.126164,-0.049801909682184786,0.10163330359837697,1.6014212822490492e-06,0.12364964596056605,8.56003663685101e-06,-0.06211205618878313
149,0.1393,47.8803,665.983,0.230266,178.412,0.034997,0.0602706,-0.0514355,0.117372,-0.0645618,0.0974511,2.29193e-06,1.02578e-05,0.12704,-0.05013508572662506,0.10235753496186084,2.2919326265746776e-06,0.12453767990809883,1.0257852611328389e-05,-0.06252182367951087
150,0.1403,47.8128,666.118,-0.167862,178.569,-0.00985529,-0.0544195,-0.0517849,0.118161,-0.065002,0.0981097,1.68273e-06,8.61099e-06,0.127915,-0.050466910554499034,0.10308378676285357,1.6827314157641382e-06,0.12542529025378135,8.611027074723054e-06,-0.0629344107556492
151,0.1413,47.9405,666.838,0.224753,178.643,0.0342098,0.0585797,-0.052135,0.11895,-0.0654383,0.0987658,2.3568e-06,1.02654e-05,0.12879,-0.0507992839037642,0.10380775750798121,2.356802777159217e-06,0.12631360120037738,1.0265452689450782e-05,-0.06334316329638567
152,0.1423,47.8752,666.965,-0.162428,178.795,-0.00948658,-0.0530213,-0.0524839,0.119738,-0.0658777,0.0994233,1.7638e-06,8.66256e-06,0.129664,-0.051130402266652775,0.10453374975233864,1.7638015554766184e-06,0.1272014860988293,8.66259751997056e-06,-0.06375463990240249
153,0.1433,47.9982,667.661,0.218651,178.865,0.0333562,0.0567211,-0.0528333,0.120525,-0.0663133,0.100078,2.4194e-06,1.02685e-05,0.130537,-0.0514618793916749,0.10525712476927485,2.4194029266677575e-06,0.12808894283681038,1.0268552721237612e-05,-0.0641623795691143
154,0.1443,47.9354,667.78,-0.15644,179.012,-0.0090492,-0.051456,-0.0531816,0.121311,-0.0667519,0.100735,1.84452e-06,8.71448e-06,0.131409,-0.05179219769081156,0.10598351729406374,1.8445217011553439e-06,0.12897596930161392,8.71451797124223e-06,-0.06457274794907097
155,0.1453,48.0535,668.451,0.212035,179.079,0.0324445,0.0547158,-0.0535305,0.122097,-0.0671868,0.101388,2.47985e-06,1.02674e-05,0.132281,-0.0521229696865072,0.10670596038285396,2.479853074888183e-06,0.1298636932432915,1.0267452709822322e-05,-0.06497947681138616
156,0.1463,47.9934,668.566,-0.149972,179.221,-0.00855144,-0.0497454,-0.0538781,0.122882,-0.0676246,0.102044,1.9248e-06,8.7665e-06,0.133152,-0.05245239448489725,0.10743219767265222,1.9248018523487787e-06,0.13075098445872513,8.766538425852843e-06,-0.06538873920236388
157,0.1473,48.1067,669.211,0.204981,179.285,0.031483,0.0525854,-0.0542264,0.123667,-0.0680588,0.102696,2.53828e-06,1.02626e-05,0.134022,-0.052782367847701184,0.10815447890362906,2.538283221387161e-06,0.13163897247122014,1.0262652660575355e-05,-0.06579445932358974
158,0.1483,48.0495,669.322,-0.143101,179.422,-0.0080018,-0.0479118,-0.0545735,0.12445,-0.0684958,0.10335,2.00452e-06,8.81836e-06,0.134892,-0.053111090034785424,0.10887944897220447,2.004522009046994e-06,0.13252539277492614,8.818398881782485e-06,-0.0662026179557087
159,0.1493,48.1577,669.942,0.197566,179.484,0.0304804,0.0503516,-0.0549212,0.125234,-0.0689293,0.104002,2.59484e-06,1.02544e-05,0.13576,-0.05344026607820884,0.1096026741187115,2.594843366621191e-06,0.13341364083060236,1.0254452576630158e-05,-0.06660733139284947
160,0.1503,48.1035,670.05,-0.135904,179.616,-0.00740885,-0.0459774,-0.0552677,0.126016,-0.0693655,0.104655,2.08357e-06,8.86982e-06,0.136629,-0.05376819220952955,0.11032748128869674,2.0835721705747545e-06,0.13430031694290645,8.869859337012898e-06,-0.06701438848928898
161,0.1513,48.2066,670.646,0.189865,179.675,0.0294452,0.0480362,-0.0556147,0.126798,-0.0697984,0.105305,2.64966e-06,1.02433e-05,0.137496,-0.05409647768600856,0.11104942875904378,2.6496635103789856e-06,0.1351876867071129,1.0243352462691035e-05,-0.06741819055124953
162,0.1523,48.1556,670.751,-0.128455,179.802,-0.00678105,-0.0439639,-0.0559607,0.127578,-0.0702337,0.105957,2.16184e-06,8.92061e-06,0.138363,-0.05442370369136584,0.1117740691937057,2.1618423367009143e-06,0.13607347851664042,8.920649788857204e-06,-0.06782405507008127
163,0.1533,48.2537,671.322,0.181953,179.859,0.0283857,0.0456603,-0.0563071,0.128359,-0.0706659,0.106606,2.70287e-06,1.02295e-05,0.139228,-0.054751194595707764,0.11249584475544783,2.7028736526713004e-06,0.13696109847383742,1.0229552321439073e-05,-0.06822685446226118
164,0.1543,48.2059,671.426,-0.120827,179.981,-0.00612669,-0.0418928,-0.0566525,0.129138,-0.0711004,0.107257,2.23923e-06,8.97049e-06,0.140094,-0.05507762715494613,0.1132203153399729,2.23923250697311e-06,0.13784713623645017,8.970530235075103e-06,-0.06863162195189221
165,0.1553,48.2988,671.973,0.173902,180.036,0.0273102,0.0432446,-0.0569984,0.129918,-0.071532,0.107905,2.7546e-06,1.02134e-05,0.140958,-0.055404419281756545,0.11394191587763713,2.754603793952981e-06,0.13873500322582566,1.0213452156904168e-05,-0.06903351380935618
166,0.1563,48.2544,672.076,-0.11309,180.153,-0.00545374,-0.0397845,-0.0573432,0.130696,-0.0719657,0.108555,2.31563e-06,9.01921e-06,0.141822,-0.05573005969435485,0.1146662134941816,2.3156326811601957e-06,0.13962128377676541,9.019250673203416e-06,-0.06943718643168151
167,0.1573,48.3423,672.599,0.165779,180.207,0.0262262,0.0408084,-0.0576884,0.131474,-0.0723966,0.109202,2.80498e-06,1.01954e-05,0.142685,-0.05605596542318325,0.11538763588929113,2.804983934012739e-06,0.14050825412226886,1.0195451973338265e-05,-0.06983807956941868
168,0.1583,48.3011,672.703,-0.105309,180.319,-0.0047698,-0.037658,-0.0580326,0.13225,-0.0728295,0.10985,2.39096e-06,9.06655e-06,0.143547,-0.056380815050056654,0.11611064130580284,2.3909628583673737e-06,0.1413936320096587,9.06659110122554e-06,-0.07024065952005565
169,0.1593,48.384,673.201,0.157649,180.371,0.0251413,0.0383701,-0.0583773,0.133027,-0.0732597,0.110496,2.85414e-06,1.01758e-05,0.144409,-0.056706024530034926,0.11683188171565662,2.8541440730833756e-06,0.14228083949720305,1.0175851773652766e-05,-0.07064055596443752
170,0.1603,48.3461,673.306,-0.0975471,180.478,-0.00408197,-0.0355316,-0.0587209,0.133802,-0.0736918,0.111143,2.46512e-06,9.1123e-06,0.14527,-0.057030084663287295,0.11755470575148719,2.4651230383643252e-06,0.14316645027766417,9.1123415171257e-06,-0.07104204543215886
171,0.1613,48.4242,673.781,0.14957,180.529,0.0240621,0.0359468,-0.059065,0.134577,-0.0741214,0.111789,2.90217e-06,1.01548e-05,0.14613,-0.05735450479147053,0.11827687932835351,2.9021742113943816e-06,0.14405274767250886,1.0154851560084666e-05,-0.07144104005925889
172,0.1623,48.3895,673.886,-0.0898591,180.632,-0.00339684,-0.0334217,-0.0594081,0.135351,-0.0745527,0.112434,2.53803e-06,9.15627e-06,0.14699,-0.05767787098423405,0.11899840058111,2.538033220700342e-06,0.1449385872749096,9.156311918667726e-06,-0.07184144118597147
173,0.1633,48.4628,674.339,0.141596,180.681,0.0229949,0.033554,-0.0597515,0.136125,-0.0749816,0.113079,2.94919e-06,1.01327e-05,0.147848,-0.058001408848707414,0.11972038736519242,2.949194348955686e-06,0.14582511278257382,1.0132751335989454e-05,-0.07223944303424923
174,0.1643,48.4313,674.446,-0.0822964,180.78,-0.00272039,-0.0313432,-0.0600941,0.136898,-0.0754121,0.113723,2.60963e-06,9.19827e-06,0.148706,-0.05832408228891939,0.12044171953868532,2.609633405148415e-06,0.14671117801484623,9.198312304281586e-06,-0.07263875799531061
175,0.1653,48.5,674.877,0.133775,180.828,0.0219453,0.0312055,-0.0604369,0.13767,-0.0758403,0.114366,2.99529e-06,1.01099e-05,0.149564,-0.05864683347079758,0.12116239523675532,2.9952944857747354e-06,0.14759678084298167,1.0109951105174986e-05,-0.07303576907299902
176,0.1663,48.4715,674.984,-0.0749043,180.922,-0.00205803,-0.0293097,-0.0607789,0.138442,-0.0762701,0.11501,2.67985e-06,9.23818e-06,0.15042,-0.05896872120781005,0.12188465636240786,2.6798535908145737e-06,0.14848306762047092,9.238222672180996e-06,-0.0734340926935736
177,0.1673,48.5358,675.394,0.126149,180.969,0.0209184,0.0289138,-0.0611211,0.139213,-0.0766976,0.115652,3.04055e-06,1.00864e-05,0.151276,-0.05929068701992046,0.12260513756151115,3.040554622524283e-06,0.1493688895060623,1.0086450867863306e-05,-0.07383011496315572
178,0.1683,48.5103,675.503,-0.0677224,181.059,-0.00141449,-0.0273328,-0.0614626,0.139983,-0.0771266,0.116294,2.74864e-06,9.27585e-06,0.152131,-0.059611884402728466,0.12332608145805413,2.748643777472637e-06,0.15025424436886037,9.27589302079923e-06,-0.07422735662940672
179,0.1693,48.5703,675.892,0.118755,181.105,0.0199183,0.0266895,-0.0618042,0.140753,-0.0775535,0.116935,3.08506e-06,1.00625e-05,0.152986,-0.05993306612205551,0.1240463643022578,3.085064758767686e-06,0.1511402812174334,1.006255062718786e-05,-0.07462248462479026
180,0.1703,48.5476,676.002,-0.0607844,181.191,-0.000793879,-0.0254225,-0.0621451,0.141522,-0.0779816,0.117577,2.81595e-06,9.31118e-06,0.15384,-0.060253480322111086,0.12476823376344282,2.8159539648964227e-06,0.15202584855068846,9.311223349239839e-06,-0.07501855395443335
181,0.1713,48.6035,676.372,0.111625,181.236,0.0189489,0.0245417,-0.0624861,0.14229,-0.0784079,0.118217,3.12888e-06,1.00384e-05,0.154693,-0.06057387925419866,0.12548831583473552,3.1288848949539982e-06,0.15291094423561424,1.0038450384941555e-05,-0.075412789507604
182,0.1723,48.5835,676.483,-0.0541187,181.319,-0.000199678,-0.0235873,-0.0628264,0.143058,-0.0788352,0.118857,2.88175e-06,9.34409e-06,0.155545,-0.060893511574564574,0.12620885890605793,2.8817541521952705e-06,0.153796719935118,9.344133656163933e-06,-0.07580778122665666
183,0.1733,48.6356,676.833,0.104782,181.363,0.0180131,0.0224777,-0.0631669,0.143825,-0.0792608,0.119496,3.17207e-06,1.00142e-05,0.156397,-0.06121322289993136,0.12692873634324497,3.172075031088184e-06,0.1546820214890532,1.0014250142242886e-05,-0.07620103374489473
184,0.1743,48.618,676.946,-0.0477479,181.441,0.000365264,-0.021834,-0.0635066,0.144591,-0.0796874,0.120135,2.94601e-06,9.37451e-06,0.157248,-0.06153207460808341,0.12764907392911629,2.946014339588743e-06,0.1555668467623288,9.374553940899588e-06,-0.07659504233589132
185,0.1753,48.6664,677.278,0.0982485,181.484,0.0171134,0.0205036,-0.0638465,0.145357,-0.0801123,0.120773,3.21468e-06,9.98997e-06,0.158098,-0.06185100565052293,0.12836874358849304,3.2146851671743804e-06,0.1564523500714181,9.990019899985825e-06,-0.07698731375843737
186,0.1763,48.6513,677.392,-0.0416896,181.559,0.000898692,-0.0201679,-0.0641857,0.146122,-0.0805382,0.121411,3.00872e-06,9.40241e-06,0.158948,-0.062169171825372405,0.12908887254361212,3.0087245261878337e-06,0.15733737459794273,9.402454202778188e-06,-0.0773803411603814
187,0.1773,48.6962,677.707,0.0920379,181.601,0.0162517,0.0186236,-0.064525,0.146886,-0.0809624,0.122047,3.25675e-06,9.9659e-06,0.159796,-0.06248732384782918,0.12980720147093527,3.256755303215897e-06,0.15822191820476794,9.965949659740403e-06,-0.07777163342070514
188,0.1783,48.6833,677.822,-0.0359564,181.673,0.00139892,-0.0185929,-0.0648637,0.14765,-0.0813875,0.122684,3.06987e-06,9.42776e-06,0.160645,-0.06280480562266832,0.1305271179273204,3.069874711991716e-06,0.15910713786112685,9.427804441575205e-06,-0.07816358938319568
189,0.1793,48.7249,678.12,0.0861606,181.714,0.0154292,0.0168408,-0.0652024,0.148413,-0.0818111,0.12332,3.2983e-06,9.94202e-06,0.161492,-0.06312217988463864,0.13124636186965155,3.298305439436433e-06,0.15999187409126447,9.942069421953192e-06,-0.07855399659264817
190,0.1803,48.714,678.235,-0.0305563,181.782,0.00186477,-0.0171114,-0.0655405,0.149176,-0.0822354,0.123956,3.12945e-06,9.45056e-06,0.162339,-0.063438884733648,0.13196606339662642,3.129454896777517e-06,0.16087728563274428,9.450604656624506e-06,-0.07894488319943604
191,0.1813,48.7526,678.518,0.0806225,181.823,0.0146468,0.0151571,-0.0658786,0.149937,-0.0826583,0.12459,3.33938e-06,9.91839e-06,0.163185,-0.06375548252284735,0.13268395742918138,3.339385575840126e-06,0.16176104947660286,9.918439187295292e-06,-0.07933431505716071
192,0.1823,48.7436,678.634,-0.0254932,181.888,0.00229559,-0.015725,-0.0662161,0.150699,-0.0830818,0.125225,3.18747e-06,9.47081e-06,0.16403,-0.06407141173144315,0.13340344015373784,3.187475079879931e-06,0.16264664876678214,9.47085484837018e-06,-0.07972413442465665
193,0.1833,48.7793,678.901,0.0754254,181.927,0.0139048,0.013573,-0.0665537,0.151459,-0.0835041,0.125859,3.37999e-06,9.89506e-06,0.164875,-0.0643873278931939,0.13412224577209897,3.3799957122049307e-06,0.1635305960772755,9.895108956214926e-06,-0.0801126848744872
194,0.1843,48.7721,679.017,-0.0207671,181.989,0.00269114,-0.0144336,-0.0668907,0.152219,-0.0839269,0.126492,3.24394e-06,9.48856e-06,0.165719,-0.06470257624136377,0.13484037241677704,3.24394526152183e-06,0.16441521544307358,9.48860501659432e-06,-0.08050153102345392
195,0.1853,48.8051,679.271,0.0705675,182.028,0.0132031,0.0120881,-0.0672276,0.152978,-0.0843485,0.127125,3.42015e-06,9.87204e-06,0.166562,-0.06501762487050655,0.1355589537795241,3.420155848754547e-06,0.1652993420752078,9.872088728712924e-06,-0.08088910987061249
196,0.1863,48.7995,679.387,-0.016375,182.087,0.00305158,-0.0132367,-0.0675641,0.153737,-0.0847706,0.127757,3.29888e-06,9.50382e-06,0.167405,-0.06533219351059572,0.1362768538708461,3.2988854412607793e-06,0.16618414001418436,9.503865161519798e-06,-0.08127698471059219
197,0.1873,48.83,679.627,0.066044,182.125,0.0125412,0.0107012,-0.0679005,0.154495,-0.0851915,0.128389,3.45987e-06,9.84935e-06,0.168247,-0.06564656288080606,0.13699520781842933,3.4598759852677574e-06,0.16706844270069254,9.849398505012985e-06,-0.08166359386012445
198,0.1883,48.8259,679.743,-0.0123107,182.181,0.00337742,-0.0121325,-0.0682364,0.155252,-0.0856128,0.12902,3.3523e-06,9.51667e-06,0.169088,-0.06596035949524248,0.1377128781957544,3.3523056188755618e-06,0.1679522479899136,9.516715283597321e-06,-0.08205040750001658
199,0.1893,48.854,679.97,0.0618473,182.219,0.0119185,0.00941012,-0.0685722,0.156009,-0.0860331,0.129651,3.49914e-06,9.82698e-06,0.169928,-0.06627395735049735,0.13843100156599175,3.4991461219657793e-06,0.1688367225730345,9.827028284892236e-06,-0.08243614064624527
200,0.1903,48.8512,680.086,-0.00856546,182.272,0.00366948,-0.0111187,-0.0689075,0.156765,-0.0864536,0.130281,3.40424e-06,9.52716e-06,0.170768,-0.06658698321087952,0.13914843906606178,3.404245794369487e-06,0.16972069723562022,9.527205383497162e-06,-0.08282189513853744
201,0.1913,48.8772,680.301,0.0579676,182.309,0.0113338,0.00821207,-0.0692428,0.15752,-0.0868733,0.13091,3.53797e-06,9.80491e-06,0.171607,-0.06689990413128488,0.13986518882840326,3.5379762586273955e-06,0.17060416983097104,9.804958068349023e-06,-0.08320675402086197
202,0.1923,48.8756,680.416,-0.00512869,182.36,0.00392881,-0.0101924,-0.0695776,0.158275,-0.0872931,0.13154,3.45472e-06,9.53535e-06,0.172446,-0.06721225375313744,0.14058353015112268,3.4547259675221653e-06,0.1714883096999955,9.535395461668372e-06,-0.08359154305265515
203,0.1933,48.8996,680.62,0.0543931,182.396,0.010786,0.00710375,-0.0699123,0.159029,-0.087712,0.132168,3.57635e-06,9.78313e-06,0.173283,-0.0675244055702856,0.14130004156909437,3.5763563952517785e-06,0.17237194497414432,9.78317785493843e-06,-0.08397534616209679
204,0.1943,48.8991,680.734,-0.00198796,182.444,0.00415669,-0.00935005,-0.0702465,0.159783,-0.0881311,0.132796,3.50378e-06,9.54133e-06,0.17412,-0.06783598684581282,0.1420170030975565,3.5037861383369062e-06,0.1732562467605332,9.54137551856249e-06,-0.08435917165826945
205,0.1953,48.9212,680.927,0.0511108,182.479,0.0102734,0.00608139,-0.0705807,0.160536,-0.0885494,0.133424,3.61427e-06,9.76161e-06,0.174957,-0.06814746400827598,0.1427344150192673,3.6142765313940117e-06,0.1741400414212737,9.761657644657973e-06,-0.08474210412085659
206,0.1963,48.9216,681.04,0.000870442,182.526,0.00435457,-0.00858778,-0.0709144,0.161288,-0.0889678,0.134051,3.55144e-06,9.54518e-06,0.175793,-0.06845837132176613,0.14345113416545652,3.5514463063712753e-06,0.1750233268061021,9.545225555296355e-06,-0.08512496792379953
207,0.1973,48.9421,681.224,0.0481062,182.56,0.00979464,0.00514087,-0.0712479,0.162039,-0.0893854,0.134677,3.65172e-06,9.74031e-06,0.176627,-0.06876898865661074,0.14416715866773044,3.651726667497357e-06,0.1759061007646645,9.740357437060254e-06,-0.0855069399758791
208,0.1983,48.9433,681.335,0.00346124,182.604,0.00452401,-0.00790142,-0.0715811,0.16279,-0.0898031,0.135303,3.59775e-06,9.54697e-06,0.177462,-0.06907922314165493,0.1448836315416686,3.5977564718514543e-06,0.1767895379354747,9.547015572541895e-06,-0.08588884396085128
209,0.1993,48.9623,681.509,0.0453642,182.638,0.00934792,0.00427784,-0.0719141,0.163541,-0.09022,0.135929,3.6887e-06,9.71919e-06,0.178295,-0.06938916815164042,0.14560055306803954,3.6887068033397696e-06,0.17767363881679255,9.71923723147583e-06,-0.08626985747401861
210,0.2003,48.9642,681.62,0.00579981,182.68,0.00466666,-0.00728659,-0.0722467,0.164291,-0.090637,0.136554,3.64274e-06,9.5468e-06,0.179128,-0.06969863784665009,0.1463167772104368,3.6427466347799253e-06,0.17855722534943674,9.546845570751472e-06,-0.0866508035106831
211,0.2013,48.9817,681.785,0.042869,182.713,0.00893148,0.00348778,-0.0725792,0.16504,-0.0910532,0.137178,3.72519e-06,9.69821e-06,0.179961,-0.07000791162995024,0.14703230209996443,3.7251969384755057e-06,0.1794402953796661,9.698257027901391e-06,-0.08703086035094731
212,0.2023,48.9843,681.894,0.00790197,182.753,0.00478426,-0.0067388,-0.0729112,0.165788,-0.0914695,0.137802,3.68645e-06,9.54476e-06,0.180792,-0.07031661775523668,0.147748273616356,3.6864567949379534e-06,0.18032284675367483,9.544805551264801e-06,-0.0874108503033868
213,0.2033,49.0005,682.051,0.0406047,182.785,0.00854352,0.00276608,-0.0732431,0.166536,-0.0918851,0.138425,3.76117e-06,9.67733e-06,0.181623,-0.07062512846961866,0.14846354357427605,3.761177073124955e-06,0.18120605852306815,9.67737682544545e-06,-0.08779004355218556
214,0.2043,49.0036,682.158,0.00978365,182.823,0.00487854,-0.00625348,-0.0735747,0.167283,-0.0923006,0.139048,3.72891e-06,9.54093e-06,0.182453,-0.07093325808630424,0.14917925928421738,3.7289169523280208e-06,0.1820887490926668,9.540975514754635e-06,-0.08816898805791684
215,0.2053,49.0187,682.307,0.0385553,182.854,0.00818223,0.00210812,-0.073906,0.16803,-0.0927156,0.13967,3.79663e-06,9.65649e-06,0.183283,-0.0712410069164916,0.1498942711291238,3.79663720728729e-06,0.18297209927845715,9.65653662410304e-06,-0.08854731941868565
216,0.2063,49.0222,682.412,0.0114608,182.891,0.00495126,-0.00582606,-0.074237,0.168776,-0.0931304,0.140292,3.77017e-06,9.53539e-06,0.184112,-0.07154837527093327,0.15060972784973958,3.770177107176309e-06,0.18385492571783835,9.535435461893726e-06,-0.08892531158959471
217,0.2073,49.0362,682.554,0.0367049,182.921,0.00784578,0.00150932,-0.0745678,0.169521,-0.0935447,0.140914,3.83156e-06,9.63566e-06,0.18494,-0.07185545627439538,0.15132562972286379,3.831567340517594e-06,0.18473722625363953,9.635706423205548e-06,-0.08930269165332505
218,0.2083,49.0402,682.657,0.0129489,182.957,0.00500416,-0.00545208,-0.0748982,0.170266,-0.0939588,0.141534,3.81026e-06,9.52825e-06,0.185768,-0.07216206457716157,0.15203967294381715,3.8102672590412112e-06,0.18562018434825012,9.528295394023445e-06,-0.08967973333684298
219,0.2093,49.0532,682.793,0.0350379,182.986,0.0075324,0.000965187,-0.0752285,0.17101,-0.0943724,0.142155,3.86595e-06,9.61479e-06,0.186594,-0.07246847884013041,0.1527553117635705,3.86595747281504e-06,0.18650261398852663,9.614836222304746e-06,-0.09005616394791827
220,0.2103,49.0574,682.894,0.0142634,183.02,0.00503893,-0.00512713,-0.0755584,0.171754,-0.0947859,0.142774,3.84922e-06,9.51957e-06,0.187421,-0.0727744210210236,0.153469088192566,3.8492274081480815e-06,0.18738570040074443,9.519615311148755e-06,-0.09043234794272481
221,0.2113,49.0695,683.023,0.0335395,183.048,0.00724035,0.000471355,-0.0758881,0.172497,-0.0951988,0.143394,3.89978e-06,9.59384e-06,0.188246,-0.07308007690427176,0.1541844607698286,3.899787604177973e-06,0.18826825580487383,9.593886020953235e-06,-0.09080783090246769
222,0.2123,49.074,683.121,0.015419,183.081,0.00505721,-0.00484699,-0.0762175,0.173239,-0.0956115,0.144012,3.88708e-06,9.50944e-06,0.189071,-0.0733853540450341,0.15489796721736782,3.887087554721447e-06,0.1891502780404628,9.509485214831415e-06,-0.09118297709391299
223,0.2133,49.0853,683.244,0.0321949,183.108,0.00696798,2.36281e-05,-0.0765466,0.173981,-0.0960238,0.144631,3.93304e-06,9.57276e-06,0.189895,-0.0736902527511839,0.15561307036066507,3.933047734383521e-06,0.19003295497941575,9.572805818924834e-06,-0.09155760511758315
224,0.2143,49.09,683.341,0.0164297,183.139,0.00506059,-0.00460759,-0.0768755,0.174722,-0.0964359,0.145248,3.92388e-06,9.49794e-06,0.190719,-0.07399486593067073,0.15632630363491606,3.923887698320527e-06,0.19091509619201075,9.497985105522133e-06,-0.0919318971003541
225,0.2153,49.1005,683.458,0.0309905,183.166,0.00671368,-0.000382002,-0.0772041,0.175462,-0.0968475,0.145866,3.96571e-06,9.55153e-06,0.191541,-0.07429910122912875,0.15704113415044074,3.965717863430029e-06,0.19179669951619238,9.551575615995844e-06,-0.09230558102208086
226,0.2163,49.1054,683.552,0.0173089,183.196,0.00505056,-0.00440507,-0.0775324,0.176202,-0.0972589,0.146482,3.95966e-06,9.48514e-06,0.192364,-0.07460295895322067,0.15775409105726013,3.959667839392722e-06,0.1926789554682764,9.48518498411488e-06,-0.09267892970295899
227,0.2173,49.1152,683.665,0.0299133,183.222,0.00647593,-0.000749334,-0.0778605,0.176941,-0.0976698,0.147098,3.9978e-06,9.53009e-06,0.193185,-0.07490653191851993,0.1584674872808296,3.997807991318325e-06,0.1935606709701183,9.530135411495166e-06,-0.09305167134572911
228,0.2183,49.1202,683.756,0.0180693,183.251,0.00502856,-0.00423578,-0.0781882,0.17768,-0.0980805,0.147714,3.99444e-06,9.47112e-06,0.194006,-0.07520963538179526,0.15918132309185196,3.994447977717641e-06,0.19444303830053733,9.47116485128241e-06,-0.09342407854525436
229,0.2193,49.1295,683.864,0.0289507,183.276,0.0062533,-0.00108194,-0.0785158,0.178418,-0.0984908,0.148329,4.0293e-06,9.50842e-06,0.194826,-0.07551254708559807,0.1598944388661776,4.029308117603492e-06,0.19532486261595206,9.508465205199101e-06,-0.09379597034700682
230,0.2203,49.1345,683.953,0.0187229,183.303,0.00499592,-0.00409629,-0.078843,0.179156,-0.0989008,0.148944,4.02826e-06,9.45593e-06,0.195645,-0.0758149898978493,0.16060799334159115,4.028268113520639e-06,0.196207337957911,9.455974707472947e-06,-0.0941674378431242
231,0.2213,49.1432,684.056,0.0280915,183.328,0.00604445,-0.00138317,-0.07917,0.179892,-0.0993104,0.149558,4.06018e-06,9.48648e-06,0.196464,-0.07611714899044852,0.16132082546657056,4.060188242505092e-06,0.1970880706285134,9.486524996882295e-06,-0.09453839088421456
232,0.2223,49.1482,684.143,0.0192805,183.354,0.00495388,-0.00398342,-0.0794967,0.180629,-0.0997198,0.150172,4.06114e-06,9.43966e-06,0.197282,-0.07641893221889884,0.1620340954048698,4.061148246359281e-06,0.19797064972701528,9.439704553804162e-06,-0.09490901099587312
233,0.2233,49.1564,684.241,0.027325,183.378,0.00584812,-0.00165614,-0.0798232,0.181364,-0.100129,0.150785,4.09045e-06,9.46426e-06,0.1981,-0.0767204322149766,0.16274664067816658,4.090458365801908e-06,0.198851481820705,9.464304786321875e-06,-0.09527929846259109
234,0.2243,49.1615,684.326,0.0197525,183.403,0.00490361,-0.00389421,-0.0801494,0.182099,-0.100537,0.151398,4.09313e-06,9.42235e-06,0.198917,-0.07702155689388279,0.16345962287561955,4.093138376903838e-06,0.1997329615639658,9.42239439050141e-06,-0.09564834921734489
235,0.2253,49.1692,684.42,0.0266411,183.426,0.00566317,-0.00190371,-0.0804753,0.182834,-0.100946,0.15201,4.12011e-06,9.44172e-06,0.199733,-0.07732230655867134,0.16417187809268485,4.120118487715985e-06,0.20061508943299478,9.441764573070444e-06,-0.09601815341240194
236,0.2263,49.1742,684.502,0.0201482,183.45,0.00484617,-0.00382593,-0.080801,0.183568,-0.101354,0.152622,4.12423e-06,9.40406e-06,0.200549,-0.07762277374968696,0.16488456934335582,4.12423850471022e-06,0.2014966644070746,9.404104218235787e-06,-0.09638690277582429
237,0.2273,49.1815,684.592,0.026031,183.473,0.00548851,-0.00212853,-0.0811264,0.184301,-0.101761,0.153233,4.14914e-06,9.41884e-06,0.201363,-0.07792286647137503,0.16559653129745233,4.149148607801578e-06,0.20237768431643488,9.41888435734839e-06,-0.09675459847524404
238,0.2283,49.1866,684.672,0.0204764,183.496,0.00478253,-0.00377607,-0.0814515,0.185033,-0.102169,0.153844,4.15448e-06,9.38484e-06,0.202178,-0.07822258502559443,0.1663089283932251,4.1544886297817385e-06,0.20325814699137923,9.384884037677566e-06,-0.09712304743036815
239,0.2293,49.1935,684.758,0.0254862,183.518,0.00532318,-0.00233303,-0.0817764,0.185765,-0.102576,0.154454,4.17756e-06,9.39561e-06,0.202991,-0.07852202186157153,0.16702059387544943,4.177568726060343e-06,0.2041392544009457,9.39565413893284e-06,-0.09749044357987602
240,0.2303,49.1984,684.836,0.0207449,183.54,0.0047136,-0.00374237,-0.082101,0.186497,-0.102982,0.155064,4.1839e-06,9.36475e-06,0.203804,-0.07882108507269026,0.16773269360605036,4.183908752564136e-06,0.20502100701725268,9.364793849497843e-06,-0.09785678808681542
241,0.2313,49.205,684.919,0.0249994,183.561,0.00516627,-0.00251941,-0.0824253,0.187228,-0.103389,0.155673,4.20534e-06,9.37201e-06,0.204616,-0.0791197749596182,0.16844405940535623,4.205348842489798e-06,0.20590219940996235,9.372053917378054e-06,-0.09822388566463958
242,0.2323,49.2099,684.994,0.0209609,183.582,0.00464017,-0.00372274,-0.0827494,0.187958,-0.103795,0.156282,4.21252e-06,9.34383e-06,0.205428,-0.07941818388077604,0.16915585855837678,4.212528872615806e-06,0.20678282940637294,9.34387365369993e-06,-0.09858993245453318
243,0.2333,49.2161,685.074,0.0245635,183.603,0.00501697,-0.00268966,-0.0830732,0.188688,-0.1042,0.15689,4.23251e-06,9.34802e-06,0.206239,-0.0797162200181808,0.16986692146159843,4.232518957092424e-06,0.20766410249738199,9.348063692904418e-06,-0.0989549296149751
244,0.2343,49.2209,685.147,0.0211308,183.623,0.00456298,-0.00371532,-0.0833968,0.189417,-0.104606,0.157498,4.24036e-06,9.32212e-06,0.207049,-0.08001397566992008,0.17057841682251884,4.240368990382493e-06,0.20854481060720476,9.322163451175314e-06,-0.0993206796612679
245,0.2353,49.2268,685.223,0.0241725,183.643,0.00487455,-0.00284559,-0.0837201,0.190145,-0.105011,0.158105,4.25904e-06,9.32364e-06,0.207859,-0.08031135907696807,0.17128917361439333,4.2590490696436945e-06,0.20942495156176255,9.32368346528989e-06,-0.09968538092901336
246,0.2363,49.2315,685.294,0.0212605,183.663,0.00448268,-0.00371843,-0.0840431,0.190873,-0.105416,0.158712,4.26743e-06,9.29966e-06,0.208668,-0.08060837053805292,0.17200036196660573,4.267439105420934e-06,0.21030573349222226,9.299703241927304e-06,-0.10004993452265143
247,0.2373,49.2371,685.367,0.0238208,183.682,0.00473834,-0.00298883,-0.0843659,0.1916,-0.10582,0.159318,4.28496e-06,9.29885e-06,0.209476,-0.08090510226096659,0.1727108094297971,4.284969180368137e-06,0.21118594567883275,9.298893234532812e-06,-0.10041344091586868
248,0.2383,49.2418,685.436,0.0213551,183.701,0.00439986,-0.00373055,-0.0846884,0.192327,-0.106224,0.159924,4.29376e-06,9.27648e-06,0.210284,-0.0812014625748182,0.1734216875546284,4.293769218177701e-06,0.21206679801236827,9.276523026624517e-06,-0.10077680048216409
249,0.2393,49.2471,685.507,0.0235036,183.719,0.00460775,-0.00312082,-0.0850107,0.193053,-0.106628,0.160529,4.31025e-06,9.27365e-06,0.211091,-0.08149754362740569,0.17413182246975012,4.310259289042051e-06,0.21294707801070012,9.273693000411143e-06,-0.10114001328084377
250,0.2403,49.2516,685.573,0.0214193,183.738,0.00431505,-0.00375034,-0.0853327,0.193779,-0.107031,0.161134,4.31937e-06,9.25263e-06,0.211898,-0.08179325380646385,0.17484238714648548,4.3193793284324045e-06,0.21382799732435398,9.252672805715179e-06,-0.10150218087382001
251,0.2413,49.2568,685.641,0.0232163,183.756,0.00448223,-0.00324285,-0.0856544,0.194504,-0.107434,0.161738,4.33493e-06,9.24804e-06,0.212703,-0.08208859340879215,0.17555220629212442,4.334939395889137e-06,0.21470834170869257,9.248082763146925e-06,-0.10186420254266204
252,0.2423,49.2612,685.705,0.0214573,183.774,0.0042287,-0.00377662,-0.0859759,0.195228,-0.107837,0.162342,4.34427e-06,9.22814e-06,0.213508,-0.08238365449240048,0.17626245429803022,4.344279436407916e-06,0.21558810898541436,9.228182579423816e-06,-0.10222607834616526
253,0.2433,49.2661,685.771,0.022955,183.791,0.00436133,-0.00335609,-0.0862971,0.195952,-0.108239,0.162945,4.35899e-06,9.22201e-06,0.214313,-0.08267834553266296,0.17697195445076952,4.358999500464478e-06,0.21646851344427676,9.222052522961377e-06,-0.10258691093046135
254,0.2443,49.2704,685.833,0.0214727,183.808,0.00414123,-0.00380832,-0.0866181,0.196675,-0.108641,0.163548,4.36847e-06,9.20303e-06,0.215117,-0.08297275852793318,0.17768188256111728,4.368479541883019e-06,0.21734833819781962,9.203072347974128e-06,-0.10294759848921053
255,0.2453,49.2751,685.896,0.0227164,183.824,0.00424461,-0.00346153,-0.0869388,0.197398,-0.109043,0.16415,4.38244e-06,9.19556e-06,0.21592,-0.08326680201188041,0.17839106049555986,4.3824496029909454e-06,0.21822879929466943,9.195602279188364e-06,-0.10330814108070163
256,0.2463,49.2792,685.956,0.0214687,183.841,0.00405298,-0.00384452,-0.0872593,0.19812,-0.109445,0.164752,4.39201e-06,9.17732e-06,0.216723,-0.08356056792333366,0.17910066548364934,4.392019644861023e-06,0.2191086780857816,9.17736211181186e-06,-0.10366853876319948
257,0.2473,49.2838,686.017,0.0224974,183.857,0.00413169,-0.00356008,-0.0875795,0.198841,-0.109846,0.165354,4.4053e-06,9.16869e-06,0.217524,-0.08385396485412921,0.17981069778254932,4.40530970324815e-06,0.2199879723901872,9.16873203249402e-06,-0.10402789562328962
258,0.2483,49.2878,686.075,0.0214481,183.873,0.00396428,-0.00388439,-0.0878994,0.199562,-0.110247,0.165955,4.41488e-06,9.15106e-06,0.218326,-0.08414699309840579,0.1805199771290107,4.414889745563144e-06,0.22086790089438768,9.151101871163192e-06,-0.1043871084101674
259,0.2493,49.2921,686.133,0.0222953,183.888,0.00402225,-0.00365254,-0.0882191,0.200282,-0.110647,0.166555,4.42755e-06,9.14141e-06,0.219126,-0.08443974450590619,0.18122850165138926,4.427559801678527e-06,0.22174724230795295,9.141451782879173e-06,-0.10474528192732424
260,0.2503,49.2961,686.189,0.0214134,183.904,0.00387539,-0.00392724,-0.0885386,0.201002,-0.111047,0.167155,4.43711e-06,9.12425e-06,0.219926,-0.08473221928220309,0.181937451416041,4.437119843991866e-06,0.22262721707531608,9.124291626028125e-06,-0.10510331220372426
261,0.2513,49.3002,686.246,0.0221078,183.919,0.003916,-0.00373958,-0.0888577,0.201721,-0.111447,0.167755,4.44921e-06,9.11371e-06,0.220726,-0.0850242346375023,0.182646826678188,4.44921989783964e-06,0.22350660214544193,9.113751529898906e-06,-0.10546119929665243
262,0.2523,49.304,686.3,0.0213668,183.934,0.00378655,-0.00397244,-0.0891767,0.20244,-0.111847,0.168354,4.45871e-06,9.09692e-06,0.221525,-0.0853160653571784,0.18335544433716922,4.458719940148015e-06,0.22438661972079155,9.096961377075274e-06,-0.10581894326337049
263,0.2533,49.308,686.354,0.0219328,183.948,0.00381267,-0.00382181,-0.0894953,0.203158,-0.112246,0.168952,4.47029e-06,9.08561e-06,0.222323,-0.08560743724074993,0.18406330252138559,4.470299991732318e-06,0.2252660449896422,9.085651274221007e-06,-0.10617565033721477
264,0.2543,49.3117,686.407,0.0213102,183.962,0.00369795,-0.00401945,-0.0898138,0.203875,-0.112645,0.16955,4.47969e-06,9.0691e-06,0.22312,-0.0858986248978928,0.18477158413138772,4.479700033810374e-06,0.22614487576708364,9.069141124307123e-06,-0.106532215113327
265,0.2553,49.3156,686.459,0.0217686,183.976,0.00371205,-0.00389976,-0.0901319,0.204592,-0.113043,0.170148,4.49079e-06,9.0571e-06,0.223917,-0.08618935430234942,0.18548028942046013,4.4908000835786055e-06,0.22702433689214518,9.057141015622605e-06,-0.1068877445366635
266,0.2563,49.3191,686.51,0.0212451,183.99,0.00360978,-0.0040678,-0.0904498,0.205309,-0.113442,0.170745,4.50006e-06,9.04079e-06,0.224713,-0.08647980853647008,0.18618823245321292,4.500070125201816e-06,0.22790442881694828,9.04083086816776e-06,-0.10724402524386567
267,0.2573,49.3228,686.56,0.0216137,184.004,0.00361393,-0.00397388,-0.0907675,0.206024,-0.11384,0.171341,4.51072e-06,9.02819e-06,0.225509,-0.08676998780388068,0.18689541135813537,4.510730173379329e-06,0.22878269442609156,9.028230754326572e-06,-0.10759927142313952
268,0.2583,49.3263,686.609,0.0211729,184.017,0.00352217,-0.00411711,-0.0910849,0.206739,-0.114237,0.171938,4.51984e-06,9.01203e-06,0.226304,-0.08705980101396227,0.18760419947091633,4.5198502145460395e-06,0.22966158821969485,9.01207060843845e-06,-0.10795348419649675
269,0.2593,49.3299,686.658,0.0214668,184.03,0.00351814,-0.00404456,-0.0914021,0.207454,-0.114635,0.172533,4.53008e-06,8.9989e-06,0.227098,-0.08734933972181391,0.18831103423208972,4.530090260912445e-06,0.23054111064707028,8.998940490112517e-06,-0.10830844806729067
270,0.2603,49.3332,686.706,0.021095,184.043,0.00343526,-0.00416702,-0.091719,0.208168,-0.115032,0.173129,4.53904e-06,8.98282e-06,0.227892,-0.08763851289414681,0.18901947870397384,4.539050301399783e-06,0.23142003073720518,8.982860345563282e-06,-0.10866237935339906
271,0.2613,49.3366,686.753,0.0213266,184.055,0.00342453,-0.00411216,-0.0920356,0.208882,-0.115428,0.173723,4.54889e-06,8.96922e-06,0.228685,-0.08792732082025745,0.1897259660803019,4.548900346179607e-06,0.23229957860037298,8.969260223645747e-06,-0.10901527917239928
272,0.2623,49.3399,686.798,0.0210122,184.068,0.00334914,-0.00421725,-0.092352,0.209594,-0.115825,0.174318,4.55767e-06,8.95318e-06,0.229477,-0.08821585496744078,0.19043406366826177,4.557680386207963e-06,0.23317728832792017,8.953220079765956e-06,-0.109368929902253
273,0.2633,49.3432,686.844,0.0211923,184.08,0.00333297,-0.00417695,-0.0926682,0.210307,-0.116221,0.174911,4.56715e-06,8.93916e-06,0.230269,-0.08850411553770221,0.1911402004168703,4.567160429402861e-06,0.2340568572635615,8.939199954483001e-06,-0.10972154998262784
274,0.2643,49.3463,686.888,0.0209255,184.092,0.0032639,-0.00426756,-0.0929841,0.211019,-0.116617,0.175505,4.57573e-06,8.92313e-06,0.231061,-0.08879201161202466,0.1918479478761035,4.575740468748535e-06,0.23493581861904378,8.92316981127017e-06,-0.11007403045309527
275,0.2653,49.3495,686.932,0.0210631,184.104,0.00324334,-0.00423921,-0.0932998,0.21173,-0.117012,0.176098,4.58487e-06,8.90873e-06,0.231851,-0.089079634570286,0.19255492330669188,4.584880510583034e-06,0.23581417020306783,8.90876968284715e-06,-0.11042548179485678
276,0.2663,49.3526,686.974,0.0208357,184.115,0.00317962,-0.00431772,-0.0936152,0.21244,-0.117407,0.17669,4.59325e-06,8.89268e-06,0.232641,-0.08936689355042005,0.1932611248363174,4.593260549023981e-06,0.2366919098246052,8.892719540076754e-06,-0.11077679434075216
277,0.2673,49.3556,687.017,0.0209381,184.127,0.00315553,-0.00429913,-0.0939303,0.21315,-0.117802,0.177282,4.60206e-06,8.87795e-06,0.23343,-0.08965378883953568,0.19396774456102195,4.602070589498908e-06,0.2375702728625606,8.87798940918394e-06,-0.11112796814559511
278,0.2683,49.3586,687.058,0.0207433,184.138,0.00309634,-0.00436757,-0.0942452,0.21386,-0.118197,0.177873,4.61023e-06,8.86185e-06,0.234219,-0.08994041173028744,0.19467358805426493,4.610240627034301e-06,0.23844925975971676,8.861889266409406e-06,-0.11147900326417748
279,0.2693,49.3615,687.099,0.0208169,184.149,0.00306948,-0.00435692,-0.0945599,0.214569,-0.118591,0.178464,4.61873e-06,8.84681e-06,0.235007,-0.09022676242307115,0.19537984882430548,4.6187406663733555e-06,0.23932763163091963,8.846849133048451e-06,-0.11182901158072522
280,0.2703,49.3644,687.139,0.0206489,184.159,0.00301412,-0.00441696,-0.0948743,0.215277,-0.118985,0.179055,4.62668e-06,8.83064e-06,0.235795,-0.09051275016933591,0.19608652711782737,4.626690703002367e-06,0.24020538628259547,8.830678990268126e-06,-0.11217888202115966
281,0.2713,49.3672,687.178,0.0206989,184.17,0.00298508,-0.00441272,-0.0951885,0.215985,-0.119378,0.179645,4.63488e-06,8.81533e-06,0.236582,-0.09079846617489773,0.1967924263886347,4.634890740984332e-06,0.24108376260461006,8.815368855108474e-06,-0.11252772716796411
282,0.2723,49.37,687.217,0.0205529,184.18,0.00293298,-0.00446577,-0.0955024,0.216692,-0.119772,0.180235,4.64262e-06,8.79908e-06,0.237368,-0.09108381974777913,0.19749874226289799,4.642630776929835e-06,0.24196151907512164,8.799118712099485e-06,-0.11287732236868286
283,0.2733,49.3727,687.255,0.0205836,184.191,0.00290228,-0.00446668,-0.0958161,0.217399,-0.120165,0.180824,4.65053e-06,8.78351e-06,0.238154,-0.09136890203602943,0.19820427678160946,4.650540813777582e-06,0.24283989633888248,8.783548575141964e-06,-0.11322589308236042
284,0.2743,49.3754,687.292,0.0204558,184.201,0.00285297,-0.0045139,-0.0961295,0.218105,-0.120557,0.181412,4.65804e-06,8.76717e-06,0.238939,-0.09165362240411923,0.19890902807293132,4.658050848593831e-06,0.24371765111667565,8.767208431681439e-06,-0.11357344040854567
285,0.2753,49.378,687.329,0.0204708,184.211,0.00282102,-0.00451891,-0.0964427,0.218811,-0.12095,0.182001,4.66567e-06,8.75137e-06,0.239723,-0.09193807194245929,0.19961539349466206,4.665680884308188e-06,0.24459602580814566,8.75140829337262e-06,-0.11392173760158386
286,0.2763,49.3806,687.365,0.0203578,184.22,0.0027741,-0.00456127,-0.0967557,0.219516,-0.121342,0.182588,4.67296e-06,8.73493e-06,0.240507,-0.09222225084962232,0.20031977444622706,4.672970918218056e-06,0.245473775376708,8.734968149681777e-06,-0.11426901221017383
287,0.2773,49.3831,687.4,0.0203601,184.23,0.00274124,-0.00456952,-0.0970684,0.220221,-0.121733,0.183176,4.68033e-06,8.71891e-06,0.24129,-0.09250606857456767,0.20102577001595767,4.680340952800677e-06,0.2463521439768992,8.718948009800442e-06,-0.1146152653295035
288,0.2783,49.3856,687.435,0.0202593,184.239,0.00269637,-0.00460781,-0.0973808,0.220924,-0.122125,0.183763,4.68739e-06,8.70236e-06,0.242073,-0.09278952540048346,0.20173097910157423,4.687400985803336e-06,0.24722863758552083,8.702397865656408e-06,-0.11496226812850219
289,0.2793,49.3881,687.469,0.0202512,184.248,0.00266289,-0.00461859,-0.097693,0.221628,-0.122516,0.184349,4.6945e-06,8.68614e-06,0.242855,-0.09307271230287784,0.20243539983044356,4.694511019254222e-06,0.2481069956921571,8.686177724648303e-06,-0.11530825023775382
290,0.2803,49.3905,687.503,0.0201603,184.257,0.00261982,-0.00465346,-0.098005,0.222331,-0.122907,0.184935,4.70134e-06,8.66948e-06,0.243636,-0.09335562947926479,0.203140233470831,4.7013510513505e-06,0.248984723395268,8.669517580051078e-06,-0.11565409709444419
291,0.2813,49.3929,687.536,0.020144,184.266,0.00258594,-0.0046662,-0.0983167,0.223033,-0.123297,0.18552,4.70819e-06,8.65307e-06,0.244417,-0.09363818649075817,0.20384427641989555,4.708201083447605e-06,0.24986181849545197,8.65310743791703e-06,-0.11599892475081375
292,0.2823,49.3952,687.568,0.0200612,184.275,0.00254443,-0.0046982,-0.0986282,0.223735,-0.123687,0.186105,4.71482e-06,8.6363e-06,0.245197,-0.09392047422706873,0.20454873135457952,4.714831114860374e-06,0.25073952953256495,8.636337292866614e-06,-0.11634361795061798
293,0.2833,49.3975,687.6,0.0200382,184.284,0.00251034,-0.0047124,-0.0989394,0.224436,-0.124077,0.18669,4.72142e-06,8.61972e-06,0.245977,-0.09420240230520505,0.2052535985159647,4.721431145826571e-06,0.2516166053219151,8.61975714983032e-06,-0.11668817674628473
294,0.2843,49.3997,687.631,0.0199621,184.292,0.0024702,-0.00474197,-0.0992504,0.225137,-0.124467,0.187274,4.72783e-06,8.60283e-06,0.246756,-0.09448406155780409,0.20595767218699912,4.727841176110914e-06,0.25249429615694186,8.602867004547932e-06,-0.11703260119022152
295,0.2853,49.4019,687.662,0.0199337,184.301,0.00243607,-0.00475727,-0.0995612,0.225837,-0.124856,0.187858,4.7342e-06,8.58608e-06,0.247534,-0.09476545218110399,0.2066621571571452,4.734211206391947e-06,0.2533713490969678,8.58611686038735e-06,-0.1173760087112653
296,0.2863,49.4041,687.693,0.0198631,184.309,0.00239715,-0.00478477,-0.0998717,0.226536,-0.125245,0.188441,4.74038e-06,8.56907e-06,0.248312,-0.0950464838757733,0.2073658463002217,4.740391235547037e-06,0.25424776194059073,8.569106714650943e-06,-0.11771928267276244
297,0.2873,49.4063,687.722,0.0198305,184.317,0.00236308,-0.00480083,-0.100182,0.227235,-0.125634,0.189024,4.74652e-06,8.55217e-06,0.249089,-0.0953272473891148,0.20806994581367988,4.746531264698817e-06,0.25512478761094926,8.552206569811815e-06,-0.11806242312665738
298,0.2883,49.4084,687.752,0.0197642,184.325,0.00232526,-0.00482657,-0.100492,0.227934,-0.126022,0.189606,4.75249e-06,8.53504e-06,0.249865,-0.09560765247738989,0.20877324716298418,4.752501293170397e-06,0.25600242653655925,8.53507642362139e-06,-0.11840454852986393
299,0.2893,49.4104,687.78,0.0197283,184.332,0.00229135,-0.00484315,-0.100802,0.228632,-0.126411,0.190188,4.7584e-06,8.51799e-06,0.250641,-0.0958879706535597,0.20947695795280907,4.7584113211929235e-06,0.2568794222661852,8.518026278103719e-06,-0.1187474224671814
300,0.2903,49.4124,687.809,0.0196656,184.34,0.00225453,-0.00486736,-0.101111,0.229329,-0.126798,0.190769,4.76415e-06,8.50075e-06,0.251417,-0.09616729811231284,0.21017986824104562,4.764161348536078e-06,0.2577557725961164,8.500786131460103e-06,-0.11908840123104003
301,0.2913,49.4144,687.836,0.0196271,184.348,0.00222086,-0.00488425,-0.101421,0.230026,-0.127186,0.19135,4.76984e-06,8.48356e-06,0.252191,-0.096447442825224,0.21088318703881992,4.769851375652223e-06,0.25863273395514663,8.483595985486758e-06,-0.11943012863195956
302,0.2923,49.4164,687.864,0.0195674,184.355,0.00218494,-0.00490714,-0.10173,0.230723,-0.127573,0.19193,4.77539e-06,8.46621e-06,0.252966,-0.09672659743378287,0.21158570299723656,4.775401402090651e-06,0.2595103067693112,8.466245838389952e-06,-0.11977084323965004
303,0.2933,49.4183,687.891,0.0195268,184.362,0.00215158,-0.00492417,-0.102039,0.231418,-0.12796,0.19251,4.78086e-06,8.44888e-06,0.253739,-0.09700566579689318,0.212288626533095,4.780871428300415e-06,0.2603859706904812,8.448915691960934e-06,-0.12011142601629832
304,0.2943,49.4202,687.917,0.0194695,184.369,0.00211649,-0.00494589,-0.102347,0.232114,-0.128347,0.19309,4.7862e-06,8.43142e-06,0.254512,-0.09728374522539751,0.21299195788285896,4.786211453833289e-06,0.26126350467248316,8.431455544410937e-06,-0.12045187701291304
305,0.2953,49.4221,687.943,0.0194274,184.376,0.00208349,-0.00496294,-0.102656,0.232808,-0.128733,0.193669,4.79146e-06,8.41397e-06,0.255284,-0.097562641456436,0.21369448358803855,4.791471479137499e-06,0.26213912534995676,8.414005397527902e-06,-0.12079131707224
306,0.2963,49.4239,687.969,0.0193721,184.383,0.00204917,-0.00498363,-0.102964,0.233503,-0.129119,0.194248,4.79659e-06,8.3964e-06,0.256056,-0.09784054936285291,0.2143974161733817,4.796601503764819e-06,0.26301661693508005,8.396435249968803e-06,-0.12113062613298842
307,0.2973,49.4257,687.994,0.0193288,184.39,0.00201656,-0.00500058,-0.103272,0.234196,-0.129505,0.194826,4.80164e-06,8.37882e-06,0.256827,-0.09811837168681503,0.2150995407743923,4.801651527941431e-06,0.26389219080191983,8.378855102408878e-06,-0.12146980424571396
308,0.2983,49.4275,688.018,0.0192751,184.397,0.00198297,-0.00502035,-0.103579,0.234889,-0.12989,0.195404,4.80657e-06,8.36114e-06,0.257598,-0.0983952068503352,0.21580207132072915,4.806581551664024e-06,0.2647683716517446,8.361174954396589e-06,-0.12180797326936521
309,0.2993,49.4292,688.043,0.0192309,184.403,0.00195078,-0.00503713,-0.103887,0.235582,-0.130275,0.195981,4.81142e-06,8.34345e-06,0.258368,-0.09867285836609696,0.2165037915426966,4.811431574935909e-06,0.2656451599053393,8.343484806605517e-06,-0.1221460121230018
310,0.3003,49.4309,688.067,0.0191786,184.41,0.00191787,-0.00505607,-0.104194,0.236274,-0.13066,0.196558,4.81616e-06,8.32567e-06,0.259137,-0.09894952332833395,0.2172059167740661,4.816171597754604e-06,0.26652128946185827,8.325704658584954e-06,-0.12248392085672932
311,0.3013,49.4326,688.09,0.0191338,184.416,0.00188612,-0.00507259,-0.104501,0.236965,-0.131044,0.197135,4.82081e-06,8.30787e-06,0.259906,-0.09922610336746385,0.2179084472485957,4.820821620121762e-06,0.2673967581124601,8.307904510340691e-06,-0.12282082234189529
312,0.3023,49.4342,688.113,0.0190827,184.422,0.00185386,-0.00509077,-0.104807,0.237656,-0.131429,0.197711,4.82535e-06,8.28999e-06,0.260674,-0.09950169801170239,0.21861016458940385,4.82536164203573e-06,0.26827283192095774,8.29002436208981e-06,-0.12315847132369395
313,0.3033,49.4359,688.136,0.0190374,184.428,0.00182256,-0.00510701,-0.105114,0.238347,-0.131813,0.198286,4.8298e-06,8.27208e-06,0.261442,-0.09977810855922276,0.2193110669241527,4.8298116634981625e-06,0.26914951130565923,8.272114213836446e-06,-0.12349511383120759
314,0.3043,49.4375,688.158,0.0189873,184.434,0.00179093,-0.00512449,-0.10542,0.239037,-0.132196,0.198861,4.83415e-06,8.2541e-06,0.262209,-0.10005353431571373,0.22001237239363425,4.834161684508231e-06,0.27002552665900126,8.2541340651332e-06,-0.12383075092400408
315,0.3053,49.439,688.18,0.0189417,184.44,0.0017601,-0.00514039,-0.105726,0.239726,-0.13258,0.199436,4.83841e-06,8.23609e-06,0.262976,-0.10032887580481686,0.22071408122971725,4.838421705066764e-06,0.2709008757700091,8.236123916649518e-06,-0.12416713532571066
316,0.3063,49.4406,688.201,0.0188924,184.446,0.00172906,-0.00515721,-0.106032,0.240415,-0.132963,0.20001,4.84257e-06,8.21802e-06,0.263741,-0.10060413305231386,0.22141497224882167,4.842581725172934e-06,0.27177682820437554,8.218053767938827e-06,-0.12450251508355759
317,0.3073,49.4421,688.223,0.0188467,184.452,0.00169871,-0.00517276,-0.106337,0.241103,-0.133345,0.200584,4.84665e-06,8.19991e-06,0.264507,-0.10087840696283534,0.22211626569485676,4.84666174505044e-06,0.27265211172518544,8.19994361944687e-06,-0.12483689125288122
318,0.3083,49.4436,688.244,0.0187981,184.457,0.00166825,-0.00518897,-0.106643,0.241791,-0.133728,0.201158,4.85062e-06,8.18175e-06,0.265272,-0.1011534960795234,0.22281796179888147,4.850631764252711e-06,0.2735279976482603,8.181783470506687e-06,-0.12517201454332472
319,0.3093,49.445,688.264,0.0187523,184.463,0.00163837,-0.00520413,-0.106948,0.242478,-0.13411,0.201731,4.85451e-06,8.16355e-06,0.266036,-0.10142760245987126,0.22351883727263888,4.854521783226318e-06,0.27440321198434625,8.16358332178524e-06,-0.12550613501269647
320,0.3103,49.4465,688.284,0.0187043,184.468,0.00160846,-0.00521975,-0.107253,0.243165,-0.134492,0.202303,4.85831e-06,8.1453e-06,0.266799,-0.10170162525052118,0.2242188902436213,4.858321801526344e-06,0.2752790277992654,8.145333173059655e-06,-0.12584012787242393
321,0.3113,49.4479,688.304,0.0186585,184.474,0.00157907,-0.00523452,-0.107557,0.243851,-0.134874,0.202875,4.86202e-06,8.12701e-06,0.267562,-0.10197466645207953,0.2249193437594481,4.862031819596879e-06,0.27615416935156833,8.12704302433076e-06,-0.12617399317124467
322,0.3123,49.4493,688.323,0.0186111,184.479,0.0015497,-0.00524959,-0.107862,0.244537,-0.135255,0.203447,4.86563e-06,8.10868e-06,0.268325,-0.10224852241365456,0.22562019804929645,4.865641837215051e-06,0.27702991145694233,8.108712875376511e-06,-0.12650685746517187
323,0.3133,49.4506,688.343,0.0185654,184.484,0.00152079,-0.00526395,-0.108166,0.245222,-0.135636,0.204018,4.86917e-06,8.09031e-06,0.269086,-0.10252139738374388,0.22632022702163423,4.869181854383342e-06,0.2779049766218924,8.090342726640998e-06,-0.1268395949619594
324,0.3143,49.452,688.361,0.0185184,184.489,0.00149195,-0.00527849,-0.10847,0.245907,-0.136017,0.204589,4.87261e-06,8.07189e-06,0.269848,-0.10279418941245,0.22702065582465614,4.87262187109927e-06,0.27878064141182857,8.071922577901347e-06,-0.12717220570990795
325,0.3153,49.4533,688.38,0.0184728,184.494,0.00146351,-0.00529243,-0.108773,0.246591,-0.136397,0.205159,4.87597e-06,8.05344e-06,0.270608,-0.10306600159143331,0.22772025696585985,4.8759818875865335e-06,0.27965562658136833,8.05347242893717e-06,-0.1275038172615529
326,0.3163,49.4546,688.398,0.0184263,184.499,0.00143519,-0.00530647,-0.109077,0.247275,-0.136777,0.205729,4.87924e-06,8.03494e-06,0.271368,-0.10333862808562277,0.22842025699338575,4.879251903400217e-06,0.28053121044549423,8.0349722801909e-06,-0.12783530282474775
327,0.3173,49.4559,688.416,0.0183809,184.504,0.00140722,-0.00531999,-0.10938,0.247958,-0.137157,0.206299,4.88242e-06,8.01641e-06,0.272128,-0.10361027532467781,0.22912065613466392,4.882431918984409e-06,0.281406112007101,8.016442131442147e-06,-0.12816666244735864
328,0.3183,49.4571,688.434,0.0183347,184.509,0.0013794,-0.00533353,-0.109683,0.248641,-0.137537,0.206868,4.88553e-06,7.99784e-06,0.272887,-0.10388184026708802,0.22982022479641429,4.88554193411872e-06,0.2822816113305864,7.99787198291213e-06,-0.12849789617723406
329,0.3193,49.4584,688.451,0.0182895,184.513,0.00135191,-0.00534663,-0.109986,0.249323,-0.137916,0.207436,4.88855e-06,7.97924e-06,0.273645,-0.10415332293778545,0.2305189611064251,4.88856194902354e-06,0.2831564256672947,7.979271834157586e-06,-0.12882813289077277
330,0.3203,49.4596,688.468,0.0182437,184.518,0.00132458,-0.0053597,-0.110288,0.250004,-0.138295,0.208004,4.89148e-06,7.9606e-06,0.274403,-0.10442382778597026,0.23121809441139574,4.891491963254779e-06,0.2840305527996805,7.960631685621777e-06,-0.1291582444683118
331,0.3213,49.4608,688.485,0.0181987,184.522,0.00129756,-0.00537237,-0.110591,0.250685,-0.138674,0.208572,4.89434e-06,7.94192e-06,0.27516,-0.10469514625932652,0.2319176249368835,4.894351977258182e-06,0.28490527541538246,7.941951537082659e-06,-0.1294882309572687
332,0.3223,49.4619,688.501,0.0181533,184.527,0.00127071,-0.00538498,-0.110893,0.251366,-0.139052,0.209139,4.89712e-06,7.92321e-06,0.275917,-0.10496548750157397,0.23261632029163715,4.897131990810877e-06,0.28578059392006305,7.923241388763103e-06,-0.1298172222227003
333,0.3233,49.4631,688.517,0.0181085,184.531,0.00124415,-0.00539724,-0.111194,0.252046,-0.13943,0.209706,4.89981e-06,7.90447e-06,0.276673,-0.1052348523483928,0.23331541191898975,4.89982200413408e-06,0.28665522206379523,7.904501240441064e-06,-0.13014608915293446
334,0.3243,49.4642,688.533,0.0180634,184.535,0.00121778,-0.00540939,-0.111496,0.252725,-0.139808,0.210273,4.90243e-06,7.8857e-06,0.277428,-0.10550503062401062,0.2340149000436913,4.902442017007402e-06,0.2875291576271235,7.885731092116544e-06,-0.130474831794961
335,0.3253,49.4653,688.549,0.0180188,184.54,0.00119167,-0.00542123,-0.111797,0.253404,-0.140186,0.210839,4.90496e-06,7.86689e-06,0.278183,-0.10577423309278866,0.23471355017645212,4.904972029429189e-06,0.28840368679420525,7.866920944010758e-06,-0.1308034501957519
336,0.3263,49.4664,688.564,0.0179741,184.544,0.00116576,-0.00543295,-0.112099,0.254083,-0.140563,0.211404,4.90742e-06,7.84806e-06,0.278938,-0.10604424850001593,0.23541136044513955,4.907432041401094e-06,0.28927880996823374,7.848090796125362e-06,-0.13113107553377146
337,0.3273,49.4675,688.579,0.0179297,184.548,0.00114011,-0.00544438,-0.1124,0.254761,-0.14094,0.21197,4.90981e-06,7.82919e-06,0.279691,-0.10631328868863776,0.23611080119821204,4.909822053145163e-06,0.2901532373987945,7.829220648236657e-06,-0.1314585773803182
338,0.3283,49.4686,688.594,0.0178853,184.552,0.00111466,-0.00545566,-0.1127,0.255438,-0.141317,0.212534,4.91211e-06,7.8103e-06,0.280445,-0.10658135449015049,0.2368081643280049,4.912122064437696e-06,0.2910269668645662,7.810330500568341e-06,-0.13178595578193963
339,0.3293,49.4696,688.609,0.0178412,184.556,0.00108945,-0.00546669,-0.113001,0.256115,-0.141693,0.213099,4.91435e-06,7.79137e-06,0.281197,-0.10685023303419805,0.23750715838807746,4.91436207550322e-06,0.29190128804545945,7.791400352896716e-06,-0.1321123428979426
340,0.3303,49.4706,688.623,0.017797,184.56,0.00106444,-0.00547755,-0.113301,0.256792,-0.142069,0.213663,4.9165e-06,7.77242e-06,0.281949,-0.10711813777656709,0.2382053092854548,4.916512085895164e-06,0.2927762013422006,7.77245020544548e-06,-0.13243860731545865
341,0.3313,49.4716,688.637,0.0177532,184.564,0.00103968,-0.00548817,-0.113601,0.257467,-0.142445,0.214226,4.91858e-06,7.75344e-06,0.282701,-0.10738596215956797,0.238902615147764,4.918592096281316e-06,0.2936491198549611,7.753470057991763e-06,-0.13276474908061375
342,0.3323,49.4726,688.651,0.0177093,184.567,0.00101511,-0.00549863,-0.113901,0.258143,-0.142821,0.214789,4.92059e-06,7.73444e-06,0.283452,-0.10765370620730486,0.23960031370380674,4.9206021062175864e-06,0.2945239223098992,7.734469910758435e-06,-0.1330907682395166
343,0.3333,49.4736,688.665,0.0176657,184.571,0.000990775,-0.00550885,-0.1142,0.258818,-0.143196,0.215352,4.92253e-06,7.71541e-06,0.284202,-0.10792047786479864,0.24029840517473144,4.922542115703976e-06,0.29539802093255507,7.71543976374467e-06,-0.13341579825449001
344,0.3343,49.4745,688.678,0.0176222,184.575,0.000966643,-0.00551891,-0.1145,0.259492,-0.143571,0.215914,4.92439e-06,7.69635e-06,0.284952,-0.10818806158187477,0.2409956487855427,4.9244021247396574e-06,0.29627141349889485,7.696379616950466e-06,-0.13374070640605873
345,0.3353,49.4755,688.692,0.0175788,184.578,0.000942734,-0.00552874,-0.114799,0.260166,-0.143946,0.216476,4.92619e-06,7.67727e-06,0.285701,-0.10845467349099513,0.2416932843573938,4.926202133770374e-06,0.29714539493024983,7.677299470376653e-06,-0.13406549273991275
346,0.3363,49.4764,688.705,0.0175355,184.582,0.000919028,-0.0055384,-0.115098,0.260839,-0.14432,0.217037,4.92791e-06,7.65817e-06,0.28645,-0.10872120569507115,0.24239006971993815,4.927922142128338e-06,0.29801866760433193,7.658199323801185e-06,-0.13438929169144975
347,0.3373,49.4773,688.718,0.0174924,184.585,0.000895539,-0.00554786,-0.115396,0.261512,-0.144694,0.217598,4.92956e-06,7.63904e-06,0.287198,-0.10898676720514378,0.24308724608873788,4.9295721502584655e-06,0.29889252818873313,7.639069177445279e-06,-0.13471296956482193
348,0.3383,49.4782,688.73,0.0174494,184.589,0.000872252,-0.00555713,-0.115695,0.262185,-0.145068,0.218159,4.93115e-06,7.6199e-06,0.287946,-0.10925314033698164,0.2437848136832088,4.931162158161584e-06,0.2997669770792506,7.619929031532635e-06,-0.13503652640530406
349,0.3393,49.4791,688.743,0.0174065,184.592,0.000849178,-0.0055662,-0.115993,0.262857,-0.145442,0.218719,4.93266e-06,7.60073e-06,0.288693,-0.10951854335414757,0.2444815282407402,4.932672165613994e-06,0.3006407140305829,7.600758885617509e-06,-0.13535996225815383
350,0.3403,49.48,688.755,0.0173638,184.595,0.000826303,-0.0055751,-0.116291,0.263528,-0.145815,0.219278,4.93411e-06,7.58154e-06,0.289439,-0.10978386729299772,0.24517738788967836,4.934122172839395e-06,0.30151373681608606,7.581568739922773e-06,-0.13568241285145743
351,0.3413,49.4808,688.767,0.0173212,184.598,0.000803636,-0.00558381,-0.116589,0.264199,-0.146188,0.219838,4.93549e-06,7.56233e-06,0.290185,-0.11004911217709379,0.24587488250716172,4.9355021796149146e-06,0.30238734559645764,7.562358594448426e-06,-0.13600474319311795
352,0.3423,49.4816,688.779,0.0172787,184.602,0.000781167,-0.00559234,-0.116887,0.264869,-0.146561,0.220397,4.93681e-06,7.5431e-06,0.290931,-0.11031427802999061,0.24657152125887372,4.936822186163425e-06,0.3032602375041431,7.5431284491944695e-06,-0.13632695332798106
353,0.3433,49.4825,688.79,0.0172379,184.605,0.000760115,-0.0055976,-0.117184,0.265539,-0.146934,0.220955,4.93821e-06,7.52375e-06,0.291676,-0.11057847545415611,0.24726730227258553,4.9382221929406e-06,0.30413371444537085,7.523778303486495e-06,-0.13664904330087546
354,0.3443,49.4833,688.802,0.0171871,184.608,0.00073488,-0.00560861,-0.117481,0.266209,-0.147306,0.221513,4.93948e-06,7.50429e-06,0.29242,-0.11084259442333788,0.24796347164044374,4.939492199262929e-06,0.3050077768122448,7.504318157325329e-06,-0.13697015012719482
355,0.3453,49.4841,688.813,0.0171573,184.611,0.000715664,-0.00561129,-0.117778,0.266877,-0.147678,0.222071,4.94077e-06,7.48495e-06,0.293164,-0.1111066349608334,0.24866002957921052,4.940782205586913e-06,0.30587981323489366,7.484978012284316e-06,-0.13729113752399014
356,0.3463,49.4849,688.824,0.0171054,184.614,0.00069286,-0.00562051,-0.118075,0.267546,-0.148049,0.222628,4.94194e-06,7.4655e-06,0.293907,-0.11137059708993358,0.2493557269494171,4.941952211456879e-06,0.3067537391255637,7.465527867012156e-06,-0.1376111431472551
357,0.3473,49.4856,688.835,0.0170722,184.617,0.000672492,-0.0056244,-0.118371,0.268214,-0.148421,0.223185,4.94307e-06,7.44612e-06,0.294649,-0.11163359246795879,0.2500518119309987,4.943082217101491e-06,0.30762694224066967,7.446147722411922e-06,-0.13793189213899293
358,0.3483,49.4864,688.846,0.0170232,184.62,0.000650257,-0.00563292,-0.118667,0.268881,-0.148792,0.223741,4.94411e-06,7.42666e-06,0.295391,-0.11189651001087231,0.2507470339922555,4.944122222072522e-06,0.30849942035024736,7.426687577805069e-06,-0.13825166008638734
359,0.3493,49.4871,688.856,0.016988,184.623,0.00062991,-0.00563727,-0.118963,0.269548,-0.149163,0.224297,4.94511e-06,7.40724e-06,0.296133,-0.11215934974170982,0.2514426427044574,4.945122227040244e-06,0.3093724805968452,7.4072674336456146e-06,-0.13857130942187723
360,0.3503,49.4879,688.866,0.016941,184.625,0.000608324,-0.005645,-0.119259,0.270214,-0.149533,0.224853,4.94603e-06,7.38777e-06,0.296874,-0.11242211168350036,0.25213863828264205,4.946042231557257e-06,0.3102448131234101,7.387797289704068e-06,-0.13888997907986889
361,0.3513,49.4886,688.877,0.0169044,184.628,0.000588142,-0.00564962,-0.119555,0.27088,-0.149904,0.225408,4.9469e-06,7.36833e-06,0.297614,-0.11268479585926605,0.2528337681075721,4.946912235848089e-06,0.3111177268169447,7.3683571462090924e-06,-0.1392093916429361
362,0.3523,49.4893,688.887,0.0168591,184.631,0.000567083,-0.00565671,-0.11985,0.271546,-0.150274,0.225963,4.9477e-06,7.34884e-06,0.298354,-0.11294651523898114,0.25352928383663365,4.947712239911084e-06,0.31199122206463525,7.34886700270998e-06,-0.1395278252541774
363,0.3533,49.49,688.896,0.0168215,184.633,0.000547108,-0.00566146,-0.120145,0.272211,-0.150643,0.226517,4.94844e-06,7.32937e-06,0.299094,-0.11320815742286605,0.25422393145950406,4.9484522435250256e-06,0.31286398638928303,7.329396859878656e-06,-0.1398452809124875
364,0.3543,49.4907,688.906,0.0167775,184.636,0.000526528,-0.00566803,-0.12044,0.272875,-0.151013,0.227071,4.94912e-06,7.30987e-06,0.299832,-0.11346972243369025,0.25491896402377656,4.949132246911958e-06,0.3137360175585542,7.309896717266895e-06,-0.14016347928822026
365,0.3553,49.4913,688.916,0.0167393,184.639,0.000506797,-0.00567282,-0.120735,0.273539,-0.151382,0.227624,4.94974e-06,7.29039e-06,0.300571,-0.11373121029421662,0.25561312612901377,4.9497522500718816e-06,0.3146086279488016,7.290416574878833e-06,-0.14048070043346217
366,0.3563,49.492,688.925,0.0166963,184.641,0.000486659,-0.00567892,-0.121029,0.274203,-0.151751,0.228177,4.95029e-06,7.27087e-06,0.301308,-0.11399173501937887,0.2563076722120552,4.950302252781924e-06,0.31548181794475605,7.270896432931551e-06,-0.14079780454569546
367,0.3573,49.4926,688.934,0.0166576,184.644,0.000467193,-0.00568369,-0.121324,0.274866,-0.15212,0.22873,4.9508e-06,7.25137e-06,0.302045,-0.1142530689089043,0.2570026024852994,4.950812255266612e-06,0.3163542715764738,7.251396291207968e-06,-0.14111479166809726
368,0.3583,49.4933,688.943,0.0166155,184.646,0.00044747,-0.0056894,-0.121618,0.275528,-0.152488,0.229282,4.95123e-06,7.23185e-06,0.302782,-0.11451344023018539,0.2576966594639738,4.951242257300592e-06,0.31722598661009815,7.231876149926819e-06,-0.1414308032750614
369,0.3593,49.4939,688.952,0.0165765,184.648,0.000428287,-0.00569409,-0.121912,0.27619,-0.152856,0.229834,4.95162e-06,7.21233e-06,0.303518,-0.1147737350135497,0.2583910996678611,4.951632259331262e-06,0.318098278910129,7.212356008867715e-06,-0.1417466986111493
370,0.3603,49.4945,688.961,0.0165351,184.651,0.000408957,-0.00569944,-0.122205,0.276852,-0.153224,0.230386,4.95194e-06,7.1928e-06,0.304254,-0.1150330683150067,0.2590859233085596,4.9519522609120514e-06,0.31897114885884315,7.192825868251873e-06,-0.14206247771914093
371,0.3613,49.4951,688.97,0.016496,184.653,0.000390067,-0.00570402,-0.122499,0.277513,-0.153592,0.230937,4.95221e-06,7.17326e-06,0.304989,-0.11529321035016915,0.25977987081728426,4.952222262266659e-06,0.3198432769948334,7.173285727857248e-06,-0.1423781406418001
372,0.3623,49.4957,688.978,0.0164551,184.655,0.000371111,-0.00570905,-0.122792,0.278173,-0.153959,0.231487,4.95242e-06,7.15372e-06,0.305723,-0.11555239146764862,0.2604729403228767,4.952432263172213e-06,0.3207146610827678,7.1537455879067124e-06,-0.14269283011513412
373,0.3633,49.4963,688.987,0.016416,184.658,0.000352521,-0.00571347,-0.123085,0.278833,-0.154326,0.232038,4.95258e-06,7.13418e-06,0.306457,-0.11581149665618484,0.26116765228856487,4.95259226407363e-06,0.3215866204740294,7.134205448400266e-06,-0.14300740411862145
374,0.3643,49.4969,688.995,0.0163755,184.66,0.000333925,-0.00571821,-0.123378,0.279493,-0.154693,0.232588,4.95268e-06,7.11462e-06,0.30719,-0.1160705259380217,0.26186148528390696,4.952692264525993e-06,0.32245915554844373,7.114645308892165e-06,-0.14332186269463165
375,0.3653,49.4975,689.003,0.0163365,184.662,0.00031564,-0.00572247,-0.12367,0.280152,-0.155059,0.233137,4.95272e-06,7.09507e-06,0.307923,-0.11632859566443399,0.26255443743728923,4.952732264751347e-06,0.3233309433544822,7.0950951700510245e-06,-0.14363534952129675
376,0.3663,49.498,689.011,0.0162964,184.664,0.000297392,-0.00572693,-0.123963,0.28081,-0.155426,0.233686,4.95272e-06,7.07551e-06,0.308655,-0.11658747345845555,0.2632477701258511,4.952732264751347e-06,0.32420198165538316,7.075535031431102e-06,-0.1439495776836277
377,0.3673,49.4986,689.019,0.0162574,184.666,0.000279413,-0.00573101,-0.124255,0.281469,-0.155792,0.234235,4.95266e-06,7.05595e-06,0.309387,-0.11684539225822821,0.2639414835585636,4.952672264524338e-06,0.32507491836234736,7.055974893255268e-06,-0.14426283480864466
378,0.3683,49.4991,689.026,0.0162178,184.669,0.000261503,-0.00573521,-0.124547,0.282126,-0.156157,0.234783,4.95254e-06,7.03638e-06,0.310118,-0.117103235756706,0.2646343133095672,4.9525522638482755e-06,0.32594577862998375,7.0364047553006515e-06,-0.1445751218780823
379,0.3693,49.4996,689.034,0.0161789,184.671,0.000243832,-0.0057391,-0.124838,0.282783,-0.156523,0.235331,4.95237e-06,7.01681e-06,0.310849,-0.11736012133643614,0.2653275228353231,4.952382262946031e-06,0.3268172112408103,7.016834617790124e-06,-0.1448881500958168
380,0.3703,49.5002,689.041,0.0161396,184.673,0.000226251,-0.00574304,-0.12513,0.28344,-0.156888,0.235878,4.95215e-06,6.99724e-06,0.311579,-0.11761781455596487,0.2660198463235255,4.952162261817605e-06,0.32768921657097994,6.997264480723686e-06,-0.1452002089668234
381,0.3713,49.5007,689.049,0.0161008,184.675,0.000208885,-0.00574673,-0.125421,0.284096,-0.157253,0.236425,4.95188e-06,6.97767e-06,0.312309,-0.1178745504150499,0.2667125486162696,4.951892260685042e-06,0.32856046643576176,6.977694344101337e-06,-0.14551215395712647
382,0.3723,49.5012,689.056,0.0160618,184.676,0.000191626,-0.00575044,-0.125712,0.284752,-0.157617,0.236972,4.95156e-06,6.95809e-06,0.313038,-0.11813121157486917,0.2674056299208183,4.951572259104253e-06,0.3294322880279612,6.958114207478161e-06,-0.14582313093184307
383,0.3733,49.5017,689.063,0.0160233,184.678,0.000174564,-0.00575393,-0.126003,0.285407,-0.157982,0.237518,4.95119e-06,6.93852e-06,0.313767,-0.11838779805715705,0.26809782234609103,4.951202257075238e-06,0.3303033514187377,6.938544071521946e-06,-0.14613484859711834
384,0.3743,49.5022,689.07,0.0159845,184.68,0.00015762,-0.00575739,-0.126294,0.286062,-0.158346,0.238064,4.95077e-06,6.91894e-06,0.314495,-0.1186443098836415,0.26879039281162354,4.9507822550420855e-06,0.33117498554293,6.918963936008993e-06,-0.1464455989522332
385,0.3753,49.5026,689.077,0.0159461,184.682,0.000140859,-0.00576068,-0.126584,0.286716,-0.15871,0.23861,4.9503e-06,6.89936e-06,0.315222,-0.11889986597635083,0.2694833415238822,4.9503122527827514e-06,0.332045858727966,6.899383800718084e-06,-0.14675623621480305
386,0.3763,49.5031,689.084,0.0159076,184.684,0.000124224,-0.00576392,-0.126874,0.28737,-0.159073,0.239155,4.94978e-06,6.87978e-06,0.315949,-0.11915534796853822,0.27017539851341255,4.949792250075191e-06,0.33291730165034883,6.87980366564922e-06,-0.14706590749231974
387,0.3773,49.5036,689.09,0.0158695,184.686,0.000107761,-0.005767,-0.127164,0.288023,-0.159437,0.239699,4.94922e-06,6.86021e-06,0.316676,-0.11941075588169003,0.27086656190960245,4.949232247364321e-06,0.33378798089416084,6.860233531247317e-06,-0.1473763190036701
388,0.3783,49.504,689.097,0.0158312,184.688,9.14285e-05,-0.00577001,-0.127454,0.288676,-0.1598,0.240243,4.9486e-06,6.84063e-06,0.317402,-0.11966608973728576,0.2715581014009687,4.9486122444264424e-06,0.3346592288771921,6.840653397066632e-06,-0.1476857652319834
389,0.3793,49.5045,689.103,0.0157932,184.689,7.52604e-05,-0.00577289,-0.127744,0.289329,-0.160163,0.240787,4.94794e-06,6.82105e-06,0.318127,-0.11992134955679923,0.27225001719216246,4.947952241041165e-06,0.33553104597095085,6.821073263330035e-06,-0.14799509915170106
390,0.3803,49.5049,689.11,0.0157552,184.691,5.92257e-05,-0.00577569,-0.128033,0.289981,-0.160525,0.241331,4.94723e-06,6.80147e-06,0.318852,-0.12017565553779308,0.2729423094879466,4.94724223765175e-06,0.3364020961444232,6.801493130037528e-06,-0.1483034691074786
391,0.3813,49.5054,689.116,0.0157175,184.693,4.33483e-05,-0.00577835,-0.128322,0.290632,-0.160887,0.241874,4.94648e-06,6.7819e-06,0.319576,-0.12042988803497734,0.27363370485885374,4.946492233814936e-06,0.33727237715474656,6.7819229971899375e-06,-0.1486117274535348
392,0.3823,49.5058,689.122,0.0156797,184.694,2.7606e-05,-0.00578094,-0.128611,0.291283,-0.161249,0.242417,4.94568e-06,6.76233e-06,0.3203,-0.12068404706958569,0.27432547575939425,4.945692229973986e-06,0.33814322490246074,6.7623528645643916e-06,-0.14891987423026498
393,0.3833,49.5062,689.128,0.0156421,184.696,1.20156e-05,-0.0057834,-0.1289,0.291933,-0.161611,0.242959,4.94483e-06,6.74275e-06,0.321023,-0.12093813266284592,0.27501634737655123,4.944842225684809e-06,0.33901330074266145,6.742772732382107e-06,-0.14922790947804987
394,0.3843,49.5066,689.134,0.0156046,184.698,-3.43947e-06,-0.00578578,-0.129189,0.292583,-0.161973,0.243501,4.94394e-06,6.72318e-06,0.321746,-0.1211921448359794,0.27570759354761964,4.943952221392323e-06,0.3398839423160016,6.72320260064474e-06,-0.14953583323725583
395,0.3853,49.507,689.14,0.0155672,184.699,-1.87469e-05,-0.00578804,-0.129477,0.293233,-0.162334,0.244042,4.94301e-06,6.70362e-06,0.322468,-0.12144520505584588,0.2763979380770867,4.943022216652437e-06,0.34075514999032763,6.703642469352289e-06,-0.14984279539145473
396,0.3863,49.5074,689.146,0.0155299,184.701,-3.39194e-05,-0.00579021,-0.129765,0.293882,-0.162695,0.244583,4.94203e-06,6.68405e-06,0.32319,-0.12169819240486279,0.2770886561839876,4.942042211908415e-06,0.34162558250747077,6.684072338281055e-06,-0.15014964675231535
397,0.3873,49.5078,689.152,0.0154928,184.702,-4.89481e-05,-0.00579227,-0.130053,0.294531,-0.163055,0.245124,4.94101e-06,6.66449e-06,0.323911,-0.12195110690401423,0.27777974807048267,4.941022206716994e-06,0.3424965801186708,6.664512207654738e-06,-0.15045553781578946
398,0.3883,49.5082,689.157,0.0154557,184.704,-6.38427e-05,-0.00579424,-0.130341,0.295179,-0.163416,0.245665,4.93994e-06,6.64494e-06,0.324632,-0.12220394857427774,0.2784712139388412,4.939952201521436e-06,0.3433667998233214,6.644962077695382e-06,-0.15076216801655662
399,0.3893,49.5086,689.163,0.0154188,184.705,-7.85972e-05,-0.00579611,-0.130628,0.295827,-0.163776,0.246205,4.93884e-06,6.62538e-06,0.325352,-0.12245583989290365,0.27916177482902804,4.938852196101351e-06,0.3442375836130842,6.6254019479572435e-06,-0.1510678386120623
400,0.3903,49.509,689.168,0.0153819,184.707,-9.32184e-05,-0.00579788,-0.130915,0.296474,-0.164136,0.246744,4.93769e-06,6.60583e-06,0.326072,-0.12270765892909419,0.27985142887072856,4.937702190455084e-06,0.3451075867453459,6.605851818441977e-06,-0.1513733991859586
401,0.3913,49.5093,689.173,0.0153452,184.708,-0.000107703,-0.00579955,-0.131203,0.297121,-0.164496,0.247283,4.9365e-06,6.58629e-06,0.326791,-0.12296028274374715,0.2805414547361549,4.936512184583464e-06,0.34597815295176915,6.586311689593671e-06,-0.15167884977784618
402,0.3923,49.5097,689.179,0.0153085,184.71,-0.000122055,-0.00580113,-0.131489,0.297767,-0.164855,0.247822,4.93527e-06,6.56675e-06,0.32751,-0.12321108023713134,0.28123185262577444,4.935282178486489e-06,0.3468479357481713,6.566771561189455e-06,-0.15198334241107803
403,0.3933,49.51,689.184,0.015272,184.711,-0.000136273,-0.00580261,-0.131776,0.298413,-0.165214,0.24836,4.93399e-06,6.54721e-06,0.328228,-0.12346268255044435,0.2819213408181802,4.934002172163332e-06,0.34771828060578613,6.547231433007283e-06,-0.15228772575107385
404,0.3943,49.5104,689.189,0.0152356,184.712,-0.000150361,-0.00580401,-0.132063,0.299058,-0.165573,0.248899,4.93268e-06,6.52768e-06,0.328945,-0.12371421266425453,0.2826124826668768,4.932692165615649e-06,0.34858783929930914,6.527701305270028e-06,-0.15259199983706284
405,0.3953,49.5107,689.194,0.0151993,184.714,-0.000164318,-0.0058053,-0.132349,0.299703,-0.165932,0.249436,4.93133e-06,6.50816e-06,0.329663,-0.1239647945645127,0.28330143053601575,4.9313421590646556e-06,0.34945795903910737,6.5081811781997345e-06,-0.15289616470826017
406,0.3963,49.5111,689.199,0.0151631,184.715,-0.000178146,-0.0058065,-0.132635,0.300348,-0.16629,0.249973,4.92994e-06,6.48864e-06,0.330379,-0.12421530480859488,0.2839907484695139,4.929952152066264e-06,0.35032864018717236,6.488661051351485e-06,-0.15319937360366398
407,0.3973,49.5114,689.204,0.015127,184.716,-0.000191845,-0.00580762,-0.132921,0.300992,-0.166648,0.25051,4.92851e-06,6.46913e-06,0.331095,-0.12446574341699157,0.2846804366661493,4.928522145064562e-06,0.35119853190652184,6.469150924948153e-06,-0.15350247396971106
408,0.3983,49.5117,689.208,0.0150909,184.718,-0.000205418,-0.00580864,-0.133206,0.301635,-0.167006,0.251047,4.92704e-06,6.44962e-06,0.331811,-0.12471523512586036,0.2853704953248062,4.9270521378375065e-06,0.3520676319482572,6.449640798766865e-06,-0.15380546584524823
409,0.3993,49.512,689.213,0.015055,184.719,-0.000218863,-0.00580957,-0.133492,0.302278,-0.167364,0.251583,4.92553e-06,6.43012e-06,0.332526,-0.12496553077463057,0.2860596385841947,4.925542130385097e-06,0.352937291001022,6.430140673252538e-06,-0.15410834926910788
410,0.4003,49.5124,689.218,0.0150192,184.72,-0.000232185,-0.00581042,-0.133777,0.302921,-0.167721,0.252119,4.92399e-06,6.41063e-06,0.33324,-0.12521488006439818,0.28674915132338197,4.9240021229302045e-06,0.3538075094243762,6.410650548183128e-06,-0.15441027869081025
411,0.4013,49.5127,689.222,0.0149836,184.721,-0.000245381,-0.00581117,-0.134062,0.303563,-0.168078,0.252654,4.92241e-06,6.39114e-06,0.333954,-0.125464158299744,0.2874377463020725,4.9224221150279135e-06,0.3546769329005004,6.391160423335762e-06,-0.15471210034294713
412,0.4023,49.513,689.227,0.014948,184.723,-0.000258456,-0.00581184,-0.134347,0.304205,-0.168435,0.253189,4.92079e-06,6.37166e-06,0.334668,-0.1257133655009156,0.28812670977764054,4.920802107122313e-06,0.3555469147257071,6.371680299155358e-06,-0.15501381426398542
413,0.4033,49.5133,689.231,0.0149125,184.724,-0.000271408,-0.00581243,-0.134632,0.304846,-0.168791,0.253723,4.91914e-06,6.35219e-06,0.335381,-0.12596250168815482,0.2888147531318874,4.9191520989921855e-06,0.3564160988417946,6.3522101751978255e-06,-0.1553145758073763
414,0.4043,49.5136,689.235,0.0148771,184.725,-0.000284239,-0.00581293,-0.134916,0.305487,-0.169148,0.254258,4.91745e-06,6.33273e-06,0.336093,-0.12621069309282773,0.28950445350321163,4.917462090636704e-06,0.3572858402835042,6.33275005168521e-06,-0.1556160746830616
415,0.4053,49.5139,689.24,0.0148418,184.726,-0.00029695,-0.00581335,-0.1352,0.306127,-0.169504,0.254791,4.91572e-06,6.31328e-06,0.336805,-0.12645881402114978,0.29019194257649117,4.915732082277913e-06,0.3581547812527359,6.313299928839555e-06,-0.15591662185990274
416,0.4063,49.5142,689.244,0.0148066,184.727,-0.000309542,-0.00581368,-0.135484,0.306767,-0.16986,0.255325,4.91396e-06,6.29383e-06,0.337517,-0.12670686449313362,0.2908810890595619,4.91397207347255e-06,0.3590242785221851,6.293849806215945e-06,-0.15621706206099173
417,0.4073,49.5144,689.248,0.0147715,184.728,-0.000322016,-0.00581393,-0.135768,0.307406,-0.170215,0.255858,4.91216e-06,6.27439e-06,0.338228,-0.1269548445287857,0.291569312075171,4.912172064663878e-06,0.3598929725543454,6.274409684037252e-06,-0.1565165518413788
418,0.4083,49.5147,689.252,0.0147365,184.729,-0.000334374,-0.00581411,-0.136052,0.308045,-0.170571,0.256391,4.91033e-06,6.25496e-06,0.338938,-0.12720275414810733,0.29225790201142354,4.910342055630679e-06,0.36076222185938267,6.254979562303475e-06,-0.15681677850540632
419,0.4093,49.515,689.256,0.0147017,184.73,-0.000346616,-0.0058142,-0.136335,0.308684,-0.170926,0.256923,4.90847e-06,6.23554e-06,0.339648,-0.12744972082125083,0.29294556611772693,4.9084820465949974e-06,0.3616320267922304,6.235559441014615e-06,-0.15711605542424079
420,0.4103,49.5152,689.26,0.0146669,184.732,-0.000358743,-0.00581421,-0.136618,0.309322,-0.17128,0.257455,4.90657e-06,6.21613e-06,0.340358,-0.12769661761271467,0.29363359615866513,4.906582037333962e-06,0.3625010252063412,6.216149320170672e-06,-0.15741438353342985
421,0.4113,49.5155,689.264,0.0146322,184.733,-0.000370756,-0.00581415,-0.136902,0.309959,-0.171635,0.257986,4.90464e-06,6.19673e-06,0.341067,-0.12794431659839178,0.2943206980076216,4.9046520278484e-06,0.36336921484844154,6.196749199771645e-06,-0.15771344834013146
422,0.4123,49.5158,689.268,0.0145976,184.734,-0.000382656,-0.00581401,-0.137184,0.310596,-0.171989,0.258518,4.90267e-06,6.17734e-06,0.341775,-0.1281902016296922,0.29500945981335724,4.902682018137483e-06,0.3642379577035235,6.177359079817535e-06,-0.1580115650096553
423,0.4133,49.516,689.272,0.0145631,184.735,-0.000394444,-0.00581379,-0.137467,0.311233,-0.172343,0.259048,4.90068e-06,6.15796e-06,0.342483,-0.1284368888947366,0.2956959967432742,4.900692008424912e-06,0.3651072541240963,6.157978960308341e-06,-0.15830957616455532
424,0.4143,49.5163,689.275,0.0145287,184.736,-0.000406121,-0.0058135,-0.137749,0.311869,-0.172697,0.259579,4.89865e-06,6.13859e-06,0.343191,-0.12868263504023314,0.29638419401775074,4.898661998486986e-06,0.36597573848647147,6.138608841244064e-06,-0.1586074818421771
425,0.4153,49.5165,689.279,0.0144944,184.737,-0.000417689,-0.00581314,-0.138032,0.312505,-0.173051,0.260109,4.89658e-06,6.11923e-06,0.343897,-0.1289291829663397,0.29707145974991156,4.896591988323706e-06,0.3668447753805877,6.119248722624704e-06,-0.158905282079853
426,0.4163,49.5168,689.283,0.0144602,184.738,-0.000429147,-0.0058127,-0.138314,0.31314,-0.173404,0.260638,4.89449e-06,6.09988e-06,0.344604,-0.12917479030448087,0.29775779207101283,4.894501977936727e-06,0.3677129974442854,6.0998986042282155e-06,-0.1592021361174586
427,0.4173,49.517,689.286,0.0144261,184.739,-0.000440497,-0.00581219,-0.138595,0.313775,-0.173757,0.261168,4.89237e-06,6.08054e-06,0.34531,-0.12941945781101072,0.29844578600309757,4.89238196776931e-06,0.3685817710040753,6.080558486498688e-06,-0.15949888538408208
428,0.4183,49.5172,689.29,0.0143921,184.739,-0.00045174,-0.00581161,-0.138877,0.31441,-0.17411,0.261697,4.89021e-06,6.06122e-06,0.346015,-0.12966492691113818,0.2991328455351172,4.890221957154495e-06,0.3694510964102682,6.061238369214905e-06,-0.1597955299167011
429,0.4193,49.5175,689.293,0.0143582,184.74,-0.000462877,-0.00581096,-0.139159,0.315044,-0.174463,0.262225,4.88803e-06,6.0419e-06,0.34672,-0.12991032679873882,0.29981896879816117,4.888041946538024e-06,0.3703196036931091,6.041918252375211e-06,-0.1600920697522803
430,0.4203,49.5177,689.296,0.0143244,184.741,-0.000473909,-0.00581024,-0.13944,0.315677,-0.174815,0.262753,4.88581e-06,6.02259e-06,0.347425,-0.13015478764855049,0.30050545442994503,4.8858219356962e-06,0.37118729059617905,6.022608135758389e-06,-0.16038766531585613
431,0.4213,49.5179,689.3,0.0142907,184.742,-0.000484837,-0.00580946,-0.139721,0.31631,-0.175167,0.263281,4.88357e-06,6.0033e-06,0.348129,-0.13039917981451377,0.3011923026218497,4.8835819246306755e-06,0.3720555269189314,6.003318019809356e-06,-0.1606831568481043
432,0.4223,49.5181,689.303,0.0142571,184.743,-0.000495661,-0.0058086,-0.140002,0.316943,-0.175519,0.263809,4.88129e-06,5.98402e-06,0.348832,-0.13064350331592622,0.301879513565358,4.881301913561842e-06,0.3729243130092592,5.984037904305239e-06,-0.1609785443856372
433,0.4233,49.5183,689.306,0.0142235,184.744,-0.000506383,-0.00580768,-0.140282,0.317575,-0.17587,0.264336,4.87899e-06,5.96475e-06,0.349535,-0.1308868890594036,0.3025657848856167,4.879001902269309e-06,0.3737922754223133,5.964767789246039e-06,-0.16127298923846312
434,0.4243,49.5186,689.309,0.0141901,184.745,-0.000517003,-0.0058067,-0.140563,0.318207,-0.176222,0.264862,4.87666e-06,5.94549e-06,0.350238,-0.13113107553377146,0.30325111471441013,4.8766718909742934e-06,0.37466078656099144,5.945507674409711e-06,-0.1615681691915316
435,0.4253,49.5188,689.312,0.0141568,184.746,-0.000527522,-0.00580565,-0.140843,0.318838,-0.176573,0.265389,4.8743e-06,5.92625e-06,0.35094,-0.13137432477613886,0.30393810905897456,4.874311879454751e-06,0.3755284712430387,5.926267560241172e-06,-0.16186240712236766
436,0.4263,49.519,689.315,0.0141235,184.746,-0.000537942,-0.00580454,-0.141123,0.319469,-0.176924,0.265915,4.87191e-06,5.90701e-06,0.351641,-0.13161750591825283,0.3046241609201614,4.871921867710682e-06,0.3763967036068958,5.907027446516722e-06,-0.1621565417938131
437,0.4273,49.5192,689.318,0.0140904,184.747,-0.000548263,-0.00580336,-0.141403,0.3201,-0.177274,0.26644,4.86949e-06,5.88779e-06,0.352342,-0.1318606189791789,0.3053092684296297,4.869501855964131e-06,0.377265483998259,5.887807333015971e-06,-0.16244973569225996
438,0.4283,49.5194,689.321,0.0140573,184.748,-0.000558486,-0.00580213,-0.141682,0.32073,-0.177624,0.266965,4.86705e-06,5.86859e-06,0.353043,-0.132102796081207,0.30599473571497326,4.867061844215925e-06,0.37813343462891913,5.868607220183009e-06,-0.16274282699079845
439,0.4293,49.5196,689.324,0.0140244,184.749,-0.000568612,-0.00580083,-0.141962,0.321359,-0.177975,0.26749,4.86457e-06,5.84939e-06,0.353743,-0.13234577327990904,0.30668056296512414,4.8645818320203205e-06,0.37900055323951487,5.849407107794136e-06,-0.16303665268909806
440,0.4303,49.5198,689.327,0.0139915,184.75,-0.000578642,-0.00579948,-0.142241,0.321988,-0.178324,0.268015,4.86208e-06,5.83021e-06,0.354442,-0.13258781504276795,0.30736675036911354,4.862091819823888e-06,0.3798682174392862,5.830226995628962e-06,-0.16332870193175242
441,0.4313,49.5199,689.33,0.0139587,184.75,-0.000588576,-0.00579806,-0.14252,0.322617,-0.178674,0.268539,4.85955e-06,5.81105e-06,0.355141,-0.13282978928539457,0.30805199006342776,4.8595618076241465e-06,0.38073642757151727,5.811066884131577e-06,-0.16362148564593748
442,0.4323,49.5201,689.333,0.013926,184.751,-0.000598416,-0.00579659,-0.142799,0.323245,-0.179023,0.269063,4.857e-06,5.79189e-06,0.35584,-0.13307169602662428,0.3087375889174333,4.857011795200705e-06,0.38160380237521396,5.791906773078281e-06,-0.16391333081750226
443,0.4333,49.5203,689.336,0.0138934,184.752,-0.000608162,-0.00579507,-0.143078,0.323873,-0.179373,0.269586,4.85442e-06,5.77275e-06,0.356538,-0.13331353528528755,0.3094222376964868,4.854431782774782e-06,0.3824717220613625,5.772766662248685e-06,-0.1642059099473817
444,0.4343,49.5205,689.338,0.0138609,184.753,-0.000617816,-0.00579348,-0.143356,0.324501,-0.179721,0.270109,4.85182e-06,5.75363e-06,0.357236,-0.13355444063508315,0.31010724464050377,4.851831770125159e-06,0.3833401869722568,5.753646552086877e-06,-0.1644967156875864
445,0.4353,49.5207,689.341,0.0138285,184.753,-0.000627377,-0.00579184,-0.143635,0.325127,-0.18007,0.270632,4.84919e-06,5.73452e-06,0.357933,-0.1337961452267875,0.3107926099368534,4.849201757251009e-06,0.38420642903477864,5.734536442369986e-06,-0.16478825545716247
446,0.4363,49.5208,689.344,0.0137962,184.754,-0.000636848,-0.00579015,-0.143913,0.325754,-0.180418,0.271154,4.84654e-06,5.71542e-06,0.358629,-0.13403691642966664,0.31147702229532515,4.8465517445972495e-06,0.3850745986085029,5.715436333098012e-06,-0.16507885857638793
447,0.4373,49.521,689.346,0.013764,184.755,-0.000646228,-0.00578841,-0.144191,0.32638,-0.180767,0.271676,4.84386e-06,5.69633e-06,0.359326,-0.1342776207074543,0.3121617920103099,4.843871731496918e-06,0.3859419267526172,5.696346224048909e-06,-0.16537019521354446
448,0.4383,49.5212,689.349,0.0137318,184.755,-0.000655518,-0.00578661,-0.144468,0.327006,-0.181114,0.272197,4.84116e-06,5.67727e-06,0.360021,-0.13451739259657858,0.31284560642213366,4.841171718394932e-06,0.3868097980141276,5.677286115668423e-06,-0.16565976151314687
449,0.4393,49.5213,689.351,0.0136998,184.756,-0.00066472,-0.00578476,-0.144746,0.327631,-0.181462,0.272719,4.83843e-06,5.65821e-06,0.360716,-0.13475796332055678,0.3135310907245237,4.838441705290464e-06,0.3876768250556135,5.658226007732026e-06,-0.16595006140103008
450,0.4403,49.5215,689.354,0.0136678,184.757,-0.000673834,-0.00578286,-0.145023,0.328256,-0.18181,0.273239,4.83568e-06,5.63917e-06,0.361411,-0.13499760217320367,0.3142143045118899,4.835691691962296e-06,0.3885443941583766,5.6391859002413725e-06,-0.16624026028212846
451,0.4413,49.5217,689.356,0.013636,184.757,-0.000682862,-0.00578091,-0.1453,0.32888,-0.182157,0.27376,4.8329e-06,5.62015e-06,0.362105,-0.13523717465508112,0.31489918856134347,4.8329116784096016e-06,0.3894111162495004,5.620165792974419e-06,-0.16652952472152793
452,0.4423,49.5218,689.359,0.0136042,184.758,-0.000691802,-0.00577891,-0.145577,0.329504,-0.182504,0.27428,4.83011e-06,5.60114e-06,0.362799,-0.1354766807845712,0.31558311394458394,4.830121665078124e-06,0.3902783793439848,5.601155686374426e-06,-0.16681868880357975
453,0.4433,49.522,689.361,0.0135725,184.759,-0.000700658,-0.00577687,-0.145854,0.330127,-0.18285,0.2748,4.82728e-06,5.58214e-06,0.363492,-0.13571612058005122,0.31626739506150625,4.827291651299248e-06,0.39114479263403257,5.58215558021935e-06,-0.16710691967043834
454,0.4443,49.5221,689.363,0.0135409,184.759,-0.000709428,-0.00577478,-0.146131,0.33075,-0.183197,0.275319,4.82444e-06,5.56316e-06,0.364185,-0.13595549405989305,0.31695071514576667,4.8244516375195445e-06,0.392011745867735,5.563175474510018e-06,-0.1673958834312007
455,0.4453,49.5223,689.366,0.0135094,184.76,-0.000718115,-0.00577264,-0.146407,0.331373,-0.183543,0.275838,4.82157e-06,5.5442e-06,0.364877,-0.13619393743683283,0.3176343899651968,4.821581623737359e-06,0.39287923938158187,5.544215369024386e-06,-0.1676839146232637
456,0.4463,49.5224,689.368,0.0134779,184.761,-0.000726718,-0.00577046,-0.146683,0.331995,-0.183889,0.276357,4.81868e-06,5.52525e-06,0.365569,-0.13643231501248165,0.3183184197039517,4.818691609953518e-06,0.39374587976569586,5.525265264205714e-06,-0.16797184617377336
457,0.4473,49.5225,689.37,0.0134466,184.761,-0.00073524,-0.00576823,-0.146959,0.332617,-0.184235,0.276875,4.81577e-06,5.50632e-06,0.36626,-0.13667062680499797,0.31900148554413743,4.815781595945978e-06,0.3946130593678083,5.506335159832787e-06,-0.16825967811719955
458,0.4483,49.5227,689.372,0.0134154,184.762,-0.000743679,-0.00576595,-0.147235,0.333238,-0.18458,0.277393,4.81284e-06,5.4874e-06,0.366951,-0.1369088728325356,0.31968490530408555,4.812851581714739e-06,0.3954793830433361,5.487415055904776e-06,-0.16854657903499504
459,0.4493,49.5228,689.374,0.0133842,184.762,-0.000752038,-0.00576364,-0.14751,0.333859,-0.184926,0.277911,4.80989e-06,5.4685e-06,0.367642,-0.13714619025986485,0.32036867916717426,4.809901567481845e-06,0.396346244872946,5.468514952200465e-06,-0.16883421215524963
460,0.4503,49.523,689.377,0.0133531,184.763,-0.000760317,-0.00576128,-0.147786,0.334479,-0.185271,0.278428,4.80691e-06,5.44961e-06,0.368332,-0.13738430505000054,0.32105148626472957,4.806921553246468e-06,0.39721224797798893,5.449624849163115e-06,-0.16912091489299008
461,0.4513,49.5231,689.379,0.0133221,184.763,-0.000768516,-0.00575888,-0.148061,0.335099,-0.185615,0.278945,4.80391e-06,5.43074e-06,0.369021,-0.13762149175144556,0.3217346464648232,4.803921538787392e-06,0.39807878817143694,5.430754746571509e-06,-0.16940668814244986
462,0.4523,49.5232,689.381,0.0132912,184.764,-0.000776637,-0.00575645,-0.148336,0.335719,-0.18596,0.279461,4.80089e-06,5.41189e-06,0.36971,-0.13785861323551551,0.32241683753255823,4.800901524326662e-06,0.39894586578638846,5.411904644203602e-06,-0.1696931934100403
463,0.4533,49.5234,689.383,0.0132604,184.764,-0.000784679,-0.00575397,-0.148611,0.336338,-0.186304,0.279978,4.79786e-06,5.39305e-06,0.370398,-0.13809566952014263,0.3231007038017606,4.797871509643059e-06,0.399812081343367,5.393064542502657e-06,-0.16997876982954696
464,0.4543,49.5235,689.385,0.0132296,184.765,-0.000792644,-0.00575145,-0.148886,0.336957,-0.186648,0.280493,4.7948e-06,5.37423e-06,0.371086,-0.13833266062325433,0.323782276154035,4.794811495179019e-06,0.4006788332537592,5.3742444412474555e-06,-0.17026424802766027
465,0.4553,49.5236,689.387,0.013199,184.766,-0.000800533,-0.00574889,-0.14916,0.337575,-0.186992,0.281009,4.79172e-06,5.35543e-06,0.371774,-0.13856872513192897,0.3244655240713332,4.7917314802692346e-06,0.40154472030425015,5.355444340437998e-06,-0.17054962803816276
466,0.4563,49.5237,689.389,0.0131684,184.766,-0.000808346,-0.0057463,-0.149434,0.338193,-0.187336,0.281524,4.78862e-06,5.33664e-06,0.372461,-0.13880472496778884,0.32514779948706973,4.7886314653577955e-06,0.40241114263832367,5.336654239851413e-06,-0.17083490989482497
467,0.4573,49.5239,689.391,0.0131379,184.767,-0.000816084,-0.00574367,-0.149708,0.338811,-0.187679,0.282039,4.7855e-06,5.31787e-06,0.373148,-0.13904066014855188,0.32583042636513926,4.785511450444702e-06,0.4032781005868875,5.317884139932616e-06,-0.1711192647510854
468,0.4583,49.524,689.392,0.0131075,184.767,-0.000823748,-0.005741,-0.149982,0.339428,-0.188022,0.282553,4.78236e-06,5.29911e-06,0.373834,-0.13927653069193102,0.32651207837384977,4.782371435529953e-06,0.40414419033616156,5.299124040236691e-06,-0.17140352209035514
469,0.4593,49.5241,689.394,0.0130772,184.768,-0.000831338,-0.0057383,-0.150256,0.340044,-0.188365,0.283067,4.77921e-06,5.28038e-06,0.374519,-0.13951233661563456,0.32719408084175305,4.779221420392332e-06,0.4050094096175878,5.2803939412093825e-06,-0.17168768194607698
470,0.4603,49.5242,689.396,0.013047,184.768,-0.000838855,-0.00573557,-0.15053,0.34066,-0.188708,0.283581,4.77603e-06,5.26166e-06,0.375205,-0.139748077937366,0.32787643394903143,4.776041405252229e-06,0.40587516203828167,5.2616738426269904e-06,-0.17197174435168194
471,0.4613,49.5243,689.398,0.0130168,184.769,-0.000846299,-0.0057328,-0.150803,0.341276,-0.18905,0.284094,4.77283e-06,5.24295e-06,0.375889,-0.13998289465814828,0.3285578093174861,4.772841389888427e-06,0.4067414479267577,5.24296374426747e-06,-0.1722548815958852
472,0.4623,49.5244,689.4,0.0129868,184.769,-0.000853672,-0.00572999,-0.151076,0.341891,-0.189392,0.284607,4.76962e-06,5.22426e-06,0.376574,-0.14021764728271535,0.3292395343211787,4.769631374745842e-06,0.4076068600041698,5.224273646575739e-06,-0.17253792202370744
473,0.4633,49.5245,689.401,0.0129568,184.769,-0.000860974,-0.00572716,-0.151349,0.342506,-0.189734,0.28512,4.76639e-06,5.20559e-06,0.377257,-0.1404523358285631,0.32992160913951785,4.766401359157513e-06,0.40847280447370315,5.205603549107707e-06,-0.17282086566825428
474,0.4643,49.5246,689.403,0.0129269,184.77,-0.000868205,-0.00572429,-0.151622,0.343121,-0.190076,0.285632,4.76314e-06,5.18694e-06,0.377941,-0.1406869603131825,0.33060270334863606,4.763151343789573e-06,0.40933928166288003,5.186953452307463e-06,-0.17310371256261992
475,0.4653,49.5247,689.405,0.0128971,184.77,-0.000875367,-0.0057214,-0.151894,0.343735,-0.190418,0.286144,4.75987e-06,5.16831e-06,0.378623,-0.14092066167515127,0.3312841463672771,4.759881328197935e-06,0.4102048816938364,5.168323355730919e-06,-0.17338646273988723
476,0.4663,49.5249,689.406,0.0128673,184.771,-0.00088246,-0.00571847,-0.152167,0.344349,-0.190759,0.286656,4.75659e-06,5.14969e-06,0.379306,-0.14115515832426495,0.33196593837407695,4.7566013126054685e-06,0.4110710133664093,5.149703259599292e-06,-0.17366828990183092
477,0.4673,49.525,689.408,0.0128377,184.771,-0.000889484,-0.00571551,-0.152439,0.344962,-0.1911,0.287167,4.75329e-06,5.13109e-06,0.379988,-0.14138873235369265,0.33264674690035,4.7533012970113475e-06,0.41193626507015546,5.131103164135453e-06,-0.173950020977096
478,0.4683,49.5251,689.41,0.0128081,184.772,-0.000896441,-0.00571252,-0.152711,0.345575,-0.191441,0.287678,4.74997e-06,5.11251e-06,0.380669,-0.141622242859624,0.333327903408682,4.749981281193527e-06,0.41280204733579673,5.112523068895314e-06,-0.1742316559984426
479,0.4693,49.5252,689.411,0.0127786,184.772,-0.00090333,-0.00570951,-0.152983,0.346187,-0.191781,0.288188,4.74663e-06,5.09394e-06,0.38135,-0.14185568985933494,0.3340080740681959,4.746641265374052e-06,0.41366694682101346,5.093952974100091e-06,-0.1745123695114017
480,0.4703,49.5252,689.413,0.0127492,184.773,-0.000910153,-0.00570647,-0.153255,0.346799,-0.192122,0.288699,4.74328e-06,5.07539e-06,0.382031,-0.1420890733700969,0.3346899263924765,4.743291249331705e-06,0.41453237578671964,5.075402879750612e-06,-0.1747938128045896
481,0.4713,49.5253,689.414,0.0127199,184.773,-0.00091691,-0.0057034,-0.153526,0.347411,-0.192462,0.289208,4.73991e-06,5.05686e-06,0.382711,-0.14232153573114092,0.33536945649074923,4.739921233287703e-06,0.41539833455705666,5.056872785846878e-06,-0.17507433521672366
482,0.4723,49.5254,689.416,0.0126906,184.773,-0.000923601,-0.0057003,-0.153797,0.348022,-0.192802,0.289718,4.73652e-06,5.03835e-06,0.38339,-0.14255393510342051,0.3360506686078839,4.736531217242046e-06,0.4162634071922484,5.0383626926109315e-06,-0.17535476226744995
483,0.4733,49.5255,689.417,0.0126614,184.774,-0.000930229,-0.00569718,-0.154069,0.348633,-0.193141,0.290227,4.73312e-06,5.01986e-06,0.384069,-0.14278712871730326,0.3367308915002454,4.733131201195562e-06,0.41712900854832835,5.019872599598685e-06,-0.17563426962386752
484,0.4743,49.5256,689.419,0.0126323,184.774,-0.000936791,-0.00569403,-0.154339,0.349243,-0.193481,0.290736,4.7297e-06,5.00138e-06,0.384748,-0.14301854494995236,0.3374114607141905,4.729711185147423e-06,0.4179937209540132,5.001392507031355e-06,-0.17591450632925587
485,0.4753,49.5257,689.42,0.0126033,184.775,-0.000943291,-0.00569086,-0.15461,0.349853,-0.19382,0.291244,4.72626e-06,4.98292e-06,0.385426,-0.14325075545832588,0.3380910383343343,4.726271168875584e-06,0.41885896099517805,4.982932414687724e-06,-0.17619382396459615
486,0.4763,49.5258,689.422,0.0125744,184.775,-0.000949727,-0.00568767,-0.154881,0.350462,-0.194159,0.291753,4.72281e-06,4.96448e-06,0.386104,-0.14348290304617772,0.33877230003924175,4.722821152380874e-06,0.41972330926975965,4.964492323011882e-06,-0.17647304692730592
487,0.4773,49.5259,689.423,0.0125455,184.775,-0.000956102,-0.00568445,-0.155151,0.351072,-0.194497,0.29226,4.71935e-06,4.94606e-06,0.386781,-0.1437141314451167,0.33945122968948493,4.719361136107381e-06,0.4205896046816524,4.946072231781784e-06,-0.17675135200123748
488,0.4783,49.526,689.424,0.0125168,184.776,-0.000962415,-0.00568121,-0.155421,0.35168,-0.194836,0.292768,4.71587e-06,4.92765e-06,0.387458,-0.1439452974208154,0.3401318437755081,4.7158811198322326e-06,0.4214535857849391,4.927662140996603e-06,-0.17703038599397503
489,0.4793,49.526,689.426,0.0124881,184.776,-0.000968666,-0.00567794,-0.155691,0.352289,-0.195174,0.293275,4.71237e-06,4.90927e-06,0.388135,-0.14417640099012596,0.3408114628891896,4.712381103333385e-06,0.4223195146672636,4.909282050435948e-06,-0.17730850271913468
490,0.4803,49.5261,689.427,0.0124595,184.776,-0.000974857,-0.00567466,-0.155961,0.352896,-0.195512,0.293782,4.70886e-06,4.8909e-06,0.38881,-0.14440744216989587,0.3414914266571243,4.708871086611666e-06,0.42318312469179276,4.890911960542255e-06,-0.17758652545672615
491,0.4813,49.5262,689.428,0.0124309,184.777,-0.000980988,-0.00567135,-0.156231,0.353504,-0.19585,0.294288,4.70534e-06,4.87255e-06,0.389486,-0.14463842097696777,0.342170393083032,4.705351070111163e-06,0.4240486831347081,4.872561870872261e-06,-0.17786445423851172
492,0.4823,49.5263,689.43,0.0124025,184.777,-0.00098706,-0.00566803,-0.1565,0.354111,-0.196188,0.294794,4.7018e-06,4.85422e-06,0.390161,-0.14486848229709015,0.34284970315288565,4.701811053386962e-06,0.4249133430831167,4.854231781648011e-06,-0.17814228909624297
493,0.4833,49.5264,689.431,0.0123741,184.777,-0.000993072,-0.00566468,-0.15677,0.354718,-0.196525,0.2953,4.69824e-06,4.8359e-06,0.390836,-0.1450993366401312,0.34352935704061327,4.698251036661105e-06,0.4257785280394377,4.835911693090722e-06,-0.17841920848128046
494,0.4843,49.5264,689.432,0.0123458,184.778,-0.000999027,-0.00566132,-0.157039,0.355324,-0.196862,0.295805,4.69468e-06,4.81761e-06,0.39151,-0.1453292739906148,0.34420801071154794,4.694691019935249e-06,0.4266428116789227,4.81762160475796e-06,-0.178696034560208
495,0.4853,49.5265,689.434,0.0123175,184.778,-0.00100492,-0.00565793,-0.157308,0.35593,-0.197199,0.29631,4.69109e-06,4.79933e-06,0.392183,-0.1455591494962697,0.3448870071891377,4.69110100320691e-06,0.4275076192330234,4.799341516870115e-06,-0.17897276736446466
496,0.4863,49.5266,689.435,0.0122894,184.778,-0.00101076,-0.00565453,-0.157576,0.356535,-0.197536,0.296815,4.6875e-06,4.78107e-06,0.392856,-0.1457881089622658,0.34556634664654395,4.687510986256527e-06,0.4283715226470912,4.7810814294280135e-06,-0.17924940692547864
497,0.4873,49.5266,689.436,0.0122613,184.779,-0.00101655,-0.00565111,-0.157845,0.35714,-0.197872,0.297319,4.68389e-06,4.76283e-06,0.393529,-0.1460178610579127,0.3462446830116588,4.683900969526533e-06,0.4292359488808617,4.762841342209612e-06,-0.17952513280021076
498,0.4883,49.5267,689.437,0.0122333,184.779,-0.00102227,-0.00564767,-0.158113,0.357745,-0.198208,0.297823,4.68027e-06,4.74461e-06,0.394201,-0.1462466976056821,0.3469233613444702,4.680280952573668e-06,0.43010089825073616,4.744621255658998e-06,-0.17980076604661133
499,0.4893,49.5268,689.438,0.0122054,184.779,-0.00102794,-0.00564422,-0.158382,0.358349,-0.198544,0.298327,4.67663e-06,4.72641e-06,0.394873,-0.14647632635757435,0.34760238181737346,4.676640935397103e-06,0.4309649401076523,4.726421169554129e-06,-0.18007630669579833
500,0.4903,49.5269,689.44,0.0121775,184.78,-0.00103356,-0.00564075,-0.15865,0.358953,-0.19888,0.298831,4.67298e-06,4.70823e-06,0.395545,-0.14670504005310636,0.34828174460285055,4.672990918441755e-06,0.4318295040034901,4.708241083672959e-06,-0.1803517547788791
501,0.4913,49.5269,689.441,0.0121497,184.78,-0.00103912,-0.00563727,-0.158917,0.359556,-0.199216,0.299334,4.66932e-06,4.69006e-06,0.396216,-0.1469328393948468,0.34896010091269525,4.669330901263535e-06,0.4326931575597821,4.690070998458751e-06,-0.18062711032695078
502,0.4923,49.527,689.442,0.012122,184.78,-0.00104463,-0.00563377,-0.159185,0.360159,-0.199551,0.299836,4.66564e-06,4.67191e-06,0.396886,-0.14716143076127763,0.3496374488834695,4.665650884083661e-06,0.43355733205621605,4.6719209134682416e-06,-0.18090155427306376
503,0.4933,49.5271,689.443,0.0120944,184.781,-0.00105008,-0.00563025,-0.159452,0.360761,-0.199886,0.300339,4.66196e-06,4.65378e-06,0.397556,-0.14738910826296536,0.3503164872840989,4.661970866903786e-06,0.43442059338570327,4.653790828923476e-06,-0.18117590629585267
504,0.4943,49.5271,689.444,0.0120668,184.781,-0.00105548,-0.00562672,-0.15972,0.361364,-0.200221,0.300841,4.65826e-06,4.63567e-06,0.398226,-0.14761757736572367,0.3509945163317676,4.658270849722257e-06,0.43528580984005916,4.635680744824455e-06,-0.18145016642610678
505,0.4953,49.5272,689.445,0.0120394,184.781,-0.00106083,-0.00562318,-0.159987,0.361965,-0.200555,0.301342,4.65455e-06,4.61758e-06,0.398895,-0.14784513309252567,0.3516715341632555,4.6545608325399e-06,0.43614867587704476,4.6175906609491335e-06,-0.18172351641853057
506,0.4963,49.5272,689.446,0.012012,184.781,-0.00106612,-0.00561963,-0.160254,0.362567,-0.20089,0.301844,4.65082e-06,4.59951e-06,0.399564,-0.14807262807005894,0.3523502436152248,4.650830815133844e-06,0.4370134976651632,4.5995205777416e-06,-0.18199759313011799
507,0.4973,49.5273,689.447,0.0119846,184.782,-0.00107137,-0.00561606,-0.160521,0.363168,-0.201224,0.302345,4.64708e-06,4.58146e-06,0.400232,-0.14830006231454151,0.35302794083625466,4.6470907977269604e-06,0.4378774023546155,4.581470494979811e-06,-0.18227076031255363
508,0.4983,49.5274,689.448,0.0119574,184.782,-0.00107656,-0.00561248,-0.160787,0.363768,-0.201558,0.302845,4.64334e-06,4.56342e-06,0.4009,-0.14852658436919686,0.353704623963357,4.643350780320077e-06,0.4387403876657321,4.563430412440894e-06,-0.18254383627238535
509,0.4993,49.5274,689.449,0.0119302,184.782,-0.0010817,-0.00560888,-0.161054,0.364368,-0.201892,0.303346,4.63958e-06,4.54541e-06,0.401567,-0.14875389742352718,0.3543829998989452,4.6395907629115385e-06,0.4396038909234037,4.5454203303485485e-06,-0.18281682104007635
510,0.5003,49.5275,689.45,0.0119031,184.783,-0.0010868,-0.00560528,-0.16132,0.364968,-0.202225,0.303846,4.6358e-06,4.52741e-06,0.402234,-0.1489802987740979,0.35506036072498937,4.635810745279301e-06,0.4404679124384916,4.5274202487011195e-06,-0.18308889773538606
511,0.5013,49.5275,689.451,0.011876,184.783,-0.00109184,-0.00560167,-0.161586,0.365568,-0.202559,0.304345,4.63202e-06,4.50943e-06,0.4029,-0.14920663990991834,0.3557367045787485,4.6320307278691075e-06,0.4413324525220437,4.5094401674994344e-06,-0.18336170048294753
512,0.5023,49.5276,689.452,0.0118491,184.783,-0.00109683,-0.00559804,-0.161852,0.366167,-0.202892,0.304845,4.62823e-06,4.49147e-06,0.403566,-0.14943292084700344,0.35641474242637394,4.628240710236042e-06,0.44219606928850363,4.491480086743493e-06,-0.18363359576361005
513,0.5033,49.5276,689.453,0.0118222,184.783,-0.00110178,-0.00559441,-0.162118,0.366765,-0.203225,0.305344,4.62442e-06,4.47353e-06,0.404232,-0.14965914160136395,0.3570917622852514,4.624430692601322e-06,0.44305876045688897,4.473540006211252e-06,-0.18390540051821735
514,0.5043,49.5277,689.454,0.0117954,184.784,-0.00110667,-0.00559076,-0.162383,0.367363,-0.203557,0.305842,4.62061e-06,4.45561e-06,0.404897,-0.14988445207388346,0.3577677622929003,4.620620674966602e-06,0.4439219676688748,4.455619926346799e-06,-0.18417629895361676
515,0.5053,49.5277,689.455,0.0117686,184.784,-0.00111152,-0.00558711,-0.162648,0.367961,-0.20389,0.306341,4.61678e-06,4.4377e-06,0.405562,-0.15010970284703828,0.3584454574771707,4.6167906573302275e-06,0.44478569123314715,4.437709846705218e-06,-0.1844479230181485
516,0.5063,49.5278,689.456,0.0117419,184.784,-0.00111632,-0.00558344,-0.162914,0.368558,-0.204222,0.306839,4.61294e-06,4.41982e-06,0.406226,-0.15033574360132784,0.3591221317929141,4.612950639693025e-06,0.4456484858093688,4.419829767510208e-06,-0.18471864136597405
517,0.5073,49.5278,689.457,0.0117153,184.784,-0.00112108,-0.00557977,-0.163179,0.369155,-0.204554,0.307336,4.6091e-06,4.40195e-06,0.40689,-0.15056087479807234,0.35979778337792645,4.6091106218337785e-06,0.4465117956277367,4.401959688538071e-06,-0.18498926985022635
518,0.5083,49.5279,689.458,0.0116888,184.784,-0.00112578,-0.00557609,-0.163443,0.369752,-0.204886,0.307834,4.60524e-06,4.38411e-06,0.407553,-0.15078509712847576,0.36047513131968745,4.6052506041949215e-06,0.44737562099594275,4.384119610234549e-06,-0.1852598085007351
519,0.5093,49.5279,689.458,0.0116623,184.785,-0.00113045,-0.00557241,-0.163708,0.370348,-0.205217,0.308331,4.60137e-06,4.36628e-06,0.408216,-0.1510101092623123,0.36115145551259387,4.6013805863331925e-06,0.4482385139826235,4.3662895321539e-06,-0.18552944287717033
520,0.5103,49.528,689.459,0.011636,184.785,-0.00113506,-0.00556871,-0.163972,0.370944,-0.205548,0.308827,4.59749e-06,4.34847e-06,0.408879,-0.15123421301047069,0.361826754094732,4.597500568470636e-06,0.4491019214068115,4.348479454518994e-06,-0.18579898801939598
521,0.5113,49.528,689.46,0.0116096,184.785,-0.00113963,-0.00556501,-0.164237,0.371539,-0.205879,0.309324,4.5936e-06,4.33068e-06,0.409541,-0.15145910614436653,0.3625037502111166,4.593610550607252e-06,0.44996439361008433,4.330689377329833e-06,-0.18606844395694366
522,0.5123,49.5281,689.461,0.0115834,184.785,-0.00114416,-0.00556131,-0.164501,0.372134,-0.20621,0.30982,4.5897e-06,4.31291e-06,0.410202,-0.1516830913729933,0.3631797196977957,4.589710532743041e-06,0.45082737913701676,4.312919300586415e-06,-0.18633781071933542
523,0.5133,49.5281,689.462,0.0115572,184.786,-0.00114864,-0.00555759,-0.164765,0.372729,-0.206541,0.310315,4.58579e-06,4.29515e-06,0.410863,-0.1519070174773245,0.36385466069316097,4.585800514655958e-06,0.45169087829312704,4.29515922406587e-06,-0.1866070883360833
524,0.5143,49.5282,689.463,0.0115311,184.786,-0.00115308,-0.00555387,-0.165029,0.373323,-0.206871,0.310811,4.58188e-06,4.27742e-06,0.411524,-0.15213088447296685,0.36453130039763937,4.581890496790919e-06,0.4525534388299508,4.27742914821394e-06,-0.1868754637125597
525,0.5153,49.5282,689.463,0.011505,184.786,-0.00115747,-0.00555015,-0.165292,0.373917,-0.207202,0.311306,4.57795e-06,4.25971e-06,0.412184,-0.15235384472979152,0.365206910591064,4.577960478924226e-06,0.4534165118799347,4.25971907258571e-06,-0.18714456339561636
526,0.5163,49.5282,689.464,0.0114791,184.786,-0.00116182,-0.00554642,-0.165556,0.37451,-0.207532,0.311801,4.57401e-06,4.24201e-06,0.412844,-0.1525775937786089,0.36588285529431874,4.57402046083466e-06,0.45427864346823155,4.242018997402397e-06,-0.18741276143458552
527,0.5173,49.5283,689.465,0.0114532,184.786,-0.00116613,-0.00554269,-0.165819,0.375103,-0.207861,0.312295,4.57007e-06,4.22433e-06,0.413504,-0.15280043656633402,0.3665577681145755,4.570080442745095e-06,0.455141286452174,4.224338922442783e-06,-0.18768005866326842
528,0.5183,49.5283,689.466,0.0114273,184.787,-0.0011704,-0.00553895,-0.166082,0.375696,-0.208191,0.312789,4.56611e-06,4.20667e-06,0.414163,-0.15302322075411223,0.3672330144241305,4.5661204246538745e-06,0.45600444113510963,4.206678848150958e-06,-0.1879480800179537
529,0.5193,49.5284,689.466,0.0114016,184.787,-0.00117462,-0.0055352,-0.166345,0.376288,-0.20852,0.313283,4.56215e-06,4.18904e-06,0.414821,-0.15324594635735334,0.36790859438776824,4.562160406562654e-06,0.4568666509531867,4.189048774083659e-06,-0.18821520115579116
530,0.5203,49.5284,689.467,0.0113759,184.787,-0.0011788,-0.00553146,-0.166608,0.37688,-0.20885,0.313776,4.55818e-06,4.17142e-06,0.415479,-0.1534686133914629,0.36858313958653066,4.5581903884706065e-06,0.45772937135059255,4.171428700461277e-06,-0.18848304594258924
531,0.5213,49.5284,689.468,0.0113502,184.787,-0.00118295,-0.00552771,-0.16687,0.377472,-0.209178,0.314269,4.5542e-06,4.15381e-06,0.416137,-0.1536903755626413,0.3692580174180633,4.5542103703777315e-06,0.4585926026296796,4.153818627061767e-06,-0.18874917985517248
532,0.5223,49.5285,689.469,0.0113247,184.787,-0.00118705,-0.00552396,-0.167133,0.378063,-0.209507,0.314762,4.55021e-06,4.13623e-06,0.416794,-0.15391292572723891,0.3699332280463945,4.550220352284029e-06,0.45945488563736436,4.136238554108829e-06,-0.18901603747451456
533,0.5233,49.5285,689.469,0.0112992,184.788,-0.00119111,-0.0055202,-0.167395,0.378653,-0.209836,0.315255,4.54621e-06,4.11867e-06,0.417451,-0.1541345715038337,0.37060877163563344,4.5462203339674545e-06,0.4603162180879776,4.118678481823679e-06,-0.18928280731214087
534,0.5243,49.5285,689.47,0.0112738,184.788,-0.00119513,-0.00551644,-0.167657,0.379244,-0.210164,0.315747,4.5422e-06,4.10112e-06,0.418108,-0.15435615921684176,0.37128327706600794,4.542210315872097e-06,0.4611795200534705,4.101128409539356e-06,-0.1895486789460109
535,0.5253,49.5286,689.471,0.0112484,184.788,-0.00119911,-0.00551269,-0.167919,0.379834,-0.210492,0.316238,4.53819e-06,4.0836e-06,0.418764,-0.15457768888147372,0.37195674247727584,4.538200297554695e-06,0.46204187033862065,4.08360833792365e-06,-0.18981446338828534
536,0.5263,49.5286,689.471,0.0112231,184.788,-0.00120305,-0.00550892,-0.16818,0.380423,-0.21082,0.31673,4.53416e-06,4.06609e-06,0.419419,-0.15479831531167398,0.37263191127247897,4.534170279235639e-06,0.4629032666565629,4.066098266530815e-06,-0.19008016066755806
537,0.5273,49.5286,689.472,0.0111979,184.788,-0.00120695,-0.00550516,-0.168442,0.381012,-0.211147,0.317221,4.53013e-06,4.0486e-06,0.420074,-0.15501972914658346,0.37330603902573367,4.5301402611386266e-06,0.46376517048638366,4.048608195583725e-06,-0.1903449611577801
538,0.5283,49.5287,689.473,0.0111727,184.788,-0.00121081,-0.0055014,-0.168703,0.381601,-0.211475,0.317712,4.52609e-06,4.03113e-06,0.420729,-0.15524024021932936,0.3739804978569885,4.5261002428187425e-06,0.464627582127096,4.0311381250823786e-06,-0.19061048446231788
539,0.5293,49.5287,689.473,0.0111476,184.789,-0.00121464,-0.00549763,-0.168964,0.38219,-0.211802,0.318202,4.52205e-06,4.01368e-06,0.421383,-0.15546069374619542,0.3746539132742417,4.522060224498858e-06,0.4654905018778883,4.0136880548047316e-06,-0.19087511156500936
540,0.5303,49.5287,689.474,0.0111226,184.789,-0.00121843,-0.00549387,-0.169225,0.382778,-0.212129,0.318693,4.51799e-06,3.99625e-06,0.422037,-0.15568108974219907,0.37532903407425255,4.5180002061773195e-06,0.466352463684929,3.996257984972829e-06,-0.19113965214878492
541,0.5313,49.5288,689.475,0.0110977,184.789,-0.00122218,-0.0054901,-0.169486,0.383365,-0.212456,0.319183,4.51393e-06,3.97883e-06,0.42269,-0.15590142822235387,0.3760031104361705,4.5139401878557806e-06,0.46721346526035146,3.978837915585842e-06,-0.1914041062419315
542,0.5323,49.5288,689.475,0.0110728,184.789,-0.00122589,-0.00548633,-0.169747,0.383952,-0.212782,0.319672,4.50986e-06,3.96144e-06,0.423343,-0.15612170920166957,0.37667614049961307,4.509870169533414e-06,0.4680749723920652,3.961447846423383e-06,-0.19166766554079673
543,0.5333,49.5288,689.476,0.0110479,184.789,-0.00122957,-0.00548257,-0.170007,0.384539,-0.213109,0.320161,4.50578e-06,3.94406e-06,0.423996,-0.15634108903666277,0.37734949975523735,4.505790150988176e-06,0.4689369853769185,3.94406777770584e-06,-0.19193194700179106
544,0.5343,49.5289,689.477,0.0110232,184.789,-0.00123321,-0.0054788,-0.170268,0.385126,-0.213435,0.32065,4.5017e-06,3.9267e-06,0.424648,-0.15656125527947962,0.3780231883640581,4.501710132664982e-06,0.4697995045119343,3.926707709434041e-06,-0.19219533425261404
545,0.5353,49.5289,689.477,0.0109985,184.79,-0.00123681,-0.00547504,-0.170528,0.385712,-0.213761,0.321139,4.49761e-06,3.90936e-06,0.4253,-0.15678052084734795,0.3786972064871683,4.497620114340961e-06,0.47066105943251557,3.909367641607986e-06,-0.19245863565318744
546,0.5363,49.5289,689.478,0.0109738,184.79,-0.00124038,-0.00547127,-0.170788,0.386297,-0.214086,0.321627,4.49351e-06,3.89204e-06,0.425951,-0.1569997294135792,0.37937017491487524,4.493520095794068e-06,0.47152164784985273,3.89204757400563e-06,-0.19272104395294176
547,0.5373,49.5289,689.478,0.0109493,184.79,-0.00124391,-0.00546751,-0.171048,0.386883,-0.214412,0.322115,4.48941e-06,3.87474e-06,0.426602,-0.15721888099299175,0.3800434718313195,4.4894200774692194e-06,0.4723842122421762,3.874747506849019e-06,-0.19298417400008505
548,0.5383,49.529,689.479,0.0109248,184.79,-0.00124741,-0.00546375,-0.171307,0.387468,-0.214737,0.322603,4.48529e-06,3.85746e-06,0.427252,-0.1574371330379547,0.3807170973968428,4.4853000589206715e-06,0.47324580899881763,3.857467439916107e-06,-0.19324641152762856
549,0.5393,49.529,689.479,0.0109003,184.79,-0.00125087,-0.00545999,-0.171567,0.388052,-0.215062,0.32309,4.48118e-06,3.84019e-06,0.427902,-0.15765617090720796,0.38138967038150406,4.481190040594996e-06,0.47410643582984746,3.840197373428111e-06,-0.19350856384182347
550,0.5403,49.529,689.48,0.010876,184.79,-0.0012543,-0.00545623,-0.171826,0.388636,-0.215387,0.323577,4.47705e-06,3.82295e-06,0.428552,-0.15787430970874872,0.38206257098897844,4.47706002204562e-06,0.47496756541373597,3.822957307386687e-06,-0.19377063097035974
551,0.5413,49.529,689.48,0.0108517,184.791,-0.0012577,-0.00545248,-0.172085,0.38922,-0.215712,0.324064,4.47292e-06,3.80572e-06,0.429201,-0.15809239201965586,0.3827357993788574,4.472930003496245e-06,0.4758291980441771,3.80572724179018e-06,-0.19403261294091823
552,0.5423,49.5291,689.481,0.0108274,184.791,-0.00126106,-0.00544872,-0.172344,0.389804,-0.216036,0.32455,4.46878e-06,3.78851e-06,0.42985,-0.15831041785455835,0.3834079723021453,4.468789984946042e-06,0.47669133401503516,3.788517176417372e-06,-0.19429370407527757
553,0.5433,49.5291,689.482,0.0108032,184.791,-0.00126438,-0.00544497,-0.172603,0.390387,-0.21636,0.325036,4.46464e-06,3.77132e-06,0.430498,-0.1585283872280817,0.38408047198086925,4.464649966617884e-06,0.4775524960671125,3.771327111490308e-06,-0.1945547106298121
554,0.5443,49.5291,689.482,0.0107791,184.791,-0.00126768,-0.00544123,-0.172862,0.390969,-0.216684,0.325522,4.46049e-06,3.75415e-06,0.431146,-0.15874630015484736,0.38475329857387086,4.460499948066854e-06,0.47841268190962327,3.7541570467869434e-06,-0.19481563263192114
555,0.5453,49.5291,689.483,0.0107551,184.791,-0.00127094,-0.00543748,-0.17312,0.391552,-0.217008,0.326007,4.45633e-06,3.737e-06,0.431794,-0.15896331561320953,0.38542506681430955,4.456339929514996e-06,0.47927484780011365,3.737006982529323e-06,-0.19507647010899531
556,0.5463,49.5292,689.483,0.0107311,184.791,-0.00127417,-0.00543374,-0.173379,0.392134,-0.217332,0.326493,4.45217e-06,3.71986e-06,0.432441,-0.15918111590811002,0.38609854703921975,4.452179910963139e-06,0.48013603634309066,3.719866918716619e-06,-0.19533722308841628
557,0.5473,49.5292,689.484,0.0107072,184.791,-0.00127737,-0.00543,-0.173637,0.392715,-0.217655,0.326977,4.448e-06,3.70275e-06,0.433087,-0.15939801919847818,0.3867695811131331,4.448009892410454e-06,0.4809962452466947,3.7027568551284418e-06,-0.1955970871950462
558,0.5483,49.5292,689.484,0.0106833,184.791,-0.00128053,-0.00542627,-0.173895,0.393296,-0.217978,0.327462,4.44382e-06,3.68565e-06,0.433734,-0.15961486653501566,0.3874423274877816,4.4438298738569415e-06,0.4818569540768862,3.6856567919851813e-06,-0.1958568673791239
559,0.5493,49.5292,689.485,0.0106595,184.792,-0.00128366,-0.00542254,-0.174153,0.393877,-0.218301,0.327946,4.43964e-06,3.66857e-06,0.434379,-0.1598316579321568,0.388114012108852,4.439649855303429e-06,0.48271816312420746,3.6685767292876648e-06,-0.196116563667752
560,0.5503,49.5293,689.485,0.0106357,184.792,-0.00128676,-0.00541881,-0.17441,0.394457,-0.218624,0.32843,4.43546e-06,3.65151e-06,0.435025,-0.1600475534523056,0.3887860219039645,4.435469836749917e-06,0.4835783891002374,3.6515166668138477e-06,-0.19637617608802438
561,0.5513,49.5293,689.485,0.0106121,184.792,-0.00128983,-0.00541509,-0.174668,0.395038,-0.218947,0.328913,4.43126e-06,3.63446e-06,0.43567,-0.16026423323062156,0.3894569675728794,4.431269817972705e-06,0.484440598591908,3.6344666045629026e-06,-0.19663570466702607
562,0.5523,49.5293,689.486,0.0105884,184.792,-0.00129287,-0.00541137,-0.174925,0.395617,-0.219269,0.329397,4.42707e-06,3.61744e-06,0.436314,-0.16048001759320307,0.39012962751575975,4.427079799418365e-06,0.48530033856919785,3.6174465429805736e-06,-0.19689434632658132
563,0.5533,49.5293,689.486,0.0105649,184.792,-0.00129588,-0.00540766,-0.175182,0.396196,-0.219591,0.32988,4.42286e-06,3.60043e-06,0.436958,-0.1606957465063289,0.39080122230293446,4.422869780862371e-06,0.48616057648007227,3.6004364816211165e-06,-0.19715290471692926
564,0.5543,49.5293,689.487,0.0105414,184.792,-0.00129886,-0.00540395,-0.175439,0.396775,-0.219913,0.330362,4.41865e-06,3.58345e-06,0.437602,-0.16091141998424774,0.3914717500762963,4.418659762306376e-06,0.4870213126129186,3.5834564204861863e-06,-0.19741137986487833
565,0.5553,49.5293,689.487,0.010518,184.792,-0.00130181,-0.00540025,-0.175696,0.397354,-0.220235,0.330845,4.41444e-06,3.56648e-06,0.438245,-0.16112703804120465,0.3921439932652444,4.4144497437503816e-06,0.48788254725629066,3.5664863597961727e-06,-0.1976697717972281
566,0.5563,49.5294,689.488,0.0104946,184.792,-0.00130473,-0.00539654,-0.175953,0.397932,-0.220556,0.331327,4.41022e-06,3.54952e-06,0.438888,-0.16134260069144113,0.3928151684102139,4.410229724971515e-06,0.4887427919553733,3.5495262995510757e-06,-0.19792727846844937
567,0.5573,49.5294,689.488,0.0104713,184.793,-0.00130762,-0.00539285,-0.176209,0.39851,-0.220878,0.331808,4.406e-06,3.53259e-06,0.439531,-0.16155726950688332,0.39348527365361075,4.406009706414693e-06,0.48960353401961676,3.5325962395305055e-06,-0.19818550430819115
568,0.5583,49.5294,689.489,0.010448,184.793,-0.00131048,-0.00538917,-0.176465,0.399087,-0.221199,0.33229,4.40177e-06,3.51567e-06,0.440173,-0.1617718833741425,0.3941570954515583,4.401779687857044e-06,0.4904632832725526,3.515676179954852e-06,-0.19844284545584434
569,0.5593,49.5294,689.489,0.0104248,184.793,-0.00131331,-0.00538548,-0.176722,0.399664,-0.22152,0.332771,4.39754e-06,3.49878e-06,0.440815,-0.1619872803204222,0.39482784631712153,4.397549669299394e-06,0.4913235287439526,3.4987861208257698e-06,-0.19870010401024596
570,0.5603,49.5294,689.489,0.0104017,184.793,-0.00131612,-0.00538181,-0.176978,0.400241,-0.22184,0.333252,4.3933e-06,3.4819e-06,0.441456,-0.16220178411900243,0.39549891989145625,4.393309650518873e-06,0.49218427072021753,3.4819060619195596e-06,-0.19895647895478386
571,0.5613,49.5294,689.49,0.0103786,184.793,-0.00131889,-0.00537814,-0.177233,0.400817,-0.222161,0.333732,4.38905e-06,3.46504e-06,0.442097,-0.16241539542745276,0.3961689201602048,4.389059631959569e-06,0.4930440164431502,3.465046003237049e-06,-0.19921357265929218
572,0.5623,49.5295,689.49,0.0103556,184.793,-0.00132164,-0.00537447,-0.177489,0.401393,-0.222481,0.334212,4.38481e-06,3.44819e-06,0.442737,-0.1626297896425929,0.3968392421062785,4.384819613401092e-06,0.4939042575222685,3.448195944999455e-06,-0.19946978332014909
573,0.5633,49.5295,689.491,0.0103327,184.793,-0.00132436,-0.00537081,-0.177745,0.401969,-0.222801,0.334692,4.38055e-06,3.43137e-06,0.443377,-0.1628441289798387,0.39750988588411973,4.380559594618916e-06,0.49476499424297926,3.431375887208432e-06,-0.1997259120067112
574,0.5643,49.5295,689.491,0.0103098,184.793,-0.00132705,-0.00536716,-0.178,0.402544,-0.223121,0.335172,4.3763e-06,3.41456e-06,0.444017,-0.16305757651123187,0.398180851648245,4.3763095760596116e-06,0.4956247312653752,3.4145658296402814e-06,-0.19998195874520597
575,0.5653,49.5295,689.491,0.0102869,184.793,-0.00132971,-0.00536352,-0.178255,0.403119,-0.223441,0.335651,4.37204e-06,3.39777e-06,0.444656,-0.16327096962044385,0.3988507407018045,4.372049557277435e-06,0.4964849627787118,3.3977757725178748e-06,-0.20023792356185255
576,0.5663,49.5295,689.492,0.0102642,184.793,-0.00133235,-0.00535988,-0.17851,0.403693,-0.22376,0.33613,4.36777e-06,3.381e-06,0.445295,-0.1634843083213502,0.3995209507090829,4.367779538716476e-06,0.49734419172246236,3.3810057156191675e-06,-0.2004930069762686
577,0.5673,49.5295,689.492,0.0102415,184.794,-0.00133496,-0.00535625,-0.178765,0.404268,-0.22408,0.336608,4.3635e-06,3.36424e-06,0.445933,-0.16369759262782346,0.40019008163307235,4.363509520155517e-06,0.4982054122098645,3.364245659165377e-06,-0.20074880828364416
578,0.5683,49.5295,689.492,0.0102188,184.794,-0.00133755,-0.00535262,-0.17902,0.404841,-0.224399,0.337087,4.35922e-06,3.34751e-06,0.446571,-0.16391082255373235,0.4008609333383313,4.359229501371686e-06,0.4990641299101868,3.347515602936113e-06,-0.20100372875182526
579,0.5693,49.5296,689.493,0.0101962,184.794,-0.0013401,-0.00534901,-0.179274,0.405415,-0.224717,0.337565,4.35495e-06,3.33079e-06,0.447209,-0.16412316223652235,0.40153070492712395,4.354959482810727e-06,0.4999248397208389,3.330795547151766e-06,-0.20125776917151472
580,0.5703,49.5296,689.493,0.0101737,184.794,-0.00134264,-0.0053454,-0.179528,0.405988,-0.225036,0.338042,4.35066e-06,3.31409e-06,0.447846,-0.16433544799188204,0.4021993945431688,4.350669464026069e-06,0.5007845429354478,3.314095491591118e-06,-0.20151252730706604
581,0.5713,49.5296,689.494,0.0101512,184.794,-0.00134514,-0.00534179,-0.179783,0.40656,-0.225355,0.33852,4.34638e-06,3.29741e-06,0.448483,-0.1645485152854097,0.4028698060693503,4.346389445464283e-06,0.5016432372571702,3.2974154364762143e-06,-0.20176720418773286
582,0.5723,49.5296,689.494,0.0101288,184.794,-0.00134762,-0.0053382,-0.180037,0.407133,-0.225673,0.338997,4.34209e-06,3.28074e-06,0.449119,-0.16476069301481477,0.4035391345890065,4.342099426901669e-06,0.5025039253957213,3.2807453815841825e-06,-0.20202100186083238
583,0.5733,49.5296,689.494,0.0101064,184.794,-0.00135008,-0.00533461,-0.180291,0.407705,-0.225991,0.339474,4.33779e-06,3.26409e-06,0.449755,-0.16497281685792053,0.4042087824545242,4.337799408116183e-06,0.5033636034855418,3.2640953271378947e-06,-0.20227471883910308
584,0.5743,49.5296,689.495,0.0100841,184.794,-0.00135251,-0.00533103,-0.180544,0.408276,-0.226309,0.33995,4.33349e-06,3.24746e-06,0.450391,-0.16518405201288155,0.40487734494022076,4.333499389552742e-06,0.5042222692288718,3.2474652729153064e-06,-0.20252835514820167
585,0.5753,49.5296,689.495,0.0100619,184.794,-0.00135491,-0.00532746,-0.180798,0.408847,-0.226626,0.340426,4.32919e-06,3.23085e-06,0.451026,-0.16539606833645737,0.4055462257374127,4.329199370989301e-06,0.505081425410348,3.230855219138462e-06,-0.20278111359528916
586,0.5763,49.5296,689.495,0.0100397,184.794,-0.00135729,-0.0053239,-0.181051,0.409418,-0.226944,0.340902,4.32488e-06,3.21425e-06,0.45166,-0.16560719642233923,0.4062154249976524,4.3248893522029874e-06,0.5059410723100906,3.2142551658065344e-06,-0.20303458889645698
587,0.5773,49.5296,689.496,0.0100175,184.794,-0.00135965,-0.00532034,-0.181304,0.409989,-0.227261,0.341378,4.32057e-06,3.19768e-06,0.452295,-0.1658182710995718,0.40688494287256405,4.320579333638719e-06,0.5068012102083794,3.197685112477089e-06,-0.20328718689287906
588,0.5783,49.5297,689.496,0.00999547,184.795,-0.00136198,-0.00531679,-0.181558,0.410559,-0.227578,0.341853,4.31626e-06,3.18112e-06,0.452929,-0.16603012635195646,0.4075533719597688,4.31626931507445e-06,0.5076603317245696,3.1811250598146046e-06,-0.20353970482842665
589,0.5793,49.5297,689.496,0.00997344,184.795,-0.00136429,-0.00531325,-0.18181,0.411128,-0.227895,0.342328,4.31194e-06,3.16457e-06,0.453562,-0.16624026028212846,0.40822211862620916,4.311949296509354e-06,0.5085184345604261,3.1645750071529477e-06,-0.203792142728475
590,0.5803,49.5297,689.497,0.00995149,184.795,-0.00136657,-0.00530972,-0.182063,0.411698,-0.228212,0.342803,4.30762e-06,3.14805e-06,0.454195,-0.1664511748144638,0.40889118302277105,4.307629277722214e-06,0.509378535173513,3.148054955159907e-06,-0.2040445006183912
591,0.5813,49.5297,689.497,0.00992958,184.795,-0.00136883,-0.0053062,-0.182316,0.412267,-0.228528,0.343277,4.3033e-06,3.13154e-06,0.454828,-0.166662035992172,0.4095591557405516,4.303309259157118e-06,0.5102376159453281,3.1315449031676934e-06,-0.20429598281991534
592,0.5823,49.5297,689.497,0.00990772,184.795,-0.00137107,-0.00530268,-0.182568,0.412836,-0.228844,0.343751,4.29897e-06,3.11505e-06,0.45546,-0.1668720107011774,0.4102274451524508,4.298979240591194e-06,0.5110971856731974,3.1150548518432686e-06,-0.20454738556561836
593,0.5833,49.5297,689.497,0.00988594,184.795,-0.00137328,-0.00529917,-0.182821,0.413404,-0.22916,0.344225,4.29464e-06,3.09858e-06,0.456092,-0.16708276542087386,0.4108960514086175,4.294649222025271e-06,0.511955732678927,3.0985848005204986e-06,-0.20479870888060459
594,0.5843,49.5297,689.498,0.00986419,184.795,-0.00137547,-0.00529568,-0.183073,0.413972,-0.229476,0.344698,4.29031e-06,3.08212e-06,0.456724,-0.16729263411942108,0.4115635630950023,4.290319203459347e-06,0.5128147674778762,3.082124749642645e-06,-0.20504995278996996
595,0.5853,49.5297,689.498,0.00984252,184.795,-0.00137764,-0.00529219,-0.183325,0.414539,-0.229792,0.345172,4.28598e-06,3.06568e-06,0.457355,-0.16750244993771957,0.41223280282119434,4.285989184893424e-06,0.5136727766736564,3.0656846992105358e-06,-0.20530111731880274
596,0.5863,49.5297,689.498,0.00982087,184.795,-0.00137979,-0.00528871,-0.183576,0.415107,-0.230107,0.345645,4.28164e-06,3.04926e-06,0.457986,-0.16771138060089008,0.412900946940556,4.281649166326673e-06,0.5145327870306269,3.049264649002126e-06,-0.20555140804398842
597,0.5873,49.5297,689.499,0.00979931,184.795,-0.00138191,-0.00528524,-0.183828,0.415674,-0.230422,0.346117,4.27729e-06,3.03285e-06,0.458616,-0.16792109090837004,0.41356799359813934,4.27729914753705e-06,0.5153917706197078,3.032854599016588e-06,-0.205801619940012
598,0.5883,49.5297,689.499,0.00977779,184.795,-0.00138401,-0.00528178,-0.184079,0.41624,-0.230737,0.346589,4.27295e-06,3.01646e-06,0.459246,-0.1681299165058433,0.41423535517606,4.2729591289702995e-06,0.5162497251401037,3.016464549476794e-06,-0.20605175303170076
599,0.5893,49.5297,689.499,0.00975635,184.795,-0.00138609,-0.00527832,-0.184331,0.416806,-0.231052,0.347061,4.2686e-06,3.00009e-06,0.459876,-0.16833952135556352,0.41490303182299626,4.268609110402721e-06,0.5171081654002094,3.000094500382744e-06,-0.20630180734387393
600,0.5903,49.5298,689.499,0.00973492,184.795,-0.00138815,-0.00527488,-0.184582,0.417372,-0.231367,0.347533,4.26425e-06,2.98374e-06,0.460505,-0.16854824194017404,0.4155710236876953,4.264259091835143e-06,0.5179670916750314,2.983744451290349e-06,-0.20655178290134335
601,0.5913,49.5298,689.5,0.0097136,184.795,-0.00139019,-0.00527144,-0.184833,0.417937,-0.231681,0.348004,4.2599e-06,2.9674e-06,0.461134,-0.16875691014249217,0.4162379146803523,4.2599090734896095e-06,0.5188249854139875,2.9674044026428703e-06,-0.2068008865301958
602,0.5923,49.5298,689.5,0.00969227,184.796,-0.0013922,-0.00526803,-0.185084,0.418503,-0.231996,0.348476,4.25554e-06,2.95108e-06,0.461762,-0.16896552597566405,0.4169065367584788,4.255549054921204e-06,0.519684883683986,2.951084354441136e-06,-0.20705070490247957
603,0.5933,49.5298,689.5,0.00967104,184.796,-0.0013942,-0.0052646,-0.185335,0.419067,-0.23231,0.348946,4.25118e-06,2.93478e-06,0.46239,-0.16917408945283285,0.4175726393526029,4.251189036352798e-06,0.5205422277066716,2.9347843064631007e-06,-0.2072996518944169
604,0.5943,49.5298,689.5,0.00964984,184.796,-0.00139617,-0.0052612,-0.185585,0.419632,-0.232624,0.349417,4.24682e-06,2.91849e-06,0.463018,-0.16938176996932341,0.41824047332829317,4.246829017784393e-06,0.5214015768085867,2.9184942587079377e-06,-0.20754852072927021
605,0.5953,49.5298,689.501,0.00962874,184.796,-0.00139812,-0.0052578,-0.185835,0.420196,-0.232937,0.349887,4.24246e-06,2.90222e-06,0.463645,-0.16958939857217437,0.41890720301996165,4.242468999215987e-06,0.5222598893192827,2.9022242113985186e-06,-0.20779651922849218
606,0.5963,49.5298,689.501,0.00960764,184.796,-0.00140006,-0.00525442,-0.186086,0.420759,-0.233251,0.350357,4.23809e-06,2.88597e-06,0.464272,-0.16979780547697199,0.419574246148237,4.238098980646754e-06,0.5231171629368487,2.885974164312799e-06,-0.2080452320714946
607,0.5973,49.5298,689.501,0.00958663,184.796,-0.00140196,-0.00525104,-0.186336,0.421323,-0.233564,0.350827,4.23372e-06,2.86974e-06,0.464898,-0.17000533008394603,0.4202416028604692,4.2337289622995655e-06,0.5239764433110328,2.8697441176728233e-06,-0.208293075124395
608,0.5983,49.5298,689.501,0.00956562,184.796,-0.00140386,-0.00524768,-0.186586,0.421886,-0.233877,0.351296,4.22935e-06,2.85352e-06,0.465524,-0.17021280281625295,0.4209078523955143,4.2293589437303325e-06,0.5248346836205944,2.8535240712557197e-06,-0.20854084061455913
609,0.5993,49.5298,689.502,0.00954474,184.796,-0.00140573,-0.00524431,-0.186835,0.422448,-0.23419,0.351765,4.22498e-06,2.83731e-06,0.46615,-0.17041939410666862,0.4215744144748772,4.2249889251610995e-06,0.5256918815628491,2.837314025061488e-06,-0.20878852856626018
610,0.6003,49.5298,689.502,0.00952384,184.796,-0.00140758,-0.00524097,-0.187085,0.423011,-0.234503,0.352234,4.2206e-06,2.82113e-06,0.466775,-0.1706267633359082,0.4222412892451757,4.220608906813084e-06,0.526551087936068,2.821133979313828e-06,-0.20903613900376394
611,0.6013,49.5298,689.502,0.00950305,184.796,-0.00140941,-0.00523763,-0.187334,0.423573,-0.234815,0.352702,4.21622e-06,2.80496e-06,0.4674,-0.17083325156298645,0.4229070539453308,4.216228888243023e-06,0.5274092507686567,2.8049639340110843e-06,-0.20928288123460514
612,0.6023,49.5298,689.502,0.00948228,184.796,-0.00141122,-0.00523431,-0.187584,0.424134,-0.235127,0.35317,4.21184e-06,2.7888e-06,0.468024,-0.17104051734079395,0.4235731302962862,4.211848869895007e-06,0.528266367757174,2.788803888709168e-06,-0.20952954649387856
613,0.6033,49.5298,689.503,0.00946157,184.796,-0.00141302,-0.00523099,-0.187833,0.424695,-0.235439,0.353638,4.20746e-06,2.77267e-06,0.468648,-0.17124690255595054,0.4242395184439285,4.207468851324947e-06,0.5291239657232232,2.7726738438538234e-06,-0.20977613480559554
614,0.6043,49.5298,689.503,0.00944091,184.796,-0.00141479,-0.00522768,-0.188082,0.425256,-0.235751,0.354106,4.20308e-06,2.75655e-06,0.469272,-0.17145323638758592,0.42490621853421273,4.203088832976931e-06,0.5299820449367088,2.7565537992213507e-06,-0.21002264619375988
615,0.6053,49.5298,689.503,0.00942031,184.796,-0.00141655,-0.00522438,-0.188331,0.425817,-0.236063,0.354573,4.19869e-06,2.74044e-06,0.469895,-0.1716595188484933,0.4255718051406443,4.198698814406043e-06,0.530840605667686,2.7404437550337946e-06,-0.21026908068236816
616,0.6063,49.5298,689.503,0.00939976,184.796,-0.00141828,-0.0052211,-0.188579,0.426377,-0.236374,0.35504,4.1943e-06,2.72436e-06,0.470518,-0.17186492181679802,0.42623770264861105,4.1943087960572e-06,0.5316981164874799,2.7243637110707652e-06,-0.2105146488104528
617,0.6073,49.5298,689.503,0.00937928,184.796,-0.00142,-0.00521782,-0.188828,0.426937,-0.236686,0.355507,4.18991e-06,2.70829e-06,0.47114,-0.17207110178079477,0.4269039112033377,4.189918777708357e-06,0.5325561076478156,2.708293667330608e-06,-0.21076092981818884
618,0.6083,49.5298,689.504,0.00935882,184.796,-0.0014217,-0.00521456,-0.189076,0.427496,-0.236997,0.355973,4.18552e-06,2.69223e-06,0.471763,-0.1722764026891883,0.42756900338040005,4.185528759359514e-06,0.5334130460039463,2.6922336240353673e-06,-0.21100634500497584
619,0.6093,49.5298,689.504,0.00933842,184.797,-0.00142338,-0.0052113,-0.189324,0.428055,-0.237308,0.356439,4.18113e-06,2.67619e-06,0.472384,-0.1724816526892694,0.42823440556264236,4.18113874101067e-06,0.5342704635225319,2.676193580963826e-06,-0.21125168387950677
620,0.6103,49.5298,689.504,0.00931808,184.797,-0.00142505,-0.00520805,-0.189572,0.428614,-0.237619,0.356905,4.17673e-06,2.66017e-06,0.473006,-0.17268685179366183,0.42890011789456106,4.176738722438955e-06,0.5351283604714985,2.6601735383380287e-06,-0.21149694646551132
621,0.6113,49.5298,689.504,0.0092978,184.797,-0.00142669,-0.00520482,-0.18982,0.429172,-0.237929,0.357371,4.17234e-06,2.64416e-06,0.473627,-0.17289200001498606,0.4295661405207192,4.1723487043121565e-06,0.5359852011329538,2.644163495713059e-06,-0.21174134452845006
622,0.6123,49.5298,689.504,0.00927756,184.797,-0.00142832,-0.00520159,-0.190068,0.429731,-0.238239,0.357836,4.16794e-06,2.62817e-06,0.474247,-0.17309709736585965,0.4302310433539893,4.167948685962486e-06,0.5368440568882058,2.628173453533833e-06,-0.2119856668397313
623,0.6133,49.5298,689.505,0.00925737,184.797,-0.00142993,-0.00519838,-0.190316,0.430288,-0.23855,0.358301,4.16354e-06,2.6122e-06,0.474867,-0.17330214385889686,0.43089625543897236,4.163548667612815e-06,0.537700317474328,2.612203411800351e-06,-0.2122307011925273
624,0.6143,49.5299,689.505,0.00923725,184.797,-0.00143152,-0.00519517,-0.190563,0.430846,-0.23886,0.358766,4.15914e-06,2.59624e-06,0.475487,-0.1735063130134351,0.4315617769195039,4.159148649263145e-06,0.5385585936882729,2.5962433702897414e-06,-0.21247487182675395
625,0.6153,49.5299,689.505,0.00921712,184.797,-0.0014331,-0.00519198,-0.19081,0.431403,-0.239169,0.35923,4.15473e-06,2.5803e-06,0.476107,-0.1737104317444198,0.43222617571259425,4.154738630912647e-06,0.5394158095374086,2.580303329002831e-06,-0.21271817949838823
626,0.6163,49.5299,689.505,0.00919713,184.797,-0.00143465,-0.00518879,-0.191057,0.431959,-0.239479,0.359694,4.15033e-06,2.56437e-06,0.476726,-0.17391450006430387,0.43289088285825716,4.150338612562976e-06,0.5402719627160393,2.5643732879387926e-06,-0.21296219903776092
627,0.6173,49.5299,689.505,0.00917709,184.797,-0.0014362,-0.00518563,-0.191304,0.432516,-0.239788,0.360158,4.14592e-06,2.54846e-06,0.477344,-0.17411851798553746,0.43355589849960086,4.1459285944345226e-06,0.5411301331775586,2.5484632473204982e-06,-0.21320535614854996
628,0.6183,49.5299,689.505,0.0091572,184.797,-0.00143772,-0.00518246,-0.191551,0.433072,-0.240098,0.360622,4.14152e-06,2.53257e-06,0.477962,-0.1743224855205675,0.4342212227798008,4.141528576084852e-06,0.541987239785162,2.5325732069259033e-06,-0.21344922468656757
629,0.6193,49.5299,689.506,0.00913728,184.797,-0.00143923,-0.00517932,-0.191798,0.433627,-0.240407,0.361085,4.13711e-06,2.51669e-06,0.47858,-0.17452640268183772,0.4348854209559603,4.1371185579563985e-06,0.5428432802324934,2.516693166976225e-06,-0.21369223132967952
630,0.6203,49.5299,689.506,0.00911747,184.797,-0.00144072,-0.00517617,-0.192044,0.434183,-0.240715,0.361548,4.1327e-06,2.50083e-06,0.479198,-0.17472944421164593,0.43554992672707815,4.1327085396059005e-06,0.5437013396147061,2.5008331270282014e-06,-0.21393437683010863
631,0.6213,49.5299,689.506,0.00909766,184.797,-0.00144219,-0.00517305,-0.192291,0.434738,-0.241024,0.36201,4.12829e-06,2.48498e-06,0.479815,-0.1749332608665325,0.43621330402158165,4.128298521477447e-06,0.5445583316514846,2.4849830875250944e-06,-0.21417723358436724
632,0.6223,49.5299,689.506,0.00907796,184.797,-0.00144365,-0.00516992,-0.192537,0.435292,-0.241332,0.362473,4.12387e-06,2.46915e-06,0.480432,-0.17513620232153704,0.43687842474490934,4.123878503126122e-06,0.5454142540358287,2.469153048245687e-06,-0.21441922972710414
633,0.6233,49.5299,689.506,0.00905826,184.797,-0.00144509,-0.00516682,-0.192783,0.435847,-0.241641,0.362935,4.11946e-06,2.45333e-06,0.481048,-0.17533909385908353,0.4375424159472989,4.119468484997668e-06,0.5462721970039699,2.453333009411196e-06,-0.21466193668496236
634,0.6243,49.5299,689.506,0.00903862,184.797,-0.00144652,-0.00516372,-0.193029,0.436401,-0.241949,0.363397,4.11504e-06,2.43753e-06,0.481664,-0.17554193549145058,0.4382067139844972,4.115048466868387e-06,0.5471290691327741,2.4375329708004045e-06,-0.21490378356213247
635,0.6253,49.5299,689.507,0.00901901,184.797,-0.00144793,-0.00516063,-0.193275,0.436954,-0.242257,0.363858,4.11063e-06,2.42175e-06,0.48228,-0.17574472723091294,0.43886988012769534,4.110638448739934e-06,0.5479848681146138,2.4217529324133125e-06,-0.2151455559619344
636,0.6263,49.5299,689.507,0.0089995,184.797,-0.00144932,-0.00515755,-0.19352,0.437508,-0.242564,0.36432,4.10621e-06,2.40598e-06,0.482895,-0.17594664503680024,0.4395347915950365,4.1062184303886085e-06,0.5488426893260849,2.405982894471137e-06,-0.2153864692941655
637,0.6273,49.5299,689.507,0.00898002,184.797,-0.0014507,-0.00515449,-0.193766,0.438061,-0.242872,0.36478,4.10179e-06,2.39023e-06,0.48351,-0.17614933722995918,0.4401971299253069,4.101798412259328e-06,0.5496994362019598,2.3902328565306163e-06,-0.21562809304965447
638,0.6283,49.5299,689.507,0.00896056,184.797,-0.00145207,-0.00515143,-0.194011,0.438613,-0.243179,0.365241,4.09737e-06,2.37449e-06,0.484124,-0.176351155918539,0.4408612138617889,4.097378394130047e-06,0.5505551064340002,2.3744928190350123e-06,-0.21586885826573654
639,0.6293,49.5299,689.507,0.00894116,184.797,-0.00145342,-0.00514839,-0.194256,0.439165,-0.243486,0.365702,4.09295e-06,2.35877e-06,0.484738,-0.17655292516759669,0.4415256040115423,4.0929583762228106e-06,0.5514112491263958,2.3587727819851523e-06,-0.21610954957824202
640,0.6303,49.5299,689.507,0.00892182,184.797,-0.00145475,-0.00514536,-0.194501,0.439717,-0.243793,0.366162,4.08853e-06,2.34306e-06,0.485352,-0.17675464498924343,0.4421888583261846,4.08853835809353e-06,0.5522678645400165,2.3430627449361197e-06,-0.216350167009856
641,0.6313,49.5299,689.508,0.00890251,184.797,-0.00145607,-0.00514234,-0.194746,0.440269,-0.2441,0.366622,4.08411e-06,2.32737e-06,0.485965,-0.17695631539558754,0.44285241780799467,4.084118339964249e-06,0.5531249529358768,2.327372708332831e-06,-0.21659071058325619
642,0.6323,49.5299,689.508,0.0088833,184.797,-0.00145737,-0.00513932,-0.194991,0.44082,-0.244406,0.367081,4.07969e-06,2.31169e-06,0.486578,-0.17715793639873423,0.4435148390818209,4.079698322057013e-06,0.553980960593397,2.3116926719524145e-06,-0.21683039715190244
643,0.6333,49.5299,689.508,0.00886407,184.798,-0.00145866,-0.00513633,-0.195235,0.441371,-0.244713,0.36754,4.07527e-06,2.29603e-06,0.487191,-0.17735868536988242,0.44417756447680223,4.075278303927732e-06,0.5548374400411027,2.2960326357956973e-06,-0.2170707933172773
644,0.6343,49.5299,689.508,0.00884498,184.798,-0.00145993,-0.00513333,-0.19548,0.441922,-0.245019,0.367999,4.07084e-06,2.28039e-06,0.487803,-0.17756020780446058,0.4448405941325626,4.070848285797624e-06,0.5556943915390222,2.280392600084724e-06,-0.2173103330030811
645,0.6353,49.5299,689.508,0.00882583,184.798,-0.0014612,-0.00513036,-0.195724,0.442472,-0.245325,0.368458,4.06642e-06,2.26475e-06,0.488415,-0.17776085863335966,0.44550392818878937,4.066428267890387e-06,0.5565502587962894,2.2647525645957955e-06,-0.21754979940095476
646,0.6363,49.5299,689.508,0.00880681,184.798,-0.00146244,-0.00512738,-0.195968,0.443022,-0.245631,0.368917,4.06199e-06,2.24914e-06,0.489026,-0.17796146050942896,0.4461675667852345,4.061998249982324e-06,0.5574065969100217,2.249142529331394e-06,-0.21778919253332085
647,0.6373,49.5299,689.508,0.00878777,184.798,-0.00146367,-0.00512443,-0.196212,0.443571,-0.245936,0.369375,4.05757e-06,2.23354e-06,0.489638,-0.17816201344461158,0.44683006323092744,4.057578231853043e-06,0.5582618478766346,2.233542494289864e-06,-0.21802773045071666
648,0.6383,49.5299,689.509,0.00876884,184.798,-0.00146489,-0.00512148,-0.196456,0.444121,-0.246242,0.369833,4.05314e-06,2.21795e-06,0.490248,-0.17836251745084752,0.4474928631694872,4.053148213944979e-06,0.5591191276232865,2.217952459693251e-06,-0.21826697735855494
649,0.6393,49.5298,689.509,0.00874992,184.798,-0.00146609,-0.00511855,-0.196699,0.444669,-0.246547,0.37029,4.04871e-06,2.20238e-06,0.490859,-0.17856215110263596,0.4481545185847027,4.048718196036916e-06,0.5599737590528482,2.2023824253203372e-06,-0.21850536957379973
650,0.6403,49.5298,689.509,0.00873109,184.798,-0.00146728,-0.00511562,-0.196943,0.445218,-0.246852,0.370747,4.04429e-06,2.18683e-06,0.491469,-0.17876255748719372,0.44881647644554623,4.044298178129679e-06,0.5608304197784209,2.186832391171123e-06,-0.2187436890905059
651,0.6413,49.5298,689.509,0.00871224,184.798,-0.00146846,-0.00511272,-0.197186,0.445766,-0.247157,0.371204,4.03986e-06,2.17129e-06,0.492078,-0.17896209394106333,0.4494787368902675,4.039868160221616e-06,0.5616859892530845,2.1712923572447806e-06,-0.21898193593084325
652,0.6423,49.5298,689.509,0.00869349,184.798,-0.00146962,-0.00510981,-0.197429,0.446314,-0.247461,0.371661,4.03543e-06,2.15576e-06,0.492687,-0.17916158191346532,0.45014130005717856,4.035438142313552e-06,0.5625420277083093,2.1557623235413104e-06,-0.2192193293366944
653,0.6433,49.5298,689.509,0.00867477,184.798,-0.00147077,-0.00510692,-0.197673,0.446862,-0.247766,0.372118,4.031e-06,2.14025e-06,0.493296,-0.1793618420547477,0.45080416608465557,4.0310081244054885e-06,0.563398535401167,2.140252290283584e-06,-0.2194574311288776
654,0.6443,49.5298,689.509,0.00865608,184.798,-0.0014719,-0.00510404,-0.197915,0.447409,-0.24807,0.372574,4.02657e-06,2.12475e-06,0.493905,-0.1795604124609822,0.45146588364452755,4.0265781067194695e-06,0.5642539483341398,2.12475225724873e-06,-0.219694680006158
655,0.6453,49.5298,689.509,0.00863745,184.798,-0.00147303,-0.00510117,-0.198158,0.447956,-0.248374,0.37303,4.02214e-06,2.10927e-06,0.494513,-0.17975975505964747,0.4521279030164147,4.022148088811406e-06,0.5651098293059837,2.109272224437575e-06,-0.21993185677074123
656,0.6463,49.5298,689.51,0.00861884,184.798,-0.00147414,-0.00509831,-0.198401,0.448502,-0.248678,0.373485,4.01771e-06,2.09381e-06,0.495121,-0.17995904922394634,0.45278877154847685,4.017718070903342e-06,0.5659646126073907,2.093812192072164e-06,-0.22016896144454656
657,0.6473,49.5298,689.51,0.00860031,184.798,-0.00147523,-0.00509546,-0.198643,0.449049,-0.248982,0.373941,4.01328e-06,2.07835e-06,0.495728,-0.18015747512353197,0.4534513942948073,4.013288053217323e-06,0.5668214295685619,2.0783521597067534e-06,-0.22040599404948602
658,0.6483,49.5298,689.51,0.00858182,184.798,-0.00147631,-0.00509262,-0.198886,0.449594,-0.249286,0.374396,4.00885e-06,2.06292e-06,0.496335,-0.1803566726535969,0.4541128651524198,4.008858035531304e-06,0.5676755799825224,2.062922127787914e-06,-0.2206429546074652
659,0.6493,49.5298,689.51,0.00856339,184.798,-0.00147738,-0.0050898,-0.199128,0.45014,-0.249589,0.374851,4.00442e-06,2.04749e-06,0.496942,-0.1805550023399547,0.4547746370477532,4.0044280176232405e-06,0.5685317645663142,2.047492096091119e-06,-0.2208790640198367
660,0.6503,49.5298,689.51,0.00854501,184.798,-0.00147844,-0.00508698,-0.19937,0.450685,-0.249892,0.375305,3.99999e-06,2.03209e-06,0.497548,-0.1807532840363355,0.455435254681829,3.9999979999372215e-06,0.5693868473669008,2.032092064618851e-06,-0.22111510190189376
661,0.6513,49.5298,689.51,0.00852664,184.798,-0.00147949,-0.00508418,-0.199612,0.45123,-0.250195,0.37576,3.99556e-06,2.01669e-06,0.498154,-0.18095151775435137,0.45609762840130297,3.9955679822512025e-06,0.5702423963146275,2.0166920335906724e-06,-0.2213510682753066
662,0.6523,49.5298,689.51,0.00850832,184.798,-0.00148052,-0.00508138,-0.199853,0.451775,-0.250498,0.376214,3.99113e-06,2.00131e-06,0.498759,-0.18114888465490575,0.4567588468098187,3.9911379645651834e-06,0.5710984116636133,2.0013120025641484e-06,-0.2215869631617391
663,0.6533,49.5298,689.51,0.00849003,184.798,-0.00148154,-0.0050786,-0.200095,0.452319,-0.250801,0.376667,3.9867e-06,1.98595e-06,0.499365,-0.18134702264915503,0.45741890806000907,3.986707946879164e-06,0.5719533217140089,1.9859519719833685e-06,-0.2218227865828486
664,0.6543,49.5298,689.51,0.00847183,184.798,-0.00148255,-0.00507583,-0.200336,0.452863,-0.251103,0.377121,3.98227e-06,1.9706e-06,0.499969,-0.18154429424451446,0.45808072646567877,3.982277929193145e-06,0.5728086969619941,1.9706019416254605e-06,-0.2220577606184353
665,0.6553,49.5298,689.511,0.0084537,184.798,-0.00148354,-0.00507307,-0.200578,0.453406,-0.251406,0.377574,3.97783e-06,1.95526e-06,0.500574,-0.18174233656122052,0.4587413866630048,3.977837911506299e-06,0.5736629639969544,1.9552619114904246e-06,-0.2222934414095249
666,0.6563,49.5298,689.511,0.00843554,184.798,-0.00148453,-0.00507032,-0.200819,0.45395,-0.251708,0.378027,3.9734e-06,1.93994e-06,0.501178,-0.1819395128974064,0.4594023462071968,3.9734078940423245e-06,0.5745192695433596,1.939941881579088e-06,-0.22252827332881464
667,0.6573,49.5298,689.511,0.00841746,184.798,-0.0014855,-0.00506757,-0.20106,0.454493,-0.25201,0.378479,3.96897e-06,1.92463e-06,0.501782,-0.1821366417198209,0.46006214517101496,3.9689778763563055e-06,0.5753744656714577,1.924631852112668e-06,-0.22276303433957245
668,0.6583,49.5298,689.511,0.00839943,184.798,-0.00148646,-0.00506485,-0.201301,0.455035,-0.252311,0.378932,3.96454e-06,1.90934e-06,0.502385,-0.18233372303991346,0.46072370315434763,3.964547858892331e-06,0.5762285500678148,1.9093418228699477e-06,-0.22299694746054544
669,0.6593,49.5298,689.511,0.00838142,184.798,-0.00148741,-0.00506213,-0.201541,0.455577,-0.252613,0.379384,3.96011e-06,1.89406e-06,0.502988,-0.18252993939947892,0.4613840995065055,3.960117841206312e-06,0.5770830975033869,1.8940617936280546e-06,-0.22323156695308577
670,0.6603,49.5298,689.511,0.00836347,184.798,-0.00148834,-0.00505942,-0.201782,0.456119,-0.252914,0.379836,3.95568e-06,1.8788e-06,0.503591,-0.18272692594625128,0.46204479442528545,3.955687823742338e-06,0.5779381082292097,1.8788017650539501e-06,-0.22346533906696486
671,0.6613,49.5298,689.511,0.0083456,184.798,-0.00148927,-0.00505672,-0.202022,0.456661,-0.253215,0.380287,3.95125e-06,1.86355e-06,0.504193,-0.1829230479484426,0.46270432534061356,3.951257806278363e-06,0.5787935824964539,1.863551736480673e-06,-0.22369904082602643
672,0.6623,49.5298,689.511,0.0083277,184.798,-0.00149019,-0.00505404,-0.202263,0.457202,-0.253516,0.380738,3.94682e-06,1.84831e-06,0.504795,-0.18311993976746976,0.4633641537714692,3.946827788814389e-06,0.5796479409076969,1.848311708130268e-06,-0.2239326722514443
673,0.6633,49.5298,689.511,0.00830988,184.798,-0.00149109,-0.00505136,-0.202503,0.457743,-0.253817,0.381189,3.94239e-06,1.83309e-06,0.505396,-0.18331596745766188,0.4640242798520622,3.94239777112837e-06,0.5805027616518901,1.8330916800035624e-06,-0.2241662333643858
674,0.6643,49.5298,689.511,0.00829215,184.798,-0.00149198,-0.00504869,-0.202743,0.458284,-0.254118,0.38164,3.93796e-06,1.81788e-06,0.505997,-0.18351194810685345,0.4646847037166626,3.937967753664395e-06,0.5813580449792235,1.8178816523217733e-06,-0.2243997241860115
675,0.6653,49.5298,689.512,0.00827433,184.798,-0.00149286,-0.00504605,-0.202983,0.458824,-0.254418,0.382091,3.93352e-06,1.80269e-06,0.506598,-0.1837078817263329,0.4653454254996017,3.9335277361995935e-06,0.5822122089270219,1.8026916248636837e-06,-0.22463236937023323
676,0.6663,49.5298,689.512,0.00825673,184.798,-0.00149372,-0.00504339,-0.203222,0.459364,-0.254719,0.382541,3.92909e-06,1.78751e-06,0.507199,-0.1839029522307466,0.4660049793295582,3.929097718957664e-06,0.5830668342479117,1.7875115976284661e-06,-0.22486571990603532
677,0.6673,49.5298,689.512,0.00823904,184.798,-0.00149459,-0.00504077,-0.203462,0.459904,-0.255019,0.382991,3.92467e-06,1.77234e-06,0.507799,-0.1840987920204964,0.4666648300255283,3.924677701494517e-06,0.5839219211911015,1.7723415706161205e-06,-0.22509822531250878
678,0.6683,49.5298,689.512,0.00822152,184.798,-0.00149543,-0.00503813,-0.203701,0.460443,-0.255319,0.38344,3.92024e-06,1.75719e-06,0.508399,-0.18429376910851336,0.46732351039688713,3.920247684252587e-06,0.5847758852292573,1.7571915438274743e-06,-0.22533066097782195
679,0.6693,49.5298,689.512,0.0082039,184.798,-0.00149628,-0.00503554,-0.203941,0.460982,-0.255618,0.38389,3.91581e-06,1.74205e-06,0.508998,-0.18448951511346712,0.4679839545653586,3.9158176667886124e-06,0.5856303096780993,1.7420515172617002e-06,-0.22556225248553385
680,0.6703,49.5298,689.512,0.00818644,184.798,-0.00149709,-0.00503292,-0.20418,0.461521,-0.255918,0.384339,3.91138e-06,1.72692e-06,0.509597,-0.18468439882982324,0.46864322735662434,3.911387649546683e-06,0.5864851947858554,1.7269214911408426e-06,-0.2257945489635742
681,0.6713,49.5298,689.512,0.00816892,184.799,-0.00149791,-0.00503034,-0.204419,0.462059,-0.256217,0.384788,3.90695e-06,1.71181e-06,0.510196,-0.1848792359745367,0.4693027962278382,3.906957632082708e-06,0.5873389534611408,1.7118114652436844e-06,-0.22602600178951227
682,0.6723,49.5297,689.512,0.00815152,184.799,-0.00149872,-0.00502775,-0.204658,0.462597,-0.256517,0.385236,3.90252e-06,1.69672e-06,0.510794,-0.18507402655873673,0.46996119135004366,3.902527614840778e-06,0.5881931715821735,1.696721439348181e-06,-0.22625815916362813
683,0.6733,49.5297,689.512,0.00813406,184.799,-0.00149951,-0.00502519,-0.204896,0.463135,-0.256816,0.385684,3.8981e-06,1.68163e-06,0.511392,-0.18526795586191325,0.4706198814993452,3.898107597599676e-06,0.5890478493962017,1.681631413896767e-06,-0.22648947339083791
684,0.6743,49.5297,689.512,0.0081168,184.799,-0.00150029,-0.00502262,-0.205135,0.463673,-0.257114,0.386132,3.89367e-06,1.66656e-06,0.511989,-0.18546265355316138,0.4712788668079442,3.893677580357746e-06,0.5899029871506065,1.6665613886690522e-06,-0.22671994518576444
685,0.6753,49.5297,689.512,0.00809945,184.799,-0.00150107,-0.00502008,-0.205373,0.46421,-0.257413,0.38658,3.88924e-06,1.65151e-06,0.512587,-0.18565649037411902,0.4719381474081019,3.889247563115816e-06,0.590756994335113,1.651511363665037e-06,-0.2269511213595936
686,0.6763,49.5297,689.512,0.00808223,184.799,-0.00150183,-0.00501754,-0.205612,0.464746,-0.257712,0.387028,3.88482e-06,1.63646e-06,0.513184,-0.1858510952167146,0.4725977234321386,3.884827545874714e-06,0.5916098686339697,1.6364613391051108e-06,-0.22718222842207958
687,0.6773,49.5297,689.513,0.00806498,184.799,-0.00150259,-0.00501502,-0.20585,0.465283,-0.25801,0.387475,3.88039e-06,1.62143e-06,0.51378,-0.18604483959955698,0.4732561217555753,3.880397528632784e-06,0.5924647926599826,1.6214313145468395e-06,-0.22741249380676343
688,0.6783,49.5297,689.513,0.00804787,184.799,-0.00150333,-0.00501249,-0.206088,0.465819,-0.258308,0.387922,3.87597e-06,1.60642e-06,0.514376,-0.18623853787672295,0.4739148144488492,3.875977511613726e-06,0.5933185825841072,1.6064212902122676e-06,-0.2276426905825858
689,0.6793,49.5297,689.513,0.00803067,184.799,-0.00150407,-0.00500999,-0.206326,0.466355,-0.258606,0.388369,3.87154e-06,1.59141e-06,0.514972,-0.18643219005918443,0.4745738016435732,3.8715474943717965e-06,0.5941728302622984,1.591411266321785e-06,-0.22787281876998933
690,0.6803,49.5297,689.513,0.00801366,184.799,-0.00150479,-0.00500748,-0.206563,0.46689,-0.258904,0.388815,3.86712e-06,1.57643e-06,0.515567,-0.1866249827833002,0.47523160823907307,3.867127477352739e-06,0.5950259409132392,1.5764312426558291e-06,-0.22810287838941
691,0.6813,49.5297,689.513,0.00799655,184.799,-0.00150551,-0.00500501,-0.206801,0.467425,-0.259201,0.389261,3.8627e-06,1.56145e-06,0.516163,-0.18681854300281797,0.47588970828174837,3.862707460333681e-06,0.5958795081004911,1.5614512189898733e-06,-0.22833209779376185
692,0.6823,49.5297,689.513,0.00797957,184.799,-0.00150621,-0.00500252,-0.207038,0.46796,-0.259499,0.389707,3.85827e-06,1.54649e-06,0.516757,-0.18701124417213577,0.4765481019025055,3.858277443091751e-06,0.596733532068366,1.5464911957696614e-06,-0.22856202056842434
693,0.6833,49.5297,689.513,0.00796258,184.799,-0.00150691,-0.00500006,-0.207276,0.468495,-0.259796,0.390153,3.85385e-06,1.53154e-06,0.517352,-0.1872047124723818,0.47720678923230997,3.853857426072693e-06,0.5975880130613069,1.5315411727723216e-06,-0.2287911036277973
694,0.6843,49.5297,689.513,0.0079457,184.799,-0.00150759,-0.0049976,-0.207513,0.469029,-0.260093,0.390598,3.84943e-06,1.5166e-06,0.517946,-0.18739732213037985,0.47786429253715346,3.849437409053635e-06,0.5984413528817358,1.5166011499978538e-06,-0.22902011865960425
695,0.6853,49.5297,689.513,0.00792878,184.799,-0.00150827,-0.00499516,-0.20775,0.469563,-0.26039,0.391043,3.84501e-06,1.50168e-06,0.518539,-0.1875898861452978,0.47852208849607836,3.845017392034578e-06,0.5992951485073181,1.5016811274470854e-06,-0.22924906568404624
696,0.6863,49.5297,689.513,0.00791193,184.799,-0.00150894,-0.00499272,-0.207987,0.470097,-0.260687,0.391488,3.84059e-06,1.48677e-06,0.519133,-0.18778240452795192,0.4791801772393447,3.84059737501552e-06,0.6001494001815184,1.4867711053412336e-06,-0.22947794472131866
697,0.6873,49.5297,689.513,0.00789524,184.799,-0.00150959,-0.00499029,-0.208223,0.47063,-0.260983,0.391933,3.83617e-06,1.47187e-06,0.519726,-0.18797406526362692,0.47983855889727045,3.836177358218507e-06,0.6010025071446243,1.4718710832362092e-06,-0.22970598549798116
698,0.6883,49.5297,689.513,0.00787835,184.799,-0.00151025,-0.00498789,-0.20846,0.471163,-0.26128,0.392377,3.83176e-06,1.45699e-06,0.520318,-0.18816649260661866,0.48049575310373815,3.831767341200276e-06,0.6018560689349421,1.4569910613548842e-06,-0.22993472885021904
699,0.6893,49.5297,689.513,0.00786172,184.799,-0.00151088,-0.00498547,-0.208696,0.471695,-0.261576,0.392821,3.82734e-06,1.44212e-06,0.520911,-0.18835806270820232,0.4811532391692217,3.827347324181218e-06,0.6027084830856753,1.4421210399184758e-06,-0.23016263443878826
700,0.6903,49.5297,689.513,0.007845,184.799,-0.00151152,-0.00498309,-0.208933,0.472228,-0.261872,0.393265,3.82292e-06,1.42726e-06,0.521502,-0.18855039905458315,0.48181101722333475,3.822927307384205e-06,0.6035629544035372,1.4272610184828949e-06,-0.2303904725772863
701,0.6913,49.5297,689.513,0.0078284,184.799,-0.00151214,-0.00498069,-0.209169,0.47276,-0.262168,0.393708,3.81851e-06,1.41242e-06,0.522094,-0.1887418785649354,0.4824676049274035,3.818517290588019e-06,0.6044162768589272,1.412420997493058e-06,-0.2306182432856756
702,0.6923,49.5297,689.514,0.00781179,184.799,-0.00151276,-0.00497833,-0.209405,0.473291,-0.262464,0.394151,3.81409e-06,1.39759e-06,0.522685,-0.18893331289145499,0.48312448356426163,3.8140972735689616e-06,0.6052684481333894,1.397590976726093e-06,-0.23084594658391233
703,0.6933,49.5296,689.514,0.00779521,184.799,-0.00151336,-0.00497596,-0.209641,0.473823,-0.262759,0.394594,3.80968e-06,1.38277e-06,0.523276,-0.18912470204480425,0.4837816532628214,3.8096872567727758e-06,0.6061226781528342,1.3827709559599555e-06,-0.23107281356514509
704,0.6943,49.5296,689.514,0.00777874,184.799,-0.00151396,-0.0049736,-0.209876,0.474354,-0.263054,0.395037,3.80527e-06,1.36797e-06,0.523867,-0.18931523535128336,0.48443911415205165,3.80527723997659e-06,0.6069757557669955,1.367970935639562e-06,-0.231299613630489
705,0.6953,49.5296,689.514,0.00776227,184.799,-0.00151455,-0.00497126,-0.210112,0.474885,-0.263349,0.39548,3.80086e-06,1.35317e-06,0.524457,-0.18950653438156695,0.48509686636097826,3.800867223180404e-06,0.6078292864856583,1.353170915541213e-06,-0.2315263467996812
706,0.6963,49.5296,689.514,0.00774581,184.799,-0.00151513,-0.00496892,-0.210347,0.475415,-0.263644,0.395922,3.79645e-06,1.33839e-06,0.525047,-0.18969697796798946,0.4857534242645176,3.796457206606263e-06,0.608681661867019,1.3383908956665636e-06,-0.23175301309245333
707,0.6973,49.5296,689.514,0.00772941,184.799,-0.00151569,-0.0049666,-0.210583,0.475945,-0.263939,0.396364,3.79204e-06,1.32363e-06,0.525636,-0.18988818691764553,0.4864102724307935,3.792047189810077e-06,0.6095344891270693,1.3236308760156135e-06,-0.23197961252853094
708,0.6983,49.5296,689.514,0.00771305,184.799,-0.00151626,-0.00496428,-0.210818,0.476475,-0.264234,0.396806,3.78763e-06,1.30887e-06,0.526225,-0.19007854082625952,0.4870674109881308,3.7876371730138914e-06,0.610387768505368,1.308870856586708e-06,-0.23220614512763382
709,0.6993,49.5296,689.514,0.00769677,184.799,-0.00151681,-0.00496197,-0.211053,0.477005,-0.264528,0.397247,3.78322e-06,1.29413e-06,0.526814,-0.1902688500069608,0.487723352340814,3.78322715643975e-06,0.6112415002416014,1.294130837381502e-06,-0.23243184334170308
710,0.7003,49.5296,689.514,0.00768046,184.799,-0.00151736,-0.00495968,-0.211288,0.477534,-0.264823,0.397688,3.77881e-06,1.2794e-06,0.527403,-0.1904591144702591,0.48837958302742734,3.7788171396435644e-06,0.6120940724807045,1.2794008183991679e-06,-0.23265824255239187
711,0.7013,49.5296,689.514,0.00766418,184.799,-0.0015179,-0.00495739,-0.211523,0.478063,-0.265117,0.398129,3.77441e-06,1.26469e-06,0.527991,-0.19064933422666186,0.4890361031755952,3.7744171230702506e-06,0.6129470958498353,1.2646907996405332e-06,-0.23288380786935514
712,0.7023,49.5296,689.514,0.00764807,184.799,-0.00151843,-0.00495511,-0.211757,0.478591,-0.265411,0.39857,3.77e-06,1.24999e-06,0.528578,-0.19083870012577853,0.4896929129129979,3.7700071064961094e-06,0.6137989567879412,1.2499907813268152e-06,-0.23310930687986275
713,0.7033,49.5296,689.514,0.0076319,184.799,-0.00151895,-0.00495285,-0.211992,0.479119,-0.265704,0.39901,3.7656e-06,1.23529e-06,0.529166,-0.19102883069003274,0.49034852201810564,3.7656070899227956e-06,0.6146512676273861,1.2352907630130971e-06,-0.23333397293776215
714,0.7043,49.5296,689.514,0.00761574,184.799,-0.00151946,-0.00495059,-0.212226,0.479647,-0.265998,0.39945,3.7612e-06,1.22062e-06,0.529753,-0.19121810779736603,0.4910044196546919,3.761207073349482e-06,0.6155040286057802,1.220620744923906e-06,-0.23355933961919295
715,0.7053,49.5296,689.514,0.00759974,184.799,-0.00151997,-0.00494834,-0.21246,0.480175,-0.266291,0.39989,3.7568e-06,1.20595e-06,0.53034,-0.19140734061903786,0.49166060594973837,3.756807056776168e-06,0.6163572399608601,1.2059507270567593e-06,-0.23378387383681531
716,0.7063,49.5296,689.514,0.00758364,184.799,-0.00152047,-0.00494611,-0.212695,0.480702,-0.266585,0.40033,3.7524e-06,1.1913e-06,0.530926,-0.1915973375684764,0.4923170810302828,3.752407040202854e-06,0.6172092847203938,1.1913007096353567e-06,-0.23400910826682375
717,0.7073,49.5296,689.514,0.00756763,184.799,-0.00152096,-0.00494388,-0.212928,0.481229,-0.266878,0.400769,3.748e-06,1.17666e-06,0.531512,-0.19178567344684105,0.4929723520503202,3.748007023851585e-06,0.6180617786258553,1.1766606922147815e-06,-0.23423351072153653
718,0.7083,49.5296,689.514,0.00755168,184.799,-0.00152144,-0.00494166,-0.213162,0.481756,-0.267171,0.401208,3.7436e-06,1.16203e-06,0.532098,-0.19197477347368852,0.493627910797487,3.7436070072782712e-06,0.618914721914007,1.162030675239123e-06,-0.23445784743596154
719,0.7093,49.5296,689.514,0.00753572,184.799,-0.00152192,-0.00493946,-0.213396,0.482282,-0.267463,0.401647,3.7392e-06,1.14741e-06,0.532683,-0.19216382925630637,0.4942837573981229,3.739206990927002e-06,0.6197664950544308,1.1474106582642918e-06,-0.23468135311109362
720,0.7103,49.5296,689.515,0.0075199,184.799,-0.00152239,-0.00493725,-0.213629,0.482809,-0.267756,0.402086,3.73481e-06,1.13281e-06,0.533268,-0.19235203315748373,0.49493989197862365,3.7348169743545157e-06,0.6206203369649066,1.1328106417352046e-06,-0.23490555862691997
721,0.7113,49.5295,689.515,0.00750402,184.799,-0.00152285,-0.00493506,-0.213863,0.483334,-0.268048,0.402524,3.73041e-06,1.11822e-06,0.533853,-0.19254100067166346,0.4955948190698729,3.7304169580032465e-06,0.6214713860226433,1.1182206252069449e-06,-0.2351289335894693
722,0.7123,49.5295,689.515,0.00748825,184.799,-0.0015233,-0.00493288,-0.214096,0.48386,-0.268341,0.402962,3.72602e-06,1.10364e-06,0.534437,-0.19272911670213844,0.4962500330820192,3.7260269416528047e-06,0.6223245043221342,1.1036406089015571e-06,-0.23535300798342573
723,0.7133,49.5295,689.515,0.00747244,184.799,-0.00152375,-0.00493071,-0.214329,0.484385,-0.268633,0.4034,3.72163e-06,1.08907e-06,0.535021,-0.19291718890668408,0.49690553414076155,3.721636925302363e-06,0.6231764483026301,1.089070593041086e-06,-0.2355762523098367
724,0.7143,49.5295,689.515,0.00745671,184.799,-0.00152418,-0.00492855,-0.214562,0.48491,-0.268924,0.403837,3.71724e-06,1.07452e-06,0.535605,-0.1931052172955109,0.49755982481128025,3.717246908951921e-06,0.6240288396711449,1.0745205774043143e-06,-0.23579866725747012
725,0.7153,49.5295,689.515,0.00744098,184.799,-0.00152462,-0.0049264,-0.214795,0.485434,-0.269216,0.404275,3.71285e-06,1.05998e-06,0.536188,-0.1932932018788266,0.4982158996844561,3.7128568926014793e-06,0.6248800537817525,1.05998056176837e-06,-0.23602178147037056
726,0.7163,49.5295,689.515,0.00742535,184.799,-0.00152504,-0.00492425,-0.215028,0.485959,-0.269508,0.404712,3.70846e-06,1.04545e-06,0.536771,-0.1934811426668368,0.498870763109855,3.7084668762510375e-06,0.625733339777963,1.0454505465773423e-06,-0.23624483054343182
727,0.7173,49.5295,689.515,0.00740973,184.799,-0.00152546,-0.00492212,-0.21526,0.486483,-0.269799,0.405149,3.70407e-06,1.03093e-06,0.537354,-0.193668233338381,0.4995259127731093,3.7040768601226404e-06,0.6265854472806751,1.030930531387142e-06,-0.23646705096310439
728,0.7183,49.5295,689.515,0.00739418,184.799,-0.00152587,-0.00491999,-0.215493,0.487006,-0.27009,0.405585,3.69969e-06,1.01643e-06,0.537936,-0.19385608675424038,0.5001798486187334,3.699696843773026e-06,0.6274363739675355,1.0164305166426857e-06,-0.23668920672604288
729,0.7193,49.5295,689.515,0.00737859,184.799,-0.00152627,-0.00491788,-0.215725,0.48753,-0.270381,0.406021,3.6953e-06,1.00193e-06,0.538518,-0.19404309044884605,0.5008340696425508,3.695306827644629e-06,0.6282893740940099,1.0019305018982294e-06,-0.2369112978510597
730,0.7203,49.5295,689.515,0.00736309,184.799,-0.00152667,-0.00491577,-0.215957,0.488053,-0.270672,0.406458,3.69092e-06,9.8745e-07,0.539099,-0.19423005076362687,0.5014900774582525,3.690926811517059e-06,0.6291411921676708,9.874504875995171e-07,-0.23713332435696166
731,0.7213,49.5295,689.515,0.00734762,184.799,-0.00152705,-0.00491367,-0.216189,0.488575,-0.270963,0.406893,3.68654e-06,9.7298e-07,0.539681,-0.19441696770864558,0.5021433677222777,3.6865467953894893e-06,0.6299918258660622,9.729804733016323e-07,-0.2373552862625502
732,0.7223,49.5295,689.515,0.00733222,184.799,-0.00152744,-0.00491158,-0.216421,0.489098,-0.271253,0.407329,3.68216e-06,9.58523e-07,0.540262,-0.19460384129396313,0.5027984450270797,3.6821667792619195e-06,0.6308445345548757,9.585234594933212e-07,-0.2375764211634237
733,0.7233,49.5295,689.515,0.00731683,184.799,-0.00152782,-0.0049095,-0.216653,0.48962,-0.271544,0.407764,3.67778e-06,9.44077e-07,0.540842,-0.19479067152963758,0.5034523045548034,3.6777867631343497e-06,0.6316960576301003,9.440774455526935e-07,-0.2377982541466006
734,0.7243,49.5295,689.515,0.00730143,184.799,-0.00152818,-0.00490743,-0.216885,0.490142,-0.271834,0.408199,3.67341e-06,9.29643e-07,0.541422,-0.194977458425725,0.5041064485732936,3.6734167470076073e-06,0.6325480253164038,9.296434320127389e-07,-0.23801926060541267
735,0.7253,49.5295,689.515,0.00728607,184.799,-0.00152855,-0.00490537,-0.217116,0.490663,-0.272124,0.408634,3.66903e-06,9.15221e-07,0.542002,-0.19516339715607844,0.5047608772063312,3.6690367308800376e-06,0.6333988044463124,9.152214188734575e-07,-0.23824020298164406
736,0.7263,49.5295,689.515,0.00727082,184.799,-0.0015289,-0.00490331,-0.217348,0.491185,-0.272414,0.409068,3.66466e-06,9.00811e-07,0.542582,-0.19535009758985056,0.5054140851629123,3.66466671497534e-06,0.6342516611984796,9.008114056907601e-07,-0.23846108129387622
737,0.7273,49.5294,689.515,0.00725558,184.799,-0.00152925,-0.00490127,-0.217579,0.491705,-0.272703,0.409503,3.66028e-06,8.86413e-07,0.543161,-0.19553595025049852,0.506069082741603,3.66028669884777e-06,0.6351016930514306,8.864133929087359e-07,-0.2386811342421996
738,0.7283,49.5294,689.515,0.00724039,184.799,-0.0015296,-0.00489923,-0.21781,0.492226,-0.272993,0.409937,3.65591e-06,8.72027e-07,0.54374,-0.1957217599841402,0.5067228585826085,3.6559166829430723e-06,0.6359538029888743,8.720273803053402e-07,-0.23890188470290552
739,0.7293,49.5294,689.515,0.00722516,184.799,-0.00152993,-0.00489721,-0.218041,0.492746,-0.273282,0.41037,3.65154e-06,8.57652e-07,0.544319,-0.19590752680069046,0.5073754108477446,3.65154666681633e-06,0.6368047201857259,8.576523677916725e-07,-0.23912181027745016
740,0.7303,49.5294,689.515,0.00721009,184.799,-0.00153026,-0.00489519,-0.218272,0.493266,-0.273571,0.410804,3.64717e-06,8.43289e-07,0.544897,-0.19609325071006212,0.5080297537581935,3.647176650911632e-06,0.6376560799745834,8.43289355678678e-07,-0.2393416723026871
741,0.7313,49.5294,689.515,0.00719497,184.799,-0.00153058,-0.00489319,-0.218502,0.493786,-0.27386,0.411237,3.64281e-06,8.28937e-07,0.545475,-0.19627812800069533,0.5086828720314724,3.6428166350077618e-06,0.6385078825856552,8.289373436554115e-07,-0.23956147079697931
742,0.7323,49.5294,689.515,0.0071798,184.799,-0.00153091,-0.00489118,-0.218733,0.494306,-0.274149,0.41167,3.63844e-06,8.14598e-07,0.546052,-0.19646376631107687,0.509336273166199,3.638446619103064e-06,0.6393601282492682,8.145983316776295e-07,-0.23978120577868478
743,0.7333,49.5294,689.515,0.00716486,184.799,-0.00153121,-0.00488918,-0.218963,0.494825,-0.274438,0.412103,3.63408e-06,8.0027e-07,0.546629,-0.19664855839292128,0.5099899572848785,3.6340866031991936e-06,0.640211176983873,8.002703202336647e-07,-0.24000087726615593
744,0.7343,49.5294,689.516,0.00714982,184.799,-0.00153152,-0.00488722,-0.219194,0.495343,-0.274727,0.412536,3.62972e-06,7.85953e-07,0.547206,-0.1968341111437647,0.5106439245100693,3.629726587517368e-06,0.6410610264655634,7.859533088794279e-07,-0.24022048527773976
745,0.7353,49.5294,689.516,0.00713495,184.799,-0.00153182,-0.00488523,-0.219424,0.495862,-0.275015,0.412968,3.62536e-06,7.71648e-07,0.547783,-0.19701881805609245,0.5112966636669642,3.6253665716134975e-06,0.6419129581954599,7.716482977038197e-07,-0.24043927027142842
746,0.7363,49.5294,689.516,0.00711987,184.799,-0.00153211,-0.00488328,-0.219654,0.49638,-0.275303,0.4134,3.621e-06,7.57355e-07,0.548359,-0.1972034824907155,0.511949684868092,3.6210065559316718e-06,0.6427636894281719,7.5735528670684e-07,-0.24065799226411155
747,0.7373,49.5294,689.516,0.00710505,184.799,-0.0015324,-0.0048813,-0.219884,0.496898,-0.275591,0.413832,3.61664e-06,7.43073e-07,0.548935,-0.19738810445740262,0.5126029882353222,3.6166465400278014e-06,0.6436148614538177,7.43073276021633e-07,-0.24087665127393065
748,0.7383,49.5294,689.516,0.0070902,184.799,-0.00153268,-0.00487937,-0.220114,0.497416,-0.275879,0.414263,3.61228e-06,7.28802e-07,0.549511,-0.1975726839659202,0.5132550606347595,3.6122865243459756e-06,0.6444664745007878,7.288022656481985e-07,-0.24109524731902232
749,0.7393,49.5294,689.516,0.00707535,184.799,-0.00153295,-0.00487742,-0.220343,0.497933,-0.276167,0.414694,3.60793e-06,7.14543e-07,0.550086,-0.19775641878285255,0.5139074141379747,3.6079365086649773e-06,0.6453168834798837,7.14543255231348e-07,-0.24131378041751783
750,0.7403,49.5294,689.516,0.00706069,184.799,-0.00153322,-0.00487549,-0.220573,0.49845,-0.276454,0.415125,3.60358e-06,7.00296e-07,0.550661,-0.1979409135888165,0.5145600488661493,3.603586492983979e-06,0.6461677322340937,7.002962452151706e-07,-0.24153149211941438
751,0.7413,49.5294,689.516,0.00704586,184.799,-0.00153349,-0.00487358,-0.220802,0.498967,-0.276741,0.415556,3.59923e-06,6.86059e-07,0.551235,-0.19812456409081958,0.5152129649405173,3.5992364773029806e-06,0.6470190209908409,6.860592354218653e-07,-0.24174914134701797
752,0.7423,49.5294,689.516,0.00703119,184.799,-0.00153375,-0.00487164,-0.221031,0.499483,-0.277029,0.415987,3.59488e-06,6.71835e-07,0.55181,-0.19830817254167288,0.5158661624823653,3.5948864616219822e-06,0.6478691021077385,6.718352256740445e-07,-0.24196748615114905
753,0.7433,49.5294,689.516,0.0070164,184.799,-0.001534,-0.00486975,-0.221261,0.499999,-0.277316,0.416417,3.59053e-06,6.57621e-07,0.552384,-0.198492540458865,0.5165181250941486,3.590536445940984e-06,0.6487196219796818,6.576212161490957e-07,-0.24218501026642003
754,0.7443,49.5293,689.516,0.00700185,184.799,-0.00153425,-0.00486784,-0.22149,0.500515,-0.277603,0.416847,3.58618e-06,6.43419e-07,0.552957,-0.19867606465277765,0.5171703681101376,3.5861864302599855e-06,0.6495705808331265,6.434192070248201e-07,-0.24240247196122766
755,0.7453,49.5293,689.516,0.00698716,184.799,-0.00153449,-0.00486596,-0.221718,0.501031,-0.277889,0.417277,3.58184e-06,6.29228e-07,0.553531,-0.19885874568360795,0.517822891650932,3.581846414801859e-06,0.6504219788946455,6.292281979902725e-07,-0.24261911387297663
756,0.7463,49.5293,689.516,0.00697261,184.799,-0.00153472,-0.00486407,-0.221947,0.501546,-0.278176,0.417706,3.5775e-06,6.15048e-07,0.554103,-0.19904218602612556,0.5184741773622468,3.577506399343733e-06,0.6512721651179378,6.150481890454529e-07,-0.24283645099792583
757,0.7473,49.5293,689.516,0.00695803,184.799,-0.00153495,-0.00486221,-0.222176,0.502061,-0.278462,0.418136,3.57316e-06,6.00879e-07,0.554676,-0.19922558436561422,0.5191272616615739,3.573166383663562e-06,0.6521227892998998,6.008791806344504e-07,-0.2430529688094175
758,0.7483,49.5293,689.516,0.00694359,184.799,-0.00153518,-0.00486033,-0.222404,0.502576,-0.278748,0.418565,3.56882e-06,5.86722e-07,0.555248,-0.199408140120232,0.5197791070676692,3.5688263682054355e-06,0.6529738516661383,5.86722172180032e-07,-0.24326942470566948
759,0.7493,49.5293,689.516,0.00692912,184.799,-0.0015354,-0.00485849,-0.222632,0.50309,-0.279034,0.418994,3.56448e-06,5.72576e-07,0.55582,-0.19959065425688238,0.5204312321754352,3.564486352747309e-06,0.6538236986178507,5.725761638153415e-07,-0.2434858187043868
760,0.7503,49.5293,689.516,0.00691468,184.799,-0.00153561,-0.00485663,-0.222861,0.503604,-0.27932,0.419422,3.56014e-06,5.5844e-07,0.556392,-0.1997739270115263,0.5210821160220136,3.560146337289183e-06,0.6546739825031789,5.584401558955676e-07,-0.24370215082326974
761,0.7513,49.5293,689.516,0.00690025,184.799,-0.00153582,-0.00485479,-0.223089,0.504118,-0.279606,0.419851,3.55581e-06,5.44316e-07,0.556963,-0.19995635775827225,0.5217348002405418,3.555816321831884e-06,0.6555247035467637,5.443161481544223e-07,-0.2439184210800135
762,0.7523,49.5293,689.516,0.0068859,184.799,-0.00153602,-0.00485296,-0.223317,0.504631,-0.279891,0.420279,3.55148e-06,5.30203e-07,0.557534,-0.20013874691554923,0.5223862421336654,3.5514863065966296e-06,0.6563742055983293,5.30203140503005e-07,-0.24413387362655936
763,0.7533,49.5293,689.516,0.0068716,184.799,-0.00153622,-0.00485113,-0.223545,0.505145,-0.280177,0.420706,3.54715e-06,5.16101e-07,0.558105,-0.20032109449283875,0.5230364398663934,3.5471562911393306e-06,0.6572258007812197,5.161011331633603e-07,-0.24435002042823628
764,0.7543,49.5293,689.516,0.00685726,184.799,-0.00153642,-0.00484932,-0.223772,0.505657,-0.280462,0.421134,3.54282e-06,5.0201e-07,0.558675,-0.20050260100262063,0.5236884389805134,3.5428262759040763e-06,0.6580745176441962,5.020101259134435e-07,-0.2445653499864946
765,0.7553,49.5293,689.516,0.00684299,184.799,-0.00153661,-0.00484751,-0.224,0.50617,-0.280747,0.421561,3.53849e-06,4.87931e-07,0.559245,-0.20068486563063492,0.5243391928700261,3.5384962604467773e-06,0.658925328085967,4.879311190642e-07,-0.2447806181845732
766,0.7563,49.5293,689.516,0.00682872,184.799,-0.00153678,-0.0048457,-0.224227,0.506682,-0.281032,0.421988,3.53417e-06,4.73862e-07,0.559815,-0.2008662895737402,0.5249902246907834,3.5341762452123504e-06,0.6597749153297219,4.738621122157838e-07,-0.24499582503995698
767,0.7573,49.5293,689.516,0.00681457,184.799,-0.00153697,-0.00484391,-0.224454,0.507194,-0.281317,0.422415,3.52984e-06,4.59803e-07,0.560384,-0.20104767233828424,0.5256415345614878,3.529846229977096e-06,0.6606249376735218,4.5980310581228423e-07,-0.2452109705701263
768,0.7583,49.5293,689.516,0.00680041,184.799,-0.00153714,-0.00484213,-0.224682,0.507706,-0.281601,0.422842,3.52552e-06,4.45756e-07,0.560953,-0.20122981270420037,0.5262931226008916,3.525526214742669e-06,0.6614753953401948,4.4575609936536864e-07,-0.24542530021823372
769,0.7593,49.5292,689.516,0.00678621,184.799,-0.00153731,-0.00484035,-0.224909,0.508218,-0.281886,0.423268,3.5212e-06,4.3172e-07,0.561522,-0.20141111295835912,0.5269434619835729,3.521206199508242e-06,0.6623262885526833,4.3172009323022564e-07,-0.24564032336541763
770,0.7603,49.5292,689.516,0.00677224,184.799,-0.00153746,-0.00483858,-0.225136,0.508729,-0.28217,0.423694,3.51689e-06,4.17694e-07,0.56209,-0.20159237206203096,0.5275940784698503,3.5168961842746427e-06,0.663175954357258,4.1769408731795465e-07,-0.2458545310946445
771,0.7613,49.5292,689.516,0.00675795,184.799,-0.00153763,-0.00483684,-0.225362,0.50924,-0.282454,0.42412,3.51257e-06,4.03679e-07,0.562658,-0.20177279179774688,0.5282449721777949,3.5125761690402157e-06,0.6640260544520107,4.0367908149541165e-07,-0.24606867799751408
772,0.7623,49.5292,689.516,0.00674402,184.799,-0.00153778,-0.00483505,-0.225589,0.50975,-0.282738,0.424546,3.50826e-06,3.89676e-07,0.563226,-0.20195396880964,0.5288961432255279,3.508266154028661e-06,0.6648749241831633,3.896760758514972e-07,-0.24628276409129857
773,0.7633,49.5292,689.516,0.00672996,184.799,-0.00153793,-0.00483333,-0.225815,0.51026,-0.283022,0.424971,3.50394e-06,3.75682e-07,0.563793,-0.2021343068337247,0.529546062184395,3.503946138794234e-06,0.6657242269482933,3.756820705635988e-07,-0.24649678939326525
774,0.7643,49.5292,689.516,0.00671619,184.799,-0.00153807,-0.00483157,-0.226042,0.51077,-0.283305,0.425397,3.49963e-06,3.617e-07,0.564361,-0.20231540179101815,0.5301977876145463,3.499636123782679e-06,0.6665739629683038,3.61700065454329e-07,-0.24671000063105375
775,0.7653,49.5292,689.516,0.00670204,184.799,-0.00153821,-0.00482987,-0.226268,0.51128,-0.283589,0.425821,3.49532e-06,3.47728e-07,0.564927,-0.20249565814047865,0.5308467290423553,3.4953261085490794e-06,0.6674241324642116,3.4772806056793115e-07,-0.24692390461507108
776,0.7663,49.5292,689.516,0.00668833,184.799,-0.00153834,-0.00482811,-0.226494,0.51179,-0.283872,0.426246,3.49102e-06,3.33767e-07,0.565494,-0.20267587375660723,0.5314974771763818,3.491026093538352e-06,0.6682747356571457,3.337670557712613e-07,-0.2471369949963539
777,0.7673,49.5292,689.516,0.00667436,184.799,-0.00153848,-0.00482642,-0.22672,0.512299,-0.284155,0.426671,3.48671e-06,3.19816e-07,0.56606,-0.20285604864860862,0.5321485019371441,3.486716078526797e-06,0.6691241036434099,3.198160511974635e-07,-0.2473500250815911
778,0.7683,49.5292,689.516,0.00666065,184.799,-0.0015386,-0.00482469,-0.226946,0.512807,-0.284438,0.427095,3.48241e-06,3.05877e-07,0.566626,-0.20303618282568525,0.5327982706431968,3.4824160635160695e-06,0.6699722340949561,3.058770468022942e-07,-0.24756299488784406
779,0.7693,49.5292,689.516,0.00664674,184.799,-0.00153873,-0.00482302,-0.227172,0.513316,-0.284721,0.427519,3.47811e-06,2.91947e-07,0.567191,-0.20321627629703787,0.5334483149095954,3.4781160487273866e-06,0.670822466327857,2.919470425410964e-07,-0.24777590443216935
780,0.7703,49.5292,689.516,0.00663303,184.799,-0.00153883,-0.0048213,-0.227397,0.513824,-0.285004,0.427942,3.47381e-06,2.78029e-07,0.567756,-0.20339553246779563,0.5340971007553346,3.473816033716659e-06,0.6716714597668272,2.780290386805717e-07,-0.24798875373161855
781,0.7713,49.5292,689.516,0.00661924,184.799,-0.00153896,-0.00481963,-0.227623,0.514332,-0.285286,0.428366,3.46951e-06,2.64121e-07,0.568321,-0.20357554473530548,0.5347476958424666,3.4695160187059315e-06,0.6725208846040303,2.6412103482087446e-07,-0.24820079100440562
782,0.7723,49.5292,689.516,0.00660542,184.799,-0.00153905,-0.00481794,-0.227848,0.51484,-0.285568,0.428789,3.46522e-06,2.50223e-07,0.568886,-0.2037547200797578,0.5353970314426053,3.465226003918076e-06,0.6733707410586722,2.502230314060938e-07,-0.24841276849111193
783,0.7733,49.5292,689.516,0.00659189,184.799,-0.00153916,-0.00481626,-0.228074,0.515347,-0.285851,0.429212,3.46093e-06,2.36336e-07,0.56945,-0.20393465118003962,0.5360466417698035,3.4609359891302205e-06,0.6742193551298781,2.3633602785899654e-07,-0.24862543758353306
784,0.7743,49.5292,689.516,0.00657815,184.799,-0.00153926,-0.00481462,-0.228299,0.515854,-0.286133,0.429635,3.45663e-06,2.22459e-07,0.570014,-0.20411374573463115,0.5366965269402955,3.456635974119493e-06,0.6750683995575042,2.224590247568159e-07,-0.24883729533678733
785,0.7753,49.5291,689.516,0.00656457,184.799,-0.00153935,-0.00481295,-0.228524,0.516361,-0.286414,0.430058,3.45235e-06,2.08593e-07,0.570578,-0.20429279999748096,0.5373466870703643,3.452355959332465e-06,0.6759178745597965,2.0859302174436323e-07,-0.2490483424032961
786,0.7763,49.5291,689.516,0.00655094,184.799,-0.00153944,-0.0048113,-0.228749,0.516868,-0.286696,0.43048,3.44806e-06,1.94737e-07,0.571141,-0.20447181397765357,0.5379955842799893,3.4480659445446094e-06,0.6767677803551118,1.9473701895478257e-07,-0.24926008091420515
787,0.7773,49.5291,689.517,0.0065376,184.799,-0.00153953,-0.00480965,-0.228973,0.517374,-0.286978,0.430902,3.44377e-06,1.80892e-07,0.571704,-0.20464999233460157,0.5386447553820242,3.443775929756754e-06,0.6776164395446391,1.808920162549299e-07,-0.2494717597232724
788,0.7783,49.5291,689.517,0.00652391,184.799,-0.00153961,-0.00480803,-0.229198,0.51788,-0.287259,0.431324,3.43949e-06,1.67057e-07,0.572266,-0.20482892595553903,0.5392942004920755,3.4394959149697257e-06,0.6784655282643783,1.6705701399999384e-07,-0.2496826285303353
789,0.7793,49.5291,689.517,0.00651051,184.799,-0.00153968,-0.00480638,-0.229422,0.518386,-0.28754,0.431745,3.43521e-06,1.53232e-07,0.572829,-0.20500702432836249,0.5399423797826497,3.4352159004047422e-06,0.6793150467317268,1.532320117458852e-07,-0.24989343809158782
790,0.7803,49.5291,689.517,0.00649712,184.799,-0.00153976,-0.00480477,-0.229647,0.518891,-0.287821,0.432167,3.43093e-06,1.39418e-07,0.573391,-0.20518587762613805,0.5405923726057578,3.430935885617714e-06,0.6801633150000366,1.3941800980354913e-07,-0.25010418842367554
791,0.7813,49.5291,689.517,0.00648361,184.799,-0.00153982,-0.00480316,-0.229871,0.519396,-0.288102,0.432588,3.42665e-06,1.25614e-07,0.573952,-0.2053638960507419,0.5412410985418525,3.4266558710527306e-06,0.6810120117520049,1.2561400786204047e-07,-0.25031487954323994
792,0.7823,49.5291,689.517,0.00647031,184.799,-0.00153989,-0.00480154,-0.230095,0.519901,-0.288383,0.433009,3.42238e-06,1.1182e-07,0.574514,-0.20554187460368445,0.5418900976490648,3.42238585626653e-06,0.6818611372040706,1.1182000614340382e-07,-0.25052551146691693
793,0.7833,49.5291,689.517,0.0064568,184.799,-0.00153996,-0.00479996,-0.230319,0.520406,-0.288663,0.433429,3.4181e-06,9.80362e-08,0.575075,-0.20571981329389588,0.5425378275038255,3.4181058417015464e-06,0.6827106915727821,9.803620470982821e-08,-0.25073533494704814
794,0.7843,49.5291,689.517,0.0064435,184.799,-0.00154,-0.00479835,-0.230543,0.52091,-0.288944,0.43385,3.41383e-06,8.42632e-08,0.575635,-0.2058977121303045,0.5431873726488636,3.4138358271373903e-06,0.6835589915149634,8.426320352583616e-08,-0.250945848739355
795,0.7853,49.5291,689.517,0.00643027,184.799,-0.00154006,-0.00479677,-0.230767,0.521414,-0.289224,0.43427,3.40956e-06,7.04998e-08,0.576196,-0.2060755711218366,0.5438356474735597,3.409565812573234e-06,0.6844077191080744,7.049980244033804e-08,-0.2511555545415256
796,0.7863,49.5291,689.517,0.00641692,184.799,-0.00154011,-0.0047952,-0.23099,0.521918,-0.289504,0.43469,3.4053e-06,5.67466e-08,0.576756,-0.20625259653040984,0.5444841946308681,3.4053057980099055e-06,0.6852568745677059,5.674660163990097e-08,-0.2513652016342913
797,0.7873,49.5291,689.517,0.00640371,184.799,-0.00154015,-0.00479362,-0.231214,0.522421,-0.289784,0.435109,3.40103e-06,4.30039e-08,0.577316,-0.20643037603673886,0.5451314691029507,3.4010357834457494e-06,0.6861047720039415,4.30039008847416e-08,-0.25157479003408845
798,0.7883,49.5291,689.517,0.00639057,184.799,-0.0015402,-0.00479205,-0.231437,0.522924,-0.290064,0.435529,3.39677e-06,2.92711e-08,0.577875,-0.20660732233263746,0.5457805606196506,3.3967757691044653e-06,0.6869530960398684,2.9271100432382013e-08,-0.2517843197573487
799,0.7893,49.5291,689.517,0.00637736,184.799,-0.00154024,-0.00479049,-0.23166,0.523427,-0.290344,0.435948,3.39251e-06,1.55484e-08,0.578434,-0.20678422917391137,0.546428378382894,3.3925157545411366e-06,0.6878018468901201,1.5548400122966655e-08,-0.2519937908204992
800,0.7903,49.529,689.517,0.00636421,184.799,-0.00154027,-0.00478895,-0.231883,0.52393,-0.290623,0.436367,3.38825e-06,1.83567e-09,0.578993,-0.20696109656935802,0.5470764676386541,3.3882557401998525e-06,0.6886510247694384,1.8356700604016396e-09,-0.25220245544279196
801,0.7913,49.529,689.517,0.00635112,184.799,-0.00154029,-0.00478739,-0.232106,0.524432,-0.290902,0.436786,3.38399e-06,-1.18667e-08,0.579552,-0.2071379245277729,0.5477248285007097,3.383995725636524e-06,0.6894989403928875,-1.1866699956009086e-08,-0.25241106185577566
802,0.7923,49.529,689.517,0.0063378,184.799,-0.00154033,-0.00478587,-0.232329,0.524934,-0.291182,0.437204,3.37974e-06,-2.55596e-08,0.58011,-0.20731471305794946,0.5483719127102009,3.379745711296067e-06,0.6903472817768368,-2.5559599658997456e-08,-0.25262035745570466
803,0.7933,49.529,689.517,0.00632497,184.799,-0.00154035,-0.00478431,-0.232552,0.525436,-0.291461,0.437623,3.37548e-06,-3.92416e-08,0.580668,-0.2074914621686792,0.5490208164774721,3.375485696954783e-06,0.6911960491350713,-3.9241599192330057e-08,-0.2528288472902902
804,0.7943,49.529,689.517,0.00631179,184.799,-0.00154037,-0.00478282,-0.232774,0.525937,-0.291739,0.438041,3.37123e-06,-5.29149e-08,0.581226,-0.20766737953652747,0.5496684425231737,3.3712356826143264e-06,0.6920435506370872,-5.2914898573952485e-08,-0.2530365320012311
805,0.7953,49.529,689.517,0.00629892,184.799,-0.00154038,-0.00478127,-0.232997,0.526438,-0.292018,0.438459,3.36699e-06,-6.65771e-08,0.581783,-0.20784405001140072,0.550316339333148,3.366995668274697e-06,0.6928914768437351,-6.657709783475241e-08,-0.2532449057393146
806,0.7963,49.529,689.517,0.00628583,184.799,-0.0015404,-0.00477979,-0.233219,0.526939,-0.292297,0.438876,3.36274e-06,-8.02302e-08,0.58234,-0.20801988911343572,0.550962956056867,3.3627456539342404e-06,0.693739827967846,-8.023019681946408e-08,-0.2534532213492344
807,0.7973,49.529,689.517,0.00627302,184.799,-0.0015404,-0.00477826,-0.233442,0.52744,-0.292575,0.439293,3.3585e-06,-9.38727e-08,0.582896,-0.2081964809874377,0.5516098424759872,3.3585056398166557e-06,0.6945886042223559,-9.387269561678124e-08,-0.2536607325083118
808,0.7983,49.529,689.517,0.00626006,184.799,-0.00154041,-0.00477678,-0.233664,0.52794,-0.292853,0.439711,3.35425e-06,-1.07506e-07,0.583453,-0.2083722418584799,0.55225855096077,3.354255625476199e-06,0.6954361103833508,-1.0750599421793794e-07,-0.2538681859873049
809,0.7993,49.529,689.517,0.00624731,184.799,-0.00154041,-0.00477528,-0.233886,0.52844,-0.293131,0.440127,3.35001e-06,-1.21129e-07,0.584009,-0.20854796371493955,0.5529044248504245,3.3500156113586144e-06,0.6962840404033823,-1.2112899261396137e-07,-0.25407558180224643
810,0.8003,49.529,689.517,0.00623449,184.799,-0.00154041,-0.0047738,-0.234107,0.52894,-0.293409,0.440544,3.34578e-06,-1.34742e-07,0.584565,-0.2087228552887278,0.5535521210308552,3.3457855970198125e-06,0.6971323944944328,-1.347419908981351e-07,-0.25428291996916486
811,0.8013,49.529,689.517,0.00622159,184.799,-0.0015404,-0.00477233,-0.234329,0.52944,-0.293687,0.440961,3.34154e-06,-1.48346e-07,0.58512,-0.20889849931764515,0.5542000873569144,3.341545582902228e-06,0.6979811728685907,-1.483459890483374e-07,-0.2544902005040841
812,0.8023,49.529,689.517,0.00620875,184.799,-0.00154039,-0.00477084,-0.234551,0.529939,-0.293965,0.441377,3.33731e-06,-1.61939e-07,0.585675,-0.20907410435791596,0.5548467690937302,3.3373155687854705e-06,0.6988286769085243,-1.619389868867671e-07,-0.2546974234230237
813,0.8033,49.529,689.517,0.00619603,184.799,-0.00154039,-0.00476938,-0.234772,0.530438,-0.294242,0.441793,3.33307e-06,-1.75524e-07,0.58623,-0.20924887966746986,0.5554937199061123,3.333075554667886e-06,0.6996766039585058,-1.7552398456910367e-07,-0.25490384364621477
814,0.8043,49.529,689.517,0.00618329,184.799,-0.00154036,-0.00476792,-0.234994,0.530936,-0.29452,0.442208,3.32885e-06,-1.89098e-07,0.586785,-0.20942440693193642,0.5561393837658575,3.328855540551956e-06,0.7005232537055666,-1.8909798216171225e-07,-0.2551109515883433
815,0.8053,49.5289,689.517,0.00617064,184.799,-0.00154035,-0.00476647,-0.235215,0.531435,-0.294797,0.442624,3.32462e-06,-2.02662e-07,0.587339,-0.20959910483317534,0.5567868724178062,3.3246255266572433e-06,0.7013720265603809,-2.0266197942042652e-07,-0.2553172572800958
816,0.8063,49.5289,689.517,0.00615796,184.799,-0.00154032,-0.00476502,-0.235436,0.531933,-0.295074,0.443039,3.32039e-06,-2.16217e-07,0.587893,-0.2097737641304439,0.5574330730472157,3.320395512540486e-06,0.7022195208381679,-2.1621697665619166e-07,-0.2555235058330859
817,0.8073,49.5289,689.517,0.0061455,184.799,-0.0015403,-0.00476358,-0.235657,0.532431,-0.295351,0.443454,3.31617e-06,-2.29762e-07,0.588446,-0.20994838483227285,0.5580795419055402,3.316175498424556e-06,0.7030674372732137,-2.297619735580625e-07,-0.25572969726313866
818,0.8083,49.5289,689.517,0.00613271,184.799,-0.00154026,-0.00476215,-0.235878,0.532928,-0.295627,0.443869,3.31195e-06,-2.43298e-07,0.589,-0.21012296694719068,0.5587262791041179,3.311955484530671e-06,0.703914072160881,-2.432979704369842e-07,-0.2559350875215346
819,0.8093,49.5289,689.517,0.00612012,184.799,-0.00154025,-0.00476072,-0.236099,0.533426,-0.295904,0.444284,3.30773e-06,-2.56824e-07,0.589553,-0.21029751048372414,0.5593732847543325,3.3077354706367856e-06,0.7047628326926481,-2.568239669820116e-07,-0.2561411649592483
820,0.8103,49.5289,689.517,0.00610776,184.799,-0.00154019,-0.00475929,-0.236319,0.533923,-0.29618,0.444698,3.30352e-06,-2.7034e-07,0.590105,-0.21047122592201883,0.5600189989478361,3.303525456521683e-06,0.7056103104012625,-2.703399634151893e-07,-0.2563464416682306
821,0.8113,49.5289,689.517,0.006095,184.799,-0.00154017,-0.0047579,-0.23654,0.534419,-0.296456,0.445112,3.2993e-06,-2.83847e-07,0.590658,-0.21064569250182286,0.5606649805223598,3.299305442627798e-06,0.7064565029536263,-2.8384695971439555e-07,-0.2565516617286592
822,0.8123,49.5289,689.517,0.00608268,184.799,-0.00154012,-0.00475646,-0.23676,0.534916,-0.296733,0.445526,3.29509e-06,-2.97343e-07,0.59121,-0.21081933134849906,0.5613112295886225,3.29509542873474e-06,0.7073048226255709,-2.9734295581285153e-07,-0.2567575683989699
823,0.8133,49.5289,689.517,0.00607012,184.799,-0.00154009,-0.00475509,-0.23698,0.535412,-0.297009,0.44594,3.29088e-06,-3.10832e-07,0.591761,-0.21099293199883062,0.5619577462573884,3.290885414841682e-06,0.708151855864471,-3.1083195173309264e-07,-0.2569626750040782
824,0.8143,49.5289,689.517,0.00605764,184.799,-0.00154002,-0.00475367,-0.237201,0.535908,-0.297284,0.446353,3.28667e-06,-3.24309e-07,0.592313,-0.2111672832943311,0.5626029680357187,3.286675401170669e-06,0.7089993093360671,-3.243089473636829e-07,-0.2571669821749285
825,0.8153,49.5289,689.517,0.0060454,184.799,-0.00153998,-0.00475227,-0.237421,0.536404,-0.29756,0.446766,3.28247e-06,-3.37778e-07,0.592864,-0.21134080740365446,0.5632484563456783,3.2824753872784385e-06,0.7098471832488455,-3.3777794294920227e-07,-0.2573719757974271
826,0.8163,49.5289,689.517,0.00603289,184.799,-0.00153992,-0.00475092,-0.237641,0.536899,-0.297835,0.447179,3.27826e-06,-3.51237e-07,0.593415,-0.21151429334187266,0.5638942112973679,3.278265373607425e-06,0.7106937671167748,-3.5123693831184966e-07,-0.25757617042603453
827,0.8173,49.5289,689.517,0.00602075,184.799,-0.00153986,-0.0047495,-0.23786,0.537394,-0.298111,0.447592,3.27406e-06,-3.64686e-07,0.593965,-0.2116869528047296,0.5645402330009328,3.2740653597151947e-06,0.711540770147453,-3.6468593345162503e-07,-0.2577810511281594
828,0.8183,49.5289,689.517,0.00600824,184.799,-0.00153981,-0.00474816,-0.23808,0.537889,-0.298386,0.448005,3.26987e-06,-3.78127e-07,0.594516,-0.21186036259933572,0.5651865215665646,3.2698753460458363e-06,0.7123881925484168,-3.7812692854632957e-07,-0.2579851332765176
829,0.8193,49.5289,689.517,0.00599621,184.799,-0.00153974,-0.00474675,-0.2383,0.538384,-0.298661,0.448417,3.26567e-06,-3.91557e-07,0.595066,-0.21203373424798322,0.5658315112722059,3.2656753323756504e-06,0.7132360345273061,-3.915569233292615e-07,-0.2581891593100012
830,0.8203,49.5289,689.517,0.00598377,184.799,-0.00153968,-0.00474542,-0.238519,0.538878,-0.298936,0.448829,3.26148e-06,-4.04979e-07,0.595615,-0.21220627996573727,0.5664767667683548,3.261485318706292e-06,0.7140825822084242,-4.049789179561003e-07,-0.25839312924403957
831,0.8213,49.5288,689.517,0.00597161,184.799,-0.00153961,-0.00474404,-0.238738,0.539372,-0.299211,0.449241,3.25728e-06,-4.18391e-07,0.596165,-0.21237878790011644,0.5671222881645399,3.257285305036106e-06,0.7149295481874078,-4.183909124710894e-07,-0.25859704309405807
832,0.8223,49.5288,689.517,0.00595921,184.799,-0.00153953,-0.00474271,-0.238957,0.539866,-0.299485,0.449653,3.25309e-06,-4.31794e-07,0.596714,-0.21255125805939457,0.5677680755703345,3.2530952913667477e-06,0.7157769326709471,-4.3179390674108475e-07,-0.2588001596760078
833,0.8233,49.5288,689.517,0.00594715,184.799,-0.00153946,-0.00474135,-0.239177,0.540359,-0.29976,0.450064,3.24891e-06,-4.45187e-07,0.597262,-0.21272447772775938,0.5684125606820121,3.2489152776982166e-06,0.7166230192419571,-4.451869008992304e-07,-0.25900396160804684
834,0.8243,49.5288,689.517,0.00593503,184.799,-0.00153939,-0.00474002,-0.239395,0.540852,-0.300034,0.450475,3.24472e-06,-4.58571e-07,0.597811,-0.212896085085733,0.5690573107315116,3.244725264028858e-06,0.7174695230364834,-4.5857089481238233e-07,-0.2592069667095972
835,0.8253,49.5288,689.517,0.00592267,184.799,-0.00153931,-0.00473869,-0.239614,0.541345,-0.300308,0.450886,3.24054e-06,-4.71946e-07,0.598359,-0.2130684419693316,0.5697023258277447,3.2405452505823718e-06,0.7183164442602685,-4.7194588859156283e-07,-0.25940991619536957
836,0.8263,49.5288,689.517,0.00591073,184.799,-0.00153922,-0.00473736,-0.239833,0.541838,-0.300582,0.451297,3.23636e-06,-4.85311e-07,0.598907,-0.21324076111090562,0.5703476060796684,3.2363652369138407e-06,0.7191637831191555,-4.853108822588936e-07,-0.25961281008060033
837,0.8273,49.5288,689.517,0.00589847,184.799,-0.00153913,-0.00473604,-0.240052,0.54233,-0.300856,0.451707,3.23218e-06,-4.98668e-07,0.599454,-0.21341304251871962,0.5709915806039174,3.2321852234673543e-06,0.7200098198084093,-4.98667875659109e-07,-0.2598156483805222
838,0.8283,49.5288,689.517,0.00588668,184.799,-0.00153906,-0.00473472,-0.24027,0.542823,-0.301129,0.452118,3.228e-06,-5.12015e-07,0.600002,-0.21358449978592942,0.57163739084846,3.228005210020868e-06,0.7208579937072621,-5.120148689474746e-07,-0.2600176911284243
839,0.8293,49.5288,689.517,0.00587472,184.799,-0.00153896,-0.00473343,-0.240488,0.543314,-0.301403,0.452528,3.22383e-06,-5.25353e-07,0.600549,-0.21375591967952878,0.5722818942928856,3.2238351965752088e-06,0.7217031424492093,-5.253528619908465e-07,-0.2602204185061361
840,0.8303,49.5288,689.517,0.0058626,184.799,-0.00153887,-0.00473212,-0.240707,0.543806,-0.301676,0.452937,3.21966e-06,-5.38682e-07,0.601095,-0.21392808827996912,0.5729250891120257,3.2196651831295497e-06,0.7225504288106479,-5.38681854900247e-07,-0.26042235076687614
841,0.8313,49.5288,689.517,0.0058508,184.799,-0.00153877,-0.00473081,-0.240925,0.544297,-0.30195,0.453347,3.21549e-06,-5.52001e-07,0.601641,-0.21409943327944048,0.5735701206209851,3.2154951696838907e-06,0.7233964087422713,-5.520008476977978e-07,-0.26062496728303564
842,0.8323,49.5288,689.517,0.00583868,184.799,-0.00153868,-0.00472954,-0.241143,0.544788,-0.302223,0.453756,3.21132e-06,-5.65312e-07,0.602188,-0.21427074092977327,0.5742138424324559,3.2113251562382317e-06,0.7242428041520328,-5.653118402282331e-07,-0.2608267891170336
843,0.8333,49.5288,689.517,0.0058266,184.799,-0.00153856,-0.00472824,-0.241361,0.545279,-0.302496,0.454166,3.20716e-06,-5.78613e-07,0.602733,-0.21444201123910855,0.5748594024386113,3.2071651430154446e-06,0.7250896152439819,-5.786128326468187e-07,-0.261028555861191
844,0.8343,49.5288,689.517,0.0058153,184.799,-0.00153847,-0.00472694,-0.241578,0.54577,-0.302768,0.454575,3.20299e-06,-5.91905e-07,0.603279,-0.21461245882843738,0.5755036516741965,3.2029951295697856e-06,0.725936842222269,-5.919048248204106e-07,-0.26122952876044336
845,0.8353,49.5288,689.517,0.0058032,184.799,-0.00153837,-0.00472571,-0.241796,0.54626,-0.303041,0.454983,3.19883e-06,-6.05188e-07,0.603824,-0.21478365465139015,0.5761465883142354,3.1988351163469986e-06,0.7267827585075224,-6.051878168600311e-07,-0.26143118557168454
846,0.8363,49.5288,689.517,0.00579127,184.799,-0.00153825,-0.00472439,-0.242013,0.54675,-0.303313,0.455392,3.19468e-06,-6.18462e-07,0.604369,-0.2149540281121417,0.5767913641165192,3.1946851029029943e-06,0.7276290893933244,-6.184618087656801e-07,-0.2616320489705485
847,0.8373,49.5287,689.517,0.00577958,184.799,-0.00153815,-0.00472315,-0.242231,0.54724,-0.303586,0.4558,3.19052e-06,-6.31727e-07,0.604913,-0.2151251494811064,0.5774348262504279,3.1905250896802073e-06,0.728475835082879,-6.317268004263354e-07,-0.26183359590877064
848,0.8383,49.5287,689.517,0.00576767,184.799,-0.00153803,-0.00472189,-0.242448,0.547729,-0.303858,0.456208,3.18637e-06,-6.44983e-07,0.605458,-0.21529544884551965,0.5780785509704514,3.1863750764582477e-06,0.729321266457359,-6.449827919530193e-07,-0.26203434986690743
849,0.8393,49.5287,689.517,0.00575609,184.799,-0.00153791,-0.00472061,-0.242665,0.548218,-0.30413,0.456616,3.18222e-06,-6.5823e-07,0.606001,-0.21546571125898017,0.5787225383837462,3.182225063236288e-06,0.7301671113488777,-6.582297833457318e-07,-0.26223504922739327
850,0.8403,49.5287,689.517,0.00574436,184.799,-0.00153779,-0.00471938,-0.242882,0.548707,-0.304402,0.457023,3.17807e-06,-6.71468e-07,0.606545,-0.21563593672950543,0.5793652092315145,3.1780750500143284e-06,0.7310133699596943,-6.714677746044728e-07,-0.2624356940050766
851,0.8413,49.5287,689.517,0.00573261,184.799,-0.00153767,-0.00471813,-0.243099,0.549196,-0.304674,0.457431,3.17392e-06,-6.84697e-07,0.607089,-0.21580612526511123,0.5800097217084854,3.173925036792369e-06,0.7318600424921675,-6.846967656182201e-07,-0.262636284214802
852,0.8423,49.5287,689.517,0.00572108,184.799,-0.00153755,-0.00471689,-0.243316,0.549684,-0.304945,0.457838,3.16978e-06,-6.97917e-07,0.607632,-0.2159762768738115,0.5806529165464915,3.169785023793281e-06,0.7327053964424912,-6.97916756497996e-07,-0.2628360827078612
853,0.8433,49.5287,689.517,0.00570958,184.799,-0.00153742,-0.00471566,-0.243533,0.550172,-0.305217,0.458245,3.16564e-06,-7.11128e-07,0.608174,-0.21614639156361848,0.5812963732180765,3.165645010572149e-06,0.733551163026217,-7.111277471327782e-07,-0.2630365640266693
854,0.8443,49.5287,689.517,0.00569771,184.799,-0.00153731,-0.00471444,-0.243749,0.55066,-0.305488,0.458652,3.1615e-06,-7.24331e-07,0.608717,-0.21631568565862025,0.5819400918298276,3.1615049975730614e-06,0.7343973424447594,-7.243307377224895e-07,-0.2632362540585965
855,0.8453,49.5287,689.517,0.005686,184.799,-0.00153716,-0.00471319,-0.243966,0.551148,-0.305759,0.459058,3.15736e-06,-7.37523e-07,0.609259,-0.21648572670471156,0.5825824899050958,3.1573649845739737e-06,0.7352439348996302,-7.375227280004282e-07,-0.2634358899818573
856,0.8463,49.5287,689.517,0.00567446,184.799,-0.00153704,-0.00471201,-0.244182,0.551635,-0.30603,0.459464,3.15322e-06,-7.50708e-07,0.609801,-0.21665494751123826,0.5832251488469344,3.1532249713528415e-06,0.7360892045023688,-7.507077182111743e-07,-0.2636354718111129
857,0.8473,49.5287,689.517,0.00566315,184.799,-0.00153688,-0.00471077,-0.244398,0.552122,-0.306301,0.45987,3.14909e-06,-7.63884e-07,0.610343,-0.21682413177001814,0.5838680687612776,3.1490949583545813e-06,0.7369348858516558,-7.63883708287949e-07,-0.26383499956102086
858,0.8483,49.5287,689.517,0.00565143,184.799,-0.00153677,-0.0047096,-0.244614,0.552609,-0.306572,0.460276,3.14496e-06,-7.77051e-07,0.610884,-0.21699327948894453,0.5845112497541014,3.144964945356321e-06,0.7377809791480612,-7.7705069811973e-07,-0.26403447324623464
859,0.8493,49.5287,689.517,0.00564005,184.799,-0.00153663,-0.00470836,-0.24483,0.553096,-0.306842,0.460682,3.14083e-06,-7.90208e-07,0.611425,-0.21716239067590914,0.585154691931425,3.140834932358061e-06,0.7386274845922516,-7.902076878396613e-07,-0.2642331571149289
860,0.8503,49.5287,689.517,0.00562843,184.799,-0.00153647,-0.00470719,-0.245046,0.553582,-0.307113,0.461087,3.13671e-06,-8.03358e-07,0.611966,-0.21733146533880232,0.5857968096017085,3.1367149195826727e-06,0.7394726629114592,-8.033576772703555e-07,-0.2644325229140648
861,0.8513,49.5287,689.517,0.00561705,184.799,-0.00153634,-0.00470598,-0.245262,0.554068,-0.307383,0.461493,3.13259e-06,-8.16498e-07,0.612506,-0.21750050348551198,0.5864407738222979,3.13259490658524e-06,0.7403182520871601,-8.164976667002222e-07,-0.2646310993238564
862,0.8523,49.5287,689.517,0.00560568,184.799,-0.00153618,-0.00470479,-0.245478,0.554554,-0.307653,0.461897,3.12846e-06,-8.2963e-07,0.613046,-0.21766950512392513,0.5870818253786172,3.1284648935869797e-06,0.7411642523190789,-8.296296558629734e-07,-0.26482962212525474
863,0.8533,49.5286,689.517,0.00559445,184.799,-0.00153604,-0.00470361,-0.245693,0.555039,-0.307923,0.462302,3.12435e-06,-8.42753e-07,0.613586,-0.2178376881000057,0.5877247236960172,3.124354880812419e-06,0.7420089217972448,-8.427526448917533e-07,-0.2650280913327322
864,0.8543,49.5286,689.517,0.00558307,184.799,-0.0015359,-0.00470245,-0.245908,0.555524,-0.308193,0.462707,3.12023e-06,-8.55867e-07,0.614126,-0.2180058349206332,0.5883678824399685,3.120234867814986e-06,0.7428540010394675,-8.558666337865617e-07,-0.2652265069607572
865,0.8553,49.5286,689.517,0.00557187,184.799,-0.00153572,-0.00470126,-0.246124,0.556009,-0.308463,0.463111,3.11612e-06,-8.68972e-07,0.614665,-0.21817472741924393,0.5890097127054583,3.1161248550404252e-06,0.7436994902445304,-8.689716224363764e-07,-0.26542486902379425
866,0.8563,49.5286,689.517,0.0055606,184.799,-0.00153559,-0.0047001,-0.246339,0.556494,-0.308732,0.463515,3.112e-06,-8.82069e-07,0.615204,-0.21834280178420706,0.5896518023227606,3.112004842265037e-06,0.7445453896113143,-8.820686109300979e-07,-0.2656224431591142
867,0.8573,49.5286,689.517,0.00554942,184.799,-0.00153545,-0.00469895,-0.246554,0.556979,-0.309001,0.463919,3.1079e-06,-8.95158e-07,0.615743,-0.2185108400170661,0.5902941513966753,3.1079048294913036e-06,0.7453916993387952,-8.951575993787486e-07,-0.26581996415413955
868,0.8583,49.5286,689.517,0.00553775,184.799,-0.00153525,-0.0046978,-0.246769,0.557463,-0.309271,0.464323,3.10379e-06,-9.08237e-07,0.616281,-0.21867884212558863,0.5909367600320434,3.103794816716743e-06,0.7462366733885002,-9.082365876045273e-07,-0.266018166005364
869,0.8593,49.5286,689.517,0.0055266,184.799,-0.0015351,-0.00469661,-0.246984,0.557947,-0.30954,0.464726,3.09968e-06,-9.21308e-07,0.616819,-0.21884680811754054,0.5915780367549168,3.099684803942182e-06,0.7470820565046312,-9.213075755631905e-07,-0.26621558056525974
870,0.8603,49.5286,689.517,0.00551511,184.799,-0.00153495,-0.00469551,-0.247198,0.55843,-0.309809,0.465129,3.09558e-06,-9.34371e-07,0.617357,-0.21901395701503346,0.5922195719643912,3.0955847913904933e-06,0.7479261009582496,-9.343705634767829e-07,-0.2664129420277809
871,0.8613,49.5286,689.517,0.00550421,184.799,-0.00153476,-0.00469432,-0.247413,0.558914,-0.310078,0.465532,3.09148e-06,-9.47424e-07,0.617894,-0.21918185096502885,0.5928613657646575,3.09148477861676e-06,0.7487723019552359,-9.474235511675033e-07,-0.26661025040720865
872,0.8623,49.5286,689.517,0.00549307,184.799,-0.00153463,-0.00469322,-0.247627,0.559397,-0.310346,0.465935,3.08739e-06,-9.6047e-07,0.618432,-0.2193489281710237,0.593503418259949,3.0873947660658985e-06,0.7496171629945965,-9.604695387910311e-07,-0.26680677252495943
873,0.8633,49.5286,689.517,0.00548205,184.799,-0.00153444,-0.00469207,-0.247842,0.55988,-0.310615,0.466338,3.08329e-06,-9.73506e-07,0.618969,-0.21951675010996197,0.5941457295545405,3.083294753292165e-06,0.7504624322004034,-9.73505526191687e-07,-0.26700397497823114
874,0.8643,49.5286,689.517,0.0054708,184.799,-0.00153428,-0.00469095,-0.248056,0.560362,-0.310883,0.46674,3.0792e-06,-9.86534e-07,0.619505,-0.2196837556552077,0.5947867049652469,3.0792047407413037e-06,0.7513063584626145,-9.865335133252273e-07,-0.2672003915919351
875,0.8653,49.5286,689.517,0.00545987,184.799,-0.0015341,-0.0046898,-0.24827,0.560845,-0.311151,0.467142,3.07511e-06,-9.99553e-07,0.620042,-0.21985072546509066,0.5954279380998675,3.0751147281904423e-06,0.7521524437468996,-9.995525004358186e-07,-0.26739675557303966
876,0.8663,49.5286,689.517,0.00544871,184.799,-0.00153393,-0.00468871,-0.248484,0.561327,-0.31142,0.467544,3.07102e-06,-1.01256e-06,0.620578,-0.22001765954725727,0.5960694290620281,3.071024715639581e-06,0.7529971847910226,-1.0125594873677812e-06,-0.2675937993422154
877,0.8673,49.5286,689.517,0.00543768,184.799,-0.00153374,-0.00468758,-0.248698,0.561809,-0.311687,0.467946,3.06693e-06,-1.02557e-06,0.621114,-0.22018455790935243,0.5967111779553962,3.0669347030887195e-06,0.7538423330984718,-1.0255694741223564e-06,-0.2677893256938615
878,0.8683,49.5286,689.517,0.00542644,184.799,-0.00153359,-0.00468649,-0.248912,0.56229,-0.311955,0.468347,3.06285e-06,-1.03856e-06,0.621649,-0.22035142055901957,0.5973515875312947,3.0628546905386855e-06,0.7546861341785833,-1.0385594606532322e-06,-0.26798553186177465
879,0.8693,49.5286,689.517,0.00541571,184.799,-0.00153338,-0.00468536,-0.249126,0.562772,-0.312223,0.468749,3.05877e-06,-1.05155e-06,0.622184,-0.22051824750390014,0.5979938519559824,3.0587746779886515e-06,0.7555320967558605,-1.0515494470730857e-06,-0.2681816854534804
880,0.8703,49.5285,689.517,0.00540484,184.799,-0.00153323,-0.0046843,-0.249339,0.563253,-0.31249,0.46915,3.05469e-06,-1.06452e-06,0.622719,-0.22068425943628334,0.5986347759872965,3.054694665660662e-06,0.7563767108077952,-1.0645194333802621e-06,-0.2683770548604878
881,0.8713,49.5285,689.517,0.00539448,184.799,-0.00153302,-0.00468319,-0.249553,0.563734,-0.312758,0.46955,3.05062e-06,-1.07749e-06,0.623254,-0.22085101516126504,0.5992743578055273,3.0506246531114556e-06,0.7572217312168099,-1.0774894194653939e-06,-0.26857310353808894
882,0.8723,49.5285,689.517,0.00538276,184.799,-0.00153285,-0.00468214,-0.249766,0.564214,-0.313025,0.469951,3.04654e-06,-1.09045e-06,0.623788,-0.22101695622168538,0.5999157954226542,3.046544640783466e-06,0.7580654001121305,-1.090449405438676e-06,-0.2687683684504185
883,0.8733,49.5285,689.517,0.00537224,184.799,-0.00153264,-0.00468097,-0.249979,0.564694,-0.313292,0.470352,3.04247e-06,-1.1034e-06,0.624322,-0.2211828619404239,0.6005574903078443,3.0424746282342596e-06,0.7589094740657272,-1.1033993913001083e-06,-0.268963581233976
884,0.8743,49.5285,689.517,0.00536129,184.799,-0.00153248,-0.00467994,-0.250192,0.565174,-0.313559,0.470752,3.0384e-06,-1.11635e-06,0.624856,-0.2213487323250075,0.6011978413656411,3.0384046159070977e-06,0.7597539532720741,-1.1163493768284738e-06,-0.26915874190267775
885,0.8753,49.5285,689.517,0.00535092,184.799,-0.00153227,-0.00467883,-0.250405,0.565654,-0.313826,0.471152,3.03434e-06,-1.12928e-06,0.62539,-0.2215145673829616,0.6018384486150958,3.034344603580763e-06,0.7605988379257398,-1.1292793623551844e-06,-0.2693538504704369
886,0.8763,49.5285,689.517,0.00533926,184.799,-0.0015321,-0.00467781,-0.250618,0.566134,-0.314093,0.471551,3.03027e-06,-1.14221e-06,0.625923,-0.22168036712180994,0.6024777096801948,3.030274591253601e-06,0.7614441282213855,-1.1422093476598505e-06,-0.2695489069511623
887,0.8773,49.5285,689.517,0.0053291,184.799,-0.00153186,-0.00467666,-0.250831,0.566613,-0.314359,0.471951,3.02621e-06,-1.15513e-06,0.626456,-0.22184613154907484,0.6031188289793785,3.0262145789272665e-06,0.7622880620648231,-1.1551293328526668e-06,-0.2697431811023058
888,0.8783,49.5285,689.517,0.00531798,184.799,-0.00153171,-0.00467569,-0.251043,0.567092,-0.314626,0.47235,3.02215e-06,-1.16804e-06,0.626988,-0.22201108268374836,0.6037586010181752,3.022154566600932e-06,0.7631324002494035,-1.1680393178226112e-06,-0.2699381336456287
889,0.8793,49.5285,689.517,0.00530759,184.799,-0.00153149,-0.00467457,-0.251256,0.567571,-0.314892,0.47275,3.01809e-06,-1.18094e-06,0.627521,-0.22217677667610003,0.6044002327763791,3.018094554496642e-06,0.7639771429688527,-1.1809393026807058e-06,-0.27013230427624024
890,0.8803,49.5285,689.517,0.00529678,184.799,-0.00153128,-0.00467356,-0.251468,0.568049,-0.315158,0.473148,3.01404e-06,-1.19384e-06,0.628053,-0.22234165772143644,0.6050389111575913,3.014044542171135e-06,0.7648205255955813,-1.1938392874277781e-06,-0.27032642326433276
891,0.8813,49.5285,689.517,0.00528611,184.799,-0.00153112,-0.00467249,-0.251681,0.568528,-0.315424,0.473547,3.00999e-06,-1.20672e-06,0.628585,-0.22250728130880348,0.605679449462037,3.0099945300676723e-06,0.7656660771207648,-1.206719271951151e-06,-0.27052049062364136
892,0.8823,49.5285,689.517,0.0052755,184.799,-0.00153086,-0.00467143,-0.251893,0.569006,-0.31569,0.473946,3.00594e-06,-1.2196e-06,0.629116,-0.2226720922945843,0.6063202433922601,3.005944517742165e-06,0.766510267250996,-1.2195992562524793e-06,-0.2707145063678975
893,0.8833,49.5285,689.517,0.00526495,184.799,-0.00153071,-0.00467041,-0.252105,0.569483,-0.315955,0.474344,3.00189e-06,-1.23247e-06,0.629648,-0.2228368683441394,0.6069596860897861,3.0018945056387025e-06,0.7673530936465893,-1.2324692405529802e-06,-0.2709077414189349
894,0.8843,49.5285,689.517,0.00525404,184.799,-0.00153048,-0.00466937,-0.252317,0.569961,-0.316221,0.474742,2.99784e-06,-1.24533e-06,0.630179,-0.22300160946487468,0.6075993833361577,2.99784449353524e-06,0.7681980903634789,-1.2453292246306091e-06,-0.27110165416817844
895,0.8853,49.5285,689.517,0.00524366,184.799,-0.00153028,-0.00466832,-0.252529,0.570438,-0.316486,0.47514,2.9938e-06,-1.25818e-06,0.630709,-0.2231663156641941,0.6082393352327053,2.993804481432605e-06,0.7690417220427419,-1.258179208485366e-06,-0.27129478663864126
896,0.8863,49.5285,689.517,0.0052332,184.799,-0.00153007,-0.00466732,-0.252741,0.570915,-0.316752,0.475538,2.98976e-06,-1.27103e-06,0.63124,-0.22333098694950027,0.6088795418808002,2.9897644693299696e-06,0.7698857562303063,-1.2710291922291006e-06,-0.2714885964475481
897,0.8873,49.5285,689.517,0.00522244,184.799,-0.00152985,-0.0046663,-0.252952,0.571392,-0.317017,0.475935,2.98572e-06,-1.28386e-06,0.63177,-0.22349484682342935,0.6095183938626545,2.9857244572273345e-06,0.7707301931182149,-1.283859175860158e-06,-0.2716816263918922
898,0.8883,49.5284,689.517,0.00521199,184.799,-0.00152964,-0.00466525,-0.253164,0.571868,-0.317282,0.476332,2.98169e-06,-1.29669e-06,0.6323,-0.22365944846751196,0.6101574995190966,2.9816944453475713e-06,0.7715732613244541,-1.296689159269171e-06,-0.27187460519007833
899,0.8893,49.5284,689.517,0.00520126,184.799,-0.00152943,-0.00466427,-0.253375,0.572345,-0.317546,0.476729,2.97766e-06,-1.30951e-06,0.632829,-0.22382323904337198,0.6107968589508554,2.9776644332457636e-06,0.7724185033443012,-1.309509142566334e-06,-0.2720668049228271
900,0.8903,49.5284,689.517,0.00519108,184.799,-0.00152919,-0.00466321,-0.253586,0.572821,-0.317811,0.477126,2.97363e-06,-1.32232e-06,0.633358,-0.22398699506306607,0.6114364722586998,2.973634421143956e-06,0.7732623753775034,-1.3223191257516476e-06,-0.2722596816622258
901,0.8913,49.5284,689.517,0.00518041,184.799,-0.00152903,-0.00466227,-0.253798,0.573296,-0.318076,0.477523,2.9696e-06,-1.33513e-06,0.633887,-0.22415149238278076,0.6120763395434385,2.9696044092641927e-06,0.7741048750836472,-1.3351291087149164e-06,-0.2724525072960604
902,0.8923,49.5284,689.517,0.00517014,184.799,-0.00152876,-0.0046612,-0.254009,0.573772,-0.31834,0.477919,2.96557e-06,-1.34792e-06,0.634416,-0.224315179148327,0.6127148481902658,2.9655743973844295e-06,0.7749495500208734,-1.3479190915655082e-06,-0.27264455448279024
903,0.8933,49.5284,689.517,0.00515932,184.799,-0.00152859,-0.00466026,-0.25422,0.574247,-0.318604,0.478315,2.96155e-06,-1.36071e-06,0.634945,-0.2244788313796091,0.6133536097365879,2.961554385283449e-06,0.7757928513253374,-1.3607090741940553e-06,-0.27283655097575454
904,0.8943,49.5284,689.517,0.00514948,184.799,-0.00152829,-0.00465919,-0.25443,0.574722,-0.318869,0.478711,2.95753e-06,-1.37349e-06,0.635473,-0.22464167372597454,0.6139926242825731,2.9575343734045134e-06,0.7766365532930708,-1.3734890567107527e-06,-0.2730292237594746
905,0.8953,49.5284,689.517,0.00513891,184.799,-0.00152816,-0.00465828,-0.254641,0.575197,-0.319133,0.479107,2.95351e-06,-1.38626e-06,0.636001,-0.2248052570741682,0.6146318919284288,2.9535143615255777e-06,0.7774806561144343,-1.3862590391156004e-06,-0.2732211187131537
906,0.8963,49.5284,689.517,0.00512902,184.799,-0.00152789,-0.00465725,-0.254852,0.575671,-0.319396,0.479503,2.94949e-06,-1.39902e-06,0.636528,-0.22496880590991664,0.6152714127744028,2.949494349646642e-06,0.7783233816556074,-1.3990190214085985e-06,-0.27341223642585133
907,0.8973,49.5284,689.517,0.00511824,184.799,-0.00152768,-0.00465632,-0.255062,0.576146,-0.31966,0.479898,2.94548e-06,-1.41178e-06,0.637056,-0.22513154537243396,0.615909571010403,2.945484337990578e-06,0.7791682859107687,-1.4117790034795519e-06,-0.27360403027753255
908,0.8983,49.5284,689.517,0.00510837,184.799,-0.00152743,-0.00465527,-0.255273,0.57662,-0.319924,0.480293,2.94147e-06,-1.42453e-06,0.637583,-0.22529502536861423,0.6165479813686972,2.94147432611247e-06,0.7800118115780801,-1.4245289853276333e-06,-0.2737957735023199
909,0.8993,49.5284,689.517,0.00509786,184.799,-0.00152722,-0.00465437,-0.255483,0.577093,-0.320187,0.480688,2.93746e-06,-1.43727e-06,0.638109,-0.22545769633223778,0.6171866439488933,2.9374643142343615e-06,0.780853956316486,-1.4372689671748873e-06,-0.27398674010068036
910,0.9003,49.5284,689.517,0.00508799,184.799,-0.00152698,-0.00465336,-0.255693,0.577567,-0.32045,0.481083,2.93345e-06,-1.45e-06,0.638636,-0.22562033313854568,0.6178255588506392,2.9334543025782978e-06,0.7816982811809647,-1.4499989487992693e-06,-0.27417765648142944
911,0.9013,49.5284,689.517,0.00507762,184.799,-0.00152676,-0.00465241,-0.255903,0.57804,-0.320714,0.481477,2.92945e-06,-1.46272e-06,0.639162,-0.2257829357947101,0.6184631077097038,2.9294542909230614e-06,0.7825412238081788,-1.4627189302007793e-06,-0.274369248288887
912,0.9023,49.5284,689.517,0.00506732,184.799,-0.00152653,-0.00465142,-0.256113,0.578513,-0.320977,0.481872,2.92545e-06,-1.47544e-06,0.639688,-0.22594550430790195,0.6191025269142285,2.9254542790457805e-06,0.7833845652415659,-1.475438911491267e-06,-0.2745600640832101
913,0.9033,49.5284,689.517,0.00505723,184.799,-0.00152629,-0.00465049,-0.256323,0.578986,-0.321239,0.482266,2.92145e-06,-1.48815e-06,0.640214,-0.2261080386852904,0.619740578997839,2.921454267390544e-06,0.7842283056698054,-1.488148892669905e-06,-0.2747501044500452
914,0.9043,49.5284,689.517,0.00504723,184.799,-0.00152605,-0.00464953,-0.256533,0.579458,-0.321502,0.48266,2.91745e-06,-1.50085e-06,0.640739,-0.22627053893404314,0.6203788825235013,2.917454255735308e-06,0.7850706602101145,-1.5008488737366932e-06,-0.27494082009236853
915,0.9053,49.5283,689.517,0.00503621,184.799,-0.00152586,-0.00464863,-0.256742,0.57993,-0.321765,0.483053,2.91345e-06,-1.51354e-06,0.641264,-0.22643223149394487,0.6210158165736761,2.9134542440800715e-06,0.7859134124356129,-1.5135388545806094e-06,-0.2751314855830732
916,0.9063,49.5283,689.517,0.00502701,184.799,-0.00152552,-0.00464757,-0.256952,0.580402,-0.322027,0.483447,2.90946e-06,-1.52622e-06,0.641789,-0.22659466366935577,0.6216546226419379,2.9094642324256625e-06,0.7867565625340525,-1.526218835312676e-06,-0.27532137625708597
917,0.9073,49.5283,689.517,0.00501662,184.799,-0.00152539,-0.00464676,-0.257161,0.580874,-0.32229,0.48384,2.90547e-06,-1.5389e-06,0.642314,-0.22675628849426632,0.6222920581565106,2.9054742207712536e-06,0.7876001106932733,-1.5388988159337202e-06,-0.2755119416746795
918,0.9083,49.5283,689.517,0.00500707,184.799,-0.00152508,-0.00464571,-0.257371,0.581346,-0.322552,0.484233,2.90149e-06,-1.55157e-06,0.642838,-0.2269186526248521,0.6229297442324724,2.9014942093397167e-06,0.7884440571012048,-1.5515687963318925e-06,-0.27570173268225306
919,0.9093,49.5283,689.517,0.00499633,184.799,-0.00152489,-0.00464486,-0.25758,0.581817,-0.322814,0.484626,2.8975e-06,-1.56423e-06,0.643362,-0.22708020974314658,0.6235676809683137,2.8975041976853078e-06,0.7892866126583569,-1.564228776618215e-06,-0.27589147397109604
920,0.9103,49.5283,689.517,0.00498648,184.799,-0.00152462,-0.00464387,-0.257789,0.582288,-0.323076,0.485019,2.89352e-06,-1.57688e-06,0.643886,-0.22724173309953155,0.6242058684625629,2.893524186253771e-06,0.7901295651526481,-1.5768787566816655e-06,-0.2760811655542331
921,0.9113,49.5283,689.517,0.0049763,184.799,-0.00152437,-0.00464301,-0.257998,0.582759,-0.323338,0.485411,2.88954e-06,-1.58953e-06,0.644409,-0.2274032227010625,0.624842681970293,2.889544174822234e-06,0.7909729147710793,-1.589528736745116e-06,-0.27627080744468546
922,0.9123,49.5283,689.517,0.00496676,184.799,-0.00152414,-0.00464202,-0.258207,0.583229,-0.323599,0.485803,2.88556e-06,-1.60216e-06,0.644932,-0.22756467855479356,0.6254797451578524,2.8855641631686524e-06,0.7918148698849743,-1.6021587165848672e-06,-0.2764596761155087
923,0.9133,49.5283,689.517,0.00495651,184.799,-0.0015239,-0.00464116,-0.258416,0.583699,-0.323861,0.486195,2.88159e-06,-1.61479e-06,0.645455,-0.2277261006677772,0.6261170581231343,2.881594151737943e-06,0.7926572208107816,-1.6147886962025737e-06,-0.27664921884918403
924,0.9143,49.5283,689.517,0.00494694,184.799,-0.00152361,-0.00464016,-0.258624,0.584169,-0.324122,0.486587,2.87761e-06,-1.62742e-06,0.645978,-0.22788671693416762,0.6267546209640713,2.877614140306406e-06,0.7934999677345762,-1.627418675709258e-06,-0.27683798876751853
925,0.9153,49.5283,689.517,0.00493708,184.799,-0.00152343,-0.00463933,-0.258833,0.584639,-0.324383,0.486979,2.87364e-06,-1.64003e-06,0.6465,-0.22804807174816288,0.6273924337786334,2.8736441288756964e-06,0.794343110842521,-1.640028655103265e-06,-0.2770267094233333
926,0.9163,49.5283,689.517,0.00492714,184.799,-0.00152312,-0.00463835,-0.259041,0.585109,-0.324644,0.48737,2.86967e-06,-1.65264e-06,0.647022,-0.22820862105153294,0.6280288686351472,2.869674117444987e-06,0.7951866503208662,-1.6526386343862498e-06,-0.27721538082948427
927,0.9173,49.5283,689.517,0.00491682,184.799,-0.00152291,-0.0046375,-0.259249,0.585578,-0.324905,0.487762,2.86571e-06,-1.66524e-06,0.647544,-0.22836913696412053,0.6286671810527122,2.8657141062371494e-06,0.7960287903262615,-1.6652386134463626e-06,-0.27740400299882384
928,0.9183,49.5283,689.517,0.00490728,184.799,-0.00152263,-0.00463655,-0.259458,0.586047,-0.325166,0.488153,2.86175e-06,-1.67783e-06,0.648066,-0.2285303909628652,0.629304114432865,2.8617540948072673e-06,0.7968713253879527,-1.6778285923946257e-06,-0.2775925759442014
929,0.9193,49.5283,689.517,0.00489706,184.799,-0.00152239,-0.00463571,-0.259666,0.586516,-0.325427,0.488543,2.85779e-06,-1.69041e-06,0.648587,-0.22869083995427142,0.6299396669621815,2.857794083377385e-06,0.7977142556912649,-1.690408571231039e-06,-0.27778109967846243
930,0.9203,49.5283,689.517,0.00488735,184.799,-0.00152214,-0.00463476,-0.259874,0.586984,-0.325687,0.488934,2.85383e-06,-1.70299e-06,0.649108,-0.22885125557575792,0.630577097981607,2.8538340721695477e-06,0.7985557828649272,-1.7029885499564301e-06,-0.27796885218366263
931,0.9213,49.5283,689.517,0.00487794,184.799,-0.00152185,-0.00463389,-0.260082,0.587453,-0.325948,0.489324,2.84987e-06,-1.71555e-06,0.649629,-0.22901163783426504,0.6312131470713305,2.84987406096171e-06,0.7993995033640826,-1.7155485284581218e-06,-0.2781572777226402
932,0.9223,49.5283,689.517,0.00486828,184.799,-0.00152165,-0.00463302,-0.260289,0.587921,-0.326208,0.489715,2.84592e-06,-1.72811e-06,0.650149,-0.2291712159083329,0.631851076118837,2.8459240495326554e-06,0.8002418194182397,-1.7281085068487911e-06,-0.2783449324342627
933,0.9233,49.5282,689.517,0.00485805,184.799,-0.00152135,-0.00463213,-0.260497,0.588389,-0.326468,0.490105,2.84197e-06,-1.74067e-06,0.650669,-0.2293315316220117,0.6324876221569324,2.8419740383256453e-06,0.8010845297685685,-1.7406684850174159e-06,-0.2785325383620023
934,0.9243,49.5282,689.517,0.0048489,184.799,-0.0015211,-0.0046312,-0.260705,0.588856,-0.326728,0.490494,2.83802e-06,-1.75321e-06,0.651189,-0.22949181399348983,0.6331227833727984,2.8380240271186352e-06,0.8019258326729086,-1.7532084630733635e-06,-0.27872009551854127
935,0.9253,49.5282,689.517,0.0048389,184.799,-0.00152088,-0.0046304,-0.260912,0.589324,-0.326988,0.490884,2.83407e-06,-1.76575e-06,0.651709,-0.22965129268137952,0.6337598254734489,2.834074015911625e-06,0.8027693313258886,-1.7657484410182889e-06,-0.27890760391655844
936,0.9263,49.5282,689.517,0.0048294,184.799,-0.00152055,-0.00462948,-0.261119,0.589791,-0.327248,0.491273,2.83013e-06,-1.77828e-06,0.652228,-0.2298107383605973,0.6343954816726733,2.830134004927487e-06,0.803611421216303,-1.7782784188513645e-06,-0.27909506356872926
937,0.9273,49.5282,689.517,0.00481972,184.799,-0.00152032,-0.00462861,-0.261327,0.590257,-0.327508,0.491663,2.82619e-06,-1.7908e-06,0.652748,-0.22997092106743933,0.6350330202224621,2.8261939937213043e-06,0.8044521000015337,-1.7907983965725904e-06,-0.27928247448772625
938,0.9283,49.5282,689.517,0.00481008,184.799,-0.00152008,-0.00462775,-0.261534,0.590724,-0.327767,0.492052,2.82225e-06,-1.80332e-06,0.653266,-0.2301303005904286,0.6356691717907865,2.8222539825151216e-06,0.8052949759284449,-1.8033183740717718e-06,-0.2794691161556946
939,0.9293,49.5282,689.517,0.00480015,184.799,-0.00151979,-0.00462691,-0.261741,0.59119,-0.328026,0.49244,2.81831e-06,-1.81582e-06,0.653785,-0.230289647125271,0.6363039345654564,2.8183139715309835e-06,0.8061364394329966,-1.8158183513472537e-06,-0.2796557094897304
940,0.9303,49.5282,689.517,0.00479108,184.799,-0.00151955,-0.004626,-0.261948,0.591657,-0.328286,0.492829,2.81438e-06,-1.82832e-06,0.654303,-0.2304489606787945,0.636940580615631,2.814383960325628e-06,0.8069801021301188,-1.8283183286227356e-06,-0.27984297465973607
941,0.9313,49.5282,689.517,0.00478135,184.799,-0.00151926,-0.00462521,-0.262155,0.592122,-0.328545,0.493217,2.81045e-06,-1.84082e-06,0.654821,-0.2306082412578253,0.6375758367926387,2.8104539493423175e-06,0.8078205432650294,-1.8408183056761729e-06,-0.28002947117695765
942,0.9323,49.5282,689.517,0.00477159,184.799,-0.00151902,-0.00462435,-0.262361,0.592588,-0.328804,0.493606,2.80652e-06,-1.8533e-06,0.655339,-0.2307667196362928,0.6382129777090249,2.806523938359007e-06,0.8086631839582237,-1.853298282616933e-06,-0.28021591939783597
943,0.9333,49.5282,689.517,0.00476226,184.799,-0.00151869,-0.00462348,-0.262568,0.593053,-0.329062,0.493994,2.80259e-06,-1.86578e-06,0.655857,-0.23092593444602671,0.638848727671893,2.8025939271536515e-06,0.809504407908175,-1.865778259446671e-06,-0.28040159973683765
944,0.9343,49.5282,689.517,0.00475255,184.799,-0.00151854,-0.00462271,-0.262774,0.593519,-0.329321,0.494381,2.79866e-06,-1.87825e-06,0.656374,-0.2310843473864378,0.6394830848697026,2.798663916170341e-06,0.8103478334651519,-1.8782482360535369e-06,-0.28058795158889915
945,0.9353,49.5282,689.517,0.00474259,184.799,-0.00151818,-0.00462182,-0.262981,0.593984,-0.32958,0.494769,2.79474e-06,-1.89071e-06,0.656891,-0.23124349645403197,0.640119327729765,2.7947439051878575e-06,0.8111898409592837,-1.8907082126595753e-06,-0.2807742551820809
946,0.9363,49.5282,689.517,0.00473376,184.799,-0.00151794,-0.00462097,-0.263187,0.594448,-0.329838,0.495156,2.79082e-06,-1.90317e-06,0.657408,-0.23140184398340702,0.6407541767449574,2.790823894427419e-06,0.8120304280466117,-1.903168188932547e-06,-0.28095979148903116
947,0.9373,49.5282,689.517,0.00472416,184.799,-0.00151767,-0.0046202,-0.263393,0.594913,-0.330096,0.495544,2.78691e-06,-1.91561e-06,0.657924,-0.23156015889655046,0.6413909128843576,2.786913883445763e-06,0.8128732181291618,-1.9156081652038637e-06,-0.2811452799337888
948,0.9383,49.5282,689.517,0.00471542,184.799,-0.00151741,-0.00461933,-0.263599,0.595377,-0.330354,0.495931,2.78299e-06,-1.92805e-06,0.65844,-0.2317184412001808,0.6420262540982391,2.7829938724632797e-06,0.8137145864847368,-1.928048141364158e-06,-0.28133072052870045
949,0.9393,49.5282,689.517,0.00470545,184.799,-0.00151716,-0.00461858,-0.263805,0.595841,-0.330612,0.496317,2.77908e-06,-1.94049e-06,0.658956,-0.2318766909010147,0.6426601985757339,2.7790838617036684e-06,0.8145563453258144,-1.940488117302408e-06,-0.2815161132861099
950,0.9403,49.5282,689.517,0.00469618,184.799,-0.00151682,-0.00461767,-0.264011,0.596304,-0.33087,0.496704,2.77517e-06,-1.95291e-06,0.659472,-0.23203490800576787,0.6432960310982401,2.7751738507220125e-06,0.815396679436035,-1.9529080931279807e-06,-0.2817014582183578
951,0.9413,49.5282,689.517,0.00468628,184.799,-0.00151657,-0.0046169,-0.264217,0.596768,-0.331128,0.49709,2.77126e-06,-1.96533e-06,0.659987,-0.23219309252115417,0.643930465804265,2.7712638399624012e-06,0.8162392189493441,-1.965328068731509e-06,-0.2818867553377812
952,0.9423,49.5281,689.517,0.0046778,184.799,-0.00151631,-0.00461603,-0.264422,0.597231,-0.331386,0.497477,2.76736e-06,-1.97774e-06,0.660502,-0.23235047680474707,0.6445667900153242,2.7673638292036173e-06,0.8170803324104583,-1.9777380442231873e-06,-0.28207200465671434
953,0.9433,49.5281,689.517,0.00466775,184.799,-0.00151603,-0.00461528,-0.264628,0.597694,-0.331643,0.497863,2.76345e-06,-1.99014e-06,0.661017,-0.23250859631965604,0.6452017153289724,2.7634538182219615e-06,0.817921835397273,-1.9901380197140384e-06,-0.2822564884443355
954,0.9443,49.5281,689.517,0.00465881,184.799,-0.00151578,-0.00461444,-0.264833,0.598157,-0.3319,0.498248,2.75955e-06,-2.00254e-06,0.661532,-0.23266591593159935,0.6458352399350353,2.7595538074631776e-06,0.8187637280901809,-2.0025379948718225e-06,-0.28244092482571503
955,0.9453,49.5281,689.517,0.00464915,184.799,-0.0015154,-0.00461362,-0.265039,0.59862,-0.332158,0.498634,2.75566e-06,-2.01493e-06,0.662046,-0.23282397047274084,0.6464706549648616,2.7556637969272657e-06,0.8196060106696572,-2.0149279700287792e-06,-0.2826260311873626
956,0.9463,49.5281,689.517,0.00464055,184.799,-0.00151524,-0.00461279,-0.265244,0.599082,-0.332415,0.499019,2.75176e-06,-2.02731e-06,0.66256,-0.23298122543960909,0.6471046682067405,2.751763786168482e-06,0.8204468628684882,-2.027307944962864e-06,-0.2828103726084602
957,0.9473,49.5281,689.517,0.00463141,184.799,-0.00151487,-0.00461202,-0.265449,0.599544,-0.332672,0.499404,2.74787e-06,-2.03968e-06,0.663074,-0.23313844817251328,0.6477389255907122,2.7478737754105254e-06,0.8212881036307864,-2.0396779198961212e-06,-0.2829946666598998
958,0.9483,49.5281,689.517,0.00462153,184.799,-0.00151471,-0.00461124,-0.265654,0.600006,-0.332929,0.49979,2.74397e-06,-2.05205e-06,0.663587,-0.23329563867806058,0.6483750755850406,2.7439737646517415e-06,0.8221297331361095,-2.0520478944963116e-06,-0.2831789133538539
959,0.9493,49.5281,689.517,0.0046125,184.799,-0.00151427,-0.0046104,-0.265859,0.600467,-0.333185,0.500174,2.74009e-06,-2.06441e-06,0.664101,-0.23345279696285703,0.6490081731610202,2.740093754116657e-06,0.8229699285932581,-2.0644078690956746e-06,-0.28336239606524627
960,0.9503,49.5281,689.517,0.00460393,184.799,-0.00151411,-0.00460962,-0.266064,0.600929,-0.333442,0.500559,2.7362e-06,-2.07676e-06,0.664613,-0.23360992303350714,0.6496431635354909,2.7362037433587005e-06,0.8238123352812294,-2.076757843583188e-06,-0.28354654826488623
961,0.9513,49.5281,689.517,0.00459417,184.799,-0.00151378,-0.00460886,-0.266268,0.60139,-0.333698,0.500943,2.73232e-06,-2.08911e-06,0.665126,-0.23376625066324785,0.6502767481507492,2.732323732823616e-06,0.8246533065967885,-2.0891078178486566e-06,-0.283729936873787
962,0.9523,49.5281,689.517,0.00458538,184.799,-0.0015135,-0.00460804,-0.266473,0.601851,-0.333954,0.501328,2.72844e-06,-2.10144e-06,0.665639,-0.23392331248247544,0.65091222702062,2.7284437222885316e-06,0.8254946656895001,-2.101437792001448e-06,-0.2839132785412125
963,0.9533,49.5281,689.517,0.00457659,184.799,-0.00151321,-0.00460731,-0.266677,0.602311,-0.334211,0.501712,2.72456e-06,-2.11377e-06,0.666151,-0.23407957618728914,0.6515462990498342,2.7245637115314025e-06,0.8263345864026708,-2.1137677660432175e-06,-0.2840972891822473
964,0.9543,49.5281,689.517,0.00456677,184.799,-0.00151298,-0.00460654,-0.266882,0.602772,-0.334467,0.502095,2.72068e-06,-2.1261e-06,0.666663,-0.23423657378136753,0.6521789624296737,2.720683700996318e-06,0.8271767207440537,-2.126097739862942e-06,-0.28428053681951826
965,0.9553,49.5281,689.517,0.00455836,184.799,-0.00151261,-0.00460571,-0.267086,0.603232,-0.334723,0.502479,2.71681e-06,-2.13841e-06,0.667175,-0.2343927735873942,0.6528135209786907,2.716813690462061e-06,0.828017415380538,-2.1384077135699897e-06,-0.2844637375513983
966,0.9563,49.5281,689.517,0.00454905,184.799,-0.0015124,-0.00460501,-0.26729,0.603692,-0.334978,0.502862,2.71294e-06,-2.15072e-06,0.667686,-0.23454894153191053,0.6534466697974848,2.712943679927804e-06,0.8288584968255144,-2.150717687166015e-06,-0.2846461760364273
967,0.9573,49.5281,689.517,0.0045402,184.799,-0.00151207,-0.00460421,-0.267494,0.604151,-0.335234,0.503246,2.70907e-06,-2.16302e-06,0.668197,-0.23470507762141535,0.6540817152396083,2.7090736696155915e-06,0.829698135557905,-2.1630176606501905e-06,-0.2848292831766479
968,0.9583,49.5281,689.517,0.00453102,184.799,-0.00151176,-0.00460341,-0.267698,0.604611,-0.335489,0.503629,2.7052e-06,-2.17532e-06,0.668708,-0.23486118186240668,0.6547153498698313,2.7052036590813344e-06,0.8305399903120105,-2.1753176340233438e-06,-0.2850116284594263
969,0.9593,49.5281,689.517,0.00452192,184.799,-0.00151155,-0.0046027,-0.267902,0.60507,-0.335745,0.504012,2.70134e-06,-2.18761e-06,0.669219,-0.23501725426138076,0.655349227228597,2.7013436485479048e-06,0.8313804010270678,-2.187607607173625e-06,-0.2851946420558008
970,0.9603,49.5281,689.517,0.00451272,184.799,-0.00151116,-0.00460186,-0.268106,0.605529,-0.336,0.504394,2.69748e-06,-2.19988e-06,0.669729,-0.23517329482483285,0.6559816914263692,2.6974836382365197e-06,0.8322211975791862,-2.199877580211229e-06,-0.28537689418394274
971,0.9613,49.5281,689.517,0.00450405,184.799,-0.00151095,-0.00460116,-0.268309,0.605988,-0.336255,0.504777,2.69362e-06,-2.21216e-06,0.670239,-0.23532853888817784,0.6566160538868422,2.69362362770309e-06,0.8330623801455057,-2.2121575531386384e-06,-0.28555909984371686
972,0.9623,49.528,689.517,0.00449558,184.799,-0.00151064,-0.00460038,-0.268513,0.606446,-0.33651,0.505159,2.68976e-06,-2.22442e-06,0.670749,-0.2354845159560428,0.6572490021048396,2.689763617391705e-06,0.8339021150002153,-2.2244175259533705e-06,-0.2857412590469711
973,0.9633,49.528,689.517,0.0044857,184.799,-0.00151038,-0.00459973,-0.268716,0.606905,-0.336765,0.505541,2.6859e-06,-2.23668e-06,0.671259,-0.2356396968479103,0.6578821921552436,2.68590360708032e-06,0.8347440692847268,-2.2366774986570803e-06,-0.2859233718055506
974,0.9643,49.528,689.517,0.00447773,184.799,-0.00150999,-0.00459886,-0.26892,0.607363,-0.33702,0.505923,2.68205e-06,-2.24893e-06,0.671768,-0.2357956104460256,0.6585156241304513,2.6820535967697623e-06,0.8355845745294677,-2.248927471137918e-06,-0.2861054381312972
975,0.9653,49.528,689.517,0.00446822,184.799,-0.00150984,-0.00459827,-0.269123,0.60782,-0.337274,0.506304,2.6782e-06,-2.26118e-06,0.672277,-0.23595072819212115,0.6591476389744275,2.6782035864592046e-06,0.8364236283892319,-2.2611774435077336e-06,-0.2862867443231507
976,0.9663,49.528,689.517,0.00445936,184.799,-0.00150944,-0.00459745,-0.269326,0.608278,-0.337529,0.506686,2.67436e-06,-2.27342e-06,0.672786,-0.2361058144525101,0.6597815544426615,2.6743635761494744e-06,0.8372649030482251,-2.2734174157656994e-06,-0.28646871800071827
977,0.9673,49.528,689.517,0.00445067,184.799,-0.00150919,-0.00459672,-0.269529,0.608735,-0.337783,0.507067,2.67051e-06,-2.28565e-06,0.673294,-0.23626086923358347,0.6604140516979802,2.6705135658389167e-06,0.8381047249936164,-2.2856473879118155e-06,-0.2866499319312027
978,0.9683,49.528,689.517,0.00444127,184.799,-0.00150891,-0.00459603,-0.269732,0.609192,-0.338037,0.507448,2.66667e-06,-2.29787e-06,0.673803,-0.236415892541731,0.6610467899806658,2.6666735555291865e-06,0.838944930825348,-2.297867359946082e-06,-0.28683109983919386
979,0.9693,49.528,689.517,0.0044331,184.799,-0.00150858,-0.00459523,-0.269935,0.609649,-0.338291,0.507829,2.66283e-06,-2.31009e-06,0.674311,-0.23657088438334073,0.6616797693825676,2.662833545441501e-06,0.8397855207188962,-2.3100873317583037e-06,-0.28701222173637997
980,0.9703,49.528,689.517,0.00442427,184.799,-0.00150831,-0.00459456,-0.270138,0.610106,-0.338545,0.50821,2.65899e-06,-2.3223e-06,0.674819,-0.23672584476480008,0.6623129899955693,2.6589935351317706e-06,0.8406264948498172,-2.322297303458676e-06,-0.28719329763444634
981,0.9713,49.528,689.517,0.0044158,184.799,-0.00150802,-0.00459378,-0.27034,0.610562,-0.338799,0.50859,2.65515e-06,-2.3345e-06,0.675326,-0.23688001057288677,0.6629447889659692,2.6551535248220404e-06,0.8414660119268154,-2.334497275047198e-06,-0.2873743275450753
982,0.9723,49.528,689.517,0.00440755,184.799,-0.00150773,-0.00459309,-0.270543,0.611019,-0.339053,0.508971,2.65132e-06,-2.3467e-06,0.675833,-0.23703490820809858,0.6635784916432594,2.651323514735182e-06,0.8423077542177293,-2.3466972465246982e-06,-0.28755531147994606
983,0.9733,49.528,689.517,0.004398,184.799,-0.0015074,-0.0045924,-0.270745,0.611475,-0.339306,0.509351,2.64749e-06,-2.35888e-06,0.67634,-0.23718901159167483,0.6642107715956664,2.647493504648324e-06,0.8431480381238228,-2.358877217889521e-06,-0.28773553718662837
984,0.9743,49.528,689.517,0.00439013,184.799,-0.00150709,-0.0045916,-0.270947,0.61193,-0.33956,0.509731,2.64366e-06,-2.37106e-06,0.676847,-0.2373430838495113,0.6648432918601119,2.6436634945614657e-06,0.84398686129897,-2.3710571890322996e-06,-0.2879164293859011
985,0.9753,49.528,689.517,0.00438029,184.799,-0.00150689,-0.00459103,-0.27115,0.612386,-0.339813,0.51011,2.63983e-06,-2.38324e-06,0.677354,-0.2374978874903887,0.6654743870527113,2.639833484252563e-06,0.8448279110524926,-2.3832371600640556e-06,-0.28809656374130965
986,0.9763,49.528,689.517,0.00437188,184.799,-0.00150646,-0.00459014,-0.271352,0.612841,-0.340066,0.51049,2.63601e-06,-2.39541e-06,0.67786,-0.23765189736159498,0.666107387582275,2.636013474166532e-06,0.8456674987437365,-2.395407130983962e-06,-0.288276652528491
987,0.9773,49.528,689.517,0.00436297,184.799,-0.00150624,-0.00458954,-0.271554,0.613296,-0.340319,0.510869,2.63219e-06,-2.40757e-06,0.678366,-0.23780587612594917,0.6667389619579529,2.6321934643025457e-06,0.846507468534301,-2.4075671017920186e-06,-0.28845669575897226
988,0.9783,49.528,689.517,0.00435541,184.799,-0.00150586,-0.00458873,-0.271756,0.613751,-0.340572,0.511249,2.62837e-06,-2.41972e-06,0.678872,-0.23795982378973424,0.6673724431172943,2.628373454216515e-06,0.8473478205980809,-2.4197170724882255e-06,-0.2886366934442779
989,0.9793,49.528,689.517,0.00434679,184.799,-0.0015057,-0.0045881,-0.271957,0.614206,-0.340825,0.511628,2.62455e-06,-2.43187e-06,0.679377,-0.23811297847259127,0.6680044970398884,2.624553444130484e-06,0.8481885551090498,-2.431867042962388e-06,-0.28881664559592946
990,0.9803,49.528,689.517,0.00433696,184.799,-0.00150527,-0.00458738,-0.272159,0.61466,-0.341078,0.512006,2.62074e-06,-2.44401e-06,0.679882,-0.23826686410796727,0.668635121920363,2.6207434340452807e-06,0.8490278232125132,-2.444007013435723e-06,-0.2889965522254454
991,0.9813,49.528,689.517,0.00432881,184.799,-0.00150499,-0.00458661,-0.272361,0.615114,-0.34133,0.512385,2.61693e-06,-2.45614e-06,0.680387,-0.23842071866158443,0.6692676544889211,2.616933424182122e-06,0.8498674724302022,-2.4561369836861857e-06,-0.28917570252039937
992,0.9823,49.528,689.517,0.00432057,184.799,-0.00150469,-0.00458594,-0.272562,0.615568,-0.341583,0.512763,2.61312e-06,-2.46827e-06,0.680892,-0.2385737807138819,0.6698987569331654,2.6131234140969184e-06,0.8507075029351814,-2.4682669538256263e-06,-0.28935551832000395
993,0.9833,49.5279,689.517,0.0043111,184.799,-0.00150442,-0.00458525,-0.272764,0.616022,-0.341835,0.513142,2.60931e-06,-2.48038e-06,0.681396,-0.23872757327660588,0.6705317685101597,2.6093134042337596e-06,0.8515479149005949,-2.48037692385239e-06,-0.289534578166899
994,0.9843,49.5279,689.517,0.00430333,184.799,-0.00150407,-0.00458448,-0.272965,0.616475,-0.342087,0.51352,2.60551e-06,-2.49249e-06,0.681901,-0.23888057365732396,0.6711633488798261,2.605513394371428e-06,0.8523868561118826,-2.492486893768131e-06,-0.28971359289639764
995,0.9853,49.5279,689.517,0.00429462,184.799,-0.00150381,-0.00458389,-0.273166,0.616928,-0.342339,0.513897,2.60171e-06,-2.5046e-06,0.682405,-0.23903354328805593,0.6717934962376673,2.6017133845090967e-06,0.8532261774496315,-2.5045968634618276e-06,-0.28989256251986806
996,0.9863,49.5279,689.517,0.00428577,184.799,-0.00150348,-0.0045832,-0.273367,0.617381,-0.342591,0.514275,2.59791e-06,-2.5167e-06,0.682908,-0.23918648217498195,0.6724255536305666,2.5979133746467653e-06,0.8540658790860771,-2.516696833154697e-06,-0.2900714870486756
997,0.9873,49.5279,689.517,0.00427778,184.799,-0.00150318,-0.0045825,-0.273568,0.617834,-0.342843,0.514652,2.59411e-06,-2.52879e-06,0.683412,-0.23933939032428098,0.6730561769293077,2.594113364784434e-06,0.8549059611935343,-2.528786802624694e-06,-0.29025036649418257
998,0.9883,49.5279,689.517,0.00426951,184.799,-0.00150289,-0.00458182,-0.273769,0.618286,-0.343094,0.51503,2.59032e-06,-2.54088e-06,0.683915,-0.23949226774213062,0.6736887117057282,2.59032335492293e-06,0.8557445681988995,-2.540876771983669e-06,-0.29042849129659465
999,0.9893,49.5279,689.517,0.00426014,184.799,-0.00150253,-0.00458113,-0.27397,0.618739,-0.343346,0.515407,2.58652e-06,-2.55295e-06,0.684418,-0.23964511443470726,0.674319811304841,2.5865233450605984e-06,0.8565854109247921,-2.5529467412299667e-06,-0.29060728078836573
